newXOutput 1

<Section columns = "stress_xx | stress_yy | stress_zz | stress_xy | stress_yz | stress_xz">
  1 0.00000 0.00000 0.00000 0.00000 0.00000 0.00000
  2 0.00000 0.00000 0.00000 0.00000 0.00000 0.00000
  3 0.00000 0.00000 0.00000 0.00000 0.00000 0.00000
  4 0.00000 0.00000 0.00000 0.00000 0.00000 0.00000
  5 0.00000 0.00000 0.00000 0.00000 0.00000 0.00000
  6 0.00000 0.00000 0.00000 0.00000 0.00000 0.00000
  7 0.00000 0.00000 0.00000 0.00000 0.00000 0.00000
  8 0.00000 0.00000 0.00000 0.00000 0.00000 0.00000
</Section>

newXOutput 2

<Section columns = "stress_xx | stress_yy | stress_zz | stress_xy | stress_yz | stress_xz">
  1 98.2102 -1.04897e-07 18.9948 5.83051e-16 -6.53462e-16 4.52698e-16
  2 98.2102 -1.04897e-07 18.9948 5.60936e-16 -7.63524e-16 1.68949e-15
  3 98.2102 -1.04897e-07 18.9948 1.01259e-15 -1.04004e-15 -2.98896e-16
  4 98.2102 -1.04897e-07 18.9948 9.30050e-16 -1.26677e-15 -1.11549e-15
  5 98.2102 -1.04897e-07 18.9948 5.17374e-16 -6.10285e-16 5.41496e-16
  6 98.2102 -1.04897e-07 18.9948 4.34838e-16 -6.02383e-16 2.02089e-15
  7 98.2102 -1.04897e-07 18.9948 1.19027e-15 -9.51090e-16 3.25023e-17
  8 98.2102 -1.04897e-07 18.9948 8.82242e-16 -9.34812e-16 1.21300e-16
</Section>

newXOutput 3

<Section columns = "stress_xx | stress_yy | stress_zz | stress_xy | stress_yz | stress_xz">
  1 194.770 -1.03314e-07 37.8846 1.14270e-34 -5.24405e-17 8.98782e-16
  2 194.770 -1.03314e-07 37.8846 4.26463e-34 3.88288e-18 3.35430e-15
  3 194.770 -1.03314e-07 37.8846 2.11948e-34 7.53259e-16 -5.93424e-16
  4 194.770 -1.03314e-07 37.8846 7.91001e-34 1.13407e-15 -2.21469e-15
  5 194.770 -1.03314e-07 37.8846 7.59510e-35 -5.24405e-17 1.07508e-15
  6 194.770 -1.03314e-07 37.8846 2.83453e-34 3.88288e-18 4.01225e-15
  7 194.770 -1.03314e-07 37.8846 6.89381e-35 7.53259e-16 6.45296e-17
  8 194.770 -1.03314e-07 37.8846 2.57280e-34 1.13407e-15 2.40828e-16
</Section>

newXOutput 4

<Section columns = "stress_xx | stress_yy | stress_zz | stress_xy | stress_yz | stress_xz">
  1 289.714 -1.01765e-07 56.6705 4.41094e-16 2.67303e-16 -6.93781e-16
  2 289.714 -1.01765e-07 56.6705 5.27616e-16 -3.38263e-17 -2.58922e-15
  3 289.714 -1.01765e-07 56.6705 1.64619e-15 1.56861e-15 -6.29720e-16
  4 289.714 -1.01765e-07 56.6705 1.96909e-15 3.92052e-16 -2.35015e-15
  5 289.714 -1.01765e-07 56.6705 -2.91234e-16 1.84137e-16 -1.04381e-15
  6 289.714 -1.01765e-07 56.6705 3.16691e-17 -3.44205e-16 -3.89556e-15
  7 289.714 -1.01765e-07 56.6705 -1.08690e-15 1.54632e-15 -1.93606e-15
  8 289.714 -1.01765e-07 56.6705 1.18191e-16 3.08886e-16 -7.22546e-15
</Section>

newXOutput 5

<Section columns = "stress_xx | stress_yy | stress_zz | stress_xy | stress_yz | stress_xz">
  1 383.077 -1.00250e-07 75.3535 -1.09067e-16 -3.70132e-16 1.77156e-15
  2 383.077 -1.00250e-07 75.3535 -2.92243e-17 -4.84696e-16 6.61157e-15
  3 383.077 -1.00250e-07 75.3535 -2.92243e-17 5.12119e-16 -1.16968e-15
  4 383.077 -1.00250e-07 75.3535 -7.83063e-18 4.24978e-16 -4.36531e-15
  5 383.077 -1.00250e-07 75.3535 -4.07042e-16 -2.81100e-16 2.11906e-15
  6 383.077 -1.00250e-07 75.3535 -1.09067e-16 -1.52424e-16 7.90844e-15
  7 383.077 -1.00250e-07 75.3535 -1.09067e-16 8.44391e-16 1.27193e-16
  8 383.077 -1.00250e-07 75.3535 -2.92243e-17 1.66503e-15 4.74689e-16
</Section>

newXOutput 6

<Section columns = "stress_xx | stress_yy | stress_zz | stress_xy | stress_yz | stress_xz">
  1 474.893 -9.87611e-08 93.9348 1.15624e-16 6.90357e-16 1.88506e-15
  2 474.893 -9.87611e-08 93.9348 3.09813e-17 -2.77100e-16 7.03516e-15
  3 474.893 -9.87611e-08 93.9348 4.31514e-16 1.29338e-15 -6.89981e-16
  4 474.893 -9.87611e-08 93.9348 1.15624e-16 6.13343e-16 -2.57505e-15
  5 474.893 -9.87611e-08 93.9348 4.31514e-16 1.11117e-15 2.57505e-15
  6 474.893 -9.87611e-08 93.9348 1.15624e-16 1.29338e-15 9.61020e-15
  7 474.893 -9.87611e-08 93.9348 1.61043e-15 1.71419e-15 1.88506e-15
  8 474.893 -9.87611e-08 93.9348 4.31514e-16 2.18383e-15 7.03516e-15
</Section>

newXOutput 7

<Section columns = "stress_xx | stress_yy | stress_zz | stress_xy | stress_yz | stress_xz">
  1 565.195 -9.72977e-08 112.415 1.06989e-15 1.70921e-15 -1.18650e-15
  2 565.195 -9.72977e-08 112.415 1.23734e-15 -1.37713e-15 -4.42808e-15
  3 565.195 -9.72977e-08 112.415 2.30648e-15 4.58975e-15 -4.42808e-15
  4 565.195 -9.72977e-08 112.415 2.93141e-15 -2.17394e-15 -1.65258e-14
  5 565.195 -9.72977e-08 112.415 -1.44310e-15 1.88686e-15 -1.18650e-15
  6 565.195 -9.72977e-08 112.415 -8.18167e-16 -7.14147e-16 -4.42808e-15
  7 565.195 -9.72977e-08 112.415 -2.59035e-15 5.25274e-15 -4.42808e-15
  8 565.195 -9.72977e-08 112.415 -2.58084e-16 3.00363e-16 -1.65258e-14
</Section>

newXOutput 8

<Section columns = "stress_xx | stress_yy | stress_zz | stress_xy | stress_yz | stress_xz">
  1 654.014 -9.58735e-08 130.796 -4.91145e-34 2.64567e-16 -1.42168e-15
  2 654.014 -9.58735e-08 130.796 -1.44464e-33 1.27137e-16 -8.85813e-15
  3 654.014 -9.58735e-08 130.796 -1.31602e-34 -8.27768e-17 -1.24331e-15
  4 654.014 -9.58735e-08 130.796 -3.87091e-34 2.90154e-15 -5.59193e-15
  5 654.014 -9.58735e-08 130.796 -2.13667e-34 2.52681e-16 -2.10181e-15
  6 654.014 -9.58735e-08 130.796 -4.09080e-34 8.27768e-17 -1.13964e-14
  7 654.014 -9.58735e-08 130.796 -5.72519e-35 -7.00632e-16 -3.78158e-15
  8 654.014 -9.58735e-08 130.796 -1.09613e-34 5.95675e-16 -1.50649e-14
</Section>

newXOutput 9

<Section columns = "stress_xx | stress_yy | stress_zz | stress_xy | stress_yz | stress_xz">
  1 741.381 -9.44774e-08 149.077 5.99778e-17 4.56859e-17 3.44266e-15
  2 741.381 -9.44774e-08 149.077 2.23840e-16 2.36965e-16 1.28482e-14
  3 741.381 -9.44774e-08 149.077 2.23840e-16 -7.55203e-16 -2.27303e-15
  4 741.381 -9.44774e-08 149.077 8.35383e-16 6.36323e-16 -8.48307e-15
  5 741.381 -9.44774e-08 149.077 2.23840e-16 2.22920e-16 4.11795e-15
  6 741.381 -9.44774e-08 149.077 8.35383e-16 8.98410e-16 1.53684e-14
  7 741.381 -9.44774e-08 149.077 8.35383e-16 -9.37577e-17 2.47172e-16
  8 741.381 -9.44774e-08 149.077 3.11769e-15 3.10487e-15 9.22459e-16
</Section>

newXOutput 10

<Section columns = "stress_xx | stress_yy | stress_zz | stress_xy | stress_yz | stress_xz">
  1 827.326 -9.31050e-08 167.261 5.93364e-17 -6.63145e-15 -5.19314e-16
  2 827.326 -9.31050e-08 167.261 2.21447e-16 -6.64982e-15 -2.73132e-15
  3 827.326 -9.31050e-08 167.261 2.21447e-16 -1.16049e-14 -5.69161e-15
  4 827.326 -9.31050e-08 167.261 8.26450e-16 -1.09966e-14 -2.42017e-14
  5 827.326 -9.31050e-08 167.261 2.21447e-16 -6.45442e-15 1.44727e-15
  6 827.326 -9.31050e-08 167.261 8.26450e-16 -5.98914e-15 2.44098e-15
  7 827.326 -9.31050e-08 167.261 8.26450e-16 -1.09442e-14 1.64777e-15
  8 827.326 -9.31050e-08 167.261 3.08435e-15 -8.53090e-15 -4.89840e-15
</Section>

newXOutput 11

<Section columns = "stress_xx | stress_yy | stress_zz | stress_xy | stress_yz | stress_xz">
  1 911.880 -9.17571e-08 185.348 -2.00480e-16 2.12971e-15 -3.06124e-15
  2 911.880 -9.17571e-08 185.348 -4.00961e-17 1.28430e-15 -1.14247e-14
  3 911.880 -9.17571e-08 185.348 1.49641e-16 4.82542e-15 -3.97069e-15
  4 911.880 -9.17571e-08 185.348 7.48203e-16 5.93606e-15 -1.48188e-14
  5 911.880 -9.17571e-08 185.348 -7.48203e-16 2.63649e-15 -2.39547e-15
  6 911.880 -9.17571e-08 185.348 -1.49641e-16 3.17563e-15 -8.94003e-15
  7 911.880 -9.17571e-08 185.348 5.58467e-16 5.57375e-15 -1.48602e-15
  8 911.880 -9.17571e-08 185.348 2.79233e-15 8.72886e-15 -5.54591e-15
</Section>

newXOutput 12

<Section columns = "stress_xx | stress_yy | stress_zz | stress_xy | stress_yz | stress_xz">
  1 995.071 -9.04420e-08 203.339 -1.16165e-16 1.13577e-15 -2.76374e-15
  2 995.071 -9.04420e-08 203.339 -4.33535e-16 4.16303e-16 -1.72202e-14
  3 995.071 -9.04420e-08 203.339 -4.33535e-16 3.95335e-15 -2.41698e-15
  4 995.071 -9.04420e-08 203.339 -1.61797e-15 6.87972e-15 -1.08707e-14
  5 995.071 -9.04420e-08 203.339 -4.33535e-16 1.11211e-15 -4.08590e-15
  6 995.071 -9.04420e-08 203.339 -1.61797e-15 3.27993e-16 -2.21546e-14
  7 995.071 -9.04420e-08 203.339 -1.61797e-15 2.72335e-15 -7.35139e-15
  8 995.071 -9.04420e-08 203.339 -6.03836e-15 2.28930e-15 -2.92861e-14
</Section>

newXOutput 13

<Section columns = "stress_xx | stress_yy | stress_zz | stress_xy | stress_yz | stress_xz">
  1 1076.93 -8.91469e-08 221.235 -3.05381e-34 4.68466e-17 -2.90850e-15
  2 1076.93 -8.91469e-08 221.235 2.16365e-33 4.25211e-17 -9.79382e-15
  3 1076.93 -8.91469e-08 221.235 2.97388e-34 2.43512e-15 3.35255e-15
  4 1076.93 -8.91469e-08 221.235 1.08263e-32 2.21028e-15 -7.28382e-15
  5 1076.93 -8.91469e-08 221.235 2.00432e-33 7.04821e-17 -5.44637e-15
  6 1076.93 -8.91469e-08 221.235 8.91730e-33 1.30730e-16 -1.50219e-14
  7 1076.93 -8.91469e-08 221.235 1.07836e-32 3.66371e-15 -6.11893e-15
  8 1076.93 -8.91469e-08 221.235 4.29962e-32 6.79543e-15 -2.67953e-14
</Section>

newXOutput 14

<Section columns = "stress_xx | stress_yy | stress_zz | stress_xy | stress_yz | stress_xz">
  1 1157.47 -8.78854e-08 239.036 1.47278e-15 -1.68226e-15 -1.73103e-16
  2 1157.47 -8.78854e-08 239.036 1.47278e-15 1.21696e-15 -8.99802e-15
  3 1157.47 -8.78854e-08 239.036 2.13408e-15 -7.55975e-16 -1.57119e-16
  4 1157.47 -8.78854e-08 239.036 2.13408e-15 6.02145e-15 -8.16718e-15
  5 1157.47 -8.78854e-08 239.036 2.13408e-15 -2.03469e-15 -2.60438e-16
  6 1157.47 -8.78854e-08 239.036 2.13408e-15 -9.83304e-17 -1.35378e-14
  7 1157.47 -8.78854e-08 239.036 1.03791e-15 -2.07126e-15 -4.83059e-16
  8 1157.47 -8.78854e-08 239.036 1.03791e-15 1.11273e-15 -2.51098e-14
</Section>

newXOutput 15

<Section columns = "stress_xx | stress_yy | stress_zz | stress_xy | stress_yz | stress_xz">
  1 1236.74 -8.66430e-08 256.745 3.61052e-33 -1.71845e-15 -2.10234e-15
  2 1236.74 -8.66430e-08 256.745 1.49651e-32 -7.65323e-16 -1.08369e-15
  3 1236.74 -8.66430e-08 256.745 1.17702e-32 -7.65323e-16 -8.33155e-15
  4 1236.74 -8.66430e-08 256.745 4.43262e-32 5.48380e-15 -2.92818e-14
  5 1236.74 -8.66430e-08 256.745 1.32764e-33 -2.07048e-15 -2.10234e-15
  6 1236.74 -8.66430e-08 256.745 6.44526e-33 -2.07911e-15 -1.08369e-15
  7 1236.74 -8.66430e-08 256.745 3.25032e-33 -2.07911e-15 -8.33155e-15
  8 1236.74 -8.66430e-08 256.745 1.25297e-32 5.80677e-16 -2.92818e-14
</Section>

newXOutput 16

<Section columns = "stress_xx | stress_yy | stress_zz | stress_xy | stress_yz | stress_xz">
  1 1314.75 -8.54216e-08 274.361 8.55540e-34 4.04203e-16 2.78373e-16
  2 1314.75 -8.54216e-08 274.361 2.29241e-34 1.77223e-15 1.44701e-14
  3 1314.75 -8.54216e-08 274.361 2.29241e-34 -2.16465e-15 7.45899e-17
  4 1314.75 -8.54216e-08 274.361 6.14250e-35 5.62982e-15 3.87724e-15
  5 1314.75 -8.54216e-08 274.361 8.55540e-34 5.25750e-17 2.78373e-16
  6 1314.75 -8.54216e-08 274.361 2.29241e-34 4.59933e-16 1.44701e-14
  7 1314.75 -8.54216e-08 274.361 2.29241e-34 -3.47694e-15 7.45899e-17
  8 1314.75 -8.54216e-08 274.361 6.14250e-35 7.32276e-16 3.87724e-15
</Section>

newXOutput 17

<Section columns = "stress_xx | stress_yy | stress_zz | stress_xy | stress_yz | stress_xz">
  1 1391.53 -8.42228e-08 291.885 -3.83786e-16 6.96153e-16 6.50971e-15
  2 1391.53 -8.42228e-08 291.885 -1.02835e-16 6.31874e-16 2.42946e-14
  3 1391.53 -8.42228e-08 291.885 -1.02835e-16 2.59808e-15 -4.29806e-15
  4 1391.53 -8.42228e-08 291.885 -2.75546e-17 2.35818e-15 -1.60406e-14
  5 1391.53 -8.42228e-08 291.885 -1.43231e-15 1.04738e-15 7.78660e-15
  6 1391.53 -8.42228e-08 291.885 -3.83786e-16 1.94268e-15 2.90600e-14
  7 1391.53 -8.42228e-08 291.885 -3.83786e-16 3.90888e-15 4.67376e-16
  8 1391.53 -8.42228e-08 291.885 -1.02835e-16 7.25017e-15 1.74427e-15
</Section>

newXOutput 18

<Section columns = "stress_xx | stress_yy | stress_zz | stress_xy | stress_yz | stress_xz">
  1 1467.11 -8.30541e-08 309.319 3.05322e-16 2.31439e-15 -1.02566e-14
  2 1467.11 -8.30541e-08 309.319 -2.70745e-16 1.17618e-15 -3.16544e-14
  3 1467.11 -8.30541e-08 309.319 1.49204e-15 4.68911e-15 -1.03571e-14
  4 1467.11 -8.30541e-08 309.319 3.05322e-16 8.69732e-15 -3.68783e-14
  5 1467.11 -8.30541e-08 309.319 1.13948e-15 2.64172e-15 -1.02566e-14
  6 1467.11 -8.30541e-08 309.319 -1.01043e-15 2.39780e-15 -3.16544e-14
  7 1467.11 -8.30541e-08 309.319 5.56835e-15 4.77681e-15 -1.03571e-14
  8 1467.11 -8.30541e-08 309.319 1.13948e-15 9.02465e-15 -3.68783e-14
</Section>

newXOutput 19

<Section columns = "stress_xx | stress_yy | stress_zz | stress_xy | stress_yz | stress_xz">
  1 1541.51 -8.19027e-08 326.663 4.49134e-15 -1.20850e-15 -1.00501e-14
  2 1541.51 -8.19027e-08 326.663 3.90143e-15 -4.24734e-15 -2.43510e-14
  3 1541.51 -8.19027e-08 326.663 1.05996e-14 -4.24734e-15 -1.02498e-14
  4 1541.51 -8.19027e-08 326.663 8.39807e-15 -2.18938e-15 -3.47273e-14
  5 1541.51 -8.19027e-08 326.663 3.99493e-15 -1.20850e-15 -1.00501e-14
  6 1541.51 -8.19027e-08 326.663 1.79336e-15 -4.24734e-15 -2.43510e-14
  7 1541.51 -8.19027e-08 326.663 1.32581e-14 -4.24734e-15 -1.02498e-14
  8 1541.51 -8.19027e-08 326.663 5.04174e-15 -2.18938e-15 -3.47273e-14
</Section>

newXOutput 20

<Section columns = "stress_xx | stress_yy | stress_zz | stress_xy | stress_yz | stress_xz">
  1 1614.74 -8.07759e-08 343.919 -1.20805e-32 -6.62753e-15 -1.11683e-14
  2 1614.74 -8.07759e-08 343.919 -4.50851e-32 -7.49206e-15 -4.16807e-14
  3 1614.74 -8.07759e-08 343.919 -3.26676e-32 -1.72898e-14 -1.36701e-14
  4 1614.74 -8.07759e-08 343.919 -1.21917e-31 -1.91779e-14 -5.10175e-14
  5 1614.74 -8.07759e-08 343.919 -1.42987e-32 -6.27749e-15 -1.36701e-14
  6 1614.74 -8.07759e-08 343.919 -5.33634e-32 -6.18569e-15 -5.10175e-14
  7 1614.74 -8.07759e-08 343.919 -4.09459e-32 -1.59835e-14 -2.30070e-14
  8 1614.74 -8.07759e-08 343.919 -1.52812e-31 -1.43025e-14 -8.58632e-14
</Section>

newXOutput 21

<Section columns = "stress_xx | stress_yy | stress_zz | stress_xy | stress_yz | stress_xz">
  1 1686.85 -7.96690e-08 361.086 4.00542e-15 -1.81453e-15 -3.29919e-16
  2 1686.85 -7.96690e-08 361.086 3.71645e-15 -4.81456e-15 -1.71494e-14
  3 1686.85 -7.96690e-08 361.086 8.91126e-15 -2.44356e-15 -2.99456e-16
  4 1686.85 -7.96690e-08 361.086 7.83282e-15 -1.81453e-15 -1.55659e-14
  5 1686.85 -7.96690e-08 361.086 2.44065e-15 -2.14076e-15 -4.96372e-16
  6 1686.85 -7.96690e-08 361.086 1.36221e-15 -6.03205e-15 -2.58018e-14
  7 1686.85 -7.96690e-08 361.086 7.49097e-15 -2.53097e-15 -9.20668e-16
  8 1686.85 -7.96690e-08 361.086 3.46620e-15 -2.14076e-15 -4.78570e-14
</Section>

newXOutput 22

<Section columns = "stress_xx | stress_yy | stress_zz | stress_xy | stress_yz | stress_xz">
  1 1757.84 -7.85794e-08 378.166 3.80263e-15 -2.67624e-15 1.29514e-14
  2 1757.84 -7.85794e-08 378.166 4.08867e-15 -2.42913e-15 8.73714e-15
  3 1757.84 -7.85794e-08 378.166 1.41916e-14 -5.51312e-15 8.73714e-15
  4 1757.84 -7.85794e-08 378.166 1.52591e-14 -5.00406e-15 -2.58645e-14
  5 1757.84 -7.85794e-08 378.166 1.38159e-15 -4.02648e-15 1.78876e-14
  6 1757.84 -7.85794e-08 378.166 2.44909e-15 -7.46829e-15 2.71591e-14
  7 1757.84 -7.85794e-08 378.166 5.15617e-15 -8.29464e-15 2.71591e-14
  8 1757.84 -7.85794e-08 378.166 9.14014e-15 -1.53848e-14 4.28871e-14
</Section>

newXOutput 23

<Section columns = "stress_xx | stress_yy | stress_zz | stress_xy | stress_yz | stress_xz">
  1 1827.74 -7.75171e-08 395.159 -3.07094e-15 -6.67813e-15 -4.59357e-15
  2 1827.74 -7.75171e-08 395.159 -2.78779e-15 -9.82253e-15 -4.33919e-15
  3 1827.74 -7.75171e-08 395.159 -5.33291e-15 -1.29031e-14 -4.33919e-15
  4 1827.74 -7.75171e-08 395.159 -4.27618e-15 -1.70473e-14 -1.27632e-14
  5 1827.74 -7.75171e-08 395.159 -5.33291e-15 -6.63139e-15 -7.04505e-15
  6 1827.74 -7.75171e-08 395.159 -4.27618e-15 -9.64809e-15 -1.34882e-14
  7 1827.74 -7.75171e-08 395.159 -7.27888e-15 -1.04735e-14 -1.34882e-14
  8 1827.74 -7.75171e-08 395.159 -3.33512e-15 -7.98013e-15 -4.69079e-14
</Section>

newXOutput 24

<Section columns = "stress_xx | stress_yy | stress_zz | stress_xy | stress_yz | stress_xz">
  1 1896.57 -7.64740e-08 412.066 3.99261e-33 -7.95751e-16 -3.23308e-16
  2 1896.57 -7.64740e-08 412.066 1.20689e-32 6.70488e-16 -1.68058e-14
  3 1896.57 -7.64740e-08 412.066 1.20689e-32 6.70488e-16 -2.93456e-16
  4 1896.57 -7.64740e-08 412.066 4.42828e-32 3.47770e-15 -1.52540e-14
  5 1896.57 -7.64740e-08 412.066 1.26673e-32 -9.87918e-17 -4.86426e-16
  6 1896.57 -7.64740e-08 412.066 4.44432e-32 3.27158e-15 -2.52848e-14
  7 1896.57 -7.64740e-08 412.066 4.44432e-32 3.27158e-15 -9.02220e-16
  8 1896.57 -7.64740e-08 412.066 1.65105e-31 1.31851e-14 -4.68981e-14
</Section>

newXOutput 25

<Section columns = "stress_xx | stress_yy | stress_zz | stress_xy | stress_yz | stress_xz">
  1 1964.36 -7.54444e-08 428.889 -2.74862e-33 1.12506e-15 -3.60651e-15
  2 1964.36 -7.54444e-08 428.889 -7.36490e-34 3.01458e-16 1.12839e-15
  3 1964.36 -7.54444e-08 428.889 -1.02580e-32 4.19876e-15 -1.73310e-15
  4 1964.36 -7.54444e-08 428.889 -2.74862e-33 1.12506e-15 -3.95530e-14
  5 1964.36 -7.54444e-08 428.889 -7.36490e-34 1.12506e-15 -3.44448e-15
  6 1964.36 -7.54444e-08 428.889 -1.97342e-34 3.01458e-16 9.55082e-15
  7 1964.36 -7.54444e-08 428.889 -2.74862e-33 4.19876e-15 -1.12839e-15
  8 1964.36 -7.54444e-08 428.889 -7.36490e-34 1.12506e-15 -8.12008e-15
</Section>

newXOutput 26

<Section columns = "stress_xx | stress_yy | stress_zz | stress_xy | stress_yz | stress_xz">
  1 2031.11 -7.44385e-08 445.628 -7.09981e-34 1.54056e-15 -8.94558e-15
  2 2031.11 -7.44385e-08 445.628 1.21821e-33 -1.77576e-15 -1.88942e-14
  3 2031.11 -7.44385e-08 445.628 1.21821e-33 5.18754e-15 5.16473e-15
  4 2031.11 -7.44385e-08 445.628 3.83833e-32 3.85806e-15 -1.35901e-14
  5 2031.11 -7.44385e-08 445.628 1.18705e-32 2.88481e-15 -1.35901e-14
  6 2031.11 -7.44385e-08 445.628 4.12376e-32 3.24104e-15 -2.84621e-14
  7 2031.11 -7.44385e-08 445.628 4.12376e-32 7.95672e-15 -1.21689e-14
  8 2031.11 -7.44385e-08 445.628 1.61869e-31 1.41928e-14 -4.92977e-14
</Section>

newXOutput 27

<Section columns = "stress_xx | stress_yy | stress_zz | stress_xy | stress_yz | stress_xz">
  1 2096.86 -7.34481e-08 462.283 0.00000 1.37683e-15 7.71437e-15
  2 2096.86 -7.34481e-08 462.283 0.00000 1.24970e-15 2.87904e-14
  3 2096.86 -7.34481e-08 462.283 0.00000 5.13840e-15 2.06706e-15
  4 2096.86 -7.34481e-08 462.283 0.00000 4.66395e-15 7.71437e-15
  5 2096.86 -7.34481e-08 462.283 0.00000 2.07148e-15 7.71437e-15
  6 2096.86 -7.34481e-08 462.283 0.00000 3.84217e-15 2.87904e-14
  7 2096.86 -7.34481e-08 462.283 0.00000 7.73087e-15 2.06706e-15
  8 2096.86 -7.34481e-08 462.283 0.00000 1.43392e-14 7.71437e-15
</Section>

newXOutput 28

<Section columns = "stress_xx | stress_yy | stress_zz | stress_xy | stress_yz | stress_xz">
  1 2161.62 -7.24767e-08 478.855 -2.91611e-13 -6.03413e-15 1.73861e-15
  2 2161.62 -7.24767e-08 478.855 -2.92150e-13 -3.09758e-15 -8.70085e-15
  3 2161.62 -7.24767e-08 478.855 -5.80262e-13 -1.86353e-14 -1.91694e-14
  4 2161.62 -7.24767e-08 478.855 -5.82272e-13 2.93656e-15 -8.53280e-14
  5 2161.62 -7.24767e-08 478.855 -2.90790e-13 -7.42190e-15 8.69306e-15
  6 2161.62 -7.24767e-08 478.855 -2.92800e-13 -8.27681e-15 9.59001e-15
  7 2161.62 -7.24767e-08 478.855 -5.73078e-13 -2.38145e-14 6.78498e-15
  8 2161.62 -7.24767e-08 478.855 -5.80580e-13 -1.63926e-14 -1.70656e-14
</Section>

newXOutput 29

<Section columns = "stress_xx | stress_yy | stress_zz | stress_xy | stress_yz | stress_xz">
  1 2225.41 -7.15254e-08 495.346 -4.57007e-14 -3.68905e-15 7.10317e-15
  2 2225.41 -7.15254e-08 495.346 -4.57007e-14 -9.62765e-15 -1.12831e-14
  3 2225.41 -7.15254e-08 495.346 -9.41444e-14 -9.62765e-15 1.50897e-14
  4 2225.41 -7.15254e-08 495.346 -9.41444e-14 -7.93899e-15 5.09985e-16
  5 2225.41 -7.15254e-08 495.346 -4.93595e-14 -4.38218e-15 7.10317e-15
  6 2225.41 -7.15254e-08 495.346 -4.93595e-14 -1.22144e-14 -1.12831e-14
  7 2225.41 -7.15254e-08 495.346 -1.01682e-13 -1.22144e-14 1.50897e-14
  8 2225.41 -7.15254e-08 495.346 -1.01682e-13 -1.75930e-14 5.09985e-16
</Section>

newXOutput 30

<Section columns = "stress_xx | stress_yy | stress_zz | stress_xy | stress_yz | stress_xz">
  1 2288.25 -7.05859e-08 511.755 9.23958e-33 -1.45347e-15 -1.60014e-14
  2 2288.25 -7.05859e-08 511.755 3.72220e-32 2.06778e-15 -4.74955e-14
  3 2288.25 -7.05859e-08 511.755 4.21857e-32 -9.89063e-16 -2.12953e-14
  4 2288.25 -7.05859e-08 511.755 1.58173e-31 1.17429e-14 -7.62002e-14
  5 2288.25 -7.05859e-08 511.755 -3.06692e-33 -2.79182e-15 -1.83415e-14
  6 2288.25 -7.05859e-08 511.755 -8.70648e-33 -2.92702e-15 -5.62289e-14
  7 2288.25 -7.05859e-08 511.755 9.81849e-33 -3.74610e-15 -3.00287e-14
  8 2288.25 -7.05859e-08 511.755 3.73771e-32 1.45347e-15 -1.08794e-13
</Section>

newXOutput 31

<Section columns = "stress_xx | stress_yy | stress_zz | stress_xy | stress_yz | stress_xz">
  1 2350.16 -6.96655e-08 528.084 3.07581e-15 5.51343e-15 -7.76571e-15
  2 2350.16 -6.96655e-08 528.084 2.55285e-15 -2.39437e-15 -6.74354e-17
  3 2350.16 -6.96655e-08 528.084 8.94374e-15 2.08358e-14 -5.56809e-15
  4 2350.16 -6.96655e-08 528.084 6.99204e-15 4.54551e-15 -3.90621e-14
  5 2350.16 -6.96655e-08 528.084 -2.76648e-15 5.51343e-15 -9.77908e-15
  6 2350.16 -6.96655e-08 528.084 -4.71818e-15 -2.39437e-15 7.44660e-15
  7 2350.16 -6.96655e-08 528.084 -8.62628e-16 2.08358e-14 -1.30821e-14
  8 2350.16 -6.96655e-08 528.084 -8.14648e-15 4.54551e-15 -1.10194e-14
</Section>

newXOutput 32

<Section columns = "stress_xx | stress_yy | stress_zz | stress_xy | stress_yz | stress_xz">
  1 2411.15 -6.87642e-08 544.334 -3.72536e-33 -1.19123e-15 -1.44870e-14
  2 2411.15 -6.87642e-08 544.334 -9.98208e-34 -3.19190e-16 -1.97406e-14
  3 2411.15 -6.87642e-08 544.334 -1.93228e-32 -8.05415e-15 -1.70081e-14
  4 2411.15 -6.87642e-08 544.334 -5.17753e-33 -2.15810e-15 -1.89518e-14
  5 2411.15 -6.87642e-08 544.334 1.47079e-34 -1.19123e-15 -1.46418e-14
  6 2411.15 -6.87642e-08 544.334 3.94097e-35 -3.19190e-16 -2.77833e-14
  7 2411.15 -6.87642e-08 544.334 -4.87065e-33 -8.05415e-15 -1.75856e-14
  8 2411.15 -6.87642e-08 544.334 -1.30509e-33 -2.15810e-15 -4.89675e-14
</Section>

newXOutput 33

<Section columns = "stress_xx | stress_yy | stress_zz | stress_xy | stress_yz | stress_xz">
  1 2471.24 -6.78801e-08 560.504 -1.75146e-16 8.79557e-16 2.69695e-15
  2 2471.24 -6.78801e-08 560.504 -6.53654e-16 -5.80731e-16 -3.87392e-14
  3 2471.24 -6.78801e-08 560.504 -4.69302e-17 4.09896e-15 -1.99692e-16
  4 2471.24 -6.78801e-08 560.504 -1.75146e-16 8.79557e-16 -5.83240e-14
  5 2471.24 -6.78801e-08 560.504 -6.53654e-16 2.35677e-16 2.69695e-15
  6 2471.24 -6.78801e-08 560.504 -2.43947e-15 -2.98372e-15 -3.87392e-14
  7 2471.24 -6.78801e-08 560.504 -1.75146e-16 3.92643e-15 -1.99692e-16
  8 2471.24 -6.78801e-08 560.504 -6.53654e-16 2.35677e-16 -5.83240e-14
</Section>

newXOutput 34

<Section columns = "stress_xx | stress_yy | stress_zz | stress_xy | stress_yz | stress_xz">
  1 2530.45 -6.70061e-08 576.596 -3.28720e-15 -3.35362e-15 4.46320e-15
  2 2530.45 -6.70061e-08 576.596 -3.28720e-15 -5.57323e-15 1.39596e-14
  3 2530.45 -6.70061e-08 576.596 -6.77170e-15 2.96050e-15 3.89320e-15
  4 2530.45 -6.70061e-08 576.596 -6.77170e-15 -4.59298e-16 4.46320e-15
  5 2530.45 -6.70061e-08 576.596 -6.77170e-15 -3.99681e-15 6.59049e-15
  6 2530.45 -6.70061e-08 576.596 -6.77170e-15 -7.97362e-15 1.45296e-14
  7 2530.45 -6.70061e-08 576.596 -1.39499e-14 2.78816e-15 1.18323e-14
  8 2530.45 -6.70061e-08 576.596 -1.39499e-14 -1.10248e-15 6.59049e-15
</Section>

newXOutput 35

<Section columns = "stress_xx | stress_yy | stress_zz | stress_xy | stress_yz | stress_xz">
  1 2588.80 -6.61521e-08 592.610 3.56279e-14 4.34306e-14 3.36013e-15
  2 2588.80 -6.61521e-08 592.610 3.51249e-14 9.47622e-14 3.80351e-14
  3 2588.80 -6.61521e-08 592.610 7.30865e-14 9.47622e-14 -2.69013e-15
  4 2588.80 -6.61520e-08 592.610 7.12091e-14 2.02079e-13 -3.78555e-14
  5 2588.80 -6.61521e-08 592.610 7.30865e-14 4.27420e-14 1.24650e-15
  6 2588.80 -6.61520e-08 592.610 7.12091e-14 9.21923e-14 3.74687e-14
  7 2588.80 -6.61520e-08 592.610 1.49411e-13 9.21923e-14 -1.05783e-14
  8 2588.80 -6.61517e-08 592.610 1.42404e-13 1.92488e-13 -3.99692e-14
</Section>

newXOutput 36

<Section columns = "stress_xx | stress_yy | stress_zz | stress_xy | stress_yz | stress_xz">
  1 2646.30 -6.53117e-08 608.548 4.55917e-17 -3.20899e-15 -5.66219e-15
  2 2646.30 -6.53117e-08 608.548 1.22163e-17 -1.45556e-15 2.38146e-15
  3 2646.30 -6.53117e-08 608.548 2.36989e-15 6.24601e-15 -2.28198e-14
  4 2646.30 -6.53117e-08 608.548 6.35011e-16 1.27899e-14 -7.88642e-14
  5 2646.30 -6.53117e-08 608.548 1.70151e-16 -3.89687e-15 -1.16043e-15
  6 2646.30 -6.53117e-08 608.548 4.55917e-17 -4.02276e-15 1.91823e-14
  7 2646.30 -6.53117e-08 608.548 8.84456e-15 3.67882e-15 -6.01894e-15
  8 2646.30 -6.53117e-08 608.548 2.36989e-15 3.20899e-15 -1.61627e-14
</Section>

newXOutput 37

<Section columns = "stress_xx | stress_yy | stress_zz | stress_xy | stress_yz | stress_xz">
  1 2702.97 -6.44832e-08 624.409 -2.02794e-32 -7.71015e-15 -2.69373e-14
  2 2702.97 -6.44832e-08 624.409 -4.65340e-32 -6.72548e-15 -6.10337e-14
  3 2702.97 -6.44832e-08 624.409 7.62578e-33 -9.75924e-15 -1.62443e-14
  4 2702.97 -6.44832e-08 624.409 -8.96943e-33 -3.86350e-15 -7.50816e-14
  5 2702.97 -6.44832e-08 624.409 -3.34744e-32 -8.35126e-15 -3.33473e-14
  6 2702.97 -6.44832e-08 624.409 -6.96590e-32 -9.11813e-15 -7.04989e-14
  7 2702.97 -6.44832e-08 624.409 -2.20290e-32 -9.93102e-15 -4.01666e-14
  8 2702.97 -6.44832e-08 624.409 -2.21644e-32 -4.50461e-15 -1.10406e-13
</Section>

newXOutput 38

<Section columns = "stress_xx | stress_yy | stress_zz | stress_xy | stress_yz | stress_xz">
  1 2758.81 -6.36728e-08 640.194 1.78918e-16 4.76786e-15 -1.15130e-14
  2 2758.81 -6.36728e-08 640.194 6.67730e-16 6.26628e-15 -6.61820e-14
  3 2758.81 -6.36728e-08 640.194 6.67730e-16 1.77939e-14 -1.64189e-14
  4 2758.81 -6.36728e-08 640.194 2.49200e-15 2.33861e-14 -6.74965e-14
  5 2758.81 -6.36728e-08 640.194 6.67730e-16 5.45426e-15 -1.15130e-14
  6 2758.81 -6.36728e-08 640.194 2.49200e-15 8.82797e-15 -6.61820e-14
  7 2758.81 -6.36728e-08 640.194 2.49200e-15 2.03556e-14 -1.64189e-14
  8 2758.81 -6.36728e-08 640.194 9.30028e-15 3.29464e-14 -6.74965e-14
</Section>

newXOutput 39

<Section columns = "stress_xx | stress_yy | stress_zz | stress_xy | stress_yz | stress_xz">
  1 2813.86 -6.28752e-08 655.904 6.05012e-15 -3.96392e-15 -8.01949e-15
  2 2813.86 -6.28752e-08 655.904 6.05012e-15 -7.11668e-15 -5.82219e-14
  3 2813.86 -6.28752e-08 655.904 1.24634e-14 -8.73899e-15 -2.82729e-14
  4 2813.86 -6.28752e-08 655.904 1.24634e-14 -3.96392e-15 -1.31196e-13
  5 2813.86 -6.28752e-08 655.904 1.62112e-15 -2.68444e-15 2.72601e-15
  6 2813.86 -6.28752e-08 655.904 1.62112e-15 -2.34161e-15 -3.23936e-14
  7 2813.86 -6.28752e-08 655.904 3.33955e-15 -8.39616e-15 1.18298e-14
  8 2813.86 -6.28752e-08 655.904 3.33955e-15 -2.68444e-15 -3.48040e-14
</Section>

newXOutput 40

<Section columns = "stress_xx | stress_yy | stress_zz | stress_xy | stress_yz | stress_xz">
  1 2868.12 -6.20912e-08 671.540 2.16584e-15 6.64742e-15 2.96132e-14
  2 2868.12 -6.20912e-08 671.540 2.16584e-15 -9.18686e-15 4.01045e-14
  3 2868.12 -6.20912e-08 671.540 5.75769e-15 2.45119e-14 4.01045e-14
  4 2868.12 -6.20912e-08 671.540 5.75769e-15 -1.06071e-14 4.56980e-14
  5 2868.12 -6.20912e-08 671.540 -4.98258e-15 7.28648e-15 2.52245e-14
  6 2868.12 -6.20912e-08 671.540 -4.98258e-15 -6.80186e-15 2.37257e-14
  7 2868.12 -6.20912e-08 671.540 -9.91696e-15 2.46832e-14 2.37257e-14
  8 2868.12 -6.20912e-08 671.540 -9.91696e-15 -9.96806e-15 -1.54287e-14
</Section>

newXOutput 41

<Section columns = "stress_xx | stress_yy | stress_zz | stress_xy | stress_yz | stress_xz">
  1 2921.60 -6.13200e-08 687.103 -3.95142e-32 -1.55028e-14 -1.99067e-14
  2 2921.60 -6.13200e-08 687.103 -8.54752e-32 -2.10939e-14 -2.87359e-14
  3 2921.60 -6.13200e-08 687.103 -8.54752e-32 -2.27128e-14 -2.87359e-14
  4 2921.60 -6.13200e-08 687.103 -3.02387e-31 -2.18407e-14 -9.50370e-14
  5 2921.60 -6.13200e-08 687.103 -2.36886e-32 -1.35418e-14 -1.77262e-14
  6 2921.60 -6.13200e-08 687.103 -2.64134e-32 -1.37755e-14 -2.05979e-14
  7 2921.60 -6.13200e-08 687.103 -2.64134e-32 -1.98171e-14 -2.05979e-14
  8 2921.60 -6.13200e-08 687.103 -8.19649e-32 -1.10341e-14 -6.46656e-14
</Section>

newXOutput 42

<Section columns = "stress_xx | stress_yy | stress_zz | stress_xy | stress_yz | stress_xz">
  1 2974.32 -6.05614e-08 702.592 6.43006e-16 -2.18511e-14 7.25780e-17
  2 2974.32 -6.05614e-08 702.592 1.72293e-16 -1.52407e-14 3.77266e-15
  3 2974.32 -6.05614e-08 702.592 2.39973e-15 -3.81979e-14 -1.35432e-15
  4 2974.32 -6.05614e-08 702.592 6.43006e-16 -1.87542e-14 -7.03988e-14
  5 2974.32 -6.05614e-08 702.592 2.39973e-15 -2.32181e-14 3.62890e-16
  6 2974.32 -6.05614e-08 702.592 6.43006e-16 -2.03423e-14 1.88633e-14
  7 2974.32 -6.05614e-08 702.592 8.95591e-15 -4.32995e-14 -2.70865e-16
  8 2974.32 -6.05614e-08 702.592 2.39973e-15 -3.77936e-14 -1.40798e-14
</Section>

newXOutput 43

<Section columns = "stress_xx | stress_yy | stress_zz | stress_xy | stress_yz | stress_xz">
  1 3026.30 -5.98220e-08 718.009 -3.08418e-15 -7.12001e-15 -8.53631e-15
  2 3026.30 -5.98220e-08 718.009 -3.55052e-15 -7.46139e-15 -3.18580e-14
  3 3026.30 -5.98220e-08 718.009 -4.02829e-15 -2.27501e-14 -7.74811e-15
  4 3026.30 -5.98220e-08 718.009 -5.76868e-15 -1.35818e-14 -2.89164e-14
  5 3026.30 -5.98220e-08 718.009 -4.02829e-15 -8.48554e-15 -1.28431e-14
  6 3026.30 -5.98220e-08 718.009 -5.76868e-15 -1.25576e-14 -4.79312e-14
  7 3026.30 -5.98220e-08 718.009 -3.98561e-15 -2.78463e-14 -2.38213e-14
  8 3026.30 -5.98220e-08 718.009 -1.04809e-14 -3.26011e-14 -8.89025e-14
</Section>

newXOutput 44

<Section columns = "stress_xx | stress_yy | stress_zz | stress_xy | stress_yz | stress_xz">
  1 3077.55 -5.90881e-08 733.354 -8.00241e-16 1.27271e-15 4.28005e-15
  2 3077.55 -5.90881e-08 733.354 -8.00241e-16 -2.88645e-15 1.59734e-14
  3 3077.55 -5.90881e-08 733.354 -2.98654e-15 4.74983e-15 1.59734e-14
  4 3077.55 -5.90881e-08 733.354 -2.98654e-15 -1.07724e-14 5.96134e-14
  5 3077.55 -5.90881e-08 733.354 -2.98654e-15 1.95476e-15 -4.28005e-15
  6 3077.55 -5.90881e-08 733.354 -2.98654e-15 -3.41022e-16 -1.59734e-14
  7 3077.55 -5.90881e-08 733.354 -1.11459e-14 7.29525e-15 -1.59734e-14
  8 3077.55 -5.90881e-08 733.354 -1.11459e-14 -1.27271e-15 -5.96134e-14
</Section>

newXOutput 45

<Section columns = "stress_xx | stress_yy | stress_zz | stress_xy | stress_yz | stress_xz">
  1 3128.08 -5.83677e-08 748.627 1.67551e-16 -8.14983e-15 8.92938e-15
  2 3128.08 -5.83677e-08 748.627 6.25310e-16 -1.46481e-14 6.07630e-15
  3 3128.08 -5.83677e-08 748.627 6.25310e-16 -3.15166e-14 -1.27034e-14
  4 3128.08 -5.83677e-08 748.627 2.33369e-15 -3.41217e-14 -7.21423e-14
  5 3128.08 -5.83677e-08 748.627 6.25310e-16 -5.51580e-15 1.71515e-14
  6 3128.08 -5.83677e-08 748.627 2.33369e-15 -4.81777e-15 2.30141e-14
  7 3128.08 -5.83677e-08 748.627 2.33369e-15 -2.60905e-14 1.79821e-14
  8 3128.08 -5.83677e-08 748.627 8.70944e-15 -1.38710e-14 -8.92938e-15
</Section>

newXOutput 46

<Section columns = "stress_xx | stress_yy | stress_zz | stress_xy | stress_yz | stress_xz">
  1 3177.90 -5.76611e-08 763.830 -2.15329e-15 -1.39460e-15 -1.71822e-14
  2 3177.90 -5.76611e-08 763.830 -2.15329e-15 -1.28250e-14 -3.36287e-14
  3 3177.90 -5.76611e-08 763.830 -3.29829e-15 8.05174e-16 3.69889e-15
  4 3177.90 -5.76611e-08 763.830 -3.29829e-15 -2.54342e-14 -2.53537e-14
  5 3177.90 -5.76611e-08 763.830 -3.29829e-15 1.23667e-15 -2.92978e-14
  6 3177.90 -5.76611e-08 763.830 -3.29829e-15 -3.00495e-15 -5.15189e-14
  7 3177.90 -5.76611e-08 763.830 -1.10399e-14 6.22564e-15 -4.15170e-14
  8 3177.90 -5.76611e-08 763.830 -1.10399e-14 -5.20472e-15 -9.21207e-14
</Section>

newXOutput 47

<Section columns = "stress_xx | stress_yy | stress_zz | stress_xy | stress_yz | stress_xz">
  1 3227.02 -5.69671e-08 778.963 1.64493e-16 6.44925e-16 1.41040e-14
  2 3227.02 -5.69671e-08 778.963 6.13895e-16 1.89697e-15 3.77916e-15
  3 3227.02 -5.69671e-08 778.963 6.13895e-16 9.50924e-15 8.74937e-15
  4 3227.02 -5.69671e-08 778.963 2.29109e-15 8.98264e-15 2.34439e-15
  5 3227.02 -5.69671e-08 778.963 6.13895e-16 2.00473e-15 1.80239e-14
  6 3227.02 -5.69671e-08 778.963 2.29109e-15 6.97182e-15 4.82949e-15
  7 3227.02 -5.69671e-08 778.963 2.29109e-15 1.45841e-14 2.33786e-14
  8 3227.02 -5.69671e-08 778.963 8.55046e-15 2.79222e-14 6.26427e-15
</Section>

newXOutput 48

<Section columns = "stress_xx | stress_yy | stress_zz | stress_xy | stress_yz | stress_xz">
  1 3275.47 -5.62849e-08 794.027 4.62376e-14 6.64265e-14 -5.25192e-15
  2 3275.47 -5.62845e-08 794.027 4.71282e-14 1.29804e-13 2.20891e-15
  3 3275.47 -5.62849e-08 794.027 9.08099e-14 1.45012e-13 -2.11663e-14
  4 3275.47 -5.62845e-08 794.027 9.41338e-14 2.72468e-13 -7.31499e-14
  5 3275.47 -5.62845e-08 794.027 9.08099e-14 6.77849e-14 -1.07635e-15
  6 3275.47 -5.62833e-08 794.027 9.41338e-14 1.34873e-13 1.77924e-14
  7 3275.47 -5.62845e-08 794.027 1.78834e-13 1.50082e-13 -5.58283e-15
  8 3275.47 -5.62833e-08 794.027 1.91239e-13 2.91388e-13 -1.49916e-14
</Section>

newXOutput 49

<Section columns = "stress_xx | stress_yy | stress_zz | stress_xy | stress_yz | stress_xz">
  1 3323.24 -5.56083e-08 809.021 -1.45986e-14 -1.97799e-14 -8.81394e-15
  2 3323.24 -5.56083e-08 809.021 -1.54811e-14 -4.39427e-14 -1.12179e-14
  3 3323.24 -5.56083e-08 809.021 -3.04423e-14 -3.79516e-14 1.20146e-14
  4 3323.24 -5.56083e-08 809.021 -3.37359e-14 -5.46877e-14 5.06473e-14
  5 3323.24 -5.56083e-08 809.021 -3.04423e-14 -1.98708e-14 -1.71141e-14
  6 3323.24 -5.56083e-08 809.021 -3.37359e-14 -4.42820e-14 -4.21945e-14
  7 3323.24 -5.56083e-08 809.021 -5.58280e-14 -4.26767e-14 -1.89620e-14
  8 3323.24 -5.56083e-08 809.021 -6.81199e-14 -7.23217e-14 -6.49592e-14
</Section>

newXOutput 50

<Section columns = "stress_xx | stress_yy | stress_zz | stress_xy | stress_yz | stress_xz">
  1 3370.36 -5.49480e-08 823.947 3.20104e-16 3.19512e-15 -7.14443e-15
  2 3370.36 -5.49480e-08 823.947 1.19464e-15 -9.82455e-15 -2.66634e-14
  3 3370.36 -5.49480e-08 823.947 1.19464e-15 3.74886e-15 -2.66634e-14
  4 3370.36 -5.49480e-08 823.947 4.45847e-15 -1.81241e-14 -9.95091e-14
  5 3370.36 -5.49480e-08 823.947 1.19464e-15 7.17100e-15 -7.14443e-15
  6 3370.36 -5.49480e-08 823.947 4.45847e-15 5.01361e-15 -2.66634e-14
  7 3370.36 -5.49480e-08 823.947 4.45847e-15 1.42058e-14 -2.66634e-14
  8 3370.36 -5.49480e-08 823.947 1.66393e-14 2.09017e-14 -9.95091e-14
</Section>

newXOutput 51

<Section columns = "stress_xx | stress_yy | stress_zz | stress_xy | stress_yz | stress_xz">
  1 3416.84 -5.43005e-08 838.806 -4.42503e-15 -2.38030e-15 1.02496e-15
  2 3416.84 -5.43005e-08 838.806 -5.29169e-15 -1.81053e-15 3.82520e-15
  3 3416.84 -5.43005e-08 838.806 -7.13619e-15 5.77013e-15 -1.91260e-14
  4 3416.84 -5.43005e-08 838.806 -1.03706e-14 2.34296e-14 -7.13791e-14
  5 3416.84 -5.43005e-08 838.806 -7.13619e-15 -3.73445e-15 5.12479e-15
  6 3416.84 -5.43005e-08 838.806 -1.03706e-14 -6.86431e-15 1.91260e-14
  7 3416.84 -5.43005e-08 838.806 -7.31320e-15 7.16357e-16 -3.82520e-15
  8 3416.84 -5.43005e-08 838.806 -1.93842e-14 4.56865e-15 -1.42758e-14
</Section>

newXOutput 52

<Section columns = "stress_xx | stress_yy | stress_zz | stress_xy | stress_yz | stress_xz">
  1 3462.67 -5.36584e-08 853.597 5.10852e-33 1.79608e-16 7.60418e-15
  2 3462.67 -5.36584e-08 853.597 1.90652e-32 1.63024e-16 2.83792e-14
  3 3462.67 -5.36584e-08 853.597 1.36882e-33 9.33619e-15 -1.72459e-14
  4 3462.67 -5.36584e-08 853.597 5.10852e-33 8.47413e-15 -6.43625e-14
  5 3462.67 -5.36584e-08 853.597 1.90652e-32 2.70226e-16 1.16792e-14
  6 3462.67 -5.36584e-08 853.597 7.11525e-32 5.01213e-16 4.35875e-14
  7 3462.67 -5.36584e-08 853.597 5.10852e-33 1.40466e-14 -2.03753e-15
  8 3462.67 -5.36584e-08 853.597 1.90652e-32 2.60535e-14 -7.60418e-15
</Section>

newXOutput 53

<Section columns = "stress_xx | stress_yy | stress_zz | stress_xy | stress_yz | stress_xz">
  1 3507.89 -5.30281e-08 868.321 -3.11560e-16 -1.28331e-14 -5.37798e-16
  2 3507.89 -5.30281e-08 868.321 -1.16276e-15 -1.26023e-14 -2.79552e-14
  3 3507.89 -5.30281e-08 868.321 -1.16276e-15 -3.43861e-15 -4.88141e-16
  4 3507.89 -5.30281e-08 868.321 -4.33947e-15 -3.37678e-15 -2.53739e-14
  5 3507.89 -5.30281e-08 868.321 -1.16276e-15 -1.40939e-14 -8.09132e-16
  6 3507.89 -5.30281e-08 868.321 -4.33947e-15 -1.73078e-14 -4.20593e-14
  7 3507.89 -5.30281e-08 868.321 -4.33947e-15 -3.77645e-15 -1.50077e-15
  8 3507.89 -5.30281e-08 868.321 -1.61951e-14 -4.63762e-15 -7.80113e-14
</Section>

newXOutput 54

<Section columns = "stress_xx | stress_yy | stress_zz | stress_xy | stress_yz | stress_xz">
  1 3552.49 -5.24087e-08 882.980 5.24283e-32 -3.37493e-16 1.96543e-14
  2 3552.49 -5.24087e-08 882.980 1.54211e-31 6.29771e-15 8.75318e-15
  3 3552.49 -5.24087e-08 882.980 1.95665e-31 -1.25954e-15 8.75318e-15
  4 3552.49 -5.24087e-08 882.980 5.75525e-31 2.35034e-14 -6.27195e-14
  5 3552.49 -5.24087e-08 882.980 2.28083e-32 -1.68747e-15 2.36805e-14
  6 3552.49 -5.24087e-08 882.980 4.36681e-32 1.25954e-15 2.37793e-14
  7 3552.49 -5.24087e-08 882.980 8.51218e-32 -6.29771e-15 2.37793e-14
  8 3552.49 -5.24087e-08 882.980 1.62972e-31 4.70067e-15 -6.64134e-15
</Section>

newXOutput 55

<Section columns = "stress_xx | stress_yy | stress_zz | stress_xy | stress_yz | stress_xz">
  1 3596.49 -5.18007e-08 897.572 3.06043e-16 -2.10515e-14 -4.60055e-15
  2 3596.49 -5.18007e-08 897.572 1.14217e-15 -2.72359e-14 2.46376e-14
  3 3596.49 -5.18008e-08 897.572 1.14217e-15 -4.39302e-14 -2.01711e-14
  4 3596.49 -5.18008e-08 897.572 4.26263e-15 -4.55873e-14 -6.40774e-14
  5 3596.49 -5.18019e-08 897.572 1.14217e-15 -1.97932e-14 -5.98398e-16
  6 3596.49 -5.18019e-08 897.572 4.26263e-15 -2.25400e-14 3.95739e-14
  7 3596.49 -5.18023e-08 897.572 4.26263e-15 -4.35931e-14 -5.23487e-15
  8 3596.49 -5.18023e-08 897.572 1.59084e-14 -4.43291e-14 -8.33462e-15
</Section>

newXOutput 56

<Section columns = "stress_xx | stress_yy | stress_zz | stress_xy | stress_yz | stress_xz">
  1 3639.89 -5.12027e-08 912.100 1.42385e-31 6.40204e-14 -1.42476e-14
  2 3639.89 -5.12027e-08 912.100 8.56471e-31 7.05188e-14 -4.99583e-14
  3 3639.89 -5.12027e-08 912.100 3.21193e-31 1.47530e-13 -1.01230e-14
  4 3639.89 -5.12027e-08 912.100 2.74357e-30 1.65834e-13 -9.77634e-14
  5 3639.89 -5.12027e-08 912.100 2.24474e-31 6.27635e-14 -1.79594e-14
  6 3639.89 -5.12027e-08 912.100 8.54769e-31 6.58277e-14 -5.09529e-14
  7 3639.89 -5.12027e-08 912.100 6.51249e-31 1.47193e-13 -2.39757e-14
  8 3639.89 -5.12027e-08 912.100 2.82566e-30 1.64577e-13 -1.01475e-13
</Section>

newXOutput 57

<Section columns = "stress_xx | stress_yy | stress_zz | stress_xy | stress_yz | stress_xz">
  1 3682.72 -5.06116e-08 926.563 2.14465e-32 2.94271e-14 6.02898e-15
  2 3682.72 -5.06116e-08 926.563 2.08885e-31 3.75110e-14 5.04031e-15
  3 3682.72 -5.06116e-08 926.563 1.53093e-31 5.41713e-14 3.61878e-16
  4 3682.72 -5.06116e-08 926.563 1.05221e-30 7.83986e-14 -6.38117e-14
  5 3682.72 -5.06116e-08 926.563 -2.88441e-33 2.81715e-14 6.29390e-15
  6 3682.72 -5.06116e-08 926.563 2.37592e-32 3.28247e-14 1.88107e-14
  7 3682.72 -5.06116e-08 926.563 3.87085e-32 5.38348e-14 1.35055e-15
  8 3682.72 -5.06116e-08 926.563 2.73307e-31 7.71429e-14 -1.24198e-14
</Section>

newXOutput 58

<Section columns = "stress_xx | stress_yy | stress_zz | stress_xy | stress_yz | stress_xz">
  1 3724.97 -5.00277e-08 940.962 6.02289e-15 -6.67566e-15 -1.41450e-14
  2 3724.97 -5.00277e-08 940.962 5.20867e-15 -2.83888e-15 -5.27899e-14
  3 3724.97 -5.00277e-08 940.962 5.46676e-15 -8.77477e-15 -8.77480e-15
  4 3724.97 -5.00277e-08 940.962 2.42805e-15 2.53115e-14 -3.27480e-14
  5 3724.97 -5.00277e-08 940.962 5.46676e-15 -7.93006e-15 -1.80763e-14
  6 3724.97 -5.00277e-08 940.962 2.42805e-15 -7.52037e-15 -6.74616e-14
  7 3724.97 -5.00277e-08 940.962 1.58442e-14 -9.11088e-15 -2.34465e-14
  8 3724.97 -5.00277e-08 940.962 4.50353e-15 2.40571e-14 -8.75036e-14
</Section>

newXOutput 59

<Section columns = "stress_xx | stress_yy | stress_zz | stress_xy | stress_yz | stress_xz">
  1 3766.66 -4.94605e-08 955.297 9.60081e-33 2.65703e-14 -5.18885e-16
  2 3766.66 -4.94605e-08 955.297 1.24845e-31 2.59887e-14 -2.69720e-14
  3 3766.66 -4.94601e-08 955.297 2.45749e-32 6.19936e-14 -4.70974e-16
  4 3766.66 -4.94601e-08 955.297 2.93205e-31 5.54821e-14 -2.44816e-14
  5 3766.66 -4.94596e-08 955.297 3.36941e-32 2.91665e-14 -7.80677e-16
  6 3766.66 -4.94596e-08 955.297 3.54862e-31 3.56779e-14 -4.05802e-14
  7 3766.66 -4.94595e-08 955.297 9.11421e-32 6.73418e-14 -1.44799e-15
  8 3766.66 -4.94595e-08 955.297 1.06450e-30 7.54422e-14 -7.52679e-14
</Section>

newXOutput 60

<Section columns = "stress_xx | stress_yy | stress_zz | stress_xy | stress_yz | stress_xz">
  1 3807.80 -4.88944e-08 969.569 1.01492e-31 -6.82542e-14 1.34631e-14
  2 3807.80 -4.88944e-08 969.569 1.47934e-31 -6.49733e-14 2.53565e-14
  3 3807.80 -4.88944e-08 969.569 1.54770e-31 -1.55107e-13 8.20355e-15
  4 3807.80 -4.88944e-08 969.569 7.38225e-32 -1.37732e-13 8.02580e-15
  5 3807.80 -4.88944e-08 969.569 2.02108e-31 -6.82542e-14 1.70879e-14
  6 3807.80 -4.88944e-08 969.569 1.74893e-31 -6.49733e-14 2.63278e-14
  7 3807.80 -4.88944e-08 969.569 5.30274e-31 -1.55107e-13 2.17317e-14
  8 3807.80 -4.88944e-08 969.569 1.74438e-31 -1.37732e-13 1.16506e-14
</Section>

newXOutput 61

<Section columns = "stress_xx | stress_yy | stress_zz | stress_xy | stress_yz | stress_xz">
  1 3848.39 -4.83442e-08 983.779 5.00637e-33 4.99033e-15 2.01733e-14
  2 3848.39 -4.83442e-08 983.779 6.45159e-32 -2.88117e-15 3.03720e-14
  3 3848.39 -4.83442e-08 983.779 -7.12231e-33 1.05402e-14 -8.30218e-15
  4 3848.39 -4.83442e-08 983.779 1.50191e-32 7.58130e-15 -5.88475e-14
  5 3848.39 -4.83442e-08 983.779 -1.50191e-32 7.58130e-15 2.76393e-14
  6 3848.39 -4.83442e-08 983.779 1.29032e-32 6.78846e-15 4.57520e-14
  7 3848.39 -4.83442e-08 983.779 -3.56116e-32 1.58777e-14 1.95611e-14
  8 3848.39 -4.83442e-08 983.779 -5.00637e-33 2.75010e-14 -1.44838e-15
</Section>

newXOutput 62

<Section columns = "stress_xx | stress_yy | stress_zz | stress_xy | stress_yz | stress_xz">
  1 3888.45 -4.78021e-08 997.927 3.51966e-32 1.99652e-15 -1.72400e-14
  2 3888.45 -4.78021e-08 997.927 1.12762e-31 9.59421e-16 -4.42849e-14
  3 3888.45 -4.78021e-08 997.927 1.44196e-31 -6.24664e-16 -2.27895e-14
  4 3888.45 -4.78021e-08 997.927 5.33166e-31 2.18961e-14 -7.96777e-14
  5 3888.45 -4.78021e-08 997.927 1.33602e-32 1.90682e-15 -1.34002e-14
  6 3888.45 -4.78021e-08 997.927 3.12673e-32 6.24664e-16 -2.99546e-14
  7 3888.45 -4.78021e-08 997.927 3.96901e-32 -5.28722e-15 -8.45922e-15
  8 3888.45 -4.78021e-08 997.927 1.43143e-31 4.49518e-15 -2.61964e-14
</Section>

newXOutput 63

<Section columns = "stress_xx | stress_yy | stress_zz | stress_xy | stress_yz | stress_xz">
  1 3927.98 -4.72625e-08 1012.01 2.00699e-15 3.90006e-14 -4.80146e-15
  2 3927.98 -4.72623e-08 1012.01 2.00699e-15 9.29172e-15 2.01945e-15
  3 3927.98 -4.72634e-08 1012.01 2.24478e-16 6.91991e-14 -1.93508e-14
  4 3927.98 -4.72633e-08 1012.01 2.24478e-16 4.01591e-14 -6.68758e-14
  5 3927.98 -4.72632e-08 1012.01 -1.72300e-14 3.76629e-14 -9.84029e-16
  6 3927.98 -4.72625e-08 1012.01 -1.72300e-14 4.29944e-15 1.62663e-14
  7 3927.98 -4.72636e-08 1012.01 -2.09021e-14 6.42069e-14 -5.10398e-15
  8 3927.98 -4.72634e-08 1012.01 -2.09021e-14 2.15276e-14 -1.37058e-14
</Section>

newXOutput 64

<Section columns = "stress_xx | stress_yy | stress_zz | stress_xy | stress_yz | stress_xz">
  1 3967.00 -4.67380e-08 1026.04 -9.64928e-15 2.28975e-14 3.61051e-14
  2 3967.00 -4.67380e-08 1026.04 -8.92825e-15 1.41534e-14 3.42075e-14
  3 3967.00 -4.67380e-08 1026.04 -1.58746e-14 3.65961e-14 1.29611e-14
  4 3967.00 -4.67380e-08 1026.04 -1.56814e-14 3.97295e-14 -5.21669e-14
  5 3967.00 -4.67380e-08 1026.04 -1.92865e-14 2.28975e-14 3.99004e-14
  6 3967.00 -4.67380e-08 1026.04 -1.65956e-14 1.41534e-14 4.83717e-14
  7 3967.00 -4.67380e-08 1026.04 -2.47909e-14 3.65961e-14 2.71254e-14
  8 3967.00 -4.67380e-08 1026.04 -2.40698e-14 3.97295e-14 6.94586e-16
</Section>

newXOutput 65

<Section columns = "stress_xx | stress_yy | stress_zz | stress_xy | stress_yz | stress_xz">
  1 4005.51 -4.62160e-08 1040.00 -6.39431e-15 3.39505e-14 2.87626e-14
  2 4005.51 -4.62160e-08 1040.00 -7.16049e-15 2.45804e-14 2.92252e-15
  3 4005.51 -4.62160e-08 1040.00 -1.15711e-14 8.43677e-14 2.85099e-14
  4 4005.51 -4.62160e-08 1040.00 -1.44305e-14 5.45024e-14 -1.02164e-14
  5 4005.51 -4.62160e-08 1040.00 -1.15711e-14 3.39505e-14 2.85099e-14
  6 4005.51 -4.62160e-08 1040.00 -1.44305e-14 2.45804e-14 -1.02164e-14
  7 4005.51 -4.62160e-08 1040.00 -2.50320e-14 8.43677e-14 2.75665e-14
  8 4005.51 -4.62160e-08 1040.00 -3.57035e-14 5.45024e-14 -5.92517e-14
</Section>

newXOutput 66

<Section columns = "stress_xx | stress_yy | stress_zz | stress_xy | stress_yz | stress_xz">
  1 4043.52 -4.57048e-08 1053.91 1.03770e-15 -6.96582e-15 2.75087e-15
  2 4043.52 -4.57048e-08 1053.91 2.78052e-16 2.86673e-15 -1.37667e-14
  3 4043.52 -4.57048e-08 1053.91 3.87276e-15 -1.04874e-14 -3.03302e-14
  4 4043.52 -4.57048e-08 1053.91 1.03770e-15 2.03200e-14 -1.35008e-13
  5 4043.52 -4.57048e-08 1053.91 3.87276e-15 -9.54381e-15 1.37543e-14
  6 4043.52 -4.57048e-08 1053.91 1.03770e-15 -6.75445e-15 1.51735e-14
  7 4043.52 -4.57048e-08 1053.91 1.44533e-14 -1.57981e-14 1.07353e-14
  8 4043.52 -4.57048e-08 1053.91 3.87276e-15 5.00124e-16 -2.70015e-14
</Section>

newXOutput 67

<Section columns = "stress_xx | stress_yy | stress_zz | stress_xy | stress_yz | stress_xz">
  1 4081.04 -4.51985e-08 1067.75 1.04344e-14 4.89767e-14 -2.46691e-14
  2 4081.04 -4.51976e-08 1067.75 9.68120e-15 2.26934e-14 -5.31016e-14
  3 4081.04 -4.51985e-08 1067.75 3.13561e-14 1.25536e-13 -1.13396e-14
  4 4081.04 -4.51976e-08 1067.75 2.85451e-14 6.38937e-14 -3.18793e-14
  5 4081.04 -4.51976e-08 1067.75 -2.37559e-15 5.02198e-14 -2.83991e-14
  6 4081.04 -4.51974e-08 1067.75 -5.18657e-15 2.73327e-14 -6.70223e-14
  7 4081.04 -4.51976e-08 1067.75 3.70787e-15 1.25869e-13 -2.52602e-14
  8 4081.04 -4.51974e-08 1067.75 -6.78283e-15 6.51368e-14 -8.38320e-14
</Section>

newXOutput 68

<Section columns = "stress_xx | stress_yy | stress_zz | stress_xy | stress_yz | stress_xz">
  1 4118.08 -4.47044e-08 1081.54 -2.47036e-14 -4.81853e-14 -4.15806e-14
  2 4118.08 -4.47044e-08 1081.54 -2.47036e-14 -3.57994e-14 -1.16439e-13
  3 4118.08 -4.47044e-08 1081.54 -4.87272e-14 -9.54081e-14 -3.33936e-14
  4 4118.08 -4.47044e-08 1081.54 -4.87272e-14 -5.93619e-14 -1.14246e-13
  5 4118.08 -4.47044e-08 1081.54 -1.94618e-14 -4.81853e-14 -4.15806e-14
  6 4118.08 -4.47044e-08 1081.54 -1.94618e-14 -3.57994e-14 -1.16439e-13
  7 4118.08 -4.47044e-08 1081.54 -3.20200e-14 -9.54081e-14 -3.33936e-14
  8 4118.08 -4.47044e-08 1081.54 -3.20200e-14 -5.93619e-14 -1.14246e-13
</Section>

newXOutput 69

<Section columns = "stress_xx | stress_yy | stress_zz | stress_xy | stress_yz | stress_xz">
  1 4154.64 -4.42178e-08 1095.26 6.80423e-15 1.43665e-14 2.85980e-14
  2 4154.64 -4.42178e-08 1095.26 7.54475e-15 -1.73300e-14 2.83058e-14
  3 4154.64 -4.42178e-08 1095.26 6.61002e-15 1.98884e-14 2.83058e-14
  4 4154.64 -4.42178e-08 1095.26 9.37369e-15 -2.21426e-14 1.31158e-14
  5 4154.64 -4.42178e-08 1095.26 -9.97205e-15 1.56962e-14 2.85980e-14
  6 4154.64 -4.42178e-08 1095.26 -7.20837e-15 -1.23676e-14 2.83058e-14
  7 4154.64 -4.42178e-08 1095.26 -1.35283e-14 2.48509e-14 2.83058e-14
  8 4154.64 -4.42178e-08 1095.26 -3.21410e-15 -3.62244e-15 1.31158e-14
</Section>

newXOutput 70

<Section columns = "stress_xx | stress_yy | stress_zz | stress_xy | stress_yz | stress_xz">
  1 4190.73 -4.37376e-08 1108.93 0.00000 1.52699e-15 -1.45345e-14
  2 4190.73 -4.37376e-08 1108.93 0.00000 6.69507e-15 -5.42435e-14
  3 4190.73 -4.37376e-08 1108.93 0.00000 -8.17756e-15 -1.31924e-14
  4 4190.73 -4.37376e-08 1108.93 0.00000 2.12682e-14 -4.92349e-14
  5 4190.73 -4.37376e-08 1108.93 0.00000 1.98617e-16 -2.18675e-14
  6 4190.73 -4.37376e-08 1108.93 0.00000 1.73752e-15 -8.16108e-14
  7 4190.73 -4.37376e-08 1108.93 0.00000 -1.31351e-14 -4.05598e-14
  8 4190.73 -4.37376e-08 1108.93 0.00000 2.76637e-15 -1.51371e-13
</Section>

newXOutput 71

<Section columns = "stress_xx | stress_yy | stress_zz | stress_xy | stress_yz | stress_xz">
  1 4226.36 -4.32601e-08 1122.54 -7.99398e-15 -1.63937e-14 -9.96033e-15
  2 4226.36 -4.32601e-08 1122.54 -7.31460e-15 -3.29593e-14 -3.71725e-14
  3 4226.36 -4.32601e-08 1122.54 -1.46634e-14 -1.81014e-14 -3.71725e-14
  4 4226.36 -4.32601e-08 1122.54 -1.44814e-14 -3.42582e-14 -1.38730e-13
  5 4226.36 -4.32601e-08 1122.54 -1.78782e-14 -1.50667e-14 -2.66886e-15
  6 4226.36 -4.32601e-08 1122.54 -1.53428e-14 -2.80067e-14 -9.96033e-15
  7 4226.36 -4.32601e-08 1122.54 -2.32799e-14 -1.31487e-14 -9.96033e-15
  8 4226.36 -4.32601e-08 1122.54 -2.26006e-14 -1.57747e-14 -3.71725e-14
</Section>

newXOutput 72

<Section columns = "stress_xx | stress_yy | stress_zz | stress_xy | stress_yz | stress_xz">
  1 4261.54 -4.27972e-08 1136.09 3.54600e-32 -8.73550e-15 3.86796e-15
  2 4261.54 -4.27972e-08 1136.09 -1.45933e-32 -3.90905e-15 -8.15955e-14
  3 4261.54 -4.27972e-08 1136.09 8.55133e-32 -1.71840e-14 -4.20606e-16
  4 4261.54 -4.27972e-08 1136.09 1.64570e-32 -5.02467e-15 -9.76006e-14
  5 4261.54 -4.27972e-08 1136.09 1.64570e-32 -9.97244e-15 3.86796e-15
  6 4261.54 -4.27972e-08 1136.09 -8.55133e-32 -8.52537e-15 -8.15955e-14
  7 4261.54 -4.27972e-08 1136.09 8.04215e-32 -1.75154e-14 -4.20606e-16
  8 4261.54 -4.27972e-08 1136.09 -2.54591e-33 -6.26162e-15 -9.76006e-14
</Section>

newXOutput 73

<Section columns = "stress_xx | stress_yy | stress_zz | stress_xy | stress_yz | stress_xz">
  1 4296.28 -4.23415e-08 1149.59 9.70983e-33 -4.58961e-15 1.75966e-14
  2 4296.28 -4.23415e-08 1149.59 1.85901e-32 -2.79662e-15 2.80161e-14
  3 4296.28 -4.23415e-08 1149.59 2.60174e-33 -8.64413e-15 -1.23426e-14
  4 4296.28 -4.23415e-08 1149.59 4.98121e-33 -2.73602e-15 -5.61529e-14
  5 4296.28 -4.23415e-08 1149.59 2.23195e-32 -5.82533e-15 2.12013e-14
  6 4296.28 -4.23415e-08 1149.59 6.56500e-32 -7.40840e-15 4.14690e-14
  7 4296.28 -4.23415e-08 1149.59 5.98049e-33 -8.97524e-15 1.11029e-15
  8 4296.28 -4.23415e-08 1149.59 1.75909e-32 -3.97174e-15 -5.94601e-15
</Section>

newXOutput 74

<Section columns = "stress_xx | stress_yy | stress_zz | stress_xy | stress_yz | stress_xz">
  1 4330.57 -4.18822e-08 1163.03 7.27549e-16 8.24432e-15 1.07212e-14
  2 4330.57 -4.18822e-08 1163.03 -6.45155e-16 2.62848e-15 -1.67217e-15
  3 4330.57 -4.18822e-08 1163.03 3.55535e-15 1.58773e-14 2.56828e-15
  4 4330.57 -4.18822e-08 1163.03 7.27549e-16 2.60561e-14 -1.62736e-14
  5 4330.57 -4.18822e-08 1163.03 2.71525e-15 8.15569e-15 1.04811e-14
  6 4330.57 -4.18822e-08 1163.03 -2.40775e-15 2.29769e-15 -1.41534e-14
  7 4330.57 -4.18822e-08 1163.03 1.32688e-14 1.12701e-14 1.67217e-15
  8 4330.57 -4.18822e-08 1163.03 2.71525e-15 8.86158e-15 -6.28541e-14
</Section>

newXOutput 75

<Section columns = "stress_xx | stress_yy | stress_zz | stress_xy | stress_yz | stress_xz">
  1 4364.44 -4.14384e-08 1176.41 4.47524e-31 6.42258e-14 -4.00500e-14
  2 4364.44 -4.14384e-08 1176.41 1.12981e-30 6.90381e-14 -9.64979e-14
  3 4364.44 -4.14384e-08 1176.41 9.99412e-31 1.15001e-13 -5.23740e-14
  4 4364.44 -4.14384e-08 1176.41 2.56111e-30 1.27124e-13 -1.26755e-13
  5 4364.44 -4.14384e-08 1176.41 4.46659e-31 6.29925e-14 -4.02888e-14
  6 4364.44 -4.14384e-08 1176.41 1.34297e-30 6.44353e-14 -1.08909e-13
  7 4364.44 -4.14384e-08 1176.41 1.06110e-30 1.14670e-13 -5.32651e-14
  8 4364.44 -4.14384e-08 1176.41 3.59890e-30 1.25891e-13 -1.73074e-13
</Section>

newXOutput 76

<Section columns = "stress_xx | stress_yy | stress_zz | stress_xy | stress_yz | stress_xz">
  1 4397.88 -4.10000e-08 1189.74 1.71260e-17 3.40403e-16 -2.75162e-14
  2 4397.88 -4.10000e-08 1189.74 6.39151e-17 1.76561e-15 -5.15516e-14
  3 4397.88 -4.10000e-08 1189.74 8.90223e-16 -5.62698e-15 1.10447e-14
  4 4397.88 -4.10000e-08 1189.74 3.32236e-15 4.74121e-15 -2.44466e-14
  5 4397.88 -4.10000e-08 1189.74 6.39151e-17 1.66096e-15 -4.42889e-14
  6 4397.88 -4.10000e-08 1189.74 2.38534e-16 6.69400e-15 -6.83243e-14
  7 4397.88 -4.10000e-08 1189.74 3.32236e-15 -6.98584e-16 -5.15516e-14
  8 4397.88 -4.10000e-08 1189.74 1.23992e-14 2.31342e-14 -8.70430e-14
</Section>

newXOutput 77

<Section columns = "stress_xx | stress_yy | stress_zz | stress_xy | stress_yz | stress_xz">
  1 4430.90 -4.05626e-08 1203.01 2.53564e-16 -3.78106e-15 -5.01475e-14
  2 4430.90 -4.05626e-08 1203.01 9.46313e-16 6.59636e-16 -1.13513e-13
  3 4430.90 -4.05626e-08 1203.01 9.46313e-16 -1.41111e-14 -3.45855e-14
  4 4430.90 -4.05626e-08 1203.01 3.53169e-15 2.46179e-15 -1.09343e-13
  5 4430.90 -4.05626e-08 1203.01 9.46313e-16 -2.46179e-15 -5.01475e-14
  6 4430.90 -4.05626e-08 1203.01 3.53169e-15 5.58322e-15 -1.13513e-13
  7 4430.90 -4.05626e-08 1203.01 3.53169e-15 -9.18754e-15 -3.45855e-14
  8 4430.90 -4.05626e-08 1203.01 1.31804e-14 2.08369e-14 -1.09343e-13
</Section>

newXOutput 78

<Section columns = "stress_xx | stress_yy | stress_zz | stress_xy | stress_yz | stress_xz">
  1 4463.52 -4.01415e-08 1216.23 9.38579e-16 -1.54895e-15 -1.04527e-14
  2 4463.52 -4.01415e-08 1216.23 2.51491e-16 1.14690e-16 3.27039e-15
  3 4463.52 -4.01415e-08 1216.23 3.50282e-15 2.22493e-14 -5.02299e-15
  4 4463.52 -4.01415e-08 1216.23 9.38579e-16 3.34975e-14 -1.14636e-13
  5 4463.52 -4.01415e-08 1216.23 3.50282e-15 -1.54895e-15 -9.98306e-15
  6 4463.52 -4.01415e-08 1216.23 9.38579e-16 1.14690e-16 2.76809e-14
  7 4463.52 -4.01415e-08 1216.23 1.30727e-14 2.22493e-14 -3.27039e-15
  8 4463.52 -4.01415e-08 1216.23 3.50282e-15 3.34975e-14 -2.35342e-14
</Section>

newXOutput 79

<Section columns = "stress_xx | stress_yy | stress_zz | stress_xy | stress_yz | stress_xz">
  1 4495.73 -3.97204e-08 1229.39 1.27494e-14 2.95133e-14 -1.54443e-14
  2 4495.73 -3.97203e-08 1229.39 1.14321e-14 5.21642e-14 -5.20056e-14
  3 4495.73 -3.97203e-08 1229.39 2.62640e-14 7.58350e-14 1.78022e-14
  4 4495.73 -3.97202e-08 1229.39 2.35503e-14 1.14280e-13 -3.86774e-14
  5 4495.73 -3.97203e-08 1229.39 2.54578e-14 2.82848e-14 -2.89205e-14
  6 4495.73 -3.97202e-08 1229.39 2.05415e-14 4.75794e-14 -7.97669e-14
  7 4495.73 -3.97202e-08 1229.39 5.24437e-14 7.55058e-14 -3.24918e-14
  8 4495.73 -3.97199e-08 1229.39 4.23159e-14 1.13052e-13 -1.42284e-13
</Section>

newXOutput 80

<Section columns = "stress_xx | stress_yy | stress_zz | stress_xy | stress_yz | stress_xz">
  1 4527.54 -3.93074e-08 1242.50 -1.22008e-14 -1.09561e-14 2.55267e-14
  2 4527.54 -3.93071e-08 1242.50 -1.28767e-14 -4.03956e-14 1.00869e-13
  3 4527.54 -3.93074e-08 1242.50 -2.35900e-14 -1.98601e-14 5.38544e-14
  4 4527.54 -3.93074e-08 1242.50 -2.61127e-14 -4.84774e-14 9.64507e-14
  5 4527.54 -3.93071e-08 1242.50 -2.35900e-14 -1.10443e-14 1.55913e-14
  6 4527.54 -3.93061e-08 1242.50 -2.61127e-14 -4.07245e-14 8.61981e-14
  7 4527.54 -3.93074e-08 1242.50 -4.28340e-14 -2.44405e-14 1.67752e-14
  8 4527.54 -3.93071e-08 1242.50 -5.22489e-14 -6.55717e-14 4.16985e-14
</Section>

newXOutput 81

<Section columns = "stress_xx | stress_yy | stress_zz | stress_xy | stress_yz | stress_xz">
  1 4558.96 -3.88982e-08 1255.56 -9.59457e-15 -1.68239e-14 -1.87222e-14
  2 4558.96 -3.88982e-08 1255.56 -8.92408e-15 -4.12101e-14 -6.43010e-14
  3 4558.96 -3.88982e-08 1255.56 -2.12965e-14 -4.12101e-14 4.74036e-15
  4 4558.96 -3.88982e-08 1255.56 -1.87942e-14 -9.70474e-14 -8.62707e-14
  5 4558.96 -3.88982e-08 1255.56 -2.12965e-14 -1.55097e-14 -2.51554e-14
  6 4558.96 -3.88982e-08 1255.56 -1.87942e-14 -3.63056e-14 -6.60248e-14
  7 4558.96 -3.88982e-08 1255.56 -4.95866e-14 -3.63056e-14 -1.92686e-14
  8 4558.96 -3.88982e-08 1255.56 -4.02478e-14 -7.87435e-14 -9.27039e-14
</Section>

newXOutput 82

<Section columns = "stress_xx | stress_yy | stress_zz | stress_xy | stress_yz | stress_xz">
  1 4589.99 -3.84953e-08 1268.56 -1.74521e-14 -3.36963e-14 -2.39307e-14
  2 4589.99 -3.84953e-08 1268.56 -1.67870e-14 -1.89572e-14 -5.34946e-14
  3 4589.99 -3.84953e-08 1268.56 -3.36186e-14 -6.61617e-14 -1.51069e-14
  4 4589.99 -3.84953e-08 1268.56 -3.11364e-14 -1.46216e-14 -4.67829e-14
  5 4589.99 -3.84953e-08 1268.56 -7.55618e-15 -2.99335e-14 -3.07880e-14
  6 4589.99 -3.84953e-08 1268.56 -5.07404e-15 -4.91431e-15 -7.90863e-14
  7 4589.99 -3.84953e-08 1268.56 -6.85848e-15 -6.06054e-14 -4.06987e-14
  8 4589.99 -3.84953e-08 1268.56 2.40496e-15 6.11453e-15 -1.42293e-13
</Section>

newXOutput 83

<Section columns = "stress_xx | stress_yy | stress_zz | stress_xy | stress_yz | stress_xz">
  1 4620.65 -3.81015e-08 1281.51 8.14495e-15 4.67079e-14 -1.52222e-14
  2 4620.65 -3.81015e-08 1281.51 7.48521e-15 2.50402e-14 -5.68101e-14
  3 4620.65 -3.81015e-08 1281.51 2.71989e-14 1.07361e-13 1.95458e-14
  4 4620.65 -3.81015e-08 1281.51 2.47367e-14 8.08856e-14 7.29460e-14
  5 4620.65 -3.81015e-08 1281.51 -2.34737e-15 4.41725e-14 -2.88619e-14
  6 4620.65 -3.81015e-08 1281.51 -4.80956e-15 1.55779e-14 -1.07714e-13
  7 4620.65 -3.81015e-08 1281.51 3.17638e-15 1.02138e-13 -3.13581e-14
  8 4620.65 -3.81015e-08 1281.51 -6.01263e-15 6.13932e-14 -1.17030e-13
</Section>

newXOutput 84

<Section columns = "stress_xx | stress_yy | stress_zz | stress_xy | stress_yz | stress_xz">
  1 4650.93 -3.77122e-08 1294.40 2.39548e-16 -1.47252e-14 1.69567e-15
  2 4650.93 -3.77122e-08 1294.40 8.94006e-16 -5.08042e-15 6.32834e-15
  3 4650.93 -3.77122e-08 1294.40 8.94006e-16 -2.70871e-14 -3.16417e-14
  4 4650.93 -3.77122e-08 1294.40 3.33648e-15 1.39180e-14 -1.18088e-13
  5 4650.93 -3.77122e-08 1294.40 8.94006e-16 -1.60356e-14 8.47836e-15
  6 4650.93 -3.77122e-08 1294.40 3.33648e-15 -9.97080e-15 3.16417e-14
  7 4650.93 -3.77122e-08 1294.40 3.33648e-15 -3.19775e-14 -6.32834e-15
  8 4650.93 -3.77122e-08 1294.40 1.24519e-14 -4.33315e-15 -2.36177e-14
</Section>

newXOutput 85

<Section columns = "stress_xx | stress_yy | stress_zz | stress_xy | stress_yz | stress_xz">
  1 4680.84 -3.73229e-08 1307.24 -1.87319e-32 -9.12699e-15 -1.33706e-14
  2 4680.84 -3.73229e-08 1307.24 -6.99083e-32 2.08934e-15 -4.98999e-14
  3 4680.84 -3.73229e-08 1307.24 -6.99083e-32 -2.72248e-14 -1.21361e-14
  4 4680.84 -3.73229e-08 1307.24 -2.60901e-31 9.62966e-15 -4.52924e-14
  5 4680.84 -3.73229e-08 1307.24 -6.99083e-32 -1.17452e-14 -2.01165e-14
  6 4680.84 -3.73229e-08 1307.24 -2.60901e-31 -7.68204e-15 -7.50758e-14
  7 4680.84 -3.73229e-08 1307.24 -2.60901e-31 -3.69962e-14 -3.73120e-14
  8 4680.84 -3.73229e-08 1307.24 -9.73697e-31 -2.68376e-14 -1.39250e-13
</Section>

newXOutput 86

<Section columns = "stress_xx | stress_yy | stress_zz | stress_xy | stress_yz | stress_xz">
  1 4710.39 -3.69446e-08 1320.04 -3.93259e-15 5.18451e-15 -1.40246e-14
  2 4710.39 -3.69446e-08 1320.04 -3.28852e-15 -2.61573e-15 -8.73838e-14
  3 4710.39 -3.69446e-08 1320.04 -7.70706e-15 2.66704e-14 -1.22650e-14
  4 4710.39 -3.69446e-08 1320.04 -5.30336e-15 1.75623e-14 -5.51634e-14
  5 4710.39 -3.69446e-08 1320.04 -7.70706e-15 7.80024e-15 -2.07339e-14
  6 4710.39 -3.69446e-08 1320.04 -5.30336e-15 7.14631e-15 -1.12423e-13
  7 4710.39 -3.69446e-08 1320.04 -1.44056e-14 3.64324e-14 -3.73046e-14
  8 4710.39 -3.69446e-08 1320.04 -5.43491e-15 5.39947e-14 -1.48612e-13
</Section>

newXOutput 87

<Section columns = "stress_xx | stress_yy | stress_zz | stress_xy | stress_yz | stress_xz">
  1 4739.58 -3.65690e-08 1332.78 -5.09870e-15 -5.42448e-14 1.15662e-14
  2 4739.58 -3.65690e-08 1332.78 -5.09870e-15 -5.95834e-14 4.17071e-16
  3 4739.58 -3.65690e-08 1332.78 -8.77694e-15 -1.26960e-13 -2.90452e-14
  4 4739.58 -3.65690e-08 1332.78 -8.77694e-15 -1.06144e-13 -1.47200e-13
  5 4739.58 -3.65690e-08 1332.78 -8.77694e-15 -5.43323e-14 1.77923e-14
  6 4739.58 -3.65690e-08 1332.78 -8.77694e-15 -5.99101e-14 2.08535e-15
  7 4739.58 -3.65690e-08 1332.78 -1.76181e-14 -1.31510e-13 -5.80905e-15
  8 4739.58 -3.65690e-08 1332.78 -1.76181e-14 -1.23123e-13 -1.40974e-13
</Section>

newXOutput 88

<Section columns = "stress_xx | stress_yy | stress_zz | stress_xy | stress_yz | stress_xz">
  1 4768.43 -3.62012e-08 1345.47 2.17009e-14 8.88447e-16 -9.94786e-15
  2 4768.43 -3.62008e-08 1345.47 2.23348e-14 5.34897e-14 -7.96446e-14
  3 4768.43 -3.62012e-08 1345.47 4.33795e-14 -4.97088e-15 -3.46369e-14
  4 4768.43 -3.62008e-08 1345.47 4.57453e-14 1.21463e-13 -1.67860e-13
  5 4768.43 -3.62029e-08 1345.47 4.33795e-14 8.88447e-16 -3.75524e-15
  6 4768.43 -3.62012e-08 1345.47 4.57453e-14 5.34897e-14 -7.79853e-14
  7 4768.43 -3.62029e-08 1345.47 9.03516e-14 -4.97088e-15 -1.15258e-14
  8 4768.43 -3.62012e-08 1345.47 9.91809e-14 1.21463e-13 -1.61667e-13
</Section>

newXOutput 89

<Section columns = "stress_xx | stress_yy | stress_zz | stress_xy | stress_yz | stress_xz">
  1 4796.93 -3.58414e-08 1358.10 -1.64384e-14 7.87376e-14 4.12442e-14
  2 4796.93 -3.58414e-08 1358.10 -1.70674e-14 3.25323e-14 8.49641e-14
  3 4796.93 -3.58414e-08 1358.10 -3.06057e-14 1.75459e-13 1.10514e-14
  4 4796.93 -3.58414e-08 1358.10 -3.29529e-14 1.04290e-13 2.27661e-14
  5 4796.93 -3.58414e-08 1358.10 -3.41265e-14 8.11712e-14 4.12442e-14
  6 4796.93 -3.58414e-08 1358.10 -3.64736e-14 4.16144e-14 8.49641e-14
  7 4796.93 -3.58414e-08 1358.10 -5.81428e-14 1.76111e-13 1.10514e-14
  8 4796.93 -3.58414e-08 1358.10 -6.69026e-14 1.06723e-13 2.27661e-14
</Section>

newXOutput 90

<Section columns = "stress_xx | stress_yy | stress_zz | stress_xy | stress_yz | stress_xz">
  1 4825.08 -3.54803e-08 1370.69 -1.46367e-14 -4.22272e-15 2.96504e-14
  2 4825.08 -3.54803e-08 1370.69 -1.40128e-14 1.24383e-14 5.30566e-15
  3 4825.08 -3.54803e-08 1370.69 -2.80841e-14 -7.90152e-15 5.30566e-15
  4 4825.08 -3.54803e-08 1370.69 -2.57554e-14 2.85990e-14 -1.35764e-13
  5 4825.08 -3.54803e-08 1370.69 -1.76048e-14 -5.43834e-15 2.96504e-14
  6 4825.08 -3.54803e-08 1370.69 -1.52760e-14 7.90152e-15 5.30566e-15
  7 4825.08 -3.54803e-08 1370.69 -3.43893e-14 -8.22725e-15 5.30566e-15
  8 4825.08 -3.54803e-08 1370.69 -2.56983e-14 2.73834e-14 -1.35764e-13
</Section>

newXOutput 91

<Section columns = "stress_xx | stress_yy | stress_zz | stress_xy | stress_yz | stress_xz">
  1 4852.90 -3.51241e-08 1383.23 1.00863e-14 5.58274e-14 -2.43165e-14
  2 4852.90 -3.51250e-08 1383.23 1.00863e-14 8.30455e-14 -5.13596e-14
  3 4852.90 -3.51242e-08 1383.23 2.42438e-14 9.60792e-14 1.40391e-14
  4 4852.90 -3.51253e-08 1383.23 2.42438e-14 1.73544e-13 -3.69415e-14
  5 4852.90 -3.51240e-08 1383.23 2.07780e-14 5.57402e-14 -3.69415e-14
  6 4852.90 -3.51244e-08 1383.23 2.07780e-14 8.27201e-14 -7.73675e-14
  7 4852.90 -3.51242e-08 1383.23 4.99428e-14 9.15468e-14 -3.30782e-14
  8 4852.90 -3.51254e-08 1383.23 4.99428e-14 1.56628e-13 -1.34004e-13
</Section>

newXOutput 92

<Section columns = "stress_xx | stress_yy | stress_zz | stress_xy | stress_yz | stress_xz">
  1 4880.40 -3.47800e-08 1395.72 -3.89917e-14 -8.50920e-14 -3.31704e-14
  2 4880.40 -3.47800e-08 1395.72 -3.77631e-14 -2.88436e-14 -8.98617e-14
  3 4880.40 -3.47801e-08 1395.72 -7.79121e-14 -1.80184e-13 -1.71253e-14
  4 4880.40 -3.47801e-08 1395.72 -7.33271e-14 -6.55046e-14 -5.48204e-14
  5 4880.40 -3.47801e-08 1395.72 -1.60145e-14 -8.37044e-14 -3.96670e-14
  6 4880.40 -3.47801e-08 1395.72 -1.14294e-14 -2.36652e-14 -1.14107e-13
  7 4880.40 -3.47806e-08 1395.72 -2.97394e-14 -1.70802e-13 -4.13708e-14
  8 4880.40 -3.47806e-08 1395.72 -1.26279e-14 -3.04925e-14 -1.45306e-13
</Section>

newXOutput 93

<Section columns = "stress_xx | stress_yy | stress_zz | stress_xy | stress_yz | stress_xz">
  1 4907.56 -3.44335e-08 1408.16 -8.60078e-15 -8.11693e-15 -1.66575e-15
  2 4907.56 -3.44335e-08 1408.16 -8.60078e-15 -9.44800e-15 2.75354e-14
  3 4907.56 -3.44335e-08 1408.16 -1.59527e-14 -9.44800e-15 -8.63997e-15
  4 4907.56 -3.44335e-08 1408.16 -1.59527e-14 -4.48040e-15 -2.32010e-14
  5 4907.56 -3.44335e-08 1408.16 -5.71660e-15 -8.11693e-15 -8.12787e-15
  6 4907.56 -3.44335e-08 1408.16 -5.71660e-15 -9.44800e-15 3.41850e-15
  7 4907.56 -3.44335e-08 1408.16 -5.18876e-15 -9.44800e-15 -3.27569e-14
  8 4907.56 -3.44335e-08 1408.16 -5.18876e-15 -4.48040e-15 -1.13207e-13
</Section>

newXOutput 94

<Section columns = "stress_xx | stress_yy | stress_zz | stress_xy | stress_yz | stress_xz">
  1 4934.41 -3.40960e-08 1420.55 -5.80324e-15 4.80068e-15 -1.18871e-14
  2 4934.41 -3.40960e-08 1420.55 -5.80324e-15 -1.01751e-14 -3.91693e-14
  3 4934.41 -3.40960e-08 1420.55 -8.56923e-15 1.58188e-14 2.51947e-14
  4 4934.41 -3.40960e-08 1420.55 -8.56923e-15 1.16756e-15 -2.89103e-15
  5 4934.41 -3.40960e-08 1420.55 -1.19548e-14 7.22276e-15 -1.78844e-14
  6 4934.41 -3.40960e-08 1420.55 -1.19548e-14 -1.13574e-15 -4.07763e-14
  7 4934.41 -3.40960e-08 1420.55 -1.76528e-14 1.64678e-14 2.81223e-15
  8 4934.41 -3.40960e-08 1420.55 -1.76528e-14 3.58964e-15 -8.88840e-15
</Section>

newXOutput 95

<Section columns = "stress_xx | stress_yy | stress_zz | stress_xy | stress_yz | stress_xz">
  1 4960.94 -3.37586e-08 1432.89 2.19654e-16 -5.57486e-15 -4.13816e-14
  2 4960.94 -3.37586e-08 1432.89 8.19761e-16 -8.23199e-15 -1.21042e-13
  3 4960.94 -3.37586e-08 1432.89 8.19761e-16 2.08057e-14 -4.94526e-14
  4 4960.94 -3.37586e-08 1432.89 3.05939e-15 3.07222e-14 -1.75611e-13
  5 4960.94 -3.37586e-08 1432.89 8.19761e-16 -5.57486e-15 -4.13816e-14
  6 4960.94 -3.37586e-08 1432.89 3.05939e-15 -8.23199e-15 -1.21042e-13
  7 4960.94 -3.37586e-08 1432.89 3.05939e-15 2.08057e-14 -4.94526e-14
  8 4960.94 -3.37586e-08 1432.89 1.14178e-14 3.07222e-14 -1.75611e-13
</Section>

newXOutput 96

<Section columns = "stress_xx | stress_yy | stress_zz | stress_xy | stress_yz | stress_xz">
  1 4987.16 -3.34285e-08 1445.19 8.13450e-16 -3.47506e-14 1.59012e-15
  2 4987.16 -3.34285e-08 1445.19 2.17963e-16 -3.30126e-14 5.93440e-15
  3 4987.16 -3.34285e-08 1445.19 3.03584e-15 -4.44525e-14 -2.96720e-14
  4 4987.16 -3.34285e-08 1445.19 8.13450e-16 -3.94989e-14 -1.10737e-13
  5 4987.16 -3.34285e-08 1445.19 3.03584e-15 -3.58726e-14 7.95059e-15
  6 4987.16 -3.34285e-08 1445.19 8.13450e-16 -3.71999e-14 2.96720e-14
  7 4987.16 -3.34285e-08 1445.19 1.13299e-14 -4.02652e-14 -5.93440e-15
  8 4987.16 -3.34285e-08 1445.19 3.03584e-15 -2.38716e-14 -2.21475e-14
</Section>

newXOutput 97

<Section columns = "stress_xx | stress_yy | stress_zz | stress_xy | stress_yz | stress_xz">
  1 5013.07 -3.31065e-08 1457.43 -5.81798e-15 -1.69271e-14 -1.25407e-14
  2 5013.07 -3.31065e-08 1457.43 -6.40889e-15 -2.06684e-14 -4.68026e-14
  3 5013.07 -3.31065e-08 1457.43 -8.92417e-15 -3.51601e-14 -1.13828e-14
  4 5013.07 -3.31065e-08 1457.43 -1.11295e-14 -1.94291e-14 -4.24811e-14
  5 5013.07 -3.31065e-08 1457.43 -8.92417e-15 -1.82214e-14 -1.88679e-14
  6 5013.07 -3.31065e-08 1457.43 -1.11295e-14 -2.54990e-14 -7.04158e-14
  7 5013.07 -3.31065e-08 1457.43 -6.96023e-15 -3.99907e-14 -3.49960e-14
  8 5013.07 -3.31065e-08 1457.43 -1.51906e-14 -3.74570e-14 -1.30607e-13
</Section>

newXOutput 98

<Section columns = "stress_xx | stress_yy | stress_zz | stress_xy | stress_yz | stress_xz">
  1 5038.68 -3.27882e-08 1469.63 8.07978e-15 1.75378e-14 1.17449e-14
  2 5038.68 -3.27882e-08 1469.63 8.07978e-15 -1.75378e-14 4.38326e-14
  3 5038.68 -3.27882e-08 1469.63 1.83428e-14 2.58967e-14 -2.66369e-14
  4 5038.68 -3.27882e-08 1469.63 1.83428e-14 -2.58967e-14 -9.94101e-14
  5 5038.68 -3.27882e-08 1469.63 -7.91880e-15 1.75378e-14 1.80390e-14
  6 5038.68 -3.27882e-08 1469.63 -7.91880e-15 -1.75378e-14 6.73224e-14
  7 5038.68 -3.27882e-08 1469.63 -9.97505e-15 2.58967e-14 -3.14704e-15
  8 5038.68 -3.27882e-08 1469.63 -9.97505e-15 -2.58967e-14 -1.17449e-14
</Section>

newXOutput 99

<Section columns = "stress_xx | stress_yy | stress_zz | stress_xy | stress_yz | stress_xz">
  1 5064.00 -3.24686e-08 1481.78 4.98255e-15 -7.32228e-14 1.31442e-14
  2 5064.00 -3.24686e-08 1481.78 5.56448e-15 -4.95879e-14 8.94441e-15
  3 5064.00 -3.24686e-08 1481.78 1.20798e-14 -1.50841e-13 -1.86996e-14
  4 5064.00 -3.24688e-08 1481.78 1.42516e-14 -1.02152e-13 -1.06195e-13
  5 5064.00 -3.24676e-08 1481.78 1.20798e-14 -7.32228e-14 2.52473e-14
  6 5064.00 -3.24678e-08 1481.78 1.42516e-14 -4.95879e-14 3.38772e-14
  7 5064.00 -3.24678e-08 1481.78 2.07669e-14 -1.50841e-13 2.64700e-14
  8 5064.00 -3.24684e-08 1481.78 2.88721e-14 -1.02152e-13 -1.31442e-14
</Section>

newXOutput 100

<Section columns = "stress_xx | stress_yy | stress_zz | stress_xy | stress_yz | stress_xz">
  1 5089.02 -3.21575e-08 1493.88 -3.45948e-14 1.27454e-13 -8.27006e-16
  2 5089.02 -3.21578e-08 1493.88 -3.51723e-14 4.02589e-14 -4.29884e-14
  3 5089.02 -3.21575e-08 1493.88 -6.05845e-14 3.00381e-13 -7.50644e-16
  4 5089.02 -3.21578e-08 1493.88 -6.27398e-14 1.03282e-13 -3.90191e-14
  5 5089.02 -3.21562e-08 1493.88 -7.35161e-14 1.26163e-13 -1.24425e-15
  6 5089.02 -3.21575e-08 1493.88 -7.56714e-14 3.54418e-14 -6.46773e-14
  7 5089.02 -3.21562e-08 1493.88 -1.44014e-13 2.95564e-13 -2.30783e-15
  8 5089.02 -3.21575e-08 1493.88 -1.52057e-13 8.53041e-14 -1.19963e-13
</Section>

newXOutput 101

<Section columns = "stress_xx | stress_yy | stress_zz | stress_xy | stress_yz | stress_xz">
  1 5113.75 -3.18505e-08 1505.94 7.82907e-16 -1.78746e-14 -2.14171e-14
  2 5113.75 -3.18505e-08 1505.94 2.09779e-16 -2.53295e-14 -1.12294e-13
  3 5113.75 -3.18505e-08 1505.94 2.92185e-15 -2.53295e-14 -4.29176e-14
  4 5113.75 -3.18505e-08 1505.94 7.82907e-16 -3.34292e-14 -1.68843e-13
  5 5113.75 -3.18505e-08 1505.94 2.92185e-15 -1.65850e-14 -2.14171e-14
  6 5113.75 -3.18505e-08 1505.94 7.82907e-16 -2.05169e-14 -1.12294e-13
  7 5113.75 -3.18505e-08 1505.94 1.09045e-14 -2.05169e-14 -4.29176e-14
  8 5113.75 -3.18505e-08 1505.94 2.92185e-15 -1.54682e-14 -1.68843e-13
</Section>

