newXOutput 1

<Section columns = "stress_xx | stress_yy | stress_xy">
  1 0.00000 0.00000 0.00000
  2 0.00000 0.00000 0.00000
  3 0.00000 0.00000 0.00000
  4 0.00000 0.00000 0.00000
  5 0.00000 0.00000 0.00000
  6 0.00000 0.00000 0.00000
  7 0.00000 0.00000 0.00000
  8 0.00000 0.00000 0.00000
</Section>

newXOutput 2

<Section columns = "stress_xx | stress_yy | stress_xy">
  1 31.1266 0.00000 -2.35128e-14
  2 31.1266 0.00000 -2.26190e-14
  3 31.1266 0.00000 -2.77094e-15
  4 31.1266 0.00000 -2.96316e-15
  5 31.1266 0.00000 2.73786e-16
  6 31.1266 0.00000 -2.78713e-16
  7 31.1266 0.00000 -2.29376e-14
  8 31.1266 0.00000 -2.44981e-14
</Section>

newXOutput 3

<Section columns = "stress_xx | stress_yy | stress_xy">
  1 62.2717 0.00000 -3.96067e-14
  2 62.2717 0.00000 -3.81926e-14
  3 62.2717 0.00000 -4.77169e-16
  4 62.2717 0.00000 -1.20428e-15
  5 62.2717 0.00000 -6.04746e-15
  6 62.2717 0.00000 -6.71576e-15
  7 62.2717 0.00000 -1.91616e-14
  8 62.2717 0.00000 -2.15285e-14
</Section>

newXOutput 4

<Section columns = "stress_xx | stress_yy | stress_xy">
  1 93.4356 0.00000 2.71888e-14
  2 93.4356 0.00000 2.69999e-14
  3 93.4356 0.00000 1.77985e-14
  4 93.4356 0.00000 1.59168e-14
  5 93.4356 0.00000 1.28277e-15
  6 93.4356 0.00000 -2.87540e-15
  7 93.4356 0.00000 1.59365e-15
  8 93.4356 0.00000 8.97371e-15
</Section>

newXOutput 5

<Section columns = "stress_xx | stress_yy | stress_xy">
  1 124.618 0.00000 -1.08388e-14
  2 124.618 0.00000 -8.89958e-15
  3 124.618 0.00000 -1.03938e-15
  4 124.618 0.00000 1.92548e-15
  5 124.618 0.00000 1.65616e-14
  6 124.618 0.00000 1.67122e-14
  7 124.618 0.00000 1.23724e-14
  8 124.618 0.00000 8.68319e-15
</Section>

newXOutput 6

<Section columns = "stress_xx | stress_yy | stress_xy">
  1 155.820 0.00000 -3.66095e-15
  2 155.820 0.00000 -3.66095e-15
  3 155.820 0.00000 -5.27309e-15
  4 155.820 0.00000 -8.63380e-16
  5 155.820 0.00000 -4.96560e-15
  6 155.820 0.00000 -3.83910e-16
  7 155.820 0.00000 -2.19256e-14
  8 155.820 0.00000 8.68788e-15
</Section>

newXOutput 7

<Section columns = "stress_xx | stress_yy | stress_xy">
  1 187.040 0.00000 9.64105e-15
  2 187.040 0.00000 1.09713e-14
  3 187.040 0.00000 1.20161e-14
  4 187.040 0.00000 1.28076e-14
  5 187.040 0.00000 -1.29924e-14
  6 187.040 0.00000 -1.45349e-14
  7 187.040 0.00000 1.46146e-14
  8 187.040 0.00000 6.09092e-15
</Section>

newXOutput 8

<Section columns = "stress_xx | stress_yy | stress_xy">
  1 218.279 0.00000 1.77958e-15
  2 218.279 0.00000 5.62068e-16
  3 218.279 0.00000 9.37858e-15
  4 218.279 0.00000 1.51154e-14
  5 218.279 0.00000 4.81716e-15
  6 218.279 0.00000 1.52602e-15
  7 218.279 0.00000 4.80779e-14
  8 218.279 0.00000 1.67110e-14
</Section>

newXOutput 9

<Section columns = "stress_xx | stress_yy | stress_xy">
  1 249.537 0.00000 -3.83508e-14
  2 249.537 0.00000 -3.60613e-14
  3 249.537 0.00000 -8.22551e-15
  4 249.537 0.00000 -1.30560e-14
  5 249.537 0.00000 5.37670e-15
  6 249.537 0.00000 -4.58368e-15
  7 249.537 0.00000 7.42932e-15
  8 249.537 0.00000 1.18571e-15
</Section>

newXOutput 10

<Section columns = "stress_xx | stress_yy | stress_xy">
  1 280.814 0.00000 -9.78103e-15
  2 280.814 0.00000 -7.86933e-15
  3 280.814 0.00000 3.37130e-15
  4 280.814 0.00000 -1.02736e-15
  5 280.814 0.00000 4.34526e-15
  6 280.814 0.00000 2.23272e-15
  7 280.814 0.00000 3.72928e-14
  8 280.814 0.00000 2.82462e-14
</Section>

newXOutput 11

<Section columns = "stress_xx | stress_yy | stress_xy">
  1 312.110 0.00000 -2.36803e-15
  2 312.110 0.00000 -3.51730e-15
  3 312.110 0.00000 3.46379e-14
  4 312.110 0.00000 2.94757e-14
  5 312.110 0.00000 -1.77276e-15
  6 312.110 0.00000 -3.69445e-15
  7 312.110 0.00000 -4.80127e-14
  8 312.110 0.00000 -5.82022e-14
</Section>

newXOutput 12

<Section columns = "stress_xx | stress_yy | stress_xy">
  1 343.425 0.00000 -4.66522e-14
  2 343.425 0.00000 -4.39139e-14
  3 343.425 0.00000 -2.24848e-16
  4 343.425 0.00000 -2.30937e-15
  5 343.425 0.00000 2.74975e-14
  6 343.425 0.00000 1.70357e-14
  7 343.425 0.00000 2.19955e-14
  8 343.425 0.00000 1.14262e-14
</Section>

newXOutput 13

<Section columns = "stress_xx | stress_yy | stress_xy">
  1 374.759 0.00000 -2.56058e-14
  2 374.759 0.00000 -2.80042e-14
  3 374.759 0.00000 -2.76364e-14
  4 374.759 0.00000 -2.60981e-14
  5 374.759 0.00000 -7.34007e-14
  6 374.759 0.00000 -6.72648e-14
  7 374.759 0.00000 -4.98984e-14
  8 374.759 0.00000 -2.24314e-14
</Section>

newXOutput 14

<Section columns = "stress_xx | stress_yy | stress_xy">
  1 406.112 0.00000 -3.08065e-15
  2 406.112 0.00000 -3.08065e-15
  3 406.112 0.00000 3.21411e-14
  4 406.112 0.00000 3.31566e-14
  5 406.112 0.00000 5.18366e-15
  6 406.112 0.00000 6.08237e-15
  7 406.112 0.00000 2.27117e-14
  8 406.112 0.00000 1.21493e-14
</Section>

newXOutput 15

<Section columns = "stress_xx | stress_yy | stress_xy">
  1 437.485 0.00000 1.23597e-14
  2 437.485 0.00000 6.88718e-15
  3 437.485 0.00000 1.62510e-14
  4 437.485 0.00000 5.44837e-15
  5 437.485 0.00000 -7.17408e-15
  6 437.485 0.00000 -1.72498e-14
  7 437.485 0.00000 3.00552e-14
  8 437.485 0.00000 -2.55770e-14
</Section>

newXOutput 16

<Section columns = "stress_xx | stress_yy | stress_xy">
  1 468.877 0.00000 -9.10397e-15
  2 468.877 0.00000 -5.18013e-15
  3 468.877 0.00000 -1.07788e-16
  4 468.877 0.00000 -9.62588e-18
  5 468.877 0.00000 -1.62576e-14
  6 468.877 0.00000 -2.06874e-14
  7 468.877 0.00000 6.60554e-14
  8 468.877 0.00000 1.27798e-14
</Section>

newXOutput 17

<Section columns = "stress_xx | stress_yy | stress_xy">
  1 500.288 0.00000 -3.92632e-14
  2 500.288 0.00000 -3.37933e-14
  3 500.288 0.00000 -1.21004e-15
  4 500.288 0.00000 -1.63112e-14
  5 500.288 0.00000 3.91847e-14
  6 500.288 0.00000 1.85919e-14
  7 500.288 0.00000 4.15263e-14
  8 500.288 0.00000 3.60129e-14
</Section>

newXOutput 18

<Section columns = "stress_xx | stress_yy | stress_xy">
  1 531.718 0.00000 -2.04974e-14
  2 531.718 0.00000 -9.59203e-15
  3 531.718 0.00000 1.15521e-14
  4 531.718 0.00000 9.33403e-15
  5 531.718 0.00000 1.89915e-14
  6 531.718 0.00000 1.01131e-14
  7 531.718 0.00000 -9.60206e-14
  8 531.718 0.00000 -3.66119e-14
</Section>

newXOutput 19

<Section columns = "stress_xx | stress_yy | stress_xy">
  1 563.168 0.00000 3.71582e-14
  2 563.168 0.00000 3.94731e-14
  3 563.168 0.00000 9.85571e-15
  4 563.168 0.00000 1.50640e-14
  5 563.168 0.00000 5.17465e-14
  6 563.168 0.00000 5.23465e-14
  7 563.168 0.00000 8.14985e-14
  8 563.168 0.00000 6.42990e-14
</Section>

newXOutput 20

<Section columns = "stress_xx | stress_yy | stress_xy">
  1 594.637 0.00000 -4.41538e-14
  2 594.637 0.00000 -4.72805e-14
  3 594.637 0.00000 -8.57477e-14
  4 594.637 0.00000 -9.23910e-14
  5 594.637 0.00000 -7.91111e-15
  6 594.637 0.00000 -5.91240e-15
  7 594.637 0.00000 7.77075e-14
  8 594.637 0.00000 6.44210e-14
</Section>

newXOutput 21

<Section columns = "stress_xx | stress_yy | stress_xy">
  1 626.126 0.00000 4.53331e-15
  2 626.126 0.00000 1.00017e-14
  3 626.126 0.00000 5.47719e-14
  4 626.126 0.00000 7.92100e-14
  5 626.126 0.00000 -2.65395e-14
  6 626.126 0.00000 -1.97352e-14
  7 626.126 0.00000 -5.87282e-15
  8 626.126 0.00000 -2.53869e-14
</Section>

newXOutput 22

<Section columns = "stress_xx | stress_yy | stress_xy">
  1 657.634 0.00000 -1.18632e-14
  2 657.634 0.00000 -1.41954e-14
  3 657.634 0.00000 4.10340e-14
  4 657.634 0.00000 4.49475e-14
  5 657.634 0.00000 8.28984e-14
  6 657.634 0.00000 9.86334e-14
  7 657.634 0.00000 -4.95769e-14
  8 657.634 0.00000 1.28487e-14
</Section>

newXOutput 23

<Section columns = "stress_xx | stress_yy | stress_xy">
  1 689.162 0.00000 -6.81995e-14
  2 689.162 0.00000 -6.97679e-14
  3 689.162 0.00000 -4.39227e-14
  4 689.162 0.00000 -4.51725e-14
  5 689.162 0.00000 -3.89071e-14
  6 689.162 0.00000 -5.27644e-14
  7 689.162 0.00000 -3.31920e-14
  8 689.162 0.00000 -5.65514e-14
</Section>

newXOutput 24

<Section columns = "stress_xx | stress_yy | stress_xy">
  1 720.709 0.00000 -5.50190e-14
  2 720.709 0.00000 -5.03047e-14
  3 720.709 0.00000 -2.89393e-14
  4 720.709 0.00000 -4.27438e-15
  5 720.709 0.00000 9.49454e-15
  6 720.709 0.00000 3.29801e-14
  7 720.709 0.00000 2.06861e-14
  8 720.709 0.00000 8.46376e-14
</Section>

newXOutput 25

<Section columns = "stress_xx | stress_yy | stress_xy">
  1 752.276 0.00000 -3.76410e-14
  2 752.276 0.00000 -3.76410e-14
  3 752.276 0.00000 -2.69882e-14
  4 752.276 0.00000 -1.67545e-14
  5 752.276 0.00000 -5.75324e-14
  6 752.276 0.00000 -3.91748e-14
  7 752.276 0.00000 -8.96225e-15
  8 752.276 0.00000 -6.39401e-15
</Section>

newXOutput 26

<Section columns = "stress_xx | stress_yy | stress_xy">
  1 783.862 0.00000 -2.19174e-14
  2 783.862 0.00000 -2.19174e-14
  3 783.862 0.00000 -9.25999e-15
  4 783.862 0.00000 1.06121e-15
  5 783.862 0.00000 1.09777e-14
  6 783.862 0.00000 3.91852e-14
  7 783.862 0.00000 2.60639e-14
  8 783.862 0.00000 8.23427e-14
</Section>

newXOutput 27

<Section columns = "stress_xx | stress_yy | stress_xy">
  1 815.469 0.00000 -3.30659e-14
  2 815.469 0.00000 -2.83246e-14
  3 815.469 0.00000 -1.81817e-14
  4 815.469 0.00000 1.75360e-14
  5 815.469 0.00000 1.21811e-14
  6 815.469 0.00000 5.38456e-14
  7 815.469 0.00000 -6.81562e-14
  8 815.469 0.00000 9.95928e-15
</Section>

newXOutput 28

<Section columns = "stress_xx | stress_yy | stress_xy">
  1 847.095 0.00000 -3.33085e-14
  2 847.095 0.00000 -3.17251e-14
  3 847.095 0.00000 1.45943e-14
  4 847.095 0.00000 5.95330e-14
  5 847.095 0.00000 -2.92207e-14
  6 847.095 0.00000 4.97824e-14
  7 847.095 0.00000 -7.11415e-14
  8 847.095 0.00000 5.39747e-15
</Section>

newXOutput 29

<Section columns = "stress_xx | stress_yy | stress_xy">
  1 878.740 0.00000 -5.14148e-14
  2 878.740 0.00000 -2.92045e-14
  3 878.740 0.00000 -6.65161e-15
  4 878.740 0.00000 -6.43656e-16
  5 878.740 0.00000 4.45518e-14
  6 878.740 0.00000 2.80299e-14
  7 878.740 0.00000 3.48496e-14
  8 878.740 0.00000 3.24678e-14
</Section>

newXOutput 30

<Section columns = "stress_xx | stress_yy | stress_xy">
  1 910.406 0.00000 -4.20371e-14
  2 910.406 0.00000 -1.81954e-14
  3 910.406 0.00000 3.46360e-14
  4 910.406 0.00000 1.96401e-14
  5 910.406 0.00000 1.25272e-13
  6 910.406 0.00000 8.54383e-14
  7 910.406 0.00000 8.99897e-14
  8 910.406 0.00000 -3.81176e-14
</Section>

newXOutput 31

<Section columns = "stress_xx | stress_yy | stress_xy">
  1 942.091 0.00000 -3.54277e-14
  2 942.091 0.00000 -1.63182e-14
  3 942.091 0.00000 3.46339e-15
  4 942.091 0.00000 3.48953e-14
  5 942.091 0.00000 7.01981e-14
  6 942.091 0.00000 1.03057e-13
  7 942.091 0.00000 1.12338e-13
  8 942.091 0.00000 1.41114e-13
</Section>

newXOutput 32

<Section columns = "stress_xx | stress_yy | stress_xy">
  1 973.796 0.00000 -3.35908e-14
  2 973.796 0.00000 -1.60408e-14
  3 973.796 0.00000 -5.70837e-14
  4 973.796 0.00000 -3.64355e-14
  5 973.796 0.00000 -3.06409e-14
  6 973.796 0.00000 -3.11767e-14
  7 973.796 0.00000 -3.40254e-14
  8 973.796 0.00000 -1.11761e-14
</Section>

newXOutput 33

<Section columns = "stress_xx | stress_yy | stress_xy">
  1 1005.52 0.00000 -4.92098e-14
  2 1005.52 0.00000 -4.41198e-14
  3 1005.52 0.00000 -1.34744e-14
  4 1005.52 0.00000 -3.67361e-15
  5 1005.52 0.00000 9.05437e-15
  6 1005.52 0.00000 -2.38614e-14
  7 1005.52 0.00000 3.12089e-14
  8 1005.52 0.00000 -4.91343e-14
</Section>

newXOutput 34

<Section columns = "stress_xx | stress_yy | stress_xy">
  1 1037.27 0.00000 1.10173e-14
  2 1037.27 0.00000 3.34378e-14
  3 1037.27 0.00000 8.09674e-14
  4 1037.27 0.00000 1.16971e-13
  5 1037.27 0.00000 -2.56507e-14
  6 1037.27 0.00000 -4.72556e-14
  7 1037.27 0.00000 6.43980e-14
  8 1037.27 0.00000 -7.99508e-15
</Section>

newXOutput 35

<Section columns = "stress_xx | stress_yy | stress_xy">
  1 1069.03 0.00000 -1.65691e-13
  2 1069.03 0.00000 -1.97438e-13
  3 1069.03 0.00000 1.51822e-13
  4 1069.03 0.00000 1.49414e-13
  5 1069.03 0.00000 3.87474e-14
  6 1069.03 0.00000 7.98222e-14
  7 1069.03 0.00000 2.47666e-13
  8 1069.03 0.00000 3.77645e-13
</Section>

newXOutput 36

<Section columns = "stress_xx | stress_yy | stress_xy">
  1 1100.82 0.00000 8.22742e-14
  2 1100.82 0.00000 8.58557e-14
  3 1100.82 0.00000 9.10866e-15
  4 1100.82 0.00000 2.84689e-14
  5 1100.82 0.00000 -1.04915e-13
  6 1100.82 0.00000 -1.10650e-13
  7 1100.82 0.00000 -3.49224e-14
  8 1100.82 0.00000 -6.79462e-14
</Section>

newXOutput 37

<Section columns = "stress_xx | stress_yy | stress_xy">
  1 1132.62 0.00000 -1.50374e-14
  2 1132.62 0.00000 2.67790e-15
  3 1132.62 0.00000 -2.16564e-14
  4 1132.62 0.00000 -2.20247e-14
  5 1132.62 0.00000 2.52812e-14
  6 1132.62 0.00000 9.64878e-15
  7 1132.62 0.00000 4.29020e-14
  8 1132.62 0.00000 -3.84988e-15
</Section>

newXOutput 38

<Section columns = "stress_xx | stress_yy | stress_xy">
  1 1164.45 0.00000 -7.36034e-14
  2 1164.45 0.00000 -6.23090e-14
  3 1164.45 0.00000 3.89112e-14
  4 1164.45 0.00000 1.83932e-14
  5 1164.45 0.00000 -1.49029e-16
  6 1164.45 0.00000 1.89505e-14
  7 1164.45 0.00000 -1.76861e-13
  8 1164.45 0.00000 6.96850e-14
</Section>

newXOutput 39

<Section columns = "stress_xx | stress_yy | stress_xy">
  1 1196.29 0.00000 -4.06786e-14
  2 1196.29 0.00000 -3.21574e-14
  3 1196.29 0.00000 3.26562e-14
  4 1196.29 0.00000 1.41358e-14
  5 1196.29 0.00000 -8.77658e-14
  6 1196.29 0.00000 -9.34168e-14
  7 1196.29 0.00000 -6.20679e-14
  8 1196.29 0.00000 2.64235e-14
</Section>

newXOutput 40

<Section columns = "stress_xx | stress_yy | stress_xy">
  1 1228.16 0.00000 -3.33438e-14
  2 1228.16 0.00000 -2.68658e-14
  3 1228.16 0.00000 1.02926e-13
  4 1228.16 0.00000 8.24190e-14
  5 1228.16 0.00000 2.94472e-13
  6 1228.16 0.00000 2.48290e-13
  7 1228.16 0.00000 2.64290e-13
  8 1228.16 0.00000 5.00559e-14
</Section>

newXOutput 41

<Section columns = "stress_xx | stress_yy | stress_xy">
  1 1260.04 0.00000 8.82788e-15
  2 1260.04 0.00000 6.06981e-15
  3 1260.04 0.00000 6.81772e-14
  4 1260.04 0.00000 6.89885e-14
  5 1260.04 0.00000 1.08918e-15
  6 1260.04 0.00000 -2.63682e-14
  7 1260.04 0.00000 4.78872e-14
  8 1260.04 0.00000 -1.46809e-13
</Section>

newXOutput 42

<Section columns = "stress_xx | stress_yy | stress_xy">
  1 1291.95 0.00000 -4.62525e-14
  2 1291.95 0.00000 -4.62525e-14
  3 1291.95 0.00000 -4.76883e-14
  4 1291.95 0.00000 -5.13267e-14
  5 1291.95 0.00000 -1.21409e-13
  6 1291.95 0.00000 -1.32344e-13
  7 1291.95 0.00000 4.67763e-14
  8 1291.95 0.00000 -1.51776e-14
</Section>

newXOutput 43

<Section columns = "stress_xx | stress_yy | stress_xy">
  1 1323.87 0.00000 -4.70023e-14
  2 1323.87 0.00000 -5.51448e-14
  3 1323.87 0.00000 6.94584e-14
  4 1323.87 0.00000 6.17390e-14
  5 1323.87 0.00000 -2.30873e-14
  6 1323.87 0.00000 -2.66759e-14
  7 1323.87 0.00000 1.30273e-13
  8 1323.87 0.00000 9.65865e-14
</Section>

newXOutput 44

<Section columns = "stress_xx | stress_yy | stress_xy">
  1 1355.82 0.00000 -2.67042e-14
  2 1355.82 0.00000 -3.54211e-14
  3 1355.82 0.00000 5.20183e-14
  4 1355.82 0.00000 1.35081e-14
  5 1355.82 0.00000 1.30005e-13
  6 1355.82 0.00000 9.40551e-14
  7 1355.82 0.00000 1.10148e-13
  8 1355.82 0.00000 8.62807e-14
</Section>

newXOutput 45

<Section columns = "stress_xx | stress_yy | stress_xy">
  1 1387.79 0.00000 2.14520e-14
  2 1387.79 0.00000 2.74066e-14
  3 1387.79 0.00000 1.16681e-14
  4 1387.79 0.00000 1.94320e-14
  5 1387.79 0.00000 4.29128e-14
  6 1387.79 0.00000 1.06103e-14
  7 1387.79 0.00000 -4.65142e-14
  8 1387.79 0.00000 -9.36836e-14
</Section>

newXOutput 46

<Section columns = "stress_xx | stress_yy | stress_xy">
  1 1419.77 0.00000 -4.29517e-14
  2 1419.77 0.00000 -6.62993e-14
  3 1419.77 0.00000 -3.89976e-14
  4 1419.77 0.00000 -1.00552e-13
  5 1419.77 0.00000 7.12888e-14
  6 1419.77 0.00000 8.50857e-16
  7 1419.77 0.00000 4.49599e-14
  8 1419.77 0.00000 1.52295e-13
</Section>

newXOutput 47

<Section columns = "stress_xx | stress_yy | stress_xy">
  1 1451.78 0.00000 -5.84518e-14
  2 1451.78 0.00000 -6.33734e-14
  3 1451.78 0.00000 -8.66884e-14
  4 1451.78 0.00000 -7.73108e-14
  5 1451.78 0.00000 -2.18473e-13
  6 1451.78 0.00000 -2.15639e-13
  7 1451.78 0.00000 -3.68385e-13
  8 1451.78 0.00000 -1.30153e-13
</Section>

newXOutput 48

<Section columns = "stress_xx | stress_yy | stress_xy">
  1 1483.81 0.00000 -6.07567e-15
  2 1483.81 0.00000 -2.41545e-14
  3 1483.81 0.00000 5.52568e-14
  4 1483.81 0.00000 8.10679e-14
  5 1483.81 0.00000 1.99453e-13
  6 1483.81 0.00000 2.25588e-13
  7 1483.81 0.00000 3.46092e-13
  8 1483.81 0.00000 2.47798e-13
</Section>

newXOutput 49

<Section columns = "stress_xx | stress_yy | stress_xy">
  1 1515.85 0.00000 -9.59893e-14
  2 1515.85 0.00000 -9.57033e-14
  3 1515.85 0.00000 -7.06133e-14
  4 1515.85 0.00000 -8.05024e-14
  5 1515.85 0.00000 -1.40156e-13
  6 1515.85 0.00000 -1.45766e-13
  7 1515.85 0.00000 -9.15007e-14
  8 1515.85 0.00000 -1.36529e-13
</Section>

newXOutput 50

<Section columns = "stress_xx | stress_yy | stress_xy">
  1 1547.92 0.00000 -1.80871e-14
  2 1547.92 0.00000 -3.95311e-14
  3 1547.92 0.00000 -3.55370e-14
  4 1547.92 0.00000 4.69775e-14
  5 1547.92 0.00000 -3.75412e-14
  6 1547.92 0.00000 5.09004e-14
  7 1547.92 0.00000 7.96851e-14
  8 1547.92 0.00000 2.97177e-14
</Section>

newXOutput 51

<Section columns = "stress_xx | stress_yy | stress_xy">
  1 1580.01 0.00000 -8.19248e-14
  2 1580.01 0.00000 -9.18401e-14
  3 1580.01 0.00000 3.40626e-16
  4 1580.01 0.00000 -1.45323e-14
  5 1580.01 0.00000 -1.21445e-14
  6 1580.01 0.00000 -1.05957e-14
  7 1580.01 0.00000 -3.07645e-14
  8 1580.01 0.00000 7.28639e-14
</Section>

newXOutput 52

<Section columns = "stress_xx | stress_yy | stress_xy">
  1 1612.12 0.00000 -7.01808e-14
  2 1612.12 0.00000 -8.67363e-14
  3 1612.12 0.00000 4.90421e-14
  4 1612.12 0.00000 4.15687e-14
  5 1612.12 0.00000 6.06758e-14
  6 1612.12 0.00000 6.97622e-14
  7 1612.12 0.00000 6.09670e-14
  8 1612.12 0.00000 1.17854e-13
</Section>

newXOutput 53

<Section columns = "stress_xx | stress_yy | stress_xy">
  1 1645.15 0.00000 2.15729e-15
  2 1645.15 0.00000 -1.15744e-13
  3 1645.15 0.00000 -6.65203e-14
  4 1645.15 0.00000 -6.40521e-14
  5 1645.15 0.00000 -2.64254e-13
  6 1645.15 0.00000 -1.54373e-13
  7 1645.15 0.00000 -3.22285e-14
  8 1645.15 0.00000 -2.93273e-14
</Section>

newXOutput 54

<Section columns = "stress_xx | stress_yy | stress_xy">
  1 1681.47 0.00000 -5.44671e-14
  2 1681.47 0.00000 -5.44671e-14
  3 1681.47 0.00000 -2.23995e-14
  4 1681.47 0.00000 -5.30042e-14
  5 1681.47 0.00000 -7.30502e-14
  6 1681.47 0.00000 -1.16798e-13
  7 1681.47 0.00000 2.74912e-13
  8 1681.47 0.00000 1.54595e-13
</Section>

newXOutput 55

<Section columns = "stress_xx | stress_yy | stress_xy">
  1 1717.86 0.00000 -3.43592e-14
  2 1717.86 0.00000 -1.77135e-14
  3 1717.86 0.00000 -1.57866e-14
  4 1717.86 0.00000 2.33142e-14
  5 1717.86 0.00000 -4.15365e-14
  6 1717.86 0.00000 -2.44725e-14
  7 1717.86 0.00000 2.80253e-14
  8 1717.86 0.00000 1.21317e-13
</Section>

newXOutput 56

<Section columns = "stress_xx | stress_yy | stress_xy">
  1 1754.30 0.00000 -3.60950e-14
  2 1754.30 0.00000 -1.53283e-13
  3 1754.30 0.00000 -1.05370e-14
  4 1754.30 0.00000 -3.66537e-14
  5 1754.30 0.00000 -8.59263e-15
  6 1754.30 0.00000 2.94524e-14
  7 1754.30 0.00000 8.57493e-14
  8 1754.30 0.00000 -2.34567e-14
</Section>

newXOutput 57

<Section columns = "stress_xx | stress_yy | stress_xy">
  1 1790.80 0.00000 -1.74227e-13
  2 1790.80 0.00000 -1.34134e-13
  3 1790.80 0.00000 3.05054e-13
  4 1790.80 0.00000 2.92628e-13
  5 1790.80 0.00000 3.58214e-15
  6 1790.80 0.00000 -5.64531e-15
  7 1790.80 0.00000 3.09378e-13
  8 1790.80 0.00000 3.42475e-13
</Section>

newXOutput 58

<Section columns = "stress_xx | stress_yy | stress_xy">
  1 1827.36 0.00000 8.46540e-14
  2 1827.36 0.00000 7.27062e-14
  3 1827.36 0.00000 -1.61108e-13
  4 1827.36 0.00000 -1.64103e-13
  5 1827.36 0.00000 -2.72191e-13
  6 1827.36 0.00000 -1.75723e-13
  7 1827.36 0.00000 -3.65879e-13
  8 1827.36 0.00000 -2.32738e-13
</Section>

newXOutput 59

<Section columns = "stress_xx | stress_yy | stress_xy">
  1 1863.98 0.00000 -2.85481e-13
  2 1863.98 0.00000 -2.68715e-13
  3 1863.98 0.00000 -7.23838e-14
  4 1863.98 0.00000 -4.86750e-14
  5 1863.98 0.00000 7.43153e-14
  6 1863.98 0.00000 1.68009e-13
  7 1863.98 0.00000 2.15120e-13
  8 1863.98 0.00000 3.04976e-13
</Section>

newXOutput 60

<Section columns = "stress_xx | stress_yy | stress_xy">
  1 1900.66 0.00000 2.90042e-14
  2 1900.66 0.00000 3.57225e-14
  3 1900.66 0.00000 1.14380e-13
  4 1900.66 0.00000 1.65103e-13
  5 1900.66 0.00000 -1.10974e-14
  6 1900.66 0.00000 2.26418e-14
  7 1900.66 0.00000 -2.58936e-14
  8 1900.66 0.00000 4.04264e-14
</Section>

newXOutput 61

<Section columns = "stress_xx | stress_yy | stress_xy">
  1 1937.41 0.00000 -9.04492e-15
  2 1937.41 0.00000 9.06298e-15
  3 1937.41 0.00000 5.16166e-14
  4 1937.41 0.00000 8.34171e-14
  5 1937.41 0.00000 1.89554e-13
  6 1937.41 0.00000 1.71899e-13
  7 1937.41 0.00000 1.48138e-13
  8 1937.41 0.00000 3.75152e-13
</Section>

newXOutput 62

<Section columns = "stress_xx | stress_yy | stress_xy">
  1 1974.21 0.00000 -7.30968e-14
  2 1974.21 0.00000 -7.44749e-14
  3 1974.21 0.00000 2.05173e-14
  4 1974.21 0.00000 -1.16512e-14
  5 1974.21 0.00000 1.42568e-13
  6 1974.21 0.00000 9.11697e-14
  7 1974.21 0.00000 9.77178e-14
  8 1974.21 0.00000 -1.42343e-13
</Section>

newXOutput 63

<Section columns = "stress_xx | stress_yy | stress_xy">
  1 2011.07 0.00000 -8.88073e-14
  2 2011.07 0.00000 -9.55617e-14
  3 2011.07 0.00000 -9.77701e-14
  4 2011.07 0.00000 -9.36403e-14
  5 2011.07 0.00000 6.69682e-14
  6 2011.07 0.00000 5.67329e-14
  7 2011.07 0.00000 2.79378e-13
  8 2011.07 0.00000 9.71659e-14
</Section>

newXOutput 64

<Section columns = "stress_xx | stress_yy | stress_xy">
  1 2048.00 0.00000 -1.28672e-14
  2 2048.00 0.00000 8.45767e-15
  3 2048.00 0.00000 -4.06345e-14
  4 2048.00 0.00000 -2.82804e-14
  5 2048.00 0.00000 -5.42616e-14
  6 2048.00 0.00000 -8.54830e-14
  7 2048.00 0.00000 3.98549e-14
  8 2048.00 0.00000 -1.85924e-13
</Section>

newXOutput 65

<Section columns = "stress_xx | stress_yy | stress_xy">
  1 2084.99 0.00000 -1.08584e-13
  2 2084.99 0.00000 -8.69994e-14
  3 2084.99 0.00000 2.22660e-14
  4 2084.99 0.00000 1.69738e-14
  5 2084.99 0.00000 3.54058e-14
  6 2084.99 0.00000 7.20616e-14
  7 2084.99 0.00000 1.25917e-14
  8 2084.99 0.00000 2.51272e-13
</Section>

newXOutput 66

<Section columns = "stress_xx | stress_yy | stress_xy">
  1 2122.04 0.00000 -8.72201e-14
  2 2122.04 0.00000 -1.15588e-13
  3 2122.04 0.00000 5.93700e-14
  4 2122.04 0.00000 1.28194e-14
  5 2122.04 0.00000 8.41269e-14
  6 2122.04 0.00000 8.05207e-14
  7 2122.04 0.00000 1.76916e-13
  8 2122.04 0.00000 1.27953e-13
</Section>

newXOutput 67

<Section columns = "stress_xx | stress_yy | stress_xy">
  1 2159.15 0.00000 -2.49734e-14
  2 2159.15 0.00000 -6.80393e-15
  3 2159.15 0.00000 -1.22133e-14
  4 2159.15 0.00000 2.11661e-14
  5 2159.15 0.00000 -8.79912e-14
  6 2159.15 0.00000 -1.18988e-13
  7 2159.15 0.00000 8.22163e-14
  8 2159.15 0.00000 -2.68377e-13
</Section>

newXOutput 68

<Section columns = "stress_xx | stress_yy | stress_xy">
  1 2196.33 0.00000 -2.98370e-14
  2 2196.33 0.00000 -3.09572e-14
  3 2196.33 0.00000 2.65416e-14
  4 2196.33 0.00000 2.99488e-14
  5 2196.33 0.00000 1.60422e-13
  6 2196.33 0.00000 2.10586e-13
  7 2196.33 0.00000 1.91359e-13
  8 2196.33 0.00000 4.71018e-13
</Section>

newXOutput 69

<Section columns = "stress_xx | stress_yy | stress_xy">
  1 2233.56 0.00000 -5.67338e-14
  2 2233.56 0.00000 -2.49373e-14
  3 2233.56 0.00000 9.88426e-14
  4 2233.56 0.00000 1.07117e-13
  5 2233.56 0.00000 -6.67229e-15
  6 2233.56 0.00000 -5.13356e-14
  7 2233.56 0.00000 -6.63776e-15
  8 2233.56 0.00000 -3.72920e-13
</Section>

newXOutput 70

<Section columns = "stress_xx | stress_yy | stress_xy">
  1 2270.86 0.00000 -9.66243e-14
  2 2270.86 0.00000 -9.32051e-14
  3 2270.86 0.00000 9.28059e-14
  4 2270.86 0.00000 4.87163e-14
  5 2270.86 0.00000 -5.48754e-14
  6 2270.86 0.00000 2.40945e-14
  7 2270.86 0.00000 -2.12688e-13
  8 2270.86 0.00000 3.43890e-13
</Section>

newXOutput 71

<Section columns = "stress_xx | stress_yy | stress_xy">
  1 2308.23 0.00000 -1.09774e-13
  2 2308.23 0.00000 -1.26900e-13
  3 2308.23 0.00000 -7.05232e-14
  4 2308.23 0.00000 -1.30020e-13
  5 2308.23 0.00000 -5.28348e-13
  6 2308.23 0.00000 -5.54121e-13
  7 2308.23 0.00000 -5.01510e-14
  8 2308.23 0.00000 -1.19195e-13
</Section>

newXOutput 72

<Section columns = "stress_xx | stress_yy | stress_xy">
  1 2345.66 0.00000 -3.63202e-14
  2 2345.66 0.00000 -3.19413e-14
  3 2345.66 0.00000 7.86386e-14
  4 2345.66 0.00000 3.52718e-14
  5 2345.66 0.00000 -2.82600e-13
  6 2345.66 0.00000 -2.54144e-13
  7 2345.66 0.00000 -8.48973e-14
  8 2345.66 0.00000 1.42646e-13
</Section>

newXOutput 73

<Section columns = "stress_xx | stress_yy | stress_xy">
  1 2383.15 0.00000 -6.35810e-14
  2 2383.15 0.00000 -8.42048e-14
  3 2383.15 0.00000 1.22800e-13
  4 2383.15 0.00000 7.18551e-14
  5 2383.15 0.00000 -2.28524e-17
  6 2383.15 0.00000 -2.23977e-14
  7 2383.15 0.00000 1.51792e-13
  8 2383.15 0.00000 6.91160e-14
</Section>

newXOutput 74

<Section columns = "stress_xx | stress_yy | stress_xy">
  1 2420.70 0.00000 -2.98639e-14
  2 2420.70 0.00000 -4.01938e-14
  3 2420.70 0.00000 1.35939e-13
  4 2420.70 0.00000 1.60043e-13
  5 2420.70 0.00000 3.32913e-13
  6 2420.70 0.00000 2.92331e-13
  7 2420.70 0.00000 3.32208e-13
  8 2420.70 0.00000 -1.98258e-14
</Section>

newXOutput 75

<Section columns = "stress_xx | stress_yy | stress_xy">
  1 2458.32 0.00000 -1.20965e-13
  2 2458.32 0.00000 -1.24414e-13
  3 2458.32 0.00000 4.10424e-14
  4 2458.32 0.00000 4.34903e-16
  5 2458.32 0.00000 -5.75995e-14
  6 2458.32 0.00000 -6.62041e-14
  7 2458.32 0.00000 2.75710e-14
  8 2458.32 0.00000 -3.08898e-14
</Section>

newXOutput 76

<Section columns = "stress_xx | stress_yy | stress_xy">
  1 2496.01 0.00000 -9.39508e-14
  2 2496.01 0.00000 -8.70402e-14
  3 2496.01 0.00000 1.36686e-13
  4 2496.01 0.00000 9.05851e-14
  5 2496.01 0.00000 5.45452e-13
  6 2496.01 0.00000 4.82074e-13
  7 2496.01 0.00000 4.85736e-13
  8 2496.01 0.00000 1.26549e-13
</Section>

newXOutput 77

<Section columns = "stress_xx | stress_yy | stress_xy">
  1 2533.76 0.00000 -1.17920e-14
  2 2533.76 0.00000 -2.97397e-14
  3 2533.76 0.00000 -4.59171e-14
  4 2533.76 0.00000 -6.45890e-14
  5 2533.76 0.00000 4.25713e-15
  6 2533.76 0.00000 4.45435e-14
  7 2533.76 0.00000 5.06710e-14
  8 2533.76 0.00000 2.97076e-13
</Section>

newXOutput 78

<Section columns = "stress_xx | stress_yy | stress_xy">
  1 2571.57 0.00000 -1.42228e-13
  2 2571.57 0.00000 -1.69967e-13
  3 2571.57 0.00000 -6.35647e-14
  4 2571.57 0.00000 -5.11058e-14
  5 2571.57 0.00000 -3.11055e-13
  6 2571.57 0.00000 -3.08606e-13
  7 2571.57 0.00000 -3.46333e-14
  8 2571.57 0.00000 -1.21977e-13
</Section>

newXOutput 79

<Section columns = "stress_xx | stress_yy | stress_xy">
  1 2609.46 0.00000 -1.29560e-13
  2 2609.46 0.00000 -1.36507e-13
  3 2609.46 0.00000 -5.82074e-14
  4 2609.46 0.00000 -4.58220e-14
  5 2609.46 0.00000 -8.36999e-14
  6 2609.46 0.00000 -4.99789e-14
  7 2609.46 0.00000 -1.68049e-14
  8 2609.46 0.00000 2.16696e-13
</Section>

newXOutput 80

<Section columns = "stress_xx | stress_yy | stress_xy">
  1 2647.40 0.00000 -1.22595e-13
  2 2647.40 0.00000 -1.46951e-13
  3 2647.40 0.00000 5.70419e-14
  4 2647.40 0.00000 -6.11707e-15
  5 2647.40 0.00000 1.09512e-13
  6 2647.40 0.00000 8.35641e-14
  7 2647.40 0.00000 2.12787e-13
  8 2647.40 0.00000 1.44275e-13
</Section>

newXOutput 81

<Section columns = "stress_xx | stress_yy | stress_xy">
  1 2685.42 0.00000 -1.13412e-13
  2 2685.42 0.00000 -1.26328e-13
  3 2685.42 0.00000 -1.70648e-13
  4 2685.42 0.00000 -1.79027e-13
  5 2685.42 0.00000 -6.44135e-14
  6 2685.42 0.00000 -7.34450e-14
  7 2685.42 0.00000 -7.90612e-14
  8 2685.42 0.00000 1.05383e-13
</Section>

newXOutput 82

<Section columns = "stress_xx | stress_yy | stress_xy">
  1 2723.49 0.00000 -1.26530e-13
  2 2723.49 0.00000 -7.70398e-14
  3 2723.49 0.00000 2.14403e-13
  4 2723.49 0.00000 2.67993e-13
  5 2723.49 0.00000 -1.57880e-13
  6 2723.49 0.00000 -2.23250e-13
  7 2723.49 0.00000 3.56971e-14
  8 2723.49 0.00000 2.02468e-13
</Section>

newXOutput 83

<Section columns = "stress_xx | stress_yy | stress_xy">
  1 2761.64 0.00000 5.13560e-14
  2 2761.64 0.00000 5.88991e-15
  3 2761.64 0.00000 -2.69258e-14
  4 2761.64 0.00000 -6.47399e-14
  5 2761.64 0.00000 6.63702e-14
  6 2761.64 0.00000 6.24789e-15
  7 2761.64 0.00000 6.85958e-14
  8 2761.64 0.00000 -2.97547e-13
</Section>

newXOutput 84

<Section columns = "stress_xx | stress_yy | stress_xy">
  1 2799.85 0.00000 -2.20934e-13
  2 2799.85 0.00000 -2.13927e-13
  3 2799.85 0.00000 -2.09686e-13
  4 2799.85 0.00000 -2.77306e-13
  5 2799.85 0.00000 -2.62415e-14
  6 2799.85 0.00000 -4.96212e-14
  7 2799.85 0.00000 -7.55642e-15
  8 2799.85 0.00000 -8.28352e-14
</Section>

newXOutput 85

<Section columns = "stress_xx | stress_yy | stress_xy">
  1 2838.13 0.00000 -9.67805e-15
  2 2838.13 0.00000 1.48878e-14
  3 2838.13 0.00000 -3.41205e-14
  4 2838.13 0.00000 -9.29111e-14
  5 2838.13 0.00000 -2.82454e-13
  6 2838.13 0.00000 -3.09334e-13
  7 2838.13 0.00000 1.83492e-13
  8 2838.13 0.00000 1.01243e-13
</Section>

newXOutput 86

<Section columns = "stress_xx | stress_yy | stress_xy">
  1 2876.48 0.00000 -1.84095e-13
  2 2876.48 0.00000 -1.45085e-13
  3 2876.48 0.00000 8.89252e-15
  4 2876.48 0.00000 4.69538e-14
  5 2876.48 0.00000 7.10084e-14
  6 2876.48 0.00000 -3.47705e-14
  7 2876.48 0.00000 1.29265e-14
  8 2876.48 0.00000 2.11380e-13
</Section>

newXOutput 87

<Section columns = "stress_xx | stress_yy | stress_xy">
  1 2914.90 0.00000 -5.22833e-14
  2 2914.90 0.00000 -2.39510e-13
  3 2914.90 0.00000 -6.87094e-14
  4 2914.90 0.00000 -1.52921e-13
  5 2914.90 0.00000 1.40393e-13
  6 2914.90 0.00000 3.50190e-13
  7 2914.90 0.00000 3.13171e-13
  8 2914.90 0.00000 4.00604e-13
</Section>

newXOutput 88

<Section columns = "stress_xx | stress_yy | stress_xy">
  1 2953.38 0.00000 -1.63342e-13
  2 2953.38 0.00000 -6.92548e-14
  3 2953.38 0.00000 -7.27124e-14
  4 2953.38 0.00000 -1.14225e-14
  5 2953.38 0.00000 4.99590e-13
  6 2953.38 0.00000 4.08021e-13
  7 2953.38 0.00000 -9.37697e-14
  8 2953.38 0.00000 1.36372e-14
</Section>

newXOutput 89

<Section columns = "stress_xx | stress_yy | stress_xy">
  1 2991.94 0.00000 -5.94520e-14
  2 2991.94 0.00000 -4.51098e-14
  3 2991.94 0.00000 5.42773e-14
  4 2991.94 0.00000 2.90910e-14
  5 2991.94 0.00000 2.42909e-13
  6 2991.94 0.00000 1.64656e-13
  7 2991.94 0.00000 1.91832e-13
  8 2991.94 0.00000 1.27396e-13
</Section>

newXOutput 90

<Section columns = "stress_xx | stress_yy | stress_xy">
  1 3030.56 0.00000 -1.29692e-13
  2 3030.56 0.00000 -1.92677e-13
  3 3030.56 0.00000 -1.92406e-13
  4 3030.56 0.00000 -2.75889e-13
  5 3030.56 0.00000 -6.43898e-13
  6 3030.56 0.00000 -6.43956e-13
  7 3030.56 0.00000 -5.36178e-14
  8 3030.56 0.00000 -3.96697e-13
</Section>

newXOutput 91

<Section columns = "stress_xx | stress_yy | stress_xy">
  1 3069.25 0.00000 -3.24505e-13
  2 3069.25 0.00000 -3.28291e-13
  3 3069.25 0.00000 -7.66299e-14
  4 3069.25 0.00000 -3.16996e-14
  5 3069.25 0.00000 1.01592e-13
  6 3069.25 0.00000 6.75478e-14
  7 3069.25 0.00000 3.41763e-13
  8 3069.25 0.00000 2.84553e-13
</Section>

newXOutput 92

<Section columns = "stress_xx | stress_yy | stress_xy">
  1 3108.01 0.00000 -6.58636e-14
  2 3108.01 0.00000 1.24225e-14
  3 3108.01 0.00000 2.31305e-13
  4 3108.01 0.00000 3.25798e-13
  5 3108.01 0.00000 -3.24720e-13
  6 3108.01 0.00000 -3.43864e-13
  7 3108.01 0.00000 2.21626e-13
  8 3108.01 0.00000 1.78267e-13
</Section>

newXOutput 93

<Section columns = "stress_xx | stress_yy | stress_xy">
  1 3146.84 0.00000 -2.13527e-15
  2 3146.84 0.00000 -1.99227e-14
  3 3146.84 0.00000 -1.36021e-13
  4 3146.84 0.00000 -1.32493e-13
  5 3146.84 0.00000 -4.22469e-14
  6 3146.84 0.00000 -5.03377e-14
  7 3146.84 0.00000 -5.33659e-13
  8 3146.84 0.00000 -2.88870e-13
</Section>

newXOutput 94

<Section columns = "stress_xx | stress_yy | stress_xy">
  1 3185.74 0.00000 -1.74561e-13
  2 3185.74 0.00000 -2.92695e-13
  3 3185.74 0.00000 1.45115e-13
  4 3185.74 0.00000 8.42658e-14
  5 3185.74 0.00000 -1.06028e-13
  6 3185.74 0.00000 -7.07578e-14
  7 3185.74 0.00000 2.07177e-13
  8 3185.74 0.00000 2.29141e-13
</Section>

newXOutput 95

<Section columns = "stress_xx | stress_yy | stress_xy">
  1 3224.71 0.00000 -8.14589e-14
  2 3224.71 0.00000 -1.02876e-13
  3 3224.71 0.00000 -4.88870e-14
  4 3224.71 0.00000 6.21835e-14
  5 3224.71 0.00000 1.03825e-14
  6 3224.71 0.00000 2.07919e-13
  7 3224.71 0.00000 1.75429e-13
  8 3224.71 0.00000 4.58378e-13
</Section>

newXOutput 96

<Section columns = "stress_xx | stress_yy | stress_xy">
  1 3263.75 0.00000 -1.64022e-13
  2 3263.75 0.00000 -2.21230e-13
  3 3263.75 0.00000 9.10921e-14
  4 3263.75 0.00000 6.60636e-14
  5 3263.75 0.00000 -3.89859e-13
  6 3263.75 0.00000 -3.60056e-13
  7 3263.75 0.00000 -1.98199e-13
  8 3263.75 0.00000 -1.97804e-13
</Section>

newXOutput 97

<Section columns = "stress_xx | stress_yy | stress_xy">
  1 3302.86 0.00000 -1.55659e-14
  2 3302.86 0.00000 -7.28702e-14
  3 3302.86 0.00000 2.21588e-13
  4 3302.86 0.00000 2.58660e-13
  5 3302.86 0.00000 5.28356e-13
  6 3302.86 0.00000 6.21218e-13
  7 3302.86 0.00000 1.37656e-13
  8 3302.86 0.00000 4.22462e-13
</Section>

newXOutput 98

<Section columns = "stress_xx | stress_yy | stress_xy">
  1 3342.05 0.00000 -1.00806e-13
  2 3342.05 0.00000 -1.43857e-13
  3 3342.05 0.00000 2.67777e-14
  4 3342.05 0.00000 -1.92255e-15
  5 3342.05 0.00000 5.15367e-14
  6 3342.05 0.00000 5.40368e-14
  7 3342.05 0.00000 9.07162e-14
  8 3342.05 0.00000 6.11213e-15
</Section>

newXOutput 99

<Section columns = "stress_xx | stress_yy | stress_xy">
  1 3381.30 0.00000 -8.08846e-14
  2 3381.30 0.00000 -1.38381e-13
  3 3381.30 0.00000 1.76999e-14
  4 3381.30 0.00000 -1.34830e-14
  5 3381.30 0.00000 -1.67957e-13
  6 3381.30 0.00000 -1.44509e-13
  7 3381.30 0.00000 2.72240e-13
  8 3381.30 0.00000 1.91796e-13
</Section>

newXOutput 100

<Section columns = "stress_xx | stress_yy | stress_xy">
  1 3420.63 0.00000 -1.30442e-13
  2 3420.63 0.00000 -1.88035e-13
  3 3420.63 0.00000 2.11103e-14
  4 3420.63 0.00000 -8.82251e-14
  5 3420.63 0.00000 2.06936e-15
  6 3420.63 0.00000 1.05985e-14
  7 3420.63 0.00000 1.50479e-13
  8 3420.63 0.00000 9.50893e-14
</Section>

newXOutput 101

<Section columns = "stress_xx | stress_yy | stress_xy">
  1 3460.03 0.00000 -2.87525e-14
  2 3460.03 0.00000 -7.92302e-14
  3 3460.03 0.00000 2.13547e-13
  4 3460.03 0.00000 5.48059e-14
  5 3460.03 0.00000 -1.88871e-14
  6 3460.03 0.00000 -1.85634e-13
  7 3460.03 0.00000 2.47529e-13
  8 3460.03 0.00000 2.31709e-13
</Section>

newXOutput 102

<Section columns = "stress_xx | stress_yy | stress_xy">
  1 3499.50 0.00000 2.68862e-14
  2 3499.50 0.00000 1.24399e-14
  3 3499.50 0.00000 -6.69383e-14
  4 3499.50 0.00000 -1.78562e-13
  5 3499.50 0.00000 -3.20038e-13
  6 3499.50 0.00000 -4.42948e-13
  7 3499.50 0.00000 2.51793e-14
  8 3499.50 0.00000 2.51954e-13
</Section>

newXOutput 103

<Section columns = "stress_xx | stress_yy | stress_xy">
  1 3539.05 0.00000 -1.83735e-13
  2 3539.05 0.00000 -1.83735e-13
  3 3539.05 0.00000 -3.66248e-14
  4 3539.05 0.00000 -2.21545e-14
  5 3539.05 0.00000 2.93163e-14
  6 3539.05 0.00000 1.51986e-14
  7 3539.05 0.00000 6.37015e-14
  8 3539.05 0.00000 -4.52448e-14
</Section>

newXOutput 104

<Section columns = "stress_xx | stress_yy | stress_xy">
  1 3578.67 0.00000 -2.29319e-13
  2 3578.67 0.00000 -3.18769e-13
  3 3578.67 0.00000 1.02109e-13
  4 3578.67 0.00000 1.44676e-13
  5 3578.67 0.00000 -5.86877e-13
  6 3578.67 0.00000 -4.60013e-13
  7 3578.67 0.00000 8.01797e-14
  8 3578.67 0.00000 3.89732e-13
</Section>

newXOutput 105

<Section columns = "stress_xx | stress_yy | stress_xy">
  1 3618.36 0.00000 1.16157e-13
  2 3618.36 0.00000 1.08898e-13
  3 3618.36 0.00000 2.56708e-13
  4 3618.36 0.00000 2.08980e-13
  5 3618.36 0.00000 4.75130e-13
  6 3618.36 0.00000 4.89810e-13
  7 3618.36 0.00000 7.57220e-14
  8 3618.36 0.00000 1.23758e-14
</Section>

newXOutput 106

<Section columns = "stress_xx | stress_yy | stress_xy">
  1 3658.13 0.00000 -8.32497e-14
  2 3658.13 0.00000 -1.19606e-13
  3 3658.13 0.00000 -5.92582e-14
  4 3658.13 0.00000 -5.92582e-14
  5 3658.13 0.00000 7.79751e-15
  6 3658.13 0.00000 1.28883e-14
  7 3658.13 0.00000 3.00312e-13
  8 3658.13 0.00000 2.22493e-13
</Section>

newXOutput 107

<Section columns = "stress_xx | stress_yy | stress_xy">
  1 3697.97 0.00000 -1.13590e-13
  2 3697.97 0.00000 -2.09194e-13
  3 3697.97 0.00000 1.54803e-13
  4 3697.97 0.00000 1.30392e-13
  5 3697.97 0.00000 3.91256e-13
  6 3697.97 0.00000 4.73188e-13
  7 3697.97 0.00000 9.93324e-14
  8 3697.97 0.00000 1.39011e-13
</Section>

newXOutput 108

<Section columns = "stress_xx | stress_yy | stress_xy">
  1 3737.88 0.00000 -4.42143e-14
  2 3737.88 0.00000 -1.16458e-13
  3 3737.88 0.00000 1.07228e-13
  4 3737.88 0.00000 1.67669e-14
  5 3737.88 0.00000 -2.25858e-14
  6 3737.88 0.00000 2.55303e-14
  7 3737.88 0.00000 2.12209e-13
  8 3737.88 0.00000 2.35472e-13
</Section>

newXOutput 109

<Section columns = "stress_xx | stress_yy | stress_xy">
  1 3777.88 0.00000 -9.30035e-14
  2 3777.88 0.00000 -1.58769e-13
  3 3777.88 0.00000 2.21387e-14
  4 3777.88 0.00000 1.84851e-14
  5 3777.88 0.00000 1.41673e-14
  6 3777.88 0.00000 1.15312e-13
  7 3777.88 0.00000 1.52716e-13
  8 3777.88 0.00000 4.01952e-13
</Section>

newXOutput 110

<Section columns = "stress_xx | stress_yy | stress_xy">
  1 3817.94 0.00000 -1.14415e-13
  2 3817.94 0.00000 -1.27274e-13
  3 3817.94 0.00000 -3.10273e-14
  4 3817.94 0.00000 -2.68747e-14
  5 3817.94 0.00000 -8.01102e-14
  6 3817.94 0.00000 -5.27300e-14
  7 3817.94 0.00000 1.04559e-13
  8 3817.94 0.00000 -2.24545e-13
</Section>

newXOutput 111

<Section columns = "stress_xx | stress_yy | stress_xy">
  1 3858.09 0.00000 -1.73283e-13
  2 3858.09 0.00000 -2.24602e-13
  3 3858.09 0.00000 3.63585e-14
  4 3858.09 0.00000 -5.77346e-14
  5 3858.09 0.00000 -6.85833e-13
  6 3858.09 0.00000 -6.43972e-13
  7 3858.09 0.00000 4.08812e-14
  8 3858.09 0.00000 2.51660e-13
</Section>

newXOutput 112

<Section columns = "stress_xx | stress_yy | stress_xy">
  1 3898.31 0.00000 -7.50429e-14
  2 3898.31 0.00000 -7.91378e-14
  3 3898.31 0.00000 5.38812e-15
  4 3898.31 0.00000 8.14032e-15
  5 3898.31 0.00000 -1.51132e-13
  6 3898.31 0.00000 1.13862e-14
  7 3898.31 0.00000 1.99863e-13
  8 3898.31 0.00000 4.13703e-13
</Section>

newXOutput 113

<Section columns = "stress_xx | stress_yy | stress_xy">
  1 3938.60 0.00000 -2.50922e-13
  2 3938.60 0.00000 -1.72417e-13
  3 3938.60 0.00000 -3.72040e-13
  4 3938.60 0.00000 -2.34872e-13
  5 3938.60 0.00000 -1.02228e-12
  6 3938.60 0.00000 -9.16112e-13
  7 3938.60 0.00000 -3.28124e-13
  8 3938.60 0.00000 1.39043e-13
</Section>

newXOutput 114

<Section columns = "stress_xx | stress_yy | stress_xy">
  1 3978.98 0.00000 -1.19293e-13
  2 3978.98 0.00000 -8.71918e-14
  3 3978.98 0.00000 6.03983e-14
  4 3978.98 0.00000 1.09745e-13
  5 3978.98 0.00000 -1.46055e-13
  6 3978.98 0.00000 -1.03917e-13
  7 3978.98 0.00000 3.79468e-13
  8 3978.98 0.00000 5.81458e-13
</Section>

newXOutput 115

<Section columns = "stress_xx | stress_yy | stress_xy">
  1 4019.43 0.00000 -2.03382e-13
  2 4019.43 0.00000 -1.57222e-13
  3 4019.43 0.00000 -2.07664e-13
  4 4019.43 0.00000 -9.74015e-14
  5 4019.43 0.00000 -2.42539e-13
  6 4019.43 0.00000 -1.85927e-13
  7 4019.43 0.00000 9.46430e-14
  8 4019.43 0.00000 5.67650e-14
</Section>

newXOutput 116

<Section columns = "stress_xx | stress_yy | stress_xy">
  1 4059.95 0.00000 -1.02818e-14
  2 4059.95 0.00000 -1.05210e-13
  3 4059.95 0.00000 4.71909e-14
  4 4059.95 0.00000 1.08369e-13
  5 4059.95 0.00000 -3.85154e-13
  6 4059.95 0.00000 -3.14033e-13
  7 4059.95 0.00000 -1.01528e-13
  8 4059.95 0.00000 1.07507e-13
</Section>

newXOutput 117

<Section columns = "stress_xx | stress_yy | stress_xy">
  1 4100.56 0.00000 -2.32783e-13
  2 4100.56 0.00000 -2.77203e-13
  3 4100.56 0.00000 -2.04111e-13
  4 4100.56 0.00000 -1.36009e-13
  5 4100.56 0.00000 -4.42228e-14
  6 4100.56 0.00000 1.14735e-13
  7 4100.56 0.00000 1.61298e-13
  8 4100.56 0.00000 2.70634e-13
</Section>

newXOutput 118

<Section columns = "stress_xx | stress_yy | stress_xy">
  1 4141.25 0.00000 -1.76520e-13
  2 4141.25 0.00000 -2.63477e-13
  3 4141.25 0.00000 3.31848e-13
  4 4141.25 0.00000 3.79659e-13
  5 4141.25 0.00000 -5.57294e-14
  6 4141.25 0.00000 1.52433e-13
  7 4141.25 0.00000 2.78598e-13
  8 4141.25 0.00000 4.63578e-13
</Section>

newXOutput 119

<Section columns = "stress_xx | stress_yy | stress_xy">
  1 4182.01 0.00000 -1.85357e-14
  2 4182.01 0.00000 8.62258e-14
  3 4182.01 0.00000 7.91108e-14
  4 4182.01 0.00000 4.25303e-14
  5 4182.01 0.00000 -4.50989e-13
  6 4182.01 0.00000 -6.49062e-13
  7 4182.01 0.00000 -2.67176e-13
  8 4182.01 0.00000 -7.08200e-13
</Section>

newXOutput 120

<Section columns = "stress_xx | stress_yy | stress_xy">
  1 4222.85 0.00000 -1.88456e-13
  2 4222.85 0.00000 -2.08442e-13
  3 4222.85 0.00000 -4.48180e-13
  4 4222.85 0.00000 -4.16856e-13
  5 4222.85 0.00000 -7.66903e-14
  6 4222.85 0.00000 -2.06012e-13
  7 4222.85 0.00000 2.01374e-14
  8 4222.85 0.00000 5.58494e-13
</Section>

newXOutput 121

<Section columns = "stress_xx | stress_yy | stress_xy">
  1 4263.78 0.00000 -3.55030e-13
  2 4263.78 0.00000 -4.55248e-13
  3 4263.78 0.00000 -1.63493e-13
  4 4263.78 0.00000 -7.75217e-14
  5 4263.78 0.00000 -1.14415e-13
  6 4263.78 0.00000 9.29676e-14
  7 4263.78 0.00000 1.28086e-13
  8 4263.78 0.00000 2.47557e-13
</Section>

newXOutput 122

<Section columns = "stress_xx | stress_yy | stress_xy">
  1 4304.78 0.00000 1.23625e-13
  2 4304.78 0.00000 9.29211e-14
  3 4304.78 0.00000 1.21627e-13
  4 4304.78 0.00000 1.87954e-13
  5 4304.78 0.00000 5.53413e-14
  6 4304.78 0.00000 -2.51586e-14
  7 4304.78 0.00000 3.60323e-13
  8 4304.78 0.00000 -1.02128e-13
</Section>

newXOutput 123

<Section columns = "stress_xx | stress_yy | stress_xy">
  1 4345.87 0.00000 -4.60822e-13
  2 4345.87 0.00000 -3.58037e-13
  3 4345.87 0.00000 -6.64109e-14
  4 4345.87 0.00000 4.92656e-14
  5 4345.87 0.00000 -1.08736e-13
  6 4345.87 0.00000 -1.26067e-13
  7 4345.87 0.00000 7.67925e-14
  8 4345.87 0.00000 -3.36280e-13
</Section>

newXOutput 124

<Section columns = "stress_xx | stress_yy | stress_xy">
  1 4387.03 0.00000 -3.62366e-14
  2 4387.03 0.00000 4.00730e-14
  3 4387.03 0.00000 1.06701e-13
  4 4387.03 0.00000 1.99014e-13
  5 4387.03 0.00000 6.96169e-14
  6 4387.03 0.00000 3.54028e-14
  7 4387.03 0.00000 4.31902e-13
  8 4387.03 0.00000 5.16697e-14
</Section>

newXOutput 125

<Section columns = "stress_xx | stress_yy | stress_xy">
  1 4428.28 0.00000 -1.45547e-15
  2 4428.28 0.00000 2.85427e-14
  3 4428.28 0.00000 1.92402e-13
  4 4428.28 0.00000 2.86643e-13
  5 4428.28 0.00000 1.61639e-13
  6 4428.28 0.00000 3.66775e-13
  7 4428.28 0.00000 1.66411e-13
  8 4428.28 0.00000 4.43613e-13
</Section>

newXOutput 126

<Section columns = "stress_xx | stress_yy | stress_xy">
  1 4469.61 0.00000 -3.33260e-13
  2 4469.61 0.00000 -3.18237e-13
  3 4469.61 0.00000 -2.06778e-13
  4 4469.61 0.00000 -2.35846e-13
  5 4469.61 0.00000 -2.40177e-14
  6 4469.61 0.00000 -1.08901e-14
  7 4469.61 0.00000 1.26813e-13
  8 4469.61 0.00000 3.53187e-13
</Section>

newXOutput 127

<Section columns = "stress_xx | stress_yy | stress_xy">
  1 4511.02 0.00000 -2.67649e-13
  2 4511.02 0.00000 -2.10423e-13
  3 4511.02 0.00000 3.32737e-13
  4 4511.02 0.00000 4.87591e-13
  5 4511.02 0.00000 -2.54047e-14
  6 4511.02 0.00000 -5.48680e-14
  7 4511.02 0.00000 2.06079e-13
  8 4511.02 0.00000 2.08582e-13
</Section>

newXOutput 128

<Section columns = "stress_xx | stress_yy | stress_xy">
  1 4552.51 0.00000 -1.19071e-13
  2 4552.51 0.00000 -7.83404e-14
  3 4552.51 0.00000 3.32015e-14
  4 4552.51 0.00000 4.62216e-14
  5 4552.51 0.00000 -1.26489e-13
  6 4552.51 0.00000 -6.46879e-14
  7 4552.51 0.00000 -1.75985e-13
  8 4552.51 0.00000 3.19542e-13
</Section>

newXOutput 129

<Section columns = "stress_xx | stress_yy | stress_xy">
  1 4594.09 0.00000 7.58235e-14
  2 4594.09 0.00000 7.58235e-14
  3 4594.09 0.00000 2.93151e-13
  4 4594.09 0.00000 1.73810e-13
  5 4594.09 0.00000 5.48082e-13
  6 4594.09 0.00000 5.31353e-13
  7 4594.09 0.00000 3.48053e-13
  8 4594.09 0.00000 7.65353e-13
</Section>

newXOutput 130

<Section columns = "stress_xx | stress_yy | stress_xy">
  1 4635.75 0.00000 -2.61080e-13
  2 4635.75 0.00000 -3.03205e-13
  3 4635.75 0.00000 -3.47898e-13
  4 4635.75 0.00000 -2.59644e-13
  5 4635.75 0.00000 -3.05894e-13
  6 4635.75 0.00000 -2.67586e-13
  7 4635.75 0.00000 -1.70151e-13
  8 4635.75 0.00000 2.08107e-13
</Section>

newXOutput 131

<Section columns = "stress_xx | stress_yy | stress_xy">
  1 4677.50 0.00000 -1.04046e-13
  2 4677.50 0.00000 -2.06726e-13
  3 4677.50 0.00000 -1.20595e-13
  4 4677.50 0.00000 -8.93852e-14
  5 4677.50 0.00000 -1.61989e-13
  6 4677.50 0.00000 -1.99936e-13
  7 4677.50 0.00000 1.58849e-13
  8 4677.50 0.00000 -4.98479e-13
</Section>

newXOutput 132

<Section columns = "stress_xx | stress_yy | stress_xy">
  1 4719.33 0.00000 -2.13664e-13
  2 4719.33 0.00000 -2.32246e-13
  3 4719.33 0.00000 -4.85106e-14
  4 4719.33 0.00000 -9.39689e-14
  5 4719.33 0.00000 -1.46659e-13
  6 4719.33 0.00000 -2.46778e-13
  7 4719.33 0.00000 3.61193e-13
  8 4719.33 0.00000 -3.34237e-13
</Section>

newXOutput 133

<Section columns = "stress_xx | stress_yy | stress_xy">
  1 4761.24 0.00000 -1.63208e-13
  2 4761.24 0.00000 -1.36307e-13
  3 4761.24 0.00000 -3.27867e-14
  4 4761.24 0.00000 1.14036e-13
  5 4761.24 0.00000 -1.88095e-14
  6 4761.24 0.00000 7.49762e-14
  7 4761.24 0.00000 -5.22710e-13
  8 4761.24 0.00000 5.22710e-13
</Section>

newXOutput 134

<Section columns = "stress_xx | stress_yy | stress_xy">
  1 4782.12 0.00000 0.751315
  2 4782.12 0.00000 -0.751315
  3 4775.17 0.00000 0.375685
  4 4775.17 0.00000 -0.375685
  5 4775.17 0.00000 -0.375685
  6 4775.17 0.00000 0.375685
  7 4782.12 0.00000 -0.751315
  8 4782.12 0.00000 0.751315
</Section>

newXOutput 135

<Section columns = "stress_xx | stress_yy | stress_xy">
  1 4784.47 0.00000 1.93740
  2 4784.47 0.00000 -1.93740
  3 4765.19 0.00000 0.968883
  4 4765.19 0.00000 -0.968883
  5 4765.19 0.00000 -0.968883
  6 4765.19 0.00000 0.968883
  7 4784.47 0.00000 -1.93740
  8 4784.47 0.00000 1.93740
</Section>

newXOutput 136

<Section columns = "stress_xx | stress_yy | stress_xy">
  1 4783.27 0.00000 2.47817
  2 4783.27 0.00000 -2.47817
  3 4753.72 0.00000 1.23939
  4 4753.72 0.00000 -1.23939
  5 4753.72 0.00000 -1.23939
  6 4753.72 0.00000 1.23939
  7 4783.27 0.00000 -2.47817
  8 4783.27 0.00000 2.47817
</Section>

newXOutput 137

<Section columns = "stress_xx | stress_yy | stress_xy">
  1 4783.60 0.00000 2.74047
  2 4783.60 0.00000 -2.74047
  3 4743.38 0.00000 1.37061
  4 4743.38 0.00000 -1.37061
  5 4743.38 0.00000 -1.37061
  6 4743.38 0.00000 1.37061
  7 4783.60 0.00000 -2.74047
  8 4783.60 0.00000 2.74047
</Section>

newXOutput 138

<Section columns = "stress_xx | stress_yy | stress_xy">
  1 4783.34 0.00000 2.89668
  2 4783.34 0.00000 -2.89668
  3 4732.56 0.00000 1.44875
  4 4732.56 0.00000 -1.44875
  5 4732.56 0.00000 -1.44875
  6 4732.56 0.00000 1.44875
  7 4783.34 0.00000 -2.89668
  8 4783.34 0.00000 2.89668
</Section>

newXOutput 139

<Section columns = "stress_xx | stress_yy | stress_xy">
  1 4782.49 0.00000 2.98756
  2 4782.49 0.00000 -2.98756
  3 4721.20 0.00000 1.49422
  4 4721.20 0.00000 -1.49422
  5 4721.20 0.00000 -1.49422
  6 4721.20 0.00000 1.49422
  7 4782.49 0.00000 -2.98756
  8 4782.49 0.00000 2.98756
</Section>

newXOutput 140

<Section columns = "stress_xx | stress_yy | stress_xy">
  1 4781.06 0.00000 3.03860
  2 4781.06 0.00000 -3.03860
  3 4709.26 0.00000 1.51976
  4 4709.26 0.00000 -1.51976
  5 4709.26 0.00000 -1.51976
  6 4709.26 0.00000 1.51976
  7 4781.06 0.00000 -3.03860
  8 4781.06 0.00000 3.03860
</Section>

newXOutput 141

<Section columns = "stress_xx | stress_yy | stress_xy">
  1 4779.02 0.00000 3.06539
  2 4779.02 0.00000 -3.06539
  3 4696.71 0.00000 1.53316
  4 4696.71 0.00000 -1.53316
  5 4696.71 0.00000 -1.53316
  6 4696.71 0.00000 1.53316
  7 4779.02 0.00000 -3.06539
  8 4779.02 0.00000 3.06539
</Section>

newXOutput 142

<Section columns = "stress_xx | stress_yy | stress_xy">
  1 4776.37 0.00000 3.07746
  2 4776.37 0.00000 -3.07746
  3 4683.54 0.00000 1.53920
  4 4683.54 0.00000 -1.53920
  5 4683.54 0.00000 -1.53920
  6 4683.54 0.00000 1.53920
  7 4776.37 0.00000 -3.07746
  8 4776.37 0.00000 3.07746
</Section>

newXOutput 143

<Section columns = "stress_xx | stress_yy | stress_xy">
  1 4773.09 0.00000 3.08057
  2 4773.09 0.00000 -3.08057
  3 4669.72 0.00000 1.54076
  4 4669.72 0.00000 -1.54076
  5 4669.72 0.00000 -1.54076
  6 4669.72 0.00000 1.54076
  7 4773.09 0.00000 -3.08057
  8 4773.09 0.00000 3.08057
</Section>

newXOutput 144

<Section columns = "stress_xx | stress_yy | stress_xy">
  1 4769.19 0.00000 3.07824
  2 4769.19 0.00000 -3.07824
  3 4655.24 0.00000 1.53960
  4 4655.24 0.00000 -1.53960
  5 4655.24 0.00000 -1.53960
  6 4655.24 0.00000 1.53960
  7 4769.19 0.00000 -3.07824
  8 4769.19 0.00000 3.07824
</Section>

newXOutput 145

<Section columns = "stress_xx | stress_yy | stress_xy">
  1 4764.64 0.00000 3.07259
  2 4764.64 0.00000 -3.07259
  3 4640.09 0.00000 1.53677
  4 4640.09 0.00000 -1.53677
  5 4640.09 0.00000 -1.53677
  6 4640.09 0.00000 1.53677
  7 4764.64 0.00000 -3.07259
  8 4764.64 0.00000 3.07259
</Section>

newXOutput 146

<Section columns = "stress_xx | stress_yy | stress_xy">
  1 4759.43 0.00000 3.06491
  2 4759.43 0.00000 -3.06491
  3 4624.27 0.00000 1.53293
  4 4624.27 0.00000 -1.53293
  5 4624.27 0.00000 -1.53293
  6 4624.27 0.00000 1.53293
  7 4759.43 0.00000 -3.06491
  8 4759.43 0.00000 3.06491
</Section>

newXOutput 147

<Section columns = "stress_xx | stress_yy | stress_xy">
  1 4753.55 0.00000 3.05598
  2 4753.55 0.00000 -3.05598
  3 4607.75 0.00000 1.52846
  4 4607.75 0.00000 -1.52846
  5 4607.75 0.00000 -1.52846
  6 4607.75 0.00000 1.52846
  7 4753.55 0.00000 -3.05598
  8 4753.55 0.00000 3.05598
</Section>

newXOutput 148

<Section columns = "stress_xx | stress_yy | stress_xy">
  1 4746.98 0.00000 3.04629
  2 4746.98 0.00000 -3.04629
  3 4590.53 0.00000 1.52362
  4 4590.53 0.00000 -1.52362
  5 4590.53 0.00000 -1.52362
  6 4590.53 0.00000 1.52362
  7 4746.98 0.00000 -3.04629
  8 4746.98 0.00000 3.04629
</Section>

newXOutput 149

<Section columns = "stress_xx | stress_yy | stress_xy">
  1 4739.71 0.00000 3.03615
  2 4739.71 0.00000 -3.03615
  3 4572.60 0.00000 1.51854
  4 4572.60 0.00000 -1.51854
  5 4572.60 0.00000 -1.51854
  6 4572.60 0.00000 1.51854
  7 4739.71 0.00000 -3.03615
  8 4739.71 0.00000 3.03615
</Section>

newXOutput 150

<Section columns = "stress_xx | stress_yy | stress_xy">
  1 4731.71 0.00000 3.02574
  2 4731.71 0.00000 -3.02574
  3 4553.94 0.00000 1.51334
  4 4553.94 0.00000 -1.51334
  5 4553.94 0.00000 -1.51334
  6 4553.94 0.00000 1.51334
  7 4731.71 0.00000 -3.02574
  8 4731.71 0.00000 3.02574
</Section>

newXOutput 151

<Section columns = "stress_xx | stress_yy | stress_xy">
  1 4722.97 0.00000 3.01522
  2 4722.97 0.00000 -3.01522
  3 4534.53 0.00000 1.50807
  4 4534.53 0.00000 -1.50807
  5 4534.53 0.00000 -1.50807
  6 4534.53 0.00000 1.50807
  7 4722.97 0.00000 -3.01522
  8 4722.97 0.00000 3.01522
</Section>

newXOutput 152

<Section columns = "stress_xx | stress_yy | stress_xy">
  1 4713.47 0.00000 3.00467
  2 4713.47 0.00000 -3.00467
  3 4514.36 0.00000 1.50280
  4 4514.36 0.00000 -1.50280
  5 4514.36 0.00000 -1.50280
  6 4514.36 0.00000 1.50280
  7 4713.47 0.00000 -3.00467
  8 4713.47 0.00000 3.00467
</Section>

newXOutput 153

<Section columns = "stress_xx | stress_yy | stress_xy">
  1 4703.18 0.00000 2.99418
  2 4703.18 0.00000 -2.99418
  3 4493.41 0.00000 1.49755
  4 4493.41 0.00000 -1.49755
  5 4493.41 0.00000 -1.49755
  6 4493.41 0.00000 1.49755
  7 4703.18 0.00000 -2.99418
  8 4703.18 0.00000 2.99418
</Section>

newXOutput 154

<Section columns = "stress_xx | stress_yy | stress_xy">
  1 4692.08 0.00000 2.98381
  2 4692.08 0.00000 -2.98381
  3 4471.65 0.00000 1.49236
  4 4471.65 0.00000 -1.49236
  5 4471.65 0.00000 -1.49236
  6 4471.65 0.00000 1.49236
  7 4692.08 0.00000 -2.98381
  8 4692.08 0.00000 2.98381
</Section>

newXOutput 155

<Section columns = "stress_xx | stress_yy | stress_xy">
  1 4680.14 0.00000 2.97363
  2 4680.14 0.00000 -2.97363
  3 4449.07 0.00000 1.48727
  4 4449.07 0.00000 -1.48727
  5 4449.07 0.00000 -1.48727
  6 4449.07 0.00000 1.48727
  7 4680.14 0.00000 -2.97363
  8 4680.14 0.00000 2.97363
</Section>

newXOutput 156

<Section columns = "stress_xx | stress_yy | stress_xy">
  1 4667.33 0.00000 2.96368
  2 4667.33 0.00000 -2.96368
  3 4425.63 0.00000 1.48229
  4 4425.63 0.00000 -1.48229
  5 4425.63 0.00000 -1.48229
  6 4425.63 0.00000 1.48229
  7 4667.33 0.00000 -2.96368
  8 4667.33 0.00000 2.96368
</Section>

newXOutput 157

<Section columns = "stress_xx | stress_yy | stress_xy">
  1 4653.61 0.00000 2.95404
  2 4653.61 0.00000 -2.95404
  3 4401.32 0.00000 1.47747
  4 4401.32 0.00000 -1.47747
  5 4401.32 0.00000 -1.47747
  6 4401.32 0.00000 1.47747
  7 4653.61 0.00000 -2.95404
  8 4653.61 0.00000 2.95404
</Section>

newXOutput 158

<Section columns = "stress_xx | stress_yy | stress_xy">
  1 4638.97 0.00000 2.94474
  2 4638.97 0.00000 -2.94474
  3 4376.09 0.00000 1.47282
  4 4376.09 0.00000 -1.47282
  5 4376.09 0.00000 -1.47282
  6 4376.09 0.00000 1.47282
  7 4638.97 0.00000 -2.94474
  8 4638.97 0.00000 2.94474
</Section>

newXOutput 159

<Section columns = "stress_xx | stress_yy | stress_xy">
  1 4623.34 0.00000 2.93586
  2 4623.34 0.00000 -2.93586
  3 4349.93 0.00000 1.46837
  4 4349.93 0.00000 -1.46837
  5 4349.93 0.00000 -1.46837
  6 4349.93 0.00000 1.46837
  7 4623.34 0.00000 -2.93586
  8 4623.34 0.00000 2.93586
</Section>

newXOutput 160

<Section columns = "stress_xx | stress_yy | stress_xy">
  1 4606.70 0.00000 2.92745
  2 4606.70 0.00000 -2.92745
  3 4322.78 0.00000 1.46417
  4 4322.78 0.00000 -1.46417
  5 4322.78 0.00000 -1.46417
  6 4322.78 0.00000 1.46417
  7 4606.70 0.00000 -2.92745
  8 4606.70 0.00000 2.92745
</Section>

newXOutput 161

<Section columns = "stress_xx | stress_yy | stress_xy">
  1 4589.00 0.00000 2.91958
  2 4589.00 0.00000 -2.91958
  3 4294.62 0.00000 1.46023
  4 4294.62 0.00000 -1.46023
  5 4294.62 0.00000 -1.46023
  6 4294.62 0.00000 1.46023
  7 4589.00 0.00000 -2.91958
  8 4589.00 0.00000 2.91958
</Section>

newXOutput 162

<Section columns = "stress_xx | stress_yy | stress_xy">
  1 4570.18 0.00000 2.91234
  2 4570.18 0.00000 -2.91234
  3 4265.39 0.00000 1.45661
  4 4265.39 0.00000 -1.45661
  5 4265.39 0.00000 -1.45661
  6 4265.39 0.00000 1.45661
  7 4570.18 0.00000 -2.91234
  8 4570.18 0.00000 2.91234
</Section>

newXOutput 163

<Section columns = "stress_xx | stress_yy | stress_xy">
  1 4550.20 0.00000 2.90578
  2 4550.20 0.00000 -2.90578
  3 4235.06 0.00000 1.45333
  4 4235.06 0.00000 -1.45333
  5 4235.06 0.00000 -1.45333
  6 4235.06 0.00000 1.45333
  7 4550.20 0.00000 -2.90578
  8 4550.20 0.00000 2.90578
</Section>

newXOutput 164

<Section columns = "stress_xx | stress_yy | stress_xy">
  1 4529.00 0.00000 2.90001
  2 4529.00 0.00000 -2.90001
  3 4203.56 0.00000 1.45044
  4 4203.56 0.00000 -1.45044
  5 4203.56 0.00000 -1.45044
  6 4203.56 0.00000 1.45044
  7 4529.00 0.00000 -2.90001
  8 4529.00 0.00000 2.90001
</Section>

newXOutput 165

<Section columns = "stress_xx | stress_yy | stress_xy">
  1 4506.50 0.00000 2.89512
  2 4506.50 0.00000 -2.89512
  3 4170.84 0.00000 1.44799
  4 4170.84 0.00000 -1.44799
  5 4170.84 0.00000 -1.44799
  6 4170.84 0.00000 1.44799
  7 4506.50 0.00000 -2.89512
  8 4506.50 0.00000 2.89512
</Section>

newXOutput 166

<Section columns = "stress_xx | stress_yy | stress_xy">
  1 4482.64 0.00000 2.89122
  2 4482.64 0.00000 -2.89122
  3 4136.84 0.00000 1.44604
  4 4136.84 0.00000 -1.44604
  5 4136.84 0.00000 -1.44604
  6 4136.84 0.00000 1.44604
  7 4482.64 0.00000 -2.89122
  8 4482.64 0.00000 2.89122
</Section>

newXOutput 167

<Section columns = "stress_xx | stress_yy | stress_xy">
  1 4457.32 0.00000 2.88843
  2 4457.32 0.00000 -2.88843
  3 4101.47 0.00000 1.44465
  4 4101.47 0.00000 -1.44465
  5 4101.47 0.00000 -1.44465
  6 4101.47 0.00000 1.44465
  7 4457.32 0.00000 -2.88843
  8 4457.32 0.00000 2.88843
</Section>

newXOutput 168

<Section columns = "stress_xx | stress_yy | stress_xy">
  1 4430.47 0.00000 2.88691
  2 4430.47 0.00000 -2.88691
  3 4064.66 0.00000 1.44389
  4 4064.66 0.00000 -1.44389
  5 4064.66 0.00000 -1.44389
  6 4064.66 0.00000 1.44389
  7 4430.47 0.00000 -2.88691
  8 4430.47 0.00000 2.88691
</Section>

newXOutput 169

<Section columns = "stress_xx | stress_yy | stress_xy">
  1 4401.98 0.00000 2.88681
  2 4401.98 0.00000 -2.88681
  3 4026.31 0.00000 1.44383
  4 4026.31 0.00000 -1.44383
  5 4026.31 0.00000 -1.44383
  6 4026.31 0.00000 1.44383
  7 4401.98 0.00000 -2.88681
  8 4401.98 0.00000 2.88681
</Section>

newXOutput 170

<Section columns = "stress_xx | stress_yy | stress_xy">
  1 4371.73 0.00000 2.88833
  2 4371.73 0.00000 -2.88833
  3 3986.33 0.00000 1.44459
  4 3986.33 0.00000 -1.44459
  5 3986.33 0.00000 -1.44459
  6 3986.33 0.00000 1.44459
  7 4371.73 0.00000 -2.88833
  8 4371.73 0.00000 2.88833
</Section>

newXOutput 171

<Section columns = "stress_xx | stress_yy | stress_xy">
  1 4339.59 0.00000 2.89169
  2 4339.59 0.00000 -2.89169
  3 3944.59 0.00000 1.44628
  4 3944.59 0.00000 -1.44628
  5 3944.59 0.00000 -1.44628
  6 3944.59 0.00000 1.44628
  7 4339.59 0.00000 -2.89169
  8 4339.59 0.00000 2.89169
</Section>

newXOutput 172

<Section columns = "stress_xx | stress_yy | stress_xy">
  1 4305.42 0.00000 2.89719
  2 4305.42 0.00000 -2.89719
  3 3900.96 0.00000 1.44903
  4 3900.96 0.00000 -1.44903
  5 3900.96 0.00000 -1.44903
  6 3900.96 0.00000 1.44903
  7 4305.42 0.00000 -2.89719
  8 4305.42 0.00000 2.89719
</Section>

newXOutput 173

<Section columns = "stress_xx | stress_yy | stress_xy">
  1 4269.68 0.00000 2.31189
  2 4269.68 0.00000 -2.31189
  3 3856.41 0.00000 1.15622
  4 3856.41 0.00000 -1.15622
  5 3856.41 0.00000 -1.15622
  6 3856.41 0.00000 1.15622
  7 4269.68 0.00000 -2.31189
  8 4269.68 0.00000 2.31189
</Section>

newXOutput 174

<Section columns = "stress_xx | stress_yy | stress_xy">
  1 4229.97 0.00000 2.62637
  2 4229.97 0.00000 -2.62637
  3 3807.48 0.00000 1.31354
  4 3807.48 0.00000 -1.31354
  5 3807.48 0.00000 -1.31354
  6 3807.48 0.00000 1.31354
  7 4229.97 0.00000 -2.62637
  8 4229.97 0.00000 2.62637
</Section>

newXOutput 175

<Section columns = "stress_xx | stress_yy | stress_xy">
  1 4188.66 0.00000 2.77918
  2 4188.66 0.00000 -2.77918
  3 3757.10 0.00000 1.38998
  4 3757.10 0.00000 -1.38998
  5 3757.10 0.00000 -1.38998
  6 3757.10 0.00000 1.38998
  7 4188.66 0.00000 -2.77918
  8 4188.66 0.00000 2.77918
</Section>

newXOutput 176

<Section columns = "stress_xx | stress_yy | stress_xy">
  1 4145.36 0.00000 2.27063
  2 4145.36 0.00000 -2.27063
  3 3705.46 0.00000 1.13558
  4 3705.46 0.00000 -1.13558
  5 3705.46 0.00000 -1.13558
  6 3705.46 0.00000 1.13558
  7 4145.36 0.00000 -2.27063
  8 4145.36 0.00000 2.27063
</Section>

newXOutput 177

<Section columns = "stress_xx | stress_yy | stress_xy">
  1 4096.47 0.00000 2.64557
  2 4096.47 0.00000 -2.64557
  3 3648.06 0.00000 1.32314
  4 3648.06 0.00000 -1.32314
  5 3648.06 0.00000 -1.32314
  6 3648.06 0.00000 1.32314
  7 4096.47 0.00000 -2.64557
  8 4096.47 0.00000 2.64557
</Section>

newXOutput 178

<Section columns = "stress_xx | stress_yy | stress_xy">
  1 4046.79 0.00000 2.22850
  2 4046.79 0.00000 -2.22850
  3 3590.43 0.00000 1.11450
  4 3590.43 0.00000 -1.11450
  5 3590.43 0.00000 -1.11450
  6 3590.43 0.00000 1.11450
  7 4046.79 0.00000 -2.22850
  8 4046.79 0.00000 2.22850
</Section>

newXOutput 179

<Section columns = "stress_xx | stress_yy | stress_xy">
  1 3989.66 0.00000 2.66950
  2 3989.66 0.00000 -2.66950
  3 3525.48 0.00000 1.33511
  4 3525.48 0.00000 -1.33511
  5 3525.48 0.00000 -1.33511
  6 3525.48 0.00000 1.33511
  7 3989.66 0.00000 -2.66950
  8 3989.66 0.00000 2.66950
</Section>

newXOutput 180

<Section columns = "stress_xx | stress_yy | stress_xy">
  1 3931.78 0.00000 2.26194
  2 3931.78 0.00000 -2.26194
  3 3460.29 0.00000 1.13123
  4 3460.29 0.00000 -1.13123
  5 3460.29 0.00000 -1.13123
  6 3460.29 0.00000 1.13123
  7 3931.78 0.00000 -2.26194
  8 3931.78 0.00000 2.26194
</Section>

newXOutput 181

<Section columns = "stress_xx | stress_yy | stress_xy">
  1 3866.31 0.00000 2.14238
  2 3866.31 0.00000 -2.14238
  3 3388.11 0.00000 1.07142
  4 3388.11 0.00000 -1.07142
  5 3388.11 0.00000 -1.07142
  6 3388.11 0.00000 1.07142
  7 3866.31 0.00000 -2.14238
  8 3866.31 0.00000 2.14238
</Section>

newXOutput 182

<Section columns = "stress_xx | stress_yy | stress_xy">
  1 3794.46 0.00000 2.11992
  2 3794.46 0.00000 -2.11992
  3 3310.01 0.00000 1.06019
  4 3310.01 0.00000 -1.06019
  5 3310.01 0.00000 -1.06019
  6 3310.01 0.00000 1.06019
  7 3794.46 0.00000 -2.11992
  8 3794.46 0.00000 2.11992
</Section>

newXOutput 183

<Section columns = "stress_xx | stress_yy | stress_xy">
  1 3714.84 0.00000 2.14530
  2 3714.84 0.00000 -2.14530
  3 3224.78 0.00000 1.07288
  4 3224.78 0.00000 -1.07288
  5 3224.78 0.00000 -1.07288
  6 3224.78 0.00000 1.07288
  7 3714.84 0.00000 -2.14530
  8 3714.84 0.00000 2.14530
</Section>

newXOutput 184

<Section columns = "stress_xx | stress_yy | stress_xy">
  1 3625.53 0.00000 2.20086
  2 3625.53 0.00000 -2.20086
  3 3130.70 0.00000 1.10067
  4 3130.70 0.00000 -1.10067
  5 3130.70 0.00000 -1.10067
  6 3130.70 0.00000 1.10067
  7 3625.53 0.00000 -2.20086
  8 3625.53 0.00000 2.20086
</Section>

newXOutput 185

<Section columns = "stress_xx | stress_yy | stress_xy">
  1 3517.77 0.00000 1.93558
  2 3517.77 0.00000 -1.93558
  3 3020.61 0.00000 0.967969
  4 3020.61 0.00000 -0.967969
  5 3020.61 0.00000 -0.967969
  6 3020.61 0.00000 0.967969
  7 3517.77 0.00000 -1.93558
  8 3517.77 0.00000 1.93558
</Section>

newXOutput 186

<Section columns = "stress_xx | stress_yy | stress_xy">
  1 3393.84 0.00000 1.95318
  2 3393.84 0.00000 -1.95318
  3 2895.38 0.00000 0.976771
  4 2895.38 0.00000 -0.976771
  5 2895.38 0.00000 -0.976771
  6 2895.38 0.00000 0.976771
  7 3393.84 0.00000 -1.95318
  8 3393.84 0.00000 1.95318
</Section>

newXOutput 187

<Section columns = "stress_xx | stress_yy | stress_xy">
  1 3240.52 0.00000 1.44693
  2 3240.52 0.00000 -1.44693
  3 2744.15 0.00000 0.723564
  4 2744.15 0.00000 -0.723564
  5 2744.15 0.00000 -0.723564
  6 2744.15 0.00000 0.723564
  7 3240.52 0.00000 -1.44693
  8 3240.52 0.00000 1.44693
</Section>

