newXOutput 1

<Section columns = "stress_xx | stress_yy | stress_xy">
  1 0.00000 0.00000 0.00000
  2 0.00000 0.00000 0.00000
  3 0.00000 0.00000 0.00000
  4 0.00000 0.00000 0.00000
  5 0.00000 0.00000 0.00000
  6 0.00000 0.00000 0.00000
  7 0.00000 0.00000 0.00000
  8 0.00000 0.00000 0.00000
</Section>

newXOutput 2

<Section columns = "stress_xx | stress_yy | stress_xy">
  1 53.1619 0.00000 -1.87503e-14
  2 53.1619 0.00000 -1.71505e-14
  3 53.1619 0.00000 -6.05323e-15
  4 53.1619 0.00000 -5.89554e-15
  5 53.1619 0.00000 -2.02966e-15
  6 53.1619 0.00000 -3.07567e-15
  7 53.1619 0.00000 -1.15122e-14
  8 53.1619 0.00000 -1.14527e-14
</Section>

newXOutput 3

<Section columns = "stress_xx | stress_yy | stress_xy">
  1 106.149 0.00000 2.27046e-15
  2 106.149 0.00000 2.45516e-15
  3 106.149 0.00000 -1.61455e-15
  4 106.149 0.00000 1.24934e-15
  5 106.149 0.00000 4.89313e-15
  6 106.149 0.00000 6.43010e-15
  7 106.149 0.00000 1.35091e-14
  8 106.149 0.00000 1.23406e-14
</Section>

newXOutput 4

<Section columns = "stress_xx | stress_yy | stress_xy">
  1 158.979 0.00000 -2.68034e-15
  2 158.979 0.00000 -2.40561e-15
  3 158.979 0.00000 -6.92903e-15
  4 158.979 0.00000 -5.09722e-16
  5 158.979 0.00000 -2.50040e-15
  6 158.979 0.00000 4.56309e-15
  7 158.979 0.00000 4.04040e-15
  8 158.979 0.00000 3.86934e-15
</Section>

newXOutput 5

<Section columns = "stress_xx | stress_yy | stress_xy">
  1 211.654 0.00000 -3.04233e-14
  2 211.654 0.00000 -2.84256e-14
  3 211.654 0.00000 -1.25303e-14
  4 211.654 0.00000 -1.27330e-14
  5 211.654 0.00000 -1.66096e-14
  6 211.654 0.00000 -2.02092e-14
  7 211.654 0.00000 -1.96084e-14
  8 211.654 0.00000 -2.18035e-14
</Section>

newXOutput 6

<Section columns = "stress_xx | stress_yy | stress_xy">
  1 264.175 0.00000 -1.64139e-14
  2 264.175 0.00000 -1.35327e-14
  3 264.175 0.00000 3.97874e-15
  4 264.175 0.00000 7.13653e-15
  5 264.175 0.00000 2.09977e-14
  6 264.175 0.00000 2.48492e-14
  7 264.175 0.00000 -1.96654e-14
  8 264.175 0.00000 -2.39106e-15
</Section>

newXOutput 7

<Section columns = "stress_xx | stress_yy | stress_xy">
  1 316.544 0.00000 -5.91335e-15
  2 316.544 0.00000 -3.23516e-15
  3 316.544 0.00000 4.48042e-16
  4 316.544 0.00000 3.70121e-15
  5 316.544 0.00000 7.06101e-15
  6 316.544 0.00000 1.33629e-14
  7 316.544 0.00000 1.39091e-14
  8 316.544 0.00000 -8.53016e-15
</Section>

newXOutput 8

<Section columns = "stress_xx | stress_yy | stress_xy">
  1 368.764 0.00000 1.47081e-14
  2 368.764 0.00000 1.71863e-14
  3 368.764 0.00000 4.50156e-15
  4 368.764 0.00000 1.31999e-15
  5 368.764 0.00000 3.44236e-15
  6 368.764 0.00000 6.75107e-15
  7 368.764 0.00000 5.94731e-15
  8 368.764 0.00000 1.96718e-14
</Section>

newXOutput 9

<Section columns = "stress_xx | stress_yy | stress_xy">
  1 420.836 0.00000 -5.84867e-15
  2 420.836 0.00000 -6.46300e-15
  3 420.836 0.00000 -1.80910e-15
  4 420.836 0.00000 -5.49461e-15
  5 420.836 0.00000 -2.71981e-14
  6 420.836 0.00000 -2.75670e-14
  7 420.836 0.00000 2.66819e-14
  8 420.836 0.00000 2.22944e-14
</Section>

newXOutput 10

<Section columns = "stress_xx | stress_yy | stress_xy">
  1 472.763 0.00000 -1.36038e-15
  2 472.763 0.00000 -3.03399e-15
  3 472.763 0.00000 1.23150e-14
  4 472.763 0.00000 7.92399e-15
  5 472.763 0.00000 -5.14051e-14
  6 472.763 0.00000 -4.62890e-14
  7 472.763 0.00000 -9.55559e-15
  8 472.763 0.00000 2.16614e-14
</Section>

newXOutput 11

<Section columns = "stress_xx | stress_yy | stress_xy">
  1 524.546 0.00000 -1.48795e-14
  2 524.546 0.00000 -1.45347e-14
  3 524.546 0.00000 1.78537e-14
  4 524.546 0.00000 1.37766e-14
  5 524.546 0.00000 -9.28233e-17
  6 524.546 0.00000 -5.66547e-15
  7 524.546 0.00000 -6.55212e-15
  8 524.546 0.00000 -5.25680e-14
</Section>

newXOutput 12

<Section columns = "stress_xx | stress_yy | stress_xy">
  1 576.187 0.00000 -1.90277e-14
  2 576.187 0.00000 -1.83212e-14
  3 576.187 0.00000 1.54390e-14
  4 576.187 0.00000 1.54625e-14
  5 576.187 0.00000 -4.64918e-15
  6 576.187 0.00000 -1.31893e-14
  7 576.187 0.00000 2.44770e-14
  8 576.187 0.00000 1.49964e-14
</Section>

newXOutput 13

<Section columns = "stress_xx | stress_yy | stress_xy">
  1 627.688 0.00000 -1.05516e-14
  2 627.688 0.00000 -1.05516e-14
  3 627.688 0.00000 -1.38730e-14
  4 627.688 0.00000 -2.69668e-15
  5 627.688 0.00000 -1.74305e-14
  6 627.688 0.00000 -8.53759e-15
  7 627.688 0.00000 1.04852e-15
  8 627.688 0.00000 3.11893e-14
</Section>

newXOutput 14

<Section columns = "stress_xx | stress_yy | stress_xy">
  1 679.052 0.00000 -7.85506e-15
  2 679.052 0.00000 -3.11298e-15
  3 679.052 0.00000 2.19946e-14
  4 679.052 0.00000 2.56157e-14
  5 679.052 0.00000 9.02271e-15
  6 679.052 0.00000 1.59497e-14
  7 679.052 0.00000 -1.32195e-14
  8 679.052 0.00000 5.07731e-15
</Section>

newXOutput 15

<Section columns = "stress_xx | stress_yy | stress_xy">
  1 730.279 0.00000 4.93334e-15
  2 730.279 0.00000 4.26784e-15
  3 730.279 0.00000 1.29069e-14
  4 730.279 0.00000 2.33615e-14
  5 730.279 0.00000 -4.38302e-14
  6 730.279 0.00000 -3.57094e-14
  7 730.279 0.00000 -3.95034e-14
  8 730.279 0.00000 -2.05307e-14
</Section>

newXOutput 16

<Section columns = "stress_xx | stress_yy | stress_xy">
  1 781.373 0.00000 -2.92020e-14
  2 781.373 0.00000 -2.85425e-14
  3 781.373 0.00000 -6.82871e-15
  4 781.373 0.00000 -1.08425e-15
  5 781.373 0.00000 1.87415e-14
  6 781.373 0.00000 3.10330e-14
  7 781.373 0.00000 1.01322e-13
  8 781.373 0.00000 5.25588e-14
</Section>

newXOutput 17

<Section columns = "stress_xx | stress_yy | stress_xy">
  1 832.334 0.00000 -6.42355e-15
  2 832.334 0.00000 -5.11671e-15
  3 832.334 0.00000 6.59529e-15
  4 832.334 0.00000 -6.26747e-16
  5 832.334 0.00000 4.65350e-15
  6 832.334 0.00000 6.47865e-15
  7 832.334 0.00000 4.69820e-14
  8 832.334 0.00000 4.20646e-14
</Section>

newXOutput 18

<Section columns = "stress_xx | stress_yy | stress_xy">
  1 883.164 0.00000 -1.86850e-14
  2 883.164 0.00000 -1.86850e-14
  3 883.164 0.00000 3.21067e-14
  4 883.164 0.00000 2.38958e-14
  5 883.164 0.00000 5.69230e-14
  6 883.164 0.00000 6.63268e-14
  7 883.164 0.00000 -7.45120e-14
  8 883.164 0.00000 -1.49567e-14
</Section>

newXOutput 19

<Section columns = "stress_xx | stress_yy | stress_xy">
  1 933.866 0.00000 -1.46686e-14
  2 933.866 0.00000 -1.72341e-14
  3 933.866 0.00000 -2.34646e-14
  4 933.866 0.00000 -2.21870e-14
  5 933.866 0.00000 5.02832e-15
  6 933.866 0.00000 8.06475e-15
  7 933.866 0.00000 5.84951e-15
  8 933.866 0.00000 -1.05798e-14
</Section>

newXOutput 20

<Section columns = "stress_xx | stress_yy | stress_xy">
  1 984.440 0.00000 -3.06028e-14
  2 984.440 0.00000 -3.78946e-14
  3 984.440 0.00000 1.40659e-14
  4 984.440 0.00000 4.56513e-15
  5 984.440 0.00000 -1.62464e-15
  6 984.440 0.00000 -2.11007e-16
  7 984.440 0.00000 7.84147e-14
  8 984.440 0.00000 6.51315e-14
</Section>

newXOutput 21

<Section columns = "stress_xx | stress_yy | stress_xy">
  1 1034.89 0.00000 -1.05909e-14
  2 1034.89 0.00000 -1.34550e-14
  3 1034.89 0.00000 -8.45026e-15
  4 1034.89 0.00000 3.25693e-15
  5 1034.89 0.00000 -7.29069e-14
  6 1034.89 0.00000 -6.89574e-14
  7 1034.89 0.00000 -2.50187e-14
  8 1034.89 0.00000 -4.33982e-14
</Section>

newXOutput 22

<Section columns = "stress_xx | stress_yy | stress_xy">
  1 1085.22 0.00000 -4.23831e-15
  2 1085.22 0.00000 -2.36819e-15
  3 1085.22 0.00000 3.51780e-14
  4 1085.22 0.00000 2.30814e-14
  5 1085.22 0.00000 6.83045e-14
  6 1085.22 0.00000 5.86307e-14
  7 1085.22 0.00000 -3.34093e-14
  8 1085.22 0.00000 2.55104e-14
</Section>

newXOutput 23

<Section columns = "stress_xx | stress_yy | stress_xy">
  1 1135.42 0.00000 -3.31616e-14
  2 1135.42 0.00000 -3.25442e-14
  3 1135.42 0.00000 -1.46096e-14
  4 1135.42 0.00000 -2.88422e-16
  5 1135.42 0.00000 5.00927e-14
  6 1135.42 0.00000 6.96037e-14
  7 1135.42 0.00000 2.19185e-14
  8 1135.42 0.00000 -5.38385e-15
</Section>

newXOutput 24

<Section columns = "stress_xx | stress_yy | stress_xy">
  1 1185.51 0.00000 -2.83908e-14
  2 1185.51 0.00000 -1.64285e-14
  3 1185.51 0.00000 -2.58509e-14
  4 1185.51 0.00000 -3.63172e-14
  5 1185.51 0.00000 -1.58625e-14
  6 1185.51 0.00000 1.07849e-14
  7 1185.51 0.00000 -3.06808e-14
  8 1185.51 0.00000 2.76422e-14
</Section>

newXOutput 25

<Section columns = "stress_xx | stress_yy | stress_xy">
  1 1235.47 0.00000 -3.42324e-14
  2 1235.47 0.00000 -2.41057e-14
  3 1235.47 0.00000 -1.44551e-14
  4 1235.47 0.00000 -1.22066e-14
  5 1235.47 0.00000 -1.14452e-13
  6 1235.47 0.00000 -1.11940e-13
  7 1235.47 0.00000 2.11635e-14
  8 1235.47 0.00000 3.93720e-15
</Section>

newXOutput 26

<Section columns = "stress_xx | stress_yy | stress_xy">
  1 1285.32 0.00000 5.45097e-15
  2 1285.32 0.00000 5.45097e-15
  3 1285.32 0.00000 5.36372e-14
  4 1285.32 0.00000 3.30863e-14
  5 1285.32 0.00000 -1.23119e-13
  6 1285.32 0.00000 -1.31376e-13
  7 1285.32 0.00000 -6.14118e-14
  8 1285.32 0.00000 -7.86656e-14
</Section>

newXOutput 27

<Section columns = "stress_xx | stress_yy | stress_xy">
  1 1335.06 0.00000 -2.01877e-14
  2 1335.06 0.00000 -1.66267e-14
  3 1335.06 0.00000 3.44806e-14
  4 1335.06 0.00000 5.35430e-14
  5 1335.06 0.00000 -7.69612e-14
  6 1335.06 0.00000 -7.81482e-14
  7 1335.06 0.00000 1.07152e-14
  8 1335.06 0.00000 -2.62226e-14
</Section>

newXOutput 28

<Section columns = "stress_xx | stress_yy | stress_xy">
  1 1384.68 0.00000 -4.48711e-14
  2 1384.68 0.00000 -4.60462e-14
  3 1384.68 0.00000 5.29705e-14
  4 1384.68 0.00000 7.94295e-14
  5 1384.68 0.00000 3.54280e-14
  6 1384.68 0.00000 6.71511e-14
  7 1384.68 0.00000 7.51835e-14
  8 1384.68 0.00000 -2.01816e-14
</Section>

newXOutput 29

<Section columns = "stress_xx | stress_yy | stress_xy">
  1 1434.19 0.00000 -5.32836e-14
  2 1434.19 0.00000 -5.67732e-14
  3 1434.19 0.00000 -2.69126e-14
  4 1434.19 0.00000 -1.23661e-14
  5 1434.19 0.00000 -2.98537e-14
  6 1434.19 0.00000 -1.28803e-14
  7 1434.19 0.00000 1.22409e-14
  8 1434.19 0.00000 7.64726e-14
</Section>

newXOutput 30

<Section columns = "stress_xx | stress_yy | stress_xy">
  1 1483.60 0.00000 -4.02120e-14
  2 1483.60 0.00000 -3.41181e-14
  3 1483.60 0.00000 2.41936e-14
  4 1483.60 0.00000 3.83641e-14
  5 1483.60 0.00000 -6.78035e-14
  6 1483.60 0.00000 -7.55656e-14
  7 1483.60 0.00000 6.49725e-14
  8 1483.60 0.00000 -4.26942e-14
</Section>

newXOutput 31

<Section columns = "stress_xx | stress_yy | stress_xy">
  1 1532.89 0.00000 -2.20501e-14
  2 1532.89 0.00000 -2.54685e-14
  3 1532.89 0.00000 4.91835e-14
  4 1532.89 0.00000 6.31639e-14
  5 1532.89 0.00000 -5.05492e-14
  6 1532.89 0.00000 -5.48107e-14
  7 1532.89 0.00000 4.17449e-14
  8 1532.89 0.00000 -4.01211e-14
</Section>

newXOutput 32

<Section columns = "stress_xx | stress_yy | stress_xy">
  1 1582.08 0.00000 -5.17461e-14
  2 1582.08 0.00000 -6.80720e-14
  3 1582.08 0.00000 4.09800e-14
  4 1582.08 0.00000 -5.71803e-15
  5 1582.08 0.00000 6.56357e-16
  6 1582.08 0.00000 -1.84888e-14
  7 1582.08 0.00000 4.66898e-14
  8 1582.08 0.00000 -5.45021e-14
</Section>

newXOutput 33

<Section columns = "stress_xx | stress_yy | stress_xy">
  1 1631.16 0.00000 -1.92434e-14
  2 1631.16 0.00000 -3.10417e-14
  3 1631.16 0.00000 2.19975e-14
  4 1631.16 0.00000 1.47451e-14
  5 1631.16 0.00000 -3.42047e-14
  6 1631.16 0.00000 -5.17083e-14
  7 1631.16 0.00000 9.60792e-14
  8 1631.16 0.00000 -7.62893e-14
</Section>

newXOutput 34

<Section columns = "stress_xx | stress_yy | stress_xy">
  1 1680.14 0.00000 1.11219e-14
  2 1680.14 0.00000 1.22258e-14
  3 1680.14 0.00000 5.01004e-14
  4 1680.14 0.00000 6.59631e-14
  5 1680.14 0.00000 5.34486e-15
  6 1680.14 0.00000 3.70930e-14
  7 1680.14 0.00000 1.29665e-13
  8 1680.14 0.00000 1.34729e-15
</Section>

newXOutput 35

<Section columns = "stress_xx | stress_yy | stress_xy">
  1 1729.02 0.00000 -6.33933e-14
  2 1729.02 0.00000 -6.55775e-14
  3 1729.02 0.00000 6.92398e-14
  4 1729.02 0.00000 1.15572e-14
  5 1729.02 0.00000 1.24084e-13
  6 1729.02 0.00000 7.89711e-14
  7 1729.02 0.00000 1.18494e-13
  8 1729.02 0.00000 1.06382e-13
</Section>

newXOutput 36

<Section columns = "stress_xx | stress_yy | stress_xy">
  1 1777.80 0.00000 -1.86343e-14
  2 1777.80 0.00000 -2.29554e-14
  3 1777.80 0.00000 5.15805e-14
  4 1777.80 0.00000 1.58508e-14
  5 1777.80 0.00000 -6.15256e-14
  6 1777.80 0.00000 -8.71114e-14
  7 1777.80 0.00000 -1.64309e-14
  8 1777.80 0.00000 -7.48319e-15
</Section>

newXOutput 37

<Section columns = "stress_xx | stress_yy | stress_xy">
  1 1826.48 0.00000 -2.58516e-14
  2 1826.48 0.00000 -2.69200e-14
  3 1826.48 0.00000 -1.48895e-14
  4 1826.48 0.00000 -1.57409e-14
  5 1826.48 0.00000 -2.18180e-13
  6 1826.48 0.00000 -2.11579e-13
  7 1826.48 0.00000 1.70458e-14
  8 1826.48 0.00000 -4.24088e-15
</Section>

newXOutput 38

<Section columns = "stress_xx | stress_yy | stress_xy">
  1 1875.07 0.00000 -2.76949e-14
  2 1875.07 0.00000 -3.61483e-14
  3 1875.07 0.00000 6.55573e-14
  4 1875.07 0.00000 5.99755e-14
  5 1875.07 0.00000 -3.08317e-14
  6 1875.07 0.00000 -3.19403e-15
  7 1875.07 0.00000 -1.92168e-13
  8 1875.07 0.00000 -5.68504e-14
</Section>

newXOutput 39

<Section columns = "stress_xx | stress_yy | stress_xy">
  1 1923.56 0.00000 -1.18857e-14
  2 1923.56 0.00000 -2.54692e-14
  3 1923.56 0.00000 1.18522e-13
  4 1923.56 0.00000 1.22461e-13
  5 1923.56 0.00000 -3.77717e-14
  6 1923.56 0.00000 -3.61803e-14
  7 1923.56 0.00000 -1.55558e-13
  8 1923.56 0.00000 -1.20085e-14
</Section>

newXOutput 40

<Section columns = "stress_xx | stress_yy | stress_xy">
  1 1971.95 0.00000 -4.61696e-14
  2 1971.95 0.00000 -5.85669e-14
  3 1971.95 0.00000 3.77825e-14
  4 1971.95 0.00000 5.41784e-14
  5 1971.95 0.00000 -2.27571e-14
  6 1971.95 0.00000 -2.46211e-14
  7 1971.95 0.00000 3.28790e-14
  8 1971.95 0.00000 -1.35754e-13
</Section>

newXOutput 41

<Section columns = "stress_xx | stress_yy | stress_xy">
  1 2020.26 0.00000 -4.32522e-14
  2 2020.26 0.00000 -4.73376e-14
  3 2020.26 0.00000 5.75171e-14
  4 2020.26 0.00000 3.88910e-14
  5 2020.26 0.00000 -4.92446e-14
  6 2020.26 0.00000 -7.61450e-14
  7 2020.26 0.00000 3.55305e-14
  8 2020.26 0.00000 -2.03455e-14
</Section>

newXOutput 42

<Section columns = "stress_xx | stress_yy | stress_xy">
  1 2068.47 0.00000 -4.81629e-14
  2 2068.47 0.00000 -3.55894e-14
  3 2068.47 0.00000 1.52887e-13
  4 2068.47 0.00000 1.58276e-13
  5 2068.47 0.00000 2.23264e-13
  6 2068.47 0.00000 2.13149e-13
  7 2068.47 0.00000 2.07224e-13
  8 2068.47 0.00000 3.01668e-13
</Section>

newXOutput 43

<Section columns = "stress_xx | stress_yy | stress_xy">
  1 2116.60 0.00000 -1.62362e-13
  2 2116.60 0.00000 -1.62362e-13
  3 2116.60 0.00000 9.80112e-14
  4 2116.60 0.00000 1.40356e-13
  5 2116.60 0.00000 -3.85340e-13
  6 2116.60 0.00000 -4.13253e-13
  7 2116.60 0.00000 -2.62019e-14
  8 2116.60 0.00000 -6.07955e-14
</Section>

newXOutput 44

<Section columns = "stress_xx | stress_yy | stress_xy">
  1 2164.64 0.00000 -5.84728e-14
  2 2164.64 0.00000 -4.98033e-14
  3 2164.64 0.00000 9.82129e-14
  4 2164.64 0.00000 8.35488e-14
  5 2164.64 0.00000 -1.52849e-13
  6 2164.64 0.00000 -1.97856e-13
  7 2164.64 0.00000 1.41409e-13
  8 2164.64 0.00000 8.93917e-14
</Section>

newXOutput 45

<Section columns = "stress_xx | stress_yy | stress_xy">
  1 2212.59 0.00000 -2.67866e-14
  2 2212.59 0.00000 -2.00444e-14
  3 2212.59 0.00000 9.52228e-14
  4 2212.59 0.00000 8.59900e-14
  5 2212.59 0.00000 -1.18925e-13
  6 2212.59 0.00000 -1.69316e-13
  7 2212.59 0.00000 8.71127e-15
  8 2212.59 0.00000 -3.85622e-14
</Section>

newXOutput 46

<Section columns = "stress_xx | stress_yy | stress_xy">
  1 2260.46 0.00000 -9.93254e-14
  2 2260.46 0.00000 -1.05101e-13
  3 2260.46 0.00000 -4.25281e-14
  4 2260.46 0.00000 -1.10474e-14
  5 2260.46 0.00000 -5.83917e-14
  6 2260.46 0.00000 -5.36882e-14
  7 2260.46 0.00000 1.99158e-15
  8 2260.46 0.00000 -2.90078e-14
</Section>

newXOutput 47

<Section columns = "stress_xx | stress_yy | stress_xy">
  1 2308.25 0.00000 -8.48776e-14
  2 2308.25 0.00000 -8.67794e-14
  3 2308.25 0.00000 3.87817e-14
  4 2308.25 0.00000 9.24884e-15
  5 2308.25 0.00000 -7.81402e-14
  6 2308.25 0.00000 -7.27260e-14
  7 2308.25 0.00000 -2.65428e-13
  8 2308.25 0.00000 1.52649e-14
</Section>

newXOutput 48

<Section columns = "stress_xx | stress_yy | stress_xy">
  1 2355.95 0.00000 -4.92659e-14
  2 2355.95 0.00000 -5.39616e-14
  3 2355.95 0.00000 2.11781e-14
  4 2355.95 0.00000 7.08214e-14
  5 2355.95 0.00000 -6.46787e-14
  6 2355.95 0.00000 1.49126e-15
  7 2355.95 0.00000 -1.76963e-14
  8 2355.95 0.00000 9.58327e-14
</Section>

newXOutput 49

<Section columns = "stress_xx | stress_yy | stress_xy">
  1 2403.58 0.00000 -1.01190e-13
  2 2403.58 0.00000 -1.06754e-13
  3 2403.58 0.00000 7.96074e-15
  4 2403.58 0.00000 8.24292e-15
  5 2403.58 0.00000 6.54185e-14
  6 2403.58 0.00000 8.64551e-14
  7 2403.58 0.00000 7.85582e-14
  8 2403.58 0.00000 1.57135e-13
</Section>

newXOutput 50

<Section columns = "stress_xx | stress_yy | stress_xy">
  1 2451.12 0.00000 -2.03076e-14
  2 2451.12 0.00000 -4.22112e-14
  3 2451.12 0.00000 -5.83531e-14
  4 2451.12 0.00000 -6.57855e-14
  5 2451.12 0.00000 -2.35613e-13
  6 2451.12 0.00000 -2.13649e-13
  7 2451.12 0.00000 -8.81482e-14
  8 2451.12 0.00000 -8.58023e-15
</Section>

newXOutput 51

<Section columns = "stress_xx | stress_yy | stress_xy">
  1 2498.59 0.00000 -2.88964e-14
  2 2498.59 0.00000 -2.88964e-14
  3 2498.59 0.00000 1.40499e-13
  4 2498.59 0.00000 1.39595e-13
  5 2498.59 0.00000 2.53584e-14
  6 2498.59 0.00000 1.74330e-14
  7 2498.59 0.00000 1.00442e-13
  8 2498.59 0.00000 5.79131e-14
</Section>

newXOutput 52

<Section columns = "stress_xx | stress_yy | stress_xy">
  1 2545.99 0.00000 -6.59717e-14
  2 2545.99 0.00000 -6.77563e-14
  3 2545.99 0.00000 1.84262e-13
  4 2545.99 0.00000 1.21235e-13
  5 2545.99 0.00000 1.02675e-13
  6 2545.99 0.00000 1.34851e-14
  7 2545.99 0.00000 7.24588e-14
  8 2545.99 0.00000 3.26079e-14
</Section>

newXOutput 53

<Section columns = "stress_xx | stress_yy | stress_xy">
  1 2593.31 0.00000 -5.62256e-14
  2 2593.31 0.00000 -5.79868e-14
  3 2593.31 0.00000 -2.24045e-14
  4 2593.31 0.00000 1.74815e-14
  5 2593.31 0.00000 -2.24927e-14
  6 2593.31 0.00000 -1.55058e-14
  7 2593.31 0.00000 1.27148e-13
  8 2593.31 0.00000 8.81430e-14
</Section>

newXOutput 54

<Section columns = "stress_xx | stress_yy | stress_xy">
  1 2640.56 0.00000 -9.55178e-14
  2 2640.56 0.00000 -9.37800e-14
  3 2640.56 0.00000 -4.02970e-14
  4 2640.56 0.00000 5.71685e-15
  5 2640.56 0.00000 7.33357e-14
  6 2640.56 0.00000 7.00093e-14
  7 2640.56 0.00000 2.93193e-13
  8 2640.56 0.00000 9.61887e-14
</Section>

newXOutput 55

<Section columns = "stress_xx | stress_yy | stress_xy">
  1 2687.74 0.00000 -8.61150e-14
  2 2687.74 0.00000 -8.44006e-14
  3 2687.74 0.00000 -6.84996e-14
  4 2687.74 0.00000 -6.59279e-14
  5 2687.74 0.00000 -8.04420e-14
  6 2687.74 0.00000 -1.09302e-13
  7 2687.74 0.00000 9.98230e-14
  8 2687.74 0.00000 -1.33075e-13
</Section>

newXOutput 56

<Section columns = "stress_xx | stress_yy | stress_xy">
  1 2734.85 0.00000 -1.46831e-13
  2 2734.85 0.00000 -1.05557e-13
  3 2734.85 0.00000 -1.44393e-13
  4 2734.85 0.00000 -1.19442e-13
  5 2734.85 0.00000 -2.33339e-13
  6 2734.85 0.00000 -2.45723e-13
  7 2734.85 0.00000 1.03513e-13
  8 2734.85 0.00000 -1.16180e-13
</Section>

newXOutput 57

<Section columns = "stress_xx | stress_yy | stress_xy">
  1 2781.89 0.00000 -7.17596e-14
  2 2781.89 0.00000 -3.54808e-14
  3 2781.89 0.00000 -8.45820e-14
  4 2781.89 0.00000 -9.61693e-14
  5 2781.89 0.00000 -4.05723e-13
  6 2781.89 0.00000 -5.03091e-13
  7 2781.89 0.00000 6.02697e-14
  8 2781.89 0.00000 -1.32410e-13
</Section>

newXOutput 58

<Section columns = "stress_xx | stress_yy | stress_xy">
  1 2828.86 0.00000 -1.01529e-13
  2 2828.86 0.00000 -7.53242e-14
  3 2828.86 0.00000 1.43915e-13
  4 2828.86 0.00000 8.64160e-14
  5 2828.86 0.00000 -4.17188e-14
  6 2828.86 0.00000 -1.12060e-13
  7 2828.86 0.00000 2.05814e-13
  8 2828.86 0.00000 2.92546e-13
</Section>

newXOutput 59

<Section columns = "stress_xx | stress_yy | stress_xy">
  1 2875.77 0.00000 -1.06121e-14
  2 2875.77 0.00000 7.34925e-16
  3 2875.77 0.00000 1.85351e-13
  4 2875.77 0.00000 1.91226e-13
  5 2875.77 0.00000 -5.85492e-14
  6 2875.77 0.00000 -4.06209e-14
  7 2875.77 0.00000 4.07167e-14
  8 2875.77 0.00000 1.19333e-13
</Section>

newXOutput 60

<Section columns = "stress_xx | stress_yy | stress_xy">
  1 2922.62 0.00000 -9.00506e-14
  2 2922.62 0.00000 -8.84530e-14
  3 2922.62 0.00000 1.58077e-14
  4 2922.62 0.00000 3.53044e-14
  5 2922.62 0.00000 -8.42054e-14
  6 2922.62 0.00000 1.87166e-15
  7 2922.62 0.00000 8.81071e-14
  8 2922.62 0.00000 1.65235e-13
</Section>

newXOutput 61

<Section columns = "stress_xx | stress_yy | stress_xy">
  1 2969.40 0.00000 -1.76548e-13
  2 2969.40 0.00000 -1.67102e-13
  3 2969.40 0.00000 -1.35187e-13
  4 2969.40 0.00000 -1.69603e-13
  5 2969.40 0.00000 -1.12780e-13
  6 2969.40 0.00000 -1.01588e-13
  7 2969.40 0.00000 4.07454e-14
  8 2969.40 0.00000 2.71258e-13
</Section>

newXOutput 62

<Section columns = "stress_xx | stress_yy | stress_xy">
  1 3016.12 0.00000 -1.12830e-13
  2 3016.12 0.00000 -9.88714e-14
  3 3016.12 0.00000 -4.53541e-14
  4 3016.12 0.00000 -1.42164e-14
  5 3016.12 0.00000 -3.68932e-13
  6 3016.12 0.00000 -4.20155e-13
  7 3016.12 0.00000 -7.12577e-14
  8 3016.12 0.00000 -3.23161e-13
</Section>

newXOutput 63

<Section columns = "stress_xx | stress_yy | stress_xy">
  1 3062.78 0.00000 -1.27996e-13
  2 3062.78 0.00000 -1.03555e-13
  3 3062.78 0.00000 3.21827e-14
  4 3062.78 0.00000 -3.65950e-14
  5 3062.78 0.00000 2.53499e-13
  6 3062.78 0.00000 2.06550e-13
  7 3062.78 0.00000 3.39318e-13
  8 3062.78 0.00000 1.32493e-13
</Section>

newXOutput 64

<Section columns = "stress_xx | stress_yy | stress_xy">
  1 3109.39 0.00000 -1.20264e-13
  2 3109.39 0.00000 -1.09734e-13
  3 3109.39 0.00000 -1.47505e-14
  4 3109.39 0.00000 -4.94326e-14
  5 3109.39 0.00000 -1.95917e-14
  6 3109.39 0.00000 -5.51356e-14
  7 3109.39 0.00000 7.23859e-14
  8 3109.39 0.00000 -1.65157e-13
</Section>

newXOutput 65

<Section columns = "stress_xx | stress_yy | stress_xy">
  1 3155.93 0.00000 -7.31151e-14
  2 3155.93 0.00000 -4.29236e-14
  3 3155.93 0.00000 9.63336e-14
  4 3155.93 0.00000 2.23452e-14
  5 3155.93 0.00000 -9.90016e-15
  6 3155.93 0.00000 9.15575e-15
  7 3155.93 0.00000 7.69632e-14
  8 3155.93 0.00000 3.22269e-13
</Section>

newXOutput 66

<Section columns = "stress_xx | stress_yy | stress_xy">
  1 3202.42 0.00000 -4.71536e-14
  2 3202.42 0.00000 -6.11789e-14
  3 3202.42 0.00000 8.92261e-14
  4 3202.42 0.00000 5.09726e-14
  5 3202.42 0.00000 -2.02870e-13
  6 3202.42 0.00000 -2.14952e-13
  7 3202.42 0.00000 8.13668e-14
  8 3202.42 0.00000 3.40212e-15
</Section>

newXOutput 67

<Section columns = "stress_xx | stress_yy | stress_xy">
  1 3248.86 0.00000 -6.09555e-14
  2 3248.86 0.00000 -3.24636e-14
  3 3248.86 0.00000 1.54910e-13
  4 3248.86 0.00000 1.22617e-13
  5 3248.86 0.00000 -1.81887e-13
  6 3248.86 0.00000 -2.38755e-13
  7 3248.86 0.00000 1.85942e-13
  8 3248.86 0.00000 -2.13223e-13
</Section>

newXOutput 68

<Section columns = "stress_xx | stress_yy | stress_xy">
  1 3295.25 0.00000 -1.21245e-13
  2 3295.25 0.00000 -8.13724e-14
  3 3295.25 0.00000 -2.84643e-14
  4 3295.25 0.00000 -4.57330e-14
  5 3295.25 0.00000 -9.94953e-14
  6 3295.25 0.00000 -1.46848e-13
  7 3295.25 0.00000 1.26576e-13
  8 3295.25 0.00000 4.12483e-13
</Section>

newXOutput 69

<Section columns = "stress_xx | stress_yy | stress_xy">
  1 3341.58 0.00000 -5.84954e-14
  2 3341.58 0.00000 -7.56705e-14
  3 3341.58 0.00000 1.31840e-13
  4 3341.58 0.00000 1.29861e-13
  5 3341.58 0.00000 4.23494e-14
  6 3341.58 0.00000 -1.04130e-14
  7 3341.58 0.00000 1.66872e-13
  8 3341.58 0.00000 -2.29356e-13
</Section>

newXOutput 70

<Section columns = "stress_xx | stress_yy | stress_xy">
  1 3387.86 0.00000 -1.50293e-13
  2 3387.86 0.00000 -1.46200e-13
  3 3387.86 0.00000 -5.40955e-14
  4 3387.86 0.00000 -9.20660e-14
  5 3387.86 0.00000 -1.70287e-13
  6 3387.86 0.00000 -9.33143e-14
  7 3387.86 0.00000 -3.35536e-13
  8 3387.86 0.00000 2.34896e-13
</Section>

newXOutput 71

<Section columns = "stress_xx | stress_yy | stress_xy">
  1 3434.10 0.00000 -9.22277e-14
  2 3434.10 0.00000 -9.22277e-14
  3 3434.10 0.00000 4.22487e-14
  4 3434.10 0.00000 8.75840e-16
  5 3434.10 0.00000 -5.10676e-13
  6 3434.10 0.00000 -5.26814e-13
  7 3434.10 0.00000 2.26177e-14
  8 3434.10 0.00000 -5.87871e-14
</Section>

newXOutput 72

<Section columns = "stress_xx | stress_yy | stress_xy">
  1 3480.28 0.00000 -7.80234e-14
  2 3480.28 0.00000 -6.32434e-14
  3 3480.28 0.00000 1.98810e-13
  4 3480.28 0.00000 1.34199e-13
  5 3480.28 0.00000 -3.33699e-13
  6 3480.28 0.00000 -3.30092e-13
  7 3480.28 0.00000 -1.19345e-13
  8 3480.28 0.00000 1.19935e-13
</Section>

newXOutput 73

<Section columns = "stress_xx | stress_yy | stress_xy">
  1 3526.42 0.00000 -1.48804e-13
  2 3526.42 0.00000 -1.47510e-13
  3 3526.42 0.00000 3.59744e-14
  4 3526.42 0.00000 -8.56050e-16
  5 3526.42 0.00000 6.16931e-14
  6 3526.42 0.00000 2.99175e-14
  7 3526.42 0.00000 2.61650e-13
  8 3526.42 0.00000 1.40730e-13
</Section>

newXOutput 74

<Section columns = "stress_xx | stress_yy | stress_xy">
  1 3572.52 0.00000 -6.48308e-14
  2 3572.52 0.00000 -1.19142e-13
  3 3572.52 0.00000 3.18659e-14
  4 3572.52 0.00000 4.89148e-14
  5 3572.52 0.00000 1.00846e-13
  6 3572.52 0.00000 6.52374e-14
  7 3572.52 0.00000 2.87605e-13
  8 3572.52 0.00000 -1.22401e-13
</Section>

newXOutput 75

<Section columns = "stress_xx | stress_yy | stress_xy">
  1 3618.57 0.00000 -1.26137e-13
  2 3618.57 0.00000 -8.83291e-14
  3 3618.57 0.00000 -7.25850e-14
  4 3618.57 0.00000 -7.23795e-14
  5 3618.57 0.00000 -4.29028e-13
  6 3618.57 0.00000 -4.51773e-13
  7 3618.57 0.00000 -1.24931e-13
  8 3618.57 0.00000 -2.06797e-13
</Section>

newXOutput 76

<Section columns = "stress_xx | stress_yy | stress_xy">
  1 3664.58 0.00000 -1.28804e-13
  2 3664.58 0.00000 -8.98651e-14
  3 3664.58 0.00000 -1.04610e-13
  4 3664.58 0.00000 -1.02517e-13
  5 3664.58 0.00000 -4.70171e-13
  6 3664.58 0.00000 -5.34869e-13
  7 3664.58 0.00000 1.52893e-13
  8 3664.58 0.00000 -2.52143e-13
</Section>

newXOutput 77

<Section columns = "stress_xx | stress_yy | stress_xy">
  1 3710.55 0.00000 -8.33144e-14
  2 3710.55 0.00000 -8.21138e-14
  3 3710.55 0.00000 2.12308e-13
  4 3710.55 0.00000 2.93526e-13
  5 3710.55 0.00000 1.85161e-13
  6 3710.55 0.00000 2.50673e-13
  7 3710.55 0.00000 2.47487e-13
  8 3710.55 0.00000 4.98618e-13
</Section>

newXOutput 78

<Section columns = "stress_xx | stress_yy | stress_xy">
  1 3756.48 0.00000 -1.86752e-13
  2 3756.48 0.00000 -1.78512e-13
  3 3756.48 0.00000 -1.37943e-13
  4 3756.48 0.00000 -9.41110e-14
  5 3756.48 0.00000 -3.70306e-13
  6 3756.48 0.00000 -3.67369e-13
  7 3756.48 0.00000 2.59807e-14
  8 3756.48 0.00000 -9.20746e-14
</Section>

newXOutput 79

<Section columns = "stress_xx | stress_yy | stress_xy">
  1 3802.37 0.00000 -1.82188e-13
  2 3802.37 0.00000 -1.79880e-13
  3 3802.37 0.00000 -1.63248e-13
  4 3802.37 0.00000 -1.25692e-13
  5 3802.37 0.00000 -2.04141e-13
  6 3802.37 0.00000 -1.08681e-13
  7 3802.37 0.00000 -3.52759e-13
  8 3802.37 0.00000 2.26089e-13
</Section>

newXOutput 80

<Section columns = "stress_xx | stress_yy | stress_xy">
  1 3848.22 0.00000 -1.31162e-13
  2 3848.22 0.00000 -9.38220e-14
  3 3848.22 0.00000 -6.83117e-14
  4 3848.22 0.00000 -9.15542e-14
  5 3848.22 0.00000 -2.40029e-13
  6 3848.22 0.00000 -2.55051e-13
  7 3848.22 0.00000 1.98497e-13
  8 3848.22 0.00000 1.18265e-13
</Section>

newXOutput 81

<Section columns = "stress_xx | stress_yy | stress_xy">
  1 3894.04 0.00000 -1.00120e-13
  2 3894.04 0.00000 -9.12644e-14
  3 3894.04 0.00000 1.23938e-13
  4 3894.04 0.00000 1.47144e-13
  5 3894.04 0.00000 4.70410e-14
  6 3894.04 0.00000 4.98332e-14
  7 3894.04 0.00000 -2.23684e-13
  8 3894.04 0.00000 -3.18724e-14
</Section>

newXOutput 82

<Section columns = "stress_xx | stress_yy | stress_xy">
  1 3939.83 0.00000 -5.93102e-14
  2 3939.83 0.00000 -4.19738e-14
  3 3939.83 0.00000 2.81979e-13
  4 3939.83 0.00000 2.89618e-13
  5 3939.83 0.00000 1.29979e-13
  6 3939.83 0.00000 1.62639e-13
  7 3939.83 0.00000 1.05650e-13
  8 3939.83 0.00000 3.22509e-13
</Section>

newXOutput 83

<Section columns = "stress_xx | stress_yy | stress_xy">
  1 3985.58 0.00000 -2.05307e-13
  2 3985.58 0.00000 -1.16348e-13
  3 3985.58 0.00000 -6.18036e-13
  4 3985.58 0.00000 -4.66520e-13
  5 3985.58 0.00000 -1.80086e-13
  6 3985.58 0.00000 -1.72993e-13
  7 3985.58 0.00000 3.11032e-13
  8 3985.58 0.00000 -2.33333e-13
</Section>

newXOutput 84

<Section columns = "stress_xx | stress_yy | stress_xy">
  1 4031.30 0.00000 -2.28026e-13
  2 4031.30 0.00000 -1.58243e-13
  3 4031.30 0.00000 -6.79958e-14
  4 4031.30 0.00000 -3.39857e-14
  5 4031.30 0.00000 -5.40535e-13
  6 4031.30 0.00000 -5.51429e-13
  7 4031.30 0.00000 6.21054e-14
  8 4031.30 0.00000 -6.29685e-14
</Section>

newXOutput 85

<Section columns = "stress_xx | stress_yy | stress_xy">
  1 4076.98 0.00000 -1.45280e-13
  2 4076.98 0.00000 -7.45771e-14
  3 4076.98 0.00000 4.05705e-13
  4 4076.98 0.00000 4.36717e-13
  5 4076.98 0.00000 3.74658e-13
  6 4076.98 0.00000 3.62776e-13
  7 4076.98 0.00000 2.86015e-13
  8 4076.98 0.00000 1.95744e-13
</Section>

newXOutput 86

<Section columns = "stress_xx | stress_yy | stress_xy">
  1 4122.64 0.00000 -3.89789e-14
  2 4122.64 0.00000 -4.86758e-14
  3 4122.64 0.00000 1.72402e-13
  4 4122.64 0.00000 2.58186e-13
  5 4122.64 0.00000 4.71357e-13
  6 4122.64 0.00000 6.81531e-13
  7 4122.64 0.00000 2.97945e-13
  8 4122.64 0.00000 5.37028e-13
</Section>

newXOutput 87

<Section columns = "stress_xx | stress_yy | stress_xy">
  1 4168.27 0.00000 -1.71373e-13
  2 4168.27 0.00000 -1.88134e-13
  3 4168.27 0.00000 5.77539e-14
  4 4168.27 0.00000 5.46926e-14
  5 4168.27 0.00000 3.89935e-13
  6 4168.27 0.00000 2.95338e-13
  7 4168.27 0.00000 2.33340e-13
  8 4168.27 0.00000 3.95890e-13
</Section>

newXOutput 88

<Section columns = "stress_xx | stress_yy | stress_xy">
  1 4213.88 0.00000 -1.65661e-13
  2 4213.88 0.00000 -8.49406e-14
  3 4213.88 0.00000 3.05728e-14
  4 4213.88 0.00000 1.02107e-14
  5 4213.88 0.00000 -2.02312e-13
  6 4213.88 0.00000 -2.94274e-13
  7 4213.88 0.00000 -1.02831e-13
  8 4213.88 0.00000 6.16500e-14
</Section>

newXOutput 89

<Section columns = "stress_xx | stress_yy | stress_xy">
  1 4259.46 0.00000 -2.05119e-13
  2 4259.46 0.00000 -2.07877e-13
  3 4259.46 0.00000 3.52307e-14
  4 4259.46 0.00000 -2.65391e-14
  5 4259.46 0.00000 4.87363e-13
  6 4259.46 0.00000 3.92668e-13
  7 4259.46 0.00000 4.83492e-13
  8 4259.46 0.00000 3.99722e-13
</Section>

newXOutput 90

<Section columns = "stress_xx | stress_yy | stress_xy">
  1 4305.01 0.00000 -1.98222e-13
  2 4305.01 0.00000 -2.09604e-13
  3 4305.01 0.00000 -1.81515e-13
  4 4305.01 0.00000 -2.72964e-13
  5 4305.01 0.00000 -2.47114e-13
  6 4305.01 0.00000 -2.69485e-13
  7 4305.01 0.00000 1.43525e-13
  8 4305.01 0.00000 -3.07124e-13
</Section>

newXOutput 91

<Section columns = "stress_xx | stress_yy | stress_xy">
  1 4350.54 0.00000 -2.00439e-13
  2 4350.54 0.00000 -1.98695e-13
  3 4350.54 0.00000 1.09568e-13
  4 4350.54 0.00000 4.56675e-14
  5 4350.54 0.00000 8.85500e-13
  6 4350.54 0.00000 8.21099e-13
  7 4350.54 0.00000 4.38317e-13
  8 4350.54 0.00000 6.82710e-13
</Section>

newXOutput 92

<Section columns = "stress_xx | stress_yy | stress_xy">
  1 4396.05 0.00000 -1.94965e-13
  2 4396.05 0.00000 -1.94117e-13
  3 4396.05 0.00000 -1.92603e-13
  4 4396.05 0.00000 -1.63399e-13
  5 4396.05 0.00000 -8.81187e-14
  6 4396.05 0.00000 3.25086e-15
  7 4396.05 0.00000 3.05872e-13
  8 4396.05 0.00000 2.17390e-13
</Section>

newXOutput 93

<Section columns = "stress_xx | stress_yy | stress_xy">
  1 4412.72 0.00000 0.576780
  2 4412.72 0.00000 -0.576780
  3 4407.65 0.00000 0.288585
  4 4407.65 0.00000 -0.288585
  5 4407.65 0.00000 -0.288585
  6 4407.65 0.00000 0.288585
  7 4412.72 0.00000 -0.576780
  8 4412.72 0.00000 0.576780
</Section>

newXOutput 94

<Section columns = "stress_xx | stress_yy | stress_xy">
  1 4397.09 0.00000 1.41450
  2 4397.09 0.00000 -1.41450
  3 4375.94 0.00000 0.708421
  4 4375.94 0.00000 -0.708421
  5 4375.94 0.00000 -0.708421
  6 4375.94 0.00000 0.708421
  7 4397.09 0.00000 -1.41450
  8 4397.09 0.00000 1.41450
</Section>

newXOutput 95

<Section columns = "stress_xx | stress_yy | stress_xy">
  1 4377.67 0.00000 2.07264
  2 4377.67 0.00000 -2.07264
  3 4341.25 0.00000 1.03884
  4 4341.25 0.00000 -1.03884
  5 4341.25 0.00000 -1.03884
  6 4341.25 0.00000 1.03884
  7 4377.67 0.00000 -2.07264
  8 4377.67 0.00000 2.07264
</Section>

newXOutput 96

<Section columns = "stress_xx | stress_yy | stress_xy">
  1 4356.70 0.00000 1.89288
  2 4356.70 0.00000 -1.89288
  3 4304.20 0.00000 0.948537
  4 4304.20 0.00000 -0.948537
  5 4304.20 0.00000 -0.948537
  6 4304.20 0.00000 0.948537
  7 4356.70 0.00000 -1.89288
  8 4356.70 0.00000 1.89288
</Section>

newXOutput 97

<Section columns = "stress_xx | stress_yy | stress_xy">
  1 4336.19 0.00000 1.94577
  2 4336.19 0.00000 -1.94577
  3 4268.42 0.00000 0.975098
  4 4268.42 0.00000 -0.975098
  5 4268.42 0.00000 -0.975098
  6 4268.42 0.00000 0.975098
  7 4336.19 0.00000 -1.94577
  8 4336.19 0.00000 1.94577
</Section>

newXOutput 98

<Section columns = "stress_xx | stress_yy | stress_xy">
  1 4315.75 0.00000 1.94721
  2 4315.75 0.00000 -1.94721
  3 4233.04 0.00000 0.975815
  4 4233.04 0.00000 -0.975815
  5 4233.04 0.00000 -0.975815
  6 4233.04 0.00000 0.975815
  7 4315.75 0.00000 -1.94721
  8 4315.75 0.00000 1.94721
</Section>

newXOutput 99

<Section columns = "stress_xx | stress_yy | stress_xy">
  1 4295.42 0.00000 1.91811
  2 4295.42 0.00000 -1.91811
  3 4198.14 0.00000 0.961199
  4 4198.14 0.00000 -0.961199
  5 4198.14 0.00000 -0.961199
  6 4198.14 0.00000 0.961199
  7 4295.42 0.00000 -1.91811
  8 4295.42 0.00000 1.91811
</Section>

newXOutput 100

<Section columns = "stress_xx | stress_yy | stress_xy">
  1 4275.22 0.00000 1.87164
  2 4275.22 0.00000 -1.87164
  3 4163.73 0.00000 0.937858
  4 4163.73 0.00000 -0.937858
  5 4163.73 0.00000 -0.937858
  6 4163.73 0.00000 0.937858
  7 4275.22 0.00000 -1.87164
  8 4275.22 0.00000 1.87164
</Section>

newXOutput 101

<Section columns = "stress_xx | stress_yy | stress_xy">
  1 4255.18 0.00000 1.81597
  2 4255.18 0.00000 -1.81597
  3 4129.83 0.00000 0.909903
  4 4129.83 0.00000 -0.909903
  5 4129.83 0.00000 -0.909903
  6 4129.83 0.00000 0.909903
  7 4255.18 0.00000 -1.81597
  8 4255.18 0.00000 1.81597
</Section>

newXOutput 102

<Section columns = "stress_xx | stress_yy | stress_xy">
  1 4235.79 0.00000 1.95029
  2 4235.79 0.00000 -1.95029
  3 4097.18 0.00000 0.977351
  4 4097.18 0.00000 -0.977351
  5 4097.18 0.00000 -0.977351
  6 4097.18 0.00000 0.977351
  7 4235.79 0.00000 -1.95029
  8 4235.79 0.00000 1.95029
</Section>

newXOutput 103

<Section columns = "stress_xx | stress_yy | stress_xy">
  1 4215.84 0.00000 1.80967
  2 4215.84 0.00000 -1.80967
  3 4063.99 0.00000 0.906734
  4 4063.99 0.00000 -0.906734
  5 4063.99 0.00000 -0.906734
  6 4063.99 0.00000 0.906734
  7 4215.84 0.00000 -1.80967
  8 4215.84 0.00000 1.80967
</Section>

newXOutput 104

<Section columns = "stress_xx | stress_yy | stress_xy">
  1 4196.65 0.00000 1.89471
  2 4196.65 0.00000 -1.89471
  3 4032.16 0.00000 0.949435
  4 4032.16 0.00000 -0.949435
  5 4032.16 0.00000 -0.949435
  6 4032.16 0.00000 0.949435
  7 4196.65 0.00000 -1.89471
  8 4196.65 0.00000 1.89471
</Section>

newXOutput 105

<Section columns = "stress_xx | stress_yy | stress_xy">
  1 4177.45 0.00000 1.92547
  2 4177.45 0.00000 -1.92547
  3 4000.58 0.00000 0.964879
  4 4000.58 0.00000 -0.964879
  5 4000.58 0.00000 -0.964879
  6 4000.58 0.00000 0.964879
  7 4177.45 0.00000 -1.92547
  8 4177.45 0.00000 1.92547
</Section>

newXOutput 106

<Section columns = "stress_xx | stress_yy | stress_xy">
  1 4158.32 0.00000 1.92128
  2 4158.32 0.00000 -1.92128
  3 3969.34 0.00000 0.962772
  4 3969.34 0.00000 -0.962772
  5 3969.34 0.00000 -0.962772
  6 3969.34 0.00000 0.962772
  7 4158.32 0.00000 -1.92128
  8 4158.32 0.00000 1.92128
</Section>

newXOutput 107

<Section columns = "stress_xx | stress_yy | stress_xy">
  1 4139.26 0.00000 1.89517
  2 4139.26 0.00000 -1.89517
  3 3938.46 0.00000 0.949657
  4 3938.46 0.00000 -0.949657
  5 3938.46 0.00000 -0.949657
  6 3938.46 0.00000 0.949657
  7 4139.26 0.00000 -1.89517
  8 4139.26 0.00000 1.89517
</Section>

newXOutput 108

<Section columns = "stress_xx | stress_yy | stress_xy">
  1 4120.31 0.00000 1.85576
  2 4120.31 0.00000 -1.85576
  3 3907.97 0.00000 0.929868
  4 3907.97 0.00000 -0.929868
  5 3907.97 0.00000 -0.929868
  6 3907.97 0.00000 0.929868
  7 4120.31 0.00000 -1.85576
  8 4120.31 0.00000 1.85576
</Section>

newXOutput 109

<Section columns = "stress_xx | stress_yy | stress_xy">
  1 4101.46 0.00000 1.80872
  2 4101.46 0.00000 -1.80872
  3 3877.86 0.00000 0.906247
  4 3877.86 0.00000 -0.906247
  5 3877.86 0.00000 -0.906247
  6 3877.86 0.00000 0.906247
  7 4101.46 0.00000 -1.80872
  8 4101.46 0.00000 1.80872
</Section>

newXOutput 110

<Section columns = "stress_xx | stress_yy | stress_xy">
  1 4083.20 0.00000 1.97190
  2 4083.20 0.00000 -1.97190
  3 3848.86 0.00000 0.988189
  4 3848.86 0.00000 -0.988189
  5 3848.86 0.00000 -0.988189
  6 3848.86 0.00000 0.988189
  7 4083.20 0.00000 -1.97190
  8 4083.20 0.00000 1.97190
</Section>

newXOutput 111

<Section columns = "stress_xx | stress_yy | stress_xy">
  1 4064.45 0.00000 1.83957
  2 4064.45 0.00000 -1.83957
  3 3819.29 0.00000 0.921733
  4 3819.29 0.00000 -0.921733
  5 3819.29 0.00000 -0.921733
  6 3819.29 0.00000 0.921733
  7 4064.45 0.00000 -1.83957
  8 4064.45 0.00000 1.83957
</Section>

newXOutput 112

<Section columns = "stress_xx | stress_yy | stress_xy">
  1 4046.29 0.00000 1.95259
  2 4046.29 0.00000 -1.95259
  3 3790.86 0.00000 0.978487
  4 3790.86 0.00000 -0.978487
  5 3790.86 0.00000 -0.978487
  6 3790.86 0.00000 0.978487
  7 4046.29 0.00000 -1.95259
  8 4046.29 0.00000 1.95259
</Section>

newXOutput 113

<Section columns = "stress_xx | stress_yy | stress_xy">
  1 4027.65 0.00000 1.78768
  2 4027.65 0.00000 -1.78768
  3 3761.90 0.00000 0.895673
  4 3761.90 0.00000 -0.895673
  5 3761.90 0.00000 -0.895673
  6 3761.90 0.00000 0.895673
  7 4027.65 0.00000 -1.78768
  8 4027.65 0.00000 1.78768
</Section>

newXOutput 114

<Section columns = "stress_xx | stress_yy | stress_xy">
  1 4009.64 0.00000 1.87722
  2 4009.64 0.00000 -1.87722
  3 3734.09 0.00000 0.940632
  4 3734.09 0.00000 -0.940632
  5 3734.09 0.00000 -0.940632
  6 3734.09 0.00000 0.940632
  7 4009.64 0.00000 -1.87722
  8 4009.64 0.00000 1.87722
</Section>

newXOutput 115

<Section columns = "stress_xx | stress_yy | stress_xy">
  1 3991.67 0.00000 1.92056
  2 3991.67 0.00000 -1.92056
  3 3706.51 0.00000 0.962394
  4 3706.51 0.00000 -0.962394
  5 3706.51 0.00000 -0.962394
  6 3706.51 0.00000 0.962394
  7 3991.67 0.00000 -1.92056
  8 3991.67 0.00000 1.92056
</Section>

newXOutput 116

<Section columns = "stress_xx | stress_yy | stress_xy">
  1 3973.70 0.00000 1.93265
  2 3973.70 0.00000 -1.93265
  3 3679.14 0.00000 0.968464
  4 3679.14 0.00000 -0.968464
  5 3679.14 0.00000 -0.968464
  6 3679.14 0.00000 0.968464
  7 3973.70 0.00000 -1.93265
  8 3973.70 0.00000 1.93265
</Section>

newXOutput 117

<Section columns = "stress_xx | stress_yy | stress_xy">
  1 3955.76 0.00000 1.92332
  2 3955.76 0.00000 -1.92332
  3 3651.99 0.00000 0.963773
  4 3651.99 0.00000 -0.963773
  5 3651.99 0.00000 -0.963773
  6 3651.99 0.00000 0.963773
  7 3955.76 0.00000 -1.92332
  8 3955.76 0.00000 1.92332
</Section>

newXOutput 118

<Section columns = "stress_xx | stress_yy | stress_xy">
  1 3937.84 0.00000 1.89954
  2 3937.84 0.00000 -1.89954
  3 3625.09 0.00000 0.951833
  4 3625.09 0.00000 -0.951833
  5 3625.09 0.00000 -0.951833
  6 3625.09 0.00000 0.951833
  7 3937.84 0.00000 -1.89954
  8 3937.84 0.00000 1.89954
</Section>

newXOutput 119

<Section columns = "stress_xx | stress_yy | stress_xy">
  1 3919.97 0.00000 1.86628
  2 3919.97 0.00000 -1.86628
  3 3598.44 0.00000 0.935129
  4 3598.44 0.00000 -0.935129
  5 3598.44 0.00000 -0.935129
  6 3598.44 0.00000 0.935129
  7 3919.97 0.00000 -1.86628
  8 3919.97 0.00000 1.86628
</Section>

newXOutput 120

<Section columns = "stress_xx | stress_yy | stress_xy">
  1 3902.13 0.00000 1.82701
  2 3902.13 0.00000 -1.82701
  3 3572.04 0.00000 0.915408
  4 3572.04 0.00000 -0.915408
  5 3572.04 0.00000 -0.915408
  6 3572.04 0.00000 0.915408
  7 3902.13 0.00000 -1.82701
  8 3902.13 0.00000 1.82701
</Section>

newXOutput 121

<Section columns = "stress_xx | stress_yy | stress_xy">
  1 3884.34 0.00000 1.78416
  2 3884.34 0.00000 -1.78416
  3 3545.89 0.00000 0.893892
  4 3545.89 0.00000 -0.893892
  5 3545.89 0.00000 -0.893892
  6 3545.89 0.00000 0.893892
  7 3884.34 0.00000 -1.78416
  8 3884.34 0.00000 1.78416
</Section>

newXOutput 122

<Section columns = "stress_xx | stress_yy | stress_xy">
  1 3866.60 0.00000 1.73940
  2 3866.60 0.00000 -1.73940
  3 3519.99 0.00000 0.871424
  4 3519.99 0.00000 -0.871424
  5 3519.99 0.00000 -0.871424
  6 3519.99 0.00000 0.871424
  7 3866.60 0.00000 -1.73940
  8 3866.60 0.00000 1.73940
</Section>

newXOutput 123

<Section columns = "stress_xx | stress_yy | stress_xy">
  1 3848.89 0.00000 1.69391
  2 3848.89 0.00000 -1.69391
  3 3494.33 0.00000 0.848586
  4 3494.33 0.00000 -0.848586
  5 3494.33 0.00000 -0.848586
  6 3494.33 0.00000 0.848586
  7 3848.89 0.00000 -1.69391
  8 3848.89 0.00000 1.69391
</Section>

newXOutput 124

<Section columns = "stress_xx | stress_yy | stress_xy">
  1 3831.22 0.00000 1.64845
  2 3831.22 0.00000 -1.64845
  3 3468.89 0.00000 0.825767
  4 3468.89 0.00000 -0.825767
  5 3468.89 0.00000 -0.825767
  6 3468.89 0.00000 0.825767
  7 3831.22 0.00000 -1.64845
  8 3831.22 0.00000 1.64845
</Section>

newXOutput 125

<Section columns = "stress_xx | stress_yy | stress_xy">
  1 3813.57 0.00000 1.60354
  2 3813.57 0.00000 -1.60354
  3 3443.68 0.00000 0.803228
  4 3443.68 0.00000 -0.803228
  5 3443.68 0.00000 -0.803228
  6 3443.68 0.00000 0.803228
  7 3813.57 0.00000 -1.60354
  8 3813.57 0.00000 1.60354
</Section>

newXOutput 126

<Section columns = "stress_xx | stress_yy | stress_xy">
  1 3795.95 0.00000 1.55952
  2 3795.95 0.00000 -1.55952
  3 3418.68 0.00000 0.781137
  4 3418.68 0.00000 -0.781137
  5 3418.68 0.00000 -0.781137
  6 3418.68 0.00000 0.781137
  7 3795.95 0.00000 -1.55952
  8 3795.95 0.00000 1.55952
</Section>

newXOutput 127

<Section columns = "stress_xx | stress_yy | stress_xy">
  1 3778.35 0.00000 1.51659
  2 3778.35 0.00000 -1.51659
  3 3393.89 0.00000 0.759599
  4 3393.89 0.00000 -0.759599
  5 3393.89 0.00000 -0.759599
  6 3393.89 0.00000 0.759599
  7 3778.35 0.00000 -1.51659
  8 3778.35 0.00000 1.51659
</Section>

newXOutput 128

<Section columns = "stress_xx | stress_yy | stress_xy">
  1 3760.77 0.00000 1.47488
  2 3760.77 0.00000 -1.47488
  3 3369.29 0.00000 0.738673
  4 3369.29 0.00000 -0.738673
  5 3369.29 0.00000 -0.738673
  6 3369.29 0.00000 0.738673
  7 3760.77 0.00000 -1.47488
  8 3760.77 0.00000 1.47488
</Section>

newXOutput 129

<Section columns = "stress_xx | stress_yy | stress_xy">
  1 3743.19 0.00000 1.43445
  2 3743.19 0.00000 -1.43445
  3 3344.87 0.00000 0.718391
  4 3344.87 0.00000 -0.718391
  5 3344.87 0.00000 -0.718391
  6 3344.87 0.00000 0.718391
  7 3743.19 0.00000 -1.43445
  8 3743.19 0.00000 1.43445
</Section>

newXOutput 130

<Section columns = "stress_xx | stress_yy | stress_xy">
  1 3725.61 0.00000 1.39533
  2 3725.61 0.00000 -1.39533
  3 3320.63 0.00000 0.698764
  4 3320.63 0.00000 -0.698764
  5 3320.63 0.00000 -0.698764
  6 3320.63 0.00000 0.698764
  7 3725.61 0.00000 -1.39533
  8 3725.61 0.00000 1.39533
</Section>

newXOutput 131

<Section columns = "stress_xx | stress_yy | stress_xy">
  1 3708.02 0.00000 1.35750
  2 3708.02 0.00000 -1.35750
  3 3296.55 0.00000 0.679788
  4 3296.55 0.00000 -0.679788
  5 3296.55 0.00000 -0.679788
  6 3296.55 0.00000 0.679788
  7 3708.02 0.00000 -1.35750
  8 3708.02 0.00000 1.35750
</Section>

newXOutput 132

<Section columns = "stress_xx | stress_yy | stress_xy">
  1 3690.42 0.00000 1.32094
  2 3690.42 0.00000 -1.32094
  3 3272.63 0.00000 0.661454
  4 3272.63 0.00000 -0.661454
  5 3272.63 0.00000 -0.661454
  6 3272.63 0.00000 0.661454
  7 3690.42 0.00000 -1.32094
  8 3690.42 0.00000 1.32094
</Section>

newXOutput 133

<Section columns = "stress_xx | stress_yy | stress_xy">
  1 3672.80 0.00000 1.28562
  2 3672.80 0.00000 -1.28562
  3 3248.85 0.00000 0.643743
  4 3248.85 0.00000 -0.643743
  5 3248.85 0.00000 -0.643743
  6 3248.85 0.00000 0.643743
  7 3672.80 0.00000 -1.28562
  8 3672.80 0.00000 1.28562
</Section>

newXOutput 134

<Section columns = "stress_xx | stress_yy | stress_xy">
  1 3655.15 0.00000 1.25151
  2 3655.15 0.00000 -1.25151
  3 3225.21 0.00000 0.626638
  4 3225.21 0.00000 -0.626638
  5 3225.21 0.00000 -0.626638
  6 3225.21 0.00000 0.626638
  7 3655.15 0.00000 -1.25151
  8 3655.15 0.00000 1.25151
</Section>

newXOutput 135

<Section columns = "stress_xx | stress_yy | stress_xy">
  1 3637.47 0.00000 1.21856
  2 3637.47 0.00000 -1.21856
  3 3201.70 0.00000 0.610115
  4 3201.70 0.00000 -0.610115
  5 3201.70 0.00000 -0.610115
  6 3201.70 0.00000 0.610115
  7 3637.47 0.00000 -1.21856
  8 3637.47 0.00000 1.21856
</Section>

newXOutput 136

<Section columns = "stress_xx | stress_yy | stress_xy">
  1 3619.74 0.00000 1.18672
  2 3619.74 0.00000 -1.18672
  3 3178.30 0.00000 0.594153
  4 3178.30 0.00000 -0.594153
  5 3178.30 0.00000 -0.594153
  6 3178.30 0.00000 0.594153
  7 3619.74 0.00000 -1.18672
  8 3619.74 0.00000 1.18672
</Section>

newXOutput 137

<Section columns = "stress_xx | stress_yy | stress_xy">
  1 3604.23 0.00000 1.30854
  2 3604.23 0.00000 -1.30854
  3 3156.76 0.00000 0.655234
  4 3156.76 0.00000 -0.655234
  5 3156.76 0.00000 -0.655234
  6 3156.76 0.00000 0.655234
  7 3604.23 0.00000 -1.30854
  8 3604.23 0.00000 1.30854
</Section>

newXOutput 138

<Section columns = "stress_xx | stress_yy | stress_xy">
  1 3584.49 0.00000 1.23810
  2 3584.49 0.00000 -1.23810
  3 3132.22 0.00000 0.619913
  4 3132.22 0.00000 -0.619913
  5 3132.22 0.00000 -0.619913
  6 3132.22 0.00000 0.619913
  7 3584.49 0.00000 -1.23810
  8 3584.49 0.00000 1.23810
</Section>

newXOutput 139

<Section columns = "stress_xx | stress_yy | stress_xy">
  1 3566.47 0.00000 1.17180
  2 3566.47 0.00000 -1.17180
  3 3108.97 0.00000 0.586672
  4 3108.97 0.00000 -0.586672
  5 3108.97 0.00000 -0.586672
  6 3108.97 0.00000 0.586672
  7 3566.47 0.00000 -1.17180
  8 3566.47 0.00000 1.17180
</Section>

newXOutput 140

<Section columns = "stress_xx | stress_yy | stress_xy">
  1 3548.41 0.00000 1.11898
  2 3548.41 0.00000 -1.11898
  3 3085.85 0.00000 0.560194
  4 3085.85 0.00000 -0.560194
  5 3085.85 0.00000 -0.560194
  6 3085.85 0.00000 0.560194
  7 3548.41 0.00000 -1.11898
  8 3548.41 0.00000 1.11898
</Section>

newXOutput 141

<Section columns = "stress_xx | stress_yy | stress_xy">
  1 3530.30 0.00000 1.07544
  2 3530.30 0.00000 -1.07544
  3 3062.82 0.00000 0.538368
  4 3062.82 0.00000 -0.538368
  5 3062.82 0.00000 -0.538368
  6 3062.82 0.00000 0.538368
  7 3530.30 0.00000 -1.07544
  8 3530.30 0.00000 1.07544
</Section>

newXOutput 142

<Section columns = "stress_xx | stress_yy | stress_xy">
  1 3512.12 0.00000 1.03835
  2 3512.12 0.00000 -1.03835
  3 3039.87 0.00000 0.519780
  4 3039.87 0.00000 -0.519780
  5 3039.87 0.00000 -0.519780
  6 3039.87 0.00000 0.519780
  7 3512.12 0.00000 -1.03835
  8 3512.12 0.00000 1.03835
</Section>

newXOutput 143

<Section columns = "stress_xx | stress_yy | stress_xy">
  1 3493.84 0.00000 1.00582
  2 3493.84 0.00000 -1.00582
  3 3016.99 0.00000 0.503477
  4 3016.99 0.00000 -0.503477
  5 3016.99 0.00000 -0.503477
  6 3016.99 0.00000 0.503477
  7 3493.84 0.00000 -1.00582
  8 3493.84 0.00000 1.00582
</Section>

newXOutput 144

<Section columns = "stress_xx | stress_yy | stress_xy">
  1 3475.47 0.00000 0.976570
  2 3475.47 0.00000 -0.976570
  3 2994.15 0.00000 0.488818
  4 2994.15 0.00000 -0.488818
  5 2994.15 0.00000 -0.488818
  6 2994.15 0.00000 0.488818
  7 3475.47 0.00000 -0.976570
  8 3475.47 0.00000 0.976570
</Section>

newXOutput 145

<Section columns = "stress_xx | stress_yy | stress_xy">
  1 3456.98 0.00000 0.949730
  2 3456.98 0.00000 -0.949730
  3 2971.34 0.00000 0.475369
  4 2971.34 0.00000 -0.475369
  5 2971.34 0.00000 -0.475369
  6 2971.34 0.00000 0.475369
  7 3456.98 0.00000 -0.949730
  8 3456.98 0.00000 0.949730
</Section>

newXOutput 146

<Section columns = "stress_xx | stress_yy | stress_xy">
  1 3438.37 0.00000 0.924719
  2 3438.37 0.00000 -0.924719
  3 2948.56 0.00000 0.462836
  4 2948.56 0.00000 -0.462836
  5 2948.56 0.00000 -0.462836
  6 2948.56 0.00000 0.462836
  7 3438.37 0.00000 -0.924719
  8 3438.37 0.00000 0.924719
</Section>

newXOutput 147

<Section columns = "stress_xx | stress_yy | stress_xy">
  1 3419.63 0.00000 0.901137
  2 3419.63 0.00000 -0.901137
  3 2925.78 0.00000 0.451021
  4 2925.78 0.00000 -0.451021
  5 2925.78 0.00000 -0.451021
  6 2925.78 0.00000 0.451021
  7 3419.63 0.00000 -0.901137
  8 3419.63 0.00000 0.901137
</Section>

newXOutput 148

<Section columns = "stress_xx | stress_yy | stress_xy">
  1 3400.73 0.00000 0.878712
  2 3400.73 0.00000 -0.878712
  3 2903.01 0.00000 0.439786
  4 2903.01 0.00000 -0.439786
  5 2903.01 0.00000 -0.439786
  6 2903.01 0.00000 0.439786
  7 3400.73 0.00000 -0.878712
  8 3400.73 0.00000 0.878712
</Section>

newXOutput 149

<Section columns = "stress_xx | stress_yy | stress_xy">
  1 3381.68 0.00000 0.857256
  2 3381.68 0.00000 -0.857256
  3 2880.22 0.00000 0.429037
  4 2880.22 0.00000 -0.429037
  5 2880.22 0.00000 -0.429037
  6 2880.22 0.00000 0.429037
  7 3381.68 0.00000 -0.857256
  8 3381.68 0.00000 0.857256
</Section>

newXOutput 150

<Section columns = "stress_xx | stress_yy | stress_xy">
  1 3362.46 0.00000 0.836636
  2 3362.46 0.00000 -0.836636
  3 2857.40 0.00000 0.418707
  4 2857.40 0.00000 -0.418707
  5 2857.40 0.00000 -0.418707
  6 2857.40 0.00000 0.418707
  7 3362.46 0.00000 -0.836636
  8 3362.46 0.00000 0.836636
</Section>

newXOutput 151

<Section columns = "stress_xx | stress_yy | stress_xy">
  1 3343.06 0.00000 0.816757
  2 3343.06 0.00000 -0.816757
  3 2834.55 0.00000 0.408749
  4 2834.55 0.00000 -0.408749
  5 2834.55 0.00000 -0.408749
  6 2834.55 0.00000 0.408749
  7 3343.06 0.00000 -0.816757
  8 3343.06 0.00000 0.816757
</Section>

newXOutput 152

<Section columns = "stress_xx | stress_yy | stress_xy">
  1 3323.47 0.00000 0.797549
  2 3323.47 0.00000 -0.797549
  3 2811.66 0.00000 0.399128
  4 2811.66 0.00000 -0.399128
  5 2811.66 0.00000 -0.399128
  6 2811.66 0.00000 0.399128
  7 3323.47 0.00000 -0.797549
  8 3323.47 0.00000 0.797549
</Section>

newXOutput 153

<Section columns = "stress_xx | stress_yy | stress_xy">
  1 3303.67 0.00000 0.778961
  2 3303.67 0.00000 -0.778961
  3 2788.70 0.00000 0.389817
  4 2788.70 0.00000 -0.389817
  5 2788.70 0.00000 -0.389817
  6 2788.70 0.00000 0.389817
  7 3303.67 0.00000 -0.778961
  8 3303.67 0.00000 0.778961
</Section>

newXOutput 154

<Section columns = "stress_xx | stress_yy | stress_xy">
  1 3283.65 0.00000 0.760950
  2 3283.65 0.00000 -0.760950
  3 2765.67 0.00000 0.380796
  4 2765.67 0.00000 -0.380796
  5 2765.67 0.00000 -0.380796
  6 2765.67 0.00000 0.380796
  7 3283.65 0.00000 -0.760950
  8 3283.65 0.00000 0.760950
</Section>

newXOutput 155

<Section columns = "stress_xx | stress_yy | stress_xy">
  1 3263.40 0.00000 0.743484
  2 3263.40 0.00000 -0.743484
  3 2742.56 0.00000 0.372048
  4 2742.56 0.00000 -0.372048
  5 2742.56 0.00000 -0.372048
  6 2742.56 0.00000 0.372048
  7 3263.40 0.00000 -0.743484
  8 3263.40 0.00000 0.743484
</Section>

newXOutput 156

<Section columns = "stress_xx | stress_yy | stress_xy">
  1 3242.91 0.00000 0.726534
  2 3242.91 0.00000 -0.726534
  3 2719.35 0.00000 0.363559
  4 2719.35 0.00000 -0.363559
  5 2719.35 0.00000 -0.363559
  6 2719.35 0.00000 0.363559
  7 3242.91 0.00000 -0.726534
  8 3242.91 0.00000 0.726534
</Section>

newXOutput 157

<Section columns = "stress_xx | stress_yy | stress_xy">
  1 3222.15 0.00000 0.710079
  2 3222.15 0.00000 -0.710079
  3 2696.02 0.00000 0.355318
  4 2696.02 0.00000 -0.355318
  5 2696.02 0.00000 -0.355318
  6 2696.02 0.00000 0.355318
  7 3222.15 0.00000 -0.710079
  8 3222.15 0.00000 0.710079
</Section>

newXOutput 158

<Section columns = "stress_xx | stress_yy | stress_xy">
  1 3201.11 0.00000 0.694096
  2 3201.11 0.00000 -0.694096
  3 2672.58 0.00000 0.347314
  4 2672.58 0.00000 -0.347314
  5 2672.58 0.00000 -0.347314
  6 2672.58 0.00000 0.347314
  7 3201.11 0.00000 -0.694096
  8 3201.11 0.00000 0.694096
</Section>

newXOutput 159

<Section columns = "stress_xx | stress_yy | stress_xy">
  1 3179.79 0.00000 0.678566
  2 3179.79 0.00000 -0.678566
  3 2649.00 0.00000 0.339537
  4 2649.00 0.00000 -0.339537
  5 2649.00 0.00000 -0.339537
  6 2649.00 0.00000 0.339537
  7 3179.79 0.00000 -0.678566
  8 3179.79 0.00000 0.678566
</Section>

newXOutput 160

<Section columns = "stress_xx | stress_yy | stress_xy">
  1 3158.15 0.00000 0.663473
  2 3158.15 0.00000 -0.663473
  3 2625.26 0.00000 0.331979
  4 2625.26 0.00000 -0.331979
  5 2625.26 0.00000 -0.331979
  6 2625.26 0.00000 0.331979
  7 3158.15 0.00000 -0.663473
  8 3158.15 0.00000 0.663473
</Section>

newXOutput 161

<Section columns = "stress_xx | stress_yy | stress_xy">
  1 3136.19 0.00000 0.648800
  2 3136.19 0.00000 -0.648800
  3 2601.35 0.00000 0.324632
  4 2601.35 0.00000 -0.324632
  5 2601.35 0.00000 -0.324632
  6 2601.35 0.00000 0.324632
  7 3136.19 0.00000 -0.648800
  8 3136.19 0.00000 0.648800
</Section>

newXOutput 162

<Section columns = "stress_xx | stress_yy | stress_xy">
  1 3113.88 0.00000 0.634533
  2 3113.88 0.00000 -0.634533
  3 2577.26 0.00000 0.317488
  4 2577.26 0.00000 -0.317488
  5 2577.26 0.00000 -0.317488
  6 2577.26 0.00000 0.317488
  7 3113.88 0.00000 -0.634533
  8 3113.88 0.00000 0.634533
</Section>

newXOutput 163

<Section columns = "stress_xx | stress_yy | stress_xy">
  1 3091.20 0.00000 0.620657
  2 3091.20 0.00000 -0.620657
  3 2552.97 0.00000 0.310540
  4 2552.97 0.00000 -0.310540
  5 2552.97 0.00000 -0.310540
  6 2552.97 0.00000 0.310540
  7 3091.20 0.00000 -0.620657
  8 3091.20 0.00000 0.620657
</Section>

newXOutput 164

<Section columns = "stress_xx | stress_yy | stress_xy">
  1 3068.14 0.00000 0.607158
  2 3068.14 0.00000 -0.607158
  3 2528.46 0.00000 0.303782
  4 2528.46 0.00000 -0.303782
  5 2528.46 0.00000 -0.303782
  6 2528.46 0.00000 0.303782
  7 3068.14 0.00000 -0.607158
  8 3068.14 0.00000 0.607158
</Section>

newXOutput 165

<Section columns = "stress_xx | stress_yy | stress_xy">
  1 3044.67 0.00000 0.594025
  2 3044.67 0.00000 -0.594025
  3 2503.72 0.00000 0.297206
  4 2503.72 0.00000 -0.297206
  5 2503.72 0.00000 -0.297206
  6 2503.72 0.00000 0.297206
  7 3044.67 0.00000 -0.594025
  8 3044.67 0.00000 0.594025
</Section>

newXOutput 166

<Section columns = "stress_xx | stress_yy | stress_xy">
  1 3020.77 0.00000 0.581244
  2 3020.77 0.00000 -0.581244
  3 2478.71 0.00000 0.290807
  4 2478.71 0.00000 -0.290807
  5 2478.71 0.00000 -0.290807
  6 2478.71 0.00000 0.290807
  7 3020.77 0.00000 -0.581244
  8 3020.77 0.00000 0.581244
</Section>

newXOutput 167

<Section columns = "stress_xx | stress_yy | stress_xy">
  1 2996.41 0.00000 0.568805
  2 2996.41 0.00000 -0.568805
  3 2453.43 0.00000 0.284580
  4 2453.43 0.00000 -0.284580
  5 2453.43 0.00000 -0.284580
  6 2453.43 0.00000 0.284580
  7 2996.41 0.00000 -0.568805
  8 2996.41 0.00000 0.568805
</Section>

newXOutput 168

<Section columns = "stress_xx | stress_yy | stress_xy">
  1 2971.56 0.00000 0.556696
  2 2971.56 0.00000 -0.556696
  3 2427.85 0.00000 0.278517
  4 2427.85 0.00000 -0.278517
  5 2427.85 0.00000 -0.278517
  6 2427.85 0.00000 0.278517
  7 2971.56 0.00000 -0.556696
  8 2971.56 0.00000 0.556696
</Section>

newXOutput 169

<Section columns = "stress_xx | stress_yy | stress_xy">
  1 2946.21 0.00000 0.544906
  2 2946.21 0.00000 -0.544906
  3 2401.95 0.00000 0.272615
  4 2401.95 0.00000 -0.272615
  5 2401.95 0.00000 -0.272615
  6 2401.95 0.00000 0.272615
  7 2946.21 0.00000 -0.544906
  8 2946.21 0.00000 0.544906
</Section>

newXOutput 170

<Section columns = "stress_xx | stress_yy | stress_xy">
  1 2920.31 0.00000 0.533425
  2 2920.31 0.00000 -0.533425
  3 2375.71 0.00000 0.266868
  4 2375.71 0.00000 -0.266868
  5 2375.71 0.00000 -0.266868
  6 2375.71 0.00000 0.266868
  7 2920.31 0.00000 -0.533425
  8 2920.31 0.00000 0.533425
</Section>

newXOutput 171

<Section columns = "stress_xx | stress_yy | stress_xy">
  1 2893.83 0.00000 0.522244
  2 2893.83 0.00000 -0.522244
  3 2349.10 0.00000 0.261271
  4 2349.10 0.00000 -0.261271
  5 2349.10 0.00000 -0.261271
  6 2349.10 0.00000 0.261271
  7 2893.83 0.00000 -0.522244
  8 2893.83 0.00000 0.522244
</Section>

newXOutput 172

<Section columns = "stress_xx | stress_yy | stress_xy">
  1 2866.75 0.00000 0.511352
  2 2866.75 0.00000 -0.511352
  3 2322.09 0.00000 0.255819
  4 2322.09 0.00000 -0.255819
  5 2322.09 0.00000 -0.255819
  6 2322.09 0.00000 0.255819
  7 2866.75 0.00000 -0.511352
  8 2866.75 0.00000 0.511352
</Section>

newXOutput 173

<Section columns = "stress_xx | stress_yy | stress_xy">
  1 2839.03 0.00000 0.500742
  2 2839.03 0.00000 -0.500742
  3 2294.65 0.00000 0.250507
  4 2294.65 0.00000 -0.250507
  5 2294.65 0.00000 -0.250507
  6 2294.65 0.00000 0.250507
  7 2839.03 0.00000 -0.500742
  8 2839.03 0.00000 0.500742
</Section>

newXOutput 174

<Section columns = "stress_xx | stress_yy | stress_xy">
  1 2810.62 0.00000 0.490404
  2 2810.62 0.00000 -0.490404
  3 2266.75 0.00000 0.245333
  4 2266.75 0.00000 -0.245333
  5 2266.75 0.00000 -0.245333
  6 2266.75 0.00000 0.245333
  7 2810.62 0.00000 -0.490404
  8 2810.62 0.00000 0.490404
</Section>

newXOutput 175

<Section columns = "stress_xx | stress_yy | stress_xy">
  1 2781.48 0.00000 0.480329
  2 2781.48 0.00000 -0.480329
  3 2238.37 0.00000 0.240290
  4 2238.37 0.00000 -0.240290
  5 2238.37 0.00000 -0.240290
  6 2238.37 0.00000 0.240290
  7 2781.48 0.00000 -0.480329
  8 2781.48 0.00000 0.480329
</Section>

newXOutput 176

<Section columns = "stress_xx | stress_yy | stress_xy">
  1 2751.57 0.00000 0.470511
  2 2751.57 0.00000 -0.470511
  3 2209.46 0.00000 0.235375
  4 2209.46 0.00000 -0.235375
  5 2209.46 0.00000 -0.235375
  6 2209.46 0.00000 0.235375
  7 2751.57 0.00000 -0.470511
  8 2751.57 0.00000 0.470511
</Section>

newXOutput 177

<Section columns = "stress_xx | stress_yy | stress_xy">
  1 2720.84 0.00000 0.460940
  2 2720.84 0.00000 -0.460940
  3 2179.99 0.00000 0.230585
  4 2179.99 0.00000 -0.230585
  5 2179.99 0.00000 -0.230585
  6 2179.99 0.00000 0.230585
  7 2720.84 0.00000 -0.460940
  8 2720.84 0.00000 0.460940
</Section>

newXOutput 178

<Section columns = "stress_xx | stress_yy | stress_xy">
  1 2689.22 0.00000 0.451611
  2 2689.22 0.00000 -0.451611
  3 2149.91 0.00000 0.225916
  4 2149.91 0.00000 -0.225916
  5 2149.91 0.00000 -0.225916
  6 2149.91 0.00000 0.225916
  7 2689.22 0.00000 -0.451611
  8 2689.22 0.00000 0.451611
</Section>

newXOutput 179

<Section columns = "stress_xx | stress_yy | stress_xy">
  1 2656.68 0.00000 0.442514
  2 2656.68 0.00000 -0.442514
  3 2119.18 0.00000 0.221363
  4 2119.18 0.00000 -0.221363
  5 2119.18 0.00000 -0.221363
  6 2119.18 0.00000 0.221363
  7 2656.68 0.00000 -0.442514
  8 2656.68 0.00000 0.442514
</Section>

newXOutput 180

<Section columns = "stress_xx | stress_yy | stress_xy">
  1 2623.13 0.00000 0.433645
  2 2623.13 0.00000 -0.433645
  3 2087.75 0.00000 0.216924
  4 2087.75 0.00000 -0.216924
  5 2087.75 0.00000 -0.216924
  6 2087.75 0.00000 0.216924
  7 2623.13 0.00000 -0.433645
  8 2623.13 0.00000 0.433645
</Section>

newXOutput 181

<Section columns = "stress_xx | stress_yy | stress_xy">
  1 2588.51 0.00000 0.424996
  2 2588.51 0.00000 -0.424996
  3 2055.57 0.00000 0.212595
  4 2055.57 0.00000 -0.212595
  5 2055.57 0.00000 -0.212595
  6 2055.57 0.00000 0.212595
  7 2588.51 0.00000 -0.424996
  8 2588.51 0.00000 0.424996
</Section>

newXOutput 182

<Section columns = "stress_xx | stress_yy | stress_xy">
  1 2552.74 0.00000 0.416560
  2 2552.74 0.00000 -0.416560
  3 2022.57 0.00000 0.208374
  4 2022.57 0.00000 -0.208374
  5 2022.57 0.00000 -0.208374
  6 2022.57 0.00000 0.208374
  7 2552.74 0.00000 -0.416560
  8 2552.74 0.00000 0.416560
</Section>

newXOutput 183

<Section columns = "stress_xx | stress_yy | stress_xy">
  1 2515.74 0.00000 0.408333
  2 2515.74 0.00000 -0.408333
  3 1988.71 0.00000 0.204256
  4 1988.71 0.00000 -0.204256
  5 1988.71 0.00000 -0.204256
  6 1988.71 0.00000 0.204256
  7 2515.74 0.00000 -0.408333
  8 2515.74 0.00000 0.408333
</Section>

newXOutput 184

<Section columns = "stress_xx | stress_yy | stress_xy">
  1 2477.41 0.00000 0.400308
  2 2477.41 0.00000 -0.400308
  3 1953.89 0.00000 0.200240
  4 1953.89 0.00000 -0.200240
  5 1953.89 0.00000 -0.200240
  6 1953.89 0.00000 0.200240
  7 2477.41 0.00000 -0.400308
  8 2477.41 0.00000 0.400308
</Section>

newXOutput 185

<Section columns = "stress_xx | stress_yy | stress_xy">
  1 2437.64 0.00000 0.392479
  2 2437.64 0.00000 -0.392479
  3 1918.05 0.00000 0.196322
  4 1918.05 0.00000 -0.196322
  5 1918.05 0.00000 -0.196322
  6 1918.05 0.00000 0.196322
  7 2437.64 0.00000 -0.392479
  8 2437.64 0.00000 0.392479
</Section>

newXOutput 186

<Section columns = "stress_xx | stress_yy | stress_xy">
  1 2396.33 0.00000 0.384841
  2 2396.33 0.00000 -0.384841
  3 1881.10 0.00000 0.192500
  4 1881.10 0.00000 -0.192500
  5 1881.10 0.00000 -0.192500
  6 1881.10 0.00000 0.192500
  7 2396.33 0.00000 -0.384841
  8 2396.33 0.00000 0.384841
</Section>

newXOutput 187

<Section columns = "stress_xx | stress_yy | stress_xy">
  1 2353.33 0.00000 0.377390
  2 2353.33 0.00000 -0.377390
  3 1842.94 0.00000 0.188771
  4 1842.94 0.00000 -0.188771
  5 1842.94 0.00000 -0.188771
  6 1842.94 0.00000 0.188771
  7 2353.33 0.00000 -0.377390
  8 2353.33 0.00000 0.377390
</Section>

newXOutput 188

<Section columns = "stress_xx | stress_yy | stress_xy">
  1 2308.49 0.00000 0.370120
  2 2308.49 0.00000 -0.370120
  3 1803.45 0.00000 0.185133
  4 1803.45 0.00000 -0.185133
  5 1803.45 0.00000 -0.185133
  6 1803.45 0.00000 0.185133
  7 2308.49 0.00000 -0.370120
  8 2308.49 0.00000 0.370120
</Section>

newXOutput 189

<Section columns = "stress_xx | stress_yy | stress_xy">
  1 2261.66 0.00000 0.363028
  2 2261.66 0.00000 -0.363028
  3 1762.52 0.00000 0.181584
  4 1762.52 0.00000 -0.181584
  5 1762.52 0.00000 -0.181584
  6 1762.52 0.00000 0.181584
  7 2261.66 0.00000 -0.363028
  8 2261.66 0.00000 0.363028
</Section>

newXOutput 190

<Section columns = "stress_xx | stress_yy | stress_xy">
  1 2212.62 0.00000 0.356109
  2 2212.62 0.00000 -0.356109
  3 1720.00 0.00000 0.178122
  4 1720.00 0.00000 -0.178122
  5 1720.00 0.00000 -0.178122
  6 1720.00 0.00000 0.178122
  7 2212.62 0.00000 -0.356109
  8 2212.62 0.00000 0.356109
</Section>

newXOutput 191

<Section columns = "stress_xx | stress_yy | stress_xy">
  1 2161.17 0.00000 0.349359
  2 2161.17 0.00000 -0.349359
  3 1675.72 0.00000 0.174744
  4 1675.72 0.00000 -0.174744
  5 1675.72 0.00000 -0.174744
  6 1675.72 0.00000 0.174744
  7 2161.17 0.00000 -0.349359
  8 2161.17 0.00000 0.349359
</Section>

newXOutput 192

<Section columns = "stress_xx | stress_yy | stress_xy">
  1 2107.04 0.00000 0.342776
  2 2107.04 0.00000 -0.342776
  3 1629.50 0.00000 0.171450
  4 1629.50 0.00000 -0.171450
  5 1629.50 0.00000 -0.171450
  6 1629.50 0.00000 0.171450
  7 2107.04 0.00000 -0.342776
  8 2107.04 0.00000 0.342776
</Section>

newXOutput 193

<Section columns = "stress_xx | stress_yy | stress_xy">
  1 2049.92 0.00000 0.336356
  2 2049.92 0.00000 -0.336356
  3 1581.12 0.00000 0.168237
  4 1581.12 0.00000 -0.168237
  5 1581.12 0.00000 -0.168237
  6 1581.12 0.00000 0.168237
  7 2049.92 0.00000 -0.336356
  8 2049.92 0.00000 0.336356
</Section>

newXOutput 194

<Section columns = "stress_xx | stress_yy | stress_xy">
  1 1989.46 0.00000 0.330097
  2 1989.46 0.00000 -0.330097
  3 1530.30 0.00000 0.165106
  4 1530.30 0.00000 -0.165106
  5 1530.30 0.00000 -0.165106
  6 1530.30 0.00000 0.165106
  7 1989.46 0.00000 -0.330097
  8 1989.46 0.00000 0.330097
</Section>

newXOutput 195

<Section columns = "stress_xx | stress_yy | stress_xy">
  1 1925.23 0.00000 0.323998
  2 1925.23 0.00000 -0.323998
  3 1476.74 0.00000 0.162054
  4 1476.74 0.00000 -0.162054
  5 1476.74 0.00000 -0.162054
  6 1476.74 0.00000 0.162054
  7 1925.23 0.00000 -0.323998
  8 1925.23 0.00000 0.323998
</Section>

newXOutput 196

<Section columns = "stress_xx | stress_yy | stress_xy">
  1 1856.69 0.00000 0.318057
  2 1856.69 0.00000 -0.318057
  3 1420.04 0.00000 0.159081
  4 1420.04 0.00000 -0.159081
  5 1420.04 0.00000 -0.159081
  6 1420.04 0.00000 0.159081
  7 1856.69 0.00000 -0.318057
  8 1856.69 0.00000 0.318057
</Section>

newXOutput 197

<Section columns = "stress_xx | stress_yy | stress_xy">
  1 1783.21 0.00000 0.312274
  2 1783.21 0.00000 -0.312274
  3 1359.75 0.00000 0.156188
  4 1359.75 0.00000 -0.156188
  5 1359.75 0.00000 -0.156188
  6 1359.75 0.00000 0.156188
  7 1783.21 0.00000 -0.312274
  8 1783.21 0.00000 0.312274
</Section>

newXOutput 198

<Section columns = "stress_xx | stress_yy | stress_xy">
  1 1703.96 0.00000 0.306650
  2 1703.96 0.00000 -0.306650
  3 1295.27 0.00000 0.153374
  4 1295.27 0.00000 -0.153374
  5 1295.27 0.00000 -0.153374
  6 1295.27 0.00000 0.153374
  7 1703.96 0.00000 -0.306650
  8 1703.96 0.00000 0.306650
</Section>

newXOutput 199

<Section columns = "stress_xx | stress_yy | stress_xy">
  1 1617.90 0.00000 0.301187
  2 1617.90 0.00000 -0.301187
  3 1225.84 0.00000 0.150640
  4 1225.84 0.00000 -0.150640
  5 1225.84 0.00000 -0.150640
  6 1225.84 0.00000 0.150640
  7 1617.90 0.00000 -0.301187
  8 1617.90 0.00000 0.301187
</Section>

newXOutput 200

<Section columns = "stress_xx | stress_yy | stress_xy">
  1 1523.64 0.00000 0.295887
  2 1523.64 0.00000 -0.295887
  3 1150.45 0.00000 0.147988
  4 1150.45 0.00000 -0.147988
  5 1150.45 0.00000 -0.147988
  6 1150.45 0.00000 0.147988
  7 1523.64 0.00000 -0.295887
  8 1523.64 0.00000 0.295887
</Section>

newXOutput 201

<Section columns = "stress_xx | stress_yy | stress_xy">
  1 1421.86 0.00000 0.332646
  2 1421.86 0.00000 -0.332646
  3 1069.50 0.00000 0.166379
  4 1069.50 0.00000 -0.166379
  5 1069.50 0.00000 -0.166379
  6 1069.50 0.00000 0.166379
  7 1421.86 0.00000 -0.332646
  8 1421.86 0.00000 0.332646
</Section>

newXOutput 202

<Section columns = "stress_xx | stress_yy | stress_xy">
  1 1303.80 0.00000 0.361284
  2 1303.80 0.00000 -0.361284
  3 976.933 0.00000 0.180708
  4 976.933 0.00000 -0.180708
  5 976.933 0.00000 -0.180708
  6 976.933 0.00000 0.180708
  7 1303.80 0.00000 -0.361284
  8 1303.80 0.00000 0.361284
</Section>

newXOutput 203

<Section columns = "stress_xx | stress_yy | stress_xy">
  1 1168.80 0.00000 0.381084
  2 1168.80 0.00000 -0.381084
  3 872.096 0.00000 0.190615
  4 872.096 0.00000 -0.190615
  5 872.096 0.00000 -0.190615
  6 872.096 0.00000 0.190615
  7 1168.80 0.00000 -0.381084
  8 1168.80 0.00000 0.381084
</Section>

newXOutput 204

<Section columns = "stress_xx | stress_yy | stress_xy">
  1 1010.59 0.00000 0.393918
  2 1010.59 0.00000 -0.393918
  3 750.476 0.00000 0.197036
  4 750.476 0.00000 -0.197036
  5 750.476 0.00000 -0.197036
  6 750.476 0.00000 0.197036
  7 1010.59 0.00000 -0.393918
  8 1010.59 0.00000 0.393918
</Section>

newXOutput 205

<Section columns = "stress_xx | stress_yy | stress_xy">
  1 818.233 0.00000 0.400724
  2 818.233 0.00000 -0.400724
  3 604.192 0.00000 0.200441
  4 604.192 0.00000 -0.200441
  5 604.192 0.00000 -0.200441
  6 604.192 0.00000 0.200441
  7 818.233 0.00000 -0.400724
  8 818.233 0.00000 0.400724
</Section>

newXOutput 206

<Section columns = "stress_xx | stress_yy | stress_xy">
  1 559.031 0.00000 0.309350
  2 559.031 0.00000 -0.309350
  3 409.906 0.00000 0.154721
  4 409.906 0.00000 -0.154721
  5 409.906 0.00000 -0.154721
  6 409.906 0.00000 0.154721
  7 559.031 0.00000 -0.309350
  8 559.031 0.00000 0.309350
</Section>

newXOutput 207

<Section columns = "stress_xx | stress_yy | stress_xy">
  1 111.498 0.00000 0.148560
  2 111.498 0.00000 -0.148560
  3 80.7862 0.00000 0.0742905
  4 80.7862 0.00000 -0.0742905
  5 80.7862 0.00000 -0.0742905
  6 80.7862 0.00000 0.0742905
  7 111.498 0.00000 -0.148560
  8 111.498 0.00000 0.148560
</Section>

newXOutput 208

<Section columns = "stress_xx | stress_yy | stress_xy">
  1 0.00281061 0.00000 0.114083
  2 0.00281061 0.00000 -0.114083
  3 -0.00787361 0.00000 0.0570478
  4 -0.00787361 0.00000 -0.0570478
  5 -0.00787361 0.00000 -0.0570478
  6 -0.00787361 0.00000 0.0570478
  7 0.00281061 0.00000 -0.114083
  8 0.00281061 0.00000 0.114083
</Section>

