newXOutput 1

<Section columns = "stress_xx | stress_yy | stress_xy">
  1 0.00000 0.00000 0.00000
  2 0.00000 0.00000 0.00000
  3 0.00000 0.00000 0.00000
  4 0.00000 0.00000 0.00000
  5 0.00000 0.00000 0.00000
  6 0.00000 0.00000 0.00000
  7 0.00000 0.00000 0.00000
  8 0.00000 0.00000 0.00000
  9 0.00000 0.00000 0.00000
  10 0.00000 0.00000 0.00000
  11 0.00000 0.00000 0.00000
  12 0.00000 0.00000 0.00000
  13 0.00000 0.00000 0.00000
  14 0.00000 0.00000 0.00000
  15 0.00000 0.00000 0.00000
  16 0.00000 0.00000 0.00000
  17 0.00000 0.00000 0.00000
  18 0.00000 0.00000 0.00000
  19 0.00000 0.00000 0.00000
  20 0.00000 0.00000 0.00000
  21 0.00000 0.00000 0.00000
  22 0.00000 0.00000 0.00000
  23 0.00000 0.00000 0.00000
  24 0.00000 0.00000 0.00000
  25 0.00000 0.00000 0.00000
  26 0.00000 0.00000 0.00000
  27 0.00000 0.00000 0.00000
  28 0.00000 0.00000 0.00000
  29 0.00000 0.00000 0.00000
  30 0.00000 0.00000 0.00000
  31 0.00000 0.00000 0.00000
  32 0.00000 0.00000 0.00000
  33 0.00000 0.00000 0.00000
  34 0.00000 0.00000 0.00000
  35 0.00000 0.00000 0.00000
  36 0.00000 0.00000 0.00000
  37 0.00000 0.00000 0.00000
  38 0.00000 0.00000 0.00000
  39 0.00000 0.00000 0.00000
  40 0.00000 0.00000 0.00000
  41 0.00000 0.00000 0.00000
  42 0.00000 0.00000 0.00000
  43 0.00000 0.00000 0.00000
  44 0.00000 0.00000 0.00000
  45 0.00000 0.00000 0.00000
  46 0.00000 0.00000 0.00000
  47 0.00000 0.00000 0.00000
  48 0.00000 0.00000 0.00000
  49 0.00000 0.00000 0.00000
  50 0.00000 0.00000 0.00000
  51 0.00000 0.00000 0.00000
  52 0.00000 0.00000 0.00000
  53 0.00000 0.00000 0.00000
  54 0.00000 0.00000 0.00000
  55 0.00000 0.00000 0.00000
  56 0.00000 0.00000 0.00000
  57 0.00000 0.00000 0.00000
  58 0.00000 0.00000 0.00000
  59 0.00000 0.00000 0.00000
  60 0.00000 0.00000 0.00000
  61 0.00000 0.00000 0.00000
  62 0.00000 0.00000 0.00000
  63 0.00000 0.00000 0.00000
  64 0.00000 0.00000 0.00000
  65 0.00000 0.00000 0.00000
  66 0.00000 0.00000 0.00000
  67 0.00000 0.00000 0.00000
  68 0.00000 0.00000 0.00000
  69 0.00000 0.00000 0.00000
  70 0.00000 0.00000 0.00000
  71 0.00000 0.00000 0.00000
  72 0.00000 0.00000 0.00000
  73 0.00000 0.00000 0.00000
  74 0.00000 0.00000 0.00000
  75 0.00000 0.00000 0.00000
  76 0.00000 0.00000 0.00000
  77 0.00000 0.00000 0.00000
  78 0.00000 0.00000 0.00000
  79 0.00000 0.00000 0.00000
  80 0.00000 0.00000 0.00000
  81 0.00000 0.00000 0.00000
  82 0.00000 0.00000 0.00000
  83 0.00000 0.00000 0.00000
  84 0.00000 0.00000 0.00000
  85 0.00000 0.00000 0.00000
  86 0.00000 0.00000 0.00000
  87 0.00000 0.00000 0.00000
  88 0.00000 0.00000 0.00000
  89 0.00000 0.00000 0.00000
  90 0.00000 0.00000 0.00000
  91 0.00000 0.00000 0.00000
  92 0.00000 0.00000 0.00000
  93 0.00000 0.00000 0.00000
  94 0.00000 0.00000 0.00000
  95 0.00000 0.00000 0.00000
  96 0.00000 0.00000 0.00000
  97 0.00000 0.00000 0.00000
  98 0.00000 0.00000 0.00000
  99 0.00000 0.00000 0.00000
  100 0.00000 0.00000 0.00000
  101 0.00000 0.00000 0.00000
  102 0.00000 0.00000 0.00000
  103 0.00000 0.00000 0.00000
  104 0.00000 0.00000 0.00000
  105 0.00000 0.00000 0.00000
  106 0.00000 0.00000 0.00000
  107 0.00000 0.00000 0.00000
  108 0.00000 0.00000 0.00000
  109 0.00000 0.00000 0.00000
  110 0.00000 0.00000 0.00000
  111 0.00000 0.00000 0.00000
  112 0.00000 0.00000 0.00000
  113 0.00000 0.00000 0.00000
  114 0.00000 0.00000 0.00000
  115 0.00000 0.00000 0.00000
  116 0.00000 0.00000 0.00000
  117 0.00000 0.00000 0.00000
  118 0.00000 0.00000 0.00000
  119 0.00000 0.00000 0.00000
  120 0.00000 0.00000 0.00000
  121 0.00000 0.00000 0.00000
  122 0.00000 0.00000 0.00000
  123 0.00000 0.00000 0.00000
  124 0.00000 0.00000 0.00000
  125 0.00000 0.00000 0.00000
  126 0.00000 0.00000 0.00000
  127 0.00000 0.00000 0.00000
  128 0.00000 0.00000 0.00000
  129 0.00000 0.00000 0.00000
  130 0.00000 0.00000 0.00000
  131 0.00000 0.00000 0.00000
  132 0.00000 0.00000 0.00000
  133 0.00000 0.00000 0.00000
  134 0.00000 0.00000 0.00000
  135 0.00000 0.00000 0.00000
  136 0.00000 0.00000 0.00000
  137 0.00000 0.00000 0.00000
  138 0.00000 0.00000 0.00000
  139 0.00000 0.00000 0.00000
  140 0.00000 0.00000 0.00000
  141 0.00000 0.00000 0.00000
  142 0.00000 0.00000 0.00000
  143 0.00000 0.00000 0.00000
  144 0.00000 0.00000 0.00000
  145 0.00000 0.00000 0.00000
  146 0.00000 0.00000 0.00000
  147 0.00000 0.00000 0.00000
  148 0.00000 0.00000 0.00000
  149 0.00000 0.00000 0.00000
  150 0.00000 0.00000 0.00000
  151 0.00000 0.00000 0.00000
  152 0.00000 0.00000 0.00000
  153 0.00000 0.00000 0.00000
  154 0.00000 0.00000 0.00000
  155 0.00000 0.00000 0.00000
  156 0.00000 0.00000 0.00000
  157 0.00000 0.00000 0.00000
  158 0.00000 0.00000 0.00000
  159 0.00000 0.00000 0.00000
  160 0.00000 0.00000 0.00000
  161 0.00000 0.00000 0.00000
  162 0.00000 0.00000 0.00000
  163 0.00000 0.00000 0.00000
  164 0.00000 0.00000 0.00000
  165 0.00000 0.00000 0.00000
  166 0.00000 0.00000 0.00000
  167 0.00000 0.00000 0.00000
  168 0.00000 0.00000 0.00000
  169 0.00000 0.00000 0.00000
  170 0.00000 0.00000 0.00000
  171 0.00000 0.00000 0.00000
  172 0.00000 0.00000 0.00000
  173 0.00000 0.00000 0.00000
  174 0.00000 0.00000 0.00000
  175 0.00000 0.00000 0.00000
  176 0.00000 0.00000 0.00000
  177 0.00000 0.00000 0.00000
  178 0.00000 0.00000 0.00000
  179 0.00000 0.00000 0.00000
  180 0.00000 0.00000 0.00000
</Section>

newXOutput 2

<Section columns = "stress_xx | stress_yy | stress_xy">
  1 3.62712 0.0260869 -0.0155305
  2 3.62377 0.0202955 0.0139950
  3 3.62712 0.0260869 -0.0155305
  4 3.62377 0.0202955 0.0139950
  5 5.50303 0.116401 1.33100
  6 5.40396 0.0805177 -1.22531
  7 5.50303 0.116401 1.33100
  8 5.40396 0.0805177 -1.22531
  9 3.66738 0.00758666 -0.0490576
  10 3.83162 0.000788215 -0.0801079
  11 3.93101 -0.0437137 -0.0993572
  12 4.12692 -0.0208084 0.0664562
  13 4.10821 0.123917 0.0410820
  14 4.13745 -0.0212330 -0.0855525
  15 3.97422 -0.0683638 0.0987785
  16 3.77896 0.0174753 0.0935766
  17 3.67115 0.0246520 0.0440467
  18 3.60177 0.0431512 0.00773704
  19 3.57912 0.0437370 -0.000605318
  20 3.59992 0.0398274 -0.00702486
  21 3.66738 0.00758666 -0.0490576
  22 3.83162 0.000788215 -0.0801079
  23 3.93101 -0.0437137 -0.0993572
  24 4.12692 -0.0208084 0.0664562
  25 4.10821 0.123917 0.0410820
  26 4.13745 -0.0212330 -0.0855525
  27 3.97422 -0.0683638 0.0987785
  28 3.77896 0.0174753 0.0935766
  29 3.67115 0.0246520 0.0440467
  30 3.60177 0.0431512 0.00773704
  31 3.57912 0.0437370 -0.000605318
  32 3.59992 0.0398274 -0.00702486
  33 8.18278 0.0646934 0.588318
  34 7.09359 0.0762717 0.385994
  35 6.81062 0.136745 0.157017
  36 6.59337 0.0844795 -0.0416006
  37 7.00837 0.0265173 -0.149436
  38 7.16669 0.135659 -0.352387
  39 7.45405 0.469538 -0.712077
  40 1.81005 -1.07538 -1.48467
  41 0.357783 -1.93182 -0.594381
  42 0.145186 -2.58182 -0.186277
  43 0.102531 -2.72760 -0.0210239
  44 0.122574 -2.61668 0.188756
  45 0.328970 -2.28751 0.509717
  46 1.46978 -1.08711 1.45454
  47 8.18278 0.0646934 0.588318
  48 7.09359 0.0762717 0.385994
  49 6.81062 0.136745 0.157017
  50 6.59337 0.0844795 -0.0416006
  51 7.00837 0.0265173 -0.149436
  52 7.16669 0.135659 -0.352387
  53 7.45405 0.469538 -0.712077
  54 1.81005 -1.07538 -1.48467
  55 0.357783 -1.93182 -0.594381
  56 0.145186 -2.58182 -0.186277
  57 0.102531 -2.72760 -0.0210239
  58 0.122574 -2.61668 0.188756
  59 0.328970 -2.28751 0.509717
  60 1.46978 -1.08711 1.45454
  61 3.34208 0.144000 -0.0626834
  62 3.34208 0.144000 -0.0626834
  63 3.09525 0.0442449 0.334839
  64 3.00427 0.0191865 -0.407645
  65 3.09525 0.0442449 0.334839
  66 3.00427 0.0191865 -0.407645
  67 1.69942 0.0261542 0.110564
  68 1.69942 0.0261542 0.110564
  69 2.81303 -0.517262 1.08558
  70 2.81303 -0.517262 1.08558
  71 1.69036 -0.504251 -0.860887
  72 4.24972 -0.359349 -0.171265
  73 4.69997 0.259405 0.00701482
  74 4.48474 0.120662 -0.0648923
  75 1.69036 -0.504251 -0.860887
  76 4.24972 -0.359349 -0.171265
  77 4.69997 0.259405 0.00701482
  78 4.48474 0.120662 -0.0648923
  79 4.16533 -0.192863 0.0748799
  80 4.16533 -0.192863 0.0748799
  81 5.39662 0.399357 0.0215166
  82 5.39662 0.399357 0.0215166
  83 0.888628 -0.596646 -0.0724354
  84 0.888628 -0.596646 -0.0724354
  85 1.16894 -0.792480 0.733519
  86 1.16894 -0.792480 0.733519
  87 4.51095 -0.264657 0.110469
  88 4.51095 -0.264657 0.110469
  89 3.55206 0.0814335 0.0535702
  90 3.56810 0.0888457 -0.0546155
  91 3.55206 0.0814335 0.0535702
  92 3.56810 0.0888457 -0.0546155
  93 5.18206 0.255892 0.150061
  94 5.18206 0.255892 0.150061
  95 3.68498 0.0362088 0.154974
  96 3.68498 0.0362088 0.154974
  97 5.59638 0.410755 -0.181619
  98 5.69024 0.309074 -0.373722
  99 5.59638 0.410755 -0.181619
  100 5.69024 0.309074 -0.373722
  101 3.58691 0.0571737 -0.189554
  102 3.58691 0.0571737 -0.189554
  103 2.94996 -0.603739 -1.26152
  104 2.94996 -0.603739 -1.26152
  105 2.49668 -0.690785 1.32937
  106 2.49668 -0.690785 1.32937
  107 4.61786 -0.368791 -0.459148
  108 4.61786 -0.368791 -0.459148
  109 3.42618 -0.419592 -0.752837
  110 3.42618 -0.419592 -0.752837
  111 5.95620 0.401890 0.289124
  112 5.95620 0.401890 0.289124
  113 0.442395 -1.45897 -0.475994
  114 0.442395 -1.45897 -0.475994
  115 0.260442 -1.70161 0.139255
  116 0.260442 -1.70161 0.139255
  117 3.05444 0.195067 -0.0399145
  118 3.05444 0.195067 -0.0399145
  119 3.74857 -0.144999 -0.293330
  120 3.74857 -0.144999 -0.293330
  121 6.38641 0.182421 -0.144895
  122 6.38641 0.182421 -0.144895
  123 0.702647 -1.46070 0.803322
  124 0.702647 -1.46070 0.803322
  125 3.35490 0.117055 0.176097
  126 3.35490 0.117055 0.176097
  127 0.829457 -1.19086 -0.902562
  128 0.829457 -1.19086 -0.902562
  129 4.55702 -0.323075 0.691884
  130 4.55702 -0.323075 0.691884
  131 6.49889 0.318423 -0.430768
  132 6.49889 0.318423 -0.430768
  133 0.326248 -1.94174 -0.134921
  134 0.326248 -1.94174 -0.134921
  135 0.392358 -1.87922 0.339900
  136 0.392358 -1.87922 0.339900
  137 3.67883 0.0364648 -0.0921525
  138 3.67883 0.0364648 -0.0921525
  139 3.48538 0.123346 -0.00658246
  140 3.48538 0.123346 -0.00658246
  141 3.57430 0.0636428 -0.000879158
  142 3.57430 0.0636428 -0.000879158
  143 3.68874 -0.0734550 0.259839
  144 3.68874 -0.0734550 0.259839
  145 2.53882 -0.0706518 0.605983
  146 3.72679 -0.341161 0.508050
  147 2.50492 0.142504 0.0132772
  148 2.53882 -0.0706518 0.605983
  149 3.72679 -0.341161 0.508050
  150 2.50492 0.142504 0.0132772
  151 3.31195 0.0600181 -0.279034
  152 3.31195 0.0600181 -0.279034
  153 6.33061 0.189367 0.108600
  154 6.33061 0.189367 0.108600
  155 6.58444 0.156416 0.276249
  156 6.59342 0.300603 0.524579
  157 6.58444 0.156416 0.276249
  158 6.59342 0.300603 0.524579
  159 3.61702 0.0428029 0.0314727
  160 3.61702 0.0428029 0.0314727
  161 2.23989 -0.0982869 -0.515090
  162 2.23989 -0.0982869 -0.515090
  163 3.61726 0.0416823 -0.0309182
  164 3.61726 0.0416823 -0.0309182
  165 3.64062 0.0499838 0.0848923
  166 3.64062 0.0499838 0.0848923
  167 4.27066 -0.0378070 0.121589
  168 4.18167 -0.149065 -0.00293336
  169 4.27066 -0.0378070 0.121589
  170 4.18167 -0.149065 -0.00293336
  171 4.62103 -0.120714 0.0525735
  172 4.62103 -0.120714 0.0525735
  173 3.48910 0.111433 0.0968777
  174 3.48910 0.111433 0.0968777
  175 1.72527 -0.197537 0.689609
  176 1.72527 -0.197537 0.689609
  177 1.52396 -0.0965720 -0.436020
  178 1.52396 -0.0965720 -0.436020
  179 3.52020 0.119988 -0.0925064
  180 3.52020 0.119988 -0.0925064
</Section>

newXOutput 3

<Section columns = "stress_xx | stress_yy | stress_xy">
  1 7.25122 0.0521346 -0.0310269
  2 7.24452 0.0405591 0.0279587
  3 7.25122 0.0521346 -0.0310269
  4 7.24452 0.0405591 0.0279587
  5 10.9980 0.234205 2.66185
  6 10.8005 0.162468 -2.45081
  7 10.9980 0.234205 2.66185
  8 10.8005 0.162468 -2.45081
  9 7.33162 0.0151538 -0.0980241
  10 7.65972 0.00157649 -0.160085
  11 7.85840 -0.0874127 -0.198676
  12 8.25020 -0.0416011 0.132616
  13 8.21322 0.247778 0.0820578
  14 8.27126 -0.0424365 -0.170739
  15 7.94472 -0.136694 0.197531
  16 7.55453 0.0349250 0.187001
  17 7.33916 0.0492698 0.0880013
  18 7.20061 0.0862351 0.0154569
  19 7.15537 0.0874040 -0.00120909
  20 7.19691 0.0795922 -0.0140342
  21 7.33162 0.0151538 -0.0980241
  22 7.65972 0.00157649 -0.160085
  23 7.85840 -0.0874127 -0.198676
  24 8.25020 -0.0416011 0.132616
  25 8.21322 0.247778 0.0820578
  26 8.27126 -0.0424365 -0.170739
  27 7.94472 -0.136694 0.197531
  28 7.55453 0.0349250 0.187001
  29 7.33916 0.0492698 0.0880013
  30 7.20061 0.0862351 0.0154569
  31 7.15537 0.0874040 -0.00120909
  32 7.19691 0.0795922 -0.0140342
  33 16.3512 0.129368 1.17610
  34 14.1757 0.152264 0.771519
  35 13.6104 0.273223 0.313756
  36 13.1766 0.168719 -0.0831053
  37 14.0050 0.0529632 -0.298645
  38 14.3217 0.271142 -0.704293
  39 14.8963 0.939082 -1.42389
  40 3.61816 -2.14834 -2.96984
  41 0.715376 -3.86204 -1.18956
  42 0.290201 -5.16315 -0.372920
  43 0.204838 -5.45498 -0.0420336
  44 0.244932 -5.23282 0.377857
  45 0.657737 -4.57358 1.02025
  46 2.93808 -2.17178 2.90966
  47 16.3512 0.129368 1.17610
  48 14.1757 0.152264 0.771519
  49 13.6104 0.273223 0.313756
  50 13.1766 0.168719 -0.0831053
  51 14.0050 0.0529632 -0.298645
  52 14.3217 0.271142 -0.704293
  53 14.8963 0.939082 -1.42389
  54 3.61816 -2.14834 -2.96984
  55 0.715376 -3.86204 -1.18956
  56 0.290201 -5.16315 -0.372920
  57 0.204838 -5.45498 -0.0420336
  58 0.244932 -5.23282 0.377857
  59 0.657737 -4.57358 1.02025
  60 2.93808 -2.17178 2.90966
  61 6.68180 0.287862 -0.125287
  62 6.68180 0.287862 -0.125287
  63 6.18841 0.0884850 0.669391
  64 6.00654 0.0383871 -0.814937
  65 6.18841 0.0884850 0.669391
  66 6.00654 0.0383871 -0.814937
  67 3.39838 0.0525328 0.221082
  68 3.39838 0.0525328 0.221082
  69 5.62364 -1.03420 2.17083
  70 5.62364 -1.03420 2.17083
  71 3.37979 -1.00794 -1.72177
  72 8.49518 -0.718404 -0.342853
  73 9.39550 0.518694 0.0136691
  74 8.96534 0.241299 -0.129317
  75 3.37979 -1.00794 -1.72177
  76 8.49518 -0.718404 -0.342853
  77 9.39550 0.518694 0.0136691
  78 8.96534 0.241299 -0.129317
  79 8.32668 -0.385571 0.150042
  80 8.32668 -0.385571 0.150042
  81 10.7872 0.798263 0.0431776
  82 10.7872 0.798263 0.0431776
  83 1.77703 -1.19252 -0.144899
  84 1.77703 -1.19252 -0.144899
  85 2.33722 -1.58412 1.46731
  86 2.33722 -1.58412 1.46731
  87 9.01724 -0.528959 0.221568
  88 9.01724 -0.528959 0.221568
  89 7.10131 0.162758 0.107038
  90 7.13335 0.177577 -0.109127
  91 7.10131 0.162758 0.107038
  92 7.13335 0.177577 -0.109127
  93 10.3584 0.511856 0.300772
  94 10.3584 0.511856 0.300772
  95 7.36682 0.0723683 0.309742
  96 7.36682 0.0723683 0.309742
  97 11.1863 0.821065 -0.363388
  98 11.3735 0.618325 -0.747906
  99 11.1863 0.821065 -0.363388
  100 11.3735 0.618325 -0.747906
  101 7.17090 0.114282 -0.378881
  102 7.17090 0.114282 -0.378881
  103 5.89674 -1.20629 -2.52318
  104 5.89674 -1.20629 -2.52318
  105 4.99082 -1.38029 2.65900
  106 4.99082 -1.38029 2.65900
  107 9.23048 -0.736928 -0.918854
  108 9.23048 -0.736928 -0.918854
  109 6.84928 -0.838901 -1.50540
  110 6.84928 -0.838901 -1.50540
  111 11.9049 0.803403 0.578266
  112 11.9049 0.803403 0.578266
  113 0.884617 -2.91687 -0.952461
  114 0.884617 -2.91687 -0.952461
  115 0.520698 -3.40231 0.278712
  116 0.520698 -3.40231 0.278712
  117 6.10697 0.390005 -0.0797760
  118 6.10697 0.390005 -0.0797760
  119 7.49382 -0.289907 -0.586508
  120 7.49382 -0.289907 -0.586508
  121 12.7637 0.364498 -0.289600
  122 12.7637 0.364498 -0.289600
  123 1.40499 -2.91985 1.60749
  124 1.40499 -2.91985 1.60749
  125 6.70737 0.234005 0.351983
  126 6.70737 0.234005 0.351983
  127 1.65858 -2.38031 -1.80583
  128 1.65858 -2.38031 -1.80583
  129 9.10887 -0.645482 1.38412
  130 9.10887 -0.645482 1.38412
  131 12.9885 0.636488 -0.861314
  132 12.9885 0.636488 -0.861314
  133 0.652262 -3.88265 -0.269983
  134 0.652262 -3.88265 -0.269983
  135 0.784491 -3.75735 0.680397
  136 0.784491 -3.75735 0.680397
  137 7.35453 0.0728813 -0.184159
  138 7.35453 0.0728813 -0.184159
  139 6.96811 0.246540 -0.0131554
  140 6.96811 0.246540 -0.0131554
  141 7.14575 0.127192 -0.00175650
  142 7.14575 0.127192 -0.00175650
  143 7.37431 -0.146868 0.519478
  144 7.37431 -0.146868 0.519478
  145 5.07618 -0.141179 1.21159
  146 7.45010 -0.682082 1.01596
  147 5.00869 0.284996 0.0265673
  148 5.07618 -0.141179 1.21159
  149 7.45010 -0.682082 1.01596
  150 5.00869 0.284996 0.0265673
  151 6.62149 0.119992 -0.557765
  152 6.62149 0.119992 -0.557765
  153 12.6523 0.378350 0.217122
  154 12.6523 0.378350 0.217122
  155 13.1593 0.312525 0.552154
  156 13.1773 0.601330 1.04911
  157 13.1593 0.312525 0.552154
  158 13.1773 0.601330 1.04911
  159 7.23106 0.0855439 0.0628785
  160 7.23106 0.0855439 0.0628785
  161 4.47872 -0.196416 -1.02989
  162 4.47872 -0.196416 -1.02989
  163 7.23153 0.0833043 -0.0617706
  164 7.23153 0.0833043 -0.0617706
  165 7.27819 0.0999039 0.169630
  166 7.27819 0.0999039 0.169630
  167 8.53746 -0.0755212 0.242641
  168 8.35932 -0.298040 -0.00615654
  169 8.53746 -0.0755212 0.242641
  170 8.35932 -0.298040 -0.00615654
  171 9.23733 -0.241121 0.104312
  172 9.23733 -0.241121 0.104312
  173 6.97554 0.222738 0.193603
  174 6.97554 0.222738 0.193603
  175 3.44983 -0.394714 1.37903
  176 3.44983 -0.394714 1.37903
  177 3.04749 -0.192770 -0.871915
  178 3.04749 -0.192770 -0.871915
  179 7.03768 0.239841 -0.184873
  180 7.03768 0.239841 -0.184873
</Section>

newXOutput 4

<Section columns = "stress_xx | stress_yy | stress_xy">
  1 10.8723 0.0781432 -0.0464892
  2 10.8623 0.0607908 0.0418912
  3 10.8723 0.0781432 -0.0464892
  4 10.8623 0.0607908 0.0418912
  5 16.4848 0.353408 3.99257
  6 16.1895 0.245849 -3.67651
  7 16.4848 0.353408 3.99257
  8 16.1895 0.245849 -3.67651
  9 10.9927 0.0227014 -0.146900
  10 11.4843 0.00236484 -0.239932
  11 11.7822 -0.131097 -0.297957
  12 12.3698 -0.0623782 0.198479
  13 12.3150 0.371583 0.122928
  14 12.4014 -0.0636105 -0.255561
  15 11.9115 -0.204991 0.296257
  16 11.3267 0.0523493 0.280275
  17 11.0040 0.0738536 0.131864
  18 10.7965 0.129252 0.0231597
  19 10.7288 0.131001 -0.00181133
  20 10.7910 0.119295 -0.0210282
  21 10.9927 0.0227014 -0.146900
  22 11.4843 0.00236484 -0.239932
  23 11.7822 -0.131097 -0.297957
  24 12.3698 -0.0623782 0.198479
  25 12.3150 0.371583 0.122928
  26 12.4014 -0.0636105 -0.255561
  27 11.9115 -0.204991 0.296257
  28 11.3267 0.0523493 0.280275
  29 11.0040 0.0738536 0.131864
  30 10.7965 0.129252 0.0231597
  31 10.7288 0.131001 -0.00181133
  32 10.7910 0.119295 -0.0210282
  33 24.5054 0.194022 1.76333
  34 21.2463 0.227978 1.15658
  35 20.3994 0.409435 0.470217
  36 19.7496 0.252718 -0.124514
  37 20.9898 0.0793379 -0.447627
  38 21.4651 0.406450 -1.05572
  39 22.3267 1.40863 -2.13542
  40 5.42434 -3.21888 -4.45553
  41 1.07278 -5.79066 -1.78553
  42 0.435046 -7.74399 -0.559929
  43 0.306921 -8.18215 -0.0630289
  44 0.367075 -7.84843 0.567302
  45 0.986301 -6.85820 1.53160
  46 4.40490 -3.25403 4.36536
  47 24.5054 0.194022 1.76333
  48 21.2463 0.227978 1.15658
  49 20.3994 0.409435 0.470217
  50 19.7496 0.252718 -0.124514
  51 20.9898 0.0793379 -0.447627
  52 21.4651 0.406450 -1.05572
  53 22.3267 1.40863 -2.13542
  54 5.42434 -3.21888 -4.45553
  55 1.07278 -5.79066 -1.78553
  56 0.435046 -7.74399 -0.559929
  57 0.306921 -8.18215 -0.0630289
  58 0.367075 -7.84843 0.567302
  59 0.986301 -6.85820 1.53160
  60 4.40490 -3.25403 4.36536
  61 10.0191 0.431584 -0.187812
  62 10.0191 0.431584 -0.187812
  63 9.27947 0.132720 1.00365
  64 9.00681 0.0576017 -1.22188
  65 9.27947 0.132720 1.00365
  66 9.00681 0.0576017 -1.22188
  67 5.09690 0.0791349 0.331554
  68 5.09690 0.0791349 0.331554
  69 8.43183 -1.55082 3.25575
  70 8.43183 -1.55082 3.25575
  71 5.06830 -1.51106 -2.58266
  72 12.7364 -1.07716 -0.514764
  73 14.0866 0.777866 0.0199640
  74 13.4418 0.361910 -0.193275
  75 5.06830 -1.51106 -2.58266
  76 12.7364 -1.07716 -0.514764
  77 14.0866 0.777866 0.0199640
  78 13.4418 0.361910 -0.193275
  79 12.4841 -0.578126 0.225484
  80 12.4841 -0.578126 0.225484
  81 16.1719 1.19672 0.0649824
  82 16.1719 1.19672 0.0649824
  83 2.66522 -1.78761 -0.217390
  84 2.66522 -1.78761 -0.217390
  85 3.50484 -2.37492 2.20137
  86 3.50484 -2.37492 2.20137
  87 13.5189 -0.792905 0.333295
  88 13.5189 -0.792905 0.333295
  89 10.6478 0.243973 0.160405
  90 10.6958 0.266193 -0.163535
  91 10.6478 0.243973 0.160405
  92 10.6958 0.266193 -0.163535
  93 15.5291 0.767891 0.452130
  94 15.5291 0.767891 0.452130
  95 11.0455 0.108478 0.464302
  96 11.0455 0.108478 0.464302
  97 16.7699 1.23093 -0.545307
  98 17.0497 0.927751 -1.12255
  99 16.7699 1.23093 -0.545307
  100 17.0497 0.927751 -1.12255
  101 10.7520 0.171325 -0.567982
  102 10.7520 0.171325 -0.567982
  103 8.84035 -1.80765 -3.78499
  104 8.84035 -1.80765 -3.78499
  105 7.48241 -2.06850 3.98887
  106 7.48241 -2.06850 3.98887
  107 13.8379 -1.10441 -1.37912
  108 13.8379 -1.10441 -1.37912
  109 10.2693 -1.25793 -2.25768
  110 10.2693 -1.25793 -2.25768
  111 17.8461 1.20454 0.867423
  112 17.8461 1.20454 0.867423
  113 1.32667 -4.37371 -1.42940
  114 1.32667 -4.37371 -1.42940
  115 0.780770 -5.10211 0.418371
  116 0.780770 -5.10211 0.418371
  117 9.15759 0.584813 -0.119585
  118 9.15759 0.584813 -0.119585
  119 11.2358 -0.434723 -0.879536
  120 11.2358 -0.434723 -0.879536
  121 19.1317 0.546233 -0.434114
  122 19.1317 0.546233 -0.434114
  123 2.10703 -4.37745 2.41251
  124 2.10703 -4.37745 2.41251
  125 10.0574 0.350851 0.527660
  126 10.0574 0.350851 0.527660
  127 2.48736 -3.56834 -2.70981
  128 2.48736 -3.56834 -2.70981
  129 13.6556 -0.967221 2.07669
  130 13.6556 -0.967221 2.07669
  131 19.4688 0.954196 -1.29164
  132 19.4688 0.954196 -1.29164
  133 0.978041 -5.82274 -0.405186
  134 0.978041 -5.82274 -0.405186
  135 1.17640 -5.63437 1.02149
  136 1.17640 -5.63437 1.02149
  137 11.0271 0.109249 -0.276021
  138 11.0271 0.109249 -0.276021
  139 10.4482 0.369580 -0.0197189
  140 10.4482 0.369580 -0.0197189
  141 10.7143 0.190648 -0.00263204
  142 10.7143 0.190648 -0.00263204
  143 11.0567 -0.220239 0.778919
  144 11.0567 -0.220239 0.778919
  145 7.61210 -0.211582 1.81682
  146 11.1699 -1.02276 1.52373
  147 7.51130 0.427478 0.0398703
  148 7.61210 -0.211582 1.81682
  149 11.1699 -1.02276 1.52373
  150 7.51130 0.427478 0.0398703
  151 9.92862 0.179923 -0.836192
  152 9.92862 0.179923 -0.836192
  153 18.9652 0.566950 0.325566
  154 18.9652 0.566950 0.325566
  155 19.7245 0.468329 0.827717
  156 19.7517 0.902180 1.57359
  157 19.7245 0.468329 0.827717
  158 19.7517 0.902180 1.57359
  159 10.8421 0.128223 0.0942178
  160 10.8421 0.128223 0.0942178
  161 6.71649 -0.294387 -1.54441
  162 6.71649 -0.294387 -1.54441
  163 10.8428 0.124866 -0.0925571
  164 10.8428 0.124866 -0.0925571
  165 10.9127 0.149760 0.254213
  166 10.9127 0.149760 0.254213
  167 12.8004 -0.113143 0.363156
  168 12.5330 -0.446926 -0.00966872
  169 12.8004 -0.113143 0.363156
  170 12.5330 -0.446926 -0.00966872
  171 13.8489 -0.361221 0.155218
  172 13.8489 -0.361221 0.155218
  173 10.4593 0.333917 0.290177
  174 10.4593 0.333917 0.290177
  175 5.17366 -0.591531 2.06827
  176 5.17366 -0.591531 2.06827
  177 4.57059 -0.288594 -1.30768
  178 4.57059 -0.288594 -1.30768
  179 10.5524 0.359558 -0.277101
  180 10.5524 0.359558 -0.277101
</Section>

newXOutput 5

<Section columns = "stress_xx | stress_yy | stress_xy">
  1 14.4904 0.104113 -0.0619176
  2 14.4770 0.0809907 0.0557924
  3 14.4904 0.104113 -0.0619176
  4 14.4770 0.0809907 0.0557924
  5 21.9636 0.474009 5.32314
  6 21.5711 0.330658 -4.90240
  7 21.9636 0.474009 5.32314
  8 21.5711 0.330658 -4.90240
  9 14.6507 0.0302296 -0.195684
  10 15.3054 0.00315326 -0.319650
  11 15.7024 -0.174766 -0.397199
  12 16.4859 -0.0831396 0.264047
  13 16.4136 0.495332 0.163692
  14 16.5280 -0.0847549 -0.340019
  15 15.8746 -0.273254 0.394958
  16 15.0955 0.0697482 0.373397
  17 14.6658 0.0984034 0.175636
  18 14.3895 0.172202 0.0308453
  19 14.2993 0.174529 -0.00241203
  20 14.3821 0.158935 -0.0280067
  21 14.6507 0.0302296 -0.195684
  22 15.3054 0.00315326 -0.319650
  23 15.7024 -0.174766 -0.397199
  24 16.4859 -0.0831396 0.264047
  25 16.4136 0.495332 0.163692
  26 16.5280 -0.0847549 -0.340019
  27 15.8746 -0.273254 0.394958
  28 15.0955 0.0697482 0.373397
  29 14.6658 0.0984034 0.175636
  30 14.3895 0.172202 0.0308453
  31 14.2993 0.174529 -0.00241203
  32 14.3821 0.158935 -0.0280067
  33 32.6453 0.258658 2.35002
  34 28.3054 0.303414 1.54116
  35 27.1776 0.545381 0.626400
  36 26.3125 0.336478 -0.165827
  37 27.9630 0.105642 -0.596381
  38 28.5968 0.541583 -1.40666
  39 29.7453 1.87818 -2.84669
  40 7.22857 -4.28700 -5.94172
  41 1.42999 -7.71769 -2.38229
  42 0.579720 -10.3243 -0.747302
  43 0.408782 -10.9091 -0.0840099
  44 0.489003 -10.4635 0.757092
  45 1.31466 -9.14137 2.04376
  46 5.87024 -4.33385 5.82162
  47 32.6453 0.258658 2.35002
  48 28.3054 0.303414 1.54116
  49 27.1776 0.545381 0.626400
  50 26.3125 0.336478 -0.165827
  51 27.9630 0.105642 -0.596381
  52 28.5968 0.541583 -1.40666
  53 29.7453 1.87818 -2.84669
  54 7.22857 -4.28700 -5.94172
  55 1.42999 -7.71769 -2.38229
  56 0.579720 -10.3243 -0.747302
  57 0.408782 -10.9091 -0.0840099
  58 0.489003 -10.4635 0.757092
  59 1.31466 -9.14137 2.04376
  60 5.87024 -4.33385 5.82162
  61 13.3541 0.575169 -0.250258
  62 13.3541 0.575169 -0.250258
  63 12.3684 0.176951 1.33763
  64 12.0051 0.0768304 -1.62846
  65 12.3684 0.176951 1.33763
  66 12.0051 0.0768304 -1.62846
  67 6.79496 0.105960 0.441981
  68 6.79496 0.105960 0.441981
  69 11.2376 -2.06711 4.34034
  70 11.2376 -2.06711 4.34034
  71 6.75588 -2.01362 -3.44354
  72 16.9733 -1.43563 -0.686996
  73 18.7733 1.03692 0.0259003
  74 17.9142 0.482497 -0.256769
  75 6.75588 -2.01362 -3.44354
  76 16.9733 -1.43563 -0.686996
  77 18.7733 1.03692 0.0259003
  78 17.9142 0.482497 -0.256769
  79 16.6375 -0.770528 0.301207
  80 16.6375 -0.770528 0.301207
  81 21.5505 1.59473 0.0869304
  82 21.5505 1.59473 0.0869304
  83 3.55318 -2.38193 -0.289909
  84 3.55318 -2.38193 -0.289909
  85 4.67181 -3.16488 2.93571
  86 4.67181 -3.16488 2.93571
  87 18.0158 -1.05650 0.445649
  88 18.0158 -1.05650 0.445649
  89 14.1914 0.325080 0.213670
  90 14.2553 0.354694 -0.217839
  91 14.1914 0.325080 0.213670
  92 14.2553 0.354694 -0.217839
  93 20.6941 1.02400 0.604133
  94 20.6941 1.02400 0.604133
  95 14.7211 0.144539 0.618656
  96 14.7211 0.144539 0.618656
  97 22.3471 1.64035 -0.727374
  98 22.7190 1.23735 -1.49765
  99 22.3471 1.64035 -0.727374
  100 22.7190 1.23735 -1.49765
  101 14.3302 0.228303 -0.756858
  102 14.3302 0.228303 -0.756858
  103 11.7808 -2.40783 -5.04694
  104 11.7808 -2.40783 -5.04694
  105 9.97145 -2.75544 5.31898
  106 9.97145 -2.75544 5.31898
  107 18.4401 -1.47125 -1.83993
  108 18.4401 -1.47125 -1.83993
  109 13.6862 -1.67667 -3.00968
  110 13.6862 -1.67667 -3.00968
  111 23.7799 1.60530 1.15659
  112 23.7799 1.60530 1.15659
  113 1.76854 -5.82948 -1.90681
  114 1.76854 -5.82948 -1.90681
  115 1.04066 -6.80100 0.558231
  116 1.04066 -6.80100 0.558231
  117 12.2063 0.779492 -0.159340
  118 12.2063 0.779492 -0.159340
  119 14.9744 -0.579449 -1.17241
  120 14.9744 -0.579449 -1.17241
  121 25.4907 0.727626 -0.578438
  122 25.4907 0.727626 -0.578438
  123 2.80876 -5.83350 3.21837
  124 2.80876 -5.83350 3.21837
  125 13.4050 0.467591 0.703128
  126 13.4050 0.467591 0.703128
  127 3.31581 -4.75496 -3.61448
  128 3.31581 -4.75496 -3.61448
  129 18.1971 -1.28829 2.76962
  130 18.1971 -1.28829 2.76962
  131 25.9398 1.27155 -1.72173
  132 25.9398 1.27155 -1.72173
  133 1.30359 -7.76200 -0.540530
  134 1.30359 -7.76200 -0.540530
  135 1.56808 -7.51028 1.36318
  136 1.56808 -7.51028 1.36318
  137 14.6966 0.145569 -0.367738
  138 14.6966 0.145569 -0.367738
  139 13.9257 0.492468 -0.0262729
  140 13.9257 0.492468 -0.0262729
  141 14.2801 0.254010 -0.00350577
  142 14.2801 0.254010 -0.00350577
  143 14.7359 -0.293568 1.03816
  144 14.7359 -0.293568 1.03816
  145 10.1466 -0.281861 2.42167
  146 14.8863 -1.36321 2.03136
  147 10.0128 0.569948 0.0531859
  148 10.1466 -0.281861 2.42167
  149 14.8863 -1.36321 2.03136
  150 10.0128 0.569948 0.0531859
  151 13.2333 0.239810 -1.11432
  152 13.2333 0.239810 -1.11432
  153 25.2691 0.755167 0.433931
  154 25.2691 0.755167 0.433931
  155 26.2801 0.623829 1.10294
  156 26.3166 1.20315 2.09802
  157 26.2801 0.623829 1.10294
  158 26.3166 1.20315 2.09802
  159 14.4502 0.170840 0.125491
  160 14.4502 0.170840 0.125491
  161 8.95320 -0.392201 -2.05864
  162 8.95320 -0.392201 -2.05864
  163 14.4511 0.166368 -0.123278
  164 14.4511 0.166368 -0.123278
  165 14.5442 0.199553 0.338641
  166 14.5442 0.199553 0.338641
  167 17.0595 -0.150671 0.483136
  168 16.7026 -0.595723 -0.0134691
  169 17.0595 -0.150671 0.483136
  170 16.7026 -0.595723 -0.0134691
  171 18.4558 -0.481014 0.205293
  172 18.4558 -0.481014 0.205293
  173 13.9404 0.444968 0.386598
  174 13.9404 0.444968 0.386598
  175 6.89678 -0.787989 2.75731
  176 6.89678 -0.787989 2.75731
  177 6.09328 -0.384046 -1.74333
  178 6.09328 -0.384046 -1.74333
  179 14.0645 0.479140 -0.369189
  180 14.0645 0.479140 -0.369189
</Section>

newXOutput 6

<Section columns = "stress_xx | stress_yy | stress_xy">
  1 18.1054 0.130043 -0.0773120
  2 18.0887 0.101159 0.0696625
  3 18.1054 0.130043 -0.0773120
  4 18.0887 0.101159 0.0696625
  5 27.4343 0.596005 6.65356
  6 26.9453 0.416892 -6.12848
  7 27.4343 0.596005 6.65356
  8 26.9453 0.416892 -6.12848
  9 18.3056 0.0377384 -0.244378
  10 19.1229 0.00394175 -0.399237
  11 19.6190 -0.218421 -0.496402
  12 20.5983 -0.103885 0.329320
  13 20.5091 0.619026 0.204350
  14 20.6509 -0.105870 -0.424114
  15 19.8340 -0.341483 0.493631
  16 18.8610 0.0871217 0.466369
  17 18.3244 0.122919 0.219315
  18 17.9795 0.215085 0.0385139
  19 17.8670 0.217987 -0.00301121
  20 17.9703 0.198512 -0.0349699
  21 18.3056 0.0377384 -0.244378
  22 19.1229 0.00394175 -0.399237
  23 19.6190 -0.218421 -0.496402
  24 20.5983 -0.103885 0.329320
  25 20.5091 0.619026 0.204350
  26 20.6509 -0.105870 -0.424114
  27 19.8340 -0.341483 0.493631
  28 18.8610 0.0871217 0.466369
  29 18.3244 0.122919 0.219315
  30 17.9795 0.215085 0.0385139
  31 17.8670 0.217987 -0.00301121
  32 17.9703 0.198512 -0.0349699
  33 40.7710 0.323274 2.93617
  34 35.3531 0.378573 1.92528
  35 33.9450 0.681061 0.782306
  36 32.8653 0.420000 -0.207045
  37 34.9245 0.131875 -0.744909
  38 35.7170 0.676541 -1.75712
  39 37.1521 2.34774 -3.55767
  40 9.03087 -5.35271 -7.42842
  41 1.78701 -9.64312 -2.97984
  42 0.724224 -12.9042 -0.935042
  43 0.510420 -13.6358 -0.104977
  44 0.610716 -13.0780 0.947227
  45 1.64282 -11.4231 2.55673
  46 7.33411 -5.41125 7.27846
  47 40.7710 0.323274 2.93617
  48 35.3531 0.378573 1.92528
  49 33.9450 0.681061 0.782306
  50 32.8653 0.420000 -0.207045
  51 34.9245 0.131875 -0.744909
  52 35.7170 0.676541 -1.75712
  53 37.1521 2.34774 -3.55767
  54 9.03087 -5.35271 -7.42842
  55 1.78701 -9.64312 -2.97984
  56 0.724224 -12.9042 -0.935042
  57 0.510420 -13.6358 -0.104977
  58 0.610716 -13.0780 0.947227
  59 1.64282 -11.4231 2.55673
  60 7.33411 -5.41125 7.27846
  61 16.6868 0.718615 -0.312624
  62 16.6868 0.718615 -0.312624
  63 15.4553 0.221176 1.67132
  64 15.0013 0.0960729 -2.03469
  65 15.4553 0.221176 1.67132
  66 15.0013 0.0960729 -2.03469
  67 8.49258 0.133008 0.552362
  68 8.49258 0.133008 0.552362
  69 14.0410 -2.58309 5.42459
  70 14.0410 -2.58309 5.42459
  71 8.44253 -2.51562 -4.30442
  72 21.2061 -1.79380 -0.859549
  73 23.4555 1.29586 0.0314793
  74 22.3824 0.603059 -0.319798
  75 8.44253 -2.51562 -4.30442
  76 21.2061 -1.79380 -0.859549
  77 23.4555 1.29586 0.0314793
  78 22.3824 0.603059 -0.319798
  79 20.7870 -0.962776 0.377209
  80 20.7870 -0.962776 0.377209
  81 26.9232 1.99229 0.109021
  82 26.9232 1.99229 0.109021
  83 4.44091 -2.97547 -0.362455
  84 4.44091 -2.97547 -0.362455
  85 5.83811 -3.95401 3.67031
  86 5.83811 -3.95401 3.67031
  87 22.5082 -1.31973 0.558627
  88 22.5082 -1.31973 0.558627
  89 17.7323 0.406079 0.266833
  90 17.8121 0.443082 -0.272039
  91 17.7323 0.406079 0.266833
  92 17.8121 0.443082 -0.272039
  93 25.8534 1.28017 0.756778
  94 25.8534 1.28017 0.756778
  95 18.3935 0.180551 0.772804
  96 18.3935 0.180551 0.772804
  97 27.9179 2.04933 -0.909588
  98 28.3813 1.54713 -1.87320
  99 27.9179 2.04933 -0.909588
  100 28.3813 1.54713 -1.87320
  101 17.9055 0.285216 -0.945508
  102 17.9055 0.285216 -0.945508
  103 14.7181 -3.00683 -6.30904
  104 14.7181 -3.00683 -6.30904
  105 12.4580 -3.44110 6.64934
  106 12.4580 -3.44110 6.64934
  107 23.0370 -1.83743 -2.30130
  108 23.0370 -1.83743 -2.30130
  109 17.1001 -2.09513 -3.76140
  110 17.1001 -2.09513 -3.76140
  111 29.7062 2.00569 1.44578
  112 29.7062 2.00569 1.44578
  113 2.21025 -7.28418 -2.38469
  114 2.21025 -7.28418 -2.38469
  115 1.30036 -8.49899 0.698293
  116 1.30036 -8.49899 0.698293
  117 15.2531 0.974041 -0.199043
  118 15.2531 0.974041 -0.199043
  119 18.7097 -0.724085 -1.46514
  120 18.7097 -0.724085 -1.46514
  121 31.8405 0.908677 -0.722572
  122 31.8405 0.908677 -0.722572
  123 3.51018 -7.28799 4.02508
  124 3.51018 -7.28799 4.02508
  125 16.7501 0.584228 0.878386
  126 16.7501 0.584228 0.878386
  127 4.14393 -5.94018 -4.51987
  128 4.14393 -5.94018 -4.51987
  129 22.7335 -1.60870 3.46288
  130 22.7335 -1.60870 3.46288
  131 32.4015 1.58854 -2.15161
  132 32.4015 1.58854 -2.15161
  133 1.62890 -9.70045 -0.676015
  134 1.62890 -9.70045 -0.676015
  135 1.95954 -9.38510 1.70547
  136 1.95954 -9.38510 1.70547
  137 18.3629 0.181841 -0.459309
  138 18.3629 0.181841 -0.459309
  139 17.4005 0.615204 -0.0328175
  140 17.4005 0.615204 -0.0328175
  141 17.8430 0.317279 -0.00437770
  142 17.8430 0.317279 -0.00437770
  143 18.4120 -0.366855 1.29720
  144 18.4120 -0.366855 1.29720
  145 12.6796 -0.352017 3.02615
  146 18.5992 -1.70341 2.53885
  147 12.5131 0.712406 0.0665144
  148 12.6796 -0.352017 3.02615
  149 18.5992 -1.70341 2.53885
  150 12.5131 0.712406 0.0665144
  151 16.5356 0.299653 -1.39214
  152 16.5356 0.299653 -1.39214
  153 31.5643 0.943003 0.542217
  154 31.5643 0.943003 0.542217
  155 32.8262 0.779026 1.37781
  156 32.8721 1.50425 2.62239
  157 32.8262 0.779026 1.37781
  158 32.8721 1.50425 2.62239
  159 18.0553 0.213396 0.156697
  160 18.0553 0.213396 0.156697
  161 11.1888 -0.489857 -2.57259
  162 11.1888 -0.489857 -2.57259
  163 18.0565 0.207809 -0.153933
  164 18.0565 0.207809 -0.153933
  165 18.1727 0.249283 0.422916
  166 18.1727 0.249283 0.422916
  167 21.3148 -0.188107 0.602582
  168 20.8683 -0.744431 -0.0175569
  169 21.3148 -0.188107 0.602582
  170 20.8683 -0.744431 -0.0175569
  171 23.0580 -0.600501 0.254539
  172 23.0580 -0.600501 0.254539
  173 17.4189 0.555893 0.482868
  174 17.4189 0.555893 0.482868
  175 8.61918 -0.984089 3.44617
  176 8.61918 -0.984089 3.44617
  177 7.61553 -0.479125 -2.17884
  178 7.61553 -0.479125 -2.17884
  179 17.5738 0.598586 -0.461138
  180 17.5738 0.598586 -0.461138
</Section>

newXOutput 7

<Section columns = "stress_xx | stress_yy | stress_xy">
  1 21.7175 0.155935 -0.0926726
  2 21.6975 0.121295 0.0835015
  3 21.7175 0.155935 -0.0926726
  4 21.6975 0.121295 0.0835015
  5 32.8970 0.719394 7.98382
  6 32.3120 0.504550 -7.35474
  7 32.8970 0.719394 7.98382
  8 32.3120 0.504550 -7.35474
  9 21.9574 0.0452278 -0.292981
  10 22.9370 0.00473032 -0.478695
  11 23.5320 -0.262061 -0.595567
  12 24.7070 -0.124616 0.394300
  13 24.6013 0.742663 0.244903
  14 24.7702 -0.126955 -0.507847
  15 23.7897 -0.409680 0.592279
  16 22.6230 0.104470 0.559190
  17 21.9799 0.147401 0.262904
  18 21.5667 0.257901 0.0461654
  19 21.4318 0.261375 -0.00360885
  20 21.5556 0.238028 -0.0419178
  21 21.9574 0.0452278 -0.292981
  22 22.9370 0.00473032 -0.478695
  23 23.5320 -0.262061 -0.595567
  24 24.7070 -0.124616 0.394300
  25 24.6013 0.742663 0.244903
  26 24.7702 -0.126955 -0.507847
  27 23.7897 -0.409680 0.592279
  28 22.6230 0.104470 0.559190
  29 21.9799 0.147401 0.262904
  30 21.5667 0.257901 0.0461654
  31 21.4318 0.261375 -0.00360885
  32 21.5556 0.238028 -0.0419178
  33 48.8825 0.387871 3.52178
  34 42.3894 0.453456 2.30893
  35 40.7017 0.816477 0.937936
  36 39.4080 0.503285 -0.248168
  37 41.8743 0.158038 -0.893210
  38 42.8255 0.811325 -2.10711
  39 44.5472 2.81730 -4.26838
  40 10.8312 -6.41600 -8.91561
  41 2.14384 -11.5670 -3.57819
  42 0.868558 -15.4836 -1.12315
  43 0.611835 -16.3624 -0.125929
  44 0.732214 -15.6920 1.13771
  45 1.97077 -13.7034 3.07052
  46 8.79649 -6.48623 8.73586
  47 48.8825 0.387871 3.52178
  48 42.3894 0.453456 2.30893
  49 40.7017 0.816477 0.937936
  50 39.4080 0.503285 -0.248168
  51 41.8743 0.158038 -0.893210
  52 42.8255 0.811325 -2.10711
  53 44.5472 2.81730 -4.26838
  54 10.8312 -6.41600 -8.91561
  55 2.14384 -11.5670 -3.57819
  56 0.868558 -15.4836 -1.12315
  57 0.611835 -16.3624 -0.125929
  58 0.732214 -15.6920 1.13771
  59 1.97077 -13.7034 3.07052
  60 8.79649 -6.48623 8.73586
  61 20.0170 0.861923 -0.374912
  62 20.0170 0.861923 -0.374912
  63 18.5401 0.265397 2.00472
  64 17.9956 0.115329 -2.44057
  65 18.5401 0.265397 2.00472
  66 17.9956 0.115329 -2.44057
  67 10.1898 0.160278 0.662697
  68 10.1898 0.160278 0.662697
  69 16.8419 -3.09874 6.50852
  70 16.8419 -3.09874 6.50852
  71 10.1283 -3.01706 -5.16530
  72 25.4345 -2.15168 -1.03242
  73 28.1333 1.55468 0.0367020
  74 26.8465 0.723596 -0.382364
  75 10.1283 -3.01706 -5.16530
  76 25.4345 -2.15168 -1.03242
  77 28.1333 1.55468 0.0367020
  78 26.8465 0.723596 -0.382364
  79 24.9325 -1.15487 0.453489
  80 24.9325 -1.15487 0.453489
  81 32.2899 2.38940 0.131253
  82 32.2899 2.38940 0.131253
  83 5.32843 -3.56825 -0.435029
  84 5.32843 -3.56825 -0.435029
  85 7.00376 -4.74230 4.40519
  86 7.00376 -4.74230 4.40519
  87 26.9959 -1.58262 0.672229
  88 26.9959 -1.58262 0.672229
  89 21.2703 0.486969 0.319896
  90 21.3660 0.531355 -0.326136
  91 21.2703 0.486969 0.319896
  92 21.3660 0.531355 -0.326136
  93 31.0070 1.53642 0.910063
  94 31.0070 1.53642 0.910063
  95 22.0628 0.216514 0.926747
  96 22.0628 0.216514 0.926747
  97 33.4823 2.45786 -1.09195
  98 34.0367 1.85708 -2.24920
  99 33.4823 2.45786 -1.09195
  100 34.0367 1.85708 -2.24920
  101 21.4779 0.342064 -1.13393
  102 21.4779 0.342064 -1.13393
  103 17.6522 -3.60464 -7.57127
  104 17.6522 -3.60464 -7.57127
  105 14.9419 -4.12548 7.97994
  106 14.9419 -4.12548 7.97994
  107 27.6288 -2.20296 -2.76322
  108 27.6288 -2.20296 -2.76322
  109 20.5108 -2.51331 -4.51284
  110 20.5108 -2.51331 -4.51284
  111 35.6250 2.40570 1.73498
  112 35.6250 2.40570 1.73498
  113 2.65178 -8.73781 -2.86304
  114 2.65178 -8.73781 -2.86304
  115 1.55988 -10.1961 0.838557
  116 1.55988 -10.1961 0.838557
  117 18.2980 1.16846 -0.238693
  118 18.2980 1.16846 -0.238693
  119 22.4418 -0.868629 -1.75772
  120 22.4418 -0.868629 -1.75772
  121 38.1811 1.08939 -0.866516
  122 38.1811 1.08939 -0.866516
  123 4.21130 -8.74094 4.83263
  124 4.21130 -8.74094 4.83263
  125 20.0929 0.700759 1.05343
  126 20.0929 0.700759 1.05343
  127 4.97170 -7.12397 -5.42595
  128 4.97170 -7.12397 -5.42595
  129 27.2648 -1.92844 4.15649
  130 27.2648 -1.92844 4.15649
  131 38.8541 1.90518 -2.58125
  132 38.8541 1.90518 -2.58125
  133 1.95398 -11.6381 -0.811640
  134 1.95398 -11.6381 -0.811640
  135 2.35077 -11.2588 2.04835
  136 2.35077 -11.2588 2.04835
  137 22.0261 0.218065 -0.550736
  138 22.0261 0.218065 -0.550736
  139 20.8727 0.737788 -0.0393526
  140 20.8727 0.737788 -0.0393526
  141 21.4030 0.380455 -0.00524784
  142 21.4030 0.380455 -0.00524784
  143 22.0849 -0.440101 1.55605
  144 22.0849 -0.440101 1.55605
  145 15.2112 -0.422049 3.63025
  146 22.3087 -2.04338 3.04620
  147 15.0122 0.854853 0.0798555
  148 15.2112 -0.422049 3.63025
  149 22.3087 -2.04338 3.04620
  150 15.0122 0.854853 0.0798555
  151 19.8355 0.359453 -1.66966
  152 19.8355 0.359453 -1.66966
  153 37.8506 1.13046 0.650425
  154 37.8506 1.13046 0.650425
  155 39.3627 0.933919 1.65235
  156 39.4181 1.80547 3.14671
  157 39.3627 0.933919 1.65235
  158 39.4181 1.80547 3.14671
  159 21.6574 0.255890 0.187837
  160 21.6574 0.255890 0.187837
  161 13.4234 -0.587358 -3.08624
  162 13.4234 -0.587358 -3.08624
  163 21.6588 0.249191 -0.184523
  164 21.6588 0.249191 -0.184523
  165 21.7981 0.298949 0.507038
  166 21.7981 0.298949 0.507038
  167 25.5662 -0.225450 0.721495
  168 25.0299 -0.893049 -0.0219312
  169 25.5662 -0.225450 0.721495
  170 25.0299 -0.893049 -0.0219312
  171 27.6554 -0.719682 0.302958
  172 27.6554 -0.719682 0.302958
  173 20.8947 0.666691 0.578987
  174 20.8947 0.666691 0.578987
  175 10.3409 -1.17983 4.13484
  176 10.3409 -1.17983 4.13484
  177 9.13736 -0.573834 -2.61423
  178 9.13736 -0.573834 -2.61423
  179 21.0804 0.717897 -0.552948
  180 21.0804 0.717897 -0.552948
</Section>

newXOutput 8

<Section columns = "stress_xx | stress_yy | stress_xy">
  1 25.3265 0.181788 -0.107999
  2 25.3032 0.141400 0.0973095
  3 25.3265 0.181788 -0.107999
  4 25.3032 0.141400 0.0973095
  5 38.3516 0.844173 9.31394
  6 37.6714 0.593629 -8.58117
  7 38.3516 0.844173 9.31394
  8 37.6714 0.593629 -8.58117
  9 25.6060 0.0526979 -0.341495
  10 26.7476 0.00551898 -0.558023
  11 27.4414 -0.305687 -0.694693
  12 28.8122 -0.145330 0.458986
  13 28.6904 0.866246 0.285351
  14 28.8859 -0.148011 -0.591218
  15 27.7417 -0.477842 0.690900
  16 26.3817 0.121793 0.651860
  17 25.6322 0.171849 0.306402
  18 25.1509 0.300651 0.0537999
  19 24.9938 0.304695 -0.00420497
  20 25.1380 0.277481 -0.0488503
  21 25.6060 0.0526979 -0.341495
  22 26.7476 0.00551898 -0.558023
  23 27.4414 -0.305687 -0.694693
  24 28.8122 -0.145330 0.458986
  25 28.6904 0.866246 0.285351
  26 28.8859 -0.148011 -0.591218
  27 27.7417 -0.477842 0.690900
  28 26.3817 0.121793 0.651860
  29 25.6322 0.171849 0.306402
  30 25.1509 0.300651 0.0537999
  31 24.9938 0.304695 -0.00420497
  32 25.1380 0.277481 -0.0488503
  33 56.9798 0.452448 4.10684
  34 49.4143 0.528063 2.69212
  35 47.4477 0.951630 1.09329
  36 45.9406 0.586333 -0.289196
  37 48.8125 0.184130 -1.04129
  38 49.9225 0.945936 -2.45661
  39 51.9306 3.28686 -4.97881
  40 12.6297 -7.47688 -10.4033
  41 2.50048 -13.4892 -4.17732
  42 1.01272 -18.0624 -1.31162
  43 0.713028 -19.0887 -0.146867
  44 0.853498 -18.3055 1.32853
  45 2.29852 -15.9822 3.58511
  46 10.2574 -7.55878 10.1938
  47 56.9798 0.452448 4.10684
  48 49.4143 0.528063 2.69212
  49 47.4477 0.951630 1.09329
  50 45.9406 0.586333 -0.289196
  51 48.8125 0.184130 -1.04129
  52 49.9225 0.945936 -2.45661
  53 51.9306 3.28686 -4.97881
  54 12.6297 -7.47688 -10.4033
  55 2.50048 -13.4892 -4.17732
  56 1.01272 -18.0624 -1.31162
  57 0.713028 -19.0887 -0.146867
  58 0.853498 -18.3055 1.32853
  59 2.29852 -15.9822 3.58511
  60 10.2574 -7.55878 10.1938
  61 23.3449 1.00509 -0.437121
  62 23.3449 1.00509 -0.437121
  63 21.6228 0.309613 2.33784
  64 20.9879 0.134599 -2.84610
  65 21.6228 0.309613 2.33784
  66 20.9879 0.134599 -2.84610
  67 11.8865 0.187768 0.772986
  68 11.8865 0.187768 0.772986
  69 19.6405 -3.61407 7.59212
  70 19.6405 -3.61407 7.59212
  71 11.8131 -3.51794 -6.02618
  72 29.6588 -2.50927 -1.20561
  73 32.8068 1.81339 0.0415692
  74 31.3065 0.844108 -0.444468
  75 11.8131 -3.51794 -6.02618
  76 29.6588 -2.50927 -1.20561
  77 32.8068 1.81339 0.0415692
  78 31.3065 0.844108 -0.444468
  79 29.0740 -1.34681 0.530047
  80 29.0740 -1.34681 0.530047
  81 37.6506 2.78607 0.153627
  82 37.6506 2.78607 0.153627
  83 6.21572 -4.16025 -0.507631
  84 6.21572 -4.16025 -0.507631
  85 8.16875 -5.52976 5.14033
  86 8.16875 -5.52976 5.14033
  87 31.4789 -1.84515 0.786452
  88 31.4789 -1.84515 0.786452
  89 24.8056 0.567750 0.372857
  90 24.9171 0.619514 -0.380131
  91 24.8056 0.567750 0.372857
  92 24.9171 0.619514 -0.380131
  93 36.1550 1.79274 1.06399
  94 36.1550 1.79274 1.06399
  95 25.7290 0.252428 1.08048
  96 25.7290 0.252428 1.08048
  97 39.0404 2.86595 -1.27445
  98 39.6851 2.16721 -2.62565
  99 39.0404 2.86595 -1.27445
  100 39.6851 2.16721 -2.62565
  101 25.0474 0.398847 -1.32213
  102 25.0474 0.398847 -1.32213
  103 20.5831 -4.20127 -8.83364
  104 20.5831 -4.20127 -8.83364
  105 17.4234 -4.80858 9.31078
  106 17.4234 -4.80858 9.31078
  107 32.2154 -2.56784 -3.22569
  108 32.2154 -2.56784 -3.22569
  109 23.9185 -2.93121 -5.26401
  110 23.9185 -2.93121 -5.26401
  111 41.5364 2.80534 2.02418
  112 41.5364 2.80534 2.02418
  113 3.09314 -10.1904 -3.34186
  114 3.09314 -10.1904 -3.34186
  115 1.81922 -11.8923 0.979022
  116 1.81922 -11.8923 0.979022
  117 21.3410 1.36275 -0.278291
  118 21.3410 1.36275 -0.278291
  119 26.1705 -1.01308 -2.05014
  120 26.1705 -1.01308 -2.05014
  121 44.5127 1.26976 -1.01027
  122 44.5127 1.26976 -1.01027
  123 4.91212 -10.1923 5.64103
  124 4.91212 -10.1923 5.64103
  125 23.4332 0.817187 1.22827
  126 23.4332 0.817187 1.22827
  127 5.79914 -8.30636 -6.33273
  128 5.79914 -8.30636 -6.33273
  129 31.7909 -2.24752 4.85043
  130 31.7909 -2.24752 4.85043
  131 45.2974 2.22146 -3.01067
  132 45.2974 2.22146 -3.01067
  133 2.27883 -13.5749 -0.947406
  134 2.27883 -13.5749 -0.947406
  135 2.74178 -13.1314 2.39183
  136 2.74178 -13.1314 2.39183
  137 25.6862 0.254241 -0.642019
  138 25.6862 0.254241 -0.642019
  139 24.3423 0.860220 -0.0458783
  140 24.3423 0.860220 -0.0458783
  141 24.9602 0.443538 -0.00611618
  142 24.9602 0.443538 -0.00611618
  143 25.7547 -0.513304 1.81470
  144 25.7547 -0.513304 1.81470
  145 17.7413 -0.491958 4.23398
  146 26.0147 -2.38311 3.55340
  147 17.5103 0.997288 0.0932092
  148 17.7413 -0.491958 4.23398
  149 26.0147 -2.38311 3.55340
  150 17.5103 0.997288 0.0932092
  151 23.1330 0.419209 -1.94688
  152 23.1330 0.419209 -1.94688
  153 44.1280 1.31753 0.758553
  154 44.1280 1.31753 0.758553
  155 45.8897 1.08851 1.92654
  156 45.9546 2.10681 3.67097
  157 45.8897 1.08851 1.92654
  158 45.9546 2.10681 3.67097
  159 25.2566 0.298323 0.218911
  160 25.2566 0.298323 0.218911
  161 15.6570 -0.684702 -3.59961
  162 15.6570 -0.684702 -3.59961
  163 25.2582 0.290513 -0.215048
  164 25.2582 0.290513 -0.215048
  165 25.4205 0.348552 0.591005
  166 25.4205 0.348552 0.591005
  167 29.8138 -0.262700 0.839877
  168 29.1876 -1.04158 -0.0265913
  169 29.8138 -0.262700 0.839877
  170 29.1876 -1.04158 -0.0265913
  171 32.2482 -0.838557 0.350553
  172 32.2482 -0.838557 0.350553
  173 24.3678 0.777363 0.674954
  174 24.3678 0.777363 0.674954
  175 12.0618 -1.37522 4.82332
  176 12.0618 -1.37522 4.82332
  177 10.6588 -0.668173 -3.04950
  178 10.6588 -0.668173 -3.04950
  179 24.5843 0.837073 -0.644619
  180 24.5843 0.837073 -0.644619
</Section>

newXOutput 9

<Section columns = "stress_xx | stress_yy | stress_xy">
  1 28.9326 0.207602 -0.123293
  2 28.9060 0.161473 0.111087
  3 28.9326 0.207602 -0.123293
  4 28.9060 0.161473 0.111087
  5 43.7982 0.970340 10.6439
  6 43.0233 0.684127 -9.80778
  7 43.7982 0.970340 10.6439
  8 43.0233 0.684127 -9.80778
  9 29.2515 0.0601487 -0.389918
  10 30.5546 0.00630772 -0.637222
  11 31.3473 -0.349297 -0.793781
  12 32.9137 -0.166029 0.523380
  13 32.7762 0.989773 0.325693
  14 32.9979 -0.169037 -0.674228
  15 31.6901 -0.545972 0.789494
  16 30.1371 0.139090 0.744380
  17 29.2814 0.196264 0.349809
  18 28.7322 0.343334 0.0614175
  19 28.5529 0.347945 -0.00479957
  20 28.7175 0.316873 -0.0557675
  21 29.2515 0.0601487 -0.389918
  22 30.5546 0.00630772 -0.637222
  23 31.3473 -0.349297 -0.793781
  24 32.9137 -0.166029 0.523380
  25 32.7762 0.989773 0.325693
  26 32.9979 -0.169037 -0.674228
  27 31.6901 -0.545972 0.789494
  28 30.1371 0.139090 0.744380
  29 29.2814 0.196264 0.349809
  30 28.7322 0.343334 0.0614175
  31 28.5529 0.347945 -0.00479957
  32 28.7175 0.316873 -0.0557675
  33 65.0629 0.517005 4.69135
  34 56.4279 0.602395 3.07483
  35 54.1830 1.08652 1.24837
  36 52.4632 0.669145 -0.330128
  37 55.7390 0.210153 -1.18913
  38 57.0080 1.08037 -2.80563
  39 59.3022 3.75643 -5.68895
  40 14.4262 -8.53536 -11.8915
  41 2.85693 -15.4098 -4.77725
  42 1.15672 -20.6408 -1.50045
  43 0.814000 -21.8148 -0.167790
  44 0.974568 -20.9184 1.51970
  45 2.62606 -18.2595 4.10052
  46 11.7168 -8.62892 11.6523
  47 65.0629 0.517005 4.69135
  48 56.4279 0.602395 3.07483
  49 54.1830 1.08652 1.24837
  50 52.4632 0.669145 -0.330128
  51 55.7390 0.210153 -1.18913
  52 57.0080 1.08037 -2.80563
  53 59.3022 3.75643 -5.68895
  54 14.4262 -8.53536 -11.8915
  55 2.85693 -15.4098 -4.77725
  56 1.15672 -20.6408 -1.50045
  57 0.814000 -21.8148 -0.167790
  58 0.974568 -20.9184 1.51970
  59 2.62606 -18.2595 4.10052
  60 11.7168 -8.62892 11.6523
  61 26.6705 1.14813 -0.499251
  62 26.6705 1.14813 -0.499251
  63 24.7034 0.353823 2.67067
  64 23.9781 0.153883 -3.25127
  65 24.7034 0.353823 2.67067
  66 23.9781 0.153883 -3.25127
  67 13.5827 0.215480 0.883230
  68 13.5827 0.215480 0.883230
  69 22.4366 -4.12908 8.67538
  70 22.4366 -4.12908 8.67538
  71 13.4969 -4.01825 -6.88705
  72 33.8788 -2.86656 -1.37912
  73 37.4758 2.07198 0.0460822
  74 35.7623 0.964595 -0.506112
  75 13.4969 -4.01825 -6.88705
  76 33.8788 -2.86656 -1.37912
  77 37.4758 2.07198 0.0460822
  78 35.7623 0.964595 -0.506112
  79 33.2117 -1.53860 0.606881
  80 33.2117 -1.53860 0.606881
  81 43.0054 3.18229 0.176142
  82 43.0054 3.18229 0.176142
  83 7.10279 -4.75148 -0.580260
  84 7.10279 -4.75148 -0.580260
  85 9.33308 -6.31638 5.87574
  86 9.33308 -6.31638 5.87574
  87 35.9574 -2.10732 0.901294
  88 35.9574 -2.10732 0.901294
  89 28.3381 0.648424 0.425717
  90 28.4653 0.707559 -0.434022
  91 28.3381 0.648424 0.425717
  92 28.4653 0.707559 -0.434022
  93 41.2973 2.04913 1.21854
  94 41.2973 2.04913 1.21854
  95 29.3921 0.288293 1.23401
  96 29.3921 0.288293 1.23401
  97 44.5921 3.27360 -1.45710
  98 45.3265 2.47750 -3.00254
  99 44.5921 3.27360 -1.45710
  100 45.3265 2.47750 -3.00254
  101 28.6140 0.455565 -1.51011
  102 28.6140 0.455565 -1.51011
  103 23.5109 -4.79673 -10.0961
  104 23.5109 -4.79673 -10.0961
  105 19.9022 -5.49041 10.6419
  106 19.9022 -5.49041 10.6419
  107 36.7967 -2.93207 -3.68871
  108 36.7967 -2.93207 -3.68871
  109 27.3231 -3.34883 -6.01489
  110 27.3231 -3.34883 -6.01489
  111 47.4404 3.20461 2.31340
  112 47.4404 3.20461 2.31340
  113 3.53433 -11.6419 -3.82115
  114 3.53433 -11.6419 -3.82115
  115 2.07837 -13.5876 1.11969
  116 2.07837 -13.5876 1.11969
  117 24.3821 1.55692 -0.317836
  118 24.3821 1.55692 -0.317836
  119 29.8959 -1.15745 -2.34241
  120 29.8959 -1.15745 -2.34241
  121 50.8352 1.44979 -1.15383
  122 50.8352 1.44979 -1.15383
  123 5.61262 -11.6422 6.45026
  124 5.61262 -11.6422 6.45026
  125 26.7711 0.933510 1.40291
  126 26.7711 0.933510 1.40291
  127 6.62624 -9.48734 -7.24021
  128 6.62624 -9.48734 -7.24021
  129 36.3119 -2.56593 5.54472
  130 36.3119 -2.56593 5.54472
  131 51.7315 2.53739 -3.43986
  132 51.7315 2.53739 -3.43986
  133 2.60344 -15.5108 -1.08331
  134 2.60344 -15.5108 -1.08331
  135 3.13257 -15.0029 2.73591
  136 3.13257 -15.0029 2.73591
  137 29.3432 0.290369 -0.733158
  138 29.3432 0.290369 -0.733158
  139 27.8093 0.982500 -0.0523946
  140 27.8093 0.982500 -0.0523946
  141 28.5146 0.506529 -0.00698273
  142 28.5146 0.506529 -0.00698273
  143 29.4213 -0.586466 2.07314
  144 29.4213 -0.586466 2.07314
  145 20.2700 -0.561745 4.83733
  146 29.7173 -2.72260 4.06047
  147 20.0071 1.13971 0.106576
  148 20.2700 -0.561745 4.83733
  149 29.7173 -2.72260 4.06047
  150 20.0071 1.13971 0.106576
  151 26.4281 0.478922 -2.22380
  152 26.4281 0.478922 -2.22380
  153 50.3967 1.50423 0.866601
  154 50.3967 1.50423 0.866601
  155 52.4071 1.24280 2.20039
  156 52.4818 2.40827 4.19517
  157 52.4071 1.24280 2.20039
  158 52.4818 2.40827 4.19517
  159 28.8528 0.340695 0.249919
  160 28.8528 0.340695 0.249919
  161 17.8894 -0.781890 -4.11270
  162 17.8894 -0.781890 -4.11270
  163 28.8547 0.331775 -0.245508
  164 28.8547 0.331775 -0.245508
  165 29.0399 0.398092 0.674820
  166 29.0399 0.398092 0.674820
  167 34.0576 -0.299858 0.957727
  168 33.3413 -1.19002 -0.0315364
  169 34.0576 -0.299858 0.957727
  170 33.3413 -1.19002 -0.0315364
  171 36.8363 -0.957126 0.397326
  172 36.8363 -0.957126 0.397326
  173 27.8383 0.887908 0.770771
  174 27.8383 0.887908 0.770771
  175 13.7821 -1.57025 5.51161
  176 13.7821 -1.57025 5.51161
  177 12.1798 -0.762142 -3.48463
  178 12.1798 -0.762142 -3.48463
  179 28.0855 0.956115 -0.736153
  180 28.0855 0.956115 -0.736153
</Section>

newXOutput 10

<Section columns = "stress_xx | stress_yy | stress_xy">
  1 32.5356 0.233378 -0.138552
  2 32.5057 0.181515 0.124833
  3 32.5356 0.233378 -0.138552
  4 32.5057 0.181515 0.124833
  5 49.2368 1.09789 11.9737
  6 48.3678 0.776042 -11.0346
  7 49.2368 1.09789 11.9737
  8 48.3678 0.776042 -11.0346
  9 32.8940 0.0675802 -0.438251
  10 34.3582 0.00709655 -0.716292
  11 35.2495 -0.392893 -0.892829
  12 37.0117 -0.186712 0.587481
  13 36.8589 1.11324 0.365931
  14 37.1064 -0.190034 -0.756879
  15 35.6347 -0.614067 0.888062
  16 33.8890 0.156363 0.836751
  17 32.9276 0.220644 0.393125
  18 32.3105 0.385951 0.0690182
  19 32.1092 0.391126 -0.00539265
  20 32.2940 0.356203 -0.0626695
  21 32.8940 0.0675802 -0.438251
  22 34.3582 0.00709655 -0.716292
  23 35.2495 -0.392893 -0.892829
  24 37.0117 -0.186712 0.587481
  25 36.8589 1.11324 0.365931
  26 37.1064 -0.190034 -0.756879
  27 35.6347 -0.614067 0.888062
  28 33.8890 0.156363 0.836751
  29 32.9276 0.220644 0.393125
  30 32.3105 0.385951 0.0690182
  31 32.1092 0.391126 -0.00539265
  32 32.2940 0.356203 -0.0626695
  33 73.1320 0.581543 5.27532
  34 63.4301 0.676452 3.45708
  35 60.9077 1.22115 1.40317
  36 58.9757 0.751722 -0.370966
  37 62.6540 0.236106 -1.33676
  38 64.0820 1.21464 -3.15418
  39 66.6622 4.22599 -6.39881
  40 16.2207 -9.59142 -13.3802
  41 3.21318 -17.3289 -5.37796
  42 1.30054 -23.2187 -1.68965
  43 0.914749 -24.5406 -0.188700
  44 1.09542 -23.5308 1.71121
  45 2.95340 -20.5354 4.61674
  46 13.1748 -9.69664 13.1114
  47 73.1320 0.581543 5.27532
  48 63.4301 0.676452 3.45708
  49 60.9077 1.22115 1.40317
  50 58.9757 0.751722 -0.370966
  51 62.6540 0.236106 -1.33676
  52 64.0820 1.21464 -3.15418
  53 66.6622 4.22599 -6.39881
  54 16.2207 -9.59142 -13.3802
  55 3.21318 -17.3289 -5.37796
  56 1.30054 -23.2187 -1.68965
  57 0.914749 -24.5406 -0.188700
  58 1.09542 -23.5308 1.71121
  59 2.95340 -20.5354 4.61674
  60 13.1748 -9.69664 13.1114
  61 29.9936 1.29102 -0.561302
  62 29.9936 1.29102 -0.561302
  63 27.7819 0.398029 3.00321
  64 26.9664 0.173180 -3.65610
  65 27.7819 0.398029 3.00321
  66 26.9664 0.173180 -3.65610
  67 15.2786 0.243412 0.993427
  68 15.2786 0.243412 0.993427
  69 25.2303 -4.64378 9.75832
  70 25.2303 -4.64378 9.75832
  71 15.1799 -4.51801 -7.74791
  72 38.0946 -3.22356 -1.55295
  73 42.1404 2.33046 0.0502419
  74 40.2141 1.08506 -0.567297
  75 15.1799 -4.51801 -7.74791
  76 38.0946 -3.22356 -1.55295
  77 42.1404 2.33046 0.0502419
  78 40.2141 1.08506 -0.567297
  79 37.3453 -1.73024 0.683991
  80 37.3453 -1.73024 0.683991
  81 48.3543 3.57806 0.198796
  82 48.3543 3.57806 0.198796
  83 7.98964 -5.34194 -0.652917
  84 7.98964 -5.34194 -0.652917
  85 10.4968 -7.10217 6.61142
  86 10.4968 -7.10217 6.61142
  87 40.4312 -2.36914 1.01675
  88 40.4312 -2.36914 1.01675
  89 31.8678 0.728990 0.478477
  90 32.0108 0.795491 -0.487811
  91 31.8678 0.728990 0.478477
  92 32.0108 0.795491 -0.487811
  93 46.4340 2.30559 1.37373
  94 46.4340 2.30559 1.37373
  95 33.0520 0.324109 1.38734
  96 33.0520 0.324109 1.38734
  97 50.1375 3.68082 -1.63989
  98 50.9611 2.78797 -3.37988
  99 50.1375 3.68082 -1.63989
  100 50.9611 2.78797 -3.37988
  101 32.1777 0.512219 -1.69786
  102 32.1777 0.512219 -1.69786
  103 26.4356 -5.39100 -11.3588
  104 26.4356 -5.39100 -11.3588
  105 22.3786 -6.17097 11.9732
  106 22.3786 -6.17097 11.9732
  107 41.3729 -3.29565 -4.15227
  108 41.3729 -3.29565 -4.15227
  109 30.7247 -3.76617 -6.76549
  110 30.7247 -3.76617 -6.76549
  111 53.3370 3.60350 2.60263
  112 53.3370 3.60350 2.60263
  113 3.97534 -13.0923 -4.30091
  114 3.97534 -13.0923 -4.30091
  115 2.33735 -15.2819 1.26056
  116 2.33735 -15.2819 1.26056
  117 27.4213 1.75095 -0.357329
  118 27.4213 1.75095 -0.357329
  119 33.6181 -1.30172 -2.63454
  120 33.6181 -1.30172 -2.63454
  121 57.1487 1.62949 -1.29721
  122 57.1487 1.62949 -1.29721
  123 6.31282 -13.0905 7.26033
  124 6.31282 -13.0905 7.26033
  125 30.1065 1.04973 1.57733
  126 30.1065 1.04973 1.57733
  127 7.45300 -10.6669 -8.14839
  128 7.45300 -10.6669 -8.14839
  129 40.8278 -2.88368 6.23933
  130 40.8278 -2.88368 6.23933
  131 58.1563 2.85296 -3.86882
  132 58.1563 2.85296 -3.86882
  133 2.92782 -17.4460 -1.21936
  134 2.92782 -17.4460 -1.21936
  135 3.52313 -16.8734 3.08057
  136 3.52313 -16.8734 3.08057
  137 32.9971 0.326449 -0.824153
  138 32.9971 0.326449 -0.824153
  139 31.2736 1.10463 -0.0589015
  140 31.2736 1.10463 -0.0589015
  141 32.0661 0.569427 -0.00784749
  142 32.0661 0.569427 -0.00784749
  143 33.0848 -0.659587 2.33139
  144 33.0848 -0.659587 2.33139
  145 22.7973 -0.631409 5.44030
  146 33.4164 -3.06185 4.56739
  147 22.5028 1.28212 0.119955
  148 22.7973 -0.631409 5.44030
  149 33.4164 -3.06185 4.56739
  150 22.5028 1.28212 0.119955
  151 29.7208 0.538591 -2.50041
  152 29.7208 0.538591 -2.50041
  153 56.6566 1.69055 0.974570
  154 56.6566 1.69055 0.974570
  155 58.9151 1.39679 2.47390
  156 58.9995 2.70985 4.71931
  157 58.9151 1.39679 2.47390
  158 58.9995 2.70985 4.71931
  159 32.4460 0.383005 0.280862
  160 32.4460 0.383005 0.280862
  161 20.1208 -0.878923 -4.62549
  162 20.1208 -0.878923 -4.62549
  163 32.4481 0.372977 -0.275903
  164 32.4481 0.372977 -0.275903
  165 32.6563 0.447568 0.758482
  166 32.6563 0.447568 0.758482
  167 38.2975 -0.336924 1.07505
  168 37.4910 -1.33837 -0.0367657
  169 38.2975 -0.336924 1.07505
  170 37.4910 -1.33837 -0.0367657
  171 41.4197 -1.07539 0.443277
  172 41.4197 -1.07539 0.443277
  173 31.3061 0.998328 0.866437
  174 31.3061 0.998328 0.866437
  175 15.5016 -1.76492 6.19972
  176 15.5016 -1.76492 6.19972
  177 13.7003 -0.855743 -3.91964
  178 13.7003 -0.855743 -3.91964
  179 31.5839 1.07502 -0.827548
  180 31.5839 1.07502 -0.827548
</Section>

newXOutput 11

<Section columns = "stress_xx | stress_yy | stress_xy">
  1 36.1357 0.259115 -0.153778
  2 36.1025 0.201525 0.138548
  3 36.1357 0.259115 -0.153778
  4 36.1025 0.201525 0.138548
  5 54.6674 1.22683 13.3033
  6 53.7050 0.869370 -12.2615
  7 54.6674 1.22683 13.3033
  8 53.7050 0.869370 -12.2615
  9 36.5333 0.0749925 -0.486494
  10 38.1583 0.00788547 -0.795234
  11 39.1482 -0.436474 -0.991838
  12 41.1060 -0.207379 0.651292
  13 40.9384 1.23666 0.406065
  14 41.2112 -0.211002 -0.839170
  15 39.5757 -0.682130 0.986602
  16 37.6377 0.173610 0.928972
  17 36.5706 0.244992 0.436350
  18 35.8860 0.428502 0.0766020
  19 35.6626 0.434238 -0.00598422
  20 35.8677 0.395471 -0.0695563
  21 36.5333 0.0749925 -0.486494
  22 38.1583 0.00788547 -0.795234
  23 39.1482 -0.436474 -0.991838
  24 41.1060 -0.207379 0.651292
  25 40.9384 1.23666 0.406065
  26 41.2112 -0.211002 -0.839170
  27 39.5757 -0.682130 0.986602
  28 37.6377 0.173610 0.928972
  29 36.5706 0.244992 0.436350
  30 35.8860 0.428502 0.0766020
  31 35.6626 0.434238 -0.00598422
  32 35.8677 0.395471 -0.0695563
  33 81.1869 0.646061 5.85873
  34 70.4210 0.750236 3.83886
  35 67.6217 1.35551 1.55769
  36 65.4783 0.834064 -0.411710
  37 69.5575 0.261989 -1.48415
  38 71.1445 1.34873 -3.50224
  39 74.0105 4.69556 -7.10838
  40 18.0133 -10.6451 -14.8693
  41 3.56924 -19.2463 -5.97946
  42 1.44420 -25.7961 -1.87922
  43 1.01528 -27.2663 -0.209594
  44 1.21607 -26.1426 1.90307
  45 3.28054 -22.8099 5.13377
  46 14.6312 -10.7619 14.5710
  47 81.1869 0.646061 5.85873
  48 70.4210 0.750236 3.83886
  49 67.6217 1.35551 1.55769
  50 65.4783 0.834064 -0.411710
  51 69.5575 0.261989 -1.48415
  52 71.1445 1.34873 -3.50224
  53 74.0105 4.69556 -7.10838
  54 18.0133 -10.6451 -14.8693
  55 3.56924 -19.2463 -5.97946
  56 1.44420 -25.7961 -1.87922
  57 1.01528 -27.2663 -0.209594
  58 1.21607 -26.1426 1.90307
  59 3.28054 -22.8099 5.13377
  60 14.6312 -10.7619 14.5710
  61 33.3145 1.43378 -0.623275
  62 33.3145 1.43378 -0.623275
  63 30.8584 0.442229 3.33547
  64 29.9527 0.192491 -4.06057
  65 30.8584 0.442229 3.33547
  66 29.9527 0.192491 -4.06057
  67 16.9739 0.271563 1.10358
  68 16.9739 0.271563 1.10358
  69 28.0217 -5.15815 10.8409
  70 28.0217 -5.15815 10.8409
  71 16.8619 -5.01722 -8.60878
  72 42.3061 -3.58027 -1.72709
  73 46.8006 2.58882 0.0540493
  74 44.6618 1.20550 -0.628023
  75 16.8619 -5.01722 -8.60878
  76 42.3061 -3.58027 -1.72709
  77 46.8006 2.58882 0.0540493
  78 44.6618 1.20550 -0.628023
  79 41.4751 -1.92172 0.761377
  80 41.4751 -1.92172 0.761377
  81 53.6972 3.97340 0.221590
  82 53.6972 3.97340 0.221590
  83 8.87627 -5.93163 -0.725601
  84 8.87627 -5.93163 -0.725601
  85 11.6598 -7.88712 7.34737
  86 11.6598 -7.88712 7.34737
  87 44.9004 -2.63061 1.13283
  88 44.9004 -2.63061 1.13283
  89 35.3947 0.809448 0.531137
  90 35.5534 0.883309 -0.541497
  91 35.3947 0.809448 0.531137
  92 35.5534 0.883309 -0.541497
  93 51.5650 2.56212 1.52955
  94 51.5650 2.56212 1.52955
  95 36.7089 0.359876 1.54046
  96 36.7089 0.359876 1.54046
  97 55.6765 4.08759 -1.82282
  98 56.5887 3.09862 -3.75765
  99 55.6765 4.08759 -1.82282
  100 56.5887 3.09862 -3.75765
  101 35.7385 0.568807 -1.88538
  102 35.7385 0.568807 -1.88538
  103 29.3571 -5.98410 -12.6215
  104 29.3571 -5.98410 -12.6215
  105 24.8524 -6.85025 13.3047
  106 24.8524 -6.85025 13.3047
  107 45.9440 -3.65858 -4.61637
  108 45.9440 -3.65858 -4.61637
  109 34.1232 -4.18323 -7.51582
  110 34.1232 -4.18323 -7.51582
  111 59.2261 4.00202 2.89186
  112 59.2261 4.00202 2.89186
  113 4.41619 -14.5417 -4.78114
  114 4.41619 -14.5417 -4.78114
  115 2.59614 -16.9754 1.40162
  116 2.59614 -16.9754 1.40162
  117 30.4586 1.94486 -0.396769
  118 30.4586 1.94486 -0.396769
  119 37.3369 -1.44591 -2.92651
  120 37.3369 -1.44591 -2.92651
  121 63.4531 1.80885 -1.44039
  122 63.4531 1.80885 -1.44039
  123 7.01271 -14.5373 8.07125
  124 7.01271 -14.5373 8.07125
  125 33.4395 1.16584 1.75155
  126 33.4395 1.16584 1.75155
  127 8.27942 -11.8451 -9.05726
  128 8.27942 -11.8451 -9.05726
  129 45.3386 -3.20078 6.93428
  130 45.3386 -3.20078 6.93428
  131 64.5721 3.16818 -4.29755
  132 64.5721 3.16818 -4.29755
  133 3.25197 -19.3803 -1.35555
  134 3.25197 -19.3803 -1.35555
  135 3.91346 -18.7427 3.42584
  136 3.91346 -18.7427 3.42584
  137 36.6478 0.362481 -0.915004
  138 36.6478 0.362481 -0.915004
  139 34.7353 1.22661 -0.0653990
  140 34.7353 1.22661 -0.0653990
  141 35.6148 0.632233 -0.00871047
  142 35.6148 0.632233 -0.00871047
  143 36.7451 -0.732665 2.58945
  144 36.7451 -0.732665 2.58945
  145 25.3231 -0.700952 6.04290
  146 37.1121 -3.40087 5.07417
  147 24.9974 1.42452 0.133346
  148 25.3231 -0.700952 6.04290
  149 37.1121 -3.40087 5.07417
  150 24.9974 1.42452 0.133346
  151 33.0111 0.598217 -2.77673
  152 33.0111 0.598217 -2.77673
  153 62.9077 1.87650 1.08246
  154 62.9077 1.87650 1.08246
  155 65.4136 1.55048 2.74706
  156 65.5079 3.01155 5.24338
  157 65.4136 1.55048 2.74706
  158 65.5079 3.01155 5.24338
  159 36.0363 0.425254 0.311738
  160 36.0363 0.425254 0.311738
  161 22.3512 -0.975800 -5.13800
  162 22.3512 -0.975800 -5.13800
  163 36.0386 0.414120 -0.306232
  164 36.0386 0.414120 -0.306232
  165 36.2697 0.496982 0.841991
  166 36.2697 0.496982 0.841991
  167 42.5337 -0.373897 1.19184
  168 41.6368 -1.48664 -0.0422784
  169 42.5337 -0.373897 1.19184
  170 41.6368 -1.48664 -0.0422784
  171 45.9984 -1.19335 0.488411
  172 45.9984 -1.19335 0.488411
  173 34.7713 1.10862 0.961953
  174 34.7713 1.10862 0.961953
  175 17.2204 -1.95924 6.88763
  176 17.2204 -1.95924 6.88763
  177 15.2204 -0.948975 -4.35452
  178 15.2204 -0.948975 -4.35452
  179 35.0797 1.19379 -0.918805
  180 35.0797 1.19379 -0.918805
</Section>

newXOutput 12

<Section columns = "stress_xx | stress_yy | stress_xy">
  1 39.7328 0.284813 -0.168971
  2 39.6963 0.221504 0.152233
  3 39.7328 0.284813 -0.168971
  4 39.6963 0.221504 0.152233
  5 60.0900 1.35714 14.6328
  6 59.0348 0.964111 -13.4886
  7 60.0900 1.35714 14.6328
  8 59.0348 0.964111 -13.4886
  9 40.1695 0.0823857 -0.534647
  10 41.9549 0.00867450 -0.874047
  11 43.0433 -0.480041 -1.09081
  12 45.1967 -0.228031 0.714813
  13 45.0147 1.36002 0.446093
  14 45.3125 -0.231940 -0.921103
  15 43.5130 -0.750159 1.08512
  16 41.3829 0.190833 1.02104
  17 40.2105 0.269305 0.479486
  18 39.4585 0.470986 0.0841689
  19 39.2132 0.477281 -0.00657428
  20 39.4384 0.434677 -0.0764279
  21 40.1695 0.0823857 -0.534647
  22 41.9549 0.00867450 -0.874047
  23 43.0433 -0.480041 -1.09081
  24 45.1967 -0.228031 0.714813
  25 45.0147 1.36002 0.446093
  26 45.3125 -0.231940 -0.921103
  27 43.5130 -0.750159 1.08512
  28 41.3829 0.190833 1.02104
  29 40.2105 0.269305 0.479486
  30 39.4585 0.470986 0.0841689
  31 39.2132 0.477281 -0.00657428
  32 39.4384 0.434677 -0.0764279
  33 89.2278 0.710560 6.44160
  34 77.4006 0.823747 4.22017
  35 74.3250 1.48962 1.71195
  36 71.9708 0.916172 -0.452359
  37 76.4494 0.287803 -1.63133
  38 78.1955 1.48265 -3.84983
  39 81.3472 5.16512 -7.81766
  40 19.8040 -11.6963 -16.3590
  41 3.92511 -21.1622 -6.58175
  42 1.58769 -28.3730 -2.06915
  43 1.11559 -29.9917 -0.230474
  44 1.33650 -28.7539 2.09527
  45 3.60747 -25.0829 5.65161
  46 16.0862 -11.8248 16.0312
  47 89.2278 0.710560 6.44160
  48 77.4006 0.823747 4.22017
  49 74.3250 1.48962 1.71195
  50 71.9708 0.916172 -0.452359
  51 76.4494 0.287803 -1.63133
  52 78.1955 1.48265 -3.84983
  53 81.3472 5.16512 -7.81766
  54 19.8040 -11.6963 -16.3590
  55 3.92511 -21.1622 -6.58175
  56 1.58769 -28.3730 -2.06915
  57 1.11559 -29.9917 -0.230474
  58 1.33650 -28.7539 2.09527
  59 3.60747 -25.0829 5.65161
  60 16.0862 -11.8248 16.0312
  61 36.6330 1.57640 -0.685169
  62 36.6330 1.57640 -0.685169
  63 33.9327 0.486425 3.66745
  64 32.9370 0.211815 -4.46469
  65 33.9327 0.486425 3.66745
  66 32.9370 0.211815 -4.46469
  67 18.6689 0.299934 1.21368
  68 18.6689 0.299934 1.21368
  69 30.8106 -5.67221 11.9232
  70 30.8106 -5.67221 11.9232
  71 18.5430 -5.51586 -9.46963
  72 46.5135 -3.93669 -1.90154
  73 51.4564 2.84707 0.0575055
  74 49.1053 1.32591 -0.688292
  75 18.5430 -5.51586 -9.46963
  76 46.5135 -3.93669 -1.90154
  77 51.4564 2.84707 0.0575055
  78 49.1053 1.32591 -0.688292
  79 45.6009 -2.11305 0.839036
  80 45.6009 -2.11305 0.839036
  81 59.0342 4.36829 0.244523
  82 59.0342 4.36829 0.244523
  83 9.76268 -6.52056 -0.798313
  84 9.76268 -6.52056 -0.798313
  85 12.8221 -8.67125 8.08358
  86 12.8221 -8.67125 8.08358
  87 49.3650 -2.89173 1.24952
  88 49.3650 -2.89173 1.24952
  89 38.9189 0.889799 0.583696
  90 39.0932 0.971014 -0.595081
  91 38.9189 0.889799 0.583696
  92 39.0932 0.971014 -0.595081
  93 56.6904 2.81872 1.68600
  94 56.6904 2.81872 1.68600
  95 40.3626 0.395595 1.69338
  96 40.3626 0.395595 1.69338
  97 61.2092 4.49392 -2.00589
  98 62.2094 3.40943 -4.13586
  99 61.2092 4.49392 -2.00589
  100 62.2094 3.40943 -4.13586
  101 39.2965 0.625332 -2.07269
  102 39.2965 0.625332 -2.07269
  103 32.2754 -6.57602 -13.8844
  104 32.2754 -6.57602 -13.8844
  105 27.3237 -7.52826 14.6365
  106 27.3237 -7.52826 14.6365
  107 50.5098 -4.02087 -5.08101
  108 50.5098 -4.02087 -5.08101
  109 37.5186 -4.60001 -8.26586
  110 37.5186 -4.60001 -8.26586
  111 65.1079 4.40017 3.18110
  112 65.1079 4.40017 3.18110
  113 4.85686 -15.9900 -5.26183
  114 4.85686 -15.9900 -5.26183
  115 2.85475 -18.6680 1.54289
  116 2.85475 -18.6680 1.54289
  117 33.4940 2.13863 -0.436156
  118 33.4940 2.13863 -0.436156
  119 41.0525 -1.59000 -3.21833
  120 41.0525 -1.59000 -3.21833
  121 69.7485 1.98787 -1.58339
  122 69.7485 1.98787 -1.58339
  123 7.71230 -15.9825 8.88299
  124 7.71230 -15.9825 8.88299
  125 36.7702 1.28186 1.92555
  126 36.7702 1.28186 1.92555
  127 9.10550 -13.0218 -9.96683
  128 9.10550 -13.0218 -9.96683
  129 49.8443 -3.51721 7.62956
  130 49.8443 -3.51721 7.62956
  131 70.9786 3.48305 -4.72605
  132 70.9786 3.48305 -4.72605
  133 3.57589 -21.3138 -1.49187
  134 3.57589 -21.3138 -1.49187
  135 4.30358 -20.6109 3.77169
  136 4.30358 -20.6109 3.77169
  137 40.2955 0.398466 -1.00571
  138 40.2955 0.398466 -1.00571
  139 38.1945 1.34843 -0.0718871
  140 38.1945 1.34843 -0.0718871
  141 39.1607 0.694946 -0.00957168
  142 39.1607 0.694946 -0.00957168
  143 40.4022 -0.805703 2.84730
  144 40.4022 -0.805703 2.84730
  145 27.8475 -0.770373 6.64512
  146 40.8043 -3.73965 5.58081
  147 27.4908 1.56691 0.146750
  148 27.8475 -0.770373 6.64512
  149 40.8043 -3.73965 5.58081
  150 27.4908 1.56691 0.146750
  151 36.2990 0.657799 -3.05274
  152 36.2990 0.657799 -3.05274
  153 69.1500 2.06207 1.19027
  154 69.1500 2.06207 1.19027
  155 71.9026 1.70387 3.01988
  156 72.0069 3.31337 5.76740
  157 71.9026 1.70387 3.01988
  158 72.0069 3.31337 5.76740
  159 39.6237 0.467442 0.342549
  160 39.6237 0.467442 0.342549
  161 24.5805 -1.07252 -5.65023
  162 24.5805 -1.07252 -5.65023
  163 39.6262 0.455203 -0.336497
  164 39.6262 0.455203 -0.336497
  165 39.8800 0.546333 0.925349
  166 39.8800 0.546333 0.925349
  167 46.7660 -0.410777 1.30811
  168 45.7785 -1.63481 -0.0480736
  169 46.7660 -0.410777 1.30811
  170 45.7785 -1.63481 -0.0480736
  171 50.5725 -1.31100 0.532728
  172 50.5725 -1.31100 0.532728
  173 38.2338 1.21879 1.05732
  174 38.2338 1.21879 1.05732
  175 18.9385 -2.15321 7.57535
  176 18.9385 -2.15321 7.57535
  177 16.7402 -1.04184 -4.78927
  178 16.7402 -1.04184 -4.78927
  179 38.5727 1.31243 -1.00992
  180 38.5727 1.31243 -1.00992
</Section>

newXOutput 13

<Section columns = "stress_xx | stress_yy | stress_xy">
  1 43.3268 0.310473 -0.184130
  2 43.2871 0.241451 0.165887
  3 43.3268 0.310473 -0.184130
  4 43.2871 0.241451 0.165887
  5 65.5047 1.48884 15.9621
  6 64.3572 1.06026 -14.7159
  7 65.5047 1.48884 15.9621
  8 64.3572 1.06026 -14.7159
  9 43.8026 0.0897597 -0.582711
  10 45.7481 0.00946362 -0.952731
  11 46.9349 -0.523593 -1.18974
  12 49.2838 -0.248667 0.778043
  13 49.0879 1.48333 0.486018
  14 49.4101 -0.252848 -1.00268
  15 47.4466 -0.818155 1.18360
  16 45.1249 0.208030 1.11297
  17 43.8473 0.293585 0.522531
  18 43.0282 0.513405 0.0917190
  19 42.7609 0.520255 -0.00716283
  20 43.0062 0.473822 -0.0832843
  21 43.8026 0.0897597 -0.582711
  22 45.7481 0.00946362 -0.952731
  23 46.9349 -0.523593 -1.18974
  24 49.2838 -0.248667 0.778043
  25 49.0879 1.48333 0.486018
  26 49.4101 -0.252848 -1.00268
  27 47.4466 -0.818155 1.18360
  28 45.1249 0.208030 1.11297
  29 43.8473 0.293585 0.522531
  30 43.0282 0.513405 0.0917190
  31 42.7609 0.520255 -0.00716283
  32 43.0062 0.473822 -0.0832843
  33 97.2547 0.775038 7.02393
  34 84.3689 0.896986 4.60102
  35 81.0178 1.62346 1.86593
  36 78.4534 0.998048 -0.492915
  37 83.3298 0.313549 -1.77827
  38 85.2351 1.61639 -4.19693
  39 88.6723 5.63468 -8.52664
  40 21.5928 -12.7452 -17.8491
  41 4.28079 -23.0764 -7.18482
  42 1.73100 -30.9493 -2.25945
  43 1.21567 -32.7170 -0.251340
  44 1.45671 -31.3646 2.28782
  45 3.93420 -27.3545 6.17025
  46 17.5397 -12.8853 17.4920
  47 97.2547 0.775038 7.02393
  48 84.3689 0.896986 4.60102
  49 81.0178 1.62346 1.86593
  50 78.4534 0.998048 -0.492915
  51 83.3298 0.313549 -1.77827
  52 85.2351 1.61639 -4.19693
  53 88.6723 5.63468 -8.52664
  54 21.5928 -12.7452 -17.8491
  55 4.28079 -23.0764 -7.18482
  56 1.73100 -30.9493 -2.25945
  57 1.21567 -32.7170 -0.251340
  58 1.45671 -31.3646 2.28782
  59 3.93420 -27.3545 6.17025
  60 17.5397 -12.8853 17.4920
  61 39.9491 1.71888 -0.746985
  62 39.9491 1.71888 -0.746985
  63 37.0050 0.530615 3.99913
  64 35.9193 0.231152 -4.86846
  65 37.0050 0.530615 3.99913
  66 35.9193 0.231152 -4.86846
  67 20.3633 0.328522 1.32374
  68 20.3633 0.328522 1.32374
  69 33.5971 -6.18594 13.0051
  70 33.5971 -6.18594 13.0051
  71 20.2232 -6.01396 -10.3305
  72 50.7166 -4.29282 -2.07631
  73 56.1078 3.10520 0.0606114
  74 53.5448 1.44630 -0.748105
  75 20.2232 -6.01396 -10.3305
  76 50.7166 -4.29282 -2.07631
  77 56.1078 3.10520 0.0606114
  78 53.5448 1.44630 -0.748105
  79 49.7228 -2.30423 0.916969
  80 49.7228 -2.30423 0.916969
  81 64.3652 4.76274 0.267594
  82 64.3652 4.76274 0.267594
  83 10.6489 -7.10872 -0.871052
  84 10.6489 -7.10872 -0.871052
  85 13.9838 -9.45454 8.82005
  86 13.9838 -9.45454 8.82005
  87 53.8250 -3.15250 1.36682
  88 53.8250 -3.15250 1.36682
  89 42.4402 0.970043 0.636155
  90 42.6302 1.05861 -0.648563
  91 42.4402 0.970043 0.636155
  92 42.6302 1.05861 -0.648563
  93 61.8102 3.07538 1.84308
  94 61.8102 3.07538 1.84308
  95 44.0132 0.431265 1.84609
  96 44.0132 0.431265 1.84609
  97 66.7355 4.89982 -2.18909
  98 67.8232 3.72041 -4.51451
  99 66.7355 4.89982 -2.18909
  100 67.8232 3.72041 -4.51451
  101 42.8515 0.681791 -2.25977
  102 42.8515 0.681791 -2.25977
  103 35.1906 -7.16676 -15.1475
  104 35.1906 -7.16676 -15.1475
  105 29.7925 -8.20501 15.9685
  106 29.7925 -8.20501 15.9685
  107 55.0705 -4.38251 -5.54619
  108 55.0705 -4.38251 -5.54619
  109 40.9110 -5.01651 -9.01563
  110 40.9110 -5.01651 -9.01563
  111 70.9822 4.79795 3.47034
  112 70.9822 4.79795 3.47034
  113 5.29736 -17.4373 -5.74299
  114 5.29736 -17.4373 -5.74299
  115 3.11317 -20.3597 1.68436
  116 3.11317 -20.3597 1.68436
  117 36.5275 2.33228 -0.475492
  118 36.5275 2.33228 -0.475492
  119 44.7648 -1.73400 -3.51000
  120 44.7648 -1.73400 -3.51000
  121 76.0349 2.16656 -1.72619
  122 76.0349 2.16656 -1.72619
  123 8.41157 -17.4261 9.69558
  124 8.41157 -17.4261 9.69558
  125 40.0984 1.39776 2.09935
  126 40.0984 1.39776 2.09935
  127 9.93124 -14.1972 -10.8771
  128 9.93124 -14.1972 -10.8771
  129 54.3449 -3.83298 8.32517
  130 54.3449 -3.83298 8.32517
  131 77.3760 3.79756 -5.15431
  132 77.3760 3.79756 -5.15431
  133 3.89958 -23.2465 -1.62834
  134 3.89958 -23.2465 -1.62834
  135 4.69347 -22.4780 4.11814
  136 4.69347 -22.4780 4.11814
  137 43.9401 0.434403 -1.09628
  138 43.9401 0.434403 -1.09628
  139 41.6509 1.47011 -0.0783659
  140 41.6509 1.47011 -0.0783659
  141 42.7037 0.757567 -0.0104311
  142 42.7037 0.757567 -0.0104311
  143 44.0563 -0.878699 3.10496
  144 44.0563 -0.878699 3.10496
  145 30.3704 -0.839672 7.24696
  146 44.4931 -4.07819 6.08731
  147 29.9831 1.70928 0.160166
  148 30.3704 -0.839672 7.24696
  149 44.4931 -4.07819 6.08731
  150 29.9831 1.70928 0.160166
  151 39.5846 0.717338 -3.32846
  152 39.5846 0.717338 -3.32846
  153 75.3836 2.24726 1.29800
  154 75.3836 2.24726 1.29800
  155 78.3822 1.85697 3.29237
  156 78.4965 3.61530 6.29134
  157 78.3822 1.85697 3.29237
  158 78.4965 3.61530 6.29134
  159 43.2080 0.509569 0.373295
  160 43.2080 0.509569 0.373295
  161 26.8087 -1.16909 -6.16217
  162 26.8087 -1.16909 -6.16217
  163 43.2108 0.496227 -0.366698
  164 43.2108 0.496227 -0.366698
  165 43.4873 0.595622 1.00855
  166 43.4873 0.595622 1.00855
  167 50.9945 -0.447565 1.42385
  168 49.9163 -1.78290 -0.0541507
  169 50.9945 -0.447565 1.42385
  170 49.9163 -1.78290 -0.0541507
  171 55.1419 -1.42835 0.576230
  172 55.1419 -1.42835 0.576230
  173 41.6937 1.32883 1.15253
  174 41.6937 1.32883 1.15253
  175 20.6559 -2.34682 8.26289
  176 20.6559 -2.34682 8.26289
  177 18.2594 -1.13434 -5.22390
  178 18.2594 -1.13434 -5.22390
  179 42.0631 1.43094 -1.10091
  180 42.0631 1.43094 -1.10091
</Section>

newXOutput 14

<Section columns = "stress_xx | stress_yy | stress_xy">
  1 46.9179 0.336094 -0.199255
  2 46.8750 0.261367 0.179510
  3 46.9179 0.336094 -0.199255
  4 46.8750 0.261367 0.179510
  5 70.9113 1.62190 17.2912
  6 69.6723 1.15782 -15.9433
  7 70.9113 1.62190 17.2912
  8 69.6723 1.15782 -15.9433
  9 47.4327 0.0971146 -0.630686
  10 49.5377 0.0102529 -1.03129
  11 50.8229 -0.567130 -1.28863
  12 53.3674 -0.269288 0.840985
  13 53.1579 1.60658 0.525839
  14 53.5041 -0.273727 -1.08390
  15 51.3766 -0.886118 1.28206
  16 48.8634 0.225202 1.20474
  17 47.4809 0.317831 0.565487
  18 46.5949 0.555757 0.0992523
  19 46.3059 0.563161 -0.00774988
  20 46.5712 0.512906 -0.0901257
  21 47.4327 0.0971146 -0.630686
  22 49.5377 0.0102529 -1.03129
  23 50.8229 -0.567130 -1.28863
  24 53.3674 -0.269288 0.840985
  25 53.1579 1.60658 0.525839
  26 53.5041 -0.273727 -1.08390
  27 51.3766 -0.886118 1.28206
  28 48.8634 0.225202 1.20474
  29 47.4809 0.317831 0.565487
  30 46.5949 0.555757 0.0992523
  31 46.3059 0.563161 -0.00774988
  32 46.5712 0.512906 -0.0901257
  33 105.268 0.839496 7.60570
  34 91.3260 0.969953 4.98140
  35 87.7000 1.75705 2.01963
  36 84.9260 1.07969 -0.533376
  37 90.1988 0.339225 -1.92499
  38 92.2633 1.74997 -4.54356
  39 95.9858 6.10424 -9.23534
  40 23.3796 -13.7916 -19.3397
  41 4.63627 -24.9891 -7.78868
  42 1.87415 -33.5252 -2.45011
  43 1.31554 -35.4419 -0.272192
  44 1.57672 -33.9748 2.48071
  45 4.26072 -29.6245 6.68971
  46 18.9918 -13.9434 18.9532
  47 105.268 0.839496 7.60570
  48 91.3260 0.969953 4.98140
  49 87.7000 1.75705 2.01963
  50 84.9260 1.07969 -0.533376
  51 90.1988 0.339225 -1.92499
  52 92.2633 1.74997 -4.54356
  53 95.9858 6.10424 -9.23534
  54 23.3796 -13.7916 -19.3397
  55 4.63627 -24.9891 -7.78868
  56 1.87415 -33.5252 -2.45011
  57 1.31554 -35.4419 -0.272192
  58 1.57672 -33.9748 2.48071
  59 4.26072 -29.6245 6.68971
  60 18.9918 -13.9434 18.9532
  61 43.2629 1.86123 -0.808723
  62 43.2629 1.86123 -0.808723
  63 40.0752 0.574799 4.33053
  64 38.8996 0.250503 -5.27188
  65 40.0752 0.574799 4.33053
  66 38.8996 0.250503 -5.27188
  67 22.0574 0.357329 1.43376
  68 22.0574 0.357329 1.43376
  69 36.3813 -6.69936 14.0867
  70 36.3813 -6.69936 14.0867
  71 21.9025 -6.51149 -11.1913
  72 54.9156 -4.64865 -2.25139
  73 60.7548 3.36321 0.0633681
  74 57.9802 1.56666 -0.807463
  75 21.9025 -6.51149 -11.1913
  76 54.9156 -4.64865 -2.25139
  77 60.7548 3.36321 0.0633681
  78 57.9802 1.56666 -0.807463
  79 53.8408 -2.49526 0.995174
  80 53.8408 -2.49526 0.995174
  81 69.6904 5.15675 0.290802
  82 69.6904 5.15675 0.290802
  83 11.5348 -7.69611 -0.943818
  84 11.5348 -7.69611 -0.943818
  85 15.1449 -10.2370 9.55679
  86 15.1449 -10.2370 9.55679
  87 58.2803 -3.41291 1.48474
  88 58.2803 -3.41291 1.48474
  89 45.9588 1.05018 0.688514
  90 46.1643 1.14609 -0.701944
  91 45.9588 1.05018 0.688514
  92 46.1643 1.14609 -0.701944
  93 66.9244 3.33212 2.00078
  94 66.9244 3.33212 2.00078
  95 47.6608 0.466887 1.99860
  96 47.6608 0.466887 1.99860
  97 72.2556 5.30528 -2.37244
  98 73.4301 4.03157 -4.89359
  99 72.2556 5.30528 -2.37244
  100 73.4301 4.03157 -4.89359
  101 46.4037 0.738187 -2.44662
  102 46.4037 0.738187 -2.44662
  103 38.1027 -7.75633 -16.4106
  104 38.1027 -7.75633 -16.4106
  105 32.2587 -8.88049 17.3007
  106 32.2587 -8.88049 17.3007
  107 59.6261 -4.74350 -6.01191
  108 59.6261 -4.74350 -6.01191
  109 44.3003 -5.43273 -9.76511
  110 44.3003 -5.43273 -9.76511
  111 76.8492 5.19536 3.75958
  112 76.8492 5.19536 3.75958
  113 5.73769 -18.8834 -6.22462
  114 5.73769 -18.8834 -6.22462
  115 3.37142 -22.0504 1.82604
  116 3.37142 -22.0504 1.82604
  117 39.5591 2.52580 -0.514775
  118 39.5591 2.52580 -0.514775
  119 48.4738 -1.87792 -3.80151
  120 48.4738 -1.87792 -3.80151
  121 82.3122 2.34491 -1.86881
  122 82.3122 2.34491 -1.86881
  123 9.11054 -18.8683 10.5090
  124 9.11054 -18.8683 10.5090
  125 43.4241 1.51357 2.27295
  126 43.4241 1.51357 2.27295
  127 10.7566 -15.3711 -11.7880
  128 10.7566 -15.3711 -11.7880
  129 58.8404 -4.14809 9.02111
  130 58.8404 -4.14809 9.02111
  131 83.7643 4.11172 -5.58235
  132 83.7643 4.11172 -5.58235
  133 4.22304 -25.1783 -1.76495
  134 4.22304 -25.1783 -1.76495
  135 5.08313 -24.3440 4.46519
  136 5.08313 -24.3440 4.46519
  137 47.5816 0.470293 -1.18670
  138 47.5816 0.470293 -1.18670
  139 45.1048 1.59163 -0.0848353
  140 45.1048 1.59163 -0.0848353
  141 46.2439 0.820097 -0.0112888
  142 46.2439 0.820097 -0.0112888
  143 47.7072 -0.951653 3.36241
  144 47.7072 -0.951653 3.36241
  145 32.8919 -0.908851 7.84843
  146 48.1785 -4.41650 6.59367
  147 32.4742 1.85164 0.173595
  148 32.8919 -0.908851 7.84843
  149 48.1785 -4.41650 6.59367
  150 32.4742 1.85164 0.173595
  151 42.8677 0.776833 -3.60388
  152 42.8677 0.776833 -3.60388
  153 81.6085 2.43208 1.40565
  154 81.6085 2.43208 1.40565
  155 84.8523 2.00976 3.56451
  156 84.9768 3.91736 6.81522
  157 84.8523 2.00976 3.56451
  158 84.9768 3.91736 6.81522
  159 46.7895 0.551636 0.403975
  160 46.7895 0.551636 0.403975
  161 29.0359 -1.26551 -6.67382
  162 29.0359 -1.26551 -6.67382
  163 46.7924 0.537192 -0.396834
  164 46.7924 0.537192 -0.396834
  165 47.0916 0.644847 1.09161
  166 47.0916 0.644847 1.09161
  167 55.2192 -0.484261 1.53906
  168 54.0502 -1.93090 -0.0605087
  169 55.2192 -0.484261 1.53906
  170 54.0502 -1.93090 -0.0605087
  171 59.7067 -1.54539 0.618920
  172 59.7067 -1.54539 0.618920
  173 45.1510 1.43875 1.24760
  174 45.1510 1.43875 1.24760
  175 22.3726 -2.54008 8.95023
  176 22.3726 -2.54008 8.95023
  177 19.7783 -1.22648 -5.65840
  178 19.7783 -1.22648 -5.65840
  179 45.5508 1.54931 -1.19175
  180 45.5508 1.54931 -1.19175
</Section>

newXOutput 15

<Section columns = "stress_xx | stress_yy | stress_xy">
  1 50.5061 0.361678 -0.214348
  2 50.4598 0.281252 0.193103
  3 50.5061 0.361678 -0.214348
  4 50.4598 0.281252 0.193103
  5 76.3101 1.75635 18.6201
  6 74.9801 1.25678 -17.1709
  7 76.3101 1.75635 18.6201
  8 74.9801 1.25678 -17.1709
  9 51.0596 0.104451 -0.678572
  10 53.3239 0.0110422 -1.10972
  11 54.7073 -0.610653 -1.38748
  12 57.4473 -0.289892 0.903638
  13 57.2247 1.72978 0.565555
  14 57.5946 -0.294576 -1.16476
  15 55.3029 -0.954047 1.38049
  16 52.5987 0.242349 1.29636
  17 51.1115 0.342044 0.608352
  18 50.1588 0.598044 0.106769
  19 49.8479 0.605999 -0.00833544
  20 50.1332 0.551928 -0.0969519
  21 51.0596 0.104451 -0.678572
  22 53.3239 0.0110422 -1.10972
  23 54.7073 -0.610653 -1.38748
  24 57.4473 -0.289892 0.903638
  25 57.2247 1.72978 0.565555
  26 57.5946 -0.294576 -1.16476
  27 55.3029 -0.954047 1.38049
  28 52.5987 0.242349 1.29636
  29 51.1115 0.342044 0.608352
  30 50.1588 0.598044 0.106769
  31 49.8479 0.605999 -0.00833544
  32 50.1332 0.551928 -0.0969519
  33 113.266 0.903935 8.18692
  34 98.2718 1.04265 5.36131
  35 94.3716 1.89038 2.17306
  36 91.3887 1.16110 -0.573744
  37 97.0563 0.364833 -2.07149
  38 99.2801 1.88337 -4.88971
  39 103.288 6.57380 -9.94373
  40 25.1645 -14.8357 -20.8308
  41 4.99156 -26.9001 -8.39332
  42 2.01714 -36.1006 -2.64113
  43 1.41519 -38.1667 -0.293028
  44 1.69651 -36.5845 2.67395
  45 4.58704 -31.8932 7.20997
  46 20.4423 -14.9990 20.4150
  47 113.266 0.903935 8.18692
  48 98.2718 1.04265 5.36131
  49 94.3716 1.89038 2.17306
  50 91.3887 1.16110 -0.573744
  51 97.0563 0.364833 -2.07149
  52 99.2801 1.88337 -4.88971
  53 103.288 6.57380 -9.94373
  54 25.1645 -14.8357 -20.8308
  55 4.99156 -26.9001 -8.39332
  56 2.01714 -36.1006 -2.64113
  57 1.41519 -38.1667 -0.293028
  58 1.69651 -36.5845 2.67395
  59 4.58704 -31.8932 7.20997
  60 20.4423 -14.9990 20.4150
  61 46.5743 2.00344 -0.870382
  62 46.5743 2.00344 -0.870382
  63 43.1434 0.618979 4.66165
  64 41.8779 0.269866 -5.67495
  65 43.1434 0.618979 4.66165
  66 41.8779 0.269866 -5.67495
  67 23.7509 0.386353 1.54373
  68 23.7509 0.386353 1.54373
  69 39.1630 -7.21247 15.1680
  70 39.1630 -7.21247 15.1680
  71 23.5808 -7.00847 -12.0522
  72 59.1103 -5.00420 -2.42679
  73 65.3975 3.62112 0.0657766
  74 62.4115 1.68701 -0.866368
  75 23.5808 -7.00847 -12.0522
  76 59.1103 -5.00420 -2.42679
  77 65.3975 3.62112 0.0657766
  78 62.4115 1.68701 -0.866368
  79 57.9548 -2.68613 1.07365
  80 57.9548 -2.68613 1.07365
  81 75.0096 5.55031 0.314148
  82 75.0096 5.55031 0.314148
  83 12.4206 -8.28273 -1.01661
  84 12.4206 -8.28273 -1.01661
  85 16.3053 -11.0187 10.2938
  86 16.3053 -11.0187 10.2938
  87 62.7311 -3.67297 1.60326
  88 62.7311 -3.67297 1.60326
  89 49.4746 1.13021 0.740774
  90 49.6957 1.23345 -0.755222
  91 49.4746 1.13021 0.740774
  92 49.6957 1.23345 -0.755222
  93 72.0329 3.58893 2.15910
  94 72.0329 3.58893 2.15910
  95 51.3052 0.502460 2.15091
  96 51.3052 0.502460 2.15091
  97 77.7693 5.71030 -2.55592
  98 79.0302 4.34289 -5.27309
  99 77.7693 5.71030 -2.55592
  100 79.0302 4.34289 -5.27309
  101 49.9530 0.794518 -2.63325
  102 49.9530 0.794518 -2.63325
  103 41.0116 -8.34474 -17.6739
  104 41.0116 -8.34474 -17.6739
  105 34.7225 -9.55470 18.6332
  106 34.7225 -9.55470 18.6332
  107 64.1765 -5.10385 -6.47817
  108 64.1765 -5.10385 -6.47817
  109 47.6866 -5.84867 -10.5143
  110 47.6866 -5.84867 -10.5143
  111 82.7089 5.59240 4.04883
  112 82.7089 5.59240 4.04883
  113 6.17784 -20.3286 -6.70671
  114 6.17784 -20.3286 -6.70671
  115 3.62949 -23.7403 1.96791
  116 3.62949 -23.7403 1.96791
  117 42.5888 2.71919 -0.554006
  118 42.5888 2.71919 -0.554006
  119 52.1796 -2.02174 -4.09288
  120 52.1796 -2.02174 -4.09288
  121 88.5806 2.52293 -2.01123
  122 88.5806 2.52293 -2.01123
  123 9.80919 -20.3088 11.3232
  124 9.80919 -20.3088 11.3232
  125 46.7475 1.62927 2.44633
  126 46.7475 1.62927 2.44633
  127 11.5817 -16.5437 -12.6997
  128 11.5817 -16.5437 -12.6997
  129 63.3308 -4.46255 9.71737
  130 63.3308 -4.46255 9.71737
  131 90.1435 4.42553 -6.01015
  132 90.1435 4.42553 -6.01015
  133 4.54627 -27.1093 -1.90169
  134 4.54627 -27.1093 -1.90169
  135 5.47257 -26.2089 4.81282
  136 5.47257 -26.2089 4.81282
  137 51.2200 0.506135 -1.27698
  138 51.2200 0.506135 -1.27698
  139 48.5561 1.71301 -0.0912954
  140 48.5561 1.71301 -0.0912954
  141 49.7813 0.882534 -0.0121446
  142 49.7813 0.882534 -0.0121446
  143 51.3549 -1.02457 3.61967
  144 51.3549 -1.02457 3.61967
  145 35.4120 -0.977909 8.44953
  146 51.8605 -4.75457 7.09988
  147 34.9642 1.99399 0.187036
  148 35.4120 -0.977909 8.44953
  149 51.8605 -4.75457 7.09988
  150 34.9642 1.99399 0.187036
  151 46.1484 0.836285 -3.87899
  152 46.1484 0.836285 -3.87899
  153 87.8247 2.61653 1.51321
  154 87.8247 2.61653 1.51321
  155 91.3131 2.16226 3.83630
  156 91.4477 4.21953 7.33903
  157 91.3131 2.16226 3.83630
  158 91.4477 4.21953 7.33903
  159 50.3679 0.593641 0.434591
  160 50.3679 0.593641 0.434591
  161 31.2621 -1.36177 -7.18518
  162 31.2621 -1.36177 -7.18518
  163 50.3711 0.578098 -0.426906
  164 50.3711 0.578098 -0.426906
  165 50.6930 0.694011 1.17451
  166 50.6930 0.694011 1.17451
  167 59.4401 -0.520865 1.65376
  168 58.1801 -2.07881 -0.0671470
  169 59.4401 -0.520865 1.65376
  170 58.1801 -2.07881 -0.0671470
  171 64.2668 -1.66213 0.660800
  172 64.2668 -1.66213 0.660800
  173 48.6056 1.54854 1.34252
  174 48.6056 1.54854 1.34252
  175 24.0886 -2.73299 9.63738
  176 24.0886 -2.73299 9.63738
  177 21.2967 -1.31825 -6.09277
  178 21.2967 -1.31825 -6.09277
  179 49.0357 1.66755 -1.28246
  180 49.0357 1.66755 -1.28246
</Section>

newXOutput 16

<Section columns = "stress_xx | stress_yy | stress_xy">
  1 54.0912 0.387222 -0.229407
  2 54.0417 0.301106 0.206665
  3 54.0912 0.387222 -0.229407
  4 54.0417 0.301106 0.206665
  5 81.7009 1.89216 19.9489
  6 80.2805 1.35715 -18.3986
  7 81.7009 1.89216 19.9489
  8 80.2805 1.35715 -18.3986
  9 54.6835 0.111767 -0.726369
  10 57.1066 0.0118316 -1.18802
  11 58.5882 -0.654161 -1.48630
  12 61.5236 -0.310481 0.966004
  13 61.2883 1.85292 0.605169
  14 61.6814 -0.315396 -1.24527
  15 59.2256 -1.02194 1.47890
  16 56.3306 0.259472 1.38784
  17 54.7390 0.366224 0.651128
  18 53.7197 0.640265 0.114269
  19 53.3872 0.648768 -0.00891949
  20 53.6924 0.590889 -0.103763
  21 54.6835 0.111767 -0.726369
  22 57.1066 0.0118316 -1.18802
  23 58.5882 -0.654161 -1.48630
  24 61.5236 -0.310481 0.966004
  25 61.2883 1.85292 0.605169
  26 61.6814 -0.315396 -1.24527
  27 59.2256 -1.02194 1.47890
  28 56.3306 0.259472 1.38784
  29 54.7390 0.366224 0.651128
  30 53.7197 0.640265 0.114269
  31 53.3872 0.648768 -0.00891949
  32 53.6924 0.590889 -0.103763
  33 121.251 0.968353 8.76759
  34 105.206 1.11508 5.74076
  35 101.033 2.02345 2.32622
  36 97.8415 1.24228 -0.614018
  37 103.902 0.390373 -2.21776
  38 106.286 2.01661 -5.23538
  39 110.578 7.04335 -10.6518
  40 26.9474 -15.8774 -22.3223
  41 5.34666 -28.8096 -8.99875
  42 2.15995 -38.6755 -2.83252
  43 1.51461 -40.8913 -0.313851
  44 1.81608 -39.1936 2.86753
  45 4.91315 -34.1604 7.73104
  46 21.8914 -16.0523 21.8774
  47 121.251 0.968353 8.76759
  48 105.206 1.11508 5.74076
  49 101.033 2.02345 2.32622
  50 97.8415 1.24228 -0.614018
  51 103.902 0.390373 -2.21776
  52 106.286 2.01661 -5.23538
  53 110.578 7.04335 -10.6518
  54 26.9474 -15.8774 -22.3223
  55 5.34666 -28.8096 -8.99875
  56 2.15995 -38.6755 -2.83252
  57 1.51461 -40.8913 -0.313851
  58 1.81608 -39.1936 2.86753
  59 4.91315 -34.1604 7.73104
  60 21.8914 -16.0523 21.8774
  61 49.8834 2.14551 -0.931964
  62 49.8834 2.14551 -0.931964
  63 46.2094 0.663153 4.99248
  64 44.8543 0.289243 -6.07767
  65 46.2094 0.663153 4.99248
  66 44.8543 0.289243 -6.07767
  67 25.4441 0.415593 1.65365
  68 25.4441 0.415593 1.65365
  69 41.9424 -7.72526 16.2489
  70 41.9424 -7.72526 16.2489
  71 25.2583 -7.50490 -12.9130
  72 63.3009 -5.35945 -2.60249
  73 70.0357 3.87890 0.0678379
  74 66.8387 1.80732 -0.924819
  75 25.2583 -7.50490 -12.9130
  76 63.3009 -5.35945 -2.60249
  77 70.0357 3.87890 0.0678379
  78 66.8387 1.80732 -0.924819
  79 62.0650 -2.87686 1.15240
  80 62.0650 -2.87686 1.15240
  81 80.3230 5.94344 0.337629
  82 80.3230 5.94344 0.337629
  83 13.3061 -8.86860 -1.08943
  84 13.3061 -8.86860 -1.08943
  85 17.4650 -11.7995 11.0311
  86 17.4650 -11.7995 11.0311
  87 67.1774 -3.93269 1.72239
  88 67.1774 -3.93269 1.72239
  89 52.9877 1.21013 0.792934
  90 53.2243 1.32071 -0.808399
  91 52.9877 1.21013 0.792934
  92 53.2243 1.32071 -0.808399
  93 77.1359 3.84580 2.31803
  94 77.1359 3.84580 2.31803
  95 54.9465 0.537985 2.30301
  96 54.9465 0.537985 2.30301
  97 83.2767 6.11489 -2.73953
  98 84.6234 4.65439 -5.65302
  99 83.2767 6.11489 -2.73953
  100 84.6234 4.65439 -5.65302
  101 53.4995 0.850785 -2.81966
  102 53.4995 0.850785 -2.81966
  103 43.9174 -8.93197 -18.9373
  104 43.9174 -8.93197 -18.9373
  105 37.1837 -10.2276 19.9658
  106 37.1837 -10.2276 19.9658
  107 68.7217 -5.46355 -6.94495
  108 68.7217 -5.46355 -6.94495
  109 51.0699 -6.26433 -11.2632
  110 51.0699 -6.26433 -11.2632
  111 88.5612 5.98907 4.33808
  112 88.5612 5.98907 4.33808
  113 6.61782 -21.7726 -7.18927
  114 6.61782 -21.7726 -7.18927
  115 3.88737 -25.4293 2.10998
  116 3.88737 -25.4293 2.10998
  117 45.6166 2.91245 -0.593185
  118 45.6166 2.91245 -0.593185
  119 55.8821 -2.16548 -4.38410
  120 55.8821 -2.16548 -4.38410
  121 94.8401 2.70062 -2.15347
  122 94.8401 2.70062 -2.15347
  123 10.5075 -21.7479 12.1383
  124 10.5075 -21.7479 12.1383
  125 50.0684 1.74487 2.61951
  126 50.0684 1.74487 2.61951
  127 12.4064 -17.7148 -13.6120
  128 12.4064 -17.7148 -13.6120
  129 67.8161 -4.77635 10.4140
  130 67.8161 -4.77635 10.4140
  131 96.5136 4.73899 -6.43771
  132 96.5136 4.73899 -6.43771
  133 4.86926 -29.0395 -2.03858
  134 4.86926 -29.0395 -2.03858
  135 5.86179 -28.0727 5.16105
  136 5.86179 -28.0727 5.16105
  137 54.8553 0.541930 -1.36711
  138 54.8553 0.541930 -1.36711
  139 52.0048 1.83423 -0.0977462
  140 52.0048 1.83423 -0.0977462
  141 53.3159 0.944880 -0.0129988
  142 53.3159 0.944880 -0.0129988
  143 54.9996 -1.09744 3.87674
  144 54.9996 -1.09744 3.87674
  145 37.9306 -1.04685 9.05025
  146 55.5390 -5.09240 7.60594
  147 37.4530 2.13633 0.200490
  148 37.9306 -1.04685 9.05025
  149 55.5390 -5.09240 7.60594
  150 37.4530 2.13633 0.200490
  151 49.4268 0.895694 -4.15381
  152 49.4268 0.895694 -4.15381
  153 94.0322 2.80061 1.62070
  154 94.0322 2.80061 1.62070
  155 97.7644 2.31447 4.10776
  156 97.9094 4.52182 7.86276
  157 97.7644 2.31447 4.10776
  158 97.9094 4.52182 7.86276
  159 53.9435 0.635587 0.465141
  160 53.9435 0.635587 0.465141
  161 33.4871 -1.45787 -7.69626
  162 33.4871 -1.45787 -7.69626
  163 53.9469 0.618945 -0.456914
  164 53.9469 0.618945 -0.456914
  165 54.2913 0.743111 1.25726
  166 54.2913 0.743111 1.25726
  167 63.6572 -0.557376 1.76793
  168 62.3061 -2.22663 -0.0740647
  169 63.6572 -0.557376 1.76793
  170 62.3061 -2.22663 -0.0740647
  171 68.8222 -1.77857 0.701872
  172 68.8222 -1.77857 0.701872
  173 52.0576 1.65821 1.43728
  174 52.0576 1.65821 1.43728
  175 25.8038 -2.92554 10.3243
  176 25.8038 -2.92554 10.3243
  177 22.8148 -1.40965 -6.52701
  178 22.8148 -1.40965 -6.52701
  179 52.5180 1.78565 -1.37303
  180 52.5180 1.78565 -1.37303
</Section>

newXOutput 17

<Section columns = "stress_xx | stress_yy | stress_xy">
  1 57.6734 0.412729 -0.244433
  2 57.6207 0.320928 0.220197
  3 57.6734 0.412729 -0.244433
  4 57.6207 0.320928 0.220197
  5 87.0837 2.02934 21.2775
  6 85.5736 1.45891 -19.6265
  7 87.0837 2.02934 21.2775
  8 85.5736 1.45891 -19.6265
  9 58.3042 0.119065 -0.774076
  10 60.8859 0.0126212 -1.26619
  11 62.4655 -0.697654 -1.58507
  12 65.5964 -0.331055 1.02808
  13 65.3488 1.97601 0.644678
  14 65.7647 -0.336187 -1.32543
  15 63.1446 -1.08981 1.57727
  16 60.0592 0.276569 1.47917
  17 58.3634 0.390370 0.693815
  18 57.2778 0.682421 0.121752
  19 56.9236 0.691469 -0.00950206
  20 57.2486 0.629789 -0.110559
  21 58.3042 0.119065 -0.774076
  22 60.8859 0.0126212 -1.26619
  23 62.4655 -0.697654 -1.58507
  24 65.5964 -0.331055 1.02808
  25 65.3488 1.97601 0.644678
  26 65.7647 -0.336187 -1.32543
  27 63.1446 -1.08981 1.57727
  28 60.0592 0.276569 1.47917
  29 58.3634 0.390370 0.693815
  30 57.2778 0.682421 0.121752
  31 56.9236 0.691469 -0.00950206
  32 57.2486 0.629789 -0.110559
  33 129.222 1.03275 9.34771
  34 112.130 1.18723 6.11974
  35 107.683 2.15626 2.47911
  36 104.284 1.32323 -0.654199
  37 110.737 0.415845 -2.36381
  38 113.280 2.14967 -5.58058
  39 117.857 7.51290 -11.3596
  40 28.7285 -16.9166 -23.8143
  41 5.70157 -30.7174 -9.60495
  42 2.30260 -41.2499 -3.02428
  43 1.61382 -43.6156 -0.334658
  44 1.93545 -41.8022 3.06145
  45 5.23906 -36.4261 8.25291
  46 23.3390 -17.1031 23.3403
  47 129.222 1.03275 9.34771
  48 112.130 1.18723 6.11974
  49 107.683 2.15626 2.47911
  50 104.284 1.32323 -0.654199
  51 110.737 0.415845 -2.36381
  52 113.280 2.14967 -5.58058
  53 117.857 7.51290 -11.3596
  54 28.7285 -16.9166 -23.8143
  55 5.70157 -30.7174 -9.60495
  56 2.30260 -41.2499 -3.02428
  57 1.61382 -43.6156 -0.334658
  58 1.93545 -41.8022 3.06145
  59 5.23906 -36.4261 8.25291
  60 23.3390 -17.1031 23.3403
  61 53.1902 2.28744 -0.993468
  62 53.1902 2.28744 -0.993468
  63 49.2734 0.707321 5.32303
  64 47.8286 0.308632 -6.48004
  65 49.2734 0.707321 5.32303
  66 47.8286 0.308632 -6.48004
  67 27.1367 0.445050 1.76353
  68 27.1367 0.445050 1.76353
  69 44.7194 -8.23773 17.3295
  70 44.7194 -8.23773 17.3295
  71 26.9348 -8.00078 -13.7738
  72 67.4873 -5.71441 -2.77850
  73 74.6696 4.13658 0.0695531
  74 71.2619 1.92762 -0.982820
  75 26.9348 -8.00078 -13.7738
  76 67.4873 -5.71441 -2.77850
  77 74.6696 4.13658 0.0695531
  78 71.2619 1.92762 -0.982820
  79 66.1712 -3.06743 1.23142
  80 66.1712 -3.06743 1.23142
  81 85.6304 6.33614 0.361247
  82 85.6304 6.33614 0.361247
  83 14.1914 -9.45369 -1.16228
  84 14.1914 -9.45369 -1.16228
  85 18.6241 -12.5794 11.7686
  86 18.6241 -12.5794 11.7686
  87 71.6190 -4.19205 1.84213
  88 71.6190 -4.19205 1.84213
  89 56.4980 1.28995 0.844995
  90 56.7500 1.40785 -0.861475
  91 56.4980 1.28995 0.844995
  92 56.7500 1.40785 -0.861475
  93 82.2332 4.10274 2.47759
  94 82.2332 4.10274 2.47759
  95 58.5847 0.573462 2.45491
  96 58.5847 0.573462 2.45491
  97 88.7779 6.51905 -2.92328
  98 90.2097 4.96605 -6.03338
  99 88.7779 6.51905 -2.92328
  100 90.2097 4.96605 -6.03338
  101 57.0431 0.906988 -3.00585
  102 57.0431 0.906988 -3.00585
  103 46.8201 -9.51803 -20.2008
  104 46.8201 -9.51803 -20.2008
  105 39.6423 -10.8993 21.2987
  106 39.6423 -10.8993 21.2987
  107 73.2619 -5.82261 -7.41227
  108 73.2619 -5.82261 -7.41227
  109 54.4501 -6.67971 -12.0119
  110 54.4501 -6.67971 -12.0119
  111 94.4061 6.38538 4.62733
  112 94.4061 6.38538 4.62733
  113 7.05764 -23.2156 -7.67229
  114 7.05764 -23.2156 -7.67229
  115 4.14508 -27.1174 2.25225
  116 4.14508 -27.1174 2.25225
  117 48.6425 3.10559 -0.632313
  118 48.6425 3.10559 -0.632313
  119 59.5813 -2.30912 -4.67516
  120 59.5813 -2.30912 -4.67516
  121 101.091 2.87798 -2.29552
  122 101.091 2.87798 -2.29552
  123 11.2056 -23.1853 12.9542
  124 11.2056 -23.1853 12.9542
  125 53.3870 1.86036 2.79248
  126 53.3870 1.86036 2.79248
  127 13.2308 -18.8845 -14.5250
  128 13.2308 -18.8845 -14.5250
  129 72.2964 -5.08950 11.1109
  130 72.2964 -5.08950 11.1109
  131 102.875 5.05209 -6.86504
  132 102.875 5.05209 -6.86504
  133 5.19203 -30.9689 -2.17561
  134 5.19203 -30.9689 -2.17561
  135 6.25079 -29.9354 5.50987
  136 6.25079 -29.9354 5.50987
  137 58.4875 0.577678 -1.45711
  138 58.4875 0.577678 -1.45711
  139 55.4508 1.95531 -0.104188
  140 55.4508 1.95531 -0.104188
  141 56.8476 1.00713 -0.0138511
  142 56.8476 1.00713 -0.0138511
  143 58.6411 -1.17027 4.13360
  144 58.6411 -1.17027 4.13360
  145 40.4478 -1.11566 9.65059
  146 59.2141 -5.43000 8.11187
  147 39.9407 2.27865 0.213956
  148 40.4478 -1.11566 9.65059
  149 59.2141 -5.43000 8.11187
  150 39.9407 2.27865 0.213956
  151 52.7027 0.955059 -4.42833
  152 52.7027 0.955059 -4.42833
  153 100.231 2.98432 1.72811
  154 100.231 2.98432 1.72811
  155 104.206 2.46638 4.37888
  156 104.362 4.82423 8.38643
  157 104.206 2.46638 4.37888
  158 104.362 4.82423 8.38643
  159 57.5161 0.677471 0.495626
  160 57.5161 0.677471 0.495626
  161 35.7112 -1.55383 -8.20705
  162 35.7112 -1.55383 -8.20705
  163 57.5197 0.659732 -0.486857
  164 57.5197 0.659732 -0.486857
  165 57.8866 0.792150 1.33986
  166 57.8866 0.792150 1.33986
  167 67.8704 -0.593795 1.88158
  168 66.4281 -2.37436 -0.0812610
  169 67.8704 -0.593795 1.88158
  170 66.4281 -2.37436 -0.0812610
  171 73.3731 -1.89470 0.742137
  172 73.3731 -1.89470 0.742137
  173 55.5070 1.76775 1.53190
  174 55.5070 1.76775 1.53190
  175 27.5184 -3.11775 11.0111
  176 27.5184 -3.11775 11.0111
  177 24.3323 -1.50069 -6.96112
  178 24.3323 -1.50069 -6.96112
  179 55.9976 1.90362 -1.46346
  180 55.9976 1.90362 -1.46346
</Section>

newXOutput 18

<Section columns = "stress_xx | stress_yy | stress_xy">
  1 61.2526 0.438198 -0.259426
  2 61.1966 0.340720 0.233698
  3 61.2526 0.438198 -0.259426
  4 61.1966 0.340720 0.233698
  5 92.4587 2.16789 22.6059
  6 90.8593 1.56208 -20.8545
  7 92.4587 2.16789 22.6059
  8 90.8593 1.56208 -20.8545
  9 61.9219 0.126344 -0.821696
  10 64.6617 0.0134109 -1.34424
  11 66.3393 -0.741133 -1.68380
  12 69.6656 -0.351612 1.08988
  13 69.4061 2.09904 0.684085
  14 69.8444 -0.356948 -1.40523
  15 67.0600 -1.15764 1.67562
  16 63.7844 0.293642 1.57035
  17 61.9847 0.414483 0.736413
  18 60.8329 0.724511 0.129219
  19 60.4573 0.734102 -0.0100831
  20 60.8020 0.668628 -0.117340
  21 61.9219 0.126344 -0.821696
  22 64.6617 0.0134109 -1.34424
  23 66.3393 -0.741133 -1.68380
  24 69.6656 -0.351612 1.08988
  25 69.4061 2.09904 0.684085
  26 69.8444 -0.356948 -1.40523
  27 67.0600 -1.15764 1.67562
  28 63.7844 0.293642 1.57035
  29 61.9847 0.414483 0.736413
  30 60.8329 0.724511 0.129219
  31 60.4573 0.734102 -0.0100831
  32 60.8020 0.668628 -0.117340
  33 137.179 1.09713 9.92727
  34 119.042 1.25912 6.49825
  35 114.323 2.28882 2.63172
  36 110.717 1.40395 -0.694287
  37 117.560 0.441249 -2.50963
  38 120.262 2.28256 -5.92529
  39 125.124 7.98245 -12.0671
  40 30.5076 -17.9535 -25.3068
  41 6.05627 -32.6237 -10.2119
  42 2.44508 -43.8238 -3.21640
  43 1.71281 -46.3397 -0.355451
  44 2.05461 -44.4102 3.25572
  45 5.56476 -38.6904 8.77559
  46 24.7851 -18.1516 24.8037
  47 137.179 1.09713 9.92727
  48 119.042 1.25912 6.49825
  49 114.323 2.28882 2.63172
  50 110.717 1.40395 -0.694287
  51 117.560 0.441249 -2.50963
  52 120.262 2.28256 -5.92529
  53 125.124 7.98245 -12.0671
  54 30.5076 -17.9535 -25.3068
  55 6.05627 -32.6237 -10.2119
  56 2.44508 -43.8238 -3.21640
  57 1.71281 -46.3397 -0.355451
  58 2.05461 -44.4102 3.25572
  59 5.56476 -38.6904 8.77559
  60 24.7851 -18.1516 24.8037
  61 56.4946 2.42924 -1.05489
  62 56.4946 2.42924 -1.05489
  63 52.3353 0.751484 5.65329
  64 50.8010 0.328035 -6.88206
  65 52.3353 0.751484 5.65329
  66 50.8010 0.328035 -6.88206
  67 28.8290 0.474722 1.87336
  68 28.8290 0.474722 1.87336
  69 47.4940 -8.74988 18.4098
  70 47.4940 -8.74988 18.4098
  71 28.6103 -8.49611 -14.6346
  72 71.6695 -6.06909 -2.95483
  73 79.2992 4.39414 0.0709230
  74 75.6810 2.04788 -1.04037
  75 28.6103 -8.49611 -14.6346
  76 71.6695 -6.06909 -2.95483
  77 79.2992 4.39414 0.0709230
  78 75.6810 2.04788 -1.04037
  79 70.2736 -3.25785 1.31070
  80 70.2736 -3.25785 1.31070
  81 90.9320 6.72839 0.385000
  82 90.9320 6.72839 0.385000
  83 15.0765 -10.0380 -1.23515
  84 15.0765 -10.0380 -1.23515
  85 19.7826 -13.3586 12.5064
  86 19.7826 -13.3586 12.5064
  87 76.0560 -4.45106 1.96247
  88 76.0560 -4.45106 1.96247
  89 60.0055 1.36966 0.896956
  90 60.2730 1.49488 -0.914449
  91 60.0055 1.36966 0.896956
  92 60.2730 1.49488 -0.914449
  93 87.3250 4.35975 2.63776
  94 87.3250 4.35975 2.63776
  95 62.2199 0.608890 2.60660
  96 62.2199 0.608890 2.60660
  97 94.2728 6.92277 -3.10716
  98 95.7892 5.27788 -6.41415
  99 94.2728 6.92277 -3.10716
  100 95.7892 5.27788 -6.41415
  101 60.5838 0.963127 -3.19181
  102 60.5838 0.963127 -3.19181
  103 49.7196 -10.1029 -21.4644
  104 49.7196 -10.1029 -21.4644
  105 42.0985 -11.5698 22.6318
  106 42.0985 -11.5698 22.6318
  107 77.7969 -6.18102 -7.88012
  108 77.7969 -6.18102 -7.88012
  109 57.8272 -7.09482 -12.7602
  110 57.8272 -7.09482 -12.7602
  111 100.244 6.78132 4.91658
  112 100.244 6.78132 4.91658
  113 7.49728 -24.6576 -8.15578
  114 7.49728 -24.6576 -8.15578
  115 4.40261 -28.8045 2.39472
  116 4.40261 -28.8045 2.39472
  117 51.6666 3.29860 -0.671388
  118 51.6666 3.29860 -0.671388
  119 63.2773 -2.45268 -4.96607
  120 63.2773 -2.45268 -4.96607
  121 107.332 3.05500 -2.43738
  122 107.332 3.05500 -2.43738
  123 11.9033 -24.6213 13.7710
  124 11.9033 -24.6213 13.7710
  125 56.7031 1.97575 2.96525
  126 56.7031 1.97575 2.96525
  127 14.0548 -20.0529 -15.4387
  128 14.0548 -20.0529 -15.4387
  129 76.7716 -5.40199 11.8081
  130 76.7716 -5.40199 11.8081
  131 109.227 5.36485 -7.29213
  132 109.227 5.36485 -7.29213
  133 5.51457 -32.8975 -2.31277
  134 5.51457 -32.8975 -2.31277
  135 6.63956 -31.7970 5.85928
  136 6.63956 -31.7970 5.85928
  137 62.1166 0.613378 -1.54696
  138 62.1166 0.613378 -1.54696
  139 58.8943 2.07624 -0.110620
  140 58.8943 2.07624 -0.110620
  141 60.3765 1.06930 -0.0147017
  142 60.3765 1.06930 -0.0147017
  143 62.2795 -1.24306 4.39027
  144 62.2795 -1.24306 4.39027
  145 42.9635 -1.18436 10.2506
  146 62.8859 -5.76737 8.61765
  147 42.4272 2.42096 0.227434
  148 42.9635 -1.18436 10.2506
  149 62.8859 -5.76737 8.61765
  150 42.4272 2.42096 0.227434
  151 55.9763 1.01438 -4.70255
  152 55.9763 1.01438 -4.70255
  153 106.421 3.16765 1.83543
  154 106.421 3.16765 1.83543
  155 110.639 2.61799 4.64965
  156 110.805 5.12676 8.91002
  157 110.639 2.61799 4.64965
  158 110.805 5.12676 8.91002
  159 61.0857 0.719295 0.526047
  160 61.0857 0.719295 0.526047
  161 37.9341 -1.64963 -8.71756
  162 37.9341 -1.64963 -8.71756
  163 61.0896 0.700461 -0.516737
  164 61.0896 0.700461 -0.516737
  165 61.4789 0.841126 1.42231
  166 61.4789 0.841126 1.42231
  167 72.0800 -0.630122 1.99470
  168 70.5461 -2.52201 -0.0887352
  169 72.0800 -0.630122 1.99470
  170 70.5461 -2.52201 -0.0887352
  171 77.9192 -2.01053 0.781598
  172 77.9192 -2.01053 0.781598
  173 58.9537 1.87717 1.62637
  174 58.9537 1.87717 1.62637
  175 29.2322 -3.30961 11.6977
  176 29.2322 -3.30961 11.6977
  177 25.8495 -1.59138 -7.39510
  178 25.8495 -1.59138 -7.39510
  179 59.4745 2.02146 -1.55376
  180 59.4745 2.02146 -1.55376
</Section>

newXOutput 19

<Section columns = "stress_xx | stress_yy | stress_xy">
  1 64.8288 0.463628 -0.274387
  2 64.7696 0.360480 0.247170
  3 64.8288 0.463628 -0.274387
  4 64.7696 0.360480 0.247170
  5 97.8257 2.30780 23.9341
  6 96.1378 1.66664 -22.0826
  7 97.8257 2.30780 23.9341
  8 96.1378 1.66664 -22.0826
  9 65.5366 0.133604 -0.869226
  10 68.4341 0.0142007 -1.42216
  11 70.2095 -0.784597 -1.78250
  12 73.7312 -0.372154 1.15138
  13 73.4602 2.22202 0.723388
  14 73.9205 -0.377680 -1.48468
  15 70.9718 -1.22543 1.77395
  16 67.5063 0.310689 1.66138
  17 65.6030 0.438563 0.778921
  18 64.3852 0.766535 0.136668
  19 63.9880 0.776667 -0.0106627
  20 64.3525 0.707407 -0.124107
  21 65.5366 0.133604 -0.869226
  22 68.4341 0.0142007 -1.42216
  23 70.2095 -0.784597 -1.78250
  24 73.7312 -0.372154 1.15138
  25 73.4602 2.22202 0.723388
  26 73.9205 -0.377680 -1.48468
  27 70.9718 -1.22543 1.77395
  28 67.5063 0.310689 1.66138
  29 65.6030 0.438563 0.778921
  30 64.3852 0.766535 0.136668
  31 63.9880 0.776667 -0.0106627
  32 64.3525 0.707407 -0.124107
  33 145.123 1.16149 10.5063
  34 125.944 1.33074 6.87630
  35 120.953 2.42112 2.78407
  36 117.141 1.48444 -0.734281
  37 124.372 0.466585 -2.65523
  38 127.234 2.41528 -6.26953
  39 132.380 8.45198 -12.7743
  40 32.2847 -18.9879 -26.7998
  41 6.41079 -34.5284 -10.8197
  42 2.58739 -46.3972 -3.40889
  43 1.81158 -49.0636 -0.376230
  44 2.17355 -47.0177 3.45034
  45 5.89026 -40.9532 9.29907
  46 26.2297 -19.1976 26.2676
  47 145.123 1.16149 10.5063
  48 125.944 1.33074 6.87630
  49 120.953 2.42112 2.78407
  50 117.141 1.48444 -0.734281
  51 124.372 0.466585 -2.65523
  52 127.234 2.41528 -6.26953
  53 132.380 8.45198 -12.7743
  54 32.2847 -18.9879 -26.7998
  55 6.41079 -34.5284 -10.8197
  56 2.58739 -46.3972 -3.40889
  57 1.81158 -49.0636 -0.376230
  58 2.17355 -47.0177 3.45034
  59 5.89026 -40.9532 9.29907
  60 26.2297 -19.1976 26.2676
  61 59.7966 2.57091 -1.11624
  62 59.7966 2.57091 -1.11624
  63 55.3951 0.795642 5.98327
  64 53.7714 0.347450 -7.28373
  65 55.3951 0.795642 5.98327
  66 53.7714 0.347450 -7.28373
  67 30.5208 0.504609 1.98314
  68 30.5208 0.504609 1.98314
  69 50.2662 -9.26173 19.4897
  70 50.2662 -9.26173 19.4897
  71 30.2850 -8.99089 -15.4954
  72 75.8475 -6.42347 -3.13146
  73 83.9243 4.65158 0.0719487
  74 80.0960 2.16813 -1.09747
  75 30.2850 -8.99089 -15.4954
  76 75.8475 -6.42347 -3.13146
  77 83.9243 4.65158 0.0719487
  78 80.0960 2.16813 -1.09747
  79 74.3720 -3.44812 1.39026
  80 74.3720 -3.44812 1.39026
  81 96.2276 7.12021 0.408887
  82 96.2276 7.12021 0.408887
  83 15.9614 -10.6216 -1.30806
  84 15.9614 -10.6216 -1.30806
  85 20.9403 -14.1369 13.2444
  86 20.9403 -14.1369 13.2444
  87 80.4885 -4.70972 2.08341
  88 80.4885 -4.70972 2.08341
  89 63.5102 1.44926 0.948819
  90 63.7931 1.58179 -0.967323
  91 63.5102 1.44926 0.948819
  92 63.7931 1.58179 -0.967323
  93 92.4112 4.61683 2.79854
  94 92.4112 4.61683 2.79854
  95 65.8519 0.644270 2.75810
  96 65.8519 0.644270 2.75810
  97 99.7613 7.32606 -3.29118
  98 101.362 5.58988 -6.79534
  99 99.7613 7.32606 -3.29118
  100 101.362 5.58988 -6.79534
  101 64.1216 1.01920 -3.37756
  102 64.1216 1.01920 -3.37756
  103 52.6160 -10.6866 -22.7281
  104 52.6160 -10.6866 -22.7281
  105 44.5521 -12.2389 23.9652
  106 44.5521 -12.2389 23.9652
  107 82.3268 -6.53879 -8.34849
  108 82.3268 -6.53879 -8.34849
  109 61.2013 -7.50965 -13.5083
  110 61.2013 -7.50965 -13.5083
  111 106.074 7.17689 5.20582
  112 106.074 7.17689 5.20582
  113 7.93674 -26.0985 -8.63973
  114 7.93674 -26.0985 -8.63973
  115 4.65995 -30.4908 2.53740
  116 4.65995 -30.4908 2.53740
  117 54.6887 3.49148 -0.710411
  118 54.6887 3.49148 -0.710411
  119 66.9700 -2.59615 -5.25684
  120 66.9700 -2.59615 -5.25684
  121 113.565 3.23170 -2.57905
  122 113.565 3.23170 -2.57905
  123 12.6007 -26.0557 14.5886
  124 12.6007 -26.0557 14.5886
  125 60.0169 2.09104 3.13781
  126 60.0169 2.09104 3.13781
  127 14.8785 -21.2198 -16.3531
  128 14.8785 -21.2198 -16.3531
  129 81.2418 -5.71383 12.5056
  130 81.2418 -5.71383 12.5056
  131 115.569 5.67726 -7.71898
  132 115.569 5.67726 -7.71898
  133 5.83688 -34.8252 -2.45008
  134 5.83688 -34.8252 -2.45008
  135 7.02811 -33.6575 6.20929
  136 7.02811 -33.6575 6.20929
  137 65.7427 0.649031 -1.63667
  138 65.7427 0.649031 -1.63667
  139 62.3351 2.19701 -0.117043
  140 62.3351 2.19701 -0.117043
  141 63.9026 1.13137 -0.0155506
  142 63.9026 1.13137 -0.0155506
  143 65.9147 -1.31581 4.64674
  144 65.9147 -1.31581 4.64674
  145 45.4779 -1.25294 10.8502
  146 66.5542 -6.10450 9.12328
  147 44.9126 2.56326 0.240924
  148 45.4779 -1.25294 10.8502
  149 66.5542 -6.10450 9.12328
  150 44.9126 2.56326 0.240924
  151 59.2475 1.07366 -4.97647
  152 59.2475 1.07366 -4.97647
  153 112.603 3.35062 1.94267
  154 112.603 3.35062 1.94267
  155 117.062 2.76931 4.92008
  156 117.239 5.42940 9.43353
  157 117.062 2.76931 4.92008
  158 117.239 5.42940 9.43353
  159 64.6525 0.761059 0.556403
  160 64.6525 0.761059 0.556403
  161 40.1560 -1.74528 -9.22778
  162 40.1560 -1.74528 -9.22778
  163 64.6565 0.741132 -0.546553
  164 64.6565 0.741132 -0.546553
  165 65.0683 0.890040 1.50461
  166 65.0683 0.890040 1.50461
  167 76.2857 -0.666357 2.10731
  168 74.6603 -2.66957 -0.0964865
  169 76.2857 -0.666357 2.10731
  170 74.6603 -2.66957 -0.0964865
  171 82.4608 -2.12605 0.820256
  172 82.4608 -2.12605 0.820256
  173 62.3978 1.98646 1.72069
  174 62.3978 1.98646 1.72069
  175 30.9453 -3.50112 12.3841
  176 30.9453 -3.50112 12.3841
  177 27.3663 -1.68169 -7.82895
  178 27.3663 -1.68169 -7.82895
  179 62.9487 2.13917 -1.64392
  180 62.9487 2.13917 -1.64392
</Section>

newXOutput 20

<Section columns = "stress_xx | stress_yy | stress_xy">
  1 68.4020 0.489021 -0.289314
  2 68.3397 0.380210 0.260610
  3 68.4020 0.489021 -0.289314
  4 68.3397 0.380210 0.260610
  5 103.185 2.44907 25.2622
  6 101.409 1.77259 -23.3109
  7 103.185 2.44907 25.2622
  8 101.409 1.77259 -23.3109
  9 69.1481 0.140846 -0.916669
  10 72.2030 0.0149907 -1.49995
  11 74.0762 -0.828047 -1.88115
  12 77.7932 -0.392681 1.21261
  13 77.5112 2.34494 0.762589
  14 77.9930 -0.398382 -1.56377
  15 74.8799 -1.29320 1.87224
  16 71.2250 0.327713 1.75227
  17 69.2181 0.462610 0.821341
  18 67.9346 0.808495 0.144102
  19 67.5160 0.819164 -0.0112408
  20 67.9001 0.746124 -0.130858
  21 69.1481 0.140846 -0.916669
  22 72.2030 0.0149907 -1.49995
  23 74.0762 -0.828047 -1.88115
  24 77.7932 -0.392681 1.21261
  25 77.5112 2.34494 0.762589
  26 77.9930 -0.398382 -1.56377
  27 74.8799 -1.29320 1.87224
  28 71.2250 0.327713 1.75227
  29 69.2181 0.462610 0.821341
  30 67.9346 0.808495 0.144102
  31 67.5160 0.819164 -0.0112408
  32 67.9001 0.746124 -0.130858
  33 153.052 1.22582 11.0847
  34 132.834 1.40209 7.25388
  35 127.572 2.55316 2.93614
  36 123.554 1.56471 -0.774183
  37 131.173 0.491855 -2.80060
  38 134.194 2.54783 -6.61330
  39 139.624 8.92152 -13.4812
  40 34.0600 -20.0200 -28.2932
  41 6.76511 -36.4314 -11.4283
  42 2.72953 -48.9701 -3.60174
  43 1.91013 -51.7873 -0.396994
  44 2.29228 -49.6246 3.64530
  45 6.21555 -43.2145 9.82335
  46 27.6729 -20.2413 27.7321
  47 153.052 1.22582 11.0847
  48 132.834 1.40209 7.25388
  49 127.572 2.55316 2.93614
  50 123.554 1.56471 -0.774183
  51 131.173 0.491855 -2.80060
  52 134.194 2.54783 -6.61330
  53 139.624 8.92152 -13.4812
  54 34.0600 -20.0200 -28.2932
  55 6.76511 -36.4314 -11.4283
  56 2.72953 -48.9701 -3.60174
  57 1.91013 -51.7873 -0.396994
  58 2.29228 -49.6246 3.64530
  59 6.21555 -43.2145 9.82335
  60 27.6729 -20.2413 27.7321
  61 63.0964 2.71244 -1.17751
  62 63.0964 2.71244 -1.17751
  63 58.4529 0.839794 6.31297
  64 56.7399 0.366878 -7.68506
  65 58.4529 0.839794 6.31297
  66 56.7399 0.366878 -7.68506
  67 32.2121 0.534710 2.09288
  68 32.2121 0.534710 2.09288
  69 53.0361 -9.77325 20.5693
  70 53.0361 -9.77325 20.5693
  71 31.9587 -9.48511 -16.3562
  72 80.0214 -6.77757 -3.30839
  73 88.5451 4.90891 0.0726313
  74 84.5069 2.28835 -1.15412
  75 31.9587 -9.48511 -16.3562
  76 80.0214 -6.77757 -3.30839
  77 88.5451 4.90891 0.0726313
  78 84.5069 2.28835 -1.15412
  79 78.4665 -3.63824 1.47008
  80 78.4665 -3.63824 1.47008
  81 101.517 7.51159 0.432909
  82 101.517 7.51159 0.432909
  83 16.8461 -11.2044 -1.38098
  84 16.8461 -11.2044 -1.38098
  85 22.0975 -14.9145 13.9827
  86 22.0975 -14.9145 13.9827
  87 84.9165 -4.96803 2.20496
  88 84.9165 -4.96803 2.20496
  89 67.0122 1.52876 1.00058
  90 67.3105 1.66860 -1.02010
  91 67.0122 1.52876 1.00058
  92 67.3105 1.66860 -1.02010
  93 97.4918 4.87398 2.95993
  94 97.4918 4.87398 2.95993
  95 69.4809 0.679602 2.90939
  96 69.4809 0.679602 2.90939
  97 105.244 7.72892 -3.47532
  98 106.928 5.90205 -7.17695
  99 105.244 7.72892 -3.47532
  100 106.928 5.90205 -7.17695
  101 67.6566 1.07521 -3.56308
  102 67.6566 1.07521 -3.56308
  103 55.5093 -11.2692 -23.9920
  104 55.5093 -11.2692 -23.9920
  105 47.0033 -12.9068 25.2987
  106 47.0033 -12.9068 25.2987
  107 86.8515 -6.89592 -8.81739
  108 86.8515 -6.89592 -8.81739
  109 64.5724 -7.92420 -14.2561
  110 64.5724 -7.92420 -14.2561
  111 111.897 7.57209 5.49506
  112 111.897 7.57209 5.49506
  113 8.37604 -27.5383 -9.12415
  114 8.37604 -27.5383 -9.12415
  115 4.91712 -32.1762 2.68027
  116 4.91712 -32.1762 2.68027
  117 57.7090 3.68423 -0.749383
  118 57.7090 3.68423 -0.749383
  119 70.6594 -2.73952 -5.54745
  120 70.6594 -2.73952 -5.54745
  121 119.789 3.40806 -2.72053
  122 119.789 3.40806 -2.72053
  123 13.2978 -27.4885 15.4070
  124 13.2978 -27.4885 15.4070
  125 63.3282 2.20623 3.31016
  126 63.3282 2.20623 3.31016
  127 15.7018 -22.3853 -17.2682
  128 15.7018 -22.3853 -17.2682
  129 85.7069 -6.02501 13.2035
  130 85.7069 -6.02501 13.2035
  131 121.903 5.98931 -8.14560
  132 121.903 5.98931 -8.14560
  133 6.15896 -36.7521 -2.58752
  134 6.15896 -36.7521 -2.58752
  135 7.41644 -35.5169 6.55988
  136 7.41644 -35.5169 6.55988
  137 69.3657 0.684637 -1.72624
  138 69.3657 0.684637 -1.72624
  139 65.7734 2.31764 -0.123456
  140 65.7734 2.31764 -0.123456
  141 67.4259 1.19335 -0.0163977
  142 67.4259 1.19335 -0.0163977
  143 69.5469 -1.38851 4.90301
  144 69.5469 -1.38851 4.90301
  145 47.9907 -1.32140 11.4494
  146 70.2191 -6.44140 9.62878
  147 47.3969 2.70554 0.254427
  148 47.9907 -1.32140 11.4494
  149 70.2191 -6.44140 9.62878
  150 47.3969 2.70554 0.254427
  151 62.5163 1.13290 -5.25010
  152 62.5163 1.13290 -5.25010
  153 118.775 3.53323 2.04984
  154 118.775 3.53323 2.04984
  155 123.476 2.92034 5.19018
  156 123.663 5.73215 9.95697
  157 123.476 2.92034 5.19018
  158 123.663 5.73215 9.95697
  159 68.2162 0.802763 0.586694
  160 68.2162 0.802763 0.586694
  161 42.3769 -1.84078 -9.73771
  162 42.3769 -1.84078 -9.73771
  163 68.2205 0.781743 -0.576305
  164 68.2205 0.781743 -0.576305
  165 68.6546 0.938892 1.58676
  166 68.6546 0.938892 1.58676
  167 80.4876 -0.702500 2.21941
  168 78.7705 -2.81704 -0.104514
  169 80.4876 -0.702500 2.21941
  170 78.7705 -2.81704 -0.104514
  171 86.9977 -2.24128 0.858115
  172 86.9977 -2.24128 0.858115
  173 65.8392 2.09563 1.81487
  174 65.8392 2.09563 1.81487
  175 32.6577 -3.69228 13.0703
  176 32.6577 -3.69228 13.0703
  177 28.8826 -1.77165 -8.26268
  178 28.8826 -1.77165 -8.26268
  179 66.4202 2.25674 -1.73394
  180 66.4202 2.25674 -1.73394
</Section>

newXOutput 21

<Section columns = "stress_xx | stress_yy | stress_xy">
  1 71.9724 0.514375 -0.304208
  2 71.9068 0.399909 0.274021
  3 71.9724 0.514375 -0.304208
  4 71.9068 0.399909 0.274021
  5 108.536 2.59170 26.5900
  6 106.673 1.87994 -24.5393
  7 108.536 2.59170 26.5900
  8 106.673 1.87994 -24.5393
  9 72.7566 0.148068 -0.964023
  10 75.9685 0.0157807 -1.57762
  11 77.9394 -0.871482 -1.97977
  12 81.8517 -0.413191 1.27354
  13 81.5591 2.46781 0.801687
  14 82.0620 -0.419055 -1.64252
  15 78.7843 -1.36093 1.97050
  16 74.9403 0.344711 1.84301
  17 72.8302 0.486624 0.863672
  18 71.4811 0.850389 0.151519
  19 71.0412 0.861594 -0.0118175
  20 71.4449 0.784781 -0.137594
  21 72.7566 0.148068 -0.964023
  22 75.9685 0.0157807 -1.57762
  23 77.9394 -0.871482 -1.97977
  24 81.8517 -0.413191 1.27354
  25 81.5591 2.46781 0.801687
  26 82.0620 -0.419055 -1.64252
  27 78.7843 -1.36093 1.97050
  28 74.9403 0.344711 1.84301
  29 72.8302 0.486624 0.863672
  30 71.4811 0.850389 0.151519
  31 71.0412 0.861594 -0.0118175
  32 71.4449 0.784781 -0.137594
  33 160.968 1.29014 11.6626
  34 139.713 1.47318 7.63100
  35 134.181 2.68496 3.08794
  36 129.958 1.64474 -0.813993
  37 137.962 0.517057 -2.94575
  38 141.143 2.68022 -6.95658
  39 146.857 9.39104 -14.1877
  40 35.8333 -21.0497 -29.7870
  41 7.11924 -38.3329 -12.0376
  42 2.87151 -51.5425 -3.79496
  43 2.00846 -54.5107 -0.417743
  44 2.41080 -52.2310 3.84060
  45 6.54063 -45.4744 10.3484
  46 29.1145 -21.2825 29.1971
  47 160.968 1.29014 11.6626
  48 139.713 1.47318 7.63100
  49 134.181 2.68496 3.08794
  50 129.958 1.64474 -0.813993
  51 137.962 0.517057 -2.94575
  52 141.143 2.68022 -6.95658
  53 146.857 9.39104 -14.1877
  54 35.8333 -21.0497 -29.7870
  55 7.11924 -38.3329 -12.0376
  56 2.87151 -51.5425 -3.79496
  57 2.00846 -54.5107 -0.417743
  58 2.41080 -52.2310 3.84060
  59 6.54063 -45.4744 10.3484
  60 29.1145 -21.2825 29.1971
  61 66.3938 2.85383 -1.23870
  62 66.3938 2.85383 -1.23870
  63 61.5086 0.883940 6.64238
  64 59.7063 0.386318 -8.08603
  65 61.5086 0.883940 6.64238
  66 59.7063 0.386318 -8.08603
  67 33.9030 0.565025 2.20257
  68 33.9030 0.565025 2.20257
  69 55.8035 -10.2845 21.6486
  70 55.8035 -10.2845 21.6486
  71 33.6316 -9.97879 -17.2170
  72 84.1911 -7.13137 -3.48564
  73 93.1616 5.16613 0.0729717
  74 88.9138 2.40855 -1.21033
  75 33.6316 -9.97879 -17.2170
  76 84.1911 -7.13137 -3.48564
  77 93.1616 5.16613 0.0729717
  78 88.9138 2.40855 -1.21033
  79 82.5572 -3.82821 1.55017
  80 82.5572 -3.82821 1.55017
  81 106.801 7.90254 0.457063
  82 106.801 7.90254 0.457063
  83 17.7305 -11.7865 -1.45394
  84 17.7305 -11.7865 -1.45394
  85 23.2539 -15.6911 14.7213
  86 23.2539 -15.6911 14.7213
  87 89.3398 -5.22599 2.32710
  88 89.3398 -5.22599 2.32710
  89 70.5115 1.60815 1.05225
  90 70.8251 1.75529 -1.07277
  91 70.5115 1.60815 1.05225
  92 70.8251 1.75529 -1.07277
  93 102.567 5.13120 3.12192
  94 102.567 5.13120 3.12192
  95 73.1068 0.714886 3.06048
  96 73.1068 0.714886 3.06048
  97 110.720 8.13134 -3.65959
  98 112.487 6.21438 -7.55897
  99 110.720 8.13134 -3.65959
  100 112.487 6.21438 -7.55897
  101 71.1888 1.13116 -3.74838
  102 71.1888 1.13116 -3.74838
  103 58.3994 -11.8506 -25.2560
  104 58.3994 -11.8506 -25.2560
  105 49.4519 -13.5735 26.6324
  106 49.4519 -13.5735 26.6324
  107 91.3712 -7.25241 -9.28681
  108 91.3712 -7.25241 -9.28681
  109 67.9405 -8.33848 -15.0036
  110 67.9405 -8.33848 -15.0036
  111 117.713 7.96693 5.78430
  112 117.713 7.96693 5.78430
  113 8.81516 -28.9770 -9.60903
  114 8.81516 -28.9770 -9.60903
  115 5.17411 -33.8607 2.82334
  116 5.17411 -33.8607 2.82334
  117 60.7273 3.87685 -0.788302
  118 60.7273 3.87685 -0.788302
  119 74.3456 -2.88281 -5.83790
  120 74.3456 -2.88281 -5.83790
  121 126.003 3.58410 -2.86182
  122 126.003 3.58410 -2.86182
  123 13.9946 -28.9199 16.2262
  124 13.9946 -28.9199 16.2262
  125 66.6371 2.32131 3.48231
  126 66.6371 2.32131 3.48231
  127 16.5248 -23.5495 -18.1839
  128 16.5248 -23.5495 -18.1839
  129 90.1669 -6.33555 13.9017
  130 90.1669 -6.33555 13.9017
  131 128.228 6.30102 -8.57197
  132 128.228 6.30102 -8.57197
  133 6.48081 -38.6782 -2.72510
  134 6.48081 -38.6782 -2.72510
  135 7.80454 -37.3751 6.91106
  136 7.80454 -37.3751 6.91106
  137 72.9856 0.720197 -1.81567
  138 72.9856 0.720197 -1.81567
  139 69.2090 2.43812 -0.129861
  140 69.2090 2.43812 -0.129861
  141 70.9464 1.25524 -0.0172430
  142 70.9464 1.25524 -0.0172430
  143 73.1760 -1.46118 5.15909
  144 73.1760 -1.46118 5.15909
  145 50.5022 -1.38974 12.0482
  146 73.8806 -6.77806 10.1341
  147 49.8799 2.84781 0.267941
  148 50.5022 -1.38974 12.0482
  149 73.8806 -6.77806 10.1341
  150 49.8799 2.84781 0.267941
  151 65.7828 1.19209 -5.52342
  152 65.7828 1.19209 -5.52342
  153 124.940 3.71546 2.15692
  154 124.940 3.71546 2.15692
  155 129.881 3.07108 5.45993
  156 130.079 6.03502 10.4803
  157 129.881 3.07108 5.45993
  158 130.079 6.03502 10.4803
  159 71.7771 0.844407 0.616921
  160 71.7771 0.844407 0.616921
  161 44.5967 -1.93612 -10.2474
  162 44.5967 -1.93612 -10.2474
  163 71.7816 0.822296 -0.605994
  164 71.7816 0.822296 -0.605994
  165 72.2380 0.987682 1.66876
  166 72.2380 0.987682 1.66876
  167 84.6857 -0.738551 2.33098
  168 82.8768 -2.96442 -0.112817
  169 84.6857 -0.738551 2.33098
  170 82.8768 -2.96442 -0.112817
  171 91.5301 -2.35620 0.895175
  172 91.5301 -2.35620 0.895175
  173 69.2781 2.20468 1.90889
  174 69.2781 2.20468 1.90889
  175 34.3694 -3.88310 13.7563
  176 34.3694 -3.88310 13.7563
  177 30.3985 -1.86125 -8.69627
  178 30.3985 -1.86125 -8.69627
  179 69.8891 2.37418 -1.82383
  180 69.8891 2.37418 -1.82383
</Section>

newXOutput 22

<Section columns = "stress_xx | stress_yy | stress_xy">
  1 75.5397 0.539692 -0.319070
  2 75.4709 0.419576 0.287402
  3 75.5397 0.539692 -0.319070
  4 75.4709 0.419576 0.287402
  5 113.880 2.73568 27.9176
  6 111.930 1.98867 -25.7678
  7 113.880 2.73568 27.9176
  8 111.930 1.98867 -25.7678
  9 76.3620 0.155272 -1.01129
  10 79.7305 0.0165709 -1.65516
  11 81.7990 -0.914902 -2.07834
  12 85.9066 -0.433686 1.33420
  13 85.6037 2.59062 0.840682
  14 86.1274 -0.439698 -1.72091
  15 82.6852 -1.42863 2.06874
  16 78.6522 0.361685 1.93360
  17 76.4392 0.510604 0.905915
  18 75.0247 0.892219 0.158919
  19 74.5635 0.903956 -0.0123926
  20 74.9867 0.823378 -0.144316
  21 76.3620 0.155272 -1.01129
  22 79.7305 0.0165709 -1.65516
  23 81.7990 -0.914902 -2.07834
  24 85.9066 -0.433686 1.33420
  25 85.6037 2.59062 0.840682
  26 86.1274 -0.439698 -1.72091
  27 82.6852 -1.42863 2.06874
  28 78.6522 0.361685 1.93360
  29 76.4392 0.510604 0.905915
  30 75.0247 0.892219 0.158919
  31 74.5635 0.903956 -0.0123926
  32 74.9867 0.823378 -0.144316
  33 168.870 1.35444 12.2400
  34 146.581 1.54400 8.00765
  35 140.779 2.81649 3.23947
  36 136.351 1.72455 -0.853710
  37 144.741 0.542192 -3.09068
  38 148.081 2.81243 -7.29939
  39 154.079 9.86056 -14.8940
  40 37.6047 -22.0770 -31.2813
  41 7.47317 -40.2328 -12.6477
  42 3.01332 -54.1144 -3.98854
  43 2.10657 -57.2340 -0.438478
  44 2.52911 -54.8368 4.03625
  45 6.86551 -47.7328 10.8743
  46 30.5547 -22.3213 30.6626
  47 168.870 1.35444 12.2400
  48 146.581 1.54400 8.00765
  49 140.779 2.81649 3.23947
  50 136.351 1.72455 -0.853710
  51 144.741 0.542192 -3.09068
  52 148.081 2.81243 -7.29939
  53 154.079 9.86056 -14.8940
  54 37.6047 -22.0770 -31.2813
  55 7.47317 -40.2328 -12.6477
  56 3.01332 -54.1144 -3.98854
  57 2.10657 -57.2340 -0.438478
  58 2.52911 -54.8368 4.03625
  59 6.86551 -47.7328 10.8743
  60 30.5547 -22.3213 30.6626
  61 69.6888 2.99509 -1.29982
  62 69.6888 2.99509 -1.29982
  63 64.5623 0.928081 6.97151
  64 62.6708 0.405771 -8.48666
  65 64.5623 0.928081 6.97151
  66 62.6708 0.405771 -8.48666
  67 35.5934 0.595553 2.31222
  68 35.5934 0.595553 2.31222
  69 58.5686 -10.7954 22.7275
  70 58.5686 -10.7954 22.7275
  71 35.3035 -10.4719 -18.0777
  72 88.3566 -7.48489 -3.66319
  73 97.7737 5.42324 0.0729709
  74 93.3166 2.52872 -1.26609
  75 35.3035 -10.4719 -18.0777
  76 88.3566 -7.48489 -3.66319
  77 97.7737 5.42324 0.0729709
  78 93.3166 2.52872 -1.26609
  79 86.6440 -4.01802 1.63053
  80 86.6440 -4.01802 1.63053
  81 112.079 8.29306 0.481351
  82 112.079 8.29306 0.481351
  83 18.6147 -12.3678 -1.52692
  84 18.6147 -12.3678 -1.52692
  85 24.4098 -16.4670 15.4601
  86 24.4098 -16.4670 15.4601
  87 93.7587 -5.48360 2.44984
  88 93.7587 -5.48360 2.44984
  89 74.0080 1.68743 1.10382
  90 74.3368 1.84187 -1.12534
  91 74.0080 1.68743 1.10382
  92 74.3368 1.84187 -1.12534
  93 107.636 5.38848 3.28453
  94 107.636 5.38848 3.28453
  95 76.7296 0.750123 3.21137
  96 76.7296 0.750123 3.21137
  97 116.190 8.53334 -3.84399
  98 118.039 6.52687 -7.94140
  99 116.190 8.53334 -3.84399
  100 118.039 6.52687 -7.94140
  101 74.7181 1.18705 -3.93345
  102 74.7181 1.18705 -3.93345
  103 61.2865 -12.4308 -26.5200
  104 61.2865 -12.4308 -26.5200
  105 51.8980 -14.2389 27.9664
  106 51.8980 -14.2389 27.9664
  107 95.8858 -7.60826 -9.75675
  108 95.8858 -7.60826 -9.75675
  109 71.3055 -8.75248 -15.7509
  110 71.3055 -8.75248 -15.7509
  111 123.521 8.36140 6.07353
  112 123.521 8.36140 6.07353
  113 9.25412 -30.4147 -10.0944
  114 9.25412 -30.4147 -10.0944
  115 5.43093 -35.5442 2.96662
  116 5.43093 -35.5442 2.96662
  117 63.7438 4.06935 -0.827171
  118 63.7438 4.06935 -0.827171
  119 78.0286 -3.02601 -6.12821
  120 78.0286 -3.02601 -6.12821
  121 132.209 3.75981 -3.00293
  122 132.209 3.75981 -3.00293
  123 14.6911 -30.3496 17.0462
  124 14.6911 -30.3496 17.0462
  125 69.9437 2.43629 3.65425
  126 69.9437 2.43629 3.65425
  127 17.3475 -24.7122 -19.1004
  128 17.3475 -24.7122 -19.1004
  129 94.6220 -6.64543 14.6001
  130 94.6220 -6.64543 14.6001
  131 134.544 6.61238 -8.99810
  132 134.544 6.61238 -8.99810
  133 6.80244 -40.6035 -2.86283
  134 6.80244 -40.6035 -2.86283
  135 8.19242 -39.2323 7.26284
  136 8.19242 -39.2323 7.26284
  137 76.6025 0.755709 -1.90495
  138 76.6025 0.755709 -1.90495
  139 72.6421 2.55845 -0.136256
  140 72.6421 2.55845 -0.136256
  141 74.4641 1.31704 -0.0180867
  142 74.4641 1.31704 -0.0180867
  143 76.8019 -1.53381 5.41497
  144 76.8019 -1.53381 5.41497
  145 53.0122 -1.45796 12.6467
  146 77.5387 -7.11449 10.6393
  147 52.3619 2.99006 0.281468
  148 53.0122 -1.45796 12.6467
  149 77.5387 -7.11449 10.6393
  150 52.3619 2.99006 0.281468
  151 69.0468 1.25124 -5.79645
  152 69.0468 1.25124 -5.79645
  153 131.095 3.89733 2.26391
  154 131.095 3.89733 2.26391
  155 136.276 3.22152 5.72934
  156 136.485 6.33800 11.0036
  157 136.276 3.22152 5.72934
  158 136.485 6.33800 11.0036
  159 75.3351 0.885991 0.647084
  160 75.3351 0.885991 0.647084
  161 46.8155 -2.03132 -10.7567
  162 46.8155 -2.03132 -10.7567
  163 75.3397 0.862791 -0.635619
  164 75.3397 0.862791 -0.635619
  165 75.8184 1.03641 1.75061
  166 75.8184 1.03641 1.75061
  167 88.8801 -0.774511 2.44204
  168 86.9791 -3.11171 -0.121395
  169 88.8801 -0.774511 2.44204
  170 86.9791 -3.11171 -0.121395
  171 96.0578 -2.47081 0.931439
  172 96.0578 -2.47081 0.931439
  173 72.7143 2.31360 2.00277
  174 72.7143 2.31360 2.00277
  175 36.0804 -4.07357 14.4421
  176 36.0804 -4.07357 14.4421
  177 31.9140 -1.95049 -9.12973
  178 31.9140 -1.95049 -9.12973
  179 73.3552 2.49149 -1.91359
  180 73.3552 2.49149 -1.91359
</Section>

newXOutput 23

<Section columns = "stress_xx | stress_yy | stress_xy">
  1 79.1041 0.564971 -0.333898
  2 79.0321 0.439213 0.300753
  3 79.1041 0.564971 -0.333898
  4 79.0321 0.439213 0.300753
  5 119.215 2.88102 29.2451
  6 117.179 2.09879 -26.9964
  7 119.215 2.88102 29.2451
  8 117.179 2.09879 -26.9964
  9 79.9643 0.162456 -1.05847
  10 83.4891 0.0173613 -1.73257
  11 85.6552 -0.958308 -2.17688
  12 89.9579 -0.454166 1.39457
  13 89.6453 2.71338 0.879575
  14 90.1892 -0.460313 -1.79896
  15 86.5824 -1.49629 2.16695
  16 82.3609 0.378634 2.02404
  17 80.0451 0.534552 0.948070
  18 78.5655 0.933984 0.166303
  19 78.0830 0.946250 -0.0129663
  20 78.5257 0.861914 -0.151022
  21 79.9643 0.162456 -1.05847
  22 83.4891 0.0173613 -1.73257
  23 85.6552 -0.958308 -2.17688
  24 89.9579 -0.454166 1.39457
  25 89.6453 2.71338 0.879575
  26 90.1892 -0.460313 -1.79896
  27 86.5824 -1.49629 2.16695
  28 82.3609 0.378634 2.02404
  29 80.0451 0.534552 0.948070
  30 78.5655 0.933984 0.166303
  31 78.0830 0.946250 -0.0129663
  32 78.5257 0.861914 -0.151022
  33 176.758 1.41872 12.8168
  34 153.438 1.61455 8.38383
  35 147.367 2.94778 3.39074
  36 142.735 1.80414 -0.893335
  37 151.507 0.567260 -3.23539
  38 155.007 2.94448 -7.64173
  39 161.289 10.3301 -15.5999
  40 39.3741 -23.1020 -32.7761
  41 7.82690 -42.1310 -13.2586
  42 3.15496 -56.6858 -4.18248
  43 2.20447 -59.9570 -0.459198
  44 2.64721 -57.4421 4.23224
  45 7.19019 -49.9898 11.4010
  46 31.9935 -23.3578 32.1287
  47 176.758 1.41872 12.8168
  48 153.438 1.61455 8.38383
  49 147.367 2.94778 3.39074
  50 142.735 1.80414 -0.893335
  51 151.507 0.567260 -3.23539
  52 155.007 2.94448 -7.64173
  53 161.289 10.3301 -15.5999
  54 39.3741 -23.1020 -32.7761
  55 7.82690 -42.1310 -13.2586
  56 3.15496 -56.6858 -4.18248
  57 2.20447 -59.9570 -0.459198
  58 2.64721 -57.4421 4.23224
  59 7.19019 -49.9898 11.4010
  60 31.9935 -23.3578 32.1287
  61 72.9816 3.13621 -1.36086
  62 72.9816 3.13621 -1.36086
  63 67.6138 0.972216 7.30035
  64 65.6333 0.425237 -8.88694
  65 67.6138 0.972216 7.30035
  66 65.6333 0.425237 -8.88694
  67 37.2834 0.626294 2.42182
  68 37.2834 0.626294 2.42182
  69 61.3313 -11.3060 23.8061
  70 61.3313 -11.3060 23.8061
  71 36.9745 -10.9645 -18.9385
  72 92.5180 -7.83812 -3.84104
  73 102.381 5.68023 0.0726298
  74 97.7154 2.64887 -1.32140
  75 36.9745 -10.9645 -18.9385
  76 92.5180 -7.83812 -3.84104
  77 102.381 5.68023 0.0726298
  78 97.7154 2.64887 -1.32140
  79 90.7269 -4.20769 1.71115
  80 90.7269 -4.20769 1.71115
  81 117.352 8.68314 0.505770
  82 117.352 8.68314 0.505770
  83 19.4987 -12.9483 -1.59993
  84 19.4987 -12.9483 -1.59993
  85 25.5649 -17.2421 16.1992
  86 25.5649 -17.2421 16.1992
  87 98.1730 -5.74087 2.57318
  88 98.1730 -5.74087 2.57318
  89 77.5017 1.76661 1.15528
  90 77.8458 1.92834 -1.17781
  91 77.5017 1.76661 1.15528
  92 77.8458 1.92834 -1.17781
  93 112.700 5.64583 3.44773
  94 112.700 5.64583 3.44773
  95 80.3494 0.785311 3.36205
  96 80.3494 0.785311 3.36205
  97 121.653 8.93491 -4.02851
  98 123.584 6.83954 -8.32424
  99 121.653 8.93491 -4.02851
  100 123.584 6.83954 -8.32424
  101 78.2445 1.24287 -4.11831
  102 78.2445 1.24287 -4.11831
  103 64.1704 -13.0099 -27.7842
  104 64.1704 -13.0099 -27.7842
  105 54.3416 -14.9030 29.3006
  106 54.3416 -14.9030 29.3006
  107 100.395 -7.96346 -10.2272
  108 100.395 -7.96346 -10.2272
  109 74.6676 -9.16620 -16.4978
  110 74.6676 -9.16620 -16.4978
  111 129.322 8.75551 6.36275
  112 129.322 8.75551 6.36275
  113 9.69290 -31.8514 -10.5802
  114 9.69290 -31.8514 -10.5802
  115 5.68756 -37.2269 3.11009
  116 5.68756 -37.2269 3.11009
  117 66.7584 4.26171 -0.865987
  118 66.7584 4.26171 -0.865987
  119 81.7083 -3.16913 -6.41837
  120 81.7083 -3.16913 -6.41837
  121 138.407 3.93519 -3.14384
  122 138.407 3.93519 -3.14384
  123 15.3872 -31.7779 17.8671
  124 15.3872 -31.7779 17.8671
  125 73.2478 2.55117 3.82599
  126 73.2478 2.55117 3.82599
  127 18.1698 -25.8735 -20.0175
  128 18.1698 -25.8735 -20.0175
  129 99.0720 -6.95467 15.2989
  130 99.0720 -6.95467 15.2989
  131 140.851 6.92339 -9.42400
  132 140.851 6.92339 -9.42400
  133 7.12383 -42.5279 -3.00069
  134 7.12383 -42.5279 -3.00069
  135 8.58008 -41.0884 7.61520
  136 8.58008 -41.0884 7.61520
  137 80.2163 0.791175 -1.99410
  138 80.2163 0.791175 -1.99410
  139 76.0726 2.67863 -0.142642
  140 76.0726 2.67863 -0.142642
  141 77.9790 1.37875 -0.0189285
  142 77.9790 1.37875 -0.0189285
  143 80.4247 -1.60639 5.67065
  144 80.4247 -1.60639 5.67065
  145 55.5208 -1.52606 13.2448
  146 81.1934 -7.45068 11.1444
  147 54.8427 3.13230 0.295007
  148 55.5208 -1.52606 13.2448
  149 81.1934 -7.45068 11.1444
  150 54.8427 3.13230 0.295007
  151 72.3085 1.31034 -6.06919
  152 72.3085 1.31034 -6.06919
  153 137.242 4.07884 2.37083
  154 137.242 4.07884 2.37083
  155 142.662 3.37168 5.99841
  156 142.882 6.64110 11.5268
  157 142.662 3.37168 5.99841
  158 142.882 6.64110 11.5268
  159 78.8901 0.927514 0.677183
  160 78.8901 0.927514 0.677183
  161 49.0332 -2.12636 -11.2658
  162 49.0332 -2.12636 -11.2658
  163 78.8950 0.903227 -0.665181
  164 78.8950 0.903227 -0.665181
  165 79.3958 1.08508 1.83231
  166 79.3958 1.08508 1.83231
  167 93.0707 -0.810378 2.55259
  168 91.0776 -3.25892 -0.130247
  169 93.0707 -0.810378 2.55259
  170 91.0776 -3.25892 -0.130247
  171 100.581 -2.58513 0.966908
  172 100.581 -2.58513 0.966908
  173 76.1479 2.42239 2.09650
  174 76.1479 2.42239 2.09650
  175 37.7907 -4.26369 15.1277
  176 37.7907 -4.26369 15.1277
  177 33.4290 -2.03937 -9.56307
  178 33.4290 -2.03937 -9.56307
  179 76.8187 2.60866 -2.00321
  180 76.8187 2.60866 -2.00321
</Section>

newXOutput 24

<Section columns = "stress_xx | stress_yy | stress_xy">
  1 82.6655 0.590212 -0.348695
  2 82.5903 0.458820 0.314073
  3 82.6655 0.590212 -0.348695
  4 82.5903 0.458820 0.314073
  5 124.543 3.02771 30.5723
  6 122.421 2.21030 -28.2252
  7 124.543 3.02771 30.5723
  8 122.421 2.21030 -28.2252
  9 83.5636 0.169623 -1.10556
  10 87.2443 0.0181518 -1.80986
  11 89.5078 -1.00170 -2.27537
  12 94.0057 -0.474629 1.45466
  13 93.6836 2.83609 0.918366
  14 94.2475 -0.480897 -1.87666
  15 90.4760 -1.56392 2.26513
  16 86.0663 0.395558 2.11434
  17 83.6480 0.558467 0.990136
  18 82.1033 0.975683 0.173670
  19 81.5998 0.988477 -0.0135385
  20 82.0618 0.900389 -0.157714
  21 83.5636 0.169623 -1.10556
  22 87.2443 0.0181518 -1.80986
  23 89.5078 -1.00170 -2.27537
  24 94.0057 -0.474629 1.45466
  25 93.6836 2.83609 0.918366
  26 94.2475 -0.480897 -1.87666
  27 90.4760 -1.56392 2.26513
  28 86.0663 0.395558 2.11434
  29 83.6480 0.558467 0.990136
  30 82.1033 0.975683 0.173670
  31 81.5998 0.988477 -0.0135385
  32 82.0618 0.900389 -0.157714
  33 184.632 1.48297 13.3930
  34 160.283 1.68484 8.75956
  35 153.945 3.07881 3.54173
  36 149.110 1.88350 -0.932867
  37 158.263 0.592263 -3.37987
  38 161.923 3.07635 -7.98358
  39 168.487 10.7996 -16.3056
  40 41.1417 -24.1245 -34.2713
  41 8.18044 -44.0277 -13.8702
  42 3.29644 -59.2567 -4.37680
  43 2.30215 -62.6797 -0.479903
  44 2.76510 -60.0468 4.42858
  45 7.51465 -52.2453 11.9285
  46 33.4307 -24.3918 33.5952
  47 184.632 1.48297 13.3930
  48 160.283 1.68484 8.75956
  49 153.945 3.07881 3.54173
  50 149.110 1.88350 -0.932867
  51 158.263 0.592263 -3.37987
  52 161.923 3.07635 -7.98358
  53 168.487 10.7996 -16.3056
  54 41.1417 -24.1245 -34.2713
  55 8.18044 -44.0277 -13.8702
  56 3.29644 -59.2567 -4.37680
  57 2.30215 -62.6797 -0.479903
  58 2.76510 -60.0468 4.42858
  59 7.51465 -52.2453 11.9285
  60 33.4307 -24.3918 33.5952
  61 76.2720 3.27719 -1.42182
  62 76.2720 3.27719 -1.42182
  63 70.6634 1.01634 7.62891
  64 68.5938 0.444715 -9.28687
  65 70.6634 1.01634 7.62891
  66 68.5938 0.444715 -9.28687
  67 38.9730 0.657248 2.53137
  68 38.9730 0.657248 2.53137
  69 64.0917 -11.8162 24.8843
  70 64.0917 -11.8162 24.8843
  71 38.6445 -11.4565 -19.7992
  72 96.6752 -8.19106 -4.01919
  73 106.985 5.93711 0.0719496
  74 102.110 2.76900 -1.37628
  75 38.6445 -11.4565 -19.7992
  76 96.6752 -8.19106 -4.01919
  77 106.985 5.93711 0.0719496
  78 102.110 2.76900 -1.37628
  79 94.8059 -4.39720 1.79203
  80 94.8059 -4.39720 1.79203
  81 122.618 9.07279 0.530322
  82 122.618 9.07279 0.530322
  83 20.3825 -13.5281 -1.67296
  84 20.3825 -13.5281 -1.67296
  85 26.7195 -18.0163 16.9385
  86 26.7195 -18.0163 16.9385
  87 102.583 -5.99778 2.69711
  88 102.583 -5.99778 2.69711
  89 80.9927 1.84569 1.20665
  90 81.3520 2.01470 -1.23018
  91 80.9927 1.84569 1.20665
  92 81.3520 2.01470 -1.23018
  93 117.759 5.90324 3.61154
  94 117.759 5.90324 3.61154
  95 83.9661 0.820452 3.51254
  96 83.9661 0.820452 3.51254
  97 127.110 9.33605 -4.21317
  98 129.123 7.15237 -8.70749
  99 127.110 9.33605 -4.21317
  100 129.123 7.15237 -8.70749
  101 81.7681 1.29862 -4.30295
  102 81.7681 1.29862 -4.30295
  103 67.0512 -13.5878 -29.0485
  104 67.0512 -13.5878 -29.0485
  105 56.7827 -15.5659 30.6349
  106 56.7827 -15.5659 30.6349
  107 104.900 -8.31803 -10.6982
  108 104.900 -8.31803 -10.6982
  109 78.0266 -9.57965 -17.2445
  110 78.0266 -9.57965 -17.2445
  111 135.116 9.14926 6.65197
  112 135.116 9.14926 6.65197
  113 10.1315 -33.2870 -11.0664
  114 10.1315 -33.2870 -11.0664
  115 5.94402 -38.9087 3.25376
  116 5.94402 -38.9087 3.25376
  117 69.7711 4.45395 -0.904753
  118 69.7711 4.45395 -0.904753
  119 85.3848 -3.31215 -6.70837
  120 85.3848 -3.31215 -6.70837
  121 144.595 4.11025 -3.28457
  122 144.595 4.11025 -3.28457
  123 16.0831 -33.2046 18.6888
  124 16.0831 -33.2046 18.6888
  125 76.5495 2.66594 3.99752
  126 76.5495 2.66594 3.99752
  127 18.9918 -27.0335 -20.9353
  128 18.9918 -27.0335 -20.9353
  129 103.517 -7.26325 15.9980
  130 103.517 -7.26325 15.9980
  131 147.149 7.23406 -9.84965
  132 147.149 7.23406 -9.84965
  133 7.44500 -44.4515 -3.13869
  134 7.44500 -44.4515 -3.13869
  135 8.96752 -42.9434 7.96815
  136 8.96752 -42.9434 7.96815
  137 83.8270 0.826593 -2.08311
  138 83.8270 0.826593 -2.08311
  139 79.5005 2.79866 -0.149019
  140 79.5005 2.79866 -0.149019
  141 81.4911 1.44037 -0.0197687
  142 81.4911 1.44037 -0.0197687
  143 84.0445 -1.67893 5.92614
  144 84.0445 -1.67893 5.92614
  145 58.0280 -1.59405 13.8425
  146 84.8448 -7.78664 11.6493
  147 57.3224 3.27453 0.308558
  148 58.0280 -1.59405 13.8425
  149 84.8448 -7.78664 11.6493
  150 57.3224 3.27453 0.308558
  151 75.5679 1.36941 -6.34163
  152 75.5679 1.36941 -6.34163
  153 143.381 4.25998 2.47766
  154 143.381 4.25998 2.47766
  155 149.039 3.52155 6.26714
  156 149.269 6.94431 12.0499
  157 149.039 3.52155 6.26714
  158 149.269 6.94431 12.0499
  159 82.4422 0.968978 0.707218
  160 82.4422 0.968978 0.707218
  161 51.2498 -2.22126 -11.7746
  162 51.2498 -2.22126 -11.7746
  163 82.4473 0.943605 -0.694680
  164 82.4473 0.943605 -0.694680
  165 82.9702 1.13368 1.91386
  166 82.9702 1.13368 1.91386
  167 97.2576 -0.846154 2.66262
  168 95.1721 -3.40604 -0.139372
  169 97.2576 -0.846154 2.66262
  170 95.1721 -3.40604 -0.139372
  171 105.099 -2.69914 1.00159
  172 105.099 -2.69914 1.00159
  173 79.5789 2.53107 2.19008
  174 79.5789 2.53107 2.19008
  175 39.5003 -4.45347 15.8131
  176 39.5003 -4.45347 15.8131
  177 34.9437 -2.12790 -9.99627
  178 34.9437 -2.12790 -9.99627
  179 80.2795 2.72571 -2.09269
  180 80.2795 2.72571 -2.09269
</Section>

newXOutput 25

<Section columns = "stress_xx | stress_yy | stress_xy">
  1 86.2240 0.615415 -0.363458
  2 86.1457 0.478395 0.327364
  3 86.2240 0.615415 -0.363458
  4 86.1457 0.478395 0.327364
  5 129.863 3.17575 31.8994
  6 127.656 2.32319 -29.4541
  7 129.863 3.17575 31.8994
  8 127.656 2.32319 -29.4541
  9 87.1599 0.176770 -1.15256
  10 90.9960 0.0189424 -1.88702
  11 93.3569 -1.04508 -2.37382
  12 98.0499 -0.495077 1.51447
  13 97.7189 2.95874 0.957055
  14 98.3022 -0.501453 -1.95401
  15 94.3660 -1.63152 2.36328
  16 89.7684 0.412458 2.20450
  17 87.2478 0.582349 1.03211
  18 85.6383 1.01732 0.181021
  19 85.1137 1.03064 -0.0141093
  20 85.5951 0.938805 -0.164391
  21 87.1599 0.176770 -1.15256
  22 90.9960 0.0189424 -1.88702
  23 93.3569 -1.04508 -2.37382
  24 98.0499 -0.495077 1.51447
  25 97.7189 2.95874 0.957055
  26 98.3022 -0.501453 -1.95401
  27 94.3660 -1.63152 2.36328
  28 89.7684 0.412458 2.20450
  29 87.2478 0.582349 1.03211
  30 85.6383 1.01732 0.181021
  31 85.1137 1.03064 -0.0141093
  32 85.5951 0.938805 -0.164391
  33 192.493 1.54721 13.9687
  34 167.118 1.75486 9.13481
  35 160.512 3.20959 3.69245
  36 155.474 1.96263 -0.972308
  37 165.008 0.617199 -3.52413
  38 168.827 3.20806 -8.32497
  39 175.675 11.2691 -17.0109
  40 42.9073 -25.1446 -35.7669
  41 8.53378 -45.9228 -14.4827
  42 3.43775 -61.8271 -4.57147
  43 2.39961 -65.4023 -0.500594
  44 2.88278 -62.6510 4.62526
  45 7.83891 -54.4994 12.4568
  46 34.8665 -25.4235 35.0623
  47 192.493 1.54721 13.9687
  48 167.118 1.75486 9.13481
  49 160.512 3.20959 3.69245
  50 155.474 1.96263 -0.972308
  51 165.008 0.617199 -3.52413
  52 168.827 3.20806 -8.32497
  53 175.675 11.2691 -17.0109
  54 42.9073 -25.1446 -35.7669
  55 8.53378 -45.9228 -14.4827
  56 3.43775 -61.8271 -4.57147
  57 2.39961 -65.4023 -0.500594
  58 2.88278 -62.6510 4.62526
  59 7.83891 -54.4994 12.4568
  60 34.8665 -25.4235 35.0623
  61 79.5601 3.41805 -1.48270
  62 79.5601 3.41805 -1.48270
  63 73.7108 1.06047 7.95719
  64 71.5524 0.464205 -9.68645
  65 73.7108 1.06047 7.95719
  66 71.5524 0.464205 -9.68645
  67 40.6620 0.688412 2.64088
  68 40.6620 0.688412 2.64088
  69 66.8497 -12.3262 25.9622
  70 66.8497 -12.3262 25.9622
  71 40.3137 -11.9480 -20.6599
  72 100.828 -8.54371 -4.19765
  73 111.584 6.19387 0.0709311
  74 106.501 2.88910 -1.43071
  75 40.3137 -11.9480 -20.6599
  76 100.828 -8.54371 -4.19765
  77 111.584 6.19387 0.0709311
  78 106.501 2.88910 -1.43071
  79 98.8811 -4.58657 1.87318
  80 98.8811 -4.58657 1.87318
  81 127.879 9.46201 0.555004
  82 127.879 9.46201 0.555004
  83 21.2661 -14.1071 -1.74603
  84 21.2661 -14.1071 -1.74603
  85 27.8733 -18.7897 17.6781
  86 27.8733 -18.7897 17.6781
  87 106.988 -6.25435 2.82164
  88 106.988 -6.25435 2.82164
  89 84.4809 1.92466 1.25793
  90 84.8555 2.10095 -1.28246
  91 84.4809 1.92466 1.25793
  92 84.8555 2.10095 -1.28246
  93 122.812 6.16073 3.77594
  94 122.812 6.16073 3.77594
  95 87.5797 0.855545 3.66282
  96 87.5797 0.855545 3.66282
  97 132.561 9.73676 -4.39794
  98 134.655 7.46536 -9.09113
  99 132.561 9.73676 -4.39794
  100 134.655 7.46536 -9.09113
  101 85.2888 1.35432 -4.48736
  102 85.2888 1.35432 -4.48736
  103 69.9290 -14.1646 -30.3129
  104 69.9290 -14.1646 -30.3129
  105 59.2213 -16.2276 31.9695
  106 59.2213 -16.2276 31.9695
  107 109.399 -8.67195 -11.1697
  108 109.399 -8.67195 -11.1697
  109 81.3825 -9.99282 -17.9909
  110 81.3825 -9.99282 -17.9909
  111 140.903 9.54264 6.94117
  112 140.903 9.54264 6.94117
  113 10.5699 -34.7215 -11.5532
  114 10.5699 -34.7215 -11.5532
  115 6.20030 -40.5896 3.39764
  116 6.20030 -40.5896 3.39764
  117 72.7820 4.64607 -0.943466
  118 72.7820 4.64607 -0.943466
  119 89.0581 -3.45508 -6.99822
  120 89.0581 -3.45508 -6.99822
  121 150.774 4.28498 -3.42511
  122 150.774 4.28498 -3.42511
  123 16.7786 -34.6297 19.5113
  124 16.7786 -34.6297 19.5113
  125 79.8489 2.78061 4.16885
  126 79.8489 2.78061 4.16885
  127 19.8134 -28.1920 -21.8537
  128 19.8134 -28.1920 -21.8537
  129 107.957 -7.57119 16.6974
  130 107.957 -7.57119 16.6974
  131 153.438 7.54437 -10.2751
  132 153.438 7.54437 -10.2751
  133 7.76595 -46.3743 -3.27683
  134 7.76595 -46.3743 -3.27683
  135 9.35474 -44.7973 8.32169
  136 9.35474 -44.7973 8.32169
  137 87.4347 0.861965 -2.17197
  138 87.4347 0.861965 -2.17197
  139 82.9258 2.91855 -0.155386
  140 82.9258 2.91855 -0.155386
  141 85.0004 1.50190 -0.0206071
  142 85.0004 1.50190 -0.0206071
  143 87.6611 -1.75144 6.18143
  144 87.6611 -1.75144 6.18143
  145 60.5338 -1.66192 14.4399
  146 88.4927 -8.12237 12.1541
  147 59.8009 3.41675 0.322121
  148 60.5338 -1.66192 14.4399
  149 88.4927 -8.12237 12.1541
  150 59.8009 3.41675 0.322121
  151 78.8248 1.42843 -6.61377
  152 78.8248 1.42843 -6.61377
  153 149.511 4.44076 2.58441
  154 149.511 4.44076 2.58441
  155 155.407 3.67112 6.53554
  156 155.648 7.24763 12.5729
  157 155.407 3.67112 6.53554
  158 155.648 7.24763 12.5729
  159 85.9914 1.01038 0.737189
  160 85.9914 1.01038 0.737189
  161 53.4654 -2.31600 -12.2831
  162 53.4654 -2.31600 -12.2831
  163 85.9967 0.983925 -0.724116
  164 85.9967 0.983925 -0.724116
  165 86.5417 1.18223 1.99526
  166 86.5417 1.18223 1.99526
  167 101.441 -0.881837 2.77214
  168 99.2628 -3.55308 -0.148769
  169 101.441 -0.881837 2.77214
  170 99.2628 -3.55308 -0.148769
  171 109.613 -2.81285 1.03547
  172 109.613 -2.81285 1.03547
  173 83.0072 2.63962 2.28352
  174 83.0072 2.63962 2.28352
  175 41.2091 -4.64290 16.4984
  176 41.2091 -4.64290 16.4984
  177 36.4579 -2.21607 -10.4293
  178 36.4579 -2.21607 -10.4293
  179 83.7377 2.84262 -2.18204
  180 83.7377 2.84262 -2.18204
</Section>

newXOutput 26

<Section columns = "stress_xx | stress_yy | stress_xy">
  1 89.7795 0.640581 -0.378189
  2 89.6980 0.497940 0.340625
  3 89.7795 0.640581 -0.378189
  4 89.6980 0.497940 0.340625
  5 135.175 3.32514 33.2262
  6 132.884 2.43746 -30.6830
  7 135.175 3.32514 33.2262
  8 132.884 2.43746 -30.6830
  9 90.7531 0.183899 -1.19948
  10 94.7444 0.0197332 -1.96406
  11 97.2024 -1.08844 -2.47224
  12 102.091 -0.515509 1.57400
  13 101.751 3.08134 0.995642
  14 102.353 -0.521978 -2.03101
  15 98.2524 -1.69909 2.46141
  16 93.4672 0.429334 2.29450
  17 90.8445 0.606198 1.07401
  18 89.1705 1.05889 0.188356
  19 88.6248 1.07273 -0.0146786
  20 89.1255 0.977160 -0.171054
  21 90.7531 0.183899 -1.19948
  22 94.7444 0.0197332 -1.96406
  23 97.2024 -1.08844 -2.47224
  24 102.091 -0.515509 1.57400
  25 101.751 3.08134 0.995642
  26 102.353 -0.521978 -2.03101
  27 98.2524 -1.69909 2.46141
  28 93.4672 0.429334 2.29450
  29 90.8445 0.606198 1.07401
  30 89.1705 1.05889 0.188356
  31 88.6248 1.07273 -0.0146786
  32 89.1255 0.977160 -0.171054
  33 200.340 1.61142 14.5438
  34 173.942 1.82463 9.50961
  35 167.069 3.34012 3.84291
  36 161.829 2.04154 -1.01166
  37 171.741 0.642069 -3.66816
  38 175.720 3.33960 -8.66588
  39 182.851 11.7385 -17.7158
  40 44.6710 -26.1624 -37.2630
  41 8.88693 -47.8162 -15.0959
  42 3.57890 -64.3970 -4.76651
  43 2.49686 -68.1246 -0.521270
  44 3.00025 -65.2546 4.82228
  45 8.16297 -56.7519 12.9859
  46 36.3007 -26.4528 36.5299
  47 200.340 1.61142 14.5438
  48 173.942 1.82463 9.50961
  49 167.069 3.34012 3.84291
  50 161.829 2.04154 -1.01166
  51 171.741 0.642069 -3.66816
  52 175.720 3.33960 -8.66588
  53 182.851 11.7385 -17.7158
  54 44.6710 -26.1624 -37.2630
  55 8.88693 -47.8162 -15.0959
  56 3.57890 -64.3970 -4.76651
  57 2.49686 -68.1246 -0.521270
  58 3.00025 -65.2546 4.82228
  59 8.16297 -56.7519 12.9859
  60 36.3007 -26.4528 36.5299
  61 82.8458 3.55876 -1.54351
  62 82.8458 3.55876 -1.54351
  63 76.7562 1.10459 8.28519
  64 74.5090 0.483707 -10.0857
  65 76.7562 1.10459 8.28519
  66 74.5090 0.483707 -10.0857
  67 42.3507 0.719788 2.75034
  68 42.3507 0.719788 2.75034
  69 69.6053 -12.8358 27.0398
  70 69.6053 -12.8358 27.0398
  71 41.9819 -12.4390 -21.5206
  72 104.977 -8.89608 -4.37641
  73 116.179 6.45053 0.0695754
  74 110.888 3.00918 -1.48469
  75 41.9819 -12.4390 -21.5206
  76 104.977 -8.89608 -4.37641
  77 116.179 6.45053 0.0695754
  78 110.888 3.00918 -1.48469
  79 102.952 -4.77578 1.95459
  80 102.952 -4.77578 1.95459
  81 133.133 9.85080 0.579817
  82 133.133 9.85080 0.579817
  83 22.1494 -14.6854 -1.81912
  84 22.1494 -14.6854 -1.81912
  85 29.0265 -19.5623 18.4180
  86 29.0265 -19.5623 18.4180
  87 111.389 -6.51057 2.94675
  88 111.389 -6.51057 2.94675
  89 87.9664 2.00352 1.30910
  90 88.3561 2.18709 -1.33463
  91 87.9664 2.00352 1.30910
  92 88.3561 2.18709 -1.33463
  93 127.859 6.41827 3.94094
  94 127.859 6.41827 3.94094
  95 91.1902 0.890590 3.81291
  96 91.1902 0.890590 3.81291
  97 138.006 10.1370 -4.58284
  98 140.180 7.77851 -9.47518
  99 138.006 10.1370 -4.58284
  100 140.180 7.77851 -9.47518
  101 88.8067 1.40995 -4.67156
  102 88.8067 1.40995 -4.67156
  103 72.8036 -14.7402 -31.5774
  104 72.8036 -14.7402 -31.5774
  105 61.6574 -16.8880 33.3043
  106 61.6574 -16.8880 33.3043
  107 113.893 -9.02524 -11.6417
  108 113.893 -9.02524 -11.6417
  109 84.7355 -10.4057 -18.7370
  110 84.7355 -10.4057 -18.7370
  111 146.682 9.93566 7.23037
  112 146.682 9.93566 7.23037
  113 11.0082 -36.1550 -12.0403
  114 11.0082 -36.1550 -12.0403
  115 6.45641 -42.2695 3.54171
  116 6.45641 -42.2695 3.54171
  117 75.7909 4.83805 -0.982129
  118 75.7909 4.83805 -0.982129
  119 92.7281 -3.59793 -7.28792
  120 92.7281 -3.59793 -7.28792
  121 156.945 4.45939 -3.56546
  122 156.945 4.45939 -3.56546
  123 17.4739 -36.0533 20.3346
  124 17.4739 -36.0533 20.3346
  125 83.1458 2.89519 4.33998
  126 83.1458 2.89519 4.33998
  127 20.6346 -29.3492 -22.7729
  128 20.6346 -29.3492 -22.7729
  129 112.392 -7.87849 17.3971
  130 112.392 -7.87849 17.3971
  131 159.718 7.85434 -10.7002
  132 159.718 7.85434 -10.7002
  133 8.08666 -48.2963 -3.41510
  134 8.08666 -48.2963 -3.41510
  135 9.74173 -46.6501 8.67582
  136 9.74173 -46.6501 8.67582
  137 91.0393 0.897291 -2.26069
  138 91.0393 0.897291 -2.26069
  139 86.3485 3.03829 -0.161745
  140 86.3485 3.03829 -0.161745
  141 88.5069 1.56334 -0.0214437
  142 88.5069 1.56334 -0.0214437
  143 91.2747 -1.82390 6.43652
  144 91.2747 -1.82390 6.43652
  145 63.0381 -1.72967 15.0368
  146 92.1373 -8.45787 12.6587
  147 62.2783 3.55895 0.335695
  148 63.0381 -1.72967 15.0368
  149 92.1373 -8.45787 12.6587
  150 62.2783 3.55895 0.335695
  151 82.0794 1.48741 -6.88561
  152 82.0794 1.48741 -6.88561
  153 155.632 4.62117 2.69108
  154 155.632 4.62117 2.69108
  155 161.765 3.82041 6.80359
  156 162.017 7.55107 13.0959
  157 161.765 3.82041 6.80359
  158 162.017 7.55107 13.0959
  159 89.5377 1.05173 0.767096
  160 89.5377 1.05173 0.767096
  161 55.6800 -2.41060 -12.7913
  162 55.6800 -2.41060 -12.7913
  163 89.5432 1.02419 -0.753489
  164 89.5432 1.02419 -0.753489
  165 90.1102 1.23071 2.07652
  166 90.1102 1.23071 2.07652
  167 105.620 -0.917430 2.88115
  168 103.349 -3.70002 -0.158438
  169 105.620 -0.917430 2.88115
  170 103.349 -3.70002 -0.158438
  171 114.123 -2.92626 1.06857
  172 114.123 -2.92626 1.06857
  173 86.4330 2.74805 2.37680
  174 86.4330 2.74805 2.37680
  175 42.9173 -4.83199 17.1834
  176 42.9173 -4.83199 17.1834
  177 37.9717 -2.30388 -10.8623
  178 37.9717 -2.30388 -10.8623
  179 87.1932 2.95940 -2.27125
  180 87.1932 2.95940 -2.27125
</Section>

newXOutput 27

<Section columns = "stress_xx | stress_yy | stress_xy">
  1 93.3321 0.665709 -0.392888
  2 93.2475 0.517455 0.353856
  3 93.3321 0.665709 -0.392888
  4 93.2475 0.517455 0.353856
  5 140.479 3.47587 34.5528
  6 138.104 2.55310 -31.9121
  7 140.479 3.47587 34.5528
  8 138.104 2.55310 -31.9121
  9 94.3432 0.191009 -1.24631
  10 98.4893 0.0205241 -2.04097
  11 101.045 -1.13179 -2.57061
  12 106.128 -0.535925 1.63324
  13 105.780 3.20389 1.03413
  14 106.401 -0.542475 -2.10767
  15 102.135 -1.76662 2.55950
  16 97.1626 0.446185 2.38436
  17 94.4382 0.630014 1.11581
  18 92.6997 1.10040 0.195674
  19 92.1331 1.11476 -0.0152464
  20 92.6530 1.01546 -0.177701
  21 94.3432 0.191009 -1.24631
  22 98.4893 0.0205241 -2.04097
  23 101.045 -1.13179 -2.57061
  24 106.128 -0.535925 1.63324
  25 105.780 3.20389 1.03413
  26 106.401 -0.542475 -2.10767
  27 102.135 -1.76662 2.55950
  28 97.1626 0.446185 2.38436
  29 94.4382 0.630014 1.11581
  30 92.6997 1.10040 0.195674
  31 92.1331 1.11476 -0.0152464
  32 92.6530 1.01546 -0.177701
  33 208.173 1.67562 15.1184
  34 180.755 1.89412 9.88394
  35 173.616 3.47040 3.99310
  36 168.174 2.12023 -1.05092
  37 178.463 0.666873 -3.81198
  38 182.602 3.47098 -9.00631
  39 190.015 12.2080 -18.4205
  40 46.4327 -27.1778 -38.7595
  41 9.23988 -49.7081 -15.7098
  42 3.71988 -66.9664 -4.96192
  43 2.59389 -70.8467 -0.541931
  44 3.11752 -67.8576 5.01966
  45 8.48682 -59.0031 13.5158
  46 37.7335 -27.4797 37.9979
  47 208.173 1.67562 15.1184
  48 180.755 1.89412 9.88394
  49 173.616 3.47040 3.99310
  50 168.174 2.12023 -1.05092
  51 178.463 0.666873 -3.81198
  52 182.602 3.47098 -9.00631
  53 190.015 12.2080 -18.4205
  54 46.4327 -27.1778 -38.7595
  55 9.23988 -49.7081 -15.7098
  56 3.71988 -66.9664 -4.96192
  57 2.59389 -70.8467 -0.541931
  58 3.11752 -67.8576 5.01966
  59 8.48682 -59.0031 13.5158
  60 37.7335 -27.4797 37.9979
  61 86.1293 3.69934 -1.60424
  62 86.1293 3.69934 -1.60424
  63 79.7996 1.14870 8.61291
  64 77.4636 0.503221 -10.4846
  65 79.7996 1.14870 8.61291
  66 77.4636 0.503221 -10.4846
  67 44.0389 0.751374 2.85976
  68 44.0389 0.751374 2.85976
  69 72.3585 -13.3452 28.1170
  70 72.3585 -13.3452 28.1170
  71 43.6493 -12.9294 -22.3813
  72 109.122 -9.24816 -4.55547
  73 120.769 6.70707 0.0678834
  74 115.270 3.12923 -1.53824
  75 43.6493 -12.9294 -22.3813
  76 109.122 -9.24816 -4.55547
  77 120.769 6.70707 0.0678834
  78 115.270 3.12923 -1.53824
  79 107.020 -4.96485 2.03626
  80 107.020 -4.96485 2.03626
  81 138.382 10.2392 0.604759
  82 138.382 10.2392 0.604759
  83 23.0326 -15.2629 -1.89223
  84 23.0326 -15.2629 -1.89223
  85 30.1791 -20.3341 19.1581
  86 30.1791 -20.3341 19.1581
  87 115.785 -6.76644 3.07246
  88 115.785 -6.76644 3.07246
  89 91.4492 2.08228 1.36018
  90 91.8540 2.27312 -1.38670
  91 91.4492 2.08228 1.36018
  92 91.8540 2.27312 -1.38670
  93 132.901 6.67589 4.10653
  94 132.901 6.67589 4.10653
  95 94.7977 0.925588 3.96279
  96 94.7977 0.925588 3.96279
  97 143.445 10.5369 -4.76786
  98 145.698 8.09183 -9.85962
  99 143.445 10.5369 -4.76786
  100 145.698 8.09183 -9.85962
  101 92.3218 1.46551 -4.85553
  102 92.3218 1.46551 -4.85553
  103 75.6751 -15.3146 -32.8419
  104 75.6751 -15.3146 -32.8419
  105 64.0910 -17.5471 34.6392
  106 64.0910 -17.5471 34.6392
  107 118.383 -9.37789 -12.1142
  108 118.383 -9.37789 -12.1142
  109 88.0855 -10.8183 -19.4828
  110 88.0855 -10.8183 -19.4828
  111 152.454 10.3283 7.51955
  112 152.454 10.3283 7.51955
  113 11.4463 -37.5874 -12.5280
  114 11.4463 -37.5874 -12.5280
  115 6.71234 -43.9486 3.68598
  116 6.71234 -43.9486 3.68598
  117 78.7980 5.02991 -1.02074
  118 78.7980 5.02991 -1.02074
  119 96.3949 -3.74069 -7.57747
  120 96.3949 -3.74069 -7.57747
  121 163.107 4.63347 -3.70562
  122 163.107 4.63347 -3.70562
  123 18.1688 -37.4754 21.1588
  124 18.1688 -37.4754 21.1588
  125 86.4404 3.00965 4.51090
  126 86.4404 3.00965 4.51090
  127 21.4556 -30.5049 -23.6927
  128 21.4556 -30.5049 -23.6927
  129 116.822 -8.18513 18.0972
  130 116.822 -8.18513 18.0972
  131 165.989 8.16397 -11.1251
  132 165.989 8.16397 -11.1251
  133 8.40715 -50.2174 -3.55352
  134 8.40715 -50.2174 -3.55352
  135 10.1285 -48.5017 9.03054
  136 10.1285 -48.5017 9.03054
  137 94.6409 0.932570 -2.34928
  138 94.6409 0.932570 -2.34928
  139 89.7686 3.15787 -0.168094
  140 89.7686 3.15787 -0.168094
  141 92.0107 1.62469 -0.0222787
  142 92.0107 1.62469 -0.0222787
  143 94.8851 -1.89632 6.69142
  144 94.8851 -1.89632 6.69142
  145 65.5410 -1.79730 15.6334
  146 95.7785 -8.79313 13.1631
  147 64.7545 3.70113 0.349282
  148 65.5410 -1.79730 15.6334
  149 95.7785 -8.79313 13.1631
  150 64.7545 3.70113 0.349282
  151 85.3317 1.54634 -7.15717
  152 85.3317 1.54634 -7.15717
  153 161.745 4.80123 2.79767
  154 161.745 4.80123 2.79767
  155 168.114 3.96942 7.07130
  156 168.378 7.85461 13.6187
  157 168.114 3.96942 7.07130
  158 168.378 7.85461 13.6187
  159 93.0810 1.09301 0.796940
  160 93.0810 1.09301 0.796940
  161 57.8935 -2.50504 -13.2992
  162 57.8935 -2.50504 -13.2992
  163 93.0867 1.06439 -0.782800
  164 93.0867 1.06439 -0.782800
  165 93.6757 1.27913 2.15762
  166 93.6757 1.27913 2.15762
  167 109.796 -0.952930 2.98965
  168 107.432 -3.84688 -0.168378
  169 109.796 -0.952930 2.98965
  170 107.432 -3.84688 -0.168378
  171 118.627 -3.03937 1.10088
  172 118.627 -3.03937 1.10088
  173 89.8561 2.85635 2.46995
  174 89.8561 2.85635 2.46995
  175 44.6247 -5.02073 17.8682
  176 44.6247 -5.02073 17.8682
  177 39.4850 -2.39134 -11.2951
  178 39.4850 -2.39134 -11.2951
  179 90.6460 3.07605 -2.36033
  180 90.6460 3.07605 -2.36033
</Section>

newXOutput 28

<Section columns = "stress_xx | stress_yy | stress_xy">
  1 96.8818 0.690800 -0.407554
  2 96.7940 0.536939 0.367058
  3 96.8818 0.690800 -0.407554
  4 96.7940 0.536939 0.367058
  5 145.775 3.62794 35.8792
  6 143.317 2.67012 -33.1413
  7 145.775 3.62794 35.8792
  8 143.317 2.67012 -33.1413
  9 97.9303 0.198101 -1.29305
  10 102.231 0.0213152 -2.11776
  11 104.883 -1.17512 -2.66894
  12 110.161 -0.556326 1.69221
  13 109.806 3.32638 1.07251
  14 110.445 -0.562942 -2.18398
  15 106.014 -1.83412 2.65757
  16 100.855 0.463012 2.47408
  17 98.0288 0.653798 1.15752
  18 96.2262 1.14184 0.202976
  19 95.6387 1.15671 -0.0158128
  20 96.1776 1.05369 -0.184334
  21 97.9303 0.198101 -1.29305
  22 102.231 0.0213152 -2.11776
  23 104.883 -1.17512 -2.66894
  24 110.161 -0.556326 1.69221
  25 109.806 3.32638 1.07251
  26 110.445 -0.562942 -2.18398
  27 106.014 -1.83412 2.65757
  28 100.855 0.463012 2.47408
  29 98.0288 0.653798 1.15752
  30 96.2262 1.14184 0.202976
  31 95.6387 1.15671 -0.0158128
  32 96.1776 1.05369 -0.184334
  33 215.993 1.73979 15.6924
  34 187.557 1.96336 10.2578
  35 180.152 3.60044 4.14302
  36 174.510 2.19869 -1.09008
  37 185.174 0.691613 -3.95557
  38 189.473 3.60219 -9.34627
  39 197.169 12.6775 -19.1248
  40 48.1925 -28.1908 -40.2565
  41 9.59264 -51.5984 -16.3246
  42 3.86070 -69.5352 -5.15769
  43 2.69070 -73.5685 -0.562577
  44 3.23457 -70.4602 5.21737
  45 8.81046 -61.2527 14.0465
  46 39.1649 -28.5042 39.4665
  47 215.993 1.73979 15.6924
  48 187.557 1.96336 10.2578
  49 180.152 3.60044 4.14302
  50 174.510 2.19869 -1.09008
  51 185.174 0.691613 -3.95557
  52 189.473 3.60219 -9.34627
  53 197.169 12.6775 -19.1248
  54 48.1925 -28.1908 -40.2565
  55 9.59264 -51.5984 -16.3246
  56 3.86070 -69.5352 -5.15769
  57 2.69070 -73.5685 -0.562577
  58 3.23457 -70.4602 5.21737
  59 8.81046 -61.2527 14.0465
  60 39.1649 -28.5042 39.4665
  61 89.4104 3.83979 -1.66489
  62 89.4104 3.83979 -1.66489
  63 82.8409 1.19280 8.94034
  64 80.4163 0.522748 -10.8831
  65 82.8409 1.19280 8.94034
  66 80.4163 0.522748 -10.8831
  67 45.7266 0.783170 2.96912
  68 45.7266 0.783170 2.96912
  69 75.1094 -13.8542 29.1939
  70 75.1094 -13.8542 29.1939
  71 45.3157 -13.4193 -23.2420
  72 113.263 -9.59995 -4.73482
  73 125.355 6.96350 0.0658561
  74 119.649 3.24926 -1.59135
  75 45.3157 -13.4193 -23.2420
  76 113.263 -9.59995 -4.73482
  77 125.355 6.96350 0.0658561
  78 119.649 3.24926 -1.59135
  79 111.083 -5.15376 2.11820
  80 111.083 -5.15376 2.11820
  81 143.625 10.6271 0.629831
  82 143.625 10.6271 0.629831
  83 23.9155 -15.8397 -1.96537
  84 23.9155 -15.8397 -1.96537
  85 31.3310 -21.1050 19.8984
  86 31.3310 -21.1050 19.8984
  87 120.176 -7.02197 3.19875
  88 120.176 -7.02197 3.19875
  89 94.9292 2.16093 1.41116
  90 95.3491 2.35903 -1.43868
  91 94.9292 2.16093 1.41116
  92 95.3491 2.35903 -1.43868
  93 137.937 6.93357 4.27272
  94 137.937 6.93357 4.27272
  95 98.4022 0.960539 4.11247
  96 98.4022 0.960539 4.11247
  97 148.877 10.9363 -4.95300
  98 151.210 8.40532 -10.2445
  99 148.877 10.9363 -4.95300
  100 151.210 8.40532 -10.2445
  101 95.8340 1.52102 -5.03929
  102 95.8340 1.52102 -5.03929
  103 78.5435 -15.8879 -34.1066
  104 78.5435 -15.8879 -34.1066
  105 66.5221 -18.2050 35.9744
  106 66.5221 -18.2050 35.9744
  107 122.867 -9.72990 -12.5873
  108 122.867 -9.72990 -12.5873
  109 91.4324 -11.2307 -20.2284
  110 91.4324 -11.2307 -20.2284
  111 158.219 10.7206 7.80872
  112 158.219 10.7206 7.80872
  113 11.8842 -39.0187 -13.0161
  114 11.8842 -39.0187 -13.0161
  115 6.96809 -45.6268 3.83045
  116 6.96809 -45.6268 3.83045
  117 81.8032 5.22164 -1.05930
  118 81.8032 5.22164 -1.05930
  119 100.058 -3.88336 -7.86687
  120 100.058 -3.88336 -7.86687
  121 169.260 4.80724 -3.84559
  122 169.260 4.80724 -3.84559
  123 18.8634 -38.8960 21.9837
  124 18.8634 -38.8960 21.9837
  125 89.7326 3.12402 4.68161
  126 89.7326 3.12402 4.68161
  127 22.2761 -31.6593 -24.6132
  128 22.2761 -31.6593 -24.6132
  129 121.247 -8.49113 18.7975
  130 121.247 -8.49113 18.7975
  131 172.251 8.47325 -11.5498
  132 172.251 8.47325 -11.5498
  133 8.72742 -52.1378 -3.69207
  134 8.72742 -52.1378 -3.69207
  135 10.5151 -50.3523 9.38584
  136 10.5151 -50.3523 9.38584
  137 98.2394 0.967802 -2.43773
  138 98.2394 0.967802 -2.43773
  139 93.1862 3.27732 -0.174434
  140 93.1862 3.27732 -0.174434
  141 95.5116 1.68594 -0.0231119
  142 95.5116 1.68594 -0.0231119
  143 98.4925 -1.96870 6.94612
  144 98.4925 -1.96870 6.94612
  145 68.0424 -1.86482 16.2296
  146 99.4164 -9.12816 13.6675
  147 67.2296 3.84330 0.362880
  148 68.0424 -1.86482 16.2296
  149 99.4164 -9.12816 13.6675
  150 67.2296 3.84330 0.362880
  151 88.5816 1.60523 -7.42842
  152 88.5816 1.60523 -7.42842
  153 167.849 4.98093 2.90417
  154 167.849 4.98093 2.90417
  155 174.454 4.11813 7.33867
  156 174.729 8.15827 14.1415
  157 174.454 4.11813 7.33867
  158 174.729 8.15827 14.1415
  159 96.6215 1.13424 0.826720
  160 96.6215 1.13424 0.826720
  161 60.1060 -2.59934 -13.8069
  162 60.1060 -2.59934 -13.8069
  163 96.6274 1.10454 -0.812048
  164 96.6274 1.10454 -0.812048
  165 97.2383 1.32749 2.23858
  166 97.2383 1.32749 2.23858
  167 113.967 -0.988339 3.09764
  168 111.511 -3.99365 -0.178589
  169 113.967 -0.988339 3.09764
  170 111.511 -3.99365 -0.178589
  171 123.128 -3.15217 1.13241
  172 123.128 -3.15217 1.13241
  173 93.2767 2.96453 2.56294
  174 93.2767 2.96453 2.56294
  175 46.3314 -5.20914 18.5529
  176 46.3314 -5.20914 18.5529
  177 40.9980 -2.47844 -11.7278
  178 40.9980 -2.47844 -11.7278
  179 94.0961 3.19257 -2.44927
  180 94.0961 3.19257 -2.44927
</Section>

newXOutput 29

<Section columns = "stress_xx | stress_yy | stress_xy">
  1 100.429 0.715854 -0.422189
  2 100.338 0.556392 0.380229
  3 100.429 0.715854 -0.422189
  4 100.338 0.556392 0.380229
  5 151.064 3.78135 37.2054
  6 148.523 2.78852 -34.3706
  7 151.064 3.78135 37.2054
  8 148.523 2.78852 -34.3706
  9 101.514 0.205174 -1.33971
  10 105.969 0.0221064 -2.19442
  11 108.718 -1.21844 -2.76724
  12 114.191 -0.576711 1.75090
  13 113.828 3.44882 1.11080
  14 114.486 -0.583380 -2.25995
  15 109.890 -1.90159 2.75561
  16 104.544 0.479814 2.56365
  17 101.616 0.677548 1.19915
  18 99.7497 1.18322 0.210262
  19 99.1414 1.19861 -0.0163777
  20 99.6995 1.09187 -0.190952
  21 101.514 0.205174 -1.33971
  22 105.969 0.0221064 -2.19442
  23 108.718 -1.21844 -2.76724
  24 114.191 -0.576711 1.75090
  25 113.828 3.44882 1.11080
  26 114.486 -0.583380 -2.25995
  27 109.890 -1.90159 2.75561
  28 104.544 0.479814 2.56365
  29 101.616 0.677548 1.19915
  30 99.7497 1.18322 0.210262
  31 99.1414 1.19861 -0.0163777
  32 99.6995 1.09187 -0.190952
  33 223.799 1.80394 16.2658
  34 194.349 2.03234 10.6312
  35 186.679 3.73022 4.29268
  36 180.836 2.27693 -1.12916
  37 191.874 0.716286 -4.09894
  38 196.333 3.73323 -9.68575
  39 204.311 13.1469 -19.8288
  40 49.9505 -29.2015 -41.7539
  41 9.94519 -53.4871 -16.9401
  42 4.00135 -72.1036 -5.35382
  43 2.78730 -76.2902 -0.583209
  44 3.35141 -73.0621 5.41543
  45 9.13389 -63.5009 14.5780
  46 40.5947 -29.5263 40.9356
  47 223.799 1.80394 16.2658
  48 194.349 2.03234 10.6312
  49 186.679 3.73022 4.29268
  50 180.836 2.27693 -1.12916
  51 191.874 0.716286 -4.09894
  52 196.333 3.73323 -9.68575
  53 204.311 13.1469 -19.8288
  54 49.9505 -29.2015 -41.7539
  55 9.94519 -53.4871 -16.9401
  56 4.00135 -72.1036 -5.35382
  57 2.78730 -76.2902 -0.583209
  58 3.35141 -73.0621 5.41543
  59 9.13389 -63.5009 14.5780
  60 40.5947 -29.5263 40.9356
  61 92.6892 3.98010 -1.72547
  62 92.6892 3.98010 -1.72547
  63 85.8801 1.23690 9.26749
  64 83.3670 0.542286 -11.2813
  65 85.8801 1.23690 9.26749
  66 83.3670 0.542286 -11.2813
  67 47.4140 0.815175 3.07845
  68 47.4140 0.815175 3.07845
  69 77.8580 -14.3629 30.2705
  70 77.8580 -14.3629 30.2705
  71 46.9812 -13.9086 -24.1027
  72 117.399 -9.95146 -4.91448
  73 129.937 7.21981 0.0634945
  74 124.023 3.36927 -1.64402
  75 46.9812 -13.9086 -24.1027
  76 117.399 -9.95146 -4.91448
  77 129.937 7.21981 0.0634945
  78 124.023 3.36927 -1.64402
  79 115.143 -5.34253 2.20039
  80 115.143 -5.34253 2.20039
  81 148.863 11.0146 0.655032
  82 148.863 11.0146 0.655032
  83 24.7982 -16.4157 -2.03854
  84 24.7982 -16.4157 -2.03854
  85 32.4823 -21.8752 20.6390
  86 32.4823 -21.8752 20.6390
  87 124.564 -7.27715 3.32563
  88 124.564 -7.27715 3.32563
  89 98.4065 2.23948 1.46204
  90 98.8414 2.44484 -1.49055
  91 98.4065 2.23948 1.46204
  92 98.8414 2.44484 -1.49055
  93 142.968 7.19132 4.43949
  94 142.968 7.19132 4.43949
  95 102.004 0.995442 4.26196
  96 102.004 0.995442 4.26196
  97 154.304 11.3353 -5.13826
  98 156.714 8.71896 -10.6297
  99 154.304 11.3353 -5.13826
  100 156.714 8.71896 -10.6297
  101 99.3434 1.57646 -5.22282
  102 99.3434 1.57646 -5.22282
  103 81.4088 -16.4601 -35.3714
  104 81.4088 -16.4601 -35.3714
  105 68.9507 -18.8617 37.3098
  106 68.9507 -18.8617 37.3098
  107 127.346 -10.0813 -13.0608
  108 127.346 -10.0813 -13.0608
  109 94.7764 -11.6428 -20.9736
  110 94.7764 -11.6428 -20.9736
  111 163.977 11.1126 8.09788
  112 163.977 11.1126 8.09788
  113 12.3220 -40.4490 -13.5046
  114 12.3220 -40.4490 -13.5046
  115 7.22367 -47.3041 3.97512
  116 7.22367 -47.3041 3.97512
  117 84.8065 5.41325 -1.09781
  118 84.8065 5.41325 -1.09781
  119 103.719 -4.02594 -8.15612
  120 103.719 -4.02594 -8.15612
  121 175.405 4.98067 -3.98538
  122 175.405 4.98067 -3.98538
  123 19.5576 -40.3150 22.8095
  124 19.5576 -40.3150 22.8095
  125 93.0224 3.23829 4.85212
  126 93.0224 3.23829 4.85212
  127 23.0963 -32.8122 -25.5344
  128 23.0963 -32.8122 -25.5344
  129 125.667 -8.79649 19.4981
  130 125.667 -8.79649 19.4981
  131 178.504 8.78218 -11.9742
  132 178.504 8.78218 -11.9742
  133 9.04746 -54.0573 -3.83077
  134 9.04746 -54.0573 -3.83077
  135 10.9014 -52.2018 9.74173
  136 10.9014 -52.2018 9.74173
  137 101.835 1.00299 -2.52603
  138 101.835 1.00299 -2.52603
  139 96.6011 3.39661 -0.180765
  140 96.6011 3.39661 -0.180765
  141 99.0097 1.74711 -0.0239434
  142 99.0097 1.74711 -0.0239434
  143 102.097 -2.04104 7.20062
  144 102.097 -2.04104 7.20062
  145 70.5425 -1.93222 16.8255
  146 103.051 -9.46296 14.1717
  147 69.7036 3.98546 0.376491
  148 70.5425 -1.93222 16.8255
  149 103.051 -9.46296 14.1717
  150 69.7036 3.98546 0.376491
  151 91.8291 1.66408 -7.69938
  152 91.8291 1.66408 -7.69938
  153 173.945 5.16027 3.01059
  154 173.945 5.16027 3.01059
  155 180.785 4.26656 7.60571
  156 181.071 8.46204 14.6641
  157 180.785 4.26656 7.60571
  158 181.071 8.46204 14.6641
  159 100.159 1.17541 0.856437
  160 100.159 1.17541 0.856437
  161 62.3174 -2.69348 -14.3142
  162 62.3174 -2.69348 -14.3142
  163 100.165 1.14463 -0.841233
  164 100.165 1.14463 -0.841233
  165 100.798 1.37579 2.31939
  166 100.798 1.37579 2.31939
  167 118.135 -1.02366 3.20513
  168 115.586 -4.14034 -0.189068
  169 118.135 -1.02366 3.20513
  170 115.586 -4.14034 -0.189068
  171 127.623 -3.26468 1.16316
  172 127.623 -3.26468 1.16316
  173 96.6946 3.07259 2.65579
  174 96.6946 3.07259 2.65579
  175 48.0375 -5.39720 19.2373
  176 48.0375 -5.39720 19.2373
  177 42.5105 -2.56519 -12.1603
  178 42.5105 -2.56519 -12.1603
  179 97.5436 3.30896 -2.53808
  180 97.5436 3.30896 -2.53808
</Section>

newXOutput 30

<Section columns = "stress_xx | stress_yy | stress_xy">
  1 103.972 0.740870 -0.436790
  2 103.878 0.575815 0.393372
  3 103.972 0.740870 -0.436790
  4 103.878 0.575815 0.393372
  5 156.345 3.93610 38.5314
  6 153.722 2.90828 -35.6000
  7 156.345 3.93610 38.5314
  8 153.722 2.90828 -35.6000
  9 105.095 0.212229 -1.38627
  10 109.704 0.0228979 -2.27095
  11 112.550 -1.26174 -2.86549
  12 118.218 -0.597080 1.80931
  13 117.848 3.57120 1.14898
  14 118.523 -0.603788 -2.33558
  15 113.762 -1.96903 2.85361
  16 108.229 0.496593 2.65308
  17 105.201 0.701267 1.24069
  18 103.270 1.22453 0.217532
  19 102.641 1.24043 -0.0169412
  20 103.218 1.12998 -0.197556
  21 105.095 0.212229 -1.38627
  22 109.704 0.0228979 -2.27095
  23 112.550 -1.26174 -2.86549
  24 118.218 -0.597080 1.80931
  25 117.848 3.57120 1.14898
  26 118.523 -0.603788 -2.33558
  27 113.762 -1.96903 2.85361
  28 108.229 0.496593 2.65308
  29 105.201 0.701267 1.24069
  30 103.270 1.22453 0.217532
  31 102.641 1.24043 -0.0169412
  32 103.218 1.12998 -0.197556
  33 231.592 1.86807 16.8387
  34 201.129 2.10105 11.0041
  35 193.195 3.85975 4.44206
  36 187.152 2.35495 -1.16814
  37 198.563 0.740895 -4.24209
  38 203.181 3.86410 -10.0248
  39 211.441 13.6163 -20.5325
  40 51.7064 -30.2098 -43.2517
  41 10.2976 -55.3742 -17.5564
  42 4.14183 -74.6715 -5.55032
  43 2.88368 -79.0116 -0.603826
  44 3.46805 -75.6635 5.61383
  45 9.45712 -65.7476 15.1102
  46 42.0231 -30.5460 42.4052
  47 231.592 1.86807 16.8387
  48 201.129 2.10105 11.0041
  49 193.195 3.85975 4.44206
  50 187.152 2.35495 -1.16814
  51 198.563 0.740895 -4.24209
  52 203.181 3.86410 -10.0248
  53 211.441 13.6163 -20.5325
  54 51.7064 -30.2098 -43.2517
  55 10.2976 -55.3742 -17.5564
  56 4.14183 -74.6715 -5.55032
  57 2.88368 -79.0116 -0.603826
  58 3.46805 -75.6635 5.61383
  59 9.45712 -65.7476 15.1102
  60 42.0231 -30.5460 42.4052
  61 95.9656 4.12028 -1.78597
  62 95.9656 4.12028 -1.78597
  63 88.9173 1.28100 9.59436
  64 86.3158 0.561836 -11.6792
  65 88.9173 1.28100 9.59436
  66 86.3158 0.561836 -11.6792
  67 49.1008 0.847389 3.18772
  68 49.1008 0.847389 3.18772
  69 80.6041 -14.8714 31.3467
  70 80.6041 -14.8714 31.3467
  71 48.6457 -14.3974 -24.9633
  72 121.532 -10.3027 -5.09443
  73 134.514 7.47602 0.0607995
  74 128.394 3.48926 -1.69625
  75 48.6457 -14.3974 -24.9633
  76 121.532 -10.3027 -5.09443
  77 134.514 7.47602 0.0607995
  78 128.394 3.48926 -1.69625
  79 119.199 -5.53114 2.28284
  80 119.199 -5.53114 2.28284
  81 154.094 11.4017 0.680361
  82 154.094 11.4017 0.680361
  83 25.6807 -16.9909 -2.11173
  84 25.6807 -16.9909 -2.11173
  85 33.6329 -22.6445 21.3799
  86 33.6329 -22.6445 21.3799
  87 128.946 -7.53198 3.45309
  88 128.946 -7.53198 3.45309
  89 101.881 2.31793 1.51283
  90 102.331 2.53054 -1.54233
  91 101.881 2.31793 1.51283
  92 102.331 2.53054 -1.54233
  93 147.993 7.44913 4.60685
  94 147.993 7.44913 4.60685
  95 105.602 1.03030 4.41124
  96 105.602 1.03030 4.41124
  97 159.724 11.7339 -5.32364
  98 162.212 9.03277 -11.0153
  99 159.724 11.7339 -5.32364
  100 162.212 9.03277 -11.0153
  101 102.850 1.63184 -5.40614
  102 102.850 1.63184 -5.40614
  103 84.2710 -17.0311 -36.6363
  104 84.2710 -17.0311 -36.6363
  105 71.3768 -19.5171 38.6453
  106 71.3768 -19.5171 38.6453
  107 131.820 -10.4320 -13.5348
  108 131.820 -10.4320 -13.5348
  109 98.1174 -12.0546 -21.7186
  110 98.1174 -12.0546 -21.7186
  111 169.727 11.5041 8.38702
  112 169.727 11.5041 8.38702
  113 12.7596 -41.8783 -13.9937
  114 12.7596 -41.8783 -13.9937
  115 7.47907 -48.9805 4.11999
  116 7.47907 -48.9805 4.11999
  117 87.8079 5.60473 -1.13627
  118 87.8079 5.60473 -1.13627
  119 107.376 -4.16844 -8.44521
  120 107.376 -4.16844 -8.44521
  121 181.540 5.15379 -4.12498
  122 181.540 5.15379 -4.12498
  123 20.2516 -41.7324 23.6361
  124 20.2516 -41.7324 23.6361
  125 96.3098 3.35245 5.02243
  126 96.3098 3.35245 5.02243
  127 23.9162 -33.9638 -26.4562
  128 23.9162 -33.9638 -26.4562
  129 130.082 -9.10121 20.1990
  130 130.082 -9.10121 20.1990
  131 184.748 9.09077 -12.3984
  132 184.748 9.09077 -12.3984
  133 9.36727 -55.9760 -3.96960
  134 9.36727 -55.9760 -3.96960
  135 11.2875 -54.0502 10.0982
  136 11.2875 -54.0502 10.0982
  137 105.427 1.03813 -2.61420
  138 105.427 1.03813 -2.61420
  139 100.014 3.51576 -0.187086
  140 100.014 3.51576 -0.187086
  141 102.505 1.80819 -0.0247732
  142 102.505 1.80819 -0.0247732
  143 105.698 -2.11334 7.45493
  144 105.698 -2.11334 7.45493
  145 73.0411 -1.99951 17.4210
  146 106.682 -9.79753 14.6757
  147 72.1764 4.12760 0.390113
  148 73.0411 -1.99951 17.4210
  149 106.682 -9.79753 14.6757
  150 72.1764 4.12760 0.390113
  151 95.0742 1.72289 -7.97005
  152 95.0742 1.72289 -7.97005
  153 180.032 5.33925 3.11692
  154 180.032 5.33925 3.11692
  155 187.106 4.41471 7.87240
  156 187.404 8.76591 15.1867
  157 187.106 4.41471 7.87240
  158 187.404 8.76591 15.1867
  159 103.694 1.21651 0.886091
  160 103.694 1.21651 0.886091
  161 64.5278 -2.78748 -14.8213
  162 64.5278 -2.78748 -14.8213
  163 103.700 1.18466 -0.870356
  164 103.700 1.18466 -0.870356
  165 104.355 1.42402 2.40006
  166 104.355 1.42402 2.40006
  167 122.300 -1.05888 3.31210
  168 119.658 -4.28694 -0.199816
  169 122.300 -1.05888 3.31210
  170 119.658 -4.28694 -0.199816
  171 132.114 -3.37688 1.19312
  172 132.114 -3.37688 1.19312
  173 100.110 3.18053 2.74849
  174 100.110 3.18053 2.74849
  175 49.7428 -5.58492 19.9216
  176 49.7428 -5.58492 19.9216
  177 44.0226 -2.65158 -12.5927
  178 44.0226 -2.65158 -12.5927
  179 100.988 3.42522 -2.62676
  180 100.988 3.42522 -2.62676
</Section>

newXOutput 31

<Section columns = "stress_xx | stress_yy | stress_xy">
  1 107.513 0.765849 -0.451360
  2 107.416 0.595208 0.406484
  3 107.513 0.765849 -0.451360
  4 107.416 0.595208 0.406484
  5 161.618 4.09218 39.8571
  6 158.914 3.02942 -36.8294
  7 161.618 4.09218 39.8571
  8 158.914 3.02942 -36.8294
  9 108.673 0.219266 -1.43276
  10 113.435 0.0236894 -2.34737
  11 116.378 -1.30503 -2.96370
  12 122.241 -0.617434 1.86745
  13 121.864 3.69353 1.18706
  14 122.556 -0.624168 -2.41086
  15 117.630 -2.03643 2.95159
  16 111.912 0.513346 2.74236
  17 108.782 0.724953 1.28215
  18 106.788 1.26578 0.224785
  19 106.139 1.28219 -0.0175032
  20 106.735 1.16804 -0.204145
  21 108.673 0.219266 -1.43276
  22 113.435 0.0236894 -2.34737
  23 116.378 -1.30503 -2.96370
  24 122.241 -0.617434 1.86745
  25 121.864 3.69353 1.18706
  26 122.556 -0.624168 -2.41086
  27 117.630 -2.03643 2.95159
  28 111.912 0.513346 2.74236
  29 108.782 0.724953 1.28215
  30 106.788 1.26578 0.224785
  31 106.139 1.28219 -0.0175032
  32 106.735 1.16804 -0.204145
  33 239.371 1.93218 17.4110
  34 207.898 2.16950 11.3766
  35 199.700 3.98904 4.59119
  36 193.459 2.43275 -1.20704
  37 205.241 0.765439 -4.38502
  38 210.019 3.99481 -10.3633
  39 218.561 14.0857 -21.2359
  40 53.4605 -31.2157 -44.7499
  41 10.6497 -57.2596 -18.1735
  42 4.28215 -77.2388 -5.74718
  43 2.97984 -81.7328 -0.624428
  44 3.58447 -78.2644 5.81258
  45 9.78014 -67.9929 15.6433
  46 43.4500 -31.5634 43.8752
  47 239.371 1.93218 17.4110
  48 207.898 2.16950 11.3766
  49 199.700 3.98904 4.59119
  50 193.459 2.43275 -1.20704
  51 205.241 0.765439 -4.38502
  52 210.019 3.99481 -10.3633
  53 218.561 14.0857 -21.2359
  54 53.4605 -31.2157 -44.7499
  55 10.6497 -57.2596 -18.1735
  56 4.28215 -77.2388 -5.74718
  57 2.97984 -81.7328 -0.624428
  58 3.58447 -78.2644 5.81258
  59 9.78014 -67.9929 15.6433
  60 43.4500 -31.5634 43.8752
  61 99.2398 4.26033 -1.84639
  62 99.2398 4.26033 -1.84639
  63 91.9524 1.32508 9.92095
  64 89.2625 0.581398 -12.0767
  65 91.9524 1.32508 9.92095
  66 89.2625 0.581398 -12.0767
  67 50.7872 0.879811 3.29696
  68 50.7872 0.879811 3.29696
  69 83.3480 -15.3795 32.4226
  70 83.3480 -15.3795 32.4226
  71 50.3094 -14.8856 -25.8240
  72 125.660 -10.6536 -5.27468
  73 139.088 7.73211 0.0577722
  74 132.760 3.60922 -1.74805
  75 50.3094 -14.8856 -25.8240
  76 125.660 -10.6536 -5.27468
  77 139.088 7.73211 0.0577722
  78 132.760 3.60922 -1.74805
  79 123.251 -5.71961 2.36555
  80 123.251 -5.71961 2.36555
  81 159.320 11.7883 0.705817
  82 159.320 11.7883 0.705817
  83 26.5629 -17.5654 -2.18495
  84 26.5629 -17.5654 -2.18495
  85 34.7829 -23.4130 22.1210
  86 34.7829 -23.4130 22.1210
  87 133.324 -7.78647 3.58113
  88 133.324 -7.78647 3.58113
  89 105.353 2.39627 1.56352
  90 105.818 2.61612 -1.59400
  91 105.353 2.39627 1.56352
  92 105.818 2.61612 -1.59400
  93 153.013 7.70701 4.77480
  94 153.013 7.70701 4.77480
  95 109.197 1.06511 4.56033
  96 109.197 1.06511 4.56033
  97 165.138 12.1321 -5.50913
  98 167.704 9.34673 -11.4013
  99 165.138 12.1321 -5.50913
  100 167.704 9.34673 -11.4013
  101 106.354 1.68715 -5.58924
  102 106.354 1.68715 -5.58924
  103 87.1301 -17.6009 -37.9012
  104 87.1301 -17.6009 -37.9012
  105 73.8005 -20.1712 39.9810
  106 73.8005 -20.1712 39.9810
  107 136.289 -10.7821 -14.0094
  108 136.289 -10.7821 -14.0094
  109 101.455 -12.4661 -22.4633
  110 101.455 -12.4661 -22.4633
  111 175.470 11.8953 8.67614
  112 175.470 11.8953 8.67614
  113 13.1970 -43.3065 -14.4831
  114 13.1970 -43.3065 -14.4831
  115 7.73430 -50.6559 4.26505
  116 7.73430 -50.6559 4.26505
  117 90.8075 5.79608 -1.17467
  118 90.8075 5.79608 -1.17467
  119 111.030 -4.31084 -8.73415
  120 111.030 -4.31084 -8.73415
  121 187.667 5.32659 -4.26439
  122 187.667 5.32659 -4.26439
  123 20.9452 -43.1483 24.4635
  124 20.9452 -43.1483 24.4635
  125 99.5948 3.46651 5.19254
  126 99.5948 3.46651 5.19254
  127 24.7357 -35.1140 -27.3787
  128 24.7357 -35.1140 -27.3787
  129 134.492 -9.40528 20.9002
  130 134.492 -9.40528 20.9002
  131 190.984 9.39901 -12.8224
  132 190.984 9.39901 -12.8224
  133 9.68686 -57.8938 -4.10856
  134 9.68686 -57.8938 -4.10856
  135 11.6734 -55.8975 10.4553
  136 11.6734 -55.8975 10.4553
  137 109.017 1.07322 -2.70223
  138 109.017 1.07322 -2.70223
  139 103.423 3.63476 -0.193399
  140 103.423 3.63476 -0.193399
  141 105.998 1.86918 -0.0256013
  142 105.998 1.86918 -0.0256013
  143 109.296 -2.18560 7.70904
  144 109.296 -2.18560 7.70904
  145 75.5383 -2.06668 18.0161
  146 110.310 -10.1319 15.1796
  147 74.6481 4.26973 0.403747
  148 75.5383 -2.06668 18.0161
  149 110.310 -10.1319 15.1796
  150 74.6481 4.26973 0.403747
  151 98.3170 1.78165 -8.24042
  152 98.3170 1.78165 -8.24042
  153 186.111 5.51787 3.22317
  154 186.111 5.51787 3.22317
  155 193.419 4.56257 8.13876
  156 193.728 9.06990 15.7092
  157 193.419 4.56257 8.13876
  158 193.728 9.06990 15.7092
  159 107.225 1.25756 0.915682
  160 107.225 1.25756 0.915682
  161 66.7371 -2.88133 -15.3281
  162 66.7371 -2.88133 -15.3281
  163 107.232 1.22463 -0.899417
  164 107.232 1.22463 -0.899417
  165 107.908 1.47220 2.48057
  166 107.908 1.47220 2.48057
  167 126.460 -1.09402 3.41858
  168 123.725 -4.43345 -0.210832
  169 126.460 -1.09402 3.41858
  170 123.725 -4.43345 -0.210832
  171 136.601 -3.48879 1.22231
  172 136.601 -3.48879 1.22231
  173 103.523 3.28834 2.84105
  174 103.523 3.28834 2.84105
  175 51.4474 -5.77231 20.6057
  176 51.4474 -5.77231 20.6057
  177 45.5343 -2.73763 -13.0250
  178 45.5343 -2.73763 -13.0250
  179 104.431 3.54134 -2.71530
  180 104.431 3.54134 -2.71530
</Section>

newXOutput 32

<Section columns = "stress_xx | stress_yy | stress_xy">
  1 111.051 0.790790 -0.465898
  2 110.951 0.614571 0.419567
  3 111.051 0.790790 -0.465898
  4 110.951 0.614571 0.419567
  5 166.883 4.24960 41.1827
  6 164.098 3.15192 -38.0590
  7 166.883 4.24960 41.1827
  8 164.098 3.15192 -38.0590
  9 112.248 0.226284 -1.47915
  10 117.163 0.0244812 -2.42366
  11 120.202 -1.34831 -3.06187
  12 126.260 -0.637772 1.92530
  13 125.878 3.81581 1.22504
  14 126.586 -0.644517 -2.48579
  15 121.495 -2.10380 3.04954
  16 115.591 0.530076 2.83149
  17 112.361 0.748606 1.32352
  18 110.303 1.30696 0.232022
  19 109.633 1.32388 -0.0180638
  20 110.248 1.20604 -0.210719
  21 112.248 0.226284 -1.47915
  22 117.163 0.0244812 -2.42366
  23 120.202 -1.34831 -3.06187
  24 126.260 -0.637772 1.92530
  25 125.878 3.81581 1.22504
  26 126.586 -0.644517 -2.48579
  27 121.495 -2.10380 3.04954
  28 115.591 0.530076 2.83149
  29 112.361 0.748606 1.32352
  30 110.303 1.30696 0.232022
  31 109.633 1.32388 -0.0180638
  32 110.248 1.20604 -0.210719
  33 247.136 1.99627 17.9828
  34 214.657 2.23770 11.7486
  35 206.196 4.11808 4.74004
  36 199.756 2.51033 -1.24584
  37 211.908 0.789918 -4.52772
  38 216.846 4.12536 -10.7014
  39 225.669 14.5551 -21.9389
  40 55.2127 -32.2192 -46.2486
  41 11.0017 -59.1435 -18.7913
  42 4.42231 -79.8057 -5.94441
  43 3.07580 -84.4537 -0.645015
  44 3.70069 -80.8647 6.01168
  45 10.1030 -70.2367 16.1772
  46 44.8754 -32.5784 45.3458
  47 247.136 1.99627 17.9828
  48 214.657 2.23770 11.7486
  49 206.196 4.11808 4.74004
  50 199.756 2.51033 -1.24584
  51 211.908 0.789918 -4.52772
  52 216.846 4.12536 -10.7014
  53 225.669 14.5551 -21.9389
  54 55.2127 -32.2192 -46.2486
  55 11.0017 -59.1435 -18.7913
  56 4.42231 -79.8057 -5.94441
  57 3.07580 -84.4537 -0.645015
  58 3.70069 -80.8647 6.01168
  59 10.1030 -70.2367 16.1772
  60 44.8754 -32.5784 45.3458
  61 102.512 4.40024 -1.90674
  62 102.512 4.40024 -1.90674
  63 94.9855 1.36916 10.2473
  64 92.2074 0.600972 -12.4738
  65 94.9855 1.36916 10.2473
  66 92.2074 0.600972 -12.4738
  67 52.4732 0.912441 3.40614
  68 52.4732 0.912441 3.40614
  69 86.0895 -15.8873 33.4981
  70 86.0895 -15.8873 33.4981
  71 51.9721 -15.3733 -26.6846
  72 129.784 -11.0043 -5.45523
  73 143.656 7.98809 0.0544135
  74 137.123 3.72916 -1.79941
  75 51.9721 -15.3733 -26.6846
  76 129.784 -11.0043 -5.45523
  77 143.656 7.98809 0.0544135
  78 137.123 3.72916 -1.79941
  79 127.299 -5.90793 2.44852
  80 127.299 -5.90793 2.44852
  81 164.540 12.1746 0.731400
  82 164.540 12.1746 0.731400
  83 27.4450 -18.1392 -2.25820
  84 27.4450 -18.1392 -2.25820
  85 35.9322 -24.1808 22.8623
  86 35.9322 -24.1808 22.8623
  87 137.698 -8.04061 3.70976
  88 137.698 -8.04061 3.70976
  89 108.822 2.47451 1.61411
  90 109.302 2.70160 -1.64558
  91 108.822 2.47451 1.61411
  92 109.302 2.70160 -1.64558
  93 158.027 7.96495 4.94332
  94 158.027 7.96495 4.94332
  95 112.789 1.09987 4.70921
  96 112.789 1.09987 4.70921
  97 170.545 12.5298 -5.69475
  98 173.188 9.66086 -11.7877
  99 170.545 12.5298 -5.69475
  100 173.188 9.66086 -11.7877
  101 109.855 1.74240 -5.77212
  102 109.855 1.74240 -5.77212
  103 89.9862 -18.1696 -39.1662
  104 89.9862 -18.1696 -39.1662
  105 76.2216 -20.8242 41.3170
  106 76.2216 -20.8242 41.3170
  107 140.753 -11.1316 -14.4844
  108 140.753 -11.1316 -14.4844
  109 104.790 -12.8773 -23.2077
  110 104.790 -12.8773 -23.2077
  111 181.206 12.2862 8.96525
  112 181.206 12.2862 8.96525
  113 13.6342 -44.7336 -14.9731
  114 13.6342 -44.7336 -14.9731
  115 7.98935 -52.3305 4.41032
  116 7.98935 -52.3305 4.41032
  117 93.8052 5.98730 -1.21303
  118 93.8052 5.98730 -1.21303
  119 114.681 -4.45316 -9.02294
  120 114.681 -4.45316 -9.02294
  121 193.786 5.49907 -4.40361
  122 193.786 5.49907 -4.40361
  123 21.6386 -44.5627 25.2917
  124 21.6386 -44.5627 25.2917
  125 102.877 3.58047 5.36244
  126 102.877 3.58047 5.36244
  127 25.5549 -36.2627 -28.3018
  128 25.5549 -36.2627 -28.3018
  129 138.897 -9.70871 21.6017
  130 138.897 -9.70871 21.6017
  131 197.211 9.70692 -13.2460
  132 197.211 9.70692 -13.2460
  133 10.0062 -59.8109 -4.24767
  134 10.0062 -59.8109 -4.24767
  135 12.0590 -57.7436 10.8129
  136 12.0590 -57.7436 10.8129
  137 112.603 1.10827 -2.79011
  138 112.603 1.10827 -2.79011
  139 106.831 3.75362 -0.199703
  140 106.831 3.75362 -0.199703
  141 109.487 1.93008 -0.0264277
  142 109.487 1.93008 -0.0264277
  143 112.891 -2.25782 7.96296
  144 112.891 -2.25782 7.96296
  145 78.0341 -2.13373 18.6108
  146 113.934 -10.4660 15.6833
  147 77.1186 4.41184 0.417392
  148 78.0341 -2.13373 18.6108
  149 113.934 -10.4660 15.6833
  150 77.1186 4.41184 0.417392
  151 101.557 1.84037 -8.51050
  152 101.557 1.84037 -8.51050
  153 192.182 5.69614 3.32934
  154 192.182 5.69614 3.32934
  155 199.722 4.71015 8.40477
  156 200.043 9.37400 16.2315
  157 199.722 4.71015 8.40477
  158 200.043 9.37400 16.2315
  159 110.754 1.29855 0.945210
  160 110.754 1.29855 0.945210
  161 68.9454 -2.97504 -15.8346
  162 68.9454 -2.97504 -15.8346
  163 110.761 1.26455 -0.928415
  164 110.761 1.26455 -0.928415
  165 111.459 1.52032 2.56094
  166 111.459 1.52032 2.56094
  167 130.617 -1.12906 3.52455
  168 127.788 -4.57987 -0.222115
  169 130.617 -1.12906 3.52455
  170 127.788 -4.57987 -0.222115
  171 141.083 -3.60039 1.25072
  172 141.083 -3.60039 1.25072
  173 106.933 3.39603 2.93346
  174 106.933 3.39603 2.93346
  175 53.1513 -5.95935 21.2895
  176 53.1513 -5.95935 21.2895
  177 47.0456 -2.82332 -13.4572
  178 47.0456 -2.82332 -13.4572
  179 107.870 3.65734 -2.80371
  180 107.870 3.65734 -2.80371
</Section>

newXOutput 33

<Section columns = "stress_xx | stress_yy | stress_xy">
  1 114.586 0.815695 -0.480403
  2 114.483 0.633903 0.432621
  3 114.586 0.815695 -0.480403
  4 114.483 0.633903 0.432621
  5 172.141 4.40834 42.5080
  6 169.276 3.27578 -39.2886
  7 172.141 4.40834 42.5080
  8 169.276 3.27578 -39.2886
  9 115.820 0.233283 -1.52546
  10 120.887 0.0252731 -2.49982
  11 124.024 -1.39157 -3.16000
  12 130.276 -0.658094 1.98289
  13 129.888 3.93804 1.26292
  14 130.612 -0.664838 -2.56039
  15 125.356 -2.17114 3.14746
  16 119.267 0.546782 2.92049
  17 115.936 0.772227 1.36480
  18 113.815 1.34809 0.239243
  19 113.124 1.36551 -0.0186230
  20 113.758 1.24397 -0.217279
  21 115.820 0.233283 -1.52546
  22 120.887 0.0252731 -2.49982
  23 124.024 -1.39157 -3.16000
  24 130.276 -0.658094 1.98289
  25 129.888 3.93804 1.26292
  26 130.612 -0.664838 -2.56039
  27 125.356 -2.17114 3.14746
  28 119.267 0.546782 2.92049
  29 115.936 0.772227 1.36480
  30 113.815 1.34809 0.239243
  31 113.124 1.36551 -0.0186230
  32 113.758 1.24397 -0.217279
  33 254.889 2.06034 18.5540
  34 221.405 2.30564 12.1202
  35 212.681 4.24688 4.88864
  36 206.043 2.58769 -1.28455
  37 218.564 0.814334 -4.67021
  38 223.662 4.25573 -11.0390
  39 232.766 15.0245 -22.6415
  40 56.9629 -33.2204 -47.7476
  41 11.3534 -61.0258 -19.4099
  42 4.56230 -82.3720 -6.14200
  43 3.17153 -87.1745 -0.665587
  44 3.81670 -83.4644 6.21111
  45 10.4256 -72.4790 16.7119
  46 46.2993 -33.5910 46.8168
  47 254.889 2.06034 18.5540
  48 221.405 2.30564 12.1202
  49 212.681 4.24688 4.88864
  50 206.043 2.58769 -1.28455
  51 218.564 0.814334 -4.67021
  52 223.662 4.25573 -11.0390
  53 232.766 15.0245 -22.6415
  54 56.9629 -33.2204 -47.7476
  55 11.3534 -61.0258 -19.4099
  56 4.56230 -82.3720 -6.14200
  57 3.17153 -87.1745 -0.665587
  58 3.81670 -83.4644 6.21111
  59 10.4256 -72.4790 16.7119
  60 46.2993 -33.5910 46.8168
  61 105.781 4.54002 -1.96701
  62 105.781 4.54002 -1.96701
  63 98.0166 1.41324 10.5733
  64 95.1502 0.620557 -12.8707
  65 98.0166 1.41324 10.5733
  66 95.1502 0.620557 -12.8707
  67 54.1587 0.945278 3.51528
  68 54.1587 0.945278 3.51528
  69 88.8286 -16.3947 34.5733
  70 88.8286 -16.3947 34.5733
  71 53.6340 -15.8605 -27.5452
  72 133.905 -11.3546 -5.63606
  73 148.221 8.24396 0.0507243
  74 141.481 3.84908 -1.85034
  75 53.6340 -15.8605 -27.5452
  76 133.905 -11.3546 -5.63606
  77 148.221 8.24396 0.0507243
  78 141.481 3.84908 -1.85034
  79 131.344 -6.09610 2.53175
  80 131.344 -6.09610 2.53175
  81 169.754 12.5604 0.757110
  82 169.754 12.5604 0.757110
  83 28.3269 -18.7122 -2.33147
  84 28.3269 -18.7122 -2.33147
  85 37.0809 -24.9477 23.6039
  86 37.0809 -24.9477 23.6039
  87 142.067 -8.29441 3.83896
  88 142.067 -8.29441 3.83896
  89 112.288 2.55264 1.66461
  90 112.783 2.78697 -1.69706
  91 112.288 2.55264 1.66461
  92 112.783 2.78697 -1.69706
  93 163.036 8.22296 5.11243
  94 163.036 8.22296 5.11243
  95 116.379 1.13458 4.85790
  96 116.379 1.13458 4.85790
  97 175.947 12.9271 -5.88047
  98 178.666 9.97515 -12.1745
  99 175.947 12.9271 -5.88047
  100 178.666 9.97515 -12.1745
  101 113.353 1.79759 -5.95478
  102 113.353 1.79759 -5.95478
  103 92.8392 -18.7371 -40.4314
  104 92.8392 -18.7371 -40.4314
  105 78.6402 -21.4759 42.6531
  106 78.6402 -21.4759 42.6531
  107 145.212 -11.4804 -14.9600
  108 145.212 -11.4804 -14.9600
  109 108.122 -13.2883 -23.9518
  110 108.122 -13.2883 -23.9518
  111 186.935 12.6767 9.25434
  112 186.935 12.6767 9.25434
  113 14.0713 -46.1597 -15.4634
  114 14.0713 -46.1597 -15.4634
  115 8.24423 -54.0042 4.55579
  116 8.24423 -54.0042 4.55579
  117 96.8010 6.17840 -1.25133
  118 96.8010 6.17840 -1.25133
  119 118.328 -4.59539 -9.31158
  120 118.328 -4.59539 -9.31158
  121 199.895 5.67123 -4.54265
  122 199.895 5.67123 -4.54265
  123 22.3316 -45.9756 26.1207
  124 22.3316 -45.9756 26.1207
  125 106.158 3.69433 5.53214
  126 106.158 3.69433 5.53214
  127 26.3737 -37.4101 -29.2257
  128 26.3737 -37.4101 -29.2257
  129 143.297 -10.0115 22.3035
  130 143.297 -10.0115 22.3035
  131 203.429 10.0145 -13.6695
  132 203.429 10.0145 -13.6695
  133 10.3254 -61.7271 -4.38691
  134 10.3254 -61.7271 -4.38691
  135 12.4445 -59.5887 11.1712
  136 12.4445 -59.5887 11.1712
  137 116.187 1.14327 -2.87786
  138 116.187 1.14327 -2.87786
  139 110.235 3.87233 -0.205997
  140 110.235 3.87233 -0.205997
  141 112.975 1.99090 -0.0272523
  142 112.975 1.99090 -0.0272523
  143 116.483 -2.33000 8.21668
  144 116.483 -2.33000 8.21668
  145 80.5285 -2.20067 19.2052
  146 117.555 -10.7998 16.1869
  147 79.5880 4.55393 0.431050
  148 80.5285 -2.20067 19.2052
  149 117.555 -10.7998 16.1869
  150 79.5880 4.55393 0.431050
  151 104.796 1.89905 -8.78029
  152 104.796 1.89905 -8.78029
  153 198.244 5.87405 3.43543
  154 198.244 5.87405 3.43543
  155 206.017 4.85744 8.67045
  156 206.349 9.67820 16.7538
  157 206.017 4.85744 8.67045
  158 206.349 9.67820 16.7538
  159 114.280 1.33948 0.974675
  160 114.280 1.33948 0.974675
  161 71.1526 -3.06859 -16.3408
  162 71.1526 -3.06859 -16.3408
  163 114.287 1.30440 -0.957352
  164 114.287 1.30440 -0.957352
  165 115.007 1.56837 2.64117
  166 115.007 1.56837 2.64117
  167 134.770 -1.16401 3.63001
  168 131.848 -4.72621 -0.233665
  169 134.770 -1.16401 3.63001
  170 131.848 -4.72621 -0.233665
  171 145.560 -3.71170 1.27835
  172 145.560 -3.71170 1.27835
  173 110.340 3.50361 3.02573
  174 110.340 3.50361 3.02573
  175 54.8545 -6.14605 21.9732
  176 54.8545 -6.14605 21.9732
  177 48.5564 -2.90866 -13.8892
  178 48.5564 -2.90866 -13.8892
  179 111.307 3.77321 -2.89198
  180 111.307 3.77321 -2.89198
</Section>

newXOutput 34

<Section columns = "stress_xx | stress_yy | stress_xy">
  1 118.118 0.840562 -0.494877
  2 118.012 0.653205 0.445645
  3 118.118 0.840562 -0.494877
  4 118.012 0.653205 0.445645
  5 177.391 4.56841 43.8331
  6 174.446 3.40101 -40.5184
  7 177.391 4.56841 43.8331
  8 174.446 3.40101 -40.5184
  9 119.389 0.240265 -1.57169
  10 124.608 0.0260652 -2.57586
  11 127.841 -1.43481 -3.25809
  12 134.289 -0.678401 2.04019
  13 133.895 4.06021 1.30070
  14 134.635 -0.685129 -2.63465
  15 129.214 -2.23844 3.24535
  16 122.939 0.563463 3.00934
  17 119.509 0.795816 1.40599
  18 117.325 1.38915 0.246448
  19 116.613 1.40707 -0.0191807
  20 117.266 1.28185 -0.223825
  21 119.389 0.240265 -1.57169
  22 124.608 0.0260652 -2.57586
  23 127.841 -1.43481 -3.25809
  24 134.289 -0.678401 2.04019
  25 133.895 4.06021 1.30070
  26 134.635 -0.685129 -2.63465
  27 129.214 -2.23844 3.24535
  28 122.939 0.563463 3.00934
  29 119.509 0.795816 1.40599
  30 117.325 1.38915 0.246448
  31 116.613 1.40707 -0.0191807
  32 117.266 1.28185 -0.223825
  33 262.627 2.12439 19.1246
  34 228.142 2.37331 12.4913
  35 219.157 4.37543 5.03696
  36 212.321 2.66484 -1.32318
  37 225.209 0.838684 -4.81247
  38 230.467 4.38595 -11.3761
  39 239.852 15.4939 -23.3439
  40 58.7112 -34.2192 -49.2471
  41 11.7050 -62.9065 -20.0293
  42 4.70213 -84.9378 -6.33996
  43 3.26705 -89.8949 -0.686145
  44 3.93250 -86.0636 6.41090
  45 10.7480 -74.7199 17.2473
  46 47.7218 -34.6012 48.2884
  47 262.627 2.12439 19.1246
  48 228.142 2.37331 12.4913
  49 219.157 4.37543 5.03696
  50 212.321 2.66484 -1.32318
  51 225.209 0.838684 -4.81247
  52 230.467 4.38595 -11.3761
  53 239.852 15.4939 -23.3439
  54 58.7112 -34.2192 -49.2471
  55 11.7050 -62.9065 -20.0293
  56 4.70213 -84.9378 -6.33996
  57 3.26705 -89.8949 -0.686145
  58 3.93250 -86.0636 6.41090
  59 10.7480 -74.7199 17.2473
  60 47.7218 -34.6012 48.2884
  61 109.048 4.67966 -2.02720
  62 109.048 4.67966 -2.02720
  63 101.046 1.45731 10.8990
  64 98.0912 0.640154 -13.2671
  65 101.046 1.45731 10.8990
  66 98.0912 0.640154 -13.2671
  67 55.8438 0.978321 3.62437
  68 55.8438 0.978321 3.62437
  69 91.5654 -16.9019 35.6481
  70 91.5654 -16.9019 35.6481
  71 55.2949 -16.3471 -28.4057
  72 138.021 -11.7047 -5.81720
  73 152.781 8.49972 0.0467057
  74 145.836 3.96897 -1.90084
  75 55.2949 -16.3471 -28.4057
  76 138.021 -11.7047 -5.81720
  77 152.781 8.49972 0.0467057
  78 145.836 3.96897 -1.90084
  79 135.384 -6.28412 2.61523
  80 135.384 -6.28412 2.61523
  81 174.962 12.9457 0.782945
  82 174.962 12.9457 0.782945
  83 29.2085 -19.2845 -2.40477
  84 29.2085 -19.2845 -2.40477
  85 38.2289 -25.7137 24.3458
  86 38.2289 -25.7137 24.3458
  87 146.432 -8.54786 3.96875
  88 146.432 -8.54786 3.96875
  89 115.752 2.63067 1.71501
  90 116.262 2.87223 -1.74844
  91 115.752 2.63067 1.71501
  92 116.262 2.87223 -1.74844
  93 168.039 8.48104 5.28212
  94 168.039 8.48104 5.28212
  95 119.965 1.16925 5.00639
  96 119.965 1.16925 5.00639
  97 181.342 13.3240 -6.06631
  98 184.138 10.2896 -12.5616
  99 181.342 13.3240 -6.06631
  100 184.138 10.2896 -12.5616
  101 116.848 1.85272 -6.13722
  102 116.848 1.85272 -6.13722
  103 95.6890 -19.3035 -41.6966
  104 95.6890 -19.3035 -41.6966
  105 81.0564 -22.1263 43.9894
  106 81.0564 -22.1263 43.9894
  107 149.666 -11.8286 -15.4360
  108 149.666 -11.8286 -15.4360
  109 111.451 -13.6990 -24.6957
  110 111.451 -13.6990 -24.6957
  111 192.657 13.0668 9.54341
  112 192.657 13.0668 9.54341
  113 14.5082 -47.5848 -15.9543
  114 14.5082 -47.5848 -15.9543
  115 8.49894 -55.6770 4.70145
  116 8.49894 -55.6770 4.70145
  117 99.7950 6.36937 -1.28959
  118 99.7950 6.36937 -1.28959
  119 121.972 -4.73754 -9.60007
  120 121.972 -4.73754 -9.60007
  121 205.996 5.84307 -4.68150
  122 205.996 5.84307 -4.68150
  123 23.0243 -47.3869 26.9506
  124 23.0243 -47.3869 26.9506
  125 109.436 3.80809 5.70164
  126 109.436 3.80809 5.70164
  127 27.1922 -38.5561 -30.1502
  128 27.1922 -38.5561 -30.1502
  129 147.692 -10.3137 23.0056
  130 147.692 -10.3137 23.0056
  131 209.638 10.3217 -14.0927
  132 209.638 10.3217 -14.0927
  133 10.6443 -63.6425 -4.52630
  134 10.6443 -63.6425 -4.52630
  135 12.8297 -61.4327 11.5300
  136 12.8297 -61.4327 11.5300
  137 119.767 1.17823 -2.96548
  138 119.767 1.17823 -2.96548
  139 113.637 3.99089 -0.212282
  140 113.637 3.99089 -0.212282
  141 116.459 2.05162 -0.0280753
  142 116.459 2.05162 -0.0280753
  143 120.072 -2.40214 8.47020
  144 120.072 -2.40214 8.47020
  145 83.0214 -2.26750 19.7991
  146 121.173 -11.1335 16.6903
  147 82.0562 4.69602 0.444719
  148 83.0214 -2.26750 19.7991
  149 121.173 -11.1335 16.6903
  150 82.0562 4.69602 0.444719
  151 108.031 1.95768 -9.04978
  152 108.031 1.95768 -9.04978
  153 204.297 6.05160 3.54143
  154 204.297 6.05160 3.54143
  155 212.302 5.00446 8.93579
  156 212.645 9.98251 17.2760
  157 212.302 5.00446 8.93579
  158 212.645 9.98251 17.2760
  159 117.803 1.38035 1.00408
  160 117.803 1.38035 1.00408
  161 73.3588 -3.16200 -16.8467
  162 73.3588 -3.16200 -16.8467
  163 117.811 1.34420 -0.986227
  164 117.811 1.34420 -0.986227
  165 118.552 1.61636 2.72124
  166 118.552 1.61636 2.72124
  167 138.920 -1.19887 3.73498
  168 135.903 -4.87247 -0.245480
  169 138.920 -1.19887 3.73498
  170 135.903 -4.87247 -0.245480
  171 150.033 -3.82270 1.30521
  172 150.033 -3.82270 1.30521
  173 113.745 3.61105 3.11785
  174 113.745 3.61105 3.11785
  175 56.5570 -6.33242 22.6567
  176 56.5570 -6.33242 22.6567
  177 50.0668 -2.99366 -14.3211
  178 50.0668 -2.99366 -14.3211
  179 114.741 3.88894 -2.98012
  180 114.741 3.88894 -2.98012
</Section>

newXOutput 35

<Section columns = "stress_xx | stress_yy | stress_xy">
  1 121.647 0.865392 -0.509318
  2 121.538 0.672477 0.458641
  3 121.647 0.865392 -0.509318
  4 121.538 0.672477 0.458641
  5 182.633 4.72981 45.1579
  6 179.609 3.52760 -41.7482
  7 182.633 4.72981 45.1579
  8 179.609 3.52760 -41.7482
  9 122.955 0.247228 -1.61782
  10 128.326 0.0268575 -2.65178
  11 131.655 -1.47804 -3.35613
  12 138.297 -0.698691 2.09722
  13 137.899 4.18233 1.33838
  14 138.655 -0.705391 -2.70857
  15 133.068 -2.30571 3.34322
  16 126.609 0.580120 3.09804
  17 123.078 0.819372 1.44710
  18 120.831 1.43014 0.253637
  19 120.099 1.44856 -0.0197370
  20 120.771 1.31967 -0.230356
  21 122.955 0.247228 -1.61782
  22 128.326 0.0268575 -2.65178
  23 131.655 -1.47804 -3.35613
  24 138.297 -0.698691 2.09722
  25 137.899 4.18233 1.33838
  26 138.655 -0.705391 -2.70857
  27 133.068 -2.30571 3.34322
  28 126.609 0.580120 3.09804
  29 123.078 0.819372 1.44710
  30 120.831 1.43014 0.253637
  31 120.099 1.44856 -0.0197370
  32 120.771 1.31967 -0.230356
  33 270.352 2.18842 19.6947
  34 234.868 2.44073 12.8619
  35 225.622 4.50373 5.18503
  36 218.590 2.74176 -1.36171
  37 231.843 0.862972 -4.95452
  38 237.261 4.51600 -11.7127
  39 246.927 15.9632 -24.0459
  40 60.4576 -35.2156 -50.7470
  41 12.0564 -64.7856 -20.6494
  42 4.84179 -87.5031 -6.53828
  43 3.36236 -92.6152 -0.706688
  44 4.04810 -88.6622 6.61102
  45 11.0701 -76.9593 17.7836
  46 49.1428 -35.6090 49.7604
  47 270.352 2.18842 19.6947
  48 234.868 2.44073 12.8619
  49 225.622 4.50373 5.18503
  50 218.590 2.74176 -1.36171
  51 231.843 0.862972 -4.95452
  52 237.261 4.51600 -11.7127
  53 246.927 15.9632 -24.0459
  54 60.4576 -35.2156 -50.7470
  55 12.0564 -64.7856 -20.6494
  56 4.84179 -87.5031 -6.53828
  57 3.36236 -92.6152 -0.706688
  58 4.04810 -88.6622 6.61102
  59 11.0701 -76.9593 17.7836
  60 49.1428 -35.6090 49.7604
  61 112.313 4.81917 -2.08732
  62 112.313 4.81917 -2.08732
  63 104.073 1.50137 11.2245
  64 101.030 0.659762 -13.6633
  65 104.073 1.50137 11.2245
  66 101.030 0.659762 -13.6633
  67 57.5284 1.01157 3.73342
  68 57.5284 1.01157 3.73342
  69 94.2998 -17.4088 36.7227
  70 94.2998 -17.4088 36.7227
  71 56.9549 -16.8332 -29.2663
  72 142.133 -12.0545 -5.99862
  73 157.337 8.75537 0.0423585
  74 150.186 4.08884 -1.95090
  75 56.9549 -16.8332 -29.2663
  76 142.133 -12.0545 -5.99862
  77 157.337 8.75537 0.0423585
  78 150.186 4.08884 -1.95090
  79 139.421 -6.47199 2.69897
  80 139.421 -6.47199 2.69897
  81 180.165 13.3307 0.808906
  82 180.165 13.3307 0.808906
  83 30.0899 -19.8560 -2.47810
  84 30.0899 -19.8560 -2.47810
  85 39.3763 -26.4790 25.0879
  86 39.3763 -26.4790 25.0879
  87 150.792 -8.80097 4.09910
  88 150.792 -8.80097 4.09910
  89 119.213 2.70859 1.76531
  90 119.737 2.95737 -1.79973
  91 119.213 2.70859 1.76531
  92 119.737 2.95737 -1.79973
  93 173.037 8.73917 5.45238
  94 173.037 8.73917 5.45238
  95 123.548 1.20387 5.15468
  96 123.548 1.20387 5.15468
  97 186.732 13.7205 -6.25227
  98 189.602 10.6042 -12.9492
  99 186.732 13.7205 -6.25227
  100 189.602 10.6042 -12.9492
  101 120.341 1.90779 -6.31945
  102 120.341 1.90779 -6.31945
  103 98.5359 -19.8688 -42.9619
  104 98.5359 -19.8688 -42.9619
  105 83.4701 -22.7756 45.3258
  106 83.4701 -22.7756 45.3258
  107 154.115 -12.1762 -15.9126
  108 154.115 -12.1762 -15.9126
  109 114.777 -14.1095 -25.4392
  110 114.777 -14.1095 -25.4392
  111 198.372 13.4566 9.83246
  112 198.372 13.4566 9.83246
  113 14.9449 -49.0087 -16.4456
  114 14.9449 -49.0087 -16.4456
  115 8.75347 -57.3489 4.84731
  116 8.75347 -57.3489 4.84731
  117 102.787 6.56022 -1.32779
  118 102.787 6.56022 -1.32779
  119 125.614 -4.87960 -9.88841
  120 125.614 -4.87960 -9.88841
  121 212.089 6.01459 -4.82016
  122 212.089 6.01459 -4.82016
  123 23.7167 -48.7967 27.7812
  124 23.7167 -48.7967 27.7812
  125 112.711 3.92174 5.87094
  126 112.711 3.92174 5.87094
  127 28.0103 -39.7007 -31.0753
  128 28.0103 -39.7007 -31.0753
  129 152.082 -10.6152 23.7079
  130 152.082 -10.6152 23.7079
  131 215.838 10.6286 -14.5156
  132 215.838 10.6286 -14.5156
  133 10.9630 -65.5570 -4.66582
  134 10.9630 -65.5570 -4.66582
  135 13.2147 -63.2755 11.8894
  136 13.2147 -63.2755 11.8894
  137 123.344 1.21314 -3.05295
  138 123.344 1.21314 -3.05295
  139 117.037 4.10931 -0.218559
  140 117.037 4.10931 -0.218559
  141 119.940 2.11226 -0.0288966
  142 119.940 2.11226 -0.0288966
  143 123.658 -2.47424 8.72353
  144 123.658 -2.47424 8.72353
  145 85.5130 -2.33421 20.3928
  146 124.787 -11.4669 17.1936
  147 84.5234 4.83808 0.458399
  148 85.5130 -2.33421 20.3928
  149 124.787 -11.4669 17.1936
  150 84.5234 4.83808 0.458399
  151 111.265 2.01627 -9.31898
  152 111.265 2.01627 -9.31898
  153 210.342 6.22881 3.64734
  154 210.342 6.22881 3.64734
  155 218.578 5.15119 9.20080
  156 218.933 10.2869 17.7981
  157 218.578 5.15119 9.20080
  158 218.933 10.2869 17.7981
  159 121.324 1.42117 1.03342
  160 121.324 1.42117 1.03342
  161 75.5639 -3.25526 -17.3524
  162 75.5639 -3.25526 -17.3524
  163 121.331 1.38395 -1.01504
  164 121.331 1.38395 -1.01504
  165 122.094 1.66430 2.80117
  166 122.094 1.66430 2.80117
  167 143.065 -1.23364 3.83944
  168 139.955 -5.01863 -0.257560
  169 143.065 -1.23364 3.83944
  170 139.955 -5.01863 -0.257560
  171 154.502 -3.93341 1.33130
  172 154.502 -3.93341 1.33130
  173 117.148 3.71838 3.20983
  174 117.148 3.71838 3.20983
  175 58.2588 -6.51845 23.3400
  176 58.2588 -6.51845 23.3400
  177 51.5768 -3.07830 -14.7528
  178 51.5768 -3.07830 -14.7528
  179 118.173 4.00455 -3.06813
  180 118.173 4.00455 -3.06813
</Section>

newXOutput 36

<Section columns = "stress_xx | stress_yy | stress_xy">
  1 125.174 0.890186 -0.523728
  2 125.061 0.691719 0.471606
  3 125.174 0.890186 -0.523728
  4 125.061 0.691719 0.471606
  5 187.868 4.89253 46.4825
  6 184.765 3.65554 -42.9780
  7 187.868 4.89253 46.4825
  8 184.765 3.65554 -42.9780
  9 126.518 0.254172 -1.66388
  10 132.040 0.0276499 -2.72757
  11 135.466 -1.52126 -3.45414
  12 142.303 -0.718966 2.15398
  13 141.899 4.30439 1.37596
  14 142.670 -0.725624 -2.78214
  15 136.919 -2.37295 3.44105
  16 130.275 0.596753 3.18660
  17 126.644 0.842896 1.48813
  18 124.335 1.47107 0.260810
  19 123.583 1.48999 -0.0202919
  20 124.272 1.35743 -0.236872
  21 126.518 0.254172 -1.66388
  22 132.040 0.0276499 -2.72757
  23 135.466 -1.52126 -3.45414
  24 142.303 -0.718966 2.15398
  25 141.899 4.30439 1.37596
  26 142.670 -0.725624 -2.78214
  27 136.919 -2.37295 3.44105
  28 130.275 0.596753 3.18660
  29 126.644 0.842896 1.48813
  30 124.335 1.47107 0.260810
  31 123.583 1.48999 -0.0202919
  32 124.272 1.35743 -0.236872
  33 278.064 2.25242 20.2642
  34 241.584 2.50790 13.2321
  35 232.077 4.63179 5.33282
  36 224.849 2.81847 -1.40015
  37 238.466 0.887195 -5.09634
  38 244.044 4.64588 -12.0489
  39 253.991 16.4326 -24.7475
  40 62.2020 -36.2097 -52.2473
  41 12.4076 -66.6630 -21.2703
  42 4.98129 -90.0679 -6.73696
  43 3.45746 -95.3352 -0.727216
  44 4.16349 -91.2602 6.81149
  45 11.3921 -79.1972 18.3206
  46 50.5623 -36.6145 51.2329
  47 278.064 2.25242 20.2642
  48 241.584 2.50790 13.2321
  49 232.077 4.63179 5.33282
  50 224.849 2.81847 -1.40015
  51 238.466 0.887195 -5.09634
  52 244.044 4.64588 -12.0489
  53 253.991 16.4326 -24.7475
  54 62.2020 -36.2097 -52.2473
  55 12.4076 -66.6630 -21.2703
  56 4.98129 -90.0679 -6.73696
  57 3.45746 -95.3352 -0.727216
  58 4.16349 -91.2602 6.81149
  59 11.3921 -79.1972 18.3206
  60 50.5623 -36.6145 51.2329
  61 115.576 4.95855 -2.14736
  62 115.576 4.95855 -2.14736
  63 107.097 1.54543 11.5497
  64 103.967 0.679382 -14.0590
  65 107.097 1.54543 11.5497
  66 103.967 0.679382 -14.0590
  67 59.2126 1.04503 3.84241
  68 59.2126 1.04503 3.84241
  69 97.0319 -17.9154 37.7968
  70 97.0319 -17.9154 37.7968
  71 58.6140 -17.3188 -30.1268
  72 146.240 -12.4040 -6.18034
  73 161.889 9.01091 0.0376838
  74 154.533 4.20869 -2.00054
  75 58.6140 -17.3188 -30.1268
  76 146.240 -12.4040 -6.18034
  77 161.889 9.01091 0.0376838
  78 154.533 4.20869 -2.00054
  79 143.454 -6.65971 2.78297
  80 143.454 -6.65971 2.78297
  81 185.362 13.7152 0.834992
  82 185.362 13.7152 0.834992
  83 30.9711 -20.4267 -2.55145
  84 30.9711 -20.4267 -2.55145
  85 40.5230 -27.2435 25.8302
  86 40.5230 -27.2435 25.8302
  87 155.148 -9.05373 4.23004
  88 155.148 -9.05373 4.23004
  89 122.671 2.78642 1.81552
  90 123.210 3.04241 -1.85092
  91 122.671 2.78642 1.81552
  92 123.210 3.04241 -1.85092
  93 178.030 8.99738 5.62322
  94 178.030 8.99738 5.62322
  95 127.128 1.23844 5.30277
  96 127.128 1.23844 5.30277
  97 192.115 14.1166 -6.43834
  98 195.060 10.9190 -13.3371
  99 192.115 14.1166 -6.43834
  100 195.060 10.9190 -13.3371
  101 123.830 1.96279 -6.50145
  102 123.830 1.96279 -6.50145
  103 101.380 -20.4329 -44.2273
  104 101.380 -20.4329 -44.2273
  105 85.8813 -23.4236 46.6625
  106 85.8813 -23.4236 46.6625
  107 158.559 -12.5231 -16.3896
  108 158.559 -12.5231 -16.3896
  109 118.100 -14.5196 -26.1825
  110 118.100 -14.5196 -26.1825
  111 204.079 13.8461 10.1215
  112 204.079 13.8461 10.1215
  113 15.3815 -50.4317 -16.9373
  114 15.3815 -50.4317 -16.9373
  115 9.00783 -59.0199 4.99337
  116 9.00783 -59.0199 4.99337
  117 105.777 6.75093 -1.36594
  118 105.777 6.75093 -1.36594
  119 129.251 -5.02157 -10.1766
  120 129.251 -5.02157 -10.1766
  121 218.172 6.18580 -4.95863
  122 218.172 6.18580 -4.95863
  123 24.4087 -50.2050 28.6126
  124 24.4087 -50.2050 28.6126
  125 115.984 4.03530 6.04003
  126 115.984 4.03530 6.04003
  127 28.8281 -40.8440 -32.0011
  128 28.8281 -40.8440 -32.0011
  129 156.468 -10.9161 24.4106
  130 156.468 -10.9161 24.4106
  131 222.029 10.9351 -14.9383
  132 222.029 10.9351 -14.9383
  133 11.2814 -67.4708 -4.80547
  134 11.2814 -67.4708 -4.80547
  135 13.5995 -65.1173 12.2494
  136 13.5995 -65.1173 12.2494
  137 126.918 1.24800 -3.14029
  138 126.918 1.24800 -3.14029
  139 120.434 4.22758 -0.224826
  140 120.434 4.22758 -0.224826
  141 123.419 2.17280 -0.0297162
  142 123.419 2.17280 -0.0297162
  143 127.241 -2.54630 8.97666
  144 127.241 -2.54630 8.97666
  145 88.0031 -2.40080 20.9860
  146 128.398 -11.8001 17.6968
  147 86.9893 4.98013 0.472091
  148 88.0031 -2.40080 20.9860
  149 128.398 -11.8001 17.6968
  150 86.9893 4.98013 0.472091
  151 114.496 2.07482 -9.58789
  152 114.496 2.07482 -9.58789
  153 216.379 6.40566 3.75318
  154 216.379 6.40566 3.75318
  155 224.845 5.29764 9.46546
  156 225.212 10.5915 18.3201
  157 224.845 5.29764 9.46546
  158 225.212 10.5915 18.3201
  159 124.841 1.46192 1.06269
  160 124.841 1.46192 1.06269
  161 77.7680 -3.34838 -17.8577
  162 77.7680 -3.34838 -17.8577
  163 124.848 1.42364 -1.04379
  164 124.848 1.42364 -1.04379
  165 125.633 1.71217 2.88096
  166 125.633 1.71217 2.88096
  167 147.207 -1.26832 3.94340
  168 144.003 -5.16471 -0.269904
  169 147.207 -1.26832 3.94340
  170 144.003 -5.16471 -0.269904
  171 158.965 -4.04382 1.35663
  172 158.965 -4.04382 1.35663
  173 120.547 3.82559 3.30166
  174 120.547 3.82559 3.30166
  175 59.9599 -6.70414 24.0230
  176 59.9599 -6.70414 24.0230
  177 53.0864 -3.16259 -15.1845
  178 53.0864 -3.16259 -15.1845
  179 121.602 4.12003 -3.15601
  180 121.602 4.12003 -3.15601
</Section>

newXOutput 37

<Section columns = "stress_xx | stress_yy | stress_xy">
  1 128.697 0.914942 -0.538106
  2 128.581 0.710931 0.484543
  3 128.697 0.914942 -0.538106
  4 128.581 0.710931 0.484543
  5 193.094 5.05657 47.8069
  6 189.914 3.78484 -44.2080
  7 193.094 5.05657 47.8069
  8 189.914 3.78484 -44.2080
  9 130.078 0.261099 -1.70984
  10 135.751 0.0284426 -2.80324
  11 139.273 -1.56446 -3.55211
  12 146.305 -0.739226 2.21046
  13 145.897 4.42641 1.41345
  14 146.683 -0.745827 -2.85538
  15 140.766 -2.44016 3.53885
  16 133.937 0.613363 3.27502
  17 130.208 0.866388 1.52907
  18 127.836 1.51194 0.267967
  19 127.063 1.53135 -0.0208453
  20 127.772 1.39513 -0.243374
  21 130.078 0.261099 -1.70984
  22 135.751 0.0284426 -2.80324
  23 139.273 -1.56446 -3.55211
  24 146.305 -0.739226 2.21046
  25 145.897 4.42641 1.41345
  26 146.683 -0.745827 -2.85538
  27 140.766 -2.44016 3.53885
  28 133.937 0.613363 3.27502
  29 130.208 0.866388 1.52907
  30 127.836 1.51194 0.267967
  31 127.063 1.53135 -0.0208453
  32 127.772 1.39513 -0.243374
  33 285.763 2.31641 20.8332
  34 248.289 2.57481 13.6018
  35 238.522 4.75961 5.48036
  36 231.098 2.89496 -1.43850
  37 245.078 0.911355 -5.23794
  38 250.816 4.77560 -12.3846
  39 261.044 16.9019 -25.4489
  40 63.9446 -37.2014 -53.7481
  41 12.7585 -68.5389 -21.8920
  42 5.12063 -92.6322 -6.93601
  43 3.55234 -98.0550 -0.747729
  44 4.27867 -93.8577 7.01231
  45 11.7139 -81.4337 18.8585
  46 51.9803 -37.6176 52.7059
  47 285.763 2.31641 20.8332
  48 248.289 2.57481 13.6018
  49 238.522 4.75961 5.48036
  50 231.098 2.89496 -1.43850
  51 245.078 0.911355 -5.23794
  52 250.816 4.77560 -12.3846
  53 261.044 16.9019 -25.4489
  54 63.9446 -37.2014 -53.7481
  55 12.7585 -68.5389 -21.8920
  56 5.12063 -92.6322 -6.93601
  57 3.55234 -98.0550 -0.747729
  58 4.27867 -93.8577 7.01231
  59 11.7139 -81.4337 18.8585
  60 51.9803 -37.6176 52.7059
  61 118.836 5.09779 -2.20733
  62 118.836 5.09779 -2.20733
  63 110.120 1.58948 11.8746
  64 106.902 0.699013 -14.4545
  65 110.120 1.58948 11.8746
  66 106.902 0.699013 -14.4545
  67 60.8963 1.07868 3.95137
  68 60.8963 1.07868 3.95137
  69 99.7617 -18.4216 38.8707
  70 99.7617 -18.4216 38.8707
  71 60.2722 -17.8038 -30.9873
  72 150.344 -12.7532 -6.36235
  73 166.436 9.26634 0.0326825
  74 158.876 4.32852 -2.04974
  75 60.2722 -17.8038 -30.9873
  76 150.344 -12.7532 -6.36235
  77 166.436 9.26634 0.0326825
  78 158.876 4.32852 -2.04974
  79 147.483 -6.84728 2.86721
  80 147.483 -6.84728 2.86721
  81 190.553 14.0993 0.861201
  82 190.553 14.0993 0.861201
  83 31.8521 -20.9968 -2.62482
  84 31.8521 -20.9968 -2.62482
  85 41.6691 -28.0072 26.5728
  86 41.6691 -28.0072 26.5728
  87 159.499 -9.30615 4.36154
  88 159.499 -9.30615 4.36154
  89 126.127 2.86414 1.86563
  90 126.681 3.12734 -1.90200
  91 126.127 2.86414 1.86563
  92 126.681 3.12734 -1.90200
  93 183.017 9.25564 5.79463
  94 183.017 9.25564 5.79463
  95 130.705 1.27297 5.45067
  96 130.705 1.27297 5.45067
  97 197.492 14.5122 -6.62451
  98 200.511 11.2339 -13.7253
  99 197.492 14.5122 -6.62451
  100 200.511 11.2339 -13.7253
  101 127.317 2.01773 -6.68324
  102 127.317 2.01773 -6.68324
  103 104.220 -20.9958 -45.4927
  104 104.220 -20.9958 -45.4927
  105 88.2900 -24.0703 47.9993
  106 88.2900 -24.0703 47.9993
  107 162.998 -12.8695 -16.8672
  108 162.998 -12.8695 -16.8672
  109 121.421 -14.9295 -26.9255
  110 121.421 -14.9295 -26.9255
  111 209.780 14.2351 10.4105
  112 209.780 14.2351 10.4105
  113 15.8178 -51.8536 -17.4295
  114 15.8178 -51.8536 -17.4295
  115 9.26201 -60.6900 5.13963
  116 9.26201 -60.6900 5.13963
  117 108.766 6.94153 -1.40405
  118 108.766 6.94153 -1.40405
  119 132.886 -5.16345 -10.4646
  120 132.886 -5.16345 -10.4646
  121 224.247 6.35669 -5.09692
  122 224.247 6.35669 -5.09692
  123 25.1005 -51.6117 29.4449
  124 25.1005 -51.6117 29.4449
  125 119.255 4.14875 6.20892
  126 119.255 4.14875 6.20892
  127 29.6455 -41.9858 -32.9276
  128 29.6455 -41.9858 -32.9276
  129 160.848 -11.2163 25.1135
  130 160.848 -11.2163 25.1135
  131 228.212 11.2413 -15.3607
  132 228.212 11.2413 -15.3607
  133 11.5997 -69.3837 -4.94527
  134 11.5997 -69.3837 -4.94527
  135 13.9840 -66.9580 12.6099
  136 13.9840 -66.9580 12.6099
  137 130.490 1.28282 -3.22749
  138 130.490 1.28282 -3.22749
  139 123.828 4.34571 -0.231084
  140 123.828 4.34571 -0.231084
  141 126.895 2.23326 -0.0305340
  142 126.895 2.23326 -0.0305340
  143 130.821 -2.61832 9.22960
  144 130.821 -2.61832 9.22960
  145 90.4918 -2.46728 21.5789
  146 132.006 -12.1331 18.1998
  147 89.4542 5.12217 0.485795
  148 90.4918 -2.46728 21.5789
  149 132.006 -12.1331 18.1998
  150 89.4542 5.12217 0.485795
  151 117.725 2.13333 -9.85651
  152 117.725 2.13333 -9.85651
  153 222.408 6.58216 3.85892
  154 222.408 6.58216 3.85892
  155 231.103 5.44381 9.72979
  156 231.482 10.8961 18.8419
  157 231.103 5.44381 9.72979
  158 231.482 10.8961 18.8419
  159 128.355 1.50262 1.09191
  160 128.355 1.50262 1.09191
  161 79.9710 -3.44135 -18.3628
  162 79.9710 -3.44135 -18.3628
  163 128.363 1.46327 -1.07248
  164 128.363 1.46327 -1.07248
  165 129.169 1.75998 2.96060
  166 129.169 1.75998 2.96060
  167 151.345 -1.30291 4.04687
  168 148.047 -5.31071 -0.282511
  169 151.345 -1.30291 4.04687
  170 148.047 -5.31071 -0.282511
  171 163.425 -4.15392 1.38118
  172 163.425 -4.15392 1.38118
  173 123.945 3.93267 3.39335
  174 123.945 3.93267 3.39335
  175 61.6603 -6.88950 24.7059
  176 61.6603 -6.88950 24.7059
  177 54.5956 -3.24654 -15.6160
  178 54.5956 -3.24654 -15.6160
  179 125.028 4.23538 -3.24375
  180 125.028 4.23538 -3.24375
</Section>

newXOutput 38

<Section columns = "stress_xx | stress_yy | stress_xy">
  1 132.217 0.939662 -0.552453
  2 132.098 0.730113 0.497451
  3 132.217 0.939662 -0.552453
  4 132.098 0.730113 0.497451
  5 198.314 5.22192 49.1311
  6 195.055 3.91549 -45.4380
  7 198.314 5.22192 49.1311
  8 195.055 3.91549 -45.4380
  9 133.635 0.268007 -1.75573
  10 139.459 0.0292354 -2.87879
  11 143.077 -1.60765 -3.65003
  12 150.303 -0.759469 2.26668
  13 149.892 4.54836 1.45083
  14 150.692 -0.766001 -2.92829
  15 144.609 -2.50733 3.63662
  16 137.597 0.629948 3.36330
  17 133.768 0.889848 1.56992
  18 131.334 1.55275 0.275108
  19 130.541 1.57265 -0.0213974
  20 131.268 1.43278 -0.249862
  21 133.635 0.268007 -1.75573
  22 139.459 0.0292354 -2.87879
  23 143.077 -1.60765 -3.65003
  24 150.303 -0.759469 2.26668
  25 149.892 4.54836 1.45083
  26 150.692 -0.766001 -2.92829
  27 144.609 -2.50733 3.63662
  28 137.597 0.629948 3.36330
  29 133.768 0.889848 1.56992
  30 131.334 1.55275 0.275108
  31 130.541 1.57265 -0.0213974
  32 131.268 1.43278 -0.249862
  33 293.448 2.38037 21.4015
  34 254.983 2.64146 13.9710
  35 244.957 4.88719 5.62763
  36 237.338 2.97124 -1.47677
  37 251.679 0.935452 -5.37933
  38 257.577 4.90516 -12.7198
  39 268.085 17.3712 -26.1498
  40 65.6852 -38.1908 -55.2492
  41 13.1093 -70.4132 -22.5144
  42 5.25981 -95.1960 -7.13542
  43 3.64700 -100.775 -0.768227
  44 4.39364 -96.4547 7.21347
  45 12.0355 -83.6687 19.3971
  46 53.3968 -38.6184 54.1793
  47 293.448 2.38037 21.4015
  48 254.983 2.64146 13.9710
  49 244.957 4.88719 5.62763
  50 237.338 2.97124 -1.47677
  51 251.679 0.935452 -5.37933
  52 257.577 4.90516 -12.7198
  53 268.085 17.3712 -26.1498
  54 65.6852 -38.1908 -55.2492
  55 13.1093 -70.4132 -22.5144
  56 5.25981 -95.1960 -7.13542
  57 3.64700 -100.775 -0.768227
  58 4.39364 -96.4547 7.21347
  59 12.0355 -83.6687 19.3971
  60 53.3968 -38.6184 54.1793
  61 122.094 5.23690 -2.26722
  62 122.094 5.23690 -2.26722
  63 113.141 1.63352 12.1992
  64 109.835 0.718655 -14.8496
  65 113.141 1.63352 12.1992
  66 109.835 0.718655 -14.8496
  67 62.5796 1.11255 4.06027
  68 62.5796 1.11255 4.06027
  69 102.489 -18.9276 39.9442
  70 102.489 -18.9276 39.9442
  71 61.9295 -18.2883 -31.8478
  72 154.444 -13.1022 -6.54465
  73 170.979 9.52165 0.0273555
  74 163.214 4.44832 -2.09852
  75 61.9295 -18.2883 -31.8478
  76 154.444 -13.1022 -6.54465
  77 170.979 9.52165 0.0273555
  78 163.214 4.44832 -2.09852
  79 151.508 -7.03471 2.95171
  80 151.508 -7.03471 2.95171
  81 195.738 14.4830 0.887534
  82 195.738 14.4830 0.887534
  83 32.7329 -21.5660 -2.69823
  84 32.7329 -21.5660 -2.69823
  85 42.8146 -28.7700 27.3157
  86 42.8146 -28.7700 27.3157
  87 163.846 -9.55822 4.49362
  88 163.846 -9.55822 4.49362
  89 129.580 2.94175 1.91565
  90 130.148 3.21216 -1.95300
  91 129.580 2.94175 1.91565
  92 130.148 3.21216 -1.95300
  93 187.998 9.51397 5.96660
  94 187.998 9.51397 5.96660
  95 134.279 1.30745 5.59837
  96 134.279 1.30745 5.59837
  97 202.863 14.9074 -6.81080
  98 205.956 11.5490 -14.1140
  99 202.863 14.9074 -6.81080
  100 205.956 11.5490 -14.1140
  101 130.801 2.07261 -6.86482
  102 130.801 2.07261 -6.86482
  103 107.058 -21.5576 -46.7583
  104 107.058 -21.5576 -46.7583
  105 90.6963 -24.7159 49.3363
  106 90.6963 -24.7159 49.3363
  107 167.432 -13.2151 -17.3452
  108 167.432 -13.2151 -17.3452
  109 124.738 -15.3391 -27.6682
  110 124.738 -15.3391 -27.6682
  111 215.473 14.6238 10.6995
  112 215.473 14.6238 10.6995
  113 16.2540 -53.2744 -17.9222
  114 16.2540 -53.2744 -17.9222
  115 9.51603 -62.3592 5.28609
  116 9.51603 -62.3592 5.28609
  117 111.752 7.13199 -1.44210
  118 111.752 7.13199 -1.44210
  119 136.518 -5.30525 -10.7525
  120 136.518 -5.30525 -10.7525
  121 230.314 6.52727 -5.23502
  122 230.314 6.52727 -5.23502
  123 25.7919 -53.0169 30.2779
  124 25.7919 -53.0169 30.2779
  125 122.524 4.26211 6.37762
  126 122.524 4.26211 6.37762
  127 30.4625 -43.1263 -33.8547
  128 30.4625 -43.1263 -33.8547
  129 165.223 -11.5159 25.8167
  130 165.223 -11.5159 25.8167
  131 234.386 11.5471 -15.7829
  132 234.386 11.5471 -15.7829
  133 11.9177 -71.2958 -5.08520
  134 11.9177 -71.2958 -5.08520
  135 14.3684 -68.7975 12.9711
  136 14.3684 -68.7975 12.9711
  137 134.058 1.31759 -3.31455
  138 134.058 1.31759 -3.31455
  139 127.220 4.46369 -0.237333
  140 127.220 4.46369 -0.237333
  141 130.368 2.29363 -0.0313502
  142 130.368 2.29363 -0.0313502
  143 134.397 -2.69030 9.48234
  144 134.397 -2.69030 9.48234
  145 92.9791 -2.53365 22.1713
  146 135.610 -12.4658 18.7026
  147 91.9179 5.26419 0.499510
  148 92.9791 -2.53365 22.1713
  149 135.610 -12.4658 18.7026
  150 91.9179 5.26419 0.499510
  151 120.951 2.19179 -10.1248
  152 120.951 2.19179 -10.1248
  153 228.428 6.75831 3.96459
  154 228.428 6.75831 3.96459
  155 237.352 5.58970 9.99378
  156 237.743 11.2008 19.3637
  157 237.352 5.58970 9.99378
  158 237.743 11.2008 19.3637
  159 131.867 1.54325 1.12106
  160 131.867 1.54325 1.12106
  161 82.1731 -3.53417 -18.8676
  162 82.1731 -3.53417 -18.8676
  163 131.875 1.50284 -1.10111
  164 131.875 1.50284 -1.10111
  165 132.702 1.80774 3.04009
  166 132.702 1.80774 3.04009
  167 155.480 -1.33741 4.14984
  168 152.088 -5.45662 -0.295381
  169 155.480 -1.33741 4.14984
  170 152.088 -5.45662 -0.295381
  171 167.880 -4.26373 1.40497
  172 167.880 -4.26373 1.40497
  173 127.339 4.03963 3.48489
  174 127.339 4.03963 3.48489
  175 63.3600 -7.07452 25.3886
  176 63.3600 -7.07452 25.3886
  177 56.1043 -3.33014 -16.0473
  178 56.1043 -3.33014 -16.0473
  179 128.452 4.35059 -3.33137
  180 128.452 4.35059 -3.33137
</Section>

newXOutput 39

<Section columns = "stress_xx | stress_yy | stress_xy">
  1 135.735 0.964345 -0.566768
  2 135.613 0.749266 0.510329
  3 135.735 0.964345 -0.566768
  4 135.613 0.749266 0.510329
  5 203.525 5.38860 50.4550
  6 200.190 4.04750 -46.6680
  7 203.525 5.38860 50.4550
  8 200.190 4.04750 -46.6680
  9 137.188 0.274898 -1.80152
  10 143.163 0.0300285 -2.95422
  11 146.877 -1.65083 -3.74791
  12 154.298 -0.779697 2.32261
  13 153.883 4.67027 1.48811
  14 154.697 -0.786146 -3.00085
  15 148.449 -2.57447 3.73437
  16 141.253 0.646509 3.45143
  17 137.325 0.913275 1.61068
  18 134.829 1.59349 0.282233
  19 134.016 1.61388 -0.0219480
  20 134.761 1.47036 -0.256335
  21 137.188 0.274898 -1.80152
  22 143.163 0.0300285 -2.95422
  23 146.877 -1.65083 -3.74791
  24 154.298 -0.779697 2.32261
  25 153.883 4.67027 1.48811
  26 154.697 -0.786146 -3.00085
  27 148.449 -2.57447 3.73437
  28 141.253 0.646509 3.45143
  29 137.325 0.913275 1.61068
  30 134.829 1.59349 0.282233
  31 134.016 1.61388 -0.0219480
  32 134.761 1.47036 -0.256335
  33 301.120 2.44431 21.9694
  34 261.666 2.70785 14.3398
  35 251.382 5.01452 5.77464
  36 243.568 3.04730 -1.51494
  37 258.270 0.959485 -5.52049
  38 264.327 5.03456 -13.0546
  39 275.115 17.8405 -26.8504
  40 67.4240 -39.1778 -56.7507
  41 13.4599 -72.2859 -23.1376
  42 5.39882 -97.7593 -7.33520
  43 3.74146 -103.494 -0.788710
  44 4.50841 -99.0511 7.41497
  45 12.3568 -85.9022 19.9365
  46 54.8119 -39.6167 55.6532
  47 301.120 2.44431 21.9694
  48 261.666 2.70785 14.3398
  49 251.382 5.01452 5.77464
  50 243.568 3.04730 -1.51494
  51 258.270 0.959485 -5.52049
  52 264.327 5.03456 -13.0546
  53 275.115 17.8405 -26.8504
  54 67.4240 -39.1778 -56.7507
  55 13.4599 -72.2859 -23.1376
  56 5.39882 -97.7593 -7.33520
  57 3.74146 -103.494 -0.788710
  58 4.50841 -99.0511 7.41497
  59 12.3568 -85.9022 19.9365
  60 54.8119 -39.6167 55.6532
  61 125.350 5.37588 -2.32703
  62 125.350 5.37588 -2.32703
  63 116.160 1.67756 12.5235
  64 112.766 0.738309 -15.2443
  65 116.160 1.67756 12.5235
  66 112.766 0.738309 -15.2443
  67 64.2624 1.14662 4.16913
  68 64.2624 1.14662 4.16913
  69 105.214 -19.4332 41.0173
  70 105.214 -19.4332 41.0173
  71 63.5858 -18.7722 -32.7083
  72 158.540 -13.4508 -6.72723
  73 175.518 9.77686 0.0217039
  74 167.549 4.56810 -2.14687
  75 63.5858 -18.7722 -32.7083
  76 158.540 -13.4508 -6.72723
  77 175.518 9.77686 0.0217039
  78 167.549 4.56810 -2.14687
  79 155.530 -7.22199 3.03646
  80 155.530 -7.22199 3.03646
  81 200.918 14.8663 0.913991
  82 200.918 14.8663 0.913991
  83 33.6134 -22.1346 -2.77166
  84 33.6134 -22.1346 -2.77166
  85 43.9594 -29.5321 28.0588
  86 43.9594 -29.5321 28.0588
  87 168.188 -9.80996 4.62627
  88 168.188 -9.80996 4.62627
  89 133.030 3.01926 1.96557
  90 133.613 3.29688 -2.00389
  91 133.030 3.01926 1.96557
  92 133.613 3.29688 -2.00389
  93 192.974 9.77237 6.13915
  94 192.974 9.77237 6.13915
  95 137.850 1.34188 5.74587
  96 137.850 1.34188 5.74587
  97 208.227 15.3022 -6.99719
  98 211.394 11.8642 -14.5030
  99 208.227 15.3022 -6.99719
  100 211.394 11.8642 -14.5030
  101 134.282 2.12742 -7.04617
  102 134.282 2.12742 -7.04617
  103 109.892 -22.1183 -48.0239
  104 109.892 -22.1183 -48.0239
  105 93.1000 -25.3602 50.6735
  106 93.1000 -25.3602 50.6735
  107 171.861 -13.5602 -17.8237
  108 171.861 -13.5602 -17.8237
  109 128.052 -15.7485 -28.4106
  110 128.052 -15.7485 -28.4106
  111 221.159 15.0122 10.9884
  112 221.159 15.0122 10.9884
  113 16.6901 -54.6942 -18.4153
  114 16.6901 -54.6942 -18.4153
  115 9.76987 -64.0275 5.43274
  116 9.76987 -64.0275 5.43274
  117 114.737 7.32233 -1.48010
  118 114.737 7.32233 -1.48010
  119 140.146 -5.44695 -11.0402
  120 140.146 -5.44695 -11.0402
  121 236.371 6.69753 -5.37294
  122 236.371 6.69753 -5.37294
  123 26.4830 -54.4206 31.1118
  124 26.4830 -54.4206 31.1118
  125 125.790 4.37536 6.54611
  126 125.790 4.37536 6.54611
  127 31.2792 -44.2653 -34.7825
  128 31.2792 -44.2653 -34.7825
  129 169.594 -11.8149 26.5202
  130 169.594 -11.8149 26.5202
  131 240.551 11.8526 -16.2048
  132 240.551 11.8526 -16.2048
  133 12.2355 -73.2071 -5.22527
  134 12.2355 -73.2071 -5.22527
  135 14.7525 -70.6360 13.3328
  136 14.7525 -70.6360 13.3328
  137 137.623 1.35232 -3.40147
  138 137.623 1.35232 -3.40147
  139 130.610 4.58152 -0.243573
  140 130.610 4.58152 -0.243573
  141 133.839 2.35391 -0.0321648
  142 133.839 2.35391 -0.0321648
  143 137.971 -2.76224 9.73489
  144 137.971 -2.76224 9.73489
  145 95.4649 -2.59991 22.7635
  146 139.211 -12.7983 19.2053
  147 94.3804 5.40619 0.513237
  148 95.4649 -2.59991 22.7635
  149 139.211 -12.7983 19.2053
  150 94.3804 5.40619 0.513237
  151 124.175 2.25021 -10.3929
  152 124.175 2.25021 -10.3929
  153 234.439 6.93411 4.07016
  154 234.439 6.93411 4.07016
  155 243.592 5.73532 10.2574
  156 243.995 11.5057 19.8854
  157 243.592 5.73532 10.2574
  158 243.995 11.5057 19.8854
  159 135.376 1.58383 1.15015
  160 135.376 1.58383 1.15015
  161 84.3740 -3.62685 -19.3721
  162 84.3740 -3.62685 -19.3721
  163 135.384 1.54235 -1.12968
  164 135.384 1.54235 -1.12968
  165 136.232 1.85543 3.11944
  166 136.232 1.85543 3.11944
  167 159.611 -1.37181 4.25231
  168 156.124 -5.60244 -0.308513
  169 159.611 -1.37181 4.25231
  170 156.124 -5.60244 -0.308513
  171 172.330 -4.37324 1.42800
  172 172.330 -4.37324 1.42800
  173 130.731 4.14648 3.57629
  174 130.731 4.14648 3.57629
  175 65.0589 -7.25921 26.0711
  176 65.0589 -7.25921 26.0711
  177 57.6126 -3.41340 -16.4785
  178 57.6126 -3.41340 -16.4785
  179 131.873 4.46568 -3.41884
  180 131.873 4.46568 -3.41884
</Section>

newXOutput 40

<Section columns = "stress_xx | stress_yy | stress_xy">
  1 139.250 0.988991 -0.581051
  2 139.124 0.768388 0.523179
  3 139.250 0.988991 -0.581051
  4 139.124 0.768388 0.523179
  5 208.729 5.55658 51.7786
  6 205.317 4.18085 -47.8981
  7 208.729 5.55658 51.7786
  8 205.317 4.18085 -47.8981
  9 140.739 0.281770 -1.84723
  10 146.864 0.0308217 -3.02952
  11 150.674 -1.69399 -3.84575
  12 158.289 -0.799910 2.37828
  13 157.871 4.79213 1.52529
  14 158.699 -0.806261 -3.07308
  15 152.285 -2.64158 3.83208
  16 144.906 0.663047 3.53942
  17 140.879 0.936671 1.65137
  18 138.321 1.63417 0.289342
  19 137.488 1.65505 -0.0224972
  20 138.252 1.50789 -0.262794
  21 140.739 0.281770 -1.84723
  22 146.864 0.0308217 -3.02952
  23 150.674 -1.69399 -3.84575
  24 158.289 -0.799910 2.37828
  25 157.871 4.79213 1.52529
  26 158.699 -0.806261 -3.07308
  27 152.285 -2.64158 3.83208
  28 144.906 0.663047 3.53942
  29 140.879 0.936671 1.65137
  30 138.321 1.63417 0.289342
  31 137.488 1.65505 -0.0224972
  32 138.252 1.50789 -0.262794
  33 308.778 2.50824 22.5366
  34 268.339 2.77400 14.7081
  35 257.797 5.14161 5.92139
  36 249.790 3.12315 -1.55303
  37 264.849 0.983456 -5.66144
  38 271.067 5.16379 -13.3889
  39 282.135 18.3097 -27.5507
  40 69.1608 -40.1624 -58.2526
  41 13.8102 -74.1570 -23.7615
  42 5.53766 -100.322 -7.53534
  43 3.83570 -106.213 -0.809178
  44 4.62297 -101.647 7.61682
  45 12.6780 -88.1342 20.4767
  46 56.2255 -40.6128 57.1276
  47 308.778 2.50824 22.5366
  48 268.339 2.77400 14.7081
  49 257.797 5.14161 5.92139
  50 249.790 3.12315 -1.55303
  51 264.849 0.983456 -5.66144
  52 271.067 5.16379 -13.3889
  53 282.135 18.3097 -27.5507
  54 69.1608 -40.1624 -58.2526
  55 13.8102 -74.1570 -23.7615
  56 5.53766 -100.322 -7.53534
  57 3.83570 -106.213 -0.809178
  58 4.62297 -101.647 7.61682
  59 12.6780 -88.1342 20.4767
  60 56.2255 -40.6128 57.1276
  61 128.603 5.51473 -2.38677
  62 128.603 5.51473 -2.38677
  63 119.177 1.72159 12.8476
  64 115.696 0.757973 -15.6387
  65 119.177 1.72159 12.8476
  66 115.696 0.757973 -15.6387
  67 65.9448 1.18089 4.27795
  68 65.9448 1.18089 4.27795
  69 107.937 -19.9386 42.0901
  70 107.937 -19.9386 42.0901
  71 65.2413 -19.2556 -33.5688
  72 162.631 -13.7992 -6.91011
  73 180.053 10.0320 0.0157285
  74 171.879 4.68786 -2.19479
  75 65.2413 -19.2556 -33.5688
  76 162.631 -13.7992 -6.91011
  77 180.053 10.0320 0.0157285
  78 171.879 4.68786 -2.19479
  79 159.547 -7.40912 3.12147
  80 159.547 -7.40912 3.12147
  81 206.092 15.2492 0.940570
  82 206.092 15.2492 0.940570
  83 34.4938 -22.7024 -2.84511
  84 34.4938 -22.7024 -2.84511
  85 45.1035 -30.2933 28.8021
  86 45.1035 -30.2933 28.8021
  87 172.526 -10.0613 4.75949
  88 172.526 -10.0613 4.75949
  89 136.477 3.09667 2.01540
  90 137.075 3.38148 -2.05469
  91 136.477 3.09667 2.01540
  92 137.075 3.38148 -2.05469
  93 197.945 10.0308 6.31226
  94 197.945 10.0308 6.31226
  95 141.418 1.37627 5.89317
  96 141.418 1.37627 5.89317
  97 213.586 15.6966 -7.18370
  98 216.825 12.1796 -14.8924
  99 213.586 15.6966 -7.18370
  100 216.825 12.1796 -14.8924
  101 137.761 2.18218 -7.22731
  102 137.761 2.18218 -7.22731
  103 112.724 -22.6779 -49.2895
  104 112.724 -22.6779 -49.2895
  105 95.5013 -26.0032 52.0109
  106 95.5013 -26.0032 52.0109
  107 176.285 -13.9046 -18.3027
  108 176.285 -13.9046 -18.3027
  109 131.363 -16.1576 -29.1528
  110 131.363 -16.1576 -29.1528
  111 226.838 15.4002 11.2774
  112 226.838 15.4002 11.2774
  113 17.1260 -56.1129 -18.9089
  114 17.1260 -56.1129 -18.9089
  115 10.0235 -65.6950 5.57960
  116 10.0235 -65.6950 5.57960
  117 117.719 7.51255 -1.51805
  118 117.719 7.51255 -1.51805
  119 143.771 -5.58858 -11.3278
  120 143.771 -5.58858 -11.3278
  121 242.421 6.86748 -5.51066
  122 242.421 6.86748 -5.51066
  123 27.1738 -55.8227 31.9464
  124 27.1738 -55.8227 31.9464
  125 129.053 4.48851 6.71439
  126 129.053 4.48851 6.71439
  127 32.0956 -45.4030 -35.7110
  128 32.0956 -45.4030 -35.7110
  129 173.959 -12.1132 27.2240
  130 173.959 -12.1132 27.2240
  131 246.708 12.1578 -16.6265
  132 246.708 12.1578 -16.6265
  133 12.5531 -75.1176 -5.36547
  134 12.5531 -75.1176 -5.36547
  135 15.1364 -72.4734 13.6951
  136 15.1364 -72.4734 13.6951
  137 141.185 1.38700 -3.48826
  138 141.185 1.38700 -3.48826
  139 133.996 4.69921 -0.249805
  140 133.996 4.69921 -0.249805
  141 137.306 2.41410 -0.0329776
  142 137.306 2.41410 -0.0329776
  143 141.542 -2.83413 9.98724
  144 141.542 -2.83413 9.98724
  145 97.9494 -2.66605 23.3552
  146 142.809 -13.1305 19.7079
  147 96.8419 5.54818 0.526975
  148 97.9494 -2.66605 23.3552
  149 142.809 -13.1305 19.7079
  150 96.8419 5.54818 0.526975
  151 127.397 2.30859 -10.6606
  152 127.397 2.30859 -10.6606
  153 240.442 7.10956 4.17566
  154 240.442 7.10956 4.17566
  155 249.823 5.88065 10.5207
  156 250.237 11.8106 20.4069
  157 249.823 5.88065 10.5207
  158 250.237 11.8106 20.4069
  159 138.881 1.62436 1.17918
  160 138.881 1.62436 1.17918
  161 86.5739 -3.71939 -19.8763
  162 86.5739 -3.71939 -19.8763
  163 138.890 1.58181 -1.15818
  164 138.890 1.58181 -1.15818
  165 139.759 1.90306 3.19865
  166 139.759 1.90306 3.19865
  167 163.738 -1.40613 4.35428
  168 160.157 -5.74818 -0.321906
  169 163.738 -1.40613 4.35428
  170 160.157 -5.74818 -0.321906
  171 176.776 -4.48246 1.45027
  172 176.776 -4.48246 1.45027
  173 134.121 4.25320 3.66755
  174 134.121 4.25320 3.66755
  175 66.7572 -7.44356 26.7534
  176 66.7572 -7.44356 26.7534
  177 59.1206 -3.49631 -16.9096
  178 59.1206 -3.49631 -16.9096
  179 135.291 4.58065 -3.50619
  180 135.291 4.58065 -3.50619
</Section>

newXOutput 41

<Section columns = "stress_xx | stress_yy | stress_xy">
  1 142.761 1.01360 -0.595303
  2 142.633 0.787481 0.536000
  3 142.761 1.01360 -0.595303
  4 142.633 0.787481 0.536000
  5 213.925 5.72588 53.1020
  6 210.438 4.31555 -49.1283
  7 213.925 5.72588 53.1020
  8 210.438 4.31555 -49.1283
  9 144.287 0.288624 -1.89286
  10 150.562 0.0316151 -3.10470
  11 154.468 -1.73713 -3.94355
  12 162.277 -0.820106 2.43368
  13 161.856 4.91393 1.56238
  14 162.697 -0.826348 -3.14497
  15 156.118 -2.70866 3.92976
  16 148.556 0.679560 3.62727
  17 144.431 0.960034 1.69196
  18 141.810 1.67478 0.296435
  19 140.957 1.69615 -0.0230450
  20 141.740 1.54535 -0.269239
  21 144.287 0.288624 -1.89286
  22 150.562 0.0316151 -3.10470
  23 154.468 -1.73713 -3.94355
  24 162.277 -0.820106 2.43368
  25 161.856 4.91393 1.56238
  26 162.697 -0.826348 -3.14497
  27 156.118 -2.70866 3.92976
  28 148.556 0.679560 3.62727
  29 144.431 0.960034 1.69196
  30 141.810 1.67478 0.296435
  31 140.957 1.69615 -0.0230450
  32 141.740 1.54535 -0.269239
  33 316.424 2.57214 23.1033
  34 275.001 2.83989 15.0760
  35 264.202 5.26846 6.06788
  36 256.001 3.19878 -1.59103
  37 271.418 1.00736 -5.80216
  38 277.796 5.29286 -13.7227
  39 289.143 18.7790 -28.2506
  40 70.8957 -41.1447 -59.7549
  41 14.1604 -76.0265 -24.3862
  42 5.67635 -102.884 -7.73585
  43 3.92973 -108.932 -0.829631
  44 4.73733 -104.242 7.81901
  45 12.9989 -90.3648 21.0177
  46 57.6376 -41.6064 58.6025
  47 316.424 2.57214 23.1033
  48 275.001 2.83989 15.0760
  49 264.202 5.26846 6.06788
  50 256.001 3.19878 -1.59103
  51 271.418 1.00736 -5.80216
  52 277.796 5.29286 -13.7227
  53 289.143 18.7790 -28.2506
  54 70.8957 -41.1447 -59.7549
  55 14.1604 -76.0265 -24.3862
  56 5.67635 -102.884 -7.73585
  57 3.92973 -108.932 -0.829631
  58 4.73733 -104.242 7.81901
  59 12.9989 -90.3648 21.0177
  60 57.6376 -41.6064 58.6025
  61 131.854 5.65344 -2.44644
  62 131.854 5.65344 -2.44644
  63 122.192 1.76561 13.1714
  64 118.623 0.777649 -16.0328
  65 122.192 1.76561 13.1714
  66 118.623 0.777649 -16.0328
  67 67.6267 1.21536 4.38672
  68 67.6267 1.21536 4.38672
  69 110.657 -20.4436 43.1626
  70 110.657 -20.4436 43.1626
  71 66.8959 -19.7385 -34.4292
  72 166.719 -14.1473 -7.09327
  73 184.583 10.2869 0.00943028
  74 176.206 4.80760 -2.24229
  75 66.8959 -19.7385 -34.4292
  76 166.719 -14.1473 -7.09327
  77 184.583 10.2869 0.00943028
  78 176.206 4.80760 -2.24229
  79 163.561 -7.59610 3.20672
  80 163.561 -7.59610 3.20672
  81 211.260 15.6316 0.967270
  82 211.260 15.6316 0.967270
  83 35.3739 -23.2694 -2.91859
  84 35.3739 -23.2694 -2.91859
  85 46.2470 -31.0538 29.5457
  86 46.2470 -31.0538 29.5457
  87 176.860 -10.3124 4.89327
  88 176.860 -10.3124 4.89327
  89 139.922 3.17398 2.06513
  90 140.534 3.46598 -2.10539
  91 139.922 3.17398 2.06513
  92 140.534 3.46598 -2.10539
  93 202.910 10.2893 6.48593
  94 202.910 10.2893 6.48593
  95 144.983 1.41061 6.04028
  96 144.983 1.41061 6.04028
  97 218.938 16.0906 -7.37031
  98 222.250 12.4951 -15.2821
  99 218.938 16.0906 -7.37031
  100 222.250 12.4951 -15.2821
  101 141.236 2.23687 -7.40823
  102 141.236 2.23687 -7.40823
  103 115.552 -23.2363 -50.5553
  104 115.552 -23.2363 -50.5553
  105 97.9001 -26.6451 53.3484
  106 97.9001 -26.6451 53.3484
  107 180.704 -14.2484 -18.7822
  108 180.704 -14.2484 -18.7822
  109 134.671 -16.5664 -29.8946
  110 134.671 -16.5664 -29.8946
  111 232.510 15.7879 11.5663
  112 232.510 15.7879 11.5663
  113 17.5617 -57.5306 -19.4029
  114 17.5617 -57.5306 -19.4029
  115 10.2770 -67.3615 5.72665
  116 10.2770 -67.3615 5.72665
  117 120.700 7.70264 -1.55595
  118 120.700 7.70264 -1.55595
  119 147.393 -5.73011 -11.6152
  120 147.393 -5.73011 -11.6152
  121 248.461 7.03712 -5.64820
  122 248.461 7.03712 -5.64820
  123 27.8642 -57.2233 32.7819
  124 27.8642 -57.2233 32.7819
  125 132.315 4.60157 6.88248
  126 132.315 4.60157 6.88248
  127 32.9116 -46.5393 -36.6401
  128 32.9116 -46.5393 -36.6401
  129 178.320 -12.4109 27.9281
  130 178.320 -12.4109 27.9281
  131 252.855 12.4626 -17.0479
  132 252.855 12.4626 -17.0479
  133 12.8704 -77.0272 -5.50582
  134 12.8704 -77.0272 -5.50582
  135 15.5201 -74.3096 14.0580
  136 15.5201 -74.3096 14.0580
  137 144.745 1.42163 -3.57491
  138 144.745 1.42163 -3.57491
  139 137.381 4.81676 -0.256027
  140 137.381 4.81676 -0.256027
  141 140.771 2.47421 -0.0337887
  142 140.771 2.47421 -0.0337887
  143 145.109 -2.90599 10.2394
  144 145.109 -2.90599 10.2394
  145 100.432 -2.73208 23.9466
  146 146.404 -13.4626 20.2103
  147 99.3022 5.69015 0.540724
  148 100.432 -2.73208 23.9466
  149 146.404 -13.4626 20.2103
  150 99.3022 5.69015 0.540724
  151 130.616 2.36693 -10.9281
  152 130.616 2.36693 -10.9281
  153 246.437 7.28467 4.28106
  154 246.437 7.28467 4.28106
  155 256.045 6.02571 10.7837
  156 256.472 12.1157 20.9284
  157 256.045 6.02571 10.7837
  158 256.472 12.1157 20.9284
  159 142.384 1.66482 1.20815
  160 142.384 1.66482 1.20815
  161 88.7728 -3.81178 -20.3802
  162 88.7728 -3.81178 -20.3802
  163 142.393 1.62122 -1.18663
  164 142.393 1.62122 -1.18663
  165 143.284 1.95063 3.27771
  166 143.284 1.95063 3.27771
  167 167.861 -1.44035 4.45577
  168 164.186 -5.89383 -0.335560
  169 167.861 -1.44035 4.45577
  170 164.186 -5.89383 -0.335560
  171 181.217 -4.59137 1.47177
  172 181.217 -4.59137 1.47177
  173 137.508 4.35980 3.75866
  174 137.508 4.35980 3.75866
  175 68.4548 -7.62758 27.4355
  176 68.4548 -7.62758 27.4355
  177 60.6280 -3.57888 -17.3406
  178 60.6280 -3.57888 -17.3406
  179 138.707 4.69548 -3.59341
  180 138.707 4.69548 -3.59341
</Section>

newXOutput 42

<Section columns = "stress_xx | stress_yy | stress_xy">
  1 146.270 1.03817 -0.609523
  2 146.139 0.806543 0.548791
  3 146.270 1.03817 -0.609523
  4 146.139 0.806543 0.548791
  5 219.113 5.89648 54.4252
  6 215.551 4.45159 -50.3585
  7 219.113 5.89648 54.4252
  8 215.551 4.45159 -50.3585
  9 147.832 0.295460 -1.93840
  10 154.256 0.0324087 -3.17976
  11 158.258 -1.78026 -4.04131
  12 166.261 -0.840287 2.48881
  13 165.839 5.03568 1.59936
  14 166.692 -0.846405 -3.21653
  15 159.947 -2.77571 4.02741
  16 152.203 0.696050 3.71498
  17 147.979 0.983366 1.73247
  18 145.297 1.71534 0.303512
  19 144.424 1.73718 -0.0235913
  20 145.225 1.58276 -0.275669
  21 147.832 0.295460 -1.93840
  22 154.256 0.0324087 -3.17976
  23 158.258 -1.78026 -4.04131
  24 166.261 -0.840287 2.48881
  25 165.839 5.03568 1.59936
  26 166.692 -0.846405 -3.21653
  27 159.947 -2.77571 4.02741
  28 152.203 0.696050 3.71498
  29 147.979 0.983366 1.73247
  30 145.297 1.71534 0.303512
  31 144.424 1.73718 -0.0235913
  32 145.225 1.58276 -0.275669
  33 324.056 2.63601 23.6694
  34 281.653 2.90552 15.4434
  35 270.596 5.39508 6.21411
  36 262.204 3.27420 -1.62893
  37 277.976 1.03121 -5.94267
  38 284.514 5.42176 -14.0560
  39 296.140 19.2482 -28.9502
  40 72.6286 -42.1247 -61.2576
  41 14.5104 -77.8943 -25.0117
  42 5.81487 -105.446 -7.93672
  43 4.02355 -111.651 -0.850069
  44 4.85148 -106.837 8.02155
  45 13.3196 -92.5939 21.5595
  46 59.0483 -42.5977 60.0778
  47 324.056 2.63601 23.6694
  48 281.653 2.90552 15.4434
  49 270.596 5.39508 6.21411
  50 262.204 3.27420 -1.62893
  51 277.976 1.03121 -5.94267
  52 284.514 5.42176 -14.0560
  53 296.140 19.2482 -28.9502
  54 72.6286 -42.1247 -61.2576
  55 14.5104 -77.8943 -25.0117
  56 5.81487 -105.446 -7.93672
  57 4.02355 -111.651 -0.850069
  58 4.85148 -106.837 8.02155
  59 13.3196 -92.5939 21.5595
  60 59.0483 -42.5977 60.0778
  61 135.103 5.79202 -2.50602
  62 135.103 5.79202 -2.50602
  63 125.204 1.80963 13.4949
  64 121.548 0.797335 -16.4265
  65 125.204 1.80963 13.4949
  66 121.548 0.797335 -16.4265
  67 69.3082 1.25004 4.49544
  68 69.3082 1.25004 4.49544
  69 113.376 -20.9483 44.2347
  70 113.376 -20.9483 44.2347
  71 68.5495 -20.2209 -35.2896
  72 170.802 -14.4951 -7.27672
  73 189.109 10.5418 0.00281022
  74 180.528 4.92731 -2.28936
  75 68.5495 -20.2209 -35.2896
  76 170.802 -14.4951 -7.27672
  77 189.109 10.5418 0.00281022
  78 180.528 4.92731 -2.28936
  79 167.571 -7.78293 3.29223
  80 167.571 -7.78293 3.29223
  81 216.423 16.0136 0.994092
  82 216.423 16.0136 0.994092
  83 36.2539 -23.8357 -2.99210
  84 36.2539 -23.8357 -2.99210
  85 47.3899 -31.8134 30.2895
  86 47.3899 -31.8134 30.2895
  87 181.189 -10.5631 5.02762
  88 181.189 -10.5631 5.02762
  89 143.364 3.25119 2.11477
  90 143.991 3.55037 -2.15599
  91 143.364 3.25119 2.11477
  92 143.991 3.55037 -2.15599
  93 207.870 10.5479 6.66017
  94 207.870 10.5479 6.66017
  95 148.545 1.44490 6.18719
  96 148.545 1.44490 6.18719
  97 224.285 16.4842 -7.55702
  98 227.668 12.8108 -15.6722
  99 224.285 16.4842 -7.55702
  100 227.668 12.8108 -15.6722
  101 144.709 2.29150 -7.58894
  102 144.709 2.29150 -7.58894
  103 118.378 -23.7935 -51.8211
  104 118.378 -23.7935 -51.8211
  105 100.297 -27.2857 54.6861
  106 100.297 -27.2857 54.6861
  107 185.118 -14.5915 -19.2622
  108 185.118 -14.5915 -19.2622
  109 137.976 -16.9749 -30.6362
  110 137.976 -16.9749 -30.6362
  111 238.175 16.1752 11.8551
  112 238.175 16.1752 11.8551
  113 17.9972 -58.9472 -19.8974
  114 17.9972 -58.9472 -19.8974
  115 10.5304 -69.0271 5.87389
  116 10.5304 -69.0271 5.87389
  117 123.679 7.89260 -1.59380
  118 123.679 7.89260 -1.59380
  119 151.012 -5.87156 -11.9025
  120 151.012 -5.87156 -11.9025
  121 254.493 7.20645 -5.78556
  122 254.493 7.20645 -5.78556
  123 28.5544 -58.6224 33.6181
  124 28.5544 -58.6224 33.6181
  125 135.574 4.71452 7.05037
  126 135.574 4.71452 7.05037
  127 33.7272 -47.6742 -37.5699
  128 33.7272 -47.6742 -37.5699
  129 182.676 -12.7080 28.6324
  130 182.676 -12.7080 28.6324
  131 258.994 12.7671 -17.4690
  132 258.994 12.7671 -17.4690
  133 13.1876 -78.9360 -5.64630
  134 13.1876 -78.9360 -5.64630
  135 15.9035 -76.1448 14.4215
  136 15.9035 -76.1448 14.4215
  137 148.301 1.45622 -3.66142
  138 148.301 1.45622 -3.66142
  139 140.762 4.93416 -0.262240
  140 140.762 4.93416 -0.262240
  141 144.233 2.53423 -0.0345982
  142 144.233 2.53423 -0.0345982
  143 148.674 -2.97781 10.4914
  144 148.674 -2.97781 10.4914
  145 102.914 -2.79799 24.5376
  146 149.995 -13.7944 20.7125
  147 101.761 5.83210 0.554485
  148 102.914 -2.79799 24.5376
  149 149.995 -13.7944 20.7125
  150 101.761 5.83210 0.554485
  151 133.833 2.42522 -11.1952
  152 133.833 2.42522 -11.1952
  153 252.424 7.45942 4.38639
  154 252.424 7.45942 4.38639
  155 262.258 6.17050 11.0464
  156 262.697 12.4208 21.4497
  157 262.258 6.17050 11.0464
  158 262.697 12.4208 21.4497
  159 145.885 1.70522 1.23706
  160 145.885 1.70522 1.23706
  161 90.9707 -3.90402 -20.8839
  162 90.9707 -3.90402 -20.8839
  163 145.893 1.66056 -1.21501
  164 145.893 1.66056 -1.21501
  165 146.805 1.99814 3.35662
  166 146.805 1.99814 3.35662
  167 171.981 -1.47448 4.55675
  168 168.211 -6.03939 -0.349473
  169 171.981 -1.47448 4.55675
  170 168.211 -6.03939 -0.349473
  171 185.654 -4.69999 1.49252
  172 185.654 -4.69999 1.49252
  173 140.892 4.46628 3.84963
  174 140.892 4.46628 3.84963
  175 70.1517 -7.81127 28.1174
  176 70.1517 -7.81127 28.1174
  177 62.1351 -3.66110 -17.7714
  178 62.1351 -3.66110 -17.7714
  179 142.120 4.81018 -3.68049
  180 142.120 4.81018 -3.68049
</Section>

newXOutput 43

<Section columns = "stress_xx | stress_yy | stress_xy">
  1 149.776 1.06271 -0.623712
  2 149.642 0.825577 0.561555
  3 149.776 1.06271 -0.623712
  4 149.642 0.825577 0.561555
  5 224.294 6.06839 55.7481
  6 220.657 4.58897 -51.5888
  7 224.294 6.06839 55.7481
  8 220.657 4.58897 -51.5888
  9 151.374 0.302279 -1.98386
  10 157.947 0.0332026 -3.25469
  11 162.044 -1.82338 -4.13903
  12 170.242 -0.860452 2.54366
  13 169.818 5.15737 1.63625
  14 170.683 -0.866432 -3.28776
  15 163.773 -2.84272 4.12504
  16 155.846 0.712516 3.80254
  17 151.524 1.00667 1.77290
  18 148.781 1.75583 0.310574
  19 147.888 1.77815 -0.0241363
  20 148.707 1.62011 -0.282085
  21 151.374 0.302279 -1.98386
  22 157.947 0.0332026 -3.25469
  23 162.044 -1.82338 -4.13903
  24 170.242 -0.860452 2.54366
  25 169.818 5.15737 1.63625
  26 170.683 -0.866432 -3.28776
  27 163.773 -2.84272 4.12504
  28 155.846 0.712516 3.80254
  29 151.524 1.00667 1.77290
  30 148.781 1.75583 0.310574
  31 147.888 1.77815 -0.0241363
  32 148.707 1.62011 -0.282085
  33 331.675 2.69987 24.2350
  34 288.294 2.97091 15.8103
  35 276.981 5.52145 6.36007
  36 268.397 3.34940 -1.66675
  37 284.523 1.05499 -6.08296
  38 291.221 5.55051 -14.3889
  39 303.127 19.7174 -29.6494
  40 74.3597 -43.1023 -62.7607
  41 14.8602 -79.7606 -25.6379
  42 5.95323 -108.007 -8.13795
  43 4.11715 -114.369 -0.870492
  44 4.96542 -109.431 8.22443
  45 13.6402 -94.8215 22.1021
  46 60.4574 -43.5866 61.5535
  47 331.675 2.69987 24.2350
  48 288.294 2.97091 15.8103
  49 276.981 5.52145 6.36007
  50 268.397 3.34940 -1.66675
  51 284.523 1.05499 -6.08296
  52 291.221 5.55051 -14.3889
  53 303.127 19.7174 -29.6494
  54 74.3597 -43.1023 -62.7607
  55 14.8602 -79.7606 -25.6379
  56 5.95323 -108.007 -8.13795
  57 4.11715 -114.369 -0.870492
  58 4.96542 -109.431 8.22443
  59 13.6402 -94.8215 22.1021
  60 60.4574 -43.5866 61.5535
  61 138.350 5.93047 -2.56554
  62 138.350 5.93047 -2.56554
  63 128.215 1.85364 13.8181
  64 124.472 0.817033 -16.8199
  65 128.215 1.85364 13.8181
  66 124.472 0.817033 -16.8199
  67 70.9893 1.28491 4.60411
  68 70.9893 1.28491 4.60411
  69 116.091 -21.4528 45.3065
  70 116.091 -21.4528 45.3065
  71 70.2022 -20.7027 -36.1500
  72 174.882 -14.8426 -7.46045
  73 193.631 10.7966 -0.00413075
  74 184.847 5.04700 -2.33601
  75 70.2022 -20.7027 -36.1500
  76 174.882 -14.8426 -7.46045
  77 193.631 10.7966 -0.00413075
  78 184.847 5.04700 -2.33601
  79 171.578 -7.96962 3.37798
  80 171.578 -7.96962 3.37798
  81 221.579 16.3952 1.02104
  82 221.579 16.3952 1.02104
  83 37.1336 -24.4013 -3.06563
  84 37.1336 -24.4013 -3.06563
  85 48.5321 -32.5723 31.0335
  86 48.5321 -32.5723 31.0335
  87 185.513 -10.8135 5.16253
  88 185.513 -10.8135 5.16253
  89 146.803 3.32829 2.16431
  90 147.445 3.63465 -2.20650
  91 146.803 3.32829 2.16431
  92 147.445 3.63465 -2.20650
  93 212.824 10.8066 6.83496
  94 212.824 10.8066 6.83496
  95 152.104 1.47915 6.33391
  96 152.104 1.47915 6.33391
  97 229.625 16.8773 -7.74384
  98 233.079 13.1267 -16.0627
  99 229.625 16.8773 -7.74384
  100 233.079 13.1267 -16.0627
  101 148.179 2.34607 -7.76943
  102 148.179 2.34607 -7.76943
  103 121.200 -24.3497 -53.0870
  104 121.200 -24.3497 -53.0870
  105 102.690 -27.9251 56.0239
  106 102.690 -27.9251 56.0239
  107 189.528 -14.9341 -19.7427
  108 189.528 -14.9341 -19.7427
  109 141.279 -17.3832 -31.3775
  110 141.279 -17.3832 -31.3775
  111 243.832 16.5621 12.1440
  112 243.832 16.5621 12.1440
  113 18.4325 -60.3628 -20.3923
  114 18.4325 -60.3628 -20.3923
  115 10.7835 -70.6918 6.02134
  116 10.7835 -70.6918 6.02134
  117 126.657 8.08243 -1.63160
  118 126.657 8.08243 -1.63160
  119 154.628 -6.01293 -12.1896
  120 154.628 -6.01293 -12.1896
  121 260.517 7.37546 -5.92273
  122 260.517 7.37546 -5.92273
  123 29.2442 -60.0199 34.4552
  124 29.2442 -60.0199 34.4552
  125 138.830 4.82737 7.21806
  126 138.830 4.82737 7.21806
  127 34.5425 -48.8078 -38.5003
  128 34.5425 -48.8078 -38.5003
  129 187.026 -13.0044 29.3370
  130 187.026 -13.0044 29.3370
  131 265.125 13.0713 -17.8899
  132 265.125 13.0713 -17.8899
  133 13.5045 -80.8440 -5.78691
  134 13.5045 -80.8440 -5.78691
  135 16.2868 -77.9789 14.7856
  136 16.2868 -77.9789 14.7856
  137 151.854 1.49077 -3.74780
  138 151.854 1.49077 -3.74780
  139 144.141 5.05142 -0.268444
  140 144.141 5.05142 -0.268444
  141 147.693 2.59416 -0.0354060
  142 147.693 2.59416 -0.0354060
  143 152.235 -3.04959 10.7431
  144 152.235 -3.04959 10.7431
  145 105.394 -2.86380 25.1282
  146 153.583 -14.1260 21.2146
  147 104.219 5.97404 0.568257
  148 105.394 -2.86380 25.1282
  149 153.583 -14.1260 21.2146
  150 104.219 5.97404 0.568257
  151 137.048 2.48348 -11.4621
  152 137.048 2.48348 -11.4621
  153 258.402 7.63383 4.49162
  154 258.402 7.63383 4.49162
  155 268.462 6.31501 11.3087
  156 268.913 12.7261 21.9709
  157 268.462 6.31501 11.3087
  158 268.913 12.7261 21.9709
  159 149.382 1.74557 1.26590
  160 149.382 1.74557 1.26590
  161 93.1675 -3.99612 -21.3872
  162 93.1675 -3.99612 -21.3872
  163 149.391 1.69985 -1.24334
  164 149.391 1.69985 -1.24334
  165 150.323 2.04560 3.43540
  166 150.323 2.04560 3.43540
  167 176.097 -1.50853 4.65725
  168 172.232 -6.18487 -0.363645
  169 176.097 -1.50853 4.65725
  170 172.232 -6.18487 -0.363645
  171 190.086 -4.80831 1.51252
  172 190.086 -4.80831 1.51252
  173 144.274 4.57264 3.94045
  174 144.274 4.57264 3.94045
  175 71.8478 -7.99463 28.7991
  176 71.8478 -7.99463 28.7991
  177 63.6418 -3.74298 -18.2021
  178 63.6418 -3.74298 -18.2021
  179 145.531 4.92476 -3.76744
  180 145.531 4.92476 -3.76744
</Section>

newXOutput 44

<Section columns = "stress_xx | stress_yy | stress_xy">
  1 153.279 1.08721 -0.637870
  2 153.142 0.844580 0.574289
  3 153.279 1.08721 -0.637870
  4 153.142 0.844580 0.574289
  5 229.468 6.24160 57.0707
  6 225.757 4.72769 -52.8191
  7 229.468 6.24160 57.0707
  8 225.757 4.72769 -52.8191
  9 154.913 0.309079 -2.02923
  10 161.634 0.0339966 -3.32951
  11 165.827 -1.86648 -4.23670
  12 174.219 -0.880601 2.59825
  13 173.793 5.27902 1.67304
  14 174.671 -0.886431 -3.35865
  15 167.595 -2.90970 4.22263
  16 159.486 0.728959 3.88996
  17 155.066 1.02993 1.81324
  18 152.262 1.79626 0.317620
  19 151.349 1.81906 -0.0246799
  20 152.186 1.65740 -0.288487
  21 154.913 0.309079 -2.02923
  22 161.634 0.0339966 -3.32951
  23 165.827 -1.86648 -4.23670
  24 174.219 -0.880601 2.59825
  25 173.793 5.27902 1.67304
  26 174.671 -0.886431 -3.35865
  27 167.595 -2.90970 4.22263
  28 159.486 0.728959 3.88996
  29 155.066 1.02993 1.81324
  30 152.262 1.79626 0.317620
  31 151.349 1.81906 -0.0246799
  32 152.186 1.65740 -0.288487
  33 339.280 2.76371 24.7999
  34 294.924 3.03604 16.1768
  35 283.357 5.64758 6.50578
  36 274.580 3.42440 -1.70448
  37 291.060 1.07872 -6.22303
  38 297.918 5.67909 -14.7213
  39 310.102 20.1865 -30.3483
  40 76.0889 -44.0775 -64.2642
  41 15.2097 -81.6253 -26.2649
  42 6.09143 -110.568 -8.33955
  43 4.21055 -117.087 -0.890900
  44 5.07916 -112.024 8.42766
  45 13.9605 -97.0477 22.6454
  46 61.8651 -44.5732 63.0298
  47 339.280 2.76371 24.7999
  48 294.924 3.03604 16.1768
  49 283.357 5.64758 6.50578
  50 274.580 3.42440 -1.70448
  51 291.060 1.07872 -6.22303
  52 297.918 5.67909 -14.7213
  53 310.102 20.1865 -30.3483
  54 76.0889 -44.0775 -64.2642
  55 15.2097 -81.6253 -26.2649
  56 6.09143 -110.568 -8.33955
  57 4.21055 -117.087 -0.890900
  58 5.07916 -112.024 8.42766
  59 13.9605 -97.0477 22.6454
  60 61.8651 -44.5732 63.0298
  61 141.594 6.06879 -2.62497
  62 141.594 6.06879 -2.62497
  63 131.224 1.89765 14.1411
  64 127.393 0.836741 -17.2130
  65 131.224 1.89765 14.1411
  66 127.393 0.836741 -17.2130
  67 72.6699 1.31999 4.71274
  68 72.6699 1.31999 4.71274
  69 118.805 -21.9569 46.3779
  70 118.805 -21.9569 46.3779
  71 71.8541 -21.1840 -37.0103
  72 178.957 -15.1899 -7.64447
  73 198.148 11.0512 -0.0113917
  74 189.162 5.16667 -2.38224
  75 71.8541 -21.1840 -37.0103
  76 178.957 -15.1899 -7.64447
  77 198.148 11.0512 -0.0113917
  78 189.162 5.16667 -2.38224
  79 175.580 -8.15616 3.46398
  80 175.580 -8.15616 3.46398
  81 226.730 16.7764 1.04810
  82 226.730 16.7764 1.04810
  83 38.0131 -24.9661 -3.13918
  84 38.0131 -24.9661 -3.13918
  85 49.6737 -33.3303 31.7778
  86 49.6737 -33.3303 31.7778
  87 189.834 -11.0635 5.29800
  88 189.834 -11.0635 5.29800
  89 150.240 3.40529 2.21376
  90 150.896 3.71882 -2.25691
  91 150.240 3.40529 2.21376
  92 150.896 3.71882 -2.25691
  93 217.773 11.0653 7.01031
  94 217.773 11.0653 7.01031
  95 155.660 1.51335 6.48043
  96 155.660 1.51335 6.48043
  97 234.960 17.2700 -7.93076
  98 238.484 13.4427 -16.4535
  99 234.960 17.2700 -7.93076
  100 238.484 13.4427 -16.4535
  101 151.646 2.40057 -7.94971
  102 151.646 2.40057 -7.94971
  103 124.019 -24.9047 -54.3530
  104 124.019 -24.9047 -54.3530
  105 105.082 -28.5633 57.3619
  106 105.082 -28.5633 57.3619
  107 193.932 -15.2760 -20.2236
  108 193.932 -15.2760 -20.2236
  109 144.578 -17.7912 -32.1185
  110 144.578 -17.7912 -32.1185
  111 249.483 16.9487 12.4328
  112 249.483 16.9487 12.4328
  113 18.8677 -61.7773 -20.8877
  114 18.8677 -61.7773 -20.8877
  115 11.0365 -72.3557 6.16898
  116 11.0365 -72.3557 6.16898
  117 129.632 8.27215 -1.66935
  118 129.632 8.27215 -1.66935
  119 158.240 -6.15420 -12.4766
  120 158.240 -6.15420 -12.4766
  121 266.532 7.54417 -6.05971
  122 266.532 7.54417 -6.05971
  123 29.9337 -61.4159 35.2930
  124 29.9337 -61.4159 35.2930
  125 142.085 4.94012 7.38554
  126 142.085 4.94012 7.38554
  127 35.3574 -49.9399 -39.4313
  128 35.3574 -49.9399 -39.4313
  129 191.372 -13.3003 30.0419
  130 191.372 -13.3003 30.0419
  131 271.247 13.3751 -18.3106
  132 271.247 13.3751 -18.3106
  133 13.8212 -82.7512 -5.92766
  134 13.8212 -82.7512 -5.92766
  135 16.6698 -79.8118 15.1502
  136 16.6698 -79.8118 15.1502
  137 155.404 1.52527 -3.83404
  138 155.404 1.52527 -3.83404
  139 147.518 5.16854 -0.274640
  140 147.518 5.16854 -0.274640
  141 151.150 2.65400 -0.0362122
  142 151.150 2.65400 -0.0362122
  143 155.794 -3.12133 10.9947
  144 155.794 -3.12133 10.9947
  145 107.873 -2.92949 25.7185
  146 157.167 -14.4573 21.7166
  147 106.676 6.11596 0.582041
  148 107.873 -2.92949 25.7185
  149 157.167 -14.4573 21.7166
  150 106.676 6.11596 0.582041
  151 140.260 2.54168 -11.7287
  152 140.260 2.54168 -11.7287
  153 264.373 7.80790 4.59677
  154 264.373 7.80790 4.59677
  155 274.657 6.45924 11.5706
  156 275.120 13.0315 22.4920
  157 274.657 6.45924 11.5706
  158 275.120 13.0315 22.4920
  159 152.876 1.78586 1.29468
  160 152.876 1.78586 1.29468
  161 95.3632 -4.08808 -21.8903
  162 95.3632 -4.08808 -21.8903
  163 152.885 1.73909 -1.27160
  164 152.885 1.73909 -1.27160
  165 153.839 2.09299 3.51403
  166 153.839 2.09299 3.51403
  167 180.209 -1.54248 4.75726
  168 176.249 -6.33027 -0.378075
  169 180.209 -1.54248 4.75726
  170 176.249 -6.33027 -0.378075
  171 194.514 -4.91633 1.53176
  172 194.514 -4.91633 1.53176
  173 147.653 4.67888 4.03114
  174 147.653 4.67888 4.03114
  175 73.5433 -8.17765 29.4806
  176 73.5433 -8.17765 29.4806
  177 65.1480 -3.82452 -18.6326
  178 65.1480 -3.82452 -18.6326
  179 148.938 5.03920 -3.85427
  180 148.938 5.03920 -3.85427
</Section>

newXOutput 45

<Section columns = "stress_xx | stress_yy | stress_xy">
  1 156.779 1.11167 -0.651996
  2 156.639 0.863554 0.586994
  3 156.779 1.11167 -0.651996
  4 156.639 0.863554 0.586994
  5 234.633 6.41612 58.3931
  6 230.849 4.86775 -54.0495
  7 234.633 6.41612 58.3931
  8 230.849 4.86775 -54.0495
  9 158.448 0.315861 -2.07452
  10 165.318 0.0347909 -3.40420
  11 169.607 -1.90957 -4.33434
  12 178.193 -0.900735 2.65257
  13 177.766 5.40061 1.70973
  14 178.655 -0.906401 -3.42921
  15 171.414 -2.97665 4.32019
  16 163.123 0.745377 3.97725
  17 158.605 1.05317 1.85350
  18 155.740 1.83662 0.324650
  19 154.808 1.85990 -0.0252220
  20 155.663 1.69464 -0.294875
  21 158.448 0.315861 -2.07452
  22 165.318 0.0347909 -3.40420
  23 169.607 -1.90957 -4.33434
  24 178.193 -0.900735 2.65257
  25 177.766 5.40061 1.70973
  26 178.655 -0.906401 -3.42921
  27 171.414 -2.97665 4.32019
  28 163.123 0.745377 3.97725
  29 158.605 1.05317 1.85350
  30 155.740 1.83662 0.324650
  31 154.808 1.85990 -0.0252220
  32 155.663 1.69464 -0.294875
  33 346.873 2.82752 25.3643
  34 301.544 3.10092 16.5428
  35 289.722 5.77348 6.65122
  36 280.754 3.49918 -1.74213
  37 297.586 1.10238 -6.36288
  38 304.604 5.80751 -15.0533
  39 317.066 20.6557 -31.0468
  40 77.8161 -45.0504 -65.7681
  41 15.5591 -83.4884 -26.8927
  42 6.22947 -113.128 -8.54151
  43 4.30373 -119.805 -0.911294
  44 5.19270 -114.617 8.63123
  45 14.2806 -99.2724 23.1896
  46 63.2713 -45.5574 64.5065
  47 346.873 2.82752 25.3643
  48 301.544 3.10092 16.5428
  49 289.722 5.77348 6.65122
  50 280.754 3.49918 -1.74213
  51 297.586 1.10238 -6.36288
  52 304.604 5.80751 -15.0533
  53 317.066 20.6557 -31.0468
  54 77.8161 -45.0504 -65.7681
  55 15.5591 -83.4884 -26.8927
  56 6.22947 -113.128 -8.54151
  57 4.30373 -119.805 -0.911294
  58 5.19270 -114.617 8.63123
  59 14.2806 -99.2724 23.1896
  60 63.2713 -45.5574 64.5065
  61 144.836 6.20697 -2.68434
  62 144.836 6.20697 -2.68434
  63 134.230 1.94164 14.4638
  64 130.313 0.856459 -17.6057
  65 134.230 1.94164 14.4638
  66 130.313 0.856459 -17.6057
  67 74.3500 1.35527 4.82132
  68 74.3500 1.35527 4.82132
  69 121.516 -22.4607 47.4490
  70 121.516 -22.4607 47.4490
  71 73.5050 -21.6648 -37.8707
  72 183.029 -15.5369 -7.82877
  73 202.661 11.3058 -0.0189717
  74 193.473 5.28631 -2.42805
  75 73.5050 -21.6648 -37.8707
  76 183.029 -15.5369 -7.82877
  77 202.661 11.3058 -0.0189717
  78 193.473 5.28631 -2.42805
  79 179.579 -8.34255 3.55023
  80 179.579 -8.34255 3.55023
  81 231.876 17.1572 1.07528
  82 231.876 17.1572 1.07528
  83 38.8924 -25.5302 -3.21276
  84 38.8924 -25.5302 -3.21276
  85 50.8146 -34.0876 32.5224
  86 50.8146 -34.0876 32.5224
  87 194.149 -11.3132 5.43403
  88 194.149 -11.3132 5.43403
  89 153.673 3.48219 2.26311
  90 154.344 3.80289 -2.30723
  91 153.673 3.48219 2.26311
  92 154.344 3.80289 -2.30723
  93 222.717 11.3241 7.18621
  94 222.717 11.3241 7.18621
  95 159.213 1.54751 6.62675
  96 159.213 1.54751 6.62675
  97 240.288 17.6624 -8.11779
  98 243.882 13.7589 -16.8446
  99 240.288 17.6624 -8.11779
  100 243.882 13.7589 -16.8446
  101 155.111 2.45502 -8.12977
  102 155.111 2.45502 -8.12977
  103 126.835 -25.4586 -55.6190
  104 126.835 -25.4586 -55.6190
  105 107.471 -29.2003 58.7001
  106 107.471 -29.2003 58.7001
  107 198.331 -15.6173 -20.7050
  108 198.331 -15.6173 -20.7050
  109 147.875 -18.1989 -32.8592
  110 147.875 -18.1989 -32.8592
  111 255.127 17.3350 12.7216
  112 255.127 17.3350 12.7216
  113 19.3027 -63.1908 -21.3835
  114 19.3027 -63.1908 -21.3835
  115 11.2893 -74.0186 6.31682
  116 11.2893 -74.0186 6.31682
  117 132.605 8.46173 -1.70705
  118 132.605 8.46173 -1.70705
  119 161.850 -6.29539 -12.7634
  120 161.850 -6.29539 -12.7634
  121 272.539 7.71256 -6.19651
  122 272.539 7.71256 -6.19651
  123 30.6229 -62.8104 36.1317
  124 30.6229 -62.8104 36.1317
  125 145.337 5.05277 7.55283
  126 145.337 5.05277 7.55283
  127 36.1720 -51.0707 -40.3630
  128 36.1720 -51.0707 -40.3630
  129 195.714 -13.5954 30.7470
  130 195.714 -13.5954 30.7470
  131 277.360 13.6786 -18.7309
  132 277.360 13.6786 -18.7309
  133 14.1377 -84.6575 -6.06855
  134 14.1377 -84.6575 -6.06855
  135 17.0526 -81.6437 15.5155
  136 17.0526 -81.6437 15.5155
  137 158.952 1.55972 -3.92015
  138 158.952 1.55972 -3.92015
  139 150.892 5.28551 -0.280826
  140 150.892 5.28551 -0.280826
  141 154.604 2.71376 -0.0370167
  142 154.604 2.71376 -0.0370167
  143 159.349 -3.19303 11.2461
  144 159.349 -3.19303 11.2461
  145 110.351 -2.99507 26.3084
  146 160.748 -14.7885 22.2184
  147 109.132 6.25787 0.595835
  148 110.351 -2.99507 26.3084
  149 160.748 -14.7885 22.2184
  150 109.132 6.25787 0.595835
  151 143.470 2.59985 -11.9950
  152 143.470 2.59985 -11.9950
  153 270.334 7.98162 4.70184
  154 270.334 7.98162 4.70184
  155 280.843 6.60320 11.8323
  156 281.319 13.3369 23.0130
  157 280.843 6.60320 11.8323
  158 281.319 13.3369 23.0130
  159 156.368 1.82609 1.32340
  160 156.368 1.82609 1.32340
  161 97.5580 -4.17990 -22.3931
  162 97.5580 -4.17990 -22.3931
  163 156.377 1.77826 -1.29980
  164 156.377 1.77826 -1.29980
  165 157.352 2.14032 3.59251
  166 157.352 2.14032 3.59251
  167 184.318 -1.57634 4.85677
  168 180.262 -6.47558 -0.392763
  169 184.318 -1.57634 4.85677
  170 180.262 -6.47558 -0.392763
  171 198.937 -5.02406 1.55025
  172 198.937 -5.02406 1.55025
  173 151.029 4.78500 4.12168
  174 151.029 4.78500 4.12168
  175 75.2381 -8.36035 30.1619
  176 75.2381 -8.36035 30.1619
  177 66.6538 -3.90571 -19.0630
  178 66.6538 -3.90571 -19.0630
  179 152.344 5.15352 -3.94096
  180 152.344 5.15352 -3.94096
</Section>

newXOutput 46

<Section columns = "stress_xx | stress_yy | stress_xy">
  1 160.277 1.13610 -0.666092
  2 160.133 0.882499 0.599672
  3 160.277 1.13610 -0.666092
  4 160.133 0.882499 0.599672
  5 239.791 6.59193 59.7153
  6 235.934 5.00915 -55.2799
  7 239.791 6.59193 59.7153
  8 235.934 5.00915 -55.2799
  9 161.981 0.322626 -2.11973
  10 168.999 0.0355854 -3.47877
  11 173.383 -1.95264 -4.43193
  12 182.164 -0.920853 2.70663
  13 181.736 5.52215 1.74632
  14 182.636 -0.926341 -3.49944
  15 175.229 -3.04356 4.41772
  16 166.757 0.761773 4.06439
  17 162.142 1.07637 1.89367
  18 159.216 1.87693 0.331664
  19 158.263 1.90067 -0.0257628
  20 159.136 1.73181 -0.301249
  21 161.981 0.322626 -2.11973
  22 168.999 0.0355854 -3.47877
  23 173.383 -1.95264 -4.43193
  24 182.164 -0.920853 2.70663
  25 181.736 5.52215 1.74632
  26 182.636 -0.926341 -3.49944
  27 175.229 -3.04356 4.41772
  28 166.757 0.761773 4.06439
  29 162.142 1.07637 1.89367
  30 159.216 1.87693 0.331664
  31 158.263 1.90067 -0.0257628
  32 159.136 1.73181 -0.301249
  33 354.452 2.89132 25.9282
  34 308.153 3.16555 16.9084
  35 296.077 5.89914 6.79641
  36 286.919 3.57376 -1.77968
  37 304.101 1.12597 -6.50252
  38 311.279 5.93578 -15.3848
  39 324.020 21.1248 -31.7449
  40 79.5414 -46.0210 -67.2723
  41 15.9083 -85.3499 -27.5212
  42 6.36735 -115.688 -8.74384
  43 4.39670 -122.523 -0.931672
  44 5.30603 -117.210 8.83514
  45 14.6005 -101.496 23.7345
  46 64.6761 -46.5392 65.9836
  47 354.452 2.89132 25.9282
  48 308.153 3.16555 16.9084
  49 296.077 5.89914 6.79641
  50 286.919 3.57376 -1.77968
  51 304.101 1.12597 -6.50252
  52 311.279 5.93578 -15.3848
  53 324.020 21.1248 -31.7449
  54 79.5414 -46.0210 -67.2723
  55 15.9083 -85.3499 -27.5212
  56 6.36735 -115.688 -8.74384
  57 4.39670 -122.523 -0.931672
  58 5.30603 -117.210 8.83514
  59 14.6005 -101.496 23.7345
  60 64.6761 -46.5392 65.9836
  61 148.076 6.34503 -2.74362
  62 148.076 6.34503 -2.74362
  63 137.235 1.98563 14.7862
  64 133.230 0.876189 -17.9980
  65 137.235 1.98563 14.7862
  66 133.230 0.876189 -17.9980
  67 76.0298 1.39075 4.92986
  68 76.0298 1.39075 4.92986
  69 124.225 -22.9643 48.5198
  70 124.225 -22.9643 48.5198
  71 75.1550 -22.1451 -38.7310
  72 187.096 -15.8835 -8.01335
  73 207.170 11.5602 -0.0268698
  74 197.779 5.40594 -2.47344
  75 75.1550 -22.1451 -38.7310
  76 187.096 -15.8835 -8.01335
  77 207.170 11.5602 -0.0268698
  78 197.779 5.40594 -2.47344
  79 183.574 -8.52880 3.63673
  80 183.574 -8.52880 3.63673
  81 237.015 17.5376 1.10258
  82 237.015 17.5376 1.10258
  83 39.7715 -26.0936 -3.28637
  84 39.7715 -26.0936 -3.28637
  85 51.9549 -34.8440 33.2671
  86 51.9549 -34.8440 33.2671
  87 198.461 -11.5625 5.57062
  88 198.461 -11.5625 5.57062
  89 157.105 3.55899 2.31237
  90 157.790 3.88684 -2.35745
  91 157.105 3.55899 2.31237
  92 157.790 3.88684 -2.35745
  93 227.655 11.5829 7.36267
  94 227.655 11.5829 7.36267
  95 162.763 1.58162 6.77288
  96 162.763 1.58162 6.77288
  97 245.610 18.0543 -8.30491
  98 249.274 14.0752 -17.2361
  99 245.610 18.0543 -8.30491
  100 249.274 14.0752 -17.2361
  101 158.573 2.50940 -8.30961
  102 158.573 2.50940 -8.30961
  103 129.649 -26.0113 -56.8851
  104 129.649 -26.0113 -56.8851
  105 109.857 -29.8360 60.0385
  106 109.857 -29.8360 60.0385
  107 202.726 -15.9579 -21.1869
  108 202.726 -15.9579 -21.1869
  109 151.168 -18.6064 -33.5996
  110 151.168 -18.6064 -33.5996
  111 260.763 17.7209 13.0103
  112 260.763 17.7209 13.0103
  113 19.7376 -64.6033 -21.8797
  114 19.7376 -64.6033 -21.8797
  115 11.5420 -75.6807 6.46486
  116 11.5420 -75.6807 6.46486
  117 135.577 8.65119 -1.74470
  118 135.577 8.65119 -1.74470
  119 165.456 -6.43650 -13.0501
  120 165.456 -6.43650 -13.0501
  121 278.537 7.88065 -6.33312
  122 278.537 7.88065 -6.33312
  123 31.3117 -64.2033 36.9711
  124 31.3117 -64.2033 36.9711
  125 148.586 5.16533 7.71992
  126 148.586 5.16533 7.71992
  127 36.9862 -52.2001 -41.2954
  128 36.9862 -52.2001 -41.2954
  129 200.050 -13.8900 31.4524
  130 200.050 -13.8900 31.4524
  131 283.464 13.9817 -19.1511
  132 283.464 13.9817 -19.1511
  133 14.4539 -86.5631 -6.20958
  134 14.4539 -86.5631 -6.20958
  135 17.4352 -83.4744 15.8813
  136 17.4352 -83.4744 15.8813
  137 162.496 1.59413 -4.00612
  138 162.496 1.59413 -4.00612
  139 154.264 5.40234 -0.287003
  140 154.264 5.40234 -0.287003
  141 158.055 2.77343 -0.0378195
  142 158.055 2.77343 -0.0378195
  143 162.901 -3.26469 11.4973
  144 162.901 -3.26469 11.4973
  145 112.827 -3.06054 26.8979
  146 164.326 -15.1194 22.7200
  147 111.587 6.39976 0.609641
  148 112.827 -3.06054 26.8979
  149 164.326 -15.1194 22.7200
  150 111.587 6.39976 0.609641
  151 146.678 2.65798 -12.2610
  152 146.678 2.65798 -12.2610
  153 276.288 8.15500 4.80682
  154 276.288 8.15500 4.80682
  155 287.021 6.74689 12.0936
  156 287.508 13.6425 23.5339
  157 287.021 6.74689 12.0936
  158 287.508 13.6425 23.5339
  159 159.856 1.86627 1.35207
  160 159.856 1.86627 1.35207
  161 99.7516 -4.27157 -22.8956
  162 99.7516 -4.27157 -22.8956
  163 159.866 1.81739 -1.32795
  164 159.866 1.81739 -1.32795
  165 160.862 2.18760 3.67085
  166 160.862 2.18760 3.67085
  167 188.423 -1.61011 4.95580
  168 184.272 -6.62080 -0.407707
  169 188.423 -1.61011 4.95580
  170 184.272 -6.62080 -0.407707
  171 203.356 -5.13149 1.56799
  172 203.356 -5.13149 1.56799
  173 154.403 4.89101 4.21208
  174 154.403 4.89101 4.21208
  175 76.9321 -8.54271 30.8430
  176 76.9321 -8.54271 30.8430
  177 68.1592 -3.98657 -19.4933
  178 68.1592 -3.98657 -19.4933
  179 155.746 5.26772 -4.02752
  180 155.746 5.26772 -4.02752
</Section>

newXOutput 47

<Section columns = "stress_xx | stress_yy | stress_xy">
  1 163.771 1.16049 -0.680156
  2 163.625 0.901414 0.612320
  3 163.771 1.16049 -0.680156
  4 163.625 0.901414 0.612320
  5 244.942 6.76904 61.0371
  6 241.012 5.15188 -56.5103
  7 244.942 6.76904 61.0371
  8 241.012 5.15188 -56.5103
  9 165.511 0.329372 -2.16485
  10 172.676 0.0363801 -3.55322
  11 177.156 -1.99570 -4.52948
  12 186.131 -0.940955 2.76041
  13 185.702 5.64364 1.78282
  14 186.614 -0.946252 -3.56934
  15 179.040 -3.11045 4.51522
  16 170.387 0.778144 4.15139
  17 165.675 1.09955 1.93376
  18 162.688 1.91717 0.338663
  19 161.716 1.94138 -0.0263022
  20 162.607 1.76893 -0.307608
  21 165.511 0.329372 -2.16485
  22 172.676 0.0363801 -3.55322
  23 177.156 -1.99570 -4.52948
  24 186.131 -0.940955 2.76041
  25 185.702 5.64364 1.78282
  26 186.614 -0.946252 -3.56934
  27 179.040 -3.11045 4.51522
  28 170.387 0.778144 4.15139
  29 165.675 1.09955 1.93376
  30 162.688 1.91717 0.338663
  31 161.716 1.94138 -0.0263022
  32 162.607 1.76893 -0.307608
  33 362.019 2.95509 26.4915
  34 314.752 3.22993 17.2735
  35 302.422 6.02456 6.94134
  36 293.075 3.64812 -1.81715
  37 310.606 1.14951 -6.64194
  38 317.943 6.06388 -15.7158
  39 330.962 21.5939 -32.4427
  40 81.2648 -46.9892 -68.7769
  41 16.2573 -87.2098 -28.1504
  42 6.50506 -118.247 -8.94652
  43 4.48946 -125.240 -0.952035
  44 5.41916 -119.802 9.03940
  45 14.9202 -103.717 24.2802
  46 66.0793 -47.5187 67.4612
  47 362.019 2.95509 26.4915
  48 314.752 3.22993 17.2735
  49 302.422 6.02456 6.94134
  50 293.075 3.64812 -1.81715
  51 310.606 1.14951 -6.64194
  52 317.943 6.06388 -15.7158
  53 330.962 21.5939 -32.4427
  54 81.2648 -46.9892 -68.7769
  55 16.2573 -87.2098 -28.1504
  56 6.50506 -118.247 -8.94652
  57 4.48946 -125.240 -0.952035
  58 5.41916 -119.802 9.03940
  59 14.9202 -103.717 24.2802
  60 66.0793 -47.5187 67.4612
  61 151.313 6.48295 -2.80284
  62 151.313 6.48295 -2.80284
  63 140.237 2.02962 15.1083
  64 136.146 0.895929 -18.3900
  65 140.237 2.02962 15.1083
  66 136.146 0.895929 -18.3900
  67 77.7090 1.42643 5.03835
  68 77.7090 1.42643 5.03835
  69 126.931 -23.4675 49.5902
  70 126.931 -23.4675 49.5902
  71 76.8041 -22.6248 -39.5913
  72 191.159 -16.2299 -8.19822
  73 211.675 11.8145 -0.0350851
  74 202.082 5.52554 -2.51841
  75 76.8041 -22.6248 -39.5913
  76 191.159 -16.2299 -8.19822
  77 211.675 11.8145 -0.0350851
  78 202.082 5.52554 -2.51841
  79 187.565 -8.71489 3.72347
  80 187.565 -8.71489 3.72347
  81 242.149 17.9175 1.13000
  82 242.149 17.9175 1.13000
  83 40.6503 -26.6562 -3.36000
  84 40.6503 -26.6562 -3.36000
  85 53.0945 -35.5997 34.0122
  86 53.0945 -35.5997 34.0122
  87 202.768 -11.8115 5.70777
  88 202.768 -11.8115 5.70777
  89 160.533 3.63568 2.36154
  90 161.233 3.97069 -2.40757
  91 160.533 3.63568 2.36154
  92 161.233 3.97069 -2.40757
  93 232.588 11.8418 7.53967
  94 232.588 11.8418 7.53967
  95 166.310 1.61568 6.91881
  96 166.310 1.61568 6.91881
  97 250.926 18.4458 -8.49214
  98 254.659 14.3917 -17.6280
  99 250.926 18.4458 -8.49214
  100 254.659 14.3917 -17.6280
  101 162.031 2.56373 -8.48924
  102 162.031 2.56373 -8.48924
  103 132.459 -26.5629 -58.1512
  104 132.459 -26.5629 -58.1512
  105 112.241 -30.4705 61.3770
  106 112.241 -30.4705 61.3770
  107 207.115 -16.2979 -21.6693
  108 207.115 -16.2979 -21.6693
  109 154.459 -19.0136 -34.3398
  110 154.459 -19.0136 -34.3398
  111 266.393 18.1064 13.2990
  112 266.393 18.1064 13.2990
  113 20.1723 -66.0147 -22.3765
  114 20.1723 -66.0147 -22.3765
  115 11.7945 -77.3418 6.61310
  116 11.7945 -77.3418 6.61310
  117 138.547 8.84053 -1.78230
  118 138.547 8.84053 -1.78230
  119 169.059 -6.57752 -13.3366
  120 169.059 -6.57752 -13.3366
  121 284.526 8.04843 -6.46954
  122 284.526 8.04843 -6.46954
  123 32.0003 -65.5948 37.8113
  124 32.0003 -65.5948 37.8113
  125 151.833 5.27778 7.88681
  126 151.833 5.27778 7.88681
  127 37.8001 -53.3281 -42.2284
  128 37.8001 -53.3281 -42.2284
  129 204.381 -14.1839 32.1581
  130 204.381 -14.1839 32.1581
  131 289.560 14.2845 -19.5709
  132 289.560 14.2845 -19.5709
  133 14.7699 -88.4678 -6.35074
  134 14.7699 -88.4678 -6.35074
  135 17.8176 -85.3041 16.2477
  136 17.8176 -85.3041 16.2477
  137 166.037 1.62849 -4.09195
  138 166.037 1.62849 -4.09195
  139 157.633 5.51902 -0.293172
  140 157.633 5.51902 -0.293172
  141 161.503 2.83301 -0.0386207
  142 161.503 2.83301 -0.0386207
  143 166.451 -3.33632 11.7483
  144 166.451 -3.33632 11.7483
  145 115.301 -3.12590 27.4870
  146 167.901 -15.4501 23.2215
  147 114.040 6.54163 0.623458
  148 115.301 -3.12590 27.4870
  149 167.901 -15.4501 23.2215
  150 114.040 6.54163 0.623458
  151 149.883 2.71606 -12.5267
  152 149.883 2.71606 -12.5267
  153 282.233 8.32804 4.91171
  154 282.233 8.32804 4.91171
  155 293.189 6.89030 12.3545
  156 293.689 13.9482 24.0546
  157 293.189 6.89030 12.3545
  158 293.689 13.9482 24.0546
  159 163.342 1.90638 1.38066
  160 163.342 1.90638 1.38066
  161 101.944 -4.36310 -23.3978
  162 101.944 -4.36310 -23.3978
  163 163.352 1.85645 -1.35603
  164 163.352 1.85645 -1.35603
  165 164.368 2.23481 3.74905
  166 164.368 2.23481 3.74905
  167 192.524 -1.64379 5.05434
  168 188.278 -6.76594 -0.422908
  169 192.524 -1.64379 5.05434
  170 188.278 -6.76594 -0.422908
  171 207.771 -5.23862 1.58498
  172 207.771 -5.23862 1.58498
  173 157.775 4.99689 4.30233
  174 157.775 4.99689 4.30233
  175 78.6255 -8.72475 31.5239
  176 78.6255 -8.72475 31.5239
  177 69.6642 -4.06708 -19.9235
  178 69.6642 -4.06708 -19.9235
  179 159.146 5.38178 -4.11395
  180 159.146 5.38178 -4.11395
</Section>

newXOutput 48

<Section columns = "stress_xx | stress_yy | stress_xy">
  1 167.263 1.18485 -0.694189
  2 167.113 0.920299 0.624940
  3 167.263 1.18485 -0.694189
  4 167.113 0.920299 0.624940
  5 250.085 6.94744 62.3587
  6 246.083 5.29593 -57.7408
  7 250.085 6.94744 62.3587
  8 246.083 5.29593 -57.7408
  9 169.038 0.336101 -2.20988
  10 176.350 0.0371750 -3.62755
  11 180.925 -2.03874 -4.62698
  12 190.094 -0.961042 2.81393
  13 189.666 5.76508 1.81922
  14 190.588 -0.966134 -3.63891
  15 182.849 -3.17730 4.61269
  16 174.015 0.794492 4.23825
  17 169.205 1.12269 1.97377
  18 166.158 1.95735 0.345646
  19 165.166 1.98203 -0.0268402
  20 166.075 1.80599 -0.313954
  21 169.038 0.336101 -2.20988
  22 176.350 0.0371750 -3.62755
  23 180.925 -2.03874 -4.62698
  24 190.094 -0.961042 2.81393
  25 189.666 5.76508 1.81922
  26 190.588 -0.966134 -3.63891
  27 182.849 -3.17730 4.61269
  28 174.015 0.794492 4.23825
  29 169.205 1.12269 1.97377
  30 166.158 1.95735 0.345646
  31 165.166 1.98203 -0.0268402
  32 166.075 1.80599 -0.313954
  33 369.572 3.01884 27.0542
  34 321.340 3.29407 17.6381
  35 308.758 6.14975 7.08601
  36 299.221 3.72227 -1.85453
  37 317.100 1.17299 -6.78114
  38 324.597 6.19182 -16.0463
  39 337.894 22.0630 -33.1401
  40 82.9864 -47.9550 -70.2819
  41 16.6060 -89.0681 -28.7804
  42 6.64261 -120.806 -9.14958
  43 4.58201 -127.957 -0.972383
  44 5.53208 -122.393 9.24400
  45 15.2397 -105.938 24.8267
  46 67.4811 -48.4959 68.9392
  47 369.572 3.01884 27.0542
  48 321.340 3.29407 17.6381
  49 308.758 6.14975 7.08601
  50 299.221 3.72227 -1.85453
  51 317.100 1.17299 -6.78114
  52 324.597 6.19182 -16.0463
  53 337.894 22.0630 -33.1401
  54 82.9864 -47.9550 -70.2819
  55 16.6060 -89.0681 -28.7804
  56 6.64261 -120.806 -9.14958
  57 4.58201 -127.957 -0.972383
  58 5.53208 -122.393 9.24400
  59 15.2397 -105.938 24.8267
  60 67.4811 -48.4959 68.9392
  61 154.548 6.62074 -2.86197
  62 154.548 6.62074 -2.86197
  63 143.238 2.07359 15.4301
  64 139.060 0.915679 -18.7817
  65 143.238 2.07359 15.4301
  66 139.060 0.915679 -18.7817
  67 79.3878 1.46231 5.14679
  68 79.3878 1.46231 5.14679
  69 129.636 -23.9704 50.6602
  70 129.636 -23.9704 50.6602
  71 78.4523 -23.1040 -40.4515
  72 195.218 -16.5761 -8.38336
  73 216.176 12.0688 -0.0436166
  74 206.381 5.64512 -2.56296
  75 78.4523 -23.1040 -40.4515
  76 195.218 -16.5761 -8.38336
  77 216.176 12.0688 -0.0436166
  78 206.381 5.64512 -2.56296
  79 191.553 -8.90085 3.81046
  80 191.553 -8.90085 3.81046
  81 247.278 18.2971 1.15754
  82 247.278 18.2971 1.15754
  83 41.5290 -27.2181 -3.43366
  84 41.5290 -27.2181 -3.43366
  85 54.2335 -36.3545 34.7574
  86 54.2335 -36.3545 34.7574
  87 207.070 -12.0602 5.84548
  88 207.070 -12.0602 5.84548
  89 163.959 3.71227 2.41061
  90 164.673 4.05444 -2.45760
  91 163.959 3.71227 2.41061
  92 164.673 4.05444 -2.45760
  93 237.515 12.1007 7.71723
  94 237.515 12.1007 7.71723
  95 169.855 1.64970 7.06455
  96 169.855 1.64970 7.06455
  97 256.236 18.8369 -8.67946
  98 260.038 14.7083 -18.0202
  99 256.236 18.8369 -8.67946
  100 260.038 14.7083 -18.0202
  101 165.488 2.61799 -8.66866
  102 165.488 2.61799 -8.66866
  103 135.266 -27.1134 -59.4174
  104 135.266 -27.1134 -59.4174
  105 114.623 -31.1038 62.7156
  106 114.623 -31.1038 62.7156
  107 211.500 -16.6373 -22.1521
  108 211.500 -16.6373 -22.1521
  109 157.746 -19.4205 -35.0796
  110 157.746 -19.4205 -35.0796
  111 272.016 18.4916 13.5877
  112 272.016 18.4916 13.5877
  113 20.6068 -67.4250 -22.8736
  114 20.6068 -67.4250 -22.8736
  115 12.0468 -79.0021 6.76153
  116 12.0468 -79.0021 6.76153
  117 141.515 9.02974 -1.81985
  118 141.515 9.02974 -1.81985
  119 172.659 -6.71845 -13.6229
  120 172.659 -6.71845 -13.6229
  121 290.508 8.21590 -6.60578
  122 290.508 8.21590 -6.60578
  123 32.6885 -66.9847 38.6523
  124 32.6885 -66.9847 38.6523
  125 155.078 5.39013 8.05350
  126 155.078 5.39013 8.05350
  127 38.6136 -54.4547 -43.1620
  128 38.6136 -54.4547 -43.1620
  129 208.708 -14.4772 32.8640
  130 208.708 -14.4772 32.8640
  131 295.647 14.5870 -19.9905
  132 295.647 14.5870 -19.9905
  133 15.0858 -90.3717 -6.49204
  134 15.0858 -90.3717 -6.49204
  135 18.1997 -87.1326 16.6146
  136 18.1997 -87.1326 16.6146
  137 169.576 1.66281 -4.17765
  138 169.576 1.66281 -4.17765
  139 160.999 5.63556 -0.299332
  140 160.999 5.63556 -0.299332
  141 164.949 2.89250 -0.0394202
  142 164.949 2.89250 -0.0394202
  143 169.997 -3.40790 11.9991
  144 169.997 -3.40790 11.9991
  145 117.774 -3.19115 28.0758
  146 171.472 -15.7805 23.7228
  147 116.492 6.68349 0.637286
  148 117.774 -3.19115 28.0758
  149 171.472 -15.7805 23.7228
  150 116.492 6.68349 0.637286
  151 153.086 2.77410 -12.7921
  152 153.086 2.77410 -12.7921
  153 288.170 8.50073 5.01652
  154 288.170 8.50073 5.01652
  155 299.349 7.03344 12.6152
  156 299.861 14.2540 24.5752
  157 299.349 7.03344 12.6152
  158 299.861 14.2540 24.5752
  159 166.825 1.94644 1.40920
  160 166.825 1.94644 1.40920
  161 104.136 -4.45449 -23.8997
  162 104.136 -4.45449 -23.8997
  163 166.835 1.89546 -1.38405
  164 166.835 1.89546 -1.38405
  165 167.872 2.28197 3.82711
  166 167.872 2.28197 3.82711
  167 196.622 -1.67738 5.15240
  168 192.280 -6.91100 -0.438363
  169 196.622 -1.67738 5.15240
  170 192.280 -6.91100 -0.438363
  171 212.181 -5.34546 1.60122
  172 212.181 -5.34546 1.60122
  173 161.144 5.10265 4.39245
  174 161.144 5.10265 4.39245
  175 80.3182 -8.90646 32.2046
  176 80.3182 -8.90646 32.2046
  177 71.1687 -4.14726 -20.3535
  178 71.1687 -4.14726 -20.3535
  179 162.544 5.49572 -4.20025
  180 162.544 5.49572 -4.20025
</Section>

newXOutput 49

<Section columns = "stress_xx | stress_yy | stress_xy">
  1 170.751 1.20917 -0.708191
  2 170.599 0.939156 0.637532
  3 170.751 1.20917 -0.708191
  4 170.599 0.939156 0.637532
  5 255.220 7.12714 63.6801
  6 251.147 5.44132 -58.9712
  7 255.220 7.12714 63.6801
  8 251.147 5.44132 -58.9712
  9 172.562 0.342812 -2.25484
  10 180.021 0.0379701 -3.70176
  11 184.691 -2.08177 -4.72445
  12 194.054 -0.981113 2.86719
  13 193.626 5.88646 1.85552
  14 194.558 -0.985986 -3.70815
  15 186.653 -3.24412 4.71012
  16 177.639 0.810817 4.32497
  17 172.732 1.14580 2.01369
  18 169.625 1.99746 0.352614
  19 168.614 2.02261 -0.0273768
  20 169.541 1.84299 -0.320285
  21 172.562 0.342812 -2.25484
  22 180.021 0.0379701 -3.70176
  23 184.691 -2.08177 -4.72445
  24 194.054 -0.981113 2.86719
  25 193.626 5.88646 1.85552
  26 194.558 -0.985986 -3.70815
  27 186.653 -3.24412 4.71012
  28 177.639 0.810817 4.32497
  29 172.732 1.14580 2.01369
  30 169.625 1.99746 0.352614
  31 168.614 2.02261 -0.0273768
  32 169.541 1.84299 -0.320285
  33 377.112 3.08257 27.6163
  34 327.918 3.35795 18.0023
  35 315.084 6.27470 7.23042
  36 305.358 3.79622 -1.89182
  37 323.583 1.19640 -6.92012
  38 331.240 6.31960 -16.3764
  39 344.815 22.5320 -33.8372
  40 84.7060 -48.9186 -71.7872
  41 16.9546 -90.9248 -29.4112
  42 6.78001 -123.364 -9.35299
  43 4.67435 -130.674 -0.992715
  44 5.64480 -124.984 9.44895
  45 15.5589 -108.156 25.3740
  46 68.8814 -49.4707 70.4177
  47 377.112 3.08257 27.6163
  48 327.918 3.35795 18.0023
  49 315.084 6.27470 7.23042
  50 305.358 3.79622 -1.89182
  51 323.583 1.19640 -6.92012
  52 331.240 6.31960 -16.3764
  53 344.815 22.5320 -33.8372
  54 84.7060 -48.9186 -71.7872
  55 16.9546 -90.9248 -29.4112
  56 6.78001 -123.364 -9.35299
  57 4.67435 -130.674 -0.992715
  58 5.64480 -124.984 9.44895
  59 15.5589 -108.156 25.3740
  60 68.8814 -49.4707 70.4177
  61 157.781 6.75840 -2.92104
  62 157.781 6.75840 -2.92104
  63 146.237 2.11756 15.7517
  64 141.972 0.935440 -19.1731
  65 146.237 2.11756 15.7517
  66 141.972 0.935440 -19.1731
  67 81.0662 1.49838 5.25518
  68 81.0662 1.49838 5.25518
  69 132.337 -24.4730 51.7299
  70 132.337 -24.4730 51.7299
  71 80.0996 -23.5827 -41.3117
  72 199.274 -16.9219 -8.56879
  73 220.672 12.3229 -0.0524635
  74 210.676 5.76468 -2.60709
  75 80.0996 -23.5827 -41.3117
  76 199.274 -16.9219 -8.56879
  77 220.672 12.3229 -0.0524635
  78 210.676 5.76468 -2.60709
  79 195.536 -9.08665 3.89769
  80 195.536 -9.08665 3.89769
  81 252.401 18.6762 1.18520
  82 252.401 18.6762 1.18520
  83 42.4075 -27.7792 -3.50735
  84 42.4075 -27.7792 -3.50735
  85 55.3719 -37.1086 35.5029
  86 55.3719 -37.1086 35.5029
  87 211.369 -12.3085 5.98373
  88 211.369 -12.3085 5.98373
  89 167.382 3.78877 2.45958
  90 168.110 4.13807 -2.50753
  91 167.382 3.78877 2.45958
  92 168.110 4.13807 -2.50753
  93 242.438 12.3598 7.89533
  94 242.438 12.3598 7.89533
  95 173.396 1.68367 7.21010
  96 173.396 1.68367 7.21010
  97 261.540 19.2276 -8.86689
  98 265.410 15.0251 -18.4128
  99 261.540 19.2276 -8.86689
  100 265.410 15.0251 -18.4128
  101 168.941 2.67219 -8.84786
  102 168.941 2.67219 -8.84786
  103 138.070 -27.6628 -60.6837
  104 138.070 -27.6628 -60.6837
  105 117.002 -31.7359 64.0544
  106 117.002 -31.7359 64.0544
  107 215.879 -16.9761 -22.6354
  108 215.879 -16.9761 -22.6354
  109 161.031 -19.8272 -35.8192
  110 161.031 -19.8272 -35.8192
  111 277.631 18.8765 13.8764
  112 277.631 18.8765 13.8764
  113 21.0411 -68.8343 -23.3712
  114 21.0411 -68.8343 -23.3712
  115 12.2989 -80.6615 6.91016
  116 12.2989 -80.6615 6.91016
  117 144.481 9.21882 -1.85735
  118 144.481 9.21882 -1.85735
  119 176.255 -6.85930 -13.9091
  120 176.255 -6.85930 -13.9091
  121 296.480 8.38306 -6.74183
  122 296.480 8.38306 -6.74183
  123 33.3764 -68.3731 39.4941
  124 33.3764 -68.3731 39.4941
  125 158.321 5.50238 8.21999
  126 158.321 5.50238 8.21999
  127 39.4267 -55.5800 -44.0963
  128 39.4267 -55.5800 -44.0963
  129 213.029 -14.7699 33.5703
  130 213.029 -14.7699 33.5703
  131 301.726 14.8891 -20.4098
  132 301.726 14.8891 -20.4098
  133 15.4014 -92.2748 -6.63347
  134 15.4014 -92.2748 -6.63347
  135 18.5816 -88.9601 16.9822
  136 18.5816 -88.9601 16.9822
  137 173.111 1.69709 -4.26322
  138 173.111 1.69709 -4.26322
  139 164.363 5.75196 -0.305482
  140 164.363 5.75196 -0.305482
  141 168.392 2.95191 -0.0402180
  142 168.392 2.95191 -0.0402180
  143 173.540 -3.47944 12.2497
  144 173.540 -3.47944 12.2497
  145 120.246 -3.25629 28.6642
  146 175.040 -16.1107 24.2240
  147 118.944 6.82532 0.651125
  148 120.246 -3.25629 28.6642
  149 175.040 -16.1107 24.2240
  150 118.944 6.82532 0.651125
  151 156.287 2.83210 -13.0573
  152 156.287 2.83210 -13.0573
  153 294.099 8.67308 5.12124
  154 294.099 8.67308 5.12124
  155 305.500 7.17631 12.8754
  156 306.025 14.5598 25.0957
  157 305.500 7.17631 12.8754
  158 306.025 14.5598 25.0957
  159 170.305 1.98645 1.43768
  160 170.305 1.98645 1.43768
  161 106.326 -4.54573 -24.4014
  162 106.326 -4.54573 -24.4014
  163 170.315 1.93441 -1.41201
  164 170.315 1.93441 -1.41201
  165 171.374 2.32906 3.90502
  166 171.374 2.32906 3.90502
  167 200.716 -1.71088 5.24997
  168 196.278 -7.05597 -0.454074
  169 200.716 -1.71088 5.24997
  170 196.278 -7.05597 -0.454074
  171 216.586 -5.45200 1.61672
  172 216.586 -5.45200 1.61672
  173 164.510 5.20829 4.48242
  174 164.510 5.20829 4.48242
  175 82.0101 -9.08784 32.8851
  176 82.0101 -9.08784 32.8851
  177 72.6729 -4.22710 -20.7834
  178 72.6729 -4.22710 -20.7834
  179 165.938 5.60953 -4.28642
  180 165.938 5.60953 -4.28642
</Section>

newXOutput 50

<Section columns = "stress_xx | stress_yy | stress_xy">
  1 174.237 1.23345 -0.722163
  2 174.082 0.957983 0.650095
  3 174.237 1.23345 -0.722163
  4 174.082 0.957983 0.650095
  5 260.348 7.30812 65.0011
  6 256.204 5.58803 -60.2017
  7 260.348 7.30812 65.0011
  8 256.204 5.58803 -60.2017
  9 176.083 0.349506 -2.29971
  10 183.689 0.0387655 -3.77585
  11 188.454 -2.12479 -4.82187
  12 198.011 -1.00117 2.92018
  13 197.584 6.00780 1.89172
  14 198.525 -1.00581 -3.77706
  15 190.454 -3.31090 4.80753
  16 181.260 0.827118 4.41155
  17 176.257 1.16888 2.05353
  18 173.089 2.03752 0.359566
  19 172.058 2.06313 -0.0279121
  20 173.003 1.87994 -0.326602
  21 176.083 0.349506 -2.29971
  22 183.689 0.0387655 -3.77585
  23 188.454 -2.12479 -4.82187
  24 198.011 -1.00117 2.92018
  25 197.584 6.00780 1.89172
  26 198.525 -1.00581 -3.77706
  27 190.454 -3.31090 4.80753
  28 181.260 0.827118 4.41155
  29 176.257 1.16888 2.05353
  30 173.089 2.03752 0.359566
  31 172.058 2.06313 -0.0279121
  32 173.003 1.87994 -0.326602
  33 384.639 3.14627 28.1779
  34 334.486 3.42159 18.3660
  35 321.399 6.39941 7.37457
  36 311.486 3.86996 -1.92903
  37 330.056 1.21976 -7.05888
  38 337.873 6.44722 -16.7060
  39 351.724 23.0010 -34.5338
  40 86.4237 -49.8798 -73.2930
  41 17.3029 -92.7799 -30.0427
  42 6.91724 -125.921 -9.55677
  43 4.76649 -133.391 -1.01303
  44 5.75731 -127.574 9.65424
  45 15.8780 -110.374 25.9220
  46 70.2803 -50.4432 71.8966
  47 384.639 3.14627 28.1779
  48 334.486 3.42159 18.3660
  49 321.399 6.39941 7.37457
  50 311.486 3.86996 -1.92903
  51 330.056 1.21976 -7.05888
  52 337.873 6.44722 -16.7060
  53 351.724 23.0010 -34.5338
  54 86.4237 -49.8798 -73.2930
  55 17.3029 -92.7799 -30.0427
  56 6.91724 -125.921 -9.55677
  57 4.76649 -133.391 -1.01303
  58 5.75731 -127.574 9.65424
  59 15.8780 -110.374 25.9220
  60 70.2803 -50.4432 71.8966
  61 161.011 6.89593 -2.98002
  62 161.011 6.89593 -2.98002
  63 149.233 2.16153 16.0730
  64 144.881 0.955211 -19.5641
  65 149.233 2.16153 16.0730
  66 144.881 0.955211 -19.5641
  67 82.7441 1.53466 5.36353
  68 82.7441 1.53466 5.36353
  69 135.037 -24.9754 52.7993
  70 135.037 -24.9754 52.7993
  71 81.7460 -24.0608 -42.1719
  72 203.325 -17.2675 -8.75450
  73 225.164 12.5769 -0.0616247
  74 214.967 5.88422 -2.65081
  75 81.7460 -24.0608 -42.1719
  76 203.325 -17.2675 -8.75450
  77 225.164 12.5769 -0.0616247
  78 214.967 5.88422 -2.65081
  79 199.516 -9.27231 3.98517
  80 199.516 -9.27231 3.98517
  81 257.518 19.0549 1.21297
  82 257.518 19.0549 1.21297
  83 43.2857 -28.3396 -3.58105
  84 43.2857 -28.3396 -3.58105
  85 56.5096 -37.8619 36.2486
  86 56.5096 -37.8619 36.2486
  87 215.662 -12.5565 6.12255
  88 215.662 -12.5565 6.12255
  89 170.803 3.86516 2.50847
  90 171.545 4.22160 -2.55737
  91 170.803 3.86516 2.50847
  92 171.545 4.22160 -2.55737
  93 247.354 12.6188 8.07397
  94 247.354 12.6188 8.07397
  95 176.934 1.71759 7.35545
  96 176.934 1.71759 7.35545
  97 266.838 19.6178 -9.05441
  98 270.775 15.3420 -18.8056
  99 266.838 19.6178 -9.05441
  100 270.775 15.3420 -18.8056
  101 172.392 2.72632 -9.02685
  102 172.392 2.72632 -9.02685
  103 140.871 -28.2110 -61.9500
  104 140.871 -28.2110 -61.9500
  105 119.379 -32.3668 65.3934
  106 119.379 -32.3668 65.3934
  107 220.254 -17.3143 -23.1192
  108 220.254 -17.3143 -23.1192
  109 164.313 -20.2336 -36.5585
  110 164.313 -20.2336 -36.5585
  111 283.240 19.2610 14.1650
  112 283.240 19.2610 14.1650
  113 21.4753 -70.2426 -23.8693
  114 21.4753 -70.2426 -23.8693
  115 12.5509 -82.3199 7.05899
  116 12.5509 -82.3199 7.05899
  117 147.445 9.40778 -1.89480
  118 147.445 9.40778 -1.89480
  119 179.849 -7.00006 -14.1952
  120 179.849 -7.00006 -14.1952
  121 302.445 8.54992 -6.87770
  122 302.445 8.54992 -6.87770
  123 34.0639 -69.7599 40.3367
  124 34.0639 -69.7599 40.3367
  125 161.561 5.61454 8.38628
  126 161.561 5.61454 8.38628
  127 40.2395 -56.7039 -45.0313
  128 40.2395 -56.7039 -45.0313
  129 217.346 -15.0620 34.2767
  130 217.346 -15.0620 34.2767
  131 307.796 15.1909 -20.8289
  132 307.796 15.1909 -20.8289
  133 15.7167 -94.1770 -6.77504
  134 15.7167 -94.1770 -6.77504
  135 18.9633 -90.7864 17.3503
  136 18.9633 -90.7864 17.3503
  137 176.643 1.73132 -4.34865
  138 176.643 1.73132 -4.34865
  139 167.724 5.86822 -0.311624
  140 167.724 5.86822 -0.311624
  141 171.832 3.01123 -0.0410142
  142 171.832 3.01123 -0.0410142
  143 177.081 -3.55094 12.5001
  144 177.081 -3.55094 12.5001
  145 122.716 -3.32131 29.2522
  146 178.605 -16.4407 24.7251
  147 121.394 6.96715 0.664976
  148 122.716 -3.32131 29.2522
  149 178.605 -16.4407 24.7251
  150 121.394 6.96715 0.664976
  151 159.486 2.89005 -13.3221
  152 159.486 2.89005 -13.3221
  153 300.020 8.84510 5.22588
  154 300.020 8.84510 5.22588
  155 311.642 7.31891 13.1354
  156 312.179 14.8658 25.6161
  157 311.642 7.31891 13.1354
  158 312.179 14.8658 25.6161
  159 173.783 2.02639 1.46610
  160 173.783 2.02639 1.46610
  161 108.516 -4.63684 -24.9027
  162 108.516 -4.63684 -24.9027
  163 173.793 1.97331 -1.43992
  164 173.793 1.97331 -1.43992
  165 174.872 2.37610 3.98280
  166 174.872 2.37610 3.98280
  167 204.806 -1.74429 5.34705
  168 200.273 -7.20085 -0.470038
  169 204.806 -1.74429 5.34705
  170 200.273 -7.20085 -0.470038
  171 220.987 -5.55824 1.63148
  172 220.987 -5.55824 1.63148
  173 167.874 5.31382 4.57225
  174 167.874 5.31382 4.57225
  175 83.7014 -9.26889 33.5654
  176 83.7014 -9.26889 33.5654
  177 74.1766 -4.30660 -21.2131
  178 74.1766 -4.30660 -21.2131
  179 169.331 5.72321 -4.37245
  180 169.331 5.72321 -4.37245
</Section>

newXOutput 51

<Section columns = "stress_xx | stress_yy | stress_xy">
  1 177.720 1.25770 -0.736103
  2 177.561 0.976780 0.662630
  3 177.720 1.25770 -0.736103
  4 177.561 0.976780 0.662630
  5 265.469 7.49039 66.3219
  6 261.254 5.73607 -61.4323
  7 265.469 7.49039 66.3219
  8 261.254 5.73607 -61.4323
  9 179.601 0.356181 -2.34449
  10 187.353 0.0395611 -3.84982
  11 192.213 -2.16779 -4.91925
  12 201.964 -1.02121 2.97290
  13 201.538 6.12908 1.92782
  14 202.488 -1.02560 -3.84565
  15 194.252 -3.37766 4.90491
  16 184.877 0.843395 4.49799
  17 179.778 1.19192 2.09328
  18 176.550 2.07751 0.366502
  19 175.500 2.10358 -0.0284459
  20 176.463 1.91682 -0.332906
  21 179.601 0.356181 -2.34449
  22 187.353 0.0395611 -3.84982
  23 192.213 -2.16779 -4.91925
  24 201.964 -1.02121 2.97290
  25 201.538 6.12908 1.92782
  26 202.488 -1.02560 -3.84565
  27 194.252 -3.37766 4.90491
  28 184.877 0.843395 4.49799
  29 179.778 1.19192 2.09328
  30 176.550 2.07751 0.366502
  31 175.500 2.10358 -0.0284459
  32 176.463 1.91682 -0.332906
  33 392.153 3.20996 28.7389
  34 341.043 3.48497 18.7293
  35 327.706 6.52390 7.51847
  36 317.605 3.94349 -1.96614
  37 336.518 1.24305 -7.19743
  38 344.495 6.57468 -17.0351
  39 358.623 23.4700 -35.2301
  40 88.1395 -50.8386 -74.7991
  41 17.6511 -94.6333 -30.6750
  42 7.05431 -128.478 -9.76092
  43 4.85841 -136.108 -1.03334
  44 5.86962 -130.164 9.85987
  45 16.1968 -112.590 26.4709
  46 71.6776 -51.4133 73.3759
  47 392.153 3.20996 28.7389
  48 341.043 3.48497 18.7293
  49 327.706 6.52390 7.51847
  50 317.605 3.94349 -1.96614
  51 336.518 1.24305 -7.19743
  52 344.495 6.57468 -17.0351
  53 358.623 23.4700 -35.2301
  54 88.1395 -50.8386 -74.7991
  55 17.6511 -94.6333 -30.6750
  56 7.05431 -128.478 -9.76092
  57 4.85841 -136.108 -1.03334
  58 5.86962 -130.164 9.85987
  59 16.1968 -112.590 26.4709
  60 71.6776 -51.4133 73.3759
  61 164.239 7.03333 -3.03894
  62 164.239 7.03333 -3.03894
  63 152.228 2.20548 16.3940
  64 147.789 0.974992 -19.9547
  65 152.228 2.20548 16.3940
  66 147.789 0.974992 -19.9547
  67 84.4216 1.57113 5.47184
  68 84.4216 1.57113 5.47184
  69 137.734 -25.4774 53.8683
  70 137.734 -25.4774 53.8683
  71 83.3914 -24.5384 -43.0321
  72 207.372 -17.6128 -8.94048
  73 229.652 12.8308 -0.0710994
  74 219.254 6.00373 -2.69412
  75 83.3914 -24.5384 -43.0321
  76 207.372 -17.6128 -8.94048
  77 229.652 12.8308 -0.0710994
  78 219.254 6.00373 -2.69412
  79 203.492 -9.45782 4.07289
  80 203.492 -9.45782 4.07289
  81 262.629 19.4332 1.24086
  82 262.629 19.4332 1.24086
  83 44.1637 -28.8993 -3.65479
  84 44.1637 -28.8993 -3.65479
  85 57.6467 -38.6143 36.9946
  86 57.6467 -38.6143 36.9946
  87 219.952 -12.8041 6.26191
  88 219.952 -12.8041 6.26191
  89 174.220 3.94145 2.55726
  90 174.977 4.30503 -2.60711
  91 174.220 3.94145 2.55726
  92 174.977 4.30503 -2.60711
  93 252.266 12.8780 8.25315
  94 252.266 12.8780 8.25315
  95 180.469 1.75147 7.50060
  96 180.469 1.75147 7.50060
  97 272.130 20.0077 -9.24202
  98 276.134 15.6591 -19.1989
  99 272.130 20.0077 -9.24202
  100 276.134 15.6591 -19.1989
  101 175.839 2.78040 -9.20562
  102 175.839 2.78040 -9.20562
  103 143.669 -28.7581 -63.2163
  104 143.669 -28.7581 -63.2163
  105 121.753 -32.9965 66.7325
  106 121.753 -32.9965 66.7325
  107 224.624 -17.6518 -23.6035
  108 224.624 -17.6518 -23.6035
  109 167.591 -20.6397 -37.2975
  110 167.591 -20.6397 -37.2975
  111 288.841 19.6451 14.4536
  112 288.841 19.6451 14.4536
  113 21.9092 -71.6498 -24.3678
  114 21.9092 -71.6498 -24.3678
  115 12.8027 -83.9775 7.20801
  116 12.8027 -83.9775 7.20801
  117 150.407 9.59662 -1.93220
  118 150.407 9.59662 -1.93220
  119 183.439 -7.14074 -14.4811
  120 183.439 -7.14074 -14.4811
  121 308.401 8.71648 -7.01339
  122 308.401 8.71648 -7.01339
  123 34.7512 -71.1452 41.1801
  124 34.7512 -71.1452 41.1801
  125 164.799 5.72659 8.55238
  126 164.799 5.72659 8.55238
  127 41.0519 -57.8264 -45.9668
  128 41.0519 -57.8264 -45.9668
  129 221.658 -15.3534 34.9834
  130 221.658 -15.3534 34.9834
  131 313.858 15.4924 -21.2477
  132 313.858 15.4924 -21.2477
  133 16.0319 -96.0784 -6.91675
  134 16.0319 -96.0784 -6.91675
  135 19.3448 -92.6117 17.7190
  136 19.3448 -92.6117 17.7190
  137 180.173 1.76550 -4.43394
  138 180.173 1.76550 -4.43394
  139 171.083 5.98433 -0.317757
  140 171.083 5.98433 -0.317757
  141 175.270 3.07047 -0.0418088
  142 175.270 3.07047 -0.0418088
  143 180.618 -3.62241 12.7503
  144 180.618 -3.62241 12.7503
  145 125.185 -3.38623 29.8399
  146 182.166 -16.7705 25.2260
  147 123.843 7.10895 0.678837
  148 125.185 -3.38623 29.8399
  149 182.166 -16.7705 25.2260
  150 123.843 7.10895 0.678837
  151 162.682 2.94796 -13.5867
  152 162.682 2.94796 -13.5867
  153 305.933 9.01677 5.33043
  154 305.933 9.01677 5.33043
  155 317.775 7.46125 13.3950
  156 318.325 15.1719 26.1364
  157 317.775 7.46125 13.3950
  158 318.325 15.1719 26.1364
  159 177.257 2.06628 1.49445
  160 177.257 2.06628 1.49445
  161 110.705 -4.72780 -25.4038
  162 110.705 -4.72780 -25.4038
  163 177.267 2.01215 -1.46776
  164 177.267 2.01215 -1.46776
  165 178.367 2.42308 4.06043
  166 178.367 2.42308 4.06043
  167 208.893 -1.77761 5.44365
  168 204.264 -7.34565 -0.486255
  169 208.893 -1.77761 5.44365
  170 204.264 -7.34565 -0.486255
  171 225.384 -5.66419 1.64550
  172 225.384 -5.66419 1.64550
  173 171.235 5.41922 4.66194
  174 171.235 5.41922 4.66194
  175 85.3920 -9.44962 34.2455
  176 85.3920 -9.44962 34.2455
  177 75.6799 -4.38576 -21.6427
  178 75.6799 -4.38576 -21.6427
  179 172.720 5.83676 -4.45836
  180 172.720 5.83676 -4.45836
</Section>

newXOutput 52

<Section columns = "stress_xx | stress_yy | stress_xy">
  1 181.200 1.28191 -0.750013
  2 181.039 0.995549 0.675136
  3 181.200 1.28191 -0.750013
  4 181.039 0.995549 0.675136
  5 270.581 7.67395 67.6425
  6 266.298 5.88543 -62.6628
  7 270.581 7.67395 67.6425
  8 266.298 5.88543 -62.6628
  9 183.116 0.362839 -2.38920
  10 191.014 0.0403570 -3.92367
  11 195.969 -2.21078 -5.01659
  12 205.913 -1.04123 3.02536
  13 205.489 6.25031 1.96383
  14 206.449 -1.04537 -3.91390
  15 198.046 -3.44438 5.00225
  16 188.492 0.859650 4.58429
  17 183.296 1.21494 2.13296
  18 180.009 2.11745 0.373423
  19 178.940 2.14397 -0.0289784
  20 179.920 1.95365 -0.339195
  21 183.116 0.362839 -2.38920
  22 191.014 0.0403570 -3.92367
  23 195.969 -2.21078 -5.01659
  24 205.913 -1.04123 3.02536
  25 205.489 6.25031 1.96383
  26 206.449 -1.04537 -3.91390
  27 198.046 -3.44438 5.00225
  28 188.492 0.859650 4.58429
  29 183.296 1.21494 2.13296
  30 180.009 2.11745 0.373423
  31 178.940 2.14397 -0.0289784
  32 179.920 1.95365 -0.339195
  33 399.655 3.27362 29.2993
  34 347.589 3.54812 19.0921
  35 334.002 6.64815 7.66211
  36 323.714 4.01681 -2.00318
  37 342.970 1.26629 -7.33576
  38 351.107 6.70198 -17.3638
  39 365.512 23.9390 -35.9261
  40 89.8533 -51.7952 -76.3055
  41 17.9991 -96.4852 -31.3080
  42 7.19122 -131.035 -9.96542
  43 4.95012 -138.824 -1.05362
  44 5.98173 -132.753 10.0659
  45 16.5155 -114.804 27.0205
  46 73.0735 -52.3811 74.8557
  47 399.655 3.27362 29.2993
  48 347.589 3.54812 19.0921
  49 334.002 6.64815 7.66211
  50 323.714 4.01681 -2.00318
  51 342.970 1.26629 -7.33576
  52 351.107 6.70198 -17.3638
  53 365.512 23.9390 -35.9261
  54 89.8533 -51.7952 -76.3055
  55 17.9991 -96.4852 -31.3080
  56 7.19122 -131.035 -9.96542
  57 4.95012 -138.824 -1.05362
  58 5.98173 -132.753 10.0659
  59 16.5155 -114.804 27.0205
  60 73.0735 -52.3811 74.8557
  61 167.465 7.17060 -3.09778
  62 167.465 7.17060 -3.09778
  63 155.220 2.24943 16.7147
  64 150.695 0.994784 -20.3450
  65 155.220 2.24943 16.7147
  66 150.695 0.994784 -20.3450
  67 86.0987 1.60780 5.58009
  68 86.0987 1.60780 5.58009
  69 140.429 -25.9791 54.9370
  70 140.429 -25.9791 54.9370
  71 85.0360 -25.0155 -43.8922
  72 211.415 -17.9578 -9.12674
  73 234.136 13.0846 -0.0808867
  74 223.537 6.12322 -2.73701
  75 85.0360 -25.0155 -43.8922
  76 211.415 -17.9578 -9.12674
  77 234.136 13.0846 -0.0808867
  78 223.537 6.12322 -2.73701
  79 207.465 -9.64319 4.16085
  80 207.465 -9.64319 4.16085
  81 267.735 19.8111 1.26887
  82 267.735 19.8111 1.26887
  83 45.0416 -29.4583 -3.72855
  84 45.0416 -29.4583 -3.72855
  85 58.7831 -39.3660 37.7408
  86 58.7831 -39.3660 37.7408
  87 224.237 -13.0514 6.40182
  88 224.237 -13.0514 6.40182
  89 177.636 4.01764 2.60596
  90 178.406 4.38834 -2.65676
  91 177.636 4.01764 2.60596
  92 178.406 4.38834 -2.65676
  93 257.172 13.1372 8.43288
  94 257.172 13.1372 8.43288
  95 184.001 1.78530 7.64557
  96 184.001 1.78530 7.64557
  97 277.416 20.3972 -9.42973
  98 281.486 15.9763 -19.5924
  99 277.416 20.3972 -9.42973
  100 281.486 15.9763 -19.5924
  101 179.284 2.83442 -9.38418
  102 179.284 2.83442 -9.38418
  103 146.464 -29.3041 -64.4827
  104 146.464 -29.3041 -64.4827
  105 124.125 -33.6250 68.0717
  106 124.125 -33.6250 68.0717
  107 228.989 -17.9887 -24.0882
  108 228.989 -17.9887 -24.0882
  109 170.867 -21.0455 -38.0362
  110 170.867 -21.0455 -38.0362
  111 294.436 20.0289 14.7421
  112 294.436 20.0289 14.7421
  113 22.3431 -73.0560 -24.8668
  114 22.3431 -73.0560 -24.8668
  115 13.0543 -85.6342 7.35723
  116 13.0543 -85.6342 7.35723
  117 153.368 9.78533 -1.96955
  118 153.368 9.78533 -1.96955
  119 187.027 -7.28133 -14.7668
  120 187.027 -7.28133 -14.7668
  121 314.348 8.88273 -7.14889
  122 314.348 8.88273 -7.14889
  123 35.4381 -72.5290 42.0242
  124 35.4381 -72.5290 42.0242
  125 168.034 5.83855 8.71827
  126 168.034 5.83855 8.71827
  127 41.8639 -58.9475 -46.9031
  128 41.8639 -58.9475 -46.9031
  129 225.965 -15.6442 35.6904
  130 225.965 -15.6442 35.6904
  131 319.911 15.7935 -21.6663
  132 319.911 15.7935 -21.6663
  133 16.3468 -97.9791 -7.05859
  134 16.3468 -97.9791 -7.05859
  135 19.7261 -94.4359 18.0883
  136 19.7261 -94.4359 18.0883
  137 183.699 1.79964 -4.51910
  138 183.699 1.79964 -4.51910
  139 174.439 6.10030 -0.323881
  140 174.439 6.10030 -0.323881
  141 178.705 3.12962 -0.0426017
  142 178.705 3.12962 -0.0426017
  143 184.152 -3.69383 13.0003
  144 184.152 -3.69383 13.0003
  145 127.653 -3.45104 30.4271
  146 185.724 -17.1001 25.7267
  147 126.290 7.25074 0.692709
  148 127.653 -3.45104 30.4271
  149 185.724 -17.1001 25.7267
  150 126.290 7.25074 0.692709
  151 165.876 3.00584 -13.8509
  152 165.876 3.00584 -13.8509
  153 311.837 9.18811 5.43489
  154 311.837 9.18811 5.43489
  155 323.899 7.60331 13.6543
  156 324.462 15.4780 26.6565
  157 323.899 7.60331 13.6543
  158 324.462 15.4780 26.6565
  159 180.729 2.10611 1.52275
  160 180.729 2.10611 1.52275
  161 112.892 -4.81862 -25.9046
  162 112.892 -4.81862 -25.9046
  163 180.739 2.05094 -1.49554
  164 180.739 2.05094 -1.49554
  165 181.859 2.46999 4.13792
  166 181.859 2.46999 4.13792
  167 212.976 -1.81083 5.53977
  168 208.251 -7.49037 -0.502725
  169 212.976 -1.81083 5.53977
  170 208.251 -7.49037 -0.502725
  171 229.776 -5.76984 1.65878
  172 229.776 -5.76984 1.65878
  173 174.594 5.52451 4.75149
  174 174.594 5.52451 4.75149
  175 87.0819 -9.63002 34.9254
  176 87.0819 -9.63002 34.9254
  177 77.1828 -4.46459 -22.0722
  178 77.1828 -4.46459 -22.0722
  179 176.107 5.95019 -4.54414
  180 176.107 5.95019 -4.54414
</Section>

newXOutput 53

<Section columns = "stress_xx | stress_yy | stress_xy">
  1 184.677 1.30608 -0.763892
  2 184.513 1.01429 0.687615
  3 184.677 1.30608 -0.763892
  4 184.513 1.01429 0.687615
  5 275.687 7.85879 68.9627
  6 271.334 6.03611 -63.8934
  7 275.687 7.85879 68.9627
  8 271.334 6.03611 -63.8934
  9 186.628 0.369480 -2.43382
  10 194.671 0.0411531 -3.99740
  11 199.721 -2.25375 -5.11389
  12 209.860 -1.06124 3.07756
  13 209.437 6.37148 1.99975
  14 210.405 -1.06511 -3.98183
  15 201.836 -3.51107 5.09957
  16 192.103 0.875881 4.67045
  17 186.812 1.23792 2.17254
  18 183.465 2.15732 0.380328
  19 182.376 2.18429 -0.0295095
  20 183.374 1.99043 -0.345471
  21 186.628 0.369480 -2.43382
  22 194.671 0.0411531 -3.99740
  23 199.721 -2.25375 -5.11389
  24 209.860 -1.06124 3.07756
  25 209.437 6.37148 1.99975
  26 210.405 -1.06511 -3.98183
  27 201.836 -3.51107 5.09957
  28 192.103 0.875881 4.67045
  29 186.812 1.23792 2.17254
  30 183.465 2.15732 0.380328
  31 182.376 2.18429 -0.0295095
  32 183.374 1.99043 -0.345471
  33 407.143 3.33726 29.8592
  34 354.126 3.61101 19.4545
  35 340.288 6.77216 7.80549
  36 329.815 4.08993 -2.04012
  37 349.411 1.28946 -7.47388
  38 357.708 6.82913 -17.6920
  39 372.389 24.4079 -36.6216
  40 91.5653 -52.7494 -77.8123
  41 18.3468 -98.3355 -31.9417
  42 7.32797 -133.591 -10.1703
  43 5.04162 -141.540 -1.07390
  44 6.09364 -135.341 10.2722
  45 16.8339 -117.017 27.5709
  46 74.4680 -53.3465 76.3359
  47 407.143 3.33726 29.8592
  48 354.126 3.61101 19.4545
  49 340.288 6.77216 7.80549
  50 329.815 4.08993 -2.04012
  51 349.411 1.28946 -7.47388
  52 357.708 6.82913 -17.6920
  53 372.389 24.4079 -36.6216
  54 91.5653 -52.7494 -77.8123
  55 18.3468 -98.3355 -31.9417
  56 7.32797 -133.591 -10.1703
  57 5.04162 -141.540 -1.07390
  58 6.09364 -135.341 10.2722
  59 16.8339 -117.017 27.5709
  60 74.4680 -53.3465 76.3359
  61 170.689 7.30774 -3.15654
  62 170.689 7.30774 -3.15654
  63 158.211 2.29337 17.0351
  64 153.599 1.01459 -20.7350
  65 158.211 2.29337 17.0351
  66 153.599 1.01459 -20.7350
  67 87.7752 1.64466 5.68830
  68 87.7752 1.64466 5.68830
  69 143.122 -26.4805 56.0053
  70 143.122 -26.4805 56.0053
  71 86.6797 -25.4921 -44.7524
  72 215.455 -18.3025 -9.31328
  73 238.615 13.3382 -0.0909856
  74 227.817 6.24269 -2.77949
  75 86.6797 -25.4921 -44.7524
  76 215.455 -18.3025 -9.31328
  77 238.615 13.3382 -0.0909856
  78 227.817 6.24269 -2.77949
  79 211.434 -9.82841 4.24906
  80 211.434 -9.82841 4.24906
  81 272.835 20.1886 1.29699
  82 272.835 20.1886 1.29699
  83 45.9192 -30.0165 -3.80233
  84 45.9192 -30.0165 -3.80233
  85 59.9189 -40.1169 38.4872
  86 59.9189 -40.1169 38.4872
  87 228.517 -13.2984 6.54228
  88 228.517 -13.2984 6.54228
  89 181.048 4.09373 2.65456
  90 181.833 4.47155 -2.70631
  91 181.048 4.09373 2.65456
  92 181.833 4.47155 -2.70631
  93 262.072 13.3964 8.61314
  94 262.072 13.3964 8.61314
  95 187.530 1.81909 7.79034
  96 187.530 1.81909 7.79034
  97 282.696 20.7862 -9.61754
  98 286.832 16.2937 -19.9863
  99 282.696 20.7862 -9.61754
  100 286.832 16.2937 -19.9863
  101 182.727 2.88837 -9.56253
  102 182.727 2.88837 -9.56253
  103 149.256 -29.8490 -65.7492
  104 149.256 -29.8490 -65.7492
  105 126.494 -34.2522 69.4111
  106 126.494 -34.2522 69.4111
  107 233.349 -18.3250 -24.5734
  108 233.349 -18.3250 -24.5734
  109 174.140 -21.4511 -38.7746
  110 174.140 -21.4511 -38.7746
  111 300.024 20.4124 15.0306
  112 300.024 20.4124 15.0306
  113 22.7767 -74.4611 -25.3662
  114 22.7767 -74.4611 -25.3662
  115 13.3058 -87.2900 7.50664
  116 13.3058 -87.2900 7.50664
  117 156.326 9.97391 -2.00686
  118 156.326 9.97391 -2.00686
  119 190.611 -7.42183 -15.0524
  120 190.611 -7.42183 -15.0524
  121 320.287 9.04868 -7.28420
  122 320.287 9.04868 -7.28420
  123 36.1247 -73.9113 42.8692
  124 36.1247 -73.9113 42.8692
  125 171.268 5.95040 8.88397
  126 171.268 5.95040 8.88397
  127 42.6756 -60.0672 -47.8399
  128 42.6756 -60.0672 -47.8399
  129 230.267 -15.9344 36.3977
  130 230.267 -15.9344 36.3977
  131 325.955 16.0943 -22.0846
  132 325.955 16.0943 -22.0846
  133 16.6616 -99.8788 -7.20057
  134 16.6616 -99.8788 -7.20057
  135 20.1071 -96.2589 18.4581
  136 20.1071 -96.2589 18.4581
  137 187.223 1.83374 -4.60413
  138 187.223 1.83374 -4.60413
  139 177.793 6.21613 -0.329997
  140 177.793 6.21613 -0.329997
  141 182.137 3.18868 -0.0433930
  142 182.137 3.18868 -0.0433930
  143 187.684 -3.76522 13.2501
  144 187.684 -3.76522 13.2501
  145 130.119 -3.51574 31.0141
  146 189.279 -17.4294 26.2273
  147 128.737 7.39251 0.706593
  148 130.119 -3.51574 31.0141
  149 189.279 -17.4294 26.2273
  150 128.737 7.39251 0.706593
  151 169.067 3.06367 -14.1149
  152 169.067 3.06367 -14.1149
  153 317.733 9.35911 5.53926
  154 317.733 9.35911 5.53926
  155 330.015 7.74510 13.9133
  156 330.590 15.7843 27.1765
  157 330.015 7.74510 13.9133
  158 330.590 15.7843 27.1765
  159 184.197 2.14588 1.55099
  160 184.197 2.14588 1.55099
  161 115.078 -4.90930 -26.4051
  162 115.078 -4.90930 -26.4051
  163 184.208 2.08967 -1.52327
  164 184.208 2.08967 -1.52327
  165 185.349 2.51685 4.21526
  166 185.349 2.51685 4.21526
  167 217.055 -1.84397 5.63541
  168 212.234 -7.63500 -0.519446
  169 217.055 -1.84397 5.63541
  170 212.234 -7.63500 -0.519446
  171 234.164 -5.87520 1.67132
  172 234.164 -5.87520 1.67132
  173 177.950 5.62968 4.84090
  174 177.950 5.62968 4.84090
  175 88.7711 -9.81010 35.6051
  176 88.7711 -9.81010 35.6051
  177 78.6852 -4.54308 -22.5015
  178 78.6852 -4.54308 -22.5015
  179 179.492 6.06350 -4.62979
  180 179.492 6.06350 -4.62979
</Section>

newXOutput 54

<Section columns = "stress_xx | stress_yy | stress_xy">
  1 188.151 1.33022 -0.777741
  2 187.984 1.03300 0.700065
  3 188.151 1.33022 -0.777741
  4 187.984 1.03300 0.700065
  5 280.785 8.04491 70.2827
  6 276.363 6.18810 -65.1239
  7 280.785 8.04491 70.2827
  8 276.363 6.18810 -65.1239
  9 190.137 0.376103 -2.47835
  10 198.325 0.0419494 -4.07101
  11 203.470 -2.29671 -5.21114
  12 213.802 -1.08123 3.12950
  13 213.382 6.49261 2.03556
  14 214.358 -1.08481 -4.04944
  15 205.623 -3.57773 5.19685
  16 195.711 0.892088 4.75647
  17 190.324 1.26087 2.21205
  18 186.918 2.19713 0.387218
  19 185.810 2.22456 -0.0300393
  20 186.826 2.02714 -0.351732
  21 190.137 0.376103 -2.47835
  22 198.325 0.0419494 -4.07101
  23 203.470 -2.29671 -5.21114
  24 213.802 -1.08123 3.12950
  25 213.382 6.49261 2.03556
  26 214.358 -1.08481 -4.04944
  27 205.623 -3.57773 5.19685
  28 195.711 0.892088 4.75647
  29 190.324 1.26087 2.21205
  30 186.918 2.19713 0.387218
  31 185.810 2.22456 -0.0300393
  32 186.826 2.02714 -0.351732
  33 414.618 3.40088 30.4184
  34 360.652 3.67366 19.8164
  35 346.565 6.89595 7.94862
  36 335.906 4.16284 -2.07698
  37 355.842 1.31257 -7.61178
  38 364.298 6.95611 -18.0197
  39 379.256 24.8768 -37.3168
  40 93.2754 -53.7012 -79.3195
  41 18.6944 -100.184 -32.5763
  42 7.46456 -136.147 -10.3755
  43 5.13292 -144.256 -1.09415
  44 6.20534 -137.929 10.4788
  45 17.1521 -119.228 28.1221
  46 75.8609 -54.3096 77.8165
  47 414.618 3.40088 30.4184
  48 360.652 3.67366 19.8164
  49 346.565 6.89595 7.94862
  50 335.906 4.16284 -2.07698
  51 355.842 1.31257 -7.61178
  52 364.298 6.95611 -18.0197
  53 379.256 24.8768 -37.3168
  54 93.2754 -53.7012 -79.3195
  55 18.6944 -100.184 -32.5763
  56 7.46456 -136.147 -10.3755
  57 5.13292 -144.256 -1.09415
  58 6.20534 -137.929 10.4788
  59 17.1521 -119.228 28.1221
  60 75.8609 -54.3096 77.8165
  61 173.910 7.44475 -3.21523
  62 173.910 7.44475 -3.21523
  63 161.199 2.33731 17.3553
  64 156.502 1.03440 -21.1247
  65 161.199 2.33731 17.3553
  66 156.502 1.03440 -21.1247
  67 89.4514 1.68172 5.79646
  68 89.4514 1.68172 5.79646
  69 145.812 -26.9817 57.0733
  70 145.812 -26.9817 57.0733
  71 88.3225 -25.9682 -45.6124
  72 219.490 -18.6469 -9.50009
  73 243.090 13.5918 -0.101395
  74 232.092 6.36214 -2.82155
  75 88.3225 -25.9682 -45.6124
  76 219.490 -18.6469 -9.50009
  77 243.090 13.5918 -0.101395
  78 232.092 6.36214 -2.82155
  79 215.399 -10.0135 4.33750
  80 215.399 -10.0135 4.33750
  81 277.929 20.5657 1.32523
  82 277.929 20.5657 1.32523
  83 46.7966 -30.5740 -3.87614
  84 46.7966 -30.5740 -3.87614
  85 61.0541 -40.8670 39.2339
  86 61.0541 -40.8670 39.2339
  87 232.794 -13.5450 6.68328
  88 232.794 -13.5450 6.68328
  89 184.458 4.16972 2.70308
  90 185.257 4.55466 -2.75577
  91 184.458 4.16972 2.70308
  92 185.257 4.55466 -2.75577
  93 266.968 13.6558 8.79394
  94 266.968 13.6558 8.79394
  95 191.056 1.85283 7.93491
  96 191.056 1.85283 7.93491
  97 287.970 21.1748 -9.80543
  98 292.172 16.6112 -20.3806
  99 287.970 21.1748 -9.80543
  100 292.172 16.6112 -20.3806
  101 186.166 2.94227 -9.74066
  102 186.166 2.94227 -9.74066
  103 152.045 -30.3927 -67.0157
  104 152.045 -30.3927 -67.0157
  105 128.861 -34.8783 70.7506
  106 128.861 -34.8783 70.7506
  107 237.704 -18.6607 -25.0590
  108 237.704 -18.6607 -25.0590
  109 177.410 -21.8565 -39.5128
  110 177.410 -21.8565 -39.5128
  111 305.604 20.7955 15.3191
  112 305.604 20.7955 15.3191
  113 23.2102 -75.8652 -25.8660
  114 23.2102 -75.8652 -25.8660
  115 13.5571 -88.9449 7.65626
  116 13.5571 -88.9449 7.65626
  117 159.283 10.1624 -2.04411
  118 159.283 10.1624 -2.04411
  119 194.192 -7.56225 -15.3379
  120 194.192 -7.56225 -15.3379
  121 326.218 9.21432 -7.41933
  122 326.218 9.21432 -7.41933
  123 36.8109 -75.2921 43.7149
  124 36.8109 -75.2921 43.7149
  125 174.498 6.06216 9.04947
  126 174.498 6.06216 9.04947
  127 43.4870 -61.1856 -48.7774
  128 43.4870 -61.1856 -48.7774
  129 234.565 -16.2240 37.1052
  130 234.565 -16.2240 37.1052
  131 331.991 16.3948 -22.5026
  132 331.991 16.3948 -22.5026
  133 16.9761 -101.778 -7.34268
  134 16.9761 -101.778 -7.34268
  135 20.4880 -98.0809 18.8285
  136 20.4880 -98.0809 18.8285
  137 190.743 1.86779 -4.68903
  138 190.743 1.86779 -4.68903
  139 181.145 6.33182 -0.336103
  140 181.145 6.33182 -0.336103
  141 185.566 3.24766 -0.0441827
  142 185.566 3.24766 -0.0441827
  143 191.212 -3.83656 13.4998
  144 191.212 -3.83656 13.4998
  145 132.584 -3.58033 31.6006
  146 192.831 -17.7585 26.7277
  147 131.183 7.53426 0.720487
  148 132.584 -3.58033 31.6006
  149 192.831 -17.7585 26.7277
  150 131.183 7.53426 0.720487
  151 172.256 3.12145 -14.3786
  152 172.256 3.12145 -14.3786
  153 323.621 9.52978 5.64355
  154 323.621 9.52978 5.64355
  155 336.122 7.88663 14.1719
  156 336.709 16.0907 27.6964
  157 336.122 7.88663 14.1719
  158 336.709 16.0907 27.6964
  159 187.663 2.18560 1.57916
  160 187.663 2.18560 1.57916
  161 117.264 -4.99984 -26.9053
  162 117.264 -4.99984 -26.9053
  163 187.674 2.12835 -1.55093
  164 187.674 2.12835 -1.55093
  165 188.836 2.56365 4.29247
  166 188.836 2.56365 4.29247
  167 221.131 -1.87702 5.73057
  168 216.213 -7.77954 -0.536418
  169 221.131 -1.87702 5.73057
  170 216.213 -7.77954 -0.536418
  171 238.548 -5.98027 1.68313
  172 238.548 -5.98027 1.68313
  173 181.303 5.73473 4.93017
  174 181.303 5.73473 4.93017
  175 90.4595 -9.98986 36.2846
  176 90.4595 -9.98986 36.2846
  177 80.1873 -4.62123 -22.9307
  178 80.1873 -4.62123 -22.9307
  179 182.873 6.17667 -4.71532
  180 182.873 6.17667 -4.71532
</Section>

newXOutput 55

<Section columns = "stress_xx | stress_yy | stress_xy">
  1 191.623 1.35433 -0.791559
  2 191.453 1.05168 0.712487
  3 191.623 1.35433 -0.791559
  4 191.453 1.05168 0.712487
  5 285.875 8.23230 71.6023
  6 281.385 6.34141 -66.3545
  7 285.875 8.23230 71.6023
  8 281.385 6.34141 -66.3545
  9 193.643 0.382708 -2.52281
  10 201.976 0.0427460 -4.14450
  11 207.215 -2.33965 -5.30835
  12 217.742 -1.10121 3.18117
  13 217.324 6.61369 2.07128
  14 218.308 -1.10449 -4.11672
  15 209.407 -3.64436 5.29410
  16 199.316 0.908273 4.84235
  17 193.834 1.28379 2.25147
  18 190.368 2.23687 0.394093
  19 189.241 2.26475 -0.0305677
  20 190.274 2.06380 -0.357980
  21 193.643 0.382708 -2.52281
  22 201.976 0.0427460 -4.14450
  23 207.215 -2.33965 -5.30835
  24 217.742 -1.10121 3.18117
  25 217.324 6.61369 2.07128
  26 218.308 -1.10449 -4.11672
  27 209.407 -3.64436 5.29410
  28 199.316 0.908273 4.84235
  29 193.834 1.28379 2.25147
  30 190.368 2.23687 0.394093
  31 189.241 2.26475 -0.0305677
  32 190.274 2.06380 -0.357980
  33 422.081 3.46448 30.9772
  34 367.167 3.73607 20.1778
  35 352.833 7.01950 8.09150
  36 341.988 4.23554 -2.11375
  37 362.262 1.33563 -7.74947
  38 370.878 7.08294 -18.3470
  39 386.112 25.3457 -38.0116
  40 94.9836 -54.6508 -80.8270
  41 19.0417 -102.031 -33.2115
  42 7.60099 -138.702 -10.5811
  43 5.22401 -146.971 -1.11439
  44 6.31684 -140.516 10.6859
  45 17.4701 -121.438 28.6741
  46 77.2524 -55.2703 79.2976
  47 422.081 3.46448 30.9772
  48 367.167 3.73607 20.1778
  49 352.833 7.01950 8.09150
  50 341.988 4.23554 -2.11375
  51 362.262 1.33563 -7.74947
  52 370.878 7.08294 -18.3470
  53 386.112 25.3457 -38.0116
  54 94.9836 -54.6508 -80.8270
  55 19.0417 -102.031 -33.2115
  56 7.60099 -138.702 -10.5811
  57 5.22401 -146.971 -1.11439
  58 6.31684 -140.516 10.6859
  59 17.4701 -121.438 28.6741
  60 77.2524 -55.2703 79.2976
  61 177.130 7.58162 -3.27385
  62 177.130 7.58162 -3.27385
  63 164.186 2.38124 17.6752
  64 159.402 1.05422 -21.5140
  65 164.186 2.38124 17.6752
  66 159.402 1.05422 -21.5140
  67 91.1271 1.71898 5.90458
  68 91.1271 1.71898 5.90458
  69 148.500 -27.4825 58.1410
  70 148.500 -27.4825 58.1410
  71 89.9643 -26.4437 -46.4725
  72 223.521 -18.9911 -9.68717
  73 247.561 13.8453 -0.112115
  74 236.363 6.48157 -2.86321
  75 89.9643 -26.4437 -46.4725
  76 223.521 -18.9911 -9.68717
  77 247.561 13.8453 -0.112115
  78 236.363 6.48157 -2.86321
  79 219.360 -10.1984 4.42618
  80 219.360 -10.1984 4.42618
  81 283.018 20.9424 1.35358
  82 283.018 20.9424 1.35358
  83 47.6738 -31.1308 -3.94997
  84 47.6738 -31.1308 -3.94997
  85 62.1886 -41.6163 39.9808
  86 62.1886 -41.6163 39.9808
  87 237.066 -13.7913 6.82483
  88 237.066 -13.7913 6.82483
  89 187.865 4.24560 2.75150
  90 188.678 4.63766 -2.80513
  91 187.865 4.24560 2.75150
  92 188.678 4.63766 -2.80513
  93 271.858 13.9151 8.97527
  94 271.858 13.9151 8.97527
  95 194.579 1.88653 8.07930
  96 194.579 1.88653 8.07930
  97 293.237 21.5631 -9.99342
  98 297.505 16.9289 -20.7751
  99 293.237 21.5631 -9.99342
  100 297.505 16.9289 -20.7751
  101 189.603 2.99610 -9.91859
  102 189.603 2.99610 -9.91859
  103 154.831 -30.9353 -68.2822
  104 154.831 -30.9353 -68.2822
  105 131.225 -35.5031 72.0903
  106 131.225 -35.5031 72.0903
  107 242.055 -18.9957 -25.5451
  108 242.055 -18.9957 -25.5451
  109 180.677 -22.2615 -40.2506
  110 180.677 -22.2615 -40.2506
  111 311.178 21.1782 15.6075
  112 311.178 21.1782 15.6075
  113 23.6435 -77.2683 -26.3663
  114 23.6435 -77.2683 -26.3663
  115 13.8083 -90.5989 7.80606
  116 13.8083 -90.5989 7.80606
  117 162.238 10.3507 -2.08131
  118 162.238 10.3507 -2.08131
  119 197.770 -7.70259 -15.6232
  120 197.770 -7.70259 -15.6232
  121 332.140 9.37966 -7.55427
  122 332.140 9.37966 -7.55427
  123 37.4969 -76.6713 44.5614
  124 37.4969 -76.6713 44.5614
  125 177.727 6.17382 9.21477
  126 177.727 6.17382 9.21477
  127 44.2979 -62.3026 -49.7155
  128 44.2979 -62.3026 -49.7155
  129 238.857 -16.5129 37.8129
  130 238.857 -16.5129 37.8129
  131 338.018 16.6949 -22.9203
  132 338.018 16.6949 -22.9203
  133 17.2903 -103.676 -7.48493
  134 17.2903 -103.676 -7.48493
  135 20.8686 -99.9017 19.1995
  136 20.8686 -99.9017 19.1995
  137 194.261 1.90180 -4.77379
  138 194.261 1.90180 -4.77379
  139 184.493 6.44737 -0.342201
  140 184.493 6.44737 -0.342201
  141 188.993 3.30655 -0.0449707
  142 188.993 3.30655 -0.0449707
  143 194.737 -3.90787 13.7492
  144 194.737 -3.90787 13.7492
  145 135.047 -3.64481 32.1868
  146 196.379 -18.0874 27.2280
  147 133.627 7.67599 0.734392
  148 135.047 -3.64481 32.1868
  149 196.379 -18.0874 27.2280
  150 133.627 7.67599 0.734392
  151 175.443 3.17920 -14.6421
  152 175.443 3.17920 -14.6421
  153 329.501 9.70010 5.74775
  154 329.501 9.70010 5.74775
  155 342.220 8.02789 14.4302
  156 342.820 16.3972 28.2162
  157 342.220 8.02789 14.4302
  158 342.820 16.3972 28.2162
  159 191.127 2.22526 1.60728
  160 191.127 2.22526 1.60728
  161 119.448 -5.09024 -27.4052
  162 119.448 -5.09024 -27.4052
  163 191.138 2.16697 -1.57853
  164 191.138 2.16697 -1.57853
  165 192.319 2.61040 4.36954
  166 192.319 2.61040 4.36954
  167 225.203 -1.90998 5.82525
  168 220.189 -7.92401 -0.553641
  169 225.203 -1.90998 5.82525
  170 220.189 -7.92401 -0.553641
  171 242.927 -6.08504 1.69420
  172 242.927 -6.08504 1.69420
  173 184.655 5.83966 5.01930
  174 184.655 5.83966 5.01930
  175 92.1473 -10.1693 36.9639
  176 92.1473 -10.1693 36.9639
  177 81.6889 -4.69906 -23.3598
  178 81.6889 -4.69906 -23.3598
  179 186.253 6.28972 -4.80071
  180 186.253 6.28972 -4.80071
</Section>

newXOutput 56

<Section columns = "stress_xx | stress_yy | stress_xy">
  1 195.092 1.37839 -0.805346
  2 194.918 1.07033 0.724881
  3 195.092 1.37839 -0.805346
  4 194.918 1.07033 0.724881
  5 290.958 8.42098 72.9217
  6 286.401 6.49603 -67.5851
  7 290.958 8.42098 72.9217
  8 286.401 6.49603 -67.5851
  9 197.147 0.389296 -2.56718
  10 205.624 0.0435428 -4.21787
  11 210.957 -2.38258 -5.40552
  12 221.677 -1.12117 3.23259
  13 221.263 6.73471 2.10691
  14 222.254 -1.12414 -4.18368
  15 213.187 -3.71095 5.39132
  16 202.918 0.924434 4.92809
  17 197.340 1.30668 2.29081
  18 193.816 2.27656 0.400952
  19 192.669 2.30489 -0.0310947
  20 193.720 2.10040 -0.364213
  21 197.147 0.389296 -2.56718
  22 205.624 0.0435428 -4.21787
  23 210.957 -2.38258 -5.40552
  24 221.677 -1.12117 3.23259
  25 221.263 6.73471 2.10691
  26 222.254 -1.12414 -4.18368
  27 213.187 -3.71095 5.39132
  28 202.918 0.924434 4.92809
  29 197.340 1.30668 2.29081
  30 193.816 2.27656 0.400952
  31 192.669 2.30489 -0.0310947
  32 193.720 2.10040 -0.364213
  33 429.530 3.52806 31.5353
  34 373.672 3.79823 20.5388
  35 359.090 7.14282 8.23411
  36 348.061 4.30805 -2.15043
  37 368.672 1.35862 -7.88694
  38 377.448 7.20961 -18.6738
  39 392.957 25.8146 -38.7061
  40 96.6899 -55.5980 -82.3349
  41 19.3888 -103.877 -33.8475
  42 7.73726 -141.256 -10.7871
  43 5.31489 -149.686 -1.13462
  44 6.42814 -143.103 10.8932
  45 17.7879 -123.647 29.2268
  46 78.6424 -56.2287 80.7791
  47 429.530 3.52806 31.5353
  48 373.672 3.79823 20.5388
  49 359.090 7.14282 8.23411
  50 348.061 4.30805 -2.15043
  51 368.672 1.35862 -7.88694
  52 377.448 7.20961 -18.6738
  53 392.957 25.8146 -38.7061
  54 96.6899 -55.5980 -82.3349
  55 19.3888 -103.877 -33.8475
  56 7.73726 -141.256 -10.7871
  57 5.31489 -149.686 -1.13462
  58 6.42814 -143.103 10.8932
  59 17.7879 -123.647 29.2268
  60 78.6424 -56.2287 80.7791
  61 180.346 7.71837 -3.33239
  62 180.346 7.71837 -3.33239
  63 167.170 2.42516 17.9949
  64 162.300 1.07405 -21.9029
  65 167.170 2.42516 17.9949
  66 162.300 1.07405 -21.9029
  67 92.8023 1.75643 6.01265
  68 92.8023 1.75643 6.01265
  69 151.186 -27.9830 59.2083
  70 151.186 -27.9830 59.2083
  71 91.6053 -26.9187 -47.3325
  72 227.548 -19.3350 -9.87453
  73 252.028 14.0986 -0.123143
  74 240.631 6.60098 -2.90446
  75 91.6053 -26.9187 -47.3325
  76 227.548 -19.3350 -9.87453
  77 252.028 14.0986 -0.123143
  78 240.631 6.60098 -2.90446
  79 223.317 -10.3832 4.51511
  80 223.317 -10.3832 4.51511
  81 288.101 21.3187 1.38204
  82 288.101 21.3187 1.38204
  83 48.5508 -31.6868 -4.02383
  84 48.5508 -31.6868 -4.02383
  85 63.3225 -42.3648 40.7279
  86 63.3225 -42.3648 40.7279
  87 241.333 -14.0372 6.96692
  88 241.333 -14.0372 6.96692
  89 191.269 4.32139 2.79982
  90 192.097 4.72055 -2.85440
  91 191.269 4.32139 2.79982
  92 192.097 4.72055 -2.85440
  93 276.743 14.1746 9.15714
  94 276.743 14.1746 9.15714
  95 198.100 1.92018 8.22349
  96 198.100 1.92018 8.22349
  97 298.499 21.9509 -10.1815
  98 302.831 17.2467 -21.1700
  99 298.499 21.9509 -10.1815
  100 302.831 17.2467 -21.1700
  101 193.037 3.04987 -10.0963
  102 193.037 3.04987 -10.0963
  103 157.613 -31.4769 -69.5488
  104 157.613 -31.4769 -69.5488
  105 133.588 -36.1268 73.4301
  106 133.588 -36.1268 73.4301
  107 246.400 -19.3302 -26.0317
  108 246.400 -19.3302 -26.0317
  109 183.942 -22.6663 -40.9882
  110 183.942 -22.6663 -40.9882
  111 316.745 21.5607 15.8959
  112 316.745 21.5607 15.8959
  113 24.0766 -78.6703 -26.8670
  114 24.0766 -78.6703 -26.8670
  115 14.0592 -92.2520 7.95607
  116 14.0592 -92.2520 7.95607
  117 165.191 10.5389 -2.11847
  118 165.191 10.5389 -2.11847
  119 201.345 -7.84284 -15.9083
  120 201.345 -7.84284 -15.9083
  121 338.055 9.54471 -7.68903
  122 338.055 9.54471 -7.68903
  123 38.1825 -78.0490 45.4087
  124 38.1825 -78.0490 45.4087
  125 180.953 6.28538 9.37988
  126 180.953 6.28538 9.37988
  127 45.1086 -63.4183 -50.6543
  128 45.1086 -63.4183 -50.6543
  129 243.145 -16.8013 38.5209
  130 243.145 -16.8013 38.5209
  131 344.037 16.9947 -23.3378
  132 344.037 16.9947 -23.3378
  133 17.6044 -105.573 -7.62731
  134 17.6044 -105.573 -7.62731
  135 21.2490 -101.721 19.5711
  136 21.2490 -101.721 19.5711
  137 197.775 1.93576 -4.85841
  138 197.775 1.93576 -4.85841
  139 187.840 6.56277 -0.348290
  140 187.840 6.56277 -0.348290
  141 192.417 3.36536 -0.0457571
  142 192.417 3.36536 -0.0457571
  143 198.260 -3.97914 13.9984
  144 198.260 -3.97914 13.9984
  145 137.509 -3.70919 32.7726
  146 199.925 -18.4160 27.7281
  147 136.070 7.81771 0.748308
  148 137.509 -3.70919 32.7726
  149 199.925 -18.4160 27.7281
  150 136.070 7.81771 0.748308
  151 178.628 3.23690 -14.9052
  152 178.628 3.23690 -14.9052
  153 335.373 9.87010 5.85187
  154 335.373 9.87010 5.85187
  155 348.309 8.16888 14.6881
  156 348.922 16.7037 28.7358
  157 348.309 8.16888 14.6881
  158 348.922 16.7037 28.7358
  159 194.587 2.26486 1.63533
  160 194.587 2.26486 1.63533
  161 121.631 -5.18050 -27.9049
  162 121.631 -5.18050 -27.9049
  163 194.598 2.20553 -1.60608
  164 194.598 2.20553 -1.60608
  165 195.800 2.65708 4.44646
  166 195.800 2.65708 4.44646
  167 229.271 -1.94285 5.91945
  168 224.161 -8.06838 -0.571113
  169 229.271 -1.94285 5.91945
  170 224.161 -8.06838 -0.571113
  171 247.301 -6.18952 1.70455
  172 247.301 -6.18952 1.70455
  173 188.003 5.94448 5.10828
  174 188.003 5.94448 5.10828
  175 93.8344 -10.3484 37.6430
  176 93.8344 -10.3484 37.6430
  177 83.1901 -4.77655 -23.7887
  178 83.1901 -4.77655 -23.7887
  179 189.629 6.40265 -4.88597
  180 189.629 6.40265 -4.88597
</Section>

newXOutput 57

<Section columns = "stress_xx | stress_yy | stress_xy">
  1 198.557 1.40243 -0.819103
  2 198.381 1.08896 0.737247
  3 198.557 1.40243 -0.819103
  4 198.381 1.08896 0.737247
  5 296.033 8.61092 74.2408
  6 291.409 6.65197 -68.8156
  7 296.033 8.61092 74.2408
  8 291.409 6.65197 -68.8156
  9 200.647 0.395866 -2.61147
  10 209.268 0.0443399 -4.29112
  11 214.696 -2.42550 -5.50265
  12 225.610 -1.14111 3.28374
  13 225.199 6.85568 2.14243
  14 226.197 -1.14376 -4.25031
  15 216.964 -3.77752 5.48850
  16 206.516 0.940572 5.01370
  17 200.844 1.32954 2.33007
  18 197.260 2.31619 0.407796
  19 196.095 2.34496 -0.0316203
  20 197.163 2.13695 -0.370433
  21 200.647 0.395866 -2.61147
  22 209.268 0.0443399 -4.29112
  23 214.696 -2.42550 -5.50265
  24 225.610 -1.14111 3.28374
  25 225.199 6.85568 2.14243
  26 226.197 -1.14376 -4.25031
  27 216.964 -3.77752 5.48850
  28 206.516 0.940572 5.01370
  29 200.844 1.32954 2.33007
  30 197.260 2.31619 0.407796
  31 196.095 2.34496 -0.0316203
  32 197.163 2.13695 -0.370433
  33 436.967 3.59161 32.0929
  34 380.167 3.86015 20.8994
  35 365.338 7.26591 8.37648
  36 354.124 4.38034 -2.18703
  37 375.072 1.38156 -8.02419
  38 384.007 7.33612 -19.0001
  39 399.791 26.2834 -39.4001
  40 98.3942 -56.5429 -83.8431
  41 19.7358 -105.721 -34.4843
  42 7.87337 -143.810 -10.9934
  43 5.40556 -152.401 -1.15483
  44 6.53924 -145.689 11.1009
  45 18.1055 -125.853 29.7803
  46 80.0309 -57.1848 82.2610
  47 436.967 3.59161 32.0929
  48 380.167 3.86015 20.8994
  49 365.338 7.26591 8.37648
  50 354.124 4.38034 -2.18703
  51 375.072 1.38156 -8.02419
  52 384.007 7.33612 -19.0001
  53 399.791 26.2834 -39.4001
  54 98.3942 -56.5429 -83.8431
  55 19.7358 -105.721 -34.4843
  56 7.87337 -143.810 -10.9934
  57 5.40556 -152.401 -1.15483
  58 6.53924 -145.689 11.1009
  59 18.1055 -125.853 29.7803
  60 80.0309 -57.1848 82.2610
  61 183.561 7.85499 -3.39086
  62 183.561 7.85499 -3.39086
  63 170.152 2.46907 18.3142
  64 165.197 1.09389 -22.2915
  65 170.152 2.46907 18.3142
  66 165.197 1.09389 -22.2915
  67 94.4772 1.79407 6.12067
  68 94.4772 1.79407 6.12067
  69 153.870 -28.4833 60.2752
  70 153.870 -28.4833 60.2752
  71 93.2453 -27.3933 -48.1925
  72 231.572 -19.6786 -10.0622
  73 256.491 14.3519 -0.134479
  74 244.895 6.72036 -2.94530
  75 93.2453 -27.3933 -48.1925
  76 231.572 -19.6786 -10.0622
  77 256.491 14.3519 -0.134479
  78 244.895 6.72036 -2.94530
  79 227.271 -10.5678 4.60427
  80 227.271 -10.5678 4.60427
  81 293.179 21.6946 1.41062
  82 293.179 21.6946 1.41062
  83 49.4275 -32.2421 -4.09771
  84 49.4275 -32.2421 -4.09771
  85 64.4557 -43.1126 41.4753
  86 64.4557 -43.1126 41.4753
  87 245.596 -14.2828 7.10955
  88 245.596 -14.2828 7.10955
  89 194.671 4.39708 2.84806
  90 195.512 4.80334 -2.90358
  91 194.671 4.39708 2.84806
  92 195.512 4.80334 -2.90358
  93 281.622 14.4341 9.33953
  94 281.622 14.4341 9.33953
  95 201.617 1.95379 8.36749
  96 201.617 1.95379 8.36749
  97 303.755 22.3384 -10.3697
  98 308.151 17.5646 -21.5652
  99 303.755 22.3384 -10.3697
  100 308.151 17.5646 -21.5652
  101 196.468 3.10359 -10.2738
  102 196.468 3.10359 -10.2738
  103 160.393 -32.0173 -70.8155
  104 160.393 -32.0173 -70.8155
  105 135.947 -36.7492 74.7701
  106 135.947 -36.7492 74.7701
  107 250.741 -19.6640 -26.5187
  108 250.741 -19.6640 -26.5187
  109 187.203 -23.0709 -41.7255
  110 187.203 -23.0709 -41.7255
  111 322.305 21.9427 16.1842
  112 322.305 21.9427 16.1842
  113 24.5096 -80.0712 -27.3682
  114 24.5096 -80.0712 -27.3682
  115 14.3100 -93.9043 8.10627
  116 14.3100 -93.9043 8.10627
  117 168.143 10.7270 -2.15557
  118 168.143 10.7270 -2.15557
  119 204.916 -7.98301 -16.1933
  120 204.916 -7.98301 -16.1933
  121 343.960 9.70945 -7.82361
  122 343.960 9.70945 -7.82361
  123 38.8678 -79.4252 46.2567
  124 38.8678 -79.4252 46.2567
  125 184.177 6.39684 9.54479
  126 184.177 6.39684 9.54479
  127 45.9188 -64.5325 -51.5937
  128 45.9188 -64.5325 -51.5937
  129 247.428 -17.0890 39.2291
  130 247.428 -17.0890 39.2291
  131 350.048 17.2942 -23.7550
  132 350.048 17.2942 -23.7550
  133 17.9183 -107.470 -7.76983
  134 17.9183 -107.470 -7.76983
  135 21.6292 -103.540 19.9433
  136 21.6292 -103.540 19.9433
  137 201.287 1.96967 -4.94291
  138 201.287 1.96967 -4.94291
  139 191.183 6.67804 -0.354370
  140 191.183 6.67804 -0.354370
  141 195.838 3.42408 -0.0465419
  142 195.838 3.42408 -0.0465419
  143 201.779 -4.05037 14.2475
  144 201.779 -4.05037 14.2475
  145 139.970 -3.77345 33.3580
  146 203.466 -18.7444 28.2281
  147 138.513 7.95940 0.762234
  148 139.970 -3.77345 33.3580
  149 203.466 -18.7444 28.2281
  150 138.513 7.95940 0.762234
  151 181.810 3.29456 -15.1680
  152 181.810 3.29456 -15.1680
  153 341.237 10.0398 5.95589
  154 341.237 10.0398 5.95589
  155 354.390 8.30961 14.9457
  156 355.015 17.0104 29.2553
  157 354.390 8.30961 14.9457
  158 355.015 17.0104 29.2553
  159 198.044 2.30441 1.66333
  160 198.044 2.30441 1.66333
  161 123.814 -5.27063 -28.4042
  162 123.814 -5.27063 -28.4042
  163 198.056 2.24404 -1.63357
  164 198.056 2.24404 -1.63357
  165 199.278 2.70371 4.52325
  166 199.278 2.70371 4.52325
  167 233.336 -1.97563 6.01318
  168 228.129 -8.21268 -0.588834
  169 233.336 -1.97563 6.01318
  170 228.129 -8.21268 -0.588834
  171 251.671 -6.29370 1.71416
  172 251.671 -6.29370 1.71416
  173 191.349 6.04917 5.19713
  174 191.349 6.04917 5.19713
  175 95.5208 -10.5272 38.3219
  176 95.5208 -10.5272 38.3219
  177 84.6910 -4.85370 -24.2175
  178 84.6910 -4.85370 -24.2175
  179 193.003 6.51545 -4.97111
  180 193.003 6.51545 -4.97111
</Section>

newXOutput 58

<Section columns = "stress_xx | stress_yy | stress_xy">
  1 202.020 1.42642 -0.832829
  2 201.841 1.10755 0.749586
  3 202.020 1.42642 -0.832829
  4 201.841 1.10755 0.749586
  5 301.101 8.80213 75.5596
  6 296.411 6.80921 -70.0462
  7 301.101 8.80213 75.5596
  8 296.411 6.80921 -70.0462
  9 204.144 0.402419 -2.65568
  10 212.909 0.0451372 -4.36425
  11 218.432 -2.46840 -5.59973
  12 229.539 -1.16104 3.33463
  13 229.131 6.97660 2.17786
  14 230.137 -1.16335 -4.31662
  15 220.737 -3.84405 5.58566
  16 210.112 0.956687 5.09917
  17 204.344 1.35237 2.36925
  18 200.702 2.35575 0.414625
  19 199.518 2.38496 -0.0321446
  20 200.603 2.17343 -0.376639
  21 204.144 0.402419 -2.65568
  22 212.909 0.0451372 -4.36425
  23 218.432 -2.46840 -5.59973
  24 229.539 -1.16104 3.33463
  25 229.131 6.97660 2.17786
  26 230.137 -1.16335 -4.31662
  27 220.737 -3.84405 5.58566
  28 210.112 0.956687 5.09917
  29 204.344 1.35237 2.36925
  30 200.702 2.35575 0.414625
  31 199.518 2.38496 -0.0321446
  32 200.603 2.17343 -0.376639
  33 444.391 3.65515 32.6498
  34 386.652 3.92183 21.2594
  35 371.576 7.38878 8.51859
  36 360.179 4.45244 -2.22355
  37 381.461 1.40444 -8.16123
  38 390.555 7.46248 -19.3260
  39 406.615 26.7522 -40.0938
  40 100.097 -57.4855 -85.3516
  41 20.0825 -107.563 -35.1218
  42 8.00933 -146.364 -11.2001
  43 5.49602 -155.116 -1.17503
  44 6.65013 -148.275 11.3090
  45 18.4229 -128.059 30.3346
  46 81.4179 -58.1386 83.7433
  47 444.391 3.65515 32.6498
  48 386.652 3.92183 21.2594
  49 371.576 7.38878 8.51859
  50 360.179 4.45244 -2.22355
  51 381.461 1.40444 -8.16123
  52 390.555 7.46248 -19.3260
  53 406.615 26.7522 -40.0938
  54 100.097 -57.4855 -85.3516
  55 20.0825 -107.563 -35.1218
  56 8.00933 -146.364 -11.2001
  57 5.49602 -155.116 -1.17503
  58 6.65013 -148.275 11.3090
  59 18.4229 -128.059 30.3346
  60 81.4179 -58.1386 83.7433
  61 186.773 7.99148 -3.44925
  62 186.773 7.99148 -3.44925
  63 173.133 2.51298 18.6333
  64 168.091 1.11374 -22.6798
  65 173.133 2.51298 18.6333
  66 168.091 1.11374 -22.6798
  67 96.1515 1.83191 6.22865
  68 96.1515 1.83191 6.22865
  69 156.551 -28.9832 61.3418
  70 156.551 -28.9832 61.3418
  71 94.8845 -27.8672 -49.0525
  72 235.591 -20.0219 -10.2501
  73 260.949 14.6050 -0.146123
  74 249.154 6.83973 -2.98573
  75 94.8845 -27.8672 -49.0525
  76 235.591 -20.0219 -10.2501
  77 260.949 14.6050 -0.146123
  78 249.154 6.83973 -2.98573
  79 231.221 -10.7523 4.69367
  80 231.221 -10.7523 4.69367
  81 298.251 22.0700 1.43931
  82 298.251 22.0700 1.43931
  83 50.3041 -32.7967 -4.17162
  84 50.3041 -32.7967 -4.17162
  85 65.5883 -43.8595 42.2228
  86 65.5883 -43.8595 42.2228
  87 249.855 -14.5281 7.25273
  88 249.855 -14.5281 7.25273
  89 198.070 4.47267 2.89620
  90 198.926 4.88602 -2.95266
  91 198.070 4.47267 2.89620
  92 198.926 4.88602 -2.95266
  93 286.496 14.6936 9.52245
  94 286.496 14.6936 9.52245
  95 205.131 1.98735 8.51129
  96 205.131 1.98735 8.51129
  97 309.005 22.7254 -10.5579
  98 313.464 17.8828 -21.9608
  99 309.005 22.7254 -10.5579
  100 313.464 17.8828 -21.9608
  101 199.897 3.15724 -10.4511
  102 199.897 3.15724 -10.4511
  103 163.170 -32.5565 -72.0821
  104 163.170 -32.5565 -72.0821
  105 138.304 -37.3705 76.1102
  106 138.304 -37.3705 76.1102
  107 255.077 -19.9972 -27.0062
  108 255.077 -19.9972 -27.0062
  109 190.461 -23.4751 -42.4625
  110 190.461 -23.4751 -42.4625
  111 327.858 22.3245 16.4725
  112 327.858 22.3245 16.4725
  113 24.9424 -81.4712 -27.8698
  114 24.9424 -81.4712 -27.8698
  115 14.5607 -95.5556 8.25667
  116 14.5607 -95.5556 8.25667
  117 171.092 10.9150 -2.19263
  118 171.092 10.9150 -2.19263
  119 208.485 -8.12309 -16.4781
  120 208.485 -8.12309 -16.4781
  121 349.858 9.87389 -7.95800
  122 349.858 9.87389 -7.95800
  123 39.5527 -80.7999 47.1056
  124 39.5527 -80.7999 47.1056
  125 187.399 6.50820 9.70950
  126 187.399 6.50820 9.70950
  127 46.7287 -65.6454 -52.5337
  128 46.7287 -65.6454 -52.5337
  129 251.706 -17.3761 39.9376
  130 251.706 -17.3761 39.9376
  131 356.050 17.5933 -24.1720
  132 356.050 17.5933 -24.1720
  133 18.2319 -109.365 -7.91249
  134 18.2319 -109.365 -7.91249
  135 22.0091 -105.358 20.3160
  136 22.0091 -105.358 20.3160
  137 204.796 2.00355 -5.02727
  138 204.796 2.00355 -5.02727
  139 194.524 6.79316 -0.360441
  140 194.524 6.79316 -0.360441
  141 199.257 3.48271 -0.0473250
  142 199.257 3.48271 -0.0473250
  143 205.295 -4.12156 14.4964
  144 205.295 -4.12156 14.4964
  145 142.429 -3.83761 33.9431
  146 207.005 -19.0726 28.7279
  147 140.954 8.10108 0.776172
  148 142.429 -3.83761 33.9431
  149 207.005 -19.0726 28.7279
  150 140.954 8.10108 0.776172
  151 184.990 3.35218 -15.4306
  152 184.990 3.35218 -15.4306
  153 347.093 10.2091 6.05983
  154 347.093 10.2091 6.05983
  155 360.462 8.45007 15.2030
  156 361.100 17.3171 29.7746
  157 360.462 8.45007 15.2030
  158 361.100 17.3171 29.7746
  159 201.499 2.34390 1.69127
  160 201.499 2.34390 1.69127
  161 125.995 -5.36061 -28.9033
  162 125.995 -5.36061 -28.9033
  163 201.511 2.28250 -1.66100
  164 201.511 2.28250 -1.66100
  165 202.754 2.75027 4.59989
  166 202.754 2.75027 4.59989
  167 237.397 -2.00831 6.10642
  168 232.093 -8.35689 -0.606803
  169 237.397 -2.00831 6.10642
  170 232.093 -8.35689 -0.606803
  171 256.037 -6.39759 1.72305
  172 256.037 -6.39759 1.72305
  173 194.692 6.15375 5.28584
  174 194.692 6.15375 5.28584
  175 97.2065 -10.7056 39.0006
  176 97.2065 -10.7056 39.0006
  177 86.1913 -4.93053 -24.6461
  178 86.1913 -4.93053 -24.6461
  179 196.375 6.62812 -5.05612
  180 196.375 6.62812 -5.05612
</Section>

newXOutput 59

<Section columns = "stress_xx | stress_yy | stress_xy">
  1 205.480 1.45038 -0.846526
  2 205.298 1.12612 0.761896
  3 205.480 1.45038 -0.846526
  4 205.298 1.12612 0.761896
  5 306.162 8.99462 76.8782
  6 301.405 6.96776 -71.2768
  7 306.162 8.99462 76.8782
  8 301.405 6.96776 -71.2768
  9 207.639 0.408955 -2.69981
  10 216.547 0.0459348 -4.43727
  11 222.164 -2.51129 -5.69677
  12 233.464 -1.18096 3.38527
  13 233.061 7.09747 2.21320
  14 234.072 -1.18291 -4.38261
  15 224.507 -3.91055 5.68278
  16 213.704 0.972779 5.18450
  17 207.842 1.37517 2.40834
  18 204.141 2.39526 0.421438
  19 202.938 2.42491 -0.0326676
  20 204.041 2.20986 -0.382832
  21 207.639 0.408955 -2.69981
  22 216.547 0.0459348 -4.43727
  23 222.164 -2.51129 -5.69677
  24 233.464 -1.18096 3.38527
  25 233.061 7.09747 2.21320
  26 234.072 -1.18291 -4.38261
  27 224.507 -3.91055 5.68278
  28 213.704 0.972779 5.18450
  29 207.842 1.37517 2.40834
  30 204.141 2.39526 0.421438
  31 202.938 2.42491 -0.0326676
  32 204.041 2.20986 -0.382832
  33 451.802 3.71866 33.2063
  34 393.127 3.98326 21.6191
  35 377.805 7.51141 8.66045
  36 366.225 4.52433 -2.25997
  37 387.839 1.42726 -8.29805
  38 397.094 7.58868 -19.6514
  39 413.428 27.2209 -40.7871
  40 101.797 -58.4257 -86.8605
  41 20.4291 -109.404 -35.7600
  42 8.14512 -148.916 -11.4071
  43 5.58628 -157.831 -1.19521
  44 6.76083 -150.860 11.5173
  45 18.7400 -130.263 30.8897
  46 82.8035 -59.0900 85.2260
  47 451.802 3.71866 33.2063
  48 393.127 3.98326 21.6191
  49 377.805 7.51141 8.66045
  50 366.225 4.52433 -2.25997
  51 387.839 1.42726 -8.29805
  52 397.094 7.58868 -19.6514
  53 413.428 27.2209 -40.7871
  54 101.797 -58.4257 -86.8605
  55 20.4291 -109.404 -35.7600
  56 8.14512 -148.916 -11.4071
  57 5.58628 -157.831 -1.19521
  58 6.76083 -150.860 11.5173
  59 18.7400 -130.263 30.8897
  60 82.8035 -59.0900 85.2260
  61 189.983 8.12784 -3.50757
  62 189.983 8.12784 -3.50757
  63 176.111 2.55688 18.9521
  64 170.984 1.13360 -23.0678
  65 176.111 2.55688 18.9521
  66 170.984 1.13360 -23.0678
  67 97.8254 1.86994 6.33658
  68 97.8254 1.86994 6.33658
  69 159.230 -29.4829 62.4080
  70 159.230 -29.4829 62.4080
  71 96.5228 -28.3407 -49.9124
  72 239.607 -20.3650 -10.4382
  73 265.404 14.8580 -0.158072
  74 253.410 6.95907 -3.02575
  75 96.5228 -28.3407 -49.9124
  76 239.607 -20.3650 -10.4382
  77 265.404 14.8580 -0.158072
  78 253.410 6.95907 -3.02575
  79 235.167 -10.9367 4.78331
  80 235.167 -10.9367 4.78331
  81 303.317 22.4451 1.46812
  82 303.317 22.4451 1.46812
  83 51.1805 -33.3505 -4.24555
  84 51.1805 -33.3505 -4.24555
  85 66.7203 -44.6057 42.9707
  86 66.7203 -44.6057 42.9707
  87 254.110 -14.7731 7.39644
  88 254.110 -14.7731 7.39644
  89 201.467 4.54816 2.94425
  90 202.336 4.96859 -3.00165
  91 201.467 4.54816 2.94425
  92 202.336 4.96859 -3.00165
  93 291.365 14.9533 9.70590
  94 291.365 14.9533 9.70590
  95 208.643 2.02086 8.65491
  96 208.643 2.02086 8.65491
  97 314.249 23.1120 -10.7463
  98 318.771 18.2010 -22.3566
  99 314.249 23.1120 -10.7463
  100 318.771 18.2010 -22.3566
  101 203.322 3.21083 -10.6281
  102 203.322 3.21083 -10.6281
  103 165.944 -33.0947 -73.3488
  104 165.944 -33.0947 -73.3488
  105 140.659 -37.9905 77.4504
  106 140.659 -37.9905 77.4504
  107 259.408 -20.3298 -27.4941
  108 259.408 -20.3298 -27.4941
  109 193.717 -23.8791 -43.1992
  110 193.717 -23.8791 -43.1992
  111 333.404 22.7059 16.7607
  112 333.404 22.7059 16.7607
  113 25.3750 -82.8701 -28.3719
  114 25.3750 -82.8701 -28.3719
  115 14.8112 -97.2060 8.40726
  116 14.8112 -97.2060 8.40726
  117 174.040 11.1028 -2.22963
  118 174.040 11.1028 -2.22963
  119 212.051 -8.26309 -16.7628
  120 212.051 -8.26309 -16.7628
  121 355.747 10.0380 -8.09220
  122 355.747 10.0380 -8.09220
  123 40.2373 -82.1731 47.9552
  124 40.2373 -82.1731 47.9552
  125 190.618 6.61947 9.87402
  126 190.618 6.61947 9.87402
  127 47.5382 -66.7569 -53.4744
  128 47.5382 -66.7569 -53.4744
  129 255.980 -17.6626 40.6464
  130 255.980 -17.6626 40.6464
  131 362.044 17.8921 -24.5887
  132 362.044 17.8921 -24.5887
  133 18.5453 -111.260 -8.05527
  134 18.5453 -111.260 -8.05527
  135 22.3889 -107.174 20.6893
  136 22.3889 -107.174 20.6893
  137 208.301 2.03738 -5.11149
  138 208.301 2.03738 -5.11149
  139 197.863 6.90814 -0.366504
  140 197.863 6.90814 -0.366504
  141 202.673 3.54126 -0.0481066
  142 202.673 3.54126 -0.0481066
  143 208.809 -4.19271 14.7450
  144 208.809 -4.19271 14.7450
  145 144.887 -3.90166 34.5277
  146 210.541 -19.4006 29.2276
  147 143.394 8.24274 0.790120
  148 144.887 -3.90166 34.5277
  149 210.541 -19.4006 29.2276
  150 143.394 8.24274 0.790120
  151 188.168 3.40976 -15.6929
  152 188.168 3.40976 -15.6929
  153 352.940 10.3781 6.16368
  154 352.940 10.3781 6.16368
  155 366.525 8.59027 15.4600
  156 367.176 17.6240 30.2939
  157 366.525 8.59027 15.4600
  158 367.176 17.6240 30.2939
  159 204.951 2.38334 1.71914
  160 204.951 2.38334 1.71914
  161 128.175 -5.45045 -29.4021
  162 128.175 -5.45045 -29.4021
  163 204.963 2.32090 -1.68837
  164 204.963 2.32090 -1.68837
  165 206.226 2.79678 4.67640
  166 206.226 2.79678 4.67640
  167 241.454 -2.04091 6.19920
  168 236.054 -8.50102 -0.625020
  169 241.454 -2.04091 6.19920
  170 236.054 -8.50102 -0.625020
  171 260.398 -6.50118 1.73121
  172 260.398 -6.50118 1.73121
  173 198.033 6.25821 5.37441
  174 198.033 6.25821 5.37441
  175 98.8915 -10.8838 39.6791
  176 98.8915 -10.8838 39.6791
  177 87.6913 -5.00702 -25.0746
  178 87.6913 -5.00702 -25.0746
  179 199.743 6.74067 -5.14099
  180 199.743 6.74067 -5.14099
</Section>

newXOutput 60

<Section columns = "stress_xx | stress_yy | stress_xy">
  1 208.938 1.47431 -0.860192
  2 208.753 1.14465 0.774179
  3 208.938 1.47431 -0.860192
  4 208.753 1.14465 0.774179
  5 311.215 9.18837 78.1964
  6 306.393 7.12761 -72.5073
  7 311.215 9.18837 78.1964
  8 306.393 7.12761 -72.5073
  9 211.130 0.415473 -2.74385
  10 220.182 0.0467326 -4.51016
  11 225.892 -2.55416 -5.79377
  12 237.386 -1.20086 3.43564
  13 236.987 7.21829 2.24844
  14 238.005 -1.20244 -4.44828
  15 228.273 -3.97702 5.77987
  16 217.293 0.988847 5.26969
  17 211.337 1.39793 2.44736
  18 207.578 2.43470 0.428236
  19 206.356 2.46479 -0.0331892
  20 207.476 2.24624 -0.389010
  21 211.130 0.415473 -2.74385
  22 220.182 0.0467326 -4.51016
  23 225.892 -2.55416 -5.79377
  24 237.386 -1.20086 3.43564
  25 236.987 7.21829 2.24844
  26 238.005 -1.20244 -4.44828
  27 228.273 -3.97702 5.77987
  28 217.293 0.988847 5.26969
  29 211.337 1.39793 2.44736
  30 207.578 2.43470 0.428236
  31 206.356 2.46479 -0.0331892
  32 207.476 2.24624 -0.389010
  33 459.201 3.78215 33.7621
  34 399.591 4.04445 21.9782
  35 384.024 7.63382 8.80205
  36 372.261 4.59603 -2.29632
  37 394.208 1.45001 -8.43466
  38 403.621 7.71472 -19.9764
  39 420.231 27.6896 -41.4800
  40 103.496 -59.3637 -88.3698
  41 20.7754 -111.243 -36.3990
  42 8.28076 -151.469 -11.6146
  43 5.67633 -160.545 -1.21538
  44 6.87132 -153.444 11.7261
  45 19.0570 -132.466 31.4455
  46 84.1876 -60.0391 86.7092
  47 459.201 3.78215 33.7621
  48 399.591 4.04445 21.9782
  49 384.024 7.63382 8.80205
  50 372.261 4.59603 -2.29632
  51 394.208 1.45001 -8.43466
  52 403.621 7.71472 -19.9764
  53 420.231 27.6896 -41.4800
  54 103.496 -59.3637 -88.3698
  55 20.7754 -111.243 -36.3990
  56 8.28076 -151.469 -11.6146
  57 5.67633 -160.545 -1.21538
  58 6.87132 -153.444 11.7261
  59 19.0570 -132.466 31.4455
  60 84.1876 -60.0391 86.7092
  61 193.191 8.26407 -3.56582
  62 193.191 8.26407 -3.56582
  63 179.088 2.60077 19.2706
  64 173.874 1.15347 -23.4554
  65 179.088 2.60077 19.2706
  66 173.874 1.15347 -23.4554
  67 99.4989 1.90817 6.44446
  68 99.4989 1.90817 6.44446
  69 161.907 -29.9822 63.4739
  70 161.907 -29.9822 63.4739
  71 98.1601 -28.8137 -50.7723
  72 243.618 -20.7078 -10.6267
  73 269.854 15.1110 -0.170327
  74 257.662 7.07839 -3.06537
  75 98.1601 -28.8137 -50.7723
  76 243.618 -20.7078 -10.6267
  77 269.854 15.1110 -0.170327
  78 257.662 7.07839 -3.06537
  79 239.110 -11.1209 4.87318
  80 239.110 -11.1209 4.87318
  81 308.378 22.8198 1.49703
  82 308.378 22.8198 1.49703
  83 52.0566 -33.9037 -4.31951
  84 52.0566 -33.9037 -4.31951
  85 67.8516 -45.3510 43.7187
  86 67.8516 -45.3510 43.7187
  87 258.360 -15.0177 7.54069
  88 258.360 -15.0177 7.54069
  89 204.861 4.62354 2.99221
  90 205.744 5.05107 -3.05055
  91 204.861 4.62354 2.99221
  92 205.744 5.05107 -3.05055
  93 296.229 15.2129 9.88986
  94 296.229 15.2129 9.88986
  95 212.151 2.05433 8.79833
  96 212.151 2.05433 8.79833
  97 319.487 23.4983 -10.9347
  98 324.072 18.5194 -22.7528
  99 319.487 23.4983 -10.9347
  100 324.072 18.5194 -22.7528
  101 206.745 3.26436 -10.8050
  102 206.745 3.26436 -10.8050
  103 168.715 -33.6318 -74.6156
  104 168.715 -33.6318 -74.6156
  105 143.011 -38.6094 78.7907
  106 143.011 -38.6094 78.7907
  107 263.734 -20.6617 -27.9825
  108 263.734 -20.6617 -27.9825
  109 196.970 -24.2829 -43.9356
  110 196.970 -24.2829 -43.9356
  111 338.943 23.0869 17.0489
  112 338.943 23.0869 17.0489
  113 25.8075 -84.2679 -28.8744
  114 25.8075 -84.2679 -28.8744
  115 15.0615 -98.8556 8.55805
  116 15.0615 -98.8556 8.55805
  117 176.985 11.2905 -2.26659
  118 176.985 11.2905 -2.26659
  119 215.613 -8.40300 -17.0473
  120 215.613 -8.40300 -17.0473
  121 361.628 10.2019 -8.22623
  122 361.628 10.2019 -8.22623
  123 40.9216 -83.5447 48.8056
  124 40.9216 -83.5447 48.8056
  125 193.835 6.73063 10.0383
  126 193.835 6.73063 10.0383
  127 48.3474 -67.8671 -54.4156
  128 48.3474 -67.8671 -54.4156
  129 260.248 -17.9484 41.3554
  130 260.248 -17.9484 41.3554
  131 368.029 18.1906 -25.0051
  132 368.029 18.1906 -25.0051
  133 18.8585 -113.154 -8.19820
  134 18.8585 -113.154 -8.19820
  135 22.7684 -108.989 21.0632
  136 22.7684 -108.989 21.0632
  137 211.804 2.07116 -5.19559
  138 211.804 2.07116 -5.19559
  139 201.199 7.02299 -0.372558
  140 201.199 7.02299 -0.372558
  141 206.086 3.59973 -0.0488865
  142 206.086 3.59973 -0.0488865
  143 212.319 -4.26382 14.9935
  144 212.319 -4.26382 14.9935
  145 147.343 -3.96560 35.1121
  146 214.073 -19.7284 29.7271
  147 145.832 8.38439 0.804079
  148 147.343 -3.96560 35.1121
  149 214.073 -19.7284 29.7271
  150 145.832 8.38439 0.804079
  151 191.343 3.46729 -15.9549
  152 191.343 3.46729 -15.9549
  153 358.780 10.5467 6.26745
  154 358.780 10.5467 6.26745
  155 372.579 8.73021 15.7166
  156 373.243 17.9309 30.8129
  157 372.579 8.73021 15.7166
  158 373.243 17.9309 30.8129
  159 208.400 2.42271 1.74696
  160 208.400 2.42271 1.74696
  161 130.354 -5.54016 -29.9006
  162 130.354 -5.54016 -29.9006
  163 208.412 2.35925 -1.71568
  164 208.412 2.35925 -1.71568
  165 209.695 2.84323 4.75276
  166 209.695 2.84323 4.75276
  167 245.508 -2.07342 6.29150
  168 240.011 -8.64506 -0.643483
  169 245.508 -2.07342 6.29150
  170 240.011 -8.64506 -0.643483
  171 264.755 -6.60448 1.73865
  172 264.755 -6.60448 1.73865
  173 201.372 6.36256 5.46284
  174 201.372 6.36256 5.46284
  175 100.576 -11.0616 40.3574
  176 100.576 -11.0616 40.3574
  177 89.1909 -5.08319 -25.5030
  178 89.1909 -5.08319 -25.5030
  179 203.110 6.85309 -5.22575
  180 203.110 6.85309 -5.22575
</Section>

newXOutput 61

<Section columns = "stress_xx | stress_yy | stress_xy">
  1 212.392 1.49820 -0.873827
  2 212.204 1.16316 0.786434
  3 212.392 1.49820 -0.873827
  4 212.204 1.16316 0.786434
  5 316.260 9.38338 79.5143
  6 311.374 7.28876 -73.7378
  7 316.260 9.38338 79.5143
  8 311.374 7.28876 -73.7378
  9 214.619 0.421974 -2.78781
  10 223.813 0.0475307 -4.58294
  11 229.617 -2.59702 -5.89072
  12 241.305 -1.22074 3.48576
  13 240.911 7.33906 2.28359
  14 241.934 -1.22195 -4.51363
  15 232.036 -4.04345 5.87693
  16 220.879 1.00489 5.35474
  17 214.828 1.42067 2.48629
  18 211.011 2.47408 0.435019
  19 209.770 2.50461 -0.0337094
  20 210.908 2.28256 -0.395175
  21 214.619 0.421974 -2.78781
  22 223.813 0.0475307 -4.58294
  23 229.617 -2.59702 -5.89072
  24 241.305 -1.22074 3.48576
  25 240.911 7.33906 2.28359
  26 241.934 -1.22195 -4.51363
  27 232.036 -4.04345 5.87693
  28 220.879 1.00489 5.35474
  29 214.828 1.42067 2.48629
  30 211.011 2.47408 0.435019
  31 209.770 2.50461 -0.0337094
  32 210.908 2.28256 -0.395175
  33 466.587 3.84562 34.3174
  34 406.045 4.10541 22.3370
  35 390.233 7.75599 8.94340
  36 378.289 4.66752 -2.33257
  37 400.566 1.47272 -8.57106
  38 410.139 7.84061 -20.3009
  39 427.022 28.1583 -42.1725
  40 105.193 -60.2993 -89.8793
  41 21.1215 -113.080 -37.0387
  42 8.41624 -154.021 -11.8223
  43 5.76617 -163.259 -1.23553
  44 6.98161 -156.028 11.9351
  45 19.3737 -134.667 32.0021
  46 85.5702 -60.9858 88.1927
  47 466.587 3.84562 34.3174
  48 406.045 4.10541 22.3370
  49 390.233 7.75599 8.94340
  50 378.289 4.66752 -2.33257
  51 400.566 1.47272 -8.57106
  52 410.139 7.84061 -20.3009
  53 427.022 28.1583 -42.1725
  54 105.193 -60.2993 -89.8793
  55 21.1215 -113.080 -37.0387
  56 8.41624 -154.021 -11.8223
  57 5.76617 -163.259 -1.23553
  58 6.98161 -156.028 11.9351
  59 19.3737 -134.667 32.0021
  60 85.5702 -60.9858 88.1927
  61 196.397 8.40017 -3.62399
  62 196.397 8.40017 -3.62399
  63 182.062 2.64465 19.5889
  64 176.763 1.17335 -23.8427
  65 182.062 2.64465 19.5889
  66 176.763 1.17335 -23.8427
  67 101.172 1.94658 6.55230
  68 101.172 1.94658 6.55230
  69 164.581 -30.4813 64.5395
  70 164.581 -30.4813 64.5395
  71 99.7966 -29.2861 -51.6321
  72 247.625 -21.0503 -10.8154
  73 274.300 15.3638 -0.182887
  74 261.910 7.19769 -3.10459
  75 99.7966 -29.2861 -51.6321
  76 247.625 -21.0503 -10.8154
  77 274.300 15.3638 -0.182887
  78 261.910 7.19769 -3.10459
  79 243.049 -11.3049 4.96329
  80 243.049 -11.3049 4.96329
  81 313.434 23.1940 1.52606
  82 313.434 23.1940 1.52606
  83 52.9326 -34.4561 -4.39349
  84 52.9326 -34.4561 -4.39349
  85 68.9823 -46.0956 44.4670
  86 68.9823 -46.0956 44.4670
  87 262.606 -15.2619 7.68547
  88 262.606 -15.2619 7.68547
  89 208.252 4.69883 3.04008
  90 209.149 5.13343 -3.09935
  91 208.252 4.69883 3.04008
  92 209.149 5.13343 -3.09935
  93 301.087 15.4727 10.0744
  94 301.087 15.4727 10.0744
  95 215.656 2.08776 8.94156
  96 215.656 2.08776 8.94156
  97 324.719 23.8841 -11.1232
  98 329.366 18.8380 -23.1493
  99 324.719 23.8841 -11.1232
  100 329.366 18.8380 -23.1493
  101 210.166 3.31783 -10.9817
  102 210.166 3.31783 -10.9817
  103 171.483 -34.1677 -75.8824
  104 171.483 -34.1677 -75.8824
  105 145.361 -39.2271 80.1312
  106 145.361 -39.2271 80.1312
  107 268.055 -20.9931 -28.4713
  108 268.055 -20.9931 -28.4713
  109 200.219 -24.6863 -44.6718
  110 200.219 -24.6863 -44.6718
  111 344.475 23.4676 17.3371
  112 344.475 23.4676 17.3371
  113 26.2398 -85.6647 -29.3773
  114 26.2398 -85.6647 -29.3773
  115 15.3116 -100.504 8.70903
  116 15.3116 -100.504 8.70903
  117 179.929 11.4781 -2.30350
  118 179.929 11.4781 -2.30350
  119 219.172 -8.54283 -17.3317
  120 219.172 -8.54283 -17.3317
  121 367.501 10.3654 -8.36007
  122 367.501 10.3654 -8.36007
  123 41.6056 -84.9148 49.6567
  124 41.6056 -84.9148 49.6567
  125 197.049 6.84170 10.2025
  126 197.049 6.84170 10.2025
  127 49.1561 -68.9759 -55.3576
  128 49.1561 -68.9759 -55.3576
  129 264.512 -18.2337 42.0646
  130 264.512 -18.2337 42.0646
  131 374.006 18.4888 -25.4212
  132 374.006 18.4888 -25.4212
  133 19.1715 -115.048 -8.34126
  134 19.1715 -115.048 -8.34126
  135 23.1477 -110.804 21.4376
  136 23.1477 -110.804 21.4376
  137 215.304 2.10490 -5.27955
  138 215.304 2.10490 -5.27955
  139 204.533 7.13769 -0.378603
  140 204.533 7.13769 -0.378603
  141 209.496 3.65811 -0.0496648
  142 209.496 3.65811 -0.0496648
  143 215.827 -4.33490 15.2418
  144 215.827 -4.33490 15.2418
  145 149.798 -4.02944 35.6960
  146 217.602 -20.0559 30.2264
  147 148.270 8.52601 0.818049
  148 149.798 -4.02944 35.6960
  149 217.602 -20.0559 30.2264
  150 148.270 8.52601 0.818049
  151 194.517 3.52479 -16.2166
  152 194.517 3.52479 -16.2166
  153 364.611 10.7151 6.37113
  154 364.611 10.7151 6.37113
  155 378.625 8.86988 15.9729
  156 379.302 18.2380 31.3319
  157 378.625 8.86988 15.9729
  158 379.302 18.2380 31.3319
  159 211.846 2.46204 1.77472
  160 211.846 2.46204 1.77472
  161 132.533 -5.62973 -30.3989
  162 132.533 -5.62973 -30.3989
  163 211.858 2.39754 -1.74293
  164 211.858 2.39754 -1.74293
  165 213.162 2.88962 4.82899
  166 213.162 2.88962 4.82899
  167 249.558 -2.10584 6.38333
  168 243.964 -8.78902 -0.662193
  169 249.558 -2.10584 6.38333
  170 243.964 -8.78902 -0.662193
  171 269.108 -6.70749 1.74536
  172 269.108 -6.70749 1.74536
  173 204.708 6.46678 5.55113
  174 204.708 6.46678 5.55113
  175 102.259 -11.2391 41.0355
  176 102.259 -11.2391 41.0355
  177 90.6900 -5.15902 -25.9312
  178 90.6900 -5.15902 -25.9312
  179 206.473 6.96539 -5.31037
  180 206.473 6.96539 -5.31037
</Section>

newXOutput 62

<Section columns = "stress_xx | stress_yy | stress_xy">
  1 215.844 1.52206 -0.887433
  2 215.653 1.18164 0.798661
  3 215.844 1.52206 -0.887433
  4 215.653 1.18164 0.798661
  5 321.299 9.57965 80.8319
  6 316.348 7.45122 -74.9684
  7 321.299 9.57965 80.8319
  8 316.348 7.45122 -74.9684
  9 218.104 0.428457 -2.83169
  10 227.441 0.0483291 -4.65560
  11 233.339 -2.63987 -5.98763
  12 245.220 -1.24060 3.53562
  13 244.831 7.45978 2.31864
  14 245.860 -1.24142 -4.57866
  15 235.795 -4.10986 5.97396
  16 224.462 1.02092 5.43966
  17 218.317 1.44337 2.52514
  18 214.442 2.51340 0.441786
  19 213.182 2.54436 -0.0342283
  20 214.337 2.31882 -0.401326
  21 218.104 0.428457 -2.83169
  22 227.441 0.0483291 -4.65560
  23 233.339 -2.63987 -5.98763
  24 245.220 -1.24060 3.53562
  25 244.831 7.45978 2.31864
  26 245.860 -1.24142 -4.57866
  27 235.795 -4.10986 5.97396
  28 224.462 1.02092 5.43966
  29 218.317 1.44337 2.52514
  30 214.442 2.51340 0.441786
  31 213.182 2.54436 -0.0342283
  32 214.337 2.31882 -0.401326
  33 473.960 3.90906 34.8721
  34 412.489 4.16612 22.6952
  35 396.433 7.87794 9.08450
  36 384.307 4.73881 -2.36874
  37 406.913 1.49536 -8.70724
  38 416.646 7.96634 -20.6249
  39 433.804 28.6270 -42.8646
  40 106.888 -61.2326 -91.3892
  41 21.4674 -114.916 -37.6792
  42 8.55155 -156.572 -12.0305
  43 5.85581 -165.973 -1.25566
  44 7.09170 -158.611 12.1446
  45 19.6903 -136.866 32.5595
  46 86.9514 -61.9303 89.6767
  47 473.960 3.90906 34.8721
  48 412.489 4.16612 22.6952
  49 396.433 7.87794 9.08450
  50 384.307 4.73881 -2.36874
  51 406.913 1.49536 -8.70724
  52 416.646 7.96634 -20.6249
  53 433.804 28.6270 -42.8646
  54 106.888 -61.2326 -91.3892
  55 21.4674 -114.916 -37.6792
  56 8.55155 -156.572 -12.0305
  57 5.85581 -165.973 -1.25566
  58 7.09170 -158.611 12.1446
  59 19.6903 -136.866 32.5595
  60 86.9514 -61.9303 89.6767
  61 199.600 8.53614 -3.68209
  62 199.600 8.53614 -3.68209
  63 185.035 2.68853 19.9068
  64 179.650 1.19324 -24.2296
  65 185.035 2.68853 19.9068
  66 179.650 1.19324 -24.2296
  67 102.845 1.98519 6.66009
  68 102.845 1.98519 6.66009
  69 167.253 -30.9800 65.6047
  70 167.253 -30.9800 65.6047
  71 101.432 -29.7581 -52.4919
  72 251.629 -21.3925 -11.0044
  73 278.741 15.6165 -0.195749
  74 266.154 7.31697 -3.14340
  75 101.432 -29.7581 -52.4919
  76 251.629 -21.3925 -11.0044
  77 278.741 15.6165 -0.195749
  78 266.154 7.31697 -3.14340
  79 246.984 -11.4889 5.05363
  80 246.984 -11.4889 5.05363
  81 318.483 23.5679 1.55520
  82 318.483 23.5679 1.55520
  83 53.8083 -35.0077 -4.46750
  84 53.8083 -35.0077 -4.46750
  85 70.1124 -46.8394 45.2155
  86 70.1124 -46.8394 45.2155
  87 266.848 -15.5059 7.83079
  88 266.848 -15.5059 7.83079
  89 211.640 4.77402 3.08786
  90 212.551 5.21569 -3.14806
  91 211.640 4.77402 3.08786
  92 212.551 5.21569 -3.14806
  93 305.940 15.7325 10.2594
  94 305.940 15.7325 10.2594
  95 219.159 2.12114 9.08461
  96 219.159 2.12114 9.08461
  97 329.946 24.2695 -11.3118
  98 334.654 19.1567 -23.5461
  99 329.946 24.2695 -11.3118
  100 334.654 19.1567 -23.5461
  101 213.583 3.37125 -11.1581
  102 213.583 3.37125 -11.1581
  103 174.248 -34.7026 -77.1492
  104 174.248 -34.7026 -77.1492
  105 147.709 -39.8435 81.4718
  106 147.709 -39.8435 81.4718
  107 272.372 -21.3238 -28.9606
  108 272.372 -21.3238 -28.9606
  109 203.466 -25.0895 -45.4076
  110 203.466 -25.0895 -45.4076
  111 350.001 23.8480 17.6252
  112 350.001 23.8480 17.6252
  113 26.6719 -87.0605 -29.8807
  114 26.6719 -87.0605 -29.8807
  115 15.5616 -102.152 8.86021
  116 15.5616 -102.152 8.86021
  117 182.871 11.6656 -2.34036
  118 182.871 11.6656 -2.34036
  119 222.728 -8.68257 -17.6160
  120 222.728 -8.68257 -17.6160
  121 373.365 10.5287 -8.49372
  122 373.365 10.5287 -8.49372
  123 42.2893 -86.2834 50.5087
  124 42.2893 -86.2834 50.5087
  125 200.261 6.95267 10.3664
  126 200.261 6.95267 10.3664
  127 49.9646 -70.0833 -56.3001
  128 49.9646 -70.0833 -56.3001
  129 268.771 -18.5183 42.7740
  130 268.771 -18.5183 42.7740
  131 379.974 18.7866 -25.8371
  132 379.974 18.7866 -25.8371
  133 19.4843 -116.940 -8.48445
  134 19.4843 -116.940 -8.48445
  135 23.5268 -112.617 21.8127
  136 23.5268 -112.617 21.8127
  137 218.801 2.13860 -5.36338
  138 218.801 2.13860 -5.36338
  139 207.864 7.25225 -0.384639
  140 207.864 7.25225 -0.384639
  141 212.904 3.71641 -0.0504415
  142 212.904 3.71641 -0.0504415
  143 219.331 -4.40593 15.4899
  144 219.331 -4.40593 15.4899
  145 152.252 -4.09316 36.2796
  146 221.127 -20.3832 30.7256
  147 150.707 8.66762 0.832029
  148 152.252 -4.09316 36.2796
  149 221.127 -20.3832 30.7256
  150 150.707 8.66762 0.832029
  151 197.687 3.58224 -16.4780
  152 197.687 3.58224 -16.4780
  153 370.435 10.8831 6.47471
  154 370.435 10.8831 6.47471
  155 384.663 9.00929 16.2288
  156 385.352 18.5451 31.8507
  157 384.663 9.00929 16.2288
  158 385.352 18.5451 31.8507
  159 215.290 2.50130 1.80242
  160 215.290 2.50130 1.80242
  161 134.710 -5.71916 -30.8968
  162 134.710 -5.71916 -30.8968
  163 215.302 2.43577 -1.77012
  164 215.302 2.43577 -1.77012
  165 216.626 2.93596 4.90508
  166 216.626 2.93596 4.90508
  167 253.605 -2.13817 6.47469
  168 247.913 -8.93289 -0.681147
  169 253.605 -2.13817 6.47469
  170 247.913 -8.93289 -0.681147
  171 273.456 -6.81021 1.75136
  172 273.456 -6.81021 1.75136
  173 208.041 6.57089 5.63928
  174 208.041 6.57089 5.63928
  175 103.942 -11.4163 41.7134
  176 103.942 -11.4163 41.7134
  177 92.1887 -5.23453 -26.3593
  178 92.1887 -5.23453 -26.3593
  179 209.834 7.07756 -5.39486
  180 209.834 7.07756 -5.39486
</Section>

newXOutput 63

<Section columns = "stress_xx | stress_yy | stress_xy">
  1 219.292 1.54587 -0.901009
  2 219.099 1.20009 0.810861
  3 219.292 1.54587 -0.901009
  4 219.099 1.20009 0.810861
  5 326.329 9.77719 82.1493
  6 321.315 7.61497 -76.1989
  7 326.329 9.77719 82.1493
  8 321.315 7.61497 -76.1989
  9 221.587 0.434924 -2.87549
  10 231.065 0.0491277 -4.72814
  11 237.058 -2.68270 -6.08450
  12 249.132 -1.26046 3.58523
  13 248.749 7.58045 2.35359
  14 249.782 -1.26087 -4.64337
  15 239.551 -4.17623 6.07095
  16 228.041 1.03692 5.52444
  17 221.803 1.46605 2.56391
  18 217.870 2.55266 0.448539
  19 216.592 2.58405 -0.0347459
  20 217.763 2.35502 -0.407464
  21 221.587 0.434924 -2.87549
  22 231.065 0.0491277 -4.72814
  23 237.058 -2.68270 -6.08450
  24 249.132 -1.26046 3.58523
  25 248.749 7.58045 2.35359
  26 249.782 -1.26087 -4.64337
  27 239.551 -4.17623 6.07095
  28 228.041 1.03692 5.52444
  29 221.803 1.46605 2.56391
  30 217.870 2.55266 0.448539
  31 216.592 2.58405 -0.0347459
  32 217.763 2.35502 -0.407464
  33 481.320 3.97249 35.4262
  34 418.923 4.22659 23.0530
  35 402.623 7.99967 9.22535
  36 390.317 4.80990 -2.40483
  37 413.251 1.51794 -8.84321
  38 423.143 8.09192 -20.9485
  39 440.574 29.0956 -43.5564
  40 108.581 -62.1636 -92.8995
  41 21.8131 -116.750 -38.3204
  42 8.68672 -159.123 -12.2390
  43 5.94524 -168.687 -1.27578
  44 7.20159 -161.194 12.3543
  45 20.0066 -139.064 33.1177
  46 88.3311 -62.8724 91.1611
  47 481.320 3.97249 35.4262
  48 418.923 4.22659 23.0530
  49 402.623 7.99967 9.22535
  50 390.317 4.80990 -2.40483
  51 413.251 1.51794 -8.84321
  52 423.143 8.09192 -20.9485
  53 440.574 29.0956 -43.5564
  54 108.581 -62.1636 -92.8995
  55 21.8131 -116.750 -38.3204
  56 8.68672 -159.123 -12.2390
  57 5.94524 -168.687 -1.27578
  58 7.20159 -161.194 12.3543
  59 20.0066 -139.064 33.1177
  60 88.3311 -62.8724 91.1611
  61 202.801 8.67198 -3.74012
  62 202.801 8.67198 -3.74012
  63 188.005 2.73240 20.2245
  64 182.535 1.21314 -24.6162
  65 188.005 2.73240 20.2245
  66 182.535 1.21314 -24.6162
  67 104.517 2.02399 6.76783
  68 104.517 2.02399 6.76783
  69 169.923 -31.4785 66.6695
  70 169.923 -31.4785 66.6695
  71 103.067 -30.2295 -53.3517
  72 255.628 -21.7344 -11.1936
  73 283.179 15.8691 -0.208915
  74 270.394 7.43623 -3.18181
  75 103.067 -30.2295 -53.3517
  76 255.628 -21.7344 -11.1936
  77 283.179 15.8691 -0.208915
  78 270.394 7.43623 -3.18181
  79 250.916 -11.6726 5.14421
  80 250.916 -11.6726 5.14421
  81 323.528 23.9414 1.58445
  82 323.528 23.9414 1.58445
  83 54.6839 -35.5587 -4.54153
  84 54.6839 -35.5587 -4.54153
  85 71.2418 -47.5825 45.9642
  86 71.2418 -47.5825 45.9642
  87 271.085 -15.7495 7.97664
  88 271.085 -15.7495 7.97664
  89 215.026 4.84911 3.13555
  90 215.951 5.29785 -3.19667
  91 215.026 4.84911 3.13555
  92 215.951 5.29785 -3.19667
  93 310.787 15.9923 10.4449
  94 310.787 15.9923 10.4449
  95 222.659 2.15448 9.22746
  96 222.659 2.15448 9.22746
  97 335.166 24.6546 -11.5005
  98 339.935 19.4755 -23.9432
  99 335.166 24.6546 -11.5005
  100 339.935 19.4755 -23.9432
  101 216.998 3.42460 -11.3343
  102 216.998 3.42460 -11.3343
  103 177.010 -35.2363 -78.4160
  104 177.010 -35.2363 -78.4160
  105 150.054 -40.4588 82.8125
  106 150.054 -40.4588 82.8125
  107 276.684 -21.6539 -29.4504
  108 276.684 -21.6539 -29.4504
  109 206.710 -25.4925 -46.1432
  110 206.710 -25.4925 -46.1432
  111 355.519 24.2280 17.9132
  112 355.519 24.2280 17.9132
  113 27.1038 -88.4552 -30.3845
  114 27.1038 -88.4552 -30.3845
  115 15.8114 -103.799 9.01158
  116 15.8114 -103.799 9.01158
  117 185.812 11.8529 -2.37717
  118 185.812 11.8529 -2.37717
  119 226.281 -8.82223 -17.9000
  120 226.281 -8.82223 -17.9000
  121 379.221 10.6916 -8.62719
  122 379.221 10.6916 -8.62719
  123 42.9726 -87.6505 51.3614
  124 42.9726 -87.6505 51.3614
  125 203.471 7.06354 10.5301
  126 203.471 7.06354 10.5301
  127 50.7726 -71.1894 -57.2433
  128 50.7726 -71.1894 -57.2433
  129 273.025 -18.8023 43.4837
  130 273.025 -18.8023 43.4837
  131 385.934 19.0841 -26.2527
  132 385.934 19.0841 -26.2527
  133 19.7969 -118.832 -8.62778
  134 19.7969 -118.832 -8.62778
  135 23.9056 -114.429 22.1883
  136 23.9056 -114.429 22.1883
  137 222.295 2.17225 -5.44708
  138 222.295 2.17225 -5.44708
  139 211.193 7.36667 -0.390667
  140 211.193 7.36667 -0.390667
  141 216.309 3.77462 -0.0512166
  142 216.309 3.77462 -0.0512166
  143 222.832 -4.47693 15.7378
  144 222.832 -4.47693 15.7378
  145 154.704 -4.15679 36.8628
  146 224.650 -20.7103 31.2247
  147 153.142 8.80921 0.846020
  148 154.704 -4.15679 36.8628
  149 224.650 -20.7103 31.2247
  150 153.142 8.80921 0.846020
  151 200.856 3.63965 -16.7391
  152 200.856 3.63965 -16.7391
  153 376.250 11.0508 6.57821
  154 376.250 11.0508 6.57821
  155 390.691 9.14844 16.4844
  156 391.394 18.8524 32.3694
  157 390.691 9.14844 16.4844
  158 391.394 18.8524 32.3694
  159 218.730 2.54051 1.83006
  160 218.730 2.54051 1.83006
  161 136.886 -5.80845 -31.3945
  162 136.886 -5.80845 -31.3945
  163 218.743 2.47395 -1.79726
  164 218.743 2.47395 -1.79726
  165 220.087 2.98223 4.98102
  166 220.087 2.98223 4.98102
  167 257.648 -2.17041 6.56557
  168 251.859 -9.07668 -0.700346
  169 257.648 -2.17041 6.56557
  170 251.859 -9.07668 -0.700346
  171 277.800 -6.91263 1.75663
  172 277.800 -6.91263 1.75663
  173 211.372 6.67489 5.72729
  174 211.372 6.67489 5.72729
  175 105.625 -11.5932 42.3911
  176 105.625 -11.5932 42.3911
  177 93.6870 -5.30970 -26.7873
  178 93.6870 -5.30970 -26.7873
  179 213.193 7.18961 -5.47923
  180 213.193 7.18961 -5.47923
</Section>

newXOutput 64

<Section columns = "stress_xx | stress_yy | stress_xy">
  1 222.738 1.56966 -0.914554
  2 222.542 1.21851 0.823033
  3 222.738 1.56966 -0.914554
  4 222.542 1.21851 0.823033
  5 331.353 9.97598 83.4663
  6 326.275 7.78001 -77.4293
  7 331.353 9.97598 83.4663
  8 326.275 7.78001 -77.4293
  9 225.067 0.441373 -2.91921
  10 234.687 0.0499267 -4.80056
  11 240.773 -2.72551 -6.18133
  12 253.040 -1.28029 3.63457
  13 252.663 7.70107 2.38845
  14 253.701 -1.28028 -4.70776
  15 243.303 -4.24257 6.16792
  16 231.618 1.05289 5.60908
  17 225.286 1.48869 2.60259
  18 221.296 2.59186 0.455276
  19 219.999 2.62368 -0.0352621
  20 221.187 2.39117 -0.413588
  21 225.067 0.441373 -2.91921
  22 234.687 0.0499267 -4.80056
  23 240.773 -2.72551 -6.18133
  24 253.040 -1.28029 3.63457
  25 252.663 7.70107 2.38845
  26 253.701 -1.28028 -4.70776
  27 243.303 -4.24257 6.16792
  28 231.618 1.05289 5.60908
  29 225.286 1.48869 2.60259
  30 221.296 2.59186 0.455276
  31 219.999 2.62368 -0.0352621
  32 221.187 2.39117 -0.413588
  33 488.667 4.03589 35.9797
  34 425.346 4.28682 23.4104
  35 408.804 8.12117 9.36594
  36 396.317 4.88079 -2.44083
  37 419.578 1.54047 -8.97896
  38 429.629 8.21734 -21.2716
  39 447.334 29.5642 -44.2477
  40 110.272 -63.0923 -94.4100
  41 22.1586 -118.583 -38.9624
  42 8.82172 -161.673 -12.4478
  43 6.03446 -171.400 -1.29589
  44 7.31128 -163.776 12.5644
  45 20.3227 -141.261 33.6766
  46 89.7093 -63.8122 92.6458
  47 488.667 4.03589 35.9797
  48 425.346 4.28682 23.4104
  49 408.804 8.12117 9.36594
  50 396.317 4.88079 -2.44083
  51 419.578 1.54047 -8.97896
  52 429.629 8.21734 -21.2716
  53 447.334 29.5642 -44.2477
  54 110.272 -63.0923 -94.4100
  55 22.1586 -118.583 -38.9624
  56 8.82172 -161.673 -12.4478
  57 6.03446 -171.400 -1.29589
  58 7.31128 -163.776 12.5644
  59 20.3227 -141.261 33.6766
  60 89.7093 -63.8122 92.6458
  61 206.000 8.80770 -3.79807
  62 206.000 8.80770 -3.79807
  63 190.974 2.77626 20.5420
  64 185.418 1.23305 -25.0025
  65 190.974 2.77626 20.5420
  66 185.418 1.23305 -25.0025
  67 106.188 2.06298 6.87553
  68 106.188 2.06298 6.87553
  69 172.590 -31.9767 67.7340
  70 172.590 -31.9767 67.7340
  71 104.701 -30.7004 -54.2115
  72 259.624 -22.0761 -11.3832
  73 287.612 16.1216 -0.222382
  74 274.631 7.55546 -3.21982
  75 104.701 -30.7004 -54.2115
  76 259.624 -22.0761 -11.3832
  77 287.612 16.1216 -0.222382
  78 274.631 7.55546 -3.21982
  79 254.844 -11.8563 5.23502
  80 254.844 -11.8563 5.23502
  81 328.566 24.3144 1.61380
  82 328.566 24.3144 1.61380
  83 55.5592 -36.1089 -4.61559
  84 55.5592 -36.1089 -4.61559
  85 72.3706 -48.3247 46.7132
  86 72.3706 -48.3247 46.7132
  87 275.318 -15.9927 8.12303
  88 275.318 -15.9927 8.12303
  89 218.409 4.92411 3.18314
  90 219.348 5.37990 -3.24520
  91 218.409 4.92411 3.18314
  92 219.348 5.37990 -3.24520
  93 315.630 16.2522 10.6309
  94 315.630 16.2522 10.6309
  95 226.155 2.18777 9.37012
  96 226.155 2.18777 9.37012
  97 340.380 25.0392 -11.6893
  98 345.210 19.7945 -24.3406
  99 340.380 25.0392 -11.6893
  100 345.210 19.7945 -24.3406
  101 220.410 3.47789 -11.5103
  102 220.410 3.47789 -11.5103
  103 179.768 -35.7689 -79.6829
  104 179.768 -35.7689 -79.6829
  105 152.396 -41.0729 84.1534
  106 152.396 -41.0729 84.1534
  107 280.990 -21.9834 -29.9405
  108 280.990 -21.9834 -29.9405
  109 209.951 -25.8952 -46.8784
  110 209.951 -25.8952 -46.8784
  111 361.031 24.6077 18.2013
  112 361.031 24.6077 18.2013
  113 27.5356 -89.8489 -30.8888
  114 27.5356 -89.8489 -30.8888
  115 16.0611 -105.445 9.16315
  116 16.0611 -105.445 9.16315
  117 188.750 12.0402 -2.41393
  118 188.750 12.0402 -2.41393
  119 229.831 -8.96181 -18.1839
  120 229.831 -8.96181 -18.1839
  121 385.069 10.8543 -8.76048
  122 385.069 10.8543 -8.76048
  123 43.6556 -89.0161 52.2148
  124 43.6556 -89.0161 52.2148
  125 206.679 7.17431 10.6937
  126 206.679 7.17431 10.6937
  127 51.5803 -72.2940 -58.1871
  128 51.5803 -72.2940 -58.1871
  129 277.275 -19.0858 44.1937
  130 277.275 -19.0858 44.1937
  131 391.886 19.3812 -26.6680
  132 391.886 19.3812 -26.6680
  133 20.1092 -120.722 -8.77124
  134 20.1092 -120.722 -8.77124
  135 24.2843 -116.240 22.5644
  136 24.2843 -116.240 22.5644
  137 225.786 2.20586 -5.53065
  138 225.786 2.20586 -5.53065
  139 214.519 7.48095 -0.396686
  140 214.519 7.48095 -0.396686
  141 219.711 3.83274 -0.0519901
  142 219.711 3.83274 -0.0519901
  143 226.331 -4.54789 15.9855
  144 226.331 -4.54789 15.9855
  145 157.155 -4.22030 37.4456
  146 228.169 -21.0372 31.7236
  147 155.576 8.95077 0.860021
  148 157.155 -4.22030 37.4456
  149 228.169 -21.0372 31.7236
  150 155.576 8.95077 0.860021
  151 204.022 3.69702 -17.0000
  152 204.022 3.69702 -17.0000
  153 382.058 11.2181 6.68163
  154 382.058 11.2181 6.68163
  155 396.711 9.28733 16.7397
  156 397.427 19.1597 32.8879
  157 396.711 9.28733 16.7397
  158 397.427 19.1597 32.8879
  159 222.168 2.57967 1.85764
  160 222.168 2.57967 1.85764
  161 139.061 -5.89761 -31.8918
  162 139.061 -5.89761 -31.8918
  163 222.181 2.51208 -1.82433
  164 222.181 2.51208 -1.82433
  165 223.545 3.02845 5.05683
  166 223.545 3.02845 5.05683
  167 261.687 -2.20256 6.65599
  168 255.801 -9.22039 -0.719790
  169 261.687 -2.20256 6.65599
  170 255.801 -9.22039 -0.719790
  171 282.140 -7.01476 1.76119
  172 282.140 -7.01476 1.76119
  173 214.700 6.77876 5.81517
  174 214.700 6.77876 5.81517
  175 107.306 -11.7697 43.0686
  176 107.306 -11.7697 43.0686
  177 95.1849 -5.38455 -27.2151
  178 95.1849 -5.38455 -27.2151
  179 216.549 7.30153 -5.56347
  180 216.549 7.30153 -5.56347
</Section>

newXOutput 65

<Section columns = "stress_xx | stress_yy | stress_xy">
  1 226.181 1.59341 -0.928070
  2 225.982 1.23691 0.835178
  3 226.181 1.59341 -0.928070
  4 225.982 1.23691 0.835178
  5 336.369 10.1760 84.7830
  6 331.229 7.94635 -78.6598
  7 336.369 10.1760 84.7830
  8 331.229 7.94635 -78.6598
  9 228.543 0.447805 -2.96285
  10 238.305 0.0507259 -4.87287
  11 244.485 -2.76831 -6.27811
  12 256.945 -1.30011 3.68367
  13 256.574 7.82163 2.42322
  14 257.616 -1.29967 -4.77184
  15 247.052 -4.30888 6.26485
  16 235.191 1.06885 5.69359
  17 228.766 1.51130 2.64120
  18 224.718 2.63101 0.461999
  19 223.403 2.66325 -0.0357770
  20 224.608 2.42726 -0.419698
  21 228.543 0.447805 -2.96285
  22 238.305 0.0507259 -4.87287
  23 244.485 -2.76831 -6.27811
  24 256.945 -1.30011 3.68367
  25 256.574 7.82163 2.42322
  26 257.616 -1.29967 -4.77184
  27 247.052 -4.30888 6.26485
  28 235.191 1.06885 5.69359
  29 228.766 1.51130 2.64120
  30 224.718 2.63101 0.461999
  31 223.403 2.66325 -0.0357770
  32 224.608 2.42726 -0.419698
  33 496.002 4.09927 36.5327
  34 431.760 4.34681 23.7673
  35 414.975 8.24244 9.50629
  36 402.309 4.95148 -2.47675
  37 425.895 1.56294 -9.11450
  38 436.106 8.34260 -21.5942
  39 454.084 30.0327 -44.9387
  40 111.961 -64.0186 -95.9209
  41 22.5039 -120.414 -39.6051
  42 8.95656 -164.223 -12.6571
  43 6.12348 -174.113 -1.31598
  44 7.42077 -166.357 12.7749
  45 20.6386 -143.456 34.2363
  46 91.0861 -64.7497 94.1310
  47 496.002 4.09927 36.5327
  48 431.760 4.34681 23.7673
  49 414.975 8.24244 9.50629
  50 402.309 4.95148 -2.47675
  51 425.895 1.56294 -9.11450
  52 436.106 8.34260 -21.5942
  53 454.084 30.0327 -44.9387
  54 111.961 -64.0186 -95.9209
  55 22.5039 -120.414 -39.6051
  56 8.95656 -164.223 -12.6571
  57 6.12348 -174.113 -1.31598
  58 7.42077 -166.357 12.7749
  59 20.6386 -143.456 34.2363
  60 91.0861 -64.7497 94.1310
  61 209.196 8.94328 -3.85595
  62 209.196 8.94328 -3.85595
  63 193.940 2.82012 20.8591
  64 188.299 1.25296 -25.3884
  65 193.940 2.82012 20.8591
  66 188.299 1.25296 -25.3884
  67 107.860 2.10216 6.98318
  68 107.860 2.10216 6.98318
  69 175.256 -32.4746 68.7982
  70 175.256 -32.4746 68.7982
  71 106.333 -31.1708 -55.0712
  72 263.616 -22.4175 -11.5729
  73 292.041 16.3740 -0.236150
  74 278.863 7.67468 -3.25743
  75 106.333 -31.1708 -55.0712
  76 263.616 -22.4175 -11.5729
  77 292.041 16.3740 -0.236150
  78 278.863 7.67468 -3.25743
  79 258.768 -12.0397 5.32607
  80 258.768 -12.0397 5.32607
  81 333.599 24.6871 1.64327
  82 333.599 24.6871 1.64327
  83 56.4344 -36.6585 -4.68966
  84 56.4344 -36.6585 -4.68966
  85 73.4987 -49.0662 47.4624
  86 73.4987 -49.0662 47.4624
  87 279.546 -16.2357 8.26994
  88 279.546 -16.2357 8.26994
  89 221.790 4.99900 3.23064
  90 222.742 5.46185 -3.29363
  91 221.790 4.99900 3.23064
  92 222.742 5.46185 -3.29363
  93 320.467 16.5122 10.8175
  94 320.467 16.5122 10.8175
  95 229.649 2.22101 9.51259
  96 229.649 2.22101 9.51259
  97 345.588 25.4234 -11.8781
  98 350.478 20.1136 -24.7383
  99 345.588 25.4234 -11.8781
  100 350.478 20.1136 -24.7383
  101 223.819 3.53112 -11.6862
  102 223.819 3.53112 -11.6862
  103 182.524 -36.3004 -80.9498
  104 182.524 -36.3004 -80.9498
  105 154.736 -41.6858 85.4944
  106 154.736 -41.6858 85.4944
  107 285.293 -22.3123 -30.4312
  108 285.293 -22.3123 -30.4312
  109 213.189 -26.2976 -47.6134
  110 213.189 -26.2976 -47.6134
  111 366.536 24.9870 18.4892
  112 366.536 24.9870 18.4892
  113 27.9672 -91.2416 -31.3935
  114 27.9672 -91.2416 -31.3935
  115 16.3106 -107.090 9.31492
  116 16.3106 -107.090 9.31492
  117 191.687 12.2272 -2.45065
  118 191.687 12.2272 -2.45065
  119 233.378 -9.10130 -18.4677
  120 233.378 -9.10130 -18.4677
  121 390.909 11.0167 -8.89359
  122 390.909 11.0167 -8.89359
  123 44.3382 -90.3801 53.0691
  124 44.3382 -90.3801 53.0691
  125 209.884 7.28499 10.8570
  126 209.884 7.28499 10.8570
  127 52.3877 -73.3974 -59.1315
  128 52.3877 -73.3974 -59.1315
  129 281.520 -19.3686 44.9039
  130 281.520 -19.3686 44.9039
  131 397.829 19.6781 -27.0831
  132 397.829 19.6781 -27.0831
  133 20.4213 -122.612 -8.91484
  134 20.4213 -122.612 -8.91484
  135 24.6627 -118.050 22.9412
  136 24.6627 -118.050 22.9412
  137 229.274 2.23943 -5.61408
  138 229.274 2.23943 -5.61408
  139 217.843 7.59510 -0.402696
  140 217.843 7.59510 -0.402696
  141 223.111 3.89079 -0.0527620
  142 223.111 3.89079 -0.0527620
  143 229.827 -4.61881 16.2330
  144 229.827 -4.61881 16.2330
  145 159.605 -4.28371 38.0281
  146 231.685 -21.3638 32.2223
  147 158.009 9.09232 0.874033
  148 159.605 -4.28371 38.0281
  149 231.685 -21.3638 32.2223
  150 158.009 9.09232 0.874033
  151 207.186 3.75434 -17.2606
  152 207.186 3.75434 -17.2606
  153 387.857 11.3851 6.78495
  154 387.857 11.3851 6.78495
  155 402.723 9.42596 16.9947
  156 403.451 19.4671 33.4063
  157 402.723 9.42596 16.9947
  158 403.451 19.4671 33.4063
  159 225.603 2.61876 1.88516
  160 225.603 2.61876 1.88516
  161 141.235 -5.98663 -32.3889
  162 141.235 -5.98663 -32.3889
  163 225.616 2.55015 -1.85135
  164 225.616 2.55015 -1.85135
  165 227.000 3.07461 5.13251
  166 227.000 3.07461 5.13251
  167 265.723 -2.23462 6.74594
  168 259.739 -9.36402 -0.739476
  169 265.723 -2.23462 6.74594
  170 259.739 -9.36402 -0.739476
  171 286.475 -7.11660 1.76504
  172 286.475 -7.11660 1.76504
  173 218.026 6.88252 5.90290
  174 218.026 6.88252 5.90290
  175 108.987 -11.9460 43.7458
  176 108.987 -11.9460 43.7458
  177 96.6824 -5.45907 -27.6428
  178 96.6824 -5.45907 -27.6428
  179 219.902 7.41333 -5.64759
  180 219.902 7.41333 -5.64759
</Section>

newXOutput 66

<Section columns = "stress_xx | stress_yy | stress_xy">
  1 229.622 1.61712 -0.941556
  2 229.419 1.25527 0.847295
  3 229.622 1.61712 -0.941556
  4 229.419 1.25527 0.847295
  5 341.378 10.3773 86.0994
  6 336.175 8.11398 -79.8902
  7 341.378 10.3773 86.0994
  8 336.175 8.11398 -79.8902
  9 232.017 0.454219 -3.00641
  10 241.920 0.0515253 -4.94506
  11 248.193 -2.81110 -6.37485
  12 260.847 -1.31991 3.73250
  13 260.482 7.94215 2.45789
  14 261.528 -1.31903 -4.83560
  15 250.798 -4.37516 6.36174
  16 238.761 1.08478 5.77796
  17 232.243 1.53388 2.67972
  18 228.138 2.67009 0.468706
  19 226.804 2.70275 -0.0362906
  20 228.026 2.46330 -0.425794
  21 232.017 0.454219 -3.00641
  22 241.920 0.0515253 -4.94506
  23 248.193 -2.81110 -6.37485
  24 260.847 -1.31991 3.73250
  25 260.482 7.94215 2.45789
  26 261.528 -1.31903 -4.83560
  27 250.798 -4.37516 6.36174
  28 238.761 1.08478 5.77796
  29 232.243 1.53388 2.67972
  30 228.138 2.67009 0.468706
  31 226.804 2.70275 -0.0362906
  32 228.026 2.46330 -0.425794
  33 503.325 4.16263 37.0851
  34 438.163 4.40657 24.1237
  35 421.137 8.36349 9.64638
  36 408.291 5.02197 -2.51258
  37 432.202 1.58535 -9.24983
  38 442.572 8.46771 -21.9164
  39 460.822 30.5012 -45.6292
  40 113.648 -64.9427 -97.4321
  41 22.8490 -122.244 -40.2485
  42 9.09125 -166.772 -12.8666
  43 6.21230 -176.826 -1.33605
  44 7.53006 -168.938 12.9857
  45 20.9543 -145.650 34.7968
  46 92.4613 -65.6848 95.6165
  47 503.325 4.16263 37.0851
  48 438.163 4.40657 24.1237
  49 421.137 8.36349 9.64638
  50 408.291 5.02197 -2.51258
  51 432.202 1.58535 -9.24983
  52 442.572 8.46771 -21.9164
  53 460.822 30.5012 -45.6292
  54 113.648 -64.9427 -97.4321
  55 22.8490 -122.244 -40.2485
  56 9.09125 -166.772 -12.8666
  57 6.21230 -176.826 -1.33605
  58 7.53006 -168.938 12.9857
  59 20.9543 -145.650 34.7968
  60 92.4613 -65.6848 95.6165
  61 212.391 9.07874 -3.91376
  62 212.391 9.07874 -3.91376
  63 196.905 2.86396 21.1760
  64 191.178 1.27289 -25.7740
  65 196.905 2.86396 21.1760
  66 191.178 1.27289 -25.7740
  67 109.530 2.14153 7.09078
  68 109.530 2.14153 7.09078
  69 177.919 -32.9722 69.8620
  70 177.919 -32.9722 69.8620
  71 107.965 -31.6407 -55.9309
  72 267.604 -22.7586 -11.7630
  73 296.466 16.6263 -0.250217
  74 283.092 7.79387 -3.29464
  75 107.965 -31.6407 -55.9309
  76 267.604 -22.7586 -11.7630
  77 296.466 16.6263 -0.250217
  78 283.092 7.79387 -3.29464
  79 262.688 -12.2231 5.41734
  80 262.688 -12.2231 5.41734
  81 338.627 25.0594 1.67285
  82 338.627 25.0594 1.67285
  83 57.3093 -37.2073 -4.76377
  84 57.3093 -37.2073 -4.76377
  85 74.6262 -49.8068 48.2118
  86 74.6262 -49.8068 48.2118
  87 283.771 -16.4783 8.41738
  88 283.771 -16.4783 8.41738
  89 225.168 5.07379 3.27806
  90 226.134 5.54370 -3.34196
  91 225.168 5.07379 3.27806
  92 226.134 5.54370 -3.34196
  93 325.299 16.7723 11.0046
  94 325.299 16.7723 11.0046
  95 233.140 2.25421 9.65486
  96 233.140 2.25421 9.65486
  97 350.791 25.8073 -12.0671
  98 355.741 20.4329 -25.1363
  99 350.791 25.8073 -12.0671
  100 355.741 20.4329 -25.1363
  101 227.226 3.58429 -11.8618
  102 227.226 3.58429 -11.8618
  103 185.277 -36.8309 -82.2167
  104 185.277 -36.8309 -82.2167
  105 157.074 -42.2975 86.8355
  106 157.074 -42.2975 86.8355
  107 289.590 -22.6406 -30.9222
  108 289.590 -22.6406 -30.9222
  109 216.425 -26.6998 -48.3481
  110 216.425 -26.6998 -48.3481
  111 372.034 25.3660 18.7771
  112 372.034 25.3660 18.7771
  113 28.3986 -92.6332 -31.8986
  114 28.3986 -92.6332 -31.8986
  115 16.5599 -108.734 9.46688
  116 16.5599 -108.734 9.46688
  117 194.621 12.4142 -2.48731
  118 194.621 12.4142 -2.48731
  119 236.922 -9.24070 -18.7513
  120 236.922 -9.24070 -18.7513
  121 396.741 11.1787 -9.02651
  122 396.741 11.1787 -9.02651
  123 45.0206 -91.7426 53.9241
  124 45.0206 -91.7426 53.9241
  125 213.087 7.39557 11.0202
  126 213.087 7.39557 11.0202
  127 53.1946 -74.4993 -60.0765
  128 53.1946 -74.4993 -60.0765
  129 285.760 -19.6508 45.6143
  130 285.760 -19.6508 45.6143
  131 403.764 19.9746 -27.4979
  132 403.764 19.9746 -27.4979
  133 20.7333 -124.502 -9.05857
  134 20.7333 -124.502 -9.05857
  135 25.0409 -119.858 23.3185
  136 25.0409 -119.858 23.3185
  137 232.759 2.27295 -5.69739
  138 232.759 2.27295 -5.69739
  139 221.164 7.70910 -0.408698
  140 221.164 7.70910 -0.408698
  141 226.508 3.94874 -0.0535323
  142 226.508 3.94874 -0.0535323
  143 233.319 -4.68969 16.4803
  144 233.319 -4.68969 16.4803
  145 162.053 -4.34702 38.6102
  146 235.198 -21.6903 32.7209
  147 160.441 9.23386 0.888056
  148 162.053 -4.34702 38.6102
  149 235.198 -21.6903 32.7209
  150 160.441 9.23386 0.888056
  151 210.348 3.81163 -17.5208
  152 210.348 3.81163 -17.5208
  153 393.649 11.5518 6.88819
  154 393.649 11.5518 6.88819
  155 408.726 9.56433 17.2493
  156 409.467 19.7746 33.9245
  157 408.726 9.56433 17.2493
  158 409.467 19.7746 33.9245
  159 229.036 2.65781 1.91262
  160 229.036 2.65781 1.91262
  161 143.408 -6.07551 -32.8857
  162 143.408 -6.07551 -32.8857
  163 229.048 2.58817 -1.87832
  164 229.048 2.58817 -1.87832
  165 230.452 3.12071 5.20804
  166 230.452 3.12071 5.20804
  167 269.755 -2.26660 6.83542
  168 263.673 -9.50756 -0.759405
  169 269.755 -2.26660 6.83542
  170 263.673 -9.50756 -0.759405
  171 290.806 -7.21815 1.76817
  172 290.806 -7.21815 1.76817
  173 221.349 6.98617 5.99050
  174 221.349 6.98617 5.99050
  175 110.667 -12.1219 44.4229
  176 110.667 -12.1219 44.4229
  177 98.1795 -5.53327 -28.0703
  178 98.1795 -5.53327 -28.0703
  179 223.253 7.52500 -5.73158
  180 223.253 7.52500 -5.73158
</Section>

newXOutput 67

<Section columns = "stress_xx | stress_yy | stress_xy">
  1 233.059 1.64080 -0.955012
  2 232.854 1.27361 0.859385
  3 233.059 1.64080 -0.955012
  4 232.854 1.27361 0.859385
  5 346.379 10.5799 87.4155
  6 341.115 8.28290 -81.1206
  7 346.379 10.5799 87.4155
  8 341.115 8.28290 -81.1206
  9 235.488 0.460617 -3.04988
  10 245.531 0.0523251 -5.01713
  11 251.899 -2.85388 -6.47154
  12 264.745 -1.33970 3.78109
  13 264.388 8.06261 2.49247
  14 265.437 -1.33836 -4.89904
  15 254.540 -4.44140 6.45861
  16 242.328 1.10069 5.86219
  17 235.717 1.55643 2.71817
  18 231.555 2.70911 0.475398
  19 230.202 2.74219 -0.0368028
  20 231.442 2.49928 -0.431878
  21 235.488 0.460617 -3.04988
  22 245.531 0.0523251 -5.01713
  23 251.899 -2.85388 -6.47154
  24 264.745 -1.33970 3.78109
  25 264.388 8.06261 2.49247
  26 265.437 -1.33836 -4.89904
  27 254.540 -4.44140 6.45861
  28 242.328 1.10069 5.86219
  29 235.717 1.55643 2.71817
  30 231.555 2.70911 0.475398
  31 230.202 2.74219 -0.0368028
  32 231.442 2.49928 -0.431878
  33 510.635 4.22596 37.6369
  34 444.556 4.46609 24.4797
  35 427.289 8.48431 9.78623
  36 414.265 5.09227 -2.54833
  37 438.498 1.60771 -9.38495
  38 449.027 8.59267 -22.2381
  39 467.551 30.9697 -46.3194
  40 115.334 -65.8644 -98.9436
  41 23.1939 -124.072 -40.8927
  42 9.22578 -169.321 -13.0766
  43 6.30091 -179.539 -1.35611
  44 7.63915 -171.519 13.1968
  45 21.2697 -147.842 35.3581
  46 93.8351 -66.6177 97.1025
  47 510.635 4.22596 37.6369
  48 444.556 4.46609 24.4797
  49 427.289 8.48431 9.78623
  50 414.265 5.09227 -2.54833
  51 438.498 1.60771 -9.38495
  52 449.027 8.59267 -22.2381
  53 467.551 30.9697 -46.3194
  54 115.334 -65.8644 -98.9436
  55 23.1939 -124.072 -40.8927
  56 9.22578 -169.321 -13.0766
  57 6.30091 -179.539 -1.35611
  58 7.63915 -171.519 13.1968
  59 21.2697 -147.842 35.3581
  60 93.8351 -66.6177 97.1025
  61 215.583 9.21407 -3.97149
  62 215.583 9.21407 -3.97149
  63 199.867 2.90780 21.4926
  64 194.056 1.29283 -26.1593
  65 199.867 2.90780 21.4926
  66 194.056 1.29283 -26.1593
  67 111.201 2.18109 7.19834
  68 111.201 2.18109 7.19834
  69 180.579 -33.4695 70.9255
  70 180.579 -33.4695 70.9255
  71 109.596 -32.1100 -56.7905
  72 271.587 -23.0995 -11.9533
  73 300.887 16.8785 -0.264584
  74 287.316 7.91305 -3.33145
  75 109.596 -32.1100 -56.7905
  76 271.587 -23.0995 -11.9533
  77 300.887 16.8785 -0.264584
  78 287.316 7.91305 -3.33145
  79 266.605 -12.4063 5.50885
  80 266.605 -12.4063 5.50885
  81 343.649 25.4312 1.70253
  82 343.649 25.4312 1.70253
  83 58.1840 -37.7553 -4.83790
  84 58.1840 -37.7553 -4.83790
  85 75.7531 -50.5467 48.9614
  86 75.7531 -50.5467 48.9614
  87 287.991 -16.7205 8.56534
  88 287.991 -16.7205 8.56534
  89 228.543 5.14849 3.32538
  90 229.523 5.62544 -3.39021
  91 228.543 5.14849 3.32538
  92 229.523 5.62544 -3.39021
  93 330.126 17.0323 11.1921
  94 330.126 17.0323 11.1921
  95 236.628 2.28737 9.79695
  96 236.628 2.28737 9.79695
  97 355.988 26.1907 -12.2561
  98 360.996 20.7523 -25.5347
  99 355.988 26.1907 -12.2561
  100 360.996 20.7523 -25.5347
  101 230.630 3.63740 -12.0371
  102 230.630 3.63740 -12.0371
  103 188.027 -37.3602 -83.4837
  104 188.027 -37.3602 -83.4837
  105 159.409 -42.9080 88.1767
  106 159.409 -42.9080 88.1767
  107 293.882 -22.9682 -31.4137
  108 293.882 -22.9682 -31.4137
  109 219.657 -27.1017 -49.0825
  110 219.657 -27.1017 -49.0825
  111 377.525 25.7447 19.0650
  112 377.525 25.7447 19.0650
  113 28.8299 -94.0238 -32.4042
  114 28.8299 -94.0238 -32.4042
  115 16.8091 -110.378 9.61903
  116 16.8091 -110.378 9.61903
  117 197.554 12.6011 -2.52393
  118 197.554 12.6011 -2.52393
  119 240.463 -9.38003 -19.0348
  120 240.463 -9.38003 -19.0348
  121 402.564 11.3405 -9.15925
  122 402.564 11.3405 -9.15925
  123 45.7026 -93.1037 54.7799
  124 45.7026 -93.1037 54.7799
  125 216.288 7.50605 11.1831
  126 216.288 7.50605 11.1831
  127 54.0012 -75.5999 -61.0221
  128 54.0012 -75.5999 -61.0221
  129 289.995 -19.9323 46.3249
  130 289.995 -19.9323 46.3249
  131 409.691 20.2707 -27.9124
  132 409.691 20.2707 -27.9124
  133 21.0450 -126.390 -9.20243
  134 21.0450 -126.390 -9.20243
  135 25.4189 -121.666 23.6964
  136 25.4189 -121.666 23.6964
  137 236.242 2.30643 -5.78056
  138 236.242 2.30643 -5.78056
  139 224.483 7.82297 -0.414691
  140 224.483 7.82297 -0.414691
  141 229.902 4.00662 -0.0543010
  142 229.902 4.00662 -0.0543010
  143 236.809 -4.76053 16.7274
  144 236.809 -4.76053 16.7274
  145 164.499 -4.41022 39.1919
  146 238.707 -22.0165 33.2193
  147 162.872 9.37537 0.902089
  148 164.499 -4.41022 39.1919
  149 238.707 -22.0165 33.2193
  150 162.872 9.37537 0.902089
  151 213.507 3.86887 -17.7809
  152 213.507 3.86887 -17.7809
  153 399.432 11.7182 6.99133
  154 399.432 11.7182 6.99133
  155 414.720 9.70244 17.5036
  156 415.475 20.0822 34.4426
  157 414.720 9.70244 17.5036
  158 415.475 20.0822 34.4426
  159 232.465 2.69679 1.94003
  160 232.465 2.69679 1.94003
  161 145.580 -6.16426 -33.3822
  162 145.580 -6.16426 -33.3822
  163 232.478 2.62614 -1.90522
  164 232.478 2.62614 -1.90522
  165 233.902 3.16676 5.28344
  166 233.902 3.16676 5.28344
  167 273.784 -2.29848 6.92443
  168 267.604 -9.65102 -0.779576
  169 273.784 -2.29848 6.92443
  170 267.604 -9.65102 -0.779576
  171 295.132 -7.31941 1.77059
  172 295.132 -7.31941 1.77059
  173 224.670 7.08969 6.07796
  174 224.670 7.08969 6.07796
  175 112.347 -12.2975 45.0998
  176 112.347 -12.2975 45.0998
  177 99.6761 -5.60714 -28.4977
  178 99.6761 -5.60714 -28.4977
  179 226.601 7.63656 -5.81544
  180 226.601 7.63656 -5.81544
</Section>

newXOutput 68

<Section columns = "stress_xx | stress_yy | stress_xy">
  1 236.494 1.66445 -0.968438
  2 236.285 1.29192 0.871448
  3 236.494 1.66445 -0.968438
  4 236.285 1.29192 0.871448
  5 351.373 10.7837 88.7313
  6 346.048 8.45310 -82.3509
  7 351.373 10.7837 88.7313
  8 346.048 8.45310 -82.3509
  9 238.956 0.466998 -3.09328
  10 249.140 0.0531251 -5.08909
  11 255.600 -2.89664 -6.56819
  12 268.640 -1.35948 3.82941
  13 268.290 8.18303 2.52696
  14 269.342 -1.35766 -4.96217
  15 258.279 -4.50762 6.55544
  16 245.892 1.11657 5.94629
  17 239.189 1.57895 2.75653
  18 234.969 2.74807 0.482075
  19 233.598 2.78157 -0.0373138
  20 234.854 2.53521 -0.437947
  21 238.956 0.466998 -3.09328
  22 249.140 0.0531251 -5.08909
  23 255.600 -2.89664 -6.56819
  24 268.640 -1.35948 3.82941
  25 268.290 8.18303 2.52696
  26 269.342 -1.35766 -4.96217
  27 258.279 -4.50762 6.55544
  28 245.892 1.11657 5.94629
  29 239.189 1.57895 2.75653
  30 234.969 2.74807 0.482075
  31 233.598 2.78157 -0.0373138
  32 234.854 2.53521 -0.437947
  33 517.932 4.28928 38.1882
  34 450.940 4.52537 24.8353
  35 433.432 8.60491 9.92583
  36 420.230 5.16237 -2.58400
  37 444.785 1.63000 -9.51985
  38 455.473 8.71747 -22.5594
  39 474.269 31.4381 -47.0092
  40 117.017 -66.7839 -100.455
  41 23.5386 -125.898 -41.5376
  42 9.36016 -171.869 -13.2869
  43 6.38931 -182.251 -1.37615
  44 7.74804 -174.099 13.4083
  45 21.5850 -150.032 35.9201
  46 95.2075 -67.5482 98.5888
  47 517.932 4.28928 38.1882
  48 450.940 4.52537 24.8353
  49 433.432 8.60491 9.92583
  50 420.230 5.16237 -2.58400
  51 444.785 1.63000 -9.51985
  52 455.473 8.71747 -22.5594
  53 474.269 31.4381 -47.0092
  54 117.017 -66.7839 -100.455
  55 23.5386 -125.898 -41.5376
  56 9.36016 -171.869 -13.2869
  57 6.38931 -182.251 -1.37615
  58 7.74804 -174.099 13.4083
  59 21.5850 -150.032 35.9201
  60 95.2075 -67.5482 98.5888
  61 218.772 9.34927 -4.02915
  62 218.772 9.34927 -4.02915
  63 202.828 2.95163 21.8089
  64 196.931 1.31277 -26.5442
  65 202.828 2.95163 21.8089
  66 196.931 1.31277 -26.5442
  67 112.871 2.22083 7.30585
  68 112.871 2.22083 7.30585
  69 183.238 -33.9665 71.9886
  70 183.238 -33.9665 71.9886
  71 111.227 -32.5789 -57.6501
  72 275.567 -23.4401 -12.1439
  73 305.304 17.1305 -0.279249
  74 291.537 8.03220 -3.36787
  75 111.227 -32.5789 -57.6501
  76 275.567 -23.4401 -12.1439
  77 305.304 17.1305 -0.279249
  78 291.537 8.03220 -3.36787
  79 270.518 -12.5893 5.60059
  80 270.518 -12.5893 5.60059
  81 348.665 25.8027 1.73232
  82 348.665 25.8027 1.73232
  83 59.0585 -38.3027 -4.91205
  84 59.0585 -38.3027 -4.91205
  85 76.8793 -51.2859 49.7112
  86 76.8793 -51.2859 49.7112
  87 292.207 -16.9624 8.71383
  88 292.207 -16.9624 8.71383
  89 231.916 5.22309 3.37261
  90 232.909 5.70707 -3.43836
  91 231.916 5.22309 3.37261
  92 232.909 5.70707 -3.43836
  93 334.947 17.2925 11.3802
  94 334.947 17.2925 11.3802
  95 240.113 2.32048 9.93886
  96 240.113 2.32048 9.93886
  97 361.178 26.5738 -12.4452
  98 366.246 21.0718 -25.9333
  99 361.178 26.5738 -12.4452
  100 366.246 21.0718 -25.9333
  101 234.031 3.69045 -12.2123
  102 234.031 3.69045 -12.2123
  103 190.774 -37.8884 -84.7506
  104 190.774 -37.8884 -84.7506
  105 161.742 -43.5173 89.5180
  106 161.742 -43.5173 89.5180
  107 298.170 -23.2953 -31.9057
  108 298.170 -23.2953 -31.9057
  109 222.887 -27.5033 -49.8167
  110 222.887 -27.5033 -49.8167
  111 383.009 26.1230 19.3528
  112 383.009 26.1230 19.3528
  113 29.2610 -95.4133 -32.9102
  114 29.2610 -95.4133 -32.9102
  115 17.0581 -112.020 9.77138
  116 17.0581 -112.020 9.77138
  117 200.486 12.7878 -2.56049
  118 200.486 12.7878 -2.56049
  119 244.000 -9.51927 -19.3181
  120 244.000 -9.51927 -19.3181
  121 408.380 11.5020 -9.29181
  122 408.380 11.5020 -9.29181
  123 46.3842 -94.4632 55.6364
  124 46.3842 -94.4632 55.6364
  125 219.486 7.61643 11.3459
  126 219.486 7.61643 11.3459
  127 54.8074 -76.6992 -61.9684
  128 54.8074 -76.6992 -61.9684
  129 294.226 -20.2133 47.0358
  130 294.226 -20.2133 47.0358
  131 415.609 20.5666 -28.3266
  132 415.609 20.5666 -28.3266
  133 21.3565 -128.277 -9.34643
  134 21.3565 -128.277 -9.34643
  135 25.7967 -123.473 24.0748
  136 25.7967 -123.473 24.0748
  137 239.721 2.33986 -5.86361
  138 239.721 2.33986 -5.86361
  139 227.799 7.93669 -0.420675
  140 227.799 7.93669 -0.420675
  141 233.294 4.06441 -0.0550682
  142 233.294 4.06441 -0.0550682
  143 240.295 -4.83133 16.9744
  144 240.295 -4.83133 16.9744
  145 166.945 -4.47331 39.7733
  146 242.214 -22.3424 33.7176
  147 165.302 9.51686 0.916132
  148 166.945 -4.47331 39.7733
  149 242.214 -22.3424 33.7176
  150 165.302 9.51686 0.916132
  151 216.664 3.92607 -18.0406
  152 216.664 3.92607 -18.0406
  153 405.208 11.8843 7.09439
  154 405.208 11.8843 7.09439
  155 420.706 9.84029 17.7576
  156 421.473 20.3899 34.9606
  157 420.706 9.84029 17.7576
  158 421.473 20.3899 34.9606
  159 235.892 2.73572 1.96737
  160 235.892 2.73572 1.96737
  161 147.751 -6.25287 -33.8785
  162 147.751 -6.25287 -33.8785
  163 235.905 2.66405 -1.93207
  164 235.905 2.66405 -1.93207
  165 237.348 3.21275 5.35869
  166 237.348 3.21275 5.35869
  167 277.809 -2.33027 7.01298
  168 271.531 -9.79439 -0.799988
  169 277.809 -2.33027 7.01298
  170 271.531 -9.79439 -0.799988
  171 299.454 -7.42038 1.77230
  172 299.454 -7.42038 1.77230
  173 227.988 7.19311 6.16529
  174 227.988 7.19311 6.16529
  175 114.025 -12.4728 45.7764
  176 114.025 -12.4728 45.7764
  177 101.172 -5.68069 -28.9250
  178 101.172 -5.68069 -28.9250
  179 229.947 7.74798 -5.89917
  180 229.947 7.74798 -5.89917
</Section>

newXOutput 69

<Section columns = "stress_xx | stress_yy | stress_xy">
  1 239.926 1.68806 -0.981835
  2 239.714 1.31020 0.883483
  3 239.926 1.68806 -0.981835
  4 239.714 1.31020 0.883483
  5 356.360 10.9887 90.0467
  6 350.974 8.62459 -83.5812
  7 356.360 10.9887 90.0467
  8 350.974 8.62459 -83.5812
  9 242.422 0.473361 -3.13659
  10 252.745 0.0539254 -5.16093
  11 259.299 -2.93938 -6.66480
  12 272.531 -1.37923 3.87749
  13 272.189 8.30339 2.56135
  14 273.244 -1.37693 -5.02498
  15 262.014 -4.57380 6.65224
  16 249.453 1.13244 6.03025
  17 242.657 1.60144 2.79482
  18 238.381 2.78697 0.488738
  19 236.992 2.82089 -0.0378233
  20 238.264 2.57108 -0.444003
  21 242.422 0.473361 -3.13659
  22 252.745 0.0539254 -5.16093
  23 259.299 -2.93938 -6.66480
  24 272.531 -1.37923 3.87749
  25 272.189 8.30339 2.56135
  26 273.244 -1.37693 -5.02498
  27 262.014 -4.57380 6.65224
  28 249.453 1.13244 6.03025
  29 242.657 1.60144 2.79482
  30 238.381 2.78697 0.488738
  31 236.992 2.82089 -0.0378233
  32 238.264 2.57108 -0.444003
  33 525.217 4.35257 38.7388
  34 457.313 4.58442 25.1904
  35 439.565 8.72529 10.0652
  36 426.186 5.23227 -2.61958
  37 451.061 1.65225 -9.65454
  38 461.908 8.84212 -22.8802
  39 480.976 31.9065 -47.6985
  40 118.699 -67.7011 -101.968
  41 23.8830 -127.723 -42.1832
  42 9.49437 -174.417 -13.4976
  43 6.47751 -184.963 -1.39618
  44 7.85674 -176.678 13.6201
  45 21.9000 -152.222 36.4829
  46 96.5783 -68.4764 100.076
  47 525.217 4.35257 38.7388
  48 457.313 4.58442 25.1904
  49 439.565 8.72529 10.0652
  50 426.186 5.23227 -2.61958
  51 451.061 1.65225 -9.65454
  52 461.908 8.84212 -22.8802
  53 480.976 31.9065 -47.6985
  54 118.699 -67.7011 -101.968
  55 23.8830 -127.723 -42.1832
  56 9.49437 -174.417 -13.4976
  57 6.47751 -184.963 -1.39618
  58 7.85674 -176.678 13.6201
  59 21.9000 -152.222 36.4829
  60 96.5783 -68.4764 100.076
  61 221.960 9.48434 -4.08674
  62 221.960 9.48434 -4.08674
  63 205.786 2.99546 22.1250
  64 199.805 1.33272 -26.9288
  65 205.786 2.99546 22.1250
  66 199.805 1.33272 -26.9288
  67 114.540 2.26077 7.41331
  68 114.540 2.26077 7.41331
  69 185.894 -34.4632 73.0513
  70 185.894 -34.4632 73.0513
  71 112.856 -33.0473 -58.5097
  72 279.543 -23.7804 -12.3347
  73 309.717 17.3825 -0.294211
  74 295.754 8.15133 -3.40388
  75 112.856 -33.0473 -58.5097
  76 279.543 -23.7804 -12.3347
  77 309.717 17.3825 -0.294211
  78 295.754 8.15133 -3.40388
  79 274.427 -12.7722 5.69255
  80 274.427 -12.7722 5.69255
  81 353.676 26.1738 1.76222
  82 353.676 26.1738 1.76222
  83 59.9328 -38.8493 -4.98622
  84 59.9328 -38.8493 -4.98622
  85 78.0049 -52.0242 50.4613
  86 78.0049 -52.0242 50.4613
  87 296.418 -17.2040 8.86285
  88 296.418 -17.2040 8.86285
  89 235.286 5.29759 3.41975
  90 236.293 5.78861 -3.48643
  91 235.286 5.29759 3.41975
  92 236.293 5.78861 -3.48643
  93 339.763 17.5527 11.5688
  94 339.763 17.5527 11.5688
  95 243.595 2.35355 10.0806
  96 243.595 2.35355 10.0806
  97 366.363 26.9564 -12.6344
  98 371.489 21.3915 -26.3322
  99 366.363 26.9564 -12.6344
  100 371.489 21.3915 -26.3322
  101 237.429 3.74345 -12.3873
  102 237.429 3.74345 -12.3873
  103 193.518 -38.4155 -86.0176
  104 193.518 -38.4155 -86.0176
  105 164.073 -44.1255 90.8595
  106 164.073 -44.1255 90.8595
  107 302.453 -23.6217 -32.3980
  108 302.453 -23.6217 -32.3980
  109 226.113 -27.9047 -50.5505
  110 226.113 -27.9047 -50.5505
  111 388.487 26.5010 19.6405
  112 388.487 26.5010 19.6405
  113 29.6919 -96.8018 -33.4166
  114 29.6919 -96.8018 -33.4166
  115 17.3069 -113.662 9.92393
  116 17.3069 -113.662 9.92393
  117 203.415 12.9744 -2.59701
  118 203.415 12.9744 -2.59701
  119 247.535 -9.65843 -19.6013
  120 247.535 -9.65843 -19.6013
  121 414.187 11.6632 -9.42418
  122 414.187 11.6632 -9.42418
  123 47.0656 -95.8212 56.4937
  124 47.0656 -95.8212 56.4937
  125 222.683 7.72672 11.5084
  126 222.683 7.72672 11.5084
  127 55.6133 -77.7970 -62.9153
  128 55.6133 -77.7970 -62.9153
  129 298.451 -20.4937 47.7469
  130 298.451 -20.4937 47.7469
  131 421.519 20.8621 -28.7406
  132 421.519 20.8621 -28.7406
  133 21.6677 -130.164 -9.49056
  134 21.6677 -130.164 -9.49056
  135 26.1743 -125.278 24.4538
  136 26.1743 -125.278 24.4538
  137 243.198 2.37325 -5.94652
  138 243.198 2.37325 -5.94652
  139 231.113 8.05028 -0.426651
  140 231.113 8.05028 -0.426651
  141 236.683 4.12211 -0.0558337
  142 236.683 4.12211 -0.0558337
  143 243.779 -4.90210 17.2211
  144 243.779 -4.90210 17.2211
  145 169.389 -4.53630 40.3543
  146 245.717 -22.6682 34.2157
  147 167.731 9.65833 0.930186
  148 169.389 -4.53630 40.3543
  149 245.717 -22.6682 34.2157
  150 167.731 9.65833 0.930186
  151 219.819 3.98323 -18.3000
  152 219.819 3.98323 -18.3000
  153 410.976 12.0500 7.19736
  154 410.976 12.0500 7.19736
  155 426.683 9.97789 18.0112
  156 427.464 20.6977 35.4784
  157 426.683 9.97789 18.0112
  158 427.464 20.6977 35.4784
  159 239.316 2.77460 1.99466
  160 239.316 2.77460 1.99466
  161 149.921 -6.34135 -34.3744
  162 149.921 -6.34135 -34.3744
  163 239.329 2.70190 -1.95885
  164 239.329 2.70190 -1.95885
  165 240.792 3.25868 5.43382
  166 240.792 3.25868 5.43382
  167 281.830 -2.36198 7.10107
  168 275.455 -9.93768 -0.820641
  169 281.830 -2.36198 7.10107
  170 275.455 -9.93768 -0.820641
  171 303.772 -7.52105 1.77331
  172 303.772 -7.52105 1.77331
  173 231.303 7.29640 6.25247
  174 231.303 7.29640 6.25247
  175 115.704 -12.6477 46.4529
  176 115.704 -12.6477 46.4529
  177 102.668 -5.75391 -29.3521
  178 102.668 -5.75391 -29.3521
  179 233.290 7.85929 -5.98278
  180 233.290 7.85929 -5.98278
</Section>

newXOutput 70

<Section columns = "stress_xx | stress_yy | stress_xy">
  1 243.355 1.71163 -0.995202
  2 243.141 1.32845 0.895491
  3 243.355 1.71163 -0.995202
  4 243.141 1.32845 0.895491
  5 361.339 11.1950 91.3619
  6 355.893 8.79736 -84.8115
  7 361.339 11.1950 91.3619
  8 355.893 8.79736 -84.8115
  9 245.884 0.479708 -3.17982
  10 256.347 0.0547261 -5.23265
  11 262.994 -2.98211 -6.76137
  12 276.419 -1.39897 3.92532
  13 276.085 8.42371 2.59564
  14 277.142 -1.39617 -5.08748
  15 265.746 -4.63995 6.74901
  16 253.011 1.14828 6.11408
  17 246.122 1.62390 2.83302
  18 241.790 2.82581 0.495385
  19 240.382 2.86014 -0.0383316
  20 241.672 2.60689 -0.450046
  21 245.884 0.479708 -3.17982
  22 256.347 0.0547261 -5.23265
  23 262.994 -2.98211 -6.76137
  24 276.419 -1.39897 3.92532
  25 276.085 8.42371 2.59564
  26 277.142 -1.39617 -5.08748
  27 265.746 -4.63995 6.74901
  28 253.011 1.14828 6.11408
  29 246.122 1.62390 2.83302
  30 241.790 2.82581 0.495385
  31 240.382 2.86014 -0.0383316
  32 241.672 2.60689 -0.450046
  33 532.489 4.41584 39.2889
  34 463.676 4.64323 25.5450
  35 445.689 8.84545 10.2043
  36 432.133 5.30198 -2.65507
  37 457.327 1.67443 -9.78902
  38 468.333 8.96662 -23.2005
  39 487.673 32.3749 -48.3875
  40 120.378 -68.6159 -103.480
  41 24.2273 -129.546 -42.8296
  42 9.62843 -176.964 -13.7086
  43 6.56551 -187.675 -1.41619
  44 7.96523 -179.256 13.8323
  45 22.2149 -154.409 37.0464
  46 97.9477 -69.4023 101.563
  47 532.489 4.41584 39.2889
  48 463.676 4.64323 25.5450
  49 445.689 8.84545 10.2043
  50 432.133 5.30198 -2.65507
  51 457.327 1.67443 -9.78902
  52 468.333 8.96662 -23.2005
  53 487.673 32.3749 -48.3875
  54 120.378 -68.6159 -103.480
  55 24.2273 -129.546 -42.8296
  56 9.62843 -176.964 -13.7086
  57 6.56551 -187.675 -1.41619
  58 7.96523 -179.256 13.8323
  59 22.2149 -154.409 37.0464
  60 97.9477 -69.4023 101.563
  61 225.145 9.61929 -4.14425
  62 225.145 9.61929 -4.14425
  63 208.743 3.03927 22.4408
  64 202.676 1.35269 -27.3131
  65 208.743 3.03927 22.4408
  66 202.676 1.35269 -27.3131
  67 116.209 2.30089 7.52073
  68 116.209 2.30089 7.52073
  69 188.548 -34.9596 74.1137
  70 188.548 -34.9596 74.1137
  71 114.484 -33.5151 -59.3692
  72 283.515 -24.1204 -12.5258
  73 314.125 17.6344 -0.309470
  74 299.967 8.27044 -3.43951
  75 114.484 -33.5151 -59.3692
  76 283.515 -24.1204 -12.5258
  77 314.125 17.6344 -0.309470
  78 299.967 8.27044 -3.43951
  79 278.333 -12.9550 5.78475
  80 278.333 -12.9550 5.78475
  81 358.681 26.5445 1.79223
  82 358.681 26.5445 1.79223
  83 60.8069 -39.3953 -5.06042
  84 60.8069 -39.3953 -5.06042
  85 79.1299 -52.7618 51.2116
  86 79.1299 -52.7618 51.2116
  87 300.625 -17.4453 9.01238
  88 300.625 -17.4453 9.01238
  89 238.653 5.37199 3.46681
  90 239.674 5.87004 -3.53440
  91 238.653 5.37199 3.46681
  92 239.674 5.87004 -3.53440
  93 344.574 17.8129 11.7579
  94 344.574 17.8129 11.7579
  95 247.074 2.38657 10.2221
  96 247.074 2.38657 10.2221
  97 371.542 27.3387 -12.8236
  98 376.725 21.7114 -26.7315
  99 371.542 27.3387 -12.8236
  100 376.725 21.7114 -26.7315
  101 240.825 3.79638 -12.5620
  102 240.825 3.79638 -12.5620
  103 196.259 -38.9415 -87.2846
  104 196.259 -38.9415 -87.2846
  105 166.401 -44.7324 92.2010
  106 166.401 -44.7324 92.2010
  107 306.731 -23.9476 -32.8908
  108 306.731 -23.9476 -32.8908
  109 229.337 -28.3058 -51.2841
  110 229.337 -28.3058 -51.2841
  111 393.958 26.8787 19.9282
  112 393.958 26.8787 19.9282
  113 30.1227 -98.1893 -33.9235
  114 30.1227 -98.1893 -33.9235
  115 17.5556 -115.302 10.0767
  116 17.5556 -115.302 10.0767
  117 206.342 13.1609 -2.63349
  118 206.342 13.1609 -2.63349
  119 251.066 -9.79750 -19.8843
  120 251.066 -9.79750 -19.8843
  121 419.986 11.8241 -9.55637
  122 419.986 11.8241 -9.55637
  123 47.7466 -97.1777 57.3518
  124 47.7466 -97.1777 57.3518
  125 225.876 7.83691 11.6708
  126 225.876 7.83691 11.6708
  127 56.4188 -78.8936 -63.8628
  128 56.4188 -78.8936 -63.8628
  129 302.673 -20.7735 48.4582
  130 302.673 -20.7735 48.4582
  131 427.421 21.1573 -29.1543
  132 427.421 21.1573 -29.1543
  133 21.9788 -132.050 -9.63483
  134 21.9788 -132.050 -9.63483
  135 26.5517 -127.083 24.8334
  136 26.5517 -127.083 24.8334
  137 246.671 2.40660 -6.02930
  138 246.671 2.40660 -6.02930
  139 234.424 8.16373 -0.432618
  140 234.424 8.16373 -0.432618
  141 240.069 4.17974 -0.0565977
  142 240.069 4.17974 -0.0565977
  143 247.260 -4.97283 17.4677
  144 247.260 -4.97283 17.4677
  145 171.831 -4.59919 40.9349
  146 249.217 -22.9938 34.7136
  147 170.158 9.79979 0.944250
  148 171.831 -4.59919 40.9349
  149 249.217 -22.9938 34.7136
  150 170.158 9.79979 0.944250
  151 222.972 4.04035 -18.5592
  152 222.972 4.04035 -18.5592
  153 416.735 12.2154 7.30025
  154 416.735 12.2154 7.30025
  155 432.652 10.1152 18.2645
  156 433.445 21.0056 35.9960
  157 432.652 10.1152 18.2645
  158 433.445 21.0056 35.9960
  159 242.737 2.81342 2.02189
  160 242.737 2.81342 2.02189
  161 152.090 -6.42969 -34.8701
  162 152.090 -6.42969 -34.8701
  163 242.750 2.73971 -1.98558
  164 242.750 2.73971 -1.98558
  165 244.233 3.30455 5.50880
  166 244.233 3.30455 5.50880
  167 285.848 -2.39359 7.18869
  168 279.374 -10.0809 -0.841533
  169 285.848 -2.39359 7.18869
  170 279.374 -10.0809 -0.841533
  171 308.085 -7.62143 1.77360
  172 308.085 -7.62143 1.77360
  173 234.617 7.39958 6.33952
  174 234.617 7.39958 6.33952
  175 117.381 -12.8224 47.1292
  176 117.381 -12.8224 47.1292
  177 104.164 -5.82681 -29.7791
  178 104.164 -5.82681 -29.7791
  179 236.630 7.97047 -6.06626
  180 236.630 7.97047 -6.06626
</Section>

newXOutput 71

<Section columns = "stress_xx | stress_yy | stress_xy">
  1 246.781 1.73517 -1.00854
  2 246.564 1.34668 0.907472
  3 246.781 1.73517 -1.00854
  4 246.564 1.34668 0.907472
  5 366.312 11.4025 92.6767
  6 360.806 8.97141 -86.0417
  7 366.312 11.4025 92.6767
  8 360.806 8.97141 -86.0417
  9 249.343 0.486037 -3.22298
  10 259.945 0.0555270 -5.30425
  11 266.686 -3.02483 -6.85789
  12 280.304 -1.41870 3.97289
  13 279.978 8.54397 2.62985
  14 281.037 -1.41539 -5.14967
  15 269.474 -4.70607 6.84574
  16 256.565 1.16409 6.19777
  17 249.585 1.64633 2.87114
  18 245.196 2.86459 0.502017
  19 243.770 2.89934 -0.0388386
  20 245.076 2.64265 -0.456075
  21 249.343 0.486037 -3.22298
  22 259.945 0.0555270 -5.30425
  23 266.686 -3.02483 -6.85789
  24 280.304 -1.41870 3.97289
  25 279.978 8.54397 2.62985
  26 281.037 -1.41539 -5.14967
  27 269.474 -4.70607 6.84574
  28 256.565 1.16409 6.19777
  29 249.585 1.64633 2.87114
  30 245.196 2.86459 0.502017
  31 243.770 2.89934 -0.0388386
  32 245.076 2.64265 -0.456075
  33 539.749 4.47908 39.8384
  34 470.029 4.70180 25.8992
  35 451.804 8.96538 10.3431
  36 438.071 5.37149 -2.69049
  37 463.583 1.69656 -9.92328
  38 474.748 9.09096 -23.5204
  39 494.359 32.8432 -49.0761
  40 122.056 -69.5285 -104.993
  41 24.5713 -131.367 -43.4767
  42 9.76234 -179.511 -13.9200
  43 6.65330 -190.387 -1.43619
  44 8.07353 -181.834 14.0448
  45 22.5295 -156.595 37.6107
  46 99.3157 -70.3259 103.050
  47 539.749 4.47908 39.8384
  48 470.029 4.70180 25.8992
  49 451.804 8.96538 10.3431
  50 438.071 5.37149 -2.69049
  51 463.583 1.69656 -9.92328
  52 474.748 9.09096 -23.5204
  53 494.359 32.8432 -49.0761
  54 122.056 -69.5285 -104.993
  55 24.5713 -131.367 -43.4767
  56 9.76234 -179.511 -13.9200
  57 6.65330 -190.387 -1.43619
  58 8.07353 -181.834 14.0448
  59 22.5295 -156.595 37.6107
  60 99.3157 -70.3259 103.050
  61 228.328 9.75411 -4.20169
  62 228.328 9.75411 -4.20169
  63 211.697 3.08308 22.7563
  64 205.546 1.37266 -27.6970
  65 211.697 3.08308 22.7563
  66 205.546 1.37266 -27.6970
  67 117.878 2.34120 7.62810
  68 117.878 2.34120 7.62810
  69 191.200 -35.4557 75.1758
  70 191.200 -35.4557 75.1758
  71 116.112 -33.9825 -60.2287
  72 287.484 -24.4601 -12.7172
  73 318.530 17.8861 -0.325024
  74 304.177 8.38954 -3.47473
  75 116.112 -33.9825 -60.2287
  76 287.484 -24.4601 -12.7172
  77 318.530 17.8861 -0.325024
  78 304.177 8.38954 -3.47473
  79 282.235 -13.1376 5.87718
  80 282.235 -13.1376 5.87718
  81 363.681 26.9148 1.82234
  82 363.681 26.9148 1.82234
  83 61.6808 -39.9405 -5.13465
  84 61.6808 -39.9405 -5.13465
  85 80.2542 -53.4986 51.9621
  86 80.2542 -53.4986 51.9621
  87 304.828 -17.6862 9.16244
  88 304.828 -17.6862 9.16244
  89 242.018 5.44629 3.51377
  90 243.053 5.95136 -3.58228
  91 242.018 5.44629 3.51377
  92 243.053 5.95136 -3.58228
  93 349.380 18.0733 11.9475
  94 349.380 18.0733 11.9475
  95 250.550 2.41955 10.3634
  96 250.550 2.41955 10.3634
  97 376.715 27.7205 -13.0129
  98 381.955 22.0314 -27.1310
  99 376.715 27.7205 -13.0129
  100 381.955 22.0314 -27.1310
  101 244.218 3.84925 -12.7366
  102 244.218 3.84925 -12.7366
  103 198.997 -39.4664 -88.5516
  104 198.997 -39.4664 -88.5516
  105 168.726 -45.3382 93.5427
  106 168.726 -45.3382 93.5427
  107 311.005 -24.2728 -33.3841
  108 311.005 -24.2728 -33.3841
  109 232.558 -28.7066 -52.0173
  110 232.558 -28.7066 -52.0173
  111 399.422 27.2560 20.2158
  112 399.422 27.2560 20.2158
  113 30.5533 -99.5758 -34.4308
  114 30.5533 -99.5758 -34.4308
  115 17.8042 -116.942 10.2296
  116 17.8042 -116.942 10.2296
  117 209.268 13.3472 -2.66991
  118 209.268 13.3472 -2.66991
  119 254.595 -9.93649 -20.1671
  120 254.595 -9.93649 -20.1671
  121 425.777 11.9847 -9.68838
  122 425.777 11.9847 -9.68838
  123 48.4272 -98.5326 58.2106
  124 48.4272 -98.5326 58.2106
  125 229.068 7.94700 11.8330
  126 229.068 7.94700 11.8330
  127 57.2239 -79.9887 -64.8109
  128 57.2239 -79.9887 -64.8109
  129 306.889 -21.0526 49.1698
  130 306.889 -21.0526 49.1698
  131 433.314 21.4522 -29.5677
  132 433.314 21.4522 -29.5677
  133 22.2897 -133.935 -9.77923
  134 22.2897 -133.935 -9.77923
  135 26.9288 -128.886 25.2136
  136 26.9288 -128.886 25.2136
  137 250.142 2.43991 -6.11195
  138 250.142 2.43991 -6.11195
  139 237.733 8.27704 -0.438577
  140 237.733 8.27704 -0.438577
  141 243.453 4.23727 -0.0573600
  142 243.453 4.23727 -0.0573600
  143 250.738 -5.04352 17.7140
  144 250.738 -5.04352 17.7140
  145 174.272 -4.66197 41.5152
  146 252.714 -23.3191 35.2114
  147 172.585 9.94122 0.958325
  148 174.272 -4.66197 41.5152
  149 252.714 -23.3191 35.2114
  150 172.585 9.94122 0.958325
  151 226.122 4.09743 -18.8181
  152 226.122 4.09743 -18.8181
  153 422.487 12.3805 7.40304
  154 422.487 12.3805 7.40304
  155 438.612 10.2523 18.5175
  156 439.419 21.3135 36.5135
  157 438.612 10.2523 18.5175
  158 439.419 21.3135 36.5135
  159 246.155 2.85219 2.04906
  160 246.155 2.85219 2.04906
  161 154.258 -6.51790 -35.3655
  162 154.258 -6.51790 -35.3655
  163 246.169 2.77746 -2.01226
  164 246.169 2.77746 -2.01226
  165 247.671 3.35037 5.58365
  166 247.671 3.35037 5.58365
  167 289.862 -2.42512 7.27585
  168 283.290 -10.2240 -0.862665
  169 289.862 -2.42512 7.27585
  170 283.290 -10.2240 -0.862665
  171 312.394 -7.72153 1.77320
  172 312.394 -7.72153 1.77320
  173 237.927 7.50265 6.42643
  174 237.927 7.50265 6.42643
  175 119.058 -12.9967 47.8052
  176 119.058 -12.9967 47.8052
  177 105.659 -5.89939 -30.2060
  178 105.659 -5.89939 -30.2060
  179 239.968 8.08152 -6.14962
  180 239.968 8.08152 -6.14962
</Section>

newXOutput 72

<Section columns = "stress_xx | stress_yy | stress_xy">
  1 250.204 1.75868 -1.02185
  2 249.984 1.36487 0.919426
  3 250.204 1.75868 -1.02185
  4 249.984 1.36487 0.919426
  5 371.276 11.6113 93.9912
  6 365.711 9.14674 -87.2719
  7 371.276 11.6113 93.9912
  8 365.711 9.14674 -87.2719
  9 252.800 0.492350 -3.26605
  10 263.541 0.0563282 -5.37574
  11 270.374 -3.06753 -6.95437
  12 284.185 -1.43841 4.02021
  13 283.868 8.66419 2.66396
  14 284.929 -1.43457 -5.21154
  15 273.199 -4.77216 6.94244
  16 260.116 1.17989 6.28133
  17 253.044 1.66873 2.90919
  18 248.599 2.90331 0.508635
  19 247.155 2.93847 -0.0393442
  20 248.478 2.67835 -0.462091
  21 252.800 0.492350 -3.26605
  22 263.541 0.0563282 -5.37574
  23 270.374 -3.06753 -6.95437
  24 284.185 -1.43841 4.02021
  25 283.868 8.66419 2.66396
  26 284.929 -1.43457 -5.21154
  27 273.199 -4.77216 6.94244
  28 260.116 1.17989 6.28133
  29 253.044 1.66873 2.90919
  30 248.599 2.90331 0.508635
  31 247.155 2.93847 -0.0393442
  32 248.478 2.67835 -0.462091
  33 546.996 4.54231 40.3873
  34 476.372 4.76015 26.2529
  35 457.909 9.08510 10.4817
  36 444.000 5.44081 -2.72582
  37 469.829 1.71863 -10.0573
  38 481.153 9.21515 -23.8398
  39 501.035 33.3115 -49.7642
  40 123.732 -70.4387 -106.506
  41 24.9152 -133.187 -44.1245
  42 9.89608 -182.057 -14.1318
  43 6.74089 -193.098 -1.45617
  44 8.18162 -184.412 14.2577
  45 22.8439 -158.780 38.1758
  46 100.682 -71.2472 104.538
  47 546.996 4.54231 40.3873
  48 476.372 4.76015 26.2529
  49 457.909 9.08510 10.4817
  50 444.000 5.44081 -2.72582
  51 469.829 1.71863 -10.0573
  52 481.153 9.21515 -23.8398
  53 501.035 33.3115 -49.7642
  54 123.732 -70.4387 -106.506
  55 24.9152 -133.187 -44.1245
  56 9.89608 -182.057 -14.1318
  57 6.74089 -193.098 -1.45617
  58 8.18162 -184.412 14.2577
  59 22.8439 -158.780 38.1758
  60 100.682 -71.2472 104.538
  61 231.509 9.88880 -4.25906
  62 231.509 9.88880 -4.25906
  63 214.650 3.12688 23.0716
  64 208.414 1.39264 -28.0806
  65 214.650 3.12688 23.0716
  66 208.414 1.39264 -28.0806
  67 119.546 2.38170 7.73542
  68 119.546 2.38170 7.73542
  69 193.849 -35.9516 76.2375
  70 193.849 -35.9516 76.2375
  71 117.738 -34.4493 -61.0882
  72 291.448 -24.7996 -12.9088
  73 322.930 18.1378 -0.340873
  74 308.382 8.50861 -3.50957
  75 117.738 -34.4493 -61.0882
  76 291.448 -24.7996 -12.9088
  77 322.930 18.1378 -0.340873
  78 308.382 8.50861 -3.50957
  79 286.134 -13.3201 5.96983
  80 286.134 -13.3201 5.96983
  81 368.676 27.2847 1.85256
  82 368.676 27.2847 1.85256
  83 62.5545 -40.4850 -5.20890
  84 62.5545 -40.4850 -5.20890
  85 81.3779 -54.2346 52.7129
  86 81.3779 -54.2346 52.7129
  87 309.027 -17.9268 9.31302
  88 309.027 -17.9268 9.31302
  89 245.380 5.52050 3.56064
  90 246.428 6.03258 -3.63006
  91 245.380 5.52050 3.56064
  92 246.428 6.03258 -3.63006
  93 354.181 18.3336 12.1376
  94 354.181 18.3336 12.1376
  95 254.023 2.45248 10.5046
  96 254.023 2.45248 10.5046
  97 381.882 28.1020 -13.2023
  98 387.179 22.3515 -27.5308
  99 381.882 28.1020 -13.2023
  100 387.179 22.3515 -27.5308
  101 247.608 3.90207 -12.9109
  102 247.608 3.90207 -12.9109
  103 201.732 -39.9902 -89.8187
  104 201.732 -39.9902 -89.8187
  105 171.050 -45.9428 94.8845
  106 171.050 -45.9428 94.8845
  107 315.273 -24.5974 -33.8778
  108 315.273 -24.5974 -33.8778
  109 235.776 -29.1072 -52.7503
  110 235.776 -29.1072 -52.7503
  111 404.879 27.6329 20.5034
  112 404.879 27.6329 20.5034
  113 30.9837 -100.961 -34.9386
  114 30.9837 -100.961 -34.9386
  115 18.0525 -118.581 10.3827
  116 18.0525 -118.581 10.3827
  117 212.192 13.5335 -2.70628
  118 212.192 13.5335 -2.70628
  119 258.120 -10.0754 -20.4498
  120 258.120 -10.0754 -20.4498
  121 431.560 12.1450 -9.82021
  122 431.560 12.1450 -9.82021
  123 49.1076 -99.8861 59.0702
  124 49.1076 -99.8861 59.0702
  125 232.257 8.05700 11.9950
  126 232.257 8.05700 11.9950
  127 58.0286 -81.0825 -65.7596
  128 58.0286 -81.0825 -65.7596
  129 311.101 -21.3312 49.8815
  130 311.101 -21.3312 49.8815
  131 439.199 21.7467 -29.9808
  132 439.199 21.7467 -29.9808
  133 22.6003 -135.819 -9.92376
  134 22.6003 -135.819 -9.92376
  135 27.3057 -130.688 25.5943
  136 27.3057 -130.688 25.5943
  137 253.610 2.47317 -6.19447
  138 253.610 2.47317 -6.19447
  139 241.039 8.39021 -0.444527
  140 241.039 8.39021 -0.444527
  141 246.834 4.29473 -0.0581209
  142 246.834 4.29473 -0.0581209
  143 254.213 -5.11417 17.9602
  144 254.213 -5.11417 17.9602
  145 176.712 -4.72465 42.0951
  146 256.207 -23.6442 35.7091
  147 175.010 10.0826 0.972410
  148 176.712 -4.72465 42.0951
  149 256.207 -23.6442 35.7091
  150 175.010 10.0826 0.972410
  151 229.270 4.15447 -19.0767
  152 229.270 4.15447 -19.0767
  153 428.231 12.5452 7.50574
  154 428.231 12.5452 7.50574
  155 444.564 10.3891 18.7701
  156 445.384 21.6216 37.0308
  157 444.564 10.3891 18.7701
  158 445.384 21.6216 37.0308
  159 249.571 2.89090 2.07618
  160 249.571 2.89090 2.07618
  161 156.425 -6.60597 -35.8605
  162 156.425 -6.60597 -35.8605
  163 249.584 2.81515 -2.03887
  164 249.584 2.81515 -2.03887
  165 251.107 3.39613 5.65836
  166 251.107 3.39613 5.65836
  167 293.873 -2.45655 7.36255
  168 287.203 -10.3671 -0.884034
  169 293.873 -2.45655 7.36255
  170 287.203 -10.3671 -0.884034
  171 316.699 -7.82133 1.77209
  172 316.699 -7.82133 1.77209
  173 241.236 7.60560 6.51321
  174 241.236 7.60560 6.51321
  175 120.734 -13.1708 48.4810
  176 120.734 -13.1708 48.4810
  177 107.153 -5.97164 -30.6327
  178 107.153 -5.97164 -30.6327
  179 243.304 8.19246 -6.23285
  180 243.304 8.19246 -6.23285
</Section>

newXOutput 73

<Section columns = "stress_xx | stress_yy | stress_xy">
  1 253.625 1.78215 -1.03513
  2 253.402 1.38304 0.931353
  3 253.625 1.78215 -1.03513
  4 253.402 1.38304 0.931353
  5 376.234 11.8212 95.3054
  6 370.610 9.32334 -88.5020
  7 376.234 11.8212 95.3054
  8 370.610 9.32334 -88.5020
  9 256.253 0.498646 -3.30905
  10 267.133 0.0571297 -5.44712
  11 274.059 -3.11022 -7.05080
  12 288.063 -1.45810 4.06728
  13 287.755 8.78435 2.69797
  14 288.817 -1.45373 -5.27310
  15 276.921 -4.83822 7.03911
  16 263.665 1.19566 6.36475
  17 256.501 1.69109 2.94715
  18 252.000 2.94197 0.515238
  19 250.538 2.97754 -0.0398486
  20 251.877 2.71400 -0.468093
  21 256.253 0.498646 -3.30905
  22 267.133 0.0571297 -5.44712
  23 274.059 -3.11022 -7.05080
  24 288.063 -1.45810 4.06728
  25 287.755 8.78435 2.69797
  26 288.817 -1.45373 -5.27310
  27 276.921 -4.83822 7.03911
  28 263.665 1.19566 6.36475
  29 256.501 1.69109 2.94715
  30 252.000 2.94197 0.515238
  31 250.538 2.97754 -0.0398486
  32 251.877 2.71400 -0.468093
  33 554.231 4.60551 40.9357
  34 482.705 4.81825 26.6062
  35 464.005 9.20459 10.6201
  36 449.921 5.50994 -2.76107
  37 476.065 1.74065 -10.1912
  38 487.548 9.33919 -24.1588
  39 507.701 33.7797 -50.4520
  40 125.406 -71.3467 -108.019
  41 25.2588 -135.006 -44.7731
  42 10.0297 -184.602 -14.3439
  43 6.82828 -195.809 -1.47614
  44 8.28952 -186.989 14.4709
  45 23.1581 -160.963 38.7417
  46 102.047 -72.1662 106.026
  47 554.231 4.60551 40.9357
  48 482.705 4.81825 26.6062
  49 464.005 9.20459 10.6201
  50 449.921 5.50994 -2.76107
  51 476.065 1.74065 -10.1912
  52 487.548 9.33919 -24.1588
  53 507.701 33.7797 -50.4520
  54 125.406 -71.3467 -108.019
  55 25.2588 -135.006 -44.7731
  56 10.0297 -184.602 -14.3439
  57 6.82828 -195.809 -1.47614
  58 8.28952 -186.989 14.4709
  59 23.1581 -160.963 38.7417
  60 102.047 -72.1662 106.026
  61 234.688 10.0234 -4.31636
  62 234.688 10.0234 -4.31636
  63 217.600 3.17067 23.3865
  64 211.280 1.41263 -28.4638
  65 217.600 3.17067 23.3865
  66 211.280 1.41263 -28.4638
  67 121.214 2.42238 7.84269
  68 121.214 2.42238 7.84269
  69 196.496 -36.4471 77.2988
  70 196.496 -36.4471 77.2988
  71 119.364 -34.9156 -61.9476
  72 295.408 -25.1388 -13.1007
  73 327.326 18.3893 -0.357016
  74 312.584 8.62766 -3.54401
  75 119.364 -34.9156 -61.9476
  76 295.408 -25.1388 -13.1007
  77 327.326 18.3893 -0.357016
  78 312.584 8.62766 -3.54401
  79 290.028 -13.5024 6.06271
  80 290.028 -13.5024 6.06271
  81 373.664 27.6542 1.88288
  82 373.664 27.6542 1.88288
  83 63.4280 -41.0288 -5.28317
  84 63.4280 -41.0288 -5.28317
  85 82.5010 -54.9699 53.4638
  86 82.5010 -54.9699 53.4638
  87 313.221 -18.1671 9.46411
  88 313.221 -18.1671 9.46411
  89 248.740 5.59461 3.60742
  90 249.801 6.11370 -3.67776
  91 248.740 5.59461 3.60742
  92 249.801 6.11370 -3.67776
  93 358.976 18.5941 12.3282
  94 358.976 18.5941 12.3282
  95 257.494 2.48537 10.6455
  96 257.494 2.48537 10.6455
  97 387.043 28.4831 -13.3918
  98 392.397 22.6717 -27.9309
  99 387.043 28.4831 -13.3918
  100 392.397 22.6717 -27.9309
  101 250.996 3.95482 -13.0851
  102 250.996 3.95482 -13.0851
  103 204.465 -40.5130 -91.0857
  104 204.465 -40.5130 -91.0857
  105 173.371 -46.5463 96.2263
  106 173.371 -46.5463 96.2263
  107 319.537 -24.9214 -34.3719
  108 319.537 -24.9214 -34.3719
  109 238.991 -29.5076 -53.4830
  110 238.991 -29.5076 -53.4830
  111 410.329 28.0096 20.7909
  112 410.329 28.0096 20.7909
  113 31.4139 -102.346 -35.4468
  114 31.4139 -102.346 -35.4468
  115 18.3007 -120.219 10.5360
  116 18.3007 -120.219 10.5360
  117 215.114 13.7196 -2.74261
  118 215.114 13.7196 -2.74261
  119 261.642 -10.2142 -20.7324
  120 261.642 -10.2142 -20.7324
  121 437.335 12.3051 -9.95185
  122 437.335 12.3051 -9.95185
  123 49.7876 -101.238 59.9305
  124 49.7876 -101.238 59.9305
  125 235.444 8.16690 12.1568
  126 235.444 8.16690 12.1568
  127 58.8330 -82.1749 -66.7090
  128 58.8330 -82.1749 -66.7090
  129 315.308 -21.6091 50.5935
  130 315.308 -21.6091 50.5935
  131 445.076 22.0410 -30.3937
  132 445.076 22.0410 -30.3937
  133 22.9107 -137.703 -10.0684
  134 22.9107 -137.703 -10.0684
  135 27.6824 -132.489 25.9756
  136 27.6824 -132.489 25.9756
  137 257.075 2.50638 -6.27687
  138 257.075 2.50638 -6.27687
  139 244.343 8.50325 -0.450468
  140 244.343 8.50325 -0.450468
  141 250.212 4.35210 -0.0588801
  142 250.212 4.35210 -0.0588801
  143 257.685 -5.18478 18.2062
  144 257.685 -5.18478 18.2062
  145 179.150 -4.78722 42.6746
  146 259.698 -23.9691 36.2065
  147 177.434 10.2240 0.986505
  148 179.150 -4.78722 42.6746
  149 259.698 -23.9691 36.2065
  150 177.434 10.2240 0.986505
  151 232.416 4.21146 -19.3350
  152 232.416 4.21146 -19.3350
  153 433.967 12.7097 7.60836
  154 433.967 12.7097 7.60836
  155 450.507 10.5257 19.0224
  156 451.340 21.9297 37.5480
  157 450.507 10.5257 19.0224
  158 451.340 21.9297 37.5480
  159 252.983 2.92955 2.10323
  160 252.983 2.92955 2.10323
  161 158.591 -6.69390 -36.3554
  162 158.591 -6.69390 -36.3554
  163 252.997 2.85279 -2.06543
  164 252.997 2.85279 -2.06543
  165 254.539 3.44183 5.73293
  166 254.539 3.44183 5.73293
  167 297.880 -2.48790 7.44879
  168 291.111 -10.5100 -0.905642
  169 297.880 -2.48790 7.44879
  170 291.111 -10.5100 -0.905642
  171 321.000 -7.92085 1.77028
  172 321.000 -7.92085 1.77028
  173 244.541 7.70843 6.59985
  174 244.541 7.70843 6.59985
  175 122.409 -13.3445 49.1567
  176 122.409 -13.3445 49.1567
  177 108.647 -6.04358 -31.0592
  178 108.647 -6.04358 -31.0592
  179 246.636 8.30327 -6.31596
  180 246.636 8.30327 -6.31596
</Section>

newXOutput 74

<Section columns = "stress_xx | stress_yy | stress_xy">
  1 257.043 1.80558 -1.04837
  2 256.817 1.40118 0.943253
  3 257.043 1.80558 -1.04837
  4 256.817 1.40118 0.943253
  5 381.184 12.0325 96.6192
  6 375.503 9.50122 -89.7321
  7 381.184 12.0325 96.6192
  8 375.503 9.50122 -89.7321
  9 259.704 0.504925 -3.35196
  10 270.722 0.0579315 -5.51838
  11 277.741 -3.15290 -7.14719
  12 291.937 -1.47778 4.11410
  13 291.639 8.90446 2.73190
  14 292.702 -1.47286 -5.33435
  15 280.639 -4.90424 7.13574
  16 267.210 1.21141 6.44804
  17 259.955 1.71343 2.98503
  18 255.398 2.98058 0.521825
  19 253.917 3.01654 -0.0403516
  20 255.273 2.74959 -0.474082
  21 259.704 0.504925 -3.35196
  22 270.722 0.0579315 -5.51838
  23 277.741 -3.15290 -7.14719
  24 291.937 -1.47778 4.11410
  25 291.639 8.90446 2.73190
  26 292.702 -1.47286 -5.33435
  27 280.639 -4.90424 7.13574
  28 267.210 1.21141 6.44804
  29 259.955 1.71343 2.98503
  30 255.398 2.98058 0.521825
  31 253.917 3.01654 -0.0403516
  32 255.273 2.74959 -0.474082
  33 561.454 4.66869 41.4835
  34 489.029 4.87613 26.9591
  35 470.091 9.32387 10.7582
  36 455.833 5.57887 -2.79623
  37 482.291 1.76261 -10.3248
  38 493.933 9.46307 -24.4773
  39 514.356 34.2479 -51.1393
  40 127.078 -72.2524 -109.533
  41 25.6023 -136.822 -45.4224
  42 10.1631 -187.147 -14.5564
  43 6.91546 -198.520 -1.49609
  44 8.39722 -189.565 14.6844
  45 23.4720 -163.145 39.3083
  46 103.411 -73.0829 107.515
  47 561.454 4.66869 41.4835
  48 489.029 4.87613 26.9591
  49 470.091 9.32387 10.7582
  50 455.833 5.57887 -2.79623
  51 482.291 1.76261 -10.3248
  52 493.933 9.46307 -24.4773
  53 514.356 34.2479 -51.1393
  54 127.078 -72.2524 -109.533
  55 25.6023 -136.822 -45.4224
  56 10.1631 -187.147 -14.5564
  57 6.91546 -198.520 -1.49609
  58 8.39722 -189.565 14.6844
  59 23.4720 -163.145 39.3083
  60 103.411 -73.0829 107.515
  61 237.864 10.1578 -4.37359
  62 237.864 10.1578 -4.37359
  63 220.549 3.21446 23.7012
  64 214.144 1.43262 -28.8468
  65 220.549 3.21446 23.7012
  66 214.144 1.43262 -28.8468
  67 122.881 2.46325 7.94992
  68 122.881 2.46325 7.94992
  69 199.141 -36.9424 78.3598
  70 199.141 -36.9424 78.3598
  71 120.989 -35.3815 -62.8070
  72 299.365 -25.4778 -13.2928
  73 331.718 18.6408 -0.373451
  74 316.782 8.74668 -3.57806
  75 120.989 -35.3815 -62.8070
  76 299.365 -25.4778 -13.2928
  77 331.718 18.6408 -0.373451
  78 316.782 8.74668 -3.57806
  79 293.920 -13.6846 6.15581
  80 293.920 -13.6846 6.15581
  81 378.648 28.0233 1.91331
  82 378.648 28.0233 1.91331
  83 64.3013 -41.5718 -5.35746
  84 64.3013 -41.5718 -5.35746
  85 83.6235 -55.7044 54.2150
  86 83.6235 -55.7044 54.2150
  87 317.411 -18.4070 9.61572
  88 317.411 -18.4070 9.61572
  89 252.097 5.66862 3.65412
  90 253.172 6.19472 -3.72536
  91 252.097 5.66862 3.65412
  92 253.172 6.19472 -3.72536
  93 363.766 18.8545 12.5193
  94 363.766 18.8545 12.5193
  95 260.961 2.51822 10.7863
  96 260.961 2.51822 10.7863
  97 392.199 28.8638 -13.5814
  98 397.608 22.9921 -28.3313
  99 392.199 28.8638 -13.5814
  100 397.608 22.9921 -28.3313
  101 254.381 4.00752 -13.2590
  102 254.381 4.00752 -13.2590
  103 207.194 -41.0346 -92.3528
  104 207.194 -41.0346 -92.3528
  105 175.689 -47.1485 97.5683
  106 175.689 -47.1485 97.5683
  107 323.797 -25.2448 -34.8664
  108 323.797 -25.2448 -34.8664
  109 242.204 -29.9076 -54.2154
  110 242.204 -29.9076 -54.2154
  111 415.773 28.3859 21.0784
  112 415.773 28.3859 21.0784
  113 31.8440 -103.729 -35.9554
  114 31.8440 -103.729 -35.9554
  115 18.5488 -121.856 10.6896
  116 18.5488 -121.856 10.6896
  117 218.034 13.9056 -2.77889
  118 218.034 13.9056 -2.77889
  119 265.162 -10.3530 -21.0148
  120 265.162 -10.3530 -21.0148
  121 443.101 12.4648 -10.0833
  122 443.101 12.4648 -10.0833
  123 50.4672 -102.588 60.7916
  124 50.4672 -102.588 60.7916
  125 238.629 8.27670 12.3183
  126 238.629 8.27670 12.3183
  127 59.6370 -83.2660 -67.6589
  128 59.6370 -83.2660 -67.6589
  129 319.510 -21.8865 51.3058
  130 319.510 -21.8865 51.3058
  131 450.945 22.3349 -30.8063
  132 450.945 22.3349 -30.8063
  133 23.2210 -139.585 -10.2132
  134 23.2210 -139.585 -10.2132
  135 28.0589 -134.289 26.3575
  136 28.0589 -134.289 26.3575
  137 260.537 2.53956 -6.35913
  138 260.537 2.53956 -6.35913
  139 247.644 8.61615 -0.456401
  140 247.644 8.61615 -0.456401
  141 253.588 4.40939 -0.0596377
  142 253.588 4.40939 -0.0596377
  143 261.154 -5.25536 18.4519
  144 261.154 -5.25536 18.4519
  145 181.587 -4.84969 43.2537
  146 263.185 -24.2937 36.7039
  147 179.857 10.3654 1.00061
  148 181.587 -4.84969 43.2537
  149 263.185 -24.2937 36.7039
  150 179.857 10.3654 1.00061
  151 235.559 4.26841 -19.5930
  152 235.559 4.26841 -19.5930
  153 439.696 12.8738 7.71088
  154 439.696 12.8738 7.71088
  155 456.442 10.6620 19.2744
  156 457.288 22.2380 38.0651
  157 456.442 10.6620 19.2744
  158 457.288 22.2380 38.0651
  159 256.393 2.96815 2.13023
  160 256.393 2.96815 2.13023
  161 160.755 -6.78171 -36.8499
  162 160.755 -6.78171 -36.8499
  163 256.407 2.89038 -2.09194
  164 256.407 2.89038 -2.09194
  165 257.969 3.48747 5.80737
  166 257.969 3.48747 5.80737
  167 301.883 -2.51916 7.53457
  168 295.016 -10.6529 -0.927487
  169 301.883 -2.51916 7.53457
  170 295.016 -10.6529 -0.927487
  171 325.296 -8.02007 1.76777
  172 325.296 -8.02007 1.76777
  173 247.844 7.81115 6.68635
  174 247.844 7.81115 6.68635
  175 124.084 -13.5179 49.8321
  176 124.084 -13.5179 49.8321
  177 110.141 -6.11519 -31.4857
  178 110.141 -6.11519 -31.4857
  179 249.967 8.41395 -6.39894
  180 249.967 8.41395 -6.39894
</Section>

newXOutput 75

<Section columns = "stress_xx | stress_yy | stress_xy">
  1 260.458 1.82899 -1.06159
  2 260.229 1.41929 0.955126
  3 260.458 1.82899 -1.06159
  4 260.229 1.41929 0.955126
  5 386.127 12.2449 97.9327
  6 380.388 9.68036 -90.9621
  7 386.127 12.2449 97.9327
  8 380.388 9.68036 -90.9621
  9 263.152 0.511187 -3.39479
  10 274.308 0.0587336 -5.58952
  11 281.420 -3.19556 -7.24354
  12 295.808 -1.49744 4.16067
  13 295.519 9.02453 2.76573
  14 296.584 -1.49195 -5.39530
  15 284.354 -4.97024 7.23234
  16 270.752 1.22714 6.53119
  17 263.406 1.73574 3.02284
  18 258.793 3.01912 0.528399
  19 257.295 3.05549 -0.0408533
  20 258.667 2.78513 -0.480058
  21 263.152 0.511187 -3.39479
  22 274.308 0.0587336 -5.58952
  23 281.420 -3.19556 -7.24354
  24 295.808 -1.49744 4.16067
  25 295.519 9.02453 2.76573
  26 296.584 -1.49195 -5.39530
  27 284.354 -4.97024 7.23234
  28 270.752 1.22714 6.53119
  29 263.406 1.73574 3.02284
  30 258.793 3.01912 0.528399
  31 257.295 3.05549 -0.0408533
  32 258.667 2.78513 -0.480058
  33 568.664 4.73185 42.0307
  34 495.342 4.93377 27.3115
  35 476.169 9.44292 10.8960
  36 461.736 5.64760 -2.83131
  37 488.507 1.78451 -10.4582
  38 500.307 9.58681 -24.7953
  39 521.001 34.7161 -51.8262
  40 128.749 -73.1558 -111.047
  41 25.9455 -138.637 -46.0724
  42 10.2964 -189.692 -14.7693
  43 7.00244 -201.230 -1.51602
  44 8.50473 -192.141 14.8983
  45 23.7858 -165.325 39.8757
  46 104.773 -73.9973 109.004
  47 568.664 4.73185 42.0307
  48 495.342 4.93377 27.3115
  49 476.169 9.44292 10.8960
  50 461.736 5.64760 -2.83131
  51 488.507 1.78451 -10.4582
  52 500.307 9.58681 -24.7953
  53 521.001 34.7161 -51.8262
  54 128.749 -73.1558 -111.047
  55 25.9455 -138.637 -46.0724
  56 10.2964 -189.692 -14.7693
  57 7.00244 -201.230 -1.51602
  58 8.50473 -192.141 14.8983
  59 23.7858 -165.325 39.8757
  60 104.773 -73.9973 109.004
  61 241.038 10.2921 -4.43074
  62 241.038 10.2921 -4.43074
  63 223.496 3.25824 24.0157
  64 217.006 1.45263 -29.2294
  65 223.496 3.25824 24.0157
  66 217.006 1.45263 -29.2294
  67 124.548 2.50430 8.05710
  68 124.548 2.50430 8.05710
  69 201.784 -37.4374 79.4205
  70 201.784 -37.4374 79.4205
  71 122.613 -35.8468 -63.6663
  72 303.317 -25.8164 -13.4852
  73 336.106 18.8921 -0.390179
  74 320.976 8.86569 -3.61172
  75 122.613 -35.8468 -63.6663
  76 303.317 -25.8164 -13.4852
  77 336.106 18.8921 -0.390179
  78 320.976 8.86569 -3.61172
  79 297.807 -13.8667 6.24914
  80 297.807 -13.8667 6.24914
  81 383.626 28.3920 1.94384
  82 383.626 28.3920 1.94384
  83 65.1744 -42.1142 -5.43178
  84 65.1744 -42.1142 -5.43178
  85 84.7453 -56.4381 54.9664
  86 84.7453 -56.4381 54.9664
  87 321.597 -18.6466 9.76784
  88 321.597 -18.6466 9.76784
  89 255.451 5.74253 3.70072
  90 256.539 6.27564 -3.77288
  91 255.451 5.74253 3.70072
  92 256.539 6.27564 -3.77288
  93 368.551 19.1151 12.7108
  94 368.551 19.1151 12.7108
  95 264.426 2.55102 10.9269
  96 264.426 2.55102 10.9269
  97 397.348 29.2441 -13.7710
  98 402.813 23.3126 -28.7319
  99 397.348 29.2441 -13.7710
  100 402.813 23.3126 -28.7319
  101 257.763 4.06016 -13.4327
  102 257.763 4.06016 -13.4327
  103 209.920 -41.5552 -93.6198
  104 209.920 -41.5552 -93.6198
  105 178.005 -47.7496 98.9104
  106 178.005 -47.7496 98.9104
  107 328.051 -25.5676 -35.3614
  108 328.051 -25.5676 -35.3614
  109 245.413 -30.3075 -54.9475
  110 245.413 -30.3075 -54.9475
  111 421.210 28.7619 21.3658
  112 421.210 28.7619 21.3658
  113 32.2739 -105.111 -36.4645
  114 32.2739 -105.111 -36.4645
  115 18.7966 -123.492 10.8433
  116 18.7966 -123.492 10.8433
  117 220.952 14.0914 -2.81512
  118 220.952 14.0914 -2.81512
  119 268.678 -10.4916 -21.2970
  120 268.678 -10.4916 -21.2970
  121 448.860 12.6243 -10.2146
  122 448.860 12.6243 -10.2146
  123 51.1466 -103.937 61.6535
  124 51.1466 -103.937 61.6535
  125 241.811 8.38640 12.4798
  126 241.811 8.38640 12.4798
  127 60.4406 -84.3557 -68.6095
  128 60.4406 -84.3557 -68.6095
  129 323.707 -22.1632 52.0182
  130 323.707 -22.1632 52.0182
  131 456.806 22.6284 -31.2186
  132 456.806 22.6284 -31.2186
  133 23.5310 -141.467 -10.3582
  134 23.5310 -141.467 -10.3582
  135 28.4352 -136.088 26.7399
  136 28.4352 -136.088 26.7399
  137 263.996 2.57269 -6.44126
  138 263.996 2.57269 -6.44126
  139 250.943 8.72891 -0.462325
  140 250.943 8.72891 -0.462325
  141 256.961 4.46660 -0.0603938
  142 256.961 4.46660 -0.0603938
  143 264.620 -5.32590 18.6975
  144 264.620 -5.32590 18.6975
  145 184.023 -4.91206 43.8325
  146 266.669 -24.6182 37.2010
  147 182.279 10.5068 1.01473
  148 184.023 -4.91206 43.8325
  149 266.669 -24.6182 37.2010
  150 182.279 10.5068 1.01473
  151 238.701 4.32533 -19.8508
  152 238.701 4.32533 -19.8508
  153 445.416 13.0376 7.81332
  154 445.416 13.0376 7.81332
  155 462.368 10.7981 19.5261
  156 463.228 22.5463 38.5820
  157 462.368 10.7981 19.5261
  158 463.228 22.5463 38.5820
  159 259.801 3.00670 2.15717
  160 259.801 3.00670 2.15717
  161 162.919 -6.86938 -37.3441
  162 162.919 -6.86938 -37.3441
  163 259.815 2.92791 -2.11838
  164 259.815 2.92791 -2.11838
  165 261.396 3.53306 5.88167
  166 261.396 3.53306 5.88167
  167 305.883 -2.55033 7.61989
  168 298.917 -10.7957 -0.949568
  169 305.883 -2.55033 7.61989
  170 298.917 -10.7957 -0.949568
  171 329.588 -8.11900 1.76457
  172 329.588 -8.11900 1.76457
  173 251.145 7.91376 6.77272
  174 251.145 7.91376 6.77272
  175 125.758 -13.6910 50.5073
  176 125.758 -13.6910 50.5073
  177 111.634 -6.18648 -31.9120
  178 111.634 -6.18648 -31.9120
  179 253.294 8.52452 -6.48179
  180 253.294 8.52452 -6.48179
</Section>

newXOutput 76

<Section columns = "stress_xx | stress_yy | stress_xy">
  1 263.870 1.85235 -1.07479
  2 263.639 1.43738 0.966972
  3 263.870 1.85235 -1.07479
  4 263.639 1.43738 0.966972
  5 391.063 12.4586 99.2459
  6 385.267 9.86078 -92.1920
  7 391.063 12.4586 99.2459
  8 385.267 9.86078 -92.1920
  9 266.596 0.517432 -3.43755
  10 277.890 0.0595360 -5.66055
  11 285.095 -3.23820 -7.33984
  12 299.676 -1.51709 4.20699
  13 299.397 9.14455 2.79947
  14 300.462 -1.51102 -5.45593
  15 288.065 -5.03620 7.32891
  16 274.291 1.24285 6.61421
  17 266.854 1.75801 3.06056
  18 262.185 3.05760 0.534957
  19 260.669 3.09437 -0.0413537
  20 262.058 2.82061 -0.486020
  21 266.596 0.517432 -3.43755
  22 277.890 0.0595360 -5.66055
  23 285.095 -3.23820 -7.33984
  24 299.676 -1.51709 4.20699
  25 299.397 9.14455 2.79947
  26 300.462 -1.51102 -5.45593
  27 288.065 -5.03620 7.32891
  28 274.291 1.24285 6.61421
  29 266.854 1.75801 3.06056
  30 262.185 3.05760 0.534957
  31 260.669 3.09437 -0.0413537
  32 262.058 2.82061 -0.486020
  33 575.861 4.79499 42.5773
  34 501.646 4.99118 27.6634
  35 482.237 9.56176 11.0337
  36 467.630 5.71615 -2.86631
  37 494.713 1.80636 -10.5915
  38 506.672 9.71039 -25.1129
  39 527.636 35.1842 -52.5128
  40 130.417 -74.0568 -112.561
  41 26.2885 -140.451 -46.7231
  42 10.4295 -192.236 -14.9825
  43 7.08922 -203.941 -1.53594
  44 8.61203 -194.716 15.1125
  45 24.0994 -167.504 40.4438
  46 106.133 -74.9093 110.493
  47 575.861 4.79499 42.5773
  48 501.646 4.99118 27.6634
  49 482.237 9.56176 11.0337
  50 467.630 5.71615 -2.86631
  51 494.713 1.80636 -10.5915
  52 506.672 9.71039 -25.1129
  53 527.636 35.1842 -52.5128
  54 130.417 -74.0568 -112.561
  55 26.2885 -140.451 -46.7231
  56 10.4295 -192.236 -14.9825
  57 7.08922 -203.941 -1.53594
  58 8.61203 -194.716 15.1125
  59 24.0994 -167.504 40.4438
  60 106.133 -74.9093 110.493
  61 244.210 10.4263 -4.48782
  62 244.210 10.4263 -4.48782
  63 226.440 3.30200 24.3298
  64 219.866 1.47264 -29.6116
  65 226.440 3.30200 24.3298
  66 219.866 1.47264 -29.6116
  67 126.214 2.54554 8.16424
  68 126.214 2.54554 8.16424
  69 204.424 -37.9321 80.4807
  70 204.424 -37.9321 80.4807
  71 124.236 -36.3116 -64.5256
  72 307.266 -26.1548 -13.6779
  73 340.489 19.1434 -0.407198
  74 325.166 8.98468 -3.64500
  75 124.236 -36.3116 -64.5256
  76 307.266 -26.1548 -13.6779
  77 340.489 19.1434 -0.407198
  78 325.166 8.98468 -3.64500
  79 301.691 -14.0486 6.34270
  80 301.691 -14.0486 6.34270
  81 388.598 28.7604 1.97448
  82 388.598 28.7604 1.97448
  83 66.0473 -42.6558 -5.50613
  84 66.0473 -42.6558 -5.50613
  85 85.8664 -57.1710 55.7180
  86 85.8664 -57.1710 55.7180
  87 325.779 -18.8859 9.92048
  88 325.779 -18.8859 9.92048
  89 258.803 5.81635 3.74724
  90 259.905 6.35645 -3.82030
  91 258.803 5.81635 3.74724
  92 259.905 6.35645 -3.82030
  93 373.331 19.3757 12.9029
  94 373.331 19.3757 12.9029
  95 267.887 2.58378 11.0673
  96 267.887 2.58378 11.0673
  97 402.492 29.6240 -13.9607
  98 408.012 23.6333 -29.1329
  99 402.492 29.6240 -13.9607
  100 408.012 23.6333 -29.1329
  101 261.142 4.11273 -13.6062
  102 261.142 4.11273 -13.6062
  103 212.643 -42.0746 -94.8869
  104 212.643 -42.0746 -94.8869
  105 180.319 -48.3495 100.253
  106 180.319 -48.3495 100.253
  107 332.301 -25.8898 -35.8567
  108 332.301 -25.8898 -35.8567
  109 248.620 -30.7070 -55.6793
  110 248.620 -30.7070 -55.6793
  111 426.640 29.1375 21.6531
  112 426.640 29.1375 21.6531
  113 32.7036 -106.493 -36.9740
  114 32.7036 -106.493 -36.9740
  115 19.0444 -125.128 10.9972
  116 19.0444 -125.128 10.9972
  117 223.869 14.2772 -2.85130
  118 223.869 14.2772 -2.85130
  119 272.191 -10.6302 -21.5791
  120 272.191 -10.6302 -21.5791
  121 454.611 12.7834 -10.3457
  122 454.611 12.7834 -10.3457
  123 51.8256 -105.285 62.5161
  124 51.8256 -105.285 62.5161
  125 244.991 8.49601 12.6410
  126 244.991 8.49601 12.6410
  127 61.2439 -85.4441 -69.5607
  128 61.2439 -85.4441 -69.5607
  129 327.900 -22.4394 52.7308
  130 327.900 -22.4394 52.7308
  131 462.658 22.9217 -31.6306
  132 462.658 22.9217 -31.6306
  133 23.8408 -143.348 -10.5032
  134 23.8408 -143.348 -10.5032
  135 28.8112 -137.886 27.1229
  136 28.8112 -137.886 27.1229
  137 267.452 2.60578 -6.52327
  138 267.452 2.60578 -6.52327
  139 254.239 8.84153 -0.468240
  140 254.239 8.84153 -0.468240
  141 260.331 4.52372 -0.0611484
  142 260.331 4.52372 -0.0611484
  143 268.083 -5.39640 18.9429
  144 268.083 -5.39640 18.9429
  145 186.457 -4.97432 44.4109
  146 270.150 -24.9424 37.6980
  147 184.700 10.6481 1.02885
  148 186.457 -4.97432 44.4109
  149 270.150 -24.9424 37.6980
  150 184.700 10.6481 1.02885
  151 241.840 4.38220 -20.1083
  152 241.840 4.38220 -20.1083
  153 451.129 13.2011 7.91567
  154 451.129 13.2011 7.91567
  155 468.286 10.9339 19.7774
  156 469.159 22.8547 39.0987
  157 468.286 10.9339 19.7774
  158 469.159 22.8547 39.0987
  159 263.205 3.04519 2.18405
  160 263.205 3.04519 2.18405
  161 165.082 -6.95692 -37.8381
  162 165.082 -6.95692 -37.8381
  163 263.219 2.96539 -2.14477
  164 263.219 2.96539 -2.14477
  165 264.820 3.57859 5.95584
  166 264.820 3.57859 5.95584
  167 309.880 -2.58141 7.70476
  168 302.815 -10.9384 -0.971885
  169 309.880 -2.58141 7.70476
  170 302.815 -10.9384 -0.971885
  171 333.875 -8.21765 1.76067
  172 333.875 -8.21765 1.76067
  173 254.443 8.01625 6.85895
  174 254.443 8.01625 6.85895
  175 127.431 -13.8638 51.1824
  176 127.431 -13.8638 51.1824
  177 113.127 -6.25746 -32.3381
  178 113.127 -6.25746 -32.3381
  179 256.620 8.63496 -6.56452
  180 256.620 8.63496 -6.56452
</Section>

newXOutput 77

<Section columns = "stress_xx | stress_yy | stress_xy">
  1 267.279 1.87568 -1.08795
  2 267.045 1.45543 0.978791
  3 267.279 1.87568 -1.08795
  4 267.045 1.45543 0.978791
  5 395.992 12.6735 100.559
  6 390.139 10.0425 -93.4219
  7 395.992 12.6735 100.559
  8 390.139 10.0425 -93.4219
  9 270.038 0.523661 -3.48022
  10 281.470 0.0603388 -5.73146
  11 288.767 -3.28084 -7.43610
  12 303.540 -1.53672 4.25307
  13 303.272 9.26451 2.83312
  14 304.337 -1.53006 -5.51625
  15 291.773 -5.10213 7.42544
  16 277.827 1.25853 6.69710
  17 270.299 1.78026 3.09821
  18 265.575 3.09603 0.541501
  19 264.041 3.13320 -0.0418529
  20 265.446 2.85604 -0.491970
  21 270.038 0.523661 -3.48022
  22 281.470 0.0603388 -5.73146
  23 288.767 -3.28084 -7.43610
  24 303.540 -1.53672 4.25307
  25 303.272 9.26451 2.83312
  26 304.337 -1.53006 -5.51625
  27 291.773 -5.10213 7.42544
  28 277.827 1.25853 6.69710
  29 270.299 1.78026 3.09821
  30 265.575 3.09603 0.541501
  31 264.041 3.13320 -0.0418529
  32 265.446 2.85604 -0.491970
  33 583.047 4.85811 43.1233
  34 507.939 5.04836 28.0149
  35 488.295 9.68038 11.1710
  36 473.515 5.78450 -2.90122
  37 500.909 1.82815 -10.7245
  38 513.026 9.83382 -25.4300
  39 534.260 35.6522 -53.1989
  40 132.084 -74.9557 -114.076
  41 26.6313 -142.263 -47.3746
  42 10.5625 -194.779 -15.1961
  43 7.17580 -206.651 -1.55585
  44 8.71914 -197.291 15.3271
  45 24.4127 -169.681 41.0127
  46 107.492 -75.8191 111.983
  47 583.047 4.85811 43.1233
  48 507.939 5.04836 28.0149
  49 488.295 9.68038 11.1710
  50 473.515 5.78450 -2.90122
  51 500.909 1.82815 -10.7245
  52 513.026 9.83382 -25.4300
  53 534.260 35.6522 -53.1989
  54 132.084 -74.9557 -114.076
  55 26.6313 -142.263 -47.3746
  56 10.5625 -194.779 -15.1961
  57 7.17580 -206.651 -1.55585
  58 8.71914 -197.291 15.3271
  59 24.4127 -169.681 41.0127
  60 107.492 -75.8191 111.983
  61 247.379 10.5603 -4.54483
  62 247.379 10.5603 -4.54483
  63 229.383 3.34576 24.6437
  64 222.725 1.49266 -29.9935
  65 229.383 3.34576 24.6437
  66 222.725 1.49266 -29.9935
  67 127.880 2.58696 8.27133
  68 127.880 2.58696 8.27133
  69 207.062 -38.4265 81.5407
  70 207.062 -38.4265 81.5407
  71 125.858 -36.7760 -65.3848
  72 311.211 -26.4929 -13.8708
  73 344.869 19.3945 -0.424507
  74 329.352 9.10365 -3.67788
  75 125.858 -36.7760 -65.3848
  76 311.211 -26.4929 -13.8708
  77 344.869 19.3945 -0.424507
  78 329.352 9.10365 -3.67788
  79 305.571 -14.2303 6.43648
  80 305.571 -14.2303 6.43648
  81 393.565 29.1283 2.00522
  82 393.565 29.1283 2.00522
  83 66.9199 -43.1968 -5.58049
  84 66.9199 -43.1968 -5.58049
  85 86.9870 -57.9032 56.4698
  86 86.9870 -57.9032 56.4698
  87 329.956 -19.1248 10.0736
  88 329.956 -19.1248 10.0736
  89 262.152 5.89007 3.79366
  90 263.267 6.43716 -3.86764
  91 262.152 5.89007 3.79366
  92 263.267 6.43716 -3.86764
  93 378.105 19.6363 13.0955
  94 378.105 19.6363 13.0955
  95 271.346 2.61649 11.2075
  96 271.346 2.61649 11.2075
  97 407.630 30.0035 -14.1504
  98 413.204 23.9541 -29.5341
  99 407.630 30.0035 -14.1504
  100 413.204 23.9541 -29.5341
  101 264.519 4.16525 -13.7795
  102 264.519 4.16525 -13.7795
  103 215.364 -42.5930 -96.1540
  104 215.364 -42.5930 -96.1540
  105 182.630 -48.9483 101.595
  106 182.630 -48.9483 101.595
  107 336.546 -26.2114 -36.3526
  108 336.546 -26.2114 -36.3526
  109 251.824 -31.1063 -56.4108
  110 251.824 -31.1063 -56.4108
  111 432.064 29.5128 21.9404
  112 432.064 29.5128 21.9404
  113 33.1332 -107.873 -37.4839
  114 33.1332 -107.873 -37.4839
  115 19.2919 -126.762 11.1513
  116 19.2919 -126.762 11.1513
  117 226.784 14.4628 -2.88743
  118 226.784 14.4628 -2.88743
  119 275.701 -10.7687 -21.8610
  120 275.701 -10.7687 -21.8610
  121 460.353 12.9423 -10.4766
  122 460.353 12.9423 -10.4766
  123 52.5043 -106.631 63.3794
  124 52.5043 -106.631 63.3794
  125 248.169 8.60552 12.8020
  126 248.169 8.60552 12.8020
  127 62.0468 -86.5311 -70.5124
  128 62.0468 -86.5311 -70.5124
  129 332.089 -22.7150 53.4437
  130 332.089 -22.7150 53.4437
  131 468.502 23.2146 -32.0423
  132 468.502 23.2146 -32.0423
  133 24.1503 -145.228 -10.6484
  134 24.1503 -145.228 -10.6484
  135 29.1871 -139.682 27.5065
  136 29.1871 -139.682 27.5065
  137 270.905 2.63883 -6.60514
  138 270.905 2.63883 -6.60514
  139 257.533 8.95402 -0.474147
  140 257.533 8.95402 -0.474147
  141 263.699 4.58076 -0.0619013
  142 263.699 4.58076 -0.0619013
  143 271.543 -5.46686 19.1882
  144 271.543 -5.46686 19.1882
  145 188.890 -5.03648 44.9890
  146 273.627 -25.2664 38.1949
  147 187.119 10.7894 1.04299
  148 188.890 -5.03648 44.9890
  149 273.627 -25.2664 38.1949
  150 187.119 10.7894 1.04299
  151 244.976 4.43902 -20.3655
  152 244.976 4.43902 -20.3655
  153 456.833 13.3642 8.01792
  154 456.833 13.3642 8.01792
  155 474.195 11.0695 20.0284
  156 475.082 23.1632 39.6153
  157 474.195 11.0695 20.0284
  158 475.082 23.1632 39.6153
  159 266.607 3.08363 2.21088
  160 266.607 3.08363 2.21088
  161 167.244 -7.04432 -38.3318
  162 167.244 -7.04432 -38.3318
  163 266.621 3.00282 -2.17110
  164 266.621 3.00282 -2.17110
  165 268.241 3.62406 6.02987
  166 268.241 3.62406 6.02987
  167 313.872 -2.61240 7.78917
  168 306.709 -11.0810 -0.994437
  169 313.872 -2.61240 7.78917
  170 306.709 -11.0810 -0.994437
  171 338.159 -8.31601 1.75607
  172 338.159 -8.31601 1.75607
  173 257.739 8.11862 6.94504
  174 257.739 8.11862 6.94504
  175 129.103 -14.0363 51.8572
  176 129.103 -14.0363 51.8572
  177 114.620 -6.32811 -32.7641
  178 114.620 -6.32811 -32.7641
  179 259.942 8.74528 -6.64713
  180 259.942 8.74528 -6.64713
</Section>

newXOutput 78

<Section columns = "stress_xx | stress_yy | stress_xy">
  1 270.686 1.89898 -1.10108
  2 270.449 1.47346 0.990584
  3 270.686 1.89898 -1.10108
  4 270.449 1.47346 0.990584
  5 400.913 12.8897 101.871
  6 395.004 10.2254 -94.6517
  7 400.913 12.8897 101.871
  8 395.004 10.2254 -94.6517
  9 273.478 0.529873 -3.52282
  10 285.046 0.0611418 -5.80226
  11 292.435 -3.32345 -7.53231
  12 307.401 -1.55634 4.29889
  13 307.144 9.38443 2.86667
  14 308.208 -1.54908 -5.57627
  15 295.478 -5.16803 7.52194
  16 281.359 1.27419 6.77985
  17 273.741 1.80248 3.13578
  18 268.962 3.13440 0.548030
  19 267.410 3.17196 -0.0423507
  20 268.831 2.89141 -0.497905
  21 273.478 0.529873 -3.52282
  22 285.046 0.0611418 -5.80226
  23 292.435 -3.32345 -7.53231
  24 307.401 -1.55634 4.29889
  25 307.144 9.38443 2.86667
  26 308.208 -1.54908 -5.57627
  27 295.478 -5.16803 7.52194
  28 281.359 1.27419 6.77985
  29 273.741 1.80248 3.13578
  30 268.962 3.13440 0.548030
  31 267.410 3.17196 -0.0423507
  32 268.831 2.89141 -0.497905
  33 590.220 4.92120 43.6688
  34 514.223 5.10531 28.3659
  35 494.345 9.79878 11.3082
  36 479.392 5.85267 -2.93606
  37 507.095 1.84989 -10.8572
  38 519.371 9.95710 -25.7467
  39 540.874 36.1203 -53.8846
  40 133.748 -75.8522 -115.591
  41 26.9739 -144.073 -48.0268
  42 10.6953 -197.322 -15.4100
  43 7.26217 -209.361 -1.57573
  44 8.82605 -199.864 15.5420
  45 24.7258 -171.857 41.5824
  46 108.850 -76.7266 113.473
  47 590.220 4.92120 43.6688
  48 514.223 5.10531 28.3659
  49 494.345 9.79878 11.3082
  50 479.392 5.85267 -2.93606
  51 507.095 1.84989 -10.8572
  52 519.371 9.95710 -25.7467
  53 540.874 36.1203 -53.8846
  54 133.748 -75.8522 -115.591
  55 26.9739 -144.073 -48.0268
  56 10.6953 -197.322 -15.4100
  57 7.26217 -209.361 -1.57573
  58 8.82605 -199.864 15.5420
  59 24.7258 -171.857 41.5824
  60 108.850 -76.7266 113.473
  61 250.547 10.6943 -4.60177
  62 250.547 10.6943 -4.60177
  63 232.324 3.38952 24.9573
  64 225.581 1.51269 -30.3751
  65 232.324 3.38952 24.9573
  66 225.581 1.51269 -30.3751
  67 129.545 2.62856 8.37837
  68 129.545 2.62856 8.37837
  69 209.698 -38.9206 82.6003
  70 209.698 -38.9206 82.6003
  71 127.479 -37.2398 -66.2440
  72 315.152 -26.8308 -14.0639
  73 349.245 19.6455 -0.442105
  74 333.534 9.22260 -3.71038
  75 127.479 -37.2398 -66.2440
  76 315.152 -26.8308 -14.0639
  77 349.245 19.6455 -0.442105
  78 333.534 9.22260 -3.71038
  79 309.448 -14.4120 6.53048
  80 309.448 -14.4120 6.53048
  81 398.527 29.4959 2.03606
  82 398.527 29.4959 2.03606
  83 67.7924 -43.7370 -5.65488
  84 67.7924 -43.7370 -5.65488
  85 88.1069 -58.6346 57.2219
  86 88.1069 -58.6346 57.2219
  87 334.130 -19.3635 10.2273
  88 334.130 -19.3635 10.2273
  89 265.498 5.96369 3.84000
  90 266.627 6.51776 -3.91488
  91 265.498 5.96369 3.84000
  92 266.627 6.51776 -3.91488
  93 382.875 19.8970 13.2885
  94 382.875 19.8970 13.2885
  95 274.802 2.64916 11.3475
  96 274.802 2.64916 11.3475
  97 412.762 30.3827 -14.3403
  98 418.390 24.2751 -29.9356
  99 412.762 30.3827 -14.3403
  100 418.390 24.2751 -29.9356
  101 267.893 4.21771 -13.9526
  102 267.893 4.21771 -13.9526
  103 218.081 -43.1103 -97.4211
  104 218.081 -43.1103 -97.4211
  105 184.939 -49.5458 102.937
  106 184.939 -49.5458 102.937
  107 340.786 -26.5323 -36.8488
  108 340.786 -26.5323 -36.8488
  109 255.025 -31.5053 -57.1421
  110 255.025 -31.5053 -57.1421
  111 437.480 29.8878 22.2276
  112 437.480 29.8878 22.2276
  113 33.5626 -109.252 -37.9942
  114 33.5626 -109.252 -37.9942
  115 19.5393 -128.396 11.3056
  116 19.5393 -128.396 11.3056
  117 229.696 14.6483 -2.92352
  118 229.696 14.6483 -2.92352
  119 279.208 -10.9071 -22.1428
  120 279.208 -10.9071 -22.1428
  121 466.088 13.1009 -10.6073
  122 466.088 13.1009 -10.6073
  123 53.1826 -107.975 64.2435
  124 53.1826 -107.975 64.2435
  125 251.344 8.71494 12.9628
  126 251.344 8.71494 12.9628
  127 62.8493 -87.6168 -71.4648
  128 62.8493 -87.6168 -71.4648
  129 336.272 -22.9899 54.1568
  130 336.272 -22.9899 54.1568
  131 474.338 23.5072 -32.4538
  132 474.338 23.5072 -32.4538
  133 24.4597 -147.107 -10.7938
  134 24.4597 -147.107 -10.7938
  135 29.5627 -141.478 27.8906
  136 29.5627 -141.478 27.8906
  137 274.356 2.67183 -6.68689
  138 274.356 2.67183 -6.68689
  139 260.825 9.06636 -0.480046
  140 260.825 9.06636 -0.480046
  141 267.064 4.63772 -0.0626527
  142 267.064 4.63772 -0.0626527
  143 275.000 -5.53728 19.4332
  144 275.000 -5.53728 19.4332
  145 191.322 -5.09854 45.5667
  146 277.102 -25.5902 38.6916
  147 189.538 10.9307 1.05713
  148 191.322 -5.09854 45.5667
  149 277.102 -25.5902 38.6916
  150 189.538 10.9307 1.05713
  151 248.111 4.49581 -20.6224
  152 248.111 4.49581 -20.6224
  153 462.530 13.5271 8.12009
  154 462.530 13.5271 8.12009
  155 480.097 11.2048 20.2791
  156 480.996 23.4718 40.1317
  157 480.097 11.2048 20.2791
  158 480.996 23.4718 40.1317
  159 270.006 3.12201 2.23765
  160 270.006 3.12201 2.23765
  161 169.404 -7.13159 -38.8252
  162 169.404 -7.13159 -38.8252
  163 270.020 3.04020 -2.19738
  164 270.020 3.04020 -2.19738
  165 271.659 3.66948 6.10377
  166 271.659 3.66948 6.10377
  167 317.862 -2.64331 7.87312
  168 310.599 -11.2236 -1.01722
  169 317.862 -2.64331 7.87312
  170 310.599 -11.2236 -1.01722
  171 342.437 -8.41407 1.75079
  172 342.437 -8.41407 1.75079
  173 261.032 8.22088 7.03100
  174 261.032 8.22088 7.03100
  175 130.775 -14.2085 52.5318
  176 130.775 -14.2085 52.5318
  177 116.112 -6.39845 -33.1900
  178 116.112 -6.39845 -33.1900
  179 263.262 8.85548 -6.72961
  180 263.262 8.85548 -6.72961
</Section>

newXOutput 79

<Section columns = "stress_xx | stress_yy | stress_xy">
  1 274.090 1.92225 -1.11418
  2 273.850 1.49146 1.00235
  3 274.090 1.92225 -1.11418
  4 273.850 1.49146 1.00235
  5 405.827 13.1070 103.183
  6 399.862 10.4096 -95.8814
  7 405.827 13.1070 103.183
  8 399.862 10.4096 -95.8814
  9 276.914 0.536068 -3.56534
  10 288.619 0.0619452 -5.87294
  11 296.100 -3.36606 -7.62848
  12 311.259 -1.57594 4.34447
  13 311.012 9.50429 2.90013
  14 312.076 -1.56806 -5.63598
  15 299.179 -5.23390 7.61841
  16 284.889 1.28983 6.86247
  17 277.180 1.82466 3.17327
  18 272.346 3.17270 0.554544
  19 270.777 3.21066 -0.0428472
  20 272.214 2.92673 -0.503828
  21 276.914 0.536068 -3.56534
  22 288.619 0.0619452 -5.87294
  23 296.100 -3.36606 -7.62848
  24 311.259 -1.57594 4.34447
  25 311.012 9.50429 2.90013
  26 312.076 -1.56806 -5.63598
  27 299.179 -5.23390 7.61841
  28 284.889 1.28983 6.86247
  29 277.180 1.82466 3.17327
  30 272.346 3.17270 0.554544
  31 270.777 3.21066 -0.0428472
  32 272.214 2.92673 -0.503828
  33 597.381 4.98427 44.2137
  34 520.497 5.16203 28.7165
  35 500.385 9.91696 11.4450
  36 485.260 5.92064 -2.97081
  37 513.271 1.87157 -10.9898
  38 525.705 10.0802 -26.0629
  39 547.477 36.5882 -54.5699
  40 135.411 -76.7464 -117.106
  41 27.3163 -145.882 -48.6798
  42 10.8280 -199.864 -15.6243
  43 7.34835 -212.070 -1.59561
  44 8.93277 -202.438 15.7573
  45 25.0387 -174.032 42.1528
  46 110.206 -77.6318 114.963
  47 597.381 4.98427 44.2137
  48 520.497 5.16203 28.7165
  49 500.385 9.91696 11.4450
  50 485.260 5.92064 -2.97081
  51 513.271 1.87157 -10.9898
  52 525.705 10.0802 -26.0629
  53 547.477 36.5882 -54.5699
  54 135.411 -76.7464 -117.106
  55 27.3163 -145.882 -48.6798
  56 10.8280 -199.864 -15.6243
  57 7.34835 -212.070 -1.59561
  58 8.93277 -202.438 15.7573
  59 25.0387 -174.032 42.1528
  60 110.206 -77.6318 114.963
  61 253.712 10.8281 -4.65863
  62 253.712 10.8281 -4.65863
  63 235.262 3.43326 25.2707
  64 228.436 1.53273 -30.7564
  65 235.262 3.43326 25.2707
  66 228.436 1.53273 -30.7564
  67 131.210 2.67035 8.48536
  68 131.210 2.67035 8.48536
  69 212.332 -39.4144 83.6595
  70 212.332 -39.4144 83.6595
  71 129.100 -37.7031 -67.1032
  72 319.089 -27.1683 -14.2573
  73 353.616 19.8964 -0.459992
  74 337.713 9.34153 -3.74249
  75 129.100 -37.7031 -67.1032
  76 319.089 -27.1683 -14.2573
  77 353.616 19.8964 -0.459992
  78 337.713 9.34153 -3.74249
  79 313.321 -14.5934 6.62470
  80 313.321 -14.5934 6.62470
  81 403.483 29.8631 2.06701
  82 403.483 29.8631 2.06701
  83 68.6647 -44.2765 -5.72930
  84 68.6647 -44.2765 -5.72930
  85 89.2262 -59.3652 57.9741
  86 89.2262 -59.3652 57.9741
  87 338.299 -19.6017 10.3815
  88 338.299 -19.6017 10.3815
  89 268.842 6.03722 3.88625
  90 269.984 6.59827 -3.96203
  91 268.842 6.03722 3.88625
  92 269.984 6.59827 -3.96203
  93 387.639 20.1578 13.4820
  94 387.639 20.1578 13.4820
  95 278.255 2.68179 11.4873
  96 278.255 2.68179 11.4873
  97 417.889 30.7614 -14.5302
  98 423.570 24.5961 -30.3374
  99 417.889 30.7614 -14.5302
  100 423.570 24.5961 -30.3374
  101 271.264 4.27012 -14.1255
  102 271.264 4.27012 -14.1255
  103 220.795 -43.6264 -98.6881
  104 220.795 -43.6264 -98.6881
  105 187.245 -50.1422 104.280
  106 187.245 -50.1422 104.280
  107 345.022 -26.8527 -37.3454
  108 345.022 -26.8527 -37.3454
  109 258.223 -31.9041 -57.8730
  110 258.223 -31.9041 -57.8730
  111 442.890 30.2624 22.5148
  112 442.890 30.2624 22.5148
  113 33.9918 -110.630 -38.5050
  114 33.9918 -110.630 -38.5050
  115 19.7866 -130.028 11.4600
  116 19.7866 -130.028 11.4600
  117 232.608 14.8337 -2.95956
  118 232.608 14.8337 -2.95956
  119 282.712 -11.0454 -22.4244
  120 282.712 -11.0454 -22.4244
  121 471.814 13.2592 -10.7379
  122 471.814 13.2592 -10.7379
  123 53.8606 -109.318 65.1084
  124 53.8606 -109.318 65.1084
  125 254.517 8.82426 13.1235
  126 254.517 8.82426 13.1235
  127 63.6514 -88.7011 -72.4178
  128 63.6514 -88.7011 -72.4178
  129 340.451 -23.2643 54.8701
  130 340.451 -23.2643 54.8701
  131 480.166 23.7995 -32.8650
  132 480.166 23.7995 -32.8650
  133 24.7689 -148.986 -10.9392
  134 24.7689 -148.986 -10.9392
  135 29.9381 -143.272 28.2753
  136 29.9381 -143.272 28.2753
  137 277.803 2.70479 -6.76851
  138 277.803 2.70479 -6.76851
  139 264.114 9.17858 -0.485936
  140 264.114 9.17858 -0.485936
  141 270.426 4.69460 -0.0634026
  142 270.426 4.69460 -0.0634026
  143 278.455 -5.60767 19.6780
  144 278.455 -5.60767 19.6780
  145 193.752 -5.16050 46.1440
  146 280.573 -25.9138 39.1881
  147 191.955 11.0720 1.07129
  148 193.752 -5.16050 46.1440
  149 280.573 -25.9138 39.1881
  150 191.955 11.0720 1.07129
  151 251.243 4.55256 -20.8791
  152 251.243 4.55256 -20.8791
  153 468.220 13.6896 8.22217
  154 468.220 13.6896 8.22217
  155 485.989 11.3399 20.5294
  156 486.902 23.7805 40.6479
  157 485.989 11.3399 20.5294
  158 486.902 23.7805 40.6479
  159 273.402 3.16033 2.26436
  160 273.402 3.16033 2.26436
  161 171.564 -7.21873 -39.3183
  162 171.564 -7.21873 -39.3183
  163 273.417 3.07752 -2.22360
  164 273.417 3.07752 -2.22360
  165 275.075 3.71484 6.17753
  166 275.075 3.71484 6.17753
  167 321.847 -2.67412 7.95662
  168 314.486 -11.3661 -1.04024
  169 321.847 -2.67412 7.95662
  170 314.486 -11.3661 -1.04024
  171 346.712 -8.51185 1.74481
  172 346.712 -8.51185 1.74481
  173 264.323 8.32303 7.11683
  174 264.323 8.32303 7.11683
  175 132.447 -14.3803 53.2062
  176 132.447 -14.3803 53.2062
  177 117.604 -6.46848 -33.6157
  178 117.604 -6.46848 -33.6157
  179 266.580 8.96556 -6.81197
  180 266.580 8.96556 -6.81197
</Section>

newXOutput 80

<Section columns = "stress_xx | stress_yy | stress_xy">
  1 277.491 1.94548 -1.12726
  2 277.248 1.50943 1.01409
  3 277.491 1.94548 -1.12726
  4 277.248 1.50943 1.01409
  5 410.734 13.3256 104.495
  6 404.714 10.5951 -97.1111
  7 410.734 13.3256 104.495
  8 404.714 10.5951 -97.1111
  9 280.347 0.542246 -3.60778
  10 292.188 0.0627489 -5.94351
  11 299.762 -3.40865 -7.72461
  12 315.113 -1.59552 4.38981
  13 314.878 9.62411 2.93350
  14 315.941 -1.58701 -5.69538
  15 302.877 -5.29974 7.71484
  16 288.416 1.30545 6.94495
  17 280.617 1.84682 3.21068
  18 275.728 3.21095 0.561044
  19 274.140 3.24930 -0.0433425
  20 275.594 2.96199 -0.509738
  21 280.347 0.542246 -3.60778
  22 292.188 0.0627489 -5.94351
  23 299.762 -3.40865 -7.72461
  24 315.113 -1.59552 4.38981
  25 314.878 9.62411 2.93350
  26 315.941 -1.58701 -5.69538
  27 302.877 -5.29974 7.71484
  28 288.416 1.30545 6.94495
  29 280.617 1.84682 3.21068
  30 275.728 3.21095 0.561044
  31 274.140 3.24930 -0.0433425
  32 275.594 2.96199 -0.509738
  33 604.529 5.04732 44.7580
  34 526.761 5.21852 29.0667
  35 506.416 10.0349 11.5817
  36 491.119 5.98842 -3.00548
  37 519.437 1.89320 -11.1222
  38 532.030 10.2032 -26.3787
  39 554.071 37.0562 -55.2547
  40 137.072 -77.6384 -118.621
  41 27.6584 -147.689 -49.3334
  42 10.9605 -202.406 -15.8390
  43 7.43432 -214.780 -1.61546
  44 9.03929 -205.011 15.9729
  45 25.3514 -176.204 42.7240
  46 111.561 -78.5347 116.454
  47 604.529 5.04732 44.7580
  48 526.761 5.21852 29.0667
  49 506.416 10.0349 11.5817
  50 491.119 5.98842 -3.00548
  51 519.437 1.89320 -11.1222
  52 532.030 10.2032 -26.3787
  53 554.071 37.0562 -55.2547
  54 137.072 -77.6384 -118.621
  55 27.6584 -147.689 -49.3334
  56 10.9605 -202.406 -15.8390
  57 7.43432 -214.780 -1.61546
  58 9.03929 -205.011 15.9729
  59 25.3514 -176.204 42.7240
  60 111.561 -78.5347 116.454
  61 256.875 10.9618 -4.71542
  62 256.875 10.9618 -4.71542
  63 238.199 3.47700 25.5837
  64 231.288 1.55278 -31.1373
  65 238.199 3.47700 25.5837
  66 231.288 1.55278 -31.1373
  67 132.875 2.71232 8.59231
  68 132.875 2.71232 8.59231
  69 214.964 -39.9079 84.7184
  70 214.964 -39.9079 84.7184
  71 130.719 -38.1659 -67.9623
  72 323.022 -27.5056 -14.4510
  73 357.983 20.1473 -0.478167
  74 341.888 9.46043 -3.77421
  75 130.719 -38.1659 -67.9623
  76 323.022 -27.5056 -14.4510
  77 357.983 20.1473 -0.478167
  78 341.888 9.46043 -3.77421
  79 317.190 -14.7748 6.71915
  80 317.190 -14.7748 6.71915
  81 408.433 30.2298 2.09805
  82 408.433 30.2298 2.09805
  83 69.5368 -44.8153 -5.80374
  84 69.5368 -44.8153 -5.80374
  85 90.3448 -60.0951 58.7266
  86 90.3448 -60.0951 58.7266
  87 342.463 -19.8397 10.5361
  88 342.463 -19.8397 10.5361
  89 272.183 6.11065 3.93241
  90 273.339 6.67867 -4.00909
  91 272.183 6.11065 3.93241
  92 273.339 6.67867 -4.00909
  93 392.398 20.4186 13.6761
  94 392.398 20.4186 13.6761
  95 281.705 2.71437 11.6270
  96 281.705 2.71437 11.6270
  97 423.009 31.1398 -14.7201
  98 428.743 24.9174 -30.7395
  99 423.009 31.1398 -14.7201
  100 428.743 24.9174 -30.7395
  101 274.633 4.32246 -14.2982
  102 274.633 4.32246 -14.2982
  103 223.507 -44.1415 -99.9552
  104 223.507 -44.1415 -99.9552
  105 189.550 -50.7375 105.622
  106 189.550 -50.7375 105.622
  107 349.253 -27.1725 -37.8425
  108 349.253 -27.1725 -37.8425
  109 261.419 -32.3026 -58.6037
  110 261.419 -32.3026 -58.6037
  111 448.294 30.6367 22.8019
  112 448.294 30.6367 22.8019
  113 34.4209 -112.007 -39.0163
  114 34.4209 -112.007 -39.0163
  115 20.0337 -131.660 11.6147
  116 20.0337 -131.660 11.6147
  117 235.517 15.0189 -2.99555
  118 235.517 15.0189 -2.99555
  119 286.213 -11.1837 -22.7059
  120 286.213 -11.1837 -22.7059
  121 477.533 13.4173 -10.8683
  122 477.533 13.4173 -10.8683
  123 54.5383 -110.659 65.9740
  124 54.5383 -110.659 65.9740
  125 257.688 8.93348 13.2839
  126 257.688 8.93348 13.2839
  127 64.4532 -89.7841 -73.3714
  128 64.4532 -89.7841 -73.3714
  129 344.625 -23.5380 55.5836
  130 344.625 -23.5380 55.5836
  131 485.986 24.0915 -33.2759
  132 485.986 24.0915 -33.2759
  133 25.0779 -150.863 -11.0848
  134 25.0779 -150.863 -11.0848
  135 30.3133 -145.066 28.6606
  136 30.3133 -145.066 28.6606
  137 281.248 2.73771 -6.85000
  138 281.248 2.73771 -6.85000
  139 267.400 9.29065 -0.491818
  140 267.400 9.29065 -0.491818
  141 273.786 4.75139 -0.0641509
  142 273.786 4.75139 -0.0641509
  143 281.906 -5.67801 19.9226
  144 281.906 -5.67801 19.9226
  145 196.181 -5.22235 46.7209
  146 284.041 -26.2371 39.6845
  147 194.372 11.2132 1.08545
  148 196.181 -5.22235 46.7209
  149 284.041 -26.2371 39.6845
  150 194.372 11.2132 1.08545
  151 254.373 4.60926 -21.1354
  152 254.373 4.60926 -21.1354
  153 473.901 13.8518 8.32416
  154 473.901 13.8518 8.32416
  155 491.874 11.4747 20.7794
  156 492.800 24.0892 41.1640
  157 491.874 11.4747 20.7794
  158 492.800 24.0892 41.1640
  159 276.796 3.19861 2.29101
  160 276.796 3.19861 2.29101
  161 173.723 -7.30574 -39.8111
  162 173.723 -7.30574 -39.8111
  163 276.810 3.11479 -2.24976
  164 276.810 3.11479 -2.24976
  165 278.488 3.76015 6.25116
  166 278.488 3.76015 6.25116
  167 325.830 -2.70485 8.03967
  168 318.369 -11.5085 -1.06350
  169 325.830 -2.70485 8.03967
  170 318.369 -11.5085 -1.06350
  171 350.983 -8.60935 1.73815
  172 350.983 -8.60935 1.73815
  173 267.611 8.42506 7.20252
  174 267.611 8.42506 7.20252
  175 134.117 -14.5519 53.8804
  176 134.117 -14.5519 53.8804
  177 119.095 -6.53818 -34.0413
  178 119.095 -6.53818 -34.0413
  179 269.895 9.07551 -6.89420
  180 269.895 9.07551 -6.89420
</Section>

newXOutput 81

<Section columns = "stress_xx | stress_yy | stress_xy">
  1 280.889 1.96867 -1.14030
  2 280.644 1.52738 1.02580
  3 280.889 1.96867 -1.14030
  4 280.644 1.52738 1.02580
  5 415.634 13.5454 105.807
  6 409.559 10.7818 -98.3406
  7 415.634 13.5454 105.807
  8 409.559 10.7818 -98.3406
  9 283.778 0.548408 -3.65014
  10 295.755 0.0635529 -6.01396
  11 303.421 -3.45122 -7.82069
  12 318.964 -1.61509 4.43489
  13 318.741 9.74388 2.96678
  14 319.802 -1.60594 -5.75447
  15 306.571 -5.36555 7.81124
  16 291.939 1.32104 7.02730
  17 284.051 1.86895 3.24801
  18 279.106 3.24914 0.567529
  19 277.502 3.28788 -0.0438365
  20 278.971 2.99720 -0.515634
  21 283.778 0.548408 -3.65014
  22 295.755 0.0635529 -6.01396
  23 303.421 -3.45122 -7.82069
  24 318.964 -1.61509 4.43489
  25 318.741 9.74388 2.96678
  26 319.802 -1.60594 -5.75447
  27 306.571 -5.36555 7.81124
  28 291.939 1.32104 7.02730
  29 284.051 1.86895 3.24801
  30 279.106 3.24914 0.567529
  31 277.502 3.28788 -0.0438365
  32 278.971 2.99720 -0.515634
  33 611.666 5.11034 45.3017
  34 533.015 5.27478 29.4164
  35 512.437 10.1527 11.7181
  36 496.970 6.05602 -3.04007
  37 525.593 1.91478 -11.2544
  38 538.344 10.3260 -26.6940
  39 560.654 37.5241 -55.9392
  40 138.731 -78.5281 -120.137
  41 28.0004 -149.494 -49.9878
  42 11.0928 -204.947 -16.0540
  43 7.52009 -217.489 -1.63531
  44 9.14561 -207.583 16.1888
  45 25.6639 -178.376 43.2959
  46 112.914 -79.4353 117.945
  47 611.666 5.11034 45.3017
  48 533.015 5.27478 29.4164
  49 512.437 10.1527 11.7181
  50 496.970 6.05602 -3.04007
  51 525.593 1.91478 -11.2544
  52 538.344 10.3260 -26.6940
  53 560.654 37.5241 -55.9392
  54 138.731 -78.5281 -120.137
  55 28.0004 -149.494 -49.9878
  56 11.0928 -204.947 -16.0540
  57 7.52009 -217.489 -1.63531
  58 9.14561 -207.583 16.1888
  59 25.6639 -178.376 43.2959
  60 112.914 -79.4353 117.945
  61 260.036 11.0953 -4.77214
  62 260.036 11.0953 -4.77214
  63 241.134 3.52073 25.8965
  64 234.139 1.57284 -31.5179
  65 241.134 3.52073 25.8965
  66 234.139 1.57284 -31.5179
  67 134.539 2.75447 8.69921
  68 134.539 2.75447 8.69921
  69 217.593 -40.4012 85.7769
  70 217.593 -40.4012 85.7769
  71 132.338 -38.6283 -68.8214
  72 326.952 -27.8427 -14.6449
  73 362.346 20.3980 -0.496629
  74 346.059 9.57932 -3.80555
  75 132.338 -38.6283 -68.8214
  76 326.952 -27.8427 -14.6449
  77 362.346 20.3980 -0.496629
  78 346.059 9.57932 -3.80555
  79 321.056 -14.9560 6.81382
  80 321.056 -14.9560 6.81382
  81 413.378 30.5962 2.12920
  82 413.378 30.5962 2.12920
  83 70.4086 -45.3535 -5.87820
  84 70.4086 -45.3535 -5.87820
  85 91.4629 -60.8242 59.4793
  86 91.4629 -60.8242 59.4793
  87 346.624 -20.0773 10.6913
  88 346.624 -20.0773 10.6913
  89 275.522 6.18398 3.97849
  90 276.690 6.75897 -4.05607
  91 275.522 6.18398 3.97849
  92 276.690 6.75897 -4.05607
  93 397.152 20.6795 13.8706
  94 397.152 20.6795 13.8706
  95 285.152 2.74691 11.7664
  96 285.152 2.74691 11.7664
  97 428.124 31.5178 -14.9102
  98 433.911 25.2387 -31.1418
  99 428.124 31.5178 -14.9102
  100 433.911 25.2387 -31.1418
  101 277.999 4.37474 -14.4707
  102 277.999 4.37474 -14.4707
  103 226.215 -44.6556 -101.222
  104 226.215 -44.6556 -101.222
  105 191.851 -51.3315 106.965
  106 191.851 -51.3315 106.965
  107 353.479 -27.4916 -38.3400
  108 353.479 -27.4916 -38.3400
  109 264.611 -32.7009 -59.3340
  110 264.611 -32.7009 -59.3340
  111 453.690 31.0107 23.0889
  112 453.690 31.0107 23.0889
  113 34.8498 -113.384 -39.5279
  114 34.8498 -113.384 -39.5279
  115 20.2806 -133.291 11.7696
  116 20.2806 -133.291 11.7696
  117 238.424 15.2041 -3.03149
  118 238.424 15.2041 -3.03149
  119 289.711 -11.3218 -22.9872
  120 289.711 -11.3218 -22.9872
  121 483.244 13.5750 -10.9985
  122 483.244 13.5750 -10.9985
  123 55.2156 -111.999 66.8404
  124 55.2156 -111.999 66.8404
  125 260.857 9.04261 13.4442
  126 260.857 9.04261 13.4442
  127 65.2546 -90.8657 -74.3256
  128 65.2546 -90.8657 -74.3256
  129 348.795 -23.8112 56.2973
  130 348.795 -23.8112 56.2973
  131 491.797 24.3831 -33.6865
  132 491.797 24.3831 -33.6865
  133 25.3866 -152.740 -11.2306
  134 25.3866 -152.740 -11.2306
  135 30.6883 -146.858 29.0464
  136 30.6883 -146.858 29.0464
  137 284.690 2.77058 -6.93136
  138 284.690 2.77058 -6.93136
  139 270.684 9.40259 -0.497691
  140 270.684 9.40259 -0.497691
  141 277.143 4.80810 -0.0648977
  142 277.143 4.80810 -0.0648977
  143 285.355 -5.74832 20.1671
  144 285.355 -5.74832 20.1671
  145 198.608 -5.28411 47.2975
  146 287.506 -26.5603 40.1807
  147 196.787 11.3545 1.09963
  148 198.608 -5.28411 47.2975
  149 287.506 -26.5603 40.1807
  150 196.787 11.3545 1.09963
  151 257.501 4.66593 -21.3915
  152 257.501 4.66593 -21.3915
  153 479.575 14.0137 8.42606
  154 479.575 14.0137 8.42606
  155 497.750 11.6092 21.0291
  156 498.689 24.3981 41.6800
  157 497.750 11.6092 21.0291
  158 498.689 24.3981 41.6800
  159 280.186 3.23682 2.31761
  160 280.186 3.23682 2.31761
  161 175.880 -7.39261 -40.3036
  162 175.880 -7.39261 -40.3036
  163 280.201 3.15200 -2.27587
  164 280.201 3.15200 -2.27587
  165 281.898 3.80540 6.32465
  166 281.898 3.80540 6.32465
  167 329.808 -2.73549 8.12226
  168 322.248 -11.6508 -1.08698
  169 329.808 -2.73549 8.12226
  170 322.248 -11.6508 -1.08698
  171 355.249 -8.70655 1.73080
  172 355.249 -8.70655 1.73080
  173 270.897 8.52698 7.28807
  174 270.897 8.52698 7.28807
  175 135.787 -14.7231 54.5544
  176 135.787 -14.7231 54.5544
  177 120.586 -6.60757 -34.4667
  178 120.586 -6.60757 -34.4667
  179 273.208 9.18535 -6.97631
  180 273.208 9.18535 -6.97631
</Section>

newXOutput 82

<Section columns = "stress_xx | stress_yy | stress_xy">
  1 284.285 1.99183 -1.15332
  2 284.037 1.54530 1.03749
  3 284.285 1.99183 -1.15332
  4 284.037 1.54530 1.03749
  5 420.526 13.7664 107.118
  6 414.398 10.9698 -99.5701
  7 420.526 13.7664 107.118
  8 414.398 10.9698 -99.5701
  9 287.205 0.554553 -3.69242
  10 299.318 0.0643572 -6.08430
  11 307.077 -3.49379 -7.91673
  12 322.812 -1.63465 4.47974
  13 322.601 9.86360 2.99997
  14 323.660 -1.62483 -5.81326
  15 310.262 -5.43132 7.90761
  16 295.459 1.33661 7.10952
  17 287.481 1.89104 3.28526
  18 282.483 3.28727 0.573999
  19 280.860 3.32640 -0.0443291
  20 282.346 3.03235 -0.521517
  21 287.205 0.554553 -3.69242
  22 299.318 0.0643572 -6.08430
  23 307.077 -3.49379 -7.91673
  24 322.812 -1.63465 4.47974
  25 322.601 9.86360 2.99997
  26 323.660 -1.62483 -5.81326
  27 310.262 -5.43132 7.90761
  28 295.459 1.33661 7.10952
  29 287.481 1.89104 3.28526
  30 282.483 3.28727 0.573999
  31 280.860 3.32640 -0.0443291
  32 282.346 3.03235 -0.521517
  33 618.790 5.17335 45.8448
  34 539.260 5.33081 29.7656
  35 518.450 10.2702 11.8542
  36 502.812 6.12342 -3.07457
  37 531.740 1.93630 -11.3863
  38 544.649 10.4487 -27.0088
  39 567.226 37.9919 -56.6232
  40 140.388 -79.4155 -121.653
  41 28.3422 -151.298 -50.6429
  42 11.2250 -207.488 -16.2694
  43 7.60566 -220.198 -1.65513
  44 9.25174 -210.154 16.4051
  45 25.9762 -180.545 43.8686
  46 114.266 -80.3337 119.437
  47 618.790 5.17335 45.8448
  48 539.260 5.33081 29.7656
  49 518.450 10.2702 11.8542
  50 502.812 6.12342 -3.07457
  51 531.740 1.93630 -11.3863
  52 544.649 10.4487 -27.0088
  53 567.226 37.9919 -56.6232
  54 140.388 -79.4155 -121.653
  55 28.3422 -151.298 -50.6429
  56 11.2250 -207.488 -16.2694
  57 7.60566 -220.198 -1.65513
  58 9.25174 -210.154 16.4051
  59 25.9762 -180.545 43.8686
  60 114.266 -80.3337 119.437
  61 263.194 11.2287 -4.82879
  62 263.194 11.2287 -4.82879
  63 244.067 3.56445 26.2091
  64 236.988 1.59290 -31.8982
  65 244.067 3.56445 26.2091
  66 236.988 1.59290 -31.8982
  67 136.203 2.79681 8.80606
  68 136.203 2.79681 8.80606
  69 220.220 -40.8941 86.8351
  70 220.220 -40.8941 86.8351
  71 133.955 -39.0901 -69.6804
  72 330.877 -28.1794 -14.8391
  73 366.706 20.6486 -0.515377
  74 350.226 9.69819 -3.83651
  75 133.955 -39.0901 -69.6804
  76 330.877 -28.1794 -14.8391
  77 366.706 20.6486 -0.515377
  78 350.226 9.69819 -3.83651
  79 324.918 -15.1370 6.90871
  80 324.918 -15.1370 6.90871
  81 418.318 30.9623 2.16045
  82 418.318 30.9623 2.16045
  83 71.2803 -45.8909 -5.95268
  84 71.2803 -45.8909 -5.95268
  85 92.5803 -61.5525 60.2322
  86 92.5803 -61.5525 60.2322
  87 350.780 -20.3146 10.8470
  88 350.780 -20.3146 10.8470
  89 278.858 6.25722 4.02447
  90 280.040 6.83917 -4.10295
  91 278.858 6.25722 4.02447
  92 280.040 6.83917 -4.10295
  93 401.901 20.9404 14.0655
  94 401.901 20.9404 14.0655
  95 288.597 2.77940 11.9057
  96 288.597 2.77940 11.9057
  97 433.233 31.8954 -15.1003
  98 439.072 25.5602 -31.5444
  99 433.233 31.8954 -15.1003
  100 439.072 25.5602 -31.5444
  101 281.362 4.42697 -14.6430
  102 281.362 4.42697 -14.6430
  103 228.921 -45.1685 -102.489
  104 228.921 -45.1685 -102.489
  105 194.151 -51.9244 108.308
  106 194.151 -51.9244 108.308
  107 357.700 -27.8102 -38.8379
  108 357.700 -27.8102 -38.8379
  109 267.801 -33.0989 -60.0641
  110 267.801 -33.0989 -60.0641
  111 459.080 31.3843 23.3759
  112 459.080 31.3843 23.3759
  113 35.2785 -114.759 -40.0400
  114 35.2785 -114.759 -40.0400
  115 20.5274 -134.921 11.9247
  116 20.5274 -134.921 11.9247
  117 241.330 15.3891 -3.06739
  118 241.330 15.3891 -3.06739
  119 293.206 -11.4599 -23.2684
  120 293.206 -11.4599 -23.2684
  121 488.946 13.7325 -11.1285
  122 488.946 13.7325 -11.1285
  123 55.8926 -113.338 67.7075
  124 55.8926 -113.338 67.7075
  125 264.023 9.15164 13.6042
  126 264.023 9.15164 13.6042
  127 66.0556 -91.9459 -75.2804
  128 66.0556 -91.9459 -75.2804
  129 352.960 -24.0837 57.0112
  130 352.960 -24.0837 57.0112
  131 497.601 24.6745 -34.0969
  132 497.601 24.6745 -34.0969
  133 25.6951 -154.616 -11.3764
  134 25.6951 -154.616 -11.3764
  135 31.0630 -148.649 29.4328
  136 31.0630 -148.649 29.4328
  137 288.129 2.80341 -7.01259
  138 288.129 2.80341 -7.01259
  139 273.966 9.51440 -0.503555
  140 273.966 9.51440 -0.503555
  141 280.497 4.86473 -0.0656429
  142 280.497 4.86473 -0.0656429
  143 288.801 -5.81860 20.4114
  144 288.801 -5.81860 20.4114
  145 201.034 -5.34576 47.8737
  146 290.968 -26.8832 40.6768
  147 199.201 11.4957 1.11382
  148 201.034 -5.34576 47.8737
  149 290.968 -26.8832 40.6768
  150 199.201 11.4957 1.11382
  151 260.626 4.72255 -21.6473
  152 260.626 4.72255 -21.6473
  153 485.240 14.1753 8.52787
  154 485.240 14.1753 8.52787
  155 503.617 11.7435 21.2784
  156 504.570 24.7070 42.1957
  157 503.617 11.7435 21.2784
  158 504.570 24.7070 42.1957
  159 283.574 3.27499 2.34415
  160 283.574 3.27499 2.34415
  161 178.037 -7.47936 -40.7959
  162 178.037 -7.47936 -40.7959
  163 283.589 3.18916 -2.30192
  164 283.589 3.18916 -2.30192
  165 285.305 3.85059 6.39801
  166 285.305 3.85059 6.39801
  167 333.783 -2.76604 8.20441
  168 326.123 -11.7930 -1.11070
  169 333.783 -2.76604 8.20441
  170 326.123 -11.7930 -1.11070
  171 359.511 -8.80347 1.72277
  172 359.511 -8.80347 1.72277
  173 274.180 8.62879 7.37349
  174 274.180 8.62879 7.37349
  175 137.456 -14.8941 55.2281
  176 137.456 -14.8941 55.2281
  177 122.076 -6.67665 -34.8920
  178 122.076 -6.67665 -34.8920
  179 276.518 9.29506 -7.05829
  180 276.518 9.29506 -7.05829
</Section>

newXOutput 83

<Section columns = "stress_xx | stress_yy | stress_xy">
  1 287.677 2.01496 -1.16631
  2 287.427 1.56318 1.04915
  3 287.677 2.01496 -1.16631
  4 287.427 1.56318 1.04915
  5 425.411 13.9887 108.429
  6 419.230 11.1590 -100.800
  7 425.411 13.9887 108.429
  8 419.230 11.1590 -100.800
  9 290.630 0.560682 -3.73462
  10 302.878 0.0651618 -6.15453
  11 310.729 -3.53633 -8.01272
  12 326.656 -1.65418 4.52434
  13 326.457 9.98327 3.03306
  14 327.514 -1.64370 -5.87175
  15 313.950 -5.49707 8.00394
  16 298.977 1.35216 7.19161
  17 290.909 1.91311 3.32244
  18 285.856 3.32535 0.580455
  19 284.216 3.36486 -0.0448206
  20 285.718 3.06745 -0.527387
  21 290.630 0.560682 -3.73462
  22 302.878 0.0651618 -6.15453
  23 310.729 -3.53633 -8.01272
  24 326.656 -1.65418 4.52434
  25 326.457 9.98327 3.03306
  26 327.514 -1.64370 -5.87175
  27 313.950 -5.49707 8.00394
  28 298.977 1.35216 7.19161
  29 290.909 1.91311 3.32244
  30 285.856 3.32535 0.580455
  31 284.216 3.36486 -0.0448206
  32 285.718 3.06745 -0.527387
  33 625.902 5.23633 46.3874
  34 545.495 5.38662 30.1144
  35 524.453 10.3875 11.9901
  36 508.645 6.19064 -3.10900
  37 537.876 1.95776 -11.5181
  38 550.943 10.5713 -27.3232
  39 573.789 38.4597 -57.3068
  40 142.043 -80.3006 -123.169
  41 28.6837 -153.101 -51.2987
  42 11.3570 -210.028 -16.4851
  43 7.69103 -222.906 -1.67494
  44 9.35767 -212.725 16.6218
  45 26.2882 -182.714 44.4421
  46 115.616 -81.2297 120.929
  47 625.902 5.23633 46.3874
  48 545.495 5.38662 30.1144
  49 524.453 10.3875 11.9901
  50 508.645 6.19064 -3.10900
  51 537.876 1.95776 -11.5181
  52 550.943 10.5713 -27.3232
  53 573.789 38.4597 -57.3068
  54 142.043 -80.3006 -123.169
  55 28.6837 -153.101 -51.2987
  56 11.3570 -210.028 -16.4851
  57 7.69103 -222.906 -1.67494
  58 9.35767 -212.725 16.6218
  59 26.2882 -182.714 44.4421
  60 115.616 -81.2297 120.929
  61 266.350 11.3620 -4.88537
  62 266.350 11.3620 -4.88537
  63 246.998 3.60816 26.5213
  64 239.835 1.61297 -32.2782
  65 246.998 3.60816 26.5213
  66 239.835 1.61297 -32.2782
  67 137.866 2.83932 8.91287
  68 137.866 2.83932 8.91287
  69 222.845 -41.3868 87.8929
  70 222.845 -41.3868 87.8929
  71 135.572 -39.5514 -70.5394
  72 334.799 -28.5159 -15.0335
  73 371.061 20.8991 -0.534410
  74 354.390 9.81704 -3.86708
  75 135.572 -39.5514 -70.5394
  76 334.799 -28.5159 -15.0335
  77 371.061 20.8991 -0.534410
  78 354.390 9.81704 -3.86708
  79 328.776 -15.3179 7.00382
  80 328.776 -15.3179 7.00382
  81 423.252 31.3279 2.19180
  82 423.252 31.3279 2.19180
  83 72.1518 -46.4275 -6.02719
  84 72.1518 -46.4275 -6.02719
  85 93.6970 -62.2801 60.9853
  86 93.6970 -62.2801 60.9853
  87 354.932 -20.5516 11.0032
  88 354.932 -20.5516 11.0032
  89 282.192 6.33036 4.07037
  90 283.386 6.91927 -4.14974
  91 282.192 6.33036 4.07037
  92 283.386 6.91927 -4.14974
  93 406.645 21.2014 14.2610
  94 406.645 21.2014 14.2610
  95 292.038 2.81185 12.0448
  96 292.038 2.81185 12.0448
  97 438.336 32.2726 -15.2904
  98 444.226 25.8818 -31.9473
  99 438.336 32.2726 -15.2904
  100 444.226 25.8818 -31.9473
  101 284.723 4.47914 -14.8150
  102 284.723 4.47914 -14.8150
  103 231.624 -45.6804 -103.756
  104 231.624 -45.6804 -103.756
  105 196.448 -52.5162 109.651
  106 196.448 -52.5162 109.651
  107 361.917 -28.1281 -39.3362
  108 361.917 -28.1281 -39.3362
  109 270.988 -33.4967 -60.7939
  110 270.988 -33.4967 -60.7939
  111 464.464 31.7577 23.6628
  112 464.464 31.7577 23.6628
  113 35.7070 -116.133 -40.5525
  114 35.7070 -116.133 -40.5525
  115 20.7740 -136.550 12.0799
  116 20.7740 -136.550 12.0799
  117 244.234 15.5740 -3.10324
  118 244.234 15.5740 -3.10324
  119 296.697 -11.5979 -23.5494
  120 296.697 -11.5979 -23.5494
  121 494.641 13.8897 -11.2583
  122 494.641 13.8897 -11.2583
  123 56.5692 -114.675 68.5753
  124 56.5692 -114.675 68.5753
  125 267.187 9.26058 13.7641
  126 267.187 9.26058 13.7641
  127 66.8563 -93.0248 -76.2358
  128 66.8563 -93.0248 -76.2358
  129 357.120 -24.3557 57.7254
  130 357.120 -24.3557 57.7254
  131 503.396 24.9655 -34.5069
  132 503.396 24.9655 -34.5069
  133 26.0035 -156.492 -11.5224
  134 26.0035 -156.492 -11.5224
  135 31.4376 -150.439 29.8198
  136 31.4376 -150.439 29.8198
  137 291.565 2.83620 -7.09370
  138 291.565 2.83620 -7.09370
  139 277.245 9.62607 -0.509411
  140 277.245 9.62607 -0.509411
  141 283.849 4.92128 -0.0663866
  142 283.849 4.92128 -0.0663866
  143 292.243 -5.88883 20.6554
  144 292.243 -5.88883 20.6554
  145 203.459 -5.40731 48.4495
  146 294.427 -27.2059 41.1727
  147 201.614 11.6369 1.12801
  148 203.459 -5.40731 48.4495
  149 294.427 -27.2059 41.1727
  150 201.614 11.6369 1.12801
  151 263.749 4.77913 -21.9029
  152 263.749 4.77913 -21.9029
  153 490.899 14.3366 8.62959
  154 490.899 14.3366 8.62959
  155 509.477 11.8776 21.5275
  156 510.443 25.0160 42.7113
  157 509.477 11.8776 21.5275
  158 510.443 25.0160 42.7113
  159 286.959 3.31310 2.37063
  160 286.959 3.31310 2.37063
  161 180.193 -7.56597 -41.2879
  162 180.193 -7.56597 -41.2879
  163 286.975 3.22627 -2.32791
  164 286.975 3.22627 -2.32791
  165 288.710 3.89572 6.47124
  166 288.710 3.89572 6.47124
  167 337.755 -2.79650 8.28610
  168 329.995 -11.9351 -1.13465
  169 337.755 -2.79650 8.28610
  170 329.995 -11.9351 -1.13465
  171 363.768 -8.90009 1.71405
  172 363.768 -8.90009 1.71405
  173 277.461 8.73048 7.45878
  174 277.461 8.73048 7.45878
  175 139.124 -15.0647 55.9017
  176 139.124 -15.0647 55.9017
  177 123.566 -6.74541 -35.3172
  178 123.566 -6.74541 -35.3172
  179 279.825 9.40465 -7.14016
  180 279.825 9.40465 -7.14016
</Section>

newXOutput 84

<Section columns = "stress_xx | stress_yy | stress_xy">
  1 291.067 2.03805 -1.17926
  2 290.814 1.58105 1.06078
  3 291.067 2.03805 -1.17926
  4 290.814 1.58105 1.06078
  5 430.290 14.2121 109.739
  6 424.055 11.3495 -102.029
  7 430.290 14.2121 109.739
  8 424.055 11.3495 -102.029
  9 294.052 0.566794 -3.77675
  10 306.435 0.0659668 -6.22464
  11 314.378 -3.57887 -8.10867
  12 330.497 -1.67370 4.56869
  13 330.311 10.1029 3.06607
  14 331.366 -1.66254 -5.92993
  15 317.634 -5.56278 8.10024
  16 302.491 1.36769 7.27356
  17 294.334 1.93515 3.35954
  18 289.227 3.36336 0.586897
  19 287.569 3.40325 -0.0453107
  20 289.087 3.10250 -0.533244
  21 294.052 0.566794 -3.77675
  22 306.435 0.0659668 -6.22464
  23 314.378 -3.57887 -8.10867
  24 330.497 -1.67370 4.56869
  25 330.311 10.1029 3.06607
  26 331.366 -1.66254 -5.92993
  27 317.634 -5.56278 8.10024
  28 302.491 1.36769 7.27356
  29 294.334 1.93515 3.35954
  30 289.227 3.36336 0.586897
  31 287.569 3.40325 -0.0453107
  32 289.087 3.10250 -0.533244
  33 633.002 5.29929 46.9294
  34 551.720 5.44219 30.4628
  35 530.448 10.5047 12.1258
  36 514.470 6.25767 -3.14334
  37 544.003 1.97917 -11.6496
  38 557.228 10.6936 -27.6372
  39 580.341 38.9275 -57.9900
  40 143.697 -81.1834 -124.685
  41 29.0250 -154.901 -51.9553
  42 11.4889 -212.568 -16.7012
  43 7.77620 -225.615 -1.69474
  44 9.46341 -215.296 16.8388
  45 26.6001 -184.881 45.0163
  46 116.965 -82.1235 122.421
  47 633.002 5.29929 46.9294
  48 551.720 5.44219 30.4628
  49 530.448 10.5047 12.1258
  50 514.470 6.25767 -3.14334
  51 544.003 1.97917 -11.6496
  52 557.228 10.6936 -27.6372
  53 580.341 38.9275 -57.9900
  54 143.697 -81.1834 -124.685
  55 29.0250 -154.901 -51.9553
  56 11.4889 -212.568 -16.7012
  57 7.77620 -225.615 -1.69474
  58 9.46341 -215.296 16.8388
  59 26.6001 -184.881 45.0163
  60 116.965 -82.1235 122.421
  61 269.505 11.4952 -4.94188
  62 269.505 11.4952 -4.94188
  63 249.927 3.65186 26.8333
  64 242.681 1.63305 -32.6578
  65 249.927 3.65186 26.8333
  66 242.681 1.63305 -32.6578
  67 139.529 2.88202 9.01963
  68 139.529 2.88202 9.01963
  69 225.467 -41.8792 88.9503
  70 225.467 -41.8792 88.9503
  71 137.188 -40.0123 -71.3983
  72 338.717 -28.8521 -15.2282
  73 375.412 21.1495 -0.553727
  74 358.549 9.93586 -3.89727
  75 137.188 -40.0123 -71.3983
  76 338.717 -28.8521 -15.2282
  77 375.412 21.1495 -0.553727
  78 358.549 9.93586 -3.89727
  79 332.631 -15.4987 7.09914
  80 332.631 -15.4987 7.09914
  81 428.181 31.6931 2.22325
  82 428.181 31.6931 2.22325
  83 73.0230 -46.9635 -6.10172
  84 73.0230 -46.9635 -6.10172
  85 94.8132 -63.0069 61.7386
  86 94.8132 -63.0069 61.7386
  87 359.080 -20.7882 11.1599
  88 359.080 -20.7882 11.1599
  89 285.522 6.40340 4.11618
  90 286.730 6.99927 -4.19645
  91 285.522 6.40340 4.11618
  92 286.730 6.99927 -4.19645
  93 411.383 21.4624 14.4569
  94 411.383 21.4624 14.4569
  95 295.477 2.84426 12.1837
  96 295.477 2.84426 12.1837
  97 443.433 32.6494 -15.4807
  98 449.375 26.2036 -32.3504
  99 443.433 32.6494 -15.4807
  100 449.375 26.2036 -32.3504
  101 288.081 4.53125 -14.9869
  102 288.081 4.53125 -14.9869
  103 234.324 -46.1911 -105.024
  104 234.324 -46.1911 -105.024
  105 198.742 -53.1068 110.994
  106 198.742 -53.1068 110.994
  107 366.129 -28.4455 -39.8349
  108 366.129 -28.4455 -39.8349
  109 274.172 -33.8942 -61.5234
  110 274.172 -33.8942 -61.5234
  111 469.840 32.1307 23.9496
  112 469.840 32.1307 23.9496
  113 36.1354 -117.506 -41.0654
  114 36.1354 -117.506 -41.0654
  115 21.0205 -138.178 12.2354
  116 21.0205 -138.178 12.2354
  117 247.136 15.7587 -3.13904
  118 247.136 15.7587 -3.13904
  119 300.186 -11.7358 -23.8303
  120 300.186 -11.7358 -23.8303
  121 500.328 14.0466 -11.3880
  122 500.328 14.0466 -11.3880
  123 57.2456 -116.010 69.4439
  124 57.2456 -116.010 69.4439
  125 270.349 9.36942 13.9238
  126 270.349 9.36942 13.9238
  127 67.6565 -94.1024 -77.1917
  128 67.6565 -94.1024 -77.1917
  129 361.276 -24.6271 58.4397
  130 361.276 -24.6271 58.4397
  131 509.184 25.2561 -34.9167
  132 509.184 25.2561 -34.9167
  133 26.3116 -158.366 -11.6685
  134 26.3116 -158.366 -11.6685
  135 31.8119 -152.228 30.2073
  136 31.8119 -152.228 30.2073
  137 294.998 2.86895 -7.17468
  138 294.998 2.86895 -7.17468
  139 280.522 9.73760 -0.515259
  140 280.522 9.73760 -0.515259
  141 287.198 4.97775 -0.0671287
  142 287.198 4.97775 -0.0671287
  143 295.683 -5.95903 20.8993
  144 295.683 -5.95903 20.8993
  145 205.882 -5.46876 49.0250
  146 297.882 -27.5284 41.6684
  147 204.026 11.7780 1.14222
  148 205.882 -5.46876 49.0250
  149 297.882 -27.5284 41.6684
  150 204.026 11.7780 1.14222
  151 266.870 4.83567 -22.1581
  152 266.870 4.83567 -22.1581
  153 496.549 14.4976 8.73122
  154 496.549 14.4976 8.73122
  155 515.328 12.0114 21.7762
  156 516.307 25.3251 43.2268
  157 515.328 12.0114 21.7762
  158 516.307 25.3251 43.2268
  159 290.342 3.35115 2.39706
  160 290.342 3.35115 2.39706
  161 182.347 -7.65245 -41.7796
  162 182.347 -7.65245 -41.7796
  163 290.357 3.26333 -2.35385
  164 290.357 3.26333 -2.35385
  165 292.111 3.94080 6.54433
  166 292.111 3.94080 6.54433
  167 341.723 -2.82687 8.36735
  168 333.864 -12.0772 -1.15883
  169 341.723 -2.82687 8.36735
  170 333.864 -12.0772 -1.15883
  171 368.022 -8.99644 1.70465
  172 368.022 -8.99644 1.70465
  173 280.739 8.83206 7.54393
  174 280.739 8.83206 7.54393
  175 140.792 -15.2351 56.5751
  176 140.792 -15.2351 56.5751
  177 125.056 -6.81385 -35.7422
  178 125.056 -6.81385 -35.7422
  179 283.130 9.51412 -7.22190
  180 283.130 9.51412 -7.22190
</Section>

newXOutput 85

<Section columns = "stress_xx | stress_yy | stress_xy">
  1 294.454 2.06111 -1.19219
  2 294.198 1.59888 1.07239
  3 294.454 2.06111 -1.19219
  4 294.198 1.59888 1.07239
  5 435.161 14.4368 111.049
  6 428.873 11.5413 -103.258
  7 435.161 14.4368 111.049
  8 428.873 11.5413 -103.258
  9 297.471 0.572890 -3.81879
  10 309.989 0.0667722 -6.29464
  11 318.023 -3.62139 -8.20458
  12 334.334 -1.69321 4.61280
  13 334.162 10.2225 3.09898
  14 335.214 -1.68135 -5.98781
  15 321.315 -5.62846 8.19650
  16 306.002 1.38320 7.35539
  17 297.756 1.95716 3.39656
  18 292.595 3.40132 0.593324
  19 290.920 3.44159 -0.0457995
  20 292.454 3.13749 -0.539088
  21 297.471 0.572890 -3.81879
  22 309.989 0.0667722 -6.29464
  23 318.023 -3.62139 -8.20458
  24 334.334 -1.69321 4.61280
  25 334.162 10.2225 3.09898
  26 335.214 -1.68135 -5.98781
  27 321.315 -5.62846 8.19650
  28 306.002 1.38320 7.35539
  29 297.756 1.95716 3.39656
  30 292.595 3.40132 0.593324
  31 290.920 3.44159 -0.0457995
  32 292.454 3.13749 -0.539088
  33 640.089 5.36223 47.4708
  34 557.935 5.49754 30.8107
  35 536.433 10.6216 12.2612
  36 520.286 6.32451 -3.17760
  37 550.120 2.00053 -11.7809
  38 563.503 10.8159 -27.9507
  39 586.883 39.3952 -58.6727
  40 145.348 -82.0640 -126.202
  41 29.3661 -156.701 -52.6126
  42 11.6207 -215.107 -16.9177
  43 7.86117 -228.323 -1.71452
  44 9.56895 -217.866 17.0561
  45 26.9117 -187.046 45.5913
  46 118.313 -83.0149 123.914
  47 640.089 5.36223 47.4708
  48 557.935 5.49754 30.8107
  49 536.433 10.6216 12.2612
  50 520.286 6.32451 -3.17760
  51 550.120 2.00053 -11.7809
  52 563.503 10.8159 -27.9507
  53 586.883 39.3952 -58.6727
  54 145.348 -82.0640 -126.202
  55 29.3661 -156.701 -52.6126
  56 11.6207 -215.107 -16.9177
  57 7.86117 -228.323 -1.71452
  58 9.56895 -217.866 17.0561
  59 26.9117 -187.046 45.5913
  60 118.313 -83.0149 123.914
  61 272.656 11.6283 -4.99831
  62 272.656 11.6283 -4.99831
  63 252.854 3.69556 27.1451
  64 245.524 1.65314 -33.0370
  65 252.854 3.69556 27.1451
  66 245.524 1.65314 -33.0370
  67 141.191 2.92490 9.12634
  68 141.191 2.92490 9.12634
  69 228.087 -42.3713 90.0075
  70 228.087 -42.3713 90.0075
  71 138.803 -40.4726 -72.2572
  72 342.631 -29.1881 -15.4231
  73 379.758 21.3998 -0.573328
  74 362.705 10.0547 -3.92708
  75 138.803 -40.4726 -72.2572
  76 342.631 -29.1881 -15.4231
  77 379.758 21.3998 -0.573328
  78 362.705 10.0547 -3.92708
  79 336.483 -15.6794 7.19469
  80 336.483 -15.6794 7.19469
  81 433.105 32.0580 2.25480
  82 433.105 32.0580 2.25480
  83 73.8941 -47.4988 -6.17627
  84 73.8941 -47.4988 -6.17627
  85 95.9287 -63.7330 62.4921
  86 95.9287 -63.7330 62.4921
  87 363.224 -21.0245 11.3171
  88 363.224 -21.0245 11.3171
  89 288.851 6.47635 4.16190
  90 290.072 7.07917 -4.24306
  91 288.851 6.47635 4.16190
  92 290.072 7.07917 -4.24306
  93 416.117 21.7235 14.6533
  94 416.117 21.7235 14.6533
  95 298.912 2.87662 12.3224
  96 298.912 2.87662 12.3224
  97 448.525 33.0258 -15.6710
  98 454.517 26.5254 -32.7538
  99 448.525 33.0258 -15.6710
  100 454.517 26.5254 -32.7538
  101 291.436 4.58330 -15.1585
  102 291.436 4.58330 -15.1585
  103 237.020 -46.7008 -106.291
  104 237.020 -46.7008 -106.291
  105 201.034 -53.6962 112.337
  106 201.034 -53.6962 112.337
  107 370.337 -28.7622 -40.3340
  108 370.337 -28.7622 -40.3340
  109 277.353 -34.2914 -62.2526
  110 277.353 -34.2914 -62.2526
  111 475.210 32.5033 24.2364
  112 475.210 32.5033 24.2364
  113 36.5636 -118.878 -41.5788
  114 36.5636 -118.878 -41.5788
  115 21.2668 -139.806 12.3910
  116 21.2668 -139.806 12.3910
  117 250.036 15.9434 -3.17479
  118 250.036 15.9434 -3.17479
  119 303.672 -11.8737 -24.1110
  120 303.672 -11.8737 -24.1110
  121 506.007 14.2032 -11.5174
  122 506.007 14.2032 -11.5174
  123 57.9215 -117.344 70.3132
  124 57.9215 -117.344 70.3132
  125 273.508 9.47816 14.0833
  126 273.508 9.47816 14.0833
  127 68.4564 -95.1786 -78.1483
  128 68.4564 -95.1786 -78.1483
  129 365.427 -24.8979 59.1543
  130 365.427 -24.8979 59.1543
  131 514.963 25.5465 -35.3262
  132 514.963 25.5465 -35.3262
  133 26.6195 -160.240 -11.8148
  134 26.6195 -160.240 -11.8148
  135 32.1860 -154.016 30.5954
  136 32.1860 -154.016 30.5954
  137 298.428 2.90165 -7.25553
  138 298.428 2.90165 -7.25553
  139 283.796 9.84900 -0.521098
  140 283.796 9.84900 -0.521098
  141 290.544 5.03413 -0.0678693
  142 290.544 5.03413 -0.0678693
  143 299.120 -6.02919 21.1430
  144 299.120 -6.02919 21.1430
  145 208.304 -5.53011 49.6001
  146 301.335 -27.8507 42.1640
  147 206.436 11.9192 1.15643
  148 208.304 -5.53011 49.6001
  149 301.335 -27.8507 42.1640
  150 206.436 11.9192 1.15643
  151 269.989 4.89217 -22.4131
  152 269.989 4.89217 -22.4131
  153 502.192 14.6583 8.83276
  154 502.192 14.6583 8.83276
  155 521.171 12.1450 22.0246
  156 522.163 25.6343 43.7420
  157 521.171 12.1450 22.0246
  158 522.163 25.6343 43.7420
  159 293.722 3.38916 2.42343
  160 293.722 3.38916 2.42343
  161 184.501 -7.73880 -42.2710
  162 184.501 -7.73880 -42.2710
  163 293.737 3.30033 -2.37974
  164 293.737 3.30033 -2.37974
  165 295.510 3.98583 6.61729
  166 295.510 3.98583 6.61729
  167 345.687 -2.85716 8.44815
  168 337.728 -12.2192 -1.18323
  169 345.687 -2.85716 8.44815
  170 337.728 -12.2192 -1.18323
  171 372.271 -9.09249 1.69457
  172 372.271 -9.09249 1.69457
  173 284.015 8.93352 7.62895
  174 284.015 8.93352 7.62895
  175 142.459 -15.4051 57.2482
  176 142.459 -15.4051 57.2482
  177 126.545 -6.88199 -36.1671
  178 126.545 -6.88199 -36.1671
  179 286.432 9.62347 -7.30351
  180 286.432 9.62347 -7.30351
</Section>

newXOutput 86

<Section columns = "stress_xx | stress_yy | stress_xy">
  1 297.839 2.08414 -1.20510
  2 297.580 1.61669 1.08397
  3 297.839 2.08414 -1.20510
  4 297.580 1.61669 1.08397
  5 440.025 14.6626 112.359
  6 433.685 11.7342 -104.487
  7 440.025 14.6626 112.359
  8 433.685 11.7342 -104.487
  9 300.887 0.578969 -3.86076
  10 313.539 0.0675778 -6.36453
  11 321.665 -3.66389 -8.30044
  12 338.168 -1.71270 4.65667
  13 338.009 10.3420 3.13181
  14 339.058 -1.70013 -6.04539
  15 324.993 -5.69412 8.29273
  16 309.510 1.39868 7.43708
  17 301.175 1.97913 3.43350
  18 295.960 3.43922 0.599736
  19 294.268 3.47987 -0.0462871
  20 295.817 3.17242 -0.544919
  21 300.887 0.578969 -3.86076
  22 313.539 0.0675778 -6.36453
  23 321.665 -3.66389 -8.30044
  24 338.168 -1.71270 4.65667
  25 338.009 10.3420 3.13181
  26 339.058 -1.70013 -6.04539
  27 324.993 -5.69412 8.29273
  28 309.510 1.39868 7.43708
  29 301.175 1.97913 3.43350
  30 295.960 3.43922 0.599736
  31 294.268 3.47987 -0.0462871
  32 295.817 3.17242 -0.544919
  33 647.165 5.42514 48.0116
  34 564.141 5.55267 31.1582
  35 542.409 10.7382 12.3964
  36 526.093 6.39117 -3.21178
  37 556.227 2.02184 -11.9120
  38 569.768 10.9380 -28.2637
  39 593.415 39.8628 -59.3551
  40 146.998 -82.9423 -127.719
  41 29.7071 -158.498 -53.2705
  42 11.7522 -217.646 -17.1345
  43 7.94594 -231.030 -1.73428
  44 9.67429 -220.435 17.2737
  45 27.2231 -189.210 46.1670
  46 119.658 -83.9041 125.406
  47 647.165 5.42514 48.0116
  48 564.141 5.55267 31.1582
  49 542.409 10.7382 12.3964
  50 526.093 6.39117 -3.21178
  51 556.227 2.02184 -11.9120
  52 569.768 10.9380 -28.2637
  53 593.415 39.8628 -59.3551
  54 146.998 -82.9423 -127.719
  55 29.7071 -158.498 -53.2705
  56 11.7522 -217.646 -17.1345
  57 7.94594 -231.030 -1.73428
  58 9.67429 -220.435 17.2737
  59 27.2231 -189.210 46.1670
  60 119.658 -83.9041 125.406
  61 275.806 11.7612 -5.05468
  62 275.806 11.7612 -5.05468
  63 255.779 3.73925 27.4565
  64 248.366 1.67323 -33.4160
  65 255.779 3.73925 27.4565
  66 248.366 1.67323 -33.4160
  67 142.853 2.96795 9.23301
  68 142.853 2.96795 9.23301
  69 230.705 -42.8632 91.0642
  70 230.705 -42.8632 91.0642
  71 140.417 -40.9324 -73.1161
  72 346.541 -29.5238 -15.6183
  73 384.101 21.6500 -0.593211
  74 366.857 10.1735 -3.95652
  75 140.417 -40.9324 -73.1161
  76 346.541 -29.5238 -15.6183
  77 384.101 21.6500 -0.593211
  78 366.857 10.1735 -3.95652
  79 340.330 -15.8598 7.29045
  80 340.330 -15.8598 7.29045
  81 438.023 32.4225 2.28645
  82 438.023 32.4225 2.28645
  83 74.7650 -48.0334 -6.25085
  84 74.7650 -48.0334 -6.25085
  85 97.0436 -64.4583 63.2459
  86 97.0436 -64.4583 63.2459
  87 367.363 -21.2605 11.4747
  88 367.363 -21.2605 11.4747
  89 292.176 6.54921 4.20753
  90 293.411 7.15896 -4.28959
  91 292.176 6.54921 4.20753
  92 293.411 7.15896 -4.28959
  93 420.845 21.9847 14.8502
  94 420.845 21.9847 14.8502
  95 302.345 2.90894 12.4610
  96 302.345 2.90894 12.4610
  97 453.611 33.4019 -15.8613
  98 459.653 26.8475 -33.1575
  99 453.611 33.4019 -15.8613
  100 459.653 26.8475 -33.1575
  101 294.789 4.63529 -15.3300
  102 294.789 4.63529 -15.3300
  103 239.714 -47.2095 -107.558
  104 239.714 -47.2095 -107.558
  105 203.324 -54.2844 113.680
  106 203.324 -54.2844 113.680
  107 374.540 -29.0784 -40.8336
  108 374.540 -29.0784 -40.8336
  109 280.531 -34.6884 -62.9815
  110 280.531 -34.6884 -62.9815
  111 480.574 32.8756 24.5231
  112 480.574 32.8756 24.5231
  113 36.9916 -120.249 -42.0926
  114 36.9916 -120.249 -42.0926
  115 21.5129 -141.432 12.5468
  116 21.5129 -141.432 12.5468
  117 252.934 16.1279 -3.21050
  118 252.934 16.1279 -3.21050
  119 307.155 -12.0114 -24.3916
  120 307.155 -12.0114 -24.3916
  121 511.678 14.3595 -11.6467
  122 511.678 14.3595 -11.6467
  123 58.5972 -118.676 71.1833
  124 58.5972 -118.676 71.1833
  125 276.666 9.58681 14.2426
  126 276.666 9.58681 14.2426
  127 69.2559 -96.2534 -79.1055
  128 69.2559 -96.2534 -79.1055
  129 369.573 -25.1681 59.8690
  130 369.573 -25.1681 59.8690
  131 520.734 25.8366 -35.7354
  132 520.734 25.8366 -35.7354
  133 26.9272 -162.112 -11.9612
  134 26.9272 -162.112 -11.9612
  135 32.5599 -155.803 30.9840
  136 32.5599 -155.803 30.9840
  137 301.856 2.93432 -7.33626
  138 301.856 2.93432 -7.33626
  139 287.068 9.96026 -0.526929
  140 287.068 9.96026 -0.526929
  141 293.888 5.09043 -0.0686084
  142 293.888 5.09043 -0.0686084
  143 302.554 -6.09931 21.3865
  144 302.554 -6.09931 21.3865
  145 210.724 -5.59136 50.1749
  146 304.784 -28.1727 42.6594
  147 208.846 12.0603 1.17066
  148 210.724 -5.59136 50.1749
  149 304.784 -28.1727 42.6594
  150 208.846 12.0603 1.17066
  151 273.105 4.94863 -22.6678
  152 273.105 4.94863 -22.6678
  153 507.827 14.8186 8.93420
  154 507.827 14.8186 8.93420
  155 527.005 12.2783 22.2726
  156 528.011 25.9436 44.2572
  157 527.005 12.2783 22.2726
  158 528.011 25.9436 44.2572
  159 297.099 3.42710 2.44974
  160 297.099 3.42710 2.44974
  161 186.654 -7.82503 -42.7621
  162 186.654 -7.82503 -42.7621
  163 297.114 3.33729 -2.40556
  164 297.114 3.33729 -2.40556
  165 298.906 4.03080 6.69011
  166 298.906 4.03080 6.69011
  167 349.648 -2.88736 8.52850
  168 341.589 -12.3611 -1.20787
  169 349.648 -2.88736 8.52850
  170 341.589 -12.3611 -1.20787
  171 376.516 -9.18826 1.68381
  172 376.516 -9.18826 1.68381
  173 287.288 9.03488 7.71383
  174 287.288 9.03488 7.71383
  175 144.126 -15.5748 57.9212
  176 144.126 -15.5748 57.9212
  177 128.034 -6.94981 -36.5918
  178 128.034 -6.94981 -36.5918
  179 289.732 9.73270 -7.38500
  180 289.732 9.73270 -7.38500
</Section>

newXOutput 87

<Section columns = "stress_xx | stress_yy | stress_xy">
  1 301.221 2.10713 -1.21797
  2 300.959 1.63447 1.09552
  3 301.221 2.10713 -1.21797
  4 300.959 1.63447 1.09552
  5 444.881 14.8897 113.668
  6 438.490 11.9285 -105.716
  7 444.881 14.8897 113.668
  8 438.490 11.9285 -105.716
  9 304.301 0.585032 -3.90265
  10 317.087 0.0683838 -6.43430
  11 325.304 -3.70639 -8.39625
  12 341.999 -1.73218 4.70029
  13 341.854 10.4615 3.16454
  14 342.899 -1.71888 -6.10266
  15 328.667 -5.75974 8.38892
  16 313.015 1.41414 7.51864
  17 304.592 2.00108 3.47037
  18 299.323 3.47706 0.606135
  19 297.613 3.51808 -0.0467734
  20 299.179 3.20731 -0.550737
  21 304.301 0.585032 -3.90265
  22 317.087 0.0683838 -6.43430
  23 325.304 -3.70639 -8.39625
  24 341.999 -1.73218 4.70029
  25 341.854 10.4615 3.16454
  26 342.899 -1.71888 -6.10266
  27 328.667 -5.75974 8.38892
  28 313.015 1.41414 7.51864
  29 304.592 2.00108 3.47037
  30 299.323 3.47706 0.606135
  31 297.613 3.51808 -0.0467734
  32 299.179 3.20731 -0.550737
  33 654.228 5.48804 48.5518
  34 570.337 5.60757 31.5052
  35 548.376 10.8547 12.5313
  36 531.892 6.45764 -3.24588
  37 562.325 2.04309 -12.0430
  38 576.023 11.0599 -28.5763
  39 599.937 40.3304 -60.0370
  40 148.645 -83.8184 -129.236
  41 30.0478 -160.294 -53.9293
  42 11.8837 -220.184 -17.3517
  43 8.03051 -233.738 -1.75403
  44 9.77944 -223.003 17.4918
  45 27.5343 -191.372 46.7435
  46 121.003 -84.7910 126.900
  47 654.228 5.48804 48.5518
  48 570.337 5.60757 31.5052
  49 548.376 10.8547 12.5313
  50 531.892 6.45764 -3.24588
  51 562.325 2.04309 -12.0430
  52 576.023 11.0599 -28.5763
  53 599.937 40.3304 -60.0370
  54 148.645 -83.8184 -129.236
  55 30.0478 -160.294 -53.9293
  56 11.8837 -220.184 -17.3517
  57 8.03051 -233.738 -1.75403
  58 9.77944 -223.003 17.4918
  59 27.5343 -191.372 46.7435
  60 121.003 -84.7910 126.900
  61 278.953 11.8940 -5.11097
  62 278.953 11.8940 -5.11097
  63 258.702 3.78293 27.7677
  64 251.205 1.69334 -33.7946
  65 258.702 3.78293 27.7677
  66 251.205 1.69334 -33.7946
  67 144.515 3.01119 9.33963
  68 144.515 3.01119 9.33963
  69 233.321 -43.3547 92.1206
  70 233.321 -43.3547 92.1206
  71 142.030 -41.3918 -73.9749
  72 350.447 -29.8592 -15.8137
  73 388.440 21.9001 -0.613377
  74 371.005 10.2922 -3.98557
  75 142.030 -41.3918 -73.9749
  76 350.447 -29.8592 -15.8137
  77 388.440 21.9001 -0.613377
  78 371.005 10.2922 -3.98557
  79 344.174 -16.0402 7.38643
  80 344.174 -16.0402 7.38643
  81 442.936 32.7866 2.31820
  82 442.936 32.7866 2.31820
  83 75.6356 -48.5673 -6.32545
  84 75.6356 -48.5673 -6.32545
  85 98.1578 -65.1828 63.9998
  86 98.1578 -65.1828 63.9998
  87 371.499 -21.4962 11.6329
  88 371.499 -21.4962 11.6329
  89 295.500 6.62197 4.25308
  90 296.747 7.23865 -4.33603
  91 295.500 6.62197 4.25308
  92 296.747 7.23865 -4.33603
  93 425.568 22.2459 15.0476
  94 425.568 22.2459 15.0476
  95 305.775 2.94122 12.5993
  96 305.775 2.94122 12.5993
  97 458.691 33.7776 -16.0517
  98 464.783 27.1696 -33.5614
  99 458.691 33.7776 -16.0517
  100 464.783 27.1696 -33.5614
  101 298.139 4.68722 -15.5012
  102 298.139 4.68722 -15.5012
  103 242.405 -47.7170 -108.825
  104 242.405 -47.7170 -108.825
  105 205.611 -54.8716 115.023
  106 205.611 -54.8716 115.023
  107 378.738 -29.3940 -41.3335
  108 378.738 -29.3940 -41.3335
  109 283.707 -35.0851 -63.7102
  110 283.707 -35.0851 -63.7102
  111 485.930 33.2476 24.8097
  112 485.930 33.2476 24.8097
  113 37.4195 -121.619 -42.6068
  114 37.4195 -121.619 -42.6068
  115 21.7589 -143.058 12.7029
  116 21.7589 -143.058 12.7029
  117 255.831 16.3123 -3.24615
  118 255.831 16.3123 -3.24615
  119 310.635 -12.1491 -24.6720
  120 310.635 -12.1491 -24.6720
  121 517.341 14.5156 -11.7758
  122 517.341 14.5156 -11.7758
  123 59.2725 -120.007 72.0541
  124 59.2725 -120.007 72.0541
  125 279.821 9.69537 14.4017
  126 279.821 9.69537 14.4017
  127 70.0551 -97.3270 -80.0633
  128 70.0551 -97.3270 -80.0633
  129 373.715 -25.4377 60.5839
  130 373.715 -25.4377 60.5839
  131 526.497 26.1263 -36.1443
  132 526.497 26.1263 -36.1443
  133 27.2347 -163.984 -12.1077
  134 27.2347 -163.984 -12.1077
  135 32.9336 -157.589 31.3733
  136 32.9336 -157.589 31.3733
  137 305.280 2.96694 -7.41686
  138 305.280 2.96694 -7.41686
  139 290.337 10.0714 -0.532752
  140 290.337 10.0714 -0.532752
  141 297.229 5.14665 -0.0693459
  142 297.229 5.14665 -0.0693459
  143 305.985 -6.16940 21.6298
  144 305.985 -6.16940 21.6298
  145 213.143 -5.65251 50.7492
  146 308.230 -28.4946 43.1547
  147 211.255 12.2014 1.18490
  148 213.143 -5.65251 50.7492
  149 308.230 -28.4946 43.1547
  150 211.255 12.2014 1.18490
  151 276.220 5.00505 -22.9222
  152 276.220 5.00505 -22.9222
  153 513.454 14.9787 9.03556
  154 513.454 14.9787 9.03556
  155 532.831 12.4114 22.5203
  156 533.851 26.2529 44.7721
  157 532.831 12.4114 22.5203
  158 533.851 26.2529 44.7721
  159 300.473 3.46500 2.47600
  160 300.473 3.46500 2.47600
  161 188.805 -7.91112 -43.2529
  162 188.805 -7.91112 -43.2529
  163 300.489 3.37419 -2.43134
  164 300.489 3.37419 -2.43134
  165 302.300 4.07571 6.76280
  166 302.300 4.07571 6.76280
  167 353.605 -2.91746 8.60840
  168 345.447 -12.5029 -1.23274
  169 353.605 -2.91746 8.60840
  170 345.447 -12.5029 -1.23274
  171 380.756 -9.28374 1.67238
  172 380.756 -9.28374 1.67238
  173 290.559 9.13611 7.79858
  174 290.559 9.13611 7.79858
  175 145.791 -15.7443 58.5939
  176 145.791 -15.7443 58.5939
  177 129.522 -7.01732 -37.0164
  178 129.522 -7.01732 -37.0164
  179 293.029 9.84180 -7.46637
  180 293.029 9.84180 -7.46637
</Section>

newXOutput 88

<Section columns = "stress_xx | stress_yy | stress_xy">
  1 304.600 2.13009 -1.23081
  2 304.335 1.65222 1.10705
  3 304.600 2.13009 -1.23081
  4 304.335 1.65222 1.10705
  5 449.731 15.1179 114.977
  6 443.288 12.1240 -106.945
  7 449.731 15.1179 114.977
  8 443.288 12.1240 -106.945
  9 307.711 0.591078 -3.94447
  10 320.631 0.0691901 -6.50396
  11 328.940 -3.74886 -8.49202
  12 345.827 -1.75164 4.74368
  13 345.696 10.5809 3.19718
  14 346.737 -1.73761 -6.15964
  15 332.338 -5.82533 8.48508
  16 316.517 1.42958 7.60006
  17 308.005 2.02300 3.50715
  18 302.683 3.51484 0.612518
  19 300.956 3.55624 -0.0472585
  20 302.537 3.24214 -0.556542
  21 307.711 0.591078 -3.94447
  22 320.631 0.0691901 -6.50396
  23 328.940 -3.74886 -8.49202
  24 345.827 -1.75164 4.74368
  25 345.696 10.5809 3.19718
  26 346.737 -1.73761 -6.15964
  27 332.338 -5.82533 8.48508
  28 316.517 1.42958 7.60006
  29 308.005 2.02300 3.50715
  30 302.683 3.51484 0.612518
  31 300.956 3.55624 -0.0472585
  32 302.537 3.24214 -0.556542
  33 661.280 5.55091 49.0915
  34 576.523 5.66224 31.8518
  35 554.334 10.9710 12.6660
  36 537.682 6.52392 -3.27990
  37 568.412 2.06429 -12.1737
  38 582.269 11.1817 -28.8884
  39 606.449 40.7980 -60.7185
  40 150.291 -84.6922 -130.754
  41 30.3882 -162.088 -54.5887
  42 12.0149 -222.721 -17.5693
  43 8.11489 -236.445 -1.77376
  44 9.88440 -225.572 17.7101
  45 27.8453 -193.533 47.3208
  46 122.346 -85.6757 128.393
  47 661.280 5.55091 49.0915
  48 576.523 5.66224 31.8518
  49 554.334 10.9710 12.6660
  50 537.682 6.52392 -3.27990
  51 568.412 2.06429 -12.1737
  52 582.269 11.1817 -28.8884
  53 606.449 40.7980 -60.7185
  54 150.291 -84.6922 -130.754
  55 30.3882 -162.088 -54.5887
  56 12.0149 -222.721 -17.5693
  57 8.11489 -236.445 -1.77376
  58 9.88440 -225.572 17.7101
  59 27.8453 -193.533 47.3208
  60 122.346 -85.6757 128.393
  61 282.099 12.0267 -5.16719
  62 282.099 12.0267 -5.16719
  63 261.623 3.82660 28.0786
  64 254.043 1.71345 -34.1729
  65 261.623 3.82660 28.0786
  66 254.043 1.71345 -34.1729
  67 146.176 3.05460 9.44620
  68 146.176 3.05460 9.44620
  69 235.935 -43.8460 93.1766
  70 235.935 -43.8460 93.1766
  71 143.643 -41.8507 -74.8336
  72 354.350 -30.1943 -16.0094
  73 392.775 22.1501 -0.633823
  74 375.150 10.4110 -4.01425
  75 143.643 -41.8507 -74.8336
  76 354.350 -30.1943 -16.0094
  77 392.775 22.1501 -0.633823
  78 375.150 10.4110 -4.01425
  79 348.015 -16.2204 7.48263
  80 348.015 -16.2204 7.48263
  81 447.843 33.1503 2.35005
  82 447.843 33.1503 2.35005
  83 76.5061 -49.1005 -6.40008
  84 76.5061 -49.1005 -6.40008
  85 99.2714 -65.9066 64.7540
  86 99.2714 -65.9066 64.7540
  87 375.630 -21.7315 11.7916
  88 375.630 -21.7315 11.7916
  89 298.820 6.69463 4.29854
  90 300.080 7.31825 -4.38238
  91 298.820 6.69463 4.29854
  92 300.080 7.31825 -4.38238
  93 430.286 22.5071 15.2454
  94 430.286 22.5071 15.2454
  95 309.202 2.97346 12.7375
  96 309.202 2.97346 12.7375
  97 463.765 34.1528 -16.2422
  98 469.907 27.4919 -33.9656
  99 463.765 34.1528 -16.2422
  100 469.907 27.4919 -33.9656
  101 301.486 4.73910 -15.6723
  102 301.486 4.73910 -15.6723
  103 245.093 -48.2235 -110.092
  104 245.093 -48.2235 -110.092
  105 207.897 -55.4575 116.366
  106 207.897 -55.4575 116.366
  107 382.931 -29.7089 -41.8339
  108 382.931 -29.7089 -41.8339
  109 286.880 -35.4816 -64.4385
  110 286.880 -35.4816 -64.4385
  111 491.281 33.6193 25.0962
  112 491.281 33.6193 25.0962
  113 37.8472 -122.988 -43.1214
  114 37.8472 -122.988 -43.1214
  115 22.0048 -144.683 12.8591
  116 22.0048 -144.683 12.8591
  117 258.726 16.4966 -3.28177
  118 258.726 16.4966 -3.28177
  119 314.111 -12.2867 -24.9522
  120 314.111 -12.2867 -24.9522
  121 522.997 14.6714 -11.9048
  122 522.997 14.6714 -11.9048
  123 59.9475 -121.336 72.9257
  124 59.9475 -121.336 72.9257
  125 282.973 9.80383 14.5606
  126 282.973 9.80383 14.5606
  127 70.8538 -98.3991 -81.0216
  128 70.8538 -98.3991 -81.0216
  129 377.852 -25.7067 61.2991
  130 377.852 -25.7067 61.2991
  131 532.252 26.4157 -36.5529
  132 532.252 26.4157 -36.5529
  133 27.5420 -165.856 -12.2544
  134 27.5420 -165.856 -12.2544
  135 33.3071 -159.373 31.7630
  136 33.3071 -159.373 31.7630
  137 308.702 2.99951 -7.49733
  138 308.702 2.99951 -7.49733
  139 293.604 10.1824 -0.538566
  140 293.604 10.1824 -0.538566
  141 300.568 5.20280 -0.0700819
  142 300.568 5.20280 -0.0700819
  143 309.414 -6.23945 21.8729
  144 309.414 -6.23945 21.8729
  145 215.561 -5.71356 51.3233
  146 311.673 -28.8162 43.6498
  147 213.662 12.3425 1.19914
  148 215.561 -5.71356 51.3233
  149 311.673 -28.8162 43.6498
  150 213.662 12.3425 1.19914
  151 279.332 5.06143 -23.1764
  152 279.332 5.06143 -23.1764
  153 519.073 15.1384 9.13683
  154 519.073 15.1384 9.13683
  155 538.649 12.5442 22.7677
  156 539.682 26.5624 45.2868
  157 538.649 12.5442 22.7677
  158 539.682 26.5624 45.2868
  159 303.845 3.50284 2.50220
  160 303.845 3.50284 2.50220
  161 190.956 -7.99708 -43.7435
  162 190.956 -7.99708 -43.7435
  163 303.861 3.41103 -2.45705
  164 303.861 3.41103 -2.45705
  165 305.690 4.12057 6.83536
  166 305.690 4.12057 6.83536
  167 357.559 -2.94748 8.68786
  168 349.301 -12.6446 -1.25783
  169 357.559 -2.94748 8.68786
  170 349.301 -12.6446 -1.25783
  171 384.993 -9.37893 1.66027
  172 384.993 -9.37893 1.66027
  173 293.828 9.23724 7.88320
  174 293.828 9.23724 7.88320
  175 147.457 -15.9134 59.2665
  176 147.457 -15.9134 59.2665
  177 131.010 -7.08452 -37.4408
  178 131.010 -7.08452 -37.4408
  179 296.324 9.95079 -7.54762
  180 296.324 9.95079 -7.54762
</Section>

newXOutput 89

<Section columns = "stress_xx | stress_yy | stress_xy">
  1 307.976 2.15301 -1.24363
  2 307.709 1.66995 1.11855
  3 307.976 2.15301 -1.24363
  4 307.709 1.66995 1.11855
  5 454.574 15.3474 116.286
  6 448.080 12.3207 -108.174
  7 454.574 15.3474 116.286
  8 448.080 12.3207 -108.174
  9 311.119 0.597108 -3.98620
  10 324.172 0.0699968 -6.57351
  11 332.573 -3.79133 -8.58775
  12 349.651 -1.77108 4.78682
  13 349.534 10.7003 3.22973
  14 350.572 -1.75630 -6.21631
  15 336.005 -5.89088 8.58121
  16 320.016 1.44500 7.68136
  17 311.416 2.04489 3.54386
  18 306.040 3.55257 0.618888
  19 304.296 3.59433 -0.0477423
  20 305.893 3.27691 -0.562334
  21 311.119 0.597108 -3.98620
  22 324.172 0.0699968 -6.57351
  23 332.573 -3.79133 -8.58775
  24 349.651 -1.77108 4.78682
  25 349.534 10.7003 3.22973
  26 350.572 -1.75630 -6.21631
  27 336.005 -5.89088 8.58121
  28 320.016 1.44500 7.68136
  29 311.416 2.04489 3.54386
  30 306.040 3.55257 0.618888
  31 304.296 3.59433 -0.0477423
  32 305.893 3.27691 -0.562334
  33 668.319 5.61375 49.6306
  34 582.700 5.71669 32.1979
  35 560.283 11.0870 12.8005
  36 543.464 6.59002 -3.31384
  37 574.491 2.08543 -12.3042
  38 588.504 11.3033 -29.2001
  39 612.951 41.2655 -61.3995
  40 151.935 -85.5637 -132.272
  41 30.7285 -163.881 -55.2488
  42 12.1461 -225.258 -17.7872
  43 8.19906 -239.152 -1.79348
  44 9.98916 -228.139 17.9288
  45 28.1560 -195.693 47.8988
  46 123.687 -86.5580 129.887
  47 668.319 5.61375 49.6306
  48 582.700 5.71669 32.1979
  49 560.283 11.0870 12.8005
  50 543.464 6.59002 -3.31384
  51 574.491 2.08543 -12.3042
  52 588.504 11.3033 -29.2001
  53 612.951 41.2655 -61.3995
  54 151.935 -85.5637 -132.272
  55 30.7285 -163.881 -55.2488
  56 12.1461 -225.258 -17.7872
  57 8.19906 -239.152 -1.79348
  58 9.98916 -228.139 17.9288
  59 28.1560 -195.693 47.8988
  60 123.687 -86.5580 129.887
  61 285.242 12.1592 -5.22334
  62 285.242 12.1592 -5.22334
  63 264.542 3.87026 28.3893
  64 256.879 1.73356 -34.5509
  65 264.542 3.87026 28.3893
  66 256.879 1.73356 -34.5509
  67 147.836 3.09819 9.55272
  68 147.836 3.09819 9.55272
  69 238.546 -44.3370 94.2323
  70 238.546 -44.3370 94.2323
  71 145.254 -42.3090 -75.6923
  72 358.248 -30.5292 -16.2053
  73 397.105 22.4000 -0.654549
  74 379.290 10.5297 -4.04254
  75 145.254 -42.3090 -75.6923
  76 358.248 -30.5292 -16.2053
  77 397.105 22.4000 -0.654549
  78 379.290 10.5297 -4.04254
  79 351.852 -16.4005 7.57904
  80 351.852 -16.4005 7.57904
  81 452.745 33.5137 2.38199
  82 452.745 33.5137 2.38199
  83 77.3764 -49.6330 -6.47472
  84 77.3764 -49.6330 -6.47472
  85 100.384 -66.6296 65.5084
  86 100.384 -66.6296 65.5084
  87 379.757 -21.9665 11.9508
  88 379.757 -21.9665 11.9508
  89 302.138 6.76720 4.34391
  90 303.411 7.39774 -4.42864
  91 302.138 6.76720 4.34391
  92 303.411 7.39774 -4.42864
  93 434.999 22.7684 15.4437
  94 434.999 22.7684 15.4437
  95 312.627 3.00565 12.8754
  96 312.627 3.00565 12.8754
  97 468.834 34.5278 -16.4328
  98 475.025 27.8143 -34.3700
  99 468.834 34.5278 -16.4328
  100 475.025 27.8143 -34.3700
  101 304.831 4.79092 -15.8431
  102 304.831 4.79092 -15.8431
  103 247.779 -48.7289 -111.359
  104 247.779 -48.7289 -111.359
  105 210.179 -56.0423 117.709
  106 210.179 -56.0423 117.709
  107 387.120 -30.0233 -42.3346
  108 387.120 -30.0233 -42.3346
  109 290.050 -35.8778 -65.1666
  110 290.050 -35.8778 -65.1666
  111 496.624 33.9907 25.3827
  112 496.624 33.9907 25.3827
  113 38.2747 -124.356 -43.6365
  114 38.2747 -124.356 -43.6365
  115 22.2504 -146.306 13.0155
  116 22.2504 -146.306 13.0155
  117 261.619 16.6807 -3.31733
  118 261.619 16.6807 -3.31733
  119 317.585 -12.4242 -25.2324
  120 317.585 -12.4242 -25.2324
  121 528.644 14.8269 -12.0335
  122 528.644 14.8269 -12.0335
  123 60.6221 -122.664 73.7980
  124 60.6221 -122.664 73.7980
  125 286.124 9.91219 14.7193
  126 286.124 9.91219 14.7193
  127 71.6522 -99.4700 -81.9806
  128 71.6522 -99.4700 -81.9806
  129 381.985 -25.9751 62.0144
  130 381.985 -25.9751 62.0144
  131 537.999 26.7048 -36.9613
  132 537.999 26.7048 -36.9613
  133 27.8491 -167.726 -12.4012
  134 27.8491 -167.726 -12.4012
  135 33.6803 -161.157 32.1534
  136 33.6803 -161.157 32.1534
  137 312.121 3.03205 -7.57767
  138 312.121 3.03205 -7.57767
  139 296.868 10.2932 -0.544371
  140 296.868 10.2932 -0.544371
  141 303.904 5.25885 -0.0708164
  142 303.904 5.25885 -0.0708164
  143 312.839 -6.30946 22.1158
  144 312.839 -6.30946 22.1158
  145 217.978 -5.77451 51.8969
  146 315.113 -29.1376 44.1448
  147 216.068 12.4836 1.21340
  148 217.978 -5.77451 51.8969
  149 315.113 -29.1376 44.1448
  150 216.068 12.4836 1.21340
  151 282.441 5.11776 -23.4303
  152 282.441 5.11776 -23.4303
  153 524.685 15.2978 9.23801
  154 524.685 15.2978 9.23801
  155 544.459 12.6768 23.0148
  156 545.505 26.8719 45.8014
  157 544.459 12.6768 23.0148
  158 545.505 26.8719 45.8014
  159 307.213 3.54063 2.52835
  160 307.213 3.54063 2.52835
  161 193.105 -8.08291 -44.2338
  162 193.105 -8.08291 -44.2338
  163 307.229 3.44783 -2.48271
  164 307.229 3.44783 -2.48271
  165 309.078 4.16537 6.90779
  166 309.078 4.16537 6.90779
  167 361.510 -2.97742 8.76688
  168 353.151 -12.7863 -1.28315
  169 361.510 -2.97742 8.76688
  170 353.151 -12.7863 -1.28315
  171 389.225 -9.47384 1.64749
  172 389.225 -9.47384 1.64749
  173 297.093 9.33826 7.96769
  174 297.093 9.33826 7.96769
  175 149.121 -16.0822 59.9388
  176 149.121 -16.0822 59.9388
  177 132.498 -7.15141 -37.8652
  178 132.498 -7.15141 -37.8652
  179 299.617 10.0597 -7.62875
  180 299.617 10.0597 -7.62875
</Section>

newXOutput 90

<Section columns = "stress_xx | stress_yy | stress_xy">
  1 311.349 2.17591 -1.25642
  2 311.079 1.68764 1.13003
  3 311.349 2.17591 -1.25642
  4 311.079 1.68764 1.13003
  5 459.409 15.5780 117.594
  6 452.866 12.5186 -109.403
  7 459.409 15.5780 117.594
  8 452.866 12.5186 -109.403
  9 314.524 0.603122 -4.02786
  10 327.710 0.0708038 -6.64294
  11 336.202 -3.83378 -8.68343
  12 353.472 -1.79051 4.82972
  13 353.370 10.8196 3.26219
  14 354.403 -1.77497 -6.27268
  15 339.670 -5.95641 8.67730
  16 323.512 1.46039 7.76252
  17 314.824 2.06675 3.58050
  18 309.395 3.59024 0.625243
  19 307.633 3.63237 -0.0482248
  20 309.246 3.31163 -0.568113
  21 314.524 0.603122 -4.02786
  22 327.710 0.0708038 -6.64294
  23 336.202 -3.83378 -8.68343
  24 353.472 -1.79051 4.82972
  25 353.370 10.8196 3.26219
  26 354.403 -1.77497 -6.27268
  27 339.670 -5.95641 8.67730
  28 323.512 1.46039 7.76252
  29 314.824 2.06675 3.58050
  30 309.395 3.59024 0.625243
  31 307.633 3.63237 -0.0482248
  32 309.246 3.31163 -0.568113
  33 675.346 5.67658 50.1691
  34 588.867 5.77092 32.5436
  35 566.222 11.2029 12.9347
  36 549.238 6.65594 -3.34770
  37 580.559 2.10652 -12.4345
  38 594.730 11.4248 -29.5113
  39 619.442 41.7329 -62.0802
  40 153.577 -86.4329 -133.790
  41 31.0686 -165.672 -55.9097
  42 12.2770 -227.795 -18.0055
  43 8.28304 -241.859 -1.81318
  44 10.0937 -230.706 18.1478
  45 28.4666 -197.850 48.4775
  46 125.028 -87.4381 131.381
  47 675.346 5.67658 50.1691
  48 588.867 5.77092 32.5436
  49 566.222 11.2029 12.9347
  50 549.238 6.65594 -3.34770
  51 580.559 2.10652 -12.4345
  52 594.730 11.4248 -29.5113
  53 619.442 41.7329 -62.0802
  54 153.577 -86.4329 -133.790
  55 31.0686 -165.672 -55.9097
  56 12.2770 -227.795 -18.0055
  57 8.28304 -241.859 -1.81318
  58 10.0937 -230.706 18.1478
  59 28.4666 -197.850 48.4775
  60 125.028 -87.4381 131.381
  61 288.382 12.2916 -5.27942
  62 288.382 12.2916 -5.27942
  63 267.459 3.91391 28.6997
  64 259.713 1.75369 -34.9285
  65 267.459 3.91391 28.6997
  66 259.713 1.75369 -34.9285
  67 149.497 3.14196 9.65920
  68 149.497 3.14196 9.65920
  69 241.156 -44.8277 95.2877
  70 241.156 -44.8277 95.2877
  71 146.865 -42.7669 -76.5510
  72 362.143 -30.8638 -16.4014
  73 401.432 22.6497 -0.675555
  74 383.427 10.6484 -4.07047
  75 146.865 -42.7669 -76.5510
  76 362.143 -30.8638 -16.4014
  77 401.432 22.6497 -0.675555
  78 383.427 10.6484 -4.07047
  79 355.685 -16.5804 7.67567
  80 355.685 -16.5804 7.67567
  81 457.641 33.8766 2.41403
  82 457.641 33.8766 2.41403
  83 78.2464 -50.1648 -6.54939
  84 78.2464 -50.1648 -6.54939
  85 101.497 -67.3518 66.2629
  86 101.497 -67.3518 66.2629
  87 383.880 -22.2012 12.1105
  88 383.880 -22.2012 12.1105
  89 305.453 6.83967 4.38920
  90 306.740 7.47713 -4.47481
  91 305.453 6.83967 4.38920
  92 306.740 7.47713 -4.47481
  93 439.707 23.0298 15.6424
  94 439.707 23.0298 15.6424
  95 316.048 3.03779 13.0132
  96 316.048 3.03779 13.0132
  97 473.897 34.9023 -16.6234
  98 480.136 28.1368 -34.7747
  99 473.897 34.9023 -16.6234
  100 480.136 28.1368 -34.7747
  101 308.173 4.84268 -16.0137
  102 308.173 4.84268 -16.0137
  103 250.461 -49.2332 -112.626
  104 250.461 -49.2332 -112.626
  105 212.460 -56.6260 119.053
  106 212.460 -56.6260 119.053
  107 391.305 -30.3370 -42.8358
  108 391.305 -30.3370 -42.8358
  109 293.217 -36.2737 -65.8943
  110 293.217 -36.2737 -65.8943
  111 501.961 34.3617 25.6691
  112 501.961 34.3617 25.6691
  113 38.7021 -125.723 -44.1520
  114 38.7021 -125.723 -44.1520
  115 22.4960 -147.929 13.1721
  116 22.4960 -147.929 13.1721
  117 264.510 16.8648 -3.35285
  118 264.510 16.8648 -3.35285
  119 321.056 -12.5616 -25.5123
  120 321.056 -12.5616 -25.5123
  121 534.284 14.9821 -12.1621
  122 534.284 14.9821 -12.1621
  123 61.2964 -123.991 74.6710
  124 61.2964 -123.991 74.6710
  125 289.272 10.0205 14.8779
  126 289.272 10.0205 14.8779
  127 72.4502 -100.539 -82.9401
  128 72.4502 -100.539 -82.9401
  129 386.113 -26.2430 62.7299
  130 386.113 -26.2430 62.7299
  131 543.739 26.9936 -37.3694
  132 543.739 26.9936 -37.3694
  133 28.1560 -169.595 -12.5481
  134 28.1560 -169.595 -12.5481
  135 34.0534 -162.939 32.5443
  136 34.0534 -162.939 32.5443
  137 315.537 3.06454 -7.65789
  138 315.537 3.06454 -7.65789
  139 300.130 10.4040 -0.550168
  140 300.130 10.4040 -0.550168
  141 307.237 5.31483 -0.0715494
  142 307.237 5.31483 -0.0715494
  143 316.262 -6.37943 22.3586
  144 316.262 -6.37943 22.3586
  145 220.393 -5.83536 52.4702
  146 318.549 -29.4588 44.6395
  147 218.473 12.6246 1.22766
  148 220.393 -5.83536 52.4702
  149 318.549 -29.4588 44.6395
  150 218.473 12.6246 1.22766
  151 285.549 5.17406 -23.6839
  152 285.549 5.17406 -23.6839
  153 530.290 15.4569 9.33910
  154 530.290 15.4569 9.33910
  155 550.261 12.8092 23.2616
  156 551.320 27.1815 46.3159
  157 550.261 12.8092 23.2616
  158 551.320 27.1815 46.3159
  159 310.579 3.57836 2.55444
  160 310.579 3.57836 2.55444
  161 195.254 -8.16862 -44.7237
  162 195.254 -8.16862 -44.7237
  163 310.596 3.48457 -2.50832
  164 310.596 3.48457 -2.50832
  165 312.463 4.21011 6.98009
  166 312.463 4.21011 6.98009
  167 365.456 -3.00726 8.84545
  168 356.997 -12.9278 -1.30870
  169 365.456 -3.00726 8.84545
  170 356.997 -12.9278 -1.30870
  171 393.453 -9.56847 1.63404
  172 393.453 -9.56847 1.63404
  173 300.357 9.43916 8.05204
  174 300.357 9.43916 8.05204
  175 150.785 -16.2507 60.6109
  176 150.785 -16.2507 60.6109
  177 133.985 -7.21799 -38.2893
  178 133.985 -7.21799 -38.2893
  179 302.906 10.1684 -7.70975
  180 302.906 10.1684 -7.70975
</Section>

newXOutput 91

<Section columns = "stress_xx | stress_yy | stress_xy">
  1 314.720 2.19876 -1.26918
  2 314.447 1.70532 1.14148
  3 314.720 2.19876 -1.26918
  4 314.447 1.70532 1.14148
  5 464.237 15.8099 118.902
  6 457.644 12.7178 -110.631
  7 464.237 15.8099 118.902
  8 457.644 12.7178 -110.631
  9 317.926 0.609120 -4.06944
  10 331.245 0.0716112 -6.71226
  11 339.828 -3.87621 -8.77907
  12 357.289 -1.80992 4.87239
  13 357.203 10.9389 3.29457
  14 358.231 -1.79361 -6.32876
  15 343.330 -6.02191 8.77336
  16 327.005 1.47577 7.84356
  17 318.229 2.08858 3.61706
  18 312.746 3.62785 0.631584
  19 310.968 3.67034 -0.0487061
  20 312.596 3.34630 -0.573879
  21 317.926 0.609120 -4.06944
  22 331.245 0.0716112 -6.71226
  23 339.828 -3.87621 -8.77907
  24 357.289 -1.80992 4.87239
  25 357.203 10.9389 3.29457
  26 358.231 -1.79361 -6.32876
  27 343.330 -6.02191 8.77336
  28 327.005 1.47577 7.84356
  29 318.229 2.08858 3.61706
  30 312.746 3.62785 0.631584
  31 310.968 3.67034 -0.0487061
  32 312.596 3.34630 -0.573879
  33 682.362 5.73938 50.7070
  34 595.024 5.82492 32.8889
  35 572.153 11.3185 13.0687
  36 555.002 6.72167 -3.38148
  37 586.618 2.12756 -12.5645
  38 600.946 11.5462 -29.8221
  39 625.924 42.2003 -62.7603
  40 155.218 -87.2999 -135.308
  41 31.4084 -167.462 -56.5712
  42 12.4078 -230.331 -18.2241
  43 8.36681 -244.566 -1.83287
  44 10.1981 -233.272 18.3672
  45 28.7769 -200.007 49.0570
  46 126.366 -88.3159 132.876
  47 682.362 5.73938 50.7070
  48 595.024 5.82492 32.8889
  49 572.153 11.3185 13.0687
  50 555.002 6.72167 -3.38148
  51 586.618 2.12756 -12.5645
  52 600.946 11.5462 -29.8221
  53 625.924 42.2003 -62.7603
  54 155.218 -87.2999 -135.308
  55 31.4084 -167.462 -56.5712
  56 12.4078 -230.331 -18.2241
  57 8.36681 -244.566 -1.83287
  58 10.1981 -233.272 18.3672
  59 28.7769 -200.007 49.0570
  60 126.366 -88.3159 132.876
  61 291.521 12.4239 -5.33543
  62 291.521 12.4239 -5.33543
  63 270.374 3.95756 29.0098
  64 262.545 1.77382 -35.3058
  65 270.374 3.95756 29.0098
  66 262.545 1.77382 -35.3058
  67 151.156 3.18591 9.76563
  68 151.156 3.18591 9.76563
  69 243.763 -45.3181 96.3426
  70 243.763 -45.3181 96.3426
  71 148.474 -43.2243 -77.4096
  72 366.034 -31.1981 -16.5978
  73 405.754 22.8994 -0.696839
  74 387.560 10.7671 -4.09802
  75 148.474 -43.2243 -77.4096
  76 366.034 -31.1981 -16.5978
  77 405.754 22.8994 -0.696839
  78 387.560 10.7671 -4.09802
  79 359.515 -16.7602 7.77251
  80 359.515 -16.7602 7.77251
  81 462.532 34.2392 2.44617
  82 462.532 34.2392 2.44617
  83 79.1163 -50.6958 -6.62408
  84 79.1163 -50.6958 -6.62408
  85 102.609 -68.0733 67.0177
  86 102.609 -68.0733 67.0177
  87 387.998 -22.4355 12.2706
  88 387.998 -22.4355 12.2706
  89 308.766 6.91205 4.43440
  90 310.065 7.55643 -4.52089
  91 308.766 6.91205 4.43440
  92 310.065 7.55643 -4.52089
  93 444.410 23.2912 15.8416
  94 444.410 23.2912 15.8416
  95 319.467 3.06990 13.1509
  96 319.467 3.06990 13.1509
  97 478.954 35.2764 -16.8140
  98 485.241 28.4595 -35.1796
  99 478.954 35.2764 -16.8140
  100 485.241 28.4595 -35.1796
  101 311.512 4.89439 -16.1842
  102 311.512 4.89439 -16.1842
  103 253.140 -49.7364 -113.893
  104 253.140 -49.7364 -113.893
  105 214.737 -57.2085 120.396
  106 214.737 -57.2085 120.396
  107 395.484 -30.6502 -43.3374
  108 395.484 -30.6502 -43.3374
  109 296.382 -36.6694 -66.6218
  110 296.382 -36.6694 -66.6218
  111 507.291 34.7324 25.9555
  112 507.291 34.7324 25.9555
  113 39.1293 -127.088 -44.6679
  114 39.1293 -127.088 -44.6679
  115 22.7413 -149.551 13.3289
  116 22.7413 -149.551 13.3289
  117 267.400 17.0487 -3.38832
  118 267.400 17.0487 -3.38832
  119 324.524 -12.6990 -25.7921
  120 324.524 -12.6990 -25.7921
  121 539.915 15.1371 -12.2905
  122 539.915 15.1371 -12.2905
  123 61.9703 -125.315 75.5447
  124 61.9703 -125.315 75.5447
  125 292.418 10.1286 15.0362
  126 292.418 10.1286 15.0362
  127 73.2479 -101.608 -83.9002
  128 73.2479 -101.608 -83.9002
  129 390.236 -26.5102 63.4457
  130 390.236 -26.5102 63.4457
  131 549.470 27.2820 -37.7771
  132 549.470 27.2820 -37.7771
  133 28.4627 -171.464 -12.6951
  134 28.4627 -171.464 -12.6951
  135 34.4262 -164.720 32.9357
  136 34.4262 -164.720 32.9357
  137 318.950 3.09699 -7.73798
  138 318.950 3.09699 -7.73798
  139 303.390 10.5146 -0.555957
  140 303.390 10.5146 -0.555957
  141 310.568 5.37073 -0.0722808
  142 310.568 5.37073 -0.0722808
  143 319.681 -6.44937 22.6011
  144 319.681 -6.44937 22.6011
  145 222.806 -5.89611 53.0431
  146 321.983 -29.7798 45.1342
  147 220.877 12.7656 1.24193
  148 222.806 -5.89611 53.0431
  149 321.983 -29.7798 45.1342
  150 220.877 12.7656 1.24193
  151 288.654 5.23031 -23.9372
  152 288.654 5.23031 -23.9372
  153 535.886 15.6158 9.44009
  154 535.886 15.6158 9.44009
  155 556.054 12.9413 23.5080
  156 557.127 27.4911 46.8301
  157 556.054 12.9413 23.5080
  158 557.127 27.4911 46.8301
  159 313.943 3.61604 2.58047
  160 313.943 3.61604 2.58047
  161 197.401 -8.25419 -45.2135
  162 197.401 -8.25419 -45.2135
  163 313.959 3.52126 -2.53387
  164 313.959 3.52126 -2.53387
  165 315.845 4.25480 7.05225
  166 315.845 4.25480 7.05225
  167 369.400 -3.03702 8.92358
  168 360.840 -13.0693 -1.33447
  169 369.400 -3.03702 8.92358
  170 360.840 -13.0693 -1.33447
  171 397.677 -9.66281 1.61992
  172 397.677 -9.66281 1.61992
  173 303.618 9.53995 8.13626
  174 303.618 9.53995 8.13626
  175 152.448 -16.4190 61.2828
  176 152.448 -16.4190 61.2828
  177 135.471 -7.28426 -38.7133
  178 135.471 -7.28426 -38.7133
  179 306.194 10.2770 -7.79063
  180 306.194 10.2770 -7.79063
</Section>

newXOutput 92

<Section columns = "stress_xx | stress_yy | stress_xy">
  1 318.088 2.22159 -1.28191
  2 317.812 1.72296 1.15290
  3 318.088 2.22159 -1.28191
  4 317.812 1.72296 1.15290
  5 469.059 16.0429 120.209
  6 462.416 12.9182 -111.860
  7 469.059 16.0429 120.209
  8 462.416 12.9182 -111.860
  9 321.325 0.615101 -4.11094
  10 334.776 0.0724190 -6.78147
  11 343.451 -3.91864 -8.87466
  12 361.103 -1.82932 4.91481
  13 361.032 11.0581 3.32685
  14 362.056 -1.81222 -6.38454
  15 346.988 -6.08737 8.86938
  16 330.494 1.49112 7.92446
  17 321.631 2.11038 3.65354
  18 316.096 3.66540 0.637910
  19 314.300 3.70826 -0.0491861
  20 315.944 3.38092 -0.579632
  21 321.325 0.615101 -4.11094
  22 334.776 0.0724190 -6.78147
  23 343.451 -3.91864 -8.87466
  24 361.103 -1.82932 4.91481
  25 361.032 11.0581 3.32685
  26 362.056 -1.81222 -6.38454
  27 346.988 -6.08737 8.86938
  28 330.494 1.49112 7.92446
  29 321.631 2.11038 3.65354
  30 316.096 3.66540 0.637910
  31 314.300 3.70826 -0.0491861
  32 315.944 3.38092 -0.579632
  33 689.365 5.80217 51.2443
  34 601.172 5.87871 33.2337
  35 578.075 11.4339 13.2024
  36 560.759 6.78722 -3.41518
  37 592.667 2.14855 -12.6944
  38 607.153 11.6674 -30.1324
  39 632.395 42.6677 -63.4401
  40 156.856 -88.1647 -136.827
  41 31.7481 -169.250 -57.2335
  42 12.5385 -232.866 -18.4431
  43 8.45039 -247.272 -1.85254
  44 10.3023 -235.838 18.5869
  45 29.0870 -202.162 49.6372
  46 127.703 -89.1915 134.371
  47 689.365 5.80217 51.2443
  48 601.172 5.87871 33.2337
  49 578.075 11.4339 13.2024
  50 560.759 6.78722 -3.41518
  51 592.667 2.14855 -12.6944
  52 607.153 11.6674 -30.1324
  53 632.395 42.6677 -63.4401
  54 156.856 -88.1647 -136.827
  55 31.7481 -169.250 -57.2335
  56 12.5385 -232.866 -18.4431
  57 8.45039 -247.272 -1.85254
  58 10.3023 -235.838 18.5869
  59 29.0870 -202.162 49.6372
  60 127.703 -89.1915 134.371
  61 294.657 12.5561 -5.39137
  62 294.657 12.5561 -5.39137
  63 273.288 4.00119 29.3196
  64 265.375 1.79396 -35.6828
  65 273.288 4.00119 29.3196
  66 265.375 1.79396 -35.6828
  67 152.815 3.23003 9.87201
  68 152.815 3.23003 9.87201
  69 246.367 -45.8082 97.3972
  70 246.367 -45.8082 97.3972
  71 150.083 -43.6812 -78.2681
  72 369.922 -31.5322 -16.7945
  73 410.073 23.1490 -0.718401
  74 391.690 10.8858 -4.12519
  75 150.083 -43.6812 -78.2681
  76 369.922 -31.5322 -16.7945
  77 410.073 23.1490 -0.718401
  78 391.690 10.8858 -4.12519
  79 363.341 -16.9398 7.86957
  80 363.341 -16.9398 7.86957
  81 467.418 34.6014 2.47840
  82 467.418 34.6014 2.47840
  83 79.9860 -51.2262 -6.69880
  84 79.9860 -51.2262 -6.69880
  85 103.720 -68.7941 67.7727
  86 103.720 -68.7941 67.7727
  87 392.113 -22.6695 12.4313
  88 392.113 -22.6695 12.4313
  89 312.076 6.98433 4.47951
  90 313.388 7.63562 -4.56689
  91 312.076 6.98433 4.47951
  92 313.388 7.63562 -4.56689
  93 449.108 23.5526 16.0413
  94 449.108 23.5526 16.0413
  95 322.882 3.10196 13.2883
  96 322.882 3.10196 13.2883
  97 484.005 35.6502 -17.0047
  98 490.340 28.7823 -35.5848
  99 484.005 35.6502 -17.0047
  100 490.340 28.7823 -35.5848
  101 314.849 4.94603 -16.3544
  102 314.849 4.94603 -16.3544
  103 255.817 -50.2386 -115.160
  104 255.817 -50.2386 -115.160
  105 217.013 -57.7898 121.740
  106 217.013 -57.7898 121.740
  107 399.659 -30.9628 -43.8393
  108 399.659 -30.9628 -43.8393
  109 299.543 -37.0649 -67.3490
  110 299.543 -37.0649 -67.3490
  111 512.615 35.1027 26.2417
  112 512.615 35.1027 26.2417
  113 39.5563 -128.453 -45.1843
  114 39.5563 -128.453 -45.1843
  115 22.9866 -151.173 13.4859
  116 22.9866 -151.173 13.4859
  117 270.287 17.2325 -3.42374
  118 270.287 17.2325 -3.42374
  119 327.988 -12.8362 -26.0717
  120 327.988 -12.8362 -26.0717
  121 545.539 15.2918 -12.4187
  122 545.539 15.2918 -12.4187
  123 62.6439 -126.639 76.4192
  124 62.6439 -126.639 76.4192
  125 295.561 10.2367 15.1944
  126 295.561 10.2367 15.1944
  127 74.0451 -102.674 -84.8609
  128 74.0451 -102.674 -84.8609
  129 394.355 -26.7769 64.1616
  130 394.355 -26.7769 64.1616
  131 555.193 27.5702 -38.1846
  132 555.193 27.5702 -38.1846
  133 28.7691 -173.332 -12.8423
  134 28.7691 -173.332 -12.8423
  135 34.7988 -166.501 33.3277
  136 34.7988 -166.501 33.3277
  137 322.361 3.12940 -7.81795
  138 322.361 3.12940 -7.81795
  139 306.647 10.6250 -0.561738
  140 306.647 10.6250 -0.561738
  141 313.896 5.42655 -0.0730108
  142 313.896 5.42655 -0.0730108
  143 323.098 -6.51927 22.8435
  144 323.098 -6.51927 22.8435
  145 225.219 -5.95677 53.6156
  146 325.413 -30.1006 45.6286
  147 223.280 12.9066 1.25622
  148 225.219 -5.95677 53.6156
  149 325.413 -30.1006 45.6286
  150 223.280 12.9066 1.25622
  151 291.757 5.28653 -24.1903
  152 291.757 5.28653 -24.1903
  153 541.475 15.7743 9.54100
  154 541.475 15.7743 9.54100
  155 561.839 13.0731 23.7541
  156 562.926 27.8009 47.3442
  157 561.839 13.0731 23.7541
  158 562.926 27.8009 47.3442
  159 317.304 3.65367 2.60645
  160 317.304 3.65367 2.60645
  161 199.548 -8.33964 -45.7029
  162 199.548 -8.33964 -45.7029
  163 317.320 3.55790 -2.55937
  164 317.320 3.55790 -2.55937
  165 319.225 4.29944 7.12428
  166 319.225 4.29944 7.12428
  167 373.340 -3.06669 9.00127
  168 364.680 -13.2107 -1.36047
  169 373.340 -3.06669 9.00127
  170 364.680 -13.2107 -1.36047
  171 401.896 -9.75686 1.60513
  172 401.896 -9.75686 1.60513
  173 306.877 9.64062 8.22034
  174 306.877 9.64062 8.22034
  175 154.110 -16.5869 61.9545
  176 154.110 -16.5869 61.9545
  177 136.958 -7.35023 -39.1372
  178 136.958 -7.35023 -39.1372
  179 309.478 10.3855 -7.87139
  180 309.478 10.3855 -7.87139
</Section>

newXOutput 93

<Section columns = "stress_xx | stress_yy | stress_xy">
  1 321.453 2.24438 -1.29461
  2 321.175 1.74058 1.16430
  3 321.453 2.24438 -1.29461
  4 321.175 1.74058 1.16430
  5 473.873 16.2772 121.517
  6 467.182 13.1199 -113.088
  7 473.873 16.2772 121.517
  8 467.182 13.1199 -113.088
  9 324.721 0.621066 -4.15237
  10 338.305 0.0732270 -6.85057
  11 347.070 -3.96104 -8.97020
  12 364.914 -1.84870 4.95699
  13 364.859 11.1773 3.35904
  14 365.877 -1.83080 -6.44002
  15 350.642 -6.15281 8.96536
  16 333.981 1.50645 8.00524
  17 325.030 2.13215 3.68994
  18 319.442 3.70289 0.644222
  19 317.630 3.74612 -0.0496649
  20 319.289 3.41548 -0.585372
  21 324.721 0.621066 -4.15237
  22 338.305 0.0732270 -6.85057
  23 347.070 -3.96104 -8.97020
  24 364.914 -1.84870 4.95699
  25 364.859 11.1773 3.35904
  26 365.877 -1.83080 -6.44002
  27 350.642 -6.15281 8.96536
  28 333.981 1.50645 8.00524
  29 325.030 2.13215 3.68994
  30 319.442 3.70289 0.644222
  31 317.630 3.74612 -0.0496649
  32 319.289 3.41548 -0.585372
  33 696.357 5.86492 51.7811
  34 607.310 5.93227 33.5780
  35 583.988 11.5491 13.3359
  36 566.506 6.85258 -3.44880
  37 598.706 2.16948 -12.8241
  38 613.349 11.7884 -30.4423
  39 638.857 43.1350 -64.1194
  40 158.493 -89.0272 -138.346
  41 32.0875 -171.036 -57.8965
  42 12.6690 -235.401 -18.6624
  43 8.53377 -249.978 -1.87219
  44 10.4063 -238.403 18.8070
  45 29.3969 -204.315 50.2182
  46 129.039 -90.0648 135.866
  47 696.357 5.86492 51.7811
  48 607.310 5.93227 33.5780
  49 583.988 11.5491 13.3359
  50 566.506 6.85258 -3.44880
  51 598.706 2.16948 -12.8241
  52 613.349 11.7884 -30.4423
  53 638.857 43.1350 -64.1194
  54 158.493 -89.0272 -138.346
  55 32.0875 -171.036 -57.8965
  56 12.6690 -235.401 -18.6624
  57 8.53377 -249.978 -1.87219
  58 10.4063 -238.403 18.8070
  59 29.3969 -204.315 50.2182
  60 129.039 -90.0648 135.866
  61 297.791 12.6882 -5.44724
  62 297.791 12.6882 -5.44724
  63 276.199 4.04482 29.6292
  64 268.204 1.81411 -36.0594
  65 276.199 4.04482 29.6292
  66 268.204 1.81411 -36.0594
  67 154.474 3.27433 9.97835
  68 154.474 3.27433 9.97835
  69 248.970 -46.2981 98.4515
  70 248.970 -46.2981 98.4515
  71 151.691 -44.1376 -79.1266
  72 373.805 -31.8660 -16.9914
  73 414.387 23.3985 -0.740239
  74 395.815 11.0044 -4.15199
  75 151.691 -44.1376 -79.1266
  76 373.805 -31.8660 -16.9914
  77 414.387 23.3985 -0.740239
  78 395.815 11.0044 -4.15199
  79 367.164 -17.1194 7.96683
  80 367.164 -17.1194 7.96683
  81 472.298 34.9632 2.51073
  82 472.298 34.9632 2.51073
  83 80.8555 -51.7559 -6.77354
  84 80.8555 -51.7559 -6.77354
  85 104.830 -69.5141 68.5279
  86 104.830 -69.5141 68.5279
  87 396.223 -22.9032 12.5924
  88 396.223 -22.9032 12.5924
  89 315.384 7.05652 4.52454
  90 316.709 7.71471 -4.61280
  91 315.384 7.05652 4.52454
  92 316.709 7.71471 -4.61280
  93 453.801 23.8141 16.2415
  94 453.801 23.8141 16.2415
  95 326.295 3.13398 13.4255
  96 326.295 3.13398 13.4255
  97 489.051 36.0236 -17.1955
  98 495.433 29.1053 -35.9903
  99 489.051 36.0236 -17.1955
  100 495.433 29.1053 -35.9903
  101 318.182 4.99762 -16.5244
  102 318.182 4.99762 -16.5244
  103 258.490 -50.7397 -116.427
  104 258.490 -50.7397 -116.427
  105 219.286 -58.3700 123.083
  106 219.286 -58.3700 123.083
  107 403.830 -31.2747 -44.3417
  108 403.830 -31.2747 -44.3417
  109 302.702 -37.4601 -68.0759
  110 302.702 -37.4601 -68.0759
  111 517.932 35.4728 26.5279
  112 517.932 35.4728 26.5279
  113 39.9831 -129.817 -45.7011
  114 39.9831 -129.817 -45.7011
  115 23.2316 -152.793 13.6431
  116 23.2316 -152.793 13.6431
  117 273.173 17.4162 -3.45912
  118 273.173 17.4162 -3.45912
  119 331.450 -12.9734 -26.3512
  120 331.450 -12.9734 -26.3512
  121 551.156 15.4462 -12.5467
  122 551.156 15.4462 -12.5467
  123 63.3172 -127.961 77.2945
  124 63.3172 -127.961 77.2945
  125 298.703 10.3447 15.3524
  126 298.703 10.3447 15.3524
  127 74.8420 -103.740 -85.8222
  128 74.8420 -103.740 -85.8222
  129 398.469 -27.0429 64.8777
  130 398.469 -27.0429 64.8777
  131 560.908 27.8580 -38.5918
  132 560.908 27.8580 -38.5918
  133 29.0754 -175.199 -12.9896
  134 29.0754 -175.199 -12.9896
  135 35.1712 -168.280 33.7203
  136 35.1712 -168.280 33.7203
  137 325.768 3.16177 -7.89779
  138 325.768 3.16177 -7.89779
  139 309.902 10.7353 -0.567510
  140 309.902 10.7353 -0.567510
  141 317.222 5.48229 -0.0737392
  142 317.222 5.48229 -0.0737392
  143 326.512 -6.58913 23.0857
  144 326.512 -6.58913 23.0857
  145 227.630 -6.01732 54.1878
  146 328.841 -30.4211 46.1229
  147 225.682 13.0476 1.27051
  148 227.630 -6.01732 54.1878
  149 328.841 -30.4211 46.1229
  150 225.682 13.0476 1.27051
  151 294.858 5.34270 -24.4431
  152 294.858 5.34270 -24.4431
  153 547.057 15.9325 9.64181
  154 547.057 15.9325 9.64181
  155 567.616 13.2047 23.9999
  156 568.716 28.1107 47.8581
  157 567.616 13.2047 23.9999
  158 568.716 28.1107 47.8581
  159 320.661 3.69124 2.63237
  160 320.661 3.69124 2.63237
  161 201.693 -8.42496 -46.1920
  162 201.693 -8.42496 -46.1920
  163 320.678 3.59449 -2.58481
  164 320.678 3.59449 -2.58481
  165 322.601 4.34401 7.19618
  166 322.601 4.34401 7.19618
  167 377.276 -3.09627 9.07852
  168 368.516 -13.3521 -1.38669
  169 377.276 -3.09627 9.07852
  170 368.516 -13.3521 -1.38669
  171 406.112 -9.85063 1.58968
  172 406.112 -9.85063 1.58968
  173 310.133 9.74119 8.30430
  174 310.133 9.74119 8.30430
  175 155.772 -16.7545 62.6260
  176 155.772 -16.7545 62.6260
  177 138.444 -7.41589 -39.5609
  178 138.444 -7.41589 -39.5609
  179 312.761 10.4939 -7.95203
  180 312.761 10.4939 -7.95203
</Section>

newXOutput 94

<Section columns = "stress_xx | stress_yy | stress_xy">
  1 324.815 2.26713 -1.30728
  2 324.535 1.75816 1.17567
  3 324.815 2.26713 -1.30728
  4 324.535 1.75816 1.17567
  5 478.680 16.5126 122.823
  6 471.941 13.3228 -114.317
  7 478.680 16.5126 122.823
  8 471.941 13.3228 -114.317
  9 328.115 0.627015 -4.19372
  10 341.830 0.0740355 -6.91956
  11 350.686 -4.00344 -9.06571
  12 368.722 -1.86806 4.99894
  13 368.683 11.2964 3.39114
  14 369.695 -1.84935 -6.49520
  15 354.293 -6.21821 9.06132
  16 337.465 1.52176 8.08588
  17 328.427 2.15389 3.72627
  18 322.786 3.74033 0.650521
  19 320.957 3.78391 -0.0501424
  20 322.631 3.44998 -0.591100
  21 328.115 0.627015 -4.19372
  22 341.830 0.0740355 -6.91956
  23 350.686 -4.00344 -9.06571
  24 368.722 -1.86806 4.99894
  25 368.683 11.2964 3.39114
  26 369.695 -1.84935 -6.49520
  27 354.293 -6.21821 9.06132
  28 337.465 1.52176 8.08588
  29 328.427 2.15389 3.72627
  30 322.786 3.74033 0.650521
  31 320.957 3.78391 -0.0501424
  32 322.631 3.44998 -0.591100
  33 703.336 5.92766 52.3173
  34 613.439 5.98560 33.9219
  35 589.892 11.6641 13.4692
  36 572.246 6.91777 -3.48234
  37 604.736 2.19037 -12.9536
  38 619.536 11.9093 -30.7518
  39 645.308 43.6023 -64.7983
  40 160.127 -89.8874 -139.865
  41 32.4267 -172.821 -58.5602
  42 12.7994 -237.935 -18.8822
  43 8.61696 -252.684 -1.89183
  44 10.5101 -240.967 19.0274
  45 29.7066 -206.467 50.8000
  46 130.373 -90.9358 137.361
  47 703.336 5.92766 52.3173
  48 613.439 5.98560 33.9219
  49 589.892 11.6641 13.4692
  50 572.246 6.91777 -3.48234
  51 604.736 2.19037 -12.9536
  52 619.536 11.9093 -30.7518
  53 645.308 43.6023 -64.7983
  54 160.127 -89.8874 -139.865
  55 32.4267 -172.821 -58.5602
  56 12.7994 -237.935 -18.8822
  57 8.61696 -252.684 -1.89183
  58 10.5101 -240.967 19.0274
  59 29.7066 -206.467 50.8000
  60 130.373 -90.9358 137.361
  61 300.923 12.8201 -5.50303
  62 300.923 12.8201 -5.50303
  63 279.108 4.08844 29.9385
  64 271.030 1.83427 -36.4358
  65 279.108 4.08844 29.9385
  66 271.030 1.83427 -36.4358
  67 156.133 3.31881 10.0846
  68 156.133 3.31881 10.0846
  69 251.570 -46.7876 99.5054
  70 251.570 -46.7876 99.5054
  71 153.298 -44.5935 -79.9851
  72 377.685 -32.1996 -17.1885
  73 418.698 23.6479 -0.762354
  74 399.937 11.1231 -4.17842
  75 153.298 -44.5935 -79.9851
  76 377.685 -32.1996 -17.1885
  77 418.698 23.6479 -0.762354
  78 399.937 11.1231 -4.17842
  79 370.983 -17.2987 8.06431
  80 370.983 -17.2987 8.06431
  81 477.173 35.3247 2.54316
  82 477.173 35.3247 2.54316
  83 81.7247 -52.2849 -6.84830
  84 81.7247 -52.2849 -6.84830
  85 105.940 -70.2333 69.2833
  86 105.940 -70.2333 69.2833
  87 400.329 -23.1366 12.7540
  88 400.329 -23.1366 12.7540
  89 318.689 7.12862 4.56948
  90 320.027 7.79370 -4.65862
  91 318.689 7.12862 4.56948
  92 320.027 7.79370 -4.65862
  93 458.488 24.0757 16.4420
  94 458.488 24.0757 16.4420
  95 329.705 3.16596 13.5626
  96 329.705 3.16596 13.5626
  97 494.091 36.3966 -17.3863
  98 500.520 29.4283 -36.3960
  99 494.091 36.3966 -17.3863
  100 500.520 29.4283 -36.3960
  101 321.514 5.04915 -16.6942
  102 321.514 5.04915 -16.6942
  103 261.161 -51.2398 -117.693
  104 261.161 -51.2398 -117.693
  105 221.557 -58.9491 124.427
  106 221.557 -58.9491 124.427
  107 407.995 -31.5861 -44.8444
  108 407.995 -31.5861 -44.8444
  109 305.858 -37.8550 -68.8025
  110 305.858 -37.8550 -68.8025
  111 523.243 35.8425 26.8140
  112 523.243 35.8425 26.8140
  113 40.4098 -131.180 -46.2182
  114 40.4098 -131.180 -46.2182
  115 23.4765 -154.412 13.8005
  116 23.4765 -154.412 13.8005
  117 276.057 17.5997 -3.49445
  118 276.057 17.5997 -3.49445
  119 334.909 -13.1105 -26.6306
  120 334.909 -13.1105 -26.6306
  121 556.764 15.6003 -12.6746
  122 556.764 15.6003 -12.6746
  123 63.9901 -129.281 78.1704
  124 63.9901 -129.281 78.1704
  125 301.842 10.4526 15.5101
  126 301.842 10.4526 15.5101
  127 75.6385 -104.804 -86.7841
  128 75.6385 -104.804 -86.7841
  129 402.579 -27.3084 65.5940
  130 402.579 -27.3084 65.5940
  131 566.615 28.1455 -38.9988
  132 566.615 28.1455 -38.9988
  133 29.3815 -177.065 -13.1371
  134 29.3815 -177.065 -13.1371
  135 35.5434 -170.058 34.1134
  136 35.5434 -170.058 34.1134
  137 329.173 3.19410 -7.97751
  138 329.173 3.19410 -7.97751
  139 313.154 10.8455 -0.573274
  140 313.154 10.8455 -0.573274
  141 320.544 5.53794 -0.0744661
  142 320.544 5.53794 -0.0744661
  143 329.923 -6.65895 23.3276
  144 329.923 -6.65895 23.3276
  145 230.039 -6.07778 54.7596
  146 332.265 -30.7415 46.6171
  147 228.083 13.1886 1.28481
  148 230.039 -6.07778 54.7596
  149 332.265 -30.7415 46.6171
  150 228.083 13.1886 1.28481
  151 297.957 5.39883 -24.6956
  152 297.957 5.39883 -24.6956
  153 552.631 16.0904 9.74254
  154 552.631 16.0904 9.74254
  155 573.385 13.3361 24.2453
  156 574.498 28.4207 48.3718
  157 573.385 13.3361 24.2453
  158 574.498 28.4207 48.3718
  159 324.017 3.72876 2.65824
  160 324.017 3.72876 2.65824
  161 203.838 -8.51015 -46.6809
  162 203.838 -8.51015 -46.6809
  163 324.033 3.63102 -2.61020
  164 324.033 3.63102 -2.61020
  165 325.975 4.38854 7.26795
  166 325.975 4.38854 7.26795
  167 381.209 -3.12576 9.15533
  168 372.348 -13.4933 -1.41314
  169 381.209 -3.12576 9.15533
  170 372.348 -13.4933 -1.41314
  171 410.323 -9.94411 1.57356
  172 410.323 -9.94411 1.57356
  173 313.386 9.84164 8.38812
  174 313.386 9.84164 8.38812
  175 157.433 -16.9218 63.2972
  176 157.433 -16.9218 63.2972
  177 139.929 -7.48124 -39.9845
  178 139.929 -7.48124 -39.9845
  179 316.040 10.6022 -8.03254
  180 316.040 10.6022 -8.03254
</Section>

newXOutput 95

<Section columns = "stress_xx | stress_yy | stress_xy">
  1 328.175 2.28986 -1.31993
  2 327.892 1.77573 1.18702
  3 328.175 2.28986 -1.31993
  4 327.892 1.77573 1.18702
  5 483.480 16.7492 124.130
  6 476.693 13.5269 -115.545
  7 483.480 16.7492 124.130
  8 476.693 13.5269 -115.545
  9 331.505 0.632947 -4.23499
  10 345.352 0.0748443 -6.98843
  11 354.299 -4.04582 -9.16116
  12 372.526 -1.88741 5.04065
  13 372.503 11.4155 3.42316
  14 373.509 -1.86787 -6.55008
  15 357.941 -6.28359 9.15723
  16 340.945 1.53705 8.16639
  17 331.820 2.17561 3.76252
  18 326.127 3.77771 0.656805
  19 324.281 3.82165 -0.0506187
  20 325.971 3.48444 -0.596815
  21 331.505 0.632947 -4.23499
  22 345.352 0.0748443 -6.98843
  23 354.299 -4.04582 -9.16116
  24 372.526 -1.88741 5.04065
  25 372.503 11.4155 3.42316
  26 373.509 -1.86787 -6.55008
  27 357.941 -6.28359 9.15723
  28 340.945 1.53705 8.16639
  29 331.820 2.17561 3.76252
  30 326.127 3.77771 0.656805
  31 324.281 3.82165 -0.0506187
  32 325.971 3.48444 -0.596815
  33 710.304 5.99038 52.8528
  34 619.558 6.03872 34.2654
  35 595.786 11.7789 13.6022
  36 577.977 6.98277 -3.51579
  37 610.756 2.21120 -13.0828
  38 625.714 12.0301 -31.0607
  39 651.749 44.0695 -65.4768
  40 161.760 -90.7453 -141.384
  41 32.7657 -174.604 -59.2247
  42 12.9296 -240.469 -19.1023
  43 8.69995 -255.389 -1.91146
  44 10.6137 -243.531 19.2482
  45 30.0161 -208.617 51.3825
  46 131.706 -91.8045 138.857
  47 710.304 5.99038 52.8528
  48 619.558 6.03872 34.2654
  49 595.786 11.7789 13.6022
  50 577.977 6.98277 -3.51579
  51 610.756 2.21120 -13.0828
  52 625.714 12.0301 -31.0607
  53 651.749 44.0695 -65.4768
  54 161.760 -90.7453 -141.384
  55 32.7657 -174.604 -59.2247
  56 12.9296 -240.469 -19.1023
  57 8.69995 -255.389 -1.91146
  58 10.6137 -243.531 19.2482
  59 30.0161 -208.617 51.3825
  60 131.706 -91.8045 138.857
  61 304.053 12.9519 -5.55876
  62 304.053 12.9519 -5.55876
  63 282.016 4.13205 30.2476
  64 273.855 1.85443 -36.8118
  65 282.016 4.13205 30.2476
  66 273.855 1.85443 -36.8118
  67 157.791 3.36346 10.1909
  68 157.791 3.36346 10.1909
  69 254.169 -47.2769 100.559
  70 254.169 -47.2769 100.559
  71 154.904 -45.0490 -80.8435
  72 381.561 -32.5328 -17.3858
  73 423.004 23.8971 -0.784744
  74 404.055 11.2417 -4.20448
  75 154.904 -45.0490 -80.8435
  76 381.561 -32.5328 -17.3858
  77 423.004 23.8971 -0.784744
  78 404.055 11.2417 -4.20448
  79 374.798 -17.4780 8.16201
  80 374.798 -17.4780 8.16201
  81 482.043 35.6858 2.57568
  82 482.043 35.6858 2.57568
  83 82.5938 -52.8132 -6.92308
  84 82.5938 -52.8132 -6.92308
  85 107.049 -70.9518 70.0389
  86 107.049 -70.9518 70.0389
  87 404.431 -23.3697 12.9161
  88 404.431 -23.3697 12.9161
  89 321.992 7.20062 4.61433
  90 323.342 7.87260 -4.70435
  91 321.992 7.20062 4.61433
  92 323.342 7.87260 -4.70435
  93 463.171 24.3373 16.6431
  94 463.171 24.3373 16.6431
  95 333.112 3.19789 13.6995
  96 333.112 3.19789 13.6995
  97 499.125 36.7693 -17.5772
  98 505.600 29.7515 -36.8019
  99 499.125 36.7693 -17.5772
  100 505.600 29.7515 -36.8019
  101 324.842 5.10062 -16.8638
  102 324.842 5.10062 -16.8638
  103 263.829 -51.7388 -118.960
  104 263.829 -51.7388 -118.960
  105 223.826 -59.5270 125.771
  106 223.826 -59.5270 125.771
  107 412.157 -31.8969 -45.3476
  108 412.157 -31.8969 -45.3476
  109 309.011 -38.2497 -69.5288
  110 309.011 -38.2497 -69.5288
  111 528.547 36.2119 27.1001
  112 528.547 36.2119 27.1001
  113 40.8363 -132.542 -46.7359
  114 40.8363 -132.542 -46.7359
  115 23.7213 -156.031 13.9580
  116 23.7213 -156.031 13.9580
  117 278.939 17.7831 -3.52973
  118 278.939 17.7831 -3.52973
  119 338.365 -13.2476 -26.9098
  120 338.365 -13.2476 -26.9098
  121 562.365 15.7542 -12.8023
  122 562.365 15.7542 -12.8023
  123 64.6627 -130.600 79.0471
  124 64.6627 -130.600 79.0471
  125 304.979 10.5604 15.6677
  126 304.979 10.5604 15.6677
  127 76.4346 -105.867 -87.7466
  128 76.4346 -105.867 -87.7466
  129 406.684 -27.5733 66.3105
  130 406.684 -27.5733 66.3105
  131 572.315 28.4327 -39.4054
  132 572.315 28.4327 -39.4054
  133 29.6873 -178.931 -13.2846
  134 29.6873 -178.931 -13.2846
  135 35.9154 -171.835 34.5071
  136 35.9154 -171.835 34.5071
  137 332.575 3.22638 -8.05710
  138 332.575 3.22638 -8.05710
  139 316.404 10.9556 -0.579029
  140 316.404 10.9556 -0.579029
  141 323.865 5.59352 -0.0751915
  142 323.865 5.59352 -0.0751915
  143 333.331 -6.72874 23.5694
  144 333.331 -6.72874 23.5694
  145 232.447 -6.13814 55.3311
  146 335.686 -31.0616 47.1111
  147 230.482 13.3295 1.29913
  148 232.447 -6.13814 55.3311
  149 335.686 -31.0616 47.1111
  150 230.482 13.3295 1.29913
  151 301.053 5.45492 -24.9478
  152 301.053 5.45492 -24.9478
  153 558.197 16.2480 9.84317
  154 558.197 16.2480 9.84317
  155 579.146 13.4673 24.4905
  156 580.272 28.7307 48.8853
  157 579.146 13.4673 24.4905
  158 580.272 28.7307 48.8853
  159 327.369 3.76623 2.68405
  160 327.369 3.76623 2.68405
  161 205.981 -8.59521 -47.1695
  162 205.981 -8.59521 -47.1695
  163 327.386 3.66750 -2.63553
  164 327.386 3.66750 -2.63553
  165 329.346 4.43301 7.33959
  166 329.346 4.43301 7.33959
  167 385.138 -3.15517 9.23170
  168 376.176 -13.6345 -1.43981
  169 385.138 -3.15517 9.23170
  170 376.176 -13.6345 -1.43981
  171 414.530 -10.0373 1.55678
  172 414.530 -10.0373 1.55678
  173 316.638 9.94199 8.47181
  174 316.638 9.94199 8.47181
  175 159.093 -17.0889 63.9683
  176 159.093 -17.0889 63.9683
  177 141.414 -7.54628 -40.4080
  178 141.414 -7.54628 -40.4080
  179 319.318 10.7103 -8.11294
  180 319.318 10.7103 -8.11294
</Section>

newXOutput 96

<Section columns = "stress_xx | stress_yy | stress_xy">
  1 331.532 2.31255 -1.33255
  2 331.246 1.79326 1.19834
  3 331.532 2.31255 -1.33255
  4 331.246 1.79326 1.19834
  5 488.273 16.9870 125.436
  6 481.439 13.7322 -116.773
  7 488.273 16.9870 125.436
  8 481.439 13.7322 -116.773
  9 334.893 0.638864 -4.27619
  10 348.871 0.0756534 -7.05719
  11 357.909 -4.08819 -9.25657
  12 376.327 -1.90675 5.08212
  13 376.321 11.5345 3.45508
  14 377.321 -1.88637 -6.60467
  15 361.585 -6.34893 9.25311
  16 344.423 1.55231 8.24678
  17 335.211 2.19729 3.79869
  18 329.466 3.81503 0.663074
  19 327.603 3.85933 -0.0510937
  20 329.308 3.51884 -0.602517
  21 334.893 0.638864 -4.27619
  22 348.871 0.0756534 -7.05719
  23 357.909 -4.08819 -9.25657
  24 376.327 -1.90675 5.08212
  25 376.321 11.5345 3.45508
  26 377.321 -1.88637 -6.60467
  27 361.585 -6.34893 9.25311
  28 344.423 1.55231 8.24678
  29 335.211 2.19729 3.79869
  30 329.466 3.81503 0.663074
  31 327.603 3.85933 -0.0510937
  32 329.308 3.51884 -0.602517
  33 717.260 6.05307 53.3879
  34 625.668 6.09162 34.6085
  35 601.672 11.8935 13.7350
  36 583.699 7.04759 -3.54918
  37 616.767 2.23198 -13.2119
  38 631.881 12.1507 -31.3693
  39 658.181 44.5366 -66.1548
  40 163.391 -91.6011 -142.903
  41 33.1045 -176.386 -59.8898
  42 13.0596 -243.002 -19.3227
  43 8.78274 -258.094 -1.93106
  44 10.7171 -246.094 19.4693
  45 30.3253 -210.766 51.9657
  46 133.037 -92.6710 140.353
  47 717.260 6.05307 53.3879
  48 625.668 6.09162 34.6085
  49 601.672 11.8935 13.7350
  50 583.699 7.04759 -3.54918
  51 616.767 2.23198 -13.2119
  52 631.881 12.1507 -31.3693
  53 658.181 44.5366 -66.1548
  54 163.391 -91.6011 -142.903
  55 33.1045 -176.386 -59.8898
  56 13.0596 -243.002 -19.3227
  57 8.78274 -258.094 -1.93106
  58 10.7171 -246.094 19.4693
  59 30.3253 -210.766 51.9657
  60 133.037 -92.6710 140.353
  61 307.181 13.0836 -5.61442
  62 307.181 13.0836 -5.61442
  63 284.921 4.17565 30.5563
  64 276.678 1.87460 -37.1874
  65 284.921 4.17565 30.5563
  66 276.678 1.87460 -37.1874
  67 159.448 3.40829 10.2971
  68 159.448 3.40829 10.2971
  69 256.765 -47.7659 101.612
  70 256.765 -47.7659 101.612
  71 156.509 -45.5039 -81.7018
  72 385.433 -32.8658 -17.5835
  73 427.306 24.1463 -0.807408
  74 408.170 11.3603 -4.23017
  75 156.509 -45.5039 -81.7018
  76 385.433 -32.8658 -17.5835
  77 427.306 24.1463 -0.807408
  78 408.170 11.3603 -4.23017
  79 378.610 -17.6570 8.25991
  80 378.610 -17.6570 8.25991
  81 486.908 36.0465 2.60829
  82 486.908 36.0465 2.60829
  83 83.4627 -53.3408 -6.99789
  84 83.4627 -53.3408 -6.99789
  85 108.158 -71.6695 70.7947
  86 108.158 -71.6695 70.7947
  87 408.529 -23.6024 13.0787
  88 408.529 -23.6024 13.0787
  89 325.292 7.27253 4.65910
  90 326.655 7.95139 -4.74999
  91 325.292 7.27253 4.65910
  92 326.655 7.95139 -4.74999
  93 467.848 24.5990 16.8446
  94 467.848 24.5990 16.8446
  95 336.517 3.22978 13.8362
  96 336.517 3.22978 13.8362
  97 504.154 37.1416 -17.7681
  98 510.675 30.0748 -37.2080
  99 504.154 37.1416 -17.7681
  100 510.675 30.0748 -37.2080
  101 328.168 5.15204 -17.0333
  102 328.168 5.15204 -17.0333
  103 266.493 -52.2367 -120.227
  104 266.493 -52.2367 -120.227
  105 226.092 -60.1037 127.115
  106 226.092 -60.1037 127.115
  107 416.313 -32.2071 -45.8511
  108 416.313 -32.2071 -45.8511
  109 312.162 -38.6442 -70.2548
  110 312.162 -38.6442 -70.2548
  111 533.844 36.5810 27.3860
  112 533.844 36.5810 27.3860
  113 41.2627 -133.903 -47.2539
  114 41.2627 -133.903 -47.2539
  115 23.9659 -157.648 14.1158
  116 23.9659 -157.648 14.1158
  117 281.820 17.9665 -3.56497
  118 281.820 17.9665 -3.56497
  119 341.817 -13.3845 -27.1888
  120 341.817 -13.3845 -27.1888
  121 567.958 15.9077 -12.9298
  122 567.958 15.9077 -12.9298
  123 65.3350 -131.917 79.9245
  124 65.3350 -131.917 79.9245
  125 308.114 10.6681 15.8252
  126 308.114 10.6681 15.8252
  127 77.2303 -106.928 -88.7096
  128 77.2303 -106.928 -88.7096
  129 410.784 -27.8377 67.0271
  130 410.784 -27.8377 67.0271
  131 578.006 28.7196 -39.8117
  132 578.006 28.7196 -39.8117
  133 29.9930 -180.795 -13.4323
  134 29.9930 -180.795 -13.4323
  135 36.2871 -173.610 34.9014
  136 36.2871 -173.610 34.9014
  137 335.974 3.25862 -8.13657
  138 335.974 3.25862 -8.13657
  139 319.651 11.0655 -0.584776
  140 319.651 11.0655 -0.584776
  141 327.182 5.64901 -0.0759154
  142 327.182 5.64901 -0.0759154
  143 336.736 -6.79849 23.8110
  144 336.736 -6.79849 23.8110
  145 234.854 -6.19840 55.9022
  146 339.104 -31.3815 47.6049
  147 232.881 13.4704 1.31345
  148 234.854 -6.19840 55.9022
  149 339.104 -31.3815 47.6049
  150 232.881 13.4704 1.31345
  151 304.147 5.51097 -25.1998
  152 304.147 5.51097 -25.1998
  153 563.756 16.4053 9.94371
  154 563.756 16.4053 9.94371
  155 584.898 13.5982 24.7353
  156 586.038 29.0407 49.3987
  157 584.898 13.5982 24.7353
  158 586.038 29.0407 49.3987
  159 330.719 3.80364 2.70981
  160 330.719 3.80364 2.70981
  161 208.124 -8.68015 -47.6577
  162 208.124 -8.68015 -47.6577
  163 330.736 3.70394 -2.66081
  164 330.736 3.70394 -2.66081
  165 332.715 4.47742 7.41109
  166 332.715 4.47742 7.41109
  167 389.064 -3.18449 9.30764
  168 380.001 -13.7756 -1.46670
  169 389.064 -3.18449 9.30764
  170 380.001 -13.7756 -1.46670
  171 418.732 -10.1302 1.53934
  172 418.732 -10.1302 1.53934
  173 319.886 10.0422 8.55537
  174 319.886 10.0422 8.55537
  175 160.752 -17.2556 64.6391
  176 160.752 -17.2556 64.6391
  177 142.899 -7.61102 -40.8313
  178 142.899 -7.61102 -40.8313
  179 322.592 10.8184 -8.19321
  180 322.592 10.8184 -8.19321
</Section>

newXOutput 97

<Section columns = "stress_xx | stress_yy | stress_xy">
  1 334.886 2.33520 -1.34514
  2 334.597 1.81077 1.20964
  3 334.886 2.33520 -1.34514
  4 334.597 1.81077 1.20964
  5 493.059 17.2260 126.742
  6 486.178 13.9388 -118.001
  7 493.059 17.2260 126.742
  8 486.178 13.9388 -118.001
  9 338.278 0.644765 -4.31731
  10 352.387 0.0764630 -7.12584
  11 361.516 -4.13054 -9.35194
  12 380.125 -1.92607 5.12336
  13 380.136 11.6535 3.48692
  14 381.129 -1.90483 -6.65897
  15 365.226 -6.41424 9.34896
  16 347.898 1.56756 8.32703
  17 338.599 2.21894 3.83479
  18 332.801 3.85230 0.669330
  19 330.922 3.89695 -0.0515675
  20 332.642 3.55319 -0.608206
  21 338.278 0.644765 -4.31731
  22 352.387 0.0764630 -7.12584
  23 361.516 -4.13054 -9.35194
  24 380.125 -1.92607 5.12336
  25 380.136 11.6535 3.48692
  26 381.129 -1.90483 -6.65897
  27 365.226 -6.41424 9.34896
  28 347.898 1.56756 8.32703
  29 338.599 2.21894 3.83479
  30 332.801 3.85230 0.669330
  31 330.922 3.89695 -0.0515675
  32 332.642 3.55319 -0.608206
  33 724.204 6.11574 53.9223
  34 631.768 6.14430 34.9510
  35 607.550 12.0079 13.8676
  36 589.413 7.11223 -3.58248
  37 622.768 2.25270 -13.3407
  38 638.039 12.2712 -31.6773
  39 664.602 45.0037 -66.8323
  40 165.020 -92.4545 -144.423
  41 33.4430 -178.165 -60.5556
  42 13.1895 -245.535 -19.5435
  43 8.86533 -260.799 -1.95065
  44 10.8203 -248.657 19.6907
  45 30.6344 -212.914 52.5497
  46 134.367 -93.5353 141.850
  47 724.204 6.11574 53.9223
  48 631.768 6.14430 34.9510
  49 607.550 12.0079 13.8676
  50 589.413 7.11223 -3.58248
  51 622.768 2.25270 -13.3407
  52 638.039 12.2712 -31.6773
  53 664.602 45.0037 -66.8323
  54 165.020 -92.4545 -144.423
  55 33.4430 -178.165 -60.5556
  56 13.1895 -245.535 -19.5435
  57 8.86533 -260.799 -1.95065
  58 10.8203 -248.657 19.6907
  59 30.6344 -212.914 52.5497
  60 134.367 -93.5353 141.850
  61 310.306 13.2151 -5.67000
  62 310.306 13.2151 -5.67000
  63 287.825 4.21925 30.8648
  64 279.499 1.89478 -37.5628
  65 287.825 4.21925 30.8648
  66 279.499 1.89478 -37.5628
  67 161.105 3.45329 10.4032
  68 161.105 3.45329 10.4032
  69 259.358 -48.2547 102.665
  70 259.358 -48.2547 102.665
  71 158.114 -45.9584 -82.5601
  72 389.301 -33.1986 -17.7813
  73 431.605 24.3954 -0.830346
  74 412.280 11.4788 -4.25548
  75 158.114 -45.9584 -82.5601
  76 389.301 -33.1986 -17.7813
  77 431.605 24.3954 -0.830346
  78 412.280 11.4788 -4.25548
  79 382.418 -17.8360 8.35802
  80 382.418 -17.8360 8.35802
  81 491.767 36.4068 2.64100
  82 491.767 36.4068 2.64100
  83 84.3314 -53.8677 -7.07272
  84 84.3314 -53.8677 -7.07272
  85 109.266 -72.3865 71.5507
  86 109.266 -72.3865 71.5507
  87 412.623 -23.8348 13.2418
  88 412.623 -23.8348 13.2418
  89 328.589 7.34434 4.70378
  90 329.965 8.03009 -4.79555
  91 328.589 7.34434 4.70378
  92 329.965 8.03009 -4.79555
  93 472.521 24.8607 17.0466
  94 472.521 24.8607 17.0466
  95 339.918 3.26163 13.9727
  96 339.918 3.26163 13.9727
  97 509.177 37.5134 -17.9591
  98 515.743 30.3983 -37.6144
  99 509.177 37.5134 -17.9591
  100 515.743 30.3983 -37.6144
  101 331.492 5.20340 -17.2025
  102 331.492 5.20340 -17.2025
  103 269.155 -52.7336 -121.494
  104 269.155 -52.7336 -121.494
  105 228.356 -60.6794 128.459
  106 228.356 -60.6794 128.459
  107 420.465 -32.5167 -46.3550
  108 420.465 -32.5167 -46.3550
  109 315.310 -39.0383 -70.9806
  110 315.310 -39.0383 -70.9806
  111 539.135 36.9497 27.6719
  112 539.135 36.9497 27.6719
  113 41.6888 -135.262 -47.7724
  114 41.6888 -135.262 -47.7724
  115 24.2103 -159.265 14.2737
  116 24.2103 -159.265 14.2737
  117 284.698 18.1497 -3.60015
  118 284.698 18.1497 -3.60015
  119 345.267 -13.5214 -27.4677
  120 345.267 -13.5214 -27.4677
  121 573.543 16.0610 -13.0571
  122 573.543 16.0610 -13.0571
  123 66.0069 -133.233 80.8027
  124 66.0069 -133.233 80.8027
  125 311.246 10.7757 15.9824
  126 311.246 10.7757 15.9824
  127 78.0256 -107.988 -89.6733
  128 78.0256 -107.988 -89.6733
  129 414.880 -28.1014 67.7440
  130 414.880 -28.1014 67.7440
  131 583.690 29.0062 -40.2178
  132 583.690 29.0062 -40.2178
  133 30.2984 -182.659 -13.5802
  134 30.2984 -182.659 -13.5802
  135 36.6587 -175.385 35.2962
  136 36.6587 -175.385 35.2962
  137 339.370 3.29082 -8.21591
  138 339.370 3.29082 -8.21591
  139 322.896 11.1753 -0.590515
  140 322.896 11.1753 -0.590515
  141 330.497 5.70443 -0.0766378
  142 330.497 5.70443 -0.0766378
  143 340.139 -6.86821 24.0525
  144 340.139 -6.86821 24.0525
  145 237.260 -6.25857 56.4729
  146 342.519 -31.7012 48.0985
  147 235.278 13.6113 1.32778
  148 237.260 -6.25857 56.4729
  149 342.519 -31.7012 48.0985
  150 235.278 13.6113 1.32778
  151 307.239 5.56698 -25.4514
  152 307.239 5.56698 -25.4514
  153 569.307 16.5623 10.0442
  154 569.307 16.5623 10.0442
  155 590.643 13.7288 24.9797
  156 591.796 29.3509 49.9119
  157 590.643 13.7288 24.9797
  158 591.796 29.3509 49.9119
  159 334.066 3.84100 2.73551
  160 334.066 3.84100 2.73551
  161 210.265 -8.76495 -48.1458
  162 210.265 -8.76495 -48.1458
  163 334.083 3.74032 -2.68603
  164 334.083 3.74032 -2.68603
  165 336.080 4.52178 7.48247
  166 336.080 4.52178 7.48247
  167 392.986 -3.21372 9.38314
  168 383.823 -13.9166 -1.49382
  169 392.986 -3.21372 9.38314
  170 383.823 -13.9166 -1.49382
  171 422.931 -10.2229 1.52124
  172 422.931 -10.2229 1.52124
  173 323.133 10.1423 8.63880
  174 323.133 10.1423 8.63880
  175 162.411 -17.4220 65.3098
  176 162.411 -17.4220 65.3098
  177 144.383 -7.67545 -41.2544
  178 144.383 -7.67545 -41.2544
  179 325.865 10.9263 -8.27336
  180 325.865 10.9263 -8.27336
</Section>

newXOutput 98

<Section columns = "stress_xx | stress_yy | stress_xy">
  1 338.238 2.35783 -1.35770
  2 337.946 1.82825 1.22091
  3 338.238 2.35783 -1.35770
  4 337.946 1.82825 1.22091
  5 497.838 17.4661 128.047
  6 490.911 14.1466 -119.229
  7 497.838 17.4661 128.047
  8 490.911 14.1466 -119.229
  9 341.660 0.650649 -4.35835
  10 355.900 0.0772729 -7.19439
  11 365.119 -4.17288 -9.44726
  12 383.919 -1.94537 5.16436
  13 383.948 11.7725 3.51866
  14 384.934 -1.92327 -6.71297
  15 368.863 -6.47953 9.44477
  16 351.369 1.58278 8.40716
  17 341.984 2.24057 3.87081
  18 336.135 3.88951 0.675572
  19 334.238 3.93451 -0.0520401
  20 335.974 3.58748 -0.613883
  21 341.660 0.650649 -4.35835
  22 355.900 0.0772729 -7.19439
  23 365.119 -4.17288 -9.44726
  24 383.919 -1.94537 5.16436
  25 383.948 11.7725 3.51866
  26 384.934 -1.92327 -6.71297
  27 368.863 -6.47953 9.44477
  28 351.369 1.58278 8.40716
  29 341.984 2.24057 3.87081
  30 336.135 3.88951 0.675572
  31 334.238 3.93451 -0.0520401
  32 335.974 3.58748 -0.613883
  33 731.136 6.17839 54.4561
  34 637.859 6.19676 35.2932
  35 613.418 12.1221 13.9999
  36 595.119 7.17670 -3.61570
  37 628.760 2.27338 -13.4694
  38 644.187 12.3915 -31.9850
  39 671.013 45.4707 -67.5095
  40 166.647 -93.3058 -145.943
  41 33.7814 -179.944 -61.2222
  42 13.3193 -248.067 -19.7647
  43 8.94773 -263.504 -1.97023
  44 10.9233 -251.219 19.9125
  45 30.9432 -215.060 53.1345
  46 135.696 -94.3972 143.347
  47 731.136 6.17839 54.4561
  48 637.859 6.19676 35.2932
  49 613.418 12.1221 13.9999
  50 595.119 7.17670 -3.61570
  51 628.760 2.27338 -13.4694
  52 644.187 12.3915 -31.9850
  53 671.013 45.4707 -67.5095
  54 166.647 -93.3058 -145.943
  55 33.7814 -179.944 -61.2222
  56 13.3193 -248.067 -19.7647
  57 8.94773 -263.504 -1.97023
  58 10.9233 -251.219 19.9125
  59 30.9432 -215.060 53.1345
  60 135.696 -94.3972 143.347
  61 313.429 13.3466 -5.72552
  62 313.429 13.3466 -5.72552
  63 290.727 4.26283 31.1731
  64 282.318 1.91496 -37.9378
  65 290.727 4.26283 31.1731
  66 282.318 1.91496 -37.9378
  67 162.762 3.49846 10.5093
  68 162.762 3.49846 10.5093
  69 261.950 -48.7431 103.717
  70 261.950 -48.7431 103.717
  71 159.717 -46.4123 -83.4184
  72 393.166 -33.5310 -17.9794
  73 435.899 24.6443 -0.853556
  74 416.387 11.5974 -4.28044
  75 159.717 -46.4123 -83.4184
  76 393.166 -33.5310 -17.9794
  77 435.899 24.6443 -0.853556
  78 416.387 11.5974 -4.28044
  79 386.223 -18.0148 8.45634
  80 386.223 -18.0148 8.45634
  81 496.620 36.7667 2.67381
  82 496.620 36.7667 2.67381
  83 85.1998 -54.3940 -7.14757
  84 85.1998 -54.3940 -7.14757
  85 110.373 -73.1027 72.3069
  86 110.373 -73.1027 72.3069
  87 416.712 -24.0669 13.4054
  88 416.712 -24.0669 13.4054
  89 331.884 7.41606 4.74838
  90 333.273 8.10868 -4.84102
  91 331.884 7.41606 4.74838
  92 333.273 8.10868 -4.84102
  93 477.188 25.1225 17.2490
  94 477.188 25.1225 17.2490
  95 343.317 3.29343 14.1090
  96 343.317 3.29343 14.1090
  97 514.194 37.8850 -18.1502
  98 520.805 30.7218 -38.0211
  99 514.194 37.8850 -18.1502
  100 520.805 30.7218 -38.0211
  101 334.813 5.25470 -17.3715
  102 334.813 5.25470 -17.3715
  103 271.814 -53.2293 -122.761
  104 271.814 -53.2293 -122.761
  105 230.617 -61.2539 129.802
  106 230.617 -61.2539 129.802
  107 424.613 -32.8257 -46.8593
  108 424.613 -32.8257 -46.8593
  109 318.454 -39.4323 -71.7060
  110 318.454 -39.4323 -71.7060
  111 544.420 37.3181 27.9577
  112 544.420 37.3181 27.9577
  113 42.1148 -136.621 -48.2912
  114 42.1148 -136.621 -48.2912
  115 24.4546 -160.881 14.4319
  116 24.4546 -160.881 14.4319
  117 287.575 18.3327 -3.63530
  118 287.575 18.3327 -3.63530
  119 348.714 -13.6582 -27.7464
  120 348.714 -13.6582 -27.7464
  121 579.120 16.2141 -13.1842
  122 579.120 16.2141 -13.1842
  123 66.6784 -134.548 81.6815
  124 66.6784 -134.548 81.6815
  125 314.376 10.8832 16.1394
  126 314.376 10.8832 16.1394
  127 78.8206 -109.047 -90.6375
  128 78.8206 -109.047 -90.6375
  129 418.971 -28.3646 68.4610
  130 418.971 -28.3646 68.4610
  131 589.365 29.2925 -40.6235
  132 589.365 29.2925 -40.6235
  133 30.6036 -184.522 -13.7281
  134 30.6036 -184.522 -13.7281
  135 37.0300 -177.159 35.6915
  136 37.0300 -177.159 35.6915
  137 342.763 3.32298 -8.29513
  138 342.763 3.32298 -8.29513
  139 326.139 11.2849 -0.596246
  140 326.139 11.2849 -0.596246
  141 333.810 5.75977 -0.0773587
  142 333.810 5.75977 -0.0773587
  143 343.538 -6.93788 24.2937
  144 343.538 -6.93788 24.2937
  145 239.664 -6.31863 57.0432
  146 345.931 -32.0207 48.5920
  147 237.674 13.7522 1.34212
  148 239.664 -6.31863 57.0432
  149 345.931 -32.0207 48.5920
  150 237.674 13.7522 1.34212
  151 310.329 5.62295 -25.7029
  152 310.329 5.62295 -25.7029
  153 574.850 16.7190 10.1445
  154 574.850 16.7190 10.1445
  155 596.379 13.8592 25.2239
  156 597.546 29.6611 50.4249
  157 596.379 13.8592 25.2239
  158 597.546 29.6611 50.4249
  159 337.411 3.87831 2.76115
  160 337.411 3.87831 2.76115
  161 212.405 -8.84964 -48.6335
  162 212.405 -8.84964 -48.6335
  163 337.428 3.77664 -2.71120
  164 337.428 3.77664 -2.71120
  165 339.443 4.56608 7.55372
  166 339.443 4.56608 7.55372
  167 396.905 -3.24286 9.45820
  168 387.641 -14.0575 -1.52115
  169 396.905 -3.24286 9.45820
  170 387.641 -14.0575 -1.52115
  171 427.125 -10.3152 1.50248
  172 427.125 -10.3152 1.50248
  173 326.376 10.2423 8.72210
  174 326.376 10.2423 8.72210
  175 164.070 -17.5882 65.9802
  176 164.070 -17.5882 65.9802
  177 145.867 -7.73958 -41.6775
  178 145.867 -7.73958 -41.6775
  179 329.134 11.0341 -8.35340
  180 329.134 11.0341 -8.35340
</Section>

newXOutput 99

<Section columns = "stress_xx | stress_yy | stress_xy">
  1 341.587 2.38042 -1.37024
  2 341.292 1.84571 1.23215
  3 341.587 2.38042 -1.37024
  4 341.292 1.84571 1.23215
  5 502.611 17.7075 129.352
  6 495.637 14.3556 -120.456
  7 502.611 17.7075 129.352
  8 495.637 14.3556 -120.456
  9 345.040 0.656517 -4.39932
  10 359.409 0.0780831 -7.26281
  11 368.719 -4.21520 -9.54254
  12 387.710 -1.96466 5.20512
  13 387.756 11.8914 3.55032
  14 388.735 -1.94168 -6.76668
  15 372.498 -6.54478 9.54055
  16 354.838 1.59798 8.48715
  17 345.366 2.26217 3.90676
  18 339.465 3.92666 0.681799
  19 337.552 3.97201 -0.0525114
  20 339.303 3.62173 -0.619547
  21 345.040 0.656517 -4.39932
  22 359.409 0.0780831 -7.26281
  23 368.719 -4.21520 -9.54254
  24 387.710 -1.96466 5.20512
  25 387.756 11.8914 3.55032
  26 388.735 -1.94168 -6.76668
  27 372.498 -6.54478 9.54055
  28 354.838 1.59798 8.48715
  29 345.366 2.26217 3.90676
  30 339.465 3.92666 0.681799
  31 337.552 3.97201 -0.0525114
  32 339.303 3.62173 -0.619547
  33 738.056 6.24101 54.9894
  34 643.940 6.24900 35.6349
  35 619.277 12.2360 14.1320
  36 600.816 7.24098 -3.64884
  37 634.742 2.29400 -13.5978
  38 650.326 12.5117 -32.2922
  39 677.415 45.9377 -68.1862
  40 168.272 -94.1547 -147.463
  41 34.1195 -181.721 -61.8894
  42 13.4489 -250.599 -19.9862
  43 9.02993 -266.208 -1.98979
  44 11.0261 -253.781 20.1346
  45 31.2518 -217.204 53.7199
  46 137.022 -95.2569 144.844
  47 738.056 6.24101 54.9894
  48 643.940 6.24900 35.6349
  49 619.277 12.2360 14.1320
  50 600.816 7.24098 -3.64884
  51 634.742 2.29400 -13.5978
  52 650.326 12.5117 -32.2922
  53 677.415 45.9377 -68.1862
  54 168.272 -94.1547 -147.463
  55 34.1195 -181.721 -61.8894
  56 13.4489 -250.599 -19.9862
  57 9.02993 -266.208 -1.98979
  58 11.0261 -253.781 20.1346
  59 31.2518 -217.204 53.7199
  60 137.022 -95.2569 144.844
  61 316.550 13.4779 -5.78097
  62 316.550 13.4779 -5.78097
  63 293.626 4.30641 31.4811
  64 285.135 1.93515 -38.3125
  65 293.626 4.30641 31.4811
  66 285.135 1.93515 -38.3125
  67 164.418 3.54381 10.6154
  68 164.418 3.54381 10.6154
  69 264.539 -49.2313 104.770
  70 264.539 -49.2313 104.770
  71 161.320 -46.8658 -84.2766
  72 397.027 -33.8632 -18.1777
  73 440.189 24.8932 -0.877038
  74 420.490 11.7159 -4.30502
  75 161.320 -46.8658 -84.2766
  76 397.027 -33.8632 -18.1777
  77 440.189 24.8932 -0.877038
  78 420.490 11.7159 -4.30502
  79 390.024 -18.1935 8.55487
  80 390.024 -18.1935 8.55487
  81 501.469 37.1263 2.70670
  82 501.469 37.1263 2.70670
  83 86.0681 -54.9195 -7.22244
  84 86.0681 -54.9195 -7.22244
  85 111.480 -73.8182 73.0633
  86 111.480 -73.8182 73.0633
  87 420.798 -24.2986 13.5694
  88 420.798 -24.2986 13.5694
  89 335.176 7.48768 4.79289
  90 336.577 8.18718 -4.88641
  91 335.176 7.48768 4.79289
  92 336.577 8.18718 -4.88641
  93 481.850 25.3843 17.4518
  94 481.850 25.3843 17.4518
  95 346.713 3.32520 14.2452
  96 346.713 3.32520 14.2452
  97 519.206 38.2561 -18.3413
  98 525.861 31.0455 -38.4280
  99 519.206 38.2561 -18.3413
  100 525.861 31.0455 -38.4280
  101 338.131 5.30594 -17.5403
  102 338.131 5.30594 -17.5403
  103 274.471 -53.7241 -124.028
  104 274.471 -53.7241 -124.028
  105 232.876 -61.8272 131.146
  106 232.876 -61.8272 131.146
  107 428.756 -33.1341 -47.3640
  108 428.756 -33.1341 -47.3640
  109 321.597 -39.8260 -72.4311
  110 321.597 -39.8260 -72.4311
  111 549.698 37.6862 28.2435
  112 549.698 37.6862 28.2435
  113 42.5407 -137.979 -48.8106
  114 42.5407 -137.979 -48.8106
  115 24.6988 -162.496 14.5902
  116 24.6988 -162.496 14.5902
  117 290.450 18.5157 -3.67039
  118 290.450 18.5157 -3.67039
  119 352.158 -13.7949 -28.0250
  120 352.158 -13.7949 -28.0250
  121 584.690 16.3669 -13.3112
  122 584.690 16.3669 -13.3112
  123 67.3496 -135.861 82.5611
  124 67.3496 -135.861 82.5611
  125 317.504 10.9906 16.2963
  126 317.504 10.9906 16.2963
  127 79.6152 -110.104 -91.6023
  128 79.6152 -110.104 -91.6023
  129 423.058 -28.6272 69.1782
  130 423.058 -28.6272 69.1782
  131 595.033 29.5784 -41.0290
  132 595.033 29.5784 -41.0290
  133 30.9087 -186.384 -13.8762
  134 30.9087 -186.384 -13.8762
  135 37.4011 -178.931 36.0875
  136 37.4011 -178.931 36.0875
  137 346.154 3.35510 -8.37422
  138 346.154 3.35510 -8.37422
  139 329.379 11.3945 -0.601968
  140 329.379 11.3945 -0.601968
  141 337.120 5.81502 -0.0780782
  142 337.120 5.81502 -0.0780782
  143 346.935 -7.00752 24.5347
  144 346.935 -7.00752 24.5347
  145 242.067 -6.37860 57.6132
  146 349.340 -32.3400 49.0853
  147 240.069 13.8930 1.35647
  148 242.067 -6.37860 57.6132
  149 349.340 -32.3400 49.0853
  150 240.069 13.8930 1.35647
  151 313.416 5.67888 -25.9540
  152 313.416 5.67888 -25.9540
  153 580.386 16.8754 10.2448
  154 580.386 16.8754 10.2448
  155 602.108 13.9894 25.4677
  156 603.287 29.9714 50.9377
  157 602.108 13.9894 25.4677
  158 603.287 29.9714 50.9377
  159 340.752 3.91557 2.78675
  160 340.752 3.91557 2.78675
  161 214.545 -8.93419 -49.1209
  162 214.545 -8.93419 -49.1209
  163 340.770 3.81292 -2.73632
  164 340.770 3.81292 -2.73632
  165 342.803 4.61033 7.62483
  166 342.803 4.61033 7.62483
  167 400.821 -3.27192 9.53283
  168 391.455 -14.1984 -1.54871
  169 400.821 -3.27192 9.53283
  170 391.455 -14.1984 -1.54871
  171 431.316 -10.4073 1.48307
  172 431.316 -10.4073 1.48307
  173 329.618 10.3422 8.80526
  174 329.618 10.3422 8.80526
  175 165.727 -17.7540 66.6504
  176 165.727 -17.7540 66.6504
  177 147.351 -7.80341 -42.1003
  178 147.351 -7.80341 -42.1003
  179 332.402 11.1418 -8.43331
  180 332.402 11.1418 -8.43331
</Section>

newXOutput 100

<Section columns = "stress_xx | stress_yy | stress_xy">
  1 344.933 2.40297 -1.38274
  2 344.636 1.86314 1.24337
  3 344.933 2.40297 -1.38274
  4 344.636 1.86314 1.24337
  5 507.376 17.9500 130.656
  6 500.357 14.5658 -121.684
  7 507.376 17.9500 130.656
  8 500.357 14.5658 -121.684
  9 348.416 0.662370 -4.44022
  10 362.916 0.0788938 -7.33113
  11 372.316 -4.25751 -9.63777
  12 391.498 -1.98393 5.24565
  13 391.562 12.0102 3.58189
  14 392.533 -1.96006 -6.82009
  15 376.129 -6.61000 9.63629
  16 358.303 1.61316 8.56702
  17 348.746 2.28373 3.94263
  18 342.793 3.96376 0.688013
  19 340.863 4.00945 -0.0529815
  20 342.630 3.65592 -0.625198
  21 348.416 0.662370 -4.44022
  22 362.916 0.0788938 -7.33113
  23 372.316 -4.25751 -9.63777
  24 391.498 -1.98393 5.24565
  25 391.562 12.0102 3.58189
  26 392.533 -1.96006 -6.82009
  27 376.129 -6.61000 9.63629
  28 358.303 1.61316 8.56702
  29 348.746 2.28373 3.94263
  30 342.793 3.96376 0.688013
  31 340.863 4.00945 -0.0529815
  32 342.630 3.65592 -0.625198
  33 744.965 6.30362 55.5221
  34 650.012 6.30102 35.9762
  35 625.127 12.3498 14.2638
  36 606.505 7.30508 -3.68191
  37 640.714 2.31458 -13.7260
  38 656.455 12.6317 -32.5989
  39 683.807 46.4046 -68.8624
  40 169.896 -95.0015 -148.984
  41 34.4574 -183.496 -62.5574
  42 13.5783 -253.130 -20.2081
  43 9.11194 -268.913 -2.00933
  44 11.1288 -256.341 20.3571
  45 31.5602 -219.347 54.3062
  46 138.348 -96.1144 146.341
  47 744.965 6.30362 55.5221
  48 650.012 6.30102 35.9762
  49 625.127 12.3498 14.2638
  50 606.505 7.30508 -3.68191
  51 640.714 2.31458 -13.7260
  52 656.455 12.6317 -32.5989
  53 683.807 46.4046 -68.8624
  54 169.896 -95.0015 -148.984
  55 34.4574 -183.496 -62.5574
  56 13.5783 -253.130 -20.2081
  57 9.11194 -268.913 -2.00933
  58 11.1288 -256.341 20.3571
  59 31.5602 -219.347 54.3062
  60 138.348 -96.1144 146.341
  61 319.669 13.6091 -5.83634
  62 319.669 13.6091 -5.83634
  63 296.524 4.34998 31.7888
  64 287.951 1.95535 -38.6869
  65 296.524 4.34998 31.7888
  66 287.951 1.95535 -38.6869
  67 166.074 3.58933 10.7214
  68 166.074 3.58933 10.7214
  69 267.126 -49.7192 105.821
  70 267.126 -49.7192 105.821
  71 162.922 -47.3188 -85.1347
  72 400.884 -34.1952 -18.3763
  73 444.475 25.1420 -0.900791
  74 424.590 11.8344 -4.32923
  75 162.922 -47.3188 -85.1347
  76 400.884 -34.1952 -18.3763
  77 444.475 25.1420 -0.900791
  78 424.590 11.8344 -4.32923
  79 393.822 -18.3720 8.65361
  80 393.822 -18.3720 8.65361
  81 506.312 37.4855 2.73969
  82 506.312 37.4855 2.73969
  83 86.9362 -55.4443 -7.29734
  84 86.9362 -55.4443 -7.29734
  85 112.586 -74.5329 73.8200
  86 112.586 -74.5329 73.8200
  87 424.879 -24.5300 13.7339
  88 424.879 -24.5300 13.7339
  89 338.466 7.55922 4.83732
  90 339.880 8.26557 -4.93170
  91 338.466 7.55922 4.83732
  92 339.880 8.26557 -4.93170
  93 486.508 25.6462 17.6551
  94 486.508 25.6462 17.6551
  95 350.106 3.35692 14.3811
  96 350.106 3.35692 14.3811
  97 524.212 38.6269 -18.5324
  98 530.911 31.3694 -38.8351
  99 524.212 38.6269 -18.5324
  100 530.911 31.3694 -38.8351
  101 341.446 5.35713 -17.7089
  102 341.446 5.35713 -17.7089
  103 277.124 -54.2178 -125.294
  104 277.124 -54.2178 -125.294
  105 235.133 -62.3994 132.491
  106 235.133 -62.3994 132.491
  107 432.894 -33.4419 -47.8691
  108 432.894 -33.4419 -47.8691
  109 324.736 -40.2194 -73.1560
  110 324.736 -40.2194 -73.1560
  111 554.969 38.0540 28.5291
  112 554.969 38.0540 28.5291
  113 42.9663 -139.336 -49.3303
  114 42.9663 -139.336 -49.3303
  115 24.9428 -164.110 14.7487
  116 24.9428 -164.110 14.7487
  117 293.324 18.6985 -3.70544
  118 293.324 18.6985 -3.70544
  119 355.599 -13.9315 -28.3034
  120 355.599 -13.9315 -28.3034
  121 590.252 16.5193 -13.4380
  122 590.252 16.5193 -13.4380
  123 68.0205 -137.172 83.4414
  124 68.0205 -137.172 83.4414
  125 320.630 11.0979 16.4529
  126 320.630 11.0979 16.4529
  127 80.4094 -111.161 -92.5676
  128 80.4094 -111.161 -92.5676
  129 427.141 -28.8892 69.8956
  130 427.141 -28.8892 69.8956
  131 600.693 29.8640 -41.4342
  132 600.693 29.8640 -41.4342
  133 31.2135 -188.246 -14.0245
  134 31.2135 -188.246 -14.0245
  135 37.7720 -180.703 36.4839
  136 37.7720 -180.703 36.4839
  137 349.542 3.38718 -8.45319
  138 349.542 3.38718 -8.45319
  139 332.616 11.5039 -0.607682
  140 332.616 11.5039 -0.607682
  141 340.427 5.87020 -0.0787961
  142 340.427 5.87020 -0.0787961
  143 350.329 -7.07713 24.7756
  144 350.329 -7.07713 24.7756
  145 244.468 -6.43848 58.1828
  146 352.745 -32.6590 49.5785
  147 242.463 14.0338 1.37083
  148 244.468 -6.43848 58.1828
  149 352.745 -32.6590 49.5785
  150 242.463 14.0338 1.37083
  151 316.502 5.73477 -26.2049
  152 316.502 5.73477 -26.2049
  153 585.915 17.0315 10.3450
  154 585.915 17.0315 10.3450
  155 607.828 14.1194 25.7112
  156 609.021 30.2818 51.4503
  157 607.828 14.1194 25.7112
  158 609.021 30.2818 51.4503
  159 344.091 3.95277 2.81228
  160 344.091 3.95277 2.81228
  161 216.683 -9.01862 -49.6081
  162 216.683 -9.01862 -49.6081
  163 344.109 3.84915 -2.76138
  164 344.109 3.84915 -2.76138
  165 346.161 4.65453 7.69582
  166 346.161 4.65453 7.69582
  167 404.733 -3.30089 9.60703
  168 395.266 -14.3391 -1.57648
  169 404.733 -3.30089 9.60703
  170 395.266 -14.3391 -1.57648
  171 435.502 -10.4991 1.46300
  172 435.502 -10.4991 1.46300
  173 332.857 10.4420 8.88830
  174 332.857 10.4420 8.88830
  175 167.384 -17.9196 67.3204
  176 167.384 -17.9196 67.3204
  177 148.834 -7.86693 -42.5230
  178 148.834 -7.86693 -42.5230
  179 335.666 11.2493 -8.51310
  180 335.666 11.2493 -8.51310
</Section>

newXOutput 101

<Section columns = "stress_xx | stress_yy | stress_xy">
  1 348.276 2.42550 -1.39522
  2 347.977 1.88054 1.25456
  3 348.276 2.42550 -1.39522
  4 347.977 1.88054 1.25456
  5 512.134 18.1936 131.960
  6 505.070 14.7772 -122.911
  7 512.134 18.1936 131.960
  8 505.070 14.7772 -122.911
  9 351.790 0.668206 -4.48103
  10 366.419 0.0797048 -7.39934
  11 375.910 -4.29981 -9.73295
  12 395.282 -2.00319 5.28595
  13 395.365 12.1290 3.61337
  14 396.328 -1.97841 -6.87322
  15 379.757 -6.67519 9.73199
  16 361.766 1.62832 8.64676
  17 352.123 2.30527 3.97843
  18 346.118 4.00080 0.694212
  19 344.172 4.04684 -0.0534504
  20 345.953 3.69005 -0.630837
  21 351.790 0.668206 -4.48103
  22 366.419 0.0797048 -7.39934
  23 375.910 -4.29981 -9.73295
  24 395.282 -2.00319 5.28595
  25 395.365 12.1290 3.61337
  26 396.328 -1.97841 -6.87322
  27 379.757 -6.67519 9.73199
  28 361.766 1.62832 8.64676
  29 352.123 2.30527 3.97843
  30 346.118 4.00080 0.694212
  31 344.172 4.04684 -0.0534504
  32 345.953 3.69005 -0.630837
  33 751.862 6.36620 56.0542
  34 656.075 6.35282 36.3170
  35 630.969 12.4634 14.3954
  36 612.186 7.36901 -3.71489
  37 646.678 2.33510 -13.8541
  38 662.575 12.7516 -32.9052
  39 690.188 46.8715 -69.5382
  40 171.518 -95.8460 -150.505
  41 34.7951 -185.269 -63.2261
  42 13.7076 -255.660 -20.4303
  43 9.19375 -271.617 -2.02886
  44 11.2312 -258.902 20.5799
  45 31.8683 -221.489 54.8931
  46 139.672 -96.9696 147.839
  47 751.862 6.36620 56.0542
  48 656.075 6.35282 36.3170
  49 630.969 12.4634 14.3954
  50 612.186 7.36901 -3.71489
  51 646.678 2.33510 -13.8541
  52 662.575 12.7516 -32.9052
  53 690.188 46.8715 -69.5382
  54 171.518 -95.8460 -150.505
  55 34.7951 -185.269 -63.2261
  56 13.7076 -255.660 -20.4303
  57 9.19375 -271.617 -2.02886
  58 11.2312 -258.902 20.5799
  59 31.8683 -221.489 54.8931
  60 139.672 -96.9696 147.839
  61 322.786 13.7401 -5.89165
  62 322.786 13.7401 -5.89165
  63 299.420 4.39353 32.0962
  64 290.764 1.97555 -39.0609
  65 299.420 4.39353 32.0962
  66 290.764 1.97555 -39.0609
  67 167.729 3.63502 10.8273
  68 167.729 3.63502 10.8273
  69 269.711 -50.2068 106.873
  70 269.711 -50.2068 106.873
  71 164.522 -47.7714 -85.9928
  72 404.737 -34.5269 -18.5751
  73 448.758 25.3906 -0.924815
  74 428.685 11.9529 -4.35309
  75 164.522 -47.7714 -85.9928
  76 404.737 -34.5269 -18.5751
  77 448.758 25.3906 -0.924815
  78 428.685 11.9529 -4.35309
  79 397.616 -18.5504 8.75256
  80 397.616 -18.5504 8.75256
  81 511.149 37.8444 2.77277
  82 511.149 37.8444 2.77277
  83 87.8041 -55.9685 -7.37225
  84 87.8041 -55.9685 -7.37225
  85 113.692 -75.2469 74.5768
  86 113.692 -75.2469 74.5768
  87 428.957 -24.7612 13.8989
  88 428.957 -24.7612 13.8989
  89 341.753 7.63065 4.88166
  90 343.180 8.34387 -4.97692
  91 341.753 7.63065 4.88166
  92 343.180 8.34387 -4.97692
  93 491.160 25.9081 17.8589
  94 491.160 25.9081 17.8589
  95 353.496 3.38860 14.5169
  96 353.496 3.38860 14.5169
  97 529.212 38.9973 -18.7236
  98 535.955 31.6933 -39.2424
  99 529.212 38.9973 -18.7236
  100 535.955 31.6933 -39.2424
  101 344.759 5.40826 -17.8773
  102 344.759 5.40826 -17.8773
  103 279.774 -54.7104 -126.561
  104 279.774 -54.7104 -126.561
  105 237.387 -62.9705 133.835
  106 237.387 -62.9705 133.835
  107 437.027 -33.7491 -48.3746
  108 437.027 -33.7491 -48.3746
  109 327.873 -40.6126 -73.8806
  110 327.873 -40.6126 -73.8806
  111 560.234 38.4215 28.8147
  112 560.234 38.4215 28.8147
  113 43.3918 -140.691 -49.8504
  114 43.3918 -140.691 -49.8504
  115 25.1866 -165.724 14.9074
  116 25.1866 -165.724 14.9074
  117 296.195 18.8812 -3.74045
  118 296.195 18.8812 -3.74045
  119 359.037 -14.0680 -28.5817
  120 359.037 -14.0680 -28.5817
  121 595.806 16.6716 -13.5646
  122 595.806 16.6716 -13.5646
  123 68.6910 -138.482 84.3225
  124 68.6910 -138.482 84.3225
  125 323.753 11.2052 16.6094
  126 323.753 11.2052 16.6094
  127 81.2032 -112.215 -93.5336
  128 81.2032 -112.215 -93.5336
  129 431.218 -29.1506 70.6132
  130 431.218 -29.1506 70.6132
  131 606.345 30.1494 -41.8391
  132 606.345 30.1494 -41.8391
  133 31.5182 -190.106 -14.1728
  134 31.5182 -190.106 -14.1728
  135 38.1427 -182.473 36.8810
  136 38.1427 -182.473 36.8810
  137 352.927 3.41921 -8.53203
  138 352.927 3.41921 -8.53203
  139 335.852 11.6131 -0.613388
  140 335.852 11.6131 -0.613388
  141 343.731 5.92530 -0.0795125
  142 343.731 5.92530 -0.0795125
  143 353.720 -7.14670 25.0162
  144 353.720 -7.14670 25.0162
  145 246.868 -6.49825 58.7521
  146 356.148 -32.9779 50.0715
  147 244.856 14.1747 1.38520
  148 246.868 -6.49825 58.7521
  149 356.148 -32.9779 50.0715
  150 244.856 14.1747 1.38520
  151 319.585 5.79062 -26.4555
  152 319.585 5.79062 -26.4555
  153 591.436 17.1873 10.4451
  154 591.436 17.1873 10.4451
  155 613.540 14.2491 25.9544
  156 614.747 30.5923 51.9628
  157 613.540 14.2491 25.9544
  158 614.747 30.5923 51.9628
  159 347.428 3.98992 2.83777
  160 347.428 3.98992 2.83777
  161 218.821 -9.10293 -50.0950
  162 218.821 -9.10293 -50.0950
  163 347.445 3.88532 -2.78638
  164 347.445 3.88532 -2.78638
  165 349.516 4.69867 7.76668
  166 349.516 4.69867 7.76668
  167 408.641 -3.32977 9.68080
  168 399.073 -14.4798 -1.60448
  169 408.641 -3.32977 9.68080
  170 399.073 -14.4798 -1.60448
  171 439.684 -10.5906 1.44228
  172 439.684 -10.5906 1.44228
  173 336.093 10.5417 8.97120
  174 336.093 10.5417 8.97120
  175 169.040 -18.0848 67.9902
  176 169.040 -18.0848 67.9902
  177 150.316 -7.93015 -42.9456
  178 150.316 -7.93015 -42.9456
  179 338.929 11.3567 -8.59277
  180 338.929 11.3567 -8.59277
</Section>

newXOutput 102

<Section columns = "stress_xx | stress_yy | stress_xy">
  1 351.617 2.44799 -1.40767
  2 351.314 1.89791 1.26573
  3 351.617 2.44799 -1.40767
  4 351.314 1.89791 1.26573
  5 516.885 18.4385 133.264
  6 509.777 14.9899 -124.139
  7 516.885 18.4385 133.264
  8 509.777 14.9899 -124.139
  9 355.161 0.674027 -4.52177
  10 369.919 0.0805162 -7.46744
  11 379.500 -4.34209 -9.82809
  12 399.064 -2.02243 5.32601
  13 399.165 12.2478 3.64476
  14 400.120 -1.99674 -6.92605
  15 383.381 -6.74035 9.82766
  16 365.225 1.64345 8.72637
  17 355.497 2.32678 4.01415
  18 349.441 4.03778 0.700398
  19 347.478 4.08416 -0.0539180
  20 349.274 3.72414 -0.636463
  21 355.161 0.674027 -4.52177
  22 369.919 0.0805162 -7.46744
  23 379.500 -4.34209 -9.82809
  24 399.064 -2.02243 5.32601
  25 399.165 12.2478 3.64476
  26 400.120 -1.99674 -6.92605
  27 383.381 -6.74035 9.82766
  28 365.225 1.64345 8.72637
  29 355.497 2.32678 4.01415
  30 349.441 4.03778 0.700398
  31 347.478 4.08416 -0.0539180
  32 349.274 3.72414 -0.636463
  33 758.747 6.42876 56.5857
  34 662.128 6.40441 36.6574
  35 636.802 12.5767 14.5268
  36 617.858 7.43276 -3.74780
  37 652.631 2.35557 -13.9819
  38 668.685 12.8714 -33.2110
  39 696.560 47.3383 -70.2135
  40 173.137 -96.6882 -152.026
  41 35.1326 -187.041 -63.8954
  42 13.8368 -258.190 -20.6529
  43 9.27536 -274.320 -2.04838
  44 11.3335 -261.461 20.8030
  45 32.1763 -223.629 55.4809
  46 140.994 -97.8226 149.337
  47 758.747 6.42876 56.5857
  48 662.128 6.40441 36.6574
  49 636.802 12.5767 14.5268
  50 617.858 7.43276 -3.74780
  51 652.631 2.35557 -13.9819
  52 668.685 12.8714 -33.2110
  53 696.560 47.3383 -70.2135
  54 173.137 -96.6882 -152.026
  55 35.1326 -187.041 -63.8954
  56 13.8368 -258.190 -20.6529
  57 9.27536 -274.320 -2.04838
  58 11.3335 -261.461 20.8030
  59 32.1763 -223.629 55.4809
  60 140.994 -97.8226 149.337
  61 325.900 13.8711 -5.94688
  62 325.900 13.8711 -5.94688
  63 302.314 4.43708 32.4034
  64 293.576 1.99576 -39.4346
  65 302.314 4.43708 32.4034
  66 293.576 1.99576 -39.4346
  67 169.384 3.68089 10.9333
  68 169.384 3.68089 10.9333
  69 272.294 -50.6942 107.924
  70 272.294 -50.6942 107.924
  71 166.122 -48.2234 -86.8508
  72 408.586 -34.8583 -18.7741
  73 453.036 25.6392 -0.949108
  74 432.777 12.0714 -4.37657
  75 166.122 -48.2234 -86.8508
  76 408.586 -34.8583 -18.7741
  77 453.036 25.6392 -0.949108
  78 432.777 12.0714 -4.37657
  79 401.407 -18.7287 8.85171
  80 401.407 -18.7287 8.85171
  81 515.982 38.2028 2.80595
  82 515.982 38.2028 2.80595
  83 88.6718 -56.4920 -7.44719
  84 88.6718 -56.4920 -7.44719
  85 114.797 -75.9602 75.3338
  86 114.797 -75.9602 75.3338
  87 433.030 -24.9919 14.0644
  88 433.030 -24.9919 14.0644
  89 345.038 7.70200 4.92592
  90 346.477 8.42207 -5.02204
  91 345.038 7.70200 4.92592
  92 346.477 8.42207 -5.02204
  93 495.807 26.1701 18.0631
  94 495.807 26.1701 18.0631
  95 356.883 3.42023 14.6525
  96 356.883 3.42023 14.6525
  97 534.207 39.3673 -18.9148
  98 540.993 32.0174 -39.6500
  99 534.207 39.3673 -18.9148
  100 540.993 32.0174 -39.6500
  101 348.069 5.45934 -18.0455
  102 348.069 5.45934 -18.0455
  103 282.422 -55.2019 -127.828
  104 282.422 -55.2019 -127.828
  105 239.639 -63.5404 135.179
  106 239.639 -63.5404 135.179
  107 441.157 -34.0558 -48.8804
  108 441.157 -34.0558 -48.8804
  109 331.006 -41.0055 -74.6048
  110 331.006 -41.0055 -74.6048
  111 565.492 38.7886 29.1002
  112 565.492 38.7886 29.1002
  113 43.8171 -142.046 -50.3710
  114 43.8171 -142.046 -50.3710
  115 25.4303 -167.336 15.0663
  116 25.4303 -167.336 15.0663
  117 299.065 19.0638 -3.77540
  118 299.065 19.0638 -3.77540
  119 362.472 -14.2045 -28.8598
  120 362.472 -14.2045 -28.8598
  121 601.353 16.8235 -13.6910
  122 601.353 16.8235 -13.6910
  123 69.3612 -139.790 85.2042
  124 69.3612 -139.790 85.2042
  125 326.874 11.3123 16.7657
  126 326.874 11.3123 16.7657
  127 81.9966 -113.269 -94.5001
  128 81.9966 -113.269 -94.5001
  129 435.292 -29.4114 71.3310
  130 435.292 -29.4114 71.3310
  131 611.989 30.4344 -42.2437
  132 611.989 30.4344 -42.2437
  133 31.8226 -191.966 -14.3213
  134 31.8226 -191.966 -14.3213
  135 38.5132 -184.242 37.2786
  136 38.5132 -184.242 37.2786
  137 356.309 3.45121 -8.61075
  138 356.309 3.45121 -8.61075
  139 339.085 11.7222 -0.619086
  140 339.085 11.7222 -0.619086
  141 347.033 5.98032 -0.0802275
  142 347.033 5.98032 -0.0802275
  143 357.108 -7.21623 25.2567
  144 357.108 -7.21623 25.2567
  145 249.267 -6.55793 59.3210
  146 359.547 -33.2965 50.5644
  147 247.248 14.3154 1.39958
  148 249.267 -6.55793 59.3210
  149 359.547 -33.2965 50.5644
  150 247.248 14.3154 1.39958
  151 322.666 5.84643 -26.7058
  152 322.666 5.84643 -26.7058
  153 596.949 17.3428 10.5451
  154 596.949 17.3428 10.5451
  155 619.244 14.3786 26.1973
  156 620.464 30.9028 52.4751
  157 619.244 14.3786 26.1973
  158 620.464 30.9028 52.4751
  159 350.761 4.02702 2.86319
  160 350.761 4.02702 2.86319
  161 220.957 -9.18711 -50.5816
  162 220.957 -9.18711 -50.5816
  163 350.779 3.92145 -2.81134
  164 350.779 3.92145 -2.81134
  165 352.868 4.74275 7.83740
  166 352.868 4.74275 7.83740
  167 412.546 -3.35857 9.75413
  168 402.876 -14.6204 -1.63270
  169 412.546 -3.35857 9.75413
  170 402.876 -14.6204 -1.63270
  171 443.861 -10.6818 1.42091
  172 443.861 -10.6818 1.42091
  173 339.327 10.6413 9.05397
  174 339.327 10.6413 9.05397
  175 170.696 -18.2498 68.6598
  176 170.696 -18.2498 68.6598
  177 151.798 -7.99307 -43.3681
  178 151.798 -7.99307 -43.3681
  179 342.189 11.4641 -8.67232
  180 342.189 11.4641 -8.67232
</Section>

newXOutput 103

<Section columns = "stress_xx | stress_yy | stress_xy">
  1 354.955 2.47045 -1.42010
  2 354.650 1.91526 1.27687
  3 354.955 2.47045 -1.42010
  4 354.650 1.91526 1.27687
  5 521.629 18.6845 134.567
  6 514.477 15.2037 -125.366
  7 521.629 18.6845 134.567
  8 514.477 15.2037 -125.366
  9 358.529 0.679832 -4.56244
  10 373.416 0.0813280 -7.53543
  11 383.087 -4.38436 -9.92319
  12 402.842 -2.04165 5.36584
  13 402.962 12.3665 3.67607
  14 403.908 -2.01503 -6.97859
  15 387.002 -6.80547 9.92330
  16 368.682 1.65857 8.80585
  17 358.868 2.34826 4.04980
  18 352.761 4.07471 0.706569
  19 350.782 4.12143 -0.0543844
  20 352.593 3.75817 -0.642076
  21 358.529 0.679832 -4.56244
  22 373.416 0.0813280 -7.53543
  23 383.087 -4.38436 -9.92319
  24 402.842 -2.04165 5.36584
  25 402.962 12.3665 3.67607
  26 403.908 -2.01503 -6.97859
  27 387.002 -6.80547 9.92330
  28 368.682 1.65857 8.80585
  29 358.868 2.34826 4.04980
  30 352.761 4.07471 0.706569
  31 350.782 4.12143 -0.0543844
  32 352.593 3.75817 -0.642076
  33 765.620 6.49129 57.1166
  34 668.171 6.45578 36.9974
  35 642.626 12.6899 14.6579
  36 623.522 7.49633 -3.78063
  37 658.576 2.37599 -14.1095
  38 674.786 12.9910 -33.5164
  39 702.922 47.8051 -70.8885
  40 174.755 -97.5283 -153.547
  41 35.4699 -188.812 -64.5655
  42 13.9658 -260.720 -20.8759
  43 9.35679 -277.024 -2.06787
  44 11.4356 -264.020 21.0265
  45 32.4840 -225.767 56.0693
  46 142.316 -98.6733 150.835
  47 765.620 6.49129 57.1166
  48 668.171 6.45578 36.9974
  49 642.626 12.6899 14.6579
  50 623.522 7.49633 -3.78063
  51 658.576 2.37599 -14.1095
  52 674.786 12.9910 -33.5164
  53 702.922 47.8051 -70.8885
  54 174.755 -97.5283 -153.547
  55 35.4699 -188.812 -64.5655
  56 13.9658 -260.720 -20.8759
  57 9.35679 -277.024 -2.06787
  58 11.4356 -264.020 21.0265
  59 32.4840 -225.767 56.0693
  60 142.316 -98.6733 150.835
  61 329.012 14.0019 -6.00205
  62 329.012 14.0019 -6.00205
  63 305.206 4.48062 32.7103
  64 296.386 2.01598 -39.8080
  65 305.206 4.48062 32.7103
  66 296.386 2.01598 -39.8080
  67 171.038 3.72693 11.0391
  68 171.038 3.72693 11.0391
  69 274.875 -51.1812 108.974
  70 274.875 -51.1812 108.974
  71 167.721 -48.6750 -87.7088
  72 412.432 -35.1894 -18.9734
  73 457.310 25.8877 -0.973670
  74 436.865 12.1899 -4.39970
  75 167.721 -48.6750 -87.7088
  76 412.432 -35.1894 -18.9734
  77 457.310 25.8877 -0.973670
  78 436.865 12.1899 -4.39970
  79 405.194 -18.9068 8.95107
  80 405.194 -18.9068 8.95107
  81 520.809 38.5609 2.83921
  82 520.809 38.5609 2.83921
  83 89.5393 -57.0147 -7.52216
  84 89.5393 -57.0147 -7.52216
  85 115.901 -76.6726 76.0910
  86 115.901 -76.6726 76.0910
  87 437.099 -25.2224 14.2304
  88 437.099 -25.2224 14.2304
  89 348.320 7.77325 4.97009
  90 349.771 8.50018 -5.06708
  91 348.320 7.77325 4.97009
  92 349.771 8.50018 -5.06708
  93 500.450 26.4321 18.2677
  94 500.450 26.4321 18.2677
  95 360.268 3.45183 14.7880
  96 360.268 3.45183 14.7880
  97 539.196 39.7370 -19.1061
  98 546.025 32.3416 -40.0578
  99 539.196 39.7370 -19.1061
  100 546.025 32.3416 -40.0578
  101 351.377 5.51035 -18.2135
  102 351.377 5.51035 -18.2135
  103 285.067 -55.6924 -129.094
  104 285.067 -55.6924 -129.094
  105 241.889 -64.1092 136.523
  106 241.889 -64.1092 136.523
  107 445.281 -34.3618 -49.3867
  108 445.281 -34.3618 -49.3867
  109 334.138 -41.3981 -75.3288
  110 334.138 -41.3981 -75.3288
  111 570.744 39.1554 29.3856
  112 570.744 39.1554 29.3856
  113 44.2423 -143.400 -50.8920
  114 44.2423 -143.400 -50.8920
  115 25.6739 -168.947 15.2254
  116 25.6739 -168.947 15.2254
  117 301.933 19.2463 -3.81032
  118 301.933 19.2463 -3.81032
  119 365.904 -14.3409 -29.1378
  120 365.904 -14.3409 -29.1378
  121 606.892 16.9752 -13.8173
  122 606.892 16.9752 -13.8173
  123 70.0311 -141.097 86.0867
  124 70.0311 -141.097 86.0867
  125 329.993 11.4194 16.9218
  126 329.993 11.4194 16.9218
  127 82.7897 -114.321 -95.4671
  128 82.7897 -114.321 -95.4671
  129 439.360 -29.6717 72.0489
  130 439.360 -29.6717 72.0489
  131 617.625 30.7191 -42.6480
  132 617.625 30.7191 -42.6480
  133 32.1268 -193.825 -14.4699
  134 32.1268 -193.825 -14.4699
  135 38.8834 -186.010 37.6767
  136 38.8834 -186.010 37.6767
  137 359.688 3.48316 -8.68935
  138 359.688 3.48316 -8.68935
  139 342.315 11.8312 -0.624775
  140 342.315 11.8312 -0.624775
  141 350.333 6.03526 -0.0809410
  142 350.333 6.03526 -0.0809410
  143 360.493 -7.28572 25.4970
  144 360.493 -7.28572 25.4970
  145 251.664 -6.61752 59.8895
  146 362.944 -33.6149 51.0571
  147 249.639 14.4562 1.41397
  148 251.664 -6.61752 59.8895
  149 362.944 -33.6149 51.0571
  150 249.639 14.4562 1.41397
  151 325.744 5.90219 -26.9559
  152 325.744 5.90219 -26.9559
  153 602.455 17.4980 10.6450
  154 602.455 17.4980 10.6450
  155 624.940 14.5078 26.4399
  156 626.173 31.2134 52.9871
  157 624.940 14.5078 26.4399
  158 626.173 31.2134 52.9871
  159 354.092 4.06407 2.88857
  160 354.092 4.06407 2.88857
  161 223.092 -9.27116 -51.0679
  162 223.092 -9.27116 -51.0679
  163 354.110 3.95752 -2.83624
  164 354.110 3.95752 -2.83624
  165 356.217 4.78678 7.90800
  166 356.217 4.78678 7.90800
  167 416.447 -3.38727 9.82703
  168 406.676 -14.7609 -1.66113
  169 416.447 -3.38727 9.82703
  170 406.676 -14.7609 -1.66113
  171 448.035 -10.7727 1.39889
  172 448.035 -10.7727 1.39889
  173 342.559 10.7407 9.13662
  174 342.559 10.7407 9.13662
  175 172.351 -18.4145 69.3292
  176 172.351 -18.4145 69.3292
  177 153.280 -8.05569 -43.7904
  178 153.280 -8.05569 -43.7904
  179 345.446 11.5713 -8.75175
  180 345.446 11.5713 -8.75175
</Section>

newXOutput 104

<Section columns = "stress_xx | stress_yy | stress_xy">
  1 358.290 2.49287 -1.43249
  2 357.982 1.93258 1.28799
  3 358.290 2.49287 -1.43249
  4 357.982 1.93258 1.28799
  5 526.366 18.9317 135.870
  6 519.171 15.4188 -126.593
  7 526.366 18.9317 135.870
  8 519.171 15.4188 -126.593
  9 361.895 0.685620 -4.60303
  10 376.910 0.0821401 -7.60331
  11 386.671 -4.42662 -10.0182
  12 406.616 -2.06086 5.40543
  13 406.756 12.4851 3.70729
  14 407.693 -2.03330 -7.03084
  15 390.620 -6.87057 10.0189
  16 372.135 1.67366 8.88521
  17 362.236 2.36971 4.08537
  18 356.078 4.11158 0.712727
  19 354.082 4.15864 -0.0548497
  20 355.909 3.79215 -0.647677
  21 361.895 0.685620 -4.60303
  22 376.910 0.0821401 -7.60331
  23 386.671 -4.42662 -10.0182
  24 406.616 -2.06086 5.40543
  25 406.756 12.4851 3.70729
  26 407.693 -2.03330 -7.03084
  27 390.620 -6.87057 10.0189
  28 372.135 1.67366 8.88521
  29 362.236 2.36971 4.08537
  30 356.078 4.11158 0.712727
  31 354.082 4.15864 -0.0548497
  32 355.909 3.79215 -0.647677
  33 772.482 6.55381 57.6470
  34 674.206 6.50694 37.3369
  35 648.441 12.8028 14.7888
  36 629.178 7.55972 -3.81339
  37 664.511 2.39636 -14.2370
  38 680.877 13.1104 -33.8214
  39 709.274 48.2718 -71.5629
  40 176.371 -98.3660 -155.068
  41 35.8070 -190.581 -65.2363
  42 14.0946 -263.248 -21.0992
  43 9.43801 -279.727 -2.08735
  44 11.5374 -266.579 21.2504
  45 32.7915 -227.904 56.6585
  46 143.635 -99.5218 152.334
  47 772.482 6.55381 57.6470
  48 674.206 6.50694 37.3369
  49 648.441 12.8028 14.7888
  50 629.178 7.55972 -3.81339
  51 664.511 2.39636 -14.2370
  52 680.877 13.1104 -33.8214
  53 709.274 48.2718 -71.5629
  54 176.371 -98.3660 -155.068
  55 35.8070 -190.581 -65.2363
  56 14.0946 -263.248 -21.0992
  57 9.43801 -279.727 -2.08735
  58 11.5374 -266.579 21.2504
  59 32.7915 -227.904 56.6585
  60 143.635 -99.5218 152.334
  61 332.122 14.1326 -6.05715
  62 332.122 14.1326 -6.05715
  63 308.096 4.52416 33.0170
  64 299.194 2.03621 -40.1811
  65 308.096 4.52416 33.0170
  66 299.194 2.03621 -40.1811
  67 172.692 3.77313 11.1449
  68 172.692 3.77313 11.1449
  69 277.453 -51.6680 110.025
  70 277.453 -51.6680 110.025
  71 169.320 -49.1261 -88.5667
  72 416.274 -35.5203 -19.1728
  73 461.580 26.1360 -0.998499
  74 440.950 12.3083 -4.42246
  75 169.320 -49.1261 -88.5667
  76 416.274 -35.5203 -19.1728
  77 461.580 26.1360 -0.998499
  78 440.950 12.3083 -4.42246
  79 408.978 -19.0848 9.05064
  80 408.978 -19.0848 9.05064
  81 525.631 38.9187 2.87257
  82 525.631 38.9187 2.87257
  83 90.4066 -57.5368 -7.59714
  84 90.4066 -57.5368 -7.59714
  85 117.004 -77.3844 76.8484
  86 117.004 -77.3844 76.8484
  87 441.164 -25.4526 14.3968
  88 441.164 -25.4526 14.3968
  89 351.599 7.84441 5.01418
  90 353.063 8.57818 -5.11203
  91 351.599 7.84441 5.01418
  92 353.063 8.57818 -5.11203
  93 505.087 26.6941 18.4728
  94 505.087 26.6941 18.4728
  95 363.650 3.48338 14.9232
  96 363.650 3.48338 14.9232
  97 544.179 40.1063 -19.2974
  98 551.051 32.6659 -40.4658
  99 544.179 40.1063 -19.2974
  100 551.051 32.6659 -40.4658
  101 354.682 5.56131 -18.3813
  102 354.682 5.56131 -18.3813
  103 287.709 -56.1819 -130.361
  104 287.709 -56.1819 -130.361
  105 244.136 -64.6769 137.867
  106 244.136 -64.6769 137.867
  107 449.401 -34.6673 -49.8933
  108 449.401 -34.6673 -49.8933
  109 337.266 -41.7906 -76.0525
  110 337.266 -41.7906 -76.0525
  111 575.990 39.5219 29.6709
  112 575.990 39.5219 29.6709
  113 44.6673 -144.752 -51.4134
  114 44.6673 -144.752 -51.4134
  115 25.9173 -170.558 15.3847
  116 25.9173 -170.558 15.3847
  117 304.799 19.4286 -3.84518
  118 304.799 19.4286 -3.84518
  119 369.333 -14.4772 -29.4156
  120 369.333 -14.4772 -29.4156
  121 612.423 17.1266 -13.9433
  122 612.423 17.1266 -13.9433
  123 70.7006 -142.403 86.9699
  124 70.7006 -142.403 86.9699
  125 333.110 11.5263 17.0777
  126 333.110 11.5263 17.0777
  127 83.5823 -115.372 -96.4348
  128 83.5823 -115.372 -96.4348
  129 443.425 -29.9314 72.7670
  130 443.425 -29.9314 72.7670
  131 623.254 31.0035 -43.0520
  132 623.254 31.0035 -43.0520
  133 32.4308 -195.683 -14.6187
  134 32.4308 -195.683 -14.6187
  135 39.2535 -187.777 38.0754
  136 39.2535 -187.777 38.0754
  137 363.065 3.51507 -8.76783
  138 363.065 3.51507 -8.76783
  139 345.543 11.9401 -0.630456
  140 345.543 11.9401 -0.630456
  141 353.630 6.09012 -0.0816530
  142 353.630 6.09012 -0.0816530
  143 363.876 -7.35518 25.7371
  144 363.876 -7.35518 25.7371
  145 254.061 -6.67701 60.4577
  146 366.337 -33.9331 51.5496
  147 252.028 14.5969 1.42837
  148 254.061 -6.67701 60.4577
  149 366.337 -33.9331 51.5496
  150 252.028 14.5969 1.42837
  151 328.821 5.95792 -27.2056
  152 328.821 5.95792 -27.2056
  153 607.954 17.6529 10.7448
  154 607.954 17.6529 10.7448
  155 630.628 14.6368 26.6821
  156 631.875 31.5241 53.4990
  157 630.628 14.6368 26.6821
  158 631.875 31.5241 53.4990
  159 357.420 4.10106 2.91388
  160 357.420 4.10106 2.91388
  161 225.227 -9.35509 -51.5539
  162 225.227 -9.35509 -51.5539
  163 357.438 3.99354 -2.86108
  164 357.438 3.99354 -2.86108
  165 359.563 4.83076 7.97847
  166 359.563 4.83076 7.97847
  167 420.346 -3.41589 9.89951
  168 410.473 -14.9014 -1.68978
  169 420.346 -3.41589 9.89951
  170 410.473 -14.9014 -1.68978
  171 452.204 -10.8634 1.37622
  172 452.204 -10.8634 1.37622
  173 345.788 10.8401 9.21913
  174 345.788 10.8401 9.21913
  175 174.005 -18.5789 69.9984
  176 174.005 -18.5789 69.9984
  177 154.762 -8.11801 -44.2125
  178 154.762 -8.11801 -44.2125
  179 348.701 11.6784 -8.83106
  180 348.701 11.6784 -8.83106
</Section>

newXOutput 105

<Section columns = "stress_xx | stress_yy | stress_xy">
  1 361.622 2.51527 -1.44486
  2 361.312 1.94988 1.29908
  3 361.622 2.51527 -1.44486
  4 361.312 1.94988 1.29908
  5 531.097 19.1800 137.173
  6 523.858 15.6351 -127.819
  7 531.097 19.1800 137.173
  8 523.858 15.6351 -127.819
  9 365.257 0.691393 -4.64354
  10 380.401 0.0829527 -7.67107
  11 390.252 -4.46886 -10.1132
  12 410.388 -2.08006 5.44480
  13 410.547 12.6037 3.73842
  14 411.475 -2.05153 -7.08280
  15 394.234 -6.93564 10.1145
  16 375.586 1.68874 8.96443
  17 365.601 2.39114 4.12087
  18 359.392 4.14839 0.718871
  19 357.381 4.19579 -0.0553136
  20 359.222 3.82607 -0.653265
  21 365.257 0.691393 -4.64354
  22 380.401 0.0829527 -7.67107
  23 390.252 -4.46886 -10.1132
  24 410.388 -2.08006 5.44480
  25 410.547 12.6037 3.73842
  26 411.475 -2.05153 -7.08280
  27 394.234 -6.93564 10.1145
  28 375.586 1.68874 8.96443
  29 365.601 2.39114 4.12087
  30 359.392 4.14839 0.718871
  31 357.381 4.19579 -0.0553136
  32 359.222 3.82607 -0.653265
  33 779.332 6.61630 58.1767
  34 680.231 6.55788 37.6759
  35 654.248 12.9156 14.9195
  36 634.825 7.62294 -3.84606
  37 670.436 2.41668 -14.3642
  38 686.958 13.2297 -34.1259
  39 715.617 48.7384 -72.2369
  40 177.985 -99.2016 -156.590
  41 36.1438 -192.348 -65.9078
  42 14.2233 -265.777 -21.3229
  43 9.51904 -282.430 -2.10682
  44 11.6391 -269.137 21.4746
  45 33.0988 -230.039 57.2485
  46 144.953 -100.368 153.833
  47 779.332 6.61630 58.1767
  48 680.231 6.55788 37.6759
  49 654.248 12.9156 14.9195
  50 634.825 7.62294 -3.84606
  51 670.436 2.41668 -14.3642
  52 686.958 13.2297 -34.1259
  53 715.617 48.7384 -72.2369
  54 177.985 -99.2016 -156.590
  55 36.1438 -192.348 -65.9078
  56 14.2233 -265.777 -21.3229
  57 9.51904 -282.430 -2.10682
  58 11.6391 -269.137 21.4746
  59 33.0988 -230.039 57.2485
  60 144.953 -100.368 153.833
  61 335.230 14.2632 -6.11217
  62 335.230 14.2632 -6.11217
  63 310.984 4.56768 33.3234
  64 302.000 2.05644 -40.5538
  65 310.984 4.56768 33.3234
  66 302.000 2.05644 -40.5538
  67 174.346 3.81951 11.2507
  68 174.346 3.81951 11.2507
  69 280.030 -52.1545 111.075
  70 280.030 -52.1545 111.075
  71 170.917 -49.5767 -89.4246
  72 420.113 -35.8509 -19.3726
  73 465.847 26.3843 -1.02360
  74 445.031 12.4267 -4.44485
  75 170.917 -49.5767 -89.4246
  76 420.113 -35.8509 -19.3726
  77 465.847 26.3843 -1.02360
  78 445.031 12.4267 -4.44485
  79 412.758 -19.2626 9.15041
  80 412.758 -19.2626 9.15041
  81 530.447 39.2760 2.90601
  82 530.447 39.2760 2.90601
  83 91.2737 -58.0582 -7.67215
  84 91.2737 -58.0582 -7.67215
  85 118.108 -78.0954 77.6060
  86 118.108 -78.0954 77.6060
  87 445.225 -25.6824 14.5637
  88 445.225 -25.6824 14.5637
  89 354.876 7.91548 5.05819
  90 356.353 8.65609 -5.15690
  91 354.876 7.91548 5.05819
  92 356.353 8.65609 -5.15690
  93 509.719 26.9563 18.6783
  94 509.719 26.9563 18.6783
  95 367.029 3.51489 15.0583
  96 367.029 3.51489 15.0583
  97 549.157 40.4752 -19.4888
  98 556.071 32.9903 -40.8741
  99 549.157 40.4752 -19.4888
  100 556.071 32.9903 -40.8741
  101 357.984 5.61222 -18.5489
  102 357.984 5.61222 -18.5489
  103 290.348 -56.6703 -131.627
  104 290.348 -56.6703 -131.627
  105 246.381 -65.2435 139.212
  106 246.381 -65.2435 139.212
  107 453.517 -34.9722 -50.4003
  108 453.517 -34.9722 -50.4003
  109 340.392 -42.1827 -76.7759
  110 340.392 -42.1827 -76.7759
  111 581.229 39.8881 29.9561
  112 581.229 39.8881 29.9561
  113 45.0921 -146.104 -51.9352
  114 45.0921 -146.104 -51.9352
  115 26.1605 -172.168 15.5442
  116 26.1605 -172.168 15.5442
  117 307.663 19.6109 -3.88000
  118 307.663 19.6109 -3.88000
  119 372.759 -14.6134 -29.6932
  120 372.759 -14.6134 -29.6932
  121 617.947 17.2778 -14.0692
  122 617.947 17.2778 -14.0692
  123 71.3697 -143.707 87.8538
  124 71.3697 -143.707 87.8538
  125 336.224 11.6332 17.2334
  126 336.224 11.6332 17.2334
  127 84.3746 -116.421 -97.4030
  128 84.3746 -116.421 -97.4030
  129 447.484 -30.1905 73.4852
  130 447.484 -30.1905 73.4852
  131 628.875 31.2875 -43.4557
  132 628.875 31.2875 -43.4557
  133 32.7346 -197.540 -14.7676
  134 32.7346 -197.540 -14.7676
  135 39.6233 -189.543 38.4747
  136 39.6233 -189.543 38.4747
  137 366.439 3.54694 -8.84618
  138 366.439 3.54694 -8.84618
  139 348.769 12.0488 -0.636129
  140 348.769 12.0488 -0.636129
  141 356.924 6.14490 -0.0823635
  142 356.924 6.14490 -0.0823635
  143 367.256 -7.42460 25.9770
  144 367.256 -7.42460 25.9770
  145 256.455 -6.73640 61.0255
  146 369.727 -34.2512 52.0419
  147 254.417 14.7376 1.44277
  148 256.455 -6.73640 61.0255
  149 369.727 -34.2512 52.0419
  150 254.417 14.7376 1.44277
  151 331.895 6.01361 -27.4552
  152 331.895 6.01361 -27.4552
  153 613.445 17.8075 10.8445
  154 613.445 17.8075 10.8445
  155 636.308 14.7656 26.9240
  156 637.568 31.8349 54.0107
  157 636.308 14.7656 26.9240
  158 637.568 31.8349 54.0107
  159 360.746 4.13800 2.93915
  160 360.746 4.13800 2.93915
  161 227.360 -9.43889 -52.0397
  162 227.360 -9.43889 -52.0397
  163 360.764 4.02951 -2.88588
  164 360.764 4.02951 -2.88588
  165 362.907 4.87468 8.04881
  166 362.907 4.87468 8.04881
  167 424.240 -3.44443 9.97155
  168 414.266 -15.0418 -1.71865
  169 424.240 -3.44443 9.97155
  170 414.266 -15.0418 -1.71865
  171 456.370 -10.9537 1.35290
  172 456.370 -10.9537 1.35290
  173 349.015 10.9393 9.30151
  174 349.015 10.9393 9.30151
  175 175.658 -18.7429 70.6673
  176 175.658 -18.7429 70.6673
  177 156.243 -8.18003 -44.6345
  178 156.243 -8.18003 -44.6345
  179 351.953 11.7853 -8.91026
  180 351.953 11.7853 -8.91026
</Section>

newXOutput 106

<Section columns = "stress_xx | stress_yy | stress_xy">
  1 364.952 2.53763 -1.45720
  2 364.639 1.96715 1.31014
  3 364.952 2.53763 -1.45720
  4 364.639 1.96715 1.31014
  5 535.820 19.4295 138.475
  6 528.539 15.8526 -129.046
  7 535.820 19.4295 138.475
  8 528.539 15.8526 -129.046
  9 368.617 0.697151 -4.68398
  10 383.889 0.0837656 -7.73873
  11 393.830 -4.51108 -10.2082
  12 414.156 -2.09923 5.48393
  13 414.335 12.7223 3.76946
  14 415.253 -2.06974 -7.13447
  15 397.846 -7.00068 10.2100
  16 379.033 1.70379 9.04353
  17 368.964 2.41253 4.15629
  18 362.704 4.18515 0.725000
  19 360.676 4.23288 -0.0557764
  20 362.532 3.85995 -0.658841
  21 368.617 0.697151 -4.68398
  22 383.889 0.0837656 -7.73873
  23 393.830 -4.51108 -10.2082
  24 414.156 -2.09923 5.48393
  25 414.335 12.7223 3.76946
  26 415.253 -2.06974 -7.13447
  27 397.846 -7.00068 10.2100
  28 379.033 1.70379 9.04353
  29 368.964 2.41253 4.15629
  30 362.704 4.18515 0.725000
  31 360.676 4.23288 -0.0557764
  32 362.532 3.85995 -0.658841
  33 786.170 6.67877 58.7059
  34 686.247 6.60861 38.0146
  35 660.045 13.0281 15.0499
  36 640.465 7.68598 -3.87866
  37 676.352 2.43695 -14.4912
  38 693.030 13.3489 -34.4300
  39 721.949 49.2050 -72.9105
  40 179.598 -100.035 -158.111
  41 36.4804 -194.113 -66.5799
  42 14.3519 -268.305 -21.5469
  43 9.59988 -285.132 -2.12627
  44 11.7406 -271.694 21.6991
  45 33.4059 -232.173 57.8391
  46 146.270 -101.212 155.332
  47 786.170 6.67877 58.7059
  48 686.247 6.60861 38.0146
  49 660.045 13.0281 15.0499
  50 640.465 7.68598 -3.87866
  51 676.352 2.43695 -14.4912
  52 693.030 13.3489 -34.4300
  53 721.949 49.2050 -72.9105
  54 179.598 -100.035 -158.111
  55 36.4804 -194.113 -66.5799
  56 14.3519 -268.305 -21.5469
  57 9.59988 -285.132 -2.12627
  58 11.7406 -271.694 21.6991
  59 33.4059 -232.173 57.8391
  60 146.270 -101.212 155.332
  61 338.336 14.3936 -6.16713
  62 338.336 14.3936 -6.16713
  63 313.870 4.61119 33.6295
  64 304.805 2.07668 -40.9262
  65 313.870 4.61119 33.6295
  66 304.805 2.07668 -40.9262
  67 175.999 3.86606 11.3564
  68 175.999 3.86606 11.3564
  69 282.604 -52.6408 112.124
  70 282.604 -52.6408 112.124
  71 172.513 -50.0268 -90.2824
  72 423.947 -36.1813 -19.5725
  73 470.109 26.6325 -1.04896
  74 449.108 12.5451 -4.46689
  75 172.513 -50.0268 -90.2824
  76 423.947 -36.1813 -19.5725
  77 470.109 26.6325 -1.04896
  78 449.108 12.5451 -4.46689
  79 416.535 -19.4403 9.25038
  80 416.535 -19.4403 9.25038
  81 535.259 39.6330 2.93955
  82 535.259 39.6330 2.93955
  83 92.1406 -58.5789 -7.74718
  84 92.1406 -58.5789 -7.74718
  85 119.210 -78.8057 78.3638
  86 119.210 -78.8057 78.3638
  87 449.281 -25.9119 14.7310
  88 449.281 -25.9119 14.7310
  89 358.151 7.98645 5.10210
  90 359.640 8.73389 -5.20168
  91 358.151 7.98645 5.10210
  92 359.640 8.73389 -5.20168
  93 514.347 27.2184 18.8842
  94 514.347 27.2184 18.8842
  95 370.405 3.54635 15.1932
  96 370.405 3.54635 15.1932
  97 554.129 40.8437 -19.6803
  98 561.084 33.3149 -41.2826
  99 554.129 40.8437 -19.6803
  100 561.084 33.3149 -41.2826
  101 361.284 5.66307 -18.7163
  102 361.284 5.66307 -18.7163
  103 292.984 -57.1576 -132.894
  104 292.984 -57.1576 -132.894
  105 248.624 -65.8089 140.556
  106 248.624 -65.8089 140.556
  107 457.628 -35.2765 -50.9077
  108 457.628 -35.2765 -50.9077
  109 343.514 -42.5747 -77.4990
  110 343.514 -42.5747 -77.4990
  111 586.461 40.2540 30.2413
  112 586.461 40.2540 30.2413
  113 45.5167 -147.454 -52.4574
  114 45.5167 -147.454 -52.4574
  115 26.4036 -173.777 15.7038
  116 26.4036 -173.777 15.7038
  117 310.526 19.7930 -3.91477
  118 310.526 19.7930 -3.91477
  119 376.182 -14.7495 -29.9707
  120 376.182 -14.7495 -29.9707
  121 623.463 17.4287 -14.1950
  122 623.463 17.4287 -14.1950
  123 72.0385 -145.009 88.7384
  124 72.0385 -145.009 88.7384
  125 339.337 11.7399 17.3890
  126 339.337 11.7399 17.3890
  127 85.1665 -117.469 -98.3718
  128 85.1665 -117.469 -98.3718
  129 451.540 -30.4491 74.2037
  130 451.540 -30.4491 74.2037
  131 634.488 31.5713 -43.8591
  132 634.488 31.5713 -43.8591
  133 33.0383 -199.397 -14.9166
  134 33.0383 -199.397 -14.9166
  135 39.9930 -191.308 38.8745
  136 39.9930 -191.308 38.8745
  137 369.810 3.57877 -8.92440
  138 369.810 3.57877 -8.92440
  139 351.992 12.1574 -0.641794
  140 351.992 12.1574 -0.641794
  141 360.216 6.19960 -0.0830725
  142 360.216 6.19960 -0.0830725
  143 370.632 -7.49398 26.2167
  144 370.632 -7.49398 26.2167
  145 258.849 -6.79570 61.5929
  146 373.115 -34.5689 52.5341
  147 256.804 14.8783 1.45719
  148 258.849 -6.79570 61.5929
  149 373.115 -34.5689 52.5341
  150 256.804 14.8783 1.45719
  151 334.967 6.06925 -27.7044
  152 334.967 6.06925 -27.7044
  153 618.929 17.9618 10.9441
  154 618.929 17.9618 10.9441
  155 641.980 14.8941 27.1656
  156 643.254 32.1458 54.5222
  157 641.980 14.8941 27.1656
  158 643.254 32.1458 54.5222
  159 364.069 4.17489 2.96436
  160 364.069 4.17489 2.96436
  161 229.492 -9.52257 -52.5251
  162 229.492 -9.52257 -52.5251
  163 364.087 4.06543 -2.91062
  164 364.087 4.06543 -2.91062
  165 366.248 4.91855 8.11902
  166 366.248 4.91855 8.11902
  167 428.131 -3.47287 10.0432
  168 418.055 -15.1821 -1.74773
  169 428.131 -3.47287 10.0432
  170 418.055 -15.1821 -1.74773
  171 460.531 -11.0438 1.32895
  172 460.531 -11.0438 1.32895
  173 352.240 11.0384 9.38377
  174 352.240 11.0384 9.38377
  175 177.311 -18.9067 71.3360
  176 177.311 -18.9067 71.3360
  177 157.723 -8.24175 -45.0564
  178 157.723 -8.24175 -45.0564
  179 355.203 11.8922 -8.98933
  180 355.203 11.8922 -8.98933
</Section>

newXOutput 107

<Section columns = "stress_xx | stress_yy | stress_xy">
  1 368.279 2.55996 -1.46952
  2 367.964 1.98439 1.32118
  3 368.279 2.55996 -1.46952
  4 367.964 1.98439 1.32118
  5 540.537 19.6802 139.777
  6 533.213 16.0712 -130.273
  7 540.537 19.6802 139.777
  8 533.213 16.0712 -130.273
  9 371.974 0.702892 -4.72434
  10 387.374 0.0845789 -7.80628
  11 397.404 -4.55330 -10.3031
  12 417.921 -2.11840 5.52283
  13 418.120 12.8408 3.80042
  14 419.028 -2.08792 -7.18585
  15 401.454 -7.06568 10.3055
  16 382.477 1.71882 9.12251
  17 372.324 2.43390 4.19164
  18 366.014 4.22185 0.731117
  19 363.969 4.26991 -0.0562380
  20 365.840 3.89377 -0.664404
  21 371.974 0.702892 -4.72434
  22 387.374 0.0845789 -7.80628
  23 397.404 -4.55330 -10.3031
  24 417.921 -2.11840 5.52283
  25 418.120 12.8408 3.80042
  26 419.028 -2.08792 -7.18585
  27 401.454 -7.06568 10.3055
  28 382.477 1.71882 9.12251
  29 372.324 2.43390 4.19164
  30 366.014 4.22185 0.731117
  31 363.969 4.26991 -0.0562380
  32 365.840 3.89377 -0.664404
  33 792.997 6.74122 59.2345
  34 692.253 6.65912 38.3528
  35 665.834 13.1405 15.1802
  36 646.096 7.74885 -3.91118
  37 682.259 2.45717 -14.6180
  38 699.093 13.4680 -34.7336
  39 728.272 49.6715 -73.5836
  40 181.208 -100.866 -159.633
  41 36.8169 -195.877 -67.2528
  42 14.4803 -270.832 -21.7713
  43 9.68053 -287.834 -2.14570
  44 11.8419 -274.251 21.9239
  45 33.7128 -234.306 58.4306
  46 147.585 -102.054 156.831
  47 792.997 6.74122 59.2345
  48 692.253 6.65912 38.3528
  49 665.834 13.1405 15.1802
  50 646.096 7.74885 -3.91118
  51 682.259 2.45717 -14.6180
  52 699.093 13.4680 -34.7336
  53 728.272 49.6715 -73.5836
  54 181.208 -100.866 -159.633
  55 36.8169 -195.877 -67.2528
  56 14.4803 -270.832 -21.7713
  57 9.68053 -287.834 -2.14570
  58 11.8419 -274.251 21.9239
  59 33.7128 -234.306 58.4306
  60 147.585 -102.054 156.831
  61 341.439 14.5239 -6.22202
  62 341.439 14.5239 -6.22202
  63 316.754 4.65470 33.9353
  64 307.607 2.09692 -41.2983
  65 316.754 4.65470 33.9353
  66 307.607 2.09692 -41.2983
  67 177.651 3.91278 11.4621
  68 177.651 3.91278 11.4621
  69 285.176 -53.1267 113.174
  70 285.176 -53.1267 113.174
  71 174.109 -50.4764 -91.1402
  72 427.778 -36.5114 -19.7727
  73 474.367 26.8805 -1.07459
  74 453.181 12.6635 -4.48857
  75 174.109 -50.4764 -91.1402
  76 427.778 -36.5114 -19.7727
  77 474.367 26.8805 -1.07459
  78 453.181 12.6635 -4.48857
  79 420.308 -19.6179 9.35056
  80 420.308 -19.6179 9.35056
  81 540.065 39.9896 2.97317
  82 540.065 39.9896 2.97317
  83 93.0073 -59.0990 -7.82223
  84 93.0073 -59.0990 -7.82223
  85 120.312 -79.5152 79.1218
  86 120.312 -79.5152 79.1218
  87 453.334 -26.1411 14.8989
  88 453.334 -26.1411 14.8989
  89 361.422 8.05733 5.14594
  90 362.924 8.81160 -5.24637
  91 361.422 8.05733 5.14594
  92 362.924 8.81160 -5.24637
  93 518.969 27.4807 19.0906
  94 518.969 27.4807 19.0906
  95 373.778 3.57778 15.3279
  96 373.778 3.57778 15.3279
  97 559.095 41.2119 -19.8717
  98 566.092 33.6396 -41.6913
  99 559.095 41.2119 -19.8717
  100 566.092 33.6396 -41.6913
  101 364.581 5.71386 -18.8835
  102 364.581 5.71386 -18.8835
  103 295.617 -57.6439 -134.160
  104 295.617 -57.6439 -134.160
  105 250.864 -66.3732 141.900
  106 250.864 -66.3732 141.900
  107 461.734 -35.5802 -51.4154
  108 461.734 -35.5802 -51.4154
  109 346.634 -42.9663 -78.2218
  110 346.634 -42.9663 -78.2218
  111 591.687 40.6195 30.5264
  112 591.687 40.6195 30.5264
  113 45.9412 -148.804 -52.9801
  114 45.9412 -148.804 -52.9801
  115 26.6466 -175.385 15.8637
  116 26.6466 -175.385 15.8637
  117 313.387 19.9750 -3.94950
  118 313.387 19.9750 -3.94950
  119 379.602 -14.8856 -30.2481
  120 379.602 -14.8856 -30.2481
  121 628.972 17.5793 -14.3205
  122 628.972 17.5793 -14.3205
  123 72.7070 -146.310 89.6238
  124 72.7070 -146.310 89.6238
  125 342.447 11.8466 17.5444
  126 342.447 11.8466 17.5444
  127 85.9580 -118.516 -99.3412
  128 85.9580 -118.516 -99.3412
  129 455.590 -30.7070 74.9223
  130 455.590 -30.7070 74.9223
  131 640.093 31.8548 -44.2622
  132 640.093 31.8548 -44.2622
  133 33.3417 -201.252 -15.0657
  134 33.3417 -201.252 -15.0657
  135 40.3624 -193.072 39.2748
  136 40.3624 -193.072 39.2748
  137 373.178 3.61056 -9.00251
  138 373.178 3.61056 -9.00251
  139 355.213 12.2659 -0.647451
  140 355.213 12.2659 -0.647451
  141 363.505 6.25422 -0.0837801
  142 363.505 6.25422 -0.0837801
  143 374.006 -7.56333 26.4563
  144 374.006 -7.56333 26.4563
  145 261.241 -6.85490 62.1600
  146 376.499 -34.8865 53.0261
  147 259.190 15.0190 1.47161
  148 261.241 -6.85490 62.1600
  149 376.499 -34.8865 53.0261
  150 259.190 15.0190 1.47161
  151 338.037 6.12486 -27.9534
  152 338.037 6.12486 -27.9534
  153 624.405 18.1159 11.0437
  154 624.405 18.1159 11.0437
  155 647.644 15.0224 27.4068
  156 648.931 32.4567 55.0336
  157 647.644 15.0224 27.4068
  158 648.931 32.4567 55.0336
  159 367.389 4.21173 2.98952
  160 367.389 4.21173 2.98952
  161 231.624 -9.60613 -53.0103
  162 231.624 -9.60613 -53.0103
  163 367.408 4.10130 -2.93530
  164 367.408 4.10130 -2.93530
  165 369.586 4.96236 8.18911
  166 369.586 4.96236 8.18911
  167 432.019 -3.50123 10.1144
  168 421.841 -15.3223 -1.77703
  169 432.019 -3.50123 10.1144
  170 421.841 -15.3223 -1.77703
  171 464.688 -11.1336 1.30434
  172 464.688 -11.1336 1.30434
  173 355.462 11.1374 9.46589
  174 355.462 11.1374 9.46589
  175 178.963 -19.0703 72.0046
  176 178.963 -19.0703 72.0046
  177 159.203 -8.30317 -45.4781
  178 159.203 -8.30317 -45.4781
  179 358.450 11.9989 -9.06828
  180 358.450 11.9989 -9.06828
</Section>

newXOutput 108

<Section columns = "stress_xx | stress_yy | stress_xy">
  1 371.604 2.58225 -1.48180
  2 371.286 2.00160 1.33220
  3 371.604 2.58225 -1.48180
  4 371.286 2.00160 1.33220
  5 545.246 19.9320 141.078
  6 537.881 16.2911 -131.499
  7 545.246 19.9320 141.078
  8 537.881 16.2911 -131.499
  9 375.328 0.708618 -4.76463
  10 390.855 0.0853926 -7.87372
  11 400.976 -4.59550 -10.3980
  12 421.682 -2.13755 5.56151
  13 421.902 12.9593 3.83128
  14 422.800 -2.10608 -7.23695
  15 405.058 -7.13066 10.4009
  16 385.919 1.73383 9.20135
  17 375.681 2.45523 4.22692
  18 369.320 4.25849 0.737219
  19 367.260 4.30688 -0.0566983
  20 369.145 3.92754 -0.669955
  21 375.328 0.708618 -4.76463
  22 390.855 0.0853926 -7.87372
  23 400.976 -4.59550 -10.3980
  24 421.682 -2.13755 5.56151
  25 421.902 12.9593 3.83128
  26 422.800 -2.10608 -7.23695
  27 405.058 -7.13066 10.4009
  28 385.919 1.73383 9.20135
  29 375.681 2.45523 4.22692
  30 369.320 4.25849 0.737219
  31 367.260 4.30688 -0.0566983
  32 369.145 3.92754 -0.669955
  33 799.812 6.80364 59.7625
  34 698.250 6.70942 38.6906
  35 671.615 13.2526 15.3101
  36 651.718 7.81154 -3.94362
  37 688.157 2.47734 -14.7446
  38 705.146 13.5868 -35.0367
  39 734.585 50.1380 -74.2562
  40 182.817 -101.695 -161.155
  41 37.1530 -197.640 -67.9264
  42 14.6085 -273.358 -21.9961
  43 9.76098 -290.537 -2.16512
  44 11.9430 -276.807 22.1491
  45 34.0194 -236.437 59.0227
  46 148.899 -102.893 158.331
  47 799.812 6.80364 59.7625
  48 698.250 6.70942 38.6906
  49 671.615 13.2526 15.3101
  50 651.718 7.81154 -3.94362
  51 688.157 2.47734 -14.7446
  52 705.146 13.5868 -35.0367
  53 734.585 50.1380 -74.2562
  54 182.817 -101.695 -161.155
  55 37.1530 -197.640 -67.9264
  56 14.6085 -273.358 -21.9961
  57 9.76098 -290.537 -2.16512
  58 11.9430 -276.807 22.1491
  59 34.0194 -236.437 59.0227
  60 148.899 -102.893 158.331
  61 344.541 14.6541 -6.27684
  62 344.541 14.6541 -6.27684
  63 319.637 4.69819 34.2409
  64 310.408 2.11717 -41.6701
  65 319.637 4.69819 34.2409
  66 310.408 2.11717 -41.6701
  67 179.304 3.95967 11.5677
  68 179.304 3.95967 11.5677
  69 287.745 -53.6124 114.222
  70 287.745 -53.6124 114.222
  71 175.704 -50.9256 -91.9979
  72 431.605 -36.8412 -19.9732
  73 478.621 27.1285 -1.10048
  74 457.251 12.7819 -4.50989
  75 175.704 -50.9256 -91.9979
  76 431.605 -36.8412 -19.9732
  77 478.621 27.1285 -1.10048
  78 457.251 12.7819 -4.50989
  79 424.077 -19.7953 9.45094
  80 424.077 -19.7953 9.45094
  81 544.866 40.3459 3.00689
  82 544.866 40.3459 3.00689
  83 93.8738 -59.6183 -7.89730
  84 93.8738 -59.6183 -7.89730
  85 121.413 -80.2240 79.8800
  86 121.413 -80.2240 79.8800
  87 457.383 -26.3699 15.0672
  88 457.383 -26.3699 15.0672
  89 364.692 8.12812 5.18969
  90 366.206 8.88922 -5.29098
  91 364.692 8.12812 5.18969
  92 366.206 8.88922 -5.29098
  93 523.586 27.7429 19.2974
  94 523.586 27.7429 19.2974
  95 377.149 3.60916 15.4624
  96 377.149 3.60916 15.4624
  97 564.056 41.5797 -20.0632
  98 571.093 33.9644 -42.1002
  99 564.056 41.5797 -20.0632
  100 571.093 33.9644 -42.1002
  101 367.875 5.76459 -19.0505
  102 367.875 5.76459 -19.0505
  103 298.247 -58.1292 -135.427
  104 298.247 -58.1292 -135.427
  105 253.102 -66.9363 143.245
  106 253.102 -66.9363 143.245
  107 465.836 -35.8833 -51.9235
  108 465.836 -35.8833 -51.9235
  109 349.752 -43.3578 -78.9444
  110 349.752 -43.3578 -78.9444
  111 596.907 40.9847 30.8114
  112 596.907 40.9847 30.8114
  113 46.3655 -150.153 -53.5031
  114 46.3655 -150.153 -53.5031
  115 26.8893 -176.992 16.0237
  116 26.8893 -176.992 16.0237
  117 316.246 20.1568 -3.98418
  118 316.246 20.1568 -3.98418
  119 383.019 -15.0216 -30.5253
  120 383.019 -15.0216 -30.5253
  121 634.473 17.7297 -14.4459
  122 634.473 17.7297 -14.4459
  123 73.3751 -147.609 90.5098
  124 73.3751 -147.609 90.5098
  125 345.554 11.9532 17.6995
  126 345.554 11.9532 17.6995
  127 86.7491 -119.561 -100.311
  128 86.7491 -119.561 -100.311
  129 459.636 -30.9644 75.6411
  130 459.636 -30.9644 75.6411
  131 645.690 32.1379 -44.6651
  132 645.690 32.1379 -44.6651
  133 33.6449 -203.107 -15.2150
  134 33.6449 -203.107 -15.2150
  135 40.7316 -194.835 39.6758
  136 40.7316 -194.835 39.6758
  137 376.543 3.64231 -9.08049
  138 376.543 3.64231 -9.08049
  139 358.431 12.3742 -0.653099
  140 358.431 12.3742 -0.653099
  141 366.791 6.30877 -0.0844862
  142 366.791 6.30877 -0.0844862
  143 377.378 -7.63264 26.6956
  144 377.378 -7.63264 26.6956
  145 263.631 -6.91401 62.7267
  146 379.880 -35.2039 53.5180
  147 261.575 15.1596 1.48605
  148 263.631 -6.91401 62.7267
  149 379.880 -35.2039 53.5180
  150 261.575 15.1596 1.48605
  151 341.104 6.18043 -28.2021
  152 341.104 6.18043 -28.2021
  153 629.874 18.2696 11.1431
  154 629.874 18.2696 11.1431
  155 653.301 15.1505 27.6478
  156 654.601 32.7677 55.5447
  157 653.301 15.1505 27.6478
  158 654.601 32.7677 55.5447
  159 370.707 4.24851 3.01462
  160 370.707 4.24851 3.01462
  161 233.754 -9.68956 -53.4952
  162 233.754 -9.68956 -53.4952
  163 370.725 4.13712 -2.95993
  164 370.725 4.13712 -2.95993
  165 372.922 5.00612 8.25906
  166 372.922 5.00612 8.25906
  167 435.903 -3.52951 10.1851
  168 425.623 -15.4624 -1.80654
  169 435.903 -3.52951 10.1851
  170 425.623 -15.4624 -1.80654
  171 468.841 -11.2232 1.27910
  172 468.841 -11.2232 1.27910
  173 358.681 11.2363 9.54789
  174 358.681 11.2363 9.54789
  175 180.615 -19.2335 72.6729
  176 180.615 -19.2335 72.6729
  177 160.683 -8.36430 -45.8996
  178 160.683 -8.36430 -45.8996
  179 361.695 12.1055 -9.14712
  180 361.695 12.1055 -9.14712
</Section>

newXOutput 109

<Section columns = "stress_xx | stress_yy | stress_xy">
  1 374.925 2.60451 -1.49406
  2 374.605 2.01879 1.34319
  3 374.925 2.60451 -1.49406
  4 374.605 2.01879 1.34319
  5 549.949 20.1850 142.379
  6 542.542 16.5122 -132.725
  7 549.949 20.1850 142.379
  8 542.542 16.5122 -132.725
  9 378.680 0.714328 -4.80485
  10 394.334 0.0862067 -7.94105
  11 404.544 -4.63768 -10.4928
  12 425.441 -2.15668 5.59995
  13 425.681 13.0777 3.86207
  14 426.569 -2.12420 -7.28776
  15 408.660 -7.19561 10.4963
  16 389.357 1.74881 9.28007
  17 379.035 2.47654 4.26212
  18 372.624 4.29508 0.743307
  19 370.548 4.34380 -0.0571575
  20 372.448 3.96126 -0.675494
  21 378.680 0.714328 -4.80485
  22 394.334 0.0862067 -7.94105
  23 404.544 -4.63768 -10.4928
  24 425.441 -2.15668 5.59995
  25 425.681 13.0777 3.86207
  26 426.569 -2.12420 -7.28776
  27 408.660 -7.19561 10.4963
  28 389.357 1.74881 9.28007
  29 379.035 2.47654 4.26212
  30 372.624 4.29508 0.743307
  31 370.548 4.34380 -0.0571575
  32 372.448 3.96126 -0.675494
  33 806.616 6.86605 60.2900
  34 704.238 6.75951 39.0279
  35 677.386 13.3646 15.4399
  36 657.333 7.87406 -3.97598
  37 694.045 2.49747 -14.8710
  38 711.190 13.7056 -35.3395
  39 740.888 50.6044 -74.9284
  40 184.423 -102.522 -162.678
  41 37.4890 -199.401 -68.6007
  42 14.7366 -275.885 -22.2212
  43 9.84124 -293.238 -2.18452
  44 12.0439 -279.362 22.3747
  45 34.3258 -238.566 59.6156
  46 150.212 -103.730 159.831
  47 806.616 6.86605 60.2900
  48 704.238 6.75951 39.0279
  49 677.386 13.3646 15.4399
  50 657.333 7.87406 -3.97598
  51 694.045 2.49747 -14.8710
  52 711.190 13.7056 -35.3395
  53 740.888 50.6044 -74.9284
  54 184.423 -102.522 -162.678
  55 37.4890 -199.401 -68.6007
  56 14.7366 -275.885 -22.2212
  57 9.84124 -293.238 -2.18452
  58 12.0439 -279.362 22.3747
  59 34.3258 -238.566 59.6156
  60 150.212 -103.730 159.831
  61 347.640 14.7842 -6.33159
  62 347.640 14.7842 -6.33159
  63 322.517 4.74168 34.5463
  64 313.207 2.13743 -42.0415
  65 322.517 4.74168 34.5463
  66 313.207 2.13743 -42.0415
  67 180.955 4.00673 11.6733
  68 180.955 4.00673 11.6733
  69 290.313 -54.0978 115.271
  70 290.313 -54.0978 115.271
  71 177.298 -51.3743 -92.8555
  72 435.428 -37.1708 -20.1738
  73 482.872 27.3763 -1.12664
  74 461.317 12.9002 -4.53085
  75 177.298 -51.3743 -92.8555
  76 435.428 -37.1708 -20.1738
  77 482.872 27.3763 -1.12664
  78 461.317 12.9002 -4.53085
  79 427.843 -19.9726 9.55152
  80 427.843 -19.9726 9.55152
  81 549.661 40.7018 3.04069
  82 549.661 40.7018 3.04069
  83 94.7401 -60.1370 -7.97240
  84 94.7401 -60.1370 -7.97240
  85 122.513 -80.9320 80.6384
  86 122.513 -80.9320 80.6384
  87 461.427 -26.5985 15.2359
  88 461.427 -26.5985 15.2359
  89 367.959 8.19882 5.23336
  90 369.485 8.96673 -5.33551
  91 367.959 8.19882 5.23336
  92 369.485 8.96673 -5.33551
  93 528.199 28.0052 19.5046
  94 528.199 28.0052 19.5046
  95 380.516 3.64050 15.5968
  96 380.516 3.64050 15.5968
  97 569.012 41.9471 -20.2548
  98 576.089 34.2893 -42.5093
  99 569.012 41.9471 -20.2548
  100 576.089 34.2893 -42.5093
  101 371.167 5.81527 -19.2173
  102 371.167 5.81527 -19.2173
  103 300.875 -58.6134 -136.693
  104 300.875 -58.6134 -136.693
  105 255.338 -67.4984 144.589
  106 255.338 -67.4984 144.589
  107 469.933 -36.1858 -52.4320
  108 469.933 -36.1858 -52.4320
  109 352.866 -43.7489 -79.6666
  110 352.866 -43.7489 -79.6666
  111 602.120 41.3497 31.0963
  112 602.120 41.3497 31.0963
  113 46.7897 -151.500 -54.0266
  114 46.7897 -151.500 -54.0266
  115 27.1320 -178.598 16.1840
  116 27.1320 -178.598 16.1840
  117 319.103 20.3386 -4.01881
  118 319.103 20.3386 -4.01881
  119 386.434 -15.1575 -30.8023
  120 386.434 -15.1575 -30.8023
  121 639.966 17.8798 -14.5711
  122 639.966 17.8798 -14.5711
  123 74.0429 -148.907 91.3966
  124 74.0429 -148.907 91.3966
  125 348.660 12.0597 17.8545
  126 348.660 12.0597 17.8545
  127 87.5399 -120.605 -101.282
  128 87.5399 -120.605 -101.282
  129 463.678 -31.2213 76.3600
  130 463.678 -31.2213 76.3600
  131 651.280 32.4208 -45.0676
  132 651.280 32.4208 -45.0676
  133 33.9479 -204.961 -15.3644
  134 33.9479 -204.961 -15.3644
  135 41.1005 -196.596 40.0772
  136 41.1005 -196.596 40.0772
  137 379.906 3.67401 -9.15835
  138 379.906 3.67401 -9.15835
  139 361.647 12.4825 -0.658739
  140 361.647 12.4825 -0.658739
  141 370.075 6.36323 -0.0851909
  142 370.075 6.36323 -0.0851909
  143 380.746 -7.70192 26.9348
  144 380.746 -7.70192 26.9348
  145 266.020 -6.97302 63.2930
  146 383.258 -35.5211 54.0097
  147 263.959 15.3002 1.50049
  148 266.020 -6.97302 63.2930
  149 383.258 -35.5211 54.0097
  150 263.959 15.3002 1.50049
  151 344.170 6.23595 -28.4505
  152 344.170 6.23595 -28.4505
  153 635.335 18.4231 11.2425
  154 635.335 18.4231 11.2425
  155 658.949 15.2783 27.8884
  156 660.262 33.0787 56.0556
  157 658.949 15.2783 27.8884
  158 660.262 33.0787 56.0556
  159 374.022 4.28525 3.03967
  160 374.022 4.28525 3.03967
  161 235.883 -9.77287 -53.9798
  162 235.883 -9.77287 -53.9798
  163 374.040 4.17289 -2.98451
  164 374.040 4.17289 -2.98451
  165 376.255 5.04983 8.32889
  166 376.255 5.04983 8.32889
  167 439.784 -3.55769 10.2555
  168 429.402 -15.6024 -1.83627
  169 439.784 -3.55769 10.2555
  170 429.402 -15.6024 -1.83627
  171 472.989 -11.3124 1.25322
  172 472.989 -11.3124 1.25322
  173 361.898 11.3351 9.62975
  174 361.898 11.3351 9.62975
  175 182.266 -19.3964 73.3410
  176 182.266 -19.3964 73.3410
  177 162.163 -8.42512 -46.3210
  178 162.163 -8.42512 -46.3210
  179 364.938 12.2120 -9.22584
  180 364.938 12.2120 -9.22584
</Section>

newXOutput 110

<Section columns = "stress_xx | stress_yy | stress_xy">
  1 378.244 2.62674 -1.50629
  2 377.921 2.03596 1.35416
  3 378.244 2.62674 -1.50629
  4 377.921 2.03596 1.35416
  5 554.645 20.4391 143.680
  6 547.197 16.7345 -133.951
  7 554.645 20.4391 143.680
  8 547.197 16.7345 -133.951
  9 382.028 0.720022 -4.84499
  10 397.809 0.0870213 -8.00827
  11 408.109 -4.67986 -10.5876
  12 429.196 -2.17579 5.63816
  13 429.457 13.1960 3.89276
  14 430.334 -2.14230 -7.33828
  15 412.258 -7.26052 10.5917
  16 392.793 1.76378 9.35866
  17 382.387 2.49782 4.29724
  18 375.926 4.33162 0.749382
  19 373.833 4.38066 -0.0576154
  20 375.748 3.99493 -0.681020
  21 382.028 0.720022 -4.84499
  22 397.809 0.0870213 -8.00827
  23 408.109 -4.67986 -10.5876
  24 429.196 -2.17579 5.63816
  25 429.457 13.1960 3.89276
  26 430.334 -2.14230 -7.33828
  27 412.258 -7.26052 10.5917
  28 392.793 1.76378 9.35866
  29 382.387 2.49782 4.29724
  30 375.926 4.33162 0.749382
  31 373.833 4.38066 -0.0576154
  32 375.748 3.99493 -0.681020
  33 813.408 6.92843 60.8168
  34 710.217 6.80938 39.3648
  35 683.149 13.4763 15.5694
  36 662.939 7.93641 -4.00827
  37 699.924 2.51754 -14.9972
  38 717.224 13.8242 -35.6418
  39 747.182 51.0707 -75.6002
  40 186.028 -103.346 -164.200
  41 37.8248 -201.160 -69.2756
  42 14.8646 -278.410 -22.4467
  43 9.92130 -295.940 -2.20391
  44 12.1447 -281.917 22.6006
  45 34.6320 -240.694 60.2093
  46 151.523 -104.565 161.331
  47 813.408 6.92843 60.8168
  48 710.217 6.80938 39.3648
  49 683.149 13.4763 15.5694
  50 662.939 7.93641 -4.00827
  51 699.924 2.51754 -14.9972
  52 717.224 13.8242 -35.6418
  53 747.182 51.0707 -75.6002
  54 186.028 -103.346 -164.200
  55 37.8248 -201.160 -69.2756
  56 14.8646 -278.410 -22.4467
  57 9.92130 -295.940 -2.20391
  58 12.1447 -281.917 22.6006
  59 34.6320 -240.694 60.2093
  60 151.523 -104.565 161.331
  61 350.737 14.9142 -6.38627
  62 350.737 14.9142 -6.38627
  63 325.396 4.78516 34.8513
  64 316.004 2.15769 -42.4127
  65 325.396 4.78516 34.8513
  66 316.004 2.15769 -42.4127
  67 182.607 4.05395 11.7789
  68 182.607 4.05395 11.7789
  69 292.878 -54.5830 116.319
  70 292.878 -54.5830 116.319
  71 178.890 -51.8225 -93.7131
  72 439.248 -37.5001 -20.3747
  73 487.118 27.6241 -1.15306
  74 465.379 13.0185 -4.55145
  75 178.890 -51.8225 -93.7131
  76 439.248 -37.5001 -20.3747
  77 487.118 27.6241 -1.15306
  78 465.379 13.0185 -4.55145
  79 431.606 -20.1498 9.65231
  80 431.606 -20.1498 9.65231
  81 554.451 41.0573 3.07459
  82 554.451 41.0573 3.07459
  83 95.6063 -60.6550 -8.04751
  84 95.6063 -60.6550 -8.04751
  85 123.613 -81.6393 81.3969
  86 123.613 -81.6393 81.3969
  87 465.468 -26.8267 15.4052
  88 465.468 -26.8267 15.4052
  89 371.223 8.26942 5.27694
  90 372.762 9.04415 -5.37995
  91 371.223 8.26942 5.27694
  92 372.762 9.04415 -5.37995
  93 532.806 28.2676 19.7123
  94 532.806 28.2676 19.7123
  95 383.881 3.67180 15.7309
  96 383.881 3.67180 15.7309
  97 573.961 42.3142 -20.4464
  98 581.079 34.6144 -42.9186
  99 573.961 42.3142 -20.4464
  100 581.079 34.6144 -42.9186
  101 374.456 5.86589 -19.3839
  102 374.456 5.86589 -19.3839
  103 303.499 -59.0966 -137.959
  104 303.499 -59.0966 -137.959
  105 257.572 -68.0593 145.934
  106 257.572 -68.0593 145.934
  107 474.026 -36.4877 -52.9409
  108 474.026 -36.4877 -52.9409
  109 355.978 -44.1399 -80.3885
  110 355.978 -44.1399 -80.3885
  111 607.327 41.7142 31.3811
  112 607.327 41.7142 31.3811
  113 47.2136 -152.847 -54.5505
  114 47.2136 -152.847 -54.5505
  115 27.3745 -180.203 16.3444
  116 27.3745 -180.203 16.3444
  117 321.959 20.5202 -4.05340
  118 321.959 20.5202 -4.05340
  119 389.845 -15.2933 -31.0792
  120 389.845 -15.2933 -31.0792
  121 645.452 18.0296 -14.6961
  122 645.452 18.0296 -14.6961
  123 74.7103 -150.204 92.2840
  124 74.7103 -150.204 92.2840
  125 351.763 12.1661 18.0093
  126 351.763 12.1661 18.0093
  127 88.3302 -121.648 -102.253
  128 88.3302 -121.648 -102.253
  129 467.715 -31.4775 77.0791
  130 467.715 -31.4775 77.0791
  131 656.862 32.7033 -45.4698
  132 656.862 32.7033 -45.4698
  133 34.2507 -206.815 -15.5139
  134 34.2507 -206.815 -15.5139
  135 41.4693 -198.357 40.4792
  136 41.4693 -198.357 40.4792
  137 383.265 3.70568 -9.23609
  138 383.265 3.70568 -9.23609
  139 364.861 12.5905 -0.664372
  140 364.861 12.5905 -0.664372
  141 373.357 6.41762 -0.0858941
  142 373.357 6.41762 -0.0858941
  143 384.111 -7.77116 27.1737
  144 384.111 -7.77116 27.1737
  145 268.408 -7.03195 63.8590
  146 386.633 -35.8380 54.5012
  147 266.342 15.4408 1.51494
  148 268.408 -7.03195 63.8590
  149 386.633 -35.8380 54.5012
  150 266.342 15.4408 1.51494
  151 347.233 6.29144 -28.6987
  152 347.233 6.29144 -28.6987
  153 640.789 18.5762 11.3417
  154 640.789 18.5762 11.3417
  155 664.589 15.4059 28.1287
  156 665.916 33.3899 56.5664
  157 664.589 15.4059 28.1287
  158 665.916 33.3899 56.5664
  159 377.334 4.32193 3.06466
  160 377.334 4.32193 3.06466
  161 238.012 -9.85605 -54.4642
  162 238.012 -9.85605 -54.4642
  163 377.353 4.20860 -3.00904
  164 377.353 4.20860 -3.00904
  165 379.585 5.09348 8.39859
  166 379.585 5.09348 8.39859
  167 443.661 -3.58579 10.3254
  168 433.177 -15.7424 -1.86621
  169 443.661 -3.58579 10.3254
  170 433.177 -15.7424 -1.86621
  171 477.134 -11.4014 1.22670
  172 477.134 -11.4014 1.22670
  173 365.113 11.4338 9.71149
  174 365.113 11.4338 9.71149
  175 183.916 -19.5590 74.0089
  176 183.916 -19.5590 74.0089
  177 163.641 -8.48566 -46.7423
  178 163.641 -8.48566 -46.7423
  179 368.178 12.3184 -9.30443
  180 368.178 12.3184 -9.30443
</Section>

newXOutput 111

<Section columns = "stress_xx | stress_yy | stress_xy">
  1 381.561 2.64894 -1.51850
  2 381.235 2.05309 1.36510
  3 381.561 2.64894 -1.51850
  4 381.235 2.05309 1.36510
  5 559.334 20.6944 144.980
  6 551.846 16.9580 -135.177
  7 559.334 20.6944 144.980
  8 551.846 16.9580 -135.177
  9 385.374 0.725701 -4.88505
  10 401.281 0.0878362 -8.07539
  11 411.670 -4.72202 -10.6823
  12 432.947 -2.19489 5.67615
  13 433.231 13.3144 3.92337
  14 434.097 -2.16036 -7.38852
  15 415.853 -7.32541 10.6871
  16 396.225 1.77873 9.43712
  17 385.735 2.51907 4.33229
  18 379.225 4.36810 0.755443
  19 377.116 4.41746 -0.0580722
  20 379.045 4.02854 -0.686533
  21 385.374 0.725701 -4.88505
  22 401.281 0.0878362 -8.07539
  23 411.670 -4.72202 -10.6823
  24 432.947 -2.19489 5.67615
  25 433.231 13.3144 3.92337
  26 434.097 -2.16036 -7.38852
  27 415.853 -7.32541 10.6871
  28 396.225 1.77873 9.43712
  29 385.735 2.51907 4.33229
  30 379.225 4.36810 0.755443
  31 377.116 4.41746 -0.0580722
  32 379.045 4.02854 -0.686533
  33 820.189 6.99078 61.3431
  34 716.186 6.85905 39.7012
  35 688.903 13.5879 15.6987
  36 668.537 7.99858 -4.04048
  37 705.794 2.53756 -15.1232
  38 723.249 13.9427 -35.9436
  39 753.465 51.5370 -76.2714
  40 187.631 -104.168 -165.723
  41 38.1603 -202.917 -69.9513
  42 14.9924 -280.935 -22.6726
  43 10.0012 -298.641 -2.22328
  44 12.2452 -284.471 22.8268
  45 34.9380 -242.821 60.8036
  46 152.832 -105.398 162.832
  47 820.189 6.99078 61.3431
  48 716.186 6.85905 39.7012
  49 688.903 13.5879 15.6987
  50 668.537 7.99858 -4.04048
  51 705.794 2.53756 -15.1232
  52 723.249 13.9427 -35.9436
  53 753.465 51.5370 -76.2714
  54 187.631 -104.168 -165.723
  55 38.1603 -202.917 -69.9513
  56 14.9924 -280.935 -22.6726
  57 10.0012 -298.641 -2.22328
  58 12.2452 -284.471 22.8268
  59 34.9380 -242.821 60.8036
  60 152.832 -105.398 162.832
  61 353.832 15.0440 -6.44089
  62 353.832 15.0440 -6.44089
  63 328.272 4.82863 35.1561
  64 318.799 2.17796 -42.7835
  65 328.272 4.82863 35.1561
  66 318.799 2.17796 -42.7835
  67 184.258 4.10135 11.8844
  68 184.258 4.10135 11.8844
  69 295.441 -55.0678 117.367
  70 295.441 -55.0678 117.367
  71 180.483 -52.2703 -94.5706
  72 443.064 -37.8291 -20.5758
  73 491.360 27.8718 -1.17974
  74 469.437 13.1368 -4.57169
  75 180.483 -52.2703 -94.5706
  76 443.064 -37.8291 -20.5758
  77 491.360 27.8718 -1.17974
  78 469.437 13.1368 -4.57169
  79 435.365 -20.3268 9.75329
  80 435.365 -20.3268 9.75329
  81 559.236 41.4125 3.10857
  82 559.236 41.4125 3.10857
  83 96.4722 -61.1722 -8.12265
  84 96.4722 -61.1722 -8.12265
  85 124.713 -82.3459 82.1557
  86 124.713 -82.3459 82.1557
  87 469.504 -27.0546 15.5749
  88 469.504 -27.0546 15.5749
  89 374.485 8.33994 5.32044
  90 376.036 9.12147 -5.42430
  91 374.485 8.33994 5.32044
  92 376.036 9.12147 -5.42430
  93 537.409 28.5300 19.9204
  94 537.409 28.5300 19.9204
  95 387.244 3.70306 15.8649
  96 387.244 3.70306 15.8649
  97 578.906 42.6809 -20.6380
  98 586.062 34.9396 -43.3282
  99 578.906 42.6809 -20.6380
  100 586.062 34.9396 -43.3282
  101 377.743 5.91646 -19.5503
  102 377.743 5.91646 -19.5503
  103 306.121 -59.5787 -139.226
  104 306.121 -59.5787 -139.226
  105 259.803 -68.6191 147.278
  106 259.803 -68.6191 147.278
  107 478.115 -36.7891 -53.4501
  108 478.115 -36.7891 -53.4501
  109 359.087 -44.5305 -81.1102
  110 359.087 -44.5305 -81.1102
  111 612.528 42.0785 31.6658
  112 612.528 42.0785 31.6658
  113 47.6374 -154.192 -55.0748
  114 47.6374 -154.192 -55.0748
  115 27.6168 -181.808 16.5050
  116 27.6168 -181.808 16.5050
  117 324.812 20.7017 -4.08795
  118 324.812 20.7017 -4.08795
  119 393.253 -15.4290 -31.3560
  120 393.253 -15.4290 -31.3560
  121 650.930 18.1791 -14.8209
  122 650.930 18.1791 -14.8209
  123 75.3774 -151.499 93.1722
  124 75.3774 -151.499 93.1722
  125 354.864 12.2724 18.1639
  126 354.864 12.2724 18.1639
  127 89.1202 -122.690 -103.224
  128 89.1202 -122.690 -103.224
  129 471.748 -31.7332 77.7984
  130 471.748 -31.7332 77.7984
  131 662.436 32.9855 -45.8718
  132 662.436 32.9855 -45.8718
  133 34.5533 -208.667 -15.6636
  134 34.5533 -208.667 -15.6636
  135 41.8379 -200.116 40.8818
  136 41.8379 -200.116 40.8818
  137 386.622 3.73731 -9.31371
  138 386.622 3.73731 -9.31371
  139 368.072 12.6985 -0.669996
  140 368.072 12.6985 -0.669996
  141 376.636 6.47193 -0.0865958
  142 376.636 6.47193 -0.0865958
  143 387.474 -7.84036 27.4125
  144 387.474 -7.84036 27.4125
  145 270.795 -7.09077 64.4246
  146 390.005 -36.1548 54.9926
  147 268.724 15.5814 1.52940
  148 270.795 -7.09077 64.4246
  149 390.005 -36.1548 54.9926
  150 268.724 15.5814 1.52940
  151 350.294 6.34688 -28.9466
  152 350.294 6.34688 -28.9466
  153 646.236 18.7291 11.4409
  154 646.236 18.7291 11.4409
  155 670.221 15.5333 28.3687
  156 671.561 33.7011 57.0769
  157 670.221 15.5333 28.3687
  158 671.561 33.7011 57.0769
  159 380.643 4.35856 3.08960
  160 380.643 4.35856 3.08960
  161 240.139 -9.93912 -54.9482
  162 240.139 -9.93912 -54.9482
  163 380.662 4.24427 -3.03351
  164 380.662 4.24427 -3.03351
  165 382.912 5.13708 8.46817
  166 382.912 5.13708 8.46817
  167 447.535 -3.61381 10.3949
  168 436.949 -15.8823 -1.89637
  169 447.535 -3.61381 10.3949
  170 436.949 -15.8823 -1.89637
  171 481.275 -11.4900 1.19955
  172 481.275 -11.4900 1.19955
  173 368.325 11.5324 9.79310
  174 368.325 11.5324 9.79310
  175 185.565 -19.7214 74.6765
  176 185.565 -19.7214 74.6765
  177 165.120 -8.54589 -47.1634
  178 165.120 -8.54589 -47.1634
  179 371.415 12.4247 -9.38291
  180 371.415 12.4247 -9.38291
</Section>

newXOutput 112

<Section columns = "stress_xx | stress_yy | stress_xy">
  1 384.874 2.67110 -1.53068
  2 384.546 2.07020 1.37601
  3 384.874 2.67110 -1.53068
  4 384.546 2.07020 1.37601
  5 564.016 20.9508 146.279
  6 556.488 17.1826 -136.403
  7 564.016 20.9508 146.279
  8 556.488 17.1826 -136.403
  9 388.717 0.731364 -4.92505
  10 404.751 0.0886515 -8.14239
  11 415.229 -4.76416 -10.7770
  12 436.696 -2.21398 5.71391
  13 437.001 13.4326 3.95389
  14 437.856 -2.17840 -7.43847
  15 419.445 -7.39026 10.7824
  16 399.655 1.79365 9.51546
  17 389.081 2.54030 4.36727
  18 382.521 4.40452 0.761491
  19 380.396 4.45420 -0.0585277
  20 382.340 4.06210 -0.692035
  21 388.717 0.731364 -4.92505
  22 404.751 0.0886515 -8.14239
  23 415.229 -4.76416 -10.7770
  24 436.696 -2.21398 5.71391
  25 437.001 13.4326 3.95389
  26 437.856 -2.17840 -7.43847
  27 419.445 -7.39026 10.7824
  28 399.655 1.79365 9.51546
  29 389.081 2.54030 4.36727
  30 382.521 4.40452 0.761491
  31 380.396 4.45420 -0.0585277
  32 382.340 4.06210 -0.692035
  33 826.958 7.05312 61.8688
  34 722.146 6.90850 40.0372
  35 694.649 13.6992 15.8277
  36 674.127 8.06058 -4.07262
  37 711.654 2.55753 -15.2490
  38 729.265 14.0610 -36.2450
  39 759.739 52.0032 -76.9423
  40 189.233 -104.988 -167.246
  41 38.4957 -204.673 -70.6277
  42 15.1200 -283.460 -22.8988
  43 10.0809 -301.342 -2.24263
  44 12.3456 -287.025 23.0534
  45 35.2438 -244.945 61.3987
  46 154.140 -106.229 164.333
  47 826.958 7.05312 61.8688
  48 722.146 6.90850 40.0372
  49 694.649 13.6992 15.8277
  50 674.127 8.06058 -4.07262
  51 711.654 2.55753 -15.2490
  52 729.265 14.0610 -36.2450
  53 759.739 52.0032 -76.9423
  54 189.233 -104.988 -167.246
  55 38.4957 -204.673 -70.6277
  56 15.1200 -283.460 -22.8988
  57 10.0809 -301.342 -2.24263
  58 12.3456 -287.025 23.0534
  59 35.2438 -244.945 61.3987
  60 154.140 -106.229 164.333
  61 356.924 15.1738 -6.49543
  62 356.924 15.1738 -6.49543
  63 331.147 4.87208 35.4607
  64 321.592 2.19824 -43.1539
  65 331.147 4.87208 35.4607
  66 321.592 2.19824 -43.1539
  67 185.908 4.14891 11.9898
  68 185.908 4.14891 11.9898
  69 298.003 -55.5524 118.414
  70 298.003 -55.5524 118.414
  71 182.074 -52.7175 -95.4281
  72 446.876 -38.1579 -20.7772
  73 495.599 28.1193 -1.20668
  74 473.492 13.2551 -4.59158
  75 182.074 -52.7175 -95.4281
  76 446.876 -38.1579 -20.7772
  77 495.599 28.1193 -1.20668
  78 473.492 13.2551 -4.59158
  79 439.121 -20.5036 9.85448
  80 439.121 -20.5036 9.85448
  81 564.016 41.7673 3.14264
  82 564.016 41.7673 3.14264
  83 97.3379 -61.6889 -8.19781
  84 97.3379 -61.6889 -8.19781
  85 125.811 -83.0517 82.9147
  86 125.811 -83.0517 82.9147
  87 473.537 -27.2822 15.7450
  88 473.537 -27.2822 15.7450
  89 377.744 8.41036 5.36386
  90 379.307 9.19869 -5.46857
  91 377.744 8.41036 5.36386
  92 379.307 9.19869 -5.46857
  93 542.006 28.7925 20.1289
  94 542.006 28.7925 20.1289
  95 390.603 3.73428 15.9987
  96 390.603 3.73428 15.9987
  97 583.844 43.0473 -20.8297
  98 591.040 35.2649 -43.7380
  99 583.844 43.0473 -20.8297
  100 591.040 35.2649 -43.7380
  101 381.027 5.96697 -19.7165
  102 381.027 5.96697 -19.7165
  103 308.740 -60.0597 -140.492
  104 308.740 -60.0597 -140.492
  105 262.031 -69.1778 148.623
  106 262.031 -69.1778 148.623
  107 482.199 -37.0899 -53.9597
  108 482.199 -37.0899 -53.9597
  109 362.194 -44.9210 -81.8315
  110 362.194 -44.9210 -81.8315
  111 617.722 42.4425 31.9504
  112 617.722 42.4425 31.9504
  113 48.0611 -155.537 -55.5995
  114 48.0611 -155.537 -55.5995
  115 27.8590 -183.411 16.6658
  116 27.8590 -183.411 16.6658
  117 327.664 20.8831 -4.12244
  118 327.664 20.8831 -4.12244
  119 396.659 -15.5647 -31.6326
  120 396.659 -15.5647 -31.6326
  121 656.401 18.3284 -14.9456
  122 656.401 18.3284 -14.9456
  123 76.0441 -152.793 94.0611
  124 76.0441 -152.793 94.0611
  125 357.963 12.3786 18.3184
  126 357.963 12.3786 18.3184
  127 89.9097 -123.730 -104.196
  128 89.9097 -123.730 -104.196
  129 475.777 -31.9883 78.5178
  130 475.777 -31.9883 78.5178
  131 668.003 33.2675 -46.2735
  132 668.003 33.2675 -46.2735
  133 34.8558 -210.519 -15.8133
  134 34.8558 -210.519 -15.8133
  135 42.2062 -201.874 41.2849
  136 42.2062 -201.874 41.2849
  137 389.977 3.76889 -9.39120
  138 389.977 3.76889 -9.39120
  139 371.281 12.8063 -0.675611
  140 371.281 12.8063 -0.675611
  141 379.912 6.52617 -0.0872961
  142 379.912 6.52617 -0.0872961
  143 390.834 -7.90953 27.6511
  144 390.834 -7.90953 27.6511
  145 273.180 -7.14950 64.9899
  146 393.374 -36.4713 55.4838
  147 271.105 15.7219 1.54387
  148 273.180 -7.14950 64.9899
  149 393.374 -36.4713 55.4838
  150 271.105 15.7219 1.54387
  151 353.353 6.40229 -29.1942
  152 353.353 6.40229 -29.1942
  153 651.675 18.8817 11.5400
  154 651.675 18.8817 11.5400
  155 675.846 15.6604 28.6084
  156 677.199 34.0124 57.5873
  157 675.846 15.6604 28.6084
  158 677.199 34.0124 57.5873
  159 383.950 4.39514 3.11449
  160 383.950 4.39514 3.11449
  161 242.265 -10.0221 -55.4320
  162 242.265 -10.0221 -55.4320
  163 383.969 4.27989 -3.05794
  164 383.969 4.27989 -3.05794
  165 386.237 5.18062 8.53761
  166 386.237 5.18062 8.53761
  167 451.406 -3.64173 10.4640
  168 440.717 -16.0221 -1.92674
  169 451.406 -3.64173 10.4640
  170 440.717 -16.0221 -1.92674
  171 485.411 -11.5785 1.17176
  172 485.411 -11.5785 1.17176
  173 371.535 11.6309 9.87458
  174 371.535 11.6309 9.87458
  175 187.214 -19.8835 75.3440
  176 187.214 -19.8835 75.3440
  177 166.598 -8.60583 -47.5844
  178 166.598 -8.60583 -47.5844
  179 374.650 12.5308 -9.46128
  180 374.650 12.5308 -9.46128
</Section>

newXOutput 113

<Section columns = "stress_xx | stress_yy | stress_xy">
  1 388.185 2.69324 -1.54283
  2 387.854 2.08729 1.38690
  3 388.185 2.69324 -1.54283
  4 387.854 2.08729 1.38690
  5 568.691 21.2084 147.579
  6 561.124 17.4085 -137.628
  7 568.691 21.2084 147.579
  8 561.124 17.4085 -137.628
  9 392.058 0.737012 -4.96496
  10 408.217 0.0894672 -8.20929
  11 418.784 -4.80629 -10.8716
  12 440.441 -2.23305 5.75144
  13 440.768 13.5509 3.98433
  14 441.611 -2.19641 -7.48814
  15 423.033 -7.45509 10.8777
  16 403.082 1.80855 9.59367
  17 392.424 2.56149 4.40218
  18 385.814 4.44089 0.767524
  19 383.674 4.49089 -0.0589821
  20 385.632 4.09562 -0.697524
  21 392.058 0.737012 -4.96496
  22 408.217 0.0894672 -8.20929
  23 418.784 -4.80629 -10.8716
  24 440.441 -2.23305 5.75144
  25 440.768 13.5509 3.98433
  26 441.611 -2.19641 -7.48814
  27 423.033 -7.45509 10.8777
  28 403.082 1.80855 9.59367
  29 392.424 2.56149 4.40218
  30 385.814 4.44089 0.767524
  31 383.674 4.49089 -0.0589821
  32 385.632 4.09562 -0.697524
  33 833.716 7.11544 62.3939
  34 728.097 6.95774 40.3728
  35 700.386 13.8104 15.9565
  36 679.709 8.12241 -4.10468
  37 717.506 2.57746 -15.3747
  38 735.271 14.1792 -36.5460
  39 766.004 52.4693 -77.6126
  40 190.832 -105.806 -168.769
  41 38.8308 -206.428 -71.3047
  42 15.2475 -285.984 -23.1253
  43 10.1603 -304.043 -2.26197
  44 12.4457 -289.578 23.2803
  45 35.5493 -247.069 61.9946
  46 155.447 -107.057 165.834
  47 833.716 7.11544 62.3939
  48 728.097 6.95774 40.3728
  49 700.386 13.8104 15.9565
  50 679.709 8.12241 -4.10468
  51 717.506 2.57746 -15.3747
  52 735.271 14.1792 -36.5460
  53 766.004 52.4693 -77.6126
  54 190.832 -105.806 -168.769
  55 38.8308 -206.428 -71.3047
  56 15.2475 -285.984 -23.1253
  57 10.1603 -304.043 -2.26197
  58 12.4457 -289.578 23.2803
  59 35.5493 -247.069 61.9946
  60 155.447 -107.057 165.834
  61 360.015 15.3034 -6.54990
  62 360.015 15.3034 -6.54990
  63 334.020 4.91553 35.7649
  64 324.384 2.21852 -43.5241
  65 334.020 4.91553 35.7649
  66 324.384 2.21852 -43.5241
  67 187.558 4.19663 12.0952
  68 187.558 4.19663 12.0952
  69 300.561 -56.0367 119.461
  70 300.561 -56.0367 119.461
  71 183.664 -53.1643 -96.2855
  72 450.685 -38.4864 -20.9787
  73 499.833 28.3668 -1.23389
  74 477.543 13.3734 -4.61112
  75 183.664 -53.1643 -96.2855
  76 450.685 -38.4864 -20.9787
  77 499.833 28.3668 -1.23389
  78 477.543 13.3734 -4.61112
  79 442.873 -20.6804 9.95586
  80 442.873 -20.6804 9.95586
  81 568.791 42.1217 3.17679
  82 568.791 42.1217 3.17679
  83 98.2035 -62.2048 -8.27300
  84 98.2035 -62.2048 -8.27300
  85 126.909 -83.7568 83.6738
  86 126.909 -83.7568 83.6738
  87 477.565 -27.5094 15.9157
  88 477.565 -27.5094 15.9157
  89 381.001 8.48069 5.40720
  90 382.576 9.27582 -5.51276
  91 381.001 8.48069 5.40720
  92 382.576 9.27582 -5.51276
  93 546.599 29.0550 20.3379
  94 546.599 29.0550 20.3379
  95 393.959 3.76545 16.1324
  96 393.959 3.76545 16.1324
  97 588.777 43.4133 -21.0215
  98 596.011 35.5903 -44.1479
  99 588.777 43.4133 -21.0215
  100 596.011 35.5903 -44.1479
  101 384.308 6.01742 -19.8825
  102 384.308 6.01742 -19.8825
  103 311.356 -60.5398 -141.758
  104 311.356 -60.5398 -141.758
  105 264.258 -69.7354 149.968
  106 264.258 -69.7354 149.968
  107 486.278 -37.3901 -54.4696
  108 486.278 -37.3901 -54.4696
  109 365.297 -45.3111 -82.5526
  110 365.297 -45.3111 -82.5526
  111 622.909 42.8061 32.2350
  112 622.909 42.8061 32.2350
  113 48.4845 -156.880 -56.1247
  114 48.4845 -156.880 -56.1247
  115 28.1011 -185.014 16.8268
  116 28.1011 -185.014 16.8268
  117 330.514 21.0644 -4.15689
  118 330.514 21.0644 -4.15689
  119 400.061 -15.7003 -31.9090
  120 400.061 -15.7003 -31.9090
  121 661.864 18.4775 -15.0701
  122 661.864 18.4775 -15.0701
  123 76.7105 -154.085 94.9507
  124 76.7105 -154.085 94.9507
  125 361.060 12.4847 18.4726
  126 361.060 12.4847 18.4726
  127 90.6989 -124.769 -105.169
  128 90.6989 -124.769 -105.169
  129 479.800 -32.2429 79.2374
  130 479.800 -32.2429 79.2374
  131 673.562 33.5491 -46.6748
  132 673.562 33.5491 -46.6748
  133 35.1580 -212.369 -15.9633
  134 35.1580 -212.369 -15.9633
  135 42.5744 -203.632 41.6886
  136 42.5744 -203.632 41.6886
  137 393.328 3.80043 -9.46858
  138 393.328 3.80043 -9.46858
  139 374.487 12.9140 -0.681219
  140 374.487 12.9140 -0.681219
  141 383.186 6.58032 -0.0879949
  142 383.186 6.58032 -0.0879949
  143 394.191 -7.97866 27.8895
  144 394.191 -7.97866 27.8895
  145 275.564 -7.20814 65.5548
  146 396.739 -36.7876 55.9749
  147 273.484 15.8625 1.55835
  148 275.564 -7.20814 65.5548
  149 396.739 -36.7876 55.9749
  150 273.484 15.8625 1.55835
  151 356.410 6.45765 -29.4416
  152 356.410 6.45765 -29.4416
  153 657.107 19.0339 11.6390
  154 657.107 19.0339 11.6390
  155 681.462 15.7874 28.8477
  156 682.829 34.3237 58.0975
  157 681.462 15.7874 28.8477
  158 682.829 34.3237 58.0975
  159 387.254 4.43167 3.13933
  160 387.254 4.43167 3.13933
  161 244.391 -10.1049 -55.9155
  162 244.391 -10.1049 -55.9155
  163 387.274 4.31546 -3.08231
  164 387.274 4.31546 -3.08231
  165 389.559 5.22412 8.60693
  166 389.559 5.22412 8.60693
  167 455.273 -3.66957 10.5326
  168 444.482 -16.1619 -1.95732
  169 455.273 -3.66957 10.5326
  170 444.482 -16.1619 -1.95732
  171 489.543 -11.6666 1.14333
  172 489.543 -11.6666 1.14333
  173 374.742 11.7292 9.95593
  174 374.742 11.7292 9.95593
  175 188.862 -20.0452 76.0112
  176 188.862 -20.0452 76.0112
  177 168.076 -8.66548 -48.0053
  178 168.076 -8.66548 -48.0053
  179 377.883 12.6368 -9.53952
  180 377.883 12.6368 -9.53952
</Section>

newXOutput 114

<Section columns = "stress_xx | stress_yy | stress_xy">
  1 391.493 2.71534 -1.55495
  2 391.160 2.10435 1.39777
  3 391.493 2.71534 -1.55495
  4 391.160 2.10435 1.39777
  5 573.359 21.4671 148.878
  6 565.753 17.6355 -138.854
  7 573.359 21.4671 148.878
  8 565.753 17.6355 -138.854
  9 395.395 0.742644 -5.00481
  10 411.680 0.0902833 -8.27608
  11 422.336 -4.84841 -10.9662
  12 444.183 -2.25210 5.78874
  13 444.533 13.6691 4.01467
  14 445.364 -2.21440 -7.53752
  15 426.618 -7.51988 10.9729
  16 406.505 1.82344 9.67176
  17 395.765 2.58266 4.43701
  18 389.105 4.47720 0.773544
  19 386.949 4.52752 -0.0594353
  20 388.922 4.12908 -0.703000
  21 395.395 0.742644 -5.00481
  22 411.680 0.0902833 -8.27608
  23 422.336 -4.84841 -10.9662
  24 444.183 -2.25210 5.78874
  25 444.533 13.6691 4.01467
  26 445.364 -2.21440 -7.53752
  27 426.618 -7.51988 10.9729
  28 406.505 1.82344 9.67176
  29 395.765 2.58266 4.43701
  30 389.105 4.47720 0.773544
  31 386.949 4.52752 -0.0594353
  32 388.922 4.12908 -0.703000
  33 840.462 7.17773 62.9184
  34 734.039 7.00677 40.7080
  35 706.114 13.9214 16.0851
  36 685.283 8.18407 -4.13666
  37 723.348 2.59734 -15.5001
  38 741.268 14.2972 -36.8465
  39 772.259 52.9354 -78.2825
  40 192.430 -106.621 -170.293
  41 39.1657 -208.181 -71.9825
  42 15.3749 -288.507 -23.3523
  43 10.2396 -306.743 -2.28129
  44 12.5457 -292.130 23.5076
  45 35.8547 -249.191 62.5912
  46 156.752 -107.883 167.335
  47 840.462 7.17773 62.9184
  48 734.039 7.00677 40.7080
  49 706.114 13.9214 16.0851
  50 685.283 8.18407 -4.13666
  51 723.348 2.59734 -15.5001
  52 741.268 14.2972 -36.8465
  53 772.259 52.9354 -78.2825
  54 192.430 -106.621 -170.293
  55 39.1657 -208.181 -71.9825
  56 15.3749 -288.507 -23.3523
  57 10.2396 -306.743 -2.28129
  58 12.5457 -292.130 23.5076
  59 35.8547 -249.191 62.5912
  60 156.752 -107.883 167.335
  61 363.103 15.4328 -6.60431
  62 363.103 15.4328 -6.60431
  63 336.891 4.95897 36.0690
  64 327.174 2.23881 -43.8939
  65 336.891 4.95897 36.0690
  66 327.174 2.23881 -43.8939
  67 189.208 4.24453 12.2005
  68 189.208 4.24453 12.2005
  69 303.118 -56.5208 120.508
  70 303.118 -56.5208 120.508
  71 185.253 -53.6107 -97.1428
  72 454.489 -38.8147 -21.1805
  73 504.064 28.6142 -1.26135
  74 481.591 13.4917 -4.63030
  75 185.253 -53.6107 -97.1428
  76 454.489 -38.8147 -21.1805
  77 504.064 28.6142 -1.26135
  78 481.591 13.4917 -4.63030
  79 446.621 -20.8570 10.0574
  80 446.621 -20.8570 10.0574
  81 573.560 42.4758 3.21103
  82 573.560 42.4758 3.21103
  83 99.0688 -62.7201 -8.34820
  84 99.0688 -62.7201 -8.34820
  85 128.007 -84.4611 84.4332
  86 128.007 -84.4611 84.4332
  87 481.589 -27.7364 16.0867
  88 481.589 -27.7364 16.0867
  89 384.255 8.55092 5.45045
  90 385.843 9.35285 -5.55686
  91 384.255 8.55092 5.45045
  92 385.843 9.35285 -5.55686
  93 551.187 29.3176 20.5473
  94 551.187 29.3176 20.5473
  95 397.313 3.79659 16.2658
  96 397.313 3.79659 16.2658
  97 593.705 43.7789 -21.2132
  98 600.977 35.9158 -44.5581
  99 593.705 43.7789 -21.2132
  100 600.977 35.9158 -44.5581
  101 387.587 6.06782 -20.0483
  102 387.587 6.06782 -20.0483
  103 313.970 -61.0187 -143.024
  104 313.970 -61.0187 -143.024
  105 266.482 -70.2918 151.312
  106 266.482 -70.2918 151.312
  107 490.353 -37.6897 -54.9800
  108 490.353 -37.6897 -54.9800
  109 368.398 -45.7011 -83.2734
  110 368.398 -45.7011 -83.2734
  111 628.091 43.1695 32.5194
  112 628.091 43.1695 32.5194
  113 48.9078 -158.223 -56.6502
  114 48.9078 -158.223 -56.6502
  115 28.3430 -186.616 16.9880
  116 28.3430 -186.616 16.9880
  117 333.363 21.2456 -4.19130
  118 333.363 21.2456 -4.19130
  119 403.461 -15.8358 -32.1853
  120 403.461 -15.8358 -32.1853
  121 667.319 18.6263 -15.1944
  122 667.319 18.6263 -15.1944
  123 77.3765 -155.375 95.8410
  124 77.3765 -155.375 95.8410
  125 364.155 12.5907 18.6267
  126 364.155 12.5907 18.6267
  127 91.4877 -125.806 -106.142
  128 91.4877 -125.806 -106.142
  129 483.820 -32.4969 79.9572
  130 483.820 -32.4969 79.9572
  131 679.113 33.8304 -47.0759
  132 679.113 33.8304 -47.0759
  133 35.4600 -214.219 -16.1133
  134 35.4600 -214.219 -16.1133
  135 42.9423 -205.388 42.0928
  136 42.9423 -205.388 42.0928
  137 396.677 3.83194 -9.54583
  138 396.677 3.83194 -9.54583
  139 377.691 13.0215 -0.686819
  140 377.691 13.0215 -0.686819
  141 386.457 6.63440 -0.0886923
  142 386.457 6.63440 -0.0886923
  143 397.545 -8.04775 28.1278
  144 397.545 -8.04775 28.1278
  145 277.947 -7.26669 66.1193
  146 400.102 -37.1038 56.4657
  147 275.863 16.0030 1.57284
  148 277.947 -7.26669 66.1193
  149 400.102 -37.1038 56.4657
  150 275.863 16.0030 1.57284
  151 359.464 6.51298 -29.6887
  152 359.464 6.51298 -29.6887
  153 662.532 19.1859 11.7379
  154 662.532 19.1859 11.7379
  155 687.071 15.9140 29.0868
  156 688.451 34.6352 58.6074
  157 687.071 15.9140 29.0868
  158 688.451 34.6352 58.6074
  159 390.556 4.46814 3.16411
  160 390.556 4.46814 3.16411
  161 246.515 -10.1876 -56.3987
  162 246.515 -10.1876 -56.3987
  163 390.575 4.35097 -3.10662
  164 390.575 4.35097 -3.10662
  165 392.878 5.26755 8.67613
  166 392.878 5.26755 8.67613
  167 459.137 -3.69733 10.6008
  168 448.243 -16.3015 -1.98811
  169 459.137 -3.69733 10.6008
  170 448.243 -16.3015 -1.98811
  171 493.672 -11.7544 1.11428
  172 493.672 -11.7544 1.11428
  173 377.947 11.8275 10.0372
  174 377.947 11.8275 10.0372
  175 190.509 -20.2067 76.6783
  176 190.509 -20.2067 76.6783
  177 169.553 -8.72484 -48.4259
  178 169.553 -8.72484 -48.4259
  179 381.113 12.7428 -9.61764
  180 381.113 12.7428 -9.61764
</Section>

newXOutput 115

<Section columns = "stress_xx | stress_yy | stress_xy">
  1 394.799 2.73741 -1.56705
  2 394.463 2.12138 1.40861
  3 394.799 2.73741 -1.56705
  4 394.463 2.12138 1.40861
  5 578.021 21.7270 150.176
  6 570.376 17.8637 -140.079
  7 578.021 21.7270 150.176
  8 570.376 17.8637 -140.079
  9 398.730 0.748260 -5.04458
  10 415.140 0.0910999 -8.34276
  11 425.885 -4.89051 -11.0608
  12 447.922 -2.27114 5.82582
  13 448.294 13.7872 4.04494
  14 449.113 -2.23235 -7.58663
  15 430.200 -7.58465 11.0681
  16 409.926 1.83830 9.74972
  17 399.102 2.60379 4.47177
  18 392.393 4.51345 0.779551
  19 390.221 4.56409 -0.0598872
  20 392.208 4.16248 -0.708465
  21 398.730 0.748260 -5.04458
  22 415.140 0.0910999 -8.34276
  23 425.885 -4.89051 -11.0608
  24 447.922 -2.27114 5.82582
  25 448.294 13.7872 4.04494
  26 449.113 -2.23235 -7.58663
  27 430.200 -7.58465 11.0681
  28 409.926 1.83830 9.74972
  29 399.102 2.60379 4.47177
  30 392.393 4.51345 0.779551
  31 390.221 4.56409 -0.0598872
  32 392.208 4.16248 -0.708465
  33 847.196 7.24000 63.4423
  34 739.972 7.05559 41.0427
  35 711.834 14.0321 16.2135
  36 690.848 8.24555 -4.16856
  37 729.181 2.61716 -15.6253
  38 747.256 14.4151 -37.1466
  39 778.504 53.4015 -78.9520
  40 194.025 -107.435 -171.816
  41 39.5003 -209.932 -72.6609
  42 15.5021 -291.030 -23.5795
  43 10.3187 -309.443 -2.30060
  44 12.6455 -294.682 23.7352
  45 36.1598 -251.311 63.1885
  46 158.055 -108.707 168.837
  47 847.196 7.24000 63.4423
  48 739.972 7.05559 41.0427
  49 711.834 14.0321 16.2135
  50 690.848 8.24555 -4.16856
  51 729.181 2.61716 -15.6253
  52 747.256 14.4151 -37.1466
  53 778.504 53.4015 -78.9520
  54 194.025 -107.435 -171.816
  55 39.5003 -209.932 -72.6609
  56 15.5021 -291.030 -23.5795
  57 10.3187 -309.443 -2.30060
  58 12.6455 -294.682 23.7352
  59 36.1598 -251.311 63.1885
  60 158.055 -108.707 168.837
  61 366.189 15.5622 -6.65865
  62 366.189 15.5622 -6.65865
  63 339.759 5.00241 36.3727
  64 329.961 2.25910 -44.2634
  65 339.759 5.00241 36.3727
  66 329.961 2.25910 -44.2634
  67 190.857 4.29259 12.3058
  68 190.857 4.29259 12.3058
  69 305.673 -57.0046 121.555
  70 305.673 -57.0046 121.555
  71 186.842 -54.0565 -98.0001
  72 458.290 -39.1427 -21.3825
  73 508.290 28.8614 -1.28907
  74 485.635 13.6099 -4.64913
  75 186.842 -54.0565 -98.0001
  76 458.290 -39.1427 -21.3825
  77 508.290 28.8614 -1.28907
  78 485.635 13.6099 -4.64913
  79 450.367 -21.0335 10.1592
  80 450.367 -21.0335 10.1592
  81 578.324 42.8295 3.24536
  82 578.324 42.8295 3.24536
  83 99.9340 -63.2346 -8.42342
  84 99.9340 -63.2346 -8.42342
  85 129.104 -85.1647 85.1927
  86 129.104 -85.1647 85.1927
  87 485.610 -27.9630 16.2583
  88 485.610 -27.9630 16.2583
  89 387.507 8.62107 5.49362
  90 389.107 9.42978 -5.60087
  91 387.507 8.62107 5.49362
  92 389.107 9.42978 -5.60087
  93 555.769 29.5802 20.7571
  94 555.769 29.5802 20.7571
  95 400.664 3.82768 16.3991
  96 400.664 3.82768 16.3991
  97 598.626 44.1441 -21.4050
  98 605.937 36.2415 -44.9685
  99 598.626 44.1441 -21.4050
  100 605.937 36.2415 -44.9685
  101 390.863 6.11816 -20.2139
  102 390.863 6.11816 -20.2139
  103 316.580 -61.4967 -144.290
  104 316.580 -61.4967 -144.290
  105 268.704 -70.8471 152.657
  106 268.704 -70.8471 152.657
  107 494.423 -37.9887 -55.4907
  108 494.423 -37.9887 -55.4907
  109 371.497 -46.0907 -83.9939
  110 371.497 -46.0907 -83.9939
  111 633.266 43.5325 32.8038
  112 633.266 43.5325 32.8038
  113 49.3309 -159.564 -57.1762
  114 49.3309 -159.564 -57.1762
  115 28.5848 -188.217 17.1494
  116 28.5848 -188.217 17.1494
  117 336.209 21.4266 -4.22566
  118 336.209 21.4266 -4.22566
  119 406.858 -15.9712 -32.4614
  120 406.858 -15.9712 -32.4614
  121 672.768 18.7748 -15.3185
  122 672.768 18.7748 -15.3185
  123 78.0422 -156.664 96.7320
  124 78.0422 -156.664 96.7320
  125 367.247 12.6966 18.7806
  126 367.247 12.6966 18.7806
  127 92.2761 -126.842 -107.116
  128 92.2761 -126.842 -107.116
  129 487.835 -32.7503 80.6771
  130 487.835 -32.7503 80.6771
  131 684.656 34.1114 -47.4766
  132 684.656 34.1114 -47.4766
  133 35.7618 -216.068 -16.2635
  134 35.7618 -216.068 -16.2635
  135 43.3100 -207.143 42.4976
  136 43.3100 -207.143 42.4976
  137 400.023 3.86340 -9.62296
  138 400.023 3.86340 -9.62296
  139 380.893 13.1290 -0.692410
  140 380.893 13.1290 -0.692410
  141 389.725 6.68840 -0.0893882
  142 389.725 6.68840 -0.0893882
  143 400.897 -8.11681 28.3658
  144 400.897 -8.11681 28.3658
  145 280.328 -7.32514 66.6835
  146 403.462 -37.4197 56.9565
  147 278.240 16.1434 1.58734
  148 280.328 -7.32514 66.6835
  149 403.462 -37.4197 56.9565
  150 278.240 16.1434 1.58734
  151 362.516 6.56826 -29.9355
  152 362.516 6.56826 -29.9355
  153 667.949 19.3377 11.8367
  154 667.949 19.3377 11.8367
  155 692.672 16.0405 29.3255
  156 694.065 34.9467 59.1172
  157 692.672 16.0405 29.3255
  158 694.065 34.9467 59.1172
  159 393.855 4.50457 3.18884
  160 393.855 4.50457 3.18884
  161 248.638 -10.2701 -56.8817
  162 248.638 -10.2701 -56.8817
  163 393.874 4.38644 -3.13089
  164 393.874 4.38644 -3.13089
  165 396.195 5.31094 8.74519
  166 396.195 5.31094 8.74519
  167 462.997 -3.72499 10.6687
  168 452.001 -16.4411 -2.01911
  169 462.997 -3.72499 10.6687
  170 452.001 -16.4411 -2.01911
  171 497.796 -11.8420 1.08460
  172 497.796 -11.8420 1.08460
  173 381.150 11.9256 10.1183
  174 381.150 11.9256 10.1183
  175 192.156 -20.3679 77.3451
  176 192.156 -20.3679 77.3451
  177 171.030 -8.78390 -48.8465
  178 171.030 -8.78390 -48.8465
  179 384.341 12.8486 -9.69565
  180 384.341 12.8486 -9.69565
</Section>

newXOutput 116

<Section columns = "stress_xx | stress_yy | stress_xy">
  1 398.102 2.75944 -1.57912
  2 397.763 2.13839 1.41943
  3 398.102 2.75944 -1.57912
  4 397.763 2.13839 1.41943
  5 582.676 21.9880 151.474
  6 574.993 18.0931 -141.304
  7 582.676 21.9880 151.474
  8 574.993 18.0931 -141.304
  9 402.062 0.753861 -5.08427
  10 418.597 0.0919168 -8.40933
  11 429.431 -4.93260 -11.1552
  12 451.658 -2.29017 5.86267
  13 452.053 13.9053 4.07511
  14 452.859 -2.25027 -7.63545
  15 433.779 -7.64938 11.1633
  16 413.343 1.85314 9.82756
  17 402.437 2.62490 4.50645
  18 395.679 4.54966 0.785544
  19 393.491 4.60060 -0.0603380
  20 395.493 4.19584 -0.713917
  21 402.062 0.753861 -5.08427
  22 418.597 0.0919168 -8.40933
  23 429.431 -4.93260 -11.1552
  24 451.658 -2.29017 5.86267
  25 452.053 13.9053 4.07511
  26 452.859 -2.25027 -7.63545
  27 433.779 -7.64938 11.1633
  28 413.343 1.85314 9.82756
  29 402.437 2.62490 4.50645
  30 395.679 4.54966 0.785544
  31 393.491 4.60060 -0.0603380
  32 395.493 4.19584 -0.713917
  33 853.920 7.30225 63.9657
  34 745.896 7.10420 41.3770
  35 717.546 14.1427 16.3416
  36 696.406 8.30687 -4.20039
  37 735.004 2.63694 -15.7503
  38 753.234 14.5329 -37.4462
  39 784.739 53.8674 -79.6209
  40 195.619 -108.246 -173.340
  41 39.8348 -211.682 -73.3401
  42 15.6291 -293.552 -23.8072
  43 10.3977 -312.143 -2.31989
  44 12.7451 -297.233 23.9631
  45 36.4647 -253.430 63.7865
  46 159.357 -109.529 170.339
  47 853.920 7.30225 63.9657
  48 745.896 7.10420 41.3770
  49 717.546 14.1427 16.3416
  50 696.406 8.30687 -4.20039
  51 735.004 2.63694 -15.7503
  52 753.234 14.5329 -37.4462
  53 784.739 53.8674 -79.6209
  54 195.619 -108.246 -173.340
  55 39.8348 -211.682 -73.3401
  56 15.6291 -293.552 -23.8072
  57 10.3977 -312.143 -2.31989
  58 12.7451 -297.233 23.9631
  59 36.4647 -253.430 63.7865
  60 159.357 -109.529 170.339
  61 369.273 15.6914 -6.71291
  62 369.273 15.6914 -6.71291
  63 342.626 5.04583 36.6762
  64 332.747 2.27940 -44.6326
  65 342.626 5.04583 36.6762
  66 332.747 2.27940 -44.6326
  67 192.505 4.34081 12.4111
  68 192.505 4.34081 12.4111
  69 308.225 -57.4881 122.601
  70 308.225 -57.4881 122.601
  71 188.430 -54.5019 -98.8573
  72 462.088 -39.4704 -21.5848
  73 512.513 29.1086 -1.31706
  74 489.675 13.7281 -4.66761
  75 188.430 -54.5019 -98.8573
  76 462.088 -39.4704 -21.5848
  77 512.513 29.1086 -1.31706
  78 489.675 13.7281 -4.66761
  79 454.108 -21.2098 10.2612
  80 454.108 -21.2098 10.2612
  81 583.083 43.1828 3.27978
  82 583.083 43.1828 3.27978
  83 100.799 -63.7485 -8.49867
  84 100.799 -63.7485 -8.49867
  85 130.200 -85.8676 85.9524
  86 130.200 -85.8676 85.9524
  87 489.626 -28.1893 16.4303
  88 489.626 -28.1893 16.4303
  89 390.756 8.69113 5.53670
  90 392.368 9.50662 -5.64480
  91 390.756 8.69113 5.53670
  92 392.368 9.50662 -5.64480
  93 560.347 29.8428 20.9673
  94 560.347 29.8428 20.9673
  95 404.013 3.85873 16.5322
  96 404.013 3.85873 16.5322
  97 603.543 44.5090 -21.5969
  98 610.891 36.5673 -45.3791
  99 603.543 44.5090 -21.5969
  100 610.891 36.5673 -45.3791
  101 394.137 6.16845 -20.3793
  102 394.137 6.16845 -20.3793
  103 319.188 -61.9736 -145.556
  104 319.188 -61.9736 -145.556
  105 270.923 -71.4013 154.002
  106 270.923 -71.4013 154.002
  107 498.489 -38.2872 -56.0017
  108 498.489 -38.2872 -56.0017
  109 374.592 -46.4802 -84.7140
  110 374.592 -46.4802 -84.7140
  111 638.434 43.8952 33.0881
  112 638.434 43.8952 33.0881
  113 49.7539 -160.905 -57.7026
  114 49.7539 -160.905 -57.7026
  115 28.8264 -189.817 17.3109
  116 28.8264 -189.817 17.3109
  117 339.054 21.6075 -4.25998
  118 339.054 21.6075 -4.25998
  119 410.252 -16.1066 -32.7374
  120 410.252 -16.1066 -32.7374
  121 678.208 18.9230 -15.4425
  122 678.208 18.9230 -15.4425
  123 78.7076 -157.952 97.6237
  124 78.7076 -157.952 97.6237
  125 370.337 12.8025 18.9343
  126 370.337 12.8025 18.9343
  127 93.0641 -127.877 -108.091
  128 93.0641 -127.877 -108.091
  129 491.845 -33.0031 81.3972
  130 491.845 -33.0031 81.3972
  131 690.192 34.3921 -47.8771
  132 690.192 34.3921 -47.8771
  133 36.0634 -217.917 -16.4138
  134 36.0634 -217.917 -16.4138
  135 43.6775 -208.897 42.9029
  136 43.6775 -208.897 42.9029
  137 403.366 3.89482 -9.69997
  138 403.366 3.89482 -9.69997
  139 384.092 13.2363 -0.697994
  140 384.092 13.2363 -0.697994
  141 392.991 6.74232 -0.0900827
  142 392.991 6.74232 -0.0900827
  143 404.245 -8.18583 28.6037
  144 404.245 -8.18583 28.6037
  145 282.708 -7.38350 67.2473
  146 406.819 -37.7354 57.4470
  147 280.617 16.2839 1.60184
  148 282.708 -7.38350 67.2473
  149 406.819 -37.7354 57.4470
  150 280.617 16.2839 1.60184
  151 365.567 6.62351 -30.1821
  152 365.567 6.62351 -30.1821
  153 673.359 19.4891 11.9354
  154 673.359 19.4891 11.9354
  155 698.265 16.1667 29.5639
  156 699.671 35.2582 59.6268
  157 698.265 16.1667 29.5639
  158 699.671 35.2582 59.6268
  159 397.151 4.54094 3.21351
  160 397.151 4.54094 3.21351
  161 250.761 -10.3526 -57.3643
  162 250.761 -10.3526 -57.3643
  163 397.171 4.42186 -3.15510
  164 397.171 4.42186 -3.15510
  165 399.509 5.35427 8.81414
  166 399.509 5.35427 8.81414
  167 466.854 -3.75257 10.7361
  168 455.755 -16.5806 -2.05032
  169 466.854 -3.75257 10.7361
  170 455.755 -16.5806 -2.05032
  171 501.916 -11.9293 1.05428
  172 501.916 -11.9293 1.05428
  173 384.350 12.0237 10.1992
  174 384.350 12.0237 10.1992
  175 193.802 -20.5289 78.0117
  176 193.802 -20.5289 78.0117
  177 172.507 -8.84266 -49.2669
  178 172.507 -8.84266 -49.2669
  179 387.566 12.9542 -9.77354
  180 387.566 12.9542 -9.77354
</Section>

newXOutput 117

<Section columns = "stress_xx | stress_yy | stress_xy">
  1 401.402 2.78145 -1.59116
  2 401.061 2.15537 1.43022
  3 401.402 2.78145 -1.59116
  4 401.061 2.15537 1.43022
  5 587.324 22.2501 152.772
  6 579.603 18.3237 -142.529
  7 587.324 22.2501 152.772
  8 579.603 18.3237 -142.529
  9 405.391 0.759447 -5.12389
  10 422.051 0.0927342 -8.47579
  11 432.974 -4.97468 -11.2497
  12 455.390 -2.30917 5.89929
  13 455.808 14.0233 4.10521
  14 456.601 -2.26817 -7.68398
  15 437.354 -7.71409 11.2584
  16 416.758 1.86796 9.90527
  17 405.769 2.64598 4.54107
  18 398.962 4.58580 0.791523
  19 396.758 4.63706 -0.0607876
  20 398.774 4.22915 -0.719357
  21 405.391 0.759447 -5.12389
  22 422.051 0.0927342 -8.47579
  23 432.974 -4.97468 -11.2497
  24 455.390 -2.30917 5.89929
  25 455.808 14.0233 4.10521
  26 456.601 -2.26817 -7.68398
  27 437.354 -7.71409 11.2584
  28 416.758 1.86796 9.90527
  29 405.769 2.64598 4.54107
  30 398.962 4.58580 0.791523
  31 396.758 4.63706 -0.0607876
  32 398.774 4.22915 -0.719357
  33 860.632 7.36447 64.4885
  34 751.810 7.15261 41.7108
  35 723.248 14.2531 16.4695
  36 701.955 8.36802 -4.23215
  37 740.819 2.65667 -15.8751
  38 759.203 14.6505 -37.7454
  39 790.965 54.3333 -80.2895
  40 197.211 -109.055 -174.864
  41 40.1690 -213.430 -74.0199
  42 15.7560 -296.074 -24.0352
  43 10.4764 -314.843 -2.33916
  44 12.8445 -299.784 24.1914
  45 36.7693 -255.548 64.3853
  46 160.658 -110.348 171.841
  47 860.632 7.36447 64.4885
  48 751.810 7.15261 41.7108
  49 723.248 14.2531 16.4695
  50 701.955 8.36802 -4.23215
  51 740.819 2.65667 -15.8751
  52 759.203 14.6505 -37.7454
  53 790.965 54.3333 -80.2895
  54 197.211 -109.055 -174.864
  55 40.1690 -213.430 -74.0199
  56 15.7560 -296.074 -24.0352
  57 10.4764 -314.843 -2.33916
  58 12.8445 -299.784 24.1914
  59 36.7693 -255.548 64.3853
  60 160.658 -110.348 171.841
  61 372.355 15.8206 -6.76712
  62 372.355 15.8206 -6.76712
  63 345.492 5.08924 36.9794
  64 335.532 2.29971 -45.0015
  65 345.492 5.08924 36.9794
  66 335.532 2.29971 -45.0015
  67 194.154 4.38921 12.5163
  68 194.154 4.38921 12.5163
  69 310.775 -57.9713 123.646
  70 310.775 -57.9713 123.646
  71 190.017 -54.9468 -99.7144
  72 465.882 -39.7979 -21.7872
  73 516.732 29.3557 -1.34530
  74 493.711 13.8463 -4.68574
  75 190.017 -54.9468 -99.7144
  76 465.882 -39.7979 -21.7872
  77 516.732 29.3557 -1.34530
  78 493.711 13.8463 -4.68574
  79 457.846 -21.3860 10.3634
  80 457.846 -21.3860 10.3634
  81 587.837 43.5358 3.31428
  82 587.837 43.5358 3.31428
  83 101.664 -64.2618 -8.57394
  84 101.664 -64.2618 -8.57394
  85 131.296 -86.5698 86.7123
  86 131.296 -86.5698 86.7123
  87 493.638 -28.4153 16.6027
  88 493.638 -28.4153 16.6027
  89 394.002 8.76109 5.57970
  90 395.627 9.58336 -5.68865
  91 394.002 8.76109 5.57970
  92 395.627 9.58336 -5.68865
  93 564.920 30.1055 21.1779
  94 564.920 30.1055 21.1779
  95 407.358 3.88974 16.6651
  96 407.358 3.88974 16.6651
  97 608.454 44.8735 -21.7887
  98 615.838 36.8931 -45.7899
  99 608.454 44.8735 -21.7887
  100 615.838 36.8931 -45.7899
  101 397.408 6.21868 -20.5445
  102 397.408 6.21868 -20.5445
  103 321.793 -62.4495 -146.822
  104 321.793 -62.4495 -146.822
  105 273.140 -71.9545 155.346
  106 273.140 -71.9545 155.346
  107 502.551 -38.5850 -56.5131
  108 502.551 -38.5850 -56.5131
  109 377.685 -46.8694 -85.4339
  110 377.685 -46.8694 -85.4339
  111 643.596 44.2576 33.3723
  112 643.596 44.2576 33.3723
  113 50.1767 -162.244 -58.2293
  114 50.1767 -162.244 -58.2293
  115 29.0678 -191.416 17.4727
  116 29.0678 -191.416 17.4727
  117 341.897 21.7883 -4.29425
  118 341.897 21.7883 -4.29425
  119 413.642 -16.2419 -33.0132
  120 413.642 -16.2419 -33.0132
  121 683.641 19.0710 -15.5663
  122 683.641 19.0710 -15.5663
  123 79.3726 -159.238 98.5161
  124 79.3726 -159.238 98.5161
  125 373.425 12.9082 19.0878
  126 373.425 12.9082 19.0878
  127 93.8517 -128.911 -109.066
  128 93.8517 -128.911 -109.066
  129 495.851 -33.2554 82.1174
  130 495.851 -33.2554 82.1174
  131 695.720 34.6725 -48.2773
  132 695.720 34.6725 -48.2773
  133 36.3648 -219.764 -16.5642
  134 36.3648 -219.764 -16.5642
  135 44.0448 -210.649 43.3088
  136 44.0448 -210.649 43.3088
  137 406.706 3.92621 -9.77686
  138 406.706 3.92621 -9.77686
  139 387.289 13.3434 -0.703569
  140 387.289 13.3434 -0.703569
  141 396.255 6.79616 -0.0907757
  142 396.255 6.79616 -0.0907757
  143 407.591 -8.25482 28.8413
  144 407.591 -8.25482 28.8413
  145 285.086 -7.44177 67.8108
  146 410.172 -38.0509 57.9374
  147 282.992 16.4243 1.61636
  148 285.086 -7.44177 67.8108
  149 410.172 -38.0509 57.9374
  150 282.992 16.4243 1.61636
  151 368.614 6.67871 -30.4284
  152 368.614 6.67871 -30.4284
  153 678.762 19.6402 12.0340
  154 678.762 19.6402 12.0340
  155 703.850 16.2927 29.8020
  156 705.269 35.5699 60.1361
  157 703.850 16.2927 29.8020
  158 705.269 35.5699 60.1361
  159 400.445 4.57726 3.23813
  160 400.445 4.57726 3.23813
  161 252.882 -10.4349 -57.8467
  162 252.882 -10.4349 -57.8467
  163 400.464 4.45722 -3.17926
  164 400.464 4.45722 -3.17926
  165 402.820 5.39754 8.88295
  166 402.820 5.39754 8.88295
  167 470.707 -3.78007 10.8030
  168 459.505 -16.7200 -2.08174
  169 470.707 -3.78007 10.8030
  170 459.505 -16.7200 -2.08174
  171 506.032 -12.0163 1.02335
  172 506.032 -12.0163 1.02335
  173 387.548 12.1216 10.2801
  174 387.548 12.1216 10.2801
  175 195.448 -20.6895 78.6781
  176 195.448 -20.6895 78.6781
  177 173.983 -8.90114 -49.6871
  178 173.983 -8.90114 -49.6871
  179 390.789 13.0598 -9.85132
  180 390.789 13.0598 -9.85132
</Section>

newXOutput 118

<Section columns = "stress_xx | stress_yy | stress_xy">
  1 404.700 2.80332 -1.60318
  2 404.356 2.17222 1.44100
  3 404.700 2.80332 -1.60318
  4 404.356 2.17222 1.44100
  5 591.965 22.5132 154.069
  6 584.207 18.5554 -143.753
  7 591.965 22.5132 154.069
  8 584.207 18.5554 -143.753
  9 408.718 0.764908 -5.16347
  10 425.502 0.0934244 -8.54219
  11 436.514 -5.01688 -11.3441
  12 459.119 -2.32831 5.93572
  13 459.561 14.1412 4.13523
  14 460.341 -2.28620 -7.73228
  15 440.927 -7.77892 11.3535
  16 420.170 1.88265 9.98289
  17 409.099 2.66694 4.57563
  18 402.242 4.62181 0.797493
  19 400.023 4.67338 -0.0612364
  20 402.053 4.26232 -0.724789
  21 408.718 0.764908 -5.16347
  22 425.502 0.0934244 -8.54219
  23 436.514 -5.01688 -11.3441
  24 459.119 -2.32831 5.93572
  25 459.561 14.1412 4.13523
  26 460.341 -2.28620 -7.73228
  27 440.927 -7.77892 11.3535
  28 420.170 1.88265 9.98289
  29 409.099 2.66694 4.57563
  30 402.242 4.62181 0.797493
  31 400.023 4.67338 -0.0612364
  32 402.053 4.26232 -0.724789
  33 867.332 7.42618 65.0108
  34 757.715 7.20052 42.0444
  35 728.942 14.3630 16.5973
  36 707.496 8.42873 -4.26384
  37 746.625 2.67598 -15.9997
  38 765.163 14.7677 -38.0443
  39 797.181 54.7989 -80.9575
  40 198.802 -109.862 -176.388
  41 40.5033 -215.177 -74.7003
  42 15.8829 -298.596 -24.2635
  43 10.5549 -317.543 -2.35844
  44 12.9439 -302.335 24.4201
  45 37.0741 -257.664 64.9847
  46 161.958 -111.166 173.343
  47 867.332 7.42618 65.0108
  48 757.715 7.20052 42.0444
  49 728.942 14.3630 16.5973
  50 707.496 8.42873 -4.26384
  51 746.625 2.67598 -15.9997
  52 765.163 14.7677 -38.0443
  53 797.181 54.7989 -80.9575
  54 198.802 -109.862 -176.388
  55 40.5033 -215.177 -74.7003
  56 15.8829 -298.596 -24.2635
  57 10.5549 -317.543 -2.35844
  58 12.9439 -302.335 24.4201
  59 37.0741 -257.664 64.9847
  60 161.958 -111.166 173.343
  61 375.435 15.9495 -6.82127
  62 375.435 15.9495 -6.82127
  63 348.355 5.13257 37.2824
  64 338.314 2.31994 -45.3701
  65 348.355 5.13257 37.2824
  66 338.314 2.31994 -45.3701
  67 195.801 4.43765 12.6215
  68 195.801 4.43765 12.6215
  69 313.324 -58.4544 124.692
  70 313.324 -58.4544 124.692
  71 191.602 -55.3914 -100.572
  72 469.672 -40.1254 -21.9899
  73 520.946 29.6025 -1.37371
  74 497.744 13.9643 -4.70361
  75 191.602 -55.3914 -100.572
  76 469.672 -40.1254 -21.9899
  77 520.946 29.6025 -1.37371
  78 497.744 13.9643 -4.70361
  79 461.581 -21.5623 10.4657
  80 461.581 -21.5623 10.4657
  81 592.585 43.8884 3.34882
  82 592.585 43.8884 3.34882
  83 102.528 -64.7747 -8.64923
  84 102.528 -64.7747 -8.64923
  85 132.391 -87.2714 87.4724
  86 132.391 -87.2714 87.4724
  87 497.646 -28.6413 16.7755
  88 497.646 -28.6413 16.7755
  89 397.246 8.83091 5.62265
  90 398.883 9.65994 -5.73244
  91 397.246 8.83091 5.62265
  92 398.883 9.65994 -5.73244
  93 569.488 30.3681 21.3888
  94 569.488 30.3681 21.3888
  95 410.701 3.92061 16.7979
  96 410.701 3.92061 16.7979
  97 613.359 45.2377 -21.9806
  98 620.780 37.2190 -46.2007
  99 613.359 45.2377 -21.9806
  100 620.780 37.2190 -46.2007
  101 400.676 6.26877 -20.7096
  102 400.676 6.26877 -20.7096
  103 324.395 -62.9243 -148.088
  104 324.395 -62.9243 -148.088
  105 275.355 -72.5065 156.691
  106 275.355 -72.5065 156.691
  107 506.608 -38.8826 -57.0248
  108 506.608 -38.8826 -57.0248
  109 380.775 -47.2585 -86.1536
  110 380.775 -47.2585 -86.1536
  111 648.752 44.6196 33.6563
  112 648.752 44.6196 33.6563
  113 50.5994 -163.583 -58.7565
  114 50.5994 -163.583 -58.7565
  115 29.3092 -193.015 17.6346
  116 29.3092 -193.015 17.6346
  117 344.738 21.9690 -4.32848
  118 344.738 21.9690 -4.32848
  119 417.030 -16.3772 -33.2889
  120 417.030 -16.3772 -33.2889
  121 689.067 19.2186 -15.6899
  122 689.067 19.2186 -15.6899
  123 80.0375 -160.523 99.4091
  124 80.0375 -160.523 99.4091
  125 376.510 13.0138 19.2412
  126 376.510 13.0138 19.2412
  127 94.6392 -129.943 -110.041
  128 94.6392 -129.943 -110.041
  129 499.853 -33.5074 82.8377
  130 499.853 -33.5074 82.8377
  131 701.241 34.9524 -48.6772
  132 701.241 34.9524 -48.6772
  133 36.6661 -221.612 -16.7148
  134 36.6661 -221.612 -16.7148
  135 44.4120 -212.402 43.7152
  136 44.4120 -212.402 43.7152
  137 410.044 3.95745 -9.85366
  138 410.044 3.95745 -9.85366
  139 390.484 13.4504 -0.709140
  140 390.484 13.4504 -0.709140
  141 399.516 6.84986 -0.0914678
  142 399.516 6.84986 -0.0914678
  143 410.934 -8.32391 29.0789
  144 410.934 -8.32391 29.0789
  145 287.464 -7.50006 68.3739
  146 413.523 -38.3664 58.4277
  147 285.366 16.5647 1.63088
  148 287.464 -7.50006 68.3739
  149 413.523 -38.3664 58.4277
  150 285.366 16.5647 1.63088
  151 371.660 6.73380 -30.6745
  152 371.660 6.73380 -30.6745
  153 684.157 19.7909 12.1325
  154 684.157 19.7909 12.1325
  155 709.427 16.4183 30.0398
  156 710.860 35.8813 60.6453
  157 709.427 16.4183 30.0398
  158 710.860 35.8813 60.6453
  159 403.736 4.61345 3.26272
  160 403.736 4.61345 3.26272
  161 255.002 -10.5173 -58.3288
  162 255.002 -10.5173 -58.3288
  163 403.755 4.49245 -3.20338
  164 403.755 4.49245 -3.20338
  165 406.129 5.44068 8.95168
  166 406.129 5.44068 8.95168
  167 474.557 -3.80767 10.8697
  168 463.253 -16.8596 -2.11334
  169 474.557 -3.80767 10.8697
  170 463.253 -16.8596 -2.11334
  171 510.144 -12.1033 0.991936
  172 510.144 -12.1033 0.991936
  173 390.744 12.2194 10.3608
  174 390.744 12.2194 10.3608
  175 197.092 -20.8500 79.3443
  176 197.092 -20.8500 79.3443
  177 175.458 -8.95949 -50.1073
  178 175.458 -8.95949 -50.1073
  179 394.009 13.1652 -9.92901
  180 394.009 13.1652 -9.92901
</Section>

newXOutput 119

<Section columns = "stress_xx | stress_yy | stress_xy">
  1 407.995 2.82526 -1.61517
  2 407.648 2.18915 1.45174
  3 407.995 2.82526 -1.61517
  4 407.648 2.18915 1.45174
  5 596.599 22.7776 155.366
  6 588.805 18.7883 -144.978
  7 596.599 22.7776 155.366
  8 588.805 18.7883 -144.978
  9 412.041 0.770463 -5.20294
  10 428.949 0.0942427 -8.60844
  11 440.050 -5.05893 -11.4385
  12 462.845 -2.34729 5.97190
  13 463.311 14.2592 4.16515
  14 464.077 -2.30404 -7.78026
  15 444.496 -7.84356 11.4486
  16 423.579 1.89742 10.0604
  17 412.425 2.68796 4.61010
  18 405.520 4.65785 0.803446
  19 403.285 4.70972 -0.0616837
  20 405.330 4.29552 -0.730204
  21 412.041 0.770463 -5.20294
  22 428.949 0.0942427 -8.60844
  23 440.050 -5.05893 -11.4385
  24 462.845 -2.34729 5.97190
  25 463.311 14.2592 4.16515
  26 464.077 -2.30404 -7.78026
  27 444.496 -7.84356 11.4486
  28 423.579 1.89742 10.0604
  29 412.425 2.68796 4.61010
  30 405.520 4.65785 0.803446
  31 403.285 4.70972 -0.0616837
  32 405.330 4.29552 -0.730204
  33 874.021 7.48836 65.5324
  34 763.612 7.24850 42.3774
  35 734.628 14.4730 16.7247
  36 713.030 8.48953 -4.29545
  37 752.421 2.69562 -16.1241
  38 771.114 14.8850 -38.3426
  39 803.387 55.2647 -81.6251
  40 200.390 -110.666 -177.912
  41 40.8371 -216.922 -75.3815
  42 16.0095 -301.116 -24.4923
  43 10.6333 -320.242 -2.37768
  44 13.0429 -304.884 24.6490
  45 37.3784 -259.779 65.5850
  46 163.256 -111.981 174.846
  47 874.021 7.48836 65.5324
  48 763.612 7.24850 42.3774
  49 734.628 14.4730 16.7247
  50 713.030 8.48953 -4.29545
  51 752.421 2.69562 -16.1241
  52 771.114 14.8850 -38.3426
  53 803.387 55.2647 -81.6251
  54 200.390 -110.666 -177.912
  55 40.8371 -216.922 -75.3815
  56 16.0095 -301.116 -24.4923
  57 10.6333 -320.242 -2.37768
  58 13.0429 -304.884 24.6490
  59 37.3784 -259.779 65.5850
  60 163.256 -111.981 174.846
  61 378.512 16.0784 -6.87533
  62 378.512 16.0784 -6.87533
  63 351.216 5.17596 37.5851
  64 341.095 2.34025 -45.7384
  65 351.216 5.17596 37.5851
  66 341.095 2.34025 -45.7384
  67 197.449 4.48637 12.7266
  68 197.449 4.48637 12.7266
  69 315.870 -58.9371 125.736
  70 315.870 -58.9371 125.736
  71 193.187 -55.8354 -101.429
  72 473.458 -40.4523 -22.1928
  73 525.157 29.8494 -1.40246
  74 501.773 14.0825 -4.72103
  75 193.187 -55.8354 -101.429
  76 473.458 -40.4523 -22.1928
  77 525.157 29.8494 -1.40246
  78 501.773 14.0825 -4.72103
  79 465.312 -21.7382 10.5683
  80 465.312 -21.7382 10.5683
  81 597.329 44.2407 3.38349
  82 597.329 44.2407 3.38349
  83 103.393 -65.2866 -8.72454
  84 103.393 -65.2866 -8.72454
  85 133.485 -87.9721 88.2327
  86 133.485 -87.9721 88.2327
  87 501.650 -28.8666 16.9489
  88 501.650 -28.8666 16.9489
  89 400.488 8.90069 5.66549
  90 402.137 9.73649 -5.77612
  91 400.488 8.90069 5.66549
  92 402.137 9.73649 -5.77612
  93 574.051 30.6309 21.6002
  94 574.051 30.6309 21.6002
  95 414.041 3.95154 16.9305
  96 414.041 3.95154 16.9305
  97 618.258 45.6015 -22.1725
  98 625.716 37.5451 -46.6119
  99 618.258 45.6015 -22.1725
  100 625.716 37.5451 -46.6119
  101 403.942 6.31889 -20.8744
  102 403.942 6.31889 -20.8744
  103 326.994 -63.3981 -149.354
  104 326.994 -63.3981 -149.354
  105 277.568 -73.0573 158.036
  106 277.568 -73.0573 158.036
  107 510.660 -39.1793 -57.5369
  108 510.660 -39.1793 -57.5369
  109 383.862 -47.6472 -86.8730
  110 383.862 -47.6472 -86.8730
  111 653.902 44.9814 33.9403
  112 653.902 44.9814 33.9403
  113 51.0218 -164.921 -59.2841
  114 51.0218 -164.921 -59.2841
  115 29.5504 -194.613 17.7967
  116 29.5504 -194.613 17.7967
  117 347.578 22.1496 -4.36266
  118 347.578 22.1496 -4.36266
  119 420.416 -16.5124 -33.5645
  120 420.416 -16.5124 -33.5645
  121 694.485 19.3661 -15.8134
  122 694.485 19.3661 -15.8134
  123 80.7018 -161.806 100.303
  124 80.7018 -161.806 100.303
  125 379.594 13.1194 19.3943
  126 379.594 13.1194 19.3943
  127 95.4260 -130.974 -111.017
  128 95.4260 -130.974 -111.017
  129 503.850 -33.7586 83.5583
  130 503.850 -33.7586 83.5583
  131 706.754 35.2322 -49.0767
  132 706.754 35.2322 -49.0767
  133 36.9671 -223.458 -16.8655
  134 36.9671 -223.458 -16.8655
  135 44.7789 -214.152 44.1221
  136 44.7789 -214.152 44.1221
  137 413.379 3.98876 -9.93031
  138 413.379 3.98876 -9.93031
  139 393.676 13.5574 -0.714699
  140 393.676 13.5574 -0.714699
  141 402.774 6.90355 -0.0921580
  142 402.774 6.90355 -0.0921580
  143 414.275 -8.39283 29.3162
  144 414.275 -8.39283 29.3162
  145 289.839 -7.55814 68.9367
  146 416.871 -38.6815 58.9177
  147 287.739 16.7051 1.64541
  148 289.839 -7.55814 68.9367
  149 416.871 -38.6815 58.9177
  150 287.739 16.7051 1.64541
  151 374.704 6.78893 -30.9202
  152 374.704 6.78893 -30.9202
  153 689.545 19.9415 12.2310
  154 689.545 19.9415 12.2310
  155 714.997 16.5438 30.2772
  156 716.442 36.1931 61.1542
  157 714.997 16.5438 30.2772
  158 716.442 36.1931 61.1542
  159 407.024 4.64967 3.28724
  160 407.024 4.64967 3.28724
  161 257.121 -10.5993 -58.8106
  162 257.121 -10.5993 -58.8106
  163 407.044 4.52772 -3.22743
  164 407.044 4.52772 -3.22743
  165 409.435 5.48385 9.02024
  166 409.435 5.48385 9.02024
  167 478.403 -3.83499 10.9358
  168 466.996 -16.9988 -2.14518
  169 478.403 -3.83499 10.9358
  170 466.996 -16.9988 -2.14518
  171 514.251 -12.1897 0.959749
  172 514.251 -12.1897 0.959749
  173 393.937 12.3171 10.4414
  174 393.937 12.3171 10.4414
  175 198.736 -21.0101 80.0103
  176 198.736 -21.0101 80.0103
  177 176.934 -9.01738 -50.5272
  178 176.934 -9.01738 -50.5272
  179 397.227 13.2706 -10.0066
  180 397.227 13.2706 -10.0066
</Section>

newXOutput 120

<Section columns = "stress_xx | stress_yy | stress_xy">
  1 411.287 2.84717 -1.62714
  2 410.938 2.20605 1.46246
  3 411.287 2.84717 -1.62714
  4 410.938 2.20605 1.46246
  5 601.227 23.0432 156.662
  6 593.396 19.0224 -146.202
  7 601.227 23.0432 156.662
  8 593.396 19.0224 -146.202
  9 415.362 0.776002 -5.24234
  10 432.394 0.0950614 -8.67458
  11 443.583 -5.10097 -11.5328
  12 466.568 -2.36625 6.00785
  13 467.057 14.3771 4.19499
  14 467.810 -2.32185 -7.82796
  15 448.061 -7.90818 11.5436
  16 426.985 1.91218 10.1377
  17 415.749 2.70896 4.64449
  18 408.795 4.69383 0.809385
  19 406.545 4.74601 -0.0621297
  20 408.604 4.32867 -0.735607
  21 415.362 0.776002 -5.24234
  22 432.394 0.0950614 -8.67458
  23 443.583 -5.10097 -11.5328
  24 466.568 -2.36625 6.00785
  25 467.057 14.3771 4.19499
  26 467.810 -2.32185 -7.82796
  27 448.061 -7.90818 11.5436
  28 426.985 1.91218 10.1377
  29 415.749 2.70896 4.64449
  30 408.795 4.69383 0.809385
  31 406.545 4.74601 -0.0621297
  32 408.604 4.32867 -0.735607
  33 880.699 7.55052 66.0534
  34 769.499 7.29629 42.7099
  35 740.305 14.5827 16.8520
  36 718.555 8.55017 -4.32697
  37 758.208 2.71520 -16.2483
  38 777.055 15.0023 -38.6405
  39 809.585 55.7304 -82.2922
  40 201.976 -111.468 -179.437
  41 41.1707 -218.665 -76.0634
  42 16.1360 -303.637 -24.7213
  43 10.7114 -322.941 -2.39691
  44 13.1418 -307.433 24.8783
  45 37.6824 -261.892 66.1860
  46 164.552 -112.793 176.349
  47 880.699 7.55052 66.0534
  48 769.499 7.29629 42.7099
  49 740.305 14.5827 16.8520
  50 718.555 8.55017 -4.32697
  51 758.208 2.71520 -16.2483
  52 777.055 15.0023 -38.6405
  53 809.585 55.7304 -82.2922
  54 201.976 -111.468 -179.437
  55 41.1707 -218.665 -76.0634
  56 16.1360 -303.637 -24.7213
  57 10.7114 -322.941 -2.39691
  58 13.1418 -307.433 24.8783
  59 37.6824 -261.892 66.1860
  60 164.552 -112.793 176.349
  61 381.588 16.2072 -6.92933
  62 381.588 16.2072 -6.92933
  63 354.075 5.21934 37.8876
  64 343.873 2.36058 -46.1063
  65 354.075 5.21934 37.8876
  66 343.873 2.36058 -46.1063
  67 199.095 4.53526 12.8316
  68 199.095 4.53526 12.8316
  69 318.413 -59.4195 126.781
  70 318.413 -59.4195 126.781
  71 194.772 -56.2789 -102.286
  72 477.241 -40.7790 -22.3959
  73 529.364 30.0962 -1.43147
  74 505.798 14.2006 -4.73811
  75 194.772 -56.2789 -102.286
  76 477.241 -40.7790 -22.3959
  77 529.364 30.0962 -1.43147
  78 505.798 14.2006 -4.73811
  79 469.040 -21.9140 10.6711
  80 469.040 -21.9140 10.6711
  81 602.067 44.5926 3.41824
  82 602.067 44.5926 3.41824
  83 104.257 -65.7978 -8.79987
  84 104.257 -65.7978 -8.79987
  85 134.579 -88.6721 88.9932
  86 134.579 -88.6721 88.9932
  87 505.650 -29.0917 17.1227
  88 505.650 -29.0917 17.1227
  89 403.727 8.97038 5.70825
  90 405.388 9.81294 -5.81972
  91 403.727 8.97038 5.70825
  92 405.388 9.81294 -5.81972
  93 578.609 30.8938 21.8121
  94 578.609 30.8938 21.8121
  95 417.378 3.98242 17.0629
  96 417.378 3.98242 17.0629
  97 623.153 45.9649 -22.3645
  98 630.646 37.8713 -47.0233
  99 623.153 45.9649 -22.3645
  100 630.646 37.8713 -47.0233
  101 407.205 6.36895 -21.0391
  102 407.205 6.36895 -21.0391
  103 329.591 -63.8709 -150.620
  104 329.591 -63.8709 -150.620
  105 279.778 -73.6071 159.381
  106 279.778 -73.6071 159.381
  107 514.709 -39.4754 -58.0494
  108 514.709 -39.4754 -58.0494
  109 386.947 -48.0357 -87.5920
  110 386.947 -48.0357 -87.5920
  111 659.045 45.3428 34.2242
  112 659.045 45.3428 34.2242
  113 51.4441 -166.257 -59.8121
  114 51.4441 -166.257 -59.8121
  115 29.7914 -196.209 17.9590
  116 29.7914 -196.209 17.9590
  117 350.416 22.3300 -4.39680
  118 350.416 22.3300 -4.39680
  119 423.798 -16.6474 -33.8398
  120 423.798 -16.6474 -33.8398
  121 699.896 19.5133 -15.9366
  122 699.896 19.5133 -15.9366
  123 81.3657 -163.088 101.197
  124 81.3657 -163.088 101.197
  125 382.675 13.2248 19.5473
  126 382.675 13.2248 19.5473
  127 96.2125 -132.003 -111.994
  128 96.2125 -132.003 -111.994
  129 507.843 -34.0092 84.2789
  130 507.843 -34.0092 84.2789
  131 712.259 35.5117 -49.4760
  132 712.259 35.5117 -49.4760
  133 37.2680 -225.303 -17.0163
  134 37.2680 -225.303 -17.0163
  135 45.1455 -215.902 44.5296
  136 45.1455 -215.902 44.5296
  137 416.711 4.02002 -10.0068
  138 416.711 4.02002 -10.0068
  139 396.865 13.6641 -0.720250
  140 396.865 13.6641 -0.720250
  141 406.030 6.95716 -0.0928467
  142 406.030 6.95716 -0.0928467
  143 417.612 -8.46171 29.5533
  144 417.612 -8.46171 29.5533
  145 292.214 -7.61613 69.4990
  146 420.215 -38.9963 59.4076
  147 290.111 16.8454 1.65995
  148 292.214 -7.61613 69.4990
  149 420.215 -38.9963 59.4076
  150 290.111 16.8454 1.65995
  151 377.745 6.84401 -31.1657
  152 377.745 6.84401 -31.1657
  153 694.926 20.0918 12.3293
  154 694.926 20.0918 12.3293
  155 720.559 16.6692 30.5144
  156 722.017 36.5049 61.6630
  157 720.559 16.6692 30.5144
  158 722.017 36.5049 61.6630
  159 410.310 4.68584 3.31170
  160 410.310 4.68584 3.31170
  161 259.240 -10.6813 -59.2922
  162 259.240 -10.6813 -59.2922
  163 410.330 4.56294 -3.25144
  164 410.330 4.56294 -3.25144
  165 412.738 5.52697 9.08868
  166 412.738 5.52697 9.08868
  167 482.247 -3.86223 11.0016
  168 470.736 -17.1380 -2.17722
  169 482.247 -3.86223 11.0016
  170 470.736 -17.1380 -2.17722
  171 518.355 -12.2759 0.926941
  172 518.355 -12.2759 0.926941
  173 397.127 12.4147 10.5219
  174 397.127 12.4147 10.5219
  175 200.380 -21.1699 80.6760
  176 200.380 -21.1699 80.6760
  177 178.408 -9.07499 -50.9470
  178 178.408 -9.07499 -50.9470
  179 400.443 13.3758 -10.0840
  180 400.443 13.3758 -10.0840
</Section>

newXOutput 121

<Section columns = "stress_xx | stress_yy | stress_xy">
  1 414.576 2.86904 -1.63907
  2 414.225 2.22293 1.47315
  3 414.576 2.86904 -1.63907
  4 414.225 2.22293 1.47315
  5 605.848 23.3098 157.958
  6 597.981 19.2577 -147.426
  7 605.848 23.3098 157.958
  8 597.981 19.2577 -147.426
  9 418.681 0.781527 -5.28167
  10 435.836 0.0958805 -8.74062
  11 447.113 -5.14299 -11.6271
  12 470.287 -2.38520 6.04358
  13 470.801 14.4949 4.22474
  14 471.540 -2.33964 -7.87537
  15 451.624 -7.97276 11.6386
  16 430.387 1.92692 10.2149
  17 419.070 2.72993 4.67882
  18 412.068 4.72976 0.815310
  19 409.802 4.78224 -0.0625746
  20 411.875 4.36178 -0.740999
  21 418.681 0.781527 -5.28167
  22 435.836 0.0958805 -8.74062
  23 447.113 -5.14299 -11.6271
  24 470.287 -2.38520 6.04358
  25 470.801 14.4949 4.22474
  26 471.540 -2.33964 -7.87537
  27 451.624 -7.97276 11.6386
  28 430.387 1.92692 10.2149
  29 419.070 2.72993 4.67882
  30 412.068 4.72976 0.815310
  31 409.802 4.78224 -0.0625746
  32 411.875 4.36178 -0.740999
  33 887.366 7.61266 66.5739
  34 775.377 7.34386 43.0420
  35 745.974 14.6923 16.9790
  36 724.072 8.61065 -4.35843
  37 763.986 2.73474 -16.3724
  38 782.987 15.1193 -38.9380
  39 815.772 56.1960 -82.9588
  40 203.561 -112.268 -180.961
  41 41.5040 -220.407 -76.7460
  42 16.2623 -306.156 -24.9508
  43 10.7894 -325.640 -2.41612
  44 13.2404 -309.981 25.1080
  45 37.9862 -264.003 66.7876
  46 165.847 -113.604 177.852
  47 887.366 7.61266 66.5739
  48 775.377 7.34386 43.0420
  49 745.974 14.6923 16.9790
  50 724.072 8.61065 -4.35843
  51 763.986 2.73474 -16.3724
  52 782.987 15.1193 -38.9380
  53 815.772 56.1960 -82.9588
  54 203.561 -112.268 -180.961
  55 41.5040 -220.407 -76.7460
  56 16.2623 -306.156 -24.9508
  57 10.7894 -325.640 -2.41612
  58 13.2404 -309.981 25.1080
  59 37.9862 -264.003 66.7876
  60 165.847 -113.604 177.852
  61 384.661 16.3358 -6.98325
  62 384.661 16.3358 -6.98325
  63 356.933 5.26272 38.1898
  64 346.650 2.38091 -46.4739
  65 356.933 5.26272 38.1898
  66 346.650 2.38091 -46.4739
  67 200.742 4.58430 12.9366
  68 200.742 4.58430 12.9366
  69 320.955 -59.9017 127.825
  70 320.955 -59.9017 127.825
  71 196.355 -56.7219 -103.142
  72 481.020 -41.1055 -22.5993
  73 533.567 30.3428 -1.46073
  74 509.820 14.3188 -4.75484
  75 196.355 -56.7219 -103.142
  76 481.020 -41.1055 -22.5993
  77 533.567 30.3428 -1.46073
  78 509.820 14.3188 -4.75484
  79 472.765 -22.0896 10.7740
  80 472.765 -22.0896 10.7740
  81 606.800 44.9442 3.45308
  82 606.800 44.9442 3.45308
  83 105.121 -66.3083 -8.87523
  84 105.121 -66.3083 -8.87523
  85 135.672 -89.3713 89.7538
  86 135.672 -89.3713 89.7538
  87 509.647 -29.3164 17.2970
  88 509.647 -29.3164 17.2970
  89 406.964 9.03998 5.75092
  90 408.636 9.88930 -5.86323
  91 406.964 9.03998 5.75092
  92 408.636 9.88930 -5.86323
  93 583.162 31.1567 22.0244
  94 583.162 31.1567 22.0244
  95 420.712 4.01327 17.1951
  96 420.712 4.01327 17.1951
  97 628.041 46.3280 -22.5565
  98 635.570 38.1977 -47.4349
  99 628.041 46.3280 -22.5565
  100 635.570 38.1977 -47.4349
  101 410.466 6.41896 -21.2035
  102 410.466 6.41896 -21.2035
  103 332.184 -64.3426 -151.885
  104 332.184 -64.3426 -151.885
  105 281.986 -74.1558 160.726
  106 281.986 -74.1558 160.726
  107 518.752 -39.7710 -58.5622
  108 518.752 -39.7710 -58.5622
  109 390.029 -48.4239 -88.3107
  110 390.029 -48.4239 -88.3107
  111 664.182 45.7040 34.5080
  112 664.182 45.7040 34.5080
  113 51.8662 -167.593 -60.3405
  114 51.8662 -167.593 -60.3405
  115 30.0323 -197.805 18.1215
  116 30.0323 -197.805 18.1215
  117 353.252 22.5103 -4.43089
  118 353.252 22.5103 -4.43089
  119 427.177 -16.7824 -34.1150
  120 427.177 -16.7824 -34.1150
  121 705.300 19.6602 -16.0597
  122 705.300 19.6602 -16.0597
  123 82.0293 -164.368 102.093
  124 82.0293 -164.368 102.093
  125 385.754 13.3302 19.7001
  126 385.754 13.3302 19.7001
  127 96.9986 -133.032 -112.971
  128 96.9986 -133.032 -112.971
  129 511.831 -34.2592 84.9998
  130 511.831 -34.2592 84.9998
  131 717.757 35.7909 -49.8750
  132 717.757 35.7909 -49.8750
  133 37.5686 -227.147 -17.1672
  134 37.5686 -227.147 -17.1672
  135 45.5120 -217.650 44.9377
  136 45.5120 -217.650 44.9377
  137 420.040 4.05124 -10.0832
  138 420.040 4.05124 -10.0832
  139 400.053 13.7708 -0.725794
  140 400.053 13.7708 -0.725794
  141 409.283 7.01070 -0.0935340
  142 409.283 7.01070 -0.0935340
  143 420.947 -8.53055 29.7902
  144 420.947 -8.53055 29.7902
  145 294.587 -7.67403 70.0610
  146 423.557 -39.3110 59.8973
  147 292.481 16.9857 1.67450
  148 294.587 -7.67403 70.0610
  149 423.557 -39.3110 59.8973
  150 292.481 16.9857 1.67450
  151 380.784 6.89906 -31.4110
  152 380.784 6.89906 -31.4110
  153 700.299 20.2418 12.4276
  154 700.299 20.2418 12.4276
  155 726.113 16.7943 30.7512
  156 727.584 36.8169 62.1715
  157 726.113 16.7943 30.7512
  158 727.584 36.8169 62.1715
  159 413.593 4.72195 3.33611
  160 413.593 4.72195 3.33611
  161 261.357 -10.7632 -59.7734
  162 261.357 -10.7632 -59.7734
  163 413.613 4.59811 -3.27539
  164 413.613 4.59811 -3.27539
  165 416.038 5.57004 9.15699
  166 416.038 5.57004 9.15699
  167 486.086 -3.88938 11.0669
  168 474.473 -17.2771 -2.20948
  169 486.086 -3.88938 11.0669
  170 474.473 -17.2771 -2.20948
  171 522.455 -12.3618 0.893513
  172 522.455 -12.3618 0.893513
  173 400.315 12.5122 10.6022
  174 400.315 12.5122 10.6022
  175 202.023 -21.3294 81.3415
  176 202.023 -21.3294 81.3415
  177 179.883 -9.13230 -51.3667
  178 179.883 -9.13230 -51.3667
  179 403.656 13.4809 -10.1613
  180 403.656 13.4809 -10.1613
</Section>

newXOutput 122

<Section columns = "stress_xx | stress_yy | stress_xy">
  1 417.863 2.89089 -1.65098
  2 417.509 2.23978 1.48382
  3 417.863 2.89089 -1.65098
  4 417.509 2.23978 1.48382
  5 610.462 23.5776 159.253
  6 602.559 19.4942 -148.650
  7 610.462 23.5776 159.253
  8 602.559 19.4942 -148.650
  9 421.996 0.787036 -5.32093
  10 439.275 0.0967000 -8.80654
  11 450.640 -5.18499 -11.7213
  12 474.003 -2.40413 6.07909
  13 474.542 14.6127 4.25441
  14 475.266 -2.35739 -7.92251
  15 455.183 -8.03731 11.7335
  16 433.787 1.94163 10.2920
  17 422.388 2.75087 4.71307
  18 415.338 4.76563 0.821222
  19 413.057 4.81841 -0.0630184
  20 415.143 4.39483 -0.746378
  21 421.996 0.787036 -5.32093
  22 439.275 0.0967000 -8.80654
  23 450.640 -5.18499 -11.7213
  24 474.003 -2.40413 6.07909
  25 474.542 14.6127 4.25441
  26 475.266 -2.35739 -7.92251
  27 455.183 -8.03731 11.7335
  28 433.787 1.94163 10.2920
  29 422.388 2.75087 4.71307
  30 415.338 4.76563 0.821222
  31 413.057 4.81841 -0.0630184
  32 415.143 4.39483 -0.746378
  33 894.021 7.67478 67.0937
  34 781.246 7.39123 43.3737
  35 751.634 14.8017 17.1057
  36 729.581 8.67095 -4.38980
  37 769.756 2.75424 -16.4962
  38 788.910 15.2363 -39.2350
  39 821.950 56.6616 -83.6250
  40 205.144 -113.066 -182.486
  41 41.8372 -222.147 -77.4293
  42 16.3885 -308.675 -25.1806
  43 10.8672 -328.338 -2.43531
  44 13.3389 -312.528 25.3380
  45 38.2897 -266.113 67.3901
  46 167.141 -114.412 179.355
  47 894.021 7.67478 67.0937
  48 781.246 7.39123 43.3737
  49 751.634 14.8017 17.1057
  50 729.581 8.67095 -4.38980
  51 769.756 2.75424 -16.4962
  52 788.910 15.2363 -39.2350
  53 821.950 56.6616 -83.6250
  54 205.144 -113.066 -182.486
  55 41.8372 -222.147 -77.4293
  56 16.3885 -308.675 -25.1806
  57 10.8672 -328.338 -2.43531
  58 13.3389 -312.528 25.3380
  59 38.2897 -266.113 67.3901
  60 167.141 -114.412 179.355
  61 387.732 16.4643 -7.03711
  62 387.732 16.4643 -7.03711
  63 359.788 5.30609 38.4917
  64 349.425 2.40124 -46.8411
  65 359.788 5.30609 38.4917
  66 349.425 2.40124 -46.8411
  67 202.388 4.63352 13.0416
  68 202.388 4.63352 13.0416
  69 323.495 -60.3836 128.869
  70 323.495 -60.3836 128.869
  71 197.937 -57.1645 -103.999
  72 484.795 -41.4316 -22.8029
  73 537.766 30.5894 -1.49024
  74 513.838 14.4369 -4.77123
  75 197.937 -57.1645 -103.999
  76 484.795 -41.4316 -22.8029
  77 537.766 30.5894 -1.49024
  78 513.838 14.4369 -4.77123
  79 476.486 -22.2652 10.8772
  80 476.486 -22.2652 10.8772
  81 611.527 45.2954 3.48800
  82 611.527 45.2954 3.48800
  83 105.985 -66.8182 -8.95060
  84 105.985 -66.8182 -8.95060
  85 136.764 -90.0698 90.5147
  86 136.764 -90.0698 90.5147
  87 513.639 -29.5408 17.4717
  88 513.639 -29.5408 17.4717
  89 410.198 9.10949 5.79351
  90 411.883 9.96556 -5.90666
  91 410.198 9.10949 5.79351
  92 411.883 9.96556 -5.90666
  93 587.711 31.4196 22.2371
  94 587.711 31.4196 22.2371
  95 424.044 4.04407 17.3272
  96 424.044 4.04407 17.3272
  97 632.925 46.6907 -22.7486
  98 640.488 38.5242 -47.8467
  99 632.925 46.6907 -22.7486
  100 640.488 38.5242 -47.8467
  101 413.724 6.46892 -21.3677
  102 413.724 6.46892 -21.3677
  103 334.775 -64.8133 -153.151
  104 334.775 -64.8133 -153.151
  105 284.192 -74.7034 162.071
  106 284.192 -74.7034 162.071
  107 522.791 -40.0660 -59.0754
  108 522.791 -40.0660 -59.0754
  109 393.108 -48.8118 -89.0291
  110 393.108 -48.8118 -89.0291
  111 669.312 46.0648 34.7917
  112 669.312 46.0648 34.7917
  113 52.2882 -168.927 -60.8693
  114 52.2882 -168.927 -60.8693
  115 30.2730 -199.400 18.2842
  116 30.2730 -199.400 18.2842
  117 356.086 22.6905 -4.46493
  118 356.086 22.6905 -4.46493
  119 430.553 -16.9172 -34.3901
  120 430.553 -16.9172 -34.3901
  121 710.696 19.8070 -16.1827
  122 710.696 19.8070 -16.1827
  123 82.6925 -165.647 102.989
  124 82.6925 -165.647 102.989
  125 388.831 13.4355 19.8527
  126 388.831 13.4355 19.8527
  127 97.7842 -134.059 -113.949
  128 97.7842 -134.059 -113.949
  129 515.815 -34.5087 85.7207
  130 515.815 -34.5087 85.7207
  131 723.247 36.0697 -50.2736
  132 723.247 36.0697 -50.2736
  133 37.8690 -228.991 -17.3183
  134 37.8690 -228.991 -17.3183
  135 45.8782 -219.398 45.3463
  136 45.8782 -219.398 45.3463
  137 423.367 4.08242 -10.1595
  138 423.367 4.08242 -10.1595
  139 403.238 13.8773 -0.731329
  140 403.238 13.8773 -0.731329
  141 412.534 7.06416 -0.0942199
  142 412.534 7.06416 -0.0942199
  143 424.279 -8.59936 30.0269
  144 424.279 -8.59936 30.0269
  145 296.959 -7.73184 70.6226
  146 426.896 -39.6255 60.3869
  147 294.851 17.1260 1.68906
  148 296.959 -7.73184 70.6226
  149 426.896 -39.6255 60.3869
  150 294.851 17.1260 1.68906
  151 383.821 6.95406 -31.6559
  152 383.821 6.95406 -31.6559
  153 705.666 20.3915 12.5257
  154 705.666 20.3915 12.5257
  155 731.659 16.9192 30.9877
  156 733.144 37.1288 62.6799
  157 731.659 16.9192 30.9877
  158 733.144 37.1288 62.6799
  159 416.873 4.75802 3.36047
  160 416.873 4.75802 3.36047
  161 263.473 -10.8449 -60.2544
  162 263.473 -10.8449 -60.2544
  163 416.893 4.63322 -3.29929
  164 416.893 4.63322 -3.29929
  165 419.336 5.61305 9.22518
  166 419.336 5.61305 9.22518
  167 489.923 -3.91645 11.1318
  168 478.206 -17.4161 -2.24194
  169 489.923 -3.91645 11.1318
  170 478.206 -17.4161 -2.24194
  171 526.550 -12.4474 0.859466
  172 526.550 -12.4474 0.859466
  173 403.501 12.6096 10.6824
  174 403.501 12.6096 10.6824
  175 203.665 -21.4886 82.0068
  176 203.665 -21.4886 82.0068
  177 181.357 -9.18933 -51.7862
  178 181.357 -9.18933 -51.7862
  179 406.866 13.5859 -10.2385
  180 406.866 13.5859 -10.2385
</Section>

newXOutput 123

<Section columns = "stress_xx | stress_yy | stress_xy">
  1 421.147 2.91270 -1.66286
  2 420.791 2.25661 1.49447
  3 421.147 2.91270 -1.66286
  4 420.791 2.25661 1.49447
  5 615.069 23.8465 160.548
  6 607.132 19.7318 -149.874
  7 615.069 23.8465 160.548
  8 607.132 19.7318 -149.874
  9 425.309 0.792529 -5.36011
  10 442.710 0.0975200 -8.87237
  11 454.164 -5.22699 -11.8155
  12 477.716 -2.42304 6.11437
  13 478.280 14.7305 4.28399
  14 478.990 -2.37512 -7.96937
  15 458.739 -8.10184 11.8284
  16 437.184 1.95633 10.3689
  17 425.704 2.77178 4.74725
  18 418.605 4.80144 0.827121
  19 416.309 4.85452 -0.0634609
  20 418.409 4.42783 -0.751745
  21 425.309 0.792529 -5.36011
  22 442.710 0.0975200 -8.87237
  23 454.164 -5.22699 -11.8155
  24 477.716 -2.42304 6.11437
  25 478.280 14.7305 4.28399
  26 478.990 -2.37512 -7.96937
  27 458.739 -8.10184 11.8284
  28 437.184 1.95633 10.3689
  29 425.704 2.77178 4.74725
  30 418.605 4.80144 0.827121
  31 416.309 4.85452 -0.0634609
  32 418.409 4.42783 -0.751745
  33 900.666 7.73687 67.6130
  34 787.106 7.43839 43.7050
  35 757.286 14.9109 17.2323
  36 735.083 8.73109 -4.42110
  37 775.516 2.77368 -16.6198
  38 794.824 15.3531 -39.5316
  39 828.119 57.1271 -84.2907
  40 206.725 -113.862 -184.011
  41 42.1701 -223.885 -78.1132
  42 16.5145 -311.193 -25.4107
  43 10.9447 -331.036 -2.45449
  44 13.4372 -315.075 25.5683
  45 38.5931 -268.221 67.9932
  46 168.433 -115.218 180.859
  47 900.666 7.73687 67.6130
  48 787.106 7.43839 43.7050
  49 757.286 14.9109 17.2323
  50 735.083 8.73109 -4.42110
  51 775.516 2.77368 -16.6198
  52 794.824 15.3531 -39.5316
  53 828.119 57.1271 -84.2907
  54 206.725 -113.862 -184.011
  55 42.1701 -223.885 -78.1132
  56 16.5145 -311.193 -25.4107
  57 10.9447 -331.036 -2.45449
  58 13.4372 -315.075 25.5683
  59 38.5931 -268.221 67.9932
  60 168.433 -115.218 180.859
  61 390.801 16.5927 -7.09090
  62 390.801 16.5927 -7.09090
  63 362.642 5.34944 38.7933
  64 352.199 2.42158 -47.2081
  65 362.642 5.34944 38.7933
  66 352.199 2.42158 -47.2081
  67 204.034 4.68289 13.1465
  68 204.034 4.68289 13.1465
  69 326.032 -60.8652 129.913
  70 326.032 -60.8652 129.913
  71 199.519 -57.6066 -104.856
  72 488.567 -41.7575 -23.0067
  73 541.961 30.8359 -1.52001
  74 517.853 14.5550 -4.78727
  75 199.519 -57.6066 -104.856
  76 488.567 -41.7575 -23.0067
  77 541.961 30.8359 -1.52001
  78 517.853 14.5550 -4.78727
  79 480.203 -22.4405 10.9805
  80 480.203 -22.4405 10.9805
  81 616.250 45.6462 3.52301
  82 616.250 45.6462 3.52301
  83 106.848 -67.3274 -9.02600
  84 106.848 -67.3274 -9.02600
  85 137.856 -90.7676 91.2757
  86 137.856 -90.7676 91.2757
  87 517.627 -29.7649 17.6468
  88 517.627 -29.7649 17.6468
  89 413.430 9.17891 5.83602
  90 415.126 10.0417 -5.95001
  91 413.430 9.17891 5.83602
  92 415.126 10.0417 -5.95001
  93 592.254 31.6826 22.4502
  94 592.254 31.6826 22.4502
  95 427.373 4.07483 17.4590
  96 427.373 4.07483 17.4590
  97 637.802 47.0531 -22.9407
  98 645.400 38.8508 -48.2586
  99 637.802 47.0531 -22.9407
  100 645.400 38.8508 -48.2586
  101 416.980 6.51881 -21.5317
  102 416.980 6.51881 -21.5317
  103 337.363 -65.2830 -154.416
  104 337.363 -65.2830 -154.416
  105 286.395 -75.2498 163.416
  106 286.395 -75.2498 163.416
  107 526.826 -40.3604 -59.5890
  108 526.826 -40.3604 -59.5890
  109 396.185 -49.1996 -89.7473
  110 396.185 -49.1996 -89.7473
  111 674.437 46.4253 35.0754
  112 674.437 46.4253 35.0754
  113 52.7099 -170.260 -61.3986
  114 52.7099 -170.260 -61.3986
  115 30.5136 -200.994 18.4471
  116 30.5136 -200.994 18.4471
  117 358.919 22.8706 -4.49893
  118 358.919 22.8706 -4.49893
  119 433.927 -17.0520 -34.6650
  120 433.927 -17.0520 -34.6650
  121 716.084 19.9534 -16.3054
  122 716.084 19.9534 -16.3054
  123 83.3554 -166.924 103.885
  124 83.3554 -166.924 103.885
  125 391.905 13.5407 20.0051
  126 391.905 13.5407 20.0051
  127 98.5695 -135.084 -114.927
  128 98.5695 -135.084 -114.927
  129 519.795 -34.7576 86.4419
  130 519.795 -34.7576 86.4419
  131 728.730 36.3483 -50.6720
  132 728.730 36.3483 -50.6720
  133 38.1693 -230.833 -17.4695
  134 38.1693 -230.833 -17.4695
  135 46.2442 -221.144 45.7555
  136 46.2442 -221.144 45.7555
  137 426.691 4.11356 -10.2357
  138 426.691 4.11356 -10.2357
  139 406.420 13.9837 -0.736856
  140 406.420 13.9837 -0.736856
  141 415.782 7.11754 -0.0949044
  142 415.782 7.11754 -0.0949044
  143 427.608 -8.66813 30.2635
  144 427.608 -8.66813 30.2635
  145 299.330 -7.78956 71.1839
  146 430.231 -39.9397 60.8763
  147 297.220 17.2663 1.70363
  148 299.330 -7.78956 71.1839
  149 430.231 -39.9397 60.8763
  150 297.220 17.2663 1.70363
  151 386.856 7.00903 -31.9006
  152 386.856 7.00903 -31.9006
  153 711.025 20.5409 12.6238
  154 711.025 20.5409 12.6238
  155 737.197 17.0438 31.2238
  156 738.695 37.4409 63.1880
  157 737.197 17.0438 31.2238
  158 738.695 37.4409 63.1880
  159 420.151 4.79404 3.38478
  160 420.151 4.79404 3.38478
  161 265.589 -10.9265 -60.7351
  162 265.589 -10.9265 -60.7351
  163 420.171 4.66829 -3.32314
  164 420.171 4.66829 -3.32314
  165 422.631 5.65601 9.29325
  166 422.631 5.65601 9.29325
  167 493.756 -3.94342 11.1963
  168 481.936 -17.5551 -2.27460
  169 493.756 -3.94342 11.1963
  170 481.936 -17.5551 -2.27460
  171 530.642 -12.5328 0.824802
  172 530.642 -12.5328 0.824802
  173 406.685 12.7068 10.7625
  174 406.685 12.7068 10.7625
  175 205.306 -21.6476 82.6719
  176 205.306 -21.6476 82.6719
  177 182.831 -9.24607 -52.2055
  178 182.831 -9.24607 -52.2055
  179 410.074 13.6908 -10.3155
  180 410.074 13.6908 -10.3155
</Section>

newXOutput 124

<Section columns = "stress_xx | stress_yy | stress_xy">
  1 424.429 2.93448 -1.67472
  2 424.070 2.27341 1.50509
  3 424.429 2.93448 -1.67472
  4 424.070 2.27341 1.50509
  5 619.670 24.1166 161.843
  6 611.698 19.9706 -151.097
  7 619.670 24.1166 161.843
  8 611.698 19.9706 -151.097
  9 428.619 0.798008 -5.39922
  10 446.143 0.0983403 -8.93808
  11 457.685 -5.26897 -11.9096
  12 481.426 -2.44194 6.14944
  13 482.015 14.8482 4.31349
  14 482.710 -2.39282 -8.01596
  15 462.292 -8.16633 11.9233
  16 440.579 1.97100 10.4458
  17 429.017 2.79267 4.78135
  18 421.870 4.83721 0.833006
  19 419.558 4.89058 -0.0639023
  20 421.673 4.46078 -0.757100
  21 428.619 0.798008 -5.39922
  22 446.143 0.0983403 -8.93808
  23 457.685 -5.26897 -11.9096
  24 481.426 -2.44194 6.14944
  25 482.015 14.8482 4.31349
  26 482.710 -2.39282 -8.01596
  27 462.292 -8.16633 11.9233
  28 440.579 1.97100 10.4458
  29 429.017 2.79267 4.78135
  30 421.870 4.83721 0.833006
  31 419.558 4.89058 -0.0639023
  32 421.673 4.46078 -0.757100
  33 907.299 7.79894 68.1317
  34 792.958 7.48535 44.0358
  35 762.929 15.0200 17.3586
  36 740.576 8.79106 -4.45233
  37 781.267 2.79308 -16.7432
  38 800.729 15.4697 -39.8277
  39 834.278 57.5925 -84.9560
  40 208.304 -114.655 -185.536
  41 42.5028 -225.622 -78.7979
  42 16.6404 -313.711 -25.6412
  43 11.0221 -333.734 -2.47365
  44 13.5353 -317.621 25.7990
  45 38.8962 -270.328 68.5971
  46 169.723 -116.022 182.363
  47 907.299 7.79894 68.1317
  48 792.958 7.48535 44.0358
  49 762.929 15.0200 17.3586
  50 740.576 8.79106 -4.45233
  51 781.267 2.79308 -16.7432
  52 800.729 15.4697 -39.8277
  53 834.278 57.5925 -84.9560
  54 208.304 -114.655 -185.536
  55 42.5028 -225.622 -78.7979
  56 16.6404 -313.711 -25.6412
  57 11.0221 -333.734 -2.47365
  58 13.5353 -317.621 25.7990
  59 38.8962 -270.328 68.5971
  60 169.723 -116.022 182.363
  61 393.867 16.7210 -7.14463
  62 393.867 16.7210 -7.14463
  63 365.494 5.39279 39.0947
  64 354.970 2.44193 -47.5747
  65 365.494 5.39279 39.0947
  66 354.970 2.44193 -47.5747
  67 205.679 4.73242 13.2514
  68 205.679 4.73242 13.2514
  69 328.567 -61.3465 130.956
  70 328.567 -61.3465 130.956
  71 201.100 -58.0482 -105.713
  72 492.335 -42.0832 -23.2107
  73 546.152 31.0823 -1.55003
  74 521.864 14.6730 -4.80296
  75 201.100 -58.0482 -105.713
  76 492.335 -42.0832 -23.2107
  77 546.152 31.0823 -1.55003
  78 521.864 14.6730 -4.80296
  79 483.917 -22.6158 11.0840
  80 483.917 -22.6158 11.0840
  81 620.968 45.9967 3.55810
  82 620.968 45.9967 3.55810
  83 107.712 -67.8359 -9.10141
  84 107.712 -67.8359 -9.10141
  85 138.948 -91.4646 92.0369
  86 138.948 -91.4646 92.0369
  87 521.611 -29.9887 17.8224
  88 521.611 -29.9887 17.8224
  89 416.659 9.24824 5.87845
  90 418.367 10.1178 -5.99328
  91 416.659 9.24824 5.87845
  92 418.367 10.1178 -5.99328
  93 596.793 31.9456 22.6637
  94 596.793 31.9456 22.6637
  95 430.699 4.10555 17.5907
  96 430.699 4.10555 17.5907
  97 642.675 47.4151 -23.1328
  98 650.307 39.1775 -48.6708
  99 642.675 47.4151 -23.1328
  100 650.307 39.1775 -48.6708
  101 420.233 6.56866 -21.6956
  102 420.233 6.56866 -21.6956
  103 339.948 -65.7517 -155.682
  104 339.948 -65.7517 -155.682
  105 288.596 -75.7952 164.760
  106 288.596 -75.7952 164.760
  107 530.857 -40.6542 -60.1028
  108 530.857 -40.6542 -60.1028
  109 399.258 -49.5870 -90.4651
  110 399.258 -49.5870 -90.4651
  111 679.555 46.7855 35.3589
  112 679.555 46.7855 35.3589
  113 53.1315 -171.593 -61.9282
  114 53.1315 -171.593 -61.9282
  115 30.7541 -202.587 18.6102
  116 30.7541 -202.587 18.6102
  117 361.749 23.0506 -4.53288
  118 361.749 23.0506 -4.53288
  119 437.297 -17.1868 -34.9398
  120 437.297 -17.1868 -34.9398
  121 721.466 20.0996 -16.4280
  122 721.466 20.0996 -16.4280
  123 84.0180 -168.200 104.782
  124 84.0180 -168.200 104.782
  125 394.978 13.6458 20.1574
  126 394.978 13.6458 20.1574
  127 99.3544 -136.109 -115.906
  128 99.3544 -136.109 -115.906
  129 523.770 -35.0059 87.1631
  130 523.770 -35.0059 87.1631
  131 734.205 36.6266 -51.0701
  132 734.205 36.6266 -51.0701
  133 38.4693 -232.675 -17.6208
  134 38.4693 -232.675 -17.6208
  135 46.6100 -222.889 46.1652
  136 46.6100 -222.889 46.1652
  137 430.012 4.14467 -10.3118
  138 430.012 4.14467 -10.3118
  139 409.601 14.0900 -0.742376
  140 409.601 14.0900 -0.742376
  141 419.028 7.17085 -0.0955874
  142 419.028 7.17085 -0.0955874
  143 430.934 -8.73687 30.4998
  144 430.934 -8.73687 30.4998
  145 301.699 -7.84718 71.7448
  146 433.564 -40.2538 61.3655
  147 299.587 17.4066 1.71821
  148 301.699 -7.84718 71.7448
  149 433.564 -40.2538 61.3655
  150 299.587 17.4066 1.71821
  151 389.889 7.06396 -32.1451
  152 389.889 7.06396 -32.1451
  153 716.376 20.6901 12.7217
  154 716.376 20.6901 12.7217
  155 742.728 17.1682 31.4597
  156 744.239 37.7530 63.6960
  157 742.728 17.1682 31.4597
  158 744.239 37.7530 63.6960
  159 423.426 4.83000 3.40903
  160 423.426 4.83000 3.40903
  161 267.703 -11.0080 -61.2155
  162 267.703 -11.0080 -61.2155
  163 423.446 4.70331 -3.34694
  164 423.446 4.70331 -3.34694
  165 425.924 5.69891 9.36119
  166 425.924 5.69891 9.36119
  167 497.585 -3.97032 11.2604
  168 485.662 -17.6940 -2.30748
  169 497.585 -3.97032 11.2604
  170 485.662 -17.6940 -2.30748
  171 534.730 -12.6178 0.789523
  172 534.730 -12.6178 0.789523
  173 409.866 12.8040 10.8425
  174 409.866 12.8040 10.8425
  175 206.947 -21.8062 83.3368
  176 206.947 -21.8062 83.3368
  177 184.304 -9.30252 -52.6247
  178 184.304 -9.30252 -52.6247
  179 413.280 13.7955 -10.3925
  180 413.280 13.7955 -10.3925
</Section>

newXOutput 125

<Section columns = "stress_xx | stress_yy | stress_xy">
  1 427.708 2.95623 -1.68655
  2 427.346 2.29018 1.51569
  3 427.708 2.95623 -1.68655
  4 427.346 2.29018 1.51569
  5 624.263 24.3877 163.137
  6 616.257 20.2106 -152.320
  7 624.263 24.3877 163.137
  8 616.257 20.2106 -152.320
  9 431.926 0.803471 -5.43826
  10 449.572 0.0991612 -9.00369
  11 461.202 -5.31093 -12.0037
  12 485.133 -2.46083 6.18428
  13 485.748 14.9659 4.34290
  14 486.427 -2.41049 -8.06226
  15 465.842 -8.23080 12.0181
  16 443.970 1.98566 10.5225
  17 432.327 2.81352 4.81539
  18 425.133 4.87292 0.838878
  19 422.805 4.92659 -0.0643426
  20 424.934 4.49368 -0.762443
  21 431.926 0.803471 -5.43826
  22 449.572 0.0991612 -9.00369
  23 461.202 -5.31093 -12.0037
  24 485.133 -2.46083 6.18428
  25 485.748 14.9659 4.34290
  26 486.427 -2.41049 -8.06226
  27 465.842 -8.23080 12.0181
  28 443.970 1.98566 10.5225
  29 432.327 2.81352 4.81539
  30 425.133 4.87292 0.838878
  31 422.805 4.92659 -0.0643426
  32 424.934 4.49368 -0.762443
  33 913.920 7.86099 68.6498
  34 798.800 7.53211 44.3662
  35 768.564 15.1288 17.4847
  36 746.061 8.85086 -4.48349
  37 787.009 2.81243 -16.8664
  38 806.625 15.5862 -40.1234
  39 840.427 58.0579 -85.6207
  40 209.881 -115.447 -187.061
  41 42.8352 -227.358 -79.4832
  42 16.7661 -316.229 -25.8721
  43 11.0993 -336.431 -2.49280
  44 13.6332 -320.167 26.0300
  45 39.1991 -272.434 69.2017
  46 171.013 -116.824 183.867
  47 913.920 7.86099 68.6498
  48 798.800 7.53211 44.3662
  49 768.564 15.1288 17.4847
  50 746.061 8.85086 -4.48349
  51 787.009 2.81243 -16.8664
  52 806.625 15.5862 -40.1234
  53 840.427 58.0579 -85.6207
  54 209.881 -115.447 -187.061
  55 42.8352 -227.358 -79.4832
  56 16.7661 -316.229 -25.8721
  57 11.0993 -336.431 -2.49280
  58 13.6332 -320.167 26.0300
  59 39.1991 -272.434 69.2017
  60 171.013 -116.824 183.867
  61 396.932 16.8492 -7.19828
  62 396.932 16.8492 -7.19828
  63 368.344 5.43612 39.3959
  64 357.740 2.46228 -47.9410
  65 368.344 5.43612 39.3959
  66 357.740 2.46228 -47.9410
  67 207.323 4.78212 13.3562
  68 207.323 4.78212 13.3562
  69 331.100 -61.8276 131.998
  70 331.100 -61.8276 131.998
  71 202.680 -58.4894 -106.569
  72 496.099 -42.4086 -23.4149
  73 550.339 31.3285 -1.58031
  74 525.871 14.7911 -4.81831
  75 202.680 -58.4894 -106.569
  76 496.099 -42.4086 -23.4149
  77 550.339 31.3285 -1.58031
  78 525.871 14.7911 -4.81831
  79 487.628 -22.7909 11.1878
  80 487.628 -22.7909 11.1878
  81 625.680 46.3468 3.59326
  82 625.680 46.3468 3.59326
  83 108.575 -68.3437 -9.17685
  84 108.575 -68.3437 -9.17685
  85 140.038 -92.1609 92.7983
  86 140.038 -92.1609 92.7983
  87 525.591 -30.2122 17.9985
  88 525.591 -30.2122 17.9985
  89 419.885 9.31749 5.92080
  90 421.606 10.1938 -6.03646
  91 419.885 9.31749 5.92080
  92 421.606 10.1938 -6.03646
  93 601.327 32.2087 22.8776
  94 601.327 32.2087 22.8776
  95 434.022 4.13623 17.7222
  96 434.022 4.13623 17.7222
  97 647.541 47.7768 -23.3249
  98 655.207 39.5043 -49.0831
  99 647.541 47.7768 -23.3249
  100 655.207 39.5043 -49.0831
  101 423.483 6.61845 -21.8592
  102 423.483 6.61845 -21.8592
  103 342.530 -66.2193 -156.947
  104 342.530 -66.2193 -156.947
  105 290.795 -76.3394 166.105
  106 290.795 -76.3394 166.105
  107 534.883 -40.9474 -60.6171
  108 534.883 -40.9474 -60.6171
  109 402.330 -49.9742 -91.1827
  110 402.330 -49.9742 -91.1827
  111 684.667 47.1454 35.6423
  112 684.667 47.1454 35.6423
  113 53.5530 -172.924 -62.4583
  114 53.5530 -172.924 -62.4583
  115 30.9944 -204.179 18.7734
  116 30.9944 -204.179 18.7734
  117 364.578 23.2305 -4.56679
  118 364.578 23.2305 -4.56679
  119 440.665 -17.3214 -35.2144
  120 440.665 -17.3214 -35.2144
  121 726.839 20.2455 -16.5504
  122 726.839 20.2455 -16.5504
  123 84.6801 -169.474 105.680
  124 84.6801 -169.474 105.680
  125 398.048 13.7508 20.3094
  126 398.048 13.7508 20.3094
  127 100.139 -137.132 -116.885
  128 100.139 -137.132 -116.885
  129 527.741 -35.2537 87.8845
  130 527.741 -35.2537 87.8845
  131 739.672 36.9045 -51.4679
  132 739.672 36.9045 -51.4679
  133 38.7691 -234.516 -17.7723
  134 38.7691 -234.516 -17.7723
  135 46.9756 -224.633 46.5754
  136 46.9756 -224.633 46.5754
  137 433.330 4.17573 -10.3877
  138 433.330 4.17573 -10.3877
  139 412.779 14.1961 -0.747887
  140 412.779 14.1961 -0.747887
  141 422.271 7.22408 -0.0962690
  142 422.271 7.22408 -0.0962690
  143 434.258 -8.80557 30.7360
  144 434.258 -8.80557 30.7360
  145 304.067 -7.90472 72.3054
  146 436.893 -40.5676 61.8545
  147 301.953 17.5468 1.73279
  148 304.067 -7.90472 72.3054
  149 436.893 -40.5676 61.8545
  150 301.953 17.5468 1.73279
  151 392.920 7.11884 -32.3892
  152 392.920 7.11884 -32.3892
  153 721.721 20.8389 12.8196
  154 721.721 20.8389 12.8196
  155 748.251 17.2924 31.6953
  156 749.775 38.0652 64.2037
  157 748.251 17.2924 31.6953
  158 749.775 38.0652 64.2037
  159 426.699 4.86592 3.43323
  160 426.699 4.86592 3.43323
  161 269.816 -11.0894 -61.6956
  162 269.816 -11.0894 -61.6956
  163 426.719 4.73828 -3.37068
  164 426.719 4.73828 -3.37068
  165 429.213 5.74177 9.42900
  166 429.213 5.74177 9.42900
  167 501.412 -3.99712 11.3241
  168 489.385 -17.8328 -2.34055
  169 501.412 -3.99712 11.3241
  170 489.385 -17.8328 -2.34055
  171 538.813 -12.7026 0.753630
  172 538.813 -12.7026 0.753630
  173 413.044 12.9011 10.9223
  174 413.044 12.9011 10.9223
  175 208.587 -21.9646 84.0015
  176 208.587 -21.9646 84.0015
  177 185.777 -9.35869 -53.0438
  178 185.777 -9.35869 -53.0438
  179 416.483 13.9002 -10.4693
  180 416.483 13.9002 -10.4693
</Section>

newXOutput 126

<Section columns = "stress_xx | stress_yy | stress_xy">
  1 430.984 2.97795 -1.69836
  2 430.620 2.30693 1.52626
  3 430.984 2.97795 -1.69836
  4 430.620 2.30693 1.52626
  5 628.851 24.6600 164.431
  6 620.811 20.4517 -153.544
  7 628.851 24.6600 164.431
  8 620.811 20.4517 -153.544
  9 435.231 0.808919 -5.47723
  10 452.999 0.0999824 -9.06920
  11 464.717 -5.35289 -12.0977
  12 488.836 -2.47969 6.21891
  13 489.477 15.0835 4.37223
  14 490.141 -2.42813 -8.10829
  15 469.388 -8.29523 12.1129
  16 447.358 2.00029 10.5991
  17 435.634 2.83435 4.84935
  18 428.392 4.90857 0.844737
  19 426.049 4.96253 -0.0647817
  20 428.192 4.52652 -0.767774
  21 435.231 0.808919 -5.47723
  22 452.999 0.0999824 -9.06920
  23 464.717 -5.35289 -12.0977
  24 488.836 -2.47969 6.21891
  25 489.477 15.0835 4.37223
  26 490.141 -2.42813 -8.10829
  27 469.388 -8.29523 12.1129
  28 447.358 2.00029 10.5991
  29 435.634 2.83435 4.84935
  30 428.392 4.90857 0.844737
  31 426.049 4.96253 -0.0647817
  32 428.192 4.52652 -0.767774
  33 920.531 7.92301 69.1673
  34 804.633 7.57866 44.6962
  35 774.190 15.2374 17.6106
  36 751.538 8.91051 -4.51456
  37 792.742 2.83174 -16.9894
  38 812.511 15.7026 -40.4187
  39 846.567 58.5232 -86.2850
  40 211.456 -116.236 -188.587
  41 43.1675 -229.091 -80.1692
  42 16.8917 -318.745 -26.1033
  43 11.1764 -339.128 -2.51193
  44 13.7309 -322.712 26.2614
  45 39.5018 -274.538 69.8070
  46 172.300 -117.624 185.372
  47 920.531 7.92301 69.1673
  48 804.633 7.57866 44.6962
  49 774.190 15.2374 17.6106
  50 751.538 8.91051 -4.51456
  51 792.742 2.83174 -16.9894
  52 812.511 15.7026 -40.4187
  53 846.567 58.5232 -86.2850
  54 211.456 -116.236 -188.587
  55 43.1675 -229.091 -80.1692
  56 16.8917 -318.745 -26.1033
  57 11.1764 -339.128 -2.51193
  58 13.7309 -322.712 26.2614
  59 39.5018 -274.538 69.8070
  60 172.300 -117.624 185.372
  61 399.995 16.9772 -7.25187
  62 399.995 16.9772 -7.25187
  63 371.192 5.47945 39.6967
  64 360.508 2.48264 -48.3070
  65 371.192 5.47945 39.6967
  66 360.508 2.48264 -48.3070
  67 208.968 4.83198 13.4610
  68 208.968 4.83198 13.4610
  69 333.631 -62.3084 133.041
  70 333.631 -62.3084 133.041
  71 204.259 -58.9301 -107.426
  72 499.860 -42.7337 -23.6193
  73 554.522 31.5747 -1.61083
  74 529.875 14.9091 -4.83332
  75 204.259 -58.9301 -107.426
  76 499.860 -42.7337 -23.6193
  77 554.522 31.5747 -1.61083
  78 529.875 14.9091 -4.83332
  79 491.335 -22.9659 11.2917
  80 491.335 -22.9659 11.2917
  81 630.387 46.6966 3.62852
  82 630.387 46.6966 3.62852
  83 109.438 -68.8509 -9.25231
  84 109.438 -68.8509 -9.25231
  85 141.128 -92.8565 93.5599
  86 141.128 -92.8565 93.5599
  87 529.567 -30.4353 18.1750
  88 529.567 -30.4353 18.1750
  89 423.110 9.38664 5.96307
  90 424.842 10.2697 -6.07956
  91 423.110 9.38664 5.96307
  92 424.842 10.2697 -6.07956
  93 605.855 32.4718 23.0919
  94 605.855 32.4718 23.0919
  95 437.343 4.16687 17.8536
  96 437.343 4.16687 17.8536
  97 652.403 48.1381 -23.5171
  98 660.102 39.8312 -49.4957
  99 652.403 48.1381 -23.5171
  100 660.102 39.8312 -49.4957
  101 426.731 6.66818 -22.0227
  102 426.731 6.66818 -22.0227
  103 345.110 -66.6859 -158.213
  104 345.110 -66.6859 -158.213
  105 292.991 -76.8826 167.450
  106 292.991 -76.8826 167.450
  107 538.904 -41.2401 -61.1316
  108 538.904 -41.2401 -61.1316
  109 405.398 -50.3612 -91.8999
  110 405.398 -50.3612 -91.8999
  111 689.772 47.5050 35.9256
  112 689.772 47.5050 35.9256
  113 53.9742 -174.255 -62.9888
  114 53.9742 -174.255 -62.9888
  115 31.2345 -205.770 18.9369
  116 31.2345 -205.770 18.9369
  117 367.406 23.4102 -4.60065
  118 367.406 23.4102 -4.60065
  119 444.030 -17.4560 -35.4888
  120 444.030 -17.4560 -35.4888
  121 732.206 20.3912 -16.6726
  122 732.206 20.3912 -16.6726
  123 85.3420 -170.747 106.579
  124 85.3420 -170.747 106.579
  125 401.116 13.8557 20.4613
  126 401.116 13.8557 20.4613
  127 100.923 -138.153 -117.865
  128 100.923 -138.153 -117.865
  129 531.707 -35.5010 88.6061
  130 531.707 -35.5010 88.6061
  131 745.132 37.1822 -51.8653
  132 745.132 37.1822 -51.8653
  133 39.0688 -236.357 -17.9238
  134 39.0688 -236.357 -17.9238
  135 47.3410 -226.376 46.9862
  136 47.3410 -226.376 46.9862
  137 436.646 4.20675 -10.4635
  138 436.646 4.20675 -10.4635
  139 415.954 14.3022 -0.753390
  140 415.954 14.3022 -0.753390
  141 425.511 7.27723 -0.0969492
  142 425.511 7.27723 -0.0969492
  143 437.579 -8.87423 30.9720
  144 437.579 -8.87423 30.9720
  145 306.433 -7.96216 72.8656
  146 440.220 -40.8812 62.3434
  147 304.319 17.6870 1.74739
  148 306.433 -7.96216 72.8656
  149 440.220 -40.8812 62.3434
  150 304.319 17.6870 1.74739
  151 395.948 7.17369 -32.6331
  152 395.948 7.17369 -32.6331
  153 727.059 20.9875 12.9174
  154 727.059 20.9875 12.9174
  155 753.766 17.4164 31.9305
  156 755.303 38.3774 64.7112
  157 753.766 17.4164 31.9305
  158 755.303 38.3774 64.7112
  159 429.969 4.90178 3.45738
  160 429.969 4.90178 3.45738
  161 271.929 -11.1706 -62.1754
  162 271.929 -11.1706 -62.1754
  163 429.989 4.77320 -3.39437
  164 429.989 4.77320 -3.39437
  165 432.501 5.78457 9.49669
  166 432.501 5.78457 9.49669
  167 505.234 -4.02385 11.3873
  168 493.104 -17.9715 -2.37383
  169 505.234 -4.02385 11.3873
  170 493.104 -17.9715 -2.37383
  171 542.893 -12.7871 0.717125
  172 542.893 -12.7871 0.717125
  173 416.221 12.9980 11.0020
  174 416.221 12.9980 11.0020
  175 210.226 -22.1227 84.6659
  176 210.226 -22.1227 84.6659
  177 187.249 -9.41457 -53.4627
  178 187.249 -9.41457 -53.4627
  179 419.684 14.0047 -10.5461
  180 419.684 14.0047 -10.5461
</Section>

newXOutput 127

<Section columns = "stress_xx | stress_yy | stress_xy">
  1 434.258 2.99963 -1.71013
  2 433.891 2.32366 1.53681
  3 434.258 2.99963 -1.71013
  4 433.891 2.32366 1.53681
  5 633.431 24.9334 165.724
  6 625.358 20.6940 -154.766
  7 633.431 24.9334 165.724
  8 625.358 20.6940 -154.766
  9 438.533 0.814352 -5.51612
  10 456.422 0.100804 -9.13460
  11 468.228 -5.39482 -12.1917
  12 492.536 -2.49855 6.25331
  13 493.203 15.2011 4.40147
  14 493.851 -2.44575 -8.15405
  15 472.932 -8.35964 12.2077
  16 450.743 2.01491 10.6756
  17 438.939 2.85516 4.88324
  18 431.649 4.94417 0.850582
  19 429.291 4.99842 -0.0652196
  20 431.448 4.55932 -0.773093
  21 438.533 0.814352 -5.51612
  22 456.422 0.100804 -9.13460
  23 468.228 -5.39482 -12.1917
  24 492.536 -2.49855 6.25331
  25 493.203 15.2011 4.40147
  26 493.851 -2.44575 -8.15405
  27 472.932 -8.35964 12.2077
  28 450.743 2.01491 10.6756
  29 438.939 2.85516 4.88324
  30 431.649 4.94417 0.850582
  31 429.291 4.99842 -0.0652196
  32 431.448 4.55932 -0.773093
  33 927.130 7.98502 69.6843
  34 810.457 7.62501 45.0257
  35 779.808 15.3459 17.7362
  36 757.008 8.96998 -4.54557
  37 798.467 2.85100 -17.1122
  38 818.389 15.8189 -40.7135
  39 852.698 58.9884 -86.9488
  40 213.030 -117.023 -190.113
  41 43.4995 -230.823 -80.8558
  42 17.0171 -321.261 -26.3349
  43 11.2532 -341.825 -2.53104
  44 13.8285 -325.256 26.4931
  45 39.8043 -276.640 70.4131
  46 173.587 -118.421 186.876
  47 927.130 7.98502 69.6843
  48 810.457 7.62501 45.0257
  49 779.808 15.3459 17.7362
  50 757.008 8.96998 -4.54557
  51 798.467 2.85100 -17.1122
  52 818.389 15.8189 -40.7135
  53 852.698 58.9884 -86.9488
  54 213.030 -117.023 -190.113
  55 43.4995 -230.823 -80.8558
  56 17.0171 -321.261 -26.3349
  57 11.2532 -341.825 -2.53104
  58 13.8285 -325.256 26.4931
  59 39.8043 -276.640 70.4131
  60 173.587 -118.421 186.876
  61 403.055 17.1051 -7.30539
  62 403.055 17.1051 -7.30539
  63 374.038 5.52277 39.9973
  64 363.274 2.50300 -48.6727
  65 374.038 5.52277 39.9973
  66 363.274 2.50300 -48.6727
  67 210.611 4.88200 13.5657
  68 210.611 4.88200 13.5657
  69 336.160 -62.7890 134.083
  70 336.160 -62.7890 134.083
  71 205.837 -59.3704 -108.283
  72 503.617 -43.0586 -23.8240
  73 558.702 31.8208 -1.64160
  74 533.875 15.0271 -4.84798
  75 205.837 -59.3704 -108.283
  76 503.617 -43.0586 -23.8240
  77 558.702 31.8208 -1.64160
  78 533.875 15.0271 -4.84798
  79 495.039 -23.1407 11.3958
  80 495.039 -23.1407 11.3958
  81 635.089 47.0460 3.66385
  82 635.089 47.0460 3.66385
  83 110.301 -69.3574 -9.32779
  84 110.301 -69.3574 -9.32779
  85 142.218 -93.5514 94.3217
  86 142.218 -93.5514 94.3217
  87 533.539 -30.6581 18.3519
  88 533.539 -30.6581 18.3519
  89 426.331 9.45570 6.00525
  90 428.075 10.3454 -6.12257
  91 426.331 9.45570 6.00525
  92 428.075 10.3454 -6.12257
  93 610.380 32.7350 23.3066
  94 610.380 32.7350 23.3066
  95 440.661 4.19747 17.9847
  96 440.661 4.19747 17.9847
  97 657.259 48.4990 -23.7093
  98 664.991 40.1583 -49.9084
  99 657.259 48.4990 -23.7093
  100 664.991 40.1583 -49.9084
  101 429.976 6.71786 -22.1859
  102 429.976 6.71786 -22.1859
  103 347.686 -67.1515 -159.478
  104 347.686 -67.1515 -159.478
  105 295.185 -77.4247 168.795
  106 295.185 -77.4247 168.795
  107 542.921 -41.5322 -61.6466
  108 542.921 -41.5322 -61.6466
  109 408.464 -50.7480 -92.6169
  110 408.464 -50.7480 -92.6169
  111 694.871 47.8643 36.2089
  112 694.871 47.8643 36.2089
  113 54.3953 -175.584 -63.5196
  114 54.3953 -175.584 -63.5196
  115 31.4746 -207.361 19.1005
  116 31.4746 -207.361 19.1005
  117 370.231 23.5898 -4.63447
  118 370.231 23.5898 -4.63447
  119 447.392 -17.5905 -35.7631
  120 447.392 -17.5905 -35.7631
  121 737.565 20.5367 -16.7946
  122 737.565 20.5367 -16.7946
  123 86.0034 -172.018 107.478
  124 86.0034 -172.018 107.478
  125 404.182 13.9606 20.6130
  126 404.182 13.9606 20.6130
  127 101.707 -139.174 -118.845
  128 101.707 -139.174 -118.845
  129 535.669 -35.7476 89.3278
  130 535.669 -35.7476 89.3278
  131 750.585 37.4596 -52.2625
  132 750.585 37.4596 -52.2625
  133 39.3682 -238.196 -18.0756
  134 39.3682 -238.196 -18.0756
  135 47.7062 -228.118 47.3975
  136 47.7062 -228.118 47.3975
  137 439.959 4.23773 -10.5392
  138 439.959 4.23773 -10.5392
  139 419.127 14.4080 -0.758886
  140 419.127 14.4080 -0.758886
  141 428.749 7.33031 -0.0976280
  142 428.749 7.33031 -0.0976280
  143 440.897 -8.94287 31.2078
  144 440.897 -8.94287 31.2078
  145 308.798 -8.01952 73.4254
  146 443.544 -41.1947 62.8322
  147 306.683 17.8272 1.76199
  148 308.798 -8.01952 73.4254
  149 443.544 -41.1947 62.8322
  150 306.683 17.8272 1.76199
  151 398.974 7.22850 -32.8768
  152 398.974 7.22850 -32.8768
  153 732.389 21.1358 13.0151
  154 732.389 21.1358 13.0151
  155 759.274 17.5402 32.1654
  156 760.824 38.6898 65.2185
  157 759.274 17.5402 32.1654
  158 760.824 38.6898 65.2185
  159 433.236 4.93760 3.48148
  160 433.236 4.93760 3.48148
  161 274.040 -11.2517 -62.6550
  162 274.040 -11.2517 -62.6550
  163 433.256 4.80808 -3.41802
  164 433.256 4.80808 -3.41802
  165 435.785 5.82732 9.56426
  166 435.785 5.82732 9.56426
  167 509.054 -4.05048 11.4502
  168 496.820 -18.1101 -2.40731
  169 509.054 -4.05048 11.4502
  170 496.820 -18.1101 -2.40731
  171 546.968 -12.8714 0.680009
  172 546.968 -12.8714 0.680009
  173 419.395 13.0949 11.0816
  174 419.395 13.0949 11.0816
  175 211.865 -22.2805 85.3302
  176 211.865 -22.2805 85.3302
  177 188.721 -9.47016 -53.8815
  178 188.721 -9.47016 -53.8815
  179 422.882 14.1091 -10.6227
  180 422.882 14.1091 -10.6227
</Section>

newXOutput 128

<Section columns = "stress_xx | stress_yy | stress_xy">
  1 437.529 3.02129 -1.72188
  2 437.160 2.34035 1.54733
  3 437.529 3.02129 -1.72188
  4 437.160 2.34035 1.54733
  5 638.005 25.2079 167.017
  6 629.899 20.9375 -155.989
  7 638.005 25.2079 167.017
  8 629.899 20.9375 -155.989
  9 441.832 0.819770 -5.55494
  10 459.843 0.101626 -9.19989
  11 471.736 -5.43675 -12.2856
  12 496.233 -2.51738 6.28749
  13 496.927 15.3186 4.43063
  14 497.558 -2.46333 -8.19953
  15 476.472 -8.42401 12.3024
  16 454.126 2.02950 10.7519
  17 442.240 2.87593 4.91706
  18 434.904 4.97972 0.856414
  19 432.531 5.03426 -0.0656564
  20 434.701 4.59207 -0.778400
  21 441.832 0.819770 -5.55494
  22 459.843 0.101626 -9.19989
  23 471.736 -5.43675 -12.2856
  24 496.233 -2.51738 6.28749
  25 496.927 15.3186 4.43063
  26 497.558 -2.46333 -8.19953
  27 476.472 -8.42401 12.3024
  28 454.126 2.02950 10.7519
  29 442.240 2.87593 4.91706
  30 434.904 4.97972 0.856414
  31 432.531 5.03426 -0.0656564
  32 434.701 4.59207 -0.778400
  33 933.719 8.04700 70.2006
  34 816.273 7.67115 45.3548
  35 785.418 15.4541 17.8617
  36 762.469 9.02929 -4.57650
  37 804.182 2.87021 -17.2349
  38 824.257 15.9350 -41.0079
  39 858.819 59.4536 -87.6122
  40 214.602 -117.807 -191.638
  41 43.8313 -232.554 -81.5432
  42 17.1424 -323.777 -26.5669
  43 11.3298 -344.522 -2.55014
  44 13.9258 -327.800 26.7251
  45 40.1065 -278.741 71.0198
  46 174.871 -119.216 188.381
  47 933.719 8.04700 70.2006
  48 816.273 7.67115 45.3548
  49 785.418 15.4541 17.8617
  50 762.469 9.02929 -4.57650
  51 804.182 2.87021 -17.2349
  52 824.257 15.9350 -41.0079
  53 858.819 59.4536 -87.6122
  54 214.602 -117.807 -191.638
  55 43.8313 -232.554 -81.5432
  56 17.1424 -323.777 -26.5669
  57 11.3298 -344.522 -2.55014
  58 13.9258 -327.800 26.7251
  59 40.1065 -278.741 71.0198
  60 174.871 -119.216 188.381
  61 406.113 17.2329 -7.35885
  62 406.113 17.2329 -7.35885
  63 376.882 5.56608 40.2977
  64 366.038 2.52337 -49.0381
  65 376.882 5.56608 40.2977
  66 366.038 2.52337 -49.0381
  67 212.255 4.93218 13.6704
  68 212.255 4.93218 13.6704
  69 338.687 -63.2692 135.124
  70 338.687 -63.2692 135.124
  71 207.414 -59.8102 -109.139
  72 507.371 -43.3833 -24.0289
  73 562.877 32.0668 -1.67262
  74 537.871 15.1451 -4.86231
  75 207.414 -59.8102 -109.139
  76 507.371 -43.3833 -24.0289
  77 562.877 32.0668 -1.67262
  78 537.871 15.1451 -4.86231
  79 498.739 -23.3154 11.5001
  80 498.739 -23.3154 11.5001
  81 639.786 47.3951 3.69926
  82 639.786 47.3951 3.69926
  83 111.163 -69.8632 -9.40329
  84 111.163 -69.8632 -9.40329
  85 143.307 -94.2455 95.0836
  86 143.307 -94.2455 95.0836
  87 537.508 -30.8807 18.5293
  88 537.508 -30.8807 18.5293
  89 429.550 9.52467 6.04736
  90 431.306 10.4211 -6.16551
  91 429.550 9.52467 6.04736
  92 431.306 10.4211 -6.16551
  93 614.899 32.9982 23.5217
  94 614.899 32.9982 23.5217
  95 443.976 4.22803 18.1157
  96 443.976 4.22803 18.1157
  97 662.109 48.8596 -23.9015
  98 669.874 40.4854 -50.3213
  99 662.109 48.8596 -23.9015
  100 669.874 40.4854 -50.3213
  101 433.219 6.76748 -22.3490
  102 433.219 6.76748 -22.3490
  103 350.260 -67.6160 -160.743
  104 350.260 -67.6160 -160.743
  105 297.377 -77.9656 170.140
  106 297.377 -77.9656 170.140
  107 546.934 -41.8237 -62.1618
  108 546.934 -41.8237 -62.1618
  109 411.527 -51.1344 -93.3336
  110 411.527 -51.1344 -93.3336
  111 699.964 48.2233 36.4920
  112 699.964 48.2233 36.4920
  113 54.8162 -176.912 -64.0509
  114 54.8162 -176.912 -64.0509
  115 31.7144 -208.950 19.2643
  116 31.7144 -208.950 19.2643
  117 373.055 23.7693 -4.66825
  118 373.055 23.7693 -4.66825
  119 450.751 -17.7249 -36.0372
  120 450.751 -17.7249 -36.0372
  121 742.917 20.6819 -16.9165
  122 742.917 20.6819 -16.9165
  123 86.6646 -173.288 108.378
  124 86.6646 -173.288 108.378
  125 407.245 14.0653 20.7645
  126 407.245 14.0653 20.7645
  127 102.490 -140.193 -119.826
  128 102.490 -140.193 -119.826
  129 539.627 -35.9938 90.0496
  130 539.627 -35.9938 90.0496
  131 756.030 37.7366 -52.6594
  132 756.030 37.7366 -52.6594
  133 39.6675 -240.035 -18.2274
  134 39.6675 -240.035 -18.2274
  135 48.0711 -229.859 47.8094
  136 48.0711 -229.859 47.8094
  137 443.269 4.26868 -10.6148
  138 443.269 4.26868 -10.6148
  139 422.298 14.5138 -0.764373
  140 422.298 14.5138 -0.764373
  141 431.985 7.38331 -0.0983054
  142 431.985 7.38331 -0.0983054
  143 444.212 -9.01146 31.4434
  144 444.212 -9.01146 31.4434
  145 311.162 -8.07678 73.9849
  146 446.864 -41.5079 63.3207
  147 309.046 17.9673 1.77660
  148 311.162 -8.07678 73.9849
  149 446.864 -41.5079 63.3207
  150 309.046 17.9673 1.77660
  151 401.998 7.28327 -33.1202
  152 401.998 7.28327 -33.1202
  153 737.712 21.2839 13.1127
  154 737.712 21.2839 13.1127
  155 764.774 17.6637 32.4000
  156 766.337 39.0021 65.7257
  157 764.774 17.6637 32.4000
  158 766.337 39.0021 65.7257
  159 436.500 4.97336 3.50553
  160 436.500 4.97336 3.50553
  161 276.150 -11.3328 -63.1343
  162 276.150 -11.3328 -63.1343
  163 436.521 4.84290 -3.44161
  164 436.521 4.84290 -3.44161
  165 439.067 5.87002 9.63171
  166 439.067 5.87002 9.63171
  167 512.870 -4.07703 11.5126
  168 500.533 -18.2487 -2.44100
  169 512.870 -4.07703 11.5126
  170 500.533 -18.2487 -2.44100
  171 551.040 -12.9553 0.642284
  172 551.040 -12.9553 0.642284
  173 422.566 13.1916 11.1610
  174 422.566 13.1916 11.1610
  175 213.503 -22.4381 85.9942
  176 213.503 -22.4381 85.9942
  177 190.193 -9.52547 -54.3001
  178 190.193 -9.52547 -54.3001
  179 426.078 14.2134 -10.6992
  180 426.078 14.2134 -10.6992
</Section>

newXOutput 129

<Section columns = "stress_xx | stress_yy | stress_xy">
  1 440.797 3.04291 -1.73361
  2 440.426 2.35703 1.55783
  3 440.797 3.04291 -1.73361
  4 440.426 2.35703 1.55783
  5 642.572 25.4835 168.310
  6 634.433 21.1821 -157.212
  7 642.572 25.4835 168.310
  8 634.433 21.1821 -157.212
  9 445.128 0.825173 -5.59369
  10 463.260 0.102449 -9.26508
  11 475.242 -5.47866 -12.3795
  12 499.927 -2.53621 6.32146
  13 500.647 15.4361 4.45971
  14 501.263 -2.48089 -8.24474
  15 480.009 -8.48836 12.3971
  16 457.505 2.04407 10.8281
  17 445.540 2.89668 4.95081
  18 438.155 5.01521 0.862233
  19 435.767 5.07003 -0.0660920
  20 437.951 4.62477 -0.783695
  21 445.128 0.825173 -5.59369
  22 463.260 0.102449 -9.26508
  23 475.242 -5.47866 -12.3795
  24 499.927 -2.53621 6.32146
  25 500.647 15.4361 4.45971
  26 501.263 -2.48089 -8.24474
  27 480.009 -8.48836 12.3971
  28 457.505 2.04407 10.8281
  29 445.540 2.89668 4.95081
  30 438.155 5.01521 0.862233
  31 435.767 5.07003 -0.0660920
  32 437.951 4.62477 -0.783695
  33 940.296 8.10896 70.7164
  34 822.079 7.71710 45.6835
  35 791.019 15.5622 17.9869
  36 767.923 9.08844 -4.60735
  37 809.889 2.88938 -17.3573
  38 830.116 16.0509 -41.3018
  39 864.931 59.9187 -88.2750
  40 216.172 -118.590 -193.164
  41 44.1629 -234.283 -82.2312
  42 17.2676 -326.292 -26.7992
  43 11.4063 -347.218 -2.56923
  44 14.0230 -330.343 26.9575
  45 40.4085 -280.840 71.6273
  46 176.155 -120.009 189.886
  47 940.296 8.10896 70.7164
  48 822.079 7.71710 45.6835
  49 791.019 15.5622 17.9869
  50 767.923 9.08844 -4.60735
  51 809.889 2.88938 -17.3573
  52 830.116 16.0509 -41.3018
  53 864.931 59.9187 -88.2750
  54 216.172 -118.590 -193.164
  55 44.1629 -234.283 -82.2312
  56 17.2676 -326.292 -26.7992
  57 11.4063 -347.218 -2.56923
  58 14.0230 -330.343 26.9575
  59 40.4085 -280.840 71.6273
  60 176.155 -120.009 189.886
  61 409.169 17.3606 -7.41223
  62 409.169 17.3606 -7.41223
  63 379.724 5.60938 40.5978
  64 368.800 2.54374 -49.4031
  65 379.724 5.60938 40.5978
  66 368.800 2.54374 -49.4031
  67 213.898 4.98252 13.7751
  68 213.898 4.98252 13.7751
  69 341.211 -63.7492 136.166
  70 341.211 -63.7492 136.166
  71 208.990 -60.2495 -109.995
  72 511.121 -43.7076 -24.2340
  73 567.049 32.3127 -1.70389
  74 541.864 15.2631 -4.87629
  75 208.990 -60.2495 -109.995
  76 511.121 -43.7076 -24.2340
  77 567.049 32.3127 -1.70389
  78 541.864 15.2631 -4.87629
  79 502.436 -23.4900 11.6046
  80 502.436 -23.4900 11.6046
  81 644.478 47.7438 3.73476
  82 644.478 47.7438 3.73476
  83 112.026 -70.3684 -9.47881
  84 112.026 -70.3684 -9.47881
  85 144.395 -94.9389 95.8457
  86 144.395 -94.9389 95.8457
  87 541.472 -31.1029 18.7071
  88 541.472 -31.1029 18.7071
  89 432.767 9.59355 6.08938
  90 434.535 10.4967 -6.20836
  91 432.767 9.59355 6.08938
  92 434.535 10.4967 -6.20836
  93 619.413 33.2614 23.7372
  94 619.413 33.2614 23.7372
  95 447.289 4.25855 18.2465
  96 447.289 4.25855 18.2465
  97 666.954 49.2198 -24.0938
  98 674.751 40.8127 -50.7343
  99 666.954 49.2198 -24.0938
  100 674.751 40.8127 -50.7343
  101 436.459 6.81705 -22.5118
  102 436.459 6.81705 -22.5118
  103 352.831 -68.0795 -162.008
  104 352.831 -68.0795 -162.008
  105 299.567 -78.5055 171.485
  106 299.567 -78.5055 171.485
  107 550.942 -42.1147 -62.6774
  108 550.942 -42.1147 -62.6774
  109 414.587 -51.5207 -94.0500
  110 414.587 -51.5207 -94.0500
  111 705.051 48.5820 36.7750
  112 705.051 48.5820 36.7750
  113 55.2370 -178.240 -64.5826
  114 55.2370 -178.240 -64.5826
  115 31.9542 -210.539 19.4283
  116 31.9542 -210.539 19.4283
  117 375.877 23.9487 -4.70198
  118 375.877 23.9487 -4.70198
  119 454.107 -17.8592 -36.3112
  120 454.107 -17.8592 -36.3112
  121 748.262 20.8268 -17.0382
  122 748.262 20.8268 -17.0382
  123 87.3253 -174.557 109.279
  124 87.3253 -174.557 109.279
  125 410.307 14.1700 20.9159
  126 410.307 14.1700 20.9159
  127 103.273 -141.210 -120.808
  128 103.273 -141.210 -120.808
  129 543.580 -36.2393 90.7716
  130 543.580 -36.2393 90.7716
  131 761.468 38.0134 -53.0559
  132 761.468 38.0134 -53.0559
  133 39.9665 -241.872 -18.3794
  134 39.9665 -241.872 -18.3794
  135 48.4359 -231.599 48.2218
  136 48.4359 -231.599 48.2218
  137 446.576 4.29958 -10.6902
  138 446.576 4.29958 -10.6902
  139 425.467 14.6194 -0.769853
  140 425.467 14.6194 -0.769853
  141 435.218 7.43624 -0.0989814
  142 435.218 7.43624 -0.0989814
  143 447.524 -9.08002 31.6789
  144 447.524 -9.08002 31.6789
  145 313.525 -8.13396 74.5440
  146 450.182 -41.8209 63.8091
  147 311.408 18.1075 1.79122
  148 313.525 -8.13396 74.5440
  149 450.182 -41.8209 63.8091
  150 311.408 18.1075 1.79122
  151 405.020 7.33799 -33.3633
  152 405.020 7.33799 -33.3633
  153 743.028 21.4316 13.2102
  154 743.028 21.4316 13.2102
  155 770.266 17.7871 32.6343
  156 771.842 39.3146 66.2325
  157 770.266 17.7871 32.6343
  158 771.842 39.3146 66.2325
  159 439.763 5.00908 3.52953
  160 439.763 5.00908 3.52953
  161 278.260 -11.4137 -63.6133
  162 278.260 -11.4137 -63.6133
  163 439.783 4.87767 -3.46515
  164 439.783 4.87767 -3.46515
  165 442.346 5.91266 9.69903
  166 442.346 5.91266 9.69903
  167 516.683 -4.10350 11.5747
  168 504.242 -18.3872 -2.47489
  169 516.683 -4.10350 11.5747
  170 504.242 -18.3872 -2.47489
  171 555.107 -13.0390 0.603952
  172 555.107 -13.0390 0.603952
  173 425.735 13.2883 11.2403
  174 425.735 13.2883 11.2403
  175 215.141 -22.5954 86.6580
  176 215.141 -22.5954 86.6580
  177 191.664 -9.58049 -54.7186
  178 191.664 -9.58049 -54.7186
  179 429.272 14.3176 -10.7756
  180 429.272 14.3176 -10.7756
</Section>

newXOutput 130

<Section columns = "stress_xx | stress_yy | stress_xy">
  1 444.063 3.06450 -1.74531
  2 443.689 2.37367 1.56831
  3 444.063 3.06450 -1.74531
  4 443.689 2.37367 1.56831
  5 647.132 25.7602 169.602
  6 638.962 21.4278 -158.434
  7 647.132 25.7602 169.602
  8 638.962 21.4278 -158.434
  9 448.422 0.830561 -5.63237
  10 466.675 0.103272 -9.33016
  11 478.744 -5.52056 -12.4734
  12 503.618 -2.55501 6.35521
  13 504.365 15.5535 4.48870
  14 504.963 -2.49842 -8.28967
  15 483.542 -8.55267 12.4917
  16 460.882 2.05862 10.9042
  17 448.836 2.91739 4.98449
  18 441.405 5.05065 0.868039
  19 439.002 5.10576 -0.0665264
  20 441.199 4.65741 -0.788979
  21 448.422 0.830561 -5.63237
  22 466.675 0.103272 -9.33016
  23 478.744 -5.52056 -12.4734
  24 503.618 -2.55501 6.35521
  25 504.365 15.5535 4.48870
  26 504.963 -2.49842 -8.28967
  27 483.542 -8.55267 12.4917
  28 460.882 2.05862 10.9042
  29 448.836 2.91739 4.98449
  30 441.405 5.05065 0.868039
  31 439.002 5.10576 -0.0665264
  32 441.199 4.65741 -0.788979
  33 946.862 8.17090 71.2316
  34 827.877 7.76284 46.0118
  35 796.612 15.6701 18.1118
  36 773.369 9.14742 -4.63814
  37 815.586 2.90850 -17.4795
  38 835.967 16.1668 -41.5954
  39 871.034 60.3837 -88.9374
  40 217.740 -119.370 -194.690
  41 44.4943 -236.010 -82.9200
  42 17.3926 -328.807 -27.0318
  43 11.4825 -349.914 -2.58829
  44 14.1200 -332.886 27.1903
  45 40.7104 -282.938 72.2355
  46 177.437 -120.800 191.392
  47 946.862 8.17090 71.2316
  48 827.877 7.76284 46.0118
  49 796.612 15.6701 18.1118
  50 773.369 9.14742 -4.63814
  51 815.586 2.90850 -17.4795
  52 835.967 16.1668 -41.5954
  53 871.034 60.3837 -88.9374
  54 217.740 -119.370 -194.690
  55 44.4943 -236.010 -82.9200
  56 17.3926 -328.807 -27.0318
  57 11.4825 -349.914 -2.58829
  58 14.1200 -332.886 27.1903
  59 40.7104 -282.938 72.2355
  60 177.437 -120.800 191.392
  61 412.223 17.4882 -7.46555
  62 412.223 17.4882 -7.46555
  63 382.565 5.65266 40.8976
  64 371.561 2.56412 -49.7678
  65 382.565 5.65266 40.8976
  66 371.561 2.56412 -49.7678
  67 215.540 5.03302 13.8797
  68 215.540 5.03302 13.8797
  69 343.734 -64.2290 137.207
  70 343.734 -64.2290 137.207
  71 210.566 -60.6883 -110.852
  72 514.867 -44.0317 -24.4393
  73 571.217 32.5585 -1.73541
  74 545.853 15.3811 -4.88993
  75 210.566 -60.6883 -110.852
  76 514.867 -44.0317 -24.4393
  77 571.217 32.5585 -1.73541
  78 545.853 15.3811 -4.88993
  79 506.129 -23.6644 11.7093
  80 506.129 -23.6644 11.7093
  81 649.165 48.0922 3.77033
  82 649.165 48.0922 3.77033
  83 112.888 -70.8729 -9.55436
  84 112.888 -70.8729 -9.55436
  85 145.482 -95.6316 96.6080
  86 145.482 -95.6316 96.6080
  87 545.432 -31.3248 18.8854
  88 545.432 -31.3248 18.8854
  89 435.981 9.66235 6.13133
  90 437.761 10.5722 -6.25113
  91 435.981 9.66235 6.13133
  92 437.761 10.5722 -6.25113
  93 623.923 33.5247 23.9531
  94 623.923 33.5247 23.9531
  95 450.598 4.28903 18.3772
  96 450.598 4.28903 18.3772
  97 671.793 49.5797 -24.2861
  98 679.622 41.1401 -51.1476
  99 671.793 49.5797 -24.2861
  100 679.622 41.1401 -51.1476
  101 439.697 6.86656 -22.6745
  102 439.697 6.86656 -22.6745
  103 355.400 -68.5420 -163.273
  104 355.400 -68.5420 -163.273
  105 301.754 -79.0443 172.830
  106 301.754 -79.0443 172.830
  107 554.946 -42.4051 -63.1934
  108 554.946 -42.4051 -63.1934
  109 417.645 -51.9067 -94.7660
  110 417.645 -51.9067 -94.7660
  111 710.131 48.9403 37.0580
  112 710.131 48.9403 37.0580
  113 55.6576 -179.566 -65.1146
  114 55.6576 -179.566 -65.1146
  115 32.1938 -212.127 19.5925
  116 32.1938 -212.127 19.5925
  117 378.697 24.1280 -4.73566
  118 378.697 24.1280 -4.73566
  119 457.460 -17.9935 -36.5851
  120 457.460 -17.9935 -36.5851
  121 753.599 20.9715 -17.1597
  122 753.599 20.9715 -17.1597
  123 87.9857 -175.824 110.181
  124 87.9857 -175.824 110.181
  125 413.366 14.2745 21.0670
  126 413.366 14.2745 21.0670
  127 104.055 -142.227 -121.790
  128 104.055 -142.227 -121.790
  129 547.529 -36.4844 91.4937
  130 547.529 -36.4844 91.4937
  131 766.898 38.2899 -53.4522
  132 766.898 38.2899 -53.4522
  133 40.2654 -243.709 -18.5315
  134 40.2654 -243.709 -18.5315
  135 48.8004 -233.337 48.6348
  136 48.8004 -233.337 48.6348
  137 449.881 4.33044 -10.7656
  138 449.881 4.33044 -10.7656
  139 428.633 14.7249 -0.775324
  140 428.633 14.7249 -0.775324
  141 438.448 7.48909 -0.0996559
  142 438.448 7.48909 -0.0996559
  143 450.834 -9.14854 31.9141
  144 450.834 -9.14854 31.9141
  145 315.886 -8.19104 75.1027
  146 453.496 -42.1337 64.2973
  147 313.769 18.2476 1.80584
  148 315.886 -8.19104 75.1027
  149 453.496 -42.1337 64.2973
  150 313.769 18.2476 1.80584
  151 408.040 7.39268 -33.6061
  152 408.040 7.39268 -33.6061
  153 748.337 21.5791 13.3076
  154 748.337 21.5791 13.3076
  155 775.751 17.9102 32.8683
  156 777.339 39.6271 66.7392
  157 775.751 17.9102 32.8683
  158 777.339 39.6271 66.7392
  159 443.022 5.04474 3.55347
  160 443.022 5.04474 3.55347
  161 280.368 -11.4944 -64.0920
  162 280.368 -11.4944 -64.0920
  163 443.043 4.91240 -3.48864
  164 443.043 4.91240 -3.48864
  165 445.622 5.95525 9.76623
  166 445.622 5.95525 9.76623
  167 520.492 -4.12988 11.6363
  168 507.947 -18.5256 -2.50898
  169 520.492 -4.12988 11.6363
  170 507.947 -18.5256 -2.50898
  171 559.170 -13.1224 0.565014
  172 559.170 -13.1224 0.565014
  173 428.902 13.3848 11.3196
  174 428.902 13.3848 11.3196
  175 216.777 -22.7524 87.3216
  176 216.777 -22.7524 87.3216
  177 193.135 -9.63523 -55.1369
  178 193.135 -9.63523 -55.1369
  179 432.463 14.4217 -10.8518
  180 432.463 14.4217 -10.8518
</Section>

newXOutput 131

<Section columns = "stress_xx | stress_yy | stress_xy">
  1 447.326 3.08606 -1.75698
  2 446.950 2.39030 1.57876
  3 447.326 3.08606 -1.75698
  4 446.950 2.39030 1.57876
  5 651.686 26.0380 170.893
  6 643.484 21.6747 -159.656
  7 651.686 26.0380 170.893
  8 643.484 21.6747 -159.656
  9 451.713 0.835934 -5.67097
  10 470.086 0.104095 -9.39514
  11 482.243 -5.56244 -12.5672
  12 507.305 -2.57380 6.38874
  13 508.080 15.6709 4.51761
  14 508.661 -2.51592 -8.33433
  15 487.073 -8.61696 12.5863
  16 464.255 2.07315 10.9802
  17 452.130 2.93808 5.01810
  18 444.651 5.08603 0.873832
  19 442.233 5.14142 -0.0669598
  20 444.444 4.69001 -0.794250
  21 451.713 0.835934 -5.67097
  22 470.086 0.104095 -9.39514
  23 482.243 -5.56244 -12.5672
  24 507.305 -2.57380 6.38874
  25 508.080 15.6709 4.51761
  26 508.661 -2.51592 -8.33433
  27 487.073 -8.61696 12.5863
  28 464.255 2.07315 10.9802
  29 452.130 2.93808 5.01810
  30 444.651 5.08603 0.873832
  31 442.233 5.14142 -0.0669598
  32 444.444 4.69001 -0.794250
  33 953.417 8.23282 71.7462
  34 833.666 7.80838 46.3396
  35 802.197 15.7778 18.2366
  36 778.807 9.20624 -4.66885
  37 821.275 2.92757 -17.6015
  38 841.808 16.2825 -41.8885
  39 877.127 60.8486 -89.5993
  40 219.306 -120.148 -196.216
  41 44.8254 -237.736 -83.6094
  42 17.5174 -331.321 -27.2649
  43 11.5586 -352.610 -2.60734
  44 14.2168 -335.428 27.4233
  45 41.0119 -285.034 72.8445
  46 178.717 -121.588 192.897
  47 953.417 8.23282 71.7462
  48 833.666 7.80838 46.3396
  49 802.197 15.7778 18.2366
  50 778.807 9.20624 -4.66885
  51 821.275 2.92757 -17.6015
  52 841.808 16.2825 -41.8885
  53 877.127 60.8486 -89.5993
  54 219.306 -120.148 -196.216
  55 44.8254 -237.736 -83.6094
  56 17.5174 -331.321 -27.2649
  57 11.5586 -352.610 -2.60734
  58 14.2168 -335.428 27.4233
  59 41.0119 -285.034 72.8445
  60 178.717 -121.588 192.897
  61 415.275 17.6156 -7.51880
  62 415.275 17.6156 -7.51880
  63 385.403 5.69594 41.1972
  64 374.320 2.58450 -50.1322
  65 385.403 5.69594 41.1972
  66 374.320 2.58450 -50.1322
  67 217.182 5.08367 13.9842
  68 217.182 5.08367 13.9842
  69 346.254 -64.7085 138.247
  70 346.254 -64.7085 138.247
  71 212.140 -61.1267 -111.708
  72 518.609 -44.3556 -24.6448
  73 575.381 32.8042 -1.76718
  74 549.838 15.4990 -4.90324
  75 212.140 -61.1267 -111.708
  76 518.609 -44.3556 -24.6448
  77 575.381 32.8042 -1.76718
  78 549.838 15.4990 -4.90324
  79 509.819 -23.8387 11.8141
  80 509.819 -23.8387 11.8141
  81 653.846 48.4402 3.80598
  82 653.846 48.4402 3.80598
  83 113.750 -71.3767 -9.62992
  84 113.750 -71.3767 -9.62992
  85 146.569 -96.3236 97.3705
  86 146.569 -96.3236 97.3705
  87 549.388 -31.5463 19.0641
  88 549.388 -31.5463 19.0641
  89 439.193 9.73105 6.17319
  90 440.984 10.6476 -6.29382
  91 439.193 9.73105 6.17319
  92 440.984 10.6476 -6.29382
  93 628.427 33.7881 24.1694
  94 628.427 33.7881 24.1694
  95 453.905 4.31946 18.5076
  96 453.905 4.31946 18.5076
  97 676.627 49.9392 -24.4784
  98 684.487 41.4676 -51.5610
  99 676.627 49.9392 -24.4784
  100 684.487 41.4676 -51.5610
  101 442.932 6.91602 -22.8370
  102 442.932 6.91602 -22.8370
  103 357.965 -69.0035 -164.538
  104 357.965 -69.0035 -164.538
  105 303.939 -79.5820 174.175
  106 303.939 -79.5820 174.175
  107 558.946 -42.6949 -63.7096
  108 558.946 -42.6949 -63.7096
  109 420.700 -52.2925 -95.4818
  110 420.700 -52.2925 -95.4818
  111 715.206 49.2984 37.3408
  112 715.206 49.2984 37.3408
  113 56.0780 -180.892 -65.6471
  114 56.0780 -180.892 -65.6471
  115 32.4332 -213.714 19.7569
  116 32.4332 -213.714 19.7569
  117 381.515 24.3071 -4.76930
  118 381.515 24.3071 -4.76930
  119 460.811 -18.1277 -36.8588
  120 460.811 -18.1277 -36.8588
  121 758.929 21.1159 -17.2811
  122 758.929 21.1159 -17.2811
  123 88.6458 -177.089 111.083
  124 88.6458 -177.089 111.083
  125 416.423 14.3790 21.2180
  126 416.423 14.3790 21.2180
  127 104.837 -143.242 -122.773
  128 104.837 -143.242 -122.773
  129 551.474 -36.7288 92.2159
  130 551.474 -36.7288 92.2159
  131 772.320 38.5660 -53.8481
  132 772.320 38.5660 -53.8481
  133 40.5641 -245.546 -18.6837
  134 40.5641 -245.546 -18.6837
  135 49.1647 -235.075 49.0483
  136 49.1647 -235.075 49.0483
  137 453.183 4.36127 -10.8408
  138 453.183 4.36127 -10.8408
  139 431.796 14.8303 -0.780788
  140 431.796 14.8303 -0.780788
  141 441.676 7.54186 -0.100329
  142 441.676 7.54186 -0.100329
  143 454.141 -9.21703 32.1492
  144 454.141 -9.21703 32.1492
  145 318.246 -8.24804 75.6611
  146 456.808 -42.4463 64.7854
  147 316.129 18.3877 1.82048
  148 318.246 -8.24804 75.6611
  149 456.808 -42.4463 64.7854
  150 316.129 18.3877 1.82048
  151 411.057 7.44733 -33.8487
  152 411.057 7.44733 -33.8487
  153 753.638 21.7263 13.4050
  154 753.638 21.7263 13.4050
  155 781.227 18.0331 33.1020
  156 782.829 39.9397 67.2457
  157 781.227 18.0331 33.1020
  158 782.829 39.9397 67.2457
  159 446.279 5.08036 3.57736
  160 446.279 5.08036 3.57736
  161 282.475 -11.5751 -64.5704
  162 282.475 -11.5751 -64.5704
  163 446.300 4.94708 -3.51208
  164 446.300 4.94708 -3.51208
  165 448.896 5.99779 9.83330
  166 448.896 5.99779 9.83330
  167 524.298 -4.15617 11.6976
  168 511.649 -18.6639 -2.54327
  169 524.298 -4.15617 11.6976
  170 511.649 -18.6639 -2.54327
  171 563.230 -13.2056 0.525471
  172 563.230 -13.2056 0.525471
  173 432.066 13.4812 11.3986
  174 432.066 13.4812 11.3986
  175 218.413 -22.9091 87.9849
  176 218.413 -22.9091 87.9849
  177 194.605 -9.68969 -55.5551
  178 194.605 -9.68969 -55.5551
  179 435.652 14.5257 -10.9280
  180 435.652 14.5257 -10.9280
</Section>

newXOutput 132

<Section columns = "stress_xx | stress_yy | stress_xy">
  1 450.587 3.10759 -1.76863
  2 450.207 2.40689 1.58919
  3 450.587 3.10759 -1.76863
  4 450.207 2.40689 1.58919
  5 656.233 26.3170 172.184
  6 648.000 21.9228 -160.878
  7 656.233 26.3170 172.184
  8 648.000 21.9228 -160.878
  9 455.001 0.841291 -5.70951
  10 473.494 0.104919 -9.46001
  11 485.738 -5.60431 -12.6609
  12 510.989 -2.59258 6.42205
  13 511.792 15.7883 4.54644
  14 512.356 -2.53340 -8.37872
  15 490.600 -8.68121 12.6809
  16 467.626 2.08767 11.0561
  17 455.421 2.95875 5.05164
  18 447.896 5.12137 0.879611
  19 445.463 5.17703 -0.0673920
  20 447.687 4.72256 -0.799509
  21 455.001 0.841291 -5.70951
  22 473.494 0.104919 -9.46001
  23 485.738 -5.60431 -12.6609
  24 510.989 -2.59258 6.42205
  25 511.792 15.7883 4.54644
  26 512.356 -2.53340 -8.37872
  27 490.600 -8.68121 12.6809
  28 467.626 2.08767 11.0561
  29 455.421 2.95875 5.05164
  30 447.896 5.12137 0.879611
  31 445.463 5.17703 -0.0673920
  32 447.687 4.72256 -0.799509
  33 959.961 8.29471 72.2602
  34 839.446 7.85372 46.6670
  35 807.773 15.8853 18.3611
  36 784.237 9.26490 -4.69948
  37 826.955 2.94660 -17.7234
  38 847.640 16.3980 -42.1811
  39 883.210 61.3135 -90.2608
  40 220.871 -120.924 -197.743
  41 45.1563 -239.460 -84.2994
  42 17.6421 -333.834 -27.4982
  43 11.6345 -355.306 -2.62638
  44 14.3134 -337.969 27.6567
  45 41.3133 -287.129 73.4541
  46 179.996 -122.375 194.403
  47 959.961 8.29471 72.2602
  48 839.446 7.85372 46.6670
  49 807.773 15.8853 18.3611
  50 784.237 9.26490 -4.69948
  51 826.955 2.94660 -17.7234
  52 847.640 16.3980 -42.1811
  53 883.210 61.3135 -90.2608
  54 220.871 -120.924 -197.743
  55 45.1563 -239.460 -84.2994
  56 17.6421 -333.834 -27.4982
  57 11.6345 -355.306 -2.62638
  58 14.3134 -337.969 27.6567
  59 41.3133 -287.129 73.4541
  60 179.996 -122.375 194.403
  61 418.324 17.7429 -7.57198
  62 418.324 17.7429 -7.57198
  63 388.240 5.73921 41.4965
  64 377.077 2.60489 -50.4963
  65 388.240 5.73921 41.4965
  66 377.077 2.60489 -50.4963
  67 218.824 5.13449 14.0887
  68 218.824 5.13449 14.0887
  69 348.772 -65.1877 139.287
  70 348.772 -65.1877 139.287
  71 213.714 -61.5647 -112.564
  72 522.348 -44.6792 -24.8505
  73 579.541 33.0497 -1.79919
  74 553.820 15.6169 -4.91620
  75 213.714 -61.5647 -112.564
  76 522.348 -44.6792 -24.8505
  77 579.541 33.0497 -1.79919
  78 553.820 15.6169 -4.91620
  79 513.506 -24.0129 11.9192
  80 513.506 -24.0129 11.9192
  81 658.523 48.7879 3.84172
  82 658.523 48.7879 3.84172
  83 114.612 -71.8799 -9.70550
  84 114.612 -71.8799 -9.70550
  85 147.656 -97.0149 98.1332
  86 147.656 -97.0149 98.1332
  87 553.341 -31.7676 19.2432
  88 553.341 -31.7676 19.2432
  89 442.402 9.79966 6.21497
  90 444.205 10.7229 -6.33642
  91 442.402 9.79966 6.21497
  92 444.205 10.7229 -6.33642
  93 632.927 34.0514 24.3860
  94 632.927 34.0514 24.3860
  95 457.210 4.34986 18.6379
  96 457.210 4.34986 18.6379
  97 681.456 50.2984 -24.6707
  98 689.347 41.7952 -51.9746
  99 681.456 50.2984 -24.6707
  100 689.347 41.7952 -51.9746
  101 446.164 6.96543 -22.9992
  102 446.164 6.96543 -22.9992
  103 360.528 -69.4640 -165.803
  104 360.528 -69.4640 -165.803
  105 306.122 -80.1186 175.520
  106 306.122 -80.1186 175.520
  107 562.941 -42.9841 -64.2263
  108 562.941 -42.9841 -64.2263
  109 423.753 -52.6780 -96.1973
  110 423.753 -52.6780 -96.1973
  111 720.274 49.6562 37.6235
  112 720.274 49.6562 37.6235
  113 56.4982 -182.216 -66.1800
  114 56.4982 -182.216 -66.1800
  115 32.6725 -215.300 19.9215
  116 32.6725 -215.300 19.9215
  117 384.332 24.4861 -4.80290
  118 384.332 24.4861 -4.80290
  119 464.158 -18.2618 -37.1323
  120 464.158 -18.2618 -37.1323
  121 764.251 21.2601 -17.4023
  122 764.251 21.2601 -17.4023
  123 89.3055 -178.353 111.985
  124 89.3055 -178.353 111.985
  125 419.478 14.4833 21.3688
  126 419.478 14.4833 21.3688
  127 105.619 -144.256 -123.756
  128 105.619 -144.256 -123.756
  129 555.414 -36.9727 92.9383
  130 555.414 -36.9727 92.9383
  131 777.735 38.8419 -54.2438
  132 777.735 38.8419 -54.2438
  133 40.8625 -247.381 -18.8360
  134 40.8625 -247.381 -18.8360
  135 49.5288 -236.811 49.4624
  136 49.5288 -236.811 49.4624
  137 456.482 4.39205 -10.9159
  138 456.482 4.39205 -10.9159
  139 434.958 14.9356 -0.786244
  140 434.958 14.9356 -0.786244
  141 444.902 7.59456 -0.101001
  142 444.902 7.59456 -0.101001
  143 457.445 -9.28548 32.3841
  144 457.445 -9.28548 32.3841
  145 320.604 -8.30495 76.2191
  146 460.117 -42.7587 65.2733
  147 318.487 18.5277 1.83513
  148 320.604 -8.30495 76.2191
  149 460.117 -42.7587 65.2733
  150 318.487 18.5277 1.83513
  151 414.073 7.50194 -34.0911
  152 414.073 7.50194 -34.0911
  153 758.933 21.8733 13.5022
  154 758.933 21.8733 13.5022
  155 786.697 18.1557 33.3353
  156 788.311 40.2523 67.7519
  157 786.697 18.1557 33.3353
  158 788.311 40.2523 67.7519
  159 449.533 5.11592 3.60120
  160 449.533 5.11592 3.60120
  161 284.582 -11.6557 -65.0486
  162 284.582 -11.6557 -65.0486
  163 449.554 4.98170 -3.53547
  164 449.554 4.98170 -3.53547
  165 452.167 6.04028 9.90026
  166 452.167 6.04028 9.90026
  167 528.101 -4.18238 11.7584
  168 515.348 -18.8022 -2.57776
  169 528.101 -4.18238 11.7584
  170 515.348 -18.8022 -2.57776
  171 567.285 -13.2884 0.485325
  172 567.285 -13.2884 0.485325
  173 435.229 13.5776 11.4776
  174 435.229 13.5776 11.4776
  175 220.049 -23.0655 88.6481
  176 220.049 -23.0655 88.6481
  177 196.075 -9.74387 -55.9731
  178 196.075 -9.74387 -55.9731
  179 438.838 14.6295 -11.0040
  180 438.838 14.6295 -11.0040
</Section>

newXOutput 133

<Section columns = "stress_xx | stress_yy | stress_xy">
  1 453.844 3.12909 -1.78025
  2 453.463 2.42346 1.59960
  3 453.844 3.12909 -1.78025
  4 453.463 2.42346 1.59960
  5 660.773 26.5970 173.475
  6 652.509 22.1720 -162.099
  7 660.773 26.5970 173.475
  8 652.509 22.1720 -162.099
  9 458.287 0.846634 -5.74797
  10 476.900 0.105744 -9.52478
  11 489.231 -5.64617 -12.7546
  12 514.670 -2.61134 6.45515
  13 515.501 15.9056 4.57518
  14 516.047 -2.55084 -8.42284
  15 494.125 -8.74544 12.7754
  16 470.994 2.10216 11.1318
  17 458.709 2.97938 5.08510
  18 451.137 5.15664 0.885378
  19 448.689 5.21259 -0.0678230
  20 450.927 4.75506 -0.804757
  21 458.287 0.846634 -5.74797
  22 476.900 0.105744 -9.52478
  23 489.231 -5.64617 -12.7546
  24 514.670 -2.61134 6.45515
  25 515.501 15.9056 4.57518
  26 516.047 -2.55084 -8.42284
  27 494.125 -8.74544 12.7754
  28 470.994 2.10216 11.1318
  29 458.709 2.97938 5.08510
  30 451.137 5.15664 0.885378
  31 448.689 5.21259 -0.0678230
  32 450.927 4.75506 -0.804757
  33 966.494 8.35659 72.7737
  34 845.217 7.89886 46.9940
  35 813.342 15.9926 18.4854
  36 789.659 9.32340 -4.73004
  37 832.626 2.96558 -17.8450
  38 853.464 16.5135 -42.4734
  39 889.285 61.7783 -90.9217
  40 222.433 -121.698 -199.269
  41 45.4870 -241.183 -84.9902
  42 17.7667 -336.347 -27.7320
  43 11.7102 -358.001 -2.64539
  44 14.4098 -340.510 27.8905
  45 41.6144 -289.223 74.0645
  46 181.274 -123.159 195.909
  47 966.494 8.35659 72.7737
  48 845.217 7.89886 46.9940
  49 813.342 15.9926 18.4854
  50 789.659 9.32340 -4.73004
  51 832.626 2.96558 -17.8450
  52 853.464 16.5135 -42.4734
  53 889.285 61.7783 -90.9217
  54 222.433 -121.698 -199.269
  55 45.4870 -241.183 -84.9902
  56 17.7667 -336.347 -27.7320
  57 11.7102 -358.001 -2.64539
  58 14.4098 -340.510 27.8905
  59 41.6144 -289.223 74.0645
  60 181.274 -123.159 195.909
  61 421.372 17.8702 -7.62510
  62 421.372 17.8702 -7.62510
  63 391.075 5.78247 41.7956
  64 379.832 2.62528 -50.8601
  65 391.075 5.78247 41.7956
  66 379.832 2.62528 -50.8601
  67 220.465 5.18547 14.1931
  68 220.465 5.18547 14.1931
  69 351.288 -65.6666 140.327
  70 351.288 -65.6666 140.327
  71 215.287 -62.0022 -113.420
  72 526.084 -45.0025 -25.0565
  73 583.697 33.2952 -1.83144
  74 557.798 15.7348 -4.92883
  75 215.287 -62.0022 -113.420
  76 526.084 -45.0025 -25.0565
  77 583.697 33.2952 -1.83144
  78 557.798 15.7348 -4.92883
  79 517.189 -24.1869 12.0244
  80 517.189 -24.1869 12.0244
  81 663.194 49.1352 3.87753
  82 663.194 49.1352 3.87753
  83 115.474 -72.3824 -9.78111
  84 115.474 -72.3824 -9.78111
  85 148.742 -97.7054 98.8960
  86 148.742 -97.7054 98.8960
  87 557.289 -31.9886 19.4228
  88 557.289 -31.9886 19.4228
  89 445.609 9.86819 6.25667
  90 447.423 10.7982 -6.37895
  91 445.609 9.86819 6.25667
  92 447.423 10.7982 -6.37895
  93 637.422 34.3149 24.6031
  94 637.422 34.3149 24.6031
  95 460.511 4.38021 18.7680
  96 460.511 4.38021 18.7680
  97 686.279 50.6572 -24.8631
  98 694.201 42.1229 -52.3884
  99 686.279 50.6572 -24.8631
  100 694.201 42.1229 -52.3884
  101 449.394 7.01478 -23.1613
  102 449.394 7.01478 -23.1613
  103 363.088 -69.9234 -167.067
  104 363.088 -69.9234 -167.067
  105 308.302 -80.6541 176.865
  106 308.302 -80.6541 176.865
  107 566.932 -43.2728 -64.7432
  108 566.932 -43.2728 -64.7432
  109 426.802 -53.0633 -96.9125
  110 426.802 -53.0633 -96.9125
  111 725.336 50.0136 37.9062
  112 725.336 50.0136 37.9062
  113 56.9183 -183.539 -66.7133
  114 56.9183 -183.539 -66.7133
  115 32.9117 -216.885 20.0862
  116 32.9117 -216.885 20.0862
  117 387.147 24.6651 -4.83645
  118 387.147 24.6651 -4.83645
  119 467.503 -18.3958 -37.4057
  120 467.503 -18.3958 -37.4057
  121 769.567 21.4040 -17.5233
  122 769.567 21.4040 -17.5233
  123 89.9649 -179.616 112.889
  124 89.9649 -179.616 112.889
  125 422.531 14.5876 21.5194
  126 422.531 14.5876 21.5194
  127 106.401 -145.268 -124.739
  128 106.401 -145.268 -124.739
  129 559.350 -37.2161 93.6608
  130 559.350 -37.2161 93.6608
  131 783.143 39.1175 -54.6392
  132 783.143 39.1175 -54.6392
  133 41.1608 -249.216 -18.9885
  134 41.1608 -249.216 -18.9885
  135 49.8928 -238.547 49.8770
  136 49.8928 -238.547 49.8770
  137 459.779 4.42280 -10.9909
  138 459.779 4.42280 -10.9909
  139 438.117 15.0407 -0.791692
  140 438.117 15.0407 -0.791692
  141 448.125 7.64718 -0.101671
  142 448.125 7.64718 -0.101671
  143 460.747 -9.35390 32.6188
  144 460.747 -9.35390 32.6188
  145 322.962 -8.36176 76.7768
  146 463.423 -43.0709 65.7610
  147 320.845 18.6678 1.84978
  148 322.962 -8.36176 76.7768
  149 463.423 -43.0709 65.7610
  150 320.845 18.6678 1.84978
  151 417.086 7.55651 -34.3331
  152 417.086 7.55651 -34.3331
  153 764.220 22.0199 13.5993
  154 764.220 22.0199 13.5993
  155 792.158 18.2782 33.5684
  156 793.786 40.5650 68.2580
  157 792.158 18.2782 33.5684
  158 793.786 40.5650 68.2580
  159 452.785 5.15143 3.62499
  160 452.785 5.15143 3.62499
  161 286.687 -11.7361 -65.5264
  162 286.687 -11.7361 -65.5264
  163 452.806 5.01628 -3.55881
  164 452.806 5.01628 -3.55881
  165 455.436 6.08271 9.96709
  166 455.436 6.08271 9.96709
  167 531.900 -4.20850 11.8188
  168 519.043 -18.9403 -2.61246
  169 531.900 -4.20850 11.8188
  170 519.043 -18.9403 -2.61246
  171 571.336 -13.3710 0.444579
  172 571.336 -13.3710 0.444579
  173 438.388 13.6738 11.5564
  174 438.388 13.6738 11.5564
  175 221.683 -23.2217 89.3110
  176 221.683 -23.2217 89.3110
  177 197.545 -9.79776 -56.3910
  178 197.545 -9.79776 -56.3910
  179 442.022 14.7333 -11.0799
  180 442.022 14.7333 -11.0799
</Section>

newXOutput 134

<Section columns = "stress_xx | stress_yy | stress_xy">
  1 457.100 3.15055 -1.79184
  2 456.716 2.44001 1.60998
  3 457.100 3.15055 -1.79184
  4 456.716 2.44001 1.60998
  5 665.307 26.8781 174.765
  6 657.013 22.4223 -163.320
  7 665.307 26.8781 174.765
  8 657.013 22.4223 -163.320
  9 461.570 0.851962 -5.78636
  10 480.302 0.106569 -9.58944
  11 492.721 -5.68801 -12.8483
  12 518.348 -2.63008 6.48802
  13 519.207 16.0229 4.60384
  14 519.735 -2.56826 -8.46668
  15 497.646 -8.80963 12.8699
  16 474.359 2.11663 11.2074
  17 461.994 2.99999 5.11850
  18 454.376 5.19187 0.891131
  19 451.913 5.24809 -0.0682529
  20 454.165 4.78750 -0.809993
  21 461.570 0.851962 -5.78636
  22 480.302 0.106569 -9.58944
  23 492.721 -5.68801 -12.8483
  24 518.348 -2.63008 6.48802
  25 519.207 16.0229 4.60384
  26 519.735 -2.56826 -8.46668
  27 497.646 -8.80963 12.8699
  28 474.359 2.11663 11.2074
  29 461.994 2.99999 5.11850
  30 454.376 5.19187 0.891131
  31 451.913 5.24809 -0.0682529
  32 454.165 4.78750 -0.809993
  33 973.016 8.41844 73.2866
  34 850.979 7.94380 47.3205
  35 818.901 16.0997 18.6095
  36 795.073 9.38173 -4.76053
  37 838.288 2.98452 -17.9665
  38 859.278 16.6288 -42.7652
  39 895.350 62.2430 -91.5822
  40 223.994 -122.470 -200.796
  41 45.8175 -242.904 -85.6816
  42 17.8911 -338.859 -27.9661
  43 11.7857 -360.696 -2.66440
  44 14.5061 -343.050 28.1246
  45 41.9154 -291.314 74.6756
  46 182.550 -123.941 197.415
  47 973.016 8.41844 73.2866
  48 850.979 7.94380 47.3205
  49 818.901 16.0997 18.6095
  50 795.073 9.38173 -4.76053
  51 838.288 2.98452 -17.9665
  52 859.278 16.6288 -42.7652
  53 895.350 62.2430 -91.5822
  54 223.994 -122.470 -200.796
  55 45.8175 -242.904 -85.6816
  56 17.8911 -338.859 -27.9661
  57 11.7857 -360.696 -2.66440
  58 14.5061 -343.050 28.1246
  59 41.9154 -291.314 74.6756
  60 182.550 -123.941 197.415
  61 424.417 17.9972 -7.67815
  62 424.417 17.9972 -7.67815
  63 393.908 5.82572 42.0944
  64 382.586 2.64568 -51.2236
  65 393.908 5.82572 42.0944
  66 382.586 2.64568 -51.2236
  67 222.106 5.23660 14.2975
  68 222.106 5.23660 14.2975
  69 353.802 -66.1453 141.367
  70 353.802 -66.1453 141.367
  71 216.859 -62.4392 -114.276
  72 529.816 -45.3256 -25.2626
  73 587.849 33.5407 -1.86395
  74 561.773 15.8527 -4.94113
  75 216.859 -62.4392 -114.276
  76 529.816 -45.3256 -25.2626
  77 587.849 33.5407 -1.86395
  78 561.773 15.8527 -4.94113
  79 520.869 -24.3608 12.1299
  80 520.869 -24.3608 12.1299
  81 667.860 49.4822 3.91342
  82 667.860 49.4822 3.91342
  83 116.335 -72.8843 -9.85673
  84 116.335 -72.8843 -9.85673
  85 149.827 -98.3952 99.6590
  86 149.827 -98.3952 99.6590
  87 561.234 -32.2092 19.6028
  88 561.234 -32.2092 19.6028
  89 448.813 9.93663 6.29830
  90 450.639 10.8733 -6.42139
  91 448.813 9.93663 6.29830
  92 450.639 10.8733 -6.42139
  93 641.912 34.5784 24.8206
  94 641.912 34.5784 24.8206
  95 463.810 4.41053 18.8980
  96 463.810 4.41053 18.8980
  97 691.097 51.0156 -25.0555
  98 699.049 42.4507 -52.8023
  99 691.097 51.0156 -25.0555
  100 699.049 42.4507 -52.8023
  101 452.622 7.06407 -23.3232
  102 452.622 7.06407 -23.3232
  103 365.645 -70.3819 -168.332
  104 365.645 -70.3819 -168.332
  105 310.480 -81.1885 178.210
  106 310.480 -81.1885 178.210
  107 570.918 -43.5609 -65.2605
  108 570.918 -43.5609 -65.2605
  109 429.849 -53.4483 -97.6275
  110 429.849 -53.4483 -97.6275
  111 730.391 50.3708 38.1887
  112 730.391 50.3708 38.1887
  113 57.3382 -184.862 -67.2470
  114 57.3382 -184.862 -67.2470
  115 33.1507 -218.470 20.2512
  116 33.1507 -218.470 20.2512
  117 389.960 24.8438 -4.86996
  118 389.960 24.8438 -4.86996
  119 470.845 -18.5298 -37.6789
  120 470.845 -18.5298 -37.6789
  121 774.875 21.5477 -17.6441
  122 774.875 21.5477 -17.6441
  123 90.6239 -180.877 113.793
  124 90.6239 -180.877 113.793
  125 425.581 14.6918 21.6698
  126 425.581 14.6918 21.6698
  127 107.181 -146.279 -125.723
  128 107.181 -146.279 -125.723
  129 563.281 -37.4589 94.3834
  130 563.281 -37.4589 94.3834
  131 788.544 39.3927 -55.0342
  132 788.544 39.3927 -55.0342
  133 41.4589 -251.049 -19.1411
  134 41.4589 -251.049 -19.1411
  135 50.2564 -240.281 50.2921
  136 50.2564 -240.281 50.2921
  137 463.073 4.45351 -11.0657
  138 463.073 4.45351 -11.0657
  139 441.273 15.1457 -0.797132
  140 441.273 15.1457 -0.797132
  141 451.345 7.69973 -0.102340
  142 451.345 7.69973 -0.102340
  143 464.046 -9.42229 32.8533
  144 464.046 -9.42229 32.8533
  145 325.318 -8.41849 77.3341
  146 466.725 -43.3829 66.2485
  147 323.201 18.8078 1.86444
  148 325.318 -8.41849 77.3341
  149 466.725 -43.3829 66.2485
  150 323.201 18.8078 1.86444
  151 420.097 7.61104 -34.5749
  152 420.097 7.61104 -34.5749
  153 769.500 22.1663 13.6964
  154 769.500 22.1663 13.6964
  155 797.613 18.4004 33.8011
  156 799.253 40.8778 68.7638
  157 797.613 18.4004 33.8011
  158 799.253 40.8778 68.7638
  159 456.034 5.18690 3.64873
  160 456.034 5.18690 3.64873
  161 288.791 -11.8164 -66.0040
  162 288.791 -11.8164 -66.0040
  163 456.055 5.05082 -3.58210
  164 456.055 5.05082 -3.58210
  165 458.702 6.12510 10.0338
  166 458.702 6.12510 10.0338
  167 535.696 -4.23454 11.8789
  168 522.735 -19.0784 -2.64735
  169 535.696 -4.23454 11.8789
  170 522.735 -19.0784 -2.64735
  171 575.384 -13.4533 0.403232
  172 575.384 -13.4533 0.403232
  173 441.545 13.7699 11.6351
  174 441.545 13.7699 11.6351
  175 223.318 -23.3776 89.9737
  176 223.318 -23.3776 89.9737
  177 199.014 -9.85138 -56.8087
  178 199.014 -9.85138 -56.8087
  179 445.203 14.8369 -11.1557
  180 445.203 14.8369 -11.1557
</Section>

newXOutput 135

<Section columns = "stress_xx | stress_yy | stress_xy">
  1 460.352 3.17199 -1.80341
  2 459.966 2.45653 1.62033
  3 460.352 3.17199 -1.80341
  4 459.966 2.45653 1.62033
  5 669.834 27.1604 176.055
  6 661.510 22.6738 -164.542
  7 669.834 27.1604 176.055
  8 661.510 22.6738 -164.542
  9 464.850 0.857276 -5.82468
  10 483.702 0.107394 -9.65400
  11 496.207 -5.72984 -12.9419
  12 522.023 -2.64881 6.52069
  13 522.910 16.1401 4.63242
  14 523.420 -2.58565 -8.51026
  15 501.163 -8.87380 12.9644
  16 477.721 2.13108 11.2829
  17 465.277 3.02057 5.15182
  18 457.613 5.22704 0.896872
  19 455.135 5.28353 -0.0686817
  20 457.400 4.81990 -0.815217
  21 464.850 0.857276 -5.82468
  22 483.702 0.107394 -9.65400
  23 496.207 -5.72984 -12.9419
  24 522.023 -2.64881 6.52069
  25 522.910 16.1401 4.63242
  26 523.420 -2.58565 -8.51026
  27 501.163 -8.87380 12.9644
  28 477.721 2.13108 11.2829
  29 465.277 3.02057 5.15182
  30 457.613 5.22704 0.896872
  31 455.135 5.28353 -0.0686817
  32 457.400 4.81990 -0.815217
  33 979.527 8.48027 73.7988
  34 856.732 7.98855 47.6466
  35 824.453 16.2066 18.7334
  36 800.480 9.43991 -4.79095
  37 843.941 3.00341 -18.0877
  38 865.084 16.7439 -43.0565
  39 901.406 62.7077 -92.2422
  40 225.553 -123.239 -202.323
  41 46.1478 -244.623 -86.3737
  42 18.0154 -341.371 -28.2005
  43 11.8610 -363.391 -2.68338
  44 14.6021 -345.589 28.3590
  45 42.2160 -293.405 75.2874
  46 183.825 -124.720 198.922
  47 979.527 8.48027 73.7988
  48 856.732 7.98855 47.6466
  49 824.453 16.2066 18.7334
  50 800.480 9.43991 -4.79095
  51 843.941 3.00341 -18.0877
  52 865.084 16.7439 -43.0565
  53 901.406 62.7077 -92.2422
  54 225.553 -123.239 -202.323
  55 46.1478 -244.623 -86.3737
  56 18.0154 -341.371 -28.2005
  57 11.8610 -363.391 -2.68338
  58 14.6021 -345.589 28.3590
  59 42.2160 -293.405 75.2874
  60 183.825 -124.720 198.922
  61 427.460 18.1242 -7.73113
  62 427.460 18.1242 -7.73113
  63 396.739 5.86896 42.3929
  64 385.337 2.66608 -51.5867
  65 396.739 5.86896 42.3929
  66 385.337 2.66608 -51.5867
  67 223.746 5.28789 14.4019
  68 223.746 5.28789 14.4019
  69 356.314 -66.6237 142.406
  70 356.314 -66.6237 142.406
  71 218.430 -62.8758 -115.132
  72 533.544 -45.6485 -25.4690
  73 591.997 33.7860 -1.89669
  74 565.744 15.9706 -4.95308
  75 218.430 -62.8758 -115.132
  76 533.544 -45.6485 -25.4690
  77 591.997 33.7860 -1.89669
  78 565.744 15.9706 -4.95308
  79 524.545 -24.5346 12.2355
  80 524.545 -24.5346 12.2355
  81 672.521 49.8288 3.94939
  82 672.521 49.8288 3.94939
  83 117.197 -73.3855 -9.93238
  84 117.197 -73.3855 -9.93238
  85 150.911 -99.0843 100.422
  86 150.911 -99.0843 100.422
  87 565.174 -32.4295 19.7832
  88 565.174 -32.4295 19.7832
  89 452.015 10.0050 6.33984
  90 453.853 10.9483 -6.46375
  91 452.015 10.0050 6.33984
  92 453.853 10.9483 -6.46375
  93 646.398 34.8419 25.0384
  94 646.398 34.8419 25.0384
  95 467.106 4.44081 19.0278
  96 467.106 4.44081 19.0278
  97 695.909 51.3738 -25.2479
  98 703.891 42.7786 -53.2165
  99 695.909 51.3738 -25.2479
  100 703.891 42.7786 -53.2165
  101 455.846 7.11332 -23.4849
  102 455.846 7.11332 -23.4849
  103 368.199 -70.8393 -169.597
  104 368.199 -70.8393 -169.597
  105 312.656 -81.7218 179.555
  106 312.656 -81.7218 179.555
  107 574.900 -43.8484 -65.7781
  108 574.900 -43.8484 -65.7781
  109 432.894 -53.8331 -98.3421
  110 432.894 -53.8331 -98.3421
  111 735.441 50.7276 38.4711
  112 735.441 50.7276 38.4711
  113 57.7580 -186.183 -67.7811
  114 57.7580 -186.183 -67.7811
  115 33.3896 -220.053 20.4163
  116 33.3896 -220.053 20.4163
  117 392.772 25.0225 -4.90342
  118 392.772 25.0225 -4.90342
  119 474.184 -18.6636 -37.9520
  120 474.184 -18.6636 -37.9520
  121 780.176 21.6911 -17.7648
  122 780.176 21.6911 -17.7648
  123 91.2825 -182.136 114.698
  124 91.2825 -182.136 114.698
  125 428.630 14.7959 21.8201
  126 428.630 14.7959 21.8201
  127 107.962 -147.289 -126.708
  128 107.962 -147.289 -126.708
  129 567.208 -37.7012 95.1062
  130 567.208 -37.7012 95.1062
  131 793.936 39.6677 -55.4289
  132 793.936 39.6677 -55.4289
  133 41.7568 -252.882 -19.2938
  134 41.7568 -252.882 -19.2938
  135 50.6199 -242.014 50.7078
  136 50.6199 -242.014 50.7078
  137 466.364 4.48418 -11.1405
  138 466.364 4.48418 -11.1405
  139 444.428 15.2506 -0.802564
  140 444.428 15.2506 -0.802564
  141 454.563 7.75221 -0.103008
  142 454.563 7.75221 -0.103008
  143 467.342 -9.49063 33.0876
  144 467.342 -9.49063 33.0876
  145 327.672 -8.47514 77.8911
  146 470.025 -43.6947 66.7359
  147 325.557 18.9477 1.87911
  148 327.672 -8.47514 77.8911
  149 470.025 -43.6947 66.7359
  150 325.557 18.9477 1.87911
  151 423.106 7.66554 -34.8165
  152 423.106 7.66554 -34.8165
  153 774.774 22.3124 13.7933
  154 774.774 22.3124 13.7933
  155 803.059 18.5224 34.0335
  156 804.712 41.1906 69.2694
  157 803.059 18.5224 34.0335
  158 804.712 41.1906 69.2694
  159 459.280 5.22231 3.67242
  160 459.280 5.22231 3.67242
  161 290.895 -11.8966 -66.4814
  162 290.895 -11.8966 -66.4814
  163 459.301 5.08530 -3.60534
  164 459.301 5.08530 -3.60534
  165 461.965 6.16743 10.1004
  166 461.965 6.16743 10.1004
  167 539.488 -4.26050 11.9385
  168 526.423 -19.2165 -2.68244
  169 539.488 -4.26050 11.9385
  170 526.423 -19.2165 -2.68244
  171 579.427 -13.5353 0.361287
  172 579.427 -13.5353 0.361287
  173 444.700 13.8659 11.7137
  174 444.700 13.8659 11.7137
  175 224.951 -23.5332 90.6362
  176 224.951 -23.5332 90.6362
  177 200.483 -9.90471 -57.2263
  178 200.483 -9.90471 -57.2263
  179 448.382 14.9404 -11.2314
  180 448.382 14.9404 -11.2314
</Section>

newXOutput 136

<Section columns = "stress_xx | stress_yy | stress_xy">
  1 463.602 3.19339 -1.81496
  2 463.213 2.47303 1.63067
  3 463.602 3.19339 -1.81496
  4 463.213 2.47303 1.63067
  5 674.355 27.4437 177.344
  6 666.001 22.9265 -165.762
  7 674.355 27.4437 177.344
  8 666.001 22.9265 -165.762
  9 468.127 0.862574 -5.86293
  10 487.098 0.108220 -9.71845
  11 499.691 -5.77166 -13.0355
  12 525.695 -2.66753 6.55314
  13 526.610 16.2572 4.66092
  14 527.102 -2.60301 -8.55357
  15 504.678 -8.93794 13.0588
  16 481.080 2.14551 11.3583
  17 468.557 3.04113 5.18508
  18 460.846 5.26215 0.902599
  19 458.354 5.31892 -0.0691093
  20 460.633 4.85225 -0.820429
  21 468.127 0.862574 -5.86293
  22 487.098 0.108220 -9.71845
  23 499.691 -5.77166 -13.0355
  24 525.695 -2.66753 6.55314
  25 526.610 16.2572 4.66092
  26 527.102 -2.60301 -8.55357
  27 504.678 -8.93794 13.0588
  28 481.080 2.14551 11.3583
  29 468.557 3.04113 5.18508
  30 460.846 5.26215 0.902599
  31 458.354 5.31892 -0.0691093
  32 460.633 4.85225 -0.820429
  33 986.027 8.54207 74.3105
  34 862.477 8.03309 47.9723
  35 829.996 16.3134 18.8571
  36 805.878 9.49792 -4.82129
  37 849.586 3.02226 -18.2088
  38 870.880 16.8590 -43.3475
  39 907.452 63.1723 -92.9017
  40 227.110 -124.006 -203.850
  41 46.4778 -246.341 -87.0664
  42 18.1395 -343.882 -28.4353
  43 11.9362 -366.085 -2.70235
  44 14.6980 -348.128 28.5938
  45 42.5165 -295.494 75.9000
  46 185.098 -125.498 200.428
  47 986.027 8.54207 74.3105
  48 862.477 8.03309 47.9723
  49 829.996 16.3134 18.8571
  50 805.878 9.49792 -4.82129
  51 849.586 3.02226 -18.2088
  52 870.880 16.8590 -43.3475
  53 907.452 63.1723 -92.9017
  54 227.110 -124.006 -203.850
  55 46.4778 -246.341 -87.0664
  56 18.1395 -343.882 -28.4353
  57 11.9362 -366.085 -2.70235
  58 14.6980 -348.128 28.5938
  59 42.5165 -295.494 75.9000
  60 185.098 -125.498 200.428
  61 430.502 18.2511 -7.78405
  62 430.502 18.2511 -7.78405
  63 399.568 5.91219 42.6912
  64 388.087 2.68649 -51.9495
  65 399.568 5.91219 42.6912
  66 388.087 2.68649 -51.9495
  67 225.386 5.33933 14.5062
  68 225.386 5.33933 14.5062
  69 358.824 -67.1018 143.444
  70 358.824 -67.1018 143.444
  71 220.001 -63.3119 -115.988
  72 537.268 -45.9710 -25.6756
  73 596.142 34.0312 -1.92968
  74 569.712 16.0885 -4.96471
  75 220.001 -63.3119 -115.988
  76 537.268 -45.9710 -25.6756
  77 596.142 34.0312 -1.92968
  78 569.712 16.0885 -4.96471
  79 528.219 -24.7082 12.3413
  80 528.219 -24.7082 12.3413
  81 677.177 50.1750 3.98544
  82 677.177 50.1750 3.98544
  83 118.058 -73.8860 -10.0080
  84 118.058 -73.8860 -10.0080
  85 151.995 -99.7727 101.186
  86 151.995 -99.7727 101.186
  87 569.111 -32.6496 19.9641
  88 569.111 -32.6496 19.9641
  89 455.215 10.0732 6.38130
  90 457.064 11.0233 -6.50604
  91 455.215 10.0732 6.38130
  92 457.064 11.0233 -6.50604
  93 650.878 35.1054 25.2566
  94 650.878 35.1054 25.2566
  95 470.399 4.47104 19.1574
  96 470.399 4.47104 19.1574
  97 700.716 51.7315 -25.4403
  98 708.727 43.1067 -53.6308
  99 700.716 51.7315 -25.4403
  100 708.727 43.1067 -53.6308
  101 459.069 7.16250 -23.6464
  102 459.069 7.16250 -23.6464
  103 370.751 -71.2957 -170.861
  104 370.751 -71.2957 -170.861
  105 314.830 -82.2541 180.900
  106 314.830 -82.2541 180.900
  107 578.878 -44.1353 -66.2961
  108 578.878 -44.1353 -66.2961
  109 435.935 -54.2176 -99.0564
  110 435.935 -54.2176 -99.0564
  111 740.484 51.0841 38.7534
  112 740.484 51.0841 38.7534
  113 58.1775 -187.504 -68.3156
  114 58.1775 -187.504 -68.3156
  115 33.6283 -221.636 20.5816
  116 33.6283 -221.636 20.5816
  117 395.582 25.2011 -4.93684
  118 395.582 25.2011 -4.93684
  119 477.520 -18.7974 -38.2249
  120 477.520 -18.7974 -38.2249
  121 785.470 21.8343 -17.8853
  122 785.470 21.8343 -17.8853
  123 91.9408 -183.394 115.603
  124 91.9408 -183.394 115.603
  125 431.676 14.8999 21.9702
  126 431.676 14.8999 21.9702
  127 108.742 -148.298 -127.693
  128 108.742 -148.298 -127.693
  129 571.131 -37.9429 95.8291
  130 571.131 -37.9429 95.8291
  131 799.322 39.9424 -55.8234
  132 799.322 39.9424 -55.8234
  133 42.0545 -254.714 -19.4467
  134 42.0545 -254.714 -19.4467
  135 50.9832 -243.746 51.1240
  136 50.9832 -243.746 51.1240
  137 469.652 4.51480 -11.2151
  138 469.652 4.51480 -11.2151
  139 447.580 15.3553 -0.807989
  140 447.580 15.3553 -0.807989
  141 457.778 7.80460 -0.103674
  142 457.778 7.80460 -0.103674
  143 470.635 -9.55895 33.3218
  144 470.635 -9.55895 33.3218
  145 330.026 -8.53169 78.4477
  146 473.322 -44.0063 67.2231
  147 327.911 19.0877 1.89379
  148 330.026 -8.53169 78.4477
  149 473.322 -44.0063 67.2231
  150 327.911 19.0877 1.89379
  151 426.113 7.71999 -35.0578
  152 426.113 7.71999 -35.0578
  153 780.040 22.4583 13.8902
  154 780.040 22.4583 13.8902
  155 808.498 18.6442 34.2656
  156 810.164 41.5035 69.7748
  157 808.498 18.6442 34.2656
  158 810.164 41.5035 69.7748
  159 462.524 5.25768 3.69605
  160 462.524 5.25768 3.69605
  161 292.997 -11.9767 -66.9584
  162 292.997 -11.9767 -66.9584
  163 462.545 5.11973 -3.62852
  164 462.545 5.11973 -3.62852
  165 465.226 6.20971 10.1668
  166 465.226 6.20971 10.1668
  167 543.277 -4.28636 11.9977
  168 530.108 -19.3544 -2.71773
  169 543.277 -4.28636 11.9977
  170 530.108 -19.3544 -2.71773
  171 583.467 -13.6171 0.318746
  172 583.467 -13.6171 0.318746
  173 447.853 13.9618 11.7922
  174 447.853 13.9618 11.7922
  175 226.584 -23.6886 91.2985
  176 226.584 -23.6886 91.2985
  177 201.951 -9.95776 -57.6437
  178 201.951 -9.95776 -57.6437
  179 451.559 15.0438 -11.3070
  180 451.559 15.0438 -11.3070
</Section>

newXOutput 137

<Section columns = "stress_xx | stress_yy | stress_xy">
  1 466.849 3.21476 -1.82648
  2 466.458 2.48950 1.64098
  3 466.849 3.21476 -1.82648
  4 466.458 2.48950 1.64098
  5 678.869 27.7281 178.633
  6 670.486 23.1803 -166.983
  7 678.869 27.7281 178.633
  8 670.486 23.1803 -166.983
  9 471.402 0.867857 -5.90111
  10 490.491 0.109046 -9.78280
  11 503.171 -5.81346 -13.1290
  12 529.363 -2.68622 6.58537
  13 530.308 16.3744 4.68933
  14 530.781 -2.62035 -8.59660
  15 508.190 -9.00205 13.1532
  16 484.436 2.15992 11.4335
  17 471.835 3.06165 5.21827
  18 464.078 5.29722 0.908313
  19 461.571 5.35425 -0.0695358
  20 463.863 4.88455 -0.825630
  21 471.402 0.867857 -5.90111
  22 490.491 0.109046 -9.78280
  23 503.171 -5.81346 -13.1290
  24 529.363 -2.68622 6.58537
  25 530.308 16.3744 4.68933
  26 530.781 -2.62035 -8.59660
  27 508.190 -9.00205 13.1532
  28 484.436 2.15992 11.4335
  29 471.835 3.06165 5.21827
  30 464.078 5.29722 0.908313
  31 461.571 5.35425 -0.0695358
  32 463.863 4.88455 -0.825630
  33 992.516 8.60386 74.8217
  34 868.213 8.07744 48.2976
  35 835.531 16.4200 18.9805
  36 811.269 9.55578 -4.85156
  37 855.222 3.04106 -18.3296
  38 876.668 16.9739 -43.6380
  39 913.489 63.6368 -93.5607
  40 228.665 -124.772 -205.377
  41 46.8076 -248.057 -87.7599
  42 18.2635 -346.392 -28.6705
  43 12.0111 -368.779 -2.72130
  44 14.7937 -350.666 28.8289
  45 42.8168 -297.581 76.5132
  46 186.370 -126.273 201.935
  47 992.516 8.60386 74.8217
  48 868.213 8.07744 48.2976
  49 835.531 16.4200 18.9805
  50 811.269 9.55578 -4.85156
  51 855.222 3.04106 -18.3296
  52 876.668 16.9739 -43.6380
  53 913.489 63.6368 -93.5607
  54 228.665 -124.772 -205.377
  55 46.8076 -248.057 -87.7599
  56 18.2635 -346.392 -28.6705
  57 12.0111 -368.779 -2.72130
  58 14.7937 -350.666 28.8289
  59 42.8168 -297.581 76.5132
  60 186.370 -126.273 201.935
  61 433.541 18.3778 -7.83690
  62 433.541 18.3778 -7.83690
  63 402.395 5.95541 42.9892
  64 390.835 2.70691 -52.3120
  65 402.395 5.95541 42.9892
  66 390.835 2.70691 -52.3120
  67 227.025 5.39094 14.6105
  68 227.025 5.39094 14.6105
  69 361.332 -67.5797 144.483
  70 361.332 -67.5797 144.483
  71 221.570 -63.7475 -116.844
  72 540.989 -46.2934 -25.8824
  73 600.282 34.2763 -1.96291
  74 573.675 16.2063 -4.97600
  75 221.570 -63.7475 -116.844
  76 540.989 -46.2934 -25.8824
  77 600.282 34.2763 -1.96291
  78 573.675 16.2063 -4.97600
  79 531.888 -24.8817 12.4473
  80 531.888 -24.8817 12.4473
  81 681.829 50.5210 4.02156
  82 681.829 50.5210 4.02156
  83 118.919 -74.3859 -10.0837
  84 118.919 -74.3859 -10.0837
  85 153.079 -100.460 101.949
  86 153.079 -100.460 101.949
  87 573.043 -32.8693 20.1454
  88 573.043 -32.8693 20.1454
  89 458.411 10.1414 6.42269
  90 460.272 11.0981 -6.54824
  91 458.411 10.1414 6.42269
  92 460.272 11.0981 -6.54824
  93 655.354 35.3690 25.4753
  94 655.354 35.3690 25.4753
  95 473.690 4.50124 19.2868
  96 473.690 4.50124 19.2868
  97 705.518 52.0889 -25.6328
  98 713.558 43.4348 -54.0452
  99 705.518 52.0889 -25.6328
  100 713.558 43.4348 -54.0452
  101 462.288 7.21164 -23.8077
  102 462.288 7.21164 -23.8077
  103 373.300 -71.7511 -172.126
  104 373.300 -71.7511 -172.126
  105 317.001 -82.7852 182.245
  106 317.001 -82.7852 182.245
  107 582.852 -44.4217 -66.8144
  108 582.852 -44.4217 -66.8144
  109 438.975 -54.6019 -99.7704
  110 438.975 -54.6019 -99.7704
  111 745.521 51.4404 39.0356
  112 745.521 51.4404 39.0356
  113 58.5969 -188.823 -68.8505
  114 58.5969 -188.823 -68.8505
  115 33.8669 -223.218 20.7471
  116 33.8669 -223.218 20.7471
  117 398.390 25.3795 -4.97021
  118 398.390 25.3795 -4.97021
  119 480.853 -18.9312 -38.4977
  120 480.853 -18.9312 -38.4977
  121 790.756 21.9772 -18.0056
  122 790.756 21.9772 -18.0056
  123 92.5987 -184.651 116.510
  124 92.5987 -184.651 116.510
  125 434.720 15.0039 22.1201
  126 434.720 15.0039 22.1201
  127 109.522 -149.305 -128.679
  128 109.522 -149.305 -128.679
  129 575.050 -38.1840 96.5521
  130 575.050 -38.1840 96.5521
  131 804.700 40.2167 -56.2175
  132 804.700 40.2167 -56.2175
  133 42.3520 -256.546 -19.5997
  134 42.3520 -256.546 -19.5997
  135 51.3463 -245.477 51.5407
  136 51.3463 -245.477 51.5407
  137 472.938 4.54539 -11.2896
  138 472.938 4.54539 -11.2896
  139 450.729 15.4600 -0.813405
  140 450.729 15.4600 -0.813405
  141 460.991 7.85693 -0.104339
  142 460.991 7.85693 -0.104339
  143 473.925 -9.62723 33.5557
  144 473.925 -9.62723 33.5557
  145 332.377 -8.58815 79.0039
  146 476.616 -44.3177 67.7102
  147 330.264 19.2276 1.90847
  148 332.377 -8.58815 79.0039
  149 476.616 -44.3177 67.7102
  150 330.264 19.2276 1.90847
  151 429.118 7.77440 -35.2988
  152 429.118 7.77440 -35.2988
  153 785.299 22.6038 13.9870
  154 785.299 22.6038 13.9870
  155 813.929 18.7658 34.4974
  156 815.608 41.8165 70.2800
  157 813.929 18.7658 34.4974
  158 815.608 41.8165 70.2800
  159 465.765 5.29300 3.71964
  160 465.765 5.29300 3.71964
  161 295.098 -12.0566 -67.4351
  162 295.098 -12.0566 -67.4351
  163 465.787 5.15412 -3.65166
  164 465.787 5.15412 -3.65166
  165 468.483 6.25194 10.2332
  166 468.483 6.25194 10.2332
  167 547.063 -4.31215 12.0566
  168 533.790 -19.4923 -2.75321
  169 547.063 -4.31215 12.0566
  170 533.790 -19.4923 -2.75321
  171 587.502 -13.6986 0.275609
  172 587.502 -13.6986 0.275609
  173 451.003 14.0576 11.8705
  174 451.003 14.0576 11.8705
  175 228.216 -23.8436 91.9605
  176 228.216 -23.8436 91.9605
  177 203.419 -10.0105 -58.0610
  178 203.419 -10.0105 -58.0610
  179 454.733 15.1471 -11.3825
  180 454.733 15.1471 -11.3825
</Section>

newXOutput 138

<Section columns = "stress_xx | stress_yy | stress_xy">
  1 470.094 3.23610 -1.83797
  2 469.700 2.50594 1.65126
  3 470.094 3.23610 -1.83797
  4 469.700 2.50594 1.65126
  5 683.376 28.0136 179.921
  6 674.965 23.4352 -168.204
  7 683.376 28.0136 179.921
  8 674.965 23.4352 -168.204
  9 474.674 0.873126 -5.93922
  10 493.882 0.109873 -9.84705
  11 506.648 -5.85525 -13.2225
  12 533.028 -2.70491 6.61739
  13 534.002 16.4914 4.71766
  14 534.456 -2.63765 -8.63937
  15 511.698 -9.06612 13.2475
  16 487.789 2.17431 11.5087
  17 475.109 3.08215 5.25138
  18 467.306 5.33223 0.914014
  19 464.785 5.38953 -0.0699612
  20 467.090 4.91680 -0.830819
  21 474.674 0.873126 -5.93922
  22 493.882 0.109873 -9.84705
  23 506.648 -5.85525 -13.2225
  24 533.028 -2.70491 6.61739
  25 534.002 16.4914 4.71766
  26 534.456 -2.63765 -8.63937
  27 511.698 -9.06612 13.2475
  28 487.789 2.17431 11.5087
  29 475.109 3.08215 5.25138
  30 467.306 5.33223 0.914014
  31 464.785 5.38953 -0.0699612
  32 467.090 4.91680 -0.830819
  33 998.994 8.66562 75.3322
  34 873.940 8.12159 48.6224
  35 841.058 16.5264 19.1037
  36 816.653 9.61347 -4.88176
  37 860.849 3.05981 -18.4503
  38 882.446 17.0886 -43.9280
  39 919.517 64.1012 -94.2192
  40 230.219 -125.535 -206.904
  41 47.1372 -249.772 -88.4540
  42 18.3874 -348.903 -28.9060
  43 12.0859 -371.473 -2.74024
  44 14.8892 -353.204 29.0644
  45 43.1168 -299.667 77.1272
  46 187.640 -127.047 203.442
  47 998.994 8.66562 75.3322
  48 873.940 8.12159 48.6224
  49 841.058 16.5264 19.1037
  50 816.653 9.61347 -4.88176
  51 860.849 3.05981 -18.4503
  52 882.446 17.0886 -43.9280
  53 919.517 64.1012 -94.2192
  54 230.219 -125.535 -206.904
  55 47.1372 -249.772 -88.4540
  56 18.3874 -348.903 -28.9060
  57 12.0859 -371.473 -2.74024
  58 14.8892 -353.204 29.0644
  59 43.1168 -299.667 77.1272
  60 187.640 -127.047 203.442
  61 436.577 18.5044 -7.88968
  62 436.577 18.5044 -7.88968
  63 405.220 5.99862 43.2870
  64 393.581 2.72732 -52.6742
  65 405.220 5.99862 43.2870
  66 393.581 2.72732 -52.6742
  67 228.664 5.44270 14.7147
  68 228.664 5.44270 14.7147
  69 363.837 -68.0574 145.521
  70 363.837 -68.0574 145.521
  71 223.139 -64.1827 -117.700
  72 544.707 -46.6154 -26.0893
  73 604.419 34.5213 -1.99638
  74 577.636 16.3241 -4.98695
  75 223.139 -64.1827 -117.700
  76 544.707 -46.6154 -26.0893
  77 604.419 34.5213 -1.99638
  78 577.636 16.3241 -4.98695
  79 535.554 -25.0551 12.5534
  80 535.554 -25.0551 12.5534
  81 686.474 50.8665 4.05777
  82 686.474 50.8665 4.05777
  83 119.780 -74.8851 -10.1594
  84 119.780 -74.8851 -10.1594
  85 154.162 -101.147 102.713
  86 154.162 -101.147 102.713
  87 576.972 -33.0887 20.3271
  88 576.972 -33.0887 20.3271
  89 461.606 10.2095 6.46399
  90 463.478 11.1728 -6.59036
  91 461.606 10.2095 6.46399
  92 463.478 11.1728 -6.59036
  93 659.825 35.6327 25.6942
  94 659.825 35.6327 25.6942
  95 476.978 4.53139 19.4160
  96 476.978 4.53139 19.4160
  97 710.314 52.4460 -25.8252
  98 718.382 43.7631 -54.4598
  99 710.314 52.4460 -25.8252
  100 718.382 43.7631 -54.4598
  101 465.506 7.26072 -23.9688
  102 465.506 7.26072 -23.9688
  103 375.846 -72.2055 -173.390
  104 375.846 -72.2055 -173.390
  105 319.170 -83.3153 183.590
  106 319.170 -83.3153 183.590
  107 586.821 -44.7076 -67.3330
  108 586.821 -44.7076 -67.3330
  109 442.011 -54.9860 -100.484
  110 442.011 -54.9860 -100.484
  111 750.552 51.7963 39.3177
  112 750.552 51.7963 39.3177
  113 59.0162 -190.141 -69.3858
  114 59.0162 -190.141 -69.3858
  115 34.1054 -224.798 20.9128
  116 34.1054 -224.798 20.9128
  117 401.196 25.5579 -5.00354
  118 401.196 25.5579 -5.00354
  119 484.184 -19.0648 -38.7703
  120 484.184 -19.0648 -38.7703
  121 796.035 22.1199 -18.1257
  122 796.035 22.1199 -18.1257
  123 93.2563 -185.906 117.416
  124 93.2563 -185.906 117.416
  125 437.762 15.1077 22.2698
  126 437.762 15.1077 22.2698
  127 110.301 -150.311 -129.666
  128 110.301 -150.311 -129.666
  129 578.964 -38.4247 97.2753
  130 578.964 -38.4247 97.2753
  131 810.071 40.4908 -56.6113
  132 810.071 40.4908 -56.6113
  133 42.6493 -258.376 -19.7528
  134 42.6493 -258.376 -19.7528
  135 51.7091 -247.207 51.9580
  136 51.7091 -247.207 51.9580
  137 476.221 4.57594 -11.3640
  138 476.221 4.57594 -11.3640
  139 453.877 15.5645 -0.818814
  140 453.877 15.5645 -0.818814
  141 464.201 7.90918 -0.105002
  142 464.201 7.90918 -0.105002
  143 477.213 -9.69547 33.7895
  144 477.213 -9.69547 33.7895
  145 334.728 -8.64453 79.5598
  146 479.907 -44.6289 68.1970
  147 332.616 19.3675 1.92317
  148 334.728 -8.64453 79.5598
  149 479.907 -44.6289 68.1970
  150 332.616 19.3675 1.92317
  151 432.120 7.82878 -35.5395
  152 432.120 7.82878 -35.5395
  153 790.551 22.7491 14.0836
  154 790.551 22.7491 14.0836
  155 819.353 18.8872 34.7289
  156 821.044 42.1295 70.7849
  157 819.353 18.8872 34.7289
  158 821.044 42.1295 70.7849
  159 469.004 5.32826 3.74317
  160 469.004 5.32826 3.74317
  161 297.199 -12.1365 -67.9116
  162 297.199 -12.1365 -67.9116
  163 469.025 5.18846 -3.67475
  164 469.025 5.18846 -3.67475
  165 471.739 6.29411 10.2994
  166 471.739 6.29411 10.2994
  167 550.846 -4.33785 12.1150
  168 537.468 -19.6301 -2.78890
  169 550.846 -4.33785 12.1150
  170 537.468 -19.6301 -2.78890
  171 591.534 -13.7798 0.231879
  172 591.534 -13.7798 0.231879
  173 454.151 14.1533 11.9487
  174 454.151 14.1533 11.9487
  175 229.847 -23.9984 92.6224
  176 229.847 -23.9984 92.6224
  177 204.887 -10.0630 -58.4781
  178 204.887 -10.0630 -58.4781
  179 457.905 15.2503 -11.4578
  180 457.905 15.2503 -11.4578
</Section>

newXOutput 139

<Section columns = "stress_xx | stress_yy | stress_xy">
  1 473.336 3.25741 -1.84943
  2 472.940 2.52237 1.66153
  3 473.336 3.25741 -1.84943
  4 472.940 2.52237 1.66153
  5 687.877 28.3002 181.209
  6 679.437 23.6912 -169.424
  7 687.877 28.3002 181.209
  8 679.437 23.6912 -169.424
  9 477.943 0.878380 -5.97726
  10 497.269 0.110700 -9.91119
  11 510.122 -5.89703 -13.3159
  12 536.690 -2.72357 6.64920
  13 537.694 16.6085 4.74591
  14 538.129 -2.65493 -8.68187
  15 515.203 -9.13017 13.3418
  16 491.140 2.18868 11.5837
  17 478.381 3.10263 5.28443
  18 470.533 5.36719 0.919703
  19 467.996 5.42476 -0.0703854
  20 470.315 4.94900 -0.835996
  21 477.943 0.878380 -5.97726
  22 497.269 0.110700 -9.91119
  23 510.122 -5.89703 -13.3159
  24 536.690 -2.72357 6.64920
  25 537.694 16.6085 4.74591
  26 538.129 -2.65493 -8.68187
  27 515.203 -9.13017 13.3418
  28 491.140 2.18868 11.5837
  29 478.381 3.10263 5.28443
  30 470.533 5.36719 0.919703
  31 467.996 5.42476 -0.0703854
  32 470.315 4.94900 -0.835996
  33 1005.46 8.72736 75.8422
  34 879.659 8.16554 48.9469
  35 846.577 16.6326 19.2267
  36 822.028 9.67100 -4.91189
  37 866.467 3.07853 -18.5708
  38 888.216 17.2032 -44.2177
  39 925.536 64.5656 -94.8773
  40 231.771 -126.295 -208.431
  41 47.4665 -251.485 -89.1488
  42 18.5111 -351.412 -29.1419
  43 12.1605 -374.167 -2.75916
  44 14.9846 -355.741 29.3002
  45 43.4166 -301.751 77.7418
  46 188.909 -127.818 204.950
  47 1005.46 8.72736 75.8422
  48 879.659 8.16554 48.9469
  49 846.577 16.6326 19.2267
  50 822.028 9.67100 -4.91189
  51 866.467 3.07853 -18.5708
  52 888.216 17.2032 -44.2177
  53 925.536 64.5656 -94.8773
  54 231.771 -126.295 -208.431
  55 47.4665 -251.485 -89.1488
  56 18.5111 -351.412 -29.1419
  57 12.1605 -374.167 -2.75916
  58 14.9846 -355.741 29.3002
  59 43.4166 -301.751 77.7418
  60 188.909 -127.818 204.950
  61 439.612 18.6309 -7.94240
  62 439.612 18.6309 -7.94240
  63 408.044 6.04182 43.5845
  64 396.326 2.74775 -53.0361
  65 408.044 6.04182 43.5845
  66 396.326 2.74775 -53.0361
  67 230.303 5.49461 14.8188
  68 230.303 5.49461 14.8188
  69 366.341 -68.5347 146.558
  70 366.341 -68.5347 146.558
  71 224.706 -64.6175 -118.555
  72 548.420 -46.9372 -26.2965
  73 608.552 34.7662 -2.03009
  74 581.592 16.4419 -4.99758
  75 224.706 -64.6175 -118.555
  76 548.420 -46.9372 -26.2965
  77 608.552 34.7662 -2.03009
  78 581.592 16.4419 -4.99758
  79 539.217 -25.2283 12.6598
  80 539.217 -25.2283 12.6598
  81 691.115 51.2118 4.09404
  82 691.115 51.2118 4.09404
  83 120.640 -75.3836 -10.2352
  84 120.640 -75.3836 -10.2352
  85 155.244 -101.834 103.477
  86 155.244 -101.834 103.477
  87 580.897 -33.3078 20.5093
  88 580.897 -33.3078 20.5093
  89 464.798 10.2775 6.50522
  90 466.682 11.2475 -6.63239
  91 464.798 10.2775 6.50522
  92 466.682 11.2475 -6.63239
  93 664.291 35.8964 25.9136
  94 664.291 35.8964 25.9136
  95 480.263 4.56151 19.5451
  96 480.263 4.56151 19.5451
  97 715.104 52.8027 -26.0177
  98 723.202 44.0915 -54.8746
  99 715.104 52.8027 -26.0177
  100 723.202 44.0915 -54.8746
  101 468.720 7.30974 -24.1298
  102 468.720 7.30974 -24.1298
  103 378.389 -72.6589 -174.654
  104 378.389 -72.6589 -174.654
  105 321.337 -83.8443 184.935
  106 321.337 -83.8443 184.935
  107 590.785 -44.9928 -67.8519
  108 590.785 -44.9928 -67.8519
  109 445.045 -55.3698 -101.198
  110 445.045 -55.3698 -101.198
  111 755.577 52.1519 39.5997
  112 755.577 52.1519 39.5997
  113 59.4352 -191.459 -69.9215
  114 59.4352 -191.459 -69.9215
  115 34.3437 -226.378 21.0787
  116 34.3437 -226.378 21.0787
  117 404.000 25.7361 -5.03683
  118 404.000 25.7361 -5.03683
  119 487.511 -19.1984 -39.0428
  120 487.511 -19.1984 -39.0428
  121 801.308 22.2623 -18.2457
  122 801.308 22.2623 -18.2457
  123 93.9135 -187.160 118.324
  124 93.9135 -187.160 118.324
  125 440.802 15.2114 22.4193
  126 440.802 15.2114 22.4193
  127 111.080 -151.316 -130.652
  128 111.080 -151.316 -130.652
  129 582.874 -38.6647 97.9985
  130 582.874 -38.6647 97.9985
  131 815.434 40.7646 -57.0049
  132 815.434 40.7646 -57.0049
  133 42.9465 -260.206 -19.9060
  134 42.9465 -260.206 -19.9060
  135 52.0718 -248.936 52.3759
  136 52.0718 -248.936 52.3759
  137 479.502 4.60645 -11.4383
  138 479.502 4.60645 -11.4383
  139 457.022 15.6689 -0.824215
  140 457.022 15.6689 -0.824215
  141 467.409 7.96135 -0.105664
  142 467.409 7.96135 -0.105664
  143 480.498 -9.76368 34.0231
  144 480.498 -9.76368 34.0231
  145 337.077 -8.70082 80.1153
  146 483.195 -44.9399 68.6837
  147 334.967 19.5074 1.93787
  148 337.077 -8.70082 80.1153
  149 483.195 -44.9399 68.6837
  150 334.967 19.5074 1.93787
  151 435.121 7.88311 -35.7800
  152 435.121 7.88311 -35.7800
  153 795.796 22.8942 14.1802
  154 795.796 22.8942 14.1802
  155 824.770 19.0084 34.9601
  156 826.473 42.4426 71.2897
  157 824.770 19.0084 34.9601
  158 826.473 42.4426 71.2897
  159 472.240 5.36348 3.76666
  160 472.240 5.36348 3.76666
  161 299.298 -12.2162 -68.3878
  162 299.298 -12.2162 -68.3878
  163 472.261 5.22274 -3.69779
  164 472.261 5.22274 -3.69779
  165 474.991 6.33624 10.3655
  166 474.991 6.33624 10.3655
  167 554.625 -4.36346 12.1730
  168 541.143 -19.7678 -2.82478
  169 554.625 -4.36346 12.1730
  170 541.143 -19.7678 -2.82478
  171 595.561 -13.8608 0.187557
  172 595.561 -13.8608 0.187557
  173 457.297 14.2488 12.0268
  174 457.297 14.2488 12.0268
  175 231.478 -24.1530 93.2840
  176 231.478 -24.1530 93.2840
  177 206.354 -10.1152 -58.8951
  178 206.354 -10.1152 -58.8951
  179 461.075 15.3534 -11.5331
  180 461.075 15.3534 -11.5331
</Section>

newXOutput 140

<Section columns = "stress_xx | stress_yy | stress_xy">
  1 476.576 3.27869 -1.86087
  2 476.177 2.53876 1.67177
  3 476.576 3.27869 -1.86087
  4 476.177 2.53876 1.67177
  5 692.371 28.5879 182.497
  6 683.904 23.9484 -170.644
  7 692.371 28.5879 182.497
  8 683.904 23.9484 -170.644
  9 481.210 0.883619 -6.01522
  10 500.654 0.111527 -9.97523
  11 513.593 -5.93879 -13.4093
  12 540.349 -2.74223 6.68080
  13 541.383 16.7255 4.77408
  14 541.798 -2.67218 -8.72411
  15 518.705 -9.19419 13.4361
  16 494.487 2.20303 11.6585
  17 481.650 3.12307 5.31740
  18 473.756 5.40209 0.925378
  19 471.205 5.45992 -0.0708086
  20 473.537 4.98115 -0.841162
  21 481.210 0.883619 -6.01522
  22 500.654 0.111527 -9.97523
  23 513.593 -5.93879 -13.4093
  24 540.349 -2.74223 6.68080
  25 541.383 16.7255 4.77408
  26 541.798 -2.67218 -8.72411
  27 518.705 -9.19419 13.4361
  28 494.487 2.20303 11.6585
  29 481.650 3.12307 5.31740
  30 473.756 5.40209 0.925378
  31 471.205 5.45992 -0.0708086
  32 473.537 4.98115 -0.841162
  33 1011.92 8.78908 76.3515
  34 885.369 8.20930 49.2709
  35 852.088 16.7386 19.3495
  36 827.396 9.72838 -4.94194
  37 872.077 3.09719 -18.6911
  38 893.977 17.3177 -44.5069
  39 931.545 65.0299 -95.5348
  40 233.321 -127.054 -209.959
  41 47.7957 -253.197 -89.8442
  42 18.6346 -353.921 -29.3781
  43 12.2349 -376.860 -2.77807
  44 15.0797 -358.277 29.5363
  45 43.7162 -303.834 78.3572
  46 190.177 -128.586 206.457
  47 1011.92 8.78908 76.3515
  48 885.369 8.20930 49.2709
  49 852.088 16.7386 19.3495
  50 827.396 9.72838 -4.94194
  51 872.077 3.09719 -18.6911
  52 893.977 17.3177 -44.5069
  53 931.545 65.0299 -95.5348
  54 233.321 -127.054 -209.959
  55 47.7957 -253.197 -89.8442
  56 18.6346 -353.921 -29.3781
  57 12.2349 -376.860 -2.77807
  58 15.0797 -358.277 29.5363
  59 43.7162 -303.834 78.3572
  60 190.177 -128.586 206.457
  61 442.645 18.7573 -7.99505
  62 442.645 18.7573 -7.99505
  63 410.866 6.08501 43.8817
  64 399.069 2.76817 -53.3977
  65 410.866 6.08501 43.8817
  66 399.069 2.76817 -53.3977
  67 231.941 5.54668 14.9230
  68 231.941 5.54668 14.9230
  69 368.842 -69.0118 147.596
  70 368.842 -69.0118 147.596
  71 226.273 -65.0518 -119.411
  72 552.131 -47.2588 -26.5040
  73 612.681 35.0110 -2.06405
  74 585.545 16.5597 -5.00787
  75 226.273 -65.0518 -119.411
  76 552.131 -47.2588 -26.5040
  77 612.681 35.0110 -2.06405
  78 585.545 16.5597 -5.00787
  79 542.877 -25.4014 12.7663
  80 542.877 -25.4014 12.7663
  81 695.751 51.5567 4.13040
  82 695.751 51.5567 4.13040
  83 121.500 -75.8815 -10.3109
  84 121.500 -75.8815 -10.3109
  85 156.325 -102.519 104.241
  86 156.325 -102.519 104.241
  87 584.818 -33.5266 20.6918
  88 584.818 -33.5266 20.6918
  89 467.987 10.3454 6.54636
  90 469.883 11.3221 -6.67435
  91 467.987 10.3454 6.54636
  92 469.883 11.3221 -6.67435
  93 668.753 36.1601 26.1334
  94 668.753 36.1601 26.1334
  95 483.546 4.59158 19.6740
  96 483.546 4.59158 19.6740
  97 719.890 53.1591 -26.2102
  98 728.015 44.4199 -55.2895
  99 719.890 53.1591 -26.2102
  100 728.015 44.4199 -55.2895
  101 471.932 7.35871 -24.2905
  102 471.932 7.35871 -24.2905
  103 380.930 -73.1113 -175.918
  104 380.930 -73.1113 -175.918
  105 323.501 -84.3722 186.280
  106 323.501 -84.3722 186.280
  107 594.746 -45.2775 -68.3712
  108 594.746 -45.2775 -68.3712
  109 448.076 -55.7534 -101.911
  110 448.076 -55.7534 -101.911
  111 760.596 52.5072 39.8816
  112 760.596 52.5072 39.8816
  113 59.8541 -192.775 -70.4576
  114 59.8541 -192.775 -70.4576
  115 34.5819 -227.958 21.2448
  116 34.5819 -227.958 21.2448
  117 406.803 25.9142 -5.07007
  118 406.803 25.9142 -5.07007
  119 490.836 -19.3319 -39.3151
  120 490.836 -19.3319 -39.3151
  121 806.572 22.4045 -18.3655
  122 806.572 22.4045 -18.3655
  123 94.5703 -188.412 119.232
  124 94.5703 -188.412 119.232
  125 443.839 15.3151 22.5687
  126 443.839 15.3151 22.5687
  127 111.859 -152.319 -131.640
  128 111.859 -152.319 -131.640
  129 586.779 -38.9043 98.7219
  130 586.779 -38.9043 98.7219
  131 820.790 41.0381 -57.3981
  132 820.790 41.0381 -57.3981
  133 43.2434 -262.035 -20.0594
  134 43.2434 -262.035 -20.0594
  135 52.4342 -250.664 52.7942
  136 52.4342 -250.664 52.7942
  137 482.779 4.63693 -11.5125
  138 482.779 4.63693 -11.5125
  139 460.164 15.7731 -0.829608
  140 460.164 15.7731 -0.829608
  141 470.615 8.01345 -0.106325
  142 470.615 8.01345 -0.106325
  143 483.780 -9.83185 34.2565
  144 483.780 -9.83185 34.2565
  145 339.425 -8.75702 80.6704
  146 486.480 -45.2507 69.1703
  147 337.317 19.6472 1.95258
  148 339.425 -8.75702 80.6704
  149 486.480 -45.2507 69.1703
  150 337.317 19.6472 1.95258
  151 438.119 7.93741 -36.0203
  152 438.119 7.93741 -36.0203
  153 801.034 23.0389 14.2767
  154 801.034 23.0389 14.2767
  155 830.178 19.1293 35.1910
  156 831.895 42.7557 71.7942
  157 830.178 19.1293 35.1910
  158 831.895 42.7557 71.7942
  159 475.473 5.39865 3.79009
  160 475.473 5.39865 3.79009
  161 301.397 -12.2958 -68.8637
  162 301.397 -12.2958 -68.8637
  163 475.495 5.25699 -3.72077
  164 475.495 5.25699 -3.72077
  165 478.242 6.37831 10.4315
  166 478.242 6.37831 10.4315
  167 558.401 -4.38899 12.2307
  168 544.814 -19.9054 -2.86085
  169 558.401 -4.38899 12.2307
  170 544.814 -19.9054 -2.86085
  171 599.585 -13.9414 0.142644
  172 599.585 -13.9414 0.142644
  173 460.440 14.3443 12.1048
  174 460.440 14.3443 12.1048
  175 233.108 -24.3072 93.9454
  176 233.108 -24.3072 93.9454
  177 207.821 -10.1672 -59.3119
  178 207.821 -10.1672 -59.3119
  179 464.242 15.4563 -11.6082
  180 464.242 15.4563 -11.6082
</Section>

newXOutput 141

<Section columns = "stress_xx | stress_yy | stress_xy">
  1 479.813 3.29994 -1.87229
  2 479.411 2.55513 1.68198
  3 479.813 3.29994 -1.87229
  4 479.411 2.55513 1.68198
  5 696.859 28.8767 183.783
  6 688.364 24.2067 -171.863
  7 696.859 28.8767 183.783
  8 688.364 24.2067 -171.863
  9 484.474 0.888843 -6.05312
  10 504.035 0.112355 -10.0392
  11 517.061 -5.98054 -13.5026
  12 544.005 -2.76086 6.71218
  13 545.068 16.8424 4.80216
  14 545.464 -2.68940 -8.76608
  15 522.204 -9.25818 13.5303
  16 497.832 2.21736 11.7333
  17 484.917 3.14349 5.35031
  18 476.977 5.43694 0.931041
  19 474.412 5.49504 -0.0712306
  20 476.757 5.01325 -0.846315
  21 484.474 0.888843 -6.05312
  22 504.035 0.112355 -10.0392
  23 517.061 -5.98054 -13.5026
  24 544.005 -2.76086 6.71218
  25 545.068 16.8424 4.80216
  26 545.464 -2.68940 -8.76608
  27 522.204 -9.25818 13.5303
  28 497.832 2.21736 11.7333
  29 484.917 3.14349 5.35031
  30 476.977 5.43694 0.931041
  31 474.412 5.49504 -0.0712306
  32 476.757 5.01325 -0.846315
  33 1018.36 8.85078 76.8603
  34 891.070 8.25286 49.5944
  35 857.590 16.8444 19.4720
  36 832.756 9.78560 -4.97192
  37 877.678 3.11582 -18.8112
  38 899.729 17.4321 -44.7957
  39 937.546 65.4941 -96.1919
  40 234.869 -127.810 -211.486
  41 48.1246 -254.906 -90.5403
  42 18.7580 -356.429 -29.6147
  43 12.3091 -379.553 -2.79696
  44 15.1747 -360.813 29.7728
  45 44.0155 -305.915 78.9733
  46 191.443 -129.353 207.965
  47 1018.36 8.85078 76.8603
  48 891.070 8.25286 49.5944
  49 857.590 16.8444 19.4720
  50 832.756 9.78560 -4.97192
  51 877.678 3.11582 -18.8112
  52 899.729 17.4321 -44.7957
  53 937.546 65.4941 -96.1919
  54 234.869 -127.810 -211.486
  55 48.1246 -254.906 -90.5403
  56 18.7580 -356.429 -29.6147
  57 12.3091 -379.553 -2.79696
  58 15.1747 -360.813 29.7728
  59 44.0155 -305.915 78.9733
  60 191.443 -129.353 207.965
  61 445.675 18.8836 -8.04763
  62 445.675 18.8836 -8.04763
  63 413.685 6.12819 44.1787
  64 401.809 2.78860 -53.7589
  65 413.685 6.12819 44.1787
  66 401.809 2.78860 -53.7589
  67 233.579 5.59890 15.0270
  68 233.579 5.59890 15.0270
  69 371.341 -69.4887 148.633
  70 371.341 -69.4887 148.633
  71 227.839 -65.4856 -120.267
  72 555.837 -47.5801 -26.7116
  73 616.806 35.2558 -2.09824
  74 589.495 16.6775 -5.01784
  75 227.839 -65.4856 -120.267
  76 555.837 -47.5801 -26.7116
  77 616.806 35.2558 -2.09824
  78 589.495 16.6775 -5.01784
  79 546.533 -25.5744 12.8730
  80 546.533 -25.5744 12.8730
  81 700.382 51.9012 4.16683
  82 700.382 51.9012 4.16683
  83 122.361 -76.3787 -10.3867
  84 122.361 -76.3787 -10.3867
  85 157.406 -103.204 105.005
  86 157.406 -103.204 105.005
  87 588.735 -33.7450 20.8748
  88 588.735 -33.7450 20.8748
  89 471.174 10.4132 6.58743
  90 473.081 11.3965 -6.71623
  91 471.174 10.4132 6.58743
  92 473.081 11.3965 -6.71623
  93 673.210 36.4239 26.3535
  94 673.210 36.4239 26.3535
  95 486.826 4.62162 19.8028
  96 486.826 4.62162 19.8028
  97 724.670 53.5151 -26.4028
  98 732.822 44.7485 -55.7046
  99 724.670 53.5151 -26.4028
  100 732.822 44.7485 -55.7046
  101 475.142 7.40763 -24.4510
  102 475.142 7.40763 -24.4510
  103 383.468 -73.5626 -177.182
  104 383.468 -73.5626 -177.182
  105 325.664 -84.8991 187.625
  106 325.664 -84.8991 187.625
  107 598.702 -45.5616 -68.8908
  108 598.702 -45.5616 -68.8908
  109 451.104 -56.1368 -102.624
  110 451.104 -56.1368 -102.624
  111 765.608 52.8623 40.1634
  112 765.608 52.8623 40.1634
  113 60.2728 -194.091 -70.9941
  114 60.2728 -194.091 -70.9941
  115 34.8199 -229.536 21.4110
  116 34.8199 -229.536 21.4110
  117 409.604 26.0922 -5.10327
  118 409.604 26.0922 -5.10327
  119 494.158 -19.4653 -39.5872
  120 494.158 -19.4653 -39.5872
  121 811.830 22.5465 -18.4852
  122 811.830 22.5465 -18.4852
  123 95.2268 -189.663 120.141
  124 95.2268 -189.663 120.141
  125 446.874 15.4187 22.7179
  126 446.874 15.4187 22.7179
  127 112.637 -153.321 -132.628
  128 112.637 -153.321 -132.628
  129 590.681 -39.1432 99.4454
  130 590.681 -39.1432 99.4454
  131 826.139 41.3113 -57.7910
  132 826.139 41.3113 -57.7910
  133 43.5401 -263.863 -20.2128
  134 43.5401 -263.863 -20.2128
  135 52.7964 -252.390 53.2132
  136 52.7964 -252.390 53.2132
  137 486.054 4.66736 -11.5865
  138 486.054 4.66736 -11.5865
  139 463.305 15.8772 -0.834993
  140 463.305 15.8772 -0.834993
  141 473.817 8.06547 -0.106984
  142 473.817 8.06547 -0.106984
  143 487.060 -9.89999 34.4897
  144 487.060 -9.89999 34.4897
  145 341.772 -8.81314 81.2252
  146 489.762 -45.5612 69.6566
  147 339.666 19.7871 1.96730
  148 341.772 -8.81314 81.2252
  149 489.762 -45.5612 69.6566
  150 339.666 19.7871 1.96730
  151 441.115 7.99166 -36.2603
  152 441.115 7.99166 -36.2603
  153 806.265 23.1834 14.3731
  154 806.265 23.1834 14.3731
  155 835.580 19.2500 35.4215
  156 837.309 43.0689 72.2985
  157 835.580 19.2500 35.4215
  158 837.309 43.0689 72.2985
  159 478.704 5.43377 3.81348
  160 478.704 5.43377 3.81348
  161 303.494 -12.3753 -69.3394
  162 303.494 -12.3753 -69.3394
  163 478.726 5.29118 -3.74371
  164 478.726 5.29118 -3.74371
  165 481.489 6.42034 10.4974
  166 481.489 6.42034 10.4974
  167 562.173 -4.41443 12.2879
  168 548.482 -20.0430 -2.89712
  169 562.173 -4.41443 12.2879
  170 548.482 -20.0430 -2.89712
  171 603.604 -14.0218 0.0971417
  172 603.604 -14.0218 0.0971417
  173 463.581 14.4397 12.1826
  174 463.581 14.4397 12.1826
  175 234.737 -24.4612 94.6066
  176 234.737 -24.4612 94.6066
  177 209.287 -10.2188 -59.7286
  178 209.287 -10.2188 -59.7286
  179 467.406 15.5592 -11.6832
  180 467.406 15.5592 -11.6832
</Section>

newXOutput 142

<Section columns = "stress_xx | stress_yy | stress_xy">
  1 483.047 3.32116 -1.88368
  2 482.643 2.57148 1.69218
  3 483.047 3.32116 -1.88368
  4 482.643 2.57148 1.69218
  5 701.340 29.1666 185.070
  6 692.818 24.4662 -173.083
  7 701.340 29.1666 185.070
  8 692.818 24.4662 -173.083
  9 487.735 0.894053 -6.09095
  10 507.414 0.113184 -10.1030
  11 520.526 -6.02227 -13.5959
  12 547.657 -2.77948 6.74335
  13 548.751 16.9593 4.83017
  14 549.127 -2.70660 -8.80778
  15 525.700 -9.32214 13.6245
  16 501.174 2.23167 11.8080
  17 488.181 3.16388 5.38315
  18 480.196 5.47174 0.936690
  19 477.616 5.53010 -0.0716515
  20 479.974 5.04530 -0.851458
  21 487.735 0.894053 -6.09095
  22 507.414 0.113184 -10.1030
  23 520.526 -6.02227 -13.5959
  24 547.657 -2.77948 6.74335
  25 548.751 16.9593 4.83017
  26 549.127 -2.70660 -8.80778
  27 525.700 -9.32214 13.6245
  28 501.174 2.23167 11.8080
  29 488.181 3.16388 5.38315
  30 480.196 5.47174 0.936690
  31 477.616 5.53010 -0.0716515
  32 479.974 5.04530 -0.851458
  33 1024.80 8.91246 77.3685
  34 896.762 8.29622 49.9176
  35 863.084 16.9501 19.5944
  36 838.108 9.84266 -5.00183
  37 883.270 3.13440 -18.9310
  38 905.473 17.5463 -45.0840
  39 943.537 65.9582 -96.8485
  40 236.415 -128.565 -213.014
  41 48.4532 -256.615 -91.2371
  42 18.8813 -358.937 -29.8517
  43 12.3831 -382.246 -2.81583
  44 15.2695 -363.348 30.0096
  45 44.3147 -307.995 79.5902
  46 192.708 -130.118 209.473
  47 1024.80 8.91246 77.3685
  48 896.762 8.29622 49.9176
  49 863.084 16.9501 19.5944
  50 838.108 9.84266 -5.00183
  51 883.270 3.13440 -18.9310
  52 905.473 17.5463 -45.0840
  53 943.537 65.9582 -96.8485
  54 236.415 -128.565 -213.014
  55 48.4532 -256.615 -91.2371
  56 18.8813 -358.937 -29.8517
  57 12.3831 -382.246 -2.81583
  58 15.2695 -363.348 30.0096
  59 44.3147 -307.995 79.5902
  60 192.708 -130.118 209.473
  61 448.704 19.0097 -8.10015
  62 448.704 19.0097 -8.10015
  63 416.503 6.17136 44.4755
  64 404.548 2.80904 -54.1199
  65 416.503 6.17136 44.4755
  66 404.548 2.80904 -54.1199
  67 235.216 5.65128 15.1310
  68 235.216 5.65128 15.1310
  69 373.838 -69.9652 149.669
  70 373.838 -69.9652 149.669
  71 229.404 -65.9190 -121.122
  72 559.540 -47.9011 -26.9194
  73 620.928 35.5004 -2.13267
  74 593.441 16.7952 -5.02747
  75 229.404 -65.9190 -121.122
  76 559.540 -47.9011 -26.9194
  77 620.928 35.5004 -2.13267
  78 593.441 16.7952 -5.02747
  79 550.186 -25.7472 12.9799
  80 550.186 -25.7472 12.9799
  81 705.008 52.2454 4.20334
  82 705.008 52.2454 4.20334
  83 123.221 -76.8753 -10.4625
  84 123.221 -76.8753 -10.4625
  85 158.486 -103.888 105.769
  86 158.486 -103.888 105.769
  87 592.648 -33.9632 21.0583
  88 592.648 -33.9632 21.0583
  89 474.359 10.4810 6.62842
  90 476.277 11.4709 -6.75803
  91 474.359 10.4810 6.62842
  92 476.277 11.4709 -6.75803
  93 677.662 36.6877 26.5740
  94 677.662 36.6877 26.5740
  95 490.103 4.65161 19.9313
  96 490.103 4.65161 19.9313
  97 729.444 53.8708 -26.5953
  98 737.624 45.0772 -56.1199
  99 729.444 53.8708 -26.5953
  100 737.624 45.0772 -56.1199
  101 478.349 7.45650 -24.6114
  102 478.349 7.45650 -24.6114
  103 386.003 -74.0130 -178.446
  104 386.003 -74.0130 -178.446
  105 327.824 -85.4248 188.970
  106 327.824 -85.4248 188.970
  107 602.654 -45.8452 -69.4107
  108 602.654 -45.8452 -69.4107
  109 454.130 -56.5199 -103.336
  110 454.130 -56.5199 -103.336
  111 770.615 53.2170 40.4451
  112 770.615 53.2170 40.4451
  113 60.6914 -195.405 -71.5310
  114 60.6914 -195.405 -71.5310
  115 35.0578 -231.113 21.5774
  116 35.0578 -231.113 21.5774
  117 412.404 26.2700 -5.13642
  118 412.404 26.2700 -5.13642
  119 497.477 -19.5986 -39.8592
  120 497.477 -19.5986 -39.8592
  121 817.081 22.6882 -18.6046
  122 817.081 22.6882 -18.6046
  123 95.8830 -190.912 121.051
  124 95.8830 -190.912 121.051
  125 449.908 15.5221 22.8669
  126 449.908 15.5221 22.8669
  127 113.415 -154.322 -133.616
  128 113.415 -154.322 -133.616
  129 594.578 -39.3817 100.169
  130 594.578 -39.3817 100.169
  131 831.480 41.5842 -58.1836
  132 831.480 41.5842 -58.1836
  133 43.8367 -265.690 -20.3665
  134 43.8367 -265.690 -20.3665
  135 53.1584 -254.116 53.6326
  136 53.1584 -254.116 53.6326
  137 489.326 4.69776 -11.6604
  138 489.326 4.69776 -11.6604
  139 466.443 15.9812 -0.840371
  140 466.443 15.9812 -0.840371
  141 477.018 8.11742 -0.107642
  142 477.018 8.11742 -0.107642
  143 490.337 -9.96809 34.7228
  144 490.337 -9.96809 34.7228
  145 344.117 -8.86917 81.7797
  146 493.041 -45.8716 70.1428
  147 342.014 19.9269 1.98203
  148 344.117 -8.86917 81.7797
  149 493.041 -45.8716 70.1428
  150 342.014 19.9269 1.98203
  151 444.109 8.04588 -36.5000
  152 444.109 8.04588 -36.5000
  153 811.489 23.3276 14.4694
  154 811.489 23.3276 14.4694
  155 840.973 19.3705 35.6518
  156 842.715 43.3822 72.8025
  157 840.973 19.3705 35.6518
  158 842.715 43.3822 72.8025
  159 481.932 5.46883 3.83681
  160 481.932 5.46883 3.83681
  161 305.591 -12.4547 -69.8147
  162 305.591 -12.4547 -69.8147
  163 481.954 5.32533 -3.76660
  164 481.954 5.32533 -3.76660
  165 484.734 6.46231 10.5631
  166 484.734 6.46231 10.5631
  167 565.943 -4.43979 12.3448
  168 552.146 -20.1805 -2.93359
  169 565.943 -4.43979 12.3448
  170 552.146 -20.1805 -2.93359
  171 607.620 -14.1019 0.0510521
  172 607.620 -14.1019 0.0510521
  173 466.719 14.5350 12.2603
  174 466.719 14.5350 12.2603
  175 236.366 -24.6149 95.2676
  176 236.366 -24.6149 95.2676
  177 210.753 -10.2702 -60.1451
  178 210.753 -10.2702 -60.1451
  179 470.568 15.6619 -11.7581
  180 470.568 15.6619 -11.7581
</Section>

newXOutput 143

<Section columns = "stress_xx | stress_yy | stress_xy">
  1 486.279 3.34235 -1.89504
  2 485.873 2.58780 1.70235
  3 486.279 3.34235 -1.89504
  4 485.873 2.58780 1.70235
  5 705.815 29.4575 186.356
  6 697.266 24.7267 -174.302
  7 705.815 29.4575 186.356
  8 697.266 24.7267 -174.302
  9 490.994 0.899248 -6.12870
  10 510.789 0.114013 -10.1667
  11 523.988 -6.06400 -13.6891
  12 551.307 -2.79809 6.77431
  13 552.431 17.0762 4.85809
  14 552.787 -2.72377 -8.84921
  15 529.192 -9.38607 13.7187
  16 504.513 2.24596 11.8825
  17 491.442 3.18424 5.41592
  18 483.412 5.50649 0.942327
  19 480.818 5.56510 -0.0720713
  20 483.189 5.07731 -0.856588
  21 490.994 0.899248 -6.12870
  22 510.789 0.114013 -10.1667
  23 523.988 -6.06400 -13.6891
  24 551.307 -2.79809 6.77431
  25 552.431 17.0762 4.85809
  26 552.787 -2.72377 -8.84921
  27 529.192 -9.38607 13.7187
  28 504.513 2.24596 11.8825
  29 491.442 3.18424 5.41592
  30 483.412 5.50649 0.942327
  31 480.818 5.56510 -0.0720713
  32 483.189 5.07731 -0.856588
  33 1031.22 8.97411 77.8762
  34 902.446 8.33939 50.2403
  35 868.570 17.0555 19.7165
  36 843.453 9.89956 -5.03167
  37 888.854 3.15293 -19.0507
  38 911.207 17.6604 -45.3720
  39 949.519 66.4223 -97.5046
  40 237.959 -129.317 -214.542
  41 48.7817 -258.321 -91.9346
  42 19.0044 -361.444 -30.0890
  43 12.4570 -384.938 -2.83468
  44 15.3640 -365.883 30.2468
  45 44.6136 -310.073 80.2077
  46 193.971 -130.880 210.981
  47 1031.22 8.97411 77.8762
  48 902.446 8.33939 50.2403
  49 868.570 17.0555 19.7165
  50 843.453 9.89956 -5.03167
  51 888.854 3.15293 -19.0507
  52 911.207 17.6604 -45.3720
  53 949.519 66.4223 -97.5046
  54 237.959 -129.317 -214.542
  55 48.7817 -258.321 -91.9346
  56 19.0044 -361.444 -30.0890
  57 12.4570 -384.938 -2.83468
  58 15.3640 -365.883 30.2468
  59 44.6136 -310.073 80.2077
  60 193.971 -130.880 210.981
  61 451.730 19.1358 -8.15260
  62 451.730 19.1358 -8.15260
  63 419.319 6.21452 44.7720
  64 407.286 2.82948 -54.4805
  65 419.319 6.21452 44.7720
  66 407.286 2.82948 -54.4805
  67 236.853 5.70382 15.2350
  68 236.853 5.70382 15.2350
  69 376.333 -70.4415 150.705
  70 376.333 -70.4415 150.705
  71 230.969 -66.3520 -121.977
  72 563.240 -48.2219 -27.1274
  73 625.045 35.7449 -2.16734
  74 597.383 16.9130 -5.03678
  75 230.969 -66.3520 -121.977
  76 563.240 -48.2219 -27.1274
  77 625.045 35.7449 -2.16734
  78 597.383 16.9130 -5.03678
  79 553.835 -25.9199 13.0870
  80 553.835 -25.9199 13.0870
  81 709.628 52.5892 4.23992
  82 709.628 52.5892 4.23992
  83 124.081 -77.3712 -10.5383
  84 124.081 -77.3712 -10.5383
  85 159.566 -104.571 106.534
  86 159.566 -104.571 106.534
  87 596.557 -34.1810 21.2421
  88 596.557 -34.1810 21.2421
  89 477.541 10.5486 6.66932
  90 479.471 11.5452 -6.79975
  91 477.541 10.5486 6.66932
  92 479.471 11.5452 -6.79975
  93 682.109 36.9516 26.7949
  94 682.109 36.9516 26.7949
  95 493.377 4.68157 20.0597
  96 493.377 4.68157 20.0597
  97 734.214 54.2261 -26.7879
  98 742.420 45.4060 -56.5353
  99 734.214 54.2261 -26.7879
  100 742.420 45.4060 -56.5353
  101 481.554 7.50531 -24.7715
  102 481.554 7.50531 -24.7715
  103 388.535 -74.4624 -179.710
  104 388.535 -74.4624 -179.710
  105 329.981 -85.9495 190.314
  106 329.981 -85.9495 190.314
  107 606.601 -46.1282 -69.9309
  108 606.601 -46.1282 -69.9309
  109 457.153 -56.9027 -104.048
  110 457.153 -56.9027 -104.048
  111 775.615 53.5714 40.7267
  112 775.615 53.5714 40.7267
  113 61.1098 -196.719 -72.0683
  114 61.1098 -196.719 -72.0683
  115 35.2956 -232.690 21.7441
  116 35.2956 -232.690 21.7441
  117 415.201 26.4478 -5.16954
  118 415.201 26.4478 -5.16954
  119 500.793 -19.7319 -40.1311
  120 500.793 -19.7319 -40.1311
  121 822.324 22.8296 -18.7239
  122 822.324 22.8296 -18.7239
  123 96.5388 -192.160 121.961
  124 96.5388 -192.160 121.961
  125 452.939 15.6255 23.0157
  126 452.939 15.6255 23.0157
  127 114.192 -155.322 -134.605
  128 114.192 -155.322 -134.605
  129 598.470 -39.6196 100.893
  130 598.470 -39.6196 100.893
  131 836.815 41.8568 -58.5759
  132 836.815 41.8568 -58.5759
  133 44.1330 -267.517 -20.5202
  134 44.1330 -267.517 -20.5202
  135 53.5202 -255.840 54.0526
  136 53.5202 -255.840 54.0526
  137 492.596 4.72811 -11.7343
  138 492.596 4.72811 -11.7343
  139 469.578 16.0851 -0.845740
  140 469.578 16.0851 -0.845740
  141 480.216 8.16930 -0.108299
  142 480.216 8.16930 -0.108299
  143 493.611 -10.0362 34.9556
  144 493.611 -10.0362 34.9556
  145 346.461 -8.92511 82.3337
  146 496.317 -46.1818 70.6289
  147 344.360 20.0666 1.99676
  148 346.461 -8.92511 82.3337
  149 496.317 -46.1818 70.6289
  150 344.360 20.0666 1.99676
  151 447.101 8.10006 -36.7394
  152 447.101 8.10006 -36.7394
  153 816.706 23.4716 14.5656
  154 816.706 23.4716 14.5656
  155 846.360 19.4908 35.8817
  156 848.114 43.6955 73.3064
  157 846.360 19.4908 35.8817
  158 848.114 43.6955 73.3064
  159 485.158 5.50386 3.86009
  160 485.158 5.50386 3.86009
  161 307.686 -12.5340 -70.2898
  162 307.686 -12.5340 -70.2898
  163 485.180 5.35942 -3.78944
  164 485.180 5.35942 -3.78944
  165 487.976 6.50423 10.6287
  166 487.976 6.50423 10.6287
  167 569.709 -4.46507 12.4012
  168 555.808 -20.3179 -2.97025
  169 569.709 -4.46507 12.4012
  170 555.808 -20.3179 -2.97025
  171 611.631 -14.1818 0.00437656
  172 611.631 -14.1818 0.00437656
  173 469.855 14.6301 12.3379
  174 469.855 14.6301 12.3379
  175 237.994 -24.7684 95.9283
  176 237.994 -24.7684 95.9283
  177 212.219 -10.3213 -60.5615
  178 212.219 -10.3213 -60.5615
  179 473.728 15.7645 -11.8329
  180 473.728 15.7645 -11.8329
</Section>

newXOutput 144

<Section columns = "stress_xx | stress_yy | stress_xy">
  1 489.508 3.36351 -1.90638
  2 489.099 2.60410 1.71249
  3 489.508 3.36351 -1.90638
  4 489.099 2.60410 1.71249
  5 710.283 29.7495 187.642
  6 701.708 24.9884 -175.521
  7 710.283 29.7495 187.642
  8 701.708 24.9884 -175.521
  9 494.250 0.904429 -6.16639
  10 514.162 0.114842 -10.2304
  11 527.447 -6.10570 -13.7823
  12 554.953 -2.81668 6.80505
  13 556.109 17.1930 4.88593
  14 556.443 -2.74090 -8.89038
  15 532.682 -9.44997 13.8128
  16 507.849 2.26023 11.9569
  17 494.701 3.20458 5.44862
  18 486.625 5.54118 0.947951
  19 484.017 5.60005 -0.0724899
  20 486.401 5.10926 -0.861708
  21 494.250 0.904429 -6.16639
  22 514.162 0.114842 -10.2304
  23 527.447 -6.10570 -13.7823
  24 554.953 -2.81668 6.80505
  25 556.109 17.1930 4.88593
  26 556.443 -2.74090 -8.89038
  27 532.682 -9.44997 13.8128
  28 507.849 2.26023 11.9569
  29 494.701 3.20458 5.44862
  30 486.625 5.54118 0.947951
  31 484.017 5.60005 -0.0724899
  32 486.401 5.10926 -0.861708
  33 1037.63 9.03575 78.3832
  34 908.121 8.38237 50.5626
  35 874.048 17.1608 19.8384
  36 848.790 9.95631 -5.06144
  37 894.429 3.17142 -19.1703
  38 916.933 17.7744 -45.6595
  39 955.491 66.8863 -98.1602
  40 239.502 -130.067 -216.070
  41 49.1099 -260.027 -92.6327
  42 19.1274 -363.951 -30.3267
  43 12.5306 -387.630 -2.85352
  44 15.4585 -368.416 30.4843
  45 44.9123 -312.150 80.8259
  46 195.233 -131.640 212.489
  47 1037.63 9.03575 78.3832
  48 908.121 8.38237 50.5626
  49 874.048 17.1608 19.8384
  50 848.790 9.95631 -5.06144
  51 894.429 3.17142 -19.1703
  52 916.933 17.7744 -45.6595
  53 955.491 66.8863 -98.1602
  54 239.502 -130.067 -216.070
  55 49.1099 -260.027 -92.6327
  56 19.1274 -363.951 -30.3267
  57 12.5306 -387.630 -2.85352
  58 15.4585 -368.416 30.4843
  59 44.9123 -312.150 80.8259
  60 195.233 -131.640 212.489
  61 454.754 19.2617 -8.20499
  62 454.754 19.2617 -8.20499
  63 422.133 6.25767 45.0682
  64 410.021 2.84993 -54.8408
  65 422.133 6.25767 45.0682
  66 410.021 2.84993 -54.8408
  67 238.489 5.75650 15.3389
  68 238.489 5.75650 15.3389
  69 378.826 -70.9176 151.741
  70 378.826 -70.9176 151.741
  71 232.532 -66.7844 -122.833
  72 566.936 -48.5425 -27.3356
  73 629.159 35.9894 -2.20225
  74 601.322 17.0307 -5.04576
  75 232.532 -66.7844 -122.833
  76 566.936 -48.5425 -27.3356
  77 629.159 35.9894 -2.20225
  78 601.322 17.0307 -5.04576
  79 557.481 -26.0925 13.1943
  80 557.481 -26.0925 13.1943
  81 714.244 52.9328 4.27658
  82 714.244 52.9328 4.27658
  83 124.940 -77.8665 -10.6141
  84 124.940 -77.8665 -10.6141
  85 160.645 -105.254 107.299
  86 160.645 -105.254 107.299
  87 600.462 -34.3986 21.4264
  88 600.462 -34.3986 21.4264
  89 480.721 10.6162 6.71015
  90 482.662 11.6194 -6.84138
  91 480.721 10.6162 6.71015
  92 482.662 11.6194 -6.84138
  93 686.551 37.2155 27.0162
  94 686.551 37.2155 27.0162
  95 496.649 4.71148 20.1880
  96 496.649 4.71148 20.1880
  97 738.978 54.5811 -26.9805
  98 747.211 45.7349 -56.9509
  99 738.978 54.5811 -26.9805
  100 747.211 45.7349 -56.9509
  101 484.756 7.55406 -24.9315
  102 484.756 7.55406 -24.9315
  103 391.065 -74.9107 -180.974
  104 391.065 -74.9107 -180.974
  105 332.137 -86.4732 191.659
  106 332.137 -86.4732 191.659
  107 610.544 -46.4106 -70.4515
  108 610.544 -46.4106 -70.4515
  109 460.174 -57.2853 -104.760
  110 460.174 -57.2853 -104.760
  111 780.609 53.9255 41.0081
  112 780.609 53.9255 41.0081
  113 61.5280 -198.031 -72.6059
  114 61.5280 -198.031 -72.6059
  115 35.5332 -234.266 21.9109
  116 35.5332 -234.266 21.9109
  117 417.997 26.6254 -5.20260
  118 417.997 26.6254 -5.20260
  119 504.107 -19.8651 -40.4028
  120 504.107 -19.8651 -40.4028
  121 827.561 22.9709 -18.8431
  122 827.561 22.9709 -18.8431
  123 97.1942 -193.407 122.872
  124 97.1942 -193.407 122.872
  125 455.967 15.7288 23.1644
  126 455.967 15.7288 23.1644
  127 114.969 -156.320 -135.594
  128 114.969 -156.320 -135.594
  129 602.359 -39.8569 101.617
  130 602.359 -39.8569 101.617
  131 842.141 42.1291 -58.9679
  132 842.141 42.1291 -58.9679
  133 44.4292 -269.342 -20.6741
  134 44.4292 -269.342 -20.6741
  135 53.8818 -257.564 54.4731
  136 53.8818 -257.564 54.4731
  137 495.863 4.75843 -11.8080
  138 495.863 4.75843 -11.8080
  139 472.712 16.1889 -0.851102
  140 472.712 16.1889 -0.851102
  141 483.411 8.22110 -0.108954
  142 483.411 8.22110 -0.108954
  143 496.882 -10.1042 35.1883
  144 496.882 -10.1042 35.1883
  145 348.804 -8.98097 82.8875
  146 499.591 -46.4918 71.1147
  147 346.706 20.2064 2.01151
  148 348.804 -8.98097 82.8875
  149 499.591 -46.4918 71.1147
  150 346.706 20.2064 2.01151
  151 450.091 8.15420 -36.9787
  152 450.091 8.15420 -36.9787
  153 821.916 23.6152 14.6617
  154 821.916 23.6152 14.6617
  155 851.738 19.6109 36.1113
  156 853.505 44.0089 73.8100
  157 851.738 19.6109 36.1113
  158 853.505 44.0089 73.8100
  159 488.381 5.53883 3.88332
  160 488.381 5.53883 3.88332
  161 309.781 -12.6132 -70.7646
  162 309.781 -12.6132 -70.7646
  163 488.403 5.39347 -3.81223
  164 488.403 5.39347 -3.81223
  165 491.215 6.54610 10.6942
  166 491.215 6.54610 10.6942
  167 573.471 -4.49026 12.4573
  168 559.465 -20.4552 -3.00710
  169 573.471 -4.49026 12.4573
  170 559.465 -20.4552 -3.00710
  171 615.639 -14.2614 -0.0428835
  172 615.639 -14.2614 -0.0428835
  173 472.989 14.7252 12.4154
  174 472.989 14.7252 12.4154
  175 239.622 -24.9216 96.5888
  176 239.622 -24.9216 96.5888
  177 213.684 -10.3722 -60.9777
  178 213.684 -10.3722 -60.9777
  179 476.886 15.8670 -11.9076
  180 476.886 15.8670 -11.9076
</Section>

newXOutput 145

<Section columns = "stress_xx | stress_yy | stress_xy">
  1 492.734 3.38463 -1.91770
  2 492.323 2.62037 1.72261
  3 492.734 3.38463 -1.91770
  4 492.323 2.62037 1.72261
  5 714.744 30.0426 188.927
  6 706.144 25.2513 -176.740
  7 714.744 30.0426 188.927
  8 706.144 25.2513 -176.740
  9 497.503 0.909595 -6.20400
  10 517.532 0.115672 -10.2939
  11 530.903 -6.14740 -13.8754
  12 558.596 -2.83526 6.83559
  13 559.783 17.3097 4.91369
  14 560.097 -2.75801 -8.93129
  15 536.168 -9.51385 13.9068
  16 511.182 2.27448 12.0312
  17 497.957 3.22489 5.48125
  18 489.836 5.57582 0.953563
  19 487.213 5.63495 -0.0729075
  20 489.611 5.14117 -0.866815
  21 497.503 0.909595 -6.20400
  22 517.532 0.115672 -10.2939
  23 530.903 -6.14740 -13.8754
  24 558.596 -2.83526 6.83559
  25 559.783 17.3097 4.91369
  26 560.097 -2.75801 -8.93129
  27 536.168 -9.51385 13.9068
  28 511.182 2.27448 12.0312
  29 497.957 3.22489 5.48125
  30 489.836 5.57582 0.953563
  31 487.213 5.63495 -0.0729075
  32 489.611 5.14117 -0.866815
  33 1044.04 9.09736 78.8897
  34 913.787 8.42515 50.8845
  35 879.518 17.2659 19.9601
  36 854.119 10.0129 -5.09113
  37 899.995 3.18987 -19.2896
  38 922.650 17.8882 -45.9466
  39 961.455 67.3502 -98.8153
  40 241.043 -130.814 -217.598
  41 49.4379 -261.730 -93.3314
  42 19.2503 -366.457 -30.5647
  43 12.6041 -390.322 -2.87235
  44 15.5527 -370.950 30.7221
  45 45.2107 -314.225 81.4449
  46 196.493 -132.398 213.998
  47 1044.04 9.09736 78.8897
  48 913.787 8.42515 50.8845
  49 879.518 17.2659 19.9601
  50 854.119 10.0129 -5.09113
  51 899.995 3.18987 -19.2896
  52 922.650 17.8882 -45.9466
  53 961.455 67.3502 -98.8153
  54 241.043 -130.814 -217.598
  55 49.4379 -261.730 -93.3314
  56 19.2503 -366.457 -30.5647
  57 12.6041 -390.322 -2.87235
  58 15.5527 -370.950 30.7221
  59 45.2107 -314.225 81.4449
  60 196.493 -132.398 213.998
  61 457.776 19.3875 -8.25731
  62 457.776 19.3875 -8.25731
  63 424.946 6.30081 45.3641
  64 412.755 2.87037 -55.2008
  65 424.946 6.30081 45.3641
  66 412.755 2.87037 -55.2008
  67 240.125 5.80934 15.4428
  68 240.125 5.80934 15.4428
  69 381.317 -71.3934 152.776
  70 381.317 -71.3934 152.776
  71 234.095 -67.2165 -123.688
  72 570.628 -48.8628 -27.5441
  73 633.269 36.2337 -2.23739
  74 605.257 17.1484 -5.05441
  75 234.095 -67.2165 -123.688
  76 570.628 -48.8628 -27.5441
  77 633.269 36.2337 -2.23739
  78 605.257 17.1484 -5.05441
  79 561.124 -26.2649 13.3017
  80 561.124 -26.2649 13.3017
  81 718.855 53.2759 4.31331
  82 718.855 53.2759 4.31331
  83 125.800 -78.3611 -10.6900
  84 125.800 -78.3611 -10.6900
  85 161.724 -105.936 108.064
  86 161.724 -105.936 108.064
  87 604.364 -34.6158 21.6111
  88 604.364 -34.6158 21.6111
  89 483.898 10.6836 6.75091
  90 485.850 11.6935 -6.88294
  91 483.898 10.6836 6.75091
  92 485.850 11.6935 -6.88294
  93 690.989 37.4794 27.2378
  94 690.989 37.4794 27.2378
  95 499.918 4.74136 20.3160
  96 499.918 4.74136 20.3160
  97 743.736 54.9357 -27.1731
  98 751.995 46.0639 -57.3666
  99 743.736 54.9357 -27.1731
  100 751.995 46.0639 -57.3666
  101 487.955 7.60277 -25.0913
  102 487.955 7.60277 -25.0913
  103 393.591 -75.3581 -182.237
  104 393.591 -75.3581 -182.237
  105 334.290 -86.9957 193.004
  106 334.290 -86.9957 193.004
  107 614.483 -46.6925 -70.9723
  108 614.483 -46.6925 -70.9723
  109 463.192 -57.6677 -105.472
  110 463.192 -57.6677 -105.472
  111 785.597 54.2794 41.2895
  112 785.597 54.2794 41.2895
  113 61.9461 -199.342 -73.1440
  114 61.9461 -199.342 -73.1440
  115 35.7707 -235.840 22.0779
  116 35.7707 -235.840 22.0779
  117 420.791 26.8029 -5.23563
  118 420.791 26.8029 -5.23563
  119 507.417 -19.9982 -40.6743
  120 507.417 -19.9982 -40.6743
  121 832.790 23.1118 -18.9620
  122 832.790 23.1118 -18.9620
  123 97.8493 -194.652 123.783
  124 97.8493 -194.652 123.783
  125 458.994 15.8320 23.3129
  126 458.994 15.8320 23.3129
  127 115.745 -157.317 -136.584
  128 115.745 -157.317 -136.584
  129 606.243 -40.0937 102.341
  130 606.243 -40.0937 102.341
  131 847.461 42.4011 -59.3596
  132 847.461 42.4011 -59.3596
  133 44.7252 -271.167 -20.8280
  134 44.7252 -271.167 -20.8280
  135 54.2432 -259.286 54.8942
  136 54.2432 -259.286 54.8942
  137 499.127 4.78871 -11.8815
  138 499.127 4.78871 -11.8815
  139 475.843 16.2925 -0.856456
  140 475.843 16.2925 -0.856456
  141 486.604 8.27283 -0.109608
  142 486.604 8.27283 -0.109608
  143 500.151 -10.1722 35.4208
  144 500.151 -10.1722 35.4208
  145 351.146 -9.03674 83.4408
  146 502.861 -46.8015 71.6004
  147 349.050 20.3461 2.02626
  148 351.146 -9.03674 83.4408
  149 502.861 -46.8015 71.6004
  150 349.050 20.3461 2.02626
  151 453.078 8.20830 -37.2176
  152 453.078 8.20830 -37.2176
  153 827.119 23.7587 14.7578
  154 827.119 23.7587 14.7578
  155 857.110 19.7308 36.3406
  156 858.889 44.3223 74.3134
  157 857.110 19.7308 36.3406
  158 858.889 44.3223 74.3134
  159 491.601 5.57375 3.90651
  160 491.601 5.57375 3.90651
  161 311.874 -12.6922 -71.2391
  162 311.874 -12.6922 -71.2391
  163 491.624 5.42748 -3.83497
  164 491.624 5.42748 -3.83497
  165 494.452 6.58791 10.7596
  166 494.452 6.58791 10.7596
  167 577.230 -4.51537 12.5130
  168 563.120 -20.5925 -3.04415
  169 577.230 -4.51537 12.5130
  170 563.120 -20.5925 -3.04415
  171 619.643 -14.3407 -0.0907267
  172 619.643 -14.3407 -0.0907267
  173 476.120 14.8201 12.4928
  174 476.120 14.8201 12.4928
  175 241.249 -25.0745 97.2491
  176 241.249 -25.0745 97.2491
  177 215.148 -10.4227 -61.3938
  178 215.148 -10.4227 -61.3938
  179 480.041 15.9694 -11.9821
  180 480.041 15.9694 -11.9821
</Section>

newXOutput 146

<Section columns = "stress_xx | stress_yy | stress_xy">
  1 495.958 3.40573 -1.92899
  2 495.545 2.63662 1.73271
  3 495.958 3.40573 -1.92899
  4 495.545 2.63662 1.73271
  5 719.199 30.3368 190.211
  6 710.573 25.5152 -177.958
  7 719.199 30.3368 190.211
  8 710.573 25.5152 -177.958
  9 500.754 0.914746 -6.24155
  10 520.898 0.116503 -10.3573
  11 534.356 -6.18908 -13.9685
  12 562.236 -2.85382 6.86592
  13 563.455 17.4264 4.94137
  14 563.747 -2.77510 -8.97193
  15 539.651 -9.57769 14.0009
  16 514.512 2.28871 12.1053
  17 501.210 3.24517 5.51381
  18 493.045 5.61041 0.959161
  19 490.407 5.66979 -0.0733239
  20 492.818 5.17303 -0.871911
  21 500.754 0.914746 -6.24155
  22 520.898 0.116503 -10.3573
  23 534.356 -6.18908 -13.9685
  24 562.236 -2.85382 6.86592
  25 563.455 17.4264 4.94137
  26 563.747 -2.77510 -8.97193
  27 539.651 -9.57769 14.0009
  28 514.512 2.28871 12.1053
  29 501.210 3.24517 5.51381
  30 493.045 5.61041 0.959161
  31 490.407 5.66979 -0.0733239
  32 492.818 5.17303 -0.871911
  33 1050.43 9.15895 79.3956
  34 919.445 8.46774 51.2060
  35 884.980 17.3709 20.0816
  36 859.441 10.0693 -5.12075
  37 905.553 3.20827 -19.4087
  38 928.358 18.0019 -46.2332
  39 967.409 67.8140 -99.4699
  40 242.582 -131.560 -219.126
  41 49.7657 -263.432 -94.0309
  42 19.3729 -368.962 -30.8031
  43 12.6774 -393.014 -2.89116
  44 15.6467 -373.482 30.9603
  45 45.5090 -316.299 82.0645
  46 197.752 -133.154 215.506
  47 1050.43 9.15895 79.3956
  48 919.445 8.46774 51.2060
  49 884.980 17.3709 20.0816
  50 859.441 10.0693 -5.12075
  51 905.553 3.20827 -19.4087
  52 928.358 18.0019 -46.2332
  53 967.409 67.8140 -99.4699
  54 242.582 -131.560 -219.126
  55 49.7657 -263.432 -94.0309
  56 19.3729 -368.962 -30.8031
  57 12.6774 -393.014 -2.89116
  58 15.6467 -373.482 30.9603
  59 45.5090 -316.299 82.0645
  60 197.752 -133.154 215.506
  61 460.796 19.5132 -8.30956
  62 460.796 19.5132 -8.30956
  63 427.756 6.34394 45.6599
  64 415.487 2.89083 -55.5605
  65 427.756 6.34394 45.6599
  66 415.487 2.89083 -55.5605
  67 241.760 5.86233 15.5467
  68 241.760 5.86233 15.5467
  69 383.806 -71.8689 153.811
  70 383.806 -71.8689 153.811
  71 235.656 -67.6481 -124.543
  72 574.317 -49.1828 -27.7527
  73 637.375 36.4780 -2.27277
  74 609.189 17.2661 -5.06273
  75 235.656 -67.6481 -124.543
  76 574.317 -49.1828 -27.7527
  77 637.375 36.4780 -2.27277
  78 609.189 17.2661 -5.06273
  79 564.763 -26.4372 13.4093
  80 564.763 -26.4372 13.4093
  81 723.460 53.6188 4.35011
  82 723.460 53.6188 4.35011
  83 126.659 -78.8551 -10.7658
  84 126.659 -78.8551 -10.7658
  85 162.802 -106.617 108.829
  86 162.802 -106.617 108.829
  87 608.261 -34.8327 21.7962
  88 608.261 -34.8327 21.7962
  89 487.073 10.7510 6.79158
  90 489.036 11.7675 -6.92442
  91 487.073 10.7510 6.79158
  92 489.036 11.7675 -6.92442
  93 695.422 37.7434 27.4598
  94 695.422 37.7434 27.4598
  95 503.184 4.77120 20.4439
  96 503.184 4.77120 20.4439
  97 748.489 55.2900 -27.3657
  98 756.774 46.3930 -57.7825
  99 748.489 55.2900 -27.3657
  100 756.774 46.3930 -57.7825
  101 491.152 7.65142 -25.2509
  102 491.152 7.65142 -25.2509
  103 396.115 -75.8044 -183.501
  104 396.115 -75.8044 -183.501
  105 336.441 -87.5172 194.349
  106 336.441 -87.5172 194.349
  107 618.418 -46.9738 -71.4935
  108 618.418 -46.9738 -71.4935
  109 466.207 -58.0499 -106.184
  110 466.207 -58.0499 -106.184
  111 790.579 54.6329 41.5707
  112 790.579 54.6329 41.5707
  113 62.3639 -200.653 -73.6825
  114 62.3639 -200.653 -73.6825
  115 36.0080 -237.414 22.2450
  116 36.0080 -237.414 22.2450
  117 423.583 26.9803 -5.26860
  118 423.583 26.9803 -5.26860
  119 510.725 -20.1312 -40.9457
  120 510.725 -20.1312 -40.9457
  121 838.012 23.2526 -19.0808
  122 838.012 23.2526 -19.0808
  123 98.5040 -195.895 124.695
  124 98.5040 -195.895 124.695
  125 462.019 15.9351 23.4612
  126 462.019 15.9351 23.4612
  127 116.521 -158.312 -137.575
  128 116.521 -158.312 -137.575
  129 610.123 -40.3300 103.065
  130 610.123 -40.3300 103.065
  131 852.773 42.6729 -59.7509
  132 852.773 42.6729 -59.7509
  133 45.0209 -272.991 -20.9822
  134 45.0209 -272.991 -20.9822
  135 54.6044 -261.007 55.3158
  136 54.6044 -261.007 55.3158
  137 502.388 4.81895 -11.9550
  138 502.388 4.81895 -11.9550
  139 478.971 16.3960 -0.861803
  140 478.971 16.3960 -0.861803
  141 489.794 8.32449 -0.110260
  142 489.794 8.32449 -0.110260
  143 503.417 -10.2402 35.6531
  144 503.417 -10.2402 35.6531
  145 353.486 -9.09242 83.9938
  146 506.128 -47.1111 72.0859
  147 351.394 20.4858 2.04102
  148 353.486 -9.09242 83.9938
  149 506.128 -47.1111 72.0859
  150 351.394 20.4858 2.04102
  151 456.064 8.26236 -37.4563
  152 456.064 8.26236 -37.4563
  153 832.315 23.9018 14.8537
  154 832.315 23.9018 14.8537
  155 862.474 19.8505 36.5696
  156 864.265 44.6358 74.8166
  157 862.474 19.8505 36.5696
  158 864.265 44.6358 74.8166
  159 494.819 5.60862 3.92964
  160 494.819 5.60862 3.92964
  161 313.967 -12.7711 -71.7134
  162 313.967 -12.7711 -71.7134
  163 494.842 5.46143 -3.85766
  164 494.842 5.46143 -3.85766
  165 497.687 6.62968 10.8249
  166 497.687 6.62968 10.8249
  167 580.986 -4.54039 12.5682
  168 566.771 -20.7296 -3.08139
  169 580.986 -4.54039 12.5682
  170 566.771 -20.7296 -3.08139
  171 623.643 -14.4197 -0.139151
  172 623.643 -14.4197 -0.139151
  173 479.249 14.9150 12.5700
  174 479.249 14.9150 12.5700
  175 242.875 -25.2271 97.9092
  176 242.875 -25.2271 97.9092
  177 216.613 -10.4730 -61.8097
  178 216.613 -10.4730 -61.8097
  179 483.193 16.0717 -12.0566
  180 483.193 16.0717 -12.0566
</Section>

newXOutput 147

<Section columns = "stress_xx | stress_yy | stress_xy">
  1 499.179 3.42679 -1.94025
  2 498.764 2.65284 1.74279
  3 499.179 3.42679 -1.94025
  4 498.764 2.65284 1.74279
  5 723.648 30.6320 191.495
  6 714.997 25.7803 -179.176
  7 723.648 30.6320 191.495
  8 714.997 25.7803 -179.176
  9 504.001 0.919883 -6.27903
  10 524.262 0.117334 -10.4206
  11 537.805 -6.23075 -14.0616
  12 565.873 -2.87236 6.89603
  13 567.123 17.5431 4.96897
  14 567.394 -2.79215 -9.01231
  15 543.132 -9.64150 14.0949
  16 517.840 2.30292 12.1794
  17 504.460 3.26543 5.54630
  18 496.250 5.64495 0.964747
  19 493.599 5.70457 -0.0737393
  20 496.022 5.20483 -0.876996
  21 504.001 0.919883 -6.27903
  22 524.262 0.117334 -10.4206
  23 537.805 -6.23075 -14.0616
  24 565.873 -2.87236 6.89603
  25 567.123 17.5431 4.96897
  26 567.394 -2.79215 -9.01231
  27 543.132 -9.64150 14.0949
  28 517.840 2.30292 12.1794
  29 504.460 3.26543 5.54630
  30 496.250 5.64495 0.964747
  31 493.599 5.70457 -0.0737393
  32 496.022 5.20483 -0.876996
  33 1056.81 9.22051 79.9009
  34 925.095 8.51013 51.5270
  35 890.434 17.4756 20.2028
  36 864.755 10.1256 -5.15031
  37 911.102 3.22663 -19.5276
  38 934.058 18.1155 -46.5194
  39 973.355 68.2778 -100.124
  40 244.119 -132.304 -220.654
  41 50.0933 -265.132 -94.7310
  42 19.4955 -371.467 -31.0418
  43 12.7505 -395.705 -2.90995
  44 15.7406 -376.014 31.1988
  45 45.8070 -318.371 82.6849
  46 199.009 -133.908 217.015
  47 1056.81 9.22051 79.9009
  48 925.095 8.51013 51.5270
  49 890.434 17.4756 20.2028
  50 864.755 10.1256 -5.15031
  51 911.102 3.22663 -19.5276
  52 934.058 18.1155 -46.5194
  53 973.355 68.2778 -100.124
  54 244.119 -132.304 -220.654
  55 50.0933 -265.132 -94.7310
  56 19.4955 -371.467 -31.0418
  57 12.7505 -395.705 -2.90995
  58 15.7406 -376.014 31.1988
  59 45.8070 -318.371 82.6849
  60 199.009 -133.908 217.015
  61 463.814 19.6388 -8.36175
  62 463.814 19.6388 -8.36175
  63 430.565 6.38706 45.9553
  64 418.217 2.91129 -55.9199
  65 430.565 6.38706 45.9553
  66 418.217 2.91129 -55.9199
  67 243.395 5.91548 15.6504
  68 243.395 5.91548 15.6504
  69 386.292 -72.3442 154.846
  70 386.292 -72.3442 154.846
  71 237.217 -68.0792 -125.398
  72 578.002 -49.5026 -27.9615
  73 641.477 36.7221 -2.30838
  74 613.117 17.3837 -5.07073
  75 237.217 -68.0792 -125.398
  76 578.002 -49.5026 -27.9615
  77 641.477 36.7221 -2.30838
  78 613.117 17.3837 -5.07073
  79 568.399 -26.6094 13.5171
  80 568.399 -26.6094 13.5171
  81 728.061 53.9612 4.38699
  82 728.061 53.9612 4.38699
  83 127.518 -79.3484 -10.8417
  84 127.518 -79.3484 -10.8417
  85 163.879 -107.298 109.594
  86 163.879 -107.298 109.594
  87 612.155 -35.0494 21.9817
  88 612.155 -35.0494 21.9817
  89 490.245 10.8183 6.83218
  90 492.220 11.8414 -6.96582
  91 490.245 10.8183 6.83218
  92 492.220 11.8414 -6.96582
  93 699.850 38.0074 27.6822
  94 699.850 38.0074 27.6822
  95 506.448 4.80100 20.5716
  96 506.448 4.80100 20.5716
  97 753.237 55.6439 -27.5584
  98 761.547 46.7222 -58.1985
  99 753.237 55.6439 -27.5584
  100 761.547 46.7222 -58.1985
  101 494.347 7.70001 -25.4102
  102 494.347 7.70001 -25.4102
  103 398.637 -76.2498 -184.764
  104 398.637 -76.2498 -184.764
  105 338.590 -88.0376 195.694
  106 338.590 -88.0376 195.694
  107 622.348 -47.2545 -72.0150
  108 622.348 -47.2545 -72.0150
  109 469.220 -58.4318 -106.895
  110 469.220 -58.4318 -106.895
  111 795.555 54.9861 41.8518
  112 795.555 54.9861 41.8518
  113 62.7817 -201.962 -74.2214
  114 62.7817 -201.962 -74.2214
  115 36.2452 -238.987 22.4124
  116 36.2452 -238.987 22.4124
  117 426.374 27.1576 -5.30154
  118 426.374 27.1576 -5.30154
  119 514.030 -20.2642 -41.2170
  120 514.030 -20.2642 -41.2170
  121 843.227 23.3931 -19.1994
  122 843.227 23.3931 -19.1994
  123 99.1583 -197.137 125.608
  124 99.1583 -197.137 125.608
  125 465.041 16.0382 23.6093
  126 465.041 16.0382 23.6093
  127 117.297 -159.307 -138.566
  128 117.297 -159.307 -138.566
  129 613.998 -40.5657 103.789
  130 613.998 -40.5657 103.789
  131 858.078 42.9443 -60.1420
  132 858.078 42.9443 -60.1420
  133 45.3165 -274.815 -21.1364
  134 45.3165 -274.815 -21.1364
  135 54.9653 -262.727 55.7379
  136 54.9653 -262.727 55.7379
  137 505.647 4.84915 -12.0284
  138 505.647 4.84915 -12.0284
  139 482.098 16.4994 -0.867142
  140 482.098 16.4994 -0.867142
  141 492.982 8.37607 -0.110911
  142 492.982 8.37607 -0.110911
  143 506.680 -10.3081 35.8852
  144 506.680 -10.3081 35.8852
  145 355.824 -9.14802 84.5465
  146 509.393 -47.4205 72.5713
  147 353.736 20.6254 2.05578
  148 355.824 -9.14802 84.5465
  149 509.393 -47.4205 72.5713
  150 353.736 20.6254 2.05578
  151 459.047 8.31638 -37.6947
  152 459.047 8.31638 -37.6947
  153 837.504 24.0447 14.9495
  154 837.504 24.0447 14.9495
  155 867.830 19.9699 36.7983
  156 869.634 44.9494 75.3195
  157 867.830 19.9699 36.7983
  158 869.634 44.9494 75.3195
  159 498.035 5.64345 3.95272
  160 498.035 5.64345 3.95272
  161 316.058 -12.8500 -72.1873
  162 316.058 -12.8500 -72.1873
  163 498.057 5.49534 -3.88030
  164 498.057 5.49534 -3.88030
  165 500.918 6.67140 10.8900
  166 500.918 6.67140 10.8900
  167 584.739 -4.56533 12.6231
  168 570.418 -20.8668 -3.11882
  169 584.739 -4.56533 12.6231
  170 570.418 -20.8668 -3.11882
  171 627.639 -14.4985 -0.188156
  172 627.639 -14.4985 -0.188156
  173 482.376 15.0097 12.6471
  174 482.376 15.0097 12.6471
  175 244.500 -25.3795 98.5691
  176 244.500 -25.3795 98.5691
  177 218.077 -10.5230 -62.2255
  178 218.077 -10.5230 -62.2255
  179 486.344 16.1739 -12.1309
  180 486.344 16.1739 -12.1309
</Section>

newXOutput 148

<Section columns = "stress_xx | stress_yy | stress_xy">
  1 502.398 3.44783 -1.95149
  2 501.980 2.66904 1.75284
  3 502.398 3.44783 -1.95149
  4 501.980 2.66904 1.75284
  5 728.090 30.9284 192.779
  6 719.414 26.0465 -180.394
  7 728.090 30.9284 192.779
  8 719.414 26.0465 -180.394
  9 507.247 0.925006 -6.31643
  10 527.623 0.118165 -10.4838
  11 541.252 -6.27240 -14.1546
  12 569.507 -2.89089 6.92594
  13 570.789 17.6597 4.99648
  14 571.038 -2.80918 -9.05243
  15 546.609 -9.70529 14.1888
  16 521.165 2.31711 12.2533
  17 507.708 3.28566 5.57873
  18 499.454 5.67943 0.970320
  19 496.788 5.73930 -0.0741535
  20 499.224 5.23659 -0.882069
  21 507.247 0.925006 -6.31643
  22 527.623 0.118165 -10.4838
  23 541.252 -6.27240 -14.1546
  24 569.507 -2.89089 6.92594
  25 570.789 17.6597 4.99648
  26 571.038 -2.80918 -9.05243
  27 546.609 -9.70529 14.1888
  28 521.165 2.31711 12.2533
  29 507.708 3.28566 5.57873
  30 499.454 5.67943 0.970320
  31 496.788 5.73930 -0.0741535
  32 499.224 5.23659 -0.882069
  33 1063.18 9.28206 80.4056
  34 930.735 8.55234 51.8477
  35 895.880 17.5802 20.3239
  36 870.061 10.1817 -5.17979
  37 916.643 3.24495 -19.6464
  38 939.748 18.2289 -46.8052
  39 979.291 68.7415 -100.778
  40 245.654 -133.045 -222.182
  41 50.4206 -266.831 -95.4317
  42 19.6179 -373.972 -31.2809
  43 12.8235 -398.396 -2.92872
  44 15.8343 -378.546 31.4377
  45 46.1048 -320.442 83.3060
  46 200.265 -134.659 218.524
  47 1063.18 9.28206 80.4056
  48 930.735 8.55234 51.8477
  49 895.880 17.5802 20.3239
  50 870.061 10.1817 -5.17979
  51 916.643 3.24495 -19.6464
  52 939.748 18.2289 -46.8052
  53 979.291 68.7415 -100.778
  54 245.654 -133.045 -222.182
  55 50.4206 -266.831 -95.4317
  56 19.6179 -373.972 -31.2809
  57 12.8235 -398.396 -2.92872
  58 15.8343 -378.546 31.4377
  59 46.1048 -320.442 83.3060
  60 200.265 -134.659 218.524
  61 466.830 19.7642 -8.41387
  62 466.830 19.7642 -8.41387
  63 433.371 6.43017 46.2505
  64 420.946 2.93175 -56.2789
  65 433.371 6.43017 46.2505
  66 420.946 2.93175 -56.2789
  67 245.030 5.96877 15.7542
  68 245.030 5.96877 15.7542
  69 388.777 -72.8192 155.881
  70 388.777 -72.8192 155.881
  71 238.777 -68.5099 -126.253
  72 581.684 -49.8221 -28.1706
  73 645.575 36.9662 -2.34423
  74 617.042 17.5014 -5.07841
  75 238.777 -68.5099 -126.253
  76 581.684 -49.8221 -28.1706
  77 645.575 36.9662 -2.34423
  78 617.042 17.5014 -5.07841
  79 572.032 -26.7814 13.6251
  80 572.032 -26.7814 13.6251
  81 732.657 54.3034 4.42394
  82 732.657 54.3034 4.42394
  83 128.377 -79.8410 -10.9176
  84 128.377 -79.8410 -10.9176
  85 164.956 -107.978 110.360
  86 164.956 -107.978 110.360
  87 616.045 -35.2657 22.1677
  88 616.045 -35.2657 22.1677
  89 493.415 10.8855 6.87269
  90 495.401 11.9153 -7.00714
  91 493.415 10.8855 6.87269
  92 495.401 11.9153 -7.00714
  93 704.273 38.2715 27.9049
  94 704.273 38.2715 27.9049
  95 509.709 4.83075 20.6992
  96 509.709 4.83075 20.6992
  97 757.980 55.9975 -27.7510
  98 766.315 47.0515 -58.6147
  99 757.980 55.9975 -27.7510
  100 766.315 47.0515 -58.6147
  101 497.539 7.74856 -25.5694
  102 497.539 7.74856 -25.5694
  103 401.155 -76.6941 -186.028
  104 401.155 -76.6941 -186.028
  105 340.736 -88.5569 197.039
  106 340.736 -88.5569 197.039
  107 626.274 -47.5347 -72.5369
  108 626.274 -47.5347 -72.5369
  109 472.230 -58.8135 -107.605
  110 472.230 -58.8135 -107.605
  111 800.525 55.3390 42.1329
  112 800.525 55.3390 42.1329
  113 63.1992 -203.271 -74.7606
  114 63.1992 -203.271 -74.7606
  115 36.4823 -240.560 22.5799
  116 36.4823 -240.560 22.5799
  117 429.163 27.3348 -5.33443
  118 429.163 27.3348 -5.33443
  119 517.332 -20.3971 -41.4881
  120 517.332 -20.3971 -41.4881
  121 848.435 23.5333 -19.3179
  122 848.435 23.5333 -19.3179
  123 99.8123 -198.378 126.522
  124 99.8123 -198.378 126.522
  125 468.061 16.1411 23.7572
  126 468.061 16.1411 23.7572
  127 118.073 -160.300 -139.557
  128 118.073 -160.300 -139.557
  129 617.870 -40.8009 104.513
  130 617.870 -40.8009 104.513
  131 863.376 43.2154 -60.5328
  132 863.376 43.2154 -60.5328
  133 45.6119 -276.637 -21.2908
  134 45.6119 -276.637 -21.2908
  135 55.3261 -264.446 56.1606
  136 55.3261 -264.446 56.1606
  137 508.903 4.87931 -12.1016
  138 508.903 4.87931 -12.1016
  139 485.222 16.6026 -0.872473
  140 485.222 16.6026 -0.872473
  141 496.168 8.42758 -0.111561
  142 496.168 8.42758 -0.111561
  143 509.941 -10.3760 36.1172
  144 509.941 -10.3760 36.1172
  145 358.162 -9.20354 85.0988
  146 512.654 -47.7297 73.0565
  147 356.077 20.7651 2.07056
  148 358.162 -9.20354 85.0988
  149 512.654 -47.7297 73.0565
  150 356.077 20.7651 2.07056
  151 462.029 8.37037 -37.9329
  152 462.029 8.37037 -37.9329
  153 842.686 24.1873 15.0453
  154 842.686 24.1873 15.0453
  155 873.179 20.0892 37.0267
  156 874.996 45.2630 75.8223
  157 873.179 20.0892 37.0267
  158 874.996 45.2630 75.8223
  159 501.248 5.67822 3.97576
  160 501.248 5.67822 3.97576
  161 318.149 -12.9287 -72.6610
  162 318.149 -12.9287 -72.6610
  163 501.270 5.52920 -3.90289
  164 501.270 5.52920 -3.90289
  165 504.147 6.71306 10.9550
  166 504.147 6.71306 10.9550
  167 588.488 -4.59018 12.6776
  168 574.062 -21.0038 -3.15644
  169 588.488 -4.59018 12.6776
  170 574.062 -21.0038 -3.15644
  171 631.631 -14.5770 -0.237739
  172 631.631 -14.5770 -0.237739
  173 485.500 15.1044 12.7241
  174 485.500 15.1044 12.7241
  175 246.125 -25.5316 99.2288
  176 246.125 -25.5316 99.2288
  177 219.540 -10.5728 -62.6411
  178 219.540 -10.5728 -62.6411
  179 489.492 16.2759 -12.2051
  180 489.492 16.2759 -12.2051
</Section>

newXOutput 149

<Section columns = "stress_xx | stress_yy | stress_xy">
  1 505.614 3.46883 -1.96270
  2 505.194 2.68521 1.76287
  3 505.614 3.46883 -1.96270
  4 505.194 2.68521 1.76287
  5 732.526 31.2257 194.062
  6 723.826 26.3138 -181.612
  7 732.526 31.2257 194.062
  8 723.826 26.3138 -181.612
  9 510.489 0.930114 -6.35377
  10 530.981 0.118997 -10.5469
  11 544.696 -6.31404 -14.2475
  12 573.137 -2.90940 6.95564
  13 574.452 17.7763 5.02392
  14 574.679 -2.82618 -9.09229
  15 550.082 -9.76904 14.2828
  16 524.486 2.33128 12.3271
  17 510.953 3.30586 5.61108
  18 502.654 5.71386 0.975880
  19 499.975 5.77398 -0.0745667
  20 502.424 5.26830 -0.887130
  21 510.489 0.930114 -6.35377
  22 530.981 0.118997 -10.5469
  23 544.696 -6.31404 -14.2475
  24 573.137 -2.90940 6.95564
  25 574.452 17.7763 5.02392
  26 574.679 -2.82618 -9.09229
  27 550.082 -9.76904 14.2828
  28 524.486 2.33128 12.3271
  29 510.953 3.30586 5.61108
  30 502.654 5.71386 0.975880
  31 499.975 5.77398 -0.0745667
  32 502.424 5.26830 -0.887130
  33 1069.54 9.34359 80.9098
  34 936.367 8.59435 52.1679
  35 901.317 17.6845 20.4447
  36 875.360 10.2377 -5.20920
  37 922.175 3.26322 -19.7649
  38 945.431 18.3422 -47.0906
  39 985.218 69.2050 -101.431
  40 247.188 -133.784 -223.711
  41 50.7477 -268.528 -96.1332
  42 19.7402 -376.476 -31.5204
  43 12.8962 -401.087 -2.94748
  44 15.9278 -381.076 31.6769
  45 46.4024 -322.511 83.9277
  46 201.520 -135.409 220.033
  47 1069.54 9.34359 80.9098
  48 936.367 8.59435 52.1679
  49 901.317 17.6845 20.4447
  50 875.360 10.2377 -5.20920
  51 922.175 3.26322 -19.7649
  52 945.431 18.3422 -47.0906
  53 985.218 69.2050 -101.431
  54 247.188 -133.784 -223.711
  55 50.7477 -268.528 -96.1332
  56 19.7402 -376.476 -31.5204
  57 12.8962 -401.087 -2.94748
  58 15.9278 -381.076 31.6769
  59 46.4024 -322.511 83.9277
  60 201.520 -135.409 220.033
  61 469.843 19.8896 -8.46592
  62 469.843 19.8896 -8.46592
  63 436.176 6.47327 46.5455
  64 423.672 2.95222 -56.6377
  65 436.176 6.47327 46.5455
  66 423.672 2.95222 -56.6377
  67 246.664 6.02222 15.8579
  68 246.664 6.02222 15.8579
  69 391.260 -73.2940 156.914
  70 391.260 -73.2940 156.914
  71 240.336 -68.9402 -127.108
  72 585.362 -50.1414 -28.3798
  73 649.670 37.2101 -2.38032
  74 620.963 17.6190 -5.08576
  75 240.336 -68.9402 -127.108
  76 585.362 -50.1414 -28.3798
  77 649.670 37.2101 -2.38032
  78 620.963 17.6190 -5.08576
  79 575.661 -26.9533 13.7333
  80 575.661 -26.9533 13.7333
  81 737.247 54.6452 4.46097
  82 737.247 54.6452 4.46097
  83 129.235 -80.3330 -10.9935
  84 129.235 -80.3330 -10.9935
  85 166.032 -108.657 111.125
  86 166.032 -108.657 111.125
  87 619.930 -35.4817 22.3540
  88 619.930 -35.4817 22.3540
  89 496.583 10.9526 6.91313
  90 498.580 11.9890 -7.04838
  91 496.583 10.9526 6.91313
  92 498.580 11.9890 -7.04838
  93 708.692 38.5356 28.1280
  94 708.692 38.5356 28.1280
  95 512.967 4.86047 20.8265
  96 512.967 4.86047 20.8265
  97 762.717 56.3508 -27.9437
  98 771.077 47.3810 -59.0310
  99 762.717 56.3508 -27.9437
  100 771.077 47.3810 -59.0310
  101 500.728 7.79705 -25.7285
  102 500.728 7.79705 -25.7285
  103 403.671 -77.1375 -187.291
  104 403.671 -77.1375 -187.291
  105 342.881 -89.0752 198.383
  106 342.881 -89.0752 198.383
  107 630.196 -47.8144 -73.0590
  108 630.196 -47.8144 -73.0590
  109 475.237 -59.1949 -108.316
  110 475.237 -59.1949 -108.316
  111 805.489 55.6917 42.4138
  112 805.489 55.6917 42.4138
  113 63.6166 -204.578 -75.3003
  114 63.6166 -204.578 -75.3003
  115 36.7193 -242.131 22.7477
  116 36.7193 -242.131 22.7477
  117 431.950 27.5118 -5.36728
  118 431.950 27.5118 -5.36728
  119 520.631 -20.5299 -41.7590
  120 520.631 -20.5299 -41.7590
  121 853.636 23.6733 -19.4362
  122 853.636 23.6733 -19.4362
  123 100.466 -199.617 127.436
  124 100.466 -199.617 127.436
  125 471.079 16.2440 23.9050
  126 471.079 16.2440 23.9050
  127 118.847 -161.291 -140.549
  128 118.847 -161.291 -140.549
  129 621.737 -41.0355 105.238
  130 621.737 -41.0355 105.238
  131 868.666 43.4863 -60.9232
  132 868.666 43.4863 -60.9232
  133 45.9072 -278.459 -21.4453
  134 45.9072 -278.459 -21.4453
  135 55.6866 -266.164 56.5838
  136 55.6866 -266.164 56.5838
  137 512.157 4.90944 -12.1747
  138 512.157 4.90944 -12.1747
  139 488.343 16.7058 -0.877796
  140 488.343 16.7058 -0.877796
  141 499.351 8.47901 -0.112210
  142 499.351 8.47901 -0.112210
  143 513.199 -10.4438 36.3489
  144 513.199 -10.4438 36.3489
  145 360.498 -9.25896 85.6507
  146 515.913 -48.0386 73.5415
  147 358.417 20.9047 2.08534
  148 360.498 -9.25896 85.6507
  149 515.913 -48.0386 73.5415
  150 358.417 20.9047 2.08534
  151 465.008 8.42431 -38.1708
  152 465.008 8.42431 -38.1708
  153 847.862 24.3297 15.1409
  154 847.862 24.3297 15.1409
  155 878.521 20.2082 37.2548
  156 880.350 45.5767 76.3247
  157 878.521 20.2082 37.2548
  158 880.350 45.5767 76.3247
  159 504.458 5.71295 3.99874
  160 504.458 5.71295 3.99874
  161 320.238 -13.0073 -73.1344
  162 320.238 -13.0073 -73.1344
  163 504.481 5.56301 -3.92544
  164 504.481 5.56301 -3.92544
  165 507.374 6.75468 11.0199
  166 507.374 6.75468 11.0199
  167 592.234 -4.61495 12.7318
  168 577.703 -21.1407 -3.19426
  169 592.234 -4.61495 12.7318
  170 577.703 -21.1407 -3.19426
  171 635.619 -14.6552 -0.287900
  172 635.619 -14.6552 -0.287900
  173 488.623 15.1989 12.8010
  174 488.623 15.1989 12.8010
  175 247.749 -25.6835 99.8882
  176 247.749 -25.6835 99.8882
  177 221.003 -10.6222 -63.0566
  178 221.003 -10.6222 -63.0566
  179 492.637 16.3779 -12.2793
  180 492.637 16.3779 -12.2793
</Section>

newXOutput 150

<Section columns = "stress_xx | stress_yy | stress_xy">
  1 508.828 3.48980 -1.97389
  2 508.405 2.70136 1.77288
  3 508.828 3.48980 -1.97389
  4 508.405 2.70136 1.77288
  5 736.955 31.5242 195.345
  6 728.231 26.5822 -182.829
  7 736.955 31.5242 195.345
  8 728.231 26.5822 -182.829
  9 513.729 0.935207 -6.39104
  10 534.335 0.119830 -10.6100
  11 548.136 -6.35567 -14.3404
  12 576.765 -2.92790 6.98514
  13 578.112 17.8929 5.05128
  14 578.317 -2.84315 -9.13188
  15 553.553 -9.83277 14.3766
  16 527.805 2.34543 12.4008
  17 514.196 3.32603 5.64337
  18 505.853 5.74824 0.981428
  19 503.159 5.80861 -0.0749787
  20 505.621 5.29997 -0.892181
  21 513.729 0.935207 -6.39104
  22 534.335 0.119830 -10.6100
  23 548.136 -6.35567 -14.3404
  24 576.765 -2.92790 6.98514
  25 578.112 17.8929 5.05128
  26 578.317 -2.84315 -9.13188
  27 553.553 -9.83277 14.3766
  28 527.805 2.34543 12.4008
  29 514.196 3.32603 5.64337
  30 505.853 5.74824 0.981428
  31 503.159 5.80861 -0.0749787
  32 505.621 5.29997 -0.892181
  33 1075.89 9.40509 81.4133
  34 941.991 8.63617 52.4877
  35 906.747 17.7888 20.5653
  36 880.652 10.2935 -5.23854
  37 927.699 3.28145 -19.8833
  38 951.104 18.4554 -47.3756
  39 991.136 69.6686 -102.083
  40 248.720 -134.521 -225.239
  41 51.0746 -270.224 -96.8353
  42 19.8623 -378.979 -31.7602
  43 12.9688 -403.777 -2.96623
  44 16.0211 -383.606 31.9164
  45 46.6997 -324.579 84.5502
  46 202.773 -136.156 221.543
  47 1075.89 9.40509 81.4133
  48 941.991 8.63617 52.4877
  49 906.747 17.7888 20.5653
  50 880.652 10.2935 -5.23854
  51 927.699 3.28145 -19.8833
  52 951.104 18.4554 -47.3756
  53 991.136 69.6686 -102.083
  54 248.720 -134.521 -225.239
  55 51.0746 -270.224 -96.8353
  56 19.8623 -378.979 -31.7602
  57 12.9688 -403.777 -2.96623
  58 16.0211 -383.606 31.9164
  59 46.6997 -324.579 84.5502
  60 202.773 -136.156 221.543
  61 472.855 20.0148 -8.51791
  62 472.855 20.0148 -8.51791
  63 438.979 6.51635 46.8402
  64 426.397 2.97269 -56.9961
  65 438.979 6.51635 46.8402
  66 426.397 2.97269 -56.9961
  67 248.298 6.07582 15.9615
  68 248.298 6.07582 15.9615
  69 393.740 -73.7685 157.948
  70 393.740 -73.7685 157.948
  71 241.894 -69.3700 -127.963
  72 589.037 -50.4605 -28.5892
  73 653.761 37.4540 -2.41663
  74 624.880 17.7366 -5.09279
  75 241.894 -69.3700 -127.963
  76 589.037 -50.4605 -28.5892
  77 653.761 37.4540 -2.41663
  78 624.880 17.7366 -5.09279
  79 579.287 -27.1251 13.8416
  80 579.287 -27.1251 13.8416
  81 741.833 54.9867 4.49807
  82 741.833 54.9867 4.49807
  83 130.094 -80.8244 -11.0695
  84 130.094 -80.8244 -11.0695
  85 167.107 -109.335 111.891
  86 167.107 -109.335 111.891
  87 623.812 -35.6974 22.5408
  88 623.812 -35.6974 22.5408
  89 499.748 11.0197 6.95350
  90 501.756 12.0626 -7.08954
  91 499.748 11.0197 6.95350
  92 501.756 12.0626 -7.08954
  93 713.106 38.7998 28.3514
  94 713.106 38.7998 28.3514
  95 516.223 4.89015 20.9537
  96 516.223 4.89015 20.9537
  97 767.449 56.7037 -28.1364
  98 775.833 47.7105 -59.4475
  99 767.449 56.7037 -28.1364
  100 775.833 47.7105 -59.4475
  101 503.915 7.84548 -25.8873
  102 503.915 7.84548 -25.8873
  103 406.184 -77.5799 -188.554
  104 406.184 -77.5799 -188.554
  105 345.023 -89.5924 199.728
  106 345.023 -89.5924 199.728
  107 634.113 -48.0934 -73.5814
  108 634.113 -48.0934 -73.5814
  109 478.242 -59.5761 -109.026
  110 478.242 -59.5761 -109.026
  111 810.447 56.0440 42.6946
  112 810.447 56.0440 42.6946
  113 64.0338 -205.885 -75.8404
  114 64.0338 -205.885 -75.8404
  115 36.9561 -243.701 22.9156
  116 36.9561 -243.701 22.9156
  117 434.736 27.6887 -5.40009
  118 434.736 27.6887 -5.40009
  119 523.928 -20.6626 -42.0298
  120 523.928 -20.6626 -42.0298
  121 858.830 23.8131 -19.5543
  122 858.830 23.8131 -19.5543
  123 101.119 -200.855 128.351
  124 101.119 -200.855 128.351
  125 474.095 16.3467 24.0526
  126 474.095 16.3467 24.0526
  127 119.622 -162.282 -141.542
  128 119.622 -162.282 -141.542
  129 625.600 -41.2697 105.962
  130 625.600 -41.2697 105.962
  131 873.949 43.7568 -61.3134
  132 873.949 43.7568 -61.3134
  133 46.2022 -280.279 -21.5999
  134 46.2022 -280.279 -21.5999
  135 56.0470 -267.881 57.0075
  136 56.0470 -267.881 57.0075
  137 515.408 4.93953 -12.2478
  138 515.408 4.93953 -12.2478
  139 491.463 16.8088 -0.883112
  140 491.463 16.8088 -0.883112
  141 502.531 8.53037 -0.112857
  142 502.531 8.53037 -0.112857
  143 516.454 -10.5117 36.5805
  144 516.454 -10.5117 36.5805
  145 362.833 -9.31431 86.2023
  146 519.169 -48.3474 74.0263
  147 360.756 21.0443 2.10014
  148 362.833 -9.31431 86.2023
  149 519.169 -48.3474 74.0263
  150 360.756 21.0443 2.10014
  151 467.985 8.47822 -38.4085
  152 467.985 8.47822 -38.4085
  153 853.030 24.4718 15.2365
  154 853.030 24.4718 15.2365
  155 883.855 20.3271 37.4826
  156 885.696 45.8904 76.8270
  157 883.855 20.3271 37.4826
  158 885.696 45.8904 76.8270
  159 507.666 5.74763 4.02167
  160 507.666 5.74763 4.02167
  161 322.327 -13.0857 -73.6075
  162 322.327 -13.0857 -73.6075
  163 507.688 5.59678 -3.94793
  164 507.688 5.59678 -3.94793
  165 510.598 6.79624 11.0847
  166 510.598 6.79624 11.0847
  167 595.977 -4.63964 12.7855
  168 581.341 -21.2776 -3.23226
  169 595.977 -4.63964 12.7855
  170 581.341 -21.2776 -3.23226
  171 639.603 -14.7332 -0.338635
  172 639.603 -14.7332 -0.338635
  173 491.742 15.2934 12.8777
  174 491.742 15.2934 12.8777
  175 249.373 -25.8350 100.547
  176 249.373 -25.8350 100.547
  177 222.466 -10.6714 -63.4719
  178 222.466 -10.6714 -63.4719
  179 495.780 16.4797 -12.3533
  180 495.780 16.4797 -12.3533
</Section>

newXOutput 151

<Section columns = "stress_xx | stress_yy | stress_xy">
  1 512.039 3.51075 -1.98505
  2 511.614 2.71749 1.78287
  3 512.039 3.51075 -1.98505
  4 511.614 2.71749 1.78287
  5 741.377 31.8237 196.627
  6 732.630 26.8517 -184.046
  7 741.377 31.8237 196.627
  8 732.630 26.8517 -184.046
  9 516.966 0.940286 -6.42824
  10 537.687 0.120663 -10.6729
  11 551.574 -6.39728 -14.4333
  12 580.389 -2.94639 7.01442
  13 581.769 18.0094 5.07855
  14 581.951 -2.86009 -9.17122
  15 557.021 -9.89646 14.4705
  16 531.121 2.35956 12.4744
  17 517.435 3.34618 5.67559
  18 509.048 5.78257 0.986963
  19 506.340 5.84318 -0.0753897
  20 508.815 5.33158 -0.897219
  21 516.966 0.940286 -6.42824
  22 537.687 0.120663 -10.6729
  23 551.574 -6.39728 -14.4333
  24 580.389 -2.94639 7.01442
  25 581.769 18.0094 5.07855
  26 581.951 -2.86009 -9.17122
  27 557.021 -9.89646 14.4705
  28 531.121 2.35956 12.4744
  29 517.435 3.34618 5.67559
  30 509.048 5.78257 0.986963
  31 506.340 5.84318 -0.0753897
  32 508.815 5.33158 -0.897219
  33 1082.23 9.46657 81.9163
  34 947.606 8.67780 52.8070
  35 912.169 17.8928 20.6857
  36 885.935 10.3492 -5.26781
  37 933.214 3.29964 -20.0014
  38 956.769 18.5684 -47.6601
  39 997.045 70.1320 -102.736
  40 250.250 -135.256 -226.768
  41 51.4012 -271.918 -97.5380
  42 19.9843 -381.482 -32.0003
  43 13.0412 -406.467 -2.98495
  44 16.1143 -386.136 32.1563
  45 46.9968 -326.645 85.1734
  46 204.025 -136.901 223.052
  47 1082.23 9.46657 81.9163
  48 947.606 8.67780 52.8070
  49 912.169 17.8928 20.6857
  50 885.935 10.3492 -5.26781
  51 933.214 3.29964 -20.0014
  52 956.769 18.5684 -47.6601
  53 997.045 70.1320 -102.736
  54 250.250 -135.256 -226.768
  55 51.4012 -271.918 -97.5380
  56 19.9843 -381.482 -32.0003
  57 13.0412 -406.467 -2.98495
  58 16.1143 -386.136 32.1563
  59 46.9968 -326.645 85.1734
  60 204.025 -136.901 223.052
  61 475.864 20.1399 -8.56984
  62 475.864 20.1399 -8.56984
  63 441.780 6.55943 47.1346
  64 429.120 2.99316 -57.3542
  65 441.780 6.55943 47.1346
  66 429.120 2.99316 -57.3542
  67 249.931 6.12957 16.0651
  68 249.931 6.12957 16.0651
  69 396.218 -74.2427 158.981
  70 396.218 -74.2427 158.981
  71 243.452 -69.7993 -128.818
  72 592.708 -50.7792 -28.7989
  73 657.848 37.6978 -2.45318
  74 628.794 17.8542 -5.09950
  75 243.452 -69.7993 -128.818
  76 592.708 -50.7792 -28.7989
  77 657.848 37.6978 -2.45318
  78 628.794 17.8542 -5.09950
  79 582.910 -27.2968 13.9501
  80 582.910 -27.2968 13.9501
  81 746.413 55.3278 4.53524
  82 746.413 55.3278 4.53524
  83 130.952 -81.3151 -11.1455
  84 130.952 -81.3151 -11.1455
  85 168.182 -110.013 112.657
  86 168.182 -110.013 112.657
  87 627.691 -35.9128 22.7280
  88 627.691 -35.9128 22.7280
  89 502.910 11.0866 6.99378
  90 504.930 12.1362 -7.13063
  91 502.910 11.0866 6.99378
  92 504.930 12.1362 -7.13063
  93 717.515 39.0640 28.5753
  94 717.515 39.0640 28.5753
  95 519.476 4.91979 21.0808
  96 519.476 4.91979 21.0808
  97 772.176 57.0563 -28.3290
  98 780.583 48.0401 -59.8641
  99 772.176 57.0563 -28.3290
  100 780.583 48.0401 -59.8641
  101 507.100 7.89387 -26.0459
  102 507.100 7.89387 -26.0459
  103 408.695 -78.0212 -189.817
  104 408.695 -78.0212 -189.817
  105 347.162 -90.1086 201.073
  106 347.162 -90.1086 201.073
  107 638.026 -48.3719 -74.1042
  108 638.026 -48.3719 -74.1042
  109 481.244 -59.9570 -109.736
  110 481.244 -59.9570 -109.736
  111 815.399 56.3960 42.9753
  112 815.399 56.3960 42.9753
  113 64.4508 -207.190 -76.3808
  114 64.4508 -207.190 -76.3808
  115 37.1927 -245.271 23.0837
  116 37.1927 -245.271 23.0837
  117 437.519 27.8656 -5.43285
  118 437.519 27.8656 -5.43285
  119 527.221 -20.7953 -42.3004
  120 527.221 -20.7953 -42.3004
  121 864.016 23.9526 -19.6722
  122 864.016 23.9526 -19.6722
  123 101.772 -202.091 129.266
  124 101.772 -202.091 129.266
  125 477.109 16.4494 24.2000
  126 477.109 16.4494 24.2000
  127 120.396 -163.271 -142.535
  128 120.396 -163.271 -142.535
  129 629.458 -41.5032 106.687
  130 629.458 -41.5032 106.687
  131 879.226 44.0271 -61.7032
  132 879.226 44.0271 -61.7032
  133 46.4970 -282.100 -21.7546
  134 46.4970 -282.100 -21.7546
  135 56.4071 -269.597 57.4318
  136 56.4071 -269.597 57.4318
  137 518.656 4.96958 -12.3206
  138 518.656 4.96958 -12.3206
  139 494.580 16.9117 -0.888420
  140 494.580 16.9117 -0.888420
  141 505.709 8.58166 -0.113502
  142 505.709 8.58166 -0.113502
  143 519.706 -10.5795 36.8119
  144 519.706 -10.5795 36.8119
  145 365.166 -9.36956 86.7535
  146 522.422 -48.6560 74.5110
  147 363.094 21.1838 2.11493
  148 365.166 -9.36956 86.7535
  149 522.422 -48.6560 74.5110
  150 363.094 21.1838 2.11493
  151 470.960 8.53208 -38.6459
  152 470.960 8.53208 -38.6459
  153 858.191 24.6136 15.3320
  154 858.191 24.6136 15.3320
  155 889.182 20.4457 37.7101
  156 891.035 46.2042 77.3290
  157 889.182 20.4457 37.7101
  158 891.035 46.2042 77.3290
  159 510.871 5.78226 4.04456
  160 510.871 5.78226 4.04456
  161 324.414 -13.1641 -74.0804
  162 324.414 -13.1641 -74.0804
  163 510.894 5.63049 -3.97038
  164 510.894 5.63049 -3.97038
  165 513.819 6.83775 11.1494
  166 513.819 6.83775 11.1494
  167 599.716 -4.66424 12.8388
  168 584.975 -21.4144 -3.27046
  169 599.716 -4.66424 12.8388
  170 584.975 -21.4144 -3.27046
  171 643.583 -14.8108 -0.389945
  172 643.583 -14.8108 -0.389945
  173 494.860 15.3877 12.9543
  174 494.860 15.3877 12.9543
  175 250.996 -25.9863 101.206
  176 250.996 -25.9863 101.206
  177 223.928 -10.7204 -63.8870
  178 223.928 -10.7204 -63.8870
  179 498.921 16.5815 -12.4271
  180 498.921 16.5815 -12.4271
</Section>

newXOutput 152

<Section columns = "stress_xx | stress_yy | stress_xy">
  1 515.247 3.53166 -1.99619
  2 514.820 2.73359 1.79283
  3 515.247 3.53166 -1.99619
  4 514.820 2.73359 1.79283
  5 745.794 32.1243 197.909
  6 737.023 27.1223 -185.263
  7 745.794 32.1243 197.909
  8 737.023 27.1223 -185.263
  9 520.201 0.945351 -6.46537
  10 541.036 0.121496 -10.7357
  11 555.008 -6.43888 -14.5261
  12 584.010 -2.96485 7.04350
  13 585.423 18.1258 5.10575
  14 585.583 -2.87701 -9.21029
  15 560.485 -9.96013 14.5643
  16 534.435 2.37367 12.5479
  17 520.673 3.36630 5.70774
  18 512.241 5.81685 0.992486
  19 509.519 5.87769 -0.0757995
  20 512.007 5.36315 -0.902247
  21 520.201 0.945351 -6.46537
  22 541.036 0.121496 -10.7357
  23 555.008 -6.43888 -14.5261
  24 584.010 -2.96485 7.04350
  25 585.423 18.1258 5.10575
  26 585.583 -2.87701 -9.21029
  27 560.485 -9.96013 14.5643
  28 534.435 2.37367 12.5479
  29 520.673 3.36630 5.70774
  30 512.241 5.81685 0.992486
  31 509.519 5.87769 -0.0757995
  32 512.007 5.36315 -0.902247
  33 1088.55 9.52803 82.4187
  34 953.213 8.71924 53.1260
  35 917.582 17.9966 20.8059
  36 891.211 10.4047 -5.29701
  37 938.721 3.31779 -20.1194
  38 962.425 18.6813 -47.9442
  39 1002.95 70.5953 -103.387
  40 251.778 -135.989 -228.297
  41 51.7276 -273.610 -98.2414
  42 20.1061 -383.984 -32.2408
  43 13.1134 -409.157 -3.00366
  44 16.2072 -388.665 32.3965
  45 47.2937 -328.710 85.7973
  46 205.275 -137.644 224.562
  47 1088.55 9.52803 82.4187
  48 953.213 8.71924 53.1260
  49 917.582 17.9966 20.8059
  50 891.211 10.4047 -5.29701
  51 938.721 3.31779 -20.1194
  52 962.425 18.6813 -47.9442
  53 1002.95 70.5953 -103.387
  54 251.778 -135.989 -228.297
  55 51.7276 -273.610 -98.2414
  56 20.1061 -383.984 -32.2408
  57 13.1134 -409.157 -3.00366
  58 16.2072 -388.665 32.3965
  59 47.2937 -328.710 85.7973
  60 205.275 -137.644 224.562
  61 478.872 20.2649 -8.62170
  62 478.872 20.2649 -8.62170
  63 444.580 6.60250 47.4288
  64 431.841 3.01364 -57.7120
  65 444.580 6.60250 47.4288
  66 431.841 3.01364 -57.7120
  67 251.564 6.18347 16.1686
  68 251.564 6.18347 16.1686
  69 398.694 -74.7167 160.014
  70 398.694 -74.7167 160.014
  71 245.008 -70.2282 -129.673
  72 596.375 -51.0978 -29.0087
  73 661.931 37.9414 -2.48996
  74 632.704 17.9718 -5.10588
  75 245.008 -70.2282 -129.673
  76 596.375 -51.0978 -29.0087
  77 661.931 37.9414 -2.48996
  78 632.704 17.9718 -5.10588
  79 586.529 -27.4683 14.0588
  80 586.529 -27.4683 14.0588
  81 750.989 55.6686 4.57248
  82 750.989 55.6686 4.57248
  83 131.810 -81.8051 -11.2214
  84 131.810 -81.8051 -11.2214
  85 169.256 -110.690 113.423
  86 169.256 -110.690 113.423
  87 631.565 -36.1278 22.9156
  88 631.565 -36.1278 22.9156
  89 506.071 11.1535 7.03399
  90 508.101 12.2096 -7.17163
  91 506.071 11.1535 7.03399
  92 508.101 12.2096 -7.17163
  93 721.920 39.3282 28.7994
  94 721.920 39.3282 28.7994
  95 522.726 4.94939 21.2076
  96 522.726 4.94939 21.2076
  97 776.897 57.4085 -28.5218
  98 785.328 48.3698 -60.2808
  99 776.897 57.4085 -28.5218
  100 785.328 48.3698 -60.2808
  101 510.282 7.94220 -26.2044
  102 510.282 7.94220 -26.2044
  103 411.202 -78.4616 -191.080
  104 411.202 -78.4616 -191.080
  105 349.300 -90.6236 202.418
  106 349.300 -90.6236 202.418
  107 641.935 -48.6499 -74.6272
  108 641.935 -48.6499 -74.6272
  109 484.244 -60.3378 -110.446
  110 484.244 -60.3378 -110.446
  111 820.344 56.7477 43.2558
  112 820.344 56.7477 43.2558
  113 64.8677 -208.495 -76.9216
  114 64.8677 -208.495 -76.9216
  115 37.4292 -246.840 23.2520
  116 37.4292 -246.840 23.2520
  117 440.301 28.0423 -5.46557
  118 440.301 28.0423 -5.46557
  119 530.512 -20.9279 -42.5709
  120 530.512 -20.9279 -42.5709
  121 869.196 24.0919 -19.7900
  122 869.196 24.0919 -19.7900
  123 102.425 -203.326 130.182
  124 102.425 -203.326 130.182
  125 480.121 16.5520 24.3472
  126 480.121 16.5520 24.3472
  127 121.170 -164.259 -143.529
  128 121.170 -164.259 -143.529
  129 633.313 -41.7363 107.412
  130 633.313 -41.7363 107.412
  131 884.494 44.2971 -62.0927
  132 884.494 44.2971 -62.0927
  133 46.7917 -283.919 -21.9095
  134 46.7917 -283.919 -21.9095
  135 56.7670 -271.311 57.8566
  136 56.7670 -271.311 57.8566
  137 521.901 4.99959 -12.3934
  138 521.901 4.99959 -12.3934
  139 497.694 17.0144 -0.893720
  140 497.694 17.0144 -0.893720
  141 508.885 8.63287 -0.114147
  142 508.885 8.63287 -0.114147
  143 522.956 -10.6472 37.0431
  144 522.956 -10.6472 37.0431
  145 367.499 -9.42474 87.3044
  146 525.672 -48.9643 74.9955
  147 365.431 21.3234 2.12974
  148 367.499 -9.42474 87.3044
  149 525.672 -48.9643 74.9955
  150 365.431 21.3234 2.12974
  151 473.932 8.58591 -38.8830
  152 473.932 8.58591 -38.8830
  153 863.346 24.7552 15.4273
  154 863.346 24.7552 15.4273
  155 894.502 20.5641 37.9373
  156 896.367 46.5180 77.8309
  157 894.502 20.5641 37.9373
  158 896.367 46.5180 77.8309
  159 514.073 5.81685 4.06739
  160 514.073 5.81685 4.06739
  161 326.501 -13.2424 -74.5529
  162 326.501 -13.2424 -74.5529
  163 514.096 5.66416 -3.99278
  164 514.096 5.66416 -3.99278
  165 517.038 6.87922 11.2139
  166 517.038 6.87922 11.2139
  167 603.453 -4.68876 12.8918
  168 588.606 -21.5512 -3.30884
  169 603.453 -4.68876 12.8918
  170 588.606 -21.5512 -3.30884
  171 647.559 -14.8883 -0.441828
  172 647.559 -14.8883 -0.441828
  173 497.975 15.4819 13.0308
  174 497.975 15.4819 13.0308
  175 252.618 -26.1374 101.865
  176 252.618 -26.1374 101.865
  177 225.390 -10.7690 -64.3021
  178 225.390 -10.7690 -64.3021
  179 502.060 16.6831 -12.5009
  180 502.060 16.6831 -12.5009
</Section>

newXOutput 153

<Section columns = "stress_xx | stress_yy | stress_xy">
  1 518.453 3.55254 -2.00730
  2 518.023 2.74966 1.80277
  3 518.453 3.55254 -2.00730
  4 518.023 2.74966 1.80277
  5 750.203 32.4259 199.190
  6 741.410 27.3941 -186.480
  7 750.203 32.4259 199.190
  8 741.410 27.3941 -186.480
  9 523.433 0.950402 -6.50243
  10 544.382 0.122330 -10.7984
  11 558.440 -6.48047 -14.6188
  12 587.629 -2.98331 7.07237
  13 589.075 18.2422 5.13286
  14 589.211 -2.89390 -9.24911
  15 563.947 -10.0238 14.6581
  16 537.745 2.38777 12.6212
  17 523.907 3.38640 5.73983
  18 515.432 5.85107 0.997996
  19 512.696 5.91216 -0.0762083
  20 515.196 5.39466 -0.907263
  21 523.433 0.950402 -6.50243
  22 544.382 0.122330 -10.7984
  23 558.440 -6.48047 -14.6188
  24 587.629 -2.98331 7.07237
  25 589.075 18.2422 5.13286
  26 589.211 -2.89390 -9.24911
  27 563.947 -10.0238 14.6581
  28 537.745 2.38777 12.6212
  29 523.907 3.38640 5.73983
  30 515.432 5.85107 0.997996
  31 512.696 5.91216 -0.0762083
  32 515.196 5.39466 -0.907263
  33 1094.87 9.58947 82.9205
  34 958.811 8.76049 53.4445
  35 922.988 18.1003 20.9259
  36 896.480 10.4601 -5.32614
  37 944.219 3.33589 -20.2372
  38 968.072 18.7941 -48.2279
  39 1008.84 71.0586 -104.038
  40 253.304 -136.719 -229.826
  41 52.0538 -275.301 -98.9454
  42 20.2278 -386.485 -32.4817
  43 13.1854 -411.847 -3.02236
  44 16.3000 -391.193 32.6371
  45 47.5904 -330.773 86.4219
  46 206.524 -138.384 226.072
  47 1094.87 9.58947 82.9205
  48 958.811 8.76049 53.4445
  49 922.988 18.1003 20.9259
  50 896.480 10.4601 -5.32614
  51 944.219 3.33589 -20.2372
  52 968.072 18.7941 -48.2279
  53 1008.84 71.0586 -104.038
  54 253.304 -136.719 -229.826
  55 52.0538 -275.301 -98.9454
  56 20.2278 -386.485 -32.4817
  57 13.1854 -411.847 -3.02236
  58 16.3000 -391.193 32.6371
  59 47.5904 -330.773 86.4219
  60 206.524 -138.384 226.072
  61 481.877 20.3897 -8.67349
  62 481.877 20.3897 -8.67349
  63 447.377 6.64556 47.7227
  64 434.561 3.03412 -58.0695
  65 447.377 6.64556 47.7227
  66 434.561 3.03412 -58.0695
  67 253.196 6.23751 16.2721
  68 253.196 6.23751 16.2721
  69 401.169 -75.1904 161.047
  70 401.169 -75.1904 161.047
  71 246.564 -70.6567 -130.527
  72 600.039 -51.4160 -29.2187
  73 666.010 38.1850 -2.52697
  74 636.611 18.0893 -5.11195
  75 246.564 -70.6567 -130.527
  76 600.039 -51.4160 -29.2187
  77 666.010 38.1850 -2.52697
  78 636.611 18.0893 -5.11195
  79 590.145 -27.6397 14.1676
  80 590.145 -27.6397 14.1676
  81 755.560 56.0090 4.60979
  82 755.560 56.0090 4.60979
  83 132.668 -82.2945 -11.2974
  84 132.668 -82.2945 -11.2974
  85 170.330 -111.367 114.189
  86 170.330 -111.367 114.189
  87 635.435 -36.3426 23.1036
  88 635.435 -36.3426 23.1036
  89 509.228 11.2203 7.07412
  90 511.270 12.2830 -7.21255
  91 509.228 11.2203 7.07412
  92 511.270 12.2830 -7.21255
  93 726.320 39.5925 29.0240
  94 726.320 39.5925 29.0240
  95 525.974 4.97896 21.3343
  96 525.974 4.97896 21.3343
  97 781.613 57.7604 -28.7145
  98 790.067 48.6997 -60.6977
  99 781.613 57.7604 -28.7145
  100 790.067 48.6997 -60.6977
  101 513.461 7.99047 -26.3626
  102 513.461 7.99047 -26.3626
  103 413.707 -78.9010 -192.342
  104 413.707 -78.9010 -192.342
  105 351.435 -91.1377 203.762
  106 351.435 -91.1377 203.762
  107 645.840 -48.9273 -75.1506
  108 645.840 -48.9273 -75.1506
  109 487.241 -60.7182 -111.155
  110 487.241 -60.7182 -111.155
  111 825.284 57.0992 43.5363
  112 825.284 57.0992 43.5363
  113 65.2844 -209.798 -77.4629
  114 65.2844 -209.798 -77.4629
  115 37.6656 -248.408 23.4204
  116 37.6656 -248.408 23.4204
  117 443.082 28.2189 -5.49824
  118 443.082 28.2189 -5.49824
  119 533.800 -21.0604 -42.8412
  120 533.800 -21.0604 -42.8412
  121 874.369 24.2310 -19.9076
  122 874.369 24.2310 -19.9076
  123 103.077 -204.559 131.099
  124 103.077 -204.559 131.099
  125 483.130 16.6545 24.4943
  126 483.130 16.6545 24.4943
  127 121.943 -165.245 -144.523
  128 121.943 -165.245 -144.523
  129 637.163 -41.9688 108.137
  130 637.163 -41.9688 108.137
  131 889.756 44.5668 -62.4820
  132 889.756 44.5668 -62.4820
  133 47.0861 -285.737 -22.0645
  134 47.0861 -285.737 -22.0645
  135 57.1267 -273.025 58.2819
  136 57.1267 -273.025 58.2819
  137 525.144 5.02956 -12.4661
  138 525.144 5.02956 -12.4661
  139 500.807 17.1171 -0.899013
  140 500.807 17.1171 -0.899013
  141 512.058 8.68402 -0.114790
  142 512.058 8.68402 -0.114790
  143 526.203 -10.7150 37.2741
  144 526.203 -10.7150 37.2741
  145 369.830 -9.47983 87.8549
  146 528.919 -49.2725 75.4798
  147 367.767 21.4629 2.14456
  148 369.830 -9.47983 87.8549
  149 528.919 -49.2725 75.4798
  150 367.767 21.4629 2.14456
  151 476.903 8.63970 -39.1199
  152 476.903 8.63970 -39.1199
  153 868.494 24.8965 15.5226
  154 868.494 24.8965 15.5226
  155 899.814 20.6823 38.1641
  156 901.691 46.8319 78.3324
  157 899.814 20.6823 38.1641
  158 901.691 46.8319 78.3324
  159 517.273 5.85138 4.09018
  160 517.273 5.85138 4.09018
  161 328.587 -13.3205 -75.0252
  162 328.587 -13.3205 -75.0252
  163 517.296 5.69779 -4.01513
  164 517.296 5.69779 -4.01513
  165 520.254 6.92063 11.2783
  166 520.254 6.92063 11.2783
  167 607.185 -4.71319 12.9444
  168 592.233 -21.6878 -3.34741
  169 607.185 -4.71319 12.9444
  170 592.233 -21.6878 -3.34741
  171 651.532 -14.9654 -0.494281
  172 651.532 -14.9654 -0.494281
  173 501.087 15.5761 13.1072
  174 501.087 15.5761 13.1072
  175 254.239 -26.2882 102.524
  176 254.239 -26.2882 102.524
  177 226.852 -10.8174 -64.7169
  178 226.852 -10.8174 -64.7169
  179 505.196 16.7846 -12.5746
  180 505.196 16.7846 -12.5746
</Section>

newXOutput 154

<Section columns = "stress_xx | stress_yy | stress_xy">
  1 521.656 3.57340 -2.01839
  2 521.224 2.76572 1.81268
  3 521.656 3.57340 -2.01839
  4 521.224 2.76572 1.81268
  5 754.607 32.7286 200.471
  6 745.792 27.6669 -187.696
  7 754.607 32.7286 200.471
  8 745.792 27.6669 -187.696
  9 526.662 0.955438 -6.53942
  10 547.726 0.123164 -10.8610
  11 561.868 -6.52204 -14.7116
  12 591.244 -3.00174 7.10104
  13 592.723 18.3586 5.15990
  14 592.836 -2.91076 -9.28767
  15 567.405 -10.0874 14.7518
  16 541.053 2.40184 12.6944
  17 527.139 3.40647 5.77184
  18 518.620 5.88524 1.00349
  19 515.870 5.94656 -0.0766160
  20 518.383 5.42613 -0.912268
  21 526.662 0.955438 -6.53942
  22 547.726 0.123164 -10.8610
  23 561.868 -6.52204 -14.7116
  24 591.244 -3.00174 7.10104
  25 592.723 18.3586 5.15990
  26 592.836 -2.91076 -9.28767
  27 567.405 -10.0874 14.7518
  28 541.053 2.40184 12.6944
  29 527.139 3.40647 5.77184
  30 518.620 5.88524 1.00349
  31 515.870 5.94656 -0.0766160
  32 518.383 5.42613 -0.912268
  33 1101.18 9.65089 83.4218
  34 964.400 8.80155 53.7626
  35 928.386 18.2038 21.0456
  36 901.741 10.5153 -5.35520
  37 949.709 3.35395 -20.3548
  38 973.711 18.9068 -48.5111
  39 1014.72 71.5218 -104.689
  40 254.829 -137.448 -231.354
  41 52.3798 -276.991 -99.6502
  42 20.3494 -388.986 -32.7230
  43 13.2572 -414.536 -3.04103
  44 16.3926 -393.720 32.8780
  45 47.8869 -332.834 87.0472
  46 207.772 -139.123 227.582
  47 1101.18 9.65089 83.4218
  48 964.400 8.80155 53.7626
  49 928.386 18.2038 21.0456
  50 901.741 10.5153 -5.35520
  51 949.709 3.35395 -20.3548
  52 973.711 18.9068 -48.5111
  53 1014.72 71.5218 -104.689
  54 254.829 -137.448 -231.354
  55 52.3798 -276.991 -99.6502
  56 20.3494 -388.986 -32.7230
  57 13.2572 -414.536 -3.04103
  58 16.3926 -393.720 32.8780
  59 47.8869 -332.834 87.0472
  60 207.772 -139.123 227.582
  61 484.880 20.5145 -8.72522
  62 484.880 20.5145 -8.72522
  63 450.173 6.68861 48.0164
  64 437.279 3.05461 -58.4267
  65 450.173 6.68861 48.0164
  66 437.279 3.05461 -58.4267
  67 254.828 6.29171 16.3756
  68 254.828 6.29171 16.3756
  69 403.641 -75.6639 162.079
  70 403.641 -75.6639 162.079
  71 248.119 -71.0847 -131.382
  72 603.700 -51.7341 -29.4290
  73 670.086 38.4285 -2.56421
  74 640.515 18.2069 -5.11770
  75 248.119 -71.0847 -131.382
  76 603.700 -51.7341 -29.4290
  77 670.086 38.4285 -2.56421
  78 640.515 18.2069 -5.11770
  79 593.758 -27.8109 14.2766
  80 593.758 -27.8109 14.2766
  81 760.125 56.3492 4.64717
  82 760.125 56.3492 4.64717
  83 133.526 -82.7833 -11.3735
  84 133.526 -82.7833 -11.3735
  85 171.403 -112.042 114.956
  86 171.403 -112.042 114.956
  87 639.302 -36.5571 23.2920
  88 639.302 -36.5571 23.2920
  89 512.384 11.2870 7.11417
  90 514.436 12.3563 -7.25340
  91 512.384 11.2870 7.11417
  92 514.436 12.3563 -7.25340
  93 730.715 39.8568 29.2489
  94 730.715 39.8568 29.2489
  95 529.219 5.00848 21.4609
  96 529.219 5.00848 21.4609
  97 786.324 58.1120 -28.9072
  98 794.801 49.0296 -61.1148
  99 786.324 58.1120 -28.9072
  100 794.801 49.0296 -61.1148
  101 516.638 8.03870 -26.5207
  102 516.638 8.03870 -26.5207
  103 416.210 -79.3394 -193.605
  104 416.210 -79.3394 -193.605
  105 353.568 -91.6506 205.107
  106 353.568 -91.6506 205.107
  107 649.740 -49.2041 -75.6743
  108 649.740 -49.2041 -75.6743
  109 490.235 -61.0985 -111.864
  110 490.235 -61.0985 -111.864
  111 830.218 57.4503 43.8166
  112 830.218 57.4503 43.8166
  113 65.7009 -211.101 -78.0045
  114 65.7009 -211.101 -78.0045
  115 37.9019 -249.975 23.5891
  116 37.9019 -249.975 23.5891
  117 445.860 28.3953 -5.53087
  118 445.860 28.3953 -5.53087
  119 537.086 -21.1928 -43.1114
  120 537.086 -21.1928 -43.1114
  121 879.535 24.3698 -20.0250
  122 879.535 24.3698 -20.0250
  123 103.729 -205.791 132.017
  124 103.729 -205.791 132.017
  125 486.138 16.7569 24.6412
  126 486.138 16.7569 24.6412
  127 122.716 -166.230 -145.517
  128 122.716 -166.230 -145.517
  129 641.009 -42.2007 108.862
  130 641.009 -42.2007 108.862
  131 895.011 44.8362 -62.8709
  132 895.011 44.8362 -62.8709
  133 47.3804 -287.555 -22.2196
  134 47.3804 -287.555 -22.2196
  135 57.4862 -274.737 58.7078
  136 57.4862 -274.737 58.7078
  137 528.384 5.05949 -12.5387
  138 528.384 5.05949 -12.5387
  139 503.917 17.2196 -0.904298
  140 503.917 17.2196 -0.904298
  141 515.229 8.73509 -0.115431
  142 515.229 8.73509 -0.115431
  143 529.448 -10.7826 37.5050
  144 529.448 -10.7826 37.5050
  145 372.159 -9.53483 88.4050
  146 532.163 -49.5805 75.9640
  147 370.101 21.6024 2.15938
  148 372.159 -9.53483 88.4050
  149 532.163 -49.5805 75.9640
  150 370.101 21.6024 2.15938
  151 479.872 8.69345 -39.3565
  152 479.872 8.69345 -39.3565
  153 873.634 25.0375 15.6178
  154 873.634 25.0375 15.6178
  155 905.119 20.8003 38.3907
  156 907.008 47.1459 78.8338
  157 905.119 20.8003 38.3907
  158 907.008 47.1459 78.8338
  159 520.471 5.88587 4.11292
  160 520.471 5.88587 4.11292
  161 330.671 -13.3986 -75.4972
  162 330.671 -13.3986 -75.4972
  163 520.494 5.73137 -4.03743
  164 520.494 5.73137 -4.03743
  165 523.467 6.96199 11.3427
  166 523.467 6.96199 11.3427
  167 610.915 -4.73754 12.9965
  168 595.857 -21.8244 -3.38617
  169 610.915 -4.73754 12.9965
  170 595.857 -21.8244 -3.38617
  171 655.500 -15.0423 -0.547305
  172 655.500 -15.0423 -0.547305
  173 504.198 15.6701 13.1835
  174 504.198 15.6701 13.1835
  175 255.860 -26.4387 103.182
  176 255.860 -26.4387 103.182
  177 228.313 -10.8655 -65.1316
  178 228.313 -10.8655 -65.1316
  179 508.329 16.8860 -12.6482
  180 508.329 16.8860 -12.6482
</Section>

newXOutput 155

<Section columns = "stress_xx | stress_yy | stress_xy">
  1 524.857 3.59422 -2.02945
  2 524.422 2.78174 1.82258
  3 524.857 3.59422 -2.02945
  4 524.422 2.78174 1.82258
  5 759.003 33.0323 201.751
  6 750.167 27.9408 -188.912
  7 759.003 33.0323 201.751
  8 750.167 27.9408 -188.912
  9 529.889 0.960460 -6.57635
  10 551.066 0.123999 -10.9235
  11 565.293 -6.56360 -14.8042
  12 594.855 -3.02017 7.12950
  13 596.369 18.4749 5.18686
  14 596.459 -2.92759 -9.32596
  15 570.860 -10.1510 14.8455
  16 544.357 2.41589 12.7675
  17 530.368 3.42651 5.80379
  18 521.806 5.91937 1.00898
  19 519.042 5.98092 -0.0770226
  20 521.567 5.45756 -0.917261
  21 529.889 0.960460 -6.57635
  22 551.066 0.123999 -10.9235
  23 565.293 -6.56360 -14.8042
  24 594.855 -3.02017 7.12950
  25 596.369 18.4749 5.18686
  26 596.459 -2.92759 -9.32596
  27 570.860 -10.1510 14.8455
  28 544.357 2.41589 12.7675
  29 530.368 3.42651 5.80379
  30 521.806 5.91937 1.00898
  31 519.042 5.98092 -0.0770226
  32 521.567 5.45756 -0.917261
  33 1107.47 9.71228 83.9225
  34 969.982 8.84243 54.0803
  35 933.776 18.3071 21.1652
  36 906.995 10.5703 -5.38419
  37 955.190 3.37196 -20.4722
  38 979.341 19.0193 -48.7940
  39 1020.59 71.9849 -105.339
  40 256.352 -138.174 -232.883
  41 52.7055 -278.678 -100.356
  42 20.4708 -391.487 -32.9645
  43 13.3289 -417.225 -3.05970
  44 16.4851 -396.247 33.1193
  45 48.1831 -334.894 87.6732
  46 209.018 -139.859 229.093
  47 1107.47 9.71228 83.9225
  48 969.982 8.84243 54.0803
  49 933.776 18.3071 21.1652
  50 906.995 10.5703 -5.38419
  51 955.190 3.37196 -20.4722
  52 979.341 19.0193 -48.7940
  53 1020.59 71.9849 -105.339
  54 256.352 -138.174 -232.883
  55 52.7055 -278.678 -100.356
  56 20.4708 -391.487 -32.9645
  57 13.3289 -417.225 -3.05970
  58 16.4851 -396.247 33.1193
  59 48.1831 -334.894 87.6732
  60 209.018 -139.859 229.093
  61 487.881 20.6392 -8.77688
  62 487.881 20.6392 -8.77688
  63 452.966 6.73164 48.3098
  64 439.995 3.07510 -58.7836
  65 452.966 6.73164 48.3098
  66 439.995 3.07510 -58.7836
  67 256.460 6.34606 16.4790
  68 256.460 6.34606 16.4790
  69 406.111 -76.1371 163.111
  70 406.111 -76.1371 163.111
  71 249.673 -71.5123 -132.236
  72 607.357 -52.0519 -29.6394
  73 674.157 38.6719 -2.60168
  74 644.414 18.3244 -5.12312
  75 249.673 -71.5123 -132.236
  76 607.357 -52.0519 -29.6394
  77 674.157 38.6719 -2.60168
  78 644.414 18.3244 -5.12312
  79 597.367 -27.9820 14.3859
  80 597.367 -27.9820 14.3859
  81 764.686 56.6889 4.68463
  82 764.686 56.6889 4.68463
  83 134.384 -83.2714 -11.4495
  84 134.384 -83.2714 -11.4495
  85 172.475 -112.717 115.722
  86 172.475 -112.717 115.722
  87 643.165 -36.7713 23.4808
  88 643.165 -36.7713 23.4808
  89 515.537 11.3536 7.15415
  90 517.600 12.4295 -7.29417
  91 515.537 11.3536 7.15415
  92 517.600 12.4295 -7.29417
  93 735.106 40.1211 29.4741
  94 735.106 40.1211 29.4741
  95 532.461 5.03796 21.5872
  96 532.461 5.03796 21.5872
  97 791.029 58.4632 -29.0999
  98 799.529 49.3596 -61.5319
  99 791.029 58.4632 -29.0999
  100 799.529 49.3596 -61.5319
  101 519.812 8.08687 -26.6785
  102 519.812 8.08687 -26.6785
  103 418.709 -79.7768 -194.868
  104 418.709 -79.7768 -194.868
  105 355.699 -92.1625 206.451
  106 355.699 -92.1625 206.451
  107 653.636 -49.4804 -76.1983
  108 653.636 -49.4804 -76.1983
  109 493.227 -61.4785 -112.573
  110 493.227 -61.4785 -112.573
  111 835.145 57.8012 44.0968
  112 835.145 57.8012 44.0968
  113 66.1173 -212.402 -78.5465
  114 66.1173 -212.402 -78.5465
  115 38.1380 -251.541 23.7579
  116 38.1380 -251.541 23.7579
  117 448.637 28.5717 -5.56346
  118 448.637 28.5717 -5.56346
  119 540.368 -21.3252 -43.3814
  120 540.368 -21.3252 -43.3814
  121 884.693 24.5084 -20.1423
  122 884.693 24.5084 -20.1423
  123 104.380 -207.021 132.935
  124 104.380 -207.021 132.935
  125 489.143 16.8592 24.7879
  126 489.143 16.8592 24.7879
  127 123.489 -167.214 -146.512
  128 123.489 -167.214 -146.512
  129 644.850 -42.4322 109.587
  130 644.850 -42.4322 109.587
  131 900.258 45.1053 -63.2595
  132 900.258 45.1053 -63.2595
  133 47.6745 -289.372 -22.3748
  134 47.6745 -289.372 -22.3748
  135 57.8455 -276.449 59.1342
  136 57.8455 -276.449 59.1342
  137 531.622 5.08939 -12.6111
  138 531.622 5.08939 -12.6111
  139 507.025 17.3220 -0.909575
  140 507.025 17.3220 -0.909575
  141 518.397 8.78608 -0.116072
  142 518.397 8.78608 -0.116072
  143 532.689 -10.8503 37.7356
  144 532.689 -10.8503 37.7356
  145 374.488 -9.58975 88.9548
  146 535.404 -49.8883 76.4480
  147 372.435 21.7418 2.17421
  148 374.488 -9.58975 88.9548
  149 535.404 -49.8883 76.4480
  150 372.435 21.7418 2.17421
  151 482.838 8.74716 -39.5929
  152 482.838 8.74716 -39.5929
  153 878.768 25.1783 15.7129
  154 878.768 25.1783 15.7129
  155 910.416 20.9181 38.6169
  156 912.318 47.4599 79.3349
  157 910.416 20.9181 38.6169
  158 912.318 47.4599 79.3349
  159 523.666 5.92030 4.13560
  160 523.666 5.92030 4.13560
  161 332.755 -13.4765 -75.9690
  162 332.755 -13.4765 -75.9690
  163 523.689 5.76490 -4.05968
  164 523.689 5.76490 -4.05968
  165 526.678 7.00330 11.4068
  166 526.678 7.00330 11.4068
  167 614.641 -4.76181 13.0483
  168 599.478 -21.9609 -3.42512
  169 614.641 -4.76181 13.0483
  170 599.478 -21.9609 -3.42512
  171 659.465 -15.1189 -0.600896
  172 659.465 -15.1189 -0.600896
  173 507.306 15.7640 13.2596
  174 507.306 15.7640 13.2596
  175 257.480 -26.5890 103.840
  176 257.480 -26.5890 103.840
  177 229.774 -10.9134 -65.5462
  178 229.774 -10.9134 -65.5462
  179 511.460 16.9873 -12.7216
  180 511.460 16.9873 -12.7216
</Section>

newXOutput 156

<Section columns = "stress_xx | stress_yy | stress_xy">
  1 528.055 3.61501 -2.04049
  2 527.618 2.79775 1.83245
  3 528.055 3.61501 -2.04049
  4 527.618 2.79775 1.83245
  5 763.394 33.3371 203.031
  6 754.536 28.2159 -190.128
  7 763.394 33.3371 203.031
  8 754.536 28.2159 -190.128
  9 533.113 0.965467 -6.61320
  10 554.403 0.124834 -10.9859
  11 568.716 -6.60515 -14.8968
  12 598.464 -3.03857 7.15776
  13 600.012 18.5912 5.21373
  14 600.078 -2.94439 -9.36400
  15 574.312 -10.2145 14.9391
  16 547.659 2.42993 12.8405
  17 533.595 3.44653 5.83567
  18 524.989 5.95343 1.01445
  19 522.211 6.01522 -0.0774281
  20 524.749 5.48893 -0.922243
  21 533.113 0.965467 -6.61320
  22 554.403 0.124834 -10.9859
  23 568.716 -6.60515 -14.8968
  24 598.464 -3.03857 7.15776
  25 600.012 18.5912 5.21373
  26 600.078 -2.94439 -9.36400
  27 574.312 -10.2145 14.9391
  28 547.659 2.42993 12.8405
  29 533.595 3.44653 5.83567
  30 524.989 5.95343 1.01445
  31 522.211 6.01522 -0.0774281
  32 524.749 5.48893 -0.922243
  33 1113.76 9.77366 84.4225
  34 975.554 8.88311 54.3976
  35 939.158 18.4103 21.2845
  36 912.241 10.6252 -5.41311
  37 960.663 3.38994 -20.5894
  38 984.963 19.1317 -49.0764
  39 1026.46 72.4479 -105.989
  40 257.872 -138.898 -234.413
  41 53.0310 -280.364 -101.062
  42 20.5921 -393.986 -33.2065
  43 13.4004 -419.914 -3.07834
  44 16.5773 -398.773 33.3609
  45 48.4791 -336.953 88.2999
  46 210.262 -140.594 230.603
  47 1113.76 9.77366 84.4225
  48 975.554 8.88311 54.3976
  49 939.158 18.4103 21.2845
  50 912.241 10.6252 -5.41311
  51 960.663 3.38994 -20.5894
  52 984.963 19.1317 -49.0764
  53 1026.46 72.4479 -105.989
  54 257.872 -138.898 -234.413
  55 53.0310 -280.364 -101.062
  56 20.5921 -393.986 -33.2065
  57 13.4004 -419.914 -3.07834
  58 16.5773 -398.773 33.3609
  59 48.4791 -336.953 88.2999
  60 210.262 -140.594 230.603
  61 490.880 20.7637 -8.82848
  62 490.880 20.7637 -8.82848
  63 455.758 6.77467 48.6029
  64 442.709 3.09559 -59.1402
  65 455.758 6.77467 48.6029
  66 442.709 3.09559 -59.1402
  67 258.091 6.40056 16.5824
  68 258.091 6.40056 16.5824
  69 408.579 -76.6100 164.142
  70 408.579 -76.6100 164.142
  71 251.226 -71.9394 -133.091
  72 611.010 -52.3694 -29.8500
  73 678.225 38.9152 -2.63938
  74 648.311 18.4419 -5.12823
  75 251.226 -71.9394 -133.091
  76 611.010 -52.3694 -29.8500
  77 678.225 38.9152 -2.63938
  78 648.311 18.4419 -5.12823
  79 600.973 -28.1530 14.4952
  80 600.973 -28.1530 14.4952
  81 769.242 57.0284 4.72216
  82 769.242 57.0284 4.72216
  83 135.241 -83.7589 -11.5256
  84 135.241 -83.7589 -11.5256
  85 173.547 -113.391 116.489
  86 173.547 -113.391 116.489
  87 647.024 -36.9851 23.6700
  88 647.024 -36.9851 23.6700
  89 518.687 11.4201 7.19405
  90 520.762 12.5026 -7.33486
  91 518.687 11.4201 7.19405
  92 520.762 12.5026 -7.33486
  93 739.491 40.3855 29.6997
  94 739.491 40.3855 29.6997
  95 535.701 5.06741 21.7134
  96 535.701 5.06741 21.7134
  97 795.730 58.8141 -29.2927
  98 804.251 49.6898 -61.9492
  99 795.730 58.8141 -29.2927
  100 804.251 49.6898 -61.9492
  101 522.984 8.13499 -26.8362
  102 522.984 8.13499 -26.8362
  103 421.206 -80.2133 -196.130
  104 421.206 -80.2133 -196.130
  105 357.828 -92.6734 207.796
  106 357.828 -92.6734 207.796
  107 657.528 -49.7561 -76.7225
  108 657.528 -49.7561 -76.7225
  109 496.216 -61.8583 -113.281
  110 496.216 -61.8583 -113.281
  111 840.067 58.1517 44.3770
  112 840.067 58.1517 44.3770
  113 66.5335 -213.703 -79.0889
  114 66.5335 -213.703 -79.0889
  115 38.3740 -253.106 23.9270
  116 38.3740 -253.106 23.9270
  117 451.412 28.7479 -5.59601
  118 451.412 28.7479 -5.59601
  119 543.648 -21.4575 -43.6513
  120 543.648 -21.4575 -43.6513
  121 889.845 24.6467 -20.2594
  122 889.845 24.6467 -20.2594
  123 105.031 -208.250 133.854
  124 105.031 -208.250 133.854
  125 492.146 16.9614 24.9345
  126 492.146 16.9614 24.9345
  127 124.261 -168.197 -147.508
  128 124.261 -168.197 -147.508
  129 648.688 -42.6631 110.312
  130 648.688 -42.6631 110.312
  131 905.498 45.3741 -63.6477
  132 905.498 45.3741 -63.6477
  133 47.9684 -291.188 -22.5302
  134 47.9684 -291.188 -22.5302
  135 58.2046 -278.159 59.5611
  136 58.2046 -278.159 59.5611
  137 534.857 5.11925 -12.6834
  138 534.857 5.11925 -12.6834
  139 510.130 17.4243 -0.914845
  140 510.130 17.4243 -0.914845
  141 521.563 8.83701 -0.116711
  142 521.563 8.83701 -0.116711
  143 535.928 -10.9179 37.9661
  144 535.928 -10.9179 37.9661
  145 376.815 -9.64459 89.5042
  146 538.643 -50.1959 76.9318
  147 374.767 21.8812 2.18905
  148 376.815 -9.64459 89.5042
  149 538.643 -50.1959 76.9318
  150 374.767 21.8812 2.18905
  151 485.802 8.80084 -39.8290
  152 485.802 8.80084 -39.8290
  153 883.895 25.3188 15.8079
  154 883.895 25.3188 15.8079
  155 915.706 21.0357 38.8429
  156 917.620 47.7739 79.8358
  157 915.706 21.0357 38.8429
  158 917.620 47.7739 79.8358
  159 526.858 5.95469 4.15824
  160 526.858 5.95469 4.15824
  161 334.838 -13.5543 -76.4404
  162 334.838 -13.5543 -76.4404
  163 526.882 5.79838 -4.08188
  164 526.882 5.79838 -4.08188
  165 529.887 7.04456 11.4709
  166 529.887 7.04456 11.4709
  167 618.364 -4.78599 13.0998
  168 603.095 -22.0973 -3.46425
  169 618.364 -4.78599 13.0998
  170 603.095 -22.0973 -3.46425
  171 663.426 -15.1952 -0.655054
  172 663.426 -15.1952 -0.655054
  173 510.412 15.8578 13.3357
  174 510.412 15.8578 13.3357
  175 259.100 -26.7390 104.498
  176 259.100 -26.7390 104.498
  177 231.234 -10.9610 -65.9606
  178 231.234 -10.9610 -65.9606
  179 514.589 17.0885 -12.7949
  180 514.589 17.0885 -12.7949
</Section>

newXOutput 157

<Section columns = "stress_xx | stress_yy | stress_xy">
  1 531.250 3.63577 -2.05151
  2 530.811 2.81373 1.84229
  3 531.250 3.63577 -2.05151
  4 530.811 2.81373 1.84229
  5 767.778 33.6430 204.310
  6 758.899 28.4920 -191.344
  7 767.778 33.6430 204.310
  8 758.899 28.4920 -191.344
  9 536.334 0.970461 -6.64999
  10 557.737 0.125670 -11.0482
  11 572.135 -6.64668 -14.9894
  12 602.070 -3.05696 7.18581
  13 603.652 18.7074 5.24053
  14 603.694 -2.96117 -9.40179
  15 577.761 -10.2780 15.0327
  16 550.958 2.44394 12.9134
  17 536.818 3.46651 5.86749
  18 528.170 5.98745 1.01991
  19 525.378 6.04947 -0.0778325
  20 527.929 5.52026 -0.927214
  21 536.334 0.970461 -6.64999
  22 557.737 0.125670 -11.0482
  23 572.135 -6.64668 -14.9894
  24 602.070 -3.05696 7.18581
  25 603.652 18.7074 5.24053
  26 603.694 -2.96117 -9.40179
  27 577.761 -10.2780 15.0327
  28 550.958 2.44394 12.9134
  29 536.818 3.46651 5.86749
  30 528.170 5.98745 1.01991
  31 525.378 6.04947 -0.0778325
  32 527.929 5.52026 -0.927214
  33 1120.03 9.83501 84.9221
  34 981.119 8.92361 54.7145
  35 944.532 18.5132 21.4036
  36 917.479 10.6800 -5.44196
  37 966.127 3.40787 -20.7065
  38 990.576 19.2440 -49.3584
  39 1032.31 72.9109 -106.638
  40 259.392 -139.621 -235.942
  41 53.3563 -282.049 -101.768
  42 20.7132 -396.486 -33.4488
  43 13.4717 -422.602 -3.09697
  44 16.6694 -401.299 33.6028
  45 48.7749 -339.010 88.9273
  46 211.505 -141.326 232.114
  47 1120.03 9.83501 84.9221
  48 981.119 8.92361 54.7145
  49 944.532 18.5132 21.4036
  50 917.479 10.6800 -5.44196
  51 966.127 3.40787 -20.7065
  52 990.576 19.2440 -49.3584
  53 1032.31 72.9109 -106.638
  54 259.392 -139.621 -235.942
  55 53.3563 -282.049 -101.768
  56 20.7132 -396.486 -33.4488
  57 13.4717 -422.602 -3.09697
  58 16.6694 -401.299 33.6028
  59 48.7749 -339.010 88.9273
  60 211.505 -141.326 232.114
  61 493.877 20.8881 -8.88001
  62 493.877 20.8881 -8.88001
  63 458.548 6.81769 48.8959
  64 445.421 3.11609 -59.4964
  65 458.548 6.81769 48.8959
  66 445.421 3.11609 -59.4964
  67 259.722 6.45520 16.6857
  68 259.722 6.45520 16.6857
  69 411.045 -77.0827 165.173
  70 411.045 -77.0827 165.173
  71 252.778 -72.3661 -133.945
  72 614.660 -52.6867 -30.0608
  73 682.290 39.1584 -2.67730
  74 652.203 18.5594 -5.13303
  75 252.778 -72.3661 -133.945
  76 614.660 -52.6867 -30.0608
  77 682.290 39.1584 -2.67730
  78 652.203 18.5594 -5.13303
  79 604.576 -28.3239 14.6048
  80 604.576 -28.3239 14.6048
  81 773.793 57.3675 4.75975
  82 773.793 57.3675 4.75975
  83 136.098 -84.2457 -11.6017
  84 136.098 -84.2457 -11.6017
  85 174.619 -114.065 117.256
  86 174.619 -114.065 117.256
  87 650.879 -37.1987 23.8597
  88 650.879 -37.1987 23.8597
  89 521.835 11.4865 7.23387
  90 523.921 12.5756 -7.37547
  91 521.835 11.4865 7.23387
  92 523.921 12.5756 -7.37547
  93 743.873 40.6500 29.9257
  94 743.873 40.6500 29.9257
  95 538.938 5.09681 21.8394
  96 538.938 5.09681 21.8394
  97 800.425 59.1646 -29.4854
  98 808.968 50.0200 -62.3667
  99 800.425 59.1646 -29.4854
  100 808.968 50.0200 -62.3667
  101 526.154 8.18306 -26.9937
  102 526.154 8.18306 -26.9937
  103 423.700 -80.6487 -197.392
  104 423.700 -80.6487 -197.392
  105 359.954 -93.1832 209.141
  106 359.954 -93.1832 209.141
  107 661.416 -50.0312 -77.2471
  108 661.416 -50.0312 -77.2471
  109 499.203 -62.2378 -113.989
  110 499.203 -62.2378 -113.989
  111 844.982 58.5020 44.6570
  112 844.982 58.5020 44.6570
  113 66.9495 -215.002 -79.6317
  114 66.9495 -215.002 -79.6317
  115 38.6098 -254.671 24.0962
  116 38.6098 -254.671 24.0962
  117 454.185 28.9241 -5.62851
  118 454.185 28.9241 -5.62851
  119 546.925 -21.5897 -43.9210
  120 546.925 -21.5897 -43.9210
  121 894.990 24.7848 -20.3763
  122 894.990 24.7848 -20.3763
  123 105.682 -209.477 134.773
  124 105.682 -209.477 134.773
  125 495.147 17.0636 25.0808
  126 495.147 17.0636 25.0808
  127 125.032 -169.178 -148.504
  128 125.032 -169.178 -148.504
  129 652.521 -42.8935 111.037
  130 652.521 -42.8935 111.037
  131 910.731 45.6426 -64.0357
  132 910.731 45.6426 -64.0357
  133 48.2621 -293.003 -22.6857
  134 48.2621 -293.003 -22.6857
  135 58.5634 -279.868 59.9885
  136 58.5634 -279.868 59.9885
  137 538.089 5.14907 -12.7556
  138 538.089 5.14907 -12.7556
  139 513.234 17.5264 -0.920107
  140 513.234 17.5264 -0.920107
  141 524.726 8.88786 -0.117349
  142 524.726 8.88786 -0.117349
  143 539.165 -10.9855 38.1964
  144 539.165 -10.9855 38.1964
  145 379.140 -9.69934 90.0533
  146 541.878 -50.5032 77.4154
  147 377.099 22.0206 2.20389
  148 379.140 -9.69934 90.0533
  149 541.878 -50.5032 77.4154
  150 377.099 22.0206 2.20389
  151 488.765 8.85447 -40.0649
  152 488.765 8.85447 -40.0649
  153 889.016 25.4591 15.9028
  154 889.016 25.4591 15.9028
  155 920.989 21.1531 39.0685
  156 922.915 48.0880 80.3364
  157 920.989 21.1531 39.0685
  158 922.915 48.0880 80.3364
  159 530.048 5.98904 4.18083
  160 530.048 5.98904 4.18083
  161 336.919 -13.6320 -76.9116
  162 336.919 -13.6320 -76.9116
  163 530.071 5.83182 -4.10404
  164 530.071 5.83182 -4.10404
  165 533.092 7.08577 11.5349
  166 533.092 7.08577 11.5349
  167 622.084 -4.81009 13.1508
  168 606.709 -22.2337 -3.50357
  169 622.084 -4.81009 13.1508
  170 606.709 -22.2337 -3.50357
  171 667.383 -15.2713 -0.709777
  172 667.383 -15.2713 -0.709777
  173 513.515 15.9516 13.4116
  174 513.515 15.9516 13.4116
  175 260.719 -26.8887 105.156
  176 260.719 -26.8887 105.156
  177 232.694 -11.0083 -66.3748
  178 232.694 -11.0083 -66.3748
  179 517.716 17.1896 -12.8682
  180 517.716 17.1896 -12.8682
</Section>

newXOutput 158

<Section columns = "stress_xx | stress_yy | stress_xy">
  1 534.443 3.65651 -2.06250
  2 534.002 2.82968 1.85212
  3 534.443 3.65651 -2.06250
  4 534.002 2.82968 1.85212
  5 772.156 33.9499 205.589
  6 763.256 28.7693 -192.559
  7 772.156 33.9499 205.589
  8 763.256 28.7693 -192.559
  9 539.553 0.975440 -6.68671
  10 561.069 0.126507 -11.1104
  11 575.552 -6.68820 -15.0819
  12 605.672 -3.07534 7.21366
  13 607.289 18.8236 5.26725
  14 607.306 -2.97792 -9.43932
  15 581.207 -10.3415 15.1263
  16 554.254 2.45793 12.9861
  17 540.040 3.48648 5.89924
  18 531.348 6.02142 1.02536
  19 528.543 6.08367 -0.0782359
  20 531.105 5.55153 -0.932174
  21 539.553 0.975440 -6.68671
  22 561.069 0.126507 -11.1104
  23 575.552 -6.68820 -15.0819
  24 605.672 -3.07534 7.21366
  25 607.289 18.8236 5.26725
  26 607.306 -2.97792 -9.43932
  27 581.207 -10.3415 15.1263
  28 554.254 2.45793 12.9861
  29 540.040 3.48648 5.89924
  30 531.348 6.02142 1.02536
  31 528.543 6.08367 -0.0782359
  32 531.105 5.55153 -0.932174
  33 1126.30 9.89634 85.4210
  34 986.675 8.96392 55.0309
  35 949.898 18.6160 21.5225
  36 922.710 10.7346 -5.47074
  37 971.583 3.42576 -20.8233
  38 996.180 19.3561 -49.6400
  39 1038.16 73.3738 -107.287
  40 260.909 -140.340 -237.471
  41 53.6814 -283.732 -102.476
  42 20.8342 -398.984 -33.6914
  43 13.5428 -425.290 -3.11558
  44 16.7613 -403.824 33.8450
  45 49.0704 -341.066 89.5554
  46 212.747 -142.056 233.624
  47 1126.30 9.89634 85.4210
  48 986.675 8.96392 55.0309
  49 949.898 18.6160 21.5225
  50 922.710 10.7346 -5.47074
  51 971.583 3.42576 -20.8233
  52 996.180 19.3561 -49.6400
  53 1038.16 73.3738 -107.287
  54 260.909 -140.340 -237.471
  55 53.6814 -283.732 -102.476
  56 20.8342 -398.984 -33.6914
  57 13.5428 -425.290 -3.11558
  58 16.7613 -403.824 33.8450
  59 49.0704 -341.066 89.5554
  60 212.747 -142.056 233.624
  61 496.871 21.0124 -8.93148
  62 496.871 21.0124 -8.93148
  63 461.336 6.86069 49.1885
  64 448.132 3.13659 -59.8524
  65 461.336 6.86069 49.1885
  66 448.132 3.13659 -59.8524
  67 261.352 6.50999 16.7889
  68 261.352 6.50999 16.7889
  69 413.508 -77.5551 166.204
  70 413.508 -77.5551 166.204
  71 254.330 -72.7924 -134.799
  72 618.307 -53.0037 -30.2718
  73 686.350 39.4015 -2.71546
  74 656.093 18.6769 -5.13750
  75 254.330 -72.7924 -134.799
  76 618.307 -53.0037 -30.2718
  77 686.350 39.4015 -2.71546
  78 656.093 18.6769 -5.13750
  79 608.175 -28.4946 14.7145
  80 608.175 -28.4946 14.7145
  81 778.339 57.7063 4.79742
  82 778.339 57.7063 4.79742
  83 136.955 -84.7319 -11.6778
  84 136.955 -84.7319 -11.6778
  85 175.689 -114.738 118.023
  86 175.689 -114.738 118.023
  87 654.730 -37.4119 24.0497
  88 654.730 -37.4119 24.0497
  89 524.981 11.5529 7.27361
  90 527.077 12.6485 -7.41601
  91 524.981 11.5529 7.27361
  92 527.077 12.6485 -7.41601
  93 748.249 40.9144 30.1520
  94 748.249 40.9144 30.1520
  95 542.172 5.12618 21.9653
  96 542.172 5.12618 21.9653
  97 805.114 59.5148 -29.6782
  98 813.679 50.3503 -62.7842
  99 805.114 59.5148 -29.6782
  100 813.679 50.3503 -62.7842
  101 529.321 8.23107 -27.1510
  102 529.321 8.23107 -27.1510
  103 426.191 -81.0832 -198.654
  104 426.191 -81.0832 -198.654
  105 362.078 -93.6919 210.485
  106 362.078 -93.6919 210.485
  107 665.299 -50.3059 -77.7720
  108 665.299 -50.3059 -77.7720
  109 502.187 -62.6171 -114.697
  110 502.187 -62.6171 -114.697
  111 849.892 58.8520 44.9368
  112 849.892 58.8520 44.9368
  113 67.3654 -216.301 -80.1749
  114 67.3654 -216.301 -80.1749
  115 38.8456 -256.234 24.2656
  116 38.8456 -256.234 24.2656
  117 456.957 29.1001 -5.66097
  118 456.957 29.1001 -5.66097
  119 550.199 -21.7218 -44.1906
  120 550.199 -21.7218 -44.1906
  121 900.128 24.9227 -20.4931
  122 900.128 24.9227 -20.4931
  123 106.332 -210.703 135.693
  124 106.332 -210.703 135.693
  125 498.146 17.1656 25.2270
  126 498.146 17.1656 25.2270
  127 125.804 -170.159 -149.501
  128 125.804 -170.159 -149.501
  129 656.350 -43.1233 111.762
  130 656.350 -43.1233 111.762
  131 915.957 45.9109 -64.4234
  132 915.957 45.9109 -64.4234
  133 48.5556 -294.817 -22.8413
  134 48.5556 -294.817 -22.8413
  135 58.9221 -281.577 60.4165
  136 58.9221 -281.577 60.4165
  137 541.319 5.17885 -12.8277
  138 541.319 5.17885 -12.8277
  139 516.335 17.6285 -0.925361
  140 516.335 17.6285 -0.925361
  141 527.887 8.93864 -0.117985
  142 527.887 8.93864 -0.117985
  143 542.398 -11.0531 38.4266
  144 542.398 -11.0531 38.4266
  145 381.465 -9.75401 90.6020
  146 545.111 -50.8104 77.8989
  147 379.429 22.1600 2.21875
  148 381.465 -9.75401 90.6020
  149 545.111 -50.8104 77.8989
  150 379.429 22.1600 2.21875
  151 491.725 8.90807 -40.3005
  152 491.725 8.90807 -40.3005
  153 894.129 25.5991 15.9976
  154 894.129 25.5991 15.9976
  155 926.265 21.2703 39.2938
  156 928.203 48.4022 80.8368
  157 926.265 21.2703 39.2938
  158 928.203 48.4022 80.8368
  159 533.235 6.02333 4.20338
  160 533.235 6.02333 4.20338
  161 339.000 -13.7096 -77.3825
  162 339.000 -13.7096 -77.3825
  163 533.259 5.86521 -4.12615
  164 533.259 5.86521 -4.12615
  165 536.296 7.12693 11.5987
  166 536.296 7.12693 11.5987
  167 625.800 -4.83410 13.2015
  168 610.320 -22.3699 -3.54308
  169 625.800 -4.83410 13.2015
  170 610.320 -22.3699 -3.54308
  171 671.336 -15.3471 -0.765065
  172 671.336 -15.3471 -0.765065
  173 516.616 16.0452 13.4874
  174 516.616 16.0452 13.4874
  175 262.337 -27.0382 105.813
  176 262.337 -27.0382 105.813
  177 234.153 -11.0553 -66.7889
  178 234.153 -11.0553 -66.7889
  179 520.840 17.2905 -12.9413
  180 520.840 17.2905 -12.9413
</Section>

newXOutput 159

<Section columns = "stress_xx | stress_yy | stress_xy">
  1 537.634 3.67721 -2.07346
  2 537.190 2.84561 1.86192
  3 537.634 3.67721 -2.07346
  4 537.190 2.84561 1.86192
  5 776.527 34.2578 206.867
  6 767.607 29.0476 -193.774
  7 776.527 34.2578 206.867
  8 767.607 29.0476 -193.774
  9 542.769 0.980405 -6.72336
  10 564.397 0.127344 -11.1725
  11 578.965 -6.72971 -15.1744
  12 609.272 -3.09370 7.24130
  13 610.924 18.9397 5.29389
  14 610.916 -2.99464 -9.47659
  15 584.650 -10.4050 15.2198
  16 557.548 2.47191 13.0587
  17 543.258 3.50641 5.93092
  18 534.523 6.05533 1.03079
  19 531.705 6.11781 -0.0786382
  20 534.280 5.58276 -0.937122
  21 542.769 0.980405 -6.72336
  22 564.397 0.127344 -11.1725
  23 578.965 -6.72971 -15.1744
  24 609.272 -3.09370 7.24130
  25 610.924 18.9397 5.29389
  26 610.916 -2.99464 -9.47659
  27 584.650 -10.4050 15.2198
  28 557.548 2.47191 13.0587
  29 543.258 3.50641 5.93092
  30 534.523 6.05533 1.03079
  31 531.705 6.11781 -0.0786382
  32 534.280 5.58276 -0.937122
  33 1132.55 9.95765 85.9193
  34 992.222 9.00404 55.3470
  35 955.256 18.7186 21.6412
  36 927.934 10.7890 -5.49945
  37 977.031 3.44361 -20.9399
  38 1001.78 19.4681 -49.9211
  39 1043.99 73.8365 -107.935
  40 262.425 -141.058 -239.000
  41 54.0062 -285.413 -103.184
  42 20.9551 -401.483 -33.9344
  43 13.6137 -427.978 -3.13418
  44 16.8530 -406.348 34.0876
  45 49.3657 -343.120 90.1842
  46 213.987 -142.784 235.135
  47 1132.55 9.95765 85.9193
  48 992.222 9.00404 55.3470
  49 955.256 18.7186 21.6412
  50 927.934 10.7890 -5.49945
  51 977.031 3.44361 -20.9399
  52 1001.78 19.4681 -49.9211
  53 1043.99 73.8365 -107.935
  54 262.425 -141.058 -239.000
  55 54.0062 -285.413 -103.184
  56 20.9551 -401.483 -33.9344
  57 13.6137 -427.978 -3.13418
  58 16.8530 -406.348 34.0876
  59 49.3657 -343.120 90.1842
  60 213.987 -142.784 235.135
  61 499.864 21.1366 -8.98289
  62 499.864 21.1366 -8.98289
  63 464.123 6.90369 49.4809
  64 450.841 3.15710 -60.2080
  65 464.123 6.90369 49.4809
  66 450.841 3.15710 -60.2080
  67 262.981 6.56493 16.8921
  68 262.981 6.56493 16.8921
  69 415.970 -78.0273 167.234
  70 415.970 -78.0273 167.234
  71 255.880 -73.2182 -135.653
  72 621.950 -53.3205 -30.4830
  73 690.407 39.6445 -2.75384
  74 659.978 18.7944 -5.14166
  75 255.880 -73.2182 -135.653
  76 621.950 -53.3205 -30.4830
  77 690.407 39.6445 -2.75384
  78 659.978 18.7944 -5.14166
  79 611.771 -28.6652 14.8244
  80 611.771 -28.6652 14.8244
  81 782.880 58.0447 4.83515
  82 782.880 58.0447 4.83515
  83 137.812 -85.2174 -11.7539
  84 137.812 -85.2174 -11.7539
  85 176.759 -115.410 118.790
  86 176.759 -115.410 118.790
  87 658.577 -37.6249 24.2401
  88 658.577 -37.6249 24.2401
  89 528.124 11.6191 7.31328
  90 530.231 12.7213 -7.45647
  91 528.124 11.6191 7.31328
  92 530.231 12.7213 -7.45647
  93 752.621 41.1790 30.3787
  94 752.621 41.1790 30.3787
  95 545.404 5.15551 22.0910
  96 545.404 5.15551 22.0910
  97 809.799 59.8647 -29.8709
  98 818.384 50.6808 -63.2019
  99 809.799 59.8647 -29.8709
  100 818.384 50.6808 -63.2019
  101 532.485 8.27903 -27.3082
  102 532.485 8.27903 -27.3082
  103 428.680 -81.5166 -199.917
  104 428.680 -81.5166 -199.917
  105 364.200 -94.1996 211.829
  106 364.200 -94.1996 211.829
  107 669.179 -50.5799 -78.2972
  108 669.179 -50.5799 -78.2972
  109 505.168 -62.9962 -115.405
  110 505.168 -62.9962 -115.405
  111 854.796 59.2016 45.2166
  112 854.796 59.2016 45.2166
  113 67.7810 -217.598 -80.7185
  114 67.7810 -217.598 -80.7185
  115 39.0811 -257.797 24.4351
  116 39.0811 -257.797 24.4351
  117 459.727 29.2760 -5.69339
  118 459.727 29.2760 -5.69339
  119 553.470 -21.8539 -44.4600
  120 553.470 -21.8539 -44.4600
  121 905.259 25.0603 -20.6097
  122 905.259 25.0603 -20.6097
  123 106.982 -211.928 136.614
  124 106.982 -211.928 136.614
  125 501.143 17.2676 25.3730
  126 501.143 17.2676 25.3730
  127 126.574 -171.137 -150.498
  128 126.574 -171.137 -150.498
  129 660.175 -43.3526 112.488
  130 660.175 -43.3526 112.488
  131 921.176 46.1788 -64.8107
  132 921.176 46.1788 -64.8107
  133 48.8489 -296.631 -22.9970
  134 48.8489 -296.631 -22.9970
  135 59.2806 -283.284 60.8450
  136 59.2806 -283.284 60.8450
  137 544.546 5.20860 -12.8997
  138 544.546 5.20860 -12.8997
  139 519.433 17.7304 -0.930608
  140 519.433 17.7304 -0.930608
  141 531.045 8.98934 -0.118620
  142 531.045 8.98934 -0.118620
  143 545.629 -11.1206 38.6565
  144 545.629 -11.1206 38.6565
  145 383.788 -9.80860 91.1504
  146 548.340 -51.1174 78.3822
  147 381.758 22.2993 2.23361
  148 383.788 -9.80860 91.1504
  149 548.340 -51.1174 78.3822
  150 381.758 22.2993 2.23361
  151 494.683 8.96163 -40.5359
  152 494.683 8.96163 -40.5359
  153 899.236 25.7388 16.0923
  154 899.236 25.7388 16.0923
  155 931.533 21.3873 39.5189
  156 933.483 48.7164 81.3370
  157 931.533 21.3873 39.5189
  158 933.483 48.7164 81.3370
  159 536.420 6.05758 4.22587
  160 536.420 6.05758 4.22587
  161 341.080 -13.7871 -77.8531
  162 341.080 -13.7871 -77.8531
  163 536.444 5.89855 -4.14821
  164 536.444 5.89855 -4.14821
  165 539.496 7.16805 11.6624
  166 539.496 7.16805 11.6624
  167 629.514 -4.85803 13.2518
  168 613.927 -22.5061 -3.58277
  169 629.514 -4.85803 13.2518
  170 613.927 -22.5061 -3.58277
  171 675.285 -15.4226 -0.820914
  172 675.285 -15.4226 -0.820914
  173 519.715 16.1387 13.5630
  174 519.715 16.1387 13.5630
  175 263.955 -27.1874 106.470
  176 263.955 -27.1874 106.470
  177 235.613 -11.1021 -67.2029
  178 235.613 -11.1021 -67.2029
  179 523.962 17.3914 -13.0143
  180 523.962 17.3914 -13.0143
</Section>

newXOutput 160

<Section columns = "stress_xx | stress_yy | stress_xy">
  1 540.822 3.69788 -2.08440
  2 540.375 2.86152 1.87170
  3 540.822 3.69788 -2.08440
  4 540.375 2.86152 1.87170
  5 780.892 34.5668 208.145
  6 771.952 29.3271 -194.988
  7 780.892 34.5668 208.145
  8 771.952 29.3271 -194.988
  9 545.983 0.985355 -6.75994
  10 567.723 0.128181 -11.2345
  11 582.375 -6.77120 -15.2668
  12 612.868 -3.11205 7.26875
  13 614.555 19.0558 5.32045
  14 614.523 -3.01134 -9.51360
  15 588.090 -10.4684 15.3133
  16 560.839 2.48587 13.1313
  17 546.474 3.52632 5.96253
  18 537.696 6.08920 1.03622
  19 534.864 6.15190 -0.0790394
  20 537.451 5.61395 -0.942059
  21 545.983 0.985355 -6.75994
  22 567.723 0.128181 -11.2345
  23 582.375 -6.77120 -15.2668
  24 612.868 -3.11205 7.26875
  25 614.555 19.0558 5.32045
  26 614.523 -3.01134 -9.51360
  27 588.090 -10.4684 15.3133
  28 560.839 2.48587 13.1313
  29 546.474 3.52632 5.96253
  30 537.696 6.08920 1.03622
  31 534.864 6.15190 -0.0790394
  32 537.451 5.61395 -0.942059
  33 1138.80 10.0189 86.4171
  34 997.761 9.04398 55.6626
  35 960.607 18.8211 21.7597
  36 933.150 10.8433 -5.52809
  37 982.470 3.46142 -21.0564
  38 1007.36 19.5800 -50.2018
  39 1049.82 74.2992 -108.582
  40 263.938 -141.774 -240.530
  41 54.3308 -287.093 -103.892
  42 21.0758 -403.980 -34.1778
  43 13.6845 -430.666 -3.15276
  44 16.9445 -408.872 34.3306
  45 49.6608 -345.172 90.8137
  46 215.226 -143.509 236.647
  47 1138.80 10.0189 86.4171
  48 997.761 9.04398 55.6626
  49 960.607 18.8211 21.7597
  50 933.150 10.8433 -5.52809
  51 982.470 3.46142 -21.0564
  52 1007.36 19.5800 -50.2018
  53 1049.82 74.2992 -108.582
  54 263.938 -141.774 -240.530
  55 54.3308 -287.093 -103.892
  56 21.0758 -403.980 -34.1778
  57 13.6845 -430.666 -3.15276
  58 16.9445 -408.872 34.3306
  59 49.6608 -345.172 90.8137
  60 215.226 -143.509 236.647
  61 502.855 21.2607 -9.03422
  62 502.855 21.2607 -9.03422
  63 466.907 6.94667 49.7731
  64 453.548 3.17761 -60.5633
  65 466.907 6.94667 49.7731
  66 453.548 3.17761 -60.5633
  67 264.611 6.62001 16.9953
  68 264.611 6.62001 16.9953
  69 418.430 -78.4993 168.264
  70 418.430 -78.4993 168.264
  71 257.430 -73.6436 -136.507
  72 625.589 -53.6370 -30.6944
  73 694.460 39.8875 -2.79244
  74 663.861 18.9118 -5.14551
  75 257.430 -73.6436 -136.507
  76 625.589 -53.6370 -30.6944
  77 694.460 39.8875 -2.79244
  78 663.861 18.9118 -5.14551
  79 615.364 -28.8357 14.9345
  80 615.364 -28.8357 14.9345
  81 787.416 58.3828 4.87296
  82 787.416 58.3828 4.87296
  83 138.669 -85.7023 -11.8300
  84 138.669 -85.7023 -11.8300
  85 177.829 -116.081 119.558
  86 177.829 -116.081 119.558
  87 662.421 -37.8375 24.4310
  88 662.421 -37.8375 24.4310
  89 531.265 11.6853 7.35288
  90 533.383 12.7940 -7.49685
  91 531.265 11.6853 7.35288
  92 533.383 12.7940 -7.49685
  93 756.988 41.4435 30.6057
  94 756.988 41.4435 30.6057
  95 548.633 5.18480 22.2165
  96 548.633 5.18480 22.2165
  97 814.478 60.2142 -30.0637
  98 823.084 51.0113 -63.6197
  99 814.478 60.2142 -30.0637
  100 823.084 51.0113 -63.6197
  101 535.647 8.32694 -27.4651
  102 535.647 8.32694 -27.4651
  103 431.166 -81.9491 -201.178
  104 431.166 -81.9491 -201.178
  105 366.320 -94.7063 213.174
  106 366.320 -94.7063 213.174
  107 673.054 -50.8534 -78.8227
  108 673.054 -50.8534 -78.8227
  109 508.147 -63.3750 -116.112
  110 508.147 -63.3750 -116.112
  111 859.693 59.5510 45.4962
  112 859.693 59.5510 45.4962
  113 68.1966 -218.895 -81.2625
  114 68.1966 -218.895 -81.2625
  115 39.3166 -259.359 24.6049
  116 39.3166 -259.359 24.6049
  117 462.495 29.4518 -5.72576
  118 462.495 29.4518 -5.72576
  119 556.739 -21.9859 -44.7293
  120 556.739 -21.9859 -44.7293
  121 910.383 25.1977 -20.7261
  122 910.383 25.1977 -20.7261
  123 107.632 -213.151 137.535
  124 107.632 -213.151 137.535
  125 504.137 17.3695 25.5189
  126 504.137 17.3695 25.5189
  127 127.345 -172.115 -151.495
  128 127.345 -172.115 -151.495
  129 663.996 -43.5814 113.213
  130 663.996 -43.5814 113.213
  131 926.387 46.4465 -65.1978
  132 926.387 46.4465 -65.1978
  133 49.1421 -298.444 -23.1529
  134 49.1421 -298.444 -23.1529
  135 59.6388 -284.990 61.2741
  136 59.6388 -284.990 61.2741
  137 547.770 5.23830 -12.9716
  138 547.770 5.23830 -12.9716
  139 522.530 17.8322 -0.935847
  140 522.530 17.8322 -0.935847
  141 534.201 9.03998 -0.119254
  142 534.201 9.03998 -0.119254
  143 548.858 -11.1881 38.8863
  144 548.858 -11.1881 38.8863
  145 386.110 -9.86310 91.6984
  146 551.567 -51.4242 78.8653
  147 384.087 22.4386 2.24848
  148 386.110 -9.86310 91.6984
  149 551.567 -51.4242 78.8653
  150 384.087 22.4386 2.24848
  151 497.639 9.01515 -40.7710
  152 497.639 9.01515 -40.7710
  153 904.336 25.8783 16.1870
  154 904.336 25.8783 16.1870
  155 936.794 21.5041 39.7436
  156 938.756 49.0307 81.8369
  157 936.794 21.5041 39.7436
  158 938.756 49.0307 81.8369
  159 539.602 6.09178 4.24831
  160 539.602 6.09178 4.24831
  161 343.158 -13.8644 -78.3234
  162 343.158 -13.8644 -78.3234
  163 539.626 5.93185 -4.17022
  164 539.626 5.93185 -4.17022
  165 542.694 7.20911 11.7261
  166 542.694 7.20911 11.7261
  167 633.224 -4.88188 13.3017
  168 617.531 -22.6423 -3.62264
  169 633.224 -4.88188 13.3017
  170 617.531 -22.6423 -3.62264
  171 679.230 -15.4979 -0.877324
  172 679.230 -15.4979 -0.877324
  173 522.812 16.2321 13.6386
  174 522.812 16.2321 13.6386
  175 265.571 -27.3364 107.127
  176 265.571 -27.3364 107.127
  177 237.071 -11.1486 -67.6167
  178 237.071 -11.1486 -67.6167
  179 527.081 17.4921 -13.0872
  180 527.081 17.4921 -13.0872
</Section>

newXOutput 161

<Section columns = "stress_xx | stress_yy | stress_xy">
  1 544.007 3.71852 -2.09532
  2 543.558 2.87740 1.88146
  3 544.007 3.71852 -2.09532
  4 543.558 2.87740 1.88146
  5 785.251 34.8769 209.422
  6 776.291 29.6076 -196.203
  7 785.251 34.8769 209.422
  8 776.291 29.6076 -196.203
  9 549.193 0.990292 -6.79646
  10 571.046 0.129019 -11.2964
  11 585.783 -6.81268 -15.3592
  12 616.462 -3.13038 7.29599
  13 618.184 19.1719 5.34693
  14 618.126 -3.02800 -9.55037
  15 591.527 -10.5318 15.4068
  16 564.126 2.49980 13.2037
  17 549.688 3.54621 5.99408
  18 540.867 6.12301 1.04163
  19 538.021 6.18593 -0.0794395
  20 540.621 5.64508 -0.946985
  21 549.193 0.990292 -6.79646
  22 571.046 0.129019 -11.2964
  23 585.783 -6.81268 -15.3592
  24 616.462 -3.13038 7.29599
  25 618.184 19.1719 5.34693
  26 618.126 -3.02800 -9.55037
  27 591.527 -10.5318 15.4068
  28 564.126 2.49980 13.2037
  29 549.688 3.54621 5.99408
  30 540.867 6.12301 1.04163
  31 538.021 6.18593 -0.0794395
  32 540.621 5.64508 -0.946985
  33 1145.03 10.0802 86.9143
  34 1003.29 9.08373 55.9778
  35 965.949 18.9234 21.8780
  36 938.359 10.8975 -5.55666
  37 987.901 3.47919 -21.1727
  38 1012.94 19.6917 -50.4822
  39 1055.64 74.7618 -109.229
  40 265.450 -142.488 -242.059
  41 54.6552 -288.771 -104.601
  42 21.1963 -406.477 -34.4215
  43 13.7550 -433.353 -3.17132
  44 17.0358 -411.395 34.5739
  45 49.9557 -347.223 91.4439
  46 216.464 -144.233 238.158
  47 1145.03 10.0802 86.9143
  48 1003.29 9.08373 55.9778
  49 965.949 18.9234 21.8780
  50 938.359 10.8975 -5.55666
  51 987.901 3.47919 -21.1727
  52 1012.94 19.6917 -50.4822
  53 1055.64 74.7618 -109.229
  54 265.450 -142.488 -242.059
  55 54.6552 -288.771 -104.601
  56 21.1963 -406.477 -34.4215
  57 13.7550 -433.353 -3.17132
  58 17.0358 -411.395 34.5739
  59 49.9557 -347.223 91.4439
  60 216.464 -144.233 238.158
  61 505.843 21.3846 -9.08550
  62 505.843 21.3846 -9.08550
  63 469.690 6.98964 50.0650
  64 456.253 3.19812 -60.9184
  65 469.690 6.98964 50.0650
  66 456.253 3.19812 -60.9184
  67 266.240 6.67525 17.0984
  68 266.240 6.67525 17.0984
  69 420.887 -78.9709 169.293
  70 420.887 -78.9709 169.293
  71 258.979 -74.0685 -137.361
  72 629.225 -53.9533 -30.9060
  73 698.509 40.1303 -2.83127
  74 667.739 19.0292 -5.14904
  75 258.979 -74.0685 -137.361
  76 629.225 -53.9533 -30.9060
  77 698.509 40.1303 -2.83127
  78 667.739 19.0292 -5.14904
  79 618.953 -29.0060 15.0447
  80 618.953 -29.0060 15.0447
  81 791.947 58.7206 4.91083
  82 791.947 58.7206 4.91083
  83 139.525 -86.1866 -11.9062
  84 139.525 -86.1866 -11.9062
  85 178.898 -116.752 120.325
  86 178.898 -116.752 120.325
  87 666.261 -38.0499 24.6222
  88 666.261 -38.0499 24.6222
  89 534.403 11.7514 7.39239
  90 536.532 12.8667 -7.53715
  91 534.403 11.7514 7.39239
  92 536.532 12.8667 -7.53715
  93 761.351 41.7081 30.8330
  94 761.351 41.7081 30.8330
  95 551.859 5.21405 22.3418
  96 551.859 5.21405 22.3418
  97 819.152 60.5634 -30.2565
  98 827.778 51.3419 -64.0377
  99 819.152 60.5634 -30.2565
  100 827.778 51.3419 -64.0377
  101 538.807 8.37480 -27.6218
  102 538.807 8.37480 -27.6218
  103 433.649 -82.3806 -202.440
  104 433.649 -82.3806 -202.440
  105 368.437 -95.2118 214.518
  106 368.437 -95.2118 214.518
  107 676.925 -51.1264 -79.3484
  108 676.925 -51.1264 -79.3484
  109 511.123 -63.7536 -116.819
  110 511.123 -63.7536 -116.819
  111 864.585 59.9001 45.7758
  112 864.585 59.9001 45.7758
  113 68.6119 -220.191 -81.8068
  114 68.6119 -220.191 -81.8068
  115 39.5519 -260.920 24.7748
  116 39.5519 -260.920 24.7748
  117 465.262 29.6274 -5.75809
  118 465.262 29.6274 -5.75809
  119 560.005 -22.1178 -44.9984
  120 560.005 -22.1178 -44.9984
  121 915.500 25.3349 -20.8424
  122 915.500 25.3349 -20.8424
  123 108.281 -214.373 138.457
  124 108.281 -214.373 138.457
  125 507.130 17.4713 25.6646
  126 507.130 17.4713 25.6646
  127 128.115 -173.091 -152.493
  128 128.115 -173.091 -152.493
  129 667.812 -43.8096 113.939
  130 667.812 -43.8096 113.939
  131 931.592 46.7139 -65.5845
  132 931.592 46.7139 -65.5845
  133 49.4350 -300.255 -23.3089
  134 49.4350 -300.255 -23.3089
  135 59.9968 -286.694 61.7037
  136 59.9968 -286.694 61.7037
  137 550.992 5.26797 -13.0434
  138 550.992 5.26797 -13.0434
  139 525.624 17.9338 -0.941079
  140 525.624 17.9338 -0.941079
  141 537.354 9.09054 -0.119886
  142 537.354 9.09054 -0.119886
  143 552.083 -11.2555 39.1158
  144 552.083 -11.2555 39.1158
  145 388.430 -9.91753 92.2461
  146 554.791 -51.7308 79.3483
  147 386.414 22.5779 2.26336
  148 388.430 -9.91753 92.2461
  149 554.791 -51.7308 79.3483
  150 386.414 22.5779 2.26336
  151 500.592 9.06863 -41.0058
  152 500.592 9.06863 -41.0058
  153 909.429 26.0176 16.2815
  154 909.429 26.0176 16.2815
  155 942.048 21.6206 39.9680
  156 944.021 49.3450 82.3366
  157 942.048 21.6206 39.9680
  158 944.021 49.3450 82.3366
  159 542.782 6.12593 4.27071
  160 542.782 6.12593 4.27071
  161 345.236 -13.9417 -78.7935
  162 345.236 -13.9417 -78.7935
  163 542.806 5.96510 -4.19219
  164 542.806 5.96510 -4.19219
  165 545.890 7.25012 11.7895
  166 545.890 7.25012 11.7895
  167 636.930 -4.90565 13.3512
  168 621.132 -22.7783 -3.66271
  169 636.930 -4.90565 13.3512
  170 621.132 -22.7783 -3.66271
  171 683.171 -15.5729 -0.934294
  172 683.171 -15.5729 -0.934294
  173 525.906 16.3254 13.7140
  174 525.906 16.3254 13.7140
  175 267.188 -27.4850 107.784
  176 267.188 -27.4850 107.784
  177 238.530 -11.1949 -68.0303
  178 238.530 -11.1949 -68.0303
  179 530.199 17.5928 -13.1600
  180 530.199 17.5928 -13.1600
</Section>

newXOutput 162

<Section columns = "stress_xx | stress_yy | stress_xy">
  1 547.190 3.73914 -2.10621
  2 546.739 2.89326 1.89119
  3 547.190 3.73914 -2.10621
  4 546.739 2.89326 1.89119
  5 789.603 35.1880 210.699
  6 780.624 29.8892 -197.417
  7 789.603 35.1880 210.699
  8 780.624 29.8892 -197.417
  9 552.402 0.995215 -6.83291
  10 574.366 0.129857 -11.3582
  11 589.187 -6.85414 -15.4515
  12 620.052 -3.14869 7.32302
  13 621.810 19.2879 5.37334
  14 621.727 -3.04464 -9.58687
  15 594.960 -10.5952 15.5002
  16 567.411 2.51372 13.2759
  17 552.898 3.56607 6.02556
  18 544.035 6.15677 1.04702
  19 541.175 6.21992 -0.0798386
  20 543.788 5.67617 -0.951900
  21 552.402 0.995215 -6.83291
  22 574.366 0.129857 -11.3582
  23 589.187 -6.85414 -15.4515
  24 620.052 -3.14869 7.32302
  25 621.810 19.2879 5.37334
  26 621.727 -3.04464 -9.58687
  27 594.960 -10.5952 15.5002
  28 567.411 2.51372 13.2759
  29 552.898 3.56607 6.02556
  30 544.035 6.15677 1.04702
  31 541.175 6.21992 -0.0798386
  32 543.788 5.67617 -0.951900
  33 1151.25 10.1415 87.4109
  34 1008.81 9.12330 56.2926
  35 971.284 19.0255 21.9961
  36 943.560 10.9515 -5.58517
  37 993.324 3.49691 -21.2888
  38 1018.51 19.8034 -50.7621
  39 1061.45 75.2244 -109.876
  40 266.961 -143.199 -243.589
  41 54.9793 -290.448 -105.311
  42 21.3168 -408.973 -34.6656
  43 13.8254 -436.040 -3.18987
  44 17.1270 -413.918 34.8175
  45 50.2503 -349.273 92.0748
  46 217.700 -144.954 239.669
  47 1151.25 10.1415 87.4109
  48 1008.81 9.12330 56.2926
  49 971.284 19.0255 21.9961
  50 943.560 10.9515 -5.58517
  51 993.324 3.49691 -21.2888
  52 1018.51 19.8034 -50.7621
  53 1061.45 75.2244 -109.876
  54 266.961 -143.199 -243.589
  55 54.9793 -290.448 -105.311
  56 21.3168 -408.973 -34.6656
  57 13.8254 -436.040 -3.18987
  58 17.1270 -413.918 34.8175
  59 50.2503 -349.273 92.0748
  60 217.700 -144.954 239.669
  61 508.830 21.5085 -9.13671
  62 508.830 21.5085 -9.13671
  63 472.471 7.03261 50.3566
  64 458.957 3.21864 -61.2731
  65 472.471 7.03261 50.3566
  66 458.957 3.21864 -61.2731
  67 267.868 6.73062 17.2015
  68 267.868 6.73062 17.2015
  69 423.343 -79.4423 170.322
  70 423.343 -79.4423 170.322
  71 260.527 -74.4930 -138.215
  72 632.858 -54.2693 -31.1178
  73 702.554 40.3730 -2.87033
  74 671.615 19.1466 -5.15226
  75 260.527 -74.4930 -138.215
  76 632.858 -54.2693 -31.1178
  77 702.554 40.3730 -2.87033
  78 671.615 19.1466 -5.15226
  79 622.540 -29.1762 15.1551
  80 622.540 -29.1762 15.1551
  81 796.473 59.0581 4.94877
  82 796.473 59.0581 4.94877
  83 140.382 -86.6702 -11.9824
  84 140.382 -86.6702 -11.9824
  85 179.966 -117.422 121.093
  86 179.966 -117.422 121.093
  87 670.097 -38.2619 24.8139
  88 670.097 -38.2619 24.8139
  89 537.539 11.8174 7.43183
  90 539.679 12.9392 -7.57737
  91 537.539 11.8174 7.43183
  92 539.679 12.9392 -7.57737
  93 765.709 41.9727 31.0607
  94 765.709 41.9727 31.0607
  95 555.083 5.24326 22.4670
  96 555.083 5.24326 22.4670
  97 823.821 60.9122 -30.4493
  98 832.467 51.6726 -64.4558
  99 823.821 60.9122 -30.4493
  100 832.467 51.6726 -64.4558
  101 541.964 8.42260 -27.7784
  102 541.964 8.42260 -27.7784
  103 436.130 -82.8112 -203.702
  104 436.130 -82.8112 -203.702
  105 370.552 -95.7164 215.863
  106 370.552 -95.7164 215.863
  107 680.791 -51.3988 -79.8745
  108 680.791 -51.3988 -79.8745
  109 514.097 -64.1320 -117.526
  110 514.097 -64.1320 -117.526
  111 869.471 60.2489 46.0552
  112 869.471 60.2489 46.0552
  113 69.0271 -221.485 -82.3516
  114 69.0271 -221.485 -82.3516
  115 39.7871 -262.480 24.9450
  116 39.7871 -262.480 24.9450
  117 468.027 29.8030 -5.79038
  118 468.027 29.8030 -5.79038
  119 563.268 -22.2496 -45.2673
  120 563.268 -22.2496 -45.2673
  121 920.610 25.4718 -20.9585
  122 920.610 25.4718 -20.9585
  123 108.930 -215.593 139.380
  124 108.930 -215.593 139.380
  125 510.120 17.5730 25.8101
  126 510.120 17.5730 25.8101
  127 128.885 -174.066 -153.492
  128 128.885 -174.066 -153.492
  129 671.624 -44.0374 114.665
  130 671.624 -44.0374 114.665
  131 936.790 46.9810 -65.9709
  132 936.790 46.9810 -65.9709
  133 49.7278 -302.067 -23.4650
  134 49.7278 -302.067 -23.4650
  135 60.3547 -288.398 62.1338
  136 60.3547 -288.398 62.1338
  137 554.211 5.29760 -13.1150
  138 554.211 5.29760 -13.1150
  139 528.715 18.0354 -0.946303
  140 528.715 18.0354 -0.946303
  141 540.505 9.14103 -0.120517
  142 540.505 9.14103 -0.120517
  143 555.306 -11.3229 39.3452
  144 555.306 -11.3229 39.3452
  145 390.749 -9.97186 92.7934
  146 558.012 -52.0372 79.8311
  147 388.740 22.7172 2.27824
  148 390.749 -9.97186 92.7934
  149 558.012 -52.0372 79.8311
  150 388.740 22.7172 2.27824
  151 503.544 9.12207 -41.2404
  152 503.544 9.12207 -41.2404
  153 914.515 26.1566 16.3759
  154 914.515 26.1566 16.3759
  155 947.294 21.7370 40.1921
  156 949.280 49.6594 82.8361
  157 947.294 21.7370 40.1921
  158 949.280 49.6594 82.8361
  159 545.959 6.16003 4.29306
  160 545.959 6.16003 4.29306
  161 347.313 -14.0189 -79.2633
  162 347.313 -14.0189 -79.2633
  163 545.983 5.99830 -4.21410
  164 545.983 5.99830 -4.21410
  165 549.083 7.29108 11.8529
  166 549.083 7.29108 11.8529
  167 640.634 -4.92933 13.4003
  168 624.729 -22.9143 -3.70295
  169 640.634 -4.92933 13.4003
  170 624.729 -22.9143 -3.70295
  171 687.109 -15.6476 -0.991822
  172 687.109 -15.6476 -0.991822
  173 528.998 16.4186 13.7893
  174 528.998 16.4186 13.7893
  175 268.803 -27.6335 108.441
  176 268.803 -27.6335 108.441
  177 239.988 -11.2409 -68.4438
  178 239.988 -11.2409 -68.4438
  179 533.313 17.6933 -13.2327
  180 533.313 17.6933 -13.2327
</Section>

newXOutput 163

<Section columns = "stress_xx | stress_yy | stress_xy">
  1 550.370 3.75972 -2.11708
  2 549.917 2.90910 1.90091
  3 550.370 3.75972 -2.11708
  4 549.917 2.90910 1.90091
  5 793.949 35.5001 211.975
  6 784.951 30.1719 -198.630
  7 793.949 35.5001 211.975
  8 784.951 30.1719 -198.630
  9 555.607 1.00012 -6.86929
  10 577.683 0.130696 -11.4199
  11 592.588 -6.89560 -15.5438
  12 623.639 -3.16699 7.34986
  13 625.433 19.4039 5.39966
  14 625.324 -3.06125 -9.62313
  15 598.391 -10.6586 15.5935
  16 570.694 2.52762 13.3481
  17 556.106 3.58590 6.05697
  18 547.200 6.19048 1.05241
  19 544.328 6.25385 -0.0802366
  20 546.952 5.70721 -0.956804
  21 555.607 1.00012 -6.86929
  22 577.683 0.130696 -11.4199
  23 592.588 -6.89560 -15.5438
  24 623.639 -3.16699 7.34986
  25 625.433 19.4039 5.39966
  26 625.324 -3.06125 -9.62313
  27 598.391 -10.6586 15.5935
  28 570.694 2.52762 13.3481
  29 556.106 3.58590 6.05697
  30 547.200 6.19048 1.05241
  31 544.328 6.25385 -0.0802366
  32 546.952 5.70721 -0.956804
  33 1157.46 10.2027 87.9070
  34 1014.33 9.16268 56.6070
  35 976.611 19.1274 22.1139
  36 948.754 11.0053 -5.61360
  37 998.739 3.51460 -21.4047
  38 1024.08 19.9149 -51.0415
  39 1067.26 75.6868 -110.522
  40 268.469 -143.908 -245.119
  41 55.3032 -292.123 -106.022
  42 21.4371 -411.469 -34.9100
  43 13.8957 -438.727 -3.20840
  44 17.2180 -416.440 35.0615
  45 50.5448 -351.321 92.7064
  46 218.935 -145.674 241.181
  47 1157.46 10.2027 87.9070
  48 1014.33 9.16268 56.6070
  49 976.611 19.1274 22.1139
  50 948.754 11.0053 -5.61360
  51 998.739 3.51460 -21.4047
  52 1024.08 19.9149 -51.0415
  53 1067.26 75.6868 -110.522
  54 268.469 -143.908 -245.119
  55 55.3032 -292.123 -106.022
  56 21.4371 -411.469 -34.9100
  57 13.8957 -438.727 -3.20840
  58 17.2180 -416.440 35.0615
  59 50.5448 -351.321 92.7064
  60 218.935 -145.674 241.181
  61 511.814 21.6322 -9.18785
  62 511.814 21.6322 -9.18785
  63 475.249 7.07556 50.6480
  64 461.659 3.23916 -61.6275
  65 475.249 7.07556 50.6480
  66 461.659 3.23916 -61.6275
  67 269.496 6.78615 17.3045
  68 269.496 6.78615 17.3045
  69 425.797 -79.9135 171.351
  70 425.797 -79.9135 171.351
  71 262.074 -74.9171 -139.069
  72 636.487 -54.5851 -31.3297
  73 706.596 40.6157 -2.90961
  74 675.486 19.2640 -5.15517
  75 262.074 -74.9171 -139.069
  76 636.487 -54.5851 -31.3297
  77 706.596 40.6157 -2.90961
  78 675.486 19.2640 -5.15517
  79 626.123 -29.3463 15.2657
  80 626.123 -29.3463 15.2657
  81 800.994 59.3952 4.98678
  82 800.994 59.3952 4.98678
  83 141.238 -87.1532 -12.0586
  84 141.238 -87.1532 -12.0586
  85 181.033 -118.091 121.861
  86 181.033 -118.091 121.861
  87 673.929 -38.4736 25.0059
  88 673.929 -38.4736 25.0059
  89 540.673 11.8833 7.47120
  90 542.824 13.0117 -7.61752
  91 540.673 11.8833 7.47120
  92 542.824 13.0117 -7.61752
  93 770.062 42.2374 31.2888
  94 770.062 42.2374 31.2888
  95 558.304 5.27243 22.5921
  96 558.304 5.27243 22.5921
  97 828.484 61.2607 -30.6421
  98 837.150 52.0035 -64.8740
  99 828.484 61.2607 -30.6421
  100 837.150 52.0035 -64.8740
  101 545.119 8.47036 -27.9348
  102 545.119 8.47036 -27.9348
  103 438.608 -83.2407 -204.963
  104 438.608 -83.2407 -204.963
  105 372.665 -96.2199 217.207
  106 372.665 -96.2199 217.207
  107 684.654 -51.6706 -80.4009
  108 684.654 -51.6706 -80.4009
  109 517.068 -64.5101 -118.232
  110 517.068 -64.5101 -118.232
  111 874.351 60.5974 46.3345
  112 874.351 60.5974 46.3345
  113 69.4421 -222.779 -82.8967
  114 69.4421 -222.779 -82.8967
  115 40.0221 -264.039 25.1153
  116 40.0221 -264.039 25.1153
  117 470.790 29.9784 -5.82263
  118 470.790 29.9784 -5.82263
  119 566.528 -22.3814 -45.5361
  120 566.528 -22.3814 -45.5361
  121 925.713 25.6085 -21.0744
  122 925.713 25.6085 -21.0744
  123 109.579 -216.812 140.303
  124 109.579 -216.812 140.303
  125 513.108 17.6746 25.9554
  126 513.108 17.6746 25.9554
  127 129.654 -175.040 -154.491
  128 129.654 -175.040 -154.491
  129 675.432 -44.2646 115.391
  130 675.432 -44.2646 115.391
  131 941.980 47.2478 -66.3571
  132 941.980 47.2478 -66.3571
  133 50.0204 -303.877 -23.6212
  134 50.0204 -303.877 -23.6212
  135 60.7123 -290.101 62.5644
  136 60.7123 -290.101 62.5644
  137 557.427 5.32720 -13.1866
  138 557.427 5.32720 -13.1866
  139 531.805 18.1368 -0.951520
  140 531.805 18.1368 -0.951520
  141 543.654 9.19145 -0.121147
  142 543.654 9.19145 -0.121147
  143 558.527 -11.3903 39.5744
  144 558.527 -11.3903 39.5744
  145 393.067 -10.0261 93.3403
  146 561.230 -52.3434 80.3137
  147 391.064 22.8564 2.29313
  148 393.067 -10.0261 93.3403
  149 561.230 -52.3434 80.3137
  150 391.064 22.8564 2.29313
  151 506.494 9.17548 -41.4747
  152 506.494 9.17548 -41.4747
  153 919.595 26.2953 16.4703
  154 919.595 26.2953 16.4703
  155 952.534 21.8532 40.4160
  156 954.531 49.9739 83.3353
  157 952.534 21.8532 40.4160
  158 954.531 49.9739 83.3353
  159 549.134 6.19409 4.31535
  160 549.134 6.19409 4.31535
  161 349.389 -14.0959 -79.7328
  162 349.389 -14.0959 -79.7328
  163 549.158 6.03146 -4.23597
  164 549.158 6.03146 -4.23597
  165 552.273 7.33199 11.9162
  166 552.273 7.33199 11.9162
  167 644.334 -4.95293 13.4491
  168 628.323 -23.0502 -3.74338
  169 644.334 -4.95293 13.4491
  170 628.323 -23.0502 -3.74338
  171 691.043 -15.7221 -1.04991
  172 691.043 -15.7221 -1.04991
  173 532.087 16.5117 13.8645
  174 532.087 16.5117 13.8645
  175 270.418 -27.7817 109.097
  176 270.418 -27.7817 109.097
  177 241.445 -11.2866 -68.8571
  178 241.445 -11.2866 -68.8571
  179 536.426 17.7937 -13.3052
  180 536.426 17.7937 -13.3052
</Section>

newXOutput 164

<Section columns = "stress_xx | stress_yy | stress_xy">
  1 553.548 3.78027 -2.12792
  2 553.092 2.92491 1.91060
  3 553.548 3.78027 -2.12792
  4 553.092 2.92491 1.91060
  5 798.288 35.8132 213.251
  6 789.272 30.4557 -199.844
  7 798.288 35.8132 213.251
  8 789.272 30.4557 -199.844
  9 558.810 1.00502 -6.90560
  10 580.997 0.131536 -11.4815
  11 595.987 -6.93703 -15.6360
  12 627.223 -3.18528 7.37650
  13 629.053 19.5198 5.42591
  14 628.918 -3.07784 -9.65913
  15 601.818 -10.7219 15.6869
  16 573.973 2.54150 13.4202
  17 559.312 3.60570 6.08832
  18 550.363 6.22414 1.05778
  19 547.477 6.28772 -0.0806336
  20 550.114 5.73820 -0.961697
  21 558.810 1.00502 -6.90560
  22 580.997 0.131536 -11.4815
  23 595.987 -6.93703 -15.6360
  24 627.223 -3.18528 7.37650
  25 629.053 19.5198 5.42591
  26 628.918 -3.07784 -9.65913
  27 601.818 -10.7219 15.6869
  28 573.973 2.54150 13.4202
  29 559.312 3.60570 6.08832
  30 550.363 6.22414 1.05778
  31 547.477 6.28772 -0.0806336
  32 550.114 5.73820 -0.961697
  33 1163.67 10.2639 88.4024
  34 1019.83 9.20187 56.9210
  35 981.930 19.2291 22.2316
  36 953.941 11.0590 -5.64197
  37 1004.14 3.53224 -21.5204
  38 1029.63 20.0262 -51.3206
  39 1073.05 76.1492 -111.168
  40 269.976 -144.616 -246.648
  41 55.6269 -293.796 -106.733
  42 21.5572 -413.965 -35.1548
  43 13.9657 -441.413 -3.22692
  44 17.3088 -418.961 35.3058
  45 50.8389 -353.368 93.3387
  46 220.168 -146.391 242.692
  47 1163.67 10.2639 88.4024
  48 1019.83 9.20187 56.9210
  49 981.930 19.2291 22.2316
  50 953.941 11.0590 -5.64197
  51 1004.14 3.53224 -21.5204
  52 1029.63 20.0262 -51.3206
  53 1073.05 76.1492 -111.168
  54 269.976 -144.616 -246.648
  55 55.6269 -293.796 -106.733
  56 21.5572 -413.965 -35.1548
  57 13.9657 -441.413 -3.22692
  58 17.3088 -418.961 35.3058
  59 50.8389 -353.368 93.3387
  60 220.168 -146.391 242.692
  61 514.796 21.7558 -9.23893
  62 514.796 21.7558 -9.23893
  63 478.027 7.11850 50.9391
  64 464.359 3.25968 -61.9816
  65 478.027 7.11850 50.9391
  66 464.359 3.25968 -61.9816
  67 271.124 6.84182 17.4075
  68 271.124 6.84182 17.4075
  69 428.248 -80.3844 172.380
  70 428.248 -80.3844 172.380
  71 263.620 -75.3407 -139.923
  72 640.112 -54.9006 -31.5419
  73 710.633 40.8582 -2.94911
  74 679.354 19.3814 -5.15777
  75 263.620 -75.3407 -139.923
  76 640.112 -54.9006 -31.5419
  77 710.633 40.8582 -2.94911
  78 679.354 19.3814 -5.15777
  79 629.702 -29.5162 15.3764
  80 629.702 -29.5162 15.3764
  81 805.511 59.7320 5.02485
  82 805.511 59.7320 5.02485
  83 142.094 -87.6355 -12.1348
  84 142.094 -87.6355 -12.1348
  85 182.101 -118.760 122.629
  86 182.101 -118.760 122.629
  87 677.757 -38.6851 25.1983
  88 677.757 -38.6851 25.1983
  89 543.804 11.9492 7.51049
  90 545.966 13.0841 -7.65759
  91 543.804 11.9492 7.51049
  92 545.966 13.0841 -7.65759
  93 774.410 42.5021 31.5171
  94 774.410 42.5021 31.5171
  95 561.522 5.30157 22.7169
  96 561.522 5.30157 22.7169
  97 833.143 61.6089 -30.8349
  98 841.827 52.3344 -65.2923
  99 833.143 61.6089 -30.8349
  100 841.827 52.3344 -65.2923
  101 548.271 8.51806 -28.0910
  102 548.271 8.51806 -28.0910
  103 441.083 -83.6693 -206.225
  104 441.083 -83.6693 -206.225
  105 374.776 -96.7223 218.551
  106 374.776 -96.7223 218.551
  107 688.512 -51.9419 -80.9275
  108 688.512 -51.9419 -80.9275
  109 520.036 -64.8880 -118.938
  110 520.036 -64.8880 -118.938
  111 879.225 60.9456 46.6136
  112 879.225 60.9456 46.6136
  113 69.8569 -224.072 -83.4422
  114 69.8569 -224.072 -83.4422
  115 40.2570 -265.597 25.2858
  116 40.2570 -265.597 25.2858
  117 473.551 30.1538 -5.85483
  118 473.551 30.1538 -5.85483
  119 569.785 -22.5131 -45.8048
  120 569.785 -22.5131 -45.8048
  121 930.810 25.7450 -21.1901
  122 930.810 25.7450 -21.1901
  123 110.227 -218.029 141.227
  124 110.227 -218.029 141.227
  125 516.094 17.7761 26.1005
  126 516.094 17.7761 26.1005
  127 130.423 -176.012 -155.491
  128 130.423 -176.012 -155.491
  129 679.236 -44.4912 116.117
  130 679.236 -44.4912 116.117
  131 947.163 47.5143 -66.7429
  132 947.163 47.5143 -66.7429
  133 50.3128 -305.687 -23.7776
  134 50.3128 -305.687 -23.7776
  135 61.0697 -291.803 62.9956
  136 61.0697 -291.803 62.9956
  137 560.641 5.35676 -13.2580
  138 560.641 5.35676 -13.2580
  139 534.892 18.2381 -0.956729
  140 534.892 18.2381 -0.956729
  141 546.800 9.24180 -0.121775
  142 546.800 9.24180 -0.121775
  143 561.744 -11.4577 39.8035
  144 561.744 -11.4577 39.8035
  145 395.384 -10.0803 93.8869
  146 564.446 -52.6494 80.7961
  147 393.388 22.9956 2.30803
  148 395.384 -10.0803 93.8869
  149 564.446 -52.6494 80.7961
  150 393.388 22.9956 2.30803
  151 509.441 9.22884 -41.7088
  152 509.441 9.22884 -41.7088
  153 924.668 26.4338 16.5645
  154 924.668 26.4338 16.5645
  155 957.766 21.9691 40.6395
  156 959.775 50.2883 83.8343
  157 957.766 21.9691 40.6395
  158 959.775 50.2883 83.8343
  159 552.306 6.22810 4.33761
  160 552.306 6.22810 4.33761
  161 351.464 -14.1728 -80.2020
  162 351.464 -14.1728 -80.2020
  163 552.330 6.06457 -4.25780
  164 552.330 6.06457 -4.25780
  165 555.461 7.37285 11.9793
  166 555.461 7.37285 11.9793
  167 648.031 -4.97644 13.4975
  168 631.914 -23.1860 -3.78399
  169 648.031 -4.97644 13.4975
  170 631.914 -23.1860 -3.78399
  171 694.973 -15.7963 -1.10855
  172 694.973 -15.7963 -1.10855
  173 535.175 16.6047 13.9396
  174 535.175 16.6047 13.9396
  175 272.033 -27.9296 109.753
  176 272.033 -27.9296 109.753
  177 242.902 -11.3320 -69.2703
  178 242.902 -11.3320 -69.2703
  179 539.536 17.8940 -13.3777
  180 539.536 17.8940 -13.3777
</Section>

newXOutput 165

<Section columns = "stress_xx | stress_yy | stress_xy">
  1 556.723 3.80080 -2.13874
  2 556.265 2.94069 1.92027
  3 556.723 3.80080 -2.13874
  4 556.265 2.94069 1.92027
  5 802.621 36.1274 214.526
  6 793.588 30.7405 -201.057
  7 802.621 36.1274 214.526
  8 793.588 30.7405 -201.057
  9 562.010 1.00990 -6.94185
  10 584.308 0.132376 -11.5430
  11 599.382 -6.97846 -15.7282
  12 630.804 -3.20355 7.40293
  13 632.670 19.6357 5.45208
  14 632.510 -3.09439 -9.69488
  15 605.243 -10.7852 15.7802
  16 577.249 2.55536 13.4921
  17 562.515 3.62548 6.11960
  18 553.524 6.25775 1.06314
  19 550.624 6.32155 -0.0810295
  20 553.273 5.76915 -0.966578
  21 562.010 1.00990 -6.94185
  22 584.308 0.132376 -11.5430
  23 599.382 -6.97846 -15.7282
  24 630.804 -3.20355 7.40293
  25 632.670 19.6357 5.45208
  26 632.510 -3.09439 -9.69488
  27 605.243 -10.7852 15.7802
  28 577.249 2.55536 13.4921
  29 562.515 3.62548 6.11960
  30 553.524 6.25775 1.06314
  31 550.624 6.32155 -0.0810295
  32 553.273 5.76915 -0.966578
  33 1169.86 10.3251 88.8973
  34 1025.33 9.24089 57.2345
  35 987.241 19.3307 22.3490
  36 959.120 11.1126 -5.67027
  37 1009.54 3.54984 -21.6359
  38 1035.17 20.1375 -51.5992
  39 1078.83 76.6114 -111.813
  40 271.480 -145.321 -248.178
  41 55.9503 -295.468 -107.445
  42 21.6772 -416.459 -35.4000
  43 14.0356 -444.099 -3.24542
  44 17.3994 -421.481 35.5504
  45 51.1329 -355.413 93.9716
  46 221.400 -147.106 244.204
  47 1169.86 10.3251 88.8973
  48 1025.33 9.24089 57.2345
  49 987.241 19.3307 22.3490
  50 959.120 11.1126 -5.67027
  51 1009.54 3.54984 -21.6359
  52 1035.17 20.1375 -51.5992
  53 1078.83 76.6114 -111.813
  54 271.480 -145.321 -248.178
  55 55.9503 -295.468 -107.445
  56 21.6772 -416.459 -35.4000
  57 14.0356 -444.099 -3.24542
  58 17.3994 -421.481 35.5504
  59 51.1329 -355.413 93.9716
  60 221.400 -147.106 244.204
  61 517.776 21.8793 -9.28995
  62 517.776 21.8793 -9.28995
  63 480.802 7.16143 51.2300
  64 467.058 3.28021 -62.3354
  65 480.802 7.16143 51.2300
  66 467.058 3.28021 -62.3354
  67 272.751 6.89763 17.5104
  68 272.751 6.89763 17.5104
  69 430.697 -80.8551 173.408
  70 430.697 -80.8551 173.408
  71 265.165 -75.7639 -140.777
  72 643.734 -55.2159 -31.7543
  73 714.667 41.1007 -2.98884
  74 683.219 19.4988 -5.16005
  75 265.165 -75.7639 -140.777
  76 643.734 -55.2159 -31.7543
  77 714.667 41.1007 -2.98884
  78 683.219 19.4988 -5.16005
  79 633.279 -29.6860 15.4873
  80 633.279 -29.6860 15.4873
  81 810.022 60.0684 5.06300
  82 810.022 60.0684 5.06300
  83 142.949 -88.1172 -12.2110
  84 142.949 -88.1172 -12.2110
  85 183.167 -119.428 123.397
  86 183.167 -119.428 123.397
  87 681.582 -38.8962 25.3912
  88 681.582 -38.8962 25.3912
  89 546.933 12.0149 7.54970
  90 549.105 13.1564 -7.69758
  91 546.933 12.0149 7.54970
  92 549.105 13.1564 -7.69758
  93 778.754 42.7668 31.7459
  94 778.754 42.7668 31.7459
  95 564.738 5.33067 22.8416
  96 564.738 5.33067 22.8416
  97 837.796 61.9568 -31.0277
  98 846.499 52.6654 -65.7108
  99 837.796 61.9568 -31.0277
  100 846.499 52.6654 -65.7108
  101 551.420 8.56571 -28.2470
  102 551.420 8.56571 -28.2470
  103 443.555 -84.0969 -207.486
  104 443.555 -84.0969 -207.486
  105 376.885 -97.2237 219.895
  106 376.885 -97.2237 219.895
  107 692.366 -52.2126 -81.4545
  108 692.366 -52.2126 -81.4545
  109 523.002 -65.2656 -119.644
  110 523.002 -65.2656 -119.644
  111 884.092 61.2935 46.8927
  112 884.092 61.2935 46.8927
  113 70.2716 -225.363 -83.9881
  114 70.2716 -225.363 -83.9881
  115 40.4918 -267.155 25.4564
  116 40.4918 -267.155 25.4564
  117 476.311 30.3290 -5.88699
  118 476.311 30.3290 -5.88699
  119 573.040 -22.6447 -46.0733
  120 573.040 -22.6447 -46.0733
  121 935.899 25.8812 -21.3057
  122 935.899 25.8812 -21.3057
  123 110.875 -219.245 142.152
  124 110.875 -219.245 142.152
  125 519.078 17.8776 26.2455
  126 519.078 17.8776 26.2455
  127 131.191 -176.983 -156.491
  128 131.191 -176.983 -156.491
  129 683.036 -44.7174 116.843
  130 683.036 -44.7174 116.843
  131 952.340 47.7805 -67.1283
  132 952.340 47.7805 -67.1283
  133 50.6050 -307.495 -23.9340
  134 50.6050 -307.495 -23.9340
  135 61.4269 -293.503 63.4273
  136 61.4269 -293.503 63.4273
  137 563.852 5.38628 -13.3293
  138 563.852 5.38628 -13.3293
  139 537.977 18.3393 -0.961930
  140 537.977 18.3393 -0.961930
  141 549.944 9.29207 -0.122402
  142 549.944 9.29207 -0.122402
  143 564.959 -11.5250 40.0323
  144 564.959 -11.5250 40.0323
  145 397.699 -10.1344 94.4331
  146 567.658 -52.9552 81.2784
  147 395.711 23.1348 2.32294
  148 397.699 -10.1344 94.4331
  149 567.658 -52.9552 81.2784
  150 395.711 23.1348 2.32294
  151 512.387 9.28217 -41.9427
  152 512.387 9.28217 -41.9427
  153 929.734 26.5720 16.6587
  154 929.734 26.5720 16.6587
  155 962.991 22.0849 40.8627
  156 965.011 50.6029 84.3330
  157 962.991 22.0849 40.8627
  158 965.011 50.6029 84.3330
  159 555.476 6.26206 4.35981
  160 555.476 6.26206 4.35981
  161 353.538 -14.2497 -80.6710
  162 353.538 -14.2497 -80.6710
  163 555.500 6.09763 -4.27957
  164 555.500 6.09763 -4.27957
  165 558.646 7.41367 12.0424
  166 558.646 7.41367 12.0424
  167 651.724 -4.99988 13.5455
  168 635.502 -23.3218 -3.82478
  169 651.724 -4.99988 13.5455
  170 635.502 -23.3218 -3.82478
  171 698.899 -15.8702 -1.16774
  172 698.899 -15.8702 -1.16774
  173 538.260 16.6976 14.0145
  174 538.260 16.6976 14.0145
  175 273.646 -28.0773 110.409
  176 273.646 -28.0773 110.409
  177 244.359 -11.3772 -69.6834
  178 244.359 -11.3772 -69.6834
  179 542.644 17.9942 -13.4500
  180 542.644 17.9942 -13.4500
</Section>

newXOutput 166

<Section columns = "stress_xx | stress_yy | stress_xy">
  1 559.895 3.82129 -2.14953
  2 559.435 2.95646 1.92991
  3 559.895 3.82129 -2.14953
  4 559.435 2.95646 1.92991
  5 806.948 36.4426 215.801
  6 797.897 31.0265 -202.270
  7 806.948 36.4426 215.801
  8 797.897 31.0265 -202.270
  9 565.208 1.01477 -6.97802
  10 587.616 0.133216 -11.6045
  11 602.775 -7.01987 -15.8203
  12 634.382 -3.22180 7.42917
  13 636.285 19.7515 5.47817
  14 636.098 -3.11092 -9.73038
  15 608.664 -10.8484 15.8734
  16 580.523 2.56920 13.5639
  17 565.715 3.64524 6.15082
  18 556.682 6.29131 1.06849
  19 553.769 6.35532 -0.0814243
  20 556.430 5.80005 -0.971449
  21 565.208 1.01477 -6.97802
  22 587.616 0.133216 -11.6045
  23 602.775 -7.01987 -15.8203
  24 634.382 -3.22180 7.42917
  25 636.285 19.7515 5.47817
  26 636.098 -3.11092 -9.73038
  27 608.664 -10.8484 15.8734
  28 580.523 2.56920 13.5639
  29 565.715 3.64524 6.15082
  30 556.682 6.29131 1.06849
  31 553.769 6.35532 -0.0814243
  32 556.430 5.80005 -0.971449
  33 1176.04 10.3862 89.3916
  34 1030.82 9.27972 57.5477
  35 992.545 19.4321 22.4663
  36 964.292 11.1660 -5.69850
  37 1014.93 3.56740 -21.7512
  38 1040.71 20.2486 -51.8775
  39 1084.61 77.0736 -112.457
  40 272.983 -146.024 -249.708
  41 56.2735 -297.138 -108.157
  42 21.7971 -418.953 -35.6455
  43 14.1052 -446.785 -3.26390
  44 17.4899 -424.001 35.7954
  45 51.4266 -357.456 94.6053
  46 222.630 -147.819 245.716
  47 1176.04 10.3862 89.3916
  48 1030.82 9.27972 57.5477
  49 992.545 19.4321 22.4663
  50 964.292 11.1660 -5.69850
  51 1014.93 3.56740 -21.7512
  52 1040.71 20.2486 -51.8775
  53 1084.61 77.0736 -112.457
  54 272.983 -146.024 -249.708
  55 56.2735 -297.138 -108.157
  56 21.7971 -418.953 -35.6455
  57 14.1052 -446.785 -3.26390
  58 17.4899 -424.001 35.7954
  59 51.4266 -357.456 94.6053
  60 222.630 -147.819 245.716
  61 520.754 22.0027 -9.34090
  62 520.754 22.0027 -9.34090
  63 483.575 7.20436 51.5207
  64 469.754 3.30074 -62.6888
  65 483.575 7.20436 51.5207
  66 469.754 3.30074 -62.6888
  67 274.378 6.95359 17.6133
  68 274.378 6.95359 17.6133
  69 433.145 -81.3255 174.435
  70 433.145 -81.3255 174.435
  71 266.710 -76.1866 -141.630
  72 647.353 -55.5310 -31.9668
  73 718.698 41.3430 -3.02879
  74 687.080 19.6161 -5.16203
  75 266.710 -76.1866 -141.630
  76 647.353 -55.5310 -31.9668
  77 718.698 41.3430 -3.02879
  78 687.080 19.6161 -5.16203
  79 636.852 -29.8557 15.5984
  80 636.852 -29.8557 15.5984
  81 814.529 60.4046 5.10121
  82 814.529 60.4046 5.10121
  83 143.805 -88.5982 -12.2873
  84 143.805 -88.5982 -12.2873
  85 184.233 -120.095 124.165
  86 184.233 -120.095 124.165
  87 685.403 -39.1070 25.5844
  88 685.403 -39.1070 25.5844
  89 550.059 12.0806 7.58884
  90 552.242 13.2286 -7.73750
  91 550.059 12.0806 7.58884
  92 552.242 13.2286 -7.73750
  93 783.094 43.0316 31.9749
  94 783.094 43.0316 31.9749
  95 567.951 5.35972 22.9661
  96 567.951 5.35972 22.9661
  97 842.444 62.3043 -31.2204
  98 851.166 52.9965 -66.1293
  99 842.444 62.3043 -31.2204
  100 851.166 52.9965 -66.1293
  101 554.568 8.61330 -28.4028
  102 554.568 8.61330 -28.4028
  103 446.025 -84.5235 -208.747
  104 446.025 -84.5235 -208.747
  105 378.991 -97.7241 221.239
  106 378.991 -97.7241 221.239
  107 696.216 -52.4828 -81.9817
  108 696.216 -52.4828 -81.9817
  109 525.965 -65.6431 -120.349
  110 525.965 -65.6431 -120.349
  111 888.955 61.6411 47.1716
  112 888.955 61.6411 47.1716
  113 70.6861 -226.654 -84.5344
  114 70.6861 -226.654 -84.5344
  115 40.7265 -268.711 25.6273
  116 40.7265 -268.711 25.6273
  117 479.069 30.5041 -5.91911
  118 479.069 30.5041 -5.91911
  119 576.292 -22.7762 -46.3416
  120 576.292 -22.7762 -46.3416
  121 940.982 26.0172 -21.4212
  122 940.982 26.0172 -21.4212
  123 111.522 -220.460 143.077
  124 111.522 -220.460 143.077
  125 522.060 17.9789 26.3903
  126 522.060 17.9789 26.3903
  127 131.959 -177.953 -157.491
  128 131.959 -177.953 -157.491
  129 686.832 -44.9430 117.569
  130 686.832 -44.9430 117.569
  131 957.509 48.0465 -67.5135
  132 957.509 48.0465 -67.5135
  133 50.8970 -309.303 -24.0906
  134 50.8970 -309.303 -24.0906
  135 61.7839 -295.203 63.8595
  136 61.7839 -295.203 63.8595
  137 567.061 5.41576 -13.4005
  138 567.061 5.41576 -13.4005
  139 541.060 18.4404 -0.967124
  140 541.060 18.4404 -0.967124
  141 553.085 9.34228 -0.123028
  142 553.085 9.34228 -0.123028
  143 568.172 -11.5923 40.2610
  144 568.172 -11.5923 40.2610
  145 400.013 -10.1884 94.9790
  146 570.868 -53.2608 81.7605
  147 398.033 23.2739 2.33785
  148 400.013 -10.1884 94.9790
  149 570.868 -53.2608 81.7605
  150 398.033 23.2739 2.33785
  151 515.330 9.33546 -42.1763
  152 515.330 9.33546 -42.1763
  153 934.793 26.7100 16.7528
  154 934.793 26.7100 16.7528
  155 968.208 22.2005 41.0856
  156 970.240 50.9175 84.8315
  157 968.208 22.2005 41.0856
  158 970.240 50.9175 84.8315
  159 558.643 6.29597 4.38196
  160 558.643 6.29597 4.38196
  161 355.610 -14.3264 -81.1396
  162 355.610 -14.3264 -81.1396
  163 558.667 6.13065 -4.30130
  164 558.667 6.13065 -4.30130
  165 561.828 7.45443 12.1053
  166 561.828 7.45443 12.1053
  167 655.415 -5.02323 13.5932
  168 639.086 -23.4575 -3.86575
  169 655.415 -5.02323 13.5932
  170 639.086 -23.4575 -3.86575
  171 702.821 -15.9439 -1.22748
  172 702.821 -15.9439 -1.22748
  173 541.342 16.7904 14.0894
  174 541.342 16.7904 14.0894
  175 275.259 -28.2247 111.065
  176 275.259 -28.2247 111.065
  177 245.815 -11.4222 -70.0962
  178 245.815 -11.4222 -70.0962
  179 545.749 18.0943 -13.5223
  180 545.749 18.0943 -13.5223
</Section>

newXOutput 167

<Section columns = "stress_xx | stress_yy | stress_xy">
  1 563.065 3.84176 -2.16030
  2 562.603 2.97220 1.93954
  3 563.065 3.84176 -2.16030
  4 562.603 2.97220 1.93954
  5 811.269 36.7589 217.075
  6 802.200 31.3135 -203.482
  7 811.269 36.7589 217.075
  8 802.200 31.3135 -203.482
  9 568.403 1.01962 -7.01413
  10 590.921 0.134057 -11.6658
  11 606.164 -7.06127 -15.9124
  12 637.956 -3.24004 7.45520
  13 639.897 19.8673 5.50418
  14 639.683 -3.12742 -9.76562
  15 612.083 -10.9117 15.9666
  16 583.794 2.58302 13.6356
  17 568.912 3.66496 6.18197
  18 559.838 6.32482 1.07383
  19 556.911 6.38904 -0.0818181
  20 559.584 5.83090 -0.976308
  21 568.403 1.01962 -7.01413
  22 590.921 0.134057 -11.6658
  23 606.164 -7.06127 -15.9124
  24 637.956 -3.24004 7.45520
  25 639.897 19.8673 5.50418
  26 639.683 -3.12742 -9.76562
  27 612.083 -10.9117 15.9666
  28 583.794 2.58302 13.6356
  29 568.912 3.66496 6.18197
  30 559.838 6.32482 1.07383
  31 556.911 6.38904 -0.0818181
  32 559.584 5.83090 -0.976308
  33 1182.21 10.4474 89.8853
  34 1036.30 9.31836 57.8604
  35 997.841 19.5334 22.5833
  36 969.457 11.2193 -5.72666
  37 1020.31 3.58492 -21.8664
  38 1046.24 20.3596 -52.1553
  39 1090.37 77.5357 -113.102
  40 274.485 -146.724 -251.238
  41 56.5965 -298.807 -108.871
  42 21.9168 -421.447 -35.8913
  43 14.1747 -449.471 -3.28236
  44 17.5802 -426.521 36.0407
  45 51.7202 -359.498 95.2397
  46 223.859 -148.530 247.229
  47 1182.21 10.4474 89.8853
  48 1036.30 9.31836 57.8604
  49 997.841 19.5334 22.5833
  50 969.457 11.2193 -5.72666
  51 1020.31 3.58492 -21.8664
  52 1046.24 20.3596 -52.1553
  53 1090.37 77.5357 -113.102
  54 274.485 -146.724 -251.238
  55 56.5965 -298.807 -108.871
  56 21.9168 -421.447 -35.8913
  57 14.1747 -449.471 -3.28236
  58 17.5802 -426.521 36.0407
  59 51.7202 -359.498 95.2397
  60 223.859 -148.530 247.229
  61 523.730 22.1260 -9.39179
  62 523.730 22.1260 -9.39179
  63 486.347 7.24727 51.8111
  64 472.449 3.32127 -63.0420
  65 486.347 7.24727 51.8111
  66 472.449 3.32127 -63.0420
  67 276.004 7.00969 17.7162
  68 276.004 7.00969 17.7162
  69 435.590 -81.7956 175.463
  70 435.590 -81.7956 175.463
  71 268.254 -76.6090 -142.484
  72 650.968 -55.8458 -32.1795
  73 722.724 41.5853 -3.06895
  74 690.938 19.7334 -5.16369
  75 268.254 -76.6090 -142.484
  76 650.968 -55.8458 -32.1795
  77 722.724 41.5853 -3.06895
  78 690.938 19.7334 -5.16369
  79 640.421 -30.0253 15.7096
  80 640.421 -30.0253 15.7096
  81 819.030 60.7404 5.13948
  82 819.030 60.7404 5.13948
  83 144.660 -89.0787 -12.3636
  84 144.660 -89.0787 -12.3636
  85 185.298 -120.762 124.934
  86 185.298 -120.762 124.934
  87 689.220 -39.3176 25.7780
  88 689.220 -39.3176 25.7780
  89 553.183 12.1462 7.62790
  90 555.377 13.3007 -7.77734
  91 553.183 12.1462 7.62790
  92 555.377 13.3007 -7.77734
  93 787.428 43.2964 32.2043
  94 787.428 43.2964 32.2043
  95 571.162 5.38875 23.0905
  96 571.162 5.38875 23.0905
  97 847.086 62.6515 -31.4132
  98 855.826 53.3277 -66.5480
  99 847.086 62.6515 -31.4132
  100 855.826 53.3277 -66.5480
  101 557.712 8.66085 -28.5584
  102 557.712 8.66085 -28.5584
  103 448.492 -84.9491 -210.008
  104 448.492 -84.9491 -210.008
  105 381.095 -98.2234 222.583
  106 381.095 -98.2234 222.583
  107 700.061 -52.7525 -82.5092
  108 700.061 -52.7525 -82.5092
  109 528.926 -66.0203 -121.055
  110 528.926 -66.0203 -121.055
  111 893.811 61.9885 47.4504
  112 893.811 61.9885 47.4504
  113 71.1005 -227.944 -85.0810
  114 71.1005 -227.944 -85.0810
  115 40.9610 -270.267 25.7983
  116 40.9610 -270.267 25.7983
  117 481.825 30.6790 -5.95118
  118 481.825 30.6790 -5.95118
  119 579.541 -22.9077 -46.6098
  120 579.541 -22.9077 -46.6098
  121 946.057 26.1530 -21.5364
  122 946.057 26.1530 -21.5364
  123 112.169 -221.673 144.003
  124 112.169 -221.673 144.003
  125 525.040 18.0802 26.5349
  126 525.040 18.0802 26.5349
  127 132.727 -178.922 -158.492
  128 132.727 -178.922 -158.492
  129 690.623 -45.1681 118.295
  130 690.623 -45.1681 118.295
  131 962.671 48.3121 -67.8984
  132 962.671 48.3121 -67.8984
  133 51.1889 -311.110 -24.2474
  134 51.1889 -311.110 -24.2474
  135 62.1407 -296.901 64.2922
  136 62.1407 -296.901 64.2922
  137 570.266 5.44520 -13.4716
  138 570.266 5.44520 -13.4716
  139 544.140 18.5413 -0.972311
  140 544.140 18.5413 -0.972311
  141 556.224 9.39241 -0.123653
  142 556.224 9.39241 -0.123653
  143 571.381 -11.6595 40.4895
  144 571.381 -11.6595 40.4895
  145 402.326 -10.2423 95.5245
  146 574.075 -53.5662 82.2424
  147 400.353 23.4131 2.35277
  148 402.326 -10.2423 95.5245
  149 574.075 -53.5662 82.2424
  150 400.353 23.4131 2.35277
  151 518.271 9.38871 -42.4096
  152 518.271 9.38871 -42.4096
  153 939.846 26.8477 16.8467
  154 939.846 26.8477 16.8467
  155 973.419 22.3159 41.3082
  156 975.463 51.2321 85.3298
  157 973.419 22.3159 41.3082
  158 975.463 51.2321 85.3298
  159 561.807 6.32984 4.40407
  160 561.807 6.32984 4.40407
  161 357.682 -14.4030 -81.6080
  162 357.682 -14.4030 -81.6080
  163 561.832 6.16363 -4.32298
  164 561.832 6.16363 -4.32298
  165 565.008 7.49514 12.1681
  166 565.008 7.49514 12.1681
  167 659.102 -5.04649 13.6404
  168 642.667 -23.5931 -3.90691
  169 659.102 -5.04649 13.6404
  170 642.667 -23.5931 -3.90691
  171 706.739 -16.0173 -1.28778
  172 706.739 -16.0173 -1.28778
  173 544.423 16.8831 14.1641
  174 544.423 16.8831 14.1641
  175 276.872 -28.3718 111.720
  176 276.872 -28.3718 111.720
  177 247.271 -11.4668 -70.5090
  178 247.271 -11.4668 -70.5090
  179 548.852 18.1943 -13.5944
  180 548.852 18.1943 -13.5944
</Section>

newXOutput 168

<Section columns = "stress_xx | stress_yy | stress_xy">
  1 566.233 3.86219 -2.17105
  2 565.768 2.98791 1.94914
  3 566.233 3.86219 -2.17105
  4 565.768 2.98791 1.94914
  5 815.583 37.0762 218.349
  6 806.498 31.6016 -204.695
  7 815.583 37.0762 218.349
  8 806.498 31.6016 -204.695
  9 571.596 1.02446 -7.05018
  10 594.224 0.134899 -11.7270
  11 609.550 -7.10266 -16.0045
  12 641.528 -3.25826 7.48104
  13 643.506 19.9831 5.53011
  14 643.265 -3.14390 -9.80062
  15 615.498 -10.9749 16.0598
  16 587.062 2.59682 13.7072
  17 572.107 3.68466 6.21305
  18 562.991 6.35828 1.07915
  19 560.051 6.42271 -0.0822108
  20 562.736 5.86170 -0.981157
  21 571.596 1.02446 -7.05018
  22 594.224 0.134899 -11.7270
  23 609.550 -7.10266 -16.0045
  24 641.528 -3.25826 7.48104
  25 643.506 19.9831 5.53011
  26 643.265 -3.14390 -9.80062
  27 615.498 -10.9749 16.0598
  28 587.062 2.59682 13.7072
  29 572.107 3.68466 6.21305
  30 562.991 6.35828 1.07915
  31 560.051 6.42271 -0.0822108
  32 562.736 5.86170 -0.981157
  33 1188.37 10.5085 90.3785
  34 1041.77 9.35683 58.1727
  35 1003.13 19.6344 22.7001
  36 974.614 11.2724 -5.75476
  37 1025.69 3.60240 -21.9814
  38 1051.76 20.4704 -52.4327
  39 1096.13 77.9977 -113.745
  40 275.984 -147.423 -252.768
  41 56.9193 -300.474 -109.584
  42 22.0364 -423.940 -36.1375
  43 14.2441 -452.156 -3.30081
  44 17.6703 -429.039 36.2864
  45 52.0134 -361.538 95.8747
  46 225.086 -149.238 248.741
  47 1188.37 10.5085 90.3785
  48 1041.77 9.35683 58.1727
  49 1003.13 19.6344 22.7001
  50 974.614 11.2724 -5.75476
  51 1025.69 3.60240 -21.9814
  52 1051.76 20.4704 -52.4327
  53 1096.13 77.9977 -113.745
  54 275.984 -147.423 -252.768
  55 56.9193 -300.474 -109.584
  56 22.0364 -423.940 -36.1375
  57 14.2441 -452.156 -3.30081
  58 17.6703 -429.039 36.2864
  59 52.0134 -361.538 95.8747
  60 225.086 -149.238 248.741
  61 526.704 22.2491 -9.44261
  62 526.704 22.2491 -9.44261
  63 489.117 7.29017 52.1012
  64 475.142 3.34180 -63.3949
  65 489.117 7.29017 52.1012
  66 475.142 3.34180 -63.3949
  67 277.630 7.06594 17.8189
  68 277.630 7.06594 17.8189
  69 438.033 -82.2655 176.490
  70 438.033 -82.2655 176.490
  71 269.797 -77.0308 -143.337
  72 654.580 -56.1603 -32.3924
  73 726.747 41.8275 -3.10934
  74 694.792 19.8508 -5.16505
  75 269.797 -77.0308 -143.337
  76 654.580 -56.1603 -32.3924
  77 726.747 41.8275 -3.10934
  78 694.792 19.8508 -5.16505
  79 643.988 -30.1947 15.8210
  80 643.988 -30.1947 15.8210
  81 823.527 61.0758 5.17783
  82 823.527 61.0758 5.17783
  83 145.516 -89.5585 -12.4398
  84 145.516 -89.5585 -12.4398
  85 186.363 -121.428 125.703
  86 186.363 -121.428 125.703
  87 693.033 -39.5278 25.9720
  88 693.033 -39.5278 25.9720
  89 556.305 12.2117 7.66689
  90 558.509 13.3727 -7.81711
  91 556.305 12.2117 7.66689
  92 558.509 13.3727 -7.81711
  93 791.759 43.5613 32.4341
  94 791.759 43.5613 32.4341
  95 574.370 5.41773 23.2147
  96 574.370 5.41773 23.2147
  97 851.724 62.9983 -31.6061
  98 860.482 53.6590 -66.9668
  99 851.724 62.9983 -31.6061
  100 860.482 53.6590 -66.9668
  101 560.855 8.70834 -28.7138
  102 560.855 8.70834 -28.7138
  103 450.957 -85.3738 -211.269
  104 450.957 -85.3738 -211.269
  105 383.197 -98.7217 223.927
  106 383.197 -98.7217 223.927
  107 703.903 -53.0216 -83.0371
  108 703.903 -53.0216 -83.0371
  109 531.884 -66.3972 -121.760
  110 531.884 -66.3972 -121.760
  111 898.661 62.3355 47.7291
  112 898.661 62.3355 47.7291
  113 71.5146 -229.232 -85.6281
  114 71.5146 -229.232 -85.6281
  115 41.1954 -271.822 25.9696
  116 41.1954 -271.822 25.9696
  117 484.580 30.8539 -5.98322
  118 484.580 30.8539 -5.98322
  119 582.788 -23.0391 -46.8779
  120 582.788 -23.0391 -46.8779
  121 951.126 26.2885 -21.6515
  122 951.126 26.2885 -21.6515
  123 112.816 -222.884 144.929
  124 112.816 -222.884 144.929
  125 528.017 18.1814 26.6794
  126 528.017 18.1814 26.6794
  127 133.494 -179.889 -159.494
  128 133.494 -179.889 -159.494
  129 694.410 -45.3927 119.021
  130 694.410 -45.3927 119.021
  131 967.827 48.5775 -68.2829
  132 967.827 48.5775 -68.2829
  133 51.4805 -312.917 -24.4042
  134 51.4805 -312.917 -24.4042
  135 62.4972 -298.598 64.7255
  136 62.4972 -298.598 64.7255
  137 573.470 5.47461 -13.5426
  138 573.470 5.47461 -13.5426
  139 547.218 18.6421 -0.977490
  140 547.218 18.6421 -0.977490
  141 559.360 9.44247 -0.124276
  142 559.360 9.44247 -0.124276
  143 574.588 -11.7267 40.7178
  144 574.588 -11.7267 40.7178
  145 404.637 -10.2962 96.0697
  146 577.279 -53.8714 82.7241
  147 402.673 23.5521 2.36770
  148 404.637 -10.2962 96.0697
  149 577.279 -53.8714 82.7241
  150 402.673 23.5521 2.36770
  151 521.211 9.44192 -42.6427
  152 521.211 9.44192 -42.6427
  153 944.892 26.9851 16.9406
  154 944.892 26.9851 16.9406
  155 978.622 22.4310 41.5305
  156 980.678 51.5468 85.8278
  157 978.622 22.4310 41.5305
  158 980.678 51.5468 85.8278
  159 564.970 6.36366 4.42613
  160 564.970 6.36366 4.42613
  161 359.753 -14.4795 -82.0761
  162 359.753 -14.4795 -82.0761
  163 564.994 6.19655 -4.34461
  164 564.994 6.19655 -4.34461
  165 568.186 7.53581 12.2308
  166 568.186 7.53581 12.2308
  167 662.786 -5.06968 13.6873
  168 646.244 -23.7286 -3.94824
  169 662.786 -5.06968 13.6873
  170 646.244 -23.7286 -3.94824
  171 710.653 -16.0904 -1.34862
  172 710.653 -16.0904 -1.34862
  173 547.501 16.9757 14.2387
  174 547.501 16.9757 14.2387
  175 278.483 -28.5187 112.375
  176 278.483 -28.5187 112.375
  177 248.727 -11.5112 -70.9215
  178 248.727 -11.5112 -70.9215
  179 551.953 18.2942 -13.6664
  180 551.953 18.2942 -13.6664
</Section>

newXOutput 169

<Section columns = "stress_xx | stress_yy | stress_xy">
  1 569.398 3.88260 -2.18177
  2 568.931 3.00361 1.95872
  3 569.398 3.88260 -2.18177
  4 568.931 3.00361 1.95872
  5 819.891 37.3945 219.622
  6 810.789 31.8908 -205.907
  7 819.891 37.3945 219.622
  8 810.789 31.8908 -205.907
  9 574.786 1.02928 -7.08616
  10 597.523 0.135741 -11.7881
  11 612.934 -7.14403 -16.0964
  12 645.097 -3.27647 7.50668
  13 647.112 20.0988 5.55597
  14 646.844 -3.16034 -9.83537
  15 618.910 -11.0380 16.1529
  16 590.328 2.61060 13.7787
  17 575.300 3.70434 6.24407
  18 566.142 6.39168 1.08447
  19 563.189 6.45632 -0.0826025
  20 565.886 5.89246 -0.985994
  21 574.786 1.02928 -7.08616
  22 597.523 0.135741 -11.7881
  23 612.934 -7.14403 -16.0964
  24 645.097 -3.27647 7.50668
  25 647.112 20.0988 5.55597
  26 646.844 -3.16034 -9.83537
  27 618.910 -11.0380 16.1529
  28 590.328 2.61060 13.7787
  29 575.300 3.70434 6.24407
  30 566.142 6.39168 1.08447
  31 563.189 6.45632 -0.0826025
  32 565.886 5.89246 -0.985994
  33 1194.52 10.5696 90.8711
  34 1047.24 9.39511 58.4846
  35 1008.41 19.7353 22.8167
  36 979.764 11.3254 -5.78278
  37 1031.05 3.61984 -22.0961
  38 1057.27 20.5812 -52.7097
  39 1101.88 78.4597 -114.388
  40 277.482 -148.120 -254.298
  41 57.2418 -302.139 -110.299
  42 22.1559 -426.432 -36.3841
  43 14.3132 -454.841 -3.31925
  44 17.7602 -431.557 36.5324
  45 52.3065 -363.577 96.5105
  46 226.312 -149.945 250.253
  47 1194.52 10.5696 90.8711
  48 1047.24 9.39511 58.4846
  49 1008.41 19.7353 22.8167
  50 979.764 11.3254 -5.78278
  51 1031.05 3.61984 -22.0961
  52 1057.27 20.5812 -52.7097
  53 1101.88 78.4597 -114.388
  54 277.482 -148.120 -254.298
  55 57.2418 -302.139 -110.299
  56 22.1559 -426.432 -36.3841
  57 14.3132 -454.841 -3.31925
  58 17.7602 -431.557 36.5324
  59 52.3065 -363.577 96.5105
  60 226.312 -149.945 250.253
  61 529.676 22.3722 -9.49337
  62 529.676 22.3722 -9.49337
  63 491.885 7.33305 52.3911
  64 477.834 3.36234 -63.7474
  65 491.885 7.33305 52.3911
  66 477.834 3.36234 -63.7474
  67 279.255 7.12233 17.9217
  68 279.255 7.12233 17.9217
  69 440.475 -82.7352 177.516
  70 440.475 -82.7352 177.516
  71 271.339 -77.4523 -144.191
  72 658.188 -56.4746 -32.6055
  73 730.766 42.0696 -3.14995
  74 698.643 19.9681 -5.16610
  75 271.339 -77.4523 -144.191
  76 658.188 -56.4746 -32.6055
  77 730.766 42.0696 -3.14995
  78 698.643 19.9681 -5.16610
  79 647.551 -30.3640 15.9326
  80 647.551 -30.3640 15.9326
  81 828.019 61.4110 5.21623
  82 828.019 61.4110 5.21623
  83 146.371 -90.0376 -12.5162
  84 146.371 -90.0376 -12.5162
  85 187.427 -122.093 126.472
  86 187.427 -122.093 126.472
  87 696.842 -39.7377 26.1664
  88 696.842 -39.7377 26.1664
  89 559.424 12.2771 7.70580
  90 561.639 13.4446 -7.85679
  91 559.424 12.2771 7.70580
  92 561.639 13.4446 -7.85679
  93 796.084 43.8262 32.6641
  94 796.084 43.8262 32.6641
  95 577.575 5.44667 23.3387
  96 577.575 5.44667 23.3387
  97 856.356 63.3449 -31.7989
  98 865.132 53.9904 -67.3858
  99 856.356 63.3449 -31.7989
  100 865.132 53.9904 -67.3858
  101 563.994 8.75578 -28.8691
  102 563.994 8.75578 -28.8691
  103 453.419 -85.7975 -212.530
  104 453.419 -85.7975 -212.530
  105 385.297 -99.2190 225.271
  106 385.297 -99.2190 225.271
  107 707.740 -53.2901 -83.5652
  108 707.740 -53.2901 -83.5652
  109 534.840 -66.7740 -122.464
  110 534.840 -66.7740 -122.464
  111 903.505 62.6823 48.0076
  112 903.505 62.6823 48.0076
  113 71.9286 -230.520 -86.1755
  114 71.9286 -230.520 -86.1755
  115 41.4296 -273.376 26.1410
  116 41.4296 -273.376 26.1410
  117 487.333 31.0287 -6.01521
  118 487.333 31.0287 -6.01521
  119 586.032 -23.1704 -47.1458
  120 586.032 -23.1704 -47.1458
  121 956.189 26.4238 -21.7665
  122 956.189 26.4238 -21.7665
  123 113.462 -224.094 145.856
  124 113.462 -224.094 145.856
  125 530.993 18.2825 26.8237
  126 530.993 18.2825 26.8237
  127 134.261 -180.855 -160.496
  128 134.261 -180.855 -160.496
  129 698.194 -45.6167 119.748
  130 698.194 -45.6167 119.748
  131 972.975 48.8426 -68.6672
  132 972.975 48.8426 -68.6672
  133 51.7720 -314.722 -24.5612
  134 51.7720 -314.722 -24.5612
  135 62.8536 -300.294 65.1593
  136 62.8536 -300.294 65.1593
  137 576.670 5.50398 -13.6135
  138 576.670 5.50398 -13.6135
  139 550.294 18.7429 -0.982661
  140 550.294 18.7429 -0.982661
  141 562.494 9.49246 -0.124898
  142 562.494 9.49246 -0.124898
  143 577.793 -11.7939 40.9459
  144 577.793 -11.7939 40.9459
  145 406.947 -10.3499 96.6145
  146 580.480 -54.1764 83.2057
  147 404.991 23.6912 2.38264
  148 406.947 -10.3499 96.6145
  149 580.480 -54.1764 83.2057
  150 404.991 23.6912 2.38264
  151 524.148 9.49510 -42.8755
  152 524.148 9.49510 -42.8755
  153 949.931 27.1224 17.0344
  154 949.931 27.1224 17.0344
  155 983.819 22.5460 41.7525
  156 985.885 51.8615 86.3256
  157 983.819 22.5460 41.7525
  158 985.885 51.8615 86.3256
  159 568.129 6.39743 4.44814
  160 568.129 6.39743 4.44814
  161 361.823 -14.5559 -82.5440
  162 361.823 -14.5559 -82.5440
  163 568.153 6.22944 -4.36620
  164 568.153 6.22944 -4.36620
  165 571.361 7.57642 12.2933
  166 571.361 7.57642 12.2933
  167 666.467 -5.09278 13.7339
  168 649.818 -23.8641 -3.98976
  169 666.467 -5.09278 13.7339
  170 649.818 -23.8641 -3.98976
  171 714.564 -16.1633 -1.41002
  172 714.564 -16.1633 -1.41002
  173 550.577 17.0682 14.3132
  174 550.577 17.0682 14.3132
  175 280.094 -28.6653 113.030
  176 280.094 -28.6653 113.030
  177 250.182 -11.5554 -71.3339
  178 250.182 -11.5554 -71.3339
  179 555.051 18.3940 -13.7383
  180 555.051 18.3940 -13.7383
</Section>

newXOutput 170

<Section columns = "stress_xx | stress_yy | stress_xy">
  1 572.560 3.90298 -2.19247
  2 572.091 3.01927 1.96827
  3 572.560 3.90298 -2.19247
  4 572.091 3.01927 1.96827
  5 824.193 37.7138 220.895
  6 815.075 32.1811 -207.118
  7 824.193 37.7138 220.895
  8 815.075 32.1811 -207.118
  9 577.973 1.03409 -7.12207
  10 600.820 0.136584 -11.8491
  11 616.314 -7.18539 -16.1884
  12 648.662 -3.29466 7.53212
  13 650.715 20.2144 5.58175
  14 650.420 -3.17676 -9.86986
  15 622.319 -11.1012 16.2460
  16 593.590 2.62437 13.8501
  17 578.489 3.72399 6.27502
  18 569.290 6.42504 1.08977
  19 566.324 6.48989 -0.0829931
  20 569.033 5.92317 -0.990821
  21 577.973 1.03409 -7.12207
  22 600.820 0.136584 -11.8491
  23 616.314 -7.18539 -16.1884
  24 648.662 -3.29466 7.53212
  25 650.715 20.2144 5.58175
  26 650.420 -3.17676 -9.86986
  27 622.319 -11.1012 16.2460
  28 593.590 2.62437 13.8501
  29 578.489 3.72399 6.27502
  30 569.290 6.42504 1.08977
  31 566.324 6.48989 -0.0829931
  32 569.033 5.92317 -0.990821
  33 1200.66 10.6307 91.3631
  34 1052.70 9.43321 58.7961
  35 1013.68 19.8361 22.9331
  36 984.906 11.3782 -5.81074
  37 1036.41 3.63724 -22.2107
  38 1062.77 20.6918 -52.9862
  39 1107.62 78.9215 -115.031
  40 278.978 -148.814 -255.828
  41 57.5641 -303.803 -111.014
  42 22.2752 -428.924 -36.6310
  43 14.3822 -457.526 -3.33766
  44 17.8499 -434.075 36.7787
  45 52.5993 -365.615 97.1469
  46 227.537 -150.650 251.766
  47 1200.66 10.6307 91.3631
  48 1052.70 9.43321 58.7961
  49 1013.68 19.8361 22.9331
  50 984.906 11.3782 -5.81074
  51 1036.41 3.63724 -22.2107
  52 1062.77 20.6918 -52.9862
  53 1107.62 78.9215 -115.031
  54 278.978 -148.814 -255.828
  55 57.5641 -303.803 -111.014
  56 22.2752 -428.924 -36.6310
  57 14.3822 -457.526 -3.33766
  58 17.8499 -434.075 36.7787
  59 52.5993 -365.615 97.1469
  60 227.537 -150.650 251.766
  61 532.646 22.4951 -9.54407
  62 532.646 22.4951 -9.54407
  63 494.651 7.37593 52.6807
  64 480.523 3.38289 -64.0997
  65 494.651 7.37593 52.6807
  66 480.523 3.38289 -64.0997
  67 280.880 7.17886 18.0244
  68 280.880 7.17886 18.0244
  69 442.914 -83.2046 178.542
  70 442.914 -83.2046 178.542
  71 272.880 -77.8733 -145.044
  72 661.793 -56.7887 -32.8188
  73 734.782 42.3116 -3.19078
  74 702.490 20.0853 -5.16685
  75 272.880 -77.8733 -145.044
  76 661.793 -56.7887 -32.8188
  77 734.782 42.3116 -3.19078
  78 702.490 20.0853 -5.16685
  79 651.111 -30.5332 16.0443
  80 651.111 -30.5332 16.0443
  81 832.506 61.7458 5.25471
  82 832.506 61.7458 5.25471
  83 147.225 -90.5161 -12.5925
  84 147.225 -90.5161 -12.5925
  85 188.490 -122.758 127.240
  86 188.490 -122.758 127.240
  87 700.648 -39.9473 26.3612
  88 700.648 -39.9473 26.3612
  89 562.541 12.3424 7.74464
  90 564.767 13.5164 -7.89641
  91 562.541 12.3424 7.74464
  92 564.767 13.5164 -7.89641
  93 800.405 44.0911 32.8945
  94 800.405 44.0911 32.8945
  95 580.778 5.47558 23.4625
  96 580.778 5.47558 23.4625
  97 860.983 63.6911 -31.9917
  98 869.776 54.3219 -67.8048
  99 860.983 63.6911 -31.9917
  100 869.776 54.3219 -67.8048
  101 567.132 8.80317 -29.0242
  102 567.132 8.80317 -29.0242
  103 455.878 -86.2203 -213.791
  104 455.878 -86.2203 -213.791
  105 387.395 -99.7152 226.615
  106 387.395 -99.7152 226.615
  107 711.574 -53.5581 -84.0935
  108 711.574 -53.5581 -84.0935
  109 537.793 -67.1504 -123.168
  110 537.793 -67.1504 -123.168
  111 908.344 63.0288 48.2861
  112 908.344 63.0288 48.2861
  113 72.3425 -231.807 -86.7234
  114 72.3425 -231.807 -86.7234
  115 41.6638 -274.930 26.3126
  116 41.6638 -274.930 26.3126
  117 490.084 31.2033 -6.04716
  118 490.084 31.2033 -6.04716
  119 589.272 -23.3017 -47.4135
  120 589.272 -23.3017 -47.4135
  121 961.244 26.5589 -21.8812
  122 961.244 26.5589 -21.8812
  123 114.108 -225.303 146.784
  124 114.108 -225.303 146.784
  125 533.966 18.3835 26.9678
  126 533.966 18.3835 26.9678
  127 135.027 -181.820 -161.499
  128 135.027 -181.820 -161.499
  129 701.973 -45.8402 120.474
  130 701.973 -45.8402 120.474
  131 978.116 49.1074 -69.0511
  132 978.116 49.1074 -69.0511
  133 52.0633 -316.527 -24.7183
  134 52.0633 -316.527 -24.7183
  135 63.2098 -301.990 65.5936
  136 63.2098 -301.990 65.5936
  137 579.868 5.53332 -13.6842
  138 579.868 5.53332 -13.6842
  139 553.367 18.8434 -0.987825
  140 553.367 18.8434 -0.987825
  141 565.625 9.54238 -0.125519
  142 565.625 9.54238 -0.125519
  143 580.994 -11.8611 41.1739
  144 580.994 -11.8611 41.1739
  145 409.256 -10.4036 97.1590
  146 583.678 -54.4813 83.6871
  147 407.308 23.8302 2.39758
  148 409.256 -10.4036 97.1590
  149 583.678 -54.4813 83.6871
  150 407.308 23.8302 2.39758
  151 527.083 9.54823 -43.1081
  152 527.083 9.54823 -43.1081
  153 954.963 27.2593 17.1281
  154 954.963 27.2593 17.1281
  155 989.008 22.6608 41.9742
  156 991.086 52.1763 86.8231
  157 989.008 22.6608 41.9742
  158 991.086 52.1763 86.8231
  159 571.286 6.43116 4.47011
  160 571.286 6.43116 4.47011
  161 363.892 -14.6322 -83.0115
  162 363.892 -14.6322 -83.0115
  163 571.310 6.26227 -4.38774
  164 571.310 6.26227 -4.38774
  165 574.533 7.61699 12.3558
  166 574.533 7.61699 12.3558
  167 670.144 -5.11579 13.7800
  168 653.389 -23.9995 -4.03145
  169 670.144 -5.11579 13.7800
  170 653.389 -23.9995 -4.03145
  171 718.471 -16.2359 -1.47196
  172 718.471 -16.2359 -1.47196
  173 553.650 17.1606 14.3875
  174 553.650 17.1606 14.3875
  175 281.705 -28.8117 113.685
  176 281.705 -28.8117 113.685
  177 251.636 -11.5993 -71.7462
  178 251.636 -11.5993 -71.7462
  179 558.147 18.4936 -13.8102
  180 558.147 18.4936 -13.8102
</Section>

newXOutput 171

<Section columns = "stress_xx | stress_yy | stress_xy">
  1 575.720 3.92332 -2.20314
  2 575.249 3.03492 1.97781
  3 575.720 3.92332 -2.20314
  4 575.249 3.03492 1.97781
  5 828.489 38.0342 222.167
  6 819.355 32.4724 -208.330
  7 828.489 38.0342 222.167
  8 819.355 32.4724 -208.330
  9 581.158 1.03889 -7.15791
  10 604.114 0.137427 -11.9100
  11 619.692 -7.22674 -16.2803
  12 652.225 -3.31284 7.55736
  13 654.315 20.3300 5.60745
  14 653.992 -3.19316 -9.90411
  15 625.726 -11.1643 16.3391
  16 596.850 2.63811 13.9213
  17 581.676 3.74361 6.30591
  18 572.435 6.45835 1.09505
  19 569.456 6.52340 -0.0833827
  20 572.177 5.95384 -0.995636
  21 581.158 1.03889 -7.15791
  22 604.114 0.137427 -11.9100
  23 619.692 -7.22674 -16.2803
  24 652.225 -3.31284 7.55736
  25 654.315 20.3300 5.60745
  26 653.992 -3.19316 -9.90411
  27 625.726 -11.1643 16.3391
  28 596.850 2.63811 13.9213
  29 581.676 3.74361 6.30591
  30 572.435 6.45835 1.09505
  31 569.456 6.52340 -0.0833827
  32 572.177 5.95384 -0.995636
  33 1206.79 10.6917 91.8545
  34 1058.14 9.47113 59.1072
  35 1018.95 19.9366 23.0493
  36 990.042 11.4309 -5.83863
  37 1041.76 3.65460 -22.3251
  38 1068.27 20.8023 -53.2624
  39 1113.35 79.3832 -115.673
  40 280.472 -149.507 -257.358
  41 57.8862 -305.466 -111.730
  42 22.3943 -431.415 -36.8783
  43 14.4510 -460.210 -3.35606
  44 17.9395 -436.591 37.0254
  45 52.8919 -367.651 97.7840
  46 228.760 -151.352 253.279
  47 1206.79 10.6917 91.8545
  48 1058.14 9.47113 59.1072
  49 1018.95 19.9366 23.0493
  50 990.042 11.4309 -5.83863
  51 1041.76 3.65460 -22.3251
  52 1068.27 20.8023 -53.2624
  53 1113.35 79.3832 -115.673
  54 280.472 -149.507 -257.358
  55 57.8862 -305.466 -111.730
  56 22.3943 -431.415 -36.8783
  57 14.4510 -460.210 -3.35606
  58 17.9395 -436.591 37.0254
  59 52.8919 -367.651 97.7840
  60 228.760 -151.352 253.279
  61 535.614 22.6179 -9.59470
  62 535.614 22.6179 -9.59470
  63 497.415 7.41880 52.9701
  64 483.211 3.40343 -64.4516
  65 497.415 7.41880 52.9701
  66 483.211 3.40343 -64.4516
  67 282.504 7.23553 18.1270
  68 282.504 7.23553 18.1270
  69 445.351 -83.6737 179.568
  70 445.351 -83.6737 179.568
  71 274.420 -78.2939 -145.897
  72 665.394 -57.1025 -33.0323
  73 738.793 42.5534 -3.23182
  74 706.334 20.2026 -5.16729
  75 274.420 -78.2939 -145.897
  76 665.394 -57.1025 -33.0323
  77 738.793 42.5534 -3.23182
  78 706.334 20.2026 -5.16729
  79 654.668 -30.7022 16.1563
  80 654.668 -30.7022 16.1563
  81 836.988 62.0803 5.29325
  82 836.988 62.0803 5.29325
  83 148.080 -90.9940 -12.6688
  84 148.080 -90.9940 -12.6688
  85 189.553 -123.422 128.010
  86 189.553 -123.422 128.010
  87 704.450 -40.1566 26.5564
  88 704.450 -40.1566 26.5564
  89 565.655 12.4077 7.78340
  90 567.892 13.5882 -7.93594
  91 565.655 12.4077 7.78340
  92 567.892 13.5882 -7.93594
  93 804.721 44.3561 33.1253
  94 804.721 44.3561 33.1253
  95 583.978 5.50444 23.5862
  96 583.978 5.50444 23.5862
  97 865.605 64.0369 -32.1845
  98 874.415 54.6535 -68.2239
  99 865.605 64.0369 -32.1845
  100 874.415 54.6535 -68.2239
  101 570.267 8.85051 -29.1790
  102 570.267 8.85051 -29.1790
  103 458.334 -86.6420 -215.051
  104 458.334 -86.6420 -215.051
  105 389.490 -100.210 227.959
  106 389.490 -100.210 227.959
  107 715.403 -53.8256 -84.6222
  108 715.403 -53.8256 -84.6222
  109 540.743 -67.5267 -123.872
  110 540.743 -67.5267 -123.872
  111 913.176 63.3749 48.5644
  112 913.176 63.3749 48.5644
  113 72.7561 -233.093 -87.2716
  114 72.7561 -233.093 -87.2716
  115 41.8978 -276.482 26.4843
  116 41.8978 -276.482 26.4843
  117 492.833 31.3778 -6.07906
  118 492.833 31.3778 -6.07906
  119 592.511 -23.4328 -47.6811
  120 592.511 -23.4328 -47.6811
  121 966.292 26.6938 -21.9958
  122 966.292 26.6938 -21.9958
  123 114.754 -226.510 147.713
  124 114.754 -226.510 147.713
  125 536.937 18.4844 27.1118
  126 536.937 18.4844 27.1118
  127 135.793 -182.784 -162.502
  128 135.793 -182.784 -162.502
  129 705.747 -46.0632 121.201
  130 705.747 -46.0632 121.201
  131 983.251 49.3719 -69.4347
  132 983.251 49.3719 -69.4347
  133 52.3544 -318.331 -24.8755
  134 52.3544 -318.331 -24.8755
  135 63.5657 -303.684 66.0284
  136 63.5657 -303.684 66.0284
  137 583.064 5.56261 -13.7549
  138 583.064 5.56261 -13.7549
  139 556.439 18.9439 -0.992982
  140 556.439 18.9439 -0.992982
  141 568.754 9.59223 -0.126138
  142 568.754 9.59223 -0.126138
  143 584.194 -11.9282 41.4016
  144 584.194 -11.9282 41.4016
  145 411.564 -10.4572 97.7031
  146 586.873 -54.7859 84.1683
  147 409.625 23.9692 2.41254
  148 411.564 -10.4572 97.7031
  149 586.873 -54.7859 84.1683
  150 409.625 23.9692 2.41254
  151 530.016 9.60133 -43.3404
  152 530.016 9.60133 -43.3404
  153 959.989 27.3960 17.2217
  154 959.989 27.3960 17.2217
  155 994.190 22.7754 42.1957
  156 996.279 52.4912 87.3204
  157 994.190 22.7754 42.1957
  158 996.279 52.4912 87.3204
  159 574.441 6.46484 4.49202
  160 574.441 6.46484 4.49202
  161 365.960 -14.7083 -83.4788
  162 365.960 -14.7083 -83.4788
  163 574.465 6.29506 -4.40923
  164 574.465 6.29506 -4.40923
  165 577.703 7.65751 12.4181
  166 577.703 7.65751 12.4181
  167 673.819 -5.13873 13.8258
  168 656.957 -24.1348 -4.07332
  169 673.819 -5.13873 13.8258
  170 656.957 -24.1348 -4.07332
  171 722.374 -16.3082 -1.53444
  172 722.374 -16.3082 -1.53444
  173 556.722 17.2529 14.4618
  174 556.722 17.2529 14.4618
  175 283.315 -28.9579 114.340
  176 283.315 -28.9579 114.340
  177 253.091 -11.6429 -72.1583
  178 253.091 -11.6429 -72.1583
  179 561.241 18.5932 -13.8819
  180 561.241 18.5932 -13.8819
</Section>

newXOutput 172

<Section columns = "stress_xx | stress_yy | stress_xy">
  1 578.877 3.94364 -2.21379
  2 578.404 3.05054 1.98732
  3 578.877 3.94364 -2.21379
  4 578.404 3.05054 1.98732
  5 832.778 38.3555 223.439
  6 823.629 32.7648 -209.541
  7 832.778 38.3555 223.439
  8 823.629 32.7648 -209.541
  9 584.340 1.04367 -7.19369
  10 607.405 0.138270 -11.9708
  11 623.066 -7.26807 -16.3721
  12 655.785 -3.33100 7.58241
  13 657.913 20.4456 5.63308
  14 657.562 -3.20952 -9.93811
  15 629.129 -11.2274 16.4321
  16 600.107 2.65184 13.9924
  17 584.861 3.76321 6.33673
  18 575.579 6.49160 1.10033
  19 572.586 6.55686 -0.0837712
  20 575.319 5.98445 -1.00044
  21 584.340 1.04367 -7.19369
  22 607.405 0.138270 -11.9708
  23 623.066 -7.26807 -16.3721
  24 655.785 -3.33100 7.58241
  25 657.913 20.4456 5.63308
  26 657.562 -3.20952 -9.93811
  27 629.129 -11.2274 16.4321
  28 600.107 2.65184 13.9924
  29 584.861 3.76321 6.33673
  30 575.579 6.49160 1.10033
  31 572.586 6.55686 -0.0837712
  32 575.319 5.98445 -1.00044
  33 1212.91 10.7528 92.3453
  34 1063.58 9.50887 59.4179
  35 1024.20 20.0370 23.1653
  36 995.170 11.4835 -5.86646
  37 1047.10 3.67192 -22.4394
  38 1073.76 20.9126 -53.5381
  39 1119.08 79.8449 -116.314
  40 281.964 -150.197 -258.888
  41 58.2080 -307.127 -112.446
  42 22.5134 -433.906 -37.1259
  43 14.5196 -462.894 -3.37445
  44 18.0289 -439.107 37.2724
  45 53.1843 -369.685 98.4218
  46 229.982 -152.052 254.791
  47 1212.91 10.7528 92.3453
  48 1063.58 9.50887 59.4179
  49 1024.20 20.0370 23.1653
  50 995.170 11.4835 -5.86646
  51 1047.10 3.67192 -22.4394
  52 1073.76 20.9126 -53.5381
  53 1119.08 79.8449 -116.314
  54 281.964 -150.197 -258.888
  55 58.2080 -307.127 -112.446
  56 22.5134 -433.906 -37.1259
  57 14.5196 -462.894 -3.37445
  58 18.0289 -439.107 37.2724
  59 53.1843 -369.685 98.4218
  60 229.982 -152.052 254.791
  61 538.579 22.7406 -9.64527
  62 538.579 22.7406 -9.64527
  63 500.178 7.46166 53.2592
  64 485.897 3.42398 -64.8033
  65 500.178 7.46166 53.2592
  66 485.897 3.42398 -64.8033
  67 284.128 7.29235 18.2296
  68 284.128 7.29235 18.2296
  69 447.786 -84.1426 180.594
  70 447.786 -84.1426 180.594
  71 275.960 -78.7141 -146.750
  72 668.992 -57.4161 -33.2459
  73 742.801 42.7953 -3.27309
  74 710.175 20.3198 -5.16742
  75 275.960 -78.7141 -146.750
  76 668.992 -57.4161 -33.2459
  77 742.801 42.7953 -3.27309
  78 710.175 20.3198 -5.16742
  79 658.221 -30.8711 16.2683
  80 658.221 -30.8711 16.2683
  81 841.466 62.4144 5.33185
  82 841.466 62.4144 5.33185
  83 148.935 -91.4713 -12.7452
  84 148.935 -91.4713 -12.7452
  85 190.615 -124.085 128.779
  86 190.615 -124.085 128.779
  87 708.248 -40.3657 26.7520
  88 708.248 -40.3657 26.7520
  89 568.767 12.4729 7.82209
  90 571.014 13.6598 -7.97540
  91 568.767 12.4729 7.82209
  92 571.014 13.6598 -7.97540
  93 809.033 44.6211 33.3564
  94 809.033 44.6211 33.3564
  95 587.175 5.53327 23.7098
  96 587.175 5.53327 23.7098
  97 870.222 64.3825 -32.3773
  98 879.048 54.9852 -68.6432
  99 870.222 64.3825 -32.3773
  100 879.048 54.9852 -68.6432
  101 573.399 8.89779 -29.3337
  102 573.399 8.89779 -29.3337
  103 460.788 -87.0628 -216.311
  104 460.788 -87.0628 -216.311
  105 391.583 -100.704 229.303
  106 391.583 -100.704 229.303
  107 719.227 -54.0925 -85.1511
  108 719.227 -54.0925 -85.1511
  109 543.691 -67.9027 -124.576
  110 543.691 -67.9027 -124.576
  111 918.003 63.7208 48.8426
  112 918.003 63.7208 48.8426
  113 73.1696 -234.378 -87.8202
  114 73.1696 -234.378 -87.8202
  115 42.1316 -278.033 26.6563
  116 42.1316 -278.033 26.6563
  117 495.581 31.5523 -6.11093
  118 495.581 31.5523 -6.11093
  119 595.746 -23.5639 -47.9485
  120 595.746 -23.5639 -47.9485
  121 971.334 26.8284 -22.1103
  122 971.334 26.8284 -22.1103
  123 115.399 -227.716 148.642
  124 115.399 -227.716 148.642
  125 539.907 18.5852 27.2555
  126 539.907 18.5852 27.2555
  127 136.559 -183.746 -163.505
  128 136.559 -183.746 -163.505
  129 709.518 -46.2857 121.927
  130 709.518 -46.2857 121.927
  131 988.378 49.6362 -69.8180
  132 988.378 49.6362 -69.8180
  133 52.6453 -320.134 -25.0329
  134 52.6453 -320.134 -25.0329
  135 63.9215 -305.377 66.4638
  136 63.9215 -305.377 66.4638
  137 586.257 5.59187 -13.8254
  138 586.257 5.59187 -13.8254
  139 559.508 19.0443 -0.998131
  140 559.508 19.0443 -0.998131
  141 571.881 9.64201 -0.126756
  142 571.881 9.64201 -0.126756
  143 587.390 -11.9953 41.6292
  144 587.390 -11.9953 41.6292
  145 413.870 -10.5108 98.2469
  146 590.066 -55.0903 84.6494
  147 411.940 24.1082 2.42749
  148 413.870 -10.5108 98.2469
  149 590.066 -55.0903 84.6494
  150 411.940 24.1082 2.42749
  151 532.946 9.65439 -43.5725
  152 532.946 9.65439 -43.5725
  153 965.008 27.5325 17.3152
  154 965.008 27.5325 17.3152
  155 999.364 22.8897 42.4168
  156 1001.47 52.8060 87.8175
  157 999.364 22.8897 42.4168
  158 1001.47 52.8060 87.8175
  159 577.593 6.49847 4.51389
  160 577.593 6.49847 4.51389
  161 368.027 -14.7844 -83.9458
  162 368.027 -14.7844 -83.9458
  163 577.617 6.32781 -4.43068
  164 577.617 6.32781 -4.43068
  165 580.870 7.69797 12.4803
  166 580.870 7.69797 12.4803
  167 677.490 -5.16158 13.8713
  168 660.521 -24.2700 -4.11537
  169 677.490 -5.16158 13.8713
  170 660.521 -24.2700 -4.11537
  171 726.273 -16.3803 -1.59747
  172 726.273 -16.3803 -1.59747
  173 559.791 17.3451 14.5359
  174 559.791 17.3451 14.5359
  175 284.924 -29.1037 114.994
  176 284.924 -29.1037 114.994
  177 254.545 -11.6863 -72.5703
  178 254.545 -11.6863 -72.5703
  179 564.332 18.6926 -13.9534
  180 564.332 18.6926 -13.9534
</Section>

newXOutput 173

<Section columns = "stress_xx | stress_yy | stress_xy">
  1 582.032 3.96393 -2.22442
  2 581.556 3.06614 1.99682
  3 582.032 3.96393 -2.22442
  4 581.556 3.06614 1.99682
  5 837.061 38.6779 224.710
  6 827.897 33.0582 -210.751
  7 837.061 38.6779 224.710
  8 827.897 33.0582 -210.751
  9 587.519 1.04844 -7.22940
  10 610.693 0.139115 -12.0315
  11 626.438 -7.30939 -16.4639
  12 659.341 -3.34915 7.60726
  13 661.508 20.5612 5.65863
  14 661.129 -3.22586 -9.97186
  15 632.529 -11.2905 16.5251
  16 603.362 2.66554 14.0634
  17 588.043 3.78278 6.36749
  18 578.719 6.52481 1.10559
  19 575.714 6.59026 -0.0841587
  20 578.458 6.01502 -1.00523
  21 587.519 1.04844 -7.22940
  22 610.693 0.139115 -12.0315
  23 626.438 -7.30939 -16.4639
  24 659.341 -3.34915 7.60726
  25 661.508 20.5612 5.65863
  26 661.129 -3.22586 -9.97186
  27 632.529 -11.2905 16.5251
  28 603.362 2.66554 14.0634
  29 588.043 3.78278 6.36749
  30 578.719 6.52481 1.10559
  31 575.714 6.59026 -0.0841587
  32 578.458 6.01502 -1.00523
  33 1219.02 10.8138 92.8356
  34 1069.02 9.54644 59.7282
  35 1029.45 20.1372 23.2811
  36 1000.29 11.5359 -5.89421
  37 1052.43 3.68920 -22.5534
  38 1079.23 21.0229 -53.8135
  39 1124.79 80.3065 -116.955
  40 283.455 -150.885 -260.419
  41 58.5296 -308.786 -113.163
  42 22.6323 -436.396 -37.3739
  43 14.5880 -465.578 -3.39282
  44 18.1181 -441.623 37.5198
  45 53.4765 -371.718 99.0603
  46 231.203 -152.750 256.304
  47 1219.02 10.8138 92.8356
  48 1069.02 9.54644 59.7282
  49 1029.45 20.1372 23.2811
  50 1000.29 11.5359 -5.89421
  51 1052.43 3.68920 -22.5534
  52 1079.23 21.0229 -53.8135
  53 1124.79 80.3065 -116.955
  54 283.455 -150.885 -260.419
  55 58.5296 -308.786 -113.163
  56 22.6323 -436.396 -37.3739
  57 14.5880 -465.578 -3.39282
  58 18.1181 -441.623 37.5198
  59 53.4765 -371.718 99.0603
  60 231.203 -152.750 256.304
  61 541.543 22.8632 -9.69577
  62 541.543 22.8632 -9.69577
  63 502.938 7.50450 53.5481
  64 488.582 3.44453 -65.1546
  65 502.938 7.50450 53.5481
  66 488.582 3.44453 -65.1546
  67 285.752 7.34931 18.3322
  68 285.752 7.34931 18.3322
  69 450.219 -84.6112 181.619
  70 450.219 -84.6112 181.619
  71 277.498 -79.1338 -147.603
  72 672.586 -57.7294 -33.4598
  73 746.805 43.0370 -3.31457
  74 714.012 20.4371 -5.16725
  75 277.498 -79.1338 -147.603
  76 672.586 -57.7294 -33.4598
  77 746.805 43.0370 -3.31457
  78 714.012 20.4371 -5.16725
  79 661.772 -31.0399 16.3806
  80 661.772 -31.0399 16.3806
  81 845.938 62.7483 5.37052
  82 845.938 62.7483 5.37052
  83 149.789 -91.9479 -12.8216
  84 149.789 -91.9479 -12.8216
  85 191.677 -124.747 129.548
  86 191.677 -124.747 129.548
  87 712.043 -40.5744 26.9479
  88 712.043 -40.5744 26.9479
  89 571.877 12.5379 7.86070
  90 574.135 13.7314 -8.01479
  91 571.877 12.5379 7.86070
  92 574.135 13.7314 -8.01479
  93 813.340 44.8861 33.5877
  94 813.340 44.8861 33.5877
  95 590.370 5.56206 23.8331
  96 590.370 5.56206 23.8331
  97 874.834 64.7277 -32.5701
  98 883.676 55.3170 -69.0626
  99 874.834 64.7277 -32.5701
  100 883.676 55.3170 -69.0626
  101 576.529 8.94503 -29.4883
  102 576.529 8.94503 -29.4883
  103 463.239 -87.4827 -217.572
  104 463.239 -87.4827 -217.572
  105 393.674 -101.198 230.647
  106 393.674 -101.198 230.647
  107 723.048 -54.3588 -85.6804
  108 723.048 -54.3588 -85.6804
  109 546.637 -68.2785 -125.280
  110 546.637 -68.2785 -125.280
  111 922.824 64.0665 49.1207
  112 922.824 64.0665 49.1207
  113 73.5829 -235.661 -88.3691
  114 73.5829 -235.661 -88.3691
  115 42.3653 -279.584 26.8284
  116 42.3653 -279.584 26.8284
  117 498.327 31.7266 -6.14275
  118 498.327 31.7266 -6.14275
  119 598.979 -23.6950 -48.2158
  120 598.979 -23.6950 -48.2158
  121 976.369 26.9628 -22.2245
  122 976.369 26.9628 -22.2245
  123 116.044 -228.920 149.571
  124 116.044 -228.920 149.571
  125 542.874 18.6860 27.3991
  126 542.874 18.6860 27.3991
  127 137.324 -184.707 -164.509
  128 137.324 -184.707 -164.509
  129 713.285 -46.5077 122.654
  130 713.285 -46.5077 122.654
  131 993.498 49.9002 -70.2010
  132 993.498 49.9002 -70.2010
  133 52.9361 -321.937 -25.1903
  134 52.9361 -321.937 -25.1903
  135 64.2770 -307.068 66.8997
  136 64.2770 -307.068 66.8997
  137 589.447 5.62109 -13.8958
  138 589.447 5.62109 -13.8958
  139 562.574 19.1445 -1.00327
  140 562.574 19.1445 -1.00327
  141 575.005 9.69172 -0.127373
  142 575.005 9.69172 -0.127373
  143 590.584 -12.0623 41.8566
  144 590.584 -12.0623 41.8566
  145 416.175 -10.5642 98.7903
  146 593.256 -55.3946 85.1303
  147 414.254 24.2472 2.44246
  148 416.175 -10.5642 98.7903
  149 593.256 -55.3946 85.1303
  150 414.254 24.2472 2.44246
  151 535.875 9.70741 -43.8043
  152 535.875 9.70741 -43.8043
  153 970.021 27.6687 17.4086
  154 970.021 27.6687 17.4086
  155 1004.53 23.0039 42.6376
  156 1006.64 53.1210 88.3143
  157 1004.53 23.0039 42.6376
  158 1006.64 53.1210 88.3143
  159 580.742 6.53206 4.53572
  160 580.742 6.53206 4.53572
  161 370.093 -14.8604 -84.4126
  162 370.093 -14.8604 -84.4126
  163 580.767 6.36050 -4.45208
  164 580.767 6.36050 -4.45208
  165 584.035 7.73839 12.5425
  166 584.035 7.73839 12.5425
  167 681.157 -5.18435 13.9163
  168 664.083 -24.4052 -4.15760
  169 681.157 -5.18435 13.9163
  170 664.083 -24.4052 -4.15760
  171 730.169 -16.4521 -1.66104
  172 730.169 -16.4521 -1.66104
  173 562.857 17.4372 14.6099
  174 562.857 17.4372 14.6099
  175 286.532 -29.2494 115.648
  176 286.532 -29.2494 115.648
  177 255.998 -11.7294 -72.9821
  178 255.998 -11.7294 -72.9821
  179 567.421 18.7920 -14.0249
  180 567.421 18.7920 -14.0249
</Section>

newXOutput 174

<Section columns = "stress_xx | stress_yy | stress_xy">
  1 585.185 3.98419 -2.23502
  2 584.706 3.08171 2.00629
  3 585.185 3.98419 -2.23502
  4 584.706 3.08171 2.00629
  5 841.338 39.0013 225.981
  6 832.159 33.3528 -211.962
  7 841.338 39.0013 225.981
  8 832.159 33.3528 -211.962
  9 590.696 1.05320 -7.26504
  10 613.978 0.139959 -12.0921
  11 629.807 -7.35069 -16.5557
  12 662.894 -3.36728 7.63191
  13 665.100 20.6766 5.68410
  14 664.692 -3.24216 -10.0054
  15 635.926 -11.3535 16.6180
  16 606.613 2.67923 14.1344
  17 591.222 3.80233 6.39818
  18 581.858 6.55796 1.11085
  19 578.839 6.62362 -0.0845452
  20 581.596 6.04555 -1.01002
  21 590.696 1.05320 -7.26504
  22 613.978 0.139959 -12.0921
  23 629.807 -7.35069 -16.5557
  24 662.894 -3.36728 7.63191
  25 665.100 20.6766 5.68410
  26 664.692 -3.24216 -10.0054
  27 635.926 -11.3535 16.6180
  28 606.613 2.67923 14.1344
  29 591.222 3.80233 6.39818
  30 581.858 6.55796 1.11085
  31 578.839 6.62362 -0.0845452
  32 581.596 6.04555 -1.01002
  33 1225.12 10.8748 93.3253
  34 1074.44 9.58382 60.0381
  35 1034.70 20.2373 23.3967
  36 1005.40 11.5881 -5.92190
  37 1057.75 3.70644 -22.6672
  38 1084.70 21.1330 -54.0884
  39 1130.50 80.7680 -117.596
  40 284.944 -151.572 -261.949
  41 58.8510 -310.443 -113.881
  42 22.7510 -438.886 -37.6222
  43 14.6563 -468.261 -3.41117
  44 18.2072 -444.138 37.7675
  45 53.7684 -373.749 99.6995
  46 232.422 -153.446 257.817
  47 1225.12 10.8748 93.3253
  48 1074.44 9.58382 60.0381
  49 1034.70 20.2373 23.3967
  50 1005.40 11.5881 -5.92190
  51 1057.75 3.70644 -22.6672
  52 1084.70 21.1330 -54.0884
  53 1130.50 80.7680 -117.596
  54 284.944 -151.572 -261.949
  55 58.8510 -310.443 -113.881
  56 22.7510 -438.886 -37.6222
  57 14.6563 -468.261 -3.41117
  58 18.2072 -444.138 37.7675
  59 53.7684 -373.749 99.6995
  60 232.422 -153.446 257.817
  61 544.505 22.9857 -9.74621
  62 544.505 22.9857 -9.74621
  63 505.697 7.54734 53.8367
  64 491.264 3.46509 -65.5056
  65 505.697 7.54734 53.8367
  66 491.264 3.46509 -65.5056
  67 287.375 7.40641 18.4347
  68 287.375 7.40641 18.4347
  69 452.650 -85.0796 182.644
  70 452.650 -85.0796 182.644
  71 279.036 -79.5531 -148.456
  72 676.177 -58.0425 -33.6738
  73 750.806 43.2786 -3.35627
  74 717.845 20.5543 -5.16677
  75 279.036 -79.5531 -148.456
  76 676.177 -58.0425 -33.6738
  77 750.806 43.2786 -3.35627
  78 717.845 20.5543 -5.16677
  79 665.319 -31.2086 16.4929
  80 665.319 -31.2086 16.4929
  81 850.406 63.0818 5.40925
  82 850.406 63.0818 5.40925
  83 150.643 -92.4239 -12.8980
  84 150.643 -92.4239 -12.8980
  85 192.738 -125.409 130.318
  86 192.738 -125.409 130.318
  87 715.833 -40.7828 27.1443
  88 715.833 -40.7828 27.1443
  89 574.984 12.6029 7.89924
  90 577.252 13.8029 -8.05410
  91 574.984 12.6029 7.89924
  92 577.252 13.8029 -8.05410
  93 817.643 45.1512 33.8195
  94 817.643 45.1512 33.8195
  95 593.562 5.59082 23.9563
  96 593.562 5.59082 23.9563
  97 879.440 65.0725 -32.7629
  98 888.298 55.6488 -69.4821
  99 879.440 65.0725 -32.7629
  100 888.298 55.6488 -69.4821
  101 579.657 8.99221 -29.6426
  102 579.657 8.99221 -29.6426
  103 465.687 -87.9015 -218.832
  104 465.687 -87.9015 -218.832
  105 395.763 -101.690 231.990
  106 395.763 -101.690 231.990
  107 726.865 -54.6246 -86.2099
  108 726.865 -54.6246 -86.2099
  109 549.579 -68.6541 -125.983
  110 549.579 -68.6541 -125.983
  111 927.639 64.4118 49.3986
  112 927.639 64.4118 49.3986
  113 73.9961 -236.944 -88.9185
  114 73.9961 -236.944 -88.9185
  115 42.5989 -281.134 27.0007
  116 42.5989 -281.134 27.0007
  117 501.071 31.9007 -6.17453
  118 501.071 31.9007 -6.17453
  119 602.209 -23.8259 -48.4829
  120 602.209 -23.8259 -48.4829
  121 981.397 27.0970 -22.3386
  122 981.397 27.0970 -22.3386
  123 116.688 -230.123 150.502
  124 116.688 -230.123 150.502
  125 545.839 18.7866 27.5426
  126 545.839 18.7866 27.5426
  127 138.088 -185.666 -165.514
  128 138.088 -185.666 -165.514
  129 717.047 -46.7292 123.381
  130 717.047 -46.7292 123.381
  131 998.612 50.1638 -70.5837
  132 998.612 50.1638 -70.5837
  133 53.2266 -323.738 -25.3479
  134 53.2266 -323.738 -25.3479
  135 64.6323 -308.759 67.3361
  136 64.6323 -308.759 67.3361
  137 592.635 5.65028 -13.9662
  138 592.635 5.65028 -13.9662
  139 565.639 19.2446 -1.00841
  140 565.639 19.2446 -1.00841
  141 578.127 9.74135 -0.127988
  142 578.127 9.74135 -0.127988
  143 593.775 -12.1293 42.0839
  144 593.775 -12.1293 42.0839
  145 418.479 -10.6176 99.3333
  146 596.443 -55.6986 85.6110
  147 416.567 24.3861 2.45743
  148 418.479 -10.6176 99.3333
  149 596.443 -55.6986 85.6110
  150 416.567 24.3861 2.45743
  151 538.802 9.76040 -44.0359
  152 538.802 9.76040 -44.0359
  153 975.027 27.8047 17.5019
  154 975.027 27.8047 17.5019
  155 1009.69 23.1179 42.8581
  156 1011.82 53.4360 88.8108
  157 1009.69 23.1179 42.8581
  158 1011.82 53.4360 88.8108
  159 583.889 6.56560 4.55749
  160 583.889 6.56560 4.55749
  161 372.159 -14.9362 -84.8790
  162 372.159 -14.9362 -84.8790
  163 583.914 6.39316 -4.47343
  164 583.914 6.39316 -4.47343
  165 587.198 7.77876 12.6045
  166 587.198 7.77876 12.6045
  167 684.822 -5.20704 13.9610
  168 667.640 -24.5403 -4.20001
  169 684.822 -5.20704 13.9610
  170 667.640 -24.5403 -4.20001
  171 734.060 -16.5236 -1.72515
  172 734.060 -16.5236 -1.72515
  173 565.922 17.5292 14.6838
  174 565.922 17.5292 14.6838
  175 288.140 -29.3947 116.302
  176 288.140 -29.3947 116.302
  177 257.451 -11.7723 -73.3937
  178 257.451 -11.7723 -73.3937
  179 570.508 18.8912 -14.0963
  180 570.508 18.8912 -14.0963
</Section>

newXOutput 175

<Section columns = "stress_xx | stress_yy | stress_xy">
  1 588.334 4.00442 -2.24560
  2 587.854 3.09726 2.01573
  3 588.334 4.00442 -2.24560
  4 587.854 3.09726 2.01573
  5 845.608 39.3258 227.251
  6 836.415 33.6484 -213.172
  7 845.608 39.3258 227.251
  8 836.415 33.6484 -213.172
  9 593.870 1.05794 -7.30062
  10 617.261 0.140805 -12.1527
  11 633.172 -7.39199 -16.6474
  12 666.445 -3.38540 7.65637
  13 668.689 20.7921 5.70950
  14 668.253 -3.25845 -10.0386
  15 639.320 -11.4165 16.7109
  16 609.862 2.69290 14.2051
  17 594.399 3.82185 6.42880
  18 584.993 6.59107 1.11609
  19 581.962 6.65692 -0.0849306
  20 584.730 6.07603 -1.01479
  21 593.870 1.05794 -7.30062
  22 617.261 0.140805 -12.1527
  23 633.172 -7.39199 -16.6474
  24 666.445 -3.38540 7.65637
  25 668.689 20.7921 5.70950
  26 668.253 -3.25845 -10.0386
  27 639.320 -11.4165 16.7109
  28 609.862 2.69290 14.2051
  29 594.399 3.82185 6.42880
  30 584.993 6.59107 1.11609
  31 581.962 6.65692 -0.0849306
  32 584.730 6.07603 -1.01479
  33 1231.21 10.9358 93.8144
  34 1079.85 9.62102 60.3475
  35 1039.93 20.3372 23.5121
  36 1010.51 11.6402 -5.94953
  37 1063.07 3.72364 -22.7809
  38 1090.17 21.2430 -54.3629
  39 1136.19 81.2294 -118.236
  40 286.431 -152.256 -263.479
  41 59.1721 -312.099 -114.599
  42 22.8696 -441.375 -37.8709
  43 14.7244 -470.944 -3.42950
  44 18.2960 -446.652 38.0155
  45 54.0601 -375.779 100.339
  46 233.639 -154.140 259.331
  47 1231.21 10.9358 93.8144
  48 1079.85 9.62102 60.3475
  49 1039.93 20.3372 23.5121
  50 1010.51 11.6402 -5.94953
  51 1063.07 3.72364 -22.7809
  52 1090.17 21.2430 -54.3629
  53 1136.19 81.2294 -118.236
  54 286.431 -152.256 -263.479
  55 59.1721 -312.099 -114.599
  56 22.8696 -441.375 -37.8709
  57 14.7244 -470.944 -3.42950
  58 18.2960 -446.652 38.0155
  59 54.0601 -375.779 100.339
  60 233.639 -154.140 259.331
  61 547.464 23.1081 -9.79659
  62 547.464 23.1081 -9.79659
  63 508.454 7.59016 54.1251
  64 493.945 3.48565 -65.8564
  65 508.454 7.59016 54.1251
  66 493.945 3.48565 -65.8564
  67 288.998 7.46365 18.5371
  68 288.998 7.46365 18.5371
  69 455.079 -85.5478 183.668
  70 455.079 -85.5478 183.668
  71 280.573 -79.9720 -149.309
  72 679.765 -58.3553 -33.8880
  73 754.802 43.5201 -3.39818
  74 721.675 20.6715 -5.16600
  75 280.573 -79.9720 -149.309
  76 679.765 -58.3553 -33.8880
  77 754.802 43.5201 -3.39818
  78 721.675 20.6715 -5.16600
  79 668.862 -31.3771 16.6055
  80 668.862 -31.3771 16.6055
  81 854.868 63.4150 5.44805
  82 854.868 63.4150 5.44805
  83 151.497 -92.8992 -12.9744
  84 151.497 -92.8992 -12.9744
  85 193.799 -126.070 131.088
  86 193.799 -126.070 131.088
  87 719.620 -40.9909 27.3410
  88 719.620 -40.9909 27.3410
  89 578.089 12.6679 7.93771
  90 580.368 13.8743 -8.09333
  91 578.089 12.6679 7.93771
  92 580.368 13.8743 -8.09333
  93 821.941 45.4163 34.0515
  94 821.941 45.4163 34.0515
  95 596.752 5.61953 24.0794
  96 596.752 5.61953 24.0794
  97 884.041 65.4171 -32.9557
  98 892.915 55.9808 -69.9016
  99 884.041 65.4171 -32.9557
  100 892.915 55.9808 -69.9016
  101 582.782 9.03934 -29.7967
  102 582.782 9.03934 -29.7967
  103 468.133 -88.3194 -220.092
  104 468.133 -88.3194 -220.092
  105 397.850 -102.181 233.334
  106 397.850 -102.181 233.334
  107 730.677 -54.8899 -86.7397
  108 730.677 -54.8899 -86.7397
  109 552.520 -69.0294 -126.686
  110 552.520 -69.0294 -126.686
  111 932.448 64.7568 49.6764
  112 932.448 64.7568 49.6764
  113 74.4091 -238.226 -89.4682
  114 74.4091 -238.226 -89.4682
  115 42.8324 -282.683 27.1732
  116 42.8324 -282.683 27.1732
  117 503.814 32.0748 -6.20627
  118 503.814 32.0748 -6.20627
  119 605.436 -23.9568 -48.7499
  120 605.436 -23.9568 -48.7499
  121 986.419 27.2309 -22.4526
  122 986.419 27.2309 -22.4526
  123 117.333 -231.325 151.433
  124 117.333 -231.325 151.433
  125 548.801 18.8872 27.6858
  126 548.801 18.8872 27.6858
  127 138.853 -186.625 -166.518
  128 138.853 -186.625 -166.518
  129 720.806 -46.9501 124.108
  130 720.806 -46.9501 124.108
  131 1003.72 50.4272 -70.9660
  132 1003.72 50.4272 -70.9660
  133 53.5170 -325.539 -25.5056
  134 53.5170 -325.539 -25.5056
  135 64.9875 -310.449 67.7730
  136 64.9875 -310.449 67.7730
  137 595.820 5.67943 -14.0364
  138 595.820 5.67943 -14.0364
  139 568.701 19.3446 -1.01353
  140 568.701 19.3446 -1.01353
  141 581.247 9.79092 -0.128602
  142 581.247 9.79092 -0.128602
  143 596.964 -12.1963 42.3109
  144 596.964 -12.1963 42.3109
  145 420.781 -10.6709 99.8760
  146 599.627 -56.0025 86.0915
  147 418.879 24.5250 2.47241
  148 420.781 -10.6709 99.8760
  149 599.627 -56.0025 86.0915
  150 418.879 24.5250 2.47241
  151 541.727 9.81334 -44.2672
  152 541.727 9.81334 -44.2672
  153 980.026 27.9404 17.5952
  154 980.026 27.9404 17.5952
  155 1014.85 23.2317 43.0783
  156 1016.98 53.7510 89.3071
  157 1014.85 23.2317 43.0783
  158 1016.98 53.7510 89.3071
  159 587.034 6.59909 4.57922
  160 587.034 6.59909 4.57922
  161 374.223 -15.0120 -85.3452
  162 374.223 -15.0120 -85.3452
  163 587.059 6.42577 -4.49474
  164 587.059 6.42577 -4.49474
  165 590.357 7.81909 12.6663
  166 590.357 7.81909 12.6663
  167 688.483 -5.22965 14.0053
  168 671.195 -24.6753 -4.24259
  169 688.483 -5.22965 14.0053
  170 671.195 -24.6753 -4.24259
  171 737.948 -16.5949 -1.78980
  172 737.948 -16.5949 -1.78980
  173 568.984 17.6211 14.7576
  174 568.984 17.6211 14.7576
  175 289.747 -29.5399 116.956
  176 289.747 -29.5399 116.956
  177 258.904 -11.8149 -73.8052
  178 258.904 -11.8149 -73.8052
  179 573.593 18.9904 -14.1676
  180 573.593 18.9904 -14.1676
</Section>

newXOutput 176

<Section columns = "stress_xx | stress_yy | stress_xy">
  1 591.482 4.02462 -2.25616
  2 590.999 3.11279 2.02516
  3 591.482 4.02462 -2.25616
  4 590.999 3.11279 2.02516
  5 849.873 39.6512 228.520
  6 840.666 33.9450 -214.381
  7 849.873 39.6512 228.520
  8 840.666 33.9450 -214.381
  9 597.042 1.06267 -7.33614
  10 620.540 0.141651 -12.2131
  11 636.535 -7.43327 -16.7390
  12 669.992 -3.40350 7.68063
  13 672.276 20.9075 5.73481
  14 671.810 -3.27470 -10.0716
  15 642.711 -11.4795 16.8037
  16 613.108 2.70655 14.2758
  17 597.573 3.84134 6.45937
  18 588.127 6.62413 1.12131
  19 585.083 6.69018 -0.0853150
  20 587.862 6.10646 -1.01955
  21 597.042 1.06267 -7.33614
  22 620.540 0.141651 -12.2131
  23 636.535 -7.43327 -16.7390
  24 669.992 -3.40350 7.68063
  25 672.276 20.9075 5.73481
  26 671.810 -3.27470 -10.0716
  27 642.711 -11.4795 16.8037
  28 613.108 2.70655 14.2758
  29 597.573 3.84134 6.45937
  30 588.127 6.62413 1.12131
  31 585.083 6.69018 -0.0853150
  32 587.862 6.10646 -1.01955
  33 1237.29 10.9967 94.3029
  34 1085.26 9.65804 60.6566
  35 1045.16 20.4369 23.6273
  36 1015.61 11.6922 -5.97708
  37 1068.38 3.74080 -22.8944
  38 1095.62 21.3528 -54.6370
  39 1141.88 81.6907 -118.875
  40 287.916 -152.937 -265.010
  41 59.4930 -313.754 -115.318
  42 22.9881 -443.863 -38.1199
  43 14.7923 -473.627 -3.44782
  44 18.3847 -449.165 38.2639
  45 54.3515 -377.808 100.980
  46 234.855 -154.832 260.844
  47 1237.29 10.9967 94.3029
  48 1085.26 9.65804 60.6566
  49 1045.16 20.4369 23.6273
  50 1015.61 11.6922 -5.97708
  51 1068.38 3.74080 -22.8944
  52 1095.62 21.3528 -54.6370
  53 1141.88 81.6907 -118.875
  54 287.916 -152.937 -265.010
  55 59.4930 -313.754 -115.318
  56 22.9881 -443.863 -38.1199
  57 14.7923 -473.627 -3.44782
  58 18.3847 -449.165 38.2639
  59 54.3515 -377.808 100.980
  60 234.855 -154.832 260.844
  61 550.421 23.2304 -9.84690
  62 550.421 23.2304 -9.84690
  63 511.209 7.63298 54.4132
  64 496.624 3.50621 -66.2068
  65 511.209 7.63298 54.4132
  66 496.624 3.50621 -66.2068
  67 290.620 7.52103 18.6395
  68 290.620 7.52103 18.6395
  69 457.506 -86.0157 184.692
  70 457.506 -86.0157 184.692
  71 282.109 -80.3904 -150.162
  72 683.349 -58.6679 -34.1024
  73 758.796 43.7615 -3.44031
  74 725.502 20.7887 -5.16492
  75 282.109 -80.3904 -150.162
  76 683.349 -58.6679 -34.1024
  77 758.796 43.7615 -3.44031
  78 725.502 20.7887 -5.16492
  79 672.403 -31.5455 16.7182
  80 672.403 -31.5455 16.7182
  81 859.326 63.7479 5.48691
  82 859.326 63.7479 5.48691
  83 152.351 -93.3739 -13.0509
  84 152.351 -93.3739 -13.0509
  85 194.859 -126.731 131.858
  86 194.859 -126.731 131.858
  87 723.403 -41.1988 27.5381
  88 723.403 -41.1988 27.5381
  89 581.192 12.7327 7.97610
  90 583.481 13.9456 -8.13249
  91 581.192 12.7327 7.97610
  92 583.481 13.9456 -8.13249
  93 826.234 45.6814 34.2839
  94 826.234 45.6814 34.2839
  95 599.939 5.64821 24.2022
  96 599.939 5.64821 24.2022
  97 888.638 65.7613 -33.1485
  98 897.526 56.3128 -70.3213
  99 888.638 65.7613 -33.1485
  100 897.526 56.3128 -70.3213
  101 585.904 9.08642 -29.9507
  102 585.904 9.08642 -29.9507
  103 470.576 -88.7364 -221.351
  104 470.576 -88.7364 -221.351
  105 399.934 -102.671 234.678
  106 399.934 -102.671 234.678
  107 734.486 -55.1546 -87.2697
  108 734.486 -55.1546 -87.2697
  109 555.457 -69.4045 -127.388
  110 555.457 -69.4045 -127.388
  111 937.251 65.1016 49.9541
  112 937.251 65.1016 49.9541
  113 74.8219 -239.507 -90.0183
  114 74.8219 -239.507 -90.0183
  115 43.0658 -284.231 27.3459
  116 43.0658 -284.231 27.3459
  117 506.555 32.2488 -6.23796
  118 506.555 32.2488 -6.23796
  119 608.661 -24.0876 -49.0168
  120 608.661 -24.0876 -49.0168
  121 991.433 27.3647 -22.5664
  122 991.433 27.3647 -22.5664
  123 117.976 -232.525 152.364
  124 117.976 -232.525 152.364
  125 551.762 18.9877 27.8289
  126 551.762 18.9877 27.8289
  127 139.617 -187.582 -167.524
  128 139.617 -187.582 -167.524
  129 724.560 -47.1705 124.835
  130 724.560 -47.1705 124.835
  131 1008.82 50.6904 -71.3481
  132 1008.82 50.6904 -71.3481
  133 53.8072 -327.339 -25.6634
  134 53.8072 -327.339 -25.6634
  135 65.3424 -312.138 68.2105
  136 65.3424 -312.138 68.2105
  137 599.002 5.70854 -14.1065
  138 599.002 5.70854 -14.1065
  139 571.761 19.4445 -1.01865
  140 571.761 19.4445 -1.01865
  141 584.364 9.84042 -0.129215
  142 584.364 9.84042 -0.129215
  143 600.150 -12.2632 42.5378
  144 600.150 -12.2632 42.5378
  145 423.082 -10.7241 100.418
  146 602.808 -56.3061 86.5719
  147 421.190 24.6638 2.48740
  148 423.082 -10.7241 100.418
  149 602.808 -56.3061 86.5719
  150 421.190 24.6638 2.48740
  151 544.649 9.86625 -44.4983
  152 544.649 9.86625 -44.4983
  153 985.019 28.0759 17.6883
  154 985.019 28.0759 17.6883
  155 1019.99 23.3453 43.2982
  156 1022.14 54.0661 89.8032
  157 1019.99 23.3453 43.2982
  158 1022.14 54.0661 89.8032
  159 590.176 6.63253 4.60090
  160 590.176 6.63253 4.60090
  161 376.286 -15.0876 -85.8111
  162 376.286 -15.0876 -85.8111
  163 590.201 6.45833 -4.51600
  164 590.201 6.45833 -4.51600
  165 593.514 7.85936 12.7281
  166 593.514 7.85936 12.7281
  167 692.142 -5.25217 14.0493
  168 674.746 -24.8102 -4.28535
  169 692.142 -5.25217 14.0493
  170 674.746 -24.8102 -4.28535
  171 741.832 -16.6659 -1.85499
  172 741.832 -16.6659 -1.85499
  173 572.044 17.7129 14.8313
  174 572.044 17.7129 14.8313
  175 291.354 -29.6847 117.609
  176 291.354 -29.6847 117.609
  177 260.356 -11.8572 -74.2165
  178 260.356 -11.8572 -74.2165
  179 576.675 19.0894 -14.2387
  180 576.675 19.0894 -14.2387
</Section>

newXOutput 177

<Section columns = "stress_xx | stress_yy | stress_xy">
  1 594.627 4.04480 -2.26669
  2 594.142 3.12830 2.03456
  3 594.627 4.04480 -2.26669
  4 594.142 3.12830 2.03456
  5 854.131 39.9776 229.789
  6 844.911 34.2427 -215.591
  7 854.131 39.9776 229.789
  8 844.911 34.2427 -215.591
  9 600.211 1.06738 -7.37158
  10 623.817 0.142497 -12.2734
  11 639.895 -7.47453 -16.8306
  12 673.536 -3.42159 7.70470
  13 675.859 21.0229 5.76006
  14 675.365 -3.29093 -10.1044
  15 646.099 -11.5424 16.8966
  16 616.351 2.72018 14.3464
  17 600.744 3.86081 6.48986
  18 591.258 6.65713 1.12653
  19 588.201 6.72338 -0.0856984
  20 590.992 6.13684 -1.02430
  21 600.211 1.06738 -7.37158
  22 623.817 0.142497 -12.2734
  23 639.895 -7.47453 -16.8306
  24 673.536 -3.42159 7.70470
  25 675.859 21.0229 5.76006
  26 675.365 -3.29093 -10.1044
  27 646.099 -11.5424 16.8966
  28 616.351 2.72018 14.3464
  29 600.744 3.86081 6.48986
  30 591.258 6.65713 1.12653
  31 588.201 6.72338 -0.0856984
  32 590.992 6.13684 -1.02430
  33 1243.36 11.0576 94.7909
  34 1090.66 9.69489 60.9652
  35 1050.38 20.5364 23.7423
  36 1020.70 11.7440 -6.00457
  37 1073.68 3.75792 -23.0077
  38 1101.06 21.4626 -54.9106
  39 1147.56 82.1519 -119.514
  40 289.399 -153.617 -266.540
  41 59.8137 -315.407 -116.037
  42 23.1065 -446.351 -38.3693
  43 14.8601 -476.310 -3.46612
  44 18.4732 -451.678 38.5126
  45 54.6428 -379.834 101.621
  46 236.070 -155.521 262.357
  47 1243.36 11.0576 94.7909
  48 1090.66 9.69489 60.9652
  49 1050.38 20.5364 23.7423
  50 1020.70 11.7440 -6.00457
  51 1073.68 3.75792 -23.0077
  52 1101.06 21.4626 -54.9106
  53 1147.56 82.1519 -119.514
  54 289.399 -153.617 -266.540
  55 59.8137 -315.407 -116.037
  56 23.1065 -446.351 -38.3693
  57 14.8601 -476.310 -3.46612
  58 18.4732 -451.678 38.5126
  59 54.6428 -379.834 101.621
  60 236.070 -155.521 262.357
  61 553.377 23.3525 -9.89715
  62 553.377 23.3525 -9.89715
  63 513.963 7.67578 54.7011
  64 499.302 3.52677 -66.5569
  65 513.963 7.67578 54.7011
  66 499.302 3.52677 -66.5569
  67 292.242 7.57855 18.7419
  68 292.242 7.57855 18.7419
  69 459.931 -86.4833 185.716
  70 459.931 -86.4833 185.716
  71 283.644 -80.8084 -151.014
  72 686.930 -58.9802 -34.3169
  73 762.785 44.0029 -3.48265
  74 729.325 20.9058 -5.16354
  75 283.644 -80.8084 -151.014
  76 686.930 -58.9802 -34.3169
  77 762.785 44.0029 -3.48265
  78 729.325 20.9058 -5.16354
  79 675.940 -31.7138 16.8311
  80 675.940 -31.7138 16.8311
  81 863.780 64.0804 5.52583
  82 863.780 64.0804 5.52583
  83 153.204 -93.8480 -13.1273
  84 153.204 -93.8480 -13.1273
  85 195.918 -127.390 132.628
  86 195.918 -127.390 132.628
  87 727.183 -41.4063 27.7356
  88 727.183 -41.4063 27.7356
  89 584.292 12.7974 8.01442
  90 586.591 14.0168 -8.17157
  91 584.292 12.7974 8.01442
  92 586.591 14.0168 -8.17157
  93 830.523 45.9466 34.5166
  94 830.523 45.9466 34.5166
  95 603.124 5.67685 24.3250
  96 603.124 5.67685 24.3250
  97 893.229 66.1052 -33.3412
  98 902.132 56.6450 -70.7411
  99 893.229 66.1052 -33.3412
  100 902.132 56.6450 -70.7411
  101 589.024 9.13345 -30.1045
  102 589.024 9.13345 -30.1045
  103 473.017 -89.1524 -222.611
  104 473.017 -89.1524 -222.611
  105 402.016 -103.160 236.021
  106 402.016 -103.160 236.021
  107 738.290 -55.4188 -87.8001
  108 738.290 -55.4188 -87.8001
  109 558.393 -69.7794 -128.090
  110 558.393 -69.7794 -128.090
  111 942.049 65.4460 50.2317
  112 942.049 65.4460 50.2317
  113 75.2345 -240.787 -90.5688
  114 75.2345 -240.787 -90.5688
  115 43.2990 -285.778 27.5188
  116 43.2990 -285.778 27.5188
  117 509.294 32.4226 -6.26962
  118 509.294 32.4226 -6.26962
  119 611.882 -24.2183 -49.2834
  120 611.882 -24.2183 -49.2834
  121 996.441 27.4982 -22.6800
  122 996.441 27.4982 -22.6800
  123 118.620 -233.724 153.296
  124 118.620 -233.724 153.296
  125 554.721 19.0881 27.9718
  126 554.721 19.0881 27.9718
  127 140.380 -188.538 -168.530
  128 140.380 -188.538 -168.530
  129 728.310 -47.3904 125.562
  130 728.310 -47.3904 125.562
  131 1013.91 50.9532 -71.7298
  132 1013.91 50.9532 -71.7298
  133 54.0972 -329.138 -25.8214
  134 54.0972 -329.138 -25.8214
  135 65.6971 -313.825 68.6485
  136 65.6971 -313.825 68.6485
  137 602.182 5.73762 -14.1765
  138 602.182 5.73762 -14.1765
  139 574.818 19.5442 -1.02376
  140 574.818 19.5442 -1.02376
  141 587.478 9.88984 -0.129827
  142 587.478 9.88984 -0.129827
  143 603.333 -12.3302 42.7645
  144 603.333 -12.3302 42.7645
  145 425.382 -10.7772 100.960
  146 605.986 -56.6096 87.0521
  147 423.499 24.8027 2.50240
  148 425.382 -10.7772 100.960
  149 605.986 -56.6096 87.0521
  150 423.499 24.8027 2.50240
  151 547.570 9.91912 -44.7291
  152 547.570 9.91912 -44.7291
  153 990.005 28.2111 17.7814
  154 990.005 28.2111 17.7814
  155 1025.13 23.4587 43.5178
  156 1027.29 54.3812 90.2990
  157 1025.13 23.4587 43.5178
  158 1027.29 54.3812 90.2990
  159 593.315 6.66593 4.62253
  160 593.315 6.66593 4.62253
  161 378.348 -15.1632 -86.2767
  162 378.348 -15.1632 -86.2767
  163 593.340 6.49085 -4.53721
  164 593.340 6.49085 -4.53721
  165 596.669 7.89958 12.7898
  166 596.669 7.89958 12.7898
  167 695.797 -5.27461 14.0929
  168 678.294 -24.9451 -4.32829
  169 695.797 -5.27461 14.0929
  170 678.294 -24.9451 -4.32829
  171 745.712 -16.7367 -1.92072
  172 745.712 -16.7367 -1.92072
  173 575.101 17.8046 14.9048
  174 575.101 17.8046 14.9048
  175 292.959 -29.8293 118.262
  176 292.959 -29.8293 118.262
  177 261.808 -11.8993 -74.6277
  178 261.808 -11.8993 -74.6277
  179 579.754 19.1883 -14.3098
  180 579.754 19.1883 -14.3098
</Section>

newXOutput 178

<Section columns = "stress_xx | stress_yy | stress_xy">
  1 597.769 4.06494 -2.27719
  2 597.282 3.14378 2.04395
  3 597.769 4.06494 -2.27719
  4 597.282 3.14378 2.04395
  5 858.383 40.3051 231.058
  6 849.149 34.5415 -216.800
  7 858.383 40.3051 231.058
  8 849.149 34.5415 -216.800
  9 603.378 1.07209 -7.40696
  10 627.091 0.143344 -12.3336
  11 643.252 -7.51579 -16.9222
  12 677.077 -3.43966 7.72858
  13 679.440 21.1382 5.78522
  14 678.916 -3.30713 -10.1369
  15 649.484 -11.6053 16.9893
  16 619.592 2.73380 14.4168
  17 603.913 3.88025 6.52030
  18 594.386 6.69009 1.13173
  19 591.316 6.75652 -0.0860807
  20 594.119 6.16718 -1.02904
  21 603.378 1.07209 -7.40696
  22 627.091 0.143344 -12.3336
  23 643.252 -7.51579 -16.9222
  24 677.077 -3.43966 7.72858
  25 679.440 21.1382 5.78522
  26 678.916 -3.30713 -10.1369
  27 649.484 -11.6053 16.9893
  28 619.592 2.73380 14.4168
  29 603.913 3.88025 6.52030
  30 594.386 6.69009 1.13173
  31 591.316 6.75652 -0.0860807
  32 594.119 6.16718 -1.02904
  33 1249.41 11.1185 95.2783
  34 1096.05 9.73156 61.2735
  35 1055.59 20.6358 23.8570
  36 1025.79 11.7957 -6.03200
  37 1078.97 3.77500 -23.1208
  38 1106.50 21.5722 -55.1839
  39 1153.23 82.6130 -120.153
  40 290.881 -154.295 -268.070
  41 60.1341 -317.058 -116.757
  42 23.2247 -448.838 -38.6191
  43 14.9276 -478.992 -3.48441
  44 18.5616 -454.190 38.7616
  45 54.9338 -381.860 102.263
  46 237.283 -156.209 263.871
  47 1249.41 11.1185 95.2783
  48 1096.05 9.73156 61.2735
  49 1055.59 20.6358 23.8570
  50 1025.79 11.7957 -6.03200
  51 1078.97 3.77500 -23.1208
  52 1106.50 21.5722 -55.1839
  53 1153.23 82.6130 -120.153
  54 290.881 -154.295 -268.070
  55 60.1341 -317.058 -116.757
  56 23.2247 -448.838 -38.6191
  57 14.9276 -478.992 -3.48441
  58 18.5616 -454.190 38.7616
  59 54.9338 -381.860 102.263
  60 237.283 -156.209 263.871
  61 556.330 23.4745 -9.94734
  62 556.330 23.4745 -9.94734
  63 516.714 7.71857 54.9888
  64 501.977 3.54734 -66.9067
  65 516.714 7.71857 54.9888
  66 501.977 3.54734 -66.9067
  67 293.864 7.63621 18.8442
  68 293.864 7.63621 18.8442
  69 462.354 -86.9507 186.739
  70 462.354 -86.9507 186.739
  71 285.179 -81.2260 -151.867
  72 690.507 -59.2923 -34.5317
  73 766.770 44.2441 -3.52520
  74 733.144 21.0230 -5.16186
  75 285.179 -81.2260 -151.867
  76 690.507 -59.2923 -34.5317
  77 766.770 44.2441 -3.52520
  78 733.144 21.0230 -5.16186
  79 679.474 -31.8819 16.9441
  80 679.474 -31.8819 16.9441
  81 868.228 64.4126 5.56482
  82 868.228 64.4126 5.56482
  83 154.058 -94.3215 -13.2038
  84 154.058 -94.3215 -13.2038
  85 196.977 -128.049 133.398
  86 196.977 -128.049 133.398
  87 730.958 -41.6135 27.9334
  88 730.958 -41.6135 27.9334
  89 587.390 12.8621 8.05266
  90 589.700 14.0880 -8.21058
  91 587.390 12.8621 8.05266
  92 589.700 14.0880 -8.21058
  93 834.807 46.2118 34.7496
  94 834.807 46.2118 34.7496
  95 606.305 5.70546 24.4475
  96 606.305 5.70546 24.4475
  97 897.815 66.4487 -33.5340
  98 906.732 56.9772 -71.1610
  99 897.815 66.4487 -33.5340
  100 906.732 56.9772 -71.1610
  101 592.142 9.18043 -30.2581
  102 592.142 9.18043 -30.2581
  103 475.455 -89.5674 -223.870
  104 475.455 -89.5674 -223.870
  105 404.096 -103.648 237.364
  106 404.096 -103.648 237.364
  107 742.090 -55.6824 -88.3307
  108 742.090 -55.6824 -88.3307
  109 561.325 -70.1541 -128.792
  110 561.325 -70.1541 -128.792
  111 946.841 65.7902 50.5091
  112 946.841 65.7902 50.5091
  113 75.6470 -242.066 -91.1197
  114 75.6470 -242.066 -91.1197
  115 43.5321 -287.324 27.6918
  116 43.5321 -287.324 27.6918
  117 512.032 32.5964 -6.30123
  118 512.032 32.5964 -6.30123
  119 615.102 -24.3490 -49.5499
  120 615.102 -24.3490 -49.5499
  121 1001.44 27.6314 -22.7934
  122 1001.44 27.6314 -22.7934
  123 119.263 -234.921 154.229
  124 119.263 -234.921 154.229
  125 557.677 19.1884 28.1146
  126 557.677 19.1884 28.1146
  127 141.143 -189.492 -169.536
  128 141.143 -189.492 -169.536
  129 732.056 -47.6098 126.289
  130 732.056 -47.6098 126.289
  131 1019.00 51.2158 -72.1112
  132 1019.00 51.2158 -72.1112
  133 54.3870 -330.936 -25.9795
  134 54.3870 -330.936 -25.9795
  135 66.0516 -315.512 69.0870
  136 66.0516 -315.512 69.0870
  137 605.359 5.76665 -14.2463
  138 605.359 5.76665 -14.2463
  139 577.874 19.6439 -1.02887
  140 577.874 19.6439 -1.02887
  141 590.590 9.93920 -0.130437
  142 590.590 9.93920 -0.130437
  143 606.514 -12.3970 42.9910
  144 606.514 -12.3970 42.9910
  145 427.681 -10.8302 101.502
  146 609.162 -56.9129 87.5321
  147 425.808 24.9415 2.51740
  148 427.681 -10.8302 101.502
  149 609.162 -56.9129 87.5321
  150 425.808 24.9415 2.51740
  151 550.488 9.97196 -44.9597
  152 550.488 9.97196 -44.9597
  153 994.984 28.3461 17.8743
  154 994.984 28.3461 17.8743
  155 1030.26 23.5719 43.7371
  156 1032.43 54.6964 90.7946
  157 1030.26 23.5719 43.7371
  158 1032.43 54.6964 90.7946
  159 596.452 6.69929 4.64412
  160 596.452 6.69929 4.64412
  161 380.409 -15.2386 -86.7421
  162 380.409 -15.2386 -86.7421
  163 596.477 6.52332 -4.55838
  164 596.477 6.52332 -4.55838
  165 599.821 7.93976 12.8513
  166 599.821 7.93976 12.8513
  167 699.448 -5.29697 14.1361
  168 681.839 -25.0799 -4.37140
  169 699.448 -5.29697 14.1361
  170 681.839 -25.0799 -4.37140
  171 749.589 -16.8072 -1.98698
  172 749.589 -16.8072 -1.98698
  173 578.156 17.8963 14.9783
  174 578.156 17.8963 14.9783
  175 294.565 -29.9737 118.915
  176 294.565 -29.9737 118.915
  177 263.260 -11.9411 -75.0387
  178 263.260 -11.9411 -75.0387
  179 582.832 19.2871 -14.3807
  180 582.832 19.2871 -14.3807
</Section>

newXOutput 179

<Section columns = "stress_xx | stress_yy | stress_xy">
  1 600.909 4.08505 -2.28768
  2 600.419 3.15923 2.05331
  3 600.909 4.08505 -2.28768
  4 600.419 3.15923 2.05331
  5 862.629 40.6335 232.326
  6 853.382 34.8413 -218.009
  7 862.629 40.6335 232.326
  8 853.382 34.8413 -218.009
  9 606.542 1.07677 -7.44228
  10 630.362 0.144191 -12.3938
  11 646.606 -7.55702 -17.0137
  12 680.616 -3.45772 7.75226
  13 683.018 21.2535 5.81031
  14 682.465 -3.32330 -10.1692
  15 652.866 -11.6682 17.0821
  16 622.829 2.74739 14.4872
  17 607.080 3.89967 6.55067
  18 597.512 6.72300 1.13693
  19 594.429 6.78962 -0.0864620
  20 597.244 6.19747 -1.03377
  21 606.542 1.07677 -7.44228
  22 630.362 0.144191 -12.3938
  23 646.606 -7.55702 -17.0137
  24 680.616 -3.45772 7.75226
  25 683.018 21.2535 5.81031
  26 682.465 -3.32330 -10.1692
  27 652.866 -11.6682 17.0821
  28 622.829 2.74739 14.4872
  29 607.080 3.89967 6.55067
  30 597.512 6.72300 1.13693
  31 594.429 6.78962 -0.0864620
  32 597.244 6.19747 -1.03377
  33 1255.46 11.1794 95.7651
  34 1101.44 9.76805 61.5813
  35 1060.79 20.7350 23.9716
  36 1030.86 11.8472 -6.05935
  37 1084.26 3.79205 -23.2338
  38 1111.93 21.6817 -55.4568
  39 1158.89 83.0740 -120.791
  40 292.361 -154.971 -269.601
  41 60.4543 -318.708 -117.478
  42 23.3427 -451.325 -38.8692
  43 14.9950 -481.674 -3.50268
  44 18.6497 -456.702 39.0110
  45 55.2246 -383.884 102.906
  46 238.495 -156.895 265.385
  47 1255.46 11.1794 95.7651
  48 1101.44 9.76805 61.5813
  49 1060.79 20.7350 23.9716
  50 1030.86 11.8472 -6.05935
  51 1084.26 3.79205 -23.2338
  52 1111.93 21.6817 -55.4568
  53 1158.89 83.0740 -120.791
  54 292.361 -154.971 -269.601
  55 60.4543 -318.708 -117.478
  56 23.3427 -451.325 -38.8692
  57 14.9950 -481.674 -3.50268
  58 18.6497 -456.702 39.0110
  59 55.2246 -383.884 102.906
  60 238.495 -156.895 265.385
  61 559.281 23.5965 -9.99746
  62 559.281 23.5965 -9.99746
  63 519.464 7.76135 55.2761
  64 504.651 3.56791 -67.2562
  65 519.464 7.76135 55.2761
  66 504.651 3.56791 -67.2562
  67 295.485 7.69402 18.9465
  68 295.485 7.69402 18.9465
  69 464.775 -87.4179 187.762
  70 464.775 -87.4179 187.762
  71 286.712 -81.6432 -152.719
  72 694.081 -59.6042 -34.7466
  73 770.752 44.4853 -3.56797
  74 736.961 21.1401 -5.15988
  75 286.712 -81.6432 -152.719
  76 694.081 -59.6042 -34.7466
  77 770.752 44.4853 -3.56797
  78 736.961 21.1401 -5.15988
  79 683.005 -32.0499 17.0573
  80 683.005 -32.0499 17.0573
  81 872.671 64.7445 5.60387
  82 872.671 64.7445 5.60387
  83 154.911 -94.7943 -13.2803
  84 154.911 -94.7943 -13.2803
  85 198.035 -128.708 134.168
  86 198.035 -128.708 134.168
  87 734.730 -41.8205 28.1317
  88 734.730 -41.8205 28.1317
  89 590.485 12.9267 8.09083
  90 592.805 14.1590 -8.24951
  91 590.485 12.9267 8.09083
  92 592.805 14.1590 -8.24951
  93 839.087 46.4771 34.9829
  94 839.087 46.4771 34.9829
  95 609.485 5.73402 24.5699
  96 609.485 5.73402 24.5699
  97 902.396 66.7920 -33.7268
  98 911.327 57.3095 -71.5810
  99 902.396 66.7920 -33.7268
  100 911.327 57.3095 -71.5810
  101 595.258 9.22736 -30.4115
  102 595.258 9.22736 -30.4115
  103 477.890 -89.9815 -225.130
  104 477.890 -89.9815 -225.130
  105 406.174 -104.135 238.708
  106 406.174 -104.135 238.708
  107 745.886 -55.9455 -88.8615
  108 745.886 -55.9455 -88.8615
  109 564.255 -70.5285 -129.494
  110 564.255 -70.5285 -129.494
  111 951.627 66.1341 50.7864
  112 951.627 66.1341 50.7864
  113 76.0593 -243.344 -91.6709
  114 76.0593 -243.344 -91.6709
  115 43.7650 -288.870 27.8650
  116 43.7650 -288.870 27.8650
  117 514.768 32.7700 -6.33280
  118 514.768 32.7700 -6.33280
  119 618.318 -24.4796 -49.8163
  120 618.318 -24.4796 -49.8163
  121 1006.44 27.7645 -22.9067
  122 1006.44 27.7645 -22.9067
  123 119.905 -236.116 155.163
  124 119.905 -236.116 155.163
  125 560.632 19.2887 28.2572
  126 560.632 19.2887 28.2572
  127 141.906 -190.446 -170.543
  128 141.906 -190.446 -170.543
  129 735.798 -47.8287 127.016
  130 735.798 -47.8287 127.016
  131 1024.08 51.4780 -72.4923
  132 1024.08 51.4780 -72.4923
  133 54.6767 -332.734 -26.1377
  134 54.6767 -332.734 -26.1377
  135 66.4059 -317.197 69.5260
  136 66.4059 -317.197 69.5260
  137 608.534 5.79566 -14.3161
  138 608.534 5.79566 -14.3161
  139 580.927 19.7434 -1.03397
  140 580.927 19.7434 -1.03397
  141 593.700 9.98849 -0.131046
  142 593.700 9.98849 -0.131046
  143 609.692 -12.4639 43.2173
  144 609.692 -12.4639 43.2173
  145 429.978 -10.8832 102.043
  146 612.335 -57.2159 88.0119
  147 428.116 25.0802 2.53241
  148 429.978 -10.8832 102.043
  149 612.335 -57.2159 88.0119
  150 428.116 25.0802 2.53241
  151 553.404 10.0247 -45.1900
  152 553.404 10.0247 -45.1900
  153 999.957 28.4808 17.9672
  154 999.957 28.4808 17.9672
  155 1035.39 23.6849 43.9562
  156 1037.57 55.0116 91.2899
  157 1035.39 23.6849 43.9562
  158 1037.57 55.0116 91.2899
  159 599.587 6.73260 4.66566
  160 599.587 6.73260 4.66566
  161 382.470 -15.3140 -87.2071
  162 382.470 -15.3140 -87.2071
  163 599.612 6.55574 -4.57950
  164 599.612 6.55574 -4.57950
  165 602.971 7.97988 12.9127
  166 602.971 7.97988 12.9127
  167 703.097 -5.31924 14.1790
  168 685.381 -25.2146 -4.41468
  169 703.097 -5.31924 14.1790
  170 685.381 -25.2146 -4.41468
  171 753.461 -16.8774 -2.05377
  172 753.461 -16.8774 -2.05377
  173 581.209 17.9878 15.0516
  174 581.209 17.9878 15.0516
  175 296.169 -30.1178 119.568
  176 296.169 -30.1178 119.568
  177 264.711 -11.9827 -75.4496
  178 264.711 -11.9827 -75.4496
  179 585.907 19.3858 -14.4516
  180 585.907 19.3858 -14.4516
</Section>

newXOutput 180

<Section columns = "stress_xx | stress_yy | stress_xy">
  1 604.046 4.10514 -2.29814
  2 603.554 3.17467 2.06265
  3 604.046 4.10514 -2.29814
  4 603.554 3.17467 2.06265
  5 866.868 40.9630 233.593
  6 857.610 35.1422 -219.217
  7 866.868 40.9630 233.593
  8 857.610 35.1422 -219.217
  9 609.703 1.08145 -7.47753
  10 633.630 0.145039 -12.4538
  11 649.957 -7.59825 -17.1051
  12 684.151 -3.47576 7.77574
  13 686.593 21.3687 5.83533
  14 686.010 -3.33945 -10.2012
  15 656.245 -11.7311 17.1748
  16 626.064 2.76097 14.5574
  17 610.243 3.91906 6.58097
  18 600.635 6.75585 1.14211
  19 597.540 6.82267 -0.0868423
  20 600.366 6.22772 -1.03849
  21 609.703 1.08145 -7.47753
  22 633.630 0.145039 -12.4538
  23 649.957 -7.59825 -17.1051
  24 684.151 -3.47576 7.77574
  25 686.593 21.3687 5.83533
  26 686.010 -3.33945 -10.2012
  27 656.245 -11.7311 17.1748
  28 626.064 2.76097 14.5574
  29 610.243 3.91906 6.58097
  30 600.635 6.75585 1.14211
  31 597.540 6.82267 -0.0868423
  32 600.366 6.22772 -1.03849
  33 1261.50 11.2403 96.2514
  34 1106.81 9.80436 61.8887
  35 1065.99 20.8341 24.0860
  36 1035.93 11.8986 -6.08664
  37 1089.53 3.80905 -23.3465
  38 1117.35 21.7911 -55.7292
  39 1164.55 83.5350 -121.428
  40 293.839 -155.644 -271.131
  41 60.7743 -320.356 -118.200
  42 23.4607 -453.811 -39.1196
  43 15.0622 -484.356 -3.52093
  44 18.7377 -459.213 39.2607
  45 55.5151 -385.906 103.549
  46 239.706 -157.578 266.898
  47 1261.50 11.2403 96.2514
  48 1106.81 9.80436 61.8887
  49 1065.99 20.8341 24.0860
  50 1035.93 11.8986 -6.08664
  51 1089.53 3.80905 -23.3465
  52 1117.35 21.7911 -55.7292
  53 1164.55 83.5350 -121.428
  54 293.839 -155.644 -271.131
  55 60.7743 -320.356 -118.200
  56 23.4607 -453.811 -39.1196
  57 15.0622 -484.356 -3.52093
  58 18.7377 -459.213 39.2607
  59 55.5151 -385.906 103.549
  60 239.706 -157.578 266.898
  61 562.231 23.7183 -10.0475
  62 562.231 23.7183 -10.0475
  63 522.212 7.80412 55.5633
  64 507.324 3.58848 -67.6054
  65 522.212 7.80412 55.5633
  66 507.324 3.58848 -67.6054
  67 297.105 7.75196 19.0487
  68 297.105 7.75196 19.0487
  69 467.194 -87.8848 188.784
  70 467.194 -87.8848 188.784
  71 288.245 -82.0599 -153.572
  72 697.652 -59.9158 -34.9617
  73 774.731 44.7264 -3.61095
  74 740.773 21.2572 -5.15760
  75 288.245 -82.0599 -153.572
  76 697.652 -59.9158 -34.9617
  77 774.731 44.7264 -3.61095
  78 740.773 21.2572 -5.15760
  79 686.533 -32.2178 17.1707
  80 686.533 -32.2178 17.1707
  81 877.110 65.0761 5.64298
  82 877.110 65.0761 5.64298
  83 155.764 -95.2666 -13.3568
  84 155.764 -95.2666 -13.3568
  85 199.092 -129.365 134.939
  86 199.092 -129.365 134.939
  87 738.499 -42.0271 28.3303
  88 738.499 -42.0271 28.3303
  89 593.578 12.9912 8.12893
  90 595.909 14.2300 -8.28837
  91 593.578 12.9912 8.12893
  92 595.909 14.2300 -8.28837
  93 843.362 46.7424 35.2166
  94 843.362 46.7424 35.2166
  95 612.661 5.76255 24.6921
  96 612.661 5.76255 24.6921
  97 906.971 67.1349 -33.9196
  98 915.916 57.6420 -72.0011
  99 906.971 67.1349 -33.9196
  100 915.916 57.6420 -72.0011
  101 598.370 9.27424 -30.5647
  102 598.370 9.27424 -30.5647
  103 480.322 -90.3946 -226.389
  104 480.322 -90.3946 -226.389
  105 408.250 -104.621 240.051
  106 408.250 -104.621 240.051
  107 749.678 -56.2081 -89.3927
  108 749.678 -56.2081 -89.3927
  109 567.183 -70.9027 -130.195
  110 567.183 -70.9027 -130.195
  111 956.407 66.4777 51.0636
  112 956.407 66.4777 51.0636
  113 76.4715 -244.621 -92.2226
  114 76.4715 -244.621 -92.2226
  115 43.9978 -290.415 28.0384
  116 43.9978 -290.415 28.0384
  117 517.502 32.9435 -6.36433
  118 517.502 32.9435 -6.36433
  119 621.532 -24.6101 -50.0825
  120 621.532 -24.6101 -50.0825
  121 1011.42 27.8973 -23.0198
  122 1011.42 27.8973 -23.0198
  123 120.548 -237.311 156.097
  124 120.548 -237.311 156.097
  125 563.584 19.3888 28.3996
  126 563.584 19.3888 28.3996
  127 142.668 -191.398 -171.550
  128 142.668 -191.398 -171.550
  129 739.536 -48.0470 127.743
  130 739.536 -48.0470 127.743
  131 1029.15 51.7400 -72.8731
  132 1029.15 51.7400 -72.8731
  133 54.9661 -334.530 -26.2960
  134 54.9661 -334.530 -26.2960
  135 66.7600 -318.881 69.9655
  136 66.7600 -318.881 69.9655
  137 611.706 5.82462 -14.3858
  138 611.706 5.82462 -14.3858
  139 583.978 19.8428 -1.03906
  140 583.978 19.8428 -1.03906
  141 596.807 10.0377 -0.131654
  142 596.807 10.0377 -0.131654
  143 612.867 -12.5307 43.4435
  144 612.867 -12.5307 43.4435
  145 432.274 -10.9361 102.584
  146 615.505 -57.5188 88.4916
  147 430.422 25.2190 2.54743
  148 432.274 -10.9361 102.584
  149 615.505 -57.5188 88.4916
  150 430.422 25.2190 2.54743
  151 556.319 10.0775 -45.4201
  152 556.319 10.0775 -45.4201
  153 1004.92 28.6153 18.0599
  154 1004.92 28.6153 18.0599
  155 1040.51 23.7977 44.1749
  156 1042.70 55.3268 91.7850
  157 1040.51 23.7977 44.1749
  158 1042.70 55.3268 91.7850
  159 602.719 6.76586 4.68716
  160 602.719 6.76586 4.68716
  161 384.529 -15.3892 -87.6719
  162 384.529 -15.3892 -87.6719
  163 602.744 6.58813 -4.60058
  164 602.744 6.58813 -4.60058
  165 606.118 8.01996 12.9741
  166 606.118 8.01996 12.9741
  167 706.742 -5.34144 14.2215
  168 688.919 -25.3493 -4.45814
  169 706.742 -5.34144 14.2215
  170 688.919 -25.3493 -4.45814
  171 757.330 -16.9474 -2.12110
  172 757.330 -16.9474 -2.12110
  173 584.260 18.0792 15.1248
  174 584.260 18.0792 15.1248
  175 297.773 -30.2617 120.220
  176 297.773 -30.2617 120.220
  177 266.162 -12.0240 -75.8603
  178 266.162 -12.0240 -75.8603
  179 588.980 19.4844 -14.5223
  180 588.980 19.4844 -14.5223
</Section>

newXOutput 181

<Section columns = "stress_xx | stress_yy | stress_xy">
  1 607.181 4.12520 -2.30858
  2 606.687 3.19008 2.07197
  3 607.181 4.12520 -2.30858
  4 606.687 3.19008 2.07197
  5 871.102 41.2935 234.860
  6 861.831 35.4441 -220.425
  7 871.102 41.2935 234.860
  8 861.831 35.4441 -220.425
  9 612.862 1.08611 -7.51271
  10 636.895 0.145888 -12.5138
  11 653.305 -7.63946 -17.1965
  12 687.683 -3.49379 7.79904
  13 690.166 21.4839 5.86027
  14 689.552 -3.35556 -10.2330
  15 659.621 -11.7939 17.2674
  16 629.296 2.77452 14.6275
  17 613.405 3.93843 6.61121
  18 603.756 6.78866 1.14727
  19 600.648 6.85566 -0.0872215
  20 603.486 6.25792 -1.04319
  21 612.862 1.08611 -7.51271
  22 636.895 0.145888 -12.5138
  23 653.305 -7.63946 -17.1965
  24 687.683 -3.49379 7.79904
  25 690.166 21.4839 5.86027
  26 689.552 -3.35556 -10.2330
  27 659.621 -11.7939 17.2674
  28 629.296 2.77452 14.6275
  29 613.405 3.93843 6.61121
  30 603.756 6.78866 1.14727
  31 600.648 6.85566 -0.0872215
  32 603.486 6.25792 -1.04319
  33 1267.53 11.3012 96.7370
  34 1112.18 9.84050 62.1958
  35 1071.18 20.9330 24.2001
  36 1041.00 11.9499 -6.11387
  37 1094.80 3.82602 -23.4591
  38 1122.76 21.9003 -56.0013
  39 1170.19 83.9958 -122.065
  40 295.316 -156.316 -272.662
  41 61.0940 -322.002 -118.922
  42 23.5785 -456.296 -39.3704
  43 15.1293 -487.037 -3.53917
  44 18.8255 -461.723 39.5108
  45 55.8054 -387.927 104.193
  46 240.915 -158.259 268.412
  47 1267.53 11.3012 96.7370
  48 1112.18 9.84050 62.1958
  49 1071.18 20.9330 24.2001
  50 1041.00 11.9499 -6.11387
  51 1094.80 3.82602 -23.4591
  52 1122.76 21.9003 -56.0013
  53 1170.19 83.9958 -122.065
  54 295.316 -156.316 -272.662
  55 61.0940 -322.002 -118.922
  56 23.5785 -456.296 -39.3704
  57 15.1293 -487.037 -3.53917
  58 18.8255 -461.723 39.5108
  59 55.8054 -387.927 104.193
  60 240.915 -158.259 268.412
  61 565.178 23.8400 -10.0975
  62 565.178 23.8400 -10.0975
  63 524.958 7.84688 55.8502
  64 509.994 3.60905 -67.9543
  65 524.958 7.84688 55.8502
  66 509.994 3.60905 -67.9543
  67 298.725 7.81003 19.1509
  68 298.725 7.81003 19.1509
  69 469.611 -88.3514 189.806
  70 469.611 -88.3514 189.806
  71 289.777 -82.4762 -154.424
  72 701.219 -60.2272 -35.1770
  73 778.705 44.9673 -3.65414
  74 744.583 21.3743 -5.15502
  75 289.777 -82.4762 -154.424
  76 701.219 -60.2272 -35.1770
  77 778.705 44.9673 -3.65414
  78 744.583 21.3743 -5.15502
  79 690.057 -32.3856 17.2842
  80 690.057 -32.3856 17.2842
  81 881.544 65.4074 5.68215
  82 881.544 65.4074 5.68215
  83 156.617 -95.7381 -13.4334
  84 156.617 -95.7381 -13.4334
  85 200.149 -130.022 135.709
  86 200.149 -130.022 135.709
  87 742.263 -42.2334 28.5293
  88 742.263 -42.2334 28.5293
  89 596.669 13.0556 8.16695
  90 599.010 14.3008 -8.32715
  91 596.669 13.0556 8.16695
  92 599.010 14.3008 -8.32715
  93 847.633 47.0077 35.4506
  94 847.633 47.0077 35.4506
  95 615.835 5.79104 24.8142
  96 615.835 5.79104 24.8142
  97 911.542 67.4775 -34.1123
  98 920.500 57.9745 -72.4213
  99 911.542 67.4775 -34.1123
  100 920.500 57.9745 -72.4213
  101 601.481 9.32106 -30.7177
  102 601.481 9.32106 -30.7177
  103 482.752 -90.8067 -227.648
  104 482.752 -90.8067 -227.648
  105 410.323 -105.105 241.394
  106 410.323 -105.105 241.394
  107 753.466 -56.4701 -89.9241
  108 753.466 -56.4701 -89.9241
  109 570.108 -71.2766 -130.896
  110 570.108 -71.2766 -130.896
  111 961.181 66.8210 51.3406
  112 961.181 66.8210 51.3406
  113 76.8834 -245.897 -92.7746
  114 76.8834 -245.897 -92.7746
  115 44.2305 -291.958 28.2120
  116 44.2305 -291.958 28.2120
  117 520.234 33.1169 -6.39581
  118 520.234 33.1169 -6.39581
  119 624.742 -24.7406 -50.3486
  120 624.742 -24.7406 -50.3486
  121 1016.41 28.0299 -23.1328
  122 1016.41 28.0299 -23.1328
  123 121.190 -238.504 157.031
  124 121.190 -238.504 157.031
  125 566.534 19.4889 28.5418
  126 566.534 19.4889 28.5418
  127 143.430 -192.349 -172.558
  128 143.430 -192.349 -172.558
  129 743.270 -48.2649 128.470
  130 743.270 -48.2649 128.470
  131 1034.21 52.0018 -73.2535
  132 1034.21 52.0018 -73.2535
  133 55.2554 -336.326 -26.4544
  134 55.2554 -336.326 -26.4544
  135 67.1138 -320.564 70.4056
  136 67.1138 -320.564 70.4056
  137 614.876 5.85355 -14.4553
  138 614.876 5.85355 -14.4553
  139 587.026 19.9421 -1.04414
  140 587.026 19.9421 -1.04414
  141 599.912 10.0868 -0.132261
  142 599.912 10.0868 -0.132261
  143 616.040 -12.5975 43.6694
  144 616.040 -12.5975 43.6694
  145 434.569 -10.9889 103.125
  146 618.672 -57.8215 88.9711
  147 432.728 25.3577 2.56245
  148 434.569 -10.9889 103.125
  149 618.672 -57.8215 88.9711
  150 432.728 25.3577 2.56245
  151 559.231 10.1302 -45.6499
  152 559.231 10.1302 -45.6499
  153 1009.88 28.7496 18.1526
  154 1009.88 28.7496 18.1526
  155 1045.62 23.9104 44.3933
  156 1047.82 55.6421 92.2798
  157 1045.62 23.9104 44.3933
  158 1047.82 55.6421 92.2798
  159 605.849 6.79907 4.70860
  160 605.849 6.79907 4.70860
  161 386.587 -15.4643 -88.1364
  162 386.587 -15.4643 -88.1364
  163 605.874 6.62046 -4.62161
  164 605.874 6.62046 -4.62161
  165 609.262 8.05999 13.0353
  166 609.262 8.05999 13.0353
  167 710.385 -5.36355 14.2636
  168 692.454 -25.4838 -4.50178
  169 710.385 -5.36355 14.2636
  170 692.454 -25.4838 -4.50178
  171 761.195 -17.0171 -2.18896
  172 761.195 -17.0171 -2.18896
  173 587.309 18.1705 15.1979
  174 587.309 18.1705 15.1979
  175 299.376 -30.4053 120.873
  176 299.376 -30.4053 120.873
  177 267.612 -12.0651 -76.2709
  178 267.612 -12.0651 -76.2709
  179 592.050 19.5829 -14.5930
  180 592.050 19.5829 -14.5930
</Section>

newXOutput 182

<Section columns = "stress_xx | stress_yy | stress_xy">
  1 610.313 4.14522 -2.31899
  2 609.817 3.20547 2.08126
  3 610.313 4.14522 -2.31899
  4 609.817 3.20547 2.08126
  5 875.329 41.6249 236.127
  6 866.046 35.7471 -221.633
  7 875.329 41.6249 236.127
  8 866.046 35.7471 -221.633
  9 616.018 1.09075 -7.54783
  10 640.158 0.146737 -12.5736
  11 656.650 -7.68066 -17.2879
  12 691.212 -3.51180 7.82214
  13 693.735 21.5990 5.88513
  14 693.092 -3.37165 -10.2646
  15 662.994 -11.8567 17.3600
  16 632.526 2.78806 14.6975
  17 616.563 3.95777 6.64139
  18 606.875 6.82142 1.15243
  19 603.754 6.88861 -0.0875998
  20 606.603 6.28808 -1.04789
  21 616.018 1.09075 -7.54783
  22 640.158 0.146737 -12.5736
  23 656.650 -7.68066 -17.2879
  24 691.212 -3.51180 7.82214
  25 693.735 21.5990 5.88513
  26 693.092 -3.37165 -10.2646
  27 662.994 -11.8567 17.3600
  28 632.526 2.78806 14.6975
  29 616.563 3.95777 6.64139
  30 606.875 6.82142 1.15243
  31 603.754 6.88861 -0.0875998
  32 606.603 6.28808 -1.04789
  33 1273.55 11.3620 97.2221
  34 1117.54 9.87646 62.5024
  35 1076.36 21.0317 24.3141
  36 1046.05 12.0010 -6.14103
  37 1100.06 3.84295 -23.5715
  38 1128.17 22.0094 -56.2729
  39 1175.83 84.4566 -122.701
  40 296.790 -156.985 -274.193
  41 61.4135 -323.647 -119.644
  42 23.6961 -458.781 -39.6216
  43 15.1961 -489.718 -3.55739
  44 18.9131 -464.233 39.7612
  45 56.0955 -389.946 104.838
  46 242.123 -158.938 269.926
  47 1273.55 11.3620 97.2221
  48 1117.54 9.87646 62.5024
  49 1076.36 21.0317 24.3141
  50 1046.05 12.0010 -6.14103
  51 1100.06 3.84295 -23.5715
  52 1128.17 22.0094 -56.2729
  53 1175.83 84.4566 -122.701
  54 296.790 -156.985 -274.193
  55 61.4135 -323.647 -119.644
  56 23.6961 -458.781 -39.6216
  57 15.1961 -489.718 -3.55739
  58 18.9131 -464.233 39.7612
  59 56.0955 -389.946 104.838
  60 242.123 -158.938 269.926
  61 568.123 23.9616 -10.1475
  62 568.123 23.9616 -10.1475
  63 527.702 7.88963 56.1368
  64 512.663 3.62963 -68.3029
  65 527.702 7.88963 56.1368
  66 512.663 3.62963 -68.3029
  67 300.345 7.86825 19.2530
  68 300.345 7.86825 19.2530
  69 472.026 -88.8178 190.828
  70 472.026 -88.8178 190.828
  71 291.308 -82.8921 -155.276
  72 704.782 -60.5383 -35.3925
  73 782.676 45.2082 -3.69755
  74 748.389 21.4914 -5.15214
  75 291.308 -82.8921 -155.276
  76 704.782 -60.5383 -35.3925
  77 782.676 45.2082 -3.69755
  78 748.389 21.4914 -5.15214
  79 693.578 -32.5532 17.3979
  80 693.578 -32.5532 17.3979
  81 885.973 65.7383 5.72138
  82 885.973 65.7383 5.72138
  83 157.469 -96.2091 -13.5099
  84 157.469 -96.2091 -13.5099
  85 201.205 -130.679 136.480
  86 201.205 -130.679 136.480
  87 746.024 -42.4395 28.7287
  88 746.024 -42.4395 28.7287
  89 599.757 13.1199 8.20490
  90 602.109 14.3716 -8.36586
  91 599.757 13.1199 8.20490
  92 602.109 14.3716 -8.36586
  93 851.899 47.2731 35.6849
  94 851.899 47.2731 35.6849
  95 619.007 5.81949 24.9361
  96 619.007 5.81949 24.9361
  97 916.107 67.8198 -34.3051
  98 925.079 58.3071 -72.8416
  99 916.107 67.8198 -34.3051
  100 925.079 58.3071 -72.8416
  101 604.589 9.36784 -30.8706
  102 604.589 9.36784 -30.8706
  103 485.180 -91.2179 -228.907
  104 485.180 -91.2179 -228.907
  105 412.394 -105.589 242.737
  106 412.394 -105.589 242.737
  107 757.250 -56.7316 -90.4558
  108 757.250 -56.7316 -90.4558
  109 573.031 -71.6503 -131.597
  110 573.031 -71.6503 -131.597
  111 965.949 67.1641 51.6176
  112 965.949 67.1641 51.6176
  113 77.2952 -247.172 -93.3269
  114 77.2952 -247.172 -93.3269
  115 44.4631 -293.501 28.3858
  116 44.4631 -293.501 28.3858
  117 522.965 33.2902 -6.42726
  118 522.965 33.2902 -6.42726
  119 627.951 -24.8709 -50.6145
  120 627.951 -24.8709 -50.6145
  121 1021.38 28.1623 -23.2456
  122 1021.38 28.1623 -23.2456
  123 121.831 -239.695 157.967
  124 121.831 -239.695 157.967
  125 569.483 19.5888 28.6839
  126 569.483 19.5888 28.6839
  127 144.191 -193.298 -173.567
  128 144.191 -193.298 -173.567
  129 747.000 -48.4822 129.198
  130 747.000 -48.4822 129.198
  131 1039.27 52.2632 -73.6337
  132 1039.27 52.2632 -73.6337
  133 55.5445 -338.122 -26.6130
  134 55.5445 -338.122 -26.6130
  135 67.4675 -322.247 70.8462
  136 67.4675 -322.247 70.8462
  137 618.043 5.88244 -14.5248
  138 618.043 5.88244 -14.5248
  139 590.073 20.0412 -1.04921
  140 590.073 20.0412 -1.04921
  141 603.015 10.1359 -0.132866
  142 603.015 10.1359 -0.132866
  143 619.210 -12.6642 43.8952
  144 619.210 -12.6642 43.8952
  145 436.862 -11.0416 103.665
  146 621.836 -58.1240 89.4504
  147 435.032 25.4964 2.57748
  148 436.862 -11.0416 103.665
  149 621.836 -58.1240 89.4504
  150 435.032 25.4964 2.57748
  151 562.141 10.1829 -45.8795
  152 562.141 10.1829 -45.8795
  153 1014.84 28.8836 18.2452
  154 1014.84 28.8836 18.2452
  155 1050.72 24.0228 44.6114
  156 1052.94 55.9575 92.7744
  157 1050.72 24.0228 44.6114
  158 1052.94 55.9575 92.7744
  159 608.976 6.83224 4.73000
  160 608.976 6.83224 4.73000
  161 388.645 -15.5393 -88.6007
  162 388.645 -15.5393 -88.6007
  163 609.001 6.65276 -4.64259
  164 609.001 6.65276 -4.64259
  165 612.404 8.09998 13.0964
  166 612.404 8.09998 13.0964
  167 714.024 -5.38558 14.3054
  168 695.986 -25.6183 -4.54558
  169 714.024 -5.38558 14.3054
  170 695.986 -25.6183 -4.54558
  171 765.057 -17.0865 -2.25735
  172 765.057 -17.0865 -2.25735
  173 590.355 18.2617 15.2709
  174 590.355 18.2617 15.2709
  175 300.979 -30.5487 121.525
  176 300.979 -30.5487 121.525
  177 269.062 -12.1059 -76.6813
  178 269.062 -12.1059 -76.6813
  179 595.118 19.6813 -14.6635
  180 595.118 19.6813 -14.6635
</Section>

newXOutput 183

<Section columns = "stress_xx | stress_yy | stress_xy">
  1 613.443 4.16522 -2.32938
  2 612.945 3.22083 2.09054
  3 613.443 4.16522 -2.32938
  4 612.945 3.22083 2.09054
  5 879.550 41.9574 237.393
  6 870.256 36.0511 -222.840
  7 879.550 41.9574 237.393
  8 870.256 36.0511 -222.840
  9 619.172 1.09539 -7.58289
  10 643.417 0.147587 -12.6333
  11 659.992 -7.72185 -17.3792
  12 694.738 -3.52980 7.84505
  13 697.302 21.7141 5.90992
  14 696.628 -3.38772 -10.2959
  15 666.364 -11.9195 17.4526
  16 635.753 2.80158 14.7674
  17 619.719 3.97709 6.67150
  18 609.991 6.85413 1.15757
  19 606.858 6.92150 -0.0879770
  20 609.718 6.31819 -1.05258
  21 619.172 1.09539 -7.58289
  22 643.417 0.147587 -12.6333
  23 659.992 -7.72185 -17.3792
  24 694.738 -3.52980 7.84505
  25 697.302 21.7141 5.90992
  26 696.628 -3.38772 -10.2959
  27 666.364 -11.9195 17.4526
  28 635.753 2.80158 14.7674
  29 619.719 3.97709 6.67150
  30 609.991 6.85413 1.15757
  31 606.858 6.92150 -0.0879770
  32 609.718 6.31819 -1.05258
  33 1279.56 11.4228 97.7067
  34 1122.89 9.91225 62.8086
  35 1081.53 21.1303 24.4279
  36 1051.10 12.0520 -6.16812
  37 1105.31 3.85983 -23.6837
  38 1133.56 22.1184 -56.5441
  39 1181.46 84.9172 -123.337
  40 298.263 -157.653 -275.723
  41 61.7328 -325.291 -120.368
  42 23.8136 -461.265 -39.8731
  43 15.2628 -492.399 -3.57559
  44 19.0006 -466.742 40.0120
  45 56.3854 -391.964 105.483
  46 243.329 -159.615 271.441
  47 1279.56 11.4228 97.7067
  48 1122.89 9.91225 62.8086
  49 1081.53 21.1303 24.4279
  50 1051.10 12.0520 -6.16812
  51 1105.31 3.85983 -23.6837
  52 1133.56 22.1184 -56.5441
  53 1181.46 84.9172 -123.337
  54 298.263 -157.653 -275.723
  55 61.7328 -325.291 -120.368
  56 23.8136 -461.265 -39.8731
  57 15.2628 -492.399 -3.57559
  58 19.0006 -466.742 40.0120
  59 56.3854 -391.964 105.483
  60 243.329 -159.615 271.441
  61 571.066 24.0831 -10.1973
  62 571.066 24.0831 -10.1973
  63 530.445 7.93236 56.4232
  64 515.330 3.65021 -68.6512
  65 530.445 7.93236 56.4232
  66 515.330 3.65021 -68.6512
  67 301.964 7.92660 19.3550
  68 301.964 7.92660 19.3550
  69 474.438 -89.2840 191.849
  70 474.438 -89.2840 191.849
  71 292.838 -83.3076 -156.128
  72 708.343 -60.8492 -35.6081
  73 786.643 45.4490 -3.74116
  74 752.191 21.6085 -5.14897
  75 292.838 -83.3076 -156.128
  76 708.343 -60.8492 -35.6081
  77 786.643 45.4490 -3.74116
  78 752.191 21.6085 -5.14897
  79 697.096 -32.7207 17.5117
  80 697.096 -32.7207 17.5117
  81 890.397 66.0689 5.76068
  82 890.397 66.0689 5.76068
  83 158.322 -96.6794 -13.5865
  84 158.322 -96.6794 -13.5865
  85 202.261 -131.335 137.251
  86 202.261 -131.335 137.251
  87 749.781 -42.6452 28.9284
  88 749.781 -42.6452 28.9284
  89 602.843 13.1842 8.24278
  90 605.205 14.4423 -8.40450
  91 602.843 13.1842 8.24278
  92 605.205 14.4423 -8.40450
  93 856.161 47.5385 35.9195
  94 856.161 47.5385 35.9195
  95 622.176 5.84790 25.0578
  96 622.176 5.84790 25.0578
  97 920.668 68.1617 -34.4979
  98 929.652 58.6397 -73.2620
  99 920.668 68.1617 -34.4979
  100 929.652 58.6397 -73.2620
  101 607.694 9.41456 -31.0233
  102 607.694 9.41456 -31.0233
  103 487.604 -91.6282 -230.165
  104 487.604 -91.6282 -230.165
  105 414.464 -106.072 244.080
  106 414.464 -106.072 244.080
  107 761.029 -56.9925 -90.9877
  108 761.029 -56.9925 -90.9877
  109 575.951 -72.0238 -132.298
  110 575.951 -72.0238 -132.298
  111 970.712 67.5068 51.8944
  112 970.712 67.5068 51.8944
  113 77.7069 -248.446 -93.8797
  114 77.7069 -248.446 -93.8797
  115 44.6955 -295.043 28.5597
  116 44.6955 -295.043 28.5597
  117 525.694 33.4633 -6.45866
  118 525.694 33.4633 -6.45866
  119 631.156 -25.0012 -50.8803
  120 631.156 -25.0012 -50.8803
  121 1026.35 28.2945 -23.3582
  122 1026.35 28.2945 -23.3582
  123 122.472 -240.885 158.902
  124 122.472 -240.885 158.902
  125 572.429 19.6887 28.8258
  126 572.429 19.6887 28.8258
  127 144.952 -194.246 -174.575
  128 144.952 -194.246 -174.575
  129 750.725 -48.6990 129.925
  130 750.725 -48.6990 129.925
  131 1044.32 52.5244 -74.0135
  132 1044.32 52.5244 -74.0135
  133 55.8335 -339.916 -26.7717
  134 55.8335 -339.916 -26.7717
  135 67.8210 -323.928 71.2873
  136 67.8210 -323.928 71.2873
  137 621.207 5.91130 -14.5941
  138 621.207 5.91130 -14.5941
  139 593.117 20.1403 -1.05428
  140 593.117 20.1403 -1.05428
  141 606.115 10.1849 -0.133470
  142 606.115 10.1849 -0.133470
  143 622.378 -12.7309 44.1209
  144 622.378 -12.7309 44.1209
  145 439.154 -11.0943 104.205
  146 624.998 -58.4263 89.9295
  147 437.335 25.6351 2.59252
  148 439.154 -11.0943 104.205
  149 624.998 -58.4263 89.9295
  150 437.335 25.6351 2.59252
  151 565.049 10.2356 -46.1088
  152 565.049 10.2356 -46.1088
  153 1019.78 29.0173 18.3376
  154 1019.78 29.0173 18.3376
  155 1055.82 24.1351 44.8293
  156 1058.04 56.2729 93.2687
  157 1055.82 24.1351 44.8293
  158 1058.04 56.2729 93.2687
  159 612.101 6.86536 4.75136
  160 612.101 6.86536 4.75136
  161 390.701 -15.6142 -89.0646
  162 390.701 -15.6142 -89.0646
  163 612.126 6.68500 -4.66353
  164 612.126 6.68500 -4.66353
  165 615.544 8.13991 13.1573
  166 615.544 8.13991 13.1573
  167 717.659 -5.40753 14.3468
  168 699.515 -25.7528 -4.58956
  169 717.659 -5.40753 14.3468
  170 699.515 -25.7528 -4.58956
  171 768.914 -17.1557 -2.32626
  172 768.914 -17.1557 -2.32626
  173 593.399 18.3528 15.3437
  174 593.399 18.3528 15.3437
  175 302.581 -30.6918 122.177
  176 302.581 -30.6918 122.177
  177 270.511 -12.1465 -77.0916
  178 270.511 -12.1465 -77.0916
  179 598.184 19.7796 -14.7339
  180 598.184 19.7796 -14.7339
</Section>

newXOutput 184

<Section columns = "stress_xx | stress_yy | stress_xy">
  1 616.570 4.18519 -2.33975
  2 616.070 3.23618 2.09979
  3 616.570 4.18519 -2.33975
  4 616.070 3.23618 2.09979
  5 883.765 42.2909 238.658
  6 874.460 36.3562 -224.047
  7 883.765 42.2909 238.658
  8 874.460 36.3562 -224.047
  9 622.323 1.10001 -7.61788
  10 646.674 0.148437 -12.6930
  11 663.331 -7.76303 -17.4705
  12 698.261 -3.54778 7.86777
  13 700.866 21.8292 5.93463
  14 700.161 -3.40375 -10.3269
  15 669.731 -11.9822 17.5451
  16 638.977 2.81508 14.8372
  17 622.873 3.99638 6.70155
  18 613.105 6.88679 1.16271
  19 609.959 6.95434 -0.0883532
  20 612.831 6.34825 -1.05725
  21 622.323 1.10001 -7.61788
  22 646.674 0.148437 -12.6930
  23 663.331 -7.76303 -17.4705
  24 698.261 -3.54778 7.86777
  25 700.866 21.8292 5.93463
  26 700.161 -3.40375 -10.3269
  27 669.731 -11.9822 17.5451
  28 638.977 2.81508 14.8372
  29 622.873 3.99638 6.70155
  30 613.105 6.88679 1.16271
  31 609.959 6.95434 -0.0883532
  32 612.831 6.34825 -1.05725
  33 1285.56 11.4836 98.1906
  34 1128.23 9.94786 63.1144
  35 1086.70 21.2287 24.5414
  36 1056.14 12.1029 -6.19515
  37 1110.56 3.87668 -23.7957
  38 1138.95 22.2273 -56.8149
  39 1187.08 85.3778 -123.972
  40 299.734 -158.318 -277.254
  41 62.0518 -326.933 -121.092
  42 23.9310 -463.749 -40.1250
  43 15.3293 -495.080 -3.59378
  44 19.0879 -469.250 40.2630
  45 56.6750 -393.980 106.129
  46 244.534 -160.290 272.955
  47 1285.56 11.4836 98.1906
  48 1128.23 9.94786 63.1144
  49 1086.70 21.2287 24.5414
  50 1056.14 12.1029 -6.19515
  51 1110.56 3.87668 -23.7957
  52 1138.95 22.2273 -56.8149
  53 1187.08 85.3778 -123.972
  54 299.734 -158.318 -277.254
  55 62.0518 -326.933 -121.092
  56 23.9310 -463.749 -40.1250
  57 15.3293 -495.080 -3.59378
  58 19.0879 -469.250 40.2630
  59 56.6750 -393.980 106.129
  60 244.534 -160.290 272.955
  61 574.007 24.2044 -10.2471
  62 574.007 24.2044 -10.2471
  63 533.186 7.97509 56.7093
  64 517.995 3.67079 -68.9992
  65 533.186 7.97509 56.7093
  66 517.995 3.67079 -68.9992
  67 303.583 7.98510 19.4571
  68 303.583 7.98510 19.4571
  69 476.849 -89.7499 192.870
  70 476.849 -89.7499 192.870
  71 294.368 -83.7226 -156.980
  72 711.900 -61.1598 -35.8239
  73 790.607 45.6897 -3.78499
  74 755.990 21.7255 -5.14551
  75 294.368 -83.7226 -156.980
  76 711.900 -61.1598 -35.8239
  77 790.607 45.6897 -3.78499
  78 755.990 21.7255 -5.14551
  79 700.611 -32.8881 17.6257
  80 700.611 -32.8881 17.6257
  81 894.817 66.3992 5.80004
  82 894.817 66.3992 5.80004
  83 159.174 -97.1492 -13.6631
  84 159.174 -97.1492 -13.6631
  85 203.316 -131.990 138.022
  86 203.316 -131.990 138.022
  87 753.534 -42.8507 29.1285
  88 753.534 -42.8507 29.1285
  89 605.927 13.2484 8.28058
  90 608.299 14.5129 -8.44306
  91 605.927 13.2484 8.28058
  92 608.299 14.5129 -8.44306
  93 860.418 47.8039 36.1544
  94 860.418 47.8039 36.1544
  95 625.342 5.87628 25.1794
  96 625.342 5.87628 25.1794
  97 925.223 68.5033 -34.6906
  98 934.220 58.9725 -73.6825
  99 925.223 68.5033 -34.6906
  100 934.220 58.9725 -73.6825
  101 610.798 9.46123 -31.1758
  102 610.798 9.46123 -31.1758
  103 490.026 -92.0375 -231.424
  104 490.026 -92.0375 -231.424
  105 416.531 -106.554 245.423
  106 416.531 -106.554 245.423
  107 764.805 -57.2529 -91.5200
  108 764.805 -57.2529 -91.5200
  109 578.868 -72.3971 -132.998
  110 578.868 -72.3971 -132.998
  111 975.469 67.8493 52.1710
  112 975.469 67.8493 52.1710
  113 78.1183 -249.719 -94.4328
  114 78.1183 -249.719 -94.4328
  115 44.9279 -296.585 28.7339
  116 44.9279 -296.585 28.7339
  117 528.422 33.6364 -6.49002
  118 528.422 33.6364 -6.49002
  119 634.359 -25.1315 -51.1459
  120 634.359 -25.1315 -51.1459
  121 1031.31 28.4264 -23.4707
  122 1031.31 28.4264 -23.4707
  123 123.113 -242.074 159.839
  124 123.113 -242.074 159.839
  125 575.373 19.7885 28.9675
  126 575.373 19.7885 28.9675
  127 145.713 -195.193 -175.585
  128 145.713 -195.193 -175.585
  129 754.447 -48.9153 130.653
  130 754.447 -48.9153 130.653
  131 1049.37 52.7852 -74.3930
  132 1049.37 52.7852 -74.3930
  133 56.1222 -341.709 -26.9305
  134 56.1222 -341.709 -26.9305
  135 68.1742 -325.608 71.7289
  136 68.1742 -325.608 71.7289
  137 624.369 5.94012 -14.6633
  138 624.369 5.94012 -14.6633
  139 596.159 20.2392 -1.05934
  140 596.159 20.2392 -1.05934
  141 609.213 10.2339 -0.134072
  142 609.213 10.2339 -0.134072
  143 625.543 -12.7976 44.3463
  144 625.543 -12.7976 44.3463
  145 441.445 -11.1469 104.744
  146 628.157 -58.7285 90.4085
  147 439.637 25.7737 2.60756
  148 441.445 -11.1469 104.744
  149 628.157 -58.7285 90.4085
  150 439.637 25.7737 2.60756
  151 567.955 10.2882 -46.3379
  152 567.955 10.2882 -46.3379
  153 1024.72 29.1509 18.4300
  154 1024.72 29.1509 18.4300
  155 1060.91 24.2471 45.0468
  156 1063.14 56.5883 93.7627
  157 1060.91 24.2471 45.0468
  158 1063.14 56.5883 93.7627
  159 615.223 6.89844 4.77267
  160 615.223 6.89844 4.77267
  161 392.756 -15.6890 -89.5283
  162 392.756 -15.6890 -89.5283
  163 615.248 6.71721 -4.68442
  164 615.248 6.71721 -4.68442
  165 618.681 8.17979 13.2182
  166 618.681 8.17979 13.2182
  167 721.292 -5.42940 14.3879
  168 703.040 -25.8871 -4.63371
  169 721.292 -5.42940 14.3879
  170 703.040 -25.8871 -4.63371
  171 772.768 -17.2246 -2.39571
  172 772.768 -17.2246 -2.39571
  173 596.440 18.4438 15.4165
  174 596.440 18.4438 15.4165
  175 304.182 -30.8347 122.828
  176 304.182 -30.8347 122.828
  177 271.960 -12.1868 -77.5017
  178 271.960 -12.1868 -77.5017
  179 601.248 19.8778 -14.8042
  180 601.248 19.8778 -14.8042
</Section>

newXOutput 185

<Section columns = "stress_xx | stress_yy | stress_xy">
  1 619.695 4.20514 -2.35009
  2 619.192 3.25149 2.10902
  3 619.695 4.20514 -2.35009
  4 619.192 3.25149 2.10902
  5 887.974 42.6253 239.923
  6 878.658 36.6623 -225.254
  7 887.974 42.6253 239.923
  8 878.658 36.6623 -225.254
  9 625.472 1.10461 -7.65280
  10 649.928 0.149288 -12.7525
  11 666.668 -7.80419 -17.5617
  12 701.781 -3.56574 7.89030
  13 704.428 21.9442 5.95927
  14 703.691 -3.41976 -10.3578
  15 673.095 -12.0450 17.6376
  16 642.198 2.82856 14.9068
  17 626.024 4.01564 6.73153
  18 616.216 6.91940 1.16783
  19 613.058 6.98713 -0.0887284
  20 615.941 6.37827 -1.06192
  21 625.472 1.10461 -7.65280
  22 649.928 0.149288 -12.7525
  23 666.668 -7.80419 -17.5617
  24 701.781 -3.56574 7.89030
  25 704.428 21.9442 5.95927
  26 703.691 -3.41976 -10.3578
  27 673.095 -12.0450 17.6376
  28 642.198 2.82856 14.9068
  29 626.024 4.01564 6.73153
  30 616.216 6.91940 1.16783
  31 613.058 6.98713 -0.0887284
  32 615.941 6.37827 -1.06192
  33 1291.55 11.5444 98.6740
  34 1133.57 9.98330 63.4198
  35 1091.86 21.3269 24.6548
  36 1061.18 12.1536 -6.22211
  37 1115.79 3.89350 -23.9075
  38 1144.33 22.3361 -57.0853
  39 1192.69 85.8383 -124.607
  40 301.203 -158.981 -278.784
  41 62.3706 -328.573 -121.816
  42 24.0483 -466.232 -40.3772
  43 15.3957 -497.760 -3.61195
  44 19.1750 -471.758 40.5145
  45 56.9644 -395.994 106.776
  46 245.737 -160.963 274.469
  47 1291.55 11.5444 98.6740
  48 1133.57 9.98330 63.4198
  49 1091.86 21.3269 24.6548
  50 1061.18 12.1536 -6.22211
  51 1115.79 3.89350 -23.9075
  52 1144.33 22.3361 -57.0853
  53 1192.69 85.8383 -124.607
  54 301.203 -158.981 -278.784
  55 62.3706 -328.573 -121.816
  56 24.0483 -466.232 -40.3772
  57 15.3957 -497.760 -3.61195
  58 19.1750 -471.758 40.5145
  59 56.9644 -395.994 106.776
  60 245.737 -160.963 274.469
  61 576.946 24.3257 -10.2969
  62 576.946 24.3257 -10.2969
  63 535.925 8.01780 56.9952
  64 520.659 3.69138 -69.3469
  65 535.925 8.01780 56.9952
  66 520.659 3.69138 -69.3469
  67 305.202 8.04373 19.5591
  68 305.202 8.04373 19.5591
  69 479.258 -90.2155 193.891
  70 479.258 -90.2155 193.891
  71 295.896 -84.1372 -157.832
  72 715.453 -61.4702 -36.0399
  73 794.566 45.9303 -3.82902
  74 759.786 21.8426 -5.14174
  75 295.896 -84.1372 -157.832
  76 715.453 -61.4702 -36.0399
  77 794.566 45.9303 -3.82902
  78 759.786 21.8426 -5.14174
  79 704.122 -33.0554 17.7399
  80 704.122 -33.0554 17.7399
  81 899.231 66.7292 5.83945
  82 899.231 66.7292 5.83945
  83 160.026 -97.6182 -13.7397
  84 160.026 -97.6182 -13.7397
  85 204.371 -132.644 138.793
  86 204.371 -132.644 138.793
  87 757.284 -43.0558 29.3290
  88 757.284 -43.0558 29.3290
  89 609.008 13.3125 8.31831
  90 611.390 14.5834 -8.48154
  91 609.008 13.3125 8.31831
  92 611.390 14.5834 -8.48154
  93 864.671 48.0693 36.3896
  94 864.671 48.0693 36.3896
  95 628.506 5.90462 25.3008
  96 628.506 5.90462 25.3008
  97 929.773 68.8446 -34.8833
  98 938.782 59.3054 -74.1030
  99 929.773 68.8446 -34.8833
  100 938.782 59.3054 -74.1030
  101 613.898 9.50786 -31.3281
  102 613.898 9.50786 -31.3281
  103 492.446 -92.4458 -232.682
  104 492.446 -92.4458 -232.682
  105 418.595 -107.035 246.766
  106 418.595 -107.035 246.766
  107 768.577 -57.5128 -92.0525
  108 768.577 -57.5128 -92.0525
  109 581.783 -72.7701 -133.698
  110 581.783 -72.7701 -133.698
  111 980.220 68.1915 52.4476
  112 980.220 68.1915 52.4476
  113 78.5296 -250.991 -94.9863
  114 78.5296 -250.991 -94.9863
  115 45.1600 -298.125 28.9082
  116 45.1600 -298.125 28.9082
  117 531.147 33.8093 -6.52135
  118 531.147 33.8093 -6.52135
  119 637.559 -25.2616 -51.4114
  120 637.559 -25.2616 -51.4114
  121 1036.26 28.5581 -23.5830
  122 1036.26 28.5581 -23.5830
  123 123.754 -243.261 160.776
  124 123.754 -243.261 160.776
  125 578.315 19.8882 29.1091
  126 578.315 19.8882 29.1091
  127 146.473 -196.139 -176.594
  128 146.473 -196.139 -176.594
  129 758.165 -49.1311 131.380
  130 758.165 -49.1311 131.380
  131 1054.41 53.0458 -74.7723
  132 1054.41 53.0458 -74.7723
  133 56.4108 -343.502 -27.0894
  134 56.4108 -343.502 -27.0894
  135 68.5273 -327.286 72.1710
  136 68.5273 -327.286 72.1710
  137 627.528 5.96890 -14.7325
  138 627.528 5.96890 -14.7325
  139 599.199 20.3380 -1.06439
  140 599.199 20.3380 -1.06439
  141 612.308 10.2827 -0.134674
  142 612.308 10.2827 -0.134674
  143 628.705 -12.8643 44.5716
  144 628.705 -12.8643 44.5716
  145 443.734 -11.1994 105.284
  146 631.313 -59.0304 90.8873
  147 441.939 25.9123 2.62261
  148 443.734 -11.1994 105.284
  149 631.313 -59.0304 90.8873
  150 441.939 25.9123 2.62261
  151 570.859 10.3407 -46.5668
  152 570.859 10.3407 -46.5668
  153 1029.66 29.2841 18.5223
  154 1029.66 29.2841 18.5223
  155 1066.00 24.3590 45.2641
  156 1068.24 56.9038 94.2565
  157 1066.00 24.3590 45.2641
  158 1068.24 56.9038 94.2565
  159 618.342 6.93147 4.79393
  160 618.342 6.93147 4.79393
  161 394.811 -15.7637 -89.9917
  162 394.811 -15.7637 -89.9917
  163 618.368 6.74936 -4.70527
  164 618.368 6.74936 -4.70527
  165 621.815 8.21963 13.2790
  166 621.815 8.21963 13.2790
  167 724.921 -5.45118 14.4286
  168 706.562 -26.0214 -4.67803
  169 724.921 -5.45118 14.4286
  170 706.562 -26.0214 -4.67803
  171 776.618 -17.2933 -2.46568
  172 776.618 -17.2933 -2.46568
  173 599.480 18.5347 15.4891
  174 599.480 18.5347 15.4891
  175 305.783 -30.9773 123.480
  176 305.783 -30.9773 123.480
  177 273.409 -12.2268 -77.9116
  178 273.409 -12.2268 -77.9116
  179 604.309 19.9758 -14.8744
  180 604.309 19.9758 -14.8744
</Section>

newXOutput 186

<Section columns = "stress_xx | stress_yy | stress_xy">
  1 622.817 4.22505 -2.36041
  2 622.312 3.26679 2.11823
  3 622.817 4.22505 -2.36041
  4 622.312 3.26679 2.11823
  5 892.176 42.9608 241.187
  6 882.851 36.9695 -226.460
  7 892.176 42.9608 241.187
  8 882.851 36.9695 -226.460
  9 628.618 1.10921 -7.68766
  10 653.179 0.150139 -12.8120
  11 670.001 -7.84533 -17.6528
  12 705.298 -3.58370 7.91264
  13 707.986 22.0592 5.98383
  14 707.219 -3.43574 -10.3884
  15 676.456 -12.1077 17.7300
  16 645.416 2.84203 14.9764
  17 629.172 4.03489 6.76146
  18 619.325 6.95197 1.17294
  19 616.154 7.01987 -0.0891026
  20 619.049 6.40824 -1.06657
  21 628.618 1.10921 -7.68766
  22 653.179 0.150139 -12.8120
  23 670.001 -7.84533 -17.6528
  24 705.298 -3.58370 7.91264
  25 707.986 22.0592 5.98383
  26 707.219 -3.43574 -10.3884
  27 676.456 -12.1077 17.7300
  28 645.416 2.84203 14.9764
  29 629.172 4.03489 6.76146
  30 619.325 6.95197 1.17294
  31 616.154 7.01987 -0.0891026
  32 619.049 6.40824 -1.06657
  33 1297.52 11.6051 99.1568
  34 1138.89 10.0186 63.7248
  35 1097.01 21.4250 24.7680
  36 1066.21 12.2041 -6.24900
  37 1121.02 3.91027 -24.0192
  38 1149.70 22.4447 -57.3553
  39 1198.29 86.2986 -125.241
  40 302.671 -159.642 -280.315
  41 62.6892 -330.212 -122.542
  42 24.1654 -468.715 -40.6298
  43 15.4618 -500.440 -3.63010
  44 19.2620 -474.265 40.7662
  45 57.2536 -398.008 107.423
  46 246.939 -161.634 275.984
  47 1297.52 11.6051 99.1568
  48 1138.89 10.0186 63.7248
  49 1097.01 21.4250 24.7680
  50 1066.21 12.2041 -6.24900
  51 1121.02 3.91027 -24.0192
  52 1149.70 22.4447 -57.3553
  53 1198.29 86.2986 -125.241
  54 302.671 -159.642 -280.315
  55 62.6892 -330.212 -122.542
  56 24.1654 -468.715 -40.6298
  57 15.4618 -500.440 -3.63010
  58 19.2620 -474.265 40.7662
  59 57.2536 -398.008 107.423
  60 246.939 -161.634 275.984
  61 579.883 24.4468 -10.3466
  62 579.883 24.4468 -10.3466
  63 538.662 8.06051 57.2809
  64 523.321 3.71196 -69.6943
  65 538.662 8.06051 57.2809
  66 523.321 3.71196 -69.6943
  67 306.820 8.10249 19.6610
  68 306.820 8.10249 19.6610
  69 481.665 -90.6809 194.911
  70 481.665 -90.6809 194.911
  71 297.424 -84.5514 -158.684
  72 719.003 -61.7804 -36.2561
  73 798.523 46.1708 -3.87326
  74 763.578 21.9596 -5.13769
  75 297.424 -84.5514 -158.684
  76 719.003 -61.7804 -36.2561
  77 798.523 46.1708 -3.87326
  78 763.578 21.9596 -5.13769
  79 707.631 -33.2225 17.8542
  80 707.631 -33.2225 17.8542
  81 903.641 67.0589 5.87893
  82 903.641 67.0589 5.87893
  83 160.878 -98.0867 -13.8163
  84 160.878 -98.0867 -13.8163
  85 205.425 -133.297 139.565
  86 205.425 -133.297 139.565
  87 761.030 -43.2607 29.5299
  88 761.030 -43.2607 29.5299
  89 612.087 13.3765 8.35597
  90 614.479 14.6539 -8.51995
  91 612.087 13.3765 8.35597
  92 614.479 14.6539 -8.51995
  93 868.919 48.3348 36.6251
  94 868.919 48.3348 36.6251
  95 631.667 5.93293 25.4220
  96 631.667 5.93293 25.4220
  97 934.319 69.1856 -35.0761
  98 943.339 59.6383 -74.5237
  99 934.319 69.1856 -35.0761
  100 943.339 59.6383 -74.5237
  101 616.997 9.55443 -31.4802
  102 616.997 9.55443 -31.4802
  103 494.862 -92.8532 -233.941
  104 494.862 -92.8532 -233.941
  105 420.658 -107.515 248.109
  106 420.658 -107.515 248.109
  107 772.344 -57.7721 -92.5852
  108 772.344 -57.7721 -92.5852
  109 584.695 -73.1430 -134.397
  110 584.695 -73.1430 -134.397
  111 984.966 68.5334 52.7240
  112 984.966 68.5334 52.7240
  113 78.9408 -252.262 -95.5402
  114 78.9408 -252.262 -95.5402
  115 45.3921 -299.664 29.0827
  116 45.3921 -299.664 29.0827
  117 533.871 33.9822 -6.55262
  118 533.871 33.9822 -6.55262
  119 640.756 -25.3917 -51.6767
  120 640.756 -25.3917 -51.6767
  121 1041.21 28.6896 -23.6951
  122 1041.21 28.6896 -23.6951
  123 124.394 -244.447 161.714
  124 124.394 -244.447 161.714
  125 581.254 19.9879 29.2505
  126 581.254 19.9879 29.2505
  127 147.233 -197.084 -177.604
  128 147.233 -197.084 -177.604
  129 761.878 -49.3464 132.108
  130 761.878 -49.3464 132.108
  131 1059.44 53.3062 -75.1511
  132 1059.44 53.3062 -75.1511
  133 56.6991 -345.294 -27.2485
  134 56.6991 -345.294 -27.2485
  135 68.8801 -328.964 72.6137
  136 68.8801 -328.964 72.6137
  137 630.685 5.99765 -14.8015
  138 630.685 5.99765 -14.8015
  139 602.236 20.4367 -1.06944
  140 602.236 20.4367 -1.06944
  141 615.401 10.3315 -0.135274
  142 615.401 10.3315 -0.135274
  143 631.865 -12.9309 44.7966
  144 631.865 -12.9309 44.7966
  145 446.023 -11.2518 105.822
  146 634.466 -59.3321 91.3659
  147 444.239 26.0509 2.63767
  148 446.023 -11.2518 105.822
  149 634.466 -59.3321 91.3659
  150 444.239 26.0509 2.63767
  151 573.761 10.3933 -46.7954
  152 573.761 10.3933 -46.7954
  153 1034.58 29.4172 18.6145
  154 1034.58 29.4172 18.6145
  155 1071.07 24.4707 45.4810
  156 1073.33 57.2193 94.7501
  157 1071.07 24.4707 45.4810
  158 1073.33 57.2193 94.7501
  159 621.460 6.96446 4.81514
  160 621.460 6.96446 4.81514
  161 396.864 -15.8383 -90.4549
  162 396.864 -15.8383 -90.4549
  163 621.485 6.78148 -4.72607
  164 621.485 6.78148 -4.72607
  165 624.947 8.25942 13.3396
  166 624.947 8.25942 13.3396
  167 728.548 -5.47288 14.4689
  168 710.081 -26.1556 -4.72253
  169 728.548 -5.47288 14.4689
  170 710.081 -26.1556 -4.72253
  171 780.465 -17.3617 -2.53617
  172 780.465 -17.3617 -2.53617
  173 602.517 18.6255 15.5616
  174 602.517 18.6255 15.5616
  175 307.383 -31.1197 124.131
  176 307.383 -31.1197 124.131
  177 274.857 -12.2666 -78.3214
  178 274.857 -12.2666 -78.3214
  179 607.368 20.0738 -14.9445
  180 607.368 20.0738 -14.9445
</Section>

newXOutput 187

<Section columns = "stress_xx | stress_yy | stress_xy">
  1 625.937 4.24493 -2.37071
  2 625.430 3.28206 2.12742
  3 625.937 4.24493 -2.37071
  4 625.430 3.28206 2.12742
  5 896.373 43.2972 242.451
  6 887.038 37.2777 -227.666
  7 896.373 43.2972 242.451
  8 887.038 37.2777 -227.666
  9 631.761 1.11379 -7.72246
  10 656.428 0.150991 -12.8714
  11 673.332 -7.88647 -17.7439
  12 708.812 -3.60163 7.93479
  13 711.542 22.1741 6.00832
  14 710.743 -3.45170 -10.4187
  15 679.814 -12.1703 17.8225
  16 648.632 2.85547 15.0458
  17 632.318 4.05410 6.79131
  18 622.431 6.98448 1.17804
  19 619.248 7.05256 -0.0894758
  20 622.154 6.43817 -1.07121
  21 631.761 1.11379 -7.72246
  22 656.428 0.150991 -12.8714
  23 673.332 -7.88647 -17.7439
  24 708.812 -3.60163 7.93479
  25 711.542 22.1741 6.00832
  26 710.743 -3.45170 -10.4187
  27 679.814 -12.1703 17.8225
  28 648.632 2.85547 15.0458
  29 632.318 4.05410 6.79131
  30 622.431 6.98448 1.17804
  31 619.248 7.05256 -0.0894758
  32 622.154 6.43817 -1.07121
  33 1303.49 11.6658 99.6390
  34 1144.21 10.0537 64.0294
  35 1102.15 21.5229 24.8809
  36 1071.23 12.2546 -6.27584
  37 1126.24 3.92701 -24.1307
  38 1155.07 22.5532 -57.6249
  39 1203.88 86.7589 -125.875
  40 304.137 -160.301 -281.846
  41 63.0075 -331.849 -123.267
  42 24.2823 -471.197 -40.8827
  43 15.5278 -503.119 -3.64824
  44 19.3487 -476.771 41.0183
  45 57.5426 -400.019 108.071
  46 248.140 -162.303 277.498
  47 1303.49 11.6658 99.6390
  48 1144.21 10.0537 64.0294
  49 1102.15 21.5229 24.8809
  50 1071.23 12.2546 -6.27584
  51 1126.24 3.92701 -24.1307
  52 1155.07 22.5532 -57.6249
  53 1203.88 86.7589 -125.875
  54 304.137 -160.301 -281.846
  55 63.0075 -331.849 -123.267
  56 24.2823 -471.197 -40.8827
  57 15.5278 -503.119 -3.64824
  58 19.3487 -476.771 41.0183
  59 57.5426 -400.019 108.071
  60 248.140 -162.303 277.498
  61 582.818 24.5679 -10.3962
  62 582.818 24.5679 -10.3962
  63 541.397 8.10320 57.5663
  64 525.981 3.73255 -70.0413
  65 541.397 8.10320 57.5663
  66 525.981 3.73255 -70.0413
  67 308.437 8.16139 19.7629
  68 308.437 8.16139 19.7629
  69 484.070 -91.1461 195.931
  70 484.070 -91.1461 195.931
  71 298.951 -84.9652 -159.536
  72 722.550 -62.0903 -36.4725
  73 802.475 46.4113 -3.91771
  74 767.367 22.0766 -5.13334
  75 298.951 -84.9652 -159.536
  76 722.550 -62.0903 -36.4725
  77 802.475 46.4113 -3.91771
  78 767.367 22.0766 -5.13334
  79 711.136 -33.3895 17.9687
  80 711.136 -33.3895 17.9687
  81 908.046 67.3882 5.91846
  82 908.046 67.3882 5.91846
  83 161.730 -98.5546 -13.8929
  84 161.730 -98.5546 -13.8929
  85 206.478 -133.950 140.336
  86 206.478 -133.950 140.336
  87 764.772 -43.4652 29.7311
  88 764.772 -43.4652 29.7311
  89 615.163 13.4404 8.39355
  90 617.566 14.7242 -8.55829
  91 615.163 13.4404 8.39355
  92 617.566 14.7242 -8.55829
  93 873.162 48.6004 36.8610
  94 873.162 48.6004 36.8610
  95 634.826 5.96119 25.5431
  96 634.826 5.96119 25.5431
  97 938.859 69.5262 -35.2688
  98 947.891 59.9714 -74.9444
  99 938.859 69.5262 -35.2688
  100 947.891 59.9714 -74.9444
  101 620.093 9.60095 -31.6322
  102 620.093 9.60095 -31.6322
  103 497.276 -93.2596 -235.199
  104 497.276 -93.2596 -235.199
  105 422.718 -107.993 249.452
  106 422.718 -107.993 249.452
  107 776.107 -58.0309 -93.1182
  108 776.107 -58.0309 -93.1182
  109 587.605 -73.5155 -135.097
  110 587.605 -73.5155 -135.097
  111 989.706 68.8750 53.0003
  112 989.706 68.8750 53.0003
  113 79.3517 -253.533 -96.0945
  114 79.3517 -253.533 -96.0945
  115 45.6240 -301.203 29.2573
  116 45.6240 -301.203 29.2573
  117 536.594 34.1549 -6.58386
  118 536.594 34.1549 -6.58386
  119 643.951 -25.5217 -51.9418
  120 643.951 -25.5217 -51.9418
  121 1046.15 28.8209 -23.8071
  122 1046.15 28.8209 -23.8071
  123 125.033 -245.631 162.652
  124 125.033 -245.631 162.652
  125 584.192 20.0874 29.3917
  126 584.192 20.0874 29.3917
  127 147.992 -198.027 -178.615
  128 147.992 -198.027 -178.615
  129 765.588 -49.5612 132.836
  130 765.588 -49.5612 132.836
  131 1064.46 53.5662 -75.5297
  132 1064.46 53.5662 -75.5297
  133 56.9873 -347.085 -27.4076
  134 56.9873 -347.085 -27.4076
  135 69.2327 -330.641 73.0568
  136 69.2327 -330.641 73.0568
  137 633.839 6.02636 -14.8704
  138 633.839 6.02636 -14.8704
  139 605.271 20.5353 -1.07448
  140 605.271 20.5353 -1.07448
  141 618.492 10.3803 -0.135873
  142 618.492 10.3803 -0.135873
  143 635.022 -12.9975 45.0215
  144 635.022 -12.9975 45.0215
  145 448.310 -11.3041 106.361
  146 637.616 -59.6337 91.8444
  147 446.538 26.1894 2.65274
  148 448.310 -11.3041 106.361
  149 637.616 -59.6337 91.8444
  150 446.538 26.1894 2.65274
  151 576.661 10.4457 -47.0237
  152 576.661 10.4457 -47.0237
  153 1039.50 29.5500 18.7067
  154 1039.50 29.5500 18.7067
  155 1076.14 24.5821 45.6977
  156 1078.41 57.5349 95.2434
  157 1076.14 24.5821 45.6977
  158 1078.41 57.5349 95.2434
  159 624.575 6.99740 4.83631
  160 624.575 6.99740 4.83631
  161 398.917 -15.9128 -90.9177
  162 398.917 -15.9128 -90.9177
  163 624.600 6.81355 -4.74683
  164 624.600 6.81355 -4.74683
  165 628.077 8.29916 13.4002
  166 628.077 8.29916 13.4002
  167 732.171 -5.49450 14.5089
  168 713.597 -26.2898 -4.76719
  169 732.171 -5.49450 14.5089
  170 713.597 -26.2898 -4.76719
  171 784.307 -17.4298 -2.60718
  172 784.307 -17.4298 -2.60718
  173 605.552 18.7162 15.6340
  174 605.552 18.7162 15.6340
  175 308.982 -31.2618 124.782
  176 308.982 -31.2618 124.782
  177 276.305 -12.3062 -78.7310
  178 276.305 -12.3062 -78.7310
  179 610.425 20.1717 -15.0145
  180 610.425 20.1717 -15.0145
</Section>

newXOutput 188

<Section columns = "stress_xx | stress_yy | stress_xy">
  1 629.054 4.26479 -2.38098
  2 628.545 3.29731 2.13659
  3 629.054 4.26479 -2.38098
  4 628.545 3.29731 2.13659
  5 900.564 43.6346 243.714
  6 891.219 37.5869 -228.872
  7 900.564 43.6346 243.714
  8 891.219 37.5869 -228.872
  9 634.902 1.11835 -7.75719
  10 659.673 0.151843 -12.9306
  11 676.659 -7.92759 -17.8350
  12 712.323 -3.61955 7.95675
  13 715.095 22.2890 6.03273
  14 714.264 -3.46763 -10.4488
  15 683.169 -12.2329 17.9148
  16 651.845 2.86890 15.1151
  17 635.461 4.07329 6.82111
  18 625.535 7.01694 1.18312
  19 622.340 7.08520 -0.0898479
  20 625.257 6.46805 -1.07585
  21 634.902 1.11835 -7.75719
  22 659.673 0.151843 -12.9306
  23 676.659 -7.92759 -17.8350
  24 712.323 -3.61955 7.95675
  25 715.095 22.2890 6.03273
  26 714.264 -3.46763 -10.4488
  27 683.169 -12.2329 17.9148
  28 651.845 2.86890 15.1151
  29 635.461 4.07329 6.82111
  30 625.535 7.01694 1.18312
  31 622.340 7.08520 -0.0898479
  32 625.257 6.46805 -1.07585
  33 1309.45 11.7265 100.121
  34 1149.52 10.0886 64.3336
  35 1107.29 21.6207 24.9937
  36 1076.24 12.3049 -6.30260
  37 1131.45 3.94371 -24.2420
  38 1160.42 22.6616 -57.8941
  39 1209.47 87.2191 -126.508
  40 305.601 -160.958 -283.377
  41 63.3256 -333.484 -123.994
  42 24.3992 -473.678 -41.1360
  43 15.5937 -505.799 -3.66636
  44 19.4353 -479.277 41.2707
  45 57.8313 -402.029 108.720
  46 249.339 -162.970 279.013
  47 1309.45 11.7265 100.121
  48 1149.52 10.0886 64.3336
  49 1107.29 21.6207 24.9937
  50 1076.24 12.3049 -6.30260
  51 1131.45 3.94371 -24.2420
  52 1160.42 22.6616 -57.8941
  53 1209.47 87.2191 -126.508
  54 305.601 -160.958 -283.377
  55 63.3256 -333.484 -123.994
  56 24.3992 -473.678 -41.1360
  57 15.5937 -505.799 -3.66636
  58 19.4353 -479.277 41.2707
  59 57.8313 -402.029 108.720
  60 249.339 -162.970 279.013
  61 585.751 24.6888 -10.4457
  62 585.751 24.6888 -10.4457
  63 544.130 8.14588 57.8514
  64 528.639 3.75315 -70.3881
  65 544.130 8.14588 57.8514
  66 528.639 3.75315 -70.3881
  67 310.054 8.22043 19.8647
  68 310.054 8.22043 19.8647
  69 486.473 -91.6110 196.951
  70 486.473 -91.6110 196.951
  71 300.477 -85.3786 -160.387
  72 726.093 -62.4000 -36.6890
  73 806.424 46.6516 -3.96236
  74 771.152 22.1936 -5.12869
  75 300.477 -85.3786 -160.387
  76 726.093 -62.4000 -36.6890
  77 806.424 46.6516 -3.96236
  78 771.152 22.1936 -5.12869
  79 714.638 -33.5564 18.0833
  80 714.638 -33.5564 18.0833
  81 912.447 67.7173 5.95806
  82 912.447 67.7173 5.95806
  83 162.581 -99.0218 -13.9696
  84 162.581 -99.0218 -13.9696
  85 207.531 -134.603 141.108
  86 207.531 -134.603 141.108
  87 768.511 -43.6695 29.9328
  88 768.511 -43.6695 29.9328
  89 618.238 13.5042 8.43106
  90 620.650 14.7945 -8.59656
  91 618.238 13.5042 8.43106
  92 620.650 14.7945 -8.59656
  93 877.401 48.8659 37.0972
  94 877.401 48.8659 37.0972
  95 637.982 5.98942 25.6640
  96 637.982 5.98942 25.6640
  97 943.394 69.8666 -35.4615
  98 952.437 60.3045 -75.3653
  99 943.394 69.8666 -35.4615
  100 952.437 60.3045 -75.3653
  101 623.186 9.64742 -31.7839
  102 623.186 9.64742 -31.7839
  103 499.688 -93.6651 -236.457
  104 499.688 -93.6651 -236.457
  105 424.777 -108.471 250.794
  106 424.777 -108.471 250.794
  107 779.867 -58.2891 -93.6515
  108 779.867 -58.2891 -93.6515
  109 590.513 -73.8879 -135.796
  110 590.513 -73.8879 -135.796
  111 994.440 69.2164 53.2764
  112 994.440 69.2164 53.2764
  113 79.7625 -254.802 -96.6491
  114 79.7625 -254.802 -96.6491
  115 45.8558 -302.741 29.4322
  116 45.8558 -302.741 29.4322
  117 539.314 34.3275 -6.61506
  118 539.314 34.3275 -6.61506
  119 647.143 -25.6516 -52.2068
  120 647.143 -25.6516 -52.2068
  121 1051.09 28.9519 -23.9189
  122 1051.09 28.9519 -23.9189
  123 125.673 -246.814 163.591
  124 125.673 -246.814 163.591
  125 587.128 20.1869 29.5327
  126 587.128 20.1869 29.5327
  127 148.751 -198.969 -179.626
  128 148.751 -198.969 -179.626
  129 769.293 -49.7755 133.563
  130 769.293 -49.7755 133.563
  131 1069.48 53.8260 -75.9080
  132 1069.48 53.8260 -75.9080
  133 57.2754 -348.875 -27.5669
  134 57.2754 -348.875 -27.5669
  135 69.5852 -332.317 73.5005
  136 69.5852 -332.317 73.5005
  137 636.990 6.05504 -14.9392
  138 636.990 6.05504 -14.9392
  139 608.304 20.6338 -1.07951
  140 608.304 20.6338 -1.07951
  141 621.580 10.4289 -0.136471
  142 621.580 10.4289 -0.136471
  143 638.177 -13.0640 45.2463
  144 638.177 -13.0640 45.2463
  145 450.596 -11.3564 106.899
  146 640.764 -59.9350 92.3226
  147 448.836 26.3279 2.66781
  148 450.596 -11.3564 106.899
  149 640.764 -59.9350 92.3226
  150 448.836 26.3279 2.66781
  151 579.559 10.4982 -47.2518
  152 579.559 10.4982 -47.2518
  153 1044.42 29.6825 18.7987
  154 1044.42 29.6825 18.7987
  155 1081.20 24.6934 45.9140
  156 1083.48 57.8505 95.7364
  157 1081.20 24.6934 45.9140
  158 1083.48 57.8505 95.7364
  159 627.687 7.03029 4.85744
  160 627.687 7.03029 4.85744
  161 400.968 -15.9872 -91.3803
  162 400.968 -15.9872 -91.3803
  163 627.712 6.84557 -4.76754
  164 627.712 6.84557 -4.76754
  165 631.204 8.33886 13.4606
  166 631.204 8.33886 13.4606
  167 735.791 -5.51604 14.5486
  168 717.109 -26.4238 -4.81202
  169 735.791 -5.51604 14.5486
  170 717.109 -26.4238 -4.81202
  171 788.146 -17.4977 -2.67872
  172 788.146 -17.4977 -2.67872
  173 608.585 18.8068 15.7063
  174 608.585 18.8068 15.7063
  175 310.581 -31.4037 125.433
  176 310.581 -31.4037 125.433
  177 277.753 -12.3455 -79.1405
  178 277.753 -12.3455 -79.1405
  179 613.479 20.2694 -15.0844
  180 613.479 20.2694 -15.0844
</Section>

newXOutput 189

<Section columns = "stress_xx | stress_yy | stress_xy">
  1 632.169 4.28462 -2.39123
  2 631.658 3.31254 2.14574
  3 632.169 4.28462 -2.39123
  4 631.658 3.31254 2.14574
  5 904.748 43.9730 244.976
  6 895.394 37.8972 -230.077
  7 904.748 43.9730 244.976
  8 895.394 37.8972 -230.077
  9 638.040 1.12291 -7.79185
  10 662.916 0.152696 -12.9898
  11 679.984 -7.96870 -17.9260
  12 715.831 -3.63746 7.97852
  13 718.645 22.4039 6.05707
  14 717.782 -3.48353 -10.4787
  15 686.521 -12.2956 18.0071
  16 655.055 2.88231 15.1844
  17 638.602 4.09245 6.85084
  18 628.637 7.04936 1.18820
  19 625.429 7.11779 -0.0902191
  20 628.357 6.49788 -1.08047
  21 638.040 1.12291 -7.79185
  22 662.916 0.152696 -12.9898
  23 679.984 -7.96870 -17.9260
  24 715.831 -3.63746 7.97852
  25 718.645 22.4039 6.05707
  26 717.782 -3.48353 -10.4787
  27 686.521 -12.2956 18.0071
  28 655.055 2.88231 15.1844
  29 638.602 4.09245 6.85084
  30 628.637 7.04936 1.18820
  31 625.429 7.11779 -0.0902191
  32 628.357 6.49788 -1.08047
  33 1315.40 11.7872 100.602
  34 1154.83 10.1233 64.6374
  35 1112.42 21.7182 25.1062
  36 1081.25 12.3550 -6.32930
  37 1136.66 3.96037 -24.3531
  38 1165.77 22.7699 -58.1629
  39 1215.05 87.6792 -127.141
  40 307.063 -161.613 -284.907
  41 63.6435 -335.118 -124.721
  42 24.5159 -476.159 -41.3896
  43 15.6593 -508.478 -3.68447
  44 19.5217 -481.782 41.5235
  45 58.1198 -404.038 109.369
  46 250.537 -163.634 280.527
  47 1315.40 11.7872 100.602
  48 1154.83 10.1233 64.6374
  49 1112.42 21.7182 25.1062
  50 1081.25 12.3550 -6.32930
  51 1136.66 3.96037 -24.3531
  52 1165.77 22.7699 -58.1629
  53 1215.05 87.6792 -127.141
  54 307.063 -161.613 -284.907
  55 63.6435 -335.118 -124.721
  56 24.5159 -476.159 -41.3896
  57 15.6593 -508.478 -3.68447
  58 19.5217 -481.782 41.5235
  59 58.1198 -404.038 109.369
  60 250.537 -163.634 280.527
  61 588.681 24.8096 -10.4952
  62 588.681 24.8096 -10.4952
  63 546.862 8.18855 58.1363
  64 531.296 3.77374 -70.7346
  65 546.862 8.18855 58.1363
  66 531.296 3.77374 -70.7346
  67 311.671 8.27961 19.9665
  68 311.671 8.27961 19.9665
  69 488.873 -92.0757 197.970
  70 488.873 -92.0757 197.970
  71 302.002 -85.7915 -161.239
  72 729.633 -62.7094 -36.9057
  73 810.369 46.8918 -4.00723
  74 774.934 22.3105 -5.12376
  75 302.002 -85.7915 -161.239
  76 729.633 -62.7094 -36.9057
  77 810.369 46.8918 -4.00723
  78 774.934 22.3105 -5.12376
  79 718.136 -33.7231 18.1980
  80 718.136 -33.7231 18.1980
  81 916.842 68.0460 5.99772
  82 916.842 68.0460 5.99772
  83 163.433 -99.4884 -14.0463
  84 163.433 -99.4884 -14.0463
  85 208.583 -135.254 141.880
  86 208.583 -135.254 141.880
  87 772.246 -43.8735 30.1347
  88 772.246 -43.8735 30.1347
  89 621.310 13.5680 8.46850
  90 623.732 14.8646 -8.63475
  91 621.310 13.5680 8.46850
  92 623.732 14.8646 -8.63475
  93 881.636 49.1315 37.3336
  94 881.636 49.1315 37.3336
  95 641.135 6.01761 25.7848
  96 641.135 6.01761 25.7848
  97 947.924 70.2066 -35.6542
  98 956.978 60.6377 -75.7862
  99 947.924 70.2066 -35.6542
  100 956.978 60.6377 -75.7862
  101 626.277 9.69384 -31.9355
  102 626.277 9.69384 -31.9355
  103 502.097 -94.0697 -237.714
  104 502.097 -94.0697 -237.714
  105 426.833 -108.948 252.137
  106 426.833 -108.948 252.137
  107 783.622 -58.5469 -94.1850
  108 783.622 -58.5469 -94.1850
  109 593.418 -74.2600 -136.494
  110 593.418 -74.2600 -136.494
  111 999.168 69.5574 53.5524
  112 999.168 69.5574 53.5524
  113 80.1731 -256.070 -97.2041
  114 80.1731 -256.070 -97.2041
  115 46.0875 -304.278 29.6072
  116 46.0875 -304.278 29.6072
  117 542.033 34.5000 -6.64621
  118 542.033 34.5000 -6.64621
  119 650.332 -25.7815 -52.4717
  120 650.332 -25.7815 -52.4717
  121 1056.02 29.0828 -24.0306
  122 1056.02 29.0828 -24.0306
  123 126.312 -247.995 164.531
  124 126.312 -247.995 164.531
  125 590.061 20.2863 29.6736
  126 590.061 20.2863 29.6736
  127 149.510 -199.910 -180.638
  128 149.510 -199.910 -180.638
  129 772.994 -49.9892 134.291
  130 772.994 -49.9892 134.291
  131 1074.49 54.0855 -76.2859
  132 1074.49 54.0855 -76.2859
  133 57.5632 -350.665 -27.7263
  134 57.5632 -350.665 -27.7263
  135 69.9374 -333.991 73.9447
  136 69.9374 -333.991 73.9447
  137 640.139 6.08368 -15.0079
  138 640.139 6.08368 -15.0079
  139 611.335 20.7321 -1.08453
  140 611.335 20.7321 -1.08453
  141 624.666 10.4775 -0.137067
  142 624.666 10.4775 -0.137067
  143 641.329 -13.1305 45.4708
  144 641.329 -13.1305 45.4708
  145 452.880 -11.4086 107.437
  146 643.909 -60.2362 92.8007
  147 451.133 26.4664 2.68289
  148 452.880 -11.4086 107.437
  149 643.909 -60.2362 92.8007
  150 451.133 26.4664 2.68289
  151 582.455 10.5506 -47.4797
  152 582.455 10.5506 -47.4797
  153 1049.33 29.8149 18.8906
  154 1049.33 29.8149 18.8906
  155 1086.26 24.8045 46.1301
  156 1088.55 58.1662 96.2292
  157 1086.26 24.8045 46.1301
  158 1088.55 58.1662 96.2292
  159 630.797 7.06314 4.87852
  160 630.797 7.06314 4.87852
  161 403.019 -16.0615 -91.8426
  162 403.019 -16.0615 -91.8426
  163 630.822 6.87755 -4.78821
  164 630.822 6.87755 -4.78821
  165 634.328 8.37850 13.5209
  166 634.328 8.37850 13.5209
  167 739.407 -5.53750 14.5879
  168 720.618 -26.5578 -4.85703
  169 739.407 -5.53750 14.5879
  170 720.618 -26.5578 -4.85703
  171 791.981 -17.5653 -2.75078
  172 791.981 -17.5653 -2.75078
  173 611.615 18.8973 15.7785
  174 611.615 18.8973 15.7785
  175 312.179 -31.5454 126.083
  176 312.179 -31.5454 126.083
  177 279.200 -12.3846 -79.5498
  178 279.200 -12.3846 -79.5498
  179 616.531 20.3671 -15.1542
  180 616.531 20.3671 -15.1542
</Section>

newXOutput 190

<Section columns = "stress_xx | stress_yy | stress_xy">
  1 635.282 4.30442 -2.40146
  2 634.768 3.32775 2.15486
  3 635.282 4.30442 -2.40146
  4 634.768 3.32775 2.15486
  5 908.926 44.3124 246.239
  6 899.563 38.2085 -231.282
  7 908.926 44.3124 246.239
  8 899.563 38.2085 -231.282
  9 641.176 1.12745 -7.82645
  10 666.156 0.153550 -13.0489
  11 683.306 -8.00979 -18.0170
  12 719.336 -3.65535 8.00010
  13 722.193 22.5187 6.08133
  14 721.297 -3.49940 -10.5083
  15 689.870 -12.3581 18.0994
  16 658.263 2.89570 15.2535
  17 641.740 4.11159 6.88051
  18 631.736 7.08173 1.19326
  19 628.516 7.15033 -0.0905893
  20 631.455 6.52768 -1.08508
  21 641.176 1.12745 -7.82645
  22 666.156 0.153550 -13.0489
  23 683.306 -8.00979 -18.0170
  24 719.336 -3.65535 8.00010
  25 722.193 22.5187 6.08133
  26 721.297 -3.49940 -10.5083
  27 689.870 -12.3581 18.0994
  28 658.263 2.89570 15.2535
  29 641.740 4.11159 6.88051
  30 631.736 7.08173 1.19326
  31 628.516 7.15033 -0.0905893
  32 631.455 6.52768 -1.08508
  33 1321.34 11.8479 101.082
  34 1160.12 10.1579 64.9408
  35 1117.54 21.8157 25.2186
  36 1086.25 12.4050 -6.35594
  37 1141.85 3.97699 -24.4640
  38 1171.11 22.8780 -58.4313
  39 1220.62 88.1392 -127.773
  40 308.524 -162.266 -286.438
  41 63.9611 -336.751 -125.449
  42 24.6324 -478.639 -41.6436
  43 15.7248 -511.156 -3.70255
  44 19.6080 -484.287 41.7766
  45 58.4080 -406.045 110.019
  46 251.734 -164.297 282.042
  47 1321.34 11.8479 101.082
  48 1160.12 10.1579 64.9408
  49 1117.54 21.8157 25.2186
  50 1086.25 12.4050 -6.35594
  51 1141.85 3.97699 -24.4640
  52 1171.11 22.8780 -58.4313
  53 1220.62 88.1392 -127.773
  54 308.524 -162.266 -286.438
  55 63.9611 -336.751 -125.449
  56 24.6324 -478.639 -41.6436
  57 15.7248 -511.156 -3.70255
  58 19.6080 -484.287 41.7766
  59 58.4080 -406.045 110.019
  60 251.734 -164.297 282.042
  61 591.610 24.9303 -10.5447
  62 591.610 24.9303 -10.5447
  63 549.592 8.23121 58.4210
  64 533.951 3.79434 -71.0808
  65 549.592 8.23121 58.4210
  66 533.951 3.79434 -71.0808
  67 313.287 8.33891 20.0682
  68 313.287 8.33891 20.0682
  69 491.272 -92.5402 198.989
  70 491.272 -92.5402 198.989
  71 303.526 -86.2040 -162.090
  72 733.170 -63.0186 -37.1225
  73 814.311 47.1320 -4.05230
  74 778.713 22.4275 -5.11853
  75 303.526 -86.2040 -162.090
  76 733.170 -63.0186 -37.1225
  77 814.311 47.1320 -4.05230
  78 778.713 22.4275 -5.11853
  79 721.632 -33.8897 18.3130
  80 721.632 -33.8897 18.3130
  81 921.233 68.3744 6.03743
  82 921.233 68.3744 6.03743
  83 164.284 -99.9544 -14.1230
  84 164.284 -99.9544 -14.1230
  85 209.635 -135.905 142.652
  86 209.635 -135.905 142.652
  87 775.977 -44.0771 30.3371
  88 775.977 -44.0771 30.3371
  89 624.379 13.6317 8.50587
  90 626.812 14.9347 -8.67287
  91 624.379 13.6317 8.50587
  92 626.812 14.9347 -8.67287
  93 885.866 49.3972 37.5704
  94 885.866 49.3972 37.5704
  95 644.286 6.04577 25.9054
  96 644.286 6.04577 25.9054
  97 952.449 70.5463 -35.8469
  98 961.513 60.9710 -76.2072
  99 952.449 70.5463 -35.8469
  100 961.513 60.9710 -76.2072
  101 629.366 9.74021 -32.0869
  102 629.366 9.74021 -32.0869
  103 504.503 -94.4733 -238.972
  104 504.503 -94.4733 -238.972
  105 428.887 -109.424 253.480
  106 428.887 -109.424 253.480
  107 787.373 -58.8040 -94.7188
  108 787.373 -58.8040 -94.7188
  109 596.320 -74.6319 -137.193
  110 596.320 -74.6319 -137.193
  111 1003.89 69.8982 53.8283
  112 1003.89 69.8982 53.8283
  113 80.5836 -257.337 -97.7595
  114 80.5836 -257.337 -97.7595
  115 46.3191 -305.814 29.7824
  116 46.3191 -305.814 29.7824
  117 544.751 34.6724 -6.67733
  118 544.751 34.6724 -6.67733
  119 653.519 -25.9113 -52.7364
  120 653.519 -25.9113 -52.7364
  121 1060.94 29.2134 -24.1421
  122 1060.94 29.2134 -24.1421
  123 126.950 -249.175 165.471
  124 126.950 -249.175 165.471
  125 592.993 20.3855 29.8143
  126 592.993 20.3855 29.8143
  127 150.268 -200.849 -181.650
  128 150.268 -200.849 -181.650
  129 776.692 -50.2025 135.019
  130 776.692 -50.2025 135.019
  131 1079.49 54.3447 -76.6635
  132 1079.49 54.3447 -76.6635
  133 57.8509 -352.454 -27.8859
  134 57.8509 -352.454 -27.8859
  135 70.2894 -335.665 74.3894
  136 70.2894 -335.665 74.3894
  137 643.286 6.11228 -15.0764
  138 643.286 6.11228 -15.0764
  139 614.363 20.8303 -1.08955
  140 614.363 20.8303 -1.08955
  141 627.749 10.5261 -0.137662
  142 627.749 10.5261 -0.137662
  143 644.479 -13.1970 45.6952
  144 644.479 -13.1970 45.6952
  145 455.163 -11.4607 107.974
  146 647.051 -60.5372 93.2786
  147 453.428 26.6048 2.69798
  148 455.163 -11.4607 107.974
  149 647.051 -60.5372 93.2786
  150 453.428 26.6048 2.69798
  151 585.348 10.6030 -47.7073
  152 585.348 10.6030 -47.7073
  153 1054.23 29.9470 18.9824
  154 1054.23 29.9470 18.9824
  155 1091.31 24.9155 46.3459
  156 1093.60 58.4819 96.7218
  157 1091.31 24.9155 46.3459
  158 1093.60 58.4819 96.7218
  159 633.904 7.09594 4.89955
  160 633.904 7.09594 4.89955
  161 405.069 -16.1357 -92.3047
  162 405.069 -16.1357 -92.3047
  163 633.930 6.90949 -4.80883
  164 633.930 6.90949 -4.80883
  165 637.450 8.41810 13.5811
  166 637.450 8.41810 13.5811
  167 743.021 -5.55888 14.6268
  168 724.124 -26.6918 -4.90220
  169 743.021 -5.55888 14.6268
  170 724.124 -26.6918 -4.90220
  171 795.813 -17.6326 -2.82335
  172 795.813 -17.6326 -2.82335
  173 614.643 18.9878 15.8505
  174 614.643 18.9878 15.8505
  175 313.777 -31.6868 126.733
  176 313.777 -31.6868 126.733
  177 280.647 -12.4234 -79.9590
  178 280.647 -12.4234 -79.9590
  179 619.581 20.4646 -15.2238
  180 619.581 20.4646 -15.2238
</Section>

newXOutput 191

<Section columns = "stress_xx | stress_yy | stress_xy">
  1 638.392 4.32419 -2.41166
  2 637.876 3.34293 2.16397
  3 638.392 4.32419 -2.41166
  4 637.876 3.34293 2.16397
  5 913.099 44.6528 247.500
  6 903.727 38.5208 -232.487
  7 913.099 44.6528 247.500
  8 903.727 38.5208 -232.487
  9 644.309 1.13197 -7.86099
  10 669.393 0.154404 -13.1078
  11 686.625 -8.05087 -18.1079
  12 722.838 -3.67323 8.02149
  13 725.737 22.6335 6.10552
  14 724.809 -3.51525 -10.5377
  15 693.216 -12.4207 18.1917
  16 661.468 2.90907 15.3225
  17 644.875 4.13071 6.91012
  18 634.833 7.11405 1.19831
  19 631.600 7.18281 -0.0909584
  20 634.551 6.55742 -1.08968
  21 644.309 1.13197 -7.86099
  22 669.393 0.154404 -13.1078
  23 686.625 -8.05087 -18.1079
  24 722.838 -3.67323 8.02149
  25 725.737 22.6335 6.10552
  26 724.809 -3.51525 -10.5377
  27 693.216 -12.4207 18.1917
  28 661.468 2.90907 15.3225
  29 644.875 4.13071 6.91012
  30 634.833 7.11405 1.19831
  31 631.600 7.18281 -0.0909584
  32 634.551 6.55742 -1.08968
  33 1327.27 11.9085 101.562
  34 1165.41 10.1923 65.2438
  35 1122.65 21.9129 25.3308
  36 1091.24 12.4549 -6.38251
  37 1147.04 3.99357 -24.5748
  38 1176.44 22.9861 -58.6993
  39 1226.18 88.5991 -128.405
  40 309.983 -162.917 -287.969
  41 64.2785 -338.382 -126.177
  42 24.7489 -481.119 -41.8979
  43 15.7901 -513.835 -3.72063
  44 19.6940 -486.790 42.0301
  45 58.6961 -408.051 110.670
  46 252.929 -164.957 283.557
  47 1327.27 11.9085 101.562
  48 1165.41 10.1923 65.2438
  49 1122.65 21.9129 25.3308
  50 1091.24 12.4549 -6.38251
  51 1147.04 3.99357 -24.5748
  52 1176.44 22.9861 -58.6993
  53 1226.18 88.5991 -128.405
  54 309.983 -162.917 -287.969
  55 64.2785 -338.382 -126.177
  56 24.7489 -481.119 -41.8979
  57 15.7901 -513.835 -3.72063
  58 19.6940 -486.790 42.0301
  59 58.6961 -408.051 110.670
  60 252.929 -164.957 283.557
  61 594.537 25.0509 -10.5941
  62 594.537 25.0509 -10.5941
  63 552.320 8.27386 58.7054
  64 536.604 3.81494 -71.4267
  65 552.320 8.27386 58.7054
  66 536.604 3.81494 -71.4267
  67 314.903 8.39836 20.1699
  68 314.903 8.39836 20.1699
  69 493.669 -93.0043 200.007
  70 493.669 -93.0043 200.007
  71 305.050 -86.6161 -162.942
  72 736.703 -63.3276 -37.3396
  73 818.248 47.3721 -4.09757
  74 782.488 22.5444 -5.11301
  75 305.050 -86.6161 -162.942
  76 736.703 -63.3276 -37.3396
  77 818.248 47.3721 -4.09757
  78 782.488 22.5444 -5.11301
  79 725.124 -34.0562 18.4281
  80 725.124 -34.0562 18.4281
  81 925.619 68.7025 6.07720
  82 925.619 68.7025 6.07720
  83 165.135 -100.420 -14.1997
  84 165.135 -100.420 -14.1997
  85 210.686 -136.556 143.424
  86 210.686 -136.556 143.424
  87 779.705 -44.2805 30.5398
  88 779.705 -44.2805 30.5398
  89 627.446 13.6953 8.54317
  90 629.889 15.0047 -8.71091
  91 627.446 13.6953 8.54317
  92 629.889 15.0047 -8.71091
  93 890.092 49.6628 37.8074
  94 890.092 49.6628 37.8074
  95 647.434 6.07389 26.0258
  96 647.434 6.07389 26.0258
  97 956.969 70.8856 -36.0395
  98 966.043 61.3044 -76.6283
  99 956.969 70.8856 -36.0395
  100 966.043 61.3044 -76.6283
  101 632.452 9.78653 -32.2381
  102 632.452 9.78653 -32.2381
  103 506.907 -94.8759 -240.230
  104 506.907 -94.8759 -240.230
  105 430.939 -109.899 254.822
  106 430.939 -109.899 254.822
  107 791.120 -59.0607 -95.2528
  108 791.120 -59.0607 -95.2528
  109 599.220 -75.0036 -137.891
  110 599.220 -75.0036 -137.891
  111 1008.61 70.2387 54.1040
  112 1008.61 70.2387 54.1040
  113 80.9939 -258.604 -98.3153
  114 80.9939 -258.604 -98.3153
  115 46.5505 -307.349 29.9578
  116 46.5505 -307.349 29.9578
  117 547.466 34.8447 -6.70840
  118 547.466 34.8447 -6.70840
  119 656.703 -26.0410 -53.0009
  120 656.703 -26.0410 -53.0009
  121 1065.85 29.3438 -24.2534
  122 1065.85 29.3438 -24.2534
  123 127.588 -250.354 166.412
  124 127.588 -250.354 166.412
  125 595.922 20.4848 29.9549
  126 595.922 20.4848 29.9549
  127 151.025 -201.787 -182.662
  128 151.025 -201.787 -182.662
  129 780.385 -50.4153 135.747
  130 780.385 -50.4153 135.747
  131 1084.49 54.6037 -77.0408
  132 1084.49 54.6037 -77.0408
  133 58.1383 -354.242 -28.0455
  134 58.1383 -354.242 -28.0455
  135 70.6412 -337.337 74.8347
  136 70.6412 -337.337 74.8347
  137 646.430 6.14085 -15.1449
  138 646.430 6.14085 -15.1449
  139 617.389 20.9284 -1.09456
  140 617.389 20.9284 -1.09456
  141 630.830 10.5745 -0.138256
  142 630.830 10.5745 -0.138256
  143 647.625 -13.2635 45.9194
  144 647.625 -13.2635 45.9194
  145 457.445 -11.5127 108.511
  146 650.190 -60.8379 93.7564
  147 455.723 26.7433 2.71307
  148 457.445 -11.5127 108.511
  149 650.190 -60.8379 93.7564
  150 455.723 26.7433 2.71307
  151 588.240 10.6553 -47.9347
  152 588.240 10.6553 -47.9347
  153 1059.12 30.0788 19.0742
  154 1059.12 30.0788 19.0742
  155 1096.35 25.0262 46.5613
  156 1098.66 58.7976 97.2140
  157 1096.35 25.0262 46.5613
  158 1098.66 58.7976 97.2140
  159 637.009 7.12870 4.92054
  160 637.009 7.12870 4.92054
  161 407.117 -16.2098 -92.7664
  162 407.117 -16.2098 -92.7664
  163 637.035 6.94138 -4.82941
  164 637.035 6.94138 -4.82941
  165 640.570 8.45765 13.6412
  166 640.570 8.45765 13.6412
  167 746.632 -5.58018 14.6654
  168 727.627 -26.8256 -4.94754
  169 746.632 -5.58018 14.6654
  170 727.627 -26.8256 -4.94754
  171 799.640 -17.6997 -2.89645
  172 799.640 -17.6997 -2.89645
  173 617.669 19.0781 15.9225
  174 617.669 19.0781 15.9225
  175 315.374 -31.8279 127.383
  176 315.374 -31.8279 127.383
  177 282.093 -12.4619 -80.3680
  178 282.093 -12.4619 -80.3680
  179 622.629 20.5621 -15.2934
  180 622.629 20.5621 -15.2934
</Section>

newXOutput 192

<Section columns = "stress_xx | stress_yy | stress_xy">
  1 641.499 4.34393 -2.42185
  2 640.981 3.35809 2.17305
  3 641.499 4.34393 -2.42185
  4 640.981 3.35809 2.17305
  5 917.265 44.9941 248.761
  6 907.885 38.8342 -233.691
  7 917.265 44.9941 248.761
  8 907.885 38.8342 -233.691
  9 647.440 1.13649 -7.89547
  10 672.627 0.155259 -13.1667
  11 689.941 -8.09194 -18.1988
  12 726.337 -3.69109 8.04270
  13 729.279 22.7482 6.12963
  14 728.319 -3.53107 -10.5668
  15 696.560 -12.4832 18.2839
  16 664.670 2.92242 15.3913
  17 648.008 4.14980 6.93966
  18 637.927 7.14632 1.20335
  19 634.682 7.21525 -0.0913266
  20 637.644 6.58712 -1.09427
  21 647.440 1.13649 -7.89547
  22 672.627 0.155259 -13.1667
  23 689.941 -8.09194 -18.1988
  24 726.337 -3.69109 8.04270
  25 729.279 22.7482 6.12963
  26 728.319 -3.53107 -10.5668
  27 696.560 -12.4832 18.2839
  28 664.670 2.92242 15.3913
  29 648.008 4.14980 6.93966
  30 637.927 7.14632 1.20335
  31 634.682 7.21525 -0.0913266
  32 637.644 6.58712 -1.09427
  33 1333.19 11.9692 102.042
  34 1170.69 10.2265 65.5464
  35 1127.76 22.0100 25.4427
  36 1096.22 12.5047 -6.40902
  37 1152.22 4.01012 -24.6854
  38 1181.76 23.0940 -58.9668
  39 1231.73 89.0590 -129.036
  40 311.440 -163.565 -289.499
  41 64.5956 -340.011 -126.906
  42 24.8651 -483.598 -42.1526
  43 15.8552 -516.513 -3.73868
  44 19.7799 -489.294 42.2838
  45 58.9839 -410.055 111.321
  46 254.122 -165.615 285.072
  47 1333.19 11.9692 102.042
  48 1170.69 10.2265 65.5464
  49 1127.76 22.0100 25.4427
  50 1096.22 12.5047 -6.40902
  51 1152.22 4.01012 -24.6854
  52 1181.76 23.0940 -58.9668
  53 1231.73 89.0590 -129.036
  54 311.440 -163.565 -289.499
  55 64.5956 -340.011 -126.906
  56 24.8651 -483.598 -42.1526
  57 15.8552 -516.513 -3.73868
  58 19.7799 -489.294 42.2838
  59 58.9839 -410.055 111.321
  60 254.122 -165.615 285.072
  61 597.462 25.1714 -10.6434
  62 597.462 25.1714 -10.6434
  63 555.046 8.31649 58.9896
  64 539.256 3.83554 -71.7722
  65 555.046 8.31649 58.9896
  66 539.256 3.83554 -71.7722
  67 316.518 8.45794 20.2716
  68 316.518 8.45794 20.2716
  69 496.064 -93.4683 201.025
  70 496.064 -93.4683 201.025
  71 306.572 -87.0278 -163.793
  72 740.233 -63.6363 -37.5568
  73 822.183 47.6120 -4.14305
  74 786.260 22.6614 -5.10721
  75 306.572 -87.0278 -163.793
  76 740.233 -63.6363 -37.5568
  77 822.183 47.6120 -4.14305
  78 786.260 22.6614 -5.10721
  79 728.613 -34.2226 18.5433
  80 728.613 -34.2226 18.5433
  81 930.001 69.0303 6.11703
  82 930.001 69.0303 6.11703
  83 165.986 -100.884 -14.2764
  84 165.986 -100.884 -14.2764
  85 211.736 -137.205 144.196
  86 211.736 -137.205 144.196
  87 783.428 -44.4836 30.7428
  88 783.428 -44.4836 30.7428
  89 630.511 13.7588 8.58039
  90 632.964 15.0746 -8.74889
  91 630.511 13.7588 8.58039
  92 632.964 15.0746 -8.74889
  93 894.313 49.9285 38.0448
  94 894.313 49.9285 38.0448
  95 650.580 6.10197 26.1461
  96 650.580 6.10197 26.1461
  97 961.484 71.2247 -36.2322
  98 970.568 61.6378 -77.0495
  99 961.484 71.2247 -36.2322
  100 970.568 61.6378 -77.0495
  101 635.536 9.83280 -32.3892
  102 635.536 9.83280 -32.3892
  103 509.308 -95.2777 -241.487
  104 509.308 -95.2777 -241.487
  105 432.988 -110.372 256.164
  106 432.988 -110.372 256.164
  107 794.864 -59.3168 -95.7871
  108 794.864 -59.3168 -95.7871
  109 602.118 -75.3750 -138.589
  110 602.118 -75.3750 -138.589
  111 1013.32 70.5790 54.3797
  112 1013.32 70.5790 54.3797
  113 81.4040 -259.869 -98.8714
  114 81.4040 -259.869 -98.8714
  115 46.7818 -308.884 30.1334
  116 46.7818 -308.884 30.1334
  117 550.180 35.0168 -6.73943
  118 550.180 35.0168 -6.73943
  119 659.884 -26.1707 -53.2653
  120 659.884 -26.1707 -53.2653
  121 1070.76 29.4740 -24.3646
  122 1070.76 29.4740 -24.3646
  123 128.226 -251.531 167.353
  124 128.226 -251.531 167.353
  125 598.850 20.5839 30.0953
  126 598.850 20.5839 30.0953
  127 151.783 -202.724 -183.675
  128 151.783 -202.724 -183.675
  129 784.074 -50.6275 136.475
  130 784.074 -50.6275 136.475
  131 1089.48 54.8624 -77.4178
  132 1089.48 54.8624 -77.4178
  133 58.4257 -356.029 -28.2053
  134 58.4257 -356.029 -28.2053
  135 70.9928 -339.009 75.2804
  136 70.9928 -339.009 75.2804
  137 649.571 6.16938 -15.2133
  138 649.571 6.16938 -15.2133
  139 620.413 21.0264 -1.09956
  140 620.413 21.0264 -1.09956
  141 633.909 10.6229 -0.138849
  142 633.909 10.6229 -0.138849
  143 650.770 -13.3299 46.1434
  144 650.770 -13.3299 46.1434
  145 459.726 -11.5647 109.048
  146 653.327 -61.1385 94.2339
  147 458.017 26.8817 2.72817
  148 459.726 -11.5647 109.048
  149 653.327 -61.1385 94.2339
  150 458.017 26.8817 2.72817
  151 591.130 10.7077 -48.1618
  152 591.130 10.7077 -48.1618
  153 1064.01 30.2104 19.1658
  154 1064.01 30.2104 19.1658
  155 1101.39 25.1367 46.7765
  156 1103.70 59.1134 97.7061
  157 1101.39 25.1367 46.7765
  158 1103.70 59.1134 97.7061
  159 640.112 7.16141 4.94148
  160 640.112 7.16141 4.94148
  161 409.165 -16.2838 -93.2279
  162 409.165 -16.2838 -93.2279
  163 640.137 6.97322 -4.84994
  164 640.137 6.97322 -4.84994
  165 643.687 8.49716 13.7012
  166 643.687 8.49716 13.7012
  167 750.239 -5.60139 14.7036
  168 731.127 -26.9594 -4.99305
  169 750.239 -5.60139 14.7036
  170 731.127 -26.9594 -4.99305
  171 803.464 -17.7666 -2.97006
  172 803.464 -17.7666 -2.97006
  173 620.693 19.1683 15.9943
  174 620.693 19.1683 15.9943
  175 316.970 -31.9688 128.033
  176 316.970 -31.9688 128.033
  177 283.539 -12.5002 -80.7768
  178 283.539 -12.5002 -80.7768
  179 625.674 20.6594 -15.3629
  180 625.674 20.6594 -15.3629
</Section>

newXOutput 193

<Section columns = "stress_xx | stress_yy | stress_xy">
  1 644.604 4.36365 -2.43201
  2 644.084 3.37322 2.18212
  3 644.604 4.36365 -2.43201
  4 644.084 3.37322 2.18212
  5 921.425 45.3365 250.022
  6 912.037 39.1486 -234.895
  7 921.425 45.3365 250.022
  8 912.037 39.1486 -234.895
  9 650.568 1.14099 -7.92988
  10 675.859 0.156114 -13.2255
  11 693.254 -8.13300 -18.2896
  12 729.833 -3.70893 8.06372
  13 732.818 22.8629 6.15367
  14 731.825 -3.54686 -10.5957
  15 699.900 -12.5457 18.3760
  16 667.869 2.93575 15.4601
  17 651.139 4.16886 6.96914
  18 641.019 7.17854 1.20838
  19 637.762 7.24764 -0.0916938
  20 640.734 6.61678 -1.09885
  21 650.568 1.14099 -7.92988
  22 675.859 0.156114 -13.2255
  23 693.254 -8.13300 -18.2896
  24 729.833 -3.70893 8.06372
  25 732.818 22.8629 6.15367
  26 731.825 -3.54686 -10.5957
  27 699.900 -12.5457 18.3760
  28 667.869 2.93575 15.4601
  29 651.139 4.16886 6.96914
  30 641.019 7.17854 1.20838
  31 637.762 7.24764 -0.0916938
  32 640.734 6.61678 -1.09885
  33 1339.10 12.0298 102.520
  34 1175.96 10.2606 65.8486
  35 1132.86 22.1070 25.5545
  36 1101.20 12.5543 -6.43546
  37 1157.40 4.02663 -24.7958
  38 1187.08 23.2018 -59.2340
  39 1237.27 89.5187 -129.667
  40 312.895 -164.212 -291.030
  41 64.9125 -341.638 -127.635
  42 24.9813 -486.077 -42.4076
  43 15.9202 -519.191 -3.75672
  44 19.8657 -491.796 42.5380
  45 59.2714 -412.057 111.973
  46 255.315 -166.272 286.587
  47 1339.10 12.0298 102.520
  48 1175.96 10.2606 65.8486
  49 1132.86 22.1070 25.5545
  50 1101.20 12.5543 -6.43546
  51 1157.40 4.02663 -24.7958
  52 1187.08 23.2018 -59.2340
  53 1237.27 89.5187 -129.667
  54 312.895 -164.212 -291.030
  55 64.9125 -341.638 -127.635
  56 24.9813 -486.077 -42.4076
  57 15.9202 -519.191 -3.75672
  58 19.8657 -491.796 42.5380
  59 59.2714 -412.057 111.973
  60 255.315 -166.272 286.587
  61 600.384 25.2918 -10.6926
  62 600.384 25.2918 -10.6926
  63 557.771 8.35912 59.2735
  64 541.906 3.85614 -72.1175
  65 557.771 8.35912 59.2735
  66 541.906 3.85614 -72.1175
  67 318.133 8.51765 20.3732
  68 318.133 8.51765 20.3732
  69 498.457 -93.9320 202.043
  70 498.457 -93.9320 202.043
  71 308.094 -87.4391 -164.644
  72 743.760 -63.9447 -37.7742
  73 826.113 47.8519 -4.18873
  74 790.028 22.7783 -5.10111
  75 308.094 -87.4391 -164.644
  76 743.760 -63.9447 -37.7742
  77 826.113 47.8519 -4.18873
  78 790.028 22.7783 -5.10111
  79 732.099 -34.3888 18.6587
  80 732.099 -34.3888 18.6587
  81 934.378 69.3577 6.15692
  82 934.378 69.3577 6.15692
  83 166.837 -101.349 -14.3531
  84 166.837 -101.349 -14.3531
  85 212.786 -137.854 144.968
  86 212.786 -137.854 144.968
  87 787.149 -44.6864 30.9463
  88 787.149 -44.6864 30.9463
  89 633.574 13.8222 8.61754
  90 636.037 15.1445 -8.78678
  91 633.574 13.8222 8.61754
  92 636.037 15.1445 -8.78678
  93 898.530 50.1942 38.2825
  94 898.530 50.1942 38.2825
  95 653.723 6.13001 26.2662
  96 653.723 6.13001 26.2662
  97 965.993 71.5634 -36.4248
  98 975.088 61.9714 -77.4708
  99 965.993 71.5634 -36.4248
  100 975.088 61.9714 -77.4708
  101 638.618 9.87902 -32.5400
  102 638.618 9.87902 -32.5400
  103 511.706 -95.6784 -242.744
  104 511.706 -95.6784 -242.744
  105 435.036 -110.845 257.506
  106 435.036 -110.845 257.506
  107 798.603 -59.5724 -96.3217
  108 798.603 -59.5724 -96.3217
  109 605.012 -75.7462 -139.286
  110 605.012 -75.7462 -139.286
  111 1018.02 70.9189 54.6551
  112 1018.02 70.9189 54.6551
  113 81.8140 -261.133 -99.4279
  114 81.8140 -261.133 -99.4279
  115 47.0130 -310.417 30.3091
  116 47.0130 -310.417 30.3091
  117 552.893 35.1889 -6.77042
  118 552.893 35.1889 -6.77042
  119 663.063 -26.3003 -53.5296
  120 663.063 -26.3003 -53.5296
  121 1075.66 29.6039 -24.4756
  122 1075.66 29.6039 -24.4756
  123 128.864 -252.707 168.295
  124 128.864 -252.707 168.295
  125 601.775 20.6829 30.2355
  126 601.775 20.6829 30.2355
  127 152.539 -203.660 -184.689
  128 152.539 -203.660 -184.689
  129 787.759 -50.8393 137.203
  130 787.759 -50.8393 137.203
  131 1094.46 55.1208 -77.7945
  132 1094.46 55.1208 -77.7945
  133 58.7128 -357.815 -28.3652
  134 58.7128 -357.815 -28.3652
  135 71.3442 -340.679 75.7267
  136 71.3442 -340.679 75.7267
  137 652.710 6.19787 -15.2815
  138 652.710 6.19787 -15.2815
  139 623.435 21.1243 -1.10456
  140 623.435 21.1243 -1.10456
  141 636.985 10.6712 -0.139441
  142 636.985 10.6712 -0.139441
  143 653.911 -13.3963 46.3672
  144 653.911 -13.3963 46.3672
  145 462.005 -11.6166 109.584
  146 656.460 -61.4389 94.7113
  147 460.309 27.0200 2.74328
  148 462.005 -11.6166 109.584
  149 656.460 -61.4389 94.7113
  150 460.309 27.0200 2.74328
  151 594.017 10.7599 -48.3886
  152 594.017 10.7599 -48.3886
  153 1068.89 30.3418 19.2574
  154 1068.89 30.3418 19.2574
  155 1106.41 25.2471 46.9914
  156 1108.74 59.4292 98.1978
  157 1106.41 25.2471 46.9914
  158 1108.74 59.4292 98.1978
  159 643.212 7.19408 4.96238
  160 643.212 7.19408 4.96238
  161 411.212 -16.3577 -93.6891
  162 411.212 -16.3577 -93.6891
  163 643.237 7.00503 -4.87043
  164 643.237 7.00503 -4.87043
  165 646.801 8.53661 13.7611
  166 646.801 8.53661 13.7611
  167 753.843 -5.62252 14.7415
  168 734.623 -27.0931 -5.03872
  169 753.843 -5.62252 14.7415
  170 734.623 -27.0931 -5.03872
  171 807.285 -17.8331 -3.04418
  172 807.285 -17.8331 -3.04418
  173 623.714 19.2584 16.0660
  174 623.714 19.2584 16.0660
  175 318.565 -32.1095 128.683
  176 318.565 -32.1095 128.683
  177 284.985 -12.5383 -81.1855
  178 284.985 -12.5383 -81.1855
  179 628.717 20.7566 -15.4323
  180 628.717 20.7566 -15.4323
</Section>

newXOutput 194

<Section columns = "stress_xx | stress_yy | stress_xy">
  1 647.706 4.38333 -2.44214
  2 647.184 3.38834 2.19116
  3 647.706 4.38333 -2.44214
  4 647.184 3.38834 2.19116
  5 925.579 45.6798 251.281
  6 916.184 39.4640 -236.099
  7 925.579 45.6798 251.281
  8 916.184 39.4640 -236.099
  9 653.694 1.14547 -7.96422
  10 679.088 0.156970 -13.2842
  11 696.564 -8.17404 -18.3804
  12 733.326 -3.72676 8.08455
  13 736.354 22.9775 6.17764
  14 735.328 -3.56262 -10.6244
  15 703.237 -12.6082 18.4681
  16 671.066 2.94907 15.5288
  17 654.267 4.18790 6.99856
  18 644.108 7.21071 1.21339
  19 640.839 7.27997 -0.0920600
  20 643.823 6.64639 -1.10342
  21 653.694 1.14547 -7.96422
  22 679.088 0.156970 -13.2842
  23 696.564 -8.17404 -18.3804
  24 733.326 -3.72676 8.08455
  25 736.354 22.9775 6.17764
  26 735.328 -3.56262 -10.6244
  27 703.237 -12.6082 18.4681
  28 671.066 2.94907 15.5288
  29 654.267 4.18790 6.99856
  30 644.108 7.21071 1.21339
  31 640.839 7.27997 -0.0920600
  32 643.823 6.64639 -1.10342
  33 1345.00 12.0904 102.999
  34 1181.22 10.2945 66.1505
  35 1137.95 22.2038 25.6661
  36 1106.17 12.6037 -6.46184
  37 1162.56 4.04311 -24.9060
  38 1192.39 23.3094 -59.5008
  39 1242.81 89.9783 -130.297
  40 314.348 -164.856 -292.561
  41 65.2292 -343.265 -128.365
  42 25.0973 -488.554 -42.6630
  43 15.9850 -521.868 -3.77474
  44 19.9512 -494.298 42.7924
  45 59.5588 -414.059 112.626
  46 256.505 -166.926 288.102
  47 1345.00 12.0904 102.999
  48 1181.22 10.2945 66.1505
  49 1137.95 22.2038 25.6661
  50 1106.17 12.6037 -6.46184
  51 1162.56 4.04311 -24.9060
  52 1192.39 23.3094 -59.5008
  53 1242.81 89.9783 -130.297
  54 314.348 -164.856 -292.561
  55 65.2292 -343.265 -128.365
  56 25.0973 -488.554 -42.6630
  57 15.9850 -521.868 -3.77474
  58 19.9512 -494.298 42.7924
  59 59.5588 -414.059 112.626
  60 256.505 -166.926 288.102
  61 603.305 25.4120 -10.7418
  62 603.305 25.4120 -10.7418
  63 560.494 8.40173 59.5572
  64 544.554 3.87674 -72.4625
  65 560.494 8.40173 59.5572
  66 544.554 3.87674 -72.4625
  67 319.747 8.57749 20.4747
  68 319.747 8.57749 20.4747
  69 500.848 -94.3954 203.060
  70 500.848 -94.3954 203.060
  71 309.615 -87.8499 -165.495
  72 747.283 -64.2530 -37.9917
  73 830.040 48.0917 -4.23461
  74 793.793 22.8952 -5.09473
  75 309.615 -87.8499 -165.495
  76 747.283 -64.2530 -37.9917
  77 830.040 48.0917 -4.23461
  78 793.793 22.8952 -5.09473
  79 735.582 -34.5549 18.7742
  80 735.582 -34.5549 18.7742
  81 938.749 69.6849 6.19687
  82 938.749 69.6849 6.19687
  83 167.687 -101.812 -14.4299
  84 167.687 -101.812 -14.4299
  85 213.835 -138.503 145.741
  86 213.835 -138.503 145.741
  87 790.865 -44.8889 31.1501
  88 790.865 -44.8889 31.1501
  89 636.634 13.8856 8.65462
  90 639.107 15.2142 -8.82461
  91 636.634 13.8856 8.65462
  92 639.107 15.2142 -8.82461
  93 902.742 50.4600 38.5205
  94 902.742 50.4600 38.5205
  95 656.864 6.15802 26.3862
  96 656.864 6.15802 26.3862
  97 970.498 71.9018 -36.6175
  98 979.602 62.3050 -77.8921
  99 970.498 71.9018 -36.6175
  100 979.602 62.3050 -77.8921
  101 641.697 9.92519 -32.6907
  102 641.697 9.92519 -32.6907
  103 514.102 -96.0783 -244.001
  104 514.102 -96.0783 -244.001
  105 437.081 -111.317 258.849
  106 437.081 -111.317 258.849
  107 802.338 -59.8274 -96.8565
  108 802.338 -59.8274 -96.8565
  109 607.905 -76.1172 -139.983
  110 607.905 -76.1172 -139.983
  111 1022.72 71.2586 54.9305
  112 1022.72 71.2586 54.9305
  113 82.2237 -262.397 -99.9847
  114 82.2237 -262.397 -99.9847
  115 47.2441 -311.950 30.4850
  116 47.2441 -311.950 30.4850
  117 555.603 35.3608 -6.80137
  118 555.603 35.3608 -6.80137
  119 666.239 -26.4298 -53.7937
  120 666.239 -26.4298 -53.7937
  121 1080.56 29.7337 -24.5864
  122 1080.56 29.7337 -24.5864
  123 129.501 -253.881 169.238
  124 129.501 -253.881 169.238
  125 604.698 20.7819 30.3756
  126 604.698 20.7819 30.3756
  127 153.296 -204.594 -185.703
  128 153.296 -204.594 -185.703
  129 791.441 -51.0505 137.931
  130 791.441 -51.0505 137.931
  131 1099.44 55.3789 -78.1709
  132 1099.44 55.3789 -78.1709
  133 58.9997 -359.601 -28.5252
  134 58.9997 -359.601 -28.5252
  135 71.6954 -342.348 76.1734
  136 71.6954 -342.348 76.1734
  137 655.846 6.22633 -15.3497
  138 655.846 6.22633 -15.3497
  139 626.455 21.2221 -1.10954
  140 626.455 21.2221 -1.10954
  141 640.059 10.7195 -0.140031
  142 640.059 10.7195 -0.140031
  143 657.051 -13.4626 46.5909
  144 657.051 -13.4626 46.5909
  145 464.283 -11.6684 110.120
  146 659.591 -61.7391 95.1885
  147 462.601 27.1584 2.75839
  148 464.283 -11.6684 110.120
  149 659.591 -61.7391 95.1885
  150 462.601 27.1584 2.75839
  151 596.903 10.8121 -48.6153
  152 596.903 10.8121 -48.6153
  153 1073.77 30.4729 19.3488
  154 1073.77 30.4729 19.3488
  155 1111.44 25.3573 47.2060
  156 1113.77 59.7451 98.6893
  157 1111.44 25.3573 47.2060
  158 1113.77 59.7451 98.6893
  159 646.309 7.22670 4.98323
  160 646.309 7.22670 4.98323
  161 413.258 -16.4314 -94.1501
  162 413.258 -16.4314 -94.1501
  163 646.335 7.03679 -4.89087
  164 646.335 7.03679 -4.89087
  165 649.913 8.57602 13.8208
  166 649.913 8.57602 13.8208
  167 757.444 -5.64358 14.7790
  168 738.116 -27.2267 -5.08457
  169 757.444 -5.64358 14.7790
  170 738.116 -27.2267 -5.08457
  171 811.101 -17.8995 -3.11882
  172 811.101 -17.8995 -3.11882
  173 626.733 19.3485 16.1376
  174 626.733 19.3485 16.1376
  175 320.160 -32.2499 129.332
  176 320.160 -32.2499 129.332
  177 286.430 -12.5761 -81.5940
  178 286.430 -12.5761 -81.5940
  179 631.758 20.8538 -15.5015
  180 631.758 20.8538 -15.5015
</Section>

newXOutput 195

<Section columns = "stress_xx | stress_yy | stress_xy">
  1 650.806 4.40299 -2.45225
  2 650.282 3.40343 2.20018
  3 650.806 4.40299 -2.45225
  4 650.282 3.40343 2.20018
  5 929.727 46.0241 252.541
  6 920.325 39.7804 -237.302
  7 929.727 46.0241 252.541
  8 920.325 39.7804 -237.302
  9 656.817 1.14995 -7.99850
  10 682.314 0.157826 -13.3428
  11 699.871 -8.21507 -18.4711
  12 736.816 -3.74458 8.10520
  13 739.888 23.0921 6.20153
  14 738.828 -3.57836 -10.6529
  15 706.571 -12.6706 18.5602
  16 674.260 2.96237 15.5973
  17 657.392 4.20692 7.02792
  18 647.195 7.24284 1.21840
  19 643.914 7.31226 -0.0924252
  20 646.908 6.67595 -1.10798
  21 656.817 1.14995 -7.99850
  22 682.314 0.157826 -13.3428
  23 699.871 -8.21507 -18.4711
  24 736.816 -3.74458 8.10520
  25 739.888 23.0921 6.20153
  26 738.828 -3.57836 -10.6529
  27 706.571 -12.6706 18.5602
  28 674.260 2.96237 15.5973
  29 657.392 4.20692 7.02792
  30 647.195 7.24284 1.21840
  31 643.914 7.31226 -0.0924252
  32 646.908 6.67595 -1.10798
  33 1350.89 12.1509 103.476
  34 1186.48 10.3282 66.4519
  35 1143.04 22.3004 25.7775
  36 1111.14 12.6531 -6.48816
  37 1167.72 4.05954 -25.0160
  38 1197.69 23.4170 -59.7671
  39 1248.33 90.4378 -130.926
  40 315.800 -165.499 -294.092
  41 65.5457 -344.889 -129.096
  42 25.2132 -491.032 -42.9188
  43 16.0496 -524.545 -3.79275
  44 20.0366 -496.799 43.0472
  45 59.8459 -416.058 113.280
  46 257.695 -167.578 289.618
  47 1350.89 12.1509 103.476
  48 1186.48 10.3282 66.4519
  49 1143.04 22.3004 25.7775
  50 1111.14 12.6531 -6.48816
  51 1167.72 4.05954 -25.0160
  52 1197.69 23.4170 -59.7671
  53 1248.33 90.4378 -130.926
  54 315.800 -165.499 -294.092
  55 65.5457 -344.889 -129.096
  56 25.2132 -491.032 -42.9188
  57 16.0496 -524.545 -3.79275
  58 20.0366 -496.799 43.0472
  59 59.8459 -416.058 113.280
  60 257.695 -167.578 289.618
  61 606.223 25.5322 -10.7909
  62 606.223 25.5322 -10.7909
  63 563.215 8.44433 59.8406
  64 547.200 3.89735 -72.8072
  65 563.215 8.44433 59.8406
  66 547.200 3.89735 -72.8072
  67 321.361 8.63747 20.5762
  68 321.361 8.63747 20.5762
  69 503.236 -94.8587 204.077
  70 503.236 -94.8587 204.077
  71 311.135 -88.2604 -166.346
  72 750.803 -64.5610 -38.2094
  73 833.963 48.3314 -4.28070
  74 797.555 23.0120 -5.08806
  75 311.135 -88.2604 -166.346
  76 750.803 -64.5610 -38.2094
  77 833.963 48.3314 -4.28070
  78 797.555 23.0120 -5.08806
  79 739.062 -34.7209 18.8899
  80 739.062 -34.7209 18.8899
  81 943.117 70.0117 6.23687
  82 943.117 70.0117 6.23687
  83 168.537 -102.275 -14.5067
  84 168.537 -102.275 -14.5067
  85 214.884 -139.150 146.513
  86 214.884 -139.150 146.513
  87 794.578 -45.0911 31.3542
  88 794.578 -45.0911 31.3542
  89 639.691 13.9489 8.69163
  90 642.175 15.2839 -8.86236
  91 639.691 13.9489 8.69163
  92 642.175 15.2839 -8.86236
  93 906.950 50.7258 38.7587
  94 906.950 50.7258 38.7587
  95 660.002 6.18599 26.5060
  96 660.002 6.18599 26.5060
  97 974.998 72.2399 -36.8101
  98 984.110 62.6387 -78.3135
  99 974.998 72.2399 -36.8101
  100 984.110 62.6387 -78.3135
  101 644.773 9.97131 -32.8412
  102 644.773 9.97131 -32.8412
  103 516.495 -96.4772 -245.258
  104 516.495 -96.4772 -245.258
  105 439.124 -111.788 260.191
  106 439.124 -111.788 260.191
  107 806.069 -60.0819 -97.3916
  108 806.069 -60.0819 -97.3916
  109 610.795 -76.4880 -140.680
  110 610.795 -76.4880 -140.680
  111 1027.42 71.5980 55.2057
  112 1027.42 71.5980 55.2057
  113 82.6333 -263.659 -100.542
  114 82.6333 -263.659 -100.542
  115 47.4750 -313.482 30.6612
  116 47.4750 -313.482 30.6612
  117 558.312 35.5326 -6.83228
  118 558.312 35.5326 -6.83228
  119 669.412 -26.5592 -54.0576
  120 669.412 -26.5592 -54.0576
  121 1085.45 29.8632 -24.6971
  122 1085.45 29.8632 -24.6971
  123 130.137 -255.054 170.181
  124 130.137 -255.054 170.181
  125 607.619 20.8807 30.5154
  126 607.619 20.8807 30.5154
  127 154.052 -205.527 -186.717
  128 154.052 -205.527 -186.717
  129 795.118 -51.2612 138.659
  130 795.118 -51.2612 138.659
  131 1104.41 55.6367 -78.5469
  132 1104.41 55.6367 -78.5469
  133 59.2865 -361.385 -28.6853
  134 59.2865 -361.385 -28.6853
  135 72.0464 -344.016 76.6207
  136 72.0464 -344.016 76.6207
  137 658.980 6.25476 -15.4177
  138 658.980 6.25476 -15.4177
  139 629.472 21.3197 -1.11452
  140 629.472 21.3197 -1.11452
  141 643.131 10.7676 -0.140620
  142 643.131 10.7676 -0.140620
  143 660.187 -13.5290 46.8144
  144 660.187 -13.5290 46.8144
  145 466.560 -11.7201 110.656
  146 662.720 -62.0392 95.6656
  147 464.891 27.2967 2.77351
  148 466.560 -11.7201 110.656
  149 662.720 -62.0392 95.6656
  150 464.891 27.2967 2.77351
  151 599.787 10.8643 -48.8417
  152 599.787 10.8643 -48.8417
  153 1078.64 30.6038 19.4402
  154 1078.64 30.6038 19.4402
  155 1116.45 25.4672 47.4203
  156 1118.80 60.0610 99.1806
  157 1116.45 25.4672 47.4203
  158 1118.80 60.0610 99.1806
  159 649.404 7.25928 5.00403
  160 649.404 7.25928 5.00403
  161 415.302 -16.5051 -94.6107
  162 415.302 -16.5051 -94.6107
  163 649.430 7.06850 -4.91127
  164 649.430 7.06850 -4.91127
  165 653.023 8.61538 13.8805
  166 653.023 8.61538 13.8805
  167 761.042 -5.66455 14.8161
  168 741.606 -27.3603 -5.13058
  169 761.042 -5.66455 14.8161
  170 741.606 -27.3603 -5.13058
  171 814.914 -17.9655 -3.19397
  172 814.914 -17.9655 -3.19397
  173 629.750 19.4384 16.2091
  174 629.750 19.4384 16.2091
  175 321.754 -32.3901 129.981
  176 321.754 -32.3901 129.981
  177 287.875 -12.6137 -82.0024
  178 287.875 -12.6137 -82.0024
  179 634.796 20.9508 -15.5707
  180 634.796 20.9508 -15.5707
</Section>

newXOutput 196

<Section columns = "stress_xx | stress_yy | stress_xy">
  1 653.904 4.42262 -2.46235
  2 653.378 3.41850 2.20918
  3 653.904 4.42262 -2.46235
  4 653.378 3.41850 2.20918
  5 933.869 46.3693 253.800
  6 924.460 40.0979 -238.505
  7 933.869 46.3693 253.800
  8 924.460 40.0979 -238.505
  9 659.937 1.15441 -8.03272
  10 685.537 0.158683 -13.4013
  11 703.176 -8.25608 -18.5618
  12 740.303 -3.76238 8.12566
  13 743.419 23.2067 6.22535
  14 742.325 -3.59407 -10.6811
  15 709.903 -12.7330 18.6523
  16 677.452 2.97565 15.6658
  17 660.515 4.22591 7.05721
  18 650.280 7.27491 1.22339
  19 646.986 7.34450 -0.0927894
  20 649.992 6.70547 -1.11253
  21 659.937 1.15441 -8.03272
  22 685.537 0.158683 -13.4013
  23 703.176 -8.25608 -18.5618
  24 740.303 -3.76238 8.12566
  25 743.419 23.2067 6.22535
  26 742.325 -3.59407 -10.6811
  27 709.903 -12.7330 18.6523
  28 677.452 2.97565 15.6658
  29 660.515 4.22591 7.05721
  30 650.280 7.27491 1.22339
  31 646.986 7.34450 -0.0927894
  32 649.992 6.70547 -1.11253
  33 1356.77 12.2115 103.953
  34 1191.73 10.3618 66.7529
  35 1148.11 22.3969 25.8886
  36 1116.10 12.7023 -6.51441
  37 1172.87 4.07595 -25.1259
  38 1202.98 23.5244 -60.0331
  39 1253.85 90.8972 -131.555
  40 317.250 -166.139 -295.622
  41 65.8619 -346.512 -129.828
  42 25.3290 -493.509 -43.1749
  43 16.1141 -527.222 -3.81074
  44 20.1218 -499.300 43.3023
  45 60.1328 -418.056 113.934
  46 258.883 -168.228 291.133
  47 1356.77 12.2115 103.953
  48 1191.73 10.3618 66.7529
  49 1148.11 22.3969 25.8886
  50 1116.10 12.7023 -6.51441
  51 1172.87 4.07595 -25.1259
  52 1202.98 23.5244 -60.0331
  53 1253.85 90.8972 -131.555
  54 317.250 -166.139 -295.622
  55 65.8619 -346.512 -129.828
  56 25.3290 -493.509 -43.1749
  57 16.1141 -527.222 -3.81074
  58 20.1218 -499.300 43.3023
  59 60.1328 -418.056 113.934
  60 258.883 -168.228 291.133
  61 609.140 25.6522 -10.8400
  62 609.140 25.6522 -10.8400
  63 565.934 8.48692 60.1238
  64 549.845 3.91796 -73.1515
  65 565.934 8.48692 60.1238
  66 549.845 3.91796 -73.1515
  67 322.975 8.69759 20.6777
  68 322.975 8.69759 20.6777
  69 505.623 -95.3216 205.093
  70 505.623 -95.3216 205.093
  71 312.654 -88.6704 -167.197
  72 754.319 -64.8687 -38.4273
  73 837.883 48.5710 -4.32699
  74 801.313 23.1289 -5.08110
  75 312.654 -88.6704 -167.197
  76 754.319 -64.8687 -38.4273
  77 837.883 48.5710 -4.32699
  78 801.313 23.1289 -5.08110
  79 742.538 -34.8868 19.0057
  80 742.538 -34.8868 19.0057
  81 947.479 70.3382 6.27693
  82 947.479 70.3382 6.27693
  83 169.388 -102.737 -14.5835
  84 169.388 -102.737 -14.5835
  85 215.932 -139.797 147.286
  86 215.932 -139.797 147.286
  87 798.287 -45.2930 31.5588
  88 798.287 -45.2930 31.5588
  89 642.747 14.0121 8.72857
  90 645.240 15.3534 -8.90004
  91 642.747 14.0121 8.72857
  92 645.240 15.3534 -8.90004
  93 911.153 50.9916 38.9973
  94 911.153 50.9916 38.9973
  95 663.137 6.21392 26.6256
  96 663.137 6.21392 26.6256
  97 979.493 72.5777 -37.0027
  98 988.614 62.9725 -78.7350
  99 979.493 72.5777 -37.0027
  100 988.614 62.9725 -78.7350
  101 647.848 10.0174 -32.9915
  102 647.848 10.0174 -32.9915
  103 518.886 -96.8751 -246.514
  104 518.886 -96.8751 -246.514
  105 441.165 -112.257 261.533
  106 441.165 -112.257 261.533
  107 809.796 -60.3359 -97.9269
  108 809.796 -60.3359 -97.9269
  109 613.682 -76.8585 -141.377
  110 613.682 -76.8585 -141.377
  111 1032.11 71.9371 55.4808
  112 1032.11 71.9371 55.4808
  113 83.0428 -264.921 -101.100
  114 83.0428 -264.921 -101.100
  115 47.7058 -315.013 30.8374
  116 47.7058 -315.013 30.8374
  117 561.020 35.7044 -6.86315
  118 561.020 35.7044 -6.86315
  119 672.582 -26.6886 -54.3214
  120 672.582 -26.6886 -54.3214
  121 1090.33 29.9925 -24.8077
  122 1090.33 29.9925 -24.8077
  123 130.774 -256.225 171.125
  124 130.774 -256.225 171.125
  125 610.539 20.9795 30.6552
  126 610.539 20.9795 30.6552
  127 154.807 -206.459 -187.732
  128 154.807 -206.459 -187.732
  129 798.791 -51.4715 139.388
  130 798.791 -51.4715 139.388
  131 1109.38 55.8943 -78.9226
  132 1109.38 55.8943 -78.9226
  133 59.5731 -363.169 -28.8456
  134 59.5731 -363.169 -28.8456
  135 72.3971 -345.683 77.0685
  136 72.3971 -345.683 77.0685
  137 662.111 6.28314 -15.4857
  138 662.111 6.28314 -15.4857
  139 632.487 21.4173 -1.11950
  140 632.487 21.4173 -1.11950
  141 646.200 10.8158 -0.141208
  142 646.200 10.8158 -0.141208
  143 663.321 -13.5953 47.0377
  144 663.321 -13.5953 47.0377
  145 468.836 -11.7718 111.191
  146 665.845 -62.3390 96.1424
  147 467.181 27.4349 2.78864
  148 468.836 -11.7718 111.191
  149 665.845 -62.3390 96.1424
  150 467.181 27.4349 2.78864
  151 602.668 10.9165 -49.0678
  152 602.668 10.9165 -49.0678
  153 1083.50 30.7345 19.5315
  154 1083.50 30.7345 19.5315
  155 1121.46 25.5770 47.6343
  156 1123.81 60.3770 99.6716
  157 1121.46 25.5770 47.6343
  158 1123.81 60.3770 99.6716
  159 652.497 7.29181 5.02479
  160 652.497 7.29181 5.02479
  161 417.346 -16.5787 -95.0711
  162 417.346 -16.5787 -95.0711
  163 652.523 7.10017 -4.93162
  164 652.523 7.10017 -4.93162
  165 656.130 8.65469 13.9400
  166 656.130 8.65469 13.9400
  167 764.636 -5.68544 14.8530
  168 745.093 -27.4938 -5.17675
  169 764.636 -5.68544 14.8530
  170 745.093 -27.4938 -5.17675
  171 818.723 -18.0313 -3.26963
  172 818.723 -18.0313 -3.26963
  173 632.765 19.5282 16.2805
  174 632.765 19.5282 16.2805
  175 323.348 -32.5301 130.630
  176 323.348 -32.5301 130.630
  177 289.319 -12.6510 -82.4107
  178 289.319 -12.6510 -82.4107
  179 637.832 21.0477 -15.6397
  180 637.832 21.0477 -15.6397
</Section>

newXOutput 197

<Section columns = "stress_xx | stress_yy | stress_xy">
  1 656.999 4.44222 -2.47241
  2 656.470 3.43354 2.21816
  3 656.999 4.44222 -2.47241
  4 656.470 3.43354 2.21816
  5 938.005 46.7155 255.058
  6 928.590 40.4164 -239.707
  7 938.005 46.7155 255.058
  8 928.590 40.4164 -239.707
  9 663.056 1.15885 -8.06688
  10 688.757 0.159541 -13.4597
  11 706.477 -8.29709 -18.6524
  12 743.787 -3.78017 8.14593
  13 746.947 23.3212 6.24910
  14 745.820 -3.60976 -10.7091
  15 713.231 -12.7954 18.7443
  16 680.640 2.98891 15.7341
  17 663.635 4.24487 7.08644
  18 653.362 7.30694 1.22837
  19 650.056 7.37669 -0.0931526
  20 653.073 6.73495 -1.11707
  21 663.056 1.15885 -8.06688
  22 688.757 0.159541 -13.4597
  23 706.477 -8.29709 -18.6524
  24 743.787 -3.78017 8.14593
  25 746.947 23.3212 6.24910
  26 745.820 -3.60976 -10.7091
  27 713.231 -12.7954 18.7443
  28 680.640 2.98891 15.7341
  29 663.635 4.24487 7.08644
  30 653.362 7.30694 1.22837
  31 650.056 7.37669 -0.0931526
  32 653.073 6.73495 -1.11707
  33 1362.64 12.2720 104.430
  34 1196.97 10.3951 67.0535
  35 1153.18 22.4932 25.9996
  36 1121.05 12.7514 -6.54060
  37 1178.01 4.09231 -25.2356
  38 1208.26 23.6317 -60.2986
  39 1259.36 91.3566 -132.184
  40 318.699 -166.778 -297.153
  41 66.1778 -348.133 -130.560
  42 25.4446 -495.985 -43.4313
  43 16.1783 -529.899 -3.82871
  44 20.2069 -501.799 43.5578
  45 60.4194 -420.053 114.588
  46 260.069 -168.876 292.648
  47 1362.64 12.2720 104.430
  48 1196.97 10.3951 67.0535
  49 1153.18 22.4932 25.9996
  50 1121.05 12.7514 -6.54060
  51 1178.01 4.09231 -25.2356
  52 1208.26 23.6317 -60.2986
  53 1259.36 91.3566 -132.184
  54 318.699 -166.778 -297.153
  55 66.1778 -348.133 -130.560
  56 25.4446 -495.985 -43.4313
  57 16.1783 -529.899 -3.82871
  58 20.2069 -501.799 43.5578
  59 60.4194 -420.053 114.588
  60 260.069 -168.876 292.648
  61 612.055 25.7721 -10.8890
  62 612.055 25.7721 -10.8890
  63 568.651 8.52950 60.4067
  64 552.488 3.93857 -73.4956
  65 568.651 8.52950 60.4067
  66 552.488 3.93857 -73.4956
  67 324.588 8.75783 20.7791
  68 324.588 8.75783 20.7791
  69 508.008 -95.7844 206.110
  70 508.008 -95.7844 206.110
  71 314.173 -89.0800 -168.048
  72 757.832 -65.1762 -38.6454
  73 841.799 48.8105 -4.37348
  74 805.068 23.2457 -5.07385
  75 314.173 -89.0800 -168.048
  76 757.832 -65.1762 -38.6454
  77 841.799 48.8105 -4.37348
  78 805.068 23.2457 -5.07385
  79 746.012 -35.0525 19.1217
  80 746.012 -35.0525 19.1217
  81 951.837 70.6644 6.31705
  82 951.837 70.6644 6.31705
  83 170.238 -103.199 -14.6603
  84 170.238 -103.199 -14.6603
  85 216.979 -140.443 148.059
  86 216.979 -140.443 148.059
  87 801.993 -45.4946 31.7636
  88 801.993 -45.4946 31.7636
  89 645.800 14.0752 8.76544
  90 648.303 15.4229 -8.93765
  91 645.800 14.0752 8.76544
  92 648.303 15.4229 -8.93765
  93 915.352 51.2575 39.2362
  94 915.352 51.2575 39.2362
  95 666.270 6.24182 26.7451
  96 666.270 6.24182 26.7451
  97 983.983 72.9152 -37.1953
  98 993.112 63.3064 -79.1566
  99 983.983 72.9152 -37.1953
  100 993.112 63.3064 -79.1566
  101 650.920 10.0634 -33.1417
  102 650.920 10.0634 -33.1417
  103 521.274 -97.2722 -247.771
  104 521.274 -97.2722 -247.771
  105 443.204 -112.726 262.874
  106 443.204 -112.726 262.874
  107 813.519 -60.5893 -98.4624
  108 813.519 -60.5893 -98.4624
  109 616.567 -77.2289 -142.073
  110 616.567 -77.2289 -142.073
  111 1036.79 72.2759 55.7557
  112 1036.79 72.2759 55.7557
  113 83.4521 -266.181 -101.658
  114 83.4521 -266.181 -101.658
  115 47.9365 -316.543 31.0139
  116 47.9365 -316.543 31.0139
  117 563.725 35.8760 -6.89398
  118 563.725 35.8760 -6.89398
  119 675.750 -26.8179 -54.5850
  120 675.750 -26.8179 -54.5850
  121 1095.20 30.1217 -24.9180
  122 1095.20 30.1217 -24.9180
  123 131.410 -257.395 172.070
  124 131.410 -257.395 172.070
  125 613.456 21.0782 30.7947
  126 613.456 21.0782 30.7947
  127 155.563 -207.390 -188.747
  128 155.563 -207.390 -188.747
  129 802.460 -51.6812 140.116
  130 802.460 -51.6812 140.116
  131 1114.33 56.1516 -79.2980
  132 1114.33 56.1516 -79.2980
  133 59.8595 -364.953 -29.0060
  134 59.8595 -364.953 -29.0060
  135 72.7477 -347.349 77.5168
  136 72.7477 -347.349 77.5168
  137 665.239 6.31150 -15.5535
  138 665.239 6.31150 -15.5535
  139 635.500 21.5147 -1.12446
  140 635.500 21.5147 -1.12446
  141 649.267 10.8638 -0.141794
  142 649.267 10.8638 -0.141794
  143 666.453 -13.6615 47.2608
  144 666.453 -13.6615 47.2608
  145 471.110 -11.8234 111.726
  146 668.968 -62.6386 96.6191
  147 469.469 27.5732 2.80377
  148 471.110 -11.8234 111.726
  149 668.968 -62.6386 96.6191
  150 469.469 27.5732 2.80377
  151 605.548 10.9686 -49.2937
  152 605.548 10.9686 -49.2937
  153 1088.36 30.8649 19.6226
  154 1088.36 30.8649 19.6226
  155 1126.46 25.6867 47.8481
  156 1128.83 60.6930 100.162
  157 1126.46 25.6867 47.8481
  158 1128.83 60.6930 100.162
  159 655.587 7.32430 5.04551
  160 655.587 7.32430 5.04551
  161 419.389 -16.6522 -95.5312
  162 419.389 -16.6522 -95.5312
  163 655.613 7.13180 -4.95193
  164 655.613 7.13180 -4.95193
  165 659.234 8.69396 13.9995
  166 659.234 8.69396 13.9995
  167 768.228 -5.70625 14.8894
  168 748.577 -27.6272 -5.22309
  169 768.228 -5.70625 14.8894
  170 748.577 -27.6272 -5.22309
  171 822.529 -18.0969 -3.34580
  172 822.529 -18.0969 -3.34580
  173 635.778 19.6180 16.3518
  174 635.778 19.6180 16.3518
  175 324.941 -32.6698 131.279
  176 324.941 -32.6698 131.279
  177 290.763 -12.6881 -82.8187
  178 290.763 -12.6881 -82.8187
  179 640.866 21.1445 -15.7087
  180 640.866 21.1445 -15.7087
</Section>

newXOutput 198

<Section columns = "stress_xx | stress_yy | stress_xy">
  1 660.092 4.46180 -2.48246
  2 659.561 3.44856 2.22712
  3 660.092 4.46180 -2.48246
  4 659.561 3.44856 2.22712
  5 942.135 47.0627 256.316
  6 932.714 40.7359 -240.909
  7 942.135 47.0627 256.316
  8 932.714 40.7359 -240.909
  9 666.171 1.16329 -8.10097
  10 691.975 0.160399 -13.5180
  11 709.776 -8.33808 -18.7429
  12 747.268 -3.79794 8.16602
  13 750.472 23.4357 6.27277
  14 749.311 -3.62541 -10.7368
  15 716.557 -12.8577 18.8362
  16 683.826 3.00215 15.8023
  17 666.753 4.26381 7.11561
  18 656.442 7.33892 1.23334
  19 653.124 7.40882 -0.0935148
  20 656.151 6.76438 -1.12160
  21 666.171 1.16329 -8.10097
  22 691.975 0.160399 -13.5180
  23 709.776 -8.33808 -18.7429
  24 747.268 -3.79794 8.16602
  25 750.472 23.4357 6.27277
  26 749.311 -3.62541 -10.7368
  27 716.557 -12.8577 18.8362
  28 683.826 3.00215 15.8023
  29 666.753 4.26381 7.11561
  30 656.442 7.33892 1.23334
  31 653.124 7.40882 -0.0935148
  32 656.151 6.76438 -1.12160
  33 1368.50 12.3325 104.906
  34 1202.20 10.4284 67.3537
  35 1158.25 22.5894 26.1104
  36 1125.99 12.8003 -6.56672
  37 1183.15 4.10864 -25.3451
  38 1213.54 23.7389 -60.5638
  39 1264.86 91.8158 -132.812
  40 320.145 -167.414 -298.684
  41 66.4936 -349.753 -131.292
  42 25.5600 -498.460 -43.6881
  43 16.2425 -532.575 -3.84667
  44 20.2917 -504.299 43.8136
  45 60.7058 -422.048 115.244
  46 261.255 -169.522 294.164
  47 1368.50 12.3325 104.906
  48 1202.20 10.4284 67.3537
  49 1158.25 22.5894 26.1104
  50 1125.99 12.8003 -6.56672
  51 1183.15 4.10864 -25.3451
  52 1213.54 23.7389 -60.5638
  53 1264.86 91.8158 -132.812
  54 320.145 -167.414 -298.684
  55 66.4936 -349.753 -131.292
  56 25.5600 -498.460 -43.6881
  57 16.2425 -532.575 -3.84667
  58 20.2917 -504.299 43.8136
  59 60.7058 -422.048 115.244
  60 261.255 -169.522 294.164
  61 614.967 25.8920 -10.9379
  62 614.967 25.8920 -10.9379
  63 571.367 8.57207 60.6894
  64 555.129 3.95919 -73.8394
  65 571.367 8.57207 60.6894
  66 555.129 3.95919 -73.8394
  67 326.201 8.81821 20.8805
  68 326.201 8.81821 20.8805
  69 510.391 -96.2468 207.125
  70 510.391 -96.2468 207.125
  71 315.691 -89.4892 -168.899
  72 761.342 -65.4835 -38.8636
  73 845.711 49.0500 -4.42017
  74 808.820 23.3626 -5.06632
  75 315.691 -89.4892 -168.899
  76 761.342 -65.4835 -38.8636
  77 845.711 49.0500 -4.42017
  78 808.820 23.3626 -5.06632
  79 749.482 -35.2181 19.2379
  80 749.482 -35.2181 19.2379
  81 956.190 70.9903 6.35723
  82 956.190 70.9903 6.35723
  83 171.087 -103.660 -14.7371
  84 171.087 -103.660 -14.7371
  85 218.026 -141.089 148.832
  86 218.026 -141.089 148.832
  87 805.695 -45.6960 31.9689
  88 805.695 -45.6960 31.9689
  89 648.851 14.1382 8.80223
  90 651.364 15.4923 -8.97519
  91 648.851 14.1382 8.80223
  92 651.364 15.4923 -8.97519
  93 919.546 51.5234 39.4753
  94 919.546 51.5234 39.4753
  95 669.401 6.26968 26.8645
  96 669.401 6.26968 26.8645
  97 988.467 73.2523 -37.3879
  98 997.605 63.6404 -79.5782
  99 988.467 73.2523 -37.3879
  100 997.605 63.6404 -79.5782
  101 653.989 10.1094 -33.2916
  102 653.989 10.1094 -33.2916
  103 523.659 -97.6682 -249.027
  104 523.659 -97.6682 -249.027
  105 445.241 -113.194 264.216
  106 445.241 -113.194 264.216
  107 817.238 -60.8423 -98.9982
  108 817.238 -60.8423 -98.9982
  109 619.450 -77.5990 -142.769
  110 619.450 -77.5990 -142.769
  111 1041.47 72.6145 56.0305
  112 1041.47 72.6145 56.0305
  113 83.8612 -267.441 -102.216
  114 83.8612 -267.441 -102.216
  115 48.1670 -318.072 31.1905
  116 48.1670 -318.072 31.1905
  117 566.429 36.0474 -6.92477
  118 566.429 36.0474 -6.92477
  119 678.916 -26.9471 -54.8485
  120 678.916 -26.9471 -54.8485
  121 1100.07 30.2505 -25.0282
  122 1100.07 30.2505 -25.0282
  123 132.045 -258.564 173.015
  124 132.045 -258.564 173.015
  125 616.371 21.1768 30.9341
  126 616.371 21.1768 30.9341
  127 156.317 -208.319 -189.763
  128 156.317 -208.319 -189.763
  129 806.126 -51.8905 140.844
  130 806.126 -51.8905 140.844
  131 1119.28 56.4086 -79.6731
  132 1119.28 56.4086 -79.6731
  133 60.1458 -366.735 -29.1665
  134 60.1458 -366.735 -29.1665
  135 73.0981 -349.014 77.9657
  136 73.0981 -349.014 77.9657
  137 668.365 6.33981 -15.6212
  138 668.365 6.33981 -15.6212
  139 638.510 21.6120 -1.12942
  140 638.510 21.6120 -1.12942
  141 652.332 10.9118 -0.142380
  142 652.332 10.9118 -0.142380
  143 669.581 -13.7277 47.4837
  144 669.581 -13.7277 47.4837
  145 473.383 -11.8749 112.261
  146 672.088 -62.9381 97.0956
  147 471.756 27.7114 2.81891
  148 473.383 -11.8749 112.261
  149 672.088 -62.9381 97.0956
  150 471.756 27.7114 2.81891
  151 608.425 11.0207 -49.5194
  152 608.425 11.0207 -49.5194
  153 1093.21 30.9951 19.7137
  154 1093.21 30.9951 19.7137
  155 1131.45 25.7961 48.0615
  156 1133.83 61.0090 100.653
  157 1131.45 25.7961 48.0615
  158 1133.83 61.0090 100.653
  159 658.675 7.35674 5.06618
  160 658.675 7.35674 5.06618
  161 421.431 -16.7255 -95.9910
  162 421.431 -16.7255 -95.9910
  163 658.701 7.16338 -4.97220
  164 658.701 7.16338 -4.97220
  165 662.336 8.73318 14.0588
  166 662.336 8.73318 14.0588
  167 771.816 -5.72698 14.9256
  168 752.057 -27.7606 -5.26960
  169 771.816 -5.72698 14.9256
  170 752.057 -27.7606 -5.26960
  171 826.330 -18.1621 -3.42247
  172 826.330 -18.1621 -3.42247
  173 638.788 19.7076 16.4229
  174 638.788 19.7076 16.4229
  175 326.533 -32.8092 131.927
  176 326.533 -32.8092 131.927
  177 292.206 -12.7249 -83.2266
  178 292.206 -12.7249 -83.2266
  179 643.897 21.2413 -15.7775
  180 643.897 21.2413 -15.7775
</Section>

newXOutput 199

<Section columns = "stress_xx | stress_yy | stress_xy">
  1 663.182 4.48134 -2.49248
  2 662.649 3.46357 2.23605
  3 663.182 4.48134 -2.49248
  4 662.649 3.46357 2.23605
  5 946.259 47.4109 257.573
  6 936.832 41.0564 -242.111
  7 946.259 47.4109 257.573
  8 936.832 41.0564 -242.111
  9 669.284 1.16771 -8.13500
  10 695.190 0.161258 -13.5763
  11 713.072 -8.37905 -18.8335
  12 750.746 -3.81569 8.18593
  13 753.995 23.5501 6.29637
  14 752.799 -3.64104 -10.7643
  15 719.879 -12.9201 18.9281
  16 687.009 3.01538 15.8704
  17 669.868 4.28273 7.14472
  18 659.519 7.37085 1.23830
  19 656.189 7.44091 -0.0938761
  20 659.228 6.79377 -1.12612
  21 669.284 1.16771 -8.13500
  22 695.190 0.161258 -13.5763
  23 713.072 -8.37905 -18.8335
  24 750.746 -3.81569 8.18593
  25 753.995 23.5501 6.29637
  26 752.799 -3.64104 -10.7643
  27 719.879 -12.9201 18.9281
  28 687.009 3.01538 15.8704
  29 669.868 4.28273 7.14472
  30 659.519 7.37085 1.23830
  31 656.189 7.44091 -0.0938761
  32 659.228 6.79377 -1.12612
  33 1374.36 12.3930 105.381
  34 1207.43 10.4614 67.6535
  35 1163.30 22.6854 26.2210
  36 1130.93 12.8491 -6.59278
  37 1188.27 4.12493 -25.4544
  38 1218.80 23.8460 -60.8286
  39 1270.36 92.2749 -133.439
  40 321.590 -168.048 -300.215
  41 66.8091 -351.371 -132.026
  42 25.6754 -500.935 -43.9453
  43 16.3064 -535.251 -3.86461
  44 20.3764 -506.797 44.0698
  45 60.9920 -424.041 115.900
  46 262.439 -170.166 295.679
  47 1374.36 12.3930 105.381
  48 1207.43 10.4614 67.6535
  49 1163.30 22.6854 26.2210
  50 1130.93 12.8491 -6.59278
  51 1188.27 4.12493 -25.4544
  52 1218.80 23.8460 -60.8286
  53 1270.36 92.2749 -133.439
  54 321.590 -168.048 -300.215
  55 66.8091 -351.371 -132.026
  56 25.6754 -500.935 -43.9453
  57 16.3064 -535.251 -3.86461
  58 20.3764 -506.797 44.0698
  59 60.9920 -424.041 115.900
  60 262.439 -170.166 295.679
  61 617.878 26.0117 -10.9868
  62 617.878 26.0117 -10.9868
  63 574.080 8.61463 60.9718
  64 557.769 3.97980 -74.1829
  65 574.080 8.61463 60.9718
  66 557.769 3.97980 -74.1829
  67 327.813 8.87872 20.9818
  68 327.813 8.87872 20.9818
  69 512.772 -96.7091 208.141
  70 512.772 -96.7091 208.141
  71 317.207 -89.8980 -169.750
  72 764.848 -65.7905 -39.0820
  73 849.620 49.2893 -4.46707
  74 812.568 23.4794 -5.05851
  75 317.207 -89.8980 -169.750
  76 764.848 -65.7905 -39.0820
  77 849.620 49.2893 -4.46707
  78 812.568 23.4794 -5.05851
  79 752.949 -35.3836 19.3542
  80 752.949 -35.3836 19.3542
  81 960.538 71.3159 6.39746
  82 960.538 71.3159 6.39746
  83 171.937 -104.121 -14.8140
  84 171.937 -104.121 -14.8140
  85 219.073 -141.734 149.605
  86 219.073 -141.734 149.605
  87 809.393 -45.8970 32.1745
  88 809.393 -45.8970 32.1745
  89 651.899 14.2012 8.83896
  90 654.422 15.5616 -9.01265
  91 651.899 14.2012 8.83896
  92 654.422 15.5616 -9.01265
  93 923.736 51.7893 39.7148
  94 923.736 51.7893 39.7148
  95 672.529 6.29751 26.9836
  96 672.529 6.29751 26.9836
  97 992.947 73.5891 -37.5804
  98 1002.09 63.9745 -79.9999
  99 992.947 73.5891 -37.5804
  100 1002.09 63.9745 -79.9999
  101 657.056 10.1553 -33.4414
  102 657.056 10.1553 -33.4414
  103 526.042 -98.0634 -250.283
  104 526.042 -98.0634 -250.283
  105 447.276 -113.661 265.558
  106 447.276 -113.661 265.558
  107 820.953 -61.0946 -99.5343
  108 820.953 -61.0946 -99.5343
  109 622.330 -77.9688 -143.465
  110 622.330 -77.9688 -143.465
  111 1046.14 72.9528 56.3052
  112 1046.14 72.9528 56.3052
  113 84.2701 -268.699 -102.775
  114 84.2701 -268.699 -102.775
  115 48.3975 -319.600 31.3674
  116 48.3975 -319.600 31.3674
  117 569.131 36.2188 -6.95551
  118 569.131 36.2188 -6.95551
  119 682.078 -27.0763 -55.1118
  120 682.078 -27.0763 -55.1118
  121 1104.94 30.3792 -25.1383
  122 1104.94 30.3792 -25.1383
  123 132.680 -259.731 173.960
  124 132.680 -259.731 173.960
  125 619.283 21.2754 31.0733
  126 619.283 21.2754 31.0733
  127 157.072 -209.248 -190.779
  128 157.072 -209.248 -190.779
  129 809.787 -52.0992 141.572
  130 809.787 -52.0992 141.572
  131 1124.23 56.6654 -80.0479
  132 1124.23 56.6654 -80.0479
  133 60.4318 -368.516 -29.3271
  134 60.4318 -368.516 -29.3271
  135 73.4482 -350.678 78.4150
  136 73.4482 -350.678 78.4150
  137 671.489 6.36810 -15.6889
  138 671.489 6.36810 -15.6889
  139 641.519 21.7092 -1.13437
  140 641.519 21.7092 -1.13437
  141 655.394 10.9597 -0.142964
  142 655.394 10.9597 -0.142964
  143 672.708 -13.7939 47.7065
  144 672.708 -13.7939 47.7065
  145 475.655 -11.9263 112.795
  146 675.205 -63.2374 97.5720
  147 474.042 27.8496 2.83406
  148 475.655 -11.9263 112.795
  149 675.205 -63.2374 97.5720
  150 474.042 27.8496 2.83406
  151 611.300 11.0727 -49.7448
  152 611.300 11.0727 -49.7448
  153 1098.05 31.1251 19.8047
  154 1098.05 31.1251 19.8047
  155 1136.44 25.9053 48.2746
  156 1138.83 61.3250 101.143
  157 1136.44 25.9053 48.2746
  158 1138.83 61.3250 101.143
  159 661.760 7.38914 5.08680
  160 661.760 7.38914 5.08680
  161 423.472 -16.7988 -96.4506
  162 423.472 -16.7988 -96.4506
  163 661.787 7.19492 -4.99242
  164 661.787 7.19492 -4.99242
  165 665.436 8.77235 14.1180
  166 665.436 8.77235 14.1180
  167 775.402 -5.74762 14.9613
  168 755.535 -27.8938 -5.31627
  169 775.402 -5.74762 14.9613
  170 755.535 -27.8938 -5.31627
  171 830.129 -18.2272 -3.49966
  172 830.129 -18.2272 -3.49966
  173 641.796 19.7971 16.4940
  174 641.796 19.7971 16.4940
  175 328.125 -32.9484 132.576
  176 328.125 -32.9484 132.576
  177 293.650 -12.7615 -83.6344
  178 293.650 -12.7615 -83.6344
  179 646.927 21.3379 -15.8463
  180 646.927 21.3379 -15.8463
</Section>

newXOutput 200

<Section columns = "stress_xx | stress_yy | stress_xy">
  1 666.270 4.50086 -2.50248
  2 665.735 3.47854 2.24497
  3 666.270 4.50086 -2.50248
  4 665.735 3.47854 2.24497
  5 950.377 47.7600 258.829
  6 940.945 41.3779 -243.312
  7 950.377 47.7600 258.829
  8 940.945 41.3779 -243.312
  9 672.394 1.17212 -8.16896
  10 698.402 0.162117 -13.6344
  11 716.365 -8.42002 -18.9239
  12 754.221 -3.83343 8.20565
  13 757.515 23.6645 6.31990
  14 756.284 -3.65665 -10.7916
  15 723.199 -12.9824 19.0200
  16 690.190 3.02859 15.9384
  17 672.981 4.30162 7.17377
  18 662.594 7.40274 1.24325
  19 659.253 7.47295 -0.0942364
  20 662.301 6.82311 -1.13063
  21 672.394 1.17212 -8.16896
  22 698.402 0.162117 -13.6344
  23 716.365 -8.42002 -18.9239
  24 754.221 -3.83343 8.20565
  25 757.515 23.6645 6.31990
  26 756.284 -3.65665 -10.7916
  27 723.199 -12.9824 19.0200
  28 690.190 3.02859 15.9384
  29 672.981 4.30162 7.17377
  30 662.594 7.40274 1.24325
  31 659.253 7.47295 -0.0942364
  32 662.301 6.82311 -1.13063
  33 1380.20 12.4534 105.856
  34 1212.64 10.4943 67.9529
  35 1168.35 22.7812 26.3314
  36 1135.86 12.8978 -6.61878
  37 1193.39 4.14118 -25.5635
  38 1224.06 23.9529 -61.0929
  39 1275.84 92.7340 -134.066
  40 323.033 -168.681 -301.745
  41 67.1243 -352.988 -132.759
  42 25.7906 -503.410 -44.2028
  43 16.3702 -537.927 -3.88253
  44 20.4609 -509.295 44.3262
  45 61.2780 -426.033 116.557
  46 263.621 -170.808 297.195
  47 1380.20 12.4534 105.856
  48 1212.64 10.4943 67.9529
  49 1168.35 22.7812 26.3314
  50 1135.86 12.8978 -6.61878
  51 1193.39 4.14118 -25.5635
  52 1224.06 23.9529 -61.0929
  53 1275.84 92.7340 -134.066
  54 323.033 -168.681 -301.745
  55 67.1243 -352.988 -132.759
  56 25.7906 -503.410 -44.2028
  57 16.3702 -537.927 -3.88253
  58 20.4609 -509.295 44.3262
  59 61.2780 -426.033 116.557
  60 263.621 -170.808 297.195
  61 620.786 26.1313 -11.0356
  62 620.786 26.1313 -11.0356
  63 576.792 8.65718 61.2540
  64 560.407 4.00042 -74.5260
  65 576.792 8.65718 61.2540
  66 560.407 4.00042 -74.5260
  67 329.425 8.93936 21.0830
  68 329.425 8.93936 21.0830
  69 515.151 -97.1711 209.156
  70 515.151 -97.1711 209.156
  71 318.723 -90.3064 -170.600
  72 768.352 -66.0973 -39.3006
  73 853.525 49.5286 -4.51416
  74 816.312 23.5962 -5.05041
  75 318.723 -90.3064 -170.600
  76 768.352 -66.0973 -39.3006
  77 853.525 49.5286 -4.51416
  78 816.312 23.5962 -5.05041
  79 756.413 -35.5490 19.4706
  80 756.413 -35.5490 19.4706
  81 964.882 71.6412 6.43774
  82 964.882 71.6412 6.43774
  83 172.786 -104.580 -14.8909
  84 172.786 -104.580 -14.8909
  85 220.118 -142.378 150.379
  86 220.118 -142.378 150.379
  87 813.088 -46.0978 32.3804
  88 813.088 -46.0978 32.3804
  89 654.946 14.2640 8.87561
  90 657.478 15.6309 -9.05004
  91 654.946 14.2640 8.87561
  92 657.478 15.6309 -9.05004
  93 927.922 52.0553 39.9545
  94 927.922 52.0553 39.9545
  95 675.654 6.32529 27.1026
  96 675.654 6.32529 27.1026
  97 997.422 73.9257 -37.7730
  98 1006.57 64.3086 -80.4217
  99 997.422 73.9257 -37.7730
  100 1006.57 64.3086 -80.4217
  101 660.121 10.2012 -33.5910
  102 660.121 10.2012 -33.5910
  103 528.422 -98.4576 -251.539
  104 528.422 -98.4576 -251.539
  105 449.308 -114.126 266.899
  106 449.308 -114.126 266.899
  107 824.664 -61.3465 -100.071
  108 824.664 -61.3465 -100.071
  109 625.207 -78.3385 -144.160
  110 625.207 -78.3385 -144.160
  111 1050.80 73.2908 56.5797
  112 1050.80 73.2908 56.5797
  113 84.6789 -269.957 -103.334
  114 84.6789 -269.957 -103.334
  115 48.6278 -321.128 31.5444
  116 48.6278 -321.128 31.5444
  117 571.832 36.3901 -6.98622
  118 571.832 36.3901 -6.98622
  119 685.238 -27.2053 -55.3750
  120 685.238 -27.2053 -55.3750
  121 1109.79 30.5077 -25.2482
  122 1109.79 30.5077 -25.2482
  123 133.315 -260.897 174.906
  124 133.315 -260.897 174.906
  125 622.194 21.3738 31.2124
  126 622.194 21.3738 31.2124
  127 157.825 -210.175 -191.795
  128 157.825 -210.175 -191.795
  129 813.444 -52.3075 142.301
  130 813.444 -52.3075 142.301
  131 1129.16 56.9219 -80.4223
  132 1129.16 56.9219 -80.4223
  133 60.7177 -370.297 -29.4878
  134 60.7177 -370.297 -29.4878
  135 73.7982 -352.340 78.8648
  136 73.7982 -352.340 78.8648
  137 674.610 6.39634 -15.7564
  138 674.610 6.39634 -15.7564
  139 644.525 21.8063 -1.13932
  140 644.525 21.8063 -1.13932
  141 658.453 11.0075 -0.143547
  142 658.453 11.0075 -0.143547
  143 675.831 -13.8601 47.9291
  144 675.831 -13.8601 47.9291
  145 477.925 -11.9776 113.329
  146 678.319 -63.5364 98.0481
  147 476.327 27.9877 2.84921
  148 477.925 -11.9776 113.329
  149 678.319 -63.5364 98.0481
  150 476.327 27.9877 2.84921
  151 614.174 11.1248 -49.9699
  152 614.174 11.1248 -49.9699
  153 1102.89 31.2548 19.8956
  154 1102.89 31.2548 19.8956
  155 1141.42 26.0144 48.4875
  156 1143.82 61.6412 101.633
  157 1141.42 26.0144 48.4875
  158 1143.82 61.6412 101.633
  159 664.843 7.42149 5.10739
  160 664.843 7.42149 5.10739
  161 425.512 -16.8720 -96.9099
  162 425.512 -16.8720 -96.9099
  163 664.870 7.22642 -5.01259
  164 664.870 7.22642 -5.01259
  165 668.533 8.81148 14.1771
  166 668.533 8.81148 14.1771
  167 778.984 -5.76819 14.9968
  168 759.009 -28.0270 -5.36311
  169 778.984 -5.76819 14.9968
  170 759.009 -28.0270 -5.36311
  171 833.923 -18.2919 -3.57735
  172 833.923 -18.2919 -3.57735
  173 644.802 19.8866 16.5649
  174 644.802 19.8866 16.5649
  175 329.716 -33.0874 133.224
  176 329.716 -33.0874 133.224
  177 295.092 -12.7979 -84.0420
  178 295.092 -12.7979 -84.0420
  179 649.954 21.4344 -15.9149
  180 649.954 21.4344 -15.9149
</Section>

newXOutput 201

<Section columns = "stress_xx | stress_yy | stress_xy">
  1 669.355 4.52035 -2.51246
  2 668.818 3.49350 2.25387
  3 669.355 4.52035 -2.51246
  4 668.818 3.49350 2.25387
  5 954.490 48.1101 260.085
  6 945.052 41.7005 -244.513
  7 954.490 48.1101 260.085
  8 945.052 41.7005 -244.513
  9 675.502 1.17651 -8.20286
  10 701.611 0.162977 -13.6924
  11 719.655 -8.46097 -19.0144
  12 757.693 -3.85116 8.22519
  13 761.032 23.7788 6.34335
  14 759.767 -3.67222 -10.8186
  15 726.515 -13.0446 19.1118
  16 693.368 3.04178 16.0063
  17 676.091 4.32048 7.20275
  18 665.666 7.43458 1.24818
  19 662.313 7.50494 -0.0945957
  20 665.373 6.85241 -1.13512
  21 675.502 1.17651 -8.20286
  22 701.611 0.162977 -13.6924
  23 719.655 -8.46097 -19.0144
  24 757.693 -3.85116 8.22519
  25 761.032 23.7788 6.34335
  26 759.767 -3.67222 -10.8186
  27 726.515 -13.0446 19.1118
  28 693.368 3.04178 16.0063
  29 676.091 4.32048 7.20275
  30 665.666 7.43458 1.24818
  31 662.313 7.50494 -0.0945957
  32 665.373 6.85241 -1.13512
  33 1386.03 12.5139 106.330
  34 1217.85 10.5270 68.2520
  35 1173.39 22.8769 26.4416
  36 1140.78 12.9463 -6.64471
  37 1198.51 4.15740 -25.6725
  38 1229.32 24.0598 -61.3569
  39 1281.32 93.1929 -134.693
  40 324.474 -169.311 -303.276
  41 67.4393 -354.603 -133.494
  42 25.9057 -505.883 -44.4606
  43 16.4338 -540.602 -3.90044
  44 20.5453 -511.792 44.5831
  45 61.5637 -428.023 117.214
  46 264.802 -171.447 298.711
  47 1386.03 12.5139 106.330
  48 1217.85 10.5270 68.2520
  49 1173.39 22.8769 26.4416
  50 1140.78 12.9463 -6.64471
  51 1198.51 4.15740 -25.6725
  52 1229.32 24.0598 -61.3569
  53 1281.32 93.1929 -134.693
  54 324.474 -169.311 -303.276
  55 67.4393 -354.603 -133.494
  56 25.9057 -505.883 -44.4606
  57 16.4338 -540.602 -3.90044
  58 20.5453 -511.792 44.5831
  59 61.5637 -428.023 117.214
  60 264.802 -171.447 298.711
  61 623.693 26.2508 -11.0844
  62 623.693 26.2508 -11.0844
  63 579.503 8.69971 61.5360
  64 563.043 4.02104 -74.8689
  65 579.503 8.69971 61.5360
  66 563.043 4.02104 -74.8689
  67 331.036 9.00013 21.1842
  68 331.036 9.00013 21.1842
  69 517.528 -97.6329 210.171
  70 517.528 -97.6329 210.171
  71 320.238 -90.7143 -171.450
  72 771.851 -66.4039 -39.5193
  73 857.427 49.7677 -4.56145
  74 820.054 23.7130 -5.04203
  75 320.238 -90.7143 -171.450
  76 771.851 -66.4039 -39.5193
  77 857.427 49.7677 -4.56145
  78 820.054 23.7130 -5.04203
  79 759.873 -35.7142 19.5872
  80 759.873 -35.7142 19.5872
  81 969.221 71.9662 6.47808
  82 969.221 71.9662 6.47808
  83 173.636 -105.040 -14.9677
  84 173.636 -105.040 -14.9677
  85 221.163 -143.022 151.152
  86 221.163 -143.022 151.152
  87 816.779 -46.2982 32.5867
  88 816.779 -46.2982 32.5867
  89 657.989 14.3268 8.91219
  90 660.532 15.7000 -9.08736
  91 657.989 14.3268 8.91219
  92 660.532 15.7000 -9.08736
  93 932.103 52.3212 40.1945
  94 932.103 52.3212 40.1945
  95 678.777 6.35305 27.2215
  96 678.777 6.35305 27.2215
  97 1001.89 74.2619 -37.9655
  98 1011.05 64.6428 -80.8436
  99 1001.89 74.2619 -37.9655
  100 1011.05 64.6428 -80.8436
  101 663.183 10.2470 -33.7405
  102 663.183 10.2470 -33.7405
  103 530.800 -98.8509 -252.795
  104 530.800 -98.8509 -252.795
  105 451.338 -114.591 268.241
  106 451.338 -114.591 268.241
  107 828.371 -61.5978 -100.607
  108 828.371 -61.5978 -100.607
  109 628.082 -78.7079 -144.856
  110 628.082 -78.7079 -144.856
  111 1055.46 73.6285 56.8541
  112 1055.46 73.6285 56.8541
  113 85.0875 -271.214 -103.893
  114 85.0875 -271.214 -103.893
  115 48.8580 -322.655 31.7215
  116 48.8580 -322.655 31.7215
  117 574.531 36.5613 -7.01688
  118 574.531 36.5613 -7.01688
  119 688.395 -27.3343 -55.6381
  120 688.395 -27.3343 -55.6381
  121 1114.64 30.6359 -25.3579
  122 1114.64 30.6359 -25.3579
  123 133.950 -262.061 175.853
  124 133.950 -262.061 175.853
  125 625.103 21.4722 31.3513
  126 625.103 21.4722 31.3513
  127 158.579 -211.100 -192.813
  128 158.579 -211.100 -192.813
  129 817.098 -52.5152 143.029
  130 817.098 -52.5152 143.029
  131 1134.09 57.1781 -80.7965
  132 1134.09 57.1781 -80.7965
  133 61.0034 -372.077 -29.6487
  134 61.0034 -372.077 -29.6487
  135 74.1479 -354.002 79.3152
  136 74.1479 -354.002 79.3152
  137 677.728 6.42455 -15.8238
  138 677.728 6.42455 -15.8238
  139 647.529 21.9032 -1.14426
  140 647.529 21.9032 -1.14426
  141 661.511 11.0553 -0.144128
  142 661.511 11.0553 -0.144128
  143 678.953 -13.9262 48.1515
  144 678.953 -13.9262 48.1515
  145 480.194 -12.0289 113.863
  146 681.431 -63.8353 98.5241
  147 478.611 28.1259 2.86437
  148 480.194 -12.0289 113.863
  149 681.431 -63.8353 98.5241
  150 478.611 28.1259 2.86437
  151 617.045 11.1767 -50.1949
  152 617.045 11.1767 -50.1949
  153 1107.72 31.3843 19.9864
  154 1107.72 31.3843 19.9864
  155 1146.39 26.1233 48.7001
  156 1148.80 61.9573 102.123
  157 1146.39 26.1233 48.7001
  158 1148.80 61.9573 102.123
  159 667.924 7.45380 5.12792
  160 667.924 7.45380 5.12792
  161 427.551 -16.9451 -97.3689
  162 427.551 -16.9451 -97.3689
  163 667.950 7.25787 -5.03273
  164 667.950 7.25787 -5.03273
  165 671.628 8.85055 14.2361
  166 671.628 8.85055 14.2361
  167 782.563 -5.78868 15.0319
  168 762.480 -28.1602 -5.41011
  169 782.563 -5.78868 15.0319
  170 762.480 -28.1602 -5.41011
  171 837.714 -18.3564 -3.65554
  172 837.714 -18.3564 -3.65554
  173 647.805 19.9759 16.6357
  174 647.805 19.9759 16.6357
  175 331.307 -33.2262 133.872
  176 331.307 -33.2262 133.872
  177 296.535 -12.8340 -84.4494
  178 296.535 -12.8340 -84.4494
  179 652.978 21.5308 -15.9834
  180 652.978 21.5308 -15.9834
</Section>

newXOutput 202

<Section columns = "stress_xx | stress_yy | stress_xy">
  1 672.438 4.53981 -2.52241
  2 671.899 3.50843 2.26274
  3 672.438 4.53981 -2.52241
  4 671.899 3.50843 2.26274
  5 958.596 48.4611 261.341
  6 949.153 42.0241 -245.714
  7 958.596 48.4611 261.341
  8 949.153 42.0241 -245.714
  9 678.608 1.18090 -8.23670
  10 704.817 0.163838 -13.7504
  11 722.942 -8.50190 -19.1047
  12 761.163 -3.86887 8.24454
  13 764.546 23.8932 6.36673
  14 763.246 -3.68777 -10.8454
  15 729.829 -13.1069 19.2036
  16 696.543 3.05495 16.0741
  17 679.199 4.33933 7.23168
  18 668.736 7.46637 1.25311
  19 665.371 7.53688 -0.0949540
  20 668.442 6.88166 -1.13961
  21 678.608 1.18090 -8.23670
  22 704.817 0.163838 -13.7504
  23 722.942 -8.50190 -19.1047
  24 761.163 -3.86887 8.24454
  25 764.546 23.8932 6.36673
  26 763.246 -3.68777 -10.8454
  27 729.829 -13.1069 19.2036
  28 696.543 3.05495 16.0741
  29 679.199 4.33933 7.23168
  30 668.736 7.46637 1.25311
  31 665.371 7.53688 -0.0949540
  32 668.442 6.88166 -1.13961
  33 1391.85 12.5743 106.804
  34 1223.05 10.5596 68.5506
  35 1178.43 22.9724 26.5516
  36 1145.70 12.9947 -6.67058
  37 1203.61 4.17358 -25.7813
  38 1234.56 24.1665 -61.6205
  39 1286.79 93.6517 -135.318
  40 325.914 -169.939 -304.807
  41 67.7541 -356.217 -134.229
  42 26.0206 -508.357 -44.7188
  43 16.4972 -543.277 -3.91833
  44 20.6295 -514.289 44.8402
  45 61.8492 -430.012 117.872
  46 265.982 -172.085 300.226
  47 1391.85 12.5743 106.804
  48 1223.05 10.5596 68.5506
  49 1178.43 22.9724 26.5516
  50 1145.70 12.9947 -6.67058
  51 1203.61 4.17358 -25.7813
  52 1234.56 24.1665 -61.6205
  53 1286.79 93.6517 -135.318
  54 325.914 -169.939 -304.807
  55 67.7541 -356.217 -134.229
  56 26.0206 -508.357 -44.7188
  57 16.4972 -543.277 -3.91833
  58 20.6295 -514.289 44.8402
  59 61.8492 -430.012 117.872
  60 265.982 -172.085 300.226
  61 626.597 26.3702 -11.1331
  62 626.597 26.3702 -11.1331
  63 582.211 8.74223 61.8177
  64 565.677 4.04166 -75.2115
  65 582.211 8.74223 61.8177
  66 565.677 4.04166 -75.2115
  67 332.647 9.06103 21.2854
  68 332.647 9.06103 21.2854
  69 519.903 -98.0944 211.185
  70 519.903 -98.0944 211.185
  71 321.753 -91.1219 -172.301
  72 775.348 -66.7102 -39.7382
  73 861.324 50.0068 -4.60893
  74 823.792 23.8297 -5.03337
  75 321.753 -91.1219 -172.301
  76 775.348 -66.7102 -39.7382
  77 861.324 50.0068 -4.60893
  78 823.792 23.8297 -5.03337
  79 763.331 -35.8793 19.7039
  80 763.331 -35.8793 19.7039
  81 973.556 72.2908 6.51848
  82 973.556 72.2908 6.51848
  83 174.485 -105.498 -15.0446
  84 174.485 -105.498 -15.0446
  85 222.208 -143.665 151.926
  86 222.208 -143.665 151.926
  87 820.466 -46.4984 32.7934
  88 820.466 -46.4984 32.7934
  89 661.031 14.3895 8.94870
  90 663.583 15.7691 -9.12461
  91 661.031 14.3895 8.94870
  92 663.583 15.7691 -9.12461
  93 936.280 52.5873 40.4349
  94 936.280 52.5873 40.4349
  95 681.897 6.38076 27.3402
  96 681.897 6.38076 27.3402
  97 1006.36 74.5977 -38.1580
  98 1015.52 64.9771 -81.2655
  99 1006.36 74.5977 -38.1580
  100 1015.52 64.9771 -81.2655
  101 666.243 10.2928 -33.8897
  102 666.243 10.2928 -33.8897
  103 533.175 -99.2433 -254.050
  104 533.175 -99.2433 -254.050
  105 453.367 -115.055 269.582
  106 453.367 -115.055 269.582
  107 832.074 -61.8486 -101.144
  108 832.074 -61.8486 -101.144
  109 630.955 -79.0771 -145.550
  110 630.955 -79.0771 -145.550
  111 1060.12 73.9659 57.1284
  112 1060.12 73.9659 57.1284
  113 85.4959 -272.469 -104.453
  114 85.4959 -272.469 -104.453
  115 49.0880 -324.181 31.8989
  116 49.0880 -324.181 31.8989
  117 577.228 36.7323 -7.04751
  118 577.228 36.7323 -7.04751
  119 691.550 -27.4633 -55.9009
  120 691.550 -27.4633 -55.9009
  121 1119.48 30.7640 -25.4675
  122 1119.48 30.7640 -25.4675
  123 134.584 -263.224 176.801
  124 134.584 -263.224 176.801
  125 628.010 21.5705 31.4900
  126 628.010 21.5705 31.4900
  127 159.332 -212.025 -193.830
  128 159.332 -212.025 -193.830
  129 820.747 -52.7224 143.758
  130 820.747 -52.7224 143.758
  131 1139.02 57.4341 -81.1703
  132 1139.02 57.4341 -81.1703
  133 61.2890 -373.856 -29.8097
  134 61.2890 -373.856 -29.8097
  135 74.4974 -355.663 79.7661
  136 74.4974 -355.663 79.7661
  137 680.844 6.45273 -15.8911
  138 680.844 6.45273 -15.8911
  139 650.531 22.0001 -1.14919
  140 650.531 22.0001 -1.14919
  141 664.566 11.1030 -0.144709
  142 664.566 11.1030 -0.144709
  143 682.071 -13.9923 48.3738
  144 682.071 -13.9923 48.3738
  145 482.462 -12.0801 114.396
  146 684.540 -64.1340 98.9999
  147 480.894 28.2639 2.87954
  148 482.462 -12.0801 114.396
  149 684.540 -64.1340 98.9999
  150 480.894 28.2639 2.87954
  151 619.915 11.2287 -50.4195
  152 619.915 11.2287 -50.4195
  153 1112.54 31.5136 20.0772
  154 1112.54 31.5136 20.0772
  155 1151.36 26.2320 48.9123
  156 1153.78 62.2735 102.612
  157 1151.36 26.2320 48.9123
  158 1153.78 62.2735 102.612
  159 671.002 7.48606 5.14841
  160 671.002 7.48606 5.14841
  161 429.589 -17.0180 -97.8276
  162 429.589 -17.0180 -97.8276
  163 671.028 7.28928 -5.05281
  164 671.028 7.28928 -5.05281
  165 674.720 8.88959 14.2950
  166 674.720 8.88959 14.2950
  167 786.139 -5.80908 15.0666
  168 765.948 -28.2932 -5.45727
  169 786.139 -5.80908 15.0666
  170 765.948 -28.2932 -5.45727
  171 841.501 -18.4207 -3.73423
  172 841.501 -18.4207 -3.73423
  173 650.806 20.0652 16.7064
  174 650.806 20.0652 16.7064
  175 332.896 -33.3647 134.519
  176 332.896 -33.3647 134.519
  177 297.977 -12.8699 -84.8567
  178 297.977 -12.8699 -84.8567
  179 656.001 21.6271 -16.0519
  180 656.001 21.6271 -16.0519
</Section>

newXOutput 203

<Section columns = "stress_xx | stress_yy | stress_xy">
  1 675.518 4.55925 -2.53235
  2 674.977 3.52334 2.27160
  3 675.518 4.55925 -2.53235
  4 674.977 3.52334 2.27160
  5 962.696 48.8131 262.596
  6 953.249 42.3486 -246.914
  7 962.696 48.8131 262.596
  8 953.249 42.3486 -246.914
  9 681.711 1.18527 -8.27048
  10 708.021 0.164699 -13.8082
  11 726.226 -8.54283 -19.1951
  12 764.629 -3.88657 8.26372
  13 768.058 24.0074 6.39004
  14 766.723 -3.70330 -10.8720
  15 733.140 -13.1691 19.2954
  16 699.715 3.06810 16.1418
  17 682.304 4.35814 7.26054
  18 671.804 7.49811 1.25802
  19 668.427 7.56877 -0.0953114
  20 671.508 6.91087 -1.14409
  21 681.711 1.18527 -8.27048
  22 708.021 0.164699 -13.8082
  23 726.226 -8.54283 -19.1951
  24 764.629 -3.88657 8.26372
  25 768.058 24.0074 6.39004
  26 766.723 -3.70330 -10.8720
  27 733.140 -13.1691 19.2954
  28 699.715 3.06810 16.1418
  29 682.304 4.35814 7.26054
  30 671.804 7.49811 1.25802
  31 668.427 7.56877 -0.0953114
  32 671.508 6.91087 -1.14409
  33 1397.67 12.6347 107.277
  34 1228.25 10.5919 68.8488
  35 1183.45 23.0678 26.6615
  36 1150.60 13.0430 -6.69639
  37 1208.71 4.18973 -25.8899
  38 1239.80 24.2731 -61.8836
  39 1292.25 94.1105 -135.944
  40 327.352 -170.565 -306.337
  41 68.0687 -357.829 -134.965
  42 26.1354 -510.829 -44.9774
  43 16.5605 -545.952 -3.93620
  44 20.7135 -516.785 45.0977
  45 62.1344 -432.000 118.531
  46 267.160 -172.721 301.742
  47 1397.67 12.6347 107.277
  48 1228.25 10.5919 68.8488
  49 1183.45 23.0678 26.6615
  50 1150.60 13.0430 -6.69639
  51 1208.71 4.18973 -25.8899
  52 1239.80 24.2731 -61.8836
  53 1292.25 94.1105 -135.944
  54 327.352 -170.565 -306.337
  55 68.0687 -357.829 -134.965
  56 26.1354 -510.829 -44.9774
  57 16.5605 -545.952 -3.93620
  58 20.7135 -516.785 45.0977
  59 62.1344 -432.000 118.531
  60 267.160 -172.721 301.742
  61 629.500 26.4895 -11.1817
  62 629.500 26.4895 -11.1817
  63 584.918 8.78475 62.0992
  64 568.310 4.06228 -75.5538
  65 584.918 8.78475 62.0992
  66 568.310 4.06228 -75.5538
  67 334.258 9.12206 21.3865
  68 334.258 9.12206 21.3865
  69 522.276 -98.5557 212.199
  70 522.276 -98.5557 212.199
  71 323.266 -91.5290 -173.151
  72 778.841 -67.0163 -39.9573
  73 865.219 50.2458 -4.65662
  74 827.527 23.9465 -5.02442
  75 323.266 -91.5290 -173.151
  76 778.841 -67.0163 -39.9573
  77 865.219 50.2458 -4.65662
  78 827.527 23.9465 -5.02442
  79 766.785 -36.0443 19.8208
  80 766.785 -36.0443 19.8208
  81 977.885 72.6152 6.55893
  82 977.885 72.6152 6.55893
  83 175.334 -105.956 -15.1216
  84 175.334 -105.956 -15.1216
  85 223.252 -144.307 152.700
  86 223.252 -144.307 152.700
  87 824.150 -46.6982 33.0004
  88 824.150 -46.6982 33.0004
  89 664.070 14.4522 8.98514
  90 666.632 15.8380 -9.16179
  91 664.070 14.4522 8.98514
  92 666.632 15.8380 -9.16179
  93 940.452 52.8533 40.6755
  94 940.452 52.8533 40.6755
  95 685.015 6.40844 27.4587
  96 685.015 6.40844 27.4587
  97 1010.82 74.9333 -38.3505
  98 1019.99 65.3115 -81.6875
  99 1010.82 74.9333 -38.3505
  100 1019.99 65.3115 -81.6875
  101 669.301 10.3385 -34.0388
  102 669.301 10.3385 -34.0388
  103 535.548 -99.6347 -255.306
  104 535.548 -99.6347 -255.306
  105 455.393 -115.518 270.924
  106 455.393 -115.518 270.924
  107 835.773 -62.0989 -101.681
  108 835.773 -62.0989 -101.681
  109 633.825 -79.4460 -146.245
  110 633.825 -79.4460 -146.245
  111 1064.77 74.3031 57.4025
  112 1064.77 74.3031 57.4025
  113 85.9042 -273.724 -105.013
  114 85.9042 -273.724 -105.013
  115 49.3180 -325.706 32.0764
  116 49.3180 -325.706 32.0764
  117 579.924 36.9032 -7.07809
  118 579.924 36.9032 -7.07809
  119 694.702 -27.5922 -56.1637
  120 694.702 -27.5922 -56.1637
  121 1124.32 30.8918 -25.5769
  122 1124.32 30.8918 -25.5769
  123 135.217 -264.386 177.749
  124 135.217 -264.386 177.749
  125 630.915 21.6687 31.6285
  126 630.915 21.6687 31.6285
  127 160.085 -212.948 -194.848
  128 160.085 -212.948 -194.848
  129 824.392 -52.9292 144.486
  130 824.392 -52.9292 144.486
  131 1143.94 57.6897 -81.5438
  132 1143.94 57.6897 -81.5438
  133 61.5743 -375.635 -29.9708
  134 61.5743 -375.635 -29.9708
  135 74.8468 -357.322 80.2174
  136 74.8468 -357.322 80.2174
  137 683.958 6.48087 -15.9583
  138 683.958 6.48087 -15.9583
  139 653.530 22.0968 -1.15411
  140 653.530 22.0968 -1.15411
  141 667.619 11.1507 -0.145288
  142 667.619 11.1507 -0.145288
  143 685.187 -14.0584 48.5958
  144 685.187 -14.0584 48.5958
  145 484.729 -12.1313 114.929
  146 687.646 -64.4326 99.4755
  147 483.176 28.4020 2.89471
  148 484.729 -12.1313 114.929
  149 687.646 -64.4326 99.4755
  150 483.176 28.4020 2.89471
  151 622.782 11.2806 -50.6440
  152 622.782 11.2806 -50.6440
  153 1117.36 31.6426 20.1678
  154 1117.36 31.6426 20.1678
  155 1156.32 26.3405 49.1243
  156 1158.75 62.5897 103.101
  157 1156.32 26.3405 49.1243
  158 1158.75 62.5897 103.101
  159 674.078 7.51828 5.16886
  160 674.078 7.51828 5.16886
  161 431.627 -17.0909 -98.2861
  162 431.627 -17.0909 -98.2861
  163 674.104 7.32065 -5.07286
  164 674.104 7.32065 -5.07286
  165 677.810 8.92857 14.3538
  166 677.810 8.92857 14.3538
  167 789.712 -5.82941 15.1010
  168 769.412 -28.4262 -5.50459
  169 789.712 -5.82941 15.1010
  170 769.412 -28.4262 -5.50459
  171 845.284 -18.4847 -3.81343
  172 845.284 -18.4847 -3.81343
  173 653.806 20.1544 16.7770
  174 653.806 20.1544 16.7770
  175 334.485 -33.5030 135.166
  176 334.485 -33.5030 135.166
  177 299.418 -12.9055 -85.2638
  178 299.418 -12.9055 -85.2638
  179 659.021 21.7233 -16.1202
  180 659.021 21.7233 -16.1202
</Section>

newXOutput 204

<Section columns = "stress_xx | stress_yy | stress_xy">
  1 678.596 4.57865 -2.54226
  2 678.053 3.53823 2.28043
  3 678.596 4.57865 -2.54226
  4 678.053 3.53823 2.28043
  5 966.790 49.1661 263.850
  6 957.339 42.6742 -248.114
  7 966.790 49.1661 263.850
  8 957.339 42.6742 -248.114
  9 684.811 1.18962 -8.30419
  10 711.222 0.165561 -13.8660
  11 729.508 -8.58374 -19.2853
  12 768.092 -3.90425 8.28271
  13 771.566 24.1216 6.41327
  14 770.196 -3.71879 -10.8984
  15 736.448 -13.2313 19.3871
  16 702.885 3.08124 16.2094
  17 685.406 4.37694 7.28934
  18 674.869 7.52980 1.26292
  19 671.481 7.60061 -0.0956678
  20 674.572 6.94004 -1.14855
  21 684.811 1.18962 -8.30419
  22 711.222 0.165561 -13.8660
  23 729.508 -8.58374 -19.2853
  24 768.092 -3.90425 8.28271
  25 771.566 24.1216 6.41327
  26 770.196 -3.71879 -10.8984
  27 736.448 -13.2313 19.3871
  28 702.885 3.08124 16.2094
  29 685.406 4.37694 7.28934
  30 674.869 7.52980 1.26292
  31 671.481 7.60061 -0.0956678
  32 674.572 6.94004 -1.14855
  33 1403.47 12.6951 107.750
  34 1233.43 10.6241 69.1467
  35 1188.47 23.1630 26.7711
  36 1155.51 13.0911 -6.72213
  37 1213.79 4.20584 -25.9984
  38 1245.03 24.3796 -62.1464
  39 1297.70 94.5691 -136.569
  40 328.788 -171.189 -307.868
  41 68.3830 -359.439 -135.701
  42 26.2501 -513.301 -45.2363
  43 16.6235 -548.626 -3.95406
  44 20.7973 -519.280 45.3555
  45 62.4195 -433.986 119.190
  46 268.337 -173.354 303.258
  47 1403.47 12.6951 107.750
  48 1233.43 10.6241 69.1467
  49 1188.47 23.1630 26.7711
  50 1155.51 13.0911 -6.72213
  51 1213.79 4.20584 -25.9984
  52 1245.03 24.3796 -62.1464
  53 1297.70 94.5691 -136.569
  54 328.788 -171.189 -307.868
  55 68.3830 -359.439 -135.701
  56 26.2501 -513.301 -45.2363
  57 16.6235 -548.626 -3.95406
  58 20.7973 -519.280 45.3555
  59 62.4195 -433.986 119.190
  60 268.337 -173.354 303.258
  61 632.400 26.6086 -11.2303
  62 632.400 26.6086 -11.2303
  63 587.622 8.82725 62.3804
  64 570.941 4.08290 -75.8958
  65 587.622 8.82725 62.3804
  66 570.941 4.08290 -75.8958
  67 335.868 9.18323 21.4876
  68 335.868 9.18323 21.4876
  69 524.647 -99.0167 213.212
  70 524.647 -99.0167 213.212
  71 324.779 -91.9357 -174.001
  72 782.331 -67.3221 -40.1765
  73 869.109 50.4847 -4.70450
  74 831.258 24.0632 -5.01519
  75 324.779 -91.9357 -174.001
  76 782.331 -67.3221 -40.1765
  77 869.109 50.4847 -4.70450
  78 831.258 24.0632 -5.01519
  79 770.237 -36.2092 19.9379
  80 770.237 -36.2092 19.9379
  81 982.210 72.9392 6.59944
  82 982.210 72.9392 6.59944
  83 176.182 -106.414 -15.1985
  84 176.182 -106.414 -15.1985
  85 224.295 -144.949 153.473
  86 224.295 -144.949 153.473
  87 827.830 -46.8978 33.2077
  88 827.830 -46.8978 33.2077
  89 667.107 14.5147 9.02151
  90 669.679 15.9069 -9.19889
  91 667.107 14.5147 9.02151
  92 669.679 15.9069 -9.19889
  93 944.620 53.1194 40.9163
  94 944.620 53.1194 40.9163
  95 688.130 6.43608 27.5771
  96 688.130 6.43608 27.5771
  97 1015.27 75.2686 -38.5429
  98 1024.45 65.6459 -82.1096
  99 1015.27 75.2686 -38.5429
  100 1024.45 65.6459 -82.1096
  101 672.356 10.3842 -34.1877
  102 672.356 10.3842 -34.1877
  103 537.918 -100.025 -256.561
  104 537.918 -100.025 -256.561
  105 457.417 -115.979 272.265
  106 457.417 -115.979 272.265
  107 839.468 -62.3486 -102.218
  108 839.468 -62.3486 -102.218
  109 636.693 -79.8148 -146.939
  110 636.693 -79.8148 -146.939
  111 1069.41 74.6400 57.6765
  112 1069.41 74.6400 57.6765
  113 86.3122 -274.978 -105.574
  114 86.3122 -274.978 -105.574
  115 49.5478 -327.230 32.2541
  116 49.5478 -327.230 32.2541
  117 582.618 37.0741 -7.10863
  118 582.618 37.0741 -7.10863
  119 697.851 -27.7210 -56.4263
  120 697.851 -27.7210 -56.4263
  121 1129.15 31.0194 -25.6861
  122 1129.15 31.0194 -25.6861
  123 135.851 -265.546 178.697
  124 135.851 -265.546 178.697
  125 633.817 21.7668 31.7669
  126 633.817 21.7668 31.7669
  127 160.837 -213.870 -195.866
  128 160.837 -213.870 -195.866
  129 828.034 -53.1355 145.215
  130 828.034 -53.1355 145.215
  131 1148.85 57.9451 -81.9170
  132 1148.85 57.9451 -81.9170
  133 61.8595 -377.412 -30.1320
  134 61.8595 -377.412 -30.1320
  135 75.1959 -358.981 80.6693
  136 75.1959 -358.981 80.6693
  137 687.069 6.50897 -16.0254
  138 687.069 6.50897 -16.0254
  139 656.528 22.1934 -1.15902
  140 656.528 22.1934 -1.15902
  141 670.669 11.1982 -0.145866
  142 670.669 11.1982 -0.145866
  143 688.301 -14.1244 48.8177
  144 688.301 -14.1244 48.8177
  145 486.995 -12.1823 115.461
  146 690.750 -64.7309 99.9510
  147 485.457 28.5400 2.90989
  148 486.995 -12.1823 115.461
  149 690.750 -64.7309 99.9510
  150 485.457 28.5400 2.90989
  151 625.647 11.3324 -50.8682
  152 625.647 11.3324 -50.8682
  153 1122.17 31.7714 20.2583
  154 1122.17 31.7714 20.2583
  155 1161.27 26.4488 49.3360
  156 1163.71 62.9060 103.590
  157 1161.27 26.4488 49.3360
  158 1163.71 62.9060 103.590
  159 677.151 7.55046 5.18926
  160 677.151 7.55046 5.18926
  161 433.663 -17.1637 -98.7443
  162 433.663 -17.1637 -98.7443
  163 677.177 7.35197 -5.09286
  164 677.177 7.35197 -5.09286
  165 680.897 8.96751 14.4125
  166 680.897 8.96751 14.4125
  167 793.281 -5.84965 15.1351
  168 772.874 -28.5592 -5.55208
  169 793.281 -5.84965 15.1351
  170 772.874 -28.5592 -5.55208
  171 849.064 -18.5484 -3.89313
  172 849.064 -18.5484 -3.89313
  173 656.802 20.2434 16.8475
  174 656.802 20.2434 16.8475
  175 336.074 -33.6410 135.814
  176 336.074 -33.6410 135.814
  177 300.860 -12.9409 -85.6708
  178 300.860 -12.9409 -85.6708
  179 662.039 21.8194 -16.1884
  180 662.039 21.8194 -16.1884
</Section>

newXOutput 205

<Section columns = "stress_xx | stress_yy | stress_xy">
  1 681.672 4.59803 -2.55214
  2 681.126 3.55310 2.28925
  3 681.672 4.59803 -2.55214
  4 681.126 3.55310 2.28925
  5 970.878 49.5200 265.104
  6 961.423 43.0008 -249.313
  7 970.878 49.5200 265.104
  8 961.423 43.0008 -249.313
  9 687.909 1.19397 -8.33784
  10 714.420 0.166423 -13.9236
  11 732.787 -8.62464 -19.3756
  12 771.552 -3.92191 8.30152
  13 775.072 24.2358 6.43644
  14 773.666 -3.73426 -10.9245
  15 739.752 -13.2934 19.4787
  16 706.052 3.09435 16.2768
  17 688.506 4.39570 7.31808
  18 677.932 7.56145 1.26781
  19 674.532 7.63240 -0.0960232
  20 677.634 6.96916 -1.15301
  21 687.909 1.19397 -8.33784
  22 714.420 0.166423 -13.9236
  23 732.787 -8.62464 -19.3756
  24 771.552 -3.92191 8.30152
  25 775.072 24.2358 6.43644
  26 773.666 -3.73426 -10.9245
  27 739.752 -13.2934 19.4787
  28 706.052 3.09435 16.2768
  29 688.506 4.39570 7.31808
  30 677.932 7.56145 1.26781
  31 674.532 7.63240 -0.0960232
  32 677.634 6.96916 -1.15301
  33 1409.26 12.7555 108.222
  34 1238.61 10.6562 69.4441
  35 1193.48 23.2581 26.8805
  36 1160.40 13.1391 -6.74782
  37 1218.87 4.22191 -26.1066
  38 1250.25 24.4859 -62.4088
  39 1303.15 95.0276 -137.193
  40 330.222 -171.811 -309.399
  41 68.6970 -361.048 -136.438
  42 26.3646 -515.773 -45.4955
  43 16.6865 -551.301 -3.97190
  44 20.8810 -521.775 45.6137
  45 62.7043 -435.970 119.850
  46 269.512 -173.986 304.774
  47 1409.26 12.7555 108.222
  48 1238.61 10.6562 69.4441
  49 1193.48 23.2581 26.8805
  50 1160.40 13.1391 -6.74782
  51 1218.87 4.22191 -26.1066
  52 1250.25 24.4859 -62.4088
  53 1303.15 95.0276 -137.193
  54 330.222 -171.811 -309.399
  55 68.6970 -361.048 -136.438
  56 26.3646 -515.773 -45.4955
  57 16.6865 -551.301 -3.97190
  58 20.8810 -521.775 45.6137
  59 62.7043 -435.970 119.850
  60 269.512 -173.986 304.774
  61 635.298 26.7277 -11.2788
  62 635.298 26.7277 -11.2788
  63 590.326 8.86974 62.6614
  64 573.570 4.10353 -76.2375
  65 590.326 8.86974 62.6614
  66 573.570 4.10353 -76.2375
  67 337.478 9.24452 21.5886
  68 337.478 9.24452 21.5886
  69 527.016 -99.4775 214.225
  70 527.016 -99.4775 214.225
  71 326.291 -92.3421 -174.851
  72 785.818 -67.6277 -40.3959
  73 872.997 50.7235 -4.75258
  74 834.986 24.1800 -5.00569
  75 326.291 -92.3421 -174.851
  76 785.818 -67.6277 -40.3959
  77 872.997 50.7235 -4.75258
  78 834.986 24.1800 -5.00569
  79 773.685 -36.3739 20.0550
  80 773.685 -36.3739 20.0550
  81 986.530 73.2630 6.64000
  82 986.530 73.2630 6.64000
  83 177.031 -106.870 -15.2755
  84 177.031 -106.870 -15.2755
  85 225.338 -145.590 154.248
  86 225.338 -145.590 154.248
  87 831.507 -47.0971 33.4154
  88 831.507 -47.0971 33.4154
  89 670.142 14.5772 9.05781
  90 672.723 15.9757 -9.23593
  91 670.142 14.5772 9.05781
  92 672.723 15.9757 -9.23593
  93 948.783 53.3855 41.1575
  94 948.783 53.3855 41.1575
  95 691.243 6.46369 27.6953
  96 691.243 6.46369 27.6953
  97 1019.72 75.6035 -38.7354
  98 1028.91 65.9805 -82.5317
  99 1019.72 75.6035 -38.7354
  100 1028.91 65.9805 -82.5317
  101 675.409 10.4298 -34.3364
  102 675.409 10.4298 -34.3364
  103 540.285 -100.415 -257.816
  104 540.285 -100.415 -257.816
  105 459.438 -116.440 273.606
  106 459.438 -116.440 273.606
  107 843.160 -62.5979 -102.756
  108 843.160 -62.5979 -102.756
  109 639.558 -80.1833 -147.633
  110 639.558 -80.1833 -147.633
  111 1074.05 74.9767 57.9503
  112 1074.05 74.9767 57.9503
  113 86.7202 -276.231 -106.135
  114 86.7202 -276.231 -106.135
  115 49.7775 -328.753 32.4320
  116 49.7775 -328.753 32.4320
  117 585.310 37.2448 -7.13914
  118 585.310 37.2448 -7.13914
  119 700.998 -27.8497 -56.6887
  120 700.998 -27.8497 -56.6887
  121 1133.98 31.1468 -25.7952
  122 1133.98 31.1468 -25.7952
  123 136.484 -266.705 179.647
  124 136.484 -266.705 179.647
  125 636.718 21.8648 31.9052
  126 636.718 21.8648 31.9052
  127 161.589 -214.791 -196.885
  128 161.589 -214.791 -196.885
  129 831.671 -53.3412 145.944
  130 831.671 -53.3412 145.944
  131 1153.75 58.2003 -82.2898
  132 1153.75 58.2003 -82.2898
  133 62.1445 -379.189 -30.2933
  134 62.1445 -379.189 -30.2933
  135 75.5448 -360.638 81.1217
  136 75.5448 -360.638 81.1217
  137 690.177 6.53704 -16.0924
  138 690.177 6.53704 -16.0924
  139 659.523 22.2900 -1.16393
  140 659.523 22.2900 -1.16393
  141 673.717 11.2458 -0.146443
  142 673.717 11.2458 -0.146443
  143 691.412 -14.1904 49.0394
  144 691.412 -14.1904 49.0394
  145 489.259 -12.2333 115.993
  146 693.850 -65.0290 100.426
  147 487.737 28.6780 2.92508
  148 489.259 -12.2333 115.993
  149 693.850 -65.0290 100.426
  150 487.737 28.6780 2.92508
  151 628.510 11.3842 -51.0921
  152 628.510 11.3842 -51.0921
  153 1126.98 31.9000 20.3487
  154 1126.98 31.9000 20.3487
  155 1166.22 26.5570 49.5474
  156 1168.67 63.2222 104.079
  157 1166.22 26.5570 49.5474
  158 1168.67 63.2222 104.079
  159 680.222 7.58259 5.20962
  160 680.222 7.58259 5.20962
  161 435.698 -17.2364 -99.2022
  162 435.698 -17.2364 -99.2022
  163 680.248 7.38325 -5.11282
  164 680.248 7.38325 -5.11282
  165 683.982 9.00640 14.4711
  166 683.982 9.00640 14.4711
  167 796.848 -5.86982 15.1688
  168 776.332 -28.6920 -5.59973
  169 796.848 -5.86982 15.1688
  170 776.332 -28.6920 -5.59973
  171 852.840 -18.6119 -3.97332
  172 852.840 -18.6119 -3.97332
  173 659.797 20.3324 16.9179
  174 659.797 20.3324 16.9179
  175 337.662 -33.7788 136.460
  176 337.662 -33.7788 136.460
  177 302.300 -12.9760 -86.0776
  178 302.300 -12.9760 -86.0776
  179 665.055 21.9154 -16.2565
  180 665.055 21.9154 -16.2565
</Section>

newXOutput 206

<Section columns = "stress_xx | stress_yy | stress_xy">
  1 684.745 4.61738 -2.56201
  2 684.197 3.56794 2.29804
  3 684.745 4.61738 -2.56201
  4 684.197 3.56794 2.29804
  5 974.961 49.8748 266.357
  6 965.502 43.3284 -250.512
  7 974.961 49.8748 266.357
  8 965.502 43.3284 -250.512
  9 691.004 1.19830 -8.37143
  10 717.616 0.167286 -13.9812
  11 736.062 -8.66552 -19.4658
  12 775.010 -3.93957 8.32014
  13 778.576 24.3500 6.45953
  14 777.134 -3.74970 -10.9504
  15 743.054 -13.3556 19.5703
  16 709.217 3.10745 16.3442
  17 691.604 4.41445 7.34676
  18 680.993 7.59305 1.27269
  19 677.581 7.66414 -0.0963777
  20 680.694 6.99823 -1.15746
  21 691.004 1.19830 -8.37143
  22 717.616 0.167286 -13.9812
  23 736.062 -8.66552 -19.4658
  24 775.010 -3.93957 8.32014
  25 778.576 24.3500 6.45953
  26 777.134 -3.74970 -10.9504
  27 743.054 -13.3556 19.5703
  28 709.217 3.10745 16.3442
  29 691.604 4.41445 7.34676
  30 680.993 7.59305 1.27269
  31 677.581 7.66414 -0.0963777
  32 680.694 6.99823 -1.15746
  33 1415.05 12.8158 108.693
  34 1243.78 10.6881 69.7412
  35 1198.49 23.3530 26.9898
  36 1165.29 13.1870 -6.77344
  37 1223.95 4.23795 -26.2147
  38 1255.46 24.5922 -62.6707
  39 1308.58 95.4861 -137.817
  40 331.655 -172.431 -310.929
  41 69.0109 -362.655 -137.175
  42 26.4790 -518.244 -45.7551
  43 16.7492 -553.974 -3.98972
  44 20.9645 -524.269 45.8722
  45 62.9888 -437.953 120.511
  46 270.686 -174.615 306.290
  47 1415.05 12.8158 108.693
  48 1243.78 10.6881 69.7412
  49 1198.49 23.3530 26.9898
  50 1165.29 13.1870 -6.77344
  51 1223.95 4.23795 -26.2147
  52 1255.46 24.5922 -62.6707
  53 1308.58 95.4861 -137.817
  54 331.655 -172.431 -310.929
  55 69.0109 -362.655 -137.175
  56 26.4790 -518.244 -45.7551
  57 16.7492 -553.974 -3.98972
  58 20.9645 -524.269 45.8722
  59 62.9888 -437.953 120.511
  60 270.686 -174.615 306.290
  61 638.195 26.8467 -11.3272
  62 638.195 26.8467 -11.3272
  63 593.027 8.91221 62.9421
  64 576.198 4.12415 -76.5789
  65 593.027 8.91221 62.9421
  66 576.198 4.12415 -76.5789
  67 339.087 9.30594 21.6896
  68 339.087 9.30594 21.6896
  69 529.383 -99.9381 215.238
  70 529.383 -99.9381 215.238
  71 327.801 -92.7480 -175.701
  72 789.301 -67.9331 -40.6154
  73 876.880 50.9622 -4.80086
  74 838.711 24.2967 -4.99590
  75 327.801 -92.7480 -175.701
  76 789.301 -67.9331 -40.6154
  77 876.880 50.9622 -4.80086
  78 838.711 24.2967 -4.99590
  79 777.130 -36.5386 20.1724
  80 777.130 -36.5386 20.1724
  81 990.846 73.5864 6.68061
  82 990.846 73.5864 6.68061
  83 177.879 -107.327 -15.3524
  84 177.879 -107.327 -15.3524
  85 226.380 -146.230 155.022
  86 226.380 -146.230 155.022
  87 835.180 -47.2961 33.6235
  88 835.180 -47.2961 33.6235
  89 673.174 14.6396 9.09404
  90 675.765 16.0445 -9.27289
  91 673.174 14.6396 9.09404
  92 675.765 16.0445 -9.27289
  93 952.943 53.6516 41.3990
  94 952.943 53.6516 41.3990
  95 694.353 6.49126 27.8134
  96 694.353 6.49126 27.8134
  97 1024.17 75.9382 -38.9278
  98 1033.36 66.3151 -82.9539
  99 1024.17 75.9382 -38.9278
  100 1033.36 66.3151 -82.9539
  101 678.459 10.4754 -34.4849
  102 678.459 10.4754 -34.4849
  103 542.650 -100.803 -259.071
  104 542.650 -100.803 -259.071
  105 461.458 -116.900 274.947
  106 461.458 -116.900 274.947
  107 846.847 -62.8466 -103.293
  108 846.847 -62.8466 -103.293
  109 642.420 -80.5516 -148.327
  110 642.420 -80.5516 -148.327
  111 1078.68 75.3130 58.2241
  112 1078.68 75.3130 58.2241
  113 87.1279 -277.483 -106.696
  114 87.1279 -277.483 -106.696
  115 50.0071 -330.276 32.6101
  116 50.0071 -330.276 32.6101
  117 588.001 37.4154 -7.16960
  118 588.001 37.4154 -7.16960
  119 704.142 -27.9783 -56.9510
  120 704.142 -27.9783 -56.9510
  121 1138.79 31.2740 -25.9042
  122 1138.79 31.2740 -25.9042
  123 137.116 -267.862 180.596
  124 137.116 -267.862 180.596
  125 639.616 21.9627 32.0432
  126 639.616 21.9627 32.0432
  127 162.340 -215.710 -197.905
  128 162.340 -215.710 -197.905
  129 835.305 -53.5465 146.672
  130 835.305 -53.5465 146.672
  131 1158.65 58.4551 -82.6624
  132 1158.65 58.4551 -82.6624
  133 62.4293 -380.965 -30.4548
  134 62.4293 -380.965 -30.4548
  135 75.8935 -362.294 81.5746
  136 75.8935 -362.294 81.5746
  137 693.283 6.56508 -16.1593
  138 693.283 6.56508 -16.1593
  139 662.516 22.3863 -1.16883
  140 662.516 22.3863 -1.16883
  141 676.763 11.2932 -0.147018
  142 676.763 11.2932 -0.147018
  143 694.520 -14.2564 49.2610
  144 694.520 -14.2564 49.2610
  145 491.522 -12.2842 116.525
  146 696.949 -65.3270 100.901
  147 490.016 28.8160 2.94027
  148 491.522 -12.2842 116.525
  149 696.949 -65.3270 100.901
  150 490.016 28.8160 2.94027
  151 631.372 11.4360 -51.3159
  152 631.372 11.4360 -51.3159
  153 1131.78 32.0283 20.4391
  154 1131.78 32.0283 20.4391
  155 1171.16 26.6650 49.7585
  156 1173.62 63.5386 104.567
  157 1171.16 26.6650 49.7585
  158 1173.62 63.5386 104.567
  159 683.290 7.61467 5.22993
  160 683.290 7.61467 5.22993
  161 437.732 -17.3089 -99.6598
  162 437.732 -17.3089 -99.6598
  163 683.317 7.41448 -5.13273
  164 683.317 7.41448 -5.13273
  165 687.064 9.04524 14.5295
  166 687.064 9.04524 14.5295
  167 800.411 -5.88990 15.2021
  168 779.787 -28.8248 -5.64753
  169 800.411 -5.88990 15.2021
  170 779.787 -28.8248 -5.64753
  171 856.612 -18.6752 -4.05402
  172 856.612 -18.6752 -4.05402
  173 662.790 20.4213 16.9881
  174 662.790 20.4213 16.9881
  175 339.249 -33.9163 137.107
  176 339.249 -33.9163 137.107
  177 303.741 -13.0109 -86.4843
  178 303.741 -13.0109 -86.4843
  179 668.068 22.0113 -16.3246
  180 668.068 22.0113 -16.3246
</Section>

newXOutput 207

<Section columns = "stress_xx | stress_yy | stress_xy">
  1 687.815 4.63671 -2.57185
  2 687.266 3.58277 2.30681
  3 687.815 4.63671 -2.57185
  4 687.266 3.58277 2.30681
  5 979.037 50.2306 267.609
  6 969.576 43.6570 -251.711
  7 979.037 50.2306 267.609
  8 969.576 43.6570 -251.711
  9 694.097 1.20261 -8.40496
  10 720.808 0.168149 -14.0387
  11 739.335 -8.70640 -19.5559
  12 778.464 -3.95720 8.33859
  13 782.076 24.4641 6.48255
  14 780.599 -3.76512 -10.9760
  15 746.354 -13.4177 19.6619
  16 712.379 3.12053 16.4114
  17 694.699 4.43317 7.37538
  18 684.051 7.62460 1.27756
  19 680.628 7.69583 -0.0967312
  20 683.751 7.02727 -1.16189
  21 694.097 1.20261 -8.40496
  22 720.808 0.168149 -14.0387
  23 739.335 -8.70640 -19.5559
  24 778.464 -3.95720 8.33859
  25 782.076 24.4641 6.48255
  26 780.599 -3.76512 -10.9760
  27 746.354 -13.4177 19.6619
  28 712.379 3.12053 16.4114
  29 694.699 4.43317 7.37538
  30 684.051 7.62460 1.27756
  31 680.628 7.69583 -0.0967312
  32 683.751 7.02727 -1.16189
  33 1420.82 12.8762 109.164
  34 1248.95 10.7198 70.0378
  35 1203.49 23.4478 27.0988
  36 1170.17 13.2348 -6.79899
  37 1229.01 4.25395 -26.3226
  38 1260.66 24.6983 -62.9323
  39 1314.01 95.9444 -138.440
  40 333.086 -173.049 -312.460
  41 69.3244 -364.261 -137.913
  42 26.5933 -520.714 -46.0151
  43 16.8118 -556.648 -4.00753
  44 21.0478 -526.762 46.1310
  45 63.2731 -439.934 121.173
  46 271.859 -175.243 307.806
  47 1420.82 12.8762 109.164
  48 1248.95 10.7198 70.0378
  49 1203.49 23.4478 27.0988
  50 1170.17 13.2348 -6.79899
  51 1229.01 4.25395 -26.3226
  52 1260.66 24.6983 -62.9323
  53 1314.01 95.9444 -138.440
  54 333.086 -173.049 -312.460
  55 69.3244 -364.261 -137.913
  56 26.5933 -520.714 -46.0151
  57 16.8118 -556.648 -4.00753
  58 21.0478 -526.762 46.1310
  59 63.2731 -439.934 121.173
  60 271.859 -175.243 307.806
  61 641.089 26.9655 -11.3756
  62 641.089 26.9655 -11.3756
  63 595.726 8.95468 63.2226
  64 578.824 4.14478 -76.9200
  65 595.726 8.95468 63.2226
  66 578.824 4.14478 -76.9200
  67 340.696 9.36749 21.7906
  68 340.696 9.36749 21.7906
  69 531.748 -100.398 216.251
  70 531.748 -100.398 216.251
  71 329.312 -93.1535 -176.551
  72 792.781 -68.2382 -40.8351
  73 880.760 51.2008 -4.84933
  74 842.432 24.4134 -4.98584
  75 329.312 -93.1535 -176.551
  76 792.781 -68.2382 -40.8351
  77 880.760 51.2008 -4.84933
  78 842.432 24.4134 -4.98584
  79 780.572 -36.7030 20.2898
  80 780.572 -36.7030 20.2898
  81 995.157 73.9095 6.72128
  82 995.157 73.9095 6.72128
  83 178.728 -107.782 -15.4294
  84 178.728 -107.782 -15.4294
  85 227.422 -146.870 155.796
  86 227.422 -146.870 155.796
  87 838.849 -47.4948 33.8319
  88 838.849 -47.4948 33.8319
  89 676.204 14.7019 9.13021
  90 678.805 16.1131 -9.30978
  91 676.204 14.7019 9.13021
  92 678.805 16.1131 -9.30978
  93 957.097 53.9178 41.6407
  94 957.097 53.9178 41.6407
  95 697.461 6.51879 27.9313
  96 697.461 6.51879 27.9313
  97 1028.61 76.2725 -39.1202
  98 1037.80 66.6498 -83.3762
  99 1028.61 76.2725 -39.1202
  100 1037.80 66.6498 -83.3762
  101 681.507 10.5209 -34.6333
  102 681.507 10.5209 -34.6333
  103 545.012 -101.191 -260.325
  104 545.012 -101.191 -260.325
  105 463.476 -117.359 276.287
  106 463.476 -117.359 276.287
  107 850.530 -63.0947 -103.831
  108 850.530 -63.0947 -103.831
  109 645.281 -80.9197 -149.020
  110 645.281 -80.9197 -149.020
  111 1083.31 75.6491 58.4976
  112 1083.31 75.6491 58.4976
  113 87.5355 -278.733 -107.258
  114 87.5355 -278.733 -107.258
  115 50.2365 -331.797 32.7883
  116 50.2365 -331.797 32.7883
  117 590.689 37.5859 -7.20002
  118 590.689 37.5859 -7.20002
  119 707.283 -28.1069 -57.2131
  120 707.283 -28.1069 -57.2131
  121 1143.61 31.4010 -26.0129
  122 1143.61 31.4010 -26.0129
  123 137.748 -269.018 181.547
  124 137.748 -269.018 181.547
  125 642.513 22.0606 32.1811
  126 642.513 22.0606 32.1811
  127 163.091 -216.628 -198.924
  128 163.091 -216.628 -198.924
  129 838.934 -53.7513 147.401
  130 838.934 -53.7513 147.401
  131 1163.54 58.7097 -83.0346
  132 1163.54 58.7097 -83.0346
  133 62.7140 -382.740 -30.6163
  134 62.7140 -382.740 -30.6163
  135 76.2420 -363.949 82.0280
  136 76.2420 -363.949 82.0280
  137 696.386 6.59308 -16.2260
  138 696.386 6.59308 -16.2260
  139 665.507 22.4826 -1.17373
  140 665.507 22.4826 -1.17373
  141 679.806 11.3406 -0.147593
  142 679.806 11.3406 -0.147593
  143 697.626 -14.3223 49.4823
  144 697.626 -14.3223 49.4823
  145 493.783 -12.3350 117.057
  146 700.044 -65.6247 101.376
  147 492.293 28.9540 2.95547
  148 493.783 -12.3350 117.057
  149 700.044 -65.6247 101.376
  150 492.293 28.9540 2.95547
  151 634.231 11.4878 -51.5393
  152 634.231 11.4878 -51.5393
  153 1136.57 32.1565 20.5293
  154 1136.57 32.1565 20.5293
  155 1176.09 26.7728 49.9694
  156 1178.56 63.8549 105.055
  157 1176.09 26.7728 49.9694
  158 1178.56 63.8549 105.055
  159 686.356 7.64671 5.25020
  160 686.356 7.64671 5.25020
  161 439.766 -17.3814 -100.117
  162 439.766 -17.3814 -100.117
  163 686.383 7.44568 -5.15260
  164 686.383 7.44568 -5.15260
  165 690.144 9.08404 14.5879
  166 690.144 9.08404 14.5879
  167 803.972 -5.90990 15.2352
  168 783.239 -28.9575 -5.69550
  169 803.972 -5.90990 15.2352
  170 783.239 -28.9575 -5.69550
  171 860.381 -18.7381 -4.13521
  172 860.381 -18.7381 -4.13521
  173 665.780 20.5100 17.0583
  174 665.780 20.5100 17.0583
  175 340.836 -34.0537 137.753
  176 340.836 -34.0537 137.753
  177 305.181 -13.0456 -86.8908
  178 305.181 -13.0456 -86.8908
  179 671.079 22.1071 -16.3925
  180 671.079 22.1071 -16.3925
</Section>

newXOutput 208

<Section columns = "stress_xx | stress_yy | stress_xy">
  1 690.884 4.65600 -2.58167
  2 690.332 3.59757 2.31557
  3 690.884 4.65600 -2.58167
  4 690.332 3.59757 2.31557
  5 983.107 50.5874 268.861
  6 973.643 43.9865 -252.909
  7 983.107 50.5874 268.861
  8 973.643 43.9865 -252.909
  9 697.188 1.20692 -8.43842
  10 723.998 0.169013 -14.0961
  11 742.605 -8.74725 -19.6460
  12 781.916 -3.97482 8.35686
  13 785.574 24.5781 6.50549
  14 784.060 -3.78051 -11.0015
  15 749.650 -13.4798 19.7535
  16 715.538 3.13360 16.4786
  17 697.792 4.45186 7.40394
  18 687.107 7.65610 1.28242
  19 683.672 7.72748 -0.0970837
  20 686.805 7.05625 -1.16632
  21 697.188 1.20692 -8.43842
  22 723.998 0.169013 -14.0961
  23 742.605 -8.74725 -19.6460
  24 781.916 -3.97482 8.35686
  25 785.574 24.5781 6.50549
  26 784.060 -3.78051 -11.0015
  27 749.650 -13.4798 19.7535
  28 715.538 3.13360 16.4786
  29 697.792 4.45186 7.40394
  30 687.107 7.65610 1.28242
  31 683.672 7.72748 -0.0970837
  32 686.805 7.05625 -1.16632
  33 1426.59 12.9365 109.634
  34 1254.10 10.7514 70.3341
  35 1208.48 23.5424 27.2077
  36 1175.05 13.2824 -6.82449
  37 1234.07 4.26992 -26.4304
  38 1265.86 24.8043 -63.1935
  39 1319.43 96.4026 -139.062
  40 334.515 -173.665 -313.990
  41 69.6378 -365.865 -138.652
  42 26.7074 -523.184 -46.2754
  43 16.8742 -559.321 -4.02532
  44 21.1310 -529.255 46.3902
  45 63.5572 -441.914 121.835
  46 273.030 -175.868 309.322
  47 1426.59 12.9365 109.634
  48 1254.10 10.7514 70.3341
  49 1208.48 23.5424 27.2077
  50 1175.05 13.2824 -6.82449
  51 1234.07 4.26992 -26.4304
  52 1265.86 24.8043 -63.1935
  53 1319.43 96.4026 -139.062
  54 334.515 -173.665 -313.990
  55 69.6378 -365.865 -138.652
  56 26.7074 -523.184 -46.2754
  57 16.8742 -559.321 -4.02532
  58 21.1310 -529.255 46.3902
  59 63.5572 -441.914 121.835
  60 273.030 -175.868 309.322
  61 643.982 27.0843 -11.4239
  62 643.982 27.0843 -11.4239
  63 598.424 8.99713 63.5029
  64 581.448 4.16541 -77.2608
  65 598.424 8.99713 63.5029
  66 581.448 4.16541 -77.2608
  67 342.304 9.42917 21.8914
  68 342.304 9.42917 21.8914
  69 534.111 -100.858 217.263
  70 534.111 -100.858 217.263
  71 330.821 -93.5586 -177.401
  72 796.258 -68.5431 -41.0550
  73 884.636 51.4393 -4.89799
  74 846.150 24.5300 -4.97549
  75 330.821 -93.5586 -177.401
  76 796.258 -68.5431 -41.0550
  77 884.636 51.4393 -4.89799
  78 846.150 24.5300 -4.97549
  79 784.011 -36.8674 20.4074
  80 784.011 -36.8674 20.4074
  81 999.464 74.2324 6.76200
  82 999.464 74.2324 6.76200
  83 179.576 -108.237 -15.5064
  84 179.576 -108.237 -15.5064
  85 228.463 -147.509 156.570
  86 228.463 -147.509 156.570
  87 842.515 -47.6933 34.0407
  88 842.515 -47.6933 34.0407
  89 679.232 14.7642 9.16630
  90 681.842 16.1817 -9.34660
  91 679.232 14.7642 9.16630
  92 681.842 16.1817 -9.34660
  93 961.248 54.1840 41.8827
  94 961.248 54.1840 41.8827
  95 700.566 6.54629 28.0490
  96 700.566 6.54629 28.0490
  97 1033.04 76.6065 -39.3126
  98 1042.24 66.9846 -83.7985
  99 1033.04 76.6065 -39.3126
  100 1042.24 66.9846 -83.7985
  101 684.553 10.5664 -34.7815
  102 684.553 10.5664 -34.7815
  103 547.372 -101.578 -261.580
  104 547.372 -101.578 -261.580
  105 465.491 -117.817 277.628
  106 465.491 -117.817 277.628
  107 854.209 -63.3424 -104.370
  108 854.209 -63.3424 -104.370
  109 648.138 -81.2875 -149.713
  110 648.138 -81.2875 -149.713
  111 1087.93 75.9849 58.7710
  112 1087.93 75.9849 58.7710
  113 87.9429 -279.983 -107.820
  114 87.9429 -279.983 -107.820
  115 50.4659 -333.318 32.9668
  116 50.4659 -333.318 32.9668
  117 593.377 37.7563 -7.23040
  118 593.377 37.7563 -7.23040
  119 710.422 -28.2354 -57.4751
  120 710.422 -28.2354 -57.4751
  121 1148.41 31.5277 -26.1216
  122 1148.41 31.5277 -26.1216
  123 138.380 -270.173 182.498
  124 138.380 -270.173 182.498
  125 645.407 22.1584 32.3189
  126 645.407 22.1584 32.3189
  127 163.841 -217.545 -199.944
  128 163.841 -217.545 -199.944
  129 842.560 -53.9556 148.130
  130 842.560 -53.9556 148.130
  131 1168.42 58.9640 -83.4065
  132 1168.42 58.9640 -83.4065
  133 62.9985 -384.515 -30.7780
  134 62.9985 -384.515 -30.7780
  135 76.5903 -365.603 82.4819
  136 76.5903 -365.603 82.4819
  137 699.487 6.62104 -16.2927
  138 699.487 6.62104 -16.2927
  139 668.495 22.5788 -1.17862
  140 668.495 22.5788 -1.17862
  141 682.847 11.3879 -0.148166
  142 682.847 11.3879 -0.148166
  143 700.730 -14.3882 49.7035
  144 700.730 -14.3882 49.7035
  145 496.044 -12.3858 117.588
  146 703.136 -65.9223 101.851
  147 494.570 29.0919 2.97067
  148 496.044 -12.3858 117.588
  149 703.136 -65.9223 101.851
  150 494.570 29.0919 2.97067
  151 637.088 11.5395 -51.7626
  152 637.088 11.5395 -51.7626
  153 1141.36 32.2844 20.6195
  154 1141.36 32.2844 20.6195
  155 1181.02 26.8804 50.1799
  156 1183.49 64.1713 105.543
  157 1181.02 26.8804 50.1799
  158 1183.49 64.1713 105.543
  159 689.420 7.67871 5.27043
  160 689.420 7.67871 5.27043
  161 441.798 -17.4538 -100.574
  162 441.798 -17.4538 -100.574
  163 689.446 7.47683 -5.17243
  164 689.446 7.47683 -5.17243
  165 693.222 9.12279 14.6461
  166 693.222 9.12279 14.6461
  167 807.529 -5.92983 15.2679
  168 786.688 -29.0901 -5.74363
  169 807.529 -5.92983 15.2679
  170 786.688 -29.0901 -5.74363
  171 864.146 -18.8008 -4.21689
  172 864.146 -18.8008 -4.21689
  173 668.768 20.5987 17.1283
  174 668.768 20.5987 17.1283
  175 342.421 -34.1908 138.400
  176 342.421 -34.1908 138.400
  177 306.620 -13.0800 -87.2971
  178 306.620 -13.0800 -87.2971
  179 674.088 22.2028 -16.4603
  180 674.088 22.2028 -16.4603
</Section>

newXOutput 209

<Section columns = "stress_xx | stress_yy | stress_xy">
  1 693.949 4.67527 -2.59147
  2 693.396 3.61235 2.32430
  3 693.949 4.67527 -2.59147
  4 693.396 3.61235 2.32430
  5 987.172 50.9451 270.113
  6 977.706 44.3171 -254.107
  7 987.172 50.9451 270.113
  8 977.706 44.3171 -254.107
  9 700.275 1.21121 -8.47183
  10 727.185 0.169878 -14.1534
  11 745.873 -8.78810 -19.7360
  12 785.364 -3.99243 8.37494
  13 789.069 24.6922 6.52837
  14 787.519 -3.79587 -11.0267
  15 752.943 -13.5418 19.8450
  16 718.694 3.14664 16.5456
  17 700.882 4.47053 7.43243
  18 690.160 7.68756 1.28726
  19 686.714 7.75907 -0.0974353
  20 689.858 7.08520 -1.17073
  21 700.275 1.21121 -8.47183
  22 727.185 0.169878 -14.1534
  23 745.873 -8.78810 -19.7360
  24 785.364 -3.99243 8.37494
  25 789.069 24.6922 6.52837
  26 787.519 -3.79587 -11.0267
  27 752.943 -13.5418 19.8450
  28 718.694 3.14664 16.5456
  29 700.882 4.47053 7.43243
  30 690.160 7.68756 1.28726
  31 686.714 7.75907 -0.0974353
  32 689.858 7.08520 -1.17073
  33 1432.34 12.9968 110.104
  34 1259.25 10.7828 70.6300
  35 1213.46 23.6368 27.3163
  36 1179.92 13.3299 -6.84992
  37 1239.12 4.28585 -26.5379
  38 1271.05 24.9102 -63.4543
  39 1324.84 96.8607 -139.684
  40 335.942 -174.279 -315.521
  41 69.9509 -367.468 -139.392
  42 26.8215 -525.653 -46.5361
  43 16.9365 -561.994 -4.04310
  44 21.2140 -531.747 46.6497
  45 63.8411 -443.892 122.497
  46 274.200 -176.491 310.838
  47 1432.34 12.9968 110.104
  48 1259.25 10.7828 70.6300
  49 1213.46 23.6368 27.3163
  50 1179.92 13.3299 -6.84992
  51 1239.12 4.28585 -26.5379
  52 1271.05 24.9102 -63.4543
  53 1324.84 96.8607 -139.684
  54 335.942 -174.279 -315.521
  55 69.9509 -367.468 -139.392
  56 26.8215 -525.653 -46.5361
  57 16.9365 -561.994 -4.04310
  58 21.2140 -531.747 46.6497
  59 63.8411 -443.892 122.497
  60 274.200 -176.491 310.838
  61 646.872 27.2029 -11.4722
  62 646.872 27.2029 -11.4722
  63 601.120 9.03958 63.7829
  64 584.071 4.18604 -77.6013
  65 601.120 9.03958 63.7829
  66 584.071 4.18604 -77.6013
  67 343.912 9.49098 21.9923
  68 343.912 9.49098 21.9923
  69 536.473 -101.318 218.274
  70 536.473 -101.318 218.274
  71 332.329 -93.9633 -178.250
  72 799.731 -68.8478 -41.2750
  73 888.509 51.6778 -4.94685
  74 849.864 24.6467 -4.96487
  75 332.329 -93.9633 -178.250
  76 799.731 -68.8478 -41.2750
  77 888.509 51.6778 -4.94685
  78 849.864 24.6467 -4.96487
  79 787.446 -37.0317 20.5252
  80 787.446 -37.0317 20.5252
  81 1003.77 74.5549 6.80277
  82 1003.77 74.5549 6.80277
  83 180.423 -108.691 -15.5834
  84 180.423 -108.691 -15.5834
  85 229.503 -148.147 157.345
  86 229.503 -148.147 157.345
  87 846.177 -47.8914 34.2498
  88 846.177 -47.8914 34.2498
  89 682.257 14.8263 9.20232
  90 684.877 16.2501 -9.38335
  91 682.257 14.8263 9.20232
  92 684.877 16.2501 -9.38335
  93 965.394 54.4502 42.1250
  94 965.394 54.4502 42.1250
  95 703.669 6.57375 28.1666
  96 703.669 6.57375 28.1666
  97 1037.47 76.9402 -39.5050
  98 1046.68 67.3194 -84.2209
  99 1037.47 76.9402 -39.5050
  100 1046.68 67.3194 -84.2209
  101 687.596 10.6118 -34.9295
  102 687.596 10.6118 -34.9295
  103 549.729 -101.964 -262.834
  104 549.729 -101.964 -262.834
  105 467.504 -118.273 278.969
  106 467.504 -118.273 278.969
  107 857.885 -63.5895 -104.908
  108 857.885 -63.5895 -104.908
  109 650.994 -81.6551 -150.406
  110 650.994 -81.6551 -150.406
  111 1092.54 76.3205 59.0443
  112 1092.54 76.3205 59.0443
  113 88.3502 -281.232 -108.382
  114 88.3502 -281.232 -108.382
  115 50.6951 -334.838 33.1454
  116 50.6951 -334.838 33.1454
  117 596.062 37.9265 -7.26075
  118 596.062 37.9265 -7.26075
  119 713.558 -28.3639 -57.7369
  120 713.558 -28.3639 -57.7369
  121 1153.21 31.6543 -26.2300
  122 1153.21 31.6543 -26.2300
  123 139.012 -271.326 183.449
  124 139.012 -271.326 183.449
  125 648.300 22.2561 32.4564
  126 648.300 22.2561 32.4564
  127 164.591 -218.461 -200.965
  128 164.591 -218.461 -200.965
  129 846.182 -54.1593 148.859
  130 846.182 -54.1593 148.859
  131 1173.30 59.2181 -83.7781
  132 1173.30 59.2181 -83.7781
  133 63.2828 -386.288 -30.9398
  134 63.2828 -386.288 -30.9398
  135 76.9384 -367.256 82.9364
  136 76.9384 -367.256 82.9364
  137 702.586 6.64897 -16.3593
  138 702.586 6.64897 -16.3593
  139 671.482 22.6748 -1.18350
  140 671.482 22.6748 -1.18350
  141 685.886 11.4351 -0.148738
  142 685.886 11.4351 -0.148738
  143 703.830 -14.4541 49.9245
  144 703.830 -14.4541 49.9245
  145 498.303 -12.4365 118.119
  146 706.226 -66.2197 102.326
  147 496.845 29.2297 2.98589
  148 498.303 -12.4365 118.119
  149 706.226 -66.2197 102.326
  150 496.845 29.2297 2.98589
  151 639.943 11.5912 -51.9856
  152 639.943 11.5912 -51.9856
  153 1146.14 32.4120 20.7096
  154 1146.14 32.4120 20.7096
  155 1185.94 26.9878 50.3902
  156 1188.42 64.4878 106.030
  157 1185.94 26.9878 50.3902
  158 1188.42 64.4878 106.030
  159 692.481 7.71066 5.29061
  160 692.481 7.71066 5.29061
  161 443.830 -17.5261 -101.031
  162 443.830 -17.5261 -101.031
  163 692.508 7.50793 -5.19221
  164 692.508 7.50793 -5.19221
  165 696.297 9.16150 14.7043
  166 696.297 9.16150 14.7043
  167 811.083 -5.94967 15.3002
  168 790.134 -29.2227 -5.79192
  169 811.083 -5.94967 15.3002
  170 790.134 -29.2227 -5.79192
  171 867.907 -18.8633 -4.29907
  172 867.907 -18.8633 -4.29907
  173 671.754 20.6873 17.1983
  174 671.754 20.6873 17.1983
  175 344.007 -34.3276 139.046
  176 344.007 -34.3276 139.046
  177 308.060 -13.1142 -87.7033
  178 308.060 -13.1142 -87.7033
  179 677.095 22.2984 -16.5280
  180 677.095 22.2984 -16.5280
</Section>

newXOutput 210

<Section columns = "stress_xx | stress_yy | stress_xy">
  1 697.013 4.69451 -2.60125
  2 696.457 3.62710 2.33301
  3 697.013 4.69451 -2.60125
  4 696.457 3.62710 2.33301
  5 991.231 51.3037 271.364
  6 981.762 44.6487 -255.305
  7 991.231 51.3037 271.364
  8 981.762 44.6487 -255.305
  9 703.361 1.21549 -8.50517
  10 730.370 0.170743 -14.2106
  11 749.137 -8.82893 -19.8260
  12 788.810 -4.01002 8.39285
  13 792.562 24.8061 6.55117
  14 790.975 -3.81120 -11.0517
  15 756.233 -13.6038 19.9364
  16 721.848 3.15967 16.6125
  17 703.969 4.48918 7.46087
  18 693.211 7.71897 1.29210
  19 689.753 7.79062 -0.0977859
  20 692.908 7.11410 -1.17514
  21 703.361 1.21549 -8.50517
  22 730.370 0.170743 -14.2106
  23 749.137 -8.82893 -19.8260
  24 788.810 -4.01002 8.39285
  25 792.562 24.8061 6.55117
  26 790.975 -3.81120 -11.0517
  27 756.233 -13.6038 19.9364
  28 721.848 3.15967 16.6125
  29 703.969 4.48918 7.46087
  30 693.211 7.71897 1.29210
  31 689.753 7.79062 -0.0977859
  32 692.908 7.11410 -1.17514
  33 1438.09 13.0570 110.573
  34 1264.39 10.8140 70.9255
  35 1218.44 23.7311 27.4248
  36 1184.78 13.3773 -6.87529
  37 1244.17 4.30175 -26.6453
  38 1276.23 25.0160 -63.7147
  39 1330.24 97.3188 -140.306
  40 337.368 -174.891 -317.051
  41 70.2638 -369.069 -140.131
  42 26.9353 -528.121 -46.7971
  43 16.9986 -564.667 -4.06086
  44 21.2968 -534.238 46.9096
  45 64.1247 -445.869 123.161
  46 275.369 -177.113 312.354
  47 1438.09 13.0570 110.573
  48 1264.39 10.8140 70.9255
  49 1218.44 23.7311 27.4248
  50 1184.78 13.3773 -6.87529
  51 1244.17 4.30175 -26.6453
  52 1276.23 25.0160 -63.7147
  53 1330.24 97.3188 -140.306
  54 337.368 -174.891 -317.051
  55 70.2638 -369.069 -140.131
  56 26.9353 -528.121 -46.7971
  57 16.9986 -564.667 -4.06086
  58 21.2968 -534.238 46.9096
  59 64.1247 -445.869 123.161
  60 275.369 -177.113 312.354
  61 649.760 27.3214 -11.5204
  62 649.760 27.3214 -11.5204
  63 603.814 9.08201 64.0627
  64 586.692 4.20668 -77.9415
  65 603.814 9.08201 64.0627
  66 586.692 4.20668 -77.9415
  67 345.519 9.55291 22.0931
  68 345.519 9.55291 22.0931
  69 538.832 -101.778 219.286
  70 538.832 -101.778 219.286
  71 333.837 -94.3675 -179.100
  72 803.201 -69.1522 -41.4952
  73 892.378 51.9162 -4.99590
  74 853.576 24.7633 -4.95398
  75 333.837 -94.3675 -179.100
  76 803.201 -69.1522 -41.4952
  77 892.378 51.9162 -4.99590
  78 853.576 24.7633 -4.95398
  79 790.879 -37.1958 20.6431
  80 790.879 -37.1958 20.6431
  81 1008.06 74.8771 6.84360
  82 1008.06 74.8771 6.84360
  83 181.271 -109.145 -15.6605
  84 181.271 -109.145 -15.6605
  85 230.543 -148.785 158.120
  86 230.543 -148.785 158.120
  87 849.836 -48.0893 34.4592
  88 849.836 -48.0893 34.4592
  89 685.280 14.8884 9.23827
  90 687.910 16.3185 -9.42003
  91 685.280 14.8884 9.23827
  92 687.910 16.3185 -9.42003
  93 969.535 54.7165 42.3676
  94 969.535 54.7165 42.3676
  95 706.769 6.60118 28.2840
  96 706.769 6.60118 28.2840
  97 1041.90 77.2736 -39.6973
  98 1051.11 67.6544 -84.6433
  99 1041.90 77.2736 -39.6973
  100 1051.11 67.6544 -84.6433
  101 690.637 10.6572 -35.0773
  102 690.637 10.6572 -35.0773
  103 552.083 -102.349 -264.088
  104 552.083 -102.349 -264.088
  105 469.516 -118.729 280.309
  106 469.516 -118.729 280.309
  107 861.556 -63.8361 -105.447
  108 861.556 -63.8361 -105.447
  109 653.847 -82.0225 -151.099
  110 653.847 -82.0225 -151.099
  111 1097.15 76.6557 59.3175
  112 1097.15 76.6557 59.3175
  113 88.7573 -282.480 -108.945
  114 88.7573 -282.480 -108.945
  115 50.9242 -336.357 33.3241
  116 50.9242 -336.357 33.3241
  117 598.746 38.0967 -7.29105
  118 598.746 38.0967 -7.29105
  119 716.691 -28.4923 -57.9985
  120 716.691 -28.4923 -57.9985
  121 1158.00 31.7807 -26.3383
  122 1158.00 31.7807 -26.3383
  123 139.643 -272.477 184.402
  124 139.643 -272.477 184.402
  125 651.190 22.3537 32.5938
  126 651.190 22.3537 32.5938
  127 165.341 -219.376 -201.986
  128 165.341 -219.376 -201.986
  129 849.799 -54.3626 149.587
  130 849.799 -54.3626 149.587
  131 1178.17 59.4719 -84.1494
  132 1178.17 59.4719 -84.1494
  133 63.5669 -388.061 -31.1018
  134 63.5669 -388.061 -31.1018
  135 77.2863 -368.908 83.3913
  136 77.2863 -368.908 83.3913
  137 705.681 6.67687 -16.4258
  138 705.681 6.67687 -16.4258
  139 674.466 22.7708 -1.18837
  140 674.466 22.7708 -1.18837
  141 688.922 11.4823 -0.149309
  142 688.922 11.4823 -0.149309
  143 706.929 -14.5199 50.1454
  144 706.929 -14.5199 50.1454
  145 500.561 -12.4871 118.649
  146 709.313 -66.5169 102.800
  147 499.120 29.3676 3.00110
  148 500.561 -12.4871 118.649
  149 709.313 -66.5169 102.800
  150 499.120 29.3676 3.00110
  151 642.797 11.6428 -52.2083
  152 642.797 11.6428 -52.2083
  153 1150.91 32.5395 20.7995
  154 1150.91 32.5395 20.7995
  155 1190.85 27.0951 50.6001
  156 1193.35 64.8043 106.518
  157 1190.85 27.0951 50.6001
  158 1193.35 64.8043 106.518
  159 695.540 7.74257 5.31075
  160 695.540 7.74257 5.31075
  161 445.860 -17.5982 -101.488
  162 445.860 -17.5982 -101.488
  163 695.566 7.53900 -5.21195
  164 695.566 7.53900 -5.21195
  165 699.369 9.20016 14.7623
  166 699.369 9.20016 14.7623
  167 814.634 -5.96943 15.3322
  168 793.576 -29.3552 -5.84037
  169 814.634 -5.96943 15.3322
  170 793.576 -29.3552 -5.84037
  171 871.665 -18.9255 -4.38174
  172 871.665 -18.9255 -4.38174
  173 674.737 20.7758 17.2681
  174 674.737 20.7758 17.2681
  175 345.591 -34.4642 139.691
  176 345.591 -34.4642 139.691
  177 309.498 -13.1481 -88.1093
  178 309.498 -13.1481 -88.1093
  179 680.099 22.3938 -16.5956
  180 680.099 22.3938 -16.5956
</Section>

newXOutput 211

<Section columns = "stress_xx | stress_yy | stress_xy">
  1 700.074 4.71373 -2.61100
  2 699.516 3.64184 2.34170
  3 700.074 4.71373 -2.61100
  4 699.516 3.64184 2.34170
  5 995.284 51.6633 272.614
  6 985.813 44.9813 -256.502
  7 995.284 51.6633 272.614
  8 985.813 44.9813 -256.502
  9 706.444 1.21976 -8.53845
  10 733.552 0.171609 -14.2677
  11 752.399 -8.86975 -19.9159
  12 792.252 -4.02760 8.41058
  13 796.052 24.9201 6.57390
  14 794.427 -3.82651 -11.0764
  15 759.521 -13.6658 20.0278
  16 724.999 3.17268 16.6793
  17 707.054 4.50780 7.48925
  18 696.260 7.75033 1.29692
  19 692.790 7.82212 -0.0981355
  20 695.955 7.14296 -1.17953
  21 706.444 1.21976 -8.53845
  22 733.552 0.171609 -14.2677
  23 752.399 -8.86975 -19.9159
  24 792.252 -4.02760 8.41058
  25 796.052 24.9201 6.57390
  26 794.427 -3.82651 -11.0764
  27 759.521 -13.6658 20.0278
  28 724.999 3.17268 16.6793
  29 707.054 4.50780 7.48925
  30 696.260 7.75033 1.29692
  31 692.790 7.82212 -0.0981355
  32 695.955 7.14296 -1.17953
  33 1443.83 13.1173 111.042
  34 1269.52 10.8451 71.2206
  35 1223.40 23.8253 27.5331
  36 1189.63 13.4245 -6.90060
  37 1249.20 4.31761 -26.7525
  38 1281.41 25.1217 -63.9747
  39 1335.64 97.7767 -140.927
  40 338.792 -175.501 -318.582
  41 70.5764 -370.668 -140.872
  42 27.0491 -530.589 -47.0584
  43 17.0605 -567.339 -4.07860
  44 21.3794 -536.729 47.1698
  45 64.4081 -447.844 123.825
  46 276.536 -177.732 313.871
  47 1443.83 13.1173 111.042
  48 1269.52 10.8451 71.2206
  49 1223.40 23.8253 27.5331
  50 1189.63 13.4245 -6.90060
  51 1249.20 4.31761 -26.7525
  52 1281.41 25.1217 -63.9747
  53 1335.64 97.7767 -140.927
  54 338.792 -175.501 -318.582
  55 70.5764 -370.668 -140.872
  56 27.0491 -530.589 -47.0584
  57 17.0605 -567.339 -4.07860
  58 21.3794 -536.729 47.1698
  59 64.4081 -447.844 123.825
  60 276.536 -177.732 313.871
  61 652.647 27.4398 -11.5685
  62 652.647 27.4398 -11.5685
  63 606.507 9.12443 64.3422
  64 589.311 4.22731 -78.2814
  65 606.507 9.12443 64.3422
  66 589.311 4.22731 -78.2814
  67 347.127 9.61498 22.1938
  68 347.127 9.61498 22.1938
  69 541.189 -102.237 220.297
  70 541.189 -102.237 220.297
  71 335.344 -94.7714 -179.949
  72 806.668 -69.4564 -41.7156
  73 896.244 52.1544 -5.04514
  74 857.284 24.8800 -4.94280
  75 335.344 -94.7714 -179.949
  76 806.668 -69.4564 -41.7156
  77 896.244 52.1544 -5.04514
  78 857.284 24.8800 -4.94280
  79 794.308 -37.3598 20.7611
  80 794.308 -37.3598 20.7611
  81 1012.35 75.1990 6.88448
  82 1012.35 75.1990 6.88448
  83 182.119 -109.598 -15.7375
  84 182.119 -109.598 -15.7375
  85 231.583 -149.422 158.894
  86 231.583 -149.422 158.894
  87 853.491 -48.2868 34.6690
  88 853.491 -48.2868 34.6690
  89 688.301 14.9504 9.27415
  90 690.940 16.3868 -9.45664
  91 688.301 14.9504 9.27415
  92 690.940 16.3868 -9.45664
  93 973.672 54.9828 42.6105
  94 973.672 54.9828 42.6105
  95 709.867 6.62857 28.4013
  96 709.867 6.62857 28.4013
  97 1046.32 77.6067 -39.8896
  98 1055.53 67.9894 -85.0658
  99 1046.32 77.6067 -39.8896
  100 1055.53 67.9894 -85.0658
  101 693.676 10.7025 -35.2249
  102 693.676 10.7025 -35.2249
  103 554.435 -102.733 -265.342
  104 554.435 -102.733 -265.342
  105 471.525 -119.184 281.650
  106 471.525 -119.184 281.650
  107 865.223 -64.0822 -105.986
  108 865.223 -64.0822 -105.986
  109 656.697 -82.3897 -151.791
  110 656.697 -82.3897 -151.791
  111 1101.76 76.9907 59.5905
  112 1101.76 76.9907 59.5905
  113 89.1642 -283.727 -109.508
  114 89.1642 -283.727 -109.508
  115 51.1531 -337.875 33.5031
  116 51.1531 -337.875 33.5031
  117 601.429 38.2668 -7.32131
  118 601.429 38.2668 -7.32131
  119 719.822 -28.6206 -58.2601
  120 719.822 -28.6206 -58.2601
  121 1162.79 31.9068 -26.4465
  122 1162.79 31.9068 -26.4465
  123 140.273 -273.628 185.354
  124 140.273 -273.628 185.354
  125 654.078 22.4512 32.7311
  126 654.078 22.4512 32.7311
  127 166.090 -220.289 -203.008
  128 166.090 -220.289 -203.008
  129 853.413 -54.5655 150.316
  130 853.413 -54.5655 150.316
  131 1183.04 59.7254 -84.5203
  132 1183.04 59.7254 -84.5203
  133 63.8509 -389.833 -31.2638
  134 63.8509 -389.833 -31.2638
  135 77.6340 -370.559 83.8467
  136 77.6340 -370.559 83.8467
  137 708.775 6.70473 -16.4921
  138 708.775 6.70473 -16.4921
  139 677.448 22.8666 -1.19324
  140 677.448 22.8666 -1.19324
  141 691.956 11.5294 -0.149878
  142 691.956 11.5294 -0.149878
  143 710.024 -14.5857 50.3660
  144 710.024 -14.5857 50.3660
  145 502.817 -12.5377 119.179
  146 712.398 -66.8139 103.274
  147 501.393 29.5054 3.01633
  148 502.817 -12.5377 119.179
  149 712.398 -66.8139 103.274
  150 501.393 29.5054 3.01633
  151 645.648 11.6944 -52.4308
  152 645.648 11.6944 -52.4308
  153 1155.68 32.6667 20.8894
  154 1155.68 32.6667 20.8894
  155 1195.76 27.2021 50.8098
  156 1198.26 65.1208 107.005
  157 1195.76 27.2021 50.8098
  158 1198.26 65.1208 107.005
  159 698.596 7.77444 5.33084
  160 698.596 7.77444 5.33084
  161 447.890 -17.6703 -101.944
  162 447.890 -17.6703 -101.944
  163 698.623 7.57002 -5.23165
  164 698.623 7.57002 -5.23165
  165 702.440 9.23877 14.8203
  166 702.440 9.23877 14.8203
  167 818.182 -5.98912 15.3639
  168 797.015 -29.4876 -5.88898
  169 818.182 -5.98912 15.3639
  170 797.015 -29.4876 -5.88898
  171 875.419 -18.9875 -4.46490
  172 875.419 -18.9875 -4.46490
  173 677.719 20.8642 17.3378
  174 677.719 20.8642 17.3378
  175 347.175 -34.6006 140.337
  176 347.175 -34.6006 140.337
  177 310.937 -13.1818 -88.5152
  178 310.937 -13.1818 -88.5152
  179 683.101 22.4892 -16.6631
  180 683.101 22.4892 -16.6631
</Section>

newXOutput 212

<Section columns = "stress_xx | stress_yy | stress_xy">
  1 703.132 4.73291 -2.62074
  2 702.572 3.65655 2.35037
  3 703.132 4.73291 -2.62074
  4 702.572 3.65655 2.35037
  5 999.330 52.0238 273.864
  6 989.859 45.3148 -257.699
  7 999.330 52.0238 273.864
  8 989.859 45.3148 -257.699
  9 709.524 1.22401 -8.57166
  10 736.731 0.172475 -14.3247
  11 755.657 -8.91056 -20.0058
  12 795.692 -4.04516 8.42813
  13 799.539 25.0340 6.59656
  14 797.877 -3.84179 -11.1009
  15 762.805 -13.7278 20.1192
  16 728.148 3.18567 16.7460
  17 710.137 4.52640 7.51756
  18 699.306 7.78165 1.30173
  19 695.825 7.85357 -0.0984843
  20 699.000 7.17177 -1.18392
  21 709.524 1.22401 -8.57166
  22 736.731 0.172475 -14.3247
  23 755.657 -8.91056 -20.0058
  24 795.692 -4.04516 8.42813
  25 799.539 25.0340 6.59656
  26 797.877 -3.84179 -11.1009
  27 762.805 -13.7278 20.1192
  28 728.148 3.18567 16.7460
  29 710.137 4.52640 7.51756
  30 699.306 7.78165 1.30173
  31 695.825 7.85357 -0.0984843
  32 699.000 7.17177 -1.18392
  33 1449.56 13.1775 111.510
  34 1274.65 10.8760 71.5153
  35 1228.37 23.9193 27.6412
  36 1194.48 13.4716 -6.92585
  37 1254.23 4.33344 -26.8596
  38 1286.57 25.2272 -64.2343
  39 1341.02 98.2345 -141.548
  40 340.214 -176.109 -320.112
  41 70.8888 -372.266 -141.613
  42 27.1627 -533.056 -47.3201
  43 17.1222 -570.011 -4.09632
  44 21.4619 -539.219 47.4303
  45 64.6913 -449.818 124.489
  46 277.701 -178.349 315.387
  47 1449.56 13.1775 111.510
  48 1274.65 10.8760 71.5153
  49 1228.37 23.9193 27.6412
  50 1194.48 13.4716 -6.92585
  51 1254.23 4.33344 -26.8596
  52 1286.57 25.2272 -64.2343
  53 1341.02 98.2345 -141.548
  54 340.214 -176.109 -320.112
  55 70.8888 -372.266 -141.613
  56 27.1627 -533.056 -47.3201
  57 17.1222 -570.011 -4.09632
  58 21.4619 -539.219 47.4303
  59 64.6913 -449.818 124.489
  60 277.701 -178.349 315.387
  61 655.531 27.5581 -11.6166
  62 655.531 27.5581 -11.6166
  63 609.198 9.16683 64.6215
  64 591.929 4.24795 -78.6210
  65 609.198 9.16683 64.6215
  66 591.929 4.24795 -78.6210
  67 348.733 9.67717 22.2945
  68 348.733 9.67717 22.2945
  69 543.545 -102.696 221.307
  70 543.545 -102.696 221.307
  71 336.850 -95.1749 -180.799
  72 810.132 -69.7604 -41.9361
  73 900.106 52.3926 -5.09458
  74 860.988 24.9966 -4.93135
  75 336.850 -95.1749 -180.799
  76 810.132 -69.7604 -41.9361
  77 900.106 52.3926 -5.09458
  78 860.988 24.9966 -4.93135
  79 797.735 -37.5237 20.8793
  80 797.735 -37.5237 20.8793
  81 1016.64 75.5206 6.92541
  82 1016.64 75.5206 6.92541
  83 182.966 -110.051 -15.8146
  84 182.966 -110.051 -15.8146
  85 232.621 -150.058 159.669
  86 232.621 -150.058 159.669
  87 857.142 -48.4841 34.8791
  88 857.142 -48.4841 34.8791
  89 691.319 15.0123 9.30996
  90 693.968 16.4550 -9.49318
  91 691.319 15.0123 9.30996
  92 693.968 16.4550 -9.49318
  93 977.805 55.2491 42.8536
  94 977.805 55.2491 42.8536
  95 712.962 6.65593 28.5184
  96 712.962 6.65593 28.5184
  97 1050.73 77.9395 -40.0819
  98 1059.95 68.3245 -85.4884
  99 1050.73 77.9395 -40.0819
  100 1059.95 68.3245 -85.4884
  101 696.712 10.7478 -35.3724
  102 696.712 10.7478 -35.3724
  103 556.785 -103.116 -266.596
  104 556.785 -103.116 -266.596
  105 473.532 -119.638 282.990
  106 473.532 -119.638 282.990
  107 868.887 -64.3277 -106.525
  108 868.887 -64.3277 -106.525
  109 659.545 -82.7567 -152.483
  110 659.545 -82.7567 -152.483
  111 1106.36 77.3254 59.8634
  112 1106.36 77.3254 59.8634
  113 89.5709 -284.974 -110.071
  114 89.5709 -284.974 -110.071
  115 51.3820 -339.393 33.6822
  116 51.3820 -339.393 33.6822
  117 604.109 38.4367 -7.35153
  118 604.109 38.4367 -7.35153
  119 722.950 -28.7488 -58.5214
  120 722.950 -28.7488 -58.5214
  121 1167.57 32.0328 -26.5545
  122 1167.57 32.0328 -26.5545
  123 140.904 -274.776 186.308
  124 140.904 -274.776 186.308
  125 656.965 22.5487 32.8682
  126 656.965 22.5487 32.8682
  127 166.839 -221.201 -204.030
  128 166.839 -221.201 -204.030
  129 857.023 -54.7678 151.045
  130 857.023 -54.7678 151.045
  131 1187.89 59.9787 -84.8910
  132 1187.89 59.9787 -84.8910
  133 64.1347 -391.604 -31.4260
  134 64.1347 -391.604 -31.4260
  135 77.9815 -372.209 84.3027
  136 77.9815 -372.209 84.3027
  137 711.866 6.73255 -16.5584
  138 711.866 6.73255 -16.5584
  139 680.427 22.9623 -1.19810
  140 680.427 22.9623 -1.19810
  141 694.987 11.5764 -0.150446
  142 694.987 11.5764 -0.150446
  143 713.118 -14.6515 50.5865
  144 713.118 -14.6515 50.5865
  145 505.073 -12.5881 119.709
  146 715.480 -67.1108 103.748
  147 503.666 29.6432 3.03156
  148 505.073 -12.5881 119.709
  149 715.480 -67.1108 103.748
  150 503.666 29.6432 3.03156
  151 648.497 11.7460 -52.6531
  152 648.497 11.7460 -52.6531
  153 1160.44 32.7937 20.9792
  154 1160.44 32.7937 20.9792
  155 1200.66 27.3090 51.0192
  156 1203.17 65.4373 107.492
  157 1200.66 27.3090 51.0192
  158 1203.17 65.4373 107.492
  159 701.650 7.80626 5.35089
  160 701.650 7.80626 5.35089
  161 449.918 -17.7423 -102.400
  162 449.918 -17.7423 -102.400
  163 701.677 7.60100 -5.25130
  164 701.677 7.60100 -5.25130
  165 705.507 9.27734 14.8781
  166 705.507 9.27734 14.8781
  167 821.727 -6.00872 15.3953
  168 800.452 -29.6200 -5.93774
  169 821.727 -6.00872 15.3953
  170 800.452 -29.6200 -5.93774
  171 879.170 -19.0492 -4.54855
  172 879.170 -19.0492 -4.54855
  173 680.698 20.9525 17.4074
  174 680.698 20.9525 17.4074
  175 348.759 -34.7368 140.982
  176 348.759 -34.7368 140.982
  177 312.375 -13.2153 -88.9209
  178 312.375 -13.2153 -88.9209
  179 686.101 22.5845 -16.7305
  180 686.101 22.5845 -16.7305
</Section>

newXOutput 213

<Section columns = "stress_xx | stress_yy | stress_xy">
  1 706.188 4.75207 -2.63045
  2 705.626 3.67124 2.35903
  3 706.188 4.75207 -2.63045
  4 705.626 3.67124 2.35903
  5 1003.37 52.3853 275.113
  6 993.899 45.6494 -258.895
  7 1003.37 52.3853 275.113
  8 993.899 45.6494 -258.895
  9 712.602 1.22825 -8.60482
  10 739.907 0.173342 -14.3816
  11 758.913 -8.95136 -20.0956
  12 799.129 -4.06271 8.44550
  13 803.023 25.1478 6.61915
  14 801.324 -3.85705 -11.1252
  15 766.087 -13.7897 20.2105
  16 731.293 3.19865 16.8126
  17 713.217 4.54497 7.54582
  18 702.350 7.81292 1.30653
  19 698.858 7.88497 -0.0988320
  20 702.043 7.20054 -1.18830
  21 712.602 1.22825 -8.60482
  22 739.907 0.173342 -14.3816
  23 758.913 -8.95136 -20.0956
  24 799.129 -4.06271 8.44550
  25 803.023 25.1478 6.61915
  26 801.324 -3.85705 -11.1252
  27 766.087 -13.7897 20.2105
  28 731.293 3.19865 16.8126
  29 713.217 4.54497 7.54582
  30 702.350 7.81292 1.30653
  31 698.858 7.88497 -0.0988320
  32 702.043 7.20054 -1.18830
  33 1455.27 13.2377 111.977
  34 1279.77 10.9067 71.8096
  35 1233.32 24.0131 27.7491
  36 1199.32 13.5186 -6.95104
  37 1259.25 4.34923 -26.9664
  38 1291.73 25.3327 -64.4935
  39 1346.40 98.6922 -142.168
  40 341.635 -176.715 -321.643
  41 71.2009 -373.862 -142.355
  42 27.2761 -535.523 -47.5822
  43 17.1838 -572.682 -4.11403
  44 21.5442 -541.708 47.6911
  45 64.9742 -451.790 125.155
  46 278.866 -178.964 316.903
  47 1455.27 13.2377 111.977
  48 1279.77 10.9067 71.8096
  49 1233.32 24.0131 27.7491
  50 1199.32 13.5186 -6.95104
  51 1259.25 4.34923 -26.9664
  52 1291.73 25.3327 -64.4935
  53 1346.40 98.6922 -142.168
  54 341.635 -176.715 -321.643
  55 71.2009 -373.862 -142.355
  56 27.2761 -535.523 -47.5822
  57 17.1838 -572.682 -4.11403
  58 21.5442 -541.708 47.6911
  59 64.9742 -451.790 125.155
  60 278.866 -178.964 316.903
  61 658.414 27.6763 -11.6646
  62 658.414 27.6763 -11.6646
  63 611.886 9.20923 64.9005
  64 594.544 4.26858 -78.9603
  65 611.886 9.20923 64.9005
  66 594.544 4.26858 -78.9603
  67 350.339 9.73948 22.3952
  68 350.339 9.73948 22.3952
  69 545.898 -103.155 222.317
  70 545.898 -103.155 222.317
  71 338.355 -95.5780 -181.648
  72 813.592 -70.0641 -42.1568
  73 903.964 52.6307 -5.14421
  74 864.690 25.1132 -4.91963
  75 338.355 -95.5780 -181.648
  76 813.592 -70.0641 -42.1568
  77 903.964 52.6307 -5.14421
  78 864.690 25.1132 -4.91963
  79 801.158 -37.6874 20.9977
  80 801.158 -37.6874 20.9977
  81 1020.93 75.8419 6.96639
  82 1020.93 75.8419 6.96639
  83 183.813 -110.503 -15.8917
  84 183.813 -110.503 -15.8917
  85 233.659 -150.694 160.444
  86 233.659 -150.694 160.444
  87 860.790 -48.6811 35.0896
  88 860.790 -48.6811 35.0896
  89 694.336 15.0742 9.34570
  90 696.994 16.5232 -9.52964
  91 694.336 15.0742 9.34570
  92 696.994 16.5232 -9.52964
  93 981.934 55.5155 43.0970
  94 981.934 55.5155 43.0970
  95 716.054 6.68325 28.6354
  96 716.054 6.68325 28.6354
  97 1055.14 78.2720 -40.2742
  98 1064.36 68.6597 -85.9110
  99 1055.14 78.2720 -40.2742
  100 1064.36 68.6597 -85.9110
  101 699.746 10.7930 -35.5197
  102 699.746 10.7930 -35.5197
  103 559.132 -103.498 -267.849
  104 559.132 -103.498 -267.849
  105 475.536 -120.091 284.330
  106 475.536 -120.091 284.330
  107 872.547 -64.5728 -107.064
  108 872.547 -64.5728 -107.064
  109 662.391 -83.1234 -153.174
  110 662.391 -83.1234 -153.174
  111 1110.95 77.6599 60.1361
  112 1110.95 77.6599 60.1361
  113 89.9775 -286.219 -110.635
  114 89.9775 -286.219 -110.635
  115 51.6107 -340.909 33.8615
  116 51.6107 -340.909 33.8615
  117 606.788 38.6065 -7.38171
  118 606.788 38.6065 -7.38171
  119 726.076 -28.8770 -58.7826
  120 726.076 -28.8770 -58.7826
  121 1172.34 32.1585 -26.6623
  122 1172.34 32.1585 -26.6623
  123 141.533 -275.924 187.261
  124 141.533 -275.924 187.261
  125 659.849 22.6460 33.0051
  126 659.849 22.6460 33.0051
  127 167.587 -222.112 -205.052
  128 167.587 -222.112 -205.052
  129 860.629 -54.9696 151.774
  130 860.629 -54.9696 151.774
  131 1192.75 60.2316 -85.2613
  132 1192.75 60.2316 -85.2613
  133 64.4183 -393.375 -31.5883
  134 64.4183 -393.375 -31.5883
  135 78.3288 -373.858 84.7591
  136 78.3288 -373.858 84.7591
  137 714.954 6.76034 -16.6246
  138 714.954 6.76034 -16.6246
  139 683.405 23.0579 -1.20295
  140 683.405 23.0579 -1.20295
  141 698.017 11.6234 -0.151014
  142 698.017 11.6234 -0.151014
  143 716.208 -14.7173 50.8068
  144 716.208 -14.7173 50.8068
  145 507.327 -12.6385 120.238
  146 718.559 -67.4074 104.222
  147 505.937 29.7809 3.04680
  148 507.327 -12.6385 120.238
  149 718.559 -67.4074 104.222
  150 505.937 29.7809 3.04680
  151 651.344 11.7975 -52.8751
  152 651.344 11.7975 -52.8751
  153 1165.19 32.9204 21.0689
  154 1165.19 32.9204 21.0689
  155 1205.55 27.4158 51.2283
  156 1208.07 65.7539 107.978
  157 1205.55 27.4158 51.2283
  158 1208.07 65.7539 107.978
  159 704.702 7.83804 5.37090
  160 704.702 7.83804 5.37090
  161 451.946 -17.8142 -102.856
  162 451.946 -17.8142 -102.856
  163 704.728 7.63193 -5.27091
  164 704.728 7.63193 -5.27091
  165 708.573 9.31586 14.9358
  166 708.573 9.31586 14.9358
  167 825.269 -6.02825 15.4263
  168 803.885 -29.7523 -5.98667
  169 825.269 -6.02825 15.4263
  170 803.885 -29.7523 -5.98667
  171 882.917 -19.1106 -4.63268
  172 882.917 -19.1106 -4.63268
  173 683.675 21.0407 17.4769
  174 683.675 21.0407 17.4769
  175 350.342 -34.8727 141.627
  176 350.342 -34.8727 141.627
  177 313.813 -13.2485 -89.3264
  178 313.813 -13.2485 -89.3264
  179 689.099 22.6797 -16.7979
  180 689.099 22.6797 -16.7979
</Section>

newXOutput 214

<Section columns = "stress_xx | stress_yy | stress_xy">
  1 709.242 4.77120 -2.64014
  2 708.678 3.68591 2.36766
  3 709.242 4.77120 -2.64014
  4 708.678 3.68591 2.36766
  5 1007.41 52.7477 276.362
  6 997.933 45.9849 -260.091
  7 1007.41 52.7477 276.362
  8 997.933 45.9849 -260.091
  9 715.677 1.23248 -8.63791
  10 743.080 0.174210 -14.4385
  11 762.166 -8.99214 -20.1854
  12 802.563 -4.08024 8.46269
  13 806.504 25.2617 6.64167
  14 804.768 -3.87227 -11.1493
  15 769.366 -13.8516 20.3018
  16 734.437 3.21161 16.8791
  17 716.295 4.56352 7.57401
  18 705.391 7.84414 1.31132
  19 701.888 7.91632 -0.0991788
  20 705.083 7.22927 -1.19266
  21 715.677 1.23248 -8.63791
  22 743.080 0.174210 -14.4385
  23 762.166 -8.99214 -20.1854
  24 802.563 -4.08024 8.46269
  25 806.504 25.2617 6.64167
  26 804.768 -3.87227 -11.1493
  27 769.366 -13.8516 20.3018
  28 734.437 3.21161 16.8791
  29 716.295 4.56352 7.57401
  30 705.391 7.84414 1.31132
  31 701.888 7.91632 -0.0991788
  32 705.083 7.22927 -1.19266
  33 1460.98 13.2979 112.444
  34 1284.88 10.9373 72.1035
  35 1238.27 24.1068 27.8568
  36 1204.16 13.5654 -6.97616
  37 1264.26 4.36499 -27.0731
  38 1296.88 25.4380 -64.7523
  39 1351.77 99.1499 -142.787
  40 343.054 -177.318 -323.173
  41 71.5128 -375.457 -143.097
  42 27.3895 -537.989 -47.8446
  43 17.2452 -575.354 -4.13172
  44 21.6264 -544.197 47.9523
  45 65.2569 -453.761 125.821
  46 280.029 -179.578 318.420
  47 1460.98 13.2979 112.444
  48 1284.88 10.9373 72.1035
  49 1238.27 24.1068 27.8568
  50 1204.16 13.5654 -6.97616
  51 1264.26 4.36499 -27.0731
  52 1296.88 25.4380 -64.7523
  53 1351.77 99.1499 -142.787
  54 343.054 -177.318 -323.173
  55 71.5128 -375.457 -143.097
  56 27.3895 -537.989 -47.8446
  57 17.2452 -575.354 -4.13172
  58 21.6264 -544.197 47.9523
  59 65.2569 -453.761 125.821
  60 280.029 -179.578 318.420
  61 661.294 27.7944 -11.7126
  62 661.294 27.7944 -11.7126
  63 614.574 9.25162 65.1793
  64 597.159 4.28922 -79.2994
  65 614.574 9.25162 65.1793
  66 597.159 4.28922 -79.2994
  67 351.945 9.80193 22.4958
  68 351.945 9.80193 22.4958
  69 548.249 -103.614 223.327
  70 548.249 -103.614 223.327
  71 339.859 -95.9806 -182.497
  72 817.049 -70.3676 -42.3776
  73 907.819 52.8687 -5.19402
  74 868.388 25.2298 -4.90764
  75 339.859 -95.9806 -182.497
  76 817.049 -70.3676 -42.3776
  77 907.819 52.8687 -5.19402
  78 868.388 25.2298 -4.90764
  79 804.578 -37.8510 21.1161
  80 804.578 -37.8510 21.1161
  81 1025.20 76.1629 7.00743
  82 1025.20 76.1629 7.00743
  83 184.660 -110.954 -15.9688
  84 184.660 -110.954 -15.9688
  85 234.697 -151.329 161.220
  86 234.697 -151.329 161.220
  87 864.435 -48.8778 35.3004
  88 864.435 -48.8778 35.3004
  89 697.349 15.1359 9.38138
  90 700.017 16.5912 -9.56604
  91 697.349 15.1359 9.38138
  92 700.017 16.5912 -9.56604
  93 986.058 55.7818 43.3407
  94 986.058 55.7818 43.3407
  95 719.145 6.71053 28.7522
  96 719.145 6.71053 28.7522
  97 1059.55 78.6041 -40.4665
  98 1068.77 68.9949 -86.3336
  99 1059.55 78.6041 -40.4665
  100 1068.77 68.9949 -86.3336
  101 702.778 10.8382 -35.6668
  102 702.778 10.8382 -35.6668
  103 561.476 -103.880 -269.103
  104 561.476 -103.880 -269.103
  105 477.539 -120.543 285.670
  106 477.539 -120.543 285.670
  107 876.202 -64.8173 -107.604
  108 876.202 -64.8173 -107.604
  109 665.234 -83.4899 -153.866
  110 665.234 -83.4899 -153.866
  111 1115.54 77.9941 60.4087
  112 1115.54 77.9941 60.4087
  113 90.3839 -287.463 -111.199
  114 90.3839 -287.463 -111.199
  115 51.8393 -342.425 34.0410
  116 51.8393 -342.425 34.0410
  117 609.466 38.7763 -7.41185
  118 609.466 38.7763 -7.41185
  119 729.199 -29.0051 -59.0437
  120 729.199 -29.0051 -59.0437
  121 1177.11 32.2840 -26.7700
  122 1177.11 32.2840 -26.7700
  123 142.163 -277.070 188.216
  124 142.163 -277.070 188.216
  125 662.731 22.7433 33.1418
  126 662.731 22.7433 33.1418
  127 168.335 -223.021 -206.075
  128 168.335 -223.021 -206.075
  129 864.231 -55.1710 152.503
  130 864.231 -55.1710 152.503
  131 1197.59 60.4844 -85.6313
  132 1197.59 60.4844 -85.6313
  133 64.7017 -395.144 -31.7507
  134 64.7017 -395.144 -31.7507
  135 78.6758 -375.506 85.2161
  136 78.6758 -375.506 85.2161
  137 718.040 6.78810 -16.6906
  138 718.040 6.78810 -16.6906
  139 686.380 23.1534 -1.20779
  140 686.380 23.1534 -1.20779
  141 701.044 11.6703 -0.151580
  142 701.044 11.6703 -0.151580
  143 719.296 -14.7830 51.0270
  144 719.296 -14.7830 51.0270
  145 509.580 -12.6888 120.767
  146 721.635 -67.7039 104.696
  147 508.207 29.9187 3.06204
  148 509.580 -12.6888 120.767
  149 721.635 -67.7039 104.696
  150 508.207 29.9187 3.06204
  151 654.189 11.8490 -53.0969
  152 654.189 11.8490 -53.0969
  153 1169.94 33.0470 21.1585
  154 1169.94 33.0470 21.1585
  155 1210.44 27.5223 51.4372
  156 1212.97 66.0705 108.464
  157 1210.44 27.5223 51.4372
  158 1212.97 66.0705 108.464
  159 707.751 7.86977 5.39086
  160 707.751 7.86977 5.39086
  161 453.972 -17.8860 -103.311
  162 453.972 -17.8860 -103.311
  163 707.778 7.66282 -5.29048
  164 707.778 7.66282 -5.29048
  165 711.635 9.35433 14.9934
  166 711.635 9.35433 14.9934
  167 828.807 -6.04769 15.4569
  168 807.315 -29.8845 -6.03575
  169 828.807 -6.04769 15.4569
  170 807.315 -29.8845 -6.03575
  171 886.660 -19.1718 -4.71731
  172 886.660 -19.1718 -4.71731
  173 686.650 21.1288 17.5463
  174 686.650 21.1288 17.5463
  175 351.924 -35.0084 142.272
  176 351.924 -35.0084 142.272
  177 315.250 -13.2815 -89.7318
  178 315.250 -13.2815 -89.7318
  179 692.094 22.7748 -16.8651
  180 692.094 22.7748 -16.8651
</Section>

newXOutput 215

<Section columns = "stress_xx | stress_yy | stress_xy">
  1 712.293 4.79031 -2.64980
  2 711.727 3.70055 2.37627
  3 712.293 4.79031 -2.64980
  4 711.727 3.70055 2.37627
  5 1011.44 53.1110 277.610
  6 1001.96 46.3215 -261.286
  7 1011.44 53.1110 277.610
  8 1001.96 46.3215 -261.286
  9 718.750 1.23670 -8.67094
  10 746.251 0.175078 -14.4952
  11 765.417 -9.03291 -20.2751
  12 805.994 -4.09776 8.47971
  13 809.983 25.3754 6.66412
  14 808.209 -3.88748 -11.1732
  15 772.642 -13.9135 20.3931
  16 737.577 3.22454 16.9455
  17 719.370 4.58204 7.60215
  18 708.430 7.87532 1.31610
  19 704.915 7.94763 -0.0995247
  20 708.121 7.25795 -1.19702
  21 718.750 1.23670 -8.67094
  22 746.251 0.175078 -14.4952
  23 765.417 -9.03291 -20.2751
  24 805.994 -4.09776 8.47971
  25 809.983 25.3754 6.66412
  26 808.209 -3.88748 -11.1732
  27 772.642 -13.9135 20.3931
  28 737.577 3.22454 16.9455
  29 719.370 4.58204 7.60215
  30 708.430 7.87532 1.31610
  31 704.915 7.94763 -0.0995247
  32 708.121 7.25795 -1.19702
  33 1466.68 13.3581 112.910
  34 1289.98 10.9677 72.3971
  35 1243.21 24.2003 27.9643
  36 1208.98 13.6121 -7.00122
  37 1269.27 4.38071 -27.1796
  38 1302.03 25.5432 -65.0107
  39 1357.14 99.6074 -143.406
  40 344.471 -177.920 -324.703
  41 71.8245 -377.050 -143.840
  42 27.5027 -540.455 -48.1074
  43 17.3065 -578.025 -4.14940
  44 21.7084 -546.685 48.2138
  45 65.5394 -455.730 126.487
  46 281.190 -180.189 319.936
  47 1466.68 13.3581 112.910
  48 1289.98 10.9677 72.3971
  49 1243.21 24.2003 27.9643
  50 1208.98 13.6121 -7.00122
  51 1269.27 4.38071 -27.1796
  52 1302.03 25.5432 -65.0107
  53 1357.14 99.6074 -143.406
  54 344.471 -177.920 -324.703
  55 71.8245 -377.050 -143.840
  56 27.5027 -540.455 -48.1074
  57 17.3065 -578.025 -4.14940
  58 21.7084 -546.685 48.2138
  59 65.5394 -455.730 126.487
  60 281.190 -180.189 319.936
  61 664.172 27.9124 -11.7605
  62 664.172 27.9124 -11.7605
  63 617.259 9.29399 65.4579
  64 599.771 4.30986 -79.6381
  65 617.259 9.29399 65.4579
  66 599.771 4.30986 -79.6381
  67 353.550 9.86450 22.5963
  68 353.550 9.86450 22.5963
  69 550.599 -104.072 224.336
  70 550.599 -104.072 224.336
  71 341.363 -96.3829 -183.346
  72 820.503 -70.6708 -42.5986
  73 911.670 53.1066 -5.24403
  74 872.082 25.3463 -4.89537
  75 341.363 -96.3829 -183.346
  76 820.503 -70.6708 -42.5986
  77 911.670 53.1066 -5.24403
  78 872.082 25.3463 -4.89537
  79 807.995 -38.0145 21.2347
  80 807.995 -38.0145 21.2347
  81 1029.48 76.4836 7.04852
  82 1029.48 76.4836 7.04852
  83 185.507 -111.405 -16.0459
  84 185.507 -111.405 -16.0459
  85 235.734 -151.964 161.995
  86 235.734 -151.964 161.995
  87 868.075 -49.0742 35.5116
  88 868.075 -49.0742 35.5116
  89 700.361 15.1976 9.41698
  90 703.038 16.6592 -9.60237
  91 700.361 15.1976 9.41698
  92 703.038 16.6592 -9.60237
  93 990.178 56.0482 43.5846
  94 990.178 56.0482 43.5846
  95 722.232 6.73778 28.8689
  96 722.232 6.73778 28.8689
  97 1063.95 78.9360 -40.6587
  98 1073.18 69.3302 -86.7563
  99 1063.95 78.9360 -40.6587
  100 1073.18 69.3302 -86.7563
  101 705.807 10.8833 -35.8138
  102 705.807 10.8833 -35.8138
  103 563.818 -104.260 -270.356
  104 563.818 -104.260 -270.356
  105 479.540 -120.994 287.010
  106 479.540 -120.994 287.010
  107 879.854 -65.0613 -108.144
  108 879.854 -65.0613 -108.144
  109 668.075 -83.8562 -154.557
  110 668.075 -83.8562 -154.557
  111 1120.12 78.3280 60.6811
  112 1120.12 78.3280 60.6811
  113 90.7901 -288.706 -111.764
  114 90.7901 -288.706 -111.764
  115 52.0678 -343.940 34.2207
  116 52.0678 -343.940 34.2207
  117 612.141 38.9459 -7.44196
  118 612.141 38.9459 -7.44196
  119 732.319 -29.1331 -59.3046
  120 732.319 -29.1331 -59.3046
  121 1181.87 32.4093 -26.8775
  122 1181.87 32.4093 -26.8775
  123 142.792 -278.214 189.171
  124 142.792 -278.214 189.171
  125 665.611 22.8405 33.2784
  126 665.611 22.8405 33.2784
  127 169.083 -223.930 -207.098
  128 169.083 -223.930 -207.098
  129 867.829 -55.3718 153.232
  130 867.829 -55.3718 153.232
  131 1202.43 60.7368 -86.0009
  132 1202.43 60.7368 -86.0009
  133 64.9850 -396.913 -31.9132
  134 64.9850 -396.913 -31.9132
  135 79.0227 -377.152 85.6735
  136 79.0227 -377.152 85.6735
  137 721.123 6.81582 -16.7566
  138 721.123 6.81582 -16.7566
  139 689.354 23.2488 -1.21263
  140 689.354 23.2488 -1.21263
  141 704.068 11.7172 -0.152145
  142 704.068 11.7172 -0.152145
  143 722.382 -14.8487 51.2469
  144 722.382 -14.8487 51.2469
  145 511.831 -12.7391 121.296
  146 724.709 -68.0002 105.169
  147 510.476 30.0564 3.07729
  148 511.831 -12.7391 121.296
  149 724.709 -68.0002 105.169
  150 510.476 30.0564 3.07729
  151 657.033 11.9004 -53.3185
  152 657.033 11.9004 -53.3185
  153 1174.69 33.1733 21.2480
  154 1174.69 33.1733 21.2480
  155 1215.32 27.6287 51.6457
  156 1217.86 66.3871 108.950
  157 1215.32 27.6287 51.6457
  158 1217.86 66.3871 108.950
  159 710.797 7.90146 5.41078
  160 710.797 7.90146 5.41078
  161 455.998 -17.9577 -103.766
  162 455.998 -17.9577 -103.766
  163 710.824 7.69367 -5.31001
  164 710.824 7.69367 -5.31001
  165 714.696 9.39276 15.0509
  166 714.696 9.39276 15.0509
  167 832.343 -6.06705 15.4873
  168 810.742 -30.0166 -6.08498
  169 832.343 -6.06705 15.4873
  170 810.742 -30.0166 -6.08498
  171 890.400 -19.2327 -4.80242
  172 890.400 -19.2327 -4.80242
  173 689.622 21.2168 17.6155
  174 689.622 21.2168 17.6155
  175 353.505 -35.1438 142.917
  176 353.505 -35.1438 142.917
  177 316.687 -13.3143 -90.1370
  178 316.687 -13.3143 -90.1370
  179 695.088 22.8698 -16.9322
  180 695.088 22.8698 -16.9322
</Section>

newXOutput 216

<Section columns = "stress_xx | stress_yy | stress_xy">
  1 715.342 4.80939 -2.65945
  2 714.774 3.71518 2.38486
  3 715.342 4.80939 -2.65945
  4 714.774 3.71518 2.38486
  5 1015.46 53.4753 278.857
  6 1005.99 46.6590 -262.482
  7 1015.46 53.4753 278.857
  8 1005.99 46.6590 -262.482
  9 721.821 1.24090 -8.70391
  10 749.419 0.175947 -14.5518
  11 768.664 -9.07366 -20.3648
  12 809.422 -4.11526 8.49655
  13 813.459 25.4892 6.68649
  14 811.647 -3.90265 -11.1968
  15 775.915 -13.9754 20.4843
  16 740.715 3.23747 17.0118
  17 722.442 4.60054 7.63023
  18 711.467 7.90645 1.32087
  19 707.941 7.97888 -0.0998696
  20 711.157 7.28659 -1.20136
  21 721.821 1.24090 -8.70391
  22 749.419 0.175947 -14.5518
  23 768.664 -9.07366 -20.3648
  24 809.422 -4.11526 8.49655
  25 813.459 25.4892 6.68649
  26 811.647 -3.90265 -11.1968
  27 775.915 -13.9754 20.4843
  28 740.715 3.23747 17.0118
  29 722.442 4.60054 7.63023
  30 711.467 7.90645 1.32087
  31 707.941 7.97888 -0.0998696
  32 711.157 7.28659 -1.20136
  33 1472.37 13.4182 113.376
  34 1295.08 10.9980 72.6902
  35 1248.14 24.2937 28.0717
  36 1213.81 13.6587 -7.02623
  37 1274.27 4.39640 -27.2860
  38 1307.16 25.6483 -65.2687
  39 1362.49 100.065 -144.024
  40 345.886 -178.520 -326.233
  41 72.1359 -378.642 -144.584
  42 27.6158 -542.920 -48.3705
  43 17.3676 -580.696 -4.16706
  44 21.7902 -549.173 48.4757
  45 65.8216 -457.698 127.155
  46 282.350 -180.798 321.453
  47 1472.37 13.4182 113.376
  48 1295.08 10.9980 72.6902
  49 1248.14 24.2937 28.0717
  50 1213.81 13.6587 -7.02623
  51 1274.27 4.39640 -27.2860
  52 1307.16 25.6483 -65.2687
  53 1362.49 100.065 -144.024
  54 345.886 -178.520 -326.233
  55 72.1359 -378.642 -144.584
  56 27.6158 -542.920 -48.3705
  57 17.3676 -580.696 -4.16706
  58 21.7902 -549.173 48.4757
  59 65.8216 -457.698 127.155
  60 282.350 -180.798 321.453
  61 667.049 28.0303 -11.8083
  62 667.049 28.0303 -11.8083
  63 619.943 9.33635 65.7362
  64 602.382 4.33050 -79.9765
  65 619.943 9.33635 65.7362
  66 602.382 4.33050 -79.9765
  67 355.155 9.92719 22.6968
  68 355.155 9.92719 22.6968
  69 552.946 -104.531 225.345
  70 552.946 -104.531 225.345
  71 342.865 -96.7848 -184.195
  72 823.953 -70.9739 -42.8198
  73 915.518 53.3444 -5.29423
  74 875.774 25.4629 -4.88283
  75 342.865 -96.7848 -184.195
  76 823.953 -70.9739 -42.8198
  77 915.518 53.3444 -5.29423
  78 875.774 25.4629 -4.88283
  79 811.409 -38.1779 21.3535
  80 811.409 -38.1779 21.3535
  81 1033.75 76.8040 7.08965
  82 1033.75 76.8040 7.08965
  83 186.354 -111.855 -16.1231
  84 186.354 -111.855 -16.1231
  85 236.770 -152.598 162.770
  86 236.770 -152.598 162.770
  87 871.712 -49.2703 35.7230
  88 871.712 -49.2703 35.7230
  89 703.370 15.2592 9.45252
  90 706.057 16.7271 -9.63862
  91 703.370 15.2592 9.45252
  92 706.057 16.7271 -9.63862
  93 994.293 56.3147 43.8289
  94 994.293 56.3147 43.8289
  95 725.317 6.76499 28.9854
  96 725.317 6.76499 28.9854
  97 1068.35 79.2675 -40.8509
  98 1077.57 69.6656 -87.1791
  99 1068.35 79.2675 -40.8509
  100 1077.57 69.6656 -87.1791
  101 708.834 10.9284 -35.9605
  102 708.834 10.9284 -35.9605
  103 566.157 -104.639 -271.609
  104 566.157 -104.639 -271.609
  105 481.538 -121.444 288.350
  106 481.538 -121.444 288.350
  107 883.502 -65.3047 -108.684
  108 883.502 -65.3047 -108.684
  109 670.913 -84.2223 -155.247
  110 670.913 -84.2223 -155.247
  111 1124.70 78.6616 60.9534
  112 1124.70 78.6616 60.9534
  113 91.1962 -289.948 -112.329
  114 91.1962 -289.948 -112.329
  115 52.2962 -345.454 34.4005
  116 52.2962 -345.454 34.4005
  117 614.815 39.1154 -7.47202
  118 614.815 39.1154 -7.47202
  119 735.437 -29.2611 -59.5654
  120 735.437 -29.2611 -59.5654
  121 1186.62 32.5344 -26.9848
  122 1186.62 32.5344 -26.9848
  123 143.421 -279.358 190.127
  124 143.421 -279.358 190.127
  125 668.489 22.9376 33.4148
  126 668.489 22.9376 33.4148
  127 169.830 -224.837 -208.122
  128 169.830 -224.837 -208.122
  129 871.424 -55.5722 153.961
  130 871.424 -55.5722 153.961
  131 1207.26 60.9890 -86.3703
  132 1207.26 60.9890 -86.3703
  133 65.2681 -398.681 -32.0758
  134 65.2681 -398.681 -32.0758
  135 79.3693 -378.798 86.1315
  136 79.3693 -378.798 86.1315
  137 724.204 6.84351 -16.8224
  138 724.204 6.84351 -16.8224
  139 692.325 23.3441 -1.21746
  140 692.325 23.3441 -1.21746
  141 707.091 11.7639 -0.152708
  142 707.091 11.7639 -0.152708
  143 725.465 -14.9143 51.4667
  144 725.465 -14.9143 51.4667
  145 514.082 -12.7893 121.824
  146 727.780 -68.2963 105.642
  147 512.744 30.1940 3.09255
  148 514.082 -12.7893 121.824
  149 727.780 -68.2963 105.642
  150 512.744 30.1940 3.09255
  151 659.874 11.9518 -53.5398
  152 659.874 11.9518 -53.5398
  153 1179.42 33.2994 21.3374
  154 1179.42 33.2994 21.3374
  155 1220.20 27.7349 51.8540
  156 1222.74 66.7038 109.436
  157 1220.20 27.7349 51.8540
  158 1222.74 66.7038 109.436
  159 713.842 7.93311 5.43066
  160 713.842 7.93311 5.43066
  161 458.023 -18.0293 -104.221
  162 458.023 -18.0293 -104.221
  163 713.869 7.72448 -5.32949
  164 713.869 7.72448 -5.32949
  165 717.754 9.43114 15.1083
  166 717.754 9.43114 15.1083
  167 835.875 -6.08634 15.5173
  168 814.166 -30.1487 -6.13438
  169 835.875 -6.08634 15.5173
  170 814.166 -30.1487 -6.13438
  171 894.136 -19.2934 -4.88801
  172 894.136 -19.2934 -4.88801
  173 692.593 21.3047 17.6847
  174 692.593 21.3047 17.6847
  175 355.086 -35.2790 143.561
  176 355.086 -35.2790 143.561
  177 318.123 -13.3468 -90.5421
  178 318.123 -13.3468 -90.5421
  179 698.078 22.9646 -16.9992
  180 698.078 22.9646 -16.9992
</Section>

newXOutput 217

<Section columns = "stress_xx | stress_yy | stress_xy">
  1 718.388 4.82844 -2.66907
  2 717.818 3.72978 2.39343
  3 718.388 4.82844 -2.66907
  4 717.818 3.72978 2.39343
  5 1019.48 53.8405 280.104
  6 1010.00 46.9975 -263.676
  7 1019.48 53.8405 280.104
  8 1010.00 46.9975 -263.676
  9 724.889 1.24509 -8.73682
  10 752.585 0.176817 -14.6084
  11 771.909 -9.11440 -20.4544
  12 812.847 -4.13275 8.51321
  13 816.933 25.6029 6.70880
  14 815.082 -3.91780 -11.2202
  15 779.185 -14.0372 20.5754
  16 743.850 3.25037 17.0780
  17 725.512 4.61902 7.65824
  18 714.501 7.93753 1.32563
  19 710.964 8.01009 -0.100214
  20 714.190 7.31519 -1.20570
  21 724.889 1.24509 -8.73682
  22 752.585 0.176817 -14.6084
  23 771.909 -9.11440 -20.4544
  24 812.847 -4.13275 8.51321
  25 816.933 25.6029 6.70880
  26 815.082 -3.91780 -11.2202
  27 779.185 -14.0372 20.5754
  28 743.850 3.25037 17.0780
  29 725.512 4.61902 7.65824
  30 714.501 7.93753 1.32563
  31 710.964 8.01009 -0.100214
  32 714.190 7.31519 -1.20570
  33 1478.05 13.4784 113.841
  34 1300.16 11.0281 72.9830
  35 1253.07 24.3870 28.1788
  36 1218.62 13.7052 -7.05117
  37 1279.26 4.41206 -27.3921
  38 1312.29 25.7533 -65.5264
  39 1367.84 100.522 -144.642
  40 347.300 -179.118 -327.764
  41 72.4471 -380.232 -145.328
  42 27.7287 -545.384 -48.6339
  43 17.4285 -583.366 -4.18470
  44 21.8718 -551.659 48.7379
  45 66.1036 -459.664 127.823
  46 283.509 -181.405 322.969
  47 1478.05 13.4784 113.841
  48 1300.16 11.0281 72.9830
  49 1253.07 24.3870 28.1788
  50 1218.62 13.7052 -7.05117
  51 1279.26 4.41206 -27.3921
  52 1312.29 25.7533 -65.5264
  53 1367.84 100.522 -144.642
  54 347.300 -179.118 -327.764
  55 72.4471 -380.232 -145.328
  56 27.7287 -545.384 -48.6339
  57 17.4285 -583.366 -4.18470
  58 21.8718 -551.659 48.7379
  59 66.1036 -459.664 127.823
  60 283.509 -181.405 322.969
  61 669.923 28.1481 -11.8561
  62 669.923 28.1481 -11.8561
  63 622.625 9.37870 66.0143
  64 604.991 4.35114 -80.3147
  65 622.625 9.37870 66.0143
  66 604.991 4.35114 -80.3147
  67 356.760 9.99001 22.7973
  68 356.760 9.99001 22.7973
  69 555.292 -104.988 226.354
  70 555.292 -104.988 226.354
  71 344.367 -97.1862 -185.044
  72 827.400 -71.2766 -43.0411
  73 919.362 53.5822 -5.34462
  74 879.462 25.5794 -4.87001
  75 344.367 -97.1862 -185.044
  76 827.400 -71.2766 -43.0411
  77 919.362 53.5822 -5.34462
  78 879.462 25.5794 -4.87001
  79 814.820 -38.3412 21.4724
  80 814.820 -38.3412 21.4724
  81 1038.01 77.1241 7.13084
  82 1038.01 77.1241 7.13084
  83 187.200 -112.305 -16.2002
  84 187.200 -112.305 -16.2002
  85 237.806 -153.231 163.546
  86 237.806 -153.231 163.546
  87 875.346 -49.4661 35.9349
  88 875.346 -49.4661 35.9349
  89 706.377 15.3207 9.48798
  90 709.074 16.7949 -9.67481
  91 706.377 15.3207 9.48798
  92 709.074 16.7949 -9.67481
  93 998.404 56.5811 44.0734
  94 998.404 56.5811 44.0734
  95 728.400 6.79217 29.1017
  96 728.400 6.79217 29.1017
  97 1072.74 79.5988 -41.0431
  98 1081.97 70.0011 -87.6019
  99 1072.74 79.5988 -41.0431
  100 1081.97 70.0011 -87.6019
  101 711.858 10.9735 -36.1071
  102 711.858 10.9735 -36.1071
  103 568.494 -105.018 -272.862
  104 568.494 -105.018 -272.862
  105 483.535 -121.893 289.690
  106 483.535 -121.893 289.690
  107 887.146 -65.5477 -109.224
  108 887.146 -65.5477 -109.224
  109 673.749 -84.5882 -155.938
  110 673.749 -84.5882 -155.938
  111 1129.27 78.9950 61.2256
  112 1129.27 78.9950 61.2256
  113 91.6021 -291.190 -112.894
  114 91.6021 -291.190 -112.894
  115 52.5244 -346.967 34.5805
  116 52.5244 -346.967 34.5805
  117 617.488 39.2848 -7.50204
  118 617.488 39.2848 -7.50204
  119 738.552 -29.3890 -59.8260
  120 738.552 -29.3890 -59.8260
  121 1191.37 32.6593 -27.0920
  122 1191.37 32.6593 -27.0920
  123 144.049 -280.500 191.083
  124 144.049 -280.500 191.083
  125 671.366 23.0347 33.5511
  126 671.366 23.0347 33.5511
  127 170.577 -225.743 -209.146
  128 170.577 -225.743 -209.146
  129 875.014 -55.7721 154.690
  130 875.014 -55.7721 154.690
  131 1212.09 61.2409 -86.7393
  132 1212.09 61.2409 -86.7393
  133 65.5510 -400.448 -32.2386
  134 65.5510 -400.448 -32.2386
  135 79.7158 -380.442 86.5899
  136 79.7158 -380.442 86.5899
  137 727.283 6.87116 -16.8882
  138 727.283 6.87116 -16.8882
  139 695.294 23.4392 -1.22229
  140 695.294 23.4392 -1.22229
  141 710.111 11.8106 -0.153271
  142 710.111 11.8106 -0.153271
  143 728.546 -14.9799 51.6863
  144 728.546 -14.9799 51.6863
  145 516.331 -12.8394 122.352
  146 730.848 -68.5922 106.116
  147 515.011 30.3316 3.10781
  148 516.331 -12.8394 122.352
  149 730.848 -68.5922 106.116
  150 515.011 30.3316 3.10781
  151 662.713 12.0032 -53.7609
  152 662.713 12.0032 -53.7609
  153 1184.15 33.4252 21.4268
  154 1184.15 33.4252 21.4268
  155 1225.06 27.8409 52.0619
  156 1227.62 67.0205 109.921
  157 1225.06 27.8409 52.0619
  158 1227.62 67.0205 109.921
  159 716.884 7.96471 5.45049
  160 716.884 7.96471 5.45049
  161 460.047 -18.1008 -104.676
  162 460.047 -18.1008 -104.676
  163 716.911 7.75525 -5.34893
  164 716.911 7.75525 -5.34893
  165 720.809 9.46948 15.1656
  166 720.809 9.46948 15.1656
  167 839.405 -6.10554 15.5469
  168 817.586 -30.2807 -6.18393
  169 839.405 -6.10554 15.5469
  170 817.586 -30.2807 -6.18393
  171 897.868 -19.3539 -4.97409
  172 897.868 -19.3539 -4.97409
  173 695.561 21.3926 17.7538
  174 695.561 21.3926 17.7538
  175 356.666 -35.4140 144.205
  176 356.666 -35.4140 144.205
  177 319.559 -13.3791 -90.9470
  178 319.559 -13.3791 -90.9470
  179 701.067 23.0594 -17.0661
  180 701.067 23.0594 -17.0661
</Section>

newXOutput 218

<Section columns = "stress_xx | stress_yy | stress_xy">
  1 721.432 4.84746 -2.67867
  2 720.860 3.74436 2.40198
  3 721.432 4.84746 -2.67867
  4 720.860 3.74436 2.40198
  5 1023.49 54.2066 281.350
  6 1014.02 47.3369 -264.871
  7 1023.49 54.2066 281.350
  8 1014.02 47.3369 -264.871
  9 727.954 1.24927 -8.76967
  10 755.747 0.177687 -14.6649
  11 775.150 -9.15513 -20.5440
  12 816.269 -4.15022 8.52970
  13 820.403 25.7165 6.73103
  14 818.515 -3.93292 -11.2434
  15 782.452 -14.0990 20.6665
  16 746.983 3.26326 17.1440
  17 728.580 4.63747 7.68620
  18 717.534 7.96857 1.33037
  19 713.985 8.04125 -0.100557
  20 717.221 7.34374 -1.21002
  21 727.954 1.24927 -8.76967
  22 755.747 0.177687 -14.6649
  23 775.150 -9.15513 -20.5440
  24 816.269 -4.15022 8.52970
  25 820.403 25.7165 6.73103
  26 818.515 -3.93292 -11.2434
  27 782.452 -14.0990 20.6665
  28 746.983 3.26326 17.1440
  29 728.580 4.63747 7.68620
  30 717.534 7.96857 1.33037
  31 713.985 8.04125 -0.100557
  32 717.221 7.34374 -1.21002
  33 1483.72 13.5385 114.306
  34 1305.24 11.0580 73.2754
  35 1257.99 24.4801 28.2858
  36 1223.43 13.7516 -7.07605
  37 1284.24 4.42768 -27.4981
  38 1317.41 25.8581 -65.7836
  39 1373.18 100.979 -145.259
  40 348.712 -179.714 -329.294
  41 72.7581 -381.820 -146.072
  42 27.8415 -547.848 -48.8977
  43 17.4893 -586.036 -4.20233
  44 21.9533 -554.145 49.0004
  45 66.3854 -461.628 128.491
  46 284.667 -182.010 324.486
  47 1483.72 13.5385 114.306
  48 1305.24 11.0580 73.2754
  49 1257.99 24.4801 28.2858
  50 1223.43 13.7516 -7.07605
  51 1284.24 4.42768 -27.4981
  52 1317.41 25.8581 -65.7836
  53 1373.18 100.979 -145.259
  54 348.712 -179.714 -329.294
  55 72.7581 -381.820 -146.072
  56 27.8415 -547.848 -48.8977
  57 17.4893 -586.036 -4.20233
  58 21.9533 -554.145 49.0004
  59 66.3854 -461.628 128.491
  60 284.667 -182.010 324.486
  61 672.796 28.2657 -11.9039
  62 672.796 28.2657 -11.9039
  63 625.305 9.42104 66.2921
  64 607.598 4.37179 -80.6525
  65 625.305 9.42104 66.2921
  66 607.598 4.37179 -80.6525
  67 358.364 10.0530 22.8977
  68 358.364 10.0530 22.8977
  69 557.636 -105.446 227.362
  70 557.636 -105.446 227.362
  71 345.868 -97.5873 -185.893
  72 830.844 -71.5792 -43.2625
  73 923.203 53.8198 -5.39519
  74 883.146 25.6960 -4.85693
  75 345.868 -97.5873 -185.893
  76 830.844 -71.5792 -43.2625
  77 923.203 53.8198 -5.39519
  78 883.146 25.6960 -4.85693
  79 818.228 -38.5043 21.5914
  80 818.228 -38.5043 21.5914
  81 1042.27 77.4439 7.17208
  82 1042.27 77.4439 7.17208
  83 188.046 -112.754 -16.2774
  84 188.046 -112.754 -16.2774
  85 238.841 -153.863 164.322
  86 238.841 -153.863 164.322
  87 878.976 -49.6617 36.1470
  88 878.976 -49.6617 36.1470
  89 709.382 15.3822 9.52338
  90 712.088 16.8626 -9.71093
  91 709.382 15.3822 9.52338
  92 712.088 16.8626 -9.71093
  93 1002.51 56.8476 44.3181
  94 1002.51 56.8476 44.3181
  95 731.480 6.81931 29.2179
  96 731.480 6.81931 29.2179
  97 1077.12 79.9297 -41.2352
  98 1086.36 70.3366 -88.0248
  99 1077.12 79.9297 -41.2352
  100 1086.36 70.3366 -88.0248
  101 714.881 11.0185 -36.2536
  102 714.881 11.0185 -36.2536
  103 570.828 -105.396 -274.114
  104 570.828 -105.396 -274.114
  105 485.529 -122.341 291.029
  106 485.529 -122.341 291.029
  107 890.786 -65.7901 -109.765
  108 890.786 -65.7901 -109.765
  109 676.582 -84.9538 -156.628
  110 676.582 -84.9538 -156.628
  111 1133.83 79.3281 61.4976
  112 1133.83 79.3281 61.4976
  113 92.0078 -292.430 -113.460
  114 92.0078 -292.430 -113.460
  115 52.7526 -348.479 34.7607
  116 52.7526 -348.479 34.7607
  117 620.159 39.4541 -7.53202
  118 620.159 39.4541 -7.53202
  119 741.665 -29.5168 -60.0865
  120 741.665 -29.5168 -60.0865
  121 1196.11 32.7841 -27.1991
  122 1196.11 32.7841 -27.1991
  123 144.677 -281.640 192.040
  124 144.677 -281.640 192.040
  125 674.240 23.1316 33.6872
  126 674.240 23.1316 33.6872
  127 171.323 -226.647 -210.170
  128 171.323 -226.647 -210.170
  129 878.601 -55.9715 155.419
  130 878.601 -55.9715 155.419
  131 1216.91 61.4926 -87.1080
  132 1216.91 61.4926 -87.1080
  133 65.8338 -402.215 -32.4015
  134 65.8338 -402.215 -32.4015
  135 80.0620 -382.085 87.0489
  136 80.0620 -382.085 87.0489
  137 730.359 6.89877 -16.9538
  138 730.359 6.89877 -16.9538
  139 698.260 23.5343 -1.22710
  140 698.260 23.5343 -1.22710
  141 713.129 11.8573 -0.153832
  142 713.129 11.8573 -0.153832
  143 731.624 -15.0455 51.9057
  144 731.624 -15.0455 51.9057
  145 518.579 -12.8894 122.880
  146 733.913 -68.8879 106.589
  147 517.277 30.4692 3.12308
  148 518.579 -12.8894 122.880
  149 733.913 -68.8879 106.589
  150 517.277 30.4692 3.12308
  151 665.550 12.0546 -53.9817
  152 665.550 12.0546 -53.9817
  153 1188.88 33.5509 21.5160
  154 1188.88 33.5509 21.5160
  155 1229.92 27.9467 52.2696
  156 1232.49 67.3373 110.406
  157 1229.92 27.9467 52.2696
  158 1232.49 67.3373 110.406
  159 719.923 7.99627 5.47028
  160 719.923 7.99627 5.47028
  161 462.070 -18.1722 -105.130
  162 462.070 -18.1722 -105.130
  163 719.951 7.78597 -5.36833
  164 719.951 7.78597 -5.36833
  165 723.862 9.50777 15.2228
  166 723.862 9.50777 15.2228
  167 842.931 -6.12467 15.5763
  168 821.004 -30.4126 -6.23363
  169 842.931 -6.12467 15.5763
  170 821.004 -30.4126 -6.23363
  171 901.597 -19.4140 -5.06065
  172 901.597 -19.4140 -5.06065
  173 698.527 21.4803 17.8227
  174 698.527 21.4803 17.8227
  175 358.246 -35.5488 144.849
  176 358.246 -35.5488 144.849
  177 320.995 -13.4111 -91.3518
  178 320.995 -13.4111 -91.3518
  179 704.054 23.1541 -17.1329
  180 704.054 23.1541 -17.1329
</Section>

newXOutput 219

<Section columns = "stress_xx | stress_yy | stress_xy">
  1 724.474 4.86645 -2.68825
  2 723.900 3.75892 2.41051
  3 724.474 4.86645 -2.68825
  4 723.900 3.75892 2.41051
  5 1027.50 54.5737 282.596
  6 1018.02 47.6774 -266.065
  7 1027.50 54.5737 282.596
  8 1018.02 47.6774 -266.065
  9 731.017 1.25343 -8.80246
  10 758.907 0.178558 -14.7212
  11 778.389 -9.19585 -20.6336
  12 819.688 -4.16768 8.54601
  13 823.871 25.8301 6.75320
  14 821.944 -3.94802 -11.2663
  15 785.717 -14.1608 20.7576
  16 750.113 3.27613 17.2100
  17 731.645 4.65590 7.71410
  18 720.563 7.99956 1.33511
  19 717.003 8.07236 -0.100899
  20 720.250 7.37225 -1.21434
  21 731.017 1.25343 -8.80246
  22 758.907 0.178558 -14.7212
  23 778.389 -9.19585 -20.6336
  24 819.688 -4.16768 8.54601
  25 823.871 25.8301 6.75320
  26 821.944 -3.94802 -11.2663
  27 785.717 -14.1608 20.7576
  28 750.113 3.27613 17.2100
  29 731.645 4.65590 7.71410
  30 720.563 7.99956 1.33511
  31 717.003 8.07236 -0.100899
  32 720.250 7.37225 -1.21434
  33 1489.39 13.5986 114.770
  34 1310.32 11.0878 73.5674
  35 1262.90 24.5730 28.3926
  36 1228.23 13.7978 -7.10087
  37 1289.22 4.44327 -27.6040
  38 1322.52 25.9629 -66.0405
  39 1378.51 101.436 -145.876
  40 350.122 -180.307 -330.824
  41 73.0688 -383.407 -146.818
  42 27.9542 -550.311 -49.1619
  43 17.5498 -588.706 -4.21994
  44 22.0346 -556.631 49.2633
  45 66.6669 -463.591 129.160
  46 285.823 -182.613 326.002
  47 1489.39 13.5986 114.770
  48 1310.32 11.0878 73.5674
  49 1262.90 24.5730 28.3926
  50 1228.23 13.7978 -7.10087
  51 1289.22 4.44327 -27.6040
  52 1322.52 25.9629 -66.0405
  53 1378.51 101.436 -145.876
  54 350.122 -180.307 -330.824
  55 73.0688 -383.407 -146.818
  56 27.9542 -550.311 -49.1619
  57 17.5498 -588.706 -4.21994
  58 22.0346 -556.631 49.2633
  59 66.6669 -463.591 129.160
  60 285.823 -182.613 326.002
  61 675.666 28.3833 -11.9515
  62 675.666 28.3833 -11.9515
  63 627.983 9.46336 66.5697
  64 610.204 4.39243 -80.9901
  65 627.983 9.46336 66.5697
  66 610.204 4.39243 -80.9901
  67 359.967 10.1160 22.9980
  68 359.967 10.1160 22.9980
  69 559.977 -105.904 228.370
  70 559.977 -105.904 228.370
  71 347.368 -97.9880 -186.741
  72 834.285 -71.8815 -43.4841
  73 927.040 54.0574 -5.44596
  74 886.828 25.8125 -4.84357
  75 347.368 -97.9880 -186.741
  76 834.285 -71.8815 -43.4841
  77 927.040 54.0574 -5.44596
  78 886.828 25.8125 -4.84357
  79 821.632 -38.6673 21.7106
  80 821.632 -38.6673 21.7106
  81 1046.53 77.7634 7.21337
  82 1046.53 77.7634 7.21337
  83 188.892 -113.202 -16.3546
  84 188.892 -113.202 -16.3546
  85 239.876 -154.495 165.097
  86 239.876 -154.495 165.097
  87 882.602 -49.8570 36.3595
  88 882.602 -49.8570 36.3595
  89 712.385 15.4436 9.55871
  90 715.100 16.9302 -9.74698
  91 712.385 15.4436 9.55871
  92 715.100 16.9302 -9.74698
  93 1006.61 57.1141 44.5631
  94 1006.61 57.1141 44.5631
  95 734.558 6.84641 29.3339
  96 734.558 6.84641 29.3339
  97 1081.51 80.2603 -41.4273
  98 1090.74 70.6723 -88.4477
  99 1081.51 80.2603 -41.4273
  100 1090.74 70.6723 -88.4477
  101 717.900 11.0634 -36.3998
  102 717.900 11.0634 -36.3998
  103 573.159 -105.772 -275.366
  104 573.159 -105.772 -275.366
  105 487.521 -122.788 292.369
  106 487.521 -122.788 292.369
  107 894.422 -66.0320 -110.305
  108 894.422 -66.0320 -110.305
  109 679.413 -85.3192 -157.318
  110 679.413 -85.3192 -157.318
  111 1138.39 79.6609 61.7694
  112 1138.39 79.6609 61.7694
  113 92.4134 -293.670 -114.026
  114 92.4134 -293.670 -114.026
  115 52.9806 -349.991 34.9411
  116 52.9806 -349.991 34.9411
  117 622.828 39.6232 -7.56197
  118 622.828 39.6232 -7.56197
  119 744.775 -29.6445 -60.3468
  120 744.775 -29.6445 -60.3468
  121 1200.84 32.9086 -27.3060
  122 1200.84 32.9086 -27.3060
  123 145.305 -282.779 192.997
  124 145.305 -282.779 192.997
  125 677.112 23.2285 33.8232
  126 677.112 23.2285 33.8232
  127 172.069 -227.551 -211.195
  128 172.069 -227.551 -211.195
  129 882.183 -56.1704 156.148
  130 882.183 -56.1704 156.148
  131 1221.72 61.7440 -87.4764
  132 1221.72 61.7440 -87.4764
  133 66.1163 -403.981 -32.5645
  134 66.1163 -403.981 -32.5645
  135 80.4081 -383.728 87.5084
  136 80.4081 -383.728 87.5084
  137 733.432 6.92636 -17.0193
  138 733.432 6.92636 -17.0193
  139 701.225 23.6292 -1.23191
  140 701.225 23.6292 -1.23191
  141 716.144 11.9039 -0.154392
  142 716.144 11.9039 -0.154392
  143 734.700 -15.1111 52.1250
  144 734.700 -15.1111 52.1250
  145 520.825 -12.9394 123.407
  146 736.976 -69.1835 107.061
  147 519.542 30.6068 3.13835
  148 520.825 -12.9394 123.407
  149 736.976 -69.1835 107.061
  150 519.542 30.6068 3.13835
  151 668.385 12.1059 -54.2023
  152 668.385 12.1059 -54.2023
  153 1193.60 33.6763 21.6051
  154 1193.60 33.6763 21.6051
  155 1234.78 28.0524 52.4770
  156 1237.35 67.6541 110.891
  157 1234.78 28.0524 52.4770
  158 1237.35 67.6541 110.891
  159 722.960 8.02779 5.49003
  160 722.960 8.02779 5.49003
  161 464.092 -18.2435 -105.584
  162 464.092 -18.2435 -105.584
  163 722.988 7.81665 -5.38768
  164 722.988 7.81665 -5.38768
  165 726.913 9.54602 15.2799
  166 726.913 9.54602 15.2799
  167 846.454 -6.14372 15.6053
  168 824.418 -30.5445 -6.28349
  169 846.454 -6.14372 15.6053
  170 824.418 -30.5445 -6.28349
  171 905.323 -19.4740 -5.14769
  172 905.323 -19.4740 -5.14769
  173 701.491 21.5679 17.8915
  174 701.491 21.5679 17.8915
  175 359.825 -35.6833 145.493
  176 359.825 -35.6833 145.493
  177 322.430 -13.4430 -91.7564
  178 322.430 -13.4430 -91.7564
  179 707.038 23.2487 -17.1996
  180 707.038 23.2487 -17.1996
</Section>

newXOutput 220

<Section columns = "stress_xx | stress_yy | stress_xy">
  1 727.513 4.88542 -2.69781
  2 726.937 3.77346 2.41903
  3 727.513 4.88542 -2.69781
  4 726.937 3.77346 2.41903
  5 1031.50 54.9417 283.841
  6 1022.02 48.0188 -267.258
  7 1031.50 54.9417 283.841
  8 1022.02 48.0188 -267.258
  9 734.078 1.25759 -8.83519
  10 762.064 0.179429 -14.7775
  11 781.626 -9.23655 -20.7230
  12 823.104 -4.18512 8.56215
  13 827.336 25.9437 6.77529
  14 825.371 -3.96309 -11.2890
  15 788.978 -14.2225 20.8486
  16 753.240 3.28898 17.2759
  17 734.708 4.67431 7.74193
  18 723.590 8.03050 1.33983
  19 720.020 8.10343 -0.101240
  20 723.276 7.40072 -1.21864
  21 734.078 1.25759 -8.83519
  22 762.064 0.179429 -14.7775
  23 781.626 -9.23655 -20.7230
  24 823.104 -4.18512 8.56215
  25 827.336 25.9437 6.77529
  26 825.371 -3.96309 -11.2890
  27 788.978 -14.2225 20.8486
  28 753.240 3.28898 17.2759
  29 734.708 4.67431 7.74193
  30 723.590 8.03050 1.33983
  31 720.020 8.10343 -0.101240
  32 723.276 7.40072 -1.21864
  33 1495.04 13.6587 115.234
  34 1315.38 11.1174 73.8590
  35 1267.81 24.6658 28.4991
  36 1233.02 13.8439 -7.12563
  37 1294.19 4.45882 -27.7096
  38 1327.63 26.0675 -66.2970
  39 1383.83 101.893 -146.492
  40 351.530 -180.899 -332.354
  41 73.3792 -384.992 -147.564
  42 28.0667 -552.774 -49.4264
  43 17.6103 -591.375 -4.23753
  44 22.1157 -559.115 49.5265
  45 66.9482 -465.553 129.830
  46 286.977 -183.214 327.519
  47 1495.04 13.6587 115.234
  48 1315.38 11.1174 73.8590
  49 1267.81 24.6658 28.4991
  50 1233.02 13.8439 -7.12563
  51 1294.19 4.45882 -27.7096
  52 1327.63 26.0675 -66.2970
  53 1383.83 101.893 -146.492
  54 351.530 -180.899 -332.354
  55 73.3792 -384.992 -147.564
  56 28.0667 -552.774 -49.4264
  57 17.6103 -591.375 -4.23753
  58 22.1157 -559.115 49.5265
  59 66.9482 -465.553 129.830
  60 286.977 -183.214 327.519
  61 678.535 28.5008 -11.9991
  62 678.535 28.5008 -11.9991
  63 630.660 9.50568 66.8471
  64 612.808 4.41308 -81.3273
  65 630.660 9.50568 66.8471
  66 612.808 4.41308 -81.3273
  67 361.570 10.1792 23.0984
  68 361.570 10.1792 23.0984
  69 562.317 -106.361 229.378
  70 562.317 -106.361 229.378
  71 348.868 -98.3882 -187.590
  72 837.722 -72.1836 -43.7059
  73 930.873 54.2949 -5.49691
  74 890.506 25.9290 -4.82995
  75 348.868 -98.3882 -187.590
  76 837.722 -72.1836 -43.7059
  77 930.873 54.2949 -5.49691
  78 890.506 25.9290 -4.82995
  79 825.034 -38.8302 21.8299
  80 825.034 -38.8302 21.8299
  81 1050.78 78.0826 7.25471
  82 1050.78 78.0826 7.25471
  83 189.738 -113.650 -16.4318
  84 189.738 -113.650 -16.4318
  85 240.910 -155.126 165.873
  86 240.910 -155.126 165.873
  87 886.225 -50.0519 36.5724
  88 886.225 -50.0519 36.5724
  89 715.385 15.5049 9.59397
  90 718.109 16.9978 -9.78296
  91 715.385 15.5049 9.59397
  92 718.109 16.9978 -9.78296
  93 1010.71 57.3807 44.8084
  94 1010.71 57.3807 44.8084
  95 737.633 6.87348 29.4498
  96 737.633 6.87348 29.4498
  97 1085.88 80.5907 -41.6194
  98 1095.12 71.0080 -88.8706
  99 1085.88 80.5907 -41.6194
  100 1095.12 71.0080 -88.8706
  101 720.918 11.1083 -36.5459
  102 720.918 11.1083 -36.5459
  103 575.489 -106.148 -276.619
  104 575.489 -106.148 -276.619
  105 489.511 -123.234 293.708
  106 489.511 -123.234 293.708
  107 898.054 -66.2734 -110.846
  108 898.054 -66.2734 -110.846
  109 682.241 -85.6844 -158.007
  110 682.241 -85.6844 -158.007
  111 1142.95 79.9935 62.0412
  112 1142.95 79.9935 62.0412
  113 92.8188 -294.908 -114.592
  114 92.8188 -294.908 -114.592
  115 53.2085 -351.502 35.1216
  116 53.2085 -351.502 35.1216
  117 625.495 39.7923 -7.59187
  118 625.495 39.7923 -7.59187
  119 747.882 -29.7722 -60.6069
  120 747.882 -29.7722 -60.6069
  121 1205.57 33.0328 -27.4127
  122 1205.57 33.0328 -27.4127
  123 145.932 -283.917 193.955
  124 145.932 -283.917 193.955
  125 679.982 23.3253 33.9589
  126 679.982 23.3253 33.9589
  127 172.814 -228.453 -212.221
  128 172.814 -228.453 -212.221
  129 885.762 -56.3688 156.878
  130 885.762 -56.3688 156.878
  131 1226.53 61.9951 -87.8445
  132 1226.53 61.9951 -87.8445
  133 66.3988 -405.745 -32.7276
  134 66.3988 -405.745 -32.7276
  135 80.7539 -385.369 87.9683
  136 80.7539 -385.369 87.9683
  137 736.503 6.95391 -17.0848
  138 736.503 6.95391 -17.0848
  139 704.187 23.7240 -1.23672
  140 704.187 23.7240 -1.23672
  141 719.157 11.9504 -0.154951
  142 719.157 11.9504 -0.154951
  143 737.773 -15.1766 52.3441
  144 737.773 -15.1766 52.3441
  145 523.071 -12.9893 123.934
  146 740.037 -69.4788 107.534
  147 521.806 30.7443 3.15363
  148 523.071 -12.9893 123.934
  149 740.037 -69.4788 107.534
  150 521.806 30.7443 3.15363
  151 671.219 12.1572 -54.4227
  152 671.219 12.1572 -54.4227
  153 1198.31 33.8015 21.6942
  154 1198.31 33.8015 21.6942
  155 1239.62 28.1579 52.6841
  156 1242.20 67.9709 111.376
  157 1239.62 28.1579 52.6841
  158 1242.20 67.9709 111.376
  159 725.995 8.05926 5.50973
  160 725.995 8.05926 5.50973
  161 466.113 -18.3147 -106.038
  162 466.113 -18.3147 -106.038
  163 726.023 7.84729 -5.40700
  164 726.023 7.84729 -5.40700
  165 729.961 9.58422 15.3369
  166 729.961 9.58422 15.3369
  167 849.975 -6.16268 15.6339
  168 827.830 -30.6763 -6.33351
  169 849.975 -6.16268 15.6339
  170 827.830 -30.6763 -6.33351
  171 909.044 -19.5336 -5.23521
  172 909.044 -19.5336 -5.23521
  173 704.452 21.6555 17.9603
  174 704.452 21.6555 17.9603
  175 361.403 -35.8176 146.136
  176 361.403 -35.8176 146.136
  177 323.865 -13.4745 -92.1608
  178 323.865 -13.4745 -92.1608
  179 710.020 23.3431 -17.2662
  180 710.020 23.3431 -17.2662
</Section>

newXOutput 221

<Section columns = "stress_xx | stress_yy | stress_xy">
  1 730.550 4.90436 -2.70735
  2 729.972 3.78798 2.42752
  3 730.550 4.90436 -2.70735
  4 729.972 3.78798 2.42752
  5 1035.49 55.3106 285.086
  6 1026.02 48.3612 -268.451
  7 1035.49 55.3106 285.086
  8 1026.02 48.3612 -268.451
  9 737.136 1.26173 -8.86785
  10 765.219 0.180301 -14.8337
  11 784.859 -9.27724 -20.8125
  12 826.518 -4.20255 8.57811
  13 830.799 26.0572 6.79732
  14 828.794 -3.97813 -11.3115
  15 792.237 -14.2842 20.9396
  16 756.365 3.30181 17.3416
  17 737.768 4.69269 7.76971
  18 726.615 8.06140 1.34455
  19 723.033 8.13444 -0.101580
  20 726.300 7.42915 -1.22294
  21 737.136 1.26173 -8.86785
  22 765.219 0.180301 -14.8337
  23 784.859 -9.27724 -20.8125
  24 826.518 -4.20255 8.57811
  25 830.799 26.0572 6.79732
  26 828.794 -3.97813 -11.3115
  27 792.237 -14.2842 20.9396
  28 756.365 3.30181 17.3416
  29 737.768 4.69269 7.76971
  30 726.615 8.06140 1.34455
  31 723.033 8.13444 -0.101580
  32 726.300 7.42915 -1.22294
  33 1500.68 13.7187 115.697
  34 1320.44 11.1469 74.1502
  35 1272.71 24.7584 28.6055
  36 1237.81 13.8898 -7.15032
  37 1299.15 4.47434 -27.8151
  38 1332.73 26.1720 -66.5531
  39 1389.14 102.350 -147.108
  40 352.937 -181.489 -333.884
  41 73.6894 -386.576 -148.310
  42 28.1792 -555.235 -49.6913
  43 17.6705 -594.044 -4.25510
  44 22.1967 -561.599 49.7901
  45 67.2293 -467.513 130.501
  46 288.130 -183.813 329.035
  47 1500.68 13.7187 115.697
  48 1320.44 11.1469 74.1502
  49 1272.71 24.7584 28.6055
  50 1237.81 13.8898 -7.15032
  51 1299.15 4.47434 -27.8151
  52 1332.73 26.1720 -66.5531
  53 1389.14 102.350 -147.108
  54 352.937 -181.489 -333.884
  55 73.6894 -386.576 -148.310
  56 28.1792 -555.235 -49.6913
  57 17.6705 -594.044 -4.25510
  58 22.1967 -561.599 49.7901
  59 67.2293 -467.513 130.501
  60 288.130 -183.813 329.035
  61 681.401 28.6181 -12.0467
  62 681.401 28.6181 -12.0467
  63 633.335 9.54798 67.1242
  64 615.411 4.43372 -81.6643
  65 633.335 9.54798 67.1242
  66 615.411 4.43372 -81.6643
  67 363.173 10.2425 23.1986
  68 363.173 10.2425 23.1986
  69 564.655 -106.818 230.385
  70 564.655 -106.818 230.385
  71 350.366 -98.7881 -188.438
  72 841.157 -72.4854 -43.9278
  73 934.703 54.5323 -5.54804
  74 894.181 26.0454 -4.81606
  75 350.366 -98.7881 -188.438
  76 841.157 -72.4854 -43.9278
  77 934.703 54.5323 -5.54804
  78 894.181 26.0454 -4.81606
  79 828.432 -38.9930 21.9494
  80 828.432 -38.9930 21.9494
  81 1055.03 78.4015 7.29610
  82 1055.03 78.4015 7.29610
  83 190.584 -114.097 -16.5090
  84 190.584 -114.097 -16.5090
  85 241.944 -155.757 166.649
  86 241.944 -155.757 166.649
  87 889.845 -50.2466 36.7855
  88 889.845 -50.2466 36.7855
  89 718.383 15.5661 9.62917
  90 721.116 17.0653 -9.81887
  91 718.383 15.5661 9.62917
  92 721.116 17.0653 -9.81887
  93 1014.81 57.6473 45.0540
  94 1014.81 57.6473 45.0540
  95 740.706 6.90052 29.5655
  96 740.706 6.90052 29.5655
  97 1090.25 80.9207 -41.8115
  98 1099.49 71.3437 -89.2936
  99 1090.25 80.9207 -41.8115
  100 1099.49 71.3437 -89.2936
  101 723.933 11.1531 -36.6918
  102 723.933 11.1531 -36.6918
  103 577.815 -106.523 -277.871
  104 577.815 -106.523 -277.871
  105 491.499 -123.680 295.047
  106 491.499 -123.680 295.047
  107 901.683 -66.5143 -111.387
  108 901.683 -66.5143 -111.387
  109 685.068 -86.0494 -158.696
  110 685.068 -86.0494 -158.696
  111 1147.50 80.3258 62.3127
  112 1147.50 80.3258 62.3127
  113 93.2240 -296.146 -115.159
  114 93.2240 -296.146 -115.159
  115 53.4363 -353.011 35.3024
  116 53.4363 -353.011 35.3024
  117 628.161 39.9613 -7.62174
  118 628.161 39.9613 -7.62174
  119 750.987 -29.8998 -60.8670
  120 750.987 -29.8998 -60.8670
  121 1210.30 33.1569 -27.5193
  122 1210.30 33.1569 -27.5193
  123 146.559 -285.053 194.914
  124 146.559 -285.053 194.914
  125 682.850 23.4220 34.0946
  126 682.850 23.4220 34.0946
  127 173.559 -229.354 -213.247
  128 173.559 -229.354 -213.247
  129 889.337 -56.5668 157.607
  130 889.337 -56.5668 157.607
  131 1231.33 62.2460 -88.2123
  132 1231.33 62.2460 -88.2123
  133 66.6810 -407.510 -32.8908
  134 66.6810 -407.510 -32.8908
  135 81.0995 -387.009 88.4288
  136 81.0995 -387.009 88.4288
  137 739.572 6.98142 -17.1501
  138 739.572 6.98142 -17.1501
  139 707.147 23.8187 -1.24151
  140 707.147 23.8187 -1.24151
  141 722.168 11.9968 -0.155509
  142 722.168 11.9968 -0.155509
  143 740.843 -15.2421 52.5630
  144 740.843 -15.2421 52.5630
  145 525.315 -13.0391 124.461
  146 743.094 -69.7740 108.006
  147 524.069 30.8818 3.16892
  148 525.315 -13.0391 124.461
  149 743.094 -69.7740 108.006
  150 524.069 30.8818 3.16892
  151 674.050 12.2084 -54.6428
  152 674.050 12.2084 -54.6428
  153 1203.01 33.9265 21.7832
  154 1203.01 33.9265 21.7832
  155 1244.46 28.2632 52.8910
  156 1247.05 68.2877 111.860
  157 1244.46 28.2632 52.8910
  158 1247.05 68.2877 111.860
  159 729.028 8.09069 5.52940
  160 729.028 8.09069 5.52940
  161 468.133 -18.3858 -106.492
  162 468.133 -18.3858 -106.492
  163 729.055 7.87788 -5.42627
  164 729.055 7.87788 -5.42627
  165 733.007 9.62237 15.3937
  166 733.007 9.62237 15.3937
  167 853.492 -6.18157 15.6623
  168 831.238 -30.8080 -6.38367
  169 853.492 -6.18157 15.6623
  170 831.238 -30.8080 -6.38367
  171 912.762 -19.5930 -5.32321
  172 912.762 -19.5930 -5.32321
  173 707.412 21.7429 18.0289
  174 707.412 21.7429 18.0289
  175 362.981 -35.9517 146.779
  176 362.981 -35.9517 146.779
  177 325.300 -13.5059 -92.5651
  178 325.300 -13.5059 -92.5651
  179 713.000 23.4375 -17.3327
  180 713.000 23.4375 -17.3327
</Section>

newXOutput 222

<Section columns = "stress_xx | stress_yy | stress_xy">
  1 733.585 4.92328 -2.71686
  2 733.004 3.80247 2.43599
  3 733.585 4.92328 -2.71686
  4 733.004 3.80247 2.43599
  5 1039.48 55.6804 286.330
  6 1030.01 48.7046 -269.644
  7 1039.48 55.6804 286.330
  8 1030.01 48.7046 -269.644
  9 740.192 1.26586 -8.90046
  10 768.370 0.181173 -14.8898
  11 788.090 -9.31792 -20.9018
  12 829.928 -4.21996 8.59389
  13 834.259 26.1707 6.81927
  14 832.215 -3.99314 -11.3338
  15 795.492 -14.3459 21.0306
  16 759.487 3.31463 17.4073
  17 740.826 4.71104 7.79743
  18 729.638 8.09225 1.34925
  19 726.045 8.16541 -0.101920
  20 729.321 7.45753 -1.22723
  21 740.192 1.26586 -8.90046
  22 768.370 0.181173 -14.8898
  23 788.090 -9.31792 -20.9018
  24 829.928 -4.21996 8.59389
  25 834.259 26.1707 6.81927
  26 832.215 -3.99314 -11.3338
  27 795.492 -14.3459 21.0306
  28 759.487 3.31463 17.4073
  29 740.826 4.71104 7.79743
  30 729.638 8.09225 1.34925
  31 726.045 8.16541 -0.101920
  32 729.321 7.45753 -1.22723
  33 1506.32 13.7788 116.159
  34 1325.49 11.1762 74.4410
  35 1277.60 24.8509 28.7118
  36 1242.59 13.9357 -7.17496
  37 1304.10 4.48982 -27.9204
  38 1337.82 26.2764 -66.8087
  39 1394.45 102.807 -147.723
  40 354.342 -182.077 -335.414
  41 73.9994 -388.158 -149.057
  42 28.2914 -557.697 -49.9565
  43 17.7306 -596.713 -4.27266
  44 22.2775 -564.083 50.0539
  45 67.5101 -469.472 131.172
  46 289.282 -184.410 330.552
  47 1506.32 13.7788 116.159
  48 1325.49 11.1762 74.4410
  49 1277.60 24.8509 28.7118
  50 1242.59 13.9357 -7.17496
  51 1304.10 4.48982 -27.9204
  52 1337.82 26.2764 -66.8087
  53 1394.45 102.807 -147.723
  54 354.342 -182.077 -335.414
  55 73.9994 -388.158 -149.057
  56 28.2914 -557.697 -49.9565
  57 17.7306 -596.713 -4.27266
  58 22.2775 -564.083 50.0539
  59 67.5101 -469.472 131.172
  60 289.282 -184.410 330.552
  61 684.265 28.7353 -12.0941
  62 684.265 28.7353 -12.0941
  63 636.008 9.59027 67.4011
  64 618.011 4.45437 -82.0010
  65 636.008 9.59027 67.4011
  66 618.011 4.45437 -82.0010
  67 364.775 10.3060 23.2988
  68 364.775 10.3060 23.2988
  69 566.991 -107.275 231.392
  70 566.991 -107.275 231.392
  71 351.864 -99.1875 -189.287
  72 844.588 -72.7871 -44.1499
  73 938.529 54.7696 -5.59937
  74 897.852 26.1619 -4.80190
  75 351.864 -99.1875 -189.287
  76 844.588 -72.7871 -44.1499
  77 938.529 54.7696 -5.59937
  78 897.852 26.1619 -4.80190
  79 831.828 -39.1556 22.0690
  80 831.828 -39.1556 22.0690
  81 1059.27 78.7201 7.33753
  82 1059.27 78.7201 7.33753
  83 191.430 -114.543 -16.5862
  84 191.430 -114.543 -16.5862
  85 242.976 -156.387 167.426
  86 242.976 -156.387 167.426
  87 893.461 -50.4410 36.9990
  88 893.461 -50.4410 36.9990
  89 721.378 15.6272 9.66429
  90 724.121 17.1327 -9.85471
  91 721.378 15.6272 9.66429
  92 724.121 17.1327 -9.85471
  93 1018.89 57.9139 45.2998
  94 1018.89 57.9139 45.2998
  95 743.776 6.92752 29.6811
  96 743.776 6.92752 29.6811
  97 1094.62 81.2504 -42.0035
  98 1103.86 71.6796 -89.7167
  99 1094.62 81.2504 -42.0035
  100 1103.86 71.6796 -89.7167
  101 726.946 11.1979 -36.8375
  102 726.946 11.1979 -36.8375
  103 580.139 -106.897 -279.122
  104 580.139 -106.897 -279.122
  105 493.485 -124.124 296.386
  106 493.485 -124.124 296.386
  107 905.307 -66.7547 -111.929
  108 905.307 -66.7547 -111.929
  109 687.891 -86.4142 -159.385
  110 687.891 -86.4142 -159.385
  111 1152.04 80.6578 62.5842
  112 1152.04 80.6578 62.5842
  113 93.6290 -297.382 -115.726
  114 93.6290 -297.382 -115.726
  115 53.6639 -354.520 35.4833
  116 53.6639 -354.520 35.4833
  117 630.825 40.1301 -7.65156
  118 630.825 40.1301 -7.65156
  119 754.089 -30.0274 -61.1268
  120 754.089 -30.0274 -61.1268
  121 1215.01 33.2808 -27.6257
  122 1215.01 33.2808 -27.6257
  123 147.185 -286.188 195.873
  124 147.185 -286.188 195.873
  125 685.716 23.5186 34.2300
  126 685.716 23.5186 34.2300
  127 174.304 -230.253 -214.273
  128 174.304 -230.253 -214.273
  129 892.908 -56.7643 158.336
  130 892.908 -56.7643 158.336
  131 1236.12 62.4965 -88.5797
  132 1236.12 62.4965 -88.5797
  133 66.9631 -409.273 -33.0541
  134 66.9631 -409.273 -33.0541
  135 81.4450 -388.648 88.8898
  136 81.4450 -388.648 88.8898
  137 742.638 7.00890 -17.2153
  138 742.638 7.00890 -17.2153
  139 710.105 23.9133 -1.24630
  140 710.105 23.9133 -1.24630
  141 725.176 12.0432 -0.156065
  142 725.176 12.0432 -0.156065
  143 743.911 -15.3075 52.7817
  144 743.911 -15.3075 52.7817
  145 527.558 -13.0889 124.987
  146 746.149 -70.0690 108.479
  147 526.331 31.0193 3.18421
  148 527.558 -13.0889 124.987
  149 746.149 -70.0690 108.479
  150 526.331 31.0193 3.18421
  151 676.879 12.2596 -54.8627
  152 676.879 12.2596 -54.8627
  153 1207.71 34.0512 21.8720
  154 1207.71 34.0512 21.8720
  155 1249.30 28.3684 53.0975
  156 1251.90 68.6046 112.344
  157 1249.30 28.3684 53.0975
  158 1251.90 68.6046 112.344
  159 732.058 8.12208 5.54901
  160 732.058 8.12208 5.54901
  161 470.152 -18.4568 -106.945
  162 470.152 -18.4568 -106.945
  163 732.085 7.90844 -5.44549
  164 732.085 7.90844 -5.44549
  165 736.051 9.66048 15.4505
  166 736.051 9.66048 15.4505
  167 857.006 -6.20038 15.6903
  168 834.643 -30.9397 -6.43400
  169 857.006 -6.20038 15.6903
  170 834.643 -30.9397 -6.43400
  171 916.477 -19.6522 -5.41169
  172 916.477 -19.6522 -5.41169
  173 710.369 21.8303 18.0974
  174 710.369 21.8303 18.0974
  175 364.558 -36.0855 147.422
  176 364.558 -36.0855 147.422
  177 326.734 -13.5370 -92.9692
  178 326.734 -13.5370 -92.9692
  179 715.977 23.5318 -17.3991
  180 715.977 23.5318 -17.3991
</Section>

newXOutput 223

<Section columns = "stress_xx | stress_yy | stress_xy">
  1 736.617 4.94217 -2.72636
  2 736.034 3.81694 2.44444
  3 736.617 4.94217 -2.72636
  4 736.034 3.81694 2.44444
  5 1043.46 56.0511 287.573
  6 1033.99 49.0490 -270.836
  7 1043.46 56.0511 287.573
  8 1033.99 49.0490 -270.836
  9 743.245 1.26997 -8.93300
  10 771.520 0.182047 -14.9459
  11 791.317 -9.35859 -20.9912
  12 833.336 -4.23736 8.60951
  13 837.716 26.2842 6.84115
  14 835.632 -4.00813 -11.3559
  15 798.745 -14.4076 21.1215
  16 762.606 3.32743 17.4728
  17 743.881 4.72938 7.82509
  18 732.658 8.12306 1.35394
  19 729.054 8.19633 -0.102258
  20 732.341 7.48587 -1.23150
  21 743.245 1.26997 -8.93300
  22 771.520 0.182047 -14.9459
  23 791.317 -9.35859 -20.9912
  24 833.336 -4.23736 8.60951
  25 837.716 26.2842 6.84115
  26 835.632 -4.00813 -11.3559
  27 798.745 -14.4076 21.1215
  28 762.606 3.32743 17.4728
  29 743.881 4.72938 7.82509
  30 732.658 8.12306 1.35394
  31 729.054 8.19633 -0.102258
  32 732.341 7.48587 -1.23150
  33 1511.94 13.8388 116.621
  34 1330.53 11.2054 74.7315
  35 1282.48 24.9433 28.8178
  36 1247.37 13.9814 -7.19954
  37 1309.05 4.50528 -28.0255
  38 1342.90 26.3807 -67.0641
  39 1399.75 103.264 -148.338
  40 355.745 -182.662 -336.944
  41 74.3092 -389.739 -149.805
  42 28.4036 -560.158 -50.2220
  43 17.7906 -599.382 -4.29021
  44 22.3581 -566.566 50.3181
  45 67.7907 -471.429 131.844
  46 290.433 -185.005 332.069
  47 1511.94 13.8388 116.621
  48 1330.53 11.2054 74.7315
  49 1282.48 24.9433 28.8178
  50 1247.37 13.9814 -7.19954
  51 1309.05 4.50528 -28.0255
  52 1342.90 26.3807 -67.0641
  53 1399.75 103.264 -148.338
  54 355.745 -182.662 -336.944
  55 74.3092 -389.739 -149.805
  56 28.4036 -560.158 -50.2220
  57 17.7906 -599.382 -4.29021
  58 22.3581 -566.566 50.3181
  59 67.7907 -471.429 131.844
  60 290.433 -185.005 332.069
  61 687.128 28.8525 -12.1416
  62 687.128 28.8525 -12.1416
  63 638.679 9.63255 67.6777
  64 620.610 4.47502 -82.3374
  65 638.679 9.63255 67.6777
  66 620.610 4.47502 -82.3374
  67 366.377 10.3695 23.3990
  68 366.377 10.3695 23.3990
  69 569.325 -107.731 232.398
  70 569.325 -107.731 232.398
  71 353.361 -99.5866 -190.135
  72 848.015 -73.0884 -44.3721
  73 942.352 55.0068 -5.65087
  74 901.521 26.2783 -4.78747
  75 353.361 -99.5866 -190.135
  76 848.015 -73.0884 -44.3721
  77 942.352 55.0068 -5.65087
  78 901.521 26.2783 -4.78747
  79 835.220 -39.3182 22.1887
  80 835.220 -39.3182 22.1887
  81 1063.51 79.0384 7.37902
  82 1063.51 79.0384 7.37902
  83 192.275 -114.989 -16.6635
  84 192.275 -114.989 -16.6635
  85 244.009 -157.016 168.202
  86 244.009 -157.016 168.202
  87 897.073 -50.6352 37.2129
  88 897.073 -50.6352 37.2129
  89 724.372 15.6883 9.69935
  90 727.124 17.2000 -9.89048
  91 724.372 15.6883 9.69935
  92 727.124 17.2000 -9.89048
  93 1022.98 58.1805 45.5459
  94 1022.98 58.1805 45.5459
  95 746.844 6.95448 29.7965
  96 746.844 6.95448 29.7965
  97 1098.98 81.5798 -42.1956
  98 1108.22 72.0155 -90.1398
  99 1098.98 81.5798 -42.1956
  100 1108.22 72.0155 -90.1398
  101 729.956 11.2427 -36.9830
  102 729.956 11.2427 -36.9830
  103 582.461 -107.270 -280.374
  104 582.461 -107.270 -280.374
  105 495.469 -124.567 297.725
  106 495.469 -124.567 297.725
  107 908.928 -66.9946 -112.470
  108 908.928 -66.9946 -112.470
  109 690.713 -86.7787 -160.074
  110 690.713 -86.7787 -160.074
  111 1156.58 80.9896 62.8555
  112 1156.58 80.9896 62.8555
  113 94.0339 -298.618 -116.293
  114 94.0339 -298.618 -116.293
  115 53.8915 -356.028 35.6643
  116 53.8915 -356.028 35.6643
  117 633.488 40.2988 -7.68135
  118 633.488 40.2988 -7.68135
  119 757.188 -30.1548 -61.3865
  120 757.188 -30.1548 -61.3865
  121 1219.72 33.4045 -27.7320
  122 1219.72 33.4045 -27.7320
  123 147.811 -287.321 196.832
  124 147.811 -287.321 196.832
  125 688.580 23.6152 34.3653
  126 688.580 23.6152 34.3653
  127 175.048 -231.152 -215.299
  128 175.048 -231.152 -215.299
  129 896.475 -56.9612 159.065
  130 896.475 -56.9612 159.065
  131 1240.91 62.7469 -88.9468
  132 1240.91 62.7469 -88.9468
  133 67.2450 -411.035 -33.2176
  134 67.2450 -411.035 -33.2176
  135 81.7902 -390.286 89.3512
  136 81.7902 -390.286 89.3512
  137 745.701 7.03635 -17.2805
  138 745.701 7.03635 -17.2805
  139 713.061 24.0078 -1.25108
  140 713.061 24.0078 -1.25108
  141 728.182 12.0895 -0.156621
  142 728.182 12.0895 -0.156621
  143 746.977 -15.3730 53.0003
  144 746.977 -15.3730 53.0003
  145 529.799 -13.1385 125.513
  146 749.201 -70.3638 108.951
  147 528.591 31.1568 3.19951
  148 529.799 -13.1385 125.513
  149 749.201 -70.3638 108.951
  150 528.591 31.1568 3.19951
  151 679.706 12.3108 -55.0824
  152 679.706 12.3108 -55.0824
  153 1212.41 34.1758 21.9608
  154 1212.41 34.1758 21.9608
  155 1254.13 28.4733 53.3038
  156 1256.73 68.9215 112.828
  157 1254.13 28.4733 53.3038
  158 1256.73 68.9215 112.828
  159 735.085 8.15342 5.56859
  160 735.085 8.15342 5.56859
  161 472.170 -18.5278 -107.398
  162 472.170 -18.5278 -107.398
  163 735.113 7.93895 -5.46468
  164 735.113 7.93895 -5.46468
  165 739.092 9.69854 15.5072
  166 739.092 9.69854 15.5072
  167 860.517 -6.21911 15.7180
  168 838.045 -31.0713 -6.48447
  169 860.517 -6.21911 15.7180
  170 838.045 -31.0713 -6.48447
  171 920.188 -19.7111 -5.50064
  172 920.188 -19.7111 -5.50064
  173 713.324 21.9176 18.1658
  174 713.324 21.9176 18.1658
  175 366.134 -36.2192 148.065
  176 366.134 -36.2192 148.065
  177 328.167 -13.5679 -93.3732
  178 328.167 -13.5679 -93.3732
  179 718.953 23.6260 -17.4654
  180 718.953 23.6260 -17.4654
</Section>

newXOutput 224

<Section columns = "stress_xx | stress_yy | stress_xy">
  1 739.646 4.96103 -2.73583
  2 739.062 3.83139 2.45287
  3 739.646 4.96103 -2.73583
  4 739.062 3.83139 2.45287
  5 1047.44 56.4228 288.816
  6 1037.97 49.3943 -272.028
  7 1047.44 56.4228 288.816
  8 1037.97 49.3943 -272.028
  9 746.296 1.27407 -8.96549
  10 774.666 0.182920 -15.0018
  11 794.542 -9.39924 -21.0805
  12 836.741 -4.25475 8.62495
  13 841.170 26.3976 6.86297
  14 839.047 -4.02309 -11.3778
  15 801.995 -14.4692 21.2123
  16 765.723 3.34021 17.5382
  17 746.934 4.74769 7.85270
  18 735.676 8.15382 1.35862
  19 732.061 8.22720 -0.102595
  20 735.357 7.51416 -1.23577
  21 746.296 1.27407 -8.96549
  22 774.666 0.182920 -15.0018
  23 794.542 -9.39924 -21.0805
  24 836.741 -4.25475 8.62495
  25 841.170 26.3976 6.86297
  26 839.047 -4.02309 -11.3778
  27 801.995 -14.4692 21.2123
  28 765.723 3.34021 17.5382
  29 746.934 4.74769 7.85270
  30 735.676 8.15382 1.35862
  31 732.061 8.22720 -0.102595
  32 735.357 7.51416 -1.23577
  33 1517.56 13.8988 117.082
  34 1335.57 11.2344 75.0215
  35 1287.36 25.0355 28.9236
  36 1252.13 14.0270 -7.22406
  37 1313.99 4.52069 -28.1305
  38 1347.98 26.4849 -67.3190
  39 1405.04 103.720 -148.952
  40 357.147 -183.246 -338.474
  41 74.6187 -391.318 -150.553
  42 28.5156 -562.618 -50.4879
  43 17.8503 -602.050 -4.30773
  44 22.4386 -569.048 50.5827
  45 68.0711 -473.384 132.516
  46 291.582 -185.598 333.585
  47 1517.56 13.8988 117.082
  48 1335.57 11.2344 75.0215
  49 1287.36 25.0355 28.9236
  50 1252.13 14.0270 -7.22406
  51 1313.99 4.52069 -28.1305
  52 1347.98 26.4849 -67.3190
  53 1405.04 103.720 -148.952
  54 357.147 -183.246 -338.474
  55 74.6187 -391.318 -150.553
  56 28.5156 -562.618 -50.4879
  57 17.8503 -602.050 -4.30773
  58 22.4386 -569.048 50.5827
  59 68.0711 -473.384 132.516
  60 291.582 -185.598 333.585
  61 689.989 28.9695 -12.1889
  62 689.989 28.9695 -12.1889
  63 641.349 9.67482 67.9541
  64 623.208 4.49567 -82.6735
  65 641.349 9.67482 67.9541
  66 623.208 4.49567 -82.6735
  67 367.979 10.4332 23.4991
  68 367.979 10.4332 23.4991
  69 571.657 -108.188 233.404
  70 571.657 -108.188 233.404
  71 354.857 -99.9853 -190.983
  72 851.440 -73.3896 -44.5945
  73 946.172 55.2439 -5.70257
  74 905.186 26.3948 -4.77277
  75 354.857 -99.9853 -190.983
  76 851.440 -73.3896 -44.5945
  77 946.172 55.2439 -5.70257
  78 905.186 26.3948 -4.77277
  79 838.610 -39.4806 22.3085
  80 838.610 -39.4806 22.3085
  81 1067.74 79.3564 7.42056
  82 1067.74 79.3564 7.42056
  83 193.120 -115.435 -16.7407
  84 193.120 -115.435 -16.7407
  85 245.041 -157.645 168.978
  86 245.041 -157.645 168.978
  87 900.682 -50.8290 37.4270
  88 900.682 -50.8290 37.4270
  89 727.363 15.7493 9.73434
  90 730.124 17.2672 -9.92618
  91 727.363 15.7493 9.73434
  92 730.124 17.2672 -9.92618
  93 1027.06 58.4472 45.7922
  94 1027.06 58.4472 45.7922
  95 749.909 6.98141 29.9118
  96 749.909 6.98141 29.9118
  97 1103.34 81.9089 -42.3875
  98 1112.58 72.3515 -90.5629
  99 1103.34 81.9089 -42.3875
  100 1112.58 72.3515 -90.5629
  101 732.964 11.2874 -37.1284
  102 732.964 11.2874 -37.1284
  103 584.780 -107.642 -281.625
  104 584.780 -107.642 -281.625
  105 497.451 -125.009 299.064
  106 497.451 -125.009 299.064
  107 912.545 -67.2339 -113.012
  108 912.545 -67.2339 -113.012
  109 693.531 -87.1430 -160.762
  110 693.531 -87.1430 -160.762
  111 1161.11 81.3211 63.1266
  112 1161.11 81.3211 63.1266
  113 94.4386 -299.852 -116.861
  114 94.4386 -299.852 -116.861
  115 54.1189 -357.536 35.8456
  116 54.1189 -357.536 35.8456
  117 636.149 40.4675 -7.71109
  118 636.149 40.4675 -7.71109
  119 760.285 -30.2822 -61.6461
  120 760.285 -30.2822 -61.6461
  121 1224.43 33.5280 -27.8381
  122 1224.43 33.5280 -27.8381
  123 148.437 -288.453 197.793
  124 148.437 -288.453 197.793
  125 691.442 23.7116 34.5004
  126 691.442 23.7116 34.5004
  127 175.791 -232.049 -216.327
  128 175.791 -232.049 -216.327
  129 900.038 -57.1578 159.794
  130 900.038 -57.1578 159.794
  131 1245.69 62.9970 -89.3136
  132 1245.69 62.9970 -89.3136
  133 67.5267 -412.797 -33.3812
  134 67.5267 -412.797 -33.3812
  135 82.1352 -391.923 89.8132
  136 82.1352 -391.923 89.8132
  137 748.762 7.06376 -17.3455
  138 748.762 7.06376 -17.3455
  139 716.015 24.1022 -1.25586
  140 716.015 24.1022 -1.25586
  141 731.186 12.1358 -0.157175
  142 731.186 12.1358 -0.157175
  143 750.040 -15.4384 53.2187
  144 750.040 -15.4384 53.2187
  145 532.040 -13.1882 126.039
  146 752.251 -70.6584 109.423
  147 530.851 31.2942 3.21481
  148 532.040 -13.1882 126.039
  149 752.251 -70.6584 109.423
  150 530.851 31.2942 3.21481
  151 682.531 12.3619 -55.3018
  152 682.531 12.3619 -55.3018
  153 1217.10 34.3001 22.0495
  154 1217.10 34.3001 22.0495
  155 1258.95 28.5781 53.5098
  156 1261.56 69.2384 113.311
  157 1258.95 28.5781 53.5098
  158 1261.56 69.2384 113.311
  159 738.111 8.18472 5.58812
  160 738.111 8.18472 5.58812
  161 474.187 -18.5986 -107.851
  162 474.187 -18.5986 -107.851
  163 738.138 7.96942 -5.48383
  164 738.138 7.96942 -5.48383
  165 742.130 9.73656 15.5637
  166 742.130 9.73656 15.5637
  167 864.025 -6.23776 15.7453
  168 841.444 -31.2028 -6.53510
  169 864.025 -6.23776 15.7453
  170 841.444 -31.2028 -6.53510
  171 923.895 -19.7698 -5.59006
  172 923.895 -19.7698 -5.59006
  173 716.277 22.0047 18.2341
  174 716.277 22.0047 18.2341
  175 367.710 -36.3525 148.707
  176 367.710 -36.3525 148.707
  177 329.601 -13.5986 -93.7770
  178 329.601 -13.5986 -93.7770
  179 721.926 23.7200 -17.5316
  180 721.926 23.7200 -17.5316
</Section>

newXOutput 225

<Section columns = "stress_xx | stress_yy | stress_xy">
  1 742.673 4.97986 -2.74528
  2 742.087 3.84582 2.46129
  3 742.673 4.97986 -2.74528
  4 742.087 3.84582 2.46129
  5 1051.41 56.7954 290.058
  6 1041.95 49.7406 -273.219
  7 1051.41 56.7954 290.058
  8 1041.95 49.7406 -273.219
  9 749.344 1.27817 -8.99791
  10 777.810 0.183795 -15.0576
  11 797.765 -9.43988 -21.1697
  12 840.143 -4.27212 8.64022
  13 844.622 26.5110 6.88471
  14 842.459 -4.03803 -11.3994
  15 805.243 -14.5308 21.3032
  16 768.837 3.35297 17.6036
  17 749.984 4.76597 7.88024
  18 738.692 8.18453 1.36329
  19 735.066 8.25803 -0.102932
  20 738.372 7.54241 -1.24002
  21 749.344 1.27817 -8.99791
  22 777.810 0.183795 -15.0576
  23 797.765 -9.43988 -21.1697
  24 840.143 -4.27212 8.64022
  25 844.622 26.5110 6.88471
  26 842.459 -4.03803 -11.3994
  27 805.243 -14.5308 21.3032
  28 768.837 3.35297 17.6036
  29 749.984 4.76597 7.88024
  30 738.692 8.18453 1.36329
  31 735.066 8.25803 -0.102932
  32 738.372 7.54241 -1.24002
  33 1523.16 13.9588 117.543
  34 1340.60 11.2632 75.3112
  35 1292.23 25.1276 29.0293
  36 1256.90 14.0725 -7.24852
  37 1318.92 4.53608 -28.2353
  38 1353.04 26.5890 -67.5735
  39 1410.32 104.177 -149.565
  40 358.547 -183.828 -340.003
  41 74.9279 -392.896 -151.302
  42 28.6275 -565.077 -50.7542
  43 17.9099 -604.718 -4.32524
  44 22.5189 -571.529 50.8476
  45 68.3512 -475.338 133.189
  46 292.730 -186.189 335.102
  47 1523.16 13.9588 117.543
  48 1340.60 11.2632 75.3112
  49 1292.23 25.1276 29.0293
  50 1256.90 14.0725 -7.24852
  51 1318.92 4.53608 -28.2353
  52 1353.04 26.5890 -67.5735
  53 1410.32 104.177 -149.565
  54 358.547 -183.828 -340.003
  55 74.9279 -392.896 -151.302
  56 28.6275 -565.077 -50.7542
  57 17.9099 -604.718 -4.32524
  58 22.5189 -571.529 50.8476
  59 68.3512 -475.338 133.189
  60 292.730 -186.189 335.102
  61 692.847 29.0864 -12.2362
  62 692.847 29.0864 -12.2362
  63 644.016 9.71708 68.2303
  64 625.803 4.51632 -83.0093
  65 644.016 9.71708 68.2303
  66 625.803 4.51632 -83.0093
  67 369.580 10.4970 23.5992
  68 369.580 10.4970 23.5992
  69 573.987 -108.644 234.410
  70 573.987 -108.644 234.410
  71 356.352 -100.384 -191.831
  72 854.861 -73.6905 -44.8171
  73 949.988 55.4809 -5.75444
  74 908.847 26.5112 -4.75781
  75 356.352 -100.384 -191.831
  76 854.861 -73.6905 -44.8171
  77 949.988 55.4809 -5.75444
  78 908.847 26.5112 -4.75781
  79 841.996 -39.6428 22.4285
  80 841.996 -39.6428 22.4285
  81 1071.97 79.6741 7.46214
  82 1071.97 79.6741 7.46214
  83 193.966 -115.880 -16.8180
  84 193.966 -115.880 -16.8180
  85 246.072 -158.273 169.755
  86 246.072 -158.273 169.755
  87 904.287 -51.0226 37.6415
  88 904.287 -51.0226 37.6415
  89 730.352 15.8102 9.76926
  90 733.122 17.3343 -9.96181
  91 730.352 15.8102 9.76926
  92 733.122 17.3343 -9.96181
  93 1031.14 58.7138 46.0388
  94 1031.14 58.7138 46.0388
  95 752.972 7.00831 30.0269
  96 752.972 7.00831 30.0269
  97 1107.69 82.2377 -42.5795
  98 1116.93 72.6876 -90.9861
  99 1107.69 82.2377 -42.5795
  100 1116.93 72.6876 -90.9861
  101 735.970 11.3321 -37.2736
  102 735.970 11.3321 -37.2736
  103 587.096 -108.014 -282.876
  104 587.096 -108.014 -282.876
  105 499.430 -125.451 300.403
  106 499.430 -125.451 300.403
  107 916.158 -67.4727 -113.554
  108 916.158 -67.4727 -113.554
  109 696.348 -87.5071 -161.450
  110 696.348 -87.5071 -161.450
  111 1165.64 81.6523 63.3976
  112 1165.64 81.6523 63.3976
  113 94.8432 -301.086 -117.429
  114 94.8432 -301.086 -117.429
  115 54.3462 -359.042 36.0270
  116 54.3462 -359.042 36.0270
  117 638.808 40.6360 -7.74080
  118 638.808 40.6360 -7.74080
  119 763.380 -30.4096 -61.9055
  120 763.380 -30.4096 -61.9055
  121 1229.13 33.6513 -27.9440
  122 1229.13 33.6513 -27.9440
  123 149.062 -289.584 198.753
  124 149.062 -289.584 198.753
  125 694.302 23.8080 34.6354
  126 694.302 23.8080 34.6354
  127 176.535 -232.945 -217.354
  128 176.535 -232.945 -217.354
  129 903.598 -57.3538 160.524
  130 903.598 -57.3538 160.524
  131 1250.46 63.2468 -89.6801
  132 1250.46 63.2468 -89.6801
  133 67.8082 -414.558 -33.5449
  134 67.8082 -414.558 -33.5449
  135 82.4800 -393.559 90.2757
  136 82.4800 -393.559 90.2757
  137 751.821 7.09114 -17.4104
  138 751.821 7.09114 -17.4104
  139 718.966 24.1964 -1.26063
  140 718.966 24.1964 -1.26063
  141 734.188 12.1820 -0.157728
  142 734.188 12.1820 -0.157728
  143 753.101 -15.5037 53.4369
  144 753.101 -15.5037 53.4369
  145 534.279 -13.2377 126.564
  146 755.297 -70.9528 109.894
  147 533.109 31.4315 3.23013
  148 534.279 -13.2377 126.564
  149 755.297 -70.9528 109.894
  150 533.109 31.4315 3.23013
  151 685.355 12.4130 -55.5210
  152 685.355 12.4130 -55.5210
  153 1221.78 34.4242 22.1381
  154 1221.78 34.4242 22.1381
  155 1263.76 28.6828 53.7155
  156 1266.38 69.5554 113.795
  157 1263.76 28.6828 53.7155
  158 1266.38 69.5554 113.795
  159 741.134 8.21598 5.60761
  160 741.134 8.21598 5.60761
  161 476.203 -18.6693 -108.303
  162 476.203 -18.6693 -108.303
  163 741.161 7.99985 -5.50293
  164 741.161 7.99985 -5.50293
  165 745.166 9.77453 15.6202
  166 745.166 9.77453 15.6202
  167 867.530 -6.25633 15.7724
  168 844.840 -31.3342 -6.58588
  169 867.530 -6.25633 15.7724
  170 844.840 -31.3342 -6.58588
  171 927.599 -19.8282 -5.67996
  172 927.599 -19.8282 -5.67996
  173 719.228 22.0918 18.3023
  174 719.228 22.0918 18.3023
  175 369.285 -36.4857 149.350
  176 369.285 -36.4857 149.350
  177 331.034 -13.6290 -94.1806
  178 331.034 -13.6290 -94.1806
  179 724.897 23.8140 -17.5977
  180 724.897 23.8140 -17.5977
</Section>

newXOutput 226

<Section columns = "stress_xx | stress_yy | stress_xy">
  1 745.698 4.99867 -2.75471
  2 745.110 3.86023 2.46968
  3 745.698 4.99867 -2.75471
  4 745.110 3.86023 2.46968
  5 1055.38 57.1688 291.299
  6 1045.92 50.0878 -274.410
  7 1055.38 57.1688 291.299
  8 1045.92 50.0878 -274.410
  9 752.390 1.28224 -9.03027
  10 780.951 0.184670 -15.1134
  11 800.984 -9.48050 -21.2589
  12 843.541 -4.28947 8.65531
  13 848.071 26.6243 6.90639
  14 845.868 -4.05294 -11.4208
  15 808.487 -14.5924 21.3939
  16 771.949 3.36572 17.6688
  17 753.032 4.78423 7.90773
  18 741.705 8.21520 1.36795
  19 738.068 8.28881 -0.103268
  20 741.384 7.57063 -1.24427
  21 752.390 1.28224 -9.03027
  22 780.951 0.184670 -15.1134
  23 800.984 -9.48050 -21.2589
  24 843.541 -4.28947 8.65531
  25 848.071 26.6243 6.90639
  26 845.868 -4.05294 -11.4208
  27 808.487 -14.5924 21.3939
  28 771.949 3.36572 17.6688
  29 753.032 4.78423 7.90773
  30 741.705 8.21520 1.36795
  31 738.068 8.28881 -0.103268
  32 741.384 7.57063 -1.24427
  33 1528.76 14.0187 118.003
  34 1345.62 11.2919 75.6005
  35 1297.10 25.2195 29.1348
  36 1261.65 14.1178 -7.27291
  37 1323.84 4.55143 -28.3399
  38 1358.10 26.6929 -67.8276
  39 1415.60 104.633 -150.178
  40 359.945 -184.407 -341.533
  41 75.2369 -394.471 -152.052
  42 28.7393 -567.536 -51.0208
  43 17.9694 -607.386 -4.34274
  44 22.5990 -574.010 51.1128
  45 68.6311 -477.291 133.863
  46 293.876 -186.778 336.619
  47 1528.76 14.0187 118.003
  48 1345.62 11.2919 75.6005
  49 1297.10 25.2195 29.1348
  50 1261.65 14.1178 -7.27291
  51 1323.84 4.55143 -28.3399
  52 1358.10 26.6929 -67.8276
  53 1415.60 104.633 -150.178
  54 359.945 -184.407 -341.533
  55 75.2369 -394.471 -152.052
  56 28.7393 -567.536 -51.0208
  57 17.9694 -607.386 -4.34274
  58 22.5990 -574.010 51.1128
  59 68.6311 -477.291 133.863
  60 293.876 -186.778 336.619
  61 695.704 29.2033 -12.2835
  62 695.704 29.2033 -12.2835
  63 646.683 9.75932 68.5062
  64 628.397 4.53697 -83.3448
  65 646.683 9.75932 68.5062
  66 628.397 4.53697 -83.3448
  67 371.180 10.5610 23.6992
  68 371.180 10.5610 23.6992
  69 576.315 -109.099 235.415
  70 576.315 -109.099 235.415
  71 357.847 -100.781 -192.679
  72 858.279 -73.9912 -45.0397
  73 953.800 55.7179 -5.80650
  74 912.506 26.6276 -4.74258
  75 357.847 -100.781 -192.679
  76 858.279 -73.9912 -45.0397
  77 953.800 55.7179 -5.80650
  78 912.506 26.6276 -4.74258
  79 845.379 -39.8050 22.5487
  80 845.379 -39.8050 22.5487
  81 1076.19 79.9915 7.50377
  82 1076.19 79.9915 7.50377
  83 194.810 -116.324 -16.8953
  84 194.810 -116.324 -16.8953
  85 247.102 -158.900 170.532
  86 247.102 -158.900 170.532
  87 907.889 -51.2158 37.8563
  88 907.889 -51.2158 37.8563
  89 733.338 15.8710 9.80411
  90 736.118 17.4014 -9.99738
  91 733.338 15.8710 9.80411
  92 736.118 17.4014 -9.99738
  93 1035.21 58.9806 46.2857
  94 1035.21 58.9806 46.2857
  95 756.032 7.03517 30.1419
  96 756.032 7.03517 30.1419
  97 1112.04 82.5662 -42.7714
  98 1121.28 73.0237 -91.4093
  99 1112.04 82.5662 -42.7714
  100 1121.28 73.0237 -91.4093
  101 738.974 11.3767 -37.4186
  102 738.974 11.3767 -37.4186
  103 589.410 -108.384 -284.127
  104 589.410 -108.384 -284.127
  105 501.408 -125.891 301.741
  106 501.408 -125.891 301.741
  107 919.767 -67.7110 -114.097
  108 919.767 -67.7110 -114.097
  109 699.162 -87.8710 -162.138
  110 699.162 -87.8710 -162.138
  111 1170.16 81.9833 63.6685
  112 1170.16 81.9833 63.6685
  113 95.2476 -302.319 -117.997
  114 95.2476 -302.319 -117.997
  115 54.5734 -360.548 36.2086
  116 54.5734 -360.548 36.2086
  117 641.465 40.8044 -7.77046
  118 641.465 40.8044 -7.77046
  119 766.471 -30.5368 -62.1647
  120 766.471 -30.5368 -62.1647
  121 1233.82 33.7744 -28.0499
  122 1233.82 33.7744 -28.0499
  123 149.687 -290.713 199.715
  124 149.687 -290.713 199.715
  125 697.160 23.9043 34.7702
  126 697.160 23.9043 34.7702
  127 177.277 -233.840 -218.382
  128 177.277 -233.840 -218.382
  129 907.153 -57.5493 161.253
  130 907.153 -57.5493 161.253
  131 1255.23 63.4963 -90.0462
  132 1255.23 63.4963 -90.0462
  133 68.0896 -416.318 -33.7087
  134 68.0896 -416.318 -33.7087
  135 82.8246 -395.194 90.7386
  136 82.8246 -395.194 90.7386
  137 754.877 7.11848 -17.4753
  138 754.877 7.11848 -17.4753
  139 721.915 24.2906 -1.26539
  140 721.915 24.2906 -1.26539
  141 737.187 12.2281 -0.158280
  142 737.187 12.2281 -0.158280
  143 756.159 -15.5690 53.6549
  144 756.159 -15.5690 53.6549
  145 536.517 -13.2872 127.089
  146 758.342 -71.2471 110.366
  147 535.367 31.5689 3.24544
  148 536.517 -13.2872 127.089
  149 758.342 -71.2471 110.366
  150 535.367 31.5689 3.24544
  151 688.176 12.4640 -55.7399
  152 688.176 12.4640 -55.7399
  153 1226.45 34.5481 22.2266
  154 1226.45 34.5481 22.2266
  155 1268.57 28.7872 53.9210
  156 1271.20 69.8724 114.278
  157 1268.57 28.7872 53.9210
  158 1271.20 69.8724 114.278
  159 744.154 8.24720 5.62706
  160 744.154 8.24720 5.62706
  161 478.219 -18.7400 -108.755
  162 478.219 -18.7400 -108.755
  163 744.182 8.03023 -5.52199
  164 744.182 8.03023 -5.52199
  165 748.200 9.81246 15.6765
  166 748.200 9.81246 15.6765
  167 871.032 -6.27482 15.7991
  168 848.233 -31.4656 -6.63681
  169 871.032 -6.27482 15.7991
  170 848.233 -31.4656 -6.63681
  171 931.299 -19.8864 -5.77033
  172 931.299 -19.8864 -5.77033
  173 722.176 22.1788 18.3704
  174 722.176 22.1788 18.3704
  175 370.860 -36.6186 149.992
  176 370.860 -36.6186 149.992
  177 332.466 -13.6592 -94.5841
  178 332.466 -13.6592 -94.5841
  179 727.865 23.9079 -17.6637
  180 727.865 23.9079 -17.6637
</Section>

newXOutput 227

<Section columns = "stress_xx | stress_yy | stress_xy">
  1 748.721 5.01745 -2.76412
  2 748.130 3.87462 2.47805
  3 748.721 5.01745 -2.76412
  4 748.130 3.87462 2.47805
  5 1059.34 57.5432 292.540
  6 1049.88 50.4360 -275.601
  7 1059.34 57.5432 292.540
  8 1049.88 50.4360 -275.601
  9 755.433 1.28631 -9.06258
  10 784.089 0.185546 -15.1690
  11 804.201 -9.52112 -21.3480
  12 846.937 -4.30681 8.67023
  13 851.517 26.7376 6.92799
  14 849.274 -4.06782 -11.4420
  15 811.728 -14.6540 21.4847
  16 775.058 3.37845 17.7339
  17 756.078 4.80247 7.93515
  18 744.716 8.24582 1.37260
  19 741.068 8.31954 -0.103602
  20 744.394 7.59879 -1.24851
  21 755.433 1.28631 -9.06258
  22 784.089 0.185546 -15.1690
  23 804.201 -9.52112 -21.3480
  24 846.937 -4.30681 8.67023
  25 851.517 26.7376 6.92799
  26 849.274 -4.06782 -11.4420
  27 811.728 -14.6540 21.4847
  28 775.058 3.37845 17.7339
  29 756.078 4.80247 7.93515
  30 744.716 8.24582 1.37260
  31 741.068 8.31954 -0.103602
  32 744.394 7.59879 -1.24851
  33 1534.35 14.0787 118.463
  34 1350.63 11.3204 75.8894
  35 1301.95 25.3112 29.2400
  36 1266.40 14.1630 -7.29725
  37 1328.76 4.56675 -28.4444
  38 1363.16 26.7967 -68.0814
  39 1420.86 105.089 -150.791
  40 361.342 -184.985 -343.063
  41 75.5457 -396.046 -152.802
  42 28.8509 -569.995 -51.2877
  43 18.0286 -610.053 -4.36021
  44 22.6790 -576.490 51.3783
  45 68.9108 -479.242 134.538
  46 295.021 -187.365 338.136
  47 1534.35 14.0787 118.463
  48 1350.63 11.3204 75.8894
  49 1301.95 25.3112 29.2400
  50 1266.40 14.1630 -7.29725
  51 1328.76 4.56675 -28.4444
  52 1363.16 26.7967 -68.0814
  53 1420.86 105.089 -150.791
  54 361.342 -184.985 -343.063
  55 75.5457 -396.046 -152.802
  56 28.8509 -569.995 -51.2877
  57 18.0286 -610.053 -4.36021
  58 22.6790 -576.490 51.3783
  59 68.9108 -479.242 134.538
  60 295.021 -187.365 338.136
  61 698.558 29.3200 -12.3306
  62 698.558 29.3200 -12.3306
  63 649.347 9.80155 68.7819
  64 630.990 4.55762 -83.6800
  65 649.347 9.80155 68.7819
  66 630.990 4.55762 -83.6800
  67 372.780 10.6250 23.7992
  68 372.780 10.6250 23.7992
  69 578.642 -109.555 236.420
  70 578.642 -109.555 236.420
  71 359.340 -101.179 -193.527
  72 861.694 -74.2917 -45.2626
  73 957.609 55.9547 -5.85875
  74 916.161 26.7440 -4.72709
  75 359.340 -101.179 -193.527
  76 861.694 -74.2917 -45.2626
  77 957.609 55.9547 -5.85875
  78 916.161 26.7440 -4.72709
  79 848.759 -39.9670 22.6689
  80 848.759 -39.9670 22.6689
  81 1080.41 80.3086 7.54545
  82 1080.41 80.3086 7.54545
  83 195.655 -116.767 -16.9726
  84 195.655 -116.767 -16.9726
  85 248.132 -159.527 171.308
  86 248.132 -159.527 171.308
  87 911.487 -51.4088 38.0715
  88 911.487 -51.4088 38.0715
  89 736.322 15.9317 9.83890
  90 739.112 17.4684 -10.0329
  91 736.322 15.9317 9.83890
  92 739.112 17.4684 -10.0329
  93 1039.28 59.2473 46.5328
  94 1039.28 59.2473 46.5328
  95 759.090 7.06199 30.2567
  96 759.090 7.06199 30.2567
  97 1116.38 82.8945 -42.9633
  98 1125.62 73.3599 -91.8325
  99 1116.38 82.8945 -42.9633
  100 1125.62 73.3599 -91.8325
  101 741.975 11.4212 -37.5635
  102 741.975 11.4212 -37.5635
  103 591.722 -108.754 -285.378
  104 591.722 -108.754 -285.378
  105 503.383 -126.330 303.079
  106 503.383 -126.330 303.079
  107 923.372 -67.9488 -114.639
  108 923.372 -67.9488 -114.639
  109 701.974 -88.2347 -162.826
  110 701.974 -88.2347 -162.826
  111 1174.68 82.3140 63.9392
  112 1174.68 82.3140 63.9392
  113 95.6518 -303.551 -118.566
  114 95.6518 -303.551 -118.566
  115 54.8005 -362.053 36.3903
  116 54.8005 -362.053 36.3903
  117 644.121 40.9727 -7.80009
  118 644.121 40.9727 -7.80009
  119 769.561 -30.6640 -62.4238
  120 769.561 -30.6640 -62.4238
  121 1238.50 33.8972 -28.1555
  122 1238.50 33.8972 -28.1555
  123 150.312 -291.841 200.677
  124 150.312 -291.841 200.677
  125 700.016 24.0005 34.9049
  126 700.016 24.0005 34.9049
  127 178.020 -234.734 -219.410
  128 178.020 -234.734 -219.410
  129 910.705 -57.7444 161.982
  130 910.705 -57.7444 161.982
  131 1259.99 63.7456 -90.4121
  132 1259.99 63.7456 -90.4121
  133 68.3708 -418.077 -33.8726
  134 68.3708 -418.077 -33.8726
  135 83.1690 -396.828 91.2021
  136 83.1690 -396.828 91.2021
  137 757.931 7.14579 -17.5400
  138 757.931 7.14579 -17.5400
  139 724.862 24.3846 -1.27014
  140 724.862 24.3846 -1.27014
  141 740.184 12.2742 -0.158831
  142 740.184 12.2742 -0.158831
  143 759.215 -15.6344 53.8728
  144 759.215 -15.6344 53.8728
  145 538.753 -13.3366 127.614
  146 761.383 -71.5412 110.837
  147 537.623 31.7062 3.26077
  148 538.753 -13.3366 127.614
  149 761.383 -71.5412 110.837
  150 537.623 31.7062 3.26077
  151 690.995 12.5150 -55.9586
  152 690.995 12.5150 -55.9586
  153 1231.12 34.6717 22.3150
  154 1231.12 34.6717 22.3150
  155 1273.37 28.8915 54.1261
  156 1276.01 70.1894 114.760
  157 1273.37 28.8915 54.1261
  158 1276.01 70.1894 114.760
  159 747.172 8.27837 5.64646
  160 747.172 8.27837 5.64646
  161 480.233 -18.8105 -109.207
  162 480.233 -18.8105 -109.207
  163 747.200 8.06058 -5.54101
  164 747.200 8.06058 -5.54101
  165 751.232 9.85034 15.7328
  166 751.232 9.85034 15.7328
  167 874.531 -6.29323 15.8254
  168 851.623 -31.5969 -6.68789
  169 874.531 -6.29323 15.8254
  170 851.623 -31.5969 -6.68789
  171 934.996 -19.9443 -5.86117
  172 934.996 -19.9443 -5.86117
  173 725.123 22.2657 18.4383
  174 725.123 22.2657 18.4383
  175 372.434 -36.7513 150.634
  176 372.434 -36.7513 150.634
  177 333.898 -13.6892 -94.9874
  178 333.898 -13.6892 -94.9874
  179 730.832 24.0017 -17.7296
  180 730.832 24.0017 -17.7296
</Section>

newXOutput 228

<Section columns = "stress_xx | stress_yy | stress_xy">
  1 751.741 5.03620 -2.77351
  2 751.148 3.88899 2.48641
  3 751.741 5.03620 -2.77351
  4 751.148 3.88899 2.48641
  5 1063.29 57.9185 293.781
  6 1053.84 50.7852 -276.791
  7 1063.29 57.9185 293.781
  8 1053.84 50.7852 -276.791
  9 758.474 1.29036 -9.09482
  10 787.224 0.186422 -15.2246
  11 807.415 -9.56172 -21.4371
  12 850.331 -4.32414 8.68498
  13 854.961 26.8508 6.94953
  14 852.678 -4.08268 -11.4630
  15 814.967 -14.7155 21.5754
  16 778.164 3.39116 17.7989
  17 759.121 4.82069 7.96252
  18 747.724 8.27639 1.37723
  19 744.066 8.35022 -0.103936
  20 747.401 7.62692 -1.25274
  21 758.474 1.29036 -9.09482
  22 787.224 0.186422 -15.2246
  23 807.415 -9.56172 -21.4371
  24 850.331 -4.32414 8.68498
  25 854.961 26.8508 6.94953
  26 852.678 -4.08268 -11.4630
  27 814.967 -14.7155 21.5754
  28 778.164 3.39116 17.7989
  29 759.121 4.82069 7.96252
  30 747.724 8.27639 1.37723
  31 744.066 8.35022 -0.103936
  32 747.401 7.62692 -1.25274
  33 1539.93 14.1386 118.922
  34 1355.64 11.3488 76.1780
  35 1306.80 25.4029 29.3452
  36 1271.14 14.2082 -7.32153
  37 1333.67 4.58203 -28.5487
  38 1368.20 26.9005 -68.3348
  39 1426.12 105.545 -151.403
  40 362.736 -185.561 -344.592
  41 75.8542 -397.619 -153.552
  42 28.9624 -572.453 -51.5550
  43 18.0878 -612.720 -4.37767
  44 22.7588 -578.969 51.6442
  45 69.1902 -481.191 135.213
  46 296.165 -187.950 339.652
  47 1539.93 14.1386 118.922
  48 1355.64 11.3488 76.1780
  49 1306.80 25.4029 29.3452
  50 1271.14 14.2082 -7.32153
  51 1333.67 4.58203 -28.5487
  52 1368.20 26.9005 -68.3348
  53 1426.12 105.545 -151.403
  54 362.736 -185.561 -344.592
  55 75.8542 -397.619 -153.552
  56 28.9624 -572.453 -51.5550
  57 18.0878 -612.720 -4.37767
  58 22.7588 -578.969 51.6442
  59 69.1902 -481.191 135.213
  60 296.165 -187.950 339.652
  61 701.411 29.4366 -12.3778
  62 701.411 29.4366 -12.3778
  63 652.010 9.84377 69.0573
  64 633.580 4.57827 -84.0149
  65 652.010 9.84377 69.0573
  66 633.580 4.57827 -84.0149
  67 374.380 10.6892 23.8991
  68 374.380 10.6892 23.8991
  69 580.966 -110.010 237.425
  70 580.966 -110.010 237.425
  71 360.833 -101.576 -194.374
  72 865.106 -74.5919 -45.4856
  73 961.414 56.1915 -5.91118
  74 919.813 26.8604 -4.71134
  75 360.833 -101.576 -194.374
  76 865.106 -74.5919 -45.4856
  77 961.414 56.1915 -5.91118
  78 919.813 26.8604 -4.71134
  79 852.136 -40.1290 22.7893
  80 852.136 -40.1290 22.7893
  81 1084.62 80.6254 7.58718
  82 1084.62 80.6254 7.58718
  83 196.500 -117.210 -17.0500
  84 196.500 -117.210 -17.0500
  85 249.162 -160.153 172.085
  86 249.162 -160.153 172.085
  87 915.082 -51.6015 38.2870
  88 915.082 -51.6015 38.2870
  89 739.304 15.9924 9.87362
  90 742.103 17.5353 -10.0683
  91 739.304 15.9924 9.87362
  92 742.103 17.5353 -10.0683
  93 1043.34 59.5141 46.7801
  94 1043.34 59.5141 46.7801
  95 762.145 7.08878 30.3713
  96 762.145 7.08878 30.3713
  97 1120.72 83.2224 -43.1552
  98 1129.95 73.6962 -92.2558
  99 1120.72 83.2224 -43.1552
  100 1129.95 73.6962 -92.2558
  101 744.974 11.4657 -37.7082
  102 744.974 11.4657 -37.7082
  103 594.031 -109.122 -286.629
  104 594.031 -109.122 -286.629
  105 505.357 -126.769 304.418
  106 505.357 -126.769 304.418
  107 926.973 -68.1861 -115.182
  108 926.973 -68.1861 -115.182
  109 704.783 -88.5981 -163.513
  110 704.783 -88.5981 -163.513
  111 1179.19 82.6444 64.2097
  112 1179.19 82.6444 64.2097
  113 96.0558 -304.782 -119.135
  114 96.0558 -304.782 -119.135
  115 55.0275 -363.556 36.5723
  116 55.0275 -363.556 36.5723
  117 646.776 41.1409 -7.82968
  118 646.776 41.1409 -7.82968
  119 772.647 -30.7912 -62.6828
  120 772.647 -30.7912 -62.6828
  121 1243.18 34.0199 -28.2610
  122 1243.18 34.0199 -28.2610
  123 150.936 -292.967 201.639
  124 150.936 -292.967 201.639
  125 702.870 24.0967 35.0394
  126 702.870 24.0967 35.0394
  127 178.762 -235.626 -220.439
  128 178.762 -235.626 -220.439
  129 914.253 -57.9390 162.712
  130 914.253 -57.9390 162.712
  131 1264.75 63.9946 -90.7776
  132 1264.75 63.9946 -90.7776
  133 68.6519 -419.836 -34.0367
  134 68.6519 -419.836 -34.0367
  135 83.5132 -398.460 91.6661
  136 83.5132 -398.460 91.6661
  137 760.982 7.17306 -17.6046
  138 760.982 7.17306 -17.6046
  139 727.807 24.4786 -1.27489
  140 727.807 24.4786 -1.27489
  141 743.179 12.3202 -0.159380
  142 743.179 12.3202 -0.159380
  143 762.268 -15.6996 54.0905
  144 762.268 -15.6996 54.0905
  145 540.989 -13.3859 128.138
  146 764.422 -71.8351 111.308
  147 539.879 31.8435 3.27609
  148 540.989 -13.3859 128.138
  149 764.422 -71.8351 111.308
  150 539.879 31.8435 3.27609
  151 693.813 12.5660 -56.1771
  152 693.813 12.5660 -56.1771
  153 1235.78 34.7952 22.4033
  154 1235.78 34.7952 22.4033
  155 1278.17 28.9956 54.3310
  156 1280.81 70.5065 115.243
  157 1278.17 28.9956 54.3310
  158 1280.81 70.5065 115.243
  159 750.188 8.30950 5.66583
  160 750.188 8.30950 5.66583
  161 482.246 -18.8810 -109.659
  162 482.246 -18.8810 -109.659
  163 750.216 8.09088 -5.55998
  164 750.216 8.09088 -5.55998
  165 754.261 9.88818 15.7889
  166 754.261 9.88818 15.7889
  167 878.026 -6.31157 15.8515
  168 855.010 -31.7282 -6.73912
  169 878.026 -6.31157 15.8515
  170 855.010 -31.7282 -6.73912
  171 938.689 -20.0020 -5.95248
  172 938.689 -20.0020 -5.95248
  173 728.067 22.3525 18.5062
  174 728.067 22.3525 18.5062
  175 374.007 -36.8838 151.275
  176 374.007 -36.8838 151.275
  177 335.330 -13.7189 -95.3906
  178 335.330 -13.7189 -95.3906
  179 733.796 24.0954 -17.7954
  180 733.796 24.0954 -17.7954
</Section>

newXOutput 229

<Section columns = "stress_xx | stress_yy | stress_xy">
  1 754.759 5.05493 -2.78287
  2 754.164 3.90333 2.49474
  3 754.759 5.05493 -2.78287
  4 754.164 3.90333 2.49474
  5 1067.24 58.2947 295.021
  6 1057.79 51.1353 -277.981
  7 1067.24 58.2947 295.021
  8 1057.79 51.1353 -277.981
  9 761.513 1.29441 -9.12700
  10 790.357 0.187299 -15.2801
  11 810.626 -9.60231 -21.5261
  12 853.721 -4.34145 8.69956
  13 858.402 26.9640 6.97100
  14 856.078 -4.09751 -11.4837
  15 818.203 -14.7770 21.6660
  16 781.268 3.40386 17.8638
  17 762.161 4.83888 7.98983
  18 750.730 8.30693 1.38186
  19 747.061 8.38086 -0.104269
  20 750.406 7.65500 -1.25695
  21 761.513 1.29441 -9.12700
  22 790.357 0.187299 -15.2801
  23 810.626 -9.60231 -21.5261
  24 853.721 -4.34145 8.69956
  25 858.402 26.9640 6.97100
  26 856.078 -4.09751 -11.4837
  27 818.203 -14.7770 21.6660
  28 781.268 3.40386 17.8638
  29 762.161 4.83888 7.98983
  30 750.730 8.30693 1.38186
  31 747.061 8.38086 -0.104269
  32 750.406 7.65500 -1.25695
  33 1545.50 14.1985 119.380
  34 1360.63 11.3770 76.4661
  35 1311.65 25.4943 29.4501
  36 1275.88 14.2531 -7.34575
  37 1338.57 4.59729 -28.6528
  38 1373.24 27.0041 -68.5878
  39 1431.37 106.001 -152.014
  40 364.130 -186.135 -346.122
  41 76.1625 -399.190 -154.303
  42 29.0738 -574.910 -51.8226
  43 18.1467 -615.386 -4.39512
  44 22.8384 -581.448 51.9104
  45 69.4694 -483.139 135.888
  46 297.307 -188.533 341.169
  47 1545.50 14.1985 119.380
  48 1360.63 11.3770 76.4661
  49 1311.65 25.4943 29.4501
  50 1275.88 14.2531 -7.34575
  51 1338.57 4.59729 -28.6528
  52 1373.24 27.0041 -68.5878
  53 1431.37 106.001 -152.014
  54 364.130 -186.135 -346.122
  55 76.1625 -399.190 -154.303
  56 29.0738 -574.910 -51.8226
  57 18.1467 -615.386 -4.39512
  58 22.8384 -581.448 51.9104
  59 69.4694 -483.139 135.888
  60 297.307 -188.533 341.169
  61 704.261 29.5531 -12.4248
  62 704.261 29.5531 -12.4248
  63 654.670 9.88598 69.3325
  64 636.169 4.59892 -84.3496
  65 654.670 9.88598 69.3325
  66 636.169 4.59892 -84.3496
  67 375.979 10.7535 23.9990
  68 375.979 10.7535 23.9990
  69 583.288 -110.466 238.429
  70 583.288 -110.466 238.429
  71 362.325 -101.973 -195.222
  72 868.514 -74.8919 -45.7087
  73 965.216 56.4282 -5.96378
  74 923.461 26.9767 -4.69532
  75 362.325 -101.973 -195.222
  76 868.514 -74.8919 -45.7087
  77 965.216 56.4282 -5.96378
  78 923.461 26.9767 -4.69532
  79 855.510 -40.2908 22.9099
  80 855.510 -40.2908 22.9099
  81 1088.83 80.9420 7.62895
  82 1088.83 80.9420 7.62895
  83 197.344 -117.653 -17.1273
  84 197.344 -117.653 -17.1273
  85 250.191 -160.778 172.862
  86 250.191 -160.778 172.862
  87 918.673 -51.7940 38.5028
  88 918.673 -51.7940 38.5028
  89 742.284 16.0530 9.90827
  90 745.092 17.6021 -10.1037
  91 742.284 16.0530 9.90827
  92 745.092 17.6021 -10.1037
  93 1047.40 59.7809 47.0278
  94 1047.40 59.7809 47.0278
  95 765.198 7.11553 30.4858
  96 765.198 7.11553 30.4858
  97 1125.05 83.5500 -43.3470
  98 1134.29 74.0325 -92.6791
  99 1125.05 83.5500 -43.3470
  100 1134.29 74.0325 -92.6791
  101 747.970 11.5102 -37.8527
  102 747.970 11.5102 -37.8527
  103 596.337 -109.490 -287.879
  104 596.337 -109.490 -287.879
  105 507.328 -127.206 305.756
  106 507.328 -127.206 305.756
  107 930.571 -68.4229 -115.725
  108 930.571 -68.4229 -115.725
  109 707.590 -88.9613 -164.200
  110 707.590 -88.9613 -164.200
  111 1183.70 82.9746 64.4801
  112 1183.70 82.9746 64.4801
  113 96.4597 -306.012 -119.705
  114 96.4597 -306.012 -119.705
  115 55.2543 -365.060 36.7544
  116 55.2543 -365.060 36.7544
  117 649.429 41.3090 -7.85923
  118 649.429 41.3090 -7.85923
  119 775.731 -30.9182 -62.9416
  120 775.731 -30.9182 -62.9416
  121 1247.86 34.1424 -28.3663
  122 1247.86 34.1424 -28.3663
  123 151.560 -294.092 202.602
  124 151.560 -294.092 202.602
  125 705.722 24.1927 35.1737
  126 705.722 24.1927 35.1737
  127 179.503 -236.517 -221.468
  128 179.503 -236.517 -221.468
  129 917.797 -58.1331 163.441
  130 917.797 -58.1331 163.441
  131 1269.50 64.2434 -91.1428
  132 1269.50 64.2434 -91.1428
  133 68.9327 -421.594 -34.2009
  134 68.9327 -421.594 -34.2009
  135 83.8572 -400.092 92.1305
  136 83.8572 -400.092 92.1305
  137 764.031 7.20031 -17.6691
  138 764.031 7.20031 -17.6691
  139 730.750 24.5724 -1.27963
  140 730.750 24.5724 -1.27963
  141 746.171 12.3661 -0.159929
  142 746.171 12.3661 -0.159929
  143 765.318 -15.7649 54.3080
  144 765.318 -15.7649 54.3080
  145 543.223 -13.4352 128.662
  146 767.458 -72.1288 111.779
  147 542.133 31.9807 3.29143
  148 543.223 -13.4352 128.662
  149 767.458 -72.1288 111.779
  150 542.133 31.9807 3.29143
  151 696.628 12.6170 -56.3953
  152 696.628 12.6170 -56.3953
  153 1240.44 34.9184 22.4915
  154 1240.44 34.9184 22.4915
  155 1282.96 29.0996 54.5356
  156 1285.61 70.8236 115.725
  157 1282.96 29.0996 54.5356
  158 1285.61 70.8236 115.725
  159 753.202 8.34058 5.68515
  160 753.202 8.34058 5.68515
  161 484.259 -18.9513 -110.110
  162 484.259 -18.9513 -110.110
  163 753.229 8.12114 -5.57892
  164 753.229 8.12114 -5.57892
  165 757.287 9.92597 15.8450
  166 757.287 9.92597 15.8450
  167 881.519 -6.32983 15.8772
  168 858.393 -31.8593 -6.79050
  169 881.519 -6.32983 15.8772
  170 858.393 -31.8593 -6.79050
  171 942.378 -20.0594 -6.04425
  172 942.378 -20.0594 -6.04425
  173 731.009 22.4392 18.5740
  174 731.009 22.4392 18.5740
  175 375.580 -37.0161 151.917
  176 375.580 -37.0161 151.917
  177 336.761 -13.7484 -95.7936
  178 336.761 -13.7484 -95.7936
  179 736.758 24.1889 -17.8611
  180 736.758 24.1889 -17.8611
</Section>

newXOutput 230

<Section columns = "stress_xx | stress_yy | stress_xy">
  1 757.774 5.07363 -2.79222
  2 757.177 3.91765 2.50306
  3 757.774 5.07363 -2.79222
  4 757.177 3.91765 2.50306
  5 1071.18 58.6719 296.260
  6 1061.74 51.4864 -279.170
  7 1071.18 58.6719 296.260
  8 1061.74 51.4864 -279.170
  9 764.549 1.29843 -9.15913
  10 793.488 0.188176 -15.3354
  11 813.834 -9.64288 -21.6151
  12 857.108 -4.35874 8.71397
  13 861.840 27.0772 6.99240
  14 859.475 -4.11231 -11.5043
  15 821.436 -14.8384 21.7566
  16 784.369 3.41654 17.9286
  17 765.199 4.85705 8.01708
  18 753.734 8.33741 1.38647
  19 750.054 8.41144 -0.104601
  20 753.409 7.68304 -1.26116
  21 764.549 1.29843 -9.15913
  22 793.488 0.188176 -15.3354
  23 813.834 -9.64288 -21.6151
  24 857.108 -4.35874 8.71397
  25 861.840 27.0772 6.99240
  26 859.475 -4.11231 -11.5043
  27 821.436 -14.8384 21.7566
  28 784.369 3.41654 17.9286
  29 765.199 4.85705 8.01708
  30 753.734 8.33741 1.38647
  31 750.054 8.41144 -0.104601
  32 753.409 7.68304 -1.26116
  33 1551.06 14.2584 119.838
  34 1365.63 11.4051 76.7539
  35 1316.48 25.5857 29.5548
  36 1280.60 14.2980 -7.36991
  37 1343.47 4.61250 -28.7567
  38 1378.27 27.1076 -68.8404
  39 1436.62 106.457 -152.625
  40 365.521 -186.706 -347.651
  41 76.4705 -400.760 -155.055
  42 29.1850 -577.366 -52.0906
  43 18.2055 -618.053 -4.41254
  44 22.9179 -583.926 52.1770
  45 69.7483 -485.085 136.565
  46 298.448 -189.114 342.686
  47 1551.06 14.2584 119.838
  48 1365.63 11.4051 76.7539
  49 1316.48 25.5857 29.5548
  50 1280.60 14.2980 -7.36991
  51 1343.47 4.61250 -28.7567
  52 1378.27 27.1076 -68.8404
  53 1436.62 106.457 -152.625
  54 365.521 -186.706 -347.651
  55 76.4705 -400.760 -155.055
  56 29.1850 -577.366 -52.0906
  57 18.2055 -618.053 -4.41254
  58 22.9179 -583.926 52.1770
  59 69.7483 -485.085 136.565
  60 298.448 -189.114 342.686
  61 707.110 29.6695 -12.4718
  62 707.110 29.6695 -12.4718
  63 657.330 9.92818 69.6075
  64 638.757 4.61958 -84.6839
  65 657.330 9.92818 69.6075
  66 638.757 4.61958 -84.6839
  67 377.578 10.8179 24.0989
  68 377.578 10.8179 24.0989
  69 585.609 -110.920 239.433
  70 585.609 -110.920 239.433
  71 363.816 -102.369 -196.069
  72 871.919 -75.1916 -45.9320
  73 969.014 56.6648 -6.01657
  74 927.107 27.0931 -4.67904
  75 363.816 -102.369 -196.069
  76 871.919 -75.1916 -45.9320
  77 969.014 56.6648 -6.01657
  78 927.107 27.0931 -4.67904
  79 858.881 -40.4524 23.0306
  80 858.881 -40.4524 23.0306
  81 1093.04 81.2582 7.67077
  82 1093.04 81.2582 7.67077
  83 198.188 -118.095 -17.2047
  84 198.188 -118.095 -17.2047
  85 251.219 -161.403 173.640
  86 251.219 -161.403 173.640
  87 922.261 -51.9861 38.7189
  88 922.261 -51.9861 38.7189
  89 745.262 16.1135 9.94285
  90 748.078 17.6688 -10.1390
  91 745.262 16.1135 9.94285
  92 748.078 17.6688 -10.1390
  93 1051.46 60.0477 47.2756
  94 1051.46 60.0477 47.2756
  95 768.249 7.14225 30.6002
  96 768.249 7.14225 30.6002
  97 1129.38 83.8773 -43.5388
  98 1138.61 74.3690 -93.1025
  99 1129.38 83.8773 -43.5388
  100 1138.61 74.3690 -93.1025
  101 750.965 11.5546 -37.9970
  102 750.965 11.5546 -37.9970
  103 598.641 -109.857 -289.129
  104 598.641 -109.857 -289.129
  105 509.297 -127.643 307.094
  106 509.297 -127.643 307.094
  107 934.165 -68.6591 -116.268
  108 934.165 -68.6591 -116.268
  109 710.394 -89.3243 -164.886
  110 710.394 -89.3243 -164.886
  111 1188.20 83.3045 64.7504
  112 1188.20 83.3045 64.7504
  113 96.8634 -307.240 -120.275
  114 96.8634 -307.240 -120.275
  115 55.4810 -366.562 36.9367
  116 55.4810 -366.562 36.9367
  117 652.080 41.4770 -7.88874
  118 652.080 41.4770 -7.88874
  119 778.813 -31.0452 -63.2003
  120 778.813 -31.0452 -63.2003
  121 1252.52 34.2647 -28.4715
  122 1252.52 34.2647 -28.4715
  123 152.183 -295.216 203.566
  124 152.183 -295.216 203.566
  125 708.571 24.2887 35.3079
  126 708.571 24.2887 35.3079
  127 180.244 -237.407 -222.498
  128 180.244 -237.407 -222.498
  129 921.337 -58.3268 164.170
  130 921.337 -58.3268 164.170
  131 1274.24 64.4919 -91.5077
  132 1274.24 64.4919 -91.5077
  133 69.2134 -423.351 -34.3651
  134 69.2134 -423.351 -34.3651
  135 84.2010 -401.722 92.5955
  136 84.2010 -401.722 92.5955
  137 767.077 7.22751 -17.7336
  138 767.077 7.22751 -17.7336
  139 733.691 24.6661 -1.28437
  140 733.691 24.6661 -1.28437
  141 749.161 12.4119 -0.160476
  142 749.161 12.4119 -0.160476
  143 768.367 -15.8301 54.5254
  144 768.367 -15.8301 54.5254
  145 545.456 -13.4844 129.185
  146 770.492 -72.4223 112.250
  147 544.386 32.1179 3.30677
  148 545.456 -13.4844 129.185
  149 770.492 -72.4223 112.250
  150 544.386 32.1179 3.30677
  151 699.441 12.6679 -56.6133
  152 699.441 12.6679 -56.6133
  153 1245.09 35.0414 22.5796
  154 1245.09 35.0414 22.5796
  155 1287.74 29.2033 54.7399
  156 1290.40 71.1407 116.207
  157 1287.74 29.2033 54.7399
  158 1290.40 71.1407 116.207
  159 756.213 8.37163 5.70442
  160 756.213 8.37163 5.70442
  161 486.270 -19.0216 -110.561
  162 486.270 -19.0216 -110.561
  163 756.240 8.15136 -5.59781
  164 756.240 8.15136 -5.59781
  165 760.311 9.96372 15.9009
  166 760.311 9.96372 15.9009
  167 885.009 -6.34800 15.9026
  168 861.774 -31.9904 -6.84204
  169 885.009 -6.34800 15.9026
  170 861.774 -31.9904 -6.84204
  171 946.064 -20.1165 -6.13650
  172 946.064 -20.1165 -6.13650
  173 733.949 22.5258 18.6416
  174 733.949 22.5258 18.6416
  175 377.152 -37.1481 152.558
  176 377.152 -37.1481 152.558
  177 338.192 -13.7777 -96.1964
  178 338.192 -13.7777 -96.1964
  179 739.718 24.2824 -17.9267
  180 739.718 24.2824 -17.9267
</Section>

newXOutput 231

<Section columns = "stress_xx | stress_yy | stress_xy">
  1 760.787 5.09231 -2.80154
  2 760.188 3.93196 2.51135
  3 760.787 5.09231 -2.80154
  4 760.188 3.93196 2.51135
  5 1075.12 59.0499 297.498
  6 1065.68 51.8385 -280.359
  7 1075.12 59.0499 297.498
  8 1065.68 51.8385 -280.359
  9 767.582 1.30245 -9.19119
  10 796.615 0.189055 -15.3907
  11 817.040 -9.68344 -21.7040
  12 860.493 -4.37603 8.72821
  13 865.276 27.1904 7.01373
  14 862.870 -4.12709 -11.5246
  15 824.666 -14.8999 21.8472
  16 787.468 3.42920 17.9934
  17 768.235 4.87519 8.04428
  18 756.736 8.36785 1.39108
  19 753.045 8.44199 -0.104932
  20 756.410 7.71104 -1.26536
  21 767.582 1.30245 -9.19119
  22 796.615 0.189055 -15.3907
  23 817.040 -9.68344 -21.7040
  24 860.493 -4.37603 8.72821
  25 865.276 27.1904 7.01373
  26 862.870 -4.12709 -11.5246
  27 824.666 -14.8999 21.8472
  28 787.468 3.42920 17.9934
  29 768.235 4.87519 8.04428
  30 756.736 8.36785 1.39108
  31 753.045 8.44199 -0.104932
  32 756.410 7.71104 -1.26536
  33 1556.61 14.3183 120.295
  34 1370.61 11.4330 77.0413
  35 1321.31 25.6768 29.6594
  36 1285.33 14.3427 -7.39401
  37 1348.36 4.62769 -28.8605
  38 1383.29 27.2110 -69.0926
  39 1441.85 106.913 -153.235
  40 366.911 -187.276 -349.181
  41 76.7783 -402.328 -155.808
  42 29.2961 -579.823 -52.3590
  43 18.2641 -620.719 -4.42995
  44 22.9972 -586.403 52.4439
  45 70.0270 -487.030 137.242
  46 299.587 -189.693 344.203
  47 1556.61 14.3183 120.295
  48 1370.61 11.4330 77.0413
  49 1321.31 25.6768 29.6594
  50 1285.33 14.3427 -7.39401
  51 1348.36 4.62769 -28.8605
  52 1383.29 27.2110 -69.0926
  53 1441.85 106.913 -153.235
  54 366.911 -187.276 -349.181
  55 76.7783 -402.328 -155.808
  56 29.2961 -579.823 -52.3590
  57 18.2641 -620.719 -4.42995
  58 22.9972 -586.403 52.4439
  59 70.0270 -487.030 137.242
  60 299.587 -189.693 344.203
  61 709.957 29.7858 -12.5188
  62 709.957 29.7858 -12.5188
  63 659.987 9.97036 69.8822
  64 641.343 4.64023 -85.0180
  65 659.987 9.97036 69.8822
  66 641.343 4.64023 -85.0180
  67 379.176 10.8825 24.1987
  68 379.176 10.8825 24.1987
  69 587.928 -111.375 240.436
  70 587.928 -111.375 240.436
  71 365.306 -102.765 -196.917
  72 875.321 -75.4912 -46.1554
  73 972.809 56.9013 -6.06954
  74 930.749 27.2094 -4.66250
  75 365.306 -102.765 -196.917
  76 875.321 -75.4912 -46.1554
  77 972.809 56.9013 -6.06954
  78 930.749 27.2094 -4.66250
  79 862.249 -40.6140 23.1514
  80 862.249 -40.6140 23.1514
  81 1097.24 81.5742 7.71264
  82 1097.24 81.5742 7.71264
  83 199.032 -118.536 -17.2820
  84 199.032 -118.536 -17.2820
  85 252.247 -162.027 174.417
  86 252.247 -162.027 174.417
  87 925.845 -52.1780 38.9353
  88 925.845 -52.1780 38.9353
  89 748.237 16.1740 9.97737
  90 751.063 17.7355 -10.1742
  91 748.237 16.1740 9.97737
  92 751.063 17.7355 -10.1742
  93 1055.51 60.3145 47.5237
  94 1055.51 60.3145 47.5237
  95 771.297 7.16894 30.7144
  96 771.297 7.16894 30.7144
  97 1133.70 84.2043 -43.7306
  98 1142.93 74.7055 -93.5259
  99 1133.70 84.2043 -43.7306
  100 1142.93 74.7055 -93.5259
  101 753.957 11.5990 -38.1411
  102 753.957 11.5990 -38.1411
  103 600.943 -110.223 -290.379
  104 600.943 -110.223 -290.379
  105 511.265 -128.078 308.432
  106 511.265 -128.078 308.432
  107 937.754 -68.8949 -116.811
  108 937.754 -68.8949 -116.811
  109 713.196 -89.6871 -165.572
  110 713.196 -89.6871 -165.572
  111 1192.69 83.6341 65.0205
  112 1192.69 83.6341 65.0205
  113 97.2669 -308.469 -120.845
  114 97.2669 -308.469 -120.845
  115 55.7076 -368.063 37.1192
  116 55.7076 -368.063 37.1192
  117 654.729 41.6448 -7.91821
  118 654.729 41.6448 -7.91821
  119 781.892 -31.1721 -63.4588
  120 781.892 -31.1721 -63.4588
  121 1257.18 34.3868 -28.5766
  122 1257.18 34.3868 -28.5766
  123 152.806 -296.338 204.530
  124 152.806 -296.338 204.530
  125 711.419 24.3846 35.4419
  126 711.419 24.3846 35.4419
  127 180.985 -238.296 -223.528
  128 180.985 -238.296 -223.528
  129 924.873 -58.5199 164.900
  130 924.873 -58.5199 164.900
  131 1278.98 64.7401 -91.8722
  132 1278.98 64.7401 -91.8722
  133 69.4940 -425.107 -34.5295
  134 69.4940 -425.107 -34.5295
  135 84.5446 -403.352 93.0609
  136 84.5446 -403.352 93.0609
  137 770.121 7.25469 -17.7979
  138 770.121 7.25469 -17.7979
  139 736.629 24.7597 -1.28909
  140 736.629 24.7597 -1.28909
  141 752.149 12.4577 -0.161022
  142 752.149 12.4577 -0.161022
  143 771.412 -15.8952 54.7426
  144 771.412 -15.8952 54.7426
  145 547.688 -13.5335 129.708
  146 773.522 -72.7157 112.721
  147 546.639 32.2551 3.32212
  148 547.688 -13.5335 129.708
  149 773.522 -72.7157 112.721
  150 546.639 32.2551 3.32212
  151 702.253 12.7187 -56.8311
  152 702.253 12.7187 -56.8311
  153 1249.74 35.1642 22.6677
  154 1249.74 35.1642 22.6677
  155 1292.51 29.3069 54.9439
  156 1295.18 71.4578 116.688
  157 1292.51 29.3069 54.9439
  158 1295.18 71.4578 116.688
  159 759.221 8.40263 5.72366
  160 759.221 8.40263 5.72366
  161 488.281 -19.0918 -111.012
  162 488.281 -19.0918 -111.012
  163 759.249 8.18154 -5.61666
  164 759.249 8.18154 -5.61666
  165 763.333 10.0014 15.9568
  166 763.333 10.0014 15.9568
  167 888.496 -6.36610 15.9277
  168 865.151 -32.1215 -6.89372
  169 888.496 -6.36610 15.9277
  170 865.151 -32.1215 -6.89372
  171 949.747 -20.1734 -6.22920
  172 949.747 -20.1734 -6.22920
  173 736.886 22.6123 18.7092
  174 736.886 22.6123 18.7092
  175 378.723 -37.2799 153.199
  176 378.723 -37.2799 153.199
  177 339.623 -13.8068 -96.5991
  178 339.623 -13.8068 -96.5991
  179 742.676 24.3758 -17.9922
  180 742.676 24.3758 -17.9922
</Section>

newXOutput 232

<Section columns = "stress_xx | stress_yy | stress_xy">
  1 763.797 5.11095 -2.81084
  2 763.197 3.94624 2.51963
  3 763.797 5.11095 -2.81084
  4 763.197 3.94624 2.51963
  5 1079.05 59.4288 298.736
  6 1069.61 52.1915 -281.547
  7 1079.05 59.4288 298.736
  8 1069.61 52.1915 -281.547
  9 770.613 1.30646 -9.22320
  10 799.740 0.189933 -15.4459
  11 820.242 -9.72399 -21.7929
  12 863.874 -4.39329 8.74228
  13 868.709 27.3034 7.03499
  14 866.262 -4.14184 -11.5447
  15 827.893 -14.9613 21.9377
  16 790.564 3.44184 18.0580
  17 771.268 4.89331 8.07141
  18 759.735 8.39824 1.39567
  19 756.034 8.47248 -0.105262
  20 759.408 7.73900 -1.26955
  21 770.613 1.30646 -9.22320
  22 799.740 0.189933 -15.4459
  23 820.242 -9.72399 -21.7929
  24 863.874 -4.39329 8.74228
  25 868.709 27.3034 7.03499
  26 866.262 -4.14184 -11.5447
  27 827.893 -14.9613 21.9377
  28 790.564 3.44184 18.0580
  29 771.268 4.89331 8.07141
  30 759.735 8.39824 1.39567
  31 756.034 8.47248 -0.105262
  32 759.408 7.73900 -1.26955
  33 1562.15 14.3781 120.752
  34 1375.59 11.4607 77.3283
  35 1326.13 25.7679 29.7637
  36 1290.04 14.3874 -7.41806
  37 1353.24 4.64285 -28.9641
  38 1388.31 27.3143 -69.3444
  39 1447.08 107.369 -153.845
  40 368.299 -187.844 -350.710
  41 77.0858 -403.895 -156.561
  42 29.4071 -582.278 -52.6276
  43 18.3226 -623.384 -4.44735
  44 23.0763 -588.880 52.7111
  45 70.3055 -488.974 137.919
  46 300.725 -190.270 345.719
  47 1562.15 14.3781 120.752
  48 1375.59 11.4607 77.3283
  49 1326.13 25.7679 29.7637
  50 1290.04 14.3874 -7.41806
  51 1353.24 4.64285 -28.9641
  52 1388.31 27.3143 -69.3444
  53 1447.08 107.369 -153.845
  54 368.299 -187.844 -350.710
  55 77.0858 -403.895 -156.561
  56 29.4071 -582.278 -52.6276
  57 18.3226 -623.384 -4.44735
  58 23.0763 -588.880 52.7111
  59 70.3055 -488.974 137.919
  60 300.725 -190.270 345.719
  61 712.802 29.9020 -12.5657
  62 712.802 29.9020 -12.5657
  63 662.643 10.0125 70.1567
  64 643.927 4.66089 -85.3517
  65 662.643 10.0125 70.1567
  66 643.927 4.66089 -85.3517
  67 380.774 10.9471 24.2984
  68 380.774 10.9471 24.2984
  69 590.244 -111.830 241.439
  70 590.244 -111.830 241.439
  71 366.796 -103.160 -197.764
  72 878.720 -75.7905 -46.3790
  73 976.600 57.1377 -6.12269
  74 934.388 27.3257 -4.64569
  75 366.796 -103.160 -197.764
  76 878.720 -75.7905 -46.3790
  77 976.600 57.1377 -6.12269
  78 934.388 27.3257 -4.64569
  79 865.614 -40.7754 23.2723
  80 865.614 -40.7754 23.2723
  81 1101.44 81.8898 7.75456
  82 1101.44 81.8898 7.75456
  83 199.876 -118.977 -17.3594
  84 199.876 -118.977 -17.3594
  85 253.274 -162.651 175.194
  86 253.274 -162.651 175.194
  87 929.426 -52.3696 39.1521
  88 929.426 -52.3696 39.1521
  89 751.210 16.2344 10.0118
  90 754.045 17.8021 -10.2093
  91 751.210 16.2344 10.0118
  92 754.045 17.8021 -10.2093
  93 1059.55 60.5814 47.7721
  94 1059.55 60.5814 47.7721
  95 774.342 7.19559 30.8284
  96 774.342 7.19559 30.8284
  97 1138.02 84.5310 -43.9223
  98 1147.25 75.0420 -93.9493
  99 1138.02 84.5310 -43.9223
  100 1147.25 75.0420 -93.9493
  101 756.946 11.6433 -38.2851
  102 756.946 11.6433 -38.2851
  103 603.242 -110.588 -291.629
  104 603.242 -110.588 -291.629
  105 513.230 -128.513 309.769
  106 513.230 -128.513 309.769
  107 941.340 -69.1301 -117.355
  108 941.340 -69.1301 -117.355
  109 715.996 -90.0497 -166.258
  110 715.996 -90.0497 -166.258
  111 1197.18 83.9635 65.2905
  112 1197.18 83.9635 65.2905
  113 97.6703 -309.696 -121.416
  114 97.6703 -309.696 -121.416
  115 55.9341 -369.564 37.3018
  116 55.9341 -369.564 37.3018
  117 657.377 41.8126 -7.94765
  118 657.377 41.8126 -7.94765
  119 784.968 -31.2990 -63.7171
  120 784.968 -31.2990 -63.7171
  121 1261.84 34.5087 -28.6814
  122 1261.84 34.5087 -28.6814
  123 153.429 -297.459 205.495
  124 153.429 -297.459 205.495
  125 714.265 24.4804 35.5757
  126 714.265 24.4804 35.5757
  127 181.725 -239.183 -224.558
  128 181.725 -239.183 -224.558
  129 928.406 -58.7126 165.629
  130 928.406 -58.7126 165.629
  131 1283.71 64.9881 -92.2365
  132 1283.71 64.9881 -92.2365
  133 69.7743 -426.862 -34.6941
  134 69.7743 -426.862 -34.6941
  135 84.8879 -404.980 93.5269
  136 84.8879 -404.980 93.5269
  137 773.162 7.28183 -17.8621
  138 773.162 7.28183 -17.8621
  139 739.566 24.8532 -1.29381
  140 739.566 24.8532 -1.29381
  141 755.134 12.5035 -0.161567
  142 755.134 12.5035 -0.161567
  143 774.455 -15.9604 54.9596
  144 774.455 -15.9604 54.9596
  145 549.918 -13.5825 130.231
  146 776.551 -73.0088 113.191
  147 548.890 32.3923 3.33747
  148 549.918 -13.5825 130.231
  149 776.551 -73.0088 113.191
  150 548.890 32.3923 3.33747
  151 705.062 12.7696 -57.0487
  152 705.062 12.7696 -57.0487
  153 1254.38 35.2868 22.7556
  154 1254.38 35.2868 22.7556
  155 1297.28 29.4104 55.1476
  156 1299.96 71.7750 117.170
  157 1297.28 29.4104 55.1476
  158 1299.96 71.7750 117.170
  159 762.228 8.43359 5.74285
  160 762.228 8.43359 5.74285
  161 490.291 -19.1618 -111.463
  162 490.291 -19.1618 -111.463
  163 762.256 8.21168 -5.63548
  164 762.256 8.21168 -5.63548
  165 766.353 10.0391 16.0125
  166 766.353 10.0391 16.0125
  167 891.979 -6.38412 15.9525
  168 868.526 -32.2524 -6.94555
  169 891.979 -6.38412 15.9525
  170 868.526 -32.2524 -6.94555
  171 953.426 -20.2301 -6.32238
  172 953.426 -20.2301 -6.32238
  173 739.822 22.6987 18.7766
  174 739.822 22.6987 18.7766
  175 380.294 -37.4115 153.839
  176 380.294 -37.4115 153.839
  177 341.053 -13.8356 -97.0016
  178 341.053 -13.8356 -97.0016
  179 745.631 24.4691 -18.0577
  180 745.631 24.4691 -18.0577
</Section>

newXOutput 233

<Section columns = "stress_xx | stress_yy | stress_xy">
  1 766.806 5.12958 -2.82012
  2 766.203 3.96050 2.52789
  3 766.806 5.12958 -2.82012
  4 766.203 3.96050 2.52789
  5 1082.97 59.8086 299.974
  6 1073.55 52.5454 -282.735
  7 1082.97 59.8086 299.974
  8 1073.55 52.5454 -282.735
  9 773.642 1.31045 -9.25514
  10 802.862 0.190813 -15.5011
  11 823.442 -9.76453 -21.8818
  12 867.253 -4.41054 8.75618
  13 872.139 27.4165 7.05618
  14 869.650 -4.15657 -11.5646
  15 831.118 -15.0227 22.0282
  16 793.657 3.45447 18.1225
  17 774.299 4.91141 8.09849
  18 762.732 8.42859 1.40026
  19 759.020 8.50293 -0.105591
  20 762.403 7.76691 -1.27373
  21 773.642 1.31045 -9.25514
  22 802.862 0.190813 -15.5011
  23 823.442 -9.76453 -21.8818
  24 867.253 -4.41054 8.75618
  25 872.139 27.4165 7.05618
  26 869.650 -4.15657 -11.5646
  27 831.118 -15.0227 22.0282
  28 793.657 3.45447 18.1225
  29 774.299 4.91141 8.09849
  30 762.732 8.42859 1.40026
  31 759.020 8.50293 -0.105591
  32 762.403 7.76691 -1.27373
  33 1567.69 14.4380 121.208
  34 1380.56 11.4883 77.6149
  35 1330.95 25.8588 29.8679
  36 1294.75 14.4318 -7.44204
  37 1358.11 4.65797 -29.0675
  38 1393.31 27.4174 -69.5959
  39 1452.30 107.825 -154.454
  40 369.685 -188.410 -352.239
  41 77.3931 -405.460 -157.314
  42 29.5179 -584.733 -52.8967
  43 18.3809 -626.050 -4.46473
  44 23.1553 -591.356 52.9787
  45 70.5838 -490.915 138.598
  46 301.862 -190.845 347.236
  47 1567.69 14.4380 121.208
  48 1380.56 11.4883 77.6149
  49 1330.95 25.8588 29.8679
  50 1294.75 14.4318 -7.44204
  51 1358.11 4.65797 -29.0675
  52 1393.31 27.4174 -69.5959
  53 1452.30 107.825 -154.454
  54 369.685 -188.410 -352.239
  55 77.3931 -405.460 -157.314
  56 29.5179 -584.733 -52.8967
  57 18.3809 -626.050 -4.46473
  58 23.1553 -591.356 52.9787
  59 70.5838 -490.915 138.598
  60 301.862 -190.845 347.236
  61 715.644 30.0180 -12.6125
  62 715.644 30.0180 -12.6125
  63 665.297 10.0547 70.4309
  64 646.509 4.68154 -85.6852
  65 665.297 10.0547 70.4309
  66 646.509 4.68154 -85.6852
  67 382.372 11.0119 24.3981
  68 382.372 11.0119 24.3981
  69 592.559 -112.284 242.442
  70 592.559 -112.284 242.442
  71 368.284 -103.556 -198.611
  72 882.116 -76.0896 -46.6027
  73 980.388 57.3741 -6.17602
  74 938.023 27.4420 -4.62863
  75 368.284 -103.556 -198.611
  76 882.116 -76.0896 -46.6027
  77 980.388 57.3741 -6.17602
  78 938.023 27.4420 -4.62863
  79 868.976 -40.9367 23.3934
  80 868.976 -40.9367 23.3934
  81 1105.63 82.2052 7.79652
  82 1105.63 82.2052 7.79652
  83 200.720 -119.417 -17.4368
  84 200.720 -119.417 -17.4368
  85 254.300 -163.274 175.972
  86 254.300 -163.274 175.972
  87 933.003 -52.5608 39.3692
  88 933.003 -52.5608 39.3692
  89 754.181 16.2947 10.0462
  90 757.025 17.8686 -10.2444
  91 754.181 16.2947 10.0462
  92 757.025 17.8686 -10.2444
  93 1063.60 60.8483 48.0207
  94 1063.60 60.8483 48.0207
  95 777.385 7.22221 30.9423
  96 777.385 7.22221 30.9423
  97 1142.34 84.8574 -44.1140
  98 1151.56 75.3787 -94.3728
  99 1142.34 84.8574 -44.1140
  100 1151.56 75.3787 -94.3728
  101 759.933 11.6876 -38.4290
  102 759.933 11.6876 -38.4290
  103 605.538 -110.952 -292.878
  104 605.538 -110.952 -292.878
  105 515.193 -128.947 311.107
  106 515.193 -128.947 311.107
  107 944.923 -69.3649 -117.898
  108 944.923 -69.3649 -117.898
  109 718.793 -90.4121 -166.944
  110 718.793 -90.4121 -166.944
  111 1201.66 84.2926 65.5603
  112 1201.66 84.2926 65.5603
  113 98.0735 -310.922 -121.987
  114 98.0735 -310.922 -121.987
  115 56.1605 -371.063 37.4846
  116 56.1605 -371.063 37.4846
  117 660.023 41.9802 -7.97704
  118 660.023 41.9802 -7.97704
  119 788.042 -31.4258 -63.9753
  120 788.042 -31.4258 -63.9753
  121 1266.49 34.6303 -28.7862
  122 1266.49 34.6303 -28.7862
  123 154.051 -298.578 206.460
  124 154.051 -298.578 206.460
  125 717.109 24.5761 35.7094
  126 717.109 24.5761 35.7094
  127 182.465 -240.069 -225.589
  128 182.465 -240.069 -225.589
  129 931.935 -58.9048 166.358
  130 931.935 -58.9048 166.358
  131 1288.43 65.2358 -92.6004
  132 1288.43 65.2358 -92.6004
  133 70.0545 -428.617 -34.8587
  134 70.0545 -428.617 -34.8587
  135 85.2311 -406.608 93.9933
  136 85.2311 -406.608 93.9933
  137 776.201 7.30893 -17.9262
  138 776.201 7.30893 -17.9262
  139 742.500 24.9466 -1.29853
  140 742.500 24.9466 -1.29853
  141 758.117 12.5492 -0.162111
  142 758.117 12.5492 -0.162111
  143 777.496 -16.0255 55.1764
  144 777.496 -16.0255 55.1764
  145 552.147 -13.6315 130.754
  146 779.576 -73.3018 113.661
  147 551.140 32.5294 3.35283
  148 552.147 -13.6315 130.754
  149 779.576 -73.3018 113.661
  150 551.140 32.5294 3.35283
  151 707.870 12.8204 -57.2660
  152 707.870 12.8204 -57.2660
  153 1259.01 35.4092 22.8434
  154 1259.01 35.4092 22.8434
  155 1302.05 29.5136 55.3511
  156 1304.73 72.0922 117.651
  157 1302.05 29.5136 55.3511
  158 1304.73 72.0922 117.651
  159 765.232 8.46450 5.76201
  160 765.232 8.46450 5.76201
  161 492.299 -19.2318 -111.913
  162 492.299 -19.2318 -111.913
  163 765.260 8.24177 -5.65424
  164 765.260 8.24177 -5.65424
  165 769.370 10.0767 16.0681
  166 769.370 10.0767 16.0681
  167 895.460 -6.40206 15.9769
  168 871.897 -32.3833 -6.99753
  169 895.460 -6.40206 15.9769
  170 871.897 -32.3833 -6.99753
  171 957.101 -20.2865 -6.41601
  172 957.101 -20.2865 -6.41601
  173 742.755 22.7851 18.8439
  174 742.755 22.7851 18.8439
  175 381.864 -37.5429 154.480
  176 381.864 -37.5429 154.480
  177 342.483 -13.8642 -97.4040
  178 342.483 -13.8642 -97.4040
  179 748.584 24.5623 -18.1230
  180 748.584 24.5623 -18.1230
</Section>

newXOutput 234

<Section columns = "stress_xx | stress_yy | stress_xy">
  1 769.811 5.14817 -2.82938
  2 769.207 3.97473 2.53613
  3 769.811 5.14817 -2.82938
  4 769.207 3.97473 2.53613
  5 1086.89 60.1893 301.210
  6 1077.47 52.9004 -283.923
  7 1086.89 60.1893 301.210
  8 1077.47 52.9004 -283.923
  9 776.668 1.31443 -9.28703
  10 805.982 0.191693 -15.5561
  11 826.640 -9.80505 -21.9705
  12 870.629 -4.42778 8.76990
  13 875.567 27.5295 7.07730
  14 873.036 -4.17127 -11.5842
  15 834.339 -15.0841 22.1186
  16 796.748 3.46708 18.1868
  17 777.327 4.92948 8.12551
  18 765.726 8.45890 1.40483
  19 762.004 8.53333 -0.105919
  20 765.397 7.79479 -1.27790
  21 776.668 1.31443 -9.28703
  22 805.982 0.191693 -15.5561
  23 826.640 -9.80505 -21.9705
  24 870.629 -4.42778 8.76990
  25 875.567 27.5295 7.07730
  26 873.036 -4.17127 -11.5842
  27 834.339 -15.0841 22.1186
  28 796.748 3.46708 18.1868
  29 777.327 4.92948 8.12551
  30 765.726 8.45890 1.40483
  31 762.004 8.53333 -0.105919
  32 765.397 7.79479 -1.27790
  33 1573.21 14.4978 121.664
  34 1385.52 11.5158 77.9011
  35 1335.76 25.9495 29.9719
  36 1299.45 14.4762 -7.46596
  37 1362.98 4.67306 -29.1708
  38 1398.32 27.5205 -69.8470
  39 1457.51 108.280 -155.063
  40 371.070 -188.974 -353.768
  41 77.7002 -407.023 -158.068
  42 29.6286 -587.187 -53.1661
  43 18.4390 -628.715 -4.48209
  44 23.2341 -593.832 53.2466
  45 70.8618 -492.856 139.277
  46 302.997 -191.418 348.753
  47 1573.21 14.4978 121.664
  48 1385.52 11.5158 77.9011
  49 1335.76 25.9495 29.9719
  50 1299.45 14.4762 -7.46596
  51 1362.98 4.67306 -29.1708
  52 1398.32 27.5205 -69.8470
  53 1457.51 108.280 -155.063
  54 371.070 -188.974 -353.768
  55 77.7002 -407.023 -158.068
  56 29.6286 -587.187 -53.1661
  57 18.4390 -628.715 -4.48209
  58 23.2341 -593.832 53.2466
  59 70.8618 -492.856 139.277
  60 302.997 -191.418 348.753
  61 718.485 30.1340 -12.6593
  62 718.485 30.1340 -12.6593
  63 667.949 10.0968 70.7049
  64 649.090 4.70220 -86.0184
  65 667.949 10.0968 70.7049
  66 649.090 4.70220 -86.0184
  67 383.969 11.0768 24.4978
  68 383.969 11.0768 24.4978
  69 594.872 -112.738 243.444
  70 594.872 -112.738 243.444
  71 369.772 -103.950 -199.458
  72 885.508 -76.3884 -46.8266
  73 984.172 57.6103 -6.22953
  74 941.656 27.5583 -4.61130
  75 369.772 -103.950 -199.458
  76 885.508 -76.3884 -46.8266
  77 984.172 57.6103 -6.22953
  78 941.656 27.5583 -4.61130
  79 872.335 -41.0979 23.5146
  80 872.335 -41.0979 23.5146
  81 1109.82 82.5202 7.83853
  82 1109.82 82.5202 7.83853
  83 201.564 -119.856 -17.5143
  84 201.564 -119.856 -17.5143
  85 255.326 -163.896 176.749
  86 255.326 -163.896 176.749
  87 936.577 -52.7519 39.5866
  88 936.577 -52.7519 39.5866
  89 757.149 16.3549 10.0805
  90 760.002 17.9350 -10.2794
  91 757.149 16.3549 10.0805
  92 760.002 17.9350 -10.2794
  93 1067.63 61.1152 48.2696
  94 1067.63 61.1152 48.2696
  95 780.426 7.24879 31.0560
  96 780.426 7.24879 31.0560
  97 1146.65 85.1835 -44.3057
  98 1155.87 75.7154 -94.7962
  99 1146.65 85.1835 -44.3057
  100 1155.87 75.7154 -94.7962
  101 762.918 11.7318 -38.5726
  102 762.918 11.7318 -38.5726
  103 607.832 -111.315 -294.127
  104 607.832 -111.315 -294.127
  105 517.154 -129.379 312.444
  106 517.154 -129.379 312.444
  107 948.501 -69.5991 -118.442
  108 948.501 -69.5991 -118.442
  109 721.588 -90.7742 -167.629
  110 721.588 -90.7742 -167.629
  111 1206.14 84.6215 65.8300
  112 1206.14 84.6215 65.8300
  113 98.4765 -312.147 -122.558
  114 98.4765 -312.147 -122.558
  115 56.3868 -372.562 37.6676
  116 56.3868 -372.562 37.6676
  117 662.668 42.1478 -8.00640
  118 662.668 42.1478 -8.00640
  119 791.113 -31.5525 -64.2334
  120 791.113 -31.5525 -64.2334
  121 1271.13 34.7518 -28.8907
  122 1271.13 34.7518 -28.8907
  123 154.673 -299.696 207.426
  124 154.673 -299.696 207.426
  125 719.951 24.6718 35.8430
  126 719.951 24.6718 35.8430
  127 183.204 -240.954 -226.621
  128 183.204 -240.954 -226.621
  129 935.460 -59.0966 167.088
  130 935.460 -59.0966 167.088
  131 1293.15 65.4833 -92.9640
  132 1293.15 65.4833 -92.9640
  133 70.3346 -430.371 -35.0234
  134 70.3346 -430.371 -35.0234
  135 85.5741 -408.234 94.4603
  136 85.5741 -408.234 94.4603
  137 779.238 7.33601 -17.9903
  138 779.238 7.33601 -17.9903
  139 745.432 25.0399 -1.30323
  140 745.432 25.0399 -1.30323
  141 761.098 12.5948 -0.162654
  142 761.098 12.5948 -0.162654
  143 780.534 -16.0906 55.3930
  144 780.534 -16.0906 55.3930
  145 554.375 -13.6804 131.276
  146 782.599 -73.5946 114.132
  147 553.389 32.6665 3.36819
  148 554.375 -13.6804 131.276
  149 782.599 -73.5946 114.132
  150 553.389 32.6665 3.36819
  151 710.675 12.8711 -57.4830
  152 710.675 12.8711 -57.4830
  153 1263.64 35.5313 22.9312
  154 1263.64 35.5313 22.9312
  155 1306.80 29.6167 55.5543
  156 1309.50 72.4094 118.131
  157 1306.80 29.6167 55.5543
  158 1309.50 72.4094 118.131
  159 768.233 8.49538 5.78112
  160 768.233 8.49538 5.78112
  161 494.307 -19.3017 -112.363
  162 494.307 -19.3017 -112.363
  163 768.261 8.27182 -5.67297
  164 768.261 8.27182 -5.67297
  165 772.384 10.1143 16.1237
  166 772.384 10.1143 16.1237
  167 898.938 -6.41993 16.0010
  168 875.265 -32.5141 -7.04966
  169 898.938 -6.41993 16.0010
  170 875.265 -32.5141 -7.04966
  171 960.773 -20.3427 -6.51011
  172 960.773 -20.3427 -6.51011
  173 745.686 22.8713 18.9111
  174 745.686 22.8713 18.9111
  175 383.433 -37.6740 155.120
  176 383.433 -37.6740 155.120
  177 343.912 -13.8926 -97.8062
  178 343.912 -13.8926 -97.8062
  179 751.535 24.6554 -18.1882
  180 751.535 24.6554 -18.1882
</Section>

newXOutput 235

<Section columns = "stress_xx | stress_yy | stress_xy">
  1 772.815 5.16674 -2.83862
  2 772.209 3.98895 2.54434
  3 772.815 5.16674 -2.83862
  4 772.209 3.98895 2.54434
  5 1090.81 60.5710 302.447
  6 1081.39 53.2562 -285.110
  7 1090.81 60.5710 302.447
  8 1081.39 53.2562 -285.110
  9 779.692 1.31840 -9.31886
  10 809.099 0.192574 -15.6110
  11 829.834 -9.84556 -22.0593
  12 874.002 -4.44500 8.78346
  13 878.992 27.6425 7.09836
  14 876.419 -4.18594 -11.6037
  15 837.558 -15.1454 22.2090
  16 799.836 3.47967 18.2511
  17 780.353 4.94753 8.15247
  18 768.718 8.48915 1.40939
  19 764.985 8.56368 -0.106247
  20 768.388 7.82262 -1.28206
  21 779.692 1.31840 -9.31886
  22 809.099 0.192574 -15.6110
  23 829.834 -9.84556 -22.0593
  24 874.002 -4.44500 8.78346
  25 878.992 27.6425 7.09836
  26 876.419 -4.18594 -11.6037
  27 837.558 -15.1454 22.2090
  28 799.836 3.47967 18.2511
  29 780.353 4.94753 8.15247
  30 768.718 8.48915 1.40939
  31 764.985 8.56368 -0.106247
  32 768.388 7.82262 -1.28206
  33 1578.73 14.5576 122.119
  34 1390.47 11.5431 78.1870
  35 1340.56 26.0402 30.0757
  36 1304.15 14.5205 -7.48983
  37 1367.84 4.68811 -29.2739
  38 1403.31 27.6235 -70.0976
  39 1462.72 108.735 -155.671
  40 372.452 -189.536 -355.297
  41 78.0070 -408.585 -158.823
  42 29.7392 -589.641 -53.4358
  43 18.4970 -631.380 -4.49943
  44 23.3127 -596.306 53.5148
  45 71.1395 -494.795 139.956
  46 304.131 -191.989 350.270
  47 1578.73 14.5576 122.119
  48 1390.47 11.5431 78.1870
  49 1340.56 26.0402 30.0757
  50 1304.15 14.5205 -7.48983
  51 1367.84 4.68811 -29.2739
  52 1403.31 27.6235 -70.0976
  53 1462.72 108.735 -155.671
  54 372.452 -189.536 -355.297
  55 78.0070 -408.585 -158.823
  56 29.7392 -589.641 -53.4358
  57 18.4970 -631.380 -4.49943
  58 23.3127 -596.306 53.5148
  59 71.1395 -494.795 139.956
  60 304.131 -191.989 350.270
  61 721.324 30.2499 -12.7060
  62 721.324 30.2499 -12.7060
  63 670.599 10.1390 70.9787
  64 651.669 4.72285 -86.3513
  65 670.599 10.1390 70.9787
  66 651.669 4.72285 -86.3513
  67 385.565 11.1418 24.5974
  68 385.565 11.1418 24.5974
  69 597.183 -113.191 244.446
  70 597.183 -113.191 244.446
  71 371.259 -104.345 -200.305
  72 888.897 -76.6870 -47.0506
  73 987.953 57.8465 -6.28322
  74 945.285 27.6746 -4.59372
  75 371.259 -104.345 -200.305
  76 888.897 -76.6870 -47.0506
  77 987.953 57.8465 -6.28322
  78 945.285 27.6746 -4.59372
  79 875.691 -41.2590 23.6359
  80 875.691 -41.2590 23.6359
  81 1114.00 82.8350 7.88058
  82 1114.00 82.8350 7.88058
  83 202.407 -120.295 -17.5917
  84 202.407 -120.295 -17.5917
  85 256.352 -164.518 177.527
  86 256.352 -164.518 177.527
  87 940.147 -52.9426 39.8043
  88 940.147 -52.9426 39.8043
  89 760.115 16.4150 10.1148
  90 762.977 18.0013 -10.3144
  91 760.115 16.4150 10.1148
  92 762.977 18.0013 -10.3144
  93 1071.67 61.3822 48.5187
  94 1071.67 61.3822 48.5187
  95 783.464 7.27533 31.1696
  96 783.464 7.27533 31.1696
  97 1150.95 85.5093 -44.4973
  98 1160.17 76.0521 -95.2197
  99 1150.95 85.5093 -44.4973
  100 1160.17 76.0521 -95.2197
  101 765.901 11.7760 -38.7161
  102 765.901 11.7760 -38.7161
  103 610.124 -111.677 -295.376
  104 610.124 -111.677 -295.376
  105 519.112 -129.811 313.782
  106 519.112 -129.811 313.782
  107 952.076 -69.8328 -118.986
  108 952.076 -69.8328 -118.986
  109 724.381 -91.1361 -168.314
  110 724.381 -91.1361 -168.314
  111 1210.62 84.9501 66.0995
  112 1210.62 84.9501 66.0995
  113 98.8794 -313.371 -123.129
  114 98.8794 -313.371 -123.129
  115 56.6130 -374.060 37.8508
  116 56.6130 -374.060 37.8508
  117 665.310 42.3152 -8.03571
  118 665.310 42.3152 -8.03571
  119 794.181 -31.6792 -64.4913
  120 794.181 -31.6792 -64.4913
  121 1275.77 34.8731 -28.9952
  122 1275.77 34.8731 -28.9952
  123 155.294 -300.813 208.392
  124 155.294 -300.813 208.392
  125 722.791 24.7673 35.9763
  126 722.791 24.7673 35.9763
  127 183.943 -241.838 -227.652
  128 183.943 -241.838 -227.652
  129 938.981 -59.2878 167.817
  130 938.981 -59.2878 167.817
  131 1297.86 65.7305 -93.3272
  132 1297.86 65.7305 -93.3272
  133 70.6144 -432.124 -35.1883
  134 70.6144 -432.124 -35.1883
  135 85.9168 -409.859 94.9277
  136 85.9168 -409.859 94.9277
  137 782.272 7.36305 -18.0542
  138 782.272 7.36305 -18.0542
  139 748.362 25.1331 -1.30793
  140 748.362 25.1331 -1.30793
  141 764.077 12.6403 -0.163195
  142 764.077 12.6403 -0.163195
  143 783.570 -16.1556 55.6095
  144 783.570 -16.1556 55.6095
  145 556.602 -13.7293 131.798
  146 785.620 -73.8872 114.601
  147 555.637 32.8035 3.38356
  148 556.602 -13.7293 131.798
  149 785.620 -73.8872 114.601
  150 555.637 32.8035 3.38356
  151 713.479 12.9219 -57.6999
  152 713.479 12.9219 -57.6999
  153 1268.26 35.6533 23.0189
  154 1268.26 35.6533 23.0189
  155 1311.55 29.7197 55.7572
  156 1314.25 72.7267 118.612
  157 1311.55 29.7197 55.7572
  158 1314.25 72.7267 118.612
  159 771.233 8.52621 5.80019
  160 771.233 8.52621 5.80019
  161 496.314 -19.3715 -112.813
  162 496.314 -19.3715 -112.813
  163 771.261 8.30184 -5.69166
  164 771.261 8.30184 -5.69166
  165 775.396 10.1518 16.1791
  166 775.396 10.1518 16.1791
  167 902.412 -6.43771 16.0248
  168 878.631 -32.6449 -7.10193
  169 902.412 -6.43771 16.0248
  170 878.631 -32.6449 -7.10193
  171 964.441 -20.3986 -6.60467
  172 964.441 -20.3986 -6.60467
  173 748.615 22.9575 18.9783
  174 748.615 22.9575 18.9783
  175 385.002 -37.8049 155.760
  176 385.002 -37.8049 155.760
  177 345.341 -13.9207 -98.2083
  178 345.341 -13.9207 -98.2083
  179 754.484 24.7483 -18.2533
  180 754.484 24.7483 -18.2533
</Section>

newXOutput 236

<Section columns = "stress_xx | stress_yy | stress_xy">
  1 775.816 5.18528 -2.84784
  2 775.208 4.00315 2.55254
  3 775.816 5.18528 -2.84784
  4 775.208 4.00315 2.55254
  5 1094.72 60.9535 303.682
  6 1085.31 53.6130 -286.297
  7 1094.72 60.9535 303.682
  8 1085.31 53.6130 -286.297
  9 782.714 1.32235 -9.35063
  10 812.213 0.193455 -15.6659
  11 833.026 -9.88606 -22.1480
  12 877.372 -4.46221 8.79686
  13 882.414 27.7554 7.11935
  14 879.800 -4.20059 -11.6229
  15 840.774 -15.2067 22.2994
  16 802.922 3.49224 18.3153
  17 783.377 4.96556 8.17938
  18 771.708 8.51937 1.41394
  19 767.965 8.59399 -0.106573
  20 771.377 7.85040 -1.28621
  21 782.714 1.32235 -9.35063
  22 812.213 0.193455 -15.6659
  23 833.026 -9.88606 -22.1480
  24 877.372 -4.46221 8.79686
  25 882.414 27.7554 7.11935
  26 879.800 -4.20059 -11.6229
  27 840.774 -15.2067 22.2994
  28 802.922 3.49224 18.3153
  29 783.377 4.96556 8.17938
  30 771.708 8.51937 1.41394
  31 767.965 8.59399 -0.106573
  32 771.377 7.85040 -1.28621
  33 1584.23 14.6174 122.574
  34 1395.42 11.5702 78.4725
  35 1345.36 26.1306 30.1794
  36 1308.84 14.5646 -7.51364
  37 1372.69 4.70314 -29.3768
  38 1408.29 27.7263 -70.3479
  39 1467.91 109.191 -156.278
  40 373.834 -190.095 -356.826
  41 78.3136 -410.145 -159.578
  42 29.8497 -592.094 -53.7059
  43 18.5548 -634.044 -4.51676
  44 23.3912 -598.780 53.7834
  45 71.4171 -496.732 140.636
  46 305.264 -192.558 351.786
  47 1584.23 14.6174 122.574
  48 1395.42 11.5702 78.4725
  49 1345.36 26.1306 30.1794
  50 1308.84 14.5646 -7.51364
  51 1372.69 4.70314 -29.3768
  52 1408.29 27.7263 -70.3479
  53 1467.91 109.191 -156.278
  54 373.834 -190.095 -356.826
  55 78.3136 -410.145 -159.578
  56 29.8497 -592.094 -53.7059
  57 18.5548 -634.044 -4.51676
  58 23.3912 -598.780 53.7834
  59 71.4171 -496.732 140.636
  60 305.264 -192.558 351.786
  61 724.161 30.3657 -12.7526
  62 724.161 30.3657 -12.7526
  63 673.248 10.1811 71.2522
  64 654.246 4.74351 -86.6839
  65 673.248 10.1811 71.2522
  66 654.246 4.74351 -86.6839
  67 387.162 11.2070 24.6969
  68 387.162 11.2070 24.6969
  69 599.492 -113.645 245.447
  70 599.492 -113.645 245.447
  71 372.746 -104.739 -201.152
  72 892.283 -76.9854 -47.2748
  73 991.730 58.0826 -6.33708
  74 948.910 27.7908 -4.57588
  75 372.746 -104.739 -201.152
  76 892.283 -76.9854 -47.2748
  77 991.730 58.0826 -6.33708
  78 948.910 27.7908 -4.57588
  79 879.043 -41.4199 23.7574
  80 879.043 -41.4199 23.7574
  81 1118.18 83.1495 7.92268
  82 1118.18 83.1495 7.92268
  83 203.250 -120.733 -17.6692
  84 203.250 -120.733 -17.6692
  85 257.377 -165.139 178.305
  86 257.377 -165.139 178.305
  87 943.714 -53.1331 40.0223
  88 943.714 -53.1331 40.0223
  89 763.079 16.4751 10.1490
  90 765.950 18.0675 -10.3493
  91 763.079 16.4751 10.1490
  92 765.950 18.0675 -10.3493
  93 1075.70 61.6491 48.7681
  94 1075.70 61.6491 48.7681
  95 786.500 7.30184 31.2831
  96 786.500 7.30184 31.2831
  97 1155.25 85.8348 -44.6889
  98 1164.47 76.3890 -95.6433
  99 1155.25 85.8348 -44.6889
  100 1164.47 76.3890 -95.6433
  101 768.882 11.8201 -38.8594
  102 768.882 11.8201 -38.8594
  103 612.413 -112.039 -296.625
  104 612.413 -112.039 -296.625
  105 521.069 -130.242 315.119
  106 521.069 -130.242 315.119
  107 955.646 -70.0660 -119.531
  108 955.646 -70.0660 -119.531
  109 727.171 -91.4978 -168.999
  110 727.171 -91.4978 -168.999
  111 1215.08 85.2784 66.3689
  112 1215.08 85.2784 66.3689
  113 99.2821 -314.595 -123.701
  114 99.2821 -314.595 -123.701
  115 56.8390 -375.558 38.0341
  116 56.8390 -375.558 38.0341
  117 667.952 42.4826 -8.06499
  118 667.952 42.4826 -8.06499
  119 797.248 -31.8057 -64.7490
  120 797.248 -31.8057 -64.7490
  121 1280.40 34.9942 -29.0994
  122 1280.40 34.9942 -29.0994
  123 155.915 -301.928 209.359
  124 155.915 -301.928 209.359
  125 725.629 24.8628 36.1096
  126 725.629 24.8628 36.1096
  127 184.682 -242.721 -228.684
  128 184.682 -242.721 -228.684
  129 942.498 -59.4786 168.547
  130 942.498 -59.4786 168.547
  131 1302.56 65.9774 -93.6902
  132 1302.56 65.9774 -93.6902
  133 70.8941 -433.876 -35.3533
  134 70.8941 -433.876 -35.3533
  135 86.2594 -411.483 95.3956
  136 86.2594 -411.483 95.3956
  137 785.304 7.39005 -18.1180
  138 785.304 7.39005 -18.1180
  139 751.290 25.2261 -1.31263
  140 751.290 25.2261 -1.31263
  141 767.053 12.6858 -0.163736
  142 767.053 12.6858 -0.163736
  143 786.604 -16.2207 55.8258
  144 786.604 -16.2207 55.8258
  145 558.828 -13.7781 132.319
  146 788.637 -74.1797 115.071
  147 557.884 32.9406 3.39894
  148 558.828 -13.7781 132.319
  149 788.637 -74.1797 115.071
  150 557.884 32.9406 3.39894
  151 716.280 12.9726 -57.9165
  152 716.280 12.9726 -57.9165
  153 1272.87 35.7750 23.1065
  154 1272.87 35.7750 23.1065
  155 1316.30 29.8224 55.9599
  156 1319.00 73.0439 119.092
  157 1316.30 29.8224 55.9599
  158 1319.00 73.0439 119.092
  159 774.230 8.55700 5.81921
  160 774.230 8.55700 5.81921
  161 498.320 -19.4412 -113.262
  162 498.320 -19.4412 -113.262
  163 774.258 8.33181 -5.71031
  164 774.258 8.33181 -5.71031
  165 778.406 10.1893 16.2344
  166 778.406 10.1893 16.2344
  167 905.884 -6.45542 16.0483
  168 881.993 -32.7756 -7.15435
  169 905.884 -6.45542 16.0483
  170 881.993 -32.7756 -7.15435
  171 968.106 -20.4543 -6.69969
  172 968.106 -20.4543 -6.69969
  173 751.542 23.0435 19.0453
  174 751.542 23.0435 19.0453
  175 386.570 -37.9356 156.400
  176 386.570 -37.9356 156.400
  177 346.770 -13.9487 -98.6101
  178 346.770 -13.9487 -98.6101
  179 757.431 24.8412 -18.3183
  180 757.431 24.8412 -18.3183
</Section>

newXOutput 237

<Section columns = "stress_xx | stress_yy | stress_xy">
  1 778.815 5.20380 -2.85704
  2 778.204 4.01732 2.56072
  3 778.815 5.20380 -2.85704
  4 778.204 4.01732 2.56072
  5 1098.62 61.3369 304.917
  6 1089.21 53.9708 -287.483
  7 1098.62 61.3369 304.917
  8 1089.21 53.9708 -287.483
  9 785.733 1.32630 -9.38233
  10 815.325 0.194337 -15.7207
  11 836.215 -9.92655 -22.2366
  12 880.739 -4.47940 8.81008
  13 885.833 27.8683 7.14027
  14 883.177 -4.21521 -11.6420
  15 843.987 -15.2680 22.3897
  16 806.005 3.50480 18.3794
  17 786.398 4.98356 8.20623
  18 774.696 8.54954 1.41849
  19 770.942 8.62425 -0.106899
  20 774.363 7.87815 -1.29035
  21 785.733 1.32630 -9.38233
  22 815.325 0.194337 -15.7207
  23 836.215 -9.92655 -22.2366
  24 880.739 -4.47940 8.81008
  25 885.833 27.8683 7.14027
  26 883.177 -4.21521 -11.6420
  27 843.987 -15.2680 22.3897
  28 806.005 3.50480 18.3794
  29 786.398 4.98356 8.20623
  30 774.696 8.54954 1.41849
  31 770.942 8.62425 -0.106899
  32 774.363 7.87815 -1.29035
  33 1589.73 14.6771 123.028
  34 1400.36 11.5972 78.7576
  35 1350.14 26.2210 30.2828
  36 1313.52 14.6086 -7.53739
  37 1377.54 4.71813 -29.4796
  38 1413.27 27.8290 -70.5979
  39 1473.10 109.646 -156.885
  40 375.213 -190.653 -358.355
  41 78.6199 -411.704 -160.334
  42 29.9600 -594.546 -53.9763
  43 18.6125 -636.708 -4.53407
  44 23.4695 -601.254 54.0523
  45 71.6944 -498.668 141.317
  46 306.395 -193.125 353.303
  47 1589.73 14.6771 123.028
  48 1400.36 11.5972 78.7576
  49 1350.14 26.2210 30.2828
  50 1313.52 14.6086 -7.53739
  51 1377.54 4.71813 -29.4796
  52 1413.27 27.8290 -70.5979
  53 1473.10 109.646 -156.885
  54 375.213 -190.653 -358.355
  55 78.6199 -411.704 -160.334
  56 29.9600 -594.546 -53.9763
  57 18.6125 -636.708 -4.53407
  58 23.4695 -601.254 54.0523
  59 71.6944 -498.668 141.317
  60 306.395 -193.125 353.303
  61 726.996 30.4813 -12.7992
  62 726.996 30.4813 -12.7992
  63 675.895 10.2232 71.5255
  64 656.822 4.76417 -87.0162
  65 675.895 10.2232 71.5255
  66 656.822 4.76417 -87.0162
  67 388.757 11.2722 24.7964
  68 388.757 11.2722 24.7964
  69 601.799 -114.098 246.448
  70 601.799 -114.098 246.448
  71 374.231 -105.132 -201.999
  72 895.666 -77.2835 -47.4991
  73 995.504 58.3186 -6.39113
  74 952.533 27.9071 -4.55778
  75 374.231 -105.132 -201.999
  76 895.666 -77.2835 -47.4991
  77 995.504 58.3186 -6.39113
  78 952.533 27.9071 -4.55778
  79 882.393 -41.5808 23.8790
  80 882.393 -41.5808 23.8790
  81 1122.35 83.4637 7.96482
  82 1122.35 83.4637 7.96482
  83 204.093 -121.171 -17.7466
  84 204.093 -121.171 -17.7466
  85 258.401 -165.759 179.083
  86 258.401 -165.759 179.083
  87 947.277 -53.3232 40.2407
  88 947.277 -53.3232 40.2407
  89 766.041 16.5351 10.1831
  90 768.921 18.1337 -10.3841
  91 766.041 16.5351 10.1831
  92 768.921 18.1337 -10.3841
  93 1079.72 61.9161 49.0177
  94 1079.72 61.9161 49.0177
  95 789.533 7.32832 31.3963
  96 789.533 7.32832 31.3963
  97 1159.54 86.1601 -44.8805
  98 1168.76 76.7259 -96.0668
  99 1159.54 86.1601 -44.8805
  100 1168.76 76.7259 -96.0668
  101 771.860 11.8642 -39.0025
  102 771.860 11.8642 -39.0025
  103 614.699 -112.399 -297.874
  104 614.699 -112.399 -297.874
  105 523.024 -130.672 316.456
  106 523.024 -130.672 316.456
  107 959.213 -70.2987 -120.075
  108 959.213 -70.2987 -120.075
  109 729.959 -91.8593 -169.684
  110 729.959 -91.8593 -169.684
  111 1219.55 85.6065 66.6381
  112 1219.55 85.6065 66.6381
  113 99.6846 -315.817 -124.274
  114 99.6846 -315.817 -124.274
  115 57.0649 -377.054 38.2176
  116 57.0649 -377.054 38.2176
  117 670.591 42.6498 -8.09423
  118 670.591 42.6498 -8.09423
  119 800.311 -31.9323 -65.0066
  120 800.311 -31.9323 -65.0066
  121 1285.02 35.1151 -29.2035
  122 1285.02 35.1151 -29.2035
  123 156.536 -303.042 210.327
  124 156.536 -303.042 210.327
  125 728.465 24.9582 36.2426
  126 728.465 24.9582 36.2426
  127 185.420 -243.602 -229.717
  128 185.420 -243.602 -229.717
  129 946.012 -59.6690 169.276
  130 946.012 -59.6690 169.276
  131 1307.26 66.2241 -94.0528
  132 1307.26 66.2241 -94.0528
  133 71.1737 -435.627 -35.5184
  134 71.1737 -435.627 -35.5184
  135 86.6018 -413.106 95.8640
  136 86.6018 -413.106 95.8640
  137 788.333 7.41703 -18.1817
  138 788.333 7.41703 -18.1817
  139 754.215 25.3191 -1.31731
  140 754.215 25.3191 -1.31731
  141 770.027 12.7312 -0.164275
  142 770.027 12.7312 -0.164275
  143 789.635 -16.2857 56.0420
  144 789.635 -16.2857 56.0420
  145 561.052 -13.8268 132.840
  146 791.652 -74.4719 115.541
  147 560.130 33.0776 3.41432
  148 561.052 -13.8268 132.840
  149 791.652 -74.4719 115.541
  150 560.130 33.0776 3.41432
  151 719.080 13.0232 -58.1328
  152 719.080 13.0232 -58.1328
  153 1277.48 35.8965 23.1939
  154 1277.48 35.8965 23.1939
  155 1321.03 29.9250 56.1622
  156 1323.75 73.3612 119.572
  157 1321.03 29.9250 56.1622
  158 1323.75 73.3612 119.572
  159 777.224 8.58775 5.83820
  160 777.224 8.58775 5.83820
  161 500.325 -19.5108 -113.711
  162 500.325 -19.5108 -113.711
  163 777.252 8.36174 -5.72891
  164 777.252 8.36174 -5.72891
  165 781.414 10.2267 16.2897
  166 781.414 10.2267 16.2897
  167 909.352 -6.47305 16.0715
  168 885.352 -32.9062 -7.20692
  169 909.352 -6.47305 16.0715
  170 885.352 -32.9062 -7.20692
  171 971.767 -20.5097 -6.79517
  172 971.767 -20.5097 -6.79517
  173 754.467 23.1295 19.1122
  174 754.467 23.1295 19.1122
  175 388.138 -38.0661 157.039
  176 388.138 -38.0661 157.039
  177 348.198 -13.9764 -99.0119
  178 348.198 -13.9764 -99.0119
  179 760.375 24.9340 -18.3832
  180 760.375 24.9340 -18.3832
</Section>

newXOutput 238

<Section columns = "stress_xx | stress_yy | stress_xy">
  1 781.811 5.22229 -2.86621
  2 781.199 4.03148 2.56888
  3 781.811 5.22229 -2.86621
  4 781.199 4.03148 2.56888
  5 1102.52 61.7211 306.152
  6 1093.12 54.3295 -288.669
  7 1102.52 61.7211 306.152
  8 1093.12 54.3295 -288.669
  9 788.749 1.33023 -9.41398
  10 818.433 0.195220 -15.7753
  11 839.401 -9.96702 -22.3252
  12 884.104 -4.49658 8.82314
  13 889.250 27.9812 7.16112
  14 886.551 -4.22980 -11.6608
  15 847.198 -15.3292 22.4799
  16 809.086 3.51734 18.4434
  17 789.417 5.00154 8.23302
  18 777.681 8.57966 1.42302
  19 773.917 8.65447 -0.107224
  20 777.348 7.90586 -1.29448
  21 788.749 1.33023 -9.41398
  22 818.433 0.195220 -15.7753
  23 839.401 -9.96702 -22.3252
  24 884.104 -4.49658 8.82314
  25 889.250 27.9812 7.16112
  26 886.551 -4.22980 -11.6608
  27 847.198 -15.3292 22.4799
  28 809.086 3.51734 18.4434
  29 789.417 5.00154 8.23302
  30 777.681 8.57966 1.42302
  31 773.917 8.65447 -0.107224
  32 777.348 7.90586 -1.29448
  33 1595.22 14.7369 123.481
  34 1405.29 11.6241 79.0423
  35 1354.93 26.3111 30.3861
  36 1318.20 14.6525 -7.56108
  37 1382.37 4.73309 -29.5822
  38 1418.24 27.9316 -70.8474
  39 1478.28 110.101 -157.492
  40 376.591 -191.209 -359.884
  41 78.9260 -413.262 -161.091
  42 30.0702 -596.998 -54.2471
  43 18.6700 -639.372 -4.55136
  44 23.5477 -603.726 54.3215
  45 71.9714 -500.602 141.998
  46 307.525 -193.690 354.820
  47 1595.22 14.7369 123.481
  48 1405.29 11.6241 79.0423
  49 1354.93 26.3111 30.3861
  50 1318.20 14.6525 -7.56108
  51 1382.37 4.73309 -29.5822
  52 1418.24 27.9316 -70.8474
  53 1478.28 110.101 -157.492
  54 376.591 -191.209 -359.884
  55 78.9260 -413.262 -161.091
  56 30.0702 -596.998 -54.2471
  57 18.6700 -639.372 -4.55136
  58 23.5477 -603.726 54.3215
  59 71.9714 -500.602 141.998
  60 307.525 -193.690 354.820
  61 729.829 30.5969 -12.8458
  62 729.829 30.5969 -12.8458
  63 678.540 10.2653 71.7986
  64 659.396 4.78483 -87.3482
  65 678.540 10.2653 71.7986
  66 659.396 4.78483 -87.3482
  67 390.353 11.3376 24.8959
  68 390.353 11.3376 24.8959
  69 604.104 -114.551 247.449
  70 604.104 -114.551 247.449
  71 375.716 -105.525 -202.845
  72 899.046 -77.5815 -47.7235
  73 999.274 58.5545 -6.44534
  74 956.152 28.0233 -4.53942
  75 375.716 -105.525 -202.845
  76 899.046 -77.5815 -47.7235
  77 999.274 58.5545 -6.44534
  78 956.152 28.0233 -4.53942
  79 885.740 -41.7415 24.0007
  80 885.740 -41.7415 24.0007
  81 1126.52 83.7776 8.00701
  82 1126.52 83.7776 8.00701
  83 204.936 -121.608 -17.8241
  84 204.936 -121.608 -17.8241
  85 259.425 -166.379 179.861
  86 259.425 -166.379 179.861
  87 950.837 -53.5131 40.4594
  88 950.837 -53.5131 40.4594
  89 769.001 16.5950 10.2171
  90 771.890 18.1998 -10.4188
  91 769.001 16.5950 10.2171
  92 771.890 18.1998 -10.4188
  93 1083.74 62.1832 49.2676
  94 1083.74 62.1832 49.2676
  95 792.564 7.35477 31.5095
  96 792.564 7.35477 31.5095
  97 1163.83 86.4850 -45.0720
  98 1173.04 77.0629 -96.4904
  99 1163.83 86.4850 -45.0720
  100 1173.04 77.0629 -96.4904
  101 774.835 11.9082 -39.1455
  102 774.835 11.9082 -39.1455
  103 616.983 -112.759 -299.122
  104 616.983 -112.759 -299.122
  105 524.977 -131.101 317.793
  106 524.977 -131.101 317.793
  107 962.776 -70.5309 -120.620
  108 962.776 -70.5309 -120.620
  109 732.744 -92.2206 -170.368
  110 732.744 -92.2206 -170.368
  111 1224.01 85.9343 66.9072
  112 1224.01 85.9343 66.9072
  113 100.087 -317.038 -124.846
  114 100.087 -317.038 -124.846
  115 57.2907 -378.549 38.4013
  116 57.2907 -378.549 38.4013
  117 673.229 42.8169 -8.12343
  118 673.229 42.8169 -8.12343
  119 803.372 -32.0587 -65.2641
  120 803.372 -32.0587 -65.2641
  121 1289.64 35.2358 -29.3075
  122 1289.64 35.2358 -29.3075
  123 157.156 -304.155 211.295
  124 157.156 -304.155 211.295
  125 731.299 25.0536 36.3755
  126 731.299 25.0536 36.3755
  127 186.158 -244.483 -230.750
  128 186.158 -244.483 -230.750
  129 949.522 -59.8588 170.006
  130 949.522 -59.8588 170.006
  131 1311.96 66.4705 -94.4151
  132 1311.96 66.4705 -94.4151
  133 71.4530 -437.378 -35.6836
  134 71.4530 -437.378 -35.6836
  135 86.9439 -414.728 96.3330
  136 86.9439 -414.728 96.3330
  137 791.360 7.44396 -18.2454
  138 791.360 7.44396 -18.2454
  139 757.139 25.4119 -1.32199
  140 757.139 25.4119 -1.32199
  141 772.999 12.7766 -0.164813
  142 772.999 12.7766 -0.164813
  143 792.663 -16.3506 56.2579
  144 792.663 -16.3506 56.2579
  145 563.275 -13.8754 133.361
  146 794.665 -74.7640 116.010
  147 562.375 33.2145 3.42970
  148 563.275 -13.8754 133.361
  149 794.665 -74.7640 116.010
  150 562.375 33.2145 3.42970
  151 721.877 13.0738 -58.3490
  152 721.877 13.0738 -58.3490
  153 1282.08 36.0178 23.2813
  154 1282.08 36.0178 23.2813
  155 1325.77 30.0275 56.3643
  156 1328.49 73.6786 120.051
  157 1325.77 30.0275 56.3643
  158 1328.49 73.6786 120.051
  159 780.217 8.61845 5.85714
  160 780.217 8.61845 5.85714
  161 502.329 -19.5803 -114.160
  162 502.329 -19.5803 -114.160
  163 780.245 8.39163 -5.74748
  164 780.245 8.39163 -5.74748
  165 784.419 10.2641 16.3448
  166 784.419 10.2641 16.3448
  167 912.818 -6.49060 16.0943
  168 888.708 -33.0368 -7.25964
  169 912.818 -6.49060 16.0943
  170 888.708 -33.0368 -7.25964
  171 975.425 -20.5649 -6.89110
  172 975.425 -20.5649 -6.89110
  173 757.390 23.2154 19.1790
  174 757.390 23.2154 19.1790
  175 389.705 -38.1963 157.679
  176 389.705 -38.1963 157.679
  177 349.626 -14.0038 -99.4134
  178 349.626 -14.0038 -99.4134
  179 763.317 25.0267 -18.4481
  180 763.317 25.0267 -18.4481
</Section>

newXOutput 239

<Section columns = "stress_xx | stress_yy | stress_xy">
  1 784.805 5.24075 -2.87537
  2 784.191 4.04561 2.57703
  3 784.805 5.24075 -2.87537
  4 784.191 4.04561 2.57703
  5 1106.41 62.1063 307.385
  6 1097.02 54.6891 -289.854
  7 1106.41 62.1063 307.385
  8 1097.02 54.6891 -289.854
  9 791.764 1.33415 -9.44558
  10 821.540 0.196103 -15.8299
  11 842.584 -10.0075 -22.4137
  12 887.465 -4.51375 8.83603
  13 892.664 28.0940 7.18190
  14 889.923 -4.24437 -11.6794
  15 850.405 -15.3905 22.5702
  16 812.164 3.52987 18.5073
  17 792.433 5.01950 8.25975
  18 780.664 8.60974 1.42754
  19 776.889 8.68464 -0.107548
  20 780.330 7.93352 -1.29860
  21 791.764 1.33415 -9.44558
  22 821.540 0.196103 -15.8299
  23 842.584 -10.0075 -22.4137
  24 887.465 -4.51375 8.83603
  25 892.664 28.0940 7.18190
  26 889.923 -4.24437 -11.6794
  27 850.405 -15.3905 22.5702
  28 812.164 3.52987 18.5073
  29 792.433 5.01950 8.25975
  30 780.664 8.60974 1.42754
  31 776.889 8.68464 -0.107548
  32 780.330 7.93352 -1.29860
  33 1600.70 14.7966 123.934
  34 1410.22 11.6508 79.3267
  35 1359.70 26.4012 30.4892
  36 1322.87 14.6963 -7.58471
  37 1387.20 4.74802 -29.6846
  38 1423.21 28.0342 -71.0966
  39 1483.45 110.556 -158.098
  40 377.967 -191.763 -361.412
  41 79.2318 -414.817 -161.848
  42 30.1803 -599.449 -54.5182
  43 18.7273 -642.035 -4.56864
  44 23.6257 -606.198 54.5911
  45 72.2483 -502.535 142.681
  46 308.654 -194.253 356.337
  47 1600.70 14.7966 123.934
  48 1410.22 11.6508 79.3267
  49 1359.70 26.4012 30.4892
  50 1322.87 14.6963 -7.58471
  51 1387.20 4.74802 -29.6846
  52 1423.21 28.0342 -71.0966
  53 1483.45 110.556 -158.098
  54 377.967 -191.763 -361.412
  55 79.2318 -414.817 -161.848
  56 30.1803 -599.449 -54.5182
  57 18.7273 -642.035 -4.56864
  58 23.6257 -606.198 54.5911
  59 72.2483 -502.535 142.681
  60 308.654 -194.253 356.337
  61 732.660 30.7123 -12.8922
  62 732.660 30.7123 -12.8922
  63 681.184 10.3074 72.0714
  64 661.969 4.80548 -87.6799
  65 681.184 10.3074 72.0714
  66 661.969 4.80548 -87.6799
  67 391.948 11.4031 24.9953
  68 391.948 11.4031 24.9953
  69 606.407 -115.004 248.450
  70 606.407 -115.004 248.450
  71 377.199 -105.918 -203.692
  72 902.422 -77.8792 -47.9481
  73 1003.04 58.7903 -6.49974
  74 959.768 28.1395 -4.52081
  75 377.199 -105.918 -203.692
  76 902.422 -77.8792 -47.9481
  77 1003.04 58.7903 -6.49974
  78 959.768 28.1395 -4.52081
  79 889.084 -41.9021 24.1226
  80 889.084 -41.9021 24.1226
  81 1130.69 84.0912 8.04924
  82 1130.69 84.0912 8.04924
  83 205.779 -122.045 -17.9016
  84 205.779 -122.045 -17.9016
  85 260.448 -166.998 180.639
  86 260.448 -166.998 180.639
  87 954.393 -53.7027 40.6784
  88 954.393 -53.7027 40.6784
  89 771.958 16.6548 10.2511
  90 774.856 18.2658 -10.4535
  91 771.958 16.6548 10.2511
  92 774.856 18.2658 -10.4535
  93 1087.76 62.4502 49.5177
  94 1087.76 62.4502 49.5177
  95 795.593 7.38117 31.6225
  96 795.593 7.38117 31.6225
  97 1168.12 86.8096 -45.2635
  98 1177.33 77.3999 -96.9140
  99 1168.12 86.8096 -45.2635
  100 1177.33 77.3999 -96.9140
  101 777.809 11.9522 -39.2882
  102 777.809 11.9522 -39.2882
  103 619.265 -113.118 -300.370
  104 619.265 -113.118 -300.370
  105 526.927 -131.529 319.129
  106 526.927 -131.529 319.129
  107 966.336 -70.7626 -121.165
  108 966.336 -70.7626 -121.165
  109 735.527 -92.5817 -171.052
  110 735.527 -92.5817 -171.052
  111 1228.46 86.2618 67.1761
  112 1228.46 86.2618 67.1761
  113 100.489 -318.259 -125.420
  114 100.489 -318.259 -125.420
  115 57.5164 -380.044 38.5852
  116 57.5164 -380.044 38.5852
  117 675.866 42.9839 -8.15259
  118 675.866 42.9839 -8.15259
  119 806.430 -32.1851 -65.5214
  120 806.430 -32.1851 -65.5214
  121 1294.25 35.3563 -29.4113
  122 1294.25 35.3563 -29.4113
  123 157.776 -305.266 212.263
  124 157.776 -305.266 212.263
  125 734.131 25.1488 36.5082
  126 734.131 25.1488 36.5082
  127 186.895 -245.362 -231.783
  128 186.895 -245.362 -231.783
  129 953.028 -60.0482 170.735
  130 953.028 -60.0482 170.735
  131 1316.64 66.7167 -94.7771
  132 1316.64 66.7167 -94.7771
  133 71.7322 -439.128 -35.8489
  134 71.7322 -439.128 -35.8489
  135 87.2859 -416.349 96.8024
  136 87.2859 -416.349 96.8024
  137 794.384 7.47087 -18.3089
  138 794.384 7.47087 -18.3089
  139 760.060 25.5046 -1.32666
  140 760.060 25.5046 -1.32666
  141 775.969 12.8218 -0.165350
  142 775.969 12.8218 -0.165350
  143 795.689 -16.4156 56.4737
  144 795.689 -16.4156 56.4737
  145 565.497 -13.9240 133.881
  146 797.675 -75.0559 116.479
  147 564.619 33.3515 3.44510
  148 565.497 -13.9240 133.881
  149 797.675 -75.0559 116.479
  150 564.619 33.3515 3.44510
  151 724.673 13.1244 -58.5649
  152 724.673 13.1244 -58.5649
  153 1286.68 36.1389 23.3686
  154 1286.68 36.1389 23.3686
  155 1330.49 30.1297 56.5661
  156 1333.22 73.9959 120.531
  157 1330.49 30.1297 56.5661
  158 1333.22 73.9959 120.531
  159 783.207 8.64911 5.87604
  160 783.207 8.64911 5.87604
  161 504.332 -19.6498 -114.609
  162 504.332 -19.6498 -114.609
  163 783.235 8.42148 -5.76600
  164 783.235 8.42148 -5.76600
  165 787.422 10.3014 16.3998
  166 787.422 10.3014 16.3998
  167 916.281 -6.50807 16.1169
  168 892.061 -33.1672 -7.31250
  169 916.281 -6.50807 16.1169
  170 892.061 -33.1672 -7.31250
  171 979.079 -20.6198 -6.98749
  172 979.079 -20.6198 -6.98749
  173 760.310 23.3012 19.2457
  174 760.310 23.3012 19.2457
  175 391.271 -38.3263 158.318
  176 391.271 -38.3263 158.318
  177 351.053 -14.0311 -99.8148
  178 351.053 -14.0311 -99.8148
  179 766.257 25.1193 -18.5128
  180 766.257 25.1193 -18.5128
</Section>

newXOutput 240

<Section columns = "stress_xx | stress_yy | stress_xy">
  1 787.797 5.25919 -2.88450
  2 787.181 4.05972 2.58515
  3 787.797 5.25919 -2.88450
  4 787.181 4.05972 2.58515
  5 1110.30 62.4924 308.618
  6 1100.91 55.0497 -291.039
  7 1110.30 62.4924 308.618
  8 1100.91 55.0497 -291.039
  9 794.775 1.33806 -9.47711
  10 824.643 0.196987 -15.8844
  11 845.765 -10.0479 -22.5022
  12 890.824 -4.53090 8.84875
  13 896.076 28.2068 7.20262
  14 893.292 -4.25891 -11.6978
  15 853.610 -15.4517 22.6603
  16 815.239 3.54238 18.5711
  17 795.446 5.03743 8.28643
  18 783.644 8.63977 1.43205
  19 779.859 8.71476 -0.107870
  20 783.309 7.96114 -1.30271
  21 794.775 1.33806 -9.47711
  22 824.643 0.196987 -15.8844
  23 845.765 -10.0479 -22.5022
  24 890.824 -4.53090 8.84875
  25 896.076 28.2068 7.20262
  26 893.292 -4.25891 -11.6978
  27 853.610 -15.4517 22.6603
  28 815.239 3.54238 18.5711
  29 795.446 5.03743 8.28643
  30 783.644 8.63977 1.43205
  31 779.859 8.71476 -0.107870
  32 783.309 7.96114 -1.30271
  33 1606.17 14.8563 124.387
  34 1415.14 11.6773 79.6107
  35 1364.47 26.4911 30.5922
  36 1327.53 14.7400 -7.60829
  37 1392.03 4.76292 -29.7869
  38 1428.16 28.1366 -71.3454
  39 1488.62 111.011 -158.703
  40 379.342 -192.315 -362.941
  41 79.5374 -416.371 -162.605
  42 30.2902 -601.900 -54.7896
  43 18.7845 -644.699 -4.58590
  44 23.7035 -608.670 54.8609
  45 72.5248 -504.466 143.363
  46 309.781 -194.814 357.853
  47 1606.17 14.8563 124.387
  48 1415.14 11.6773 79.6107
  49 1364.47 26.4911 30.5922
  50 1327.53 14.7400 -7.60829
  51 1392.03 4.76292 -29.7869
  52 1428.16 28.1366 -71.3454
  53 1488.62 111.011 -158.703
  54 379.342 -192.315 -362.941
  55 79.5374 -416.371 -162.605
  56 30.2902 -601.900 -54.7896
  57 18.7845 -644.699 -4.58590
  58 23.7035 -608.670 54.8609
  59 72.5248 -504.466 143.363
  60 309.781 -194.814 357.853
  61 735.489 30.8277 -12.9387
  62 735.489 30.8277 -12.9387
  63 683.826 10.3495 72.3440
  64 664.539 4.82614 -88.0114
  65 683.826 10.3495 72.3440
  66 664.539 4.82614 -88.0114
  67 393.542 11.4687 25.0946
  68 393.542 11.4687 25.0946
  69 608.709 -115.457 249.450
  70 608.709 -115.457 249.450
  71 378.682 -106.311 -204.538
  72 905.795 -78.1766 -48.1729
  73 1006.80 59.0260 -6.55431
  74 963.381 28.2557 -4.50194
  75 378.682 -106.311 -204.538
  76 905.795 -78.1766 -48.1729
  77 1006.80 59.0260 -6.55431
  78 963.381 28.2557 -4.50194
  79 892.424 -42.0625 24.2445
  80 892.424 -42.0625 24.2445
  81 1134.85 84.4045 8.09152
  82 1134.85 84.4045 8.09152
  83 206.621 -122.481 -17.9791
  84 206.621 -122.481 -17.9791
  85 261.470 -167.616 181.418
  86 261.470 -167.616 181.418
  87 957.946 -53.8921 40.8977
  88 957.946 -53.8921 40.8977
  89 774.913 16.7146 10.2850
  90 777.820 18.3317 -10.4881
  91 774.913 16.7146 10.2850
  92 777.820 18.3317 -10.4881
  93 1091.77 62.7173 49.7680
  94 1091.77 62.7173 49.7680
  95 798.619 7.40755 31.7353
  96 798.619 7.40755 31.7353
  97 1172.40 87.1339 -45.4549
  98 1181.60 77.7370 -97.3377
  99 1172.40 87.1339 -45.4549
  100 1181.60 77.7370 -97.3377
  101 780.780 11.9962 -39.4309
  102 780.780 11.9962 -39.4309
  103 621.544 -113.476 -301.618
  104 621.544 -113.476 -301.618
  105 528.876 -131.956 320.466
  106 528.876 -131.956 320.466
  107 969.891 -70.9938 -121.710
  108 969.891 -70.9938 -121.710
  109 738.308 -92.9425 -171.735
  110 738.308 -92.9425 -171.735
  111 1232.90 86.5891 67.4448
  112 1232.90 86.5891 67.4448
  113 100.891 -319.478 -125.993
  114 100.891 -319.478 -125.993
  115 57.7420 -381.538 38.7692
  116 57.7420 -381.538 38.7692
  117 678.501 43.1508 -8.18171
  118 678.501 43.1508 -8.18171
  119 809.486 -32.3114 -65.7785
  120 809.486 -32.3114 -65.7785
  121 1298.86 35.4767 -29.5150
  122 1298.86 35.4767 -29.5150
  123 158.396 -306.376 213.232
  124 158.396 -306.376 213.232
  125 736.961 25.2440 36.6408
  126 736.961 25.2440 36.6408
  127 187.632 -246.239 -232.817
  128 187.632 -246.239 -232.817
  129 956.530 -60.2371 171.465
  130 956.530 -60.2371 171.465
  131 1321.32 66.9626 -95.1388
  132 1321.32 66.9626 -95.1388
  133 72.0112 -440.877 -36.0144
  134 72.0112 -440.877 -36.0144
  135 87.6276 -417.969 97.2723
  136 87.6276 -417.969 97.2723
  137 797.406 7.49774 -18.3723
  138 797.406 7.49774 -18.3723
  139 762.979 25.5973 -1.33133
  140 762.979 25.5973 -1.33133
  141 778.936 12.8671 -0.165886
  142 778.936 12.8671 -0.165886
  143 798.713 -16.4804 56.6894
  144 798.713 -16.4804 56.6894
  145 567.717 -13.9725 134.402
  146 800.682 -75.3477 116.948
  147 566.862 33.4883 3.46050
  148 567.717 -13.9725 134.402
  149 800.682 -75.3477 116.948
  150 566.862 33.4883 3.46050
  151 727.467 13.1750 -58.7805
  152 727.467 13.1750 -58.7805
  153 1291.27 36.2598 23.4558
  154 1291.27 36.2598 23.4558
  155 1335.21 30.2318 56.7676
  156 1337.95 74.3133 121.010
  157 1335.21 30.2318 56.7676
  158 1337.95 74.3133 121.010
  159 786.194 8.67974 5.89491
  160 786.194 8.67974 5.89491
  161 506.334 -19.7191 -115.057
  162 506.334 -19.7191 -115.057
  163 786.222 8.45128 -5.78448
  164 786.222 8.45128 -5.78448
  165 790.422 10.3387 16.4547
  166 790.422 10.3387 16.4547
  167 919.740 -6.52546 16.1391
  168 895.411 -33.2977 -7.36550
  169 919.740 -6.52546 16.1391
  170 895.411 -33.2977 -7.36550
  171 982.730 -20.6745 -7.08433
  172 982.730 -20.6745 -7.08433
  173 763.228 23.3869 19.3123
  174 763.228 23.3869 19.3123
  175 392.837 -38.4561 158.956
  176 392.837 -38.4561 158.956
  177 352.480 -14.0581 -100.216
  178 352.480 -14.0581 -100.216
  179 769.195 25.2118 -18.5774
  180 769.195 25.2118 -18.5774
</Section>

newXOutput 241

<Section columns = "stress_xx | stress_yy | stress_xy">
  1 790.786 5.27760 -2.89362
  2 790.168 4.07381 2.59325
  3 790.786 5.27760 -2.89362
  4 790.168 4.07381 2.59325
  5 1114.18 62.8793 309.851
  6 1104.80 55.4112 -292.224
  7 1114.18 62.8793 309.851
  8 1104.80 55.4112 -292.224
  9 797.785 1.34195 -9.50858
  10 827.744 0.197872 -15.9388
  11 848.943 -10.0884 -22.5906
  12 894.180 -4.54803 8.86131
  13 899.485 28.3195 7.22327
  14 896.658 -4.27343 -11.7160
  15 856.812 -15.5128 22.7505
  16 818.312 3.55487 18.6347
  17 798.458 5.05534 8.31305
  18 786.623 8.66976 1.43654
  19 782.827 8.74483 -0.108193
  20 786.286 7.98872 -1.30681
  21 797.785 1.34195 -9.50858
  22 827.744 0.197872 -15.9388
  23 848.943 -10.0884 -22.5906
  24 894.180 -4.54803 8.86131
  25 899.485 28.3195 7.22327
  26 896.658 -4.27343 -11.7160
  27 856.812 -15.5128 22.7505
  28 818.312 3.55487 18.6347
  29 798.458 5.05534 8.31305
  30 786.623 8.66976 1.43654
  31 782.827 8.74483 -0.108193
  32 786.286 7.98872 -1.30681
  33 1611.63 14.9160 124.839
  34 1420.05 11.7037 79.8943
  35 1369.23 26.5808 30.6949
  36 1332.19 14.7835 -7.63180
  37 1396.85 4.77778 -29.8890
  38 1433.11 28.2388 -71.5938
  39 1493.78 111.465 -159.308
  40 380.714 -192.865 -364.470
  41 79.8427 -417.924 -163.363
  42 30.4000 -604.350 -55.0614
  43 18.8415 -647.361 -4.60315
  44 23.7811 -611.141 55.1312
  45 72.8012 -506.396 144.047
  46 310.907 -195.373 359.370
  47 1611.63 14.9160 124.839
  48 1420.05 11.7037 79.8943
  49 1369.23 26.5808 30.6949
  50 1332.19 14.7835 -7.63180
  51 1396.85 4.77778 -29.8890
  52 1433.11 28.2388 -71.5938
  53 1493.78 111.465 -159.308
  54 380.714 -192.865 -364.470
  55 79.8427 -417.924 -163.363
  56 30.4000 -604.350 -55.0614
  57 18.8415 -647.361 -4.60315
  58 23.7811 -611.141 55.1312
  59 72.8012 -506.396 144.047
  60 310.907 -195.373 359.370
  61 738.316 30.9429 -12.9850
  62 738.316 30.9429 -12.9850
  63 686.466 10.3915 72.6164
  64 667.108 4.84680 -88.3426
  65 686.466 10.3915 72.6164
  66 667.108 4.84680 -88.3426
  67 395.136 11.5344 25.1940
  68 395.136 11.5344 25.1940
  69 611.008 -115.909 250.449
  70 611.008 -115.909 250.449
  71 380.164 -106.703 -205.384
  72 909.166 -78.4739 -48.3978
  73 1010.56 59.2617 -6.60906
  74 966.991 28.3719 -4.48281
  75 380.164 -106.703 -205.384
  76 909.166 -78.4739 -48.3978
  77 1010.56 59.2617 -6.60906
  78 966.991 28.3719 -4.48281
  79 895.762 -42.2229 24.3667
  80 895.762 -42.2229 24.3667
  81 1139.00 84.7175 8.13384
  82 1139.00 84.7175 8.13384
  83 207.463 -122.916 -18.0567
  84 207.463 -122.916 -18.0567
  85 262.492 -168.234 182.196
  86 262.492 -168.234 182.196
  87 961.496 -54.0811 41.1173
  88 961.496 -54.0811 41.1173
  89 777.866 16.7743 10.3189
  90 780.781 18.3976 -10.5227
  91 777.866 16.7743 10.3189
  92 780.781 18.3976 -10.5227
  93 1095.78 62.9844 50.0186
  94 1095.78 62.9844 50.0186
  95 801.642 7.43389 31.8480
  96 801.642 7.43389 31.8480
  97 1176.68 87.4580 -45.6464
  98 1185.87 78.0742 -97.7613
  99 1176.68 87.4580 -45.6464
  100 1185.87 78.0742 -97.7613
  101 783.749 12.0401 -39.5733
  102 783.749 12.0401 -39.5733
  103 623.821 -113.833 -302.866
  104 623.821 -113.833 -302.866
  105 530.822 -132.382 321.802
  106 530.822 -132.382 321.802
  107 973.443 -71.2244 -122.255
  108 973.443 -71.2244 -122.255
  109 741.086 -93.3032 -172.419
  110 741.086 -93.3032 -172.419
  111 1237.35 86.9161 67.7135
  112 1237.35 86.9161 67.7135
  113 101.293 -320.697 -126.567
  114 101.293 -320.697 -126.567
  115 57.9675 -383.031 38.9534
  116 57.9675 -383.031 38.9534
  117 681.134 43.3176 -8.21080
  118 681.134 43.3176 -8.21080
  119 812.540 -32.4376 -66.0355
  120 812.540 -32.4376 -66.0355
  121 1303.46 35.5968 -29.6185
  122 1303.46 35.5968 -29.6185
  123 159.015 -307.484 214.202
  124 159.015 -307.484 214.202
  125 739.789 25.3391 36.7733
  126 739.789 25.3391 36.7733
  127 188.368 -247.116 -233.851
  128 188.368 -247.116 -233.851
  129 960.028 -60.4256 172.194
  130 960.028 -60.4256 172.194
  131 1326.00 67.2082 -95.5002
  132 1326.00 67.2082 -95.5002
  133 72.2901 -442.625 -36.1799
  134 72.2901 -442.625 -36.1799
  135 87.9691 -419.588 97.7426
  136 87.9691 -419.588 97.7426
  137 800.426 7.52458 -18.4356
  138 800.426 7.52458 -18.4356
  139 765.896 25.6898 -1.33599
  140 765.896 25.6898 -1.33599
  141 781.901 12.9122 -0.166421
  142 781.901 12.9122 -0.166421
  143 801.734 -16.5453 56.9048
  144 801.734 -16.5453 56.9048
  145 569.937 -14.0209 134.921
  146 803.686 -75.6392 117.417
  147 569.103 33.6252 3.47590
  148 569.937 -14.0209 134.921
  149 803.686 -75.6392 117.417
  150 569.103 33.6252 3.47590
  151 730.258 13.2255 -58.9960
  152 730.258 13.2255 -58.9960
  153 1295.86 36.3805 23.5430
  154 1295.86 36.3805 23.5430
  155 1339.92 30.3338 56.9689
  156 1342.66 74.6307 121.488
  157 1339.92 30.3338 56.9689
  158 1342.66 74.6307 121.488
  159 789.179 8.71032 5.91372
  160 789.179 8.71032 5.91372
  161 508.335 -19.7883 -115.505
  162 508.335 -19.7883 -115.505
  163 789.208 8.48105 -5.80293
  164 789.208 8.48105 -5.80293
  165 793.420 10.3760 16.5095
  166 793.420 10.3760 16.5095
  167 923.197 -6.54278 16.1610
  168 898.758 -33.4280 -7.41866
  169 923.197 -6.54278 16.1610
  170 898.758 -33.4280 -7.41866
  171 986.377 -20.7289 -7.18163
  172 986.377 -20.7289 -7.18163
  173 766.144 23.4725 19.3788
  174 766.144 23.4725 19.3788
  175 394.402 -38.5857 159.595
  176 394.402 -38.5857 159.595
  177 353.907 -14.0849 -100.617
  178 353.907 -14.0849 -100.617
  179 772.131 25.3042 -18.6419
  180 772.131 25.3042 -18.6419
</Section>

newXOutput 242

<Section columns = "stress_xx | stress_yy | stress_xy">
  1 793.773 5.29598 -2.90271
  2 793.153 4.08788 2.60134
  3 793.773 5.29598 -2.90271
  4 793.153 4.08788 2.60134
  5 1118.05 63.2672 311.083
  6 1108.68 55.7736 -293.408
  7 1118.05 63.2672 311.083
  8 1108.68 55.7736 -293.408
  9 800.792 1.34584 -9.54000
  10 830.843 0.198757 -15.9932
  11 852.118 -10.1288 -22.6790
  12 897.533 -4.56515 8.87370
  13 902.891 28.4322 7.24385
  14 900.021 -4.28792 -11.7340
  15 860.011 -15.5740 22.8406
  16 821.382 3.56734 18.6983
  17 801.467 5.07323 8.33961
  18 789.599 8.69970 1.44103
  19 785.793 8.77486 -0.108514
  20 789.261 8.01626 -1.31090
  21 800.792 1.34584 -9.54000
  22 830.843 0.198757 -15.9932
  23 852.118 -10.1288 -22.6790
  24 897.533 -4.56515 8.87370
  25 902.891 28.4322 7.24385
  26 900.021 -4.28792 -11.7340
  27 860.011 -15.5740 22.8406
  28 821.382 3.56734 18.6983
  29 801.467 5.07323 8.33961
  30 789.599 8.69970 1.44103
  31 785.793 8.77486 -0.108514
  32 789.261 8.01626 -1.31090
  33 1617.09 14.9757 125.290
  34 1424.96 11.7299 80.1775
  35 1373.99 26.6705 30.7975
  36 1336.84 14.8269 -7.65526
  37 1401.65 4.79262 -29.9909
  38 1438.05 28.3410 -71.8418
  39 1498.93 111.920 -159.912
  40 382.085 -193.413 -365.998
  41 80.1478 -419.475 -164.122
  42 30.5097 -606.799 -55.3336
  43 18.8983 -650.024 -4.62037
  44 23.8586 -613.611 55.4017
  45 73.0773 -508.324 144.731
  46 312.031 -195.930 360.887
  47 1617.09 14.9757 125.290
  48 1424.96 11.7299 80.1775
  49 1373.99 26.6705 30.7975
  50 1336.84 14.8269 -7.65526
  51 1401.65 4.79262 -29.9909
  52 1438.05 28.3410 -71.8418
  53 1498.93 111.920 -159.912
  54 382.085 -193.413 -365.998
  55 80.1478 -419.475 -164.122
  56 30.5097 -606.799 -55.3336
  57 18.8983 -650.024 -4.62037
  58 23.8586 -613.611 55.4017
  59 73.0773 -508.324 144.731
  60 312.031 -195.930 360.887
  61 741.141 31.0581 -13.0313
  62 741.141 31.0581 -13.0313
  63 689.104 10.4336 72.8885
  64 669.676 4.86746 -88.6734
  65 689.104 10.4336 72.8885
  66 669.676 4.86746 -88.6734
  67 396.730 11.6003 25.2932
  68 396.730 11.6003 25.2932
  69 613.306 -116.361 251.448
  70 613.306 -116.361 251.448
  71 381.646 -107.094 -206.230
  72 912.533 -78.7709 -48.6228
  73 1014.32 59.4972 -6.66398
  74 970.597 28.4881 -4.46343
  75 381.646 -107.094 -206.230
  76 912.533 -78.7709 -48.6228
  77 1014.32 59.4972 -6.66398
  78 970.597 28.4881 -4.46343
  79 899.097 -42.3831 24.4889
  80 899.097 -42.3831 24.4889
  81 1143.16 85.0303 8.17621
  82 1143.16 85.0303 8.17621
  83 208.306 -123.351 -18.1342
  84 208.306 -123.351 -18.1342
  85 263.514 -168.851 182.975
  86 263.514 -168.851 182.975
  87 965.042 -54.2699 41.3372
  88 965.042 -54.2699 41.3372
  89 780.816 16.8339 10.3527
  90 783.741 18.4634 -10.5572
  91 780.816 16.8339 10.3527
  92 783.741 18.4634 -10.5572
  93 1099.79 63.2515 50.2694
  94 1099.79 63.2515 50.2694
  95 804.664 7.46019 31.9605
  96 804.664 7.46019 31.9605
  97 1180.95 87.7817 -45.8377
  98 1190.14 78.4114 -98.1850
  99 1180.95 87.7817 -45.8377
  100 1190.14 78.4114 -98.1850
  101 786.716 12.0839 -39.7156
  102 786.716 12.0839 -39.7156
  103 626.095 -114.189 -304.114
  104 626.095 -114.189 -304.114
  105 532.767 -132.807 323.139
  106 532.767 -132.807 323.139
  107 976.991 -71.4546 -122.801
  108 976.991 -71.4546 -122.801
  109 743.862 -93.6636 -173.102
  110 743.862 -93.6636 -173.102
  111 1241.78 87.2429 67.9819
  112 1241.78 87.2429 67.9819
  113 101.695 -321.915 -127.141
  114 101.695 -321.915 -127.141
  115 58.1928 -384.523 39.1378
  116 58.1928 -384.523 39.1378
  117 683.765 43.4843 -8.23984
  118 683.765 43.4843 -8.23984
  119 815.590 -32.5638 -66.2924
  120 815.590 -32.5638 -66.2924
  121 1308.05 35.7167 -29.7218
  122 1308.05 35.7167 -29.7218
  123 159.634 -308.591 215.172
  124 159.634 -308.591 215.172
  125 742.615 25.4341 36.9055
  126 742.615 25.4341 36.9055
  127 189.104 -247.991 -234.885
  128 189.104 -247.991 -234.885
  129 963.523 -60.6136 172.923
  130 963.523 -60.6136 172.923
  131 1330.66 67.4536 -95.8612
  132 1330.66 67.4536 -95.8612
  133 72.5688 -444.373 -36.3456
  134 72.5688 -444.373 -36.3456
  135 88.3105 -421.206 98.2135
  136 88.3105 -421.206 98.2135
  137 803.443 7.55139 -18.4989
  138 803.443 7.55139 -18.4989
  139 768.811 25.7822 -1.34064
  140 768.811 25.7822 -1.34064
  141 784.864 12.9573 -0.166954
  142 784.864 12.9573 -0.166954
  143 804.752 -16.6102 57.1201
  144 804.752 -16.6102 57.1201
  145 572.155 -14.0693 135.441
  146 806.688 -75.9306 117.886
  147 571.344 33.7620 3.49131
  148 572.155 -14.0693 135.441
  149 806.688 -75.9306 117.886
  150 571.344 33.7620 3.49131
  151 733.048 13.2760 -59.2112
  152 733.048 13.2760 -59.2112
  153 1300.44 36.5009 23.6300
  154 1300.44 36.5009 23.6300
  155 1344.63 30.4355 57.1699
  156 1347.38 74.9482 121.967
  157 1344.63 30.4355 57.1699
  158 1347.38 74.9482 121.967
  159 792.162 8.74085 5.93250
  160 792.162 8.74085 5.93250
  161 510.335 -19.8575 -115.953
  162 510.335 -19.8575 -115.953
  163 792.191 8.51077 -5.82133
  164 792.191 8.51077 -5.82133
  165 796.416 10.4132 16.5643
  166 796.416 10.4132 16.5643
  167 926.650 -6.56002 16.1825
  168 902.102 -33.5583 -7.47195
  169 926.650 -6.56002 16.1825
  170 902.102 -33.5583 -7.47195
  171 990.020 -20.7831 -7.27937
  172 990.020 -20.7831 -7.27937
  173 769.058 23.5580 19.4451
  174 769.058 23.5580 19.4451
  175 395.967 -38.7151 160.233
  176 395.967 -38.7151 160.233
  177 355.333 -14.1115 -101.018
  178 355.333 -14.1115 -101.018
  179 775.064 25.3965 -18.7064
  180 775.064 25.3965 -18.7064
</Section>

newXOutput 243

<Section columns = "stress_xx | stress_yy | stress_xy">
  1 796.758 5.31434 -2.91178
  2 796.136 4.10193 2.60940
  3 796.758 5.31434 -2.91178
  4 796.136 4.10193 2.60940
  5 1121.92 63.6559 312.314
  6 1112.56 56.1370 -294.592
  7 1121.92 63.6559 312.314
  8 1112.56 56.1370 -294.592
  9 803.796 1.34971 -9.57135
  10 833.938 0.199643 -16.0474
  11 855.291 -10.1692 -22.7673
  12 900.883 -4.58226 8.88592
  13 906.295 28.5448 7.26436
  14 903.381 -4.30238 -11.7517
  15 863.208 -15.6351 22.9306
  16 824.449 3.57980 18.7618
  17 804.473 5.09110 8.36612
  18 792.572 8.72960 1.44551
  19 788.756 8.80484 -0.108834
  20 792.234 8.04376 -1.31499
  21 803.796 1.34971 -9.57135
  22 833.938 0.199643 -16.0474
  23 855.291 -10.1692 -22.7673
  24 900.883 -4.58226 8.88592
  25 906.295 28.5448 7.26436
  26 903.381 -4.30238 -11.7517
  27 863.208 -15.6351 22.9306
  28 824.449 3.57980 18.7618
  29 804.473 5.09110 8.36612
  30 792.572 8.72960 1.44551
  31 788.756 8.80484 -0.108834
  32 792.234 8.04376 -1.31499
  33 1622.53 15.0353 125.741
  34 1429.85 11.7560 80.4604
  35 1378.73 26.7599 30.8998
  36 1341.49 14.8703 -7.67866
  37 1406.46 4.80742 -30.0927
  38 1442.99 28.4431 -72.0894
  39 1504.07 112.374 -160.516
  40 383.455 -193.960 -367.526
  41 80.4527 -421.025 -164.881
  42 30.6193 -609.248 -55.6061
  43 18.9550 -652.686 -4.63758
  44 23.9359 -616.080 55.6726
  45 73.3532 -510.250 145.415
  46 313.154 -196.485 362.404
  47 1622.53 15.0353 125.741
  48 1429.85 11.7560 80.4604
  49 1378.73 26.7599 30.8998
  50 1341.49 14.8703 -7.67866
  51 1406.46 4.80742 -30.0927
  52 1442.99 28.4431 -72.0894
  53 1504.07 112.374 -160.516
  54 383.455 -193.960 -367.526
  55 80.4527 -421.025 -164.881
  56 30.6193 -609.248 -55.6061
  57 18.9550 -652.686 -4.63758
  58 23.9359 -616.080 55.6726
  59 73.3532 -510.250 145.415
  60 313.154 -196.485 362.404
  61 743.964 31.1731 -13.0776
  62 743.964 31.1731 -13.0776
  63 691.741 10.4756 73.1604
  64 672.242 4.88812 -89.0040
  65 691.741 10.4756 73.1604
  66 672.242 4.88812 -89.0040
  67 398.323 11.6662 25.3924
  68 398.323 11.6662 25.3924
  69 615.602 -116.813 252.447
  70 615.602 -116.813 252.447
  71 383.126 -107.486 -207.076
  72 915.896 -79.0677 -48.8480
  73 1018.07 59.7327 -6.71907
  74 974.201 28.6042 -4.44380
  75 383.126 -107.486 -207.076
  76 915.896 -79.0677 -48.8480
  77 1018.07 59.7327 -6.71907
  78 974.201 28.6042 -4.44380
  79 902.429 -42.5432 24.6113
  80 902.429 -42.5432 24.6113
  81 1147.30 85.3427 8.21862
  82 1147.30 85.3427 8.21862
  83 209.148 -123.785 -18.2118
  84 209.148 -123.785 -18.2118
  85 264.534 -169.468 183.753
  86 264.534 -169.468 183.753
  87 968.584 -54.4584 41.5575
  88 968.584 -54.4584 41.5575
  89 783.765 16.8934 10.3864
  90 786.698 18.5290 -10.5916
  91 783.765 16.8934 10.3864
  92 786.698 18.5290 -10.5916
  93 1103.79 63.5186 50.5204
  94 1103.79 63.5186 50.5204
  95 807.682 7.48647 32.0729
  96 807.682 7.48647 32.0729
  97 1185.21 88.1052 -46.0291
  98 1194.40 78.7487 -98.6087
  99 1185.21 88.1052 -46.0291
  100 1194.40 78.7487 -98.6087
  101 789.680 12.1277 -39.8577
  102 789.680 12.1277 -39.8577
  103 628.366 -114.544 -305.361
  104 628.366 -114.544 -305.361
  105 534.709 -133.231 324.475
  106 534.709 -133.231 324.475
  107 980.536 -71.6843 -123.347
  108 980.536 -71.6843 -123.347
  109 746.635 -94.0238 -173.784
  110 746.635 -94.0238 -173.784
  111 1246.21 87.5694 68.2502
  112 1246.21 87.5694 68.2502
  113 102.096 -323.131 -127.715
  114 102.096 -323.131 -127.715
  115 58.4181 -386.015 39.3224
  116 58.4181 -386.015 39.3224
  117 686.395 43.6508 -8.26885
  118 686.395 43.6508 -8.26885
  119 818.639 -32.6899 -66.5491
  120 818.639 -32.6899 -66.5491
  121 1312.64 35.8365 -29.8250
  122 1312.64 35.8365 -29.8250
  123 160.252 -309.697 216.143
  124 160.252 -309.697 216.143
  125 745.439 25.5290 37.0376
  126 745.439 25.5290 37.0376
  127 189.839 -248.865 -235.920
  128 189.839 -248.865 -235.920
  129 967.014 -60.8011 173.653
  130 967.014 -60.8011 173.653
  131 1335.33 67.6988 -96.2219
  132 1335.33 67.6988 -96.2219
  133 72.8473 -446.119 -36.5114
  134 72.8473 -446.119 -36.5114
  135 88.6516 -422.822 98.6849
  136 88.6516 -422.822 98.6849
  137 806.458 7.57816 -18.5620
  138 806.458 7.57816 -18.5620
  139 771.724 25.8745 -1.34529
  140 771.724 25.8745 -1.34529
  141 787.824 13.0024 -0.167487
  142 787.824 13.0024 -0.167487
  143 807.768 -16.6750 57.3352
  144 807.768 -16.6750 57.3352
  145 574.372 -14.1176 135.960
  146 809.688 -76.2217 118.354
  147 573.584 33.8988 3.50672
  148 574.372 -14.1176 135.960
  149 809.688 -76.2217 118.354
  150 573.584 33.8988 3.50672
  151 735.836 13.3264 -59.4262
  152 735.836 13.3264 -59.4262
  153 1305.01 36.6212 23.7169
  154 1305.01 36.6212 23.7169
  155 1349.33 30.5371 57.3706
  156 1352.08 75.2656 122.445
  157 1349.33 30.5371 57.3706
  158 1352.08 75.2656 122.445
  159 795.143 8.77135 5.95124
  160 795.143 8.77135 5.95124
  161 512.335 -19.9266 -116.401
  162 512.335 -19.9266 -116.401
  163 795.171 8.54046 -5.83969
  164 795.171 8.54046 -5.83969
  165 799.409 10.4504 16.6189
  166 799.409 10.4504 16.6189
  167 930.101 -6.57718 16.2038
  168 905.443 -33.6885 -7.52539
  169 930.101 -6.57718 16.2038
  170 905.443 -33.6885 -7.52539
  171 993.661 -20.8371 -7.37757
  172 993.661 -20.8371 -7.37757
  173 771.970 23.6434 19.5114
  174 771.970 23.6434 19.5114
  175 397.531 -38.8443 160.872
  176 397.531 -38.8443 160.872
  177 356.759 -14.1379 -101.419
  178 356.759 -14.1379 -101.419
  179 777.996 25.4887 -18.7707
  180 777.996 25.4887 -18.7707
</Section>

newXOutput 244

<Section columns = "stress_xx | stress_yy | stress_xy">
  1 799.740 5.33268 -2.92083
  2 799.116 4.11596 2.61745
  3 799.740 5.33268 -2.92083
  4 799.116 4.11596 2.61745
  5 1125.78 64.0454 313.545
  6 1116.43 56.5013 -295.775
  7 1125.78 64.0454 313.545
  8 1116.43 56.5013 -295.775
  9 806.798 1.35357 -9.60265
  10 837.031 0.200529 -16.1016
  11 858.461 -10.2096 -22.8556
  12 904.230 -4.59935 8.89798
  13 909.695 28.6575 7.28481
  14 906.738 -4.31682 -11.7693
  15 866.401 -15.6962 23.0206
  16 827.515 3.59224 18.8251
  17 807.477 5.10894 8.39257
  18 795.544 8.75946 1.44998
  19 791.718 8.83478 -0.109153
  20 795.204 8.07121 -1.31906
  21 806.798 1.35357 -9.60265
  22 837.031 0.200529 -16.1016
  23 858.461 -10.2096 -22.8556
  24 904.230 -4.59935 8.89798
  25 909.695 28.6575 7.28481
  26 906.738 -4.31682 -11.7693
  27 866.401 -15.6962 23.0206
  28 827.515 3.59224 18.8251
  29 807.477 5.10894 8.39257
  30 795.544 8.75946 1.44998
  31 791.718 8.83478 -0.109153
  32 795.204 8.07121 -1.31906
  33 1627.97 15.0950 126.191
  34 1434.74 11.7820 80.7428
  35 1383.47 26.8493 31.0020
  36 1346.13 14.9134 -7.70201
  37 1411.25 4.82219 -30.1943
  38 1447.92 28.5451 -72.3367
  39 1509.20 112.829 -161.119
  40 384.823 -194.504 -369.054
  41 80.7573 -422.573 -165.641
  42 30.7287 -611.696 -55.8790
  43 19.0116 -655.348 -4.65478
  44 24.0131 -618.549 55.9439
  45 73.6288 -512.176 146.100
  46 314.276 -197.038 363.920
  47 1627.97 15.0950 126.191
  48 1434.74 11.7820 80.7428
  49 1383.47 26.8493 31.0020
  50 1346.13 14.9134 -7.70201
  51 1411.25 4.82219 -30.1943
  52 1447.92 28.5451 -72.3367
  53 1509.20 112.829 -161.119
  54 384.823 -194.504 -369.054
  55 80.7573 -422.573 -165.641
  56 30.7287 -611.696 -55.8790
  57 19.0116 -655.348 -4.65478
  58 24.0131 -618.549 55.9439
  59 73.6288 -512.176 146.100
  60 314.276 -197.038 363.920
  61 746.785 31.2881 -13.1237
  62 746.785 31.2881 -13.1237
  63 694.376 10.5177 73.4320
  64 674.806 4.90878 -89.3343
  65 694.376 10.5177 73.4320
  66 674.806 4.90878 -89.3343
  67 399.915 11.7323 25.4916
  68 399.915 11.7323 25.4916
  69 617.896 -117.265 253.446
  70 617.896 -117.265 253.446
  71 384.606 -107.876 -207.922
  72 919.257 -79.3642 -49.0733
  73 1021.82 59.9681 -6.77434
  74 977.801 28.7203 -4.42391
  75 384.606 -107.876 -207.922
  76 919.257 -79.3642 -49.0733
  77 1021.82 59.9681 -6.77434
  78 977.801 28.7203 -4.42391
  79 905.757 -42.7032 24.7338
  80 905.757 -42.7032 24.7338
  81 1151.45 85.6549 8.26107
  82 1151.45 85.6549 8.26107
  83 209.989 -124.219 -18.2894
  84 209.989 -124.219 -18.2894
  85 265.555 -170.084 184.532
  86 265.555 -170.084 184.532
  87 972.123 -54.6466 41.7780
  88 972.123 -54.6466 41.7780
  89 786.711 16.9529 10.4201
  90 789.653 18.5947 -10.6259
  91 786.711 16.9529 10.4201
  92 789.653 18.5947 -10.6259
  93 1107.78 63.7858 50.7717
  94 1107.78 63.7858 50.7717
  95 810.699 7.51270 32.1851
  96 810.699 7.51270 32.1851
  97 1189.47 88.4283 -46.2204
  98 1198.66 79.0861 -99.0324
  99 1189.47 88.4283 -46.2204
  100 1198.66 79.0861 -99.0324
  101 792.642 12.1715 -39.9996
  102 792.642 12.1715 -39.9996
  103 630.636 -114.899 -306.608
  104 630.636 -114.899 -306.608
  105 536.650 -133.655 325.811
  106 536.650 -133.655 325.811
  107 984.076 -71.9134 -123.893
  108 984.076 -71.9134 -123.893
  109 749.406 -94.3838 -174.467
  110 749.406 -94.3838 -174.467
  111 1250.64 87.8956 68.5184
  112 1250.64 87.8956 68.5184
  113 102.497 -324.347 -128.290
  114 102.497 -324.347 -128.290
  115 58.6432 -387.505 39.5071
  116 58.6432 -387.505 39.5071
  117 689.024 43.8173 -8.29782
  118 689.024 43.8173 -8.29782
  119 821.684 -32.8160 -66.8056
  120 821.684 -32.8160 -66.8056
  121 1317.22 35.9560 -29.9281
  122 1317.22 35.9560 -29.9281
  123 160.870 -310.801 217.115
  124 160.870 -310.801 217.115
  125 748.261 25.6238 37.1696
  126 748.261 25.6238 37.1696
  127 190.574 -249.738 -236.956
  128 190.574 -249.738 -236.956
  129 970.501 -60.9882 174.382
  130 970.501 -60.9882 174.382
  131 1339.98 67.9437 -96.5823
  132 1339.98 67.9437 -96.5823
  133 73.1257 -447.865 -36.6773
  134 73.1257 -447.865 -36.6773
  135 88.9925 -424.438 99.1568
  136 88.9925 -424.438 99.1568
  137 809.470 7.60490 -18.6250
  138 809.470 7.60490 -18.6250
  139 774.635 25.9667 -1.34993
  140 774.635 25.9667 -1.34993
  141 790.782 13.0473 -0.168018
  142 790.782 13.0473 -0.168018
  143 810.782 -16.7397 57.5501
  144 810.782 -16.7397 57.5501
  145 576.587 -14.1658 136.479
  146 812.684 -76.5128 118.823
  147 575.822 34.0356 3.52215
  148 576.587 -14.1658 136.479
  149 812.684 -76.5128 118.823
  150 575.822 34.0356 3.52215
  151 738.622 13.3768 -59.6409
  152 738.622 13.3768 -59.6409
  153 1309.58 36.7412 23.8038
  154 1309.58 36.7412 23.8038
  155 1354.02 30.6386 57.5710
  156 1356.78 75.5831 122.923
  157 1354.02 30.6386 57.5710
  158 1356.78 75.5831 122.923
  159 798.121 8.80180 5.96994
  160 798.121 8.80180 5.96994
  161 514.333 -19.9955 -116.848
  162 514.333 -19.9955 -116.848
  163 798.150 8.57010 -5.85801
  164 798.150 8.57010 -5.85801
  165 802.400 10.4875 16.6734
  166 802.400 10.4875 16.6734
  167 933.548 -6.59426 16.2248
  168 908.781 -33.8186 -7.57897
  169 933.548 -6.59426 16.2248
  170 908.781 -33.8186 -7.57897
  171 997.297 -20.8907 -7.47622
  172 997.297 -20.8907 -7.47622
  173 774.880 23.7287 19.5776
  174 774.880 23.7287 19.5776
  175 399.094 -38.9732 161.509
  176 399.094 -38.9732 161.509
  177 358.185 -14.1640 -101.819
  178 358.185 -14.1640 -101.819
  179 780.925 25.5808 -18.8350
  180 780.925 25.5808 -18.8350
</Section>

newXOutput 245

<Section columns = "stress_xx | stress_yy | stress_xy">
  1 795.814 5.79384 -3.20755
  2 798.615 4.47568 2.79537
  3 795.814 5.79384 -3.20755
  4 798.615 4.47568 2.79537
  5 617.593 10.7433 347.584
  6 1081.38 38.4721 -292.144
  7 617.593 10.7433 347.584
  8 1081.38 38.4721 -292.144
  9 803.276 1.58944 -10.4090
  10 836.303 0.596254 -17.7922
  11 860.707 -9.62449 -26.9414
  12 916.015 -7.37136 7.08666
  13 921.791 26.9706 12.2874
  14 913.577 1.40810 -13.2499
  15 871.781 -18.0315 23.5641
  16 829.613 3.48285 20.1559
  17 807.965 5.45532 9.11901
  18 793.835 9.53737 1.57256
  19 788.867 9.58598 -0.141950
  20 791.862 8.73459 -1.44013
  21 803.276 1.58944 -10.4090
  22 836.303 0.596254 -17.7922
  23 860.707 -9.62449 -26.9414
  24 916.015 -7.37136 7.08666
  25 921.791 26.9706 12.2874
  26 913.577 1.40810 -13.2499
  27 871.781 -18.0315 23.5641
  28 829.613 3.48285 20.1559
  29 807.965 5.45532 9.11901
  30 793.835 9.53737 1.57256
  31 788.867 9.58598 -0.141950
  32 791.862 8.73459 -1.44013
  33 169.773 237.139 -200.648
  34 831.868 82.0671 -310.025
  35 1034.65 -67.2231 -151.286
  36 1189.68 -31.3977 -83.6818
  37 1286.15 -8.17792 -65.4519
  38 1369.14 24.3308 -90.6558
  39 1446.84 99.7940 -167.833
  40 372.329 -213.529 -358.525
  41 77.8705 -435.122 -161.055
  42 29.3086 -621.600 -55.0741
  43 17.9998 -665.637 -6.11237
  44 20.2991 -636.517 50.1399
  45 58.0826 -548.712 123.570
  46 228.437 -275.202 292.722
  47 169.773 237.139 -200.648
  48 831.868 82.0671 -310.025
  49 1034.65 -67.2231 -151.286
  50 1189.68 -31.3977 -83.6818
  51 1286.15 -8.17792 -65.4519
  52 1369.14 24.3308 -90.6558
  53 1446.84 99.7940 -167.833
  54 372.329 -213.529 -358.525
  55 77.8705 -435.122 -161.055
  56 29.3086 -621.600 -55.0741
  57 17.9998 -665.637 -6.11237
  58 20.2991 -636.517 50.1399
  59 58.0826 -548.712 123.570
  60 228.437 -275.202 292.722
  61 739.684 34.5810 -13.1886
  62 739.684 34.5810 -13.1886
  63 683.071 12.8658 81.8330
  64 660.387 5.17516 -92.5269
  65 683.071 12.8658 81.8330
  66 660.387 5.17516 -92.5269
  67 376.518 8.99622 21.8077
  68 376.518 8.99622 21.8077
  69 562.623 -110.279 271.905
  70 562.623 -110.279 271.905
  71 370.491 -121.669 -209.021
  72 912.843 -85.7184 -56.0388
  73 1031.23 39.8166 -8.48307
  74 1004.38 50.8905 -1.63647
  75 370.491 -121.669 -209.021
  76 912.843 -85.7184 -56.0388
  77 1031.23 39.8166 -8.48307
  78 1004.38 50.8905 -1.63647
  79 920.729 -45.9919 26.3799
  80 920.729 -45.9919 26.3799
  81 1173.45 57.2280 -4.75548
  82 1173.45 57.2280 -4.75548
  83 193.513 -142.036 -27.2597
  84 193.513 -142.036 -27.2597
  85 220.967 -194.038 161.885
  86 220.967 -194.038 161.885
  87 1014.04 -47.3459 47.0052
  88 1014.04 -47.3459 47.0052
  89 784.202 18.3198 11.5431
  90 785.789 20.4969 -11.3787
  91 784.202 18.3198 11.5431
  92 785.789 20.4969 -11.3787
  93 1206.03 155.482 50.2384
  94 1206.03 155.482 50.2384
  95 811.463 7.31972 35.0540
  96 811.463 7.31972 35.0540
  97 1170.34 51.6282 -73.6674
  98 1169.28 59.9736 -110.606
  99 1170.34 51.6282 -73.6674
  100 1169.28 59.9736 -110.606
  101 787.559 14.5526 -43.1743
  102 787.559 14.5526 -43.1743
  103 612.055 -129.095 -302.083
  104 612.055 -129.095 -302.083
  105 389.526 -175.945 317.206
  106 389.526 -175.945 317.206
  107 963.160 -82.7083 -129.617
  108 963.160 -82.7083 -129.617
  109 733.583 -100.032 -178.157
  110 733.583 -100.032 -178.157
  111 1325.41 58.7796 41.5767
  112 1325.41 58.7796 41.5767
  113 98.2632 -339.868 -127.393
  114 98.2632 -339.868 -127.393
  115 52.6826 -409.983 32.9515
  116 52.6826 -409.983 32.9515
  117 677.082 47.7728 -7.22158
  118 677.082 47.7728 -7.22158
  119 815.649 -32.3081 -72.0104
  120 815.649 -32.3081 -72.0104
  121 1243.30 -2.06503 -74.9377
  122 1243.30 -2.06503 -74.9377
  123 125.452 -352.004 188.172
  124 125.452 -352.004 188.172
  125 742.855 27.3602 41.7005
  126 742.855 27.3602 41.7005
  127 183.745 -264.521 -232.151
  128 183.745 -264.521 -232.151
  129 982.446 -36.7622 248.033
  130 982.446 -36.7622 248.033
  131 1281.45 50.9156 -118.937
  132 1281.45 50.9156 -118.937
  133 69.5779 -464.316 -39.1109
  134 69.5779 -464.316 -39.1109
  135 75.8879 -453.321 84.4990
  136 75.8879 -453.321 84.4990
  137 806.493 8.86072 -20.3733
  138 806.493 8.86072 -20.3733
  139 770.193 28.2537 -1.08844
  140 770.193 28.2537 -1.08844
  141 787.832 14.1861 -0.0884045
  142 787.832 14.1861 -0.0884045
  143 813.096 -19.8887 63.7383
  144 813.096 -19.8887 63.7383
  145 546.738 -13.0041 145.743
  146 813.828 -81.2299 139.947
  147 556.430 35.4078 3.69521
  148 546.738 -13.0041 145.743
  149 813.828 -81.2299 139.947
  150 556.430 35.4078 3.69521
  151 729.332 16.5845 -62.9244
  152 729.332 16.5845 -62.9244
  153 1232.56 -56.2345 -71.6931
  154 1232.56 -56.2345 -71.6931
  155 1237.72 -93.0259 -136.891
  156 1068.86 183.864 15.9655
  157 1237.72 -93.0259 -136.891
  158 1068.86 183.864 15.9655
  159 797.220 9.51527 6.52604
  160 797.220 9.51527 6.52604
  161 496.479 -24.6911 -119.985
  162 496.479 -24.6911 -119.985
  163 794.460 9.39867 -6.36821
  164 794.460 9.39867 -6.36821
  165 802.084 11.1956 18.1703
  166 802.084 11.1956 18.1703
  167 941.473 -15.5023 14.6132
  168 913.015 -34.7875 -12.3961
  169 941.473 -15.5023 14.6132
  170 913.015 -34.7875 -12.3961
  171 992.167 -35.3345 -15.6617
  172 992.167 -35.3345 -15.6617
  173 771.475 25.4933 21.7819
  174 771.475 25.4933 21.7819
  175 364.531 -38.0941 153.479
  176 364.531 -38.0941 153.479
  177 339.457 -25.0401 -106.865
  178 339.457 -25.0401 -106.865
  179 775.982 28.2957 -20.0605
  180 775.982 28.2957 -20.0605
</Section>

newXOutput 246

<Section columns = "stress_xx | stress_yy | stress_xy">
  1 798.767 5.81334 -3.21730
  2 801.583 4.49072 2.80388
  3 798.767 5.81334 -3.21730
  4 801.583 4.49072 2.80388
  5 619.710 10.9633 348.941
  6 1085.16 38.7925 -293.320
  7 619.710 10.9633 348.941
  8 1085.16 38.7925 -293.320
  9 806.249 1.59400 -10.4420
  10 839.372 0.598513 -17.8502
  11 863.861 -9.66378 -27.0405
  12 919.370 -7.39713 7.09062
  13 925.213 27.0774 12.3140
  14 916.952 1.41201 -13.2711
  15 874.981 -18.1003 23.6583
  16 832.675 3.49484 20.2241
  17 810.961 5.47407 9.14783
  18 796.789 9.56946 1.57741
  19 791.806 9.61795 -0.142410
  20 794.807 8.76377 -1.44445
  21 806.249 1.59400 -10.4420
  22 839.372 0.598513 -17.8502
  23 863.861 -9.66378 -27.0405
  24 919.370 -7.39713 7.09062
  25 925.213 27.0774 12.3140
  26 916.952 1.41201 -13.2711
  27 874.981 -18.1003 23.6583
  28 832.675 3.49484 20.2241
  29 810.961 5.47407 9.14783
  30 796.789 9.56946 1.57741
  31 791.806 9.61795 -0.142410
  32 794.807 8.76377 -1.44445
  33 170.441 238.073 -201.437
  34 834.889 82.3763 -311.166
  35 1038.44 -67.4814 -151.781
  36 1193.93 -31.5024 -83.9275
  37 1290.66 -8.20295 -65.6475
  38 1373.88 24.4243 -90.9559
  39 1451.83 100.217 -168.461
  40 373.666 -214.120 -360.025
  41 78.1668 -436.697 -161.800
  42 29.4131 -624.070 -55.3463
  43 18.0529 -668.327 -6.13913
  44 20.3627 -639.054 50.3828
  45 58.3024 -550.789 124.160
  46 229.290 -276.055 293.993
  47 170.441 238.073 -201.437
  48 834.889 82.3763 -311.166
  49 1038.44 -67.4814 -151.781
  50 1193.93 -31.5024 -83.9275
  51 1290.66 -8.20295 -65.6475
  52 1373.88 24.4243 -90.9559
  53 1451.83 100.217 -168.461
  54 373.666 -214.120 -360.025
  55 78.1668 -436.697 -161.800
  56 29.4131 -624.070 -55.3463
  57 18.0529 -668.327 -6.13913
  58 20.3627 -639.054 50.3828
  59 58.3024 -550.789 124.160
  60 229.290 -276.055 293.993
  61 742.472 34.7058 -13.2346
  62 742.472 34.7058 -13.2346
  63 685.657 12.9167 82.1311
  64 662.898 5.19510 -92.8689
  65 685.657 12.9167 82.1311
  66 662.898 5.19510 -92.8689
  67 378.025 9.05585 21.8893
  68 378.025 9.05585 21.8893
  69 564.715 -110.703 272.972
  70 564.715 -110.703 272.972
  71 371.923 -122.102 -209.877
  72 916.169 -86.0326 -56.2860
  73 1034.98 39.9898 -8.55969
  74 1008.05 51.0776 -1.61692
  75 371.923 -122.102 -209.877
  76 916.169 -86.0326 -56.2860
  77 1034.98 39.9898 -8.55969
  78 1008.05 51.0776 -1.61692
  79 924.089 -46.1624 26.5128
  80 924.089 -46.1624 26.5128
  81 1177.62 57.4383 -4.79512
  82 1177.62 57.4383 -4.79512
  83 194.292 -142.527 -27.3754
  84 194.292 -142.527 -27.3754
  85 221.832 -194.734 162.580
  86 221.832 -194.734 162.580
  87 1017.68 -47.5039 47.2591
  88 1017.68 -47.5039 47.2591
  89 787.129 18.3832 11.5805
  90 788.718 20.5681 -11.4145
  91 787.129 18.3832 11.5805
  92 788.718 20.5681 -11.4145
  93 1210.29 156.035 50.4619
  94 1210.29 156.035 50.4619
  95 814.471 7.34550 35.1760
  96 814.471 7.34550 35.1760
  97 1174.52 51.8418 -73.9563
  98 1173.44 60.2604 -111.069
  99 1174.52 51.8418 -73.9563
  100 1173.44 60.2604 -111.069
  101 790.491 14.6027 -43.3246
  102 790.491 14.6027 -43.3246
  103 614.273 -129.487 -303.319
  104 614.273 -129.487 -303.319
  105 390.988 -176.523 318.530
  106 390.988 -176.523 318.530
  107 966.634 -82.9648 -130.179
  108 966.634 -82.9648 -130.179
  109 736.301 -100.410 -178.852
  110 736.301 -100.410 -178.852
  111 1329.97 58.9644 41.6641
  112 1329.97 58.9644 41.6641
  113 98.6489 -341.129 -127.969
  114 98.6489 -341.129 -127.969
  115 52.8837 -411.552 33.1051
  116 52.8837 -411.552 33.1051
  117 679.663 47.9518 -7.24834
  118 679.663 47.9518 -7.24834
  119 818.662 -32.4340 -72.2823
  120 818.662 -32.4340 -72.2823
  121 1247.68 -2.06746 -75.1806
  122 1247.68 -2.06746 -75.1806
  123 125.940 -353.269 189.028
  124 125.940 -353.269 189.028
  125 745.648 27.4611 41.8466
  126 745.648 27.4611 41.8466
  127 184.458 -265.432 -233.173
  128 184.458 -265.432 -233.173
  129 985.881 -36.8473 249.031
  130 985.881 -36.8473 249.031
  131 1285.95 51.1128 -119.367
  132 1285.95 51.1128 -119.367
  133 69.8421 -466.114 -39.2908
  134 69.8421 -466.114 -39.2908
  135 76.1801 -455.047 84.9071
  136 76.1801 -455.047 84.9071
  137 809.479 8.89099 -20.4404
  138 809.479 8.89099 -20.4404
  139 773.078 28.3527 -1.09169
  140 773.078 28.3527 -1.09169
  141 790.768 14.2343 -0.0883594
  142 790.768 14.2343 -0.0883594
  143 816.102 -19.9636 63.9749
  144 816.102 -19.9636 63.9749
  145 548.844 -13.0470 146.291
  146 816.801 -81.5377 140.488
  147 558.597 35.5497 3.70822
  148 548.844 -13.0470 146.291
  149 816.801 -81.5377 140.488
  150 558.597 35.5497 3.70822
  151 732.078 16.6434 -63.1491
  152 732.078 16.6434 -63.1491
  153 1236.88 -56.4392 -71.9293
  154 1236.88 -56.4392 -71.9293
  155 1242.01 -93.3898 -137.381
  156 1072.46 184.579 16.0047
  157 1242.01 -93.3898 -137.381
  158 1072.46 184.579 16.0047
  159 800.185 9.54770 6.54651
  160 800.185 9.54770 6.54651
  161 498.414 -24.7757 -120.448
  162 498.414 -24.7757 -120.448
  163 797.411 9.43072 -6.38761
  164 797.411 9.43072 -6.38761
  165 805.063 11.2348 18.2297
  166 805.063 11.2348 18.2297
  167 944.920 -15.5465 14.6234
  168 916.342 -34.9206 -12.4647
  169 944.920 -15.5465 14.6234
  170 916.342 -34.9206 -12.4647
  171 995.770 -35.4262 -15.7897
  172 995.770 -35.4262 -15.7897
  173 774.363 25.5842 21.8552
  174 774.363 25.5842 21.8552
  175 365.967 -38.2147 154.085
  176 365.967 -38.2147 154.085
  177 340.813 -25.1008 -107.290
  178 340.813 -25.1008 -107.290
  179 778.882 28.3956 -20.1275
  180 778.882 28.3956 -20.1275
</Section>

newXOutput 247

<Section columns = "stress_xx | stress_yy | stress_xy">
  1 801.717 5.83291 -3.22702
  2 804.549 4.50583 2.81235
  3 801.717 5.83291 -3.22702
  4 804.549 4.50583 2.81235
  5 621.823 11.1845 350.297
  6 1088.94 39.1142 -294.496
  7 621.823 11.1845 350.297
  8 1088.94 39.1142 -294.496
  9 809.220 1.59865 -10.4749
  10 842.438 0.600889 -17.9081
  11 867.011 -9.70295 -27.1395
  12 922.722 -7.42272 7.09441
  13 928.631 27.1843 12.3405
  14 920.324 1.41605 -13.2920
  15 878.179 -18.1690 23.7524
  16 835.734 3.50693 20.2921
  17 813.954 5.49290 9.17657
  18 799.741 9.60158 1.58224
  19 794.743 9.64996 -0.142868
  20 797.750 8.79298 -1.44877
  21 809.220 1.59865 -10.4749
  22 842.438 0.600889 -17.9081
  23 867.011 -9.70295 -27.1395
  24 922.722 -7.42272 7.09441
  25 928.631 27.1843 12.3405
  26 920.324 1.41605 -13.2920
  27 878.179 -18.1690 23.7524
  28 835.734 3.50693 20.2921
  29 813.954 5.49290 9.17657
  30 799.741 9.60158 1.58224
  31 794.743 9.64996 -0.142868
  32 797.750 8.79298 -1.44877
  33 171.108 239.005 -202.226
  34 837.907 82.6847 -312.305
  35 1042.24 -67.7393 -152.275
  36 1198.17 -31.6065 -84.1723
  37 1295.17 -8.22757 -65.8423
  38 1378.61 24.5181 -91.2553
  39 1456.81 100.640 -169.088
  40 375.001 -214.709 -361.525
  41 78.4626 -438.270 -162.546
  42 29.5175 -626.539 -55.6188
  43 18.1058 -671.015 -6.16588
  44 20.4261 -641.589 50.6260
  45 58.5218 -552.865 124.752
  46 230.141 -276.905 295.266
  47 171.108 239.005 -202.226
  48 837.907 82.6847 -312.305
  49 1042.24 -67.7393 -152.275
  50 1198.17 -31.6065 -84.1723
  51 1295.17 -8.22757 -65.8423
  52 1378.61 24.5181 -91.2553
  53 1456.81 100.640 -169.088
  54 375.001 -214.709 -361.525
  55 78.4626 -438.270 -162.546
  56 29.5175 -626.539 -55.6188
  57 18.1058 -671.015 -6.16588
  58 20.4261 -641.589 50.6260
  59 58.5218 -552.865 124.752
  60 230.141 -276.905 295.266
  61 745.258 34.8306 -13.2806
  62 745.258 34.8306 -13.2806
  63 688.241 12.9677 82.4288
  64 665.408 5.21509 -93.2106
  65 688.241 12.9677 82.4288
  66 665.408 5.21509 -93.2106
  67 379.531 9.11573 21.9708
  68 379.531 9.11573 21.9708
  69 566.804 -111.127 274.038
  70 566.804 -111.127 274.038
  71 373.353 -122.535 -210.733
  72 919.493 -86.3462 -56.5334
  73 1038.72 40.1632 -8.63664
  74 1011.71 51.2647 -1.59712
  75 373.353 -122.535 -210.733
  76 919.493 -86.3462 -56.5334
  77 1038.72 40.1632 -8.63664
  78 1011.71 51.2647 -1.59712
  79 927.446 -46.3325 26.6459
  80 927.446 -46.3325 26.6459
  81 1181.78 57.6486 -4.83486
  82 1181.78 57.6486 -4.83486
  83 195.072 -143.017 -27.4911
  84 195.072 -143.017 -27.4911
  85 222.697 -195.429 163.275
  86 222.697 -195.429 163.275
  87 1021.32 -47.6612 47.5134
  88 1021.32 -47.6612 47.5134
  89 790.054 18.4466 11.6178
  90 791.644 20.6393 -11.4501
  91 790.054 18.4466 11.6178
  92 791.644 20.6393 -11.4501
  93 1214.54 156.588 50.6856
  94 1214.54 156.588 50.6856
  95 817.476 7.37135 35.2978
  96 817.476 7.37135 35.2978
  97 1178.70 52.0556 -74.2450
  98 1177.60 60.5477 -111.532
  99 1178.70 52.0556 -74.2450
  100 1177.60 60.5477 -111.532
  101 793.420 14.6529 -43.4746
  102 793.420 14.6529 -43.4746
  103 616.490 -129.877 -304.555
  104 616.490 -129.877 -304.555
  105 392.449 -177.099 319.853
  106 392.449 -177.099 319.853
  107 970.104 -83.2204 -130.741
  108 970.104 -83.2204 -130.741
  109 739.016 -100.787 -179.547
  110 739.016 -100.787 -179.547
  111 1334.51 59.1491 41.7509
  112 1334.51 59.1491 41.7509
  113 99.0343 -342.388 -128.545
  114 99.0343 -342.388 -128.545
  115 53.0847 -413.119 33.2588
  116 53.0847 -413.119 33.2588
  117 682.243 48.1306 -7.27506
  118 682.243 48.1306 -7.27506
  119 821.672 -32.5598 -72.5538
  120 821.672 -32.5598 -72.5538
  121 1252.05 -2.06955 -75.4230
  122 1252.05 -2.06955 -75.4230
  123 126.426 -354.533 189.885
  124 126.426 -354.533 189.885
  125 748.440 27.5620 41.9925
  126 748.440 27.5620 41.9925
  127 185.170 -266.341 -234.196
  128 185.170 -266.341 -234.196
  129 989.312 -36.9319 250.029
  130 989.312 -36.9319 250.029
  131 1290.44 51.3100 -119.795
  132 1290.44 51.3100 -119.795
  133 70.1061 -467.909 -39.4708
  134 70.1061 -467.909 -39.4708
  135 76.4719 -456.771 85.3158
  136 76.4719 -456.771 85.3158
  137 812.462 8.92130 -20.5074
  138 812.462 8.92130 -20.5074
  139 775.961 28.4516 -1.09493
  140 775.961 28.4516 -1.09493
  141 793.702 14.2825 -0.0883100
  142 793.702 14.2825 -0.0883100
  143 819.106 -20.0384 64.2113
  144 819.106 -20.0384 64.2113
  145 550.948 -13.0897 146.838
  146 819.772 -81.8451 141.030
  147 560.764 35.6916 3.72122
  148 550.948 -13.0897 146.838
  149 819.772 -81.8451 141.030
  150 560.764 35.6916 3.72122
  151 734.823 16.7024 -63.3734
  152 734.823 16.7024 -63.3734
  153 1241.19 -56.6433 -72.1649
  154 1241.19 -56.6433 -72.1649
  155 1246.30 -93.7532 -137.870
  156 1076.06 185.292 16.0437
  157 1246.30 -93.7532 -137.870
  158 1076.06 185.292 16.0437
  159 803.147 9.58018 6.56692
  160 803.147 9.58018 6.56692
  161 500.348 -24.8600 -120.910
  162 500.348 -24.8600 -120.910
  163 800.359 9.46281 -6.40695
  164 800.359 9.46281 -6.40695
  165 808.040 11.2740 18.2890
  166 808.040 11.2740 18.2890
  167 948.364 -15.5903 14.6333
  168 919.665 -35.0535 -12.5333
  169 948.364 -15.5903 14.6333
  170 919.665 -35.0535 -12.5333
  171 999.369 -35.5172 -15.9182
  172 999.369 -35.5172 -15.9182
  173 777.249 25.6750 21.9284
  174 777.249 25.6750 21.9284
  175 367.403 -38.3348 154.691
  176 367.403 -38.3348 154.691
  177 342.170 -25.1612 -107.715
  178 342.170 -25.1612 -107.715
  179 781.780 28.4954 -20.1944
  180 781.780 28.4954 -20.1944
</Section>

newXOutput 248

<Section columns = "stress_xx | stress_yy | stress_xy">
  1 804.666 5.85244 -3.23671
  2 807.513 4.52093 2.82081
  3 804.666 5.85244 -3.23671
  4 807.513 4.52093 2.82081
  5 623.933 11.4069 351.652
  6 1092.72 39.4371 -295.672
  7 623.933 11.4069 351.652
  8 1092.72 39.4371 -295.672
  9 812.188 1.60328 -10.5077
  10 845.502 0.603265 -17.9658
  11 870.159 -9.74210 -27.2384
  12 926.072 -7.44827 7.09803
  13 932.047 27.2912 12.3667
  14 923.692 1.42009 -13.3128
  15 881.374 -18.2377 23.8465
  16 838.790 3.51899 20.3601
  17 816.945 5.51170 9.20525
  18 802.691 9.63366 1.58706
  19 797.678 9.68191 -0.143325
  20 800.690 8.82215 -1.45307
  21 812.188 1.60328 -10.5077
  22 845.502 0.603265 -17.9658
  23 870.159 -9.74210 -27.2384
  24 926.072 -7.44827 7.09803
  25 932.047 27.2912 12.3667
  26 923.692 1.42009 -13.3128
  27 881.374 -18.2377 23.8465
  28 838.790 3.51899 20.3601
  29 816.945 5.51170 9.20525
  30 802.691 9.63366 1.58706
  31 797.678 9.68191 -0.143325
  32 800.690 8.82215 -1.45307
  33 171.775 239.937 -203.014
  34 840.923 82.9928 -313.444
  35 1046.03 -67.9970 -152.767
  36 1202.41 -31.7105 -84.4165
  37 1299.67 -8.25213 -66.0368
  38 1383.34 24.6118 -91.5543
  39 1461.79 101.064 -169.714
  40 376.334 -215.295 -363.025
  41 78.7583 -439.842 -163.292
  42 29.6217 -629.007 -55.8917
  43 18.1585 -673.703 -6.19264
  44 20.4893 -644.123 50.8695
  45 58.7411 -554.939 125.343
  46 230.992 -277.753 296.538
  47 171.775 239.937 -203.014
  48 840.923 82.9928 -313.444
  49 1046.03 -67.9970 -152.767
  50 1202.41 -31.7105 -84.4165
  51 1299.67 -8.25213 -66.0368
  52 1383.34 24.6118 -91.5543
  53 1461.79 101.064 -169.714
  54 376.334 -215.295 -363.025
  55 78.7583 -439.842 -163.292
  56 29.6217 -629.007 -55.8917
  57 18.1585 -673.703 -6.19264
  58 20.4893 -644.123 50.8695
  59 58.7411 -554.939 125.343
  60 230.992 -277.753 296.538
  61 748.042 34.9552 -13.3265
  62 748.042 34.9552 -13.3265
  63 690.823 13.0186 82.7263
  64 667.917 5.23508 -93.5520
  65 690.823 13.0186 82.7263
  66 667.917 5.23508 -93.5520
  67 381.037 9.17575 22.0523
  68 381.037 9.17575 22.0523
  69 568.892 -111.551 275.104
  70 568.892 -111.551 275.104
  71 374.784 -122.967 -211.588
  72 922.813 -86.6596 -56.7809
  73 1042.47 40.3366 -8.71382
  74 1015.37 51.4517 -1.57713
  75 374.784 -122.967 -211.588
  76 922.813 -86.6596 -56.7809
  77 1042.47 40.3366 -8.71382
  78 1015.37 51.4517 -1.57713
  79 930.801 -46.5025 26.7791
  80 930.801 -46.5025 26.7791
  81 1185.94 57.8587 -4.87467
  82 1185.94 57.8587 -4.87467
  83 195.851 -143.507 -27.6068
  84 195.851 -143.507 -27.6068
  85 223.561 -196.123 163.971
  86 223.561 -196.123 163.971
  87 1024.96 -47.8183 47.7682
  88 1024.96 -47.8183 47.7682
  89 792.976 18.5099 11.6551
  90 794.568 20.7104 -11.4857
  91 792.976 18.5099 11.6551
  92 794.568 20.7104 -11.4857
  93 1218.78 157.140 50.9094
  94 1218.78 157.140 50.9094
  95 820.478 7.39716 35.4194
  96 820.478 7.39716 35.4194
  97 1182.87 52.2693 -74.5336
  98 1181.76 60.8352 -111.995
  99 1182.87 52.2693 -74.5336
  100 1181.76 60.8352 -111.995
  101 796.348 14.7030 -43.6244
  102 796.348 14.7030 -43.6244
  103 618.704 -130.267 -305.791
  104 618.704 -130.267 -305.791
  105 393.910 -177.674 321.177
  106 393.910 -177.674 321.177
  107 973.571 -83.4754 -131.304
  108 973.571 -83.4754 -131.304
  109 741.729 -101.165 -180.242
  110 741.729 -101.165 -180.242
  111 1339.06 59.3334 41.8373
  112 1339.06 59.3334 41.8373
  113 99.4195 -343.646 -129.121
  114 99.4195 -343.646 -129.121
  115 53.2856 -414.686 33.4127
  116 53.2856 -414.686 33.4127
  117 684.821 48.3093 -7.30175
  118 684.821 48.3093 -7.30175
  119 824.681 -32.6854 -72.8253
  120 824.681 -32.6854 -72.8253
  121 1256.42 -2.07160 -75.6649
  122 1256.42 -2.07160 -75.6649
  123 126.913 -355.795 190.742
  124 126.913 -355.795 190.742
  125 751.230 27.6627 42.1381
  126 751.230 27.6627 42.1381
  127 185.882 -267.250 -235.218
  128 185.882 -267.250 -235.218
  129 992.738 -37.0160 251.027
  130 992.738 -37.0160 251.027
  131 1294.93 51.5071 -120.224
  132 1294.93 51.5071 -120.224
  133 70.3700 -469.704 -39.6510
  134 70.3700 -469.704 -39.6510
  135 76.7637 -458.494 85.7249
  136 76.7637 -458.494 85.7249
  137 815.443 8.95158 -20.5742
  138 815.443 8.95158 -20.5742
  139 778.841 28.5505 -1.09815
  140 778.841 28.5505 -1.09815
  141 796.634 14.3306 -0.0882572
  142 796.634 14.3306 -0.0882572
  143 822.108 -20.1131 64.4475
  144 822.108 -20.1131 64.4475
  145 553.052 -13.1324 147.385
  146 822.739 -82.1523 141.571
  147 562.931 35.8335 3.73423
  148 553.052 -13.1324 147.385
  149 822.739 -82.1523 141.571
  150 562.931 35.8335 3.73423
  151 737.565 16.7613 -63.5975
  152 737.565 16.7613 -63.5975
  153 1245.49 -56.8472 -72.4000
  154 1245.49 -56.8472 -72.4000
  155 1250.58 -94.1164 -138.358
  156 1079.66 186.006 16.0825
  157 1250.58 -94.1164 -138.358
  158 1079.66 186.006 16.0825
  159 806.107 9.61260 6.58729
  160 806.107 9.61260 6.58729
  161 502.281 -24.9442 -121.372
  162 502.281 -24.9442 -121.372
  163 803.305 9.49485 -6.42625
  164 803.305 9.49485 -6.42625
  165 811.014 11.3131 18.3482
  166 811.014 11.3131 18.3482
  167 951.805 -15.6339 14.6428
  168 922.986 -35.1863 -12.6021
  169 951.805 -15.6339 14.6428
  170 922.986 -35.1863 -12.6021
  171 1002.96 -35.6079 -16.0471
  172 1002.96 -35.6079 -16.0471
  173 780.133 25.7658 22.0014
  174 780.133 25.7658 22.0014
  175 368.838 -38.4547 155.297
  176 368.838 -38.4547 155.297
  177 343.526 -25.2212 -108.140
  178 343.526 -25.2212 -108.140
  179 784.676 28.5951 -20.2612
  180 784.676 28.5951 -20.2612
</Section>

newXOutput 249

<Section columns = "stress_xx | stress_yy | stress_xy">
  1 807.612 5.87195 -3.24639
  2 810.475 4.53599 2.82925
  3 807.612 5.87195 -3.24639
  4 810.475 4.53599 2.82925
  5 626.040 11.6305 353.007
  6 1096.49 39.7610 -296.848
  7 626.040 11.6305 353.007
  8 1096.49 39.7610 -296.848
  9 815.154 1.60790 -10.5404
  10 848.563 0.605640 -18.0235
  11 873.305 -9.78125 -27.3372
  12 929.418 -7.47379 7.10150
  13 935.460 27.3981 12.3929
  14 927.059 1.42412 -13.3333
  15 884.566 -18.3063 23.9406
  16 841.844 3.53104 20.4279
  17 819.933 5.53047 9.23387
  18 805.639 9.66568 1.59188
  19 800.611 9.71382 -0.143780
  20 803.628 8.85128 -1.45736
  21 815.154 1.60790 -10.5404
  22 848.563 0.605640 -18.0235
  23 873.305 -9.78125 -27.3372
  24 929.418 -7.47379 7.10150
  25 935.460 27.3981 12.3929
  26 927.059 1.42412 -13.3333
  27 884.566 -18.3063 23.9406
  28 841.844 3.53104 20.4279
  29 819.933 5.53047 9.23387
  30 805.639 9.66568 1.59188
  31 800.611 9.71382 -0.143780
  32 803.628 8.85128 -1.45736
  33 172.442 240.868 -203.802
  34 843.935 83.3006 -314.581
  35 1049.82 -68.2546 -153.259
  36 1206.64 -31.8143 -84.6600
  37 1304.17 -8.27663 -66.2307
  38 1388.06 24.7054 -91.8527
  39 1466.76 101.487 -170.339
  40 377.666 -215.880 -364.526
  41 79.0536 -441.411 -164.039
  42 29.7259 -631.475 -56.1650
  43 18.2111 -676.391 -6.21942
  44 20.5524 -646.657 51.1134
  45 58.9602 -557.011 125.936
  46 231.842 -278.599 297.811
  47 172.442 240.868 -203.802
  48 843.935 83.3006 -314.581
  49 1049.82 -68.2546 -153.259
  50 1206.64 -31.8143 -84.6600
  51 1304.17 -8.27663 -66.2307
  52 1388.06 24.7054 -91.8527
  53 1466.76 101.487 -170.339
  54 377.666 -215.880 -364.526
  55 79.0536 -441.411 -164.039
  56 29.7259 -631.475 -56.1650
  57 18.2111 -676.391 -6.21942
  58 20.5524 -646.657 51.1134
  59 58.9602 -557.011 125.936
  60 231.842 -278.599 297.811
  61 750.825 35.0797 -13.3723
  62 750.825 35.0797 -13.3723
  63 693.404 13.0696 83.0235
  64 670.424 5.25506 -93.8931
  65 693.404 13.0696 83.0235
  66 670.424 5.25506 -93.8931
  67 382.543 9.23591 22.1338
  68 382.543 9.23591 22.1338
  69 570.979 -111.974 276.169
  70 570.979 -111.974 276.169
  71 376.213 -123.399 -212.443
  72 926.131 -86.9726 -57.0284
  73 1046.21 40.5101 -8.79124
  74 1019.03 51.6385 -1.55696
  75 376.213 -123.399 -212.443
  76 926.131 -86.9726 -57.0284
  77 1046.21 40.5101 -8.79124
  78 1019.03 51.6385 -1.55696
  79 934.152 -46.6724 26.9125
  80 934.152 -46.6724 26.9125
  81 1190.09 58.0687 -4.91456
  82 1190.09 58.0687 -4.91456
  83 196.630 -143.995 -27.7225
  84 196.630 -143.995 -27.7225
  85 224.425 -196.817 164.667
  86 224.425 -196.817 164.667
  87 1028.59 -47.9750 48.0233
  88 1028.59 -47.9750 48.0233
  89 795.897 18.5731 11.6922
  90 797.490 20.7815 -11.5212
  91 795.897 18.5731 11.6922
  92 797.490 20.7815 -11.5212
  93 1223.03 157.691 51.1332
  94 1223.03 157.691 51.1332
  95 823.479 7.42295 35.5409
  96 823.479 7.42295 35.5409
  97 1187.04 52.4831 -74.8220
  98 1185.91 61.1230 -112.458
  99 1187.04 52.4831 -74.8220
  100 1185.91 61.1230 -112.458
  101 799.273 14.7530 -43.7740
  102 799.273 14.7530 -43.7740
  103 620.915 -130.656 -307.026
  104 620.915 -130.656 -307.026
  105 395.369 -178.248 322.500
  106 395.369 -178.248 322.500
  107 977.034 -83.7298 -131.866
  108 977.034 -83.7298 -131.866
  109 744.441 -101.542 -180.936
  110 744.441 -101.542 -180.936
  111 1343.59 59.5173 41.9232
  112 1343.59 59.5173 41.9232
  113 99.8046 -344.903 -129.698
  114 99.8046 -344.903 -129.698
  115 53.4864 -416.251 33.5667
  116 53.4864 -416.251 33.5667
  117 687.398 48.4879 -7.32840
  118 687.398 48.4879 -7.32840
  119 827.687 -32.8111 -73.0965
  120 827.687 -32.8111 -73.0965
  121 1260.78 -2.07361 -75.9063
  122 1260.78 -2.07361 -75.9063
  123 127.399 -357.056 191.600
  124 127.399 -357.056 191.600
  125 754.018 27.7634 42.2836
  126 754.018 27.7634 42.2836
  127 186.594 -268.157 -236.242
  128 186.594 -268.157 -236.242
  129 996.161 -37.0996 252.025
  130 996.161 -37.0996 252.025
  131 1299.41 51.7041 -120.651
  132 1299.41 51.7041 -120.651
  133 70.6337 -471.498 -39.8313
  134 70.6337 -471.498 -39.8313
  135 77.0552 -460.217 86.1345
  136 77.0552 -460.217 86.1345
  137 818.421 8.98181 -20.6410
  138 818.421 8.98181 -20.6410
  139 781.720 28.6492 -1.10137
  140 781.720 28.6492 -1.10137
  141 799.563 14.3787 -0.0882012
  142 799.563 14.3787 -0.0882012
  143 825.106 -20.1877 64.6835
  144 825.106 -20.1877 64.6835
  145 555.155 -13.1751 147.932
  146 825.705 -82.4593 142.111
  147 565.096 35.9753 3.74724
  148 555.155 -13.1751 147.932
  149 825.705 -82.4593 142.111
  150 565.096 35.9753 3.74724
  151 740.305 16.8201 -63.8213
  152 740.305 16.8201 -63.8213
  153 1249.79 -57.0509 -72.6348
  154 1249.79 -57.0509 -72.6348
  155 1254.85 -94.4795 -138.846
  156 1083.25 186.719 16.1211
  157 1254.85 -94.4795 -138.846
  158 1083.25 186.719 16.1211
  159 809.065 9.64498 6.60762
  160 809.065 9.64498 6.60762
  161 504.214 -25.0284 -121.834
  162 504.214 -25.0284 -121.834
  163 806.249 9.52685 -6.44550
  164 806.249 9.52685 -6.44550
  165 813.987 11.3522 18.4072
  166 813.987 11.3522 18.4072
  167 955.242 -15.6774 14.6520
  168 926.304 -35.3190 -12.6709
  169 955.242 -15.6774 14.6520
  170 926.304 -35.3190 -12.6709
  171 1006.56 -35.6982 -16.1765
  172 1006.56 -35.6982 -16.1765
  173 783.014 25.8565 22.0743
  174 783.014 25.8565 22.0743
  175 370.272 -38.5744 155.903
  176 370.272 -38.5744 155.903
  177 344.882 -25.2809 -108.564
  178 344.882 -25.2809 -108.564
  179 787.570 28.6947 -20.3278
  180 787.570 28.6947 -20.3278
</Section>

newXOutput 250

<Section columns = "stress_xx | stress_yy | stress_xy">
  1 810.556 5.89143 -3.25604
  2 813.434 4.55104 2.83767
  3 810.556 5.89143 -3.25604
  4 813.434 4.55104 2.83767
  5 628.144 11.8554 354.361
  6 1100.26 40.0860 -298.023
  7 628.144 11.8554 354.361
  8 1100.26 40.0860 -298.023
  9 818.118 1.61252 -10.5731
  10 851.621 0.608014 -18.0811
  11 876.447 -9.82040 -27.4359
  12 932.762 -7.49928 7.10480
  13 938.871 27.5049 12.4189
  14 930.422 1.42815 -13.3536
  15 887.755 -18.3748 24.0347
  16 844.896 3.54308 20.4957
  17 822.919 5.54923 9.26243
  18 808.584 9.69765 1.59668
  19 803.541 9.74567 -0.144235
  20 806.565 8.88036 -1.46164
  21 818.118 1.61252 -10.5731
  22 851.621 0.608014 -18.0811
  23 876.447 -9.82040 -27.4359
  24 932.762 -7.49928 7.10480
  25 938.871 27.5049 12.4189
  26 930.422 1.42815 -13.3536
  27 887.755 -18.3748 24.0347
  28 844.896 3.54308 20.4957
  29 822.919 5.54923 9.26243
  30 808.584 9.69765 1.59668
  31 803.541 9.74567 -0.144235
  32 806.565 8.88036 -1.46164
  33 173.109 241.799 -204.590
  34 846.945 83.6082 -315.718
  35 1053.60 -68.5119 -153.750
  36 1210.87 -31.9179 -84.9029
  37 1308.66 -8.30107 -66.4242
  38 1392.78 24.7990 -92.1506
  39 1471.72 101.910 -170.964
  40 378.996 -216.462 -366.026
  41 79.3488 -442.979 -164.787
  42 29.8299 -633.942 -56.4387
  43 18.2636 -679.078 -6.24621
  44 20.6153 -649.190 51.3575
  45 59.1791 -559.083 126.529
  46 232.691 -279.443 299.085
  47 173.109 241.799 -204.590
  48 846.945 83.6082 -315.718
  49 1053.60 -68.5119 -153.750
  50 1210.87 -31.9179 -84.9029
  51 1308.66 -8.30107 -66.4242
  52 1392.78 24.7990 -92.1506
  53 1471.72 101.910 -170.964
  54 378.996 -216.462 -366.026
  55 79.3488 -442.979 -164.787
  56 29.8299 -633.942 -56.4387
  57 18.2636 -679.078 -6.24621
  58 20.6153 -649.190 51.3575
  59 59.1791 -559.083 126.529
  60 232.691 -279.443 299.085
  61 753.605 35.2041 -13.4181
  62 753.605 35.2041 -13.4181
  63 695.984 13.1205 83.3205
  64 672.929 5.27503 -94.2339
  65 695.984 13.1205 83.3205
  66 672.929 5.27503 -94.2339
  67 384.049 9.29623 22.2152
  68 384.049 9.29623 22.2152
  69 573.064 -112.397 277.234
  70 573.064 -112.397 277.234
  71 377.642 -123.830 -213.299
  72 929.445 -87.2854 -57.2761
  73 1049.94 40.6837 -8.86889
  74 1022.68 51.8251 -1.53659
  75 377.642 -123.830 -213.299
  76 929.445 -87.2854 -57.2761
  77 1049.94 40.6837 -8.86889
  78 1022.68 51.8251 -1.53659
  79 937.500 -46.8422 27.0461
  80 937.500 -46.8422 27.0461
  81 1194.23 58.2784 -4.95453
  82 1194.23 58.2784 -4.95453
  83 197.409 -144.483 -27.8383
  84 197.409 -144.483 -27.8383
  85 225.289 -197.509 165.363
  86 225.289 -197.509 165.363
  87 1032.21 -48.1315 48.2788
  88 1032.21 -48.1315 48.2788
  89 798.815 18.6363 11.7294
  90 800.410 20.8524 -11.5566
  91 798.815 18.6363 11.7294
  92 800.410 20.8524 -11.5566
  93 1227.26 158.242 51.3571
  94 1227.26 158.242 51.3571
  95 826.477 7.44870 35.6622
  96 826.477 7.44870 35.6622
  97 1191.20 52.6968 -75.1102
  98 1190.06 61.4110 -112.922
  99 1191.20 52.6968 -75.1102
  100 1190.06 61.4110 -112.922
  101 802.196 14.8029 -43.9234
  102 802.196 14.8029 -43.9234
  103 623.125 -131.044 -308.261
  104 623.125 -131.044 -308.261
  105 396.826 -178.821 323.824
  106 396.826 -178.821 323.824
  107 980.494 -83.9837 -132.429
  108 980.494 -83.9837 -132.429
  109 747.149 -101.919 -181.630
  110 747.149 -101.919 -181.630
  111 1348.12 59.7009 42.0086
  112 1348.12 59.7009 42.0086
  113 100.190 -346.159 -130.275
  114 100.190 -346.159 -130.275
  115 53.6871 -417.816 33.7209
  116 53.6871 -417.816 33.7209
  117 689.973 48.6663 -7.35502
  118 689.973 48.6663 -7.35502
  119 830.690 -32.9366 -73.3675
  120 830.690 -32.9366 -73.3675
  121 1265.14 -2.07559 -76.1473
  122 1265.14 -2.07559 -76.1473
  123 127.885 -358.315 192.459
  124 127.885 -358.315 192.459
  125 756.803 27.8640 42.4290
  126 756.803 27.8640 42.4290
  127 187.305 -269.062 -237.265
  128 187.305 -269.062 -237.265
  129 999.579 -37.1828 253.022
  130 999.579 -37.1828 253.022
  131 1303.89 51.9009 -121.079
  132 1303.89 51.9009 -121.079
  133 70.8973 -473.291 -40.0118
  134 70.8973 -473.291 -40.0118
  135 77.3467 -461.938 86.5446
  136 77.3467 -461.938 86.5446
  137 821.397 9.01200 -20.7076
  138 821.397 9.01200 -20.7076
  139 784.596 28.7477 -1.10457
  140 784.596 28.7477 -1.10457
  141 802.490 14.4267 -0.0881420
  142 802.490 14.4267 -0.0881420
  143 828.103 -20.2623 64.9193
  144 828.103 -20.2623 64.9193
  145 557.256 -13.2176 148.479
  146 828.667 -82.7661 142.652
  147 567.260 36.1171 3.76024
  148 557.256 -13.2176 148.479
  149 828.667 -82.7661 142.652
  150 567.260 36.1171 3.76024
  151 743.044 16.8789 -64.0449
  152 743.044 16.8789 -64.0449
  153 1254.08 -57.2544 -72.8691
  154 1254.08 -57.2544 -72.8691
  155 1259.12 -94.8423 -139.333
  156 1086.83 187.433 16.1595
  157 1259.12 -94.8423 -139.333
  158 1086.83 187.433 16.1595
  159 812.021 9.67732 6.62791
  160 812.021 9.67732 6.62791
  161 506.145 -25.1124 -122.296
  162 506.145 -25.1124 -122.296
  163 809.191 9.55880 -6.46470
  164 809.191 9.55880 -6.46470
  165 816.957 11.3913 18.4662
  166 816.957 11.3913 18.4662
  167 958.677 -15.7208 14.6609
  168 929.618 -35.4516 -12.7399
  169 958.677 -15.7208 14.6609
  170 929.618 -35.4516 -12.7399
  171 1010.15 -35.7881 -16.3062
  172 1010.15 -35.7881 -16.3062
  173 785.894 25.9470 22.1472
  174 785.894 25.9470 22.1472
  175 371.706 -38.6938 156.508
  176 371.706 -38.6938 156.508
  177 346.237 -25.3404 -108.989
  178 346.237 -25.3404 -108.989
  179 790.462 28.7942 -20.3943
  180 790.462 28.7942 -20.3943
</Section>

newXOutput 251

<Section columns = "stress_xx | stress_yy | stress_xy">
  1 1.18916e-09 1.09594e-10 -1.68833e-11
  2 -1.11277e-09 1.77351e-11 6.83427e-11
  3 1.18735e-09 1.09139e-10 -1.71815e-11
  4 -1.11231e-09 1.77351e-11 6.82096e-11
  5 -1.52340e-11 -1.94859e-10 7.52926e-11
  6 -8.56585e-09 -5.06475e-09 2.11077e-09
  7 -1.04592e-11 -1.93950e-10 7.52146e-11
  8 -8.56357e-09 -5.06475e-09 2.11073e-09
  9 1.40881e-09 2.60722e-11 -1.64844e-10
  10 2.09820e-09 -6.82121e-12 -3.06348e-10
  11 2.30630e-09 2.70666e-10 -7.32584e-10
  12 4.23097e-09 -1.99483e-10 -3.85914e-10
  13 2.41380e-09 -4.48608e-10 9.04902e-10
  14 0.00000 0.00000 0.00000
  15 -4.67480e-10 -4.45652e-11 2.52997e-10
  16 -9.39811e-10 6.82121e-11 1.98181e-10
  17 -1.18507e-09 6.76058e-11 8.80019e-11
  18 -5.23566e-10 7.82165e-11 3.86689e-11
  19 -5.09317e-11 1.15961e-10 2.36002e-11
  20 4.89914e-10 1.36424e-10 1.78409e-12
  21 1.40759e-09 2.57690e-11 -1.65171e-10
  22 2.09820e-09 -6.36646e-12 -3.05958e-10
  23 2.30739e-09 2.70484e-10 -7.32687e-10
  24 4.22945e-09 -2.00392e-10 -3.86415e-10
  25 2.41630e-09 -4.46107e-10 9.05144e-10
  26 0.00000 0.00000 0.00000
  27 -4.67935e-10 -4.45652e-11 2.52745e-10
  28 -9.40418e-10 6.82121e-11 1.98604e-10
  29 -1.18598e-09 6.73026e-11 8.81947e-11
  30 -5.22353e-10 7.85197e-11 3.85509e-11
  31 -4.82032e-11 1.16870e-10 2.34812e-11
  32 4.93552e-10 1.37031e-10 1.64370e-12
  33 -6.67251e-09 -4.81123e-10 -1.29325e-09
  34 -1.23133e-08 -4.77818e-09 -3.61791e-09
  35 -1.19765e-08 -5.59430e-09 -4.01763e-09
  36 -1.12298e-08 -4.22794e-09 -3.81070e-09
  37 -1.36497e-08 -2.13868e-09 -3.23513e-09
  38 -1.25083e-08 -2.22008e-09 -1.47274e-09
  39 -1.26032e-08 -3.41030e-09 7.12468e-10
  40 -3.33209e-09 -5.67858e-09 3.18461e-09
  41 -6.29067e-10 -3.53793e-09 1.16070e-09
  42 -1.94026e-10 -1.99573e-09 5.17608e-10
  43 -8.60988e-11 -1.45762e-09 2.60377e-10
  44 -2.42532e-11 -9.50119e-10 1.63827e-10
  45 5.45697e-12 -6.53927e-10 1.30872e-10
  46 2.72848e-11 -4.77788e-10 1.56587e-10
  47 -6.66751e-09 -4.79758e-10 -1.29425e-09
  48 -1.23067e-08 -4.77788e-09 -3.61788e-09
  49 -1.19780e-08 -5.59521e-09 -4.02050e-09
  50 -1.12335e-08 -4.22794e-09 -3.81252e-09
  51 -1.36538e-08 -2.13595e-09 -3.22796e-09
  52 -1.25098e-08 -2.21795e-09 -1.46922e-09
  53 -1.26026e-08 -3.41000e-09 7.13005e-10
  54 -3.32966e-09 -5.67767e-09 3.18393e-09
  55 -6.35130e-10 -3.53884e-09 1.16127e-09
  56 -2.04333e-10 -1.99937e-09 5.16408e-10
  57 -8.97368e-11 -1.45853e-09 2.60500e-10
  58 -1.94026e-11 -9.49512e-10 1.65423e-10
  59 4.85064e-12 -6.52714e-10 1.26174e-10
  60 1.54614e-11 -4.82639e-10 1.54014e-10
  61 -4.36947e-10 4.77485e-10 6.42120e-11
  62 -4.37857e-10 4.76705e-10 6.43697e-11
  63 -6.88184e-10 -1.16567e-10 6.91145e-10
  64 -1.49233e-09 3.59250e-10 3.40476e-10
  65 -6.87426e-10 -1.15809e-10 6.91242e-10
  66 -1.49415e-09 3.57583e-10 3.40378e-10
  67 -8.63262e-10 -8.51742e-10 1.12706e-09
  68 -8.64626e-10 -8.50832e-10 1.12743e-09
  69 -1.84476e-10 -7.30779e-10 5.79148e-10
  70 -1.86598e-10 -7.31688e-10 5.78086e-10
  71 -2.13004e-09 -1.66334e-09 1.59440e-09
  72 -4.64449e-10 -4.77030e-10 -8.68181e-10
  73 6.12480e-10 -1.76338e-09 1.26348e-09
  74 -2.48422e-10 6.10791e-10 1.03587e-09
  75 -2.13160e-09 -1.66490e-09 1.59361e-09
  76 -4.62478e-10 -4.76878e-10 -8.67352e-10
  77 6.13779e-10 -1.76169e-09 1.26373e-09
  78 -2.48292e-10 6.11310e-10 1.03560e-09
  79 -2.06152e-10 -1.33544e-10 2.07653e-10
  80 -2.06152e-10 -1.33241e-10 2.07664e-10
  81 -2.49760e-09 -1.22743e-09 1.43047e-09
  82 -2.49851e-09 -1.22600e-09 1.42981e-09
  83 -5.88102e-10 -1.61549e-09 1.06504e-09
  84 -5.88784e-10 -1.61515e-09 1.06327e-09
  85 -1.11738e-10 -1.05839e-09 5.25062e-10
  86 -1.10698e-10 -1.05787e-09 5.27172e-10
  87 -9.40418e-11 -1.53887e-10 1.42611e-10
  88 -9.38599e-11 -1.54068e-10 1.42623e-10
  89 -5.32600e-10 2.15186e-10 1.40187e-10
  90 3.75621e-10 2.57569e-10 -1.05041e-10
  91 -5.32782e-10 2.15005e-10 1.40110e-10
  92 3.75803e-10 2.58296e-10 -1.05178e-10
  93 -1.87507e-09 2.34907e-09 8.40219e-10
  94 -1.87705e-09 2.34725e-09 8.40457e-10
  95 -7.16379e-10 7.53365e-11 3.38416e-10
  96 -7.16227e-10 7.54881e-11 3.38320e-10
  97 -3.64180e-09 -3.48609e-09 4.28254e-10
  98 -5.12097e-09 -3.27366e-09 2.97159e-10
  99 -3.64234e-09 -3.48664e-09 4.28269e-10
  100 -5.11799e-09 -3.27366e-09 2.96667e-10
  101 3.56977e-10 4.82487e-10 -4.09884e-10
  102 3.57280e-10 4.82790e-10 -4.10322e-10
  103 -4.53322e-09 -3.19505e-09 1.96138e-09
  104 -4.53792e-09 -3.19642e-09 1.96087e-09
  105 -3.15291e-11 -6.18760e-10 2.81807e-10
  106 -2.77396e-11 -6.17850e-10 2.82932e-10
  107 -3.96039e-09 -1.94389e-09 -3.37561e-10
  108 -3.96161e-09 -1.94435e-09 -3.37974e-10
  109 -2.72848e-09 -2.76097e-10 2.75531e-10
  110 -2.72692e-09 -2.75577e-10 2.75348e-10
  111 -4.65570e-09 1.35697e-10 8.70460e-10
  112 -4.66098e-09 1.32968e-10 8.70028e-10
  113 -5.55701e-10 -2.32270e-09 1.05927e-09
  114 -5.55247e-10 -2.32224e-09 1.05848e-09
  115 -1.07775e-10 -1.33938e-09 3.94655e-10
  116 -1.07927e-10 -1.34014e-09 3.92870e-10
  117 -9.16467e-10 3.55309e-10 4.68404e-10
  118 -9.16771e-10 3.54097e-10 4.68604e-10
  119 -6.87318e-11 5.59989e-10 -5.91389e-10
  120 -6.74325e-11 5.60119e-10 -5.90955e-10
  121 -8.38333e-09 -2.99471e-09 -1.68225e-09
  122 -8.38450e-09 -2.99432e-09 -1.68122e-09
  123 -2.91038e-12 -7.24867e-10 2.12158e-10
  124 -4.00178e-12 -7.24867e-10 2.09346e-10
  125 -6.91671e-10 2.08123e-10 4.68086e-10
  126 -6.90458e-10 2.08426e-10 4.67589e-10
  127 -1.22727e-09 -3.26527e-09 1.67106e-09
  128 -1.22309e-09 -3.26363e-09 1.67249e-09
  129 -7.06807e-11 -3.08708e-10 2.01528e-10
  130 -7.06807e-11 -3.09488e-10 2.01838e-10
  131 -8.48413e-09 -2.77578e-09 -4.12098e-10
  132 -8.48686e-09 -2.77578e-09 -4.11456e-10
  133 -2.48656e-10 -1.81535e-09 5.93314e-10
  134 -2.52294e-10 -1.81626e-09 5.89834e-10
  135 -4.85670e-11 -9.81163e-10 2.52591e-10
  136 -4.49290e-11 -9.78434e-10 2.54005e-10
  137 1.12855e-09 2.01388e-10 -2.81991e-10
  138 1.12959e-09 2.01518e-10 -2.81484e-10
  139 -2.20249e-10 3.26205e-10 4.38255e-11
  140 -2.20098e-10 3.26660e-10 4.38337e-11
  141 -5.49107e-11 1.68370e-10 5.85978e-12
  142 -5.61613e-11 1.68029e-10 5.93837e-12
  143 -5.73133e-10 -1.18537e-10 4.91173e-10
  144 -5.71769e-10 -1.18537e-10 4.90990e-10
  145 -5.43120e-10 -6.08907e-10 8.24495e-10
  146 -3.57821e-10 -4.40585e-10 5.26178e-10
  147 -1.04319e-09 -1.52795e-10 8.63979e-10
  148 -5.42059e-10 -6.08907e-10 8.24650e-10
  149 -3.56652e-10 -4.40715e-10 5.26498e-10
  150 -1.04440e-09 -1.53401e-10 8.64315e-10
  151 -5.62432e-10 6.87032e-10 -1.55828e-10
  152 -5.62250e-10 6.88306e-10 -1.55948e-10
  153 -7.29824e-09 -4.36269e-09 -1.89309e-09
  154 -7.30067e-09 -4.36300e-09 -1.89603e-09
  155 -8.76389e-09 -5.04097e-09 -2.37079e-09
  156 -4.47108e-09 -1.78521e-10 -5.19982e-10
  157 -8.76626e-09 -5.04224e-09 -2.37108e-09
  158 -4.47004e-09 -1.79300e-10 -5.19552e-10
  159 -8.58260e-10 1.05047e-10 8.56046e-11
  160 -8.58411e-10 1.05047e-10 8.57297e-11
  161 -1.72486e-09 -3.98813e-10 1.15282e-09
  162 -1.72319e-09 -3.98510e-10 1.15205e-09
  163 8.92214e-10 1.12019e-10 -5.43612e-11
  164 8.90850e-10 1.11868e-10 -5.45422e-11
  165 -8.59321e-10 1.39153e-10 1.89289e-10
  166 -8.59018e-10 1.39304e-10 1.89171e-10
  167 2.71727e-09 -7.80953e-10 -8.79913e-11
  168 2.43544e-09 2.36287e-10 -8.50114e-10
  169 2.71954e-09 -7.79589e-10 -8.75436e-11
  170 2.43490e-09 2.34650e-10 -8.49859e-10
  171 -2.83399e-10 -1.90103e-09 -5.11815e-10
  172 -2.82307e-10 -1.89993e-09 -5.11079e-10
  173 -6.04662e-10 2.67695e-10 2.63484e-10
  174 -6.04814e-10 2.67543e-10 2.63169e-10
  175 -3.77258e-10 -1.02791e-09 8.58571e-10
  176 -3.77986e-10 -1.02700e-09 8.58332e-10
  177 -1.41426e-09 -1.34401e-09 1.53984e-09
  178 -1.41722e-09 -1.34423e-09 1.54088e-09
  179 1.87538e-10 4.36557e-10 -1.42068e-10
  180 1.86628e-10 4.36921e-10 -1.42725e-10
</Section>

