newXOutput 1

<Section columns = "stress_xx | stress_yy | stress_xy">
  1 0.00000 0.00000 0.00000
  2 0.00000 0.00000 0.00000
  3 0.00000 0.00000 0.00000
  4 0.00000 0.00000 0.00000
</Section>

newXOutput 2

<Section columns = "stress_xx | stress_yy | stress_xy">
  1 76.9738 -1.40728e-07 -9.73783e-17
  2 76.9738 -1.40728e-07 -9.73783e-17
  3 76.9738 -1.40728e-07 -1.43791e-16
  4 76.9738 -1.40728e-07 -1.43791e-16
</Section>

newXOutput 3

<Section columns = "stress_xx | stress_yy | stress_xy">
  1 152.621 -1.38782e-07 7.12021e-16
  2 152.621 -1.38782e-07 7.12021e-16
  3 152.621 -1.38782e-07 1.35445e-15
  4 152.621 -1.38782e-07 1.35445e-15
</Section>

newXOutput 4

<Section columns = "stress_xx | stress_yy | stress_xy">
  1 226.970 -1.36876e-07 1.02723e-15
  2 226.970 -1.36876e-07 1.02723e-15
  3 226.970 -1.36876e-07 2.11611e-15
  4 226.970 -1.36876e-07 2.11611e-15
</Section>

newXOutput 5

<Section columns = "stress_xx | stress_yy | stress_xy">
  1 300.049 -1.35011e-07 1.01570e-15
  2 300.049 -1.35011e-07 1.01570e-15
  3 300.049 -1.35011e-07 2.09237e-15
  4 300.049 -1.35011e-07 2.09237e-15
</Section>

newXOutput 6

<Section columns = "stress_xx | stress_yy | stress_xy">
  1 371.886 -1.33178e-07 7.44568e-16
  2 371.886 -1.33178e-07 7.44568e-16
  3 371.886 -1.33178e-07 1.09945e-15
  4 371.886 -1.33178e-07 1.09945e-15
</Section>

newXOutput 7

<Section columns = "stress_xx | stress_yy | stress_xy">
  1 442.508 -1.31383e-07 7.53499e-16
  2 442.508 -1.31383e-07 7.53499e-16
  3 442.508 -1.31383e-07 1.98177e-15
  4 442.508 -1.31383e-07 1.98177e-15
</Section>

newXOutput 8

<Section columns = "stress_xx | stress_yy | stress_xy">
  1 511.940 -1.29619e-07 1.23626e-15
  2 511.940 -1.29619e-07 1.23626e-15
  3 511.940 -1.29619e-07 2.97152e-15
  4 511.940 -1.29619e-07 2.97152e-15
</Section>

newXOutput 9

<Section columns = "stress_xx | stress_yy | stress_xy">
  1 580.207 -1.27890e-07 1.22264e-15
  2 580.207 -1.27890e-07 1.22264e-15
  3 580.207 -1.27890e-07 2.93878e-15
  4 580.207 -1.27890e-07 2.93878e-15
</Section>

newXOutput 10

<Section columns = "stress_xx | stress_yy | stress_xy">
  1 647.335 -1.26198e-07 1.92145e-15
  2 647.335 -1.26198e-07 1.92145e-15
  3 647.335 -1.26198e-07 3.95824e-15
  4 647.335 -1.26198e-07 3.95824e-15
</Section>

newXOutput 11

<Section columns = "stress_xx | stress_yy | stress_xy">
  1 713.348 -1.24537e-07 1.90048e-15
  2 713.348 -1.24537e-07 1.90048e-15
  3 713.348 -1.24537e-07 3.91502e-15
  4 713.348 -1.24537e-07 3.91502e-15
</Section>

newXOutput 12

<Section columns = "stress_xx | stress_yy | stress_xy">
  1 778.268 -1.22905e-07 9.39909e-16
  2 778.268 -1.22905e-07 9.39909e-16
  3 778.268 -1.22905e-07 1.93624e-15
  4 778.268 -1.22905e-07 1.93624e-15
</Section>

newXOutput 13

<Section columns = "stress_xx | stress_yy | stress_xy">
  1 842.119 -1.21306e-07 9.29739e-16
  2 842.119 -1.21306e-07 9.29739e-16
  3 842.119 -1.21306e-07 1.91528e-15
  4 842.119 -1.21306e-07 1.91528e-15
</Section>

newXOutput 14

<Section columns = "stress_xx | stress_yy | stress_xy">
  1 904.923 -1.19732e-07 9.19723e-16
  2 904.923 -1.19732e-07 9.19723e-16
  3 904.923 -1.19732e-07 1.89465e-15
  4 904.923 -1.19732e-07 1.89465e-15
</Section>

newXOutput 15

<Section columns = "stress_xx | stress_yy | stress_xy">
  1 966.702 -1.18195e-07 9.09858e-16
  2 966.702 -1.18195e-07 9.09858e-16
  3 966.702 -1.18195e-07 1.87433e-15
  4 966.702 -1.18195e-07 1.87433e-15
</Section>

newXOutput 16

<Section columns = "stress_xx | stress_yy | stress_xy">
  1 1027.48 -1.16681e-07 1.36581e-15
  2 1027.48 -1.16681e-07 1.36581e-15
  3 1027.48 -1.16681e-07 3.59221e-15
  4 1027.48 -1.16681e-07 3.59221e-15
</Section>

newXOutput 17

<Section columns = "stress_xx | stress_yy | stress_xy">
  1 1087.27 -1.15198e-07 1.78114e-15
  2 1087.27 -1.15198e-07 1.78114e-15
  3 1087.27 -1.15198e-07 3.66920e-15
  4 1087.27 -1.15198e-07 3.66920e-15
</Section>

newXOutput 18

<Section columns = "stress_xx | stress_yy | stress_xy">
  1 1146.09 -1.13739e-07 1.30645e-15
  2 1146.09 -1.13739e-07 1.30645e-15
  3 1146.09 -1.13739e-07 1.92914e-15
  4 1146.09 -1.13739e-07 1.92914e-15
</Section>

newXOutput 19

<Section columns = "stress_xx | stress_yy | stress_xy">
  1 1203.98 -1.12306e-07 1.74371e-15
  2 1203.98 -1.12306e-07 1.74371e-15
  3 1203.98 -1.12306e-07 3.59209e-15
  4 1203.98 -1.12306e-07 3.59209e-15
</Section>

newXOutput 20

<Section columns = "stress_xx | stress_yy | stress_xy">
  1 1260.94 -1.10899e-07 0.00000
  2 1260.94 -1.10899e-07 0.00000
  3 1260.94 -1.10899e-07 0.00000
  4 1260.94 -1.10899e-07 0.00000
</Section>

newXOutput 21

<Section columns = "stress_xx | stress_yy | stress_xy">
  1 1316.99 -1.09520e-07 0.00000
  2 1316.99 -1.09520e-07 0.00000
  3 1316.99 -1.09520e-07 0.00000
  4 1316.99 -1.09520e-07 0.00000
</Section>

newXOutput 22

<Section columns = "stress_xx | stress_yy | stress_xy">
  1 1372.15 -1.08165e-07 0.00000
  2 1372.15 -1.08165e-07 0.00000
  3 1372.15 -1.08165e-07 0.00000
  4 1372.15 -1.08165e-07 0.00000
</Section>

newXOutput 23

<Section columns = "stress_xx | stress_yy | stress_xy">
  1 1426.45 -1.06836e-07 0.00000
  2 1426.45 -1.06836e-07 0.00000
  3 1426.45 -1.06836e-07 0.00000
  4 1426.45 -1.06836e-07 0.00000
</Section>

newXOutput 24

<Section columns = "stress_xx | stress_yy | stress_xy">
  1 1479.89 -1.05524e-07 0.00000
  2 1479.89 -1.05524e-07 0.00000
  3 1479.89 -1.05524e-07 0.00000
  4 1479.89 -1.05524e-07 0.00000
</Section>

newXOutput 25

<Section columns = "stress_xx | stress_yy | stress_xy">
  1 1532.50 -1.04241e-07 0.00000
  2 1532.50 -1.04241e-07 0.00000
  3 1532.50 -1.04241e-07 0.00000
  4 1532.50 -1.04241e-07 0.00000
</Section>

newXOutput 26

<Section columns = "stress_xx | stress_yy | stress_xy">
  1 1584.28 -1.02980e-07 0.00000
  2 1584.28 -1.02980e-07 0.00000
  3 1584.28 -1.02980e-07 0.00000
  4 1584.28 -1.02980e-07 0.00000
</Section>

newXOutput 27

<Section columns = "stress_xx | stress_yy | stress_xy">
  1 1635.27 -1.01742e-07 0.00000
  2 1635.27 -1.01742e-07 0.00000
  3 1635.27 -1.01742e-07 0.00000
  4 1635.27 -1.01742e-07 0.00000
</Section>

newXOutput 28

<Section columns = "stress_xx | stress_yy | stress_xy">
  1 1685.46 -1.00522e-07 0.00000
  2 1685.46 -1.00522e-07 0.00000
  3 1685.46 -1.00522e-07 0.00000
  4 1685.46 -1.00522e-07 0.00000
</Section>

newXOutput 29

<Section columns = "stress_xx | stress_yy | stress_xy">
  1 1734.89 -9.93268e-08 0.00000
  2 1734.89 -9.93268e-08 0.00000
  3 1734.89 -9.93268e-08 0.00000
  4 1734.89 -9.93268e-08 0.00000
</Section>

newXOutput 30

<Section columns = "stress_xx | stress_yy | stress_xy">
  1 1783.55 -9.81518e-08 0.00000
  2 1783.55 -9.81518e-08 0.00000
  3 1783.55 -9.81518e-08 0.00000
  4 1783.55 -9.81518e-08 0.00000
</Section>

newXOutput 31

<Section columns = "stress_xx | stress_yy | stress_xy">
  1 1831.48 -9.69958e-08 0.00000
  2 1831.48 -9.69958e-08 0.00000
  3 1831.48 -9.69958e-08 0.00000
  4 1831.48 -9.69958e-08 0.00000
</Section>

newXOutput 32

<Section columns = "stress_xx | stress_yy | stress_xy">
  1 1878.67 -9.58626e-08 0.00000
  2 1878.67 -9.58626e-08 0.00000
  3 1878.67 -9.58626e-08 0.00000
  4 1878.67 -9.58626e-08 0.00000
</Section>

newXOutput 33

<Section columns = "stress_xx | stress_yy | stress_xy">
  1 1925.15 -9.47421e-08 0.00000
  2 1925.15 -9.47421e-08 0.00000
  3 1925.15 -9.47421e-08 0.00000
  4 1925.15 -9.47421e-08 0.00000
</Section>

newXOutput 34

<Section columns = "stress_xx | stress_yy | stress_xy">
  1 1970.93 -9.36452e-08 0.00000
  2 1970.93 -9.36452e-08 0.00000
  3 1970.93 -9.36452e-08 0.00000
  4 1970.93 -9.36452e-08 0.00000
</Section>

newXOutput 35

<Section columns = "stress_xx | stress_yy | stress_xy">
  1 2016.03 -9.25647e-08 0.00000
  2 2016.03 -9.25647e-08 0.00000
  3 2016.03 -9.25647e-08 0.00000
  4 2016.03 -9.25647e-08 0.00000
</Section>

newXOutput 36

<Section columns = "stress_xx | stress_yy | stress_xy">
  1 2060.45 -9.15034e-08 0.00000
  2 2060.45 -9.15034e-08 0.00000
  3 2060.45 -9.15034e-08 0.00000
  4 2060.45 -9.15034e-08 0.00000
</Section>

newXOutput 37

<Section columns = "stress_xx | stress_yy | stress_xy">
  1 2104.20 -9.04611e-08 0.00000
  2 2104.20 -9.04611e-08 0.00000
  3 2104.20 -9.04611e-08 0.00000
  4 2104.20 -9.04611e-08 0.00000
</Section>

newXOutput 38

<Section columns = "stress_xx | stress_yy | stress_xy">
  1 2123.26 -8.84309e-08 0.00000
  2 2123.26 -8.84309e-08 0.00000
  3 2123.26 -8.84309e-08 0.00000
  4 2123.26 -8.84309e-08 0.00000
</Section>

newXOutput 39

<Section columns = "stress_xx | stress_yy | stress_xy">
  1 2099.00 -8.47572e-08 0.00000
  2 2099.00 -8.47572e-08 0.00000
  3 2099.00 -8.47572e-08 0.00000
  4 2099.00 -8.47572e-08 0.00000
</Section>

newXOutput 40

<Section columns = "stress_xx | stress_yy | stress_xy">
  1 2075.08 -8.12989e-08 0.00000
  2 2075.08 -8.12989e-08 0.00000
  3 2075.08 -8.12989e-08 0.00000
  4 2075.08 -8.12989e-08 0.00000
</Section>

newXOutput 41

<Section columns = "stress_xx | stress_yy | stress_xy">
  1 2051.48 -7.80330e-08 0.00000
  2 2051.48 -7.80330e-08 0.00000
  3 2051.48 -7.80330e-08 0.00000
  4 2051.48 -7.80330e-08 0.00000
</Section>

newXOutput 42

<Section columns = "stress_xx | stress_yy | stress_xy">
  1 2028.20 -7.49549e-08 0.00000
  2 2028.20 -7.49549e-08 0.00000
  3 2028.20 -7.49549e-08 0.00000
  4 2028.20 -7.49549e-08 0.00000
</Section>

newXOutput 43

<Section columns = "stress_xx | stress_yy | stress_xy">
  1 2005.25 -7.20376e-08 0.00000
  2 2005.25 -7.20376e-08 0.00000
  3 2005.25 -7.20376e-08 0.00000
  4 2005.25 -7.20376e-08 0.00000
</Section>

newXOutput 44

<Section columns = "stress_xx | stress_yy | stress_xy">
  1 1982.61 -6.92781e-08 0.00000
  2 1982.61 -6.92781e-08 0.00000
  3 1982.61 -6.92781e-08 0.00000
  4 1982.61 -6.92781e-08 0.00000
</Section>

newXOutput 45

<Section columns = "stress_xx | stress_yy | stress_xy">
  1 1960.27 -6.66639e-08 0.00000
  2 1960.27 -6.66639e-08 0.00000
  3 1960.27 -6.66639e-08 0.00000
  4 1960.27 -6.66639e-08 0.00000
</Section>

newXOutput 46

<Section columns = "stress_xx | stress_yy | stress_xy">
  1 1938.23 -6.41853e-08 0.00000
  2 1938.23 -6.41853e-08 0.00000
  3 1938.23 -6.41853e-08 0.00000
  4 1938.23 -6.41853e-08 0.00000
</Section>

newXOutput 47

<Section columns = "stress_xx | stress_yy | stress_xy">
  1 1916.50 -6.18338e-08 0.00000
  2 1916.50 -6.18338e-08 0.00000
  3 1916.50 -6.18338e-08 0.00000
  4 1916.50 -6.18338e-08 0.00000
</Section>

newXOutput 48

<Section columns = "stress_xx | stress_yy | stress_xy">
  1 1895.05 -5.95984e-08 0.00000
  2 1895.05 -5.95984e-08 0.00000
  3 1895.05 -5.95984e-08 0.00000
  4 1895.05 -5.95984e-08 0.00000
</Section>

newXOutput 49

<Section columns = "stress_xx | stress_yy | stress_xy">
  1 1873.88 -5.74718e-08 0.00000
  2 1873.88 -5.74718e-08 0.00000
  3 1873.88 -5.74718e-08 0.00000
  4 1873.88 -5.74718e-08 0.00000
</Section>

newXOutput 50

<Section columns = "stress_xx | stress_yy | stress_xy">
  1 1853.00 -5.54484e-08 0.00000
  2 1853.00 -5.54484e-08 0.00000
  3 1853.00 -5.54484e-08 0.00000
  4 1853.00 -5.54484e-08 0.00000
</Section>

newXOutput 51

<Section columns = "stress_xx | stress_yy | stress_xy">
  1 1832.40 -5.35206e-08 0.00000
  2 1832.40 -5.35206e-08 0.00000
  3 1832.40 -5.35206e-08 0.00000
  4 1832.40 -5.35206e-08 0.00000
</Section>

newXOutput 52

<Section columns = "stress_xx | stress_yy | stress_xy">
  1 1812.06 -5.16826e-08 0.00000
  2 1812.06 -5.16826e-08 0.00000
  3 1812.06 -5.16826e-08 0.00000
  4 1812.06 -5.16826e-08 0.00000
</Section>

newXOutput 53

<Section columns = "stress_xx | stress_yy | stress_xy">
  1 1791.99 -4.99292e-08 0.00000
  2 1791.99 -4.99292e-08 0.00000
  3 1791.99 -4.99292e-08 0.00000
  4 1791.99 -4.99292e-08 0.00000
</Section>

newXOutput 54

<Section columns = "stress_xx | stress_yy | stress_xy">
  1 1772.19 -4.82554e-08 0.00000
  2 1772.19 -4.82554e-08 0.00000
  3 1772.19 -4.82554e-08 0.00000
  4 1772.19 -4.82554e-08 0.00000
</Section>

newXOutput 55

<Section columns = "stress_xx | stress_yy | stress_xy">
  1 1752.64 -4.66571e-08 0.00000
  2 1752.64 -4.66571e-08 0.00000
  3 1752.64 -4.66571e-08 0.00000
  4 1752.64 -4.66571e-08 0.00000
</Section>

newXOutput 56

<Section columns = "stress_xx | stress_yy | stress_xy">
  1 1733.34 -4.51286e-08 0.00000
  2 1733.34 -4.51286e-08 0.00000
  3 1733.34 -4.51286e-08 0.00000
  4 1733.34 -4.51286e-08 0.00000
</Section>

newXOutput 57

<Section columns = "stress_xx | stress_yy | stress_xy">
  1 1714.30 -4.36654e-08 0.00000
  2 1714.30 -4.36654e-08 0.00000
  3 1714.30 -4.36654e-08 0.00000
  4 1714.30 -4.36654e-08 0.00000
</Section>

newXOutput 58

<Section columns = "stress_xx | stress_yy | stress_xy">
  1 1695.49 -4.22662e-08 -3.90825e-14
  2 1695.49 -4.22665e-08 -3.90825e-14
  3 1695.49 -4.22662e-08 -7.80931e-14
  4 1695.49 -4.22665e-08 -7.80931e-14
</Section>

newXOutput 59

<Section columns = "stress_xx | stress_yy | stress_xy">
  1 1676.93 -4.09257e-08 -4.06451e-15
  2 1676.93 -4.09257e-08 -4.06451e-15
  3 1676.93 -4.09257e-08 -8.37299e-15
  4 1676.93 -4.09257e-08 -8.37299e-15
</Section>

newXOutput 60

<Section columns = "stress_xx | stress_yy | stress_xy">
  1 1658.61 -3.96400e-08 -1.31387e-15
  2 1658.61 -3.96400e-08 -1.31387e-15
  3 1658.61 -3.96400e-08 -2.70659e-15
  4 1658.61 -3.96400e-08 -2.70659e-15
</Section>

newXOutput 61

<Section columns = "stress_xx | stress_yy | stress_xy">
  1 1640.52 -3.84099e-08 -1.27453e-15
  2 1640.52 -3.84099e-08 -1.27453e-15
  3 1640.52 -3.84099e-08 -2.62556e-15
  4 1640.52 -3.84099e-08 -2.62556e-15
</Section>

newXOutput 62

<Section columns = "stress_xx | stress_yy | stress_xy">
  1 1622.65 -3.72259e-08 -1.83368e-15
  2 1622.65 -3.72259e-08 -1.83368e-15
  3 1622.65 -3.72259e-08 -2.70766e-15
  4 1622.65 -3.72259e-08 -2.70766e-15
</Section>

newXOutput 63

<Section columns = "stress_xx | stress_yy | stress_xy">
  1 1605.01 -3.60917e-08 -1.20042e-15
  2 1605.01 -3.60917e-08 -1.20042e-15
  3 1605.01 -3.60917e-08 -2.47288e-15
  4 1605.01 -3.60917e-08 -2.47288e-15
</Section>

newXOutput 64

<Section columns = "stress_xx | stress_yy | stress_xy">
  1 1587.60 -3.50029e-08 -1.16549e-15
  2 1587.60 -3.50029e-08 -1.16549e-15
  3 1587.60 -3.50029e-08 -2.40093e-15
  4 1587.60 -3.50029e-08 -2.40093e-15
</Section>

newXOutput 65

<Section columns = "stress_xx | stress_yy | stress_xy">
  1 1570.40 -3.39562e-08 -1.13189e-15
  2 1570.40 -3.39562e-08 -1.13189e-15
  3 1570.40 -3.39562e-08 -2.33171e-15
  4 1570.40 -3.39562e-08 -2.33171e-15
</Section>

newXOutput 66

<Section columns = "stress_xx | stress_yy | stress_xy">
  1 1553.41 -3.29516e-08 -2.19908e-15
  2 1553.41 -3.29516e-08 -2.19908e-15
  3 1553.41 -3.29516e-08 -4.53017e-15
  4 1553.41 -3.29516e-08 -4.53017e-15
</Section>

newXOutput 67

<Section columns = "stress_xx | stress_yy | stress_xy">
  1 1536.64 -3.19820e-08 0.00000
  2 1536.64 -3.19820e-08 0.00000
  3 1536.64 -3.19820e-08 0.00000
  4 1536.64 -3.19820e-08 0.00000
</Section>

newXOutput 68

<Section columns = "stress_xx | stress_yy | stress_xy">
  1 1520.07 -3.10525e-08 0.00000
  2 1520.07 -3.10525e-08 0.00000
  3 1520.07 -3.10525e-08 0.00000
  4 1520.07 -3.10525e-08 0.00000
</Section>

newXOutput 69

<Section columns = "stress_xx | stress_yy | stress_xy">
  1 1503.71 -3.01564e-08 0.00000
  2 1503.71 -3.01564e-08 0.00000
  3 1503.71 -3.01564e-08 0.00000
  4 1503.71 -3.01564e-08 0.00000
</Section>

newXOutput 70

<Section columns = "stress_xx | stress_yy | stress_xy">
  1 1487.54 -2.92936e-08 0.00000
  2 1487.54 -2.92936e-08 0.00000
  3 1487.54 -2.92936e-08 0.00000
  4 1487.54 -2.92936e-08 0.00000
</Section>

newXOutput 71

<Section columns = "stress_xx | stress_yy | stress_xy">
  1 1471.58 -2.84612e-08 0.00000
  2 1471.58 -2.84612e-08 0.00000
  3 1471.58 -2.84612e-08 0.00000
  4 1471.58 -2.84612e-08 0.00000
</Section>

newXOutput 72

<Section columns = "stress_xx | stress_yy | stress_xy">
  1 1455.81 -2.76616e-08 0.00000
  2 1455.81 -2.76616e-08 0.00000
  3 1455.81 -2.76616e-08 0.00000
  4 1455.81 -2.76616e-08 0.00000
</Section>

newXOutput 73

<Section columns = "stress_xx | stress_yy | stress_xy">
  1 1440.23 -2.68889e-08 0.00000
  2 1440.23 -2.68889e-08 0.00000
  3 1440.23 -2.68889e-08 0.00000
  4 1440.23 -2.68889e-08 0.00000
</Section>

newXOutput 74

<Section columns = "stress_xx | stress_yy | stress_xy">
  1 1424.83 -2.61455e-08 0.00000
  2 1424.83 -2.61455e-08 0.00000
  3 1424.83 -2.61455e-08 0.00000
  4 1424.83 -2.61455e-08 0.00000
</Section>

newXOutput 75

<Section columns = "stress_xx | stress_yy | stress_xy">
  1 1409.63 -2.54256e-08 0.00000
  2 1409.63 -2.54256e-08 0.00000
  3 1409.63 -2.54256e-08 0.00000
  4 1409.63 -2.54256e-08 0.00000
</Section>

newXOutput 76

<Section columns = "stress_xx | stress_yy | stress_xy">
  1 1394.60 -2.47334e-08 0.00000
  2 1394.60 -2.47334e-08 0.00000
  3 1394.60 -2.47334e-08 0.00000
  4 1394.60 -2.47334e-08 0.00000
</Section>

newXOutput 77

<Section columns = "stress_xx | stress_yy | stress_xy">
  1 1379.76 -2.40637e-08 0.00000
  2 1379.76 -2.40637e-08 0.00000
  3 1379.76 -2.40637e-08 0.00000
  4 1379.76 -2.40637e-08 0.00000
</Section>

newXOutput 78

<Section columns = "stress_xx | stress_yy | stress_xy">
  1 1365.09 -2.34174e-08 0.00000
  2 1365.09 -2.34174e-08 0.00000
  3 1365.09 -2.34174e-08 0.00000
  4 1365.09 -2.34174e-08 0.00000
</Section>

newXOutput 79

<Section columns = "stress_xx | stress_yy | stress_xy">
  1 1350.60 -2.27929e-08 0.00000
  2 1350.60 -2.27929e-08 0.00000
  3 1350.60 -2.27929e-08 0.00000
  4 1350.60 -2.27929e-08 0.00000
</Section>

newXOutput 80

<Section columns = "stress_xx | stress_yy | stress_xy">
  1 1336.27 -2.21878e-08 0.00000
  2 1336.27 -2.21878e-08 0.00000
  3 1336.27 -2.21878e-08 0.00000
  4 1336.27 -2.21878e-08 0.00000
</Section>

newXOutput 81

<Section columns = "stress_xx | stress_yy | stress_xy">
  1 1322.12 -2.16045e-08 0.00000
  2 1322.12 -2.16045e-08 0.00000
  3 1322.12 -2.16045e-08 0.00000
  4 1322.12 -2.16045e-08 0.00000
</Section>

newXOutput 82

<Section columns = "stress_xx | stress_yy | stress_xy">
  1 1308.13 -2.10407e-08 0.00000
  2 1308.13 -2.10407e-08 0.00000
  3 1308.13 -2.10407e-08 0.00000
  4 1308.13 -2.10407e-08 0.00000
</Section>

newXOutput 83

<Section columns = "stress_xx | stress_yy | stress_xy">
  1 1294.30 -2.04958e-08 0.00000
  2 1294.30 -2.04958e-08 0.00000
  3 1294.30 -2.04958e-08 0.00000
  4 1294.30 -2.04958e-08 0.00000
</Section>

newXOutput 84

<Section columns = "stress_xx | stress_yy | stress_xy">
  1 1280.64 -1.99672e-08 0.00000
  2 1280.64 -1.99672e-08 0.00000
  3 1280.64 -1.99672e-08 0.00000
  4 1280.64 -1.99672e-08 0.00000
</Section>

newXOutput 85

<Section columns = "stress_xx | stress_yy | stress_xy">
  1 1267.13 -1.94568e-08 0.00000
  2 1267.13 -1.94568e-08 0.00000
  3 1267.13 -1.94568e-08 0.00000
  4 1267.13 -1.94568e-08 0.00000
</Section>

newXOutput 86

<Section columns = "stress_xx | stress_yy | stress_xy">
  1 1253.78 -1.89609e-08 0.00000
  2 1253.78 -1.89609e-08 0.00000
  3 1253.78 -1.89609e-08 0.00000
  4 1253.78 -1.89609e-08 0.00000
</Section>

newXOutput 87

<Section columns = "stress_xx | stress_yy | stress_xy">
  1 1240.59 -1.84821e-08 0.00000
  2 1240.59 -1.84821e-08 0.00000
  3 1240.59 -1.84821e-08 0.00000
  4 1240.59 -1.84821e-08 0.00000
</Section>

newXOutput 88

<Section columns = "stress_xx | stress_yy | stress_xy">
  1 1227.54 -1.80176e-08 0.00000
  2 1227.54 -1.80176e-08 0.00000
  3 1227.54 -1.80176e-08 0.00000
  4 1227.54 -1.80176e-08 0.00000
</Section>

newXOutput 89

<Section columns = "stress_xx | stress_yy | stress_xy">
  1 1214.65 -1.75690e-08 0.00000
  2 1214.65 -1.75690e-08 0.00000
  3 1214.65 -1.75690e-08 0.00000
  4 1214.65 -1.75690e-08 0.00000
</Section>

newXOutput 90

<Section columns = "stress_xx | stress_yy | stress_xy">
  1 1201.90 -1.71325e-08 0.00000
  2 1201.90 -1.71325e-08 0.00000
  3 1201.90 -1.71325e-08 0.00000
  4 1201.90 -1.71325e-08 0.00000
</Section>

newXOutput 91

<Section columns = "stress_xx | stress_yy | stress_xy">
  1 1189.29 -1.67103e-08 0.00000
  2 1189.29 -1.67103e-08 0.00000
  3 1189.29 -1.67103e-08 0.00000
  4 1189.29 -1.67103e-08 0.00000
</Section>

newXOutput 92

<Section columns = "stress_xx | stress_yy | stress_xy">
  1 1176.83 -1.63004e-08 0.00000
  2 1176.83 -1.63004e-08 0.00000
  3 1176.83 -1.63004e-08 0.00000
  4 1176.83 -1.63004e-08 0.00000
</Section>

newXOutput 93

<Section columns = "stress_xx | stress_yy | stress_xy">
  1 1164.51 -1.59027e-08 0.00000
  2 1164.51 -1.59027e-08 0.00000
  3 1164.51 -1.59027e-08 0.00000
  4 1164.51 -1.59027e-08 0.00000
</Section>

newXOutput 94

<Section columns = "stress_xx | stress_yy | stress_xy">
  1 1152.33 -1.55175e-08 0.00000
  2 1152.33 -1.55175e-08 0.00000
  3 1152.33 -1.55175e-08 0.00000
  4 1152.33 -1.55175e-08 0.00000
</Section>

newXOutput 95

<Section columns = "stress_xx | stress_yy | stress_xy">
  1 1140.28 -1.51434e-08 0.00000
  2 1140.28 -1.51434e-08 0.00000
  3 1140.28 -1.51434e-08 0.00000
  4 1140.28 -1.51434e-08 0.00000
</Section>

newXOutput 96

<Section columns = "stress_xx | stress_yy | stress_xy">
  1 1128.37 -1.47816e-08 0.00000
  2 1128.37 -1.47816e-08 0.00000
  3 1128.37 -1.47816e-08 0.00000
  4 1128.37 -1.47816e-08 0.00000
</Section>

newXOutput 97

<Section columns = "stress_xx | stress_yy | stress_xy">
  1 1116.59 -1.44288e-08 0.00000
  2 1116.59 -1.44288e-08 0.00000
  3 1116.59 -1.44288e-08 0.00000
  4 1116.59 -1.44288e-08 0.00000
</Section>

newXOutput 98

<Section columns = "stress_xx | stress_yy | stress_xy">
  1 1104.94 -1.40867e-08 0.00000
  2 1104.94 -1.40867e-08 0.00000
  3 1104.94 -1.40867e-08 0.00000
  4 1104.94 -1.40867e-08 0.00000
</Section>

newXOutput 99

<Section columns = "stress_xx | stress_yy | stress_xy">
  1 1093.42 -1.37534e-08 0.00000
  2 1093.42 -1.37534e-08 0.00000
  3 1093.42 -1.37534e-08 0.00000
  4 1093.42 -1.37534e-08 0.00000
</Section>

newXOutput 100

<Section columns = "stress_xx | stress_yy | stress_xy">
  1 1082.03 -1.34313e-08 0.00000
  2 1082.03 -1.34313e-08 0.00000
  3 1082.03 -1.34313e-08 0.00000
  4 1082.03 -1.34313e-08 0.00000
</Section>

newXOutput 101

<Section columns = "stress_xx | stress_yy | stress_xy">
  1 1070.76 -1.31190e-08 0.00000
  2 1070.76 -1.31190e-08 0.00000
  3 1070.76 -1.31190e-08 0.00000
  4 1070.76 -1.31190e-08 0.00000
</Section>

newXOutput 102

<Section columns = "stress_xx | stress_yy | stress_xy">
  1 1059.62 -1.28130e-08 0.00000
  2 1059.62 -1.28130e-08 0.00000
  3 1059.62 -1.28130e-08 0.00000
  4 1059.62 -1.28130e-08 0.00000
</Section>

newXOutput 103

<Section columns = "stress_xx | stress_yy | stress_xy">
  1 1048.59 -1.25169e-08 0.00000
  2 1048.59 -1.25169e-08 0.00000
  3 1048.59 -1.25169e-08 0.00000
  4 1048.59 -1.25169e-08 0.00000
</Section>

newXOutput 104

<Section columns = "stress_xx | stress_yy | stress_xy">
  1 1037.69 -1.22296e-08 0.00000
  2 1037.69 -1.22296e-08 0.00000
  3 1037.69 -1.22296e-08 0.00000
  4 1037.69 -1.22296e-08 0.00000
</Section>

newXOutput 105

<Section columns = "stress_xx | stress_yy | stress_xy">
  1 1026.90 -1.19486e-08 0.00000
  2 1026.90 -1.19486e-08 0.00000
  3 1026.90 -1.19486e-08 0.00000
  4 1026.90 -1.19486e-08 0.00000
</Section>

newXOutput 106

<Section columns = "stress_xx | stress_yy | stress_xy">
  1 1016.23 -1.16777e-08 0.00000
  2 1016.23 -1.16777e-08 0.00000
  3 1016.23 -1.16777e-08 0.00000
  4 1016.23 -1.16777e-08 0.00000
</Section>

newXOutput 107

<Section columns = "stress_xx | stress_yy | stress_xy">
  1 1005.68 -1.14128e-08 0.00000
  2 1005.68 -1.14128e-08 0.00000
  3 1005.68 -1.14128e-08 0.00000
  4 1005.68 -1.14128e-08 0.00000
</Section>

newXOutput 108

<Section columns = "stress_xx | stress_yy | stress_xy">
  1 995.232 -1.11553e-08 0.00000
  2 995.232 -1.11553e-08 0.00000
  3 995.232 -1.11553e-08 0.00000
  4 995.232 -1.11553e-08 0.00000
</Section>

newXOutput 109

<Section columns = "stress_xx | stress_yy | stress_xy">
  1 984.901 -1.09048e-08 0.00000
  2 984.901 -1.09048e-08 0.00000
  3 984.901 -1.09048e-08 0.00000
  4 984.901 -1.09048e-08 0.00000
</Section>

newXOutput 110

<Section columns = "stress_xx | stress_yy | stress_xy">
  1 974.680 -1.06611e-08 0.00000
  2 974.680 -1.06611e-08 0.00000
  3 974.680 -1.06611e-08 0.00000
  4 974.680 -1.06611e-08 0.00000
</Section>

newXOutput 111

<Section columns = "stress_xx | stress_yy | stress_xy">
  1 964.567 -1.04240e-08 0.00000
  2 964.567 -1.04240e-08 0.00000
  3 964.567 -1.04240e-08 0.00000
  4 964.567 -1.04240e-08 0.00000
</Section>

newXOutput 112

<Section columns = "stress_xx | stress_yy | stress_xy">
  1 954.561 -1.01930e-08 0.00000
  2 954.561 -1.01930e-08 0.00000
  3 954.561 -1.01930e-08 0.00000
  4 954.561 -1.01930e-08 0.00000
</Section>

newXOutput 113

<Section columns = "stress_xx | stress_yy | stress_xy">
  1 944.660 -9.96790e-09 0.00000
  2 944.660 -9.96790e-09 0.00000
  3 944.660 -9.96790e-09 0.00000
  4 944.660 -9.96790e-09 0.00000
</Section>

newXOutput 114

<Section columns = "stress_xx | stress_yy | stress_xy">
  1 934.863 -9.74856e-09 0.00000
  2 934.863 -9.74856e-09 0.00000
  3 934.863 -9.74856e-09 0.00000
  4 934.863 -9.74856e-09 0.00000
</Section>

newXOutput 115

<Section columns = "stress_xx | stress_yy | stress_xy">
  1 925.169 -9.53561e-09 0.00000
  2 925.169 -9.53561e-09 0.00000
  3 925.169 -9.53561e-09 0.00000
  4 925.169 -9.53561e-09 0.00000
</Section>

newXOutput 116

<Section columns = "stress_xx | stress_yy | stress_xy">
  1 915.576 -9.32746e-09 0.00000
  2 915.576 -9.32746e-09 0.00000
  3 915.576 -9.32746e-09 0.00000
  4 915.576 -9.32746e-09 0.00000
</Section>

newXOutput 117

<Section columns = "stress_xx | stress_yy | stress_xy">
  1 906.082 -9.12516e-09 0.00000
  2 906.082 -9.12516e-09 0.00000
  3 906.082 -9.12516e-09 0.00000
  4 906.082 -9.12516e-09 0.00000
</Section>

newXOutput 118

<Section columns = "stress_xx | stress_yy | stress_xy">
  1 896.687 -8.92815e-09 0.00000
  2 896.687 -8.92815e-09 0.00000
  3 896.687 -8.92815e-09 0.00000
  4 896.687 -8.92815e-09 0.00000
</Section>

newXOutput 119

<Section columns = "stress_xx | stress_yy | stress_xy">
  1 887.389 -8.73494e-09 0.00000
  2 887.389 -8.73494e-09 0.00000
  3 887.389 -8.73494e-09 0.00000
  4 887.389 -8.73494e-09 0.00000
</Section>

newXOutput 120

<Section columns = "stress_xx | stress_yy | stress_xy">
  1 878.186 -8.54807e-09 0.00000
  2 878.186 -8.54807e-09 0.00000
  3 878.186 -8.54807e-09 0.00000
  4 878.186 -8.54807e-09 0.00000
</Section>

newXOutput 121

<Section columns = "stress_xx | stress_yy | stress_xy">
  1 869.078 -8.36494e-09 0.00000
  2 869.078 -8.36494e-09 0.00000
  3 869.078 -8.36494e-09 0.00000
  4 869.078 -8.36494e-09 0.00000
</Section>

newXOutput 122

<Section columns = "stress_xx | stress_yy | stress_xy">
  1 860.064 -8.18690e-09 0.00000
  2 860.064 -8.18690e-09 0.00000
  3 860.064 -8.18690e-09 0.00000
  4 860.064 -8.18690e-09 0.00000
</Section>

newXOutput 123

<Section columns = "stress_xx | stress_yy | stress_xy">
  1 851.141 -8.01328e-09 0.00000
  2 851.141 -8.01328e-09 0.00000
  3 851.141 -8.01328e-09 0.00000
  4 851.141 -8.01328e-09 0.00000
</Section>

newXOutput 124

<Section columns = "stress_xx | stress_yy | stress_xy">
  1 842.308 -7.84431e-09 0.00000
  2 842.308 -7.84431e-09 0.00000
  3 842.308 -7.84431e-09 0.00000
  4 842.308 -7.84431e-09 0.00000
</Section>

newXOutput 125

<Section columns = "stress_xx | stress_yy | stress_xy">
  1 833.565 -7.67897e-09 0.00000
  2 833.565 -7.67897e-09 0.00000
  3 833.565 -7.67897e-09 0.00000
  4 833.565 -7.67897e-09 0.00000
</Section>

newXOutput 126

<Section columns = "stress_xx | stress_yy | stress_xy">
  1 824.911 -7.51839e-09 0.00000
  2 824.911 -7.51839e-09 0.00000
  3 824.911 -7.51839e-09 0.00000
  4 824.911 -7.51839e-09 0.00000
</Section>

newXOutput 127

<Section columns = "stress_xx | stress_yy | stress_xy">
  1 816.343 -7.36056e-09 0.00000
  2 816.343 -7.36056e-09 0.00000
  3 816.343 -7.36056e-09 0.00000
  4 816.343 -7.36056e-09 0.00000
</Section>

newXOutput 128

<Section columns = "stress_xx | stress_yy | stress_xy">
  1 807.862 -7.20759e-09 0.00000
  2 807.862 -7.20759e-09 0.00000
  3 807.862 -7.20759e-09 0.00000
  4 807.862 -7.20759e-09 0.00000
</Section>

newXOutput 129

<Section columns = "stress_xx | stress_yy | stress_xy">
  1 799.465 -7.05736e-09 0.00000
  2 799.465 -7.05736e-09 0.00000
  3 799.465 -7.05736e-09 0.00000
  4 799.465 -7.05736e-09 0.00000
</Section>

newXOutput 130

<Section columns = "stress_xx | stress_yy | stress_xy">
  1 791.152 -6.91144e-09 0.00000
  2 791.152 -6.91144e-09 0.00000
  3 791.152 -6.91144e-09 0.00000
  4 791.152 -6.91144e-09 0.00000
</Section>

newXOutput 131

<Section columns = "stress_xx | stress_yy | stress_xy">
  1 782.922 -6.76889e-09 0.00000
  2 782.922 -6.76889e-09 0.00000
  3 782.922 -6.76889e-09 0.00000
  4 782.922 -6.76889e-09 0.00000
</Section>

newXOutput 132

<Section columns = "stress_xx | stress_yy | stress_xy">
  1 774.773 -6.62933e-09 0.00000
  2 774.773 -6.62933e-09 0.00000
  3 774.773 -6.62933e-09 0.00000
  4 774.773 -6.62933e-09 0.00000
</Section>

newXOutput 133

<Section columns = "stress_xx | stress_yy | stress_xy">
  1 766.705 -6.49345e-09 0.00000
  2 766.705 -6.49345e-09 0.00000
  3 766.705 -6.49345e-09 0.00000
  4 766.705 -6.49345e-09 0.00000
</Section>

newXOutput 134

<Section columns = "stress_xx | stress_yy | stress_xy">
  1 758.716 -6.36038e-09 0.00000
  2 758.716 -6.36038e-09 0.00000
  3 758.716 -6.36038e-09 0.00000
  4 758.716 -6.36038e-09 0.00000
</Section>

newXOutput 135

<Section columns = "stress_xx | stress_yy | stress_xy">
  1 750.806 -6.23052e-09 0.00000
  2 750.806 -6.23052e-09 0.00000
  3 750.806 -6.23052e-09 0.00000
  4 750.806 -6.23052e-09 0.00000
</Section>

newXOutput 136

<Section columns = "stress_xx | stress_yy | stress_xy">
  1 742.973 -6.10452e-09 0.00000
  2 742.973 -6.10452e-09 0.00000
  3 742.973 -6.10452e-09 0.00000
  4 742.973 -6.10452e-09 0.00000
</Section>

newXOutput 137

<Section columns = "stress_xx | stress_yy | stress_xy">
  1 735.216 -5.98066e-09 0.00000
  2 735.216 -5.98066e-09 0.00000
  3 735.216 -5.98066e-09 0.00000
  4 735.216 -5.98066e-09 0.00000
</Section>

newXOutput 138

<Section columns = "stress_xx | stress_yy | stress_xy">
  1 727.535 -5.86005e-09 0.00000
  2 727.535 -5.86005e-09 0.00000
  3 727.535 -5.86005e-09 0.00000
  4 727.535 -5.86005e-09 0.00000
</Section>

newXOutput 139

<Section columns = "stress_xx | stress_yy | stress_xy">
  1 719.929 -5.74160e-09 0.00000
  2 719.929 -5.74160e-09 0.00000
  3 719.929 -5.74160e-09 0.00000
  4 719.929 -5.74160e-09 0.00000
</Section>

newXOutput 140

<Section columns = "stress_xx | stress_yy | stress_xy">
  1 712.396 -5.62625e-09 0.00000
  2 712.396 -5.62625e-09 0.00000
  3 712.396 -5.62625e-09 0.00000
  4 712.396 -5.62625e-09 0.00000
</Section>

newXOutput 141

<Section columns = "stress_xx | stress_yy | stress_xy">
  1 704.935 -5.51408e-09 0.00000
  2 704.935 -5.51408e-09 0.00000
  3 704.935 -5.51408e-09 0.00000
  4 704.935 -5.51408e-09 0.00000
</Section>

newXOutput 142

<Section columns = "stress_xx | stress_yy | stress_xy">
  1 697.547 -5.40373e-09 0.00000
  2 697.547 -5.40373e-09 0.00000
  3 697.547 -5.40373e-09 0.00000
  4 697.547 -5.40373e-09 0.00000
</Section>

newXOutput 143

<Section columns = "stress_xx | stress_yy | stress_xy">
  1 690.229 -5.29531e-09 0.00000
  2 690.229 -5.29531e-09 0.00000
  3 690.229 -5.29531e-09 0.00000
  4 690.229 -5.29531e-09 0.00000
</Section>

newXOutput 144

<Section columns = "stress_xx | stress_yy | stress_xy">
  1 682.981 -5.19028e-09 0.00000
  2 682.981 -5.19028e-09 0.00000
  3 682.981 -5.19028e-09 0.00000
  4 682.981 -5.19028e-09 0.00000
</Section>

newXOutput 145

<Section columns = "stress_xx | stress_yy | stress_xy">
  1 675.802 -5.08747e-09 0.00000
  2 675.802 -5.08747e-09 0.00000
  3 675.802 -5.08747e-09 0.00000
  4 675.802 -5.08747e-09 0.00000
</Section>

newXOutput 146

<Section columns = "stress_xx | stress_yy | stress_xy">
  1 668.691 -4.98655e-09 0.00000
  2 668.691 -4.98655e-09 0.00000
  3 668.691 -4.98655e-09 0.00000
  4 668.691 -4.98655e-09 0.00000
</Section>

newXOutput 147

<Section columns = "stress_xx | stress_yy | stress_xy">
  1 661.647 -4.88853e-09 0.00000
  2 661.647 -4.88853e-09 0.00000
  3 661.647 -4.88853e-09 0.00000
  4 661.647 -4.88853e-09 0.00000
</Section>

newXOutput 148

<Section columns = "stress_xx | stress_yy | stress_xy">
  1 654.670 -4.79192e-09 0.00000
  2 654.670 -4.79192e-09 0.00000
  3 654.670 -4.79192e-09 0.00000
  4 654.670 -4.79192e-09 0.00000
</Section>

newXOutput 149

<Section columns = "stress_xx | stress_yy | stress_xy">
  1 647.759 -4.69772e-09 0.00000
  2 647.759 -4.69772e-09 0.00000
  3 647.759 -4.69772e-09 0.00000
  4 647.759 -4.69772e-09 0.00000
</Section>

newXOutput 150

<Section columns = "stress_xx | stress_yy | stress_xy">
  1 640.912 -4.60560e-09 0.00000
  2 640.912 -4.60560e-09 0.00000
  3 640.912 -4.60560e-09 0.00000
  4 640.912 -4.60560e-09 0.00000
</Section>

newXOutput 151

<Section columns = "stress_xx | stress_yy | stress_xy">
  1 634.130 -4.51527e-09 0.00000
  2 634.130 -4.51527e-09 0.00000
  3 634.130 -4.51527e-09 0.00000
  4 634.130 -4.51527e-09 0.00000
</Section>

newXOutput 152

<Section columns = "stress_xx | stress_yy | stress_xy">
  1 627.410 -4.42706e-09 0.00000
  2 627.410 -4.42706e-09 0.00000
  3 627.410 -4.42706e-09 0.00000
  4 627.410 -4.42706e-09 0.00000
</Section>

newXOutput 153

<Section columns = "stress_xx | stress_yy | stress_xy">
  1 620.754 -4.34116e-09 0.00000
  2 620.754 -4.34116e-09 0.00000
  3 620.754 -4.34116e-09 0.00000
  4 620.754 -4.34116e-09 0.00000
</Section>

newXOutput 154

<Section columns = "stress_xx | stress_yy | stress_xy">
  1 614.159 -4.25667e-09 0.00000
  2 614.159 -4.25667e-09 0.00000
  3 614.159 -4.25667e-09 0.00000
  4 614.159 -4.25667e-09 0.00000
</Section>

newXOutput 155

<Section columns = "stress_xx | stress_yy | stress_xy">
  1 607.625 -4.17392e-09 0.00000
  2 607.625 -4.17392e-09 0.00000
  3 607.625 -4.17392e-09 0.00000
  4 607.625 -4.17392e-09 0.00000
</Section>

newXOutput 156

<Section columns = "stress_xx | stress_yy | stress_xy">
  1 601.151 -4.09310e-09 0.00000
  2 601.151 -4.09310e-09 0.00000
  3 601.151 -4.09310e-09 0.00000
  4 601.151 -4.09310e-09 0.00000
</Section>

newXOutput 157

<Section columns = "stress_xx | stress_yy | stress_xy">
  1 594.736 -4.01371e-09 0.00000
  2 594.736 -4.01371e-09 0.00000
  3 594.736 -4.01371e-09 0.00000
  4 594.736 -4.01371e-09 0.00000
</Section>

newXOutput 158

<Section columns = "stress_xx | stress_yy | stress_xy">
  1 588.381 -3.93652e-09 0.00000
  2 588.381 -3.93652e-09 0.00000
  3 588.381 -3.93652e-09 0.00000
  4 588.381 -3.93652e-09 0.00000
</Section>

newXOutput 159

<Section columns = "stress_xx | stress_yy | stress_xy">
  1 582.083 -3.86022e-09 0.00000
  2 582.083 -3.86022e-09 0.00000
  3 582.083 -3.86022e-09 0.00000
  4 582.083 -3.86022e-09 0.00000
</Section>

newXOutput 160

<Section columns = "stress_xx | stress_yy | stress_xy">
  1 575.843 -3.78615e-09 0.00000
  2 575.843 -3.78615e-09 0.00000
  3 575.843 -3.78615e-09 0.00000
  4 575.843 -3.78615e-09 0.00000
</Section>

newXOutput 161

<Section columns = "stress_xx | stress_yy | stress_xy">
  1 569.660 -3.71413e-09 0.00000
  2 569.660 -3.71413e-09 0.00000
  3 569.660 -3.71413e-09 0.00000
  4 569.660 -3.71413e-09 0.00000
</Section>

newXOutput 162

<Section columns = "stress_xx | stress_yy | stress_xy">
  1 563.533 -3.64248e-09 0.00000
  2 563.533 -3.64248e-09 0.00000
  3 563.533 -3.64248e-09 0.00000
  4 563.533 -3.64248e-09 0.00000
</Section>

newXOutput 163

<Section columns = "stress_xx | stress_yy | stress_xy">
  1 557.461 -3.57293e-09 0.00000
  2 557.461 -3.57293e-09 0.00000
  3 557.461 -3.57293e-09 0.00000
  4 557.461 -3.57293e-09 0.00000
</Section>

newXOutput 164

<Section columns = "stress_xx | stress_yy | stress_xy">
  1 551.444 -3.50447e-09 0.00000
  2 551.444 -3.50447e-09 0.00000
  3 551.444 -3.50447e-09 0.00000
  4 551.444 -3.50447e-09 0.00000
</Section>

newXOutput 165

<Section columns = "stress_xx | stress_yy | stress_xy">
  1 545.480 -3.43771e-09 0.00000
  2 545.480 -3.43771e-09 0.00000
  3 545.480 -3.43771e-09 0.00000
  4 545.480 -3.43771e-09 0.00000
</Section>

newXOutput 166

<Section columns = "stress_xx | stress_yy | stress_xy">
  1 539.571 -3.37208e-09 0.00000
  2 539.571 -3.37208e-09 0.00000
  3 539.571 -3.37208e-09 0.00000
  4 539.571 -3.37208e-09 0.00000
</Section>

newXOutput 167

<Section columns = "stress_xx | stress_yy | stress_xy">
  1 533.714 -3.30807e-09 0.00000
  2 533.714 -3.30807e-09 0.00000
  3 533.714 -3.30807e-09 0.00000
  4 533.714 -3.30807e-09 0.00000
</Section>

newXOutput 168

<Section columns = "stress_xx | stress_yy | stress_xy">
  1 527.909 -3.24496e-09 0.00000
  2 527.909 -3.24496e-09 0.00000
  3 527.909 -3.24496e-09 0.00000
  4 527.909 -3.24496e-09 0.00000
</Section>

newXOutput 169

<Section columns = "stress_xx | stress_yy | stress_xy">
  1 522.155 -3.18340e-09 0.00000
  2 522.155 -3.18340e-09 0.00000
  3 522.155 -3.18340e-09 0.00000
  4 522.155 -3.18340e-09 0.00000
</Section>

newXOutput 170

<Section columns = "stress_xx | stress_yy | stress_xy">
  1 516.453 -3.12288e-09 0.00000
  2 516.453 -3.12288e-09 0.00000
  3 516.453 -3.12288e-09 0.00000
  4 516.453 -3.12288e-09 0.00000
</Section>

newXOutput 171

<Section columns = "stress_xx | stress_yy | stress_xy">
  1 510.801 -3.06376e-09 0.00000
  2 510.801 -3.06376e-09 0.00000
  3 510.801 -3.06376e-09 0.00000
  4 510.801 -3.06376e-09 0.00000
</Section>

newXOutput 172

<Section columns = "stress_xx | stress_yy | stress_xy">
  1 505.199 -3.00592e-09 0.00000
  2 505.199 -3.00592e-09 0.00000
  3 505.199 -3.00592e-09 0.00000
  4 505.199 -3.00592e-09 0.00000
</Section>

newXOutput 173

<Section columns = "stress_xx | stress_yy | stress_xy">
  1 499.646 -2.94932e-09 0.00000
  2 499.646 -2.94932e-09 0.00000
  3 499.646 -2.94932e-09 0.00000
  4 499.646 -2.94932e-09 0.00000
</Section>

newXOutput 174

<Section columns = "stress_xx | stress_yy | stress_xy">
  1 494.142 -2.89338e-09 0.00000
  2 494.142 -2.89338e-09 0.00000
  3 494.142 -2.89338e-09 0.00000
  4 494.142 -2.89338e-09 0.00000
</Section>

newXOutput 175

<Section columns = "stress_xx | stress_yy | stress_xy">
  1 488.686 -2.83901e-09 0.00000
  2 488.686 -2.83901e-09 0.00000
  3 488.686 -2.83901e-09 0.00000
  4 488.686 -2.83901e-09 0.00000
</Section>

newXOutput 176

<Section columns = "stress_xx | stress_yy | stress_xy">
  1 483.277 -2.78581e-09 0.00000
  2 483.277 -2.78581e-09 0.00000
  3 483.277 -2.78581e-09 0.00000
  4 483.277 -2.78581e-09 0.00000
</Section>

newXOutput 177

<Section columns = "stress_xx | stress_yy | stress_xy">
  1 477.915 -2.73287e-09 0.00000
  2 477.915 -2.73287e-09 0.00000
  3 477.915 -2.73287e-09 0.00000
  4 477.915 -2.73287e-09 0.00000
</Section>

newXOutput 178

<Section columns = "stress_xx | stress_yy | stress_xy">
  1 472.600 -2.68158e-09 0.00000
  2 472.600 -2.68158e-09 0.00000
  3 472.600 -2.68158e-09 0.00000
  4 472.600 -2.68158e-09 0.00000
</Section>

newXOutput 179

<Section columns = "stress_xx | stress_yy | stress_xy">
  1 467.331 -2.63122e-09 0.00000
  2 467.331 -2.63122e-09 0.00000
  3 467.331 -2.63122e-09 0.00000
  4 467.331 -2.63122e-09 0.00000
</Section>

newXOutput 180

<Section columns = "stress_xx | stress_yy | stress_xy">
  1 462.107 -2.58168e-09 0.00000
  2 462.107 -2.58168e-09 0.00000
  3 462.107 -2.58168e-09 0.00000
  4 462.107 -2.58168e-09 0.00000
</Section>

newXOutput 181

<Section columns = "stress_xx | stress_yy | stress_xy">
  1 456.928 -2.53338e-09 0.00000
  2 456.928 -2.53338e-09 0.00000
  3 456.928 -2.53338e-09 0.00000
  4 456.928 -2.53338e-09 0.00000
</Section>

newXOutput 182

<Section columns = "stress_xx | stress_yy | stress_xy">
  1 451.793 -2.48569e-09 0.00000
  2 451.793 -2.48569e-09 0.00000
  3 451.793 -2.48569e-09 0.00000
  4 451.793 -2.48569e-09 0.00000
</Section>

newXOutput 183

<Section columns = "stress_xx | stress_yy | stress_xy">
  1 446.703 -2.43934e-09 0.00000
  2 446.703 -2.43934e-09 0.00000
  3 446.703 -2.43934e-09 0.00000
  4 446.703 -2.43934e-09 0.00000
</Section>

newXOutput 184

<Section columns = "stress_xx | stress_yy | stress_xy">
  1 441.655 -2.39351e-09 0.00000
  2 441.655 -2.39351e-09 0.00000
  3 441.655 -2.39351e-09 0.00000
  4 441.655 -2.39351e-09 0.00000
</Section>

newXOutput 185

<Section columns = "stress_xx | stress_yy | stress_xy">
  1 436.651 -2.34840e-09 0.00000
  2 436.651 -2.34840e-09 0.00000
  3 436.651 -2.34840e-09 0.00000
  4 436.651 -2.34840e-09 0.00000
</Section>

newXOutput 186

<Section columns = "stress_xx | stress_yy | stress_xy">
  1 431.689 -2.30466e-09 0.00000
  2 431.689 -2.30466e-09 0.00000
  3 431.689 -2.30466e-09 0.00000
  4 431.689 -2.30466e-09 0.00000
</Section>

newXOutput 187

<Section columns = "stress_xx | stress_yy | stress_xy">
  1 426.769 -2.26107e-09 0.00000
  2 426.769 -2.26107e-09 0.00000
  3 426.769 -2.26107e-09 0.00000
  4 426.769 -2.26107e-09 0.00000
</Section>

newXOutput 188

<Section columns = "stress_xx | stress_yy | stress_xy">
  1 421.890 -2.21926e-09 -3.07334e-16
  2 421.890 -2.21926e-09 -3.07334e-16
  3 421.890 -2.21926e-09 -6.33115e-16
  4 421.890 -2.21926e-09 -6.33115e-16
</Section>

newXOutput 189

<Section columns = "stress_xx | stress_yy | stress_xy">
  1 417.052 -2.17742e-09 -1.55971e-16
  2 417.052 -2.17759e-09 -1.55971e-16
  3 417.052 -2.17742e-09 -5.82091e-16
  4 417.052 -2.17759e-09 -5.82091e-16
</Section>

newXOutput 190

<Section columns = "stress_xx | stress_yy | stress_xy">
  1 412.255 -2.13642e-09 -5.91525e-16
  2 412.255 -2.13663e-09 -5.91525e-16
  3 412.255 -2.13642e-09 -1.21856e-15
  4 412.255 -2.13663e-09 -1.21856e-15
</Section>

newXOutput 191

<Section columns = "stress_xx | stress_yy | stress_xy">
  1 407.499 -2.09671e-09 0.00000
  2 407.499 -2.09671e-09 0.00000
  3 407.499 -2.09671e-09 0.00000
  4 407.499 -2.09671e-09 0.00000
</Section>

newXOutput 192

<Section columns = "stress_xx | stress_yy | stress_xy">
  1 402.781 -2.05735e-09 0.00000
  2 402.781 -2.05735e-09 0.00000
  3 402.781 -2.05735e-09 0.00000
  4 402.781 -2.05735e-09 0.00000
</Section>

newXOutput 193

<Section columns = "stress_xx | stress_yy | stress_xy">
  1 398.104 -2.01882e-09 -1.44439e-16
  2 398.104 -2.01882e-09 -1.44439e-16
  3 398.104 -2.01882e-09 -5.39054e-16
  4 398.104 -2.01882e-09 -5.39054e-16
</Section>

newXOutput 194

<Section columns = "stress_xx | stress_yy | stress_xy">
  1 393.464 -1.98103e-09 5.47772e-16
  2 393.464 -1.98099e-09 5.47772e-16
  3 393.464 -1.98103e-09 1.12842e-15
  4 393.464 -1.98099e-09 1.12842e-15
</Section>

newXOutput 195

<Section columns = "stress_xx | stress_yy | stress_xy">
  1 388.864 -1.94365e-09 0.00000
  2 388.864 -1.94365e-09 0.00000
  3 388.864 -1.94365e-09 0.00000
  4 388.864 -1.94365e-09 0.00000
</Section>

newXOutput 196

<Section columns = "stress_xx | stress_yy | stress_xy">
  1 384.301 -1.90760e-09 0.00000
  2 384.301 -1.90760e-09 0.00000
  3 384.301 -1.90760e-09 0.00000
  4 384.301 -1.90760e-09 0.00000
</Section>

newXOutput 197

<Section columns = "stress_xx | stress_yy | stress_xy">
  1 379.776 -1.87177e-09 0.00000
  2 379.776 -1.87177e-09 0.00000
  3 379.776 -1.87177e-09 0.00000
  4 379.776 -1.87177e-09 0.00000
</Section>

newXOutput 198

<Section columns = "stress_xx | stress_yy | stress_xy">
  1 375.288 -1.83677e-09 0.00000
  2 375.288 -1.83677e-09 0.00000
  3 375.288 -1.83677e-09 0.00000
  4 375.288 -1.83677e-09 0.00000
</Section>

newXOutput 199

<Section columns = "stress_xx | stress_yy | stress_xy">
  1 370.837 -1.80218e-09 0.00000
  2 370.837 -1.80218e-09 0.00000
  3 370.837 -1.80218e-09 0.00000
  4 370.837 -1.80218e-09 0.00000
</Section>

newXOutput 200

<Section columns = "stress_xx | stress_yy | stress_xy">
  1 366.422 -1.76826e-09 0.00000
  2 366.422 -1.76826e-09 0.00000
  3 366.422 -1.76826e-09 0.00000
  4 366.422 -1.76826e-09 0.00000
</Section>

newXOutput 201

<Section columns = "stress_xx | stress_yy | stress_xy">
  1 362.043 -1.73493e-09 0.00000
  2 362.043 -1.73493e-09 0.00000
  3 362.043 -1.73493e-09 0.00000
  4 362.043 -1.73493e-09 0.00000
</Section>

newXOutput 202

<Section columns = "stress_xx | stress_yy | stress_xy">
  1 357.700 -1.70250e-09 0.00000
  2 357.700 -1.70250e-09 0.00000
  3 357.700 -1.70250e-09 0.00000
  4 357.700 -1.70250e-09 0.00000
</Section>

newXOutput 203

<Section columns = "stress_xx | stress_yy | stress_xy">
  1 353.392 -1.67050e-09 0.00000
  2 353.392 -1.67050e-09 0.00000
  3 353.392 -1.67050e-09 0.00000
  4 353.392 -1.67050e-09 0.00000
</Section>

newXOutput 204

<Section columns = "stress_xx | stress_yy | stress_xy">
  1 349.118 -1.63912e-09 0.00000
  2 349.118 -1.63912e-09 0.00000
  3 349.118 -1.63912e-09 0.00000
  4 349.118 -1.63912e-09 0.00000
</Section>

newXOutput 205

<Section columns = "stress_xx | stress_yy | stress_xy">
  1 344.880 -1.60828e-09 0.00000
  2 344.880 -1.60828e-09 0.00000
  3 344.880 -1.60828e-09 0.00000
  4 344.880 -1.60828e-09 0.00000
</Section>

newXOutput 206

<Section columns = "stress_xx | stress_yy | stress_xy">
  1 340.675 -1.57791e-09 0.00000
  2 340.675 -1.57791e-09 0.00000
  3 340.675 -1.57791e-09 0.00000
  4 340.675 -1.57791e-09 0.00000
</Section>

newXOutput 207

<Section columns = "stress_xx | stress_yy | stress_xy">
  1 336.504 -1.54783e-09 0.00000
  2 336.504 -1.54783e-09 0.00000
  3 336.504 -1.54783e-09 0.00000
  4 336.504 -1.54783e-09 0.00000
</Section>

newXOutput 208

<Section columns = "stress_xx | stress_yy | stress_xy">
  1 332.366 -1.51862e-09 0.00000
  2 332.366 -1.51862e-09 0.00000
  3 332.366 -1.51862e-09 0.00000
  4 332.366 -1.51862e-09 0.00000
</Section>

newXOutput 209

<Section columns = "stress_xx | stress_yy | stress_xy">
  1 328.262 -1.48992e-09 0.00000
  2 328.262 -1.48992e-09 0.00000
  3 328.262 -1.48992e-09 0.00000
  4 328.262 -1.48992e-09 0.00000
</Section>

newXOutput 210

<Section columns = "stress_xx | stress_yy | stress_xy">
  1 324.190 -1.46176e-09 0.00000
  2 324.190 -1.46176e-09 0.00000
  3 324.190 -1.46176e-09 0.00000
  4 324.190 -1.46176e-09 0.00000
</Section>

newXOutput 211

<Section columns = "stress_xx | stress_yy | stress_xy">
  1 320.151 -1.43380e-09 0.00000
  2 320.151 -1.43380e-09 0.00000
  3 320.151 -1.43380e-09 0.00000
  4 320.151 -1.43380e-09 0.00000
</Section>

newXOutput 212

<Section columns = "stress_xx | stress_yy | stress_xy">
  1 316.143 -1.40678e-09 0.00000
  2 316.143 -1.40678e-09 0.00000
  3 316.143 -1.40678e-09 0.00000
  4 316.143 -1.40678e-09 0.00000
</Section>

newXOutput 213

<Section columns = "stress_xx | stress_yy | stress_xy">
  1 312.167 -1.38026e-09 0.00000
  2 312.167 -1.38026e-09 0.00000
  3 312.167 -1.38026e-09 0.00000
  4 312.167 -1.38026e-09 0.00000
</Section>

newXOutput 214

<Section columns = "stress_xx | stress_yy | stress_xy">
  1 308.223 -1.35377e-09 0.00000
  2 308.223 -1.35377e-09 0.00000
  3 308.223 -1.35377e-09 0.00000
  4 308.223 -1.35377e-09 0.00000
</Section>

newXOutput 215

<Section columns = "stress_xx | stress_yy | stress_xy">
  1 304.309 -1.32767e-09 0.00000
  2 304.309 -1.32767e-09 0.00000
  3 304.309 -1.32767e-09 0.00000
  4 304.309 -1.32767e-09 0.00000
</Section>

newXOutput 216

<Section columns = "stress_xx | stress_yy | stress_xy">
  1 300.427 -1.30260e-09 0.00000
  2 300.427 -1.30260e-09 0.00000
  3 300.427 -1.30260e-09 0.00000
  4 300.427 -1.30260e-09 0.00000
</Section>

newXOutput 217

<Section columns = "stress_xx | stress_yy | stress_xy">
  1 296.574 -1.27770e-09 0.00000
  2 296.574 -1.27770e-09 0.00000
  3 296.574 -1.27770e-09 0.00000
  4 296.574 -1.27770e-09 0.00000
</Section>

newXOutput 218

<Section columns = "stress_xx | stress_yy | stress_xy">
  1 292.752 -1.25301e-09 0.00000
  2 292.752 -1.25301e-09 0.00000
  3 292.752 -1.25301e-09 0.00000
  4 292.752 -1.25301e-09 0.00000
</Section>

newXOutput 219

<Section columns = "stress_xx | stress_yy | stress_xy">
  1 288.959 -1.22900e-09 0.00000
  2 288.959 -1.22900e-09 0.00000
  3 288.959 -1.22900e-09 0.00000
  4 288.959 -1.22900e-09 0.00000
</Section>

newXOutput 220

<Section columns = "stress_xx | stress_yy | stress_xy">
  1 285.196 -1.20524e-09 0.00000
  2 285.196 -1.20524e-09 0.00000
  3 285.196 -1.20524e-09 0.00000
  4 285.196 -1.20524e-09 0.00000
</Section>

newXOutput 221

<Section columns = "stress_xx | stress_yy | stress_xy">
  1 281.462 -1.18194e-09 0.00000
  2 281.462 -1.18194e-09 0.00000
  3 281.462 -1.18194e-09 0.00000
  4 281.462 -1.18194e-09 0.00000
</Section>

newXOutput 222

<Section columns = "stress_xx | stress_yy | stress_xy">
  1 277.757 -1.15932e-09 0.00000
  2 277.757 -1.15932e-09 0.00000
  3 277.757 -1.15932e-09 0.00000
  4 277.757 -1.15932e-09 0.00000
</Section>

newXOutput 223

<Section columns = "stress_xx | stress_yy | stress_xy">
  1 274.081 -1.13661e-09 0.00000
  2 274.081 -1.13661e-09 0.00000
  3 274.081 -1.13661e-09 0.00000
  4 274.081 -1.13661e-09 0.00000
</Section>

newXOutput 224

<Section columns = "stress_xx | stress_yy | stress_xy">
  1 270.432 -1.11466e-09 0.00000
  2 270.432 -1.11466e-09 0.00000
  3 270.432 -1.11466e-09 0.00000
  4 270.432 -1.11466e-09 0.00000
</Section>

newXOutput 225

<Section columns = "stress_xx | stress_yy | stress_xy">
  1 266.812 -1.09266e-09 0.00000
  2 266.812 -1.09266e-09 0.00000
  3 266.812 -1.09266e-09 0.00000
  4 266.812 -1.09266e-09 0.00000
</Section>

newXOutput 226

<Section columns = "stress_xx | stress_yy | stress_xy">
  1 263.220 -1.07167e-09 0.00000
  2 263.220 -1.07167e-09 0.00000
  3 263.220 -1.07167e-09 0.00000
  4 263.220 -1.07167e-09 0.00000
</Section>

newXOutput 227

<Section columns = "stress_xx | stress_yy | stress_xy">
  1 259.654 -1.05063e-09 0.00000
  2 259.654 -1.05063e-09 0.00000
  3 259.654 -1.05063e-09 0.00000
  4 259.654 -1.05063e-09 0.00000
</Section>

newXOutput 228

<Section columns = "stress_xx | stress_yy | stress_xy">
  1 256.117 -1.02981e-09 0.00000
  2 256.117 -1.02981e-09 0.00000
  3 256.117 -1.02981e-09 0.00000
  4 256.117 -1.02981e-09 0.00000
</Section>

newXOutput 229

<Section columns = "stress_xx | stress_yy | stress_xy">
  1 252.605 -1.00965e-09 0.00000
  2 252.605 -1.00965e-09 0.00000
  3 252.605 -1.00965e-09 0.00000
  4 252.605 -1.00965e-09 0.00000
</Section>

newXOutput 230

<Section columns = "stress_xx | stress_yy | stress_xy">
  1 249.121 -9.89605e-10 0.00000
  2 249.121 -9.89605e-10 0.00000
  3 249.121 -9.89605e-10 0.00000
  4 249.121 -9.89605e-10 0.00000
</Section>

newXOutput 231

<Section columns = "stress_xx | stress_yy | stress_xy">
  1 245.663 -9.69944e-10 0.00000
  2 245.663 -9.69944e-10 0.00000
  3 245.663 -9.69944e-10 0.00000
  4 245.663 -9.69944e-10 0.00000
</Section>

newXOutput 232

<Section columns = "stress_xx | stress_yy | stress_xy">
  1 242.231 -9.50781e-10 0.00000
  2 242.231 -9.50781e-10 0.00000
  3 242.231 -9.50781e-10 0.00000
  4 242.231 -9.50781e-10 0.00000
</Section>

newXOutput 233

<Section columns = "stress_xx | stress_yy | stress_xy">
  1 238.824 -9.31771e-10 0.00000
  2 238.824 -9.31771e-10 0.00000
  3 238.824 -9.31771e-10 0.00000
  4 238.824 -9.31771e-10 0.00000
</Section>

newXOutput 234

<Section columns = "stress_xx | stress_yy | stress_xy">
  1 235.444 -9.13203e-10 0.00000
  2 235.444 -9.13203e-10 0.00000
  3 235.444 -9.13203e-10 0.00000
  4 235.444 -9.13203e-10 0.00000
</Section>

newXOutput 235

<Section columns = "stress_xx | stress_yy | stress_xy">
  1 232.088 -8.94742e-10 0.00000
  2 232.088 -8.94742e-10 0.00000
  3 232.088 -8.94742e-10 0.00000
  4 232.088 -8.94742e-10 0.00000
</Section>

newXOutput 236

<Section columns = "stress_xx | stress_yy | stress_xy">
  1 228.758 -8.76790e-10 0.00000
  2 228.758 -8.76790e-10 0.00000
  3 228.758 -8.76790e-10 0.00000
  4 228.758 -8.76790e-10 0.00000
</Section>

newXOutput 237

<Section columns = "stress_xx | stress_yy | stress_xy">
  1 225.453 -8.58979e-10 0.00000
  2 225.453 -8.58979e-10 0.00000
  3 225.453 -8.58979e-10 0.00000
  4 225.453 -8.58979e-10 0.00000
</Section>

newXOutput 238

<Section columns = "stress_xx | stress_yy | stress_xy">
  1 222.172 -8.41544e-10 0.00000
  2 222.172 -8.41544e-10 0.00000
  3 222.172 -8.41544e-10 0.00000
  4 222.172 -8.41544e-10 0.00000
</Section>

newXOutput 239

<Section columns = "stress_xx | stress_yy | stress_xy">
  1 218.915 -8.24549e-10 0.00000
  2 218.915 -8.24549e-10 0.00000
  3 218.915 -8.24549e-10 0.00000
  4 218.915 -8.24549e-10 0.00000
</Section>

newXOutput 240

<Section columns = "stress_xx | stress_yy | stress_xy">
  1 215.683 -8.07426e-10 0.00000
  2 215.683 -8.07426e-10 0.00000
  3 215.683 -8.07426e-10 0.00000
  4 215.683 -8.07426e-10 0.00000
</Section>

newXOutput 241

<Section columns = "stress_xx | stress_yy | stress_xy">
  1 212.474 -7.90992e-10 0.00000
  2 212.474 -7.90992e-10 0.00000
  3 212.474 -7.90992e-10 0.00000
  4 212.474 -7.90992e-10 0.00000
</Section>

newXOutput 242

<Section columns = "stress_xx | stress_yy | stress_xy">
  1 209.289 -7.74506e-10 0.00000
  2 209.289 -7.74506e-10 0.00000
  3 209.289 -7.74506e-10 0.00000
  4 209.289 -7.74506e-10 0.00000
</Section>

newXOutput 243

<Section columns = "stress_xx | stress_yy | stress_xy">
  1 206.128 -7.58649e-10 0.00000
  2 206.128 -7.58649e-10 0.00000
  3 206.128 -7.58649e-10 0.00000
  4 206.128 -7.58649e-10 0.00000
</Section>

newXOutput 244

<Section columns = "stress_xx | stress_yy | stress_xy">
  1 202.989 -7.42912e-10 0.00000
  2 202.989 -7.42912e-10 0.00000
  3 202.989 -7.42912e-10 0.00000
  4 202.989 -7.42912e-10 0.00000
</Section>

newXOutput 245

<Section columns = "stress_xx | stress_yy | stress_xy">
  1 199.874 -7.27161e-10 0.00000
  2 199.874 -7.27161e-10 0.00000
  3 199.874 -7.27161e-10 0.00000
  4 199.874 -7.27161e-10 0.00000
</Section>

newXOutput 246

<Section columns = "stress_xx | stress_yy | stress_xy">
  1 196.781 -7.11976e-10 0.00000
  2 196.781 -7.11976e-10 0.00000
  3 196.781 -7.11976e-10 0.00000
  4 196.781 -7.11976e-10 0.00000
</Section>

newXOutput 247

<Section columns = "stress_xx | stress_yy | stress_xy">
  1 193.711 -6.97041e-10 0.00000
  2 193.711 -6.97041e-10 0.00000
  3 193.711 -6.97041e-10 0.00000
  4 193.711 -6.97041e-10 0.00000
</Section>

newXOutput 248

<Section columns = "stress_xx | stress_yy | stress_xy">
  1 190.663 -6.82057e-10 0.00000
  2 190.663 -6.82057e-10 0.00000
  3 190.663 -6.82057e-10 0.00000
  4 190.663 -6.82057e-10 0.00000
</Section>

newXOutput 249

<Section columns = "stress_xx | stress_yy | stress_xy">
  1 187.637 -6.67515e-10 0.00000
  2 187.637 -6.67515e-10 0.00000
  3 187.637 -6.67515e-10 0.00000
  4 187.637 -6.67515e-10 0.00000
</Section>

newXOutput 250

<Section columns = "stress_xx | stress_yy | stress_xy">
  1 184.633 -6.53212e-10 0.00000
  2 184.633 -6.53212e-10 0.00000
  3 184.633 -6.53212e-10 0.00000
  4 184.633 -6.53212e-10 0.00000
</Section>

newXOutput 251

<Section columns = "stress_xx | stress_yy | stress_xy">
  1 181.651 -6.39051e-10 0.00000
  2 181.651 -6.39051e-10 0.00000
  3 181.651 -6.39051e-10 0.00000
  4 181.651 -6.39051e-10 0.00000
</Section>

newXOutput 252

<Section columns = "stress_xx | stress_yy | stress_xy">
  1 178.690 -6.25215e-10 0.00000
  2 178.690 -6.25215e-10 0.00000
  3 178.690 -6.25215e-10 0.00000
  4 178.690 -6.25215e-10 0.00000
</Section>

newXOutput 253

<Section columns = "stress_xx | stress_yy | stress_xy">
  1 175.751 -6.11516e-10 0.00000
  2 175.751 -6.11516e-10 0.00000
  3 175.751 -6.11516e-10 0.00000
  4 175.751 -6.11516e-10 0.00000
</Section>

newXOutput 254

<Section columns = "stress_xx | stress_yy | stress_xy">
  1 172.832 -5.98101e-10 0.00000
  2 172.832 -5.98101e-10 0.00000
  3 172.832 -5.98101e-10 0.00000
  4 172.832 -5.98101e-10 0.00000
</Section>

newXOutput 255

<Section columns = "stress_xx | stress_yy | stress_xy">
  1 169.935 -5.84906e-10 0.00000
  2 169.935 -5.84906e-10 0.00000
  3 169.935 -5.84906e-10 0.00000
  4 169.935 -5.84906e-10 0.00000
</Section>

newXOutput 256

<Section columns = "stress_xx | stress_yy | stress_xy">
  1 167.058 -5.71983e-10 0.00000
  2 167.058 -5.71983e-10 0.00000
  3 167.058 -5.71983e-10 0.00000
  4 167.058 -5.71983e-10 0.00000
</Section>

newXOutput 257

<Section columns = "stress_xx | stress_yy | stress_xy">
  1 164.201 -5.59046e-10 0.00000
  2 164.201 -5.59046e-10 0.00000
  3 164.201 -5.59046e-10 0.00000
  4 164.201 -5.59046e-10 0.00000
</Section>

newXOutput 258

<Section columns = "stress_xx | stress_yy | stress_xy">
  1 161.365 -5.46515e-10 0.00000
  2 161.365 -5.46515e-10 0.00000
  3 161.365 -5.46515e-10 0.00000
  4 161.365 -5.46515e-10 0.00000
</Section>

newXOutput 259

<Section columns = "stress_xx | stress_yy | stress_xy">
  1 158.549 -5.34107e-10 0.00000
  2 158.549 -5.34107e-10 0.00000
  3 158.549 -5.34107e-10 0.00000
  4 158.549 -5.34107e-10 0.00000
</Section>

newXOutput 260

<Section columns = "stress_xx | stress_yy | stress_xy">
  1 155.753 -5.21847e-10 0.00000
  2 155.753 -5.21847e-10 0.00000
  3 155.753 -5.21847e-10 0.00000
  4 155.753 -5.21847e-10 0.00000
</Section>

newXOutput 261

<Section columns = "stress_xx | stress_yy | stress_xy">
  1 152.976 -5.09763e-10 0.00000
  2 152.976 -5.09763e-10 0.00000
  3 152.976 -5.09763e-10 0.00000
  4 152.976 -5.09763e-10 0.00000
</Section>

newXOutput 262

<Section columns = "stress_xx | stress_yy | stress_xy">
  1 150.219 -4.98055e-10 0.00000
  2 150.219 -4.98055e-10 0.00000
  3 150.219 -4.98055e-10 0.00000
  4 150.219 -4.98055e-10 0.00000
</Section>

newXOutput 263

<Section columns = "stress_xx | stress_yy | stress_xy">
  1 147.481 -4.86334e-10 0.00000
  2 147.481 -4.86334e-10 0.00000
  3 147.481 -4.86334e-10 0.00000
  4 147.481 -4.86334e-10 0.00000
</Section>

newXOutput 264

<Section columns = "stress_xx | stress_yy | stress_xy">
  1 144.763 -4.74831e-10 0.00000
  2 144.763 -4.74831e-10 0.00000
  3 144.763 -4.74831e-10 0.00000
  4 144.763 -4.74831e-10 0.00000
</Section>

newXOutput 265

<Section columns = "stress_xx | stress_yy | stress_xy">
  1 142.063 -4.63634e-10 0.00000
  2 142.063 -4.63634e-10 0.00000
  3 142.063 -4.63634e-10 0.00000
  4 142.063 -4.63634e-10 0.00000
</Section>

newXOutput 266

<Section columns = "stress_xx | stress_yy | stress_xy">
  1 139.383 -4.52523e-10 0.00000
  2 139.383 -4.52523e-10 0.00000
  3 139.383 -4.52523e-10 0.00000
  4 139.383 -4.52523e-10 0.00000
</Section>

newXOutput 267

<Section columns = "stress_xx | stress_yy | stress_xy">
  1 136.721 -4.41546e-10 0.00000
  2 136.721 -4.41546e-10 0.00000
  3 136.721 -4.41546e-10 0.00000
  4 136.721 -4.41546e-10 0.00000
</Section>

newXOutput 268

<Section columns = "stress_xx | stress_yy | stress_xy">
  1 134.077 -4.30814e-10 0.00000
  2 134.077 -4.30814e-10 0.00000
  3 134.077 -4.30814e-10 0.00000
  4 134.077 -4.30814e-10 0.00000
</Section>

newXOutput 269

<Section columns = "stress_xx | stress_yy | stress_xy">
  1 131.452 -4.20211e-10 0.00000
  2 131.452 -4.20211e-10 0.00000
  3 131.452 -4.20211e-10 0.00000
  4 131.452 -4.20211e-10 0.00000
</Section>

newXOutput 270

<Section columns = "stress_xx | stress_yy | stress_xy">
  1 128.845 -4.09671e-10 0.00000
  2 128.845 -4.09671e-10 0.00000
  3 128.845 -4.09671e-10 0.00000
  4 128.845 -4.09671e-10 0.00000
</Section>

newXOutput 271

<Section columns = "stress_xx | stress_yy | stress_xy">
  1 126.256 -3.99494e-10 0.00000
  2 126.256 -3.99494e-10 0.00000
  3 126.256 -3.99494e-10 0.00000
  4 126.256 -3.99494e-10 0.00000
</Section>

newXOutput 272

<Section columns = "stress_xx | stress_yy | stress_xy">
  1 123.684 -3.89270e-10 0.00000
  2 123.684 -3.89270e-10 0.00000
  3 123.684 -3.89270e-10 0.00000
  4 123.684 -3.89270e-10 0.00000
</Section>

newXOutput 273

<Section columns = "stress_xx | stress_yy | stress_xy">
  1 121.131 -3.79376e-10 0.00000
  2 121.131 -3.79376e-10 0.00000
  3 121.131 -3.79376e-10 0.00000
  4 121.131 -3.79376e-10 0.00000
</Section>

newXOutput 274

<Section columns = "stress_xx | stress_yy | stress_xy">
  1 118.594 -3.69580e-10 0.00000
  2 118.594 -3.69580e-10 0.00000
  3 118.594 -3.69580e-10 0.00000
  4 118.594 -3.69580e-10 0.00000
</Section>

newXOutput 275

<Section columns = "stress_xx | stress_yy | stress_xy">
  1 116.076 -3.59920e-10 0.00000
  2 116.076 -3.59920e-10 0.00000
  3 116.076 -3.59920e-10 0.00000
  4 116.076 -3.59920e-10 0.00000
</Section>

newXOutput 276

<Section columns = "stress_xx | stress_yy | stress_xy">
  1 113.574 -3.50377e-10 0.00000
  2 113.574 -3.50377e-10 0.00000
  3 113.574 -3.50377e-10 0.00000
  4 113.574 -3.50377e-10 0.00000
</Section>

newXOutput 277

<Section columns = "stress_xx | stress_yy | stress_xy">
  1 111.089 -3.40913e-10 0.00000
  2 111.089 -3.40913e-10 0.00000
  3 111.089 -3.40913e-10 0.00000
  4 111.089 -3.40913e-10 0.00000
</Section>

newXOutput 278

<Section columns = "stress_xx | stress_yy | stress_xy">
  1 108.621 -3.31767e-10 0.00000
  2 108.621 -3.31767e-10 0.00000
  3 108.621 -3.31767e-10 0.00000
  4 108.621 -3.31767e-10 0.00000
</Section>

newXOutput 279

<Section columns = "stress_xx | stress_yy | stress_xy">
  1 106.170 -3.22694e-10 0.00000
  2 106.170 -3.22694e-10 0.00000
  3 106.170 -3.22694e-10 0.00000
  4 106.170 -3.22694e-10 0.00000
</Section>

newXOutput 280

<Section columns = "stress_xx | stress_yy | stress_xy">
  1 103.736 -3.13799e-10 0.00000
  2 103.736 -3.13799e-10 0.00000
  3 103.736 -3.13799e-10 0.00000
  4 103.736 -3.13799e-10 0.00000
</Section>

newXOutput 281

<Section columns = "stress_xx | stress_yy | stress_xy">
  1 101.318 -3.04942e-10 0.00000
  2 101.318 -3.04942e-10 0.00000
  3 101.318 -3.04942e-10 0.00000
  4 101.318 -3.04942e-10 0.00000
</Section>

newXOutput 282

<Section columns = "stress_xx | stress_yy | stress_xy">
  1 98.9159 -2.96261e-10 0.00000
  2 98.9159 -2.96261e-10 0.00000
  3 98.9159 -2.96261e-10 0.00000
  4 98.9159 -2.96261e-10 0.00000
</Section>

newXOutput 283

<Section columns = "stress_xx | stress_yy | stress_xy">
  1 96.5303 -2.87685e-10 0.00000
  2 96.5303 -2.87685e-10 0.00000
  3 96.5303 -2.87685e-10 0.00000
  4 96.5303 -2.87685e-10 0.00000
</Section>

newXOutput 284

<Section columns = "stress_xx | stress_yy | stress_xy">
  1 94.1606 -2.79324e-10 0.00000
  2 94.1606 -2.79324e-10 0.00000
  3 94.1606 -2.79324e-10 0.00000
  4 94.1606 -2.79324e-10 0.00000
</Section>

newXOutput 285

<Section columns = "stress_xx | stress_yy | stress_xy">
  1 91.8067 -2.70987e-10 0.00000
  2 91.8067 -2.70987e-10 0.00000
  3 91.8067 -2.70987e-10 0.00000
  4 91.8067 -2.70987e-10 0.00000
</Section>

newXOutput 286

<Section columns = "stress_xx | stress_yy | stress_xy">
  1 89.4686 -2.62783e-10 0.00000
  2 89.4686 -2.62783e-10 0.00000
  3 89.4686 -2.62783e-10 0.00000
  4 89.4686 -2.62783e-10 0.00000
</Section>

newXOutput 287

<Section columns = "stress_xx | stress_yy | stress_xy">
  1 87.1460 -2.54666e-10 0.00000
  2 87.1460 -2.54666e-10 0.00000
  3 87.1460 -2.54666e-10 0.00000
  4 87.1460 -2.54666e-10 0.00000
</Section>

newXOutput 288

<Section columns = "stress_xx | stress_yy | stress_xy">
  1 84.8389 -2.46835e-10 0.00000
  2 84.8389 -2.46835e-10 0.00000
  3 84.8389 -2.46835e-10 0.00000
  4 84.8389 -2.46835e-10 0.00000
</Section>

newXOutput 289

<Section columns = "stress_xx | stress_yy | stress_xy">
  1 82.5470 -2.38986e-10 0.00000
  2 82.5470 -2.38986e-10 0.00000
  3 82.5470 -2.38986e-10 0.00000
  4 82.5470 -2.38986e-10 0.00000
</Section>

newXOutput 290

<Section columns = "stress_xx | stress_yy | stress_xy">
  1 80.2704 -2.31395e-10 0.00000
  2 80.2704 -2.31395e-10 0.00000
  3 80.2704 -2.31395e-10 0.00000
  4 80.2704 -2.31395e-10 0.00000
</Section>

newXOutput 291

<Section columns = "stress_xx | stress_yy | stress_xy">
  1 78.0087 -2.23803e-10 0.00000
  2 78.0087 -2.23803e-10 0.00000
  3 78.0087 -2.23803e-10 0.00000
  4 78.0087 -2.23803e-10 0.00000
</Section>

newXOutput 292

<Section columns = "stress_xx | stress_yy | stress_xy">
  1 75.7620 -2.16217e-10 0.00000
  2 75.7620 -2.16217e-10 0.00000
  3 75.7620 -2.16217e-10 0.00000
  4 75.7620 -2.16217e-10 0.00000
</Section>

newXOutput 293

<Section columns = "stress_xx | stress_yy | stress_xy">
  1 73.5300 -2.08975e-10 0.00000
  2 73.5300 -2.08975e-10 0.00000
  3 73.5300 -2.08975e-10 0.00000
  4 73.5300 -2.08975e-10 0.00000
</Section>

newXOutput 294

<Section columns = "stress_xx | stress_yy | stress_xy">
  1 71.3127 -2.01639e-10 0.00000
  2 71.3127 -2.01639e-10 0.00000
  3 71.3127 -2.01639e-10 0.00000
  4 71.3127 -2.01639e-10 0.00000
</Section>

newXOutput 295

<Section columns = "stress_xx | stress_yy | stress_xy">
  1 69.1098 -1.94548e-10 0.00000
  2 69.1098 -1.94548e-10 0.00000
  3 69.1098 -1.94548e-10 0.00000
  4 69.1098 -1.94548e-10 0.00000
</Section>

newXOutput 296

<Section columns = "stress_xx | stress_yy | stress_xy">
  1 66.9214 -1.87543e-10 0.00000
  2 66.9214 -1.87543e-10 0.00000
  3 66.9214 -1.87543e-10 0.00000
  4 66.9214 -1.87543e-10 0.00000
</Section>

newXOutput 297

<Section columns = "stress_xx | stress_yy | stress_xy">
  1 64.7473 -1.80559e-10 0.00000
  2 64.7473 -1.80559e-10 0.00000
  3 64.7473 -1.80559e-10 0.00000
  4 64.7473 -1.80559e-10 0.00000
</Section>

newXOutput 298

<Section columns = "stress_xx | stress_yy | stress_xy">
  1 62.5872 -1.73749e-10 0.00000
  2 62.5872 -1.73749e-10 0.00000
  3 62.5872 -1.73749e-10 0.00000
  4 62.5872 -1.73749e-10 0.00000
</Section>

newXOutput 299

<Section columns = "stress_xx | stress_yy | stress_xy">
  1 60.4412 -1.67053e-10 0.00000
  2 60.4412 -1.67053e-10 0.00000
  3 60.4412 -1.67053e-10 0.00000
  4 60.4412 -1.67053e-10 0.00000
</Section>

newXOutput 300

<Section columns = "stress_xx | stress_yy | stress_xy">
  1 58.3092 -1.60401e-10 0.00000
  2 58.3092 -1.60401e-10 0.00000
  3 58.3092 -1.60401e-10 0.00000
  4 58.3092 -1.60401e-10 0.00000
</Section>

newXOutput 301

<Section columns = "stress_xx | stress_yy | stress_xy">
  1 56.1909 -1.53853e-10 0.00000
  2 56.1909 -1.53853e-10 0.00000
  3 56.1909 -1.53853e-10 0.00000
  4 56.1909 -1.53853e-10 0.00000
</Section>

newXOutput 302

<Section columns = "stress_xx | stress_yy | stress_xy">
  1 54.0862 -1.47469e-10 0.00000
  2 54.0862 -1.47469e-10 0.00000
  3 54.0862 -1.47469e-10 0.00000
  4 54.0862 -1.47469e-10 0.00000
</Section>

newXOutput 303

<Section columns = "stress_xx | stress_yy | stress_xy">
  1 51.9951 -1.41112e-10 0.00000
  2 51.9951 -1.41112e-10 0.00000
  3 51.9951 -1.41112e-10 0.00000
  4 51.9951 -1.41112e-10 0.00000
</Section>

newXOutput 304

<Section columns = "stress_xx | stress_yy | stress_xy">
  1 49.9175 -1.34902e-10 0.00000
  2 49.9175 -1.34902e-10 0.00000
  3 49.9175 -1.34902e-10 0.00000
  4 49.9175 -1.34902e-10 0.00000
</Section>

newXOutput 305

<Section columns = "stress_xx | stress_yy | stress_xy">
  1 47.8531 -1.28730e-10 0.00000
  2 47.8531 -1.28730e-10 0.00000
  3 47.8531 -1.28730e-10 0.00000
  4 47.8531 -1.28730e-10 0.00000
</Section>

newXOutput 306

<Section columns = "stress_xx | stress_yy | stress_xy">
  1 45.8020 -1.22645e-10 0.00000
  2 45.8020 -1.22645e-10 0.00000
  3 45.8020 -1.22645e-10 0.00000
  4 45.8020 -1.22645e-10 0.00000
</Section>

newXOutput 307

<Section columns = "stress_xx | stress_yy | stress_xy">
  1 43.7640 -1.16646e-10 0.00000
  2 43.7640 -1.16646e-10 0.00000
  3 43.7640 -1.16646e-10 0.00000
  4 43.7640 -1.16646e-10 0.00000
</Section>

newXOutput 308

<Section columns = "stress_xx | stress_yy | stress_xy">
  1 41.7389 -1.10789e-10 0.00000
  2 41.7389 -1.10789e-10 0.00000
  3 41.7389 -1.10789e-10 0.00000
  4 41.7389 -1.10789e-10 0.00000
</Section>

newXOutput 309

<Section columns = "stress_xx | stress_yy | stress_xy">
  1 39.7268 -1.04965e-10 0.00000
  2 39.7268 -1.04965e-10 0.00000
  3 39.7268 -1.04965e-10 0.00000
  4 39.7268 -1.04965e-10 0.00000
</Section>

newXOutput 310

<Section columns = "stress_xx | stress_yy | stress_xy">
  1 37.7274 -9.92371e-11 0.00000
  2 37.7274 -9.92371e-11 0.00000
  3 37.7274 -9.92371e-11 0.00000
  4 37.7274 -9.92371e-11 0.00000
</Section>

newXOutput 311

<Section columns = "stress_xx | stress_yy | stress_xy">
  1 35.7407 -9.35842e-11 0.00000
  2 35.7407 -9.35842e-11 0.00000
  3 35.7407 -9.35842e-11 0.00000
  4 35.7407 -9.35842e-11 0.00000
</Section>

newXOutput 312

<Section columns = "stress_xx | stress_yy | stress_xy">
  1 33.7665 -8.80678e-11 0.00000
  2 33.7665 -8.80678e-11 0.00000
  3 33.7665 -8.80678e-11 0.00000
  4 33.7665 -8.80678e-11 0.00000
</Section>

newXOutput 313

<Section columns = "stress_xx | stress_yy | stress_xy">
  1 31.8048 -8.25883e-11 0.00000
  2 31.8048 -8.25883e-11 0.00000
  3 31.8048 -8.25883e-11 0.00000
  4 31.8048 -8.25883e-11 0.00000
</Section>

newXOutput 314

<Section columns = "stress_xx | stress_yy | stress_xy">
  1 29.8554 -7.71763e-11 0.00000
  2 29.8554 -7.71763e-11 0.00000
  3 29.8554 -7.71763e-11 0.00000
  4 29.8554 -7.71763e-11 0.00000
</Section>

newXOutput 315

<Section columns = "stress_xx | stress_yy | stress_xy">
  1 27.9183 -7.18604e-11 0.00000
  2 27.9183 -7.18604e-11 0.00000
  3 27.9183 -7.18604e-11 0.00000
  4 27.9183 -7.18604e-11 0.00000
</Section>

newXOutput 316

<Section columns = "stress_xx | stress_yy | stress_xy">
  1 25.9933 -6.66317e-11 0.00000
  2 25.9933 -6.66317e-11 0.00000
  3 25.9933 -6.66317e-11 0.00000
  4 25.9933 -6.66317e-11 0.00000
</Section>

newXOutput 317

<Section columns = "stress_xx | stress_yy | stress_xy">
  1 24.0803 -6.14669e-11 0.00000
  2 24.0803 -6.14669e-11 0.00000
  3 24.0803 -6.14669e-11 0.00000
  4 24.0803 -6.14669e-11 0.00000
</Section>

newXOutput 318

<Section columns = "stress_xx | stress_yy | stress_xy">
  1 22.1793 -5.63598e-11 0.00000
  2 22.1793 -5.63598e-11 0.00000
  3 22.1793 -5.63598e-11 0.00000
  4 22.1793 -5.63598e-11 0.00000
</Section>

newXOutput 319

<Section columns = "stress_xx | stress_yy | stress_xy">
  1 20.2902 -5.13366e-11 0.00000
  2 20.2902 -5.13366e-11 0.00000
  3 20.2902 -5.13366e-11 0.00000
  4 20.2902 -5.13366e-11 0.00000
</Section>

newXOutput 320

<Section columns = "stress_xx | stress_yy | stress_xy">
  1 18.4128 -4.63909e-11 0.00000
  2 18.4128 -4.63909e-11 0.00000
  3 18.4128 -4.63909e-11 0.00000
  4 18.4128 -4.63909e-11 0.00000
</Section>

newXOutput 321

<Section columns = "stress_xx | stress_yy | stress_xy">
  1 16.5471 -4.15174e-11 0.00000
  2 16.5471 -4.15174e-11 0.00000
  3 16.5471 -4.15174e-11 0.00000
  4 16.5471 -4.15174e-11 0.00000
</Section>

newXOutput 322

<Section columns = "stress_xx | stress_yy | stress_xy">
  1 14.6929 -3.66975e-11 0.00000
  2 14.6929 -3.66975e-11 0.00000
  3 14.6929 -3.66975e-11 0.00000
  4 14.6929 -3.66975e-11 0.00000
</Section>

newXOutput 323

<Section columns = "stress_xx | stress_yy | stress_xy">
  1 12.8501 -3.19675e-11 0.00000
  2 12.8501 -3.19675e-11 0.00000
  3 12.8501 -3.19675e-11 0.00000
  4 12.8501 -3.19675e-11 0.00000
</Section>

newXOutput 324

<Section columns = "stress_xx | stress_yy | stress_xy">
  1 11.0188 -2.72989e-11 0.00000
  2 11.0188 -2.72989e-11 0.00000
  3 11.0188 -2.72989e-11 0.00000
  4 11.0188 -2.72989e-11 0.00000
</Section>

newXOutput 325

<Section columns = "stress_xx | stress_yy | stress_xy">
  1 9.19871 -2.26897e-11 0.00000
  2 9.19871 -2.26897e-11 0.00000
  3 9.19871 -2.26897e-11 0.00000
  4 9.19871 -2.26897e-11 0.00000
</Section>

newXOutput 326

<Section columns = "stress_xx | stress_yy | stress_xy">
  1 7.38982 -1.81525e-11 0.00000
  2 7.38982 -1.81525e-11 0.00000
  3 7.38982 -1.81525e-11 0.00000
  4 7.38982 -1.81525e-11 0.00000
</Section>

newXOutput 327

<Section columns = "stress_xx | stress_yy | stress_xy">
  1 5.59202 -1.36812e-11 0.00000
  2 5.59202 -1.36812e-11 0.00000
  3 5.59202 -1.36812e-11 0.00000
  4 5.59202 -1.36812e-11 0.00000
</Section>

newXOutput 328

<Section columns = "stress_xx | stress_yy | stress_xy">
  1 3.80522 -9.27042e-12 0.00000
  2 3.80522 -9.27042e-12 0.00000
  3 3.80522 -9.27042e-12 0.00000
  4 3.80522 -9.27042e-12 0.00000
</Section>

newXOutput 329

<Section columns = "stress_xx | stress_yy | stress_xy">
  1 2.02934 -4.92469e-12 0.00000
  2 2.02934 -4.92469e-12 0.00000
  3 2.02934 -4.92469e-12 0.00000
  4 2.02934 -4.92469e-12 0.00000
</Section>

newXOutput 330

<Section columns = "stress_xx | stress_yy | stress_xy">
  1 0.264290 -8.36844e-07 0.00000
  2 0.264290 -8.36844e-07 0.00000
  3 0.264290 -8.36844e-07 0.00000
  4 0.264290 -8.36844e-07 0.00000
</Section>

newXOutput 331

<Section columns = "stress_xx | stress_yy | stress_xy">
  1 0.00000 0.00000 0.00000
  2 0.00000 0.00000 0.00000
  3 0.00000 0.00000 0.00000
  4 0.00000 0.00000 0.00000
</Section>

newXOutput 332

<Section columns = "stress_xx | stress_yy | stress_xy">
  1 0.00000 0.00000 0.00000
  2 0.00000 0.00000 0.00000
  3 0.00000 0.00000 0.00000
  4 0.00000 0.00000 0.00000
</Section>

newXOutput 333

<Section columns = "stress_xx | stress_yy | stress_xy">
  1 0.00000 0.00000 0.00000
  2 0.00000 0.00000 0.00000
  3 0.00000 0.00000 0.00000
  4 0.00000 0.00000 0.00000
</Section>

newXOutput 334

<Section columns = "stress_xx | stress_yy | stress_xy">
  1 0.00000 0.00000 0.00000
  2 0.00000 0.00000 0.00000
  3 0.00000 0.00000 0.00000
  4 0.00000 0.00000 0.00000
</Section>

newXOutput 335

<Section columns = "stress_xx | stress_yy | stress_xy">
  1 0.00000 0.00000 0.00000
  2 0.00000 0.00000 0.00000
  3 0.00000 0.00000 0.00000
  4 0.00000 0.00000 0.00000
</Section>

newXOutput 336

<Section columns = "stress_xx | stress_yy | stress_xy">
  1 0.00000 0.00000 0.00000
  2 0.00000 0.00000 0.00000
  3 0.00000 0.00000 0.00000
  4 0.00000 0.00000 0.00000
</Section>

newXOutput 337

<Section columns = "stress_xx | stress_yy | stress_xy">
  1 0.00000 0.00000 0.00000
  2 0.00000 0.00000 0.00000
  3 0.00000 0.00000 0.00000
  4 0.00000 0.00000 0.00000
</Section>

newXOutput 338

<Section columns = "stress_xx | stress_yy | stress_xy">
  1 0.00000 0.00000 0.00000
  2 0.00000 0.00000 0.00000
  3 0.00000 0.00000 0.00000
  4 0.00000 0.00000 0.00000
</Section>

newXOutput 339

<Section columns = "stress_xx | stress_yy | stress_xy">
  1 0.00000 0.00000 0.00000
  2 0.00000 0.00000 0.00000
  3 0.00000 0.00000 0.00000
  4 0.00000 0.00000 0.00000
</Section>

newXOutput 340

<Section columns = "stress_xx | stress_yy | stress_xy">
  1 0.00000 0.00000 0.00000
  2 0.00000 0.00000 0.00000
  3 0.00000 0.00000 0.00000
  4 0.00000 0.00000 0.00000
</Section>

newXOutput 341

<Section columns = "stress_xx | stress_yy | stress_xy">
  1 0.00000 0.00000 0.00000
  2 0.00000 0.00000 0.00000
  3 0.00000 0.00000 0.00000
  4 0.00000 0.00000 0.00000
</Section>

newXOutput 342

<Section columns = "stress_xx | stress_yy | stress_xy">
  1 0.00000 0.00000 0.00000
  2 0.00000 0.00000 0.00000
  3 0.00000 0.00000 0.00000
  4 0.00000 0.00000 0.00000
</Section>

newXOutput 343

<Section columns = "stress_xx | stress_yy | stress_xy">
  1 0.00000 0.00000 0.00000
  2 0.00000 0.00000 0.00000
  3 0.00000 0.00000 0.00000
  4 0.00000 0.00000 0.00000
</Section>

newXOutput 344

<Section columns = "stress_xx | stress_yy | stress_xy">
  1 0.00000 0.00000 0.00000
  2 0.00000 0.00000 0.00000
  3 0.00000 0.00000 0.00000
  4 0.00000 0.00000 0.00000
</Section>

newXOutput 345

<Section columns = "stress_xx | stress_yy | stress_xy">
  1 0.00000 0.00000 0.00000
  2 0.00000 0.00000 0.00000
  3 0.00000 0.00000 0.00000
  4 0.00000 0.00000 0.00000
</Section>

newXOutput 346

<Section columns = "stress_xx | stress_yy | stress_xy">
  1 0.00000 0.00000 0.00000
  2 0.00000 0.00000 0.00000
  3 0.00000 0.00000 0.00000
  4 0.00000 0.00000 0.00000
</Section>

newXOutput 347

<Section columns = "stress_xx | stress_yy | stress_xy">
  1 0.00000 0.00000 0.00000
  2 0.00000 0.00000 0.00000
  3 0.00000 0.00000 0.00000
  4 0.00000 0.00000 0.00000
</Section>

newXOutput 348

<Section columns = "stress_xx | stress_yy | stress_xy">
  1 0.00000 0.00000 0.00000
  2 0.00000 0.00000 0.00000
  3 0.00000 0.00000 0.00000
  4 0.00000 0.00000 0.00000
</Section>

newXOutput 349

<Section columns = "stress_xx | stress_yy | stress_xy">
  1 0.00000 0.00000 0.00000
  2 0.00000 0.00000 0.00000
  3 0.00000 0.00000 0.00000
  4 0.00000 0.00000 0.00000
</Section>

newXOutput 350

<Section columns = "stress_xx | stress_yy | stress_xy">
  1 0.00000 0.00000 0.00000
  2 0.00000 0.00000 0.00000
  3 0.00000 0.00000 0.00000
  4 0.00000 0.00000 0.00000
</Section>

newXOutput 351

<Section columns = "stress_xx | stress_yy | stress_xy">
  1 0.00000 0.00000 0.00000
  2 0.00000 0.00000 0.00000
  3 0.00000 0.00000 0.00000
  4 0.00000 0.00000 0.00000
</Section>

newXOutput 352

<Section columns = "stress_xx | stress_yy | stress_xy">
  1 0.00000 0.00000 0.00000
  2 0.00000 0.00000 0.00000
  3 0.00000 0.00000 0.00000
  4 0.00000 0.00000 0.00000
</Section>

newXOutput 353

<Section columns = "stress_xx | stress_yy | stress_xy">
  1 0.00000 0.00000 0.00000
  2 0.00000 0.00000 0.00000
  3 0.00000 0.00000 0.00000
  4 0.00000 0.00000 0.00000
</Section>

newXOutput 354

<Section columns = "stress_xx | stress_yy | stress_xy">
  1 0.00000 0.00000 0.00000
  2 0.00000 0.00000 0.00000
  3 0.00000 0.00000 0.00000
  4 0.00000 0.00000 0.00000
</Section>

newXOutput 355

<Section columns = "stress_xx | stress_yy | stress_xy">
  1 0.00000 0.00000 0.00000
  2 0.00000 0.00000 0.00000
  3 0.00000 0.00000 0.00000
  4 0.00000 0.00000 0.00000
</Section>

newXOutput 356

<Section columns = "stress_xx | stress_yy | stress_xy">
  1 0.00000 0.00000 0.00000
  2 0.00000 0.00000 0.00000
  3 0.00000 0.00000 0.00000
  4 0.00000 0.00000 0.00000
</Section>

newXOutput 357

<Section columns = "stress_xx | stress_yy | stress_xy">
  1 0.00000 0.00000 0.00000
  2 0.00000 0.00000 0.00000
  3 0.00000 0.00000 0.00000
  4 0.00000 0.00000 0.00000
</Section>

newXOutput 358

<Section columns = "stress_xx | stress_yy | stress_xy">
  1 0.00000 0.00000 0.00000
  2 0.00000 0.00000 0.00000
  3 0.00000 0.00000 0.00000
  4 0.00000 0.00000 0.00000
</Section>

newXOutput 359

<Section columns = "stress_xx | stress_yy | stress_xy">
  1 0.00000 0.00000 0.00000
  2 0.00000 0.00000 0.00000
  3 0.00000 0.00000 0.00000
  4 0.00000 0.00000 0.00000
</Section>

newXOutput 360

<Section columns = "stress_xx | stress_yy | stress_xy">
  1 0.00000 0.00000 0.00000
  2 0.00000 0.00000 0.00000
  3 0.00000 0.00000 0.00000
  4 0.00000 0.00000 0.00000
</Section>

newXOutput 361

<Section columns = "stress_xx | stress_yy | stress_xy">
  1 0.00000 0.00000 0.00000
  2 0.00000 0.00000 0.00000
  3 0.00000 0.00000 0.00000
  4 0.00000 0.00000 0.00000
</Section>

newXOutput 362

<Section columns = "stress_xx | stress_yy | stress_xy">
  1 0.00000 0.00000 0.00000
  2 0.00000 0.00000 0.00000
  3 0.00000 0.00000 0.00000
  4 0.00000 0.00000 0.00000
</Section>

newXOutput 363

<Section columns = "stress_xx | stress_yy | stress_xy">
  1 0.00000 0.00000 0.00000
  2 0.00000 0.00000 0.00000
  3 0.00000 0.00000 0.00000
  4 0.00000 0.00000 0.00000
</Section>

newXOutput 364

<Section columns = "stress_xx | stress_yy | stress_xy">
  1 0.00000 0.00000 0.00000
  2 0.00000 0.00000 0.00000
  3 0.00000 0.00000 0.00000
  4 0.00000 0.00000 0.00000
</Section>

newXOutput 365

<Section columns = "stress_xx | stress_yy | stress_xy">
  1 0.00000 0.00000 0.00000
  2 0.00000 0.00000 0.00000
  3 0.00000 0.00000 0.00000
  4 0.00000 0.00000 0.00000
</Section>

newXOutput 366

<Section columns = "stress_xx | stress_yy | stress_xy">
  1 0.00000 0.00000 0.00000
  2 0.00000 0.00000 0.00000
  3 0.00000 0.00000 0.00000
  4 0.00000 0.00000 0.00000
</Section>

newXOutput 367

<Section columns = "stress_xx | stress_yy | stress_xy">
  1 0.00000 0.00000 0.00000
  2 0.00000 0.00000 0.00000
  3 0.00000 0.00000 0.00000
  4 0.00000 0.00000 0.00000
</Section>

newXOutput 368

<Section columns = "stress_xx | stress_yy | stress_xy">
  1 0.00000 0.00000 0.00000
  2 0.00000 0.00000 0.00000
  3 0.00000 0.00000 0.00000
  4 0.00000 0.00000 0.00000
</Section>

newXOutput 369

<Section columns = "stress_xx | stress_yy | stress_xy">
  1 0.00000 0.00000 0.00000
  2 0.00000 0.00000 0.00000
  3 0.00000 0.00000 0.00000
  4 0.00000 0.00000 0.00000
</Section>

newXOutput 370

<Section columns = "stress_xx | stress_yy | stress_xy">
  1 0.00000 0.00000 0.00000
  2 0.00000 0.00000 0.00000
  3 0.00000 0.00000 0.00000
  4 0.00000 0.00000 0.00000
</Section>

newXOutput 371

<Section columns = "stress_xx | stress_yy | stress_xy">
  1 0.00000 0.00000 0.00000
  2 0.00000 0.00000 0.00000
  3 0.00000 0.00000 0.00000
  4 0.00000 0.00000 0.00000
</Section>

newXOutput 372

<Section columns = "stress_xx | stress_yy | stress_xy">
  1 0.00000 0.00000 0.00000
  2 0.00000 0.00000 0.00000
  3 0.00000 0.00000 0.00000
  4 0.00000 0.00000 0.00000
</Section>

newXOutput 373

<Section columns = "stress_xx | stress_yy | stress_xy">
  1 0.00000 0.00000 0.00000
  2 0.00000 0.00000 0.00000
  3 0.00000 0.00000 0.00000
  4 0.00000 0.00000 0.00000
</Section>

newXOutput 374

<Section columns = "stress_xx | stress_yy | stress_xy">
  1 0.00000 0.00000 0.00000
  2 0.00000 0.00000 0.00000
  3 0.00000 0.00000 0.00000
  4 0.00000 0.00000 0.00000
</Section>

newXOutput 375

<Section columns = "stress_xx | stress_yy | stress_xy">
  1 0.00000 0.00000 0.00000
  2 0.00000 0.00000 0.00000
  3 0.00000 0.00000 0.00000
  4 0.00000 0.00000 0.00000
</Section>

newXOutput 376

<Section columns = "stress_xx | stress_yy | stress_xy">
  1 0.00000 0.00000 0.00000
  2 0.00000 0.00000 0.00000
  3 0.00000 0.00000 0.00000
  4 0.00000 0.00000 0.00000
</Section>

newXOutput 377

<Section columns = "stress_xx | stress_yy | stress_xy">
  1 0.00000 0.00000 0.00000
  2 0.00000 0.00000 0.00000
  3 0.00000 0.00000 0.00000
  4 0.00000 0.00000 0.00000
</Section>

newXOutput 378

<Section columns = "stress_xx | stress_yy | stress_xy">
  1 0.00000 0.00000 0.00000
  2 0.00000 0.00000 0.00000
  3 0.00000 0.00000 0.00000
  4 0.00000 0.00000 0.00000
</Section>

newXOutput 379

<Section columns = "stress_xx | stress_yy | stress_xy">
  1 0.00000 0.00000 0.00000
  2 0.00000 0.00000 0.00000
  3 0.00000 0.00000 0.00000
  4 0.00000 0.00000 0.00000
</Section>

newXOutput 380

<Section columns = "stress_xx | stress_yy | stress_xy">
  1 0.00000 0.00000 0.00000
  2 0.00000 0.00000 0.00000
  3 0.00000 0.00000 0.00000
  4 0.00000 0.00000 0.00000
</Section>

newXOutput 381

<Section columns = "stress_xx | stress_yy | stress_xy">
  1 0.00000 0.00000 0.00000
  2 0.00000 0.00000 0.00000
  3 0.00000 0.00000 0.00000
  4 0.00000 0.00000 0.00000
</Section>

newXOutput 382

<Section columns = "stress_xx | stress_yy | stress_xy">
  1 0.00000 0.00000 0.00000
  2 0.00000 0.00000 0.00000
  3 0.00000 0.00000 0.00000
  4 0.00000 0.00000 0.00000
</Section>

newXOutput 383

<Section columns = "stress_xx | stress_yy | stress_xy">
  1 0.00000 0.00000 0.00000
  2 0.00000 0.00000 0.00000
  3 0.00000 0.00000 0.00000
  4 0.00000 0.00000 0.00000
</Section>

newXOutput 384

<Section columns = "stress_xx | stress_yy | stress_xy">
  1 0.00000 0.00000 0.00000
  2 0.00000 0.00000 0.00000
  3 0.00000 0.00000 0.00000
  4 0.00000 0.00000 0.00000
</Section>

newXOutput 385

<Section columns = "stress_xx | stress_yy | stress_xy">
  1 0.00000 0.00000 0.00000
  2 0.00000 0.00000 0.00000
  3 0.00000 0.00000 0.00000
  4 0.00000 0.00000 0.00000
</Section>

newXOutput 386

<Section columns = "stress_xx | stress_yy | stress_xy">
  1 0.00000 0.00000 0.00000
  2 0.00000 0.00000 0.00000
  3 0.00000 0.00000 0.00000
  4 0.00000 0.00000 0.00000
</Section>

newXOutput 387

<Section columns = "stress_xx | stress_yy | stress_xy">
  1 0.00000 0.00000 0.00000
  2 0.00000 0.00000 0.00000
  3 0.00000 0.00000 0.00000
  4 0.00000 0.00000 0.00000
</Section>

newXOutput 388

<Section columns = "stress_xx | stress_yy | stress_xy">
  1 0.00000 0.00000 0.00000
  2 0.00000 0.00000 0.00000
  3 0.00000 0.00000 0.00000
  4 0.00000 0.00000 0.00000
</Section>

newXOutput 389

<Section columns = "stress_xx | stress_yy | stress_xy">
  1 0.00000 0.00000 0.00000
  2 0.00000 0.00000 0.00000
  3 0.00000 0.00000 0.00000
  4 0.00000 0.00000 0.00000
</Section>

newXOutput 390

<Section columns = "stress_xx | stress_yy | stress_xy">
  1 0.00000 0.00000 0.00000
  2 0.00000 0.00000 0.00000
  3 0.00000 0.00000 0.00000
  4 0.00000 0.00000 0.00000
</Section>

newXOutput 391

<Section columns = "stress_xx | stress_yy | stress_xy">
  1 0.00000 0.00000 0.00000
  2 0.00000 0.00000 0.00000
  3 0.00000 0.00000 0.00000
  4 0.00000 0.00000 0.00000
</Section>

newXOutput 392

<Section columns = "stress_xx | stress_yy | stress_xy">
  1 0.00000 0.00000 0.00000
  2 0.00000 0.00000 0.00000
  3 0.00000 0.00000 0.00000
  4 0.00000 0.00000 0.00000
</Section>

newXOutput 393

<Section columns = "stress_xx | stress_yy | stress_xy">
  1 0.00000 0.00000 0.00000
  2 0.00000 0.00000 0.00000
  3 0.00000 0.00000 0.00000
  4 0.00000 0.00000 0.00000
</Section>

newXOutput 394

<Section columns = "stress_xx | stress_yy | stress_xy">
  1 0.00000 0.00000 0.00000
  2 0.00000 0.00000 0.00000
  3 0.00000 0.00000 0.00000
  4 0.00000 0.00000 0.00000
</Section>

newXOutput 395

<Section columns = "stress_xx | stress_yy | stress_xy">
  1 0.00000 0.00000 0.00000
  2 0.00000 0.00000 0.00000
  3 0.00000 0.00000 0.00000
  4 0.00000 0.00000 0.00000
</Section>

newXOutput 396

<Section columns = "stress_xx | stress_yy | stress_xy">
  1 0.00000 0.00000 0.00000
  2 0.00000 0.00000 0.00000
  3 0.00000 0.00000 0.00000
  4 0.00000 0.00000 0.00000
</Section>

newXOutput 397

<Section columns = "stress_xx | stress_yy | stress_xy">
  1 0.00000 0.00000 0.00000
  2 0.00000 0.00000 0.00000
  3 0.00000 0.00000 0.00000
  4 0.00000 0.00000 0.00000
</Section>

newXOutput 398

<Section columns = "stress_xx | stress_yy | stress_xy">
  1 0.00000 0.00000 0.00000
  2 0.00000 0.00000 0.00000
  3 0.00000 0.00000 0.00000
  4 0.00000 0.00000 0.00000
</Section>

newXOutput 399

<Section columns = "stress_xx | stress_yy | stress_xy">
  1 0.00000 0.00000 0.00000
  2 0.00000 0.00000 0.00000
  3 0.00000 0.00000 0.00000
  4 0.00000 0.00000 0.00000
</Section>

newXOutput 400

<Section columns = "stress_xx | stress_yy | stress_xy">
  1 0.00000 0.00000 0.00000
  2 0.00000 0.00000 0.00000
  3 0.00000 0.00000 0.00000
  4 0.00000 0.00000 0.00000
</Section>

newXOutput 401

<Section columns = "stress_xx | stress_yy | stress_xy">
  1 0.00000 0.00000 0.00000
  2 0.00000 0.00000 0.00000
  3 0.00000 0.00000 0.00000
  4 0.00000 0.00000 0.00000
</Section>

newXOutput 402

<Section columns = "stress_xx | stress_yy | stress_xy">
  1 0.00000 0.00000 0.00000
  2 0.00000 0.00000 0.00000
  3 0.00000 0.00000 0.00000
  4 0.00000 0.00000 0.00000
</Section>

