newXOutput 1

<Section columns = "stress_xx | stress_yy | stress_xy">
  1 0.00000 0.00000 0.00000
  2 0.00000 0.00000 0.00000
  3 0.00000 0.00000 0.00000
  4 0.00000 0.00000 0.00000
  5 0.00000 0.00000 0.00000
  6 0.00000 0.00000 0.00000
  7 0.00000 0.00000 0.00000
  8 0.00000 0.00000 0.00000
  9 0.00000 0.00000 0.00000
  10 0.00000 0.00000 0.00000
  11 0.00000 0.00000 0.00000
  12 0.00000 0.00000 0.00000
  13 0.00000 0.00000 0.00000
  14 0.00000 0.00000 0.00000
  15 0.00000 0.00000 0.00000
  16 0.00000 0.00000 0.00000
  17 0.00000 0.00000 0.00000
  18 0.00000 0.00000 0.00000
  19 0.00000 0.00000 0.00000
  20 0.00000 0.00000 0.00000
  21 0.00000 0.00000 0.00000
  22 0.00000 0.00000 0.00000
  23 0.00000 0.00000 0.00000
  24 0.00000 0.00000 0.00000
  25 0.00000 0.00000 0.00000
  26 0.00000 0.00000 0.00000
  27 0.00000 0.00000 0.00000
  28 0.00000 0.00000 0.00000
  29 0.00000 0.00000 0.00000
  30 0.00000 0.00000 0.00000
  31 0.00000 0.00000 0.00000
  32 0.00000 0.00000 0.00000
  33 0.00000 0.00000 0.00000
  34 0.00000 0.00000 0.00000
  35 0.00000 0.00000 0.00000
  36 0.00000 0.00000 0.00000
  37 0.00000 0.00000 0.00000
  38 0.00000 0.00000 0.00000
  39 0.00000 0.00000 0.00000
  40 0.00000 0.00000 0.00000
  41 0.00000 0.00000 0.00000
  42 0.00000 0.00000 0.00000
  43 0.00000 0.00000 0.00000
  44 0.00000 0.00000 0.00000
  45 0.00000 0.00000 0.00000
  46 0.00000 0.00000 0.00000
  47 0.00000 0.00000 0.00000
  48 0.00000 0.00000 0.00000
  49 0.00000 0.00000 0.00000
  50 0.00000 0.00000 0.00000
  51 0.00000 0.00000 0.00000
  52 0.00000 0.00000 0.00000
  53 0.00000 0.00000 0.00000
  54 0.00000 0.00000 0.00000
  55 0.00000 0.00000 0.00000
  56 0.00000 0.00000 0.00000
  57 0.00000 0.00000 0.00000
  58 0.00000 0.00000 0.00000
  59 0.00000 0.00000 0.00000
  60 0.00000 0.00000 0.00000
  61 0.00000 0.00000 0.00000
  62 0.00000 0.00000 0.00000
  63 0.00000 0.00000 0.00000
  64 0.00000 0.00000 0.00000
  65 0.00000 0.00000 0.00000
  66 0.00000 0.00000 0.00000
  67 0.00000 0.00000 0.00000
  68 0.00000 0.00000 0.00000
  69 0.00000 0.00000 0.00000
  70 0.00000 0.00000 0.00000
  71 0.00000 0.00000 0.00000
  72 0.00000 0.00000 0.00000
  73 0.00000 0.00000 0.00000
  74 0.00000 0.00000 0.00000
  75 0.00000 0.00000 0.00000
  76 0.00000 0.00000 0.00000
  77 0.00000 0.00000 0.00000
  78 0.00000 0.00000 0.00000
  79 0.00000 0.00000 0.00000
  80 0.00000 0.00000 0.00000
  81 0.00000 0.00000 0.00000
  82 0.00000 0.00000 0.00000
  83 0.00000 0.00000 0.00000
  84 0.00000 0.00000 0.00000
  85 0.00000 0.00000 0.00000
  86 0.00000 0.00000 0.00000
  87 0.00000 0.00000 0.00000
  88 0.00000 0.00000 0.00000
  89 0.00000 0.00000 0.00000
  90 0.00000 0.00000 0.00000
  91 0.00000 0.00000 0.00000
  92 0.00000 0.00000 0.00000
  93 0.00000 0.00000 0.00000
  94 0.00000 0.00000 0.00000
  95 0.00000 0.00000 0.00000
  96 0.00000 0.00000 0.00000
  97 0.00000 0.00000 0.00000
  98 0.00000 0.00000 0.00000
  99 0.00000 0.00000 0.00000
  100 0.00000 0.00000 0.00000
  101 0.00000 0.00000 0.00000
  102 0.00000 0.00000 0.00000
  103 0.00000 0.00000 0.00000
  104 0.00000 0.00000 0.00000
  105 0.00000 0.00000 0.00000
  106 0.00000 0.00000 0.00000
  107 0.00000 0.00000 0.00000
  108 0.00000 0.00000 0.00000
  109 0.00000 0.00000 0.00000
  110 0.00000 0.00000 0.00000
  111 0.00000 0.00000 0.00000
  112 0.00000 0.00000 0.00000
  113 0.00000 0.00000 0.00000
  114 0.00000 0.00000 0.00000
  115 0.00000 0.00000 0.00000
  116 0.00000 0.00000 0.00000
  117 0.00000 0.00000 0.00000
  118 0.00000 0.00000 0.00000
  119 0.00000 0.00000 0.00000
  120 0.00000 0.00000 0.00000
  121 0.00000 0.00000 0.00000
  122 0.00000 0.00000 0.00000
  123 0.00000 0.00000 0.00000
  124 0.00000 0.00000 0.00000
  125 0.00000 0.00000 0.00000
  126 0.00000 0.00000 0.00000
  127 0.00000 0.00000 0.00000
  128 0.00000 0.00000 0.00000
  129 0.00000 0.00000 0.00000
  130 0.00000 0.00000 0.00000
  131 0.00000 0.00000 0.00000
  132 0.00000 0.00000 0.00000
  133 0.00000 0.00000 0.00000
  134 0.00000 0.00000 0.00000
  135 0.00000 0.00000 0.00000
  136 0.00000 0.00000 0.00000
  137 0.00000 0.00000 0.00000
  138 0.00000 0.00000 0.00000
  139 0.00000 0.00000 0.00000
  140 0.00000 0.00000 0.00000
  141 0.00000 0.00000 0.00000
  142 0.00000 0.00000 0.00000
  143 0.00000 0.00000 0.00000
  144 0.00000 0.00000 0.00000
  145 0.00000 0.00000 0.00000
  146 0.00000 0.00000 0.00000
  147 0.00000 0.00000 0.00000
  148 0.00000 0.00000 0.00000
  149 0.00000 0.00000 0.00000
  150 0.00000 0.00000 0.00000
  151 0.00000 0.00000 0.00000
  152 0.00000 0.00000 0.00000
  153 0.00000 0.00000 0.00000
  154 0.00000 0.00000 0.00000
  155 0.00000 0.00000 0.00000
  156 0.00000 0.00000 0.00000
  157 0.00000 0.00000 0.00000
  158 0.00000 0.00000 0.00000
  159 0.00000 0.00000 0.00000
  160 0.00000 0.00000 0.00000
  161 0.00000 0.00000 0.00000
  162 0.00000 0.00000 0.00000
  163 0.00000 0.00000 0.00000
  164 0.00000 0.00000 0.00000
  165 0.00000 0.00000 0.00000
  166 0.00000 0.00000 0.00000
  167 0.00000 0.00000 0.00000
  168 0.00000 0.00000 0.00000
  169 0.00000 0.00000 0.00000
  170 0.00000 0.00000 0.00000
  171 0.00000 0.00000 0.00000
  172 0.00000 0.00000 0.00000
  173 0.00000 0.00000 0.00000
  174 0.00000 0.00000 0.00000
  175 0.00000 0.00000 0.00000
  176 0.00000 0.00000 0.00000
  177 0.00000 0.00000 0.00000
  178 0.00000 0.00000 0.00000
  179 0.00000 0.00000 0.00000
  180 0.00000 0.00000 0.00000
  181 0.00000 0.00000 0.00000
  182 0.00000 0.00000 0.00000
  183 0.00000 0.00000 0.00000
  184 0.00000 0.00000 0.00000
  185 0.00000 0.00000 0.00000
  186 0.00000 0.00000 0.00000
  187 0.00000 0.00000 0.00000
  188 0.00000 0.00000 0.00000
  189 0.00000 0.00000 0.00000
  190 0.00000 0.00000 0.00000
  191 0.00000 0.00000 0.00000
  192 0.00000 0.00000 0.00000
  193 0.00000 0.00000 0.00000
  194 0.00000 0.00000 0.00000
  195 0.00000 0.00000 0.00000
  196 0.00000 0.00000 0.00000
  197 0.00000 0.00000 0.00000
  198 0.00000 0.00000 0.00000
  199 0.00000 0.00000 0.00000
  200 0.00000 0.00000 0.00000
  201 0.00000 0.00000 0.00000
  202 0.00000 0.00000 0.00000
  203 0.00000 0.00000 0.00000
  204 0.00000 0.00000 0.00000
  205 0.00000 0.00000 0.00000
  206 0.00000 0.00000 0.00000
  207 0.00000 0.00000 0.00000
  208 0.00000 0.00000 0.00000
  209 0.00000 0.00000 0.00000
  210 0.00000 0.00000 0.00000
  211 0.00000 0.00000 0.00000
  212 0.00000 0.00000 0.00000
  213 0.00000 0.00000 0.00000
  214 0.00000 0.00000 0.00000
  215 0.00000 0.00000 0.00000
  216 0.00000 0.00000 0.00000
  217 0.00000 0.00000 0.00000
  218 0.00000 0.00000 0.00000
  219 0.00000 0.00000 0.00000
  220 0.00000 0.00000 0.00000
  221 0.00000 0.00000 0.00000
  222 0.00000 0.00000 0.00000
  223 0.00000 0.00000 0.00000
  224 0.00000 0.00000 0.00000
  225 0.00000 0.00000 0.00000
  226 0.00000 0.00000 0.00000
  227 0.00000 0.00000 0.00000
  228 0.00000 0.00000 0.00000
  229 0.00000 0.00000 0.00000
  230 0.00000 0.00000 0.00000
  231 0.00000 0.00000 0.00000
  232 0.00000 0.00000 0.00000
  233 0.00000 0.00000 0.00000
  234 0.00000 0.00000 0.00000
  235 0.00000 0.00000 0.00000
  236 0.00000 0.00000 0.00000
  237 0.00000 0.00000 0.00000
  238 0.00000 0.00000 0.00000
  239 0.00000 0.00000 0.00000
  240 0.00000 0.00000 0.00000
  241 0.00000 0.00000 0.00000
</Section>

newXOutput 2

<Section columns = "stress_xx | stress_yy | stress_xy">
  1 47.1224 0.00000 -3.82992e-15
  2 47.1224 0.00000 1.93695e-14
  3 47.1224 0.00000 9.28490e-15
  4 47.1224 0.00000 -2.25178e-15
  5 47.1224 0.00000 -2.43602e-15
  6 47.1224 0.00000 -6.20365e-15
  7 47.1224 0.00000 -2.99359e-16
  8 47.1224 0.00000 6.40717e-15
  9 47.1224 0.00000 9.06305e-15
  10 47.1224 0.00000 1.27117e-14
  11 47.1224 0.00000 -3.11198e-16
  12 47.1224 0.00000 1.80799e-15
  13 47.1224 0.00000 4.44555e-15
  14 47.1224 0.00000 2.21666e-14
  15 47.1224 0.00000 -6.15636e-15
  16 47.1224 0.00000 1.46846e-14
  17 47.1224 0.00000 3.06844e-14
  18 47.1224 0.00000 2.22839e-14
  19 47.1224 0.00000 -1.37285e-15
  20 47.1224 0.00000 -3.24491e-14
  21 47.1224 0.00000 -1.44295e-14
  22 47.1224 0.00000 4.23877e-14
  23 47.1224 0.00000 3.88269e-14
  24 47.1224 0.00000 -1.75894e-16
  25 47.1224 0.00000 6.45650e-15
  26 47.1224 0.00000 1.47030e-14
  27 47.1224 0.00000 -2.62564e-14
  28 47.1224 0.00000 -7.70382e-15
  29 47.1224 0.00000 4.84237e-15
  30 47.1224 0.00000 -6.50477e-16
  31 47.1224 0.00000 1.72076e-14
  32 47.1224 0.00000 3.55699e-16
  33 47.1224 0.00000 -1.22552e-14
  34 47.1224 0.00000 5.79474e-15
  35 47.1224 0.00000 9.98612e-16
  36 47.1224 0.00000 -2.25781e-14
  37 47.1224 0.00000 -2.66538e-14
  38 47.1224 0.00000 -4.05809e-14
  39 47.1224 0.00000 -2.27804e-14
  40 47.1224 0.00000 -1.46712e-14
  41 47.1224 0.00000 -1.75746e-14
  42 47.1224 0.00000 3.41850e-15
  43 47.1224 0.00000 8.92665e-15
  44 47.1224 0.00000 2.16759e-15
  45 47.1224 0.00000 -5.01557e-15
  46 47.1224 0.00000 -6.86441e-15
  47 47.1224 0.00000 -1.29446e-14
  48 47.1224 0.00000 -1.05965e-14
  49 47.1224 0.00000 -3.75355e-15
  50 47.1224 0.00000 -2.02440e-15
  51 47.1224 0.00000 -2.25977e-15
  52 47.1224 0.00000 -2.67892e-15
  53 47.1224 0.00000 -4.05980e-15
  54 47.1224 0.00000 -2.78349e-15
  55 47.1224 0.00000 0.00000
  56 47.1224 0.00000 -2.67005e-15
  57 47.1224 0.00000 -2.26288e-15
  58 47.1224 0.00000 6.27767e-14
  59 47.1224 0.00000 3.40934e-15
  60 47.1224 0.00000 -1.61203e-14
  61 47.1224 0.00000 -1.59387e-14
  62 47.1224 0.00000 -2.39383e-14
  63 47.1224 0.00000 -1.48740e-14
  64 47.1224 0.00000 4.58991e-14
  65 47.1224 0.00000 -5.85863e-15
  66 47.1224 0.00000 -1.03202e-14
  67 47.1224 0.00000 -2.16353e-14
  68 47.1224 0.00000 1.85675e-14
  69 47.1224 0.00000 -6.07354e-14
  70 47.1224 0.00000 2.86208e-16
  71 47.1224 0.00000 -1.07832e-14
  72 47.1224 0.00000 -1.14443e-14
  73 47.1224 0.00000 -1.49785e-14
  74 47.1224 0.00000 -3.13890e-15
  75 47.1224 0.00000 1.36506e-14
  76 47.1224 0.00000 3.27469e-14
  77 47.1224 0.00000 -1.04734e-14
  78 47.1224 0.00000 -2.75031e-14
  79 47.1224 0.00000 -2.03263e-14
  80 47.1224 0.00000 -2.64672e-14
  81 47.1224 0.00000 5.14403e-14
  82 47.1224 0.00000 -6.58573e-14
  83 47.1224 0.00000 4.28298e-15
  84 47.1224 0.00000 -8.79358e-15
  85 47.1224 0.00000 -3.75142e-14
  86 47.1224 0.00000 3.02304e-15
  87 47.1224 0.00000 -3.96165e-15
  88 47.1224 0.00000 -1.80854e-14
  89 47.1224 0.00000 -7.67439e-15
  90 47.1224 0.00000 -2.28696e-14
  91 47.1224 0.00000 5.14858e-15
  92 47.1224 0.00000 -9.88635e-15
  93 47.1224 0.00000 4.17889e-14
  94 47.1224 0.00000 -3.82357e-15
  95 47.1224 0.00000 3.33840e-15
  96 47.1224 0.00000 1.93179e-14
  97 47.1224 0.00000 -3.36474e-14
  98 47.1224 0.00000 -4.36864e-15
  99 47.1224 0.00000 5.68555e-15
  100 47.1224 0.00000 3.68938e-15
  101 47.1224 0.00000 -2.74276e-14
  102 47.1224 0.00000 -1.68493e-14
  103 47.1224 0.00000 -7.32626e-14
  104 47.1224 0.00000 -6.28661e-15
  105 47.1224 0.00000 2.90307e-14
  106 47.1224 0.00000 1.78183e-14
  107 47.1224 0.00000 7.26545e-14
  108 47.1224 0.00000 -7.63341e-15
  109 47.1224 0.00000 -4.10328e-15
  110 47.1224 0.00000 7.17250e-15
  111 47.1224 0.00000 -3.14089e-15
  112 47.1224 0.00000 1.34623e-14
  113 47.1224 0.00000 -2.89929e-14
  114 47.1224 0.00000 -5.04862e-14
  115 47.1224 0.00000 -2.25570e-14
  116 47.1224 0.00000 -6.94985e-15
  117 47.1224 0.00000 1.42647e-14
  118 47.1224 0.00000 -2.23717e-15
  119 47.1224 0.00000 -1.78166e-14
  120 47.1224 0.00000 -4.11986e-14
  121 47.1224 0.00000 -5.63489e-15
  122 47.1224 0.00000 -2.71136e-14
  123 47.1224 0.00000 -4.96053e-14
  124 47.1224 0.00000 2.57018e-14
  125 47.1224 0.00000 -5.05726e-15
  126 47.1224 0.00000 -1.10642e-15
  127 47.1224 0.00000 -3.37711e-15
  128 47.1224 0.00000 -8.18234e-15
  129 47.1224 0.00000 1.50922e-15
  130 47.1224 0.00000 -7.07910e-15
  131 47.1224 0.00000 -1.53295e-14
  132 47.1224 0.00000 8.26379e-15
  133 47.1224 0.00000 1.08369e-14
  134 47.1224 0.00000 -1.59739e-14
  135 47.1224 0.00000 -1.90696e-14
  136 47.1224 0.00000 -5.45161e-15
  137 47.1224 0.00000 -5.67506e-14
  138 47.1224 0.00000 -1.92624e-15
  139 47.1224 0.00000 -9.72334e-15
  140 47.1224 0.00000 -1.45493e-15
  141 47.1224 0.00000 -5.72826e-15
  142 47.1224 0.00000 -1.87635e-15
  143 47.1224 0.00000 -7.17055e-15
  144 47.1224 0.00000 -4.14272e-14
  145 47.1224 0.00000 -1.40088e-14
  146 47.1224 0.00000 3.53510e-15
  147 47.1224 0.00000 -1.43044e-15
  148 47.1224 0.00000 -3.19136e-15
  149 47.1224 0.00000 -1.03011e-14
  150 47.1224 0.00000 1.21607e-14
  151 47.1224 0.00000 -2.33949e-14
  152 47.1224 0.00000 2.56595e-14
  153 47.1224 0.00000 1.59739e-14
  154 47.1224 0.00000 -1.90177e-14
  155 47.1224 0.00000 -1.84055e-14
  156 47.1224 0.00000 7.58411e-14
  157 47.1224 0.00000 -1.27185e-14
  158 47.1224 0.00000 -3.00941e-15
  159 47.1224 0.00000 4.77240e-14
  160 47.1224 0.00000 -4.13241e-15
  161 47.1224 0.00000 -1.31489e-15
  162 47.1224 0.00000 -7.22540e-15
  163 47.1224 0.00000 -3.03059e-14
  164 47.1224 0.00000 -2.14279e-14
  165 47.1224 0.00000 -1.39926e-15
  166 47.1224 0.00000 -3.89282e-15
  167 47.1224 0.00000 2.81150e-14
  168 47.1224 0.00000 1.32278e-15
  169 47.1224 0.00000 -3.73101e-15
  170 47.1224 0.00000 -2.05904e-14
  171 47.1224 0.00000 -1.32441e-14
  172 47.1224 0.00000 1.81411e-14
  173 47.1224 0.00000 8.02511e-15
  174 47.1224 0.00000 5.97026e-16
  175 47.1224 0.00000 -1.27510e-15
  176 47.1224 0.00000 -3.84067e-15
  177 47.1224 0.00000 -7.56857e-16
  178 47.1224 0.00000 1.09755e-14
  179 47.1224 0.00000 2.40467e-15
  180 47.1224 0.00000 -7.13857e-15
  181 47.1224 0.00000 5.19651e-14
  182 47.1224 0.00000 -4.45351e-14
  183 47.1224 0.00000 1.92659e-15
  184 47.1224 0.00000 -2.94604e-15
  185 47.1224 0.00000 -6.10063e-16
  186 47.1224 0.00000 1.14318e-14
  187 47.1224 0.00000 -8.29204e-15
  188 47.1224 0.00000 -1.33598e-14
  189 47.1224 0.00000 -8.35869e-15
  190 47.1224 0.00000 -6.02182e-15
  191 47.1224 0.00000 -1.37453e-16
  192 47.1224 0.00000 -2.32261e-14
  193 47.1224 0.00000 -4.14611e-14
  194 47.1224 0.00000 8.65017e-14
  195 47.1224 0.00000 -9.55145e-15
  196 47.1224 0.00000 4.60955e-16
  197 47.1224 0.00000 -1.06905e-14
  198 47.1224 0.00000 1.79532e-15
  199 47.1224 0.00000 -9.22767e-15
  200 47.1224 0.00000 -6.33592e-15
  201 47.1224 0.00000 2.01398e-14
  202 47.1224 0.00000 -4.69174e-14
  203 47.1224 0.00000 -1.94243e-14
  204 47.1224 0.00000 1.68810e-14
  205 47.1224 0.00000 -2.35033e-15
  206 47.1224 0.00000 -3.93994e-14
  207 47.1224 0.00000 -5.38380e-15
  208 47.1224 0.00000 -2.67775e-15
  209 47.1224 0.00000 4.98395e-15
  210 47.1224 0.00000 -6.41591e-15
  211 47.1224 0.00000 -8.45186e-15
  212 47.1224 0.00000 2.52215e-14
  213 47.1224 0.00000 -4.18634e-15
  214 47.1224 0.00000 -3.48806e-15
  215 47.1224 0.00000 -2.39183e-14
  216 47.1224 0.00000 8.08058e-15
  217 47.1224 0.00000 2.92688e-15
  218 47.1224 0.00000 -5.18643e-16
  219 47.1224 0.00000 -4.54880e-14
  220 47.1224 0.00000 -1.91814e-14
  221 47.1224 0.00000 1.45484e-14
  222 47.1224 0.00000 4.81603e-14
  223 47.1224 0.00000 -1.39832e-14
  224 47.1224 0.00000 -1.12435e-14
  225 47.1224 0.00000 -1.37139e-14
  226 47.1224 0.00000 -3.62021e-16
  227 47.1224 0.00000 1.68448e-14
  228 47.1224 0.00000 3.22901e-15
  229 47.1224 0.00000 -7.21405e-15
  230 47.1224 0.00000 3.66967e-15
  231 47.1224 0.00000 5.03216e-15
  232 47.1224 0.00000 -9.99789e-15
  233 47.1224 0.00000 5.12269e-14
  234 47.1224 0.00000 6.81714e-15
  235 47.1224 0.00000 1.53725e-15
  236 47.1224 0.00000 -1.48870e-14
  237 47.1224 0.00000 -1.34430e-15
  238 47.1224 0.00000 -2.17679e-14
  239 47.1224 0.00000 1.91483e-14
  240 47.1224 0.00000 -1.37887e-14
  241 47.1224 0.00000 -2.90146e-14
</Section>

newXOutput 3

<Section columns = "stress_xx | stress_yy | stress_xy">
  1 94.4221 0.00000 -5.08185e-15
  2 94.4221 0.00000 -5.38262e-14
  3 94.4221 0.00000 -2.22254e-13
  4 94.4221 0.00000 1.00410e-15
  5 94.4221 0.00000 1.91620e-15
  6 94.4221 0.00000 5.61525e-15
  7 94.4221 0.00000 -4.50399e-15
  8 94.4221 0.00000 9.16614e-15
  9 94.4221 0.00000 1.79767e-14
  10 94.4221 0.00000 2.01003e-14
  11 94.4221 0.00000 1.33245e-14
  12 94.4221 0.00000 5.13026e-14
  13 94.4221 0.00000 1.33269e-14
  14 94.4221 0.00000 -2.18290e-15
  15 94.4221 0.00000 1.60604e-14
  16 94.4221 0.00000 3.97758e-14
  17 94.4221 0.00000 6.71653e-15
  18 94.4221 0.00000 -4.77070e-15
  19 94.4221 0.00000 7.66481e-15
  20 94.4221 0.00000 -1.37887e-14
  21 94.4221 0.00000 -9.29353e-14
  22 94.4221 0.00000 -8.37988e-14
  23 94.4221 0.00000 -4.79047e-14
  24 94.4221 0.00000 -4.31933e-14
  25 94.4221 0.00000 -2.56315e-15
  26 94.4221 0.00000 2.20447e-14
  27 94.4221 0.00000 2.35425e-14
  28 94.4221 0.00000 -3.10782e-14
  29 94.4221 0.00000 -3.65249e-14
  30 94.4221 0.00000 -8.33700e-14
  31 94.4221 0.00000 -1.40205e-13
  32 94.4221 0.00000 -4.54373e-14
  33 94.4221 0.00000 -1.34960e-14
  34 94.4221 0.00000 3.41272e-14
  35 94.4221 0.00000 2.42623e-14
  36 94.4221 0.00000 1.28340e-14
  37 94.4221 0.00000 3.63632e-15
  38 94.4221 0.00000 3.01999e-14
  39 94.4221 0.00000 1.78652e-14
  40 94.4221 0.00000 -4.97365e-15
  41 94.4221 0.00000 1.19571e-14
  42 94.4221 0.00000 2.45079e-14
  43 94.4221 0.00000 1.67891e-14
  44 94.4221 0.00000 -2.77337e-15
  45 94.4221 0.00000 -4.17271e-15
  46 94.4221 0.00000 2.28565e-14
  47 94.4221 0.00000 9.84812e-15
  48 94.4221 0.00000 4.26294e-15
  49 94.4221 0.00000 6.42424e-16
  50 94.4221 0.00000 3.70420e-17
  51 94.4221 0.00000 -3.20394e-15
  52 94.4221 0.00000 -4.79479e-15
  53 94.4221 0.00000 -4.66947e-15
  54 94.4221 0.00000 9.00998e-16
  55 94.4221 0.00000 7.68945e-15
  56 94.4221 0.00000 5.40657e-15
  57 94.4221 0.00000 -1.14218e-14
  58 94.4221 0.00000 6.29726e-14
  59 94.4221 0.00000 3.85902e-14
  60 94.4221 0.00000 2.23410e-15
  61 94.4221 0.00000 1.92435e-14
  62 94.4221 0.00000 -9.94617e-14
  63 94.4221 0.00000 -3.29076e-14
  64 94.4221 0.00000 6.74865e-14
  65 94.4221 0.00000 -2.30829e-14
  66 94.4221 0.00000 1.83720e-15
  67 94.4221 0.00000 -5.42049e-14
  68 94.4221 0.00000 7.26041e-14
  69 94.4221 0.00000 -8.13799e-14
  70 94.4221 0.00000 -6.11926e-14
  71 94.4221 0.00000 2.41679e-14
  72 94.4221 0.00000 1.07184e-14
  73 94.4221 0.00000 8.15986e-15
  74 94.4221 0.00000 -3.13438e-14
  75 94.4221 0.00000 -7.26794e-14
  76 94.4221 0.00000 -3.02355e-14
  77 94.4221 0.00000 -5.29297e-15
  78 94.4221 0.00000 -5.62615e-14
  79 94.4221 0.00000 -1.13696e-14
  80 94.4221 0.00000 1.57055e-14
  81 94.4221 0.00000 9.25328e-14
  82 94.4221 0.00000 -8.35115e-14
  83 94.4221 0.00000 2.99533e-15
  84 94.4221 0.00000 -3.53232e-15
  85 94.4221 0.00000 -5.01892e-15
  86 94.4221 0.00000 -1.06618e-13
  87 94.4221 0.00000 -3.87188e-15
  88 94.4221 0.00000 -1.22784e-13
  89 94.4221 0.00000 7.87467e-15
  90 94.4221 0.00000 -3.51376e-15
  91 94.4221 0.00000 -2.09860e-14
  92 94.4221 0.00000 -1.06067e-14
  93 94.4221 0.00000 5.96103e-14
  94 94.4221 0.00000 1.91796e-15
  95 94.4221 0.00000 7.77133e-16
  96 94.4221 0.00000 4.02740e-14
  97 94.4221 0.00000 1.15416e-14
  98 94.4221 0.00000 -1.81378e-14
  99 94.4221 0.00000 5.71246e-14
  100 94.4221 0.00000 3.18942e-14
  101 94.4221 0.00000 -3.96757e-14
  102 94.4221 0.00000 -4.11292e-15
  103 94.4221 0.00000 -7.50118e-14
  104 94.4221 0.00000 -6.63619e-14
  105 94.4221 0.00000 8.93029e-15
  106 94.4221 0.00000 5.79432e-14
  107 94.4221 0.00000 1.77337e-14
  108 94.4221 0.00000 -9.45871e-15
  109 94.4221 0.00000 5.47671e-15
  110 94.4221 0.00000 -2.38091e-14
  111 94.4221 0.00000 -5.94018e-14
  112 94.4221 0.00000 -3.93975e-14
  113 94.4221 0.00000 -4.21043e-14
  114 94.4221 0.00000 -5.16126e-14
  115 94.4221 0.00000 2.83086e-14
  116 94.4221 0.00000 -8.15464e-15
  117 94.4221 0.00000 3.22228e-14
  118 94.4221 0.00000 -3.03958e-14
  119 94.4221 0.00000 3.67566e-14
  120 94.4221 0.00000 -7.10155e-14
  121 94.4221 0.00000 2.03127e-14
  122 94.4221 0.00000 3.62672e-15
  123 94.4221 0.00000 -6.56907e-14
  124 94.4221 0.00000 5.40436e-14
  125 94.4221 0.00000 -7.44620e-14
  126 94.4221 0.00000 2.18827e-14
  127 94.4221 0.00000 5.06418e-14
  128 94.4221 0.00000 6.59866e-15
  129 94.4221 0.00000 3.29850e-16
  130 94.4221 0.00000 1.85507e-14
  131 94.4221 0.00000 -6.48688e-15
  132 94.4221 0.00000 1.11280e-14
  133 94.4221 0.00000 -2.14915e-14
  134 94.4221 0.00000 1.14591e-14
  135 94.4221 0.00000 -6.64007e-14
  136 94.4221 0.00000 -5.40462e-16
  137 94.4221 0.00000 -8.94212e-14
  138 94.4221 0.00000 -1.57098e-14
  139 94.4221 0.00000 -1.02335e-14
  140 94.4221 0.00000 1.75990e-15
  141 94.4221 0.00000 1.37097e-14
  142 94.4221 0.00000 2.39747e-14
  143 94.4221 0.00000 -5.22599e-14
  144 94.4221 0.00000 -6.01304e-14
  145 94.4221 0.00000 5.62311e-15
  146 94.4221 0.00000 1.24739e-14
  147 94.4221 0.00000 -3.39722e-15
  148 94.4221 0.00000 2.32741e-16
  149 94.4221 0.00000 -8.18823e-15
  150 94.4221 0.00000 4.45451e-14
  151 94.4221 0.00000 1.10182e-14
  152 94.4221 0.00000 9.48587e-15
  153 94.4221 0.00000 3.50890e-14
  154 94.4221 0.00000 2.69983e-14
  155 94.4221 0.00000 3.51876e-15
  156 94.4221 0.00000 6.07950e-14
  157 94.4221 0.00000 -1.86754e-14
  158 94.4221 0.00000 6.27188e-14
  159 94.4221 0.00000 2.07775e-14
  160 94.4221 0.00000 -5.45965e-15
  161 94.4221 0.00000 5.15447e-15
  162 94.4221 0.00000 -4.73887e-14
  163 94.4221 0.00000 2.52636e-14
  164 94.4221 0.00000 1.55181e-14
  165 94.4221 0.00000 2.55890e-14
  166 94.4221 0.00000 -7.77464e-15
  167 94.4221 0.00000 -3.14846e-14
  168 94.4221 0.00000 -5.33930e-14
  169 94.4221 0.00000 4.74057e-15
  170 94.4221 0.00000 -7.65509e-14
  171 94.4221 0.00000 -1.28982e-14
  172 94.4221 0.00000 2.36968e-14
  173 94.4221 0.00000 1.38395e-15
  174 94.4221 0.00000 -9.37081e-14
  175 94.4221 0.00000 2.85218e-15
  176 94.4221 0.00000 6.85862e-16
  177 94.4221 0.00000 -1.37041e-13
  178 94.4221 0.00000 -1.74975e-14
  179 94.4221 0.00000 8.30053e-17
  180 94.4221 0.00000 5.79834e-15
  181 94.4221 0.00000 5.54856e-14
  182 94.4221 0.00000 -3.17499e-14
  183 94.4221 0.00000 -3.53723e-14
  184 94.4221 0.00000 -1.38973e-14
  185 94.4221 0.00000 1.08848e-14
  186 94.4221 0.00000 4.19823e-14
  187 94.4221 0.00000 -8.80637e-14
  188 94.4221 0.00000 2.92077e-14
  189 94.4221 0.00000 2.62627e-14
  190 94.4221 0.00000 -5.22181e-14
  191 94.4221 0.00000 -5.94031e-14
  192 94.4221 0.00000 4.67537e-14
  193 94.4221 0.00000 -4.18721e-14
  194 94.4221 0.00000 1.22429e-14
  195 94.4221 0.00000 -1.65703e-14
  196 94.4221 0.00000 -6.08182e-14
  197 94.4221 0.00000 9.22909e-15
  198 94.4221 0.00000 -1.35639e-14
  199 94.4221 0.00000 -2.23720e-14
  200 94.4221 0.00000 2.94343e-14
  201 94.4221 0.00000 -7.32414e-14
  202 94.4221 0.00000 -3.85851e-14
  203 94.4221 0.00000 -9.17838e-15
  204 94.4221 0.00000 1.85027e-14
  205 94.4221 0.00000 3.05690e-14
  206 94.4221 0.00000 -1.61257e-14
  207 94.4221 0.00000 9.56632e-15
  208 94.4221 0.00000 1.67105e-14
  209 94.4221 0.00000 -1.66506e-14
  210 94.4221 0.00000 -1.89088e-14
  211 94.4221 0.00000 3.70823e-15
  212 94.4221 0.00000 -8.13927e-14
  213 94.4221 0.00000 6.15613e-15
  214 94.4221 0.00000 1.58050e-14
  215 94.4221 0.00000 -1.04668e-14
  216 94.4221 0.00000 -4.90288e-14
  217 94.4221 0.00000 -2.72305e-15
  218 94.4221 0.00000 -1.88332e-14
  219 94.4221 0.00000 1.18408e-14
  220 94.4221 0.00000 -9.69343e-14
  221 94.4221 0.00000 5.71604e-14
  222 94.4221 0.00000 3.19629e-14
  223 94.4221 0.00000 4.30261e-15
  224 94.4221 0.00000 1.39359e-14
  225 94.4221 0.00000 1.16757e-14
  226 94.4221 0.00000 7.24205e-15
  227 94.4221 0.00000 6.44819e-14
  228 94.4221 0.00000 -7.41595e-14
  229 94.4221 0.00000 5.10409e-15
  230 94.4221 0.00000 -2.21843e-14
  231 94.4221 0.00000 1.28869e-14
  232 94.4221 0.00000 -2.85591e-14
  233 94.4221 0.00000 8.36891e-14
  234 94.4221 0.00000 -3.02022e-14
  235 94.4221 0.00000 3.59669e-14
  236 94.4221 0.00000 -1.53421e-16
  237 94.4221 0.00000 2.33543e-14
  238 94.4221 0.00000 2.63420e-14
  239 94.4221 0.00000 -2.13608e-14
  240 94.4221 0.00000 -7.70424e-15
  241 94.4221 0.00000 -4.98312e-15
</Section>

newXOutput 4

<Section columns = "stress_xx | stress_yy | stress_xy">
  1 141.683 0.00000 -3.78207e-15
  2 141.683 0.00000 2.65083e-14
  3 141.683 0.00000 -2.63368e-13
  4 141.683 0.00000 -1.70693e-15
  5 141.683 0.00000 1.18269e-15
  6 141.683 0.00000 5.89090e-15
  7 141.683 0.00000 2.54374e-14
  8 141.683 0.00000 2.81149e-14
  9 141.683 0.00000 1.46377e-14
  10 141.683 0.00000 2.92755e-14
  11 141.683 0.00000 8.74730e-15
  12 141.683 0.00000 4.96251e-14
  13 141.683 0.00000 -2.00804e-15
  14 141.683 0.00000 -6.28344e-14
  15 141.683 0.00000 -4.49838e-14
  16 141.683 0.00000 5.23025e-14
  17 141.683 0.00000 1.07105e-14
  18 141.683 0.00000 -5.42656e-14
  19 141.683 0.00000 -2.26699e-14
  20 141.683 0.00000 -5.17011e-14
  21 141.683 0.00000 -5.64083e-14
  22 141.683 0.00000 6.85462e-14
  23 141.683 0.00000 5.31952e-14
  24 141.683 0.00000 -2.44554e-14
  25 141.683 0.00000 -3.05244e-14
  26 141.683 0.00000 -2.45418e-14
  27 141.683 0.00000 1.10227e-14
  28 141.683 0.00000 -4.29250e-15
  29 141.683 0.00000 -2.28933e-14
  30 141.683 0.00000 -1.16595e-13
  31 141.683 0.00000 -1.15583e-13
  32 141.683 0.00000 -1.85449e-14
  33 141.683 0.00000 4.51983e-14
  34 141.683 0.00000 5.36284e-14
  35 141.683 0.00000 5.63972e-14
  36 141.683 0.00000 4.35231e-14
  37 141.683 0.00000 -3.35705e-14
  38 141.683 0.00000 -6.85117e-15
  39 141.683 0.00000 1.31113e-14
  40 141.683 0.00000 -4.62758e-14
  41 141.683 0.00000 9.96756e-15
  42 141.683 0.00000 5.10433e-14
  43 141.683 0.00000 3.90023e-14
  44 141.683 0.00000 1.69711e-14
  45 141.683 0.00000 2.00384e-14
  46 141.683 0.00000 2.89503e-14
  47 141.683 0.00000 6.54797e-15
  48 141.683 0.00000 -7.35738e-15
  49 141.683 0.00000 -9.37500e-15
  50 141.683 0.00000 -4.23950e-16
  51 141.683 0.00000 -3.81555e-15
  52 141.683 0.00000 -1.49358e-15
  53 141.683 0.00000 -5.04276e-15
  54 141.683 0.00000 8.36973e-17
  55 141.683 0.00000 1.01748e-14
  56 141.683 0.00000 4.09448e-15
  57 141.683 0.00000 1.84922e-14
  58 141.683 0.00000 -1.07360e-13
  59 141.683 0.00000 -1.49944e-14
  60 141.683 0.00000 -5.09885e-14
  61 141.683 0.00000 -6.60442e-15
  62 141.683 0.00000 -7.04125e-14
  63 141.683 0.00000 -1.20840e-13
  64 141.683 0.00000 -8.46341e-14
  65 141.683 0.00000 -4.02891e-15
  66 141.683 0.00000 -9.59744e-15
  67 141.683 0.00000 -1.22807e-13
  68 141.683 0.00000 -3.30237e-14
  69 141.683 0.00000 -6.01824e-14
  70 141.683 0.00000 -2.24741e-14
  71 141.683 0.00000 5.50598e-15
  72 141.683 0.00000 -1.51417e-14
  73 141.683 0.00000 -1.44779e-14
  74 141.683 0.00000 -3.66989e-14
  75 141.683 0.00000 -6.46773e-14
  76 141.683 0.00000 -3.32020e-14
  77 141.683 0.00000 6.19244e-16
  78 141.683 0.00000 -7.12212e-14
  79 141.683 0.00000 -4.16844e-14
  80 141.683 0.00000 -4.94909e-14
  81 141.683 0.00000 -8.64751e-14
  82 141.683 0.00000 1.09068e-16
  83 141.683 0.00000 3.27450e-14
  84 141.683 0.00000 1.46153e-14
  85 141.683 0.00000 -3.02124e-14
  86 141.683 0.00000 5.80127e-15
  87 141.683 0.00000 -1.00422e-16
  88 141.683 0.00000 -1.16240e-13
  89 141.683 0.00000 3.71525e-15
  90 141.683 0.00000 -2.11534e-14
  91 141.683 0.00000 -2.66689e-14
  92 141.683 0.00000 1.16912e-14
  93 141.683 0.00000 -2.70434e-14
  94 141.683 0.00000 -6.90295e-15
  95 141.683 0.00000 -1.10617e-14
  96 141.683 0.00000 -4.61604e-14
  97 141.683 0.00000 6.58548e-14
  98 141.683 0.00000 -2.55008e-14
  99 141.683 0.00000 3.97735e-14
  100 141.683 0.00000 -3.56118e-15
  101 141.683 0.00000 -2.25585e-14
  102 141.683 0.00000 -1.21027e-13
  103 141.683 0.00000 -1.00008e-13
  104 141.683 0.00000 -2.86837e-14
  105 141.683 0.00000 3.60674e-14
  106 141.683 0.00000 -1.36390e-14
  107 141.683 0.00000 -2.58667e-14
  108 141.683 0.00000 1.39738e-15
  109 141.683 0.00000 -1.37891e-15
  110 141.683 0.00000 -3.17092e-14
  111 141.683 0.00000 -5.19136e-14
  112 141.683 0.00000 1.40171e-14
  113 141.683 0.00000 -5.77334e-16
  114 141.683 0.00000 -8.70155e-15
  115 141.683 0.00000 -1.27360e-14
  116 141.683 0.00000 1.72707e-14
  117 141.683 0.00000 -8.85948e-14
  118 141.683 0.00000 -7.76633e-15
  119 141.683 0.00000 -1.44687e-14
  120 141.683 0.00000 -4.15109e-14
  121 141.683 0.00000 2.63458e-14
  122 141.683 0.00000 -2.05742e-14
  123 141.683 0.00000 -3.56035e-14
  124 141.683 0.00000 -6.47666e-14
  125 141.683 0.00000 -4.05426e-14
  126 141.683 0.00000 1.28861e-14
  127 141.683 0.00000 -3.45984e-14
  128 141.683 0.00000 3.03733e-14
  129 141.683 0.00000 -8.58836e-15
  130 141.683 0.00000 5.02184e-16
  131 141.683 0.00000 2.92704e-16
  132 141.683 0.00000 2.14340e-14
  133 141.683 0.00000 -2.46337e-14
  134 141.683 0.00000 2.90258e-15
  135 141.683 0.00000 2.67948e-14
  136 141.683 0.00000 -3.33100e-15
  137 141.683 0.00000 -4.53037e-14
  138 141.683 0.00000 1.42918e-14
  139 141.683 0.00000 -1.20963e-15
  140 141.683 0.00000 -7.17212e-14
  141 141.683 0.00000 -1.55055e-15
  142 141.683 0.00000 -9.59148e-16
  143 141.683 0.00000 -1.29528e-14
  144 141.683 0.00000 -2.10025e-14
  145 141.683 0.00000 4.33832e-15
  146 141.683 0.00000 1.69784e-14
  147 141.683 0.00000 8.47659e-16
  148 141.683 0.00000 -3.74859e-15
  149 141.683 0.00000 -2.19394e-14
  150 141.683 0.00000 -9.70847e-15
  151 141.683 0.00000 2.45227e-14
  152 141.683 0.00000 -1.12838e-13
  153 141.683 0.00000 -6.86804e-14
  154 141.683 0.00000 -4.80026e-14
  155 141.683 0.00000 -6.94416e-14
  156 141.683 0.00000 -3.83086e-14
  157 141.683 0.00000 3.07211e-15
  158 141.683 0.00000 -5.57440e-14
  159 141.683 0.00000 -7.32376e-14
  160 141.683 0.00000 -1.27150e-16
  161 141.683 0.00000 -2.32944e-15
  162 141.683 0.00000 5.17674e-15
  163 141.683 0.00000 -3.18688e-14
  164 141.683 0.00000 -5.47333e-14
  165 141.683 0.00000 1.19823e-14
  166 141.683 0.00000 -8.91738e-16
  167 141.683 0.00000 -2.69912e-14
  168 141.683 0.00000 -7.11169e-14
  169 141.683 0.00000 -1.22400e-15
  170 141.683 0.00000 -7.52679e-14
  171 141.683 0.00000 -7.65060e-15
  172 141.683 0.00000 3.44073e-14
  173 141.683 0.00000 -1.32616e-15
  174 141.683 0.00000 -2.23356e-14
  175 141.683 0.00000 8.00491e-16
  176 141.683 0.00000 -7.30695e-16
  177 141.683 0.00000 -1.70348e-13
  178 141.683 0.00000 1.56920e-14
  179 141.683 0.00000 3.25596e-14
  180 141.683 0.00000 3.13666e-15
  181 141.683 0.00000 -1.39414e-13
  182 141.683 0.00000 -2.23033e-14
  183 141.683 0.00000 -3.28675e-14
  184 141.683 0.00000 5.99775e-15
  185 141.683 0.00000 -1.02724e-14
  186 141.683 0.00000 1.22098e-14
  187 141.683 0.00000 -1.29787e-14
  188 141.683 0.00000 -5.76831e-14
  189 141.683 0.00000 1.65210e-14
  190 141.683 0.00000 -4.38056e-14
  191 141.683 0.00000 -2.46114e-14
  192 141.683 0.00000 -4.92103e-14
  193 141.683 0.00000 -9.55558e-15
  194 141.683 0.00000 -2.28043e-14
  195 141.683 0.00000 -3.83370e-15
  196 141.683 0.00000 -9.35290e-14
  197 141.683 0.00000 -3.88803e-15
  198 141.683 0.00000 -1.17172e-15
  199 141.683 0.00000 9.47209e-15
  200 141.683 0.00000 -1.21596e-13
  201 141.683 0.00000 -4.08570e-14
  202 141.683 0.00000 -3.06850e-14
  203 141.683 0.00000 -6.47050e-15
  204 141.683 0.00000 -1.83485e-14
  205 141.683 0.00000 8.78595e-15
  206 141.683 0.00000 -2.61476e-14
  207 141.683 0.00000 1.09284e-14
  208 141.683 0.00000 6.06016e-15
  209 141.683 0.00000 1.00633e-14
  210 141.683 0.00000 -2.03985e-14
  211 141.683 0.00000 8.72146e-15
  212 141.683 0.00000 3.73524e-14
  213 141.683 0.00000 7.44306e-16
  214 141.683 0.00000 1.96719e-14
  215 141.683 0.00000 -1.09965e-13
  216 141.683 0.00000 -5.15069e-14
  217 141.683 0.00000 1.54180e-14
  218 141.683 0.00000 -2.29869e-14
  219 141.683 0.00000 -1.89308e-14
  220 141.683 0.00000 -6.56792e-14
  221 141.683 0.00000 -4.79235e-14
  222 141.683 0.00000 -8.95207e-14
  223 141.683 0.00000 -2.43666e-14
  224 141.683 0.00000 -7.68439e-15
  225 141.683 0.00000 1.50133e-14
  226 141.683 0.00000 -1.23169e-14
  227 141.683 0.00000 -1.65231e-14
  228 141.683 0.00000 -1.80603e-14
  229 141.683 0.00000 -3.49756e-15
  230 141.683 0.00000 -7.27411e-14
  231 141.683 0.00000 -7.70612e-14
  232 141.683 0.00000 1.75726e-15
  233 141.683 0.00000 -6.70735e-14
  234 141.683 0.00000 -3.79131e-14
  235 141.683 0.00000 2.63092e-14
  236 141.683 0.00000 6.24068e-16
  237 141.683 0.00000 5.27795e-15
  238 141.683 0.00000 -1.51282e-14
  239 141.683 0.00000 -1.24597e-13
  240 141.683 0.00000 2.55444e-14
  241 141.683 0.00000 -2.71108e-14
</Section>

newXOutput 5

<Section columns = "stress_xx | stress_yy | stress_xy">
  1 188.907 0.00000 -7.66226e-15
  2 188.907 0.00000 1.51455e-14
  3 188.907 0.00000 -1.42819e-13
  4 188.907 0.00000 -1.61938e-15
  5 188.907 0.00000 1.19346e-16
  6 188.907 0.00000 1.58616e-14
  7 188.907 0.00000 2.11786e-14
  8 188.907 0.00000 9.97766e-15
  9 188.907 0.00000 4.11041e-14
  10 188.907 0.00000 3.10071e-14
  11 188.907 0.00000 -2.74027e-14
  12 188.907 0.00000 -6.68392e-16
  13 188.907 0.00000 -4.37178e-14
  14 188.907 0.00000 -5.23946e-14
  15 188.907 0.00000 -7.69803e-15
  16 188.907 0.00000 2.45144e-14
  17 188.907 0.00000 -4.95063e-14
  18 188.907 0.00000 -5.62376e-14
  19 188.907 0.00000 -6.15368e-14
  20 188.907 0.00000 -3.74997e-14
  21 188.907 0.00000 -8.47283e-14
  22 188.907 0.00000 -5.15730e-14
  23 188.907 0.00000 -3.00523e-14
  24 188.907 0.00000 -4.32044e-15
  25 188.907 0.00000 -3.02910e-14
  26 188.907 0.00000 -3.07030e-15
  27 188.907 0.00000 6.24916e-14
  28 188.907 0.00000 4.96349e-15
  29 188.907 0.00000 5.80578e-14
  30 188.907 0.00000 2.39886e-14
  31 188.907 0.00000 -1.52034e-13
  32 188.907 0.00000 -5.41003e-14
  33 188.907 0.00000 4.53466e-14
  34 188.907 0.00000 6.65309e-14
  35 188.907 0.00000 7.74181e-14
  36 188.907 0.00000 1.13334e-13
  37 188.907 0.00000 -3.61834e-15
  38 188.907 0.00000 -8.70709e-15
  39 188.907 0.00000 3.67325e-14
  40 188.907 0.00000 -6.51058e-15
  41 188.907 0.00000 -1.51448e-14
  42 188.907 0.00000 2.31213e-14
  43 188.907 0.00000 7.58257e-15
  44 188.907 0.00000 4.43058e-16
  45 188.907 0.00000 1.41912e-15
  46 188.907 0.00000 -1.24684e-14
  47 188.907 0.00000 -7.10829e-15
  48 188.907 0.00000 -6.98248e-15
  49 188.907 0.00000 -5.20314e-15
  50 188.907 0.00000 2.52425e-15
  51 188.907 0.00000 5.04850e-15
  52 188.907 0.00000 -3.28958e-15
  53 188.907 0.00000 -6.67166e-15
  54 188.907 0.00000 2.02745e-15
  55 188.907 0.00000 0.00000
  56 188.907 0.00000 4.20708e-16
  57 188.907 0.00000 3.21946e-14
  58 188.907 0.00000 4.65911e-14
  59 188.907 0.00000 -6.45077e-14
  60 188.907 0.00000 6.87910e-14
  61 188.907 0.00000 -4.24348e-14
  62 188.907 0.00000 -1.43134e-14
  63 188.907 0.00000 -1.72254e-13
  64 188.907 0.00000 -1.15372e-13
  65 188.907 0.00000 2.03045e-15
  66 188.907 0.00000 -9.81056e-15
  67 188.907 0.00000 -3.85416e-14
  68 188.907 0.00000 -5.74171e-14
  69 188.907 0.00000 -2.22905e-14
  70 188.907 0.00000 5.36379e-15
  71 188.907 0.00000 -3.79755e-15
  72 188.907 0.00000 4.30361e-15
  73 188.907 0.00000 -1.53039e-13
  74 188.907 0.00000 -9.00560e-15
  75 188.907 0.00000 -1.95352e-14
  76 188.907 0.00000 1.49008e-14
  77 188.907 0.00000 3.13294e-15
  78 188.907 0.00000 -6.76128e-14
  79 188.907 0.00000 -3.28970e-14
  80 188.907 0.00000 -5.66523e-14
  81 188.907 0.00000 2.27689e-14
  82 188.907 0.00000 -9.23171e-15
  83 188.907 0.00000 2.89707e-14
  84 188.907 0.00000 1.18992e-14
  85 188.907 0.00000 -1.15858e-14
  86 188.907 0.00000 -7.76251e-14
  87 188.907 0.00000 4.41670e-15
  88 188.907 0.00000 9.80765e-14
  89 188.907 0.00000 -4.73342e-15
  90 188.907 0.00000 3.51485e-15
  91 188.907 0.00000 -1.78908e-14
  92 188.907 0.00000 2.29474e-14
  93 188.907 0.00000 6.30059e-14
  94 188.907 0.00000 9.58623e-14
  95 188.907 0.00000 -3.08003e-14
  96 188.907 0.00000 -9.41461e-14
  97 188.907 0.00000 -2.01868e-14
  98 188.907 0.00000 -1.63883e-14
  99 188.907 0.00000 8.11161e-14
  100 188.907 0.00000 -1.61838e-14
  101 188.907 0.00000 -2.85455e-14
  102 188.907 0.00000 -2.21645e-13
  103 188.907 0.00000 2.17793e-14
  104 188.907 0.00000 1.77772e-14
  105 188.907 0.00000 2.13326e-14
  106 188.907 0.00000 -7.00300e-14
  107 188.907 0.00000 -6.49264e-15
  108 188.907 0.00000 -2.34969e-15
  109 188.907 0.00000 8.34613e-15
  110 188.907 0.00000 -4.79464e-14
  111 188.907 0.00000 -3.53794e-15
  112 188.907 0.00000 2.93065e-14
  113 188.907 0.00000 -2.70689e-14
  114 188.907 0.00000 1.75412e-14
  115 188.907 0.00000 -5.01481e-14
  116 188.907 0.00000 1.80600e-14
  117 188.907 0.00000 -2.16372e-13
  118 188.907 0.00000 1.72187e-14
  119 188.907 0.00000 -5.40140e-15
  120 188.907 0.00000 -3.32173e-14
  121 188.907 0.00000 -7.23515e-15
  122 188.907 0.00000 6.79220e-14
  123 188.907 0.00000 1.38379e-14
  124 188.907 0.00000 2.11234e-14
  125 188.907 0.00000 7.44942e-15
  126 188.907 0.00000 3.13590e-14
  127 188.907 0.00000 -6.19502e-14
  128 188.907 0.00000 8.10082e-15
  129 188.907 0.00000 -1.38967e-14
  130 188.907 0.00000 1.40475e-14
  131 188.907 0.00000 -2.10186e-14
  132 188.907 0.00000 1.39370e-15
  133 188.907 0.00000 -3.28891e-15
  134 188.907 0.00000 -1.05036e-14
  135 188.907 0.00000 -6.94726e-14
  136 188.907 0.00000 -2.59989e-15
  137 188.907 0.00000 -1.32436e-14
  138 188.907 0.00000 1.41730e-15
  139 188.907 0.00000 5.63928e-15
  140 188.907 0.00000 -1.16882e-15
  141 188.907 0.00000 -1.35924e-14
  142 188.907 0.00000 3.56349e-14
  143 188.907 0.00000 1.96390e-14
  144 188.907 0.00000 -1.71570e-15
  145 188.907 0.00000 -1.38156e-14
  146 188.907 0.00000 -8.62414e-15
  147 188.907 0.00000 1.14902e-14
  148 188.907 0.00000 -1.78726e-15
  149 188.907 0.00000 4.80741e-14
  150 188.907 0.00000 -4.86857e-14
  151 188.907 0.00000 -1.43339e-14
  152 188.907 0.00000 -1.31045e-13
  153 188.907 0.00000 -1.21195e-13
  154 188.907 0.00000 -1.01917e-13
  155 188.907 0.00000 1.49210e-14
  156 188.907 0.00000 -2.66017e-16
  157 188.907 0.00000 5.60220e-15
  158 188.907 0.00000 -1.82262e-14
  159 188.907 0.00000 -4.34687e-14
  160 188.907 0.00000 -1.89768e-16
  161 188.907 0.00000 8.54413e-14
  162 188.907 0.00000 3.46547e-14
  163 188.907 0.00000 -1.45308e-14
  164 188.907 0.00000 -1.85045e-13
  165 188.907 0.00000 -3.37684e-15
  166 188.907 0.00000 -1.62145e-15
  167 188.907 0.00000 -2.86337e-14
  168 188.907 0.00000 7.63588e-14
  169 188.907 0.00000 4.47434e-15
  170 188.907 0.00000 -3.60509e-14
  171 188.907 0.00000 -2.40047e-14
  172 188.907 0.00000 2.90169e-14
  173 188.907 0.00000 -1.91344e-14
  174 188.907 0.00000 -5.71984e-14
  175 188.907 0.00000 2.08814e-15
  176 188.907 0.00000 -3.12548e-15
  177 188.907 0.00000 -5.60533e-14
  178 188.907 0.00000 4.14383e-14
  179 188.907 0.00000 2.04804e-14
  180 188.907 0.00000 1.33680e-14
  181 188.907 0.00000 1.46263e-14
  182 188.907 0.00000 -8.39127e-15
  183 188.907 0.00000 -3.73826e-14
  184 188.907 0.00000 -1.74441e-14
  185 188.907 0.00000 -1.55005e-14
  186 188.907 0.00000 5.70015e-14
  187 188.907 0.00000 -4.56068e-14
  188 188.907 0.00000 -9.29822e-14
  189 188.907 0.00000 -2.40609e-14
  190 188.907 0.00000 -1.79984e-14
  191 188.907 0.00000 4.02388e-14
  192 188.907 0.00000 -3.31630e-14
  193 188.907 0.00000 6.33736e-14
  194 188.907 0.00000 -6.06894e-15
  195 188.907 0.00000 -1.93495e-15
  196 188.907 0.00000 4.00441e-14
  197 188.907 0.00000 -5.56768e-15
  198 188.907 0.00000 2.05461e-14
  199 188.907 0.00000 4.79667e-14
  200 188.907 0.00000 6.10653e-14
  201 188.907 0.00000 -2.49484e-14
  202 188.907 0.00000 5.83978e-15
  203 188.907 0.00000 9.30927e-16
  204 188.907 0.00000 -2.27507e-14
  205 188.907 0.00000 -1.11443e-14
  206 188.907 0.00000 -7.09439e-14
  207 188.907 0.00000 -1.21989e-15
  208 188.907 0.00000 -4.64030e-14
  209 188.907 0.00000 -2.57736e-14
  210 188.907 0.00000 -9.12950e-15
  211 188.907 0.00000 6.28120e-15
  212 188.907 0.00000 -8.78223e-14
  213 188.907 0.00000 7.51900e-16
  214 188.907 0.00000 8.19937e-15
  215 188.907 0.00000 5.31844e-14
  216 188.907 0.00000 -4.37218e-14
  217 188.907 0.00000 -4.62093e-14
  218 188.907 0.00000 -1.37764e-14
  219 188.907 0.00000 -5.46097e-14
  220 188.907 0.00000 -2.54692e-14
  221 188.907 0.00000 -9.73113e-14
  222 188.907 0.00000 -6.98228e-16
  223 188.907 0.00000 -2.80138e-14
  224 188.907 0.00000 2.53105e-14
  225 188.907 0.00000 5.94075e-14
  226 188.907 0.00000 -4.86589e-15
  227 188.907 0.00000 -1.57362e-14
  228 188.907 0.00000 3.28117e-14
  229 188.907 0.00000 -2.14830e-15
  230 188.907 0.00000 -2.61346e-14
  231 188.907 0.00000 -1.00798e-13
  232 188.907 0.00000 2.34522e-14
  233 188.907 0.00000 -2.67826e-15
  234 188.907 0.00000 -3.05237e-14
  235 188.907 0.00000 2.61039e-14
  236 188.907 0.00000 -6.87711e-15
  237 188.907 0.00000 2.43854e-14
  238 188.907 0.00000 -3.98008e-14
  239 188.907 0.00000 -1.29459e-13
  240 188.907 0.00000 -3.58050e-14
  241 188.907 0.00000 -3.58049e-14
</Section>

newXOutput 6

<Section columns = "stress_xx | stress_yy | stress_xy">
  1 236.093 0.00000 2.54964e-14
  2 236.093 0.00000 8.19473e-14
  3 236.093 0.00000 -4.35999e-14
  4 236.093 0.00000 -3.63670e-14
  5 236.093 0.00000 5.55284e-14
  6 236.093 0.00000 1.14695e-13
  7 236.093 0.00000 1.72397e-13
  8 236.093 0.00000 1.93625e-13
  9 236.093 0.00000 -4.70733e-14
  10 236.093 0.00000 -3.08890e-13
  11 236.093 0.00000 7.04399e-14
  12 236.093 0.00000 -5.38097e-14
  13 236.093 0.00000 -5.17776e-14
  14 236.093 0.00000 -1.59009e-13
  15 236.093 0.00000 -1.20409e-14
  16 236.093 0.00000 5.03899e-14
  17 236.093 0.00000 -1.17667e-13
  18 236.093 0.00000 -1.25915e-13
  19 236.093 0.00000 -9.65251e-14
  20 236.093 0.00000 -8.37872e-14
  21 236.093 0.00000 2.79137e-13
  22 236.093 0.00000 8.70345e-14
  23 236.093 0.00000 2.75685e-14
  24 236.093 0.00000 4.00768e-14
  25 236.093 0.00000 -1.50288e-14
  26 236.093 0.00000 -5.62306e-14
  27 236.093 0.00000 -1.64674e-15
  28 236.093 0.00000 -2.11114e-14
  29 236.093 0.00000 1.50288e-14
  30 236.093 0.00000 -5.30572e-14
  31 236.093 0.00000 -6.13316e-16
  32 236.093 0.00000 -2.53110e-14
  33 236.093 0.00000 -1.55630e-13
  34 236.093 0.00000 -1.31920e-13
  35 236.093 0.00000 6.88135e-14
  36 236.093 0.00000 -6.97055e-14
  37 236.093 0.00000 -1.12151e-13
  38 236.093 0.00000 -1.22042e-13
  39 236.093 0.00000 -9.83977e-14
  40 236.093 0.00000 2.85658e-13
  41 236.093 0.00000 3.70010e-13
  42 236.093 0.00000 1.86991e-13
  43 236.093 0.00000 2.04757e-13
  44 236.093 0.00000 7.73697e-14
  45 236.093 0.00000 -9.29764e-14
  46 236.093 0.00000 -1.39373e-13
  47 236.093 0.00000 -1.58765e-13
  48 236.093 0.00000 -1.99524e-13
  49 236.093 0.00000 -1.23620e-13
  50 236.093 0.00000 -1.75955e-14
  51 236.093 0.00000 -7.51440e-15
  52 236.093 0.00000 2.69508e-14
  53 236.093 0.00000 8.42407e-15
  54 236.093 0.00000 -2.13605e-14
  55 236.093 0.00000 -5.00960e-15
  56 236.093 0.00000 1.89355e-14
  57 236.093 0.00000 -3.79517e-13
  58 236.093 0.00000 -1.17200e-13
  59 236.093 0.00000 2.15678e-13
  60 236.093 0.00000 1.66259e-13
  61 236.093 0.00000 4.58304e-15
  62 236.093 0.00000 1.49689e-13
  63 236.093 0.00000 -1.04828e-13
  64 236.093 0.00000 1.31211e-13
  65 236.093 0.00000 4.57755e-14
  66 236.093 0.00000 -1.09066e-13
  67 236.093 0.00000 -4.66405e-14
  68 236.093 0.00000 3.22596e-14
  69 236.093 0.00000 5.32783e-14
  70 236.093 0.00000 1.34850e-14
  71 236.093 0.00000 1.48475e-13
  72 236.093 0.00000 -2.09160e-13
  73 236.093 0.00000 1.19779e-13
  74 236.093 0.00000 -1.36016e-14
  75 236.093 0.00000 -9.93519e-15
  76 236.093 0.00000 4.70296e-14
  77 236.093 0.00000 6.25139e-14
  78 236.093 0.00000 9.25689e-14
  79 236.093 0.00000 1.41071e-13
  80 236.093 0.00000 6.51968e-14
  81 236.093 0.00000 6.02681e-14
  82 236.093 0.00000 3.36585e-14
  83 236.093 0.00000 -1.05806e-13
  84 236.093 0.00000 1.91506e-14
  85 236.093 0.00000 -3.21684e-14
  86 236.093 0.00000 1.53667e-13
  87 236.093 0.00000 -7.14388e-14
  88 236.093 0.00000 -1.85911e-13
  89 236.093 0.00000 8.32557e-14
  90 236.093 0.00000 -8.39161e-14
  91 236.093 0.00000 2.40593e-13
  92 236.093 0.00000 -2.71292e-13
  93 236.093 0.00000 -1.92382e-13
  94 236.093 0.00000 5.38068e-14
  95 236.093 0.00000 1.11349e-13
  96 236.093 0.00000 1.15233e-13
  97 236.093 0.00000 -1.38711e-13
  98 236.093 0.00000 1.86122e-13
  99 236.093 0.00000 -7.89143e-14
  100 236.093 0.00000 7.98631e-14
  101 236.093 0.00000 -1.45476e-13
  102 236.093 0.00000 -2.30929e-14
  103 236.093 0.00000 1.41458e-13
  104 236.093 0.00000 -1.00690e-13
  105 236.093 0.00000 -5.90496e-14
  106 236.093 0.00000 3.87684e-14
  107 236.093 0.00000 -4.19104e-14
  108 236.093 0.00000 7.08098e-14
  109 236.093 0.00000 -6.11715e-14
  110 236.093 0.00000 1.10652e-13
  111 236.093 0.00000 -4.30315e-14
  112 236.093 0.00000 -1.98976e-14
  113 236.093 0.00000 -8.81470e-14
  114 236.093 0.00000 -2.11651e-14
  115 236.093 0.00000 2.26782e-14
  116 236.093 0.00000 1.41073e-13
  117 236.093 0.00000 2.45983e-13
  118 236.093 0.00000 -7.80365e-15
  119 236.093 0.00000 -7.20829e-14
  120 236.093 0.00000 -3.01790e-14
  121 236.093 0.00000 -4.55710e-14
  122 236.093 0.00000 1.64991e-13
  123 236.093 0.00000 1.03520e-13
  124 236.093 0.00000 6.10916e-14
  125 236.093 0.00000 3.75196e-14
  126 236.093 0.00000 3.80871e-14
  127 236.093 0.00000 4.32553e-14
  128 236.093 0.00000 -7.49723e-14
  129 236.093 0.00000 6.06070e-14
  130 236.093 0.00000 8.91641e-14
  131 236.093 0.00000 -9.89063e-14
  132 236.093 0.00000 1.52673e-13
  133 236.093 0.00000 -5.91050e-14
  134 236.093 0.00000 -1.67186e-14
  135 236.093 0.00000 1.01965e-13
  136 236.093 0.00000 -1.49712e-13
  137 236.093 0.00000 1.07553e-14
  138 236.093 0.00000 1.21238e-13
  139 236.093 0.00000 7.97814e-15
  140 236.093 0.00000 2.45024e-13
  141 236.093 0.00000 -1.94196e-15
  142 236.093 0.00000 7.16341e-15
  143 236.093 0.00000 -2.42490e-15
  144 236.093 0.00000 7.79760e-14
  145 236.093 0.00000 1.19944e-13
  146 236.093 0.00000 1.89670e-14
  147 236.093 0.00000 1.98313e-14
  148 236.093 0.00000 -3.12251e-14
  149 236.093 0.00000 4.88059e-15
  150 236.093 0.00000 3.89743e-14
  151 236.093 0.00000 -1.86295e-13
  152 236.093 0.00000 6.35162e-14
  153 236.093 0.00000 1.28264e-13
  154 236.093 0.00000 1.34501e-13
  155 236.093 0.00000 1.26555e-13
  156 236.093 0.00000 -5.79738e-14
  157 236.093 0.00000 1.74787e-14
  158 236.093 0.00000 1.26602e-13
  159 236.093 0.00000 8.38209e-14
  160 236.093 0.00000 4.81363e-14
  161 236.093 0.00000 2.94887e-14
  162 236.093 0.00000 -1.74829e-14
  163 236.093 0.00000 7.03433e-14
  164 236.093 0.00000 -2.90372e-14
  165 236.093 0.00000 6.56930e-14
  166 236.093 0.00000 -1.41117e-14
  167 236.093 0.00000 1.47716e-14
  168 236.093 0.00000 -2.93145e-14
  169 236.093 0.00000 1.28313e-14
  170 236.093 0.00000 -2.27512e-13
  171 236.093 0.00000 -6.89717e-14
  172 236.093 0.00000 -2.44899e-13
  173 236.093 0.00000 7.23268e-14
  174 236.093 0.00000 1.32256e-13
  175 236.093 0.00000 -6.90272e-14
  176 236.093 0.00000 4.71764e-14
  177 236.093 0.00000 -1.55667e-13
  178 236.093 0.00000 -2.97202e-13
  179 236.093 0.00000 1.69258e-13
  180 236.093 0.00000 -8.44588e-14
  181 236.093 0.00000 -6.97951e-14
  182 236.093 0.00000 -5.37876e-14
  183 236.093 0.00000 2.74832e-13
  184 236.093 0.00000 -1.72169e-14
  185 236.093 0.00000 -5.01586e-14
  186 236.093 0.00000 -1.84037e-13
  187 236.093 0.00000 -1.40327e-13
  188 236.093 0.00000 2.57455e-13
  189 236.093 0.00000 2.43136e-14
  190 236.093 0.00000 1.92516e-13
  191 236.093 0.00000 -8.82559e-14
  192 236.093 0.00000 -1.88138e-14
  193 236.093 0.00000 1.10594e-14
  194 236.093 0.00000 -2.70992e-14
  195 236.093 0.00000 6.79722e-14
  196 236.093 0.00000 8.81971e-15
  197 236.093 0.00000 -1.52207e-14
  198 236.093 0.00000 3.67337e-15
  199 236.093 0.00000 -2.02480e-13
  200 236.093 0.00000 4.01220e-14
  201 236.093 0.00000 -5.96318e-14
  202 236.093 0.00000 1.69433e-13
  203 236.093 0.00000 -2.68259e-13
  204 236.093 0.00000 -1.45423e-14
  205 236.093 0.00000 -1.21782e-14
  206 236.093 0.00000 -3.72616e-16
  207 236.093 0.00000 -4.88007e-14
  208 236.093 0.00000 1.57465e-13
  209 236.093 0.00000 6.64471e-14
  210 236.093 0.00000 1.91840e-14
  211 236.093 0.00000 1.14439e-13
  212 236.093 0.00000 1.38641e-13
  213 236.093 0.00000 -1.60823e-13
  214 236.093 0.00000 5.58538e-14
  215 236.093 0.00000 2.13839e-13
  216 236.093 0.00000 2.60266e-13
  217 236.093 0.00000 1.31126e-13
  218 236.093 0.00000 1.42671e-14
  219 236.093 0.00000 -5.22393e-14
  220 236.093 0.00000 2.94175e-13
  221 236.093 0.00000 1.45990e-13
  222 236.093 0.00000 -2.17439e-13
  223 236.093 0.00000 8.93561e-14
  224 236.093 0.00000 -8.46810e-14
  225 236.093 0.00000 5.23441e-14
  226 236.093 0.00000 -1.27632e-13
  227 236.093 0.00000 1.15449e-15
  228 236.093 0.00000 -1.61475e-13
  229 236.093 0.00000 -9.09851e-14
  230 236.093 0.00000 6.71555e-14
  231 236.093 0.00000 -1.16553e-14
  232 236.093 0.00000 -1.16549e-13
  233 236.093 0.00000 -2.51068e-13
  234 236.093 0.00000 1.56882e-13
  235 236.093 0.00000 1.59718e-13
  236 236.093 0.00000 8.58035e-14
  237 236.093 0.00000 -1.14627e-13
  238 236.093 0.00000 6.06702e-15
  239 236.093 0.00000 -1.36075e-14
  240 236.093 0.00000 2.23871e-14
  241 236.093 0.00000 3.88875e-14
</Section>

newXOutput 7

<Section columns = "stress_xx | stress_yy | stress_xy">
  1 283.245 0.00000 -1.51816e-14
  2 283.245 0.00000 1.03726e-13
  3 283.245 0.00000 -6.37801e-14
  4 283.245 0.00000 7.66395e-15
  5 283.245 0.00000 -3.66314e-14
  6 283.245 0.00000 -2.98242e-14
  7 283.245 0.00000 2.56021e-14
  8 283.245 0.00000 1.01769e-13
  9 283.245 0.00000 1.83097e-13
  10 283.245 0.00000 1.68405e-13
  11 283.245 0.00000 -2.79477e-14
  12 283.245 0.00000 -9.88292e-14
  13 283.245 0.00000 2.42043e-14
  14 283.245 0.00000 1.04232e-13
  15 283.245 0.00000 7.51250e-14
  16 283.245 0.00000 -6.62759e-15
  17 283.245 0.00000 -4.68993e-14
  18 283.245 0.00000 -6.12981e-14
  19 283.245 0.00000 3.55064e-14
  20 283.245 0.00000 4.66995e-15
  21 283.245 0.00000 2.60042e-14
  22 283.245 0.00000 7.43408e-14
  23 283.245 0.00000 1.31673e-13
  24 283.245 0.00000 1.84455e-14
  25 283.245 0.00000 0.00000
  26 283.245 0.00000 -1.00874e-14
  27 283.245 0.00000 -9.94138e-15
  28 283.245 0.00000 -1.58441e-14
  29 283.245 0.00000 1.98828e-14
  30 283.245 0.00000 5.63096e-14
  31 283.245 0.00000 1.22832e-13
  32 283.245 0.00000 4.61301e-14
  33 283.245 0.00000 -2.85164e-14
  34 283.245 0.00000 1.76458e-14
  35 283.245 0.00000 3.81220e-14
  36 283.245 0.00000 1.21850e-13
  37 283.245 0.00000 1.07037e-13
  38 283.245 0.00000 7.04331e-14
  39 283.245 0.00000 1.76436e-14
  40 283.245 0.00000 -6.70958e-14
  41 283.245 0.00000 -1.06864e-14
  42 283.245 0.00000 -1.76405e-13
  43 283.245 0.00000 -1.47419e-13
  44 283.245 0.00000 -6.55328e-14
  45 283.245 0.00000 2.27357e-14
  46 283.245 0.00000 4.68129e-14
  47 283.245 0.00000 5.11452e-14
  48 283.245 0.00000 4.55283e-14
  49 283.245 0.00000 2.28220e-14
  50 283.245 0.00000 5.61948e-15
  51 283.245 0.00000 2.48535e-15
  52 283.245 0.00000 -1.33026e-14
  53 283.245 0.00000 -1.01210e-14
  54 283.245 0.00000 1.57954e-15
  55 283.245 0.00000 0.00000
  56 283.245 0.00000 5.79914e-15
  57 283.245 0.00000 -7.85665e-14
  58 283.245 0.00000 1.10978e-14
  59 283.245 0.00000 -3.14411e-14
  60 283.245 0.00000 -1.89881e-13
  61 283.245 0.00000 -7.68647e-14
  62 283.245 0.00000 -1.03343e-13
  63 283.245 0.00000 -2.96975e-14
  64 283.245 0.00000 -1.40437e-14
  65 283.245 0.00000 -3.23126e-14
  66 283.245 0.00000 1.04055e-15
  67 283.245 0.00000 4.19914e-14
  68 283.245 0.00000 9.65688e-14
  69 283.245 0.00000 -5.54802e-14
  70 283.245 0.00000 -6.70800e-14
  71 283.245 0.00000 5.03054e-14
  72 283.245 0.00000 6.17317e-14
  73 283.245 0.00000 -7.44074e-15
  74 283.245 0.00000 5.56306e-15
  75 283.245 0.00000 -1.01109e-13
  76 283.245 0.00000 -2.27973e-14
  77 283.245 0.00000 -3.91991e-14
  78 283.245 0.00000 3.34786e-14
  79 283.245 0.00000 2.52608e-14
  80 283.245 0.00000 -9.17433e-14
  81 283.245 0.00000 3.36663e-14
  82 283.245 0.00000 3.78745e-15
  83 283.245 0.00000 -6.76673e-14
  84 283.245 0.00000 -7.29633e-15
  85 283.245 0.00000 1.38840e-13
  86 283.245 0.00000 -9.11494e-14
  87 283.245 0.00000 1.33261e-14
  88 283.245 0.00000 7.15577e-14
  89 283.245 0.00000 -6.78230e-15
  90 283.245 0.00000 4.72576e-15
  91 283.245 0.00000 -8.63869e-16
  92 283.245 0.00000 -6.40752e-15
  93 283.245 0.00000 -1.39179e-14
  94 283.245 0.00000 1.57642e-13
  95 283.245 0.00000 9.30339e-14
  96 283.245 0.00000 -2.16281e-14
  97 283.245 0.00000 -7.46365e-14
  98 283.245 0.00000 -1.74573e-14
  99 283.245 0.00000 1.46447e-14
  100 283.245 0.00000 6.76374e-14
  101 283.245 0.00000 1.47251e-13
  102 283.245 0.00000 -6.98617e-14
  103 283.245 0.00000 -4.67639e-14
  104 283.245 0.00000 3.10010e-14
  105 283.245 0.00000 -1.73296e-13
  106 283.245 0.00000 -4.81309e-15
  107 283.245 0.00000 -5.06801e-15
  108 283.245 0.00000 -4.60413e-14
  109 283.245 0.00000 4.29995e-15
  110 283.245 0.00000 -2.56193e-15
  111 283.245 0.00000 1.81589e-14
  112 283.245 0.00000 -6.36390e-14
  113 283.245 0.00000 -2.66827e-14
  114 283.245 0.00000 7.43116e-14
  115 283.245 0.00000 2.85083e-14
  116 283.245 0.00000 1.12649e-14
  117 283.245 0.00000 6.90956e-14
  118 283.245 0.00000 -2.43218e-14
  119 283.245 0.00000 2.76205e-14
  120 283.245 0.00000 6.67687e-14
  121 283.245 0.00000 -5.89083e-14
  122 283.245 0.00000 -4.69423e-14
  123 283.245 0.00000 -1.29106e-13
  124 283.245 0.00000 -1.14070e-13
  125 283.245 0.00000 -7.03263e-14
  126 283.245 0.00000 -1.46108e-14
  127 283.245 0.00000 6.99286e-14
  128 283.245 0.00000 -3.71711e-14
  129 283.245 0.00000 5.29003e-15
  130 283.245 0.00000 -1.53662e-14
  131 283.245 0.00000 1.25364e-14
  132 283.245 0.00000 -8.53580e-14
  133 283.245 0.00000 1.10947e-13
  134 283.245 0.00000 2.00685e-14
  135 283.245 0.00000 -7.46374e-14
  136 283.245 0.00000 2.13590e-14
  137 283.245 0.00000 -4.25517e-14
  138 283.245 0.00000 -6.35809e-15
  139 283.245 0.00000 -3.62193e-14
  140 283.245 0.00000 7.83980e-15
  141 283.245 0.00000 2.35232e-17
  142 283.245 0.00000 -1.37208e-14
  143 283.245 0.00000 5.85099e-15
  144 283.245 0.00000 -6.89643e-14
  145 283.245 0.00000 -3.21223e-14
  146 283.245 0.00000 -3.63826e-14
  147 283.245 0.00000 -8.26025e-14
  148 283.245 0.00000 -1.88996e-14
  149 283.245 0.00000 1.73850e-14
  150 283.245 0.00000 6.60711e-14
  151 283.245 0.00000 2.29470e-14
  152 283.245 0.00000 3.07645e-14
  153 283.245 0.00000 -2.30708e-14
  154 283.245 0.00000 -5.24660e-14
  155 283.245 0.00000 -1.28729e-13
  156 283.245 0.00000 -2.75056e-14
  157 283.245 0.00000 -5.24596e-14
  158 283.245 0.00000 -2.72297e-14
  159 283.245 0.00000 4.24199e-14
  160 283.245 0.00000 -1.32622e-14
  161 283.245 0.00000 -8.81550e-15
  162 283.245 0.00000 4.09850e-14
  163 283.245 0.00000 -1.17298e-13
  164 283.245 0.00000 -1.89517e-14
  165 283.245 0.00000 -1.08672e-14
  166 283.245 0.00000 -3.60183e-15
  167 283.245 0.00000 4.09141e-14
  168 283.245 0.00000 3.02473e-14
  169 283.245 0.00000 3.83924e-15
  170 283.245 0.00000 4.34966e-14
  171 283.245 0.00000 8.42455e-14
  172 283.245 0.00000 2.75628e-15
  173 283.245 0.00000 8.11422e-15
  174 283.245 0.00000 -6.78745e-16
  175 283.245 0.00000 1.47412e-14
  176 283.245 0.00000 -1.10493e-14
  177 283.245 0.00000 7.72701e-14
  178 283.245 0.00000 -5.83129e-14
  179 283.245 0.00000 5.28930e-14
  180 283.245 0.00000 1.71933e-14
  181 283.245 0.00000 -1.99733e-14
  182 283.245 0.00000 1.00827e-13
  183 283.245 0.00000 -1.53839e-14
  184 283.245 0.00000 3.40959e-14
  185 283.245 0.00000 2.88984e-14
  186 283.245 0.00000 -1.10785e-14
  187 283.245 0.00000 9.44508e-14
  188 283.245 0.00000 -3.80371e-14
  189 283.245 0.00000 -8.27950e-14
  190 283.245 0.00000 1.33010e-14
  191 283.245 0.00000 6.26143e-15
  192 283.245 0.00000 1.10761e-13
  193 283.245 0.00000 6.68810e-14
  194 283.245 0.00000 1.47324e-14
  195 283.245 0.00000 -2.05646e-14
  196 283.245 0.00000 -1.70600e-14
  197 283.245 0.00000 -6.52528e-15
  198 283.245 0.00000 1.00086e-13
  199 283.245 0.00000 -3.63690e-14
  200 283.245 0.00000 -7.87989e-14
  201 283.245 0.00000 -9.48381e-14
  202 283.245 0.00000 -8.55327e-14
  203 283.245 0.00000 1.26090e-13
  204 283.245 0.00000 1.18202e-13
  205 283.245 0.00000 8.67526e-14
  206 283.245 0.00000 -3.00406e-14
  207 283.245 0.00000 3.05854e-14
  208 283.245 0.00000 1.70373e-14
  209 283.245 0.00000 -6.24830e-14
  210 283.245 0.00000 6.99896e-15
  211 283.245 0.00000 -9.76599e-15
  212 283.245 0.00000 -5.31086e-14
  213 283.245 0.00000 3.49838e-14
  214 283.245 0.00000 -8.26934e-14
  215 283.245 0.00000 -1.49256e-13
  216 283.245 0.00000 -2.94922e-14
  217 283.245 0.00000 -2.88681e-14
  218 283.245 0.00000 4.02516e-15
  219 283.245 0.00000 8.97642e-14
  220 283.245 0.00000 -5.08912e-14
  221 283.245 0.00000 -3.35084e-15
  222 283.245 0.00000 7.05051e-14
  223 283.245 0.00000 -2.31197e-14
  224 283.245 0.00000 -1.10504e-13
  225 283.245 0.00000 2.73388e-15
  226 283.245 0.00000 2.86983e-14
  227 283.245 0.00000 1.25765e-13
  228 283.245 0.00000 -1.09212e-13
  229 283.245 0.00000 -3.05229e-14
  230 283.245 0.00000 5.11043e-14
  231 283.245 0.00000 -1.00295e-14
  232 283.245 0.00000 -5.46729e-14
  233 283.245 0.00000 7.90041e-14
  234 283.245 0.00000 1.44239e-14
  235 283.245 0.00000 -1.28330e-13
  236 283.245 0.00000 -4.15150e-15
  237 283.245 0.00000 -1.36366e-14
  238 283.245 0.00000 -2.61470e-14
  239 283.245 0.00000 -4.39291e-14
  240 283.245 0.00000 1.04324e-13
  241 283.245 0.00000 5.74425e-14
</Section>

newXOutput 8

<Section columns = "stress_xx | stress_yy | stress_xy">
  1 330.361 0.00000 -2.56035e-14
  2 330.361 0.00000 -4.24248e-14
  3 330.361 0.00000 1.89288e-13
  4 330.361 0.00000 1.21596e-14
  5 330.361 0.00000 -3.58869e-14
  6 330.361 0.00000 -1.04933e-14
  7 330.361 0.00000 5.87640e-15
  8 330.361 0.00000 4.15534e-14
  9 330.361 0.00000 -3.05012e-14
  10 330.361 0.00000 -2.46555e-13
  11 330.361 0.00000 -5.83763e-14
  12 330.361 0.00000 1.81227e-13
  13 330.361 0.00000 4.53307e-14
  14 330.361 0.00000 -3.32719e-13
  15 330.361 0.00000 -1.84158e-13
  16 330.361 0.00000 5.88656e-15
  17 330.361 0.00000 -4.47933e-14
  18 330.361 0.00000 -1.22465e-13
  19 330.361 0.00000 2.07173e-14
  20 330.361 0.00000 1.39911e-13
  21 330.361 0.00000 1.74275e-13
  22 330.361 0.00000 7.57984e-14
  23 330.361 0.00000 -3.60012e-13
  24 330.361 0.00000 6.81256e-14
  25 330.361 0.00000 0.00000
  26 330.361 0.00000 3.33985e-14
  27 330.361 0.00000 2.11289e-13
  28 330.361 0.00000 3.45147e-14
  29 330.361 0.00000 3.20566e-14
  30 330.361 0.00000 2.52900e-15
  31 330.361 0.00000 1.77001e-13
  32 330.361 0.00000 5.70063e-14
  33 330.361 0.00000 1.43784e-14
  34 330.361 0.00000 2.92222e-14
  35 330.361 0.00000 1.02606e-13
  36 330.361 0.00000 2.19051e-14
  37 330.361 0.00000 -2.14212e-13
  38 330.361 0.00000 -2.88993e-13
  39 330.361 0.00000 9.83771e-14
  40 330.361 0.00000 3.44067e-13
  41 330.361 0.00000 5.46738e-14
  42 330.361 0.00000 6.16175e-14
  43 330.361 0.00000 1.00256e-13
  44 330.361 0.00000 -4.17844e-15
  45 330.361 0.00000 -2.99567e-14
  46 330.361 0.00000 -1.27084e-14
  47 330.361 0.00000 -1.18480e-14
  48 330.361 0.00000 1.43815e-14
  49 330.361 0.00000 1.99518e-14
  50 330.361 0.00000 -1.74889e-15
  51 330.361 0.00000 -1.72612e-14
  52 330.361 0.00000 -1.24968e-14
  53 330.361 0.00000 3.70769e-15
  54 330.361 0.00000 5.40409e-15
  55 330.361 0.00000 9.86356e-15
  56 330.361 0.00000 -3.70769e-15
  57 330.361 0.00000 1.40843e-13
  58 330.361 0.00000 -9.12633e-14
  59 330.361 0.00000 -7.31695e-15
  60 330.361 0.00000 2.38483e-14
  61 330.361 0.00000 1.66499e-13
  62 330.361 0.00000 -7.92632e-15
  63 330.361 0.00000 3.31719e-13
  64 330.361 0.00000 6.70418e-14
  65 330.361 0.00000 -8.30766e-14
  66 330.361 0.00000 -1.97451e-14
  67 330.361 0.00000 -8.63559e-14
  68 330.361 0.00000 -3.10835e-14
  69 330.361 0.00000 -2.73938e-14
  70 330.361 0.00000 -2.70875e-14
  71 330.361 0.00000 -6.50369e-14
  72 330.361 0.00000 2.46510e-14
  73 330.361 0.00000 1.05186e-13
  74 330.361 0.00000 -1.04470e-13
  75 330.361 0.00000 5.79340e-14
  76 330.361 0.00000 1.21624e-13
  77 330.361 0.00000 3.03605e-14
  78 330.361 0.00000 7.99944e-14
  79 330.361 0.00000 -1.18618e-14
  80 330.361 0.00000 -2.42656e-14
  81 330.361 0.00000 -1.24819e-13
  82 330.361 0.00000 1.13338e-13
  83 330.361 0.00000 -4.10919e-14
  84 330.361 0.00000 -1.82760e-14
  85 330.361 0.00000 4.41186e-14
  86 330.361 0.00000 4.20992e-13
  87 330.361 0.00000 -2.16650e-15
  88 330.361 0.00000 -2.47322e-13
  89 330.361 0.00000 -2.18470e-14
  90 330.361 0.00000 1.17666e-13
  91 330.361 0.00000 -1.89487e-13
  92 330.361 0.00000 1.39477e-13
  93 330.361 0.00000 -1.64624e-13
  94 330.361 0.00000 1.09451e-13
  95 330.361 0.00000 -2.95636e-13
  96 330.361 0.00000 -1.52532e-14
  97 330.361 0.00000 3.51016e-13
  98 330.361 0.00000 -8.74875e-14
  99 330.361 0.00000 3.13213e-13
  100 330.361 0.00000 -1.63902e-14
  101 330.361 0.00000 -2.31079e-14
  102 330.361 0.00000 2.78851e-13
  103 330.361 0.00000 -2.62333e-13
  104 330.361 0.00000 -4.91759e-14
  105 330.361 0.00000 -1.67033e-13
  106 330.361 0.00000 6.44798e-14
  107 330.361 0.00000 6.66871e-14
  108 330.361 0.00000 -2.26634e-14
  109 330.361 0.00000 1.02414e-14
  110 330.361 0.00000 -1.00138e-13
  111 330.361 0.00000 2.78686e-14
  112 330.361 0.00000 2.11295e-14
  113 330.361 0.00000 3.38062e-14
  114 330.361 0.00000 -5.82506e-14
  115 330.361 0.00000 -2.90490e-14
  116 330.361 0.00000 -1.36830e-14
  117 330.361 0.00000 -5.26683e-14
  118 330.361 0.00000 2.60596e-14
  119 330.361 0.00000 8.83233e-14
  120 330.361 0.00000 1.22137e-13
  121 330.361 0.00000 7.96190e-14
  122 330.361 0.00000 -5.03540e-14
  123 330.361 0.00000 -5.50583e-14
  124 330.361 0.00000 -1.68689e-13
  125 330.361 0.00000 5.42963e-14
  126 330.361 0.00000 5.80177e-14
  127 330.361 0.00000 1.35590e-13
  128 330.361 0.00000 2.67377e-13
  129 330.361 0.00000 -1.19443e-13
  130 330.361 0.00000 -1.44070e-13
  131 330.361 0.00000 5.48533e-14
  132 330.361 0.00000 -7.11022e-14
  133 330.361 0.00000 -6.79947e-14
  134 330.361 0.00000 7.34072e-14
  135 330.361 0.00000 3.54226e-13
  136 330.361 0.00000 3.39258e-14
  137 330.361 0.00000 -6.04794e-14
  138 330.361 0.00000 8.90186e-15
  139 330.361 0.00000 3.32489e-14
  140 330.361 0.00000 -2.22900e-13
  141 330.361 0.00000 -5.00987e-14
  142 330.361 0.00000 1.54286e-13
  143 330.361 0.00000 -9.49011e-15
  144 330.361 0.00000 1.90844e-13
  145 330.361 0.00000 -2.02648e-14
  146 330.361 0.00000 -1.83968e-13
  147 330.361 0.00000 -4.33555e-14
  148 330.361 0.00000 1.44982e-14
  149 330.361 0.00000 2.28342e-13
  150 330.361 0.00000 -2.95113e-14
  151 330.361 0.00000 6.26468e-14
  152 330.361 0.00000 2.65803e-14
  153 330.361 0.00000 7.20369e-14
  154 330.361 0.00000 5.86722e-14
  155 330.361 0.00000 -1.48484e-13
  156 330.361 0.00000 -4.76193e-14
  157 330.361 0.00000 3.27614e-14
  158 330.361 0.00000 -1.47572e-13
  159 330.361 0.00000 5.82424e-14
  160 330.361 0.00000 8.54147e-15
  161 330.361 0.00000 1.17917e-13
  162 330.361 0.00000 2.81585e-14
  163 330.361 0.00000 2.47651e-14
  164 330.361 0.00000 1.22819e-13
  165 330.361 0.00000 -7.03708e-14
  166 330.361 0.00000 -2.04151e-14
  167 330.361 0.00000 6.85465e-14
  168 330.361 0.00000 -1.58663e-13
  169 330.361 0.00000 -4.67706e-15
  170 330.361 0.00000 2.48891e-14
  171 330.361 0.00000 4.33841e-14
  172 330.361 0.00000 1.13462e-13
  173 330.361 0.00000 -1.11060e-13
  174 330.361 0.00000 1.93188e-13
  175 330.361 0.00000 1.57706e-14
  176 330.361 0.00000 -1.99023e-14
  177 330.361 0.00000 -6.37317e-15
  178 330.361 0.00000 3.27097e-14
  179 330.361 0.00000 2.20360e-14
  180 330.361 0.00000 9.81879e-14
  181 330.361 0.00000 2.31331e-13
  182 330.361 0.00000 -1.48148e-13
  183 330.361 0.00000 -9.72535e-14
  184 330.361 0.00000 -1.41937e-14
  185 330.361 0.00000 -2.41698e-14
  186 330.361 0.00000 1.03505e-13
  187 330.361 0.00000 6.63174e-14
  188 330.361 0.00000 6.42505e-16
  189 330.361 0.00000 8.92356e-14
  190 330.361 0.00000 -1.23781e-13
  191 330.361 0.00000 -1.35376e-15
  192 330.361 0.00000 1.96270e-13
  193 330.361 0.00000 1.96278e-14
  194 330.361 0.00000 3.87151e-14
  195 330.361 0.00000 -8.64650e-14
  196 330.361 0.00000 -1.73236e-13
  197 330.361 0.00000 -9.88126e-15
  198 330.361 0.00000 1.17364e-13
  199 330.361 0.00000 9.55349e-14
  200 330.361 0.00000 -2.06183e-13
  201 330.361 0.00000 -4.26034e-15
  202 330.361 0.00000 -4.98182e-15
  203 330.361 0.00000 -5.01872e-14
  204 330.361 0.00000 5.61826e-15
  205 330.361 0.00000 1.21726e-14
  206 330.361 0.00000 1.74638e-13
  207 330.361 0.00000 4.92876e-14
  208 330.361 0.00000 4.91333e-14
  209 330.361 0.00000 1.88675e-13
  210 330.361 0.00000 -1.32992e-13
  211 330.361 0.00000 -1.68792e-14
  212 330.361 0.00000 4.01406e-13
  213 330.361 0.00000 2.59846e-14
  214 330.361 0.00000 -2.75591e-13
  215 330.361 0.00000 -2.26460e-13
  216 330.361 0.00000 4.10995e-14
  217 330.361 0.00000 3.47638e-13
  218 330.361 0.00000 -1.81010e-13
  219 330.361 0.00000 8.95156e-14
  220 330.361 0.00000 -6.47878e-14
  221 330.361 0.00000 1.06586e-13
  222 330.361 0.00000 -1.22140e-13
  223 330.361 0.00000 1.55636e-13
  224 330.361 0.00000 7.42211e-14
  225 330.361 0.00000 2.30940e-13
  226 330.361 0.00000 -2.18470e-14
  227 330.361 0.00000 -1.02794e-13
  228 330.361 0.00000 -1.97484e-14
  229 330.361 0.00000 1.08777e-14
  230 330.361 0.00000 -4.03411e-14
  231 330.361 0.00000 2.86203e-13
  232 330.361 0.00000 3.47747e-14
  233 330.361 0.00000 -6.03355e-14
  234 330.361 0.00000 -1.15075e-13
  235 330.361 0.00000 6.91749e-14
  236 330.361 0.00000 -2.35048e-14
  237 330.361 0.00000 1.60803e-13
  238 330.361 0.00000 -3.27729e-14
  239 330.361 0.00000 3.43946e-13
  240 330.361 0.00000 1.16517e-13
  241 330.361 0.00000 -1.40265e-14
</Section>

newXOutput 9

<Section columns = "stress_xx | stress_yy | stress_xy">
  1 377.444 0.00000 4.53252e-15
  2 377.444 0.00000 -1.75676e-13
  3 377.444 0.00000 -5.25411e-13
  4 377.444 0.00000 1.03873e-14
  5 377.444 0.00000 -2.05324e-14
  6 377.444 0.00000 -2.02921e-14
  7 377.444 0.00000 -1.28769e-14
  8 377.444 0.00000 4.49084e-14
  9 377.444 0.00000 2.39294e-14
  10 377.444 0.00000 8.19531e-14
  11 377.444 0.00000 -8.55439e-15
  12 377.444 0.00000 -2.78388e-13
  13 377.444 0.00000 -1.19707e-13
  14 377.444 0.00000 -3.13839e-13
  15 377.444 0.00000 -1.23172e-13
  16 377.444 0.00000 -2.62713e-14
  17 377.444 0.00000 -9.50419e-14
  18 377.444 0.00000 3.60161e-14
  19 377.444 0.00000 4.56089e-15
  20 377.444 0.00000 1.12027e-13
  21 377.444 0.00000 -2.39029e-14
  22 377.444 0.00000 -7.42521e-13
  23 377.444 0.00000 -4.95125e-13
  24 377.444 0.00000 7.29256e-14
  25 377.444 0.00000 -9.78573e-15
  26 377.444 0.00000 -8.03817e-14
  27 377.444 0.00000 1.42298e-13
  28 377.444 0.00000 -2.35423e-13
  29 377.444 0.00000 -7.33930e-14
  30 377.444 0.00000 -4.39396e-14
  31 377.444 0.00000 -5.46904e-13
  32 377.444 0.00000 -1.29325e-13
  33 377.444 0.00000 -2.23063e-13
  34 377.444 0.00000 -4.18251e-14
  35 377.444 0.00000 -1.28207e-13
  36 377.444 0.00000 -9.47651e-14
  37 377.444 0.00000 4.83350e-15
  38 377.444 0.00000 1.57728e-15
  39 377.444 0.00000 -2.02822e-13
  40 377.444 0.00000 -4.05447e-13
  41 377.444 0.00000 -3.38210e-13
  42 377.444 0.00000 -8.63985e-14
  43 377.444 0.00000 4.88283e-14
  44 377.444 0.00000 5.06527e-14
  45 377.444 0.00000 -3.85793e-14
  46 377.444 0.00000 -2.50339e-14
  47 377.444 0.00000 2.29464e-15
  48 377.444 0.00000 2.81958e-15
  49 377.444 0.00000 1.42026e-14
  50 377.444 0.00000 -5.75248e-16
  51 377.444 0.00000 -4.89287e-15
  52 377.444 0.00000 -7.06076e-15
  53 377.444 0.00000 -2.54122e-15
  54 377.444 0.00000 -2.51752e-15
  55 377.444 0.00000 0.00000
  56 377.444 0.00000 1.26873e-14
  57 377.444 0.00000 1.22307e-13
  58 377.444 0.00000 1.86735e-13
  59 377.444 0.00000 -1.05643e-13
  60 377.444 0.00000 -2.78270e-15
  61 377.444 0.00000 8.26561e-14
  62 377.444 0.00000 3.29834e-14
  63 377.444 0.00000 3.97940e-13
  64 377.444 0.00000 -7.61489e-14
  65 377.444 0.00000 -3.41766e-14
  66 377.444 0.00000 -1.38884e-14
  67 377.444 0.00000 -1.48338e-13
  68 377.444 0.00000 4.19747e-14
  69 377.444 0.00000 -1.93657e-13
  70 377.444 0.00000 5.23854e-14
  71 377.444 0.00000 -8.32910e-14
  72 377.444 0.00000 5.63152e-14
  73 377.444 0.00000 8.24543e-15
  74 377.444 0.00000 9.62894e-15
  75 377.444 0.00000 9.89510e-14
  76 377.444 0.00000 2.58847e-13
  77 377.444 0.00000 2.04976e-14
  78 377.444 0.00000 -2.40797e-13
  79 377.444 0.00000 -2.07005e-14
  80 377.444 0.00000 -1.37480e-13
  81 377.444 0.00000 -1.81690e-13
  82 377.444 0.00000 -3.53237e-13
  83 377.444 0.00000 -9.19372e-14
  84 377.444 0.00000 -8.94772e-14
  85 377.444 0.00000 9.25104e-14
  86 377.444 0.00000 3.00788e-13
  87 377.444 0.00000 8.88107e-15
  88 377.444 0.00000 1.12387e-13
  89 377.444 0.00000 -2.14149e-14
  90 377.444 0.00000 -1.58510e-13
  91 377.444 0.00000 1.00118e-14
  92 377.444 0.00000 8.69853e-14
  93 377.444 0.00000 1.74476e-14
  94 377.444 0.00000 1.57990e-13
  95 377.444 0.00000 -8.10361e-14
  96 377.444 0.00000 -3.32213e-14
  97 377.444 0.00000 -6.17151e-14
  98 377.444 0.00000 -3.43318e-14
  99 377.444 0.00000 3.74123e-13
  100 377.444 0.00000 -2.48359e-14
  101 377.444 0.00000 1.81429e-13
  102 377.444 0.00000 3.51105e-14
  103 377.444 0.00000 -5.77281e-14
  104 377.444 0.00000 2.42245e-14
  105 377.444 0.00000 1.31671e-13
  106 377.444 0.00000 -7.65923e-14
  107 377.444 0.00000 7.47451e-15
  108 377.444 0.00000 -1.80551e-14
  109 377.444 0.00000 -6.54654e-15
  110 377.444 0.00000 -4.93404e-13
  111 377.444 0.00000 -1.78269e-13
  112 377.444 0.00000 -3.11240e-14
  113 377.444 0.00000 -1.29997e-13
  114 377.444 0.00000 -2.19710e-13
  115 377.444 0.00000 -1.02731e-13
  116 377.444 0.00000 -5.49847e-14
  117 377.444 0.00000 -2.85589e-13
  118 377.444 0.00000 6.52934e-14
  119 377.444 0.00000 1.47710e-13
  120 377.444 0.00000 -3.02037e-13
  121 377.444 0.00000 1.03061e-13
  122 377.444 0.00000 -1.04899e-13
  123 377.444 0.00000 -2.47889e-13
  124 377.444 0.00000 -7.36034e-14
  125 377.444 0.00000 6.13332e-14
  126 377.444 0.00000 -5.36165e-14
  127 377.444 0.00000 1.10677e-13
  128 377.444 0.00000 1.50838e-13
  129 377.444 0.00000 -4.83168e-14
  130 377.444 0.00000 -9.01593e-14
  131 377.444 0.00000 1.26337e-13
  132 377.444 0.00000 -5.95151e-14
  133 377.444 0.00000 6.97090e-14
  134 377.444 0.00000 4.59872e-14
  135 377.444 0.00000 -1.59761e-13
  136 377.444 0.00000 2.55626e-14
  137 377.444 0.00000 -2.10984e-13
  138 377.444 0.00000 -3.71888e-14
  139 377.444 0.00000 2.38739e-14
  140 377.444 0.00000 4.60120e-14
  141 377.444 0.00000 -7.46592e-14
  142 377.444 0.00000 -7.26553e-14
  143 377.444 0.00000 6.17114e-14
  144 377.444 0.00000 -2.52630e-13
  145 377.444 0.00000 -1.17393e-13
  146 377.444 0.00000 -5.06224e-14
  147 377.444 0.00000 -8.38992e-14
  148 377.444 0.00000 4.93086e-15
  149 377.444 0.00000 2.20535e-13
  150 377.444 0.00000 -1.24414e-13
  151 377.444 0.00000 -1.65150e-15
  152 377.444 0.00000 1.46430e-14
  153 377.444 0.00000 3.89616e-14
  154 377.444 0.00000 -7.80363e-14
  155 377.444 0.00000 -2.71421e-14
  156 377.444 0.00000 -1.57547e-14
  157 377.444 0.00000 3.26667e-14
  158 377.444 0.00000 -1.49071e-13
  159 377.444 0.00000 -1.05490e-14
  160 377.444 0.00000 3.58434e-15
  161 377.444 0.00000 1.53948e-13
  162 377.444 0.00000 -2.99385e-14
  163 377.444 0.00000 -1.36330e-13
  164 377.444 0.00000 3.06281e-13
  165 377.444 0.00000 -1.12037e-13
  166 377.444 0.00000 -6.06933e-15
  167 377.444 0.00000 1.05644e-13
  168 377.444 0.00000 -1.32796e-13
  169 377.444 0.00000 -1.44944e-15
  170 377.444 0.00000 -2.81751e-13
  171 377.444 0.00000 6.50924e-16
  172 377.444 0.00000 9.21077e-14
  173 377.444 0.00000 -2.11533e-14
  174 377.444 0.00000 -5.39941e-14
  175 377.444 0.00000 9.94285e-15
  176 377.444 0.00000 9.70323e-16
  177 377.444 0.00000 -2.26929e-13
  178 377.444 0.00000 7.68304e-14
  179 377.444 0.00000 2.04922e-16
  180 377.444 0.00000 7.47716e-14
  181 377.444 0.00000 4.23740e-14
  182 377.444 0.00000 -3.93540e-14
  183 377.444 0.00000 1.99916e-14
  184 377.444 0.00000 2.02045e-14
  185 377.444 0.00000 -6.36579e-14
  186 377.444 0.00000 6.12009e-14
  187 377.444 0.00000 -2.74875e-13
  188 377.444 0.00000 -1.44981e-13
  189 377.444 0.00000 5.42686e-14
  190 377.444 0.00000 2.51456e-14
  191 377.444 0.00000 1.64278e-14
  192 377.444 0.00000 2.26141e-13
  193 377.444 0.00000 -2.23786e-13
  194 377.444 0.00000 2.06134e-13
  195 377.444 0.00000 -3.57128e-14
  196 377.444 0.00000 -3.11825e-13
  197 377.444 0.00000 -1.89962e-14
  198 377.444 0.00000 1.29095e-13
  199 377.444 0.00000 6.85639e-14
  200 377.444 0.00000 -2.89630e-14
  201 377.444 0.00000 8.77560e-14
  202 377.444 0.00000 -2.75705e-13
  203 377.444 0.00000 1.12743e-14
  204 377.444 0.00000 1.08965e-13
  205 377.444 0.00000 4.55522e-14
  206 377.444 0.00000 -3.77057e-14
  207 377.444 0.00000 1.68912e-14
  208 377.444 0.00000 -6.75379e-14
  209 377.444 0.00000 1.80340e-13
  210 377.444 0.00000 -4.65483e-14
  211 377.444 0.00000 -2.87829e-14
  212 377.444 0.00000 -2.98423e-13
  213 377.444 0.00000 5.07689e-15
  214 377.444 0.00000 -1.56930e-13
  215 377.444 0.00000 -1.27939e-13
  216 377.444 0.00000 9.90135e-14
  217 377.444 0.00000 1.04340e-13
  218 377.444 0.00000 -5.77958e-14
  219 377.444 0.00000 9.61412e-14
  220 377.444 0.00000 4.58779e-14
  221 377.444 0.00000 1.90213e-14
  222 377.444 0.00000 1.50573e-13
  223 377.444 0.00000 -3.02265e-14
  224 377.444 0.00000 -1.32939e-13
  225 377.444 0.00000 1.86973e-13
  226 377.444 0.00000 -1.65851e-14
  227 377.444 0.00000 2.30403e-15
  228 377.444 0.00000 -3.33161e-14
  229 377.444 0.00000 4.25756e-15
  230 377.444 0.00000 3.35021e-14
  231 377.444 0.00000 2.66942e-13
  232 377.444 0.00000 3.65140e-14
  233 377.444 0.00000 -6.32254e-14
  234 377.444 0.00000 2.45994e-14
  235 377.444 0.00000 -2.49304e-13
  236 377.444 0.00000 -5.57632e-14
  237 377.444 0.00000 2.07290e-13
  238 377.444 0.00000 -2.15408e-14
  239 377.444 0.00000 1.60868e-13
  240 377.444 0.00000 2.69431e-14
  241 377.444 0.00000 1.07446e-13
</Section>

newXOutput 10

<Section columns = "stress_xx | stress_yy | stress_xy">
  1 424.495 0.00000 -2.46756e-14
  2 424.495 0.00000 -1.58607e-13
  3 424.495 0.00000 -9.48643e-14
  4 424.495 0.00000 1.09426e-14
  5 424.495 0.00000 -1.34851e-14
  6 424.495 0.00000 0.00000
  7 424.495 0.00000 2.43546e-15
  8 424.495 0.00000 4.32971e-15
  9 424.495 0.00000 1.08016e-14
  10 424.495 0.00000 4.23468e-14
  11 424.495 0.00000 -3.68286e-14
  12 424.495 0.00000 -1.27726e-13
  13 424.495 0.00000 -8.76451e-14
  14 424.495 0.00000 -7.43741e-14
  15 424.495 0.00000 -1.01412e-13
  16 424.495 0.00000 -1.04999e-13
  17 424.495 0.00000 -5.00404e-14
  18 424.495 0.00000 -5.31258e-14
  19 424.495 0.00000 -5.27935e-14
  20 424.495 0.00000 1.08643e-13
  21 424.495 0.00000 1.49639e-13
  22 424.495 0.00000 7.08066e-14
  23 424.495 0.00000 -1.89081e-13
  24 424.495 0.00000 -3.23596e-14
  25 424.495 0.00000 -9.70789e-15
  26 424.495 0.00000 4.32923e-14
  27 424.495 0.00000 -2.63938e-13
  28 424.495 0.00000 9.99330e-14
  29 424.495 0.00000 -6.79552e-14
  30 424.495 0.00000 -3.27641e-14
  31 424.495 0.00000 -2.81632e-13
  32 424.495 0.00000 -5.19713e-13
  33 424.495 0.00000 -1.16182e-13
  34 424.495 0.00000 -3.36516e-14
  35 424.495 0.00000 -2.36520e-14
  36 424.495 0.00000 -5.13449e-15
  37 424.495 0.00000 2.25606e-14
  38 424.495 0.00000 1.59703e-13
  39 424.495 0.00000 1.02873e-13
  40 424.495 0.00000 1.59190e-14
  41 424.495 0.00000 -7.41042e-14
  42 424.495 0.00000 -1.15438e-13
  43 424.495 0.00000 -1.68134e-14
  44 424.495 0.00000 5.99415e-15
  45 424.495 0.00000 -6.09270e-15
  46 424.495 0.00000 1.11552e-14
  47 424.495 0.00000 4.71042e-14
  48 424.495 0.00000 1.63693e-14
  49 424.495 0.00000 7.86519e-15
  50 424.495 0.00000 1.61798e-15
  51 424.495 0.00000 -4.85394e-15
  52 424.495 0.00000 -9.71001e-15
  53 424.495 0.00000 2.70607e-16
  54 424.495 0.00000 1.01265e-15
  55 424.495 0.00000 -1.94158e-14
  56 424.495 0.00000 -1.72594e-14
  57 424.495 0.00000 -2.08441e-14
  58 424.495 0.00000 -1.57257e-13
  59 424.495 0.00000 3.08330e-14
  60 424.495 0.00000 -4.88133e-14
  61 424.495 0.00000 -3.88155e-14
  62 424.495 0.00000 5.28607e-14
  63 424.495 0.00000 5.39730e-14
  64 424.495 0.00000 5.73158e-14
  65 424.495 0.00000 -4.04256e-14
  66 424.495 0.00000 -2.89616e-14
  67 424.495 0.00000 1.26266e-13
  68 424.495 0.00000 -8.10597e-14
  69 424.495 0.00000 -4.33889e-14
  70 424.495 0.00000 3.35915e-14
  71 424.495 0.00000 -3.99069e-14
  72 424.495 0.00000 -6.55775e-14
  73 424.495 0.00000 -9.48030e-14
  74 424.495 0.00000 3.96768e-14
  75 424.495 0.00000 8.87708e-14
  76 424.495 0.00000 -5.36042e-13
  77 424.495 0.00000 -1.94214e-14
  78 424.495 0.00000 7.20885e-14
  79 424.495 0.00000 1.33250e-14
  80 424.495 0.00000 -6.23816e-14
  81 424.495 0.00000 -6.41042e-14
  82 424.495 0.00000 -7.61184e-14
  83 424.495 0.00000 1.06600e-14
  84 424.495 0.00000 -4.86191e-14
  85 424.495 0.00000 -9.85938e-14
  86 424.495 0.00000 1.40397e-13
  87 424.495 0.00000 1.58684e-14
  88 424.495 0.00000 -1.50182e-13
  89 424.495 0.00000 1.30718e-14
  90 424.495 0.00000 -8.59714e-14
  91 424.495 0.00000 3.03322e-14
  92 424.495 0.00000 2.41632e-14
  93 424.495 0.00000 -2.41707e-13
  94 424.495 0.00000 -9.06250e-14
  95 424.495 0.00000 3.68046e-14
  96 424.495 0.00000 2.30480e-14
  97 424.495 0.00000 -1.56094e-14
  98 424.495 0.00000 -2.26664e-14
  99 424.495 0.00000 9.91183e-15
  100 424.495 0.00000 2.99614e-15
  101 424.495 0.00000 7.48865e-14
  102 424.495 0.00000 -1.04189e-13
  103 424.495 0.00000 -1.13227e-13
  104 424.495 0.00000 4.75019e-14
  105 424.495 0.00000 8.50843e-14
  106 424.495 0.00000 -5.24645e-14
  107 424.495 0.00000 2.39323e-14
  108 424.495 0.00000 -2.07040e-14
  109 424.495 0.00000 -8.89776e-15
  110 424.495 0.00000 2.28846e-13
  111 424.495 0.00000 1.89013e-14
  112 424.495 0.00000 3.56706e-14
  113 424.495 0.00000 3.49575e-14
  114 424.495 0.00000 -5.90945e-14
  115 424.495 0.00000 -8.77332e-14
  116 424.495 0.00000 -1.43225e-14
  117 424.495 0.00000 -7.39115e-14
  118 424.495 0.00000 4.98406e-14
  119 424.495 0.00000 8.55199e-15
  120 424.495 0.00000 9.84048e-15
  121 424.495 0.00000 3.46198e-14
  122 424.495 0.00000 -8.32369e-14
  123 424.495 0.00000 -8.02999e-14
  124 424.495 0.00000 -3.94601e-14
  125 424.495 0.00000 1.20716e-13
  126 424.495 0.00000 -5.30932e-14
  127 424.495 0.00000 -1.03468e-13
  128 424.495 0.00000 1.48916e-14
  129 424.495 0.00000 -1.44871e-14
  130 424.495 0.00000 -3.95262e-14
  131 424.495 0.00000 -1.73098e-14
  132 424.495 0.00000 -1.08362e-14
  133 424.495 0.00000 -7.23671e-14
  134 424.495 0.00000 -2.49929e-14
  135 424.495 0.00000 3.41023e-14
  136 424.495 0.00000 2.12714e-14
  137 424.495 0.00000 6.12655e-14
  138 424.495 0.00000 9.73061e-14
  139 424.495 0.00000 -3.91239e-14
  140 424.495 0.00000 -2.91019e-13
  141 424.495 0.00000 2.94677e-14
  142 424.495 0.00000 -7.30184e-14
  143 424.495 0.00000 3.39838e-14
  144 424.495 0.00000 -1.64696e-13
  145 424.495 0.00000 4.06426e-14
  146 424.495 0.00000 -3.22058e-14
  147 424.495 0.00000 5.83837e-14
  148 424.495 0.00000 5.39799e-16
  149 424.495 0.00000 -3.91525e-13
  150 424.495 0.00000 -1.05270e-13
  151 424.495 0.00000 -1.02459e-13
  152 424.495 0.00000 -1.17061e-13
  153 424.495 0.00000 3.32442e-14
  154 424.495 0.00000 -4.89748e-14
  155 424.495 0.00000 -5.29393e-14
  156 424.495 0.00000 -1.65484e-13
  157 424.495 0.00000 -2.39919e-15
  158 424.495 0.00000 5.27185e-14
  159 424.495 0.00000 7.73371e-14
  160 424.495 0.00000 -1.26236e-14
  161 424.495 0.00000 -3.53706e-13
  162 424.495 0.00000 3.47635e-14
  163 424.495 0.00000 4.63890e-14
  164 424.495 0.00000 -1.13236e-13
  165 424.495 0.00000 -4.90250e-14
  166 424.495 0.00000 3.41033e-15
  167 424.495 0.00000 -4.38520e-15
  168 424.495 0.00000 -8.82548e-14
  169 424.495 0.00000 -5.80588e-15
  170 424.495 0.00000 4.36188e-14
  171 424.495 0.00000 -7.17144e-15
  172 424.495 0.00000 -1.18114e-13
  173 424.495 0.00000 -2.93950e-14
  174 424.495 0.00000 -9.02223e-14
  175 424.495 0.00000 1.46570e-14
  176 424.495 0.00000 -5.12313e-15
  177 424.495 0.00000 3.92450e-14
  178 424.495 0.00000 -1.74708e-14
  179 424.495 0.00000 -1.89219e-14
  180 424.495 0.00000 -9.46624e-15
  181 424.495 0.00000 -2.53911e-14
  182 424.495 0.00000 8.57254e-14
  183 424.495 0.00000 5.69726e-14
  184 424.495 0.00000 -2.61443e-14
  185 424.495 0.00000 -2.55199e-14
  186 424.495 0.00000 -8.21641e-15
  187 424.495 0.00000 -1.02233e-13
  188 424.495 0.00000 -2.80919e-14
  189 424.495 0.00000 4.36481e-14
  190 424.495 0.00000 6.43664e-14
  191 424.495 0.00000 5.42870e-14
  192 424.495 0.00000 -6.04065e-14
  193 424.495 0.00000 -1.09210e-13
  194 424.495 0.00000 1.39454e-13
  195 424.495 0.00000 -1.17684e-14
  196 424.495 0.00000 -5.26948e-14
  197 424.495 0.00000 -5.67965e-16
  198 424.495 0.00000 1.28534e-14
  199 424.495 0.00000 2.64946e-14
  200 424.495 0.00000 -3.15386e-13
  201 424.495 0.00000 4.63612e-14
  202 424.495 0.00000 -1.75194e-13
  203 424.495 0.00000 -6.26145e-14
  204 424.495 0.00000 -3.02130e-14
  205 424.495 0.00000 3.47324e-14
  206 424.495 0.00000 2.13259e-14
  207 424.495 0.00000 3.01087e-14
  208 424.495 0.00000 3.00446e-14
  209 424.495 0.00000 1.78500e-13
  210 424.495 0.00000 -3.69888e-14
  211 424.495 0.00000 9.71274e-15
  212 424.495 0.00000 6.88694e-14
  213 424.495 0.00000 2.09993e-14
  214 424.495 0.00000 -7.22199e-14
  215 424.495 0.00000 -1.93406e-13
  216 424.495 0.00000 1.51837e-13
  217 424.495 0.00000 7.90332e-14
  218 424.495 0.00000 -2.09264e-14
  219 424.495 0.00000 -6.72473e-14
  220 424.495 0.00000 8.28061e-14
  221 424.495 0.00000 -1.62623e-15
  222 424.495 0.00000 -1.58931e-13
  223 424.495 0.00000 -1.03019e-13
  224 424.495 0.00000 -7.83125e-14
  225 424.495 0.00000 2.73496e-14
  226 424.495 0.00000 -6.27867e-14
  227 424.495 0.00000 -5.23013e-14
  228 424.495 0.00000 4.86336e-14
  229 424.495 0.00000 -2.50167e-14
  230 424.495 0.00000 -6.97296e-14
  231 424.495 0.00000 2.32607e-14
  232 424.495 0.00000 -4.57570e-15
  233 424.495 0.00000 -9.95331e-14
  234 424.495 0.00000 1.02257e-13
  235 424.495 0.00000 -8.97216e-15
  236 424.495 0.00000 1.88037e-15
  237 424.495 0.00000 -7.19928e-14
  238 424.495 0.00000 -4.74147e-14
  239 424.495 0.00000 -4.90581e-14
  240 424.495 0.00000 8.10847e-14
  241 424.495 0.00000 -4.58878e-14
</Section>

newXOutput 11

<Section columns = "stress_xx | stress_yy | stress_xy">
  1 471.514 0.00000 -1.48966e-14
  2 471.514 0.00000 1.42046e-13
  3 471.514 0.00000 -6.42568e-13
  4 471.514 0.00000 1.16699e-15
  5 471.514 0.00000 -1.17374e-14
  6 471.514 0.00000 -1.80629e-15
  7 471.514 0.00000 2.63329e-14
  8 471.514 0.00000 1.40442e-14
  9 471.514 0.00000 -7.02211e-14
  10 471.514 0.00000 -4.08487e-14
  11 471.514 0.00000 -2.67246e-14
  12 471.514 0.00000 3.04968e-14
  13 471.514 0.00000 1.61760e-13
  14 471.514 0.00000 5.64163e-14
  15 471.514 0.00000 -4.72496e-14
  16 471.514 0.00000 -6.15923e-14
  17 471.514 0.00000 2.82481e-14
  18 471.514 0.00000 4.09285e-14
  19 471.514 0.00000 6.10735e-14
  20 471.514 0.00000 -6.18059e-15
  21 471.514 0.00000 -1.93971e-13
  22 471.514 0.00000 -1.74791e-13
  23 471.514 0.00000 -1.12434e-13
  24 471.514 0.00000 3.21001e-14
  25 471.514 0.00000 0.00000
  26 471.514 0.00000 -6.01877e-16
  27 471.514 0.00000 -1.49350e-13
  28 471.514 0.00000 1.75143e-14
  29 471.514 0.00000 -1.29771e-13
  30 471.514 0.00000 -3.54278e-13
  31 471.514 0.00000 -4.17611e-13
  32 471.514 0.00000 -6.14479e-13
  33 471.514 0.00000 -1.90667e-13
  34 471.514 0.00000 -2.14876e-13
  35 471.514 0.00000 -1.18699e-13
  36 471.514 0.00000 9.08382e-14
  37 471.514 0.00000 3.12994e-14
  38 471.514 0.00000 1.33068e-13
  39 471.514 0.00000 3.76222e-15
  40 471.514 0.00000 2.45373e-14
  41 471.514 0.00000 4.48789e-14
  42 471.514 0.00000 -4.16281e-14
  43 471.514 0.00000 5.81912e-14
  44 471.514 0.00000 8.04707e-14
  45 471.514 0.00000 3.22029e-14
  46 471.514 0.00000 3.13011e-14
  47 471.514 0.00000 5.69480e-14
  48 471.514 0.00000 2.54300e-14
  49 471.514 0.00000 5.87473e-15
  50 471.514 0.00000 5.91856e-15
  51 471.514 0.00000 0.00000
  52 471.514 0.00000 -7.59910e-15
  53 471.514 0.00000 6.72107e-15
  54 471.514 0.00000 -5.34141e-15
  55 471.514 0.00000 -1.92601e-14
  56 471.514 0.00000 -9.12857e-15
  57 471.514 0.00000 3.63937e-14
  58 471.514 0.00000 -3.47896e-14
  59 471.514 0.00000 -2.87804e-14
  60 471.514 0.00000 -1.39420e-13
  61 471.514 0.00000 -8.45682e-14
  62 471.514 0.00000 8.30634e-15
  63 471.514 0.00000 7.55515e-14
  64 471.514 0.00000 -1.67416e-13
  65 471.514 0.00000 -2.06034e-14
  66 471.514 0.00000 -8.88252e-17
  67 471.514 0.00000 -5.14022e-14
  68 471.514 0.00000 -2.00934e-14
  69 471.514 0.00000 1.10959e-14
  70 471.514 0.00000 -1.25523e-14
  71 471.514 0.00000 -4.42385e-14
  72 471.514 0.00000 -1.68185e-14
  73 471.514 0.00000 -3.02665e-14
  74 471.514 0.00000 2.30265e-14
  75 471.514 0.00000 3.12971e-14
  76 471.514 0.00000 -2.96092e-13
  77 471.514 0.00000 -5.27707e-16
  78 471.514 0.00000 5.13425e-15
  79 471.514 0.00000 3.72003e-14
  80 471.514 0.00000 -1.38316e-13
  81 471.514 0.00000 -1.00397e-13
  82 471.514 0.00000 -6.07686e-14
  83 471.514 0.00000 4.20221e-14
  84 471.514 0.00000 4.13801e-14
  85 471.514 0.00000 1.23427e-13
  86 471.514 0.00000 9.20492e-14
  87 471.514 0.00000 7.30413e-16
  88 471.514 0.00000 -1.32441e-13
  89 471.514 0.00000 1.36028e-14
  90 471.514 0.00000 -1.26388e-14
  91 471.514 0.00000 -2.43413e-14
  92 471.514 0.00000 8.46560e-14
  93 471.514 0.00000 9.81087e-14
  94 471.514 0.00000 5.81659e-14
  95 471.514 0.00000 -4.64063e-14
  96 471.514 0.00000 -3.59543e-14
  97 471.514 0.00000 1.62368e-13
  98 471.514 0.00000 -1.27600e-14
  99 471.514 0.00000 6.60472e-14
  100 471.514 0.00000 -6.74102e-15
  101 471.514 0.00000 8.49273e-14
  102 471.514 0.00000 -7.52006e-14
  103 471.514 0.00000 -1.98635e-13
  104 471.514 0.00000 5.61441e-14
  105 471.514 0.00000 -6.34999e-14
  106 471.514 0.00000 -7.03010e-14
  107 471.514 0.00000 -2.00621e-14
  108 471.514 0.00000 -1.07597e-14
  109 471.514 0.00000 2.78074e-14
  110 471.514 0.00000 6.01898e-14
  111 471.514 0.00000 2.84531e-14
  112 471.514 0.00000 -2.83998e-14
  113 471.514 0.00000 -2.30811e-14
  114 471.514 0.00000 3.87605e-14
  115 471.514 0.00000 -7.68249e-14
  116 471.514 0.00000 3.86419e-14
  117 471.514 0.00000 -1.09947e-13
  118 471.514 0.00000 2.86449e-14
  119 471.514 0.00000 8.54763e-14
  120 471.514 0.00000 -4.59353e-14
  121 471.514 0.00000 -1.46230e-14
  122 471.514 0.00000 -1.41748e-13
  123 471.514 0.00000 -3.83205e-14
  124 471.514 0.00000 -1.69907e-13
  125 471.514 0.00000 7.90847e-14
  126 471.514 0.00000 -8.53933e-15
  127 471.514 0.00000 -6.00520e-14
  128 471.514 0.00000 8.61614e-14
  129 471.514 0.00000 -2.65927e-15
  130 471.514 0.00000 -3.78491e-14
  131 471.514 0.00000 2.14884e-14
  132 471.514 0.00000 -4.89955e-14
  133 471.514 0.00000 9.29658e-14
  134 471.514 0.00000 -8.63981e-14
  135 471.514 0.00000 -3.85352e-15
  136 471.514 0.00000 2.53961e-14
  137 471.514 0.00000 -8.99753e-14
  138 471.514 0.00000 4.58333e-14
  139 471.514 0.00000 1.22198e-14
  140 471.514 0.00000 -1.81987e-13
  141 471.514 0.00000 -8.36773e-15
  142 471.514 0.00000 -3.59122e-14
  143 471.514 0.00000 3.79577e-14
  144 471.514 0.00000 -1.51515e-13
  145 471.514 0.00000 -2.34787e-14
  146 471.514 0.00000 -4.34156e-15
  147 471.514 0.00000 2.65520e-14
  148 471.514 0.00000 6.92147e-15
  149 471.514 0.00000 -2.90916e-13
  150 471.514 0.00000 -7.19702e-14
  151 471.514 0.00000 -6.34194e-14
  152 471.514 0.00000 1.42850e-14
  153 471.514 0.00000 -4.59457e-14
  154 471.514 0.00000 -2.06093e-14
  155 471.514 0.00000 -3.13972e-14
  156 471.514 0.00000 -8.22694e-14
  157 471.514 0.00000 1.86360e-14
  158 471.514 0.00000 -3.73984e-14
  159 471.514 0.00000 3.64553e-14
  160 471.514 0.00000 3.27967e-15
  161 471.514 0.00000 -1.46863e-13
  162 471.514 0.00000 4.06329e-14
  163 471.514 0.00000 -1.36592e-13
  164 471.514 0.00000 1.51333e-14
  165 471.514 0.00000 -1.50474e-14
  166 471.514 0.00000 4.64296e-15
  167 471.514 0.00000 -4.84956e-14
  168 471.514 0.00000 -8.44390e-14
  169 471.514 0.00000 9.37236e-15
  170 471.514 0.00000 -2.02720e-14
  171 471.514 0.00000 6.00869e-14
  172 471.514 0.00000 9.38971e-15
  173 471.514 0.00000 -3.72391e-14
  174 471.514 0.00000 2.92510e-14
  175 471.514 0.00000 7.43923e-15
  176 471.514 0.00000 3.61126e-15
  177 471.514 0.00000 -3.80112e-13
  178 471.514 0.00000 3.65438e-14
  179 471.514 0.00000 6.03699e-14
  180 471.514 0.00000 4.07570e-14
  181 471.514 0.00000 -1.01069e-13
  182 471.514 0.00000 -1.06510e-14
  183 471.514 0.00000 -1.64719e-14
  184 471.514 0.00000 8.11119e-14
  185 471.514 0.00000 -1.15431e-15
  186 471.514 0.00000 1.00973e-13
  187 471.514 0.00000 -3.01611e-13
  188 471.514 0.00000 -8.07023e-15
  189 471.514 0.00000 -4.56734e-14
  190 471.514 0.00000 1.34399e-14
  191 471.514 0.00000 8.26096e-14
  192 471.514 0.00000 5.22959e-14
  193 471.514 0.00000 3.08272e-14
  194 471.514 0.00000 -1.01569e-13
  195 471.514 0.00000 1.31577e-15
  196 471.514 0.00000 1.19957e-13
  197 471.514 0.00000 2.81383e-14
  198 471.514 0.00000 5.18824e-14
  199 471.514 0.00000 6.75779e-14
  200 471.514 0.00000 -1.07589e-13
  201 471.514 0.00000 -6.87774e-14
  202 471.514 0.00000 -1.96678e-13
  203 471.514 0.00000 -9.77145e-15
  204 471.514 0.00000 1.45663e-14
  205 471.514 0.00000 2.68405e-15
  206 471.514 0.00000 -4.11707e-14
  207 471.514 0.00000 5.79623e-14
  208 471.514 0.00000 -6.15229e-14
  209 471.514 0.00000 6.50543e-14
  210 471.514 0.00000 -2.03518e-14
  211 471.514 0.00000 8.77039e-15
  212 471.514 0.00000 -1.55434e-13
  213 471.514 0.00000 1.63937e-14
  214 471.514 0.00000 -6.09378e-14
  215 471.514 0.00000 -3.48281e-13
  216 471.514 0.00000 1.12190e-14
  217 471.514 0.00000 2.80885e-14
  218 471.514 0.00000 -1.79188e-14
  219 471.514 0.00000 7.40695e-14
  220 471.514 0.00000 6.69936e-15
  221 471.514 0.00000 4.30558e-14
  222 471.514 0.00000 1.81973e-13
  223 471.514 0.00000 -5.35929e-14
  224 471.514 0.00000 3.61257e-15
  225 471.514 0.00000 -1.47829e-14
  226 471.514 0.00000 -3.94852e-14
  227 471.514 0.00000 -7.25896e-14
  228 471.514 0.00000 -3.79205e-14
  229 471.514 0.00000 1.23504e-14
  230 471.514 0.00000 -2.09820e-13
  231 471.514 0.00000 3.21195e-14
  232 471.514 0.00000 9.17846e-15
  233 471.514 0.00000 -4.44199e-14
  234 471.514 0.00000 1.70330e-14
  235 471.514 0.00000 2.35112e-14
  236 471.514 0.00000 2.06800e-14
  237 471.514 0.00000 -6.55336e-14
  238 471.514 0.00000 -1.96463e-14
  239 471.514 0.00000 -2.84004e-14
  240 471.514 0.00000 1.63066e-13
  241 471.514 0.00000 1.63094e-13
</Section>

newXOutput 12

<Section columns = "stress_xx | stress_yy | stress_xy">
  1 518.503 0.00000 2.76618e-14
  2 518.503 0.00000 -3.82086e-14
  3 518.503 0.00000 -4.84675e-13
  4 518.503 0.00000 -2.17875e-15
  5 518.503 0.00000 -4.17871e-15
  6 518.503 0.00000 -5.67980e-29
  7 518.503 0.00000 -3.62193e-14
  8 518.503 0.00000 1.40624e-14
  9 518.503 0.00000 5.99653e-14
  10 518.503 0.00000 1.28172e-13
  11 518.503 0.00000 4.91023e-14
  12 518.503 0.00000 3.78085e-14
  13 518.503 0.00000 8.92050e-14
  14 518.503 0.00000 1.16004e-13
  15 518.503 0.00000 4.50998e-14
  16 518.503 0.00000 3.42815e-14
  17 518.503 0.00000 -1.37972e-13
  18 518.503 0.00000 -4.03657e-14
  19 518.503 0.00000 4.40814e-14
  20 518.503 0.00000 1.80990e-13
  21 518.503 0.00000 -1.35035e-13
  22 518.503 0.00000 -3.53171e-13
  23 518.503 0.00000 -1.28456e-13
  24 518.503 0.00000 3.07773e-14
  25 518.503 0.00000 3.82086e-14
  26 518.503 0.00000 -6.19283e-14
  27 518.503 0.00000 2.12758e-13
  28 518.503 0.00000 5.98720e-14
  29 518.503 0.00000 4.29847e-14
  30 518.503 0.00000 -7.51645e-14
  31 518.503 0.00000 -3.05551e-13
  32 518.503 0.00000 9.13092e-14
  33 518.503 0.00000 1.08948e-13
  34 518.503 0.00000 1.75449e-13
  35 518.503 0.00000 7.38710e-14
  36 518.503 0.00000 -2.56070e-14
  37 518.503 0.00000 -3.33265e-14
  38 518.503 0.00000 1.17106e-13
  39 518.503 0.00000 -1.18431e-13
  40 518.503 0.00000 -2.69874e-13
  41 518.503 0.00000 -1.87478e-13
  42 518.503 0.00000 2.07178e-14
  43 518.503 0.00000 8.21254e-14
  44 518.503 0.00000 6.72422e-14
  45 518.503 0.00000 -1.12551e-14
  46 518.503 0.00000 -4.61386e-14
  47 518.503 0.00000 -2.23520e-14
  48 518.503 0.00000 -1.94597e-14
  49 518.503 0.00000 -1.63525e-14
  50 518.503 0.00000 -3.84716e-15
  51 518.503 0.00000 9.55215e-15
  52 518.503 0.00000 1.59247e-15
  53 518.503 0.00000 2.85250e-15
  54 518.503 0.00000 2.18868e-15
  55 518.503 0.00000 -1.91043e-14
  56 518.503 0.00000 3.70810e-14
  57 518.503 0.00000 5.72534e-14
  58 518.503 0.00000 4.17871e-15
  59 518.503 0.00000 6.75086e-14
  60 518.503 0.00000 3.30386e-14
  61 518.503 0.00000 3.81820e-14
  62 518.503 0.00000 -4.59349e-14
  63 518.503 0.00000 7.59898e-14
  64 518.503 0.00000 1.40027e-13
  65 518.503 0.00000 -2.17310e-14
  66 518.503 0.00000 -6.98119e-15
  67 518.503 0.00000 2.50813e-14
  68 518.503 0.00000 6.40853e-14
  69 518.503 0.00000 -1.22504e-13
  70 518.503 0.00000 -9.65061e-14
  71 518.503 0.00000 -6.32148e-14
  72 518.503 0.00000 1.83254e-14
  73 518.503 0.00000 -2.88974e-14
  74 518.503 0.00000 6.14005e-15
  75 518.503 0.00000 -1.29425e-14
  76 518.503 0.00000 7.99881e-14
  77 518.503 0.00000 -1.20217e-14
  78 518.503 0.00000 -1.57324e-13
  79 518.503 0.00000 1.09655e-14
  80 518.503 0.00000 -2.91762e-14
  81 518.503 0.00000 -1.16993e-13
  82 518.503 0.00000 -1.41011e-13
  83 518.503 0.00000 3.95858e-14
  84 518.503 0.00000 -2.11937e-14
  85 518.503 0.00000 1.20627e-13
  86 518.503 0.00000 2.09344e-13
  87 518.503 0.00000 -3.83072e-15
  88 518.503 0.00000 -2.37753e-13
  89 518.503 0.00000 -8.55749e-15
  90 518.503 0.00000 -5.49892e-14
  91 518.503 0.00000 -1.77902e-14
  92 518.503 0.00000 3.79985e-14
  93 518.503 0.00000 -2.42081e-13
  94 518.503 0.00000 2.74922e-13
  95 518.503 0.00000 -5.37415e-15
  96 518.503 0.00000 -1.69807e-14
  97 518.503 0.00000 -7.35499e-14
  98 518.503 0.00000 -3.82472e-14
  99 518.503 0.00000 3.74279e-14
  100 518.503 0.00000 1.04268e-14
  101 518.503 0.00000 -5.23005e-14
  102 518.503 0.00000 4.37175e-14
  103 518.503 0.00000 4.33148e-14
  104 518.503 0.00000 6.39969e-14
  105 518.503 0.00000 1.23208e-14
  106 518.503 0.00000 4.44417e-14
  107 518.503 0.00000 -1.60277e-13
  108 518.503 0.00000 -1.79583e-14
  109 518.503 0.00000 2.37603e-14
  110 518.503 0.00000 1.56151e-13
  111 518.503 0.00000 -1.72597e-14
  112 518.503 0.00000 -6.73600e-14
  113 518.503 0.00000 -1.35844e-13
  114 518.503 0.00000 -1.10282e-13
  115 518.503 0.00000 8.80708e-14
  116 518.503 0.00000 -2.73840e-14
  117 518.503 0.00000 1.35442e-13
  118 518.503 0.00000 4.98912e-14
  119 518.503 0.00000 2.10018e-14
  120 518.503 0.00000 -7.38186e-14
  121 518.503 0.00000 5.00372e-14
  122 518.503 0.00000 3.97561e-14
  123 518.503 0.00000 -8.82162e-14
  124 518.503 0.00000 6.60169e-14
  125 518.503 0.00000 -1.11266e-13
  126 518.503 0.00000 -2.73368e-14
  127 518.503 0.00000 2.76473e-14
  128 518.503 0.00000 -3.79878e-14
  129 518.503 0.00000 -4.19407e-14
  130 518.503 0.00000 1.86909e-14
  131 518.503 0.00000 -2.26557e-14
  132 518.503 0.00000 -2.46292e-14
  133 518.503 0.00000 1.30412e-13
  134 518.503 0.00000 -2.19229e-14
  135 518.503 0.00000 -4.61683e-14
  136 518.503 0.00000 -5.42320e-15
  137 518.503 0.00000 -4.34952e-14
  138 518.503 0.00000 -1.20340e-13
  139 518.503 0.00000 -1.49199e-15
  140 518.503 0.00000 -1.40052e-13
  141 518.503 0.00000 9.49723e-14
  142 518.503 0.00000 -1.59203e-15
  143 518.503 0.00000 4.51952e-14
  144 518.503 0.00000 -1.93353e-13
  145 518.503 0.00000 3.55759e-14
  146 518.503 0.00000 -6.64357e-14
  147 518.503 0.00000 -1.25838e-13
  148 518.503 0.00000 4.90898e-15
  149 518.503 0.00000 1.38086e-13
  150 518.503 0.00000 1.04237e-13
  151 518.503 0.00000 -6.94413e-14
  152 518.503 0.00000 6.68152e-15
  153 518.503 0.00000 -2.37286e-14
  154 518.503 0.00000 7.24343e-14
  155 518.503 0.00000 -7.28003e-14
  156 518.503 0.00000 -4.05540e-14
  157 518.503 0.00000 7.33127e-16
  158 518.503 0.00000 -7.76091e-14
  159 518.503 0.00000 -4.76007e-14
  160 518.503 0.00000 1.80063e-16
  161 518.503 0.00000 2.15680e-13
  162 518.503 0.00000 -1.76428e-14
  163 518.503 0.00000 2.26766e-14
  164 518.503 0.00000 2.83219e-14
  165 518.503 0.00000 -3.65491e-14
  166 518.503 0.00000 -5.11677e-15
  167 518.503 0.00000 -7.56263e-14
  168 518.503 0.00000 7.26061e-14
  169 518.503 0.00000 1.03478e-14
  170 518.503 0.00000 -7.70082e-14
  171 518.503 0.00000 -4.06944e-14
  172 518.503 0.00000 -6.61733e-14
  173 518.503 0.00000 -4.04407e-14
  174 518.503 0.00000 7.33542e-14
  175 518.503 0.00000 -1.29480e-14
  176 518.503 0.00000 7.23057e-15
  177 518.503 0.00000 -3.02743e-13
  178 518.503 0.00000 5.44912e-14
  179 518.503 0.00000 -1.03890e-14
  180 518.503 0.00000 2.41634e-14
  181 518.503 0.00000 -4.68647e-14
  182 518.503 0.00000 -5.36598e-14
  183 518.503 0.00000 3.04139e-14
  184 518.503 0.00000 6.57687e-14
  185 518.503 0.00000 -4.77608e-15
  186 518.503 0.00000 3.52715e-14
  187 518.503 0.00000 -8.20546e-14
  188 518.503 0.00000 6.85911e-14
  189 518.503 0.00000 5.39838e-14
  190 518.503 0.00000 2.06171e-14
  191 518.503 0.00000 4.97330e-16
  192 518.503 0.00000 1.00666e-13
  193 518.503 0.00000 -7.47424e-14
  194 518.503 0.00000 -4.30504e-14
  195 518.503 0.00000 -5.64569e-15
  196 518.503 0.00000 6.33445e-14
  197 518.503 0.00000 7.52854e-15
  198 518.503 0.00000 2.73554e-13
  199 518.503 0.00000 3.32835e-14
  200 518.503 0.00000 -1.29413e-13
  201 518.503 0.00000 -6.56746e-15
  202 518.503 0.00000 -6.05268e-14
  203 518.503 0.00000 -4.71453e-14
  204 518.503 0.00000 5.10742e-14
  205 518.503 0.00000 4.17557e-14
  206 518.503 0.00000 -1.05538e-13
  207 518.503 0.00000 -2.94607e-14
  208 518.503 0.00000 4.13518e-14
  209 518.503 0.00000 1.95745e-13
  210 518.503 0.00000 -2.64414e-14
  211 518.503 0.00000 -5.54412e-15
  212 518.503 0.00000 -4.10943e-14
  213 518.503 0.00000 -1.91087e-14
  214 518.503 0.00000 -5.78354e-14
  215 518.503 0.00000 1.49566e-13
  216 518.503 0.00000 4.38095e-14
  217 518.503 0.00000 6.40769e-14
  218 518.503 0.00000 -2.82327e-14
  219 518.503 0.00000 9.28337e-14
  220 518.503 0.00000 5.91350e-14
  221 518.503 0.00000 7.73607e-14
  222 518.503 0.00000 -4.41290e-14
  223 518.503 0.00000 -8.65441e-16
  224 518.503 0.00000 -3.94811e-14
  225 518.503 0.00000 1.41679e-14
  226 518.503 0.00000 -1.07457e-14
  227 518.503 0.00000 3.09178e-14
  228 518.503 0.00000 -1.09586e-13
  229 518.503 0.00000 9.76795e-15
  230 518.503 0.00000 7.64144e-14
  231 518.503 0.00000 1.97606e-14
  232 518.503 0.00000 2.33831e-15
  233 518.503 0.00000 4.82946e-14
  234 518.503 0.00000 -7.22071e-14
  235 518.503 0.00000 -1.71236e-13
  236 518.503 0.00000 -2.45063e-14
  237 518.503 0.00000 -1.11295e-14
  238 518.503 0.00000 4.95209e-14
  239 518.503 0.00000 2.57306e-16
  240 518.503 0.00000 2.01711e-14
  241 518.503 0.00000 9.18393e-14
</Section>

newXOutput 13

<Section columns = "stress_xx | stress_yy | stress_xy">
  1 565.462 0.00000 -2.73364e-14
  2 565.462 0.00000 -3.78971e-14
  3 565.462 0.00000 -5.86324e-13
  4 565.462 0.00000 -2.38957e-14
  5 565.462 0.00000 4.34550e-15
  6 565.462 0.00000 -1.73630e-14
  7 565.462 0.00000 -4.82511e-15
  8 565.462 0.00000 -9.21064e-14
  9 565.462 0.00000 -3.44779e-14
  10 565.462 0.00000 1.80546e-13
  11 565.462 0.00000 1.66856e-13
  12 565.462 0.00000 5.69042e-14
  13 565.462 0.00000 1.24398e-14
  14 565.462 0.00000 -1.12647e-13
  15 565.462 0.00000 -1.24398e-14
  16 565.462 0.00000 2.73788e-14
  17 565.462 0.00000 -2.28191e-13
  18 565.462 0.00000 -1.94770e-13
  19 565.462 0.00000 6.21174e-14
  20 565.462 0.00000 3.19527e-13
  21 565.462 0.00000 1.88454e-13
  22 565.462 0.00000 1.37912e-13
  23 565.462 0.00000 -2.52647e-14
  24 565.462 0.00000 -1.26324e-14
  25 565.462 0.00000 1.89485e-14
  26 565.462 0.00000 -3.08010e-14
  27 565.462 0.00000 1.89485e-14
  28 565.462 0.00000 -1.04226e-13
  29 565.462 0.00000 -2.36857e-14
  30 565.462 0.00000 -1.22770e-13
  31 565.462 0.00000 -4.45528e-13
  32 565.462 0.00000 -2.36870e-13
  33 565.462 0.00000 -4.39588e-14
  34 565.462 0.00000 5.26542e-14
  35 565.462 0.00000 5.73322e-14
  36 565.462 0.00000 9.69734e-14
  37 565.462 0.00000 -2.93583e-13
  38 565.462 0.00000 -1.80685e-13
  39 565.462 0.00000 -1.93259e-14
  40 565.462 0.00000 -6.09601e-14
  41 565.462 0.00000 2.23949e-13
  42 565.462 0.00000 5.76519e-14
  43 565.462 0.00000 -2.25290e-13
  44 565.462 0.00000 -5.78322e-14
  45 565.462 0.00000 6.40589e-15
  46 565.462 0.00000 1.23047e-14
  47 565.462 0.00000 -9.65756e-14
  48 565.462 0.00000 -3.42904e-14
  49 565.462 0.00000 -4.54813e-14
  50 565.462 0.00000 -1.81063e-15
  51 565.462 0.00000 4.73713e-15
  52 565.462 0.00000 1.48793e-14
  53 565.462 0.00000 -3.54632e-14
  54 565.462 0.00000 -1.94159e-14
  55 565.462 0.00000 0.00000
  56 565.462 0.00000 -1.39145e-14
  57 565.462 0.00000 -7.52384e-14
  58 565.462 0.00000 1.48081e-13
  59 565.462 0.00000 -6.01570e-14
  60 565.462 0.00000 5.49996e-14
  61 565.462 0.00000 -4.01920e-14
  62 565.462 0.00000 -1.89266e-13
  63 565.462 0.00000 -9.67155e-14
  64 565.462 0.00000 -7.15201e-14
  65 565.462 0.00000 -6.19920e-15
  66 565.462 0.00000 -4.22133e-15
  67 565.462 0.00000 -2.85822e-13
  68 565.462 0.00000 -1.48182e-13
  69 565.462 0.00000 -1.57237e-13
  70 565.462 0.00000 5.18784e-14
  71 565.462 0.00000 5.37297e-14
  72 565.462 0.00000 -8.34500e-14
  73 565.462 0.00000 -1.02880e-13
  74 565.462 0.00000 -1.61760e-13
  75 565.462 0.00000 -6.21991e-14
  76 565.462 0.00000 -1.01000e-13
  77 565.462 0.00000 -5.30390e-14
  78 565.462 0.00000 -6.00288e-14
  79 565.462 0.00000 2.32166e-14
  80 565.462 0.00000 -8.22471e-14
  81 565.462 0.00000 5.36938e-14
  82 565.462 0.00000 -1.68526e-14
  83 565.462 0.00000 3.50317e-14
  84 565.462 0.00000 1.24271e-13
  85 565.462 0.00000 -3.49999e-14
  86 565.462 0.00000 -2.69492e-15
  87 565.462 0.00000 -2.52581e-14
  88 565.462 0.00000 -1.53981e-13
  89 565.462 0.00000 2.31501e-14
  90 565.462 0.00000 -7.73378e-14
  91 565.462 0.00000 -5.41479e-14
  92 565.462 0.00000 -1.35196e-13
  93 565.462 0.00000 3.09440e-14
  94 565.462 0.00000 -1.28305e-13
  95 565.462 0.00000 3.06942e-13
  96 565.462 0.00000 -1.16728e-13
  97 565.462 0.00000 -5.44964e-13
  98 565.462 0.00000 2.93216e-13
  99 565.462 0.00000 7.81689e-14
  100 565.462 0.00000 -1.86880e-14
  101 565.462 0.00000 -8.45863e-14
  102 565.462 0.00000 -3.64014e-14
  103 565.462 0.00000 -3.40671e-13
  104 565.462 0.00000 -1.24340e-14
  105 565.462 0.00000 -1.33929e-13
  106 565.462 0.00000 -1.20415e-13
  107 565.462 0.00000 -1.13175e-13
  108 565.462 0.00000 5.47370e-14
  109 565.462 0.00000 -1.88273e-14
  110 565.462 0.00000 -2.37819e-13
  111 565.462 0.00000 -1.04851e-14
  112 565.462 0.00000 1.31033e-13
  113 565.462 0.00000 -4.01828e-16
  114 565.462 0.00000 1.05347e-13
  115 565.462 0.00000 -4.38432e-14
  116 565.462 0.00000 7.90081e-14
  117 565.462 0.00000 -3.47454e-14
  118 565.462 0.00000 -3.00413e-13
  119 565.462 0.00000 -3.59843e-14
  120 565.462 0.00000 -3.00701e-14
  121 565.462 0.00000 -4.56304e-15
  122 565.462 0.00000 1.10104e-13
  123 565.462 0.00000 -1.51708e-13
  124 565.462 0.00000 -1.10538e-13
  125 565.462 0.00000 -1.07424e-13
  126 565.462 0.00000 -2.89855e-14
  127 565.462 0.00000 -1.25033e-13
  128 565.462 0.00000 -4.93973e-14
  129 565.462 0.00000 1.10791e-13
  130 565.462 0.00000 3.97289e-14
  131 565.462 0.00000 -8.77487e-14
  132 565.462 0.00000 2.98158e-14
  133 565.462 0.00000 -2.37470e-14
  134 565.462 0.00000 -5.36435e-14
  135 565.462 0.00000 -2.38450e-13
  136 565.462 0.00000 2.49596e-14
  137 565.462 0.00000 -1.50076e-13
  138 565.462 0.00000 -1.54388e-14
  139 565.462 0.00000 -7.24753e-14
  140 565.462 0.00000 -2.19538e-13
  141 565.462 0.00000 1.25231e-14
  142 565.462 0.00000 1.24953e-14
  143 565.462 0.00000 -1.48763e-13
  144 565.462 0.00000 -2.39067e-13
  145 565.462 0.00000 -6.51448e-14
  146 565.462 0.00000 1.24718e-13
  147 565.462 0.00000 -1.78562e-14
  148 565.462 0.00000 -4.15983e-14
  149 565.462 0.00000 -9.81679e-14
  150 565.462 0.00000 -1.06155e-13
  151 565.462 0.00000 -1.50847e-13
  152 565.462 0.00000 -8.12977e-14
  153 565.462 0.00000 -1.49493e-13
  154 565.462 0.00000 -8.00651e-14
  155 565.462 0.00000 -9.72863e-14
  156 565.462 0.00000 -1.43255e-13
  157 565.462 0.00000 -3.36776e-14
  158 565.462 0.00000 2.36823e-14
  159 565.462 0.00000 4.93608e-15
  160 565.462 0.00000 -1.00958e-14
  161 565.462 0.00000 -2.62146e-14
  162 565.462 0.00000 -5.46978e-14
  163 565.462 0.00000 2.01328e-14
  164 565.462 0.00000 -2.27340e-13
  165 565.462 0.00000 3.71173e-14
  166 565.462 0.00000 2.44337e-14
  167 565.462 0.00000 -3.33892e-14
  168 565.462 0.00000 -9.00653e-14
  169 565.462 0.00000 -1.79472e-15
  170 565.462 0.00000 -1.47642e-13
  171 565.462 0.00000 1.88471e-14
  172 565.462 0.00000 -8.76432e-14
  173 565.462 0.00000 8.75809e-14
  174 565.462 0.00000 -4.17794e-14
  175 565.462 0.00000 -3.92557e-14
  176 565.462 0.00000 -1.77933e-16
  177 565.462 0.00000 -2.99327e-13
  178 565.462 0.00000 -3.38327e-14
  179 565.462 0.00000 1.58439e-14
  180 565.462 0.00000 3.85919e-14
  181 565.462 0.00000 -6.04865e-15
  182 565.462 0.00000 1.32659e-13
  183 565.462 0.00000 2.11735e-14
  184 565.462 0.00000 -6.82927e-14
  185 565.462 0.00000 -1.60681e-14
  186 565.462 0.00000 -6.34229e-16
  187 565.462 0.00000 -1.53168e-13
  188 565.462 0.00000 -5.15079e-14
  189 565.462 0.00000 -7.60972e-14
  190 565.462 0.00000 -1.06459e-13
  191 565.462 0.00000 8.29019e-14
  192 565.462 0.00000 -8.03632e-14
  193 565.462 0.00000 1.03835e-13
  194 565.462 0.00000 -8.87591e-14
  195 565.462 0.00000 1.20967e-13
  196 565.462 0.00000 -1.78325e-13
  197 565.462 0.00000 1.18892e-14
  198 565.462 0.00000 -3.15809e-15
  199 565.462 0.00000 -2.21026e-13
  200 565.462 0.00000 -6.24796e-14
  201 565.462 0.00000 -2.83575e-14
  202 565.462 0.00000 -2.04232e-13
  203 565.462 0.00000 -9.54502e-14
  204 565.462 0.00000 -4.27041e-14
  205 565.462 0.00000 2.14975e-13
  206 565.462 0.00000 -1.50014e-13
  207 565.462 0.00000 1.92378e-13
  208 565.462 0.00000 1.73661e-14
  209 565.462 0.00000 -1.79821e-13
  210 565.462 0.00000 4.50967e-14
  211 565.462 0.00000 3.48040e-14
  212 565.462 0.00000 7.39851e-14
  213 565.462 0.00000 -4.36965e-14
  214 565.462 0.00000 2.43701e-13
  215 565.462 0.00000 -1.79550e-13
  216 565.462 0.00000 -1.14656e-13
  217 565.462 0.00000 3.52020e-14
  218 565.462 0.00000 -4.32287e-14
  219 565.462 0.00000 -6.56150e-14
  220 565.462 0.00000 -1.91424e-13
  221 565.462 0.00000 -1.19756e-13
  222 565.462 0.00000 2.01174e-13
  223 565.462 0.00000 1.04995e-13
  224 565.462 0.00000 -2.06953e-13
  225 565.462 0.00000 -2.22821e-13
  226 565.462 0.00000 -5.61935e-14
  227 565.462 0.00000 -1.26467e-13
  228 565.462 0.00000 2.30639e-13
  229 565.462 0.00000 -1.32808e-14
  230 565.462 0.00000 -2.41541e-13
  231 565.462 0.00000 -9.05612e-14
  232 565.462 0.00000 -1.76491e-13
  233 565.462 0.00000 -3.31676e-14
  234 565.462 0.00000 7.25201e-14
  235 565.462 0.00000 2.96797e-14
  236 565.462 0.00000 5.20743e-14
  237 565.462 0.00000 -1.62996e-15
  238 565.462 0.00000 2.54239e-14
  239 565.462 0.00000 1.84331e-14
  240 565.462 0.00000 3.67498e-14
  241 565.462 0.00000 5.28524e-16
</Section>

newXOutput 14

<Section columns = "stress_xx | stress_yy | stress_xy">
  1 612.392 0.00000 -7.04462e-14
  2 612.392 0.00000 -1.83345e-13
  3 612.392 0.00000 -3.43026e-13
  4 612.392 0.00000 1.52449e-14
  5 612.392 0.00000 -2.99540e-13
  6 612.392 0.00000 -1.85583e-13
  7 612.392 0.00000 -4.68090e-13
  8 612.392 0.00000 -7.90313e-14
  9 612.392 0.00000 -1.94244e-13
  10 612.392 0.00000 -1.42542e-13
  11 612.392 0.00000 -5.63743e-14
  12 612.392 0.00000 3.97881e-13
  13 612.392 0.00000 9.87481e-14
  14 612.392 0.00000 -8.61444e-14
  15 612.392 0.00000 -2.38554e-13
  16 612.392 0.00000 -9.08338e-14
  17 612.392 0.00000 7.67104e-14
  18 612.392 0.00000 2.75631e-13
  19 612.392 0.00000 -1.04909e-13
  20 612.392 0.00000 -2.19072e-14
  21 612.392 0.00000 -4.73092e-13
  22 612.392 0.00000 -3.50862e-13
  23 612.392 0.00000 -1.01863e-13
  24 612.392 0.00000 7.52108e-14
  25 612.392 0.00000 1.87927e-14
  26 612.392 0.00000 2.52527e-14
  27 612.392 0.00000 1.34721e-13
  28 612.392 0.00000 5.46454e-14
  29 612.392 0.00000 9.87780e-14
  30 612.392 0.00000 5.01151e-14
  31 612.392 0.00000 4.52176e-14
  32 612.392 0.00000 4.82560e-13
  33 612.392 0.00000 1.58470e-13
  34 612.392 0.00000 1.24417e-13
  35 612.392 0.00000 1.45617e-14
  36 612.392 0.00000 4.50649e-13
  37 612.392 0.00000 5.05275e-13
  38 612.392 0.00000 4.41554e-13
  39 612.392 0.00000 9.66686e-14
  40 612.392 0.00000 7.12124e-15
  41 612.392 0.00000 2.00095e-13
  42 612.392 0.00000 -1.98502e-14
  43 612.392 0.00000 2.92254e-14
  44 612.392 0.00000 -1.01549e-13
  45 612.392 0.00000 -2.65265e-13
  46 612.392 0.00000 -1.32721e-13
  47 612.392 0.00000 3.43381e-14
  48 612.392 0.00000 7.75671e-14
  49 612.392 0.00000 4.85377e-14
  50 612.392 0.00000 1.52728e-14
  51 612.392 0.00000 4.69818e-15
  52 612.392 0.00000 6.99078e-14
  53 612.392 0.00000 2.32662e-15
  54 612.392 0.00000 2.85193e-14
  55 612.392 0.00000 0.00000
  56 612.392 0.00000 -8.00508e-16
  57 612.392 0.00000 -4.79416e-14
  58 612.392 0.00000 -2.50662e-13
  59 612.392 0.00000 -4.45091e-15
  60 612.392 0.00000 -3.81410e-13
  61 612.392 0.00000 -3.07424e-13
  62 612.392 0.00000 3.34288e-13
  63 612.392 0.00000 3.66750e-14
  64 612.392 0.00000 1.79781e-13
  65 612.392 0.00000 1.80791e-14
  66 612.392 0.00000 2.92182e-13
  67 612.392 0.00000 -4.27402e-14
  68 612.392 0.00000 2.05987e-13
  69 612.392 0.00000 1.86453e-13
  70 612.392 0.00000 -6.31514e-14
  71 612.392 0.00000 2.73377e-15
  72 612.392 0.00000 -1.07937e-13
  73 612.392 0.00000 1.34921e-13
  74 612.392 0.00000 2.86305e-13
  75 612.392 0.00000 -3.52844e-14
  76 612.392 0.00000 2.92927e-13
  77 612.392 0.00000 1.27552e-13
  78 612.392 0.00000 -1.92697e-13
  79 612.392 0.00000 7.83094e-14
  80 612.392 0.00000 -5.39926e-14
  81 612.392 0.00000 -2.71059e-13
  82 612.392 0.00000 1.18310e-13
  83 612.392 0.00000 -4.09082e-15
  84 612.392 0.00000 -8.03337e-13
  85 612.392 0.00000 -1.49568e-13
  86 612.392 0.00000 1.91924e-14
  87 612.392 0.00000 9.47784e-14
  88 612.392 0.00000 2.05221e-13
  89 612.392 0.00000 -3.27637e-13
  90 612.392 0.00000 2.08136e-13
  91 612.392 0.00000 3.06911e-13
  92 612.392 0.00000 1.71439e-13
  93 612.392 0.00000 2.43557e-14
  94 612.392 0.00000 -1.29258e-13
  95 612.392 0.00000 -2.47371e-13
  96 612.392 0.00000 3.06613e-13
  97 612.392 0.00000 3.31816e-13
  98 612.392 0.00000 5.22008e-14
  99 612.392 0.00000 4.54025e-14
  100 612.392 0.00000 3.88266e-13
  101 612.392 0.00000 -1.93047e-13
  102 612.392 0.00000 2.89041e-13
  103 612.392 0.00000 3.12104e-13
  104 612.392 0.00000 1.85186e-13
  105 612.392 0.00000 6.82172e-14
  106 612.392 0.00000 -7.31533e-14
  107 612.392 0.00000 6.46105e-14
  108 612.392 0.00000 1.20060e-13
  109 612.392 0.00000 1.31456e-13
  110 612.392 0.00000 -1.15714e-13
  111 612.392 0.00000 -2.76162e-13
  112 612.392 0.00000 -1.37172e-13
  113 612.392 0.00000 2.12201e-13
  114 612.392 0.00000 2.78749e-14
  115 612.392 0.00000 -2.77337e-13
  116 612.392 0.00000 -6.77506e-13
  117 612.392 0.00000 4.47979e-13
  118 612.392 0.00000 2.30742e-13
  119 612.392 0.00000 -1.02074e-13
  120 612.392 0.00000 -6.15821e-14
  121 612.392 0.00000 -2.46231e-13
  122 612.392 0.00000 -2.67638e-13
  123 612.392 0.00000 1.44958e-13
  124 612.392 0.00000 -3.02078e-14
  125 612.392 0.00000 1.29084e-13
  126 612.392 0.00000 -3.33493e-13
  127 612.392 0.00000 1.71842e-13
  128 612.392 0.00000 6.81742e-14
  129 612.392 0.00000 6.57923e-14
  130 612.392 0.00000 -6.15924e-14
  131 612.392 0.00000 1.37405e-13
  132 612.392 0.00000 -4.26765e-14
  133 612.392 0.00000 -1.63216e-13
  134 612.392 0.00000 -1.88681e-13
  135 612.392 0.00000 -3.68792e-14
  136 612.392 0.00000 6.53798e-14
  137 612.392 0.00000 3.39696e-13
  138 612.392 0.00000 2.68797e-13
  139 612.392 0.00000 2.81857e-13
  140 612.392 0.00000 3.52411e-13
  141 612.392 0.00000 -7.55891e-14
  142 612.392 0.00000 -1.23792e-13
  143 612.392 0.00000 1.83643e-13
  144 612.392 0.00000 2.29900e-13
  145 612.392 0.00000 -2.28891e-13
  146 612.392 0.00000 -1.61994e-13
  147 612.392 0.00000 5.42364e-14
  148 612.392 0.00000 -4.06633e-14
  149 612.392 0.00000 3.01920e-13
  150 612.392 0.00000 -3.48668e-13
  151 612.392 0.00000 -2.99611e-13
  152 612.392 0.00000 2.45135e-13
  153 612.392 0.00000 1.33071e-14
  154 612.392 0.00000 -1.34297e-13
  155 612.392 0.00000 1.18626e-13
  156 612.392 0.00000 4.39061e-13
  157 612.392 0.00000 1.01175e-13
  158 612.392 0.00000 -2.36980e-13
  159 612.392 0.00000 1.89935e-13
  160 612.392 0.00000 1.28342e-13
  161 612.392 0.00000 1.83278e-13
  162 612.392 0.00000 3.21755e-13
  163 612.392 0.00000 -1.55057e-13
  164 612.392 0.00000 -6.54527e-14
  165 612.392 0.00000 1.65182e-14
  166 612.392 0.00000 1.89749e-14
  167 612.392 0.00000 -6.95157e-14
  168 612.392 0.00000 9.93349e-14
  169 612.392 0.00000 -3.48117e-14
  170 612.392 0.00000 3.51518e-13
  171 612.392 0.00000 2.14012e-13
  172 612.392 0.00000 2.04064e-14
  173 612.392 0.00000 -3.92262e-14
  174 612.392 0.00000 1.91460e-14
  175 612.392 0.00000 2.77013e-14
  176 612.392 0.00000 -1.77392e-13
  177 612.392 0.00000 3.05208e-14
  178 612.392 0.00000 1.74525e-13
  179 612.392 0.00000 -6.21890e-13
  180 612.392 0.00000 8.53086e-14
  181 612.392 0.00000 -1.54707e-13
  182 612.392 0.00000 6.55977e-14
  183 612.392 0.00000 1.05561e-13
  184 612.392 0.00000 -2.98875e-13
  185 612.392 0.00000 7.30517e-14
  186 612.392 0.00000 -2.53806e-13
  187 612.392 0.00000 1.59593e-13
  188 612.392 0.00000 -1.08190e-13
  189 612.392 0.00000 -3.66122e-13
  190 612.392 0.00000 2.48139e-13
  191 612.392 0.00000 2.59495e-13
  192 612.392 0.00000 -1.83301e-13
  193 612.392 0.00000 8.28524e-14
  194 612.392 0.00000 -1.02196e-13
  195 612.392 0.00000 -8.41857e-14
  196 612.392 0.00000 -2.23807e-13
  197 612.392 0.00000 1.27510e-14
  198 612.392 0.00000 1.88027e-14
  199 612.392 0.00000 1.79788e-13
  200 612.392 0.00000 1.18649e-13
  201 612.392 0.00000 -1.58172e-13
  202 612.392 0.00000 1.53791e-13
  203 612.392 0.00000 -3.84996e-13
  204 612.392 0.00000 2.49760e-13
  205 612.392 0.00000 -6.16490e-14
  206 612.392 0.00000 -1.21874e-14
  207 612.392 0.00000 -9.16031e-14
  208 612.392 0.00000 -3.88770e-13
  209 612.392 0.00000 -1.48415e-13
  210 612.392 0.00000 1.62353e-13
  211 612.392 0.00000 -4.42511e-13
  212 612.392 0.00000 4.84468e-14
  213 612.392 0.00000 7.82470e-14
  214 612.392 0.00000 -2.39454e-13
  215 612.392 0.00000 4.70675e-14
  216 612.392 0.00000 8.22872e-14
  217 612.392 0.00000 -1.43401e-13
  218 612.392 0.00000 1.75493e-13
  219 612.392 0.00000 5.07297e-14
  220 612.392 0.00000 3.73046e-13
  221 612.392 0.00000 3.52927e-14
  222 612.392 0.00000 9.36566e-15
  223 612.392 0.00000 1.67108e-13
  224 612.392 0.00000 1.23088e-13
  225 612.392 0.00000 1.28353e-13
  226 612.392 0.00000 4.34312e-13
  227 612.392 0.00000 3.05510e-13
  228 612.392 0.00000 -2.51012e-13
  229 612.392 0.00000 8.88171e-14
  230 612.392 0.00000 1.14652e-13
  231 612.392 0.00000 8.73988e-14
  232 612.392 0.00000 6.71090e-14
  233 612.392 0.00000 4.10243e-13
  234 612.392 0.00000 -9.76514e-14
  235 612.392 0.00000 5.48188e-14
  236 612.392 0.00000 -4.17361e-13
  237 612.392 0.00000 2.11818e-13
  238 612.392 0.00000 -9.21202e-14
  239 612.392 0.00000 9.75372e-14
  240 612.392 0.00000 3.91032e-13
  241 612.392 0.00000 -3.57164e-13
</Section>

newXOutput 15

<Section columns = "stress_xx | stress_yy | stress_xy">
  1 659.295 0.00000 5.04033e-14
  2 659.295 0.00000 -3.72737e-14
  3 659.295 0.00000 3.29583e-13
  4 659.295 0.00000 1.58279e-14
  5 659.295 0.00000 4.80506e-14
  6 659.295 0.00000 3.53060e-15
  7 659.295 0.00000 -6.28017e-14
  8 659.295 0.00000 -1.34586e-14
  9 659.295 0.00000 3.43083e-14
  10 659.295 0.00000 1.64722e-14
  11 659.295 0.00000 4.47090e-14
  12 659.295 0.00000 2.82652e-13
  13 659.295 0.00000 -1.00381e-13
  14 659.295 0.00000 -2.01046e-13
  15 659.295 0.00000 -1.81766e-14
  16 659.295 0.00000 -8.71086e-14
  17 659.295 0.00000 -9.61454e-14
  18 659.295 0.00000 2.38979e-13
  19 659.295 0.00000 -2.41893e-14
  20 659.295 0.00000 1.27545e-14
  21 659.295 0.00000 -2.00056e-13
  22 659.295 0.00000 -2.93804e-13
  23 659.295 0.00000 -1.93940e-13
  24 659.295 0.00000 -1.25372e-13
  25 659.295 0.00000 -1.86368e-14
  26 659.295 0.00000 1.01600e-13
  27 659.295 0.00000 -1.86368e-14
  28 659.295 0.00000 -7.28152e-14
  29 659.295 0.00000 1.19160e-13
  30 659.295 0.00000 3.64274e-13
  31 659.295 0.00000 1.96223e-13
  32 659.295 0.00000 1.53648e-13
  33 659.295 0.00000 -1.50791e-13
  34 659.295 0.00000 -4.52358e-13
  35 659.295 0.00000 1.05372e-13
  36 659.295 0.00000 1.78904e-13
  37 659.295 0.00000 2.08736e-13
  38 659.295 0.00000 6.26163e-14
  39 659.295 0.00000 -1.99417e-14
  40 659.295 0.00000 -7.38852e-14
  41 659.295 0.00000 1.22646e-13
  42 659.295 0.00000 2.02337e-14
  43 659.295 0.00000 7.11553e-14
  44 659.295 0.00000 1.15574e-13
  45 659.295 0.00000 -2.89063e-14
  46 659.295 0.00000 -1.73532e-13
  47 659.295 0.00000 -1.01558e-13
  48 659.295 0.00000 -4.43028e-14
  49 659.295 0.00000 -1.67064e-14
  50 659.295 0.00000 6.91841e-15
  51 659.295 0.00000 -4.65921e-15
  52 659.295 0.00000 -4.25409e-14
  53 659.295 0.00000 5.95799e-14
  54 659.295 0.00000 -1.90561e-15
  55 659.295 0.00000 -5.59105e-14
  56 659.295 0.00000 -3.98134e-14
  57 659.295 0.00000 -6.92223e-14
  58 659.295 0.00000 1.43704e-13
  59 659.295 0.00000 -5.51675e-14
  60 659.295 0.00000 -9.52719e-14
  61 659.295 0.00000 -1.07863e-13
  62 659.295 0.00000 -6.68674e-14
  63 659.295 0.00000 1.08572e-13
  64 659.295 0.00000 -4.41669e-14
  65 659.295 0.00000 2.86619e-14
  66 659.295 0.00000 5.17683e-14
  67 659.295 0.00000 5.57334e-14
  68 659.295 0.00000 4.55087e-14
  69 659.295 0.00000 -1.91198e-14
  70 659.295 0.00000 1.58632e-14
  71 659.295 0.00000 1.39545e-14
  72 659.295 0.00000 -1.20579e-13
  73 659.295 0.00000 -7.88184e-14
  74 659.295 0.00000 6.00565e-14
  75 659.295 0.00000 7.81890e-14
  76 659.295 0.00000 1.30172e-13
  77 659.295 0.00000 -4.39783e-14
  78 659.295 0.00000 -1.29439e-13
  79 659.295 0.00000 -6.42387e-14
  80 659.295 0.00000 -1.91759e-14
  81 659.295 0.00000 -7.07866e-14
  82 659.295 0.00000 1.34897e-13
  83 659.295 0.00000 -1.06570e-13
  84 659.295 0.00000 1.64496e-14
  85 659.295 0.00000 4.30393e-14
  86 659.295 0.00000 -5.03561e-14
  87 659.295 0.00000 4.72246e-15
  88 659.295 0.00000 -6.78385e-14
  89 659.295 0.00000 -6.58339e-14
  90 659.295 0.00000 7.10871e-14
  91 659.295 0.00000 -1.24128e-13
  92 659.295 0.00000 -8.26625e-14
  93 659.295 0.00000 2.78727e-13
  94 659.295 0.00000 -7.83277e-14
  95 659.295 0.00000 9.73194e-14
  96 659.295 0.00000 1.04901e-13
  97 659.295 0.00000 -2.53876e-13
  98 659.295 0.00000 1.40422e-13
  99 659.295 0.00000 -3.50607e-14
  100 659.295 0.00000 2.44826e-14
  101 659.295 0.00000 -5.45740e-14
  102 659.295 0.00000 7.81914e-14
  103 659.295 0.00000 -3.90600e-14
  104 659.295 0.00000 5.23521e-14
  105 659.295 0.00000 1.28771e-14
  106 659.295 0.00000 -1.31119e-13
  107 659.295 0.00000 1.64869e-13
  108 659.295 0.00000 -4.46668e-14
  109 659.295 0.00000 4.31465e-14
  110 659.295 0.00000 -1.83201e-13
  111 659.295 0.00000 -2.40516e-14
  112 659.295 0.00000 -2.93303e-14
  113 659.295 0.00000 1.80402e-14
  114 659.295 0.00000 5.40321e-14
  115 659.295 0.00000 -8.04011e-14
  116 659.295 0.00000 -1.83986e-14
  117 659.295 0.00000 1.52692e-13
  118 659.295 0.00000 -9.13818e-14
  119 659.295 0.00000 -1.74056e-14
  120 659.295 0.00000 9.50520e-14
  121 659.295 0.00000 -1.40689e-13
  122 659.295 0.00000 8.18752e-14
  123 659.295 0.00000 2.40991e-14
  124 659.295 0.00000 1.51277e-14
  125 659.295 0.00000 -1.33549e-14
  126 659.295 0.00000 2.26967e-14
  127 659.295 0.00000 1.56009e-13
  128 659.295 0.00000 -1.93145e-13
  129 659.295 0.00000 4.88163e-14
  130 659.295 0.00000 3.78631e-14
  131 659.295 0.00000 -3.53935e-14
  132 659.295 0.00000 1.01306e-14
  133 659.295 0.00000 -2.22855e-14
  134 659.295 0.00000 -6.53272e-14
  135 659.295 0.00000 -7.97272e-14
  136 659.295 0.00000 -2.60867e-14
  137 659.295 0.00000 -6.14448e-15
  138 659.295 0.00000 -4.59869e-14
  139 659.295 0.00000 -1.39792e-13
  140 659.295 0.00000 6.71843e-14
  141 659.295 0.00000 -7.99563e-14
  142 659.295 0.00000 2.44729e-14
  143 659.295 0.00000 -6.77545e-14
  144 659.295 0.00000 1.55289e-13
  145 659.295 0.00000 -3.21087e-13
  146 659.295 0.00000 6.80721e-14
  147 659.295 0.00000 2.77299e-14
  148 659.295 0.00000 5.23089e-14
  149 659.295 0.00000 -3.77203e-14
  150 659.295 0.00000 -1.95683e-13
  151 659.295 0.00000 -1.25307e-13
  152 659.295 0.00000 1.54340e-13
  153 659.295 0.00000 -1.59531e-14
  154 659.295 0.00000 -6.26554e-14
  155 659.295 0.00000 4.33622e-14
  156 659.295 0.00000 2.10789e-13
  157 659.295 0.00000 -4.17192e-14
  158 659.295 0.00000 -2.44530e-13
  159 659.295 0.00000 1.11608e-13
  160 659.295 0.00000 3.60020e-14
  161 659.295 0.00000 9.23343e-14
  162 659.295 0.00000 3.41439e-14
  163 659.295 0.00000 -1.26343e-13
  164 659.295 0.00000 -3.99326e-14
  165 659.295 0.00000 4.81451e-14
  166 659.295 0.00000 4.79589e-15
  167 659.295 0.00000 -1.56866e-13
  168 659.295 0.00000 1.04591e-13
  169 659.295 0.00000 -6.02349e-14
  170 659.295 0.00000 8.24245e-14
  171 659.295 0.00000 1.19766e-13
  172 659.295 0.00000 -1.33866e-13
  173 659.295 0.00000 -4.97320e-14
  174 659.295 0.00000 -1.92022e-14
  175 659.295 0.00000 9.34482e-15
  176 659.295 0.00000 -5.12892e-15
  177 659.295 0.00000 6.65105e-14
  178 659.295 0.00000 -5.73980e-14
  179 659.295 0.00000 -4.77466e-14
  180 659.295 0.00000 -6.91388e-14
  181 659.295 0.00000 1.52654e-13
  182 659.295 0.00000 1.23276e-13
  183 659.295 0.00000 -8.35096e-14
  184 659.295 0.00000 -5.39019e-14
  185 659.295 0.00000 1.18361e-13
  186 659.295 0.00000 -1.33334e-13
  187 659.295 0.00000 -1.79314e-13
  188 659.295 0.00000 -8.73432e-14
  189 659.295 0.00000 -1.32627e-13
  190 659.295 0.00000 -1.51291e-14
  191 659.295 0.00000 7.78169e-14
  192 659.295 0.00000 -1.00633e-14
  193 659.295 0.00000 7.11602e-14
  194 659.295 0.00000 -1.73232e-13
  195 659.295 0.00000 7.62507e-15
  196 659.295 0.00000 5.29210e-14
  197 659.295 0.00000 -6.38806e-15
  198 659.295 0.00000 -2.13647e-14
  199 659.295 0.00000 -1.05346e-13
  200 659.295 0.00000 -3.28236e-14
  201 659.295 0.00000 -3.78831e-14
  202 659.295 0.00000 8.87784e-14
  203 659.295 0.00000 -1.06757e-13
  204 659.295 0.00000 -5.33725e-14
  205 659.295 0.00000 9.30761e-15
  206 659.295 0.00000 -2.82062e-14
  207 659.295 0.00000 -5.35180e-14
  208 659.295 0.00000 -1.82318e-13
  209 659.295 0.00000 -3.96633e-13
  210 659.295 0.00000 7.88464e-14
  211 659.295 0.00000 2.76400e-14
  212 659.295 0.00000 3.00724e-14
  213 659.295 0.00000 -2.64382e-14
  214 659.295 0.00000 2.00435e-13
  215 659.295 0.00000 -1.16269e-13
  216 659.295 0.00000 -2.22583e-13
  217 659.295 0.00000 -3.49925e-13
  218 659.295 0.00000 1.12729e-13
  219 659.295 0.00000 1.11028e-13
  220 659.295 0.00000 -6.16258e-14
  221 659.295 0.00000 -7.53439e-14
  222 659.295 0.00000 3.05595e-13
  223 659.295 0.00000 5.98913e-14
  224 659.295 0.00000 3.37153e-14
  225 659.295 0.00000 -1.53371e-13
  226 659.295 0.00000 -4.63639e-14
  227 659.295 0.00000 1.74137e-14
  228 659.295 0.00000 6.37876e-14
  229 659.295 0.00000 -4.65669e-14
  230 659.295 0.00000 4.80002e-15
  231 659.295 0.00000 2.86379e-13
  232 659.295 0.00000 -3.52521e-14
  233 659.295 0.00000 4.55941e-13
  234 659.295 0.00000 1.99314e-14
  235 659.295 0.00000 9.37072e-14
  236 659.295 0.00000 5.25550e-14
  237 659.295 0.00000 1.26729e-14
  238 659.295 0.00000 -3.84855e-14
  239 659.295 0.00000 8.54734e-14
  240 659.295 0.00000 1.30626e-13
  241 659.295 0.00000 9.69667e-15
</Section>

newXOutput 16

<Section columns = "stress_xx | stress_yy | stress_xy">
  1 706.172 0.00000 2.88405e-14
  2 706.172 0.00000 2.06613e-13
  3 706.172 0.00000 -2.56630e-13
  4 706.172 0.00000 -1.10257e-14
  5 706.172 0.00000 -2.68198e-14
  6 706.172 0.00000 -2.72546e-15
  7 706.172 0.00000 9.67915e-14
  8 706.172 0.00000 4.62092e-14
  9 706.172 0.00000 1.45172e-13
  10 706.172 0.00000 1.86093e-13
  11 706.172 0.00000 -1.07162e-13
  12 706.172 0.00000 -3.19913e-13
  13 706.172 0.00000 -2.77411e-13
  14 706.172 0.00000 -2.26364e-13
  15 706.172 0.00000 -2.03766e-13
  16 706.172 0.00000 3.19091e-14
  17 706.172 0.00000 -2.06451e-13
  18 706.172 0.00000 -1.24934e-13
  19 706.172 0.00000 -2.13556e-13
  20 706.172 0.00000 -1.12776e-13
  21 706.172 0.00000 -3.19091e-14
  22 706.172 0.00000 1.25259e-13
  23 706.172 0.00000 1.12938e-13
  24 706.172 0.00000 -4.43922e-14
  25 706.172 0.00000 0.00000
  26 706.172 0.00000 -1.79034e-14
  27 706.172 0.00000 2.46413e-14
  28 706.172 0.00000 -5.59491e-14
  29 706.172 0.00000 -4.62023e-14
  30 706.172 0.00000 -8.17409e-14
  31 706.172 0.00000 -2.04642e-14
  32 706.172 0.00000 3.81804e-13
  33 706.172 0.00000 2.83671e-13
  34 706.172 0.00000 2.24262e-13
  35 706.172 0.00000 6.26262e-15
  36 706.172 0.00000 1.97478e-14
  37 706.172 0.00000 1.05103e-13
  38 706.172 0.00000 1.58880e-13
  39 706.172 0.00000 1.31696e-13
  40 706.172 0.00000 1.44061e-13
  41 706.172 0.00000 2.34480e-13
  42 706.172 0.00000 -8.46589e-14
  43 706.172 0.00000 -2.22498e-13
  44 706.172 0.00000 -1.28984e-13
  45 706.172 0.00000 7.88489e-15
  46 706.172 0.00000 1.44088e-13
  47 706.172 0.00000 6.94470e-14
  48 706.172 0.00000 -3.93902e-14
  49 706.172 0.00000 -4.64003e-14
  50 706.172 0.00000 4.16599e-15
  51 706.172 0.00000 -4.62023e-15
  52 706.172 0.00000 -5.32820e-14
  53 706.172 0.00000 3.98864e-14
  54 706.172 0.00000 -3.67284e-15
  55 706.172 0.00000 -1.84809e-14
  56 706.172 0.00000 6.06077e-15
  57 706.172 0.00000 3.33994e-14
  58 706.172 0.00000 1.08348e-13
  59 706.172 0.00000 7.15155e-14
  60 706.172 0.00000 -1.14565e-13
  61 706.172 0.00000 -7.21303e-14
  62 706.172 0.00000 -9.58827e-14
  63 706.172 0.00000 -2.18366e-13
  64 706.172 0.00000 1.28764e-13
  65 706.172 0.00000 -4.31145e-15
  66 706.172 0.00000 -3.44355e-14
  67 706.172 0.00000 -6.41320e-15
  68 706.172 0.00000 -1.78197e-13
  69 706.172 0.00000 -4.77161e-14
  70 706.172 0.00000 5.54716e-14
  71 706.172 0.00000 -1.05728e-13
  72 706.172 0.00000 1.02673e-13
  73 706.172 0.00000 1.49792e-13
  74 706.172 0.00000 -1.83303e-13
  75 706.172 0.00000 9.00993e-14
  76 706.172 0.00000 3.08224e-13
  77 706.172 0.00000 -3.70365e-14
  78 706.172 0.00000 -1.47064e-13
  79 706.172 0.00000 -1.79165e-13
  80 706.172 0.00000 -3.94448e-14
  81 706.172 0.00000 1.58919e-13
  82 706.172 0.00000 2.94813e-14
  83 706.172 0.00000 3.51260e-14
  84 706.172 0.00000 2.12562e-14
  85 706.172 0.00000 5.27608e-14
  86 706.172 0.00000 1.72178e-14
  87 706.172 0.00000 1.87591e-14
  88 706.172 0.00000 -3.39735e-13
  89 706.172 0.00000 1.64379e-14
  90 706.172 0.00000 1.04286e-14
  91 706.172 0.00000 1.81289e-13
  92 706.172 0.00000 -3.23845e-14
  93 706.172 0.00000 2.35721e-13
  94 706.172 0.00000 -1.51336e-13
  95 706.172 0.00000 1.61617e-13
  96 706.172 0.00000 -1.80053e-13
  97 706.172 0.00000 -2.27939e-13
  98 706.172 0.00000 -1.66094e-13
  99 706.172 0.00000 -2.59786e-13
  100 706.172 0.00000 -1.53776e-13
  101 706.172 0.00000 6.92440e-14
  102 706.172 0.00000 -1.31779e-13
  103 706.172 0.00000 4.43739e-14
  104 706.172 0.00000 -1.68085e-13
  105 706.172 0.00000 -7.69037e-15
  106 706.172 0.00000 3.69081e-14
  107 706.172 0.00000 6.54533e-15
  108 706.172 0.00000 -6.25085e-14
  109 706.172 0.00000 3.94368e-14
  110 706.172 0.00000 -7.29503e-14
  111 706.172 0.00000 -4.23538e-14
  112 706.172 0.00000 -7.25675e-15
  113 706.172 0.00000 9.27840e-14
  114 706.172 0.00000 1.14438e-13
  115 706.172 0.00000 1.02621e-13
  116 706.172 0.00000 1.03852e-13
  117 706.172 0.00000 7.94044e-14
  118 706.172 0.00000 -6.30746e-14
  119 706.172 0.00000 -1.58982e-13
  120 706.172 0.00000 -8.77164e-14
  121 706.172 0.00000 -2.48567e-14
  122 706.172 0.00000 -1.80151e-14
  123 706.172 0.00000 -1.30243e-13
  124 706.172 0.00000 -1.57560e-14
  125 706.172 0.00000 -1.29679e-14
  126 706.172 0.00000 5.68051e-14
  127 706.172 0.00000 -1.46150e-13
  128 706.172 0.00000 -1.05666e-13
  129 706.172 0.00000 -1.05450e-13
  130 706.172 0.00000 -1.53196e-14
  131 706.172 0.00000 -1.16518e-13
  132 706.172 0.00000 3.85464e-14
  133 706.172 0.00000 -1.52583e-13
  134 706.172 0.00000 -9.94415e-14
  135 706.172 0.00000 1.46188e-14
  136 706.172 0.00000 -3.67760e-14
  137 706.172 0.00000 -2.23854e-13
  138 706.172 0.00000 -1.60213e-13
  139 706.172 0.00000 -1.21395e-13
  140 706.172 0.00000 1.70500e-14
  141 706.172 0.00000 -8.20779e-14
  142 706.172 0.00000 9.34047e-14
  143 706.172 0.00000 -4.37265e-14
  144 706.172 0.00000 1.54559e-13
  145 706.172 0.00000 2.25222e-13
  146 706.172 0.00000 4.90445e-14
  147 706.172 0.00000 5.46070e-14
  148 706.172 0.00000 4.36479e-14
  149 706.172 0.00000 9.95375e-14
  150 706.172 0.00000 1.86454e-13
  151 706.172 0.00000 1.38100e-13
  152 706.172 0.00000 -1.41448e-13
  153 706.172 0.00000 -2.44911e-13
  154 706.172 0.00000 1.06743e-13
  155 706.172 0.00000 2.66151e-14
  156 706.172 0.00000 1.15731e-13
  157 706.172 0.00000 -5.81229e-14
  158 706.172 0.00000 -7.40450e-14
  159 706.172 0.00000 -1.79364e-13
  160 706.172 0.00000 1.92351e-14
  161 706.172 0.00000 1.53018e-13
  162 706.172 0.00000 -1.38912e-13
  163 706.172 0.00000 -1.75235e-13
  164 706.172 0.00000 -1.05630e-14
  165 706.172 0.00000 -3.70225e-14
  166 706.172 0.00000 -6.88033e-15
  167 706.172 0.00000 -1.18279e-13
  168 706.172 0.00000 -4.00767e-14
  169 706.172 0.00000 -4.36375e-15
  170 706.172 0.00000 -5.69339e-14
  171 706.172 0.00000 -1.22886e-13
  172 706.172 0.00000 -1.92482e-13
  173 706.172 0.00000 5.26214e-14
  174 706.172 0.00000 -8.12268e-17
  175 706.172 0.00000 -4.75329e-15
  176 706.172 0.00000 1.21084e-14
  177 706.172 0.00000 -3.41776e-13
  178 706.172 0.00000 -5.85338e-14
  179 706.172 0.00000 1.45451e-13
  180 706.172 0.00000 -1.08757e-13
  181 706.172 0.00000 -5.35183e-14
  182 706.172 0.00000 7.85692e-14
  183 706.172 0.00000 2.18597e-14
  184 706.172 0.00000 4.36073e-15
  185 706.172 0.00000 -8.14934e-14
  186 706.172 0.00000 -3.20059e-13
  187 706.172 0.00000 -6.43563e-14
  188 706.172 0.00000 -1.79252e-14
  189 706.172 0.00000 3.63433e-14
  190 706.172 0.00000 -5.58430e-15
  191 706.172 0.00000 -1.72242e-13
  192 706.172 0.00000 5.51446e-14
  193 706.172 0.00000 -8.72209e-15
  194 706.172 0.00000 -2.74662e-14
  195 706.172 0.00000 -1.28620e-14
  196 706.172 0.00000 -6.99351e-15
  197 706.172 0.00000 5.82051e-15
  198 706.172 0.00000 -2.50518e-13
  199 706.172 0.00000 -2.49833e-15
  200 706.172 0.00000 1.17865e-13
  201 706.172 0.00000 1.07951e-13
  202 706.172 0.00000 -2.16499e-14
  203 706.172 0.00000 -4.75365e-14
  204 706.172 0.00000 -1.61322e-13
  205 706.172 0.00000 -1.72632e-13
  206 706.172 0.00000 -5.07979e-14
  207 706.172 0.00000 3.30332e-14
  208 706.172 0.00000 1.60787e-14
  209 706.172 0.00000 -1.79866e-15
  210 706.172 0.00000 -3.98826e-14
  211 706.172 0.00000 4.97732e-14
  212 706.172 0.00000 1.76946e-13
  213 706.172 0.00000 -1.80736e-14
  214 706.172 0.00000 9.07680e-14
  215 706.172 0.00000 4.45856e-14
  216 706.172 0.00000 -2.68321e-14
  217 706.172 0.00000 1.13286e-13
  218 706.172 0.00000 -1.82020e-13
  219 706.172 0.00000 -9.93934e-14
  220 706.172 0.00000 -6.30803e-14
  221 706.172 0.00000 -5.47940e-14
  222 706.172 0.00000 2.19043e-14
  223 706.172 0.00000 4.35077e-14
  224 706.172 0.00000 -8.91136e-16
  225 706.172 0.00000 -3.12302e-14
  226 706.172 0.00000 -1.83678e-13
  227 706.172 0.00000 -6.69522e-14
  228 706.172 0.00000 4.95346e-14
  229 706.172 0.00000 -1.98686e-14
  230 706.172 0.00000 -1.15266e-14
  231 706.172 0.00000 -7.20262e-14
  232 706.172 0.00000 -4.16250e-14
  233 706.172 0.00000 5.55485e-14
  234 706.172 0.00000 1.56062e-13
  235 706.172 0.00000 4.56896e-14
  236 706.172 0.00000 -5.89016e-14
  237 706.172 0.00000 -2.13789e-13
  238 706.172 0.00000 -1.33088e-14
  239 706.172 0.00000 -1.34481e-13
  240 706.172 0.00000 -2.46309e-13
  241 706.172 0.00000 -3.69619e-14
</Section>

newXOutput 17

<Section columns = "stress_xx | stress_yy | stress_xy">
  1 753.023 0.00000 2.79588e-14
  2 753.023 0.00000 3.66500e-14
  3 753.023 0.00000 -2.22325e-13
  4 753.023 0.00000 -1.22147e-14
  5 753.023 0.00000 1.91286e-15
  6 753.023 0.00000 -1.63984e-14
  7 753.023 0.00000 7.67428e-14
  8 753.023 0.00000 8.94786e-14
  9 753.023 0.00000 1.01039e-13
  10 753.023 0.00000 -4.89480e-14
  11 753.023 0.00000 3.21947e-14
  12 753.023 0.00000 -1.49304e-13
  13 753.023 0.00000 -6.95481e-14
  14 753.023 0.00000 -9.85519e-14
  15 753.023 0.00000 1.23949e-13
  16 753.023 0.00000 1.60811e-13
  17 753.023 0.00000 -2.14951e-13
  18 753.023 0.00000 -2.84452e-13
  19 753.023 0.00000 -1.41845e-14
  20 753.023 0.00000 7.66060e-14
  21 753.023 0.00000 2.45834e-13
  22 753.023 0.00000 4.60129e-13
  23 753.023 0.00000 6.81887e-14
  24 753.023 0.00000 4.37554e-14
  25 753.023 0.00000 -5.49749e-14
  26 753.023 0.00000 -6.33425e-14
  27 753.023 0.00000 1.60811e-13
  28 753.023 0.00000 -5.19640e-14
  29 753.023 0.00000 -7.32999e-14
  30 753.023 0.00000 -2.19761e-14
  31 753.023 0.00000 -8.35139e-14
  32 753.023 0.00000 -2.12321e-13
  33 753.023 0.00000 -4.31929e-14
  34 753.023 0.00000 2.87266e-13
  35 753.023 0.00000 1.36300e-13
  36 753.023 0.00000 -1.69863e-13
  37 753.023 0.00000 -1.00844e-13
  38 753.023 0.00000 1.16673e-13
  39 753.023 0.00000 1.21511e-13
  40 753.023 0.00000 1.73478e-13
  41 753.023 0.00000 1.87796e-14
  42 753.023 0.00000 -3.93999e-14
  43 753.023 0.00000 4.24280e-14
  44 753.023 0.00000 -7.33013e-14
  45 753.023 0.00000 -1.11801e-13
  46 753.023 0.00000 5.64430e-14
  47 753.023 0.00000 1.74214e-14
  48 753.023 0.00000 -6.03979e-14
  49 753.023 0.00000 -4.67186e-14
  50 753.023 0.00000 8.19232e-15
  51 753.023 0.00000 1.83250e-14
  52 753.023 0.00000 -4.20533e-14
  53 753.023 0.00000 1.99780e-14
  54 753.023 0.00000 -4.17683e-16
  55 753.023 0.00000 0.00000
  56 753.023 0.00000 -1.04741e-14
  57 753.023 0.00000 4.09602e-15
  58 753.023 0.00000 -1.91646e-13
  59 753.023 0.00000 1.13811e-13
  60 753.023 0.00000 7.65165e-14
  61 753.023 0.00000 1.33036e-13
  62 753.023 0.00000 -7.60245e-14
  63 753.023 0.00000 -1.05181e-13
  64 753.023 0.00000 -3.32204e-13
  65 753.023 0.00000 -2.31467e-14
  66 753.023 0.00000 6.10250e-14
  67 753.023 0.00000 -1.01956e-13
  68 753.023 0.00000 -1.39042e-13
  69 753.023 0.00000 -1.45604e-13
  70 753.023 0.00000 -5.87089e-14
  71 753.023 0.00000 -6.27990e-14
  72 753.023 0.00000 -7.18068e-14
  73 753.023 0.00000 2.21669e-14
  74 753.023 0.00000 -1.13905e-13
  75 753.023 0.00000 1.14758e-13
  76 753.023 0.00000 4.74655e-14
  77 753.023 0.00000 -5.07622e-14
  78 753.023 0.00000 -6.87868e-14
  79 753.023 0.00000 -1.38397e-13
  80 753.023 0.00000 3.74560e-15
  81 753.023 0.00000 1.53324e-13
  82 753.023 0.00000 -2.36779e-14
  83 753.023 0.00000 1.60255e-14
  84 753.023 0.00000 6.64192e-14
  85 753.023 0.00000 -5.88654e-14
  86 753.023 0.00000 -1.29353e-13
  87 753.023 0.00000 -1.74808e-14
  88 753.023 0.00000 -8.01718e-16
  89 753.023 0.00000 -3.65101e-14
  90 753.023 0.00000 1.39996e-14
  91 753.023 0.00000 7.97570e-14
  92 753.023 0.00000 -2.63883e-14
  93 753.023 0.00000 -1.11265e-13
  94 753.023 0.00000 1.73655e-14
  95 753.023 0.00000 1.58805e-13
  96 753.023 0.00000 -1.39676e-14
  97 753.023 0.00000 -1.69884e-14
  98 753.023 0.00000 -1.22287e-13
  99 753.023 0.00000 5.97623e-14
  100 753.023 0.00000 -6.64446e-14
  101 753.023 0.00000 -4.59791e-14
  102 753.023 0.00000 -1.98962e-13
  103 753.023 0.00000 -1.27736e-14
  104 753.023 0.00000 -2.60615e-13
  105 753.023 0.00000 -1.21102e-13
  106 753.023 0.00000 -6.65667e-15
  107 753.023 0.00000 -4.54399e-14
  108 753.023 0.00000 -7.34530e-14
  109 753.023 0.00000 3.36426e-14
  110 753.023 0.00000 -9.04127e-14
  111 753.023 0.00000 -4.62397e-14
  112 753.023 0.00000 2.89393e-14
  113 753.023 0.00000 -3.88342e-14
  114 753.023 0.00000 -2.08519e-13
  115 753.023 0.00000 -9.24712e-14
  116 753.023 0.00000 1.81428e-13
  117 753.023 0.00000 -3.47839e-13
  118 753.023 0.00000 -5.72738e-15
  119 753.023 0.00000 -2.65105e-14
  120 753.023 0.00000 -8.00065e-14
  121 753.023 0.00000 7.74209e-15
  122 753.023 0.00000 -4.91929e-14
  123 753.023 0.00000 -3.93220e-14
  124 753.023 0.00000 -3.97484e-14
  125 753.023 0.00000 8.37950e-14
  126 753.023 0.00000 1.19285e-13
  127 753.023 0.00000 -1.96194e-13
  128 753.023 0.00000 1.72764e-13
  129 753.023 0.00000 -8.34156e-14
  130 753.023 0.00000 -3.06677e-14
  131 753.023 0.00000 5.74293e-14
  132 753.023 0.00000 -5.00797e-14
  133 753.023 0.00000 -1.36145e-13
  134 753.023 0.00000 2.00112e-14
  135 753.023 0.00000 4.20667e-14
  136 753.023 0.00000 -6.06974e-14
  137 753.023 0.00000 1.34259e-13
  138 753.023 0.00000 -8.13410e-15
  139 753.023 0.00000 -9.87013e-14
  140 753.023 0.00000 -7.41163e-14
  141 753.023 0.00000 -7.70640e-14
  142 753.023 0.00000 9.07223e-14
  143 753.023 0.00000 -3.23656e-14
  144 753.023 0.00000 3.02545e-14
  145 753.023 0.00000 -1.11060e-13
  146 753.023 0.00000 7.07921e-14
  147 753.023 0.00000 -2.37246e-14
  148 753.023 0.00000 2.83051e-14
  149 753.023 0.00000 1.02175e-13
  150 753.023 0.00000 7.41797e-16
  151 753.023 0.00000 2.44914e-14
  152 753.023 0.00000 -1.00995e-13
  153 753.023 0.00000 -1.03793e-13
  154 753.023 0.00000 1.28809e-13
  155 753.023 0.00000 2.59116e-14
  156 753.023 0.00000 -1.39009e-13
  157 753.023 0.00000 -7.46593e-14
  158 753.023 0.00000 6.41878e-14
  159 753.023 0.00000 -3.47260e-15
  160 753.023 0.00000 5.61617e-15
  161 753.023 0.00000 6.42886e-14
  162 753.023 0.00000 -7.02281e-14
  163 753.023 0.00000 -1.70745e-13
  164 753.023 0.00000 -9.31424e-14
  165 753.023 0.00000 -4.61136e-14
  166 753.023 0.00000 -8.05388e-15
  167 753.023 0.00000 -4.06169e-15
  168 753.023 0.00000 -3.47580e-14
  169 753.023 0.00000 -1.62925e-14
  170 753.023 0.00000 7.53469e-15
  171 753.023 0.00000 -4.74489e-14
  172 753.023 0.00000 9.63899e-14
  173 753.023 0.00000 -6.03189e-14
  174 753.023 0.00000 -4.53663e-15
  175 753.023 0.00000 -1.71642e-14
  176 753.023 0.00000 -2.68171e-15
  177 753.023 0.00000 1.28700e-13
  178 753.023 0.00000 -7.92335e-14
  179 753.023 0.00000 1.46714e-13
  180 753.023 0.00000 -1.08268e-13
  181 753.023 0.00000 -2.09813e-13
  182 753.023 0.00000 -4.21822e-14
  183 753.023 0.00000 3.25132e-14
  184 753.023 0.00000 2.65668e-15
  185 753.023 0.00000 5.78001e-14
  186 753.023 0.00000 1.92189e-14
  187 753.023 0.00000 7.98512e-14
  188 753.023 0.00000 1.66687e-14
  189 753.023 0.00000 1.28971e-13
  190 753.023 0.00000 -2.49834e-14
  191 753.023 0.00000 -1.06020e-13
  192 753.023 0.00000 -9.36124e-14
  193 753.023 0.00000 -1.98347e-13
  194 753.023 0.00000 4.18285e-14
  195 753.023 0.00000 -3.65401e-14
  196 753.023 0.00000 -2.47041e-13
  197 753.023 0.00000 1.14037e-14
  198 753.023 0.00000 1.49421e-13
  199 753.023 0.00000 6.47931e-14
  200 753.023 0.00000 -1.54173e-13
  201 753.023 0.00000 8.72651e-14
  202 753.023 0.00000 1.27962e-13
  203 753.023 0.00000 -9.51767e-15
  204 753.023 0.00000 -1.33497e-13
  205 753.023 0.00000 -1.25001e-13
  206 753.023 0.00000 5.88934e-14
  207 753.023 0.00000 1.01582e-14
  208 753.023 0.00000 6.01474e-15
  209 753.023 0.00000 -1.02638e-13
  210 753.023 0.00000 -6.03447e-14
  211 753.023 0.00000 3.99760e-14
  212 753.023 0.00000 1.16590e-13
  213 753.023 0.00000 -5.59742e-14
  214 753.023 0.00000 9.15224e-14
  215 753.023 0.00000 -9.43884e-14
  216 753.023 0.00000 -3.91861e-14
  217 753.023 0.00000 -1.48855e-13
  218 753.023 0.00000 -1.26134e-13
  219 753.023 0.00000 -1.04496e-13
  220 753.023 0.00000 -3.52937e-14
  221 753.023 0.00000 -7.62425e-14
  222 753.023 0.00000 -1.00855e-13
  223 753.023 0.00000 -1.95134e-15
  224 753.023 0.00000 9.11566e-14
  225 753.023 0.00000 1.30539e-13
  226 753.023 0.00000 -4.71278e-14
  227 753.023 0.00000 -1.08765e-13
  228 753.023 0.00000 1.73549e-13
  229 753.023 0.00000 -6.27905e-15
  230 753.023 0.00000 8.87105e-14
  231 753.023 0.00000 -2.04886e-13
  232 753.023 0.00000 -7.66977e-15
  233 753.023 0.00000 -1.17361e-13
  234 753.023 0.00000 4.02815e-14
  235 753.023 0.00000 -5.69191e-14
  236 753.023 0.00000 2.74092e-15
  237 753.023 0.00000 7.61751e-14
  238 753.023 0.00000 -1.40359e-13
  239 753.023 0.00000 -1.48604e-13
  240 753.023 0.00000 -8.80737e-14
  241 753.023 0.00000 6.96030e-14
</Section>

newXOutput 18

<Section columns = "stress_xx | stress_yy | stress_xy">
  1 799.850 0.00000 9.79445e-15
  2 799.850 0.00000 5.45069e-14
  3 799.850 0.00000 1.55108e-13
  4 799.850 0.00000 -8.54492e-15
  5 799.850 0.00000 -1.40476e-15
  6 799.850 0.00000 2.12650e-14
  7 799.850 0.00000 2.63927e-15
  8 799.850 0.00000 7.91392e-14
  9 799.850 0.00000 1.00692e-13
  10 799.850 0.00000 -1.65654e-13
  11 799.850 0.00000 -2.62893e-14
  12 799.850 0.00000 -2.69915e-13
  13 799.850 0.00000 -1.40608e-13
  14 799.850 0.00000 -1.67346e-13
  15 799.850 0.00000 -7.12183e-14
  16 799.850 0.00000 -1.46978e-13
  17 799.850 0.00000 -2.25271e-13
  18 799.850 0.00000 -2.49496e-13
  19 799.850 0.00000 -4.81130e-14
  20 799.850 0.00000 3.12495e-13
  21 799.850 0.00000 4.74359e-13
  22 799.850 0.00000 6.88192e-14
  23 799.850 0.00000 1.65783e-14
  24 799.850 0.00000 7.26759e-14
  25 799.850 0.00000 9.79503e-14
  26 799.850 0.00000 3.98907e-14
  27 799.850 0.00000 1.00319e-13
  28 799.850 0.00000 8.13162e-14
  29 799.850 0.00000 1.05056e-13
  30 799.850 0.00000 3.65765e-13
  31 799.850 0.00000 -9.93462e-14
  32 799.850 0.00000 -8.05732e-13
  33 799.850 0.00000 -1.77317e-13
  34 799.850 0.00000 1.08387e-13
  35 799.850 0.00000 3.08300e-13
  36 799.850 0.00000 4.11913e-13
  37 799.850 0.00000 -7.96605e-14
  38 799.850 0.00000 3.78352e-14
  39 799.850 0.00000 2.95071e-13
  40 799.850 0.00000 6.92277e-14
  41 799.850 0.00000 9.90152e-14
  42 799.850 0.00000 -1.01069e-13
  43 799.850 0.00000 -1.52123e-13
  44 799.850 0.00000 -2.97088e-14
  45 799.850 0.00000 -6.58411e-14
  46 799.850 0.00000 6.02233e-15
  47 799.850 0.00000 6.20736e-14
  48 799.850 0.00000 -1.44263e-14
  49 799.850 0.00000 -2.68628e-14
  50 799.850 0.00000 1.15967e-14
  51 799.850 0.00000 9.08449e-15
  52 799.850 0.00000 -4.51626e-14
  53 799.850 0.00000 -3.85667e-15
  54 799.850 0.00000 -2.49823e-14
  55 799.850 0.00000 0.00000
  56 799.850 0.00000 4.14256e-16
  57 799.850 0.00000 4.02331e-14
  58 799.850 0.00000 -1.46893e-13
  59 799.850 0.00000 5.54206e-14
  60 799.850 0.00000 3.25273e-13
  61 799.850 0.00000 1.08545e-13
  62 799.850 0.00000 -7.06171e-14
  63 799.850 0.00000 -1.29336e-13
  64 799.850 0.00000 -1.74891e-13
  65 799.850 0.00000 3.91496e-15
  66 799.850 0.00000 1.04432e-13
  67 799.850 0.00000 1.55837e-13
  68 799.850 0.00000 -1.11130e-13
  69 799.850 0.00000 -1.65716e-13
  70 799.850 0.00000 -1.44975e-14
  71 799.850 0.00000 -6.32111e-14
  72 799.850 0.00000 -8.08548e-14
  73 799.850 0.00000 -5.48411e-14
  74 799.850 0.00000 -1.01948e-13
  75 799.850 0.00000 2.35470e-15
  76 799.850 0.00000 5.02112e-13
  77 799.850 0.00000 -4.05338e-14
  78 799.850 0.00000 -5.31611e-14
  79 799.850 0.00000 -2.14956e-14
  80 799.850 0.00000 6.87426e-14
  81 799.850 0.00000 2.88815e-13
  82 799.850 0.00000 -2.64356e-14
  83 799.850 0.00000 1.31392e-13
  84 799.850 0.00000 7.89357e-14
  85 799.850 0.00000 7.83937e-14
  86 799.850 0.00000 1.29583e-14
  87 799.850 0.00000 -1.99886e-14
  88 799.850 0.00000 4.11243e-13
  89 799.850 0.00000 -2.01716e-14
  90 799.850 0.00000 1.11666e-13
  91 799.850 0.00000 2.34901e-14
  92 799.850 0.00000 -4.28501e-14
  93 799.850 0.00000 -1.07614e-13
  94 799.850 0.00000 -6.19124e-14
  95 799.850 0.00000 2.67104e-14
  96 799.850 0.00000 -5.86700e-14
  97 799.850 0.00000 7.04393e-15
  98 799.850 0.00000 -1.26390e-13
  99 799.850 0.00000 -8.50184e-14
  100 799.850 0.00000 -1.12366e-14
  101 799.850 0.00000 2.09088e-13
  102 799.850 0.00000 -8.38373e-14
  103 799.850 0.00000 2.20618e-13
  104 799.850 0.00000 -6.23185e-14
  105 799.850 0.00000 -1.14478e-13
  106 799.850 0.00000 6.98425e-14
  107 799.850 0.00000 9.42625e-14
  108 799.850 0.00000 -5.55183e-14
  109 799.850 0.00000 9.16588e-15
  110 799.850 0.00000 1.44794e-13
  111 799.850 0.00000 1.66065e-13
  112 799.850 0.00000 9.10172e-14
  113 799.850 0.00000 8.90647e-14
  114 799.850 0.00000 -7.73454e-14
  115 799.850 0.00000 -2.41984e-14
  116 799.850 0.00000 5.83035e-14
  117 799.850 0.00000 -3.22976e-13
  118 799.850 0.00000 2.72286e-14
  119 799.850 0.00000 -2.04611e-14
  120 799.850 0.00000 -1.09106e-13
  121 799.850 0.00000 2.81671e-14
  122 799.850 0.00000 1.50170e-13
  123 799.850 0.00000 1.52859e-14
  124 799.850 0.00000 1.36806e-13
  125 799.850 0.00000 -8.26461e-15
  126 799.850 0.00000 1.07879e-13
  127 799.850 0.00000 -9.71686e-14
  128 799.850 0.00000 -4.43443e-14
  129 799.850 0.00000 -1.25369e-13
  130 799.850 0.00000 8.78677e-14
  131 799.850 0.00000 1.43425e-13
  132 799.850 0.00000 -7.66155e-14
  133 799.850 0.00000 -5.81188e-14
  134 799.850 0.00000 -8.25806e-15
  135 799.850 0.00000 1.00213e-13
  136 799.850 0.00000 -2.14907e-14
  137 799.850 0.00000 2.37768e-13
  138 799.850 0.00000 3.43757e-14
  139 799.850 0.00000 -6.78228e-14
  140 799.850 0.00000 1.00918e-14
  141 799.850 0.00000 4.53340e-14
  142 799.850 0.00000 5.16144e-14
  143 799.850 0.00000 9.12582e-14
  144 799.850 0.00000 -5.37972e-15
  145 799.850 0.00000 5.56897e-14
  146 799.850 0.00000 -3.60978e-14
  147 799.850 0.00000 3.33720e-14
  148 799.850 0.00000 1.98865e-14
  149 799.850 0.00000 3.43800e-13
  150 799.850 0.00000 -6.23220e-14
  151 799.850 0.00000 7.40207e-14
  152 799.850 0.00000 -1.09654e-13
  153 799.850 0.00000 -1.73961e-13
  154 799.850 0.00000 1.52945e-13
  155 799.850 0.00000 1.81591e-13
  156 799.850 0.00000 -3.15320e-14
  157 799.850 0.00000 -2.65072e-14
  158 799.850 0.00000 1.35908e-13
  159 799.850 0.00000 -5.98413e-14
  160 799.850 0.00000 1.31500e-14
  161 799.850 0.00000 3.49760e-13
  162 799.850 0.00000 1.01946e-14
  163 799.850 0.00000 3.58171e-14
  164 799.850 0.00000 -7.13319e-14
  165 799.850 0.00000 3.82243e-14
  166 799.850 0.00000 2.50836e-15
  167 799.850 0.00000 -5.46383e-14
  168 799.850 0.00000 3.42467e-13
  169 799.850 0.00000 -5.37814e-15
  170 799.850 0.00000 1.30010e-13
  171 799.850 0.00000 9.89262e-15
  172 799.850 0.00000 -4.19385e-14
  173 799.850 0.00000 -4.90020e-14
  174 799.850 0.00000 4.05477e-16
  175 799.850 0.00000 -7.67474e-15
  176 799.850 0.00000 -2.25476e-15
  177 799.850 0.00000 4.08393e-13
  178 799.850 0.00000 1.05961e-13
  179 799.850 0.00000 9.72811e-14
  180 799.850 0.00000 -1.31672e-13
  181 799.850 0.00000 -3.00669e-14
  182 799.850 0.00000 -6.18225e-14
  183 799.850 0.00000 3.75665e-14
  184 799.850 0.00000 -2.72037e-14
  185 799.850 0.00000 1.25088e-13
  186 799.850 0.00000 -1.87914e-13
  187 799.850 0.00000 3.38516e-14
  188 799.850 0.00000 5.55147e-14
  189 799.850 0.00000 9.81692e-14
  190 799.850 0.00000 -4.58643e-15
  191 799.850 0.00000 -6.73943e-14
  192 799.850 0.00000 2.53895e-14
  193 799.850 0.00000 1.74782e-13
  194 799.850 0.00000 -1.32116e-13
  195 799.850 0.00000 -1.84285e-14
  196 799.850 0.00000 1.06203e-13
  197 799.850 0.00000 4.16565e-14
  198 799.850 0.00000 -1.30944e-14
  199 799.850 0.00000 1.89342e-14
  200 799.850 0.00000 -2.43219e-13
  201 799.850 0.00000 2.10347e-14
  202 799.850 0.00000 1.66475e-13
  203 799.850 0.00000 5.61479e-14
  204 799.850 0.00000 -1.76626e-13
  205 799.850 0.00000 -1.00243e-13
  206 799.850 0.00000 2.86503e-13
  207 799.850 0.00000 4.39924e-14
  208 799.850 0.00000 -4.07381e-14
  209 799.850 0.00000 3.26074e-14
  210 799.850 0.00000 -7.14534e-14
  211 799.850 0.00000 -1.12453e-14
  212 799.850 0.00000 6.98543e-14
  213 799.850 0.00000 -3.48766e-14
  214 799.850 0.00000 -6.77076e-15
  215 799.850 0.00000 3.43113e-14
  216 799.850 0.00000 -1.63016e-14
  217 799.850 0.00000 -1.76366e-14
  218 799.850 0.00000 -1.37416e-13
  219 799.850 0.00000 2.83391e-14
  220 799.850 0.00000 -2.60866e-14
  221 799.850 0.00000 -4.79441e-14
  222 799.850 0.00000 -1.59183e-13
  223 799.850 0.00000 -3.00911e-14
  224 799.850 0.00000 4.71995e-14
  225 799.850 0.00000 -6.45918e-14
  226 799.850 0.00000 -1.28404e-14
  227 799.850 0.00000 -5.49056e-14
  228 799.850 0.00000 1.74992e-13
  229 799.850 0.00000 1.24975e-14
  230 799.850 0.00000 2.40681e-13
  231 799.850 0.00000 -4.96564e-14
  232 799.850 0.00000 2.03256e-14
  233 799.850 0.00000 -9.75047e-14
  234 799.850 0.00000 -3.07788e-14
  235 799.850 0.00000 -8.27977e-15
  236 799.850 0.00000 1.17761e-14
  237 799.850 0.00000 3.24623e-14
  238 799.850 0.00000 1.10431e-14
  239 799.850 0.00000 -1.79256e-13
  240 799.850 0.00000 -2.44122e-14
  241 799.850 0.00000 -6.91995e-15
</Section>

newXOutput 19

<Section columns = "stress_xx | stress_yy | stress_xy">
  1 846.653 0.00000 1.08328e-15
  2 846.653 0.00000 -1.02109e-13
  3 846.653 0.00000 2.62708e-13
  4 846.653 0.00000 -1.62657e-14
  5 846.653 0.00000 -2.22261e-14
  6 846.653 0.00000 -1.09290e-14
  7 846.653 0.00000 3.79644e-14
  8 846.653 0.00000 7.90122e-14
  9 846.653 0.00000 -1.44437e-15
  10 846.653 0.00000 1.89192e-14
  11 846.653 0.00000 8.30127e-14
  12 846.653 0.00000 -1.49187e-14
  13 846.653 0.00000 2.54741e-13
  14 846.653 0.00000 1.58350e-13
  15 846.653 0.00000 -8.85912e-14
  16 846.653 0.00000 1.45619e-13
  17 846.653 0.00000 1.10315e-13
  18 846.653 0.00000 -2.18393e-13
  19 846.653 0.00000 -9.43821e-15
  20 846.653 0.00000 1.75499e-13
  21 846.653 0.00000 -2.70796e-13
  22 846.653 0.00000 -7.26212e-13
  23 846.653 0.00000 -5.45693e-13
  24 846.653 0.00000 1.01564e-13
  25 846.653 0.00000 -7.20517e-14
  26 846.653 0.00000 6.79738e-15
  27 846.653 0.00000 2.40172e-14
  28 846.653 0.00000 -1.05794e-13
  29 846.653 0.00000 -9.52690e-14
  30 846.653 0.00000 -4.84664e-14
  31 846.653 0.00000 4.87035e-13
  32 846.653 0.00000 1.42404e-12
  33 846.653 0.00000 6.31655e-13
  34 846.653 0.00000 -1.40532e-13
  35 846.653 0.00000 -2.43429e-13
  36 846.653 0.00000 -2.58812e-14
  37 846.653 0.00000 -1.91648e-13
  38 846.653 0.00000 -1.24819e-13
  39 846.653 0.00000 -4.75773e-14
  40 846.653 0.00000 7.14611e-14
  41 846.653 0.00000 2.68149e-13
  42 846.653 0.00000 5.60008e-14
  43 846.653 0.00000 1.07349e-13
  44 846.653 0.00000 9.63748e-14
  45 846.653 0.00000 1.90604e-14
  46 846.653 0.00000 8.79867e-16
  47 846.653 0.00000 7.35990e-15
  48 846.653 0.00000 -8.22164e-14
  49 846.653 0.00000 -1.94692e-14
  50 846.653 0.00000 1.61047e-14
  51 846.653 0.00000 1.80129e-14
  52 846.653 0.00000 -3.89069e-14
  53 846.653 0.00000 1.58500e-14
  54 846.653 0.00000 5.83884e-15
  55 846.653 0.00000 -1.80129e-14
  56 846.653 0.00000 -2.38899e-14
  57 846.653 0.00000 2.30296e-14
  58 846.653 0.00000 -3.30528e-13
  59 846.653 0.00000 5.65864e-15
  60 846.653 0.00000 1.56015e-13
  61 846.653 0.00000 8.68309e-14
  62 846.653 0.00000 -2.49363e-13
  63 846.653 0.00000 5.72732e-13
  64 846.653 0.00000 2.04942e-13
  65 846.653 0.00000 -5.98342e-14
  66 846.653 0.00000 1.16255e-13
  67 846.653 0.00000 -1.43311e-13
  68 846.653 0.00000 1.70893e-13
  69 846.653 0.00000 1.16111e-13
  70 846.653 0.00000 -3.57669e-14
  71 846.653 0.00000 1.07201e-14
  72 846.653 0.00000 7.21508e-14
  73 846.653 0.00000 2.89373e-13
  74 846.653 0.00000 -1.56632e-13
  75 846.653 0.00000 -6.27050e-15
  76 846.653 0.00000 3.48116e-13
  77 846.653 0.00000 -3.33097e-14
  78 846.653 0.00000 7.26467e-14
  79 846.653 0.00000 2.47431e-14
  80 846.653 0.00000 -1.20306e-13
  81 846.653 0.00000 -9.29997e-15
  82 846.653 0.00000 3.00052e-15
  83 846.653 0.00000 5.25304e-15
  84 846.653 0.00000 1.57561e-14
  85 846.653 0.00000 -4.35448e-15
  86 846.653 0.00000 2.35245e-13
  87 846.653 0.00000 1.28969e-14
  88 846.653 0.00000 -4.31242e-13
  89 846.653 0.00000 1.95110e-14
  90 846.653 0.00000 -3.81217e-14
  91 846.653 0.00000 -6.35105e-14
  92 846.653 0.00000 -3.61837e-14
  93 846.653 0.00000 -4.27209e-13
  94 846.653 0.00000 -1.87645e-13
  95 846.653 0.00000 -5.08101e-14
  96 846.653 0.00000 -8.92930e-14
  97 846.653 0.00000 2.98489e-13
  98 846.653 0.00000 -1.13282e-13
  99 846.653 0.00000 4.25139e-13
  100 846.653 0.00000 1.05423e-14
  101 846.653 0.00000 1.46794e-13
  102 846.653 0.00000 4.74822e-13
  103 846.653 0.00000 1.79954e-14
  104 846.653 0.00000 -1.32553e-13
  105 846.653 0.00000 -4.31950e-14
  106 846.653 0.00000 -1.66124e-13
  107 846.653 0.00000 1.15392e-13
  108 846.653 0.00000 -6.45775e-14
  109 846.653 0.00000 8.43248e-16
  110 846.653 0.00000 -1.90886e-13
  111 846.653 0.00000 -2.45239e-13
  112 846.653 0.00000 -5.05454e-14
  113 846.653 0.00000 -7.33631e-14
  114 846.653 0.00000 -6.26721e-14
  115 846.653 0.00000 -1.13504e-13
  116 846.653 0.00000 9.46892e-14
  117 846.653 0.00000 3.48279e-13
  118 846.653 0.00000 -6.88223e-14
  119 846.653 0.00000 1.87384e-13
  120 846.653 0.00000 1.52670e-13
  121 846.653 0.00000 2.10150e-14
  122 846.653 0.00000 -9.42622e-14
  123 846.653 0.00000 3.04707e-13
  124 846.653 0.00000 -1.00883e-13
  125 846.653 0.00000 -3.61799e-14
  126 846.653 0.00000 1.73825e-14
  127 846.653 0.00000 4.32806e-13
  128 846.653 0.00000 1.07807e-13
  129 846.653 0.00000 -1.01380e-13
  130 846.653 0.00000 -3.05641e-14
  131 846.653 0.00000 2.04580e-14
  132 846.653 0.00000 -4.46077e-14
  133 846.653 0.00000 -2.13406e-13
  134 846.653 0.00000 -1.79097e-14
  135 846.653 0.00000 2.63065e-14
  136 846.653 0.00000 -4.27873e-14
  137 846.653 0.00000 1.39142e-13
  138 846.653 0.00000 1.64539e-15
  139 846.653 0.00000 -4.54421e-14
  140 846.653 0.00000 1.24507e-13
  141 846.653 0.00000 5.58428e-14
  142 846.653 0.00000 -3.68544e-14
  143 846.653 0.00000 -1.55497e-14
  144 846.653 0.00000 7.10930e-14
  145 846.653 0.00000 -1.56798e-13
  146 846.653 0.00000 -3.94096e-14
  147 846.653 0.00000 -8.47615e-14
  148 846.653 0.00000 2.34651e-14
  149 846.653 0.00000 1.83033e-14
  150 846.653 0.00000 -2.05789e-13
  151 846.653 0.00000 -5.68322e-14
  152 846.653 0.00000 -9.25069e-15
  153 846.653 0.00000 -8.86822e-15
  154 846.653 0.00000 1.09922e-13
  155 846.653 0.00000 1.91715e-13
  156 846.653 0.00000 1.26840e-13
  157 846.653 0.00000 -5.03828e-14
  158 846.653 0.00000 -2.99648e-14
  159 846.653 0.00000 1.53868e-13
  160 846.653 0.00000 2.24472e-14
  161 846.653 0.00000 1.58251e-13
  162 846.653 0.00000 -1.10493e-13
  163 846.653 0.00000 -1.43565e-13
  164 846.653 0.00000 1.22795e-13
  165 846.653 0.00000 -4.31901e-15
  166 846.653 0.00000 -2.75847e-15
  167 846.653 0.00000 -6.73301e-14
  168 846.653 0.00000 -1.06515e-13
  169 846.653 0.00000 -1.99794e-15
  170 846.653 0.00000 2.58173e-14
  171 846.653 0.00000 4.38460e-14
  172 846.653 0.00000 -1.79741e-14
  173 846.653 0.00000 -3.30866e-14
  174 846.653 0.00000 8.96258e-14
  175 846.653 0.00000 -9.76582e-16
  176 846.653 0.00000 -2.87012e-14
  177 846.653 0.00000 -1.72787e-13
  178 846.653 0.00000 5.94687e-15
  179 846.653 0.00000 1.06712e-13
  180 846.653 0.00000 -9.50824e-14
  181 846.653 0.00000 -5.77472e-14
  182 846.653 0.00000 -2.35413e-13
  183 846.653 0.00000 -2.63769e-14
  184 846.653 0.00000 -9.95896e-14
  185 846.653 0.00000 2.74913e-14
  186 846.653 0.00000 5.23077e-14
  187 846.653 0.00000 2.88561e-13
  188 846.653 0.00000 -5.77297e-14
  189 846.653 0.00000 3.83848e-15
  190 846.653 0.00000 -8.92789e-14
  191 846.653 0.00000 -1.38051e-13
  192 846.653 0.00000 2.80582e-13
  193 846.653 0.00000 -3.28462e-14
  194 846.653 0.00000 -9.02755e-14
  195 846.653 0.00000 -4.28391e-14
  196 846.653 0.00000 -1.50874e-13
  197 846.653 0.00000 5.94878e-14
  198 846.653 0.00000 8.44749e-14
  199 846.653 0.00000 3.45085e-15
  200 846.653 0.00000 -1.18890e-13
  201 846.653 0.00000 9.60410e-14
  202 846.653 0.00000 2.28434e-13
  203 846.653 0.00000 -9.56408e-14
  204 846.653 0.00000 2.37146e-13
  205 846.653 0.00000 9.60345e-16
  206 846.653 0.00000 -7.67333e-14
  207 846.653 0.00000 -1.50410e-14
  208 846.653 0.00000 -1.74951e-13
  209 846.653 0.00000 2.06315e-13
  210 846.653 0.00000 -5.61452e-14
  211 846.653 0.00000 -3.75074e-15
  212 846.653 0.00000 -1.30191e-13
  213 846.653 0.00000 -2.66043e-14
  214 846.653 0.00000 2.25922e-15
  215 846.653 0.00000 1.98007e-13
  216 846.653 0.00000 -4.06645e-14
  217 846.653 0.00000 1.87851e-13
  218 846.653 0.00000 -1.50571e-13
  219 846.653 0.00000 2.23985e-13
  220 846.653 0.00000 -8.11310e-14
  221 846.653 0.00000 -7.26997e-14
  222 846.653 0.00000 -4.72582e-13
  223 846.653 0.00000 5.48206e-14
  224 846.653 0.00000 -1.71206e-14
  225 846.653 0.00000 -5.22756e-14
  226 846.653 0.00000 -4.64577e-14
  227 846.653 0.00000 1.05129e-13
  228 846.653 0.00000 1.08176e-13
  229 846.653 0.00000 1.13678e-14
  230 846.653 0.00000 7.72774e-14
  231 846.653 0.00000 2.44190e-13
  232 846.653 0.00000 -9.10913e-15
  233 846.653 0.00000 -1.20231e-15
  234 846.653 0.00000 -5.26825e-14
  235 846.653 0.00000 1.58340e-14
  236 846.653 0.00000 3.54532e-14
  237 846.653 0.00000 1.15986e-13
  238 846.653 0.00000 2.91011e-14
  239 846.653 0.00000 5.65718e-13
  240 846.653 0.00000 1.45251e-13
  241 846.653 0.00000 -9.32794e-14
</Section>

newXOutput 20

<Section columns = "stress_xx | stress_yy | stress_xy">
  1 893.435 0.00000 1.78568e-14
  2 893.435 0.00000 -3.41200e-13
  3 893.435 0.00000 5.24481e-14
  4 893.435 0.00000 -1.02811e-14
  5 893.435 0.00000 5.70386e-14
  6 893.435 0.00000 8.51311e-14
  7 893.435 0.00000 2.27168e-14
  8 893.435 0.00000 -7.16525e-14
  9 893.435 0.00000 -1.94101e-14
  10 893.435 0.00000 -1.56953e-13
  11 893.435 0.00000 -6.73661e-14
  12 893.435 0.00000 1.12826e-13
  13 893.435 0.00000 2.19253e-13
  14 893.435 0.00000 9.87224e-14
  15 893.435 0.00000 -1.74709e-13
  16 893.435 0.00000 -3.55986e-13
  17 893.435 0.00000 -3.85948e-14
  18 893.435 0.00000 -5.95227e-14
  19 893.435 0.00000 -1.07366e-13
  20 893.435 0.00000 1.04285e-14
  21 893.435 0.00000 -5.81175e-14
  22 893.435 0.00000 -1.20901e-13
  23 893.435 0.00000 -4.96564e-13
  24 893.435 0.00000 6.61153e-14
  25 893.435 0.00000 0.00000
  26 893.435 0.00000 -2.79012e-14
  27 893.435 0.00000 0.00000
  28 893.435 0.00000 -2.02054e-13
  29 893.435 0.00000 -1.12423e-13
  30 893.435 0.00000 -5.55090e-14
  31 893.435 0.00000 3.08417e-13
  32 893.435 0.00000 1.41045e-13
  33 893.435 0.00000 1.26612e-13
  34 893.435 0.00000 2.67470e-13
  35 893.435 0.00000 3.64545e-13
  36 893.435 0.00000 9.37944e-14
  37 893.435 0.00000 4.77640e-14
  38 893.435 0.00000 3.97347e-13
  39 893.435 0.00000 8.61240e-14
  40 893.435 0.00000 -2.26401e-13
  41 893.435 0.00000 -7.06446e-14
  42 893.435 0.00000 -1.15624e-13
  43 893.435 0.00000 1.92185e-14
  44 893.435 0.00000 2.38136e-13
  45 893.435 0.00000 -1.44639e-15
  46 893.435 0.00000 -9.59805e-14
  47 893.435 0.00000 -7.81433e-14
  48 893.435 0.00000 -1.34831e-13
  49 893.435 0.00000 -4.94187e-14
  50 893.435 0.00000 2.16570e-14
  51 893.435 0.00000 3.57136e-14
  52 893.435 0.00000 -3.69072e-16
  53 893.435 0.00000 4.62431e-15
  54 893.435 0.00000 -3.22454e-14
  55 893.435 0.00000 -3.57136e-14
  56 893.435 0.00000 -1.17326e-14
  57 893.435 0.00000 -2.84531e-16
  58 893.435 0.00000 1.99629e-13
  59 893.435 0.00000 -6.38628e-15
  60 893.435 0.00000 2.92956e-13
  61 893.435 0.00000 1.07651e-13
  62 893.435 0.00000 -1.41970e-13
  63 893.435 0.00000 5.00347e-14
  64 893.435 0.00000 -1.95328e-13
  65 893.435 0.00000 3.49359e-14
  66 893.435 0.00000 -1.03636e-13
  67 893.435 0.00000 -6.75840e-14
  68 893.435 0.00000 -5.27256e-14
  69 893.435 0.00000 -1.05974e-13
  70 893.435 0.00000 -2.89881e-14
  71 893.435 0.00000 3.83881e-15
  72 893.435 0.00000 8.84938e-15
  73 893.435 0.00000 -2.15539e-13
  74 893.435 0.00000 4.74155e-14
  75 893.435 0.00000 8.71997e-14
  76 893.435 0.00000 1.52109e-13
  77 893.435 0.00000 1.19254e-13
  78 893.435 0.00000 -7.34392e-14
  79 893.435 0.00000 9.11485e-14
  80 893.435 0.00000 2.08184e-13
  81 893.435 0.00000 -2.28632e-13
  82 893.435 0.00000 -1.58343e-13
  83 893.435 0.00000 -1.08592e-13
  84 893.435 0.00000 -1.75900e-14
  85 893.435 0.00000 -1.15023e-13
  86 893.435 0.00000 2.25647e-13
  87 893.435 0.00000 1.43972e-15
  88 893.435 0.00000 -5.86759e-13
  89 893.435 0.00000 -2.05515e-15
  90 893.435 0.00000 3.08108e-14
  91 893.435 0.00000 -7.39581e-14
  92 893.435 0.00000 3.63611e-14
  93 893.435 0.00000 -2.07039e-13
  94 893.435 0.00000 -8.68367e-14
  95 893.435 0.00000 1.16728e-14
  96 893.435 0.00000 -2.71406e-13
  97 893.435 0.00000 1.19061e-13
  98 893.435 0.00000 5.02802e-14
  99 893.435 0.00000 -1.34978e-13
  100 893.435 0.00000 -4.26962e-14
  101 893.435 0.00000 6.42212e-14
  102 893.435 0.00000 9.93615e-14
  103 893.435 0.00000 -2.43189e-14
  104 893.435 0.00000 -2.95028e-14
  105 893.435 0.00000 -1.05348e-13
  106 893.435 0.00000 -3.81235e-14
  107 893.435 0.00000 7.79784e-14
  108 893.435 0.00000 1.55817e-14
  109 893.435 0.00000 -7.34050e-14
  110 893.435 0.00000 -2.48740e-13
  111 893.435 0.00000 -2.31472e-13
  112 893.435 0.00000 2.02157e-14
  113 893.435 0.00000 1.32536e-13
  114 893.435 0.00000 -2.86556e-14
  115 893.435 0.00000 9.74167e-14
  116 893.435 0.00000 4.37990e-14
  117 893.435 0.00000 -3.75387e-13
  118 893.435 0.00000 4.16443e-14
  119 893.435 0.00000 -7.59041e-14
  120 893.435 0.00000 9.80347e-14
  121 893.435 0.00000 -5.10181e-14
  122 893.435 0.00000 4.12489e-14
  123 893.435 0.00000 -2.05734e-13
  124 893.435 0.00000 -2.69255e-14
  125 893.435 0.00000 -3.82097e-14
  126 893.435 0.00000 -2.97932e-14
  127 893.435 0.00000 6.71588e-14
  128 893.435 0.00000 -2.25166e-14
  129 893.435 0.00000 -1.59086e-14
  130 893.435 0.00000 2.57493e-14
  131 893.435 0.00000 -3.10165e-15
  132 893.435 0.00000 -7.36279e-14
  133 893.435 0.00000 -5.93863e-14
  134 893.435 0.00000 7.46771e-14
  135 893.435 0.00000 1.49560e-13
  136 893.435 0.00000 -3.29938e-14
  137 893.435 0.00000 5.96932e-14
  138 893.435 0.00000 -2.57230e-13
  139 893.435 0.00000 1.11618e-14
  140 893.435 0.00000 1.42994e-13
  141 893.435 0.00000 1.07924e-13
  142 893.435 0.00000 -3.43470e-14
  143 893.435 0.00000 4.23693e-14
  144 893.435 0.00000 -3.13211e-13
  145 893.435 0.00000 -8.89413e-14
  146 893.435 0.00000 -3.69198e-14
  147 893.435 0.00000 -1.59124e-14
  148 893.435 0.00000 -2.90973e-14
  149 893.435 0.00000 -5.36593e-14
  150 893.435 0.00000 1.15959e-13
  151 893.435 0.00000 -9.18185e-14
  152 893.435 0.00000 -8.98137e-16
  153 893.435 0.00000 -1.75939e-13
  154 893.435 0.00000 3.75634e-14
  155 893.435 0.00000 9.73667e-15
  156 893.435 0.00000 -6.00012e-14
  157 893.435 0.00000 4.11764e-14
  158 893.435 0.00000 -6.11523e-15
  159 893.435 0.00000 -2.89403e-13
  160 893.435 0.00000 1.14077e-14
  161 893.435 0.00000 1.11538e-13
  162 893.435 0.00000 -6.57484e-14
  163 893.435 0.00000 3.02445e-13
  164 893.435 0.00000 -1.40436e-13
  165 893.435 0.00000 1.80318e-14
  166 893.435 0.00000 3.77272e-14
  167 893.435 0.00000 -6.77583e-14
  168 893.435 0.00000 -2.70886e-13
  169 893.435 0.00000 3.47310e-14
  170 893.435 0.00000 4.72601e-14
  171 893.435 0.00000 1.22142e-13
  172 893.435 0.00000 -1.61529e-13
  173 893.435 0.00000 2.35772e-14
  174 893.435 0.00000 -3.69083e-14
  175 893.435 0.00000 -3.18340e-15
  176 893.435 0.00000 8.43630e-15
  177 893.435 0.00000 -7.54118e-14
  178 893.435 0.00000 -5.70608e-14
  179 893.435 0.00000 -2.32245e-14
  180 893.435 0.00000 -6.26106e-14
  181 893.435 0.00000 9.42582e-14
  182 893.435 0.00000 1.65803e-13
  183 893.435 0.00000 -6.70060e-14
  184 893.435 0.00000 -1.37095e-13
  185 893.435 0.00000 -1.76967e-14
  186 893.435 0.00000 -2.63893e-13
  187 893.435 0.00000 -2.13664e-13
  188 893.435 0.00000 7.13368e-14
  189 893.435 0.00000 1.11595e-13
  190 893.435 0.00000 4.35426e-14
  191 893.435 0.00000 -4.65880e-14
  192 893.435 0.00000 -1.20508e-13
  193 893.435 0.00000 1.42143e-13
  194 893.435 0.00000 -1.06939e-13
  195 893.435 0.00000 4.93082e-14
  196 893.435 0.00000 -3.17250e-13
  197 893.435 0.00000 -4.49703e-14
  198 893.435 0.00000 7.28828e-14
  199 893.435 0.00000 5.23596e-14
  200 893.435 0.00000 9.78005e-14
  201 893.435 0.00000 6.78175e-14
  202 893.435 0.00000 -3.58349e-13
  203 893.435 0.00000 -5.33599e-14
  204 893.435 0.00000 1.68739e-13
  205 893.435 0.00000 -3.41914e-14
  206 893.435 0.00000 -2.00327e-13
  207 893.435 0.00000 9.95719e-15
  208 893.435 0.00000 1.41529e-13
  209 893.435 0.00000 2.96247e-13
  210 893.435 0.00000 -1.74799e-14
  211 893.435 0.00000 8.02235e-14
  212 893.435 0.00000 9.57616e-14
  213 893.435 0.00000 -7.74154e-14
  214 893.435 0.00000 -9.25110e-14
  215 893.435 0.00000 1.36419e-13
  216 893.435 0.00000 -8.69181e-15
  217 893.435 0.00000 -4.04208e-14
  218 893.435 0.00000 2.91461e-14
  219 893.435 0.00000 1.17353e-13
  220 893.435 0.00000 2.08982e-14
  221 893.435 0.00000 -5.97242e-14
  222 893.435 0.00000 -2.28851e-13
  223 893.435 0.00000 -5.75152e-14
  224 893.435 0.00000 -2.85246e-14
  225 893.435 0.00000 -3.84419e-14
  226 893.435 0.00000 -6.23957e-14
  227 893.435 0.00000 -1.95316e-14
  228 893.435 0.00000 -4.74344e-14
  229 893.435 0.00000 -4.74462e-14
  230 893.435 0.00000 -5.95404e-14
  231 893.435 0.00000 -6.12538e-14
  232 893.435 0.00000 3.91356e-14
  233 893.435 0.00000 -3.07422e-13
  234 893.435 0.00000 1.66934e-14
  235 893.435 0.00000 -9.78822e-14
  236 893.435 0.00000 9.91932e-15
  237 893.435 0.00000 -6.25571e-14
  238 893.435 0.00000 1.22846e-13
  239 893.435 0.00000 9.70091e-14
  240 893.435 0.00000 1.62437e-13
  241 893.435 0.00000 -2.66990e-13
</Section>

newXOutput 21

<Section columns = "stress_xx | stress_yy | stress_xy">
  1 940.195 0.00000 -6.40668e-14
  2 940.195 0.00000 1.85874e-13
  3 940.195 0.00000 -2.21423e-13
  4 940.195 0.00000 3.43274e-13
  5 940.195 0.00000 -1.41558e-14
  6 940.195 0.00000 3.58104e-14
  7 940.195 0.00000 7.22738e-15
  8 940.195 0.00000 7.54030e-14
  9 940.195 0.00000 1.44425e-13
  10 940.195 0.00000 4.20555e-14
  11 940.195 0.00000 -6.22308e-14
  12 940.195 0.00000 1.89955e-13
  13 940.195 0.00000 7.41228e-15
  14 940.195 0.00000 -1.68101e-13
  15 940.195 0.00000 8.63491e-14
  16 940.195 0.00000 1.27478e-13
  17 940.195 0.00000 8.02617e-15
  18 940.195 0.00000 -6.09953e-14
  19 940.195 0.00000 -3.00316e-13
  20 940.195 0.00000 1.78099e-15
  21 940.195 0.00000 -6.66950e-14
  22 940.195 0.00000 -4.24922e-13
  23 940.195 0.00000 2.74995e-13
  24 940.195 0.00000 -2.29574e-13
  25 940.195 0.00000 -5.31018e-14
  26 940.195 0.00000 -5.88715e-14
  27 940.195 0.00000 1.86492e-13
  28 940.195 0.00000 -1.54880e-14
  29 940.195 0.00000 3.54012e-14
  30 940.195 0.00000 -1.57105e-13
  31 940.195 0.00000 -7.91129e-14
  32 940.195 0.00000 -1.94908e-13
  33 940.195 0.00000 -1.01211e-13
  34 940.195 0.00000 -3.61955e-13
  35 940.195 0.00000 -2.68847e-13
  36 940.195 0.00000 -2.61626e-13
  37 940.195 0.00000 -4.39705e-13
  38 940.195 0.00000 -4.32793e-13
  39 940.195 0.00000 -1.07738e-13
  40 940.195 0.00000 4.45952e-13
  41 940.195 0.00000 5.28278e-13
  42 940.195 0.00000 7.77118e-13
  43 940.195 0.00000 4.30629e-13
  44 940.195 0.00000 1.12814e-13
  45 940.195 0.00000 -5.78603e-14
  46 940.195 0.00000 -9.12979e-14
  47 940.195 0.00000 8.04491e-14
  48 940.195 0.00000 3.81822e-13
  49 940.195 0.00000 4.13401e-13
  50 940.195 0.00000 -1.13497e-13
  51 940.195 0.00000 -7.08025e-14
  52 940.195 0.00000 7.60671e-14
  53 940.195 0.00000 -1.85082e-13
  54 940.195 0.00000 -1.82782e-14
  55 940.195 0.00000 -3.54012e-14
  56 940.195 0.00000 1.13711e-13
  57 940.195 0.00000 1.53855e-13
  58 940.195 0.00000 2.52148e-13
  59 940.195 0.00000 8.57842e-14
  60 940.195 0.00000 -3.26886e-13
  61 940.195 0.00000 -1.28034e-13
  62 940.195 0.00000 3.57863e-13
  63 940.195 0.00000 1.93116e-13
  64 940.195 0.00000 -1.00000e-13
  65 940.195 0.00000 -2.35172e-13
  66 940.195 0.00000 1.65288e-14
  67 940.195 0.00000 -8.39059e-14
  68 940.195 0.00000 -1.84016e-13
  69 940.195 0.00000 -6.08823e-14
  70 940.195 0.00000 -2.18319e-13
  71 940.195 0.00000 -2.62948e-13
  72 940.195 0.00000 -2.29858e-13
  73 940.195 0.00000 -3.92989e-14
  74 940.195 0.00000 4.93242e-14
  75 940.195 0.00000 -8.00725e-14
  76 940.195 0.00000 3.47834e-13
  77 940.195 0.00000 -2.10829e-14
  78 940.195 0.00000 -2.23516e-13
  79 940.195 0.00000 -7.97499e-14
  80 940.195 0.00000 -2.38599e-14
  81 940.195 0.00000 9.91036e-15
  82 940.195 0.00000 3.22383e-13
  83 940.195 0.00000 3.52691e-14
  84 940.195 0.00000 -1.80392e-13
  85 940.195 0.00000 3.00867e-14
  86 940.195 0.00000 -2.71154e-13
  87 940.195 0.00000 -1.82889e-13
  88 940.195 0.00000 -5.41882e-14
  89 940.195 0.00000 1.76534e-13
  90 940.195 0.00000 -1.81282e-13
  91 940.195 0.00000 2.99845e-14
  92 940.195 0.00000 -7.32689e-14
  93 940.195 0.00000 1.06172e-13
  94 940.195 0.00000 -6.74131e-14
  95 940.195 0.00000 -4.14053e-13
  96 940.195 0.00000 3.51951e-13
  97 940.195 0.00000 -6.24970e-14
  98 940.195 0.00000 6.24415e-14
  99 940.195 0.00000 9.96927e-14
  100 940.195 0.00000 9.16376e-14
  101 940.195 0.00000 -3.59842e-13
  102 940.195 0.00000 -3.53824e-13
  103 940.195 0.00000 1.11408e-13
  104 940.195 0.00000 1.62058e-13
  105 940.195 0.00000 -9.14906e-15
  106 940.195 0.00000 -2.40899e-13
  107 940.195 0.00000 1.34238e-13
  108 940.195 0.00000 1.13207e-13
  109 940.195 0.00000 -8.39804e-14
  110 940.195 0.00000 -2.90225e-14
  111 940.195 0.00000 -9.39117e-14
  112 940.195 0.00000 -2.17442e-14
  113 940.195 0.00000 -1.67394e-13
  114 940.195 0.00000 5.23527e-14
  115 940.195 0.00000 -1.64998e-13
  116 940.195 0.00000 1.32290e-13
  117 940.195 0.00000 -1.44492e-13
  118 940.195 0.00000 -2.42544e-14
  119 940.195 0.00000 -1.20517e-13
  120 940.195 0.00000 -2.19120e-13
  121 940.195 0.00000 7.19971e-14
  122 940.195 0.00000 -9.62465e-14
  123 940.195 0.00000 1.50916e-13
  124 940.195 0.00000 1.35288e-13
  125 940.195 0.00000 1.99818e-13
  126 940.195 0.00000 -1.04938e-13
  127 940.195 0.00000 -2.02856e-13
  128 940.195 0.00000 -9.83924e-14
  129 940.195 0.00000 5.25686e-14
  130 940.195 0.00000 1.56280e-13
  131 940.195 0.00000 -1.16379e-13
  132 940.195 0.00000 -6.64762e-14
  133 940.195 0.00000 -1.05563e-14
  134 940.195 0.00000 -2.31181e-13
  135 940.195 0.00000 -1.64907e-13
  136 940.195 0.00000 1.72633e-13
  137 940.195 0.00000 -4.66902e-14
  138 940.195 0.00000 3.16045e-13
  139 940.195 0.00000 1.76441e-13
  140 940.195 0.00000 2.69487e-13
  141 940.195 0.00000 -1.63425e-13
  142 940.195 0.00000 -8.39503e-14
  143 940.195 0.00000 -7.28209e-14
  144 940.195 0.00000 2.88014e-15
  145 940.195 0.00000 -6.60698e-14
  146 940.195 0.00000 -1.36046e-13
  147 940.195 0.00000 8.43304e-14
  148 940.195 0.00000 -1.68184e-13
  149 940.195 0.00000 -4.30883e-14
  150 940.195 0.00000 -2.91191e-13
  151 940.195 0.00000 -6.46543e-14
  152 940.195 0.00000 -1.89419e-13
  153 940.195 0.00000 1.19886e-13
  154 940.195 0.00000 -1.63928e-13
  155 940.195 0.00000 -1.91189e-13
  156 940.195 0.00000 -1.05552e-15
  157 940.195 0.00000 -5.65184e-14
  158 940.195 0.00000 -2.05355e-13
  159 940.195 0.00000 2.40585e-13
  160 940.195 0.00000 -8.49315e-14
  161 940.195 0.00000 2.81832e-13
  162 940.195 0.00000 -3.25615e-14
  163 940.195 0.00000 -7.64443e-14
  164 940.195 0.00000 1.92493e-15
  165 940.195 0.00000 -2.56155e-13
  166 940.195 0.00000 -2.62847e-13
  167 940.195 0.00000 -2.78204e-13
  168 940.195 0.00000 5.02271e-15
  169 940.195 0.00000 4.39328e-14
  170 940.195 0.00000 -1.25767e-13
  171 940.195 0.00000 -5.34227e-14
  172 940.195 0.00000 -3.18969e-15
  173 940.195 0.00000 -1.32218e-13
  174 940.195 0.00000 -1.14274e-13
  175 940.195 0.00000 6.04069e-14
  176 940.195 0.00000 1.29668e-13
  177 940.195 0.00000 -2.30544e-13
  178 940.195 0.00000 -4.35808e-14
  179 940.195 0.00000 8.05943e-14
  180 940.195 0.00000 2.53622e-13
  181 940.195 0.00000 -1.17027e-13
  182 940.195 0.00000 -1.32454e-13
  183 940.195 0.00000 1.49454e-13
  184 940.195 0.00000 1.01147e-13
  185 940.195 0.00000 -1.23119e-13
  186 940.195 0.00000 3.93168e-14
  187 940.195 0.00000 8.56499e-15
  188 940.195 0.00000 -8.09555e-14
  189 940.195 0.00000 2.69354e-14
  190 940.195 0.00000 1.40901e-13
  191 940.195 0.00000 -2.22247e-14
  192 940.195 0.00000 -4.01679e-14
  193 940.195 0.00000 -9.64315e-14
  194 940.195 0.00000 -2.89096e-13
  195 940.195 0.00000 -2.90817e-13
  196 940.195 0.00000 -4.78580e-14
  197 940.195 0.00000 -9.25778e-14
  198 940.195 0.00000 -7.73963e-14
  199 940.195 0.00000 -5.40910e-14
  200 940.195 0.00000 3.50280e-13
  201 940.195 0.00000 -2.53237e-13
  202 940.195 0.00000 1.12922e-13
  203 940.195 0.00000 -1.88119e-13
  204 940.195 0.00000 -1.20878e-13
  205 940.195 0.00000 1.32920e-13
  206 940.195 0.00000 9.41874e-14
  207 940.195 0.00000 -3.19371e-14
  208 940.195 0.00000 -3.10722e-13
  209 940.195 0.00000 -5.95213e-14
  210 940.195 0.00000 -1.60067e-13
  211 940.195 0.00000 7.27246e-14
  212 940.195 0.00000 -1.55534e-13
  213 940.195 0.00000 4.09997e-13
  214 940.195 0.00000 -7.42431e-14
  215 940.195 0.00000 -2.89064e-14
  216 940.195 0.00000 1.84341e-13
  217 940.195 0.00000 4.20264e-14
  218 940.195 0.00000 -8.50421e-14
  219 940.195 0.00000 -2.91032e-13
  220 940.195 0.00000 4.12431e-13
  221 940.195 0.00000 -9.07049e-14
  222 940.195 0.00000 1.09882e-13
  223 940.195 0.00000 -2.79243e-14
  224 940.195 0.00000 -2.87224e-13
  225 940.195 0.00000 1.65281e-14
  226 940.195 0.00000 1.31611e-13
  227 940.195 0.00000 2.33963e-14
  228 940.195 0.00000 1.41620e-13
  229 940.195 0.00000 -1.89675e-14
  230 940.195 0.00000 9.15994e-14
  231 940.195 0.00000 2.20368e-13
  232 940.195 0.00000 -2.74290e-13
  233 940.195 0.00000 -4.18920e-13
  234 940.195 0.00000 -3.85270e-13
  235 940.195 0.00000 3.29326e-13
  236 940.195 0.00000 -3.60184e-14
  237 940.195 0.00000 2.80170e-14
  238 940.195 0.00000 -1.66727e-13
  239 940.195 0.00000 -5.18126e-14
  240 940.195 0.00000 -8.54225e-15
  241 940.195 0.00000 8.64854e-14
</Section>

newXOutput 22

<Section columns = "stress_xx | stress_yy | stress_xy">
  1 986.934 0.00000 6.01774e-15
  2 986.934 0.00000 2.67218e-13
  3 986.934 0.00000 4.38797e-14
  4 986.934 0.00000 -1.20272e-13
  5 986.934 0.00000 4.56739e-15
  6 986.934 0.00000 2.64323e-13
  7 986.934 0.00000 1.61812e-13
  8 986.934 0.00000 9.22132e-14
  9 986.934 0.00000 1.71865e-13
  10 986.934 0.00000 1.54398e-15
  11 986.934 0.00000 -1.93713e-13
  12 986.934 0.00000 -2.77434e-14
  13 986.934 0.00000 7.66602e-14
  14 986.934 0.00000 -2.85926e-13
  15 986.934 0.00000 -1.73014e-13
  16 986.934 0.00000 2.60990e-13
  17 986.934 0.00000 -1.03816e-13
  18 986.934 0.00000 -3.87520e-13
  19 986.934 0.00000 -6.60978e-13
  20 986.934 0.00000 -4.33533e-13
  21 986.934 0.00000 -3.65578e-13
  22 986.934 0.00000 -7.96514e-14
  23 986.934 0.00000 2.96558e-13
  24 986.934 0.00000 -5.62589e-14
  25 986.934 0.00000 3.50887e-14
  26 986.934 0.00000 3.09043e-14
  27 986.934 0.00000 -2.33925e-14
  28 986.934 0.00000 -1.16249e-13
  29 986.934 0.00000 2.63166e-14
  30 986.934 0.00000 -6.65750e-14
  31 986.934 0.00000 9.60117e-14
  32 986.934 0.00000 -3.63610e-13
  33 986.934 0.00000 7.03012e-14
  34 986.934 0.00000 1.38884e-13
  35 986.934 0.00000 -9.07063e-15
  36 986.934 0.00000 1.47875e-14
  37 986.934 0.00000 -3.20805e-14
  38 986.934 0.00000 -2.57484e-13
  39 986.934 0.00000 -2.63739e-13
  40 986.934 0.00000 -2.69881e-13
  41 986.934 0.00000 -1.70625e-13
  42 986.934 0.00000 8.76696e-14
  43 986.934 0.00000 2.36832e-14
  44 986.934 0.00000 -1.59006e-14
  45 986.934 0.00000 -1.34912e-13
  46 986.934 0.00000 -2.31965e-13
  47 986.934 0.00000 -1.65940e-13
  48 986.934 0.00000 -2.17891e-13
  49 986.934 0.00000 -2.56680e-13
  50 986.934 0.00000 9.66635e-14
  51 986.934 0.00000 9.31605e-14
  52 986.934 0.00000 -4.81286e-14
  53 986.934 0.00000 3.94865e-14
  54 986.934 0.00000 -4.18866e-15
  55 986.934 0.00000 -7.01775e-14
  56 986.934 0.00000 -6.62011e-15
  57 986.934 0.00000 -2.41725e-13
  58 986.934 0.00000 1.58198e-13
  59 986.934 0.00000 2.09297e-13
  60 986.934 0.00000 -1.11630e-13
  61 986.934 0.00000 8.54122e-15
  62 986.934 0.00000 -3.40463e-14
  63 986.934 0.00000 -1.28495e-13
  64 986.934 0.00000 -1.48957e-13
  65 986.934 0.00000 1.25498e-13
  66 986.934 0.00000 -1.19392e-13
  67 986.934 0.00000 1.16705e-13
  68 986.934 0.00000 -9.82104e-14
  69 986.934 0.00000 -7.55460e-15
  70 986.934 0.00000 -1.18543e-13
  71 986.934 0.00000 -1.17538e-15
  72 986.934 0.00000 -8.69493e-14
  73 986.934 0.00000 -1.87053e-13
  74 986.934 0.00000 7.69545e-14
  75 986.934 0.00000 -9.11323e-14
  76 986.934 0.00000 -4.78493e-14
  77 986.934 0.00000 -1.09944e-15
  78 986.934 0.00000 2.97893e-13
  79 986.934 0.00000 3.75926e-14
  80 986.934 0.00000 7.16980e-14
  81 986.934 0.00000 -1.83093e-13
  82 986.934 0.00000 1.52064e-13
  83 986.934 0.00000 -2.54431e-13
  84 986.934 0.00000 1.06556e-13
  85 986.934 0.00000 1.35325e-14
  86 986.934 0.00000 -1.56402e-13
  87 986.934 0.00000 1.69602e-13
  88 986.934 0.00000 -2.80704e-13
  89 986.934 0.00000 -6.01184e-14
  90 986.934 0.00000 2.10487e-13
  91 986.934 0.00000 -8.48620e-14
  92 986.934 0.00000 -2.11018e-13
  93 986.934 0.00000 1.69001e-13
  94 986.934 0.00000 3.68783e-14
  95 986.934 0.00000 -6.09526e-14
  96 986.934 0.00000 1.36431e-13
  97 986.934 0.00000 -3.72432e-13
  98 986.934 0.00000 1.76847e-13
  99 986.934 0.00000 2.24860e-13
  100 986.934 0.00000 -1.17302e-13
  101 986.934 0.00000 2.59972e-13
  102 986.934 0.00000 -1.98237e-13
  103 986.934 0.00000 1.43982e-14
  104 986.934 0.00000 1.71584e-14
  105 986.934 0.00000 2.48041e-13
  106 986.934 0.00000 2.12807e-13
  107 986.934 0.00000 -7.60373e-14
  108 986.934 0.00000 -9.00347e-14
  109 986.934 0.00000 1.09898e-14
  110 986.934 0.00000 2.63306e-14
  111 986.934 0.00000 1.75878e-13
  112 986.934 0.00000 -1.68879e-13
  113 986.934 0.00000 -1.08061e-13
  114 986.934 0.00000 1.33823e-13
  115 986.934 0.00000 9.90841e-14
  116 986.934 0.00000 9.65642e-14
  117 986.934 0.00000 -1.67783e-13
  118 986.934 0.00000 2.77454e-14
  119 986.934 0.00000 -7.61349e-14
  120 986.934 0.00000 2.16787e-13
  121 986.934 0.00000 -1.74162e-13
  122 986.934 0.00000 2.78959e-15
  123 986.934 0.00000 1.00773e-13
  124 986.934 0.00000 -1.09147e-13
  125 986.934 0.00000 -3.14366e-15
  126 986.934 0.00000 1.93324e-13
  127 986.934 0.00000 -2.81411e-14
  128 986.934 0.00000 -3.86572e-13
  129 986.934 0.00000 -3.49093e-14
  130 986.934 0.00000 -2.30967e-16
  131 986.934 0.00000 2.73164e-13
  132 986.934 0.00000 3.38997e-14
  133 986.934 0.00000 -1.49117e-13
  134 986.934 0.00000 7.15460e-14
  135 986.934 0.00000 -2.11465e-13
  136 986.934 0.00000 4.04532e-15
  137 986.934 0.00000 1.33150e-14
  138 986.934 0.00000 -4.29339e-14
  139 986.934 0.00000 -2.01641e-13
  140 986.934 0.00000 -1.40731e-13
  141 986.934 0.00000 -2.16380e-13
  142 986.934 0.00000 2.17971e-13
  143 986.934 0.00000 -2.51837e-14
  144 986.934 0.00000 -8.21275e-14
  145 986.934 0.00000 2.12127e-13
  146 986.934 0.00000 -5.74592e-14
  147 986.934 0.00000 -6.43320e-14
  148 986.934 0.00000 2.14948e-14
  149 986.934 0.00000 -2.63166e-14
  150 986.934 0.00000 2.74501e-13
  151 986.934 0.00000 -6.19754e-14
  152 986.934 0.00000 -4.14339e-14
  153 986.934 0.00000 1.00178e-13
  154 986.934 0.00000 1.75577e-13
  155 986.934 0.00000 -4.48690e-15
  156 986.934 0.00000 -3.19299e-15
  157 986.934 0.00000 -9.15803e-14
  158 986.934 0.00000 -1.97333e-13
  159 986.934 0.00000 -1.29355e-13
  160 986.934 0.00000 -3.10430e-14
  161 986.934 0.00000 1.32439e-13
  162 986.934 0.00000 2.66646e-14
  163 986.934 0.00000 8.77802e-15
  164 986.934 0.00000 -1.96732e-13
  165 986.934 0.00000 4.68376e-14
  166 986.934 0.00000 1.34881e-13
  167 986.934 0.00000 -1.07016e-13
  168 986.934 0.00000 -2.16347e-14
  169 986.934 0.00000 4.67576e-14
  170 986.934 0.00000 1.78265e-13
  171 986.934 0.00000 1.56577e-13
  172 986.934 0.00000 2.44773e-13
  173 986.934 0.00000 -5.11398e-14
  174 986.934 0.00000 8.58095e-14
  175 986.934 0.00000 2.08382e-14
  176 986.934 0.00000 -9.01371e-14
  177 986.934 0.00000 -1.50998e-13
  178 986.934 0.00000 -2.04570e-13
  179 986.934 0.00000 1.11859e-13
  180 986.934 0.00000 -2.18528e-13
  181 986.934 0.00000 2.41762e-14
  182 986.934 0.00000 -3.28801e-14
  183 986.934 0.00000 -1.60794e-13
  184 986.934 0.00000 2.54042e-14
  185 986.934 0.00000 -2.82449e-14
  186 986.934 0.00000 -4.03942e-14
  187 986.934 0.00000 -7.10907e-14
  188 986.934 0.00000 2.73277e-13
  189 986.934 0.00000 -1.49983e-13
  190 986.934 0.00000 9.50260e-14
  191 986.934 0.00000 6.23088e-14
  192 986.934 0.00000 -8.38920e-14
  193 986.934 0.00000 3.11654e-15
  194 986.934 0.00000 -1.83058e-13
  195 986.934 0.00000 1.54063e-13
  196 986.934 0.00000 1.19230e-13
  197 986.934 0.00000 1.06072e-13
  198 986.934 0.00000 -4.21883e-13
  199 986.934 0.00000 -1.54709e-13
  200 986.934 0.00000 2.62640e-14
  201 986.934 0.00000 -8.96165e-14
  202 986.934 0.00000 9.30563e-15
  203 986.934 0.00000 2.11097e-13
  204 986.934 0.00000 2.01263e-14
  205 986.934 0.00000 -1.84948e-13
  206 986.934 0.00000 -3.79449e-13
  207 986.934 0.00000 -8.82794e-14
  208 986.934 0.00000 9.94434e-14
  209 986.934 0.00000 -4.22755e-13
  210 986.934 0.00000 1.61838e-13
  211 986.934 0.00000 -2.57903e-15
  212 986.934 0.00000 9.00097e-14
  213 986.934 0.00000 -9.51896e-14
  214 986.934 0.00000 -2.62864e-14
  215 986.934 0.00000 -1.16791e-13
  216 986.934 0.00000 -2.72627e-13
  217 986.934 0.00000 -7.16512e-14
  218 986.934 0.00000 1.46587e-13
  219 986.934 0.00000 -8.24938e-15
  220 986.934 0.00000 -3.06207e-14
  221 986.934 0.00000 -8.73121e-15
  222 986.934 0.00000 2.82517e-13
  223 986.934 0.00000 1.04161e-14
  224 986.934 0.00000 1.32636e-13
  225 986.934 0.00000 -1.28979e-13
  226 986.934 0.00000 -2.30484e-13
  227 986.934 0.00000 -1.26945e-13
  228 986.934 0.00000 -3.09902e-14
  229 986.934 0.00000 -2.64788e-14
  230 986.934 0.00000 1.11910e-13
  231 986.934 0.00000 -5.69560e-14
  232 986.934 0.00000 -6.75615e-14
  233 986.934 0.00000 1.43920e-13
  234 986.934 0.00000 -1.71435e-13
  235 986.934 0.00000 4.84476e-14
  236 986.934 0.00000 6.82338e-14
  237 986.934 0.00000 2.43239e-13
  238 986.934 0.00000 -3.89765e-14
  239 986.934 0.00000 -2.32428e-13
  240 986.934 0.00000 2.32133e-13
  241 986.934 0.00000 5.33348e-14
</Section>

newXOutput 23

<Section columns = "stress_xx | stress_yy | stress_xy">
  1 1033.65 0.00000 9.82892e-14
  2 1033.65 0.00000 1.40384e-13
  3 1033.65 0.00000 -8.39561e-13
  4 1033.65 0.00000 2.38193e-13
  5 1033.65 0.00000 4.32811e-13
  6 1033.65 0.00000 3.93582e-13
  7 1033.65 0.00000 4.28358e-14
  8 1033.65 0.00000 -3.85807e-13
  9 1033.65 0.00000 -2.06546e-13
  10 1033.65 0.00000 9.23172e-14
  11 1033.65 0.00000 8.15709e-14
  12 1033.65 0.00000 8.05834e-14
  13 1033.65 0.00000 4.47445e-14
  14 1033.65 0.00000 -5.50505e-13
  15 1033.65 0.00000 -1.46109e-13
  16 1033.65 0.00000 -2.57289e-14
  17 1033.65 0.00000 -2.63661e-13
  18 1033.65 0.00000 1.69644e-13
  19 1033.65 0.00000 1.22849e-13
  20 1033.65 0.00000 -1.73042e-13
  21 1033.65 0.00000 -9.10448e-14
  22 1033.65 0.00000 8.70008e-13
  23 1033.65 0.00000 5.73689e-13
  24 1033.65 0.00000 -4.63681e-14
  25 1033.65 0.00000 0.00000
  26 1033.65 0.00000 -2.51316e-13
  27 1033.65 0.00000 2.22662e-13
  28 1033.65 0.00000 -9.43657e-14
  29 1033.65 0.00000 -1.73881e-14
  30 1033.65 0.00000 -1.41444e-13
  31 1033.65 0.00000 -5.84762e-13
  32 1033.65 0.00000 -3.81984e-13
  33 1033.65 0.00000 -1.94857e-13
  34 1033.65 0.00000 -4.16200e-13
  35 1033.65 0.00000 1.01421e-14
  36 1033.65 0.00000 2.15920e-13
  37 1033.65 0.00000 -1.13022e-13
  38 1033.65 0.00000 -2.82504e-13
  39 1033.65 0.00000 -1.56653e-14
  40 1033.65 0.00000 1.65980e-13
  41 1033.65 0.00000 -8.45957e-14
  42 1033.65 0.00000 -6.14236e-14
  43 1033.65 0.00000 1.05359e-13
  44 1033.65 0.00000 -1.30031e-13
  45 1033.65 0.00000 1.14754e-13
  46 1033.65 0.00000 5.49028e-14
  47 1033.65 0.00000 -1.14067e-13
  48 1033.65 0.00000 7.41986e-14
  49 1033.65 0.00000 3.44822e-13
  50 1033.65 0.00000 -7.61269e-14
  51 1033.65 0.00000 -9.24571e-14
  52 1033.65 0.00000 1.49980e-14
  53 1033.65 0.00000 1.05817e-13
  54 1033.65 0.00000 -2.18695e-14
  55 1033.65 0.00000 0.00000
  56 1033.65 0.00000 2.30784e-14
  57 1033.65 0.00000 2.12853e-13
  58 1033.65 0.00000 -1.13947e-13
  59 1033.65 0.00000 1.98292e-15
  60 1033.65 0.00000 -2.24812e-13
  61 1033.65 0.00000 7.79297e-14
  62 1033.65 0.00000 2.53582e-14
  63 1033.65 0.00000 -2.88403e-14
  64 1033.65 0.00000 1.27978e-13
  65 1033.65 0.00000 -5.48540e-14
  66 1033.65 0.00000 -1.45031e-15
  67 1033.65 0.00000 -3.36148e-13
  68 1033.65 0.00000 -2.36456e-14
  69 1033.65 0.00000 2.94347e-14
  70 1033.65 0.00000 -6.13229e-14
  71 1033.65 0.00000 1.60273e-13
  72 1033.65 0.00000 -1.58741e-13
  73 1033.65 0.00000 2.02152e-13
  74 1033.65 0.00000 -8.07723e-14
  75 1033.65 0.00000 1.70240e-13
  76 1033.65 0.00000 8.85697e-14
  77 1033.65 0.00000 2.63095e-13
  78 1033.65 0.00000 1.31589e-13
  79 1033.65 0.00000 1.73881e-14
  80 1033.65 0.00000 3.49179e-14
  81 1033.65 0.00000 -1.84598e-13
  82 1033.65 0.00000 1.25667e-13
  83 1033.65 0.00000 2.97935e-14
  84 1033.65 0.00000 -1.65937e-13
  85 1033.65 0.00000 -4.09988e-14
  86 1033.65 0.00000 -4.97559e-13
  87 1033.65 0.00000 -2.30525e-13
  88 1033.65 0.00000 -1.68222e-13
  89 1033.65 0.00000 -1.85710e-13
  90 1033.65 0.00000 -1.07106e-13
  91 1033.65 0.00000 9.65283e-14
  92 1033.65 0.00000 8.45903e-14
  93 1033.65 0.00000 1.50646e-13
  94 1033.65 0.00000 3.33121e-13
  95 1033.65 0.00000 -6.05008e-14
  96 1033.65 0.00000 7.89378e-14
  97 1033.65 0.00000 2.52008e-13
  98 1033.65 0.00000 -2.15282e-13
  99 1033.65 0.00000 3.65838e-13
  100 1033.65 0.00000 1.35972e-13
  101 1033.65 0.00000 -1.02637e-13
  102 1033.65 0.00000 7.40507e-14
  103 1033.65 0.00000 -3.08085e-13
  104 1033.65 0.00000 -5.62019e-15
  105 1033.65 0.00000 2.96939e-15
  106 1033.65 0.00000 -7.91879e-14
  107 1033.65 0.00000 -2.08896e-13
  108 1033.65 0.00000 9.00155e-14
  109 1033.65 0.00000 -1.45493e-13
  110 1033.65 0.00000 -2.86533e-13
  111 1033.65 0.00000 -9.12848e-14
  112 1033.65 0.00000 -2.44302e-13
  113 1033.65 0.00000 -5.55593e-14
  114 1033.65 0.00000 2.48421e-13
  115 1033.65 0.00000 1.52420e-13
  116 1033.65 0.00000 -4.35993e-14
  117 1033.65 0.00000 1.79968e-13
  118 1033.65 0.00000 -4.49857e-14
  119 1033.65 0.00000 2.07727e-13
  120 1033.65 0.00000 2.85273e-13
  121 1033.65 0.00000 7.04504e-14
  122 1033.65 0.00000 -1.99154e-13
  123 1033.65 0.00000 -9.27189e-15
  124 1033.65 0.00000 -1.17681e-13
  125 1033.65 0.00000 -3.37584e-14
  126 1033.65 0.00000 -1.73552e-13
  127 1033.65 0.00000 3.91706e-14
  128 1033.65 0.00000 1.38526e-13
  129 1033.65 0.00000 -6.44472e-14
  130 1033.65 0.00000 -1.46639e-13
  131 1033.65 0.00000 6.73772e-14
  132 1033.65 0.00000 -1.70153e-13
  133 1033.65 0.00000 3.70772e-14
  134 1033.65 0.00000 2.16875e-13
  135 1033.65 0.00000 -1.05665e-13
  136 1033.65 0.00000 2.15609e-14
  137 1033.65 0.00000 1.61103e-13
  138 1033.65 0.00000 -2.64845e-13
  139 1033.65 0.00000 3.37544e-13
  140 1033.65 0.00000 -1.70798e-13
  141 1033.65 0.00000 -7.74198e-15
  142 1033.65 0.00000 -2.90732e-13
  143 1033.65 0.00000 -7.63573e-14
  144 1033.65 0.00000 -8.87062e-15
  145 1033.65 0.00000 -1.95231e-13
  146 1033.65 0.00000 -6.10770e-14
  147 1033.65 0.00000 -1.13320e-14
  148 1033.65 0.00000 6.59322e-14
  149 1033.65 0.00000 6.12849e-14
  150 1033.65 0.00000 1.24385e-15
  151 1033.65 0.00000 -1.07021e-13
  152 1033.65 0.00000 8.86406e-14
  153 1033.65 0.00000 1.79578e-13
  154 1033.65 0.00000 2.60852e-13
  155 1033.65 0.00000 -2.17107e-13
  156 1033.65 0.00000 1.20207e-13
  157 1033.65 0.00000 -1.62159e-15
  158 1033.65 0.00000 -2.79087e-13
  159 1033.65 0.00000 7.78787e-14
  160 1033.65 0.00000 1.84450e-13
  161 1033.65 0.00000 1.02043e-13
  162 1033.65 0.00000 4.98327e-14
  163 1033.65 0.00000 -2.22945e-13
  164 1033.65 0.00000 1.93200e-13
  165 1033.65 0.00000 4.02118e-14
  166 1033.65 0.00000 -1.98006e-13
  167 1033.65 0.00000 -5.45443e-14
  168 1033.65 0.00000 6.52829e-15
  169 1033.65 0.00000 -8.12863e-14
  170 1033.65 0.00000 8.84299e-14
  171 1033.65 0.00000 6.19062e-14
  172 1033.65 0.00000 4.36138e-14
  173 1033.65 0.00000 -3.96548e-14
  174 1033.65 0.00000 -7.45734e-14
  175 1033.65 0.00000 3.96738e-15
  176 1033.65 0.00000 5.14416e-14
  177 1033.65 0.00000 -4.44853e-13
  178 1033.65 0.00000 1.16438e-13
  179 1033.65 0.00000 -1.89286e-13
  180 1033.65 0.00000 3.91157e-13
  181 1033.65 0.00000 -5.41126e-14
  182 1033.65 0.00000 -5.15932e-14
  183 1033.65 0.00000 8.73327e-14
  184 1033.65 0.00000 -1.24691e-13
  185 1033.65 0.00000 -1.10351e-13
  186 1033.65 0.00000 -2.79918e-14
  187 1033.65 0.00000 -2.40921e-13
  188 1033.65 0.00000 -7.05909e-15
  189 1033.65 0.00000 -4.71203e-14
  190 1033.65 0.00000 -2.98609e-14
  191 1033.65 0.00000 4.24465e-14
  192 1033.65 0.00000 -6.24676e-14
  193 1033.65 0.00000 8.63542e-14
  194 1033.65 0.00000 6.30884e-14
  195 1033.65 0.00000 -2.51503e-13
  196 1033.65 0.00000 -1.68088e-13
  197 1033.65 0.00000 -1.57161e-13
  198 1033.65 0.00000 1.30131e-13
  199 1033.65 0.00000 7.84508e-15
  200 1033.65 0.00000 -2.39838e-13
  201 1033.65 0.00000 1.76635e-13
  202 1033.65 0.00000 -3.74926e-14
  203 1033.65 0.00000 -7.74024e-14
  204 1033.65 0.00000 -1.03357e-13
  205 1033.65 0.00000 2.55690e-13
  206 1033.65 0.00000 -2.13777e-14
  207 1033.65 0.00000 -5.14951e-14
  208 1033.65 0.00000 -7.61551e-14
  209 1033.65 0.00000 -1.63957e-13
  210 1033.65 0.00000 -1.54830e-13
  211 1033.65 0.00000 1.11907e-13
  212 1033.65 0.00000 8.26187e-14
  213 1033.65 0.00000 1.21657e-13
  214 1033.65 0.00000 -6.58953e-14
  215 1033.65 0.00000 -2.99833e-13
  216 1033.65 0.00000 1.29716e-13
  217 1033.65 0.00000 4.56623e-14
  218 1033.65 0.00000 -1.84537e-13
  219 1033.65 0.00000 2.52768e-14
  220 1033.65 0.00000 3.47767e-14
  221 1033.65 0.00000 5.94278e-14
  222 1033.65 0.00000 2.45069e-13
  223 1033.65 0.00000 -5.10843e-14
  224 1033.65 0.00000 -1.52689e-15
  225 1033.65 0.00000 3.45719e-13
  226 1033.65 0.00000 2.54640e-13
  227 1033.65 0.00000 -1.61483e-13
  228 1033.65 0.00000 -3.86048e-15
  229 1033.65 0.00000 9.73439e-14
  230 1033.65 0.00000 -1.69929e-13
  231 1033.65 0.00000 5.36074e-14
  232 1033.65 0.00000 -1.97024e-13
  233 1033.65 0.00000 4.86802e-13
  234 1033.65 0.00000 5.22356e-14
  235 1033.65 0.00000 -1.09240e-13
  236 1033.65 0.00000 -2.40785e-13
  237 1033.65 0.00000 7.46609e-14
  238 1033.65 0.00000 1.05052e-13
  239 1033.65 0.00000 1.85268e-13
  240 1033.65 0.00000 1.86952e-13
  241 1033.65 0.00000 1.13310e-13
</Section>

newXOutput 24

<Section columns = "stress_xx | stress_yy | stress_xy">
  1 1080.36 0.00000 2.18218e-14
  2 1080.36 0.00000 1.42456e-13
  3 1080.36 0.00000 -2.12974e-13
  4 1080.36 0.00000 3.82946e-14
  5 1080.36 0.00000 2.42058e-13
  6 1080.36 0.00000 2.08721e-13
  7 1080.36 0.00000 6.26121e-14
  8 1080.36 0.00000 9.14225e-14
  9 1080.36 0.00000 -5.92749e-14
  10 1080.36 0.00000 -8.78745e-14
  11 1080.36 0.00000 -2.17850e-13
  12 1080.36 0.00000 -2.28300e-13
  13 1080.36 0.00000 -1.34832e-13
  14 1080.36 0.00000 1.71597e-13
  15 1080.36 0.00000 -1.35205e-13
  16 1080.36 0.00000 -5.49015e-13
  17 1080.36 0.00000 -5.14791e-13
  18 1080.36 0.00000 -4.36391e-13
  19 1080.36 0.00000 -3.20219e-13
  20 1080.36 0.00000 -3.09153e-14
  21 1080.36 0.00000 2.25248e-13
  22 1080.36 0.00000 -1.30220e-14
  23 1080.36 0.00000 3.35494e-13
  24 1080.36 0.00000 -1.37374e-13
  25 1080.36 0.00000 6.89267e-14
  26 1080.36 0.00000 2.59612e-13
  27 1080.36 0.00000 -2.51772e-13
  28 1080.36 0.00000 1.31179e-13
  29 1080.36 0.00000 -4.30792e-14
  30 1080.36 0.00000 -3.67155e-14
  31 1080.36 0.00000 -2.19230e-13
  32 1080.36 0.00000 -2.45219e-13
  33 1080.36 0.00000 1.85083e-13
  34 1080.36 0.00000 5.82606e-14
  35 1080.36 0.00000 2.69712e-13
  36 1080.36 0.00000 2.97315e-13
  37 1080.36 0.00000 3.24673e-13
  38 1080.36 0.00000 2.76980e-13
  39 1080.36 0.00000 1.25830e-13
  40 1080.36 0.00000 3.78792e-14
  41 1080.36 0.00000 1.20323e-13
  42 1080.36 0.00000 1.79561e-13
  43 1080.36 0.00000 2.08218e-13
  44 1080.36 0.00000 -3.65126e-14
  45 1080.36 0.00000 4.46561e-14
  46 1080.36 0.00000 2.99694e-16
  47 1080.36 0.00000 2.25697e-14
  48 1080.36 0.00000 -1.97673e-14
  49 1080.36 0.00000 1.02374e-14
  50 1080.36 0.00000 -4.17414e-14
  51 1080.36 0.00000 8.61583e-15
  52 1080.36 0.00000 2.94731e-14
  53 1080.36 0.00000 -5.42671e-14
  54 1080.36 0.00000 3.86363e-14
  55 1080.36 0.00000 -6.89267e-14
  56 1080.36 0.00000 -6.17768e-14
  57 1080.36 0.00000 1.34500e-15
  58 1080.36 0.00000 -8.00474e-14
  59 1080.36 0.00000 1.40433e-13
  60 1080.36 0.00000 1.94064e-14
  61 1080.36 0.00000 -1.83236e-13
  62 1080.36 0.00000 -1.23027e-14
  63 1080.36 0.00000 2.97362e-13
  64 1080.36 0.00000 1.00694e-15
  65 1080.36 0.00000 -1.09130e-13
  66 1080.36 0.00000 2.97946e-14
  67 1080.36 0.00000 -1.07598e-13
  68 1080.36 0.00000 -3.64674e-14
  69 1080.36 0.00000 -1.23892e-13
  70 1080.36 0.00000 1.61738e-14
  71 1080.36 0.00000 1.98118e-14
  72 1080.36 0.00000 -1.56062e-13
  73 1080.36 0.00000 -3.13860e-13
  74 1080.36 0.00000 -4.38193e-14
  75 1080.36 0.00000 -2.59194e-14
  76 1080.36 0.00000 3.52577e-13
  77 1080.36 0.00000 -6.85834e-15
  78 1080.36 0.00000 7.15572e-15
  79 1080.36 0.00000 -7.13786e-14
  80 1080.36 0.00000 8.27157e-14
  81 1080.36 0.00000 -1.49087e-14
  82 1080.36 0.00000 -2.79973e-13
  83 1080.36 0.00000 9.47390e-14
  84 1080.36 0.00000 -5.47220e-14
  85 1080.36 0.00000 2.42149e-13
  86 1080.36 0.00000 -1.21428e-13
  87 1080.36 0.00000 -1.04478e-13
  88 1080.36 0.00000 -1.08865e-13
  89 1080.36 0.00000 -1.81472e-14
  90 1080.36 0.00000 -1.33021e-14
  91 1080.36 0.00000 -1.06914e-13
  92 1080.36 0.00000 2.61732e-14
  93 1080.36 0.00000 2.77126e-13
  94 1080.36 0.00000 -9.46675e-14
  95 1080.36 0.00000 -2.63695e-14
  96 1080.36 0.00000 -6.67019e-14
  97 1080.36 0.00000 1.95831e-13
  98 1080.36 0.00000 2.29340e-14
  99 1080.36 0.00000 -1.22218e-13
  100 1080.36 0.00000 7.50576e-14
  101 1080.36 0.00000 -1.65605e-13
  102 1080.36 0.00000 -1.89082e-13
  103 1080.36 0.00000 -1.54968e-13
  104 1080.36 0.00000 7.88916e-14
  105 1080.36 0.00000 9.76095e-14
  106 1080.36 0.00000 1.53907e-13
  107 1080.36 0.00000 4.79562e-14
  108 1080.36 0.00000 4.50848e-14
  109 1080.36 0.00000 9.18117e-14
  110 1080.36 0.00000 4.68815e-13
  111 1080.36 0.00000 4.95922e-14
  112 1080.36 0.00000 -1.21600e-13
  113 1080.36 0.00000 -7.49958e-14
  114 1080.36 0.00000 -6.14471e-14
  115 1080.36 0.00000 -4.25717e-14
  116 1080.36 0.00000 8.76346e-14
  117 1080.36 0.00000 1.10030e-13
  118 1080.36 0.00000 -2.52293e-14
  119 1080.36 0.00000 1.25981e-14
  120 1080.36 0.00000 1.84129e-13
  121 1080.36 0.00000 -1.13178e-13
  122 1080.36 0.00000 2.36864e-13
  123 1080.36 0.00000 -5.21224e-14
  124 1080.36 0.00000 -3.98506e-14
  125 1080.36 0.00000 -9.00873e-14
  126 1080.36 0.00000 -9.42123e-15
  127 1080.36 0.00000 1.26723e-13
  128 1080.36 0.00000 -6.94353e-14
  129 1080.36 0.00000 1.77018e-14
  130 1080.36 0.00000 -1.80912e-16
  131 1080.36 0.00000 -2.52653e-13
  132 1080.36 0.00000 1.51990e-13
  133 1080.36 0.00000 -2.37805e-13
  134 1080.36 0.00000 -7.47569e-14
  135 1080.36 0.00000 6.80546e-15
  136 1080.36 0.00000 -2.59049e-14
  137 1080.36 0.00000 -7.56494e-14
  138 1080.36 0.00000 1.01353e-13
  139 1080.36 0.00000 2.39233e-14
  140 1080.36 0.00000 2.91131e-13
  141 1080.36 0.00000 -3.78553e-14
  142 1080.36 0.00000 -6.39809e-14
  143 1080.36 0.00000 1.23709e-13
  144 1080.36 0.00000 3.90743e-14
  145 1080.36 0.00000 -5.66439e-14
  146 1080.36 0.00000 7.72024e-14
  147 1080.36 0.00000 4.42047e-14
  148 1080.36 0.00000 1.64987e-14
  149 1080.36 0.00000 1.19811e-13
  150 1080.36 0.00000 6.57444e-14
  151 1080.36 0.00000 -4.91621e-14
  152 1080.36 0.00000 7.64539e-14
  153 1080.36 0.00000 1.03079e-13
  154 1080.36 0.00000 2.61773e-16
  155 1080.36 0.00000 4.62200e-14
  156 1080.36 0.00000 3.36322e-14
  157 1080.36 0.00000 -1.02751e-14
  158 1080.36 0.00000 -1.91979e-13
  159 1080.36 0.00000 -2.44472e-13
  160 1080.36 0.00000 -4.65826e-14
  161 1080.36 0.00000 -9.48920e-14
  162 1080.36 0.00000 1.01186e-13
  163 1080.36 0.00000 -3.85314e-14
  164 1080.36 0.00000 2.58023e-14
  165 1080.36 0.00000 -6.19678e-14
  166 1080.36 0.00000 -2.34408e-14
  167 1080.36 0.00000 2.78731e-15
  168 1080.36 0.00000 -6.34900e-14
  169 1080.36 0.00000 -1.73858e-14
  170 1080.36 0.00000 -1.47240e-13
  171 1080.36 0.00000 -1.73042e-13
  172 1080.36 0.00000 -6.34919e-14
  173 1080.36 0.00000 5.42756e-14
  174 1080.36 0.00000 -1.11197e-14
  175 1080.36 0.00000 -6.40775e-14
  176 1080.36 0.00000 -7.14574e-15
  177 1080.36 0.00000 4.56535e-15
  178 1080.36 0.00000 -9.52816e-15
  179 1080.36 0.00000 7.72237e-14
  180 1080.36 0.00000 8.61690e-14
  181 1080.36 0.00000 -6.00637e-14
  182 1080.36 0.00000 1.35357e-13
  183 1080.36 0.00000 -1.13263e-13
  184 1080.36 0.00000 -1.21182e-13
  185 1080.36 0.00000 -8.10084e-14
  186 1080.36 0.00000 -1.08898e-14
  187 1080.36 0.00000 1.22772e-13
  188 1080.36 0.00000 -8.36103e-14
  189 1080.36 0.00000 -8.01514e-14
  190 1080.36 0.00000 -9.41809e-14
  191 1080.36 0.00000 9.46491e-14
  192 1080.36 0.00000 1.87076e-13
  193 1080.36 0.00000 2.84177e-13
  194 1080.36 0.00000 -1.82078e-13
  195 1080.36 0.00000 -1.71893e-14
  196 1080.36 0.00000 -3.41983e-14
  197 1080.36 0.00000 4.38504e-14
  198 1080.36 0.00000 -2.67877e-13
  199 1080.36 0.00000 1.93475e-13
  200 1080.36 0.00000 -2.38022e-13
  201 1080.36 0.00000 -6.60362e-14
  202 1080.36 0.00000 9.76089e-14
  203 1080.36 0.00000 -1.39050e-13
  204 1080.36 0.00000 -1.68936e-14
  205 1080.36 0.00000 -1.09963e-13
  206 1080.36 0.00000 2.87132e-13
  207 1080.36 0.00000 5.82794e-14
  208 1080.36 0.00000 1.27244e-13
  209 1080.36 0.00000 9.71374e-15
  210 1080.36 0.00000 -9.12209e-14
  211 1080.36 0.00000 4.08045e-14
  212 1080.36 0.00000 3.27761e-14
  213 1080.36 0.00000 -5.40512e-14
  214 1080.36 0.00000 1.88537e-13
  215 1080.36 0.00000 -8.20093e-14
  216 1080.36 0.00000 -1.16255e-13
  217 1080.36 0.00000 -1.66227e-14
  218 1080.36 0.00000 -1.23136e-13
  219 1080.36 0.00000 1.52750e-13
  220 1080.36 0.00000 -1.28052e-13
  221 1080.36 0.00000 4.36064e-14
  222 1080.36 0.00000 4.41248e-13
  223 1080.36 0.00000 -1.40519e-13
  224 1080.36 0.00000 1.59941e-13
  225 1080.36 0.00000 -8.25333e-14
  226 1080.36 0.00000 1.16198e-13
  227 1080.36 0.00000 1.36908e-14
  228 1080.36 0.00000 -1.21507e-13
  229 1080.36 0.00000 1.00413e-13
  230 1080.36 0.00000 6.46361e-13
  231 1080.36 0.00000 1.44170e-13
  232 1080.36 0.00000 2.86990e-14
  233 1080.36 0.00000 4.74021e-13
  234 1080.36 0.00000 -3.79842e-14
  235 1080.36 0.00000 9.81645e-14
  236 1080.36 0.00000 -6.08326e-16
  237 1080.36 0.00000 -3.26687e-13
  238 1080.36 0.00000 -2.52979e-14
  239 1080.36 0.00000 -2.12925e-14
  240 1080.36 0.00000 -1.46326e-13
  241 1080.36 0.00000 3.92003e-14
</Section>

newXOutput 25

<Section columns = "stress_xx | stress_yy | stress_xy">
  1 1127.04 0.00000 4.10357e-14
  2 1127.04 0.00000 9.61729e-14
  3 1127.04 0.00000 -4.15068e-13
  4 1127.04 0.00000 -4.75600e-14
  5 1127.04 0.00000 8.92320e-14
  6 1127.04 0.00000 1.76262e-14
  7 1127.04 0.00000 -1.38860e-13
  8 1127.04 0.00000 -1.85882e-13
  9 1127.04 0.00000 -1.54595e-13
  10 1127.04 0.00000 9.40792e-14
  11 1127.04 0.00000 2.10925e-13
  12 1127.04 0.00000 8.33566e-14
  13 1127.04 0.00000 2.58883e-14
  14 1127.04 0.00000 1.76408e-13
  15 1127.04 0.00000 -1.58193e-13
  16 1127.04 0.00000 -3.89242e-13
  17 1127.04 0.00000 -7.10183e-13
  18 1127.04 0.00000 -5.08732e-13
  19 1127.04 0.00000 -2.93254e-13
  20 1127.04 0.00000 -1.99357e-13
  21 1127.04 0.00000 -6.73388e-13
  22 1127.04 0.00000 -2.06372e-13
  23 1127.04 0.00000 3.93795e-13
  24 1127.04 0.00000 -5.50078e-14
  25 1127.04 0.00000 0.00000
  26 1127.04 0.00000 1.57980e-13
  27 1127.04 0.00000 -2.34830e-13
  28 1127.04 0.00000 -1.02637e-13
  29 1127.04 0.00000 3.41504e-14
  30 1127.04 0.00000 -1.84803e-13
  31 1127.04 0.00000 -2.84443e-13
  32 1127.04 0.00000 -8.76197e-13
  33 1127.04 0.00000 -1.35535e-13
  34 1127.04 0.00000 5.80113e-13
  35 1127.04 0.00000 1.17803e-13
  36 1127.04 0.00000 -6.00437e-14
  37 1127.04 0.00000 -1.99560e-13
  38 1127.04 0.00000 -1.69285e-13
  39 1127.04 0.00000 -1.62482e-13
  40 1127.04 0.00000 3.28469e-14
  41 1127.04 0.00000 -1.70191e-15
  42 1127.04 0.00000 1.85828e-13
  43 1127.04 0.00000 8.90302e-14
  44 1127.04 0.00000 -2.56000e-14
  45 1127.04 0.00000 1.26435e-14
  46 1127.04 0.00000 1.05955e-14
  47 1127.04 0.00000 9.39079e-14
  48 1127.04 0.00000 1.01036e-13
  49 1127.04 0.00000 -8.12187e-14
  50 1127.04 0.00000 3.54356e-14
  51 1127.04 0.00000 5.97632e-14
  52 1127.04 0.00000 -3.40822e-15
  53 1127.04 0.00000 2.86423e-14
  54 1127.04 0.00000 -6.33433e-15
  55 1127.04 0.00000 -1.16662e-13
  56 1127.04 0.00000 -1.71211e-14
  57 1127.04 0.00000 -4.46160e-14
  58 1127.04 0.00000 7.24602e-14
  59 1127.04 0.00000 6.26121e-14
  60 1127.04 0.00000 4.43859e-13
  61 1127.04 0.00000 -1.77547e-14
  62 1127.04 0.00000 -4.96924e-14
  63 1127.04 0.00000 6.78384e-14
  64 1127.04 0.00000 2.98799e-13
  65 1127.04 0.00000 6.64992e-14
  66 1127.04 0.00000 -2.46537e-14
  67 1127.04 0.00000 -1.82994e-13
  68 1127.04 0.00000 -2.19935e-13
  69 1127.04 0.00000 1.47720e-14
  70 1127.04 0.00000 1.48729e-13
  71 1127.04 0.00000 8.13230e-14
  72 1127.04 0.00000 1.95091e-13
  73 1127.04 0.00000 1.53323e-13
  74 1127.04 0.00000 -1.44733e-13
  75 1127.04 0.00000 -4.19720e-14
  76 1127.04 0.00000 1.43216e-14
  77 1127.04 0.00000 -1.05297e-13
  78 1127.04 0.00000 1.38415e-13
  79 1127.04 0.00000 1.13318e-13
  80 1127.04 0.00000 -6.62076e-14
  81 1127.04 0.00000 9.18294e-17
  82 1127.04 0.00000 5.35944e-14
  83 1127.04 0.00000 9.25391e-15
  84 1127.04 0.00000 -3.08456e-14
  85 1127.04 0.00000 1.87405e-13
  86 1127.04 0.00000 3.68219e-13
  87 1127.04 0.00000 -5.37503e-14
  88 1127.04 0.00000 -8.01813e-14
  89 1127.04 0.00000 -1.01361e-13
  90 1127.04 0.00000 3.96222e-14
  91 1127.04 0.00000 3.20571e-15
  92 1127.04 0.00000 -7.41947e-14
  93 1127.04 0.00000 -4.20535e-13
  94 1127.04 0.00000 -2.37120e-13
  95 1127.04 0.00000 -6.52163e-14
  96 1127.04 0.00000 -2.98661e-13
  97 1127.04 0.00000 1.54097e-13
  98 1127.04 0.00000 4.89370e-14
  99 1127.04 0.00000 9.35103e-14
  100 1127.04 0.00000 6.85212e-14
  101 1127.04 0.00000 2.20509e-13
  102 1127.04 0.00000 9.44646e-14
  103 1127.04 0.00000 -2.32406e-13
  104 1127.04 0.00000 -1.79841e-14
  105 1127.04 0.00000 -1.09785e-13
  106 1127.04 0.00000 5.83223e-14
  107 1127.04 0.00000 1.23718e-13
  108 1127.04 0.00000 -5.39110e-14
  109 1127.04 0.00000 1.89480e-14
  110 1127.04 0.00000 -2.83939e-14
  111 1127.04 0.00000 9.06924e-14
  112 1127.04 0.00000 1.04352e-13
  113 1127.04 0.00000 -8.21740e-14
  114 1127.04 0.00000 6.27746e-14
  115 1127.04 0.00000 6.07714e-15
  116 1127.04 0.00000 -2.16578e-14
  117 1127.04 0.00000 3.52531e-13
  118 1127.04 0.00000 -8.10443e-14
  119 1127.04 0.00000 9.14199e-14
  120 1127.04 0.00000 2.55330e-14
  121 1127.04 0.00000 1.08905e-14
  122 1127.04 0.00000 2.37248e-13
  123 1127.04 0.00000 1.93382e-13
  124 1127.04 0.00000 1.47494e-13
  125 1127.04 0.00000 4.54422e-14
  126 1127.04 0.00000 -5.01621e-14
  127 1127.04 0.00000 -1.33728e-14
  128 1127.04 0.00000 -8.56374e-14
  129 1127.04 0.00000 4.27034e-14
  130 1127.04 0.00000 1.09777e-13
  131 1127.04 0.00000 7.49972e-14
  132 1127.04 0.00000 -1.50857e-13
  133 1127.04 0.00000 -2.92246e-13
  134 1127.04 0.00000 1.05452e-15
  135 1127.04 0.00000 -6.42247e-14
  136 1127.04 0.00000 -3.16654e-14
  137 1127.04 0.00000 -2.90043e-13
  138 1127.04 0.00000 1.00836e-13
  139 1127.04 0.00000 -1.12791e-13
  140 1127.04 0.00000 1.32707e-13
  141 1127.04 0.00000 9.86598e-14
  142 1127.04 0.00000 6.70525e-14
  143 1127.04 0.00000 -8.24261e-15
  144 1127.04 0.00000 9.23366e-14
  145 1127.04 0.00000 3.89800e-13
  146 1127.04 0.00000 -8.36804e-15
  147 1127.04 0.00000 -1.41696e-13
  148 1127.04 0.00000 4.45242e-14
  149 1127.04 0.00000 -2.19605e-13
  150 1127.04 0.00000 2.54350e-14
  151 1127.04 0.00000 1.44680e-13
  152 1127.04 0.00000 1.12679e-13
  153 1127.04 0.00000 -2.64569e-13
  154 1127.04 0.00000 1.24848e-13
  155 1127.04 0.00000 1.77353e-13
  156 1127.04 0.00000 -1.13735e-13
  157 1127.04 0.00000 -6.35404e-14
  158 1127.04 0.00000 -9.39874e-14
  159 1127.04 0.00000 -1.38658e-13
  160 1127.04 0.00000 -6.18013e-14
  161 1127.04 0.00000 -5.69099e-14
  162 1127.04 0.00000 7.70130e-14
  163 1127.04 0.00000 -1.43739e-13
  164 1127.04 0.00000 1.31090e-13
  165 1127.04 0.00000 2.97301e-14
  166 1127.04 0.00000 6.90287e-14
  167 1127.04 0.00000 2.58226e-13
  168 1127.04 0.00000 -1.00006e-13
  169 1127.04 0.00000 -6.98234e-14
  170 1127.04 0.00000 -2.54707e-13
  171 1127.04 0.00000 1.87482e-13
  172 1127.04 0.00000 7.96662e-14
  173 1127.04 0.00000 7.61925e-14
  174 1127.04 0.00000 1.33775e-13
  175 1127.04 0.00000 -4.76973e-14
  176 1127.04 0.00000 2.35153e-14
  177 1127.04 0.00000 -3.64394e-13
  178 1127.04 0.00000 -9.34041e-14
  179 1127.04 0.00000 -1.86506e-13
  180 1127.04 0.00000 -9.59991e-14
  181 1127.04 0.00000 3.79164e-15
  182 1127.04 0.00000 -1.33315e-14
  183 1127.04 0.00000 -9.11229e-14
  184 1127.04 0.00000 -2.30020e-13
  185 1127.04 0.00000 -4.80265e-14
  186 1127.04 0.00000 1.29287e-13
  187 1127.04 0.00000 -1.61715e-14
  188 1127.04 0.00000 5.20187e-14
  189 1127.04 0.00000 6.79705e-14
  190 1127.04 0.00000 -1.10159e-15
  191 1127.04 0.00000 -1.04361e-13
  192 1127.04 0.00000 1.54543e-13
  193 1127.04 0.00000 4.85169e-14
  194 1127.04 0.00000 5.04032e-13
  195 1127.04 0.00000 1.73288e-13
  196 1127.04 0.00000 -2.13628e-13
  197 1127.04 0.00000 -8.20254e-14
  198 1127.04 0.00000 -5.37374e-13
  199 1127.04 0.00000 6.27468e-14
  200 1127.04 0.00000 -5.09356e-13
  201 1127.04 0.00000 1.38842e-13
  202 1127.04 0.00000 1.70312e-13
  203 1127.04 0.00000 8.96727e-14
  204 1127.04 0.00000 4.03165e-14
  205 1127.04 0.00000 -2.86423e-14
  206 1127.04 0.00000 6.94112e-15
  207 1127.04 0.00000 -3.00357e-15
  208 1127.04 0.00000 4.26763e-13
  209 1127.04 0.00000 2.00919e-13
  210 1127.04 0.00000 6.08969e-14
  211 1127.04 0.00000 2.23474e-14
  212 1127.04 0.00000 2.18122e-13
  213 1127.04 0.00000 -4.16353e-14
  214 1127.04 0.00000 -2.21753e-14
  215 1127.04 0.00000 -2.39524e-13
  216 1127.04 0.00000 1.76260e-14
  217 1127.04 0.00000 -4.66624e-14
  218 1127.04 0.00000 -4.33435e-15
  219 1127.04 0.00000 -4.44392e-14
  220 1127.04 0.00000 -2.63451e-15
  221 1127.04 0.00000 -1.20362e-13
  222 1127.04 0.00000 8.76353e-14
  223 1127.04 0.00000 2.31805e-13
  224 1127.04 0.00000 -2.15911e-15
  225 1127.04 0.00000 -2.37693e-13
  226 1127.04 0.00000 9.68549e-14
  227 1127.04 0.00000 -3.37646e-14
  228 1127.04 0.00000 9.73070e-14
  229 1127.04 0.00000 3.86488e-14
  230 1127.04 0.00000 2.51521e-13
  231 1127.04 0.00000 -5.09836e-14
  232 1127.04 0.00000 9.76592e-14
  233 1127.04 0.00000 2.57099e-13
  234 1127.04 0.00000 -8.77171e-14
  235 1127.04 0.00000 -2.32708e-13
  236 1127.04 0.00000 2.20993e-14
  237 1127.04 0.00000 -1.43711e-14
  238 1127.04 0.00000 -2.32225e-14
  239 1127.04 0.00000 -6.16889e-15
  240 1127.04 0.00000 6.01489e-14
  241 1127.04 0.00000 -7.39740e-14
</Section>

newXOutput 26

<Section columns = "stress_xx | stress_yy | stress_xy">
  1 1173.71 0.00000 4.14625e-14
  2 1173.71 0.00000 -3.10390e-13
  3 1173.71 0.00000 6.00465e-13
  4 1173.71 0.00000 -1.48136e-14
  5 1173.71 0.00000 1.19543e-13
  6 1173.71 0.00000 2.33525e-13
  7 1173.71 0.00000 -5.39976e-14
  8 1173.71 0.00000 -1.29778e-13
  9 1173.71 0.00000 4.60922e-14
  10 1173.71 0.00000 1.87150e-13
  11 1173.71 0.00000 1.31994e-13
  12 1173.71 0.00000 3.49406e-14
  13 1173.71 0.00000 -1.41833e-13
  14 1173.71 0.00000 2.05977e-14
  15 1173.71 0.00000 6.73602e-14
  16 1173.71 0.00000 3.44228e-13
  17 1173.71 0.00000 4.01599e-13
  18 1173.71 0.00000 3.90475e-13
  19 1173.71 0.00000 1.09181e-13
  20 1173.71 0.00000 1.69333e-13
  21 1173.71 0.00000 -5.56192e-15
  22 1173.71 0.00000 3.87384e-13
  23 1173.71 0.00000 -4.13854e-13
  24 1173.71 0.00000 4.36412e-13
  25 1173.71 0.00000 0.00000
  26 1173.71 0.00000 -2.84338e-14
  27 1173.71 0.00000 1.35418e-13
  28 1173.71 0.00000 1.58612e-14
  29 1173.71 0.00000 6.76746e-14
  30 1173.71 0.00000 1.27467e-13
  31 1173.71 0.00000 5.27969e-13
  32 1173.71 0.00000 2.23905e-13
  33 1173.71 0.00000 -3.44339e-13
  34 1173.71 0.00000 1.52258e-13
  35 1173.71 0.00000 -1.24911e-13
  36 1173.71 0.00000 -6.25604e-13
  37 1173.71 0.00000 -5.80665e-13
  38 1173.71 0.00000 -2.34984e-13
  39 1173.71 0.00000 2.29338e-13
  40 1173.71 0.00000 8.51654e-14
  41 1173.71 0.00000 4.40799e-13
  42 1173.71 0.00000 3.20513e-13
  43 1173.71 0.00000 9.74683e-14
  44 1173.71 0.00000 2.40049e-14
  45 1173.71 0.00000 -2.68358e-14
  46 1173.71 0.00000 7.54785e-15
  47 1173.71 0.00000 -2.13883e-14
  48 1173.71 0.00000 -6.66400e-15
  49 1173.71 0.00000 -4.08466e-14
  50 1173.71 0.00000 5.15167e-15
  51 1173.71 0.00000 0.00000
  52 1173.71 0.00000 -2.31004e-14
  53 1173.71 0.00000 3.17494e-14
  54 1173.71 0.00000 1.49868e-14
  55 1173.71 0.00000 -6.76746e-14
  56 1173.71 0.00000 -7.04944e-15
  57 1173.71 0.00000 -9.45186e-14
  58 1173.71 0.00000 2.44560e-14
  59 1173.71 0.00000 1.10752e-13
  60 1173.71 0.00000 2.21515e-14
  61 1173.71 0.00000 -7.48827e-15
  62 1173.71 0.00000 -2.47688e-14
  63 1173.71 0.00000 9.31171e-14
  64 1173.71 0.00000 3.53097e-13
  65 1173.71 0.00000 5.01058e-14
  66 1173.71 0.00000 -2.22631e-14
  67 1173.71 0.00000 1.51254e-14
  68 1173.71 0.00000 -2.00031e-13
  69 1173.71 0.00000 -7.74739e-14
  70 1173.71 0.00000 -2.46594e-13
  71 1173.71 0.00000 2.02592e-14
  72 1173.71 0.00000 2.17189e-13
  73 1173.71 0.00000 2.48168e-13
  74 1173.71 0.00000 -9.58318e-14
  75 1173.71 0.00000 -2.75470e-13
  76 1173.71 0.00000 -2.95355e-13
  77 1173.71 0.00000 -7.93904e-14
  78 1173.71 0.00000 -2.59598e-13
  79 1173.71 0.00000 -3.38560e-14
  80 1173.71 0.00000 7.94565e-14
  81 1173.71 0.00000 -2.30849e-14
  82 1173.71 0.00000 -5.79127e-14
  83 1173.71 0.00000 -7.17941e-14
  84 1173.71 0.00000 2.30461e-14
  85 1173.71 0.00000 3.07083e-13
  86 1173.71 0.00000 -1.26343e-13
  87 1173.71 0.00000 -2.26510e-14
  88 1173.71 0.00000 -5.95560e-13
  89 1173.71 0.00000 -9.63721e-14
  90 1173.71 0.00000 -5.76291e-14
  91 1173.71 0.00000 6.02270e-14
  92 1173.71 0.00000 -1.65822e-14
  93 1173.71 0.00000 -2.16857e-13
  94 1173.71 0.00000 3.68546e-13
  95 1173.71 0.00000 -1.36429e-13
  96 1173.71 0.00000 1.18267e-13
  97 1173.71 0.00000 9.14951e-14
  98 1173.71 0.00000 4.33212e-14
  99 1173.71 0.00000 2.48617e-13
  100 1173.71 0.00000 4.87128e-14
  101 1173.71 0.00000 5.54884e-14
  102 1173.71 0.00000 1.25964e-13
  103 1173.71 0.00000 -2.70738e-13
  104 1173.71 0.00000 8.00591e-15
  105 1173.71 0.00000 -1.56763e-13
  106 1173.71 0.00000 1.23593e-13
  107 1173.71 0.00000 -9.52018e-14
  108 1173.71 0.00000 -6.21193e-14
  109 1173.71 0.00000 5.13414e-14
  110 1173.71 0.00000 2.51933e-13
  111 1173.71 0.00000 -3.06711e-13
  112 1173.71 0.00000 -1.64705e-13
  113 1173.71 0.00000 -6.22378e-14
  114 1173.71 0.00000 -2.47444e-13
  115 1173.71 0.00000 1.83459e-13
  116 1173.71 0.00000 3.30003e-14
  117 1173.71 0.00000 -2.98516e-14
  118 1173.71 0.00000 -8.40334e-14
  119 1173.71 0.00000 2.38856e-13
  120 1173.71 0.00000 -2.49802e-13
  121 1173.71 0.00000 -3.75859e-14
  122 1173.71 0.00000 -3.90514e-14
  123 1173.71 0.00000 -4.42233e-14
  124 1173.71 0.00000 2.45536e-14
  125 1173.71 0.00000 -1.43417e-14
  126 1173.71 0.00000 -8.20057e-15
  127 1173.71 0.00000 -4.63966e-14
  128 1173.71 0.00000 2.62247e-13
  129 1173.71 0.00000 2.46661e-14
  130 1173.71 0.00000 -3.44028e-14
  131 1173.71 0.00000 -7.20310e-14
  132 1173.71 0.00000 -1.45969e-14
  133 1173.71 0.00000 3.76342e-13
  134 1173.71 0.00000 -1.45682e-14
  135 1173.71 0.00000 -2.50744e-13
  136 1173.71 0.00000 -4.25666e-14
  137 1173.71 0.00000 -1.89594e-13
  138 1173.71 0.00000 -1.26102e-13
  139 1173.71 0.00000 -8.80118e-14
  140 1173.71 0.00000 -3.65985e-13
  141 1173.71 0.00000 -5.06387e-14
  142 1173.71 0.00000 2.72563e-14
  143 1173.71 0.00000 -1.24438e-13
  144 1173.71 0.00000 -4.76512e-14
  145 1173.71 0.00000 -1.89023e-13
  146 1173.71 0.00000 2.55442e-15
  147 1173.71 0.00000 -9.87527e-14
  148 1173.71 0.00000 5.45515e-14
  149 1173.71 0.00000 1.24259e-13
  150 1173.71 0.00000 1.26735e-13
  151 1173.71 0.00000 9.93169e-14
  152 1173.71 0.00000 1.72679e-13
  153 1173.71 0.00000 -1.61071e-13
  154 1173.71 0.00000 2.35767e-13
  155 1173.71 0.00000 5.25935e-14
  156 1173.71 0.00000 -1.83161e-13
  157 1173.71 0.00000 -3.37602e-14
  158 1173.71 0.00000 1.12101e-13
  159 1173.71 0.00000 -2.65902e-14
  160 1173.71 0.00000 -3.78270e-14
  161 1173.71 0.00000 -5.64869e-14
  162 1173.71 0.00000 -6.16615e-14
  163 1173.71 0.00000 1.71192e-13
  164 1173.71 0.00000 2.45910e-13
  165 1173.71 0.00000 8.99535e-14
  166 1173.71 0.00000 2.11891e-14
  167 1173.71 0.00000 1.54608e-13
  168 1173.71 0.00000 2.88344e-14
  169 1173.71 0.00000 -7.21008e-14
  170 1173.71 0.00000 -1.46197e-13
  171 1173.71 0.00000 1.01287e-14
  172 1173.71 0.00000 -8.71514e-14
  173 1173.71 0.00000 1.05506e-13
  174 1173.71 0.00000 1.99824e-14
  175 1173.71 0.00000 -1.51474e-14
  176 1173.71 0.00000 -2.12481e-14
  177 1173.71 0.00000 -1.60472e-15
  178 1173.71 0.00000 9.61098e-15
  179 1173.71 0.00000 -9.34098e-14
  180 1173.71 0.00000 -4.52363e-14
  181 1173.71 0.00000 1.14820e-13
  182 1173.71 0.00000 -3.11766e-13
  183 1173.71 0.00000 -1.21971e-14
  184 1173.71 0.00000 2.46304e-13
  185 1173.71 0.00000 -2.36706e-14
  186 1173.71 0.00000 1.29993e-13
  187 1173.71 0.00000 -4.15175e-13
  188 1173.71 0.00000 -6.76830e-14
  189 1173.71 0.00000 2.56065e-14
  190 1173.71 0.00000 -5.25080e-15
  191 1173.71 0.00000 -5.71954e-15
  192 1173.71 0.00000 3.47452e-13
  193 1173.71 0.00000 -4.06068e-13
  194 1173.71 0.00000 1.69178e-13
  195 1173.71 0.00000 8.25138e-14
  196 1173.71 0.00000 1.76685e-13
  197 1173.71 0.00000 -2.75344e-14
  198 1173.71 0.00000 2.00877e-13
  199 1173.71 0.00000 -3.31592e-14
  200 1173.71 0.00000 -3.27739e-14
  201 1173.71 0.00000 -3.94892e-13
  202 1173.71 0.00000 3.82223e-14
  203 1173.71 0.00000 -1.83230e-14
  204 1173.71 0.00000 8.29230e-14
  205 1173.71 0.00000 1.91994e-14
  206 1173.71 0.00000 -1.99676e-13
  207 1173.71 0.00000 3.90399e-14
  208 1173.71 0.00000 -5.25368e-14
  209 1173.71 0.00000 1.03425e-13
  210 1173.71 0.00000 1.73406e-14
  211 1173.71 0.00000 6.17662e-14
  212 1173.71 0.00000 -4.49598e-14
  213 1173.71 0.00000 -9.24370e-15
  214 1173.71 0.00000 -1.12164e-13
  215 1173.71 0.00000 -1.03925e-13
  216 1173.71 0.00000 -3.39654e-15
  217 1173.71 0.00000 6.04994e-13
  218 1173.71 0.00000 -3.80755e-15
  219 1173.71 0.00000 2.18772e-13
  220 1173.71 0.00000 -8.38415e-14
  221 1173.71 0.00000 -1.56175e-13
  222 1173.71 0.00000 -7.99295e-14
  223 1173.71 0.00000 1.52800e-14
  224 1173.71 0.00000 1.75041e-14
  225 1173.71 0.00000 2.55126e-13
  226 1173.71 0.00000 5.22196e-15
  227 1173.71 0.00000 7.47909e-15
  228 1173.71 0.00000 -1.64538e-13
  229 1173.71 0.00000 3.22884e-14
  230 1173.71 0.00000 2.03902e-13
  231 1173.71 0.00000 3.95216e-14
  232 1173.71 0.00000 4.38273e-14
  233 1173.71 0.00000 -1.44628e-13
  234 1173.71 0.00000 -1.71767e-13
  235 1173.71 0.00000 2.55983e-13
  236 1173.71 0.00000 5.64303e-14
  237 1173.71 0.00000 -7.28475e-15
  238 1173.71 0.00000 1.27493e-13
  239 1173.71 0.00000 -8.46664e-14
  240 1173.71 0.00000 4.38601e-14
  241 1173.71 0.00000 1.85310e-13
</Section>

newXOutput 27

<Section columns = "stress_xx | stress_yy | stress_xy">
  1 1220.37 0.00000 9.57014e-15
  2 1220.37 0.00000 -1.14783e-13
  3 1220.37 0.00000 -2.23295e-14
  4 1220.37 0.00000 -1.72453e-14
  5 1220.37 0.00000 8.05915e-14
  6 1220.37 0.00000 1.05329e-13
  7 1220.37 0.00000 7.24979e-15
  8 1220.37 0.00000 -4.80622e-14
  9 1220.37 0.00000 -2.21755e-13
  10 1220.37 0.00000 -2.80722e-13
  11 1220.37 0.00000 -8.92050e-14
  12 1220.37 0.00000 7.04116e-14
  13 1220.37 0.00000 2.87969e-14
  14 1220.37 0.00000 3.25690e-13
  15 1220.37 0.00000 3.11894e-14
  16 1220.37 0.00000 -2.52185e-13
  17 1220.37 0.00000 -1.46741e-13
  18 1220.37 0.00000 -2.14059e-13
  19 1220.37 0.00000 7.65220e-14
  20 1220.37 0.00000 3.06358e-13
  21 1220.37 0.00000 -1.50412e-13
  22 1220.37 0.00000 5.58812e-13
  23 1220.37 0.00000 1.33981e-13
  24 1220.37 0.00000 -1.53044e-13
  25 1220.37 0.00000 0.00000
  26 1220.37 0.00000 1.33184e-13
  27 1220.37 0.00000 -1.41869e-13
  28 1220.37 0.00000 -6.26296e-14
  29 1220.37 0.00000 -6.70481e-14
  30 1220.37 0.00000 -4.55086e-13
  31 1220.37 0.00000 6.52100e-13
  32 1220.37 0.00000 1.17876e-12
  33 1220.37 0.00000 -6.12182e-14
  34 1220.37 0.00000 -7.17616e-13
  35 1220.37 0.00000 -2.13000e-13
  36 1220.37 0.00000 -6.26562e-14
  37 1220.37 0.00000 3.36833e-16
  38 1220.37 0.00000 -3.71134e-14
  39 1220.37 0.00000 8.29430e-14
  40 1220.37 0.00000 9.60636e-14
  41 1220.37 0.00000 -7.25139e-14
  42 1220.37 0.00000 8.45061e-14
  43 1220.37 0.00000 -4.34009e-14
  44 1220.37 0.00000 -1.14175e-13
  45 1220.37 0.00000 -1.23494e-13
  46 1220.37 0.00000 -9.26765e-14
  47 1220.37 0.00000 6.07344e-15
  48 1220.37 0.00000 -2.24246e-14
  49 1220.37 0.00000 -8.73571e-14
  50 1220.37 0.00000 1.59693e-14
  51 1220.37 0.00000 2.51430e-14
  52 1220.37 0.00000 -4.63643e-15
  53 1220.37 0.00000 1.51575e-14
  54 1220.37 0.00000 1.58630e-14
  55 1220.37 0.00000 0.00000
  56 1220.37 0.00000 4.38869e-15
  57 1220.37 0.00000 1.63609e-14
  58 1220.37 0.00000 1.43166e-14
  59 1220.37 0.00000 -6.11952e-14
  60 1220.37 0.00000 7.68626e-14
  61 1220.37 0.00000 4.10980e-14
  62 1220.37 0.00000 4.84719e-14
  63 1220.37 0.00000 7.37301e-14
  64 1220.37 0.00000 1.76510e-14
  65 1220.37 0.00000 9.35280e-14
  66 1220.37 0.00000 -4.22919e-14
  67 1220.37 0.00000 2.97332e-13
  68 1220.37 0.00000 -3.84225e-15
  69 1220.37 0.00000 9.31186e-15
  70 1220.37 0.00000 -1.52911e-13
  71 1220.37 0.00000 1.60079e-14
  72 1220.37 0.00000 9.09804e-15
  73 1220.37 0.00000 1.59655e-13
  74 1220.37 0.00000 -7.01577e-14
  75 1220.37 0.00000 6.73265e-14
  76 1220.37 0.00000 -4.69107e-13
  77 1220.37 0.00000 6.03993e-15
  78 1220.37 0.00000 1.83355e-13
  79 1220.37 0.00000 -3.34714e-13
  80 1220.37 0.00000 1.20752e-13
  81 1220.37 0.00000 -4.11085e-14
  82 1220.37 0.00000 -6.35999e-14
  83 1220.37 0.00000 -8.70926e-14
  84 1220.37 0.00000 8.21046e-14
  85 1220.37 0.00000 -9.29263e-14
  86 1220.37 0.00000 4.70577e-14
  87 1220.37 0.00000 -2.93232e-15
  88 1220.37 0.00000 -8.08419e-13
  89 1220.37 0.00000 -9.92996e-14
  90 1220.37 0.00000 -2.13641e-14
  91 1220.37 0.00000 4.21858e-14
  92 1220.37 0.00000 -1.01867e-13
  93 1220.37 0.00000 -1.72954e-14
  94 1220.37 0.00000 -8.45122e-14
  95 1220.37 0.00000 2.33179e-13
  96 1220.37 0.00000 -1.08139e-13
  97 1220.37 0.00000 2.23023e-13
  98 1220.37 0.00000 -8.91898e-15
  99 1220.37 0.00000 1.40688e-13
  100 1220.37 0.00000 4.49505e-14
  101 1220.37 0.00000 -5.85613e-14
  102 1220.37 0.00000 1.62813e-13
  103 1220.37 0.00000 2.92834e-13
  104 1220.37 0.00000 6.86369e-14
  105 1220.37 0.00000 9.76714e-14
  106 1220.37 0.00000 -5.71316e-14
  107 1220.37 0.00000 3.74106e-14
  108 1220.37 0.00000 5.23356e-18
  109 1220.37 0.00000 2.84954e-14
  110 1220.37 0.00000 2.06176e-13
  111 1220.37 0.00000 -3.37141e-13
  112 1220.37 0.00000 -1.58441e-13
  113 1220.37 0.00000 -1.39581e-13
  114 1220.37 0.00000 -3.69239e-15
  115 1220.37 0.00000 -5.70583e-14
  116 1220.37 0.00000 2.20748e-14
  117 1220.37 0.00000 1.53179e-13
  118 1220.37 0.00000 -1.72381e-14
  119 1220.37 0.00000 2.51157e-13
  120 1220.37 0.00000 1.07722e-13
  121 1220.37 0.00000 4.76657e-14
  122 1220.37 0.00000 -1.67642e-13
  123 1220.37 0.00000 -5.95004e-14
  124 1220.37 0.00000 -6.41475e-14
  125 1220.37 0.00000 1.53851e-13
  126 1220.37 0.00000 -4.59305e-14
  127 1220.37 0.00000 4.57742e-14
  128 1220.37 0.00000 4.42847e-13
  129 1220.37 0.00000 -2.91281e-15
  130 1220.37 0.00000 -6.05623e-14
  131 1220.37 0.00000 -8.98604e-14
  132 1220.37 0.00000 -1.58493e-13
  133 1220.37 0.00000 -2.91393e-13
  134 1220.37 0.00000 2.20543e-14
  135 1220.37 0.00000 9.85010e-14
  136 1220.37 0.00000 -4.22091e-14
  137 1220.37 0.00000 2.75301e-13
  138 1220.37 0.00000 -1.63059e-13
  139 1220.37 0.00000 -6.13018e-14
  140 1220.37 0.00000 2.33173e-14
  141 1220.37 0.00000 -1.76572e-13
  142 1220.37 0.00000 -1.33527e-13
  143 1220.37 0.00000 -8.07843e-15
  144 1220.37 0.00000 -2.98023e-13
  145 1220.37 0.00000 -5.49768e-13
  146 1220.37 0.00000 4.93347e-14
  147 1220.37 0.00000 8.79369e-14
  148 1220.37 0.00000 6.80343e-14
  149 1220.37 0.00000 -2.42532e-13
  150 1220.37 0.00000 3.69787e-14
  151 1220.37 0.00000 1.46141e-13
  152 1220.37 0.00000 2.47524e-14
  153 1220.37 0.00000 -4.52452e-14
  154 1220.37 0.00000 9.59318e-14
  155 1220.37 0.00000 2.09528e-13
  156 1220.37 0.00000 -1.43262e-14
  157 1220.37 0.00000 2.16420e-14
  158 1220.37 0.00000 4.80794e-14
  159 1220.37 0.00000 -1.70185e-13
  160 1220.37 0.00000 -1.36503e-14
  161 1220.37 0.00000 -9.85312e-14
  162 1220.37 0.00000 -1.17269e-13
  163 1220.37 0.00000 -2.96337e-14
  164 1220.37 0.00000 2.35183e-13
  165 1220.37 0.00000 9.12274e-14
  166 1220.37 0.00000 3.80584e-14
  167 1220.37 0.00000 8.17390e-14
  168 1220.37 0.00000 -2.14616e-13
  169 1220.37 0.00000 -5.98129e-14
  170 1220.37 0.00000 3.37144e-13
  171 1220.37 0.00000 2.27685e-14
  172 1220.37 0.00000 9.86484e-14
  173 1220.37 0.00000 5.56752e-14
  174 1220.37 0.00000 -8.75809e-15
  175 1220.37 0.00000 -1.59155e-14
  176 1220.37 0.00000 -4.54828e-15
  177 1220.37 0.00000 -3.51848e-13
  178 1220.37 0.00000 -6.98861e-14
  179 1220.37 0.00000 -4.07565e-14
  180 1220.37 0.00000 -3.01021e-14
  181 1220.37 0.00000 -3.13622e-15
  182 1220.37 0.00000 -3.58742e-14
  183 1220.37 0.00000 3.05151e-14
  184 1220.37 0.00000 -5.35693e-14
  185 1220.37 0.00000 2.02617e-14
  186 1220.37 0.00000 2.76927e-13
  187 1220.37 0.00000 2.15713e-14
  188 1220.37 0.00000 -1.71536e-13
  189 1220.37 0.00000 1.20182e-13
  190 1220.37 0.00000 2.35233e-14
  191 1220.37 0.00000 4.10876e-14
  192 1220.37 0.00000 -2.28049e-13
  193 1220.37 0.00000 -8.58165e-14
  194 1220.37 0.00000 1.48573e-14
  195 1220.37 0.00000 1.11286e-13
  196 1220.37 0.00000 8.70996e-14
  197 1220.37 0.00000 -6.44407e-14
  198 1220.37 0.00000 1.33981e-13
  199 1220.37 0.00000 1.35191e-14
  200 1220.37 0.00000 1.72686e-13
  201 1220.37 0.00000 -1.91820e-14
  202 1220.37 0.00000 -2.50433e-13
  203 1220.37 0.00000 6.23884e-14
  204 1220.37 0.00000 -1.24789e-13
  205 1220.37 0.00000 2.47853e-14
  206 1220.37 0.00000 3.59742e-13
  207 1220.37 0.00000 2.10210e-14
  208 1220.37 0.00000 -3.11805e-13
  209 1220.37 0.00000 -2.94429e-13
  210 1220.37 0.00000 5.79172e-15
  211 1220.37 0.00000 3.25256e-14
  212 1220.37 0.00000 2.71998e-13
  213 1220.37 0.00000 -5.22118e-14
  214 1220.37 0.00000 -6.23069e-14
  215 1220.37 0.00000 6.62376e-14
  216 1220.37 0.00000 2.83396e-13
  217 1220.37 0.00000 1.83089e-14
  218 1220.37 0.00000 1.31843e-14
  219 1220.37 0.00000 3.43791e-13
  220 1220.37 0.00000 4.37347e-15
  221 1220.37 0.00000 -1.25242e-13
  222 1220.37 0.00000 1.36069e-13
  223 1220.37 0.00000 -1.11036e-13
  224 1220.37 0.00000 -4.63889e-14
  225 1220.37 0.00000 3.63256e-13
  226 1220.37 0.00000 -2.25041e-14
  227 1220.37 0.00000 -1.01965e-13
  228 1220.37 0.00000 2.68656e-14
  229 1220.37 0.00000 5.10307e-14
  230 1220.37 0.00000 3.39590e-14
  231 1220.37 0.00000 -2.86755e-14
  232 1220.37 0.00000 4.79476e-14
  233 1220.37 0.00000 3.53848e-13
  234 1220.37 0.00000 7.69565e-14
  235 1220.37 0.00000 8.95202e-14
  236 1220.37 0.00000 4.99382e-14
  237 1220.37 0.00000 -1.97258e-13
  238 1220.37 0.00000 -4.99213e-14
  239 1220.37 0.00000 5.39111e-14
  240 1220.37 0.00000 -1.32941e-14
  241 1220.37 0.00000 4.73695e-15
</Section>

newXOutput 28

<Section columns = "stress_xx | stress_yy | stress_xy">
  1 1267.01 0.00000 -4.48409e-14
  2 1267.01 0.00000 -8.77375e-14
  3 1267.01 0.00000 -4.58530e-13
  4 1267.01 0.00000 -1.54201e-15
  5 1267.01 0.00000 -1.17141e-14
  6 1267.01 0.00000 1.56394e-14
  7 1267.01 0.00000 2.51393e-14
  8 1267.01 0.00000 2.30845e-14
  9 1267.01 0.00000 -6.86178e-14
  10 1267.01 0.00000 3.44631e-14
  11 1267.01 0.00000 -7.68392e-14
  12 1267.01 0.00000 6.24606e-14
  13 1267.01 0.00000 -7.96662e-14
  14 1267.01 0.00000 -1.72643e-13
  15 1267.01 0.00000 -6.77115e-14
  16 1267.01 0.00000 6.19757e-13
  17 1267.01 0.00000 9.04646e-13
  18 1267.01 0.00000 6.73512e-13
  19 1267.01 0.00000 5.41013e-13
  20 1267.01 0.00000 9.31196e-13
  21 1267.01 0.00000 1.08299e-12
  22 1267.01 0.00000 3.83869e-13
  23 1267.01 0.00000 -2.46306e-13
  24 1267.01 0.00000 0.00000
  25 1267.01 0.00000 0.00000
  26 1267.01 0.00000 -6.78608e-14
  27 1267.01 0.00000 5.69761e-15
  28 1267.01 0.00000 2.13497e-13
  29 1267.01 0.00000 2.33594e-13
  30 1267.01 0.00000 1.76273e-13
  31 1267.01 0.00000 -9.31099e-13
  32 1267.01 0.00000 -8.25031e-13
  33 1267.01 0.00000 -1.92844e-13
  34 1267.01 0.00000 2.76212e-13
  35 1267.01 0.00000 1.69365e-13
  36 1267.01 0.00000 2.14650e-13
  37 1267.01 0.00000 1.78177e-13
  38 1267.01 0.00000 1.33875e-14
  39 1267.01 0.00000 -1.38209e-13
  40 1267.01 0.00000 6.22552e-14
  41 1267.01 0.00000 2.37590e-13
  42 1267.01 0.00000 6.84615e-16
  43 1267.01 0.00000 -1.23519e-13
  44 1267.01 0.00000 -3.00176e-14
  45 1267.01 0.00000 -7.97810e-14
  46 1267.01 0.00000 -1.68084e-13
  47 1267.01 0.00000 -1.40201e-13
  48 1267.01 0.00000 -4.49980e-14
  49 1267.01 0.00000 -6.72987e-14
  50 1267.01 0.00000 1.32886e-14
  51 1267.01 0.00000 1.66053e-14
  52 1267.01 0.00000 -2.23052e-14
  53 1267.01 0.00000 -4.43682e-15
  54 1267.01 0.00000 2.07566e-15
  55 1267.01 0.00000 0.00000
  56 1267.01 0.00000 -6.12592e-14
  57 1267.01 0.00000 -9.82153e-14
  58 1267.01 0.00000 -3.34215e-13
  59 1267.01 0.00000 1.49707e-13
  60 1267.01 0.00000 -8.45635e-14
  61 1267.01 0.00000 -2.44250e-14
  62 1267.01 0.00000 -1.48707e-13
  63 1267.01 0.00000 -6.54422e-14
  64 1267.01 0.00000 -1.41662e-13
  65 1267.01 0.00000 2.35171e-14
  66 1267.01 0.00000 -8.71178e-15
  67 1267.01 0.00000 -6.06753e-15
  68 1267.01 0.00000 1.04622e-13
  69 1267.01 0.00000 -2.39646e-13
  70 1267.01 0.00000 -1.72642e-13
  71 1267.01 0.00000 6.17229e-14
  72 1267.01 0.00000 2.62844e-13
  73 1267.01 0.00000 -3.10332e-14
  74 1267.01 0.00000 -5.63453e-14
  75 1267.01 0.00000 4.52011e-14
  76 1267.01 0.00000 1.61101e-13
  77 1267.01 0.00000 -1.10953e-14
  78 1267.01 0.00000 -4.13004e-13
  79 1267.01 0.00000 -1.12835e-14
  80 1267.01 0.00000 6.39862e-14
  81 1267.01 0.00000 1.46714e-13
  82 1267.01 0.00000 -3.95717e-13
  83 1267.01 0.00000 -9.17584e-14
  84 1267.01 0.00000 -5.67184e-14
  85 1267.01 0.00000 7.50970e-14
  86 1267.01 0.00000 -1.47655e-13
  87 1267.01 0.00000 3.39769e-14
  88 1267.01 0.00000 3.06141e-13
  89 1267.01 0.00000 -1.19532e-14
  90 1267.01 0.00000 -8.73955e-14
  91 1267.01 0.00000 -1.90414e-13
  92 1267.01 0.00000 -2.07003e-13
  93 1267.01 0.00000 4.40991e-13
  94 1267.01 0.00000 4.45980e-13
  95 1267.01 0.00000 -9.54693e-14
  96 1267.01 0.00000 1.60035e-13
  97 1267.01 0.00000 -3.20808e-13
  98 1267.01 0.00000 3.09571e-14
  99 1267.01 0.00000 2.76668e-13
  100 1267.01 0.00000 -2.98896e-14
  101 1267.01 0.00000 1.15417e-13
  102 1267.01 0.00000 -2.80886e-13
  103 1267.01 0.00000 2.83591e-13
  104 1267.01 0.00000 9.90661e-14
  105 1267.01 0.00000 -1.18931e-13
  106 1267.01 0.00000 4.73891e-14
  107 1267.01 0.00000 1.03293e-13
  108 1267.01 0.00000 -6.28659e-14
  109 1267.01 0.00000 -6.97161e-15
  110 1267.01 0.00000 8.40994e-14
  111 1267.01 0.00000 -1.80681e-13
  112 1267.01 0.00000 -3.90240e-13
  113 1267.01 0.00000 -2.40839e-14
  114 1267.01 0.00000 -8.17676e-14
  115 1267.01 0.00000 6.23688e-15
  116 1267.01 0.00000 -2.82678e-14
  117 1267.01 0.00000 -2.16198e-13
  118 1267.01 0.00000 -7.56555e-14
  119 1267.01 0.00000 2.59159e-13
  120 1267.01 0.00000 -1.79584e-13
  121 1267.01 0.00000 -1.27830e-13
  122 1267.01 0.00000 -1.63224e-13
  123 1267.01 0.00000 -4.34908e-13
  124 1267.01 0.00000 2.14058e-13
  125 1267.01 0.00000 6.33326e-14
  126 1267.01 0.00000 -1.87085e-14
  127 1267.01 0.00000 7.61853e-15
  128 1267.01 0.00000 2.63231e-13
  129 1267.01 0.00000 -1.51672e-14
  130 1267.01 0.00000 -2.58496e-13
  131 1267.01 0.00000 -4.40637e-14
  132 1267.01 0.00000 -3.62187e-14
  133 1267.01 0.00000 3.96378e-13
  134 1267.01 0.00000 4.03085e-14
  135 1267.01 0.00000 4.10953e-13
  136 1267.01 0.00000 -2.24515e-14
  137 1267.01 0.00000 1.15084e-13
  138 1267.01 0.00000 7.63550e-14
  139 1267.01 0.00000 -5.83927e-14
  140 1267.01 0.00000 2.49748e-13
  141 1267.01 0.00000 -8.24447e-14
  142 1267.01 0.00000 -8.01601e-14
  143 1267.01 0.00000 3.07114e-14
  144 1267.01 0.00000 -1.02685e-13
  145 1267.01 0.00000 -2.15956e-13
  146 1267.01 0.00000 -1.14794e-13
  147 1267.01 0.00000 -1.53192e-13
  148 1267.01 0.00000 3.95585e-14
  149 1267.01 0.00000 5.21344e-14
  150 1267.01 0.00000 6.26935e-14
  151 1267.01 0.00000 2.25526e-13
  152 1267.01 0.00000 -8.45021e-14
  153 1267.01 0.00000 1.35526e-13
  154 1267.01 0.00000 1.89951e-13
  155 1267.01 0.00000 -5.29368e-14
  156 1267.01 0.00000 4.65687e-13
  157 1267.01 0.00000 -5.38165e-14
  158 1267.01 0.00000 -8.49783e-14
  159 1267.01 0.00000 -9.95152e-14
  160 1267.01 0.00000 -3.53687e-14
  161 1267.01 0.00000 -5.66332e-14
  162 1267.01 0.00000 3.42980e-14
  163 1267.01 0.00000 -4.89271e-14
  164 1267.01 0.00000 6.38669e-14
  165 1267.01 0.00000 3.46955e-14
  166 1267.01 0.00000 7.65779e-15
  167 1267.01 0.00000 -8.68832e-14
  168 1267.01 0.00000 3.29979e-13
  169 1267.01 0.00000 -6.17520e-14
  170 1267.01 0.00000 -3.12513e-14
  171 1267.01 0.00000 9.17683e-15
  172 1267.01 0.00000 -7.63495e-14
  173 1267.01 0.00000 -1.40848e-13
  174 1267.01 0.00000 1.03601e-14
  175 1267.01 0.00000 -4.68942e-15
  176 1267.01 0.00000 -4.43903e-14
  177 1267.01 0.00000 -3.05650e-13
  178 1267.01 0.00000 -9.81829e-14
  179 1267.01 0.00000 -8.65518e-14
  180 1267.01 0.00000 -1.63430e-13
  181 1267.01 0.00000 -1.13877e-13
  182 1267.01 0.00000 8.63556e-14
  183 1267.01 0.00000 -2.01239e-13
  184 1267.01 0.00000 5.08259e-13
  185 1267.01 0.00000 -5.09033e-14
  186 1267.01 0.00000 -4.08850e-14
  187 1267.01 0.00000 -3.57774e-13
  188 1267.01 0.00000 1.59107e-13
  189 1267.01 0.00000 -1.67424e-13
  190 1267.01 0.00000 5.75729e-14
  191 1267.01 0.00000 -7.49030e-15
  192 1267.01 0.00000 1.03670e-13
  193 1267.01 0.00000 1.16011e-13
  194 1267.01 0.00000 -3.33904e-13
  195 1267.01 0.00000 3.90958e-14
  196 1267.01 0.00000 7.23492e-14
  197 1267.01 0.00000 -4.42699e-14
  198 1267.01 0.00000 3.72163e-13
  199 1267.01 0.00000 -8.60414e-14
  200 1267.01 0.00000 -2.57218e-13
  201 1267.01 0.00000 -4.32545e-14
  202 1267.01 0.00000 -2.91793e-13
  203 1267.01 0.00000 8.82179e-14
  204 1267.01 0.00000 7.04080e-14
  205 1267.01 0.00000 4.24086e-14
  206 1267.01 0.00000 2.54036e-13
  207 1267.01 0.00000 -9.09495e-14
  208 1267.01 0.00000 -1.80766e-13
  209 1267.01 0.00000 -2.58807e-13
  210 1267.01 0.00000 6.65351e-14
  211 1267.01 0.00000 4.05786e-14
  212 1267.01 0.00000 3.19586e-13
  213 1267.01 0.00000 6.95809e-15
  214 1267.01 0.00000 -9.80329e-15
  215 1267.01 0.00000 8.50772e-14
  216 1267.01 0.00000 -1.15697e-13
  217 1267.01 0.00000 8.45687e-15
  218 1267.01 0.00000 -1.12618e-14
  219 1267.01 0.00000 2.19784e-13
  220 1267.01 0.00000 1.48211e-14
  221 1267.01 0.00000 7.60817e-14
  222 1267.01 0.00000 -5.05892e-15
  223 1267.01 0.00000 -4.87153e-14
  224 1267.01 0.00000 1.31795e-15
  225 1267.01 0.00000 4.48256e-13
  226 1267.01 0.00000 -1.66053e-14
  227 1267.01 0.00000 9.57224e-14
  228 1267.01 0.00000 -7.67008e-14
  229 1267.01 0.00000 6.89498e-14
  230 1267.01 0.00000 -1.28062e-13
  231 1267.01 0.00000 1.15161e-13
  232 1267.01 0.00000 1.57230e-14
  233 1267.01 0.00000 3.88060e-13
  234 1267.01 0.00000 -3.21254e-14
  235 1267.01 0.00000 -1.80363e-13
  236 1267.01 0.00000 1.28023e-14
  237 1267.01 0.00000 2.32630e-13
  238 1267.01 0.00000 -1.15776e-13
  239 1267.01 0.00000 -1.19199e-13
  240 1267.01 0.00000 -7.28800e-15
  241 1267.01 0.00000 1.83713e-13
</Section>

newXOutput 29

<Section columns = "stress_xx | stress_yy | stress_xy">
  1 1313.63 0.00000 -7.61250e-14
  2 1313.63 0.00000 -3.28970e-14
  3 1313.63 0.00000 -4.86105e-13
  4 1313.63 0.00000 -7.07516e-14
  5 1313.63 0.00000 -1.69246e-13
  6 1313.63 0.00000 -2.32255e-13
  7 1313.63 0.00000 -1.43538e-13
  8 1313.63 0.00000 3.00247e-13
  9 1313.63 0.00000 3.30780e-13
  10 1313.63 0.00000 9.33433e-14
  11 1313.63 0.00000 -1.10974e-13
  12 1313.63 0.00000 1.26225e-13
  13 1313.63 0.00000 -1.08070e-13
  14 1313.63 0.00000 -5.98305e-13
  15 1313.63 0.00000 -1.12753e-13
  16 1313.63 0.00000 4.07762e-13
  17 1313.63 0.00000 2.97661e-13
  18 1313.63 0.00000 4.17236e-13
  19 1313.63 0.00000 7.09723e-13
  20 1313.63 0.00000 2.17220e-13
  21 1313.63 0.00000 -9.22197e-13
  22 1313.63 0.00000 -1.15661e-12
  23 1313.63 0.00000 -5.62171e-13
  24 1313.63 0.00000 -4.38627e-14
  25 1313.63 0.00000 0.00000
  26 1313.63 0.00000 -4.52398e-14
  27 1313.63 0.00000 -2.22820e-13
  28 1313.63 0.00000 1.44781e-13
  29 1313.63 0.00000 -4.11213e-14
  30 1313.63 0.00000 -1.91899e-14
  31 1313.63 0.00000 -4.74292e-13
  32 1313.63 0.00000 -4.48825e-15
  33 1313.63 0.00000 1.51844e-13
  34 1313.63 0.00000 -4.11465e-13
  35 1313.63 0.00000 -5.15982e-13
  36 1313.63 0.00000 -7.40097e-14
  37 1313.63 0.00000 1.53968e-13
  38 1313.63 0.00000 2.17999e-13
  39 1313.63 0.00000 -6.97994e-14
  40 1313.63 0.00000 3.79336e-14
  41 1313.63 0.00000 5.19715e-13
  42 1313.63 0.00000 2.54284e-13
  43 1313.63 0.00000 -8.22476e-16
  44 1313.63 0.00000 5.27813e-15
  45 1313.63 0.00000 9.40755e-15
  46 1313.63 0.00000 1.78063e-13
  47 1313.63 0.00000 -3.54182e-14
  48 1313.63 0.00000 -3.21600e-13
  49 1313.63 0.00000 -2.21931e-13
  50 1313.63 0.00000 2.84338e-14
  51 1313.63 0.00000 3.28970e-14
  52 1313.63 0.00000 9.74096e-15
  53 1313.63 0.00000 1.03310e-14
  54 1313.63 0.00000 6.52807e-15
  55 1313.63 0.00000 3.28970e-14
  56 1313.63 0.00000 -2.10743e-14
  57 1313.63 0.00000 4.17403e-14
  58 1313.63 0.00000 -4.59476e-14
  59 1313.63 0.00000 8.44978e-14
  60 1313.63 0.00000 -1.85128e-13
  61 1313.63 0.00000 2.42118e-13
  62 1313.63 0.00000 1.82174e-13
  63 1313.63 0.00000 3.47682e-14
  64 1313.63 0.00000 3.81824e-13
  65 1313.63 0.00000 -1.86710e-15
  66 1313.63 0.00000 1.04579e-13
  67 1313.63 0.00000 3.73832e-13
  68 1313.63 0.00000 -8.43907e-14
  69 1313.63 0.00000 -9.45161e-14
  70 1313.63 0.00000 7.61429e-14
  71 1313.63 0.00000 -6.56680e-14
  72 1313.63 0.00000 -1.66369e-13
  73 1313.63 0.00000 -5.36628e-14
  74 1313.63 0.00000 5.45637e-14
  75 1313.63 0.00000 -1.00134e-13
  76 1313.63 0.00000 2.86128e-13
  77 1313.63 0.00000 7.84616e-14
  78 1313.63 0.00000 -6.65289e-14
  79 1313.63 0.00000 -1.34378e-13
  80 1313.63 0.00000 -7.96025e-14
  81 1313.63 0.00000 1.40668e-13
  82 1313.63 0.00000 1.69948e-13
  83 1313.63 0.00000 -2.96596e-13
  84 1313.63 0.00000 -1.16949e-13
  85 1313.63 0.00000 -1.65715e-13
  86 1313.63 0.00000 4.05242e-13
  87 1313.63 0.00000 1.31098e-13
  88 1313.63 0.00000 -5.22197e-14
  89 1313.63 0.00000 1.27561e-13
  90 1313.63 0.00000 5.90893e-14
  91 1313.63 0.00000 3.22034e-14
  92 1313.63 0.00000 9.13454e-14
  93 1313.63 0.00000 -6.51214e-13
  94 1313.63 0.00000 -1.80651e-13
  95 1313.63 0.00000 4.01352e-14
  96 1313.63 0.00000 1.07050e-13
  97 1313.63 0.00000 2.42863e-15
  98 1313.63 0.00000 -2.81108e-13
  99 1313.63 0.00000 1.09356e-13
  100 1313.63 0.00000 1.35807e-13
  101 1313.63 0.00000 -7.09159e-14
  102 1313.63 0.00000 -1.09670e-13
  103 1313.63 0.00000 1.25979e-13
  104 1313.63 0.00000 1.75155e-13
  105 1313.63 0.00000 1.09107e-13
  106 1313.63 0.00000 -2.03726e-13
  107 1313.63 0.00000 1.72535e-13
  108 1313.63 0.00000 -1.81670e-14
  109 1313.63 0.00000 -3.65157e-14
  110 1313.63 0.00000 -1.55534e-14
  111 1313.63 0.00000 1.01405e-13
  112 1313.63 0.00000 -9.34049e-15
  113 1313.63 0.00000 2.25569e-15
  114 1313.63 0.00000 2.42936e-13
  115 1313.63 0.00000 -1.72615e-13
  116 1313.63 0.00000 -1.72008e-13
  117 1313.63 0.00000 1.97603e-13
  118 1313.63 0.00000 -1.26585e-13
  119 1313.63 0.00000 1.53781e-13
  120 1313.63 0.00000 -1.64964e-13
  121 1313.63 0.00000 -1.31792e-14
  122 1313.63 0.00000 -1.82608e-14
  123 1313.63 0.00000 -1.17906e-13
  124 1313.63 0.00000 -3.70115e-15
  125 1313.63 0.00000 1.79406e-14
  126 1313.63 0.00000 3.40436e-14
  127 1313.63 0.00000 1.58624e-14
  128 1313.63 0.00000 1.89760e-13
  129 1313.63 0.00000 -4.57404e-14
  130 1313.63 0.00000 2.09090e-13
  131 1313.63 0.00000 5.60613e-14
  132 1313.63 0.00000 -2.54748e-14
  133 1313.63 0.00000 -1.48850e-13
  134 1313.63 0.00000 9.07285e-14
  135 1313.63 0.00000 -1.52403e-13
  136 1313.63 0.00000 2.48352e-14
  137 1313.63 0.00000 1.19689e-13
  138 1313.63 0.00000 -3.25514e-14
  139 1313.63 0.00000 2.05598e-13
  140 1313.63 0.00000 -1.69454e-13
  141 1313.63 0.00000 1.20565e-13
  142 1313.63 0.00000 1.21460e-13
  143 1313.63 0.00000 -2.40269e-14
  144 1313.63 0.00000 -3.66045e-14
  145 1313.63 0.00000 -3.59060e-13
  146 1313.63 0.00000 -5.28764e-15
  147 1313.63 0.00000 -1.26003e-13
  148 1313.63 0.00000 1.26680e-13
  149 1313.63 0.00000 2.72920e-14
  150 1313.63 0.00000 -1.97682e-13
  151 1313.63 0.00000 -2.52866e-13
  152 1313.63 0.00000 9.10937e-14
  153 1313.63 0.00000 -1.17082e-13
  154 1313.63 0.00000 -1.29730e-14
  155 1313.63 0.00000 -1.43098e-13
  156 1313.63 0.00000 4.47450e-14
  157 1313.63 0.00000 -8.98736e-14
  158 1313.63 0.00000 -5.47749e-14
  159 1313.63 0.00000 2.22748e-14
  160 1313.63 0.00000 5.21592e-14
  161 1313.63 0.00000 1.17992e-13
  162 1313.63 0.00000 -2.33916e-13
  163 1313.63 0.00000 -2.37592e-13
  164 1313.63 0.00000 1.47756e-13
  165 1313.63 0.00000 -2.12679e-13
  166 1313.63 0.00000 1.96683e-14
  167 1313.63 0.00000 -9.97695e-14
  168 1313.63 0.00000 -9.84330e-14
  169 1313.63 0.00000 3.17478e-14
  170 1313.63 0.00000 4.08636e-13
  171 1313.63 0.00000 4.48333e-14
  172 1313.63 0.00000 -1.90765e-13
  173 1313.63 0.00000 4.71120e-14
  174 1313.63 0.00000 7.31295e-14
  175 1313.63 0.00000 1.08821e-14
  176 1313.63 0.00000 -5.38126e-14
  177 1313.63 0.00000 -2.75704e-14
  178 1313.63 0.00000 -1.89538e-14
  179 1313.63 0.00000 9.83959e-14
  180 1313.63 0.00000 2.78925e-13
  181 1313.63 0.00000 -4.15575e-14
  182 1313.63 0.00000 2.70000e-13
  183 1313.63 0.00000 2.35397e-14
  184 1313.63 0.00000 2.88028e-13
  185 1313.63 0.00000 -7.01424e-14
  186 1313.63 0.00000 -2.28532e-13
  187 1313.63 0.00000 1.32659e-13
  188 1313.63 0.00000 -1.51120e-13
  189 1313.63 0.00000 1.48079e-13
  190 1313.63 0.00000 2.01119e-14
  191 1313.63 0.00000 9.11477e-14
  192 1313.63 0.00000 -2.97752e-14
  193 1313.63 0.00000 -1.48779e-13
  194 1313.63 0.00000 2.79616e-14
  195 1313.63 0.00000 -5.06232e-14
  196 1313.63 0.00000 -1.74622e-13
  197 1313.63 0.00000 4.10776e-14
  198 1313.63 0.00000 6.07560e-14
  199 1313.63 0.00000 -3.95782e-14
  200 1313.63 0.00000 -2.95897e-13
  201 1313.63 0.00000 -1.27114e-13
  202 1313.63 0.00000 2.97408e-14
  203 1313.63 0.00000 -1.07745e-13
  204 1313.63 0.00000 5.86186e-14
  205 1313.63 0.00000 6.87303e-14
  206 1313.63 0.00000 9.66444e-14
  207 1313.63 0.00000 1.25921e-14
  208 1313.63 0.00000 -5.58618e-13
  209 1313.63 0.00000 -1.29747e-13
  210 1313.63 0.00000 -4.11294e-14
  211 1313.63 0.00000 -2.23968e-13
  212 1313.63 0.00000 -1.45167e-13
  213 1313.63 0.00000 -5.68436e-14
  214 1313.63 0.00000 8.38629e-14
  215 1313.63 0.00000 -2.72156e-13
  216 1313.63 0.00000 1.05792e-13
  217 1313.63 0.00000 -1.90703e-13
  218 1313.63 0.00000 -1.12645e-13
  219 1313.63 0.00000 2.02458e-13
  220 1313.63 0.00000 2.07236e-13
  221 1313.63 0.00000 -1.73503e-13
  222 1313.63 0.00000 4.18189e-15
  223 1313.63 0.00000 5.10355e-14
  224 1313.63 0.00000 -2.05809e-14
  225 1313.63 0.00000 -2.12130e-13
  226 1313.63 0.00000 2.45215e-13
  227 1313.63 0.00000 -1.88802e-14
  228 1313.63 0.00000 -4.98166e-14
  229 1313.63 0.00000 1.20575e-13
  230 1313.63 0.00000 -2.23575e-13
  231 1313.63 0.00000 9.00650e-14
  232 1313.63 0.00000 -2.71432e-13
  233 1313.63 0.00000 6.86230e-14
  234 1313.63 0.00000 4.04203e-14
  235 1313.63 0.00000 2.29909e-15
  236 1313.63 0.00000 -8.69866e-14
  237 1313.63 0.00000 1.34886e-13
  238 1313.63 0.00000 1.95905e-13
  239 1313.63 0.00000 -1.10974e-13
  240 1313.63 0.00000 2.18197e-13
  241 1313.63 0.00000 1.60764e-13
</Section>

newXOutput 30

<Section columns = "stress_xx | stress_yy | stress_xy">
  1 1360.25 0.00000 5.40089e-14
  2 1360.25 0.00000 -1.91338e-13
  3 1360.25 0.00000 3.53292e-13
  4 1360.25 0.00000 5.89140e-14
  5 1360.25 0.00000 -1.48209e-16
  6 1360.25 0.00000 -2.16480e-13
  7 1360.25 0.00000 -7.58793e-14
  8 1360.25 0.00000 2.59776e-13
  9 1360.25 0.00000 1.10496e-13
  10 1360.25 0.00000 2.01898e-13
  11 1360.25 0.00000 1.67617e-14
  12 1360.25 0.00000 -6.50205e-14
  13 1360.25 0.00000 3.60744e-15
  14 1360.25 0.00000 2.62841e-15
  15 1360.25 0.00000 -1.74933e-13
  16 1360.25 0.00000 1.78286e-13
  17 1360.25 0.00000 2.83977e-13
  18 1360.25 0.00000 5.55851e-13
  19 1360.25 0.00000 -7.44944e-14
  20 1360.25 0.00000 7.11977e-13
  21 1360.25 0.00000 4.71591e-13
  22 1360.25 0.00000 2.21439e-13
  23 1360.25 0.00000 -1.21023e-14
  24 1360.25 0.00000 8.16317e-14
  25 1360.25 0.00000 -6.51664e-14
  26 1360.25 0.00000 4.32635e-14
  27 1360.25 0.00000 -2.47606e-13
  28 1360.25 0.00000 2.35448e-13
  29 1360.25 0.00000 4.07290e-14
  30 1360.25 0.00000 -1.23010e-13
  31 1360.25 0.00000 3.85910e-13
  32 1360.25 0.00000 -5.78238e-13
  33 1360.25 0.00000 -1.92164e-13
  34 1360.25 0.00000 1.32292e-13
  35 1360.25 0.00000 3.62753e-14
  36 1360.25 0.00000 -4.96566e-14
  37 1360.25 0.00000 -2.29444e-13
  38 1360.25 0.00000 1.50753e-13
  39 1360.25 0.00000 2.76955e-13
  40 1360.25 0.00000 3.00400e-14
  41 1360.25 0.00000 -1.00473e-13
  42 1360.25 0.00000 -1.13023e-13
  43 1360.25 0.00000 -1.97959e-13
  44 1360.25 0.00000 2.96821e-14
  45 1360.25 0.00000 1.95480e-13
  46 1360.25 0.00000 3.38450e-13
  47 1360.25 0.00000 6.15026e-14
  48 1360.25 0.00000 2.23098e-13
  49 1360.25 0.00000 1.72107e-13
  50 1360.25 0.00000 2.25037e-14
  51 1360.25 0.00000 -2.44374e-14
  52 1360.25 0.00000 3.55704e-14
  53 1360.25 0.00000 -7.57311e-14
  54 1360.25 0.00000 -2.70045e-14
  55 1360.25 0.00000 6.51664e-14
  56 1360.25 0.00000 5.50869e-14
  57 1360.25 0.00000 -1.08570e-13
  58 1360.25 0.00000 1.61857e-13
  59 1360.25 0.00000 -1.21036e-13
  60 1360.25 0.00000 5.02154e-14
  61 1360.25 0.00000 -1.44977e-13
  62 1360.25 0.00000 2.18987e-13
  63 1360.25 0.00000 -1.51121e-13
  64 1360.25 0.00000 4.08147e-14
  65 1360.25 0.00000 3.86379e-14
  66 1360.25 0.00000 -3.31881e-13
  67 1360.25 0.00000 3.93418e-14
  68 1360.25 0.00000 1.12045e-13
  69 1360.25 0.00000 -2.25962e-13
  70 1360.25 0.00000 8.72952e-14
  71 1360.25 0.00000 -1.07202e-13
  72 1360.25 0.00000 1.08188e-13
  73 1360.25 0.00000 2.32137e-13
  74 1360.25 0.00000 -1.09155e-14
  75 1360.25 0.00000 1.87659e-13
  76 1360.25 0.00000 -3.23793e-13
  77 1360.25 0.00000 2.24667e-14
  78 1360.25 0.00000 -3.46033e-13
  79 1360.25 0.00000 -1.54762e-13
  80 1360.25 0.00000 9.24494e-14
  81 1360.25 0.00000 7.50647e-14
  82 1360.25 0.00000 -4.36321e-15
  83 1360.25 0.00000 -1.21117e-13
  84 1360.25 0.00000 9.11300e-14
  85 1360.25 0.00000 1.04702e-13
  86 1360.25 0.00000 3.08611e-13
  87 1360.25 0.00000 1.13108e-13
  88 1360.25 0.00000 -4.10842e-13
  89 1360.25 0.00000 2.47442e-13
  90 1360.25 0.00000 1.14871e-13
  91 1360.25 0.00000 -2.97685e-14
  92 1360.25 0.00000 -7.93807e-15
  93 1360.25 0.00000 -4.44583e-14
  94 1360.25 0.00000 -2.70749e-13
  95 1360.25 0.00000 1.12799e-13
  96 1360.25 0.00000 7.28514e-14
  97 1360.25 0.00000 -3.79653e-13
  98 1360.25 0.00000 2.23279e-13
  99 1360.25 0.00000 -1.38963e-13
  100 1360.25 0.00000 -3.13220e-13
  101 1360.25 0.00000 2.98187e-13
  102 1360.25 0.00000 -5.36928e-13
  103 1360.25 0.00000 -2.04529e-13
  104 1360.25 0.00000 9.36208e-14
  105 1360.25 0.00000 -9.63195e-14
  106 1360.25 0.00000 2.66991e-13
  107 1360.25 0.00000 -4.34295e-14
  108 1360.25 0.00000 -1.38353e-14
  109 1360.25 0.00000 -2.27238e-13
  110 1360.25 0.00000 3.67359e-13
  111 1360.25 0.00000 -9.21557e-14
  112 1360.25 0.00000 1.71588e-13
  113 1360.25 0.00000 1.88450e-13
  114 1360.25 0.00000 -1.23351e-13
  115 1360.25 0.00000 -3.75210e-14
  116 1360.25 0.00000 -4.77591e-14
  117 1360.25 0.00000 -1.10375e-13
  118 1360.25 0.00000 1.31522e-13
  119 1360.25 0.00000 -1.33811e-13
  120 1360.25 0.00000 -4.33531e-13
  121 1360.25 0.00000 -1.57575e-13
  122 1360.25 0.00000 -1.76676e-13
  123 1360.25 0.00000 6.76532e-16
  124 1360.25 0.00000 2.51988e-13
  125 1360.25 0.00000 2.78712e-13
  126 1360.25 0.00000 -2.60705e-14
  127 1360.25 0.00000 1.19615e-14
  128 1360.25 0.00000 2.74151e-13
  129 1360.25 0.00000 3.59511e-14
  130 1360.25 0.00000 -1.04744e-13
  131 1360.25 0.00000 9.17046e-14
  132 1360.25 0.00000 -5.08319e-14
  133 1360.25 0.00000 3.02166e-13
  134 1360.25 0.00000 -2.50145e-14
  135 1360.25 0.00000 3.43243e-13
  136 1360.25 0.00000 2.20650e-13
  137 1360.25 0.00000 -5.07672e-14
  138 1360.25 0.00000 -1.89715e-14
  139 1360.25 0.00000 -7.86751e-14
  140 1360.25 0.00000 -1.80698e-13
  141 1360.25 0.00000 -2.70100e-13
  142 1360.25 0.00000 1.17476e-13
  143 1360.25 0.00000 1.34080e-13
  144 1360.25 0.00000 -6.67126e-15
  145 1360.25 0.00000 -3.00985e-13
  146 1360.25 0.00000 -2.51734e-14
  147 1360.25 0.00000 1.61239e-13
  148 1360.25 0.00000 -1.08203e-13
  149 1360.25 0.00000 -2.23862e-13
  150 1360.25 0.00000 3.58343e-14
  151 1360.25 0.00000 8.44964e-14
  152 1360.25 0.00000 -4.37345e-13
  153 1360.25 0.00000 -1.44343e-14
  154 1360.25 0.00000 2.09218e-13
  155 1360.25 0.00000 1.78582e-13
  156 1360.25 0.00000 -1.17051e-13
  157 1360.25 0.00000 -9.63795e-14
  158 1360.25 0.00000 -3.71378e-14
  159 1360.25 0.00000 -1.85871e-14
  160 1360.25 0.00000 -3.03962e-14
  161 1360.25 0.00000 -2.79013e-14
  162 1360.25 0.00000 2.74682e-14
  163 1360.25 0.00000 -7.22423e-14
  164 1360.25 0.00000 -2.28606e-13
  165 1360.25 0.00000 -5.85404e-14
  166 1360.25 0.00000 -5.24341e-15
  167 1360.25 0.00000 -1.32597e-13
  168 1360.25 0.00000 -1.53436e-14
  169 1360.25 0.00000 4.26634e-14
  170 1360.25 0.00000 -2.84696e-13
  171 1360.25 0.00000 2.53026e-13
  172 1360.25 0.00000 -9.58287e-14
  173 1360.25 0.00000 2.00225e-14
  174 1360.25 0.00000 2.77812e-13
  175 1360.25 0.00000 8.44820e-14
  176 1360.25 0.00000 4.96628e-14
  177 1360.25 0.00000 -1.27859e-13
  178 1360.25 0.00000 5.76453e-14
  179 1360.25 0.00000 -5.62849e-14
  180 1360.25 0.00000 -9.33093e-14
  181 1360.25 0.00000 -3.09088e-13
  182 1360.25 0.00000 -3.72448e-15
  183 1360.25 0.00000 6.38797e-14
  184 1360.25 0.00000 4.49128e-14
  185 1360.25 0.00000 -1.00076e-13
  186 1360.25 0.00000 -3.08756e-13
  187 1360.25 0.00000 -2.66145e-13
  188 1360.25 0.00000 -2.31100e-13
  189 1360.25 0.00000 -1.73629e-14
  190 1360.25 0.00000 -6.79267e-14
  191 1360.25 0.00000 2.47084e-14
  192 1360.25 0.00000 -3.71454e-13
  193 1360.25 0.00000 -2.06795e-13
  194 1360.25 0.00000 -1.87072e-13
  195 1360.25 0.00000 -2.34735e-14
  196 1360.25 0.00000 2.13190e-13
  197 1360.25 0.00000 -7.57681e-14
  198 1360.25 0.00000 5.12752e-14
  199 1360.25 0.00000 -7.56338e-15
  200 1360.25 0.00000 -1.25108e-13
  201 1360.25 0.00000 2.50072e-13
  202 1360.25 0.00000 -1.30722e-13
  203 1360.25 0.00000 4.69024e-14
  204 1360.25 0.00000 1.22273e-13
  205 1360.25 0.00000 -1.82243e-13
  206 1360.25 0.00000 2.40224e-13
  207 1360.25 0.00000 2.45009e-13
  208 1360.25 0.00000 -4.44804e-13
  209 1360.25 0.00000 -5.39520e-15
  210 1360.25 0.00000 2.77909e-13
  211 1360.25 0.00000 -3.18785e-15
  212 1360.25 0.00000 6.43710e-13
  213 1360.25 0.00000 1.49573e-13
  214 1360.25 0.00000 1.33233e-13
  215 1360.25 0.00000 2.77651e-13
  216 1360.25 0.00000 1.42540e-13
  217 1360.25 0.00000 2.71454e-13
  218 1360.25 0.00000 1.59930e-13
  219 1360.25 0.00000 1.50001e-13
  220 1360.25 0.00000 1.49763e-14
  221 1360.25 0.00000 2.00807e-13
  222 1360.25 0.00000 -1.19104e-13
  223 1360.25 0.00000 1.84639e-13
  224 1360.25 0.00000 -1.06383e-13
  225 1360.25 0.00000 -1.05755e-13
  226 1360.25 0.00000 -3.48884e-13
  227 1360.25 0.00000 1.67443e-13
  228 1360.25 0.00000 3.99764e-13
  229 1360.25 0.00000 -2.20014e-13
  230 1360.25 0.00000 2.39257e-13
  231 1360.25 0.00000 -3.75190e-13
  232 1360.25 0.00000 -2.04585e-13
  233 1360.25 0.00000 -7.57931e-14
  234 1360.25 0.00000 1.90168e-13
  235 1360.25 0.00000 -1.57603e-13
  236 1360.25 0.00000 2.19621e-13
  237 1360.25 0.00000 -4.39613e-14
  238 1360.25 0.00000 -1.62897e-13
  239 1360.25 0.00000 -4.86548e-14
  240 1360.25 0.00000 9.21862e-14
  241 1360.25 0.00000 -6.73160e-14
</Section>

newXOutput 31

<Section columns = "stress_xx | stress_yy | stress_xy">
  1 1406.85 0.00000 1.63081e-14
  2 1406.85 0.00000 -1.17777e-13
  3 1406.85 0.00000 -3.89921e-13
  4 1406.85 0.00000 3.63627e-14
  5 1406.85 0.00000 9.11275e-14
  6 1406.85 0.00000 7.92540e-13
  7 1406.85 0.00000 4.38077e-13
  8 1406.85 0.00000 -4.16275e-14
  9 1406.85 0.00000 -3.09214e-13
  10 1406.85 0.00000 -3.78842e-13
  11 1406.85 0.00000 1.04416e-13
  12 1406.85 0.00000 5.29514e-13
  13 1406.85 0.00000 3.13941e-14
  14 1406.85 0.00000 1.83748e-13
  15 1406.85 0.00000 3.07281e-13
  16 1406.85 0.00000 6.81085e-14
  17 1406.85 0.00000 3.83810e-13
  18 1406.85 0.00000 1.52530e-13
  19 1406.85 0.00000 4.05323e-13
  20 1406.85 0.00000 4.52854e-13
  21 1406.85 0.00000 -9.41270e-14
  22 1406.85 0.00000 -9.41270e-14
  23 1406.85 0.00000 -2.26895e-13
  24 1406.85 0.00000 -1.57267e-13
  25 1406.85 0.00000 3.22692e-14
  26 1406.85 0.00000 1.22993e-13
  27 1406.85 0.00000 2.94304e-13
  28 1406.85 0.00000 -3.88311e-13
  29 1406.85 0.00000 -4.03365e-14
  30 1406.85 0.00000 -3.30197e-13
  31 1406.85 0.00000 6.18510e-14
  32 1406.85 0.00000 2.57531e-13
  33 1406.85 0.00000 8.74872e-13
  34 1406.85 0.00000 1.26759e-12
  35 1406.85 0.00000 9.54038e-13
  36 1406.85 0.00000 5.84956e-13
  37 1406.85 0.00000 -1.37798e-13
  38 1406.85 0.00000 -8.92346e-16
  39 1406.85 0.00000 -3.07849e-14
  40 1406.85 0.00000 -3.46115e-13
  41 1406.85 0.00000 -2.62715e-13
  42 1406.85 0.00000 -1.55287e-14
  43 1406.85 0.00000 6.96824e-13
  44 1406.85 0.00000 6.73408e-14
  45 1406.85 0.00000 -2.74840e-13
  46 1406.85 0.00000 -1.51029e-13
  47 1406.85 0.00000 3.09897e-13
  48 1406.85 0.00000 4.48265e-14
  49 1406.85 0.00000 -1.19660e-13
  50 1406.85 0.00000 -7.39796e-14
  51 1406.85 0.00000 8.06731e-15
  52 1406.85 0.00000 3.11038e-15
  53 1406.85 0.00000 1.89479e-13
  54 1406.85 0.00000 1.46186e-13
  55 1406.85 0.00000 0.00000
  56 1406.85 0.00000 -9.30019e-14
  57 1406.85 0.00000 -1.51450e-15
  58 1406.85 0.00000 -1.13643e-13
  59 1406.85 0.00000 3.69565e-13
  60 1406.85 0.00000 -1.85918e-13
  61 1406.85 0.00000 3.54697e-13
  62 1406.85 0.00000 -4.02129e-13
  63 1406.85 0.00000 -1.73425e-13
  64 1406.85 0.00000 2.26485e-13
  65 1406.85 0.00000 1.83509e-13
  66 1406.85 0.00000 3.92978e-13
  67 1406.85 0.00000 -1.34058e-13
  68 1406.85 0.00000 -2.77127e-13
  69 1406.85 0.00000 4.74165e-14
  70 1406.85 0.00000 -3.16843e-13
  71 1406.85 0.00000 -1.73189e-13
  72 1406.85 0.00000 -5.35955e-13
  73 1406.85 0.00000 -3.67070e-14
  74 1406.85 0.00000 -1.16187e-13
  75 1406.85 0.00000 -6.45795e-13
  76 1406.85 0.00000 2.62122e-13
  77 1406.85 0.00000 2.02261e-13
  78 1406.85 0.00000 -6.76638e-13
  79 1406.85 0.00000 4.71875e-14
  80 1406.85 0.00000 4.67965e-14
  81 1406.85 0.00000 -4.09472e-13
  82 1406.85 0.00000 -3.03963e-13
  83 1406.85 0.00000 2.06284e-13
  84 1406.85 0.00000 -1.90163e-13
  85 1406.85 0.00000 1.96040e-13
  86 1406.85 0.00000 3.07253e-13
  87 1406.85 0.00000 -8.69698e-13
  88 1406.85 0.00000 -5.41691e-13
  89 1406.85 0.00000 -8.53878e-13
  90 1406.85 0.00000 -1.95389e-13
  91 1406.85 0.00000 -9.71505e-14
  92 1406.85 0.00000 1.69395e-13
  93 1406.85 0.00000 -1.07918e-13
  94 1406.85 0.00000 3.26061e-13
  95 1406.85 0.00000 -5.24791e-13
  96 1406.85 0.00000 -2.81203e-13
  97 1406.85 0.00000 5.80398e-13
  98 1406.85 0.00000 -7.60468e-13
  99 1406.85 0.00000 3.29293e-13
  100 1406.85 0.00000 2.81490e-13
  101 1406.85 0.00000 -5.19453e-13
  102 1406.85 0.00000 -3.28325e-14
  103 1406.85 0.00000 1.97610e-13
  104 1406.85 0.00000 -7.09877e-14
  105 1406.85 0.00000 5.20316e-13
  106 1406.85 0.00000 -1.01783e-13
  107 1406.85 0.00000 1.44436e-13
  108 1406.85 0.00000 2.97020e-13
  109 1406.85 0.00000 5.73075e-13
  110 1406.85 0.00000 -1.24247e-13
  111 1406.85 0.00000 -1.03308e-13
  112 1406.85 0.00000 -4.69996e-13
  113 1406.85 0.00000 -4.38878e-13
  114 1406.85 0.00000 2.18194e-13
  115 1406.85 0.00000 1.83653e-13
  116 1406.85 0.00000 -1.96268e-14
  117 1406.85 0.00000 6.54365e-14
  118 1406.85 0.00000 1.28877e-13
  119 1406.85 0.00000 2.03818e-13
  120 1406.85 0.00000 1.35895e-13
  121 1406.85 0.00000 1.19383e-13
  122 1406.85 0.00000 9.31727e-15
  123 1406.85 0.00000 2.19270e-13
  124 1406.85 0.00000 -6.80426e-13
  125 1406.85 0.00000 -2.17397e-13
  126 1406.85 0.00000 1.13664e-13
  127 1406.85 0.00000 -1.53336e-14
  128 1406.85 0.00000 4.77584e-13
  129 1406.85 0.00000 -5.66954e-14
  130 1406.85 0.00000 -1.81618e-13
  131 1406.85 0.00000 -3.23305e-13
  132 1406.85 0.00000 -1.99045e-13
  133 1406.85 0.00000 1.72270e-13
  134 1406.85 0.00000 -7.01792e-14
  135 1406.85 0.00000 6.15439e-13
  136 1406.85 0.00000 -6.12700e-13
  137 1406.85 0.00000 -4.46696e-13
  138 1406.85 0.00000 2.89006e-13
  139 1406.85 0.00000 8.75164e-14
  140 1406.85 0.00000 -1.95179e-13
  141 1406.85 0.00000 4.07906e-13
  142 1406.85 0.00000 -1.27069e-13
  143 1406.85 0.00000 -7.72711e-14
  144 1406.85 0.00000 -5.62299e-14
  145 1406.85 0.00000 6.53775e-13
  146 1406.85 0.00000 -6.82559e-14
  147 1406.85 0.00000 1.83806e-13
  148 1406.85 0.00000 2.90022e-13
  149 1406.85 0.00000 4.79282e-13
  150 1406.85 0.00000 1.72734e-13
  151 1406.85 0.00000 -2.14866e-13
  152 1406.85 0.00000 1.47570e-13
  153 1406.85 0.00000 -1.07600e-13
  154 1406.85 0.00000 3.23452e-13
  155 1406.85 0.00000 -4.00858e-13
  156 1406.85 0.00000 2.82840e-13
  157 1406.85 0.00000 5.89968e-13
  158 1406.85 0.00000 -5.11957e-13
  159 1406.85 0.00000 -1.14118e-13
  160 1406.85 0.00000 2.63296e-13
  161 1406.85 0.00000 5.16209e-13
  162 1406.85 0.00000 -5.38874e-13
  163 1406.85 0.00000 -5.76882e-13
  164 1406.85 0.00000 2.57431e-13
  165 1406.85 0.00000 -1.65947e-13
  166 1406.85 0.00000 -2.05028e-13
  167 1406.85 0.00000 -1.41238e-13
  168 1406.85 0.00000 -4.15495e-13
  169 1406.85 0.00000 -1.62641e-13
  170 1406.85 0.00000 -4.00836e-13
  171 1406.85 0.00000 -2.38981e-13
  172 1406.85 0.00000 2.60737e-14
  173 1406.85 0.00000 -6.01922e-14
  174 1406.85 0.00000 -3.33971e-13
  175 1406.85 0.00000 -2.78382e-13
  176 1406.85 0.00000 -2.87610e-13
  177 1406.85 0.00000 -4.86977e-13
  178 1406.85 0.00000 -1.88752e-13
  179 1406.85 0.00000 2.84868e-13
  180 1406.85 0.00000 1.53545e-13
  181 1406.85 0.00000 -2.65334e-13
  182 1406.85 0.00000 -3.83465e-13
  183 1406.85 0.00000 -5.10474e-14
  184 1406.85 0.00000 5.06014e-13
  185 1406.85 0.00000 -1.67747e-13
  186 1406.85 0.00000 4.66184e-13
  187 1406.85 0.00000 1.03528e-13
  188 1406.85 0.00000 2.33008e-13
  189 1406.85 0.00000 5.93181e-13
  190 1406.85 0.00000 -1.70044e-14
  191 1406.85 0.00000 -2.22806e-13
  192 1406.85 0.00000 1.14414e-13
  193 1406.85 0.00000 6.42243e-13
  194 1406.85 0.00000 -1.28473e-13
  195 1406.85 0.00000 -5.41548e-14
  196 1406.85 0.00000 -1.27352e-13
  197 1406.85 0.00000 8.42123e-14
  198 1406.85 0.00000 4.99450e-13
  199 1406.85 0.00000 2.21918e-13
  200 1406.85 0.00000 -1.62755e-13
  201 1406.85 0.00000 -9.45763e-13
  202 1406.85 0.00000 3.61669e-13
  203 1406.85 0.00000 -3.80813e-13
  204 1406.85 0.00000 -3.15481e-13
  205 1406.85 0.00000 1.89849e-13
  206 1406.85 0.00000 4.35946e-13
  207 1406.85 0.00000 -2.24402e-13
  208 1406.85 0.00000 6.00271e-13
  209 1406.85 0.00000 2.89100e-14
  210 1406.85 0.00000 -9.64460e-13
  211 1406.85 0.00000 -4.31204e-14
  212 1406.85 0.00000 1.19126e-13
  213 1406.85 0.00000 -3.28508e-13
  214 1406.85 0.00000 -4.81308e-13
  215 1406.85 0.00000 -4.06293e-13
  216 1406.85 0.00000 5.19612e-14
  217 1406.85 0.00000 -1.69250e-13
  218 1406.85 0.00000 -2.18456e-13
  219 1406.85 0.00000 9.22029e-14
  220 1406.85 0.00000 -1.63030e-13
  221 1406.85 0.00000 -4.57768e-14
  222 1406.85 0.00000 -5.61441e-14
  223 1406.85 0.00000 -3.00239e-13
  224 1406.85 0.00000 7.55918e-14
  225 1406.85 0.00000 5.48682e-13
  226 1406.85 0.00000 4.63911e-13
  227 1406.85 0.00000 -4.14472e-13
  228 1406.85 0.00000 -5.24622e-13
  229 1406.85 0.00000 4.21256e-13
  230 1406.85 0.00000 9.68450e-14
  231 1406.85 0.00000 -1.56111e-14
  232 1406.85 0.00000 8.86845e-13
  233 1406.85 0.00000 2.52897e-13
  234 1406.85 0.00000 -3.87038e-13
  235 1406.85 0.00000 3.76598e-13
  236 1406.85 0.00000 -5.17368e-13
  237 1406.85 0.00000 -3.50432e-13
  238 1406.85 0.00000 4.88743e-13
  239 1406.85 0.00000 -1.92341e-13
  240 1406.85 0.00000 1.19622e-13
  241 1406.85 0.00000 3.23154e-13
</Section>

newXOutput 32

<Section columns = "stress_xx | stress_yy | stress_xy">
  1 1453.45 0.00000 -1.53511e-13
  2 1453.45 0.00000 -1.13114e-13
  3 1453.45 0.00000 -9.20289e-14
  4 1453.45 0.00000 -1.25030e-14
  5 1453.45 0.00000 -2.79634e-14
  6 1453.45 0.00000 -2.63339e-13
  7 1453.45 0.00000 -9.54641e-14
  8 1453.45 0.00000 1.94877e-13
  9 1453.45 0.00000 1.31132e-13
  10 1453.45 0.00000 -1.91129e-14
  11 1453.45 0.00000 -2.33624e-13
  12 1453.45 0.00000 9.17220e-14
  13 1453.45 0.00000 1.07374e-13
  14 1453.45 0.00000 1.86498e-13
  15 1453.45 0.00000 3.62941e-15
  16 1453.45 0.00000 -5.27568e-13
  17 1453.45 0.00000 -4.98982e-13
  18 1453.45 0.00000 -1.69224e-14
  19 1453.45 0.00000 -3.57472e-13
  20 1453.45 0.00000 -4.07362e-13
  21 1453.45 0.00000 -1.28189e-12
  22 1453.45 0.00000 2.55145e-13
  23 1453.45 0.00000 4.35593e-13
  24 1453.45 0.00000 -1.89044e-13
  25 1453.45 0.00000 0.00000
  26 1453.45 0.00000 -3.29536e-14
  27 1453.45 0.00000 -7.33840e-14
  28 1453.45 0.00000 1.99702e-13
  29 1453.45 0.00000 -7.98876e-15
  30 1453.45 0.00000 2.55283e-14
  31 1453.45 0.00000 -9.02988e-14
  32 1453.45 0.00000 -2.80250e-13
  33 1453.45 0.00000 3.56049e-13
  34 1453.45 0.00000 8.36202e-13
  35 1453.45 0.00000 -1.14544e-13
  36 1453.45 0.00000 -5.36647e-14
  37 1453.45 0.00000 2.89694e-13
  38 1453.45 0.00000 4.64403e-13
  39 1453.45 0.00000 -2.20979e-13
  40 1453.45 0.00000 -7.02218e-13
  41 1453.45 0.00000 -3.20832e-13
  42 1453.45 0.00000 -2.15095e-13
  43 1453.45 0.00000 -1.78580e-13
  44 1453.45 0.00000 -6.16628e-14
  45 1453.45 0.00000 -7.35838e-14
  46 1453.45 0.00000 7.36575e-14
  47 1453.45 0.00000 3.39957e-13
  48 1453.45 0.00000 2.42654e-13
  49 1453.45 0.00000 3.28946e-14
  50 1453.45 0.00000 5.52499e-14
  51 1453.45 0.00000 -3.99438e-14
  52 1453.45 0.00000 -3.69993e-14
  53 1453.45 0.00000 -1.40128e-13
  54 1453.45 0.00000 -8.24054e-15
  55 1453.45 0.00000 -6.39101e-14
  56 1453.45 0.00000 -5.68219e-14
  57 1453.45 0.00000 7.50638e-14
  58 1453.45 0.00000 -5.97988e-13
  59 1453.45 0.00000 -9.22753e-14
  60 1453.45 0.00000 1.91558e-13
  61 1453.45 0.00000 1.26287e-13
  62 1453.45 0.00000 -8.53886e-14
  63 1453.45 0.00000 3.30529e-13
  64 1453.45 0.00000 -1.71942e-13
  65 1453.45 0.00000 -3.02852e-13
  66 1453.45 0.00000 -2.05900e-14
  67 1453.45 0.00000 3.62781e-13
  68 1453.45 0.00000 -3.90042e-13
  69 1453.45 0.00000 6.56383e-14
  70 1453.45 0.00000 1.63378e-13
  71 1453.45 0.00000 7.88050e-14
  72 1453.45 0.00000 4.75968e-14
  73 1453.45 0.00000 1.25709e-13
  74 1453.45 0.00000 -1.80125e-13
  75 1453.45 0.00000 3.07334e-13
  76 1453.45 0.00000 -7.09403e-14
  77 1453.45 0.00000 -1.27994e-13
  78 1453.45 0.00000 -2.38561e-13
  79 1453.45 0.00000 -2.53921e-13
  80 1453.45 0.00000 -1.66693e-14
  81 1453.45 0.00000 8.14162e-14
  82 1453.45 0.00000 1.36482e-13
  83 1453.45 0.00000 4.01292e-14
  84 1453.45 0.00000 -4.05086e-14
  85 1453.45 0.00000 -3.12832e-13
  86 1453.45 0.00000 1.33220e-13
  87 1453.45 0.00000 3.02462e-13
  88 1453.45 0.00000 -6.61077e-13
  89 1453.45 0.00000 3.18104e-13
  90 1453.45 0.00000 1.45047e-13
  91 1453.45 0.00000 4.00990e-14
  92 1453.45 0.00000 -7.56454e-14
  93 1453.45 0.00000 -7.61780e-13
  94 1453.45 0.00000 -4.49897e-13
  95 1453.45 0.00000 2.01231e-13
  96 1453.45 0.00000 2.48835e-13
  97 1453.45 0.00000 1.81525e-13
  98 1453.45 0.00000 2.27621e-13
  99 1453.45 0.00000 -1.51405e-13
  100 1453.45 0.00000 1.67581e-13
  101 1453.45 0.00000 1.31857e-13
  102 1453.45 0.00000 6.83407e-14
  103 1453.45 0.00000 4.62238e-14
  104 1453.45 0.00000 1.13246e-13
  105 1453.45 0.00000 3.35756e-13
  106 1453.45 0.00000 1.28366e-13
  107 1453.45 0.00000 -2.83385e-13
  108 1453.45 0.00000 -1.09009e-13
  109 1453.45 0.00000 -7.42886e-14
  110 1453.45 0.00000 1.60722e-13
  111 1453.45 0.00000 -5.26998e-14
  112 1453.45 0.00000 -9.43681e-14
  113 1453.45 0.00000 1.77655e-13
  114 1453.45 0.00000 5.97435e-14
  115 1453.45 0.00000 1.39933e-13
  116 1453.45 0.00000 -1.71431e-13
  117 1453.45 0.00000 -2.24690e-13
  118 1453.45 0.00000 -1.22516e-13
  119 1453.45 0.00000 -1.00174e-13
  120 1453.45 0.00000 -2.54398e-13
  121 1453.45 0.00000 1.18050e-13
  122 1453.45 0.00000 1.83732e-13
  123 1453.45 0.00000 1.05236e-13
  124 1453.45 0.00000 -2.36934e-13
  125 1453.45 0.00000 -9.72785e-14
  126 1453.45 0.00000 2.79061e-14
  127 1453.45 0.00000 -2.18552e-13
  128 1453.45 0.00000 -2.58534e-13
  129 1453.45 0.00000 -7.76825e-14
  130 1453.45 0.00000 -7.91120e-14
  131 1453.45 0.00000 5.96636e-14
  132 1453.45 0.00000 2.26364e-13
  133 1453.45 0.00000 -1.78562e-13
  134 1453.45 0.00000 7.35409e-14
  135 1453.45 0.00000 -1.42383e-13
  136 1453.45 0.00000 4.00661e-13
  137 1453.45 0.00000 1.53161e-13
  138 1453.45 0.00000 -3.69610e-13
  139 1453.45 0.00000 -8.22915e-14
  140 1453.45 0.00000 -3.11952e-13
  141 1453.45 0.00000 -7.86125e-14
  142 1453.45 0.00000 1.68666e-13
  143 1453.45 0.00000 1.04672e-13
  144 1453.45 0.00000 3.62682e-13
  145 1453.45 0.00000 1.85236e-13
  146 1453.45 0.00000 -7.51222e-14
  147 1453.45 0.00000 -2.48289e-14
  148 1453.45 0.00000 -1.76447e-14
  149 1453.45 0.00000 3.03949e-13
  150 1453.45 0.00000 2.18656e-13
  151 1453.45 0.00000 2.70889e-13
  152 1453.45 0.00000 -5.34201e-13
  153 1453.45 0.00000 -1.59942e-13
  154 1453.45 0.00000 -2.53836e-14
  155 1453.45 0.00000 9.10692e-14
  156 1453.45 0.00000 -5.10971e-13
  157 1453.45 0.00000 -1.77232e-13
  158 1453.45 0.00000 4.87649e-13
  159 1453.45 0.00000 3.55299e-13
  160 1453.45 0.00000 -2.08232e-13
  161 1453.45 0.00000 -2.38519e-13
  162 1453.45 0.00000 -1.95146e-13
  163 1453.45 0.00000 2.38612e-13
  164 1453.45 0.00000 -8.89143e-14
  165 1453.45 0.00000 1.94808e-13
  166 1453.45 0.00000 3.74539e-14
  167 1453.45 0.00000 2.64291e-13
  168 1453.45 0.00000 1.08897e-13
  169 1453.45 0.00000 -1.09138e-14
  170 1453.45 0.00000 4.99664e-13
  171 1453.45 0.00000 1.73038e-14
  172 1453.45 0.00000 2.62861e-14
  173 1453.45 0.00000 -1.34555e-13
  174 1453.45 0.00000 -5.06491e-14
  175 1453.45 0.00000 1.50879e-13
  176 1453.45 0.00000 7.96692e-14
  177 1453.45 0.00000 -1.38180e-13
  178 1453.45 0.00000 1.25701e-13
  179 1453.45 0.00000 -1.66243e-13
  180 1453.45 0.00000 -1.00397e-13
  181 1453.45 0.00000 -6.19294e-13
  182 1453.45 0.00000 1.24033e-13
  183 1453.45 0.00000 2.43459e-13
  184 1453.45 0.00000 -6.01834e-13
  185 1453.45 0.00000 3.43117e-13
  186 1453.45 0.00000 7.30560e-14
  187 1453.45 0.00000 -1.59438e-13
  188 1453.45 0.00000 -1.84150e-13
  189 1453.45 0.00000 1.62741e-13
  190 1453.45 0.00000 4.64358e-14
  191 1453.45 0.00000 -2.11549e-14
  192 1453.45 0.00000 -4.85312e-13
  193 1453.45 0.00000 -2.22452e-13
  194 1453.45 0.00000 1.89828e-13
  195 1453.45 0.00000 -2.13110e-13
  196 1453.45 0.00000 -2.02850e-14
  197 1453.45 0.00000 -6.68582e-14
  198 1453.45 0.00000 -2.27942e-13
  199 1453.45 0.00000 -2.02956e-14
  200 1453.45 0.00000 -2.54286e-13
  201 1453.45 0.00000 2.54815e-13
  202 1453.45 0.00000 1.51764e-13
  203 1453.45 0.00000 1.76359e-13
  204 1453.45 0.00000 -3.48777e-13
  205 1453.45 0.00000 1.28700e-13
  206 1453.45 0.00000 -2.40524e-13
  207 1453.45 0.00000 1.50028e-13
  208 1453.45 0.00000 9.02518e-14
  209 1453.45 0.00000 -3.37180e-14
  210 1453.45 0.00000 2.07596e-13
  211 1453.45 0.00000 -1.03798e-14
  212 1453.45 0.00000 4.02753e-13
  213 1453.45 0.00000 3.21189e-13
  214 1453.45 0.00000 -1.61652e-13
  215 1453.45 0.00000 -1.55874e-13
  216 1453.45 0.00000 2.73610e-13
  217 1453.45 0.00000 -1.54524e-13
  218 1453.45 0.00000 -9.34256e-14
  219 1453.45 0.00000 -1.48861e-13
  220 1453.45 0.00000 1.01087e-13
  221 1453.45 0.00000 -5.83514e-14
  222 1453.45 0.00000 -9.45615e-13
  223 1453.45 0.00000 -5.18036e-14
  224 1453.45 0.00000 1.90323e-13
  225 1453.45 0.00000 -5.80242e-13
  226 1453.45 0.00000 1.89021e-13
  227 1453.45 0.00000 -2.66430e-13
  228 1453.45 0.00000 -3.57995e-14
  229 1453.45 0.00000 -1.14698e-13
  230 1453.45 0.00000 9.48918e-14
  231 1453.45 0.00000 3.18664e-15
  232 1453.45 0.00000 -6.81618e-14
  233 1453.45 0.00000 -9.28823e-13
  234 1453.45 0.00000 2.29310e-13
  235 1453.45 0.00000 -1.04302e-13
  236 1453.45 0.00000 1.85865e-13
  237 1453.45 0.00000 -1.71317e-13
  238 1453.45 0.00000 1.11551e-14
  239 1453.45 0.00000 2.01664e-13
  240 1453.45 0.00000 -1.56537e-14
  241 1453.45 0.00000 -1.68345e-13
</Section>

newXOutput 33

<Section columns = "stress_xx | stress_yy | stress_xy">
  1 1500.03 0.00000 9.88810e-15
  2 1500.03 0.00000 4.03542e-13
  3 1500.03 0.00000 -3.05198e-13
  4 1500.03 0.00000 -6.82798e-14
  5 1500.03 0.00000 -8.04180e-14
  6 1500.03 0.00000 -2.92671e-13
  7 1500.03 0.00000 -4.14504e-13
  8 1500.03 0.00000 -5.62595e-13
  9 1500.03 0.00000 1.06090e-13
  10 1500.03 0.00000 1.54984e-13
  11 1500.03 0.00000 -7.48989e-13
  12 1500.03 0.00000 -2.33635e-13
  13 1500.03 0.00000 1.60850e-13
  14 1500.03 0.00000 5.83557e-13
  15 1500.03 0.00000 5.15824e-13
  16 1500.03 0.00000 6.04201e-13
  17 1500.03 0.00000 1.90289e-13
  18 1500.03 0.00000 -2.38610e-14
  19 1500.03 0.00000 -2.91192e-13
  20 1500.03 0.00000 3.37143e-13
  21 1500.03 0.00000 5.40122e-13
  22 1500.03 0.00000 -7.02514e-13
  23 1500.03 0.00000 5.49663e-14
  24 1500.03 0.00000 2.06443e-14
  25 1500.03 0.00000 -2.00836e-13
  26 1500.03 0.00000 1.05143e-13
  27 1500.03 0.00000 -2.27913e-13
  28 1500.03 0.00000 1.07220e-13
  29 1500.03 0.00000 1.58203e-14
  30 1500.03 0.00000 1.05801e-13
  31 1500.03 0.00000 -5.47521e-14
  32 1500.03 0.00000 -8.54957e-13
  33 1500.03 0.00000 -3.86305e-13
  34 1500.03 0.00000 1.28311e-13
  35 1500.03 0.00000 1.18581e-13
  36 1500.03 0.00000 -3.31805e-13
  37 1500.03 0.00000 -4.67481e-13
  38 1500.03 0.00000 -1.24047e-13
  39 1500.03 0.00000 6.90701e-13
  40 1500.03 0.00000 3.24841e-13
  41 1500.03 0.00000 -6.13511e-14
  42 1500.03 0.00000 1.78383e-14
  43 1500.03 0.00000 2.81768e-13
  44 1500.03 0.00000 1.87544e-13
  45 1500.03 0.00000 2.42390e-13
  46 1500.03 0.00000 3.30440e-13
  47 1500.03 0.00000 -4.17739e-13
  48 1500.03 0.00000 -4.03903e-13
  49 1500.03 0.00000 -2.54806e-13
  50 1500.03 0.00000 4.87785e-14
  51 1500.03 0.00000 -3.16406e-14
  52 1500.03 0.00000 4.05383e-14
  53 1500.03 0.00000 -7.91005e-14
  54 1500.03 0.00000 8.89831e-15
  55 1500.03 0.00000 -3.16406e-14
  56 1500.03 0.00000 7.64632e-14
  57 1500.03 0.00000 6.34691e-14
  58 1500.03 0.00000 -1.48220e-13
  59 1500.03 0.00000 3.03281e-13
  60 1500.03 0.00000 -4.21117e-13
  61 1500.03 0.00000 1.11913e-13
  62 1500.03 0.00000 5.71055e-14
  63 1500.03 0.00000 8.14632e-14
  64 1500.03 0.00000 3.15653e-13
  65 1500.03 0.00000 -1.00974e-13
  66 1500.03 0.00000 -4.15629e-14
  67 1500.03 0.00000 -5.74351e-14
  68 1500.03 0.00000 -1.32927e-13
  69 1500.03 0.00000 -1.11137e-13
  70 1500.03 0.00000 -2.35793e-13
  71 1500.03 0.00000 -2.14968e-13
  72 1500.03 0.00000 -5.78641e-13
  73 1500.03 0.00000 -4.16319e-14
  74 1500.03 0.00000 -1.76413e-13
  75 1500.03 0.00000 -1.07276e-13
  76 1500.03 0.00000 7.22181e-14
  77 1500.03 0.00000 6.69674e-15
  78 1500.03 0.00000 -4.51559e-13
  79 1500.03 0.00000 4.24954e-13
  80 1500.03 0.00000 1.56794e-13
  81 1500.03 0.00000 9.57516e-14
  82 1500.03 0.00000 4.02558e-13
  83 1500.03 0.00000 4.25765e-13
  84 1500.03 0.00000 3.94907e-13
  85 1500.03 0.00000 -3.02812e-13
  86 1500.03 0.00000 3.82897e-13
  87 1500.03 0.00000 2.30626e-13
  88 1500.03 0.00000 3.08499e-13
  89 1500.03 0.00000 2.51143e-13
  90 1500.03 0.00000 -5.41259e-13
  91 1500.03 0.00000 2.85213e-13
  92 1500.03 0.00000 1.22930e-13
  93 1500.03 0.00000 -2.59769e-13
  94 1500.03 0.00000 1.76115e-13
  95 1500.03 0.00000 3.30007e-14
  96 1500.03 0.00000 -8.84595e-14
  97 1500.03 0.00000 -3.60099e-13
  98 1500.03 0.00000 2.76360e-13
  99 1500.03 0.00000 2.29263e-14
  100 1500.03 0.00000 -8.97001e-15
  101 1500.03 0.00000 -4.38399e-13
  102 1500.03 0.00000 2.33995e-13
  103 1500.03 0.00000 1.01873e-12
  104 1500.03 0.00000 -9.31640e-14
  105 1500.03 0.00000 2.89530e-13
  106 1500.03 0.00000 -5.25725e-13
  107 1500.03 0.00000 2.94792e-13
  108 1500.03 0.00000 4.90681e-14
  109 1500.03 0.00000 1.24818e-14
  110 1500.03 0.00000 -6.51839e-14
  111 1500.03 0.00000 -2.48697e-13
  112 1500.03 0.00000 5.39306e-14
  113 1500.03 0.00000 1.71957e-13
  114 1500.03 0.00000 -3.56324e-13
  115 1500.03 0.00000 4.65173e-14
  116 1500.03 0.00000 3.76073e-13
  117 1500.03 0.00000 3.03064e-13
  118 1500.03 0.00000 -3.95226e-15
  119 1500.03 0.00000 -1.51729e-13
  120 1500.03 0.00000 -3.46933e-13
  121 1500.03 0.00000 -4.81986e-14
  122 1500.03 0.00000 -5.57259e-13
  123 1500.03 0.00000 2.16408e-14
  124 1500.03 0.00000 3.97712e-13
  125 1500.03 0.00000 2.64606e-13
  126 1500.03 0.00000 -3.18517e-14
  127 1500.03 0.00000 4.19422e-13
  128 1500.03 0.00000 3.39581e-14
  129 1500.03 0.00000 1.72397e-13
  130 1500.03 0.00000 -1.24525e-13
  131 1500.03 0.00000 -4.40480e-14
  132 1500.03 0.00000 4.92527e-14
  133 1500.03 0.00000 -9.80409e-15
  134 1500.03 0.00000 -2.72236e-13
  135 1500.03 0.00000 1.38516e-13
  136 1500.03 0.00000 2.16824e-14
  137 1500.03 0.00000 4.01655e-13
  138 1500.03 0.00000 7.25149e-13
  139 1500.03 0.00000 -6.26755e-14
  140 1500.03 0.00000 3.28303e-13
  141 1500.03 0.00000 2.07268e-13
  142 1500.03 0.00000 -4.50473e-14
  143 1500.03 0.00000 1.76480e-13
  144 1500.03 0.00000 -2.19754e-13
  145 1500.03 0.00000 5.77629e-15
  146 1500.03 0.00000 1.10129e-13
  147 1500.03 0.00000 3.65980e-13
  148 1500.03 0.00000 2.17520e-14
  149 1500.03 0.00000 -5.25567e-13
  150 1500.03 0.00000 -4.88213e-13
  151 1500.03 0.00000 -3.36474e-13
  152 1500.03 0.00000 3.26359e-13
  153 1500.03 0.00000 3.53248e-13
  154 1500.03 0.00000 5.05007e-13
  155 1500.03 0.00000 1.28940e-13
  156 1500.03 0.00000 2.90199e-13
  157 1500.03 0.00000 8.14150e-15
  158 1500.03 0.00000 -5.60265e-13
  159 1500.03 0.00000 -1.36297e-13
  160 1500.03 0.00000 -1.00062e-13
  161 1500.03 0.00000 -1.55732e-13
  162 1500.03 0.00000 6.86468e-13
  163 1500.03 0.00000 -5.96598e-13
  164 1500.03 0.00000 1.04194e-13
  165 1500.03 0.00000 -2.02220e-13
  166 1500.03 0.00000 1.00287e-13
  167 1500.03 0.00000 -3.98586e-13
  168 1500.03 0.00000 3.48010e-13
  169 1500.03 0.00000 4.83075e-14
  170 1500.03 0.00000 -3.90406e-13
  171 1500.03 0.00000 -3.82708e-13
  172 1500.03 0.00000 -2.54143e-13
  173 1500.03 0.00000 2.67586e-13
  174 1500.03 0.00000 5.52847e-13
  175 1500.03 0.00000 2.98910e-14
  176 1500.03 0.00000 8.25408e-14
  177 1500.03 0.00000 2.16131e-13
  178 1500.03 0.00000 4.12024e-13
  179 1500.03 0.00000 1.94143e-13
  180 1500.03 0.00000 -1.93738e-13
  181 1500.03 0.00000 1.47334e-13
  182 1500.03 0.00000 3.01555e-13
  183 1500.03 0.00000 -1.81450e-14
  184 1500.03 0.00000 -1.28273e-13
  185 1500.03 0.00000 -5.94856e-14
  186 1500.03 0.00000 -8.29068e-14
  187 1500.03 0.00000 -1.34071e-13
  188 1500.03 0.00000 5.50396e-13
  189 1500.03 0.00000 1.31270e-15
  190 1500.03 0.00000 4.67259e-14
  191 1500.03 0.00000 3.40543e-13
  192 1500.03 0.00000 5.11375e-13
  193 1500.03 0.00000 -2.01512e-13
  194 1500.03 0.00000 -3.51336e-13
  195 1500.03 0.00000 1.78600e-14
  196 1500.03 0.00000 -3.53071e-14
  197 1500.03 0.00000 7.75973e-14
  198 1500.03 0.00000 2.15048e-13
  199 1500.03 0.00000 3.82897e-13
  200 1500.03 0.00000 3.88206e-13
  201 1500.03 0.00000 -6.92326e-14
  202 1500.03 0.00000 1.78614e-14
  203 1500.03 0.00000 -5.32840e-13
  204 1500.03 0.00000 -1.52145e-13
  205 1500.03 0.00000 -2.71432e-13
  206 1500.03 0.00000 -1.89992e-13
  207 1500.03 0.00000 -3.76864e-14
  208 1500.03 0.00000 4.48200e-14
  209 1500.03 0.00000 -3.21704e-13
  210 1500.03 0.00000 3.55828e-13
  211 1500.03 0.00000 -2.83745e-14
  212 1500.03 0.00000 7.08520e-13
  213 1500.03 0.00000 -6.47635e-14
  214 1500.03 0.00000 2.57105e-14
  215 1500.03 0.00000 1.06008e-12
  216 1500.03 0.00000 5.63377e-14
  217 1500.03 0.00000 -1.84539e-13
  218 1500.03 0.00000 1.23233e-14
  219 1500.03 0.00000 -3.50344e-13
  220 1500.03 0.00000 -6.05779e-14
  221 1500.03 0.00000 9.56809e-14
  222 1500.03 0.00000 3.96297e-13
  223 1500.03 0.00000 -4.13951e-13
  224 1500.03 0.00000 -2.14081e-13
  225 1500.03 0.00000 2.64975e-13
  226 1500.03 0.00000 -5.70205e-14
  227 1500.03 0.00000 -3.07106e-13
  228 1500.03 0.00000 -1.36591e-13
  229 1500.03 0.00000 -3.73024e-14
  230 1500.03 0.00000 -2.88333e-13
  231 1500.03 0.00000 1.91612e-13
  232 1500.03 0.00000 2.15919e-13
  233 1500.03 0.00000 6.72272e-13
  234 1500.03 0.00000 1.78228e-13
  235 1500.03 0.00000 2.34133e-13
  236 1500.03 0.00000 2.55789e-13
  237 1500.03 0.00000 -9.81446e-14
  238 1500.03 0.00000 3.11037e-13
  239 1500.03 0.00000 6.29381e-14
  240 1500.03 0.00000 2.80283e-13
  241 1500.03 0.00000 3.28491e-14
</Section>

newXOutput 34

<Section columns = "stress_xx | stress_yy | stress_xy">
  1 1546.61 0.00000 8.12559e-14
  2 1546.61 0.00000 -2.01990e-13
  3 1546.61 0.00000 -4.50743e-13
  4 1546.61 0.00000 -1.07436e-13
  5 1546.61 0.00000 9.13883e-14
  6 1546.61 0.00000 1.14837e-13
  7 1546.61 0.00000 -1.72713e-13
  8 1546.61 0.00000 -2.63581e-13
  9 1546.61 0.00000 2.05794e-14
  10 1546.61 0.00000 7.55322e-13
  11 1546.61 0.00000 5.78894e-13
  12 1546.61 0.00000 2.92631e-13
  13 1546.61 0.00000 1.82619e-13
  14 1546.61 0.00000 -1.53117e-13
  15 1546.61 0.00000 -2.78853e-13
  16 1546.61 0.00000 1.60281e-13
  17 1546.61 0.00000 -4.43930e-13
  18 1546.61 0.00000 -6.80582e-13
  19 1546.61 0.00000 -4.29719e-13
  20 1546.61 0.00000 1.88329e-13
  21 1546.61 0.00000 7.68628e-14
  22 1546.61 0.00000 -6.36996e-13
  23 1546.61 0.00000 -8.38249e-13
  24 1546.61 0.00000 2.53291e-13
  25 1546.61 0.00000 0.00000
  26 1546.61 0.00000 -3.46652e-13
  27 1546.61 0.00000 4.55369e-14
  28 1546.61 0.00000 -6.26594e-13
  29 1546.61 0.00000 -1.52274e-13
  30 1546.61 0.00000 -1.32842e-13
  31 1546.61 0.00000 -4.23536e-14
  32 1546.61 0.00000 4.69102e-13
  33 1546.61 0.00000 4.25953e-13
  34 1546.61 0.00000 -4.33381e-13
  35 1546.61 0.00000 -2.88333e-13
  36 1546.61 0.00000 -4.35109e-14
  37 1546.61 0.00000 1.19192e-13
  38 1546.61 0.00000 3.70693e-13
  39 1546.61 0.00000 3.58271e-13
  40 1546.61 0.00000 3.26087e-13
  41 1546.61 0.00000 2.45515e-13
  42 1546.61 0.00000 -2.01623e-13
  43 1546.61 0.00000 -1.90331e-13
  44 1546.61 0.00000 -1.81906e-13
  45 1546.61 0.00000 1.70614e-13
  46 1546.61 0.00000 5.00145e-14
  47 1546.61 0.00000 -3.24251e-13
  48 1546.61 0.00000 -2.63214e-13
  49 1546.61 0.00000 -1.93854e-13
  50 1546.61 0.00000 -1.30525e-14
  51 1546.61 0.00000 -1.56630e-14
  52 1546.61 0.00000 -3.36611e-14
  53 1546.61 0.00000 1.14273e-14
  54 1546.61 0.00000 1.81239e-14
  55 1546.61 0.00000 0.00000
  56 1546.61 0.00000 -2.67757e-14
  57 1546.61 0.00000 -1.06456e-13
  58 1546.61 0.00000 6.69946e-14
  59 1546.61 0.00000 -4.92792e-14
  60 1546.61 0.00000 1.02656e-13
  61 1546.61 0.00000 -1.76553e-13
  62 1546.61 0.00000 -7.56401e-14
  63 1546.61 0.00000 -1.27312e-13
  64 1546.61 0.00000 -7.86997e-13
  65 1546.61 0.00000 -6.05335e-14
  66 1546.61 0.00000 -3.28345e-14
  67 1546.61 0.00000 -1.41334e-13
  68 1546.61 0.00000 3.48510e-14
  69 1546.61 0.00000 9.99162e-14
  70 1546.61 0.00000 -1.15324e-13
  71 1546.61 0.00000 6.77507e-15
  72 1546.61 0.00000 -3.31167e-13
  73 1546.61 0.00000 -5.98330e-13
  74 1546.61 0.00000 -1.02357e-13
  75 1546.61 0.00000 8.09257e-14
  76 1546.61 0.00000 4.18551e-13
  77 1546.61 0.00000 -8.31915e-15
  78 1546.61 0.00000 5.77754e-14
  79 1546.61 0.00000 -7.13022e-14
  80 1546.61 0.00000 -9.94736e-14
  81 1546.61 0.00000 -2.61056e-13
  82 1546.61 0.00000 -1.12104e-13
  83 1546.61 0.00000 2.12376e-13
  84 1546.61 0.00000 6.06361e-14
  85 1546.61 0.00000 -3.64744e-14
  86 1546.61 0.00000 -1.48276e-13
  87 1546.61 0.00000 -6.04114e-14
  88 1546.61 0.00000 -2.35913e-13
  89 1546.61 0.00000 -7.57985e-14
  90 1546.61 0.00000 -2.31709e-13
  91 1546.61 0.00000 1.91355e-13
  92 1546.61 0.00000 4.83452e-14
  93 1546.61 0.00000 2.21697e-13
  94 1546.61 0.00000 2.35798e-13
  95 1546.61 0.00000 1.73232e-13
  96 1546.61 0.00000 -7.17708e-13
  97 1546.61 0.00000 -7.76591e-14
  98 1546.61 0.00000 -3.46696e-14
  99 1546.61 0.00000 1.15052e-13
  100 1546.61 0.00000 9.32290e-14
  101 1546.61 0.00000 -3.49277e-13
  102 1546.61 0.00000 -4.58298e-13
  103 1546.61 0.00000 1.12694e-13
  104 1546.61 0.00000 -4.60263e-14
  105 1546.61 0.00000 -3.60507e-13
  106 1546.61 0.00000 -3.27228e-14
  107 1546.61 0.00000 -4.99817e-13
  108 1546.61 0.00000 -7.91534e-15
  109 1546.61 0.00000 3.84956e-14
  110 1546.61 0.00000 -1.07668e-12
  111 1546.61 0.00000 -2.69048e-13
  112 1546.61 0.00000 -1.55493e-13
  113 1546.61 0.00000 7.90891e-14
  114 1546.61 0.00000 2.58224e-13
  115 1546.61 0.00000 1.16288e-13
  116 1546.61 0.00000 -1.86982e-14
  117 1546.61 0.00000 -9.38522e-13
  118 1546.61 0.00000 -1.12861e-13
  119 1546.61 0.00000 -1.09463e-13
  120 1546.61 0.00000 3.09767e-13
  121 1546.61 0.00000 -2.04269e-13
  122 1546.61 0.00000 -7.12048e-14
  123 1546.61 0.00000 -2.57895e-14
  124 1546.61 0.00000 -6.56874e-14
  125 1546.61 0.00000 1.13589e-14
  126 1546.61 0.00000 -1.67078e-13
  127 1546.61 0.00000 1.54580e-13
  128 1546.61 0.00000 3.99590e-14
  129 1546.61 0.00000 7.19275e-14
  130 1546.61 0.00000 -2.55588e-13
  131 1546.61 0.00000 -1.26295e-13
  132 1546.61 0.00000 -2.14536e-13
  133 1546.61 0.00000 -3.85336e-13
  134 1546.61 0.00000 -6.37218e-14
  135 1546.61 0.00000 -2.92514e-13
  136 1546.61 0.00000 -1.30443e-13
  137 1546.61 0.00000 -1.03596e-13
  138 1546.61 0.00000 -2.47948e-13
  139 1546.61 0.00000 -5.70670e-14
  140 1546.61 0.00000 1.52970e-13
  141 1546.61 0.00000 4.33680e-14
  142 1546.61 0.00000 -3.60629e-14
  143 1546.61 0.00000 -4.29539e-14
  144 1546.61 0.00000 -3.13429e-13
  145 1546.61 0.00000 1.26356e-13
  146 1546.61 0.00000 6.30560e-14
  147 1546.61 0.00000 -2.70510e-14
  148 1546.61 0.00000 -6.56844e-14
  149 1546.61 0.00000 1.47625e-13
  150 1546.61 0.00000 5.67250e-14
  151 1546.61 0.00000 -1.69255e-13
  152 1546.61 0.00000 -5.31155e-13
  153 1546.61 0.00000 -2.29065e-13
  154 1546.61 0.00000 7.04106e-14
  155 1546.61 0.00000 1.60772e-14
  156 1546.61 0.00000 1.74439e-13
  157 1546.61 0.00000 8.85658e-15
  158 1546.61 0.00000 -4.89060e-13
  159 1546.61 0.00000 -5.96128e-13
  160 1546.61 0.00000 6.30604e-14
  161 1546.61 0.00000 -1.46294e-13
  162 1546.61 0.00000 9.42793e-15
  163 1546.61 0.00000 -2.04747e-13
  164 1546.61 0.00000 -1.83200e-13
  165 1546.61 0.00000 6.13621e-14
  166 1546.61 0.00000 -5.34340e-14
  167 1546.61 0.00000 7.22556e-14
  168 1546.61 0.00000 -2.72580e-13
  169 1546.61 0.00000 3.72858e-14
  170 1546.61 0.00000 -1.50012e-13
  171 1546.61 0.00000 -9.20847e-14
  172 1546.61 0.00000 -1.43867e-14
  173 1546.61 0.00000 8.81408e-14
  174 1546.61 0.00000 6.41285e-14
  175 1546.61 0.00000 -7.30422e-14
  176 1546.61 0.00000 -6.92144e-14
  177 1546.61 0.00000 -8.48020e-14
  178 1546.61 0.00000 2.73851e-14
  179 1546.61 0.00000 -3.61347e-14
  180 1546.61 0.00000 -4.69311e-14
  181 1546.61 0.00000 -8.73564e-15
  182 1546.61 0.00000 2.91570e-13
  183 1546.61 0.00000 1.06826e-13
  184 1546.61 0.00000 -4.74922e-13
  185 1546.61 0.00000 4.60701e-14
  186 1546.61 0.00000 -2.88506e-13
  187 1546.61 0.00000 4.62026e-14
  188 1546.61 0.00000 1.59926e-13
  189 1546.61 0.00000 -1.36177e-13
  190 1546.61 0.00000 5.23945e-14
  191 1546.61 0.00000 2.81147e-14
  192 1546.61 0.00000 3.65678e-13
  193 1546.61 0.00000 1.64002e-13
  194 1546.61 0.00000 -5.61271e-13
  195 1546.61 0.00000 -5.82480e-14
  196 1546.61 0.00000 -6.49331e-13
  197 1546.61 0.00000 1.39146e-13
  198 1546.61 0.00000 -3.80845e-13
  199 1546.61 0.00000 9.16303e-14
  200 1546.61 0.00000 -2.00818e-14
  201 1546.61 0.00000 -1.30643e-14
  202 1546.61 0.00000 -2.24244e-13
  203 1546.61 0.00000 -8.67496e-14
  204 1546.61 0.00000 -1.37909e-13
  205 1546.61 0.00000 -1.15174e-13
  206 1546.61 0.00000 1.23856e-13
  207 1546.61 0.00000 -6.67753e-14
  208 1546.61 0.00000 4.95716e-14
  209 1546.61 0.00000 -5.17618e-13
  210 1546.61 0.00000 -1.14885e-13
  211 1546.61 0.00000 -7.28826e-14
  212 1546.61 0.00000 -5.27815e-13
  213 1546.61 0.00000 -1.68836e-13
  214 1546.61 0.00000 5.47848e-14
  215 1546.61 0.00000 5.08181e-15
  216 1546.61 0.00000 3.89731e-14
  217 1546.61 0.00000 -4.15454e-13
  218 1546.61 0.00000 -1.39319e-13
  219 1546.61 0.00000 2.28949e-13
  220 1546.61 0.00000 7.73641e-14
  221 1546.61 0.00000 1.59984e-14
  222 1546.61 0.00000 -1.19302e-13
  223 1546.61 0.00000 1.46148e-13
  224 1546.61 0.00000 -7.68628e-14
  225 1546.61 0.00000 -6.04298e-14
  226 1546.61 0.00000 -1.55790e-13
  227 1546.61 0.00000 1.88443e-15
  228 1546.61 0.00000 4.88642e-14
  229 1546.61 0.00000 -6.73889e-14
  230 1546.61 0.00000 1.46645e-13
  231 1546.61 0.00000 -2.95534e-13
  232 1546.61 0.00000 -7.62158e-14
  233 1546.61 0.00000 2.81977e-14
  234 1546.61 0.00000 1.26365e-13
  235 1546.61 0.00000 -9.78204e-14
  236 1546.61 0.00000 4.57834e-14
  237 1546.61 0.00000 -2.42715e-13
  238 1546.61 0.00000 -8.25429e-14
  239 1546.61 0.00000 -3.25529e-13
  240 1546.61 0.00000 -7.61906e-14
  241 1546.61 0.00000 -1.80010e-13
</Section>

newXOutput 35

<Section columns = "stress_xx | stress_yy | stress_xy">
  1 1593.18 0.00000 1.07607e-14
  2 1593.18 0.00000 1.82509e-13
  3 1593.18 0.00000 -1.04639e-13
  4 1593.18 0.00000 1.32657e-14
  5 1593.18 0.00000 -8.42478e-15
  6 1593.18 0.00000 6.57753e-14
  7 1593.18 0.00000 1.16529e-13
  8 1593.18 0.00000 1.88941e-13
  9 1593.18 0.00000 -2.83613e-13
  10 1593.18 0.00000 -3.49187e-13
  11 1593.18 0.00000 1.52870e-13
  12 1593.18 0.00000 5.68881e-13
  13 1593.18 0.00000 1.52285e-13
  14 1593.18 0.00000 9.57214e-14
  15 1593.18 0.00000 -2.33978e-14
  16 1593.18 0.00000 2.43346e-13
  17 1593.18 0.00000 -2.73494e-13
  18 1593.18 0.00000 -3.04287e-13
  19 1593.18 0.00000 -1.78418e-13
  20 1593.18 0.00000 6.32154e-13
  21 1593.18 0.00000 7.39721e-13
  22 1593.18 0.00000 7.63947e-13
  23 1593.18 0.00000 3.25769e-13
  24 1593.18 0.00000 2.06741e-14
  25 1593.18 0.00000 -6.20223e-14
  26 1593.18 0.00000 -1.24204e-13
  27 1593.18 0.00000 3.04069e-13
  28 1593.18 0.00000 2.97343e-13
  29 1593.18 0.00000 1.83477e-13
  30 1593.18 0.00000 1.74431e-14
  31 1593.18 0.00000 -1.08065e-13
  32 1593.18 0.00000 -5.46130e-13
  33 1593.18 0.00000 -6.91604e-13
  34 1593.18 0.00000 -5.00188e-14
  35 1593.18 0.00000 1.31059e-13
  36 1593.18 0.00000 4.37574e-13
  37 1593.18 0.00000 9.39656e-14
  38 1593.18 0.00000 1.04693e-13
  39 1593.18 0.00000 1.99097e-14
  40 1593.18 0.00000 -1.09222e-13
  41 1593.18 0.00000 1.26809e-13
  42 1593.18 0.00000 -5.36141e-14
  43 1593.18 0.00000 -2.50693e-13
  44 1593.18 0.00000 -1.66455e-13
  45 1593.18 0.00000 3.25641e-14
  46 1593.18 0.00000 -3.92644e-14
  47 1593.18 0.00000 3.84949e-13
  48 1593.18 0.00000 2.15929e-13
  49 1593.18 0.00000 2.05266e-14
  50 1593.18 0.00000 2.58426e-15
  51 1593.18 0.00000 -3.10111e-14
  52 1593.18 0.00000 1.50210e-14
  53 1593.18 0.00000 6.13610e-14
  54 1593.18 0.00000 1.14161e-14
  55 1593.18 0.00000 3.10111e-14
  56 1593.18 0.00000 -5.56135e-14
  57 1593.18 0.00000 7.22425e-15
  58 1593.18 0.00000 -2.48759e-13
  59 1593.18 0.00000 -4.43016e-15
  60 1593.18 0.00000 -2.63871e-15
  61 1593.18 0.00000 -4.04771e-14
  62 1593.18 0.00000 -3.08687e-14
  63 1593.18 0.00000 1.50433e-13
  64 1593.18 0.00000 1.03428e-13
  65 1593.18 0.00000 3.45031e-14
  66 1593.18 0.00000 7.33727e-14
  67 1593.18 0.00000 4.42000e-13
  68 1593.18 0.00000 2.86547e-13
  69 1593.18 0.00000 -3.69337e-13
  70 1593.18 0.00000 -9.62285e-14
  71 1593.18 0.00000 1.49472e-13
  72 1593.18 0.00000 1.54903e-13
  73 1593.18 0.00000 -8.28211e-15
  74 1593.18 0.00000 1.05104e-14
  75 1593.18 0.00000 3.29377e-13
  76 1593.18 0.00000 -3.69484e-13
  77 1593.18 0.00000 5.68645e-14
  78 1593.18 0.00000 -4.95247e-13
  79 1593.18 0.00000 -1.76272e-13
  80 1593.18 0.00000 -8.39315e-14
  81 1593.18 0.00000 -7.44576e-14
  82 1593.18 0.00000 6.74001e-14
  83 1593.18 0.00000 1.03949e-14
  84 1593.18 0.00000 -1.88086e-13
  85 1593.18 0.00000 2.11499e-13
  86 1593.18 0.00000 3.40008e-13
  87 1593.18 0.00000 -8.66862e-14
  88 1593.18 0.00000 -2.27278e-13
  89 1593.18 0.00000 -1.63676e-13
  90 1593.18 0.00000 2.94906e-13
  91 1593.18 0.00000 7.65081e-14
  92 1593.18 0.00000 -7.33392e-14
  93 1593.18 0.00000 -6.06022e-13
  94 1593.18 0.00000 -3.57584e-14
  95 1593.18 0.00000 -2.12281e-13
  96 1593.18 0.00000 3.57317e-13
  97 1593.18 0.00000 6.54119e-14
  98 1593.18 0.00000 -9.23515e-14
  99 1593.18 0.00000 2.90049e-13
  100 1593.18 0.00000 1.66382e-13
  101 1593.18 0.00000 1.67999e-13
  102 1593.18 0.00000 2.42080e-13
  103 1593.18 0.00000 4.78806e-13
  104 1593.18 0.00000 -1.83262e-15
  105 1593.18 0.00000 3.63397e-13
  106 1593.18 0.00000 -1.18682e-13
  107 1593.18 0.00000 -1.22856e-13
  108 1593.18 0.00000 3.53839e-14
  109 1593.18 0.00000 9.25399e-15
  110 1593.18 0.00000 6.26405e-13
  111 1593.18 0.00000 -8.20888e-14
  112 1593.18 0.00000 -1.33959e-13
  113 1593.18 0.00000 1.37072e-13
  114 1593.18 0.00000 -1.86479e-13
  115 1593.18 0.00000 -1.02990e-13
  116 1593.18 0.00000 -2.30404e-13
  117 1593.18 0.00000 1.89102e-13
  118 1593.18 0.00000 -4.55854e-14
  119 1593.18 0.00000 1.26373e-16
  120 1593.18 0.00000 -3.47426e-13
  121 1593.18 0.00000 4.02039e-15
  122 1593.18 0.00000 -2.08888e-13
  123 1593.18 0.00000 -4.91220e-13
  124 1593.18 0.00000 -1.43663e-13
  125 1593.18 0.00000 6.95080e-14
  126 1593.18 0.00000 -3.65061e-14
  127 1593.18 0.00000 2.37444e-13
  128 1593.18 0.00000 -2.64874e-14
  129 1593.18 0.00000 2.02797e-15
  130 1593.18 0.00000 -1.24292e-13
  131 1593.18 0.00000 2.58422e-13
  132 1593.18 0.00000 1.25499e-13
  133 1593.18 0.00000 -2.02167e-13
  134 1593.18 0.00000 1.42753e-13
  135 1593.18 0.00000 5.58575e-13
  136 1593.18 0.00000 1.12842e-13
  137 1593.18 0.00000 4.63836e-13
  138 1593.18 0.00000 -1.56772e-13
  139 1593.18 0.00000 1.57329e-13
  140 1593.18 0.00000 -2.14181e-13
  141 1593.18 0.00000 -8.44640e-14
  142 1593.18 0.00000 -2.39304e-14
  143 1593.18 0.00000 -4.37314e-14
  144 1593.18 0.00000 -1.39415e-13
  145 1593.18 0.00000 -8.09915e-13
  146 1593.18 0.00000 -1.14122e-13
  147 1593.18 0.00000 1.70078e-13
  148 1593.18 0.00000 -1.71748e-14
  149 1593.18 0.00000 -3.38095e-13
  150 1593.18 0.00000 -4.44689e-14
  151 1593.18 0.00000 1.91257e-13
  152 1593.18 0.00000 9.75594e-14
  153 1593.18 0.00000 3.05686e-13
  154 1593.18 0.00000 -2.83805e-13
  155 1593.18 0.00000 -4.61648e-14
  156 1593.18 0.00000 3.78158e-14
  157 1593.18 0.00000 4.17183e-14
  158 1593.18 0.00000 1.24766e-13
  159 1593.18 0.00000 3.55027e-13
  160 1593.18 0.00000 8.43772e-14
  161 1593.18 0.00000 -3.37365e-13
  162 1593.18 0.00000 -3.29155e-14
  163 1593.18 0.00000 7.83858e-14
  164 1593.18 0.00000 -6.80871e-14
  165 1593.18 0.00000 1.09989e-13
  166 1593.18 0.00000 -2.52620e-14
  167 1593.18 0.00000 -1.35670e-13
  168 1593.18 0.00000 2.13656e-13
  169 1593.18 0.00000 -1.32854e-14
  170 1593.18 0.00000 7.19111e-13
  171 1593.18 0.00000 7.14746e-14
  172 1593.18 0.00000 2.12280e-13
  173 1593.18 0.00000 -6.89563e-14
  174 1593.18 0.00000 7.64509e-14
  175 1593.18 0.00000 1.54246e-15
  176 1593.18 0.00000 -1.29653e-13
  177 1593.18 0.00000 -3.64147e-13
  178 1593.18 0.00000 7.62910e-14
  179 1593.18 0.00000 -1.09060e-13
  180 1593.18 0.00000 7.65513e-14
  181 1593.18 0.00000 -3.56857e-14
  182 1593.18 0.00000 2.91704e-13
  183 1593.18 0.00000 3.89167e-14
  184 1593.18 0.00000 -3.36597e-14
  185 1593.18 0.00000 8.82023e-14
  186 1593.18 0.00000 1.48283e-13
  187 1593.18 0.00000 -5.55403e-13
  188 1593.18 0.00000 -7.36159e-14
  189 1593.18 0.00000 -1.02229e-13
  190 1593.18 0.00000 2.77979e-14
  191 1593.18 0.00000 -6.13962e-14
  192 1593.18 0.00000 1.39985e-13
  193 1593.18 0.00000 -1.51782e-13
  194 1593.18 0.00000 -2.00537e-13
  195 1593.18 0.00000 -2.87663e-14
  196 1593.18 0.00000 5.51398e-13
  197 1593.18 0.00000 3.05909e-14
  198 1593.18 0.00000 -1.42992e-13
  199 1593.18 0.00000 -7.39477e-14
  200 1593.18 0.00000 -4.79976e-13
  201 1593.18 0.00000 1.92049e-13
  202 1593.18 0.00000 3.79593e-15
  203 1593.18 0.00000 5.46188e-14
  204 1593.18 0.00000 -6.03501e-14
  205 1593.18 0.00000 4.74491e-15
  206 1593.18 0.00000 7.15721e-13
  207 1593.18 0.00000 1.52987e-13
  208 1593.18 0.00000 -2.16577e-13
  209 1593.18 0.00000 2.89701e-14
  210 1593.18 0.00000 -1.39876e-13
  211 1593.18 0.00000 -9.02846e-14
  212 1593.18 0.00000 4.58629e-13
  213 1593.18 0.00000 -2.35262e-14
  214 1593.18 0.00000 -9.85855e-14
  215 1593.18 0.00000 2.32753e-13
  216 1593.18 0.00000 -4.74877e-14
  217 1593.18 0.00000 6.98814e-14
  218 1593.18 0.00000 2.48166e-14
  219 1593.18 0.00000 -3.35290e-14
  220 1593.18 0.00000 4.94968e-14
  221 1593.18 0.00000 1.16611e-13
  222 1593.18 0.00000 -3.05437e-13
  223 1593.18 0.00000 1.20714e-13
  224 1593.18 0.00000 3.90937e-13
  225 1593.18 0.00000 1.67132e-13
  226 1593.18 0.00000 1.60809e-13
  227 1593.18 0.00000 2.90289e-13
  228 1593.18 0.00000 1.97127e-13
  229 1593.18 0.00000 3.97308e-14
  230 1593.18 0.00000 2.77046e-13
  231 1593.18 0.00000 3.47928e-13
  232 1593.18 0.00000 -1.51509e-13
  233 1593.18 0.00000 2.60389e-13
  234 1593.18 0.00000 6.75010e-14
  235 1593.18 0.00000 1.97524e-13
  236 1593.18 0.00000 -7.61780e-14
  237 1593.18 0.00000 3.21428e-13
  238 1593.18 0.00000 -1.12217e-13
  239 1593.18 0.00000 1.50911e-13
  240 1593.18 0.00000 1.48017e-13
  241 1593.18 0.00000 -2.04955e-13
</Section>

newXOutput 36

<Section columns = "stress_xx | stress_yy | stress_xy">
  1 1639.75 0.00000 2.37150e-15
  2 1639.75 0.00000 -8.98139e-14
  3 1639.75 0.00000 -6.29530e-13
  4 1639.75 0.00000 1.01512e-13
  5 1639.75 0.00000 4.68832e-14
  6 1639.75 0.00000 -2.37150e-15
  7 1639.75 0.00000 6.14802e-14
  8 1639.75 0.00000 1.29951e-13
  9 1639.75 0.00000 -4.57238e-14
  10 1639.75 0.00000 -2.99367e-13
  11 1639.75 0.00000 1.26064e-13
  12 1639.75 0.00000 3.26143e-13
  13 1639.75 0.00000 1.69597e-13
  14 1639.75 0.00000 -5.04020e-14
  15 1639.75 0.00000 -3.66896e-13
  16 1639.75 0.00000 1.95401e-13
  17 1639.75 0.00000 2.04640e-14
  18 1639.75 0.00000 5.73475e-13
  19 1639.75 0.00000 6.23877e-13
  20 1639.75 0.00000 8.14600e-13
  21 1639.75 0.00000 -7.84023e-15
  22 1639.75 0.00000 -1.93768e-13
  23 1639.75 0.00000 -2.39492e-13
  24 1639.75 0.00000 -2.53644e-13
  25 1639.75 0.00000 -3.06961e-14
  26 1639.75 0.00000 2.58162e-13
  27 1639.75 0.00000 5.04020e-14
  28 1639.75 0.00000 1.84477e-13
  29 1639.75 0.00000 3.06961e-14
  30 1639.75 0.00000 1.47085e-14
  31 1639.75 0.00000 -7.10701e-13
  32 1639.75 0.00000 -1.95332e-13
  33 1639.75 0.00000 -1.94197e-13
  34 1639.75 0.00000 -2.00903e-14
  35 1639.75 0.00000 3.68947e-13
  36 1639.75 0.00000 7.43260e-13
  37 1639.75 0.00000 1.39690e-13
  38 1639.75 0.00000 5.92514e-13
  39 1639.75 0.00000 -1.75452e-13
  40 1639.75 0.00000 -4.07652e-13
  41 1639.75 0.00000 -1.25278e-13
  42 1639.75 0.00000 -1.76929e-13
  43 1639.75 0.00000 3.43819e-14
  44 1639.75 0.00000 -1.89282e-14
  45 1639.75 0.00000 -7.24579e-14
  46 1639.75 0.00000 -9.51762e-14
  47 1639.75 0.00000 1.40920e-13
  48 1639.75 0.00000 3.73761e-13
  49 1639.75 0.00000 1.47555e-13
  50 1639.75 0.00000 4.35509e-14
  51 1639.75 0.00000 1.53480e-14
  52 1639.75 0.00000 -4.33160e-14
  53 1639.75 0.00000 -3.30352e-14
  54 1639.75 0.00000 2.89539e-14
  55 1639.75 0.00000 0.00000
  56 1639.75 0.00000 -6.85269e-14
  57 1639.75 0.00000 6.72226e-14
  58 1639.75 0.00000 4.37313e-14
  59 1639.75 0.00000 2.15404e-13
  60 1639.75 0.00000 3.62577e-13
  61 1639.75 0.00000 -1.08242e-13
  62 1639.75 0.00000 -1.61346e-13
  63 1639.75 0.00000 -7.67790e-14
  64 1639.75 0.00000 2.87571e-13
  65 1639.75 0.00000 -9.29328e-14
  66 1639.75 0.00000 -5.79919e-14
  67 1639.75 0.00000 1.06695e-13
  68 1639.75 0.00000 -4.59428e-14
  69 1639.75 0.00000 -1.74688e-13
  70 1639.75 0.00000 1.13332e-13
  71 1639.75 0.00000 -3.83355e-14
  72 1639.75 0.00000 1.11796e-13
  73 1639.75 0.00000 2.22075e-13
  74 1639.75 0.00000 -1.63775e-14
  75 1639.75 0.00000 8.28295e-14
  76 1639.75 0.00000 -7.96017e-13
  77 1639.75 0.00000 4.98223e-14
  78 1639.75 0.00000 8.05290e-14
  79 1639.75 0.00000 -1.44177e-14
  80 1639.75 0.00000 -1.25356e-13
  81 1639.75 0.00000 2.66602e-13
  82 1639.75 0.00000 -5.66529e-13
  83 1639.75 0.00000 1.79908e-13
  84 1639.75 0.00000 -1.76265e-13
  85 1639.75 0.00000 -1.00030e-13
  86 1639.75 0.00000 -9.37279e-14
  87 1639.75 0.00000 5.33820e-14
  88 1639.75 0.00000 1.68944e-13
  89 1639.75 0.00000 -6.07256e-14
  90 1639.75 0.00000 2.49902e-14
  91 1639.75 0.00000 -2.13547e-13
  92 1639.75 0.00000 -1.17537e-13
  93 1639.75 0.00000 2.36083e-14
  94 1639.75 0.00000 -1.71329e-13
  95 1639.75 0.00000 2.45777e-13
  96 1639.75 0.00000 -2.74031e-13
  97 1639.75 0.00000 -3.94641e-13
  98 1639.75 0.00000 7.67402e-15
  99 1639.75 0.00000 2.78299e-13
  100 1639.75 0.00000 -3.28559e-14
  101 1639.75 0.00000 2.50084e-14
  102 1639.75 0.00000 2.41416e-13
  103 1639.75 0.00000 -9.72609e-14
  104 1639.75 0.00000 -1.01256e-13
  105 1639.75 0.00000 1.37798e-13
  106 1639.75 0.00000 -3.63729e-13
  107 1639.75 0.00000 4.09868e-14
  108 1639.75 0.00000 -8.11806e-14
  109 1639.75 0.00000 3.61688e-14
  110 1639.75 0.00000 5.49342e-13
  111 1639.75 0.00000 4.46884e-13
  112 1639.75 0.00000 -5.76630e-14
  113 1639.75 0.00000 -1.93556e-14
  114 1639.75 0.00000 9.15592e-14
  115 1639.75 0.00000 1.90851e-15
  116 1639.75 0.00000 -9.68434e-14
  117 1639.75 0.00000 5.93130e-13
  118 1639.75 0.00000 -1.66660e-13
  119 1639.75 0.00000 7.09199e-14
  120 1639.75 0.00000 -1.03072e-13
  121 1639.75 0.00000 -6.15571e-14
  122 1639.75 0.00000 4.85989e-14
  123 1639.75 0.00000 -4.29707e-13
  124 1639.75 0.00000 2.30702e-13
  125 1639.75 0.00000 -2.22625e-13
  126 1639.75 0.00000 -8.36433e-14
  127 1639.75 0.00000 -2.10037e-13
  128 1639.75 0.00000 1.54514e-13
  129 1639.75 0.00000 -3.19802e-15
  130 1639.75 0.00000 5.76047e-14
  131 1639.75 0.00000 -6.44010e-15
  132 1639.75 0.00000 8.18537e-15
  133 1639.75 0.00000 8.81199e-14
  134 1639.75 0.00000 -1.10176e-13
  135 1639.75 0.00000 -1.03944e-13
  136 1639.75 0.00000 1.51394e-13
  137 1639.75 0.00000 8.67365e-16
  138 1639.75 0.00000 -1.54394e-13
  139 1639.75 0.00000 6.26069e-14
  140 1639.75 0.00000 -2.33945e-13
  141 1639.75 0.00000 -4.38377e-14
  142 1639.75 0.00000 -1.55019e-13
  143 1639.75 0.00000 -4.62812e-14
  144 1639.75 0.00000 -2.58623e-13
  145 1639.75 0.00000 2.81842e-14
  146 1639.75 0.00000 -7.26679e-14
  147 1639.75 0.00000 -5.29442e-14
  148 1639.75 0.00000 -2.08674e-14
  149 1639.75 0.00000 -4.73818e-14
  150 1639.75 0.00000 -5.63686e-14
  151 1639.75 0.00000 2.06667e-14
  152 1639.75 0.00000 2.07121e-13
  153 1639.75 0.00000 -2.92306e-14
  154 1639.75 0.00000 1.59306e-13
  155 1639.75 0.00000 3.41162e-13
  156 1639.75 0.00000 -1.32150e-13
  157 1639.75 0.00000 -1.63391e-13
  158 1639.75 0.00000 -4.86345e-14
  159 1639.75 0.00000 -6.94776e-14
  160 1639.75 0.00000 -2.17280e-14
  161 1639.75 0.00000 -9.17038e-14
  162 1639.75 0.00000 -1.08007e-13
  163 1639.75 0.00000 -2.25659e-14
  164 1639.75 0.00000 -1.31848e-13
  165 1639.75 0.00000 -1.09530e-13
  166 1639.75 0.00000 1.14533e-14
  167 1639.75 0.00000 -1.21535e-13
  168 1639.75 0.00000 1.02690e-13
  169 1639.75 0.00000 -5.45103e-14
  170 1639.75 0.00000 1.11557e-13
  171 1639.75 0.00000 1.30825e-13
  172 1639.75 0.00000 1.50880e-13
  173 1639.75 0.00000 -1.23929e-13
  174 1639.75 0.00000 -2.10318e-13
  175 1639.75 0.00000 2.82756e-14
  176 1639.75 0.00000 -6.18299e-14
  177 1639.75 0.00000 -4.09272e-13
  178 1639.75 0.00000 1.45157e-13
  179 1639.75 0.00000 -7.25395e-14
  180 1639.75 0.00000 1.16797e-13
  181 1639.75 0.00000 2.38221e-13
  182 1639.75 0.00000 4.45665e-13
  183 1639.75 0.00000 -7.77069e-14
  184 1639.75 0.00000 1.64971e-13
  185 1639.75 0.00000 -1.46398e-13
  186 1639.75 0.00000 -1.42279e-13
  187 1639.75 0.00000 -1.41806e-13
  188 1639.75 0.00000 1.49055e-13
  189 1639.75 0.00000 -1.02962e-13
  190 1639.75 0.00000 -5.37207e-14
  191 1639.75 0.00000 -6.97575e-15
  192 1639.75 0.00000 3.75236e-16
  193 1639.75 0.00000 4.11043e-13
  194 1639.75 0.00000 -5.98597e-14
  195 1639.75 0.00000 -2.02405e-14
  196 1639.75 0.00000 3.31061e-13
  197 1639.75 0.00000 -2.45869e-14
  198 1639.75 0.00000 6.31191e-15
  199 1639.75 0.00000 -3.57948e-14
  200 1639.75 0.00000 -2.42159e-14
  201 1639.75 0.00000 8.02908e-14
  202 1639.75 0.00000 -4.07452e-13
  203 1639.75 0.00000 7.83637e-14
  204 1639.75 0.00000 -7.95317e-14
  205 1639.75 0.00000 2.89205e-14
  206 1639.75 0.00000 4.70343e-13
  207 1639.75 0.00000 5.87843e-14
  208 1639.75 0.00000 -4.26263e-14
  209 1639.75 0.00000 -5.86474e-13
  210 1639.75 0.00000 1.26540e-13
  211 1639.75 0.00000 4.39903e-15
  212 1639.75 0.00000 -4.06224e-14
  213 1639.75 0.00000 1.48690e-13
  214 1639.75 0.00000 3.28906e-13
  215 1639.75 0.00000 1.10244e-13
  216 1639.75 0.00000 -6.94091e-14
  217 1639.75 0.00000 -2.33642e-13
  218 1639.75 0.00000 4.24124e-14
  219 1639.75 0.00000 -1.37303e-13
  220 1639.75 0.00000 -6.30399e-14
  221 1639.75 0.00000 -1.42362e-13
  222 1639.75 0.00000 -1.10387e-14
  223 1639.75 0.00000 -7.39940e-14
  224 1639.75 0.00000 -1.24560e-13
  225 1639.75 0.00000 -1.46772e-13
  226 1639.75 0.00000 6.85675e-15
  227 1639.75 0.00000 -7.14377e-14
  228 1639.75 0.00000 3.53666e-15
  229 1639.75 0.00000 -3.84243e-14
  230 1639.75 0.00000 1.81768e-13
  231 1639.75 0.00000 6.95306e-14
  232 1639.75 0.00000 -3.53884e-13
  233 1639.75 0.00000 4.42877e-13
  234 1639.75 0.00000 1.18332e-13
  235 1639.75 0.00000 3.04648e-15
  236 1639.75 0.00000 -2.80461e-14
  237 1639.75 0.00000 1.72822e-13
  238 1639.75 0.00000 -3.85403e-14
  239 1639.75 0.00000 2.25893e-13
  240 1639.75 0.00000 -3.26127e-14
  241 1639.75 0.00000 -1.65796e-13
</Section>

newXOutput 37

<Section columns = "stress_xx | stress_yy | stress_xy">
  1 1686.31 0.00000 1.09487e-13
  2 1686.31 0.00000 9.70199e-14
  3 1686.31 0.00000 -8.10458e-13
  4 1686.31 0.00000 1.79818e-13
  5 1686.31 0.00000 1.63337e-13
  6 1686.31 0.00000 1.44002e-13
  7 1686.31 0.00000 1.49148e-13
  8 1686.31 0.00000 1.29160e-13
  9 1686.31 0.00000 2.07275e-13
  10 1686.31 0.00000 7.99618e-13
  11 1686.31 0.00000 5.98630e-13
  12 1686.31 0.00000 -2.26223e-13
  13 1686.31 0.00000 -1.54477e-13
  14 1686.31 0.00000 5.39505e-13
  15 1686.31 0.00000 1.90295e-13
  16 1686.31 0.00000 -3.36462e-14
  17 1686.31 0.00000 -8.14073e-13
  18 1686.31 0.00000 -3.46928e-13
  19 1686.31 0.00000 3.61139e-13
  20 1686.31 0.00000 3.75837e-13
  21 1686.31 0.00000 7.00717e-13
  22 1686.31 0.00000 5.11902e-13
  23 1686.31 0.00000 -5.21063e-14
  24 1686.31 0.00000 9.99631e-14
  25 1686.31 0.00000 3.03808e-14
  26 1686.31 0.00000 -2.73488e-13
  27 1686.31 0.00000 -3.92016e-14
  28 1686.31 0.00000 6.11910e-14
  29 1686.31 0.00000 1.51904e-14
  30 1686.31 0.00000 2.29466e-14
  31 1686.31 0.00000 -4.66185e-13
  32 1686.31 0.00000 -7.61204e-14
  33 1686.31 0.00000 -2.08846e-13
  34 1686.31 0.00000 -3.69287e-13
  35 1686.31 0.00000 -2.57898e-13
  36 1686.31 0.00000 -2.30678e-13
  37 1686.31 0.00000 3.20122e-13
  38 1686.31 0.00000 1.03664e-13
  39 1686.31 0.00000 5.33110e-14
  40 1686.31 0.00000 5.62793e-14
  41 1686.31 0.00000 -1.41979e-13
  42 1686.31 0.00000 -1.94421e-13
  43 1686.31 0.00000 -6.69606e-14
  44 1686.31 0.00000 1.97488e-13
  45 1686.31 0.00000 2.44647e-13
  46 1686.31 0.00000 2.17448e-14
  47 1686.31 0.00000 -3.35067e-14
  48 1686.31 0.00000 -2.83462e-14
  49 1686.31 0.00000 3.58689e-13
  50 1686.31 0.00000 -5.45139e-14
  51 1686.31 0.00000 1.51904e-14
  52 1686.31 0.00000 -6.76830e-15
  53 1686.31 0.00000 -1.30200e-13
  54 1686.31 0.00000 1.43936e-14
  55 1686.31 0.00000 -1.78366e-13
  56 1686.31 0.00000 -3.02589e-14
  57 1686.31 0.00000 4.51269e-15
  58 1686.31 0.00000 -2.79246e-13
  59 1686.31 0.00000 -1.27526e-13
  60 1686.31 0.00000 -2.49817e-13
  61 1686.31 0.00000 -3.64053e-13
  62 1686.31 0.00000 1.61704e-13
  63 1686.31 0.00000 -3.57023e-13
  64 1686.31 0.00000 -1.86765e-13
  65 1686.31 0.00000 -1.15334e-14
  66 1686.31 0.00000 -2.91966e-14
  67 1686.31 0.00000 -2.79735e-13
  68 1686.31 0.00000 1.22545e-13
  69 1686.31 0.00000 -3.32931e-13
  70 1686.31 0.00000 7.10372e-14
  71 1686.31 0.00000 -1.55008e-13
  72 1686.31 0.00000 -2.94251e-13
  73 1686.31 0.00000 -3.60495e-15
  74 1686.31 0.00000 9.94629e-14
  75 1686.31 0.00000 -9.13618e-14
  76 1686.31 0.00000 7.48452e-13
  77 1686.31 0.00000 -9.76753e-14
  78 1686.31 0.00000 5.26643e-14
  79 1686.31 0.00000 -5.55371e-14
  80 1686.31 0.00000 -1.65459e-13
  81 1686.31 0.00000 -2.05723e-13
  82 1686.31 0.00000 -8.86011e-14
  83 1686.31 0.00000 2.29917e-13
  84 1686.31 0.00000 -7.24602e-14
  85 1686.31 0.00000 2.75347e-13
  86 1686.31 0.00000 4.75883e-13
  87 1686.31 0.00000 -3.16626e-14
  88 1686.31 0.00000 -8.84438e-13
  89 1686.31 0.00000 -2.90910e-14
  90 1686.31 0.00000 -4.01101e-13
  91 1686.31 0.00000 4.87202e-14
  92 1686.31 0.00000 -7.07823e-14
  93 1686.31 0.00000 -4.51423e-13
  94 1686.31 0.00000 3.91153e-13
  95 1686.31 0.00000 2.73366e-13
  96 1686.31 0.00000 -1.93921e-13
  97 1686.31 0.00000 2.17274e-13
  98 1686.31 0.00000 1.21181e-13
  99 1686.31 0.00000 5.13704e-14
  100 1686.31 0.00000 1.15275e-13
  101 1686.31 0.00000 -1.24993e-13
  102 1686.31 0.00000 -3.34803e-14
  103 1686.31 0.00000 -4.04546e-13
  104 1686.31 0.00000 9.06278e-14
  105 1686.31 0.00000 -3.89321e-13
  106 1686.31 0.00000 7.77893e-14
  107 1686.31 0.00000 1.52843e-13
  108 1686.31 0.00000 -4.53008e-14
  109 1686.31 0.00000 3.53676e-14
  110 1686.31 0.00000 -1.32940e-13
  111 1686.31 0.00000 -5.68508e-13
  112 1686.31 0.00000 8.38938e-14
  113 1686.31 0.00000 -2.21275e-13
  114 1686.31 0.00000 5.89893e-15
  115 1686.31 0.00000 9.23383e-14
  116 1686.31 0.00000 -1.92611e-13
  117 1686.31 0.00000 -6.96216e-14
  118 1686.31 0.00000 -2.23788e-14
  119 1686.31 0.00000 -2.38781e-14
  120 1686.31 0.00000 3.76570e-14
  121 1686.31 0.00000 2.83055e-15
  122 1686.31 0.00000 -1.19667e-13
  123 1686.31 0.00000 -1.92732e-13
  124 1686.31 0.00000 -6.12800e-13
  125 1686.31 0.00000 8.21974e-14
  126 1686.31 0.00000 -1.64812e-13
  127 1686.31 0.00000 3.99325e-13
  128 1686.31 0.00000 -7.99945e-14
  129 1686.31 0.00000 7.05634e-14
  130 1686.31 0.00000 -1.90716e-13
  131 1686.31 0.00000 -1.51506e-13
  132 1686.31 0.00000 -2.58327e-13
  133 1686.31 0.00000 -6.47474e-15
  134 1686.31 0.00000 -3.21798e-13
  135 1686.31 0.00000 7.62740e-13
  136 1686.31 0.00000 1.04524e-14
  137 1686.31 0.00000 -2.49229e-13
  138 1686.31 0.00000 -1.17400e-14
  139 1686.31 0.00000 -1.06416e-13
  140 1686.31 0.00000 -1.10253e-13
  141 1686.31 0.00000 -2.00951e-13
  142 1686.31 0.00000 3.17696e-14
  143 1686.31 0.00000 -1.56410e-14
  144 1686.31 0.00000 5.12620e-14
  145 1686.31 0.00000 -3.22230e-13
  146 1686.31 0.00000 1.04136e-13
  147 1686.31 0.00000 -1.68340e-13
  148 1686.31 0.00000 -7.55386e-15
  149 1686.31 0.00000 2.02498e-13
  150 1686.31 0.00000 7.83008e-14
  151 1686.31 0.00000 -1.38131e-13
  152 1686.31 0.00000 -2.47660e-13
  153 1686.31 0.00000 -2.29478e-14
  154 1686.31 0.00000 1.54550e-13
  155 1686.31 0.00000 -4.28613e-13
  156 1686.31 0.00000 1.25636e-13
  157 1686.31 0.00000 -1.02596e-13
  158 1686.31 0.00000 -3.08135e-13
  159 1686.31 0.00000 -1.48677e-13
  160 1686.31 0.00000 -2.12181e-13
  161 1686.31 0.00000 3.01554e-13
  162 1686.31 0.00000 4.43308e-13
  163 1686.31 0.00000 -5.77233e-13
  164 1686.31 0.00000 2.11564e-13
  165 1686.31 0.00000 2.36790e-15
  166 1686.31 0.00000 -1.17959e-14
  167 1686.31 0.00000 -5.15561e-14
  168 1686.31 0.00000 2.88721e-13
  169 1686.31 0.00000 -1.12211e-13
  170 1686.31 0.00000 -2.33394e-13
  171 1686.31 0.00000 -6.51941e-14
  172 1686.31 0.00000 -3.20135e-14
  173 1686.31 0.00000 9.64897e-14
  174 1686.31 0.00000 3.62240e-13
  175 1686.31 0.00000 4.77906e-14
  176 1686.31 0.00000 6.23333e-14
  177 1686.31 0.00000 -4.91719e-13
  178 1686.31 0.00000 2.77468e-14
  179 1686.31 0.00000 1.24710e-14
  180 1686.31 0.00000 -5.35513e-15
  181 1686.31 0.00000 -1.24433e-13
  182 1686.31 0.00000 -1.99731e-14
  183 1686.31 0.00000 6.20786e-14
  184 1686.31 0.00000 -1.81940e-13
  185 1686.31 0.00000 2.38370e-13
  186 1686.31 0.00000 3.70831e-13
  187 1686.31 0.00000 -5.66428e-13
  188 1686.31 0.00000 -9.70086e-14
  189 1686.31 0.00000 -3.32087e-13
  190 1686.31 0.00000 5.75630e-14
  191 1686.31 0.00000 2.50376e-13
  192 1686.31 0.00000 3.86251e-13
  193 1686.31 0.00000 -3.05803e-13
  194 1686.31 0.00000 -3.12413e-13
  195 1686.31 0.00000 5.71280e-14
  196 1686.31 0.00000 -2.61332e-13
  197 1686.31 0.00000 -3.21838e-14
  198 1686.31 0.00000 -8.81209e-14
  199 1686.31 0.00000 -1.24968e-13
  200 1686.31 0.00000 -4.79762e-13
  201 1686.31 0.00000 7.90155e-14
  202 1686.31 0.00000 -4.62556e-14
  203 1686.31 0.00000 -3.78687e-13
  204 1686.31 0.00000 -2.06040e-13
  205 1686.31 0.00000 9.60980e-14
  206 1686.31 0.00000 3.92500e-13
  207 1686.31 0.00000 2.91851e-14
  208 1686.31 0.00000 -7.71206e-14
  209 1686.31 0.00000 -7.74519e-14
  210 1686.31 0.00000 1.34081e-13
  211 1686.31 0.00000 -1.48751e-14
  212 1686.31 0.00000 8.33756e-13
  213 1686.31 0.00000 6.50130e-14
  214 1686.31 0.00000 -1.11830e-13
  215 1686.31 0.00000 -3.79178e-13
  216 1686.31 0.00000 8.91055e-14
  217 1686.31 0.00000 5.24328e-14
  218 1686.31 0.00000 6.68958e-14
  219 1686.31 0.00000 1.70723e-13
  220 1686.31 0.00000 4.94613e-14
  221 1686.31 0.00000 1.84695e-13
  222 1686.31 0.00000 -5.02711e-13
  223 1686.31 0.00000 2.38262e-13
  224 1686.31 0.00000 -2.97878e-13
  225 1686.31 0.00000 6.91405e-14
  226 1686.31 0.00000 -1.41376e-14
  227 1686.31 0.00000 -7.18681e-14
  228 1686.31 0.00000 1.92697e-13
  229 1686.31 0.00000 -9.12284e-14
  230 1686.31 0.00000 -9.01214e-14
  231 1686.31 0.00000 -2.75877e-13
  232 1686.31 0.00000 -1.86694e-13
  233 1686.31 0.00000 -1.47223e-13
  234 1686.31 0.00000 -7.25038e-14
  235 1686.31 0.00000 -5.21104e-13
  236 1686.31 0.00000 -6.69308e-15
  237 1686.31 0.00000 -3.24301e-13
  238 1686.31 0.00000 -1.88262e-13
  239 1686.31 0.00000 2.47119e-13
  240 1686.31 0.00000 -2.05844e-15
  241 1686.31 0.00000 -1.59824e-13
</Section>

newXOutput 38

<Section columns = "stress_xx | stress_yy | stress_xy">
  1 1732.87 0.00000 -3.78970e-13
  2 1732.87 0.00000 -2.07169e-13
  3 1732.87 0.00000 -7.28264e-13
  4 1732.87 0.00000 1.66844e-14
  5 1732.87 0.00000 -3.92644e-13
  6 1732.87 0.00000 1.45412e-13
  7 1732.87 0.00000 1.96183e-13
  8 1732.87 0.00000 2.93004e-13
  9 1732.87 0.00000 1.36486e-13
  10 1732.87 0.00000 -1.16443e-13
  11 1732.87 0.00000 -2.17733e-13
  12 1732.87 0.00000 -1.01291e-13
  13 1732.87 0.00000 3.35922e-13
  14 1732.87 0.00000 2.31789e-13
  15 1732.87 0.00000 -1.51316e-13
  16 1732.87 0.00000 -2.83531e-13
  17 1732.87 0.00000 -7.19783e-13
  18 1732.87 0.00000 -2.41274e-13
  19 1732.87 0.00000 2.83531e-13
  20 1732.87 0.00000 9.12571e-13
  21 1732.87 0.00000 5.43753e-13
  22 1732.87 0.00000 -1.94978e-13
  23 1732.87 0.00000 -3.93753e-13
  24 1732.87 0.00000 7.90782e-14
  25 1732.87 0.00000 0.00000
  26 1732.87 0.00000 -2.30367e-14
  27 1732.87 0.00000 5.37544e-13
  28 1732.87 0.00000 -4.10105e-13
  29 1732.87 0.00000 -6.01304e-14
  30 1732.87 0.00000 1.74604e-15
  31 1732.87 0.00000 -1.88252e-14
  32 1732.87 0.00000 1.22055e-12
  33 1732.87 0.00000 4.67972e-14
  34 1732.87 0.00000 -6.20311e-13
  35 1732.87 0.00000 -1.69837e-13
  36 1732.87 0.00000 4.89774e-13
  37 1732.87 0.00000 1.62343e-13
  38 1732.87 0.00000 3.97334e-13
  39 1732.87 0.00000 1.89593e-13
  40 1732.87 0.00000 4.17527e-13
  41 1732.87 0.00000 6.11215e-13
  42 1732.87 0.00000 1.49813e-13
  43 1732.87 0.00000 -4.01078e-14
  44 1732.87 0.00000 1.65195e-13
  45 1732.87 0.00000 1.22208e-13
  46 1732.87 0.00000 1.57420e-13
  47 1732.87 0.00000 1.41049e-13
  48 1732.87 0.00000 -2.34815e-14
  49 1732.87 0.00000 8.88220e-14
  50 1732.87 0.00000 -4.21829e-14
  51 1732.87 0.00000 -1.50326e-14
  52 1732.87 0.00000 -2.41390e-14
  53 1732.87 0.00000 8.18973e-16
  54 1732.87 0.00000 4.44836e-14
  55 1732.87 0.00000 0.00000
  56 1732.87 0.00000 -2.74159e-14
  57 1732.87 0.00000 -1.21731e-13
  58 1732.87 0.00000 3.30342e-14
  59 1732.87 0.00000 -8.64639e-14
  60 1732.87 0.00000 -1.29518e-13
  61 1732.87 0.00000 2.87039e-14
  62 1732.87 0.00000 2.71032e-16
  63 1732.87 0.00000 -1.63126e-13
  64 1732.87 0.00000 -8.87624e-14
  65 1732.87 0.00000 -2.05076e-14
  66 1732.87 0.00000 1.13329e-13
  67 1732.87 0.00000 4.05876e-13
  68 1732.87 0.00000 1.21754e-13
  69 1732.87 0.00000 7.18798e-14
  70 1732.87 0.00000 8.57733e-14
  71 1732.87 0.00000 2.25031e-13
  72 1732.87 0.00000 -2.20129e-13
  73 1732.87 0.00000 -5.38757e-13
  74 1732.87 0.00000 -1.37166e-13
  75 1732.87 0.00000 -1.68107e-14
  76 1732.87 0.00000 -6.20824e-14
  77 1732.87 0.00000 -1.82789e-14
  78 1732.87 0.00000 3.71871e-13
  79 1732.87 0.00000 -5.28104e-14
  80 1732.87 0.00000 -2.73232e-13
  81 1732.87 0.00000 3.29225e-13
  82 1732.87 0.00000 9.40685e-15
  83 1732.87 0.00000 -2.82041e-13
  84 1732.87 0.00000 -2.38571e-13
  85 1732.87 0.00000 -5.87663e-14
  86 1732.87 0.00000 1.38229e-13
  87 1732.87 0.00000 -3.81633e-14
  88 1732.87 0.00000 -2.32645e-13
  89 1732.87 0.00000 3.26100e-13
  90 1732.87 0.00000 3.20621e-13
  91 1732.87 0.00000 -1.52227e-13
  92 1732.87 0.00000 -1.54927e-13
  93 1732.87 0.00000 -9.29382e-14
  94 1732.87 0.00000 -2.97003e-13
  95 1732.87 0.00000 -5.24414e-14
  96 1732.87 0.00000 7.22668e-14
  97 1732.87 0.00000 -4.56895e-13
  98 1732.87 0.00000 -2.80705e-14
  99 1732.87 0.00000 -2.36144e-13
  100 1732.87 0.00000 2.85309e-13
  101 1732.87 0.00000 9.66730e-14
  102 1732.87 0.00000 -5.52262e-13
  103 1732.87 0.00000 2.79055e-13
  104 1732.87 0.00000 -2.09034e-13
  105 1732.87 0.00000 -2.15130e-13
  106 1732.87 0.00000 2.34219e-14
  107 1732.87 0.00000 -2.08042e-13
  108 1732.87 0.00000 -6.35154e-14
  109 1732.87 0.00000 6.87382e-14
  110 1732.87 0.00000 -3.57491e-13
  111 1732.87 0.00000 1.30903e-13
  112 1732.87 0.00000 -6.40429e-14
  113 1732.87 0.00000 8.29666e-14
  114 1732.87 0.00000 1.30466e-13
  115 1732.87 0.00000 4.25614e-15
  116 1732.87 0.00000 -2.66794e-13
  117 1732.87 0.00000 -2.34951e-13
  118 1732.87 0.00000 -1.98418e-13
  119 1732.87 0.00000 1.53730e-14
  120 1732.87 0.00000 -3.68534e-14
  121 1732.87 0.00000 1.18320e-13
  122 1732.87 0.00000 1.46958e-13
  123 1732.87 0.00000 -3.42710e-13
  124 1732.87 0.00000 3.12149e-13
  125 1732.87 0.00000 -6.54453e-14
  126 1732.87 0.00000 1.97526e-14
  127 1732.87 0.00000 1.49616e-13
  128 1732.87 0.00000 -5.09789e-14
  129 1732.87 0.00000 7.93915e-14
  130 1732.87 0.00000 -2.87114e-13
  131 1732.87 0.00000 2.25962e-13
  132 1732.87 0.00000 -3.61226e-14
  133 1732.87 0.00000 -4.95907e-13
  134 1732.87 0.00000 2.39252e-13
  135 1732.87 0.00000 2.61933e-13
  136 1732.87 0.00000 -6.20922e-14
  137 1732.87 0.00000 4.33290e-13
  138 1732.87 0.00000 6.85046e-14
  139 1732.87 0.00000 -3.42416e-14
  140 1732.87 0.00000 -2.42618e-13
  141 1732.87 0.00000 -2.83124e-13
  142 1732.87 0.00000 1.41494e-13
  143 1732.87 0.00000 -2.57187e-13
  144 1732.87 0.00000 3.39600e-13
  145 1732.87 0.00000 -1.50257e-13
  146 1732.87 0.00000 -1.04434e-13
  147 1732.87 0.00000 7.92464e-16
  148 1732.87 0.00000 1.02929e-14
  149 1732.87 0.00000 1.28259e-13
  150 1732.87 0.00000 -1.68800e-13
  151 1732.87 0.00000 -2.92462e-14
  152 1732.87 0.00000 -6.99404e-13
  153 1732.87 0.00000 -1.75312e-13
  154 1732.87 0.00000 -3.18137e-13
  155 1732.87 0.00000 -1.46888e-13
  156 1732.87 0.00000 -1.14325e-13
  157 1732.87 0.00000 -8.18460e-14
  158 1732.87 0.00000 2.40233e-13
  159 1732.87 0.00000 4.70277e-13
  160 1732.87 0.00000 -3.49295e-14
  161 1732.87 0.00000 6.55448e-13
  162 1732.87 0.00000 -1.69118e-13
  163 1732.87 0.00000 3.13124e-14
  164 1732.87 0.00000 -3.10036e-13
  165 1732.87 0.00000 2.30380e-13
  166 1732.87 0.00000 -3.18721e-14
  167 1732.87 0.00000 -4.66725e-13
  168 1732.87 0.00000 1.73007e-13
  169 1732.87 0.00000 5.81222e-14
  170 1732.87 0.00000 4.54614e-13
  171 1732.87 0.00000 2.13760e-13
  172 1732.87 0.00000 1.03641e-13
  173 1732.87 0.00000 -6.13081e-14
  174 1732.87 0.00000 6.97207e-14
  175 1732.87 0.00000 -1.99961e-14
  176 1732.87 0.00000 -5.07956e-14
  177 1732.87 0.00000 -7.79470e-14
  178 1732.87 0.00000 -3.21173e-13
  179 1732.87 0.00000 -1.40056e-13
  180 1732.87 0.00000 -1.79959e-14
  181 1732.87 0.00000 -5.38191e-14
  182 1732.87 0.00000 -9.13824e-15
  183 1732.87 0.00000 1.28368e-13
  184 1732.87 0.00000 -8.12887e-13
  185 1732.87 0.00000 2.99774e-13
  186 1732.87 0.00000 -6.98804e-14
  187 1732.87 0.00000 1.80291e-13
  188 1732.87 0.00000 -1.27563e-13
  189 1732.87 0.00000 5.80022e-14
  190 1732.87 0.00000 -9.64998e-14
  191 1732.87 0.00000 -2.23147e-13
  192 1732.87 0.00000 1.11875e-13
  193 1732.87 0.00000 1.99220e-13
  194 1732.87 0.00000 -6.42477e-13
  195 1732.87 0.00000 4.70928e-15
  196 1732.87 0.00000 4.80735e-14
  197 1732.87 0.00000 7.19050e-14
  198 1732.87 0.00000 -1.40133e-13
  199 1732.87 0.00000 -1.19021e-13
  200 1732.87 0.00000 1.92672e-13
  201 1732.87 0.00000 -7.45974e-14
  202 1732.87 0.00000 -6.96995e-14
  203 1732.87 0.00000 3.81806e-14
  204 1732.87 0.00000 -2.03935e-13
  205 1732.87 0.00000 1.98219e-13
  206 1732.87 0.00000 6.05707e-13
  207 1732.87 0.00000 1.38913e-13
  208 1732.87 0.00000 -4.01020e-13
  209 1732.87 0.00000 -3.64774e-13
  210 1732.87 0.00000 -2.72592e-14
  211 1732.87 0.00000 2.54168e-14
  212 1732.87 0.00000 1.54506e-13
  213 1732.87 0.00000 -2.75936e-14
  214 1732.87 0.00000 -6.90598e-14
  215 1732.87 0.00000 4.87852e-13
  216 1732.87 0.00000 -7.23779e-14
  217 1732.87 0.00000 -7.13184e-13
  218 1732.87 0.00000 -9.09432e-15
  219 1732.87 0.00000 2.68900e-13
  220 1732.87 0.00000 8.73292e-14
  221 1732.87 0.00000 -1.69859e-13
  222 1732.87 0.00000 3.03308e-14
  223 1732.87 0.00000 8.79013e-14
  224 1732.87 0.00000 2.72958e-13
  225 1732.87 0.00000 -3.52324e-13
  226 1732.87 0.00000 2.39164e-13
  227 1732.87 0.00000 6.01871e-16
  228 1732.87 0.00000 1.77020e-13
  229 1732.87 0.00000 3.47994e-14
  230 1732.87 0.00000 -2.89686e-13
  231 1732.87 0.00000 -4.71153e-15
  232 1732.87 0.00000 -8.42444e-14
  233 1732.87 0.00000 3.92714e-13
  234 1732.87 0.00000 -1.40187e-13
  235 1732.87 0.00000 1.56456e-13
  236 1732.87 0.00000 1.00856e-13
  237 1732.87 0.00000 -2.87692e-13
  238 1732.87 0.00000 6.71844e-14
  239 1732.87 0.00000 -3.18181e-14
  240 1732.87 0.00000 3.48670e-13
  241 1732.87 0.00000 -3.16700e-13
</Section>

newXOutput 39

<Section columns = "stress_xx | stress_yy | stress_xy">
  1 1779.43 0.00000 1.83524e-13
  2 1779.43 0.00000 1.17670e-13
  3 1779.43 0.00000 6.86855e-14
  4 1779.43 0.00000 -3.60143e-14
  5 1779.43 0.00000 2.73110e-13
  6 1779.43 0.00000 2.83593e-14
  7 1779.43 0.00000 3.61520e-14
  8 1779.43 0.00000 2.08021e-17
  9 1779.43 0.00000 -1.17206e-13
  10 1779.43 0.00000 1.56851e-13
  11 1779.43 0.00000 2.24929e-13
  12 1779.43 0.00000 9.42190e-15
  13 1779.43 0.00000 -3.22565e-13
  14 1779.43 0.00000 -1.95591e-13
  15 1779.43 0.00000 2.70695e-13
  16 1779.43 0.00000 5.07440e-13
  17 1779.43 0.00000 2.93027e-13
  18 1779.43 0.00000 5.28283e-13
  19 1779.43 0.00000 2.74037e-13
  20 1779.43 0.00000 8.88262e-13
  21 1779.43 0.00000 8.88346e-13
  22 1779.43 0.00000 8.39206e-13
  23 1779.43 0.00000 2.34371e-13
  24 1779.43 0.00000 5.27356e-13
  25 1779.43 0.00000 2.97494e-14
  26 1779.43 0.00000 3.86884e-13
  27 1779.43 0.00000 9.91646e-15
  28 1779.43 0.00000 1.44896e-13
  29 1779.43 0.00000 2.20465e-13
  30 1779.43 0.00000 3.38932e-13
  31 1779.43 0.00000 -4.88379e-13
  32 1779.43 0.00000 -1.81496e-12
  33 1779.43 0.00000 -3.23000e-13
  34 1779.43 0.00000 -4.84020e-14
  35 1779.43 0.00000 -2.41606e-13
  36 1779.43 0.00000 -1.36580e-13
  37 1779.43 0.00000 -5.93224e-13
  38 1779.43 0.00000 -1.87780e-13
  39 1779.43 0.00000 1.12340e-13
  40 1779.43 0.00000 3.04403e-13
  41 1779.43 0.00000 5.96645e-14
  42 1779.43 0.00000 -3.37308e-13
  43 1779.43 0.00000 -3.29439e-13
  44 1779.43 0.00000 5.15178e-14
  45 1779.43 0.00000 2.26612e-13
  46 1779.43 0.00000 1.71491e-13
  47 1779.43 0.00000 2.58892e-14
  48 1779.43 0.00000 -2.28839e-13
  49 1779.43 0.00000 -2.29402e-13
  50 1779.43 0.00000 8.06992e-14
  51 1779.43 0.00000 1.48747e-14
  52 1779.43 0.00000 5.14759e-14
  53 1779.43 0.00000 5.34081e-14
  54 1779.43 0.00000 1.84391e-14
  55 1779.43 0.00000 1.75841e-13
  56 1779.43 0.00000 -1.21275e-14
  57 1779.43 0.00000 9.97186e-14
  58 1779.43 0.00000 9.52071e-13
  59 1779.43 0.00000 3.09622e-13
  60 1779.43 0.00000 -5.20540e-14
  61 1779.43 0.00000 1.19541e-13
  62 1779.43 0.00000 1.31257e-15
  63 1779.43 0.00000 -3.80800e-13
  64 1779.43 0.00000 -3.00995e-14
  65 1779.43 0.00000 2.19173e-13
  66 1779.43 0.00000 -2.52178e-13
  67 1779.43 0.00000 6.43481e-14
  68 1779.43 0.00000 -6.60822e-14
  69 1779.43 0.00000 -1.27437e-13
  70 1779.43 0.00000 3.26289e-14
  71 1779.43 0.00000 -1.09386e-13
  72 1779.43 0.00000 -5.47497e-14
  73 1779.43 0.00000 -4.35364e-13
  74 1779.43 0.00000 1.98416e-13
  75 1779.43 0.00000 2.02436e-14
  76 1779.43 0.00000 1.85695e-13
  77 1779.43 0.00000 5.69257e-14
  78 1779.43 0.00000 1.67370e-14
  79 1779.43 0.00000 2.99994e-13
  80 1779.43 0.00000 -2.73223e-14
  81 1779.43 0.00000 3.80853e-13
  82 1779.43 0.00000 1.46967e-13
  83 1779.43 0.00000 1.73155e-13
  84 1779.43 0.00000 -1.42203e-13
  85 1779.43 0.00000 5.17367e-13
  86 1779.43 0.00000 2.97186e-13
  87 1779.43 0.00000 1.56735e-13
  88 1779.43 0.00000 4.68125e-13
  89 1779.43 0.00000 -5.74123e-14
  90 1779.43 0.00000 -4.49363e-13
  91 1779.43 0.00000 -1.48582e-13
  92 1779.43 0.00000 -2.39603e-14
  93 1779.43 0.00000 4.27509e-13
  94 1779.43 0.00000 3.94434e-13
  95 1779.43 0.00000 3.65132e-13
  96 1779.43 0.00000 3.50338e-13
  97 1779.43 0.00000 2.81221e-13
  98 1779.43 0.00000 -1.29504e-13
  99 1779.43 0.00000 4.81610e-14
  100 1779.43 0.00000 -2.66635e-14
  101 1779.43 0.00000 -3.12581e-13
  102 1779.43 0.00000 1.08319e-13
  103 1779.43 0.00000 -1.36710e-13
  104 1779.43 0.00000 3.23270e-13
  105 1779.43 0.00000 -3.24650e-14
  106 1779.43 0.00000 2.43070e-14
  107 1779.43 0.00000 4.52628e-13
  108 1779.43 0.00000 1.14815e-13
  109 1779.43 0.00000 -1.87691e-13
  110 1779.43 0.00000 2.15422e-13
  111 1779.43 0.00000 8.10598e-14
  112 1779.43 0.00000 1.10037e-13
  113 1779.43 0.00000 -2.04784e-14
  114 1779.43 0.00000 -7.86342e-14
  115 1779.43 0.00000 1.49863e-13
  116 1779.43 0.00000 1.70218e-14
  117 1779.43 0.00000 -2.00570e-13
  118 1779.43 0.00000 2.43936e-13
  119 1779.43 0.00000 2.86226e-13
  120 1779.43 0.00000 -8.40350e-14
  121 1779.43 0.00000 9.83021e-14
  122 1779.43 0.00000 -2.01208e-13
  123 1779.43 0.00000 1.30678e-13
  124 1779.43 0.00000 -8.15781e-16
  125 1779.43 0.00000 3.42948e-15
  126 1779.43 0.00000 -2.15879e-13
  127 1779.43 0.00000 2.92772e-13
  128 1779.43 0.00000 1.35545e-13
  129 1779.43 0.00000 6.72204e-15
  130 1779.43 0.00000 -7.58438e-14
  131 1779.43 0.00000 -1.19431e-13
  132 1779.43 0.00000 -5.22206e-14
  133 1779.43 0.00000 5.61344e-13
  134 1779.43 0.00000 1.50658e-13
  135 1779.43 0.00000 1.87915e-13
  136 1779.43 0.00000 -7.65630e-14
  137 1779.43 0.00000 -1.45106e-13
  138 1779.43 0.00000 6.82308e-14
  139 1779.43 0.00000 3.80717e-14
  140 1779.43 0.00000 6.25106e-15
  141 1779.43 0.00000 2.31871e-13
  142 1779.43 0.00000 -2.85527e-13
  143 1779.43 0.00000 1.53643e-13
  144 1779.43 0.00000 -1.22333e-13
  145 1779.43 0.00000 -2.18965e-13
  146 1779.43 0.00000 1.29528e-13
  147 1779.43 0.00000 5.66349e-14
  148 1779.43 0.00000 2.34507e-15
  149 1779.43 0.00000 1.74560e-13
  150 1779.43 0.00000 2.27669e-13
  151 1779.43 0.00000 1.65965e-13
  152 1779.43 0.00000 1.24149e-13
  153 1779.43 0.00000 -2.29928e-13
  154 1779.43 0.00000 4.09944e-13
  155 1779.43 0.00000 -2.77678e-14
  156 1779.43 0.00000 1.04474e-13
  157 1779.43 0.00000 4.26791e-14
  158 1779.43 0.00000 3.99488e-13
  159 1779.43 0.00000 3.89541e-13
  160 1779.43 0.00000 -4.97545e-15
  161 1779.43 0.00000 1.28723e-13
  162 1779.43 0.00000 3.38050e-13
  163 1779.43 0.00000 8.53997e-14
  164 1779.43 0.00000 -2.39592e-13
  165 1779.43 0.00000 -1.63216e-13
  166 1779.43 0.00000 1.48984e-13
  167 1779.43 0.00000 5.72237e-13
  168 1779.43 0.00000 3.18046e-13
  169 1779.43 0.00000 -4.63736e-14
  170 1779.43 0.00000 2.28190e-13
  171 1779.43 0.00000 -2.26380e-13
  172 1779.43 0.00000 -4.19445e-14
  173 1779.43 0.00000 5.46867e-14
  174 1779.43 0.00000 1.17175e-13
  175 1779.43 0.00000 1.36806e-15
  176 1779.43 0.00000 4.99263e-14
  177 1779.43 0.00000 1.23873e-13
  178 1779.43 0.00000 5.70032e-14
  179 1779.43 0.00000 -5.31064e-16
  180 1779.43 0.00000 1.39733e-13
  181 1779.43 0.00000 5.24691e-13
  182 1779.43 0.00000 -3.38515e-13
  183 1779.43 0.00000 -3.11870e-14
  184 1779.43 0.00000 1.99034e-13
  185 1779.43 0.00000 -2.26544e-13
  186 1779.43 0.00000 2.34203e-13
  187 1779.43 0.00000 -3.54712e-13
  188 1779.43 0.00000 4.08607e-13
  189 1779.43 0.00000 1.40648e-13
  190 1779.43 0.00000 2.82809e-14
  191 1779.43 0.00000 1.89850e-13
  192 1779.43 0.00000 1.96763e-13
  193 1779.43 0.00000 -1.75418e-13
  194 1779.43 0.00000 5.78141e-13
  195 1779.43 0.00000 2.33810e-13
  196 1779.43 0.00000 2.34934e-13
  197 1779.43 0.00000 -1.99068e-13
  198 1779.43 0.00000 2.25361e-13
  199 1779.43 0.00000 -5.10267e-15
  200 1779.43 0.00000 5.88273e-13
  201 1779.43 0.00000 1.35420e-13
  202 1779.43 0.00000 2.07959e-13
  203 1779.43 0.00000 -7.79786e-15
  204 1779.43 0.00000 -1.06126e-13
  205 1779.43 0.00000 7.79520e-14
  206 1779.43 0.00000 4.33453e-13
  207 1779.43 0.00000 -3.08874e-15
  208 1779.43 0.00000 4.90797e-14
  209 1779.43 0.00000 6.12364e-13
  210 1779.43 0.00000 1.62326e-13
  211 1779.43 0.00000 1.04086e-13
  212 1779.43 0.00000 -1.70700e-13
  213 1779.43 0.00000 -1.37881e-13
  214 1779.43 0.00000 2.10219e-13
  215 1779.43 0.00000 3.11011e-14
  216 1779.43 0.00000 2.41767e-14
  217 1779.43 0.00000 1.46019e-13
  218 1779.43 0.00000 1.15183e-13
  219 1779.43 0.00000 5.79785e-13
  220 1779.43 0.00000 9.52954e-14
  221 1779.43 0.00000 1.85180e-13
  222 1779.43 0.00000 4.43951e-13
  223 1779.43 0.00000 -6.40523e-14
  224 1779.43 0.00000 -3.60766e-13
  225 1779.43 0.00000 -3.00002e-13
  226 1779.43 0.00000 -8.51001e-14
  227 1779.43 0.00000 -1.68857e-13
  228 1779.43 0.00000 -2.35901e-14
  229 1779.43 0.00000 -1.16147e-13
  230 1779.43 0.00000 8.29518e-14
  231 1779.43 0.00000 -2.75346e-13
  232 1779.43 0.00000 8.77284e-14
  233 1779.43 0.00000 4.08088e-14
  234 1779.43 0.00000 1.74387e-13
  235 1779.43 0.00000 -2.57460e-14
  236 1779.43 0.00000 -7.49019e-14
  237 1779.43 0.00000 4.62489e-14
  238 1779.43 0.00000 -1.32254e-13
  239 1779.43 0.00000 3.24626e-13
  240 1779.43 0.00000 -3.45941e-13
  241 1779.43 0.00000 2.82764e-13
</Section>

newXOutput 40

<Section columns = "stress_xx | stress_yy | stress_xy">
  1 1825.98 0.00000 7.53207e-16
  2 1825.98 0.00000 9.03011e-14
  3 1825.98 0.00000 -1.52582e-13
  4 1825.98 0.00000 -3.44063e-14
  5 1825.98 0.00000 1.76083e-13
  6 1825.98 0.00000 1.01499e-13
  7 1825.98 0.00000 1.74765e-13
  8 1825.98 0.00000 4.78024e-13
  9 1825.98 0.00000 3.98876e-13
  10 1825.98 0.00000 5.74959e-13
  11 1825.98 0.00000 2.82993e-13
  12 1825.98 0.00000 1.27867e-13
  13 1825.98 0.00000 3.30156e-13
  14 1825.98 0.00000 1.64098e-13
  15 1825.98 0.00000 -1.11558e-13
  16 1825.98 0.00000 2.32769e-13
  17 1825.98 0.00000 4.48598e-13
  18 1825.98 0.00000 5.09129e-13
  19 1825.98 0.00000 3.51162e-13
  20 1825.98 0.00000 -3.72792e-13
  21 1825.98 0.00000 -9.29635e-13
  22 1825.98 0.00000 4.32319e-13
  23 1825.98 0.00000 1.89478e-14
  24 1825.98 0.00000 -3.60636e-13
  25 1825.98 0.00000 -1.74577e-13
  26 1825.98 0.00000 1.17722e-13
  27 1825.98 0.00000 3.23737e-13
  28 1825.98 0.00000 -1.95813e-13
  29 1825.98 0.00000 5.88666e-14
  30 1825.98 0.00000 -4.82741e-14
  31 1825.98 0.00000 -9.81924e-13
  32 1825.98 0.00000 -1.53278e-12
  33 1825.98 0.00000 -2.20964e-13
  34 1825.98 0.00000 -4.94188e-13
  35 1825.98 0.00000 3.06754e-13
  36 1825.98 0.00000 9.88420e-13
  37 1825.98 0.00000 6.59677e-13
  38 1825.98 0.00000 8.91995e-13
  39 1825.98 0.00000 -1.35759e-13
  40 1825.98 0.00000 -4.03730e-13
  41 1825.98 0.00000 -7.99813e-14
  42 1825.98 0.00000 3.80020e-13
  43 1825.98 0.00000 2.16475e-13
  44 1825.98 0.00000 -4.16725e-14
  45 1825.98 0.00000 -1.25981e-13
  46 1825.98 0.00000 -5.61058e-14
  47 1825.98 0.00000 -1.22200e-13
  48 1825.98 0.00000 5.33403e-14
  49 1825.98 0.00000 -3.25419e-14
  50 1825.98 0.00000 9.81110e-15
  51 1825.98 0.00000 -2.94333e-14
  52 1825.98 0.00000 2.04318e-14
  53 1825.98 0.00000 4.77636e-15
  54 1825.98 0.00000 -3.12406e-14
  55 1825.98 0.00000 -2.94333e-14
  56 1825.98 0.00000 -8.26769e-14
  57 1825.98 0.00000 1.96831e-14
  58 1825.98 0.00000 -3.18329e-13
  59 1825.98 0.00000 -2.80332e-13
  60 1825.98 0.00000 -5.75572e-13
  61 1825.98 0.00000 -1.83630e-15
  62 1825.98 0.00000 -5.03822e-14
  63 1825.98 0.00000 2.46417e-13
  64 1825.98 0.00000 5.87983e-14
  65 1825.98 0.00000 2.36601e-13
  66 1825.98 0.00000 1.86145e-13
  67 1825.98 0.00000 6.24431e-13
  68 1825.98 0.00000 3.34060e-14
  69 1825.98 0.00000 -3.21270e-13
  70 1825.98 0.00000 -1.38442e-13
  71 1825.98 0.00000 1.73094e-14
  72 1825.98 0.00000 -3.35635e-13
  73 1825.98 0.00000 -2.33951e-13
  74 1825.98 0.00000 1.38354e-13
  75 1825.98 0.00000 5.51224e-15
  76 1825.98 0.00000 2.84414e-13
  77 1825.98 0.00000 -5.41102e-15
  78 1825.98 0.00000 -5.63730e-13
  79 1825.98 0.00000 -3.99652e-14
  80 1825.98 0.00000 -2.57186e-13
  81 1825.98 0.00000 -4.04979e-13
  82 1825.98 0.00000 -2.68267e-13
  83 1825.98 0.00000 -5.61770e-14
  84 1825.98 0.00000 -1.42670e-13
  85 1825.98 0.00000 1.20870e-13
  86 1825.98 0.00000 -5.95287e-13
  87 1825.98 0.00000 -3.31810e-14
  88 1825.98 0.00000 -5.02092e-13
  89 1825.98 0.00000 -2.54879e-13
  90 1825.98 0.00000 -2.03057e-13
  91 1825.98 0.00000 1.72739e-13
  92 1825.98 0.00000 -1.74018e-13
  93 1825.98 0.00000 -4.68836e-13
  94 1825.98 0.00000 -2.48457e-13
  95 1825.98 0.00000 -1.82021e-13
  96 1825.98 0.00000 -1.05240e-13
  97 1825.98 0.00000 2.22070e-13
  98 1825.98 0.00000 1.44688e-13
  99 1825.98 0.00000 7.46084e-14
  100 1825.98 0.00000 2.09264e-13
  101 1825.98 0.00000 -6.84230e-14
  102 1825.98 0.00000 -5.19880e-13
  103 1825.98 0.00000 6.83139e-13
  104 1825.98 0.00000 -1.40918e-13
  105 1825.98 0.00000 -3.22939e-13
  106 1825.98 0.00000 1.09836e-13
  107 1825.98 0.00000 3.81596e-13
  108 1825.98 0.00000 -2.97288e-14
  109 1825.98 0.00000 -9.21552e-14
  110 1825.98 0.00000 -1.32101e-13
  111 1825.98 0.00000 -2.02421e-13
  112 1825.98 0.00000 1.32428e-13
  113 1825.98 0.00000 -2.37835e-13
  114 1825.98 0.00000 -1.49929e-15
  115 1825.98 0.00000 1.18810e-13
  116 1825.98 0.00000 -2.03701e-13
  117 1825.98 0.00000 -1.66107e-13
  118 1825.98 0.00000 -1.23778e-13
  119 1825.98 0.00000 7.37979e-14
  120 1825.98 0.00000 -2.63769e-13
  121 1825.98 0.00000 -3.94040e-14
  122 1825.98 0.00000 -2.81786e-13
  123 1825.98 0.00000 -2.09625e-13
  124 1825.98 0.00000 -3.98412e-13
  125 1825.98 0.00000 6.99067e-14
  126 1825.98 0.00000 3.14259e-14
  127 1825.98 0.00000 -9.26180e-14
  128 1825.98 0.00000 3.91631e-13
  129 1825.98 0.00000 2.35451e-13
  130 1825.98 0.00000 -1.39163e-13
  131 1825.98 0.00000 3.06968e-14
  132 1825.98 0.00000 -2.54866e-13
  133 1825.98 0.00000 -6.72730e-14
  134 1825.98 0.00000 1.06284e-13
  135 1825.98 0.00000 -2.24886e-13
  136 1825.98 0.00000 -9.60894e-14
  137 1825.98 0.00000 1.88387e-13
  138 1825.98 0.00000 -2.74879e-13
  139 1825.98 0.00000 -2.48841e-14
  140 1825.98 0.00000 2.37658e-13
  141 1825.98 0.00000 -8.39286e-14
  142 1825.98 0.00000 3.21617e-14
  143 1825.98 0.00000 -1.55041e-13
  144 1825.98 0.00000 -9.94712e-14
  145 1825.98 0.00000 -4.72712e-13
  146 1825.98 0.00000 3.73506e-14
  147 1825.98 0.00000 -3.62145e-13
  148 1825.98 0.00000 1.34827e-15
  149 1825.98 0.00000 -1.24800e-13
  150 1825.98 0.00000 -9.52907e-14
  151 1825.98 0.00000 -2.82420e-13
  152 1825.98 0.00000 -1.51878e-13
  153 1825.98 0.00000 -6.49124e-14
  154 1825.98 0.00000 -3.27083e-14
  155 1825.98 0.00000 -4.36459e-13
  156 1825.98 0.00000 3.35384e-13
  157 1825.98 0.00000 -1.17438e-13
  158 1825.98 0.00000 -2.61561e-13
  159 1825.98 0.00000 -1.48325e-13
  160 1825.98 0.00000 -3.72819e-14
  161 1825.98 0.00000 3.04317e-14
  162 1825.98 0.00000 1.08218e-13
  163 1825.98 0.00000 -3.09695e-13
  164 1825.98 0.00000 5.59710e-14
  165 1825.98 0.00000 4.67636e-14
  166 1825.98 0.00000 4.57069e-14
  167 1825.98 0.00000 -8.37998e-14
  168 1825.98 0.00000 1.45626e-13
  169 1825.98 0.00000 -2.21993e-14
  170 1825.98 0.00000 3.48921e-13
  171 1825.98 0.00000 2.24938e-13
  172 1825.98 0.00000 4.18042e-14
  173 1825.98 0.00000 2.43538e-14
  174 1825.98 0.00000 -2.63748e-13
  175 1825.98 0.00000 -3.26443e-14
  176 1825.98 0.00000 -1.26529e-13
  177 1825.98 0.00000 -5.59154e-13
  178 1825.98 0.00000 2.69636e-13
  179 1825.98 0.00000 6.46455e-14
  180 1825.98 0.00000 9.34673e-15
  181 1825.98 0.00000 -2.02314e-13
  182 1825.98 0.00000 5.31471e-14
  183 1825.98 0.00000 -1.10303e-13
  184 1825.98 0.00000 3.43469e-13
  185 1825.98 0.00000 2.66559e-13
  186 1825.98 0.00000 5.11205e-14
  187 1825.98 0.00000 -8.37088e-13
  188 1825.98 0.00000 -1.15919e-13
  189 1825.98 0.00000 7.99513e-14
  190 1825.98 0.00000 -6.89049e-14
  191 1825.98 0.00000 2.88501e-13
  192 1825.98 0.00000 3.11339e-13
  193 1825.98 0.00000 3.78049e-13
  194 1825.98 0.00000 -1.78095e-13
  195 1825.98 0.00000 1.92236e-13
  196 1825.98 0.00000 2.08054e-13
  197 1825.98 0.00000 1.12976e-13
  198 1825.98 0.00000 1.64945e-16
  199 1825.98 0.00000 -2.62360e-13
  200 1825.98 0.00000 -4.49556e-13
  201 1825.98 0.00000 -1.40318e-14
  202 1825.98 0.00000 -1.84960e-13
  203 1825.98 0.00000 -1.03967e-13
  204 1825.98 0.00000 -8.78194e-14
  205 1825.98 0.00000 1.07115e-13
  206 1825.98 0.00000 -3.30027e-13
  207 1825.98 0.00000 2.30954e-13
  208 1825.98 0.00000 -6.51721e-13
  209 1825.98 0.00000 -3.10031e-13
  210 1825.98 0.00000 1.34956e-14
  211 1825.98 0.00000 -1.69503e-13
  212 1825.98 0.00000 -1.22458e-13
  213 1825.98 0.00000 1.70685e-16
  214 1825.98 0.00000 -5.87764e-14
  215 1825.98 0.00000 -2.23271e-13
  216 1825.98 0.00000 -3.14512e-13
  217 1825.98 0.00000 -9.30295e-14
  218 1825.98 0.00000 2.96492e-13
  219 1825.98 0.00000 -8.70307e-14
  220 1825.98 0.00000 -1.24933e-13
  221 1825.98 0.00000 2.63511e-13
  222 1825.98 0.00000 -4.64147e-13
  223 1825.98 0.00000 7.93014e-15
  224 1825.98 0.00000 -1.52536e-13
  225 1825.98 0.00000 4.06282e-13
  226 1825.98 0.00000 1.28568e-13
  227 1825.98 0.00000 6.92007e-14
  228 1825.98 0.00000 5.58737e-13
  229 1825.98 0.00000 -2.62058e-14
  230 1825.98 0.00000 2.79512e-13
  231 1825.98 0.00000 5.68434e-15
  232 1825.98 0.00000 -3.79284e-13
  233 1825.98 0.00000 -2.28924e-14
  234 1825.98 0.00000 -2.97855e-13
  235 1825.98 0.00000 -9.59952e-15
  236 1825.98 0.00000 -3.59681e-14
  237 1825.98 0.00000 1.17889e-13
  238 1825.98 0.00000 1.75584e-13
  239 1825.98 0.00000 -3.24830e-13
  240 1825.98 0.00000 5.65019e-13
  241 1825.98 0.00000 1.97931e-13
</Section>

newXOutput 41

<Section columns = "stress_xx | stress_yy | stress_xy">
  1 1872.53 0.00000 -4.71773e-14
  2 1872.53 0.00000 -1.73311e-13
  3 1872.53 0.00000 -3.05610e-13
  4 1872.53 0.00000 -1.49856e-14
  5 1872.53 0.00000 -2.81339e-13
  6 1872.53 0.00000 -2.64586e-13
  7 1872.53 0.00000 -9.05051e-14
  8 1872.53 0.00000 -2.86564e-13
  9 1872.53 0.00000 -1.86328e-13
  10 1872.53 0.00000 2.33135e-13
  11 1872.53 0.00000 2.46715e-13
  12 1872.53 0.00000 1.38595e-13
  13 1872.53 0.00000 2.04390e-13
  14 1872.53 0.00000 -1.69997e-13
  15 1872.53 0.00000 -6.76864e-14
  16 1872.53 0.00000 -8.02156e-13
  17 1872.53 0.00000 -8.34684e-13
  18 1872.53 0.00000 6.34213e-13
  19 1872.53 0.00000 6.36266e-13
  20 1872.53 0.00000 1.86891e-13
  21 1872.53 0.00000 -1.19647e-13
  22 1872.53 0.00000 -4.37848e-13
  23 1872.53 0.00000 -5.73128e-13
  24 1872.53 0.00000 -1.34952e-13
  25 1872.53 0.00000 0.00000
  26 1872.53 0.00000 5.00470e-14
  27 1872.53 0.00000 -2.31082e-13
  28 1872.53 0.00000 -4.69674e-14
  29 1872.53 0.00000 2.91169e-14
  30 1872.53 0.00000 -4.36785e-14
  31 1872.53 0.00000 7.78535e-14
  32 1872.53 0.00000 -1.36420e-13
  33 1872.53 0.00000 -1.43745e-13
  34 1872.53 0.00000 -2.21070e-13
  35 1872.53 0.00000 9.92602e-14
  36 1872.53 0.00000 -5.00184e-13
  37 1872.53 0.00000 -1.96758e-13
  38 1872.53 0.00000 2.27550e-13
  39 1872.53 0.00000 -3.75779e-14
  40 1872.53 0.00000 1.90828e-13
  41 1872.53 0.00000 3.90606e-13
  42 1872.53 0.00000 4.05927e-13
  43 1872.53 0.00000 1.79662e-13
  44 1872.53 0.00000 4.08316e-13
  45 1872.53 0.00000 4.38883e-13
  46 1872.53 0.00000 4.13927e-14
  47 1872.53 0.00000 -3.89072e-13
  48 1872.53 0.00000 -1.85970e-13
  49 1872.53 0.00000 1.08892e-14
  50 1872.53 0.00000 1.40950e-14
  51 1872.53 0.00000 1.44194e-13
  52 1872.53 0.00000 6.35568e-14
  53 1872.53 0.00000 -2.21234e-13
  54 1872.53 0.00000 1.93191e-13
  55 1872.53 0.00000 0.00000
  56 1872.53 0.00000 8.38567e-14
  57 1872.53 0.00000 -4.07748e-14
  58 1872.53 0.00000 -5.00146e-13
  59 1872.53 0.00000 -3.72581e-14
  60 1872.53 0.00000 2.67769e-13
  61 1872.53 0.00000 -3.03340e-14
  62 1872.53 0.00000 -1.39853e-13
  63 1872.53 0.00000 1.46459e-13
  64 1872.53 0.00000 -1.23123e-13
  65 1872.53 0.00000 5.18657e-14
  66 1872.53 0.00000 2.66559e-13
  67 1872.53 0.00000 1.89221e-14
  68 1872.53 0.00000 7.31910e-14
  69 1872.53 0.00000 -4.28953e-14
  70 1872.53 0.00000 1.25808e-13
  71 1872.53 0.00000 -2.22332e-13
  72 1872.53 0.00000 2.91615e-15
  73 1872.53 0.00000 7.03160e-14
  74 1872.53 0.00000 1.37152e-13
  75 1872.53 0.00000 8.00474e-14
  76 1872.53 0.00000 3.16873e-13
  77 1872.53 0.00000 -3.49398e-13
  78 1872.53 0.00000 -4.37027e-14
  79 1872.53 0.00000 8.66251e-14
  80 1872.53 0.00000 9.24191e-14
  81 1872.53 0.00000 2.13863e-13
  82 1872.53 0.00000 -5.35385e-15
  83 1872.53 0.00000 -9.33314e-15
  84 1872.53 0.00000 -4.80433e-14
  85 1872.53 0.00000 5.49707e-14
  86 1872.53 0.00000 5.52458e-13
  87 1872.53 0.00000 5.96598e-14
  88 1872.53 0.00000 1.36486e-15
  89 1872.53 0.00000 -1.78925e-14
  90 1872.53 0.00000 2.33676e-14
  91 1872.53 0.00000 1.69000e-13
  92 1872.53 0.00000 4.48780e-15
  93 1872.53 0.00000 1.05107e-13
  94 1872.53 0.00000 -5.00782e-13
  95 1872.53 0.00000 1.71622e-14
  96 1872.53 0.00000 1.34611e-14
  97 1872.53 0.00000 4.88210e-13
  98 1872.53 0.00000 2.16708e-13
  99 1872.53 0.00000 1.01098e-13
  100 1872.53 0.00000 2.57531e-13
  101 1872.53 0.00000 -3.48804e-14
  102 1872.53 0.00000 4.30841e-13
  103 1872.53 0.00000 4.23829e-13
  104 1872.53 0.00000 -4.10176e-14
  105 1872.53 0.00000 -1.91383e-13
  106 1872.53 0.00000 1.27884e-13
  107 1872.53 0.00000 -1.16941e-13
  108 1872.53 0.00000 8.26426e-14
  109 1872.53 0.00000 4.71411e-13
  110 1872.53 0.00000 6.30531e-14
  111 1872.53 0.00000 -1.03319e-13
  112 1872.53 0.00000 2.11064e-13
  113 1872.53 0.00000 -5.65255e-14
  114 1872.53 0.00000 -9.48888e-15
  115 1872.53 0.00000 3.87859e-13
  116 1872.53 0.00000 -1.29102e-13
  117 1872.53 0.00000 1.55182e-13
  118 1872.53 0.00000 -1.28476e-15
  119 1872.53 0.00000 -3.68991e-14
  120 1872.53 0.00000 2.41581e-13
  121 1872.53 0.00000 -2.00221e-13
  122 1872.53 0.00000 3.85580e-14
  123 1872.53 0.00000 1.42523e-13
  124 1872.53 0.00000 2.05038e-13
  125 1872.53 0.00000 4.83292e-15
  126 1872.53 0.00000 -1.31523e-13
  127 1872.53 0.00000 1.22400e-14
  128 1872.53 0.00000 3.05131e-13
  129 1872.53 0.00000 1.20193e-13
  130 1872.53 0.00000 -1.30288e-13
  131 1872.53 0.00000 1.19526e-13
  132 1872.53 0.00000 -3.02782e-14
  133 1872.53 0.00000 -3.86101e-13
  134 1872.53 0.00000 -8.97573e-14
  135 1872.53 0.00000 7.52967e-14
  136 1872.53 0.00000 4.95614e-14
  137 1872.53 0.00000 4.52626e-13
  138 1872.53 0.00000 -8.11479e-14
  139 1872.53 0.00000 3.03152e-14
  140 1872.53 0.00000 1.41193e-13
  141 1872.53 0.00000 2.53129e-13
  142 1872.53 0.00000 1.33002e-14
  143 1872.53 0.00000 -8.60770e-14
  144 1872.53 0.00000 -1.13957e-13
  145 1872.53 0.00000 -7.96508e-14
  146 1872.53 0.00000 -9.63956e-15
  147 1872.53 0.00000 1.23437e-14
  148 1872.53 0.00000 -3.02547e-13
  149 1872.53 0.00000 -5.28519e-13
  150 1872.53 0.00000 3.00760e-13
  151 1872.53 0.00000 -1.66819e-14
  152 1872.53 0.00000 2.10013e-13
  153 1872.53 0.00000 2.89832e-13
  154 1872.53 0.00000 4.09282e-13
  155 1872.53 0.00000 -4.38761e-14
  156 1872.53 0.00000 -9.58347e-14
  157 1872.53 0.00000 -4.47927e-14
  158 1872.53 0.00000 4.19815e-13
  159 1872.53 0.00000 6.26442e-14
  160 1872.53 0.00000 -2.92893e-13
  161 1872.53 0.00000 3.49981e-14
  162 1872.53 0.00000 8.77624e-14
  163 1872.53 0.00000 1.98254e-13
  164 1872.53 0.00000 2.42195e-14
  165 1872.53 0.00000 3.60696e-14
  166 1872.53 0.00000 1.29734e-13
  167 1872.53 0.00000 -5.57568e-14
  168 1872.53 0.00000 2.17807e-13
  169 1872.53 0.00000 2.15229e-13
  170 1872.53 0.00000 7.08633e-14
  171 1872.53 0.00000 1.26006e-13
  172 1872.53 0.00000 -1.42395e-13
  173 1872.53 0.00000 8.51425e-14
  174 1872.53 0.00000 2.59618e-13
  175 1872.53 0.00000 -4.88367e-14
  176 1872.53 0.00000 -1.26698e-14
  177 1872.53 0.00000 -1.49563e-13
  178 1872.53 0.00000 7.59925e-14
  179 1872.53 0.00000 -1.46741e-13
  180 1872.53 0.00000 1.47692e-13
  181 1872.53 0.00000 3.87687e-13
  182 1872.53 0.00000 3.33656e-14
  183 1872.53 0.00000 2.41931e-13
  184 1872.53 0.00000 -7.82420e-13
  185 1872.53 0.00000 1.99648e-13
  186 1872.53 0.00000 -2.98491e-13
  187 1872.53 0.00000 1.79611e-13
  188 1872.53 0.00000 -9.10396e-14
  189 1872.53 0.00000 2.98976e-14
  190 1872.53 0.00000 2.60689e-14
  191 1872.53 0.00000 -2.37508e-14
  192 1872.53 0.00000 4.49018e-13
  193 1872.53 0.00000 -9.79676e-14
  194 1872.53 0.00000 -2.67573e-13
  195 1872.53 0.00000 1.60735e-13
  196 1872.53 0.00000 6.35031e-14
  197 1872.53 0.00000 2.98626e-13
  198 1872.53 0.00000 1.07093e-13
  199 1872.53 0.00000 -1.22799e-13
  200 1872.53 0.00000 -4.42282e-13
  201 1872.53 0.00000 2.39110e-13
  202 1872.53 0.00000 8.80265e-14
  203 1872.53 0.00000 -1.36073e-13
  204 1872.53 0.00000 4.95587e-14
  205 1872.53 0.00000 1.77200e-14
  206 1872.53 0.00000 6.11764e-14
  207 1872.53 0.00000 -8.49468e-14
  208 1872.53 0.00000 -1.49432e-14
  209 1872.53 0.00000 5.45878e-13
  210 1872.53 0.00000 2.01589e-13
  211 1872.53 0.00000 -8.11961e-14
  212 1872.53 0.00000 3.05579e-13
  213 1872.53 0.00000 -8.84077e-14
  214 1872.53 0.00000 -7.16963e-14
  215 1872.53 0.00000 2.37078e-13
  216 1872.53 0.00000 -2.94906e-14
  217 1872.53 0.00000 3.11764e-13
  218 1872.53 0.00000 1.96737e-13
  219 1872.53 0.00000 1.16921e-13
  220 1872.53 0.00000 1.73849e-13
  221 1872.53 0.00000 3.54997e-13
  222 1872.53 0.00000 -3.84501e-14
  223 1872.53 0.00000 8.53810e-14
  224 1872.53 0.00000 -1.55925e-14
  225 1872.53 0.00000 -1.20422e-13
  226 1872.53 0.00000 2.42385e-13
  227 1872.53 0.00000 7.05316e-14
  228 1872.53 0.00000 5.49922e-13
  229 1872.53 0.00000 5.10909e-14
  230 1872.53 0.00000 -2.88852e-14
  231 1872.53 0.00000 -1.57689e-13
  232 1872.53 0.00000 -2.90507e-13
  233 1872.53 0.00000 2.49580e-13
  234 1872.53 0.00000 -1.39160e-13
  235 1872.53 0.00000 4.22732e-14
  236 1872.53 0.00000 -5.62823e-14
  237 1872.53 0.00000 6.82546e-14
  238 1872.53 0.00000 2.27181e-13
  239 1872.53 0.00000 1.38057e-13
  240 1872.53 0.00000 5.30126e-13
  241 1872.53 0.00000 -2.45688e-13
</Section>

newXOutput 42

<Section columns = "stress_xx | stress_yy | stress_xy">
  1 1919.09 0.00000 -2.27590e-13
  2 1919.09 0.00000 0.00000
  3 1919.09 0.00000 -2.28341e-13
  4 1919.09 0.00000 -3.32155e-14
  5 1919.09 0.00000 -1.87728e-13
  6 1919.09 0.00000 -1.18822e-14
  7 1919.09 0.00000 1.16432e-15
  8 1919.09 0.00000 -1.71885e-13
  9 1919.09 0.00000 1.13144e-13
  10 1919.09 0.00000 5.36316e-13
  11 1919.09 0.00000 3.00713e-13
  12 1919.09 0.00000 -1.99943e-13
  13 1919.09 0.00000 -3.14194e-13
  14 1919.09 0.00000 -2.29234e-13
  15 1919.09 0.00000 -2.36698e-13
  16 1919.09 0.00000 2.35603e-13
  17 1919.09 0.00000 5.31658e-13
  18 1919.09 0.00000 -8.27581e-14
  19 1919.09 0.00000 -6.71512e-13
  20 1919.09 0.00000 4.87141e-13
  21 1919.09 0.00000 2.83477e-13
  22 1919.09 0.00000 -5.73164e-13
  23 1919.09 0.00000 -1.22459e-13
  24 1919.09 0.00000 -1.78254e-13
  25 1919.09 0.00000 0.00000
  26 1919.09 0.00000 -6.03717e-13
  27 1919.09 0.00000 4.04257e-13
  28 1919.09 0.00000 -3.33050e-13
  29 1919.09 0.00000 1.44002e-14
  30 1919.09 0.00000 8.37485e-14
  31 1919.09 0.00000 -2.37114e-13
  32 1919.09 0.00000 -2.84920e-13
  33 1919.09 0.00000 -6.62654e-14
  34 1919.09 0.00000 -7.51020e-13
  35 1919.09 0.00000 -6.19677e-13
  36 1919.09 0.00000 6.42710e-13
  37 1919.09 0.00000 -4.05792e-14
  38 1919.09 0.00000 7.58222e-14
  39 1919.09 0.00000 -3.59687e-13
  40 1919.09 0.00000 -7.04185e-13
  41 1919.09 0.00000 -3.22400e-13
  42 1919.09 0.00000 3.15778e-13
  43 1919.09 0.00000 1.59794e-13
  44 1919.09 0.00000 7.57548e-14
  45 1919.09 0.00000 -2.26310e-13
  46 1919.09 0.00000 -3.74955e-13
  47 1919.09 0.00000 -4.28788e-13
  48 1919.09 0.00000 -3.42195e-13
  49 1919.09 0.00000 -8.82335e-14
  50 1919.09 0.00000 -2.12752e-14
  51 1919.09 0.00000 0.00000
  52 1919.09 0.00000 1.19064e-14
  53 1919.09 0.00000 -2.06152e-13
  54 1919.09 0.00000 7.49258e-14
  55 1919.09 0.00000 -5.76006e-14
  56 1919.09 0.00000 2.77003e-14
  57 1919.09 0.00000 -1.00514e-13
  58 1919.09 0.00000 2.68499e-13
  59 1919.09 0.00000 2.06409e-13
  60 1919.09 0.00000 -4.16701e-13
  61 1919.09 0.00000 -1.64123e-13
  62 1919.09 0.00000 -2.70343e-13
  63 1919.09 0.00000 8.34711e-13
  64 1919.09 0.00000 6.18583e-13
  65 1919.09 0.00000 -2.76097e-13
  66 1919.09 0.00000 1.10593e-13
  67 1919.09 0.00000 -3.85592e-15
  68 1919.09 0.00000 -1.76341e-13
  69 1919.09 0.00000 -3.85407e-13
  70 1919.09 0.00000 -2.51317e-14
  71 1919.09 0.00000 -1.30028e-13
  72 1919.09 0.00000 9.77742e-14
  73 1919.09 0.00000 2.71394e-13
  74 1919.09 0.00000 -7.03666e-14
  75 1919.09 0.00000 -2.24980e-13
  76 1919.09 0.00000 2.80602e-13
  77 1919.09 0.00000 -2.94946e-13
  78 1919.09 0.00000 1.46371e-14
  79 1919.09 0.00000 -3.88608e-14
  80 1919.09 0.00000 -2.32795e-13
  81 1919.09 0.00000 -2.24181e-13
  82 1919.09 0.00000 2.60913e-13
  83 1919.09 0.00000 3.95555e-14
  84 1919.09 0.00000 1.15239e-13
  85 1919.09 0.00000 1.53478e-13
  86 1919.09 0.00000 -6.31749e-13
  87 1919.09 0.00000 -1.45348e-14
  88 1919.09 0.00000 -3.61955e-13
  89 1919.09 0.00000 9.79877e-14
  90 1919.09 0.00000 -3.73523e-13
  91 1919.09 0.00000 -1.56525e-13
  92 1919.09 0.00000 8.33779e-15
  93 1919.09 0.00000 -4.86477e-14
  94 1919.09 0.00000 6.63607e-14
  95 1919.09 0.00000 -2.64874e-13
  96 1919.09 0.00000 2.15371e-14
  97 1919.09 0.00000 -6.28655e-13
  98 1919.09 0.00000 1.59947e-13
  99 1919.09 0.00000 -1.43371e-14
  100 1919.09 0.00000 2.47517e-14
  101 1919.09 0.00000 4.01516e-14
  102 1919.09 0.00000 3.13386e-13
  103 1919.09 0.00000 -4.84880e-14
  104 1919.09 0.00000 -1.83869e-13
  105 1919.09 0.00000 -6.03028e-14
  106 1919.09 0.00000 -3.53038e-14
  107 1919.09 0.00000 -4.77971e-15
  108 1919.09 0.00000 6.49257e-14
  109 1919.09 0.00000 2.55676e-13
  110 1919.09 0.00000 -2.83720e-13
  111 1919.09 0.00000 -2.60072e-13
  112 1919.09 0.00000 2.64700e-14
  113 1919.09 0.00000 1.65934e-14
  114 1919.09 0.00000 5.33053e-14
  115 1919.09 0.00000 1.37703e-13
  116 1919.09 0.00000 -3.53404e-14
  117 1919.09 0.00000 6.13015e-13
  118 1919.09 0.00000 -2.61678e-13
  119 1919.09 0.00000 7.54748e-14
  120 1919.09 0.00000 -4.52619e-13
  121 1919.09 0.00000 1.18744e-13
  122 1919.09 0.00000 -2.08324e-13
  123 1919.09 0.00000 1.30589e-15
  124 1919.09 0.00000 -1.67111e-13
  125 1919.09 0.00000 -1.52165e-13
  126 1919.09 0.00000 2.85427e-14
  127 1919.09 0.00000 2.64242e-13
  128 1919.09 0.00000 -1.22950e-13
  129 1919.09 0.00000 -1.17692e-13
  130 1919.09 0.00000 -1.37117e-13
  131 1919.09 0.00000 -9.39537e-14
  132 1919.09 0.00000 -1.55698e-13
  133 1919.09 0.00000 1.30222e-13
  134 1919.09 0.00000 -1.77731e-13
  135 1919.09 0.00000 -4.77501e-13
  136 1919.09 0.00000 -7.81067e-14
  137 1919.09 0.00000 7.47865e-14
  138 1919.09 0.00000 1.28585e-13
  139 1919.09 0.00000 -2.13351e-13
  140 1919.09 0.00000 -3.48661e-13
  141 1919.09 0.00000 -6.42233e-14
  142 1919.09 0.00000 2.54896e-14
  143 1919.09 0.00000 -2.12123e-13
  144 1919.09 0.00000 3.76961e-13
  145 1919.09 0.00000 -2.45835e-13
  146 1919.09 0.00000 -1.97572e-14
  147 1919.09 0.00000 -2.23661e-13
  148 1919.09 0.00000 -2.68221e-13
  149 1919.09 0.00000 2.57781e-13
  150 1919.09 0.00000 2.34983e-13
  151 1919.09 0.00000 -6.04531e-14
  152 1919.09 0.00000 3.94078e-13
  153 1919.09 0.00000 1.03112e-13
  154 1919.09 0.00000 1.47948e-13
  155 1919.09 0.00000 -4.32410e-13
  156 1919.09 0.00000 7.30598e-13
  157 1919.09 0.00000 -5.10889e-14
  158 1919.09 0.00000 -7.75879e-13
  159 1919.09 0.00000 3.58473e-13
  160 1919.09 0.00000 -2.82291e-13
  161 1919.09 0.00000 2.47050e-13
  162 1919.09 0.00000 4.39954e-14
  163 1919.09 0.00000 -4.93447e-13
  164 1919.09 0.00000 2.28210e-13
  165 1919.09 0.00000 1.42452e-13
  166 1919.09 0.00000 7.07707e-14
  167 1919.09 0.00000 -5.05945e-13
  168 1919.09 0.00000 -9.12909e-14
  169 1919.09 0.00000 1.58010e-13
  170 1919.09 0.00000 -4.88948e-14
  171 1919.09 0.00000 -1.49307e-13
  172 1919.09 0.00000 -4.53747e-13
  173 1919.09 0.00000 -1.12359e-13
  174 1919.09 0.00000 -6.05672e-13
  175 1919.09 0.00000 -2.87829e-14
  176 1919.09 0.00000 -1.03489e-14
  177 1919.09 0.00000 2.66456e-14
  178 1919.09 0.00000 -1.73868e-13
  179 1919.09 0.00000 -5.66271e-14
  180 1919.09 0.00000 -9.89766e-14
  181 1919.09 0.00000 -1.64511e-13
  182 1919.09 0.00000 1.61859e-13
  183 1919.09 0.00000 -1.89013e-13
  184 1919.09 0.00000 3.86881e-13
  185 1919.09 0.00000 2.37155e-13
  186 1919.09 0.00000 -3.59349e-13
  187 1919.09 0.00000 -2.25748e-14
  188 1919.09 0.00000 2.49383e-13
  189 1919.09 0.00000 2.79463e-13
  190 1919.09 0.00000 -1.64174e-13
  191 1919.09 0.00000 -1.27744e-13
  192 1919.09 0.00000 9.26898e-14
  193 1919.09 0.00000 -3.39516e-13
  194 1919.09 0.00000 3.11232e-13
  195 1919.09 0.00000 6.22218e-14
  196 1919.09 0.00000 -4.43968e-13
  197 1919.09 0.00000 2.68969e-13
  198 1919.09 0.00000 7.01328e-14
  199 1919.09 0.00000 -1.74139e-13
  200 1919.09 0.00000 -3.16638e-13
  201 1919.09 0.00000 -2.32286e-13
  202 1919.09 0.00000 3.35192e-13
  203 1919.09 0.00000 -2.27111e-13
  204 1919.09 0.00000 -7.79329e-14
  205 1919.09 0.00000 -4.33993e-14
  206 1919.09 0.00000 1.34588e-14
  207 1919.09 0.00000 -2.60543e-13
  208 1919.09 0.00000 -4.70597e-13
  209 1919.09 0.00000 5.81875e-14
  210 1919.09 0.00000 9.76085e-14
  211 1919.09 0.00000 -5.86995e-15
  212 1919.09 0.00000 -7.36217e-13
  213 1919.09 0.00000 -1.23684e-13
  214 1919.09 0.00000 -1.94091e-13
  215 1919.09 0.00000 5.90634e-14
  216 1919.09 0.00000 -3.45394e-13
  217 1919.09 0.00000 3.58742e-14
  218 1919.09 0.00000 7.65227e-14
  219 1919.09 0.00000 1.99591e-13
  220 1919.09 0.00000 -1.63926e-13
  221 1919.09 0.00000 -3.03693e-14
  222 1919.09 0.00000 7.74161e-13
  223 1919.09 0.00000 6.47494e-14
  224 1919.09 0.00000 -3.31295e-13
  225 1919.09 0.00000 3.27212e-13
  226 1919.09 0.00000 -7.18593e-14
  227 1919.09 0.00000 -9.25176e-14
  228 1919.09 0.00000 6.82366e-14
  229 1919.09 0.00000 -1.20518e-13
  230 1919.09 0.00000 -1.83197e-13
  231 1919.09 0.00000 4.58418e-13
  232 1919.09 0.00000 -3.81728e-13
  233 1919.09 0.00000 8.07316e-13
  234 1919.09 0.00000 -3.51378e-13
  235 1919.09 0.00000 -2.78989e-13
  236 1919.09 0.00000 9.83582e-14
  237 1919.09 0.00000 9.16749e-14
  238 1919.09 0.00000 -6.89693e-14
  239 1919.09 0.00000 6.79361e-13
  240 1919.09 0.00000 -2.42260e-13
  241 1919.09 0.00000 -1.60812e-13
</Section>

newXOutput 43

<Section columns = "stress_xx | stress_yy | stress_xy">
  1 1965.65 0.00000 -1.86492e-13
  2 1965.65 0.00000 9.64231e-13
  3 1965.65 0.00000 -2.42729e-13
  4 1965.65 0.00000 -5.17469e-15
  5 1965.65 0.00000 -1.32684e-13
  6 1965.65 0.00000 1.80136e-13
  7 1965.65 0.00000 2.25950e-13
  8 1965.65 0.00000 5.27661e-14
  9 1965.65 0.00000 -6.23942e-15
  10 1965.65 0.00000 2.38102e-13
  11 1965.65 0.00000 4.15962e-15
  12 1965.65 0.00000 -5.20650e-13
  13 1965.65 0.00000 -4.25297e-13
  14 1965.65 0.00000 6.10853e-14
  15 1965.65 0.00000 4.39421e-13
  16 1965.65 0.00000 5.45608e-13
  17 1965.65 0.00000 8.42715e-13
  18 1965.65 0.00000 -1.18011e-13
  19 1965.65 0.00000 -8.30236e-13
  20 1965.65 0.00000 -4.17469e-13
  21 1965.65 0.00000 -4.63725e-13
  22 1965.65 0.00000 2.73959e-13
  23 1965.65 0.00000 4.61645e-13
  24 1965.65 0.00000 1.13851e-13
  25 1965.65 0.00000 1.99260e-13
  26 1965.65 0.00000 -1.33294e-14
  27 1965.65 0.00000 2.37197e-13
  28 1965.65 0.00000 4.30503e-13
  29 1965.65 0.00000 5.69668e-14
  30 1965.65 0.00000 3.15497e-13
  31 1965.65 0.00000 -2.92356e-13
  32 1965.65 0.00000 8.25821e-14
  33 1965.65 0.00000 6.76598e-14
  34 1965.65 0.00000 -1.84942e-13
  35 1965.65 0.00000 -1.70220e-13
  36 1965.65 0.00000 -3.17180e-14
  37 1965.65 0.00000 3.49676e-13
  38 1965.65 0.00000 1.81626e-13
  39 1965.65 0.00000 1.14952e-13
  40 1965.65 0.00000 -4.17394e-13
  41 1965.65 0.00000 -4.16613e-13
  42 1965.65 0.00000 2.05312e-13
  43 1965.65 0.00000 3.48206e-13
  44 1965.65 0.00000 1.35642e-14
  45 1965.65 0.00000 -7.86781e-14
  46 1965.65 0.00000 -2.61191e-13
  47 1965.65 0.00000 -2.75373e-13
  48 1965.65 0.00000 2.73481e-14
  49 1965.65 0.00000 3.21690e-14
  50 1965.65 0.00000 1.10235e-14
  51 1965.65 0.00000 0.00000
  52 1965.65 0.00000 -2.03686e-15
  53 1965.65 0.00000 -4.52735e-14
  54 1965.65 0.00000 -9.12142e-15
  55 1965.65 0.00000 8.53885e-14
  56 1965.65 0.00000 8.50741e-14
  57 1965.65 0.00000 7.95830e-14
  58 1965.65 0.00000 7.05018e-14
  59 1965.65 0.00000 1.17026e-13
  60 1965.65 0.00000 2.48251e-13
  61 1965.65 0.00000 -7.33671e-15
  62 1965.65 0.00000 2.17944e-13
  63 1965.65 0.00000 -4.49555e-13
  64 1965.65 0.00000 6.36748e-14
  65 1965.65 0.00000 -3.14975e-15
  66 1965.65 0.00000 -1.05539e-14
  67 1965.65 0.00000 1.15050e-13
  68 1965.65 0.00000 9.67379e-14
  69 1965.65 0.00000 1.88703e-13
  70 1965.65 0.00000 2.56577e-13
  71 1965.65 0.00000 -3.86402e-14
  72 1965.65 0.00000 4.28731e-14
  73 1965.65 0.00000 4.36203e-13
  74 1965.65 0.00000 2.49122e-13
  75 1965.65 0.00000 2.58511e-13
  76 1965.65 0.00000 -3.97913e-13
  77 1965.65 0.00000 -1.89649e-13
  78 1965.65 0.00000 8.26385e-13
  79 1965.65 0.00000 1.53258e-13
  80 1965.65 0.00000 -1.11772e-13
  81 1965.65 0.00000 1.14756e-13
  82 1965.65 0.00000 -1.67500e-13
  83 1965.65 0.00000 -3.32101e-14
  84 1965.65 0.00000 1.34312e-13
  85 1965.65 0.00000 2.26865e-13
  86 1965.65 0.00000 2.21348e-13
  87 1965.65 0.00000 4.27545e-14
  88 1965.65 0.00000 4.44012e-15
  89 1965.65 0.00000 1.32127e-13
  90 1965.65 0.00000 -1.03828e-13
  91 1965.65 0.00000 -1.42984e-13
  92 1965.65 0.00000 8.81544e-14
  93 1965.65 0.00000 -6.46063e-13
  94 1965.65 0.00000 -5.83543e-13
  95 1965.65 0.00000 -2.96776e-14
  96 1965.65 0.00000 -1.37273e-13
  97 1965.65 0.00000 1.54067e-13
  98 1965.65 0.00000 2.61658e-13
  99 1965.65 0.00000 3.49961e-14
  100 1965.65 0.00000 -3.25596e-13
  101 1965.65 0.00000 1.24838e-13
  102 1965.65 0.00000 4.64441e-14
  103 1965.65 0.00000 -4.58449e-13
  104 1965.65 0.00000 1.14579e-13
  105 1965.65 0.00000 -2.46528e-13
  106 1965.65 0.00000 -3.63182e-14
  107 1965.65 0.00000 1.78137e-14
  108 1965.65 0.00000 9.13749e-15
  109 1965.65 0.00000 2.37041e-14
  110 1965.65 0.00000 2.70207e-14
  111 1965.65 0.00000 1.43573e-14
  112 1965.65 0.00000 2.01105e-13
  113 1965.65 0.00000 -1.05671e-13
  114 1965.65 0.00000 1.46967e-13
  115 1965.65 0.00000 -2.47384e-13
  116 1965.65 0.00000 1.15014e-13
  117 1965.65 0.00000 2.39142e-13
  118 1965.65 0.00000 5.31332e-14
  119 1965.65 0.00000 2.05667e-13
  120 1965.65 0.00000 3.75995e-13
  121 1965.65 0.00000 4.31443e-14
  122 1965.65 0.00000 1.46325e-13
  123 1965.65 0.00000 1.42618e-13
  124 1965.65 0.00000 7.68914e-14
  125 1965.65 0.00000 2.75845e-13
  126 1965.65 0.00000 1.85626e-13
  127 1965.65 0.00000 -7.02544e-14
  128 1965.65 0.00000 -1.51231e-14
  129 1965.65 0.00000 7.56569e-14
  130 1965.65 0.00000 2.54384e-13
  131 1965.65 0.00000 9.99158e-14
  132 1965.65 0.00000 -1.16363e-13
  133 1965.65 0.00000 -1.63746e-14
  134 1965.65 0.00000 -2.69779e-13
  135 1965.65 0.00000 2.62298e-13
  136 1965.65 0.00000 1.27730e-13
  137 1965.65 0.00000 2.71949e-13
  138 1965.65 0.00000 1.19484e-13
  139 1965.65 0.00000 -1.19732e-13
  140 1965.65 0.00000 -6.30722e-13
  141 1965.65 0.00000 1.35939e-13
  142 1965.65 0.00000 4.50782e-14
  143 1965.65 0.00000 -7.16692e-14
  144 1965.65 0.00000 1.68048e-13
  145 1965.65 0.00000 3.62096e-13
  146 1965.65 0.00000 2.20669e-13
  147 1965.65 0.00000 -1.67791e-13
  148 1965.65 0.00000 -1.85138e-13
  149 1965.65 0.00000 5.98663e-14
  150 1965.65 0.00000 -2.20992e-13
  151 1965.65 0.00000 -9.85124e-14
  152 1965.65 0.00000 3.70759e-14
  153 1965.65 0.00000 -2.49958e-13
  154 1965.65 0.00000 -1.66989e-14
  155 1965.65 0.00000 2.91938e-13
  156 1965.65 0.00000 -4.10122e-13
  157 1965.65 0.00000 -1.08780e-14
  158 1965.65 0.00000 4.71374e-14
  159 1965.65 0.00000 1.51967e-13
  160 1965.65 0.00000 -1.14378e-13
  161 1965.65 0.00000 2.54768e-13
  162 1965.65 0.00000 9.53547e-14
  163 1965.65 0.00000 -2.20908e-13
  164 1965.65 0.00000 -1.56301e-13
  165 1965.65 0.00000 6.43461e-14
  166 1965.65 0.00000 6.31150e-14
  167 1965.65 0.00000 -6.40447e-14
  168 1965.65 0.00000 2.23914e-13
  169 1965.65 0.00000 1.05516e-13
  170 1965.65 0.00000 -1.44041e-14
  171 1965.65 0.00000 3.92278e-14
  172 1965.65 0.00000 -3.58775e-14
  173 1965.65 0.00000 -3.46254e-14
  174 1965.65 0.00000 3.21998e-13
  175 1965.65 0.00000 8.51513e-15
  176 1965.65 0.00000 -6.97395e-15
  177 1965.65 0.00000 2.33973e-13
  178 1965.65 0.00000 -1.20150e-14
  179 1965.65 0.00000 1.84573e-13
  180 1965.65 0.00000 -1.14284e-13
  181 1965.65 0.00000 -2.23192e-13
  182 1965.65 0.00000 7.02741e-14
  183 1965.65 0.00000 -1.16054e-13
  184 1965.65 0.00000 4.77713e-13
  185 1965.65 0.00000 3.15825e-14
  186 1965.65 0.00000 -2.46575e-13
  187 1965.65 0.00000 2.03798e-13
  188 1965.65 0.00000 1.85565e-15
  189 1965.65 0.00000 2.31463e-13
  190 1965.65 0.00000 8.35654e-15
  191 1965.65 0.00000 5.02571e-14
  192 1965.65 0.00000 -6.99170e-13
  193 1965.65 0.00000 -1.57540e-13
  194 1965.65 0.00000 -1.46531e-13
  195 1965.65 0.00000 2.69338e-14
  196 1965.65 0.00000 -1.27345e-13
  197 1965.65 0.00000 9.85318e-14
  198 1965.65 0.00000 -5.02586e-13
  199 1965.65 0.00000 -6.97947e-14
  200 1965.65 0.00000 -2.97146e-13
  201 1965.65 0.00000 1.25072e-13
  202 1965.65 0.00000 2.27816e-13
  203 1965.65 0.00000 -1.95475e-13
  204 1965.65 0.00000 -7.97717e-14
  205 1965.65 0.00000 -2.50773e-13
  206 1965.65 0.00000 -3.64341e-13
  207 1965.65 0.00000 -1.45332e-13
  208 1965.65 0.00000 2.07621e-13
  209 1965.65 0.00000 -8.07192e-14
  210 1965.65 0.00000 1.97947e-13
  211 1965.65 0.00000 1.20136e-13
  212 1965.65 0.00000 4.19848e-13
  213 1965.65 0.00000 5.01131e-14
  214 1965.65 0.00000 2.88649e-13
  215 1965.65 0.00000 -2.09029e-13
  216 1965.65 0.00000 -1.31694e-13
  217 1965.65 0.00000 1.87983e-13
  218 1965.65 0.00000 3.66345e-13
  219 1965.65 0.00000 4.16578e-13
  220 1965.65 0.00000 5.00023e-14
  221 1965.65 0.00000 -2.09921e-13
  222 1965.65 0.00000 4.73738e-14
  223 1965.65 0.00000 1.21982e-13
  224 1965.65 0.00000 -9.00151e-14
  225 1965.65 0.00000 2.71833e-13
  226 1965.65 0.00000 -3.50336e-13
  227 1965.65 0.00000 2.30393e-13
  228 1965.65 0.00000 1.24126e-13
  229 1965.65 0.00000 -1.55361e-13
  230 1965.65 0.00000 -2.13934e-13
  231 1965.65 0.00000 -4.32489e-13
  232 1965.65 0.00000 -3.03753e-13
  233 1965.65 0.00000 1.36010e-13
  234 1965.65 0.00000 -6.76517e-14
  235 1965.65 0.00000 -3.48261e-13
  236 1965.65 0.00000 4.96848e-14
  237 1965.65 0.00000 2.24954e-13
  238 1965.65 0.00000 1.95611e-14
  239 1965.65 0.00000 2.18016e-13
  240 1965.65 0.00000 -3.62999e-13
  241 1965.65 0.00000 2.16466e-13
</Section>

newXOutput 44

<Section columns = "stress_xx | stress_yy | stress_xy">
  1 2012.21 0.00000 1.43407e-14
  2 2012.21 0.00000 -8.78845e-13
  3 2012.21 0.00000 -6.13912e-13
  4 2012.21 0.00000 2.35950e-14
  5 2012.21 0.00000 -1.03445e-13
  6 2012.21 0.00000 9.25802e-14
  7 2012.21 0.00000 1.02750e-13
  8 2012.21 0.00000 5.38940e-14
  9 2012.21 0.00000 -5.21740e-15
  10 2012.21 0.00000 -1.85160e-13
  11 2012.21 0.00000 -4.70283e-13
  12 2012.21 0.00000 -4.53771e-13
  13 2012.21 0.00000 2.13842e-13
  14 2012.21 0.00000 2.31228e-13
  15 2012.21 0.00000 2.76429e-13
  16 2012.21 0.00000 7.76275e-13
  17 2012.21 0.00000 4.00737e-13
  18 2012.21 0.00000 -5.60699e-13
  19 2012.21 0.00000 -7.76275e-13
  20 2012.21 0.00000 -3.11726e-13
  21 2012.21 0.00000 -1.23440e-13
  22 2012.21 0.00000 1.13005e-13
  23 2012.21 0.00000 -7.19772e-13
  24 2012.21 0.00000 4.16389e-13
  25 2012.21 0.00000 0.00000
  26 2012.21 0.00000 -3.33544e-13
  27 2012.21 0.00000 2.81662e-14
  28 2012.21 0.00000 2.24208e-13
  29 2012.21 0.00000 -2.81662e-14
  30 2012.21 0.00000 -3.12900e-13
  31 2012.21 0.00000 -1.17685e-13
  32 2012.21 0.00000 -5.47362e-14
  33 2012.21 0.00000 -3.26259e-14
  34 2012.21 0.00000 3.29423e-13
  35 2012.21 0.00000 3.40000e-13
  36 2012.21 0.00000 -2.84942e-13
  37 2012.21 0.00000 -8.11455e-13
  38 2012.21 0.00000 4.61189e-14
  39 2012.21 0.00000 7.69810e-13
  40 2012.21 0.00000 4.48508e-13
  41 2012.21 0.00000 -2.10837e-13
  42 2012.21 0.00000 -1.68675e-13
  43 2012.21 0.00000 1.44875e-14
  44 2012.21 0.00000 -1.00095e-13
  45 2012.21 0.00000 1.24136e-13
  46 2012.21 0.00000 -2.48712e-13
  47 2012.21 0.00000 -2.37546e-13
  48 2012.21 0.00000 8.69090e-14
  49 2012.21 0.00000 1.02510e-13
  50 2012.21 0.00000 2.79033e-14
  51 2012.21 0.00000 2.81662e-14
  52 2012.21 0.00000 8.41988e-14
  53 2012.21 0.00000 1.71724e-16
  54 2012.21 0.00000 3.34463e-14
  55 2012.21 0.00000 8.47541e-14
  56 2012.21 0.00000 1.88980e-13
  57 2012.21 0.00000 -1.41566e-13
  58 2012.21 0.00000 2.20102e-13
  59 2012.21 0.00000 4.55598e-14
  60 2012.21 0.00000 -3.15246e-13
  61 2012.21 0.00000 -2.06718e-13
  62 2012.21 0.00000 6.54354e-14
  63 2012.21 0.00000 -2.83735e-13
  64 2012.21 0.00000 -6.49377e-14
  65 2012.21 0.00000 1.08173e-13
  66 2012.21 0.00000 -6.75854e-14
  67 2012.21 0.00000 -3.23617e-13
  68 2012.21 0.00000 -5.02450e-13
  69 2012.21 0.00000 -4.77202e-13
  70 2012.21 0.00000 -1.01298e-13
  71 2012.21 0.00000 -1.80963e-13
  72 2012.21 0.00000 -4.27643e-14
  73 2012.21 0.00000 4.59354e-13
  74 2012.21 0.00000 2.60539e-13
  75 2012.21 0.00000 -8.65812e-14
  76 2012.21 0.00000 4.58808e-13
  77 2012.21 0.00000 -2.69610e-13
  78 2012.21 0.00000 -4.97180e-13
  79 2012.21 0.00000 -8.75859e-14
  80 2012.21 0.00000 5.51984e-14
  81 2012.21 0.00000 1.77331e-13
  82 2012.21 0.00000 2.74666e-13
  83 2012.21 0.00000 -8.46675e-14
  84 2012.21 0.00000 -1.33000e-13
  85 2012.21 0.00000 -5.88247e-13
  86 2012.21 0.00000 -1.16526e-14
  87 2012.21 0.00000 9.45255e-14
  88 2012.21 0.00000 -9.52251e-13
  89 2012.21 0.00000 -3.40055e-14
  90 2012.21 0.00000 -2.36055e-13
  91 2012.21 0.00000 1.66799e-13
  92 2012.21 0.00000 -4.45673e-14
  93 2012.21 0.00000 6.17850e-13
  94 2012.21 0.00000 3.84655e-13
  95 2012.21 0.00000 2.81596e-13
  96 2012.21 0.00000 5.98895e-14
  97 2012.21 0.00000 2.66835e-13
  98 2012.21 0.00000 3.41604e-13
  99 2012.21 0.00000 2.79898e-14
  100 2012.21 0.00000 -2.33037e-13
  101 2012.21 0.00000 3.70228e-13
  102 2012.21 0.00000 1.35585e-14
  103 2012.21 0.00000 -2.92690e-13
  104 2012.21 0.00000 1.53236e-13
  105 2012.21 0.00000 -1.97833e-13
  106 2012.21 0.00000 -1.63823e-13
  107 2012.21 0.00000 1.40831e-14
  108 2012.21 0.00000 1.13201e-13
  109 2012.21 0.00000 -5.47633e-15
  110 2012.21 0.00000 2.52175e-13
  111 2012.21 0.00000 8.30415e-14
  112 2012.21 0.00000 2.93678e-13
  113 2012.21 0.00000 -1.21434e-13
  114 2012.21 0.00000 -2.68977e-14
  115 2012.21 0.00000 -2.49585e-13
  116 2012.21 0.00000 3.63014e-14
  117 2012.21 0.00000 -2.10107e-13
  118 2012.21 0.00000 1.02322e-13
  119 2012.21 0.00000 -5.29799e-14
  120 2012.21 0.00000 -6.36341e-14
  121 2012.21 0.00000 -1.52633e-13
  122 2012.21 0.00000 -1.73650e-13
  123 2012.21 0.00000 -2.13625e-13
  124 2012.21 0.00000 -4.70899e-13
  125 2012.21 0.00000 4.93049e-14
  126 2012.21 0.00000 -1.41460e-13
  127 2012.21 0.00000 -1.44626e-13
  128 2012.21 0.00000 1.86789e-13
  129 2012.21 0.00000 1.86613e-13
  130 2012.21 0.00000 -4.46842e-14
  131 2012.21 0.00000 7.52739e-14
  132 2012.21 0.00000 -1.62226e-13
  133 2012.21 0.00000 -6.78855e-14
  134 2012.21 0.00000 2.95814e-14
  135 2012.21 0.00000 1.71744e-13
  136 2012.21 0.00000 1.47773e-13
  137 2012.21 0.00000 -3.56191e-13
  138 2012.21 0.00000 8.29736e-14
  139 2012.21 0.00000 -1.60309e-13
  140 2012.21 0.00000 -1.99986e-13
  141 2012.21 0.00000 -1.46474e-13
  142 2012.21 0.00000 -2.87996e-13
  143 2012.21 0.00000 1.10421e-13
  144 2012.21 0.00000 -2.05821e-13
  145 2012.21 0.00000 -2.56827e-13
  146 2012.21 0.00000 1.06758e-14
  147 2012.21 0.00000 -3.57558e-14
  148 2012.21 0.00000 -2.68479e-13
  149 2012.21 0.00000 6.55309e-13
  150 2012.21 0.00000 -7.20696e-14
  151 2012.21 0.00000 1.65334e-13
  152 2012.21 0.00000 3.29894e-13
  153 2012.21 0.00000 -1.19007e-13
  154 2012.21 0.00000 2.04504e-13
  155 2012.21 0.00000 -5.10095e-13
  156 2012.21 0.00000 6.51214e-14
  157 2012.21 0.00000 8.01549e-14
  158 2012.21 0.00000 5.62380e-14
  159 2012.21 0.00000 5.80654e-14
  160 2012.21 0.00000 -5.26289e-14
  161 2012.21 0.00000 2.27198e-13
  162 2012.21 0.00000 7.14992e-14
  163 2012.21 0.00000 2.90814e-13
  164 2012.21 0.00000 -2.37951e-13
  165 2012.21 0.00000 -2.12779e-13
  166 2012.21 0.00000 7.00579e-14
  167 2012.21 0.00000 2.26362e-13
  168 2012.21 0.00000 -2.29289e-13
  169 2012.21 0.00000 7.22008e-14
  170 2012.21 0.00000 4.57001e-13
  171 2012.21 0.00000 -2.13882e-13
  172 2012.21 0.00000 -5.02457e-14
  173 2012.21 0.00000 2.59221e-13
  174 2012.21 0.00000 -1.00578e-13
  175 2012.21 0.00000 7.98308e-14
  176 2012.21 0.00000 9.73611e-15
  177 2012.21 0.00000 -9.01524e-13
  178 2012.21 0.00000 -1.04403e-13
  179 2012.21 0.00000 1.54375e-14
  180 2012.21 0.00000 -1.11618e-13
  181 2012.21 0.00000 3.80835e-13
  182 2012.21 0.00000 -3.13952e-13
  183 2012.21 0.00000 1.39261e-13
  184 2012.21 0.00000 2.75909e-13
  185 2012.21 0.00000 -2.30446e-13
  186 2012.21 0.00000 1.84111e-13
  187 2012.21 0.00000 -5.40994e-13
  188 2012.21 0.00000 -3.72314e-13
  189 2012.21 0.00000 -1.24967e-13
  190 2012.21 0.00000 2.18690e-13
  191 2012.21 0.00000 7.28465e-14
  192 2012.21 0.00000 4.68646e-14
  193 2012.21 0.00000 2.70807e-13
  194 2012.21 0.00000 2.46788e-13
  195 2012.21 0.00000 1.30601e-13
  196 2012.21 0.00000 -5.06731e-14
  197 2012.21 0.00000 -4.78023e-15
  198 2012.21 0.00000 8.37080e-14
  199 2012.21 0.00000 -5.26795e-14
  200 2012.21 0.00000 2.40352e-13
  201 2012.21 0.00000 1.09042e-13
  202 2012.21 0.00000 -4.77555e-13
  203 2012.21 0.00000 3.24675e-13
  204 2012.21 0.00000 -3.12676e-13
  205 2012.21 0.00000 -1.19222e-13
  206 2012.21 0.00000 4.39474e-13
  207 2012.21 0.00000 -1.56273e-14
  208 2012.21 0.00000 2.78932e-14
  209 2012.21 0.00000 4.38964e-14
  210 2012.21 0.00000 1.66982e-13
  211 2012.21 0.00000 3.39029e-14
  212 2012.21 0.00000 -7.04177e-14
  213 2012.21 0.00000 1.27160e-13
  214 2012.21 0.00000 -2.21190e-14
  215 2012.21 0.00000 -6.83357e-13
  216 2012.21 0.00000 2.36558e-13
  217 2012.21 0.00000 1.82029e-13
  218 2012.21 0.00000 2.69573e-13
  219 2012.21 0.00000 -3.30158e-13
  220 2012.21 0.00000 3.25125e-14
  221 2012.21 0.00000 -3.63753e-13
  222 2012.21 0.00000 5.45993e-13
  223 2012.21 0.00000 -5.92767e-13
  224 2012.21 0.00000 -2.63705e-13
  225 2012.21 0.00000 5.59801e-13
  226 2012.21 0.00000 -2.15407e-13
  227 2012.21 0.00000 -5.89813e-13
  228 2012.21 0.00000 3.03765e-13
  229 2012.21 0.00000 -2.12498e-13
  230 2012.21 0.00000 -2.46881e-13
  231 2012.21 0.00000 5.01737e-14
  232 2012.21 0.00000 -1.06657e-14
  233 2012.21 0.00000 -6.75857e-13
  234 2012.21 0.00000 2.07844e-13
  235 2012.21 0.00000 -3.81745e-14
  236 2012.21 0.00000 -1.11801e-15
  237 2012.21 0.00000 -3.29640e-13
  238 2012.21 0.00000 -2.30431e-13
  239 2012.21 0.00000 2.08636e-15
  240 2012.21 0.00000 2.24274e-13
  241 2012.21 0.00000 -1.79943e-13
</Section>

newXOutput 45

<Section columns = "stress_xx | stress_yy | stress_xy">
  1 2058.77 0.00000 -1.50740e-13
  2 2058.77 0.00000 -8.41191e-14
  3 2058.77 0.00000 -1.69407e-12
  4 2058.77 0.00000 -4.54477e-14
  5 2058.77 0.00000 -5.92185e-14
  6 2058.77 0.00000 8.88278e-14
  7 2058.77 0.00000 -1.59023e-13
  8 2058.77 0.00000 -1.21576e-13
  9 2058.77 0.00000 2.36931e-13
  10 2058.77 0.00000 2.96149e-13
  11 2058.77 0.00000 1.83934e-13
  12 2058.77 0.00000 3.49033e-13
  13 2058.77 0.00000 -1.19317e-13
  14 2058.77 0.00000 -5.92185e-13
  15 2058.77 0.00000 -9.31472e-13
  16 2058.77 0.00000 -8.78860e-13
  17 2058.77 0.00000 -1.06593e-12
  18 2058.77 0.00000 -7.49141e-14
  19 2058.77 0.00000 -1.80795e-13
  20 2058.77 0.00000 -6.00930e-15
  21 2058.77 0.00000 -1.12159e-13
  22 2058.77 0.00000 1.99360e-13
  23 2058.77 0.00000 6.48265e-13
  24 2058.77 0.00000 1.80795e-13
  25 2058.77 0.00000 0.00000
  26 2058.77 0.00000 -5.99680e-13
  27 2058.77 0.00000 8.39281e-14
  28 2058.77 0.00000 -4.97364e-14
  29 2058.77 0.00000 1.39243e-14
  30 2058.77 0.00000 5.02776e-14
  31 2058.77 0.00000 -1.40147e-12
  32 2058.77 0.00000 -2.46576e-13
  33 2058.77 0.00000 -1.98007e-13
  34 2058.77 0.00000 5.78281e-13
  35 2058.77 0.00000 5.59654e-13
  36 2058.77 0.00000 8.23249e-13
  37 2058.77 0.00000 -1.13652e-13
  38 2058.77 0.00000 -2.96918e-13
  39 2058.77 0.00000 4.37581e-13
  40 2058.77 0.00000 3.90794e-13
  41 2058.77 0.00000 -2.74623e-13
  42 2058.77 0.00000 1.05428e-13
  43 2058.77 0.00000 3.03644e-13
  44 2058.77 0.00000 2.52475e-13
  45 2058.77 0.00000 -3.89732e-14
  46 2058.77 0.00000 -1.57325e-13
  47 2058.77 0.00000 -3.08552e-14
  48 2058.77 0.00000 1.53679e-13
  49 2058.77 0.00000 2.02279e-14
  50 2058.77 0.00000 2.58481e-14
  51 2058.77 0.00000 1.39243e-14
  52 2058.77 0.00000 -8.29762e-15
  53 2058.77 0.00000 6.14377e-15
  54 2058.77 0.00000 -2.54943e-14
  55 2058.77 0.00000 -8.41191e-14
  56 2058.77 0.00000 -3.57530e-14
  57 2058.77 0.00000 -2.02501e-13
  58 2058.77 0.00000 3.57761e-13
  59 2058.77 0.00000 5.98925e-14
  60 2058.77 0.00000 -9.86431e-14
  61 2058.77 0.00000 2.00009e-14
  62 2058.77 0.00000 6.74911e-14
  63 2058.77 0.00000 1.92791e-13
  64 2058.77 0.00000 -2.96538e-13
  65 2058.77 0.00000 7.98700e-14
  66 2058.77 0.00000 -7.59337e-14
  67 2058.77 0.00000 -2.62604e-13
  68 2058.77 0.00000 -2.88037e-13
  69 2058.77 0.00000 -3.99336e-13
  70 2058.77 0.00000 -1.91492e-13
  71 2058.77 0.00000 -3.17590e-14
  72 2058.77 0.00000 1.15035e-13
  73 2058.77 0.00000 -2.25022e-13
  74 2058.77 0.00000 2.34622e-13
  75 2058.77 0.00000 -3.74888e-14
  76 2058.77 0.00000 1.42900e-12
  77 2058.77 0.00000 -1.07403e-13
  78 2058.77 0.00000 -1.11475e-13
  79 2058.77 0.00000 -3.61545e-13
  80 2058.77 0.00000 1.58148e-13
  81 2058.77 0.00000 -1.20825e-13
  82 2058.77 0.00000 4.42273e-13
  83 2058.77 0.00000 -3.28963e-13
  84 2058.77 0.00000 1.20250e-13
  85 2058.77 0.00000 -4.51032e-14
  86 2058.77 0.00000 6.62189e-13
  87 2058.77 0.00000 7.13773e-14
  88 2058.77 0.00000 3.95810e-14
  89 2058.77 0.00000 8.04349e-14
  90 2058.77 0.00000 -9.88672e-14
  91 2058.77 0.00000 -2.02781e-13
  92 2058.77 0.00000 -1.85207e-14
  93 2058.77 0.00000 7.30191e-13
  94 2058.77 0.00000 2.33993e-13
  95 2058.77 0.00000 -4.78012e-14
  96 2058.77 0.00000 -2.76977e-14
  97 2058.77 0.00000 -1.38358e-13
  98 2058.77 0.00000 -1.09714e-14
  99 2058.77 0.00000 1.78339e-13
  100 2058.77 0.00000 -2.12440e-13
  101 2058.77 0.00000 4.52942e-14
  102 2058.77 0.00000 3.82780e-13
  103 2058.77 0.00000 3.01743e-13
  104 2058.77 0.00000 3.53428e-13
  105 2058.77 0.00000 1.99620e-13
  106 2058.77 0.00000 -1.88738e-13
  107 2058.77 0.00000 -7.58198e-13
  108 2058.77 0.00000 5.07158e-15
  109 2058.77 0.00000 -1.15934e-14
  110 2058.77 0.00000 -2.21131e-13
  111 2058.77 0.00000 -4.08400e-14
  112 2058.77 0.00000 2.49596e-13
  113 2058.77 0.00000 1.56637e-13
  114 2058.77 0.00000 3.36403e-13
  115 2058.77 0.00000 1.88765e-14
  116 2058.77 0.00000 -6.88055e-14
  117 2058.77 0.00000 -4.86103e-13
  118 2058.77 0.00000 7.54270e-14
  119 2058.77 0.00000 -1.91691e-13
  120 2058.77 0.00000 -1.68435e-13
  121 2058.77 0.00000 -1.50236e-13
  122 2058.77 0.00000 -6.61391e-14
  123 2058.77 0.00000 -4.64610e-13
  124 2058.77 0.00000 -1.02037e-13
  125 2058.77 0.00000 -9.05240e-14
  126 2058.77 0.00000 3.96002e-14
  127 2058.77 0.00000 4.31527e-14
  128 2058.77 0.00000 -2.53391e-13
  129 2058.77 0.00000 3.62600e-14
  130 2058.77 0.00000 -2.10595e-13
  131 2058.77 0.00000 -2.16239e-13
  132 2058.77 0.00000 -1.05825e-13
  133 2058.77 0.00000 -2.08474e-13
  134 2058.77 0.00000 3.01054e-13
  135 2058.77 0.00000 3.07031e-14
  136 2058.77 0.00000 8.25499e-14
  137 2058.77 0.00000 -3.36712e-13
  138 2058.77 0.00000 -5.60175e-14
  139 2058.77 0.00000 -1.15322e-14
  140 2058.77 0.00000 6.15178e-13
  141 2058.77 0.00000 -2.01872e-13
  142 2058.77 0.00000 1.15259e-13
  143 2058.77 0.00000 9.38273e-14
  144 2058.77 0.00000 6.37272e-14
  145 2058.77 0.00000 -1.50046e-13
  146 2058.77 0.00000 5.09967e-14
  147 2058.77 0.00000 3.64832e-13
  148 2058.77 0.00000 -1.20385e-13
  149 2058.77 0.00000 5.27983e-13
  150 2058.77 0.00000 -2.01100e-13
  151 2058.77 0.00000 2.16480e-13
  152 2058.77 0.00000 2.27720e-13
  153 2058.77 0.00000 -2.59930e-13
  154 2058.77 0.00000 1.64403e-13
  155 2058.77 0.00000 9.47981e-15
  156 2058.77 0.00000 -9.94752e-14
  157 2058.77 0.00000 -4.19960e-14
  158 2058.77 0.00000 -3.09182e-13
  159 2058.77 0.00000 2.59863e-13
  160 2058.77 0.00000 -3.99616e-15
  161 2058.77 0.00000 6.50746e-13
  162 2058.77 0.00000 7.69131e-14
  163 2058.77 0.00000 -5.30747e-14
  164 2058.77 0.00000 -1.78310e-14
  165 2058.77 0.00000 -6.06843e-14
  166 2058.77 0.00000 5.47886e-15
  167 2058.77 0.00000 -4.04244e-13
  168 2058.77 0.00000 3.14587e-13
  169 2058.77 0.00000 5.42297e-14
  170 2058.77 0.00000 1.25496e-13
  171 2058.77 0.00000 -2.86032e-14
  172 2058.77 0.00000 -1.41151e-13
  173 2058.77 0.00000 5.73146e-14
  174 2058.77 0.00000 5.11071e-13
  175 2058.77 0.00000 3.06001e-14
  176 2058.77 0.00000 8.09159e-15
  177 2058.77 0.00000 -8.75994e-13
  178 2058.77 0.00000 -1.75524e-13
  179 2058.77 0.00000 -1.33242e-13
  180 2058.77 0.00000 -9.54968e-14
  181 2058.77 0.00000 4.82782e-13
  182 2058.77 0.00000 1.73967e-13
  183 2058.77 0.00000 -2.30016e-13
  184 2058.77 0.00000 -5.29200e-13
  185 2058.77 0.00000 -7.15805e-14
  186 2058.77 0.00000 -4.16142e-13
  187 2058.77 0.00000 -4.62919e-13
  188 2058.77 0.00000 -1.07283e-13
  189 2058.77 0.00000 -4.14107e-14
  190 2058.77 0.00000 1.22315e-13
  191 2058.77 0.00000 1.30861e-13
  192 2058.77 0.00000 -3.49824e-13
  193 2058.77 0.00000 3.06346e-13
  194 2058.77 0.00000 -3.96275e-13
  195 2058.77 0.00000 1.18802e-13
  196 2058.77 0.00000 -1.52071e-13
  197 2058.77 0.00000 1.75955e-14
  198 2058.77 0.00000 3.80212e-13
  199 2058.77 0.00000 -1.02819e-13
  200 2058.77 0.00000 5.14379e-14
  201 2058.77 0.00000 1.14034e-13
  202 2058.77 0.00000 -6.00498e-13
  203 2058.77 0.00000 1.85560e-13
  204 2058.77 0.00000 -1.11815e-14
  205 2058.77 0.00000 -5.45843e-14
  206 2058.77 0.00000 -1.08315e-13
  207 2058.77 0.00000 -3.77779e-14
  208 2058.77 0.00000 7.88746e-14
  209 2058.77 0.00000 4.56183e-13
  210 2058.77 0.00000 6.76752e-14
  211 2058.77 0.00000 1.79558e-14
  212 2058.77 0.00000 8.22705e-13
  213 2058.77 0.00000 8.26942e-14
  214 2058.77 0.00000 1.59372e-13
  215 2058.77 0.00000 1.71439e-13
  216 2058.77 0.00000 -1.65171e-13
  217 2058.77 0.00000 1.41903e-13
  218 2058.77 0.00000 1.19341e-13
  219 2058.77 0.00000 1.32788e-13
  220 2058.77 0.00000 9.03973e-14
  221 2058.77 0.00000 -2.09025e-13
  222 2058.77 0.00000 1.76775e-13
  223 2058.77 0.00000 -3.05781e-13
  224 2058.77 0.00000 1.45811e-13
  225 2058.77 0.00000 2.80072e-13
  226 2058.77 0.00000 -1.24130e-13
  227 2058.77 0.00000 -4.20971e-13
  228 2058.77 0.00000 9.27497e-14
  229 2058.77 0.00000 -1.05239e-13
  230 2058.77 0.00000 5.73361e-13
  231 2058.77 0.00000 1.96558e-13
  232 2058.77 0.00000 -8.58966e-14
  233 2058.77 0.00000 -1.24520e-13
  234 2058.77 0.00000 -5.09741e-14
  235 2058.77 0.00000 2.21550e-13
  236 2058.77 0.00000 7.15081e-15
  237 2058.77 0.00000 1.52881e-13
  238 2058.77 0.00000 -3.35817e-13
  239 2058.77 0.00000 4.03988e-13
  240 2058.77 0.00000 1.06593e-13
  241 2058.77 0.00000 -4.25315e-13
</Section>

newXOutput 46

<Section columns = "stress_xx | stress_yy | stress_xy">
  1 2105.34 0.00000 -1.27979e-13
  2 2105.34 0.00000 3.33934e-13
  3 2105.34 0.00000 -3.25261e-13
  4 2105.34 0.00000 -4.62557e-15
  5 2105.34 0.00000 -1.89141e-13
  6 2105.34 0.00000 -1.72474e-13
  7 2105.34 0.00000 -1.50004e-13
  8 2105.34 0.00000 4.15287e-13
  9 2105.34 0.00000 2.89293e-13
  10 2105.34 0.00000 -6.29978e-14
  11 2105.34 0.00000 -4.04274e-13
  12 2105.34 0.00000 -4.00603e-13
  13 2105.34 0.00000 -4.92198e-13
  14 2105.34 0.00000 -6.00610e-13
  15 2105.34 0.00000 -1.38992e-13
  16 2105.34 0.00000 4.33643e-13
  17 2105.34 0.00000 9.56570e-13
  18 2105.34 0.00000 -1.29665e-13
  19 2105.34 0.00000 -6.56265e-13
  20 2105.34 0.00000 -1.14981e-13
  21 2105.34 0.00000 7.03400e-14
  22 2105.34 0.00000 5.03983e-13
  23 2105.34 0.00000 3.00305e-13
  24 2105.34 0.00000 4.59930e-13
  25 2105.34 0.00000 1.66967e-13
  26 2105.34 0.00000 3.03205e-13
  27 2105.34 0.00000 5.48624e-13
  28 2105.34 0.00000 1.81422e-13
  29 2105.34 0.00000 0.00000
  30 2105.34 0.00000 6.94211e-14
  31 2105.34 0.00000 -2.19398e-13
  32 2105.34 0.00000 -1.88399e-12
  33 2105.34 0.00000 -5.83482e-13
  34 2105.34 0.00000 9.80029e-14
  35 2105.34 0.00000 -1.33329e-13
  36 2105.34 0.00000 9.68332e-14
  37 2105.34 0.00000 -1.31461e-13
  38 2105.34 0.00000 -3.48575e-13
  39 2105.34 0.00000 2.01908e-13
  40 2105.34 0.00000 -4.08617e-13
  41 2105.34 0.00000 -4.72466e-13
  42 2105.34 0.00000 -1.05858e-14
  43 2105.34 0.00000 9.16724e-14
  44 2105.34 0.00000 -3.66262e-13
  45 2105.34 0.00000 -1.99718e-13
  46 2105.34 0.00000 4.83850e-15
  47 2105.34 0.00000 1.54514e-14
  48 2105.34 0.00000 -2.91006e-14
  49 2105.34 0.00000 -6.47894e-14
  50 2105.34 0.00000 1.13094e-14
  51 2105.34 0.00000 -4.12963e-14
  52 2105.34 0.00000 -3.97632e-14
  53 2105.34 0.00000 -3.88403e-14
  54 2105.34 0.00000 5.84041e-15
  55 2105.34 0.00000 0.00000
  56 2105.34 0.00000 -2.95145e-14
  57 2105.34 0.00000 -4.54869e-14
  58 2105.34 0.00000 4.23399e-13
  59 2105.34 0.00000 1.19847e-13
  60 2105.34 0.00000 1.57116e-13
  61 2105.34 0.00000 1.35395e-13
  62 2105.34 0.00000 -1.93081e-13
  63 2105.34 0.00000 -2.53577e-13
  64 2105.34 0.00000 6.04651e-13
  65 2105.34 0.00000 3.00108e-14
  66 2105.34 0.00000 4.37634e-14
  67 2105.34 0.00000 -5.42726e-13
  68 2105.34 0.00000 4.50227e-13
  69 2105.34 0.00000 -2.31587e-13
  70 2105.34 0.00000 -1.21870e-14
  71 2105.34 0.00000 -6.52241e-14
  72 2105.34 0.00000 1.51172e-13
  73 2105.34 0.00000 -7.78492e-14
  74 2105.34 0.00000 1.31311e-13
  75 2105.34 0.00000 6.85283e-14
  76 2105.34 0.00000 9.08272e-14
  77 2105.34 0.00000 -6.50559e-14
  78 2105.34 0.00000 -6.46115e-14
  79 2105.34 0.00000 1.25651e-13
  80 2105.34 0.00000 1.44646e-13
  81 2105.34 0.00000 8.36837e-13
  82 2105.34 0.00000 3.02240e-13
  83 2105.34 0.00000 3.84561e-14
  84 2105.34 0.00000 -1.82643e-13
  85 2105.34 0.00000 -3.91130e-13
  86 2105.34 0.00000 5.33941e-13
  87 2105.34 0.00000 4.90651e-14
  88 2105.34 0.00000 -3.94017e-13
  89 2105.34 0.00000 -9.82125e-15
  90 2105.34 0.00000 -7.22485e-14
  91 2105.34 0.00000 2.38768e-13
  92 2105.34 0.00000 -1.84260e-13
  93 2105.34 0.00000 -5.44949e-14
  94 2105.34 0.00000 -1.55940e-14
  95 2105.34 0.00000 1.20230e-13
  96 2105.34 0.00000 4.29512e-13
  97 2105.34 0.00000 -6.65312e-13
  98 2105.34 0.00000 1.09946e-13
  99 2105.34 0.00000 2.65594e-13
  100 2105.34 0.00000 8.23831e-14
  101 2105.34 0.00000 1.83632e-15
  102 2105.34 0.00000 -6.54493e-13
  103 2105.34 0.00000 -5.81336e-13
  104 2105.34 0.00000 -7.17425e-14
  105 2105.34 0.00000 -2.73800e-14
  106 2105.34 0.00000 -1.60504e-15
  107 2105.34 0.00000 5.54428e-13
  108 2105.34 0.00000 4.38258e-15
  109 2105.34 0.00000 -6.77993e-14
  110 2105.34 0.00000 -1.58708e-13
  111 2105.34 0.00000 -9.16885e-14
  112 2105.34 0.00000 2.08832e-13
  113 2105.34 0.00000 -2.61982e-13
  114 2105.34 0.00000 1.40980e-13
  115 2105.34 0.00000 1.03634e-13
  116 2105.34 0.00000 -2.28994e-13
  117 2105.34 0.00000 -1.21864e-13
  118 2105.34 0.00000 -1.10274e-13
  119 2105.34 0.00000 1.06422e-13
  120 2105.34 0.00000 -2.57858e-13
  121 2105.34 0.00000 2.76340e-13
  122 2105.34 0.00000 6.88272e-15
  123 2105.34 0.00000 1.69883e-13
  124 2105.34 0.00000 2.92122e-13
  125 2105.34 0.00000 4.14010e-14
  126 2105.34 0.00000 -6.77188e-14
  127 2105.34 0.00000 1.84077e-13
  128 2105.34 0.00000 -2.32110e-13
  129 2105.34 0.00000 1.07710e-13
  130 2105.34 0.00000 2.18345e-13
  131 2105.34 0.00000 -8.75620e-14
  132 2105.34 0.00000 1.52481e-13
  133 2105.34 0.00000 2.67098e-13
  134 2105.34 0.00000 1.57902e-14
  135 2105.34 0.00000 1.87421e-13
  136 2105.34 0.00000 1.57754e-14
  137 2105.34 0.00000 -9.65972e-14
  138 2105.34 0.00000 4.37535e-13
  139 2105.34 0.00000 -8.24423e-14
  140 2105.34 0.00000 4.73123e-14
  141 2105.34 0.00000 -7.75926e-14
  142 2105.34 0.00000 4.09728e-14
  143 2105.34 0.00000 -2.11526e-13
  144 2105.34 0.00000 3.40222e-13
  145 2105.34 0.00000 1.63139e-13
  146 2105.34 0.00000 8.20187e-14
  147 2105.34 0.00000 -3.37509e-14
  148 2105.34 0.00000 -8.80727e-14
  149 2105.34 0.00000 -7.84355e-14
  150 2105.34 0.00000 -1.48470e-14
  151 2105.34 0.00000 1.15901e-13
  152 2105.34 0.00000 1.37157e-13
  153 2105.34 0.00000 4.00375e-13
  154 2105.34 0.00000 2.06694e-13
  155 2105.34 0.00000 4.23548e-13
  156 2105.34 0.00000 7.34860e-13
  157 2105.34 0.00000 -9.65583e-14
  158 2105.34 0.00000 8.23233e-13
  159 2105.34 0.00000 5.60851e-13
  160 2105.34 0.00000 -4.91674e-14
  161 2105.34 0.00000 8.81062e-15
  162 2105.34 0.00000 -3.18456e-14
  163 2105.34 0.00000 2.47928e-13
  164 2105.34 0.00000 -2.90301e-13
  165 2105.34 0.00000 -1.42241e-14
  166 2105.34 0.00000 -1.43989e-14
  167 2105.34 0.00000 6.97762e-13
  168 2105.34 0.00000 6.57971e-14
  169 2105.34 0.00000 4.94696e-14
  170 2105.34 0.00000 -1.99614e-13
  171 2105.34 0.00000 -1.97176e-13
  172 2105.34 0.00000 -3.37932e-14
  173 2105.34 0.00000 -4.85055e-15
  174 2105.34 0.00000 6.48922e-13
  175 2105.34 0.00000 7.21763e-14
  176 2105.34 0.00000 -7.21740e-14
  177 2105.34 0.00000 3.04219e-14
  178 2105.34 0.00000 -1.22398e-13
  179 2105.34 0.00000 -3.33050e-14
  180 2105.34 0.00000 4.52183e-14
  181 2105.34 0.00000 2.71560e-13
  182 2105.34 0.00000 -7.34670e-13
  183 2105.34 0.00000 -3.12280e-14
  184 2105.34 0.00000 1.11193e-13
  185 2105.34 0.00000 1.58523e-13
  186 2105.34 0.00000 -1.10133e-14
  187 2105.34 0.00000 -5.66376e-13
  188 2105.34 0.00000 1.18660e-13
  189 2105.34 0.00000 1.35688e-13
  190 2105.34 0.00000 2.10058e-13
  191 2105.34 0.00000 -1.40752e-13
  192 2105.34 0.00000 -1.73046e-14
  193 2105.34 0.00000 -1.28608e-14
  194 2105.34 0.00000 4.38602e-13
  195 2105.34 0.00000 -1.62454e-14
  196 2105.34 0.00000 -5.66802e-13
  197 2105.34 0.00000 3.05071e-14
  198 2105.34 0.00000 -5.83023e-13
  199 2105.34 0.00000 -2.00835e-13
  200 2105.34 0.00000 -3.73856e-13
  201 2105.34 0.00000 7.00634e-14
  202 2105.34 0.00000 3.92480e-13
  203 2105.34 0.00000 -8.16479e-14
  204 2105.34 0.00000 2.38857e-13
  205 2105.34 0.00000 2.75527e-13
  206 2105.34 0.00000 -6.45832e-14
  207 2105.34 0.00000 -1.71629e-14
  208 2105.34 0.00000 -2.90506e-13
  209 2105.34 0.00000 -2.33561e-13
  210 2105.34 0.00000 6.00456e-14
  211 2105.34 0.00000 -2.19201e-13
  212 2105.34 0.00000 7.69544e-13
  213 2105.34 0.00000 6.17668e-14
  214 2105.34 0.00000 6.46722e-14
  215 2105.34 0.00000 -6.64967e-13
  216 2105.34 0.00000 -1.00771e-13
  217 2105.34 0.00000 -2.14526e-13
  218 2105.34 0.00000 1.57700e-13
  219 2105.34 0.00000 1.44587e-13
  220 2105.34 0.00000 -4.20344e-15
  221 2105.34 0.00000 2.12461e-13
  222 2105.34 0.00000 5.55083e-14
  223 2105.34 0.00000 -8.22938e-14
  224 2105.34 0.00000 -3.33578e-13
  225 2105.34 0.00000 -5.17405e-14
  226 2105.34 0.00000 7.02699e-14
  227 2105.34 0.00000 9.08257e-14
  228 2105.34 0.00000 1.30466e-13
  229 2105.34 0.00000 -5.56564e-14
  230 2105.34 0.00000 -5.24763e-13
  231 2105.34 0.00000 6.45850e-14
  232 2105.34 0.00000 -1.39854e-13
  233 2105.34 0.00000 -8.23821e-14
  234 2105.34 0.00000 2.13190e-13
  235 2105.34 0.00000 -2.24615e-13
  236 2105.34 0.00000 -2.39122e-15
  237 2105.34 0.00000 4.30518e-13
  238 2105.34 0.00000 1.00732e-13
  239 2105.34 0.00000 -4.52291e-13
  240 2105.34 0.00000 -1.93752e-13
  241 2105.34 0.00000 -3.48618e-13
</Section>

newXOutput 47

<Section columns = "stress_xx | stress_yy | stress_xy">
  1 2151.92 0.00000 2.22885e-13
  2 2151.92 0.00000 2.84786e-13
  3 2151.92 0.00000 1.69284e-16
  4 2151.92 0.00000 5.22461e-14
  5 2151.92 0.00000 4.15131e-13
  6 2151.92 0.00000 4.33157e-13
  7 2151.92 0.00000 2.13425e-13
  8 2151.92 0.00000 -1.68185e-14
  9 2151.92 0.00000 4.26176e-14
  10 2151.92 0.00000 1.10463e-13
  11 2151.92 0.00000 0.00000
  12 2151.92 0.00000 4.20462e-15
  13 2151.92 0.00000 -2.64309e-13
  14 2151.92 0.00000 -1.01462e-12
  15 2151.92 0.00000 -2.82452e-13
  16 2151.92 0.00000 3.65026e-13
  17 2151.92 0.00000 4.37076e-13
  18 2151.92 0.00000 5.85952e-13
  19 2151.92 0.00000 7.51646e-13
  20 2151.92 0.00000 3.30066e-13
  21 2151.92 0.00000 1.06144e-12
  22 2151.92 0.00000 1.64262e-12
  23 2151.92 0.00000 1.60918e-13
  24 2151.92 0.00000 -5.23376e-13
  25 2151.92 0.00000 -1.65694e-13
  26 2151.92 0.00000 -5.16284e-14
  27 2151.92 0.00000 4.73317e-29
  28 2151.92 0.00000 -4.65260e-14
  29 2151.92 0.00000 0.00000
  30 2151.92 0.00000 -4.82388e-14
  31 2151.92 0.00000 -4.41319e-13
  32 2151.92 0.00000 -1.35551e-12
  33 2151.92 0.00000 3.43651e-13
  34 2151.92 0.00000 8.63907e-13
  35 2151.92 0.00000 2.59213e-13
  36 2151.92 0.00000 -3.26973e-14
  37 2151.92 0.00000 -2.53625e-13
  38 2151.92 0.00000 3.05373e-13
  39 2151.92 0.00000 2.56664e-13
  40 2151.92 0.00000 4.81474e-13
  41 2151.92 0.00000 8.45365e-13
  42 2151.92 0.00000 2.26526e-13
  43 2151.92 0.00000 -2.64993e-13
  44 2151.92 0.00000 2.34329e-13
  45 2151.92 0.00000 4.72328e-14
  46 2151.92 0.00000 -1.96001e-13
  47 2151.92 0.00000 9.75517e-14
  48 2151.92 0.00000 -1.64602e-13
  49 2151.92 0.00000 -1.83429e-13
  50 2151.92 0.00000 -5.75218e-14
  51 2151.92 0.00000 -8.28472e-14
  52 2151.92 0.00000 2.42724e-14
  53 2151.92 0.00000 -2.97181e-14
  54 2151.92 0.00000 1.70080e-14
  55 2151.92 0.00000 0.00000
  56 2151.92 0.00000 -1.18541e-13
  57 2151.92 0.00000 6.55550e-14
  58 2151.92 0.00000 6.56979e-14
  59 2151.92 0.00000 -2.69573e-13
  60 2151.92 0.00000 -8.96730e-14
  61 2151.92 0.00000 2.94156e-13
  62 2151.92 0.00000 -2.74007e-13
  63 2151.92 0.00000 1.66629e-13
  64 2151.92 0.00000 -1.08017e-12
  65 2151.92 0.00000 2.51934e-14
  66 2151.92 0.00000 1.21665e-13
  67 2151.92 0.00000 -1.48816e-14
  68 2151.92 0.00000 1.08218e-13
  69 2151.92 0.00000 2.07391e-13
  70 2151.92 0.00000 -1.74313e-13
  71 2151.92 0.00000 2.28886e-13
  72 2151.92 0.00000 1.61563e-13
  73 2151.92 0.00000 4.23396e-13
  74 2151.92 0.00000 -2.45884e-13
  75 2151.92 0.00000 2.42506e-14
  76 2151.92 0.00000 6.32561e-13
  77 2151.92 0.00000 1.22668e-14
  78 2151.92 0.00000 9.94296e-14
  79 2151.92 0.00000 -3.20018e-13
  80 2151.92 0.00000 -1.67135e-13
  81 2151.92 0.00000 -4.10077e-13
  82 2151.92 0.00000 -3.97530e-13
  83 2151.92 0.00000 -9.97732e-14
  84 2151.92 0.00000 3.20131e-13
  85 2151.92 0.00000 6.85792e-14
  86 2151.92 0.00000 -3.03039e-13
  87 2151.92 0.00000 -2.28899e-13
  88 2151.92 0.00000 1.96282e-13
  89 2151.92 0.00000 -3.39374e-13
  90 2151.92 0.00000 1.94319e-13
  91 2151.92 0.00000 -4.00186e-13
  92 2151.92 0.00000 -1.35502e-13
  93 2151.92 0.00000 -6.90357e-13
  94 2151.92 0.00000 -1.71704e-13
  95 2151.92 0.00000 -4.42015e-13
  96 2151.92 0.00000 -3.27536e-13
  97 2151.92 0.00000 4.71964e-13
  98 2151.92 0.00000 -2.91871e-13
  99 2151.92 0.00000 5.58005e-13
  100 2151.92 0.00000 -4.54253e-14
  101 2151.92 0.00000 -1.25265e-15
  102 2151.92 0.00000 4.10903e-13
  103 2151.92 0.00000 2.68819e-14
  104 2151.92 0.00000 -2.46513e-13
  105 2151.92 0.00000 -3.56297e-13
  106 2151.92 0.00000 -1.37676e-13
  107 2151.92 0.00000 -5.36254e-14
  108 2151.92 0.00000 8.35145e-14
  109 2151.92 0.00000 1.35502e-13
  110 2151.92 0.00000 -4.81488e-13
  111 2151.92 0.00000 3.16169e-13
  112 2151.92 0.00000 1.15512e-13
  113 2151.92 0.00000 -1.90813e-13
  114 2151.92 0.00000 -2.68832e-14
  115 2151.92 0.00000 -1.02945e-13
  116 2151.92 0.00000 3.93625e-13
  117 2151.92 0.00000 -6.31445e-14
  118 2151.92 0.00000 -8.26862e-15
  119 2151.92 0.00000 2.19473e-13
  120 2151.92 0.00000 2.52626e-13
  121 2151.92 0.00000 4.29169e-14
  122 2151.92 0.00000 5.64833e-14
  123 2151.92 0.00000 -1.95133e-14
  124 2151.92 0.00000 -1.60044e-13
  125 2151.92 0.00000 5.01709e-14
  126 2151.92 0.00000 1.65136e-13
  127 2151.92 0.00000 2.34489e-14
  128 2151.92 0.00000 2.85517e-13
  129 2151.92 0.00000 -1.96757e-13
  130 2151.92 0.00000 4.56997e-14
  131 2151.92 0.00000 2.73983e-13
  132 2151.92 0.00000 -5.72760e-14
  133 2151.92 0.00000 -1.49232e-13
  134 2151.92 0.00000 2.10179e-13
  135 2151.92 0.00000 1.02943e-12
  136 2151.92 0.00000 -1.78092e-13
  137 2151.92 0.00000 2.72625e-13
  138 2151.92 0.00000 -2.12310e-13
  139 2151.92 0.00000 1.85873e-13
  140 2151.92 0.00000 -1.62696e-13
  141 2151.92 0.00000 -1.97207e-13
  142 2151.92 0.00000 1.62930e-13
  143 2151.92 0.00000 -1.28690e-13
  144 2151.92 0.00000 -1.68422e-13
  145 2151.92 0.00000 2.93109e-13
  146 2151.92 0.00000 -1.79531e-13
  147 2151.92 0.00000 -7.45995e-14
  148 2151.92 0.00000 4.10567e-14
  149 2151.92 0.00000 -1.22935e-13
  150 2151.92 0.00000 7.82705e-14
  151 2151.92 0.00000 1.84024e-13
  152 2151.92 0.00000 -5.14028e-14
  153 2151.92 0.00000 1.73442e-13
  154 2151.92 0.00000 -4.22894e-13
  155 2151.92 0.00000 -1.54260e-13
  156 2151.92 0.00000 -3.48902e-13
  157 2151.92 0.00000 6.58592e-14
  158 2151.92 0.00000 -4.82930e-13
  159 2151.92 0.00000 -2.14027e-13
  160 2151.92 0.00000 -2.76445e-14
  161 2151.92 0.00000 2.73614e-13
  162 2151.92 0.00000 -1.62895e-13
  163 2151.92 0.00000 -2.24941e-13
  164 2151.92 0.00000 1.42429e-13
  165 2151.92 0.00000 6.13971e-14
  166 2151.92 0.00000 -7.78763e-14
  167 2151.92 0.00000 -3.83082e-13
  168 2151.92 0.00000 2.53552e-13
  169 2151.92 0.00000 -8.16572e-14
  170 2151.92 0.00000 2.84499e-13
  171 2151.92 0.00000 6.64706e-14
  172 2151.92 0.00000 1.76371e-13
  173 2151.92 0.00000 -1.55576e-13
  174 2151.92 0.00000 -5.27710e-13
  175 2151.92 0.00000 -1.16151e-13
  176 2151.92 0.00000 -7.87373e-14
  177 2151.92 0.00000 -1.39274e-14
  178 2151.92 0.00000 -9.69724e-15
  179 2151.92 0.00000 2.61864e-13
  180 2151.92 0.00000 1.23993e-13
  181 2151.92 0.00000 -3.31457e-13
  182 2151.92 0.00000 -8.59259e-14
  183 2151.92 0.00000 -4.09532e-13
  184 2151.92 0.00000 3.71753e-13
  185 2151.92 0.00000 -2.04443e-13
  186 2151.92 0.00000 -2.03707e-13
  187 2151.92 0.00000 -2.69867e-13
  188 2151.92 0.00000 -4.38847e-13
  189 2151.92 0.00000 -2.22644e-13
  190 2151.92 0.00000 -2.26863e-13
  191 2151.92 0.00000 -1.35776e-13
  192 2151.92 0.00000 -1.80332e-13
  193 2151.92 0.00000 8.83366e-14
  194 2151.92 0.00000 -6.60909e-13
  195 2151.92 0.00000 3.37921e-14
  196 2151.92 0.00000 -1.66768e-14
  197 2151.92 0.00000 1.06087e-13
  198 2151.92 0.00000 3.84894e-13
  199 2151.92 0.00000 4.34319e-14
  200 2151.92 0.00000 -3.92714e-13
  201 2151.92 0.00000 -4.36842e-13
  202 2151.92 0.00000 -2.03707e-13
  203 2151.92 0.00000 2.07105e-13
  204 2151.92 0.00000 -2.05357e-13
  205 2151.92 0.00000 1.56508e-14
  206 2151.92 0.00000 6.59118e-13
  207 2151.92 0.00000 -1.07865e-13
  208 2151.92 0.00000 1.21933e-13
  209 2151.92 0.00000 -6.92398e-13
  210 2151.92 0.00000 -4.54264e-13
  211 2151.92 0.00000 1.00656e-13
  212 2151.92 0.00000 -3.60045e-14
  213 2151.92 0.00000 -2.30119e-13
  214 2151.92 0.00000 2.42305e-14
  215 2151.92 0.00000 2.60715e-13
  216 2151.92 0.00000 -4.75826e-13
  217 2151.92 0.00000 -2.43555e-13
  218 2151.92 0.00000 -3.93322e-13
  219 2151.92 0.00000 3.33343e-13
  220 2151.92 0.00000 -1.84096e-13
  221 2151.92 0.00000 -1.33212e-13
  222 2151.92 0.00000 -3.26237e-13
  223 2151.92 0.00000 2.93621e-13
  224 2151.92 0.00000 -1.08851e-14
  225 2151.92 0.00000 1.82589e-13
  226 2151.92 0.00000 7.49676e-14
  227 2151.92 0.00000 2.21467e-13
  228 2151.92 0.00000 2.33954e-13
  229 2151.92 0.00000 3.55969e-13
  230 2151.92 0.00000 -4.29936e-14
  231 2151.92 0.00000 -1.56849e-13
  232 2151.92 0.00000 1.85539e-13
  233 2151.92 0.00000 -2.07508e-13
  234 2151.92 0.00000 -2.55740e-13
  235 2151.92 0.00000 4.31875e-13
  236 2151.92 0.00000 -3.07343e-15
  237 2151.92 0.00000 4.96401e-13
  238 2151.92 0.00000 -1.18155e-13
  239 2151.92 0.00000 3.51753e-14
  240 2151.92 0.00000 -6.88006e-14
  241 2151.92 0.00000 2.14664e-13
</Section>

newXOutput 48

<Section columns = "stress_xx | stress_yy | stress_xy">
  1 2198.50 0.00000 -5.88792e-14
  2 2198.50 0.00000 1.39087e-13
  3 2198.50 0.00000 -9.32779e-13
  4 2198.50 0.00000 -1.64885e-13
  5 2198.50 0.00000 -3.51873e-13
  6 2198.50 0.00000 -5.28810e-13
  7 2198.50 0.00000 -5.50139e-13
  8 2198.50 0.00000 -3.57280e-13
  9 2198.50 0.00000 1.41763e-13
  10 2198.50 0.00000 1.73900e-13
  11 2198.50 0.00000 2.52406e-13
  12 2198.50 0.00000 6.42864e-14
  13 2198.50 0.00000 1.07094e-13
  14 2198.50 0.00000 4.21566e-13
  15 2198.50 0.00000 1.34752e-13
  16 2198.50 0.00000 -5.85987e-13
  17 2198.50 0.00000 -3.47800e-13
  18 2198.50 0.00000 4.11057e-13
  19 2198.50 0.00000 -1.47532e-13
  20 2198.50 0.00000 -6.77682e-13
  21 2198.50 0.00000 -3.58479e-14
  22 2198.50 0.00000 1.32899e-12
  23 2198.50 0.00000 1.62198e-12
  24 2198.50 0.00000 -2.74034e-13
  25 2198.50 0.00000 8.22103e-14
  26 2198.50 0.00000 -1.00563e-13
  27 2198.50 0.00000 6.94582e-13
  28 2198.50 0.00000 -8.97060e-14
  29 2198.50 0.00000 -4.03415e-14
  30 2198.50 0.00000 1.44654e-14
  31 2198.50 0.00000 -1.64641e-12
  32 2198.50 0.00000 -1.05860e-12
  33 2198.50 0.00000 -6.14469e-13
  34 2198.50 0.00000 -4.54776e-13
  35 2198.50 0.00000 -4.53155e-13
  36 2198.50 0.00000 -5.03673e-13
  37 2198.50 0.00000 -6.41268e-13
  38 2198.50 0.00000 7.02713e-13
  39 2198.50 0.00000 2.48863e-13
  40 2198.50 0.00000 6.75811e-15
  41 2198.50 0.00000 5.68659e-13
  42 2198.50 0.00000 -1.08212e-13
  43 2198.50 0.00000 -2.86069e-13
  44 2198.50 0.00000 1.48495e-13
  45 2198.50 0.00000 -5.55161e-14
  46 2198.50 0.00000 1.33557e-13
  47 2198.50 0.00000 -4.63337e-14
  48 2198.50 0.00000 -1.31984e-13
  49 2198.50 0.00000 -2.45233e-13
  50 2198.50 0.00000 8.69556e-14
  51 2198.50 0.00000 -1.34472e-14
  52 2198.50 0.00000 -1.12275e-13
  53 2198.50 0.00000 3.58591e-14
  54 2198.50 0.00000 2.14434e-14
  55 2198.50 0.00000 0.00000
  56 2198.50 0.00000 1.41886e-13
  57 2198.50 0.00000 -1.74415e-13
  58 2198.50 0.00000 -6.31290e-13
  59 2198.50 0.00000 -2.48885e-13
  60 2198.50 0.00000 3.52506e-13
  61 2198.50 0.00000 1.42091e-13
  62 2198.50 0.00000 3.64420e-13
  63 2198.50 0.00000 4.01539e-13
  64 2198.50 0.00000 4.54377e-13
  65 2198.50 0.00000 -1.55344e-13
  66 2198.50 0.00000 -1.76780e-14
  67 2198.50 0.00000 -4.64695e-13
  68 2198.50 0.00000 -6.77481e-13
  69 2198.50 0.00000 7.00082e-14
  70 2198.50 0.00000 -2.77942e-13
  71 2198.50 0.00000 -1.13059e-13
  72 2198.50 0.00000 1.73707e-13
  73 2198.50 0.00000 1.41157e-13
  74 2198.50 0.00000 2.17230e-13
  75 2198.50 0.00000 4.42239e-13
  76 2198.50 0.00000 2.57140e-13
  77 2198.50 0.00000 7.05362e-14
  78 2198.50 0.00000 -1.03297e-12
  79 2198.50 0.00000 -1.18241e-13
  80 2198.50 0.00000 4.18622e-13
  81 2198.50 0.00000 2.61880e-13
  82 2198.50 0.00000 7.92662e-14
  83 2198.50 0.00000 -2.00209e-13
  84 2198.50 0.00000 -1.09877e-13
  85 2198.50 0.00000 1.10128e-13
  86 2198.50 0.00000 -7.03666e-14
  87 2198.50 0.00000 2.69569e-13
  88 2198.50 0.00000 -1.19637e-14
  89 2198.50 0.00000 3.18504e-13
  90 2198.50 0.00000 -2.47239e-13
  91 2198.50 0.00000 -1.36397e-13
  92 2198.50 0.00000 2.83535e-13
  93 2198.50 0.00000 -1.37034e-13
  94 2198.50 0.00000 -6.10676e-13
  95 2198.50 0.00000 -1.15690e-13
  96 2198.50 0.00000 1.02381e-13
  97 2198.50 0.00000 -2.13750e-13
  98 2198.50 0.00000 6.14287e-15
  99 2198.50 0.00000 3.94935e-13
  100 2198.50 0.00000 -1.50116e-13
  101 2198.50 0.00000 4.58477e-14
  102 2198.50 0.00000 9.91051e-13
  103 2198.50 0.00000 1.97880e-13
  104 2198.50 0.00000 4.22858e-13
  105 2198.50 0.00000 -6.06949e-13
  106 2198.50 0.00000 3.44095e-13
  107 2198.50 0.00000 -5.05508e-13
  108 2198.50 0.00000 -1.31266e-13
  109 2198.50 0.00000 -5.91813e-14
  110 2198.50 0.00000 -3.52210e-13
  111 2198.50 0.00000 -7.86244e-13
  112 2198.50 0.00000 -8.39596e-14
  113 2198.50 0.00000 4.10782e-13
  114 2198.50 0.00000 -7.88460e-14
  115 2198.50 0.00000 3.04914e-13
  116 2198.50 0.00000 -3.20751e-13
  117 2198.50 0.00000 8.51705e-13
  118 2198.50 0.00000 1.12967e-13
  119 2198.50 0.00000 2.51685e-14
  120 2198.50 0.00000 -4.82879e-13
  121 2198.50 0.00000 -5.25071e-14
  122 2198.50 0.00000 -2.13389e-13
  123 2198.50 0.00000 -3.43995e-13
  124 2198.50 0.00000 2.78568e-13
  125 2198.50 0.00000 1.02035e-13
  126 2198.50 0.00000 -5.18499e-14
  127 2198.50 0.00000 -1.46065e-13
  128 2198.50 0.00000 1.64807e-13
  129 2198.50 0.00000 -1.10101e-13
  130 2198.50 0.00000 -1.34987e-13
  131 2198.50 0.00000 -1.61906e-13
  132 2198.50 0.00000 -2.95822e-14
  133 2198.50 0.00000 -3.77031e-14
  134 2198.50 0.00000 -8.64460e-15
  135 2198.50 0.00000 1.66941e-14
  136 2198.50 0.00000 5.27511e-14
  137 2198.50 0.00000 3.91395e-13
  138 2198.50 0.00000 -5.85601e-13
  139 2198.50 0.00000 -7.93839e-14
  140 2198.50 0.00000 1.00184e-13
  141 2198.50 0.00000 9.86184e-14
  142 2198.50 0.00000 8.88052e-14
  143 2198.50 0.00000 2.31310e-13
  144 2198.50 0.00000 -5.66231e-13
  145 2198.50 0.00000 -6.14417e-13
  146 2198.50 0.00000 -2.30085e-13
  147 2198.50 0.00000 -2.83942e-13
  148 2198.50 0.00000 5.19279e-14
  149 2198.50 0.00000 9.29825e-13
  150 2198.50 0.00000 4.83856e-13
  151 2198.50 0.00000 2.03673e-13
  152 2198.50 0.00000 7.91234e-13
  153 2198.50 0.00000 -1.67525e-13
  154 2198.50 0.00000 3.55826e-13
  155 2198.50 0.00000 2.60210e-13
  156 2198.50 0.00000 -7.77938e-14
  157 2198.50 0.00000 -4.83215e-14
  158 2198.50 0.00000 5.72674e-13
  159 2198.50 0.00000 3.91241e-14
  160 2198.50 0.00000 -3.96720e-15
  161 2198.50 0.00000 3.01960e-13
  162 2198.50 0.00000 -1.27128e-13
  163 2198.50 0.00000 7.90309e-13
  164 2198.50 0.00000 1.98291e-13
  165 2198.50 0.00000 -1.04577e-13
  166 2198.50 0.00000 3.04592e-14
  167 2198.50 0.00000 -3.23529e-13
  168 2198.50 0.00000 4.12143e-14
  169 2198.50 0.00000 1.85504e-13
  170 2198.50 0.00000 -8.22045e-13
  171 2198.50 0.00000 -2.01542e-13
  172 2198.50 0.00000 2.34476e-13
  173 2198.50 0.00000 -1.26151e-13
  174 2198.50 0.00000 1.40422e-13
  175 2198.50 0.00000 1.32139e-13
  176 2198.50 0.00000 6.38332e-14
  177 2198.50 0.00000 -4.86462e-13
  178 2198.50 0.00000 -3.48181e-13
  179 2198.50 0.00000 -2.98624e-13
  180 2198.50 0.00000 -1.74512e-13
  181 2198.50 0.00000 2.98535e-13
  182 2198.50 0.00000 3.54468e-13
  183 2198.50 0.00000 1.20379e-13
  184 2198.50 0.00000 -2.44408e-13
  185 2198.50 0.00000 2.44196e-13
  186 2198.50 0.00000 5.80179e-13
  187 2198.50 0.00000 -8.81200e-13
  188 2198.50 0.00000 -3.15779e-13
  189 2198.50 0.00000 1.96097e-13
  190 2198.50 0.00000 3.41052e-13
  191 2198.50 0.00000 -2.35531e-14
  192 2198.50 0.00000 -1.01518e-14
  193 2198.50 0.00000 -3.82647e-13
  194 2198.50 0.00000 1.11763e-14
  195 2198.50 0.00000 -1.13002e-13
  196 2198.50 0.00000 -6.58522e-13
  197 2198.50 0.00000 1.40230e-13
  198 2198.50 0.00000 1.41242e-13
  199 2198.50 0.00000 2.11913e-13
  200 2198.50 0.00000 -8.76715e-13
  201 2198.50 0.00000 1.31300e-13
  202 2198.50 0.00000 -8.48940e-13
  203 2198.50 0.00000 -1.67305e-13
  204 2198.50 0.00000 2.02641e-13
  205 2198.50 0.00000 -2.55618e-13
  206 2198.50 0.00000 2.37112e-13
  207 2198.50 0.00000 -1.86809e-13
  208 2198.50 0.00000 -4.55839e-13
  209 2198.50 0.00000 -1.63238e-13
  210 2198.50 0.00000 3.85125e-13
  211 2198.50 0.00000 -4.07592e-13
  212 2198.50 0.00000 8.21747e-13
  213 2198.50 0.00000 6.13751e-14
  214 2198.50 0.00000 -3.84967e-13
  215 2198.50 0.00000 -2.36662e-13
  216 2198.50 0.00000 2.73284e-13
  217 2198.50 0.00000 -2.22504e-13
  218 2198.50 0.00000 3.08036e-13
  219 2198.50 0.00000 -1.85746e-13
  220 2198.50 0.00000 5.39395e-13
  221 2198.50 0.00000 9.99575e-14
  222 2198.50 0.00000 4.82295e-13
  223 2198.50 0.00000 -5.19698e-14
  224 2198.50 0.00000 -1.89398e-13
  225 2198.50 0.00000 -8.19202e-13
  226 2198.50 0.00000 -1.44120e-13
  227 2198.50 0.00000 1.92163e-14
  228 2198.50 0.00000 -7.75279e-15
  229 2198.50 0.00000 -2.17729e-13
  230 2198.50 0.00000 4.66893e-13
  231 2198.50 0.00000 -1.21396e-13
  232 2198.50 0.00000 -1.18004e-13
  233 2198.50 0.00000 9.95503e-13
  234 2198.50 0.00000 2.39981e-13
  235 2198.50 0.00000 -6.99774e-14
  236 2198.50 0.00000 1.20347e-13
  237 2198.50 0.00000 -2.48687e-13
  238 2198.50 0.00000 3.56971e-13
  239 2198.50 0.00000 9.61552e-13
  240 2198.50 0.00000 7.14559e-14
  241 2198.50 0.00000 -2.10783e-13
</Section>

newXOutput 49

<Section columns = "stress_xx | stress_yy | stress_xy">
  1 2245.09 0.00000 -1.71060e-13
  2 2245.09 0.00000 -8.15728e-14
  3 2245.09 0.00000 1.18438e-13
  4 2245.09 0.00000 4.44106e-14
  5 2245.09 0.00000 1.92763e-14
  6 2245.09 0.00000 8.15728e-14
  7 2245.09 0.00000 3.09249e-13
  8 2245.09 0.00000 4.00700e-13
  9 2245.09 0.00000 3.02489e-13
  10 2245.09 0.00000 1.05529e-14
  11 2245.09 0.00000 1.24593e-13
  12 2245.09 0.00000 -1.14040e-13
  13 2245.09 0.00000 -3.86864e-13
  14 2245.09 0.00000 -3.04647e-13
  15 2245.09 0.00000 -3.92194e-13
  16 2245.09 0.00000 -7.15899e-13
  17 2245.09 0.00000 -1.19317e-12
  18 2245.09 0.00000 5.88496e-14
  19 2245.09 0.00000 9.11783e-13
  20 2245.09 0.00000 6.43801e-13
  21 2245.09 0.00000 1.20480e-12
  22 2245.09 0.00000 -3.35765e-13
  23 2245.09 0.00000 -1.22644e-12
  24 2245.09 0.00000 -5.43818e-14
  25 2245.09 0.00000 0.00000
  26 2245.09 0.00000 -3.17163e-13
  27 2245.09 0.00000 4.22884e-13
  28 2245.09 0.00000 5.74386e-14
  29 2245.09 0.00000 1.63146e-13
  30 2245.09 0.00000 7.83626e-13
  31 2245.09 0.00000 2.78892e-13
  32 2245.09 0.00000 -1.33285e-12
  33 2245.09 0.00000 2.63461e-13
  34 2245.09 0.00000 1.15509e-12
  35 2245.09 0.00000 3.29636e-13
  36 2245.09 0.00000 5.37956e-14
  37 2245.09 0.00000 3.99508e-13
  38 2245.09 0.00000 3.62792e-13
  39 2245.09 0.00000 7.24689e-13
  40 2245.09 0.00000 1.05613e-13
  41 2245.09 0.00000 -1.31435e-13
  42 2245.09 0.00000 -4.66265e-13
  43 2245.09 0.00000 -2.29640e-13
  44 2245.09 0.00000 -3.22474e-13
  45 2245.09 0.00000 -3.43292e-13
  46 2245.09 0.00000 -2.42304e-13
  47 2245.09 0.00000 2.79736e-13
  48 2245.09 0.00000 1.34179e-13
  49 2245.09 0.00000 -7.69834e-14
  50 2245.09 0.00000 -1.13325e-14
  51 2245.09 0.00000 -2.65755e-14
  52 2245.09 0.00000 1.71933e-14
  53 2245.09 0.00000 -7.41217e-14
  54 2245.09 0.00000 -2.05670e-14
  55 2245.09 0.00000 0.00000
  56 2245.09 0.00000 -1.20616e-13
  57 2245.09 0.00000 9.91417e-14
  58 2245.09 0.00000 4.96090e-13
  59 2245.09 0.00000 1.72990e-13
  60 2245.09 0.00000 2.38406e-14
  61 2245.09 0.00000 1.02385e-13
  62 2245.09 0.00000 -6.37933e-14
  63 2245.09 0.00000 3.53651e-13
  64 2245.09 0.00000 -5.70239e-13
  65 2245.09 0.00000 4.38565e-14
  66 2245.09 0.00000 -9.97472e-14
  67 2245.09 0.00000 4.04417e-13
  68 2245.09 0.00000 1.20162e-14
  69 2245.09 0.00000 -1.91125e-13
  70 2245.09 0.00000 -4.95309e-14
  71 2245.09 0.00000 2.56705e-13
  72 2245.09 0.00000 -2.04552e-13
  73 2245.09 0.00000 -3.49515e-13
  74 2245.09 0.00000 -1.36579e-13
  75 2245.09 0.00000 3.58377e-13
  76 2245.09 0.00000 2.27676e-13
  77 2245.09 0.00000 -5.34380e-14
  78 2245.09 0.00000 -2.58093e-14
  79 2245.09 0.00000 -6.60263e-14
  80 2245.09 0.00000 1.98675e-13
  81 2245.09 0.00000 -1.62107e-13
  82 2245.09 0.00000 4.05795e-13
  83 2245.09 0.00000 -2.12125e-13
  84 2245.09 0.00000 2.29092e-13
  85 2245.09 0.00000 3.24674e-14
  86 2245.09 0.00000 5.19275e-13
  87 2245.09 0.00000 -1.41197e-13
  88 2245.09 0.00000 4.39416e-13
  89 2245.09 0.00000 2.21012e-14
  90 2245.09 0.00000 2.46158e-13
  91 2245.09 0.00000 1.24462e-13
  92 2245.09 0.00000 -2.62422e-13
  93 2245.09 0.00000 2.81242e-13
  94 2245.09 0.00000 -1.08043e-13
  95 2245.09 0.00000 -9.52289e-14
  96 2245.09 0.00000 -9.98100e-14
  97 2245.09 0.00000 8.85519e-14
  98 2245.09 0.00000 2.74592e-14
  99 2245.09 0.00000 5.65965e-14
  100 2245.09 0.00000 5.36114e-14
  101 2245.09 0.00000 1.14887e-13
  102 2245.09 0.00000 1.55924e-13
  103 2245.09 0.00000 4.91921e-13
  104 2245.09 0.00000 2.07852e-14
  105 2245.09 0.00000 -1.28605e-14
  106 2245.09 0.00000 1.07041e-13
  107 2245.09 0.00000 -2.79112e-13
  108 2245.09 0.00000 -4.36026e-14
  109 2245.09 0.00000 4.35706e-14
  110 2245.09 0.00000 -1.19228e-13
  111 2245.09 0.00000 6.05927e-13
  112 2245.09 0.00000 -1.77414e-15
  113 2245.09 0.00000 7.97485e-14
  114 2245.09 0.00000 2.33731e-13
  115 2245.09 0.00000 2.79371e-13
  116 2245.09 0.00000 3.27938e-13
  117 2245.09 0.00000 -4.78518e-13
  118 2245.09 0.00000 -6.33721e-14
  119 2245.09 0.00000 -2.12136e-13
  120 2245.09 0.00000 4.00794e-14
  121 2245.09 0.00000 -2.19555e-14
  122 2245.09 0.00000 -4.25356e-14
  123 2245.09 0.00000 -4.35405e-14
  124 2245.09 0.00000 -9.53401e-14
  125 2245.09 0.00000 1.85885e-13
  126 2245.09 0.00000 2.60584e-13
  127 2245.09 0.00000 2.84127e-13
  128 2245.09 0.00000 3.66271e-14
  129 2245.09 0.00000 -9.50325e-14
  130 2245.09 0.00000 -2.20560e-13
  131 2245.09 0.00000 -4.05959e-13
  132 2245.09 0.00000 -3.96238e-13
  133 2245.09 0.00000 -7.83215e-14
  134 2245.09 0.00000 2.98635e-13
  135 2245.09 0.00000 1.05318e-12
  136 2245.09 0.00000 1.34548e-14
  137 2245.09 0.00000 1.19754e-13
  138 2245.09 0.00000 -9.41599e-14
  139 2245.09 0.00000 7.67614e-14
  140 2245.09 0.00000 -4.38367e-13
  141 2245.09 0.00000 -2.95099e-13
  142 2245.09 0.00000 1.02679e-13
  143 2245.09 0.00000 -2.34473e-14
  144 2245.09 0.00000 4.79108e-13
  145 2245.09 0.00000 6.25508e-13
  146 2245.09 0.00000 -3.65272e-13
  147 2245.09 0.00000 3.44217e-13
  148 2245.09 0.00000 -4.26933e-14
  149 2245.09 0.00000 4.08182e-13
  150 2245.09 0.00000 1.38068e-14
  151 2245.09 0.00000 1.79072e-13
  152 2245.09 0.00000 5.39822e-13
  153 2245.09 0.00000 2.61982e-13
  154 2245.09 0.00000 5.04099e-13
  155 2245.09 0.00000 1.85262e-13
  156 2245.09 0.00000 -2.86636e-13
  157 2245.09 0.00000 -7.68002e-14
  158 2245.09 0.00000 -2.42312e-13
  159 2245.09 0.00000 -2.37786e-13
  160 2245.09 0.00000 -1.15046e-13
  161 2245.09 0.00000 4.09205e-13
  162 2245.09 0.00000 -1.95827e-13
  163 2245.09 0.00000 -2.63870e-13
  164 2245.09 0.00000 -2.61480e-13
  165 2245.09 0.00000 2.76897e-13
  166 2245.09 0.00000 -6.77932e-15
  167 2245.09 0.00000 -3.45307e-13
  168 2245.09 0.00000 1.00844e-12
  169 2245.09 0.00000 1.43625e-14
  170 2245.09 0.00000 9.71271e-13
  171 2245.09 0.00000 1.84699e-13
  172 2245.09 0.00000 -3.89589e-13
  173 2245.09 0.00000 -3.09523e-13
  174 2245.09 0.00000 -7.94376e-15
  175 2245.09 0.00000 -9.05247e-14
  176 2245.09 0.00000 3.27613e-14
  177 2245.09 0.00000 5.06741e-13
  178 2245.09 0.00000 5.80315e-14
  179 2245.09 0.00000 1.55878e-13
  180 2245.09 0.00000 2.46550e-13
  181 2245.09 0.00000 2.35542e-13
  182 2245.09 0.00000 -1.40235e-13
  183 2245.09 0.00000 2.92563e-13
  184 2245.09 0.00000 -5.36925e-13
  185 2245.09 0.00000 -1.76404e-13
  186 2245.09 0.00000 -6.70033e-14
  187 2245.09 0.00000 -4.19632e-13
  188 2245.09 0.00000 1.56778e-13
  189 2245.09 0.00000 -1.89957e-13
  190 2245.09 0.00000 6.96380e-14
  191 2245.09 0.00000 7.77313e-14
  192 2245.09 0.00000 2.41334e-13
  193 2245.09 0.00000 -1.42585e-13
  194 2245.09 0.00000 -6.69529e-13
  195 2245.09 0.00000 1.14616e-13
  196 2245.09 0.00000 5.67041e-13
  197 2245.09 0.00000 -8.63128e-14
  198 2245.09 0.00000 7.39239e-13
  199 2245.09 0.00000 -3.09372e-14
  200 2245.09 0.00000 6.70542e-14
  201 2245.09 0.00000 9.52158e-14
  202 2245.09 0.00000 4.41186e-13
  203 2245.09 0.00000 1.90472e-13
  204 2245.09 0.00000 -1.60382e-13
  205 2245.09 0.00000 2.09176e-13
  206 2245.09 0.00000 1.07588e-12
  207 2245.09 0.00000 3.01810e-13
  208 2245.09 0.00000 5.56537e-13
  209 2245.09 0.00000 -4.40370e-13
  210 2245.09 0.00000 -3.49623e-13
  211 2245.09 0.00000 2.29050e-13
  212 2245.09 0.00000 7.90194e-14
  213 2245.09 0.00000 -1.29253e-13
  214 2245.09 0.00000 -8.57406e-13
  215 2245.09 0.00000 -1.53450e-14
  216 2245.09 0.00000 5.24125e-13
  217 2245.09 0.00000 -4.59317e-13
  218 2245.09 0.00000 -3.14377e-13
  219 2245.09 0.00000 -1.97889e-13
  220 2245.09 0.00000 5.03762e-14
  221 2245.09 0.00000 3.29325e-13
  222 2245.09 0.00000 4.79125e-13
  223 2245.09 0.00000 1.34231e-13
  224 2245.09 0.00000 2.49432e-13
  225 2245.09 0.00000 -4.24883e-13
  226 2245.09 0.00000 5.46280e-14
  227 2245.09 0.00000 -2.21995e-13
  228 2245.09 0.00000 4.47240e-13
  229 2245.09 0.00000 2.75366e-13
  230 2245.09 0.00000 -9.74021e-14
  231 2245.09 0.00000 2.55764e-13
  232 2245.09 0.00000 1.64730e-14
  233 2245.09 0.00000 -4.30622e-14
  234 2245.09 0.00000 1.23272e-13
  235 2245.09 0.00000 -2.53087e-13
  236 2245.09 0.00000 3.34950e-14
  237 2245.09 0.00000 -2.33812e-13
  238 2245.09 0.00000 3.48222e-13
  239 2245.09 0.00000 -1.74575e-13
  240 2245.09 0.00000 8.10875e-14
  241 2245.09 0.00000 -2.17566e-13
</Section>

newXOutput 50

<Section columns = "stress_xx | stress_yy | stress_xy">
  1 2291.70 0.00000 -2.88151e-13
  2 2291.70 0.00000 -1.76080e-13
  3 2291.70 0.00000 1.45968e-12
  4 2291.70 0.00000 2.71025e-13
  5 2291.70 0.00000 -3.19673e-13
  6 2291.70 0.00000 -2.65737e-13
  7 2291.70 0.00000 -6.33574e-13
  8 2291.70 0.00000 -8.41107e-13
  9 2291.70 0.00000 -2.33270e-13
  10 2291.70 0.00000 -5.86082e-13
  11 2291.70 0.00000 -3.62286e-13
  12 2291.70 0.00000 -5.63514e-13
  13 2291.70 0.00000 -9.56345e-14
  14 2291.70 0.00000 3.42686e-13
  15 2291.70 0.00000 3.52649e-13
  16 2291.70 0.00000 3.37523e-13
  17 2291.70 0.00000 -6.79238e-13
  18 2291.70 0.00000 -7.19409e-13
  19 2291.70 0.00000 -3.46997e-13
  20 2291.70 0.00000 2.93041e-13
  21 2291.70 0.00000 -1.31172e-13
  22 2291.70 0.00000 -4.69546e-13
  23 2291.70 0.00000 -6.45201e-13
  24 2291.70 0.00000 2.93041e-13
  25 2291.70 0.00000 8.09345e-14
  26 2291.70 0.00000 -8.88903e-13
  27 2291.70 0.00000 -2.71078e-14
  28 2291.70 0.00000 -1.70616e-13
  29 2291.70 0.00000 -1.61869e-13
  30 2291.70 0.00000 -3.07920e-13
  31 2291.70 0.00000 2.21764e-12
  32 2291.70 0.00000 1.07913e-13
  33 2291.70 0.00000 -3.49508e-13
  34 2291.70 0.00000 -2.47565e-13
  35 2291.70 0.00000 -5.78610e-13
  36 2291.70 0.00000 -2.58567e-13
  37 2291.70 0.00000 1.24273e-13
  38 2291.70 0.00000 8.68434e-14
  39 2291.70 0.00000 -3.52979e-13
  40 2291.70 0.00000 2.12422e-13
  41 2291.70 0.00000 -7.04529e-14
  42 2291.70 0.00000 -5.51341e-13
  43 2291.70 0.00000 -3.74053e-13
  44 2291.70 0.00000 -7.10841e-14
  45 2291.70 0.00000 1.68195e-13
  46 2291.70 0.00000 -3.29078e-13
  47 2291.70 0.00000 -1.38034e-13
  48 2291.70 0.00000 1.69414e-13
  49 2291.70 0.00000 6.70561e-13
  50 2291.70 0.00000 -6.94240e-15
  51 2291.70 0.00000 0.00000
  52 2291.70 0.00000 -3.76536e-14
  53 2291.70 0.00000 -9.44391e-15
  54 2291.70 0.00000 -4.29297e-14
  55 2291.70 0.00000 -1.90291e-13
  56 2291.70 0.00000 -1.15604e-13
  57 2291.70 0.00000 1.10680e-13
  58 2291.70 0.00000 -8.39656e-13
  59 2291.70 0.00000 -1.66100e-13
  60 2291.70 0.00000 -1.32828e-13
  61 2291.70 0.00000 -1.51054e-13
  62 2291.70 0.00000 -2.34317e-13
  63 2291.70 0.00000 2.26148e-13
  64 2291.70 0.00000 5.75876e-13
  65 2291.70 0.00000 2.58209e-13
  66 2291.70 0.00000 6.76717e-14
  67 2291.70 0.00000 -8.11878e-13
  68 2291.70 0.00000 -7.60189e-13
  69 2291.70 0.00000 8.98873e-14
  70 2291.70 0.00000 1.81448e-13
  71 2291.70 0.00000 -3.01217e-13
  72 2291.70 0.00000 3.14501e-13
  73 2291.70 0.00000 2.90178e-13
  74 2291.70 0.00000 3.59458e-13
  75 2291.70 0.00000 7.04796e-13
  76 2291.70 0.00000 7.60267e-13
  77 2291.70 0.00000 -4.71419e-14
  78 2291.70 0.00000 -6.19493e-13
  79 2291.70 0.00000 -3.76512e-13
  80 2291.70 0.00000 4.70851e-13
  81 2291.70 0.00000 2.46368e-13
  82 2291.70 0.00000 -2.93252e-13
  83 2291.70 0.00000 2.11916e-13
  84 2291.70 0.00000 -2.26064e-13
  85 2291.70 0.00000 5.56587e-13
  86 2291.70 0.00000 2.29190e-13
  87 2291.70 0.00000 2.82875e-13
  88 2291.70 0.00000 -1.35631e-12
  89 2291.70 0.00000 5.83507e-14
  90 2291.70 0.00000 -2.66063e-13
  91 2291.70 0.00000 5.93294e-13
  92 2291.70 0.00000 -4.89901e-13
  93 2291.70 0.00000 -1.28363e-12
  94 2291.70 0.00000 5.13030e-13
  95 2291.70 0.00000 4.87036e-13
  96 2291.70 0.00000 -3.13379e-13
  97 2291.70 0.00000 2.13883e-13
  98 2291.70 0.00000 4.89192e-13
  99 2291.70 0.00000 2.26021e-14
  100 2291.70 0.00000 2.92456e-13
  101 2291.70 0.00000 -9.08143e-14
  102 2291.70 0.00000 2.35282e-13
  103 2291.70 0.00000 -9.35204e-13
  104 2291.70 0.00000 -1.57892e-13
  105 2291.70 0.00000 1.40356e-13
  106 2291.70 0.00000 7.94521e-14
  107 2291.70 0.00000 -7.79951e-13
  108 2291.70 0.00000 -1.51753e-13
  109 2291.70 0.00000 -8.76507e-14
  110 2291.70 0.00000 -1.33828e-13
  111 2291.70 0.00000 -8.60773e-13
  112 2291.70 0.00000 1.57033e-13
  113 2291.70 0.00000 8.53245e-15
  114 2291.70 0.00000 -1.37643e-13
  115 2291.70 0.00000 -4.65840e-13
  116 2291.70 0.00000 -2.03320e-13
  117 2291.70 0.00000 -6.85233e-14
  118 2291.70 0.00000 -7.37978e-14
  119 2291.70 0.00000 1.22173e-13
  120 2291.70 0.00000 -5.04085e-13
  121 2291.70 0.00000 1.07823e-14
  122 2291.70 0.00000 -2.84793e-13
  123 2291.70 0.00000 -8.50297e-14
  124 2291.70 0.00000 -6.71669e-13
  125 2291.70 0.00000 3.35803e-13
  126 2291.70 0.00000 -4.98550e-13
  127 2291.70 0.00000 -2.65809e-13
  128 2291.70 0.00000 6.88367e-14
  129 2291.70 0.00000 2.94925e-13
  130 2291.70 0.00000 -1.59807e-13
  131 2291.70 0.00000 -1.17783e-13
  132 2291.70 0.00000 2.15374e-13
  133 2291.70 0.00000 2.14670e-13
  134 2291.70 0.00000 -1.96169e-13
  135 2291.70 0.00000 -1.39054e-13
  136 2291.70 0.00000 3.34308e-13
  137 2291.70 0.00000 -1.40695e-13
  138 2291.70 0.00000 1.17535e-14
  139 2291.70 0.00000 1.27615e-13
  140 2291.70 0.00000 4.39617e-13
  141 2291.70 0.00000 -2.44353e-13
  142 2291.70 0.00000 -4.22804e-13
  143 2291.70 0.00000 -1.86159e-13
  144 2291.70 0.00000 -6.57871e-14
  145 2291.70 0.00000 -1.19722e-12
  146 2291.70 0.00000 3.49939e-13
  147 2291.70 0.00000 1.85607e-13
  148 2291.70 0.00000 -1.90913e-13
  149 2291.70 0.00000 5.13036e-13
  150 2291.70 0.00000 -1.13745e-13
  151 2291.70 0.00000 -2.30723e-13
  152 2291.70 0.00000 -9.21882e-14
  153 2291.70 0.00000 -1.34453e-14
  154 2291.70 0.00000 8.74246e-13
  155 2291.70 0.00000 -8.50783e-14
  156 2291.70 0.00000 -2.27371e-13
  157 2291.70 0.00000 -2.74782e-13
  158 2291.70 0.00000 7.58229e-14
  159 2291.70 0.00000 3.56096e-13
  160 2291.70 0.00000 5.25546e-14
  161 2291.70 0.00000 -1.08135e-13
  162 2291.70 0.00000 9.72070e-14
  163 2291.70 0.00000 1.36669e-13
  164 2291.70 0.00000 1.62444e-13
  165 2291.70 0.00000 -3.40888e-13
  166 2291.70 0.00000 -6.46432e-14
  167 2291.70 0.00000 2.52116e-13
  168 2291.70 0.00000 -7.08608e-13
  169 2291.70 0.00000 1.54196e-14
  170 2291.70 0.00000 -9.03544e-13
  171 2291.70 0.00000 -2.90891e-13
  172 2291.70 0.00000 -1.55799e-14
  173 2291.70 0.00000 1.00568e-13
  174 2291.70 0.00000 -5.65377e-14
  175 2291.70 0.00000 2.82686e-13
  176 2291.70 0.00000 -9.68484e-16
  177 2291.70 0.00000 1.95661e-13
  178 2291.70 0.00000 1.58352e-13
  179 2291.70 0.00000 -2.52931e-13
  180 2291.70 0.00000 2.43867e-13
  181 2291.70 0.00000 1.88098e-13
  182 2291.70 0.00000 -1.27646e-13
  183 2291.70 0.00000 4.11131e-13
  184 2291.70 0.00000 2.61186e-13
  185 2291.70 0.00000 -1.41650e-13
  186 2291.70 0.00000 6.70533e-13
  187 2291.70 0.00000 2.48919e-13
  188 2291.70 0.00000 -5.47174e-13
  189 2291.70 0.00000 9.34250e-14
  190 2291.70 0.00000 1.07229e-13
  191 2291.70 0.00000 1.22638e-13
  192 2291.70 0.00000 3.64251e-13
  193 2291.70 0.00000 -2.53142e-13
  194 2291.70 0.00000 2.00462e-13
  195 2291.70 0.00000 -4.99761e-14
  196 2291.70 0.00000 -8.45283e-13
  197 2291.70 0.00000 -1.27547e-13
  198 2291.70 0.00000 -1.49458e-13
  199 2291.70 0.00000 -4.54802e-13
  200 2291.70 0.00000 -3.75384e-13
  201 2291.70 0.00000 7.13477e-13
  202 2291.70 0.00000 -6.43351e-13
  203 2291.70 0.00000 -3.17833e-13
  204 2291.70 0.00000 5.86933e-14
  205 2291.70 0.00000 1.42016e-13
  206 2291.70 0.00000 5.16583e-14
  207 2291.70 0.00000 1.02836e-13
  208 2291.70 0.00000 -1.07497e-12
  209 2291.70 0.00000 3.15267e-13
  210 2291.70 0.00000 4.11437e-13
  211 2291.70 0.00000 -2.57756e-13
  212 2291.70 0.00000 -3.95036e-13
  213 2291.70 0.00000 3.40345e-13
  214 2291.70 0.00000 -2.26934e-13
  215 2291.70 0.00000 -3.98513e-13
  216 2291.70 0.00000 1.87755e-13
  217 2291.70 0.00000 -4.22668e-14
  218 2291.70 0.00000 3.76755e-13
  219 2291.70 0.00000 -1.08299e-13
  220 2291.70 0.00000 -6.46636e-14
  221 2291.70 0.00000 -5.72384e-14
  222 2291.70 0.00000 -1.26831e-12
  223 2291.70 0.00000 -2.15176e-13
  224 2291.70 0.00000 -5.60708e-13
  225 2291.70 0.00000 3.83498e-13
  226 2291.70 0.00000 2.04039e-13
  227 2291.70 0.00000 -8.80200e-13
  228 2291.70 0.00000 5.89948e-13
  229 2291.70 0.00000 -1.92540e-13
  230 2291.70 0.00000 3.93670e-13
  231 2291.70 0.00000 7.26275e-14
  232 2291.70 0.00000 -6.00082e-13
  233 2291.70 0.00000 -5.34000e-13
  234 2291.70 0.00000 3.22678e-13
  235 2291.70 0.00000 2.44011e-13
  236 2291.70 0.00000 -1.24873e-13
  237 2291.70 0.00000 -1.91627e-13
  238 2291.70 0.00000 -5.12580e-13
  239 2291.70 0.00000 7.50046e-13
  240 2291.70 0.00000 -5.85658e-13
  241 2291.70 0.00000 3.01497e-13
</Section>

newXOutput 51

<Section columns = "stress_xx | stress_yy | stress_xy">
  1 2338.31 0.00000 1.28602e-13
  2 2338.31 0.00000 3.40788e-28
  3 2338.31 0.00000 -1.14003e-12
  4 2338.31 0.00000 2.01516e-15
  5 2338.31 0.00000 -1.68777e-13
  6 2338.31 0.00000 -2.98079e-13
  7 2338.31 0.00000 -1.63338e-13
  8 2338.31 0.00000 5.35304e-14
  9 2338.31 0.00000 3.52956e-13
  10 2338.31 0.00000 9.43514e-14
  11 2338.31 0.00000 -4.41495e-13
  12 2338.31 0.00000 -2.15953e-13
  13 2338.31 0.00000 -2.15037e-13
  14 2338.31 0.00000 -2.54189e-14
  15 2338.31 0.00000 6.93030e-14
  16 2338.31 0.00000 -9.75869e-14
  17 2338.31 0.00000 -4.79081e-13
  18 2338.31 0.00000 4.53662e-13
  19 2338.31 0.00000 7.18621e-13
  20 2338.31 0.00000 2.22249e-13
  21 2338.31 0.00000 -5.42085e-13
  22 2338.31 0.00000 -3.84187e-13
  23 2338.31 0.00000 3.31199e-13
  24 2338.31 0.00000 2.14122e-13
  25 2338.31 0.00000 -8.02956e-14
  26 2338.31 0.00000 4.86238e-13
  27 2338.31 0.00000 9.66807e-13
  28 2338.31 0.00000 -1.63445e-13
  29 2338.31 0.00000 -1.47623e-13
  30 2338.31 0.00000 -6.38339e-13
  31 2338.31 0.00000 4.25309e-14
  32 2338.31 0.00000 9.18052e-13
  33 2338.31 0.00000 8.14114e-13
  34 2338.31 0.00000 8.76379e-13
  35 2338.31 0.00000 6.02807e-13
  36 2338.31 0.00000 4.87730e-13
  37 2338.31 0.00000 6.51852e-13
  38 2338.31 0.00000 6.43968e-13
  39 2338.31 0.00000 2.24117e-14
  40 2338.31 0.00000 3.39311e-13
  41 2338.31 0.00000 9.33379e-13
  42 2338.31 0.00000 2.15595e-13
  43 2338.31 0.00000 3.82392e-13
  44 2338.31 0.00000 5.04372e-13
  45 2338.31 0.00000 2.13898e-13
  46 2338.31 0.00000 -3.05950e-13
  47 2338.31 0.00000 -4.28289e-13
  48 2338.31 0.00000 -4.60482e-13
  49 2338.31 0.00000 -2.13493e-13
  50 2338.31 0.00000 -1.70032e-14
  51 2338.31 0.00000 0.00000
  52 2338.31 0.00000 -5.52564e-14
  53 2338.31 0.00000 1.52062e-13
  54 2338.31 0.00000 1.42706e-13
  55 2338.31 0.00000 1.60591e-13
  56 2338.31 0.00000 4.51438e-14
  57 2338.31 0.00000 -1.76554e-13
  58 2338.31 0.00000 4.75643e-14
  59 2338.31 0.00000 4.43149e-14
  60 2338.31 0.00000 -2.88373e-14
  61 2338.31 0.00000 -3.80410e-14
  62 2338.31 0.00000 -2.30809e-13
  63 2338.31 0.00000 3.60374e-13
  64 2338.31 0.00000 2.42475e-13
  65 2338.31 0.00000 1.42776e-13
  66 2338.31 0.00000 1.36452e-13
  67 2338.31 0.00000 -2.95911e-13
  68 2338.31 0.00000 -5.54244e-13
  69 2338.31 0.00000 -4.81435e-14
  70 2338.31 0.00000 -1.71564e-13
  71 2338.31 0.00000 -3.14232e-13
  72 2338.31 0.00000 -1.76164e-13
  73 2338.31 0.00000 -5.68003e-13
  74 2338.31 0.00000 1.26787e-13
  75 2338.31 0.00000 5.90316e-14
  76 2338.31 0.00000 6.76655e-13
  77 2338.31 0.00000 1.96629e-13
  78 2338.31 0.00000 -3.46758e-13
  79 2338.31 0.00000 -1.30139e-13
  80 2338.31 0.00000 1.79900e-14
  81 2338.31 0.00000 -4.95486e-13
  82 2338.31 0.00000 -2.33471e-13
  83 2338.31 0.00000 1.79641e-13
  84 2338.31 0.00000 -2.08222e-13
  85 2338.31 0.00000 -1.46794e-13
  86 2338.31 0.00000 3.11171e-14
  87 2338.31 0.00000 -2.73957e-13
  88 2338.31 0.00000 -1.19222e-12
  89 2338.31 0.00000 -2.01766e-13
  90 2338.31 0.00000 -3.81927e-15
  91 2338.31 0.00000 -4.04098e-14
  92 2338.31 0.00000 -7.68963e-14
  93 2338.31 0.00000 2.78965e-13
  94 2338.31 0.00000 3.32597e-14
  95 2338.31 0.00000 2.58944e-13
  96 2338.31 0.00000 -2.42931e-13
  97 2338.31 0.00000 -6.28759e-13
  98 2338.31 0.00000 -1.00618e-13
  99 2338.31 0.00000 -7.24976e-13
  100 2338.31 0.00000 3.55844e-13
  101 2338.31 0.00000 -9.72988e-14
  102 2338.31 0.00000 -9.28865e-13
  103 2338.31 0.00000 2.03159e-13
  104 2338.31 0.00000 -2.98930e-13
  105 2338.31 0.00000 -2.26527e-13
  106 2338.31 0.00000 2.98604e-13
  107 2338.31 0.00000 6.19170e-14
  108 2338.31 0.00000 6.76296e-14
  109 2338.31 0.00000 5.92394e-14
  110 2338.31 0.00000 -1.78125e-13
  111 2338.31 0.00000 -4.02401e-13
  112 2338.31 0.00000 -9.53573e-14
  113 2338.31 0.00000 -1.75212e-13
  114 2338.31 0.00000 1.05333e-13
  115 2338.31 0.00000 -3.07336e-13
  116 2338.31 0.00000 -5.60938e-14
  117 2338.31 0.00000 -2.08193e-13
  118 2338.31 0.00000 1.61560e-13
  119 2338.31 0.00000 -1.68137e-13
  120 2338.31 0.00000 1.83373e-13
  121 2338.31 0.00000 -8.09699e-14
  122 2338.31 0.00000 -6.68985e-14
  123 2338.31 0.00000 -2.12916e-13
  124 2338.31 0.00000 -3.71080e-13
  125 2338.31 0.00000 -5.87676e-15
  126 2338.31 0.00000 -1.57982e-13
  127 2338.31 0.00000 -1.66853e-13
  128 2338.31 0.00000 1.28257e-13
  129 2338.31 0.00000 -2.25701e-14
  130 2338.31 0.00000 -3.61487e-13
  131 2338.31 0.00000 -9.39306e-14
  132 2338.31 0.00000 -2.66340e-13
  133 2338.31 0.00000 -2.00683e-13
  134 2338.31 0.00000 -2.37896e-13
  135 2338.31 0.00000 -2.06829e-13
  136 2338.31 0.00000 -3.13741e-13
  137 2338.31 0.00000 1.11566e-13
  138 2338.31 0.00000 -2.11486e-13
  139 2338.31 0.00000 5.82435e-14
  140 2338.31 0.00000 4.83859e-13
  141 2338.31 0.00000 1.92854e-13
  142 2338.31 0.00000 7.50864e-14
  143 2338.31 0.00000 -1.91216e-13
  144 2338.31 0.00000 4.35680e-14
  145 2338.31 0.00000 1.25006e-13
  146 2338.31 0.00000 7.56381e-14
  147 2338.31 0.00000 -1.97118e-13
  148 2338.31 0.00000 2.01111e-13
  149 2338.31 0.00000 8.93824e-13
  150 2338.31 0.00000 2.35823e-14
  151 2338.31 0.00000 -8.37153e-14
  152 2338.31 0.00000 1.39424e-13
  153 2338.31 0.00000 -3.33497e-13
  154 2338.31 0.00000 2.80964e-13
  155 2338.31 0.00000 -2.44133e-13
  156 2338.31 0.00000 3.03272e-14
  157 2338.31 0.00000 1.57422e-13
  158 2338.31 0.00000 -5.44233e-13
  159 2338.31 0.00000 -3.58831e-14
  160 2338.31 0.00000 1.92433e-13
  161 2338.31 0.00000 1.54366e-12
  162 2338.31 0.00000 1.01910e-13
  163 2338.31 0.00000 1.20239e-14
  164 2338.31 0.00000 -2.63135e-13
  165 2338.31 0.00000 -2.28474e-13
  166 2338.31 0.00000 -1.47964e-13
  167 2338.31 0.00000 -1.25380e-13
  168 2338.31 0.00000 -4.58155e-13
  169 2338.31 0.00000 -1.76713e-14
  170 2338.31 0.00000 -2.13093e-13
  171 2338.31 0.00000 -7.27503e-14
  172 2338.31 0.00000 -1.96429e-13
  173 2338.31 0.00000 -4.38994e-14
  174 2338.31 0.00000 2.30924e-13
  175 2338.31 0.00000 -8.79593e-14
  176 2338.31 0.00000 -1.20513e-13
  177 2338.31 0.00000 -1.35603e-12
  178 2338.31 0.00000 -4.92155e-14
  179 2338.31 0.00000 3.10196e-14
  180 2338.31 0.00000 7.17952e-14
  181 2338.31 0.00000 -1.09021e-13
  182 2338.31 0.00000 5.55476e-14
  183 2338.31 0.00000 1.43963e-13
  184 2338.31 0.00000 -2.24828e-13
  185 2338.31 0.00000 1.13704e-13
  186 2338.31 0.00000 -2.28123e-13
  187 2338.31 0.00000 -9.98149e-14
  188 2338.31 0.00000 -1.08215e-13
  189 2338.31 0.00000 1.58381e-14
  190 2338.31 0.00000 -1.44762e-13
  191 2338.31 0.00000 8.65062e-14
  192 2338.31 0.00000 -5.52574e-14
  193 2338.31 0.00000 2.74468e-13
  194 2338.31 0.00000 -5.28863e-14
  195 2338.31 0.00000 -1.11037e-13
  196 2338.31 0.00000 -6.97881e-13
  197 2338.31 0.00000 -4.72376e-14
  198 2338.31 0.00000 3.86076e-13
  199 2338.31 0.00000 2.18295e-14
  200 2338.31 0.00000 1.16768e-13
  201 2338.31 0.00000 -8.04363e-14
  202 2338.31 0.00000 -1.22699e-13
  203 2338.31 0.00000 -7.34519e-14
  204 2338.31 0.00000 -5.29773e-13
  205 2338.31 0.00000 3.94127e-14
  206 2338.31 0.00000 6.18384e-13
  207 2338.31 0.00000 -2.72667e-13
  208 2338.31 0.00000 1.39239e-13
  209 2338.31 0.00000 -8.96429e-13
  210 2338.31 0.00000 -2.48271e-13
  211 2338.31 0.00000 -2.64611e-13
  212 2338.31 0.00000 6.27178e-13
  213 2338.31 0.00000 -2.88775e-13
  214 2338.31 0.00000 -1.18139e-13
  215 2338.31 0.00000 -6.64386e-13
  216 2338.31 0.00000 -7.10630e-14
  217 2338.31 0.00000 -9.29934e-13
  218 2338.31 0.00000 -7.03631e-14
  219 2338.31 0.00000 2.37501e-13
  220 2338.31 0.00000 3.54108e-14
  221 2338.31 0.00000 1.16787e-13
  222 2338.31 0.00000 4.30537e-14
  223 2338.31 0.00000 7.67064e-14
  224 2338.31 0.00000 -3.69375e-13
  225 2338.31 0.00000 -2.17039e-13
  226 2338.31 0.00000 3.41345e-13
  227 2338.31 0.00000 -6.40358e-13
  228 2338.31 0.00000 2.10399e-13
  229 2338.31 0.00000 4.57674e-14
  230 2338.31 0.00000 9.73278e-14
  231 2338.31 0.00000 3.50807e-13
  232 2338.31 0.00000 3.32463e-13
  233 2338.31 0.00000 9.71276e-14
  234 2338.31 0.00000 -1.24933e-13
  235 2338.31 0.00000 1.80186e-13
  236 2338.31 0.00000 -8.49434e-14
  237 2338.31 0.00000 -1.67712e-13
  238 2338.31 0.00000 1.94014e-13
  239 2338.31 0.00000 -1.12529e-13
  240 2338.31 0.00000 -1.14320e-13
  241 2338.31 0.00000 1.94009e-13
</Section>

newXOutput 52

<Section columns = "stress_xx | stress_yy | stress_xy">
  1 2384.93 0.00000 -1.59556e-13
  2 2384.93 0.00000 7.20003e-13
  3 2384.93 0.00000 8.29486e-14
  4 2384.93 0.00000 -4.02988e-13
  5 2384.93 0.00000 -1.17586e-13
  6 2384.93 0.00000 -6.47808e-15
  7 2384.93 0.00000 4.17612e-14
  8 2384.93 0.00000 1.89327e-28
  9 2384.93 0.00000 1.84320e-13
  10 2384.93 0.00000 2.24301e-14
  11 2384.93 0.00000 2.06889e-14
  12 2384.93 0.00000 -3.68965e-14
  13 2384.93 0.00000 -2.96246e-13
  14 2384.93 0.00000 7.33796e-13
  15 2384.93 0.00000 4.08363e-13
  16 2384.93 0.00000 -8.80966e-14
  17 2384.93 0.00000 6.18114e-13
  18 2384.93 0.00000 1.83612e-13
  19 2384.93 0.00000 -5.33106e-13
  20 2384.93 0.00000 -4.80002e-13
  21 2384.93 0.00000 -4.71365e-13
  22 2384.93 0.00000 2.76224e-13
  23 2384.93 0.00000 8.62434e-13
  24 2384.93 0.00000 -6.25779e-14
  25 2384.93 0.00000 -1.87734e-13
  26 2384.93 0.00000 -2.39669e-13
  27 2384.93 0.00000 2.84664e-13
  28 2384.93 0.00000 -3.13769e-13
  29 2384.93 0.00000 1.46503e-13
  30 2384.93 0.00000 1.43434e-13
  31 2384.93 0.00000 -6.25154e-14
  32 2384.93 0.00000 -1.90717e-13
  33 2384.93 0.00000 -3.79401e-13
  34 2384.93 0.00000 -6.65021e-13
  35 2384.93 0.00000 8.14280e-14
  36 2384.93 0.00000 -4.16333e-13
  37 2384.93 0.00000 2.41584e-13
  38 2384.93 0.00000 3.74718e-13
  39 2384.93 0.00000 -1.81467e-13
  40 2384.93 0.00000 -1.99528e-13
  41 2384.93 0.00000 -9.05647e-14
  42 2384.93 0.00000 3.09802e-13
  43 2384.93 0.00000 1.67174e-13
  44 2384.93 0.00000 2.26905e-13
  45 2384.93 0.00000 4.53596e-14
  46 2384.93 0.00000 -2.50603e-13
  47 2384.93 0.00000 -5.66827e-13
  48 2384.93 0.00000 -6.82518e-13
  49 2384.93 0.00000 -7.01311e-13
  50 2384.93 0.00000 1.51693e-13
  51 2384.93 0.00000 -3.78653e-29
  52 2384.93 0.00000 -1.12594e-13
  53 2384.93 0.00000 1.15845e-13
  54 2384.93 0.00000 -8.67132e-14
  55 2384.93 0.00000 0.00000
  56 2384.93 0.00000 1.84407e-14
  57 2384.93 0.00000 -1.41293e-13
  58 2384.93 0.00000 2.04475e-13
  59 2384.93 0.00000 3.19515e-14
  60 2384.93 0.00000 4.10259e-13
  61 2384.93 0.00000 3.59665e-13
  62 2384.93 0.00000 -1.66097e-13
  63 2384.93 0.00000 -3.87413e-13
  64 2384.93 0.00000 4.92974e-13
  65 2384.93 0.00000 -8.07340e-14
  66 2384.93 0.00000 5.22855e-14
  67 2384.93 0.00000 3.64591e-13
  68 2384.93 0.00000 -2.08877e-14
  69 2384.93 0.00000 4.30256e-13
  70 2384.93 0.00000 2.22291e-13
  71 2384.93 0.00000 4.77127e-13
  72 2384.93 0.00000 7.16157e-13
  73 2384.93 0.00000 2.90924e-13
  74 2384.93 0.00000 -2.57137e-13
  75 2384.93 0.00000 4.33735e-13
  76 2384.93 0.00000 3.70591e-14
  77 2384.93 0.00000 -8.98641e-14
  78 2384.93 0.00000 3.99837e-13
  79 2384.93 0.00000 -5.30324e-14
  80 2384.93 0.00000 9.82593e-14
  81 2384.93 0.00000 6.75759e-14
  82 2384.93 0.00000 2.21810e-13
  83 2384.93 0.00000 -2.36479e-13
  84 2384.93 0.00000 4.73541e-13
  85 2384.93 0.00000 3.76584e-13
  86 2384.93 0.00000 -1.10042e-13
  87 2384.93 0.00000 2.14569e-13
  88 2384.93 0.00000 -3.37632e-14
  89 2384.93 0.00000 3.19742e-13
  90 2384.93 0.00000 4.32406e-16
  91 2384.93 0.00000 -2.15726e-13
  92 2384.93 0.00000 -2.25179e-13
  93 2384.93 0.00000 1.14827e-13
  94 2384.93 0.00000 -5.94991e-13
  95 2384.93 0.00000 -3.20350e-13
  96 2384.93 0.00000 1.08358e-13
  97 2384.93 0.00000 -4.09147e-13
  98 2384.93 0.00000 -5.00332e-13
  99 2384.93 0.00000 2.93154e-13
  100 2384.93 0.00000 -3.43569e-13
  101 2384.93 0.00000 1.20082e-13
  102 2384.93 0.00000 6.72902e-15
  103 2384.93 0.00000 3.45543e-13
  104 2384.93 0.00000 -4.06573e-13
  105 2384.93 0.00000 -3.02137e-13
  106 2384.93 0.00000 -1.83237e-13
  107 2384.93 0.00000 6.85946e-13
  108 2384.93 0.00000 -1.76946e-13
  109 2384.93 0.00000 -1.13301e-14
  110 2384.93 0.00000 -3.20425e-13
  111 2384.93 0.00000 -1.91590e-13
  112 2384.93 0.00000 1.98797e-13
  113 2384.93 0.00000 -6.43605e-14
  114 2384.93 0.00000 1.61858e-13
  115 2384.93 0.00000 -1.14835e-13
  116 2384.93 0.00000 1.06956e-13
  117 2384.93 0.00000 1.10527e-13
  118 2384.93 0.00000 -3.39291e-13
  119 2384.93 0.00000 4.03049e-13
  120 2384.93 0.00000 7.43172e-13
  121 2384.93 0.00000 1.42182e-13
  122 2384.93 0.00000 2.53853e-13
  123 2384.93 0.00000 3.93946e-13
  124 2384.93 0.00000 1.12397e-13
  125 2384.93 0.00000 -1.58180e-13
  126 2384.93 0.00000 1.33793e-13
  127 2384.93 0.00000 1.40154e-13
  128 2384.93 0.00000 -1.54527e-13
  129 2384.93 0.00000 -2.33746e-13
  130 2384.93 0.00000 -1.17050e-13
  131 2384.93 0.00000 3.10529e-13
  132 2384.93 0.00000 2.69802e-13
  133 2384.93 0.00000 -6.59277e-14
  134 2384.93 0.00000 1.25735e-13
  135 2384.93 0.00000 3.83250e-14
  136 2384.93 0.00000 -4.56426e-13
  137 2384.93 0.00000 -5.06218e-14
  138 2384.93 0.00000 3.41826e-14
  139 2384.93 0.00000 -2.94609e-13
  140 2384.93 0.00000 -1.81015e-13
  141 2384.93 0.00000 1.16675e-13
  142 2384.93 0.00000 -1.36626e-13
  143 2384.93 0.00000 -1.91116e-13
  144 2384.93 0.00000 1.89991e-13
  145 2384.93 0.00000 -2.43025e-13
  146 2384.93 0.00000 -2.47658e-14
  147 2384.93 0.00000 -2.18464e-13
  148 2384.93 0.00000 -1.57893e-14
  149 2384.93 0.00000 4.46633e-14
  150 2384.93 0.00000 -2.23628e-13
  151 2384.93 0.00000 5.69231e-13
  152 2384.93 0.00000 1.13564e-13
  153 2384.93 0.00000 -8.34335e-14
  154 2384.93 0.00000 3.51326e-14
  155 2384.93 0.00000 3.34954e-13
  156 2384.93 0.00000 1.88937e-13
  157 2384.93 0.00000 -1.45754e-13
  158 2384.93 0.00000 -2.47728e-13
  159 2384.93 0.00000 2.84138e-13
  160 2384.93 0.00000 1.22424e-13
  161 2384.93 0.00000 9.45520e-13
  162 2384.93 0.00000 -1.96904e-13
  163 2384.93 0.00000 -2.76781e-14
  164 2384.93 0.00000 -7.96332e-13
  165 2384.93 0.00000 4.24739e-13
  166 2384.93 0.00000 9.40688e-14
  167 2384.93 0.00000 -4.86984e-13
  168 2384.93 0.00000 4.10073e-13
  169 2384.93 0.00000 1.80470e-13
  170 2384.93 0.00000 1.21034e-13
  171 2384.93 0.00000 -8.96720e-14
  172 2384.93 0.00000 3.87070e-13
  173 2384.93 0.00000 1.12535e-13
  174 2384.93 0.00000 2.22940e-13
  175 2384.93 0.00000 -5.94451e-14
  176 2384.93 0.00000 8.05057e-14
  177 2384.93 0.00000 -2.98378e-13
  178 2384.93 0.00000 -7.14121e-14
  179 2384.93 0.00000 1.80001e-14
  180 2384.93 0.00000 -4.15533e-13
  181 2384.93 0.00000 -1.77703e-13
  182 2384.93 0.00000 3.67233e-13
  183 2384.93 0.00000 -4.43102e-13
  184 2384.93 0.00000 5.43834e-13
  185 2384.93 0.00000 2.69267e-13
  186 2384.93 0.00000 2.70001e-13
  187 2384.93 0.00000 -7.85760e-13
  188 2384.93 0.00000 -1.47063e-13
  189 2384.93 0.00000 2.17046e-13
  190 2384.93 0.00000 -3.66607e-13
  191 2384.93 0.00000 -4.12211e-13
  192 2384.93 0.00000 -8.32815e-13
  193 2384.93 0.00000 3.29960e-13
  194 2384.93 0.00000 8.13147e-13
  195 2384.93 0.00000 -9.99070e-14
  196 2384.93 0.00000 5.95733e-13
  197 2384.93 0.00000 2.88888e-13
  198 2384.93 0.00000 2.38875e-13
  199 2384.93 0.00000 -4.40426e-14
  200 2384.93 0.00000 6.65200e-13
  201 2384.93 0.00000 9.22031e-13
  202 2384.93 0.00000 1.06688e-13
  203 2384.93 0.00000 2.54259e-14
  204 2384.93 0.00000 3.57982e-13
  205 2384.93 0.00000 -1.99706e-13
  206 2384.93 0.00000 -4.58682e-13
  207 2384.93 0.00000 -5.52129e-13
  208 2384.93 0.00000 -2.32098e-14
  209 2384.93 0.00000 1.37709e-13
  210 2384.93 0.00000 -1.24161e-14
  211 2384.93 0.00000 2.82125e-14
  212 2384.93 0.00000 5.18603e-13
  213 2384.93 0.00000 -3.89008e-13
  214 2384.93 0.00000 2.05806e-13
  215 2384.93 0.00000 1.77200e-13
  216 2384.93 0.00000 -4.52198e-13
  217 2384.93 0.00000 1.71978e-13
  218 2384.93 0.00000 -1.99530e-13
  219 2384.93 0.00000 6.60514e-13
  220 2384.93 0.00000 -4.43218e-13
  221 2384.93 0.00000 -2.12391e-13
  222 2384.93 0.00000 -4.30167e-15
  223 2384.93 0.00000 1.57919e-13
  224 2384.93 0.00000 -1.85065e-13
  225 2384.93 0.00000 -6.95091e-14
  226 2384.93 0.00000 -4.82446e-13
  227 2384.93 0.00000 1.18407e-13
  228 2384.93 0.00000 3.01035e-13
  229 2384.93 0.00000 -1.24267e-13
  230 2384.93 0.00000 -2.05682e-13
  231 2384.93 0.00000 2.86148e-13
  232 2384.93 0.00000 -1.39702e-13
  233 2384.93 0.00000 -2.21588e-13
  234 2384.93 0.00000 -2.35559e-13
  235 2384.93 0.00000 -6.40025e-13
  236 2384.93 0.00000 3.73707e-13
  237 2384.93 0.00000 1.07868e-12
  238 2384.93 0.00000 2.22335e-13
  239 2384.93 0.00000 -1.25701e-13
  240 2384.93 0.00000 -4.80318e-13
  241 2384.93 0.00000 7.66118e-13
</Section>

newXOutput 53

<Section columns = "stress_xx | stress_yy | stress_xy">
  1 2431.57 0.00000 -9.01750e-14
  2 2431.57 0.00000 7.90156e-14
  3 2431.57 0.00000 8.20357e-15
  4 2431.57 0.00000 -1.52367e-13
  5 2431.57 0.00000 -2.85704e-13
  6 2431.57 0.00000 -1.80350e-13
  7 2431.57 0.00000 -1.57581e-13
  8 2431.57 0.00000 -2.00634e-13
  9 2431.57 0.00000 -1.98548e-15
  10 2431.57 0.00000 2.55346e-13
  11 2431.57 0.00000 0.00000
  12 2431.57 0.00000 -8.75062e-13
  13 2431.57 0.00000 3.69781e-13
  14 2431.57 0.00000 5.49787e-13
  15 2431.57 0.00000 6.60096e-13
  16 2431.57 0.00000 -7.63266e-13
  17 2431.57 0.00000 -1.11319e-12
  18 2431.57 0.00000 5.86936e-13
  19 2431.57 0.00000 -5.26771e-14
  20 2431.57 0.00000 2.43886e-13
  21 2431.57 0.00000 3.56631e-13
  22 2431.57 0.00000 9.92961e-13
  23 2431.57 0.00000 4.64717e-13
  24 2431.57 0.00000 -2.70225e-13
  25 2431.57 0.00000 3.16062e-13
  26 2431.57 0.00000 -3.61481e-13
  27 2431.57 0.00000 -8.40199e-13
  28 2431.57 0.00000 7.15481e-13
  29 2431.57 0.00000 -9.16641e-14
  30 2431.57 0.00000 -3.42929e-13
  31 2431.57 0.00000 -4.97988e-13
  32 2431.57 0.00000 -1.52387e-12
  33 2431.57 0.00000 -3.21470e-13
  34 2431.57 0.00000 5.90422e-13
  35 2431.57 0.00000 -5.44267e-14
  36 2431.57 0.00000 4.85763e-13
  37 2431.57 0.00000 -7.18783e-13
  38 2431.57 0.00000 -3.84994e-13
  39 2431.57 0.00000 7.11604e-13
  40 2431.57 0.00000 6.53852e-13
  41 2431.57 0.00000 -3.76836e-13
  42 2431.57 0.00000 -5.64268e-13
  43 2431.57 0.00000 -2.41850e-13
  44 2431.57 0.00000 -5.23467e-13
  45 2431.57 0.00000 -1.33695e-13
  46 2431.57 0.00000 7.22732e-13
  47 2431.57 0.00000 4.57285e-13
  48 2431.57 0.00000 -3.40982e-13
  49 2431.57 0.00000 -4.36466e-13
  50 2431.57 0.00000 1.00988e-13
  51 2431.57 0.00000 5.05939e-14
  52 2431.57 0.00000 -6.52869e-14
  53 2431.57 0.00000 1.50292e-13
  54 2431.57 0.00000 1.13844e-14
  55 2431.57 0.00000 7.90156e-14
  56 2431.57 0.00000 1.37643e-13
  57 2431.57 0.00000 1.61201e-14
  58 2431.57 0.00000 -4.03281e-13
  59 2431.57 0.00000 2.42849e-13
  60 2431.57 0.00000 -3.47161e-13
  61 2431.57 0.00000 2.34937e-13
  62 2431.57 0.00000 -2.79715e-13
  63 2431.57 0.00000 4.39715e-13
  64 2431.57 0.00000 -7.02326e-13
  65 2431.57 0.00000 6.61183e-14
  66 2431.57 0.00000 4.44128e-13
  67 2431.57 0.00000 -4.86400e-13
  68 2431.57 0.00000 1.03669e-13
  69 2431.57 0.00000 -6.02742e-13
  70 2431.57 0.00000 -7.83647e-13
  71 2431.57 0.00000 -2.84766e-13
  72 2431.57 0.00000 -3.02829e-13
  73 2431.57 0.00000 -2.55836e-13
  74 2431.57 0.00000 -2.03698e-14
  75 2431.57 0.00000 -9.73468e-13
  76 2431.57 0.00000 -3.97505e-13
  77 2431.57 0.00000 -5.45989e-14
  78 2431.57 0.00000 -1.31769e-12
  79 2431.57 0.00000 2.28916e-13
  80 2431.57 0.00000 -8.08916e-13
  81 2431.57 0.00000 -5.27384e-13
  82 2431.57 0.00000 -6.45253e-13
  83 2431.57 0.00000 4.23617e-14
  84 2431.57 0.00000 -3.12634e-13
  85 2431.57 0.00000 5.43060e-13
  86 2431.57 0.00000 5.46804e-13
  87 2431.57 0.00000 1.27426e-13
  88 2431.57 0.00000 -5.49846e-13
  89 2431.57 0.00000 3.47594e-14
  90 2431.57 0.00000 -1.87344e-13
  91 2431.57 0.00000 1.14969e-13
  92 2431.57 0.00000 -1.90060e-13
  93 2431.57 0.00000 -6.12594e-13
  94 2431.57 0.00000 2.55365e-13
  95 2431.57 0.00000 -8.72865e-15
  96 2431.57 0.00000 2.64678e-13
  97 2431.57 0.00000 8.39368e-13
  98 2431.57 0.00000 -2.80518e-13
  99 2431.57 0.00000 -3.46213e-13
  100 2431.57 0.00000 6.41759e-13
  101 2431.57 0.00000 1.01487e-13
  102 2431.57 0.00000 2.11747e-13
  103 2431.57 0.00000 1.16955e-12
  104 2431.57 0.00000 1.39294e-13
  105 2431.57 0.00000 -1.34672e-13
  106 2431.57 0.00000 5.57050e-13
  107 2431.57 0.00000 -6.25795e-13
  108 2431.57 0.00000 -1.53900e-13
  109 2431.57 0.00000 5.52963e-14
  110 2431.57 0.00000 8.54635e-13
  111 2431.57 0.00000 -7.19222e-13
  112 2431.57 0.00000 -6.13086e-14
  113 2431.57 0.00000 -1.34467e-14
  114 2431.57 0.00000 -7.48588e-13
  115 2431.57 0.00000 3.40204e-13
  116 2431.57 0.00000 -1.39456e-13
  117 2431.57 0.00000 -8.86614e-14
  118 2431.57 0.00000 4.25887e-14
  119 2431.57 0.00000 -2.01051e-13
  120 2431.57 0.00000 -1.18940e-12
  121 2431.57 0.00000 2.55827e-13
  122 2431.57 0.00000 -7.04134e-13
  123 2431.57 0.00000 -2.35473e-13
  124 2431.57 0.00000 2.78412e-13
  125 2431.57 0.00000 -1.35163e-13
  126 2431.57 0.00000 -6.62869e-14
  127 2431.57 0.00000 4.19161e-13
  128 2431.57 0.00000 3.08436e-15
  129 2431.57 0.00000 3.64803e-14
  130 2431.57 0.00000 -6.37098e-13
  131 2431.57 0.00000 1.73784e-13
  132 2431.57 0.00000 -7.97323e-13
  133 2431.57 0.00000 2.21147e-13
  134 2431.57 0.00000 -1.14907e-13
  135 2431.57 0.00000 4.40625e-13
  136 2431.57 0.00000 -9.21537e-14
  137 2431.57 0.00000 5.48130e-13
  138 2431.57 0.00000 3.07676e-13
  139 2431.57 0.00000 1.65234e-13
  140 2431.57 0.00000 3.55657e-14
  141 2431.57 0.00000 1.75890e-13
  142 2431.57 0.00000 3.01821e-13
  143 2431.57 0.00000 -1.56255e-13
  144 2431.57 0.00000 -6.03232e-13
  145 2431.57 0.00000 -9.97497e-13
  146 2431.57 0.00000 -9.03620e-14
  147 2431.57 0.00000 3.82193e-13
  148 2431.57 0.00000 1.47565e-13
  149 2431.57 0.00000 -6.38694e-13
  150 2431.57 0.00000 3.39433e-13
  151 2431.57 0.00000 -6.99319e-14
  152 2431.57 0.00000 6.39311e-13
  153 2431.57 0.00000 2.33351e-13
  154 2431.57 0.00000 -3.97212e-13
  155 2431.57 0.00000 6.69066e-14
  156 2431.57 0.00000 -9.40857e-14
  157 2431.57 0.00000 -1.34184e-13
  158 2431.57 0.00000 -7.39252e-13
  159 2431.57 0.00000 2.07411e-13
  160 2431.57 0.00000 1.27897e-13
  161 2431.57 0.00000 -8.56516e-13
  162 2431.57 0.00000 3.80861e-14
  163 2431.57 0.00000 -6.88683e-13
  164 2431.57 0.00000 9.17166e-14
  165 2431.57 0.00000 3.06347e-14
  166 2431.57 0.00000 4.74474e-14
  167 2431.57 0.00000 -1.99906e-13
  168 2431.57 0.00000 3.52180e-13
  169 2431.57 0.00000 8.23524e-14
  170 2431.57 0.00000 9.16244e-13
  171 2431.57 0.00000 4.12454e-15
  172 2431.57 0.00000 -8.92260e-14
  173 2431.57 0.00000 -1.64591e-13
  174 2431.57 0.00000 -1.49643e-13
  175 2431.57 0.00000 2.86912e-14
  176 2431.57 0.00000 1.28764e-13
  177 2431.57 0.00000 -1.00100e-12
  178 2431.57 0.00000 -3.91233e-14
  179 2431.57 0.00000 -1.60734e-13
  180 2431.57 0.00000 1.92253e-13
  181 2431.57 0.00000 6.83989e-14
  182 2431.57 0.00000 -8.70476e-13
  183 2431.57 0.00000 2.67551e-13
  184 2431.57 0.00000 -4.37304e-13
  185 2431.57 0.00000 3.24887e-13
  186 2431.57 0.00000 7.82566e-13
  187 2431.57 0.00000 -1.22099e-12
  188 2431.57 0.00000 4.37227e-13
  189 2431.57 0.00000 1.73924e-13
  190 2431.57 0.00000 1.23253e-14
  191 2431.57 0.00000 -1.35856e-13
  192 2431.57 0.00000 5.05741e-13
  193 2431.57 0.00000 -4.28748e-13
  194 2431.57 0.00000 -1.06693e-13
  195 2431.57 0.00000 -4.13302e-14
  196 2431.57 0.00000 2.16612e-14
  197 2431.57 0.00000 -4.51625e-14
  198 2431.57 0.00000 -3.24609e-14
  199 2431.57 0.00000 -3.33569e-13
  200 2431.57 0.00000 -4.26791e-13
  201 2431.57 0.00000 -7.07956e-13
  202 2431.57 0.00000 -6.46657e-14
  203 2431.57 0.00000 -3.54103e-13
  204 2431.57 0.00000 -1.21545e-13
  205 2431.57 0.00000 4.46881e-13
  206 2431.57 0.00000 7.04405e-13
  207 2431.57 0.00000 3.36037e-13
  208 2431.57 0.00000 -5.34581e-13
  209 2431.57 0.00000 3.41975e-13
  210 2431.57 0.00000 -1.94498e-14
  211 2431.57 0.00000 -9.10468e-14
  212 2431.57 0.00000 3.90284e-13
  213 2431.57 0.00000 -2.66680e-13
  214 2431.57 0.00000 -5.22653e-13
  215 2431.57 0.00000 3.20644e-13
  216 2431.57 0.00000 1.73648e-13
  217 2431.57 0.00000 -7.52972e-13
  218 2431.57 0.00000 3.19244e-14
  219 2431.57 0.00000 -4.73815e-13
  220 2431.57 0.00000 3.65582e-14
  221 2431.57 0.00000 6.56674e-13
  222 2431.57 0.00000 -1.12147e-13
  223 2431.57 0.00000 2.04159e-13
  224 2431.57 0.00000 -1.54994e-13
  225 2431.57 0.00000 2.15544e-13
  226 2431.57 0.00000 7.48182e-13
  227 2431.57 0.00000 1.56755e-14
  228 2431.57 0.00000 -2.29275e-13
  229 2431.57 0.00000 1.33799e-13
  230 2431.57 0.00000 -4.55115e-13
  231 2431.57 0.00000 1.45059e-13
  232 2431.57 0.00000 -1.48930e-13
  233 2431.57 0.00000 1.30293e-13
  234 2431.57 0.00000 -5.83425e-13
  235 2431.57 0.00000 -3.64234e-14
  236 2431.57 0.00000 -2.31878e-13
  237 2431.57 0.00000 -6.88745e-13
  238 2431.57 0.00000 -6.15557e-15
  239 2431.57 0.00000 3.87881e-13
  240 2431.57 0.00000 4.67067e-13
  241 2431.57 0.00000 -1.11801e-13
</Section>

newXOutput 54

<Section columns = "stress_xx | stress_yy | stress_xy">
  1 2478.22 0.00000 -2.13901e-13
  2 2478.22 0.00000 8.01185e-13
  3 2478.22 0.00000 -1.00048e-14
  4 2478.22 0.00000 9.47495e-14
  5 2478.22 0.00000 -1.03920e-13
  6 2478.22 0.00000 0.00000
  7 2478.22 0.00000 -8.92342e-14
  8 2478.22 0.00000 -3.06177e-13
  9 2478.22 0.00000 -2.43915e-13
  10 2478.22 0.00000 -3.64384e-13
  11 2478.22 0.00000 -2.31463e-13
  12 2478.22 0.00000 -4.43772e-13
  13 2478.22 0.00000 -7.83745e-14
  14 2478.22 0.00000 -4.81873e-13
  15 2478.22 0.00000 -5.87283e-13
  16 2478.22 0.00000 -7.75060e-13
  17 2478.22 0.00000 -1.25693e-12
  18 2478.22 0.00000 2.44453e-13
  19 2478.22 0.00000 4.20150e-13
  20 2478.22 0.00000 5.99363e-13
  21 2478.22 0.00000 4.33140e-13
  22 2478.22 0.00000 -1.42911e-12
  23 2478.22 0.00000 -5.46576e-13
  24 2478.22 0.00000 2.27946e-13
  25 2478.22 0.00000 0.00000
  26 2478.22 0.00000 -2.15583e-13
  27 2478.22 0.00000 -4.73548e-13
  28 2478.22 0.00000 7.56290e-14
  29 2478.22 0.00000 -1.24882e-14
  30 2478.22 0.00000 3.05031e-14
  31 2478.22 0.00000 6.00955e-13
  32 2478.22 0.00000 1.88869e-12
  33 2478.22 0.00000 8.36690e-13
  34 2478.22 0.00000 3.25968e-13
  35 2478.22 0.00000 6.67475e-13
  36 2478.22 0.00000 1.11365e-12
  37 2478.22 0.00000 3.57136e-13
  38 2478.22 0.00000 -6.99271e-14
  39 2478.22 0.00000 2.69272e-13
  40 2478.22 0.00000 4.92895e-13
  41 2478.22 0.00000 -1.70144e-14
  42 2478.22 0.00000 1.74989e-13
  43 2478.22 0.00000 4.75419e-13
  44 2478.22 0.00000 -4.73663e-13
  45 2478.22 0.00000 -6.48167e-13
  46 2478.22 0.00000 7.01990e-14
  47 2478.22 0.00000 3.93848e-13
  48 2478.22 0.00000 3.06040e-13
  49 2478.22 0.00000 2.79311e-13
  50 2478.22 0.00000 -6.43969e-14
  51 2478.22 0.00000 -1.24882e-14
  52 2478.22 0.00000 6.24410e-15
  53 2478.22 0.00000 -3.01171e-14
  54 2478.22 0.00000 -3.30710e-14
  55 2478.22 0.00000 -9.25853e-14
  56 2478.22 0.00000 -2.10318e-13
  57 2478.22 0.00000 5.42973e-14
  58 2478.22 0.00000 7.72327e-13
  59 2478.22 0.00000 -1.58723e-13
  60 2478.22 0.00000 9.11511e-15
  61 2478.22 0.00000 -7.69479e-14
  62 2478.22 0.00000 -1.13439e-13
  63 2478.22 0.00000 1.92189e-13
  64 2478.22 0.00000 -2.74705e-13
  65 2478.22 0.00000 7.46527e-14
  66 2478.22 0.00000 1.54567e-13
  67 2478.22 0.00000 1.53286e-13
  68 2478.22 0.00000 2.71359e-13
  69 2478.22 0.00000 -8.72816e-14
  70 2478.22 0.00000 4.61614e-14
  71 2478.22 0.00000 -1.04145e-13
  72 2478.22 0.00000 -4.06692e-14
  73 2478.22 0.00000 3.18034e-13
  74 2478.22 0.00000 1.23656e-13
  75 2478.22 0.00000 5.31167e-13
  76 2478.22 0.00000 4.98451e-14
  77 2478.22 0.00000 -2.91391e-14
  78 2478.22 0.00000 3.92652e-13
  79 2478.22 0.00000 1.40835e-13
  80 2478.22 0.00000 -2.13556e-13
  81 2478.22 0.00000 -1.06159e-13
  82 2478.22 0.00000 3.63552e-13
  83 2478.22 0.00000 -8.29644e-14
  84 2478.22 0.00000 -2.59698e-13
  85 2478.22 0.00000 5.29888e-13
  86 2478.22 0.00000 7.16579e-13
  87 2478.22 0.00000 -8.08402e-14
  88 2478.22 0.00000 -2.02153e-13
  89 2478.22 0.00000 -1.87593e-14
  90 2478.22 0.00000 8.55628e-14
  91 2478.22 0.00000 1.46344e-13
  92 2478.22 0.00000 1.12259e-14
  93 2478.22 0.00000 -9.07604e-14
  94 2478.22 0.00000 -2.19244e-13
  95 2478.22 0.00000 -4.37250e-13
  96 2478.22 0.00000 1.00444e-13
  97 2478.22 0.00000 -5.49054e-14
  98 2478.22 0.00000 -2.47149e-13
  99 2478.22 0.00000 2.90492e-14
  100 2478.22 0.00000 1.86995e-13
  101 2478.22 0.00000 2.07334e-13
  102 2478.22 0.00000 6.05997e-13
  103 2478.22 0.00000 -5.63993e-14
  104 2478.22 0.00000 2.69444e-13
  105 2478.22 0.00000 -1.70774e-13
  106 2478.22 0.00000 1.98161e-13
  107 2478.22 0.00000 -1.78245e-13
  108 2478.22 0.00000 -7.96191e-16
  109 2478.22 0.00000 4.86287e-14
  110 2478.22 0.00000 2.34908e-13
  111 2478.22 0.00000 6.09911e-14
  112 2478.22 0.00000 -1.88183e-15
  113 2478.22 0.00000 1.75206e-13
  114 2478.22 0.00000 4.54487e-13
  115 2478.22 0.00000 -1.27311e-13
  116 2478.22 0.00000 -3.41548e-13
  117 2478.22 0.00000 -1.17983e-13
  118 2478.22 0.00000 -8.70699e-14
  119 2478.22 0.00000 1.48029e-13
  120 2478.22 0.00000 2.90692e-13
  121 2478.22 0.00000 -1.40876e-14
  122 2478.22 0.00000 9.54322e-15
  123 2478.22 0.00000 -1.10932e-13
  124 2478.22 0.00000 2.26703e-13
  125 2478.22 0.00000 1.28584e-13
  126 2478.22 0.00000 -2.23807e-13
  127 2478.22 0.00000 5.30473e-13
  128 2478.22 0.00000 1.03391e-13
  129 2478.22 0.00000 -1.14960e-13
  130 2478.22 0.00000 -1.89109e-13
  131 2478.22 0.00000 4.65108e-13
  132 2478.22 0.00000 8.46511e-14
  133 2478.22 0.00000 -1.13532e-13
  134 2478.22 0.00000 -1.02236e-13
  135 2478.22 0.00000 6.60396e-14
  136 2478.22 0.00000 1.92436e-14
  137 2478.22 0.00000 -3.32684e-13
  138 2478.22 0.00000 6.76735e-14
  139 2478.22 0.00000 3.95514e-14
  140 2478.22 0.00000 5.69083e-14
  141 2478.22 0.00000 6.73934e-14
  142 2478.22 0.00000 -7.30278e-14
  143 2478.22 0.00000 5.05277e-14
  144 2478.22 0.00000 2.22509e-13
  145 2478.22 0.00000 5.24976e-13
  146 2478.22 0.00000 -3.66728e-13
  147 2478.22 0.00000 -1.12607e-14
  148 2478.22 0.00000 -9.91657e-14
  149 2478.22 0.00000 9.66759e-14
  150 2478.22 0.00000 1.02115e-14
  151 2478.22 0.00000 -2.11389e-13
  152 2478.22 0.00000 1.83452e-13
  153 2478.22 0.00000 -1.01180e-13
  154 2478.22 0.00000 -1.15710e-13
  155 2478.22 0.00000 1.29172e-15
  156 2478.22 0.00000 -1.18227e-13
  157 2478.22 0.00000 -1.87668e-14
  158 2478.22 0.00000 1.15014e-13
  159 2478.22 0.00000 2.20015e-13
  160 2478.22 0.00000 4.92155e-14
  161 2478.22 0.00000 -2.78444e-13
  162 2478.22 0.00000 2.49751e-13
  163 2478.22 0.00000 -9.07905e-14
  164 2478.22 0.00000 5.02320e-13
  165 2478.22 0.00000 -1.58095e-13
  166 2478.22 0.00000 -1.40197e-13
  167 2478.22 0.00000 1.05658e-13
  168 2478.22 0.00000 -1.67761e-13
  169 2478.22 0.00000 4.32896e-14
  170 2478.22 0.00000 -4.11908e-13
  171 2478.22 0.00000 -6.17971e-14
  172 2478.22 0.00000 1.98843e-13
  173 2478.22 0.00000 -2.61402e-13
  174 2478.22 0.00000 4.34464e-13
  175 2478.22 0.00000 2.58821e-14
  176 2478.22 0.00000 -5.41606e-14
  177 2478.22 0.00000 2.08894e-13
  178 2478.22 0.00000 3.69926e-14
  179 2478.22 0.00000 -4.08691e-13
  180 2478.22 0.00000 2.12665e-13
  181 2478.22 0.00000 4.90958e-14
  182 2478.22 0.00000 1.94186e-13
  183 2478.22 0.00000 1.35645e-14
  184 2478.22 0.00000 -7.09332e-13
  185 2478.22 0.00000 1.65525e-13
  186 2478.22 0.00000 -1.84600e-13
  187 2478.22 0.00000 1.09209e-12
  188 2478.22 0.00000 -6.69387e-14
  189 2478.22 0.00000 -9.14439e-14
  190 2478.22 0.00000 3.88139e-13
  191 2478.22 0.00000 2.01977e-13
  192 2478.22 0.00000 2.94019e-13
  193 2478.22 0.00000 5.41532e-13
  194 2478.22 0.00000 8.95344e-14
  195 2478.22 0.00000 -9.27767e-14
  196 2478.22 0.00000 -3.38523e-13
  197 2478.22 0.00000 7.79146e-14
  198 2478.22 0.00000 -1.27036e-13
  199 2478.22 0.00000 -5.94380e-14
  200 2478.22 0.00000 1.43018e-13
  201 2478.22 0.00000 3.12009e-13
  202 2478.22 0.00000 1.66126e-13
  203 2478.22 0.00000 -3.67331e-13
  204 2478.22 0.00000 -1.84928e-13
  205 2478.22 0.00000 6.29075e-14
  206 2478.22 0.00000 9.08626e-13
  207 2478.22 0.00000 -1.88923e-14
  208 2478.22 0.00000 8.56394e-13
  209 2478.22 0.00000 -3.31118e-13
  210 2478.22 0.00000 -5.54743e-15
  211 2478.22 0.00000 -1.65402e-13
  212 2478.22 0.00000 -2.56359e-13
  213 2478.22 0.00000 2.28599e-13
  214 2478.22 0.00000 -3.27856e-13
  215 2478.22 0.00000 2.92536e-13
  216 2478.22 0.00000 8.70151e-14
  217 2478.22 0.00000 -3.20477e-13
  218 2478.22 0.00000 1.15459e-13
  219 2478.22 0.00000 7.88191e-13
  220 2478.22 0.00000 3.73211e-13
  221 2478.22 0.00000 7.09642e-14
  222 2478.22 0.00000 -3.16111e-14
  223 2478.22 0.00000 -6.80366e-14
  224 2478.22 0.00000 2.52563e-14
  225 2478.22 0.00000 -1.23591e-13
  226 2478.22 0.00000 3.19575e-13
  227 2478.22 0.00000 1.38860e-13
  228 2478.22 0.00000 2.02610e-14
  229 2478.22 0.00000 -2.91695e-15
  230 2478.22 0.00000 7.58579e-13
  231 2478.22 0.00000 6.83839e-14
  232 2478.22 0.00000 -1.61800e-13
  233 2478.22 0.00000 1.39686e-14
  234 2478.22 0.00000 3.65172e-14
  235 2478.22 0.00000 -2.88815e-13
  236 2478.22 0.00000 -2.17177e-13
  237 2478.22 0.00000 -3.57932e-14
  238 2478.22 0.00000 -2.87617e-13
  239 2478.22 0.00000 2.00426e-13
  240 2478.22 0.00000 2.12251e-13
  241 2478.22 0.00000 -1.12143e-13
</Section>

newXOutput 55

<Section columns = "stress_xx | stress_yy | stress_xy">
  1 2524.89 0.00000 -1.35794e-13
  2 2524.89 0.00000 1.42109e-14
  3 2524.89 0.00000 -4.25621e-13
  4 2524.89 0.00000 1.29775e-13
  5 2524.89 0.00000 -1.75850e-13
  6 2524.89 0.00000 -9.05294e-14
  7 2524.89 0.00000 -1.29396e-13
  8 2524.89 0.00000 4.32906e-14
  9 2524.89 0.00000 1.70623e-14
  10 2524.89 0.00000 3.34947e-13
  11 2524.89 0.00000 1.29237e-13
  12 2524.89 0.00000 1.59413e-13
  13 2524.89 0.00000 -2.92673e-13
  14 2524.89 0.00000 -6.88841e-14
  15 2524.89 0.00000 1.88312e-15
  16 2524.89 0.00000 -1.03644e-13
  17 2524.89 0.00000 5.11880e-13
  18 2524.89 0.00000 -8.59464e-14
  19 2524.89 0.00000 -4.67647e-13
  20 2524.89 0.00000 -4.58173e-13
  21 2524.89 0.00000 -4.82823e-13
  22 2524.89 0.00000 2.19944e-13
  23 2524.89 0.00000 -2.07287e-13
  24 2524.89 0.00000 2.16761e-13
  25 2524.89 0.00000 -7.77326e-14
  26 2524.89 0.00000 1.26786e-13
  27 2524.89 0.00000 -8.21849e-15
  28 2524.89 0.00000 5.12357e-13
  29 2524.89 0.00000 -4.93109e-14
  30 2524.89 0.00000 -2.15277e-13
  31 2524.89 0.00000 3.06640e-13
  32 2524.89 0.00000 -1.07738e-12
  33 2524.89 0.00000 -8.89744e-13
  34 2524.89 0.00000 -1.63909e-12
  35 2524.89 0.00000 -7.85712e-13
  36 2524.89 0.00000 -2.64433e-13
  37 2524.89 0.00000 1.95701e-13
  38 2524.89 0.00000 -4.12492e-13
  39 2524.89 0.00000 -4.79258e-13
  40 2524.89 0.00000 -2.24448e-13
  41 2524.89 0.00000 3.23643e-13
  42 2524.89 0.00000 3.11319e-13
  43 2524.89 0.00000 -3.63300e-14
  44 2524.89 0.00000 2.33580e-14
  45 2524.89 0.00000 -7.13150e-14
  46 2524.89 0.00000 -2.19480e-16
  47 2524.89 0.00000 2.56459e-13
  48 2524.89 0.00000 3.00034e-16
  49 2524.89 0.00000 1.08730e-13
  50 2524.89 0.00000 -2.47185e-14
  51 2524.89 0.00000 -1.23277e-14
  52 2524.89 0.00000 -4.44469e-14
  53 2524.89 0.00000 -5.45192e-14
  54 2524.89 0.00000 1.10670e-13
  55 2524.89 0.00000 2.33198e-13
  56 2524.89 0.00000 2.08589e-14
  57 2524.89 0.00000 1.26870e-13
  58 2524.89 0.00000 -5.90042e-14
  59 2524.89 0.00000 -2.16176e-13
  60 2524.89 0.00000 4.44073e-13
  61 2524.89 0.00000 2.89330e-13
  62 2524.89 0.00000 -1.46927e-13
  63 2524.89 0.00000 1.18497e-13
  64 2524.89 0.00000 8.61075e-14
  65 2524.89 0.00000 -2.16271e-13
  66 2524.89 0.00000 2.02409e-13
  67 2524.89 0.00000 4.10073e-13
  68 2524.89 0.00000 -3.03346e-13
  69 2524.89 0.00000 6.10148e-13
  70 2524.89 0.00000 3.02964e-13
  71 2524.89 0.00000 -6.04341e-15
  72 2524.89 0.00000 -4.90014e-14
  73 2524.89 0.00000 3.46413e-13
  74 2524.89 0.00000 7.96416e-14
  75 2524.89 0.00000 7.77298e-14
  76 2524.89 0.00000 -5.35903e-13
  77 2524.89 0.00000 -8.64446e-14
  78 2524.89 0.00000 7.68350e-13
  79 2524.89 0.00000 -3.01478e-14
  80 2524.89 0.00000 7.77326e-14
  81 2524.89 0.00000 -8.40528e-14
  82 2524.89 0.00000 6.21878e-13
  83 2524.89 0.00000 3.45786e-14
  84 2524.89 0.00000 -8.54774e-14
  85 2524.89 0.00000 -2.88025e-13
  86 2524.89 0.00000 -3.16606e-13
  87 2524.89 0.00000 2.06620e-14
  88 2524.89 0.00000 6.64980e-14
  89 2524.89 0.00000 8.22563e-14
  90 2524.89 0.00000 -1.71382e-13
  91 2524.89 0.00000 -3.16853e-13
  92 2524.89 0.00000 -9.75886e-14
  93 2524.89 0.00000 -5.62601e-13
  94 2524.89 0.00000 -2.81252e-13
  95 2524.89 0.00000 -4.30751e-13
  96 2524.89 0.00000 4.08340e-14
  97 2524.89 0.00000 -1.24747e-13
  98 2524.89 0.00000 -3.31403e-14
  99 2524.89 0.00000 5.36466e-15
  100 2524.89 0.00000 3.85530e-13
  101 2524.89 0.00000 -2.68737e-13
  102 2524.89 0.00000 2.16986e-13
  103 2524.89 0.00000 5.29986e-13
  104 2524.89 0.00000 2.11669e-13
  105 2524.89 0.00000 -8.28150e-16
  106 2524.89 0.00000 -3.50904e-13
  107 2524.89 0.00000 -2.68749e-13
  108 2524.89 0.00000 -1.81903e-14
  109 2524.89 0.00000 2.00996e-14
  110 2524.89 0.00000 -1.04651e-13
  111 2524.89 0.00000 4.90443e-13
  112 2524.89 0.00000 1.01781e-13
  113 2524.89 0.00000 -5.56608e-15
  114 2524.89 0.00000 1.01339e-13
  115 2524.89 0.00000 2.46859e-13
  116 2524.89 0.00000 -2.30258e-13
  117 2524.89 0.00000 -2.53424e-13
  118 2524.89 0.00000 -1.96909e-13
  119 2524.89 0.00000 -1.38008e-13
  120 2524.89 0.00000 3.10775e-13
  121 2524.89 0.00000 2.57675e-13
  122 2524.89 0.00000 7.57285e-14
  123 2524.89 0.00000 5.04114e-13
  124 2524.89 0.00000 2.08988e-14
  125 2524.89 0.00000 1.11043e-15
  126 2524.89 0.00000 -1.48561e-13
  127 2524.89 0.00000 1.86744e-13
  128 2524.89 0.00000 -1.04982e-13
  129 2524.89 0.00000 -8.35168e-14
  130 2524.89 0.00000 -2.00282e-14
  131 2524.89 0.00000 -1.13073e-13
  132 2524.89 0.00000 1.29634e-14
  133 2524.89 0.00000 1.23363e-13
  134 2524.89 0.00000 3.87985e-13
  135 2524.89 0.00000 -6.89285e-13
  136 2524.89 0.00000 4.07395e-14
  137 2524.89 0.00000 7.20013e-13
  138 2524.89 0.00000 -3.12243e-13
  139 2524.89 0.00000 -2.01152e-14
  140 2524.89 0.00000 -1.25736e-13
  141 2524.89 0.00000 2.99758e-14
  142 2524.89 0.00000 -1.73160e-13
  143 2524.89 0.00000 8.31824e-14
  144 2524.89 0.00000 1.01162e-12
  145 2524.89 0.00000 -8.52575e-14
  146 2524.89 0.00000 -2.13131e-13
  147 2524.89 0.00000 -3.05961e-13
  148 2524.89 0.00000 -9.05294e-14
  149 2524.89 0.00000 -2.82166e-13
  150 2524.89 0.00000 -1.78468e-13
  151 2524.89 0.00000 2.76285e-15
  152 2524.89 0.00000 -2.50336e-13
  153 2524.89 0.00000 5.62923e-13
  154 2524.89 0.00000 3.50165e-13
  155 2524.89 0.00000 6.09336e-13
  156 2524.89 0.00000 -6.56185e-13
  157 2524.89 0.00000 -9.77768e-14
  158 2524.89 0.00000 -1.44803e-13
  159 2524.89 0.00000 -3.82105e-13
  160 2524.89 0.00000 4.91695e-14
  161 2524.89 0.00000 1.75184e-13
  162 2524.89 0.00000 3.68181e-13
  163 2524.89 0.00000 -2.75854e-13
  164 2524.89 0.00000 -7.08947e-14
  165 2524.89 0.00000 2.11749e-13
  166 2524.89 0.00000 -7.95225e-14
  167 2524.89 0.00000 4.11549e-13
  168 2524.89 0.00000 1.74244e-13
  169 2524.89 0.00000 1.28568e-13
  170 2524.89 0.00000 4.63922e-13
  171 2524.89 0.00000 1.09661e-13
  172 2524.89 0.00000 6.98268e-14
  173 2524.89 0.00000 -1.01783e-13
  174 2524.89 0.00000 2.97051e-14
  175 2524.89 0.00000 5.32942e-14
  176 2524.89 0.00000 -1.06757e-15
  177 2524.89 0.00000 -1.27777e-13
  178 2524.89 0.00000 9.34305e-14
  179 2524.89 0.00000 -2.58601e-13
  180 2524.89 0.00000 1.36028e-14
  181 2524.89 0.00000 3.18379e-14
  182 2524.89 0.00000 -1.05932e-13
  183 2524.89 0.00000 -3.42246e-13
  184 2524.89 0.00000 -1.48834e-13
  185 2524.89 0.00000 3.35554e-13
  186 2524.89 0.00000 1.72518e-13
  187 2524.89 0.00000 -1.98841e-13
  188 2524.89 0.00000 -4.23639e-13
  189 2524.89 0.00000 2.36566e-13
  190 2524.89 0.00000 -1.38959e-13
  191 2524.89 0.00000 1.49905e-13
  192 2524.89 0.00000 2.25205e-13
  193 2524.89 0.00000 -3.46998e-14
  194 2524.89 0.00000 1.58471e-13
  195 2524.89 0.00000 -8.79812e-14
  196 2524.89 0.00000 -1.61971e-13
  197 2524.89 0.00000 1.25621e-13
  198 2524.89 0.00000 -1.99694e-13
  199 2524.89 0.00000 -1.50364e-13
  200 2524.89 0.00000 -3.09103e-13
  201 2524.89 0.00000 3.35179e-13
  202 2524.89 0.00000 8.86135e-13
  203 2524.89 0.00000 2.00259e-13
  204 2524.89 0.00000 -7.61221e-13
  205 2524.89 0.00000 2.49112e-13
  206 2524.89 0.00000 -5.84697e-13
  207 2524.89 0.00000 7.05232e-14
  208 2524.89 0.00000 -3.41515e-13
  209 2524.89 0.00000 3.88187e-13
  210 2524.89 0.00000 -1.08472e-14
  211 2524.89 0.00000 -1.10507e-13
  212 2524.89 0.00000 -6.95785e-13
  213 2524.89 0.00000 8.41964e-14
  214 2524.89 0.00000 -1.86017e-13
  215 2524.89 0.00000 1.56096e-13
  216 2524.89 0.00000 -5.67585e-13
  217 2524.89 0.00000 8.35780e-13
  218 2524.89 0.00000 2.19863e-14
  219 2524.89 0.00000 -3.96442e-13
  220 2524.89 0.00000 -8.45685e-14
  221 2524.89 0.00000 2.82960e-13
  222 2524.89 0.00000 -4.89693e-13
  223 2524.89 0.00000 6.18818e-16
  224 2524.89 0.00000 -1.86371e-13
  225 2524.89 0.00000 -1.46080e-13
  226 2524.89 0.00000 2.46364e-13
  227 2524.89 0.00000 -5.69087e-13
  228 2524.89 0.00000 4.22964e-13
  229 2524.89 0.00000 -4.36033e-14
  230 2524.89 0.00000 -9.89177e-13
  231 2524.89 0.00000 -2.12152e-13
  232 2524.89 0.00000 -3.92589e-13
  233 2524.89 0.00000 -8.76951e-13
  234 2524.89 0.00000 -4.28786e-13
  235 2524.89 0.00000 -1.04401e-13
  236 2524.89 0.00000 5.10380e-14
  237 2524.89 0.00000 1.83375e-13
  238 2524.89 0.00000 -2.87228e-13
  239 2524.89 0.00000 2.22686e-13
  240 2524.89 0.00000 -3.61054e-14
  241 2524.89 0.00000 -1.71272e-13
</Section>

newXOutput 56

<Section columns = "stress_xx | stress_yy | stress_xy">
  1 2571.57 0.00000 -1.50275e-13
  2 2571.57 0.00000 -9.85366e-13
  3 2571.57 0.00000 -2.11192e-13
  4 2571.57 0.00000 -2.51821e-13
  5 2571.57 0.00000 -7.25932e-14
  6 2571.57 0.00000 3.35599e-13
  7 2571.57 0.00000 2.13450e-13
  8 2571.57 0.00000 -3.29209e-13
  9 2571.57 0.00000 4.19194e-14
  10 2571.57 0.00000 -2.33206e-13
  11 2571.57 0.00000 -3.03942e-13
  12 2571.57 0.00000 9.82113e-14
  13 2571.57 0.00000 5.05415e-13
  14 2571.57 0.00000 6.22888e-13
  15 2571.57 0.00000 1.55901e-13
  16 2571.57 0.00000 3.71522e-13
  17 2571.57 0.00000 -2.41891e-13
  18 2571.57 0.00000 4.82205e-13
  19 2571.57 0.00000 6.72704e-13
  20 2571.57 0.00000 -6.66385e-13
  21 2571.57 0.00000 -7.44622e-13
  22 2571.57 0.00000 1.03475e-12
  23 2571.57 0.00000 -1.55757e-13
  24 2571.57 0.00000 4.64835e-13
  25 2571.57 0.00000 -5.47805e-13
  26 2571.57 0.00000 -2.88090e-13
  27 2571.57 0.00000 -7.57275e-14
  28 2571.57 0.00000 -4.66466e-13
  29 2571.57 0.00000 -1.54180e-13
  30 2571.57 0.00000 -2.53925e-13
  31 2571.57 0.00000 1.89528e-13
  32 2571.57 0.00000 1.28581e-13
  33 2571.57 0.00000 5.41462e-13
  34 2571.57 0.00000 -3.32676e-13
  35 2571.57 0.00000 -1.05198e-12
  36 2571.57 0.00000 -7.52158e-13
  37 2571.57 0.00000 -7.55998e-13
  38 2571.57 0.00000 -4.49112e-13
  39 2571.57 0.00000 -2.12137e-14
  40 2571.57 0.00000 -6.21218e-13
  41 2571.57 0.00000 -6.96535e-13
  42 2571.57 0.00000 3.95489e-13
  43 2571.57 0.00000 1.01492e-12
  44 2571.57 0.00000 4.11878e-13
  45 2571.57 0.00000 -1.83487e-13
  46 2571.57 0.00000 -4.22330e-13
  47 2571.57 0.00000 -6.63803e-13
  48 2571.57 0.00000 -4.28945e-13
  49 2571.57 0.00000 -4.55493e-13
  50 2571.57 0.00000 1.01604e-13
  51 2571.57 0.00000 3.65012e-14
  52 2571.57 0.00000 -4.24488e-14
  53 2571.57 0.00000 1.17768e-13
  54 2571.57 0.00000 -5.36165e-14
  55 2571.57 0.00000 0.00000
  56 2571.57 0.00000 -8.29923e-14
  57 2571.57 0.00000 3.57519e-13
  58 2571.57 0.00000 4.93331e-13
  59 2571.57 0.00000 4.30510e-14
  60 2571.57 0.00000 -5.56925e-13
  61 2571.57 0.00000 -7.20402e-15
  62 2571.57 0.00000 1.02809e-13
  63 2571.57 0.00000 -1.97202e-13
  64 2571.57 0.00000 -5.68364e-13
  65 2571.57 0.00000 -6.83439e-14
  66 2571.57 0.00000 -4.73695e-15
  67 2571.57 0.00000 1.31659e-13
  68 2571.57 0.00000 2.86144e-15
  69 2571.57 0.00000 6.55120e-15
  70 2571.57 0.00000 4.15373e-13
  71 2571.57 0.00000 -5.13476e-14
  72 2571.57 0.00000 1.85102e-13
  73 2571.57 0.00000 -3.80755e-13
  74 2571.57 0.00000 -1.68274e-13
  75 2571.57 0.00000 -5.82316e-14
  76 2571.57 0.00000 7.21224e-13
  77 2571.57 0.00000 5.36740e-14
  78 2571.57 0.00000 1.58610e-13
  79 2571.57 0.00000 -1.18718e-13
  80 2571.57 0.00000 -7.14008e-14
  81 2571.57 0.00000 -1.06252e-14
  82 2571.57 0.00000 4.86033e-13
  83 2571.57 0.00000 -1.60127e-13
  84 2571.57 0.00000 2.28667e-13
  85 2571.57 0.00000 -2.39216e-13
  86 2571.57 0.00000 2.40679e-13
  87 2571.57 0.00000 1.12257e-13
  88 2571.57 0.00000 -2.01256e-13
  89 2571.57 0.00000 9.93643e-16
  90 2571.57 0.00000 1.88870e-13
  91 2571.57 0.00000 -5.92408e-13
  92 2571.57 0.00000 1.35806e-14
  93 2571.57 0.00000 3.22991e-13
  94 2571.57 0.00000 7.05859e-14
  95 2571.57 0.00000 -3.65008e-13
  96 2571.57 0.00000 -4.88099e-13
  97 2571.57 0.00000 1.93712e-13
  98 2571.57 0.00000 -2.50160e-14
  99 2571.57 0.00000 -2.32919e-13
  100 2571.57 0.00000 -1.90752e-13
  101 2571.57 0.00000 3.21520e-13
  102 2571.57 0.00000 -5.49381e-13
  103 2571.57 0.00000 -3.03442e-13
  104 2571.57 0.00000 8.42063e-14
  105 2571.57 0.00000 4.05339e-13
  106 2571.57 0.00000 -2.52533e-13
  107 2571.57 0.00000 -2.13593e-13
  108 2571.57 0.00000 -1.03880e-13
  109 2571.57 0.00000 -1.92813e-13
  110 2571.57 0.00000 -2.12313e-14
  111 2571.57 0.00000 1.60043e-13
  112 2571.57 0.00000 6.06237e-13
  113 2571.57 0.00000 -5.04537e-14
  114 2571.57 0.00000 6.70274e-14
  115 2571.57 0.00000 -3.51554e-13
  116 2571.57 0.00000 2.80084e-13
  117 2571.57 0.00000 -4.98964e-13
  118 2571.57 0.00000 2.30967e-14
  119 2571.57 0.00000 -2.72017e-14
  120 2571.57 0.00000 -1.41628e-14
  121 2571.57 0.00000 9.15007e-14
  122 2571.57 0.00000 -1.20210e-13
  123 2571.57 0.00000 2.02952e-13
  124 2571.57 0.00000 -2.90699e-13
  125 2571.57 0.00000 1.09558e-13
  126 2571.57 0.00000 1.41979e-13
  127 2571.57 0.00000 -3.95915e-14
  128 2571.57 0.00000 5.24334e-14
  129 2571.57 0.00000 -2.43614e-13
  130 2571.57 0.00000 -1.93451e-13
  131 2571.57 0.00000 1.02414e-13
  132 2571.57 0.00000 -7.85893e-14
  133 2571.57 0.00000 -1.40782e-13
  134 2571.57 0.00000 5.74633e-14
  135 2571.57 0.00000 1.81157e-13
  136 2571.57 0.00000 -1.21357e-13
  137 2571.57 0.00000 -7.61246e-13
  138 2571.57 0.00000 2.28960e-14
  139 2571.57 0.00000 2.84681e-13
  140 2571.57 0.00000 4.60432e-13
  141 2571.57 0.00000 -6.63592e-14
  142 2571.57 0.00000 2.46210e-14
  143 2571.57 0.00000 -2.66755e-14
  144 2571.57 0.00000 4.73781e-13
  145 2571.57 0.00000 8.09346e-13
  146 2571.57 0.00000 -1.76021e-13
  147 2571.57 0.00000 1.64107e-14
  148 2571.57 0.00000 1.68352e-13
  149 2571.57 0.00000 -2.18422e-13
  150 2571.57 0.00000 -2.47268e-14
  151 2571.57 0.00000 8.97411e-14
  152 2571.57 0.00000 2.66405e-13
  153 2571.57 0.00000 -3.19503e-15
  154 2571.57 0.00000 -1.35659e-13
  155 2571.57 0.00000 -1.11006e-13
  156 2571.57 0.00000 1.27224e-13
  157 2571.57 0.00000 -1.52093e-13
  158 2571.57 0.00000 -8.01842e-13
  159 2571.57 0.00000 -2.11898e-13
  160 2571.57 0.00000 -4.70115e-14
  161 2571.57 0.00000 3.33034e-13
  162 2571.57 0.00000 1.75059e-13
  163 2571.57 0.00000 -3.22858e-13
  164 2571.57 0.00000 -3.73141e-13
  165 2571.57 0.00000 -9.62630e-14
  166 2571.57 0.00000 1.56863e-13
  167 2571.57 0.00000 -3.26526e-14
  168 2571.57 0.00000 -1.21668e-13
  169 2571.57 0.00000 -7.99468e-15
  170 2571.57 0.00000 -7.21391e-13
  171 2571.57 0.00000 -3.73168e-14
  172 2571.57 0.00000 -1.73020e-13
  173 2571.57 0.00000 -6.96578e-14
  174 2571.57 0.00000 -2.39837e-13
  175 2571.57 0.00000 -4.54654e-14
  176 2571.57 0.00000 -3.27539e-14
  177 2571.57 0.00000 -4.05443e-13
  178 2571.57 0.00000 -1.20902e-13
  179 2571.57 0.00000 9.27446e-14
  180 2571.57 0.00000 3.12457e-13
  181 2571.57 0.00000 -2.23535e-13
  182 2571.57 0.00000 -5.23189e-13
  183 2571.57 0.00000 -3.47849e-13
  184 2571.57 0.00000 2.17466e-13
  185 2571.57 0.00000 -5.97341e-14
  186 2571.57 0.00000 -2.37643e-13
  187 2571.57 0.00000 2.87461e-13
  188 2571.57 0.00000 -2.84374e-13
  189 2571.57 0.00000 -8.93838e-14
  190 2571.57 0.00000 -8.17393e-14
  191 2571.57 0.00000 -1.26940e-13
  192 2571.57 0.00000 -8.93781e-14
  193 2571.57 0.00000 -5.21395e-13
  194 2571.57 0.00000 -2.52076e-13
  195 2571.57 0.00000 8.63122e-15
  196 2571.57 0.00000 1.88209e-14
  197 2571.57 0.00000 -2.04472e-13
  198 2571.57 0.00000 7.43045e-13
  199 2571.57 0.00000 1.29036e-13
  200 2571.57 0.00000 3.65134e-13
  201 2571.57 0.00000 4.40511e-13
  202 2571.57 0.00000 -1.24635e-13
  203 2571.57 0.00000 4.01364e-13
  204 2571.57 0.00000 5.29404e-14
  205 2571.57 0.00000 5.61303e-14
  206 2571.57 0.00000 -4.14302e-13
  207 2571.57 0.00000 -3.01234e-13
  208 2571.57 0.00000 -1.55469e-13
  209 2571.57 0.00000 4.82391e-13
  210 2571.57 0.00000 -6.56128e-14
  211 2571.57 0.00000 1.03210e-13
  212 2571.57 0.00000 -6.48905e-14
  213 2571.57 0.00000 -2.81420e-13
  214 2571.57 0.00000 9.09485e-14
  215 2571.57 0.00000 -3.51445e-13
  216 2571.57 0.00000 -5.81301e-14
  217 2571.57 0.00000 5.39950e-14
  218 2571.57 0.00000 -1.62330e-13
  219 2571.57 0.00000 -6.39226e-14
  220 2571.57 0.00000 -1.87740e-14
  221 2571.57 0.00000 -2.00075e-14
  222 2571.57 0.00000 2.15585e-13
  223 2571.57 0.00000 -1.61689e-13
  224 2571.57 0.00000 4.49632e-14
  225 2571.57 0.00000 -2.41840e-13
  226 2571.57 0.00000 6.93703e-14
  227 2571.57 0.00000 -1.55937e-13
  228 2571.57 0.00000 3.22719e-13
  229 2571.57 0.00000 2.29940e-13
  230 2571.57 0.00000 7.63825e-13
  231 2571.57 0.00000 -1.80967e-13
  232 2571.57 0.00000 -2.26859e-13
  233 2571.57 0.00000 -9.82406e-13
  234 2571.57 0.00000 -1.17290e-13
  235 2571.57 0.00000 -2.84256e-13
  236 2571.57 0.00000 -1.95182e-13
  237 2571.57 0.00000 2.31403e-13
  238 2571.57 0.00000 -1.27283e-13
  239 2571.57 0.00000 -3.72003e-14
  240 2571.57 0.00000 6.95856e-14
  241 2571.57 0.00000 1.29631e-13
</Section>

newXOutput 57

<Section columns = "stress_xx | stress_yy | stress_xy">
  1 2618.27 0.00000 4.52119e-14
  2 2618.27 0.00000 3.48419e-13
  3 2618.27 0.00000 -9.86554e-13
  4 2618.27 0.00000 1.84965e-13
  5 2618.27 0.00000 -8.14171e-14
  6 2618.27 0.00000 -1.81548e-13
  7 2618.27 0.00000 1.82249e-13
  8 2618.27 0.00000 6.06096e-13
  9 2618.27 0.00000 2.93808e-13
  10 2618.27 0.00000 1.72775e-13
  11 2618.27 0.00000 -4.84596e-13
  12 2618.27 0.00000 -4.84285e-13
  13 2618.27 0.00000 -4.61210e-13
  14 2618.27 0.00000 2.51227e-13
  15 2618.27 0.00000 3.82233e-14
  16 2618.27 0.00000 5.96778e-13
  17 2618.27 0.00000 1.81626e-13
  18 2618.27 0.00000 6.15725e-13
  19 2618.27 0.00000 1.90789e-13
  20 2618.27 0.00000 5.54664e-13
  21 2618.27 0.00000 -6.05629e-13
  22 2618.27 0.00000 -3.43682e-13
  23 2618.27 0.00000 -7.17343e-13
  24 2618.27 0.00000 4.04120e-13
  25 2618.27 0.00000 0.00000
  26 2618.27 0.00000 -4.10394e-13
  27 2618.27 0.00000 1.05395e-12
  28 2618.27 0.00000 -3.06229e-13
  29 2618.27 0.00000 3.60186e-14
  30 2618.27 0.00000 -4.36320e-13
  31 2618.27 0.00000 -1.25234e-12
  32 2618.27 0.00000 -1.81878e-12
  33 2618.27 0.00000 -1.88663e-13
  34 2618.27 0.00000 1.29499e-12
  35 2618.27 0.00000 5.72918e-13
  36 2618.27 0.00000 7.71744e-14
  37 2618.27 0.00000 -4.18797e-13
  38 2618.27 0.00000 9.18143e-14
  39 2618.27 0.00000 -2.13522e-13
  40 2618.27 0.00000 -3.15810e-13
  41 2618.27 0.00000 1.64896e-13
  42 2618.27 0.00000 6.24764e-13
  43 2618.27 0.00000 1.28263e-13
  44 2618.27 0.00000 3.19484e-13
  45 2618.27 0.00000 -7.76937e-14
  46 2618.27 0.00000 -7.12792e-14
  47 2618.27 0.00000 2.46205e-13
  48 2618.27 0.00000 4.32217e-13
  49 2618.27 0.00000 4.39535e-13
  50 2618.27 0.00000 -7.80250e-14
  51 2618.27 0.00000 2.40124e-14
  52 2618.27 0.00000 4.97106e-15
  53 2618.27 0.00000 -4.63053e-14
  54 2618.27 0.00000 9.08910e-14
  55 2618.27 0.00000 9.06574e-14
  56 2618.27 0.00000 1.12872e-13
  57 2618.27 0.00000 9.85553e-14
  58 2618.27 0.00000 3.88999e-13
  59 2618.27 0.00000 4.11301e-14
  60 2618.27 0.00000 2.35920e-13
  61 2618.27 0.00000 1.21540e-13
  62 2618.27 0.00000 4.97909e-14
  63 2618.27 0.00000 3.22685e-13
  64 2618.27 0.00000 7.23363e-13
  65 2618.27 0.00000 -1.35956e-14
  66 2618.27 0.00000 -7.94802e-14
  67 2618.27 0.00000 1.37616e-17
  68 2618.27 0.00000 1.41855e-13
  69 2618.27 0.00000 3.97075e-13
  70 2618.27 0.00000 4.58455e-14
  71 2618.27 0.00000 4.69453e-14
  72 2618.27 0.00000 -5.36117e-13
  73 2618.27 0.00000 -3.35291e-13
  74 2618.27 0.00000 -1.53505e-13
  75 2618.27 0.00000 3.76602e-13
  76 2618.27 0.00000 4.43573e-13
  77 2618.27 0.00000 6.50568e-14
  78 2618.27 0.00000 3.42584e-13
  79 2618.27 0.00000 4.67465e-13
  80 2618.27 0.00000 -1.52206e-13
  81 2618.27 0.00000 -6.54826e-13
  82 2618.27 0.00000 6.86316e-13
  83 2618.27 0.00000 6.24580e-14
  84 2618.27 0.00000 -3.16581e-14
  85 2618.27 0.00000 -6.41289e-14
  86 2618.27 0.00000 -3.62237e-13
  87 2618.27 0.00000 -1.12070e-13
  88 2618.27 0.00000 -3.27376e-13
  89 2618.27 0.00000 -1.39461e-13
  90 2618.27 0.00000 -2.96027e-14
  91 2618.27 0.00000 -5.35790e-13
  92 2618.27 0.00000 1.38545e-13
  93 2618.27 0.00000 -1.87653e-13
  94 2618.27 0.00000 -6.09918e-13
  95 2618.27 0.00000 -1.51017e-13
  96 2618.27 0.00000 -2.06465e-13
  97 2618.27 0.00000 -3.34749e-13
  98 2618.27 0.00000 1.15682e-13
  99 2618.27 0.00000 3.35614e-13
  100 2618.27 0.00000 1.09387e-13
  101 2618.27 0.00000 -3.20370e-13
  102 2618.27 0.00000 2.33729e-13
  103 2618.27 0.00000 2.91901e-13
  104 2618.27 0.00000 -5.33724e-14
  105 2618.27 0.00000 -5.91371e-13
  106 2618.27 0.00000 3.93939e-13
  107 2618.27 0.00000 -4.15529e-13
  108 2618.27 0.00000 -6.20948e-14
  109 2618.27 0.00000 1.01931e-13
  110 2618.27 0.00000 3.33680e-13
  111 2618.27 0.00000 -3.47598e-13
  112 2618.27 0.00000 -2.51327e-13
  113 2618.27 0.00000 2.55634e-13
  114 2618.27 0.00000 9.23759e-14
  115 2618.27 0.00000 3.26201e-13
  116 2618.27 0.00000 -1.39461e-13
  117 2618.27 0.00000 3.86077e-13
  118 2618.27 0.00000 -1.05650e-13
  119 2618.27 0.00000 7.18642e-14
  120 2618.27 0.00000 4.43777e-13
  121 2618.27 0.00000 9.82377e-14
  122 2618.27 0.00000 3.67441e-13
  123 2618.27 0.00000 1.35180e-13
  124 2618.27 0.00000 1.05497e-13
  125 2618.27 0.00000 2.46191e-14
  126 2618.27 0.00000 4.52575e-14
  127 2618.27 0.00000 1.63341e-13
  128 2618.27 0.00000 -2.60784e-13
  129 2618.27 0.00000 -3.35225e-14
  130 2618.27 0.00000 -2.43886e-13
  131 2618.27 0.00000 -8.90217e-13
  132 2618.27 0.00000 1.89711e-13
  133 2618.27 0.00000 -1.77388e-13
  134 2618.27 0.00000 2.18739e-13
  135 2618.27 0.00000 -2.26392e-13
  136 2618.27 0.00000 1.44870e-13
  137 2618.27 0.00000 8.42782e-13
  138 2618.27 0.00000 -1.57793e-13
  139 2618.27 0.00000 -1.32720e-13
  140 2618.27 0.00000 3.60308e-13
  141 2618.27 0.00000 3.16004e-14
  142 2618.27 0.00000 2.66064e-14
  143 2618.27 0.00000 -1.90573e-13
  144 2618.27 0.00000 1.09396e-12
  145 2618.27 0.00000 5.04420e-17
  146 2618.27 0.00000 -4.54452e-14
  147 2618.27 0.00000 -4.82118e-13
  148 2618.27 0.00000 -6.18837e-14
  149 2618.27 0.00000 8.11139e-13
  150 2618.27 0.00000 1.53125e-13
  151 2618.27 0.00000 1.46813e-14
  152 2618.27 0.00000 5.84866e-13
  153 2618.27 0.00000 -2.63389e-13
  154 2618.27 0.00000 1.03215e-13
  155 2618.27 0.00000 5.31120e-13
  156 2618.27 0.00000 -2.70952e-14
  157 2618.27 0.00000 -1.80938e-14
  158 2618.27 0.00000 -3.70549e-13
  159 2618.27 0.00000 1.28725e-13
  160 2618.27 0.00000 2.52038e-14
  161 2618.27 0.00000 4.79480e-13
  162 2618.27 0.00000 1.98461e-13
  163 2618.27 0.00000 -5.43189e-13
  164 2618.27 0.00000 -3.08357e-13
  165 2618.27 0.00000 -1.85106e-14
  166 2618.27 0.00000 -1.38146e-13
  167 2618.27 0.00000 1.44168e-13
  168 2618.27 0.00000 -2.91578e-13
  169 2618.27 0.00000 7.37393e-14
  170 2618.27 0.00000 7.16606e-14
  171 2618.27 0.00000 -2.04852e-13
  172 2618.27 0.00000 1.82050e-13
  173 2618.27 0.00000 -7.03102e-14
  174 2618.27 0.00000 -3.10114e-13
  175 2618.27 0.00000 -2.70202e-14
  176 2618.27 0.00000 -2.19100e-14
  177 2618.27 0.00000 -6.03336e-13
  178 2618.27 0.00000 1.50114e-14
  179 2618.27 0.00000 -1.21201e-14
  180 2618.27 0.00000 1.86069e-13
  181 2618.27 0.00000 1.87505e-13
  182 2618.27 0.00000 4.25860e-13
  183 2618.27 0.00000 -1.15523e-13
  184 2618.27 0.00000 3.57880e-13
  185 2618.27 0.00000 1.73307e-13
  186 2618.27 0.00000 6.23089e-13
  187 2618.27 0.00000 -1.03258e-14
  188 2618.27 0.00000 5.58852e-13
  189 2618.27 0.00000 3.78106e-14
  190 2618.27 0.00000 -2.53874e-13
  191 2618.27 0.00000 2.51744e-13
  192 2618.27 0.00000 -1.32607e-13
  193 2618.27 0.00000 7.98624e-14
  194 2618.27 0.00000 3.18041e-13
  195 2618.27 0.00000 -1.41755e-13
  196 2618.27 0.00000 9.85353e-14
  197 2618.27 0.00000 1.20054e-13
  198 2618.27 0.00000 -1.41933e-13
  199 2618.27 0.00000 -1.34760e-14
  200 2618.27 0.00000 -7.94944e-13
  201 2618.27 0.00000 2.46455e-13
  202 2618.27 0.00000 5.82304e-13
  203 2618.27 0.00000 2.14720e-13
  204 2618.27 0.00000 -4.58724e-13
  205 2618.27 0.00000 2.13412e-13
  206 2618.27 0.00000 -9.36865e-14
  207 2618.27 0.00000 2.11088e-13
  208 2618.27 0.00000 5.52972e-13
  209 2618.27 0.00000 1.42326e-13
  210 2618.27 0.00000 1.77648e-14
  211 2618.27 0.00000 -1.03742e-13
  212 2618.27 0.00000 -7.02425e-13
  213 2618.27 0.00000 1.56142e-13
  214 2618.27 0.00000 1.99692e-13
  215 2618.27 0.00000 1.20156e-13
  216 2618.27 0.00000 -3.45785e-13
  217 2618.27 0.00000 -1.57550e-13
  218 2618.27 0.00000 -5.23345e-14
  219 2618.27 0.00000 -3.00363e-13
  220 2618.27 0.00000 -6.38239e-14
  221 2618.27 0.00000 3.29343e-13
  222 2618.27 0.00000 -3.51605e-13
  223 2618.27 0.00000 -1.36150e-13
  224 2618.27 0.00000 6.84650e-15
  225 2618.27 0.00000 -5.41838e-13
  226 2618.27 0.00000 -2.22530e-13
  227 2618.27 0.00000 -1.15341e-13
  228 2618.27 0.00000 1.44075e-14
  229 2618.27 0.00000 -1.24222e-13
  230 2618.27 0.00000 7.91285e-13
  231 2618.27 0.00000 6.17779e-13
  232 2618.27 0.00000 -3.54892e-14
  233 2618.27 0.00000 2.90571e-13
  234 2618.27 0.00000 -7.16812e-14
  235 2618.27 0.00000 -3.91958e-13
  236 2618.27 0.00000 9.72150e-14
  237 2618.27 0.00000 -4.98668e-14
  238 2618.27 0.00000 1.55912e-13
  239 2618.27 0.00000 -2.70769e-14
  240 2618.27 0.00000 -8.35543e-13
  241 2618.27 0.00000 -2.24587e-13
</Section>

newXOutput 58

<Section columns = "stress_xx | stress_yy | stress_xy">
  1 2664.99 0.00000 -7.58023e-14
  2 2664.99 0.00000 -1.07444e-12
  3 2664.99 0.00000 5.47462e-13
  4 2664.99 0.00000 -1.76912e-13
  5 2664.99 0.00000 1.53437e-13
  6 2664.99 0.00000 2.09509e-13
  7 2664.99 0.00000 8.29078e-14
  8 2664.99 0.00000 -2.31933e-14
  9 2664.99 0.00000 6.07164e-14
  10 2664.99 0.00000 -3.94470e-13
  11 2664.99 0.00000 -7.38778e-13
  12 2664.99 0.00000 -2.01097e-13
  13 2664.99 0.00000 1.57118e-13
  14 2664.99 0.00000 8.39140e-13
  15 2664.99 0.00000 7.72542e-13
  16 2664.99 0.00000 1.29492e-13
  17 2664.99 0.00000 -6.00520e-13
  18 2664.99 0.00000 1.29492e-13
  19 2664.99 0.00000 -6.59114e-13
  20 2664.99 0.00000 -1.16662e-12
  21 2664.99 0.00000 -1.50773e-12
  22 2664.99 0.00000 -2.87568e-14
  23 2664.99 0.00000 -3.64298e-13
  24 2664.99 0.00000 -1.29492e-13
  25 2664.99 0.00000 -3.60053e-13
  26 2664.99 0.00000 -2.85832e-13
  27 2664.99 0.00000 3.09518e-13
  28 2664.99 0.00000 -3.67855e-13
  29 2664.99 0.00000 -2.36903e-14
  30 2664.99 0.00000 2.94088e-14
  31 2664.99 0.00000 5.54231e-13
  32 2664.99 0.00000 -8.14839e-13
  33 2664.99 0.00000 -3.19754e-13
  34 2664.99 0.00000 2.75739e-13
  35 2664.99 0.00000 -5.59915e-13
  36 2664.99 0.00000 3.38862e-13
  37 2664.99 0.00000 1.02408e-13
  38 2664.99 0.00000 1.57638e-13
  39 2664.99 0.00000 3.81741e-13
  40 2664.99 0.00000 1.38446e-13
  41 2664.99 0.00000 -4.08578e-13
  42 2664.99 0.00000 -3.19196e-13
  43 2664.99 0.00000 7.15271e-13
  44 2664.99 0.00000 3.87245e-13
  45 2664.99 0.00000 2.56536e-13
  46 2664.99 0.00000 3.10656e-13
  47 2664.99 0.00000 2.55544e-14
  48 2664.99 0.00000 1.81246e-14
  49 2664.99 0.00000 -2.35832e-13
  50 2664.99 0.00000 1.42845e-13
  51 2664.99 0.00000 -3.54987e-29
  52 2664.99 0.00000 -3.68348e-14
  53 2664.99 0.00000 7.89677e-15
  54 2664.99 0.00000 -6.90412e-14
  55 2664.99 0.00000 0.00000
  56 2664.99 0.00000 -3.43066e-14
  57 2664.99 0.00000 -4.27313e-14
  58 2664.99 0.00000 2.70771e-13
  59 2664.99 0.00000 1.12389e-13
  60 2664.99 0.00000 4.37631e-13
  61 2664.99 0.00000 -3.25522e-13
  62 2664.99 0.00000 3.06177e-13
  63 2664.99 0.00000 2.05512e-13
  64 2664.99 0.00000 -2.00092e-14
  65 2664.99 0.00000 1.54095e-14
  66 2664.99 0.00000 -4.58445e-14
  67 2664.99 0.00000 -6.43196e-13
  68 2664.99 0.00000 -3.05649e-13
  69 2664.99 0.00000 7.55137e-14
  70 2664.99 0.00000 -2.20613e-13
  71 2664.99 0.00000 -2.78333e-13
  72 2664.99 0.00000 -2.71134e-13
  73 2664.99 0.00000 -2.59123e-13
  74 2664.99 0.00000 -1.27247e-13
  75 2664.99 0.00000 3.68295e-13
  76 2664.99 0.00000 8.50029e-13
  77 2664.99 0.00000 2.14466e-14
  78 2664.99 0.00000 2.17995e-13
  79 2664.99 0.00000 -9.72456e-14
  80 2664.99 0.00000 4.23086e-14
  81 2664.99 0.00000 2.21522e-13
  82 2664.99 0.00000 5.22036e-13
  83 2664.99 0.00000 1.83318e-13
  84 2664.99 0.00000 -2.46693e-13
  85 2664.99 0.00000 -2.71728e-13
  86 2664.99 0.00000 -1.54597e-13
  87 2664.99 0.00000 1.93666e-13
  88 2664.99 0.00000 3.54725e-13
  89 2664.99 0.00000 9.01137e-14
  90 2664.99 0.00000 -9.42810e-14
  91 2664.99 0.00000 1.38150e-13
  92 2664.99 0.00000 -1.14773e-13
  93 2664.99 0.00000 -3.47316e-14
  94 2664.99 0.00000 -7.39056e-13
  95 2664.99 0.00000 -6.20838e-13
  96 2664.99 0.00000 -1.10245e-13
  97 2664.99 0.00000 3.70832e-13
  98 2664.99 0.00000 3.12858e-14
  99 2664.99 0.00000 -7.96799e-13
  100 2664.99 0.00000 1.52454e-13
  101 2664.99 0.00000 6.94017e-14
  102 2664.99 0.00000 3.76717e-13
  103 2664.99 0.00000 2.28706e-14
  104 2664.99 0.00000 -1.49347e-13
  105 2664.99 0.00000 2.99012e-13
  106 2664.99 0.00000 -1.29392e-13
  107 2664.99 0.00000 4.79777e-13
  108 2664.99 0.00000 -6.75573e-14
  109 2664.99 0.00000 -1.52222e-13
  110 2664.99 0.00000 -1.34748e-12
  111 2664.99 0.00000 -3.33596e-13
  112 2664.99 0.00000 -3.82827e-14
  113 2664.99 0.00000 -2.96506e-13
  114 2664.99 0.00000 2.18193e-13
  115 2664.99 0.00000 -1.87358e-13
  116 2664.99 0.00000 9.09628e-14
  117 2664.99 0.00000 -3.81898e-13
  118 2664.99 0.00000 5.62426e-14
  119 2664.99 0.00000 -3.14905e-13
  120 2664.99 0.00000 7.28775e-15
  121 2664.99 0.00000 -1.53121e-14
  122 2664.99 0.00000 -1.40145e-13
  123 2664.99 0.00000 7.88780e-13
  124 2664.99 0.00000 -1.48367e-13
  125 2664.99 0.00000 4.01082e-13
  126 2664.99 0.00000 -6.24609e-15
  127 2664.99 0.00000 -1.39616e-13
  128 2664.99 0.00000 -1.86233e-13
  129 2664.99 0.00000 2.41543e-14
  130 2664.99 0.00000 1.22789e-13
  131 2664.99 0.00000 3.54501e-13
  132 2664.99 0.00000 -2.95499e-13
  133 2664.99 0.00000 -5.70126e-14
  134 2664.99 0.00000 -4.39137e-13
  135 2664.99 0.00000 2.05180e-13
  136 2664.99 0.00000 7.24613e-14
  137 2664.99 0.00000 -1.17621e-13
  138 2664.99 0.00000 3.29933e-13
  139 2664.99 0.00000 -5.03756e-14
  140 2664.99 0.00000 -6.40300e-13
  141 2664.99 0.00000 -2.06281e-13
  142 2664.99 0.00000 1.48550e-13
  143 2664.99 0.00000 -6.52424e-14
  144 2664.99 0.00000 -4.57876e-13
  145 2664.99 0.00000 3.84007e-13
  146 2664.99 0.00000 2.55938e-15
  147 2664.99 0.00000 1.30426e-13
  148 2664.99 0.00000 2.08289e-14
  149 2664.99 0.00000 -1.82857e-13
  150 2664.99 0.00000 -4.33956e-13
  151 2664.99 0.00000 -1.85756e-13
  152 2664.99 0.00000 1.40467e-13
  153 2664.99 0.00000 -4.13729e-13
  154 2664.99 0.00000 1.40609e-13
  155 2664.99 0.00000 1.46396e-13
  156 2664.99 0.00000 4.14403e-13
  157 2664.99 0.00000 -7.04434e-14
  158 2664.99 0.00000 -3.86380e-13
  159 2664.99 0.00000 1.50780e-13
  160 2664.99 0.00000 -6.92276e-14
  161 2664.99 0.00000 5.41583e-13
  162 2664.99 0.00000 -1.30719e-13
  163 2664.99 0.00000 -1.94534e-13
  164 2664.99 0.00000 -4.10881e-13
  165 2664.99 0.00000 -1.63829e-13
  166 2664.99 0.00000 1.47377e-13
  167 2664.99 0.00000 -3.63665e-13
  168 2664.99 0.00000 1.36655e-13
  169 2664.99 0.00000 7.62050e-15
  170 2664.99 0.00000 -1.40281e-13
  171 2664.99 0.00000 -1.53300e-13
  172 2664.99 0.00000 -5.46128e-14
  173 2664.99 0.00000 -4.17492e-14
  174 2664.99 0.00000 -3.09356e-13
  175 2664.99 0.00000 6.56555e-14
  176 2664.99 0.00000 -4.90190e-16
  177 2664.99 0.00000 1.77058e-13
  178 2664.99 0.00000 6.63611e-14
  179 2664.99 0.00000 8.62661e-14
  180 2664.99 0.00000 -1.15143e-13
  181 2664.99 0.00000 6.51379e-13
  182 2664.99 0.00000 2.39577e-14
  183 2664.99 0.00000 -2.94642e-14
  184 2664.99 0.00000 -5.77617e-13
  185 2664.99 0.00000 3.35319e-14
  186 2664.99 0.00000 -3.96317e-13
  187 2664.99 0.00000 -3.29418e-13
  188 2664.99 0.00000 -1.78923e-13
  189 2664.99 0.00000 -2.18065e-13
  190 2664.99 0.00000 2.73689e-14
  191 2664.99 0.00000 8.72831e-14
  192 2664.99 0.00000 -7.82810e-13
  193 2664.99 0.00000 -4.13867e-13
  194 2664.99 0.00000 -2.13215e-13
  195 2664.99 0.00000 7.21775e-14
  196 2664.99 0.00000 -6.31705e-13
  197 2664.99 0.00000 -5.46351e-14
  198 2664.99 0.00000 -9.28435e-14
  199 2664.99 0.00000 8.86623e-14
  200 2664.99 0.00000 -7.34923e-13
  201 2664.99 0.00000 1.31118e-14
  202 2664.99 0.00000 6.45188e-13
  203 2664.99 0.00000 -3.57016e-13
  204 2664.99 0.00000 -5.67059e-13
  205 2664.99 0.00000 -1.09187e-13
  206 2664.99 0.00000 6.17184e-13
  207 2664.99 0.00000 -1.27438e-14
  208 2664.99 0.00000 1.26232e-13
  209 2664.99 0.00000 -9.44804e-13
  210 2664.99 0.00000 1.56823e-14
  211 2664.99 0.00000 1.12831e-13
  212 2664.99 0.00000 3.33128e-13
  213 2664.99 0.00000 -1.32246e-14
  214 2664.99 0.00000 -2.22872e-13
  215 2664.99 0.00000 -9.67674e-13
  216 2664.99 0.00000 1.38171e-13
  217 2664.99 0.00000 -7.77071e-13
  218 2664.99 0.00000 -1.29638e-13
  219 2664.99 0.00000 3.20993e-13
  220 2664.99 0.00000 1.90698e-13
  221 2664.99 0.00000 -1.84204e-13
  222 2664.99 0.00000 3.50249e-13
  223 2664.99 0.00000 -3.98467e-13
  224 2664.99 0.00000 -3.48580e-14
  225 2664.99 0.00000 -3.70869e-13
  226 2664.99 0.00000 1.86038e-13
  227 2664.99 0.00000 -1.48115e-13
  228 2664.99 0.00000 1.47716e-13
  229 2664.99 0.00000 5.58137e-14
  230 2664.99 0.00000 -6.90614e-13
  231 2664.99 0.00000 -1.89107e-13
  232 2664.99 0.00000 1.90254e-13
  233 2664.99 0.00000 9.15186e-13
  234 2664.99 0.00000 -1.22800e-13
  235 2664.99 0.00000 -5.95523e-14
  236 2664.99 0.00000 -9.79805e-14
  237 2664.99 0.00000 -1.89920e-13
  238 2664.99 0.00000 1.80778e-13
  239 2664.99 0.00000 6.47760e-13
  240 2664.99 0.00000 3.52930e-13
  241 2664.99 0.00000 2.79513e-13
</Section>

newXOutput 59

<Section columns = "stress_xx | stress_yy | stress_xy">
  1 2711.73 0.00000 -1.34998e-13
  2 2711.73 0.00000 7.15869e-13
  3 2711.73 0.00000 -5.85111e-13
  4 2711.73 0.00000 1.01523e-13
  5 2711.73 0.00000 -1.57790e-13
  6 2711.73 0.00000 -8.36927e-14
  7 2711.73 0.00000 2.38093e-13
  8 2711.73 0.00000 3.11151e-13
  9 2711.73 0.00000 1.33676e-13
  10 2711.73 0.00000 6.20396e-13
  11 2711.73 0.00000 5.23567e-13
  12 2711.73 0.00000 -6.33624e-14
  13 2711.73 0.00000 -9.60121e-13
  14 2711.73 0.00000 -7.89658e-13
  15 2711.73 0.00000 -8.23322e-13
  16 2711.73 0.00000 -1.24202e-13
  17 2711.73 0.00000 -3.94077e-13
  18 2711.73 0.00000 7.49027e-13
  19 2711.73 0.00000 1.46963e-12
  20 2711.73 0.00000 1.14728e-13
  21 2711.73 0.00000 3.53659e-13
  22 2711.73 0.00000 7.25651e-13
  23 2711.73 0.00000 6.13444e-13
  24 2711.73 0.00000 -1.48195e-13
  25 2711.73 0.00000 -8.93681e-14
  26 2711.73 0.00000 -4.63436e-13
  27 2711.73 0.00000 1.00460e-12
  28 2711.73 0.00000 -4.69013e-13
  29 2711.73 0.00000 -1.15263e-13
  30 2711.73 0.00000 -2.97631e-13
  31 2711.73 0.00000 5.08974e-13
  32 2711.73 0.00000 1.01624e-12
  33 2711.73 0.00000 7.02885e-13
  34 2711.73 0.00000 7.09330e-13
  35 2711.73 0.00000 -1.64380e-13
  36 2711.73 0.00000 6.91067e-13
  37 2711.73 0.00000 6.99893e-13
  38 2711.73 0.00000 8.40428e-13
  39 2711.73 0.00000 8.14091e-13
  40 2711.73 0.00000 3.21085e-13
  41 2711.73 0.00000 6.03884e-14
  42 2711.73 0.00000 2.50371e-13
  43 2711.73 0.00000 -2.98030e-13
  44 2711.73 0.00000 -3.44778e-13
  45 2711.73 0.00000 -4.69184e-13
  46 2711.73 0.00000 -1.06949e-13
  47 2711.73 0.00000 -1.66734e-13
  48 2711.73 0.00000 -6.06202e-13
  49 2711.73 0.00000 -1.74951e-13
  50 2711.73 0.00000 -1.08624e-13
  51 2711.73 0.00000 2.33678e-14
  52 2711.73 0.00000 5.12180e-14
  53 2711.73 0.00000 -2.05888e-13
  54 2711.73 0.00000 2.05252e-13
  55 2711.73 0.00000 0.00000
  56 2711.73 0.00000 -8.22095e-14
  57 2711.73 0.00000 4.58560e-14
  58 2711.73 0.00000 1.53573e-13
  59 2711.73 0.00000 -4.54720e-14
  60 2711.73 0.00000 9.92343e-15
  61 2711.73 0.00000 2.34499e-13
  62 2711.73 0.00000 -1.19842e-15
  63 2711.73 0.00000 -6.44825e-13
  64 2711.73 0.00000 6.93762e-13
  65 2711.73 0.00000 8.76972e-14
  66 2711.73 0.00000 1.65031e-13
  67 2711.73 0.00000 3.34967e-13
  68 2711.73 0.00000 -2.64195e-14
  69 2711.73 0.00000 -5.70480e-13
  70 2711.73 0.00000 -1.68850e-13
  71 2711.73 0.00000 -1.40729e-13
  72 2711.73 0.00000 -5.91903e-14
  73 2711.73 0.00000 2.24879e-13
  74 2711.73 0.00000 8.34260e-14
  75 2711.73 0.00000 1.29907e-13
  76 2711.73 0.00000 4.92077e-13
  77 2711.73 0.00000 -3.04384e-13
  78 2711.73 0.00000 -6.58285e-13
  79 2711.73 0.00000 1.22688e-13
  80 2711.73 0.00000 2.00980e-14
  81 2711.73 0.00000 2.75565e-13
  82 2711.73 0.00000 -1.06061e-13
  83 2711.73 0.00000 1.61836e-13
  84 2711.73 0.00000 -3.61332e-14
  85 2711.73 0.00000 5.15137e-13
  86 2711.73 0.00000 3.31038e-14
  87 2711.73 0.00000 -1.17091e-13
  88 2711.73 0.00000 -6.43104e-13
  89 2711.73 0.00000 -2.19157e-13
  90 2711.73 0.00000 -2.11333e-13
  91 2711.73 0.00000 -1.91110e-13
  92 2711.73 0.00000 -9.95791e-14
  93 2711.73 0.00000 -1.62348e-12
  94 2711.73 0.00000 -7.51231e-13
  95 2711.73 0.00000 -2.09017e-13
  96 2711.73 0.00000 2.27999e-13
  97 2711.73 0.00000 4.53321e-13
  98 2711.73 0.00000 -2.17807e-13
  99 2711.73 0.00000 -6.22574e-14
  100 2711.73 0.00000 -4.79419e-13
  101 2711.73 0.00000 -4.60875e-13
  102 2711.73 0.00000 -7.42901e-13
  103 2711.73 0.00000 4.87875e-14
  104 2711.73 0.00000 9.27734e-14
  105 2711.73 0.00000 4.25173e-13
  106 2711.73 0.00000 -1.69575e-13
  107 2711.73 0.00000 -3.54855e-13
  108 2711.73 0.00000 9.50408e-14
  109 2711.73 0.00000 3.84960e-13
  110 2711.73 0.00000 -5.63294e-13
  111 2711.73 0.00000 -6.55774e-15
  112 2711.73 0.00000 -9.66830e-14
  113 2711.73 0.00000 5.56137e-13
  114 2711.73 0.00000 2.81104e-13
  115 2711.73 0.00000 2.01098e-13
  116 2711.73 0.00000 -2.17510e-13
  117 2711.73 0.00000 4.11406e-13
  118 2711.73 0.00000 2.60165e-14
  119 2711.73 0.00000 1.12370e-13
  120 2711.73 0.00000 -7.32961e-13
  121 2711.73 0.00000 -4.22991e-14
  122 2711.73 0.00000 -2.80026e-13
  123 2711.73 0.00000 -6.91638e-13
  124 2711.73 0.00000 2.23602e-13
  125 2711.73 0.00000 2.33407e-13
  126 2711.73 0.00000 1.77846e-14
  127 2711.73 0.00000 -3.36038e-13
  128 2711.73 0.00000 6.72051e-13
  129 2711.73 0.00000 -1.96717e-13
  130 2711.73 0.00000 3.69148e-14
  131 2711.73 0.00000 -6.63213e-13
  132 2711.73 0.00000 2.83086e-14
  133 2711.73 0.00000 3.44714e-14
  134 2711.73 0.00000 5.74762e-14
  135 2711.73 0.00000 5.62707e-13
  136 2711.73 0.00000 -2.10802e-13
  137 2711.73 0.00000 -2.29386e-13
  138 2711.73 0.00000 1.07363e-13
  139 2711.73 0.00000 4.19955e-14
  140 2711.73 0.00000 -5.70879e-13
  141 2711.73 0.00000 5.24482e-14
  142 2711.73 0.00000 1.97150e-13
  143 2711.73 0.00000 2.27093e-13
  144 2711.73 0.00000 -5.40003e-13
  145 2711.73 0.00000 3.35459e-13
  146 2711.73 0.00000 -4.13679e-13
  147 2711.73 0.00000 5.47997e-13
  148 2711.73 0.00000 -9.60250e-14
  149 2711.73 0.00000 8.11169e-13
  150 2711.73 0.00000 1.23438e-13
  151 2711.73 0.00000 3.16575e-13
  152 2711.73 0.00000 -6.85342e-13
  153 2711.73 0.00000 2.12884e-13
  154 2711.73 0.00000 2.10852e-14
  155 2711.73 0.00000 -1.46094e-14
  156 2711.73 0.00000 -6.00884e-13
  157 2711.73 0.00000 -1.57242e-13
  158 2711.73 0.00000 2.10736e-13
  159 2711.73 0.00000 -1.11364e-13
  160 2711.73 0.00000 -3.57113e-13
  161 2711.73 0.00000 1.06089e-12
  162 2711.73 0.00000 3.44711e-13
  163 2711.73 0.00000 3.65307e-13
  164 2711.73 0.00000 -7.28525e-14
  165 2711.73 0.00000 -5.87920e-14
  166 2711.73 0.00000 -1.76206e-14
  167 2711.73 0.00000 -6.20204e-13
  168 2711.73 0.00000 -5.62651e-13
  169 2711.73 0.00000 3.15746e-14
  170 2711.73 0.00000 3.56140e-14
  171 2711.73 0.00000 -2.07757e-13
  172 2711.73 0.00000 -1.50939e-13
  173 2711.73 0.00000 -3.57056e-13
  174 2711.73 0.00000 9.69960e-14
  175 2711.73 0.00000 -1.59253e-13
  176 2711.73 0.00000 -1.74842e-13
  177 2711.73 0.00000 -4.48002e-13
  178 2711.73 0.00000 2.11204e-13
  179 2711.73 0.00000 -4.19838e-15
  180 2711.73 0.00000 -7.55634e-14
  181 2711.73 0.00000 -2.32786e-13
  182 2711.73 0.00000 1.07573e-12
  183 2711.73 0.00000 -4.12112e-14
  184 2711.73 0.00000 6.69712e-13
  185 2711.73 0.00000 2.38185e-13
  186 2711.73 0.00000 -1.93574e-13
  187 2711.73 0.00000 7.40732e-14
  188 2711.73 0.00000 -1.94896e-13
  189 2711.73 0.00000 -1.84662e-14
  190 2711.73 0.00000 2.40951e-14
  191 2711.73 0.00000 1.08913e-14
  192 2711.73 0.00000 -7.64198e-14
  193 2711.73 0.00000 7.90628e-14
  194 2711.73 0.00000 -1.43257e-13
  195 2711.73 0.00000 2.21434e-13
  196 2711.73 0.00000 2.14081e-13
  197 2711.73 0.00000 1.88568e-13
  198 2711.73 0.00000 2.82623e-13
  199 2711.73 0.00000 -1.09468e-14
  200 2711.73 0.00000 -2.36670e-13
  201 2711.73 0.00000 3.63373e-16
  202 2711.73 0.00000 -7.55590e-13
  203 2711.73 0.00000 -8.86769e-14
  204 2711.73 0.00000 -3.11284e-13
  205 2711.73 0.00000 -2.89874e-13
  206 2711.73 0.00000 -1.29102e-13
  207 2711.73 0.00000 -2.65046e-13
  208 2711.73 0.00000 -4.59621e-13
  209 2711.73 0.00000 1.14764e-12
  210 2711.73 0.00000 2.14430e-13
  211 2711.73 0.00000 -1.64618e-13
  212 2711.73 0.00000 1.99628e-13
  213 2711.73 0.00000 -3.11228e-13
  214 2711.73 0.00000 -9.16942e-14
  215 2711.73 0.00000 7.19224e-14
  216 2711.73 0.00000 4.92905e-14
  217 2711.73 0.00000 9.21387e-13
  218 2711.73 0.00000 -2.10080e-14
  219 2711.73 0.00000 -2.53289e-14
  220 2711.73 0.00000 7.36522e-15
  221 2711.73 0.00000 -2.01998e-13
  222 2711.73 0.00000 -4.21143e-13
  223 2711.73 0.00000 4.68525e-13
  224 2711.73 0.00000 2.40339e-15
  225 2711.73 0.00000 -9.18896e-14
  226 2711.73 0.00000 -2.39679e-13
  227 2711.73 0.00000 -2.70360e-13
  228 2711.73 0.00000 3.77668e-13
  229 2711.73 0.00000 1.60966e-13
  230 2711.73 0.00000 -1.14950e-13
  231 2711.73 0.00000 -5.33285e-13
  232 2711.73 0.00000 -3.76325e-13
  233 2711.73 0.00000 -6.25374e-13
  234 2711.73 0.00000 -1.82668e-13
  235 2711.73 0.00000 4.16122e-13
  236 2711.73 0.00000 8.01480e-14
  237 2711.73 0.00000 -3.85842e-13
  238 2711.73 0.00000 -1.09953e-13
  239 2711.73 0.00000 -2.21628e-13
  240 2711.73 0.00000 -5.72695e-13
  241 2711.73 0.00000 4.90451e-14
</Section>

newXOutput 60

<Section columns = "stress_xx | stress_yy | stress_xy">
  1 2758.49 0.00000 -4.84485e-14
  2 2758.49 0.00000 -1.42109e-14
  3 2758.49 0.00000 -1.17571e-12
  4 2758.49 0.00000 3.15543e-14
  5 2758.49 0.00000 1.52803e-13
  6 2758.49 0.00000 4.51786e-13
  7 2758.49 0.00000 -7.85988e-14
  8 2758.49 0.00000 3.82920e-13
  9 2758.49 0.00000 1.17906e-13
  10 2758.49 0.00000 -7.52733e-13
  11 2758.49 0.00000 -2.51516e-13
  12 2758.49 0.00000 2.56966e-13
  13 2758.49 0.00000 3.60046e-13
  14 2758.49 0.00000 -6.86221e-14
  15 2758.49 0.00000 -2.65691e-13
  16 2758.49 0.00000 -1.77445e-13
  17 2758.49 0.00000 -4.83303e-13
  18 2758.49 0.00000 -1.89899e-12
  19 2758.49 0.00000 -1.35654e-12
  20 2758.49 0.00000 4.19096e-13
  21 2758.49 0.00000 -1.01556e-13
  22 2758.49 0.00000 7.26647e-15
  23 2758.49 0.00000 -2.43859e-13
  24 2758.49 0.00000 3.45415e-13
  25 2758.49 0.00000 0.00000
  26 2758.49 0.00000 3.79374e-13
  27 2758.49 0.00000 -1.53632e-14
  28 2758.49 0.00000 -1.86086e-13
  29 2758.49 0.00000 3.45673e-14
  30 2758.49 0.00000 3.57067e-13
  31 2758.49 0.00000 -2.09910e-12
  32 2758.49 0.00000 -1.52429e-12
  33 2758.49 0.00000 -1.69143e-12
  34 2758.49 0.00000 -4.32321e-13
  35 2758.49 0.00000 -5.07545e-14
  36 2758.49 0.00000 -8.10463e-13
  37 2758.49 0.00000 -7.49387e-13
  38 2758.49 0.00000 3.36057e-13
  39 2758.49 0.00000 7.34169e-13
  40 2758.49 0.00000 2.33437e-13
  41 2758.49 0.00000 4.70918e-13
  42 2758.49 0.00000 1.19282e-13
  43 2758.49 0.00000 2.52829e-13
  44 2758.49 0.00000 5.25240e-13
  45 2758.49 0.00000 1.54434e-13
  46 2758.49 0.00000 2.97570e-13
  47 2758.49 0.00000 4.03713e-14
  48 2758.49 0.00000 -1.17929e-13
  49 2758.49 0.00000 9.61725e-14
  50 2758.49 0.00000 1.06591e-13
  51 2758.49 0.00000 -1.15224e-14
  52 2758.49 0.00000 9.89907e-15
  53 2758.49 0.00000 -1.29587e-13
  54 2758.49 0.00000 1.40917e-14
  55 2758.49 0.00000 0.00000
  56 2758.49 0.00000 5.72338e-14
  57 2758.49 0.00000 -2.73421e-13
  58 2758.49 0.00000 4.91663e-13
  59 2758.49 0.00000 6.76393e-14
  60 2758.49 0.00000 -5.06715e-13
  61 2758.49 0.00000 5.31564e-13
  62 2758.49 0.00000 -3.55510e-13
  63 2758.49 0.00000 3.04855e-13
  64 2758.49 0.00000 -7.81130e-13
  65 2758.49 0.00000 5.55982e-15
  66 2758.49 0.00000 -8.54725e-15
  67 2758.49 0.00000 2.65971e-13
  68 2758.49 0.00000 2.93485e-13
  69 2758.49 0.00000 2.00884e-14
  70 2758.49 0.00000 -7.52044e-14
  71 2758.49 0.00000 2.71978e-13
  72 2758.49 0.00000 -4.18360e-13
  73 2758.49 0.00000 4.45364e-13
  74 2758.49 0.00000 -1.65916e-13
  75 2758.49 0.00000 -4.01351e-13
  76 2758.49 0.00000 -6.93841e-13
  77 2758.49 0.00000 -6.11357e-14
  78 2758.49 0.00000 -3.65405e-13
  79 2758.49 0.00000 -1.43013e-13
  80 2758.49 0.00000 -1.18802e-13
  81 2758.49 0.00000 3.13907e-14
  82 2758.49 0.00000 -5.60663e-13
  83 2758.49 0.00000 1.06499e-13
  84 2758.49 0.00000 -3.19662e-13
  85 2758.49 0.00000 -1.51723e-13
  86 2758.49 0.00000 -1.43846e-13
  87 2758.49 0.00000 9.74686e-14
  88 2758.49 0.00000 -1.05343e-13
  89 2758.49 0.00000 2.92514e-13
  90 2758.49 0.00000 2.79706e-13
  91 2758.49 0.00000 -1.25853e-13
  92 2758.49 0.00000 -1.46469e-13
  93 2758.49 0.00000 1.19106e-14
  94 2758.49 0.00000 2.04805e-13
  95 2758.49 0.00000 -4.95161e-13
  96 2758.49 0.00000 -1.83126e-13
  97 2758.49 0.00000 5.71215e-13
  98 2758.49 0.00000 2.15543e-13
  99 2758.49 0.00000 5.15209e-15
  100 2758.49 0.00000 7.95635e-13
  101 2758.49 0.00000 1.80663e-13
  102 2758.49 0.00000 4.14117e-13
  103 2758.49 0.00000 -1.22960e-13
  104 2758.49 0.00000 -4.91759e-13
  105 2758.49 0.00000 -7.89922e-14
  106 2758.49 0.00000 -2.22655e-13
  107 2758.49 0.00000 5.53716e-13
  108 2758.49 0.00000 8.47093e-15
  109 2758.49 0.00000 5.25198e-14
  110 2758.49 0.00000 -8.05986e-14
  111 2758.49 0.00000 -2.69246e-13
  112 2758.49 0.00000 -2.81186e-14
  113 2758.49 0.00000 -1.18720e-13
  114 2758.49 0.00000 -8.53534e-13
  115 2758.49 0.00000 -2.02299e-14
  116 2758.49 0.00000 -4.21752e-14
  117 2758.49 0.00000 -3.36227e-13
  118 2758.49 0.00000 -4.06837e-14
  119 2758.49 0.00000 -1.02682e-13
  120 2758.49 0.00000 7.13400e-14
  121 2758.49 0.00000 -1.24358e-13
  122 2758.49 0.00000 3.67414e-13
  123 2758.49 0.00000 -2.68605e-13
  124 2758.49 0.00000 2.02788e-13
  125 2758.49 0.00000 -9.54281e-15
  126 2758.49 0.00000 1.99377e-14
  127 2758.49 0.00000 3.55358e-13
  128 2758.49 0.00000 2.48627e-13
  129 2758.49 0.00000 2.23303e-13
  130 2758.49 0.00000 1.20265e-13
  131 2758.49 0.00000 5.38133e-13
  132 2758.49 0.00000 -3.27159e-13
  133 2758.49 0.00000 -2.10433e-13
  134 2758.49 0.00000 4.42259e-13
  135 2758.49 0.00000 8.05356e-13
  136 2758.49 0.00000 9.23673e-14
  137 2758.49 0.00000 1.28688e-13
  138 2758.49 0.00000 -3.92699e-13
  139 2758.49 0.00000 2.02270e-13
  140 2758.49 0.00000 6.04650e-15
  141 2758.49 0.00000 1.65696e-13
  142 2758.49 0.00000 -1.89827e-13
  143 2758.49 0.00000 -3.07179e-13
  144 2758.49 0.00000 4.19289e-13
  145 2758.49 0.00000 -1.41769e-12
  146 2758.49 0.00000 1.48742e-13
  147 2758.49 0.00000 2.51008e-13
  148 2758.49 0.00000 -1.81023e-13
  149 2758.49 0.00000 -1.59065e-14
  150 2758.49 0.00000 -8.24193e-14
  151 2758.49 0.00000 4.56137e-14
  152 2758.49 0.00000 -1.66220e-13
  153 2758.49 0.00000 -3.32630e-13
  154 2758.49 0.00000 -2.11206e-13
  155 2758.49 0.00000 -1.25467e-14
  156 2758.49 0.00000 -4.80166e-13
  157 2758.49 0.00000 8.95762e-14
  158 2758.49 0.00000 -3.61740e-13
  159 2758.49 0.00000 1.25770e-13
  160 2758.49 0.00000 -7.32200e-17
  161 2758.49 0.00000 -4.84480e-13
  162 2758.49 0.00000 -8.87162e-14
  163 2758.49 0.00000 -4.08598e-13
  164 2758.49 0.00000 3.22521e-13
  165 2758.49 0.00000 -4.46657e-14
  166 2758.49 0.00000 3.66597e-14
  167 2758.49 0.00000 4.25807e-13
  168 2758.49 0.00000 -5.59932e-14
  169 2758.49 0.00000 2.04058e-13
  170 2758.49 0.00000 4.91422e-13
  171 2758.49 0.00000 2.53664e-13
  172 2758.49 0.00000 1.33660e-13
  173 2758.49 0.00000 3.68855e-13
  174 2758.49 0.00000 -8.94108e-14
  175 2758.49 0.00000 1.51374e-13
  176 2758.49 0.00000 6.58483e-14
  177 2758.49 0.00000 -7.45002e-13
  178 2758.49 0.00000 -2.50828e-13
  179 2758.49 0.00000 3.33970e-14
  180 2758.49 0.00000 2.67778e-13
  181 2758.49 0.00000 6.87101e-15
  182 2758.49 0.00000 -9.42955e-13
  183 2758.49 0.00000 -1.08719e-13
  184 2758.49 0.00000 -7.96636e-13
  185 2758.49 0.00000 -3.03678e-13
  186 2758.49 0.00000 -2.43213e-13
  187 2758.49 0.00000 -1.35139e-12
  188 2758.49 0.00000 9.98388e-15
  189 2758.49 0.00000 3.46600e-13
  190 2758.49 0.00000 -1.53937e-13
  191 2758.49 0.00000 -3.66076e-13
  192 2758.49 0.00000 7.39672e-14
  193 2758.49 0.00000 -3.81005e-13
  194 2758.49 0.00000 -5.63924e-13
  195 2758.49 0.00000 -1.39207e-13
  196 2758.49 0.00000 -5.90531e-13
  197 2758.49 0.00000 6.57261e-14
  198 2758.49 0.00000 -2.00763e-13
  199 2758.49 0.00000 -1.29660e-13
  200 2758.49 0.00000 5.93740e-14
  201 2758.49 0.00000 -1.47207e-13
  202 2758.49 0.00000 4.57089e-13
  203 2758.49 0.00000 4.15243e-13
  204 2758.49 0.00000 -2.76371e-13
  205 2758.49 0.00000 4.20066e-13
  206 2758.49 0.00000 3.64464e-13
  207 2758.49 0.00000 2.35450e-13
  208 2758.49 0.00000 -6.36748e-13
  209 2758.49 0.00000 -9.63062e-14
  210 2758.49 0.00000 -5.28729e-15
  211 2758.49 0.00000 1.61773e-13
  212 2758.49 0.00000 2.86947e-13
  213 2758.49 0.00000 -3.97010e-14
  214 2758.49 0.00000 -1.57781e-13
  215 2758.49 0.00000 -9.69130e-14
  216 2758.49 0.00000 -4.48370e-13
  217 2758.49 0.00000 -1.57161e-13
  218 2758.49 0.00000 4.98094e-14
  219 2758.49 0.00000 1.79097e-13
  220 2758.49 0.00000 -5.58261e-13
  221 2758.49 0.00000 -3.08066e-13
  222 2758.49 0.00000 -1.81986e-13
  223 2758.49 0.00000 -5.00824e-13
  224 2758.49 0.00000 3.23042e-13
  225 2758.49 0.00000 3.67238e-13
  226 2758.49 0.00000 7.08430e-13
  227 2758.49 0.00000 -2.91833e-14
  228 2758.49 0.00000 3.80442e-13
  229 2758.49 0.00000 -3.13297e-14
  230 2758.49 0.00000 1.84467e-13
  231 2758.49 0.00000 1.97533e-13
  232 2758.49 0.00000 9.57413e-14
  233 2758.49 0.00000 1.85074e-13
  234 2758.49 0.00000 -8.16483e-13
  235 2758.49 0.00000 1.34867e-13
  236 2758.49 0.00000 -1.50924e-13
  237 2758.49 0.00000 5.43530e-13
  238 2758.49 0.00000 2.48904e-13
  239 2758.49 0.00000 3.06519e-13
  240 2758.49 0.00000 4.89929e-13
  241 2758.49 0.00000 -8.29085e-13
</Section>

newXOutput 61

<Section columns = "stress_xx | stress_yy | stress_xy">
  1 2805.28 0.00000 -2.46862e-13
  2 2805.28 0.00000 -2.78437e-13
  3 2805.28 0.00000 -6.07796e-13
  4 2805.28 0.00000 -8.46101e-14
  5 2805.28 0.00000 1.15762e-14
  6 2805.28 0.00000 7.50862e-13
  7 2805.28 0.00000 5.62264e-13
  8 2805.28 0.00000 1.95142e-13
  9 2805.28 0.00000 -4.92216e-14
  10 2805.28 0.00000 -1.36403e-13
  11 2805.28 0.00000 -1.85646e-13
  12 2805.28 0.00000 -2.34889e-13
  13 2805.28 0.00000 2.27326e-13
  14 2805.28 0.00000 -3.61797e-13
  15 2805.28 0.00000 1.74590e-13
  16 2805.28 0.00000 5.47444e-13
  17 2805.28 0.00000 6.06161e-13
  18 2805.28 0.00000 6.82124e-14
  19 2805.28 0.00000 -7.91807e-13
  20 2805.28 0.00000 1.26929e-13
  21 2805.28 0.00000 8.20250e-13
  22 2805.28 0.00000 1.86592e-12
  23 2805.28 0.00000 4.69779e-13
  24 2805.28 0.00000 4.79253e-13
  25 2805.28 0.00000 -1.90362e-13
  26 2805.28 0.00000 3.69385e-13
  27 2805.28 0.00000 -1.23108e-13
  28 2805.28 0.00000 3.69323e-14
  29 2805.28 0.00000 1.50579e-13
  30 2805.28 0.00000 -1.02280e-13
  31 2805.28 0.00000 3.25927e-14
  32 2805.28 0.00000 -7.27001e-13
  33 2805.28 0.00000 -2.67928e-13
  34 2805.28 0.00000 -1.79202e-12
  35 2805.28 0.00000 -9.50057e-13
  36 2805.28 0.00000 -3.78106e-13
  37 2805.28 0.00000 -1.84103e-13
  38 2805.28 0.00000 9.38697e-14
  39 2805.28 0.00000 1.26957e-13
  40 2805.28 0.00000 -6.05188e-13
  41 2805.28 0.00000 -3.46667e-14
  42 2805.28 0.00000 -1.81477e-13
  43 2805.28 0.00000 -1.64500e-13
  44 2805.28 0.00000 -1.18519e-13
  45 2805.28 0.00000 1.65316e-13
  46 2805.28 0.00000 5.17333e-14
  47 2805.28 0.00000 -7.27190e-14
  48 2805.28 0.00000 -2.03822e-13
  49 2805.28 0.00000 -2.62686e-14
  50 2805.28 0.00000 3.52931e-14
  51 2805.28 0.00000 -2.27215e-14
  52 2805.28 0.00000 -4.08373e-14
  53 2805.28 0.00000 1.75699e-13
  54 2805.28 0.00000 -7.90281e-14
  55 2805.28 0.00000 1.76151e-13
  56 2805.28 0.00000 1.14858e-14
  57 2805.28 0.00000 -5.13801e-14
  58 2805.28 0.00000 5.00449e-13
  59 2805.28 0.00000 4.77478e-13
  60 2805.28 0.00000 2.08357e-13
  61 2805.28 0.00000 6.67450e-13
  62 2805.28 0.00000 -9.95510e-14
  63 2805.28 0.00000 5.26783e-13
  64 2805.28 0.00000 4.03704e-13
  65 2805.28 0.00000 2.25250e-14
  66 2805.28 0.00000 -2.29616e-13
  67 2805.28 0.00000 5.58098e-13
  68 2805.28 0.00000 1.61613e-13
  69 2805.28 0.00000 -1.34607e-13
  70 2805.28 0.00000 -2.05171e-13
  71 2805.28 0.00000 -1.68979e-14
  72 2805.28 0.00000 5.23175e-14
  73 2805.28 0.00000 9.29731e-14
  74 2805.28 0.00000 -7.30333e-14
  75 2805.28 0.00000 -2.11008e-14
  76 2805.28 0.00000 1.36866e-13
  77 2805.28 0.00000 5.76141e-14
  78 2805.28 0.00000 2.00324e-12
  79 2805.28 0.00000 -1.34691e-13
  80 2805.28 0.00000 -5.18263e-15
  81 2805.28 0.00000 -1.83718e-13
  82 2805.28 0.00000 -4.27168e-13
  83 2805.28 0.00000 2.31095e-13
  84 2805.28 0.00000 1.00727e-14
  85 2805.28 0.00000 -7.30942e-13
  86 2805.28 0.00000 2.08618e-13
  87 2805.28 0.00000 1.58306e-13
  88 2805.28 0.00000 -2.40268e-13
  89 2805.28 0.00000 2.91812e-13
  90 2805.28 0.00000 -1.95583e-13
  91 2805.28 0.00000 3.46706e-14
  92 2805.28 0.00000 -1.11772e-13
  93 2805.28 0.00000 -6.95296e-13
  94 2805.28 0.00000 1.06412e-12
  95 2805.28 0.00000 -3.58455e-13
  96 2805.28 0.00000 5.60698e-13
  97 2805.28 0.00000 2.55989e-14
  98 2805.28 0.00000 7.50966e-14
  99 2805.28 0.00000 -3.72706e-13
  100 2805.28 0.00000 -1.93338e-13
  101 2805.28 0.00000 -1.46803e-13
  102 2805.28 0.00000 -6.07472e-13
  103 2805.28 0.00000 -2.72505e-15
  104 2805.28 0.00000 1.33269e-13
  105 2805.28 0.00000 -3.09948e-14
  106 2805.28 0.00000 4.80701e-13
  107 2805.28 0.00000 5.54085e-13
  108 2805.28 0.00000 -7.45186e-14
  109 2805.28 0.00000 -3.27543e-13
  110 2805.28 0.00000 1.98885e-13
  111 2805.28 0.00000 6.91467e-13
  112 2805.28 0.00000 -2.73600e-13
  113 2805.28 0.00000 -4.66935e-13
  114 2805.28 0.00000 -9.50767e-15
  115 2805.28 0.00000 2.45278e-13
  116 2805.28 0.00000 4.76509e-13
  117 2805.28 0.00000 -2.29679e-13
  118 2805.28 0.00000 1.26803e-14
  119 2805.28 0.00000 -2.67089e-13
  120 2805.28 0.00000 1.18196e-12
  121 2805.28 0.00000 -3.75333e-14
  122 2805.28 0.00000 3.43183e-13
  123 2805.28 0.00000 -3.13770e-13
  124 2805.28 0.00000 -4.05787e-13
  125 2805.28 0.00000 3.39131e-13
  126 2805.28 0.00000 1.01342e-13
  127 2805.28 0.00000 1.38854e-13
  128 2805.28 0.00000 1.91827e-13
  129 2805.28 0.00000 1.32327e-13
  130 2805.28 0.00000 -1.43062e-13
  131 2805.28 0.00000 -1.26234e-13
  132 2805.28 0.00000 -2.11649e-13
  133 2805.28 0.00000 2.50258e-13
  134 2805.28 0.00000 4.09583e-13
  135 2805.28 0.00000 5.67094e-13
  136 2805.28 0.00000 -4.35077e-14
  137 2805.28 0.00000 7.63670e-13
  138 2805.28 0.00000 2.93718e-13
  139 2805.28 0.00000 -1.87410e-13
  140 2805.28 0.00000 -4.48056e-13
  141 2805.28 0.00000 -2.96133e-13
  142 2805.28 0.00000 2.83687e-15
  143 2805.28 0.00000 -8.16898e-14
  144 2805.28 0.00000 4.49334e-14
  145 2805.28 0.00000 9.53788e-15
  146 2805.28 0.00000 -1.44652e-13
  147 2805.28 0.00000 -2.27634e-13
  148 2805.28 0.00000 -1.08740e-13
  149 2805.28 0.00000 3.60882e-13
  150 2805.28 0.00000 5.11450e-13
  151 2805.28 0.00000 7.11657e-13
  152 2805.28 0.00000 -5.01163e-13
  153 2805.28 0.00000 2.93154e-13
  154 2805.28 0.00000 6.56966e-13
  155 2805.28 0.00000 -3.24633e-13
  156 2805.28 0.00000 2.37244e-13
  157 2805.28 0.00000 -5.13102e-14
  158 2805.28 0.00000 -3.18263e-13
  159 2805.28 0.00000 6.39793e-13
  160 2805.28 0.00000 2.24200e-13
  161 2805.28 0.00000 5.21696e-13
  162 2805.28 0.00000 4.04306e-13
  163 2805.28 0.00000 -2.18798e-13
  164 2805.28 0.00000 3.20071e-13
  165 2805.28 0.00000 -2.76064e-13
  166 2805.28 0.00000 6.94252e-14
  167 2805.28 0.00000 1.54257e-13
  168 2805.28 0.00000 -3.75904e-13
  169 2805.28 0.00000 2.06760e-13
  170 2805.28 0.00000 8.61273e-13
  171 2805.28 0.00000 -7.12780e-13
  172 2805.28 0.00000 -2.82246e-13
  173 2805.28 0.00000 3.91807e-14
  174 2805.28 0.00000 -2.11444e-13
  175 2805.28 0.00000 6.24690e-14
  176 2805.28 0.00000 -1.55344e-13
  177 2805.28 0.00000 1.62032e-13
  178 2805.28 0.00000 1.60050e-13
  179 2805.28 0.00000 3.52491e-13
  180 2805.28 0.00000 -2.43446e-13
  181 2805.28 0.00000 -4.69758e-13
  182 2805.28 0.00000 -5.99309e-13
  183 2805.28 0.00000 -2.89217e-13
  184 2805.28 0.00000 3.09573e-14
  185 2805.28 0.00000 -3.01532e-13
  186 2805.28 0.00000 -1.62110e-13
  187 2805.28 0.00000 2.74802e-13
  188 2805.28 0.00000 5.19665e-13
  189 2805.28 0.00000 2.60061e-13
  190 2805.28 0.00000 7.21998e-16
  191 2805.28 0.00000 1.59587e-13
  192 2805.28 0.00000 1.88848e-14
  193 2805.28 0.00000 8.23897e-14
  194 2805.28 0.00000 2.55477e-13
  195 2805.28 0.00000 -1.21142e-14
  196 2805.28 0.00000 -4.55010e-13
  197 2805.28 0.00000 5.22676e-14
  198 2805.28 0.00000 8.60020e-13
  199 2805.28 0.00000 5.67375e-15
  200 2805.28 0.00000 -3.04866e-13
  201 2805.28 0.00000 -1.24072e-13
  202 2805.28 0.00000 3.24219e-13
  203 2805.28 0.00000 2.47575e-13
  204 2805.28 0.00000 -4.05844e-13
  205 2805.28 0.00000 -8.98689e-15
  206 2805.28 0.00000 -1.52858e-13
  207 2805.28 0.00000 -1.39835e-13
  208 2805.28 0.00000 5.51219e-14
  209 2805.28 0.00000 8.49337e-13
  210 2805.28 0.00000 2.27693e-13
  211 2805.28 0.00000 2.77952e-13
  212 2805.28 0.00000 1.45207e-13
  213 2805.28 0.00000 -9.81957e-14
  214 2805.28 0.00000 3.25030e-14
  215 2805.28 0.00000 -6.17894e-14
  216 2805.28 0.00000 -7.74352e-13
  217 2805.28 0.00000 1.05040e-12
  218 2805.28 0.00000 4.36748e-13
  219 2805.28 0.00000 -6.65303e-13
  220 2805.28 0.00000 3.84878e-14
  221 2805.28 0.00000 5.77300e-13
  222 2805.28 0.00000 -4.33424e-13
  223 2805.28 0.00000 -2.75072e-13
  224 2805.28 0.00000 9.66278e-14
  225 2805.28 0.00000 9.53598e-13
  226 2805.28 0.00000 -4.52959e-14
  227 2805.28 0.00000 -5.55968e-13
  228 2805.28 0.00000 3.25346e-13
  229 2805.28 0.00000 -3.22439e-13
  230 2805.28 0.00000 4.37573e-13
  231 2805.28 0.00000 5.65459e-13
  232 2805.28 0.00000 -4.69828e-14
  233 2805.28 0.00000 -6.85054e-13
  234 2805.28 0.00000 -1.38666e-13
  235 2805.28 0.00000 -3.95980e-13
  236 2805.28 0.00000 2.41471e-14
  237 2805.28 0.00000 -1.23656e-13
  238 2805.28 0.00000 -3.89830e-13
  239 2805.28 0.00000 1.36403e-13
  240 2805.28 0.00000 -2.90387e-13
  241 2805.28 0.00000 -1.29745e-13
</Section>

newXOutput 62

<Section columns = "stress_xx | stress_yy | stress_xy">
  1 2852.08 0.00000 -2.15357e-13
  2 2852.08 0.00000 -1.08433e-12
  3 2852.08 0.00000 7.44280e-14
  4 2852.08 0.00000 -5.59211e-14
  5 2852.08 0.00000 -2.78415e-13
  6 2852.08 0.00000 -9.18272e-14
  7 2852.08 0.00000 8.96276e-14
  8 2852.08 0.00000 -2.38332e-13
  9 2852.08 0.00000 -2.23667e-13
  10 2852.08 0.00000 -1.31910e-13
  11 2852.08 0.00000 -3.70242e-13
  12 2852.08 0.00000 4.88817e-14
  13 2852.08 0.00000 1.07731e-13
  14 2852.08 0.00000 5.38557e-13
  15 2852.08 0.00000 3.88066e-13
  16 2852.08 0.00000 -1.58981e-13
  17 2852.08 0.00000 -6.27521e-13
  18 2852.08 0.00000 -9.48811e-13
  19 2852.08 0.00000 -3.63701e-13
  20 2852.08 0.00000 4.40934e-13
  21 2852.08 0.00000 -3.61443e-13
  22 2852.08 0.00000 -5.94584e-13
  23 2852.08 0.00000 -7.81172e-13
  24 2852.08 0.00000 -1.65382e-13
  25 2852.08 0.00000 -2.48073e-13
  26 2852.08 0.00000 -5.88572e-13
  27 2852.08 0.00000 5.17224e-13
  28 2852.08 0.00000 1.71349e-13
  29 2852.08 0.00000 1.71844e-13
  30 2852.08 0.00000 -8.37564e-14
  31 2852.08 0.00000 -2.06444e-13
  32 2852.08 0.00000 -8.77965e-13
  33 2852.08 0.00000 -6.95057e-13
  34 2852.08 0.00000 -1.32458e-12
  35 2852.08 0.00000 -1.17260e-12
  36 2852.08 0.00000 -9.05937e-13
  37 2852.08 0.00000 8.76546e-14
  38 2852.08 0.00000 -2.56201e-14
  39 2852.08 0.00000 1.34624e-13
  40 2852.08 0.00000 2.95692e-13
  41 2852.08 0.00000 2.29329e-13
  42 2852.08 0.00000 6.27071e-13
  43 2852.08 0.00000 5.19935e-13
  44 2852.08 0.00000 1.88036e-14
  45 2852.08 0.00000 7.79060e-14
  46 2852.08 0.00000 2.63651e-13
  47 2852.08 0.00000 -2.00985e-13
  48 2852.08 0.00000 -4.04287e-13
  49 2852.08 0.00000 -5.64361e-15
  50 2852.08 0.00000 4.96817e-14
  51 2852.08 0.00000 1.11988e-14
  52 2852.08 0.00000 -4.73197e-14
  53 2852.08 0.00000 2.13518e-13
  54 2852.08 0.00000 -1.08279e-13
  55 2852.08 0.00000 0.00000
  56 2852.08 0.00000 -8.31534e-14
  57 2852.08 0.00000 1.67142e-13
  58 2852.08 0.00000 7.65578e-14
  59 2852.08 0.00000 -1.00489e-13
  60 2852.08 0.00000 1.63911e-13
  61 2852.08 0.00000 1.18037e-13
  62 2852.08 0.00000 -1.39426e-13
  63 2852.08 0.00000 -1.23321e-13
  64 2852.08 0.00000 -4.88847e-13
  65 2852.08 0.00000 -1.65690e-13
  66 2852.08 0.00000 1.48402e-15
  67 2852.08 0.00000 -6.82261e-13
  68 2852.08 0.00000 3.40405e-14
  69 2852.08 0.00000 -1.76112e-13
  70 2852.08 0.00000 2.89777e-13
  71 2852.08 0.00000 7.94283e-14
  72 2852.08 0.00000 -1.66525e-13
  73 2852.08 0.00000 -3.91999e-13
  74 2852.08 0.00000 4.95251e-14
  75 2852.08 0.00000 -1.82139e-13
  76 2852.08 0.00000 2.33680e-15
  77 2852.08 0.00000 2.76241e-13
  78 2852.08 0.00000 -4.42968e-13
  79 2852.08 0.00000 -3.72921e-13
  80 2852.08 0.00000 4.79409e-13
  81 2852.08 0.00000 -2.06460e-13
  82 2852.08 0.00000 8.34962e-14
  83 2852.08 0.00000 -4.71405e-13
  84 2852.08 0.00000 -1.67550e-13
  85 2852.08 0.00000 1.77451e-13
  86 2852.08 0.00000 -2.64879e-13
  87 2852.08 0.00000 2.02456e-13
  88 2852.08 0.00000 1.47554e-13
  89 2852.08 0.00000 -4.74286e-14
  90 2852.08 0.00000 3.70731e-13
  91 2852.08 0.00000 7.79413e-14
  92 2852.08 0.00000 7.53544e-14
  93 2852.08 0.00000 9.37800e-13
  94 2852.08 0.00000 1.26125e-13
  95 2852.08 0.00000 4.61818e-13
  96 2852.08 0.00000 2.41069e-13
  97 2852.08 0.00000 -2.49917e-13
  98 2852.08 0.00000 -1.32407e-13
  99 2852.08 0.00000 8.00103e-13
  100 2852.08 0.00000 2.18668e-13
  101 2852.08 0.00000 -1.06661e-14
  102 2852.08 0.00000 1.08155e-13
  103 2852.08 0.00000 9.34273e-14
  104 2852.08 0.00000 3.47771e-13
  105 2852.08 0.00000 1.40439e-13
  106 2852.08 0.00000 -1.92124e-13
  107 2852.08 0.00000 -3.14020e-13
  108 2852.08 0.00000 -4.26521e-14
  109 2852.08 0.00000 -1.36280e-13
  110 2852.08 0.00000 4.58859e-13
  111 2852.08 0.00000 -2.58056e-13
  112 2852.08 0.00000 -2.19476e-13
  113 2852.08 0.00000 -2.05956e-13
  114 2852.08 0.00000 -3.03484e-13
  115 2852.08 0.00000 4.03545e-16
  116 2852.08 0.00000 1.76616e-13
  117 2852.08 0.00000 2.72762e-14
  118 2852.08 0.00000 -2.02223e-13
  119 2852.08 0.00000 6.10468e-13
  120 2852.08 0.00000 -4.12654e-13
  121 2852.08 0.00000 2.31519e-13
  122 2852.08 0.00000 2.45694e-13
  123 2852.08 0.00000 1.30494e-13
  124 2852.08 0.00000 1.20290e-13
  125 2852.08 0.00000 -1.64707e-13
  126 2852.08 0.00000 -1.38061e-13
  127 2852.08 0.00000 2.91053e-13
  128 2852.08 0.00000 -7.27665e-13
  129 2852.08 0.00000 7.29909e-14
  130 2852.08 0.00000 6.13670e-16
  131 2852.08 0.00000 1.32684e-13
  132 2852.08 0.00000 2.71807e-13
  133 2852.08 0.00000 -6.25727e-13
  134 2852.08 0.00000 2.62135e-13
  135 2852.08 0.00000 2.03088e-13
  136 2852.08 0.00000 -1.58721e-13
  137 2852.08 0.00000 -9.72644e-14
  138 2852.08 0.00000 -3.40904e-13
  139 2852.08 0.00000 2.84695e-13
  140 2852.08 0.00000 2.11262e-13
  141 2852.08 0.00000 -2.65573e-13
  142 2852.08 0.00000 2.72894e-15
  143 2852.08 0.00000 -1.66772e-13
  144 2852.08 0.00000 2.11131e-13
  145 2852.08 0.00000 -1.06220e-13
  146 2852.08 0.00000 2.44044e-13
  147 2852.08 0.00000 4.02068e-13
  148 2852.08 0.00000 5.65085e-14
  149 2852.08 0.00000 4.34863e-13
  150 2852.08 0.00000 6.98839e-14
  151 2852.08 0.00000 -3.36327e-13
  152 2852.08 0.00000 5.93375e-13
  153 2852.08 0.00000 2.88085e-13
  154 2852.08 0.00000 2.23905e-13
  155 2852.08 0.00000 1.19590e-15
  156 2852.08 0.00000 7.55255e-13
  157 2852.08 0.00000 3.11979e-15
  158 2852.08 0.00000 -6.20189e-13
  159 2852.08 0.00000 3.05958e-13
  160 2852.08 0.00000 2.76148e-13
  161 2852.08 0.00000 -2.00378e-13
  162 2852.08 0.00000 -6.05467e-13
  163 2852.08 0.00000 2.54097e-14
  164 2852.08 0.00000 -8.40988e-13
  165 2852.08 0.00000 -8.31534e-14
  166 2852.08 0.00000 3.12293e-14
  167 2852.08 0.00000 -5.73536e-13
  168 2852.08 0.00000 2.34414e-13
  169 2852.08 0.00000 -4.32784e-14
  170 2852.08 0.00000 -5.35276e-13
  171 2852.08 0.00000 2.29773e-13
  172 2852.08 0.00000 4.63803e-13
  173 2852.08 0.00000 1.75760e-14
  174 2852.08 0.00000 -3.56840e-13
  175 2852.08 0.00000 1.44194e-13
  176 2852.08 0.00000 -1.25752e-13
  177 2852.08 0.00000 6.08851e-14
  178 2852.08 0.00000 -1.00825e-13
  179 2852.08 0.00000 9.56677e-15
  180 2852.08 0.00000 4.46048e-13
  181 2852.08 0.00000 7.88131e-13
  182 2852.08 0.00000 -3.35712e-13
  183 2852.08 0.00000 -1.05285e-13
  184 2852.08 0.00000 -1.12037e-13
  185 2852.08 0.00000 -1.95284e-13
  186 2852.08 0.00000 5.12431e-13
  187 2852.08 0.00000 -2.54118e-13
  188 2852.08 0.00000 -3.18895e-13
  189 2852.08 0.00000 1.68724e-13
  190 2852.08 0.00000 7.29688e-14
  191 2852.08 0.00000 -2.88631e-14
  192 2852.08 0.00000 -2.55615e-13
  193 2852.08 0.00000 -6.80367e-13
  194 2852.08 0.00000 -7.36119e-13
  195 2852.08 0.00000 -6.94278e-14
  196 2852.08 0.00000 -2.95221e-13
  197 2852.08 0.00000 -1.78749e-13
  198 2852.08 0.00000 -3.85849e-13
  199 2852.08 0.00000 -4.00830e-14
  200 2852.08 0.00000 -5.91556e-14
  201 2852.08 0.00000 2.15930e-13
  202 2852.08 0.00000 6.27700e-13
  203 2852.08 0.00000 1.36478e-13
  204 2852.08 0.00000 8.02247e-14
  205 2852.08 0.00000 2.84583e-13
  206 2852.08 0.00000 -1.43649e-13
  207 2852.08 0.00000 -6.03357e-15
  208 2852.08 0.00000 -7.77311e-13
  209 2852.08 0.00000 -4.57367e-13
  210 2852.08 0.00000 -1.43234e-14
  211 2852.08 0.00000 3.24560e-29
  212 2852.08 0.00000 6.09216e-13
  213 2852.08 0.00000 -4.03430e-14
  214 2852.08 0.00000 5.98179e-13
  215 2852.08 0.00000 -1.26721e-13
  216 2852.08 0.00000 1.72711e-13
  217 2852.08 0.00000 -5.41756e-13
  218 2852.08 0.00000 -5.42120e-14
  219 2852.08 0.00000 6.22463e-13
  220 2852.08 0.00000 3.43420e-14
  221 2852.08 0.00000 -2.56479e-13
  222 2852.08 0.00000 2.86288e-13
  223 2852.08 0.00000 -2.84707e-13
  224 2852.08 0.00000 1.67251e-13
  225 2852.08 0.00000 -3.06251e-13
  226 2852.08 0.00000 5.14519e-13
  227 2852.08 0.00000 -1.06642e-15
  228 2852.08 0.00000 -2.95422e-14
  229 2852.08 0.00000 5.70193e-14
  230 2852.08 0.00000 -1.88854e-13
  231 2852.08 0.00000 5.47039e-13
  232 2852.08 0.00000 -1.69433e-13
  233 2852.08 0.00000 3.19614e-13
  234 2852.08 0.00000 1.27715e-13
  235 2852.08 0.00000 3.83196e-14
  236 2852.08 0.00000 -2.93136e-13
  237 2852.08 0.00000 4.56663e-13
  238 2852.08 0.00000 2.64730e-13
  239 2852.08 0.00000 1.11202e-13
  240 2852.08 0.00000 2.45874e-13
  241 2852.08 0.00000 1.04368e-13
</Section>

newXOutput 63

<Section columns = "stress_xx | stress_yy | stress_xy">
  1 2898.91 0.00000 -1.62722e-13
  2 2898.91 0.00000 -5.04244e-13
  3 2898.91 0.00000 -4.71391e-13
  4 2898.91 0.00000 -3.32730e-13
  5 2898.91 0.00000 -2.16963e-13
  6 2898.91 0.00000 -2.17726e-28
  7 2898.91 0.00000 -3.53114e-13
  8 2898.91 0.00000 -5.01255e-13
  9 2898.91 0.00000 -1.80546e-13
  10 2898.91 0.00000 -3.10227e-13
  11 2898.91 0.00000 -5.59108e-13
  12 2898.91 0.00000 -1.66982e-14
  13 2898.91 0.00000 9.72608e-14
  14 2898.91 0.00000 4.56370e-13
  15 2898.91 0.00000 4.85726e-13
  16 2898.91 0.00000 2.79791e-13
  17 2898.91 0.00000 1.98489e-13
  18 2898.91 0.00000 -2.10983e-13
  19 2898.91 0.00000 9.00245e-13
  20 2898.91 0.00000 1.29876e-12
  21 2898.91 0.00000 7.18281e-14
  22 2898.91 0.00000 -1.21296e-12
  23 2898.91 0.00000 -1.62794e-12
  24 2898.91 0.00000 -6.73268e-14
  25 2898.91 0.00000 -8.67794e-14
  26 2898.91 0.00000 3.31589e-13
  27 2898.91 0.00000 8.80557e-13
  28 2898.91 0.00000 -6.65179e-13
  29 2898.91 0.00000 4.41468e-14
  30 2898.91 0.00000 -2.70675e-13
  31 2898.91 0.00000 2.53251e-13
  32 2898.91 0.00000 9.57376e-13
  33 2898.91 0.00000 2.63105e-13
  34 2898.91 0.00000 3.88749e-13
  35 2898.91 0.00000 6.76974e-13
  36 2898.91 0.00000 8.31610e-13
  37 2898.91 0.00000 -1.28808e-12
  38 2898.91 0.00000 -7.90664e-13
  39 2898.91 0.00000 6.54067e-14
  40 2898.91 0.00000 1.99482e-13
  41 2898.91 0.00000 9.23346e-13
  42 2898.91 0.00000 4.54222e-14
  43 2898.91 0.00000 1.68722e-13
  44 2898.91 0.00000 4.89812e-13
  45 2898.91 0.00000 3.86387e-13
  46 2898.91 0.00000 3.40297e-13
  47 2898.91 0.00000 3.39158e-13
  48 2898.91 0.00000 1.67157e-13
  49 2898.91 0.00000 -4.99723e-13
  50 2898.91 0.00000 1.15151e-13
  51 2898.91 0.00000 0.00000
  52 2898.91 0.00000 2.23152e-14
  53 2898.91 0.00000 1.44767e-13
  54 2898.91 0.00000 -2.75918e-15
  55 2898.91 0.00000 1.73559e-13
  56 2898.91 0.00000 9.23903e-14
  57 2898.91 0.00000 -1.28925e-13
  58 2898.91 0.00000 -1.46127e-13
  59 2898.91 0.00000 -4.92425e-13
  60 2898.91 0.00000 -5.71017e-13
  61 2898.91 0.00000 2.04988e-13
  62 2898.91 0.00000 9.01214e-15
  63 2898.91 0.00000 4.65928e-13
  64 2898.91 0.00000 4.18458e-13
  65 2898.91 0.00000 2.83383e-14
  66 2898.91 0.00000 1.52493e-13
  67 2898.91 0.00000 3.34787e-13
  68 2898.91 0.00000 -5.76905e-13
  69 2898.91 0.00000 -3.59432e-13
  70 2898.91 0.00000 -3.14694e-13
  71 2898.91 0.00000 1.04572e-13
  72 2898.91 0.00000 5.14989e-13
  73 2898.91 0.00000 -9.03770e-14
  74 2898.91 0.00000 1.50459e-13
  75 2898.91 0.00000 2.74337e-13
  76 2898.91 0.00000 7.35790e-13
  77 2898.91 0.00000 1.17305e-13
  78 2898.91 0.00000 -5.38461e-13
  79 2898.91 0.00000 -4.97270e-13
  80 2898.91 0.00000 -3.02552e-13
  81 2898.91 0.00000 -1.60394e-13
  82 2898.91 0.00000 4.19718e-13
  83 2898.91 0.00000 -1.91986e-13
  84 2898.91 0.00000 -2.43270e-13
  85 2898.91 0.00000 2.50494e-13
  86 2898.91 0.00000 5.88405e-13
  87 2898.91 0.00000 2.51894e-13
  88 2898.91 0.00000 -7.35499e-13
  89 2898.91 0.00000 -1.26510e-13
  90 2898.91 0.00000 -6.01622e-14
  91 2898.91 0.00000 -2.10035e-13
  92 2898.91 0.00000 -1.19289e-14
  93 2898.91 0.00000 3.55058e-13
  94 2898.91 0.00000 -4.38218e-13
  95 2898.91 0.00000 6.99708e-13
  96 2898.91 0.00000 -1.19194e-13
  97 2898.91 0.00000 -1.11917e-13
  98 2898.91 0.00000 5.80823e-14
  99 2898.91 0.00000 -5.84315e-13
  100 2898.91 0.00000 2.86764e-13
  101 2898.91 0.00000 5.65525e-13
  102 2898.91 0.00000 4.83394e-13
  103 2898.91 0.00000 3.31914e-13
  104 2898.91 0.00000 -1.21603e-13
  105 2898.91 0.00000 -5.45201e-13
  106 2898.91 0.00000 -2.63832e-13
  107 2898.91 0.00000 4.59088e-13
  108 2898.91 0.00000 -7.41053e-15
  109 2898.91 0.00000 8.52475e-14
  110 2898.91 0.00000 -7.89356e-13
  111 2898.91 0.00000 -1.76726e-13
  112 2898.91 0.00000 -6.07275e-14
  113 2898.91 0.00000 -1.71258e-13
  114 2898.91 0.00000 5.58697e-13
  115 2898.91 0.00000 -1.25879e-13
  116 2898.91 0.00000 -2.37156e-13
  117 2898.91 0.00000 2.36971e-13
  118 2898.91 0.00000 -5.64957e-14
  119 2898.91 0.00000 -9.45036e-14
  120 2898.91 0.00000 -2.58818e-13
  121 2898.91 0.00000 8.39780e-14
  122 2898.91 0.00000 -5.74165e-13
  123 2898.91 0.00000 -1.56076e-15
  124 2898.91 0.00000 -1.41905e-13
  125 2898.91 0.00000 2.02884e-13
  126 2898.91 0.00000 -3.58181e-13
  127 2898.91 0.00000 -2.86291e-13
  128 2898.91 0.00000 3.99124e-13
  129 2898.91 0.00000 2.56689e-13
  130 2898.91 0.00000 -6.85035e-13
  131 2898.91 0.00000 1.89511e-13
  132 2898.91 0.00000 -2.16907e-13
  133 2898.91 0.00000 6.72139e-14
  134 2898.91 0.00000 1.30471e-13
  135 2898.91 0.00000 -1.56454e-13
  136 2898.91 0.00000 2.62284e-13
  137 2898.91 0.00000 2.03195e-13
  138 2898.91 0.00000 -2.52493e-13
  139 2898.91 0.00000 1.81318e-13
  140 2898.91 0.00000 8.90254e-14
  141 2898.91 0.00000 -5.22665e-13
  142 2898.91 0.00000 -2.70449e-13
  143 2898.91 0.00000 -3.06866e-13
  144 2898.91 0.00000 1.17955e-14
  145 2898.91 0.00000 -6.40574e-13
  146 2898.91 0.00000 2.02263e-13
  147 2898.91 0.00000 -4.58821e-13
  148 2898.91 0.00000 2.85234e-14
  149 2898.91 0.00000 6.70950e-13
  150 2898.91 0.00000 -2.22318e-13
  151 2898.91 0.00000 5.75925e-13
  152 2898.91 0.00000 7.55454e-13
  153 2898.91 0.00000 -2.12185e-13
  154 2898.91 0.00000 -3.25428e-13
  155 2898.91 0.00000 -2.48602e-13
  156 2898.91 0.00000 7.41445e-13
  157 2898.91 0.00000 7.80502e-14
  158 2898.91 0.00000 -5.65955e-13
  159 2898.91 0.00000 1.91774e-13
  160 2898.91 0.00000 1.86625e-13
  161 2898.91 0.00000 7.44546e-13
  162 2898.91 0.00000 -3.25842e-13
  163 2898.91 0.00000 -3.65871e-13
  164 2898.91 0.00000 -4.35125e-13
  165 2898.91 0.00000 5.61012e-14
  166 2898.91 0.00000 9.68089e-14
  167 2898.91 0.00000 2.90902e-13
  168 2898.91 0.00000 -8.08450e-13
  169 2898.91 0.00000 1.36958e-13
  170 2898.91 0.00000 8.40678e-13
  171 2898.91 0.00000 9.12954e-16
  172 2898.91 0.00000 -6.26620e-13
  173 2898.91 0.00000 8.56801e-14
  174 2898.91 0.00000 3.31607e-14
  175 2898.91 0.00000 -3.19842e-14
  176 2898.91 0.00000 -1.17149e-13
  177 2898.91 0.00000 -4.04218e-13
  178 2898.91 0.00000 -4.16175e-13
  179 2898.91 0.00000 -4.45889e-13
  180 2898.91 0.00000 2.01678e-13
  181 2898.91 0.00000 2.18732e-14
  182 2898.91 0.00000 -4.08939e-13
  183 2898.91 0.00000 1.45361e-13
  184 2898.91 0.00000 -1.05947e-13
  185 2898.91 0.00000 1.26683e-13
  186 2898.91 0.00000 -3.33511e-13
  187 2898.91 0.00000 3.26298e-13
  188 2898.91 0.00000 -5.02032e-13
  189 2898.91 0.00000 1.98252e-13
  190 2898.91 0.00000 2.80226e-14
  191 2898.91 0.00000 1.66897e-13
  192 2898.91 0.00000 2.43564e-13
  193 2898.91 0.00000 1.49757e-13
  194 2898.91 0.00000 5.59226e-13
  195 2898.91 0.00000 -1.39003e-14
  196 2898.91 0.00000 -8.39949e-13
  197 2898.91 0.00000 2.11327e-14
  198 2898.91 0.00000 -4.01373e-13
  199 2898.91 0.00000 7.35780e-15
  200 2898.91 0.00000 -5.59545e-13
  201 2898.91 0.00000 1.46654e-13
  202 2898.91 0.00000 7.93016e-14
  203 2898.91 0.00000 1.32419e-13
  204 2898.91 0.00000 2.79091e-13
  205 2898.91 0.00000 2.44396e-13
  206 2898.91 0.00000 3.38609e-13
  207 2898.91 0.00000 4.32346e-13
  208 2898.91 0.00000 -2.89518e-13
  209 2898.91 0.00000 1.25195e-13
  210 2898.91 0.00000 -6.54855e-14
  211 2898.91 0.00000 -2.36623e-13
  212 2898.91 0.00000 -2.95956e-13
  213 2898.91 0.00000 -4.52756e-15
  214 2898.91 0.00000 2.92296e-13
  215 2898.91 0.00000 4.60782e-14
  216 2898.91 0.00000 1.70427e-13
  217 2898.91 0.00000 -1.54034e-14
  218 2898.91 0.00000 -1.92686e-13
  219 2898.91 0.00000 -4.71292e-14
  220 2898.91 0.00000 3.25816e-13
  221 2898.91 0.00000 -2.86593e-13
  222 2898.91 0.00000 7.33221e-14
  223 2898.91 0.00000 -2.97840e-13
  224 2898.91 0.00000 -2.19799e-13
  225 2898.91 0.00000 -1.03493e-12
  226 2898.91 0.00000 4.42219e-13
  227 2898.91 0.00000 -1.38056e-13
  228 2898.91 0.00000 4.44840e-13
  229 2898.91 0.00000 1.31605e-13
  230 2898.91 0.00000 1.00767e-12
  231 2898.91 0.00000 1.38847e-13
  232 2898.91 0.00000 6.61019e-14
  233 2898.91 0.00000 1.16334e-12
  234 2898.91 0.00000 3.73581e-13
  235 2898.91 0.00000 7.57912e-14
  236 2898.91 0.00000 -2.10439e-13
  237 2898.91 0.00000 -1.45082e-13
  238 2898.91 0.00000 -3.44183e-13
  239 2898.91 0.00000 2.46062e-13
  240 2898.91 0.00000 2.24899e-13
  241 2898.91 0.00000 -1.90823e-14
</Section>

newXOutput 64

<Section columns = "stress_xx | stress_yy | stress_xy">
  1 2945.77 0.00000 -1.44407e-13
  2 2945.77 0.00000 3.44520e-13
  3 2945.77 0.00000 5.69251e-13
  4 2945.77 0.00000 -1.18701e-13
  5 2945.77 0.00000 1.85686e-14
  6 2945.77 0.00000 4.61074e-13
  7 2945.77 0.00000 1.44407e-13
  8 2945.77 0.00000 -2.45906e-13
  9 2945.77 0.00000 -6.55331e-14
  10 2945.77 0.00000 1.80373e-13
  11 2945.77 0.00000 -2.41850e-13
  12 2945.77 0.00000 -1.98942e-13
  13 2945.77 0.00000 -1.11942e-13
  14 2945.77 0.00000 -1.88486e-13
  15 2945.77 0.00000 -3.01591e-14
  16 2945.77 0.00000 1.41802e-12
  17 2945.77 0.00000 -1.40540e-13
  18 2945.77 0.00000 -2.14186e-13
  19 2945.77 0.00000 -3.19552e-13
  20 2945.77 0.00000 6.55331e-13
  21 2945.77 0.00000 2.05037e-12
  22 2945.77 0.00000 6.96525e-13
  23 2945.77 0.00000 -1.47292e-13
  24 2945.77 0.00000 4.91812e-13
  25 2945.77 0.00000 -8.61300e-14
  26 2945.77 0.00000 -4.46833e-13
  27 2945.77 0.00000 -2.29680e-13
  28 2945.77 0.00000 7.24125e-13
  29 2945.77 0.00000 -2.17487e-14
  30 2945.77 0.00000 -1.30075e-13
  31 2945.77 0.00000 1.77344e-12
  32 2945.77 0.00000 2.08947e-12
  33 2945.77 0.00000 5.18621e-13
  34 2945.77 0.00000 5.81666e-13
  35 2945.77 0.00000 3.15840e-13
  36 2945.77 0.00000 -3.53056e-13
  37 2945.77 0.00000 -8.19132e-13
  38 2945.77 0.00000 6.72320e-14
  39 2945.77 0.00000 2.07788e-14
  40 2945.77 0.00000 -1.89575e-13
  41 2945.77 0.00000 -1.27910e-13
  42 2945.77 0.00000 -3.36781e-13
  43 2945.77 0.00000 -1.86092e-13
  44 2945.77 0.00000 8.69802e-14
  45 2945.77 0.00000 -9.87428e-14
  46 2945.77 0.00000 -1.38231e-13
  47 2945.77 0.00000 1.78114e-13
  48 2945.77 0.00000 1.12471e-13
  49 2945.77 0.00000 -1.13102e-13
  50 2945.77 0.00000 1.94257e-14
  51 2945.77 0.00000 1.08744e-14
  52 2945.77 0.00000 1.98464e-15
  53 2945.77 0.00000 1.39192e-13
  54 2945.77 0.00000 -1.44083e-13
  55 2945.77 0.00000 1.72260e-13
  56 2945.77 0.00000 1.61379e-13
  57 2945.77 0.00000 1.37759e-14
  58 2945.77 0.00000 -4.66060e-13
  59 2945.77 0.00000 5.40543e-14
  60 2945.77 0.00000 4.25203e-14
  61 2945.77 0.00000 3.19302e-15
  62 2945.77 0.00000 1.31185e-14
  63 2945.77 0.00000 -2.75836e-13
  64 2945.77 0.00000 -6.76059e-13
  65 2945.77 0.00000 -3.30235e-14
  66 2945.77 0.00000 1.35551e-14
  67 2945.77 0.00000 -2.64757e-14
  68 2945.77 0.00000 1.65704e-13
  69 2945.77 0.00000 -4.01129e-13
  70 2945.77 0.00000 3.03938e-13
  71 2945.77 0.00000 1.22900e-13
  72 2945.77 0.00000 -1.63628e-13
  73 2945.77 0.00000 3.03272e-13
  74 2945.77 0.00000 -1.58690e-13
  75 2945.77 0.00000 1.28162e-13
  76 2945.77 0.00000 -1.09239e-13
  77 2945.77 0.00000 -9.47244e-16
  78 2945.77 0.00000 3.93902e-13
  79 2945.77 0.00000 5.99774e-14
  80 2945.77 0.00000 4.03438e-13
  81 2945.77 0.00000 5.08353e-13
  82 2945.77 0.00000 3.12767e-13
  83 2945.77 0.00000 -3.84875e-15
  84 2945.77 0.00000 3.00133e-13
  85 2945.77 0.00000 -8.00322e-14
  86 2945.77 0.00000 1.96900e-13
  87 2945.77 0.00000 -8.71284e-14
  88 2945.77 0.00000 -1.29668e-12
  89 2945.77 0.00000 1.14199e-13
  90 2945.77 0.00000 4.29144e-14
  91 2945.77 0.00000 -6.74518e-13
  92 2945.77 0.00000 7.15989e-14
  93 2945.77 0.00000 5.73640e-13
  94 2945.77 0.00000 4.53223e-13
  95 2945.77 0.00000 -4.31908e-14
  96 2945.77 0.00000 1.74030e-13
  97 2945.77 0.00000 -1.73422e-13
  98 2945.77 0.00000 -4.79802e-13
  99 2945.77 0.00000 4.35341e-13
  100 2945.77 0.00000 -1.22898e-13
  101 2945.77 0.00000 -1.34514e-13
  102 2945.77 0.00000 4.70224e-14
  103 2945.77 0.00000 -6.57052e-13
  104 2945.77 0.00000 3.82081e-13
  105 2945.77 0.00000 -4.87082e-13
  106 2945.77 0.00000 1.57532e-13
  107 2945.77 0.00000 -1.90010e-13
  108 2945.77 0.00000 -6.74046e-14
  109 2945.77 0.00000 -3.23015e-13
  110 2945.77 0.00000 6.92392e-13
  111 2945.77 0.00000 -1.15310e-13
  112 2945.77 0.00000 5.40398e-13
  113 2945.77 0.00000 2.33165e-13
  114 2945.77 0.00000 -5.40069e-13
  115 2945.77 0.00000 7.88576e-14
  116 2945.77 0.00000 1.49978e-13
  117 2945.77 0.00000 -6.58798e-13
  118 2945.77 0.00000 1.51642e-13
  119 2945.77 0.00000 -1.94317e-13
  120 2945.77 0.00000 2.41810e-13
  121 2945.77 0.00000 1.11190e-13
  122 2945.77 0.00000 3.72521e-13
  123 2945.77 0.00000 -3.64307e-13
  124 2945.77 0.00000 -3.14760e-14
  125 2945.77 0.00000 -1.68649e-14
  126 2945.77 0.00000 2.08681e-13
  127 2945.77 0.00000 3.44395e-14
  128 2945.77 0.00000 2.75624e-13
  129 2945.77 0.00000 -4.20700e-13
  130 2945.77 0.00000 4.51653e-13
  131 2945.77 0.00000 -2.23450e-13
  132 2945.77 0.00000 -4.02375e-13
  133 2945.77 0.00000 -6.99224e-14
  134 2945.77 0.00000 -4.51569e-14
  135 2945.77 0.00000 9.35058e-13
  136 2945.77 0.00000 -8.62238e-14
  137 2945.77 0.00000 -3.62251e-13
  138 2945.77 0.00000 -2.19771e-13
  139 2945.77 0.00000 -1.88721e-13
  140 2945.77 0.00000 -1.15500e-13
  141 2945.77 0.00000 4.03953e-14
  142 2945.77 0.00000 2.20389e-13
  143 2945.77 0.00000 1.95865e-13
  144 2945.77 0.00000 7.51005e-13
  145 2945.77 0.00000 -1.92248e-13
  146 2945.77 0.00000 -2.51861e-13
  147 2945.77 0.00000 -3.02344e-13
  148 2945.77 0.00000 2.15883e-16
  149 2945.77 0.00000 4.70267e-13
  150 2945.77 0.00000 6.91350e-14
  151 2945.77 0.00000 5.42860e-14
  152 2945.77 0.00000 -6.70320e-13
  153 2945.77 0.00000 3.06002e-13
  154 2945.77 0.00000 5.56861e-13
  155 2945.77 0.00000 4.93054e-14
  156 2945.77 0.00000 -1.64936e-13
  157 2945.77 0.00000 -1.07501e-13
  158 2945.77 0.00000 -5.63852e-13
  159 2945.77 0.00000 1.32201e-13
  160 2945.77 0.00000 1.56676e-13
  161 2945.77 0.00000 -1.67910e-13
  162 2945.77 0.00000 3.01506e-13
  163 2945.77 0.00000 -2.88415e-13
  164 2945.77 0.00000 -2.12434e-14
  165 2945.77 0.00000 6.46170e-14
  166 2945.77 0.00000 -7.95024e-16
  167 2945.77 0.00000 -8.09198e-14
  168 2945.77 0.00000 -5.89289e-13
  169 2945.77 0.00000 -4.76609e-14
  170 2945.77 0.00000 -1.16704e-13
  171 2945.77 0.00000 -1.52710e-13
  172 2945.77 0.00000 -1.28554e-13
  173 2945.77 0.00000 -3.77572e-13
  174 2945.77 0.00000 3.57854e-13
  175 2945.77 0.00000 -7.32990e-14
  176 2945.77 0.00000 1.01715e-13
  177 2945.77 0.00000 9.17292e-15
  178 2945.77 0.00000 2.52212e-13
  179 2945.77 0.00000 4.17538e-14
  180 2945.77 0.00000 -2.31948e-13
  181 2945.77 0.00000 -9.23454e-14
  182 2945.77 0.00000 -4.03967e-13
  183 2945.77 0.00000 -2.75601e-13
  184 2945.77 0.00000 5.85307e-13
  185 2945.77 0.00000 1.57316e-13
  186 2945.77 0.00000 -4.71626e-13
  187 2945.77 0.00000 6.60981e-13
  188 2945.77 0.00000 -2.85403e-13
  189 2945.77 0.00000 5.42849e-14
  190 2945.77 0.00000 -3.52601e-13
  191 2945.77 0.00000 2.05666e-13
  192 2945.77 0.00000 -3.11780e-13
  193 2945.77 0.00000 1.58227e-13
  194 2945.77 0.00000 -3.10471e-13
  195 2945.77 0.00000 -1.13965e-13
  196 2945.77 0.00000 -8.41866e-13
  197 2945.77 0.00000 -9.01833e-14
  198 2945.77 0.00000 8.46958e-13
  199 2945.77 0.00000 1.96174e-13
  200 2945.77 0.00000 -2.58946e-13
  201 2945.77 0.00000 3.67932e-13
  202 2945.77 0.00000 5.64360e-14
  203 2945.77 0.00000 7.48174e-14
  204 2945.77 0.00000 4.53609e-13
  205 2945.77 0.00000 -1.20922e-13
  206 2945.77 0.00000 3.45179e-13
  207 2945.77 0.00000 8.04874e-14
  208 2945.77 0.00000 -5.68061e-14
  209 2945.77 0.00000 4.04714e-13
  210 2945.77 0.00000 -2.44135e-13
  211 2945.77 0.00000 1.48807e-13
  212 2945.77 0.00000 2.56568e-13
  213 2945.77 0.00000 -4.30248e-14
  214 2945.77 0.00000 2.62027e-14
  215 2945.77 0.00000 -1.41762e-13
  216 2945.77 0.00000 -4.02247e-13
  217 2945.77 0.00000 6.81411e-13
  218 2945.77 0.00000 -2.80506e-13
  219 2945.77 0.00000 -1.55434e-13
  220 2945.77 0.00000 -2.12270e-13
  221 2945.77 0.00000 6.53898e-13
  222 2945.77 0.00000 1.29522e-13
  223 2945.77 0.00000 8.73469e-14
  224 2945.77 0.00000 2.57385e-13
  225 2945.77 0.00000 8.77505e-13
  226 2945.77 0.00000 -1.43783e-13
  227 2945.77 0.00000 5.74337e-13
  228 2945.77 0.00000 4.25452e-13
  229 2945.77 0.00000 -1.71744e-13
  230 2945.77 0.00000 4.26410e-13
  231 2945.77 0.00000 2.07968e-13
  232 2945.77 0.00000 1.17184e-13
  233 2945.77 0.00000 1.42079e-13
  234 2945.77 0.00000 -1.77760e-13
  235 2945.77 0.00000 -5.21709e-13
  236 2945.77 0.00000 2.73958e-13
  237 2945.77 0.00000 1.90052e-13
  238 2945.77 0.00000 8.24475e-14
  239 2945.77 0.00000 3.27548e-13
  240 2945.77 0.00000 -1.41647e-13
  241 2945.77 0.00000 4.63102e-13
</Section>

newXOutput 65

<Section columns = "stress_xx | stress_yy | stress_xy">
  1 2992.65 0.00000 -1.38636e-14
  2 2992.65 0.00000 -8.10560e-13
  3 2992.65 0.00000 -1.02437e-13
  4 2992.65 0.00000 -6.90978e-14
  5 2992.65 0.00000 -8.97978e-14
  6 2992.65 0.00000 2.77234e-13
  7 2992.65 0.00000 3.17140e-14
  8 2992.65 0.00000 5.23652e-14
  9 2992.65 0.00000 1.70728e-13
  10 2992.65 0.00000 -5.02566e-13
  11 2992.65 0.00000 -3.69646e-13
  12 2992.65 0.00000 3.69646e-13
  13 2992.65 0.00000 8.81548e-13
  14 2992.65 0.00000 1.23215e-12
  15 2992.65 0.00000 5.77571e-13
  16 2992.65 0.00000 8.24237e-13
  17 2992.65 0.00000 3.42382e-13
  18 2992.65 0.00000 4.79756e-14
  19 2992.65 0.00000 -4.45348e-13
  20 2992.65 0.00000 3.59940e-13
  21 2992.65 0.00000 -4.75125e-14
  22 2992.65 0.00000 -1.42538e-13
  23 2992.65 0.00000 -1.08953e-12
  24 2992.65 0.00000 -6.64603e-14
  25 2992.65 0.00000 3.13497e-13
  26 2992.65 0.00000 -8.02504e-14
  27 2992.65 0.00000 4.96600e-13
  28 2992.65 0.00000 -3.63289e-14
  29 2992.65 0.00000 -9.26923e-14
  30 2992.65 0.00000 -2.88124e-13
  31 2992.65 0.00000 4.63362e-14
  32 2992.65 0.00000 1.36032e-12
  33 2992.65 0.00000 9.85395e-14
  34 2992.65 0.00000 8.17420e-13
  35 2992.65 0.00000 4.17029e-14
  36 2992.65 0.00000 -3.14469e-13
  37 2992.65 0.00000 -7.35704e-13
  38 2992.65 0.00000 -5.40577e-13
  39 2992.65 0.00000 6.79191e-13
  40 2992.65 0.00000 1.42429e-14
  41 2992.65 0.00000 8.06693e-13
  42 2992.65 0.00000 4.20870e-13
  43 2992.65 0.00000 -3.08363e-13
  44 2992.65 0.00000 -1.75320e-13
  45 2992.65 0.00000 -1.09417e-13
  46 2992.65 0.00000 1.29572e-13
  47 2992.65 0.00000 7.10554e-14
  48 2992.65 0.00000 9.37421e-14
  49 2992.65 0.00000 -1.25087e-13
  50 2992.65 0.00000 1.30002e-14
  51 2992.65 0.00000 2.14235e-14
  52 2992.65 0.00000 1.77470e-14
  53 2992.65 0.00000 5.20401e-14
  54 2992.65 0.00000 -6.29911e-14
  55 2992.65 0.00000 0.00000
  56 2992.65 0.00000 1.17356e-13
  57 2992.65 0.00000 1.54766e-13
  58 2992.65 0.00000 -6.26995e-13
  59 2992.65 0.00000 1.13653e-13
  60 2992.65 0.00000 2.42682e-13
  61 2992.65 0.00000 -1.89163e-13
  62 2992.65 0.00000 -2.66925e-13
  63 2992.65 0.00000 -6.81518e-13
  64 2992.65 0.00000 8.50606e-13
  65 2992.65 0.00000 -1.19306e-13
  66 2992.65 0.00000 2.49489e-14
  67 2992.65 0.00000 9.37001e-13
  68 2992.65 0.00000 -9.53858e-13
  69 2992.65 0.00000 2.97991e-13
  70 2992.65 0.00000 5.16313e-14
  71 2992.65 0.00000 -2.46184e-13
  72 2992.65 0.00000 -6.19194e-13
  73 2992.65 0.00000 1.34772e-13
  74 2992.65 0.00000 -1.57055e-13
  75 2992.65 0.00000 1.61384e-13
  76 2992.65 0.00000 -7.96921e-14
  77 2992.65 0.00000 -2.44786e-14
  78 2992.65 0.00000 -1.92930e-13
  79 2992.65 0.00000 -2.92397e-13
  80 2992.65 0.00000 2.40153e-13
  81 2992.65 0.00000 -1.15295e-13
  82 2992.65 0.00000 5.82136e-13
  83 2992.65 0.00000 -1.66049e-13
  84 2992.65 0.00000 7.81538e-14
  85 2992.65 0.00000 2.65566e-13
  86 2992.65 0.00000 2.11237e-13
  87 2992.65 0.00000 -4.57725e-14
  88 2992.65 0.00000 -6.45189e-13
  89 2992.65 0.00000 -2.54835e-14
  90 2992.65 0.00000 1.32129e-13
  91 2992.65 0.00000 1.35341e-13
  92 2992.65 0.00000 -1.95773e-13
  93 2992.65 0.00000 -6.52006e-13
  94 2992.65 0.00000 6.60912e-13
  95 2992.65 0.00000 3.82879e-13
  96 2992.65 0.00000 -5.47915e-13
  97 2992.65 0.00000 2.21510e-13
  98 2992.65 0.00000 -1.31264e-14
  99 2992.65 0.00000 -7.05558e-13
  100 2992.65 0.00000 2.64493e-13
  101 2992.65 0.00000 -3.22296e-13
  102 2992.65 0.00000 3.02042e-13
  103 2992.65 0.00000 4.81192e-13
  104 2992.65 0.00000 -3.14199e-13
  105 2992.65 0.00000 5.33236e-13
  106 2992.65 0.00000 -4.46818e-13
  107 2992.65 0.00000 -1.26870e-13
  108 2992.65 0.00000 -2.49694e-14
  109 2992.65 0.00000 -1.46388e-13
  110 2992.65 0.00000 3.74913e-13
  111 2992.65 0.00000 5.13334e-15
  112 2992.65 0.00000 -2.91452e-13
  113 2992.65 0.00000 3.28947e-13
  114 2992.65 0.00000 4.87383e-13
  115 2992.65 0.00000 -3.60379e-13
  116 2992.65 0.00000 4.54216e-14
  117 2992.65 0.00000 -1.98602e-13
  118 2992.65 0.00000 -3.74433e-13
  119 2992.65 0.00000 -8.35386e-14
  120 2992.65 0.00000 -7.54604e-14
  121 2992.65 0.00000 -1.48477e-13
  122 2992.65 0.00000 -3.97038e-13
  123 2992.65 0.00000 6.84878e-13
  124 2992.65 0.00000 1.06027e-15
  125 2992.65 0.00000 -2.31241e-13
  126 2992.65 0.00000 1.03726e-13
  127 2992.65 0.00000 -2.15817e-13
  128 2992.65 0.00000 5.31436e-13
  129 2992.65 0.00000 5.41055e-14
  130 2992.65 0.00000 -3.39123e-13
  131 2992.65 0.00000 9.72595e-14
  132 2992.65 0.00000 5.95316e-13
  133 2992.65 0.00000 -8.88147e-14
  134 2992.65 0.00000 -9.75305e-14
  135 2992.65 0.00000 -1.05972e-13
  136 2992.65 0.00000 -4.85774e-14
  137 2992.65 0.00000 2.06381e-13
  138 2992.65 0.00000 -1.69352e-13
  139 2992.65 0.00000 -1.96404e-13
  140 2992.65 0.00000 1.63720e-13
  141 2992.65 0.00000 -5.01625e-13
  142 2992.65 0.00000 -2.96596e-14
  143 2992.65 0.00000 -2.99856e-13
  144 2992.65 0.00000 -1.06138e-13
  145 2992.65 0.00000 -2.03619e-13
  146 2992.65 0.00000 -5.39203e-14
  147 2992.65 0.00000 4.68313e-15
  148 2992.65 0.00000 8.27307e-15
  149 2992.65 0.00000 7.59646e-13
  150 2992.65 0.00000 -4.16214e-13
  151 2992.65 0.00000 -8.12809e-14
  152 2992.65 0.00000 9.37415e-13
  153 2992.65 0.00000 -3.20348e-13
  154 2992.65 0.00000 6.52283e-13
  155 2992.65 0.00000 4.51167e-13
  156 2992.65 0.00000 -5.70790e-13
  157 2992.65 0.00000 -6.78163e-15
  158 2992.65 0.00000 -3.13750e-13
  159 2992.65 0.00000 -5.58311e-13
  160 2992.65 0.00000 4.88395e-14
  161 2992.65 0.00000 3.82275e-13
  162 2992.65 0.00000 -6.56814e-14
  163 2992.65 0.00000 -1.72282e-13
  164 2992.65 0.00000 -3.69545e-14
  165 2992.65 0.00000 -1.36856e-14
  166 2992.65 0.00000 3.01199e-15
  167 2992.65 0.00000 6.83513e-13
  168 2992.65 0.00000 -2.85393e-13
  169 2992.65 0.00000 -8.58803e-14
  170 2992.65 0.00000 2.69453e-13
  171 2992.65 0.00000 -1.32775e-13
  172 2992.65 0.00000 1.56445e-13
  173 2992.65 0.00000 -8.06796e-14
  174 2992.65 0.00000 -4.57204e-13
  175 2992.65 0.00000 -8.80045e-14
  176 2992.65 0.00000 1.36856e-14
  177 2992.65 0.00000 -3.62296e-13
  178 2992.65 0.00000 -3.65209e-14
  179 2992.65 0.00000 6.39039e-14
  180 2992.65 0.00000 -1.21829e-14
  181 2992.65 0.00000 4.23155e-13
  182 2992.65 0.00000 -1.71821e-13
  183 2992.65 0.00000 2.40434e-13
  184 2992.65 0.00000 1.31222e-13
  185 2992.65 0.00000 5.74083e-14
  186 2992.65 0.00000 3.71214e-13
  187 2992.65 0.00000 4.35775e-13
  188 2992.65 0.00000 6.07139e-14
  189 2992.65 0.00000 -6.52313e-13
  190 2992.65 0.00000 -1.07258e-13
  191 2992.65 0.00000 1.43681e-13
  192 2992.65 0.00000 2.65716e-13
  193 2992.65 0.00000 2.85440e-13
  194 2992.65 0.00000 7.77699e-13
  195 2992.65 0.00000 3.41285e-14
  196 2992.65 0.00000 3.31876e-13
  197 2992.65 0.00000 -7.22947e-14
  198 2992.65 0.00000 -1.16074e-13
  199 2992.65 0.00000 -1.26132e-13
  200 2992.65 0.00000 -4.55307e-14
  201 2992.65 0.00000 2.72036e-13
  202 2992.65 0.00000 -7.39822e-14
  203 2992.65 0.00000 -5.91813e-14
  204 2992.65 0.00000 -1.13978e-12
  205 2992.65 0.00000 2.22605e-13
  206 2992.65 0.00000 3.81014e-13
  207 2992.65 0.00000 1.46754e-13
  208 2992.65 0.00000 -3.06505e-13
  209 2992.65 0.00000 2.44004e-13
  210 2992.65 0.00000 2.26300e-14
  211 2992.65 0.00000 6.31673e-14
  212 2992.65 0.00000 -5.54415e-13
  213 2992.65 0.00000 -6.00198e-14
  214 2992.65 0.00000 3.11414e-13
  215 2992.65 0.00000 -8.51335e-13
  216 2992.65 0.00000 -2.29602e-13
  217 2992.65 0.00000 3.46393e-13
  218 2992.65 0.00000 -2.58128e-14
  219 2992.65 0.00000 -1.73342e-13
  220 2992.65 0.00000 1.31381e-14
  221 2992.65 0.00000 2.25184e-14
  222 2992.65 0.00000 -2.26314e-13
  223 2992.65 0.00000 -3.16326e-13
  224 2992.65 0.00000 -2.71344e-14
  225 2992.65 0.00000 8.79964e-13
  226 2992.65 0.00000 1.09326e-13
  227 2992.65 0.00000 -1.03740e-12
  228 2992.65 0.00000 2.25719e-14
  229 2992.65 0.00000 -1.51520e-13
  230 2992.65 0.00000 8.17283e-13
  231 2992.65 0.00000 -3.72392e-13
  232 2992.65 0.00000 -1.00533e-13
  233 2992.65 0.00000 -8.47551e-13
  234 2992.65 0.00000 1.67554e-13
  235 2992.65 0.00000 5.78419e-14
  236 2992.65 0.00000 1.34736e-13
  237 2992.65 0.00000 -6.67949e-13
  238 2992.65 0.00000 -3.33830e-13
  239 2992.65 0.00000 -2.28858e-13
  240 2992.65 0.00000 6.25605e-14
  241 2992.65 0.00000 3.19800e-13
</Section>

newXOutput 66

<Section columns = "stress_xx | stress_yy | stress_xy">
  1 3039.56 0.00000 -2.37954e-13
  2 3039.56 0.00000 -9.90392e-14
  3 3039.56 0.00000 -1.83769e-13
  4 3039.56 0.00000 -1.27753e-13
  5 3039.56 0.00000 -3.85060e-14
  6 3039.56 0.00000 2.99822e-13
  7 3039.56 0.00000 1.26056e-13
  8 3039.56 0.00000 2.46960e-13
  9 3039.56 0.00000 -2.46960e-13
  10 3039.56 0.00000 -6.19203e-13
  11 3039.56 0.00000 -4.38269e-13
  12 3039.56 0.00000 -7.98334e-13
  13 3039.56 0.00000 -1.11267e-12
  14 3039.56 0.00000 -5.59946e-13
  15 3039.56 0.00000 9.64387e-15
  16 3039.56 0.00000 1.32052e-13
  17 3039.56 0.00000 3.58261e-13
  18 3039.56 0.00000 7.86155e-13
  19 3039.56 0.00000 -2.46960e-13
  20 3039.56 0.00000 -9.23535e-14
  21 3039.56 0.00000 1.82737e-13
  22 3039.56 0.00000 2.22436e-13
  23 3039.56 0.00000 -2.92235e-13
  24 3039.56 0.00000 -6.54103e-13
  25 3039.56 0.00000 -1.69657e-13
  26 3039.56 0.00000 2.22906e-13
  27 3039.56 0.00000 -6.60261e-14
  28 3039.56 0.00000 6.69556e-14
  29 3039.56 0.00000 2.10979e-14
  30 3039.56 0.00000 -4.04159e-13
  31 3039.56 0.00000 -4.03777e-13
  32 3039.56 0.00000 -1.03976e-12
  33 3039.56 0.00000 -1.53903e-12
  34 3039.56 0.00000 -9.24773e-13
  35 3039.56 0.00000 -7.41906e-13
  36 3039.56 0.00000 -1.40084e-12
  37 3039.56 0.00000 -5.86748e-13
  38 3039.56 0.00000 1.96777e-13
  39 3039.56 0.00000 1.72631e-13
  40 3039.56 0.00000 -4.88298e-14
  41 3039.56 0.00000 6.09183e-13
  42 3039.56 0.00000 4.30515e-14
  43 3039.56 0.00000 1.58707e-13
  44 3039.56 0.00000 3.31511e-13
  45 3039.56 0.00000 -4.64590e-13
  46 3039.56 0.00000 -1.85299e-13
  47 3039.56 0.00000 -1.16930e-13
  48 3039.56 0.00000 1.33650e-13
  49 3039.56 0.00000 -7.71156e-14
  50 3039.56 0.00000 6.31132e-14
  51 3039.56 0.00000 4.21958e-14
  52 3039.56 0.00000 -8.32211e-14
  53 3039.56 0.00000 -4.64750e-14
  54 3039.56 0.00000 1.30103e-16
  55 3039.56 0.00000 2.40274e-13
  56 3039.56 0.00000 9.82694e-14
  57 3039.56 0.00000 2.49188e-13
  58 3039.56 0.00000 3.81585e-13
  59 3039.56 0.00000 -3.94142e-13
  60 3039.56 0.00000 -1.14281e-12
  61 3039.56 0.00000 -5.10627e-15
  62 3039.56 0.00000 -1.18809e-13
  63 3039.56 0.00000 7.70051e-13
  64 3039.56 0.00000 -2.39157e-13
  65 3039.56 0.00000 -8.62197e-14
  66 3039.56 0.00000 -1.49203e-13
  67 3039.56 0.00000 -4.06266e-14
  68 3039.56 0.00000 1.84145e-13
  69 3039.56 0.00000 -4.46511e-13
  70 3039.56 0.00000 -2.00212e-13
  71 3039.56 0.00000 -2.90544e-13
  72 3039.56 0.00000 2.16649e-13
  73 3039.56 0.00000 4.29899e-13
  74 3039.56 0.00000 1.87644e-13
  75 3039.56 0.00000 -3.41831e-13
  76 3039.56 0.00000 7.04482e-13
  77 3039.56 0.00000 -1.51775e-14
  78 3039.56 0.00000 6.47300e-14
  79 3039.56 0.00000 -2.46005e-13
  80 3039.56 0.00000 -2.92963e-13
  81 3039.56 0.00000 4.38398e-13
  82 3039.56 0.00000 8.97823e-13
  83 3039.56 0.00000 3.01795e-13
  84 3039.56 0.00000 -1.54350e-14
  85 3039.56 0.00000 3.46603e-13
  86 3039.56 0.00000 -7.00141e-14
  87 3039.56 0.00000 6.08603e-14
  88 3039.56 0.00000 -1.43822e-12
  89 3039.56 0.00000 7.91294e-14
  90 3039.56 0.00000 7.86372e-13
  91 3039.56 0.00000 -4.47924e-13
  92 3039.56 0.00000 1.90778e-13
  93 3039.56 0.00000 1.45962e-13
  94 3039.56 0.00000 -4.05374e-13
  95 3039.56 0.00000 -8.37644e-13
  96 3039.56 0.00000 -2.06349e-13
  97 3039.56 0.00000 -1.90006e-13
  98 3039.56 0.00000 1.07775e-13
  99 3039.56 0.00000 -3.88663e-13
  100 3039.56 0.00000 -2.86989e-13
  101 3039.56 0.00000 6.32363e-13
  102 3039.56 0.00000 -6.30771e-14
  103 3039.56 0.00000 3.80812e-13
  104 3039.56 0.00000 3.43941e-13
  105 3039.56 0.00000 -6.90151e-13
  106 3039.56 0.00000 1.74758e-13
  107 3039.56 0.00000 1.15998e-12
  108 3039.56 0.00000 -2.36457e-13
  109 3039.56 0.00000 -8.96741e-14
  110 3039.56 0.00000 -1.62474e-13
  111 3039.56 0.00000 -1.13609e-12
  112 3039.56 0.00000 5.63633e-14
  113 3039.56 0.00000 -8.25992e-14
  114 3039.56 0.00000 -7.55073e-14
  115 3039.56 0.00000 -5.78934e-14
  116 3039.56 0.00000 -7.71509e-15
  117 3039.56 0.00000 -3.41117e-13
  118 3039.56 0.00000 1.31502e-13
  119 3039.56 0.00000 2.90639e-14
  120 3039.56 0.00000 5.78387e-14
  121 3039.56 0.00000 1.55893e-13
  122 3039.56 0.00000 -5.74915e-13
  123 3039.56 0.00000 -2.33859e-13
  124 3039.56 0.00000 9.69149e-13
  125 3039.56 0.00000 6.15803e-14
  126 3039.56 0.00000 -2.52916e-14
  127 3039.56 0.00000 2.48433e-13
  128 3039.56 0.00000 8.45779e-15
  129 3039.56 0.00000 1.72719e-14
  130 3039.56 0.00000 -5.67575e-13
  131 3039.56 0.00000 6.16273e-13
  132 3039.56 0.00000 -4.18975e-13
  133 3039.56 0.00000 -1.91212e-13
  134 3039.56 0.00000 -2.07272e-13
  135 3039.56 0.00000 5.81036e-14
  136 3039.56 0.00000 4.00797e-14
  137 3039.56 0.00000 -1.76091e-13
  138 3039.56 0.00000 -1.13701e-13
  139 3039.56 0.00000 8.82763e-14
  140 3039.56 0.00000 3.36629e-13
  141 3039.56 0.00000 3.58218e-13
  142 3039.56 0.00000 1.93966e-13
  143 3039.56 0.00000 1.54129e-13
  144 3039.56 0.00000 3.15505e-13
  145 3039.56 0.00000 -5.19849e-13
  146 3039.56 0.00000 1.21140e-13
  147 3039.56 0.00000 -3.18006e-13
  148 3039.56 0.00000 2.52123e-14
  149 3039.56 0.00000 2.79335e-13
  150 3039.56 0.00000 -1.51681e-13
  151 3039.56 0.00000 -1.84450e-13
  152 3039.56 0.00000 -7.21329e-13
  153 3039.56 0.00000 2.95068e-13
  154 3039.56 0.00000 2.39038e-13
  155 3039.56 0.00000 -1.45064e-13
  156 3039.56 0.00000 7.79651e-13
  157 3039.56 0.00000 1.93702e-14
  158 3039.56 0.00000 -3.30949e-13
  159 3039.56 0.00000 6.69695e-14
  160 3039.56 0.00000 -7.47071e-14
  161 3039.56 0.00000 4.13143e-13
  162 3039.56 0.00000 1.66054e-13
  163 3039.56 0.00000 -3.78665e-13
  164 3039.56 0.00000 6.27909e-13
  165 3039.56 0.00000 -3.34790e-13
  166 3039.56 0.00000 9.16915e-14
  167 3039.56 0.00000 -2.39391e-13
  168 3039.56 0.00000 -5.34386e-13
  169 3039.56 0.00000 4.24469e-14
  170 3039.56 0.00000 -1.51626e-13
  171 3039.56 0.00000 2.01391e-13
  172 3039.56 0.00000 -3.64309e-13
  173 3039.56 0.00000 -1.49368e-14
  174 3039.56 0.00000 -1.57735e-13
  175 3039.56 0.00000 -7.85371e-14
  176 3039.56 0.00000 3.88874e-14
  177 3039.56 0.00000 -9.06934e-13
  178 3039.56 0.00000 2.67408e-13
  179 3039.56 0.00000 -2.10937e-14
  180 3039.56 0.00000 1.38328e-13
  181 3039.56 0.00000 -1.83847e-13
  182 3039.56 0.00000 2.85961e-13
  183 3039.56 0.00000 -9.45908e-13
  184 3039.56 0.00000 1.21419e-13
  185 3039.56 0.00000 -2.97894e-13
  186 3039.56 0.00000 -3.68950e-13
  187 3039.56 0.00000 -1.24152e-12
  188 3039.56 0.00000 -6.94276e-13
  189 3039.56 0.00000 3.93487e-13
  190 3039.56 0.00000 7.21785e-14
  191 3039.56 0.00000 1.66306e-13
  192 3039.56 0.00000 8.38266e-14
  193 3039.56 0.00000 -2.98986e-13
  194 3039.56 0.00000 9.90392e-14
  195 3039.56 0.00000 1.86956e-14
  196 3039.56 0.00000 -7.33893e-13
  197 3039.56 0.00000 -1.54435e-13
  198 3039.56 0.00000 -6.44865e-14
  199 3039.56 0.00000 7.03263e-15
  200 3039.56 0.00000 1.02544e-12
  201 3039.56 0.00000 -2.82822e-13
  202 3039.56 0.00000 -5.58747e-13
  203 3039.56 0.00000 -2.16943e-14
  204 3039.56 0.00000 -2.34675e-13
  205 3039.56 0.00000 3.60130e-15
  206 3039.56 0.00000 1.35675e-13
  207 3039.56 0.00000 -2.69381e-14
  208 3039.56 0.00000 -5.54999e-14
  209 3039.56 0.00000 -4.90577e-13
  210 3039.56 0.00000 2.76471e-15
  211 3039.56 0.00000 2.19800e-13
  212 3039.56 0.00000 -5.58200e-14
  213 3039.56 0.00000 -1.18133e-13
  214 3039.56 0.00000 -1.54705e-13
  215 3039.56 0.00000 9.02760e-13
  216 3039.56 0.00000 -1.07458e-12
  217 3039.56 0.00000 7.64016e-14
  218 3039.56 0.00000 1.50967e-14
  219 3039.56 0.00000 4.38149e-13
  220 3039.56 0.00000 -2.11204e-13
  221 3039.56 0.00000 7.74749e-13
  222 3039.56 0.00000 -8.56127e-13
  223 3039.56 0.00000 -5.72658e-14
  224 3039.56 0.00000 8.60227e-14
  225 3039.56 0.00000 2.16858e-13
  226 3039.56 0.00000 -1.88715e-13
  227 3039.56 0.00000 -2.09574e-13
  228 3039.56 0.00000 2.75262e-13
  229 3039.56 0.00000 2.37559e-14
  230 3039.56 0.00000 3.30228e-13
  231 3039.56 0.00000 5.10177e-13
  232 3039.56 0.00000 9.98122e-14
  233 3039.56 0.00000 -7.54462e-13
  234 3039.56 0.00000 -6.99964e-13
  235 3039.56 0.00000 -2.02324e-13
  236 3039.56 0.00000 4.84354e-14
  237 3039.56 0.00000 5.67533e-13
  238 3039.56 0.00000 2.55446e-13
  239 3039.56 0.00000 1.43205e-13
  240 3039.56 0.00000 3.44723e-14
  241 3039.56 0.00000 6.92900e-13
</Section>

newXOutput 67

<Section columns = "stress_xx | stress_yy | stress_xy">
  1 3086.50 0.00000 1.11531e-14
  2 3086.50 0.00000 -3.36705e-13
  3 3086.50 0.00000 -4.01513e-13
  4 3086.50 0.00000 3.96825e-13
  5 3086.50 0.00000 1.50607e-13
  6 3086.50 0.00000 4.64052e-13
  7 3086.50 0.00000 -2.32906e-14
  8 3086.50 0.00000 1.70391e-13
  9 3086.50 0.00000 3.13086e-13
  10 3086.50 0.00000 -2.47495e-13
  11 3086.50 0.00000 1.35260e-13
  12 3086.50 0.00000 6.22454e-13
  13 3086.50 0.00000 4.29070e-13
  14 3086.50 0.00000 8.54718e-13
  15 3086.50 0.00000 -8.97527e-14
  16 3086.50 0.00000 -2.90061e-13
  17 3086.50 0.00000 -1.73654e-12
  18 3086.50 0.00000 -7.66102e-13
  19 3086.50 0.00000 -6.03147e-13
  20 3086.50 0.00000 -4.95583e-13
  21 3086.50 0.00000 -2.05522e-13
  22 3086.50 0.00000 4.05779e-13
  23 3086.50 0.00000 1.34666e-13
  24 3086.50 0.00000 -1.77826e-13
  25 3086.50 0.00000 -9.83870e-14
  26 3086.50 0.00000 3.10182e-14
  27 3086.50 0.00000 2.43418e-13
  28 3086.50 0.00000 3.88495e-13
  29 3086.50 0.00000 9.07371e-14
  30 3086.50 0.00000 3.87082e-13
  31 3086.50 0.00000 1.31993e-13
  32 3086.50 0.00000 -4.16981e-13
  33 3086.50 0.00000 2.97171e-13
  34 3086.50 0.00000 -2.52952e-13
  35 3086.50 0.00000 -4.70382e-13
  36 3086.50 0.00000 1.07168e-13
  37 3086.50 0.00000 -2.86922e-13
  38 3086.50 0.00000 7.09371e-14
  39 3086.50 0.00000 1.84937e-13
  40 3086.50 0.00000 5.15422e-13
  41 3086.50 0.00000 -1.29077e-13
  42 3086.50 0.00000 5.23719e-13
  43 3086.50 0.00000 3.82693e-13
  44 3086.50 0.00000 2.65771e-13
  45 3086.50 0.00000 2.99071e-13
  46 3086.50 0.00000 9.58518e-14
  47 3086.50 0.00000 1.84262e-13
  48 3086.50 0.00000 2.13295e-14
  49 3086.50 0.00000 5.00912e-13
  50 3086.50 0.00000 -6.13622e-14
  51 3086.50 0.00000 2.07718e-14
  52 3086.50 0.00000 -1.69770e-14
  53 3086.50 0.00000 -3.69900e-14
  54 3086.50 0.00000 9.06753e-14
  55 3086.50 0.00000 9.83870e-14
  56 3086.50 0.00000 -1.63218e-14
  57 3086.50 0.00000 -1.89399e-13
  58 3086.50 0.00000 -1.36682e-14
  59 3086.50 0.00000 1.83911e-13
  60 3086.50 0.00000 -2.17118e-13
  61 3086.50 0.00000 8.40277e-14
  62 3086.50 0.00000 6.64420e-14
  63 3086.50 0.00000 -6.06499e-13
  64 3086.50 0.00000 -1.32095e-13
  65 3086.50 0.00000 1.56394e-14
  66 3086.50 0.00000 7.04308e-15
  67 3086.50 0.00000 7.90958e-14
  68 3086.50 0.00000 4.73329e-13
  69 3086.50 0.00000 1.24562e-13
  70 3086.50 0.00000 -1.59562e-13
  71 3086.50 0.00000 -2.50462e-13
  72 3086.50 0.00000 1.23748e-13
  73 3086.50 0.00000 1.38003e-13
  74 3086.50 0.00000 -6.62987e-14
  75 3086.50 0.00000 -1.88803e-13
  76 3086.50 0.00000 -8.64234e-13
  77 3086.50 0.00000 -5.60872e-14
  78 3086.50 0.00000 2.31186e-13
  79 3086.50 0.00000 -2.33722e-13
  80 3086.50 0.00000 -4.36567e-13
  81 3086.50 0.00000 3.55110e-13
  82 3086.50 0.00000 5.62793e-13
  83 3086.50 0.00000 -2.47200e-13
  84 3086.50 0.00000 -1.48928e-13
  85 3086.50 0.00000 7.55993e-13
  86 3086.50 0.00000 8.35653e-13
  87 3086.50 0.00000 -3.59008e-13
  88 3086.50 0.00000 7.84641e-13
  89 3086.50 0.00000 -1.04338e-13
  90 3086.50 0.00000 -2.74574e-14
  91 3086.50 0.00000 -3.88013e-13
  92 3086.50 0.00000 -1.50621e-13
  93 3086.50 0.00000 -1.71351e-12
  94 3086.50 0.00000 -8.78971e-14
  95 3086.50 0.00000 -3.41910e-13
  96 3086.50 0.00000 -2.96996e-13
  97 3086.50 0.00000 8.26086e-13
  98 3086.50 0.00000 -1.13391e-13
  99 3086.50 0.00000 -3.54240e-13
  100 3086.50 0.00000 1.14698e-13
  101 3086.50 0.00000 -9.44722e-14
  102 3086.50 0.00000 -3.47174e-13
  103 3086.50 0.00000 1.73394e-13
  104 3086.50 0.00000 3.83941e-13
  105 3086.50 0.00000 2.72067e-13
  106 3086.50 0.00000 3.00150e-13
  107 3086.50 0.00000 3.23994e-13
  108 3086.50 0.00000 1.17217e-13
  109 3086.50 0.00000 1.73659e-13
  110 3086.50 0.00000 2.51763e-13
  111 3086.50 0.00000 7.98462e-13
  112 3086.50 0.00000 -2.41098e-13
  113 3086.50 0.00000 1.57334e-13
  114 3086.50 0.00000 2.68291e-13
  115 3086.50 0.00000 2.36275e-13
  116 3086.50 0.00000 1.84917e-14
  117 3086.50 0.00000 6.56431e-14
  118 3086.50 0.00000 -8.95649e-14
  119 3086.50 0.00000 -1.71690e-13
  120 3086.50 0.00000 1.51100e-13
  121 3086.50 0.00000 -2.27231e-13
  122 3086.50 0.00000 2.05871e-16
  123 3086.50 0.00000 -3.99191e-13
  124 3086.50 0.00000 1.44406e-13
  125 3086.50 0.00000 1.26701e-13
  126 3086.50 0.00000 1.41486e-13
  127 3086.50 0.00000 1.59596e-13
  128 3086.50 0.00000 -1.53872e-13
  129 3086.50 0.00000 1.84326e-13
  130 3086.50 0.00000 -1.04304e-13
  131 3086.50 0.00000 -9.16125e-14
  132 3086.50 0.00000 -1.32093e-13
  133 3086.50 0.00000 -2.09206e-13
  134 3086.50 0.00000 -3.99133e-13
  135 3086.50 0.00000 6.08049e-13
  136 3086.50 0.00000 -6.55921e-14
  137 3086.50 0.00000 -2.94339e-13
  138 3086.50 0.00000 2.34409e-14
  139 3086.50 0.00000 -1.72929e-13
  140 3086.50 0.00000 -5.50167e-13
  141 3086.50 0.00000 -2.00764e-13
  142 3086.50 0.00000 2.77996e-13
  143 3086.50 0.00000 1.13612e-13
  144 3086.50 0.00000 4.94703e-13
  145 3086.50 0.00000 -1.22554e-13
  146 3086.50 0.00000 -5.01607e-13
  147 3086.50 0.00000 1.06844e-13
  148 3086.50 0.00000 -6.05314e-15
  149 3086.50 0.00000 3.31215e-13
  150 3086.50 0.00000 4.14283e-13
  151 3086.50 0.00000 -4.29433e-14
  152 3086.50 0.00000 -3.47485e-13
  153 3086.50 0.00000 -2.20496e-13
  154 3086.50 0.00000 -1.16406e-13
  155 3086.50 0.00000 -2.56275e-13
  156 3086.50 0.00000 -1.07324e-12
  157 3086.50 0.00000 -4.53859e-14
  158 3086.50 0.00000 8.43246e-14
  159 3086.50 0.00000 -2.67099e-13
  160 3086.50 0.00000 1.17508e-13
  161 3086.50 0.00000 2.32712e-13
  162 3086.50 0.00000 -2.61470e-13
  163 3086.50 0.00000 4.17581e-14
  164 3086.50 0.00000 -8.57117e-13
  165 3086.50 0.00000 -9.51047e-14
  166 3086.50 0.00000 -2.67032e-13
  167 3086.50 0.00000 -1.08773e-13
  168 3086.50 0.00000 3.74615e-13
  169 3086.50 0.00000 -2.03521e-15
  170 3086.50 0.00000 5.01364e-13
  171 3086.50 0.00000 2.75837e-13
  172 3086.50 0.00000 -9.32046e-14
  173 3086.50 0.00000 -1.84267e-13
  174 3086.50 0.00000 -2.71567e-14
  175 3086.50 0.00000 8.99569e-14
  176 3086.50 0.00000 -2.81016e-13
  177 3086.50 0.00000 4.01304e-13
  178 3086.50 0.00000 1.18593e-13
  179 3086.50 0.00000 1.25187e-13
  180 3086.50 0.00000 -1.70565e-13
  181 3086.50 0.00000 2.48383e-13
  182 3086.50 0.00000 3.12831e-13
  183 3086.50 0.00000 -1.01704e-13
  184 3086.50 0.00000 -7.24207e-13
  185 3086.50 0.00000 -1.41480e-13
  186 3086.50 0.00000 -2.82822e-13
  187 3086.50 0.00000 5.22361e-13
  188 3086.50 0.00000 -2.38440e-13
  189 3086.50 0.00000 6.81703e-14
  190 3086.50 0.00000 -7.32963e-14
  191 3086.50 0.00000 6.68498e-14
  192 3086.50 0.00000 3.53118e-13
  193 3086.50 0.00000 4.11830e-13
  194 3086.50 0.00000 8.97839e-14
  195 3086.50 0.00000 -1.51905e-13
  196 3086.50 0.00000 -5.21429e-13
  197 3086.50 0.00000 2.25626e-13
  198 3086.50 0.00000 1.25489e-13
  199 3086.50 0.00000 1.21018e-13
  200 3086.50 0.00000 9.65868e-14
  201 3086.50 0.00000 -2.76400e-13
  202 3086.50 0.00000 4.23235e-14
  203 3086.50 0.00000 -3.27863e-13
  204 3086.50 0.00000 2.06216e-13
  205 3086.50 0.00000 -1.17813e-13
  206 3086.50 0.00000 1.48140e-13
  207 3086.50 0.00000 -3.73838e-14
  208 3086.50 0.00000 -5.14784e-14
  209 3086.50 0.00000 4.11832e-13
  210 3086.50 0.00000 -1.70463e-13
  211 3086.50 0.00000 -5.14412e-14
  212 3086.50 0.00000 4.68874e-13
  213 3086.50 0.00000 1.25242e-13
  214 3086.50 0.00000 -2.24373e-13
  215 3086.50 0.00000 -6.34226e-14
  216 3086.50 0.00000 1.59212e-13
  217 3086.50 0.00000 5.46784e-13
  218 3086.50 0.00000 -1.14084e-14
  219 3086.50 0.00000 2.96923e-13
  220 3086.50 0.00000 2.83694e-13
  221 3086.50 0.00000 -1.14273e-13
  222 3086.50 0.00000 -5.85941e-13
  223 3086.50 0.00000 1.85621e-14
  224 3086.50 0.00000 -2.82300e-13
  225 3086.50 0.00000 2.54836e-13
  226 3086.50 0.00000 -7.23246e-14
  227 3086.50 0.00000 2.24777e-13
  228 3086.50 0.00000 -8.03265e-14
  229 3086.50 0.00000 -7.52146e-14
  230 3086.50 0.00000 -4.41463e-13
  231 3086.50 0.00000 -6.54420e-13
  232 3086.50 0.00000 -1.83897e-13
  233 3086.50 0.00000 -1.71693e-12
  234 3086.50 0.00000 -4.89767e-14
  235 3086.50 0.00000 -1.33972e-13
  236 3086.50 0.00000 -2.52712e-14
  237 3086.50 0.00000 -1.55841e-13
  238 3086.50 0.00000 2.69007e-13
  239 3086.50 0.00000 -3.35816e-13
  240 3086.50 0.00000 2.45698e-13
  241 3086.50 0.00000 -2.43714e-13
</Section>

newXOutput 68

<Section columns = "stress_xx | stress_yy | stress_xy">
  1 3133.47 0.00000 -1.90747e-13
  2 3133.47 0.00000 5.07745e-13
  3 3133.47 0.00000 2.72105e-13
  4 3133.47 0.00000 -3.72289e-13
  5 3133.47 0.00000 -2.48034e-13
  6 3133.47 0.00000 -3.76772e-13
  7 3133.47 0.00000 -2.37253e-13
  8 3133.47 0.00000 -4.93553e-14
  9 3133.47 0.00000 3.84705e-13
  10 3133.47 0.00000 6.39034e-13
  11 3133.47 0.00000 3.10043e-13
  12 3133.47 0.00000 3.19549e-13
  13 3133.47 0.00000 -3.72051e-13
  14 3133.47 0.00000 -1.19396e-12
  15 3133.47 0.00000 -2.04062e-13
  16 3133.47 0.00000 7.29560e-13
  17 3133.47 0.00000 6.28334e-13
  18 3133.47 0.00000 9.01675e-13
  19 3133.47 0.00000 9.26981e-13
  20 3133.47 0.00000 1.24653e-12
  21 3133.47 0.00000 -9.20623e-13
  22 3133.47 0.00000 3.65757e-13
  23 3133.47 0.00000 1.07442e-12
  24 3133.47 0.00000 2.03780e-13
  25 3133.47 0.00000 1.67046e-13
  26 3133.47 0.00000 -7.14558e-13
  27 3133.47 0.00000 -1.39138e-12
  28 3133.47 0.00000 8.09052e-13
  29 3133.47 0.00000 -1.18179e-13
  30 3133.47 0.00000 -6.17655e-13
  31 3133.47 0.00000 1.09047e-12
  32 3133.47 0.00000 8.57405e-13
  33 3133.47 0.00000 5.98528e-13
  34 3133.47 0.00000 -1.76268e-12
  35 3133.47 0.00000 -4.93372e-13
  36 3133.47 0.00000 5.02222e-13
  37 3133.47 0.00000 -5.91689e-13
  38 3133.47 0.00000 -3.78755e-13
  39 3133.47 0.00000 -3.42064e-13
  40 3133.47 0.00000 -3.56936e-14
  41 3133.47 0.00000 -2.36469e-13
  42 3133.47 0.00000 3.21156e-13
  43 3133.47 0.00000 8.72959e-14
  44 3133.47 0.00000 2.78336e-13
  45 3133.47 0.00000 -4.79861e-13
  46 3133.47 0.00000 -3.27058e-13
  47 3133.47 0.00000 7.50546e-15
  48 3133.47 0.00000 -3.65987e-13
  49 3133.47 0.00000 -7.33704e-13
  50 3133.47 0.00000 5.88613e-14
  51 3133.47 0.00000 2.04452e-14
  52 3133.47 0.00000 -4.44921e-14
  53 3133.47 0.00000 1.77040e-13
  54 3133.47 0.00000 1.11635e-13
  55 3133.47 0.00000 1.38624e-13
  56 3133.47 0.00000 -5.80806e-14
  57 3133.47 0.00000 2.70910e-13
  58 3133.47 0.00000 1.37908e-13
  59 3133.47 0.00000 1.90320e-13
  60 3133.47 0.00000 -1.32301e-13
  61 3133.47 0.00000 4.26160e-13
  62 3133.47 0.00000 2.80319e-13
  63 3133.47 0.00000 -3.75828e-13
  64 3133.47 0.00000 -5.72792e-13
  65 3133.47 0.00000 -1.26593e-13
  66 3133.47 0.00000 1.42269e-14
  67 3133.47 0.00000 -2.19868e-14
  68 3133.47 0.00000 7.31862e-14
  69 3133.47 0.00000 2.87286e-13
  70 3133.47 0.00000 1.98171e-13
  71 3133.47 0.00000 -2.03915e-13
  72 3133.47 0.00000 4.47684e-14
  73 3133.47 0.00000 -6.83874e-13
  74 3133.47 0.00000 1.32012e-13
  75 3133.47 0.00000 -2.40710e-13
  76 3133.47 0.00000 2.33491e-13
  77 3133.47 0.00000 1.47908e-13
  78 3133.47 0.00000 -5.78421e-14
  79 3133.47 0.00000 -7.81207e-14
  80 3133.47 0.00000 -1.06741e-13
  81 3133.47 0.00000 -2.81828e-13
  82 3133.47 0.00000 -1.69913e-13
  83 3133.47 0.00000 9.91903e-14
  84 3133.47 0.00000 1.58988e-13
  85 3133.47 0.00000 1.00717e-13
  86 3133.47 0.00000 7.22116e-13
  87 3133.47 0.00000 3.72975e-13
  88 3133.47 0.00000 -4.58857e-13
  89 3133.47 0.00000 4.96268e-14
  90 3133.47 0.00000 -1.24506e-13
  91 3133.47 0.00000 -2.52018e-13
  92 3133.47 0.00000 2.17050e-13
  93 3133.47 0.00000 1.43117e-13
  94 3133.47 0.00000 -9.60016e-14
  95 3133.47 0.00000 1.27698e-13
  96 3133.47 0.00000 5.97210e-13
  97 3133.47 0.00000 6.18693e-14
  98 3133.47 0.00000 1.10593e-13
  99 3133.47 0.00000 1.15801e-12
  100 3133.47 0.00000 2.11230e-13
  101 3133.47 0.00000 -2.01849e-14
  102 3133.47 0.00000 -4.95588e-13
  103 3133.47 0.00000 7.45150e-13
  104 3133.47 0.00000 -3.72771e-14
  105 3133.47 0.00000 6.01671e-13
  106 3133.47 0.00000 -4.04141e-13
  107 3133.47 0.00000 -7.87360e-13
  108 3133.47 0.00000 -2.03910e-13
  109 3133.47 0.00000 8.64651e-15
  110 3133.47 0.00000 6.11338e-13
  111 3133.47 0.00000 1.69187e-13
  112 3133.47 0.00000 2.42810e-14
  113 3133.47 0.00000 -3.23908e-13
  114 3133.47 0.00000 7.65432e-15
  115 3133.47 0.00000 5.89145e-14
  116 3133.47 0.00000 2.73373e-13
  117 3133.47 0.00000 -3.35079e-13
  118 3133.47 0.00000 -1.31788e-13
  119 3133.47 0.00000 6.24575e-13
  120 3133.47 0.00000 -1.84187e-13
  121 3133.47 0.00000 2.84171e-13
  122 3133.47 0.00000 -1.36788e-14
  123 3133.47 0.00000 4.36954e-13
  124 3133.47 0.00000 -4.73043e-14
  125 3133.47 0.00000 -7.82213e-14
  126 3133.47 0.00000 7.64499e-14
  127 3133.47 0.00000 2.54495e-13
  128 3133.47 0.00000 4.52481e-13
  129 3133.47 0.00000 -4.69215e-14
  130 3133.47 0.00000 3.92029e-14
  131 3133.47 0.00000 2.25477e-13
  132 3133.47 0.00000 2.51649e-13
  133 3133.47 0.00000 4.17472e-13
  134 3133.47 0.00000 6.10751e-14
  135 3133.47 0.00000 2.31986e-13
  136 3133.47 0.00000 -4.36158e-14
  137 3133.47 0.00000 4.56892e-13
  138 3133.47 0.00000 3.69390e-13
  139 3133.47 0.00000 8.77781e-14
  140 3133.47 0.00000 7.93668e-14
  141 3133.47 0.00000 2.75968e-14
  142 3133.47 0.00000 4.59334e-13
  143 3133.47 0.00000 -1.41143e-13
  144 3133.47 0.00000 2.79655e-13
  145 3133.47 0.00000 -7.01538e-13
  146 3133.47 0.00000 -4.64804e-13
  147 3133.47 0.00000 5.20541e-14
  148 3133.47 0.00000 3.20884e-13
  149 3133.47 0.00000 -2.61657e-15
  150 3133.47 0.00000 1.16664e-13
  151 3133.47 0.00000 3.37640e-13
  152 3133.47 0.00000 -8.81298e-14
  153 3133.47 0.00000 -5.81344e-14
  154 3133.47 0.00000 9.33709e-14
  155 3133.47 0.00000 -7.21741e-13
  156 3133.47 0.00000 -2.90243e-13
  157 3133.47 0.00000 -2.50972e-14
  158 3133.47 0.00000 -1.66339e-13
  159 3133.47 0.00000 4.74897e-13
  160 3133.47 0.00000 1.34307e-13
  161 3133.47 0.00000 -1.24975e-12
  162 3133.47 0.00000 -1.13496e-13
  163 3133.47 0.00000 -1.70225e-13
  164 3133.47 0.00000 -3.61438e-13
  165 3133.47 0.00000 -1.95266e-13
  166 3133.47 0.00000 1.48902e-13
  167 3133.47 0.00000 8.76222e-15
  168 3133.47 0.00000 -8.72504e-13
  169 3133.47 0.00000 -4.28499e-14
  170 3133.47 0.00000 -3.65593e-13
  171 3133.47 0.00000 1.66222e-13
  172 3133.47 0.00000 3.16369e-13
  173 3133.47 0.00000 -2.09493e-13
  174 3133.47 0.00000 3.85366e-13
  175 3133.47 0.00000 -1.44592e-13
  176 3133.47 0.00000 -5.18459e-14
  177 3133.47 0.00000 1.10398e-13
  178 3133.47 0.00000 1.23021e-13
  179 3133.47 0.00000 1.30218e-13
  180 3133.47 0.00000 3.75451e-13
  181 3133.47 0.00000 -5.73221e-13
  182 3133.47 0.00000 -8.50492e-13
  183 3133.47 0.00000 7.45637e-14
  184 3133.47 0.00000 4.38908e-13
  185 3133.47 0.00000 -4.68838e-14
  186 3133.47 0.00000 3.58794e-13
  187 3133.47 0.00000 1.26772e-12
  188 3133.47 0.00000 1.12708e-13
  189 3133.47 0.00000 3.15886e-13
  190 3133.47 0.00000 1.06761e-13
  191 3133.47 0.00000 2.38118e-14
  192 3133.47 0.00000 9.98447e-14
  193 3133.47 0.00000 -1.45507e-13
  194 3133.47 0.00000 -6.15821e-13
  195 3133.47 0.00000 1.20226e-13
  196 3133.47 0.00000 -1.09050e-12
  197 3133.47 0.00000 -9.52827e-14
  198 3133.47 0.00000 5.31826e-13
  199 3133.47 0.00000 2.26951e-13
  200 3133.47 0.00000 5.99234e-13
  201 3133.47 0.00000 -1.22891e-13
  202 3133.47 0.00000 6.81686e-13
  203 3133.47 0.00000 1.80296e-13
  204 3133.47 0.00000 -2.58100e-13
  205 3133.47 0.00000 3.11499e-13
  206 3133.47 0.00000 9.86333e-13
  207 3133.47 0.00000 -2.74548e-13
  208 3133.47 0.00000 -8.89717e-13
  209 3133.47 0.00000 4.63164e-14
  210 3133.47 0.00000 3.38127e-13
  211 3133.47 0.00000 -3.06216e-14
  212 3133.47 0.00000 8.82348e-13
  213 3133.47 0.00000 -3.65498e-13
  214 3133.47 0.00000 1.73166e-13
  215 3133.47 0.00000 1.43538e-12
  216 3133.47 0.00000 1.89201e-13
  217 3133.47 0.00000 -7.00315e-13
  218 3133.47 0.00000 2.83924e-13
  219 3133.47 0.00000 2.15091e-13
  220 3133.47 0.00000 4.28362e-13
  221 3133.47 0.00000 -6.06456e-13
  222 3133.47 0.00000 -2.16998e-13
  223 3133.47 0.00000 3.31031e-13
  224 3133.47 0.00000 -1.12788e-13
  225 3133.47 0.00000 -4.67779e-13
  226 3133.47 0.00000 6.69026e-14
  227 3133.47 0.00000 -1.69965e-13
  228 3133.47 0.00000 -2.53742e-13
  229 3133.47 0.00000 1.70406e-13
  230 3133.47 0.00000 6.46477e-13
  231 3133.47 0.00000 -2.08633e-13
  232 3133.47 0.00000 1.01033e-13
  233 3133.47 0.00000 5.29367e-14
  234 3133.47 0.00000 1.62798e-13
  235 3133.47 0.00000 1.24024e-13
  236 3133.47 0.00000 1.88367e-13
  237 3133.47 0.00000 6.46439e-13
  238 3133.47 0.00000 -8.17807e-15
  239 3133.47 0.00000 -6.25672e-14
  240 3133.47 0.00000 8.95942e-14
  241 3133.47 0.00000 -1.54849e-13
</Section>

newXOutput 69

<Section columns = "stress_xx | stress_yy | stress_xy">
  1 3180.47 0.00000 4.40985e-14
  2 3180.47 0.00000 9.80133e-13
  3 3180.47 0.00000 -3.24163e-13
  4 3180.47 0.00000 1.49795e-13
  5 3180.47 0.00000 -2.32978e-13
  6 3180.47 0.00000 -4.18125e-13
  7 3180.47 0.00000 -2.26281e-14
  8 3180.47 0.00000 3.56496e-13
  9 3180.47 0.00000 5.95699e-14
  10 3180.47 0.00000 1.24290e-13
  11 3180.47 0.00000 6.75868e-13
  12 3180.47 0.00000 -8.13032e-13
  13 3180.47 0.00000 -7.76540e-14
  14 3180.47 0.00000 -1.38088e-13
  15 3180.47 0.00000 -8.99196e-13
  16 3180.47 0.00000 -6.72370e-13
  17 3180.47 0.00000 8.56229e-13
  18 3180.47 0.00000 9.58073e-13
  19 3180.47 0.00000 4.97158e-13
  20 3180.47 0.00000 1.64686e-12
  21 3180.47 0.00000 1.44570e-12
  22 3180.47 0.00000 -1.63909e-12
  23 3180.47 0.00000 -4.88510e-13
  24 3180.47 0.00000 7.82862e-13
  25 3180.47 0.00000 1.37316e-13
  26 3180.47 0.00000 -3.46084e-13
  27 3180.47 0.00000 9.15438e-14
  28 3180.47 0.00000 2.84971e-13
  29 3180.47 0.00000 0.00000
  30 3180.47 0.00000 -2.90068e-14
  31 3180.47 0.00000 -3.98334e-14
  32 3180.47 0.00000 -2.10934e-13
  33 3180.47 0.00000 1.64892e-13
  34 3180.47 0.00000 -5.89286e-13
  35 3180.47 0.00000 2.61374e-13
  36 3180.47 0.00000 3.62050e-13
  37 3180.47 0.00000 3.44194e-13
  38 3180.47 0.00000 -5.04965e-13
  39 3180.47 0.00000 -1.03125e-12
  40 3180.47 0.00000 -2.72126e-13
  41 3180.47 0.00000 1.61774e-13
  42 3180.47 0.00000 -1.87395e-13
  43 3180.47 0.00000 -2.76372e-13
  44 3180.47 0.00000 -7.43515e-14
  45 3180.47 0.00000 2.20440e-13
  46 3180.47 0.00000 -1.59587e-13
  47 3180.47 0.00000 -3.85253e-13
  48 3180.47 0.00000 1.63831e-14
  49 3180.47 0.00000 2.77675e-13
  50 3180.47 0.00000 2.73272e-14
  51 3180.47 0.00000 -4.02362e-14
  52 3180.47 0.00000 2.27184e-14
  53 3180.47 0.00000 -4.57719e-14
  54 3180.47 0.00000 9.46633e-30
  55 3180.47 0.00000 6.86579e-14
  56 3180.47 0.00000 -1.43623e-13
  57 3180.47 0.00000 -1.35437e-13
  58 3180.47 0.00000 -9.90217e-14
  59 3180.47 0.00000 -7.53712e-14
  60 3180.47 0.00000 1.11420e-13
  61 3180.47 0.00000 -7.18117e-14
  62 3180.47 0.00000 6.61716e-14
  63 3180.47 0.00000 2.27745e-13
  64 3180.47 0.00000 -9.69173e-13
  65 3180.47 0.00000 1.97665e-13
  66 3180.47 0.00000 1.36447e-13
  67 3180.47 0.00000 -1.09444e-12
  68 3180.47 0.00000 5.72312e-13
  69 3180.47 0.00000 -4.45219e-14
  70 3180.47 0.00000 -2.74077e-14
  71 3180.47 0.00000 -8.58675e-14
  72 3180.47 0.00000 1.82888e-13
  73 3180.47 0.00000 -3.98523e-13
  74 3180.47 0.00000 -2.35144e-13
  75 3180.47 0.00000 -3.03786e-13
  76 3180.47 0.00000 1.43423e-12
  77 3180.47 0.00000 -5.62493e-14
  78 3180.47 0.00000 3.98402e-13
  79 3180.47 0.00000 -2.77348e-13
  80 3180.47 0.00000 5.94118e-13
  81 3180.47 0.00000 8.14589e-13
  82 3180.47 0.00000 -3.34345e-13
  83 3180.47 0.00000 -1.72379e-13
  84 3180.47 0.00000 -4.61578e-14
  85 3180.47 0.00000 -1.50968e-13
  86 3180.47 0.00000 1.98715e-12
  87 3180.47 0.00000 1.82442e-13
  88 3180.47 0.00000 -5.37680e-13
  89 3180.47 0.00000 3.66625e-14
  90 3180.47 0.00000 -4.83296e-13
  91 3180.47 0.00000 2.63018e-13
  92 3180.47 0.00000 -5.76472e-13
  93 3180.47 0.00000 1.63497e-12
  94 3180.47 0.00000 1.45504e-13
  95 3180.47 0.00000 5.84090e-14
  96 3180.47 0.00000 -5.29518e-13
  97 3180.47 0.00000 -4.28555e-13
  98 3180.47 0.00000 1.53674e-13
  99 3180.47 0.00000 8.83838e-14
  100 3180.47 0.00000 1.62222e-13
  101 3180.47 0.00000 -8.46449e-14
  102 3180.47 0.00000 -3.36996e-13
  103 3180.47 0.00000 -3.70113e-14
  104 3180.47 0.00000 -1.59979e-13
  105 3180.47 0.00000 -5.58998e-13
  106 3180.47 0.00000 4.20124e-13
  107 3180.47 0.00000 -1.87333e-13
  108 3180.47 0.00000 -4.59664e-14
  109 3180.47 0.00000 -1.65576e-14
  110 3180.47 0.00000 5.73151e-13
  111 3180.47 0.00000 -1.58363e-13
  112 3180.47 0.00000 1.00387e-13
  113 3180.47 0.00000 -6.00188e-13
  114 3180.47 0.00000 1.25967e-13
  115 3180.47 0.00000 8.73926e-14
  116 3180.47 0.00000 -3.71787e-13
  117 3180.47 0.00000 -1.00301e-12
  118 3180.47 0.00000 -8.81742e-14
  119 3180.47 0.00000 -1.70231e-14
  120 3180.47 0.00000 6.52533e-13
  121 3180.47 0.00000 -2.16026e-14
  122 3180.47 0.00000 -2.25662e-13
  123 3180.47 0.00000 -5.00554e-13
  124 3180.47 0.00000 -3.44927e-13
  125 3180.47 0.00000 4.03547e-13
  126 3180.47 0.00000 6.64326e-14
  127 3180.47 0.00000 5.08483e-14
  128 3180.47 0.00000 -3.50860e-13
  129 3180.47 0.00000 -1.07463e-13
  130 3180.47 0.00000 5.89910e-14
  131 3180.47 0.00000 3.04943e-13
  132 3180.47 0.00000 -6.90891e-13
  133 3180.47 0.00000 -1.10406e-13
  134 3180.47 0.00000 -3.86401e-13
  135 3180.47 0.00000 4.10226e-13
  136 3180.47 0.00000 8.55614e-14
  137 3180.47 0.00000 2.91454e-13
  138 3180.47 0.00000 -1.93119e-15
  139 3180.47 0.00000 -1.83657e-13
  140 3180.47 0.00000 -5.02174e-13
  141 3180.47 0.00000 -1.33705e-13
  142 3180.47 0.00000 -1.49943e-13
  143 3180.47 0.00000 -2.71027e-13
  144 3180.47 0.00000 -1.02162e-14
  145 3180.47 0.00000 -9.12768e-14
  146 3180.47 0.00000 -2.96261e-13
  147 3180.47 0.00000 -6.05197e-13
  148 3180.47 0.00000 -1.45695e-13
  149 3180.47 0.00000 5.14695e-13
  150 3180.47 0.00000 1.51573e-13
  151 3180.47 0.00000 1.97840e-13
  152 3180.47 0.00000 -1.45692e-13
  153 3180.47 0.00000 2.23008e-14
  154 3180.47 0.00000 9.68381e-13
  155 3180.47 0.00000 2.83228e-13
  156 3180.47 0.00000 3.92320e-13
  157 3180.47 0.00000 -2.25665e-13
  158 3180.47 0.00000 5.77479e-13
  159 3180.47 0.00000 6.03519e-13
  160 3180.47 0.00000 4.13419e-14
  161 3180.47 0.00000 1.15149e-12
  162 3180.47 0.00000 -1.15154e-13
  163 3180.47 0.00000 -6.66618e-14
  164 3180.47 0.00000 -8.22321e-14
  165 3180.47 0.00000 8.16778e-14
  166 3180.47 0.00000 -1.86824e-14
  167 3180.47 0.00000 3.81930e-13
  168 3180.47 0.00000 1.33336e-13
  169 3180.47 0.00000 -6.96136e-15
  170 3180.47 0.00000 9.06717e-13
  171 3180.47 0.00000 -3.08327e-13
  172 3180.47 0.00000 2.37748e-13
  173 3180.47 0.00000 -1.30157e-13
  174 3180.47 0.00000 1.05260e-12
  175 3180.47 0.00000 1.64333e-13
  176 3180.47 0.00000 -1.25061e-13
  177 3180.47 0.00000 3.80722e-13
  178 3180.47 0.00000 -3.89689e-13
  179 3180.47 0.00000 -9.42212e-14
  180 3180.47 0.00000 3.07262e-14
  181 3180.47 0.00000 4.06262e-13
  182 3180.47 0.00000 2.82116e-14
  183 3180.47 0.00000 5.15853e-13
  184 3180.47 0.00000 1.57426e-13
  185 3180.47 0.00000 3.49484e-13
  186 3180.47 0.00000 -3.16398e-13
  187 3180.47 0.00000 4.31364e-13
  188 3180.47 0.00000 -7.41970e-13
  189 3180.47 0.00000 7.17933e-14
  190 3180.47 0.00000 2.74662e-14
  191 3180.47 0.00000 -9.68218e-14
  192 3180.47 0.00000 1.43289e-13
  193 3180.47 0.00000 7.40926e-13
  194 3180.47 0.00000 -1.76445e-13
  195 3180.47 0.00000 -5.80385e-14
  196 3180.47 0.00000 -7.80579e-13
  197 3180.47 0.00000 2.68821e-13
  198 3180.47 0.00000 -3.49157e-13
  199 3180.47 0.00000 -6.19576e-13
  200 3180.47 0.00000 -3.59863e-14
  201 3180.47 0.00000 -1.23568e-13
  202 3180.47 0.00000 -4.36769e-13
  203 3180.47 0.00000 -6.77724e-13
  204 3180.47 0.00000 8.15637e-15
  205 3180.47 0.00000 2.85521e-13
  206 3180.47 0.00000 8.72611e-13
  207 3180.47 0.00000 6.57525e-14
  208 3180.47 0.00000 1.46783e-13
  209 3180.47 0.00000 4.59573e-13
  210 3180.47 0.00000 1.29205e-13
  211 3180.47 0.00000 -2.70372e-13
  212 3180.47 0.00000 -8.49253e-14
  213 3180.47 0.00000 2.04437e-13
  214 3180.47 0.00000 -1.00127e-12
  215 3180.47 0.00000 -2.93457e-13
  216 3180.47 0.00000 4.25842e-13
  217 3180.47 0.00000 -2.24143e-13
  218 3180.47 0.00000 -1.42939e-14
  219 3180.47 0.00000 2.00906e-13
  220 3180.47 0.00000 2.90413e-13
  221 3180.47 0.00000 9.15920e-13
  222 3180.47 0.00000 2.46637e-13
  223 3180.47 0.00000 3.37668e-13
  224 3180.47 0.00000 -3.17711e-13
  225 3180.47 0.00000 1.07283e-13
  226 3180.47 0.00000 -6.34104e-15
  227 3180.47 0.00000 2.56304e-13
  228 3180.47 0.00000 1.93639e-13
  229 3180.47 0.00000 -1.65276e-13
  230 3180.47 0.00000 -6.54200e-13
  231 3180.47 0.00000 7.64412e-14
  232 3180.47 0.00000 -5.82743e-13
  233 3180.47 0.00000 -8.61740e-14
  234 3180.47 0.00000 -1.29236e-13
  235 3180.47 0.00000 -7.15158e-13
  236 3180.47 0.00000 2.52977e-13
  237 3180.47 0.00000 4.34706e-13
  238 3180.47 0.00000 4.45575e-13
  239 3180.47 0.00000 2.78739e-13
  240 3180.47 0.00000 -2.86926e-13
  241 3180.47 0.00000 -6.16738e-13
</Section>

newXOutput 70

<Section columns = "stress_xx | stress_yy | stress_xy">
  1 3227.50 0.00000 -7.21326e-14
  2 3227.50 0.00000 -3.28854e-13
  3 3227.50 0.00000 -3.87575e-13
  4 3227.50 0.00000 1.00228e-13
  5 3227.50 0.00000 -1.77000e-14
  6 3227.50 0.00000 1.64427e-13
  7 3227.50 0.00000 -4.67118e-14
  8 3227.50 0.00000 2.03794e-13
  9 3227.50 0.00000 -2.68077e-13
  10 3227.50 0.00000 -3.88641e-13
  11 3227.50 0.00000 -2.90463e-13
  12 3227.50 0.00000 2.67325e-13
  13 3227.50 0.00000 1.65556e-13
  14 3227.50 0.00000 -2.64571e-13
  15 3227.50 0.00000 -2.59351e-13
  16 3227.50 0.00000 1.95792e-13
  17 3227.50 0.00000 9.02341e-13
  18 3227.50 0.00000 2.49129e-13
  19 3227.50 0.00000 -9.96518e-13
  20 3227.50 0.00000 4.93763e-13
  21 3227.50 0.00000 1.01841e-12
  22 3227.50 0.00000 1.52761e-12
  23 3227.50 0.00000 5.43099e-13
  24 3227.50 0.00000 -1.54953e-13
  25 3227.50 0.00000 1.64427e-13
  26 3227.50 0.00000 2.90849e-13
  27 3227.50 0.00000 1.83016e-28
  28 3227.50 0.00000 9.83235e-13
  29 3227.50 0.00000 1.97905e-14
  30 3227.50 0.00000 -2.83146e-13
  31 3227.50 0.00000 -3.68506e-13
  32 3227.50 0.00000 1.17162e-13
  33 3227.50 0.00000 -9.74455e-13
  34 3227.50 0.00000 -1.28895e-12
  35 3227.50 0.00000 -8.23048e-13
  36 3227.50 0.00000 -4.29585e-13
  37 3227.50 0.00000 1.12572e-12
  38 3227.50 0.00000 1.44524e-12
  39 3227.50 0.00000 8.28385e-13
  40 3227.50 0.00000 9.72547e-13
  41 3227.50 0.00000 1.56970e-13
  42 3227.50 0.00000 -2.29315e-13
  43 3227.50 0.00000 1.76278e-13
  44 3227.50 0.00000 1.17951e-15
  45 3227.50 0.00000 -5.95054e-14
  46 3227.50 0.00000 -2.45301e-13
  47 3227.50 0.00000 -1.01549e-13
  48 3227.50 0.00000 1.48940e-14
  49 3227.50 0.00000 2.33191e-13
  50 3227.50 0.00000 -1.18958e-14
  51 3227.50 0.00000 0.00000
  52 3227.50 0.00000 9.48640e-15
  53 3227.50 0.00000 -1.41939e-14
  54 3227.50 0.00000 1.17370e-14
  55 3227.50 0.00000 1.92849e-13
  56 3227.50 0.00000 -4.73857e-14
  57 3227.50 0.00000 -3.65046e-14
  58 3227.50 0.00000 -2.48753e-13
  59 3227.50 0.00000 3.21544e-13
  60 3227.50 0.00000 5.11723e-13
  61 3227.50 0.00000 5.82208e-13
  62 3227.50 0.00000 -2.26086e-13
  63 3227.50 0.00000 -1.25532e-12
  64 3227.50 0.00000 1.17359e-12
  65 3227.50 0.00000 1.88090e-13
  66 3227.50 0.00000 -1.20721e-13
  67 3227.50 0.00000 3.78993e-13
  68 3227.50 0.00000 3.36669e-14
  69 3227.50 0.00000 -2.49225e-13
  70 3227.50 0.00000 -1.85422e-14
  71 3227.50 0.00000 -4.42380e-14
  72 3227.50 0.00000 -1.04825e-13
  73 3227.50 0.00000 8.13691e-13
  74 3227.50 0.00000 1.45623e-14
  75 3227.50 0.00000 -2.46691e-14
  76 3227.50 0.00000 -5.41493e-13
  77 3227.50 0.00000 -9.21481e-16
  78 3227.50 0.00000 1.16221e-12
  79 3227.50 0.00000 -9.97486e-14
  80 3227.50 0.00000 1.33687e-13
  81 3227.50 0.00000 6.62542e-13
  82 3227.50 0.00000 -5.33177e-13
  83 3227.50 0.00000 -1.56504e-13
  84 3227.50 0.00000 -2.49006e-13
  85 3227.50 0.00000 1.99917e-13
  86 3227.50 0.00000 -1.79745e-13
  87 3227.50 0.00000 5.44676e-14
  88 3227.50 0.00000 -1.32057e-12
  89 3227.50 0.00000 -1.52800e-13
  90 3227.50 0.00000 2.15235e-13
  91 3227.50 0.00000 -1.37363e-13
  92 3227.50 0.00000 -3.67543e-13
  93 3227.50 0.00000 -4.29000e-13
  94 3227.50 0.00000 1.72697e-13
  95 3227.50 0.00000 5.58446e-13
  96 3227.50 0.00000 7.02475e-13
  97 3227.50 0.00000 6.41249e-14
  98 3227.50 0.00000 4.55827e-15
  99 3227.50 0.00000 -7.11072e-13
  100 3227.50 0.00000 -8.51503e-14
  101 3227.50 0.00000 1.68776e-13
  102 3227.50 0.00000 3.96337e-13
  103 3227.50 0.00000 6.12033e-14
  104 3227.50 0.00000 -7.92971e-14
  105 3227.50 0.00000 -3.02952e-13
  106 3227.50 0.00000 4.87373e-14
  107 3227.50 0.00000 6.88392e-14
  108 3227.50 0.00000 -7.13011e-14
  109 3227.50 0.00000 -1.68941e-13
  110 3227.50 0.00000 1.52471e-12
  111 3227.50 0.00000 -5.28504e-13
  112 3227.50 0.00000 5.73251e-13
  113 3227.50 0.00000 4.43131e-13
  114 3227.50 0.00000 -1.21775e-13
  115 3227.50 0.00000 1.35388e-13
  116 3227.50 0.00000 -3.28260e-13
  117 3227.50 0.00000 1.86317e-12
  118 3227.50 0.00000 8.64020e-14
  119 3227.50 0.00000 1.43140e-14
  120 3227.50 0.00000 3.51654e-14
  121 3227.50 0.00000 1.41400e-13
  122 3227.50 0.00000 5.64621e-13
  123 3227.50 0.00000 -6.28431e-13
  124 3227.50 0.00000 8.80277e-13
  125 3227.50 0.00000 1.12901e-13
  126 3227.50 0.00000 2.02605e-15
  127 3227.50 0.00000 2.01929e-13
  128 3227.50 0.00000 -2.07034e-13
  129 3227.50 0.00000 -2.08926e-13
  130 3227.50 0.00000 9.97084e-14
  131 3227.50 0.00000 2.49101e-13
  132 3227.50 0.00000 -2.18167e-13
  133 3227.50 0.00000 3.15512e-13
  134 3227.50 0.00000 2.73241e-13
  135 3227.50 0.00000 1.81384e-13
  136 3227.50 0.00000 -1.49409e-14
  137 3227.50 0.00000 9.57632e-13
  138 3227.50 0.00000 5.03701e-13
  139 3227.50 0.00000 -5.14703e-14
  140 3227.50 0.00000 2.58842e-13
  141 3227.50 0.00000 1.33038e-13
  142 3227.50 0.00000 -2.03794e-13
  143 3227.50 0.00000 -1.13633e-13
  144 3227.50 0.00000 3.88960e-13
  145 3227.50 0.00000 -9.68663e-13
  146 3227.50 0.00000 3.39044e-14
  147 3227.50 0.00000 1.14301e-13
  148 3227.50 0.00000 -5.25809e-14
  149 3227.50 0.00000 4.98710e-13
  150 3227.50 0.00000 -2.73291e-13
  151 3227.50 0.00000 2.45376e-13
  152 3227.50 0.00000 1.25722e-12
  153 3227.50 0.00000 5.62190e-13
  154 3227.50 0.00000 2.25898e-13
  155 3227.50 0.00000 4.27947e-13
  156 3227.50 0.00000 4.23394e-13
  157 3227.50 0.00000 -1.91559e-13
  158 3227.50 0.00000 3.92291e-13
  159 3227.50 0.00000 5.25205e-13
  160 3227.50 0.00000 9.79278e-14
  161 3227.50 0.00000 -4.41111e-13
  162 3227.50 0.00000 -5.65129e-14
  163 3227.50 0.00000 2.73446e-13
  164 3227.50 0.00000 -6.41238e-13
  165 3227.50 0.00000 -1.53881e-13
  166 3227.50 0.00000 -5.05025e-14
  167 3227.50 0.00000 1.97476e-13
  168 3227.50 0.00000 -5.55495e-13
  169 3227.50 0.00000 -8.90632e-15
  170 3227.50 0.00000 8.75935e-13
  171 3227.50 0.00000 3.14332e-13
  172 3227.50 0.00000 -4.98680e-13
  173 3227.50 0.00000 -1.94744e-14
  174 3227.50 0.00000 -3.59119e-13
  175 3227.50 0.00000 5.69114e-14
  176 3227.50 0.00000 -1.96722e-13
  177 3227.50 0.00000 -4.55611e-13
  178 3227.50 0.00000 3.17651e-14
  179 3227.50 0.00000 -3.61691e-14
  180 3227.50 0.00000 5.20988e-14
  181 3227.50 0.00000 7.87503e-13
  182 3227.50 0.00000 1.01408e-12
  183 3227.50 0.00000 1.34161e-13
  184 3227.50 0.00000 3.79061e-13
  185 3227.50 0.00000 -2.55993e-13
  186 3227.50 0.00000 -6.35577e-13
  187 3227.50 0.00000 -3.68773e-14
  188 3227.50 0.00000 -7.25738e-14
  189 3227.50 0.00000 3.26305e-13
  190 3227.50 0.00000 -9.83895e-14
  191 3227.50 0.00000 -1.88690e-14
  192 3227.50 0.00000 -6.23222e-13
  193 3227.50 0.00000 -6.62819e-13
  194 3227.50 0.00000 6.10345e-14
  195 3227.50 0.00000 -1.48276e-14
  196 3227.50 0.00000 -5.20215e-13
  197 3227.50 0.00000 -1.29334e-13
  198 3227.50 0.00000 -5.20926e-13
  199 3227.50 0.00000 -4.74170e-13
  200 3227.50 0.00000 -8.34468e-13
  201 3227.50 0.00000 -8.06298e-14
  202 3227.50 0.00000 -1.39309e-13
  203 3227.50 0.00000 1.29161e-13
  204 3227.50 0.00000 -2.52428e-13
  205 3227.50 0.00000 1.76685e-13
  206 3227.50 0.00000 1.16352e-12
  207 3227.50 0.00000 -4.05383e-15
  208 3227.50 0.00000 5.05694e-14
  209 3227.50 0.00000 -2.83114e-13
  210 3227.50 0.00000 1.16737e-13
  211 3227.50 0.00000 -2.14185e-13
  212 3227.50 0.00000 4.96239e-13
  213 3227.50 0.00000 5.64192e-14
  214 3227.50 0.00000 -1.28220e-14
  215 3227.50 0.00000 4.20032e-13
  216 3227.50 0.00000 1.78782e-13
  217 3227.50 0.00000 4.24957e-13
  218 3227.50 0.00000 2.70514e-14
  219 3227.50 0.00000 4.47233e-13
  220 3227.50 0.00000 -3.17132e-13
  221 3227.50 0.00000 2.35584e-13
  222 3227.50 0.00000 -4.79935e-13
  223 3227.50 0.00000 -2.66953e-13
  224 3227.50 0.00000 -3.85698e-14
  225 3227.50 0.00000 1.08423e-13
  226 3227.50 0.00000 -1.67805e-13
  227 3227.50 0.00000 -5.19173e-13
  228 3227.50 0.00000 3.30661e-13
  229 3227.50 0.00000 -2.04483e-13
  230 3227.50 0.00000 7.96651e-13
  231 3227.50 0.00000 -4.29445e-13
  232 3227.50 0.00000 -5.44222e-13
  233 3227.50 0.00000 4.71319e-13
  234 3227.50 0.00000 1.39078e-13
  235 3227.50 0.00000 7.22742e-14
  236 3227.50 0.00000 -2.07618e-13
  237 3227.50 0.00000 -2.64230e-13
  238 3227.50 0.00000 6.86924e-13
  239 3227.50 0.00000 -4.05583e-13
  240 3227.50 0.00000 3.56210e-13
  241 3227.50 0.00000 1.95792e-13
</Section>

newXOutput 71

<Section columns = "stress_xx | stress_yy | stress_xy">
  1 3274.57 0.00000 -1.60978e-13
  2 3274.57 0.00000 2.98636e-13
  3 3274.57 0.00000 -8.23364e-13
  4 3274.57 0.00000 -1.05242e-13
  5 3274.57 0.00000 -6.24212e-14
  6 3274.57 0.00000 2.80895e-13
  7 3274.57 0.00000 -4.78841e-14
  8 3274.57 0.00000 -1.40942e-13
  9 3274.57 0.00000 1.24842e-13
  10 3274.57 0.00000 1.24842e-13
  11 3274.57 0.00000 1.89478e-14
  12 3274.57 0.00000 -9.50561e-14
  13 3274.57 0.00000 -4.35554e-13
  14 3274.57 0.00000 4.03326e-13
  15 3274.57 0.00000 9.84202e-13
  16 3274.57 0.00000 9.98740e-13
  17 3274.57 0.00000 1.98538e-13
  18 3274.57 0.00000 3.26229e-13
  19 3274.57 0.00000 2.04235e-13
  20 3274.57 0.00000 4.94225e-13
  21 3274.57 0.00000 1.91524e-12
  22 3274.57 0.00000 2.05339e-13
  23 3274.57 0.00000 5.41971e-13
  24 3274.57 0.00000 -2.36434e-13
  25 3274.57 0.00000 0.00000
  26 3274.57 0.00000 -2.10999e-13
  27 3274.57 0.00000 9.57682e-14
  28 3274.57 0.00000 -4.82981e-14
  29 3274.57 0.00000 1.94624e-14
  30 3274.57 0.00000 -2.26406e-13
  31 3274.57 0.00000 -5.07617e-13
  32 3274.57 0.00000 -4.89094e-13
  33 3274.57 0.00000 1.84865e-15
  34 3274.57 0.00000 5.57814e-13
  35 3274.57 0.00000 1.49042e-12
  36 3274.57 0.00000 7.40605e-13
  37 3274.57 0.00000 -4.76954e-13
  38 3274.57 0.00000 -4.48015e-14
  39 3274.57 0.00000 1.23209e-13
  40 3274.57 0.00000 -7.42147e-13
  41 3274.57 0.00000 -3.78278e-13
  42 3274.57 0.00000 -1.93153e-13
  43 3274.57 0.00000 -1.78340e-13
  44 3274.57 0.00000 1.09472e-13
  45 3274.57 0.00000 5.82824e-14
  46 3274.57 0.00000 -1.24580e-13
  47 3274.57 0.00000 1.09368e-14
  48 3274.57 0.00000 -1.35529e-13
  49 3274.57 0.00000 -1.18714e-13
  50 3274.57 0.00000 9.36318e-14
  51 3274.57 0.00000 1.34693e-13
  52 3274.57 0.00000 -1.00677e-13
  53 3274.57 0.00000 8.06569e-14
  54 3274.57 0.00000 -9.90315e-14
  55 3274.57 0.00000 0.00000
  56 3274.57 0.00000 4.47784e-14
  57 3274.57 0.00000 1.42901e-14
  58 3274.57 0.00000 2.04925e-13
  59 3274.57 0.00000 7.12110e-14
  60 3274.57 0.00000 5.80598e-15
  61 3274.57 0.00000 -3.58675e-13
  62 3274.57 0.00000 -8.04099e-14
  63 3274.57 0.00000 -2.26757e-13
  64 3274.57 0.00000 3.32913e-13
  65 3274.57 0.00000 2.98512e-14
  66 3274.57 0.00000 -1.19982e-13
  67 3274.57 0.00000 -2.48596e-13
  68 3274.57 0.00000 -8.09360e-13
  69 3274.57 0.00000 -2.31597e-14
  70 3274.57 0.00000 1.00850e-13
  71 3274.57 0.00000 8.12703e-14
  72 3274.57 0.00000 2.17776e-14
  73 3274.57 0.00000 -2.35987e-13
  74 3274.57 0.00000 -1.22018e-13
  75 3274.57 0.00000 4.33614e-13
  76 3274.57 0.00000 2.25950e-13
  77 3274.57 0.00000 -2.58080e-13
  78 3274.57 0.00000 -4.53791e-13
  79 3274.57 0.00000 -3.02659e-13
  80 3274.57 0.00000 -3.08724e-13
  81 3274.57 0.00000 1.22945e-13
  82 3274.57 0.00000 -5.30009e-14
  83 3274.57 0.00000 1.16793e-13
  84 3274.57 0.00000 2.63372e-13
  85 3274.57 0.00000 -4.94463e-14
  86 3274.57 0.00000 1.28757e-13
  87 3274.57 0.00000 -2.07988e-13
  88 3274.57 0.00000 8.07753e-13
  89 3274.57 0.00000 6.03136e-13
  90 3274.57 0.00000 1.99745e-13
  91 3274.57 0.00000 4.27266e-16
  92 3274.57 0.00000 -9.47705e-14
  93 3274.57 0.00000 1.49645e-13
  94 3274.57 0.00000 6.47715e-14
  95 3274.57 0.00000 4.07352e-13
  96 3274.57 0.00000 -1.69759e-13
  97 3274.57 0.00000 -8.34832e-13
  98 3274.57 0.00000 -9.12583e-14
  99 3274.57 0.00000 -5.23519e-13
  100 3274.57 0.00000 3.25397e-13
  101 3274.57 0.00000 -1.00693e-13
  102 3274.57 0.00000 -7.32203e-13
  103 3274.57 0.00000 -1.17287e-13
  104 3274.57 0.00000 1.71694e-13
  105 3274.57 0.00000 4.37696e-13
  106 3274.57 0.00000 -1.65012e-13
  107 3274.57 0.00000 -6.26923e-13
  108 3274.57 0.00000 -9.28004e-14
  109 3274.57 0.00000 -3.03942e-13
  110 3274.57 0.00000 -1.02190e-12
  111 3274.57 0.00000 3.66794e-13
  112 3274.57 0.00000 7.87182e-14
  113 3274.57 0.00000 1.14241e-13
  114 3274.57 0.00000 1.63528e-13
  115 3274.57 0.00000 -6.60152e-13
  116 3274.57 0.00000 2.71829e-13
  117 3274.57 0.00000 -1.02398e-12
  118 3274.57 0.00000 -1.84825e-16
  119 3274.57 0.00000 -3.48081e-13
  120 3274.57 0.00000 -1.18791e-13
  121 3274.57 0.00000 1.14620e-13
  122 3274.57 0.00000 -4.69940e-14
  123 3274.57 0.00000 1.93070e-13
  124 3274.57 0.00000 -6.70902e-13
  125 3274.57 0.00000 -2.55000e-13
  126 3274.57 0.00000 8.10232e-14
  127 3274.57 0.00000 7.16944e-14
  128 3274.57 0.00000 -4.38076e-13
  129 3274.57 0.00000 -4.56251e-14
  130 3274.57 0.00000 9.86951e-14
  131 3274.57 0.00000 5.83580e-15
  132 3274.57 0.00000 3.59248e-13
  133 3274.57 0.00000 1.50934e-13
  134 3274.57 0.00000 6.88469e-14
  135 3274.57 0.00000 5.34291e-13
  136 3274.57 0.00000 -1.82928e-13
  137 3274.57 0.00000 -1.03099e-12
  138 3274.57 0.00000 -9.00423e-14
  139 3274.57 0.00000 -2.91999e-13
  140 3274.57 0.00000 4.27489e-13
  141 3274.57 0.00000 6.93925e-14
  142 3274.57 0.00000 1.21599e-13
  143 3274.57 0.00000 1.87357e-13
  144 3274.57 0.00000 -9.17245e-13
  145 3274.57 0.00000 2.93629e-13
  146 3274.57 0.00000 -3.35172e-14
  147 3274.57 0.00000 -6.41335e-14
  148 3274.57 0.00000 -5.87412e-15
  149 3274.57 0.00000 -3.71403e-13
  150 3274.57 0.00000 -6.31680e-13
  151 3274.57 0.00000 -4.28187e-13
  152 3274.57 0.00000 -1.72476e-14
  153 3274.57 0.00000 -7.56907e-13
  154 3274.57 0.00000 2.74630e-13
  155 3274.57 0.00000 -2.11561e-13
  156 3274.57 0.00000 1.20689e-13
  157 3274.57 0.00000 1.14535e-13
  158 3274.57 0.00000 -3.37013e-14
  159 3274.57 0.00000 5.03702e-13
  160 3274.57 0.00000 -1.04442e-13
  161 3274.57 0.00000 6.57427e-14
  162 3274.57 0.00000 -3.29349e-13
  163 3274.57 0.00000 -4.70571e-13
  164 3274.57 0.00000 -3.45842e-13
  165 3274.57 0.00000 3.54472e-13
  166 3274.57 0.00000 2.56758e-14
  167 3274.57 0.00000 -3.48267e-13
  168 3274.57 0.00000 2.75090e-13
  169 3274.57 0.00000 7.26946e-14
  170 3274.57 0.00000 -7.50835e-13
  171 3274.57 0.00000 -2.93661e-13
  172 3274.57 0.00000 -1.57041e-13
  173 3274.57 0.00000 -9.45913e-14
  174 3274.57 0.00000 3.59758e-14
  175 3274.57 0.00000 -5.88609e-14
  176 3274.57 0.00000 1.38470e-13
  177 3274.57 0.00000 -3.29785e-13
  178 3274.57 0.00000 3.31311e-13
  179 3274.57 0.00000 7.49055e-14
  180 3274.57 0.00000 -3.02392e-13
  181 3274.57 0.00000 -7.88766e-14
  182 3274.57 0.00000 1.56502e-13
  183 3274.57 0.00000 2.91635e-13
  184 3274.57 0.00000 4.57052e-13
  185 3274.57 0.00000 2.25372e-13
  186 3274.57 0.00000 -6.72861e-14
  187 3274.57 0.00000 -3.67052e-14
  188 3274.57 0.00000 -4.88668e-13
  189 3274.57 0.00000 6.40949e-14
  190 3274.57 0.00000 -7.15651e-14
  191 3274.57 0.00000 1.80776e-13
  192 3274.57 0.00000 4.25353e-13
  193 3274.57 0.00000 7.67194e-13
  194 3274.57 0.00000 1.93533e-13
  195 3274.57 0.00000 9.94719e-14
  196 3274.57 0.00000 -1.43549e-13
  197 3274.57 0.00000 7.67011e-14
  198 3274.57 0.00000 1.36889e-13
  199 3274.57 0.00000 2.04303e-13
  200 3274.57 0.00000 5.64145e-13
  201 3274.57 0.00000 3.03136e-13
  202 3274.57 0.00000 -1.12358e-12
  203 3274.57 0.00000 -1.89538e-13
  204 3274.57 0.00000 -2.67812e-13
  205 3274.57 0.00000 1.48853e-13
  206 3274.57 0.00000 1.94857e-13
  207 3274.57 0.00000 -2.13567e-13
  208 3274.57 0.00000 6.70742e-13
  209 3274.57 0.00000 2.75700e-14
  210 3274.57 0.00000 -1.69774e-13
  211 3274.57 0.00000 2.73385e-13
  212 3274.57 0.00000 6.24902e-14
  213 3274.57 0.00000 -1.68186e-13
  214 3274.57 0.00000 -4.90191e-14
  215 3274.57 0.00000 2.16551e-13
  216 3274.57 0.00000 3.47458e-13
  217 3274.57 0.00000 -1.33981e-13
  218 3274.57 0.00000 -1.57311e-13
  219 3274.57 0.00000 -4.98516e-13
  220 3274.57 0.00000 5.33034e-14
  221 3274.57 0.00000 -2.89855e-13
  222 3274.57 0.00000 1.07457e-13
  223 3274.57 0.00000 1.12620e-13
  224 3274.57 0.00000 1.56433e-13
  225 3274.57 0.00000 1.45278e-13
  226 3274.57 0.00000 -1.79904e-14
  227 3274.57 0.00000 -6.46799e-13
  228 3274.57 0.00000 3.54349e-14
  229 3274.57 0.00000 -3.20512e-13
  230 3274.57 0.00000 -4.94959e-13
  231 3274.57 0.00000 -4.22494e-13
  232 3274.57 0.00000 3.27724e-13
  233 3274.57 0.00000 -2.76267e-13
  234 3274.57 0.00000 5.34248e-13
  235 3274.57 0.00000 -2.62295e-13
  236 3274.57 0.00000 3.22409e-13
  237 3274.57 0.00000 8.58425e-13
  238 3274.57 0.00000 -4.34006e-13
  239 3274.57 0.00000 3.40153e-13
  240 3274.57 0.00000 -8.65358e-14
  241 3274.57 0.00000 6.01763e-13
</Section>

newXOutput 72

<Section columns = "stress_xx | stress_yy | stress_xy">
  1 3321.67 0.00000 2.84217e-14
  2 3321.67 0.00000 -1.13118e-12
  3 3321.67 0.00000 7.58411e-13
  4 3321.67 0.00000 -1.61793e-13
  5 3321.67 0.00000 2.18965e-13
  6 3321.67 0.00000 3.44409e-13
  7 3321.67 0.00000 1.52436e-13
  8 3321.67 0.00000 1.88530e-13
  9 3321.67 0.00000 6.00239e-14
  10 3321.67 0.00000 6.85638e-13
  11 3321.67 0.00000 3.74523e-13
  12 3321.67 0.00000 -6.23922e-13
  13 3321.67 0.00000 -7.51371e-13
  14 3321.67 0.00000 -5.79463e-13
  15 3321.67 0.00000 -1.16034e-13
  16 3321.67 0.00000 9.37575e-13
  17 3321.67 0.00000 1.90222e-13
  18 3321.67 0.00000 4.21520e-13
  19 3321.67 0.00000 8.77551e-13
  20 3321.67 0.00000 5.95027e-13
  21 3321.67 0.00000 5.12672e-13
  22 3321.67 0.00000 -2.57012e-13
  23 3321.67 0.00000 -1.42419e-12
  24 3321.67 0.00000 -1.89478e-14
  25 3321.67 0.00000 5.13822e-13
  26 3321.67 0.00000 -1.94574e-13
  27 3321.67 0.00000 1.19120e-12
  28 3321.67 0.00000 -1.44627e-13
  29 3321.67 0.00000 1.14245e-13
  30 3321.67 0.00000 3.00480e-13
  31 3321.67 0.00000 2.15604e-13
  32 3321.67 0.00000 3.08472e-14
  33 3321.67 0.00000 -3.05949e-14
  34 3321.67 0.00000 6.44375e-13
  35 3321.67 0.00000 1.91898e-13
  36 3321.67 0.00000 -6.08803e-13
  37 3321.67 0.00000 -9.42254e-13
  38 3321.67 0.00000 -4.55144e-13
  39 3321.67 0.00000 -2.76005e-13
  40 3321.67 0.00000 1.77527e-14
  41 3321.67 0.00000 -2.58059e-13
  42 3321.67 0.00000 -6.59463e-14
  43 3321.67 0.00000 -4.93596e-13
  44 3321.67 0.00000 9.51334e-14
  45 3321.67 0.00000 -1.68232e-14
  46 3321.67 0.00000 -4.20932e-13
  47 3321.67 0.00000 1.29560e-13
  48 3321.67 0.00000 -1.75963e-13
  49 3321.67 0.00000 -1.66046e-13
  50 3321.67 0.00000 1.42531e-14
  51 3321.67 0.00000 1.91337e-14
  52 3321.67 0.00000 -4.74461e-14
  53 3321.67 0.00000 3.12807e-14
  54 3321.67 0.00000 -6.97472e-14
  55 3321.67 0.00000 0.00000
  56 3321.67 0.00000 -3.21266e-14
  57 3321.67 0.00000 8.61954e-14
  58 3321.67 0.00000 2.74574e-14
  59 3321.67 0.00000 -2.74163e-13
  60 3321.67 0.00000 4.16464e-13
  61 3321.67 0.00000 3.85862e-13
  62 3321.67 0.00000 -2.08154e-13
  63 3321.67 0.00000 -6.67501e-14
  64 3321.67 0.00000 1.15257e-12
  65 3321.67 0.00000 -1.01211e-13
  66 3321.67 0.00000 -1.01662e-13
  67 3321.67 0.00000 3.74761e-13
  68 3321.67 0.00000 2.27783e-13
  69 3321.67 0.00000 2.14755e-13
  70 3321.67 0.00000 2.33574e-13
  71 3321.67 0.00000 2.27849e-13
  72 3321.67 0.00000 1.98277e-13
  73 3321.67 0.00000 -1.88688e-13
  74 3321.67 0.00000 -8.18627e-14
  75 3321.67 0.00000 1.42494e-13
  76 3321.67 0.00000 3.77619e-13
  77 3321.67 0.00000 -1.40725e-13
  78 3321.67 0.00000 4.03790e-13
  79 3321.67 0.00000 -4.25092e-13
  80 3321.67 0.00000 2.91229e-13
  81 3321.67 0.00000 -5.78253e-13
  82 3321.67 0.00000 -3.00682e-13
  83 3321.67 0.00000 2.38391e-13
  84 3321.67 0.00000 1.89089e-13
  85 3321.67 0.00000 -2.84910e-13
  86 3321.67 0.00000 5.46491e-13
  87 3321.67 0.00000 -1.04816e-13
  88 3321.67 0.00000 -7.16422e-13
  89 3321.67 0.00000 4.57522e-13
  90 3321.67 0.00000 -4.42269e-13
  91 3321.67 0.00000 -9.01392e-13
  92 3321.67 0.00000 8.30190e-14
  93 3321.67 0.00000 -4.72164e-13
  94 3321.67 0.00000 1.12220e-13
  95 3321.67 0.00000 6.96405e-14
  96 3321.67 0.00000 7.41170e-13
  97 3321.67 0.00000 -8.97106e-14
  98 3321.67 0.00000 1.32336e-13
  99 3321.67 0.00000 -4.72680e-14
  100 3321.67 0.00000 3.70273e-13
  101 3321.67 0.00000 2.09914e-13
  102 3321.67 0.00000 5.06701e-13
  103 3321.67 0.00000 4.87057e-14
  104 3321.67 0.00000 3.30859e-14
  105 3321.67 0.00000 8.86044e-14
  106 3321.67 0.00000 1.50351e-13
  107 3321.67 0.00000 -5.55736e-13
  108 3321.67 0.00000 6.46517e-14
  109 3321.67 0.00000 -2.71843e-13
  110 3321.67 0.00000 4.41294e-14
  111 3321.67 0.00000 -4.82318e-14
  112 3321.67 0.00000 -1.32698e-13
  113 3321.67 0.00000 -3.46979e-13
  114 3321.67 0.00000 -1.13492e-13
  115 3321.67 0.00000 6.84741e-13
  116 3321.67 0.00000 2.45928e-13
  117 3321.67 0.00000 4.92723e-13
  118 3321.67 0.00000 -1.67188e-13
  119 3321.67 0.00000 -9.58510e-15
  120 3321.67 0.00000 3.58529e-13
  121 3321.67 0.00000 3.57369e-13
  122 3321.67 0.00000 -7.45089e-14
  123 3321.67 0.00000 1.39527e-13
  124 3321.67 0.00000 -2.69992e-13
  125 3321.67 0.00000 -1.40012e-13
  126 3321.67 0.00000 1.14874e-13
  127 3321.67 0.00000 3.05819e-13
  128 3321.67 0.00000 4.97556e-13
  129 3321.67 0.00000 -1.40920e-13
  130 3321.67 0.00000 -1.11174e-13
  131 3321.67 0.00000 -2.32852e-13
  132 3321.67 0.00000 -5.66235e-14
  133 3321.67 0.00000 4.61271e-13
  134 3321.67 0.00000 1.97371e-13
  135 3321.67 0.00000 2.52318e-14
  136 3321.67 0.00000 -1.24619e-13
  137 3321.67 0.00000 1.63063e-13
  138 3321.67 0.00000 -6.83967e-13
  139 3321.67 0.00000 -1.77778e-13
  140 3321.67 0.00000 2.01815e-13
  141 3321.67 0.00000 2.78722e-13
  142 3321.67 0.00000 6.93635e-15
  143 3321.67 0.00000 6.65371e-14
  144 3321.67 0.00000 3.26958e-14
  145 3321.67 0.00000 -3.56006e-13
  146 3321.67 0.00000 -3.35460e-13
  147 3321.67 0.00000 -1.72691e-15
  148 3321.67 0.00000 -2.34226e-14
  149 3321.67 0.00000 1.07227e-12
  150 3321.67 0.00000 2.98322e-13
  151 3321.67 0.00000 5.30156e-13
  152 3321.67 0.00000 2.16643e-13
  153 3321.67 0.00000 1.21015e-12
  154 3321.67 0.00000 -2.75766e-13
  155 3321.67 0.00000 -1.64090e-13
  156 3321.67 0.00000 -1.64976e-13
  157 3321.67 0.00000 7.99013e-14
  158 3321.67 0.00000 -6.31899e-13
  159 3321.67 0.00000 4.19448e-13
  160 3321.67 0.00000 6.16545e-14
  161 3321.67 0.00000 7.24061e-13
  162 3321.67 0.00000 -5.41153e-13
  163 3321.67 0.00000 -5.83364e-14
  164 3321.67 0.00000 -8.26440e-14
  165 3321.67 0.00000 2.45316e-13
  166 3321.67 0.00000 5.39657e-14
  167 3321.67 0.00000 -5.14074e-15
  168 3321.67 0.00000 1.69702e-13
  169 3321.67 0.00000 1.01995e-13
  170 3321.67 0.00000 6.65868e-13
  171 3321.67 0.00000 -2.35298e-13
  172 3321.67 0.00000 -3.90840e-13
  173 3321.67 0.00000 -5.12054e-13
  174 3321.67 0.00000 -3.86399e-13
  175 3321.67 0.00000 -4.93621e-14
  176 3321.67 0.00000 1.35020e-13
  177 3321.67 0.00000 -1.48192e-13
  178 3321.67 0.00000 7.41852e-15
  179 3321.67 0.00000 2.83465e-13
  180 3321.67 0.00000 -1.93695e-13
  181 3321.67 0.00000 1.66764e-14
  182 3321.67 0.00000 -9.64737e-13
  183 3321.67 0.00000 -7.36298e-14
  184 3321.67 0.00000 8.26318e-13
  185 3321.67 0.00000 3.21348e-13
  186 3321.67 0.00000 -1.87593e-13
  187 3321.67 0.00000 -6.42810e-13
  188 3321.67 0.00000 -4.92608e-13
  189 3321.67 0.00000 6.21596e-13
  190 3321.67 0.00000 -1.59360e-13
  191 3321.67 0.00000 -5.95124e-13
  192 3321.67 0.00000 -5.41954e-13
  193 3321.67 0.00000 3.13319e-13
  194 3321.67 0.00000 -4.11775e-14
  195 3321.67 0.00000 1.25304e-13
  196 3321.67 0.00000 1.18409e-13
  197 3321.67 0.00000 5.90000e-15
  198 3321.67 0.00000 5.76654e-13
  199 3321.67 0.00000 4.59017e-14
  200 3321.67 0.00000 -1.87185e-13
  201 3321.67 0.00000 2.83670e-13
  202 3321.67 0.00000 3.43079e-15
  203 3321.67 0.00000 6.58689e-14
  204 3321.67 0.00000 -2.98035e-14
  205 3321.67 0.00000 1.29348e-13
  206 3321.67 0.00000 1.15514e-12
  207 3321.67 0.00000 -2.50517e-13
  208 3321.67 0.00000 1.42158e-13
  209 3321.67 0.00000 -5.05752e-13
  210 3321.67 0.00000 4.99166e-14
  211 3321.67 0.00000 2.46231e-13
  212 3321.67 0.00000 -6.48155e-13
  213 3321.67 0.00000 -2.39283e-13
  214 3321.67 0.00000 -1.41177e-13
  215 3321.67 0.00000 8.19017e-15
  216 3321.67 0.00000 -5.52153e-14
  217 3321.67 0.00000 -8.69672e-13
  218 3321.67 0.00000 1.67326e-14
  219 3321.67 0.00000 -9.21429e-13
  220 3321.67 0.00000 1.10641e-14
  221 3321.67 0.00000 6.63886e-13
  222 3321.67 0.00000 -6.71977e-13
  223 3321.67 0.00000 3.55585e-13
  224 3321.67 0.00000 4.73830e-14
  225 3321.67 0.00000 9.70243e-14
  226 3321.67 0.00000 1.74265e-13
  227 3321.67 0.00000 5.27602e-13
  228 3321.67 0.00000 -1.68295e-14
  229 3321.67 0.00000 -3.16256e-13
  230 3321.67 0.00000 5.18035e-13
  231 3321.67 0.00000 3.30341e-13
  232 3321.67 0.00000 2.18590e-13
  233 3321.67 0.00000 4.95715e-13
  234 3321.67 0.00000 3.43855e-15
  235 3321.67 0.00000 -5.64996e-13
  236 3321.67 0.00000 1.40294e-13
  237 3321.67 0.00000 -5.82691e-13
  238 3321.67 0.00000 1.27298e-13
  239 3321.67 0.00000 5.97734e-13
  240 3321.67 0.00000 -1.62024e-13
  241 3321.67 0.00000 -2.53257e-14
</Section>

newXOutput 73

<Section columns = "stress_xx | stress_yy | stress_xy">
  1 3368.81 0.00000 -1.41082e-13
  2 3368.81 0.00000 -1.51461e-28
  3 3368.81 0.00000 6.60455e-13
  4 3368.81 0.00000 -5.03871e-14
  5 3368.81 0.00000 -3.26184e-13
  6 3368.81 0.00000 -6.60308e-14
  7 3368.81 0.00000 1.07867e-13
  8 3368.81 0.00000 3.13515e-13
  9 3368.81 0.00000 1.88374e-13
  10 3368.81 0.00000 2.32395e-13
  11 3368.81 0.00000 -4.75754e-13
  12 3368.81 0.00000 -1.87843e-13
  13 3368.81 0.00000 4.37456e-13
  14 3368.81 0.00000 6.53695e-13
  15 3368.81 0.00000 4.00527e-13
  16 3368.81 0.00000 5.01623e-13
  17 3368.81 0.00000 8.41538e-13
  18 3368.81 0.00000 1.71991e-12
  19 3368.81 0.00000 1.62771e-13
  20 3368.81 0.00000 -1.33123e-13
  21 3368.81 0.00000 2.24677e-13
  22 3368.81 0.00000 8.33290e-13
  23 3368.81 0.00000 -5.28820e-13
  24 3368.81 0.00000 -1.61709e-13
  25 3368.81 0.00000 1.88905e-13
  26 3368.81 0.00000 -2.95003e-13
  27 3368.81 0.00000 -1.16679e-12
  28 3368.81 0.00000 -3.36150e-13
  29 3368.81 0.00000 1.32062e-13
  30 3368.81 0.00000 -2.98758e-13
  31 3368.81 0.00000 1.82172e-12
  32 3368.81 0.00000 5.70595e-13
  33 3368.81 0.00000 1.10795e-13
  34 3368.81 0.00000 -3.96689e-13
  35 3368.81 0.00000 -4.31534e-13
  36 3368.81 0.00000 -9.25289e-13
  37 3368.81 0.00000 -6.53562e-13
  38 3368.81 0.00000 -1.22451e-13
  39 3368.81 0.00000 1.53814e-13
  40 3368.81 0.00000 -6.06739e-14
  41 3368.81 0.00000 -3.80659e-14
  42 3368.81 0.00000 3.63113e-13
  43 3368.81 0.00000 -1.10665e-14
  44 3368.81 0.00000 -4.08387e-13
  45 3368.81 0.00000 -3.91147e-13
  46 3368.81 0.00000 -6.60881e-13
  47 3368.81 0.00000 -1.27673e-13
  48 3368.81 0.00000 -2.95508e-14
  49 3368.81 0.00000 9.57683e-15
  50 3368.81 0.00000 4.68997e-14
  51 3368.81 0.00000 0.00000
  52 3368.81 0.00000 -1.16789e-13
  53 3368.81 0.00000 -7.55047e-14
  54 3368.81 0.00000 -9.90542e-14
  55 3368.81 0.00000 0.00000
  56 3368.81 0.00000 -1.13124e-13
  57 3368.81 0.00000 -3.22734e-13
  58 3368.81 0.00000 1.01119e-13
  59 3368.81 0.00000 4.90759e-13
  60 3368.81 0.00000 3.38667e-13
  61 3368.81 0.00000 -2.14241e-13
  62 3368.81 0.00000 -1.04504e-13
  63 3368.81 0.00000 -7.18966e-13
  64 3368.81 0.00000 7.61511e-13
  65 3368.81 0.00000 1.97195e-14
  66 3368.81 0.00000 1.73345e-13
  67 3368.81 0.00000 -9.50294e-14
  68 3368.81 0.00000 7.72045e-14
  69 3368.81 0.00000 1.01058e-13
  70 3368.81 0.00000 -2.06493e-13
  71 3368.81 0.00000 2.40820e-13
  72 3368.81 0.00000 -1.10032e-13
  73 3368.81 0.00000 4.40048e-13
  74 3368.81 0.00000 7.26980e-14
  75 3368.81 0.00000 1.51503e-13
  76 3368.81 0.00000 2.68963e-13
  77 3368.81 0.00000 -3.25999e-14
  78 3368.81 0.00000 4.42640e-13
  79 3368.81 0.00000 -2.51428e-13
  80 3368.81 0.00000 1.91049e-13
  81 3368.81 0.00000 -6.85031e-13
  82 3368.81 0.00000 -1.22275e-13
  83 3368.81 0.00000 -6.65632e-13
  84 3368.81 0.00000 -1.81774e-13
  85 3368.81 0.00000 8.31013e-13
  86 3368.81 0.00000 3.31666e-13
  87 3368.81 0.00000 -1.31748e-13
  88 3368.81 0.00000 -1.27584e-12
  89 3368.81 0.00000 2.14770e-14
  90 3368.81 0.00000 6.21680e-13
  91 3368.81 0.00000 3.65327e-13
  92 3368.81 0.00000 -5.51080e-13
  93 3368.81 0.00000 3.24336e-13
  94 3368.81 0.00000 -3.60218e-13
  95 3368.81 0.00000 -2.77924e-13
  96 3368.81 0.00000 -7.59883e-13
  97 3368.81 0.00000 -5.71367e-14
  98 3368.81 0.00000 -1.76673e-13
  99 3368.81 0.00000 -8.28045e-14
  100 3368.81 0.00000 1.05105e-13
  101 3368.81 0.00000 5.30300e-13
  102 3368.81 0.00000 -8.00317e-13
  103 3368.81 0.00000 5.96928e-13
  104 3368.81 0.00000 -2.22129e-13
  105 3368.81 0.00000 -4.61170e-13
  106 3368.81 0.00000 4.13128e-13
  107 3368.81 0.00000 4.49165e-13
  108 3368.81 0.00000 -8.86428e-14
  109 3368.81 0.00000 -1.95637e-13
  110 3368.81 0.00000 2.13265e-13
  111 3368.81 0.00000 9.94582e-15
  112 3368.81 0.00000 -1.99613e-13
  113 3368.81 0.00000 -2.89316e-13
  114 3368.81 0.00000 -6.90577e-13
  115 3368.81 0.00000 1.08575e-13
  116 3368.81 0.00000 1.84501e-13
  117 3368.81 0.00000 1.14570e-12
  118 3368.81 0.00000 -8.17321e-15
  119 3368.81 0.00000 -1.03837e-13
  120 3368.81 0.00000 1.63482e-13
  121 3368.81 0.00000 -3.78569e-13
  122 3368.81 0.00000 1.51545e-13
  123 3368.81 0.00000 -1.56555e-13
  124 3368.81 0.00000 -1.43068e-13
  125 3368.81 0.00000 -4.16485e-13
  126 3368.81 0.00000 -8.61662e-14
  127 3368.81 0.00000 3.13009e-13
  128 3368.81 0.00000 5.23716e-13
  129 3368.81 0.00000 2.00812e-15
  130 3368.81 0.00000 -4.79552e-13
  131 3368.81 0.00000 3.70828e-13
  132 3368.81 0.00000 9.15531e-14
  133 3368.81 0.00000 3.98732e-13
  134 3368.81 0.00000 3.99507e-13
  135 3368.81 0.00000 4.26428e-13
  136 3368.81 0.00000 -1.90282e-13
  137 3368.81 0.00000 3.13656e-13
  138 3368.81 0.00000 -7.94280e-14
  139 3368.81 0.00000 6.92522e-14
  140 3368.81 0.00000 3.76750e-14
  141 3368.81 0.00000 -1.03545e-12
  142 3368.81 0.00000 -2.06260e-13
  143 3368.81 0.00000 -2.51102e-13
  144 3368.81 0.00000 7.43079e-13
  145 3368.81 0.00000 6.33043e-13
  146 3368.81 0.00000 1.48059e-13
  147 3368.81 0.00000 -1.02552e-13
  148 3368.81 0.00000 -4.06315e-14
  149 3368.81 0.00000 -1.76986e-12
  150 3368.81 0.00000 2.79109e-13
  151 3368.81 0.00000 -1.61847e-13
  152 3368.81 0.00000 1.14053e-13
  153 3368.81 0.00000 7.10441e-13
  154 3368.81 0.00000 3.77779e-13
  155 3368.81 0.00000 1.03434e-12
  156 3368.81 0.00000 6.39624e-13
  157 3368.81 0.00000 -2.02677e-13
  158 3368.81 0.00000 -2.25402e-13
  159 3368.81 0.00000 -1.39834e-12
  160 3368.81 0.00000 -7.68945e-14
  161 3368.81 0.00000 -7.00713e-13
  162 3368.81 0.00000 -2.68383e-13
  163 3368.81 0.00000 3.49965e-13
  164 3368.81 0.00000 -1.65988e-13
  165 3368.81 0.00000 -9.02695e-14
  166 3368.81 0.00000 1.10813e-14
  167 3368.81 0.00000 -7.58757e-13
  168 3368.81 0.00000 4.46197e-13
  169 3368.81 0.00000 -5.18410e-14
  170 3368.81 0.00000 -3.63605e-13
  171 3368.81 0.00000 4.49170e-13
  172 3368.81 0.00000 1.01639e-13
  173 3368.81 0.00000 2.31826e-13
  174 3368.81 0.00000 -1.76756e-13
  175 3368.81 0.00000 3.22531e-14
  176 3368.81 0.00000 -1.75634e-13
  177 3368.81 0.00000 -9.88430e-14
  178 3368.81 0.00000 -2.71263e-13
  179 3368.81 0.00000 2.06760e-13
  180 3368.81 0.00000 -2.06918e-13
  181 3368.81 0.00000 -1.10291e-12
  182 3368.81 0.00000 -6.22485e-13
  183 3368.81 0.00000 -5.56486e-13
  184 3368.81 0.00000 3.65008e-13
  185 3368.81 0.00000 8.62165e-14
  186 3368.81 0.00000 2.12665e-13
  187 3368.81 0.00000 -3.05346e-13
  188 3368.81 0.00000 6.33791e-13
  189 3368.81 0.00000 -4.90103e-13
  190 3368.81 0.00000 4.50400e-14
  191 3368.81 0.00000 1.11047e-14
  192 3368.81 0.00000 2.38888e-13
  193 3368.81 0.00000 -9.75859e-14
  194 3368.81 0.00000 -9.96695e-14
  195 3368.81 0.00000 -6.32992e-14
  196 3368.81 0.00000 1.08967e-12
  197 3368.81 0.00000 -4.78120e-14
  198 3368.81 0.00000 3.98759e-13
  199 3368.81 0.00000 -3.71259e-13
  200 3368.81 0.00000 3.37633e-13
  201 3368.81 0.00000 -3.16389e-13
  202 3368.81 0.00000 4.05999e-13
  203 3368.81 0.00000 3.64002e-13
  204 3368.81 0.00000 -1.16315e-13
  205 3368.81 0.00000 -1.08360e-13
  206 3368.81 0.00000 -3.24177e-13
  207 3368.81 0.00000 -3.07375e-13
  208 3368.81 0.00000 4.73794e-14
  209 3368.81 0.00000 1.02610e-13
  210 3368.81 0.00000 -2.26325e-13
  211 3368.81 0.00000 -1.58659e-13
  212 3368.81 0.00000 1.13412e-12
  213 3368.81 0.00000 -4.56578e-14
  214 3368.81 0.00000 6.50008e-13
  215 3368.81 0.00000 6.36730e-13
  216 3368.81 0.00000 -1.10075e-12
  217 3368.81 0.00000 1.22349e-12
  218 3368.81 0.00000 8.03341e-14
  219 3368.81 0.00000 3.76695e-13
  220 3368.81 0.00000 -3.69750e-13
  221 3368.81 0.00000 7.79218e-13
  222 3368.81 0.00000 7.15336e-13
  223 3368.81 0.00000 6.86647e-14
  224 3368.81 0.00000 1.66168e-13
  225 3368.81 0.00000 8.77698e-13
  226 3368.81 0.00000 2.48229e-13
  227 3368.81 0.00000 -1.74051e-13
  228 3368.81 0.00000 -5.29449e-13
  229 3368.81 0.00000 -8.19099e-14
  230 3368.81 0.00000 -2.84511e-13
  231 3368.81 0.00000 -8.68988e-13
  232 3368.81 0.00000 -4.07969e-13
  233 3368.81 0.00000 7.10966e-13
  234 3368.81 0.00000 -8.79843e-14
  235 3368.81 0.00000 1.24522e-13
  236 3368.81 0.00000 9.40454e-15
  237 3368.81 0.00000 -2.09155e-13
  238 3368.81 0.00000 -2.21186e-13
  239 3368.81 0.00000 -6.08546e-13
  240 3368.81 0.00000 8.23526e-13
  241 3368.81 0.00000 -9.39217e-14
</Section>

newXOutput 74

<Section columns = "stress_xx | stress_yy | stress_xy">
  1 3415.98 0.00000 -4.75536e-16
  2 3415.98 0.00000 7.54149e-13
  3 3415.98 0.00000 4.39900e-13
  4 3415.98 0.00000 -6.73704e-14
  5 3415.98 0.00000 -1.57431e-13
  6 3415.98 0.00000 -1.88062e-13
  7 3415.98 0.00000 1.42592e-13
  8 3415.98 0.00000 5.02766e-13
  9 3415.98 0.00000 5.65295e-13
  10 3415.98 0.00000 2.51383e-13
  11 3415.98 0.00000 4.63286e-13
  12 3415.98 0.00000 -8.17312e-13
  13 3415.98 0.00000 4.78476e-14
  14 3415.98 0.00000 2.51383e-13
  15 3415.98 0.00000 -4.24685e-13
  16 3415.98 0.00000 5.65295e-13
  17 3415.98 0.00000 -1.10723e-12
  18 3415.98 0.00000 2.55800e-13
  19 3415.98 0.00000 4.40238e-13
  20 3415.98 0.00000 -1.53040e-12
  21 3415.98 0.00000 -1.95169e-12
  22 3415.98 0.00000 2.45887e-12
  23 3415.98 0.00000 1.98010e-12
  24 3415.98 0.00000 1.87586e-13
  25 3415.98 0.00000 3.46751e-13
  26 3415.98 0.00000 -6.65632e-13
  27 3415.98 0.00000 1.19312e-12
  28 3415.98 0.00000 3.74463e-13
  29 3415.98 0.00000 3.69497e-14
  30 3415.98 0.00000 1.61237e-13
  31 3415.98 0.00000 7.58168e-13
  32 3415.98 0.00000 -2.69222e-13
  33 3415.98 0.00000 -3.11169e-13
  34 3415.98 0.00000 -2.60710e-13
  35 3415.98 0.00000 3.73298e-13
  36 3415.98 0.00000 1.38064e-12
  37 3415.98 0.00000 6.00639e-13
  38 3415.98 0.00000 5.79671e-13
  39 3415.98 0.00000 9.00442e-13
  40 3415.98 0.00000 6.49473e-13
  41 3415.98 0.00000 7.22929e-13
  42 3415.98 0.00000 1.95740e-13
  43 3415.98 0.00000 2.36817e-13
  44 3415.98 0.00000 4.30212e-13
  45 3415.98 0.00000 2.31226e-13
  46 3415.98 0.00000 -1.77761e-13
  47 3415.98 0.00000 7.02824e-14
  48 3415.98 0.00000 7.32297e-14
  49 3415.98 0.00000 -8.89721e-14
  50 3415.98 0.00000 1.00744e-13
  51 3415.98 0.00000 1.84749e-14
  52 3415.98 0.00000 -3.28368e-14
  53 3415.98 0.00000 7.48453e-14
  54 3415.98 0.00000 -4.68966e-14
  55 3415.98 0.00000 9.37931e-14
  56 3415.98 0.00000 5.84126e-15
  57 3415.98 0.00000 -4.44856e-13
  58 3415.98 0.00000 3.80567e-14
  59 3415.98 0.00000 1.62923e-13
  60 3415.98 0.00000 3.06873e-13
  61 3415.98 0.00000 -6.49737e-13
  62 3415.98 0.00000 2.86564e-13
  63 3415.98 0.00000 -3.97258e-13
  64 3415.98 0.00000 -3.89972e-14
  65 3415.98 0.00000 1.46032e-14
  66 3415.98 0.00000 4.14516e-14
  67 3415.98 0.00000 -2.86848e-13
  68 3415.98 0.00000 4.80049e-14
  69 3415.98 0.00000 1.89496e-14
  70 3415.98 0.00000 -3.46445e-13
  71 3415.98 0.00000 -3.18711e-13
  72 3415.98 0.00000 -1.06884e-13
  73 3415.98 0.00000 -1.63662e-13
  74 3415.98 0.00000 2.48060e-13
  75 3415.98 0.00000 -5.77835e-13
  76 3415.98 0.00000 4.19635e-13
  77 3415.98 0.00000 -1.47720e-13
  78 3415.98 0.00000 -6.01462e-13
  79 3415.98 0.00000 2.35585e-13
  80 3415.98 0.00000 -7.22920e-13
  81 3415.98 0.00000 6.21429e-13
  82 3415.98 0.00000 3.21100e-13
  83 3415.98 0.00000 -5.62582e-14
  84 3415.98 0.00000 -2.25960e-13
  85 3415.98 0.00000 3.34128e-13
  86 3415.98 0.00000 -3.24802e-13
  87 3415.98 0.00000 1.20943e-13
  88 3415.98 0.00000 -6.99102e-13
  89 3415.98 0.00000 1.59048e-13
  90 3415.98 0.00000 3.27371e-13
  91 3415.98 0.00000 3.62840e-13
  92 3415.98 0.00000 -4.17200e-13
  93 3415.98 0.00000 -3.97913e-13
  94 3415.98 0.00000 4.76452e-13
  95 3415.98 0.00000 -3.37547e-13
  96 3415.98 0.00000 -2.26514e-13
  97 3415.98 0.00000 3.68176e-13
  98 3415.98 0.00000 1.99596e-13
  99 3415.98 0.00000 6.63118e-13
  100 3415.98 0.00000 2.90006e-13
  101 3415.98 0.00000 8.41607e-14
  102 3415.98 0.00000 -5.87738e-13
  103 3415.98 0.00000 5.86223e-13
  104 3415.98 0.00000 1.08947e-14
  105 3415.98 0.00000 -7.93009e-14
  106 3415.98 0.00000 -3.82247e-13
  107 3415.98 0.00000 -2.72741e-13
  108 3415.98 0.00000 -1.36649e-13
  109 3415.98 0.00000 -1.81147e-13
  110 3415.98 0.00000 3.59825e-13
  111 3415.98 0.00000 -6.24900e-13
  112 3415.98 0.00000 -1.78372e-13
  113 3415.98 0.00000 6.83632e-13
  114 3415.98 0.00000 7.25491e-13
  115 3415.98 0.00000 2.92999e-13
  116 3415.98 0.00000 -5.58003e-14
  117 3415.98 0.00000 8.49729e-13
  118 3415.98 0.00000 9.41510e-14
  119 3415.98 0.00000 -1.26345e-13
  120 3415.98 0.00000 3.24712e-13
  121 3415.98 0.00000 -3.66149e-13
  122 3415.98 0.00000 -7.21763e-13
  123 3415.98 0.00000 -1.77340e-13
  124 3415.98 0.00000 4.97870e-13
  125 3415.98 0.00000 -9.34775e-14
  126 3415.98 0.00000 7.81465e-14
  127 3415.98 0.00000 9.61371e-13
  128 3415.98 0.00000 -2.05348e-13
  129 3415.98 0.00000 2.07273e-13
  130 3415.98 0.00000 -3.72535e-13
  131 3415.98 0.00000 4.02822e-13
  132 3415.98 0.00000 -3.61415e-13
  133 3415.98 0.00000 -7.06523e-14
  134 3415.98 0.00000 -1.79979e-13
  135 3415.98 0.00000 -1.68766e-13
  136 3415.98 0.00000 1.25635e-13
  137 3415.98 0.00000 -2.72231e-13
  138 3415.98 0.00000 1.46495e-13
  139 3415.98 0.00000 -1.47544e-13
  140 3415.98 0.00000 6.83504e-13
  141 3415.98 0.00000 -4.86624e-13
  142 3415.98 0.00000 5.02449e-13
  143 3415.98 0.00000 -6.35123e-14
  144 3415.98 0.00000 -7.23684e-13
  145 3415.98 0.00000 -5.75867e-13
  146 3415.98 0.00000 9.34124e-14
  147 3415.98 0.00000 8.17000e-14
  148 3415.98 0.00000 -8.82689e-14
  149 3415.98 0.00000 8.66654e-13
  150 3415.98 0.00000 1.61578e-14
  151 3415.98 0.00000 -3.66976e-13
  152 3415.98 0.00000 -5.34541e-13
  153 3415.98 0.00000 -2.75382e-13
  154 3415.98 0.00000 6.58708e-15
  155 3415.98 0.00000 -1.84721e-13
  156 3415.98 0.00000 2.93302e-13
  157 3415.98 0.00000 -2.05593e-13
  158 3415.98 0.00000 -4.98983e-13
  159 3415.98 0.00000 2.75382e-13
  160 3415.98 0.00000 -2.14613e-14
  161 3415.98 0.00000 1.22066e-12
  162 3415.98 0.00000 5.91840e-13
  163 3415.98 0.00000 -9.76713e-13
  164 3415.98 0.00000 -1.68918e-13
  165 3415.98 0.00000 -9.94987e-14
  166 3415.98 0.00000 -7.66392e-15
  167 3415.98 0.00000 -1.21851e-13
  168 3415.98 0.00000 -4.24071e-13
  169 3415.98 0.00000 -2.09279e-14
  170 3415.98 0.00000 -1.53093e-12
  171 3415.98 0.00000 2.10087e-13
  172 3415.98 0.00000 9.68723e-14
  173 3415.98 0.00000 5.35404e-13
  174 3415.98 0.00000 -3.56700e-13
  175 3415.98 0.00000 7.47837e-14
  176 3415.98 0.00000 -9.15066e-14
  177 3415.98 0.00000 3.05413e-13
  178 3415.98 0.00000 1.38913e-13
  179 3415.98 0.00000 1.51401e-13
  180 3415.98 0.00000 -3.31395e-13
  181 3415.98 0.00000 3.65348e-13
  182 3415.98 0.00000 7.48549e-13
  183 3415.98 0.00000 2.55389e-13
  184 3415.98 0.00000 -5.65422e-13
  185 3415.98 0.00000 1.20383e-13
  186 3415.98 0.00000 -5.27714e-13
  187 3415.98 0.00000 2.28156e-13
  188 3415.98 0.00000 4.14039e-13
  189 3415.98 0.00000 -7.57233e-13
  190 3415.98 0.00000 1.91531e-13
  191 3415.98 0.00000 5.44173e-13
  192 3415.98 0.00000 5.27849e-13
  193 3415.98 0.00000 1.22547e-12
  194 3415.98 0.00000 -6.08559e-13
  195 3415.98 0.00000 -1.07693e-13
  196 3415.98 0.00000 -2.55350e-13
  197 3415.98 0.00000 6.96943e-14
  198 3415.98 0.00000 3.57493e-13
  199 3415.98 0.00000 -3.16402e-13
  200 3415.98 0.00000 -1.57907e-14
  201 3415.98 0.00000 -1.62151e-13
  202 3415.98 0.00000 -7.24116e-13
  203 3415.98 0.00000 -2.67412e-13
  204 3415.98 0.00000 5.35017e-13
  205 3415.98 0.00000 -6.26873e-14
  206 3415.98 0.00000 -1.29493e-12
  207 3415.98 0.00000 -3.93142e-14
  208 3415.98 0.00000 -3.91419e-13
  209 3415.98 0.00000 -3.86065e-13
  210 3415.98 0.00000 1.17497e-13
  211 3415.98 0.00000 -9.41328e-14
  212 3415.98 0.00000 6.96736e-13
  213 3415.98 0.00000 1.34969e-13
  214 3415.98 0.00000 -5.41267e-13
  215 3415.98 0.00000 9.83614e-13
  216 3415.98 0.00000 2.39803e-13
  217 3415.98 0.00000 5.75921e-13
  218 3415.98 0.00000 2.84228e-13
  219 3415.98 0.00000 3.81830e-14
  220 3415.98 0.00000 1.06901e-13
  221 3415.98 0.00000 -5.76943e-13
  222 3415.98 0.00000 -3.78332e-13
  223 3415.98 0.00000 3.69537e-13
  224 3415.98 0.00000 1.38700e-13
  225 3415.98 0.00000 -4.83378e-13
  226 3415.98 0.00000 1.39556e-13
  227 3415.98 0.00000 -6.67954e-14
  228 3415.98 0.00000 -1.88918e-13
  229 3415.98 0.00000 -1.78768e-13
  230 3415.98 0.00000 -1.65876e-13
  231 3415.98 0.00000 2.70772e-13
  232 3415.98 0.00000 -2.97068e-13
  233 3415.98 0.00000 7.89967e-13
  234 3415.98 0.00000 -6.42651e-13
  235 3415.98 0.00000 1.15235e-13
  236 3415.98 0.00000 -6.09212e-14
  237 3415.98 0.00000 8.00110e-13
  238 3415.98 0.00000 -1.82763e-13
  239 3415.98 0.00000 1.37295e-13
  240 3415.98 0.00000 -7.46541e-14
  241 3415.98 0.00000 -2.45859e-13
</Section>

newXOutput 75

<Section columns = "stress_xx | stress_yy | stress_xy">
  1 3463.19 0.00000 1.86265e-13
  2 3463.19 0.00000 0.00000
  3 3463.19 0.00000 -9.10926e-13
  4 3463.19 0.00000 -9.99779e-14
  5 3463.19 0.00000 2.50157e-13
  6 3463.19 0.00000 4.72425e-13
  7 3463.19 0.00000 2.51776e-13
  8 3463.19 0.00000 6.47931e-14
  9 3463.19 0.00000 -4.13375e-14
  10 3463.19 0.00000 2.91659e-13
  11 3463.19 0.00000 7.09133e-13
  12 3463.19 0.00000 5.88398e-13
  13 3463.19 0.00000 1.94970e-14
  14 3463.19 0.00000 4.62418e-13
  15 3463.19 0.00000 -3.96208e-13
  16 3463.19 0.00000 -6.81576e-28
  17 3463.19 0.00000 -1.46731e-13
  18 3463.19 0.00000 -9.45751e-13
  19 3463.19 0.00000 -1.72582e-12
  20 3463.19 0.00000 -4.84972e-13
  21 3463.19 0.00000 3.72531e-13
  22 3463.19 0.00000 -1.21109e-12
  23 3463.19 0.00000 -1.35946e-12
  24 3463.19 0.00000 -6.20884e-14
  25 3463.19 0.00000 1.86265e-13
  26 3463.19 0.00000 6.64142e-13
  27 3463.19 0.00000 7.16346e-13
  28 3463.19 0.00000 -4.62000e-13
  29 3463.19 0.00000 -1.86265e-13
  30 3463.19 0.00000 -3.65726e-13
  31 3463.19 0.00000 -2.01546e-13
  32 3463.19 0.00000 9.68403e-13
  33 3463.19 0.00000 1.25982e-12
  34 3463.19 0.00000 2.36239e-14
  35 3463.19 0.00000 -4.49349e-13
  36 3463.19 0.00000 -2.43446e-13
  37 3463.19 0.00000 5.18434e-13
  38 3463.19 0.00000 7.08225e-13
  39 3463.19 0.00000 -4.00677e-13
  40 3463.19 0.00000 7.07685e-13
  41 3463.19 0.00000 4.13904e-13
  42 3463.19 0.00000 -8.65870e-14
  43 3463.19 0.00000 -2.54414e-13
  44 3463.19 0.00000 -7.13806e-13
  45 3463.19 0.00000 -4.29758e-15
  46 3463.19 0.00000 4.88562e-13
  47 3463.19 0.00000 3.57665e-13
  48 3463.19 0.00000 -5.65676e-14
  49 3463.19 0.00000 -1.59109e-13
  50 3463.19 0.00000 3.96988e-14
  51 3463.19 0.00000 -3.62892e-14
  52 3463.19 0.00000 5.24902e-14
  53 3463.19 0.00000 1.25980e-13
  54 3463.19 0.00000 -1.21991e-13
  55 3463.19 0.00000 2.50976e-13
  56 3463.19 0.00000 1.67768e-13
  57 3463.19 0.00000 -2.91136e-13
  58 3463.19 0.00000 -1.78582e-14
  59 3463.19 0.00000 5.47568e-13
  60 3463.19 0.00000 2.28359e-13
  61 3463.19 0.00000 -1.06010e-13
  62 3463.19 0.00000 -3.72101e-13
  63 3463.19 0.00000 1.52641e-13
  64 3463.19 0.00000 -1.13982e-12
  65 3463.19 0.00000 9.60353e-14
  66 3463.19 0.00000 -6.54095e-14
  67 3463.19 0.00000 -1.59048e-14
  68 3463.19 0.00000 -1.09077e-13
  69 3463.19 0.00000 -2.15907e-13
  70 3463.19 0.00000 -3.81584e-13
  71 3463.19 0.00000 1.05454e-13
  72 3463.19 0.00000 -2.41818e-13
  73 3463.19 0.00000 -1.22405e-13
  74 3463.19 0.00000 9.97016e-14
  75 3463.19 0.00000 -1.81983e-13
  76 3463.19 0.00000 -6.86571e-13
  77 3463.19 0.00000 2.08072e-13
  78 3463.19 0.00000 1.54236e-12
  79 3463.19 0.00000 -3.83176e-13
  80 3463.19 0.00000 8.29163e-13
  81 3463.19 0.00000 -8.77615e-13
  82 3463.19 0.00000 -3.47569e-13
  83 3463.19 0.00000 -3.89393e-13
  84 3463.19 0.00000 -2.35762e-13
  85 3463.19 0.00000 -3.43877e-14
  86 3463.19 0.00000 -4.65844e-13
  87 3463.19 0.00000 2.01355e-13
  88 3463.19 0.00000 -7.76349e-13
  89 3463.19 0.00000 8.08270e-15
  90 3463.19 0.00000 -4.73552e-13
  91 3463.19 0.00000 8.08596e-14
  92 3463.19 0.00000 -4.88049e-13
  93 3463.19 0.00000 -1.48914e-13
  94 3463.19 0.00000 2.65099e-13
  95 3463.19 0.00000 4.70534e-13
  96 3463.19 0.00000 -1.30802e-14
  97 3463.19 0.00000 -5.05297e-13
  98 3463.19 0.00000 -7.73265e-14
  99 3463.19 0.00000 -1.74349e-13
  100 3463.19 0.00000 1.53667e-14
  101 3463.19 0.00000 -5.72590e-13
  102 3463.19 0.00000 2.91637e-13
  103 3463.19 0.00000 -9.35970e-13
  104 3463.19 0.00000 3.65647e-13
  105 3463.19 0.00000 -6.98833e-13
  106 3463.19 0.00000 3.84197e-13
  107 3463.19 0.00000 1.13050e-12
  108 3463.19 0.00000 -1.82091e-14
  109 3463.19 0.00000 -2.23425e-13
  110 3463.19 0.00000 -7.06275e-13
  111 3463.19 0.00000 3.71115e-13
  112 3463.19 0.00000 -3.84291e-13
  113 3463.19 0.00000 3.68359e-14
  114 3463.19 0.00000 -2.06457e-13
  115 3463.19 0.00000 5.04853e-13
  116 3463.19 0.00000 -5.40943e-16
  117 3463.19 0.00000 -7.91169e-13
  118 3463.19 0.00000 2.64941e-13
  119 3463.19 0.00000 -7.56063e-13
  120 3463.19 0.00000 6.20060e-13
  121 3463.19 0.00000 -9.90987e-14
  122 3463.19 0.00000 -7.07544e-13
  123 3463.19 0.00000 -6.73109e-13
  124 3463.19 0.00000 -7.68155e-13
  125 3463.19 0.00000 -8.66252e-14
  126 3463.19 0.00000 -2.06534e-13
  127 3463.19 0.00000 -4.93450e-13
  128 3463.19 0.00000 -9.90211e-14
  129 3463.19 0.00000 -1.12663e-13
  130 3463.19 0.00000 -3.82542e-13
  131 3463.19 0.00000 -6.95350e-13
  132 3463.19 0.00000 -4.35977e-13
  133 3463.19 0.00000 -3.47298e-14
  134 3463.19 0.00000 4.76902e-14
  135 3463.19 0.00000 -7.86128e-13
  136 3463.19 0.00000 2.25850e-14
  137 3463.19 0.00000 -2.70373e-13
  138 3463.19 0.00000 -2.86171e-13
  139 3463.19 0.00000 1.85534e-13
  140 3463.19 0.00000 -8.91866e-13
  141 3463.19 0.00000 -4.20333e-13
  142 3463.19 0.00000 -3.85209e-13
  143 3463.19 0.00000 1.97255e-13
  144 3463.19 0.00000 -4.15745e-13
  145 3463.19 0.00000 4.62034e-13
  146 3463.19 0.00000 -2.07575e-13
  147 3463.19 0.00000 -3.69017e-13
  148 3463.19 0.00000 3.30070e-14
  149 3463.19 0.00000 3.02534e-13
  150 3463.19 0.00000 6.87775e-13
  151 3463.19 0.00000 -1.21911e-13
  152 3463.19 0.00000 1.72013e-13
  153 3463.19 0.00000 9.14416e-13
  154 3463.19 0.00000 1.00417e-12
  155 3463.19 0.00000 -4.03581e-13
  156 3463.19 0.00000 7.33235e-14
  157 3463.19 0.00000 -1.69124e-13
  158 3463.19 0.00000 2.39699e-13
  159 3463.19 0.00000 -3.43634e-13
  160 3463.19 0.00000 2.45516e-13
  161 3463.19 0.00000 1.16490e-12
  162 3463.19 0.00000 5.21525e-14
  163 3463.19 0.00000 6.23159e-13
  164 3463.19 0.00000 3.14493e-14
  165 3463.19 0.00000 -1.52197e-13
  166 3463.19 0.00000 4.48025e-14
  167 3463.19 0.00000 8.66524e-14
  168 3463.19 0.00000 -9.09575e-13
  169 3463.19 0.00000 3.62567e-14
  170 3463.19 0.00000 3.97364e-13
  171 3463.19 0.00000 -2.50958e-14
  172 3463.19 0.00000 -1.96321e-13
  173 3463.19 0.00000 -3.28228e-14
  174 3463.19 0.00000 -6.32260e-13
  175 3463.19 0.00000 5.20151e-14
  176 3463.19 0.00000 1.21202e-13
  177 3463.19 0.00000 -3.53256e-13
  178 3463.19 0.00000 -3.66471e-13
  179 3463.19 0.00000 -9.50259e-14
  180 3463.19 0.00000 -1.02921e-13
  181 3463.19 0.00000 -3.14010e-14
  182 3463.19 0.00000 3.73983e-13
  183 3463.19 0.00000 -1.21796e-13
  184 3463.19 0.00000 1.16087e-13
  185 3463.19 0.00000 -2.50063e-13
  186 3463.19 0.00000 -6.53998e-14
  187 3463.19 0.00000 2.83586e-13
  188 3463.19 0.00000 2.49638e-13
  189 3463.19 0.00000 -1.67440e-13
  190 3463.19 0.00000 4.21071e-13
  191 3463.19 0.00000 1.60405e-13
  192 3463.19 0.00000 4.00138e-13
  193 3463.19 0.00000 -3.74786e-13
  194 3463.19 0.00000 -1.10909e-13
  195 3463.19 0.00000 -9.75035e-14
  196 3463.19 0.00000 -6.88814e-13
  197 3463.19 0.00000 -6.32042e-14
  198 3463.19 0.00000 -2.33735e-14
  199 3463.19 0.00000 -4.40930e-13
  200 3463.19 0.00000 -1.74624e-13
  201 3463.19 0.00000 -7.84560e-13
  202 3463.19 0.00000 -7.70052e-13
  203 3463.19 0.00000 -4.61456e-13
  204 3463.19 0.00000 -1.40601e-13
  205 3463.19 0.00000 4.54169e-14
  206 3463.19 0.00000 2.79398e-13
  207 3463.19 0.00000 9.98440e-14
  208 3463.19 0.00000 3.41036e-13
  209 3463.19 0.00000 -9.14174e-13
  210 3463.19 0.00000 2.47558e-13
  211 3463.19 0.00000 8.17599e-14
  212 3463.19 0.00000 -1.18712e-12
  213 3463.19 0.00000 1.02498e-14
  214 3463.19 0.00000 -7.06088e-14
  215 3463.19 0.00000 -3.25812e-13
  216 3463.19 0.00000 -1.30537e-13
  217 3463.19 0.00000 -1.92313e-13
  218 3463.19 0.00000 1.52802e-14
  219 3463.19 0.00000 -8.05043e-13
  220 3463.19 0.00000 1.00021e-13
  221 3463.19 0.00000 1.48769e-12
  222 3463.19 0.00000 -2.85897e-13
  223 3463.19 0.00000 -2.10031e-13
  224 3463.19 0.00000 -4.75989e-14
  225 3463.19 0.00000 1.04059e-12
  226 3463.19 0.00000 1.85169e-13
  227 3463.19 0.00000 -1.09577e-14
  228 3463.19 0.00000 -4.35344e-13
  229 3463.19 0.00000 6.03876e-17
  230 3463.19 0.00000 -1.22162e-12
  231 3463.19 0.00000 -5.83147e-13
  232 3463.19 0.00000 -1.84173e-13
  233 3463.19 0.00000 -1.00420e-12
  234 3463.19 0.00000 2.56194e-13
  235 3463.19 0.00000 -1.63016e-13
  236 3463.19 0.00000 -5.68477e-14
  237 3463.19 0.00000 -6.18543e-13
  238 3463.19 0.00000 -1.86265e-14
  239 3463.19 0.00000 -1.96096e-13
  240 3463.19 0.00000 5.17687e-14
  241 3463.19 0.00000 -7.12739e-13
</Section>

newXOutput 76

<Section columns = "stress_xx | stress_yy | stress_xy">
  1 3510.45 0.00000 -1.42055e-13
  2 3510.45 0.00000 1.35873e-12
  3 3510.45 0.00000 -3.88634e-13
  4 3510.45 0.00000 3.37302e-13
  5 3510.45 0.00000 -6.46238e-14
  6 3510.45 0.00000 2.23233e-15
  7 3510.45 0.00000 4.95840e-14
  8 3510.45 0.00000 -1.93871e-13
  9 3510.45 0.00000 -2.55519e-13
  10 3510.45 0.00000 -7.60603e-13
  11 3510.45 0.00000 1.64506e-13
  12 3510.45 0.00000 2.51054e-13
  13 3510.45 0.00000 -2.53277e-14
  14 3510.45 0.00000 -1.48195e-13
  15 3510.45 0.00000 -7.97210e-13
  16 3510.45 0.00000 9.79315e-13
  17 3510.45 0.00000 9.23621e-13
  18 3510.45 0.00000 4.26995e-14
  19 3510.45 0.00000 5.05084e-13
  20 3510.45 0.00000 1.45361e-12
  21 3510.45 0.00000 -1.12162e-12
  22 3510.45 0.00000 -1.92784e-12
  23 3510.45 0.00000 1.79049e-13
  24 3510.45 0.00000 -3.31988e-13
  25 3510.45 0.00000 -1.56520e-13
  26 3510.45 0.00000 -1.29800e-13
  27 3510.45 0.00000 2.25425e-12
  28 3510.45 0.00000 -1.80533e-13
  29 3510.45 0.00000 1.10285e-13
  30 3510.45 0.00000 -1.17357e-13
  31 3510.45 0.00000 -8.04913e-14
  32 3510.45 0.00000 6.16889e-13
  33 3510.45 0.00000 -7.76206e-14
  34 3510.45 0.00000 -8.50688e-13
  35 3510.45 0.00000 -4.28994e-13
  36 3510.45 0.00000 -1.05978e-12
  37 3510.45 0.00000 -1.37570e-12
  38 3510.45 0.00000 -2.15793e-12
  39 3510.45 0.00000 -5.53777e-13
  40 3510.45 0.00000 -1.18572e-13
  41 3510.45 0.00000 9.81016e-14
  42 3510.45 0.00000 8.91149e-13
  43 3510.45 0.00000 7.14017e-13
  44 3510.45 0.00000 -1.23927e-13
  45 3510.45 0.00000 -2.51676e-13
  46 3510.45 0.00000 7.20796e-14
  47 3510.45 0.00000 3.08236e-13
  48 3510.45 0.00000 2.49910e-13
  49 3510.45 0.00000 4.75275e-13
  50 3510.45 0.00000 -8.87654e-14
  51 3510.45 0.00000 -3.56276e-14
  52 3510.45 0.00000 3.45480e-14
  53 3510.45 0.00000 -1.14395e-13
  54 3510.45 0.00000 -1.39823e-13
  55 3510.45 0.00000 -2.77413e-13
  56 3510.45 0.00000 -1.02115e-13
  57 3510.45 0.00000 -2.14571e-13
  58 3510.45 0.00000 2.71652e-13
  59 3510.45 0.00000 -2.98351e-14
  60 3510.45 0.00000 2.43053e-13
  61 3510.45 0.00000 -5.90795e-13
  62 3510.45 0.00000 4.65153e-13
  63 3510.45 0.00000 -1.52224e-13
  64 3510.45 0.00000 -4.14304e-13
  65 3510.45 0.00000 1.27770e-14
  66 3510.45 0.00000 -4.14567e-13
  67 3510.45 0.00000 -4.29510e-13
  68 3510.45 0.00000 -5.42800e-13
  69 3510.45 0.00000 5.77207e-14
  70 3510.45 0.00000 -5.13495e-14
  71 3510.45 0.00000 -2.46974e-13
  72 3510.45 0.00000 -3.23431e-13
  73 3510.45 0.00000 5.93365e-13
  74 3510.45 0.00000 2.17763e-13
  75 3510.45 0.00000 4.86866e-13
  76 3510.45 0.00000 9.91229e-13
  77 3510.45 0.00000 -2.44199e-14
  78 3510.45 0.00000 -1.54111e-13
  79 3510.45 0.00000 -2.02743e-13
  80 3510.45 0.00000 3.79723e-13
  81 3510.45 0.00000 -7.92904e-13
  82 3510.45 0.00000 1.22289e-12
  83 3510.45 0.00000 -3.39741e-13
  84 3510.45 0.00000 9.09828e-14
  85 3510.45 0.00000 -6.37100e-14
  86 3510.45 0.00000 -9.30455e-14
  87 3510.45 0.00000 1.34078e-13
  88 3510.45 0.00000 -6.27548e-13
  89 3510.45 0.00000 4.97420e-14
  90 3510.45 0.00000 -3.72053e-13
  91 3510.45 0.00000 7.13115e-14
  92 3510.45 0.00000 1.56819e-13
  93 3510.45 0.00000 8.61670e-13
  94 3510.45 0.00000 -7.66543e-13
  95 3510.45 0.00000 -2.42670e-13
  96 3510.45 0.00000 8.20796e-14
  97 3510.45 0.00000 4.43879e-13
  98 3510.45 0.00000 1.33712e-13
  99 3510.45 0.00000 1.84957e-13
  100 3510.45 0.00000 -4.23829e-13
  101 3510.45 0.00000 -5.35908e-13
  102 3510.45 0.00000 4.43640e-13
  103 3510.45 0.00000 -4.29886e-13
  104 3510.45 0.00000 7.90173e-13
  105 3510.45 0.00000 4.07987e-13
  106 3510.45 0.00000 -4.65354e-13
  107 3510.45 0.00000 8.15738e-13
  108 3510.45 0.00000 1.01474e-13
  109 3510.45 0.00000 -1.06518e-13
  110 3510.45 0.00000 -1.44445e-13
  111 3510.45 0.00000 -2.12808e-13
  112 3510.45 0.00000 -8.42135e-14
  113 3510.45 0.00000 4.28604e-13
  114 3510.45 0.00000 9.64348e-14
  115 3510.45 0.00000 2.55573e-13
  116 3510.45 0.00000 3.20205e-13
  117 3510.45 0.00000 -4.91728e-13
  118 3510.45 0.00000 1.42051e-13
  119 3510.45 0.00000 -7.06953e-14
  120 3510.45 0.00000 -3.24768e-13
  121 3510.45 0.00000 -3.60520e-13
  122 3510.45 0.00000 -1.62519e-13
  123 3510.45 0.00000 -2.96383e-13
  124 3510.45 0.00000 -5.07167e-13
  125 3510.45 0.00000 4.67825e-13
  126 3510.45 0.00000 1.32161e-13
  127 3510.45 0.00000 -3.60015e-13
  128 3510.45 0.00000 4.23933e-13
  129 3510.45 0.00000 2.29226e-14
  130 3510.45 0.00000 -2.18945e-13
  131 3510.45 0.00000 -3.93101e-13
  132 3510.45 0.00000 1.17443e-13
  133 3510.45 0.00000 -9.50222e-14
  134 3510.45 0.00000 -2.85566e-13
  135 3510.45 0.00000 2.61185e-13
  136 3510.45 0.00000 4.64335e-13
  137 3510.45 0.00000 1.70558e-13
  138 3510.45 0.00000 2.71956e-13
  139 3510.45 0.00000 -1.08039e-13
  140 3510.45 0.00000 4.00819e-14
  141 3510.45 0.00000 -2.81799e-13
  142 3510.45 0.00000 -4.11133e-13
  143 3510.45 0.00000 2.75435e-13
  144 3510.45 0.00000 2.77279e-13
  145 3510.45 0.00000 -6.75435e-13
  146 3510.45 0.00000 3.18552e-13
  147 3510.45 0.00000 2.23941e-13
  148 3510.45 0.00000 -1.76787e-13
  149 3510.45 0.00000 1.41996e-12
  150 3510.45 0.00000 -3.09303e-13
  151 3510.45 0.00000 -5.03611e-13
  152 3510.45 0.00000 -1.21089e-13
  153 3510.45 0.00000 3.84744e-13
  154 3510.45 0.00000 8.11113e-14
  155 3510.45 0.00000 -3.77329e-13
  156 3510.45 0.00000 6.94247e-13
  157 3510.45 0.00000 2.62099e-13
  158 3510.45 0.00000 -8.13359e-13
  159 3510.45 0.00000 1.81399e-13
  160 3510.45 0.00000 8.01845e-15
  161 3510.45 0.00000 1.94374e-12
  162 3510.45 0.00000 -2.93125e-14
  163 3510.45 0.00000 6.66058e-13
  164 3510.45 0.00000 -5.71412e-13
  165 3510.45 0.00000 -5.71931e-13
  166 3510.45 0.00000 -2.18292e-13
  167 3510.45 0.00000 -8.47559e-13
  168 3510.45 0.00000 4.24291e-13
  169 3510.45 0.00000 -1.06113e-13
  170 3510.45 0.00000 3.25815e-13
  171 3510.45 0.00000 -2.74702e-14
  172 3510.45 0.00000 -4.86704e-13
  173 3510.45 0.00000 -5.18218e-14
  174 3510.45 0.00000 4.37514e-13
  175 3510.45 0.00000 1.77518e-13
  176 3510.45 0.00000 1.05901e-14
  177 3510.45 0.00000 -4.14410e-13
  178 3510.45 0.00000 -2.30351e-13
  179 3510.45 0.00000 3.75242e-13
  180 3510.45 0.00000 -1.65538e-13
  181 3510.45 0.00000 -4.40844e-13
  182 3510.45 0.00000 -1.54143e-13
  183 3510.45 0.00000 2.02225e-13
  184 3510.45 0.00000 4.61684e-13
  185 3510.45 0.00000 -6.81917e-13
  186 3510.45 0.00000 -5.97208e-13
  187 3510.45 0.00000 -4.66963e-13
  188 3510.45 0.00000 3.35091e-14
  189 3510.45 0.00000 -1.68829e-13
  190 3510.45 0.00000 2.60569e-13
  191 3510.45 0.00000 3.11499e-13
  192 3510.45 0.00000 -2.90156e-13
  193 3510.45 0.00000 -8.11345e-13
  194 3510.45 0.00000 5.04828e-14
  195 3510.45 0.00000 9.33101e-15
  196 3510.45 0.00000 1.75977e-13
  197 3510.45 0.00000 -2.41914e-13
  198 3510.45 0.00000 -5.05084e-13
  199 3510.45 0.00000 2.26634e-13
  200 3510.45 0.00000 6.57100e-14
  201 3510.45 0.00000 1.05626e-13
  202 3510.45 0.00000 -2.98719e-14
  203 3510.45 0.00000 -6.29882e-13
  204 3510.45 0.00000 -7.69695e-13
  205 3510.45 0.00000 -4.11125e-13
  206 3510.45 0.00000 1.10835e-12
  207 3510.45 0.00000 1.90909e-13
  208 3510.45 0.00000 -3.47043e-13
  209 3510.45 0.00000 2.36014e-13
  210 3510.45 0.00000 7.75957e-14
  211 3510.45 0.00000 5.47540e-14
  212 3510.45 0.00000 2.77467e-13
  213 3510.45 0.00000 3.73069e-13
  214 3510.45 0.00000 -1.38935e-14
  215 3510.45 0.00000 1.28678e-13
  216 3510.45 0.00000 3.17295e-13
  217 3510.45 0.00000 6.29860e-13
  218 3510.45 0.00000 6.35634e-14
  219 3510.45 0.00000 -2.14159e-14
  220 3510.45 0.00000 4.78176e-13
  221 3510.45 0.00000 -1.48203e-13
  222 3510.45 0.00000 -5.85680e-13
  223 3510.45 0.00000 -5.34487e-13
  224 3510.45 0.00000 -1.13777e-14
  225 3510.45 0.00000 -4.22941e-13
  226 3510.45 0.00000 -3.39155e-13
  227 3510.45 0.00000 -6.31430e-14
  228 3510.45 0.00000 6.93436e-13
  229 3510.45 0.00000 -5.47399e-14
  230 3510.45 0.00000 2.06292e-13
  231 3510.45 0.00000 3.54962e-13
  232 3510.45 0.00000 3.09238e-13
  233 3510.45 0.00000 -6.39332e-13
  234 3510.45 0.00000 -2.42529e-13
  235 3510.45 0.00000 -4.75187e-14
  236 3510.45 0.00000 -2.98483e-13
  237 3510.45 0.00000 -2.51567e-13
  238 3510.45 0.00000 -2.73188e-13
  239 3510.45 0.00000 4.50484e-13
  240 3510.45 0.00000 -2.98586e-13
  241 3510.45 0.00000 1.47017e-13
</Section>

newXOutput 77

<Section columns = "stress_xx | stress_yy | stress_xy">
  1 3557.74 0.00000 2.37309e-13
  2 3557.74 0.00000 5.12387e-13
  3 3557.74 0.00000 -2.63287e-13
  4 3557.74 0.00000 -2.12443e-13
  5 3557.74 0.00000 -1.98387e-13
  6 3557.74 0.00000 -1.04728e-12
  7 3557.74 0.00000 -4.27157e-13
  8 3557.74 0.00000 1.34873e-13
  9 3557.74 0.00000 -2.82926e-13
  10 3557.74 0.00000 1.57975e-13
  11 3557.74 0.00000 -6.15954e-13
  12 3557.74 0.00000 -2.46899e-13
  13 3557.74 0.00000 4.59041e-14
  14 3557.74 0.00000 -2.19180e-13
  15 3557.74 0.00000 8.02179e-13
  16 3557.74 0.00000 -1.22411e-13
  17 3557.74 0.00000 -3.14335e-13
  18 3557.74 0.00000 1.49667e-13
  19 3557.74 0.00000 -9.24059e-13
  20 3557.74 0.00000 -9.15751e-13
  21 3557.74 0.00000 -2.02564e-13
  22 3557.74 0.00000 1.39027e-13
  23 3557.74 0.00000 1.25480e-12
  24 3557.74 0.00000 1.39027e-13
  25 3557.74 0.00000 9.18083e-14
  26 3557.74 0.00000 -1.56294e-13
  27 3557.74 0.00000 -2.69865e-13
  28 3557.74 0.00000 -6.54021e-13
  29 3557.74 0.00000 0.00000
  30 3557.74 0.00000 1.15118e-13
  31 3557.74 0.00000 -2.94255e-13
  32 3557.74 0.00000 -7.90517e-13
  33 3557.74 0.00000 7.69504e-14
  34 3557.74 0.00000 -7.90923e-13
  35 3557.74 0.00000 6.07556e-13
  36 3557.74 0.00000 1.35787e-12
  37 3557.74 0.00000 1.80060e-13
  38 3557.74 0.00000 5.02619e-13
  39 3557.74 0.00000 -7.00045e-13
  40 3557.74 0.00000 -6.04876e-13
  41 3557.74 0.00000 -7.92686e-13
  42 3557.74 0.00000 -6.10018e-13
  43 3557.74 0.00000 -1.62662e-13
  44 3557.74 0.00000 1.55267e-13
  45 3557.74 0.00000 1.00439e-13
  46 3557.74 0.00000 -5.13063e-14
  47 3557.74 0.00000 -3.62625e-13
  48 3557.74 0.00000 2.33140e-13
  49 3557.74 0.00000 -1.76539e-13
  50 3557.74 0.00000 3.10126e-14
  51 3557.74 0.00000 8.08690e-14
  52 3557.74 0.00000 -1.20998e-13
  53 3557.74 0.00000 1.47590e-13
  54 3557.74 0.00000 2.14829e-13
  55 3557.74 0.00000 0.00000
  56 3557.74 0.00000 -2.65414e-13
  57 3557.74 0.00000 9.83684e-14
  58 3557.74 0.00000 -6.19197e-13
  59 3557.74 0.00000 1.65753e-13
  60 3557.74 0.00000 -2.80617e-13
  61 3557.74 0.00000 3.90311e-13
  62 3557.74 0.00000 -7.61265e-13
  63 3557.74 0.00000 1.10638e-12
  64 3557.74 0.00000 1.00793e-12
  65 3557.74 0.00000 8.61813e-14
  66 3557.74 0.00000 7.94147e-13
  67 3557.74 0.00000 2.16483e-13
  68 3557.74 0.00000 -4.37572e-13
  69 3557.74 0.00000 -7.25593e-13
  70 3557.74 0.00000 3.54583e-13
  71 3557.74 0.00000 3.09946e-13
  72 3557.74 0.00000 -4.45814e-13
  73 3557.74 0.00000 -1.90130e-13
  74 3557.74 0.00000 2.00290e-13
  75 3557.74 0.00000 2.15686e-13
  76 3557.74 0.00000 3.06805e-13
  77 3557.74 0.00000 -1.72469e-13
  78 3557.74 0.00000 -5.80217e-13
  79 3557.74 0.00000 -6.30773e-14
  80 3557.74 0.00000 3.52626e-13
  81 3557.74 0.00000 1.20612e-12
  82 3557.74 0.00000 4.20435e-13
  83 3557.74 0.00000 1.51023e-13
  84 3557.74 0.00000 -7.23412e-14
  85 3557.74 0.00000 -1.03060e-13
  86 3557.74 0.00000 2.53869e-13
  87 3557.74 0.00000 -4.89082e-13
  88 3557.74 0.00000 -2.31931e-12
  89 3557.74 0.00000 -1.96224e-13
  90 3557.74 0.00000 5.24158e-13
  91 3557.74 0.00000 1.79851e-13
  92 3557.74 0.00000 -3.18386e-13
  93 3557.74 0.00000 -7.39308e-14
  94 3557.74 0.00000 -2.43426e-13
  95 3557.74 0.00000 9.09632e-13
  96 3557.74 0.00000 -4.19256e-13
  97 3557.74 0.00000 -4.89021e-13
  98 3557.74 0.00000 -5.08344e-13
  99 3557.74 0.00000 -2.64488e-14
  100 3557.74 0.00000 3.65314e-13
  101 3557.74 0.00000 -3.90382e-14
  102 3557.74 0.00000 4.36895e-13
  103 3557.74 0.00000 6.30430e-13
  104 3557.74 0.00000 -3.62597e-13
  105 3557.74 0.00000 1.14472e-12
  106 3557.74 0.00000 9.25732e-13
  107 3557.74 0.00000 4.40467e-13
  108 3557.74 0.00000 -2.58751e-13
  109 3557.74 0.00000 5.83282e-13
  110 3557.74 0.00000 -1.48652e-14
  111 3557.74 0.00000 -8.33095e-13
  112 3557.74 0.00000 -1.96573e-13
  113 3557.74 0.00000 -5.79942e-13
  114 3557.74 0.00000 2.20775e-13
  115 3557.74 0.00000 2.26554e-13
  116 3557.74 0.00000 9.49237e-14
  117 3557.74 0.00000 5.40987e-13
  118 3557.74 0.00000 -1.22196e-14
  119 3557.74 0.00000 1.78067e-13
  120 3557.74 0.00000 -2.87715e-13
  121 3557.74 0.00000 -2.27050e-13
  122 3557.74 0.00000 1.04975e-13
  123 3557.74 0.00000 -2.43420e-14
  124 3557.74 0.00000 -3.69841e-13
  125 3557.74 0.00000 -6.08962e-13
  126 3557.74 0.00000 5.54919e-14
  127 3557.74 0.00000 -3.83998e-13
  128 3557.74 0.00000 -4.15076e-13
  129 3557.74 0.00000 -6.47739e-14
  130 3557.74 0.00000 1.96512e-13
  131 3557.74 0.00000 -4.23204e-13
  132 3557.74 0.00000 3.37975e-13
  133 3557.74 0.00000 -1.43442e-15
  134 3557.74 0.00000 3.78155e-14
  135 3557.74 0.00000 -7.79934e-13
  136 3557.74 0.00000 -3.83645e-13
  137 3557.74 0.00000 -2.90533e-13
  138 3557.74 0.00000 -6.79682e-13
  139 3557.74 0.00000 2.25794e-13
  140 3557.74 0.00000 6.99881e-13
  141 3557.74 0.00000 3.81051e-13
  142 3557.74 0.00000 8.60551e-14
  143 3557.74 0.00000 -3.02963e-13
  144 3557.74 0.00000 9.38570e-13
  145 3557.74 0.00000 -4.53711e-14
  146 3557.74 0.00000 -8.75588e-14
  147 3557.74 0.00000 1.56523e-13
  148 3557.74 0.00000 6.03656e-14
  149 3557.74 0.00000 -2.32568e-13
  150 3557.74 0.00000 2.02832e-13
  151 3557.74 0.00000 1.28123e-13
  152 3557.74 0.00000 -2.32547e-13
  153 3557.74 0.00000 -4.33100e-13
  154 3557.74 0.00000 9.91707e-13
  155 3557.74 0.00000 -1.54254e-13
  156 3557.74 0.00000 6.77047e-13
  157 3557.74 0.00000 -3.38388e-13
  158 3557.74 0.00000 7.26389e-13
  159 3557.74 0.00000 1.85477e-13
  160 3557.74 0.00000 -6.99999e-15
  161 3557.74 0.00000 2.56112e-13
  162 3557.74 0.00000 -1.20839e-13
  163 3557.74 0.00000 5.37886e-13
  164 3557.74 0.00000 5.94441e-13
  165 3557.74 0.00000 3.49096e-13
  166 3557.74 0.00000 3.71101e-14
  167 3557.74 0.00000 6.49493e-14
  168 3557.74 0.00000 4.32874e-13
  169 3557.74 0.00000 -5.27263e-14
  170 3557.74 0.00000 -4.86618e-13
  171 3557.74 0.00000 9.93744e-14
  172 3557.74 0.00000 -2.40309e-13
  173 3557.74 0.00000 6.83012e-14
  174 3557.74 0.00000 2.98907e-13
  175 3557.74 0.00000 -3.68795e-13
  176 3557.74 0.00000 -3.67445e-14
  177 3557.74 0.00000 -1.57571e-12
  178 3557.74 0.00000 -1.45718e-13
  179 3557.74 0.00000 2.02309e-14
  180 3557.74 0.00000 3.81821e-13
  181 3557.74 0.00000 2.84561e-13
  182 3557.74 0.00000 -4.86159e-13
  183 3557.74 0.00000 6.82890e-13
  184 3557.74 0.00000 -1.46893e-13
  185 3557.74 0.00000 6.38430e-13
  186 3557.74 0.00000 3.26618e-13
  187 3557.74 0.00000 -1.47460e-12
  188 3557.74 0.00000 -5.54982e-13
  189 3557.74 0.00000 9.69319e-14
  190 3557.74 0.00000 3.28300e-13
  191 3557.74 0.00000 -4.99721e-14
  192 3557.74 0.00000 2.35079e-13
  193 3557.74 0.00000 3.90956e-13
  194 3557.74 0.00000 9.40929e-13
  195 3557.74 0.00000 9.76313e-14
  196 3557.74 0.00000 -1.57740e-13
  197 3557.74 0.00000 4.19246e-13
  198 3557.74 0.00000 1.19064e-13
  199 3557.74 0.00000 -3.04244e-13
  200 3557.74 0.00000 -1.26345e-13
  201 3557.74 0.00000 2.63278e-13
  202 3557.74 0.00000 6.49212e-13
  203 3557.74 0.00000 2.76220e-13
  204 3557.74 0.00000 -2.94230e-13
  205 3557.74 0.00000 4.56611e-13
  206 3557.74 0.00000 -6.18521e-13
  207 3557.74 0.00000 -8.27745e-14
  208 3557.74 0.00000 -5.31894e-14
  209 3557.74 0.00000 6.35201e-13
  210 3557.74 0.00000 -2.35125e-13
  211 3557.74 0.00000 -1.06704e-13
  212 3557.74 0.00000 -3.94935e-14
  213 3557.74 0.00000 -5.12794e-13
  214 3557.74 0.00000 7.48121e-14
  215 3557.74 0.00000 -3.08806e-13
  216 3557.74 0.00000 -1.76983e-13
  217 3557.74 0.00000 5.94691e-13
  218 3557.74 0.00000 -1.10060e-13
  219 3557.74 0.00000 4.37895e-13
  220 3557.74 0.00000 -6.23597e-14
  221 3557.74 0.00000 4.53796e-13
  222 3557.74 0.00000 -3.82003e-13
  223 3557.74 0.00000 -8.35551e-14
  224 3557.74 0.00000 6.19732e-13
  225 3557.74 0.00000 -2.95015e-13
  226 3557.74 0.00000 4.94330e-13
  227 3557.74 0.00000 -2.18373e-13
  228 3557.74 0.00000 -3.59603e-13
  229 3557.74 0.00000 2.96221e-13
  230 3557.74 0.00000 3.83849e-13
  231 3557.74 0.00000 -3.65709e-13
  232 3557.74 0.00000 -5.69425e-13
  233 3557.74 0.00000 -3.42309e-14
  234 3557.74 0.00000 4.30162e-13
  235 3557.74 0.00000 6.24934e-13
  236 3557.74 0.00000 3.31864e-13
  237 3557.74 0.00000 -7.83754e-13
  238 3557.74 0.00000 4.33776e-13
  239 3557.74 0.00000 1.24214e-12
  240 3557.74 0.00000 5.35311e-13
  241 3557.74 0.00000 8.23343e-14
</Section>

newXOutput 78

<Section columns = "stress_xx | stress_yy | stress_xy">
  1 3605.08 0.00000 -1.86291e-13
  2 3605.08 0.00000 -1.37076e-12
  3 3605.08 0.00000 -5.09161e-13
  4 3605.08 0.00000 2.90607e-13
  5 3605.08 0.00000 3.11818e-13
  6 3605.08 0.00000 1.04261e-12
  7 3605.08 0.00000 1.06682e-12
  8 3605.08 0.00000 6.28972e-13
  9 3605.08 0.00000 2.46971e-13
  10 3605.08 0.00000 1.39057e-13
  11 3605.08 0.00000 3.64793e-14
  12 3605.08 0.00000 -4.18151e-14
  13 3605.08 0.00000 -4.52373e-13
  14 3605.08 0.00000 -5.56014e-13
  15 3605.08 0.00000 -7.24234e-13
  16 3605.08 0.00000 9.95945e-13
  17 3605.08 0.00000 5.37066e-13
  18 3605.08 0.00000 -8.53076e-13
  19 3605.08 0.00000 -3.63053e-13
  20 3605.08 0.00000 2.64395e-13
  21 3605.08 0.00000 -3.03814e-13
  22 3605.08 0.00000 2.43923e-13
  23 3605.08 0.00000 -1.79653e-12
  24 3605.08 0.00000 -5.27918e-13
  25 3605.08 0.00000 0.00000
  26 3605.08 0.00000 -4.43860e-13
  27 3605.08 0.00000 5.36304e-13
  28 3605.08 0.00000 8.89106e-13
  29 3605.08 0.00000 1.25445e-13
  30 3605.08 0.00000 -2.93442e-13
  31 3605.08 0.00000 -7.76870e-13
  32 3605.08 0.00000 -1.86277e-12
  33 3605.08 0.00000 1.89401e-13
  34 3605.08 0.00000 -2.63620e-13
  35 3605.08 0.00000 -1.60485e-12
  36 3605.08 0.00000 -3.59439e-12
  37 3605.08 0.00000 -1.60910e-12
  38 3605.08 0.00000 -6.32377e-13
  39 3605.08 0.00000 1.95817e-12
  40 3605.08 0.00000 2.04622e-12
  41 3605.08 0.00000 9.12496e-13
  42 3605.08 0.00000 5.20422e-13
  43 3605.08 0.00000 4.32794e-14
  44 3605.08 0.00000 5.88100e-13
  45 3605.08 0.00000 6.78124e-13
  46 3605.08 0.00000 1.86664e-13
  47 3605.08 0.00000 5.81400e-14
  48 3605.08 0.00000 -4.21783e-13
  49 3605.08 0.00000 1.26142e-13
  50 3605.08 0.00000 -4.91387e-14
  51 3605.08 0.00000 0.00000
  52 3605.08 0.00000 -8.16045e-14
  53 3605.08 0.00000 1.37044e-13
  54 3605.08 0.00000 -2.31372e-13
  55 3605.08 0.00000 -6.27226e-14
  56 3605.08 0.00000 9.19068e-14
  57 3605.08 0.00000 -2.91714e-13
  58 3605.08 0.00000 1.46731e-14
  59 3605.08 0.00000 -1.11352e-13
  60 3605.08 0.00000 4.66900e-13
  61 3605.08 0.00000 2.24233e-13
  62 3605.08 0.00000 1.29822e-13
  63 3605.08 0.00000 -5.38368e-14
  64 3605.08 0.00000 -4.01969e-13
  65 3605.08 0.00000 -5.17262e-14
  66 3605.08 0.00000 -4.83490e-13
  67 3605.08 0.00000 -1.87999e-13
  68 3605.08 0.00000 3.49441e-13
  69 3605.08 0.00000 4.66588e-14
  70 3605.08 0.00000 -5.45157e-13
  71 3605.08 0.00000 -4.74350e-13
  72 3605.08 0.00000 6.41635e-14
  73 3605.08 0.00000 -6.33530e-13
  74 3605.08 0.00000 -1.32569e-13
  75 3605.08 0.00000 -1.27408e-14
  76 3605.08 0.00000 1.07884e-12
  77 3605.08 0.00000 -2.44535e-14
  78 3605.08 0.00000 2.94699e-14
  79 3605.08 0.00000 1.06271e-13
  80 3605.08 0.00000 -2.93061e-13
  81 3605.08 0.00000 -3.45970e-13
  82 3605.08 0.00000 -1.01816e-13
  83 3605.08 0.00000 -1.82670e-13
  84 3605.08 0.00000 -1.56522e-13
  85 3605.08 0.00000 3.74868e-13
  86 3605.08 0.00000 1.56982e-12
  87 3605.08 0.00000 4.03334e-13
  88 3605.08 0.00000 9.13375e-13
  89 3605.08 0.00000 3.14554e-13
  90 3605.08 0.00000 -6.01375e-13
  91 3605.08 0.00000 -9.82982e-14
  92 3605.08 0.00000 -1.50474e-13
  93 3605.08 0.00000 6.85902e-13
  94 3605.08 0.00000 1.05569e-12
  95 3605.08 0.00000 -3.03325e-13
  96 3605.08 0.00000 -4.69157e-13
  97 3605.08 0.00000 7.53852e-13
  98 3605.08 0.00000 4.92123e-13
  99 3605.08 0.00000 -5.58735e-13
  100 3605.08 0.00000 -5.21499e-13
  101 3605.08 0.00000 -2.92816e-13
  102 3605.08 0.00000 -1.53279e-12
  103 3605.08 0.00000 2.22294e-13
  104 3605.08 0.00000 9.96053e-14
  105 3605.08 0.00000 -8.63225e-13
  106 3605.08 0.00000 -1.33477e-13
  107 3605.08 0.00000 -3.79537e-13
  108 3605.08 0.00000 -1.89860e-13
  109 3605.08 0.00000 -4.11897e-13
  110 3605.08 0.00000 9.72435e-13
  111 3605.08 0.00000 4.45103e-13
  112 3605.08 0.00000 2.04942e-13
  113 3605.08 0.00000 1.96023e-13
  114 3605.08 0.00000 -4.32757e-13
  115 3605.08 0.00000 1.39874e-13
  116 3605.08 0.00000 4.34471e-13
  117 3605.08 0.00000 -8.30889e-13
  118 3605.08 0.00000 -1.63293e-13
  119 3605.08 0.00000 -1.35795e-13
  120 3605.08 0.00000 1.53378e-13
  121 3605.08 0.00000 -1.77861e-13
  122 3605.08 0.00000 1.10407e-13
  123 3605.08 0.00000 8.14562e-14
  124 3605.08 0.00000 5.27313e-13
  125 3605.08 0.00000 4.17388e-13
  126 3605.08 0.00000 2.28622e-14
  127 3605.08 0.00000 6.19810e-13
  128 3605.08 0.00000 1.66249e-12
  129 3605.08 0.00000 2.31190e-13
  130 3605.08 0.00000 -3.65257e-13
  131 3605.08 0.00000 -3.19781e-13
  132 3605.08 0.00000 -6.10871e-14
  133 3605.08 0.00000 -2.70210e-14
  134 3605.08 0.00000 -3.98005e-13
  135 3605.08 0.00000 9.56199e-13
  136 3605.08 0.00000 3.72846e-13
  137 3605.08 0.00000 4.04936e-13
  138 3605.08 0.00000 1.75292e-13
  139 3605.08 0.00000 -3.96318e-13
  140 3605.08 0.00000 -2.77645e-13
  141 3605.08 0.00000 9.69899e-14
  142 3605.08 0.00000 1.42106e-13
  143 3605.08 0.00000 -1.63534e-13
  144 3605.08 0.00000 -5.74565e-13
  145 3605.08 0.00000 4.96404e-14
  146 3605.08 0.00000 8.30058e-14
  147 3605.08 0.00000 6.72700e-13
  148 3605.08 0.00000 -1.15289e-14
  149 3605.08 0.00000 1.70762e-12
  150 3605.08 0.00000 6.02273e-13
  151 3605.08 0.00000 2.75769e-14
  152 3605.08 0.00000 -4.14628e-13
  153 3605.08 0.00000 3.69913e-13
  154 3605.08 0.00000 -3.73789e-13
  155 3605.08 0.00000 -2.11218e-14
  156 3605.08 0.00000 4.58989e-13
  157 3605.08 0.00000 -1.18180e-13
  158 3605.08 0.00000 -1.18765e-12
  159 3605.08 0.00000 -1.66390e-13
  160 3605.08 0.00000 1.73918e-13
  161 3605.08 0.00000 1.54994e-12
  162 3605.08 0.00000 1.75272e-13
  163 3605.08 0.00000 -6.62117e-13
  164 3605.08 0.00000 -9.43586e-13
  165 3605.08 0.00000 -7.37207e-13
  166 3605.08 0.00000 -1.37449e-13
  167 3605.08 0.00000 -3.72499e-13
  168 3605.08 0.00000 5.91213e-13
  169 3605.08 0.00000 7.94482e-14
  170 3605.08 0.00000 -7.11056e-13
  171 3605.08 0.00000 -3.31868e-13
  172 3605.08 0.00000 -1.05880e-12
  173 3605.08 0.00000 3.10678e-13
  174 3605.08 0.00000 -6.21730e-13
  175 3605.08 0.00000 2.80264e-13
  176 3605.08 0.00000 9.48604e-14
  177 3605.08 0.00000 -3.57631e-13
  178 3605.08 0.00000 -2.81573e-13
  179 3605.08 0.00000 6.23163e-13
  180 3605.08 0.00000 -4.08622e-13
  181 3605.08 0.00000 1.20055e-13
  182 3605.08 0.00000 2.00749e-14
  183 3605.08 0.00000 -2.74427e-13
  184 3605.08 0.00000 8.36437e-13
  185 3605.08 0.00000 -5.72708e-13
  186 3605.08 0.00000 -4.15785e-13
  187 3605.08 0.00000 -4.75061e-13
  188 3605.08 0.00000 -1.71998e-13
  189 3605.08 0.00000 1.52846e-13
  190 3605.08 0.00000 -3.68286e-16
  191 3605.08 0.00000 1.29911e-13
  192 3605.08 0.00000 2.96488e-13
  193 3605.08 0.00000 -1.71197e-12
  194 3605.08 0.00000 -1.81485e-13
  195 3605.08 0.00000 -8.25841e-14
  196 3605.08 0.00000 9.20152e-13
  197 3605.08 0.00000 -9.95497e-14
  198 3605.08 0.00000 1.33624e-12
  199 3605.08 0.00000 -3.75651e-13
  200 3605.08 0.00000 -3.42295e-13
  201 3605.08 0.00000 1.48527e-14
  202 3605.08 0.00000 7.25276e-15
  203 3605.08 0.00000 -9.60555e-13
  204 3605.08 0.00000 2.39090e-14
  205 3605.08 0.00000 -3.85506e-13
  206 3605.08 0.00000 5.97110e-13
  207 3605.08 0.00000 5.37898e-13
  208 3605.08 0.00000 1.93452e-13
  209 3605.08 0.00000 2.08192e-13
  210 3605.08 0.00000 1.73896e-13
  211 3605.08 0.00000 4.02298e-13
  212 3605.08 0.00000 4.10248e-13
  213 3605.08 0.00000 2.48699e-13
  214 3605.08 0.00000 1.85710e-13
  215 3605.08 0.00000 2.11430e-13
  216 3605.08 0.00000 -3.64063e-13
  217 3605.08 0.00000 -2.91972e-13
  218 3605.08 0.00000 -4.52928e-14
  219 3605.08 0.00000 5.13446e-13
  220 3605.08 0.00000 2.45148e-13
  221 3605.08 0.00000 -2.26200e-13
  222 3605.08 0.00000 5.47629e-13
  223 3605.08 0.00000 3.51945e-15
  224 3605.08 0.00000 -4.25439e-13
  225 3605.08 0.00000 2.37585e-12
  226 3605.08 0.00000 -3.89846e-13
  227 3605.08 0.00000 -7.74210e-13
  228 3605.08 0.00000 6.62772e-13
  229 3605.08 0.00000 -2.94743e-13
  230 3605.08 0.00000 6.92022e-13
  231 3605.08 0.00000 2.87089e-13
  232 3605.08 0.00000 -8.57259e-14
  233 3605.08 0.00000 1.22192e-12
  234 3605.08 0.00000 -5.17165e-13
  235 3605.08 0.00000 4.24954e-13
  236 3605.08 0.00000 -2.32802e-13
  237 3605.08 0.00000 -7.93756e-13
  238 3605.08 0.00000 2.34818e-13
  239 3605.08 0.00000 -3.31678e-13
  240 3605.08 0.00000 1.49032e-13
  241 3605.08 0.00000 1.74775e-13
</Section>

newXOutput 79

<Section columns = "stress_xx | stress_yy | stress_xy">
  1 3652.46 0.00000 1.43056e-13
  2 3652.46 0.00000 -1.80959e-13
  3 3652.46 0.00000 -7.80862e-13
  4 3652.46 0.00000 -2.66676e-13
  5 3652.46 0.00000 -3.17902e-14
  6 3652.46 0.00000 -5.72224e-13
  7 3652.46 0.00000 -3.21569e-13
  8 3652.46 0.00000 -1.27161e-13
  9 3652.46 0.00000 -1.14117e-13
  10 3652.46 0.00000 7.33634e-14
  11 3652.46 0.00000 2.54322e-13
  12 3652.46 0.00000 -4.73391e-13
  13 3652.46 0.00000 -7.03052e-13
  14 3652.46 0.00000 2.41278e-13
  15 3652.46 0.00000 2.13970e-14
  16 3652.46 0.00000 9.60632e-13
  17 3652.46 0.00000 -3.56013e-13
  18 3652.46 0.00000 -6.31089e-28
  19 3652.46 0.00000 -1.15321e-12
  20 3652.46 0.00000 -3.42969e-13
  21 3652.46 0.00000 -6.10335e-13
  22 3652.46 0.00000 6.96930e-13
  23 3652.46 0.00000 4.26519e-13
  24 3652.46 0.00000 -3.88005e-13
  25 3652.46 0.00000 2.71438e-13
  26 3652.46 0.00000 -2.12633e-13
  27 3652.46 0.00000 -9.46164e-13
  28 3652.46 0.00000 -1.85163e-13
  29 3652.46 0.00000 0.00000
  30 3652.46 0.00000 -8.61424e-13
  31 3652.46 0.00000 1.05661e-12
  32 3652.46 0.00000 1.94134e-12
  33 3652.46 0.00000 4.12206e-13
  34 3652.46 0.00000 1.62112e-12
  35 3652.46 0.00000 1.48831e-12
  36 3652.46 0.00000 1.71869e-13
  37 3652.46 0.00000 -9.39253e-13
  38 3652.46 0.00000 1.54662e-13
  39 3652.46 0.00000 -1.69628e-13
  40 3652.46 0.00000 1.98249e-13
  41 3652.46 0.00000 7.28437e-13
  42 3652.46 0.00000 3.33338e-14
  43 3652.46 0.00000 -5.23842e-13
  44 3652.46 0.00000 -9.63828e-13
  45 3652.46 0.00000 -2.79383e-13
  46 3652.46 0.00000 -1.64303e-14
  47 3652.46 0.00000 -2.63614e-13
  48 3652.46 0.00000 -2.95398e-13
  49 3652.46 0.00000 -4.51795e-13
  50 3652.46 0.00000 -9.57384e-16
  51 3652.46 0.00000 1.68179e-14
  52 3652.46 0.00000 7.85424e-14
  53 3652.46 0.00000 -8.74198e-14
  54 3652.46 0.00000 1.54598e-13
  55 3652.46 0.00000 0.00000
  56 3652.46 0.00000 1.03374e-14
  57 3652.46 0.00000 5.07933e-13
  58 3652.46 0.00000 -4.23313e-13
  59 3652.46 0.00000 -7.75979e-14
  60 3652.46 0.00000 -5.12444e-13
  61 3652.46 0.00000 8.25936e-13
  62 3652.46 0.00000 -5.22437e-13
  63 3652.46 0.00000 8.47638e-13
  64 3652.46 0.00000 5.62695e-13
  65 3652.46 0.00000 -4.37576e-13
  66 3652.46 0.00000 1.73214e-13
  67 3652.46 0.00000 -2.60103e-14
  68 3652.46 0.00000 4.35583e-13
  69 3652.46 0.00000 -3.58442e-13
  70 3652.46 0.00000 -1.11974e-13
  71 3652.46 0.00000 2.75372e-13
  72 3652.46 0.00000 4.34053e-13
  73 3652.46 0.00000 9.08600e-13
  74 3652.46 0.00000 -6.78972e-13
  75 3652.46 0.00000 -5.94970e-13
  76 3652.46 0.00000 -3.68858e-13
  77 3652.46 0.00000 1.84886e-13
  78 3652.46 0.00000 -6.52476e-13
  79 3652.46 0.00000 -1.71531e-13
  80 3652.46 0.00000 4.37421e-13
  81 3652.46 0.00000 -2.61506e-13
  82 3652.46 0.00000 2.95932e-13
  83 3652.46 0.00000 2.19014e-13
  84 3652.46 0.00000 1.12896e-13
  85 3652.46 0.00000 1.28480e-13
  86 3652.46 0.00000 -4.12870e-13
  87 3652.46 0.00000 -2.14109e-13
  88 3652.46 0.00000 -2.68241e-12
  89 3652.46 0.00000 -6.14414e-14
  90 3652.46 0.00000 3.36448e-13
  91 3652.46 0.00000 -2.15444e-13
  92 3652.46 0.00000 5.54557e-13
  93 3652.46 0.00000 3.30493e-13
  94 3652.46 0.00000 -4.51635e-13
  95 3652.46 0.00000 -6.00865e-13
  96 3652.46 0.00000 1.24285e-12
  97 3652.46 0.00000 -7.52941e-13
  98 3652.46 0.00000 -9.73190e-14
  99 3652.46 0.00000 7.10746e-13
  100 3652.46 0.00000 4.22687e-13
  101 3652.46 0.00000 6.31424e-13
  102 3652.46 0.00000 1.28216e-12
  103 3652.46 0.00000 3.67621e-13
  104 3652.46 0.00000 -1.74086e-13
  105 3652.46 0.00000 2.27062e-13
  106 3652.46 0.00000 8.66031e-13
  107 3652.46 0.00000 2.14148e-13
  108 3652.46 0.00000 8.46132e-14
  109 3652.46 0.00000 4.29722e-13
  110 3652.46 0.00000 2.79198e-13
  111 3652.46 0.00000 -1.29190e-12
  112 3652.46 0.00000 -3.65497e-13
  113 3652.46 0.00000 -4.39536e-13
  114 3652.46 0.00000 -9.18947e-14
  115 3652.46 0.00000 6.30402e-14
  116 3652.46 0.00000 2.88571e-14
  117 3652.46 0.00000 1.21547e-12
  118 3652.46 0.00000 -3.42335e-13
  119 3652.46 0.00000 3.67332e-13
  120 3652.46 0.00000 4.09128e-13
  121 3652.46 0.00000 5.17311e-13
  122 3652.46 0.00000 -6.71639e-13
  123 3652.46 0.00000 -3.51256e-13
  124 3652.46 0.00000 -2.40562e-13
  125 3652.46 0.00000 -2.79993e-13
  126 3652.46 0.00000 -7.02793e-14
  127 3652.46 0.00000 9.48635e-13
  128 3652.46 0.00000 -8.42288e-13
  129 3652.46 0.00000 -2.55251e-13
  130 3652.46 0.00000 -9.65425e-13
  131 3652.46 0.00000 -4.96723e-16
  132 3652.46 0.00000 -5.05314e-14
  133 3652.46 0.00000 -7.25414e-13
  134 3652.46 0.00000 3.38582e-13
  135 3652.46 0.00000 -1.30921e-13
  136 3652.46 0.00000 -2.51779e-13
  137 3652.46 0.00000 5.69855e-13
  138 3652.46 0.00000 -8.46061e-15
  139 3652.46 0.00000 4.19955e-13
  140 3652.46 0.00000 -3.84459e-13
  141 3652.46 0.00000 -6.34832e-14
  142 3652.46 0.00000 5.14708e-13
  143 3652.46 0.00000 1.78714e-13
  144 3652.46 0.00000 -1.38400e-13
  145 3652.46 0.00000 -4.23460e-13
  146 3652.46 0.00000 -6.51981e-13
  147 3652.46 0.00000 -3.55750e-13
  148 3652.46 0.00000 -1.83755e-13
  149 3652.46 0.00000 -6.11510e-13
  150 3652.46 0.00000 2.06641e-13
  151 3652.46 0.00000 6.83234e-13
  152 3652.46 0.00000 1.72088e-12
  153 3652.46 0.00000 7.33722e-13
  154 3652.46 0.00000 8.90557e-13
  155 3652.46 0.00000 -8.98323e-14
  156 3652.46 0.00000 4.39466e-13
  157 3652.46 0.00000 1.91746e-13
  158 3652.46 0.00000 -4.59658e-13
  159 3652.46 0.00000 -3.28850e-15
  160 3652.46 0.00000 -5.33052e-14
  161 3652.46 0.00000 -1.47097e-13
  162 3652.46 0.00000 1.98655e-14
  163 3652.46 0.00000 1.94339e-13
  164 3652.46 0.00000 9.41635e-13
  165 3652.46 0.00000 4.09998e-13
  166 3652.46 0.00000 -7.95460e-14
  167 3652.46 0.00000 -6.05872e-13
  168 3652.46 0.00000 -5.46409e-13
  169 3652.46 0.00000 1.40063e-13
  170 3652.46 0.00000 -5.66180e-14
  171 3652.46 0.00000 5.56239e-13
  172 3652.46 0.00000 1.62160e-13
  173 3652.46 0.00000 -6.00211e-13
  174 3652.46 0.00000 -6.20524e-13
  175 3652.46 0.00000 -2.30543e-13
  176 3652.46 0.00000 -3.76252e-14
  177 3652.46 0.00000 -1.69440e-12
  178 3652.46 0.00000 2.32086e-13
  179 3652.46 0.00000 -2.10307e-14
  180 3652.46 0.00000 4.95283e-13
  181 3652.46 0.00000 1.23165e-13
  182 3652.46 0.00000 -5.73551e-14
  183 3652.46 0.00000 -3.38252e-13
  184 3652.46 0.00000 2.14091e-13
  185 3652.46 0.00000 2.37712e-13
  186 3652.46 0.00000 -9.18284e-14
  187 3652.46 0.00000 -8.24410e-13
  188 3652.46 0.00000 -6.85690e-14
  189 3652.46 0.00000 7.60156e-13
  190 3652.46 0.00000 -2.93667e-13
  191 3652.46 0.00000 -7.06155e-14
  192 3652.46 0.00000 6.77372e-13
  193 3652.46 0.00000 8.25142e-13
  194 3652.46 0.00000 3.62938e-13
  195 3652.46 0.00000 -2.05462e-13
  196 3652.46 0.00000 -1.73284e-13
  197 3652.46 0.00000 3.11126e-13
  198 3652.46 0.00000 -7.19762e-13
  199 3652.46 0.00000 5.75031e-13
  200 3652.46 0.00000 -1.02442e-12
  201 3652.46 0.00000 4.24229e-14
  202 3652.46 0.00000 -1.43668e-13
  203 3652.46 0.00000 8.39616e-14
  204 3652.46 0.00000 9.35960e-13
  205 3652.46 0.00000 8.91757e-13
  206 3652.46 0.00000 -6.82756e-13
  207 3652.46 0.00000 -9.65354e-14
  208 3652.46 0.00000 5.04736e-13
  209 3652.46 0.00000 9.74041e-14
  210 3652.46 0.00000 -3.45709e-13
  211 3652.46 0.00000 -6.39293e-14
  212 3652.46 0.00000 8.89634e-13
  213 3652.46 0.00000 -3.59361e-13
  214 3652.46 0.00000 -1.05790e-13
  215 3652.46 0.00000 -8.28946e-14
  216 3652.46 0.00000 -7.64108e-13
  217 3652.46 0.00000 -1.54573e-13
  218 3652.46 0.00000 -5.97580e-13
  219 3652.46 0.00000 5.74544e-13
  220 3652.46 0.00000 3.02537e-14
  221 3652.46 0.00000 9.23090e-13
  222 3652.46 0.00000 1.39969e-12
  223 3652.46 0.00000 6.38984e-13
  224 3652.46 0.00000 8.16168e-14
  225 3652.46 0.00000 -2.12105e-13
  226 3652.46 0.00000 3.72909e-14
  227 3652.46 0.00000 8.20940e-13
  228 3652.46 0.00000 -3.53184e-13
  229 3652.46 0.00000 3.21880e-13
  230 3652.46 0.00000 -4.41399e-13
  231 3652.46 0.00000 1.44792e-12
  232 3652.46 0.00000 1.03505e-13
  233 3652.46 0.00000 1.57606e-12
  234 3652.46 0.00000 -3.73318e-13
  235 3652.46 0.00000 1.02736e-13
  236 3652.46 0.00000 2.19780e-13
  237 3652.46 0.00000 8.25278e-13
  238 3652.46 0.00000 1.15415e-13
  239 3652.46 0.00000 1.86718e-13
  240 3652.46 0.00000 2.33045e-13
  241 3652.46 0.00000 4.05833e-13
</Section>

newXOutput 80

<Section columns = "stress_xx | stress_yy | stress_xy">
  1 3699.89 0.00000 -4.60634e-13
  2 3699.89 0.00000 3.30830e-13
  3 3699.89 0.00000 1.70126e-13
  4 3699.89 0.00000 1.30923e-13
  5 3699.89 0.00000 -1.23607e-13
  6 3699.89 0.00000 5.73584e-13
  7 3699.89 0.00000 8.52200e-13
  8 3699.89 0.00000 7.61256e-13
  9 3699.89 0.00000 -3.14802e-13
  10 3699.89 0.00000 -6.48551e-13
  11 3699.89 0.00000 -3.78867e-13
  12 3699.89 0.00000 3.29560e-13
  13 3699.89 0.00000 7.56352e-13
  14 3699.89 0.00000 5.09853e-13
  15 3699.89 0.00000 1.41884e-13
  16 3699.89 0.00000 8.99954e-13
  17 3699.89 0.00000 2.70351e-13
  18 3699.89 0.00000 1.99848e-12
  19 3699.89 0.00000 2.70339e-12
  20 3699.89 0.00000 5.09853e-13
  21 3699.89 0.00000 1.51766e-12
  22 3699.89 0.00000 1.35880e-12
  23 3699.89 0.00000 5.44225e-13
  24 3699.89 0.00000 -3.27195e-13
  25 3699.89 0.00000 1.51204e-13
  26 3699.89 0.00000 -6.77948e-13
  27 3699.89 0.00000 7.95795e-15
  28 3699.89 0.00000 1.58336e-13
  29 3699.89 0.00000 4.93972e-13
  30 3699.89 0.00000 -1.33026e-13
  31 3699.89 0.00000 -1.10949e-12
  32 3699.89 0.00000 -3.29268e-12
  33 3699.89 0.00000 -1.43426e-12
  34 3699.89 0.00000 -7.84266e-13
  35 3699.89 0.00000 -2.51740e-13
  36 3699.89 0.00000 7.74656e-13
  37 3699.89 0.00000 8.09237e-13
  38 3699.89 0.00000 -2.59935e-13
  39 3699.89 0.00000 4.47232e-13
  40 3699.89 0.00000 3.13594e-13
  41 3699.89 0.00000 6.15830e-13
  42 3699.89 0.00000 1.23257e-13
  43 3699.89 0.00000 -4.92471e-15
  44 3699.89 0.00000 -7.33876e-14
  45 3699.89 0.00000 -1.48900e-13
  46 3699.89 0.00000 -2.09719e-13
  47 3699.89 0.00000 -4.78379e-13
  48 3699.89 0.00000 5.56375e-14
  49 3699.89 0.00000 1.13991e-13
  50 3699.89 0.00000 1.53810e-14
  51 3699.89 0.00000 -1.06298e-13
  52 3699.89 0.00000 3.78084e-14
  53 3699.89 0.00000 3.27739e-15
  54 3699.89 0.00000 1.04638e-13
  55 3699.89 0.00000 0.00000
  56 3699.89 0.00000 -4.34222e-15
  57 3699.89 0.00000 -3.46269e-13
  58 3699.89 0.00000 7.93196e-13
  59 3699.89 0.00000 2.23323e-13
  60 3699.89 0.00000 -8.37420e-13
  61 3699.89 0.00000 2.04902e-13
  62 3699.89 0.00000 8.76419e-14
  63 3699.89 0.00000 4.45532e-13
  64 3699.89 0.00000 -1.34868e-12
  65 3699.89 0.00000 -1.81780e-13
  66 3699.89 0.00000 -2.39497e-13
  67 3699.89 0.00000 -1.72262e-13
  68 3699.89 0.00000 -5.33329e-13
  69 3699.89 0.00000 2.56270e-13
  70 3699.89 0.00000 -1.16180e-13
  71 3699.89 0.00000 4.33379e-13
  72 3699.89 0.00000 -1.77443e-13
  73 3699.89 0.00000 -9.06906e-13
  74 3699.89 0.00000 -3.32576e-13
  75 3699.89 0.00000 4.34973e-13
  76 3699.89 0.00000 1.00794e-12
  77 3699.89 0.00000 -1.89122e-13
  78 3699.89 0.00000 3.55655e-13
  79 3699.89 0.00000 1.38817e-13
  80 3699.89 0.00000 5.79535e-13
  81 3699.89 0.00000 -3.03159e-13
  82 3699.89 0.00000 8.74203e-13
  83 3699.89 0.00000 -2.12333e-13
  84 3699.89 0.00000 2.57144e-13
  85 3699.89 0.00000 -9.98785e-13
  86 3699.89 0.00000 -1.01382e-13
  87 3699.89 0.00000 -1.03547e-13
  88 3699.89 0.00000 5.43394e-13
  89 3699.89 0.00000 3.23217e-13
  90 3699.89 0.00000 -2.32247e-14
  91 3699.89 0.00000 -3.36891e-13
  92 3699.89 0.00000 7.75036e-14
  93 3699.89 0.00000 -4.63842e-13
  94 3699.89 0.00000 -6.91198e-13
  95 3699.89 0.00000 1.61668e-14
  96 3699.89 0.00000 -8.32367e-13
  97 3699.89 0.00000 1.56071e-12
  98 3699.89 0.00000 -1.10596e-13
  99 3699.89 0.00000 2.00213e-13
  100 3699.89 0.00000 -7.29837e-13
  101 3699.89 0.00000 -7.89265e-13
  102 3699.89 0.00000 -5.73758e-13
  103 3699.89 0.00000 -8.76444e-14
  104 3699.89 0.00000 5.70952e-13
  105 3699.89 0.00000 5.97213e-13
  106 3699.89 0.00000 -2.23227e-13
  107 3699.89 0.00000 -4.66478e-13
  108 3699.89 0.00000 5.26827e-14
  109 3699.89 0.00000 2.65523e-14
  110 3699.89 0.00000 -1.85837e-13
  111 3699.89 0.00000 4.83241e-13
  112 3699.89 0.00000 -1.61919e-13
  113 3699.89 0.00000 -8.58497e-14
  114 3699.89 0.00000 7.61520e-13
  115 3699.89 0.00000 -2.46806e-13
  116 3699.89 0.00000 4.39948e-13
  117 3699.89 0.00000 -1.61597e-12
  118 3699.89 0.00000 1.82123e-13
  119 3699.89 0.00000 -3.43973e-14
  120 3699.89 0.00000 -1.24242e-13
  121 3699.89 0.00000 -3.67782e-13
  122 3699.89 0.00000 -1.17211e-13
  123 3699.89 0.00000 -3.98335e-14
  124 3699.89 0.00000 -5.92302e-13
  125 3699.89 0.00000 6.88570e-13
  126 3699.89 0.00000 5.95033e-13
  127 3699.89 0.00000 1.67538e-14
  128 3699.89 0.00000 6.73303e-13
  129 3699.89 0.00000 -1.65680e-13
  130 3699.89 0.00000 4.36117e-13
  131 3699.89 0.00000 -1.21669e-13
  132 3699.89 0.00000 8.56932e-15
  133 3699.89 0.00000 -8.32023e-14
  134 3699.89 0.00000 -1.53406e-13
  135 3699.89 0.00000 1.69735e-12
  136 3699.89 0.00000 -1.42889e-13
  137 3699.89 0.00000 2.64989e-13
  138 3699.89 0.00000 -4.30166e-13
  139 3699.89 0.00000 5.00752e-14
  140 3699.89 0.00000 2.65574e-13
  141 3699.89 0.00000 4.51073e-13
  142 3699.89 0.00000 -2.37210e-13
  143 3699.89 0.00000 1.59181e-13
  144 3699.89 0.00000 7.68747e-13
  145 3699.89 0.00000 -3.84058e-13
  146 3699.89 0.00000 7.85685e-14
  147 3699.89 0.00000 2.72816e-13
  148 3699.89 0.00000 -2.95280e-14
  149 3699.89 0.00000 -5.91708e-13
  150 3699.89 0.00000 1.49066e-13
  151 3699.89 0.00000 -8.43400e-14
  152 3699.89 0.00000 2.06860e-13
  153 3699.89 0.00000 3.40088e-13
  154 3699.89 0.00000 1.12803e-13
  155 3699.89 0.00000 -5.48067e-13
  156 3699.89 0.00000 -2.50532e-13
  157 3699.89 0.00000 2.41824e-13
  158 3699.89 0.00000 -2.68183e-13
  159 3699.89 0.00000 -4.08397e-13
  160 3699.89 0.00000 -8.91507e-14
  161 3699.89 0.00000 8.73738e-13
  162 3699.89 0.00000 -9.17411e-14
  163 3699.89 0.00000 4.94496e-13
  164 3699.89 0.00000 -5.27885e-13
  165 3699.89 0.00000 1.43840e-13
  166 3699.89 0.00000 -1.30024e-13
  167 3699.89 0.00000 -1.58638e-12
  168 3699.89 0.00000 1.02041e-12
  169 3699.89 0.00000 1.07502e-13
  170 3699.89 0.00000 6.09709e-13
  171 3699.89 0.00000 -5.09830e-13
  172 3699.89 0.00000 2.41473e-13
  173 3699.89 0.00000 -8.54769e-14
  174 3699.89 0.00000 -4.26236e-13
  175 3699.89 0.00000 8.39006e-14
  176 3699.89 0.00000 4.75557e-14
  177 3699.89 0.00000 -6.74237e-13
  178 3699.89 0.00000 1.38289e-13
  179 3699.89 0.00000 6.07596e-13
  180 3699.89 0.00000 -3.75531e-13
  181 3699.89 0.00000 -4.04593e-13
  182 3699.89 0.00000 -4.37234e-13
  183 3699.89 0.00000 -1.95583e-13
  184 3699.89 0.00000 3.03798e-13
  185 3699.89 0.00000 -3.32387e-13
  186 3699.89 0.00000 -1.02739e-13
  187 3699.89 0.00000 -1.64716e-12
  188 3699.89 0.00000 -2.61720e-13
  189 3699.89 0.00000 4.46754e-14
  190 3699.89 0.00000 -3.01227e-13
  191 3699.89 0.00000 4.60415e-13
  192 3699.89 0.00000 -2.60019e-13
  193 3699.89 0.00000 3.37330e-13
  194 3699.89 0.00000 -1.48398e-12
  195 3699.89 0.00000 -1.63654e-13
  196 3699.89 0.00000 1.19660e-12
  197 3699.89 0.00000 -8.27709e-14
  198 3699.89 0.00000 1.73232e-12
  199 3699.89 0.00000 3.84883e-13
  200 3699.89 0.00000 8.20516e-14
  201 3699.89 0.00000 4.08216e-13
  202 3699.89 0.00000 -1.76818e-13
  203 3699.89 0.00000 -2.61675e-13
  204 3699.89 0.00000 1.47139e-14
  205 3699.89 0.00000 -5.34970e-13
  206 3699.89 0.00000 1.87296e-12
  207 3699.89 0.00000 -5.54758e-13
  208 3699.89 0.00000 -3.78970e-13
  209 3699.89 0.00000 -5.89061e-13
  210 3699.89 0.00000 -2.77245e-13
  211 3699.89 0.00000 2.62784e-13
  212 3699.89 0.00000 4.82699e-13
  213 3699.89 0.00000 1.09822e-13
  214 3699.89 0.00000 4.74968e-14
  215 3699.89 0.00000 -5.61662e-13
  216 3699.89 0.00000 1.90225e-13
  217 3699.89 0.00000 -4.93368e-13
  218 3699.89 0.00000 -3.09601e-13
  219 3699.89 0.00000 -4.60834e-13
  220 3699.89 0.00000 -1.37612e-13
  221 3699.89 0.00000 -5.38804e-13
  222 3699.89 0.00000 3.52659e-14
  223 3699.89 0.00000 -4.16706e-13
  224 3699.89 0.00000 2.75450e-13
  225 3699.89 0.00000 -8.28852e-13
  226 3699.89 0.00000 -6.30916e-13
  227 3699.89 0.00000 -3.98874e-13
  228 3699.89 0.00000 4.57884e-13
  229 3699.89 0.00000 7.42092e-14
  230 3699.89 0.00000 -2.86959e-13
  231 3699.89 0.00000 3.71021e-13
  232 3699.89 0.00000 3.49109e-13
  233 3699.89 0.00000 -2.28976e-12
  234 3699.89 0.00000 -3.17003e-14
  235 3699.89 0.00000 5.00591e-13
  236 3699.89 0.00000 -6.93279e-14
  237 3699.89 0.00000 -8.07460e-14
  238 3699.89 0.00000 7.30967e-13
  239 3699.89 0.00000 -4.03817e-13
  240 3699.89 0.00000 -4.83824e-13
  241 3699.89 0.00000 -4.49065e-14
</Section>

newXOutput 81

<Section columns = "stress_xx | stress_yy | stress_xy">
  1 3747.36 0.00000 1.37059e-13
  2 3747.36 0.00000 8.34612e-13
  3 3747.36 0.00000 -2.82874e-13
  4 3747.36 0.00000 -5.15020e-15
  5 3747.36 0.00000 -2.91932e-13
  6 3747.36 0.00000 -7.79970e-13
  7 3747.36 0.00000 -6.56572e-13
  8 3747.36 0.00000 -3.55449e-13
  9 3747.36 0.00000 1.96106e-13
  10 3747.36 0.00000 1.01324e-12
  11 3747.36 0.00000 3.19820e-13
  12 3747.36 0.00000 -5.28488e-13
  13 3747.36 0.00000 -2.49051e-15
  14 3747.36 0.00000 -2.55536e-13
  15 3747.36 0.00000 5.71341e-13
  16 3747.36 0.00000 1.16595e-13
  17 3747.36 0.00000 -1.78148e-14
  18 3747.36 0.00000 1.79424e-13
  19 3747.36 0.00000 -2.55536e-13
  20 3747.36 0.00000 -5.11072e-13
  21 3747.36 0.00000 -2.57431e-12
  22 3747.36 0.00000 -2.28686e-12
  23 3747.36 0.00000 -1.73438e-13
  24 3747.36 0.00000 2.78204e-13
  25 3747.36 0.00000 4.74149e-13
  26 3747.36 0.00000 1.59246e-13
  27 3747.36 0.00000 5.06219e-13
  28 3747.36 0.00000 8.17238e-13
  29 3747.36 0.00000 3.23021e-14
  30 3747.36 0.00000 -3.77511e-13
  31 3747.36 0.00000 8.76489e-14
  32 3747.36 0.00000 -9.33997e-14
  33 3747.36 0.00000 -6.51834e-13
  34 3747.36 0.00000 -2.12428e-12
  35 3747.36 0.00000 -1.24359e-12
  36 3747.36 0.00000 -1.57379e-13
  37 3747.36 0.00000 -7.56427e-13
  38 3747.36 0.00000 5.10918e-13
  39 3747.36 0.00000 -2.07850e-14
  40 3747.36 0.00000 2.08342e-13
  41 3747.36 0.00000 2.54205e-13
  42 3747.36 0.00000 -5.33552e-13
  43 3747.36 0.00000 -5.06284e-13
  44 3747.36 0.00000 8.39321e-14
  45 3747.36 0.00000 2.75000e-13
  46 3747.36 0.00000 -5.34866e-14
  47 3747.36 0.00000 -1.30832e-13
  48 3747.36 0.00000 -2.86851e-13
  49 3747.36 0.00000 -1.88758e-13
  50 3747.36 0.00000 -3.73257e-14
  51 3747.36 0.00000 -1.61511e-14
  52 3747.36 0.00000 7.84309e-14
  53 3747.36 0.00000 -1.61570e-13
  54 3747.36 0.00000 -2.53501e-13
  55 3747.36 0.00000 0.00000
  56 3747.36 0.00000 -3.54657e-14
  57 3747.36 0.00000 -9.41340e-13
  58 3747.36 0.00000 7.87416e-14
  59 3747.36 0.00000 2.90505e-13
  60 3747.36 0.00000 -5.37847e-13
  61 3747.36 0.00000 3.14783e-13
  62 3747.36 0.00000 -2.04316e-13
  63 3747.36 0.00000 6.33348e-13
  64 3747.36 0.00000 7.62053e-13
  65 3747.36 0.00000 2.06243e-14
  66 3747.36 0.00000 -2.52360e-13
  67 3747.36 0.00000 -2.87747e-13
  68 3747.36 0.00000 -2.80352e-14
  69 3747.36 0.00000 2.99518e-13
  70 3747.36 0.00000 1.32486e-13
  71 3747.36 0.00000 -1.16948e-13
  72 3747.36 0.00000 -2.11693e-13
  73 3747.36 0.00000 1.30043e-12
  74 3747.36 0.00000 9.06142e-14
  75 3747.36 0.00000 -9.90604e-14
  76 3747.36 0.00000 2.81206e-14
  77 3747.36 0.00000 1.03355e-13
  78 3747.36 0.00000 7.49289e-13
  79 3747.36 0.00000 4.25013e-14
  80 3747.36 0.00000 -3.16365e-13
  81 3747.36 0.00000 1.85997e-15
  82 3747.36 0.00000 -3.36303e-13
  83 3747.36 0.00000 -3.14028e-13
  84 3747.36 0.00000 2.73371e-13
  85 3747.36 0.00000 -1.67524e-13
  86 3747.36 0.00000 6.57782e-13
  87 3747.36 0.00000 -1.63449e-13
  88 3747.36 0.00000 -1.26326e-12
  89 3747.36 0.00000 1.04302e-13
  90 3747.36 0.00000 8.97086e-14
  91 3747.36 0.00000 -5.20725e-13
  92 3747.36 0.00000 -4.85801e-13
  93 3747.36 0.00000 6.10174e-13
  94 3747.36 0.00000 8.35811e-13
  95 3747.36 0.00000 1.36051e-13
  96 3747.36 0.00000 3.86811e-13
  97 3747.36 0.00000 1.28352e-13
  98 3747.36 0.00000 2.39732e-13
  99 3747.36 0.00000 2.95187e-13
  100 3747.36 0.00000 -3.97903e-13
  101 3747.36 0.00000 1.70314e-13
  102 3747.36 0.00000 1.07644e-12
  103 3747.36 0.00000 -3.53128e-13
  104 3747.36 0.00000 -4.69051e-14
  105 3747.36 0.00000 -5.63818e-13
  106 3747.36 0.00000 -5.46587e-13
  107 3747.36 0.00000 1.03171e-13
  108 3747.36 0.00000 3.24724e-13
  109 3747.36 0.00000 -2.83446e-13
  110 3747.36 0.00000 6.89449e-13
  111 3747.36 0.00000 -2.09048e-13
  112 3747.36 0.00000 3.61523e-13
  113 3747.36 0.00000 -7.98981e-13
  114 3747.36 0.00000 -9.92712e-14
  115 3747.36 0.00000 -4.41391e-13
  116 3747.36 0.00000 1.38208e-14
  117 3747.36 0.00000 1.07832e-12
  118 3747.36 0.00000 1.46722e-13
  119 3747.36 0.00000 3.70968e-13
  120 3747.36 0.00000 7.56093e-14
  121 3747.36 0.00000 -1.83759e-13
  122 3747.36 0.00000 7.27755e-14
  123 3747.36 0.00000 6.46425e-15
  124 3747.36 0.00000 1.32901e-14
  125 3747.36 0.00000 -5.02080e-13
  126 3747.36 0.00000 1.30751e-13
  127 3747.36 0.00000 2.23160e-13
  128 3747.36 0.00000 -4.19003e-15
  129 3747.36 0.00000 4.40480e-13
  130 3747.36 0.00000 3.01039e-13
  131 3747.36 0.00000 9.07776e-14
  132 3747.36 0.00000 -3.03686e-13
  133 3747.36 0.00000 1.42166e-13
  134 3747.36 0.00000 3.28319e-13
  135 3747.36 0.00000 -3.67723e-13
  136 3747.36 0.00000 -1.19962e-14
  137 3747.36 0.00000 3.21117e-13
  138 3747.36 0.00000 3.15060e-13
  139 3747.36 0.00000 -2.46637e-13
  140 3747.36 0.00000 -2.33504e-13
  141 3747.36 0.00000 1.42806e-13
  142 3747.36 0.00000 3.30754e-13
  143 3747.36 0.00000 -1.52234e-13
  144 3747.36 0.00000 -2.62632e-13
  145 3747.36 0.00000 -7.10714e-13
  146 3747.36 0.00000 -4.07204e-13
  147 3747.36 0.00000 -6.36383e-13
  148 3747.36 0.00000 -3.51726e-13
  149 3747.36 0.00000 3.56820e-14
  150 3747.36 0.00000 -5.78119e-13
  151 3747.36 0.00000 -4.57858e-13
  152 3747.36 0.00000 1.00910e-12
  153 3747.36 0.00000 -2.55536e-13
  154 3747.36 0.00000 -4.84532e-15
  155 3747.36 0.00000 4.46709e-14
  156 3747.36 0.00000 7.09771e-13
  157 3747.36 0.00000 1.74309e-13
  158 3747.36 0.00000 5.97772e-14
  159 3747.36 0.00000 -1.73007e-14
  160 3747.36 0.00000 1.53322e-13
  161 3747.36 0.00000 6.27206e-13
  162 3747.36 0.00000 -1.29440e-13
  163 3747.36 0.00000 -6.98589e-13
  164 3747.36 0.00000 1.40461e-12
  165 3747.36 0.00000 -1.49355e-13
  166 3747.36 0.00000 -1.18813e-13
  167 3747.36 0.00000 7.73561e-13
  168 3747.36 0.00000 -5.29881e-14
  169 3747.36 0.00000 -1.03062e-13
  170 3747.36 0.00000 7.03548e-13
  171 3747.36 0.00000 -1.88916e-13
  172 3747.36 0.00000 -5.53785e-13
  173 3747.36 0.00000 -1.17953e-14
  174 3747.36 0.00000 -4.25746e-15
  175 3747.36 0.00000 -5.36175e-15
  176 3747.36 0.00000 -1.77329e-14
  177 3747.36 0.00000 -2.07626e-13
  178 3747.36 0.00000 -6.78283e-13
  179 3747.36 0.00000 -1.17443e-13
  180 3747.36 0.00000 -4.78005e-13
  181 3747.36 0.00000 3.85433e-15
  182 3747.36 0.00000 -4.00428e-13
  183 3747.36 0.00000 -1.14235e-13
  184 3747.36 0.00000 -6.36704e-13
  185 3747.36 0.00000 -1.41958e-13
  186 3747.36 0.00000 -7.19768e-14
  187 3747.36 0.00000 -1.67242e-13
  188 3747.36 0.00000 1.49908e-13
  189 3747.36 0.00000 4.03145e-13
  190 3747.36 0.00000 1.67346e-13
  191 3747.36 0.00000 -2.49211e-13
  192 3747.36 0.00000 8.02105e-13
  193 3747.36 0.00000 -7.35568e-14
  194 3747.36 0.00000 7.31506e-13
  195 3747.36 0.00000 -2.29810e-13
  196 3747.36 0.00000 -8.91760e-13
  197 3747.36 0.00000 -2.31005e-13
  198 3747.36 0.00000 5.61029e-13
  199 3747.36 0.00000 -4.55896e-13
  200 3747.36 0.00000 -3.30355e-13
  201 3747.36 0.00000 2.20150e-13
  202 3747.36 0.00000 8.39477e-13
  203 3747.36 0.00000 1.54526e-13
  204 3747.36 0.00000 -2.10449e-13
  205 3747.36 0.00000 -8.54222e-14
  206 3747.36 0.00000 3.31613e-13
  207 3747.36 0.00000 1.91506e-13
  208 3747.36 0.00000 -1.34339e-12
  209 3747.36 0.00000 3.81441e-13
  210 3747.36 0.00000 -3.51497e-13
  211 3747.36 0.00000 -1.56310e-13
  212 3747.36 0.00000 -5.26617e-13
  213 3747.36 0.00000 -1.25993e-13
  214 3747.36 0.00000 -2.20291e-13
  215 3747.36 0.00000 5.77970e-13
  216 3747.36 0.00000 -2.14444e-13
  217 3747.36 0.00000 -3.32153e-13
  218 3747.36 0.00000 -7.73823e-14
  219 3747.36 0.00000 -1.79187e-13
  220 3747.36 0.00000 -1.79670e-13
  221 3747.36 0.00000 -1.99577e-13
  222 3747.36 0.00000 2.82091e-13
  223 3747.36 0.00000 7.15560e-14
  224 3747.36 0.00000 -1.93853e-14
  225 3747.36 0.00000 1.24440e-12
  226 3747.36 0.00000 -3.09194e-13
  227 3747.36 0.00000 5.19714e-13
  228 3747.36 0.00000 9.13264e-15
  229 3747.36 0.00000 -5.00649e-13
  230 3747.36 0.00000 -6.34387e-13
  231 3747.36 0.00000 8.06886e-14
  232 3747.36 0.00000 -3.22965e-14
  233 3747.36 0.00000 1.95373e-12
  234 3747.36 0.00000 5.66165e-14
  235 3747.36 0.00000 -1.05728e-13
  236 3747.36 0.00000 1.85457e-13
  237 3747.36 0.00000 -2.11315e-13
  238 3747.36 0.00000 -3.56582e-14
  239 3747.36 0.00000 3.29641e-13
  240 3747.36 0.00000 3.51917e-13
  241 3747.36 0.00000 -4.00588e-13
</Section>

newXOutput 82

<Section columns = "stress_xx | stress_yy | stress_xy">
  1 3794.87 0.00000 5.56085e-14
  2 3794.87 0.00000 5.34658e-13
  3 3794.87 0.00000 -9.99107e-13
  4 3794.87 0.00000 -1.09098e-13
  5 3794.87 0.00000 4.08600e-14
  6 3794.87 0.00000 -3.70966e-13
  7 3794.87 0.00000 -2.80591e-13
  8 3794.87 0.00000 -6.50486e-13
  9 3794.87 0.00000 -1.28076e-13
  10 3794.87 0.00000 -9.90213e-14
  11 3794.87 0.00000 2.85206e-13
  12 3794.87 0.00000 6.85470e-13
  13 3794.87 0.00000 3.79488e-13
  14 3794.87 0.00000 -1.16406e-12
  15 3794.87 0.00000 -8.72092e-13
  16 3794.87 0.00000 -2.14824e-12
  17 3794.87 0.00000 -1.16406e-12
  18 3794.87 0.00000 -7.08205e-13
  19 3794.87 0.00000 -1.67130e-12
  20 3794.87 0.00000 1.08359e-12
  21 3794.87 0.00000 1.51543e-12
  22 3794.87 0.00000 1.30136e-12
  23 3794.87 0.00000 1.01577e-12
  24 3794.87 0.00000 4.55850e-13
  25 3794.87 0.00000 -2.93852e-13
  26 3794.87 0.00000 -1.29850e-12
  27 3794.87 0.00000 -1.07519e-12
  28 3794.87 0.00000 -4.38644e-13
  29 3794.87 0.00000 -3.16334e-14
  30 3794.87 0.00000 2.20512e-13
  31 3794.87 0.00000 -1.84223e-13
  32 3794.87 0.00000 9.92720e-13
  33 3794.87 0.00000 1.31703e-12
  34 3794.87 0.00000 9.08857e-13
  35 3794.87 0.00000 9.01679e-14
  36 3794.87 0.00000 -1.11379e-12
  37 3794.87 0.00000 -1.53730e-13
  38 3794.87 0.00000 -2.60800e-14
  39 3794.87 0.00000 -1.98998e-13
  40 3794.87 0.00000 -9.81023e-14
  41 3794.87 0.00000 5.86357e-15
  42 3794.87 0.00000 5.21716e-13
  43 3794.87 0.00000 1.04796e-12
  44 3794.87 0.00000 5.44225e-13
  45 3794.87 0.00000 -4.06187e-14
  46 3794.87 0.00000 -3.12738e-13
  47 3794.87 0.00000 -2.71792e-13
  48 3794.87 0.00000 2.49284e-13
  49 3794.87 0.00000 -4.43155e-14
  50 3794.87 0.00000 7.90835e-15
  51 3794.87 0.00000 -1.58167e-14
  52 3794.87 0.00000 -1.38031e-13
  53 3794.87 0.00000 2.82680e-13
  54 3794.87 0.00000 -1.42272e-13
  55 3794.87 0.00000 0.00000
  56 3794.87 0.00000 -2.16443e-13
  57 3794.87 0.00000 -1.22173e-13
  58 3794.87 0.00000 -1.57373e-13
  59 3794.87 0.00000 -4.89769e-13
  60 3794.87 0.00000 4.61556e-13
  61 3794.87 0.00000 -1.24697e-13
  62 3794.87 0.00000 2.64718e-13
  63 3794.87 0.00000 5.66458e-13
  64 3794.87 0.00000 2.30887e-13
  65 3794.87 0.00000 2.41727e-15
  66 3794.87 0.00000 -4.62581e-13
  67 3794.87 0.00000 -6.01439e-13
  68 3794.87 0.00000 -5.91250e-14
  69 3794.87 0.00000 -2.43032e-13
  70 3794.87 0.00000 -7.59523e-15
  71 3794.87 0.00000 -2.40061e-13
  72 3794.87 0.00000 1.18269e-13
  73 3794.87 0.00000 -1.42543e-12
  74 3794.87 0.00000 3.78774e-14
  75 3794.87 0.00000 5.63719e-13
  76 3794.87 0.00000 1.11193e-12
  77 3794.87 0.00000 2.05281e-13
  78 3794.87 0.00000 -8.88180e-13
  79 3794.87 0.00000 -8.96277e-13
  80 3794.87 0.00000 3.35402e-13
  81 3794.87 0.00000 -1.02746e-12
  82 3794.87 0.00000 2.48440e-13
  83 3794.87 0.00000 2.33944e-14
  84 3794.87 0.00000 3.45457e-14
  85 3794.87 0.00000 8.62204e-13
  86 3794.87 0.00000 9.05895e-14
  87 3794.87 0.00000 -9.75415e-15
  88 3794.87 0.00000 7.03901e-13
  89 3794.87 0.00000 7.30619e-14
  90 3794.87 0.00000 6.40510e-14
  91 3794.87 0.00000 -5.70012e-13
  92 3794.87 0.00000 1.38531e-13
  93 3794.87 0.00000 4.44868e-14
  94 3794.87 0.00000 -2.10606e-12
  95 3794.87 0.00000 -2.87349e-13
  96 3794.87 0.00000 -4.66062e-13
  97 3794.87 0.00000 -7.91952e-13
  98 3794.87 0.00000 2.48332e-13
  99 3794.87 0.00000 8.71678e-13
  100 3794.87 0.00000 -1.72509e-13
  101 3794.87 0.00000 7.94170e-14
  102 3794.87 0.00000 1.62787e-13
  103 3794.87 0.00000 1.68308e-13
  104 3794.87 0.00000 1.39719e-13
  105 3794.87 0.00000 -1.13517e-12
  106 3794.87 0.00000 -1.65505e-13
  107 3794.87 0.00000 -1.60527e-12
  108 3794.87 0.00000 -1.98911e-13
  109 3794.87 0.00000 -2.68006e-13
  110 3794.87 0.00000 -7.57093e-13
  111 3794.87 0.00000 -7.70164e-13
  112 3794.87 0.00000 -3.55668e-13
  113 3794.87 0.00000 3.17395e-13
  114 3794.87 0.00000 -2.57452e-13
  115 3794.87 0.00000 5.40827e-14
  116 3794.87 0.00000 2.01210e-13
  117 3794.87 0.00000 -1.56113e-12
  118 3794.87 0.00000 -3.90436e-13
  119 3794.87 0.00000 1.99433e-13
  120 3794.87 0.00000 3.16485e-13
  121 3794.87 0.00000 -8.24661e-14
  122 3794.87 0.00000 3.17147e-13
  123 3794.87 0.00000 2.53721e-14
  124 3794.87 0.00000 -8.15411e-13
  125 3794.87 0.00000 6.13423e-13
  126 3794.87 0.00000 -2.30876e-13
  127 3794.87 0.00000 1.87289e-13
  128 3794.87 0.00000 -6.71449e-13
  129 3794.87 0.00000 -1.24098e-13
  130 3794.87 0.00000 -3.02589e-13
  131 3794.87 0.00000 1.84883e-13
  132 3794.87 0.00000 -3.39624e-14
  133 3794.87 0.00000 -4.21416e-13
  134 3794.87 0.00000 -2.44063e-13
  135 3794.87 0.00000 3.04059e-13
  136 3794.87 0.00000 8.40430e-14
  137 3794.87 0.00000 2.62025e-14
  138 3794.87 0.00000 -2.47501e-13
  139 3794.87 0.00000 1.92748e-13
  140 3794.87 0.00000 8.78590e-13
  141 3794.87 0.00000 -4.63835e-13
  142 3794.87 0.00000 1.64844e-13
  143 3794.87 0.00000 -1.91725e-14
  144 3794.87 0.00000 1.12091e-12
  145 3794.87 0.00000 -4.14342e-13
  146 3794.87 0.00000 2.28500e-13
  147 3794.87 0.00000 -8.14299e-13
  148 3794.87 0.00000 1.21074e-13
  149 3794.87 0.00000 1.24559e-13
  150 3794.87 0.00000 -3.03293e-14
  151 3794.87 0.00000 -5.36086e-13
  152 3794.87 0.00000 -8.00607e-13
  153 3794.87 0.00000 -3.05805e-13
  154 3794.87 0.00000 -9.95485e-14
  155 3794.87 0.00000 3.41746e-13
  156 3794.87 0.00000 -2.42860e-13
  157 3794.87 0.00000 -2.73510e-14
  158 3794.87 0.00000 -1.09013e-12
  159 3794.87 0.00000 -2.56371e-13
  160 3794.87 0.00000 1.82246e-13
  161 3794.87 0.00000 -5.06822e-14
  162 3794.87 0.00000 -5.63065e-13
  163 3794.87 0.00000 -7.01263e-13
  164 3794.87 0.00000 -1.67253e-12
  165 3794.87 0.00000 -4.42123e-14
  166 3794.87 0.00000 3.44814e-14
  167 3794.87 0.00000 -8.22359e-13
  168 3794.87 0.00000 2.50111e-13
  169 3794.87 0.00000 -9.54640e-14
  170 3794.87 0.00000 -2.00742e-13
  171 3794.87 0.00000 4.41462e-13
  172 3794.87 0.00000 -1.35709e-14
  173 3794.87 0.00000 -2.90219e-13
  174 3794.87 0.00000 3.58114e-13
  175 3794.87 0.00000 -9.31327e-14
  176 3794.87 0.00000 -1.72181e-14
  177 3794.87 0.00000 4.91887e-14
  178 3794.87 0.00000 1.84698e-13
  179 3794.87 0.00000 -2.27505e-13
  180 3794.87 0.00000 -1.34143e-13
  181 3794.87 0.00000 -5.93128e-14
  182 3794.87 0.00000 2.01956e-13
  183 3794.87 0.00000 -2.16581e-13
  184 3794.87 0.00000 -3.78923e-13
  185 3794.87 0.00000 -2.67831e-13
  186 3794.87 0.00000 -5.91502e-13
  187 3794.87 0.00000 4.60519e-13
  188 3794.87 0.00000 -8.86836e-13
  189 3794.87 0.00000 4.98737e-13
  190 3794.87 0.00000 -1.25125e-13
  191 3794.87 0.00000 3.98862e-13
  192 3794.87 0.00000 -9.15798e-13
  193 3794.87 0.00000 -3.28722e-14
  194 3794.87 0.00000 -9.67714e-13
  195 3794.87 0.00000 -6.39285e-14
  196 3794.87 0.00000 -3.83847e-13
  197 3794.87 0.00000 -3.48415e-13
  198 3794.87 0.00000 -3.81063e-13
  199 3794.87 0.00000 -3.16389e-13
  200 3794.87 0.00000 -4.99123e-13
  201 3794.87 0.00000 3.21617e-13
  202 3794.87 0.00000 4.22142e-14
  203 3794.87 0.00000 -6.04982e-13
  204 3794.87 0.00000 7.35776e-13
  205 3794.87 0.00000 -3.27976e-13
  206 3794.87 0.00000 6.95921e-13
  207 3794.87 0.00000 -1.06348e-13
  208 3794.87 0.00000 -6.72781e-14
  209 3794.87 0.00000 -1.83247e-13
  210 3794.87 0.00000 1.43757e-13
  211 3794.87 0.00000 1.32350e-13
  212 3794.87 0.00000 6.24854e-13
  213 3794.87 0.00000 -2.89581e-14
  214 3794.87 0.00000 3.48293e-13
  215 3794.87 0.00000 -1.07293e-12
  216 3794.87 0.00000 -2.84943e-13
  217 3794.87 0.00000 -1.96534e-13
  218 3794.87 0.00000 9.44777e-14
  219 3794.87 0.00000 5.89751e-13
  220 3794.87 0.00000 -2.44334e-15
  221 3794.87 0.00000 -5.92820e-13
  222 3794.87 0.00000 -7.08205e-13
  223 3794.87 0.00000 2.75324e-14
  224 3794.87 0.00000 -4.10609e-14
  225 3794.87 0.00000 -2.01545e-12
  226 3794.87 0.00000 -1.43182e-13
  227 3794.87 0.00000 5.21468e-14
  228 3794.87 0.00000 7.16523e-13
  229 3794.87 0.00000 -1.82202e-13
  230 3794.87 0.00000 6.86540e-13
  231 3794.87 0.00000 4.20378e-13
  232 3794.87 0.00000 -4.34779e-13
  233 3794.87 0.00000 -5.57624e-13
  234 3794.87 0.00000 -4.58318e-13
  235 3794.87 0.00000 -1.14066e-12
  236 3794.87 0.00000 -1.67890e-14
  237 3794.87 0.00000 7.30086e-13
  238 3794.87 0.00000 1.21989e-13
  239 3794.87 0.00000 4.99865e-13
  240 3794.87 0.00000 9.04948e-13
  241 3794.87 0.00000 1.47461e-14
</Section>

newXOutput 83

<Section columns = "stress_xx | stress_yy | stress_xy">
  1 3842.44 0.00000 2.32242e-13
  2 3842.44 0.00000 -1.75614e-13
  3 3842.44 0.00000 2.75001e-15
  4 3842.44 0.00000 -9.04143e-14
  5 3842.44 0.00000 1.22731e-13
  6 3842.44 0.00000 -1.69660e-14
  7 3842.44 0.00000 -5.23864e-14
  8 3842.44 0.00000 1.17076e-13
  9 3842.44 0.00000 1.13107e-14
  10 3842.44 0.00000 1.13107e-14
  11 3842.44 0.00000 -1.28387e-13
  12 3842.44 0.00000 -3.13329e-13
  13 3842.44 0.00000 -3.38283e-13
  14 3842.44 0.00000 -1.00814e-12
  15 3842.44 0.00000 -8.53884e-13
  16 3842.44 0.00000 -5.13546e-13
  17 3842.44 0.00000 -4.19092e-13
  18 3842.44 0.00000 1.26124e-12
  19 3842.44 0.00000 9.06343e-13
  20 3842.44 0.00000 -7.47698e-13
  21 3842.44 0.00000 -2.05418e-12
  22 3842.44 0.00000 -1.49540e-12
  23 3842.44 0.00000 -1.28387e-13
  24 3842.44 0.00000 -2.34152e-13
  25 3842.44 0.00000 8.78069e-14
  26 3842.44 0.00000 1.07794e-12
  27 3842.44 0.00000 -4.79627e-28
  28 3842.44 0.00000 7.70319e-13
  29 3842.44 0.00000 1.75614e-13
  30 3842.44 0.00000 -1.10231e-13
  31 3842.44 0.00000 1.06337e-12
  32 3842.44 0.00000 -3.36106e-13
  33 3842.44 0.00000 -2.51762e-13
  34 3842.44 0.00000 7.32447e-13
  35 3842.44 0.00000 1.01174e-12
  36 3842.44 0.00000 1.21328e-12
  37 3842.44 0.00000 4.46235e-13
  38 3842.44 0.00000 -4.47701e-13
  39 3842.44 0.00000 -1.98941e-13
  40 3842.44 0.00000 -3.80156e-13
  41 3842.44 0.00000 7.86791e-14
  42 3842.44 0.00000 -3.28855e-13
  43 3842.44 0.00000 -3.88162e-13
  44 3842.44 0.00000 -7.17199e-13
  45 3842.44 0.00000 -5.24568e-13
  46 3842.44 0.00000 1.66797e-13
  47 3842.44 0.00000 2.35369e-13
  48 3842.44 0.00000 1.67629e-13
  49 3842.44 0.00000 -2.08817e-13
  50 3842.44 0.00000 6.67735e-14
  51 3842.44 0.00000 -1.54817e-14
  52 3842.44 0.00000 3.03619e-14
  53 3842.44 0.00000 -8.01697e-14
  54 3842.44 0.00000 2.28371e-13
  55 3842.44 0.00000 8.78069e-14
  56 3842.44 0.00000 4.41522e-14
  57 3842.44 0.00000 2.19870e-13
  58 3842.44 0.00000 -1.39201e-13
  59 3842.44 0.00000 -8.85935e-14
  60 3842.44 0.00000 -3.69706e-13
  61 3842.44 0.00000 1.35033e-13
  62 3842.44 0.00000 -4.72174e-13
  63 3842.44 0.00000 6.25420e-13
  64 3842.44 0.00000 1.36172e-12
  65 3842.44 0.00000 -6.33357e-14
  66 3842.44 0.00000 -1.96857e-13
  67 3842.44 0.00000 -2.14504e-13
  68 3842.44 0.00000 -5.97762e-14
  69 3842.44 0.00000 -3.93666e-13
  70 3842.44 0.00000 -3.76662e-13
  71 3842.44 0.00000 -1.31462e-13
  72 3842.44 0.00000 3.28312e-13
  73 3842.44 0.00000 7.21633e-13
  74 3842.44 0.00000 -9.06327e-14
  75 3842.44 0.00000 -3.59326e-13
  76 3842.44 0.00000 4.10856e-13
  77 3842.44 0.00000 -3.73290e-14
  78 3842.44 0.00000 -7.60222e-13
  79 3842.44 0.00000 -1.84096e-13
  80 3842.44 0.00000 -4.68055e-13
  81 3842.44 0.00000 1.62269e-13
  82 3842.44 0.00000 -5.70118e-13
  83 3842.44 0.00000 2.43588e-13
  84 3842.44 0.00000 2.23759e-13
  85 3842.44 0.00000 6.20650e-13
  86 3842.44 0.00000 -8.59673e-14
  87 3842.44 0.00000 4.99591e-16
  88 3842.44 0.00000 -1.46865e-12
  89 3842.44 0.00000 -1.47828e-13
  90 3842.44 0.00000 2.33195e-13
  91 3842.44 0.00000 -2.47257e-13
  92 3842.44 0.00000 -2.78056e-14
  93 3842.44 0.00000 -2.01634e-12
  94 3842.44 0.00000 9.34502e-13
  95 3842.44 0.00000 3.69114e-13
  96 3842.44 0.00000 -2.66247e-13
  97 3842.44 0.00000 -7.12039e-13
  98 3842.44 0.00000 -3.76557e-14
  99 3842.44 0.00000 9.75552e-13
  100 3842.44 0.00000 2.88065e-13
  101 3842.44 0.00000 1.49172e-13
  102 3842.44 0.00000 5.83514e-13
  103 3842.44 0.00000 1.58104e-12
  104 3842.44 0.00000 -3.54818e-14
  105 3842.44 0.00000 5.04880e-14
  106 3842.44 0.00000 3.47956e-13
  107 3842.44 0.00000 1.69333e-12
  108 3842.44 0.00000 -4.73462e-14
  109 3842.44 0.00000 1.79304e-13
  110 3842.44 0.00000 3.51228e-14
  111 3842.44 0.00000 -3.94545e-13
  112 3842.44 0.00000 -2.10315e-13
  113 3842.44 0.00000 -6.41650e-13
  114 3842.44 0.00000 1.21198e-13
  115 3842.44 0.00000 6.85958e-13
  116 3842.44 0.00000 3.33071e-13
  117 3842.44 0.00000 1.00556e-12
  118 3842.44 0.00000 -4.76112e-14
  119 3842.44 0.00000 4.06762e-13
  120 3842.44 0.00000 9.96865e-15
  121 3842.44 0.00000 7.52631e-14
  122 3842.44 0.00000 -7.20162e-13
  123 3842.44 0.00000 -9.64960e-13
  124 3842.44 0.00000 3.49869e-13
  125 3842.44 0.00000 -3.31410e-13
  126 3842.44 0.00000 1.43747e-13
  127 3842.44 0.00000 5.55333e-14
  128 3842.44 0.00000 -1.46183e-13
  129 3842.44 0.00000 -9.06348e-14
  130 3842.44 0.00000 -4.17575e-13
  131 3842.44 0.00000 -1.07599e-13
  132 3842.44 0.00000 -7.06518e-14
  133 3842.44 0.00000 8.54127e-13
  134 3842.44 0.00000 -1.27013e-13
  135 3842.44 0.00000 -6.51853e-13
  136 3842.44 0.00000 -5.68342e-15
  137 3842.44 0.00000 4.41886e-13
  138 3842.44 0.00000 -1.11865e-12
  139 3842.44 0.00000 1.30648e-13
  140 3842.44 0.00000 -1.12408e-12
  141 3842.44 0.00000 1.66635e-13
  142 3842.44 0.00000 1.90494e-13
  143 3842.44 0.00000 -1.34364e-14
  144 3842.44 0.00000 -1.27931e-12
  145 3842.44 0.00000 6.09385e-14
  146 3842.44 0.00000 -3.62271e-13
  147 3842.44 0.00000 -2.90728e-13
  148 3842.44 0.00000 2.15281e-14
  149 3842.44 0.00000 4.49967e-14
  150 3842.44 0.00000 3.74419e-13
  151 3842.44 0.00000 -3.43093e-13
  152 3842.44 0.00000 1.57410e-13
  153 3842.44 0.00000 -1.62712e-13
  154 3842.44 0.00000 2.15676e-13
  155 3842.44 0.00000 1.86752e-13
  156 3842.44 0.00000 1.75698e-12
  157 3842.44 0.00000 -1.96491e-14
  158 3842.44 0.00000 -2.01009e-13
  159 3842.44 0.00000 -3.12690e-15
  160 3842.44 0.00000 -1.56863e-13
  161 3842.44 0.00000 5.05587e-13
  162 3842.44 0.00000 -4.61583e-13
  163 3842.44 0.00000 -4.66762e-13
  164 3842.44 0.00000 1.73147e-13
  165 3842.44 0.00000 9.03872e-14
  166 3842.44 0.00000 2.99995e-14
  167 3842.44 0.00000 5.62092e-13
  168 3842.44 0.00000 -2.01086e-13
  169 3842.44 0.00000 -6.55858e-15
  170 3842.44 0.00000 -4.02987e-14
  171 3842.44 0.00000 2.86839e-13
  172 3842.44 0.00000 -4.93007e-13
  173 3842.44 0.00000 -6.29918e-13
  174 3842.44 0.00000 -4.64977e-13
  175 3842.44 0.00000 -3.63083e-15
  176 3842.44 0.00000 1.16831e-14
  177 3842.44 0.00000 -2.63641e-13
  178 3842.44 0.00000 2.16106e-13
  179 3842.44 0.00000 3.20599e-13
  180 3842.44 0.00000 1.18894e-13
  181 3842.44 0.00000 3.12522e-14
  182 3842.44 0.00000 9.44073e-14
  183 3842.44 0.00000 -1.66439e-13
  184 3842.44 0.00000 6.09469e-13
  185 3842.44 0.00000 -1.32343e-13
  186 3842.44 0.00000 -3.74980e-13
  187 3842.44 0.00000 -2.50937e-13
  188 3842.44 0.00000 -4.53180e-13
  189 3842.44 0.00000 -3.05405e-14
  190 3842.44 0.00000 -7.40577e-14
  191 3842.44 0.00000 -1.36658e-13
  192 3842.44 0.00000 1.50524e-13
  193 3842.44 0.00000 5.13456e-13
  194 3842.44 0.00000 1.57792e-12
  195 3842.44 0.00000 5.77074e-15
  196 3842.44 0.00000 -5.46972e-13
  197 3842.44 0.00000 -1.50126e-13
  198 3842.44 0.00000 1.94192e-12
  199 3842.44 0.00000 2.09796e-13
  200 3842.44 0.00000 -9.97058e-13
  201 3842.44 0.00000 -7.25259e-14
  202 3842.44 0.00000 -1.06678e-12
  203 3842.44 0.00000 1.28387e-13
  204 3842.44 0.00000 7.23294e-13
  205 3842.44 0.00000 1.62321e-13
  206 3842.44 0.00000 -1.82900e-12
  207 3842.44 0.00000 7.60086e-14
  208 3842.44 0.00000 4.49992e-13
  209 3842.44 0.00000 -3.45028e-14
  210 3842.44 0.00000 -1.51240e-13
  211 3842.44 0.00000 3.15722e-14
  212 3842.44 0.00000 -9.85638e-13
  213 3842.44 0.00000 6.16686e-14
  214 3842.44 0.00000 5.19522e-13
  215 3842.44 0.00000 1.59130e-12
  216 3842.44 0.00000 -5.22750e-13
  217 3842.44 0.00000 8.28923e-14
  218 3842.44 0.00000 -4.04184e-14
  219 3842.44 0.00000 -1.78449e-15
  220 3842.44 0.00000 -5.75470e-14
  221 3842.44 0.00000 3.63085e-13
  222 3842.44 0.00000 -6.54729e-13
  223 3842.44 0.00000 4.81449e-14
  224 3842.44 0.00000 -1.56566e-13
  225 3842.44 0.00000 1.00076e-12
  226 3842.44 0.00000 2.39370e-13
  227 3842.44 0.00000 4.54762e-13
  228 3842.44 0.00000 -4.71184e-13
  229 3842.44 0.00000 4.57402e-14
  230 3842.44 0.00000 -4.05449e-13
  231 3842.44 0.00000 -7.64382e-14
  232 3842.44 0.00000 1.84118e-13
  233 3842.44 0.00000 1.45563e-12
  234 3842.44 0.00000 8.97514e-14
  235 3842.44 0.00000 -6.20878e-14
  236 3842.44 0.00000 2.10588e-14
  237 3842.44 0.00000 2.51160e-13
  238 3842.44 0.00000 6.79121e-13
  239 3842.44 0.00000 3.83819e-13
  240 3842.44 0.00000 2.32285e-13
  241 3842.44 0.00000 -2.41084e-14
</Section>

newXOutput 84

<Section columns = "stress_xx | stress_yy | stress_xy">
  1 3890.06 0.00000 -1.63820e-13
  2 3890.06 0.00000 -1.74271e-13
  3 3890.06 0.00000 3.31435e-13
  4 3890.06 0.00000 -2.62049e-14
  5 3890.06 0.00000 -2.70088e-13
  6 3890.06 0.00000 -1.93050e-13
  7 3890.06 0.00000 -1.35271e-13
  8 3890.06 0.00000 -2.69919e-13
  9 3890.06 0.00000 -5.98267e-13
  10 3890.06 0.00000 -2.50971e-13
  11 3890.06 0.00000 1.28575e-14
  12 3890.06 0.00000 -1.40927e-12
  13 3890.06 0.00000 -8.97828e-13
  14 3890.06 0.00000 -2.57400e-13
  15 3890.06 0.00000 -1.40840e-14
  16 3890.06 0.00000 -9.72331e-14
  17 3890.06 0.00000 1.12074e-12
  18 3890.06 0.00000 2.10928e-12
  19 3890.06 0.00000 7.00005e-13
  20 3890.06 0.00000 -1.40927e-12
  21 3890.06 0.00000 -3.79671e-13
  22 3890.06 0.00000 1.08167e-13
  23 3890.06 0.00000 -2.32362e-13
  24 3890.06 0.00000 -6.89071e-13
  25 3890.06 0.00000 -2.61407e-13
  26 3890.06 0.00000 3.07495e-13
  27 3890.06 0.00000 -2.61407e-13
  28 3890.06 0.00000 -8.88693e-13
  29 3890.06 0.00000 -1.45850e-13
  30 3890.06 0.00000 5.11013e-13
  31 3890.06 0.00000 2.75330e-15
  32 3890.06 0.00000 8.13295e-13
  33 3890.06 0.00000 1.00259e-12
  34 3890.06 0.00000 5.17137e-13
  35 3890.06 0.00000 8.69089e-13
  36 3890.06 0.00000 4.88154e-13
  37 3890.06 0.00000 1.85858e-13
  38 3890.06 0.00000 5.92685e-13
  39 3890.06 0.00000 3.95916e-13
  40 3890.06 0.00000 -7.31827e-13
  41 3890.06 0.00000 -2.00360e-13
  42 3890.06 0.00000 -3.03330e-13
  43 3890.06 0.00000 -1.75767e-13
  44 3890.06 0.00000 4.30116e-13
  45 3890.06 0.00000 7.14365e-13
  46 3890.06 0.00000 1.19380e-13
  47 3890.06 0.00000 -8.92232e-14
  48 3890.06 0.00000 2.53611e-13
  49 3890.06 0.00000 9.58157e-15
  50 3890.06 0.00000 7.88545e-14
  51 3890.06 0.00000 -3.02923e-14
  52 3890.06 0.00000 -1.24966e-13
  53 3890.06 0.00000 -2.28524e-13
  54 3890.06 0.00000 6.66641e-14
  55 3890.06 0.00000 2.31115e-13
  56 3890.06 0.00000 -1.55760e-13
  57 3890.06 0.00000 8.91211e-14
  58 3890.06 0.00000 -1.90782e-12
  59 3890.06 0.00000 -9.61081e-14
  60 3890.06 0.00000 -3.34548e-13
  61 3890.06 0.00000 8.02526e-14
  62 3890.06 0.00000 1.15950e-13
  63 3890.06 0.00000 1.77723e-13
  64 3890.06 0.00000 1.07673e-12
  65 3890.06 0.00000 -4.70003e-14
  66 3890.06 0.00000 -1.96045e-13
  67 3890.06 0.00000 6.70080e-13
  68 3890.06 0.00000 1.45529e-13
  69 3890.06 0.00000 9.99417e-15
  70 3890.06 0.00000 3.25141e-14
  71 3890.06 0.00000 -4.89349e-14
  72 3890.06 0.00000 1.43647e-13
  73 3890.06 0.00000 2.70203e-13
  74 3890.06 0.00000 -1.60710e-13
  75 3890.06 0.00000 -1.24794e-13
  76 3890.06 0.00000 4.30240e-14
  77 3890.06 0.00000 2.83051e-14
  78 3890.06 0.00000 -5.94355e-13
  79 3890.06 0.00000 -1.52287e-13
  80 3890.06 0.00000 -1.66698e-13
  81 3890.06 0.00000 -5.55271e-13
  82 3890.06 0.00000 4.92658e-13
  83 3890.06 0.00000 -5.27234e-13
  84 3890.06 0.00000 -1.86706e-13
  85 3890.06 0.00000 1.94884e-13
  86 3890.06 0.00000 6.73952e-14
  87 3890.06 0.00000 9.03413e-14
  88 3890.06 0.00000 -4.90343e-14
  89 3890.06 0.00000 -1.54440e-13
  90 3890.06 0.00000 3.81355e-13
  91 3890.06 0.00000 -1.94857e-13
  92 3890.06 0.00000 -4.24466e-14
  93 3890.06 0.00000 -5.07269e-14
  94 3890.06 0.00000 -4.69581e-13
  95 3890.06 0.00000 -2.72249e-13
  96 3890.06 0.00000 -1.69443e-14
  97 3890.06 0.00000 7.92423e-13
  98 3890.06 0.00000 2.50580e-13
  99 3890.06 0.00000 -8.40905e-14
  100 3890.06 0.00000 -5.15177e-13
  101 3890.06 0.00000 3.33143e-13
  102 3890.06 0.00000 3.80063e-13
  103 3890.06 0.00000 6.66183e-13
  104 3890.06 0.00000 5.38299e-13
  105 3890.06 0.00000 -2.66320e-13
  106 3890.06 0.00000 1.60049e-13
  107 3890.06 0.00000 1.71183e-12
  108 3890.06 0.00000 -8.17113e-14
  109 3890.06 0.00000 -1.83740e-13
  110 3890.06 0.00000 -1.01503e-12
  111 3890.06 0.00000 3.42278e-13
  112 3890.06 0.00000 2.97136e-14
  113 3890.06 0.00000 8.26092e-13
  114 3890.06 0.00000 3.42736e-13
  115 3890.06 0.00000 1.43084e-13
  116 3890.06 0.00000 2.31660e-13
  117 3890.06 0.00000 1.65318e-13
  118 3890.06 0.00000 -6.20623e-14
  119 3890.06 0.00000 3.47415e-13
  120 3890.06 0.00000 1.60337e-14
  121 3890.06 0.00000 -6.66521e-14
  122 3890.06 0.00000 -4.74606e-13
  123 3890.06 0.00000 1.59165e-13
  124 3890.06 0.00000 -6.81646e-13
  125 3890.06 0.00000 -7.75272e-14
  126 3890.06 0.00000 -6.37222e-14
  127 3890.06 0.00000 -2.93254e-13
  128 3890.06 0.00000 9.58984e-13
  129 3890.06 0.00000 2.66761e-13
  130 3890.06 0.00000 -5.97410e-13
  131 3890.06 0.00000 -1.37687e-13
  132 3890.06 0.00000 -4.26147e-13
  133 3890.06 0.00000 4.18971e-13
  134 3890.06 0.00000 -1.01832e-14
  135 3890.06 0.00000 5.31361e-13
  136 3890.06 0.00000 1.52060e-13
  137 3890.06 0.00000 6.20343e-13
  138 3890.06 0.00000 8.82118e-14
  139 3890.06 0.00000 5.36433e-14
  140 3890.06 0.00000 4.19475e-13
  141 3890.06 0.00000 -6.56558e-13
  142 3890.06 0.00000 -2.70417e-14
  143 3890.06 0.00000 5.88787e-14
  144 3890.06 0.00000 2.58729e-13
  145 3890.06 0.00000 -8.76730e-13
  146 3890.06 0.00000 -1.98855e-13
  147 3890.06 0.00000 6.12721e-14
  148 3890.06 0.00000 -9.06014e-14
  149 3890.06 0.00000 -1.59702e-12
  150 3890.06 0.00000 1.49226e-13
  151 3890.06 0.00000 2.96778e-13
  152 3890.06 0.00000 -4.58798e-13
  153 3890.06 0.00000 1.16914e-12
  154 3890.06 0.00000 -1.76817e-13
  155 3890.06 0.00000 -1.00877e-13
  156 3890.06 0.00000 -2.92420e-13
  157 3890.06 0.00000 -4.59685e-14
  158 3890.06 0.00000 -7.25264e-13
  159 3890.06 0.00000 -3.56483e-13
  160 3890.06 0.00000 -1.64092e-13
  161 3890.06 0.00000 -1.96507e-13
  162 3890.06 0.00000 4.50619e-13
  163 3890.06 0.00000 -3.70733e-13
  164 3890.06 0.00000 1.20542e-13
  165 3890.06 0.00000 -4.69852e-13
  166 3890.06 0.00000 4.00440e-14
  167 3890.06 0.00000 3.30229e-13
  168 3890.06 0.00000 4.97993e-13
  169 3890.06 0.00000 -1.41369e-13
  170 3890.06 0.00000 1.13835e-12
  171 3890.06 0.00000 1.33753e-13
  172 3890.06 0.00000 -7.65771e-13
  173 3890.06 0.00000 4.05381e-13
  174 3890.06 0.00000 -3.67321e-13
  175 3890.06 0.00000 5.94016e-14
  176 3890.06 0.00000 -3.06050e-13
  177 3890.06 0.00000 4.58169e-13
  178 3890.06 0.00000 8.96933e-14
  179 3890.06 0.00000 -1.15728e-13
  180 3890.06 0.00000 -7.81701e-15
  181 3890.06 0.00000 -2.48447e-13
  182 3890.06 0.00000 1.03090e-12
  183 3890.06 0.00000 6.60584e-14
  184 3890.06 0.00000 7.02491e-13
  185 3890.06 0.00000 -6.14539e-13
  186 3890.06 0.00000 -4.24672e-14
  187 3890.06 0.00000 3.26077e-13
  188 3890.06 0.00000 -5.77579e-14
  189 3890.06 0.00000 -1.57993e-13
  190 3890.06 0.00000 -1.27816e-13
  191 3890.06 0.00000 6.45419e-13
  192 3890.06 0.00000 -3.48512e-13
  193 3890.06 0.00000 -8.92369e-14
  194 3890.06 0.00000 1.16430e-12
  195 3890.06 0.00000 -6.77492e-14
  196 3890.06 0.00000 1.12165e-13
  197 3890.06 0.00000 -2.41312e-13
  198 3890.06 0.00000 -2.55940e-13
  199 3890.06 0.00000 -1.06739e-13
  200 3890.06 0.00000 -1.09309e-12
  201 3890.06 0.00000 -1.16199e-13
  202 3890.06 0.00000 -1.82306e-13
  203 3890.06 0.00000 1.91216e-13
  204 3890.06 0.00000 5.04660e-14
  205 3890.06 0.00000 7.41278e-14
  206 3890.06 0.00000 1.68130e-12
  207 3890.06 0.00000 1.62704e-13
  208 3890.06 0.00000 2.30133e-13
  209 3890.06 0.00000 -5.70469e-13
  210 3890.06 0.00000 -1.31855e-13
  211 3890.06 0.00000 -1.37893e-14
  212 3890.06 0.00000 8.48266e-13
  213 3890.06 0.00000 7.91748e-14
  214 3890.06 0.00000 -6.42786e-13
  215 3890.06 0.00000 -1.06087e-12
  216 3890.06 0.00000 -1.98659e-13
  217 3890.06 0.00000 1.48961e-13
  218 3890.06 0.00000 -1.94870e-13
  219 3890.06 0.00000 -1.32731e-13
  220 3890.06 0.00000 2.58359e-13
  221 3890.06 0.00000 7.41372e-13
  222 3890.06 0.00000 -8.42810e-13
  223 3890.06 0.00000 2.79904e-13
  224 3890.06 0.00000 1.37729e-14
  225 3890.06 0.00000 -1.79582e-13
  226 3890.06 0.00000 -2.21522e-13
  227 3890.06 0.00000 -3.83789e-15
  228 3890.06 0.00000 1.84711e-13
  229 3890.06 0.00000 9.04002e-14
  230 3890.06 0.00000 -4.32713e-13
  231 3890.06 0.00000 -3.06679e-13
  232 3890.06 0.00000 -3.63881e-14
  233 3890.06 0.00000 2.24047e-13
  234 3890.06 0.00000 -7.49583e-13
  235 3890.06 0.00000 -4.85966e-13
  236 3890.06 0.00000 -1.07632e-13
  237 3890.06 0.00000 -4.46964e-13
  238 3890.06 0.00000 -4.23780e-13
  239 3890.06 0.00000 6.34026e-13
  240 3890.06 0.00000 -3.47388e-13
  241 3890.06 0.00000 5.38797e-13
</Section>

newXOutput 85

<Section columns = "stress_xx | stress_yy | stress_xy">
  1 3937.72 0.00000 9.67623e-14
  2 3937.72 0.00000 -1.72926e-13
  3 3937.72 0.00000 -4.23625e-13
  4 3937.72 0.00000 -1.18791e-13
  5 3937.72 0.00000 1.54404e-13
  6 3937.72 0.00000 1.93525e-13
  7 3937.72 0.00000 3.64416e-13
  8 3937.72 0.00000 7.87830e-13
  9 3937.72 0.00000 9.88384e-14
  10 3937.72 0.00000 -3.78533e-13
  11 3937.72 0.00000 1.42748e-13
  12 3937.72 0.00000 -3.87049e-13
  13 3937.72 0.00000 -8.95774e-14
  14 3937.72 0.00000 3.73317e-13
  15 3937.72 0.00000 9.14092e-13
  16 3937.72 0.00000 -4.00781e-13
  17 3937.72 0.00000 -3.12961e-13
  18 3937.72 0.00000 -1.23252e-12
  19 3937.72 0.00000 -6.31350e-13
  20 3937.72 0.00000 -1.72926e-13
  21 3937.72 0.00000 5.16065e-13
  22 3937.72 0.00000 -5.37727e-13
  23 3937.72 0.00000 -7.74098e-13
  24 3937.72 0.00000 -2.30569e-13
  25 3937.72 0.00000 2.29770e-13
  26 3937.72 0.00000 -1.60383e-13
  27 3937.72 0.00000 9.25921e-13
  28 3937.72 0.00000 1.79998e-12
  29 3937.72 0.00000 2.96198e-14
  30 3937.72 0.00000 -4.76137e-13
  31 3937.72 0.00000 3.51478e-13
  32 3937.72 0.00000 1.54538e-13
  33 3937.72 0.00000 -4.88813e-13
  34 3937.72 0.00000 -4.11768e-13
  35 3937.72 0.00000 1.93652e-14
  36 3937.72 0.00000 2.61087e-13
  37 3937.72 0.00000 4.52204e-13
  38 3937.72 0.00000 -3.23104e-13
  39 3937.72 0.00000 -1.08530e-12
  40 3937.72 0.00000 -1.28117e-12
  41 3937.72 0.00000 -4.19048e-13
  42 3937.72 0.00000 -2.79100e-14
  43 3937.72 0.00000 2.41996e-14
  44 3937.72 0.00000 5.35013e-14
  45 3937.72 0.00000 -2.64141e-13
  46 3937.72 0.00000 -4.55298e-13
  47 3937.72 0.00000 -2.52477e-13
  48 3937.72 0.00000 8.09738e-14
  49 3937.72 0.00000 -1.90836e-13
  50 3937.72 0.00000 4.15884e-14
  51 3937.72 0.00000 1.48099e-14
  52 3937.72 0.00000 -3.81993e-14
  53 3937.72 0.00000 8.30302e-14
  54 3937.72 0.00000 1.60482e-13
  55 3937.72 0.00000 8.64632e-14
  56 3937.72 0.00000 -4.10495e-14
  57 3937.72 0.00000 -1.30640e-13
  58 3937.72 0.00000 9.43166e-13
  59 3937.72 0.00000 3.14472e-13
  60 3937.72 0.00000 -2.63165e-13
  61 3937.72 0.00000 9.82659e-14
  62 3937.72 0.00000 3.30485e-13
  63 3937.72 0.00000 -4.48795e-13
  64 3937.72 0.00000 -2.15683e-12
  65 3937.72 0.00000 7.65668e-14
  66 3937.72 0.00000 -3.55553e-13
  67 3937.72 0.00000 -1.01139e-12
  68 3937.72 0.00000 -2.05736e-13
  69 3937.72 0.00000 -4.30283e-13
  70 3937.72 0.00000 -1.44741e-13
  71 3937.72 0.00000 1.00117e-13
  72 3937.72 0.00000 -2.89731e-13
  73 3937.72 0.00000 2.42131e-14
  74 3937.72 0.00000 -1.84585e-13
  75 3937.72 0.00000 9.14850e-14
  76 3937.72 0.00000 1.75313e-12
  77 3937.72 0.00000 -7.16070e-14
  78 3937.72 0.00000 8.33249e-13
  79 3937.72 0.00000 2.09361e-13
  80 3937.72 0.00000 4.84480e-13
  81 3937.72 0.00000 -1.14084e-13
  82 3937.72 0.00000 -3.44122e-13
  83 3937.72 0.00000 -5.84007e-13
  84 3937.72 0.00000 1.47073e-13
  85 3937.72 0.00000 -3.07505e-14
  86 3937.72 0.00000 7.76853e-13
  87 3937.72 0.00000 -1.21184e-14
  88 3937.72 0.00000 -7.55806e-13
  89 3937.72 0.00000 1.21392e-13
  90 3937.72 0.00000 7.60047e-14
  91 3937.72 0.00000 7.23086e-14
  92 3937.72 0.00000 6.57857e-14
  93 3937.72 0.00000 -3.20940e-14
  94 3937.72 0.00000 -1.84962e-13
  95 3937.72 0.00000 3.59551e-13
  96 3937.72 0.00000 -7.89355e-14
  97 3937.72 0.00000 4.30688e-13
  98 3937.72 0.00000 9.37007e-14
  99 3937.72 0.00000 -1.86658e-13
  100 3937.72 0.00000 -2.34721e-14
  101 3937.72 0.00000 2.41014e-13
  102 3937.72 0.00000 -4.70088e-13
  103 3937.72 0.00000 6.38623e-14
  104 3937.72 0.00000 7.72424e-14
  105 3937.72 0.00000 -1.31747e-13
  106 3937.72 0.00000 4.47698e-13
  107 3937.72 0.00000 -7.81503e-13
  108 3937.72 0.00000 -1.16094e-13
  109 3937.72 0.00000 8.55610e-14
  110 3937.72 0.00000 9.30387e-13
  111 3937.72 0.00000 2.47090e-13
  112 3937.72 0.00000 2.34457e-13
  113 3937.72 0.00000 -6.33201e-13
  114 3937.72 0.00000 4.80023e-13
  115 3937.72 0.00000 7.21156e-14
  116 3937.72 0.00000 4.50472e-13
  117 3937.72 0.00000 -1.28014e-12
  118 3937.72 0.00000 1.41792e-13
  119 3937.72 0.00000 6.08585e-13
  120 3937.72 0.00000 -7.79637e-14
  121 3937.72 0.00000 -8.13879e-14
  122 3937.72 0.00000 1.64581e-13
  123 3937.72 0.00000 1.43102e-13
  124 3937.72 0.00000 1.17033e-14
  125 3937.72 0.00000 3.77299e-13
  126 3937.72 0.00000 2.57560e-13
  127 3937.72 0.00000 5.19627e-13
  128 3937.72 0.00000 -2.40459e-13
  129 3937.72 0.00000 -1.72123e-13
  130 3937.72 0.00000 -2.88497e-13
  131 3937.72 0.00000 2.94434e-13
  132 3937.72 0.00000 -3.27086e-13
  133 3937.72 0.00000 -1.12351e-12
  134 3937.72 0.00000 2.35519e-13
  135 3937.72 0.00000 5.72579e-13
  136 3937.72 0.00000 -6.87498e-14
  137 3937.72 0.00000 -8.77106e-13
  138 3937.72 0.00000 3.81554e-14
  139 3937.72 0.00000 1.17191e-14
  140 3937.72 0.00000 1.84423e-13
  141 3937.72 0.00000 -5.95715e-14
  142 3937.72 0.00000 1.95314e-13
  143 3937.72 0.00000 2.63576e-14
  144 3937.72 0.00000 -5.49191e-13
  145 3937.72 0.00000 4.80724e-13
  146 3937.72 0.00000 1.44587e-13
  147 3937.72 0.00000 -7.14703e-13
  148 3937.72 0.00000 6.97973e-14
  149 3937.72 0.00000 1.89821e-12
  150 3937.72 0.00000 2.60704e-13
  151 3937.72 0.00000 -2.97579e-13
  152 3937.72 0.00000 -7.07694e-13
  153 3937.72 0.00000 6.59336e-13
  154 3937.72 0.00000 1.56633e-13
  155 3937.72 0.00000 -4.00551e-13
  156 3937.72 0.00000 -8.51243e-13
  157 3937.72 0.00000 -2.21262e-14
  158 3937.72 0.00000 -1.16172e-12
  159 3937.72 0.00000 -6.58814e-13
  160 3937.72 0.00000 -6.77336e-14
  161 3937.72 0.00000 1.68919e-12
  162 3937.72 0.00000 7.90119e-14
  163 3937.72 0.00000 5.57072e-13
  164 3937.72 0.00000 2.86685e-13
  165 3937.72 0.00000 -1.74655e-13
  166 3937.72 0.00000 -1.78278e-14
  167 3937.72 0.00000 2.27176e-13
  168 3937.72 0.00000 6.85906e-13
  169 3937.72 0.00000 -5.90622e-14
  170 3937.72 0.00000 -3.48688e-13
  171 3937.72 0.00000 2.23977e-13
  172 3937.72 0.00000 -3.42461e-13
  173 3937.72 0.00000 -2.50352e-13
  174 3937.72 0.00000 -3.21716e-13
  175 3937.72 0.00000 1.03244e-14
  176 3937.72 0.00000 2.46832e-15
  177 3937.72 0.00000 -9.74155e-13
  178 3937.72 0.00000 -3.44922e-13
  179 3937.72 0.00000 6.50990e-13
  180 3937.72 0.00000 -1.74181e-13
  181 3937.72 0.00000 -4.92893e-13
  182 3937.72 0.00000 5.82053e-13
  183 3937.72 0.00000 -8.49596e-14
  184 3937.72 0.00000 -1.17763e-12
  185 3937.72 0.00000 -2.88051e-13
  186 3937.72 0.00000 -2.15751e-13
  187 3937.72 0.00000 -4.12004e-13
  188 3937.72 0.00000 3.09882e-13
  189 3937.72 0.00000 3.52464e-13
  190 3937.72 0.00000 -6.59112e-14
  191 3937.72 0.00000 1.44931e-13
  192 3937.72 0.00000 1.04351e-12
  193 3937.72 0.00000 -1.34169e-13
  194 3937.72 0.00000 -9.74954e-13
  195 3937.72 0.00000 -4.90995e-14
  196 3937.72 0.00000 -5.89075e-13
  197 3937.72 0.00000 -2.24814e-13
  198 3937.72 0.00000 -1.21879e-12
  199 3937.72 0.00000 1.32024e-13
  200 3937.72 0.00000 1.18779e-12
  201 3937.72 0.00000 -9.26381e-14
  202 3937.72 0.00000 -2.41794e-13
  203 3937.72 0.00000 -4.97397e-13
  204 3937.72 0.00000 1.70997e-13
  205 3937.72 0.00000 -5.40497e-14
  206 3937.72 0.00000 2.41283e-13
  207 3937.72 0.00000 7.99860e-15
  208 3937.72 0.00000 8.79522e-13
  209 3937.72 0.00000 -3.24257e-13
  210 3937.72 0.00000 -2.43858e-13
  211 3937.72 0.00000 2.19118e-13
  212 3937.72 0.00000 -8.87737e-15
  213 3937.72 0.00000 2.98213e-14
  214 3937.72 0.00000 3.98948e-13
  215 3937.72 0.00000 1.25211e-12
  216 3937.72 0.00000 1.43618e-13
  217 3937.72 0.00000 -1.35838e-12
  218 3937.72 0.00000 -5.20846e-14
  219 3937.72 0.00000 1.67993e-13
  220 3937.72 0.00000 1.15291e-13
  221 3937.72 0.00000 4.73912e-13
  222 3937.72 0.00000 2.07935e-13
  223 3937.72 0.00000 2.00071e-13
  224 3937.72 0.00000 -2.96198e-15
  225 3937.72 0.00000 -9.17606e-14
  226 3937.72 0.00000 -4.15789e-14
  227 3937.72 0.00000 4.80378e-13
  228 3937.72 0.00000 3.89364e-13
  229 3937.72 0.00000 -4.03176e-15
  230 3937.72 0.00000 -3.15954e-13
  231 3937.72 0.00000 -2.23990e-13
  232 3937.72 0.00000 8.85230e-14
  233 3937.72 0.00000 1.42964e-12
  234 3937.72 0.00000 2.28521e-13
  235 3937.72 0.00000 -3.60663e-13
  236 3937.72 0.00000 4.21598e-14
  237 3937.72 0.00000 -6.08377e-13
  238 3937.72 0.00000 -2.28621e-13
  239 3937.72 0.00000 -2.80960e-13
  240 3937.72 0.00000 2.01764e-13
  241 3937.72 0.00000 -2.81917e-13
</Section>

newXOutput 86

<Section columns = "stress_xx | stress_yy | stress_xy">
  1 3985.44 0.00000 -5.61931e-13
  2 3985.44 0.00000 3.71579e-13
  3 3985.44 0.00000 -2.44820e-12
  4 3985.44 0.00000 2.30118e-13
  5 3985.44 0.00000 -8.70581e-13
  6 3985.44 0.00000 -9.70017e-13
  7 3985.44 0.00000 -1.07302e-12
  8 3985.44 0.00000 -6.61628e-13
  9 3985.44 0.00000 -1.44285e-13
  10 3985.44 0.00000 1.18992e-12
  11 3985.44 0.00000 1.30831e-12
  12 3985.44 0.00000 5.06391e-13
  13 3985.44 0.00000 1.15581e-12
  14 3985.44 0.00000 1.03468e-12
  15 3985.44 0.00000 2.13429e-13
  16 3985.44 0.00000 3.84009e-13
  17 3985.44 0.00000 -5.28294e-13
  18 3985.44 0.00000 -3.76013e-13
  19 3985.44 0.00000 6.50676e-13
  20 3985.44 0.00000 -1.14907e-12
  21 3985.44 0.00000 -1.30431e-12
  22 3985.44 0.00000 2.47720e-13
  23 3985.44 0.00000 2.36768e-13
  24 3985.44 0.00000 2.85965e-13
  25 3985.44 0.00000 1.71579e-13
  26 3985.44 0.00000 -8.21712e-14
  27 3985.44 0.00000 -4.09999e-13
  28 3985.44 0.00000 -1.61803e-12
  29 3985.44 0.00000 -2.00525e-13
  30 3985.44 0.00000 -3.21798e-13
  31 3985.44 0.00000 -1.53087e-12
  32 3985.44 0.00000 7.45266e-13
  33 3985.44 0.00000 -3.03991e-13
  34 3985.44 0.00000 -4.92281e-13
  35 3985.44 0.00000 4.21507e-14
  36 3985.44 0.00000 1.00007e-13
  37 3985.44 0.00000 -6.52725e-13
  38 3985.44 0.00000 6.51491e-13
  39 3985.44 0.00000 9.78392e-13
  40 3985.44 0.00000 4.68185e-13
  41 3985.44 0.00000 1.15003e-13
  42 3985.44 0.00000 5.62496e-13
  43 3985.44 0.00000 4.12702e-13
  44 3985.44 0.00000 -1.48771e-14
  45 3985.44 0.00000 -2.62757e-13
  46 3985.44 0.00000 -1.04893e-13
  47 3985.44 0.00000 1.77446e-13
  48 3985.44 0.00000 1.35338e-13
  49 3985.44 0.00000 5.30427e-13
  50 3985.44 0.00000 -7.67286e-14
  51 3985.44 0.00000 -1.44730e-14
  52 3985.44 0.00000 2.94937e-14
  53 3985.44 0.00000 2.37810e-13
  54 3985.44 0.00000 -1.49919e-13
  55 3985.44 0.00000 -8.57894e-14
  56 3985.44 0.00000 2.19255e-14
  57 3985.44 0.00000 1.44308e-13
  58 3985.44 0.00000 5.21385e-13
  59 3985.44 0.00000 6.37923e-13
  60 3985.44 0.00000 -2.57793e-13
  61 3985.44 0.00000 -2.76011e-13
  62 3985.44 0.00000 -4.77826e-14
  63 3985.44 0.00000 4.64617e-13
  64 3985.44 0.00000 1.01708e-12
  65 3985.44 0.00000 8.92659e-14
  66 3985.44 0.00000 3.94874e-13
  67 3985.44 0.00000 -3.08296e-13
  68 3985.44 0.00000 1.34942e-13
  69 3985.44 0.00000 -4.02497e-13
  70 3985.44 0.00000 -3.74712e-13
  71 3985.44 0.00000 9.63502e-14
  72 3985.44 0.00000 -5.58885e-14
  73 3985.44 0.00000 1.07527e-12
  74 3985.44 0.00000 4.93373e-14
  75 3985.44 0.00000 -6.48555e-13
  76 3985.44 0.00000 -1.33764e-12
  77 3985.44 0.00000 1.14016e-13
  78 3985.44 0.00000 7.61384e-13
  79 3985.44 0.00000 5.57164e-13
  80 3985.44 0.00000 -3.19166e-13
  81 3985.44 0.00000 3.52349e-13
  82 3985.44 0.00000 -5.59563e-15
  83 3985.44 0.00000 2.46633e-13
  84 3985.44 0.00000 1.19817e-13
  85 3985.44 0.00000 9.01351e-13
  86 3985.44 0.00000 1.06263e-12
  87 3985.44 0.00000 -2.08345e-13
  88 3985.44 0.00000 -1.11534e-12
  89 3985.44 0.00000 2.84617e-13
  90 3985.44 0.00000 -1.02447e-12
  91 3985.44 0.00000 -6.32546e-13
  92 3985.44 0.00000 -2.86077e-13
  93 3985.44 0.00000 -3.58489e-13
  94 3985.44 0.00000 2.69978e-12
  95 3985.44 0.00000 -7.37356e-13
  96 3985.44 0.00000 1.82356e-13
  97 3985.44 0.00000 1.41878e-12
  98 3985.44 0.00000 -8.25239e-14
  99 3985.44 0.00000 6.87161e-13
  100 3985.44 0.00000 3.11866e-13
  101 3985.44 0.00000 6.70576e-14
  102 3985.44 0.00000 -3.26232e-13
  103 3985.44 0.00000 4.40229e-14
  104 3985.44 0.00000 6.42244e-13
  105 3985.44 0.00000 6.23999e-14
  106 3985.44 0.00000 -1.32337e-14
  107 3985.44 0.00000 3.30531e-13
  108 3985.44 0.00000 7.19659e-14
  109 3985.44 0.00000 -2.51200e-13
  110 3985.44 0.00000 -1.78934e-12
  111 3985.44 0.00000 -5.08557e-13
  112 3985.44 0.00000 -3.82939e-13
  113 3985.44 0.00000 2.90681e-13
  114 3985.44 0.00000 -2.10474e-13
  115 3985.44 0.00000 -3.98764e-13
  116 3985.44 0.00000 -4.03860e-13
  117 3985.44 0.00000 -1.09925e-12
  118 3985.44 0.00000 2.65701e-13
  119 3985.44 0.00000 6.19782e-13
  120 3985.44 0.00000 -2.25392e-13
  121 3985.44 0.00000 2.03761e-14
  122 3985.44 0.00000 -2.51510e-13
  123 3985.44 0.00000 -5.42942e-13
  124 3985.44 0.00000 5.40786e-13
  125 3985.44 0.00000 -2.07139e-13
  126 3985.44 0.00000 -5.40012e-13
  127 3985.44 0.00000 -1.68599e-13
  128 3985.44 0.00000 1.46875e-12
  129 3985.44 0.00000 -1.70459e-13
  130 3985.44 0.00000 -7.30859e-13
  131 3985.44 0.00000 -2.38990e-13
  132 3985.44 0.00000 -3.01323e-13
  133 3985.44 0.00000 9.33474e-13
  134 3985.44 0.00000 2.69474e-13
  135 3985.44 0.00000 1.02224e-12
  136 3985.44 0.00000 9.76039e-15
  137 3985.44 0.00000 6.40264e-13
  138 3985.44 0.00000 3.54108e-13
  139 3985.44 0.00000 1.23245e-13
  140 3985.44 0.00000 -5.07360e-14
  141 3985.44 0.00000 3.02262e-13
  142 3985.44 0.00000 -6.11671e-13
  143 3985.44 0.00000 3.12425e-13
  144 3985.44 0.00000 2.21408e-13
  145 3985.44 0.00000 -4.12840e-13
  146 3985.44 0.00000 -6.08801e-13
  147 3985.44 0.00000 3.86748e-13
  148 3985.44 0.00000 -2.19808e-13
  149 3985.44 0.00000 -2.24558e-12
  150 3985.44 0.00000 -9.61393e-15
  151 3985.44 0.00000 1.31335e-13
  152 3985.44 0.00000 -1.95886e-12
  153 3985.44 0.00000 5.92180e-13
  154 3985.44 0.00000 8.13448e-15
  155 3985.44 0.00000 -7.76918e-13
  156 3985.44 0.00000 2.40644e-14
  157 3985.44 0.00000 -1.03180e-14
  158 3985.44 0.00000 -3.36290e-13
  159 3985.44 0.00000 4.40375e-13
  160 3985.44 0.00000 3.09675e-13
  161 3985.44 0.00000 -4.27384e-13
  162 3985.44 0.00000 4.50685e-14
  163 3985.44 0.00000 -5.13266e-13
  164 3985.44 0.00000 3.98316e-13
  165 3985.44 0.00000 5.64887e-13
  166 3985.44 0.00000 -9.83927e-14
  167 3985.44 0.00000 3.25966e-13
  168 3985.44 0.00000 -4.65239e-13
  169 3985.44 0.00000 3.59855e-13
  170 3985.44 0.00000 -8.37302e-14
  171 3985.44 0.00000 -5.54817e-13
  172 3985.44 0.00000 5.23753e-13
  173 3985.44 0.00000 -2.95546e-13
  174 3985.44 0.00000 5.62932e-13
  175 3985.44 0.00000 2.86285e-14
  176 3985.44 0.00000 -1.47751e-13
  177 3985.44 0.00000 -8.45695e-13
  178 3985.44 0.00000 1.87441e-13
  179 3985.44 0.00000 -6.53666e-13
  180 3985.44 0.00000 9.32398e-14
  181 3985.44 0.00000 3.53719e-13
  182 3985.44 0.00000 -2.51980e-13
  183 3985.44 0.00000 -3.32150e-13
  184 3985.44 0.00000 1.30785e-12
  185 3985.44 0.00000 7.30773e-13
  186 3985.44 0.00000 6.11841e-13
  187 3985.44 0.00000 -9.42780e-14
  188 3985.44 0.00000 3.32099e-13
  189 3985.44 0.00000 -1.65946e-13
  190 3985.44 0.00000 6.51707e-14
  191 3985.44 0.00000 5.21080e-13
  192 3985.44 0.00000 3.65767e-13
  193 3985.44 0.00000 -1.25765e-13
  194 3985.44 0.00000 1.00809e-12
  195 3985.44 0.00000 5.13259e-14
  196 3985.44 0.00000 -6.42879e-13
  197 3985.44 0.00000 4.84510e-13
  198 3985.44 0.00000 2.66215e-12
  199 3985.44 0.00000 3.02065e-13
  200 3985.44 0.00000 6.21428e-13
  201 3985.44 0.00000 -7.96130e-13
  202 3985.44 0.00000 2.82687e-13
  203 3985.44 0.00000 2.58671e-13
  204 3985.44 0.00000 -1.66915e-13
  205 3985.44 0.00000 3.60758e-13
  206 3985.44 0.00000 -3.34134e-13
  207 3985.44 0.00000 4.06088e-15
  208 3985.44 0.00000 -1.78899e-13
  209 3985.44 0.00000 8.82925e-13
  210 3985.44 0.00000 1.26956e-13
  211 3985.44 0.00000 -5.73070e-13
  212 3985.44 0.00000 1.28074e-12
  213 3985.44 0.00000 3.82288e-14
  214 3985.44 0.00000 -4.23522e-13
  215 3985.44 0.00000 7.40228e-13
  216 3985.44 0.00000 2.37556e-14
  217 3985.44 0.00000 1.85212e-12
  218 3985.44 0.00000 -1.92340e-13
  219 3985.44 0.00000 1.03260e-13
  220 3985.44 0.00000 3.14386e-13
  221 3985.44 0.00000 1.66755e-13
  222 3985.44 0.00000 -2.54307e-12
  223 3985.44 0.00000 -2.99767e-13
  224 3985.44 0.00000 -5.42088e-13
  225 3985.44 0.00000 2.90356e-12
  226 3985.44 0.00000 2.87512e-13
  227 3985.44 0.00000 -1.21861e-13
  228 3985.44 0.00000 -4.94032e-13
  229 3985.44 0.00000 -2.28336e-13
  230 3985.44 0.00000 -1.11365e-12
  231 3985.44 0.00000 1.04511e-13
  232 3985.44 0.00000 -1.71971e-13
  233 3985.44 0.00000 -1.25539e-12
  234 3985.44 0.00000 -6.81249e-13
  235 3985.44 0.00000 3.63752e-13
  236 3985.44 0.00000 2.85325e-13
  237 3985.44 0.00000 2.23405e-14
  238 3985.44 0.00000 9.80516e-15
  239 3985.44 0.00000 3.35899e-13
  240 3985.44 0.00000 -7.76014e-14
  241 3985.44 0.00000 1.18992e-12
</Section>

newXOutput 87

<Section columns = "stress_xx | stress_yy | stress_xy">
  1 4033.22 0.00000 9.72433e-14
  2 4033.22 0.00000 -1.18701e-12
  3 4033.22 0.00000 4.95313e-13
  4 4033.22 0.00000 7.11762e-14
  5 4033.22 0.00000 -1.61720e-14
  6 4033.22 0.00000 -4.37489e-13
  7 4033.22 0.00000 -9.72433e-14
  8 4033.22 0.00000 -9.73138e-14
  9 4033.22 0.00000 3.23440e-14
  10 4033.22 0.00000 6.46880e-14
  11 4033.22 0.00000 -2.26972e-13
  12 4033.22 0.00000 1.00090e-13
  13 4033.22 0.00000 -1.96569e-13
  14 4033.22 0.00000 -4.24093e-13
  15 4033.22 0.00000 -1.16692e-12
  16 4033.22 0.00000 -4.05145e-13
  17 4033.22 0.00000 -4.05145e-13
  18 4033.22 0.00000 4.61888e-13
  19 4033.22 0.00000 -2.26972e-13
  20 4033.22 0.00000 -7.34600e-13
  21 4033.22 0.00000 -1.73407e-12
  22 4033.22 0.00000 -1.14280e-12
  23 4033.22 0.00000 -2.15011e-12
  24 4033.22 0.00000 5.18631e-13
  25 4033.22 0.00000 0.00000
  26 4033.22 0.00000 -2.27655e-13
  27 4033.22 0.00000 -1.04669e-12
  28 4033.22 0.00000 -8.45316e-13
  29 4033.22 0.00000 2.69478e-13
  30 4033.22 0.00000 8.13348e-13
  31 4033.22 0.00000 1.45207e-13
  32 4033.22 0.00000 8.65041e-13
  33 4033.22 0.00000 1.13918e-15
  34 4033.22 0.00000 -1.43184e-12
  35 4033.22 0.00000 -2.59929e-13
  36 4033.22 0.00000 -5.65972e-13
  37 4033.22 0.00000 -1.77903e-12
  38 4033.22 0.00000 -5.82104e-13
  39 4033.22 0.00000 -7.39574e-13
  40 4033.22 0.00000 -1.19437e-12
  41 4033.22 0.00000 -1.02668e-13
  42 4033.22 0.00000 -1.84829e-13
  43 4033.22 0.00000 -4.70047e-13
  44 4033.22 0.00000 -3.48490e-13
  45 4033.22 0.00000 4.74006e-15
  46 4033.22 0.00000 -2.55934e-13
  47 4033.22 0.00000 1.00742e-14
  48 4033.22 0.00000 2.13184e-13
  49 4033.22 0.00000 1.80552e-13
  50 4033.22 0.00000 -3.71263e-14
  51 4033.22 0.00000 -1.41355e-14
  52 4033.22 0.00000 -6.08704e-14
  53 4033.22 0.00000 2.29908e-14
  54 4033.22 0.00000 5.30080e-15
  55 4033.22 0.00000 0.00000
  56 4033.22 0.00000 -5.43870e-14
  57 4033.22 0.00000 1.47167e-13
  58 4033.22 0.00000 -9.86549e-13
  59 4033.22 0.00000 2.14346e-13
  60 4033.22 0.00000 6.55632e-13
  61 4033.22 0.00000 4.81490e-13
  62 4033.22 0.00000 -3.14845e-13
  63 4033.22 0.00000 6.84795e-13
  64 4033.22 0.00000 6.69962e-13
  65 4033.22 0.00000 6.73815e-14
  66 4033.22 0.00000 1.89302e-14
  67 4033.22 0.00000 -7.99429e-13
  68 4033.22 0.00000 4.41798e-13
  69 4033.22 0.00000 -2.61521e-13
  70 4033.22 0.00000 -1.62392e-13
  71 4033.22 0.00000 3.23346e-14
  72 4033.22 0.00000 -2.48134e-13
  73 4033.22 0.00000 1.40864e-12
  74 4033.22 0.00000 -2.73560e-13
  75 4033.22 0.00000 -4.32631e-14
  76 4033.22 0.00000 1.99198e-13
  77 4033.22 0.00000 -1.21466e-14
  78 4033.22 0.00000 8.44652e-13
  79 4033.22 0.00000 -5.60030e-13
  80 4033.22 0.00000 -1.08404e-13
  81 4033.22 0.00000 -4.16377e-13
  82 4033.22 0.00000 -3.68352e-13
  83 4033.22 0.00000 3.28891e-13
  84 4033.22 0.00000 8.12122e-15
  85 4033.22 0.00000 1.55253e-13
  86 4033.22 0.00000 -1.26284e-13
  87 4033.22 0.00000 -1.09040e-13
  88 4033.22 0.00000 -2.59845e-12
  89 4033.22 0.00000 4.81991e-15
  90 4033.22 0.00000 1.92465e-13
  91 4033.22 0.00000 -4.00839e-13
  92 4033.22 0.00000 -3.64673e-13
  93 4033.22 0.00000 -1.09567e-12
  94 4033.22 0.00000 -8.12879e-13
  95 4033.22 0.00000 -1.82873e-13
  96 4033.22 0.00000 -7.87606e-15
  97 4033.22 0.00000 -1.47483e-12
  98 4033.22 0.00000 -3.20871e-13
  99 4033.22 0.00000 7.31467e-13
  100 4033.22 0.00000 8.94288e-15
  101 4033.22 0.00000 -1.69113e-14
  102 4033.22 0.00000 6.26364e-13
  103 4033.22 0.00000 -1.53003e-13
  104 4033.22 0.00000 -1.17495e-13
  105 4033.22 0.00000 -9.45761e-13
  106 4033.22 0.00000 -5.52733e-13
  107 4033.22 0.00000 9.70607e-13
  108 4033.22 0.00000 -1.75317e-13
  109 4033.22 0.00000 4.80318e-14
  110 4033.22 0.00000 6.48809e-13
  111 4033.22 0.00000 -4.37320e-14
  112 4033.22 0.00000 1.03702e-12
  113 4033.22 0.00000 -2.39389e-13
  114 4033.22 0.00000 -2.88318e-13
  115 4033.22 0.00000 3.20252e-13
  116 4033.22 0.00000 2.28532e-13
  117 4033.22 0.00000 1.93388e-12
  118 4033.22 0.00000 -7.48655e-16
  119 4033.22 0.00000 -1.45880e-13
  120 4033.22 0.00000 1.34060e-13
  121 4033.22 0.00000 3.58627e-13
  122 4033.22 0.00000 -3.74812e-13
  123 4033.22 0.00000 1.30532e-13
  124 4033.22 0.00000 -9.25001e-13
  125 4033.22 0.00000 -4.86823e-13
  126 4033.22 0.00000 -1.19874e-13
  127 4033.22 0.00000 1.24631e-12
  128 4033.22 0.00000 -9.30325e-13
  129 4033.22 0.00000 -1.64732e-13
  130 4033.22 0.00000 2.63409e-13
  131 4033.22 0.00000 -4.08621e-13
  132 4033.22 0.00000 -4.45532e-13
  133 4033.22 0.00000 -6.50058e-13
  134 4033.22 0.00000 3.66161e-13
  135 4033.22 0.00000 -2.26986e-13
  136 4033.22 0.00000 -9.54077e-15
  137 4033.22 0.00000 1.29509e-13
  138 4033.22 0.00000 9.05401e-15
  139 4033.22 0.00000 -1.10148e-14
  140 4033.22 0.00000 -7.44922e-13
  141 4033.22 0.00000 -2.87652e-13
  142 4033.22 0.00000 1.66714e-13
  143 4033.22 0.00000 -1.41841e-13
  144 4033.22 0.00000 -1.03736e-12
  145 4033.22 0.00000 -1.84710e-13
  146 4033.22 0.00000 -5.58482e-13
  147 4033.22 0.00000 -9.09469e-13
  148 4033.22 0.00000 -1.73852e-14
  149 4033.22 0.00000 -1.55825e-12
  150 4033.22 0.00000 1.68786e-13
  151 4033.22 0.00000 4.65931e-13
  152 4033.22 0.00000 4.17415e-13
  153 4033.22 0.00000 8.50423e-13
  154 4033.22 0.00000 -2.43531e-13
  155 4033.22 0.00000 1.12233e-13
  156 4033.22 0.00000 6.20511e-13
  157 4033.22 0.00000 -3.44375e-13
  158 4033.22 0.00000 -1.02079e-12
  159 4033.22 0.00000 -1.09213e-13
  160 4033.22 0.00000 4.07015e-15
  161 4033.22 0.00000 -4.30339e-13
  162 4033.22 0.00000 -2.01921e-13
  163 4033.22 0.00000 -4.28066e-13
  164 4033.22 0.00000 4.94247e-13
  165 4033.22 0.00000 3.46905e-14
  166 4033.22 0.00000 -1.65868e-13
  167 4033.22 0.00000 -1.01688e-13
  168 4033.22 0.00000 3.57391e-13
  169 4033.22 0.00000 4.26628e-14
  170 4033.22 0.00000 5.81770e-13
  171 4033.22 0.00000 1.36613e-13
  172 4033.22 0.00000 -2.30944e-13
  173 4033.22 0.00000 -6.20278e-14
  174 4033.22 0.00000 -6.23241e-13
  175 4033.22 0.00000 6.86711e-14
  176 4033.22 0.00000 -2.90026e-15
  177 4033.22 0.00000 -1.13802e-12
  178 4033.22 0.00000 1.09408e-13
  179 4033.22 0.00000 3.40035e-14
  180 4033.22 0.00000 -2.72407e-14
  181 4033.22 0.00000 -8.21507e-13
  182 4033.22 0.00000 -3.09879e-13
  183 4033.22 0.00000 -1.20823e-13
  184 4033.22 0.00000 -4.57065e-13
  185 4033.22 0.00000 1.89810e-13
  186 4033.22 0.00000 -1.06904e-13
  187 4033.22 0.00000 -7.81085e-13
  188 4033.22 0.00000 1.22023e-13
  189 4033.22 0.00000 -6.47786e-14
  190 4033.22 0.00000 1.31113e-13
  191 4033.22 0.00000 3.73435e-13
  192 4033.22 0.00000 6.40157e-13
  193 4033.22 0.00000 1.18050e-13
  194 4033.22 0.00000 -1.90373e-13
  195 4033.22 0.00000 -2.35335e-13
  196 4033.22 0.00000 2.43494e-13
  197 4033.22 0.00000 1.01295e-13
  198 4033.22 0.00000 -7.17231e-13
  199 4033.22 0.00000 -1.33067e-13
  200 4033.22 0.00000 -3.95038e-13
  201 4033.22 0.00000 -7.69416e-13
  202 4033.22 0.00000 -3.91800e-13
  203 4033.22 0.00000 2.34987e-13
  204 4033.22 0.00000 -4.27922e-13
  205 4033.22 0.00000 3.11980e-13
  206 4033.22 0.00000 4.59617e-13
  207 4033.22 0.00000 -1.78092e-13
  208 4033.22 0.00000 -6.20750e-13
  209 4033.22 0.00000 -1.38507e-12
  210 4033.22 0.00000 -2.41644e-13
  211 4033.22 0.00000 -6.59639e-14
  212 4033.22 0.00000 -1.05525e-12
  213 4033.22 0.00000 1.85223e-13
  214 4033.22 0.00000 -5.34851e-14
  215 4033.22 0.00000 -3.51319e-13
  216 4033.22 0.00000 -4.70227e-13
  217 4033.22 0.00000 -3.43276e-13
  218 4033.22 0.00000 -3.49606e-13
  219 4033.22 0.00000 4.67528e-13
  220 4033.22 0.00000 3.06215e-13
  221 4033.22 0.00000 2.67548e-14
  222 4033.22 0.00000 -6.80653e-13
  223 4033.22 0.00000 -3.69609e-13
  224 4033.22 0.00000 1.28863e-13
  225 4033.22 0.00000 -6.23244e-13
  226 4033.22 0.00000 1.24832e-13
  227 4033.22 0.00000 -4.05145e-13
  228 4033.22 0.00000 2.95821e-13
  229 4033.22 0.00000 -1.14778e-14
  230 4033.22 0.00000 1.21713e-13
  231 4033.22 0.00000 6.45095e-13
  232 4033.22 0.00000 -4.12471e-13
  233 4033.22 0.00000 -1.16716e-13
  234 4033.22 0.00000 3.71345e-14
  235 4033.22 0.00000 -5.14477e-13
  236 4033.22 0.00000 9.72433e-14
  237 4033.22 0.00000 7.21880e-14
  238 4033.22 0.00000 -3.45224e-13
  239 4033.22 0.00000 1.42420e-13
  240 4033.22 0.00000 4.49027e-13
  241 4033.22 0.00000 -7.73235e-13
</Section>

newXOutput 88

<Section columns = "stress_xx | stress_yy | stress_xy">
  1 4081.04 0.00000 -2.43718e-13
  2 4081.04 0.00000 -1.68876e-13
  3 4081.04 0.00000 3.69868e-13
  4 4081.04 0.00000 5.80031e-14
  5 4081.04 0.00000 -3.66152e-13
  6 4081.04 0.00000 1.42777e-13
  7 4081.04 0.00000 -1.23586e-13
  8 4081.04 0.00000 -3.72550e-13
  9 4081.04 0.00000 1.73990e-14
  10 4081.04 0.00000 1.47382e-13
  11 4081.04 0.00000 2.59966e-13
  12 4081.04 0.00000 9.76420e-13
  13 4081.04 0.00000 7.12741e-13
  14 4081.04 0.00000 4.42146e-13
  15 4081.04 0.00000 5.83393e-14
  16 4081.04 0.00000 4.07348e-13
  17 4081.04 0.00000 -1.33463e-12
  18 4081.04 0.00000 1.28434e-13
  19 4081.04 0.00000 1.83561e-12
  20 4081.04 0.00000 -1.68876e-13
  21 4081.04 0.00000 -9.27279e-13
  22 4081.04 0.00000 -2.41748e-12
  23 4081.04 0.00000 -1.13660e-12
  24 4081.04 0.00000 -3.56699e-13
  25 4081.04 0.00000 1.68876e-13
  26 4081.04 0.00000 2.32988e-13
  27 4081.04 0.00000 1.15245e-12
  28 4081.04 0.00000 2.91300e-13
  29 4081.04 0.00000 0.00000
  30 4081.04 0.00000 5.07777e-13
  31 4081.04 0.00000 -3.46122e-13
  32 4081.04 0.00000 -1.74907e-12
  33 4081.04 0.00000 5.11359e-13
  34 4081.04 0.00000 -1.01895e-12
  35 4081.04 0.00000 -1.44489e-12
  36 4081.04 0.00000 8.09117e-13
  37 4081.04 0.00000 3.29962e-13
  38 4081.04 0.00000 -1.27311e-13
  39 4081.04 0.00000 -7.27939e-13
  40 4081.04 0.00000 -6.59568e-13
  41 4081.04 0.00000 1.13898e-12
  42 4081.04 0.00000 7.03868e-13
  43 4081.04 0.00000 2.59064e-13
  44 4081.04 0.00000 2.10452e-13
  45 4081.04 0.00000 -1.09174e-13
  46 4081.04 0.00000 5.76528e-15
  47 4081.04 0.00000 -3.33732e-13
  48 4081.04 0.00000 4.54381e-14
  49 4081.04 0.00000 1.89530e-13
  50 4081.04 0.00000 3.88957e-14
  51 4081.04 0.00000 0.00000
  52 4081.04 0.00000 7.31726e-14
  53 4081.04 0.00000 -6.54901e-14
  54 4081.04 0.00000 -5.04682e-14
  55 4081.04 0.00000 1.68876e-13
  56 4081.04 0.00000 5.44910e-14
  57 4081.04 0.00000 -3.32758e-13
  58 4081.04 0.00000 2.55117e-13
  59 4081.04 0.00000 -3.79471e-13
  60 4081.04 0.00000 1.94845e-13
  61 4081.04 0.00000 -1.67481e-13
  62 4081.04 0.00000 -4.19206e-13
  63 4081.04 0.00000 1.40781e-12
  64 4081.04 0.00000 3.02040e-13
  65 4081.04 0.00000 1.35980e-13
  66 4081.04 0.00000 -2.07985e-13
  67 4081.04 0.00000 1.20339e-12
  68 4081.04 0.00000 -1.02863e-13
  69 4081.04 0.00000 2.58538e-13
  70 4081.04 0.00000 6.64618e-13
  71 4081.04 0.00000 -1.47954e-13
  72 4081.04 0.00000 1.34840e-13
  73 4081.04 0.00000 -7.12842e-14
  74 4081.04 0.00000 -4.33862e-13
  75 4081.04 0.00000 2.30758e-13
  76 4081.04 0.00000 2.01626e-13
  77 4081.04 0.00000 -2.97061e-13
  78 4081.04 0.00000 -5.67172e-13
  79 4081.04 0.00000 1.29990e-13
  80 4081.04 0.00000 -1.72577e-13
  81 4081.04 0.00000 -3.53355e-13
  82 4081.04 0.00000 -5.79328e-14
  83 4081.04 0.00000 -2.11299e-13
  84 4081.04 0.00000 -7.22905e-14
  85 4081.04 0.00000 3.63580e-13
  86 4081.04 0.00000 3.67813e-12
  87 4081.04 0.00000 -2.26263e-13
  88 4081.04 0.00000 -2.02922e-13
  89 4081.04 0.00000 -1.41403e-13
  90 4081.04 0.00000 2.27093e-13
  91 4081.04 0.00000 -1.97524e-13
  92 4081.04 0.00000 1.42389e-13
  93 4081.04 0.00000 4.91879e-13
  94 4081.04 0.00000 -1.70403e-13
  95 4081.04 0.00000 -2.85554e-14
  96 4081.04 0.00000 1.76678e-13
  97 4081.04 0.00000 1.76858e-13
  98 4081.04 0.00000 1.59038e-13
  99 4081.04 0.00000 4.78445e-14
  100 4081.04 0.00000 1.03305e-13
  101 4081.04 0.00000 -4.13496e-13
  102 4081.04 0.00000 3.88118e-13
  103 4081.04 0.00000 -1.54426e-13
  104 4081.04 0.00000 -6.17322e-14
  105 4081.04 0.00000 -6.69121e-13
  106 4081.04 0.00000 -4.07348e-13
  107 4081.04 0.00000 -2.29520e-13
  108 4081.04 0.00000 2.12661e-13
  109 4081.04 0.00000 -6.47925e-14
  110 4081.04 0.00000 9.07620e-13
  111 4081.04 0.00000 -3.25377e-13
  112 4081.04 0.00000 5.08433e-13
  113 4081.04 0.00000 -1.04161e-13
  114 4081.04 0.00000 7.61828e-13
  115 4081.04 0.00000 -3.86965e-14
  116 4081.04 0.00000 5.18912e-14
  117 4081.04 0.00000 -1.30623e-12
  118 4081.04 0.00000 -5.24003e-13
  119 4081.04 0.00000 4.37103e-13
  120 4081.04 0.00000 -2.89435e-13
  121 4081.04 0.00000 -3.32271e-13
  122 4081.04 0.00000 4.75269e-13
  123 4081.04 0.00000 4.60560e-13
  124 4081.04 0.00000 -3.17050e-14
  125 4081.04 0.00000 -4.36158e-14
  126 4081.04 0.00000 -1.73246e-13
  127 4081.04 0.00000 7.62781e-13
  128 4081.04 0.00000 2.43137e-13
  129 4081.04 0.00000 -7.76723e-14
  130 4081.04 0.00000 -1.32532e-13
  131 4081.04 0.00000 -3.57081e-13
  132 4081.04 0.00000 4.31452e-13
  133 4081.04 0.00000 -3.30727e-13
  134 4081.04 0.00000 -3.64038e-14
  135 4081.04 0.00000 1.68326e-12
  136 4081.04 0.00000 -2.49434e-13
  137 4081.04 0.00000 -2.82982e-13
  138 4081.04 0.00000 2.30746e-13
  139 4081.04 0.00000 -3.22889e-14
  140 4081.04 0.00000 2.15972e-14
  141 4081.04 0.00000 -2.23773e-13
  142 4081.04 0.00000 1.58129e-13
  143 4081.04 0.00000 -4.64854e-13
  144 4081.04 0.00000 7.23266e-13
  145 4081.04 0.00000 -4.54277e-13
  146 4081.04 0.00000 1.98542e-13
  147 4081.04 0.00000 -7.19903e-13
  148 4081.04 0.00000 -1.51980e-13
  149 4081.04 0.00000 2.52545e-13
  150 4081.04 0.00000 -3.90685e-13
  151 4081.04 0.00000 -3.16011e-13
  152 4081.04 0.00000 6.21519e-13
  153 4081.04 0.00000 -5.95922e-13
  154 4081.04 0.00000 -1.27723e-13
  155 4081.04 0.00000 2.67441e-14
  156 4081.04 0.00000 2.63122e-14
  157 4081.04 0.00000 1.61142e-13
  158 4081.04 0.00000 2.85683e-13
  159 4081.04 0.00000 6.94310e-13
  160 4081.04 0.00000 -1.51358e-13
  161 4081.04 0.00000 1.13687e-14
  162 4081.04 0.00000 4.96058e-13
  163 4081.04 0.00000 1.56218e-14
  164 4081.04 0.00000 7.29912e-13
  165 4081.04 0.00000 2.34706e-14
  166 4081.04 0.00000 2.24833e-13
  167 4081.04 0.00000 -4.87993e-13
  168 4081.04 0.00000 8.80938e-13
  169 4081.04 0.00000 -1.33569e-13
  170 4081.04 0.00000 7.02844e-13
  171 4081.04 0.00000 7.70904e-14
  172 4081.04 0.00000 -5.00233e-13
  173 4081.04 0.00000 -1.50528e-13
  174 4081.04 0.00000 1.25579e-12
  175 4081.04 0.00000 -3.37768e-14
  176 4081.04 0.00000 -1.05936e-13
  177 4081.04 0.00000 7.95918e-13
  178 4081.04 0.00000 -2.37395e-13
  179 4081.04 0.00000 -8.18280e-14
  180 4081.04 0.00000 2.33521e-14
  181 4081.04 0.00000 -5.33230e-13
  182 4081.04 0.00000 1.74718e-13
  183 4081.04 0.00000 -3.58026e-13
  184 4081.04 0.00000 -5.71721e-13
  185 4081.04 0.00000 -2.15860e-13
  186 4081.04 0.00000 3.53717e-13
  187 4081.04 0.00000 -1.15290e-13
  188 4081.04 0.00000 -3.13878e-13
  189 4081.04 0.00000 -5.91524e-13
  190 4081.04 0.00000 -2.24985e-13
  191 4081.04 0.00000 1.67653e-13
  192 4081.04 0.00000 1.33740e-12
  193 4081.04 0.00000 2.64937e-13
  194 4081.04 0.00000 -3.81647e-13
  195 4081.04 0.00000 4.35494e-13
  196 4081.04 0.00000 7.49502e-13
  197 4081.04 0.00000 -2.23773e-13
  198 4081.04 0.00000 8.95412e-14
  199 4081.04 0.00000 -3.32259e-13
  200 4081.04 0.00000 -1.17833e-13
  201 4081.04 0.00000 5.79098e-13
  202 4081.04 0.00000 1.07175e-13
  203 4081.04 0.00000 -5.60877e-13
  204 4081.04 0.00000 -3.60940e-13
  205 4081.04 0.00000 6.95905e-14
  206 4081.04 0.00000 -7.59018e-13
  207 4081.04 0.00000 -1.13349e-13
  208 4081.04 0.00000 -7.40394e-13
  209 4081.04 0.00000 2.78451e-12
  210 4081.04 0.00000 1.94398e-13
  211 4081.04 0.00000 4.25484e-14
  212 4081.04 0.00000 2.42193e-12
  213 4081.04 0.00000 -2.14866e-13
  214 4081.04 0.00000 6.39978e-13
  215 4081.04 0.00000 6.14538e-13
  216 4081.04 0.00000 -1.02771e-12
  217 4081.04 0.00000 1.02602e-12
  218 4081.04 0.00000 -2.11805e-13
  219 4081.04 0.00000 5.08162e-13
  220 4081.04 0.00000 -3.54002e-13
  221 4081.04 0.00000 -2.01879e-13
  222 4081.04 0.00000 -2.36164e-13
  223 4081.04 0.00000 2.04032e-13
  224 4081.04 0.00000 2.01123e-13
  225 4081.04 0.00000 -3.65381e-13
  226 4081.04 0.00000 -3.70750e-13
  227 4081.04 0.00000 -1.94520e-14
  228 4081.04 0.00000 7.16965e-13
  229 4081.04 0.00000 -2.15898e-13
  230 4081.04 0.00000 4.19643e-13
  231 4081.04 0.00000 4.98327e-13
  232 4081.04 0.00000 -1.24757e-13
  233 4081.04 0.00000 -9.04228e-13
  234 4081.04 0.00000 -1.51281e-13
  235 4081.04 0.00000 -3.43850e-13
  236 4081.04 0.00000 -4.53278e-14
  237 4081.04 0.00000 -3.47748e-13
  238 4081.04 0.00000 5.77093e-14
  239 4081.04 0.00000 3.96871e-13
  240 4081.04 0.00000 5.62516e-13
  241 4081.04 0.00000 -6.62714e-13
</Section>

newXOutput 89

<Section columns = "stress_xx | stress_yy | stress_xy">
  1 4128.93 0.00000 5.58924e-14
  2 4128.93 0.00000 2.06629e-12
  3 4128.93 0.00000 -5.16298e-13
  4 4128.93 0.00000 -7.70698e-14
  5 4128.93 0.00000 4.88666e-13
  6 4128.93 0.00000 3.62987e-13
  7 4128.93 0.00000 7.39986e-13
  8 4128.93 0.00000 5.21244e-13
  9 4128.93 0.00000 4.28194e-13
  10 4128.93 0.00000 -1.11680e-13
  11 4128.93 0.00000 -8.93546e-13
  12 4128.93 0.00000 -5.86399e-13
  13 4128.93 0.00000 4.32813e-13
  14 4128.93 0.00000 4.83982e-13
  15 4128.93 0.00000 1.95506e-13
  16 4128.93 0.00000 1.86203e-13
  17 4128.93 0.00000 1.12314e-13
  18 4128.93 0.00000 1.28480e-12
  19 4128.93 0.00000 5.55754e-14
  20 4128.93 0.00000 8.00444e-13
  21 4128.93 0.00000 -3.35040e-13
  22 4128.93 0.00000 5.76555e-13
  23 4128.93 0.00000 1.99161e-12
  24 4128.93 0.00000 3.53988e-13
  25 4128.93 0.00000 -3.35040e-13
  26 4128.93 0.00000 -1.43473e-12
  27 4128.93 0.00000 7.54315e-13
  28 4128.93 0.00000 1.64710e-13
  29 4128.93 0.00000 -2.69167e-14
  30 4128.93 0.00000 -1.19628e-12
  31 4128.93 0.00000 1.02959e-13
  32 4128.93 0.00000 -2.65726e-13
  33 4128.93 0.00000 -1.43663e-12
  34 4128.93 0.00000 -1.18016e-12
  35 4128.93 0.00000 9.90985e-13
  36 4128.93 0.00000 1.54413e-12
  37 4128.93 0.00000 -2.42105e-13
  38 4128.93 0.00000 -5.37789e-13
  39 4128.93 0.00000 -4.39610e-13
  40 4128.93 0.00000 -5.19489e-13
  41 4128.93 0.00000 -7.38026e-13
  42 4128.93 0.00000 -4.32653e-13
  43 4128.93 0.00000 -4.81396e-15
  44 4128.93 0.00000 -3.41982e-13
  45 4128.93 0.00000 -4.12845e-13
  46 4128.93 0.00000 1.01072e-13
  47 4128.93 0.00000 6.17224e-13
  48 4128.93 0.00000 2.96695e-13
  49 4128.93 0.00000 -1.24673e-14
  50 4128.93 0.00000 -1.18752e-13
  51 4128.93 0.00000 -1.67520e-13
  52 4128.93 0.00000 -2.46802e-13
  53 4128.93 0.00000 -2.18386e-13
  54 4128.93 0.00000 1.25898e-13
  55 4128.93 0.00000 1.67520e-13
  56 4128.93 0.00000 -2.02684e-13
  57 4128.93 0.00000 3.12559e-13
  58 4128.93 0.00000 8.14100e-13
  59 4128.93 0.00000 1.63658e-13
  60 4128.93 0.00000 8.58368e-14
  61 4128.93 0.00000 3.62841e-13
  62 4128.93 0.00000 -1.55671e-13
  63 4128.93 0.00000 9.21550e-13
  64 4128.93 0.00000 -1.64895e-12
  65 4128.93 0.00000 4.27390e-13
  66 4128.93 0.00000 8.66875e-14
  67 4128.93 0.00000 2.94843e-13
  68 4128.93 0.00000 -1.58610e-12
  69 4128.93 0.00000 -2.87043e-13
  70 4128.93 0.00000 2.05522e-13
  71 4128.93 0.00000 -3.15512e-13
  72 4128.93 0.00000 -1.77667e-13
  73 4128.93 0.00000 -8.89602e-13
  74 4128.93 0.00000 3.18777e-13
  75 4128.93 0.00000 2.14982e-13
  76 4128.93 0.00000 5.59192e-13
  77 4128.93 0.00000 1.18825e-13
  78 4128.93 0.00000 2.88918e-13
  79 4128.93 0.00000 5.60569e-14
  80 4128.93 0.00000 -1.97523e-14
  81 4128.93 0.00000 -8.03056e-13
  82 4128.93 0.00000 -1.39027e-13
  83 4128.93 0.00000 7.22016e-14
  84 4128.93 0.00000 2.39649e-13
  85 4128.93 0.00000 -1.14485e-12
  86 4128.93 0.00000 2.83963e-13
  87 4128.93 0.00000 5.14635e-14
  88 4128.93 0.00000 -2.45043e-12
  89 4128.93 0.00000 2.08019e-13
  90 4128.93 0.00000 4.43115e-13
  91 4128.93 0.00000 -2.63559e-13
  92 4128.93 0.00000 -3.75776e-13
  93 4128.93 0.00000 1.64216e-12
  94 4128.93 0.00000 -9.56305e-13
  95 4128.93 0.00000 3.19209e-14
  96 4128.93 0.00000 2.90416e-14
  97 4128.93 0.00000 3.73991e-13
  98 4128.93 0.00000 -6.69969e-13
  99 4128.93 0.00000 -6.44508e-13
  100 4128.93 0.00000 -1.81509e-13
  101 4128.93 0.00000 -1.34771e-13
  102 4128.93 0.00000 2.34307e-13
  103 4128.93 0.00000 1.53745e-13
  104 4128.93 0.00000 5.17921e-14
  105 4128.93 0.00000 2.98116e-13
  106 4128.93 0.00000 2.52454e-13
  107 4128.93 0.00000 -1.23120e-12
  108 4128.93 0.00000 -1.90093e-13
  109 4128.93 0.00000 2.98482e-15
  110 4128.93 0.00000 3.04671e-13
  111 4128.93 0.00000 -9.44364e-13
  112 4128.93 0.00000 -2.73827e-13
  113 4128.93 0.00000 7.54824e-15
  114 4128.93 0.00000 -1.73553e-13
  115 4128.93 0.00000 5.62844e-13
  116 4128.93 0.00000 7.45551e-13
  117 4128.93 0.00000 1.18435e-13
  118 4128.93 0.00000 5.19416e-13
  119 4128.93 0.00000 -4.60805e-13
  120 4128.93 0.00000 3.97431e-13
  121 4128.93 0.00000 -1.23924e-13
  122 4128.93 0.00000 -5.22482e-13
  123 4128.93 0.00000 -2.89804e-13
  124 4128.93 0.00000 5.65147e-14
  125 4128.93 0.00000 1.84537e-14
  126 4128.93 0.00000 3.52601e-13
  127 4128.93 0.00000 -5.25576e-13
  128 4128.93 0.00000 -1.36288e-13
  129 4128.93 0.00000 5.91310e-14
  130 4128.93 0.00000 -7.19573e-14
  131 4128.93 0.00000 -4.75787e-13
  132 4128.93 0.00000 -4.07567e-13
  133 4128.93 0.00000 -7.45561e-13
  134 4128.93 0.00000 -4.71967e-13
  135 4128.93 0.00000 7.61756e-13
  136 4128.93 0.00000 -1.56370e-14
  137 4128.93 0.00000 -6.01582e-13
  138 4128.93 0.00000 -8.83189e-14
  139 4128.93 0.00000 -2.88373e-13
  140 4128.93 0.00000 1.04737e-12
  141 4128.93 0.00000 1.18752e-13
  142 4128.93 0.00000 4.93324e-13
  143 4128.93 0.00000 3.62110e-13
  144 4128.93 0.00000 -5.43405e-13
  145 4128.93 0.00000 -6.66041e-13
  146 4128.93 0.00000 -5.17674e-13
  147 4128.93 0.00000 -3.65997e-13
  148 4128.93 0.00000 -1.39112e-13
  149 4128.93 0.00000 -8.88114e-13
  150 4128.93 0.00000 7.30915e-13
  151 4128.93 0.00000 -4.86223e-14
  152 4128.93 0.00000 7.62905e-13
  153 4128.93 0.00000 -1.06000e-12
  154 4128.93 0.00000 7.77828e-13
  155 4128.93 0.00000 -3.83539e-13
  156 4128.93 0.00000 1.50853e-12
  157 4128.93 0.00000 -1.22628e-13
  158 4128.93 0.00000 -1.09758e-12
  159 4128.93 0.00000 -3.16016e-14
  160 4128.93 0.00000 -1.44989e-13
  161 4128.93 0.00000 -7.77747e-14
  162 4128.93 0.00000 -9.07111e-15
  163 4128.93 0.00000 -7.91207e-13
  164 4128.93 0.00000 -7.13091e-13
  165 4128.93 0.00000 -5.35970e-14
  166 4128.93 0.00000 -2.67671e-13
  167 4128.93 0.00000 -6.56282e-13
  168 4128.93 0.00000 -5.41963e-13
  169 4128.93 0.00000 7.76669e-14
  170 4128.93 0.00000 -2.17586e-13
  171 4128.93 0.00000 1.00744e-13
  172 4128.93 0.00000 -4.93376e-13
  173 4128.93 0.00000 -1.90138e-13
  174 4128.93 0.00000 1.06142e-12
  175 4128.93 0.00000 -1.09011e-14
  176 4128.93 0.00000 1.05755e-13
  177 4128.93 0.00000 -8.97240e-13
  178 4128.93 0.00000 3.77910e-13
  179 4128.93 0.00000 3.54618e-13
  180 4128.93 0.00000 -4.52905e-13
  181 4128.93 0.00000 2.58009e-13
  182 4128.93 0.00000 1.93010e-13
  183 4128.93 0.00000 -1.25462e-13
  184 4128.93 0.00000 -6.58965e-13
  185 4128.93 0.00000 4.11294e-13
  186 4128.93 0.00000 -9.49417e-13
  187 4128.93 0.00000 1.26749e-13
  188 4128.93 0.00000 7.70193e-13
  189 4128.93 0.00000 5.24949e-13
  190 4128.93 0.00000 5.32578e-14
  191 4128.93 0.00000 3.70059e-13
  192 4128.93 0.00000 -1.87584e-13
  193 4128.93 0.00000 6.75852e-13
  194 4128.93 0.00000 -4.46879e-13
  195 4128.93 0.00000 -9.95866e-14
  196 4128.93 0.00000 -8.52102e-13
  197 4128.93 0.00000 7.56157e-14
  198 4128.93 0.00000 -8.38924e-14
  199 4128.93 0.00000 4.25852e-13
  200 4128.93 0.00000 1.10281e-12
  201 4128.93 0.00000 3.56927e-13
  202 4128.93 0.00000 -5.33467e-13
  203 4128.93 0.00000 -5.60117e-14
  204 4128.93 0.00000 3.94017e-13
  205 4128.93 0.00000 -4.17853e-13
  206 4128.93 0.00000 5.08007e-13
  207 4128.93 0.00000 -7.61889e-14
  208 4128.93 0.00000 4.02423e-13
  209 4128.93 0.00000 -1.63013e-12
  210 4128.93 0.00000 4.41629e-14
  211 4128.93 0.00000 5.06620e-13
  212 4128.93 0.00000 1.40110e-12
  213 4128.93 0.00000 1.30372e-13
  214 4128.93 0.00000 -3.14952e-13
  215 4128.93 0.00000 9.08772e-13
  216 4128.93 0.00000 -1.21583e-13
  217 4128.93 0.00000 -2.60564e-12
  218 4128.93 0.00000 2.66597e-13
  219 4128.93 0.00000 -6.25492e-13
  220 4128.93 0.00000 -1.77033e-13
  221 4128.93 0.00000 -2.13002e-13
  222 4128.93 0.00000 1.23815e-12
  223 4128.93 0.00000 -2.66690e-13
  224 4128.93 0.00000 1.00512e-13
  225 4128.93 0.00000 -1.00928e-12
  226 4128.93 0.00000 1.42416e-13
  227 4128.93 0.00000 -3.32850e-13
  228 4128.93 0.00000 3.26791e-13
  229 4128.93 0.00000 9.88780e-14
  230 4128.93 0.00000 -4.85675e-13
  231 4128.93 0.00000 8.37568e-13
  232 4128.93 0.00000 1.77325e-13
  233 4128.93 0.00000 1.16189e-12
  234 4128.93 0.00000 7.19079e-14
  235 4128.93 0.00000 -7.74216e-13
  236 4128.93 0.00000 2.38858e-13
  237 4128.93 0.00000 -3.69952e-13
  238 4128.93 0.00000 6.81734e-13
  239 4128.93 0.00000 -1.48942e-13
  240 4128.93 0.00000 -6.14188e-14
  241 4128.93 0.00000 2.04782e-13
</Section>

newXOutput 90

<Section columns = "stress_xx | stress_yy | stress_xy">
  1 4176.87 0.00000 4.62319e-14
  2 4176.87 0.00000 -1.66162e-13
  3 4176.87 0.00000 -1.77658e-15
  4 4176.87 0.00000 -5.38109e-14
  5 4176.87 0.00000 -5.32502e-13
  6 4176.87 0.00000 -1.95963e-13
  7 4176.87 0.00000 2.12933e-13
  8 4176.87 0.00000 2.82991e-13
  9 4176.87 0.00000 3.58245e-13
  10 4176.87 0.00000 1.52349e-13
  11 4176.87 0.00000 -6.52290e-13
  12 4176.87 0.00000 -1.28747e-12
  13 4176.87 0.00000 -9.64914e-13
  14 4176.87 0.00000 3.91006e-13
  15 4176.87 0.00000 4.89218e-13
  16 4176.87 0.00000 2.40497e-13
  17 4176.87 0.00000 -3.02858e-13
  18 4176.87 0.00000 -6.52290e-13
  19 4176.87 0.00000 -1.80820e-12
  20 4176.87 0.00000 2.63123e-13
  21 4176.87 0.00000 -1.29722e-13
  22 4176.87 0.00000 -4.80994e-13
  23 4176.87 0.00000 -1.89478e-14
  24 4176.87 0.00000 1.71296e-13
  25 4176.87 0.00000 1.94584e-13
  26 4176.87 0.00000 4.64597e-13
  27 4176.87 0.00000 8.23587e-13
  28 4176.87 0.00000 1.49763e-13
  29 4176.87 0.00000 1.94584e-13
  30 4176.87 0.00000 6.70141e-14
  31 4176.87 0.00000 1.24871e-13
  32 4176.87 0.00000 -4.38238e-13
  33 4176.87 0.00000 9.36073e-15
  34 4176.87 0.00000 -3.66036e-13
  35 4176.87 0.00000 -1.26360e-13
  36 4176.87 0.00000 -3.79072e-13
  37 4176.87 0.00000 -1.12549e-12
  38 4176.87 0.00000 -3.97987e-13
  39 4176.87 0.00000 -4.13922e-15
  40 4176.87 0.00000 6.69708e-13
  41 4176.87 0.00000 2.76592e-13
  42 4176.87 0.00000 2.20496e-13
  43 4176.87 0.00000 4.48589e-13
  44 4176.87 0.00000 8.41526e-13
  45 4176.87 0.00000 3.42953e-13
  46 4176.87 0.00000 2.99193e-14
  47 4176.87 0.00000 7.55869e-13
  48 4176.87 0.00000 1.71640e-13
  49 4176.87 0.00000 -1.83316e-13
  50 4176.87 0.00000 2.39151e-13
  51 4176.87 0.00000 -2.62375e-14
  52 4176.87 0.00000 -3.12990e-14
  53 4176.87 0.00000 -2.09944e-13
  54 4176.87 0.00000 2.05053e-13
  55 4176.87 0.00000 0.00000
  56 4176.87 0.00000 1.87564e-13
  57 4176.87 0.00000 -1.73134e-14
  58 4176.87 0.00000 -1.12800e-12
  59 4176.87 0.00000 -4.81260e-13
  60 4176.87 0.00000 1.64556e-13
  61 4176.87 0.00000 -3.54299e-13
  62 4176.87 0.00000 2.62726e-13
  63 4176.87 0.00000 -4.37079e-13
  64 4176.87 0.00000 2.44309e-13
  65 4176.87 0.00000 -7.92492e-14
  66 4176.87 0.00000 4.37074e-13
  67 4176.87 0.00000 6.19417e-13
  68 4176.87 0.00000 1.19145e-12
  69 4176.87 0.00000 -2.19390e-14
  70 4176.87 0.00000 1.96090e-14
  71 4176.87 0.00000 1.27514e-13
  72 4176.87 0.00000 -7.98700e-14
  73 4176.87 0.00000 4.85395e-13
  74 4176.87 0.00000 2.14908e-13
  75 4176.87 0.00000 9.12186e-13
  76 4176.87 0.00000 -2.20028e-12
  77 4176.87 0.00000 -4.61160e-13
  78 4176.87 0.00000 5.52456e-13
  79 4176.87 0.00000 -1.82876e-13
  80 4176.87 0.00000 7.41392e-13
  81 4176.87 0.00000 -5.32961e-13
  82 4176.87 0.00000 -4.54734e-14
  83 4176.87 0.00000 5.41261e-13
  84 4176.87 0.00000 5.69008e-14
  85 4176.87 0.00000 9.64588e-13
  86 4176.87 0.00000 4.01946e-14
  87 4176.87 0.00000 2.95993e-13
  88 4176.87 0.00000 -5.17292e-13
  89 4176.87 0.00000 -3.88597e-13
  90 4176.87 0.00000 1.04585e-12
  91 4176.87 0.00000 5.39550e-15
  92 4176.87 0.00000 -2.08079e-13
  93 4176.87 0.00000 -1.33144e-12
  94 4176.87 0.00000 2.11563e-13
  95 4176.87 0.00000 1.16609e-13
  96 4176.87 0.00000 -4.17798e-13
  97 4176.87 0.00000 9.64463e-13
  98 4176.87 0.00000 -2.60655e-13
  99 4176.87 0.00000 6.60497e-13
  100 4176.87 0.00000 3.08845e-13
  101 4176.87 0.00000 3.61105e-13
  102 4176.87 0.00000 7.68077e-13
  103 4176.87 0.00000 -4.93955e-13
  104 4176.87 0.00000 -4.95120e-13
  105 4176.87 0.00000 -3.81768e-13
  106 4176.87 0.00000 -2.26017e-13
  107 4176.87 0.00000 5.13822e-13
  108 4176.87 0.00000 -1.75260e-13
  109 4176.87 0.00000 5.55417e-13
  110 4176.87 0.00000 1.20473e-12
  111 4176.87 0.00000 6.02271e-13
  112 4176.87 0.00000 3.64623e-13
  113 4176.87 0.00000 -4.01387e-13
  114 4176.87 0.00000 -3.62927e-13
  115 4176.87 0.00000 -1.86189e-13
  116 4176.87 0.00000 -3.75373e-14
  117 4176.87 0.00000 2.22469e-13
  118 4176.87 0.00000 1.37848e-13
  119 4176.87 0.00000 5.54454e-13
  120 4176.87 0.00000 1.39157e-13
  121 4176.87 0.00000 2.55746e-13
  122 4176.87 0.00000 4.12449e-13
  123 4176.87 0.00000 2.90978e-13
  124 4176.87 0.00000 -5.95480e-13
  125 4176.87 0.00000 6.50181e-13
  126 4176.87 0.00000 3.86616e-13
  127 4176.87 0.00000 5.83170e-13
  128 4176.87 0.00000 8.12417e-13
  129 4176.87 0.00000 -3.72189e-14
  130 4176.87 0.00000 -1.33339e-13
  131 4176.87 0.00000 -6.90736e-13
  132 4176.87 0.00000 -7.21252e-15
  133 4176.87 0.00000 -6.74640e-14
  134 4176.87 0.00000 3.11560e-13
  135 4176.87 0.00000 2.20238e-13
  136 4176.87 0.00000 3.92013e-13
  137 4176.87 0.00000 -7.79809e-14
  138 4176.87 0.00000 -6.64419e-13
  139 4176.87 0.00000 1.54146e-13
  140 4176.87 0.00000 -1.50214e-12
  141 4176.87 0.00000 -1.76230e-13
  142 4176.87 0.00000 4.78494e-13
  143 4176.87 0.00000 -1.33703e-13
  144 4176.87 0.00000 -1.50173e-13
  145 4176.87 0.00000 2.47704e-13
  146 4176.87 0.00000 3.98564e-13
  147 4176.87 0.00000 -2.61925e-13
  148 4176.87 0.00000 -1.50386e-13
  149 4176.87 0.00000 -6.53749e-13
  150 4176.87 0.00000 -1.09207e-13
  151 4176.87 0.00000 -3.76700e-13
  152 4176.87 0.00000 1.39175e-13
  153 4176.87 0.00000 8.92248e-13
  154 4176.87 0.00000 1.01466e-13
  155 4176.87 0.00000 8.32953e-13
  156 4176.87 0.00000 -9.62248e-13
  157 4176.87 0.00000 -2.72730e-13
  158 4176.87 0.00000 -8.76610e-14
  159 4176.87 0.00000 -3.39471e-13
  160 4176.87 0.00000 -2.77328e-13
  161 4176.87 0.00000 1.81754e-28
  162 4176.87 0.00000 1.93684e-13
  163 4176.87 0.00000 5.94716e-13
  164 4176.87 0.00000 1.21104e-13
  165 4176.87 0.00000 8.89279e-14
  166 4176.87 0.00000 3.09116e-14
  167 4176.87 0.00000 1.21911e-12
  168 4176.87 0.00000 3.81360e-13
  169 4176.87 0.00000 5.90248e-14
  170 4176.87 0.00000 -1.92169e-13
  171 4176.87 0.00000 6.29450e-14
  172 4176.87 0.00000 -5.90535e-13
  173 4176.87 0.00000 3.29496e-13
  174 4176.87 0.00000 2.43524e-13
  175 4176.87 0.00000 3.53647e-13
  176 4176.87 0.00000 -1.81942e-13
  177 4176.87 0.00000 2.48814e-14
  178 4176.87 0.00000 -1.64151e-13
  179 4176.87 0.00000 1.25745e-13
  180 4176.87 0.00000 2.80735e-13
  181 4176.87 0.00000 -3.53329e-13
  182 4176.87 0.00000 -2.55616e-13
  183 4176.87 0.00000 -1.90670e-13
  184 4176.87 0.00000 -2.60652e-13
  185 4176.87 0.00000 2.34510e-13
  186 4176.87 0.00000 3.90271e-13
  187 4176.87 0.00000 -1.05285e-13
  188 4176.87 0.00000 -3.34492e-13
  189 4176.87 0.00000 3.96783e-13
  190 4176.87 0.00000 1.07775e-13
  191 4176.87 0.00000 -1.00557e-13
  192 4176.87 0.00000 3.52407e-14
  193 4176.87 0.00000 -4.94393e-13
  194 4176.87 0.00000 1.64524e-13
  195 4176.87 0.00000 -4.88570e-13
  196 4176.87 0.00000 9.07044e-13
  197 4176.87 0.00000 3.20039e-13
  198 4176.87 0.00000 -8.55620e-13
  199 4176.87 0.00000 -2.46680e-13
  200 4176.87 0.00000 -6.92025e-13
  201 4176.87 0.00000 1.31203e-12
  202 4176.87 0.00000 -1.50164e-13
  203 4176.87 0.00000 5.32961e-13
  204 4176.87 0.00000 2.47897e-13
  205 4176.87 0.00000 1.06606e-13
  206 4176.87 0.00000 9.87430e-13
  207 4176.87 0.00000 1.00354e-13
  208 4176.87 0.00000 5.60922e-13
  209 4176.87 0.00000 -6.72909e-13
  210 4176.87 0.00000 -1.12112e-13
  211 4176.87 0.00000 -4.96845e-13
  212 4176.87 0.00000 2.54962e-14
  213 4176.87 0.00000 3.50519e-13
  214 4176.87 0.00000 -2.02496e-13
  215 4176.87 0.00000 -1.20668e-12
  216 4176.87 0.00000 2.79772e-13
  217 4176.87 0.00000 4.14519e-13
  218 4176.87 0.00000 1.42779e-13
  219 4176.87 0.00000 1.49054e-12
  220 4176.87 0.00000 -1.34364e-13
  221 4176.87 0.00000 5.01954e-13
  222 4176.87 0.00000 -4.43534e-13
  223 4176.87 0.00000 2.65653e-13
  224 4176.87 0.00000 5.49248e-13
  225 4176.87 0.00000 3.34966e-13
  226 4176.87 0.00000 3.72269e-13
  227 4176.87 0.00000 6.44014e-14
  228 4176.87 0.00000 6.21256e-13
  229 4176.87 0.00000 9.53771e-14
  230 4176.87 0.00000 -1.14869e-12
  231 4176.87 0.00000 -5.91642e-13
  232 4176.87 0.00000 -4.70345e-13
  233 4176.87 0.00000 1.33481e-13
  234 4176.87 0.00000 -1.37751e-13
  235 4176.87 0.00000 -2.24481e-13
  236 4176.87 0.00000 -1.03579e-13
  237 4176.87 0.00000 -2.63431e-14
  238 4176.87 0.00000 -1.27682e-13
  239 4176.87 0.00000 3.21554e-13
  240 4176.87 0.00000 -5.24855e-13
  241 4176.87 0.00000 5.94336e-13
</Section>

newXOutput 91

<Section columns = "stress_xx | stress_yy | stress_xy">
  1 4224.87 0.00000 3.49054e-14
  2 4224.87 0.00000 1.18527e-12
  3 4224.87 0.00000 -2.88427e-13
  4 4224.87 0.00000 1.75019e-15
  5 4224.87 0.00000 -2.11340e-13
  6 4224.87 0.00000 2.51801e-14
  7 4224.87 0.00000 -2.51801e-14
  8 4224.87 0.00000 -1.43441e-13
  9 4224.87 0.00000 -1.77265e-13
  10 4224.87 0.00000 4.14037e-13
  11 4224.87 0.00000 -1.09867e-13
  12 4224.87 0.00000 3.06331e-13
  13 4224.87 0.00000 2.21832e-13
  14 4224.87 0.00000 -9.29296e-13
  15 4224.87 0.00000 -8.96490e-13
  16 4224.87 0.00000 -5.15260e-13
  17 4224.87 0.00000 -9.18993e-13
  18 4224.87 0.00000 -6.38093e-13
  19 4224.87 0.00000 -1.16632e-12
  20 4224.87 0.00000 -4.41378e-13
  21 4224.87 0.00000 -6.71667e-13
  22 4224.87 0.00000 -1.17662e-12
  23 4224.87 0.00000 4.14037e-13
  24 4224.87 0.00000 -1.28649e-12
  25 4224.87 0.00000 -7.44468e-13
  26 4224.87 0.00000 1.10463e-12
  27 4224.87 0.00000 -3.94964e-13
  28 4224.87 0.00000 3.97720e-13
  29 4224.87 0.00000 1.27785e-14
  30 4224.87 0.00000 4.16041e-13
  31 4224.87 0.00000 -1.11495e-12
  32 4224.87 0.00000 -3.43837e-12
  33 4224.87 0.00000 -9.29274e-13
  34 4224.87 0.00000 -1.17165e-12
  35 4224.87 0.00000 -7.98030e-13
  36 4224.87 0.00000 5.23324e-13
  37 4224.87 0.00000 8.23574e-13
  38 4224.87 0.00000 4.44491e-13
  39 4224.87 0.00000 -3.63599e-13
  40 4224.87 0.00000 -9.39545e-14
  41 4224.87 0.00000 -7.32098e-13
  42 4224.87 0.00000 4.67939e-13
  43 4224.87 0.00000 5.48650e-13
  44 4224.87 0.00000 9.77780e-16
  45 4224.87 0.00000 -1.54734e-13
  46 4224.87 0.00000 -4.65408e-13
  47 4224.87 0.00000 -5.68680e-14
  48 4224.87 0.00000 2.56290e-13
  49 4224.87 0.00000 1.51625e-13
  50 4224.87 0.00000 6.12285e-14
  51 4224.87 0.00000 -3.78653e-29
  52 4224.87 0.00000 4.47234e-14
  53 4224.87 0.00000 -9.29548e-14
  54 4224.87 0.00000 2.61459e-13
  55 4224.87 0.00000 3.86445e-13
  56 4224.87 0.00000 4.11782e-13
  57 4224.87 0.00000 5.01890e-13
  58 4224.87 0.00000 1.71324e-12
  59 4224.87 0.00000 -2.19436e-13
  60 4224.87 0.00000 3.56770e-13
  61 4224.87 0.00000 -2.32199e-13
  62 4224.87 0.00000 1.59572e-14
  63 4224.87 0.00000 -5.72912e-13
  64 4224.87 0.00000 4.34191e-13
  65 4224.87 0.00000 -5.95920e-14
  66 4224.87 0.00000 2.17906e-13
  67 4224.87 0.00000 7.89019e-13
  68 4224.87 0.00000 -9.52739e-13
  69 4224.87 0.00000 -1.93656e-13
  70 4224.87 0.00000 -5.18342e-14
  71 4224.87 0.00000 -7.06083e-14
  72 4224.87 0.00000 2.08290e-13
  73 4224.87 0.00000 2.17228e-13
  74 4224.87 0.00000 -5.97959e-14
  75 4224.87 0.00000 3.03471e-13
  76 4224.87 0.00000 2.23385e-12
  77 4224.87 0.00000 -1.40067e-13
  78 4224.87 0.00000 1.55514e-13
  79 4224.87 0.00000 -1.06681e-13
  80 4224.87 0.00000 7.41508e-13
  81 4224.87 0.00000 8.16564e-13
  82 4224.87 0.00000 -3.54345e-14
  83 4224.87 0.00000 1.43421e-13
  84 4224.87 0.00000 -4.70340e-13
  85 4224.87 0.00000 6.17876e-13
  86 4224.87 0.00000 1.74263e-12
  87 4224.87 0.00000 6.98594e-15
  88 4224.87 0.00000 7.35400e-14
  89 4224.87 0.00000 2.81831e-13
  90 4224.87 0.00000 -6.43930e-13
  91 4224.87 0.00000 -5.00058e-13
  92 4224.87 0.00000 -6.57717e-13
  93 4224.87 0.00000 -6.69199e-13
  94 4224.87 0.00000 8.87140e-14
  95 4224.87 0.00000 -9.30475e-13
  96 4224.87 0.00000 -7.39410e-13
  97 4224.87 0.00000 -1.40172e-12
  98 4224.87 0.00000 1.99114e-13
  99 4224.87 0.00000 -1.35173e-13
  100 4224.87 0.00000 1.78039e-13
  101 4224.87 0.00000 1.26842e-13
  102 4224.87 0.00000 -2.00354e-13
  103 4224.87 0.00000 2.92629e-13
  104 4224.87 0.00000 2.20611e-13
  105 4224.87 0.00000 1.04057e-13
  106 4224.87 0.00000 9.59050e-13
  107 4224.87 0.00000 1.94477e-12
  108 4224.87 0.00000 1.25346e-13
  109 4224.87 0.00000 1.38211e-13
  110 4224.87 0.00000 8.86052e-13
  111 4224.87 0.00000 5.16757e-13
  112 4224.87 0.00000 -1.52547e-13
  113 4224.87 0.00000 -3.63027e-13
  114 4224.87 0.00000 6.74013e-14
  115 4224.87 0.00000 4.18164e-13
  116 4224.87 0.00000 7.41977e-14
  117 4224.87 0.00000 8.29248e-13
  118 4224.87 0.00000 -5.03136e-14
  119 4224.87 0.00000 -4.23638e-13
  120 4224.87 0.00000 3.35395e-13
  121 4224.87 0.00000 2.64680e-13
  122 4224.87 0.00000 2.54449e-13
  123 4224.87 0.00000 -4.32155e-13
  124 4224.87 0.00000 4.43322e-13
  125 4224.87 0.00000 1.93448e-13
  126 4224.87 0.00000 -3.40165e-13
  127 4224.87 0.00000 -1.15970e-12
  128 4224.87 0.00000 -7.52007e-14
  129 4224.87 0.00000 -1.00838e-13
  130 4224.87 0.00000 -4.86386e-14
  131 4224.87 0.00000 3.91801e-13
  132 4224.87 0.00000 -1.81549e-13
  133 4224.87 0.00000 4.35490e-13
  134 4224.87 0.00000 -2.59603e-13
  135 4224.87 0.00000 3.70161e-14
  136 4224.87 0.00000 1.79581e-13
  137 4224.87 0.00000 -4.19968e-13
  138 4224.87 0.00000 -8.27282e-13
  139 4224.87 0.00000 1.41551e-13
  140 4224.87 0.00000 5.91271e-13
  141 4224.87 0.00000 -8.26779e-15
  142 4224.87 0.00000 -1.56407e-13
  143 4224.87 0.00000 -2.59929e-14
  144 4224.87 0.00000 6.18557e-13
  145 4224.87 0.00000 2.06653e-13
  146 4224.87 0.00000 -7.28898e-13
  147 4224.87 0.00000 6.07514e-14
  148 4224.87 0.00000 -2.85160e-14
  149 4224.87 0.00000 1.45425e-12
  150 4224.87 0.00000 7.70988e-13
  151 4224.87 0.00000 3.59858e-14
  152 4224.87 0.00000 3.47468e-13
  153 4224.87 0.00000 -5.35524e-13
  154 4224.87 0.00000 7.11085e-13
  155 4224.87 0.00000 5.52201e-13
  156 4224.87 0.00000 9.38120e-13
  157 4224.87 0.00000 -3.30447e-13
  158 4224.87 0.00000 1.28226e-12
  159 4224.87 0.00000 -3.48109e-14
  160 4224.87 0.00000 -3.01602e-13
  161 4224.87 0.00000 7.74392e-14
  162 4224.87 0.00000 8.88209e-14
  163 4224.87 0.00000 8.74488e-13
  164 4224.87 0.00000 -3.29695e-13
  165 4224.87 0.00000 -2.26984e-13
  166 4224.87 0.00000 2.25100e-13
  167 4224.87 0.00000 8.42795e-14
  168 4224.87 0.00000 -8.23895e-13
  169 4224.87 0.00000 3.18002e-13
  170 4224.87 0.00000 7.60674e-14
  171 4224.87 0.00000 -2.88498e-13
  172 4224.87 0.00000 -1.03478e-13
  173 4224.87 0.00000 -2.91600e-13
  174 4224.87 0.00000 -3.72900e-13
  175 4224.87 0.00000 -2.55736e-14
  176 4224.87 0.00000 8.07325e-14
  177 4224.87 0.00000 2.09014e-13
  178 4224.87 0.00000 -8.48003e-14
  179 4224.87 0.00000 -2.36254e-13
  180 4224.87 0.00000 1.96108e-13
  181 4224.87 0.00000 1.95446e-13
  182 4224.87 0.00000 -3.60679e-13
  183 4224.87 0.00000 -3.58602e-13
  184 4224.87 0.00000 -5.34841e-13
  185 4224.87 0.00000 -9.96027e-16
  186 4224.87 0.00000 -7.38783e-13
  187 4224.87 0.00000 -3.64589e-13
  188 4224.87 0.00000 1.86233e-13
  189 4224.87 0.00000 -4.28815e-14
  190 4224.87 0.00000 1.48002e-13
  191 4224.87 0.00000 2.92547e-13
  192 4224.87 0.00000 -4.98818e-13
  193 4224.87 0.00000 6.02364e-13
  194 4224.87 0.00000 8.38691e-13
  195 4224.87 0.00000 3.47794e-14
  196 4224.87 0.00000 5.79973e-13
  197 4224.87 0.00000 1.84725e-13
  198 4224.87 0.00000 4.29869e-13
  199 4224.87 0.00000 -2.79913e-13
  200 4224.87 0.00000 1.27174e-12
  201 4224.87 0.00000 2.16104e-15
  202 4224.87 0.00000 5.97021e-13
  203 4224.87 0.00000 -5.22698e-13
  204 4224.87 0.00000 4.93368e-13
  205 4224.87 0.00000 4.63900e-13
  206 4224.87 0.00000 -9.37840e-13
  207 4224.87 0.00000 -6.83993e-14
  208 4224.87 0.00000 -3.92203e-13
  209 4224.87 0.00000 -9.62229e-13
  210 4224.87 0.00000 -2.64491e-14
  211 4224.87 0.00000 1.85565e-14
  212 4224.87 0.00000 7.51388e-13
  213 4224.87 0.00000 2.33708e-14
  214 4224.87 0.00000 -2.22621e-13
  215 4224.87 0.00000 1.55475e-12
  216 4224.87 0.00000 9.90537e-14
  217 4224.87 0.00000 -9.89601e-13
  218 4224.87 0.00000 1.13318e-13
  219 4224.87 0.00000 2.38275e-13
  220 4224.87 0.00000 2.38933e-13
  221 4224.87 0.00000 7.64747e-13
  222 4224.87 0.00000 -7.48993e-14
  223 4224.87 0.00000 -2.88763e-13
  224 4224.87 0.00000 -2.09130e-13
  225 4224.87 0.00000 1.17362e-12
  226 4224.87 0.00000 2.44185e-13
  227 4224.87 0.00000 1.35079e-13
  228 4224.87 0.00000 -4.74032e-13
  229 4224.87 0.00000 2.81211e-13
  230 4224.87 0.00000 2.55697e-12
  231 4224.87 0.00000 -1.55775e-12
  232 4224.87 0.00000 -5.76613e-13
  233 4224.87 0.00000 -3.06563e-13
  234 4224.87 0.00000 4.07260e-14
  235 4224.87 0.00000 -1.01660e-13
  236 4224.87 0.00000 8.46806e-14
  237 4224.87 0.00000 -7.73069e-14
  238 4224.87 0.00000 3.27121e-13
  239 4224.87 0.00000 -1.72114e-13
  240 4224.87 0.00000 2.18055e-13
  241 4224.87 0.00000 -6.70649e-13
</Section>

newXOutput 92

<Section columns = "stress_xx | stress_yy | stress_xy">
  1 4272.93 0.00000 -3.78229e-13
  2 4272.93 0.00000 -3.55295e-13
  3 4272.93 0.00000 -5.19912e-13
  4 4272.93 0.00000 -5.73397e-14
  5 4272.93 0.00000 -5.91613e-13
  6 4272.93 0.00000 1.63437e-13
  7 4272.93 0.00000 4.10705e-13
  8 4272.93 0.00000 4.12887e-13
  9 4272.93 0.00000 8.10233e-13
  10 4272.93 0.00000 6.78920e-13
  11 4272.93 0.00000 -2.23552e-14
  12 4272.93 0.00000 2.23552e-14
  13 4272.93 0.00000 -1.63437e-13
  14 4272.93 0.00000 -4.16294e-13
  15 4272.93 0.00000 2.05353e-13
  16 4272.93 0.00000 1.28737e-12
  17 4272.93 0.00000 -5.05715e-13
  18 4272.93 0.00000 -1.43900e-13
  19 4272.93 0.00000 -6.34210e-13
  20 4272.93 0.00000 2.00443e-12
  21 4272.93 0.00000 9.03651e-13
  22 4272.93 0.00000 -2.48553e-14
  23 4272.93 0.00000 -1.13370e-12
  24 4272.93 0.00000 -7.81063e-13
  25 4272.93 0.00000 -2.20280e-13
  26 4272.93 0.00000 4.04380e-13
  27 4272.93 0.00000 -3.45821e-13
  28 4272.93 0.00000 -7.86323e-13
  29 4272.93 0.00000 -9.41558e-14
  30 4272.93 0.00000 5.20070e-13
  31 4272.93 0.00000 8.16320e-13
  32 4272.93 0.00000 2.66879e-12
  33 4272.93 0.00000 5.02750e-13
  34 4272.93 0.00000 1.61855e-12
  35 4272.93 0.00000 1.56819e-12
  36 4272.93 0.00000 -2.93057e-15
  37 4272.93 0.00000 -2.71408e-13
  38 4272.93 0.00000 1.61526e-13
  39 4272.93 0.00000 1.49856e-12
  40 4272.93 0.00000 5.85095e-13
  41 4272.93 0.00000 -3.93734e-13
  42 4272.93 0.00000 -1.29583e-13
  43 4272.93 0.00000 1.46303e-13
  44 4272.93 0.00000 -1.28111e-13
  45 4272.93 0.00000 -6.93303e-14
  46 4272.93 0.00000 -9.06231e-14
  47 4272.93 0.00000 -1.87572e-13
  48 4272.93 0.00000 -5.97360e-14
  49 4272.93 0.00000 -9.27027e-14
  50 4272.93 0.00000 -9.43389e-14
  51 4272.93 0.00000 0.00000
  52 4272.93 0.00000 7.75827e-14
  53 4272.93 0.00000 -5.15929e-14
  54 4272.93 0.00000 6.22896e-14
  55 4272.93 0.00000 0.00000
  56 4272.93 0.00000 3.28282e-14
  57 4272.93 0.00000 -5.97900e-14
  58 4272.93 0.00000 -1.00469e-12
  59 4272.93 0.00000 2.97762e-13
  60 4272.93 0.00000 -9.01413e-13
  61 4272.93 0.00000 6.34210e-13
  62 4272.93 0.00000 -4.66480e-13
  63 4272.93 0.00000 -1.00993e-13
  64 4272.93 0.00000 6.80918e-13
  65 4272.93 0.00000 9.05123e-15
  66 4272.93 0.00000 3.61068e-13
  67 4272.93 0.00000 1.99188e-13
  68 4272.93 0.00000 -5.15964e-14
  69 4272.93 0.00000 1.46074e-13
  70 4272.93 0.00000 -4.61460e-13
  71 4272.93 0.00000 4.91276e-13
  72 4272.93 0.00000 5.89719e-14
  73 4272.93 0.00000 6.78878e-13
  74 4272.93 0.00000 -1.84639e-13
  75 4272.93 0.00000 6.13849e-13
  76 4272.93 0.00000 -3.59509e-13
  77 4272.93 0.00000 -9.08230e-14
  78 4272.93 0.00000 -9.75370e-13
  79 4272.93 0.00000 -3.21816e-13
  80 4272.93 0.00000 5.51232e-13
  81 4272.93 0.00000 -8.51462e-13
  82 4272.93 0.00000 1.39670e-12
  83 4272.93 0.00000 -2.10220e-13
  84 4272.93 0.00000 -7.82771e-14
  85 4272.93 0.00000 9.93139e-13
  86 4272.93 0.00000 -4.77907e-13
  87 4272.93 0.00000 -2.88353e-13
  88 4272.93 0.00000 -9.39215e-13
  89 4272.93 0.00000 9.18289e-14
  90 4272.93 0.00000 2.65244e-13
  91 4272.93 0.00000 1.13142e-13
  92 4272.93 0.00000 9.98951e-14
  93 4272.93 0.00000 -1.21966e-12
  94 4272.93 0.00000 9.65886e-13
  95 4272.93 0.00000 -3.60516e-13
  96 4272.93 0.00000 2.17592e-14
  97 4272.93 0.00000 1.08012e-13
  98 4272.93 0.00000 -4.67065e-13
  99 4272.93 0.00000 2.86458e-13
  100 4272.93 0.00000 3.47416e-13
  101 4272.93 0.00000 2.25174e-13
  102 4272.93 0.00000 -4.03405e-13
  103 4272.93 0.00000 -2.01115e-13
  104 4272.93 0.00000 -1.37456e-13
  105 4272.93 0.00000 -2.39371e-13
  106 4272.93 0.00000 7.11044e-13
  107 4272.93 0.00000 4.47540e-13
  108 4272.93 0.00000 1.11790e-13
  109 4272.93 0.00000 1.59998e-13
  110 4272.93 0.00000 -1.33646e-12
  111 4272.93 0.00000 -1.09020e-12
  112 4272.93 0.00000 4.52743e-14
  113 4272.93 0.00000 -5.29264e-14
  114 4272.93 0.00000 -3.55901e-13
  115 4272.93 0.00000 -4.24725e-13
  116 4272.93 0.00000 8.59171e-14
  117 4272.93 0.00000 8.98909e-13
  118 4272.93 0.00000 7.08857e-14
  119 4272.93 0.00000 -1.41836e-13
  120 4272.93 0.00000 3.18290e-13
  121 4272.93 0.00000 -3.13425e-13
  122 4272.93 0.00000 -8.91693e-13
  123 4272.93 0.00000 7.59029e-13
  124 4272.93 0.00000 -8.41129e-13
  125 4272.93 0.00000 1.36200e-13
  126 4272.93 0.00000 2.57369e-13
  127 4272.93 0.00000 2.22507e-13
  128 4272.93 0.00000 4.10798e-13
  129 4272.93 0.00000 -1.92477e-13
  130 4272.93 0.00000 1.68009e-13
  131 4272.93 0.00000 2.09847e-13
  132 4272.93 0.00000 -1.59643e-13
  133 4272.93 0.00000 5.35107e-13
  134 4272.93 0.00000 3.34997e-13
  135 4272.93 0.00000 2.36538e-13
  136 4272.93 0.00000 -3.43145e-13
  137 4272.93 0.00000 -7.32950e-13
  138 4272.93 0.00000 -7.22062e-13
  139 4272.93 0.00000 1.95229e-13
  140 4272.93 0.00000 -6.97909e-13
  141 4272.93 0.00000 3.53449e-13
  142 4272.93 0.00000 5.09190e-13
  143 4272.93 0.00000 -2.36500e-14
  144 4272.93 0.00000 8.48854e-13
  145 4272.93 0.00000 -1.25758e-13
  146 4272.93 0.00000 -5.45851e-14
  147 4272.93 0.00000 9.57512e-14
  148 4272.93 0.00000 -6.21949e-14
  149 4272.93 0.00000 -1.13296e-12
  150 4272.93 0.00000 4.57889e-14
  151 4272.93 0.00000 4.63741e-13
  152 4272.93 0.00000 -4.82841e-13
  153 4272.93 0.00000 6.39684e-13
  154 4272.93 0.00000 1.12737e-12
  155 4272.93 0.00000 5.46474e-14
  156 4272.93 0.00000 8.58468e-14
  157 4272.93 0.00000 -1.03502e-14
  158 4272.93 0.00000 -1.54704e-12
  159 4272.93 0.00000 7.92762e-14
  160 4272.93 0.00000 -7.53247e-14
  161 4272.93 0.00000 8.22528e-13
  162 4272.93 0.00000 8.41435e-14
  163 4272.93 0.00000 -2.04153e-13
  164 4272.93 0.00000 1.05791e-12
  165 4272.93 0.00000 2.95268e-13
  166 4272.93 0.00000 5.84022e-14
  167 4272.93 0.00000 -1.19190e-12
  168 4272.93 0.00000 8.28167e-13
  169 4272.93 0.00000 1.93452e-13
  170 4272.93 0.00000 -1.07025e-12
  171 4272.93 0.00000 1.57308e-13
  172 4272.93 0.00000 -1.02001e-13
  173 4272.93 0.00000 -9.17962e-15
  174 4272.93 0.00000 -5.26024e-13
  175 4272.93 0.00000 -2.16040e-13
  176 4272.93 0.00000 -2.84629e-13
  177 4272.93 0.00000 4.02057e-13
  178 4272.93 0.00000 -1.65584e-13
  179 4272.93 0.00000 3.45794e-13
  180 4272.93 0.00000 1.39154e-13
  181 4272.93 0.00000 -1.00391e-12
  182 4272.93 0.00000 -8.19072e-13
  183 4272.93 0.00000 1.49711e-14
  184 4272.93 0.00000 1.19149e-12
  185 4272.93 0.00000 4.23444e-13
  186 4272.93 0.00000 -2.14471e-13
  187 4272.93 0.00000 1.79292e-13
  188 4272.93 0.00000 -4.65968e-13
  189 4272.93 0.00000 -2.95877e-13
  190 4272.93 0.00000 -2.27058e-13
  191 4272.93 0.00000 -1.67657e-13
  192 4272.93 0.00000 1.00360e-12
  193 4272.93 0.00000 1.61337e-13
  194 4272.93 0.00000 -7.80836e-13
  195 4272.93 0.00000 7.02842e-14
  196 4272.93 0.00000 -4.85853e-13
  197 4272.93 0.00000 2.91351e-13
  198 4272.93 0.00000 -1.05998e-12
  199 4272.93 0.00000 3.03394e-13
  200 4272.93 0.00000 -1.19966e-12
  201 4272.93 0.00000 2.99971e-13
  202 4272.93 0.00000 9.48260e-13
  203 4272.93 0.00000 4.32356e-13
  204 4272.93 0.00000 3.52377e-13
  205 4272.93 0.00000 9.28959e-14
  206 4272.93 0.00000 1.39878e-12
  207 4272.93 0.00000 -4.97075e-13
  208 4272.93 0.00000 3.89662e-13
  209 4272.93 0.00000 -2.15917e-13
  210 4272.93 0.00000 -1.48170e-13
  211 4272.93 0.00000 -2.57735e-13
  212 4272.93 0.00000 -1.44817e-13
  213 4272.93 0.00000 -2.62946e-13
  214 4272.93 0.00000 -1.20312e-13
  215 4272.93 0.00000 1.31884e-13
  216 4272.93 0.00000 -8.94554e-14
  217 4272.93 0.00000 -2.07256e-13
  218 4272.93 0.00000 -3.26611e-13
  219 4272.93 0.00000 1.29863e-13
  220 4272.93 0.00000 -3.08352e-13
  221 4272.93 0.00000 7.86391e-13
  222 4272.93 0.00000 -6.63153e-13
  223 4272.93 0.00000 4.29768e-13
  224 4272.93 0.00000 3.74665e-13
  225 4272.93 0.00000 4.57984e-13
  226 4272.93 0.00000 6.16467e-13
  227 4272.93 0.00000 -6.04030e-14
  228 4272.93 0.00000 2.92414e-13
  229 4272.93 0.00000 2.76340e-14
  230 4272.93 0.00000 -1.08314e-12
  231 4272.93 0.00000 4.53453e-13
  232 4272.93 0.00000 1.37557e-13
  233 4272.93 0.00000 1.48098e-12
  234 4272.93 0.00000 -9.83629e-14
  235 4272.93 0.00000 -1.28369e-13
  236 4272.93 0.00000 -3.48712e-14
  237 4272.93 0.00000 6.78885e-13
  238 4272.93 0.00000 2.22950e-13
  239 4272.93 0.00000 -8.36030e-13
  240 4272.93 0.00000 -1.34566e-13
  241 4272.93 0.00000 7.47019e-13
</Section>

newXOutput 93

<Section columns = "stress_xx | stress_yy | stress_xy">
  1 4321.05 0.00000 2.82243e-13
  2 4321.05 0.00000 2.84217e-14
  3 4321.05 0.00000 -3.32297e-13
  4 4321.05 0.00000 -6.37286e-14
  5 4321.05 0.00000 4.47059e-14
  6 4321.05 0.00000 -3.94959e-13
  7 4321.05 0.00000 -8.12966e-13
  8 4321.05 0.00000 -1.04391e-12
  9 4321.05 0.00000 -1.10259e-12
  10 4321.05 0.00000 -9.07595e-13
  11 4321.05 0.00000 1.31653e-13
  12 4321.05 0.00000 -7.04852e-14
  13 4321.05 0.00000 -7.24708e-13
  14 4321.05 0.00000 4.88717e-13
  15 4321.05 0.00000 -2.41742e-13
  16 4321.05 0.00000 -7.42705e-13
  17 4321.05 0.00000 -5.26612e-13
  18 4321.05 0.00000 -1.81018e-13
  19 4321.05 0.00000 -1.45629e-13
  20 4321.05 0.00000 -6.88682e-13
  21 4321.05 0.00000 -2.48712e-12
  22 4321.05 0.00000 -1.16127e-12
  23 4321.05 0.00000 2.63306e-13
  24 4321.05 0.00000 5.97076e-13
  25 4321.05 0.00000 8.38771e-13
  26 4321.05 0.00000 1.10196e-12
  27 4321.05 0.00000 -4.78146e-13
  28 4321.05 0.00000 1.59414e-13
  29 4321.05 0.00000 -9.31307e-14
  30 4321.05 0.00000 -3.93570e-13
  31 4321.05 0.00000 -5.99047e-14
  32 4321.05 0.00000 -3.98501e-13
  33 4321.05 0.00000 9.37159e-13
  34 4321.05 0.00000 1.77719e-13
  35 4321.05 0.00000 -1.20253e-12
  36 4321.05 0.00000 7.29637e-13
  37 4321.05 0.00000 6.71069e-13
  38 4321.05 0.00000 -1.09152e-12
  39 4321.05 0.00000 -1.24373e-13
  40 4321.05 0.00000 -1.49891e-12
  41 4321.05 0.00000 -1.24029e-12
  42 4321.05 0.00000 1.20565e-13
  43 4321.05 0.00000 1.90184e-13
  44 4321.05 0.00000 2.44037e-13
  45 4321.05 0.00000 -2.66577e-13
  46 4321.05 0.00000 -4.06576e-13
  47 4321.05 0.00000 -3.13512e-13
  48 4321.05 0.00000 -4.79028e-13
  49 4321.05 0.00000 -3.10592e-13
  50 4321.05 0.00000 -1.20958e-14
  51 4321.05 0.00000 0.00000
  52 4321.05 0.00000 1.09618e-14
  53 4321.05 0.00000 3.73941e-15
  54 4321.05 0.00000 4.89629e-15
  55 4321.05 0.00000 0.00000
  56 4321.05 0.00000 1.53860e-13
  57 4321.05 0.00000 4.36198e-14
  58 4321.05 0.00000 -7.86649e-13
  59 4321.05 0.00000 5.20863e-13
  60 4321.05 0.00000 3.69909e-13
  61 4321.05 0.00000 -3.37358e-13
  62 4321.05 0.00000 1.85266e-13
  63 4321.05 0.00000 4.65378e-13
  64 4321.05 0.00000 6.61054e-13
  65 4321.05 0.00000 2.91202e-13
  66 4321.05 0.00000 -1.06421e-13
  67 4321.05 0.00000 8.33643e-14
  68 4321.05 0.00000 -3.21596e-13
  69 4321.05 0.00000 -6.93583e-14
  70 4321.05 0.00000 3.03644e-14
  71 4321.05 0.00000 1.77389e-14
  72 4321.05 0.00000 -3.84142e-13
  73 4321.05 0.00000 -5.92582e-13
  74 4321.05 0.00000 1.22895e-13
  75 4321.05 0.00000 5.75110e-13
  76 4321.05 0.00000 1.15547e-13
  77 4321.05 0.00000 -9.71808e-14
  78 4321.05 0.00000 -6.87416e-13
  79 4321.05 0.00000 9.42162e-14
  80 4321.05 0.00000 -2.06953e-13
  81 4321.05 0.00000 -1.86136e-14
  82 4321.05 0.00000 -3.36892e-13
  83 4321.05 0.00000 2.30393e-13
  84 4321.05 0.00000 3.34878e-13
  85 4321.05 0.00000 1.73894e-13
  86 4321.05 0.00000 -8.08072e-13
  87 4321.05 0.00000 -1.56924e-13
  88 4321.05 0.00000 -2.15634e-12
  89 4321.05 0.00000 8.54299e-14
  90 4321.05 0.00000 -3.75385e-13
  91 4321.05 0.00000 5.03911e-13
  92 4321.05 0.00000 -7.45766e-16
  93 4321.05 0.00000 1.34682e-13
  94 4321.05 0.00000 -5.48481e-13
  95 4321.05 0.00000 -6.34213e-13
  96 4321.05 0.00000 -3.34575e-13
  97 4321.05 0.00000 -8.48968e-13
  98 4321.05 0.00000 3.16607e-13
  99 4321.05 0.00000 -2.29620e-13
  100 4321.05 0.00000 -1.60027e-13
  101 4321.05 0.00000 6.16275e-14
  102 4321.05 0.00000 3.68499e-13
  103 4321.05 0.00000 6.39568e-14
  104 4321.05 0.00000 -3.51151e-14
  105 4321.05 0.00000 -2.83867e-13
  106 4321.05 0.00000 -6.94751e-13
  107 4321.05 0.00000 8.69428e-13
  108 4321.05 0.00000 1.07753e-13
  109 4321.05 0.00000 1.05452e-13
  110 4321.05 0.00000 1.09632e-13
  111 4321.05 0.00000 -5.27129e-13
  112 4321.05 0.00000 1.97383e-13
  113 4321.05 0.00000 -4.82238e-13
  114 4321.05 0.00000 4.85898e-13
  115 4321.05 0.00000 -1.49359e-13
  116 4321.05 0.00000 1.02845e-13
  117 4321.05 0.00000 -3.85799e-13
  118 4321.05 0.00000 2.05164e-13
  119 4321.05 0.00000 8.18408e-14
  120 4321.05 0.00000 -1.01069e-12
  121 4321.05 0.00000 3.55776e-13
  122 4321.05 0.00000 -3.58233e-13
  123 4321.05 0.00000 -7.48897e-13
  124 4321.05 0.00000 -7.16711e-14
  125 4321.05 0.00000 -3.99181e-14
  126 4321.05 0.00000 -9.16676e-14
  127 4321.05 0.00000 -2.92423e-13
  128 4321.05 0.00000 7.53702e-13
  129 4321.05 0.00000 1.54353e-13
  130 4321.05 0.00000 -3.31149e-13
  131 4321.05 0.00000 8.06339e-13
  132 4321.05 0.00000 2.56737e-13
  133 4321.05 0.00000 -8.76961e-14
  134 4321.05 0.00000 1.80518e-13
  135 4321.05 0.00000 -5.66475e-13
  136 4321.05 0.00000 -1.71408e-13
  137 4321.05 0.00000 7.34394e-13
  138 4321.05 0.00000 2.83648e-13
  139 4321.05 0.00000 -1.71527e-13
  140 4321.05 0.00000 3.10191e-13
  141 4321.05 0.00000 -7.62144e-14
  142 4321.05 0.00000 -6.82321e-13
  143 4321.05 0.00000 -5.83521e-14
  144 4321.05 0.00000 -2.34713e-13
  145 4321.05 0.00000 1.06700e-13
  146 4321.05 0.00000 2.81549e-13
  147 4321.05 0.00000 -3.26578e-14
  148 4321.05 0.00000 -6.64271e-14
  149 4321.05 0.00000 1.42424e-14
  150 4321.05 0.00000 -1.26127e-13
  151 4321.05 0.00000 -5.73198e-13
  152 4321.05 0.00000 2.20459e-13
  153 4321.05 0.00000 -5.74969e-13
  154 4321.05 0.00000 5.17922e-14
  155 4321.05 0.00000 -3.86057e-13
  156 4321.05 0.00000 7.17541e-13
  157 4321.05 0.00000 3.53837e-13
  158 4321.05 0.00000 4.62331e-13
  159 4321.05 0.00000 6.76900e-13
  160 4321.05 0.00000 -2.73783e-14
  161 4321.05 0.00000 -9.44894e-13
  162 4321.05 0.00000 2.26364e-13
  163 4321.05 0.00000 4.92299e-13
  164 4321.05 0.00000 -1.32116e-12
  165 4321.05 0.00000 3.75276e-14
  166 4321.05 0.00000 8.55887e-14
  167 4321.05 0.00000 2.79043e-13
  168 4321.05 0.00000 -5.00835e-13
  169 4321.05 0.00000 -3.63218e-14
  170 4321.05 0.00000 2.61568e-13
  171 4321.05 0.00000 1.92564e-13
  172 4321.05 0.00000 -7.76298e-14
  173 4321.05 0.00000 3.42721e-13
  174 4321.05 0.00000 -2.05711e-13
  175 4321.05 0.00000 -8.26445e-14
  176 4321.05 0.00000 1.79242e-13
  177 4321.05 0.00000 -8.71140e-13
  178 4321.05 0.00000 -6.57481e-14
  179 4321.05 0.00000 -4.64262e-13
  180 4321.05 0.00000 1.14305e-13
  181 4321.05 0.00000 8.43482e-13
  182 4321.05 0.00000 3.19452e-13
  183 4321.05 0.00000 1.20208e-13
  184 4321.05 0.00000 -2.96213e-13
  185 4321.05 0.00000 -1.16352e-13
  186 4321.05 0.00000 -2.20217e-13
  187 4321.05 0.00000 -5.59484e-13
  188 4321.05 0.00000 1.44068e-12
  189 4321.05 0.00000 2.11637e-13
  190 4321.05 0.00000 3.61777e-13
  191 4321.05 0.00000 1.01383e-13
  192 4321.05 0.00000 -3.47866e-13
  193 4321.05 0.00000 -5.78455e-13
  194 4321.05 0.00000 -5.40127e-14
  195 4321.05 0.00000 2.51233e-13
  196 4321.05 0.00000 -9.71955e-13
  197 4321.05 0.00000 1.25215e-13
  198 4321.05 0.00000 5.36086e-13
  199 4321.05 0.00000 3.67781e-14
  200 4321.05 0.00000 -3.90311e-13
  201 4321.05 0.00000 1.59884e-13
  202 4321.05 0.00000 -9.45859e-13
  203 4321.05 0.00000 -1.62070e-13
  204 4321.05 0.00000 -9.10456e-13
  205 4321.05 0.00000 1.75127e-13
  206 4321.05 0.00000 -1.11556e-12
  207 4321.05 0.00000 -4.92610e-14
  208 4321.05 0.00000 -1.29239e-12
  209 4321.05 0.00000 3.12107e-14
  210 4321.05 0.00000 -1.63031e-13
  211 4321.05 0.00000 1.51174e-13
  212 4321.05 0.00000 3.75218e-13
  213 4321.05 0.00000 -3.98775e-13
  214 4321.05 0.00000 -1.59314e-13
  215 4321.05 0.00000 -9.56778e-13
  216 4321.05 0.00000 -2.09541e-13
  217 4321.05 0.00000 4.26316e-13
  218 4321.05 0.00000 4.54089e-14
  219 4321.05 0.00000 1.87615e-13
  220 4321.05 0.00000 3.95126e-13
  221 4321.05 0.00000 3.17956e-13
  222 4321.05 0.00000 -9.59508e-14
  223 4321.05 0.00000 -7.08131e-13
  224 4321.05 0.00000 1.55941e-13
  225 4321.05 0.00000 -1.13687e-14
  226 4321.05 0.00000 -3.80043e-13
  227 4321.05 0.00000 5.32608e-14
  228 4321.05 0.00000 -3.99797e-13
  229 4321.05 0.00000 -4.02927e-15
  230 4321.05 0.00000 -3.35650e-13
  231 4321.05 0.00000 2.84844e-13
  232 4321.05 0.00000 2.73482e-13
  233 4321.05 0.00000 -8.23084e-13
  234 4321.05 0.00000 -1.97984e-13
  235 4321.05 0.00000 -6.51299e-13
  236 4321.05 0.00000 3.15857e-13
  237 4321.05 0.00000 6.34681e-13
  238 4321.05 0.00000 -2.31009e-13
  239 4321.05 0.00000 9.20328e-13
  240 4321.05 0.00000 2.58221e-13
  241 4321.05 0.00000 -2.44515e-13
</Section>

newXOutput 94

<Section columns = "stress_xx | stress_yy | stress_xy">
  1 4369.23 0.00000 -3.72942e-14
  2 4369.23 0.00000 -1.90535e-12
  3 4369.23 0.00000 -2.68977e-13
  4 4369.23 0.00000 -9.29341e-14
  5 4369.23 0.00000 -3.01888e-13
  6 4369.23 0.00000 0.00000
  7 4369.23 0.00000 1.29398e-13
  8 4369.23 0.00000 1.18299e-14
  9 4369.23 0.00000 5.77710e-13
  10 4369.23 0.00000 2.63992e-13
  11 4369.23 0.00000 -1.30328e-14
  12 4369.23 0.00000 5.39815e-13
  13 4369.23 0.00000 -7.10072e-13
  14 4369.23 0.00000 -8.29873e-13
  15 4369.23 0.00000 2.15086e-13
  16 4369.23 0.00000 2.49489e-12
  17 4369.23 0.00000 2.45045e-13
  18 4369.23 0.00000 -4.74418e-13
  19 4369.23 0.00000 5.27985e-13
  20 4369.23 0.00000 2.38776e-12
  21 4369.23 0.00000 5.97222e-13
  22 4369.23 0.00000 -1.03231e-12
  23 4369.23 0.00000 -1.03702e-12
  24 4369.23 0.00000 -2.66301e-14
  25 4369.23 0.00000 -4.82100e-13
  26 4369.23 0.00000 -9.49739e-13
  27 4369.23 0.00000 2.65231e-12
  28 4369.23 0.00000 -1.44088e-12
  29 4369.23 0.00000 3.49822e-13
  30 4369.23 0.00000 6.32180e-13
  31 4369.23 0.00000 -8.78960e-13
  32 4369.23 0.00000 -3.37757e-12
  33 4369.23 0.00000 5.34744e-13
  34 4369.23 0.00000 9.54089e-13
  35 4369.23 0.00000 -1.39793e-13
  36 4369.23 0.00000 -2.81489e-13
  37 4369.23 0.00000 3.98342e-13
  38 4369.23 0.00000 1.25187e-12
  39 4369.23 0.00000 1.03853e-13
  40 4369.23 0.00000 -3.49754e-13
  41 4369.23 0.00000 8.00352e-13
  42 4369.23 0.00000 -1.37200e-12
  43 4369.23 0.00000 -6.33642e-13
  44 4369.23 0.00000 -6.41718e-14
  45 4369.23 0.00000 -3.21638e-14
  46 4369.23 0.00000 -4.29438e-13
  47 4369.23 0.00000 -4.52234e-13
  48 4369.23 0.00000 -3.39131e-13
  49 4369.23 0.00000 -3.38443e-13
  50 4369.23 0.00000 -3.29990e-14
  51 4369.23 0.00000 -1.17533e-14
  52 4369.23 0.00000 3.81417e-15
  53 4369.23 0.00000 4.59584e-15
  54 4369.23 0.00000 -2.73908e-13
  55 4369.23 0.00000 -1.60700e-13
  56 4369.23 0.00000 1.44389e-13
  57 4369.23 0.00000 9.79985e-14
  58 4369.23 0.00000 4.79673e-13
  59 4369.23 0.00000 -5.41222e-13
  60 4369.23 0.00000 -9.19961e-13
  61 4369.23 0.00000 4.47708e-13
  62 4369.23 0.00000 -4.28706e-13
  63 4369.23 0.00000 2.56152e-13
  64 4369.23 0.00000 5.78618e-14
  65 4369.23 0.00000 -4.52645e-13
  66 4369.23 0.00000 1.66126e-13
  67 4369.23 0.00000 -1.30261e-12
  68 4369.23 0.00000 7.81844e-13
  69 4369.23 0.00000 2.36160e-13
  70 4369.23 0.00000 3.31492e-13
  71 4369.23 0.00000 -3.24677e-13
  72 4369.23 0.00000 -2.02481e-13
  73 4369.23 0.00000 3.88384e-13
  74 4369.23 0.00000 -3.84834e-13
  75 4369.23 0.00000 4.02656e-13
  76 4369.23 0.00000 1.48701e-12
  77 4369.23 0.00000 1.25630e-13
  78 4369.23 0.00000 -2.22479e-13
  79 4369.23 0.00000 1.20904e-13
  80 4369.23 0.00000 2.50601e-13
  81 4369.23 0.00000 -8.21359e-13
  82 4369.23 0.00000 -1.29399e-14
  83 4369.23 0.00000 8.10479e-14
  84 4369.23 0.00000 7.07332e-13
  85 4369.23 0.00000 6.57100e-13
  86 4369.23 0.00000 -1.13955e-12
  87 4369.23 0.00000 4.74453e-14
  88 4369.23 0.00000 2.76442e-12
  89 4369.23 0.00000 -1.07470e-13
  90 4369.23 0.00000 5.54504e-14
  91 4369.23 0.00000 -3.64210e-13
  92 4369.23 0.00000 -1.18526e-13
  93 4369.23 0.00000 1.37850e-12
  94 4369.23 0.00000 -1.11315e-13
  95 4369.23 0.00000 -3.12566e-13
  96 4369.23 0.00000 2.84937e-13
  97 4369.23 0.00000 2.47717e-13
  98 4369.23 0.00000 -3.35845e-13
  99 4369.23 0.00000 -3.07011e-14
  100 4369.23 0.00000 1.75437e-13
  101 4369.23 0.00000 -6.14192e-13
  102 4369.23 0.00000 -5.14785e-13
  103 4369.23 0.00000 8.08986e-13
  104 4369.23 0.00000 8.19782e-14
  105 4369.23 0.00000 2.11420e-13
  106 4369.23 0.00000 5.31902e-13
  107 4369.23 0.00000 2.66028e-13
  108 4369.23 0.00000 1.88916e-13
  109 4369.23 0.00000 -2.56421e-13
  110 4369.23 0.00000 -1.38914e-12
  111 4369.23 0.00000 1.10854e-14
  112 4369.23 0.00000 -4.79296e-13
  113 4369.23 0.00000 3.12462e-13
  114 4369.23 0.00000 2.52678e-14
  115 4369.23 0.00000 2.93837e-13
  116 4369.23 0.00000 8.48798e-13
  117 4369.23 0.00000 -1.37101e-12
  118 4369.23 0.00000 -1.44956e-13
  119 4369.23 0.00000 -2.49461e-13
  120 4369.23 0.00000 1.32243e-13
  121 4369.23 0.00000 6.17683e-13
  122 4369.23 0.00000 3.61731e-13
  123 4369.23 0.00000 -7.53647e-13
  124 4369.23 0.00000 1.72955e-13
  125 4369.23 0.00000 -3.77603e-14
  126 4369.23 0.00000 3.57820e-13
  127 4369.23 0.00000 1.90576e-12
  128 4369.23 0.00000 1.28552e-12
  129 4369.23 0.00000 -4.15558e-13
  130 4369.23 0.00000 -1.47535e-13
  131 4369.23 0.00000 -7.28670e-13
  132 4369.23 0.00000 2.49779e-13
  133 4369.23 0.00000 -5.47437e-13
  134 4369.23 0.00000 2.51857e-15
  135 4369.23 0.00000 -1.06722e-12
  136 4369.23 0.00000 -1.09119e-13
  137 4369.23 0.00000 6.27354e-13
  138 4369.23 0.00000 -7.17691e-13
  139 4369.23 0.00000 1.74214e-13
  140 4369.23 0.00000 3.30185e-13
  141 4369.23 0.00000 1.98465e-13
  142 4369.23 0.00000 4.95645e-13
  143 4369.23 0.00000 -5.91212e-14
  144 4369.23 0.00000 7.05667e-13
  145 4369.23 0.00000 5.56868e-13
  146 4369.23 0.00000 -2.05639e-13
  147 4369.23 0.00000 -4.69258e-13
  148 4369.23 0.00000 -2.11386e-13
  149 4369.23 0.00000 7.46882e-13
  150 4369.23 0.00000 -1.16991e-13
  151 4369.23 0.00000 4.78560e-13
  152 4369.23 0.00000 -9.89709e-13
  153 4369.23 0.00000 1.08239e-12
  154 4369.23 0.00000 4.32108e-13
  155 4369.23 0.00000 2.30787e-13
  156 4369.23 0.00000 1.86687e-12
  157 4369.23 0.00000 2.72356e-14
  158 4369.23 0.00000 -1.72770e-12
  159 4369.23 0.00000 -5.78517e-13
  160 4369.23 0.00000 3.14847e-13
  161 4369.23 0.00000 3.02677e-12
  162 4369.23 0.00000 -5.89517e-15
  163 4369.23 0.00000 -4.79315e-13
  164 4369.23 0.00000 5.18977e-13
  165 4369.23 0.00000 1.82023e-13
  166 4369.23 0.00000 -1.62235e-13
  167 4369.23 0.00000 3.16494e-13
  168 4369.23 0.00000 1.34319e-12
  169 4369.23 0.00000 6.37705e-14
  170 4369.23 0.00000 2.44123e-14
  171 4369.23 0.00000 -2.68624e-14
  172 4369.23 0.00000 -3.59770e-13
  173 4369.23 0.00000 -4.29817e-13
  174 4369.23 0.00000 -1.58911e-12
  175 4369.23 0.00000 -9.36459e-16
  176 4369.23 0.00000 -1.32617e-13
  177 4369.23 0.00000 9.73182e-13
  178 4369.23 0.00000 -4.37803e-13
  179 4369.23 0.00000 4.12850e-13
  180 4369.23 0.00000 1.53032e-13
  181 4369.23 0.00000 -8.89015e-13
  182 4369.23 0.00000 5.81335e-13
  183 4369.23 0.00000 -6.09202e-13
  184 4369.23 0.00000 1.43975e-12
  185 4369.23 0.00000 1.49249e-13
  186 4369.23 0.00000 -6.26484e-13
  187 4369.23 0.00000 1.37538e-12
  188 4369.23 0.00000 -7.21150e-13
  189 4369.23 0.00000 5.38494e-13
  190 4369.23 0.00000 2.21008e-13
  191 4369.23 0.00000 -4.84193e-13
  192 4369.23 0.00000 3.21597e-13
  193 4369.23 0.00000 -2.02414e-13
  194 4369.23 0.00000 9.41660e-13
  195 4369.23 0.00000 -3.21458e-13
  196 4369.23 0.00000 -6.53447e-13
  197 4369.23 0.00000 2.43918e-14
  198 4369.23 0.00000 -8.09286e-13
  199 4369.23 0.00000 -4.85766e-14
  200 4369.23 0.00000 -8.66040e-14
  201 4369.23 0.00000 2.04756e-13
  202 4369.23 0.00000 -4.56359e-13
  203 4369.23 0.00000 -7.41344e-14
  204 4369.23 0.00000 3.57489e-13
  205 4369.23 0.00000 7.89387e-14
  206 4369.23 0.00000 1.78816e-12
  207 4369.23 0.00000 -6.13582e-13
  208 4369.23 0.00000 -9.49839e-14
  209 4369.23 0.00000 9.60396e-14
  210 4369.23 0.00000 -2.38320e-13
  211 4369.23 0.00000 -3.43859e-14
  212 4369.23 0.00000 -2.02609e-12
  213 4369.23 0.00000 -6.05213e-14
  214 4369.23 0.00000 -5.34545e-13
  215 4369.23 0.00000 8.45499e-13
  216 4369.23 0.00000 -8.12841e-13
  217 4369.23 0.00000 1.23562e-12
  218 4369.23 0.00000 -5.20715e-13
  219 4369.23 0.00000 4.06474e-13
  220 4369.23 0.00000 3.80337e-13
  221 4369.23 0.00000 7.97892e-13
  222 4369.23 0.00000 3.20388e-14
  223 4369.23 0.00000 2.37457e-13
  224 4369.23 0.00000 -1.78736e-13
  225 4369.23 0.00000 2.48985e-13
  226 4369.23 0.00000 7.28669e-13
  227 4369.23 0.00000 6.31315e-13
  228 4369.23 0.00000 -1.17533e-14
  229 4369.23 0.00000 -2.00292e-13
  230 4369.23 0.00000 -7.43365e-13
  231 4369.23 0.00000 1.12848e-12
  232 4369.23 0.00000 -9.15421e-15
  233 4369.23 0.00000 1.21780e-12
  234 4369.23 0.00000 -6.65647e-14
  235 4369.23 0.00000 -4.07872e-14
  236 4369.23 0.00000 1.74473e-13
  237 4369.23 0.00000 -2.00909e-13
  238 4369.23 0.00000 2.98278e-13
  239 4369.23 0.00000 1.46124e-13
  240 4369.23 0.00000 -4.34704e-13
  241 4369.23 0.00000 1.23562e-12
</Section>

newXOutput 95

<Section columns = "stress_xx | stress_yy | stress_xy">
  1 4417.48 0.00000 1.98514e-13
  2 4417.48 0.00000 -1.77586e-12
  3 4417.48 0.00000 1.76425e-12
  4 4417.48 0.00000 2.48991e-13
  5 4417.48 0.00000 5.69416e-13
  6 4417.48 0.00000 7.54868e-13
  7 4417.48 0.00000 3.57397e-14
  8 4417.48 0.00000 -1.13395e-13
  9 4417.48 0.00000 2.50332e-13
  10 4417.48 0.00000 5.29369e-13
  11 4417.48 0.00000 2.71861e-13
  12 4417.48 0.00000 2.57508e-13
  13 4417.48 0.00000 1.22942e-13
  14 4417.48 0.00000 1.07309e-12
  15 4417.48 0.00000 2.67413e-13
  16 4417.48 0.00000 -2.31384e-13
  17 4417.48 0.00000 -1.07309e-12
  18 4417.48 0.00000 -1.15115e-13
  19 4417.48 0.00000 -2.06810e-12
  20 4417.48 0.00000 -2.55788e-13
  21 4417.48 0.00000 -1.06218e-13
  22 4417.48 0.00000 4.04203e-13
  23 4417.48 0.00000 -1.32342e-12
  24 4417.48 0.00000 -2.50332e-13
  25 4417.48 0.00000 -1.87749e-13
  26 4417.48 0.00000 3.07431e-13
  27 4417.48 0.00000 -1.25596e-12
  28 4417.48 0.00000 3.99880e-13
  29 4417.48 0.00000 2.28203e-14
  30 4417.48 0.00000 -8.62398e-13
  31 4417.48 0.00000 2.39799e-12
  32 4417.48 0.00000 -3.60986e-13
  33 4417.48 0.00000 1.91540e-13
  34 4417.48 0.00000 -2.79675e-12
  35 4417.48 0.00000 -6.47748e-13
  36 4417.48 0.00000 1.07979e-13
  37 4417.48 0.00000 1.35703e-13
  38 4417.48 0.00000 5.25760e-14
  39 4417.48 0.00000 -1.33769e-13
  40 4417.48 0.00000 -2.94677e-13
  41 4417.48 0.00000 6.84698e-13
  42 4417.48 0.00000 1.58539e-12
  43 4417.48 0.00000 6.30453e-13
  44 4417.48 0.00000 -1.03405e-12
  45 4417.48 0.00000 -2.51484e-13
  46 4417.48 0.00000 -1.43816e-14
  47 4417.48 0.00000 -6.89895e-15
  48 4417.48 0.00000 6.63130e-13
  49 4417.48 0.00000 7.87304e-13
  50 4417.48 0.00000 -6.27292e-14
  51 4417.48 0.00000 2.28203e-14
  52 4417.48 0.00000 -1.45514e-13
  53 4417.48 0.00000 1.20141e-13
  54 4417.48 0.00000 4.00364e-13
  55 4417.48 0.00000 0.00000
  56 4417.48 0.00000 -1.69412e-13
  57 4417.48 0.00000 3.09468e-13
  58 4417.48 0.00000 2.55391e-13
  59 4417.48 0.00000 2.98462e-13
  60 4417.48 0.00000 -2.15219e-13
  61 4417.48 0.00000 -5.82155e-13
  62 4417.48 0.00000 -1.00567e-14
  63 4417.48 0.00000 2.94626e-13
  64 4417.48 0.00000 -3.79516e-13
  65 4417.48 0.00000 3.86536e-14
  66 4417.48 0.00000 -4.69104e-14
  67 4417.48 0.00000 -1.40685e-13
  68 4417.48 0.00000 7.41738e-14
  69 4417.48 0.00000 -2.37319e-13
  70 4417.48 0.00000 1.92481e-13
  71 4417.48 0.00000 2.55946e-13
  72 4417.48 0.00000 -3.55929e-13
  73 4417.48 0.00000 5.31594e-13
  74 4417.48 0.00000 -4.24301e-13
  75 4417.48 0.00000 5.01452e-13
  76 4417.48 0.00000 -7.98074e-13
  77 4417.48 0.00000 -2.38130e-13
  78 4417.48 0.00000 -1.42767e-13
  79 4417.48 0.00000 -1.19248e-13
  80 4417.48 0.00000 -7.62870e-13
  81 4417.48 0.00000 -4.89753e-13
  82 4417.48 0.00000 -6.06369e-13
  83 4417.48 0.00000 5.19143e-13
  84 4417.48 0.00000 -5.22623e-13
  85 4417.48 0.00000 6.02717e-13
  86 4417.48 0.00000 -7.44318e-13
  87 4417.48 0.00000 -1.86686e-13
  88 4417.48 0.00000 8.46489e-14
  89 4417.48 0.00000 -4.23531e-13
  90 4417.48 0.00000 -2.79272e-13
  91 4417.48 0.00000 5.05941e-13
  92 4417.48 0.00000 4.60371e-13
  93 4417.48 0.00000 -5.07265e-13
  94 4417.48 0.00000 -2.09257e-13
  95 4417.48 0.00000 2.05231e-13
  96 4417.48 0.00000 2.72565e-14
  97 4417.48 0.00000 -1.83390e-12
  98 4417.48 0.00000 -2.00708e-13
  99 4417.48 0.00000 -1.43287e-13
  100 4417.48 0.00000 -1.92917e-13
  101 4417.48 0.00000 5.52981e-13
  102 4417.48 0.00000 -2.34168e-13
  103 4417.48 0.00000 4.37470e-13
  104 4417.48 0.00000 2.33910e-13
  105 4417.48 0.00000 4.42920e-13
  106 4417.48 0.00000 -7.82824e-14
  107 4417.48 0.00000 7.68699e-13
  108 4417.48 0.00000 -5.65698e-13
  109 4417.48 0.00000 6.13626e-13
  110 4417.48 0.00000 9.64192e-13
  111 4417.48 0.00000 3.88690e-13
  112 4417.48 0.00000 4.21824e-13
  113 4417.48 0.00000 -2.99364e-13
  114 4417.48 0.00000 -6.75043e-13
  115 4417.48 0.00000 -1.10139e-13
  116 4417.48 0.00000 -5.58466e-13
  117 4417.48 0.00000 8.84052e-13
  118 4417.48 0.00000 -2.88163e-13
  119 4417.48 0.00000 3.30743e-13
  120 4417.48 0.00000 7.72416e-14
  121 4417.48 0.00000 -3.58102e-13
  122 4417.48 0.00000 1.09468e-13
  123 4417.48 0.00000 -1.22008e-13
  124 4417.48 0.00000 3.51543e-13
  125 4417.48 0.00000 2.71254e-13
  126 4417.48 0.00000 -1.96187e-14
  127 4417.48 0.00000 3.07982e-13
  128 4417.48 0.00000 -8.50575e-13
  129 4417.48 0.00000 -3.26585e-13
  130 4417.48 0.00000 -4.76189e-14
  131 4417.48 0.00000 3.04936e-13
  132 4417.48 0.00000 3.11097e-13
  133 4417.48 0.00000 -7.34813e-13
  134 4417.48 0.00000 9.79807e-14
  135 4417.48 0.00000 -1.31805e-12
  136 4417.48 0.00000 1.99530e-14
  137 4417.48 0.00000 6.13111e-13
  138 4417.48 0.00000 -3.09738e-13
  139 4417.48 0.00000 2.57846e-13
  140 4417.48 0.00000 -8.07802e-13
  141 4417.48 0.00000 -6.94367e-14
  142 4417.48 0.00000 -2.35833e-13
  143 4417.48 0.00000 4.56438e-14
  144 4417.48 0.00000 -2.62834e-13
  145 4417.48 0.00000 -1.15554e-12
  146 4417.48 0.00000 7.45810e-14
  147 4417.48 0.00000 2.13685e-13
  148 4417.48 0.00000 2.99887e-13
  149 4417.48 0.00000 -5.98518e-13
  150 4417.48 0.00000 -3.00740e-13
  151 4417.48 0.00000 -2.64684e-13
  152 4417.48 0.00000 -1.65428e-13
  153 4417.48 0.00000 -8.68658e-13
  154 4417.48 0.00000 -4.77532e-13
  155 4417.48 0.00000 2.12006e-13
  156 4417.48 0.00000 -5.06835e-13
  157 4417.48 0.00000 -3.45014e-13
  158 4417.48 0.00000 -4.53813e-15
  159 4417.48 0.00000 -3.46159e-13
  160 4417.48 0.00000 -4.12572e-13
  161 4417.48 0.00000 -7.50046e-13
  162 4417.48 0.00000 1.20350e-12
  163 4417.48 0.00000 -1.00477e-12
  164 4417.48 0.00000 9.01078e-13
  165 4417.48 0.00000 5.14227e-14
  166 4417.48 0.00000 -5.26088e-14
  167 4417.48 0.00000 1.47472e-14
  168 4417.48 0.00000 -1.29904e-12
  169 4417.48 0.00000 -7.04682e-14
  170 4417.48 0.00000 -7.20721e-13
  171 4417.48 0.00000 -1.27909e-13
  172 4417.48 0.00000 -1.62270e-13
  173 4417.48 0.00000 -6.01227e-13
  174 4417.48 0.00000 -1.10761e-12
  175 4417.48 0.00000 2.46293e-13
  176 4417.48 0.00000 -9.83059e-14
  177 4417.48 0.00000 3.61590e-13
  178 4417.48 0.00000 5.79609e-13
  179 4417.48 0.00000 -5.00461e-13
  180 4417.48 0.00000 2.95156e-13
  181 4417.48 0.00000 -5.24639e-14
  182 4417.48 0.00000 1.96879e-14
  183 4417.48 0.00000 -1.57447e-14
  184 4417.48 0.00000 -5.95283e-13
  185 4417.48 0.00000 -1.65115e-13
  186 4417.48 0.00000 1.58811e-13
  187 4417.48 0.00000 1.50316e-12
  188 4417.48 0.00000 -3.23576e-13
  189 4417.48 0.00000 -4.88704e-13
  190 4417.48 0.00000 -4.55555e-14
  191 4417.48 0.00000 8.80322e-13
  192 4417.48 0.00000 1.20283e-12
  193 4417.48 0.00000 -1.73170e-13
  194 4417.48 0.00000 1.69231e-13
  195 4417.48 0.00000 -6.97199e-14
  196 4417.48 0.00000 2.10886e-13
  197 4417.48 0.00000 2.23112e-13
  198 4417.48 0.00000 -6.60851e-13
  199 4417.48 0.00000 2.58907e-13
  200 4417.48 0.00000 6.25649e-13
  201 4417.48 0.00000 6.11115e-13
  202 4417.48 0.00000 2.41490e-13
  203 4417.48 0.00000 -4.30113e-13
  204 4417.48 0.00000 -7.09240e-13
  205 4417.48 0.00000 -1.37152e-13
  206 4417.48 0.00000 2.93851e-13
  207 4417.48 0.00000 9.48308e-14
  208 4417.48 0.00000 -9.72741e-13
  209 4417.48 0.00000 -2.27659e-12
  210 4417.48 0.00000 -2.63836e-13
  211 4417.48 0.00000 1.16571e-14
  212 4417.48 0.00000 -6.93894e-13
  213 4417.48 0.00000 3.64092e-13
  214 4417.48 0.00000 8.18040e-13
  215 4417.48 0.00000 1.32312e-12
  216 4417.48 0.00000 -5.52360e-13
  217 4417.48 0.00000 -4.58750e-13
  218 4417.48 0.00000 -2.51470e-13
  219 4417.48 0.00000 3.69467e-13
  220 4417.48 0.00000 -6.32283e-14
  221 4417.48 0.00000 -1.25375e-12
  222 4417.48 0.00000 -2.97770e-13
  223 4417.48 0.00000 -4.86358e-13
  224 4417.48 0.00000 5.99072e-13
  225 4417.48 0.00000 2.81084e-13
  226 4417.48 0.00000 -2.81450e-13
  227 4417.48 0.00000 1.94960e-13
  228 4417.48 0.00000 6.19052e-13
  229 4417.48 0.00000 5.98806e-13
  230 4417.48 0.00000 4.73695e-14
  231 4417.48 0.00000 -4.14250e-13
  232 4417.48 0.00000 -4.80867e-13
  233 4417.48 0.00000 -8.35998e-13
  234 4417.48 0.00000 6.14174e-14
  235 4417.48 0.00000 4.01951e-13
  236 4417.48 0.00000 -4.96385e-13
  237 4417.48 0.00000 -6.26128e-13
  238 4417.48 0.00000 -1.88394e-13
  239 4417.48 0.00000 2.29301e-13
  240 4417.48 0.00000 4.40778e-13
  241 4417.48 0.00000 -4.69514e-13
</Section>

newXOutput 96

<Section columns = "stress_xx | stress_yy | stress_xy">
  1 4465.79 0.00000 -1.65036e-13
  2 4465.79 0.00000 2.12300e-12
  3 4465.79 0.00000 1.09855e-13
  4 4465.79 0.00000 1.46750e-13
  5 4465.79 0.00000 4.99126e-13
  6 4465.79 0.00000 6.12870e-13
  7 4465.79 0.00000 4.81836e-13
  8 4465.79 0.00000 -2.48498e-13
  9 4465.79 0.00000 -7.79106e-14
  10 4465.79 0.00000 1.08254e-12
  11 4465.79 0.00000 9.01451e-13
  12 4465.79 0.00000 1.88532e-13
  13 4465.79 0.00000 -9.79719e-14
  14 4465.79 0.00000 -8.13035e-13
  15 4465.79 0.00000 -3.89401e-13
  16 4465.79 0.00000 5.30766e-13
  17 4465.79 0.00000 4.08580e-13
  18 4465.79 0.00000 1.59230e-12
  19 4465.79 0.00000 1.20473e-12
  20 4465.79 0.00000 -1.24181e-13
  21 4465.79 0.00000 8.84565e-13
  22 4465.79 0.00000 6.73963e-13
  23 4465.79 0.00000 2.67278e-12
  24 4465.79 0.00000 6.36068e-13
  25 4465.79 0.00000 0.00000
  26 4465.79 0.00000 2.98050e-14
  27 4465.79 0.00000 -2.82201e-13
  28 4465.79 0.00000 8.66775e-13
  29 4465.79 0.00000 3.72747e-13
  30 4465.79 0.00000 4.56838e-13
  31 4465.79 0.00000 2.79811e-12
  32 4465.79 0.00000 7.84766e-12
  33 4465.79 0.00000 2.27524e-12
  34 4465.79 0.00000 4.67573e-13
  35 4465.79 0.00000 -4.73648e-13
  36 4465.79 0.00000 1.67153e-12
  37 4465.79 0.00000 1.18983e-12
  38 4465.79 0.00000 -3.30046e-13
  39 4465.79 0.00000 -6.01251e-13
  40 4465.79 0.00000 -6.70425e-13
  41 4465.79 0.00000 8.86381e-13
  42 4465.79 0.00000 9.07754e-13
  43 4465.79 0.00000 3.33388e-13
  44 4465.79 0.00000 -3.27060e-13
  45 4465.79 0.00000 -1.46319e-14
  46 4465.79 0.00000 1.92012e-13
  47 4465.79 0.00000 3.48804e-14
  48 4465.79 0.00000 2.01573e-13
  49 4465.79 0.00000 4.09120e-13
  50 4465.79 0.00000 3.31729e-14
  51 4465.79 0.00000 1.10662e-14
  52 4465.79 0.00000 -5.65726e-14
  53 4465.79 0.00000 -1.39009e-13
  54 4465.79 0.00000 -1.31081e-13
  55 4465.79 0.00000 0.00000
  56 4465.79 0.00000 -3.85912e-13
  57 4465.79 0.00000 -2.89216e-13
  58 4465.79 0.00000 -5.39957e-13
  59 4465.79 0.00000 9.79288e-13
  60 4465.79 0.00000 -7.02749e-13
  61 4465.79 0.00000 3.17470e-13
  62 4465.79 0.00000 -1.00053e-12
  63 4465.79 0.00000 -1.22522e-12
  64 4465.79 0.00000 1.66363e-13
  65 4465.79 0.00000 -4.72177e-13
  66 4465.79 0.00000 9.83502e-14
  67 4465.79 0.00000 3.85800e-13
  68 4465.79 0.00000 -2.11138e-13
  69 4465.79 0.00000 3.90553e-13
  70 4465.79 0.00000 8.45968e-13
  71 4465.79 0.00000 1.22030e-14
  72 4465.79 0.00000 -6.14884e-13
  73 4465.79 0.00000 -9.43276e-13
  74 4465.79 0.00000 -6.22646e-13
  75 4465.79 0.00000 2.53063e-13
  76 4465.79 0.00000 -1.57102e-12
  77 4465.79 0.00000 -1.17301e-13
  78 4465.79 0.00000 -5.46380e-14
  79 4465.79 0.00000 -1.55703e-13
  80 4465.79 0.00000 -7.63260e-13
  81 4465.79 0.00000 -6.52140e-13
  82 4465.79 0.00000 2.13063e-13
  83 4465.79 0.00000 -7.31281e-13
  84 4465.79 0.00000 -1.10323e-13
  85 4465.79 0.00000 -1.95881e-13
  86 4465.79 0.00000 1.12997e-12
  87 4465.79 0.00000 2.22190e-13
  88 4465.79 0.00000 -2.77933e-12
  89 4465.79 0.00000 -4.62899e-14
  90 4465.79 0.00000 -1.23767e-12
  91 4465.79 0.00000 -9.69842e-14
  92 4465.79 0.00000 9.35482e-14
  93 4465.79 0.00000 -6.26231e-13
  94 4465.79 0.00000 1.23927e-12
  95 4465.79 0.00000 1.21127e-13
  96 4465.79 0.00000 2.90578e-14
  97 4465.79 0.00000 -8.46806e-14
  98 4465.79 0.00000 6.39970e-13
  99 4465.79 0.00000 2.24796e-13
  100 4465.79 0.00000 -1.08693e-13
  101 4465.79 0.00000 -2.69075e-13
  102 4465.79 0.00000 2.39144e-13
  103 4465.79 0.00000 -5.58407e-14
  104 4465.79 0.00000 -4.84921e-14
  105 4465.79 0.00000 -4.20130e-14
  106 4465.79 0.00000 2.68150e-13
  107 4465.79 0.00000 -3.33929e-13
  108 4465.79 0.00000 -2.80611e-13
  109 4465.79 0.00000 -9.94812e-14
  110 4465.79 0.00000 1.12058e-12
  111 4465.79 0.00000 -1.93849e-12
  112 4465.79 0.00000 -1.47994e-13
  113 4465.79 0.00000 -6.70514e-14
  114 4465.79 0.00000 6.83299e-13
  115 4465.79 0.00000 8.19523e-13
  116 4465.79 0.00000 2.78652e-13
  117 4465.79 0.00000 1.72575e-13
  118 4465.79 0.00000 -4.45551e-13
  119 4465.79 0.00000 -6.39053e-13
  120 4465.79 0.00000 3.28321e-13
  121 4465.79 0.00000 1.97905e-13
  122 4465.79 0.00000 3.12653e-13
  123 4465.79 0.00000 -6.26117e-13
  124 4465.79 0.00000 -1.29496e-12
  125 4465.79 0.00000 -4.69901e-13
  126 4465.79 0.00000 -3.68499e-13
  127 4465.79 0.00000 -2.65820e-13
  128 4465.79 0.00000 1.39831e-13
  129 4465.79 0.00000 1.28397e-14
  130 4465.79 0.00000 4.58601e-13
  131 4465.79 0.00000 -4.54785e-13
  132 4465.79 0.00000 -1.57091e-13
  133 4465.79 0.00000 5.22209e-13
  134 4465.79 0.00000 -1.76992e-14
  135 4465.79 0.00000 1.75518e-12
  136 4465.79 0.00000 2.70832e-13
  137 4465.79 0.00000 8.25852e-13
  138 4465.79 0.00000 -5.86177e-13
  139 4465.79 0.00000 9.83652e-14
  140 4465.79 0.00000 -1.41212e-12
  141 4465.79 0.00000 -6.71898e-13
  142 4465.79 0.00000 -1.61142e-13
  143 4465.79 0.00000 -2.36182e-13
  144 4465.79 0.00000 1.02293e-12
  145 4465.79 0.00000 5.40919e-14
  146 4465.79 0.00000 7.59629e-14
  147 4465.79 0.00000 -5.90275e-13
  148 4465.79 0.00000 -3.93589e-13
  149 4465.79 0.00000 -3.92018e-14
  150 4465.79 0.00000 5.94340e-13
  151 4465.79 0.00000 5.33359e-13
  152 4465.79 0.00000 1.29900e-12
  153 4465.79 0.00000 -1.59051e-13
  154 4465.79 0.00000 3.69165e-13
  155 4465.79 0.00000 -9.76541e-13
  156 4465.79 0.00000 5.57823e-13
  157 4465.79 0.00000 -3.11398e-13
  158 4465.79 0.00000 -1.82392e-13
  159 4465.79 0.00000 -2.11845e-13
  160 4465.79 0.00000 -1.92876e-13
  161 4465.79 0.00000 1.01795e-13
  162 4465.79 0.00000 -5.64469e-13
  163 4465.79 0.00000 -2.03402e-13
  164 4465.79 0.00000 -6.33573e-13
  165 4465.79 0.00000 -1.38829e-13
  166 4465.79 0.00000 -4.65442e-14
  167 4465.79 0.00000 2.58739e-15
  168 4465.79 0.00000 -3.73588e-13
  169 4465.79 0.00000 5.29479e-14
  170 4465.79 0.00000 -3.09512e-14
  171 4465.79 0.00000 -4.21296e-13
  172 4465.79 0.00000 -1.01680e-13
  173 4465.79 0.00000 -2.83124e-13
  174 4465.79 0.00000 1.09893e-12
  175 4465.79 0.00000 1.83033e-13
  176 4465.79 0.00000 -1.61378e-13
  177 4465.79 0.00000 3.01473e-13
  178 4465.79 0.00000 -3.14650e-13
  179 4465.79 0.00000 8.49985e-14
  180 4465.79 0.00000 1.09207e-13
  181 4465.79 0.00000 9.48852e-13
  182 4465.79 0.00000 1.14308e-13
  183 4465.79 0.00000 -2.97257e-13
  184 4465.79 0.00000 6.30306e-15
  185 4465.79 0.00000 -1.88311e-13
  186 4465.79 0.00000 -3.11521e-13
  187 4465.79 0.00000 2.31006e-12
  188 4465.79 0.00000 9.09517e-13
  189 4465.79 0.00000 1.61103e-13
  190 4465.79 0.00000 -2.43734e-13
  191 4465.79 0.00000 -5.38810e-13
  192 4465.79 0.00000 -1.42599e-13
  193 4465.79 0.00000 5.23363e-13
  194 4465.79 0.00000 -9.43002e-14
  195 4465.79 0.00000 -1.02258e-13
  196 4465.79 0.00000 -1.65435e-12
  197 4465.79 0.00000 3.25797e-13
  198 4465.79 0.00000 1.20267e-12
  199 4465.79 0.00000 -1.16136e-13
  200 4465.79 0.00000 -1.00838e-12
  201 4465.79 0.00000 2.14665e-13
  202 4465.79 0.00000 6.16059e-13
  203 4465.79 0.00000 -3.95449e-13
  204 4465.79 0.00000 -6.37519e-13
  205 4465.79 0.00000 1.65746e-13
  206 4465.79 0.00000 1.13611e-12
  207 4465.79 0.00000 6.72078e-13
  208 4465.79 0.00000 5.81018e-13
  209 4465.79 0.00000 1.29465e-13
  210 4465.79 0.00000 1.19166e-13
  211 4465.79 0.00000 1.93825e-13
  212 4465.79 0.00000 7.04571e-13
  213 4465.79 0.00000 2.72053e-13
  214 4465.79 0.00000 4.07532e-13
  215 4465.79 0.00000 -7.22976e-13
  216 4465.79 0.00000 -8.92763e-13
  217 4465.79 0.00000 -1.79343e-12
  218 4465.79 0.00000 -4.56610e-13
  219 4465.79 0.00000 -8.59334e-13
  220 4465.79 0.00000 -3.95181e-13
  221 4465.79 0.00000 -4.45335e-13
  222 4465.79 0.00000 1.38471e-12
  223 4465.79 0.00000 2.23786e-14
  224 4465.79 0.00000 -3.22247e-13
  225 4465.79 0.00000 6.83199e-13
  226 4465.79 0.00000 8.84304e-14
  227 4465.79 0.00000 -5.04441e-13
  228 4465.79 0.00000 -4.46099e-13
  229 4465.79 0.00000 -2.42316e-14
  230 4465.79 0.00000 -6.55904e-13
  231 4465.79 0.00000 -1.63654e-12
  232 4465.79 0.00000 -5.45248e-13
  233 4465.79 0.00000 8.47158e-13
  234 4465.79 0.00000 -1.62076e-13
  235 4465.79 0.00000 -1.16220e-12
  236 4465.79 0.00000 -1.52832e-13
  237 4465.79 0.00000 -6.46259e-13
  238 4465.79 0.00000 1.57017e-13
  239 4465.79 0.00000 4.53043e-14
  240 4465.79 0.00000 1.13119e-13
  241 4465.79 0.00000 -1.75341e-13
</Section>

newXOutput 97

<Section columns = "stress_xx | stress_yy | stress_xy">
  1 4514.17 0.00000 -8.91149e-13
  2 4514.17 0.00000 -3.69989e-13
  3 4514.17 0.00000 -2.32336e-12
  4 4514.17 0.00000 -6.80628e-13
  5 4514.17 0.00000 -1.46860e-12
  6 4514.17 0.00000 -3.99132e-13
  7 4514.17 0.00000 -3.91846e-13
  8 4514.17 0.00000 -5.51605e-13
  9 4514.17 0.00000 -3.79703e-13
  10 4514.17 0.00000 5.32176e-13
  11 4514.17 0.00000 1.23330e-13
  12 4514.17 0.00000 -6.36558e-13
  13 4514.17 0.00000 4.56697e-13
  14 4514.17 0.00000 2.30984e-12
  15 4514.17 0.00000 -4.45948e-13
  16 4514.17 0.00000 7.78836e-13
  17 4514.17 0.00000 -1.23810e-13
  18 4514.17 0.00000 -6.03315e-13
  19 4514.17 0.00000 1.43434e-12
  20 4514.17 0.00000 -1.23330e-13
  21 4514.17 0.00000 -1.12988e-12
  22 4514.17 0.00000 -6.17610e-13
  23 4514.17 0.00000 -2.12870e-12
  24 4514.17 0.00000 1.23330e-13
  25 4514.17 0.00000 1.56573e-13
  26 4514.17 0.00000 -3.05295e-13
  27 4514.17 0.00000 -6.75987e-13
  28 4514.17 0.00000 -1.89747e-12
  29 4514.17 0.00000 -1.56573e-13
  30 4514.17 0.00000 -8.09668e-14
  31 4514.17 0.00000 -2.86096e-12
  32 4514.17 0.00000 -9.25693e-13
  33 4514.17 0.00000 -2.30632e-12
  34 4514.17 0.00000 -8.53964e-13
  35 4514.17 0.00000 -1.56874e-13
  36 4514.17 0.00000 2.81964e-13
  37 4514.17 0.00000 -3.45861e-13
  38 4514.17 0.00000 -8.67077e-13
  39 4514.17 0.00000 3.87762e-13
  40 4514.17 0.00000 1.87568e-12
  41 4514.17 0.00000 3.11694e-13
  42 4514.17 0.00000 -1.77230e-12
  43 4514.17 0.00000 4.10841e-14
  44 4514.17 0.00000 1.42436e-12
  45 4514.17 0.00000 1.00495e-12
  46 4514.17 0.00000 5.95581e-13
  47 4514.17 0.00000 4.51040e-13
  48 4514.17 0.00000 -1.13668e-12
  49 4514.17 0.00000 -1.77058e-12
  50 4514.17 0.00000 2.10288e-13
  51 4514.17 0.00000 1.07215e-14
  52 4514.17 0.00000 3.65348e-14
  53 4514.17 0.00000 5.77219e-13
  54 4514.17 0.00000 -3.28887e-13
  55 4514.17 0.00000 -3.41568e-13
  56 4514.17 0.00000 9.20909e-14
  57 4514.17 0.00000 -3.46511e-14
  58 4514.17 0.00000 -5.48036e-13
  59 4514.17 0.00000 1.12387e-13
  60 4514.17 0.00000 4.46245e-13
  61 4514.17 0.00000 -1.17437e-12
  62 4514.17 0.00000 4.92906e-13
  63 4514.17 0.00000 6.75466e-13
  64 4514.17 0.00000 1.81915e-12
  65 4514.17 0.00000 6.24432e-13
  66 4514.17 0.00000 2.59430e-13
  67 4514.17 0.00000 4.21901e-13
  68 4514.17 0.00000 -2.46378e-13
  69 4514.17 0.00000 -8.03344e-13
  70 4514.17 0.00000 -7.49023e-13
  71 4514.17 0.00000 -3.40612e-13
  72 4514.17 0.00000 -4.32748e-13
  73 4514.17 0.00000 8.55489e-13
  74 4514.17 0.00000 4.60990e-13
  75 4514.17 0.00000 -6.28782e-13
  76 4514.17 0.00000 1.40468e-13
  77 4514.17 0.00000 2.45594e-13
  78 4514.17 0.00000 -8.85818e-13
  79 4514.17 0.00000 -4.82674e-13
  80 4514.17 0.00000 8.82691e-13
  81 4514.17 0.00000 1.91375e-13
  82 4514.17 0.00000 -1.38686e-13
  83 4514.17 0.00000 -3.34664e-13
  84 4514.17 0.00000 9.74657e-14
  85 4514.17 0.00000 1.11289e-13
  86 4514.17 0.00000 1.39288e-12
  87 4514.17 0.00000 1.20884e-13
  88 4514.17 0.00000 -1.54694e-12
  89 4514.17 0.00000 4.81579e-13
  90 4514.17 0.00000 4.20370e-13
  91 4514.17 0.00000 -1.21396e-12
  92 4514.17 0.00000 -8.12007e-13
  93 4514.17 0.00000 5.21930e-13
  94 4514.17 0.00000 6.44575e-14
  95 4514.17 0.00000 -1.85795e-13
  96 4514.17 0.00000 9.10938e-14
  97 4514.17 0.00000 -1.55721e-12
  98 4514.17 0.00000 -3.02198e-13
  99 4514.17 0.00000 3.73037e-13
  100 4514.17 0.00000 5.45255e-13
  101 4514.17 0.00000 8.95979e-13
  102 4514.17 0.00000 -8.78406e-13
  103 4514.17 0.00000 1.20076e-12
  104 4514.17 0.00000 1.12201e-12
  105 4514.17 0.00000 -7.91513e-13
  106 4514.17 0.00000 -7.52087e-13
  107 4514.17 0.00000 2.93152e-14
  108 4514.17 0.00000 2.65623e-13
  109 4514.17 0.00000 -2.89204e-13
  110 4514.17 0.00000 -2.31653e-12
  111 4514.17 0.00000 -1.54293e-12
  112 4514.17 0.00000 6.92460e-13
  113 4514.17 0.00000 -3.54621e-13
  114 4514.17 0.00000 -9.87449e-14
  115 4514.17 0.00000 -7.16864e-14
  116 4514.17 0.00000 -1.67952e-13
  117 4514.17 0.00000 2.07067e-12
  118 4514.17 0.00000 3.30748e-13
  119 4514.17 0.00000 -3.51971e-13
  120 4514.17 0.00000 -4.75505e-13
  121 4514.17 0.00000 -8.39051e-13
  122 4514.17 0.00000 -2.29265e-13
  123 4514.17 0.00000 -4.47422e-14
  124 4514.17 0.00000 1.58466e-13
  125 4514.17 0.00000 -3.30035e-13
  126 4514.17 0.00000 1.55853e-13
  127 4514.17 0.00000 8.27426e-13
  128 4514.17 0.00000 -3.41430e-14
  129 4514.17 0.00000 -7.56011e-14
  130 4514.17 0.00000 1.92913e-13
  131 4514.17 0.00000 6.76812e-13
  132 4514.17 0.00000 -2.79200e-13
  133 4514.17 0.00000 -6.25244e-13
  134 4514.17 0.00000 -8.90043e-13
  135 4514.17 0.00000 -2.88356e-13
  136 4514.17 0.00000 -8.30398e-14
  137 4514.17 0.00000 -2.23197e-13
  138 4514.17 0.00000 -3.31706e-13
  139 4514.17 0.00000 1.56912e-13
  140 4514.17 0.00000 -7.76291e-14
  141 4514.17 0.00000 -8.07475e-13
  142 4514.17 0.00000 3.68420e-13
  143 4514.17 0.00000 3.41553e-13
  144 4514.17 0.00000 -1.05252e-13
  145 4514.17 0.00000 -4.32229e-13
  146 4514.17 0.00000 -4.74280e-13
  147 4514.17 0.00000 -3.42621e-13
  148 4514.17 0.00000 5.78997e-13
  149 4514.17 0.00000 -4.68471e-13
  150 4514.17 0.00000 5.99078e-14
  151 4514.17 0.00000 -9.42047e-13
  152 4514.17 0.00000 -1.17742e-12
  153 4514.17 0.00000 4.68302e-14
  154 4514.17 0.00000 1.04279e-12
  155 4514.17 0.00000 4.70159e-13
  156 4514.17 0.00000 3.83334e-13
  157 4514.17 0.00000 2.97871e-13
  158 4514.17 0.00000 1.85521e-13
  159 4514.17 0.00000 1.63516e-13
  160 4514.17 0.00000 6.31542e-13
  161 4514.17 0.00000 -7.49133e-13
  162 4514.17 0.00000 -1.74241e-13
  163 4514.17 0.00000 -1.53366e-13
  164 4514.17 0.00000 5.21496e-13
  165 4514.17 0.00000 4.10186e-13
  166 4514.17 0.00000 7.28463e-14
  167 4514.17 0.00000 4.09776e-13
  168 4514.17 0.00000 -1.78389e-12
  169 4514.17 0.00000 -6.17206e-14
  170 4514.17 0.00000 1.33163e-12
  171 4514.17 0.00000 4.68641e-13
  172 4514.17 0.00000 9.10047e-13
  173 4514.17 0.00000 -3.69008e-13
  174 4514.17 0.00000 -5.65674e-14
  175 4514.17 0.00000 -1.84212e-13
  176 4514.17 0.00000 1.26391e-13
  177 4514.17 0.00000 -1.68893e-12
  178 4514.17 0.00000 4.18325e-14
  179 4514.17 0.00000 1.79011e-13
  180 4514.17 0.00000 2.24568e-13
  181 4514.17 0.00000 -1.68610e-12
  182 4514.17 0.00000 -4.09542e-13
  183 4514.17 0.00000 -3.55984e-15
  184 4514.17 0.00000 1.59364e-13
  185 4514.17 0.00000 2.32176e-13
  186 4514.17 0.00000 -3.53390e-13
  187 4514.17 0.00000 -2.44341e-12
  188 4514.17 0.00000 -1.48984e-13
  189 4514.17 0.00000 -1.58578e-12
  190 4514.17 0.00000 1.02195e-13
  191 4514.17 0.00000 7.84686e-13
  192 4514.17 0.00000 1.00267e-12
  193 4514.17 0.00000 -3.53991e-13
  194 4514.17 0.00000 -1.58899e-13
  195 4514.17 0.00000 1.74349e-14
  196 4514.17 0.00000 -1.25100e-12
  197 4514.17 0.00000 -6.79417e-13
  198 4514.17 0.00000 -9.72343e-14
  199 4514.17 0.00000 -5.11201e-13
  200 4514.17 0.00000 -7.98264e-13
  201 4514.17 0.00000 -1.25441e-14
  202 4514.17 0.00000 -7.98050e-14
  203 4514.17 0.00000 1.16405e-13
  204 4514.17 0.00000 -3.12042e-13
  205 4514.17 0.00000 1.50824e-13
  206 4514.17 0.00000 -1.87286e-12
  207 4514.17 0.00000 -1.22947e-13
  208 4514.17 0.00000 6.24691e-13
  209 4514.17 0.00000 -1.12959e-12
  210 4514.17 0.00000 -3.71392e-14
  211 4514.17 0.00000 -3.50020e-13
  212 4514.17 0.00000 1.39884e-12
  213 4514.17 0.00000 -5.97231e-13
  214 4514.17 0.00000 -1.18374e-13
  215 4514.17 0.00000 -3.98310e-13
  216 4514.17 0.00000 -2.75096e-15
  217 4514.17 0.00000 2.37438e-12
  218 4514.17 0.00000 3.29139e-13
  219 4514.17 0.00000 4.97674e-13
  220 4514.17 0.00000 1.21047e-12
  221 4514.17 0.00000 -3.11021e-14
  222 4514.17 0.00000 -3.31585e-13
  223 4514.17 0.00000 4.51435e-14
  224 4514.17 0.00000 4.13249e-13
  225 4514.17 0.00000 -4.51644e-13
  226 4514.17 0.00000 9.72953e-13
  227 4514.17 0.00000 3.37825e-14
  228 4514.17 0.00000 3.80122e-13
  229 4514.17 0.00000 2.35251e-13
  230 4514.17 0.00000 -3.17512e-13
  231 4514.17 0.00000 4.41527e-13
  232 4514.17 0.00000 -1.50990e-13
  233 4514.17 0.00000 1.78967e-13
  234 4514.17 0.00000 1.45656e-13
  235 4514.17 0.00000 3.92566e-13
  236 4514.17 0.00000 -5.45308e-13
  237 4514.17 0.00000 6.02786e-13
  238 4514.17 0.00000 -9.15522e-13
  239 4514.17 0.00000 -6.11505e-13
  240 4514.17 0.00000 7.41463e-13
  241 4514.17 0.00000 -2.55847e-13
</Section>

newXOutput 98

<Section columns = "stress_xx | stress_yy | stress_xy">
  1 4562.62 0.00000 -4.55128e-15
  2 4562.62 0.00000 -6.77608e-13
  3 4562.62 0.00000 -9.92183e-13
  4 4562.62 0.00000 -1.77282e-13
  5 4562.62 0.00000 -2.48042e-13
  6 4562.62 0.00000 -4.49082e-14
  7 4562.62 0.00000 6.11043e-15
  8 4562.62 0.00000 1.22409e-13
  9 4562.62 0.00000 1.22599e-13
  10 4562.62 0.00000 9.63735e-13
  11 4562.62 0.00000 1.02627e-12
  12 4562.62 0.00000 -6.40093e-13
  13 4562.62 0.00000 -7.47246e-13
  14 4562.62 0.00000 4.09298e-14
  15 4562.62 0.00000 1.14118e-13
  16 4562.62 0.00000 -2.19996e-12
  17 4562.62 0.00000 -2.21891e-12
  18 4562.62 0.00000 -4.33172e-13
  19 4562.62 0.00000 -8.22379e-13
  20 4562.62 0.00000 -8.86989e-13
  21 4562.62 0.00000 -7.97363e-13
  22 4562.62 0.00000 1.06720e-12
  23 4562.62 0.00000 1.03461e-13
  24 4562.62 0.00000 4.30137e-13
  25 4562.62 0.00000 1.55191e-13
  26 4562.62 0.00000 -4.01496e-13
  27 4562.62 0.00000 1.36374e-12
  28 4562.62 0.00000 5.30413e-14
  29 4562.62 0.00000 4.44821e-13
  30 4562.62 0.00000 8.01746e-13
  31 4562.62 0.00000 -2.68279e-12
  32 4562.62 0.00000 -1.71729e-12
  33 4562.62 0.00000 -2.84437e-13
  34 4562.62 0.00000 3.63908e-13
  35 4562.62 0.00000 1.29053e-12
  36 4562.62 0.00000 2.60106e-13
  37 4562.62 0.00000 4.18603e-13
  38 4562.62 0.00000 4.27953e-13
  39 4562.62 0.00000 -2.49636e-14
  40 4562.62 0.00000 2.28259e-13
  41 4562.62 0.00000 -5.52882e-13
  42 4562.62 0.00000 -3.99209e-15
  43 4562.62 0.00000 -3.71932e-13
  44 4562.62 0.00000 -1.85345e-13
  45 4562.62 0.00000 -6.16646e-13
  46 4562.62 0.00000 -5.12651e-13
  47 4562.62 0.00000 8.71660e-14
  48 4562.62 0.00000 -2.32766e-14
  49 4562.62 0.00000 -3.87643e-13
  50 4562.62 0.00000 7.47518e-14
  51 4562.62 0.00000 0.00000
  52 4562.62 0.00000 2.35129e-14
  53 4562.62 0.00000 1.25347e-13
  54 4562.62 0.00000 -1.47480e-13
  55 4562.62 0.00000 0.00000
  56 4562.62 0.00000 1.40317e-13
  57 4562.62 0.00000 -1.37426e-13
  58 4562.62 0.00000 6.78461e-13
  59 4562.62 0.00000 2.13457e-13
  60 4562.62 0.00000 -1.01259e-13
  61 4562.62 0.00000 2.00097e-13
  62 4562.62 0.00000 6.18520e-13
  63 4562.62 0.00000 4.42720e-13
  64 4562.62 0.00000 -9.30386e-13
  65 4562.62 0.00000 1.97162e-13
  66 4562.62 0.00000 4.91768e-13
  67 4562.62 0.00000 -1.27094e-12
  68 4562.62 0.00000 7.90568e-13
  69 4562.62 0.00000 -3.08347e-13
  70 4562.62 0.00000 1.64582e-13
  71 4562.62 0.00000 -1.76396e-13
  72 4562.62 0.00000 -1.54978e-13
  73 4562.62 0.00000 3.90696e-13
  74 4562.62 0.00000 3.08397e-14
  75 4562.62 0.00000 -5.09230e-13
  76 4562.62 0.00000 1.41514e-12
  77 4562.62 0.00000 2.07248e-14
  78 4562.62 0.00000 -8.04721e-13
  79 4562.62 0.00000 -1.49140e-13
  80 4562.62 0.00000 4.68935e-13
  81 4562.62 0.00000 4.61191e-13
  82 4562.62 0.00000 5.23793e-13
  83 4562.62 0.00000 1.73905e-13
  84 4562.62 0.00000 3.85985e-13
  85 4562.62 0.00000 9.10678e-13
  86 4562.62 0.00000 -1.67133e-12
  87 4562.62 0.00000 1.55582e-13
  88 4562.62 0.00000 -9.47934e-13
  89 4562.62 0.00000 2.11128e-13
  90 4562.62 0.00000 -2.03681e-15
  91 4562.62 0.00000 -5.47083e-14
  92 4562.62 0.00000 -5.14516e-13
  93 4562.62 0.00000 -3.51197e-13
  94 4562.62 0.00000 6.21317e-13
  95 4562.62 0.00000 7.89178e-13
  96 4562.62 0.00000 5.77372e-13
  97 4562.62 0.00000 1.97598e-13
  98 4562.62 0.00000 5.91542e-14
  99 4562.62 0.00000 5.08847e-13
  100 4562.62 0.00000 4.33795e-13
  101 4562.62 0.00000 6.56102e-13
  102 4562.62 0.00000 1.34882e-12
  103 4562.62 0.00000 -1.88108e-12
  104 4562.62 0.00000 2.81972e-13
  105 4562.62 0.00000 -7.20100e-14
  106 4562.62 0.00000 -1.08861e-13
  107 4562.62 0.00000 -4.84059e-13
  108 4562.62 0.00000 -6.16389e-15
  109 4562.62 0.00000 -2.51857e-13
  110 4562.62 0.00000 4.86745e-13
  111 4562.62 0.00000 -8.85013e-13
  112 4562.62 0.00000 1.28138e-13
  113 4562.62 0.00000 1.80715e-13
  114 4562.62 0.00000 3.57768e-13
  115 4562.62 0.00000 8.48750e-13
  116 4562.62 0.00000 1.06985e-13
  117 4562.62 0.00000 -1.02809e-12
  118 4562.62 0.00000 -3.38822e-13
  119 4562.62 0.00000 7.98083e-13
  120 4562.62 0.00000 1.37905e-13
  121 4562.62 0.00000 -4.89213e-13
  122 4562.62 0.00000 6.31091e-14
  123 4562.62 0.00000 -6.48914e-13
  124 4562.62 0.00000 -4.71205e-13
  125 4562.62 0.00000 3.55829e-13
  126 4562.62 0.00000 4.10984e-13
  127 4562.62 0.00000 1.15746e-12
  128 4562.62 0.00000 -5.54395e-13
  129 4562.62 0.00000 2.38209e-14
  130 4562.62 0.00000 -1.69046e-13
  131 4562.62 0.00000 -4.74761e-13
  132 4562.62 0.00000 -2.72463e-13
  133 4562.62 0.00000 1.16122e-14
  134 4562.62 0.00000 -1.77047e-13
  135 4562.62 0.00000 -8.76692e-13
  136 4562.62 0.00000 -4.45595e-14
  137 4562.62 0.00000 -1.64476e-12
  138 4562.62 0.00000 6.16737e-13
  139 4562.62 0.00000 2.51931e-13
  140 4562.62 0.00000 5.41158e-13
  141 4562.62 0.00000 2.95696e-13
  142 4562.62 0.00000 2.76368e-13
  143 4562.62 0.00000 -3.36296e-13
  144 4562.62 0.00000 8.52135e-13
  145 4562.62 0.00000 -5.34644e-13
  146 4562.62 0.00000 3.51316e-13
  147 4562.62 0.00000 -2.52605e-14
  148 4562.62 0.00000 -2.12445e-14
  149 4562.62 0.00000 1.43705e-12
  150 4562.62 0.00000 5.85160e-13
  151 4562.62 0.00000 4.88595e-13
  152 4562.62 0.00000 1.64640e-16
  153 4562.62 0.00000 8.18518e-13
  154 4562.62 0.00000 8.39137e-13
  155 4562.62 0.00000 1.88646e-13
  156 4562.62 0.00000 2.39770e-13
  157 4562.62 0.00000 -1.33691e-13
  158 4562.62 0.00000 8.50326e-14
  159 4562.62 0.00000 8.98458e-13
  160 4562.62 0.00000 2.62641e-14
  161 4562.62 0.00000 1.78543e-12
  162 4562.62 0.00000 1.03179e-13
  163 4562.62 0.00000 2.51272e-13
  164 4562.62 0.00000 -3.55117e-13
  165 4562.62 0.00000 2.84450e-13
  166 4562.62 0.00000 1.29281e-13
  167 4562.62 0.00000 -4.88402e-13
  168 4562.62 0.00000 2.76372e-13
  169 4562.62 0.00000 -4.28376e-14
  170 4562.62 0.00000 -2.85520e-12
  171 4562.62 0.00000 1.74924e-13
  172 4562.62 0.00000 -3.76487e-13
  173 4562.62 0.00000 6.21981e-14
  174 4562.62 0.00000 -7.61457e-13
  175 4562.62 0.00000 2.32155e-14
  176 4562.62 0.00000 1.01991e-13
  177 4562.62 0.00000 -5.86704e-13
  178 4562.62 0.00000 -1.71307e-13
  179 4562.62 0.00000 1.89638e-13
  180 4562.62 0.00000 3.57329e-15
  181 4562.62 0.00000 -1.66797e-13
  182 4562.62 0.00000 7.28099e-13
  183 4562.62 0.00000 2.46530e-13
  184 4562.62 0.00000 -2.38959e-12
  185 4562.62 0.00000 5.15075e-13
  186 4562.62 0.00000 2.61499e-14
  187 4562.62 0.00000 -1.17323e-12
  188 4562.62 0.00000 6.36265e-13
  189 4562.62 0.00000 3.13676e-13
  190 4562.62 0.00000 3.94422e-14
  191 4562.62 0.00000 4.87909e-13
  192 4562.62 0.00000 5.65501e-13
  193 4562.62 0.00000 2.74683e-13
  194 4562.62 0.00000 -8.63591e-13
  195 4562.62 0.00000 1.46570e-13
  196 4562.62 0.00000 -6.49898e-14
  197 4562.62 0.00000 -2.07486e-14
  198 4562.62 0.00000 3.94608e-13
  199 4562.62 0.00000 -2.83474e-13
  200 4562.62 0.00000 1.33400e-12
  201 4562.62 0.00000 -1.57694e-13
  202 4562.62 0.00000 2.91508e-13
  203 4562.62 0.00000 2.72199e-13
  204 4562.62 0.00000 -1.84265e-13
  205 4562.62 0.00000 -2.38613e-13
  206 4562.62 0.00000 -1.14147e-12
  207 4562.62 0.00000 -1.39444e-13
  208 4562.62 0.00000 4.20424e-13
  209 4562.62 0.00000 7.35072e-13
  210 4562.62 0.00000 8.53044e-14
  211 4562.62 0.00000 3.15094e-14
  212 4562.62 0.00000 -1.31406e-12
  213 4562.62 0.00000 -5.26150e-14
  214 4562.62 0.00000 6.92388e-13
  215 4562.62 0.00000 -8.45662e-13
  216 4562.62 0.00000 4.02735e-13
  217 4562.62 0.00000 4.13343e-13
  218 4562.62 0.00000 2.67478e-13
  219 4562.62 0.00000 1.33447e-12
  220 4562.62 0.00000 1.33991e-13
  221 4562.62 0.00000 3.61401e-13
  222 4562.62 0.00000 9.51691e-14
  223 4562.62 0.00000 4.31123e-13
  224 4562.62 0.00000 5.11277e-13
  225 4562.62 0.00000 9.88121e-14
  226 4562.62 0.00000 8.51957e-13
  227 4562.62 0.00000 -5.77456e-14
  228 4562.62 0.00000 1.29155e-13
  229 4562.62 0.00000 8.53657e-14
  230 4562.62 0.00000 1.32229e-12
  231 4562.62 0.00000 5.88363e-13
  232 4562.62 0.00000 -4.63184e-13
  233 4562.62 0.00000 -1.49375e-12
  234 4562.62 0.00000 3.88529e-13
  235 4562.62 0.00000 -7.74734e-13
  236 4562.62 0.00000 4.07671e-14
  237 4562.62 0.00000 -1.80743e-13
  238 4562.62 0.00000 1.34784e-13
  239 4562.62 0.00000 9.70653e-13
  240 4562.62 0.00000 2.80820e-13
  241 4562.62 0.00000 -1.28901e-13
</Section>

newXOutput 99

<Section columns = "stress_xx | stress_yy | stress_xy">
  1 4611.14 0.00000 2.60809e-13
  2 4611.14 0.00000 -1.82228e-13
  3 4611.14 0.00000 1.97781e-12
  4 4611.14 0.00000 9.20835e-14
  5 4611.14 0.00000 3.16524e-13
  6 4611.14 0.00000 1.63818e-13
  7 4611.14 0.00000 -3.44414e-13
  8 4611.14 0.00000 -4.01275e-13
  9 4611.14 0.00000 -1.40433e-13
  10 4611.14 0.00000 -2.67516e-13
  11 4611.14 0.00000 -1.78711e-14
  12 4611.14 0.00000 8.09224e-13
  13 4611.14 0.00000 -2.05643e-13
  14 4611.14 0.00000 -1.05672e-12
  15 4611.14 0.00000 -1.08679e-12
  16 4611.14 0.00000 -1.36213e-12
  17 4611.14 0.00000 1.31304e-12
  18 4611.14 0.00000 1.07007e-12
  19 4611.14 0.00000 6.37570e-13
  20 4611.14 0.00000 2.79551e-12
  21 4611.14 0.00000 -2.09104e-12
  22 4611.14 0.00000 -1.08901e-12
  23 4611.14 0.00000 -1.21390e-12
  24 4611.14 0.00000 3.78956e-14
  25 4611.14 0.00000 -1.53806e-13
  26 4611.14 0.00000 -1.12354e-12
  27 4611.14 0.00000 -1.23613e-12
  28 4611.14 0.00000 1.82228e-13
  29 4611.14 0.00000 8.69329e-14
  30 4611.14 0.00000 6.67889e-13
  31 4611.14 0.00000 2.48989e-12
  32 4611.14 0.00000 -1.35628e-12
  33 4611.14 0.00000 -5.70480e-14
  34 4611.14 0.00000 -9.26591e-13
  35 4611.14 0.00000 5.36886e-13
  36 4611.14 0.00000 -4.37051e-13
  37 4611.14 0.00000 -5.06688e-13
  38 4611.14 0.00000 -4.36843e-13
  39 4611.14 0.00000 -8.00285e-13
  40 4611.14 0.00000 -1.11586e-12
  41 4611.14 0.00000 -2.56050e-13
  42 4611.14 0.00000 7.59381e-14
  43 4611.14 0.00000 -5.04467e-13
  44 4611.14 0.00000 -2.08176e-13
  45 4611.14 0.00000 5.38741e-14
  46 4611.14 0.00000 7.66901e-14
  47 4611.14 0.00000 2.93857e-15
  48 4611.14 0.00000 -2.39306e-14
  49 4611.14 0.00000 1.16643e-13
  50 4611.14 0.00000 -5.68493e-14
  51 4611.14 0.00000 -1.00298e-14
  52 4611.14 0.00000 1.14331e-13
  53 4611.14 0.00000 1.18148e-13
  54 4611.14 0.00000 3.17499e-14
  55 4611.14 0.00000 2.10650e-13
  56 4611.14 0.00000 6.67484e-15
  57 4611.14 0.00000 -1.72237e-13
  58 4611.14 0.00000 8.90048e-13
  59 4611.14 0.00000 3.96411e-14
  60 4611.14 0.00000 -1.50661e-12
  61 4611.14 0.00000 1.38205e-13
  62 4611.14 0.00000 1.08542e-13
  63 4611.14 0.00000 -4.77511e-13
  64 4611.14 0.00000 1.62571e-12
  65 4611.14 0.00000 2.76004e-13
  66 4611.14 0.00000 -6.85583e-14
  67 4611.14 0.00000 5.16876e-13
  68 4611.14 0.00000 -8.70258e-13
  69 4611.14 0.00000 -3.69845e-13
  70 4611.14 0.00000 -4.60463e-14
  71 4611.14 0.00000 -1.37390e-13
  72 4611.14 0.00000 1.63393e-13
  73 4611.14 0.00000 -3.59229e-13
  74 4611.14 0.00000 -4.75137e-14
  75 4611.14 0.00000 -3.04304e-13
  76 4611.14 0.00000 -3.44425e-13
  77 4611.14 0.00000 -7.85764e-14
  78 4611.14 0.00000 -6.61591e-14
  79 4611.14 0.00000 -7.92529e-13
  80 4611.14 0.00000 2.21834e-13
  81 4611.14 0.00000 1.44830e-14
  82 4611.14 0.00000 -3.16537e-13
  83 4611.14 0.00000 -4.61471e-13
  84 4611.14 0.00000 -2.45518e-14
  85 4611.14 0.00000 -1.76091e-13
  86 4611.14 0.00000 1.19602e-12
  87 4611.14 0.00000 -5.03037e-14
  88 4611.14 0.00000 -2.23709e-15
  89 4611.14 0.00000 -7.35694e-14
  90 4611.14 0.00000 -2.07882e-13
  91 4611.14 0.00000 -6.88030e-13
  92 4611.14 0.00000 -5.65469e-13
  93 4611.14 0.00000 -3.24379e-13
  94 4611.14 0.00000 -1.17570e-12
  95 4611.14 0.00000 -1.61263e-12
  96 4611.14 0.00000 5.61503e-13
  97 4611.14 0.00000 7.65084e-13
  98 4611.14 0.00000 -6.36357e-13
  99 4611.14 0.00000 1.03049e-12
  100 4611.14 0.00000 -2.76880e-13
  101 4611.14 0.00000 -2.15123e-13
  102 4611.14 0.00000 -1.16506e-12
  103 4611.14 0.00000 8.17035e-13
  104 4611.14 0.00000 9.66350e-14
  105 4611.14 0.00000 4.11480e-13
  106 4611.14 0.00000 -3.53349e-13
  107 4611.14 0.00000 -7.33421e-13
  108 4611.14 0.00000 3.72083e-14
  109 4611.14 0.00000 -2.35429e-13
  110 4611.14 0.00000 2.16547e-12
  111 4611.14 0.00000 5.50507e-13
  112 4611.14 0.00000 -7.32327e-13
  113 4611.14 0.00000 -1.69797e-13
  114 4611.14 0.00000 4.45894e-14
  115 4611.14 0.00000 7.29924e-14
  116 4611.14 0.00000 1.55149e-13
  117 4611.14 0.00000 -4.43069e-13
  118 4611.14 0.00000 3.48854e-13
  119 4611.14 0.00000 6.44414e-13
  120 4611.14 0.00000 -3.40240e-13
  121 4611.14 0.00000 -2.14518e-13
  122 4611.14 0.00000 -1.00149e-12
  123 4611.14 0.00000 -8.60658e-13
  124 4611.14 0.00000 6.81513e-13
  125 4611.14 0.00000 1.48691e-13
  126 4611.14 0.00000 1.77555e-14
  127 4611.14 0.00000 -1.10563e-13
  128 4611.14 0.00000 1.19419e-12
  129 4611.14 0.00000 -2.76033e-13
  130 4611.14 0.00000 4.88752e-13
  131 4611.14 0.00000 -4.22888e-13
  132 4611.14 0.00000 -1.48492e-13
  133 4611.14 0.00000 -4.41869e-13
  134 4611.14 0.00000 -2.53278e-14
  135 4611.14 0.00000 -1.73369e-13
  136 4611.14 0.00000 -2.09617e-13
  137 4611.14 0.00000 5.85748e-13
  138 4611.14 0.00000 -1.66073e-13
  139 4611.14 0.00000 -3.32009e-13
  140 4611.14 0.00000 -4.87455e-14
  141 4611.14 0.00000 -8.55505e-13
  142 4611.14 0.00000 -3.33156e-15
  143 4611.14 0.00000 7.56842e-14
  144 4611.14 0.00000 -8.47087e-13
  145 4611.14 0.00000 -1.28129e-12
  146 4611.14 0.00000 -8.08403e-13
  147 4611.14 0.00000 -2.86405e-13
  148 4611.14 0.00000 -6.91071e-14
  149 4611.14 0.00000 -4.97137e-13
  150 4611.14 0.00000 9.63282e-14
  151 4611.14 0.00000 -6.01984e-14
  152 4611.14 0.00000 -1.43958e-12
  153 4611.14 0.00000 -6.77091e-14
  154 4611.14 0.00000 6.91526e-13
  155 4611.14 0.00000 -9.48415e-13
  156 4611.14 0.00000 -1.64326e-13
  157 4611.14 0.00000 6.08883e-14
  158 4611.14 0.00000 -1.03582e-12
  159 4611.14 0.00000 3.29101e-13
  160 4611.14 0.00000 6.08820e-14
  161 4611.14 0.00000 -3.64456e-13
  162 4611.14 0.00000 -6.73806e-13
  163 4611.14 0.00000 -1.28268e-12
  164 4611.14 0.00000 1.91553e-13
  165 4611.14 0.00000 -4.50036e-13
  166 4611.14 0.00000 -8.32375e-14
  167 4611.14 0.00000 2.04462e-13
  168 4611.14 0.00000 8.62913e-14
  169 4611.14 0.00000 -4.39626e-14
  170 4611.14 0.00000 1.70404e-12
  171 4611.14 0.00000 2.23085e-13
  172 4611.14 0.00000 -2.54155e-13
  173 4611.14 0.00000 -4.34332e-13
  174 4611.14 0.00000 -3.32177e-13
  175 4611.14 0.00000 -2.78264e-14
  176 4611.14 0.00000 7.13259e-14
  177 4611.14 0.00000 1.76808e-12
  178 4611.14 0.00000 1.01120e-13
  179 4611.14 0.00000 -2.11360e-13
  180 4611.14 0.00000 -5.96181e-13
  181 4611.14 0.00000 3.89870e-14
  182 4611.14 0.00000 6.25075e-14
  183 4611.14 0.00000 -3.74387e-13
  184 4611.14 0.00000 -9.09776e-14
  185 4611.14 0.00000 5.23722e-14
  186 4611.14 0.00000 1.17670e-13
  187 4611.14 0.00000 1.28447e-12
  188 4611.14 0.00000 -4.03961e-13
  189 4611.14 0.00000 -6.76831e-13
  190 4611.14 0.00000 -1.40447e-13
  191 4611.14 0.00000 -1.56028e-14
  192 4611.14 0.00000 2.18780e-13
  193 4611.14 0.00000 3.58839e-14
  194 4611.14 0.00000 7.57381e-13
  195 4611.14 0.00000 1.07971e-13
  196 4611.14 0.00000 1.08713e-12
  197 4611.14 0.00000 -2.78665e-13
  198 4611.14 0.00000 -1.05163e-12
  199 4611.14 0.00000 -2.35201e-13
  200 4611.14 0.00000 7.27315e-13
  201 4611.14 0.00000 -7.08358e-13
  202 4611.14 0.00000 -1.19045e-12
  203 4611.14 0.00000 -3.70042e-13
  204 4611.14 0.00000 3.12016e-13
  205 4611.14 0.00000 -1.79465e-13
  206 4611.14 0.00000 1.73080e-12
  207 4611.14 0.00000 -1.87814e-13
  208 4611.14 0.00000 -1.07688e-12
  209 4611.14 0.00000 6.83821e-13
  210 4611.14 0.00000 -3.19356e-13
  211 4611.14 0.00000 8.69383e-14
  212 4611.14 0.00000 -1.07476e-12
  213 4611.14 0.00000 7.72921e-14
  214 4611.14 0.00000 -5.43317e-13
  215 4611.14 0.00000 -2.36977e-13
  216 4611.14 0.00000 -8.16763e-13
  217 4611.14 0.00000 -2.13449e-13
  218 4611.14 0.00000 -3.38596e-13
  219 4611.14 0.00000 6.42213e-14
  220 4611.14 0.00000 1.78352e-13
  221 4611.14 0.00000 -7.85273e-13
  222 4611.14 0.00000 -8.59949e-13
  223 4611.14 0.00000 -1.94233e-14
  224 4611.14 0.00000 4.81537e-13
  225 4611.14 0.00000 -6.70095e-13
  226 4611.14 0.00000 -1.34237e-15
  227 4611.14 0.00000 -5.87973e-13
  228 4611.14 0.00000 -5.92539e-13
  229 4611.14 0.00000 -2.59157e-13
  230 4611.14 0.00000 6.83225e-13
  231 4611.14 0.00000 -6.84815e-13
  232 4611.14 0.00000 2.18348e-13
  233 4611.14 0.00000 -6.21755e-14
  234 4611.14 0.00000 -8.97443e-13
  235 4611.14 0.00000 -3.51911e-13
  236 4611.14 0.00000 1.25147e-13
  237 4611.14 0.00000 4.48230e-13
  238 4611.14 0.00000 -5.33036e-13
  239 4611.14 0.00000 -8.69573e-14
  240 4611.14 0.00000 7.18289e-13
  241 4611.14 0.00000 -1.12133e-12
</Section>

newXOutput 100

<Section columns = "stress_xx | stress_yy | stress_xy">
  1 4659.72 0.00000 0.00000
  2 4659.72 0.00000 1.21934e-12
  3 4659.72 0.00000 -4.89345e-13
  4 4659.72 0.00000 4.75437e-14
  5 4659.72 0.00000 2.02202e-13
  6 4659.72 0.00000 7.84380e-13
  7 4659.72 0.00000 -7.00795e-14
  8 4659.72 0.00000 -2.81800e-13
  9 4659.72 0.00000 -2.09261e-13
  10 4659.72 0.00000 -1.08374e-12
  11 4659.72 0.00000 -9.52401e-13
  12 4659.72 0.00000 -1.21451e-12
  13 4659.72 0.00000 -8.42904e-14
  14 4659.72 0.00000 1.85873e-12
  15 4659.72 0.00000 8.30634e-13
  16 4659.72 0.00000 -2.95361e-13
  17 4659.72 0.00000 -2.31255e-12
  18 4659.72 0.00000 -1.74801e-13
  19 4659.72 0.00000 -1.46993e-12
  20 4659.72 0.00000 -2.64367e-12
  21 4659.72 0.00000 -2.64711e-12
  22 4659.72 0.00000 9.90296e-13
  23 4659.72 0.00000 2.31255e-12
  24 4659.72 0.00000 2.22172e-13
  25 4659.72 0.00000 1.52418e-13
  26 4659.72 0.00000 4.02205e-13
  27 4659.72 0.00000 -4.51214e-13
  28 4659.72 0.00000 1.78786e-12
  29 4659.72 0.00000 -3.33258e-13
  30 4659.72 0.00000 -2.10875e-13
  31 4659.72 0.00000 -1.25045e-12
  32 4659.72 0.00000 -8.00002e-13
  33 4659.72 0.00000 6.19901e-13
  34 4659.72 0.00000 -1.58349e-12
  35 4659.72 0.00000 -3.13679e-13
  36 4659.72 0.00000 1.53388e-12
  37 4659.72 0.00000 7.23921e-13
  38 4659.72 0.00000 9.96906e-14
  39 4659.72 0.00000 5.38704e-13
  40 4659.72 0.00000 1.39486e-12
  41 4659.72 0.00000 2.59000e-12
  42 4659.72 0.00000 3.14020e-13
  43 4659.72 0.00000 -7.24511e-13
  44 4659.72 0.00000 -1.97016e-13
  45 4659.72 0.00000 -1.21045e-13
  46 4659.72 0.00000 -6.01492e-13
  47 4659.72 0.00000 -1.65569e-15
  48 4659.72 0.00000 -1.29903e-13
  49 4659.72 0.00000 -1.29668e-14
  50 4659.72 0.00000 -3.22760e-15
  51 4659.72 0.00000 9.68280e-15
  52 4659.72 0.00000 -1.34458e-13
  53 4659.72 0.00000 -1.68672e-13
  54 4659.72 0.00000 2.21486e-13
  55 4659.72 0.00000 0.00000
  56 4659.72 0.00000 5.92139e-15
  57 4659.72 0.00000 2.02481e-14
  58 4659.72 0.00000 -2.53658e-13
  59 4659.72 0.00000 4.93725e-13
  60 4659.72 0.00000 -8.33097e-13
  61 4659.72 0.00000 1.15001e-12
  62 4659.72 0.00000 2.73485e-13
  63 4659.72 0.00000 -1.98533e-13
  64 4659.72 0.00000 1.55569e-12
  65 4659.72 0.00000 1.40465e-13
  66 4659.72 0.00000 -2.47644e-13
  67 4659.72 0.00000 5.70277e-13
  68 4659.72 0.00000 3.40688e-13
  69 4659.72 0.00000 1.04128e-13
  70 4659.72 0.00000 4.73359e-14
  71 4659.72 0.00000 -1.19076e-13
  72 4659.72 0.00000 -2.33430e-13
  73 4659.72 0.00000 -7.29616e-13
  74 4659.72 0.00000 2.89763e-14
  75 4659.72 0.00000 -3.53012e-13
  76 4659.72 0.00000 -4.11302e-13
  77 4659.72 0.00000 -1.94934e-13
  78 4659.72 0.00000 -8.59365e-14
  79 4659.72 0.00000 -3.77790e-13
  80 4659.72 0.00000 1.50908e-13
  81 4659.72 0.00000 4.13669e-13
  82 4659.72 0.00000 -6.93814e-13
  83 4659.72 0.00000 3.17188e-13
  84 4659.72 0.00000 5.06991e-13
  85 4659.72 0.00000 1.46822e-13
  86 4659.72 0.00000 -1.55807e-13
  87 4659.72 0.00000 -1.84525e-13
  88 4659.72 0.00000 7.46153e-14
  89 4659.72 0.00000 -3.45239e-13
  90 4659.72 0.00000 -3.69132e-13
  91 4659.72 0.00000 1.18792e-12
  92 4659.72 0.00000 4.20221e-13
  93 4659.72 0.00000 -2.20969e-12
  94 4659.72 0.00000 -8.19634e-13
  95 4659.72 0.00000 1.41902e-12
  96 4659.72 0.00000 8.90403e-13
  97 4659.72 0.00000 1.83332e-14
  98 4659.72 0.00000 9.91376e-14
  99 4659.72 0.00000 3.22924e-13
  100 4659.72 0.00000 -7.10567e-15
  101 4659.72 0.00000 -1.44570e-13
  102 4659.72 0.00000 1.41760e-13
  103 4659.72 0.00000 7.44974e-13
  104 4659.72 0.00000 -5.01565e-13
  105 4659.72 0.00000 -4.22375e-13
  106 4659.72 0.00000 -4.26098e-13
  107 4659.72 0.00000 -1.32517e-12
  108 4659.72 0.00000 -1.65093e-13
  109 4659.72 0.00000 3.08263e-13
  110 4659.72 0.00000 1.81339e-12
  111 4659.72 0.00000 5.79222e-13
  112 4659.72 0.00000 1.21897e-13
  113 4659.72 0.00000 8.71159e-14
  114 4659.72 0.00000 2.14670e-13
  115 4659.72 0.00000 -2.54577e-14
  116 4659.72 0.00000 3.70260e-13
  117 4659.72 0.00000 2.46029e-14
  118 4659.72 0.00000 -2.08656e-14
  119 4659.72 0.00000 -1.50248e-13
  120 4659.72 0.00000 5.73348e-13
  121 4659.72 0.00000 1.27728e-13
  122 4659.72 0.00000 2.53978e-13
  123 4659.72 0.00000 1.71939e-13
  124 4659.72 0.00000 -1.52933e-13
  125 4659.72 0.00000 5.27390e-13
  126 4659.72 0.00000 5.90793e-14
  127 4659.72 0.00000 5.82463e-13
  128 4659.72 0.00000 -2.91044e-13
  129 4659.72 0.00000 7.18145e-14
  130 4659.72 0.00000 5.34947e-13
  131 4659.72 0.00000 1.95836e-13
  132 4659.72 0.00000 4.38553e-13
  133 4659.72 0.00000 -6.10506e-13
  134 4659.72 0.00000 4.30871e-13
  135 4659.72 0.00000 6.06167e-13
  136 4659.72 0.00000 -1.60980e-13
  137 4659.72 0.00000 2.34892e-13
  138 4659.72 0.00000 1.84244e-14
  139 4659.72 0.00000 8.55631e-14
  140 4659.72 0.00000 -2.68951e-13
  141 4659.72 0.00000 3.23643e-13
  142 4659.72 0.00000 -6.11622e-13
  143 4659.72 0.00000 -8.71209e-14
  144 4659.72 0.00000 4.29458e-13
  145 4659.72 0.00000 7.27710e-13
  146 4659.72 0.00000 7.79188e-13
  147 4659.72 0.00000 -5.29176e-15
  148 4659.72 0.00000 1.14452e-13
  149 4659.72 0.00000 -1.69752e-13
  150 4659.72 0.00000 7.69612e-14
  151 4659.72 0.00000 1.94400e-13
  152 4659.72 0.00000 4.15550e-13
  153 4659.72 0.00000 9.19034e-13
  154 4659.72 0.00000 2.57666e-14
  155 4659.72 0.00000 3.06084e-14
  156 4659.72 0.00000 -3.77263e-13
  157 4659.72 0.00000 -9.03894e-14
  158 4659.72 0.00000 -7.77795e-13
  159 4659.72 0.00000 8.18502e-13
  160 4659.72 0.00000 -4.80799e-13
  161 4659.72 0.00000 -2.31012e-12
  162 4659.72 0.00000 5.42891e-14
  163 4659.72 0.00000 -4.31014e-14
  164 4659.72 0.00000 -1.05453e-12
  165 4659.72 0.00000 1.66707e-13
  166 4659.72 0.00000 3.99977e-14
  167 4659.72 0.00000 -6.52950e-13
  168 4659.72 0.00000 2.10131e-13
  169 4659.72 0.00000 -5.49423e-14
  170 4659.72 0.00000 7.65835e-13
  171 4659.72 0.00000 -5.92316e-13
  172 4659.72 0.00000 3.57356e-14
  173 4659.72 0.00000 5.22119e-13
  174 4659.72 0.00000 7.40400e-13
  175 4659.72 0.00000 -2.83286e-14
  176 4659.72 0.00000 -1.35200e-13
  177 4659.72 0.00000 -6.71875e-13
  178 4659.72 0.00000 -1.02988e-13
  179 4659.72 0.00000 2.44649e-13
  180 4659.72 0.00000 3.84725e-14
  181 4659.72 0.00000 3.86373e-13
  182 4659.72 0.00000 3.92438e-14
  183 4659.72 0.00000 1.18197e-12
  184 4659.72 0.00000 -7.40521e-13
  185 4659.72 0.00000 -3.21603e-14
  186 4659.72 0.00000 2.76749e-13
  187 4659.72 0.00000 4.78913e-13
  188 4659.72 0.00000 4.01639e-13
  189 4659.72 0.00000 7.55735e-13
  190 4659.72 0.00000 3.46383e-13
  191 4659.72 0.00000 2.05777e-13
  192 4659.72 0.00000 -8.54080e-13
  193 4659.72 0.00000 3.14643e-13
  194 4659.72 0.00000 -1.48974e-12
  195 4659.72 0.00000 3.30587e-13
  196 4659.72 0.00000 -5.60317e-13
  197 4659.72 0.00000 -9.92432e-14
  198 4659.72 0.00000 3.90101e-13
  199 4659.72 0.00000 4.37748e-13
  200 4659.72 0.00000 -2.66347e-12
  201 4659.72 0.00000 -3.42653e-13
  202 4659.72 0.00000 2.45485e-13
  203 4659.72 0.00000 -3.55224e-13
  204 4659.72 0.00000 -2.64206e-13
  205 4659.72 0.00000 2.53100e-13
  206 4659.72 0.00000 -1.90928e-13
  207 4659.72 0.00000 -2.63131e-13
  208 4659.72 0.00000 1.06877e-13
  209 4659.72 0.00000 -8.51856e-13
  210 4659.72 0.00000 1.75609e-13
  211 4659.72 0.00000 1.48795e-13
  212 4659.72 0.00000 2.27111e-12
  213 4659.72 0.00000 -2.43066e-13
  214 4659.72 0.00000 3.76835e-13
  215 4659.72 0.00000 2.87841e-13
  216 4659.72 0.00000 7.43248e-13
  217 4659.72 0.00000 -1.72634e-12
  218 4659.72 0.00000 2.13078e-13
  219 4659.72 0.00000 8.27729e-15
  220 4659.72 0.00000 2.52601e-13
  221 4659.72 0.00000 3.17484e-13
  222 4659.72 0.00000 -1.58313e-12
  223 4659.72 0.00000 -9.84556e-13
  224 4659.72 0.00000 -4.90359e-15
  225 4659.72 0.00000 3.07615e-13
  226 4659.72 0.00000 -4.62297e-13
  227 4659.72 0.00000 3.77816e-13
  228 4659.72 0.00000 -1.68956e-13
  229 4659.72 0.00000 2.90160e-13
  230 4659.72 0.00000 2.41335e-12
  231 4659.72 0.00000 1.64177e-13
  232 4659.72 0.00000 2.22947e-15
  233 4659.72 0.00000 1.08495e-12
  234 4659.72 0.00000 3.43416e-13
  235 4659.72 0.00000 1.00660e-12
  236 4659.72 0.00000 -1.60379e-13
  237 4659.72 0.00000 2.68079e-13
  238 4659.72 0.00000 4.68497e-13
  239 4659.72 0.00000 9.19729e-13
  240 4659.72 0.00000 -1.52363e-13
  241 4659.72 0.00000 -3.42939e-13
</Section>

newXOutput 101

<Section columns = "stress_xx | stress_yy | stress_xy">
  1 4708.38 0.00000 3.08465e-13
  2 4708.38 0.00000 -3.58897e-13
  3 4708.38 0.00000 6.66139e-13
  4 4708.38 0.00000 -1.03315e-13
  5 4708.38 0.00000 2.05643e-13
  6 4708.38 0.00000 3.81176e-13
  7 4708.38 0.00000 -1.80715e-13
  8 4708.38 0.00000 -3.54802e-13
  9 4708.38 0.00000 1.64191e-13
  10 4708.38 0.00000 2.97056e-14
  11 4708.38 0.00000 5.23088e-13
  12 4708.38 0.00000 7.06226e-13
  13 4708.38 0.00000 2.49357e-13
  14 4708.38 0.00000 2.68970e-13
  15 4708.38 0.00000 3.23335e-13
  16 4708.38 0.00000 1.07588e-12
  17 4708.38 0.00000 7.09604e-13
  18 4708.38 0.00000 1.12453e-12
  19 4708.38 0.00000 9.56249e-13
  20 4708.38 0.00000 3.49018e-13
  21 4708.38 0.00000 -8.96837e-13
  22 4708.38 0.00000 2.98676e-13
  23 4708.38 0.00000 1.00684e-13
  24 4708.38 0.00000 -2.58212e-13
  25 4708.38 0.00000 -2.07870e-13
  26 4708.38 0.00000 -1.30867e-12
  27 4708.38 0.00000 -1.37171e-12
  28 4708.38 0.00000 2.37250e-13
  29 4708.38 0.00000 -1.86700e-14
  30 4708.38 0.00000 -1.50146e-12
  31 4708.38 0.00000 2.26770e-12
  32 4708.38 0.00000 -1.64891e-13
  33 4708.38 0.00000 -6.81839e-13
  34 4708.38 0.00000 -7.11808e-13
  35 4708.38 0.00000 7.69096e-13
  36 4708.38 0.00000 4.30999e-13
  37 4708.38 0.00000 -5.41899e-13
  38 4708.38 0.00000 4.09486e-13
  39 4708.38 0.00000 7.52713e-13
  40 4708.38 0.00000 2.92974e-13
  41 4708.38 0.00000 -1.95660e-13
  42 4708.38 0.00000 2.65715e-13
  43 4708.38 0.00000 5.43701e-13
  44 4708.38 0.00000 9.92989e-14
  45 4708.38 0.00000 8.11731e-14
  46 4708.38 0.00000 5.76962e-14
  47 4708.38 0.00000 -7.33316e-14
  48 4708.38 0.00000 -1.87568e-13
  49 4708.38 0.00000 -1.86381e-13
  50 4708.38 0.00000 -9.33498e-15
  51 4708.38 0.00000 -9.33498e-15
  52 4708.38 0.00000 2.59535e-14
  53 4708.38 0.00000 -1.84827e-13
  54 4708.38 0.00000 7.50449e-14
  55 4708.38 0.00000 1.79448e-13
  56 4708.38 0.00000 1.95458e-13
  57 4708.38 0.00000 1.62727e-13
  58 4708.38 0.00000 4.76389e-13
  59 4708.38 0.00000 4.91590e-13
  60 4708.38 0.00000 4.33013e-13
  61 4708.38 0.00000 1.00019e-13
  62 4708.38 0.00000 3.38922e-13
  63 4708.38 0.00000 6.20501e-13
  64 4708.38 0.00000 -7.70178e-13
  65 4708.38 0.00000 -4.16156e-14
  66 4708.38 0.00000 -8.28501e-14
  67 4708.38 0.00000 1.05616e-12
  68 4708.38 0.00000 -4.43546e-13
  69 4708.38 0.00000 -1.04390e-12
  70 4708.38 0.00000 -3.55500e-13
  71 4708.38 0.00000 5.16193e-13
  72 4708.38 0.00000 -6.25908e-13
  73 4708.38 0.00000 -2.55021e-13
  74 4708.38 0.00000 -8.98114e-15
  75 4708.38 0.00000 -8.69463e-13
  76 4708.38 0.00000 1.24733e-12
  77 4708.38 0.00000 -4.33920e-13
  78 4708.38 0.00000 -1.88584e-13
  79 4708.38 0.00000 3.54247e-13
  80 4708.38 0.00000 2.43267e-14
  81 4708.38 0.00000 -6.96885e-13
  82 4708.38 0.00000 1.18974e-12
  83 4708.38 0.00000 -2.17072e-13
  84 4708.38 0.00000 -3.95352e-14
  85 4708.38 0.00000 8.46935e-13
  86 4708.38 0.00000 -7.49142e-13
  87 4708.38 0.00000 -7.36897e-14
  88 4708.38 0.00000 -3.46629e-12
  89 4708.38 0.00000 -1.23494e-13
  90 4708.38 0.00000 -8.79689e-14
  91 4708.38 0.00000 -3.43950e-13
  92 4708.38 0.00000 2.74226e-13
  93 4708.38 0.00000 2.66088e-13
  94 4708.38 0.00000 4.91535e-13
  95 4708.38 0.00000 -2.48859e-13
  96 4708.38 0.00000 -1.20160e-12
  97 4708.38 0.00000 2.49251e-12
  98 4708.38 0.00000 -3.19202e-13
  99 4708.38 0.00000 2.86935e-13
  100 4708.38 0.00000 -2.92295e-13
  101 4708.38 0.00000 1.83983e-13
  102 4708.38 0.00000 4.80461e-13
  103 4708.38 0.00000 1.23918e-12
  104 4708.38 0.00000 1.08311e-13
  105 4708.38 0.00000 -1.20578e-12
  106 4708.38 0.00000 -8.68150e-14
  107 4708.38 0.00000 6.07564e-13
  108 4708.38 0.00000 -1.42399e-13
  109 4708.38 0.00000 2.81936e-13
  110 4708.38 0.00000 8.74710e-13
  111 4708.38 0.00000 -1.26359e-12
  112 4708.38 0.00000 1.19145e-12
  113 4708.38 0.00000 7.56919e-13
  114 4708.38 0.00000 -5.99547e-14
  115 4708.38 0.00000 1.59589e-13
  116 4708.38 0.00000 -3.49041e-14
  117 4708.38 0.00000 -1.65950e-12
  118 4708.38 0.00000 -2.61140e-13
  119 4708.38 0.00000 6.60990e-14
  120 4708.38 0.00000 4.99509e-13
  121 4708.38 0.00000 4.29453e-13
  122 4708.38 0.00000 -1.46337e-13
  123 4708.38 0.00000 1.97777e-13
  124 4708.38 0.00000 3.91751e-13
  125 4708.38 0.00000 2.84646e-13
  126 4708.38 0.00000 3.18551e-14
  127 4708.38 0.00000 -1.76476e-13
  128 4708.38 0.00000 1.39725e-12
  129 4708.38 0.00000 -1.07891e-13
  130 4708.38 0.00000 3.00411e-13
  131 4708.38 0.00000 -2.99057e-15
  132 4708.38 0.00000 -1.21806e-12
  133 4708.38 0.00000 8.22120e-13
  134 4708.38 0.00000 2.48919e-13
  135 4708.38 0.00000 -3.46533e-14
  136 4708.38 0.00000 -1.12359e-13
  137 4708.38 0.00000 1.42323e-13
  138 4708.38 0.00000 1.28059e-12
  139 4708.38 0.00000 -3.22129e-14
  140 4708.38 0.00000 6.81683e-13
  141 4708.38 0.00000 -4.72074e-13
  142 4708.38 0.00000 1.06422e-13
  143 4708.38 0.00000 -1.39458e-13
  144 4708.38 0.00000 5.81253e-13
  145 4708.38 0.00000 -1.62602e-12
  146 4708.38 0.00000 -1.13222e-13
  147 4708.38 0.00000 -1.14720e-13
  148 4708.38 0.00000 -2.01106e-13
  149 4708.38 0.00000 -1.09702e-12
  150 4708.38 0.00000 -3.62854e-13
  151 4708.38 0.00000 -4.53450e-15
  152 4708.38 0.00000 -6.14125e-13
  153 4708.38 0.00000 5.52152e-14
  154 4708.38 0.00000 1.95308e-14
  155 4708.38 0.00000 7.10101e-14
  156 4708.38 0.00000 6.98044e-13
  157 4708.38 0.00000 -1.60386e-13
  158 4708.38 0.00000 -5.88369e-13
  159 4708.38 0.00000 -1.31070e-12
  160 4708.38 0.00000 -2.96239e-13
  161 4708.38 0.00000 -1.05347e-12
  162 4708.38 0.00000 1.71750e-13
  163 4708.38 0.00000 -3.04766e-13
  164 4708.38 0.00000 3.13399e-13
  165 4708.38 0.00000 1.91901e-13
  166 4708.38 0.00000 7.28521e-15
  167 4708.38 0.00000 -7.51696e-13
  168 4708.38 0.00000 -6.63056e-13
  169 4708.38 0.00000 8.28898e-15
  170 4708.38 0.00000 1.22173e-12
  171 4708.38 0.00000 6.19746e-13
  172 4708.38 0.00000 4.16885e-13
  173 4708.38 0.00000 -3.71666e-14
  174 4708.38 0.00000 4.82948e-14
  175 4708.38 0.00000 -2.23758e-14
  176 4708.38 0.00000 -5.18233e-15
  177 4708.38 0.00000 -7.63658e-13
  178 4708.38 0.00000 5.05881e-14
  179 4708.38 0.00000 -4.26883e-13
  180 4708.38 0.00000 8.30885e-15
  181 4708.38 0.00000 -3.11001e-13
  182 4708.38 0.00000 3.48879e-13
  183 4708.38 0.00000 3.61430e-13
  184 4708.38 0.00000 1.34256e-12
  185 4708.38 0.00000 -6.80421e-14
  186 4708.38 0.00000 -2.55684e-13
  187 4708.38 0.00000 -2.01196e-13
  188 4708.38 0.00000 3.32026e-13
  189 4708.38 0.00000 -1.21037e-13
  190 4708.38 0.00000 -3.60739e-13
  191 4708.38 0.00000 3.94919e-14
  192 4708.38 0.00000 8.79033e-13
  193 4708.38 0.00000 2.48374e-13
  194 4708.38 0.00000 1.02911e-13
  195 4708.38 0.00000 3.26110e-14
  196 4708.38 0.00000 -1.12152e-12
  197 4708.38 0.00000 1.85941e-13
  198 4708.38 0.00000 1.43975e-12
  199 4708.38 0.00000 1.33953e-13
  200 4708.38 0.00000 1.15264e-12
  201 4708.38 0.00000 -4.69828e-13
  202 4708.38 0.00000 5.20112e-13
  203 4708.38 0.00000 1.83139e-13
  204 4708.38 0.00000 -1.29173e-13
  205 4708.38 0.00000 2.23787e-13
  206 4708.38 0.00000 2.80177e-13
  207 4708.38 0.00000 -2.02927e-13
  208 4708.38 0.00000 -2.88804e-13
  209 4708.38 0.00000 8.65703e-13
  210 4708.38 0.00000 -1.62013e-13
  211 4708.38 0.00000 7.83342e-14
  212 4708.38 0.00000 2.48528e-13
  213 4708.38 0.00000 -8.89054e-14
  214 4708.38 0.00000 -6.24246e-13
  215 4708.38 0.00000 1.02139e-12
  216 4708.38 0.00000 3.76561e-13
  217 4708.38 0.00000 1.00464e-14
  218 4708.38 0.00000 -1.37148e-13
  219 4708.38 0.00000 8.91169e-15
  220 4708.38 0.00000 8.22747e-14
  221 4708.38 0.00000 1.83272e-13
  222 4708.38 0.00000 3.06906e-13
  223 4708.38 0.00000 2.41966e-13
  224 4708.38 0.00000 5.04857e-14
  225 4708.38 0.00000 6.70740e-13
  226 4708.38 0.00000 -1.79955e-13
  227 4708.38 0.00000 4.04878e-13
  228 4708.38 0.00000 9.59645e-13
  229 4708.38 0.00000 1.05044e-13
  230 4708.38 0.00000 7.26458e-13
  231 4708.38 0.00000 -1.04442e-13
  232 4708.38 0.00000 -1.65889e-13
  233 4708.38 0.00000 -6.19057e-13
  234 4708.38 0.00000 -6.09198e-13
  235 4708.38 0.00000 -6.08419e-13
  236 4708.38 0.00000 3.60997e-14
  237 4708.38 0.00000 4.90219e-13
  238 4708.38 0.00000 1.64429e-13
  239 4708.38 0.00000 -1.23768e-13
  240 4708.38 0.00000 8.65295e-13
  241 4708.38 0.00000 1.03501e-12
</Section>

newXOutput 102

<Section columns = "stress_xx | stress_yy | stress_xy">
  1 4757.12 0.00000 -1.80132e-13
  2 4757.12 0.00000 3.27686e-13
  3 4757.12 0.00000 -1.48510e-13
  4 4757.12 0.00000 -2.93835e-14
  5 4757.12 0.00000 1.67195e-13
  6 4757.12 0.00000 5.82614e-13
  7 4757.12 0.00000 7.61697e-13
  8 4757.12 0.00000 1.28388e-12
  9 4757.12 0.00000 1.92442e-12
  10 4757.12 0.00000 1.51849e-12
  11 4757.12 0.00000 6.44762e-13
  12 4757.12 0.00000 -1.53466e-12
  13 4757.12 0.00000 -1.82052e-12
  14 4757.12 0.00000 -5.39414e-13
  15 4757.12 0.00000 5.23058e-13
  16 4757.12 0.00000 3.75056e-13
  17 4757.12 0.00000 -1.36189e-12
  18 4757.12 0.00000 -4.01763e-13
  19 4757.12 0.00000 2.90301e-28
  20 4757.12 0.00000 1.09777e-12
  21 4757.12 0.00000 6.96012e-13
  22 4757.12 0.00000 3.17192e-12
  23 4757.12 0.00000 3.02092e-12
  24 4757.12 0.00000 6.55372e-13
  25 4757.12 0.00000 7.12216e-13
  26 4757.12 0.00000 2.93256e-13
  27 4757.12 0.00000 -3.09296e-14
  28 4757.12 0.00000 9.09380e-13
  29 4757.12 0.00000 1.12224e-13
  30 4757.12 0.00000 1.37650e-13
  31 4757.12 0.00000 1.38003e-12
  32 4757.12 0.00000 -8.63372e-14
  33 4757.12 0.00000 1.58739e-12
  34 4757.12 0.00000 9.75168e-13
  35 4757.12 0.00000 -7.58506e-13
  36 4757.12 0.00000 1.05032e-13
  37 4757.12 0.00000 -1.21086e-14
  38 4757.12 0.00000 -3.87187e-13
  39 4757.12 0.00000 5.96090e-13
  40 4757.12 0.00000 3.05580e-12
  41 4757.12 0.00000 1.12124e-12
  42 4757.12 0.00000 -3.26969e-13
  43 4757.12 0.00000 -1.18426e-12
  44 4757.12 0.00000 -1.00279e-12
  45 4757.12 0.00000 -4.14401e-13
  46 4757.12 0.00000 8.81270e-14
  47 4757.12 0.00000 -2.23054e-13
  48 4757.12 0.00000 -4.80098e-13
  49 4757.12 0.00000 -2.92055e-13
  50 4757.12 0.00000 3.67088e-14
  51 4757.12 0.00000 1.79727e-14
  52 4757.12 0.00000 -8.22772e-14
  53 4757.12 0.00000 -1.23295e-13
  54 4757.12 0.00000 2.68259e-13
  55 4757.12 0.00000 1.49632e-13
  56 4757.12 0.00000 -1.83021e-13
  57 4757.12 0.00000 -1.99518e-13
  58 4757.12 0.00000 -1.71009e-12
  59 4757.12 0.00000 2.49878e-13
  60 4757.12 0.00000 -5.36730e-13
  61 4757.12 0.00000 2.93247e-13
  62 4757.12 0.00000 1.04242e-13
  63 4757.12 0.00000 -1.01056e-12
  64 4757.12 0.00000 -8.63745e-14
  65 4757.12 0.00000 -2.77939e-13
  66 4757.12 0.00000 3.13240e-13
  67 4757.12 0.00000 -2.05077e-13
  68 4757.12 0.00000 -2.23785e-13
  69 4757.12 0.00000 6.06235e-13
  70 4757.12 0.00000 -8.15009e-14
  71 4757.12 0.00000 -3.33502e-13
  72 4757.12 0.00000 -9.58420e-13
  73 4757.12 0.00000 9.04702e-13
  74 4757.12 0.00000 3.17859e-13
  75 4757.12 0.00000 9.59457e-13
  76 4757.12 0.00000 9.30792e-13
  77 4757.12 0.00000 -1.49407e-13
  78 4757.12 0.00000 3.86226e-13
  79 4757.12 0.00000 1.86553e-13
  80 4757.12 0.00000 4.51930e-13
  81 4757.12 0.00000 9.19035e-13
  82 4757.12 0.00000 7.70932e-13
  83 4757.12 0.00000 -1.54494e-13
  84 4757.12 0.00000 1.09928e-13
  85 4757.12 0.00000 5.26479e-14
  86 4757.12 0.00000 -8.86008e-13
  87 4757.12 0.00000 1.06299e-13
  88 4757.12 0.00000 -1.57843e-12
  89 4757.12 0.00000 -4.05399e-13
  90 4757.12 0.00000 -5.74025e-13
  91 4757.12 0.00000 4.19635e-13
  92 4757.12 0.00000 -6.85852e-14
  93 4757.12 0.00000 -1.32705e-12
  94 4757.12 0.00000 -8.50459e-13
  95 4757.12 0.00000 3.46505e-13
  96 4757.12 0.00000 -3.13043e-13
  97 4757.12 0.00000 -6.66677e-13
  98 4757.12 0.00000 -2.07418e-13
  99 4757.12 0.00000 -8.99276e-13
  100 4757.12 0.00000 -1.02794e-13
  101 4757.12 0.00000 -1.87251e-12
  102 4757.12 0.00000 -2.97197e-13
  103 4757.12 0.00000 -4.32580e-13
  104 4757.12 0.00000 -1.42591e-14
  105 4757.12 0.00000 3.36442e-13
  106 4757.12 0.00000 4.06058e-13
  107 4757.12 0.00000 1.73545e-12
  108 4757.12 0.00000 -1.97674e-13
  109 4757.12 0.00000 4.16887e-13
  110 4757.12 0.00000 3.56433e-13
  111 4757.12 0.00000 2.68665e-13
  112 4757.12 0.00000 -8.38229e-13
  113 4757.12 0.00000 -1.24332e-13
  114 4757.12 0.00000 2.58464e-13
  115 4757.12 0.00000 6.33831e-13
  116 4757.12 0.00000 5.49521e-13
  117 4757.12 0.00000 1.02826e-12
  118 4757.12 0.00000 -3.22436e-14
  119 4757.12 0.00000 -6.79163e-13
  120 4757.12 0.00000 9.59476e-14
  121 4757.12 0.00000 -1.27076e-13
  122 4757.12 0.00000 1.15069e-13
  123 4757.12 0.00000 4.63013e-13
  124 4757.12 0.00000 1.62204e-13
  125 4757.12 0.00000 2.47795e-13
  126 4757.12 0.00000 2.55480e-13
  127 4757.12 0.00000 -3.84019e-13
  128 4757.12 0.00000 -9.16317e-13
  129 4757.12 0.00000 -1.64649e-14
  130 4757.12 0.00000 -3.24558e-13
  131 4757.12 0.00000 -5.20828e-13
  132 4757.12 0.00000 7.53609e-13
  133 4757.12 0.00000 -8.80758e-13
  134 4757.12 0.00000 3.48050e-13
  135 4757.12 0.00000 -3.63007e-13
  136 4757.12 0.00000 -2.61036e-13
  137 4757.12 0.00000 3.58772e-13
  138 4757.12 0.00000 -1.12026e-13
  139 4757.12 0.00000 1.74565e-13
  140 4757.12 0.00000 -1.18522e-12
  141 4757.12 0.00000 -7.55021e-14
  142 4757.12 0.00000 -7.85241e-14
  143 4757.12 0.00000 1.01851e-14
  144 4757.12 0.00000 9.71725e-13
  145 4757.12 0.00000 1.22019e-12
  146 4757.12 0.00000 -6.72685e-13
  147 4757.12 0.00000 1.21915e-12
  148 4757.12 0.00000 1.33356e-13
  149 4757.12 0.00000 1.47310e-12
  150 4757.12 0.00000 2.15803e-13
  151 4757.12 0.00000 -6.58298e-14
  152 4757.12 0.00000 -3.47492e-13
  153 4757.12 0.00000 9.64981e-14
  154 4757.12 0.00000 7.42078e-13
  155 4757.12 0.00000 8.56377e-13
  156 4757.12 0.00000 6.64793e-13
  157 4757.12 0.00000 -3.85570e-13
  158 4757.12 0.00000 7.25705e-13
  159 4757.12 0.00000 1.64123e-13
  160 4757.12 0.00000 -2.10300e-13
  161 4757.12 0.00000 1.26467e-12
  162 4757.12 0.00000 2.44768e-13
  163 4757.12 0.00000 -1.76485e-14
  164 4757.12 0.00000 -2.44294e-13
  165 4757.12 0.00000 -4.96177e-13
  166 4757.12 0.00000 2.65111e-14
  167 4757.12 0.00000 1.68208e-13
  168 4757.12 0.00000 -5.60248e-13
  169 4757.12 0.00000 -1.56421e-13
  170 4757.12 0.00000 -9.41970e-14
  171 4757.12 0.00000 -1.14144e-12
  172 4757.12 0.00000 -6.56005e-13
  173 4757.12 0.00000 -2.00266e-13
  174 4757.12 0.00000 1.60518e-13
  175 4757.12 0.00000 2.90214e-14
  176 4757.12 0.00000 -3.70691e-13
  177 4757.12 0.00000 -4.60896e-13
  178 4757.12 0.00000 2.19249e-13
  179 4757.12 0.00000 8.52933e-13
  180 4757.12 0.00000 5.34401e-14
  181 4757.12 0.00000 -9.00872e-13
  182 4757.12 0.00000 -2.41994e-13
  183 4757.12 0.00000 4.42429e-13
  184 4757.12 0.00000 -3.33339e-13
  185 4757.12 0.00000 7.95564e-14
  186 4757.12 0.00000 -9.40179e-13
  187 4757.12 0.00000 -2.97144e-13
  188 4757.12 0.00000 2.61689e-13
  189 4757.12 0.00000 1.31074e-13
  190 4757.12 0.00000 2.50435e-13
  191 4757.12 0.00000 1.13504e-13
  192 4757.12 0.00000 -1.47042e-13
  193 4757.12 0.00000 -2.05711e-13
  194 4757.12 0.00000 -3.37001e-14
  195 4757.12 0.00000 -5.13551e-17
  196 4757.12 0.00000 -1.02853e-12
  197 4757.12 0.00000 1.17997e-13
  198 4757.12 0.00000 -1.00401e-12
  199 4757.12 0.00000 -4.20612e-13
  200 4757.12 0.00000 -2.35406e-12
  201 4757.12 0.00000 3.31267e-13
  202 4757.12 0.00000 5.28922e-13
  203 4757.12 0.00000 -1.16523e-12
  204 4757.12 0.00000 -8.79505e-13
  205 4757.12 0.00000 -2.17180e-13
  206 4757.12 0.00000 8.73153e-13
  207 4757.12 0.00000 -8.13653e-14
  208 4757.12 0.00000 3.33842e-14
  209 4757.12 0.00000 -1.20629e-12
  210 4757.12 0.00000 7.02716e-14
  211 4757.12 0.00000 7.85824e-14
  212 4757.12 0.00000 1.55593e-12
  213 4757.12 0.00000 -1.75720e-13
  214 4757.12 0.00000 -3.20370e-13
  215 4757.12 0.00000 -3.54230e-13
  216 4757.12 0.00000 5.13754e-14
  217 4757.12 0.00000 -1.27464e-13
  218 4757.12 0.00000 3.85249e-14
  219 4757.12 0.00000 -1.96184e-13
  220 4757.12 0.00000 4.18302e-13
  221 4757.12 0.00000 3.27362e-13
  222 4757.12 0.00000 -1.77295e-12
  223 4757.12 0.00000 4.38284e-14
  224 4757.12 0.00000 -3.26420e-13
  225 4757.12 0.00000 -9.15585e-13
  226 4757.12 0.00000 2.16989e-13
  227 4757.12 0.00000 -1.86915e-13
  228 4757.12 0.00000 7.06294e-13
  229 4757.12 0.00000 3.63676e-13
  230 4757.12 0.00000 -4.32005e-14
  231 4757.12 0.00000 -8.56750e-13
  232 4757.12 0.00000 -9.02359e-13
  233 4757.12 0.00000 -4.58317e-13
  234 4757.12 0.00000 7.09604e-13
  235 4757.12 0.00000 1.78607e-12
  236 4757.12 0.00000 -3.03757e-14
  237 4757.12 0.00000 -2.81933e-13
  238 4757.12 0.00000 7.35278e-13
  239 4757.12 0.00000 -2.54955e-13
  240 4757.12 0.00000 -1.47917e-12
  241 4757.12 0.00000 -9.46483e-14
</Section>

newXOutput 103

<Section columns = "stress_xx | stress_yy | stress_xy">
  1 4805.92 0.00000 3.06496e-13
  2 4805.92 0.00000 1.62270e-12
  3 4805.92 0.00000 -1.02628e-13
  4 4805.92 0.00000 -9.46617e-14
  5 4805.92 0.00000 5.64881e-14
  6 4805.92 0.00000 -8.09109e-13
  7 4805.92 0.00000 -3.04256e-13
  8 4805.92 0.00000 -2.57477e-13
  9 4805.92 0.00000 4.93753e-14
  10 4805.92 0.00000 -3.88221e-13
  11 4805.92 0.00000 -1.07881e-12
  12 4805.92 0.00000 -1.21404e-12
  13 4805.92 0.00000 -7.07690e-13
  14 4805.92 0.00000 -2.68854e-12
  15 4805.92 0.00000 -1.34353e-12
  16 4805.92 0.00000 5.40900e-13
  17 4805.92 0.00000 -9.98937e-13
  18 4805.92 0.00000 -1.45552e-12
  19 4805.92 0.00000 -2.28137e-12
  20 4805.92 0.00000 -1.19957e-12
  21 4805.92 0.00000 -4.23129e-13
  22 4805.92 0.00000 -1.64165e-12
  23 4805.92 0.00000 -3.91208e-13
  24 4805.92 0.00000 -9.64029e-13
  25 4805.92 0.00000 0.00000
  26 4805.92 0.00000 8.13509e-13
  27 4805.92 0.00000 -7.41172e-14
  28 4805.92 0.00000 -3.24890e-13
  29 4805.92 0.00000 -1.93930e-13
  30 4805.92 0.00000 9.82976e-13
  31 4805.92 0.00000 2.70049e-13
  32 4805.92 0.00000 2.93268e-12
  33 4805.92 0.00000 5.43014e-13
  34 4805.92 0.00000 -4.27682e-15
  35 4805.92 0.00000 -1.62666e-13
  36 4805.92 0.00000 -5.33425e-13
  37 4805.92 0.00000 -1.40427e-12
  38 4805.92 0.00000 2.09726e-13
  39 4805.92 0.00000 -3.18757e-13
  40 4805.92 0.00000 6.30103e-14
  41 4805.92 0.00000 -8.99500e-13
  42 4805.92 0.00000 -9.31083e-13
  43 4805.92 0.00000 -3.18711e-14
  44 4805.92 0.00000 4.00421e-14
  45 4805.92 0.00000 -7.97271e-14
  46 4805.92 0.00000 1.78094e-13
  47 4805.92 0.00000 -1.30759e-13
  48 4805.92 0.00000 -2.62849e-13
  49 4805.92 0.00000 -3.13141e-13
  50 4805.92 0.00000 -2.87896e-15
  51 4805.92 0.00000 0.00000
  52 4805.92 0.00000 9.93204e-14
  53 4805.92 0.00000 1.49362e-15
  54 4805.92 0.00000 1.79082e-13
  55 4805.92 0.00000 -2.05078e-13
  56 4805.92 0.00000 -4.04289e-13
  57 4805.92 0.00000 -1.77022e-13
  58 4805.92 0.00000 -1.46102e-13
  59 4805.92 0.00000 7.60556e-13
  60 4805.92 0.00000 -1.57115e-13
  61 4805.92 0.00000 2.84935e-13
  62 4805.92 0.00000 -6.07389e-14
  63 4805.92 0.00000 -7.93071e-13
  64 4805.92 0.00000 1.18322e-12
  65 4805.92 0.00000 -9.85075e-14
  66 4805.92 0.00000 2.35750e-13
  67 4805.92 0.00000 3.88877e-13
  68 4805.92 0.00000 -3.55188e-13
  69 4805.92 0.00000 1.18630e-13
  70 4805.92 0.00000 -2.43321e-13
  71 4805.92 0.00000 -2.05478e-13
  72 4805.92 0.00000 -8.66602e-14
  73 4805.92 0.00000 3.71458e-13
  74 4805.92 0.00000 5.66522e-14
  75 4805.92 0.00000 2.52020e-13
  76 4805.92 0.00000 -7.91691e-13
  77 4805.92 0.00000 -2.45842e-13
  78 4805.92 0.00000 1.00892e-12
  79 4805.92 0.00000 6.67361e-14
  80 4805.92 0.00000 2.73275e-13
  81 4805.92 0.00000 6.63772e-13
  82 4805.92 0.00000 6.15223e-14
  83 4805.92 0.00000 -2.60036e-14
  84 4805.92 0.00000 3.52460e-13
  85 4805.92 0.00000 -8.85586e-13
  86 4805.92 0.00000 1.48889e-12
  87 4805.92 0.00000 -1.25241e-13
  88 4805.92 0.00000 1.75185e-12
  89 4805.92 0.00000 -2.98796e-13
  90 4805.92 0.00000 1.66240e-13
  91 4805.92 0.00000 4.46750e-13
  92 4805.92 0.00000 -2.58513e-13
  93 4805.92 0.00000 -2.00900e-12
  94 4805.92 0.00000 8.06966e-13
  95 4805.92 0.00000 3.45949e-13
  96 4805.92 0.00000 -3.67177e-13
  97 4805.92 0.00000 -9.73619e-13
  98 4805.92 0.00000 2.74674e-13
  99 4805.92 0.00000 8.41157e-13
  100 4805.92 0.00000 3.79035e-13
  101 4805.92 0.00000 2.46774e-13
  102 4805.92 0.00000 -5.73192e-13
  103 4805.92 0.00000 6.04531e-13
  104 4805.92 0.00000 -2.29958e-13
  105 4805.92 0.00000 2.62381e-13
  106 4805.92 0.00000 1.22098e-13
  107 4805.92 0.00000 3.44585e-13
  108 4805.92 0.00000 4.86639e-15
  109 4805.92 0.00000 4.89433e-13
  110 4805.92 0.00000 -1.32536e-13
  111 4805.92 0.00000 1.42384e-13
  112 4805.92 0.00000 1.55239e-13
  113 4805.92 0.00000 1.42688e-13
  114 4805.92 0.00000 -2.12149e-13
  115 4805.92 0.00000 1.02696e-13
  116 4805.92 0.00000 4.48931e-13
  117 4805.92 0.00000 6.25930e-13
  118 4805.92 0.00000 7.37259e-14
  119 4805.92 0.00000 -1.04540e-12
  120 4805.92 0.00000 3.96907e-13
  121 4805.92 0.00000 -9.92104e-14
  122 4805.92 0.00000 3.81099e-13
  123 4805.92 0.00000 -6.74775e-13
  124 4805.92 0.00000 9.71213e-14
  125 4805.92 0.00000 -2.20322e-15
  126 4805.92 0.00000 1.14281e-13
  127 4805.92 0.00000 4.83579e-13
  128 4805.92 0.00000 -2.64957e-13
  129 4805.92 0.00000 -2.19424e-14
  130 4805.92 0.00000 -2.84474e-13
  131 4805.92 0.00000 6.81735e-13
  132 4805.92 0.00000 -4.12777e-13
  133 4805.92 0.00000 -3.06009e-13
  134 4805.92 0.00000 2.51687e-13
  135 4805.92 0.00000 7.72924e-13
  136 4805.92 0.00000 8.88030e-14
  137 4805.92 0.00000 8.48327e-13
  138 4805.92 0.00000 7.81885e-14
  139 4805.92 0.00000 -1.68419e-15
  140 4805.92 0.00000 -1.35328e-12
  141 4805.92 0.00000 -2.10553e-13
  142 4805.92 0.00000 -3.65755e-13
  143 4805.92 0.00000 -1.02356e-13
  144 4805.92 0.00000 3.61728e-13
  145 4805.92 0.00000 7.86753e-13
  146 4805.92 0.00000 9.73484e-14
  147 4805.92 0.00000 2.76953e-13
  148 4805.92 0.00000 -2.49375e-14
  149 4805.92 0.00000 -5.04426e-13
  150 4805.92 0.00000 -1.69067e-13
  151 4805.92 0.00000 2.57368e-13
  152 4805.92 0.00000 -1.33039e-13
  153 4805.92 0.00000 3.30055e-13
  154 4805.92 0.00000 2.21574e-13
  155 4805.92 0.00000 1.38769e-13
  156 4805.92 0.00000 3.66750e-13
  157 4805.92 0.00000 -2.27751e-13
  158 4805.92 0.00000 -2.89344e-13
  159 4805.92 0.00000 -3.71127e-14
  160 4805.92 0.00000 -2.13427e-13
  161 4805.92 0.00000 -8.80661e-14
  162 4805.92 0.00000 1.35215e-13
  163 4805.92 0.00000 -5.96682e-14
  164 4805.92 0.00000 -1.41448e-13
  165 4805.92 0.00000 1.24348e-13
  166 4805.92 0.00000 -1.38599e-14
  167 4805.92 0.00000 -4.24977e-13
  168 4805.92 0.00000 1.65660e-12
  169 4805.92 0.00000 -1.36962e-13
  170 4805.92 0.00000 1.34007e-12
  171 4805.92 0.00000 -7.24892e-13
  172 4805.92 0.00000 9.01860e-14
  173 4805.92 0.00000 1.30988e-14
  174 4805.92 0.00000 5.99875e-14
  175 4805.92 0.00000 -1.86468e-13
  176 4805.92 0.00000 3.67991e-15
  177 4805.92 0.00000 1.86417e-12
  178 4805.92 0.00000 1.73235e-13
  179 4805.92 0.00000 1.70737e-13
  180 4805.92 0.00000 -4.78543e-15
  181 4805.92 0.00000 2.91584e-13
  182 4805.92 0.00000 7.62144e-14
  183 4805.92 0.00000 7.56085e-13
  184 4805.92 0.00000 6.49976e-13
  185 4805.92 0.00000 3.17858e-13
  186 4805.92 0.00000 -1.11763e-12
  187 4805.92 0.00000 6.15466e-13
  188 4805.92 0.00000 2.78531e-13
  189 4805.92 0.00000 -4.16595e-13
  190 4805.92 0.00000 1.38171e-13
  191 4805.92 0.00000 1.22267e-13
  192 4805.92 0.00000 6.05084e-13
  193 4805.92 0.00000 1.26392e-14
  194 4805.92 0.00000 6.91073e-13
  195 4805.92 0.00000 7.92237e-14
  196 4805.92 0.00000 3.31900e-14
  197 4805.92 0.00000 8.20100e-14
  198 4805.92 0.00000 1.43205e-13
  199 4805.92 0.00000 -2.67110e-13
  200 4805.92 0.00000 -2.30597e-12
  201 4805.92 0.00000 1.89684e-13
  202 4805.92 0.00000 -3.33350e-13
  203 4805.92 0.00000 -5.46211e-14
  204 4805.92 0.00000 -5.39280e-13
  205 4805.92 0.00000 -8.09002e-14
  206 4805.92 0.00000 -1.07839e-12
  207 4805.92 0.00000 4.33684e-13
  208 4805.92 0.00000 3.60644e-13
  209 4805.92 0.00000 5.71085e-14
  210 4805.92 0.00000 4.79772e-14
  211 4805.92 0.00000 -1.21315e-13
  212 4805.92 0.00000 1.29973e-12
  213 4805.92 0.00000 -4.40568e-13
  214 4805.92 0.00000 -4.66068e-13
  215 4805.92 0.00000 -2.22611e-13
  216 4805.92 0.00000 5.78316e-13
  217 4805.92 0.00000 -5.59523e-14
  218 4805.92 0.00000 -2.10999e-13
  219 4805.92 0.00000 -2.12582e-12
  220 4805.92 0.00000 1.05026e-13
  221 4805.92 0.00000 4.98020e-13
  222 4805.92 0.00000 -2.45762e-13
  223 4805.92 0.00000 -8.40313e-13
  224 4805.92 0.00000 2.28451e-13
  225 4805.92 0.00000 1.72315e-12
  226 4805.92 0.00000 2.76933e-13
  227 4805.92 0.00000 -3.72989e-13
  228 4805.92 0.00000 3.49814e-13
  229 4805.92 0.00000 3.81067e-13
  230 4805.92 0.00000 -8.73114e-13
  231 4805.92 0.00000 3.44610e-13
  232 4805.92 0.00000 -5.81260e-13
  233 4805.92 0.00000 2.33380e-13
  234 4805.92 0.00000 1.27826e-13
  235 4805.92 0.00000 2.63038e-13
  236 4805.92 0.00000 -6.08978e-15
  237 4805.92 0.00000 1.22988e-12
  238 4805.92 0.00000 6.47352e-13
  239 4805.92 0.00000 -2.53742e-13
  240 4805.92 0.00000 -3.24540e-13
  241 4805.92 0.00000 -1.05935e-12
</Section>

newXOutput 104

<Section columns = "stress_xx | stress_yy | stress_xy">
  1 4854.81 0.00000 1.69888e-14
  2 4854.81 0.00000 -2.32098e-13
  3 4854.81 0.00000 -9.32393e-13
  4 4854.81 0.00000 -3.03666e-14
  5 4854.81 0.00000 -1.58174e-13
  6 4854.81 0.00000 2.81446e-14
  7 4854.81 0.00000 -1.75255e-13
  8 4854.81 0.00000 -9.67961e-13
  9 4854.81 0.00000 6.59051e-13
  10 4854.81 0.00000 9.49013e-13
  11 4854.81 0.00000 8.13783e-13
  12 4854.81 0.00000 6.10383e-13
  13 4854.81 0.00000 4.94427e-13
  14 4854.81 0.00000 1.47283e-12
  15 4854.81 0.00000 1.62713e-12
  16 4854.81 0.00000 8.70072e-13
  17 4854.81 0.00000 -3.71567e-14
  18 4854.81 0.00000 1.05418e-13
  19 4854.81 0.00000 -7.57124e-13
  20 4854.81 0.00000 -2.40327e-12
  21 4854.81 0.00000 -1.08480e-12
  22 4854.81 0.00000 -6.07020e-13
  23 4854.81 0.00000 -9.49383e-13
  24 4854.81 0.00000 -2.90517e-13
  25 4854.81 0.00000 -2.03677e-13
  26 4854.81 0.00000 -1.02245e-12
  27 4854.81 0.00000 -4.04979e-13
  28 4854.81 0.00000 -3.57761e-13
  29 4854.81 0.00000 -2.85380e-13
  30 4854.81 0.00000 1.85419e-13
  31 4854.81 0.00000 5.26254e-13
  32 4854.81 0.00000 2.75106e-13
  33 4854.81 0.00000 2.23813e-13
  34 4854.81 0.00000 -1.18330e-12
  35 4854.81 0.00000 -1.53472e-12
  36 4854.81 0.00000 -6.89745e-13
  37 4854.81 0.00000 -2.21250e-13
  38 4854.81 0.00000 -6.17558e-14
  39 4854.81 0.00000 3.32617e-13
  40 4854.81 0.00000 -1.68235e-12
  41 4854.81 0.00000 -2.60849e-13
  42 4854.81 0.00000 3.40991e-13
  43 4854.81 0.00000 -2.13347e-13
  44 4854.81 0.00000 8.68669e-14
  45 4854.81 0.00000 3.46060e-13
  46 4854.81 0.00000 2.36813e-13
  47 4854.81 0.00000 -8.49849e-15
  48 4854.81 0.00000 8.31054e-14
  49 4854.81 0.00000 1.57194e-13
  50 4854.81 0.00000 -2.76220e-15
  51 4854.81 0.00000 -8.28660e-15
  52 4854.81 0.00000 -7.47211e-14
  53 4854.81 0.00000 -7.90334e-14
  54 4854.81 0.00000 2.41399e-14
  55 4854.81 0.00000 0.00000
  56 4854.81 0.00000 -1.04462e-13
  57 4854.81 0.00000 -1.63224e-13
  58 4854.81 0.00000 7.71815e-13
  59 4854.81 0.00000 1.71777e-13
  60 4854.81 0.00000 5.20299e-14
  61 4854.81 0.00000 -2.24114e-13
  62 4854.81 0.00000 -9.25712e-14
  63 4854.81 0.00000 2.14824e-13
  64 4854.81 0.00000 1.92661e-13
  65 4854.81 0.00000 3.58111e-13
  66 4854.81 0.00000 -4.50692e-13
  67 4854.81 0.00000 -7.70869e-13
  68 4854.81 0.00000 -2.58088e-13
  69 4854.81 0.00000 2.21934e-13
  70 4854.81 0.00000 1.67195e-13
  71 4854.81 0.00000 4.37165e-13
  72 4854.81 0.00000 -1.10040e-12
  73 4854.81 0.00000 6.82305e-13
  74 4854.81 0.00000 -1.49842e-13
  75 4854.81 0.00000 5.39060e-13
  76 4854.81 0.00000 3.43490e-13
  77 4854.81 0.00000 1.64878e-13
  78 4854.81 0.00000 1.42243e-12
  79 4854.81 0.00000 2.82942e-13
  80 4854.81 0.00000 -3.18015e-13
  81 4854.81 0.00000 -8.56317e-13
  82 4854.81 0.00000 1.80448e-13
  83 4854.81 0.00000 4.31502e-13
  84 4854.81 0.00000 -4.02270e-13
  85 4854.81 0.00000 8.69887e-13
  86 4854.81 0.00000 3.24001e-13
  87 4854.81 0.00000 -3.50225e-14
  88 4854.81 0.00000 1.45432e-13
  89 4854.81 0.00000 -2.33799e-13
  90 4854.81 0.00000 -1.05751e-12
  91 4854.81 0.00000 -1.56290e-13
  92 4854.81 0.00000 -9.76472e-14
  93 4854.81 0.00000 -1.11253e-12
  94 4854.81 0.00000 7.21202e-13
  95 4854.81 0.00000 7.58472e-14
  96 4854.81 0.00000 6.68019e-13
  97 4854.81 0.00000 -4.65865e-13
  98 4854.81 0.00000 -2.00803e-13
  99 4854.81 0.00000 -1.81597e-13
  100 4854.81 0.00000 9.48401e-14
  101 4854.81 0.00000 -4.55836e-13
  102 4854.81 0.00000 -1.54072e-13
  103 4854.81 0.00000 3.12186e-12
  104 4854.81 0.00000 7.85337e-13
  105 4854.81 0.00000 2.31424e-13
  106 4854.81 0.00000 7.02471e-13
  107 4854.81 0.00000 -4.00963e-13
  108 4854.81 0.00000 -3.19612e-14
  109 4854.81 0.00000 -6.20479e-14
  110 4854.81 0.00000 -5.29196e-13
  111 4854.81 0.00000 7.55224e-13
  112 4854.81 0.00000 2.23060e-13
  113 4854.81 0.00000 1.55696e-13
  114 4854.81 0.00000 -7.43618e-14
  115 4854.81 0.00000 1.10076e-12
  116 4854.81 0.00000 -8.82662e-14
  117 4854.81 0.00000 5.53531e-13
  118 4854.81 0.00000 5.55976e-13
  119 4854.81 0.00000 1.09372e-12
  120 4854.81 0.00000 -3.21248e-13
  121 4854.81 0.00000 5.56502e-13
  122 4854.81 0.00000 8.18941e-13
  123 4854.81 0.00000 6.18762e-13
  124 4854.81 0.00000 8.24773e-15
  125 4854.81 0.00000 2.54809e-13
  126 4854.81 0.00000 -6.69679e-13
  127 4854.81 0.00000 5.94862e-14
  128 4854.81 0.00000 -4.29366e-13
  129 4854.81 0.00000 3.48589e-14
  130 4854.81 0.00000 -3.16054e-13
  131 4854.81 0.00000 -8.31178e-13
  132 4854.81 0.00000 3.87918e-13
  133 4854.81 0.00000 1.53445e-13
  134 4854.81 0.00000 -2.23483e-14
  135 4854.81 0.00000 4.74277e-13
  136 4854.81 0.00000 -8.92382e-14
  137 4854.81 0.00000 -1.18853e-13
  138 4854.81 0.00000 -6.70423e-13
  139 4854.81 0.00000 -4.08004e-15
  140 4854.81 0.00000 -6.13049e-13
  141 4854.81 0.00000 -3.19021e-14
  142 4854.81 0.00000 -5.39729e-13
  143 4854.81 0.00000 3.89754e-13
  144 4854.81 0.00000 8.30469e-13
  145 4854.81 0.00000 9.50465e-13
  146 4854.81 0.00000 3.62898e-13
  147 4854.81 0.00000 -1.14179e-13
  148 4854.81 0.00000 -1.25031e-13
  149 4854.81 0.00000 4.49598e-13
  150 4854.81 0.00000 9.07729e-13
  151 4854.81 0.00000 -3.05732e-13
  152 4854.81 0.00000 1.26602e-12
  153 4854.81 0.00000 6.76914e-15
  154 4854.81 0.00000 1.45176e-13
  155 4854.81 0.00000 -4.98463e-13
  156 4854.81 0.00000 -7.27630e-13
  157 4854.81 0.00000 3.22887e-13
  158 4854.81 0.00000 -7.21223e-13
  159 4854.81 0.00000 9.36087e-13
  160 4854.81 0.00000 3.16532e-14
  161 4854.81 0.00000 -1.45852e-13
  162 4854.81 0.00000 1.71593e-13
  163 4854.81 0.00000 -3.71102e-13
  164 4854.81 0.00000 6.07230e-13
  165 4854.81 0.00000 -3.66546e-13
  166 4854.81 0.00000 3.81842e-14
  167 4854.81 0.00000 -7.90688e-13
  168 4854.81 0.00000 -4.83875e-13
  169 4854.81 0.00000 -8.40848e-15
  170 4854.81 0.00000 -1.12710e-12
  171 4854.81 0.00000 6.20650e-13
  172 4854.81 0.00000 8.03130e-14
  173 4854.81 0.00000 3.85995e-13
  174 4854.81 0.00000 4.03127e-13
  175 4854.81 0.00000 -4.17381e-14
  176 4854.81 0.00000 -1.23703e-13
  177 4854.81 0.00000 4.16675e-13
  178 4854.81 0.00000 2.06173e-13
  179 4854.81 0.00000 -3.16357e-13
  180 4854.81 0.00000 1.53816e-14
  181 4854.81 0.00000 2.86969e-13
  182 4854.81 0.00000 3.54708e-13
  183 4854.81 0.00000 -4.70760e-13
  184 4854.81 0.00000 -6.05847e-13
  185 4854.81 0.00000 -3.89511e-13
  186 4854.81 0.00000 1.37888e-12
  187 4854.81 0.00000 1.32057e-12
  188 4854.81 0.00000 1.08907e-12
  189 4854.81 0.00000 6.89327e-13
  190 4854.81 0.00000 2.61337e-13
  191 4854.81 0.00000 2.51101e-13
  192 4854.81 0.00000 5.31928e-13
  193 4854.81 0.00000 -6.82341e-13
  194 4854.81 0.00000 -1.30315e-12
  195 4854.81 0.00000 -1.66169e-13
  196 4854.81 0.00000 -1.52860e-12
  197 4854.81 0.00000 -1.25219e-13
  198 4854.81 0.00000 -1.12335e-14
  199 4854.81 0.00000 7.53683e-14
  200 4854.81 0.00000 5.43310e-13
  201 4854.81 0.00000 5.87453e-13
  202 4854.81 0.00000 7.32515e-13
  203 4854.81 0.00000 -5.91482e-13
  204 4854.81 0.00000 1.61735e-14
  205 4854.81 0.00000 6.10287e-13
  206 4854.81 0.00000 -9.13067e-13
  207 4854.81 0.00000 -3.22898e-14
  208 4854.81 0.00000 -2.54057e-14
  209 4854.81 0.00000 -6.12282e-13
  210 4854.81 0.00000 -2.33922e-13
  211 4854.81 0.00000 -2.22822e-13
  212 4854.81 0.00000 4.49276e-13
  213 4854.81 0.00000 -1.17022e-13
  214 4854.81 0.00000 3.16210e-13
  215 4854.81 0.00000 1.48071e-12
  216 4854.81 0.00000 -7.32542e-13
  217 4854.81 0.00000 -7.46362e-13
  218 4854.81 0.00000 -3.25712e-13
  219 4854.81 0.00000 8.57648e-13
  220 4854.81 0.00000 -3.20668e-13
  221 4854.81 0.00000 1.43652e-14
  222 4854.81 0.00000 1.31387e-12
  223 4854.81 0.00000 4.57649e-13
  224 4854.81 0.00000 -1.01363e-12
  225 4854.81 0.00000 8.64267e-13
  226 4854.81 0.00000 -4.84844e-13
  227 4854.81 0.00000 6.51300e-14
  228 4854.81 0.00000 6.99557e-13
  229 4854.81 0.00000 -2.81530e-13
  230 4854.81 0.00000 -2.24292e-13
  231 4854.81 0.00000 -5.91924e-13
  232 4854.81 0.00000 7.63316e-13
  233 4854.81 0.00000 2.03007e-12
  234 4854.81 0.00000 4.93015e-13
  235 4854.81 0.00000 -6.30277e-13
  236 4854.81 0.00000 -2.32941e-13
  237 4854.81 0.00000 -7.04877e-13
  238 4854.81 0.00000 6.48240e-13
  239 4854.81 0.00000 1.08244e-12
  240 4854.81 0.00000 3.77377e-13
  241 4854.81 0.00000 5.48741e-13
</Section>

newXOutput 105

<Section columns = "stress_xx | stress_yy | stress_xy">
  1 4903.77 0.00000 3.36066e-13
  2 4903.77 0.00000 1.73850e-13
  3 4903.77 0.00000 -5.53315e-13
  4 4903.77 0.00000 -3.44674e-14
  5 4903.77 0.00000 5.10482e-13
  6 4903.77 0.00000 -2.34083e-13
  7 4903.77 0.00000 3.36914e-13
  8 4903.77 0.00000 8.38204e-13
  9 4903.77 0.00000 6.85537e-14
  10 4903.77 0.00000 1.56055e-13
  11 4903.77 0.00000 4.28011e-13
  12 4903.77 0.00000 4.82549e-13
  13 4903.77 0.00000 -1.48005e-13
  14 4903.77 0.00000 -1.93905e-13
  15 4903.77 0.00000 -5.51244e-13
  16 4903.77 0.00000 1.51583e-12
  17 4903.77 0.00000 1.45447e-12
  18 4903.77 0.00000 2.23479e-13
  19 4903.77 0.00000 -1.04541e-12
  20 4903.77 0.00000 1.83852e-12
  21 4903.77 0.00000 1.08782e-12
  22 4903.77 0.00000 -1.59384e-12
  23 4903.77 0.00000 -5.88585e-13
  24 4903.77 0.00000 1.15900e-13
  25 4903.77 0.00000 3.47701e-13
  26 4903.77 0.00000 1.27693e-12
  27 4903.77 0.00000 -1.02040e-12
  28 4903.77 0.00000 -7.85461e-13
  29 4903.77 0.00000 0.00000
  30 4903.77 0.00000 -8.51393e-13
  31 4903.77 0.00000 -3.52891e-12
  32 4903.77 0.00000 -6.67830e-12
  33 4903.77 0.00000 -1.17066e-12
  34 4903.77 0.00000 -5.29109e-13
  35 4903.77 0.00000 7.20772e-13
  36 4903.77 0.00000 2.59656e-13
  37 4903.77 0.00000 5.32519e-13
  38 4903.77 0.00000 7.83144e-13
  39 4903.77 0.00000 -1.06971e-12
  40 4903.77 0.00000 -1.34983e-12
  41 4903.77 0.00000 -2.02371e-12
  42 4903.77 0.00000 -1.43304e-12
  43 4903.77 0.00000 -1.38743e-13
  44 4903.77 0.00000 -9.10255e-14
  45 4903.77 0.00000 -3.05674e-13
  46 4903.77 0.00000 -2.73733e-13
  47 4903.77 0.00000 1.80522e-13
  48 4903.77 0.00000 3.15520e-13
  49 4903.77 0.00000 -2.25618e-13
  50 4903.77 0.00000 1.06709e-13
  51 4903.77 0.00000 7.93547e-15
  52 4903.77 0.00000 -1.00423e-13
  53 4903.77 0.00000 6.26986e-14
  54 4903.77 0.00000 4.94314e-14
  55 4903.77 0.00000 3.47701e-13
  56 4903.77 0.00000 3.10439e-14
  57 4903.77 0.00000 -6.44661e-13
  58 4903.77 0.00000 -9.37080e-13
  59 4903.77 0.00000 4.55844e-13
  60 4903.77 0.00000 -1.22604e-12
  61 4903.77 0.00000 2.77784e-13
  62 4903.77 0.00000 4.10746e-13
  63 4903.77 0.00000 1.09609e-12
  64 4903.77 0.00000 1.70682e-12
  65 4903.77 0.00000 -2.33301e-13
  66 4903.77 0.00000 7.47536e-14
  67 4903.77 0.00000 -1.48052e-12
  68 4903.77 0.00000 -5.41073e-13
  69 4903.77 0.00000 3.92599e-13
  70 4903.77 0.00000 6.33233e-13
  71 4903.77 0.00000 3.11401e-13
  72 4903.77 0.00000 -3.56825e-13
  73 4903.77 0.00000 -2.79277e-14
  74 4903.77 0.00000 3.75497e-13
  75 4903.77 0.00000 1.02353e-12
  76 4903.77 0.00000 -7.48567e-16
  77 4903.77 0.00000 4.70888e-14
  78 4903.77 0.00000 -1.96156e-12
  79 4903.77 0.00000 -3.88679e-13
  80 4903.77 0.00000 -3.95814e-13
  81 4903.77 0.00000 -1.22132e-12
  82 4903.77 0.00000 1.26984e-13
  83 4903.77 0.00000 -6.27662e-13
  84 4903.77 0.00000 -2.15521e-13
  85 4903.77 0.00000 -4.88427e-13
  86 4903.77 0.00000 2.62020e-13
  87 4903.77 0.00000 1.49646e-13
  88 4903.77 0.00000 -2.77282e-12
  89 4903.77 0.00000 2.60842e-13
  90 4903.77 0.00000 4.80953e-13
  91 4903.77 0.00000 -1.23329e-13
  92 4903.77 0.00000 -2.64973e-13
  93 4903.77 0.00000 -9.87912e-13
  94 4903.77 0.00000 -8.86762e-13
  95 4903.77 0.00000 -5.56655e-14
  96 4903.77 0.00000 2.26317e-13
  97 4903.77 0.00000 1.03493e-12
  98 4903.77 0.00000 6.33295e-14
  99 4903.77 0.00000 1.19698e-13
  100 4903.77 0.00000 1.71340e-13
  101 4903.77 0.00000 -8.80260e-13
  102 4903.77 0.00000 -6.87342e-13
  103 4903.77 0.00000 -1.04418e-12
  104 4903.77 0.00000 1.31360e-13
  105 4903.77 0.00000 -2.40340e-13
  106 4903.77 0.00000 -1.60409e-13
  107 4903.77 0.00000 1.47551e-12
  108 4903.77 0.00000 -3.48250e-13
  109 4903.77 0.00000 -1.81122e-13
  110 4903.77 0.00000 -2.40599e-12
  111 4903.77 0.00000 -1.74128e-12
  112 4903.77 0.00000 8.37775e-13
  113 4903.77 0.00000 -7.10962e-14
  114 4903.77 0.00000 4.12915e-13
  115 4903.77 0.00000 -6.24517e-14
  116 4903.77 0.00000 -1.10334e-13
  117 4903.77 0.00000 1.96410e-12
  118 4903.77 0.00000 -5.07402e-13
  119 4903.77 0.00000 -9.12681e-13
  120 4903.77 0.00000 4.51209e-13
  121 4903.77 0.00000 -4.74572e-13
  122 4903.77 0.00000 -1.26652e-12
  123 4903.77 0.00000 -8.62203e-14
  124 4903.77 0.00000 -1.79221e-13
  125 4903.77 0.00000 -7.36766e-14
  126 4903.77 0.00000 -8.32778e-14
  127 4903.77 0.00000 2.77746e-13
  128 4903.77 0.00000 2.17582e-13
  129 4903.77 0.00000 -1.49457e-13
  130 4903.77 0.00000 -3.72576e-13
  131 4903.77 0.00000 -9.73180e-13
  132 4903.77 0.00000 -8.24747e-13
  133 4903.77 0.00000 -2.92349e-13
  134 4903.77 0.00000 4.79699e-13
  135 4903.77 0.00000 8.73328e-13
  136 4903.77 0.00000 2.52838e-14
  137 4903.77 0.00000 7.16831e-13
  138 4903.77 0.00000 -2.53185e-14
  139 4903.77 0.00000 2.35876e-13
  140 4903.77 0.00000 -1.09972e-12
  141 4903.77 0.00000 2.85514e-14
  142 4903.77 0.00000 -2.78339e-14
  143 4903.77 0.00000 -4.41569e-14
  144 4903.77 0.00000 -8.23232e-13
  145 4903.77 0.00000 -1.37496e-13
  146 4903.77 0.00000 -6.35709e-13
  147 4903.77 0.00000 -4.33265e-13
  148 4903.77 0.00000 2.79464e-14
  149 4903.77 0.00000 -6.57722e-13
  150 4903.77 0.00000 -2.06112e-13
  151 4903.77 0.00000 1.02652e-13
  152 4903.77 0.00000 -1.44992e-12
  153 4903.77 0.00000 3.11174e-13
  154 4903.77 0.00000 -7.75032e-14
  155 4903.77 0.00000 1.72785e-13
  156 4903.77 0.00000 1.22890e-13
  157 4903.77 0.00000 -4.38689e-13
  158 4903.77 0.00000 -9.42765e-13
  159 4903.77 0.00000 -2.08352e-14
  160 4903.77 0.00000 -7.10494e-14
  161 4903.77 0.00000 -2.81335e-13
  162 4903.77 0.00000 -8.49861e-13
  163 4903.77 0.00000 -4.68529e-13
  164 4903.77 0.00000 -8.18299e-13
  165 4903.77 0.00000 1.26077e-13
  166 4903.77 0.00000 5.18404e-15
  167 4903.77 0.00000 -1.81969e-13
  168 4903.77 0.00000 -1.59028e-12
  169 4903.77 0.00000 1.61635e-13
  170 4903.77 0.00000 -2.16782e-12
  171 4903.77 0.00000 4.19862e-13
  172 4903.77 0.00000 3.28776e-13
  173 4903.77 0.00000 -5.36442e-13
  174 4903.77 0.00000 1.81347e-13
  175 4903.77 0.00000 7.10464e-14
  176 4903.77 0.00000 1.61821e-13
  177 4903.77 0.00000 -2.52233e-12
  178 4903.77 0.00000 -6.70068e-13
  179 4903.77 0.00000 2.54486e-14
  180 4903.77 0.00000 3.11633e-14
  181 4903.77 0.00000 -1.56155e-12
  182 4903.77 0.00000 2.52403e-13
  183 4903.77 0.00000 6.55425e-13
  184 4903.77 0.00000 7.58373e-13
  185 4903.77 0.00000 1.66828e-13
  186 4903.77 0.00000 -1.32365e-13
  187 4903.77 0.00000 -3.39536e-12
  188 4903.77 0.00000 1.98672e-13
  189 4903.77 0.00000 -3.95268e-13
  190 4903.77 0.00000 1.67011e-13
  191 4903.77 0.00000 5.12988e-14
  192 4903.77 0.00000 1.80835e-13
  193 4903.77 0.00000 7.52155e-13
  194 4903.77 0.00000 5.52538e-13
  195 4903.77 0.00000 -1.01443e-13
  196 4903.77 0.00000 -2.51001e-12
  197 4903.77 0.00000 1.52177e-13
  198 4903.77 0.00000 -1.29535e-13
  199 4903.77 0.00000 -5.76673e-13
  200 4903.77 0.00000 -1.76291e-12
  201 4903.77 0.00000 4.21568e-13
  202 4903.77 0.00000 -1.31540e-12
  203 4903.77 0.00000 3.62488e-13
  204 4903.77 0.00000 -5.33969e-13
  205 4903.77 0.00000 -4.08232e-14
  206 4903.77 0.00000 1.54081e-12
  207 4903.77 0.00000 -4.75077e-14
  208 4903.77 0.00000 -3.93608e-13
  209 4903.77 0.00000 7.69188e-13
  210 4903.77 0.00000 2.68940e-13
  211 4903.77 0.00000 1.31364e-13
  212 4903.77 0.00000 -2.65527e-13
  213 4903.77 0.00000 1.30055e-13
  214 4903.77 0.00000 -7.55786e-13
  215 4903.77 0.00000 -9.06138e-13
  216 4903.77 0.00000 1.11016e-12
  217 4903.77 0.00000 1.62529e-12
  218 4903.77 0.00000 3.93353e-13
  219 4903.77 0.00000 -5.02244e-13
  220 4903.77 0.00000 8.96998e-13
  221 4903.77 0.00000 4.21761e-13
  222 4903.77 0.00000 -5.33308e-13
  223 4903.77 0.00000 2.85553e-13
  224 4903.77 0.00000 4.39080e-13
  225 4903.77 0.00000 -7.61101e-13
  226 4903.77 0.00000 1.90441e-13
  227 4903.77 0.00000 -7.74196e-13
  228 4903.77 0.00000 3.72946e-13
  229 4903.77 0.00000 7.51001e-14
  230 4903.77 0.00000 -2.73857e-13
  231 4903.77 0.00000 1.37061e-12
  232 4903.77 0.00000 -9.82214e-13
  233 4903.77 0.00000 3.66123e-13
  234 4903.77 0.00000 5.90726e-13
  235 4903.77 0.00000 -1.15836e-12
  236 4903.77 0.00000 1.16870e-13
  237 4903.77 0.00000 -4.49897e-13
  238 4903.77 0.00000 5.05678e-13
  239 4903.77 0.00000 4.15901e-14
  240 4903.77 0.00000 -4.44751e-13
  241 4903.77 0.00000 -2.53008e-13
</Section>

newXOutput 106

<Section columns = "stress_xx | stress_yy | stress_xy">
  1 4952.81 0.00000 1.72442e-13
  2 4952.81 0.00000 1.80875e-12
  3 4952.81 0.00000 4.98818e-13
  4 4952.81 0.00000 -6.55772e-15
  5 4952.81 0.00000 -2.38629e-13
  6 4952.81 0.00000 -8.18155e-13
  7 4952.81 0.00000 2.68966e-13
  8 4952.81 0.00000 2.94116e-13
  9 4952.81 0.00000 -2.51321e-13
  10 4952.81 0.00000 2.72718e-13
  11 4952.81 0.00000 -4.97742e-13
  12 4952.81 0.00000 -1.47457e-12
  13 4952.81 0.00000 -1.10661e-12
  14 4952.81 0.00000 -3.13871e-12
  15 4952.81 0.00000 -1.49987e-12
  16 4952.81 0.00000 -2.67819e-13
  17 4952.81 0.00000 -1.10982e-12
  18 4952.81 0.00000 8.59025e-14
  19 4952.81 0.00000 -2.87466e-14
  20 4952.81 0.00000 -2.00864e-13
  21 4952.81 0.00000 6.40826e-13
  22 4952.81 0.00000 2.96566e-13
  23 4952.81 0.00000 -9.46540e-13
  24 4952.81 0.00000 -2.48871e-13
  25 4952.81 0.00000 -3.44885e-13
  26 4952.81 0.00000 -5.97392e-13
  27 4952.81 0.00000 1.18689e-12
  28 4952.81 0.00000 1.56075e-12
  29 4952.81 0.00000 3.60052e-13
  30 4952.81 0.00000 6.43659e-13
  31 4952.81 0.00000 4.96894e-12
  32 4952.81 0.00000 5.17207e-12
  33 4952.81 0.00000 8.26613e-13
  34 4952.81 0.00000 -3.70722e-13
  35 4952.81 0.00000 5.91381e-13
  36 4952.81 0.00000 -3.37130e-13
  37 4952.81 0.00000 -8.64496e-13
  38 4952.81 0.00000 -8.84037e-13
  39 4952.81 0.00000 1.67028e-12
  40 4952.81 0.00000 1.67791e-12
  41 4952.81 0.00000 7.50031e-13
  42 4952.81 0.00000 2.02883e-13
  43 4952.81 0.00000 -1.12983e-14
  44 4952.81 0.00000 3.43920e-13
  45 4952.81 0.00000 8.18017e-13
  46 4952.81 0.00000 1.01628e-12
  47 4952.81 0.00000 4.97109e-13
  48 4952.81 0.00000 -3.44966e-14
  49 4952.81 0.00000 -7.70516e-15
  50 4952.81 0.00000 3.78425e-14
  51 4952.81 0.00000 7.58348e-15
  52 4952.81 0.00000 -8.60045e-16
  53 4952.81 0.00000 2.02089e-13
  54 4952.81 0.00000 1.69668e-14
  55 4952.81 0.00000 -3.44885e-13
  56 4952.81 0.00000 -7.19323e-14
  57 4952.81 0.00000 3.85765e-13
  58 4952.81 0.00000 2.48754e-13
  59 4952.81 0.00000 4.44642e-13
  60 4952.81 0.00000 5.97959e-13
  61 4952.81 0.00000 5.68684e-14
  62 4952.81 0.00000 -3.09929e-13
  63 4952.81 0.00000 4.89236e-13
  64 4952.81 0.00000 -6.93426e-13
  65 4952.81 0.00000 8.28771e-15
  66 4952.81 0.00000 1.05058e-13
  67 4952.81 0.00000 3.65846e-13
  68 4952.81 0.00000 -9.21649e-13
  69 4952.81 0.00000 4.76148e-13
  70 4952.81 0.00000 3.09026e-13
  71 4952.81 0.00000 7.95298e-14
  72 4952.81 0.00000 2.11692e-14
  73 4952.81 0.00000 -1.91771e-13
  74 4952.81 0.00000 -1.26968e-13
  75 4952.81 0.00000 -3.10655e-13
  76 4952.81 0.00000 -6.12470e-13
  77 4952.81 0.00000 -6.08820e-14
  78 4952.81 0.00000 -8.61738e-13
  79 4952.81 0.00000 5.11581e-13
  80 4952.81 0.00000 1.44725e-13
  81 4952.81 0.00000 -6.19772e-14
  82 4952.81 0.00000 9.90461e-13
  83 4952.81 0.00000 6.53179e-13
  84 4952.81 0.00000 8.83522e-14
  85 4952.81 0.00000 -6.36473e-13
  86 4952.81 0.00000 2.87908e-12
  87 4952.81 0.00000 1.29335e-13
  88 4952.81 0.00000 9.16698e-14
  89 4952.81 0.00000 4.00414e-13
  90 4952.81 0.00000 -2.12878e-13
  91 4952.81 0.00000 -9.30679e-13
  92 4952.81 0.00000 -1.75625e-13
  93 4952.81 0.00000 -3.46966e-13
  94 4952.81 0.00000 2.96957e-12
  95 4952.81 0.00000 -6.76874e-13
  96 4952.81 0.00000 -1.17615e-12
  97 4952.81 0.00000 1.20144e-13
  98 4952.81 0.00000 -2.12201e-13
  99 4952.81 0.00000 1.08016e-13
  100 4952.81 0.00000 -4.99780e-14
  101 4952.81 0.00000 -3.85152e-13
  102 4952.81 0.00000 9.10732e-14
  103 4952.81 0.00000 -1.91390e-13
  104 4952.81 0.00000 -5.91719e-14
  105 4952.81 0.00000 4.38303e-13
  106 4952.81 0.00000 6.26211e-13
  107 4952.81 0.00000 -5.49228e-13
  108 4952.81 0.00000 -4.76163e-14
  109 4952.81 0.00000 3.32924e-14
  110 4952.81 0.00000 7.14595e-13
  111 4952.81 0.00000 6.12255e-13
  112 4952.81 0.00000 1.74335e-13
  113 4952.81 0.00000 5.36462e-13
  114 4952.81 0.00000 6.19866e-13
  115 4952.81 0.00000 3.85281e-13
  116 4952.81 0.00000 5.11426e-13
  117 4952.81 0.00000 -4.02092e-13
  118 4952.81 0.00000 -5.99580e-13
  119 4952.81 0.00000 -5.23265e-13
  120 4952.81 0.00000 1.07394e-12
  121 4952.81 0.00000 3.64215e-13
  122 4952.81 0.00000 -1.09698e-13
  123 4952.81 0.00000 5.04957e-14
  124 4952.81 0.00000 -1.93184e-13
  125 4952.81 0.00000 -1.48893e-13
  126 4952.81 0.00000 -2.29173e-13
  127 4952.81 0.00000 -1.21224e-12
  128 4952.81 0.00000 1.44634e-12
  129 4952.81 0.00000 4.22593e-13
  130 4952.81 0.00000 -3.15682e-13
  131 4952.81 0.00000 6.27576e-13
  132 4952.81 0.00000 -1.35630e-13
  133 4952.81 0.00000 3.56525e-13
  134 4952.81 0.00000 -1.08217e-13
  135 4952.81 0.00000 1.39998e-12
  136 4952.81 0.00000 1.26745e-13
  137 4952.81 0.00000 7.18129e-13
  138 4952.81 0.00000 3.26329e-13
  139 4952.81 0.00000 2.25862e-13
  140 4952.81 0.00000 -6.62193e-13
  141 4952.81 0.00000 8.04928e-13
  142 4952.81 0.00000 -8.02594e-14
  143 4952.81 0.00000 -4.61519e-13
  144 4952.81 0.00000 7.36398e-13
  145 4952.81 0.00000 -1.34334e-12
  146 4952.81 0.00000 -3.13070e-13
  147 4952.81 0.00000 7.72572e-13
  148 4952.81 0.00000 1.45171e-14
  149 4952.81 0.00000 9.70861e-13
  150 4952.81 0.00000 5.87174e-13
  151 4952.81 0.00000 -1.27420e-13
  152 4952.81 0.00000 6.68212e-13
  153 4952.81 0.00000 1.52935e-13
  154 4952.81 0.00000 4.75639e-13
  155 4952.81 0.00000 2.07432e-12
  156 4952.81 0.00000 -2.44046e-13
  157 4952.81 0.00000 -6.36690e-15
  158 4952.81 0.00000 -7.61977e-13
  159 4952.81 0.00000 -1.01077e-12
  160 4952.81 0.00000 4.66315e-14
  161 4952.81 0.00000 4.30922e-13
  162 4952.81 0.00000 5.75447e-13
  163 4952.81 0.00000 -1.94870e-13
  164 4952.81 0.00000 1.15204e-12
  165 4952.81 0.00000 -1.23804e-13
  166 4952.81 0.00000 1.40622e-14
  167 4952.81 0.00000 2.40930e-13
  168 4952.81 0.00000 9.58319e-13
  169 4952.81 0.00000 -3.98418e-14
  170 4952.81 0.00000 3.46120e-13
  171 4952.81 0.00000 -6.07395e-13
  172 4952.81 0.00000 -8.27473e-13
  173 4952.81 0.00000 4.83045e-14
  174 4952.81 0.00000 1.21182e-12
  175 4952.81 0.00000 4.31694e-14
  176 4952.81 0.00000 1.06127e-13
  177 4952.81 0.00000 5.80642e-13
  178 4952.81 0.00000 2.85711e-13
  179 4952.81 0.00000 6.50115e-13
  180 4952.81 0.00000 2.46146e-13
  181 4952.81 0.00000 1.87506e-13
  182 4952.81 0.00000 2.14390e-13
  183 4952.81 0.00000 -6.73336e-13
  184 4952.81 0.00000 -5.56930e-13
  185 4952.81 0.00000 -2.67128e-13
  186 4952.81 0.00000 -1.41801e-12
  187 4952.81 0.00000 2.11336e-12
  188 4952.81 0.00000 2.95578e-13
  189 4952.81 0.00000 2.34265e-13
  190 4952.81 0.00000 -3.11825e-13
  191 4952.81 0.00000 3.88514e-13
  192 4952.81 0.00000 1.00735e-12
  193 4952.81 0.00000 3.03292e-13
  194 4952.81 0.00000 -1.59835e-13
  195 4952.81 0.00000 2.02308e-14
  196 4952.81 0.00000 3.15751e-13
  197 4952.81 0.00000 1.39838e-13
  198 4952.81 0.00000 9.61538e-13
  199 4952.81 0.00000 -3.57943e-13
  200 4952.81 0.00000 -1.51278e-12
  201 4952.81 0.00000 8.73859e-13
  202 4952.81 0.00000 -1.39206e-13
  203 4952.81 0.00000 -4.88725e-13
  204 4952.81 0.00000 -7.61938e-13
  205 4952.81 0.00000 5.85794e-13
  206 4952.81 0.00000 2.36034e-12
  207 4952.81 0.00000 4.19938e-13
  208 4952.81 0.00000 5.86092e-13
  209 4952.81 0.00000 -2.62484e-12
  210 4952.81 0.00000 -1.60285e-13
  211 4952.81 0.00000 -1.05028e-13
  212 4952.81 0.00000 9.71535e-13
  213 4952.81 0.00000 -3.76607e-14
  214 4952.81 0.00000 -5.86073e-13
  215 4952.81 0.00000 -1.38731e-12
  216 4952.81 0.00000 -1.02644e-12
  217 4952.81 0.00000 -1.48179e-12
  218 4952.81 0.00000 -2.72287e-13
  219 4952.81 0.00000 -1.29244e-12
  220 4952.81 0.00000 -3.53642e-13
  221 4952.81 0.00000 8.15230e-13
  222 4952.81 0.00000 1.15286e-12
  223 4952.81 0.00000 1.98393e-13
  224 4952.81 0.00000 -4.34942e-13
  225 4952.81 0.00000 2.15174e-12
  226 4952.81 0.00000 9.91572e-14
  227 4952.81 0.00000 1.84444e-13
  228 4952.81 0.00000 2.43836e-13
  229 4952.81 0.00000 1.43044e-13
  230 4952.81 0.00000 -1.10639e-12
  231 4952.81 0.00000 -5.61385e-14
  232 4952.81 0.00000 -3.93737e-13
  233 4952.81 0.00000 -2.55252e-13
  234 4952.81 0.00000 -8.54437e-13
  235 4952.81 0.00000 -1.79104e-13
  236 4952.81 0.00000 2.96778e-14
  237 4952.81 0.00000 -2.01548e-13
  238 4952.81 0.00000 -7.20104e-14
  239 4952.81 0.00000 -2.05386e-13
  240 4952.81 0.00000 -6.42233e-13
  241 4952.81 0.00000 -5.76386e-13
</Section>

newXOutput 107

<Section columns = "stress_xx | stress_yy | stress_xy">
  1 5001.93 0.00000 3.40847e-14
  2 5001.93 0.00000 9.28381e-13
  3 5001.93 0.00000 -1.01943e-13
  4 5001.93 0.00000 9.89373e-14
  5 5001.93 0.00000 -2.62227e-13
  6 5001.93 0.00000 -6.15348e-13
  7 5001.93 0.00000 2.39201e-13
  8 5001.93 0.00000 4.54463e-14
  9 5001.93 0.00000 2.73488e-13
  10 5001.93 0.00000 -5.01529e-13
  11 5001.93 0.00000 -1.07123e-12
  12 5001.93 0.00000 6.19123e-13
  13 5001.93 0.00000 1.50681e-12
  14 5001.93 0.00000 -1.31266e-27
  15 5001.93 0.00000 -1.40890e-13
  16 5001.93 0.00000 1.13603e-12
  17 5001.93 0.00000 2.46989e-13
  18 5001.93 0.00000 -3.21500e-13
  19 5001.93 0.00000 1.16590e-12
  20 5001.93 0.00000 2.33502e-13
  21 5001.93 0.00000 4.32955e-13
  22 5001.93 0.00000 1.82689e-12
  23 5001.93 0.00000 4.22573e-12
  24 5001.93 0.00000 -1.11290e-12
  25 5001.93 0.00000 3.42062e-13
  26 5001.93 0.00000 -1.38528e-12
  27 5001.93 0.00000 1.67658e-13
  28 5001.93 0.00000 -3.39351e-13
  29 5001.93 0.00000 -1.35379e-13
  30 5001.93 0.00000 -1.22456e-13
  31 5001.93 0.00000 -2.12320e-12
  32 5001.93 0.00000 -2.31249e-12
  33 5001.93 0.00000 -1.13202e-12
  34 5001.93 0.00000 -8.91304e-14
  35 5001.93 0.00000 1.15081e-12
  36 5001.93 0.00000 1.38960e-12
  37 5001.93 0.00000 -2.32525e-13
  38 5001.93 0.00000 -4.04072e-13
  39 5001.93 0.00000 1.81082e-15
  40 5001.93 0.00000 -1.77822e-12
  41 5001.93 0.00000 -3.08972e-13
  42 5001.93 0.00000 9.72007e-13
  43 5001.93 0.00000 -3.47603e-13
  44 5001.93 0.00000 -5.87776e-13
  45 5001.93 0.00000 -5.04546e-13
  46 5001.93 0.00000 -3.61468e-13
  47 5001.93 0.00000 -5.82123e-13
  48 5001.93 0.00000 7.38898e-14
  49 5001.93 0.00000 2.69067e-13
  50 5001.93 0.00000 6.59617e-14
  51 5001.93 0.00000 1.44613e-14
  52 5001.93 0.00000 1.08765e-13
  53 5001.93 0.00000 6.35515e-14
  54 5001.93 0.00000 -1.30789e-13
  55 5001.93 0.00000 0.00000
  56 5001.93 0.00000 -1.66109e-13
  57 5001.93 0.00000 1.94032e-13
  58 5001.93 0.00000 1.61264e-12
  59 5001.93 0.00000 9.85915e-14
  60 5001.93 0.00000 3.80586e-13
  61 5001.93 0.00000 3.27598e-13
  62 5001.93 0.00000 9.02527e-13
  63 5001.93 0.00000 -2.89591e-13
  64 5001.93 0.00000 -1.84702e-13
  65 5001.93 0.00000 2.95658e-13
  66 5001.93 0.00000 -4.57347e-13
  67 5001.93 0.00000 9.92735e-13
  68 5001.93 0.00000 4.91954e-13
  69 5001.93 0.00000 -2.40485e-13
  70 5001.93 0.00000 -1.70494e-13
  71 5001.93 0.00000 -6.40121e-13
  72 5001.93 0.00000 -7.65764e-13
  73 5001.93 0.00000 3.75958e-13
  74 5001.93 0.00000 -5.90463e-14
  75 5001.93 0.00000 6.17926e-13
  76 5001.93 0.00000 1.09375e-12
  77 5001.93 0.00000 3.01926e-13
  78 5001.93 0.00000 -7.00000e-13
  79 5001.93 0.00000 -1.08601e-12
  80 5001.93 0.00000 1.25462e-12
  81 5001.93 0.00000 -5.57014e-13
  82 5001.93 0.00000 -3.14411e-13
  83 5001.93 0.00000 -3.89001e-13
  84 5001.93 0.00000 -3.61853e-13
  85 5001.93 0.00000 6.90986e-13
  86 5001.93 0.00000 -1.66893e-12
  87 5001.93 0.00000 2.46513e-13
  88 5001.93 0.00000 -6.62065e-13
  89 5001.93 0.00000 -8.49386e-14
  90 5001.93 0.00000 -3.10185e-13
  91 5001.93 0.00000 3.40124e-13
  92 5001.93 0.00000 2.79047e-14
  93 5001.93 0.00000 1.03883e-12
  94 5001.93 0.00000 -3.27352e-12
  95 5001.93 0.00000 -1.41725e-13
  96 5001.93 0.00000 1.19117e-13
  97 5001.93 0.00000 8.79529e-13
  98 5001.93 0.00000 2.21859e-13
  99 5001.93 0.00000 3.61532e-15
  100 5001.93 0.00000 3.02677e-13
  101 5001.93 0.00000 5.82948e-13
  102 5001.93 0.00000 1.79319e-12
  103 5001.93 0.00000 -6.02632e-14
  104 5001.93 0.00000 5.95302e-13
  105 5001.93 0.00000 6.86901e-13
  106 5001.93 0.00000 2.90025e-13
  107 5001.93 0.00000 -4.99722e-13
  108 5001.93 0.00000 1.33341e-14
  109 5001.93 0.00000 -3.22248e-13
  110 5001.93 0.00000 3.53092e-13
  111 5001.93 0.00000 -6.64446e-14
  112 5001.93 0.00000 -5.77448e-14
  113 5001.93 0.00000 -8.70882e-13
  114 5001.93 0.00000 2.21365e-13
  115 5001.93 0.00000 -5.07800e-13
  116 5001.93 0.00000 2.95330e-14
  117 5001.93 0.00000 1.13233e-12
  118 5001.93 0.00000 8.75184e-13
  119 5001.93 0.00000 -7.08754e-15
  120 5001.93 0.00000 -3.26763e-13
  121 5001.93 0.00000 2.98282e-13
  122 5001.93 0.00000 1.52190e-12
  123 5001.93 0.00000 -7.34207e-13
  124 5001.93 0.00000 2.00822e-14
  125 5001.93 0.00000 6.50756e-13
  126 5001.93 0.00000 -2.63154e-13
  127 5001.93 0.00000 8.10277e-13
  128 5001.93 0.00000 -1.23394e-13
  129 5001.93 0.00000 -1.73857e-13
  130 5001.93 0.00000 1.79914e-13
  131 5001.93 0.00000 1.04279e-12
  132 5001.93 0.00000 1.75017e-13
  133 5001.93 0.00000 -1.33768e-12
  134 5001.93 0.00000 -3.53693e-13
  135 5001.93 0.00000 3.08063e-13
  136 5001.93 0.00000 3.20106e-14
  137 5001.93 0.00000 7.81477e-13
  138 5001.93 0.00000 -6.62564e-13
  139 5001.93 0.00000 2.00897e-13
  140 5001.93 0.00000 1.13668e-13
  141 5001.93 0.00000 -9.14096e-13
  142 5001.93 0.00000 -3.45529e-15
  143 5001.93 0.00000 7.93980e-13
  144 5001.93 0.00000 -5.88741e-14
  145 5001.93 0.00000 -6.32524e-13
  146 5001.93 0.00000 -2.80938e-13
  147 5001.93 0.00000 -3.38400e-13
  148 5001.93 0.00000 -1.64127e-13
  149 5001.93 0.00000 6.70508e-13
  150 5001.93 0.00000 -3.20036e-13
  151 5001.93 0.00000 -4.45884e-13
  152 5001.93 0.00000 1.95209e-12
  153 5001.93 0.00000 7.63453e-13
  154 5001.93 0.00000 1.39416e-12
  155 5001.93 0.00000 -1.19976e-12
  156 5001.93 0.00000 -1.15952e-13
  157 5001.93 0.00000 3.79094e-13
  158 5001.93 0.00000 -4.65239e-13
  159 5001.93 0.00000 -5.90657e-13
  160 5001.93 0.00000 2.46119e-13
  161 5001.93 0.00000 8.08225e-13
  162 5001.93 0.00000 -6.10148e-13
  163 5001.93 0.00000 9.77040e-13
  164 5001.93 0.00000 -6.82470e-13
  165 5001.93 0.00000 -3.61189e-13
  166 5001.93 0.00000 8.48079e-14
  167 5001.93 0.00000 -1.48837e-12
  168 5001.93 0.00000 -3.26338e-13
  169 5001.93 0.00000 3.05592e-14
  170 5001.93 0.00000 -5.25330e-13
  171 5001.93 0.00000 4.40256e-13
  172 5001.93 0.00000 1.15233e-12
  173 5001.93 0.00000 -5.78253e-14
  174 5001.93 0.00000 -2.76478e-13
  175 5001.93 0.00000 1.46331e-13
  176 5001.93 0.00000 -1.79982e-13
  177 5001.93 0.00000 -9.72400e-13
  178 5001.93 0.00000 2.18855e-13
  179 5001.93 0.00000 1.38847e-13
  180 5001.93 0.00000 2.49993e-13
  181 5001.93 0.00000 1.91539e-12
  182 5001.93 0.00000 -4.36519e-13
  183 5001.93 0.00000 1.20792e-12
  184 5001.93 0.00000 9.80269e-13
  185 5001.93 0.00000 -5.52707e-13
  186 5001.93 0.00000 -3.12165e-13
  187 5001.93 0.00000 -1.51369e-12
  188 5001.93 0.00000 2.46580e-14
  189 5001.93 0.00000 5.69833e-13
  190 5001.93 0.00000 4.15800e-13
  191 5001.93 0.00000 2.14361e-13
  192 5001.93 0.00000 -3.72352e-14
  193 5001.93 0.00000 7.88458e-13
  194 5001.93 0.00000 -1.43909e-13
  195 5001.93 0.00000 1.01087e-13
  196 5001.93 0.00000 7.56580e-13
  197 5001.93 0.00000 1.09403e-14
  198 5001.93 0.00000 -1.60251e-12
  199 5001.93 0.00000 4.45361e-13
  200 5001.93 0.00000 1.39517e-13
  201 5001.93 0.00000 3.86774e-13
  202 5001.93 0.00000 2.04610e-13
  203 5001.93 0.00000 1.22042e-14
  204 5001.93 0.00000 -1.44505e-12
  205 5001.93 0.00000 4.33072e-13
  206 5001.93 0.00000 -3.66142e-14
  207 5001.93 0.00000 -1.07650e-13
  208 5001.93 0.00000 -8.41176e-14
  209 5001.93 0.00000 1.18756e-12
  210 5001.93 0.00000 3.00003e-13
  211 5001.93 0.00000 -2.68633e-13
  212 5001.93 0.00000 1.34577e-12
  213 5001.93 0.00000 4.61511e-14
  214 5001.93 0.00000 -1.16542e-12
  215 5001.93 0.00000 -1.62183e-13
  216 5001.93 0.00000 1.76776e-12
  217 5001.93 0.00000 1.32882e-12
  218 5001.93 0.00000 -1.41374e-13
  219 5001.93 0.00000 5.14126e-13
  220 5001.93 0.00000 4.93969e-13
  221 5001.93 0.00000 1.09018e-12
  222 5001.93 0.00000 2.20113e-12
  223 5001.93 0.00000 -5.19789e-13
  224 5001.93 0.00000 -7.98353e-13
  225 5001.93 0.00000 -1.49090e-12
  226 5001.93 0.00000 -1.00959e-13
  227 5001.93 0.00000 -5.09848e-14
  228 5001.93 0.00000 8.02056e-13
  229 5001.93 0.00000 -4.42530e-13
  230 5001.93 0.00000 9.85309e-13
  231 5001.93 0.00000 -3.37289e-13
  232 5001.93 0.00000 7.24166e-13
  233 5001.93 0.00000 -6.33512e-13
  234 5001.93 0.00000 -1.51165e-13
  235 5001.93 0.00000 7.31615e-14
  236 5001.93 0.00000 -9.40763e-14
  237 5001.93 0.00000 6.82532e-14
  238 5001.93 0.00000 -5.46622e-13
  239 5001.93 0.00000 1.04909e-12
  240 5001.93 0.00000 1.15306e-12
  241 5001.93 0.00000 4.48532e-13
</Section>

newXOutput 108

<Section columns = "stress_xx | stress_yy | stress_xy">
  1 5051.13 0.00000 -1.98038e-13
  2 5051.13 0.00000 1.84362e-12
  3 5051.13 0.00000 9.22419e-13
  4 5051.13 0.00000 -7.60952e-15
  5 5051.13 0.00000 -2.37428e-13
  6 5051.13 0.00000 -7.66004e-15
  7 5051.13 0.00000 2.31399e-13
  8 5051.13 0.00000 5.32157e-14
  9 5051.13 0.00000 1.42239e-13
  10 5051.13 0.00000 6.51392e-13
  11 5051.13 0.00000 1.26919e-13
  12 5051.13 0.00000 4.16503e-13
  13 5051.13 0.00000 4.80839e-13
  14 5051.13 0.00000 1.91985e-12
  15 5051.13 0.00000 1.15898e-12
  16 5051.13 0.00000 2.40341e-12
  17 5051.13 0.00000 6.80553e-13
  18 5051.13 0.00000 -2.03397e-12
  19 5051.13 0.00000 -3.97181e-12
  20 5051.13 0.00000 -4.31883e-13
  21 5051.13 0.00000 -2.84477e-13
  22 5051.13 0.00000 -7.74683e-13
  23 5051.13 0.00000 7.19928e-13
  24 5051.13 0.00000 -7.19928e-13
  25 5051.13 0.00000 5.65692e-13
  26 5051.13 0.00000 1.05431e-12
  27 5051.13 0.00000 -5.16494e-14
  28 5051.13 0.00000 -3.85553e-13
  29 5051.13 0.00000 -6.87691e-15
  30 5051.13 0.00000 9.79394e-13
  31 5051.13 0.00000 2.18966e-12
  32 5051.13 0.00000 5.56958e-12
  33 5051.13 0.00000 1.16583e-12
  34 5051.13 0.00000 -2.60952e-12
  35 5051.13 0.00000 -8.30123e-13
  36 5051.13 0.00000 -9.46447e-13
  37 5051.13 0.00000 -9.86104e-13
  38 5051.13 0.00000 5.10751e-13
  39 5051.13 0.00000 2.09054e-13
  40 5051.13 0.00000 2.99177e-13
  41 5051.13 0.00000 1.38253e-12
  42 5051.13 0.00000 -3.34237e-13
  43 5051.13 0.00000 -1.30726e-13
  44 5051.13 0.00000 2.85489e-13
  45 5051.13 0.00000 6.16408e-13
  46 5051.13 0.00000 4.72930e-13
  47 5051.13 0.00000 -2.16000e-13
  48 5051.13 0.00000 2.19334e-13
  49 5051.13 0.00000 1.29466e-13
  50 5051.13 0.00000 1.69165e-14
  51 5051.13 0.00000 -1.37538e-14
  52 5051.13 0.00000 -2.39930e-14
  53 5051.13 0.00000 -9.41297e-14
  54 5051.13 0.00000 3.05325e-14
  55 5051.13 0.00000 0.00000
  56 5051.13 0.00000 -6.88270e-14
  57 5051.13 0.00000 3.52547e-13
  58 5051.13 0.00000 7.05217e-13
  59 5051.13 0.00000 3.23793e-13
  60 5051.13 0.00000 -3.49942e-13
  61 5051.13 0.00000 -3.83757e-15
  62 5051.13 0.00000 -2.72570e-13
  63 5051.13 0.00000 -9.39611e-14
  64 5051.13 0.00000 -2.28625e-12
  65 5051.13 0.00000 -1.57880e-13
  66 5051.13 0.00000 1.73968e-13
  67 5051.13 0.00000 -9.90543e-13
  68 5051.13 0.00000 -7.62671e-13
  69 5051.13 0.00000 5.58686e-13
  70 5051.13 0.00000 5.77043e-13
  71 5051.13 0.00000 -1.56417e-13
  72 5051.13 0.00000 6.12642e-14
  73 5051.13 0.00000 -1.54078e-13
  74 5051.13 0.00000 -4.74579e-13
  75 5051.13 0.00000 -5.61365e-13
  76 5051.13 0.00000 2.47869e-12
  77 5051.13 0.00000 2.60543e-13
  78 5051.13 0.00000 6.75326e-13
  79 5051.13 0.00000 -8.53054e-14
  80 5051.13 0.00000 -2.79879e-13
  81 5051.13 0.00000 -9.47390e-15
  82 5051.13 0.00000 1.25931e-12
  83 5051.13 0.00000 1.03092e-13
  84 5051.13 0.00000 -1.71415e-13
  85 5051.13 0.00000 -1.02952e-12
  86 5051.13 0.00000 6.23231e-13
  87 5051.13 0.00000 -1.80087e-13
  88 5051.13 0.00000 -1.10908e-12
  89 5051.13 0.00000 -6.13961e-14
  90 5051.13 0.00000 -5.17067e-13
  91 5051.13 0.00000 -2.67782e-13
  92 5051.13 0.00000 2.87296e-13
  93 5051.13 0.00000 8.47027e-13
  94 5051.13 0.00000 -1.26639e-13
  95 5051.13 0.00000 -7.75571e-14
  96 5051.13 0.00000 2.84145e-13
  97 5051.13 0.00000 -2.51197e-12
  98 5051.13 0.00000 -3.69917e-14
  99 5051.13 0.00000 1.81904e-13
  100 5051.13 0.00000 4.38103e-13
  101 5051.13 0.00000 3.38724e-13
  102 5051.13 0.00000 -4.96914e-13
  103 5051.13 0.00000 9.90899e-13
  104 5051.13 0.00000 3.34870e-13
  105 5051.13 0.00000 6.43739e-13
  106 5051.13 0.00000 3.48198e-13
  107 5051.13 0.00000 -4.77358e-13
  108 5051.13 0.00000 -5.97703e-14
  109 5051.13 0.00000 4.96009e-14
  110 5051.13 0.00000 -9.22454e-13
  111 5051.13 0.00000 -4.42122e-13
  112 5051.13 0.00000 4.41453e-13
  113 5051.13 0.00000 8.14084e-13
  114 5051.13 0.00000 3.69753e-13
  115 5051.13 0.00000 8.41773e-13
  116 5051.13 0.00000 2.49902e-13
  117 5051.13 0.00000 -2.03734e-12
  118 5051.13 0.00000 -8.75545e-14
  119 5051.13 0.00000 -1.16731e-12
  120 5051.13 0.00000 6.07449e-13
  121 5051.13 0.00000 4.66483e-13
  122 5051.13 0.00000 -6.03931e-13
  123 5051.13 0.00000 7.97095e-13
  124 5051.13 0.00000 -9.91360e-14
  125 5051.13 0.00000 1.99596e-13
  126 5051.13 0.00000 -2.15108e-13
  127 5051.13 0.00000 5.67985e-13
  128 5051.13 0.00000 -1.26954e-12
  129 5051.13 0.00000 -1.81796e-13
  130 5051.13 0.00000 1.03988e-13
  131 5051.13 0.00000 -5.93428e-13
  132 5051.13 0.00000 1.02670e-13
  133 5051.13 0.00000 -1.10460e-12
  134 5051.13 0.00000 -2.75506e-13
  135 5051.13 0.00000 -5.61830e-13
  136 5051.13 0.00000 -1.04870e-13
  137 5051.13 0.00000 -3.72431e-13
  138 5051.13 0.00000 6.74191e-13
  139 5051.13 0.00000 2.72032e-13
  140 5051.13 0.00000 1.91779e-12
  141 5051.13 0.00000 2.89244e-13
  142 5051.13 0.00000 3.63809e-13
  143 5051.13 0.00000 2.08720e-13
  144 5051.13 0.00000 1.09257e-12
  145 5051.13 0.00000 2.03764e-13
  146 5051.13 0.00000 7.26204e-14
  147 5051.13 0.00000 5.66675e-14
  148 5051.13 0.00000 -8.04627e-14
  149 5051.13 0.00000 1.75419e-12
  150 5051.13 0.00000 1.11190e-12
  151 5051.13 0.00000 9.46669e-14
  152 5051.13 0.00000 -1.79361e-12
  153 5051.13 0.00000 -7.67347e-14
  154 5051.13 0.00000 5.81647e-13
  155 5051.13 0.00000 -1.18420e-13
  156 5051.13 0.00000 -1.12784e-12
  157 5051.13 0.00000 6.23321e-14
  158 5051.13 0.00000 -1.24335e-13
  159 5051.13 0.00000 -2.79893e-13
  160 5051.13 0.00000 9.80656e-14
  161 5051.13 0.00000 -3.31867e-13
  162 5051.13 0.00000 -3.81386e-14
  163 5051.13 0.00000 -5.33425e-13
  164 5051.13 0.00000 6.64438e-14
  165 5051.13 0.00000 -2.54971e-17
  166 5051.13 0.00000 -7.25621e-14
  167 5051.13 0.00000 -5.76199e-14
  168 5051.13 0.00000 -1.02731e-13
  169 5051.13 0.00000 1.09763e-13
  170 5051.13 0.00000 2.36095e-13
  171 5051.13 0.00000 1.62714e-13
  172 5051.13 0.00000 3.14452e-13
  173 5051.13 0.00000 -1.56941e-13
  174 5051.13 0.00000 -7.63178e-13
  175 5051.13 0.00000 -8.14244e-14
  176 5051.13 0.00000 -2.01998e-13
  177 5051.13 0.00000 7.66964e-13
  178 5051.13 0.00000 4.58783e-13
  179 5051.13 0.00000 3.99122e-13
  180 5051.13 0.00000 3.84423e-13
  181 5051.13 0.00000 -1.07971e-13
  182 5051.13 0.00000 6.16932e-14
  183 5051.13 0.00000 -8.40902e-14
  184 5051.13 0.00000 -4.15384e-13
  185 5051.13 0.00000 -6.59002e-14
  186 5051.13 0.00000 9.55421e-13
  187 5051.13 0.00000 1.32413e-12
  188 5051.13 0.00000 -2.47233e-13
  189 5051.13 0.00000 3.57347e-13
  190 5051.13 0.00000 -2.86624e-13
  191 5051.13 0.00000 -3.81462e-14
  192 5051.13 0.00000 4.54597e-13
  193 5051.13 0.00000 9.84469e-13
  194 5051.13 0.00000 9.05416e-13
  195 5051.13 0.00000 -1.64931e-13
  196 5051.13 0.00000 -1.97136e-12
  197 5051.13 0.00000 2.02129e-13
  198 5051.13 0.00000 -1.50902e-12
  199 5051.13 0.00000 1.17698e-13
  200 5051.13 0.00000 1.75725e-12
  201 5051.13 0.00000 4.06409e-14
  202 5051.13 0.00000 8.32189e-14
  203 5051.13 0.00000 -4.28545e-13
  204 5051.13 0.00000 4.36934e-13
  205 5051.13 0.00000 7.12910e-13
  206 5051.13 0.00000 -1.34932e-12
  207 5051.13 0.00000 -4.83876e-14
  208 5051.13 0.00000 -7.82983e-13
  209 5051.13 0.00000 7.08583e-14
  210 5051.13 0.00000 -9.01553e-14
  211 5051.13 0.00000 -1.28952e-13
  212 5051.13 0.00000 -7.05519e-13
  213 5051.13 0.00000 -1.37121e-13
  214 5051.13 0.00000 1.77418e-13
  215 5051.13 0.00000 6.29648e-13
  216 5051.13 0.00000 -6.81511e-13
  217 5051.13 0.00000 -9.46113e-13
  218 5051.13 0.00000 -1.98532e-13
  219 5051.13 0.00000 -3.67192e-13
  220 5051.13 0.00000 -5.73832e-15
  221 5051.13 0.00000 -2.84247e-13
  222 5051.13 0.00000 -3.64607e-13
  223 5051.13 0.00000 -6.11896e-15
  224 5051.13 0.00000 -4.93675e-13
  225 5051.13 0.00000 -3.68568e-14
  226 5051.13 0.00000 -2.91968e-14
  227 5051.13 0.00000 -2.87061e-13
  228 5051.13 0.00000 9.84477e-13
  229 5051.13 0.00000 5.71808e-14
  230 5051.13 0.00000 2.11258e-12
  231 5051.13 0.00000 -1.36319e-13
  232 5051.13 0.00000 -1.81204e-13
  233 5051.13 0.00000 -1.86518e-12
  234 5051.13 0.00000 -1.77849e-13
  235 5051.13 0.00000 8.94597e-13
  236 5051.13 0.00000 -1.07783e-13
  237 5051.13 0.00000 -1.02556e-12
  238 5051.13 0.00000 3.73338e-13
  239 5051.13 0.00000 6.17355e-13
  240 5051.13 0.00000 1.04290e-12
  241 5051.13 0.00000 -1.46084e-13
</Section>

newXOutput 109

<Section columns = "stress_xx | stress_yy | stress_xy">
  1 5100.42 0.00000 1.03143e-13
  2 5100.42 0.00000 2.04352e-12
  3 5100.42 0.00000 -6.73971e-13
  4 5100.42 0.00000 1.38537e-13
  5 5100.42 0.00000 5.02532e-13
  6 5100.42 0.00000 9.55251e-13
  7 5100.42 0.00000 5.34757e-13
  8 5100.42 0.00000 4.12570e-13
  9 5100.42 0.00000 3.65978e-13
  10 5100.42 0.00000 2.24264e-13
  11 5100.42 0.00000 -7.61747e-14
  12 5100.42 0.00000 -1.07480e-12
  13 5100.42 0.00000 -5.15713e-13
  14 5100.42 0.00000 -1.81320e-12
  15 5100.42 0.00000 1.14210e-13
  16 5100.42 0.00000 1.34340e-12
  17 5100.42 0.00000 -1.94750e-13
  18 5100.42 0.00000 4.37962e-13
  19 5100.42 0.00000 -1.76241e-12
  20 5100.42 0.00000 -3.39625e-12
  21 5100.42 0.00000 -5.16116e-12
  22 5100.42 0.00000 -2.68680e-12
  23 5100.42 0.00000 1.06835e-12
  24 5100.42 0.00000 3.74291e-13
  25 5100.42 0.00000 0.00000
  26 5100.42 0.00000 1.61419e-12
  27 5100.42 0.00000 -5.37363e-13
  28 5100.42 0.00000 -7.04703e-13
  29 5100.42 0.00000 -2.09664e-13
  30 5100.42 0.00000 -3.30960e-13
  31 5100.42 0.00000 -1.04577e-12
  32 5100.42 0.00000 -1.91191e-12
  33 5100.42 0.00000 2.91088e-13
  34 5100.42 0.00000 6.61025e-13
  35 5100.42 0.00000 1.08550e-12
  36 5100.42 0.00000 -1.83225e-12
  37 5100.42 0.00000 -2.76374e-13
  38 5100.42 0.00000 9.26287e-13
  39 5100.42 0.00000 -1.16026e-12
  40 5100.42 0.00000 7.18612e-13
  41 5100.42 0.00000 1.21168e-12
  42 5100.42 0.00000 9.40079e-14
  43 5100.42 0.00000 1.10326e-13
  44 5100.42 0.00000 2.22181e-13
  45 5100.42 0.00000 -2.32632e-13
  46 5100.42 0.00000 -1.13881e-12
  47 5100.42 0.00000 -5.89256e-13
  48 5100.42 0.00000 -2.45832e-13
  49 5100.42 0.00000 2.15493e-14
  50 5100.42 0.00000 -7.31099e-14
  51 5100.42 0.00000 0.00000
  52 5100.42 0.00000 8.73306e-14
  53 5100.42 0.00000 2.24107e-13
  54 5100.42 0.00000 -2.76900e-13
  55 5100.42 0.00000 0.00000
  56 5100.42 0.00000 3.63961e-13
  57 5100.42 0.00000 -4.27063e-13
  58 5100.42 0.00000 -2.20822e-12
  59 5100.42 0.00000 1.18798e-15
  60 5100.42 0.00000 -9.35312e-14
  61 5100.42 0.00000 3.86694e-13
  62 5100.42 0.00000 -5.05928e-13
  63 5100.42 0.00000 -7.62849e-13
  64 5100.42 0.00000 1.35166e-12
  65 5100.42 0.00000 7.49839e-13
  66 5100.42 0.00000 2.05801e-13
  67 5100.42 0.00000 1.77849e-12
  68 5100.42 0.00000 -1.34454e-13
  69 5100.42 0.00000 1.73645e-13
  70 5100.42 0.00000 -5.54582e-14
  71 5100.42 0.00000 1.03686e-13
  72 5100.42 0.00000 4.77961e-13
  73 5100.42 0.00000 1.40801e-12
  74 5100.42 0.00000 -1.53490e-13
  75 5100.42 0.00000 3.68076e-13
  76 5100.42 0.00000 -2.68690e-12
  77 5100.42 0.00000 -1.55029e-13
  78 5100.42 0.00000 -3.47693e-13
  79 5100.42 0.00000 -6.79064e-13
  80 5100.42 0.00000 -4.29575e-13
  81 5100.42 0.00000 -1.74991e-12
  82 5100.42 0.00000 -8.32657e-13
  83 5100.42 0.00000 5.17757e-13
  84 5100.42 0.00000 3.89499e-13
  85 5100.42 0.00000 7.28813e-13
  86 5100.42 0.00000 1.62891e-14
  87 5100.42 0.00000 -3.15653e-13
  88 5100.42 0.00000 -5.24718e-13
  89 5100.42 0.00000 2.81945e-13
  90 5100.42 0.00000 3.85568e-13
  91 5100.42 0.00000 -1.02009e-12
  92 5100.42 0.00000 -2.78594e-13
  93 5100.42 0.00000 -1.39685e-12
  94 5100.42 0.00000 8.55052e-13
  95 5100.42 0.00000 -1.30851e-13
  96 5100.42 0.00000 2.49655e-13
  97 5100.42 0.00000 2.24732e-12
  98 5100.42 0.00000 -2.88799e-13
  99 5100.42 0.00000 1.04754e-13
  100 5100.42 0.00000 5.83938e-13
  101 5100.42 0.00000 4.83162e-14
  102 5100.42 0.00000 -1.62710e-12
  103 5100.42 0.00000 1.52828e-12
  104 5100.42 0.00000 2.38735e-13
  105 5100.42 0.00000 2.19469e-13
  106 5100.42 0.00000 7.34209e-13
  107 5100.42 0.00000 9.71599e-13
  108 5100.42 0.00000 1.87565e-13
  109 5100.42 0.00000 -4.56342e-13
  110 5100.42 0.00000 1.06751e-12
  111 5100.42 0.00000 -4.28357e-13
  112 5100.42 0.00000 -8.92556e-13
  113 5100.42 0.00000 -1.16577e-12
  114 5100.42 0.00000 -1.24989e-12
  115 5100.42 0.00000 8.38184e-14
  116 5100.42 0.00000 2.58329e-13
  117 5100.42 0.00000 3.25756e-13
  118 5100.42 0.00000 2.16774e-13
  119 5100.42 0.00000 3.08172e-13
  120 5100.42 0.00000 -1.06543e-13
  121 5100.42 0.00000 -3.19242e-14
  122 5100.42 0.00000 2.01272e-14
  123 5100.42 0.00000 4.78811e-13
  124 5100.42 0.00000 1.06268e-12
  125 5100.42 0.00000 3.42079e-13
  126 5100.42 0.00000 2.67518e-13
  127 5100.42 0.00000 6.10219e-13
  128 5100.42 0.00000 1.00068e-12
  129 5100.42 0.00000 -3.92520e-13
  130 5100.42 0.00000 -1.08513e-12
  131 5100.42 0.00000 -8.14934e-13
  132 5100.42 0.00000 3.29342e-13
  133 5100.42 0.00000 -1.20639e-13
  134 5100.42 0.00000 4.33038e-13
  135 5100.42 0.00000 -1.14450e-12
  136 5100.42 0.00000 -3.88972e-13
  137 5100.42 0.00000 1.17925e-12
  138 5100.42 0.00000 -1.23632e-12
  139 5100.42 0.00000 -5.44903e-13
  140 5100.42 0.00000 -1.82926e-12
  141 5100.42 0.00000 -1.53402e-13
  142 5100.42 0.00000 3.76578e-13
  143 5100.42 0.00000 -2.24356e-13
  144 5100.42 0.00000 1.39544e-12
  145 5100.42 0.00000 -5.50612e-13
  146 5100.42 0.00000 -3.25608e-13
  147 5100.42 0.00000 -6.49965e-13
  148 5100.42 0.00000 -1.07491e-13
  149 5100.42 0.00000 -1.68307e-12
  150 5100.42 0.00000 1.29660e-12
  151 5100.42 0.00000 7.22640e-13
  152 5100.42 0.00000 -2.92574e-12
  153 5100.42 0.00000 2.83512e-13
  154 5100.42 0.00000 6.91887e-13
  155 5100.42 0.00000 4.44836e-13
  156 5100.42 0.00000 2.00193e-13
  157 5100.42 0.00000 1.52522e-13
  158 5100.42 0.00000 -1.81013e-12
  159 5100.42 0.00000 -7.50088e-13
  160 5100.42 0.00000 4.26251e-13
  161 5100.42 0.00000 2.12291e-12
  162 5100.42 0.00000 6.38090e-13
  163 5100.42 0.00000 -1.72327e-12
  164 5100.42 0.00000 2.00812e-13
  165 5100.42 0.00000 1.92502e-13
  166 5100.42 0.00000 -1.14973e-13
  167 5100.42 0.00000 -1.23228e-12
  168 5100.42 0.00000 -4.32971e-13
  169 5100.42 0.00000 2.48582e-13
  170 5100.42 0.00000 2.14952e-12
  171 5100.42 0.00000 -4.52922e-13
  172 5100.42 0.00000 -1.60058e-12
  173 5100.42 0.00000 -7.22243e-13
  174 5100.42 0.00000 1.66968e-12
  175 5100.42 0.00000 -1.40634e-14
  176 5100.42 0.00000 3.59990e-13
  177 5100.42 0.00000 1.81083e-13
  178 5100.42 0.00000 2.06207e-14
  179 5100.42 0.00000 3.35450e-13
  180 5100.42 0.00000 -2.39347e-13
  181 5100.42 0.00000 -1.59388e-12
  182 5100.42 0.00000 -1.08173e-12
  183 5100.42 0.00000 -1.02641e-12
  184 5100.42 0.00000 1.02311e-12
  185 5100.42 0.00000 5.76667e-13
  186 5100.42 0.00000 -1.00540e-12
  187 5100.42 0.00000 -2.48102e-13
  188 5100.42 0.00000 -2.25655e-13
  189 5100.42 0.00000 -9.63974e-14
  190 5100.42 0.00000 -2.96365e-13
  191 5100.42 0.00000 7.09094e-13
  192 5100.42 0.00000 -2.38419e-13
  193 5100.42 0.00000 -6.40227e-13
  194 5100.42 0.00000 -1.53216e-12
  195 5100.42 0.00000 2.77903e-13
  196 5100.42 0.00000 8.08911e-13
  197 5100.42 0.00000 -2.29019e-14
  198 5100.42 0.00000 5.59568e-13
  199 5100.42 0.00000 -1.29019e-13
  200 5100.42 0.00000 -2.37868e-12
  201 5100.42 0.00000 6.11942e-13
  202 5100.42 0.00000 1.61073e-12
  203 5100.42 0.00000 4.91932e-13
  204 5100.42 0.00000 8.56280e-13
  205 5100.42 0.00000 4.04864e-14
  206 5100.42 0.00000 -9.92506e-14
  207 5100.42 0.00000 -3.13186e-13
  208 5100.42 0.00000 5.79525e-13
  209 5100.42 0.00000 -1.16951e-12
  210 5100.42 0.00000 -2.55233e-13
  211 5100.42 0.00000 3.51835e-13
  212 5100.42 0.00000 2.84933e-13
  213 5100.42 0.00000 -1.46250e-13
  214 5100.42 0.00000 4.19200e-13
  215 5100.42 0.00000 4.55741e-13
  216 5100.42 0.00000 -8.46275e-13
  217 5100.42 0.00000 1.59236e-12
  218 5100.42 0.00000 1.90051e-13
  219 5100.42 0.00000 7.62849e-13
  220 5100.42 0.00000 -1.17635e-13
  221 5100.42 0.00000 4.99311e-13
  222 5100.42 0.00000 -4.05110e-12
  223 5100.42 0.00000 -5.01527e-14
  224 5100.42 0.00000 5.23040e-13
  225 5100.42 0.00000 2.23613e-12
  226 5100.42 0.00000 4.22776e-13
  227 5100.42 0.00000 -6.12603e-13
  228 5100.42 0.00000 -7.99994e-14
  229 5100.42 0.00000 -3.29592e-13
  230 5100.42 0.00000 -1.25602e-12
  231 5100.42 0.00000 6.15801e-13
  232 5100.42 0.00000 5.07223e-13
  233 5100.42 0.00000 -2.17884e-13
  234 5100.42 0.00000 2.85703e-13
  235 5100.42 0.00000 6.55025e-13
  236 5100.42 0.00000 3.40750e-14
  237 5100.42 0.00000 -8.11117e-15
  238 5100.42 0.00000 -5.26859e-13
  239 5100.42 0.00000 -2.45382e-12
  240 5100.42 0.00000 -6.58719e-13
  241 5100.42 0.00000 1.88402e-12
</Section>

newXOutput 110

<Section columns = "stress_xx | stress_yy | stress_xy">
  1 5149.79 0.00000 -5.80531e-13
  2 5149.79 0.00000 -1.45982e-12
  3 5149.79 0.00000 -1.98186e-13
  4 5149.79 0.00000 -1.06822e-13
  5 5149.79 0.00000 -8.96469e-13
  6 5149.79 0.00000 -8.27510e-13
  7 5149.79 0.00000 -4.36990e-13
  8 5149.79 0.00000 -5.77149e-14
  9 5149.79 0.00000 1.64653e-13
  10 5149.79 0.00000 7.16326e-13
  11 5149.79 0.00000 1.37918e-13
  12 5149.79 0.00000 -1.00765e-12
  13 5149.79 0.00000 -2.70214e-13
  14 5149.79 0.00000 5.51673e-13
  15 5149.79 0.00000 -1.91660e-12
  16 5149.79 0.00000 -2.29468e-12
  17 5149.79 0.00000 -1.31809e-12
  18 5149.79 0.00000 9.92163e-13
  19 5149.79 0.00000 -1.11184e-13
  20 5149.79 0.00000 -2.13765e-12
  21 5149.79 0.00000 -1.26462e-12
  22 5149.79 0.00000 2.92246e-12
  23 5149.79 0.00000 2.60579e-13
  24 5149.79 0.00000 5.09532e-13
  25 5149.79 0.00000 -3.61973e-13
  26 5149.79 0.00000 -1.27364e-12
  27 5149.79 0.00000 -1.09950e-14
  28 5149.79 0.00000 6.93781e-13
  29 5149.79 0.00000 1.95197e-13
  30 5149.79 0.00000 4.85200e-13
  31 5149.79 0.00000 1.03656e-12
  32 5149.79 0.00000 5.63969e-12
  33 5149.79 0.00000 2.52933e-12
  34 5149.79 0.00000 -2.87971e-13
  35 5149.79 0.00000 1.72386e-12
  36 5149.79 0.00000 2.98462e-12
  37 5149.79 0.00000 8.18531e-13
  38 5149.79 0.00000 -1.70985e-12
  39 5149.79 0.00000 -8.69049e-13
  40 5149.79 0.00000 -6.39979e-14
  41 5149.79 0.00000 3.82104e-13
  42 5149.79 0.00000 2.58682e-13
  43 5149.79 0.00000 -4.54271e-14
  44 5149.79 0.00000 4.99217e-13
  45 5149.79 0.00000 2.98720e-13
  46 5149.79 0.00000 -3.12274e-13
  47 5149.79 0.00000 4.40686e-13
  48 5149.79 0.00000 7.05725e-13
  49 5149.79 0.00000 1.98273e-13
  50 5149.79 0.00000 1.97077e-13
  51 5149.79 0.00000 9.75987e-14
  52 5149.79 0.00000 -6.20211e-14
  53 5149.79 0.00000 -1.34025e-13
  54 5149.79 0.00000 -1.65397e-13
  55 5149.79 0.00000 -5.00327e-13
  56 5149.79 0.00000 -2.16419e-13
  57 5149.79 0.00000 -9.66799e-14
  58 5149.79 0.00000 2.37742e-12
  59 5149.79 0.00000 1.62302e-13
  60 5149.79 0.00000 3.83077e-13
  61 5149.79 0.00000 3.33375e-13
  62 5149.79 0.00000 1.41041e-13
  63 5149.79 0.00000 8.73233e-14
  64 5149.79 0.00000 -1.14741e-12
  65 5149.79 0.00000 -8.95784e-14
  66 5149.79 0.00000 1.23391e-13
  67 5149.79 0.00000 -5.81290e-16
  68 5149.79 0.00000 -4.07873e-13
  69 5149.79 0.00000 1.82498e-13
  70 5149.79 0.00000 1.24791e-13
  71 5149.79 0.00000 -2.42273e-13
  72 5149.79 0.00000 -6.23625e-14
  73 5149.79 0.00000 -3.24061e-13
  74 5149.79 0.00000 -1.39943e-13
  75 5149.79 0.00000 -1.31004e-13
  76 5149.79 0.00000 1.44786e-12
  77 5149.79 0.00000 -3.46742e-13
  78 5149.79 0.00000 1.12732e-12
  79 5149.79 0.00000 -4.64500e-13
  80 5149.79 0.00000 1.33215e-13
  81 5149.79 0.00000 7.92028e-13
  82 5149.79 0.00000 7.00987e-13
  83 5149.79 0.00000 -2.05741e-13
  84 5149.79 0.00000 2.04822e-13
  85 5149.79 0.00000 5.45792e-13
  86 5149.79 0.00000 1.31977e-12
  87 5149.79 0.00000 2.47653e-13
  88 5149.79 0.00000 -2.47657e-12
  89 5149.79 0.00000 3.49381e-13
  90 5149.79 0.00000 6.11200e-13
  91 5149.79 0.00000 -6.31895e-13
  92 5149.79 0.00000 -9.30949e-14
  93 5149.79 0.00000 -1.19055e-12
  94 5149.79 0.00000 1.17561e-13
  95 5149.79 0.00000 -1.35279e-12
  96 5149.79 0.00000 -4.46437e-14
  97 5149.79 0.00000 1.06211e-12
  98 5149.79 0.00000 5.76157e-14
  99 5149.79 0.00000 4.44300e-13
  100 5149.79 0.00000 -4.89367e-13
  101 5149.79 0.00000 7.33545e-13
  102 5149.79 0.00000 5.99839e-13
  103 5149.79 0.00000 -1.27527e-12
  104 5149.79 0.00000 -1.11169e-13
  105 5149.79 0.00000 -6.58370e-13
  106 5149.79 0.00000 7.45183e-13
  107 5149.79 0.00000 -2.24937e-13
  108 5149.79 0.00000 -4.54183e-13
  109 5149.79 0.00000 1.18221e-13
  110 5149.79 0.00000 2.24670e-12
  111 5149.79 0.00000 -5.01808e-13
  112 5149.79 0.00000 1.18349e-13
  113 5149.79 0.00000 1.18842e-13
  114 5149.79 0.00000 1.44635e-12
  115 5149.79 0.00000 8.36929e-13
  116 5149.79 0.00000 -5.99638e-14
  117 5149.79 0.00000 6.25343e-13
  118 5149.79 0.00000 -3.13310e-13
  119 5149.79 0.00000 7.89083e-14
  120 5149.79 0.00000 1.18843e-12
  121 5149.79 0.00000 3.59306e-13
  122 5149.79 0.00000 -5.29701e-13
  123 5149.79 0.00000 -2.24345e-13
  124 5149.79 0.00000 -3.64908e-13
  125 5149.79 0.00000 1.44912e-13
  126 5149.79 0.00000 -1.14093e-13
  127 5149.79 0.00000 4.26859e-13
  128 5149.79 0.00000 -2.27451e-14
  129 5149.79 0.00000 -2.29389e-14
  130 5149.79 0.00000 2.10838e-13
  131 5149.79 0.00000 -2.18272e-13
  132 5149.79 0.00000 -2.61166e-13
  133 5149.79 0.00000 1.96830e-13
  134 5149.79 0.00000 -1.65991e-13
  135 5149.79 0.00000 1.13274e-12
  136 5149.79 0.00000 9.63396e-14
  137 5149.79 0.00000 -2.41468e-13
  138 5149.79 0.00000 -4.02864e-13
  139 5149.79 0.00000 2.94427e-14
  140 5149.79 0.00000 5.44438e-13
  141 5149.79 0.00000 -2.00845e-14
  142 5149.79 0.00000 2.70038e-13
  143 5149.79 0.00000 -2.95099e-13
  144 5149.79 0.00000 -9.25927e-14
  145 5149.79 0.00000 1.31574e-12
  146 5149.79 0.00000 -2.08591e-13
  147 5149.79 0.00000 5.68304e-14
  148 5149.79 0.00000 1.02411e-13
  149 5149.79 0.00000 1.52167e-12
  150 5149.79 0.00000 1.15173e-12
  151 5149.79 0.00000 1.55355e-13
  152 5149.79 0.00000 2.97955e-12
  153 5149.79 0.00000 -5.82586e-13
  154 5149.79 0.00000 4.18508e-13
  155 5149.79 0.00000 1.26331e-12
  156 5149.79 0.00000 4.33484e-13
  157 5149.79 0.00000 -3.35031e-13
  158 5149.79 0.00000 2.27216e-13
  159 5149.79 0.00000 -3.47230e-13
  160 5149.79 0.00000 -2.91964e-13
  161 5149.79 0.00000 -3.43487e-14
  162 5149.79 0.00000 -1.45755e-12
  163 5149.79 0.00000 -3.78574e-13
  164 5149.79 0.00000 -5.87555e-13
  165 5149.79 0.00000 -6.39989e-14
  166 5149.79 0.00000 2.60811e-13
  167 5149.79 0.00000 4.32893e-13
  168 5149.79 0.00000 8.96649e-13
  169 5149.79 0.00000 -1.20636e-13
  170 5149.79 0.00000 -7.33552e-13
  171 5149.79 0.00000 6.45216e-13
  172 5149.79 0.00000 -7.69637e-14
  173 5149.79 0.00000 -2.06475e-13
  174 5149.79 0.00000 -5.59242e-13
  175 5149.79 0.00000 2.16645e-13
  176 5149.79 0.00000 -2.61421e-13
  177 5149.79 0.00000 -1.67810e-12
  178 5149.79 0.00000 3.69401e-14
  179 5149.79 0.00000 -1.95459e-13
  180 5149.79 0.00000 -4.49761e-13
  181 5149.79 0.00000 2.37947e-12
  182 5149.79 0.00000 5.62710e-13
  183 5149.79 0.00000 -1.37129e-13
  184 5149.79 0.00000 -1.42088e-12
  185 5149.79 0.00000 -4.29698e-14
  186 5149.79 0.00000 -1.38142e-13
  187 5149.79 0.00000 3.95976e-13
  188 5149.79 0.00000 3.24952e-13
  189 5149.79 0.00000 4.71171e-13
  190 5149.79 0.00000 -6.49233e-13
  191 5149.79 0.00000 -2.64525e-13
  192 5149.79 0.00000 3.28554e-14
  193 5149.79 0.00000 2.15734e-12
  194 5149.79 0.00000 -3.39148e-13
  195 5149.79 0.00000 2.38274e-13
  196 5149.79 0.00000 5.78015e-13
  197 5149.79 0.00000 1.52931e-14
  198 5149.79 0.00000 1.46930e-12
  199 5149.79 0.00000 3.65352e-14
  200 5149.79 0.00000 -1.70314e-12
  201 5149.79 0.00000 -1.06734e-12
  202 5149.79 0.00000 -1.38385e-12
  203 5149.79 0.00000 1.17024e-13
  204 5149.79 0.00000 1.05196e-13
  205 5149.79 0.00000 -3.56175e-13
  206 5149.79 0.00000 -1.03205e-12
  207 5149.79 0.00000 -1.15061e-14
  208 5149.79 0.00000 9.98058e-13
  209 5149.79 0.00000 3.46633e-13
  210 5149.79 0.00000 2.75580e-13
  211 5149.79 0.00000 -1.90601e-13
  212 5149.79 0.00000 1.53783e-12
  213 5149.79 0.00000 2.75461e-13
  214 5149.79 0.00000 -5.66883e-13
  215 5149.79 0.00000 -1.02970e-12
  216 5149.79 0.00000 -3.74435e-13
  217 5149.79 0.00000 -8.26331e-13
  218 5149.79 0.00000 1.56050e-13
  219 5149.79 0.00000 1.25299e-12
  220 5149.79 0.00000 1.31881e-13
  221 5149.79 0.00000 2.26111e-13
  222 5149.79 0.00000 1.83067e-12
  223 5149.79 0.00000 1.56208e-13
  224 5149.79 0.00000 -6.69669e-15
  225 5149.79 0.00000 6.53106e-13
  226 5149.79 0.00000 4.37115e-14
  227 5149.79 0.00000 8.79426e-13
  228 5149.79 0.00000 -6.05435e-14
  229 5149.79 0.00000 2.52757e-13
  230 5149.79 0.00000 2.12216e-12
  231 5149.79 0.00000 4.32082e-13
  232 5149.79 0.00000 -1.73379e-13
  233 5149.79 0.00000 1.60890e-12
  234 5149.79 0.00000 -3.49374e-13
  235 5149.79 0.00000 -2.33120e-13
  236 5149.79 0.00000 1.91200e-13
  237 5149.79 0.00000 -1.19529e-12
  238 5149.79 0.00000 7.94195e-13
  239 5149.79 0.00000 6.87494e-13
  240 5149.79 0.00000 1.72249e-13
  241 5149.79 0.00000 -9.27097e-13
</Section>

newXOutput 111

<Section columns = "stress_xx | stress_yy | stress_xy">
  1 5199.24 0.00000 -2.74062e-14
  2 5199.24 0.00000 1.52287e-12
  3 5199.24 0.00000 1.36842e-12
  4 5199.24 0.00000 -1.16341e-13
  5 5199.24 0.00000 -4.54097e-13
  6 5199.24 0.00000 1.93772e-13
  7 5199.24 0.00000 6.08214e-13
  8 5199.24 0.00000 5.34319e-13
  9 5199.24 0.00000 6.82448e-13
  10 5199.24 0.00000 8.49524e-13
  11 5199.24 0.00000 1.67875e-12
  12 5199.24 0.00000 2.22816e-12
  13 5199.24 0.00000 7.63313e-14
  14 5199.24 0.00000 -1.51167e-12
  15 5199.24 0.00000 1.41903e-13
  16 5199.24 0.00000 3.78956e-14
  17 5199.24 0.00000 4.06491e-13
  18 5199.24 0.00000 -3.30700e-13
  19 5199.24 0.00000 -1.06864e-12
  20 5199.24 0.00000 1.84582e-12
  21 5199.24 0.00000 1.16128e-12
  22 5199.24 0.00000 1.38669e-12
  23 5199.24 0.00000 3.00995e-12
  24 5199.24 0.00000 -5.89063e-13
  25 5199.24 0.00000 0.00000
  26 5199.24 0.00000 1.78108e-13
  27 5199.24 0.00000 -1.33055e-13
  28 5199.24 0.00000 2.23357e-13
  29 5199.24 0.00000 -1.93772e-13
  30 5199.24 0.00000 -1.10217e-12
  31 5199.24 0.00000 3.44144e-12
  32 5199.24 0.00000 -5.28911e-13
  33 5199.24 0.00000 -1.58363e-12
  34 5199.24 0.00000 -3.58103e-12
  35 5199.24 0.00000 -1.75482e-13
  36 5199.24 0.00000 1.03288e-12
  37 5199.24 0.00000 -1.42493e-12
  38 5199.24 0.00000 -1.71002e-13
  39 5199.24 0.00000 -2.72127e-13
  40 5199.24 0.00000 -5.97301e-13
  41 5199.24 0.00000 -1.58515e-14
  42 5199.24 0.00000 6.31233e-13
  43 5199.24 0.00000 1.09918e-12
  44 5199.24 0.00000 1.02414e-12
  45 5199.24 0.00000 1.31735e-13
  46 5199.24 0.00000 -9.15342e-13
  47 5199.24 0.00000 -7.67146e-13
  48 5199.24 0.00000 2.00213e-13
  49 5199.24 0.00000 -2.70514e-14
  50 5199.24 0.00000 3.72100e-14
  51 5199.24 0.00000 0.00000
  52 5199.24 0.00000 2.59344e-14
  53 5199.24 0.00000 6.91583e-14
  54 5199.24 0.00000 2.10888e-13
  55 5199.24 0.00000 6.09737e-13
  56 5199.24 0.00000 5.74125e-13
  57 5199.24 0.00000 1.82494e-14
  58 5199.24 0.00000 -2.15359e-13
  59 5199.24 0.00000 1.41798e-13
  60 5199.24 0.00000 -1.17066e-12
  61 5199.24 0.00000 -4.05493e-13
  62 5199.24 0.00000 -1.11350e-12
  63 5199.24 0.00000 -5.81336e-13
  64 5199.24 0.00000 -3.41588e-13
  65 5199.24 0.00000 2.88727e-13
  66 5199.24 0.00000 -2.84162e-13
  67 5199.24 0.00000 -2.12865e-13
  68 5199.24 0.00000 1.29997e-12
  69 5199.24 0.00000 -2.75672e-12
  70 5199.24 0.00000 -5.20149e-13
  71 5199.24 0.00000 1.56780e-13
  72 5199.24 0.00000 2.68338e-13
  73 5199.24 0.00000 -2.02737e-13
  74 5199.24 0.00000 1.02741e-14
  75 5199.24 0.00000 1.27182e-12
  76 5199.24 0.00000 -7.25781e-13
  77 5199.24 0.00000 3.42535e-13
  78 5199.24 0.00000 -1.54455e-12
  79 5199.24 0.00000 -1.12100e-13
  80 5199.24 0.00000 -2.95242e-13
  81 5199.24 0.00000 -2.09750e-13
  82 5199.24 0.00000 6.60023e-13
  83 5199.24 0.00000 2.09120e-13
  84 5199.24 0.00000 -1.57907e-13
  85 5199.24 0.00000 1.19817e-12
  86 5199.24 0.00000 -1.93078e-13
  87 5199.24 0.00000 -1.58231e-13
  88 5199.24 0.00000 -4.85907e-12
  89 5199.24 0.00000 3.56330e-15
  90 5199.24 0.00000 -7.54871e-13
  91 5199.24 0.00000 -8.64103e-13
  92 5199.24 0.00000 -3.99349e-13
  93 5199.24 0.00000 2.72762e-13
  94 5199.24 0.00000 -1.23061e-13
  95 5199.24 0.00000 3.09490e-14
  96 5199.24 0.00000 -6.35498e-13
  97 5199.24 0.00000 -8.63193e-13
  98 5199.24 0.00000 -1.50297e-13
  99 5199.24 0.00000 4.30654e-13
  100 5199.24 0.00000 8.60016e-13
  101 5199.24 0.00000 1.27802e-13
  102 5199.24 0.00000 -2.11367e-13
  103 5199.24 0.00000 -7.64688e-13
  104 5199.24 0.00000 -1.70047e-13
  105 5199.24 0.00000 -1.63689e-12
  106 5199.24 0.00000 2.94274e-13
  107 5199.24 0.00000 -5.35964e-13
  108 5199.24 0.00000 9.62646e-14
  109 5199.24 0.00000 1.51110e-13
  110 5199.24 0.00000 9.08745e-13
  111 5199.24 0.00000 -1.92337e-12
  112 5199.24 0.00000 -3.42918e-13
  113 5199.24 0.00000 2.05685e-13
  114 5199.24 0.00000 -6.12431e-13
  115 5199.24 0.00000 4.40833e-13
  116 5199.24 0.00000 6.00500e-13
  117 5199.24 0.00000 6.83060e-13
  118 5199.24 0.00000 7.35964e-14
  119 5199.24 0.00000 -8.58327e-14
  120 5199.24 0.00000 -2.22420e-12
  121 5199.24 0.00000 -1.82878e-13
  122 5199.24 0.00000 -1.05706e-13
  123 5199.24 0.00000 -1.05828e-12
  124 5199.24 0.00000 8.55039e-13
  125 5199.24 0.00000 -2.58797e-13
  126 5199.24 0.00000 -1.89414e-14
  127 5199.24 0.00000 9.93169e-13
  128 5199.24 0.00000 5.18941e-13
  129 5199.24 0.00000 1.53713e-13
  130 5199.24 0.00000 -3.06927e-13
  131 5199.24 0.00000 1.38797e-12
  132 5199.24 0.00000 -4.37266e-13
  133 5199.24 0.00000 -2.48860e-13
  134 5199.24 0.00000 -1.60474e-13
  135 5199.24 0.00000 6.12347e-13
  136 5199.24 0.00000 -2.27314e-13
  137 5199.24 0.00000 -1.17667e-12
  138 5199.24 0.00000 -2.05183e-13
  139 5199.24 0.00000 2.43821e-13
  140 5199.24 0.00000 -1.91289e-13
  141 5199.24 0.00000 -1.23795e-12
  142 5199.24 0.00000 -5.05661e-14
  143 5199.24 0.00000 1.40480e-13
  144 5199.24 0.00000 1.96221e-13
  145 5199.24 0.00000 -3.46189e-12
  146 5199.24 0.00000 -5.04533e-13
  147 5199.24 0.00000 -9.90144e-13
  148 5199.24 0.00000 2.49861e-13
  149 5199.24 0.00000 -6.47021e-14
  150 5199.24 0.00000 8.85620e-14
  151 5199.24 0.00000 -9.44176e-14
  152 5199.24 0.00000 -4.25384e-13
  153 5199.24 0.00000 6.69987e-13
  154 5199.24 0.00000 -3.39745e-13
  155 5199.24 0.00000 -1.75944e-12
  156 5199.24 0.00000 -4.05467e-13
  157 5199.24 0.00000 6.23563e-14
  158 5199.24 0.00000 -1.75635e-12
  159 5199.24 0.00000 -7.23523e-13
  160 5199.24 0.00000 1.24485e-13
  161 5199.24 0.00000 6.06012e-13
  162 5199.24 0.00000 2.95221e-13
  163 5199.24 0.00000 -8.01221e-13
  164 5199.24 0.00000 -1.91462e-14
  165 5199.24 0.00000 2.79393e-13
  166 5199.24 0.00000 5.87275e-15
  167 5199.24 0.00000 -6.88391e-13
  168 5199.24 0.00000 -3.91045e-13
  169 5199.24 0.00000 3.19906e-13
  170 5199.24 0.00000 -1.36533e-12
  171 5199.24 0.00000 5.76023e-13
  172 5199.24 0.00000 2.98195e-13
  173 5199.24 0.00000 -1.77924e-13
  174 5199.24 0.00000 2.26795e-13
  175 5199.24 0.00000 -6.78235e-14
  176 5199.24 0.00000 -1.03746e-13
  177 5199.24 0.00000 -9.77029e-13
  178 5199.24 0.00000 3.93572e-13
  179 5199.24 0.00000 2.69717e-13
  180 5199.24 0.00000 4.34801e-13
  181 5199.24 0.00000 6.26645e-13
  182 5199.24 0.00000 3.13191e-13
  183 5199.24 0.00000 -6.66559e-13
  184 5199.24 0.00000 5.69967e-13
  185 5199.24 0.00000 -3.29979e-14
  186 5199.24 0.00000 -1.84738e-13
  187 5199.24 0.00000 -2.52691e-12
  188 5199.24 0.00000 -7.14125e-14
  189 5199.24 0.00000 -7.93480e-13
  190 5199.24 0.00000 1.95767e-13
  191 5199.24 0.00000 7.14396e-13
  192 5199.24 0.00000 5.45833e-13
  193 5199.24 0.00000 -1.37507e-12
  194 5199.24 0.00000 -4.86392e-13
  195 5199.24 0.00000 1.29389e-13
  196 5199.24 0.00000 8.92502e-13
  197 5199.24 0.00000 -6.35665e-14
  198 5199.24 0.00000 -9.67505e-13
  199 5199.24 0.00000 -1.10319e-13
  200 5199.24 0.00000 -3.32808e-13
  201 5199.24 0.00000 -9.43685e-14
  202 5199.24 0.00000 -9.43453e-13
  203 5199.24 0.00000 -8.94846e-13
  204 5199.24 0.00000 5.91735e-13
  205 5199.24 0.00000 8.96774e-13
  206 5199.24 0.00000 1.12392e-12
  207 5199.24 0.00000 -6.91776e-13
  208 5199.24 0.00000 -2.53505e-12
  209 5199.24 0.00000 -4.62893e-13
  210 5199.24 0.00000 -6.16276e-14
  211 5199.24 0.00000 3.46710e-14
  212 5199.24 0.00000 7.16176e-13
  213 5199.24 0.00000 -4.69589e-14
  214 5199.24 0.00000 1.43155e-13
  215 5199.24 0.00000 9.37452e-13
  216 5199.24 0.00000 -5.90607e-13
  217 5199.24 0.00000 5.91081e-13
  218 5199.24 0.00000 -1.99232e-13
  219 5199.24 0.00000 1.03382e-12
  220 5199.24 0.00000 -6.23676e-13
  221 5199.24 0.00000 1.14733e-12
  222 5199.24 0.00000 -6.83506e-13
  223 5199.24 0.00000 4.66636e-13
  224 5199.24 0.00000 -3.69902e-13
  225 5199.24 0.00000 -2.06884e-13
  226 5199.24 0.00000 3.61670e-13
  227 5199.24 0.00000 2.71453e-13
  228 5199.24 0.00000 8.31062e-13
  229 5199.24 0.00000 1.54286e-13
  230 5199.24 0.00000 2.85430e-13
  231 5199.24 0.00000 -3.32731e-14
  232 5199.24 0.00000 -1.92291e-13
  233 5199.24 0.00000 -1.03002e-12
  234 5199.24 0.00000 6.21717e-14
  235 5199.24 0.00000 -1.29483e-12
  236 5199.24 0.00000 1.54642e-13
  237 5199.24 0.00000 1.76856e-12
  238 5199.24 0.00000 3.28376e-13
  239 5199.24 0.00000 5.62055e-13
  240 5199.24 0.00000 1.56353e-12
  241 5199.24 0.00000 8.62195e-13
</Section>

newXOutput 112

<Section columns = "stress_xx | stress_yy | stress_xy">
  1 5248.78 0.00000 -2.52234e-13
  2 5248.78 0.00000 1.27994e-12
  3 5248.78 0.00000 -1.65522e-12
  4 5248.78 0.00000 -2.07990e-13
  5 5248.78 0.00000 -2.87930e-13
  6 5248.78 0.00000 4.16155e-13
  7 5248.78 0.00000 2.01734e-13
  8 5248.78 0.00000 -1.76614e-13
  9 5248.78 0.00000 -2.53250e-13
  10 5248.78 0.00000 -4.28677e-13
  11 5248.78 0.00000 -1.01096e-12
  12 5248.78 0.00000 -1.13715e-12
  13 5248.78 0.00000 -4.16155e-13
  14 5248.78 0.00000 -4.19601e-14
  15 5248.78 0.00000 -4.16150e-13
  16 5248.78 0.00000 7.62957e-13
  17 5248.78 0.00000 1.97581e-13
  18 5248.78 0.00000 -1.09281e-13
  19 5248.78 0.00000 1.06779e-12
  20 5248.78 0.00000 -7.25062e-13
  21 5248.78 0.00000 -1.98198e-12
  22 5248.78 0.00000 1.63137e-13
  23 5248.78 0.00000 3.34114e-12
  24 5248.78 0.00000 -6.03246e-13
  25 5248.78 0.00000 -1.63921e-13
  26 5248.78 0.00000 1.77450e-13
  27 5248.78 0.00000 -1.49807e-12
  28 5248.78 0.00000 -8.43651e-14
  29 5248.78 0.00000 -1.01624e-13
  30 5248.78 0.00000 1.93251e-13
  31 5248.78 0.00000 -4.80979e-12
  32 5248.78 0.00000 -3.71175e-12
  33 5248.78 0.00000 2.16405e-12
  34 5248.78 0.00000 5.02803e-12
  35 5248.78 0.00000 1.02473e-12
  36 5248.78 0.00000 -1.75874e-13
  37 5248.78 0.00000 7.63068e-13
  38 5248.78 0.00000 8.57558e-13
  39 5248.78 0.00000 -1.89727e-13
  40 5248.78 0.00000 -7.24556e-13
  41 5248.78 0.00000 1.06392e-12
  42 5248.78 0.00000 2.01363e-13
  43 5248.78 0.00000 -5.59291e-13
  44 5248.78 0.00000 6.34073e-15
  45 5248.78 0.00000 -2.46767e-13
  46 5248.78 0.00000 -3.69088e-13
  47 5248.78 0.00000 3.88724e-13
  48 5248.78 0.00000 1.60290e-13
  49 5248.78 0.00000 -2.16499e-13
  50 5248.78 0.00000 1.23198e-13
  51 5248.78 0.00000 5.45305e-15
  52 5248.78 0.00000 -6.12765e-14
  53 5248.78 0.00000 1.25016e-13
  54 5248.78 0.00000 -2.50866e-13
  55 5248.78 0.00000 -1.92342e-13
  56 5248.78 0.00000 -3.18964e-13
  57 5248.78 0.00000 -2.99325e-13
  58 5248.78 0.00000 6.29478e-13
  59 5248.78 0.00000 -8.18734e-13
  60 5248.78 0.00000 -1.11011e-12
  61 5248.78 0.00000 2.90055e-14
  62 5248.78 0.00000 5.99598e-13
  63 5248.78 0.00000 -5.29637e-13
  64 5248.78 0.00000 -1.03878e-12
  65 5248.78 0.00000 -1.83539e-13
  66 5248.78 0.00000 -9.01238e-14
  67 5248.78 0.00000 2.07932e-13
  68 5248.78 0.00000 -6.20802e-13
  69 5248.78 0.00000 1.74514e-13
  70 5248.78 0.00000 3.86114e-14
  71 5248.78 0.00000 -4.92943e-13
  72 5248.78 0.00000 -8.23354e-13
  73 5248.78 0.00000 -1.13269e-12
  74 5248.78 0.00000 -2.40347e-13
  75 5248.78 0.00000 1.45176e-14
  76 5248.78 0.00000 -1.37326e-12
  77 5248.78 0.00000 2.32270e-13
  78 5248.78 0.00000 2.12647e-13
  79 5248.78 0.00000 -7.19975e-13
  80 5248.78 0.00000 -5.34909e-13
  81 5248.78 0.00000 -1.24151e-12
  82 5248.78 0.00000 2.99915e-13
  83 5248.78 0.00000 -4.71708e-13
  84 5248.78 0.00000 -8.79297e-13
  85 5248.78 0.00000 4.45006e-13
  86 5248.78 0.00000 8.94824e-13
  87 5248.78 0.00000 -9.86710e-14
  88 5248.78 0.00000 -1.32591e-13
  89 5248.78 0.00000 2.56279e-14
  90 5248.78 0.00000 -5.34916e-13
  91 5248.78 0.00000 -2.91856e-13
  92 5248.78 0.00000 -5.70989e-14
  93 5248.78 0.00000 -1.79287e-12
  94 5248.78 0.00000 -2.02886e-13
  95 5248.78 0.00000 -2.78456e-13
  96 5248.78 0.00000 9.19742e-14
  97 5248.78 0.00000 2.16401e-12
  98 5248.78 0.00000 -2.92530e-13
  99 5248.78 0.00000 5.07075e-13
  100 5248.78 0.00000 4.58986e-13
  101 5248.78 0.00000 -6.77263e-13
  102 5248.78 0.00000 -4.10823e-13
  103 5248.78 0.00000 9.12746e-13
  104 5248.78 0.00000 -2.68151e-13
  105 5248.78 0.00000 5.48926e-13
  106 5248.78 0.00000 -1.24700e-13
  107 5248.78 0.00000 6.00244e-14
  108 5248.78 0.00000 -1.97118e-13
  109 5248.78 0.00000 -4.09990e-13
  110 5248.78 0.00000 1.63319e-13
  111 5248.78 0.00000 6.25965e-13
  112 5248.78 0.00000 -7.68913e-13
  113 5248.78 0.00000 -3.21150e-13
  114 5248.78 0.00000 1.01097e-13
  115 5248.78 0.00000 -3.22076e-13
  116 5248.78 0.00000 -3.39218e-13
  117 5248.78 0.00000 -6.06194e-13
  118 5248.78 0.00000 -1.48719e-13
  119 5248.78 0.00000 2.68402e-13
  120 5248.78 0.00000 -4.88477e-13
  121 5248.78 0.00000 -6.76345e-13
  122 5248.78 0.00000 1.88902e-13
  123 5248.78 0.00000 1.33892e-12
  124 5248.78 0.00000 -1.00262e-12
  125 5248.78 0.00000 2.85934e-13
  126 5248.78 0.00000 -4.40711e-13
  127 5248.78 0.00000 -4.80599e-13
  128 5248.78 0.00000 6.70349e-13
  129 5248.78 0.00000 -5.18724e-13
  130 5248.78 0.00000 2.72653e-15
  131 5248.78 0.00000 -7.09500e-13
  132 5248.78 0.00000 -1.42547e-15
  133 5248.78 0.00000 2.85508e-13
  134 5248.78 0.00000 -4.35610e-13
  135 5248.78 0.00000 1.01378e-12
  136 5248.78 0.00000 -1.32437e-13
  137 5248.78 0.00000 3.50516e-13
  138 5248.78 0.00000 -1.49192e-12
  139 5248.78 0.00000 2.32799e-13
  140 5248.78 0.00000 -8.62125e-13
  141 5248.78 0.00000 -7.04891e-14
  142 5248.78 0.00000 -2.85307e-13
  143 5248.78 0.00000 -3.87421e-13
  144 5248.78 0.00000 3.80761e-13
  145 5248.78 0.00000 3.87140e-12
  146 5248.78 0.00000 1.15404e-13
  147 5248.78 0.00000 9.00565e-14
  148 5248.78 0.00000 -6.32053e-14
  149 5248.78 0.00000 -1.62993e-12
  150 5248.78 0.00000 2.83562e-13
  151 5248.78 0.00000 -8.13580e-13
  152 5248.78 0.00000 1.97494e-14
  153 5248.78 0.00000 -4.07697e-13
  154 5248.78 0.00000 -3.12110e-13
  155 5248.78 0.00000 -7.02620e-13
  156 5248.78 0.00000 -1.00860e-12
  157 5248.78 0.00000 -5.94507e-14
  158 5248.78 0.00000 -2.21835e-12
  159 5248.78 0.00000 -4.31650e-13
  160 5248.78 0.00000 1.93563e-13
  161 5248.78 0.00000 -1.25886e-12
  162 5248.78 0.00000 6.43068e-13
  163 5248.78 0.00000 -9.43207e-13
  164 5248.78 0.00000 -1.00617e-12
  165 5248.78 0.00000 -1.24681e-13
  166 5248.78 0.00000 3.38466e-14
  167 5248.78 0.00000 -1.87728e-13
  168 5248.78 0.00000 -2.05255e-14
  169 5248.78 0.00000 3.02334e-14
  170 5248.78 0.00000 6.60524e-13
  171 5248.78 0.00000 -4.95469e-13
  172 5248.78 0.00000 -7.44010e-13
  173 5248.78 0.00000 -7.01414e-13
  174 5248.78 0.00000 3.05275e-13
  175 5248.78 0.00000 4.40792e-14
  176 5248.78 0.00000 -2.65555e-13
  177 5248.78 0.00000 -2.05755e-12
  178 5248.78 0.00000 -2.07835e-13
  179 5248.78 0.00000 -2.91309e-13
  180 5248.78 0.00000 -1.41196e-13
  181 5248.78 0.00000 1.55154e-13
  182 5248.78 0.00000 4.07216e-13
  183 5248.78 0.00000 2.36248e-13
  184 5248.78 0.00000 9.20616e-13
  185 5248.78 0.00000 -1.89478e-14
  186 5248.78 0.00000 8.12205e-13
  187 5248.78 0.00000 -2.36525e-12
  188 5248.78 0.00000 -4.38502e-13
  189 5248.78 0.00000 -7.42081e-13
  190 5248.78 0.00000 -4.81843e-13
  191 5248.78 0.00000 3.69167e-13
  192 5248.78 0.00000 -8.37309e-13
  193 5248.78 0.00000 2.47669e-13
  194 5248.78 0.00000 -3.13136e-13
  195 5248.78 0.00000 -1.64028e-13
  196 5248.78 0.00000 -1.59440e-13
  197 5248.78 0.00000 1.14905e-13
  198 5248.78 0.00000 8.69606e-13
  199 5248.78 0.00000 -2.79259e-13
  200 5248.78 0.00000 -9.92015e-13
  201 5248.78 0.00000 -5.73247e-13
  202 5248.78 0.00000 8.29159e-13
  203 5248.78 0.00000 -8.35949e-13
  204 5248.78 0.00000 4.81327e-14
  205 5248.78 0.00000 -3.37323e-13
  206 5248.78 0.00000 9.47716e-13
  207 5248.78 0.00000 -3.38386e-13
  208 5248.78 0.00000 1.82809e-12
  209 5248.78 0.00000 9.45819e-13
  210 5248.78 0.00000 -2.74241e-13
  211 5248.78 0.00000 -1.70233e-13
  212 5248.78 0.00000 1.46491e-12
  213 5248.78 0.00000 -1.01322e-13
  214 5248.78 0.00000 9.32328e-14
  215 5248.78 0.00000 7.44224e-13
  216 5248.78 0.00000 -2.07140e-13
  217 5248.78 0.00000 -1.03341e-13
  218 5248.78 0.00000 9.75175e-15
  219 5248.78 0.00000 -3.22256e-13
  220 5248.78 0.00000 1.52423e-13
  221 5248.78 0.00000 -7.69906e-13
  222 5248.78 0.00000 3.04249e-13
  223 5248.78 0.00000 -6.05015e-14
  224 5248.78 0.00000 -5.02537e-13
  225 5248.78 0.00000 3.56865e-13
  226 5248.78 0.00000 2.34469e-13
  227 5248.78 0.00000 2.60092e-13
  228 5248.78 0.00000 4.09990e-13
  229 5248.78 0.00000 8.66664e-15
  230 5248.78 0.00000 8.24684e-14
  231 5248.78 0.00000 -1.45340e-12
  232 5248.78 0.00000 -7.91241e-14
  233 5248.78 0.00000 -1.57510e-12
  234 5248.78 0.00000 -5.75657e-13
  235 5248.78 0.00000 2.68443e-13
  236 5248.78 0.00000 -5.20195e-13
  237 5248.78 0.00000 -1.80734e-12
  238 5248.78 0.00000 -4.37938e-13
  239 5248.78 0.00000 5.33306e-13
  240 5248.78 0.00000 -1.24839e-13
  241 5248.78 0.00000 3.65163e-13
</Section>

newXOutput 113

<Section columns = "stress_xx | stress_yy | stress_xy">
  1 5298.42 0.00000 1.90909e-13
  2 5298.42 0.00000 1.25924e-12
  3 5298.42 0.00000 -2.14854e-12
  4 5298.42 0.00000 -1.90441e-13
  5 5298.42 0.00000 -4.58605e-14
  6 5298.42 0.00000 4.35147e-13
  7 5298.42 0.00000 8.88797e-15
  8 5298.42 0.00000 -1.39124e-13
  9 5298.42 0.00000 1.27273e-13
  10 5298.42 0.00000 1.79676e-12
  11 5298.42 0.00000 5.56494e-13
  12 5298.42 0.00000 -1.50621e-14
  13 5298.42 0.00000 1.34757e-12
  14 5298.42 0.00000 4.29221e-13
  15 5298.42 0.00000 5.21713e-14
  16 5298.42 0.00000 -6.03897e-13
  17 5298.42 0.00000 -3.33489e-12
  18 5298.42 0.00000 1.02769e-12
  19 5298.42 0.00000 3.41884e-12
  20 5298.42 0.00000 2.47644e-12
  21 5298.42 0.00000 3.01948e-13
  22 5298.42 0.00000 -1.60721e-12
  23 5298.42 0.00000 -6.40444e-13
  24 5298.42 0.00000 -5.09092e-13
  25 5298.42 0.00000 0.00000
  26 5298.42 0.00000 5.32006e-13
  27 5298.42 0.00000 3.27973e-12
  28 5298.42 0.00000 -9.15473e-13
  29 5298.42 0.00000 2.19331e-13
  30 5298.42 0.00000 2.71371e-13
  31 5298.42 0.00000 -4.44687e-13
  32 5298.42 0.00000 3.56043e-13
  33 5298.42 0.00000 9.32260e-14
  34 5298.42 0.00000 -2.83199e-14
  35 5298.42 0.00000 -9.05150e-13
  36 5298.42 0.00000 5.72134e-13
  37 5298.42 0.00000 -4.16448e-13
  38 5298.42 0.00000 -5.30006e-13
  39 5298.42 0.00000 1.68792e-13
  40 5298.42 0.00000 5.24968e-13
  41 5298.42 0.00000 2.80998e-13
  42 5298.42 0.00000 1.06058e-13
  43 5298.42 0.00000 6.18865e-13
  44 5298.42 0.00000 -2.72358e-13
  45 5298.42 0.00000 -5.86801e-13
  46 5298.42 0.00000 -5.65394e-13
  47 5298.42 0.00000 -4.33199e-13
  48 5298.42 0.00000 -3.38350e-13
  49 5298.42 0.00000 -3.87256e-13
  50 5298.42 0.00000 1.46747e-13
  51 5298.42 0.00000 5.09479e-15
  52 5298.42 0.00000 8.56115e-14
  53 5298.42 0.00000 2.35598e-13
  54 5298.42 0.00000 2.43081e-13
  55 5298.42 0.00000 0.00000
  56 5298.42 0.00000 1.58657e-13
  57 5298.42 0.00000 1.97265e-14
  58 5298.42 0.00000 -5.65954e-13
  59 5298.42 0.00000 2.75823e-13
  60 5298.42 0.00000 -1.72257e-13
  61 5298.42 0.00000 3.83561e-13
  62 5298.42 0.00000 -4.09586e-13
  63 5298.42 0.00000 5.89801e-13
  64 5298.42 0.00000 -5.58100e-13
  65 5298.42 0.00000 7.76624e-13
  66 5298.42 0.00000 -1.24503e-13
  67 5298.42 0.00000 1.28039e-13
  68 5298.42 0.00000 -9.68959e-13
  69 5298.42 0.00000 -4.76010e-15
  70 5298.42 0.00000 5.61561e-13
  71 5298.42 0.00000 4.89922e-13
  72 5298.42 0.00000 -1.48538e-13
  73 5298.42 0.00000 -1.29896e-12
  74 5298.42 0.00000 1.00117e-12
  75 5298.42 0.00000 5.79077e-13
  76 5298.42 0.00000 1.01719e-12
  77 5298.42 0.00000 -3.13028e-13
  78 5298.42 0.00000 -1.26907e-12
  79 5298.42 0.00000 -6.85223e-13
  80 5298.42 0.00000 -2.96516e-13
  81 5298.42 0.00000 7.63500e-13
  82 5298.42 0.00000 1.96903e-12
  83 5298.42 0.00000 2.99272e-14
  84 5298.42 0.00000 1.21733e-13
  85 5298.42 0.00000 9.44349e-14
  86 5298.42 0.00000 8.65974e-13
  87 5298.42 0.00000 6.51030e-14
  88 5298.42 0.00000 3.74517e-13
  89 5298.42 0.00000 -1.78023e-13
  90 5298.42 0.00000 -1.34917e-12
  91 5298.42 0.00000 9.27242e-13
  92 5298.42 0.00000 3.08770e-13
  93 5298.42 0.00000 -1.89908e-13
  94 5298.42 0.00000 -2.20507e-12
  95 5298.42 0.00000 -6.80220e-13
  96 5298.42 0.00000 6.27399e-13
  97 5298.42 0.00000 6.82517e-14
  98 5298.42 0.00000 -3.92499e-13
  99 5298.42 0.00000 -1.24332e-12
  100 5298.42 0.00000 -1.02646e-12
  101 5298.42 0.00000 -5.82295e-13
  102 5298.42 0.00000 1.50671e-12
  103 5298.42 0.00000 -7.97584e-13
  104 5298.42 0.00000 4.57397e-13
  105 5298.42 0.00000 2.87160e-13
  106 5298.42 0.00000 -2.77057e-13
  107 5298.42 0.00000 1.34866e-12
  108 5298.42 0.00000 -2.02631e-14
  109 5298.42 0.00000 2.19351e-13
  110 5298.42 0.00000 9.08253e-13
  111 5298.42 0.00000 -4.27382e-13
  112 5298.42 0.00000 6.28887e-13
  113 5298.42 0.00000 1.10582e-13
  114 5298.42 0.00000 9.26248e-13
  115 5298.42 0.00000 1.84728e-13
  116 5298.42 0.00000 2.32580e-14
  117 5298.42 0.00000 -9.99758e-13
  118 5298.42 0.00000 4.97750e-13
  119 5298.42 0.00000 -7.39222e-13
  120 5298.42 0.00000 -8.35572e-13
  121 5298.42 0.00000 8.75901e-14
  122 5298.42 0.00000 -2.79869e-13
  123 5298.42 0.00000 1.61090e-12
  124 5298.42 0.00000 -2.50342e-13
  125 5298.42 0.00000 7.54639e-13
  126 5298.42 0.00000 -1.63182e-13
  127 5298.42 0.00000 -1.38922e-12
  128 5298.42 0.00000 4.98615e-13
  129 5298.42 0.00000 2.31436e-13
  130 5298.42 0.00000 4.44932e-13
  131 5298.42 0.00000 1.72923e-13
  132 5298.42 0.00000 -5.75386e-13
  133 5298.42 0.00000 -6.14811e-13
  134 5298.42 0.00000 4.26931e-13
  135 5298.42 0.00000 -3.84730e-13
  136 5298.42 0.00000 -2.81500e-13
  137 5298.42 0.00000 -7.20731e-13
  138 5298.42 0.00000 4.42750e-15
  139 5298.42 0.00000 -1.88952e-13
  140 5298.42 0.00000 -9.34326e-13
  141 5298.42 0.00000 -6.22029e-13
  142 5298.42 0.00000 -3.10744e-13
  143 5298.42 0.00000 2.81752e-13
  144 5298.42 0.00000 1.04956e-12
  145 5298.42 0.00000 -2.33059e-15
  146 5298.42 0.00000 -3.84729e-13
  147 5298.42 0.00000 4.39970e-13
  148 5298.42 0.00000 -1.79830e-13
  149 5298.42 0.00000 1.87138e-12
  150 5298.42 0.00000 1.40441e-13
  151 5298.42 0.00000 2.05478e-13
  152 5298.42 0.00000 -4.26347e-14
  153 5298.42 0.00000 -6.11677e-13
  154 5298.42 0.00000 2.12058e-13
  155 5298.42 0.00000 -3.92109e-14
  156 5298.42 0.00000 6.35690e-13
  157 5298.42 0.00000 2.72807e-13
  158 5298.42 0.00000 5.91372e-13
  159 5298.42 0.00000 1.82994e-12
  160 5298.42 0.00000 1.83096e-13
  161 5298.42 0.00000 2.80339e-12
  162 5298.42 0.00000 -4.57206e-13
  163 5298.42 0.00000 -4.28372e-13
  164 5298.42 0.00000 -8.08343e-13
  165 5298.42 0.00000 1.91971e-13
  166 5298.42 0.00000 2.46642e-14
  167 5298.42 0.00000 -3.28508e-13
  168 5298.42 0.00000 5.21640e-13
  169 5298.42 0.00000 1.30160e-13
  170 5298.42 0.00000 -1.46415e-12
  171 5298.42 0.00000 -7.67712e-13
  172 5298.42 0.00000 5.17858e-14
  173 5298.42 0.00000 6.76866e-14
  174 5298.42 0.00000 2.39083e-13
  175 5298.42 0.00000 -6.18267e-15
  176 5298.42 0.00000 1.46313e-13
  177 5298.42 0.00000 2.13978e-13
  178 5298.42 0.00000 4.08715e-13
  179 5298.42 0.00000 -1.80706e-13
  180 5298.42 0.00000 -3.33646e-13
  181 5298.42 0.00000 1.69530e-12
  182 5298.42 0.00000 -1.71388e-13
  183 5298.42 0.00000 -2.23245e-13
  184 5298.42 0.00000 -4.22034e-13
  185 5298.42 0.00000 1.74683e-13
  186 5298.42 0.00000 -7.78784e-13
  187 5298.42 0.00000 1.21035e-12
  188 5298.42 0.00000 -3.93944e-13
  189 5298.42 0.00000 3.63282e-13
  190 5298.42 0.00000 1.01387e-12
  191 5298.42 0.00000 -1.45828e-13
  192 5298.42 0.00000 -3.28465e-13
  193 5298.42 0.00000 -1.82628e-13
  194 5298.42 0.00000 -6.13278e-13
  195 5298.42 0.00000 1.51002e-13
  196 5298.42 0.00000 9.40936e-13
  197 5298.42 0.00000 1.02444e-13
  198 5298.42 0.00000 -5.38722e-13
  199 5298.42 0.00000 3.04129e-14
  200 5298.42 0.00000 -1.21546e-12
  201 5298.42 0.00000 5.70620e-13
  202 5298.42 0.00000 1.09227e-12
  203 5298.42 0.00000 -3.42903e-13
  204 5298.42 0.00000 -5.26818e-13
  205 5298.42 0.00000 -2.62021e-13
  206 5298.42 0.00000 2.59940e-14
  207 5298.42 0.00000 -5.62205e-14
  208 5298.42 0.00000 -3.53885e-13
  209 5298.42 0.00000 1.22918e-12
  210 5298.42 0.00000 -1.78840e-13
  211 5298.42 0.00000 7.99397e-14
  212 5298.42 0.00000 -3.71973e-13
  213 5298.42 0.00000 -2.46882e-13
  214 5298.42 0.00000 2.71581e-13
  215 5298.42 0.00000 -9.22188e-13
  216 5298.42 0.00000 -3.49578e-14
  217 5298.42 0.00000 6.97995e-13
  218 5298.42 0.00000 3.77777e-13
  219 5298.42 0.00000 -1.99627e-12
  220 5298.42 0.00000 4.61625e-13
  221 5298.42 0.00000 -2.34408e-13
  222 5298.42 0.00000 -5.70537e-13
  223 5298.42 0.00000 -5.59578e-14
  224 5298.42 0.00000 -4.56367e-13
  225 5298.42 0.00000 -3.42648e-12
  226 5298.42 0.00000 -1.35529e-12
  227 5298.42 0.00000 -1.19085e-12
  228 5298.42 0.00000 1.49033e-12
  229 5298.42 0.00000 -5.67574e-13
  230 5298.42 0.00000 -2.37456e-13
  231 5298.42 0.00000 5.96689e-13
  232 5298.42 0.00000 -3.54765e-13
  233 5298.42 0.00000 -1.03561e-12
  234 5298.42 0.00000 -6.23874e-14
  235 5298.42 0.00000 9.97670e-14
  236 5298.42 0.00000 4.25075e-13
  237 5298.42 0.00000 -3.07558e-13
  238 5298.42 0.00000 -2.50400e-13
  239 5298.42 0.00000 1.47985e-12
  240 5298.42 0.00000 -5.98116e-14
  241 5298.42 0.00000 -4.29221e-13
</Section>

newXOutput 114

<Section columns = "stress_xx | stress_yy | stress_xy">
  1 5348.14 0.00000 1.04649e-13
  2 5348.14 0.00000 1.16281e-12
  3 5348.14 0.00000 1.83852e-12
  4 5348.14 0.00000 5.17157e-13
  5 5348.14 0.00000 -5.43607e-15
  6 5348.14 0.00000 -1.12803e-13
  7 5348.14 0.00000 3.40367e-14
  8 5348.14 0.00000 -2.98012e-13
  9 5348.14 0.00000 -5.25964e-13
  10 5348.14 0.00000 2.33682e-13
  11 5348.14 0.00000 -5.15092e-13
  12 5348.14 0.00000 -8.42924e-13
  13 5348.14 0.00000 -1.73945e-13
  14 5348.14 0.00000 -1.85357e-12
  15 5348.14 0.00000 -4.39961e-13
  16 5348.14 0.00000 5.05260e-13
  17 5348.14 0.00000 1.36140e-12
  18 5348.14 0.00000 1.42176e-12
  19 5348.14 0.00000 -1.47626e-12
  20 5348.14 0.00000 1.13521e-12
  21 5348.14 0.00000 1.90807e-12
  22 5348.14 0.00000 -1.51181e-12
  23 5348.14 0.00000 8.84921e-13
  24 5348.14 0.00000 -1.85520e-12
  25 5348.14 0.00000 -3.78945e-13
  26 5348.14 0.00000 -1.12081e-12
  27 5348.14 0.00000 2.56412e-12
  28 5348.14 0.00000 -8.40745e-13
  29 5348.14 0.00000 -9.47117e-15
  30 5348.14 0.00000 3.59208e-13
  31 5348.14 0.00000 3.78810e-12
  32 5348.14 0.00000 -8.60931e-13
  33 5348.14 0.00000 -2.27958e-12
  34 5348.14 0.00000 -1.55956e-12
  35 5348.14 0.00000 3.26635e-13
  36 5348.14 0.00000 -1.15997e-12
  37 5348.14 0.00000 -1.81498e-12
  38 5348.14 0.00000 -1.84318e-12
  39 5348.14 0.00000 -8.14392e-13
  40 5348.14 0.00000 -1.97313e-12
  41 5348.14 0.00000 -9.28537e-13
  42 5348.14 0.00000 -1.94327e-13
  43 5348.14 0.00000 1.81074e-13
  44 5348.14 0.00000 1.44159e-12
  45 5348.14 0.00000 1.39797e-12
  46 5348.14 0.00000 8.21804e-13
  47 5348.14 0.00000 9.34988e-14
  48 5348.14 0.00000 1.66774e-13
  49 5348.14 0.00000 6.37011e-13
  50 5348.14 0.00000 -3.25586e-13
  51 5348.14 0.00000 4.73558e-15
  52 5348.14 0.00000 1.99606e-13
  53 5348.14 0.00000 -1.49298e-13
  54 5348.14 0.00000 -6.25420e-14
  55 5348.14 0.00000 0.00000
  56 5348.14 0.00000 0.00000
  57 5348.14 0.00000 9.26045e-14
  58 5348.14 0.00000 -4.73110e-14
  59 5348.14 0.00000 6.13434e-13
  60 5348.14 0.00000 8.47270e-13
  61 5348.14 0.00000 7.10626e-13
  62 5348.14 0.00000 2.44137e-13
  63 5348.14 0.00000 1.39467e-12
  64 5348.14 0.00000 -8.41229e-14
  65 5348.14 0.00000 -8.90613e-14
  66 5348.14 0.00000 9.19995e-16
  67 5348.14 0.00000 -1.04866e-12
  68 5348.14 0.00000 -3.46755e-13
  69 5348.14 0.00000 3.32365e-13
  70 5348.14 0.00000 -1.24612e-12
  71 5348.14 0.00000 -3.42628e-13
  72 5348.14 0.00000 -5.09159e-13
  73 5348.14 0.00000 2.00105e-12
  74 5348.14 0.00000 -4.42807e-13
  75 5348.14 0.00000 1.02578e-13
  76 5348.14 0.00000 3.23426e-14
  77 5348.14 0.00000 4.21295e-13
  78 5348.14 0.00000 8.55851e-13
  79 5348.14 0.00000 8.68132e-13
  80 5348.14 0.00000 -1.73479e-13
  81 5348.14 0.00000 -1.53781e-12
  82 5348.14 0.00000 -1.29326e-12
  83 5348.14 0.00000 -3.30083e-13
  84 5348.14 0.00000 -2.68232e-13
  85 5348.14 0.00000 1.60761e-12
  86 5348.14 0.00000 1.96854e-12
  87 5348.14 0.00000 -4.85471e-13
  88 5348.14 0.00000 2.21980e-15
  89 5348.14 0.00000 -4.31596e-13
  90 5348.14 0.00000 -2.95514e-13
  91 5348.14 0.00000 -9.58919e-14
  92 5348.14 0.00000 4.85992e-13
  93 5348.14 0.00000 1.13587e-12
  94 5348.14 0.00000 1.39931e-12
  95 5348.14 0.00000 -2.54406e-13
  96 5348.14 0.00000 6.16168e-13
  97 5348.14 0.00000 -1.12281e-12
  98 5348.14 0.00000 -1.88842e-13
  99 5348.14 0.00000 1.14745e-12
  100 5348.14 0.00000 -4.53406e-13
  101 5348.14 0.00000 -1.32172e-14
  102 5348.14 0.00000 -8.76319e-13
  103 5348.14 0.00000 -1.07816e-12
  104 5348.14 0.00000 5.05564e-13
  105 5348.14 0.00000 -7.14763e-13
  106 5348.14 0.00000 -1.24280e-14
  107 5348.14 0.00000 -8.88904e-13
  108 5348.14 0.00000 1.05773e-14
  109 5348.14 0.00000 -1.47279e-13
  110 5348.14 0.00000 -1.34663e-12
  111 5348.14 0.00000 -2.62973e-13
  112 5348.14 0.00000 8.34323e-14
  113 5348.14 0.00000 -8.49120e-13
  114 5348.14 0.00000 -7.39559e-13
  115 5348.14 0.00000 7.84499e-13
  116 5348.14 0.00000 -4.10667e-13
  117 5348.14 0.00000 1.54570e-12
  118 5348.14 0.00000 4.86588e-13
  119 5348.14 0.00000 -9.54400e-14
  120 5348.14 0.00000 4.23391e-13
  121 5348.14 0.00000 -2.31928e-13
  122 5348.14 0.00000 7.76327e-13
  123 5348.14 0.00000 -7.06253e-13
  124 5348.14 0.00000 -1.44675e-13
  125 5348.14 0.00000 7.20614e-13
  126 5348.14 0.00000 -3.08716e-13
  127 5348.14 0.00000 2.29457e-12
  128 5348.14 0.00000 -9.99954e-13
  129 5348.14 0.00000 2.18405e-13
  130 5348.14 0.00000 -1.56771e-13
  131 5348.14 0.00000 -3.50099e-13
  132 5348.14 0.00000 -5.21127e-13
  133 5348.14 0.00000 2.33534e-13
  134 5348.14 0.00000 -6.92731e-14
  135 5348.14 0.00000 8.66619e-13
  136 5348.14 0.00000 -1.87136e-13
  137 5348.14 0.00000 5.24538e-13
  138 5348.14 0.00000 5.13569e-13
  139 5348.14 0.00000 3.30046e-13
  140 5348.14 0.00000 -1.36532e-12
  141 5348.14 0.00000 5.17849e-13
  142 5348.14 0.00000 -3.17252e-13
  143 5348.14 0.00000 2.89989e-13
  144 5348.14 0.00000 -7.33400e-13
  145 5348.14 0.00000 -1.27982e-12
  146 5348.14 0.00000 -3.53142e-14
  147 5348.14 0.00000 -1.09777e-12
  148 5348.14 0.00000 -1.14985e-13
  149 5348.14 0.00000 1.29309e-12
  150 5348.14 0.00000 6.72812e-14
  151 5348.14 0.00000 3.52363e-13
  152 5348.14 0.00000 1.09412e-12
  153 5348.14 0.00000 9.45350e-13
  154 5348.14 0.00000 3.73476e-13
  155 5348.14 0.00000 -1.10917e-13
  156 5348.14 0.00000 -1.35983e-13
  157 5348.14 0.00000 7.83393e-14
  158 5348.14 0.00000 -1.58112e-12
  159 5348.14 0.00000 3.05321e-13
  160 5348.14 0.00000 -1.81692e-13
  161 5348.14 0.00000 1.55882e-12
  162 5348.14 0.00000 5.79428e-13
  163 5348.14 0.00000 3.04735e-13
  164 5348.14 0.00000 1.19202e-12
  165 5348.14 0.00000 -3.87018e-13
  166 5348.14 0.00000 -3.34688e-13
  167 5348.14 0.00000 -7.02719e-13
  168 5348.14 0.00000 -1.05552e-13
  169 5348.14 0.00000 -2.42693e-13
  170 5348.14 0.00000 -2.91190e-13
  171 5348.14 0.00000 -1.66528e-13
  172 5348.14 0.00000 -6.88596e-13
  173 5348.14 0.00000 5.46281e-13
  174 5348.14 0.00000 2.14801e-13
  175 5348.14 0.00000 -2.89628e-13
  176 5348.14 0.00000 -2.76882e-14
  177 5348.14 0.00000 1.67821e-12
  178 5348.14 0.00000 -5.27554e-14
  179 5348.14 0.00000 -3.55602e-14
  180 5348.14 0.00000 4.22056e-14
  181 5348.14 0.00000 -2.61682e-12
  182 5348.14 0.00000 -9.59768e-13
  183 5348.14 0.00000 2.30936e-13
  184 5348.14 0.00000 3.59646e-13
  185 5348.14 0.00000 -3.23035e-13
  186 5348.14 0.00000 -4.43618e-13
  187 5348.14 0.00000 -4.67638e-14
  188 5348.14 0.00000 9.26809e-13
  189 5348.14 0.00000 1.31175e-13
  190 5348.14 0.00000 -2.05541e-13
  191 5348.14 0.00000 3.87552e-13
  192 5348.14 0.00000 2.21886e-12
  193 5348.14 0.00000 -5.85337e-13
  194 5348.14 0.00000 -4.18044e-13
  195 5348.14 0.00000 -1.73376e-13
  196 5348.14 0.00000 9.02201e-13
  197 5348.14 0.00000 -1.86713e-13
  198 5348.14 0.00000 -6.93918e-13
  199 5348.14 0.00000 9.30938e-13
  200 5348.14 0.00000 -1.38939e-12
  201 5348.14 0.00000 -6.02827e-13
  202 5348.14 0.00000 -6.48075e-13
  203 5348.14 0.00000 -2.28685e-13
  204 5348.14 0.00000 1.38946e-13
  205 5348.14 0.00000 -3.15087e-13
  206 5348.14 0.00000 1.11902e-12
  207 5348.14 0.00000 -3.12875e-14
  208 5348.14 0.00000 2.56183e-13
  209 5348.14 0.00000 -4.73998e-14
  210 5348.14 0.00000 5.39726e-14
  211 5348.14 0.00000 -1.40500e-13
  212 5348.14 0.00000 3.50114e-13
  213 5348.14 0.00000 -6.17726e-14
  214 5348.14 0.00000 -6.64404e-13
  215 5348.14 0.00000 -1.00658e-12
  216 5348.14 0.00000 1.73909e-13
  217 5348.14 0.00000 2.25878e-13
  218 5348.14 0.00000 -1.94541e-13
  219 5348.14 0.00000 -5.89507e-14
  220 5348.14 0.00000 5.86364e-13
  221 5348.14 0.00000 9.29548e-14
  222 5348.14 0.00000 8.21259e-13
  223 5348.14 0.00000 4.60680e-13
  224 5348.14 0.00000 -9.50877e-13
  225 5348.14 0.00000 1.15858e-12
  226 5348.14 0.00000 -3.32983e-13
  227 5348.14 0.00000 -2.82160e-14
  228 5348.14 0.00000 1.13228e-12
  229 5348.14 0.00000 2.93516e-13
  230 5348.14 0.00000 -6.45585e-14
  231 5348.14 0.00000 1.59411e-12
  232 5348.14 0.00000 6.53431e-13
  233 5348.14 0.00000 1.81082e-12
  234 5348.14 0.00000 -4.76143e-13
  235 5348.14 0.00000 -5.85337e-13
  236 5348.14 0.00000 -1.32076e-13
  237 5348.14 0.00000 -2.16329e-13
  238 5348.14 0.00000 9.74345e-13
  239 5348.14 0.00000 -9.82309e-13
  240 5348.14 0.00000 -2.54596e-13
  241 5348.14 0.00000 -5.91858e-14
</Section>

newXOutput 115

<Section columns = "stress_xx | stress_yy | stress_xy">
  1 5397.95 0.00000 -1.99035e-13
  2 5397.95 0.00000 1.88032e-13
  3 5397.95 0.00000 1.49091e-13
  4 5397.95 0.00000 -3.57908e-13
  5 5397.95 0.00000 -9.91305e-13
  6 5397.95 0.00000 -6.01329e-13
  7 5397.95 0.00000 -5.79203e-14
  8 5397.95 0.00000 2.79889e-13
  9 5397.95 0.00000 -1.39945e-13
  10 5397.95 0.00000 6.07906e-13
  11 5397.95 0.00000 4.38781e-13
  12 5397.95 0.00000 1.02320e-14
  13 5397.95 0.00000 -8.03572e-13
  14 5397.95 0.00000 6.74901e-13
  15 5397.95 0.00000 2.09856e-13
  16 5397.95 0.00000 7.63957e-13
  17 5397.95 0.00000 -1.00292e-12
  18 5397.95 0.00000 -2.20122e-12
  19 5397.95 0.00000 -3.21437e-12
  20 5397.95 0.00000 -8.58535e-13
  21 5397.95 0.00000 -3.82646e-12
  22 5397.95 0.00000 2.13849e-12
  23 5397.95 0.00000 2.79444e-12
  24 5397.95 0.00000 -9.94202e-13
  25 5397.95 0.00000 1.88032e-13
  26 5397.95 0.00000 5.41221e-13
  27 5397.95 0.00000 -3.76810e-12
  28 5397.95 0.00000 -3.83755e-13
  29 5397.95 0.00000 0.00000
  30 5397.95 0.00000 5.21460e-13
  31 5397.95 0.00000 -6.74884e-13
  32 5397.95 0.00000 -3.42800e-13
  33 5397.95 0.00000 1.32812e-12
  34 5397.95 0.00000 1.18502e-12
  35 5397.95 0.00000 -1.61119e-12
  36 5397.95 0.00000 5.09771e-13
  37 5397.95 0.00000 1.12604e-12
  38 5397.95 0.00000 2.89692e-12
  39 5397.95 0.00000 2.12298e-12
  40 5397.95 0.00000 6.21916e-13
  41 5397.95 0.00000 -1.07177e-12
  42 5397.95 0.00000 -1.81382e-12
  43 5397.95 0.00000 -1.17015e-12
  44 5397.95 0.00000 -4.09548e-13
  45 5397.95 0.00000 -3.66917e-13
  46 5397.95 0.00000 2.45370e-13
  47 5397.95 0.00000 5.60580e-13
  48 5397.95 0.00000 1.55610e-13
  49 5397.95 0.00000 -5.95011e-13
  50 5397.95 0.00000 2.39069e-13
  51 5397.95 0.00000 -6.99697e-14
  52 5397.95 0.00000 -1.71647e-13
  53 5397.95 0.00000 2.07000e-13
  54 5397.95 0.00000 -7.98051e-14
  55 5397.95 0.00000 -1.59610e-13
  56 5397.95 0.00000 6.20957e-13
  57 5397.95 0.00000 1.16612e-13
  58 5397.95 0.00000 1.22896e-12
  59 5397.95 0.00000 6.06272e-14
  60 5397.95 0.00000 4.13935e-13
  61 5397.95 0.00000 5.49560e-13
  62 5397.95 0.00000 2.15753e-13
  63 5397.95 0.00000 -1.65041e-12
  64 5397.95 0.00000 1.51010e-12
  65 5397.95 0.00000 3.05756e-13
  66 5397.95 0.00000 3.04677e-13
  67 5397.95 0.00000 -3.47329e-13
  68 5397.95 0.00000 -5.52503e-13
  69 5397.95 0.00000 4.83580e-13
  70 5397.95 0.00000 1.16814e-12
  71 5397.95 0.00000 1.17340e-13
  72 5397.95 0.00000 -6.37479e-13
  73 5397.95 0.00000 2.86125e-13
  74 5397.95 0.00000 5.12142e-13
  75 5397.95 0.00000 8.52813e-13
  76 5397.95 0.00000 -4.73037e-13
  77 5397.95 0.00000 -3.65165e-13
  78 5397.95 0.00000 -4.32167e-13
  79 5397.95 0.00000 -1.99888e-13
  80 5397.95 0.00000 -6.27572e-13
  81 5397.95 0.00000 -1.45698e-14
  82 5397.95 0.00000 8.28787e-13
  83 5397.95 0.00000 1.09842e-12
  84 5397.95 0.00000 -1.99699e-13
  85 5397.95 0.00000 -2.19090e-12
  86 5397.95 0.00000 -2.17912e-13
  87 5397.95 0.00000 7.34356e-14
  88 5397.95 0.00000 -6.80905e-13
  89 5397.95 0.00000 6.68214e-13
  90 5397.95 0.00000 -6.46473e-13
  91 5397.95 0.00000 -7.49996e-13
  92 5397.95 0.00000 -1.60950e-13
  93 5397.95 0.00000 -7.59249e-13
  94 5397.95 0.00000 8.83453e-14
  95 5397.95 0.00000 5.49711e-13
  96 5397.95 0.00000 6.92083e-13
  97 5397.95 0.00000 1.43797e-12
  98 5397.95 0.00000 -1.35798e-13
  99 5397.95 0.00000 9.18283e-14
  100 5397.95 0.00000 9.09705e-14
  101 5397.95 0.00000 -7.50581e-14
  102 5397.95 0.00000 -7.90680e-13
  103 5397.95 0.00000 5.96203e-13
  104 5397.95 0.00000 7.48722e-13
  105 5397.95 0.00000 1.60087e-13
  106 5397.95 0.00000 1.31200e-13
  107 5397.95 0.00000 1.16623e-12
  108 5397.95 0.00000 -3.49811e-14
  109 5397.95 0.00000 3.27982e-13
  110 5397.95 0.00000 3.53361e-13
  111 5397.95 0.00000 -1.49777e-13
  112 5397.95 0.00000 1.00552e-12
  113 5397.95 0.00000 1.17024e-12
  114 5397.95 0.00000 9.01524e-13
  115 5397.95 0.00000 6.77994e-14
  116 5397.95 0.00000 -5.77049e-14
  117 5397.95 0.00000 1.66835e-12
  118 5397.95 0.00000 1.73803e-13
  119 5397.95 0.00000 -1.78686e-13
  120 5397.95 0.00000 -1.57144e-12
  121 5397.95 0.00000 2.85497e-13
  122 5397.95 0.00000 7.92202e-13
  123 5397.95 0.00000 1.02948e-12
  124 5397.95 0.00000 1.34985e-13
  125 5397.95 0.00000 6.80618e-13
  126 5397.95 0.00000 -3.50419e-13
  127 5397.95 0.00000 -9.72091e-13
  128 5397.95 0.00000 9.76915e-13
  129 5397.95 0.00000 5.10170e-15
  130 5397.95 0.00000 1.93884e-13
  131 5397.95 0.00000 1.23897e-13
  132 5397.95 0.00000 -5.95171e-13
  133 5397.95 0.00000 -8.00283e-13
  134 5397.95 0.00000 7.43495e-14
  135 5397.95 0.00000 -7.22760e-13
  136 5397.95 0.00000 1.11199e-13
  137 5397.95 0.00000 8.08455e-13
  138 5397.95 0.00000 5.61287e-13
  139 5397.95 0.00000 1.54937e-13
  140 5397.95 0.00000 7.23432e-13
  141 5397.95 0.00000 2.87200e-13
  142 5397.95 0.00000 -3.25798e-13
  143 5397.95 0.00000 6.14114e-13
  144 5397.95 0.00000 1.97265e-12
  145 5397.95 0.00000 -2.47142e-13
  146 5397.95 0.00000 -5.07756e-13
  147 5397.95 0.00000 1.29822e-12
  148 5397.95 0.00000 1.19535e-13
  149 5397.95 0.00000 -2.50724e-12
  150 5397.95 0.00000 1.87765e-13
  151 5397.95 0.00000 -1.06417e-13
  152 5397.95 0.00000 1.48256e-12
  153 5397.95 0.00000 2.43434e-13
  154 5397.95 0.00000 9.27207e-14
  155 5397.95 0.00000 9.67868e-13
  156 5397.95 0.00000 -2.18102e-13
  157 5397.95 0.00000 1.84920e-13
  158 5397.95 0.00000 -3.37106e-13
  159 5397.95 0.00000 -2.40871e-13
  160 5397.95 0.00000 2.25658e-13
  161 5397.95 0.00000 -2.00021e-12
  162 5397.95 0.00000 8.23656e-13
  163 5397.95 0.00000 -1.97506e-13
  164 5397.95 0.00000 -2.19724e-12
  165 5397.95 0.00000 -3.78272e-13
  166 5397.95 0.00000 3.74879e-14
  167 5397.95 0.00000 -6.79713e-13
  168 5397.95 0.00000 -5.21172e-13
  169 5397.95 0.00000 3.86698e-13
  170 5397.95 0.00000 6.72585e-13
  171 5397.95 0.00000 -3.49595e-14
  172 5397.95 0.00000 7.99555e-13
  173 5397.95 0.00000 -4.75007e-13
  174 5397.95 0.00000 -7.62400e-13
  175 5397.95 0.00000 4.68814e-14
  176 5397.95 0.00000 1.42327e-15
  177 5397.95 0.00000 6.20954e-13
  178 5397.95 0.00000 1.02916e-12
  179 5397.95 0.00000 -1.93278e-13
  180 5397.95 0.00000 4.54833e-13
  181 5397.95 0.00000 6.73501e-13
  182 5397.95 0.00000 1.16772e-12
  183 5397.95 0.00000 4.42783e-13
  184 5397.95 0.00000 -1.61534e-12
  185 5397.95 0.00000 -8.74722e-14
  186 5397.95 0.00000 1.03029e-12
  187 5397.95 0.00000 1.13504e-12
  188 5397.95 0.00000 -1.04082e-13
  189 5397.95 0.00000 -1.51319e-13
  190 5397.95 0.00000 7.72208e-14
  191 5397.95 0.00000 1.15165e-12
  192 5397.95 0.00000 -2.25217e-12
  193 5397.95 0.00000 -2.14469e-13
  194 5397.95 0.00000 -2.70435e-13
  195 5397.95 0.00000 -2.18900e-15
  196 5397.95 0.00000 -2.39655e-12
  197 5397.95 0.00000 6.29740e-13
  198 5397.95 0.00000 6.10065e-13
  199 5397.95 0.00000 -7.87220e-14
  200 5397.95 0.00000 9.62104e-13
  201 5397.95 0.00000 1.57403e-12
  202 5397.95 0.00000 1.43708e-12
  203 5397.95 0.00000 8.74717e-14
  204 5397.95 0.00000 -1.46460e-12
  205 5397.95 0.00000 2.78438e-13
  206 5397.95 0.00000 -2.08765e-12
  207 5397.95 0.00000 -2.19051e-13
  208 5397.95 0.00000 -1.97451e-12
  209 5397.95 0.00000 3.22140e-13
  210 5397.95 0.00000 -1.64581e-15
  211 5397.95 0.00000 -2.53037e-13
  212 5397.95 0.00000 2.30820e-12
  213 5397.95 0.00000 -2.49144e-14
  214 5397.95 0.00000 -4.78123e-13
  215 5397.95 0.00000 8.90451e-13
  216 5397.95 0.00000 1.16328e-12
  217 5397.95 0.00000 2.15765e-13
  218 5397.95 0.00000 3.45460e-13
  219 5397.95 0.00000 -1.10296e-12
  220 5397.95 0.00000 -1.63966e-13
  221 5397.95 0.00000 2.05510e-13
  222 5397.95 0.00000 1.58823e-12
  223 5397.95 0.00000 -1.81909e-13
  224 5397.95 0.00000 -2.36230e-14
  225 5397.95 0.00000 1.16764e-12
  226 5397.95 0.00000 3.16633e-13
  227 5397.95 0.00000 5.51774e-13
  228 5397.95 0.00000 1.69075e-12
  229 5397.95 0.00000 2.98871e-14
  230 5397.95 0.00000 1.26534e-12
  231 5397.95 0.00000 -1.29708e-12
  232 5397.95 0.00000 -1.40830e-13
  233 5397.95 0.00000 4.11071e-12
  234 5397.95 0.00000 5.57240e-13
  235 5397.95 0.00000 -7.25040e-13
  236 5397.95 0.00000 4.91045e-13
  237 5397.95 0.00000 -3.35914e-13
  238 5397.95 0.00000 -1.52176e-13
  239 5397.95 0.00000 -3.86266e-13
  240 5397.95 0.00000 -2.19499e-13
  241 5397.95 0.00000 -2.12313e-12
</Section>

newXOutput 116

<Section columns = "stress_xx | stress_yy | stress_xy">
  1 5447.86 0.00000 -8.18209e-13
  2 5447.86 0.00000 0.00000
  3 5447.86 0.00000 -2.09176e-12
  4 5447.86 0.00000 2.07788e-13
  5 5447.86 0.00000 -9.95512e-13
  6 5447.86 0.00000 -1.05270e-12
  7 5447.86 0.00000 1.00802e-13
  8 5447.86 0.00000 1.12288e-12
  9 5447.86 0.00000 8.58131e-13
  10 5447.86 0.00000 7.36718e-13
  11 5447.86 0.00000 -4.29140e-28
  12 5447.86 0.00000 -1.33640e-12
  13 5447.86 0.00000 -7.29384e-13
  14 5447.86 0.00000 -3.65533e-12
  15 5447.86 0.00000 -1.91601e-13
  16 5447.86 0.00000 2.12137e-12
  17 5447.86 0.00000 2.80721e-13
  18 5447.86 0.00000 3.87075e-12
  19 5447.86 0.00000 2.70176e-12
  20 5447.86 0.00000 1.84593e-13
  21 5447.86 0.00000 -8.55152e-13
  22 5447.86 0.00000 5.00152e-12
  23 5447.86 0.00000 1.82256e-12
  24 5447.86 0.00000 1.24392e-13
  25 5447.86 0.00000 5.59762e-13
  26 5447.86 0.00000 2.81888e-13
  27 5447.86 0.00000 5.28466e-12
  28 5447.86 0.00000 -1.89505e-12
  29 5447.86 0.00000 9.73080e-14
  30 5447.86 0.00000 1.23054e-13
  31 5447.86 0.00000 -3.55822e-12
  32 5447.86 0.00000 -1.89799e-12
  33 5447.86 0.00000 -6.77426e-15
  34 5447.86 0.00000 -5.01307e-13
  35 5447.86 0.00000 1.93220e-12
  36 5447.86 0.00000 1.49108e-12
  37 5447.86 0.00000 2.91360e-13
  38 5447.86 0.00000 -1.15823e-12
  39 5447.86 0.00000 7.48683e-14
  40 5447.86 0.00000 1.72554e-12
  41 5447.86 0.00000 4.89038e-13
  42 5447.86 0.00000 1.51953e-12
  43 5447.86 0.00000 6.11458e-14
  44 5447.86 0.00000 -3.25255e-13
  45 5447.86 0.00000 3.91155e-13
  46 5447.86 0.00000 -4.76636e-13
  47 5447.86 0.00000 -2.34374e-13
  48 5447.86 0.00000 -1.26853e-13
  49 5447.86 0.00000 1.81158e-13
  50 5447.86 0.00000 3.37520e-14
  51 5447.86 0.00000 -1.21715e-13
  52 5447.86 0.00000 -2.14749e-13
  53 5447.86 0.00000 7.54883e-14
  54 5447.86 0.00000 -4.38965e-14
  55 5447.86 0.00000 -2.15009e-13
  56 5447.86 0.00000 -3.39552e-13
  57 5447.86 0.00000 -1.08626e-13
  58 5447.86 0.00000 -3.97109e-13
  59 5447.86 0.00000 7.06627e-13
  60 5447.86 0.00000 -8.42580e-13
  61 5447.86 0.00000 1.07314e-12
  62 5447.86 0.00000 -4.23877e-13
  63 5447.86 0.00000 7.79378e-15
  64 5447.86 0.00000 -2.51437e-13
  65 5447.86 0.00000 3.95359e-14
  66 5447.86 0.00000 2.16646e-13
  67 5447.86 0.00000 -1.35590e-12
  68 5447.86 0.00000 5.97178e-13
  69 5447.86 0.00000 -4.22100e-13
  70 5447.86 0.00000 -8.40640e-13
  71 5447.86 0.00000 2.40483e-13
  72 5447.86 0.00000 -1.70193e-13
  73 5447.86 0.00000 6.23206e-13
  74 5447.86 0.00000 -1.67957e-13
  75 5447.86 0.00000 -1.10478e-12
  76 5447.86 0.00000 1.25985e-12
  77 5447.86 0.00000 6.53777e-14
  78 5447.86 0.00000 3.94892e-13
  79 5447.86 0.00000 5.11164e-13
  80 5447.86 0.00000 7.09439e-13
  81 5447.86 0.00000 -2.13579e-12
  82 5447.86 0.00000 -1.11686e-12
  83 5447.86 0.00000 -1.79475e-13
  84 5447.86 0.00000 -2.25734e-13
  85 5447.86 0.00000 1.24827e-12
  86 5447.86 0.00000 3.70363e-13
  87 5447.86 0.00000 -2.11671e-13
  88 5447.86 0.00000 1.38221e-12
  89 5447.86 0.00000 1.10721e-13
  90 5447.86 0.00000 4.28480e-13
  91 5447.86 0.00000 -3.65470e-13
  92 5447.86 0.00000 -4.80262e-14
  93 5447.86 0.00000 1.21575e-12
  94 5447.86 0.00000 -9.45336e-13
  95 5447.86 0.00000 -2.57648e-13
  96 5447.86 0.00000 -6.45596e-13
  97 5447.86 0.00000 1.69440e-13
  98 5447.86 0.00000 -6.85311e-13
  99 5447.86 0.00000 -9.51084e-13
  100 5447.86 0.00000 3.40076e-13
  101 5447.86 0.00000 4.95102e-13
  102 5447.86 0.00000 8.18391e-13
  103 5447.86 0.00000 -2.86414e-12
  104 5447.86 0.00000 -5.64576e-13
  105 5447.86 0.00000 -6.54903e-13
  106 5447.86 0.00000 2.76075e-13
  107 5447.86 0.00000 -8.16422e-14
  108 5447.86 0.00000 -2.44907e-13
  109 5447.86 0.00000 1.68845e-13
  110 5447.86 0.00000 -2.92516e-12
  111 5447.86 0.00000 8.73677e-13
  112 5447.86 0.00000 3.77858e-13
  113 5447.86 0.00000 -6.67656e-13
  114 5447.86 0.00000 1.38437e-13
  115 5447.86 0.00000 5.66645e-13
  116 5447.86 0.00000 -3.57490e-15
  117 5447.86 0.00000 -3.40461e-12
  118 5447.86 0.00000 3.60254e-13
  119 5447.86 0.00000 -6.67972e-13
  120 5447.86 0.00000 1.95727e-13
  121 5447.86 0.00000 -5.22822e-14
  122 5447.86 0.00000 -1.16932e-12
  123 5447.86 0.00000 -9.78926e-13
  124 5447.86 0.00000 -1.78885e-12
  125 5447.86 0.00000 -4.20879e-13
  126 5447.86 0.00000 4.76039e-13
  127 5447.86 0.00000 1.20455e-13
  128 5447.86 0.00000 5.49557e-13
  129 5447.86 0.00000 -3.57530e-13
  130 5447.86 0.00000 -6.84980e-14
  131 5447.86 0.00000 1.47370e-12
  132 5447.86 0.00000 -3.11327e-14
  133 5447.86 0.00000 2.38202e-12
  134 5447.86 0.00000 4.85785e-13
  135 5447.86 0.00000 1.88769e-12
  136 5447.86 0.00000 -8.12563e-14
  137 5447.86 0.00000 -2.30569e-14
  138 5447.86 0.00000 1.12453e-13
  139 5447.86 0.00000 -1.51244e-14
  140 5447.86 0.00000 -2.32061e-12
  141 5447.86 0.00000 2.92028e-13
  142 5447.86 0.00000 8.66115e-13
  143 5447.86 0.00000 -5.26925e-13
  144 5447.86 0.00000 -1.04774e-12
  145 5447.86 0.00000 -6.47506e-13
  146 5447.86 0.00000 -8.91529e-13
  147 5447.86 0.00000 3.83358e-13
  148 5447.86 0.00000 3.21939e-13
  149 5447.86 0.00000 2.63698e-12
  150 5447.86 0.00000 3.92623e-13
  151 5447.86 0.00000 -8.38198e-14
  152 5447.86 0.00000 -1.18253e-12
  153 5447.86 0.00000 3.09811e-13
  154 5447.86 0.00000 8.08465e-13
  155 5447.86 0.00000 7.39278e-14
  156 5447.86 0.00000 -7.43991e-14
  157 5447.86 0.00000 -2.22907e-13
  158 5447.86 0.00000 -3.17177e-13
  159 5447.86 0.00000 -3.88008e-13
  160 5447.86 0.00000 1.35246e-13
  161 5447.86 0.00000 5.00651e-12
  162 5447.86 0.00000 -5.03045e-13
  163 5447.86 0.00000 -8.06103e-13
  164 5447.86 0.00000 -8.13889e-14
  165 5447.86 0.00000 -1.01095e-13
  166 5447.86 0.00000 -2.15165e-13
  167 5447.86 0.00000 -1.95855e-13
  168 5447.86 0.00000 5.34254e-13
  169 5447.86 0.00000 -2.28643e-13
  170 5447.86 0.00000 3.97511e-13
  171 5447.86 0.00000 -3.52586e-14
  172 5447.86 0.00000 -1.02607e-12
  173 5447.86 0.00000 6.03036e-14
  174 5447.86 0.00000 1.66347e-14
  175 5447.86 0.00000 2.44230e-13
  176 5447.86 0.00000 -4.08435e-13
  177 5447.86 0.00000 -8.69248e-13
  178 5447.86 0.00000 -3.43940e-13
  179 5447.86 0.00000 2.71915e-13
  180 5447.86 0.00000 2.99366e-13
  181 5447.86 0.00000 -1.86122e-12
  182 5447.86 0.00000 -9.32619e-13
  183 5447.86 0.00000 -2.09927e-13
  184 5447.86 0.00000 2.04993e-12
  185 5447.86 0.00000 -1.07699e-13
  186 5447.86 0.00000 -2.70049e-12
  187 5447.86 0.00000 -5.47202e-13
  188 5447.86 0.00000 9.22678e-13
  189 5447.86 0.00000 7.09832e-13
  190 5447.86 0.00000 -2.88516e-13
  191 5447.86 0.00000 -7.13801e-14
  192 5447.86 0.00000 -1.78597e-13
  193 5447.86 0.00000 1.43000e-13
  194 5447.86 0.00000 6.77025e-13
  195 5447.86 0.00000 -4.29680e-13
  196 5447.86 0.00000 -9.45563e-13
  197 5447.86 0.00000 2.37807e-13
  198 5447.86 0.00000 3.01501e-12
  199 5447.86 0.00000 -1.87096e-14
  200 5447.86 0.00000 -2.44919e-12
  201 5447.86 0.00000 -7.54325e-13
  202 5447.86 0.00000 -2.51411e-12
  203 5447.86 0.00000 -2.64752e-13
  204 5447.86 0.00000 2.10418e-14
  205 5447.86 0.00000 6.27458e-14
  206 5447.86 0.00000 -2.71220e-13
  207 5447.86 0.00000 2.46382e-14
  208 5447.86 0.00000 2.62621e-13
  209 5447.86 0.00000 1.81131e-12
  210 5447.86 0.00000 -9.47291e-13
  211 5447.86 0.00000 -3.06339e-13
  212 5447.86 0.00000 3.94446e-12
  213 5447.86 0.00000 9.21763e-14
  214 5447.86 0.00000 4.04171e-13
  215 5447.86 0.00000 -2.04260e-12
  216 5447.86 0.00000 -3.50245e-14
  217 5447.86 0.00000 1.58831e-12
  218 5447.86 0.00000 -4.06705e-13
  219 5447.86 0.00000 -4.68987e-14
  220 5447.86 0.00000 -1.62721e-13
  221 5447.86 0.00000 9.54076e-13
  222 5447.86 0.00000 -4.47457e-13
  223 5447.86 0.00000 9.16693e-13
  224 5447.86 0.00000 5.56778e-13
  225 5447.86 0.00000 6.97270e-13
  226 5447.86 0.00000 3.42689e-13
  227 5447.86 0.00000 -5.10714e-13
  228 5447.86 0.00000 -4.68942e-13
  229 5447.86 0.00000 3.27086e-13
  230 5447.86 0.00000 -1.38049e-12
  231 5447.86 0.00000 -9.09003e-13
  232 5447.86 0.00000 3.97649e-14
  233 5447.86 0.00000 -2.74889e-12
  234 5447.86 0.00000 -1.44449e-13
  235 5447.86 0.00000 1.21676e-12
  236 5447.86 0.00000 3.11658e-13
  237 5447.86 0.00000 1.01907e-12
  238 5447.86 0.00000 8.41927e-13
  239 5447.86 0.00000 3.24445e-13
  240 5447.86 0.00000 4.59614e-13
  241 5447.86 0.00000 1.00713e-12
</Section>

newXOutput 117

<Section columns = "stress_xx | stress_yy | stress_xy">
  1 5497.86 0.00000 -5.44523e-14
  2 5497.86 0.00000 5.55417e-13
  3 5497.86 0.00000 -1.54198e-12
  4 5497.86 0.00000 -4.27923e-13
  5 5497.86 0.00000 -2.47471e-13
  6 5497.86 0.00000 -2.11170e-13
  7 5497.86 0.00000 -4.76792e-13
  8 5497.86 0.00000 -1.05647e-12
  9 5497.86 0.00000 -3.86038e-13
  10 5497.86 0.00000 -4.90516e-13
  11 5497.86 0.00000 1.72566e-12
  12 5497.86 0.00000 2.28878e-12
  13 5497.86 0.00000 1.30845e-12
  14 5497.86 0.00000 -1.35379e-12
  15 5497.86 0.00000 -1.29185e-12
  16 5497.86 0.00000 6.86545e-13
  17 5497.86 0.00000 6.17130e-13
  18 5497.86 0.00000 -6.32534e-13
  19 5497.86 0.00000 -3.51330e-13
  20 5497.86 0.00000 4.33584e-12
  21 5497.86 0.00000 -7.37012e-13
  22 5497.86 0.00000 -3.32258e-12
  23 5497.86 0.00000 -7.37368e-13
  24 5497.86 0.00000 -1.04478e-13
  25 5497.86 0.00000 -3.70278e-13
  26 5497.86 0.00000 -5.38924e-13
  27 5497.86 0.00000 -1.16768e-12
  28 5497.86 0.00000 1.84699e-12
  29 5497.86 0.00000 3.65220e-15
  30 5497.86 0.00000 5.35861e-13
  31 5497.86 0.00000 1.41731e-13
  32 5497.86 0.00000 2.45487e-12
  33 5497.86 0.00000 -4.81967e-14
  34 5497.86 0.00000 -3.06880e-12
  35 5497.86 0.00000 -8.68299e-13
  36 5497.86 0.00000 8.54574e-13
  37 5497.86 0.00000 1.89717e-12
  38 5497.86 0.00000 2.81408e-12
  39 5497.86 0.00000 1.00008e-12
  40 5497.86 0.00000 -1.02433e-12
  41 5497.86 0.00000 -1.51161e-12
  42 5497.86 0.00000 -2.48454e-13
  43 5497.86 0.00000 7.85845e-13
  44 5497.86 0.00000 2.30328e-13
  45 5497.86 0.00000 -3.58721e-13
  46 5497.86 0.00000 -5.58960e-13
  47 5497.86 0.00000 -3.26310e-13
  48 5497.86 0.00000 -1.71304e-14
  49 5497.86 0.00000 -6.77250e-13
  50 5497.86 0.00000 3.65220e-15
  51 5497.86 0.00000 -3.65220e-15
  52 5497.86 0.00000 5.14228e-14
  53 5497.86 0.00000 1.47022e-13
  54 5497.86 0.00000 -3.46468e-14
  55 5497.86 0.00000 3.41856e-13
  56 5497.86 0.00000 1.06802e-13
  57 5497.86 0.00000 -1.45793e-13
  58 5497.86 0.00000 2.50105e-13
  59 5497.86 0.00000 2.99166e-13
  60 5497.86 0.00000 -2.50561e-13
  61 5497.86 0.00000 3.43207e-13
  62 5497.86 0.00000 1.96333e-13
  63 5497.86 0.00000 -1.62034e-14
  64 5497.86 0.00000 1.84638e-12
  65 5497.86 0.00000 1.45374e-14
  66 5497.86 0.00000 -1.89234e-13
  67 5497.86 0.00000 1.07608e-12
  68 5497.86 0.00000 -1.34548e-13
  69 5497.86 0.00000 7.01501e-13
  70 5497.86 0.00000 5.13771e-13
  71 5497.86 0.00000 -4.20624e-13
  72 5497.86 0.00000 3.17356e-13
  73 5497.86 0.00000 -9.83883e-13
  74 5497.86 0.00000 8.83917e-14
  75 5497.86 0.00000 9.99895e-13
  76 5497.86 0.00000 -1.03911e-12
  77 5497.86 0.00000 1.03139e-13
  78 5497.86 0.00000 1.35296e-12
  79 5497.86 0.00000 -5.51792e-13
  80 5497.86 0.00000 1.92787e-13
  81 5497.86 0.00000 -6.58134e-13
  82 5497.86 0.00000 -1.04602e-12
  83 5497.86 0.00000 -2.76435e-13
  84 5497.86 0.00000 -1.97246e-13
  85 5497.86 0.00000 5.93975e-13
  86 5497.86 0.00000 -1.41755e-13
  87 5497.86 0.00000 -1.49468e-14
  88 5497.86 0.00000 -3.24438e-12
  89 5497.86 0.00000 6.87033e-14
  90 5497.86 0.00000 -5.62080e-13
  91 5497.86 0.00000 -1.11820e-13
  92 5497.86 0.00000 2.78916e-13
  93 5497.86 0.00000 7.33304e-13
  94 5497.86 0.00000 -9.80403e-14
  95 5497.86 0.00000 -1.25319e-12
  96 5497.86 0.00000 1.08327e-12
  97 5497.86 0.00000 -3.75648e-12
  98 5497.86 0.00000 1.67840e-13
  99 5497.86 0.00000 2.16107e-12
  100 5497.86 0.00000 4.97856e-13
  101 5497.86 0.00000 -2.24074e-13
  102 5497.86 0.00000 1.79202e-13
  103 5497.86 0.00000 9.15368e-13
  104 5497.86 0.00000 7.67104e-13
  105 5497.86 0.00000 -4.58623e-13
  106 5497.86 0.00000 -7.18010e-13
  107 5497.86 0.00000 -4.36783e-14
  108 5497.86 0.00000 2.19586e-13
  109 5497.86 0.00000 -3.91248e-13
  110 5497.86 0.00000 2.82299e-12
  111 5497.86 0.00000 -9.34739e-13
  112 5497.86 0.00000 4.30637e-13
  113 5497.86 0.00000 -1.16981e-13
  114 5497.86 0.00000 1.13112e-12
  115 5497.86 0.00000 -5.95800e-13
  116 5497.86 0.00000 -4.22339e-13
  117 5497.86 0.00000 6.81100e-13
  118 5497.86 0.00000 -3.63396e-14
  119 5497.86 0.00000 7.56331e-13
  120 5497.86 0.00000 1.08133e-12
  121 5497.86 0.00000 -2.93038e-13
  122 5497.86 0.00000 1.00264e-12
  123 5497.86 0.00000 2.84712e-13
  124 5497.86 0.00000 3.26295e-13
  125 5497.86 0.00000 6.30857e-13
  126 5497.86 0.00000 -4.68175e-13
  127 5497.86 0.00000 1.33254e-12
  128 5497.86 0.00000 4.52587e-13
  129 5497.86 0.00000 -3.01566e-14
  130 5497.86 0.00000 3.12969e-13
  131 5497.86 0.00000 6.46714e-13
  132 5497.86 0.00000 -1.04529e-12
  133 5497.86 0.00000 -1.68593e-13
  134 5497.86 0.00000 -4.08013e-14
  135 5497.86 0.00000 -1.76419e-12
  136 5497.86 0.00000 -1.92365e-13
  137 5497.86 0.00000 3.65270e-13
  138 5497.86 0.00000 1.10432e-12
  139 5497.86 0.00000 2.71504e-13
  140 5497.86 0.00000 1.11770e-12
  141 5497.86 0.00000 -2.37444e-13
  142 5497.86 0.00000 -2.46475e-13
  143 5497.86 0.00000 3.31980e-13
  144 5497.86 0.00000 4.62618e-13
  145 5497.86 0.00000 -4.18086e-13
  146 5497.86 0.00000 -2.61035e-13
  147 5497.86 0.00000 1.70156e-13
  148 5497.86 0.00000 1.48428e-13
  149 5497.86 0.00000 4.11880e-13
  150 5497.86 0.00000 -1.81127e-14
  151 5497.86 0.00000 2.54732e-13
  152 5497.86 0.00000 -9.70591e-15
  153 5497.86 0.00000 4.19097e-13
  154 5497.86 0.00000 5.08263e-14
  155 5497.86 0.00000 1.61706e-13
  156 5497.86 0.00000 -2.96851e-13
  157 5497.86 0.00000 3.71160e-13
  158 5497.86 0.00000 -3.11629e-13
  159 5497.86 0.00000 -2.07739e-14
  160 5497.86 0.00000 7.45733e-14
  161 5497.86 0.00000 -8.77537e-13
  162 5497.86 0.00000 3.26782e-13
  163 5497.86 0.00000 7.86360e-14
  164 5497.86 0.00000 -5.65320e-13
  165 5497.86 0.00000 -1.14884e-14
  166 5497.86 0.00000 1.81311e-13
  167 5497.86 0.00000 7.26528e-13
  168 5497.86 0.00000 9.09761e-13
  169 5497.86 0.00000 -1.49316e-14
  170 5497.86 0.00000 4.41198e-13
  171 5497.86 0.00000 2.10069e-13
  172 5497.86 0.00000 7.52664e-13
  173 5497.86 0.00000 -4.51917e-13
  174 5497.86 0.00000 -1.09126e-13
  175 5497.86 0.00000 -2.99311e-13
  176 5497.86 0.00000 -2.15710e-14
  177 5497.86 0.00000 -1.51023e-12
  178 5497.86 0.00000 7.37990e-14
  179 5497.86 0.00000 -8.87284e-13
  180 5497.86 0.00000 3.42994e-13
  181 5497.86 0.00000 3.15324e-14
  182 5497.86 0.00000 1.09960e-12
  183 5497.86 0.00000 1.75859e-13
  184 5497.86 0.00000 3.58909e-13
  185 5497.86 0.00000 2.43244e-13
  186 5497.86 0.00000 3.73147e-13
  187 5497.86 0.00000 -1.91172e-12
  188 5497.86 0.00000 -8.51960e-14
  189 5497.86 0.00000 -1.54724e-13
  190 5497.86 0.00000 3.48666e-13
  191 5497.86 0.00000 5.14676e-13
  192 5497.86 0.00000 7.66700e-13
  193 5497.86 0.00000 1.33339e-12
  194 5497.86 0.00000 1.71946e-13
  195 5497.86 0.00000 3.90857e-13
  196 5497.86 0.00000 -4.73855e-14
  197 5497.86 0.00000 -2.33537e-13
  198 5497.86 0.00000 -4.70549e-13
  199 5497.86 0.00000 1.54039e-13
  200 5497.86 0.00000 -2.12697e-13
  201 5497.86 0.00000 9.02146e-14
  202 5497.86 0.00000 6.62675e-13
  203 5497.86 0.00000 -7.32320e-13
  204 5497.86 0.00000 2.98939e-13
  205 5497.86 0.00000 -2.03979e-14
  206 5497.86 0.00000 -3.68152e-13
  207 5497.86 0.00000 -7.62020e-13
  208 5497.86 0.00000 3.19925e-13
  209 5497.86 0.00000 -7.13063e-13
  210 5497.86 0.00000 4.16501e-14
  211 5497.86 0.00000 -7.58920e-14
  212 5497.86 0.00000 -1.11763e-12
  213 5497.86 0.00000 -3.23477e-13
  214 5497.86 0.00000 -1.43962e-12
  215 5497.86 0.00000 1.08270e-12
  216 5497.86 0.00000 1.37772e-13
  217 5497.86 0.00000 7.56316e-13
  218 5497.86 0.00000 3.77800e-14
  219 5497.86 0.00000 8.07651e-13
  220 5497.86 0.00000 8.76642e-13
  221 5497.86 0.00000 -9.50805e-13
  222 5497.86 0.00000 -4.35623e-14
  223 5497.86 0.00000 2.22910e-13
  224 5497.86 0.00000 -3.76360e-13
  225 5497.86 0.00000 -4.74614e-13
  226 5497.86 0.00000 1.11588e-13
  227 5497.86 0.00000 -2.50094e-13
  228 5497.86 0.00000 7.67701e-13
  229 5497.86 0.00000 -8.34052e-14
  230 5497.86 0.00000 9.64254e-13
  231 5497.86 0.00000 8.14185e-13
  232 5497.86 0.00000 1.36596e-13
  233 5497.86 0.00000 7.02358e-13
  234 5497.86 0.00000 -2.21520e-13
  235 5497.86 0.00000 -1.63404e-12
  236 5497.86 0.00000 -1.92764e-14
  237 5497.86 0.00000 2.92705e-13
  238 5497.86 0.00000 -3.66452e-13
  239 5497.86 0.00000 4.71834e-13
  240 5497.86 0.00000 5.06807e-13
  241 5497.86 0.00000 5.01406e-13
</Section>

newXOutput 118

<Section columns = "stress_xx | stress_yy | stress_xy">
  1 5547.96 0.00000 -2.40226e-13
  2 5547.96 0.00000 -1.83687e-13
  3 5547.96 0.00000 -2.77999e-13
  4 5547.96 0.00000 4.36152e-14
  5 5547.96 0.00000 -2.68242e-13
  6 5547.96 0.00000 -2.84217e-14
  7 5547.96 0.00000 3.31765e-13
  8 5547.96 0.00000 6.02098e-13
  9 5547.96 0.00000 7.62046e-13
  10 5547.96 0.00000 6.87269e-13
  11 5547.96 0.00000 -4.42353e-13
  12 5547.96 0.00000 -1.40765e-12
  13 5547.96 0.00000 -1.00279e-12
  14 5547.96 0.00000 -1.25167e-12
  15 5547.96 0.00000 -8.75030e-13
  16 5547.96 0.00000 -9.51132e-13
  17 5547.96 0.00000 -3.06897e-12
  18 5547.96 0.00000 4.61301e-13
  19 5547.96 0.00000 1.48741e-12
  20 5547.96 0.00000 3.14898e-12
  21 5547.96 0.00000 3.63881e-12
  22 5547.96 0.00000 1.40204e-12
  23 5547.96 0.00000 -1.31810e-12
  24 5547.96 0.00000 8.65758e-13
  25 5547.96 0.00000 -5.51060e-13
  26 5547.96 0.00000 6.30997e-13
  27 5547.96 0.00000 2.26346e-12
  28 5547.96 0.00000 -1.88141e-12
  29 5547.96 0.00000 -6.57822e-15
  30 5547.96 0.00000 3.22077e-13
  31 5547.96 0.00000 -1.25325e-12
  32 5547.96 0.00000 -2.27407e-12
  33 5547.96 0.00000 -1.30761e-12
  34 5547.96 0.00000 -1.83614e-12
  35 5547.96 0.00000 1.53805e-13
  36 5547.96 0.00000 4.38467e-13
  37 5547.96 0.00000 -3.49228e-13
  38 5547.96 0.00000 -2.47755e-13
  39 5547.96 0.00000 7.20678e-13
  40 5547.96 0.00000 -1.00516e-12
  41 5547.96 0.00000 -2.01512e-13
  42 5547.96 0.00000 -1.11299e-12
  43 5547.96 0.00000 -1.06900e-12
  44 5547.96 0.00000 -1.16688e-12
  45 5547.96 0.00000 -4.08390e-13
  46 5547.96 0.00000 -2.57500e-13
  47 5547.96 0.00000 -3.01984e-13
  48 5547.96 0.00000 -4.81583e-13
  49 5547.96 0.00000 -1.98137e-13
  50 5547.96 0.00000 -5.48185e-15
  51 5547.96 0.00000 -6.57822e-15
  52 5547.96 0.00000 -8.22277e-16
  53 5547.96 0.00000 -2.21379e-13
  54 5547.96 0.00000 8.82499e-14
  55 5547.96 0.00000 -2.12108e-13
  56 5547.96 0.00000 -5.19650e-13
  57 5547.96 0.00000 -1.41584e-14
  58 5547.96 0.00000 6.08388e-13
  59 5547.96 0.00000 -1.60227e-13
  60 5547.96 0.00000 -6.05620e-13
  61 5547.96 0.00000 6.59840e-13
  62 5547.96 0.00000 -8.47800e-13
  63 5547.96 0.00000 1.92023e-12
  64 5547.96 0.00000 -8.93499e-14
  65 5547.96 0.00000 6.63332e-15
  66 5547.96 0.00000 4.61098e-13
  67 5547.96 0.00000 -3.00467e-12
  68 5547.96 0.00000 4.02914e-13
  69 5547.96 0.00000 -4.59641e-13
  70 5547.96 0.00000 -1.06856e-13
  71 5547.96 0.00000 4.01371e-13
  72 5547.96 0.00000 -5.61602e-13
  73 5547.96 0.00000 4.75655e-13
  74 5547.96 0.00000 -3.27395e-13
  75 5547.96 0.00000 8.25015e-13
  76 5547.96 0.00000 2.41081e-12
  77 5547.96 0.00000 9.09900e-14
  78 5547.96 0.00000 3.00810e-13
  79 5547.96 0.00000 2.92295e-14
  80 5547.96 0.00000 -1.42502e-13
  81 5547.96 0.00000 -1.98238e-14
  82 5547.96 0.00000 9.18366e-13
  83 5547.96 0.00000 6.26589e-13
  84 5547.96 0.00000 2.56376e-13
  85 5547.96 0.00000 -5.31117e-13
  86 5547.96 0.00000 1.40986e-12
  87 5547.96 0.00000 -1.21308e-13
  88 5547.96 0.00000 2.59143e-12
  89 5547.96 0.00000 2.71157e-13
  90 5547.96 0.00000 -2.61569e-13
  91 5547.96 0.00000 1.24451e-13
  92 5547.96 0.00000 -4.40374e-14
  93 5547.96 0.00000 1.06610e-12
  94 5547.96 0.00000 6.23061e-13
  95 5547.96 0.00000 1.42787e-12
  96 5547.96 0.00000 1.06871e-12
  97 5547.96 0.00000 2.88893e-12
  98 5547.96 0.00000 -4.57264e-13
  99 5547.96 0.00000 1.03963e-12
  100 5547.96 0.00000 3.48818e-13
  101 5547.96 0.00000 -1.13681e-12
  102 5547.96 0.00000 1.28925e-12
  103 5547.96 0.00000 -2.24062e-12
  104 5547.96 0.00000 5.78150e-13
  105 5547.96 0.00000 -1.00410e-12
  106 5547.96 0.00000 9.40156e-13
  107 5547.96 0.00000 1.16697e-12
  108 5547.96 0.00000 3.16103e-14
  109 5547.96 0.00000 2.71157e-13
  110 5547.96 0.00000 -2.10631e-12
  111 5547.96 0.00000 -1.47728e-13
  112 5547.96 0.00000 -1.45686e-14
  113 5547.96 0.00000 -8.16439e-14
  114 5547.96 0.00000 1.95547e-13
  115 5547.96 0.00000 2.78648e-13
  116 5547.96 0.00000 2.85279e-13
  117 5547.96 0.00000 6.98725e-13
  118 5547.96 0.00000 5.74677e-14
  119 5547.96 0.00000 6.61127e-14
  120 5547.96 0.00000 4.99414e-13
  121 5547.96 0.00000 4.93742e-13
  122 5547.96 0.00000 -1.22272e-14
  123 5547.96 0.00000 6.23370e-13
  124 5547.96 0.00000 7.76657e-13
  125 5547.96 0.00000 2.28452e-13
  126 5547.96 0.00000 -2.89877e-14
  127 5547.96 0.00000 2.52265e-13
  128 5547.96 0.00000 7.78100e-13
  129 5547.96 0.00000 -1.04924e-13
  130 5547.96 0.00000 -2.39678e-13
  131 5547.96 0.00000 -1.61198e-12
  132 5547.96 0.00000 -4.83951e-13
  133 5547.96 0.00000 -6.65844e-13
  134 5547.96 0.00000 6.74939e-13
  135 5547.96 0.00000 2.59389e-12
  136 5547.96 0.00000 -3.43332e-13
  137 5547.96 0.00000 -3.12150e-12
  138 5547.96 0.00000 -5.44973e-13
  139 5547.96 0.00000 -6.77862e-14
  140 5547.96 0.00000 1.64120e-12
  141 5547.96 0.00000 1.24958e-12
  142 5547.96 0.00000 -3.83824e-13
  143 5547.96 0.00000 -4.71899e-13
  144 5547.96 0.00000 5.77481e-13
  145 5547.96 0.00000 -1.06421e-12
  146 5547.96 0.00000 7.77341e-13
  147 5547.96 0.00000 -1.06081e-12
  148 5547.96 0.00000 -2.21379e-13
  149 5547.96 0.00000 1.00818e-12
  150 5547.96 0.00000 1.36012e-13
  151 5547.96 0.00000 -6.18857e-13
  152 5547.96 0.00000 1.15565e-12
  153 5547.96 0.00000 1.06784e-12
  154 5547.96 0.00000 8.55012e-14
  155 5547.96 0.00000 -1.66312e-13
  156 5547.96 0.00000 2.43695e-12
  157 5547.96 0.00000 -1.74625e-13
  158 5547.96 0.00000 -2.35088e-12
  159 5547.96 0.00000 6.03922e-13
  160 5547.96 0.00000 -5.86962e-14
  161 5547.96 0.00000 2.55531e-12
  162 5547.96 0.00000 -1.14078e-13
  163 5547.96 0.00000 -1.81494e-13
  164 5547.96 0.00000 9.96603e-13
  165 5547.96 0.00000 3.00501e-13
  166 5547.96 0.00000 -1.16755e-13
  167 5547.96 0.00000 -4.50232e-13
  168 5547.96 0.00000 -1.28982e-13
  169 5547.96 0.00000 2.43383e-13
  170 5547.96 0.00000 -1.73889e-12
  171 5547.96 0.00000 -5.42937e-13
  172 5547.96 0.00000 -6.44785e-13
  173 5547.96 0.00000 -5.23507e-13
  174 5547.96 0.00000 1.40746e-12
  175 5547.96 0.00000 9.06623e-14
  176 5547.96 0.00000 -3.74998e-13
  177 5547.96 0.00000 4.08420e-13
  178 5547.96 0.00000 4.75164e-14
  179 5547.96 0.00000 4.54600e-13
  180 5547.96 0.00000 -1.08187e-29
  181 5547.96 0.00000 1.79248e-12
  182 5547.96 0.00000 -9.26576e-13
  183 5547.96 0.00000 4.47141e-13
  184 5547.96 0.00000 -7.79613e-13
  185 5547.96 0.00000 6.07087e-13
  186 5547.96 0.00000 1.16121e-14
  187 5547.96 0.00000 9.95469e-13
  188 5547.96 0.00000 -5.13082e-13
  189 5547.96 0.00000 1.37098e-12
  190 5547.96 0.00000 -2.74843e-13
  191 5547.96 0.00000 3.09127e-13
  192 5547.96 0.00000 -6.34736e-13
  193 5547.96 0.00000 -9.73349e-14
  194 5547.96 0.00000 -1.48451e-12
  195 5547.96 0.00000 -1.44892e-13
  196 5547.96 0.00000 -1.15196e-12
  197 5547.96 0.00000 8.26177e-13
  198 5547.96 0.00000 3.90598e-13
  199 5547.96 0.00000 -1.43595e-14
  200 5547.96 0.00000 3.70456e-13
  201 5547.96 0.00000 4.55936e-13
  202 5547.96 0.00000 -1.42637e-13
  203 5547.96 0.00000 -6.28736e-13
  204 5547.96 0.00000 5.26090e-13
  205 5547.96 0.00000 3.42438e-13
  206 5547.96 0.00000 1.28197e-12
  207 5547.96 0.00000 4.02692e-14
  208 5547.96 0.00000 3.11226e-13
  209 5547.96 0.00000 1.14849e-12
  210 5547.96 0.00000 -6.38965e-13
  211 5547.96 0.00000 -1.51376e-13
  212 5547.96 0.00000 1.82704e-12
  213 5547.96 0.00000 -1.47800e-13
  214 5547.96 0.00000 -2.04687e-13
  215 5547.96 0.00000 -6.33010e-13
  216 5547.96 0.00000 3.01451e-13
  217 5547.96 0.00000 2.86885e-13
  218 5547.96 0.00000 -1.09938e-13
  219 5547.96 0.00000 1.41078e-13
  220 5547.96 0.00000 -2.90238e-13
  221 5547.96 0.00000 5.67409e-13
  222 5547.96 0.00000 -1.89021e-12
  223 5547.96 0.00000 -4.68596e-13
  224 5547.96 0.00000 -3.75867e-13
  225 5547.96 0.00000 -9.45675e-14
  226 5547.96 0.00000 6.11477e-13
  227 5547.96 0.00000 3.42883e-13
  228 5547.96 0.00000 8.80836e-13
  229 5547.96 0.00000 1.62242e-13
  230 5547.96 0.00000 -2.68140e-13
  231 5547.96 0.00000 1.23411e-12
  232 5547.96 0.00000 -9.07060e-14
  233 5547.96 0.00000 1.10413e-12
  234 5547.96 0.00000 -3.15029e-15
  235 5547.96 0.00000 -1.08538e-12
  236 5547.96 0.00000 5.31474e-13
  237 5547.96 0.00000 -5.47467e-13
  238 5547.96 0.00000 7.62616e-13
  239 5547.96 0.00000 1.32128e-12
  240 5547.96 0.00000 -8.22095e-13
  241 5547.96 0.00000 -6.00217e-13
</Section>

newXOutput 119

<Section columns = "stress_xx | stress_yy | stress_xy">
  1 5598.16 0.00000 4.75866e-14
  2 5598.16 0.00000 -2.09243e-12
  3 5598.16 0.00000 -4.56279e-13
  4 5598.16 0.00000 1.74299e-14
  5 5598.16 0.00000 -4.32254e-13
  6 5598.16 0.00000 -6.95968e-13
  7 5598.16 0.00000 -3.66253e-13
  8 5598.16 0.00000 -2.44168e-13
  9 5598.16 0.00000 -7.90543e-13
  10 5598.16 0.00000 -1.29481e-12
  11 5598.16 0.00000 -8.69919e-13
  12 5598.16 0.00000 8.97625e-14
  13 5598.16 0.00000 7.74242e-13
  14 5598.16 0.00000 0.00000
  15 5598.16 0.00000 6.21803e-13
  16 5598.16 0.00000 1.86196e-12
  17 5598.16 0.00000 1.96147e-12
  18 5598.16 0.00000 -9.30978e-13
  19 5598.16 0.00000 -2.94039e-12
  20 5598.16 0.00000 2.57593e-12
  21 5598.16 0.00000 2.14985e-12
  22 5598.16 0.00000 -1.43587e-12
  23 5598.16 0.00000 -2.38517e-12
  24 5598.16 0.00000 9.92600e-13
  25 5598.16 0.00000 -2.10652e-13
  26 5598.16 0.00000 -2.87556e-13
  27 5598.16 0.00000 -3.96913e-12
  28 5598.16 0.00000 -1.18806e-13
  29 5598.16 0.00000 0.00000
  30 5598.16 0.00000 1.01447e-12
  31 5598.16 0.00000 1.83736e-12
  32 5598.16 0.00000 2.57709e-12
  33 5598.16 0.00000 -6.80670e-13
  34 5598.16 0.00000 -1.40447e-13
  35 5598.16 0.00000 2.32920e-12
  36 5598.16 0.00000 4.14949e-14
  37 5598.16 0.00000 -7.68440e-13
  38 5598.16 0.00000 -1.63786e-13
  39 5598.16 0.00000 -4.88206e-13
  40 5598.16 0.00000 8.33913e-13
  41 5598.16 0.00000 2.20706e-12
  42 5598.16 0.00000 5.87348e-13
  43 5598.16 0.00000 3.21426e-13
  44 5598.16 0.00000 2.23968e-13
  45 5598.16 0.00000 1.81333e-13
  46 5598.16 0.00000 -3.63634e-13
  47 5598.16 0.00000 -4.24481e-13
  48 5598.16 0.00000 -2.88601e-13
  49 5598.16 0.00000 -5.13853e-14
  50 5598.16 0.00000 -3.54073e-14
  51 5598.16 0.00000 0.00000
  52 5598.16 0.00000 8.55546e-14
  53 5598.16 0.00000 2.70690e-14
  54 5598.16 0.00000 5.38423e-14
  55 5598.16 0.00000 1.82230e-13
  56 5598.16 0.00000 -5.74998e-14
  57 5598.16 0.00000 -3.94139e-13
  58 5598.16 0.00000 5.80100e-13
  59 5598.16 0.00000 1.09379e-13
  60 5598.16 0.00000 3.01152e-14
  61 5598.16 0.00000 4.64734e-13
  62 5598.16 0.00000 3.02194e-13
  63 5598.16 0.00000 6.08362e-13
  64 5598.16 0.00000 -2.19776e-12
  65 5598.16 0.00000 2.16992e-13
  66 5598.16 0.00000 -6.21603e-13
  67 5598.16 0.00000 3.42366e-12
  68 5598.16 0.00000 -1.60291e-12
  69 5598.16 0.00000 6.25648e-13
  70 5598.16 0.00000 5.52563e-13
  71 5598.16 0.00000 2.93842e-13
  72 5598.16 0.00000 -3.41994e-13
  73 5598.16 0.00000 -6.97088e-13
  74 5598.16 0.00000 -5.39215e-14
  75 5598.16 0.00000 1.73465e-13
  76 5598.16 0.00000 -1.85261e-12
  77 5598.16 0.00000 9.36536e-15
  78 5598.16 0.00000 2.36843e-12
  79 5598.16 0.00000 -5.81368e-13
  80 5598.16 0.00000 -2.82552e-13
  81 5598.16 0.00000 -7.87838e-13
  82 5598.16 0.00000 1.61780e-12
  83 5598.16 0.00000 -5.82135e-13
  84 5598.16 0.00000 -2.25112e-13
  85 5598.16 0.00000 9.79700e-13
  86 5598.16 0.00000 9.47390e-15
  87 5598.16 0.00000 -1.04978e-13
  88 5598.16 0.00000 1.80035e-12
  89 5598.16 0.00000 3.33299e-14
  90 5598.16 0.00000 -6.76092e-13
  91 5598.16 0.00000 -2.74392e-13
  92 5598.16 0.00000 -2.11698e-13
  93 5598.16 0.00000 9.24393e-13
  94 5598.16 0.00000 7.30897e-13
  95 5598.16 0.00000 -7.62414e-14
  96 5598.16 0.00000 8.38936e-13
  97 5598.16 0.00000 -2.31417e-12
  98 5598.16 0.00000 6.09007e-13
  99 5598.16 0.00000 -1.30693e-13
  100 5598.16 0.00000 2.42847e-13
  101 5598.16 0.00000 1.11793e-13
  102 5598.16 0.00000 -1.94961e-12
  103 5598.16 0.00000 2.72190e-12
  104 5598.16 0.00000 6.96779e-13
  105 5598.16 0.00000 9.04338e-14
  106 5598.16 0.00000 -2.84014e-13
  107 5598.16 0.00000 7.67696e-13
  108 5598.16 0.00000 7.51190e-14
  109 5598.16 0.00000 -2.50789e-14
  110 5598.16 0.00000 5.81266e-13
  111 5598.16 0.00000 1.18397e-12
  112 5598.16 0.00000 3.54182e-13
  113 5598.16 0.00000 -2.41988e-13
  114 5598.16 0.00000 8.74113e-13
  115 5598.16 0.00000 1.03116e-13
  116 5598.16 0.00000 1.50921e-13
  117 5598.16 0.00000 -3.83137e-12
  118 5598.16 0.00000 -1.29812e-15
  119 5598.16 0.00000 1.52434e-13
  120 5598.16 0.00000 1.39489e-12
  121 5598.16 0.00000 -4.91387e-13
  122 5598.16 0.00000 -3.54303e-13
  123 5598.16 0.00000 2.09295e-12
  124 5598.16 0.00000 2.07423e-13
  125 5598.16 0.00000 4.98821e-13
  126 5598.16 0.00000 -2.45272e-13
  127 5598.16 0.00000 2.67008e-13
  128 5598.16 0.00000 -2.90993e-13
  129 5598.16 0.00000 6.33209e-13
  130 5598.16 0.00000 -1.48506e-13
  131 5598.16 0.00000 4.79083e-13
  132 5598.16 0.00000 5.94805e-13
  133 5598.16 0.00000 -5.38812e-13
  134 5598.16 0.00000 3.47719e-13
  135 5598.16 0.00000 -1.47204e-12
  136 5598.16 0.00000 -2.09845e-13
  137 5598.16 0.00000 3.03053e-12
  138 5598.16 0.00000 5.95267e-13
  139 5598.16 0.00000 2.40377e-14
  140 5598.16 0.00000 -1.96457e-12
  141 5598.16 0.00000 -1.17521e-12
  142 5598.16 0.00000 -3.25054e-13
  143 5598.16 0.00000 2.56850e-13
  144 5598.16 0.00000 1.19851e-12
  145 5598.16 0.00000 -8.45283e-14
  146 5598.16 0.00000 3.16541e-13
  147 5598.16 0.00000 -4.75276e-14
  148 5598.16 0.00000 -1.50347e-13
  149 5598.16 0.00000 -2.49278e-12
  150 5598.16 0.00000 2.74216e-13
  151 5598.16 0.00000 3.85358e-13
  152 5598.16 0.00000 -2.09421e-12
  153 5598.16 0.00000 1.10770e-13
  154 5598.16 0.00000 -2.43754e-13
  155 5598.16 0.00000 -8.67786e-13
  156 5598.16 0.00000 -3.75924e-13
  157 5598.16 0.00000 2.96288e-14
  158 5598.16 0.00000 -1.02017e-12
  159 5598.16 0.00000 5.06090e-13
  160 5598.16 0.00000 7.73117e-14
  161 5598.16 0.00000 -2.90532e-12
  162 5598.16 0.00000 2.70482e-13
  163 5598.16 0.00000 -7.29264e-13
  164 5598.16 0.00000 1.30197e-13
  165 5598.16 0.00000 -1.01918e-13
  166 5598.16 0.00000 4.63812e-14
  167 5598.16 0.00000 6.15751e-13
  168 5598.16 0.00000 2.96700e-12
  169 5598.16 0.00000 2.25852e-13
  170 5598.16 0.00000 5.99269e-12
  171 5598.16 0.00000 -5.21966e-13
  172 5598.16 0.00000 -1.09747e-13
  173 5598.16 0.00000 3.75278e-13
  174 5598.16 0.00000 -3.83848e-13
  175 5598.16 0.00000 -4.50439e-15
  176 5598.16 0.00000 -1.41252e-13
  177 5598.16 0.00000 9.60532e-13
  178 5598.16 0.00000 5.68382e-13
  179 5598.16 0.00000 -3.80190e-13
  180 5598.16 0.00000 -8.95621e-15
  181 5598.16 0.00000 -1.01522e-12
  182 5598.16 0.00000 3.75296e-13
  183 5598.16 0.00000 -8.28742e-13
  184 5598.16 0.00000 1.97760e-12
  185 5598.16 0.00000 -4.86851e-13
  186 5598.16 0.00000 -1.14097e-12
  187 5598.16 0.00000 3.15361e-13
  188 5598.16 0.00000 3.39828e-13
  189 5598.16 0.00000 -2.30762e-13
  190 5598.16 0.00000 1.59173e-14
  191 5598.16 0.00000 1.34524e-12
  192 5598.16 0.00000 1.73974e-13
  193 5598.16 0.00000 9.12325e-13
  194 5598.16 0.00000 1.30444e-12
  195 5598.16 0.00000 4.05100e-13
  196 5598.16 0.00000 2.31970e-12
  197 5598.16 0.00000 -3.33931e-13
  198 5598.16 0.00000 -7.21674e-14
  199 5598.16 0.00000 2.59922e-13
  200 5598.16 0.00000 -2.40628e-12
  201 5598.16 0.00000 -7.49019e-14
  202 5598.16 0.00000 1.91570e-12
  203 5598.16 0.00000 -3.64900e-13
  204 5598.16 0.00000 -1.91802e-13
  205 5598.16 0.00000 1.56028e-13
  206 5598.16 0.00000 -1.02245e-12
  207 5598.16 0.00000 -1.23625e-14
  208 5598.16 0.00000 8.91646e-13
  209 5598.16 0.00000 1.99844e-14
  210 5598.16 0.00000 3.33150e-13
  211 5598.16 0.00000 -1.34993e-13
  212 5598.16 0.00000 -4.48721e-13
  213 5598.16 0.00000 -1.68064e-13
  214 5598.16 0.00000 2.31108e-13
  215 5598.16 0.00000 -5.49888e-13
  216 5598.16 0.00000 -6.59308e-13
  217 5598.16 0.00000 6.16276e-13
  218 5598.16 0.00000 2.91520e-13
  219 5598.16 0.00000 -1.05256e-13
  220 5598.16 0.00000 -1.38812e-13
  221 5598.16 0.00000 -4.24888e-13
  222 5598.16 0.00000 1.61658e-12
  223 5598.16 0.00000 -8.45754e-13
  224 5598.16 0.00000 3.15550e-13
  225 5598.16 0.00000 2.93063e-12
  226 5598.16 0.00000 -1.82041e-13
  227 5598.16 0.00000 4.15278e-14
  228 5598.16 0.00000 3.65705e-13
  229 5598.16 0.00000 -3.00962e-13
  230 5598.16 0.00000 -8.60980e-13
  231 5598.16 0.00000 5.84571e-13
  232 5598.16 0.00000 5.62272e-14
  233 5598.16 0.00000 -9.71389e-13
  234 5598.16 0.00000 -2.62850e-13
  235 5598.16 0.00000 9.98187e-13
  236 5598.16 0.00000 -1.13945e-13
  237 5598.16 0.00000 -3.22190e-14
  238 5598.16 0.00000 2.55707e-13
  239 5598.16 0.00000 8.59832e-14
  240 5598.16 0.00000 5.16098e-13
  241 5598.16 0.00000 1.43587e-12
</Section>

newXOutput 120

<Section columns = "stress_xx | stress_yy | stress_xy">
  1 5648.46 0.00000 8.20208e-14
  2 5648.46 0.00000 3.64245e-12
  3 5648.46 0.00000 1.15764e-12
  4 5648.46 0.00000 -2.56161e-13
  5 5648.46 0.00000 6.17722e-13
  6 5648.46 0.00000 8.20038e-13
  7 5648.46 0.00000 6.23109e-13
  8 5648.46 0.00000 7.10298e-13
  9 5648.46 0.00000 1.63606e-13
  10 5648.46 0.00000 -3.22015e-13
  11 5648.46 0.00000 -6.92320e-13
  12 5648.46 0.00000 -1.27334e-12
  13 5648.46 0.00000 2.75053e-13
  14 5648.46 0.00000 4.82053e-13
  15 5648.46 0.00000 -5.44986e-13
  16 5648.46 0.00000 -1.98364e-12
  17 5648.46 0.00000 -1.79090e-12
  18 5648.46 0.00000 -1.51461e-27
  19 5648.46 0.00000 -1.98364e-12
  20 5648.46 0.00000 -4.68729e-12
  21 5648.46 0.00000 -1.69126e-12
  22 5648.46 0.00000 -1.79781e-12
  23 5648.46 0.00000 -1.28612e-12
  24 5648.46 0.00000 -7.60975e-13
  25 5648.46 0.00000 0.00000
  26 5648.46 0.00000 -1.31571e-12
  27 5648.46 0.00000 4.82053e-13
  28 5648.46 0.00000 4.23503e-13
  29 5648.46 0.00000 0.00000
  30 5648.46 0.00000 -2.13327e-15
  31 5648.46 0.00000 4.09685e-13
  32 5648.46 0.00000 -9.07047e-13
  33 5648.46 0.00000 3.93585e-15
  34 5648.46 0.00000 9.72564e-13
  35 5648.46 0.00000 5.57526e-13
  36 5648.46 0.00000 3.00440e-12
  37 5648.46 0.00000 1.82429e-12
  38 5648.46 0.00000 -8.31613e-14
  39 5648.46 0.00000 1.58850e-13
  40 5648.46 0.00000 -3.65941e-13
  41 5648.46 0.00000 4.24101e-15
  42 5648.46 0.00000 -1.24248e-13
  43 5648.46 0.00000 -4.10404e-15
  44 5648.46 0.00000 5.20427e-13
  45 5648.46 0.00000 6.47125e-13
  46 5648.46 0.00000 3.63987e-13
  47 5648.46 0.00000 -1.65461e-13
  48 5648.46 0.00000 -6.39579e-13
  49 5648.46 0.00000 -5.84392e-13
  50 5648.46 0.00000 1.70661e-15
  51 5648.46 0.00000 -2.55992e-15
  52 5648.46 0.00000 -1.39446e-13
  53 5648.46 0.00000 5.77353e-14
  54 5648.46 0.00000 1.22065e-13
  55 5648.46 0.00000 0.00000
  56 5648.46 0.00000 -5.29233e-13
  57 5648.46 0.00000 4.16596e-13
  58 5648.46 0.00000 -1.43378e-13
  59 5648.46 0.00000 -1.00781e-13
  60 5648.46 0.00000 -6.99830e-13
  61 5648.46 0.00000 -1.84854e-13
  62 5648.46 0.00000 -2.65936e-14
  63 5648.46 0.00000 1.12313e-12
  64 5648.46 0.00000 -3.24536e-13
  65 5648.46 0.00000 -3.16524e-13
  66 5648.46 0.00000 1.75680e-13
  67 5648.46 0.00000 -2.23223e-13
  68 5648.46 0.00000 2.38428e-13
  69 5648.46 0.00000 -2.70126e-12
  70 5648.46 0.00000 -2.72338e-13
  71 5648.46 0.00000 -7.20179e-13
  72 5648.46 0.00000 -3.94884e-13
  73 5648.46 0.00000 -8.45370e-14
  74 5648.46 0.00000 -4.21647e-13
  75 5648.46 0.00000 -6.20770e-13
  76 5648.46 0.00000 -9.14360e-13
  77 5648.46 0.00000 2.49795e-13
  78 5648.46 0.00000 -1.75393e-12
  79 5648.46 0.00000 -3.68672e-13
  80 5648.46 0.00000 -5.31661e-13
  81 5648.46 0.00000 1.19460e-12
  82 5648.46 0.00000 -1.76597e-12
  83 5648.46 0.00000 2.50034e-13
  84 5648.46 0.00000 -9.06656e-15
  85 5648.46 0.00000 1.31364e-13
  86 5648.46 0.00000 1.70578e-12
  87 5648.46 0.00000 -1.66765e-13
  88 5648.46 0.00000 -1.41395e-12
  89 5648.46 0.00000 -7.11513e-14
  90 5648.46 0.00000 3.25793e-14
  91 5648.46 0.00000 -9.51289e-13
  92 5648.46 0.00000 2.95647e-13
  93 5648.46 0.00000 -1.75991e-12
  94 5648.46 0.00000 -9.99882e-13
  95 5648.46 0.00000 -4.14193e-13
  96 5648.46 0.00000 -1.20513e-13
  97 5648.46 0.00000 2.58293e-12
  98 5648.46 0.00000 -3.59288e-13
  99 5648.46 0.00000 1.36397e-13
  100 5648.46 0.00000 6.35224e-14
  101 5648.46 0.00000 1.01377e-14
  102 5648.46 0.00000 -4.53105e-13
  103 5648.46 0.00000 -3.32355e-12
  104 5648.46 0.00000 -2.85909e-13
  105 5648.46 0.00000 1.94822e-13
  106 5648.46 0.00000 3.89602e-13
  107 5648.46 0.00000 -1.24217e-12
  108 5648.46 0.00000 -4.79051e-14
  109 5648.46 0.00000 9.96995e-14
  110 5648.46 0.00000 -1.44616e-13
  111 5648.46 0.00000 -1.60694e-12
  112 5648.46 0.00000 -6.95728e-14
  113 5648.46 0.00000 -9.45172e-13
  114 5648.46 0.00000 -7.57451e-14
  115 5648.46 0.00000 9.02290e-14
  116 5648.46 0.00000 2.42780e-13
  117 5648.46 0.00000 -1.16616e-12
  118 5648.46 0.00000 -7.97326e-15
  119 5648.46 0.00000 -1.09107e-12
  120 5648.46 0.00000 -1.15747e-13
  121 5648.46 0.00000 3.70825e-14
  122 5648.46 0.00000 -2.47400e-13
  123 5648.46 0.00000 -3.58506e-12
  124 5648.46 0.00000 -4.27951e-13
  125 5648.46 0.00000 -5.29322e-13
  126 5648.46 0.00000 2.75402e-13
  127 5648.46 0.00000 1.04859e-13
  128 5648.46 0.00000 -2.45351e-13
  129 5648.46 0.00000 -1.98960e-13
  130 5648.46 0.00000 -2.61084e-13
  131 5648.46 0.00000 2.02182e-13
  132 5648.46 0.00000 -7.37857e-13
  133 5648.46 0.00000 -6.36529e-13
  134 5648.46 0.00000 -4.88956e-13
  135 5648.46 0.00000 3.23693e-12
  136 5648.46 0.00000 -2.11599e-13
  137 5648.46 0.00000 -2.47789e-12
  138 5648.46 0.00000 -5.42050e-13
  139 5648.46 0.00000 1.65804e-13
  140 5648.46 0.00000 -2.00617e-12
  141 5648.46 0.00000 -1.68675e-13
  142 5648.46 0.00000 3.66814e-13
  143 5648.46 0.00000 1.46553e-13
  144 5648.46 0.00000 -6.33484e-13
  145 5648.46 0.00000 -1.44677e-12
  146 5648.46 0.00000 7.32851e-15
  147 5648.46 0.00000 -2.87099e-13
  148 5648.46 0.00000 2.26471e-14
  149 5648.46 0.00000 5.07982e-13
  150 5648.46 0.00000 -9.25675e-14
  151 5648.46 0.00000 -5.89823e-13
  152 5648.46 0.00000 -7.01270e-13
  153 5648.46 0.00000 -2.27314e-13
  154 5648.46 0.00000 -6.11114e-13
  155 5648.46 0.00000 -1.63885e-12
  156 5648.46 0.00000 -1.12498e-13
  157 5648.46 0.00000 2.12928e-13
  158 5648.46 0.00000 3.40032e-13
  159 5648.46 0.00000 1.48089e-12
  160 5648.46 0.00000 2.76885e-14
  161 5648.46 0.00000 -4.18464e-13
  162 5648.46 0.00000 3.21917e-13
  163 5648.46 0.00000 -6.07414e-13
  164 5648.46 0.00000 -8.87649e-13
  165 5648.46 0.00000 -6.36243e-13
  166 5648.46 0.00000 -5.62822e-14
  167 5648.46 0.00000 -5.56962e-13
  168 5648.46 0.00000 -7.99030e-13
  169 5648.46 0.00000 2.95489e-14
  170 5648.46 0.00000 -7.44911e-13
  171 5648.46 0.00000 1.93601e-13
  172 5648.46 0.00000 1.13532e-13
  173 5648.46 0.00000 9.86174e-14
  174 5648.46 0.00000 1.30115e-12
  175 5648.46 0.00000 -1.89724e-13
  176 5648.46 0.00000 -1.63051e-13
  177 5648.46 0.00000 -8.52374e-13
  178 5648.46 0.00000 5.02725e-13
  179 5648.46 0.00000 7.28339e-13
  180 5648.46 0.00000 1.31731e-13
  181 5648.46 0.00000 -1.82942e-13
  182 5648.46 0.00000 -4.06997e-15
  183 5648.46 0.00000 -4.33078e-13
  184 5648.46 0.00000 -1.83543e-12
  185 5648.46 0.00000 -1.78765e-13
  186 5648.46 0.00000 -2.25301e-13
  187 5648.46 0.00000 -8.12038e-13
  188 5648.46 0.00000 2.46292e-13
  189 5648.46 0.00000 -3.96131e-13
  190 5648.46 0.00000 -7.22821e-13
  191 5648.46 0.00000 4.23094e-13
  192 5648.46 0.00000 -6.25002e-13
  193 5648.46 0.00000 6.44022e-13
  194 5648.46 0.00000 -5.87109e-13
  195 5648.46 0.00000 -1.17655e-13
  196 5648.46 0.00000 -1.34083e-12
  197 5648.46 0.00000 1.49709e-13
  198 5648.46 0.00000 1.82554e-13
  199 5648.46 0.00000 3.85348e-13
  200 5648.46 0.00000 -1.51189e-12
  201 5648.46 0.00000 -2.11969e-13
  202 5648.46 0.00000 -1.10807e-12
  203 5648.46 0.00000 -6.71588e-13
  204 5648.46 0.00000 9.73404e-13
  205 5648.46 0.00000 1.57773e-13
  206 5648.46 0.00000 -8.14239e-13
  207 5648.46 0.00000 -1.66980e-13
  208 5648.46 0.00000 -5.99561e-13
  209 5648.46 0.00000 -7.74206e-14
  210 5648.46 0.00000 -4.18555e-13
  211 5648.46 0.00000 2.39263e-13
  212 5648.46 0.00000 1.12777e-13
  213 5648.46 0.00000 -4.87282e-13
  214 5648.46 0.00000 -6.18801e-13
  215 5648.46 0.00000 -1.83821e-12
  216 5648.46 0.00000 -1.02768e-12
  217 5648.46 0.00000 -2.05768e-13
  218 5648.46 0.00000 -5.08932e-13
  219 5648.46 0.00000 -2.41709e-13
  220 5648.46 0.00000 -2.12415e-13
  221 5648.46 0.00000 1.05076e-12
  222 5648.46 0.00000 -2.08869e-12
  223 5648.46 0.00000 -5.91147e-14
  224 5648.46 0.00000 -4.98487e-13
  225 5648.46 0.00000 1.87182e-13
  226 5648.46 0.00000 4.14321e-13
  227 5648.46 0.00000 8.13182e-13
  228 5648.46 0.00000 -7.88789e-13
  229 5648.46 0.00000 2.66362e-14
  230 5648.46 0.00000 4.13088e-14
  231 5648.46 0.00000 1.29185e-13
  232 5648.46 0.00000 1.25176e-13
  233 5648.46 0.00000 -1.29913e-12
  234 5648.46 0.00000 -5.64446e-13
  235 5648.46 0.00000 -2.67530e-13
  236 5648.46 0.00000 -1.79927e-14
  237 5648.46 0.00000 2.58049e-13
  238 5648.46 0.00000 4.07015e-13
  239 5648.46 0.00000 2.06660e-13
  240 5648.46 0.00000 2.22825e-14
  241 5648.46 0.00000 -1.25179e-12
</Section>

newXOutput 121

<Section columns = "stress_xx | stress_yy | stress_xy">
  1 5698.85 0.00000 1.06870e-13
  2 5698.85 0.00000 -1.01021e-12
  3 5698.85 0.00000 -9.63368e-13
  4 5698.85 0.00000 1.18648e-13
  5 5698.85 0.00000 -4.59133e-14
  6 5698.85 0.00000 -8.89396e-13
  7 5698.85 0.00000 -6.24004e-13
  8 5698.85 0.00000 -4.04524e-13
  9 5698.85 0.00000 -4.42420e-13
  10 5698.85 0.00000 8.09048e-13
  11 5698.85 0.00000 1.80650e-12
  12 5698.85 0.00000 4.73394e-13
  13 5698.85 0.00000 8.49771e-13
  14 5698.85 0.00000 1.06416e-12
  15 5698.85 0.00000 -2.46393e-13
  16 5698.85 0.00000 2.07872e-12
  17 5698.85 0.00000 -1.35572e-13
  18 5698.85 0.00000 8.09048e-13
  19 5698.85 0.00000 3.08895e-12
  20 5698.85 0.00000 4.04219e-12
  21 5698.85 0.00000 -1.85997e-12
  22 5698.85 0.00000 -2.09904e-12
  23 5698.85 0.00000 -7.09882e-13
  24 5698.85 0.00000 1.19537e-13
  25 5698.85 0.00000 7.74065e-13
  26 5698.85 0.00000 3.88129e-13
  27 5698.85 0.00000 2.88038e-12
  28 5698.85 0.00000 5.95857e-14
  29 5698.85 0.00000 -2.19379e-15
  30 5698.85 0.00000 -3.20715e-13
  31 5698.85 0.00000 2.39487e-12
  32 5698.85 0.00000 3.47885e-12
  33 5698.85 0.00000 9.17323e-13
  34 5698.85 0.00000 -6.51598e-13
  35 5698.85 0.00000 -4.77217e-14
  36 5698.85 0.00000 2.15036e-13
  37 5698.85 0.00000 1.39128e-12
  38 5698.85 0.00000 9.80095e-13
  39 5698.85 0.00000 1.54552e-12
  40 5698.85 0.00000 -7.67046e-13
  41 5698.85 0.00000 -1.54450e-12
  42 5698.85 0.00000 -9.77012e-13
  43 5698.85 0.00000 -9.27554e-13
  44 5698.85 0.00000 -6.15657e-13
  45 5698.85 0.00000 -4.03515e-13
  46 5698.85 0.00000 3.33320e-13
  47 5698.85 0.00000 2.46174e-13
  48 5698.85 0.00000 1.69056e-13
  49 5698.85 0.00000 3.10651e-13
  50 5698.85 0.00000 3.56234e-14
  51 5698.85 0.00000 0.00000
  52 5698.85 0.00000 -1.64673e-13
  53 5698.85 0.00000 1.71457e-13
  54 5698.85 0.00000 2.18794e-13
  55 5698.85 0.00000 2.36149e-13
  56 5698.85 0.00000 -1.69916e-13
  57 5698.85 0.00000 -6.16671e-13
  58 5698.85 0.00000 -2.01713e-13
  59 5698.85 0.00000 -7.09991e-13
  60 5698.85 0.00000 -9.79180e-13
  61 5698.85 0.00000 -8.64115e-13
  62 5698.85 0.00000 4.82326e-13
  63 5698.85 0.00000 8.04658e-14
  64 5698.85 0.00000 1.77766e-12
  65 5698.85 0.00000 -8.20854e-14
  66 5698.85 0.00000 3.15714e-13
  67 5698.85 0.00000 9.76693e-13
  68 5698.85 0.00000 7.98132e-14
  69 5698.85 0.00000 1.31170e-13
  70 5698.85 0.00000 -4.95741e-13
  71 5698.85 0.00000 3.15139e-13
  72 5698.85 0.00000 1.72131e-13
  73 5698.85 0.00000 -7.24486e-13
  74 5698.85 0.00000 -3.55955e-13
  75 5698.85 0.00000 -7.14636e-13
  76 5698.85 0.00000 2.10345e-12
  77 5698.85 0.00000 -1.15097e-13
  78 5698.85 0.00000 -8.19919e-13
  79 5698.85 0.00000 -5.70817e-13
  80 5698.85 0.00000 3.10124e-13
  81 5698.85 0.00000 2.03359e-13
  82 5698.85 0.00000 8.59140e-13
  83 5698.85 0.00000 5.58470e-13
  84 5698.85 0.00000 -1.40626e-13
  85 5698.85 0.00000 -6.45413e-13
  86 5698.85 0.00000 2.75886e-13
  87 5698.85 0.00000 2.23345e-13
  88 5698.85 0.00000 -3.58710e-12
  89 5698.85 0.00000 3.09563e-13
  90 5698.85 0.00000 8.69091e-13
  91 5698.85 0.00000 -2.83927e-13
  92 5698.85 0.00000 -8.93385e-13
  93 5698.85 0.00000 1.42087e-12
  94 5698.85 0.00000 5.52999e-13
  95 5698.85 0.00000 -2.81200e-13
  96 5698.85 0.00000 -4.14869e-14
  97 5698.85 0.00000 -1.49032e-12
  98 5698.85 0.00000 7.45412e-13
  99 5698.85 0.00000 2.95551e-13
  100 5698.85 0.00000 4.22999e-13
  101 5698.85 0.00000 -2.82715e-13
  102 5698.85 0.00000 1.36598e-12
  103 5698.85 0.00000 2.62093e-12
  104 5698.85 0.00000 4.87168e-13
  105 5698.85 0.00000 -8.56374e-14
  106 5698.85 0.00000 -5.64909e-14
  107 5698.85 0.00000 2.45987e-12
  108 5698.85 0.00000 -1.01242e-13
  109 5698.85 0.00000 9.91603e-14
  110 5698.85 0.00000 -1.28703e-12
  111 5698.85 0.00000 -6.82355e-13
  112 5698.85 0.00000 6.08777e-13
  113 5698.85 0.00000 7.07208e-13
  114 5698.85 0.00000 3.10736e-13
  115 5698.85 0.00000 -1.28296e-13
  116 5698.85 0.00000 -4.27481e-13
  117 5698.85 0.00000 2.94199e-12
  118 5698.85 0.00000 -2.80361e-13
  119 5698.85 0.00000 5.22488e-14
  120 5698.85 0.00000 -4.81961e-13
  121 5698.85 0.00000 7.88767e-14
  122 5698.85 0.00000 -6.72024e-13
  123 5698.85 0.00000 -2.59608e-13
  124 5698.85 0.00000 -1.95199e-13
  125 5698.85 0.00000 1.39436e-12
  126 5698.85 0.00000 -2.42898e-15
  127 5698.85 0.00000 2.40525e-13
  128 5698.85 0.00000 -4.13221e-13
  129 5698.85 0.00000 1.06969e-13
  130 5698.85 0.00000 -1.16341e-12
  131 5698.85 0.00000 1.13674e-13
  132 5698.85 0.00000 -6.69179e-13
  133 5698.85 0.00000 1.00522e-12
  134 5698.85 0.00000 3.56887e-13
  135 5698.85 0.00000 1.63674e-13
  136 5698.85 0.00000 2.72683e-13
  137 5698.85 0.00000 1.62242e-12
  138 5698.85 0.00000 1.17382e-12
  139 5698.85 0.00000 -1.68700e-13
  140 5698.85 0.00000 2.00594e-12
  141 5698.85 0.00000 -1.85182e-13
  142 5698.85 0.00000 3.06129e-13
  143 5698.85 0.00000 -2.37212e-13
  144 5698.85 0.00000 8.86486e-13
  145 5698.85 0.00000 -6.36248e-13
  146 5698.85 0.00000 -7.02155e-13
  147 5698.85 0.00000 5.89529e-13
  148 5698.85 0.00000 7.26962e-14
  149 5698.85 0.00000 1.99152e-12
  150 5698.85 0.00000 -8.34346e-13
  151 5698.85 0.00000 9.86617e-13
  152 5698.85 0.00000 1.78587e-12
  153 5698.85 0.00000 2.35898e-12
  154 5698.85 0.00000 5.03339e-13
  155 5698.85 0.00000 -8.59277e-13
  156 5698.85 0.00000 2.44493e-12
  157 5698.85 0.00000 -3.97999e-13
  158 5698.85 0.00000 -1.90953e-13
  159 5698.85 0.00000 -1.21424e-12
  160 5698.85 0.00000 3.51166e-14
  161 5698.85 0.00000 2.65178e-12
  162 5698.85 0.00000 8.16008e-13
  163 5698.85 0.00000 1.07253e-12
  164 5698.85 0.00000 -1.56321e-12
  165 5698.85 0.00000 -1.40380e-14
  166 5698.85 0.00000 7.96154e-14
  167 5698.85 0.00000 2.33462e-12
  168 5698.85 0.00000 -2.11793e-13
  169 5698.85 0.00000 1.01520e-13
  170 5698.85 0.00000 1.93625e-12
  171 5698.85 0.00000 7.56956e-13
  172 5698.85 0.00000 5.59044e-13
  173 5698.85 0.00000 -5.14531e-13
  174 5698.85 0.00000 -5.78697e-13
  175 5698.85 0.00000 7.11314e-14
  176 5698.85 0.00000 1.46320e-13
  177 5698.85 0.00000 -1.36115e-12
  178 5698.85 0.00000 -3.91792e-13
  179 5698.85 0.00000 -5.34351e-13
  180 5698.85 0.00000 -3.33068e-13
  181 5698.85 0.00000 1.06597e-12
  182 5698.85 0.00000 5.53729e-13
  183 5698.85 0.00000 7.43415e-14
  184 5698.85 0.00000 1.04869e-12
  185 5698.85 0.00000 1.97796e-13
  186 5698.85 0.00000 5.90936e-13
  187 5698.85 0.00000 -1.81431e-13
  188 5698.85 0.00000 -2.73590e-12
  189 5698.85 0.00000 -3.92333e-13
  190 5698.85 0.00000 2.93918e-13
  191 5698.85 0.00000 4.85029e-13
  192 5698.85 0.00000 6.61290e-13
  193 5698.85 0.00000 4.63973e-14
  194 5698.85 0.00000 2.51490e-12
  195 5698.85 0.00000 2.63806e-13
  196 5698.85 0.00000 -8.36791e-13
  197 5698.85 0.00000 3.23157e-13
  198 5698.85 0.00000 1.94900e-12
  199 5698.85 0.00000 -5.12073e-13
  200 5698.85 0.00000 1.58844e-12
  201 5698.85 0.00000 -9.24791e-13
  202 5698.85 0.00000 1.34481e-13
  203 5698.85 0.00000 3.44482e-13
  204 5698.85 0.00000 -5.42780e-13
  205 5698.85 0.00000 -8.83796e-14
  206 5698.85 0.00000 4.53313e-12
  207 5698.85 0.00000 2.71606e-13
  208 5698.85 0.00000 -1.43647e-12
  209 5698.85 0.00000 -2.15266e-12
  210 5698.85 0.00000 7.06448e-13
  211 5698.85 0.00000 -6.45048e-14
  212 5698.85 0.00000 -1.18773e-12
  213 5698.85 0.00000 2.63178e-14
  214 5698.85 0.00000 -3.14428e-13
  215 5698.85 0.00000 9.06180e-13
  216 5698.85 0.00000 -3.05473e-13
  217 5698.85 0.00000 -2.16212e-12
  218 5698.85 0.00000 3.21110e-13
  219 5698.85 0.00000 -4.65747e-13
  220 5698.85 0.00000 8.68986e-13
  221 5698.85 0.00000 1.21283e-12
  222 5698.85 0.00000 -1.82610e-12
  223 5698.85 0.00000 5.44803e-13
  224 5698.85 0.00000 1.18711e-12
  225 5698.85 0.00000 -3.96788e-12
  226 5698.85 0.00000 3.43191e-13
  227 5698.85 0.00000 -1.06561e-12
  228 5698.85 0.00000 3.10162e-12
  229 5698.85 0.00000 1.66887e-13
  230 5698.85 0.00000 -1.17129e-12
  231 5698.85 0.00000 -1.60752e-12
  232 5698.85 0.00000 -5.42437e-13
  233 5698.85 0.00000 -1.03244e-12
  234 5698.85 0.00000 -5.20731e-13
  235 5698.85 0.00000 -3.72545e-13
  236 5698.85 0.00000 3.31423e-13
  237 5698.85 0.00000 -2.16294e-13
  238 5698.85 0.00000 -2.78567e-13
  239 5698.85 0.00000 1.94644e-12
  240 5698.85 0.00000 3.23586e-14
  241 5698.85 0.00000 -4.23472e-13
</Section>

newXOutput 122

<Section columns = "stress_xx | stress_yy | stress_xy">
  1 5749.35 0.00000 -2.14397e-13
  2 5749.35 0.00000 -4.15374e-12
  3 5749.35 0.00000 -2.94117e-13
  4 5749.35 0.00000 5.87709e-14
  5 5749.35 0.00000 -9.19662e-15
  6 5749.35 0.00000 1.07198e-12
  7 5749.35 0.00000 1.08778e-12
  8 5749.35 0.00000 1.18558e-13
  9 5749.35 0.00000 2.85863e-13
  10 5749.35 0.00000 1.18558e-13
  11 5749.35 0.00000 -1.15697e-12
  12 5749.35 0.00000 -7.28178e-13
  13 5749.35 0.00000 -7.50389e-13
  14 5749.35 0.00000 1.26201e-12
  15 5749.35 0.00000 4.91294e-13
  16 5749.35 0.00000 -1.28371e-12
  17 5749.35 0.00000 -1.95229e-12
  18 5749.35 0.00000 -3.53410e-28
  19 5749.35 0.00000 -4.51800e-12
  20 5749.35 0.00000 -4.02630e-12
  21 5749.35 0.00000 5.95980e-14
  22 5749.35 0.00000 -6.30685e-13
  23 5749.35 0.00000 -3.35174e-12
  24 5749.35 0.00000 -5.50023e-13
  25 5749.35 0.00000 0.00000
  26 5749.35 0.00000 -1.49187e-13
  27 5749.35 0.00000 -3.43838e-12
  28 5749.35 0.00000 4.13909e-13
  29 5749.35 0.00000 -1.76010e-13
  30 5749.35 0.00000 7.70090e-14
  31 5749.35 0.00000 -2.09073e-12
  32 5749.35 0.00000 -4.08065e-12
  33 5749.35 0.00000 -1.57650e-12
  34 5749.35 0.00000 -6.01099e-14
  35 5749.35 0.00000 8.89397e-13
  36 5749.35 0.00000 2.36188e-12
  37 5749.35 0.00000 -1.22071e-12
  38 5749.35 0.00000 -1.14231e-12
  39 5749.35 0.00000 -3.23936e-13
  40 5749.35 0.00000 -2.54387e-13
  41 5749.35 0.00000 -2.05379e-13
  42 5749.35 0.00000 -1.20794e-13
  43 5749.35 0.00000 -4.94051e-13
  44 5749.35 0.00000 7.37042e-13
  45 5749.35 0.00000 8.31637e-13
  46 5749.35 0.00000 -1.73972e-13
  47 5749.35 0.00000 -1.43477e-13
  48 5749.35 0.00000 2.83933e-13
  49 5749.35 0.00000 3.19783e-13
  50 5749.35 0.00000 -3.51239e-14
  51 5749.35 0.00000 1.82663e-15
  52 5749.35 0.00000 -9.89310e-14
  53 5749.35 0.00000 2.15615e-13
  54 5749.35 0.00000 -4.63656e-13
  55 5749.35 0.00000 -3.55674e-13
  56 5749.35 0.00000 4.36809e-16
  57 5749.35 0.00000 3.63008e-13
  58 5749.35 0.00000 2.62000e-14
  59 5749.35 0.00000 1.67528e-13
  60 5749.35 0.00000 -9.69577e-16
  61 5749.35 0.00000 7.00815e-13
  62 5749.35 0.00000 -3.66515e-13
  63 5749.35 0.00000 -7.22177e-13
  64 5749.35 0.00000 5.67954e-13
  65 5749.35 0.00000 9.69859e-14
  66 5749.35 0.00000 -7.95055e-13
  67 5749.35 0.00000 2.38922e-13
  68 5749.35 0.00000 7.54551e-14
  69 5749.35 0.00000 -1.91230e-12
  70 5749.35 0.00000 -3.47445e-13
  71 5749.35 0.00000 -6.82304e-13
  72 5749.35 0.00000 -4.80300e-13
  73 5749.35 0.00000 1.65428e-12
  74 5749.35 0.00000 -1.43122e-13
  75 5749.35 0.00000 -5.37028e-13
  76 5749.35 0.00000 1.89992e-12
  77 5749.35 0.00000 -9.88754e-15
  78 5749.35 0.00000 1.09358e-13
  79 5749.35 0.00000 -2.31421e-13
  80 5749.35 0.00000 -1.86434e-14
  81 5749.35 0.00000 6.34868e-14
  82 5749.35 0.00000 -8.53203e-13
  83 5749.35 0.00000 -8.82697e-13
  84 5749.35 0.00000 1.55154e-13
  85 5749.35 0.00000 -1.59007e-13
  86 5749.35 0.00000 4.53486e-13
  87 5749.35 0.00000 -6.30161e-13
  88 5749.35 0.00000 -5.78441e-13
  89 5749.35 0.00000 3.05095e-13
  90 5749.35 0.00000 -9.04461e-13
  91 5749.35 0.00000 -7.28949e-13
  92 5749.35 0.00000 6.02492e-13
  93 5749.35 0.00000 -1.61246e-12
  94 5749.35 0.00000 2.19376e-12
  95 5749.35 0.00000 -2.55479e-13
  96 5749.35 0.00000 4.83408e-13
  97 5749.35 0.00000 -1.09433e-13
  98 5749.35 0.00000 -9.25293e-13
  99 5749.35 0.00000 -9.02455e-15
  100 5749.35 0.00000 -4.14170e-13
  101 5749.35 0.00000 1.73238e-13
  102 5749.35 0.00000 5.42546e-13
  103 5749.35 0.00000 8.59969e-13
  104 5749.35 0.00000 -5.24755e-13
  105 5749.35 0.00000 -2.78400e-13
  106 5749.35 0.00000 3.26194e-13
  107 5749.35 0.00000 1.34790e-12
  108 5749.35 0.00000 -2.57277e-13
  109 5749.35 0.00000 -6.73371e-13
  110 5749.35 0.00000 -2.49293e-14
  111 5749.35 0.00000 7.69994e-16
  112 5749.35 0.00000 1.61917e-13
  113 5749.35 0.00000 -5.71917e-13
  114 5749.35 0.00000 -5.13972e-14
  115 5749.35 0.00000 3.20975e-13
  116 5749.35 0.00000 1.01250e-12
  117 5749.35 0.00000 2.20606e-12
  118 5749.35 0.00000 -3.68145e-13
  119 5749.35 0.00000 -1.39463e-13
  120 5749.35 0.00000 -3.91387e-13
  121 5749.35 0.00000 -3.02935e-13
  122 5749.35 0.00000 -3.23379e-14
  123 5749.35 0.00000 -1.17616e-12
  124 5749.35 0.00000 -1.03625e-12
  125 5749.35 0.00000 2.74574e-13
  126 5749.35 0.00000 -3.57116e-13
  127 5749.35 0.00000 1.02601e-12
  128 5749.35 0.00000 -2.04432e-13
  129 5749.35 0.00000 -4.56362e-13
  130 5749.35 0.00000 -2.21731e-13
  131 5749.35 0.00000 2.74823e-13
  132 5749.35 0.00000 -4.90285e-13
  133 5749.35 0.00000 -8.08966e-13
  134 5749.35 0.00000 -7.99467e-14
  135 5749.35 0.00000 -3.30132e-13
  136 5749.35 0.00000 -6.46893e-13
  137 5749.35 0.00000 5.76862e-13
  138 5749.35 0.00000 1.08752e-13
  139 5749.35 0.00000 -9.54911e-14
  140 5749.35 0.00000 6.44796e-13
  141 5749.35 0.00000 -1.05625e-12
  142 5749.35 0.00000 2.49739e-13
  143 5749.35 0.00000 -5.18634e-13
  144 5749.35 0.00000 -2.35315e-12
  145 5749.35 0.00000 -6.86855e-13
  146 5749.35 0.00000 -1.50762e-13
  147 5749.35 0.00000 -6.61153e-13
  148 5749.35 0.00000 -1.24152e-13
  149 5749.35 0.00000 -2.61906e-13
  150 5749.35 0.00000 7.54436e-14
  151 5749.35 0.00000 -7.79369e-14
  152 5749.35 0.00000 2.96305e-12
  153 5749.35 0.00000 9.81025e-14
  154 5749.35 0.00000 -2.46971e-13
  155 5749.35 0.00000 -1.25984e-13
  156 5749.35 0.00000 -5.09772e-13
  157 5749.35 0.00000 4.34882e-14
  158 5749.35 0.00000 -1.58411e-12
  159 5749.35 0.00000 -5.12294e-13
  160 5749.35 0.00000 3.04376e-13
  161 5749.35 0.00000 -1.22678e-12
  162 5749.35 0.00000 7.60639e-14
  163 5749.35 0.00000 -7.86544e-13
  164 5749.35 0.00000 9.52936e-13
  165 5749.35 0.00000 -4.41285e-13
  166 5749.35 0.00000 -3.04455e-13
  167 5749.35 0.00000 -8.39323e-14
  168 5749.35 0.00000 -1.15703e-12
  169 5749.35 0.00000 1.39742e-14
  170 5749.35 0.00000 1.45908e-12
  171 5749.35 0.00000 -7.64285e-13
  172 5749.35 0.00000 -1.11397e-12
  173 5749.35 0.00000 -7.30714e-14
  174 5749.35 0.00000 -1.00001e-12
  175 5749.35 0.00000 -1.66210e-13
  176 5749.35 0.00000 3.83255e-13
  177 5749.35 0.00000 -1.14281e-12
  178 5749.35 0.00000 4.18440e-14
  179 5749.35 0.00000 1.00568e-12
  180 5749.35 0.00000 1.49721e-13
  181 5749.35 0.00000 2.04015e-12
  182 5749.35 0.00000 4.23744e-13
  183 5749.35 0.00000 -1.74675e-13
  184 5749.35 0.00000 -9.20609e-13
  185 5749.35 0.00000 -5.53123e-13
  186 5749.35 0.00000 2.69915e-13
  187 5749.35 0.00000 -1.41530e-12
  188 5749.35 0.00000 1.83016e-14
  189 5749.35 0.00000 -6.96637e-13
  190 5749.35 0.00000 -4.97272e-13
  191 5749.35 0.00000 2.92497e-13
  192 5749.35 0.00000 1.59382e-12
  193 5749.35 0.00000 2.11656e-13
  194 5749.35 0.00000 -8.05968e-13
  195 5749.35 0.00000 -1.08757e-13
  196 5749.35 0.00000 -2.27559e-12
  197 5749.35 0.00000 -5.66391e-13
  198 5749.35 0.00000 8.43873e-13
  199 5749.35 0.00000 -1.44013e-13
  200 5749.35 0.00000 -1.83624e-12
  201 5749.35 0.00000 -1.54167e-13
  202 5749.35 0.00000 -1.78398e-12
  203 5749.35 0.00000 -1.12871e-12
  204 5749.35 0.00000 5.67213e-13
  205 5749.35 0.00000 4.08019e-13
  206 5749.35 0.00000 -1.90400e-12
  207 5749.35 0.00000 -4.81442e-13
  208 5749.35 0.00000 6.64557e-13
  209 5749.35 0.00000 7.49999e-13
  210 5749.35 0.00000 -3.33482e-13
  211 5749.35 0.00000 5.42714e-13
  212 5749.35 0.00000 3.43418e-13
  213 5749.35 0.00000 -1.56279e-13
  214 5749.35 0.00000 -6.48363e-13
  215 5749.35 0.00000 -2.66775e-12
  216 5749.35 0.00000 2.04987e-13
  217 5749.35 0.00000 1.07333e-12
  218 5749.35 0.00000 -3.30427e-13
  219 5749.35 0.00000 -1.65475e-13
  220 5749.35 0.00000 -7.47009e-13
  221 5749.35 0.00000 4.44143e-13
  222 5749.35 0.00000 3.00424e-12
  223 5749.35 0.00000 3.85914e-13
  224 5749.35 0.00000 -1.36204e-12
  225 5749.35 0.00000 5.02626e-12
  226 5749.35 0.00000 -6.75765e-13
  227 5749.35 0.00000 7.36040e-13
  228 5749.35 0.00000 1.31627e-14
  229 5749.35 0.00000 -5.49260e-13
  230 5749.35 0.00000 5.96707e-13
  231 5749.35 0.00000 1.96434e-12
  232 5749.35 0.00000 -2.77102e-13
  233 5749.35 0.00000 2.49687e-12
  234 5749.35 0.00000 -6.66381e-13
  235 5749.35 0.00000 -6.44016e-13
  236 5749.35 0.00000 -1.91613e-13
  237 5749.35 0.00000 -4.95488e-13
  238 5749.35 0.00000 2.84904e-13
  239 5749.35 0.00000 -5.63309e-13
  240 5749.35 0.00000 5.29177e-13
  241 5749.35 0.00000 -2.97990e-14
</Section>

newXOutput 123

<Section columns = "stress_xx | stress_yy | stress_xy">
  1 5799.96 0.00000 -6.88345e-14
  2 5799.96 0.00000 2.42593e-12
  3 5799.96 0.00000 7.78107e-13
  4 5799.96 0.00000 1.08107e-13
  5 5799.96 0.00000 4.58896e-14
  6 5799.96 0.00000 -2.15059e-13
  7 5799.96 0.00000 -2.64546e-13
  8 5799.96 0.00000 -2.09355e-13
  9 5799.96 0.00000 9.17793e-14
  10 5799.96 0.00000 -8.60236e-13
  11 5799.96 0.00000 -9.11829e-13
  12 5799.96 0.00000 -7.88550e-13
  13 5799.96 0.00000 -4.28919e-13
  14 5799.96 0.00000 9.53614e-13
  15 5799.96 0.00000 3.71557e-13
  16 5799.96 0.00000 6.91067e-13
  17 5799.96 0.00000 -1.78576e-12
  18 5799.96 0.00000 -2.11110e-12
  19 5799.96 0.00000 1.32985e-12
  20 5799.96 0.00000 1.94123e-12
  21 5799.96 0.00000 3.42811e-12
  22 5799.96 0.00000 2.95781e-12
  23 5799.96 0.00000 5.42163e-12
  24 5799.96 0.00000 8.60927e-13
  25 5799.96 0.00000 1.11503e-12
  26 5799.96 0.00000 -9.57244e-15
  27 5799.96 0.00000 8.60927e-13
  28 5799.96 0.00000 2.40405e-12
  29 5799.96 0.00000 0.00000
  30 5799.96 0.00000 -1.18719e-12
  31 5799.96 0.00000 1.86497e-12
  32 5799.96 0.00000 -3.90950e-12
  33 5799.96 0.00000 -1.93653e-12
  34 5799.96 0.00000 -2.52766e-12
  35 5799.96 0.00000 5.81066e-13
  36 5799.96 0.00000 -5.89434e-13
  37 5799.96 0.00000 -1.20023e-12
  38 5799.96 0.00000 6.00138e-13
  39 5799.96 0.00000 4.17094e-13
  40 5799.96 0.00000 -3.77261e-13
  41 5799.96 0.00000 -3.91367e-14
  42 5799.96 0.00000 2.47808e-13
  43 5799.96 0.00000 5.86600e-13
  44 5799.96 0.00000 9.11801e-13
  45 5799.96 0.00000 -1.35686e-14
  46 5799.96 0.00000 -9.07381e-14
  47 5799.96 0.00000 -2.20349e-13
  48 5799.96 0.00000 -6.62570e-13
  49 5799.96 0.00000 -1.76770e-13
  50 5799.96 0.00000 -1.78244e-13
  51 5799.96 0.00000 -2.91685e-15
  52 5799.96 0.00000 1.61659e-13
  53 5799.96 0.00000 1.02560e-13
  54 5799.96 0.00000 -4.53145e-14
  55 5799.96 0.00000 -3.52728e-13
  56 5799.96 0.00000 -5.68273e-13
  57 5799.96 0.00000 -6.66631e-14
  58 5799.96 0.00000 -6.84774e-13
  59 5799.96 0.00000 -4.99503e-13
  60 5799.96 0.00000 9.84439e-13
  61 5799.96 0.00000 -3.16733e-14
  62 5799.96 0.00000 3.10562e-14
  63 5799.96 0.00000 -6.10591e-13
  64 5799.96 0.00000 3.91736e-13
  65 5799.96 0.00000 4.50886e-13
  66 5799.96 0.00000 -3.31642e-14
  67 5799.96 0.00000 3.82602e-14
  68 5799.96 0.00000 -4.00465e-13
  69 5799.96 0.00000 -1.33583e-13
  70 5799.96 0.00000 3.19702e-13
  71 5799.96 0.00000 5.24020e-13
  72 5799.96 0.00000 -2.72400e-13
  73 5799.96 0.00000 -9.32408e-13
  74 5799.96 0.00000 5.13316e-14
  75 5799.96 0.00000 3.19024e-13
  76 5799.96 0.00000 -1.47930e-12
  77 5799.96 0.00000 4.78854e-13
  78 5799.96 0.00000 2.39105e-12
  79 5799.96 0.00000 2.15277e-13
  80 5799.96 0.00000 -2.54343e-13
  81 5799.96 0.00000 -9.27574e-13
  82 5799.96 0.00000 6.65463e-13
  83 5799.96 0.00000 1.29745e-13
  84 5799.96 0.00000 4.64330e-13
  85 5799.96 0.00000 9.90710e-13
  86 5799.96 0.00000 8.79810e-13
  87 5799.96 0.00000 -1.77092e-13
  88 5799.96 0.00000 -1.65806e-12
  89 5799.96 0.00000 -4.48980e-14
  90 5799.96 0.00000 -4.35141e-13
  91 5799.96 0.00000 -1.67980e-13
  92 5799.96 0.00000 -3.39369e-13
  93 5799.96 0.00000 -3.48910e-12
  94 5799.96 0.00000 5.94322e-13
  95 5799.96 0.00000 -8.29572e-13
  96 5799.96 0.00000 -3.97613e-13
  97 5799.96 0.00000 3.09560e-14
  98 5799.96 0.00000 5.60174e-13
  99 5799.96 0.00000 -7.16966e-13
  100 5799.96 0.00000 -1.40508e-13
  101 5799.96 0.00000 -6.13266e-14
  102 5799.96 0.00000 9.18395e-13
  103 5799.96 0.00000 -5.65907e-13
  104 5799.96 0.00000 4.24446e-13
  105 5799.96 0.00000 3.50706e-13
  106 5799.96 0.00000 2.92136e-13
  107 5799.96 0.00000 -1.30233e-12
  108 5799.96 0.00000 2.94437e-13
  109 5799.96 0.00000 1.99289e-13
  110 5799.96 0.00000 4.25482e-12
  111 5799.96 0.00000 7.85438e-13
  112 5799.96 0.00000 1.10214e-14
  113 5799.96 0.00000 1.11808e-12
  114 5799.96 0.00000 9.09565e-15
  115 5799.96 0.00000 4.03666e-13
  116 5799.96 0.00000 3.09560e-14
  117 5799.96 0.00000 7.24857e-14
  118 5799.96 0.00000 1.77917e-14
  119 5799.96 0.00000 2.63842e-13
  120 5799.96 0.00000 3.48993e-13
  121 5799.96 0.00000 5.81393e-13
  122 5799.96 0.00000 -6.16107e-13
  123 5799.96 0.00000 2.41849e-13
  124 5799.96 0.00000 -1.27465e-12
  125 5799.96 0.00000 2.51298e-13
  126 5799.96 0.00000 1.48258e-13
  127 5799.96 0.00000 -5.76102e-13
  128 5799.96 0.00000 2.96208e-14
  129 5799.96 0.00000 2.04903e-13
  130 5799.96 0.00000 -6.59345e-13
  131 5799.96 0.00000 -2.58313e-13
  132 5799.96 0.00000 -2.68652e-13
  133 5799.96 0.00000 -1.85170e-13
  134 5799.96 0.00000 3.18223e-13
  135 5799.96 0.00000 1.30765e-12
  136 5799.96 0.00000 -1.40050e-13
  137 5799.96 0.00000 -3.97844e-13
  138 5799.96 0.00000 7.50783e-14
  139 5799.96 0.00000 5.00341e-13
  140 5799.96 0.00000 -5.51398e-13
  141 5799.96 0.00000 -1.16847e-13
  142 5799.96 0.00000 -4.42530e-13
  143 5799.96 0.00000 1.81058e-13
  144 5799.96 0.00000 5.68992e-13
  145 5799.96 0.00000 -2.29963e-12
  146 5799.96 0.00000 -4.47784e-13
  147 5799.96 0.00000 4.08656e-13
  148 5799.96 0.00000 1.83877e-13
  149 5799.96 0.00000 1.30876e-12
  150 5799.96 0.00000 5.91571e-13
  151 5799.96 0.00000 3.02798e-14
  152 5799.96 0.00000 1.07585e-12
  153 5799.96 0.00000 -1.63293e-13
  154 5799.96 0.00000 -2.90693e-13
  155 5799.96 0.00000 3.65058e-13
  156 5799.96 0.00000 -3.91201e-13
  157 5799.96 0.00000 3.33639e-13
  158 5799.96 0.00000 -3.51793e-13
  159 5799.96 0.00000 -1.75775e-13
  160 5799.96 0.00000 3.47069e-13
  161 5799.96 0.00000 -9.61154e-13
  162 5799.96 0.00000 9.08675e-13
  163 5799.96 0.00000 -4.75592e-13
  164 5799.96 0.00000 -9.22038e-13
  165 5799.96 0.00000 -2.37096e-13
  166 5799.96 0.00000 -2.09920e-13
  167 5799.96 0.00000 1.31805e-12
  168 5799.96 0.00000 3.80803e-13
  169 5799.96 0.00000 -1.10381e-13
  170 5799.96 0.00000 2.35250e-12
  171 5799.96 0.00000 4.51498e-13
  172 5799.96 0.00000 6.64687e-14
  173 5799.96 0.00000 3.10124e-14
  174 5799.96 0.00000 1.79918e-12
  175 5799.96 0.00000 -7.62158e-14
  176 5799.96 0.00000 -3.86643e-13
  177 5799.96 0.00000 -6.58660e-13
  178 5799.96 0.00000 1.61348e-13
  179 5799.96 0.00000 1.89003e-14
  180 5799.96 0.00000 3.97636e-13
  181 5799.96 0.00000 6.27207e-13
  182 5799.96 0.00000 -4.42969e-14
  183 5799.96 0.00000 -1.53784e-13
  184 5799.96 0.00000 -1.16980e-13
  185 5799.96 0.00000 -2.90915e-13
  186 5799.96 0.00000 -3.37250e-13
  187 5799.96 0.00000 -7.03289e-13
  188 5799.96 0.00000 -4.69496e-13
  189 5799.96 0.00000 -8.21866e-15
  190 5799.96 0.00000 4.24829e-14
  191 5799.96 0.00000 2.46662e-13
  192 5799.96 0.00000 1.89225e-13
  193 5799.96 0.00000 -6.41382e-13
  194 5799.96 0.00000 1.30301e-13
  195 5799.96 0.00000 -1.09565e-14
  196 5799.96 0.00000 3.85510e-13
  197 5799.96 0.00000 3.03095e-13
  198 5799.96 0.00000 -9.31469e-13
  199 5799.96 0.00000 -1.84606e-13
  200 5799.96 0.00000 -9.22465e-13
  201 5799.96 0.00000 8.40194e-13
  202 5799.96 0.00000 8.60236e-14
  203 5799.96 0.00000 9.87361e-15
  204 5799.96 0.00000 4.09639e-13
  205 5799.96 0.00000 1.00454e-13
  206 5799.96 0.00000 1.65044e-12
  207 5799.96 0.00000 -3.26944e-15
  208 5799.96 0.00000 -6.84919e-13
  209 5799.96 0.00000 -4.24241e-13
  210 5799.96 0.00000 2.77247e-13
  211 5799.96 0.00000 -3.15838e-13
  212 5799.96 0.00000 2.82340e-12
  213 5799.96 0.00000 -1.90643e-13
  214 5799.96 0.00000 -1.29037e-12
  215 5799.96 0.00000 -9.47882e-13
  216 5799.96 0.00000 -2.66349e-13
  217 5799.96 0.00000 -4.87934e-13
  218 5799.96 0.00000 5.48714e-13
  219 5799.96 0.00000 5.04501e-13
  220 5799.96 0.00000 6.02069e-13
  221 5799.96 0.00000 -3.13514e-13
  222 5799.96 0.00000 -2.49593e-12
  223 5799.96 0.00000 -9.52287e-13
  224 5799.96 0.00000 -2.17898e-13
  225 5799.96 0.00000 -1.19524e-12
  226 5799.96 0.00000 3.98955e-13
  227 5799.96 0.00000 -3.51513e-13
  228 5799.96 0.00000 7.48934e-13
  229 5799.96 0.00000 1.48223e-13
  230 5799.96 0.00000 2.22288e-12
  231 5799.96 0.00000 -6.10591e-13
  232 5799.96 0.00000 -1.74349e-15
  233 5799.96 0.00000 -1.07986e-12
  234 5799.96 0.00000 -8.65564e-13
  235 5799.96 0.00000 1.81350e-13
  236 5799.96 0.00000 1.69142e-13
  237 5799.96 0.00000 -1.84946e-13
  238 5799.96 0.00000 3.97581e-14
  239 5799.96 0.00000 1.22037e-12
  240 5799.96 0.00000 2.46974e-13
  241 5799.96 0.00000 9.97732e-13
</Section>

newXOutput 124

<Section columns = "stress_xx | stress_yy | stress_xy">
  1 5850.67 0.00000 1.74887e-13
  2 5850.67 0.00000 -1.37604e-12
  3 5850.67 0.00000 7.96797e-13
  4 5850.67 0.00000 1.06889e-13
  5 5850.67 0.00000 -5.44531e-14
  6 5850.67 0.00000 -4.72293e-13
  7 5850.67 0.00000 5.59737e-13
  8 5850.67 0.00000 -4.66365e-13
  9 5850.67 0.00000 -4.31453e-13
  10 5850.67 0.00000 6.21381e-14
  11 5850.67 0.00000 -4.37841e-14
  12 5850.67 0.00000 4.04227e-13
  13 5850.67 0.00000 -2.56567e-13
  14 5850.67 0.00000 -1.84241e-12
  15 5850.67 0.00000 -1.18717e-12
  16 5850.67 0.00000 6.91863e-13
  17 5850.67 0.00000 1.54487e-13
  18 5850.67 0.00000 6.13167e-13
  19 5850.67 0.00000 1.72581e-12
  20 5850.67 0.00000 5.54478e-12
  21 5850.67 0.00000 2.63053e-12
  22 5850.67 0.00000 -1.00852e-12
  23 5850.67 0.00000 -2.87345e-12
  24 5850.67 0.00000 -1.16591e-13
  25 5850.67 0.00000 1.74887e-13
  26 5850.67 0.00000 -1.27061e-12
  27 5850.67 0.00000 2.33182e-13
  28 5850.67 0.00000 -1.86692e-12
  29 5850.67 0.00000 -2.33909e-13
  30 5850.67 0.00000 -1.18798e-12
  31 5850.67 0.00000 1.48741e-12
  32 5850.67 0.00000 9.68281e-13
  33 5850.67 0.00000 1.84092e-12
  34 5850.67 0.00000 5.34902e-13
  35 5850.67 0.00000 -2.20881e-14
  36 5850.67 0.00000 8.77797e-13
  37 5850.67 0.00000 -3.85601e-14
  38 5850.67 0.00000 3.03813e-13
  39 5850.67 0.00000 -6.21439e-13
  40 5850.67 0.00000 -4.58710e-13
  41 5850.67 0.00000 -4.04122e-13
  42 5850.67 0.00000 5.75089e-13
  43 5850.67 0.00000 9.40562e-13
  44 5850.67 0.00000 -2.34231e-13
  45 5850.67 0.00000 -8.36221e-13
  46 5850.67 0.00000 -2.75377e-13
  47 5850.67 0.00000 -2.20765e-13
  48 5850.67 0.00000 -2.09848e-13
  49 5850.67 0.00000 4.04046e-14
  50 5850.67 0.00000 0.00000
  51 5850.67 0.00000 -1.08915e-15
  52 5850.67 0.00000 2.68978e-13
  53 5850.67 0.00000 -6.65744e-14
  54 5850.67 0.00000 1.36557e-13
  55 5850.67 0.00000 0.00000
  56 5850.67 0.00000 1.30291e-13
  57 5850.67 0.00000 -1.03499e-13
  58 5850.67 0.00000 7.86753e-13
  59 5850.67 0.00000 5.35732e-13
  60 5850.67 0.00000 1.41681e-12
  61 5850.67 0.00000 1.68380e-12
  62 5850.67 0.00000 -1.53939e-12
  63 5850.67 0.00000 1.10170e-12
  64 5850.67 0.00000 -8.01682e-13
  65 5850.67 0.00000 3.22888e-14
  66 5850.67 0.00000 -1.17040e-13
  67 5850.67 0.00000 -2.18469e-12
  68 5850.67 0.00000 -9.86521e-13
  69 5850.67 0.00000 -3.00024e-13
  70 5850.67 0.00000 -5.55947e-13
  71 5850.67 0.00000 6.51612e-13
  72 5850.67 0.00000 4.03676e-13
  73 5850.67 0.00000 -1.52150e-13
  74 5850.67 0.00000 1.03947e-13
  75 5850.67 0.00000 8.42547e-14
  76 5850.67 0.00000 1.78875e-12
  77 5850.67 0.00000 7.90985e-14
  78 5850.67 0.00000 -5.01462e-13
  79 5850.67 0.00000 3.63338e-13
  80 5850.67 0.00000 7.38763e-13
  81 5850.67 0.00000 -6.10051e-13
  82 5850.67 0.00000 5.45827e-13
  83 5850.67 0.00000 2.36008e-13
  84 5850.67 0.00000 6.09008e-13
  85 5850.67 0.00000 4.08399e-14
  86 5850.67 0.00000 2.39932e-12
  87 5850.67 0.00000 -1.85334e-13
  88 5850.67 0.00000 -6.16726e-13
  89 5850.67 0.00000 -3.51359e-15
  90 5850.67 0.00000 -4.69105e-13
  91 5850.67 0.00000 5.24914e-13
  92 5850.67 0.00000 -3.93668e-13
  93 5850.67 0.00000 7.22683e-13
  94 5850.67 0.00000 -1.98307e-13
  95 5850.67 0.00000 1.83055e-13
  96 5850.67 0.00000 -1.53637e-12
  97 5850.67 0.00000 -4.10225e-14
  98 5850.67 0.00000 -1.67432e-13
  99 5850.67 0.00000 1.41850e-12
  100 5850.67 0.00000 6.51688e-13
  101 5850.67 0.00000 -5.67719e-13
  102 5850.67 0.00000 -3.80423e-12
  103 5850.67 0.00000 3.27749e-13
  104 5850.67 0.00000 -7.67918e-14
  105 5850.67 0.00000 2.00713e-12
  106 5850.67 0.00000 1.46133e-12
  107 5850.67 0.00000 -5.27051e-13
  108 5850.67 0.00000 3.59454e-13
  109 5850.67 0.00000 1.38920e-14
  110 5850.67 0.00000 -2.68750e-12
  111 5850.67 0.00000 -2.97198e-13
  112 5850.67 0.00000 3.64929e-13
  113 5850.67 0.00000 -7.48574e-13
  114 5850.67 0.00000 5.69015e-13
  115 5850.67 0.00000 1.61570e-12
  116 5850.67 0.00000 6.90326e-13
  117 5850.67 0.00000 -2.30056e-12
  118 5850.67 0.00000 2.23819e-13
  119 5850.67 0.00000 1.00242e-12
  120 5850.67 0.00000 -4.18652e-13
  121 5850.67 0.00000 3.98559e-13
  122 5850.67 0.00000 2.28072e-13
  123 5850.67 0.00000 9.19143e-13
  124 5850.67 0.00000 9.13147e-13
  125 5850.67 0.00000 -5.13530e-13
  126 5850.67 0.00000 -9.43297e-14
  127 5850.67 0.00000 1.52928e-13
  128 5850.67 0.00000 1.54238e-12
  129 5850.67 0.00000 -2.29623e-14
  130 5850.67 0.00000 -3.56854e-13
  131 5850.67 0.00000 -3.59799e-13
  132 5850.67 0.00000 7.63944e-13
  133 5850.67 0.00000 -8.75198e-13
  134 5850.67 0.00000 4.70720e-13
  135 5850.67 0.00000 7.90734e-13
  136 5850.67 0.00000 -4.97834e-13
  137 5850.67 0.00000 7.92728e-14
  138 5850.67 0.00000 5.35474e-13
  139 5850.67 0.00000 1.19668e-13
  140 5850.67 0.00000 4.32819e-13
  141 5850.67 0.00000 8.04611e-13
  142 5850.67 0.00000 -2.54711e-13
  143 5850.67 0.00000 1.56844e-13
  144 5850.67 0.00000 -1.01368e-12
  145 5850.67 0.00000 -4.27816e-14
  146 5850.67 0.00000 -1.95095e-13
  147 5850.67 0.00000 -1.70934e-13
  148 5850.67 0.00000 1.60990e-14
  149 5850.67 0.00000 -4.83861e-13
  150 5850.67 0.00000 1.67459e-12
  151 5850.67 0.00000 1.84729e-12
  152 5850.67 0.00000 -3.38271e-12
  153 5850.67 0.00000 -1.19514e-12
  154 5850.67 0.00000 1.77655e-12
  155 5850.67 0.00000 1.06572e-12
  156 5850.67 0.00000 1.81246e-12
  157 5850.67 0.00000 -4.95346e-14
  158 5850.67 0.00000 -1.17447e-12
  159 5850.67 0.00000 -1.72527e-12
  160 5850.67 0.00000 2.33663e-13
  161 5850.67 0.00000 -8.10366e-13
  162 5850.67 0.00000 -3.97456e-13
  163 5850.67 0.00000 4.57772e-13
  164 5850.67 0.00000 1.22443e-12
  165 5850.67 0.00000 8.49203e-13
  166 5850.67 0.00000 -3.33377e-14
  167 5850.67 0.00000 2.37909e-13
  168 5850.67 0.00000 -8.36237e-13
  169 5850.67 0.00000 -2.74567e-14
  170 5850.67 0.00000 -7.82534e-13
  171 5850.67 0.00000 -8.69171e-13
  172 5850.67 0.00000 1.54850e-13
  173 5850.67 0.00000 7.94259e-14
  174 5850.67 0.00000 -7.10084e-13
  175 5850.67 0.00000 1.48037e-14
  176 5850.67 0.00000 -3.66574e-14
  177 5850.67 0.00000 6.00024e-14
  178 5850.67 0.00000 2.02816e-13
  179 5850.67 0.00000 4.90935e-13
  180 5850.67 0.00000 2.41972e-13
  181 5850.67 0.00000 -1.64649e-12
  182 5850.67 0.00000 1.53573e-12
  183 5850.67 0.00000 -3.37289e-13
  184 5850.67 0.00000 8.46571e-13
  185 5850.67 0.00000 3.72550e-13
  186 5850.67 0.00000 8.57518e-14
  187 5850.67 0.00000 1.09168e-12
  188 5850.67 0.00000 1.02210e-12
  189 5850.67 0.00000 4.47789e-13
  190 5850.67 0.00000 3.93563e-13
  191 5850.67 0.00000 -3.99318e-13
  192 5850.67 0.00000 4.94991e-13
  193 5850.67 0.00000 2.93271e-13
  194 5850.67 0.00000 1.82138e-12
  195 5850.67 0.00000 -1.23657e-14
  196 5850.67 0.00000 -2.55648e-12
  197 5850.67 0.00000 -7.75042e-14
  198 5850.67 0.00000 -5.82956e-14
  199 5850.67 0.00000 -1.32423e-13
  200 5850.67 0.00000 1.02978e-13
  201 5850.67 0.00000 3.22369e-13
  202 5850.67 0.00000 6.56347e-13
  203 5850.67 0.00000 3.31143e-13
  204 5850.67 0.00000 4.51899e-13
  205 5850.67 0.00000 5.70907e-13
  206 5850.67 0.00000 2.82812e-12
  207 5850.67 0.00000 -5.40716e-13
  208 5850.67 0.00000 -9.41057e-13
  209 5850.67 0.00000 5.61209e-13
  210 5850.67 0.00000 7.14097e-14
  211 5850.67 0.00000 -1.15791e-13
  212 5850.67 0.00000 -5.10678e-13
  213 5850.67 0.00000 -2.12558e-13
  214 5850.67 0.00000 -2.89976e-13
  215 5850.67 0.00000 4.29609e-13
  216 5850.67 0.00000 -8.35467e-14
  217 5850.67 0.00000 3.53484e-13
  218 5850.67 0.00000 2.29415e-13
  219 5850.67 0.00000 1.46287e-12
  220 5850.67 0.00000 -3.37108e-13
  221 5850.67 0.00000 -1.53326e-13
  222 5850.67 0.00000 -1.58707e-12
  223 5850.67 0.00000 -6.61812e-13
  224 5850.67 0.00000 3.63725e-13
  225 5850.67 0.00000 1.40898e-12
  226 5850.67 0.00000 3.55533e-13
  227 5850.67 0.00000 -3.15588e-13
  228 5850.67 0.00000 7.78407e-13
  229 5850.67 0.00000 -1.60098e-13
  230 5850.67 0.00000 9.66712e-13
  231 5850.67 0.00000 -3.29905e-13
  232 5850.67 0.00000 -5.16023e-14
  233 5850.67 0.00000 1.09899e-13
  234 5850.67 0.00000 5.20546e-13
  235 5850.67 0.00000 1.64662e-12
  236 5850.67 0.00000 -3.26574e-14
  237 5850.67 0.00000 8.55498e-14
  238 5850.67 0.00000 1.95489e-12
  239 5850.67 0.00000 -1.02034e-12
  240 5850.67 0.00000 -3.45163e-13
  241 5850.67 0.00000 1.71044e-13
</Section>

newXOutput 125

<Section columns = "stress_xx | stress_yy | stress_xy">
  1 5901.48 0.00000 0.00000
  2 5901.48 0.00000 2.07801e-12
  3 5901.48 0.00000 -3.73454e-12
  4 5901.48 0.00000 5.05736e-14
  5 5901.48 0.00000 -2.88534e-13
  6 5901.48 0.00000 -2.59395e-13
  7 5901.48 0.00000 2.52470e-13
  8 5901.48 0.00000 2.21024e-13
  9 5901.48 0.00000 -1.72930e-13
  10 5901.48 0.00000 9.81204e-13
  11 5901.48 0.00000 -6.34393e-13
  12 5901.48 0.00000 -5.39171e-13
  13 5901.48 0.00000 -8.80174e-13
  14 5901.48 0.00000 1.61560e-12
  15 5901.48 0.00000 5.19503e-13
  16 5901.48 0.00000 -1.26974e-12
  17 5901.48 0.00000 8.46170e-13
  18 5901.48 0.00000 1.65444e-12
  19 5901.48 0.00000 -3.45860e-13
  20 5901.48 0.00000 -1.69234e-12
  21 5901.48 0.00000 -9.23878e-13
  22 5901.48 0.00000 2.87383e-12
  23 5901.48 0.00000 4.68178e-12
  24 5901.48 0.00000 -9.22927e-13
  25 5901.48 0.00000 5.77060e-13
  26 5901.48 0.00000 2.60277e-13
  27 5901.48 0.00000 5.39164e-13
  28 5901.48 0.00000 -1.38421e-12
  29 5901.48 0.00000 1.17281e-13
  30 5901.48 0.00000 -1.07661e-12
  31 5901.48 0.00000 -4.68277e-12
  32 5901.48 0.00000 -4.21331e-12
  33 5901.48 0.00000 -1.47115e-12
  34 5901.48 0.00000 -2.03859e-12
  35 5901.48 0.00000 -5.70189e-13
  36 5901.48 0.00000 3.06527e-12
  37 5901.48 0.00000 8.84041e-13
  38 5901.48 0.00000 1.34599e-12
  39 5901.48 0.00000 4.62982e-13
  40 5901.48 0.00000 3.83757e-14
  41 5901.48 0.00000 -1.54632e-13
  42 5901.48 0.00000 1.11575e-12
  43 5901.48 0.00000 4.43114e-13
  44 5901.48 0.00000 -1.34451e-13
  45 5901.48 0.00000 -4.99946e-13
  46 5901.48 0.00000 -3.83325e-13
  47 5901.48 0.00000 1.16371e-13
  48 5901.48 0.00000 -1.34014e-13
  49 5901.48 0.00000 4.09490e-14
  50 5901.48 0.00000 7.18938e-14
  51 5901.48 0.00000 -7.18812e-16
  52 5901.48 0.00000 2.03742e-14
  53 5901.48 0.00000 -2.21975e-13
  54 5901.48 0.00000 1.00557e-13
  55 5901.48 0.00000 0.00000
  56 5901.48 0.00000 -1.77546e-13
  57 5901.48 0.00000 -7.67936e-14
  58 5901.48 0.00000 -7.40717e-15
  59 5901.48 0.00000 3.12692e-13
  60 5901.48 0.00000 -1.35973e-12
  61 5901.48 0.00000 -1.72380e-12
  62 5901.48 0.00000 8.30219e-13
  63 5901.48 0.00000 4.68677e-12
  64 5901.48 0.00000 3.55697e-12
  65 5901.48 0.00000 2.19068e-13
  66 5901.48 0.00000 1.52588e-13
  67 5901.48 0.00000 1.02432e-12
  68 5901.48 0.00000 -9.59442e-14
  69 5901.48 0.00000 -5.39196e-13
  70 5901.48 0.00000 -2.65464e-14
  71 5901.48 0.00000 -3.59254e-13
  72 5901.48 0.00000 -5.56691e-13
  73 5901.48 0.00000 1.44744e-12
  74 5901.48 0.00000 2.63532e-13
  75 5901.48 0.00000 -4.54440e-13
  76 5901.48 0.00000 1.93580e-12
  77 5901.48 0.00000 4.09024e-14
  78 5901.48 0.00000 1.40389e-12
  79 5901.48 0.00000 -4.31985e-14
  80 5901.48 0.00000 -6.06209e-13
  81 5901.48 0.00000 -9.90444e-13
  82 5901.48 0.00000 1.47180e-12
  83 5901.48 0.00000 -4.07703e-13
  84 5901.48 0.00000 1.28306e-13
  85 5901.48 0.00000 3.36391e-13
  86 5901.48 0.00000 -2.91351e-14
  87 5901.48 0.00000 8.83858e-14
  88 5901.48 0.00000 8.54643e-13
  89 5901.48 0.00000 1.36218e-13
  90 5901.48 0.00000 -8.78586e-14
  91 5901.48 0.00000 -8.37184e-14
  92 5901.48 0.00000 -2.78838e-13
  93 5901.48 0.00000 -2.74553e-12
  94 5901.48 0.00000 1.73373e-14
  95 5901.48 0.00000 6.43575e-14
  96 5901.48 0.00000 3.26848e-13
  97 5901.48 0.00000 -3.54759e-12
  98 5901.48 0.00000 3.06341e-13
  99 5901.48 0.00000 5.20336e-13
  100 5901.48 0.00000 -5.85953e-13
  101 5901.48 0.00000 1.20703e-13
  102 5901.48 0.00000 6.83592e-13
  103 5901.48 0.00000 -7.24121e-13
  104 5901.48 0.00000 4.67340e-13
  105 5901.48 0.00000 -1.76168e-12
  106 5901.48 0.00000 -6.67983e-14
  107 5901.48 0.00000 -6.67370e-13
  108 5901.48 0.00000 2.33183e-14
  109 5901.48 0.00000 6.76898e-14
  110 5901.48 0.00000 -2.64717e-12
  111 5901.48 0.00000 1.45728e-12
  112 5901.48 0.00000 8.01700e-13
  113 5901.48 0.00000 1.07634e-12
  114 5901.48 0.00000 1.17713e-12
  115 5901.48 0.00000 -6.77715e-13
  116 5901.48 0.00000 2.88536e-13
  117 5901.48 0.00000 3.34176e-12
  118 5901.48 0.00000 8.83238e-14
  119 5901.48 0.00000 8.16567e-13
  120 5901.48 0.00000 2.00612e-12
  121 5901.48 0.00000 -3.09554e-13
  122 5901.48 0.00000 3.83667e-13
  123 5901.48 0.00000 -1.28406e-12
  124 5901.48 0.00000 -1.51788e-13
  125 5901.48 0.00000 4.21369e-14
  126 5901.48 0.00000 2.97924e-13
  127 5901.48 0.00000 -2.06502e-13
  128 5901.48 0.00000 -3.74517e-13
  129 5901.48 0.00000 -8.70807e-14
  130 5901.48 0.00000 -9.04694e-13
  131 5901.48 0.00000 -6.63265e-13
  132 5901.48 0.00000 -8.61413e-13
  133 5901.48 0.00000 -9.86812e-14
  134 5901.48 0.00000 -8.24589e-13
  135 5901.48 0.00000 -3.30156e-13
  136 5901.48 0.00000 -1.19278e-14
  137 5901.48 0.00000 -2.38490e-13
  138 5901.48 0.00000 4.03422e-13
  139 5901.48 0.00000 1.19495e-13
  140 5901.48 0.00000 2.12070e-14
  141 5901.48 0.00000 -1.09112e-12
  142 5901.48 0.00000 3.83784e-14
  143 5901.48 0.00000 7.20967e-14
  144 5901.48 0.00000 2.84029e-12
  145 5901.48 0.00000 -2.23405e-14
  146 5901.48 0.00000 8.73920e-13
  147 5901.48 0.00000 -1.58981e-13
  148 5901.48 0.00000 -7.65540e-14
  149 5901.48 0.00000 1.91697e-12
  150 5901.48 0.00000 -7.83903e-13
  151 5901.48 0.00000 -7.09314e-13
  152 5901.48 0.00000 -9.01911e-13
  153 5901.48 0.00000 3.65040e-13
  154 5901.48 0.00000 1.96145e-13
  155 5901.48 0.00000 -1.11527e-12
  156 5901.48 0.00000 -2.23738e-12
  157 5901.48 0.00000 5.97286e-15
  158 5901.48 0.00000 -5.76655e-13
  159 5901.48 0.00000 1.79566e-12
  160 5901.48 0.00000 -6.27496e-14
  161 5901.48 0.00000 3.17775e-12
  162 5901.48 0.00000 -1.17077e-13
  163 5901.48 0.00000 1.35031e-13
  164 5901.48 0.00000 2.51390e-12
  165 5901.48 0.00000 -2.98665e-13
  166 5901.48 0.00000 -1.66774e-14
  167 5901.48 0.00000 -9.39200e-13
  168 5901.48 0.00000 -1.44501e-12
  169 5901.48 0.00000 -1.82909e-13
  170 5901.48 0.00000 -4.73393e-14
  171 5901.48 0.00000 -5.28719e-13
  172 5901.48 0.00000 -9.54650e-14
  173 5901.48 0.00000 -2.97891e-13
  174 5901.48 0.00000 4.13853e-13
  175 5901.48 0.00000 1.02516e-13
  176 5901.48 0.00000 -2.36742e-13
  177 5901.48 0.00000 -2.70655e-12
  178 5901.48 0.00000 -1.89829e-13
  179 5901.48 0.00000 1.13748e-13
  180 5901.48 0.00000 -2.66355e-13
  181 5901.48 0.00000 -9.54617e-13
  182 5901.48 0.00000 4.66501e-13
  183 5901.48 0.00000 -3.81987e-14
  184 5901.48 0.00000 2.07516e-13
  185 5901.48 0.00000 -1.37578e-13
  186 5901.48 0.00000 1.76617e-12
  187 5901.48 0.00000 -2.69289e-12
  188 5901.48 0.00000 -1.61571e-13
  189 5901.48 0.00000 -7.20762e-13
  190 5901.48 0.00000 5.81631e-15
  191 5901.48 0.00000 5.41815e-13
  192 5901.48 0.00000 -2.34825e-13
  193 5901.48 0.00000 1.97181e-12
  194 5901.48 0.00000 -1.54741e-12
  195 5901.48 0.00000 -5.33812e-14
  196 5901.48 0.00000 2.95354e-13
  197 5901.48 0.00000 2.35129e-13
  198 5901.48 0.00000 -3.78992e-14
  199 5901.48 0.00000 -2.20821e-13
  200 5901.48 0.00000 1.09774e-12
  201 5901.48 0.00000 -5.93357e-13
  202 5901.48 0.00000 4.28119e-13
  203 5901.48 0.00000 -5.64568e-13
  204 5901.48 0.00000 -9.71073e-13
  205 5901.48 0.00000 -3.32004e-13
  206 5901.48 0.00000 -5.53748e-13
  207 5901.48 0.00000 -1.66505e-13
  208 5901.48 0.00000 -3.86141e-13
  209 5901.48 0.00000 -3.20187e-12
  210 5901.48 0.00000 2.20521e-13
  211 5901.48 0.00000 6.81746e-14
  212 5901.48 0.00000 2.79742e-12
  213 5901.48 0.00000 -4.08615e-14
  214 5901.48 0.00000 1.26090e-12
  215 5901.48 0.00000 -1.66451e-14
  216 5901.48 0.00000 -1.88544e-12
  217 5901.48 0.00000 -7.24573e-13
  218 5901.48 0.00000 4.61034e-13
  219 5901.48 0.00000 7.26881e-13
  220 5901.48 0.00000 3.45976e-13
  221 5901.48 0.00000 1.32706e-12
  222 5901.48 0.00000 -4.86201e-13
  223 5901.48 0.00000 7.93439e-14
  224 5901.48 0.00000 1.10833e-14
  225 5901.48 0.00000 7.39532e-13
  226 5901.48 0.00000 -1.01846e-13
  227 5901.48 0.00000 -7.59113e-13
  228 5901.48 0.00000 5.35696e-13
  229 5901.48 0.00000 1.72012e-13
  230 5901.48 0.00000 -1.87011e-13
  231 5901.48 0.00000 1.16939e-12
  232 5901.48 0.00000 -1.68966e-13
  233 5901.48 0.00000 -1.60096e-13
  234 5901.48 0.00000 -1.06505e-12
  235 5901.48 0.00000 -7.38689e-13
  236 5901.48 0.00000 3.21427e-13
  237 5901.48 0.00000 -4.26658e-13
  238 5901.48 0.00000 -1.03872e-12
  239 5901.48 0.00000 1.97654e-12
  240 5901.48 0.00000 -5.07702e-13
  241 5901.48 0.00000 5.19269e-13
</Section>

newXOutput 126

<Section columns = "stress_xx | stress_yy | stress_xy">
  1 5952.41 0.00000 0.00000
  2 5952.41 0.00000 1.71920e-13
  3 5952.41 0.00000 3.16879e-12
  4 5952.41 0.00000 -2.17127e-13
  5 5952.41 0.00000 -8.45069e-14
  6 5952.41 0.00000 -3.43840e-13
  7 5952.41 0.00000 -1.66078e-13
  8 5952.41 0.00000 3.01063e-14
  9 5952.41 0.00000 6.71174e-13
  10 5952.41 0.00000 -3.34073e-13
  11 5952.41 0.00000 1.52509e-13
  12 5952.41 0.00000 7.11451e-13
  13 5952.41 0.00000 5.36856e-13
  14 5952.41 0.00000 -1.31700e-12
  15 5952.41 0.00000 -1.47004e-12
  16 5952.41 0.00000 -8.02292e-13
  17 5952.41 0.00000 -1.85706e-12
  18 5952.41 0.00000 -1.72990e-12
  19 5952.41 0.00000 3.78956e-14
  20 5952.41 0.00000 -1.99146e-12
  21 5952.41 0.00000 -4.42159e-12
  22 5952.41 0.00000 -4.33324e-12
  23 5952.41 0.00000 -1.80661e-12
  24 5952.41 0.00000 2.67122e-13
  25 5952.41 0.00000 0.00000
  26 5952.41 0.00000 -4.10487e-13
  27 5952.41 0.00000 -1.14613e-13
  28 5952.41 0.00000 -4.95969e-13
  29 5952.41 0.00000 1.72267e-13
  30 5952.41 0.00000 2.55556e-13
  31 5952.41 0.00000 2.69689e-12
  32 5952.41 0.00000 1.04865e-12
  33 5952.41 0.00000 -8.63663e-13
  34 5952.41 0.00000 -2.54426e-12
  35 5952.41 0.00000 3.69411e-13
  36 5952.41 0.00000 2.41917e-13
  37 5952.41 0.00000 1.39914e-12
  38 5952.41 0.00000 9.34374e-13
  39 5952.41 0.00000 -3.81864e-14
  40 5952.41 0.00000 -1.20221e-12
  41 5952.41 0.00000 -1.48532e-12
  42 5952.41 0.00000 -3.05566e-13
  43 5952.41 0.00000 -9.82909e-13
  44 5952.41 0.00000 -8.08517e-13
  45 5952.41 0.00000 -2.67231e-13
  46 5952.41 0.00000 -3.65690e-13
  47 5952.41 0.00000 -1.44575e-13
  48 5952.41 0.00000 9.32593e-13
  49 5952.41 0.00000 -4.25131e-14
  50 5952.41 0.00000 2.20974e-13
  51 5952.41 0.00000 2.28763e-13
  52 5952.41 0.00000 -1.56598e-13
  53 5952.41 0.00000 2.97228e-13
  54 5952.41 0.00000 -1.54047e-13
  55 5952.41 0.00000 0.00000
  56 5952.41 0.00000 3.21840e-13
  57 5952.41 0.00000 -2.47301e-13
  58 5952.41 0.00000 -1.35624e-13
  59 5952.41 0.00000 1.10146e-13
  60 5952.41 0.00000 7.87995e-13
  61 5952.41 0.00000 2.65406e-13
  62 5952.41 0.00000 4.90542e-14
  63 5952.41 0.00000 -2.74458e-12
  64 5952.41 0.00000 -4.87223e-13
  65 5952.41 0.00000 1.64208e-13
  66 5952.41 0.00000 -1.65846e-13
  67 5952.41 0.00000 -1.05820e-12
  68 5952.41 0.00000 8.15137e-13
  69 5952.41 0.00000 1.39321e-13
  70 5952.41 0.00000 -3.43283e-13
  71 5952.41 0.00000 1.27661e-13
  72 5952.41 0.00000 2.64876e-13
  73 5952.41 0.00000 -4.79093e-13
  74 5952.41 0.00000 3.85869e-13
  75 5952.41 0.00000 2.20862e-13
  76 5952.41 0.00000 1.90543e-12
  77 5952.41 0.00000 -6.08011e-13
  78 5952.41 0.00000 -6.14164e-13
  79 5952.41 0.00000 2.42984e-13
  80 5952.41 0.00000 2.16264e-13
  81 5952.41 0.00000 1.37425e-12
  82 5952.41 0.00000 -5.87120e-13
  83 5952.41 0.00000 -4.10169e-13
  84 5952.41 0.00000 1.47756e-13
  85 5952.41 0.00000 9.05572e-13
  86 5952.41 0.00000 2.51439e-13
  87 5952.41 0.00000 3.59620e-13
  88 5952.41 0.00000 -1.65243e-12
  89 5952.41 0.00000 6.38770e-14
  90 5952.41 0.00000 2.57154e-13
  91 5952.41 0.00000 8.21066e-13
  92 5952.41 0.00000 -2.18248e-13
  93 5952.41 0.00000 4.81183e-12
  94 5952.41 0.00000 2.76067e-12
  95 5952.41 0.00000 -3.12506e-13
  96 5952.41 0.00000 -1.13858e-12
  97 5952.41 0.00000 6.12496e-13
  98 5952.41 0.00000 7.32979e-13
  99 5952.41 0.00000 1.07052e-12
  100 5952.41 0.00000 -2.66597e-13
  101 5952.41 0.00000 -5.51277e-14
  102 5952.41 0.00000 -7.59096e-13
  103 5952.41 0.00000 2.04932e-13
  104 5952.41 0.00000 7.95435e-14
  105 5952.41 0.00000 6.50174e-13
  106 5952.41 0.00000 -4.80538e-13
  107 5952.41 0.00000 6.16976e-13
  108 5952.41 0.00000 -3.88796e-13
  109 5952.41 0.00000 -3.84762e-13
  110 5952.41 0.00000 6.15090e-13
  111 5952.41 0.00000 -6.42774e-13
  112 5952.41 0.00000 4.98555e-13
  113 5952.41 0.00000 -1.61317e-12
  114 5952.41 0.00000 1.15361e-12
  115 5952.41 0.00000 -1.48806e-13
  116 5952.41 0.00000 1.96401e-13
  117 5952.41 0.00000 -5.29361e-13
  118 5952.41 0.00000 -3.63927e-13
  119 5952.41 0.00000 2.80073e-13
  120 5952.41 0.00000 3.03127e-13
  121 5952.41 0.00000 -1.62803e-13
  122 5952.41 0.00000 3.76482e-13
  123 5952.41 0.00000 -5.73645e-14
  124 5952.41 0.00000 -9.94607e-13
  125 5952.41 0.00000 6.61798e-13
  126 5952.41 0.00000 1.82393e-13
  127 5952.41 0.00000 9.36070e-13
  128 5952.41 0.00000 1.53159e-12
  129 5952.41 0.00000 2.91006e-13
  130 5952.41 0.00000 1.09541e-12
  131 5952.41 0.00000 -1.20851e-13
  132 5952.41 0.00000 -3.30767e-13
  133 5952.41 0.00000 1.42414e-12
  134 5952.41 0.00000 2.55015e-13
  135 5952.41 0.00000 -6.47727e-13
  136 5952.41 0.00000 6.13323e-13
  137 5952.41 0.00000 -7.94242e-14
  138 5952.41 0.00000 1.17635e-13
  139 5952.41 0.00000 -4.17862e-13
  140 5952.41 0.00000 4.31668e-13
  141 5952.41 0.00000 -3.15709e-13
  142 5952.41 0.00000 5.94804e-13
  143 5952.41 0.00000 -1.14481e-13
  144 5952.41 0.00000 -1.87067e-12
  145 5952.41 0.00000 -7.63407e-13
  146 5952.41 0.00000 -5.52420e-13
  147 5952.41 0.00000 -7.25870e-13
  148 5952.41 0.00000 -3.16740e-13
  149 5952.41 0.00000 3.84826e-13
  150 5952.41 0.00000 8.60730e-14
  151 5952.41 0.00000 -9.84557e-14
  152 5952.41 0.00000 1.48519e-12
  153 5952.41 0.00000 6.00964e-13
  154 5952.41 0.00000 7.53588e-13
  155 5952.41 0.00000 4.91465e-13
  156 5952.41 0.00000 2.20194e-12
  157 5952.41 0.00000 -7.23511e-13
  158 5952.41 0.00000 2.75476e-14
  159 5952.41 0.00000 -1.38315e-12
  160 5952.41 0.00000 -8.20192e-14
  161 5952.41 0.00000 -9.01097e-13
  162 5952.41 0.00000 8.70091e-13
  163 5952.41 0.00000 -5.34360e-13
  164 5952.41 0.00000 -1.06836e-12
  165 5952.41 0.00000 -1.89995e-13
  166 5952.41 0.00000 1.95509e-13
  167 5952.41 0.00000 -8.20237e-14
  168 5952.41 0.00000 4.98542e-14
  169 5952.41 0.00000 2.05104e-13
  170 5952.41 0.00000 -1.39524e-12
  171 5952.41 0.00000 5.09084e-13
  172 5952.41 0.00000 5.91898e-13
  173 5952.41 0.00000 2.73042e-13
  174 5952.41 0.00000 8.04862e-13
  175 5952.41 0.00000 7.23439e-14
  176 5952.41 0.00000 4.75481e-13
  177 5952.41 0.00000 6.42942e-13
  178 5952.41 0.00000 -5.54715e-13
  179 5952.41 0.00000 2.18109e-13
  180 5952.41 0.00000 -2.82639e-13
  181 5952.41 0.00000 4.05086e-13
  182 5952.41 0.00000 9.85916e-13
  183 5952.41 0.00000 5.09627e-13
  184 5952.41 0.00000 -3.61903e-13
  185 5952.41 0.00000 1.09923e-14
  186 5952.41 0.00000 9.34712e-15
  187 5952.41 0.00000 1.25292e-12
  188 5952.41 0.00000 -5.57473e-14
  189 5952.41 0.00000 -2.27855e-13
  190 5952.41 0.00000 6.22556e-13
  191 5952.41 0.00000 4.31122e-13
  192 5952.41 0.00000 1.31732e-12
  193 5952.41 0.00000 1.05416e-12
  194 5952.41 0.00000 -2.21201e-12
  195 5952.41 0.00000 3.47942e-13
  196 5952.41 0.00000 -3.42820e-13
  197 5952.41 0.00000 -1.56685e-13
  198 5952.41 0.00000 2.12163e-12
  199 5952.41 0.00000 -6.82564e-13
  200 5952.41 0.00000 3.00366e-13
  201 5952.41 0.00000 8.15021e-13
  202 5952.41 0.00000 -4.40157e-13
  203 5952.41 0.00000 -5.13551e-13
  204 5952.41 0.00000 6.49974e-13
  205 5952.41 0.00000 -2.43291e-13
  206 5952.41 0.00000 -2.10895e-12
  207 5952.41 0.00000 3.85849e-13
  208 5952.41 0.00000 1.77139e-13
  209 5952.41 0.00000 -1.61709e-12
  210 5952.41 0.00000 7.38845e-13
  211 5952.41 0.00000 2.49094e-15
  212 5952.41 0.00000 7.44324e-13
  213 5952.41 0.00000 4.67778e-13
  214 5952.41 0.00000 -1.62232e-12
  215 5952.41 0.00000 4.70230e-13
  216 5952.41 0.00000 5.01758e-13
  217 5952.41 0.00000 9.63751e-13
  218 5952.41 0.00000 4.33862e-13
  219 5952.41 0.00000 -1.04289e-12
  220 5952.41 0.00000 3.45294e-13
  221 5952.41 0.00000 -5.21687e-13
  222 5952.41 0.00000 3.59985e-12
  223 5952.41 0.00000 2.95194e-13
  224 5952.41 0.00000 2.88323e-13
  225 5952.41 0.00000 2.66043e-12
  226 5952.41 0.00000 -4.72901e-13
  227 5952.41 0.00000 -2.01852e-13
  228 5952.41 0.00000 1.09255e-12
  229 5952.41 0.00000 -5.26490e-13
  230 5952.41 0.00000 1.28116e-12
  231 5952.41 0.00000 -1.11075e-12
  232 5952.41 0.00000 -1.31951e-12
  233 5952.41 0.00000 4.46464e-12
  234 5952.41 0.00000 -8.75451e-13
  235 5952.41 0.00000 -4.65551e-13
  236 5952.41 0.00000 4.82294e-14
  237 5952.41 0.00000 3.03574e-13
  238 5952.41 0.00000 -3.47327e-13
  239 5952.41 0.00000 -1.54833e-13
  240 5952.41 0.00000 6.96082e-13
  241 5952.41 0.00000 -1.01501e-12
</Section>

newXOutput 127

<Section columns = "stress_xx | stress_yy | stress_xy">
  1 6003.44 0.00000 1.08882e-13
  2 6003.44 0.00000 1.74211e-12
  3 6003.44 0.00000 -1.62846e-12
  4 6003.44 0.00000 -1.08883e-13
  5 6003.44 0.00000 4.10317e-14
  6 6003.44 0.00000 -2.17764e-13
  7 6003.44 0.00000 5.82236e-13
  8 6003.44 0.00000 9.27830e-13
  9 6003.44 0.00000 -1.51515e-13
  10 6003.44 0.00000 7.57437e-13
  11 6003.44 0.00000 7.00664e-13
  12 6003.44 0.00000 -8.23686e-13
  13 6003.44 0.00000 -2.55645e-13
  14 6003.44 0.00000 -5.80705e-13
  15 6003.44 0.00000 8.75669e-14
  16 6003.44 0.00000 1.85573e-12
  17 6003.44 0.00000 2.78990e-12
  18 6003.44 0.00000 4.82291e-12
  19 6003.44 0.00000 1.16141e-12
  20 6003.44 0.00000 5.88379e-12
  21 6003.44 0.00000 3.73723e-12
  22 6003.44 0.00000 2.75248e-12
  23 6003.44 0.00000 4.09069e-12
  24 6003.44 0.00000 0.00000
  25 6003.44 0.00000 0.00000
  26 6003.44 0.00000 1.65691e-12
  27 6003.44 0.00000 3.23228e-12
  28 6003.44 0.00000 -1.31601e-12
  29 6003.44 0.00000 -2.51372e-17
  30 6003.44 0.00000 1.13597e-13
  31 6003.44 0.00000 -2.09555e-12
  32 6003.44 0.00000 -8.52107e-13
  33 6003.44 0.00000 -1.10776e-12
  34 6003.44 0.00000 6.56436e-13
  35 6003.44 0.00000 5.65706e-13
  36 6003.44 0.00000 -1.38891e-13
  37 6003.44 0.00000 -1.37605e-12
  38 6003.44 0.00000 -1.93143e-12
  39 6003.44 0.00000 6.18622e-13
  40 6003.44 0.00000 7.57790e-14
  41 6003.44 0.00000 -1.76676e-13
  42 6003.44 0.00000 -2.39816e-13
  43 6003.44 0.00000 -1.08565e-12
  44 6003.44 0.00000 5.42847e-13
  45 6003.44 0.00000 1.51521e-13
  46 6003.44 0.00000 2.96687e-13
  47 6003.44 0.00000 3.91317e-13
  48 6003.44 0.00000 -3.62961e-13
  49 6003.44 0.00000 -3.96117e-13
  50 6003.44 0.00000 1.08899e-13
  51 6003.44 0.00000 -5.02744e-17
  52 6003.44 0.00000 -3.02990e-13
  53 6003.44 0.00000 -1.16739e-13
  54 6003.44 0.00000 3.50345e-13
  55 6003.44 0.00000 2.27273e-13
  56 6003.44 0.00000 -1.02551e-13
  57 6003.44 0.00000 -1.48346e-13
  58 6003.44 0.00000 -1.17720e-12
  59 6003.44 0.00000 -2.34656e-13
  60 6003.44 0.00000 -1.30338e-12
  61 6003.44 0.00000 -4.61530e-13
  62 6003.44 0.00000 8.31603e-13
  63 6003.44 0.00000 1.28765e-12
  64 6003.44 0.00000 1.96332e-12
  65 6003.44 0.00000 -4.05157e-13
  66 6003.44 0.00000 4.85215e-13
  67 6003.44 0.00000 2.01386e-12
  68 6003.44 0.00000 8.36348e-13
  69 6003.44 0.00000 5.72809e-14
  70 6003.44 0.00000 3.42906e-13
  71 6003.44 0.00000 -2.87225e-13
  72 6003.44 0.00000 5.14891e-14
  73 6003.44 0.00000 -1.46883e-12
  74 6003.44 0.00000 1.84572e-13
  75 6003.44 0.00000 9.17432e-13
  76 6003.44 0.00000 -6.31491e-13
  77 6003.44 0.00000 -7.92406e-16
  78 6003.44 0.00000 9.65944e-13
  79 6003.44 0.00000 -1.36278e-13
  80 6003.44 0.00000 -1.25604e-12
  81 6003.44 0.00000 -4.29234e-13
  82 6003.44 0.00000 4.99961e-13
  83 6003.44 0.00000 7.18041e-14
  84 6003.44 0.00000 -2.36695e-13
  85 6003.44 0.00000 -5.55471e-13
  86 6003.44 0.00000 6.53494e-13
  87 6003.44 0.00000 1.87583e-13
  88 6003.44 0.00000 1.99997e-12
  89 6003.44 0.00000 -7.57694e-15
  90 6003.44 0.00000 -2.28847e-14
  91 6003.44 0.00000 -4.56362e-13
  92 6003.44 0.00000 6.20180e-14
  93 6003.44 0.00000 -3.84811e-12
  94 6003.44 0.00000 -2.15871e-12
  95 6003.44 0.00000 -7.53675e-13
  96 6003.44 0.00000 9.53113e-13
  97 6003.44 0.00000 -2.64350e-12
  98 6003.44 0.00000 -1.85150e-15
  99 6003.44 0.00000 1.50253e-12
  100 6003.44 0.00000 -1.09853e-13
  101 6003.44 0.00000 3.23538e-13
  102 6003.44 0.00000 -9.35456e-13
  103 6003.44 0.00000 6.50165e-13
  104 6003.44 0.00000 6.70345e-13
  105 6003.44 0.00000 -4.08537e-13
  106 6003.44 0.00000 -1.00954e-13
  107 6003.44 0.00000 2.54370e-12
  108 6003.44 0.00000 -6.33585e-13
  109 6003.44 0.00000 5.84205e-13
  110 6003.44 0.00000 -8.33184e-13
  111 6003.44 0.00000 1.14583e-12
  112 6003.44 0.00000 -5.86248e-13
  113 6003.44 0.00000 4.17056e-14
  114 6003.44 0.00000 2.62869e-13
  115 6003.44 0.00000 -2.83989e-14
  116 6003.44 0.00000 -2.27253e-13
  117 6003.44 0.00000 -2.83436e-12
  118 6003.44 0.00000 -2.00407e-13
  119 6003.44 0.00000 1.03219e-12
  120 6003.44 0.00000 -8.36608e-14
  121 6003.44 0.00000 -8.77860e-13
  122 6003.44 0.00000 -3.00900e-13
  123 6003.44 0.00000 -2.20611e-14
  124 6003.44 0.00000 -7.14179e-13
  125 6003.44 0.00000 4.07689e-13
  126 6003.44 0.00000 1.13601e-13
  127 6003.44 0.00000 7.62830e-13
  128 6003.44 0.00000 7.15044e-13
  129 6003.44 0.00000 1.47352e-13
  130 6003.44 0.00000 -6.06706e-13
  131 6003.44 0.00000 7.25998e-13
  132 6003.44 0.00000 1.40268e-13
  133 6003.44 0.00000 5.62038e-15
  134 6003.44 0.00000 -2.70605e-15
  135 6003.44 0.00000 -1.06662e-14
  136 6003.44 0.00000 1.35484e-14
  137 6003.44 0.00000 -1.33636e-12
  138 6003.44 0.00000 -1.09666e-13
  139 6003.44 0.00000 2.84043e-13
  140 6003.44 0.00000 7.89934e-13
  141 6003.44 0.00000 -9.54728e-14
  142 6003.44 0.00000 5.67819e-14
  143 6003.44 0.00000 2.83780e-14
  144 6003.44 0.00000 2.08301e-12
  145 6003.44 0.00000 1.50002e-12
  146 6003.44 0.00000 -9.17071e-13
  147 6003.44 0.00000 -4.69342e-14
  148 6003.44 0.00000 2.13857e-13
  149 6003.44 0.00000 1.04802e-12
  150 6003.44 0.00000 -4.13420e-13
  151 6003.44 0.00000 -4.21282e-13
  152 6003.44 0.00000 -2.22838e-12
  153 6003.44 0.00000 1.26872e-12
  154 6003.44 0.00000 2.95440e-13
  155 6003.44 0.00000 -9.21550e-13
  156 6003.44 0.00000 -5.68271e-13
  157 6003.44 0.00000 -3.72973e-13
  158 6003.44 0.00000 -4.41831e-13
  159 6003.44 0.00000 1.24978e-12
  160 6003.44 0.00000 -1.98810e-13
  161 6003.44 0.00000 4.19677e-12
  162 6003.44 0.00000 2.40760e-14
  163 6003.44 0.00000 -1.43282e-12
  164 6003.44 0.00000 -1.26059e-12
  165 6003.44 0.00000 2.43016e-13
  166 6003.44 0.00000 -1.55609e-14
  167 6003.44 0.00000 6.38383e-13
  168 6003.44 0.00000 1.23375e-12
  169 6003.44 0.00000 2.19805e-13
  170 6003.44 0.00000 -1.62094e-12
  171 6003.44 0.00000 -2.04867e-13
  172 6003.44 0.00000 4.41868e-13
  173 6003.44 0.00000 1.45173e-13
  174 6003.44 0.00000 8.11077e-13
  175 6003.44 0.00000 7.71246e-14
  176 6003.44 0.00000 -1.60959e-13
  177 6003.44 0.00000 -6.31170e-13
  178 6003.44 0.00000 1.06505e-13
  179 6003.44 0.00000 1.40104e-13
  180 6003.44 0.00000 2.48866e-13
  181 6003.44 0.00000 -3.15689e-14
  182 6003.44 0.00000 -1.66863e-12
  183 6003.44 0.00000 -1.42051e-13
  184 6003.44 0.00000 4.31725e-13
  185 6003.44 0.00000 6.35146e-13
  186 6003.44 0.00000 1.63828e-12
  187 6003.44 0.00000 -1.83045e-12
  188 6003.44 0.00000 1.51515e-13
  189 6003.44 0.00000 -9.25016e-13
  190 6003.44 0.00000 6.74579e-15
  191 6003.44 0.00000 7.18816e-13
  192 6003.44 0.00000 -6.60056e-13
  193 6003.44 0.00000 1.93832e-13
  194 6003.44 0.00000 2.24099e-12
  195 6003.44 0.00000 -3.15229e-13
  196 6003.44 0.00000 2.77127e-12
  197 6003.44 0.00000 5.32558e-13
  198 6003.44 0.00000 7.32438e-13
  199 6003.44 0.00000 1.45176e-13
  200 6003.44 0.00000 -1.20560e-12
  201 6003.44 0.00000 7.22706e-13
  202 6003.44 0.00000 3.25759e-13
  203 6003.44 0.00000 3.61426e-13
  204 6003.44 0.00000 -6.05923e-13
  205 6003.44 0.00000 -3.42433e-13
  206 6003.44 0.00000 2.65163e-12
  207 6003.44 0.00000 2.59451e-13
  208 6003.44 0.00000 4.29815e-13
  209 6003.44 0.00000 -2.01732e-13
  210 6003.44 0.00000 -4.37744e-14
  211 6003.44 0.00000 -6.49352e-14
  212 6003.44 0.00000 3.89002e-12
  213 6003.44 0.00000 -3.17430e-13
  214 6003.44 0.00000 -4.76531e-13
  215 6003.44 0.00000 5.68091e-13
  216 6003.44 0.00000 6.23432e-13
  217 6003.44 0.00000 3.16095e-14
  218 6003.44 0.00000 5.44439e-14
  219 6003.44 0.00000 2.76447e-13
  220 6003.44 0.00000 1.01310e-12
  221 6003.44 0.00000 6.81728e-13
  222 6003.44 0.00000 -4.50419e-12
  223 6003.44 0.00000 -5.77222e-14
  224 6003.44 0.00000 8.67240e-13
  225 6003.44 0.00000 -1.57548e-12
  226 6003.44 0.00000 -1.13647e-13
  227 6003.44 0.00000 -4.67085e-13
  228 6003.44 0.00000 3.06752e-13
  229 6003.44 0.00000 2.67484e-13
  230 6003.44 0.00000 9.02622e-13
  231 6003.44 0.00000 1.17403e-12
  232 6003.44 0.00000 -5.70429e-13
  233 6003.44 0.00000 -3.31034e-12
  234 6003.44 0.00000 8.17030e-13
  235 6003.44 0.00000 -1.13236e-12
  236 6003.44 0.00000 6.30968e-13
  237 6003.44 0.00000 7.12140e-13
  238 6003.44 0.00000 -5.98388e-13
  239 6003.44 0.00000 7.57384e-13
  240 6003.44 0.00000 -2.29091e-13
  241 6003.44 0.00000 7.51134e-13
</Section>

newXOutput 128

<Section columns = "stress_xx | stress_yy | stress_xy">
  1 6054.59 0.00000 -2.25779e-13
  2 6054.59 0.00000 -7.89428e-13
  3 6054.59 0.00000 2.03003e-12
  4 6054.59 0.00000 -5.28492e-14
  5 6054.59 0.00000 -1.78650e-13
  6 6054.59 0.00000 -8.73820e-13
  7 6054.59 0.00000 -9.02242e-13
  8 6054.59 0.00000 -1.31073e-12
  9 6054.59 0.00000 -6.20442e-13
  10 6054.59 0.00000 -7.61197e-13
  11 6054.59 0.00000 -8.73820e-13
  12 6054.59 0.00000 -4.69923e-13
  13 6054.59 0.00000 -3.06584e-13
  14 6054.59 0.00000 -1.12623e-13
  15 6054.59 0.00000 -1.07627e-12
  16 6054.59 0.00000 -4.88389e-13
  17 6054.59 0.00000 -1.52239e-12
  18 6054.59 0.00000 -2.51860e-12
  19 6054.59 0.00000 1.80400e-12
  20 6054.59 0.00000 2.72538e-12
  21 6054.59 0.00000 2.25247e-13
  22 6054.59 0.00000 -4.96789e-12
  23 6054.59 0.00000 -6.75991e-12
  24 6054.59 0.00000 -1.42824e-12
  25 6054.59 0.00000 -7.89428e-13
  26 6054.59 0.00000 -1.12710e-12
  27 6054.59 0.00000 -1.12730e-12
  28 6054.59 0.00000 9.01644e-13
  29 6054.59 0.00000 -3.98770e-16
  30 6054.59 0.00000 5.25953e-13
  31 6054.59 0.00000 2.06755e-12
  32 6054.59 0.00000 5.36695e-12
  33 6054.59 0.00000 4.43171e-13
  34 6054.59 0.00000 -8.65011e-13
  35 6054.59 0.00000 8.65443e-13
  36 6054.59 0.00000 3.29500e-12
  37 6054.59 0.00000 -1.65320e-12
  38 6054.59 0.00000 -1.89733e-12
  39 6054.59 0.00000 -1.12463e-13
  40 6054.59 0.00000 6.57742e-13
  41 6054.59 0.00000 6.60311e-14
  42 6054.59 0.00000 -1.02345e-12
  43 6054.59 0.00000 5.07571e-13
  44 6054.59 0.00000 3.57329e-13
  45 6054.59 0.00000 -2.26021e-13
  46 6054.59 0.00000 -5.82702e-13
  47 6054.59 0.00000 3.99705e-13
  48 6054.59 0.00000 3.63964e-13
  49 6054.59 0.00000 -7.18272e-14
  50 6054.59 0.00000 -3.64092e-14
  51 6054.59 0.00000 1.18329e-30
  52 6054.59 0.00000 -5.45639e-14
  53 6054.59 0.00000 1.08273e-13
  54 6054.59 0.00000 -2.21618e-13
  55 6054.59 0.00000 -3.37870e-13
  56 6054.59 0.00000 -2.66273e-13
  57 6054.59 0.00000 2.00462e-13
  58 6054.59 0.00000 1.43367e-12
  59 6054.59 0.00000 7.09705e-14
  60 6054.59 0.00000 1.67946e-12
  61 6054.59 0.00000 7.32588e-13
  62 6054.59 0.00000 -5.46005e-13
  63 6054.59 0.00000 -7.21315e-13
  64 6054.59 0.00000 -6.63245e-13
  65 6054.59 0.00000 6.03903e-13
  66 6054.59 0.00000 -5.04765e-13
  67 6054.59 0.00000 4.79806e-13
  68 6054.59 0.00000 -7.82037e-13
  69 6054.59 0.00000 2.97817e-13
  70 6054.59 0.00000 4.13275e-13
  71 6054.59 0.00000 1.65772e-13
  72 6054.59 0.00000 4.64317e-13
  73 6054.59 0.00000 -1.53739e-12
  74 6054.59 0.00000 7.68172e-13
  75 6054.59 0.00000 -1.14167e-12
  76 6054.59 0.00000 2.44062e-12
  77 6054.59 0.00000 3.19269e-13
  78 6054.59 0.00000 7.55420e-14
  79 6054.59 0.00000 3.45324e-13
  80 6054.59 0.00000 6.53256e-13
  81 6054.59 0.00000 1.08140e-13
  82 6054.59 0.00000 -4.32326e-13
  83 6054.59 0.00000 7.30425e-13
  84 6054.59 0.00000 2.18455e-13
  85 6054.59 0.00000 -9.23311e-15
  86 6054.59 0.00000 -4.02039e-13
  87 6054.59 0.00000 -3.45327e-13
  88 6054.59 0.00000 -2.15798e-12
  89 6054.59 0.00000 -5.40409e-14
  90 6054.59 0.00000 2.47329e-13
  91 6054.59 0.00000 6.75213e-13
  92 6054.59 0.00000 3.41216e-13
  93 6054.59 0.00000 1.34561e-12
  94 6054.59 0.00000 1.14583e-14
  95 6054.59 0.00000 2.64796e-13
  96 6054.59 0.00000 5.63765e-13
  97 6054.59 0.00000 8.34523e-13
  98 6054.59 0.00000 -4.78060e-14
  99 6054.59 0.00000 -7.52595e-14
  100 6054.59 0.00000 2.45108e-13
  101 6054.59 0.00000 5.84988e-13
  102 6054.59 0.00000 -5.03179e-13
  103 6054.59 0.00000 3.77919e-13
  104 6054.59 0.00000 -4.79376e-13
  105 6054.59 0.00000 -7.79018e-13
  106 6054.59 0.00000 2.05622e-12
  107 6054.59 0.00000 4.82429e-13
  108 6054.59 0.00000 4.29340e-13
  109 6054.59 0.00000 -1.04181e-13
  110 6054.59 0.00000 -1.41356e-12
  111 6054.59 0.00000 -9.72181e-13
  112 6054.59 0.00000 3.38568e-13
  113 6054.59 0.00000 -3.04009e-14
  114 6054.59 0.00000 1.06982e-12
  115 6054.59 0.00000 -1.40694e-13
  116 6054.59 0.00000 2.62146e-13
  117 6054.59 0.00000 1.08474e-12
  118 6054.59 0.00000 3.60824e-13
  119 6054.59 0.00000 -5.76523e-13
  120 6054.59 0.00000 -5.43838e-15
  121 6054.59 0.00000 1.10160e-13
  122 6054.59 0.00000 1.53040e-12
  123 6054.59 0.00000 8.06175e-13
  124 6054.59 0.00000 3.74580e-13
  125 6054.59 0.00000 -7.65823e-14
  126 6054.59 0.00000 -2.63167e-14
  127 6054.59 0.00000 -6.32014e-13
  128 6054.59 0.00000 2.36963e-16
  129 6054.59 0.00000 3.29219e-13
  130 6054.59 0.00000 1.24646e-13
  131 6054.59 0.00000 1.21100e-13
  132 6054.59 0.00000 -5.79071e-13
  133 6054.59 0.00000 -1.55043e-12
  134 6054.59 0.00000 2.05239e-13
  135 6054.59 0.00000 5.39451e-13
  136 6054.59 0.00000 7.56709e-14
  137 6054.59 0.00000 3.93598e-13
  138 6054.59 0.00000 1.45778e-12
  139 6054.59 0.00000 -1.86287e-14
  140 6054.59 0.00000 -6.95989e-13
  141 6054.59 0.00000 7.28594e-13
  142 6054.59 0.00000 1.59702e-13
  143 6054.59 0.00000 -6.39281e-14
  144 6054.59 0.00000 -6.98798e-13
  145 6054.59 0.00000 -5.63813e-13
  146 6054.59 0.00000 1.87339e-13
  147 6054.59 0.00000 -5.03634e-13
  148 6054.59 0.00000 7.51931e-14
  149 6054.59 0.00000 2.58151e-12
  150 6054.59 0.00000 5.26345e-13
  151 6054.59 0.00000 1.25821e-12
  152 6054.59 0.00000 1.93178e-12
  153 6054.59 0.00000 5.77997e-13
  154 6054.59 0.00000 2.82881e-12
  155 6054.59 0.00000 3.24511e-13
  156 6054.59 0.00000 9.50683e-13
  157 6054.59 0.00000 5.52950e-13
  158 6054.59 0.00000 -1.43310e-12
  159 6054.59 0.00000 6.57507e-13
  160 6054.59 0.00000 2.50904e-13
  161 6054.59 0.00000 -7.06049e-13
  162 6054.59 0.00000 1.10280e-12
  163 6054.59 0.00000 9.67695e-13
  164 6054.59 0.00000 -7.32491e-13
  165 6054.59 0.00000 3.31444e-13
  166 6054.59 0.00000 -1.46432e-14
  167 6054.59 0.00000 1.13031e-13
  168 6054.59 0.00000 -2.22862e-12
  169 6054.59 0.00000 -2.31965e-13
  170 6054.59 0.00000 2.91707e-12
  171 6054.59 0.00000 -1.42300e-13
  172 6054.59 0.00000 -3.47718e-13
  173 6054.59 0.00000 5.78203e-13
  174 6054.59 0.00000 -3.27142e-12
  175 6054.59 0.00000 -1.07485e-13
  176 6054.59 0.00000 1.41630e-13
  177 6054.59 0.00000 3.00660e-13
  178 6054.59 0.00000 -2.54109e-13
  179 6054.59 0.00000 -3.69336e-13
  180 6054.59 0.00000 -6.08929e-14
  181 6054.59 0.00000 4.77869e-13
  182 6054.59 0.00000 -9.21691e-13
  183 6054.59 0.00000 3.11898e-13
  184 6054.59 0.00000 -6.82177e-13
  185 6054.59 0.00000 -1.91758e-13
  186 6054.59 0.00000 -4.66652e-13
  187 6054.59 0.00000 1.95818e-12
  188 6054.59 0.00000 -3.04221e-13
  189 6054.59 0.00000 9.25088e-13
  190 6054.59 0.00000 9.61536e-13
  191 6054.59 0.00000 3.10221e-13
  192 6054.59 0.00000 3.22541e-14
  193 6054.59 0.00000 1.00129e-12
  194 6054.59 0.00000 1.01219e-12
  195 6054.59 0.00000 4.59255e-13
  196 6054.59 0.00000 -3.91556e-12
  197 6054.59 0.00000 -3.87048e-13
  198 6054.59 0.00000 -1.82290e-12
  199 6054.59 0.00000 4.00845e-13
  200 6054.59 0.00000 -3.12432e-12
  201 6054.59 0.00000 2.32603e-13
  202 6054.59 0.00000 4.45539e-13
  203 6054.59 0.00000 1.68246e-13
  204 6054.59 0.00000 4.65024e-13
  205 6054.59 0.00000 5.78768e-14
  206 6054.59 0.00000 6.31801e-13
  207 6054.59 0.00000 -1.12549e-13
  208 6054.59 0.00000 9.06082e-13
  209 6054.59 0.00000 3.79644e-13
  210 6054.59 0.00000 9.35482e-14
  211 6054.59 0.00000 -7.36534e-14
  212 6054.59 0.00000 -4.08390e-12
  213 6054.59 0.00000 -1.95256e-13
  214 6054.59 0.00000 -2.18088e-13
  215 6054.59 0.00000 -2.94698e-12
  216 6054.59 0.00000 -6.69058e-13
  217 6054.59 0.00000 -3.60563e-12
  218 6054.59 0.00000 7.54120e-13
  219 6054.59 0.00000 -5.15564e-13
  220 6054.59 0.00000 4.72231e-13
  221 6054.59 0.00000 1.47376e-12
  222 6054.59 0.00000 5.08169e-12
  223 6054.59 0.00000 -9.83047e-13
  224 6054.59 0.00000 6.48360e-13
  225 6054.59 0.00000 -1.21761e-12
  226 6054.59 0.00000 -3.32490e-13
  227 6054.59 0.00000 -7.28233e-13
  228 6054.59 0.00000 1.03846e-12
  229 6054.59 0.00000 2.49965e-14
  230 6054.59 0.00000 1.09120e-12
  231 6054.59 0.00000 2.27374e-14
  232 6054.59 0.00000 1.63682e-13
  233 6054.59 0.00000 6.50673e-12
  234 6054.59 0.00000 -4.51949e-13
  235 6054.59 0.00000 -7.44023e-13
  236 6054.59 0.00000 -1.01244e-13
  237 6054.59 0.00000 5.93469e-13
  238 6054.59 0.00000 1.46886e-13
  239 6054.59 0.00000 3.74894e-13
  240 6054.59 0.00000 3.97294e-13
  241 6054.59 0.00000 -7.79663e-13
</Section>

newXOutput 129

<Section columns = "stress_xx | stress_yy | stress_xy">
  1 6105.85 0.00000 1.15721e-13
  2 6105.85 0.00000 -2.31236e-12
  3 6105.85 0.00000 -4.28645e-12
  4 6105.85 0.00000 -1.10302e-13
  5 6105.85 0.00000 -1.07527e-13
  6 6105.85 0.00000 6.57455e-13
  7 6105.85 0.00000 2.70867e-13
  8 6105.85 0.00000 -8.11071e-13
  9 6105.85 0.00000 5.84404e-13
  10 6105.85 0.00000 1.28043e-12
  11 6105.85 0.00000 1.68768e-12
  12 6105.85 0.00000 -8.05658e-14
  13 6105.85 0.00000 2.70867e-13
  14 6105.85 0.00000 9.95068e-13
  15 6105.85 0.00000 8.19254e-13
  16 6105.85 0.00000 1.64159e-12
  17 6105.85 0.00000 -2.17625e-12
  18 6105.85 0.00000 -2.11636e-13
  19 6105.85 0.00000 -2.37551e-12
  20 6105.85 0.00000 -5.37309e-12
  21 6105.85 0.00000 -9.83223e-13
  22 6105.85 0.00000 2.17855e-12
  23 6105.85 0.00000 -4.30110e-13
  24 6105.85 0.00000 1.05718e-12
  25 6105.85 0.00000 3.91716e-13
  26 6105.85 0.00000 -8.30689e-13
  27 6105.85 0.00000 5.96016e-13
  28 6105.85 0.00000 5.51030e-14
  29 6105.85 0.00000 -3.91716e-13
  30 6105.85 0.00000 -5.21901e-13
  31 6105.85 0.00000 -2.00086e-12
  32 6105.85 0.00000 -1.11915e-12
  33 6105.85 0.00000 -1.60704e-12
  34 6105.85 0.00000 2.05228e-12
  35 6105.85 0.00000 7.87295e-13
  36 6105.85 0.00000 -3.46436e-13
  37 6105.85 0.00000 1.49245e-12
  38 6105.85 0.00000 1.41779e-12
  39 6105.85 0.00000 3.61090e-13
  40 6105.85 0.00000 1.11750e-13
  41 6105.85 0.00000 1.86511e-12
  42 6105.85 0.00000 1.31810e-12
  43 6105.85 0.00000 1.97257e-12
  44 6105.85 0.00000 6.21432e-13
  45 6105.85 0.00000 -5.10132e-13
  46 6105.85 0.00000 -6.18527e-13
  47 6105.85 0.00000 -1.05693e-12
  48 6105.85 0.00000 -4.74439e-13
  49 6105.85 0.00000 3.75929e-14
  50 6105.85 0.00000 1.44392e-13
  51 6105.85 0.00000 -1.54705e-15
  52 6105.85 0.00000 -2.17361e-13
  53 6105.85 0.00000 -7.47599e-14
  54 6105.85 0.00000 3.28534e-13
  55 6105.85 0.00000 0.00000
  56 6105.85 0.00000 9.48244e-15
  57 6105.85 0.00000 -5.44291e-13
  58 6105.85 0.00000 9.81587e-13
  59 6105.85 0.00000 -7.68490e-13
  60 6105.85 0.00000 1.15123e-12
  61 6105.85 0.00000 -9.06280e-14
  62 6105.85 0.00000 -3.45515e-13
  63 6105.85 0.00000 2.23351e-13
  64 6105.85 0.00000 1.07305e-12
  65 6105.85 0.00000 -2.64534e-13
  66 6105.85 0.00000 -2.63698e-14
  67 6105.85 0.00000 -3.83023e-12
  68 6105.85 0.00000 1.15430e-13
  69 6105.85 0.00000 4.12239e-13
  70 6105.85 0.00000 -4.50720e-13
  71 6105.85 0.00000 -3.10166e-13
  72 6105.85 0.00000 -2.01325e-13
  73 6105.85 0.00000 3.14318e-13
  74 6105.85 0.00000 1.45429e-13
  75 6105.85 0.00000 1.55661e-13
  76 6105.85 0.00000 6.80740e-13
  77 6105.85 0.00000 -3.45369e-13
  78 6105.85 0.00000 -1.37490e-13
  79 6105.85 0.00000 -7.63693e-13
  80 6105.85 0.00000 6.05868e-13
  81 6105.85 0.00000 -1.26530e-12
  82 6105.85 0.00000 -2.16225e-13
  83 6105.85 0.00000 -1.51465e-12
  84 6105.85 0.00000 -2.57983e-13
  85 6105.85 0.00000 6.15720e-13
  86 6105.85 0.00000 1.51511e-12
  87 6105.85 0.00000 3.11319e-13
  88 6105.85 0.00000 -1.09785e-12
  89 6105.85 0.00000 -7.67543e-13
  90 6105.85 0.00000 -1.80356e-12
  91 6105.85 0.00000 3.22468e-13
  92 6105.85 0.00000 -8.73636e-13
  93 6105.85 0.00000 7.96681e-13
  94 6105.85 0.00000 -3.21015e-13
  95 6105.85 0.00000 5.90848e-13
  96 6105.85 0.00000 -1.95293e-12
  97 6105.85 0.00000 -7.45522e-13
  98 6105.85 0.00000 2.40786e-13
  99 6105.85 0.00000 -1.00363e-12
  100 6105.85 0.00000 -3.04354e-13
  101 6105.85 0.00000 -5.46170e-13
  102 6105.85 0.00000 4.76753e-13
  103 6105.85 0.00000 -3.05268e-12
  104 6105.85 0.00000 5.27860e-13
  105 6105.85 0.00000 -2.37729e-13
  106 6105.85 0.00000 -4.44625e-13
  107 6105.85 0.00000 -2.15170e-12
  108 6105.85 0.00000 -6.37063e-13
  109 6105.85 0.00000 2.39886e-13
  110 6105.85 0.00000 -9.62989e-13
  111 6105.85 0.00000 -1.21024e-12
  112 6105.85 0.00000 1.15247e-12
  113 6105.85 0.00000 -3.93085e-13
  114 6105.85 0.00000 6.58562e-14
  115 6105.85 0.00000 2.23740e-13
  116 6105.85 0.00000 3.93212e-14
  117 6105.85 0.00000 7.30505e-13
  118 6105.85 0.00000 7.31236e-14
  119 6105.85 0.00000 7.02916e-13
  120 6105.85 0.00000 8.16199e-13
  121 6105.85 0.00000 -5.27947e-13
  122 6105.85 0.00000 1.74534e-13
  123 6105.85 0.00000 7.44214e-14
  124 6105.85 0.00000 6.51953e-13
  125 6105.85 0.00000 -1.36758e-13
  126 6105.85 0.00000 -2.76117e-13
  127 6105.85 0.00000 2.71739e-14
  128 6105.85 0.00000 7.85883e-13
  129 6105.85 0.00000 3.54574e-14
  130 6105.85 0.00000 -1.45585e-13
  131 6105.85 0.00000 -4.03089e-13
  132 6105.85 0.00000 6.20747e-13
  133 6105.85 0.00000 -8.90259e-13
  134 6105.85 0.00000 -2.60950e-13
  135 6105.85 0.00000 -8.67288e-13
  136 6105.85 0.00000 -1.08643e-13
  137 6105.85 0.00000 -1.23602e-12
  138 6105.85 0.00000 -1.28944e-13
  139 6105.85 0.00000 1.80605e-13
  140 6105.85 0.00000 6.41656e-13
  141 6105.85 0.00000 -1.18677e-12
  142 6105.85 0.00000 -1.83481e-13
  143 6105.85 0.00000 -1.21771e-14
  144 6105.85 0.00000 4.40729e-13
  145 6105.85 0.00000 3.06510e-13
  146 6105.85 0.00000 3.41093e-13
  147 6105.85 0.00000 -8.40285e-13
  148 6105.85 0.00000 1.93274e-14
  149 6105.85 0.00000 -4.10792e-13
  150 6105.85 0.00000 -2.54460e-13
  151 6105.85 0.00000 -1.79466e-13
  152 6105.85 0.00000 2.15282e-13
  153 6105.85 0.00000 6.56132e-13
  154 6105.85 0.00000 -4.43838e-13
  155 6105.85 0.00000 6.31298e-13
  156 6105.85 0.00000 8.40513e-13
  157 6105.85 0.00000 -8.59860e-13
  158 6105.85 0.00000 -1.91215e-12
  159 6105.85 0.00000 -3.44553e-12
  160 6105.85 0.00000 -3.28630e-13
  161 6105.85 0.00000 5.21861e-13
  162 6105.85 0.00000 -8.94232e-13
  163 6105.85 0.00000 -1.86900e-14
  164 6105.85 0.00000 3.67520e-13
  165 6105.85 0.00000 -1.07562e-12
  166 6105.85 0.00000 2.04230e-13
  167 6105.85 0.00000 -2.29639e-13
  168 6105.85 0.00000 -3.25306e-13
  169 6105.85 0.00000 -1.70028e-13
  170 6105.85 0.00000 -4.46898e-12
  171 6105.85 0.00000 -1.08256e-13
  172 6105.85 0.00000 1.00029e-13
  173 6105.85 0.00000 -3.27808e-13
  174 6105.85 0.00000 1.61411e-12
  175 6105.85 0.00000 9.11594e-14
  176 6105.85 0.00000 -4.32707e-13
  177 6105.85 0.00000 -2.94699e-12
  178 6105.85 0.00000 -7.45058e-13
  179 6105.85 0.00000 2.53964e-13
  180 6105.85 0.00000 -1.22520e-13
  181 6105.85 0.00000 5.43009e-13
  182 6105.85 0.00000 -1.99511e-13
  183 6105.85 0.00000 9.10310e-13
  184 6105.85 0.00000 -1.33546e-12
  185 6105.85 0.00000 -8.92651e-13
  186 6105.85 0.00000 -3.02710e-13
  187 6105.85 0.00000 -1.98712e-12
  188 6105.85 0.00000 -1.27167e-12
  189 6105.85 0.00000 -1.13365e-12
  190 6105.85 0.00000 5.95601e-13
  191 6105.85 0.00000 -1.00582e-12
  192 6105.85 0.00000 1.14060e-12
  193 6105.85 0.00000 1.21190e-12
  194 6105.85 0.00000 -2.22909e-13
  195 6105.85 0.00000 -1.73156e-13
  196 6105.85 0.00000 -6.84808e-13
  197 6105.85 0.00000 -1.63597e-13
  198 6105.85 0.00000 -1.84321e-14
  199 6105.85 0.00000 -4.20726e-13
  200 6105.85 0.00000 -7.02672e-13
  201 6105.85 0.00000 3.68075e-13
  202 6105.85 0.00000 1.58405e-12
  203 6105.85 0.00000 -1.22035e-12
  204 6105.85 0.00000 -7.51583e-13
  205 6105.85 0.00000 -3.07820e-13
  206 6105.85 0.00000 -3.28310e-12
  207 6105.85 0.00000 2.20642e-13
  208 6105.85 0.00000 1.15798e-12
  209 6105.85 0.00000 -7.52017e-13
  210 6105.85 0.00000 -1.17941e-13
  211 6105.85 0.00000 -2.66990e-13
  212 6105.85 0.00000 1.88635e-12
  213 6105.85 0.00000 -1.96257e-13
  214 6105.85 0.00000 7.68693e-13
  215 6105.85 0.00000 7.55914e-13
  216 6105.85 0.00000 9.43707e-13
  217 6105.85 0.00000 2.18559e-12
  218 6105.85 0.00000 -3.36415e-13
  219 6105.85 0.00000 1.54062e-12
  220 6105.85 0.00000 8.73703e-13
  221 6105.85 0.00000 2.39035e-13
  222 6105.85 0.00000 -9.23373e-14
  223 6105.85 0.00000 -8.11003e-14
  224 6105.85 0.00000 -6.58480e-13
  225 6105.85 0.00000 1.36491e-12
  226 6105.85 0.00000 5.06710e-13
  227 6105.85 0.00000 -1.26768e-12
  228 6105.85 0.00000 5.91196e-13
  229 6105.85 0.00000 2.29307e-13
  230 6105.85 0.00000 3.39047e-13
  231 6105.85 0.00000 -4.78243e-13
  232 6105.85 0.00000 -5.48091e-13
  233 6105.85 0.00000 2.25833e-12
  234 6105.85 0.00000 5.86268e-13
  235 6105.85 0.00000 4.73613e-14
  236 6105.85 0.00000 -6.25345e-13
  237 6105.85 0.00000 -9.19959e-13
  238 6105.85 0.00000 -4.84127e-13
  239 6105.85 0.00000 -7.00302e-13
  240 6105.85 0.00000 4.77624e-13
  241 6105.85 0.00000 1.80902e-12
</Section>

newXOutput 130

<Section columns = "stress_xx | stress_yy | stress_xy">
  1 6157.22 0.00000 -1.09927e-13
  2 6157.22 0.00000 8.86506e-13
  3 6157.22 0.00000 1.70236e-12
  4 6157.22 0.00000 1.54623e-15
  5 6157.22 0.00000 -6.99474e-14
  6 6157.22 0.00000 -7.13484e-13
  7 6157.22 0.00000 -5.22674e-13
  8 6157.22 0.00000 -6.96899e-13
  9 6157.22 0.00000 -4.41656e-13
  10 6157.22 0.00000 -1.82517e-13
  11 6157.22 0.00000 -1.09593e-12
  12 6157.22 0.00000 -2.61087e-13
  13 6157.22 0.00000 1.59466e-13
  14 6157.22 0.00000 1.10456e-12
  15 6157.22 0.00000 7.14526e-13
  16 6157.22 0.00000 9.13416e-13
  17 6157.22 0.00000 8.05179e-14
  18 6157.22 0.00000 1.10622e-13
  19 6157.22 0.00000 -1.48517e-13
  20 6157.22 0.00000 -4.45552e-13
  21 6157.22 0.00000 3.91527e-12
  22 6157.22 0.00000 1.52980e-12
  23 6157.22 0.00000 4.03761e-13
  24 6157.22 0.00000 -3.22412e-13
  25 6157.22 0.00000 0.00000
  26 6157.22 0.00000 4.16556e-13
  27 6157.22 0.00000 2.73479e-12
  28 6157.22 0.00000 -2.98534e-12
  29 6157.22 0.00000 1.14942e-15
  30 6157.22 0.00000 2.21722e-13
  31 6157.22 0.00000 3.94554e-12
  32 6157.22 0.00000 4.30240e-13
  33 6157.22 0.00000 5.76899e-13
  34 6157.22 0.00000 4.05516e-13
  35 6157.22 0.00000 -6.44382e-15
  36 6157.22 0.00000 -1.79916e-12
  37 6157.22 0.00000 -3.44151e-12
  38 6157.22 0.00000 -2.74955e-12
  39 6157.22 0.00000 -1.02470e-12
  40 6157.22 0.00000 -2.04888e-12
  41 6157.22 0.00000 -1.53964e-12
  42 6157.22 0.00000 -1.13294e-13
  43 6157.22 0.00000 -4.78919e-13
  44 6157.22 0.00000 -6.61181e-13
  45 6157.22 0.00000 -1.54020e-12
  46 6157.22 0.00000 -1.02328e-12
  47 6157.22 0.00000 -6.21630e-13
  48 6157.22 0.00000 1.09555e-13
  49 6157.22 0.00000 -2.54675e-13
  50 6157.22 0.00000 -7.31808e-14
  51 6157.22 0.00000 5.33952e-14
  52 6157.22 0.00000 1.09939e-13
  53 6157.22 0.00000 3.69216e-14
  54 6157.22 0.00000 1.09352e-13
  55 6157.22 0.00000 0.00000
  56 6157.22 0.00000 -2.20445e-13
  57 6157.22 0.00000 1.06458e-12
  58 6157.22 0.00000 -7.84437e-13
  59 6157.22 0.00000 -3.40596e-14
  60 6157.22 0.00000 -1.20141e-12
  61 6157.22 0.00000 7.33194e-13
  62 6157.22 0.00000 1.02409e-12
  63 6157.22 0.00000 9.55178e-13
  64 6157.22 0.00000 -2.53995e-12
  65 6157.22 0.00000 1.33922e-13
  66 6157.22 0.00000 1.48238e-13
  67 6157.22 0.00000 7.73377e-13
  68 6157.22 0.00000 -5.87771e-13
  69 6157.22 0.00000 3.20982e-13
  70 6157.22 0.00000 3.17145e-13
  71 6157.22 0.00000 -3.32016e-13
  72 6157.22 0.00000 -3.63802e-13
  73 6157.22 0.00000 -2.94483e-13
  74 6157.22 0.00000 -1.66850e-13
  75 6157.22 0.00000 8.57598e-13
  76 6157.22 0.00000 1.58980e-12
  77 6157.22 0.00000 2.93694e-13
  78 6157.22 0.00000 8.41408e-13
  79 6157.22 0.00000 -6.94191e-15
  80 6157.22 0.00000 -3.11703e-13
  81 6157.22 0.00000 -6.20469e-13
  82 6157.22 0.00000 3.68922e-13
  83 6157.22 0.00000 1.09114e-12
  84 6157.22 0.00000 3.92850e-14
  85 6157.22 0.00000 1.87724e-14
  86 6157.22 0.00000 3.25593e-13
  87 6157.22 0.00000 -1.75120e-13
  88 6157.22 0.00000 -2.23106e-12
  89 6157.22 0.00000 2.65703e-13
  90 6157.22 0.00000 4.05501e-13
  91 6157.22 0.00000 -3.53999e-13
  92 6157.22 0.00000 5.39644e-13
  93 6157.22 0.00000 -3.66240e-12
  94 6157.22 0.00000 -1.35064e-13
  95 6157.22 0.00000 -9.01320e-13
  96 6157.22 0.00000 1.33555e-12
  97 6157.22 0.00000 -1.98122e-13
  98 6157.22 0.00000 3.06981e-13
  99 6157.22 0.00000 1.21301e-12
  100 6157.22 0.00000 -1.10430e-13
  101 6157.22 0.00000 -3.29294e-13
  102 6157.22 0.00000 -2.78057e-14
  103 6157.22 0.00000 -7.18953e-14
  104 6157.22 0.00000 9.66984e-13
  105 6157.22 0.00000 2.43094e-13
  106 6157.22 0.00000 1.18955e-12
  107 6157.22 0.00000 1.56088e-12
  108 6157.22 0.00000 2.38583e-13
  109 6157.22 0.00000 6.70820e-14
  110 6157.22 0.00000 -1.37423e-12
  111 6157.22 0.00000 4.35817e-14
  112 6157.22 0.00000 -7.34488e-13
  113 6157.22 0.00000 -4.23431e-13
  114 6157.22 0.00000 -2.10531e-13
  115 6157.22 0.00000 8.98035e-13
  116 6157.22 0.00000 -4.39708e-14
  117 6157.22 0.00000 -2.07836e-12
  118 6157.22 0.00000 3.83387e-16
  119 6157.22 0.00000 9.24636e-13
  120 6157.22 0.00000 6.74486e-13
  121 6157.22 0.00000 5.02866e-13
  122 6157.22 0.00000 -3.46765e-13
  123 6157.22 0.00000 -5.02945e-13
  124 6157.22 0.00000 -7.54367e-13
  125 6157.22 0.00000 2.86951e-13
  126 6157.22 0.00000 -8.38891e-13
  127 6157.22 0.00000 -5.20462e-13
  128 6157.22 0.00000 -5.81290e-13
  129 6157.22 0.00000 -1.04540e-13
  130 6157.22 0.00000 -8.25079e-13
  131 6157.22 0.00000 1.60963e-13
  132 6157.22 0.00000 -9.81909e-14
  133 6157.22 0.00000 -8.78225e-13
  134 6157.22 0.00000 -4.71519e-13
  135 6157.22 0.00000 2.94151e-12
  136 6157.22 0.00000 1.74277e-13
  137 6157.22 0.00000 -5.97185e-13
  138 6157.22 0.00000 -1.04441e-12
  139 6157.22 0.00000 3.94236e-13
  140 6157.22 0.00000 -2.43737e-13
  141 6157.22 0.00000 5.47324e-13
  142 6157.22 0.00000 -7.71158e-13
  143 6157.22 0.00000 1.73458e-13
  144 6157.22 0.00000 4.82869e-13
  145 6157.22 0.00000 9.25364e-13
  146 6157.22 0.00000 -6.59311e-13
  147 6157.22 0.00000 -4.55462e-13
  148 6157.22 0.00000 1.90517e-14
  149 6157.22 0.00000 2.33555e-12
  150 6157.22 0.00000 1.07908e-12
  151 6157.22 0.00000 -2.17491e-13
  152 6157.22 0.00000 -5.25107e-13
  153 6157.22 0.00000 -3.15216e-13
  154 6157.22 0.00000 5.04414e-13
  155 6157.22 0.00000 1.47057e-13
  156 6157.22 0.00000 8.34690e-13
  157 6157.22 0.00000 3.68904e-13
  158 6157.22 0.00000 9.00536e-13
  159 6157.22 0.00000 7.93044e-13
  160 6157.22 0.00000 1.99205e-13
  161 6157.22 0.00000 3.39268e-12
  162 6157.22 0.00000 7.41157e-13
  163 6157.22 0.00000 6.94536e-13
  164 6157.22 0.00000 1.24208e-12
  165 6157.22 0.00000 -2.92053e-13
  166 6157.22 0.00000 -7.90495e-14
  167 6157.22 0.00000 -5.61794e-13
  168 6157.22 0.00000 -2.15180e-13
  169 6157.22 0.00000 -4.66497e-14
  170 6157.22 0.00000 -1.38693e-12
  171 6157.22 0.00000 6.12570e-13
  172 6157.22 0.00000 -1.82517e-13
  173 6157.22 0.00000 -4.41609e-13
  174 6157.22 0.00000 -5.06526e-13
  175 6157.22 0.00000 -1.38210e-13
  176 6157.22 0.00000 3.85026e-14
  177 6157.22 0.00000 9.74201e-13
  178 6157.22 0.00000 1.14664e-12
  179 6157.22 0.00000 -4.82175e-13
  180 6157.22 0.00000 7.07717e-13
  181 6157.22 0.00000 -1.44723e-12
  182 6157.22 0.00000 -1.23175e-12
  183 6157.22 0.00000 -1.53908e-12
  184 6157.22 0.00000 -1.28741e-13
  185 6157.22 0.00000 -3.57042e-14
  186 6157.22 0.00000 8.64525e-13
  187 6157.22 0.00000 5.85677e-13
  188 6157.22 0.00000 5.27196e-13
  189 6157.22 0.00000 1.43022e-12
  190 6157.22 0.00000 1.54103e-13
  191 6157.22 0.00000 2.29945e-12
  192 6157.22 0.00000 1.76229e-13
  193 6157.22 0.00000 -9.84134e-13
  194 6157.22 0.00000 -1.09670e-12
  195 6157.22 0.00000 -4.98443e-14
  196 6157.22 0.00000 5.57903e-13
  197 6157.22 0.00000 7.48495e-14
  198 6157.22 0.00000 -5.34096e-13
  199 6157.22 0.00000 4.41552e-13
  200 6157.22 0.00000 -2.87646e-13
  201 6157.22 0.00000 9.14261e-14
  202 6157.22 0.00000 -2.12355e-12
  203 6157.22 0.00000 -1.44414e-13
  204 6157.22 0.00000 9.89559e-13
  205 6157.22 0.00000 4.58481e-13
  206 6157.22 0.00000 1.18110e-12
  207 6157.22 0.00000 -8.70543e-14
  208 6157.22 0.00000 1.49319e-12
  209 6157.22 0.00000 -6.21044e-13
  210 6157.22 0.00000 -3.79039e-13
  211 6157.22 0.00000 -1.40442e-13
  212 6157.22 0.00000 2.14437e-12
  213 6157.22 0.00000 -1.44000e-13
  214 6157.22 0.00000 2.90823e-13
  215 6157.22 0.00000 7.02987e-13
  216 6157.22 0.00000 -1.39777e-12
  217 6157.22 0.00000 5.82489e-14
  218 6157.22 0.00000 -2.29797e-13
  219 6157.22 0.00000 5.70452e-13
  220 6157.22 0.00000 5.29506e-13
  221 6157.22 0.00000 -7.89339e-13
  222 6157.22 0.00000 -3.01387e-12
  223 6157.22 0.00000 -3.25024e-13
  224 6157.22 0.00000 -8.16799e-13
  225 6157.22 0.00000 -1.45561e-12
  226 6157.22 0.00000 7.09006e-16
  227 6157.22 0.00000 6.57981e-13
  228 6157.22 0.00000 2.64994e-13
  229 6157.22 0.00000 2.59139e-13
  230 6157.22 0.00000 8.29754e-13
  231 6157.22 0.00000 -1.49242e-12
  232 6157.22 0.00000 3.64469e-13
  233 6157.22 0.00000 -4.98130e-12
  234 6157.22 0.00000 -3.59187e-13
  235 6157.22 0.00000 -1.16361e-12
  236 6157.22 0.00000 2.53140e-13
  237 6157.22 0.00000 5.25941e-13
  238 6157.22 0.00000 1.38456e-12
  239 6157.22 0.00000 1.79822e-12
  240 6157.22 0.00000 8.09537e-13
  241 6157.22 0.00000 -4.81915e-13
</Section>

newXOutput 131

<Section columns = "stress_xx | stress_yy | stress_xy">
  1 6208.72 0.00000 0.00000
  2 6208.72 0.00000 3.85692e-13
  3 6208.72 0.00000 -3.83581e-13
  4 6208.72 0.00000 1.11772e-13
  5 6208.72 0.00000 1.84467e-13
  6 6208.72 0.00000 1.10281e-12
  7 6208.72 0.00000 -1.92846e-13
  8 6208.72 0.00000 2.21422e-13
  9 6208.72 0.00000 6.25122e-13
  10 6208.72 0.00000 3.69552e-14
  11 6208.72 0.00000 -7.72164e-13
  12 6208.72 0.00000 6.26922e-13
  13 6208.72 0.00000 -3.85692e-13
  14 6208.72 0.00000 1.47136e-12
  15 6208.72 0.00000 3.86629e-13
  16 6208.72 0.00000 2.45069e-12
  17 6208.72 0.00000 -2.15567e-12
  18 6208.72 0.00000 2.39056e-12
  19 6208.72 0.00000 -7.39103e-14
  20 6208.72 0.00000 7.36016e-14
  21 6208.72 0.00000 -9.53030e-13
  22 6208.72 0.00000 -2.05514e-12
  23 6208.72 0.00000 1.09616e-13
  24 6208.72 0.00000 1.02882e-12
  25 6208.72 0.00000 2.21268e-13
  26 6208.72 0.00000 -3.07842e-12
  27 6208.72 0.00000 -1.85408e-13
  28 6208.72 0.00000 4.67141e-13
  29 6208.72 0.00000 0.00000
  30 6208.72 0.00000 -2.56747e-13
  31 6208.72 0.00000 3.73964e-12
  32 6208.72 0.00000 7.74517e-12
  33 6208.72 0.00000 3.05347e-12
  34 6208.72 0.00000 -6.98499e-13
  35 6208.72 0.00000 -9.79840e-13
  36 6208.72 0.00000 -2.88884e-12
  37 6208.72 0.00000 -5.49432e-13
  38 6208.72 0.00000 -3.30236e-13
  39 6208.72 0.00000 -1.24993e-12
  40 6208.72 0.00000 -2.24317e-12
  41 6208.72 0.00000 7.29558e-14
  42 6208.72 0.00000 4.06048e-13
  43 6208.72 0.00000 6.62890e-13
  44 6208.72 0.00000 -4.86046e-16
  45 6208.72 0.00000 -2.57349e-13
  46 6208.72 0.00000 5.88108e-13
  47 6208.72 0.00000 4.77921e-13
  48 6208.72 0.00000 8.46942e-13
  49 6208.72 0.00000 2.22036e-13
  50 6208.72 0.00000 -7.25032e-14
  51 6208.72 0.00000 -1.09107e-13
  52 6208.72 0.00000 1.37367e-13
  53 6208.72 0.00000 -1.46571e-13
  54 6208.72 0.00000 -2.48721e-13
  55 6208.72 0.00000 -4.42536e-13
  56 6208.72 0.00000 -2.93536e-13
  57 6208.72 0.00000 1.88504e-14
  58 6208.72 0.00000 -1.43550e-12
  59 6208.72 0.00000 4.72851e-13
  60 6208.72 0.00000 -3.49452e-13
  61 6208.72 0.00000 4.96696e-13
  62 6208.72 0.00000 -1.00799e-15
  63 6208.72 0.00000 -4.41453e-13
  64 6208.72 0.00000 1.42732e-12
  65 6208.72 0.00000 1.01864e-13
  66 6208.72 0.00000 -5.52380e-14
  67 6208.72 0.00000 -8.47388e-13
  68 6208.72 0.00000 -1.66068e-13
  69 6208.72 0.00000 1.00143e-12
  70 6208.72 0.00000 4.30346e-14
  71 6208.72 0.00000 1.47246e-13
  72 6208.72 0.00000 -3.77607e-13
  73 6208.72 0.00000 1.40102e-12
  74 6208.72 0.00000 -2.87226e-13
  75 6208.72 0.00000 -6.60890e-13
  76 6208.72 0.00000 -1.16678e-12
  77 6208.72 0.00000 -5.60890e-13
  78 6208.72 0.00000 -3.86183e-13
  79 6208.72 0.00000 -2.03920e-13
  80 6208.72 0.00000 1.49042e-12
  81 6208.72 0.00000 -9.36765e-13
  82 6208.72 0.00000 -7.33927e-14
  83 6208.72 0.00000 -1.26857e-12
  84 6208.72 0.00000 6.05706e-13
  85 6208.72 0.00000 1.06069e-12
  86 6208.72 0.00000 5.69843e-13
  87 6208.72 0.00000 -1.19883e-13
  88 6208.72 0.00000 -1.08214e-12
  89 6208.72 0.00000 -3.85469e-13
  90 6208.72 0.00000 -1.82057e-14
  91 6208.72 0.00000 5.73123e-13
  92 6208.72 0.00000 -2.31026e-13
  93 6208.72 0.00000 -2.83776e-12
  94 6208.72 0.00000 -2.10972e-12
  95 6208.72 0.00000 3.96684e-13
  96 6208.72 0.00000 -8.64829e-13
  97 6208.72 0.00000 -1.20546e-12
  98 6208.72 0.00000 -4.42205e-13
  99 6208.72 0.00000 -1.20767e-12
  100 6208.72 0.00000 -6.40923e-13
  101 6208.72 0.00000 2.57323e-13
  102 6208.72 0.00000 -1.87549e-12
  103 6208.72 0.00000 1.32236e-12
  104 6208.72 0.00000 -3.95909e-13
  105 6208.72 0.00000 -3.07238e-13
  106 6208.72 0.00000 -4.78550e-13
  107 6208.72 0.00000 -3.30229e-12
  108 6208.72 0.00000 -1.00612e-14
  109 6208.72 0.00000 4.34082e-14
  110 6208.72 0.00000 -7.06411e-13
  111 6208.72 0.00000 -4.82543e-13
  112 6208.72 0.00000 -9.16524e-14
  113 6208.72 0.00000 5.20709e-13
  114 6208.72 0.00000 1.83929e-13
  115 6208.72 0.00000 -2.93851e-13
  116 6208.72 0.00000 2.64957e-13
  117 6208.72 0.00000 4.39953e-13
  118 6208.72 0.00000 -2.57463e-13
  119 6208.72 0.00000 -9.24546e-13
  120 6208.72 0.00000 1.06785e-12
  121 6208.72 0.00000 -9.47779e-14
  122 6208.72 0.00000 4.73757e-13
  123 6208.72 0.00000 3.67826e-13
  124 6208.72 0.00000 -1.26675e-13
  125 6208.72 0.00000 -2.06521e-13
  126 6208.72 0.00000 3.44371e-13
  127 6208.72 0.00000 1.57122e-12
  128 6208.72 0.00000 -1.90802e-12
  129 6208.72 0.00000 -8.26953e-14
  130 6208.72 0.00000 1.36143e-12
  131 6208.72 0.00000 -3.13051e-13
  132 6208.72 0.00000 -2.61450e-13
  133 6208.72 0.00000 -1.28586e-12
  134 6208.72 0.00000 1.15065e-12
  135 6208.72 0.00000 -7.39372e-13
  136 6208.72 0.00000 -4.75511e-14
  137 6208.72 0.00000 1.41928e-12
  138 6208.72 0.00000 4.42514e-13
  139 6208.72 0.00000 -1.73584e-13
  140 6208.72 0.00000 -1.69608e-12
  141 6208.72 0.00000 -1.74620e-12
  142 6208.72 0.00000 -1.01121e-12
  143 6208.72 0.00000 -2.36770e-13
  144 6208.72 0.00000 -7.26925e-13
  145 6208.72 0.00000 1.10161e-12
  146 6208.72 0.00000 9.43291e-14
  147 6208.72 0.00000 -1.37773e-12
  148 6208.72 0.00000 -5.88597e-13
  149 6208.72 0.00000 -7.82579e-13
  150 6208.72 0.00000 -7.89378e-13
  151 6208.72 0.00000 2.20015e-13
  152 6208.72 0.00000 -3.13324e-13
  153 6208.72 0.00000 -1.83842e-13
  154 6208.72 0.00000 1.01449e-12
  155 6208.72 0.00000 -3.67228e-13
  156 6208.72 0.00000 -9.83531e-14
  157 6208.72 0.00000 -4.02040e-13
  158 6208.72 0.00000 -3.12534e-12
  159 6208.72 0.00000 -8.26386e-13
  160 6208.72 0.00000 1.14271e-14
  161 6208.72 0.00000 -1.41090e-12
  162 6208.72 0.00000 -7.72086e-13
  163 6208.72 0.00000 -1.08490e-12
  164 6208.72 0.00000 -1.74841e-13
  165 6208.72 0.00000 9.13624e-14
  166 6208.72 0.00000 -4.25413e-13
  167 6208.72 0.00000 -5.30283e-13
  168 6208.72 0.00000 -6.15552e-13
  169 6208.72 0.00000 -4.80495e-13
  170 6208.72 0.00000 7.27714e-13
  171 6208.72 0.00000 3.00861e-13
  172 6208.72 0.00000 -6.80948e-13
  173 6208.72 0.00000 -9.25485e-14
  174 6208.72 0.00000 1.32338e-12
  175 6208.72 0.00000 4.67017e-14
  176 6208.72 0.00000 -3.11075e-13
  177 6208.72 0.00000 -1.30214e-13
  178 6208.72 0.00000 -1.92949e-17
  179 6208.72 0.00000 -8.77092e-14
  180 6208.72 0.00000 -3.30894e-13
  181 6208.72 0.00000 -9.19911e-13
  182 6208.72 0.00000 9.07452e-14
  183 6208.72 0.00000 5.51260e-13
  184 6208.72 0.00000 2.87412e-13
  185 6208.72 0.00000 1.46318e-13
  186 6208.72 0.00000 -1.69178e-12
  187 6208.72 0.00000 2.69193e-12
  188 6208.72 0.00000 8.91603e-14
  189 6208.72 0.00000 -9.92531e-13
  190 6208.72 0.00000 -1.10707e-13
  191 6208.72 0.00000 7.40297e-14
  192 6208.72 0.00000 1.08258e-12
  193 6208.72 0.00000 -1.03782e-12
  194 6208.72 0.00000 -2.07722e-12
  195 6208.72 0.00000 -2.12488e-13
  196 6208.72 0.00000 -2.62941e-12
  197 6208.72 0.00000 -2.66610e-13
  198 6208.72 0.00000 -2.58027e-12
  199 6208.72 0.00000 -4.22392e-13
  200 6208.72 0.00000 -2.69791e-12
  201 6208.72 0.00000 -2.37246e-13
  202 6208.72 0.00000 -1.25920e-12
  203 6208.72 0.00000 9.74326e-13
  204 6208.72 0.00000 -3.30007e-13
  205 6208.72 0.00000 1.65598e-13
  206 6208.72 0.00000 -1.53571e-12
  207 6208.72 0.00000 -5.51663e-13
  208 6208.72 0.00000 6.69405e-14
  209 6208.72 0.00000 -2.03180e-13
  210 6208.72 0.00000 3.95262e-13
  211 6208.72 0.00000 3.47370e-13
  212 6208.72 0.00000 -9.70572e-13
  213 6208.72 0.00000 3.86002e-13
  214 6208.72 0.00000 4.23333e-13
  215 6208.72 0.00000 -8.61417e-13
  216 6208.72 0.00000 4.32314e-14
  217 6208.72 0.00000 9.90301e-13
  218 6208.72 0.00000 1.84308e-13
  219 6208.72 0.00000 1.76309e-13
  220 6208.72 0.00000 4.05109e-13
  221 6208.72 0.00000 -4.41557e-13
  222 6208.72 0.00000 -5.70156e-13
  223 6208.72 0.00000 -1.10281e-12
  224 6208.72 0.00000 1.10209e-13
  225 6208.72 0.00000 -1.59723e-12
  226 6208.72 0.00000 -3.09257e-13
  227 6208.72 0.00000 -5.33027e-13
  228 6208.72 0.00000 -3.08272e-13
  229 6208.72 0.00000 -2.58438e-13
  230 6208.72 0.00000 -2.23424e-12
  231 6208.72 0.00000 1.58805e-12
  232 6208.72 0.00000 -7.60376e-13
  233 6208.72 0.00000 1.58176e-12
  234 6208.72 0.00000 2.20543e-13
  235 6208.72 0.00000 -1.63278e-12
  236 6208.72 0.00000 3.93493e-13
  237 6208.72 0.00000 4.64120e-13
  238 6208.72 0.00000 1.54370e-13
  239 6208.72 0.00000 -1.12172e-12
  240 6208.72 0.00000 6.63283e-13
  241 6208.72 0.00000 2.51410e-13
</Section>

newXOutput 132

<Section columns = "stress_xx | stress_yy | stress_xy">
  1 6260.33 0.00000 1.09117e-13
  2 6260.33 0.00000 4.73414e-12
  3 6260.33 0.00000 2.21085e-12
  4 6260.33 0.00000 -1.03557e-15
  5 6260.33 0.00000 3.67780e-13
  6 6260.33 0.00000 6.65353e-13
  7 6260.33 0.00000 2.82686e-13
  8 6260.33 0.00000 -2.56126e-13
  9 6260.33 0.00000 4.03644e-13
  10 6260.33 0.00000 -2.28382e-13
  11 6260.33 0.00000 2.65263e-13
  12 6260.33 0.00000 6.29997e-13
  13 6260.33 0.00000 1.90090e-12
  14 6260.33 0.00000 2.06322e-12
  15 6260.33 0.00000 -5.60802e-14
  16 6260.33 0.00000 -2.93007e-13
  17 6260.33 0.00000 -4.15692e-12
  18 6260.33 0.00000 -3.16523e-12
  19 6260.33 0.00000 1.75262e-13
  20 6260.33 0.00000 7.74471e-13
  21 6260.33 0.00000 3.02144e-13
  22 6260.33 0.00000 2.57516e-12
  23 6260.33 0.00000 7.34177e-12
  24 6260.33 0.00000 -6.32026e-13
  25 6260.33 0.00000 3.82667e-13
  26 6260.33 0.00000 3.60928e-12
  27 6260.33 0.00000 5.48118e-13
  28 6260.33 0.00000 7.94707e-13
  29 6260.33 0.00000 4.39510e-13
  30 6260.33 0.00000 4.75977e-13
  31 6260.33 0.00000 -9.04917e-13
  32 6260.33 0.00000 -7.53961e-12
  33 6260.33 0.00000 -9.89834e-13
  34 6260.33 0.00000 7.35326e-13
  35 6260.33 0.00000 1.51665e-12
  36 6260.33 0.00000 3.31152e-12
  37 6260.33 0.00000 -2.02812e-12
  38 6260.33 0.00000 -5.11440e-13
  39 6260.33 0.00000 -1.45999e-13
  40 6260.33 0.00000 2.68764e-12
  41 6260.33 0.00000 1.03260e-12
  42 6260.33 0.00000 -2.06250e-12
  43 6260.33 0.00000 -2.21157e-12
  44 6260.33 0.00000 -9.25522e-13
  45 6260.33 0.00000 -2.99515e-13
  46 6260.33 0.00000 -5.15578e-13
  47 6260.33 0.00000 7.55630e-14
  48 6260.33 0.00000 -5.90715e-13
  49 6260.33 0.00000 -2.59373e-13
  50 6260.33 0.00000 -1.26977e-15
  51 6260.33 0.00000 0.00000
  52 6260.33 0.00000 -1.09663e-13
  53 6260.33 0.00000 -7.55360e-14
  54 6260.33 0.00000 1.65577e-13
  55 6260.33 0.00000 0.00000
  56 6260.33 0.00000 1.10004e-13
  57 6260.33 0.00000 1.66719e-13
  58 6260.33 0.00000 1.10613e-12
  59 6260.33 0.00000 -6.35494e-14
  60 6260.33 0.00000 6.75494e-14
  61 6260.33 0.00000 7.01218e-13
  62 6260.33 0.00000 -5.17201e-13
  63 6260.33 0.00000 6.55456e-13
  64 6260.33 0.00000 1.51524e-12
  65 6260.33 0.00000 2.35392e-13
  66 6260.33 0.00000 -5.60809e-14
  67 6260.33 0.00000 -7.98429e-13
  68 6260.33 0.00000 -1.45915e-12
  69 6260.33 0.00000 -7.13152e-13
  70 6260.33 0.00000 5.81266e-13
  71 6260.33 0.00000 3.83064e-14
  72 6260.33 0.00000 -5.02526e-15
  73 6260.33 0.00000 -6.21581e-13
  74 6260.33 0.00000 -2.75464e-13
  75 6260.33 0.00000 5.96686e-13
  76 6260.33 0.00000 1.15617e-13
  77 6260.33 0.00000 -6.41571e-14
  78 6260.33 0.00000 -6.48032e-13
  79 6260.33 0.00000 4.28489e-13
  80 6260.33 0.00000 2.21467e-13
  81 6260.33 0.00000 -1.34667e-12
  82 6260.33 0.00000 -1.95838e-13
  83 6260.33 0.00000 3.32233e-13
  84 6260.33 0.00000 5.16566e-13
  85 6260.33 0.00000 -4.95336e-13
  86 6260.33 0.00000 6.83286e-13
  87 6260.33 0.00000 -5.76880e-14
  88 6260.33 0.00000 -1.85552e-12
  89 6260.33 0.00000 2.12802e-13
  90 6260.33 0.00000 2.38702e-13
  91 6260.33 0.00000 -1.86052e-12
  92 6260.33 0.00000 -5.75929e-13
  93 6260.33 0.00000 -2.95272e-13
  94 6260.33 0.00000 2.99376e-12
  95 6260.33 0.00000 1.10494e-12
  96 6260.33 0.00000 2.44123e-12
  97 6260.33 0.00000 7.77210e-13
  98 6260.33 0.00000 -8.59805e-14
  99 6260.33 0.00000 -3.51244e-13
  100 6260.33 0.00000 3.10396e-13
  101 6260.33 0.00000 3.67399e-13
  102 6260.33 0.00000 2.25095e-14
  103 6260.33 0.00000 -6.67765e-13
  104 6260.33 0.00000 5.34185e-13
  105 6260.33 0.00000 -6.66724e-13
  106 6260.33 0.00000 8.47785e-13
  107 6260.33 0.00000 5.73804e-12
  108 6260.33 0.00000 1.18859e-13
  109 6260.33 0.00000 1.29112e-13
  110 6260.33 0.00000 1.45911e-13
  111 6260.33 0.00000 -9.84724e-13
  112 6260.33 0.00000 1.13509e-12
  113 6260.33 0.00000 9.02733e-14
  114 6260.33 0.00000 8.63345e-13
  115 6260.33 0.00000 2.55837e-13
  116 6260.33 0.00000 4.46817e-13
  117 6260.33 0.00000 -1.57509e-13
  118 6260.33 0.00000 -2.02999e-13
  119 6260.33 0.00000 1.22745e-13
  120 6260.33 0.00000 -2.79071e-13
  121 6260.33 0.00000 4.59664e-13
  122 6260.33 0.00000 -2.98618e-13
  123 6260.33 0.00000 3.77534e-13
  124 6260.33 0.00000 -1.28012e-12
  125 6260.33 0.00000 -4.15840e-14
  126 6260.33 0.00000 5.25652e-13
  127 6260.33 0.00000 -1.51154e-12
  128 6260.33 0.00000 1.54818e-12
  129 6260.33 0.00000 -2.82234e-13
  130 6260.33 0.00000 1.72976e-14
  131 6260.33 0.00000 3.42859e-13
  132 6260.33 0.00000 -1.02432e-12
  133 6260.33 0.00000 -9.90826e-13
  134 6260.33 0.00000 4.76346e-14
  135 6260.33 0.00000 5.59066e-13
  136 6260.33 0.00000 -2.51090e-13
  137 6260.33 0.00000 -3.78771e-13
  138 6260.33 0.00000 -5.69729e-13
  139 6260.33 0.00000 6.52231e-16
  140 6260.33 0.00000 1.36920e-13
  141 6260.33 0.00000 -3.58011e-14
  142 6260.33 0.00000 1.17684e-12
  143 6260.33 0.00000 1.11996e-13
  144 6260.33 0.00000 -1.75036e-13
  145 6260.33 0.00000 -5.54446e-13
  146 6260.33 0.00000 -1.40965e-12
  147 6260.33 0.00000 3.68006e-13
  148 6260.33 0.00000 -1.89463e-14
  149 6260.33 0.00000 -4.59441e-13
  150 6260.33 0.00000 -7.16532e-14
  151 6260.33 0.00000 8.82189e-13
  152 6260.33 0.00000 6.42283e-13
  153 6260.33 0.00000 1.18014e-12
  154 6260.33 0.00000 1.06099e-12
  155 6260.33 0.00000 -2.78492e-13
  156 6260.33 0.00000 1.68662e-12
  157 6260.33 0.00000 -5.06320e-13
  158 6260.33 0.00000 1.04929e-13
  159 6260.33 0.00000 2.64235e-12
  160 6260.33 0.00000 -2.53707e-13
  161 6260.33 0.00000 3.13068e-12
  162 6260.33 0.00000 6.63388e-13
  163 6260.33 0.00000 8.45500e-13
  164 6260.33 0.00000 -1.48367e-13
  165 6260.33 0.00000 5.17993e-13
  166 6260.33 0.00000 1.89244e-13
  167 6260.33 0.00000 1.41594e-12
  168 6260.33 0.00000 1.66125e-13
  169 6260.33 0.00000 1.80621e-13
  170 6260.33 0.00000 -3.09711e-13
  171 6260.33 0.00000 2.11562e-13
  172 6260.33 0.00000 1.36264e-12
  173 6260.33 0.00000 -1.12964e-12
  174 6260.33 0.00000 7.48513e-13
  175 6260.33 0.00000 -1.87365e-13
  176 6260.33 0.00000 3.49277e-13
  177 6260.33 0.00000 -4.41783e-13
  178 6260.33 0.00000 4.07386e-13
  179 6260.33 0.00000 1.56721e-13
  180 6260.33 0.00000 -1.26227e-13
  181 6260.33 0.00000 9.57535e-13
  182 6260.33 0.00000 3.66173e-13
  183 6260.33 0.00000 -6.28444e-13
  184 6260.33 0.00000 -2.54164e-12
  185 6260.33 0.00000 3.87996e-13
  186 6260.33 0.00000 1.28219e-12
  187 6260.33 0.00000 -3.81713e-12
  188 6260.33 0.00000 -1.08398e-13
  189 6260.33 0.00000 6.43530e-13
  190 6260.33 0.00000 -3.77378e-13
  191 6260.33 0.00000 7.74977e-13
  192 6260.33 0.00000 -9.74804e-13
  193 6260.33 0.00000 1.56047e-12
  194 6260.33 0.00000 2.36994e-12
  195 6260.33 0.00000 6.04028e-13
  196 6260.33 0.00000 -3.98362e-13
  197 6260.33 0.00000 -4.95251e-14
  198 6260.33 0.00000 2.82611e-12
  199 6260.33 0.00000 2.94783e-13
  200 6260.33 0.00000 -1.16691e-12
  201 6260.33 0.00000 1.68625e-12
  202 6260.33 0.00000 -1.15460e-12
  203 6260.33 0.00000 -5.33484e-13
  204 6260.33 0.00000 -1.12268e-12
  205 6260.33 0.00000 -1.10385e-13
  206 6260.33 0.00000 3.55567e-13
  207 6260.33 0.00000 4.71020e-14
  208 6260.33 0.00000 -2.03260e-13
  209 6260.33 0.00000 1.65806e-12
  210 6260.33 0.00000 5.31506e-13
  211 6260.33 0.00000 4.77210e-13
  212 6260.33 0.00000 3.13159e-12
  213 6260.33 0.00000 -7.12424e-13
  214 6260.33 0.00000 -3.68108e-13
  215 6260.33 0.00000 -2.20949e-13
  216 6260.33 0.00000 8.74445e-14
  217 6260.33 0.00000 3.31724e-13
  218 6260.33 0.00000 1.75839e-13
  219 6260.33 0.00000 -7.46058e-14
  220 6260.33 0.00000 -7.16022e-14
  221 6260.33 0.00000 3.49022e-13
  222 6260.33 0.00000 2.57649e-13
  223 6260.33 0.00000 9.71183e-13
  224 6260.33 0.00000 -1.53067e-13
  225 6260.33 0.00000 3.03634e-12
  226 6260.33 0.00000 1.33984e-13
  227 6260.33 0.00000 -1.47543e-12
  228 6260.33 0.00000 1.91624e-12
  229 6260.33 0.00000 2.54097e-13
  230 6260.33 0.00000 -1.17961e-12
  231 6260.33 0.00000 -1.59746e-12
  232 6260.33 0.00000 -5.98360e-13
  233 6260.33 0.00000 2.90544e-12
  234 6260.33 0.00000 6.09178e-13
  235 6260.33 0.00000 1.05851e-12
  236 6260.33 0.00000 2.71895e-15
  237 6260.33 0.00000 -8.67865e-13
  238 6260.33 0.00000 2.12136e-14
  239 6260.33 0.00000 1.99276e-12
  240 6260.33 0.00000 7.24732e-13
  241 6260.33 0.00000 -9.59629e-13
</Section>

newXOutput 133

<Section columns = "stress_xx | stress_yy | stress_xy">
  1 6312.06 0.00000 2.21997e-13
  2 6312.06 0.00000 1.43765e-13
  3 6312.06 0.00000 -1.89024e-12
  4 6312.06 0.00000 -1.08826e-13
  5 6312.06 0.00000 1.81595e-13
  6 6312.06 0.00000 -7.26595e-13
  7 6312.06 0.00000 -6.67872e-13
  8 6312.06 0.00000 -1.07639e-12
  9 6312.06 0.00000 -4.84397e-13
  10 6312.06 0.00000 -8.87990e-13
  11 6312.06 0.00000 -1.03599e-12
  12 6312.06 0.00000 4.29087e-14
  13 6312.06 0.00000 1.26846e-13
  14 6312.06 0.00000 1.07639e-12
  15 6312.06 0.00000 8.39211e-14
  16 6312.06 0.00000 2.09348e-12
  17 6312.06 0.00000 6.17204e-12
  18 6312.06 0.00000 3.27138e-12
  19 6312.06 0.00000 -5.54097e-13
  20 6312.06 0.00000 3.66429e-12
  21 6312.06 0.00000 3.68607e-12
  22 6312.06 0.00000 -4.58254e-13
  23 6312.06 0.00000 7.25732e-13
  24 6312.06 0.00000 -1.08814e-12
  25 6312.06 0.00000 -5.97869e-13
  26 6312.06 0.00000 -1.56427e-12
  27 6312.06 0.00000 -5.78921e-13
  28 6312.06 0.00000 1.34114e-13
  29 6312.06 0.00000 -2.70513e-13
  30 6312.06 0.00000 -3.09765e-12
  31 6312.06 0.00000 6.46587e-13
  32 6312.06 0.00000 -6.45620e-13
  33 6312.06 0.00000 1.37109e-12
  34 6312.06 0.00000 -8.41844e-13
  35 6312.06 0.00000 -5.44178e-13
  36 6312.06 0.00000 1.91707e-12
  37 6312.06 0.00000 8.23624e-13
  38 6312.06 0.00000 -1.25857e-12
  39 6312.06 0.00000 1.59543e-12
  40 6312.06 0.00000 -7.10436e-14
  41 6312.06 0.00000 -5.16974e-13
  42 6312.06 0.00000 2.55472e-12
  43 6312.06 0.00000 2.04108e-12
  44 6312.06 0.00000 1.40478e-12
  45 6312.06 0.00000 6.67701e-13
  46 6312.06 0.00000 -6.33924e-13
  47 6312.06 0.00000 -3.67094e-13
  48 6312.06 0.00000 -8.16132e-13
  49 6312.06 0.00000 -4.08515e-13
  50 6312.06 0.00000 7.35072e-14
  51 6312.06 0.00000 1.09119e-13
  52 6312.06 0.00000 -1.12997e-13
  53 6312.06 0.00000 7.52524e-14
  54 6312.06 0.00000 -1.05728e-13
  55 6312.06 0.00000 -2.18238e-13
  56 6312.06 0.00000 -7.44911e-14
  57 6312.06 0.00000 -1.50148e-13
  58 6312.06 0.00000 -1.48164e-12
  59 6312.06 0.00000 2.12281e-14
  60 6312.06 0.00000 -1.42825e-12
  61 6312.06 0.00000 -1.21928e-12
  62 6312.06 0.00000 -1.63127e-12
  63 6312.06 0.00000 1.18789e-13
  64 6312.06 0.00000 1.19247e-13
  65 6312.06 0.00000 6.83171e-13
  66 6312.06 0.00000 -8.13691e-14
  67 6312.06 0.00000 2.45583e-12
  68 6312.06 0.00000 1.32695e-12
  69 6312.06 0.00000 -3.47236e-13
  70 6312.06 0.00000 -3.78316e-13
  71 6312.06 0.00000 3.31607e-14
  72 6312.06 0.00000 -1.24201e-12
  73 6312.06 0.00000 1.47205e-12
  74 6312.06 0.00000 3.88867e-13
  75 6312.06 0.00000 -1.04430e-12
  76 6312.06 0.00000 -9.51564e-13
  77 6312.06 0.00000 -2.05243e-13
  78 6312.06 0.00000 3.04674e-13
  79 6312.06 0.00000 -3.65728e-14
  80 6312.06 0.00000 -3.44696e-14
  81 6312.06 0.00000 -1.43669e-12
  82 6312.06 0.00000 -1.07090e-12
  83 6312.06 0.00000 2.43569e-13
  84 6312.06 0.00000 -1.38798e-15
  85 6312.06 0.00000 1.25597e-12
  86 6312.06 0.00000 -1.70903e-12
  87 6312.06 0.00000 -1.76101e-13
  88 6312.06 0.00000 -4.29110e-13
  89 6312.06 0.00000 -3.66296e-13
  90 6312.06 0.00000 5.37981e-14
  91 6312.06 0.00000 -4.39912e-13
  92 6312.06 0.00000 3.07788e-13
  93 6312.06 0.00000 -4.18172e-12
  94 6312.06 0.00000 -5.27959e-13
  95 6312.06 0.00000 -1.46747e-12
  96 6312.06 0.00000 1.27568e-12
  97 6312.06 0.00000 -2.19272e-12
  98 6312.06 0.00000 -4.44318e-13
  99 6312.06 0.00000 1.03713e-12
  100 6312.06 0.00000 -1.35026e-13
  101 6312.06 0.00000 -7.86627e-13
  102 6312.06 0.00000 -8.91026e-13
  103 6312.06 0.00000 3.07151e-12
  104 6312.06 0.00000 2.99556e-13
  105 6312.06 0.00000 -5.87555e-13
  106 6312.06 0.00000 -9.74734e-15
  107 6312.06 0.00000 -5.70863e-13
  108 6312.06 0.00000 -1.29824e-13
  109 6312.06 0.00000 2.23958e-13
  110 6312.06 0.00000 1.05683e-12
  111 6312.06 0.00000 1.29818e-12
  112 6312.06 0.00000 2.26562e-13
  113 6312.06 0.00000 -2.96313e-13
  114 6312.06 0.00000 6.58318e-13
  115 6312.06 0.00000 -1.31787e-13
  116 6312.06 0.00000 -1.34702e-13
  117 6312.06 0.00000 1.20992e-13
  118 6312.06 0.00000 2.74463e-13
  119 6312.06 0.00000 8.31564e-13
  120 6312.06 0.00000 1.95858e-12
  121 6312.06 0.00000 -6.38422e-13
  122 6312.06 0.00000 5.12334e-13
  123 6312.06 0.00000 -1.54162e-12
  124 6312.06 0.00000 -9.43783e-13
  125 6312.06 0.00000 3.22650e-13
  126 6312.06 0.00000 -2.12278e-13
  127 6312.06 0.00000 1.55657e-12
  128 6312.06 0.00000 -7.00297e-13
  129 6312.06 0.00000 -4.37513e-13
  130 6312.06 0.00000 4.10576e-13
  131 6312.06 0.00000 -1.14205e-12
  132 6312.06 0.00000 5.38238e-14
  133 6312.06 0.00000 1.53951e-12
  134 6312.06 0.00000 -3.21014e-13
  135 6312.06 0.00000 9.06421e-14
  136 6312.06 0.00000 -5.37334e-13
  137 6312.06 0.00000 1.89007e-12
  138 6312.06 0.00000 7.43303e-13
  139 6312.06 0.00000 -1.26856e-13
  140 6312.06 0.00000 -2.30660e-12
  141 6312.06 0.00000 -1.62919e-12
  142 6312.06 0.00000 -6.28366e-13
  143 6312.06 0.00000 -1.24208e-13
  144 6312.06 0.00000 -8.74521e-14
  145 6312.06 0.00000 2.05188e-13
  146 6312.06 0.00000 4.76465e-13
  147 6312.06 0.00000 -2.84241e-13
  148 6312.06 0.00000 -3.58576e-14
  149 6312.06 0.00000 -7.04618e-14
  150 6312.06 0.00000 1.13775e-13
  151 6312.06 0.00000 -1.44249e-12
  152 6312.06 0.00000 -1.33577e-12
  153 6312.06 0.00000 5.53494e-13
  154 6312.06 0.00000 2.52283e-13
  155 6312.06 0.00000 -1.08657e-12
  156 6312.06 0.00000 -1.96381e-12
  157 6312.06 0.00000 2.03282e-13
  158 6312.06 0.00000 -7.00731e-13
  159 6312.06 0.00000 -5.78541e-13
  160 6312.06 0.00000 8.87990e-14
  161 6312.06 0.00000 -1.00534e-12
  162 6312.06 0.00000 2.41733e-13
  163 6312.06 0.00000 -2.59624e-13
  164 6312.06 0.00000 1.17698e-12
  165 6312.06 0.00000 -5.55699e-13
  166 6312.06 0.00000 8.01005e-14
  167 6312.06 0.00000 -9.13842e-13
  168 6312.06 0.00000 -1.11128e-12
  169 6312.06 0.00000 -1.32846e-13
  170 6312.06 0.00000 3.53876e-12
  171 6312.06 0.00000 5.92693e-13
  172 6312.06 0.00000 -8.45842e-13
  173 6312.06 0.00000 -2.75535e-13
  174 6312.06 0.00000 -3.47882e-13
  175 6312.06 0.00000 -2.32701e-13
  176 6312.06 0.00000 1.10753e-13
  177 6312.06 0.00000 -1.71024e-12
  178 6312.06 0.00000 3.83723e-13
  179 6312.06 0.00000 -2.86555e-13
  180 6312.06 0.00000 7.58639e-13
  181 6312.06 0.00000 -2.43084e-12
  182 6312.06 0.00000 -1.01398e-12
  183 6312.06 0.00000 -1.40272e-12
  184 6312.06 0.00000 2.91903e-12
  185 6312.06 0.00000 -5.31586e-13
  186 6312.06 0.00000 1.48491e-12
  187 6312.06 0.00000 9.78908e-13
  188 6312.06 0.00000 2.82106e-14
  189 6312.06 0.00000 -1.73588e-12
  190 6312.06 0.00000 1.97524e-13
  191 6312.06 0.00000 1.76375e-13
  192 6312.06 0.00000 1.61085e-12
  193 6312.06 0.00000 1.42537e-12
  194 6312.06 0.00000 -1.73424e-12
  195 6312.06 0.00000 3.17384e-13
  196 6312.06 0.00000 3.41617e-13
  197 6312.06 0.00000 2.49747e-13
  198 6312.06 0.00000 -1.66032e-12
  199 6312.06 0.00000 -4.07155e-14
  200 6312.06 0.00000 -1.43133e-12
  201 6312.06 0.00000 -6.83306e-13
  202 6312.06 0.00000 -9.82214e-13
  203 6312.06 0.00000 -8.82911e-14
  204 6312.06 0.00000 -2.58006e-13
  205 6312.06 0.00000 1.09789e-13
  206 6312.06 0.00000 2.57952e-12
  207 6312.06 0.00000 -5.76862e-13
  208 6312.06 0.00000 -8.30958e-13
  209 6312.06 0.00000 -1.98951e-12
  210 6312.06 0.00000 -2.94934e-13
  211 6312.06 0.00000 -3.35529e-13
  212 6312.06 0.00000 1.97796e-13
  213 6312.06 0.00000 -6.38001e-13
  214 6312.06 0.00000 1.07468e-12
  215 6312.06 0.00000 1.17148e-12
  216 6312.06 0.00000 -2.37916e-12
  217 6312.06 0.00000 -8.16766e-13
  218 6312.06 0.00000 -4.73362e-14
  219 6312.06 0.00000 2.78000e-13
  220 6312.06 0.00000 -6.22322e-13
  221 6312.06 0.00000 1.16291e-12
  222 6312.06 0.00000 -2.97663e-12
  223 6312.06 0.00000 -5.34298e-13
  224 6312.06 0.00000 -9.18068e-14
  225 6312.06 0.00000 -1.74590e-13
  226 6312.06 0.00000 -3.10206e-13
  227 6312.06 0.00000 8.70945e-13
  228 6312.06 0.00000 -6.63849e-14
  229 6312.06 0.00000 7.14926e-14
  230 6312.06 0.00000 -1.24021e-12
  231 6312.06 0.00000 1.39203e-12
  232 6312.06 0.00000 2.82634e-13
  233 6312.06 0.00000 -3.89382e-12
  234 6312.06 0.00000 -1.48529e-12
  235 6312.06 0.00000 -1.19567e-12
  236 6312.06 0.00000 -1.37317e-13
  237 6312.06 0.00000 -1.16432e-12
  238 6312.06 0.00000 -1.13289e-12
  239 6312.06 0.00000 -1.75188e-12
  240 6312.06 0.00000 1.11557e-12
  241 6312.06 0.00000 -5.68032e-13
</Section>

newXOutput 134

<Section columns = "stress_xx | stress_yy | stress_xy">
  1 6363.91 0.00000 -2.77242e-13
  2 6363.91 0.00000 1.67876e-12
  3 6363.91 0.00000 2.85919e-12
  4 6363.91 0.00000 -1.09915e-13
  5 6363.91 0.00000 -1.48483e-13
  6 6363.91 0.00000 1.11362e-12
  7 6363.91 0.00000 6.71176e-13
  8 6363.91 0.00000 -1.86378e-13
  9 6363.91 0.00000 -4.79338e-13
  10 6363.91 0.00000 -5.33256e-13
  11 6363.91 0.00000 -8.78084e-14
  12 6363.91 0.00000 -9.42358e-13
  13 6363.91 0.00000 -7.34028e-13
  14 6363.91 0.00000 -7.76303e-13
  15 6363.91 0.00000 1.84127e-13
  16 6363.91 0.00000 1.06581e-13
  17 6363.91 0.00000 -1.97893e-12
  18 6363.91 0.00000 -1.42415e-12
  19 6363.91 0.00000 -1.49994e-12
  20 6363.91 0.00000 2.21648e-12
  21 6363.91 0.00000 1.18786e-12
  22 6363.91 0.00000 1.74390e-12
  23 6363.91 0.00000 2.88954e-13
  24 6363.91 0.00000 3.57639e-13
  25 6363.91 0.00000 3.19744e-13
  26 6363.91 0.00000 -9.72164e-13
  27 6363.91 0.00000 -3.13719e-12
  28 6363.91 0.00000 2.70228e-13
  29 6363.91 0.00000 4.28102e-13
  30 6363.91 0.00000 1.18128e-12
  31 6363.91 0.00000 1.29473e-12
  32 6363.91 0.00000 -4.47555e-12
  33 6363.91 0.00000 -3.01962e-12
  34 6363.91 0.00000 6.33063e-13
  35 6363.91 0.00000 1.71609e-13
  36 6363.91 0.00000 1.94746e-12
  37 6363.91 0.00000 3.15303e-12
  38 6363.91 0.00000 1.67637e-12
  39 6363.91 0.00000 -3.93575e-13
  40 6363.91 0.00000 2.85549e-13
  41 6363.91 0.00000 1.06243e-13
  42 6363.91 0.00000 2.75455e-13
  43 6363.91 0.00000 1.04382e-12
  44 6363.91 0.00000 -3.48265e-13
  45 6363.91 0.00000 -1.04703e-12
  46 6363.91 0.00000 -2.27136e-13
  47 6363.91 0.00000 2.96886e-13
  48 6363.91 0.00000 -3.03629e-13
  49 6363.91 0.00000 -2.64679e-13
  50 6363.91 0.00000 7.69059e-14
  51 6363.91 0.00000 0.00000
  52 6363.91 0.00000 -5.51814e-14
  53 6363.91 0.00000 -1.71035e-13
  54 6363.91 0.00000 8.92753e-14
  55 6363.91 0.00000 0.00000
  56 6363.91 0.00000 -2.51171e-13
  57 6363.91 0.00000 2.73010e-13
  58 6363.91 0.00000 6.53417e-14
  59 6363.91 0.00000 -1.51460e-13
  60 6363.91 0.00000 2.63331e-13
  61 6363.91 0.00000 2.51058e-13
  62 6363.91 0.00000 1.22791e-12
  63 6363.91 0.00000 -4.13368e-13
  64 6363.91 0.00000 -3.58670e-12
  65 6363.91 0.00000 1.14366e-13
  66 6363.91 0.00000 5.46916e-13
  67 6363.91 0.00000 -3.30146e-13
  68 6363.91 0.00000 -1.43981e-12
  69 6363.91 0.00000 -1.50756e-12
  70 6363.91 0.00000 -5.49746e-13
  71 6363.91 0.00000 2.48431e-14
  72 6363.91 0.00000 -1.11107e-12
  73 6363.91 0.00000 4.32863e-13
  74 6363.91 0.00000 3.83897e-13
  75 6363.91 0.00000 7.84205e-13
  76 6363.91 0.00000 -1.48167e-12
  77 6363.91 0.00000 -1.64265e-13
  78 6363.91 0.00000 1.03761e-12
  79 6363.91 0.00000 -3.44615e-13
  80 6363.91 0.00000 2.96238e-14
  81 6363.91 0.00000 2.06928e-13
  82 6363.91 0.00000 8.23285e-14
  83 6363.91 0.00000 -6.19331e-13
  84 6363.91 0.00000 -6.89122e-13
  85 6363.91 0.00000 2.69592e-14
  86 6363.91 0.00000 2.78315e-12
  87 6363.91 0.00000 1.12472e-13
  88 6363.91 0.00000 -1.22538e-12
  89 6363.91 0.00000 -4.55847e-13
  90 6363.91 0.00000 -3.00429e-15
  91 6363.91 0.00000 -9.86521e-13
  92 6363.91 0.00000 3.36489e-13
  93 6363.91 0.00000 3.05281e-12
  94 6363.91 0.00000 1.36869e-12
  95 6363.91 0.00000 -1.03428e-12
  96 6363.91 0.00000 -1.23418e-12
  97 6363.91 0.00000 3.99986e-12
  98 6363.91 0.00000 4.47982e-13
  99 6363.91 0.00000 7.11013e-13
  100 6363.91 0.00000 9.62713e-13
  101 6363.91 0.00000 -3.04977e-13
  102 6363.91 0.00000 -9.73392e-13
  103 6363.91 0.00000 -8.83450e-13
  104 6363.91 0.00000 6.96646e-13
  105 6363.91 0.00000 -4.74058e-13
  106 6363.91 0.00000 -7.93030e-13
  107 6363.91 0.00000 -7.82798e-13
  108 6363.91 0.00000 1.10803e-15
  109 6363.91 0.00000 4.85990e-13
  110 6363.91 0.00000 8.62819e-13
  111 6363.91 0.00000 5.61952e-13
  112 6363.91 0.00000 2.25895e-13
  113 6363.91 0.00000 3.35949e-13
  114 6363.91 0.00000 1.85532e-12
  115 6363.91 0.00000 5.99630e-13
  116 6363.91 0.00000 -1.94040e-14
  117 6363.91 0.00000 -1.61717e-12
  118 6363.91 0.00000 -5.04962e-13
  119 6363.91 0.00000 6.07970e-13
  120 6363.91 0.00000 -1.24951e-14
  121 6363.91 0.00000 1.71280e-13
  122 6363.91 0.00000 3.26395e-13
  123 6363.91 0.00000 -1.94358e-12
  124 6363.91 0.00000 -7.04272e-14
  125 6363.91 0.00000 1.66247e-12
  126 6363.91 0.00000 -2.63025e-13
  127 6363.91 0.00000 5.21891e-13
  128 6363.91 0.00000 2.55153e-12
  129 6363.91 0.00000 4.38370e-13
  130 6363.91 0.00000 -8.08756e-13
  131 6363.91 0.00000 -1.00815e-13
  132 6363.91 0.00000 -8.87567e-13
  133 6363.91 0.00000 -2.42719e-13
  134 6363.91 0.00000 3.18558e-13
  135 6363.91 0.00000 4.43985e-12
  136 6363.91 0.00000 -6.29576e-14
  137 6363.91 0.00000 7.73799e-13
  138 6363.91 0.00000 -4.58727e-13
  139 6363.91 0.00000 3.36993e-13
  140 6363.91 0.00000 1.09216e-13
  141 6363.91 0.00000 2.12492e-13
  142 6363.91 0.00000 -5.58699e-13
  143 6363.91 0.00000 -1.99095e-14
  144 6363.91 0.00000 -1.43320e-12
  145 6363.91 0.00000 -1.10835e-12
  146 6363.91 0.00000 -5.35643e-13
  147 6363.91 0.00000 5.95895e-13
  148 6363.91 0.00000 -3.18959e-14
  149 6363.91 0.00000 -3.31734e-12
  150 6363.91 0.00000 9.01045e-13
  151 6363.91 0.00000 -9.78931e-13
  152 6363.91 0.00000 -1.42238e-12
  153 6363.91 0.00000 7.49972e-13
  154 6363.91 0.00000 -4.32898e-13
  155 6363.91 0.00000 -8.34005e-13
  156 6363.91 0.00000 5.44237e-13
  157 6363.91 0.00000 4.93462e-14
  158 6363.91 0.00000 -1.63701e-12
  159 6363.91 0.00000 -2.21136e-12
  160 6363.91 0.00000 -5.98786e-14
  161 6363.91 0.00000 -4.29329e-12
  162 6363.91 0.00000 4.95784e-13
  163 6363.91 0.00000 -7.99674e-13
  164 6363.91 0.00000 1.19072e-13
  165 6363.91 0.00000 -2.22280e-13
  166 6363.91 0.00000 2.40724e-13
  167 6363.91 0.00000 -7.41278e-13
  168 6363.91 0.00000 6.84166e-13
  169 6363.91 0.00000 1.05934e-13
  170 6363.91 0.00000 3.33298e-13
  171 6363.91 0.00000 7.85141e-15
  172 6363.91 0.00000 1.49196e-13
  173 6363.91 0.00000 -7.33467e-13
  174 6363.91 0.00000 4.20491e-13
  175 6363.91 0.00000 6.99783e-16
  176 6363.91 0.00000 -4.94789e-13
  177 6363.91 0.00000 3.00366e-13
  178 6363.91 0.00000 1.63651e-13
  179 6363.91 0.00000 -4.78782e-14
  180 6363.91 0.00000 8.50271e-13
  181 6363.91 0.00000 -5.49653e-13
  182 6363.91 0.00000 3.62758e-12
  183 6363.91 0.00000 -5.01034e-13
  184 6363.91 0.00000 -1.80858e-12
  185 6363.91 0.00000 -1.27852e-14
  186 6363.91 0.00000 -6.19750e-13
  187 6363.91 0.00000 -2.77371e-12
  188 6363.91 0.00000 2.20546e-14
  189 6363.91 0.00000 5.09397e-13
  190 6363.91 0.00000 1.01171e-13
  191 6363.91 0.00000 1.03426e-12
  192 6363.91 0.00000 8.69849e-13
  193 6363.91 0.00000 -6.28095e-13
  194 6363.91 0.00000 -1.98434e-12
  195 6363.91 0.00000 5.25471e-13
  196 6363.91 0.00000 1.60626e-12
  197 6363.91 0.00000 1.74934e-13
  198 6363.91 0.00000 1.57598e-12
  199 6363.91 0.00000 9.28016e-14
  200 6363.91 0.00000 -2.39522e-13
  201 6363.91 0.00000 -1.54769e-13
  202 6363.91 0.00000 6.47004e-14
  203 6363.91 0.00000 -1.71663e-13
  204 6363.91 0.00000 -7.24084e-13
  205 6363.91 0.00000 9.10344e-13
  206 6363.91 0.00000 3.51560e-12
  207 6363.91 0.00000 4.91536e-13
  208 6363.91 0.00000 9.01835e-15
  209 6363.91 0.00000 1.85099e-12
  210 6363.91 0.00000 3.92880e-13
  211 6363.91 0.00000 -7.40619e-14
  212 6363.91 0.00000 2.11510e-12
  213 6363.91 0.00000 -3.61572e-13
  214 6363.91 0.00000 -8.66067e-14
  215 6363.91 0.00000 1.11545e-12
  216 6363.91 0.00000 5.20454e-13
  217 6363.91 0.00000 2.09103e-12
  218 6363.91 0.00000 4.35055e-13
  219 6363.91 0.00000 6.30084e-13
  220 6363.91 0.00000 3.33859e-13
  221 6363.91 0.00000 -1.04320e-12
  222 6363.91 0.00000 -1.01683e-12
  223 6363.91 0.00000 1.12547e-13
  224 6363.91 0.00000 -4.62584e-13
  225 6363.91 0.00000 2.61697e-12
  226 6363.91 0.00000 1.09408e-12
  227 6363.91 0.00000 -1.12478e-12
  228 6363.91 0.00000 2.71843e-12
  229 6363.91 0.00000 2.01773e-13
  230 6363.91 0.00000 -3.20580e-13
  231 6363.91 0.00000 -1.53962e-12
  232 6363.91 0.00000 -1.57108e-13
  233 6363.91 0.00000 -2.98319e-12
  234 6363.91 0.00000 -8.55196e-14
  235 6363.91 0.00000 3.19878e-13
  236 6363.91 0.00000 -5.32088e-13
  237 6363.91 0.00000 1.06559e-12
  238 6363.91 0.00000 4.94182e-13
  239 6363.91 0.00000 -1.73326e-13
  240 6363.91 0.00000 -1.24774e-13
  241 6363.91 0.00000 2.05151e-13
</Section>

newXOutput 135

<Section columns = "stress_xx | stress_yy | stress_xy">
  1 6415.88 0.00000 -1.11728e-13
  2 6415.88 0.00000 6.67053e-13
  3 6415.88 0.00000 -1.12109e-12
  4 6415.88 0.00000 3.34391e-13
  5 6415.88 0.00000 6.89733e-14
  6 6415.88 0.00000 4.46913e-13
  7 6415.88 0.00000 1.48418e-13
  8 6415.88 0.00000 5.44753e-13
  9 6415.88 0.00000 -4.03505e-13
  10 6415.88 0.00000 4.41401e-13
  11 6415.88 0.00000 2.97942e-13
  12 6415.88 0.00000 -2.03403e-13
  13 6415.88 0.00000 7.53676e-13
  14 6415.88 0.00000 7.99287e-13
  15 6415.88 0.00000 -9.02094e-13
  16 6415.88 0.00000 2.02895e-12
  17 6415.88 0.00000 3.26634e-12
  18 6415.88 0.00000 2.57261e-12
  19 6415.88 0.00000 -7.99287e-13
  20 6415.88 0.00000 -5.05768e-13
  21 6415.88 0.00000 -3.54165e-12
  22 6415.88 0.00000 8.07794e-28
  23 6415.88 0.00000 3.81312e-12
  24 6415.88 0.00000 3.78956e-14
  25 6415.88 0.00000 2.15188e-13
  26 6415.88 0.00000 2.35100e-12
  27 6415.88 0.00000 7.13233e-13
  28 6415.88 0.00000 -1.29157e-12
  29 6415.88 0.00000 0.00000
  30 6415.88 0.00000 -4.24284e-13
  31 6415.88 0.00000 6.59024e-13
  32 6415.88 0.00000 2.93700e-12
  33 6415.88 0.00000 5.40079e-13
  34 6415.88 0.00000 -1.29306e-12
  35 6415.88 0.00000 9.85513e-13
  36 6415.88 0.00000 -1.02523e-12
  37 6415.88 0.00000 -2.78385e-12
  38 6415.88 0.00000 -9.50710e-13
  39 6415.88 0.00000 -1.57731e-12
  40 6415.88 0.00000 -2.62456e-12
  41 6415.88 0.00000 -1.20594e-12
  42 6415.88 0.00000 -1.47985e-13
  43 6415.88 0.00000 -1.40732e-12
  44 6415.88 0.00000 -7.16914e-13
  45 6415.88 0.00000 1.08403e-12
  46 6415.88 0.00000 -8.89183e-14
  47 6415.88 0.00000 -2.33780e-13
  48 6415.88 0.00000 3.62090e-13
  49 6415.88 0.00000 5.93313e-13
  50 6415.88 0.00000 -1.86939e-13
  51 6415.88 0.00000 -2.15188e-13
  52 6415.88 0.00000 1.70992e-13
  53 6415.88 0.00000 -1.51727e-13
  54 6415.88 0.00000 -2.40699e-14
  55 6415.88 0.00000 -1.58345e-13
  56 6415.88 0.00000 -1.78671e-13
  57 6415.88 0.00000 -5.93437e-13
  58 6415.88 0.00000 6.93724e-13
  59 6415.88 0.00000 -1.51061e-14
  60 6415.88 0.00000 6.27660e-13
  61 6415.88 0.00000 6.49319e-13
  62 6415.88 0.00000 -1.39129e-12
  63 6415.88 0.00000 -7.14605e-13
  64 6415.88 0.00000 4.11448e-12
  65 6415.88 0.00000 -6.61227e-13
  66 6415.88 0.00000 -2.89347e-13
  67 6415.88 0.00000 -2.15486e-12
  68 6415.88 0.00000 -4.86132e-13
  69 6415.88 0.00000 3.43041e-13
  70 6415.88 0.00000 2.66240e-13
  71 6415.88 0.00000 7.79846e-14
  72 6415.88 0.00000 -3.32789e-13
  73 6415.88 0.00000 -7.73985e-13
  74 6415.88 0.00000 -3.74502e-13
  75 6415.88 0.00000 -1.04407e-12
  76 6415.88 0.00000 2.49960e-12
  77 6415.88 0.00000 -5.19005e-13
  78 6415.88 0.00000 -8.30709e-13
  79 6415.88 0.00000 5.15195e-13
  80 6415.88 0.00000 -9.18794e-13
  81 6415.88 0.00000 6.97966e-13
  82 6415.88 0.00000 -2.33578e-13
  83 6415.88 0.00000 4.15355e-13
  84 6415.88 0.00000 2.69620e-13
  85 6415.88 0.00000 -1.90186e-12
  86 6415.88 0.00000 9.37781e-14
  87 6415.88 0.00000 -5.32153e-13
  88 6415.88 0.00000 5.35496e-13
  89 6415.88 0.00000 7.09708e-13
  90 6415.88 0.00000 -2.10510e-14
  91 6415.88 0.00000 -5.51527e-13
  92 6415.88 0.00000 -1.24555e-13
  93 6415.88 0.00000 1.11404e-14
  94 6415.88 0.00000 -3.84970e-12
  95 6415.88 0.00000 -7.21697e-13
  96 6415.88 0.00000 -1.03190e-12
  97 6415.88 0.00000 -3.65929e-12
  98 6415.88 0.00000 -5.25463e-14
  99 6415.88 0.00000 -9.95020e-13
  100 6415.88 0.00000 -8.70219e-13
  101 6415.88 0.00000 -9.48114e-14
  102 6415.88 0.00000 1.82584e-12
  103 6415.88 0.00000 -2.17885e-12
  104 6415.88 0.00000 2.23457e-13
  105 6415.88 0.00000 4.06334e-13
  106 6415.88 0.00000 -1.66396e-13
  107 6415.88 0.00000 4.31824e-12
  108 6415.88 0.00000 3.91430e-13
  109 6415.88 0.00000 1.24413e-13
  110 6415.88 0.00000 -4.02912e-12
  111 6415.88 0.00000 -9.57562e-13
  112 6415.88 0.00000 2.74298e-13
  113 6415.88 0.00000 -1.31461e-12
  114 6415.88 0.00000 -7.78858e-13
  115 6415.88 0.00000 7.88374e-13
  116 6415.88 0.00000 2.90885e-13
  117 6415.88 0.00000 1.06869e-12
  118 6415.88 0.00000 -1.89110e-13
  119 6415.88 0.00000 -1.44049e-12
  120 6415.88 0.00000 -4.54738e-14
  121 6415.88 0.00000 -1.83841e-13
  122 6415.88 0.00000 7.89745e-13
  123 6415.88 0.00000 1.61291e-13
  124 6415.88 0.00000 9.04717e-13
  125 6415.88 0.00000 1.15672e-13
  126 6415.88 0.00000 5.11807e-13
  127 6415.88 0.00000 -1.92047e-13
  128 6415.88 0.00000 -2.67604e-12
  129 6415.88 0.00000 -2.09005e-13
  130 6415.88 0.00000 5.47291e-13
  131 6415.88 0.00000 -1.09474e-12
  132 6415.88 0.00000 -1.02948e-13
  133 6415.88 0.00000 -1.29037e-12
  134 6415.88 0.00000 -4.49275e-13
  135 6415.88 0.00000 -3.14939e-12
  136 6415.88 0.00000 -6.04203e-15
  137 6415.88 0.00000 -2.32059e-12
  138 6415.88 0.00000 8.09350e-13
  139 6415.88 0.00000 -5.27900e-13
  140 6415.88 0.00000 4.01905e-13
  141 6415.88 0.00000 -7.13995e-13
  142 6415.88 0.00000 5.37590e-13
  143 6415.88 0.00000 -4.01672e-13
  144 6415.88 0.00000 1.28313e-12
  145 6415.88 0.00000 -6.47781e-13
  146 6415.88 0.00000 -7.72550e-13
  147 6415.88 0.00000 -1.37138e-12
  148 6415.88 0.00000 -6.31241e-13
  149 6415.88 0.00000 -1.32836e-12
  150 6415.88 0.00000 -1.78705e-13
  151 6415.88 0.00000 1.41348e-12
  152 6415.88 0.00000 1.30275e-12
  153 6415.88 0.00000 -1.73068e-12
  154 6415.88 0.00000 5.08772e-13
  155 6415.88 0.00000 1.34492e-12
  156 6415.88 0.00000 2.13440e-12
  157 6415.88 0.00000 1.41467e-13
  158 6415.88 0.00000 2.67462e-13
  159 6415.88 0.00000 -1.28257e-12
  160 6415.88 0.00000 6.94740e-14
  161 6415.88 0.00000 1.48023e-12
  162 6415.88 0.00000 3.77096e-13
  163 6415.88 0.00000 -1.63215e-12
  164 6415.88 0.00000 -2.38548e-13
  165 6415.88 0.00000 -1.01545e-15
  166 6415.88 0.00000 -4.31807e-13
  167 6415.88 0.00000 1.73587e-12
  168 6415.88 0.00000 -5.09456e-14
  169 6415.88 0.00000 2.23146e-13
  170 6415.88 0.00000 -1.49550e-12
  171 6415.88 0.00000 -3.42847e-14
  172 6415.88 0.00000 -5.14146e-13
  173 6415.88 0.00000 -5.67305e-13
  174 6415.88 0.00000 8.05180e-13
  175 6415.88 0.00000 6.48444e-14
  176 6415.88 0.00000 9.13663e-14
  177 6415.88 0.00000 -1.93359e-13
  178 6415.88 0.00000 -4.83766e-13
  179 6415.88 0.00000 4.12927e-13
  180 6415.88 0.00000 -1.18231e-12
  181 6415.88 0.00000 6.68357e-13
  182 6415.88 0.00000 -2.21333e-12
  183 6415.88 0.00000 -4.57212e-13
  184 6415.88 0.00000 1.70824e-13
  185 6415.88 0.00000 6.55104e-14
  186 6415.88 0.00000 -3.28179e-13
  187 6415.88 0.00000 2.04512e-12
  188 6415.88 0.00000 4.08078e-13
  189 6415.88 0.00000 -8.07751e-13
  190 6415.88 0.00000 -4.11187e-13
  191 6415.88 0.00000 2.21743e-13
  192 6415.88 0.00000 -9.28966e-13
  193 6415.88 0.00000 8.17521e-13
  194 6415.88 0.00000 2.95984e-12
  195 6415.88 0.00000 -6.23440e-13
  196 6415.88 0.00000 -2.02003e-12
  197 6415.88 0.00000 4.82451e-13
  198 6415.88 0.00000 -2.25342e-12
  199 6415.88 0.00000 -5.22777e-13
  200 6415.88 0.00000 2.46448e-13
  201 6415.88 0.00000 9.61890e-14
  202 6415.88 0.00000 1.26626e-12
  203 6415.88 0.00000 2.69620e-13
  204 6415.88 0.00000 -1.05395e-12
  205 6415.88 0.00000 -2.44454e-13
  206 6415.88 0.00000 -4.65299e-12
  207 6415.88 0.00000 -6.80921e-13
  208 6415.88 0.00000 -2.18439e-13
  209 6415.88 0.00000 -1.04180e-12
  210 6415.88 0.00000 -4.71822e-13
  211 6415.88 0.00000 3.32543e-13
  212 6415.88 0.00000 1.22200e-12
  213 6415.88 0.00000 4.57086e-13
  214 6415.88 0.00000 -5.91759e-13
  215 6415.88 0.00000 -1.14022e-12
  216 6415.88 0.00000 -1.49578e-12
  217 6415.88 0.00000 -2.14826e-12
  218 6415.88 0.00000 3.47088e-14
  219 6415.88 0.00000 -8.64474e-13
  220 6415.88 0.00000 -4.55181e-13
  221 6415.88 0.00000 -1.96368e-13
  222 6415.88 0.00000 1.05199e-12
  223 6415.88 0.00000 5.74372e-13
  224 6415.88 0.00000 6.68716e-13
  225 6415.88 0.00000 -2.29764e-12
  226 6415.88 0.00000 -7.31184e-13
  227 6415.88 0.00000 -1.09019e-12
  228 6415.88 0.00000 -4.42562e-14
  229 6415.88 0.00000 -8.22423e-13
  230 6415.88 0.00000 -6.10680e-13
  231 6415.88 0.00000 -1.13791e-12
  232 6415.88 0.00000 -2.86327e-13
  233 6415.88 0.00000 2.34327e-12
  234 6415.88 0.00000 -7.33786e-13
  235 6415.88 0.00000 -8.21100e-13
  236 6415.88 0.00000 6.12711e-13
  237 6415.88 0.00000 -1.60290e-12
  238 6415.88 0.00000 4.87862e-13
  239 6415.88 0.00000 1.61119e-13
  240 6415.88 0.00000 -1.41472e-13
  241 6415.88 0.00000 -1.59527e-12
</Section>

newXOutput 136

<Section columns = "stress_xx | stress_yy | stress_xy">
  1 6467.98 0.00000 1.12098e-13
  2 6467.98 0.00000 -2.64819e-12
  3 6467.98 0.00000 -2.69595e-12
  4 6467.98 0.00000 5.62788e-15
  5 6467.98 0.00000 8.17578e-14
  6 6467.98 0.00000 2.13656e-13
  7 6467.98 0.00000 -2.18926e-13
  8 6467.98 0.00000 -2.91901e-13
  9 6467.98 0.00000 8.96781e-13
  10 6467.98 0.00000 -2.98927e-13
  11 6467.98 0.00000 -1.49464e-13
  12 6467.98 0.00000 3.78956e-14
  13 6467.98 0.00000 -9.12590e-13
  14 6467.98 0.00000 -1.33815e-12
  15 6467.98 0.00000 9.25688e-13
  16 6467.98 0.00000 -1.27150e-12
  17 6467.98 0.00000 -1.62237e-12
  18 6467.98 0.00000 1.27215e-12
  19 6467.98 0.00000 -1.36625e-12
  20 6467.98 0.00000 -1.05327e-12
  21 6467.98 0.00000 4.95268e-12
  22 6467.98 0.00000 2.10590e-12
  23 6467.98 0.00000 -5.49433e-12
  24 6467.98 0.00000 -5.69750e-13
  25 6467.98 0.00000 -8.54626e-13
  26 6467.98 0.00000 -1.10958e-12
  27 6467.98 0.00000 3.72365e-12
  28 6467.98 0.00000 7.39224e-13
  29 6467.98 0.00000 -2.13656e-13
  30 6467.98 0.00000 -3.59238e-13
  31 6467.98 0.00000 -3.23517e-12
  32 6467.98 0.00000 7.37735e-13
  33 6467.98 0.00000 -1.57344e-14
  34 6467.98 0.00000 6.68976e-13
  35 6467.98 0.00000 2.81485e-12
  36 6467.98 0.00000 2.18165e-12
  37 6467.98 0.00000 -1.33790e-12
  38 6467.98 0.00000 -6.70933e-13
  39 6467.98 0.00000 -3.88366e-13
  40 6467.98 0.00000 -1.12640e-12
  41 6467.98 0.00000 -1.02354e-13
  42 6467.98 0.00000 2.35960e-12
  43 6467.98 0.00000 8.99587e-13
  44 6467.98 0.00000 1.04064e-12
  45 6467.98 0.00000 1.24985e-13
  46 6467.98 0.00000 1.87285e-13
  47 6467.98 0.00000 2.55375e-13
  48 6467.98 0.00000 6.34611e-13
  49 6467.98 0.00000 3.37953e-13
  50 6467.98 0.00000 7.93879e-14
  51 6467.98 0.00000 0.00000
  52 6467.98 0.00000 -5.30482e-14
  53 6467.98 0.00000 3.33232e-14
  54 6467.98 0.00000 -1.31821e-13
  55 6467.98 0.00000 2.13656e-13
  56 6467.98 0.00000 7.40347e-14
  57 6467.98 0.00000 -6.13024e-13
  58 6467.98 0.00000 -1.70855e-12
  59 6467.98 0.00000 -8.35211e-13
  60 6467.98 0.00000 -3.10572e-13
  61 6467.98 0.00000 5.21366e-13
  62 6467.98 0.00000 -2.50169e-13
  63 6467.98 0.00000 1.23550e-12
  64 6467.98 0.00000 -4.18904e-12
  65 6467.98 0.00000 1.34252e-13
  66 6467.98 0.00000 -5.02712e-13
  67 6467.98 0.00000 1.00855e-12
  68 6467.98 0.00000 4.01141e-13
  69 6467.98 0.00000 -2.84552e-14
  70 6467.98 0.00000 7.14347e-13
  71 6467.98 0.00000 -7.00757e-14
  72 6467.98 0.00000 7.57381e-13
  73 6467.98 0.00000 -4.62390e-13
  74 6467.98 0.00000 4.20460e-13
  75 6467.98 0.00000 5.71563e-13
  76 6467.98 0.00000 -1.52436e-12
  77 6467.98 0.00000 -5.48221e-14
  78 6467.98 0.00000 5.79944e-13
  79 6467.98 0.00000 -1.33187e-12
  80 6467.98 0.00000 -1.92922e-12
  81 6467.98 0.00000 -4.47819e-13
  82 6467.98 0.00000 -2.36100e-13
  83 6467.98 0.00000 -9.38858e-13
  84 6467.98 0.00000 -2.27095e-13
  85 6467.98 0.00000 4.05755e-13
  86 6467.98 0.00000 9.37041e-13
  87 6467.98 0.00000 2.93384e-13
  88 6467.98 0.00000 -4.60137e-13
  89 6467.98 0.00000 -3.46066e-13
  90 6467.98 0.00000 -7.68022e-13
  91 6467.98 0.00000 3.76992e-13
  92 6467.98 0.00000 -3.99527e-14
  93 6467.98 0.00000 -1.66645e-12
  94 6467.98 0.00000 -2.03661e-12
  95 6467.98 0.00000 -1.24753e-14
  96 6467.98 0.00000 -1.93242e-13
  97 6467.98 0.00000 3.26131e-12
  98 6467.98 0.00000 8.80731e-13
  99 6467.98 0.00000 5.20181e-13
  100 6467.98 0.00000 2.54280e-13
  101 6467.98 0.00000 -8.45364e-13
  102 6467.98 0.00000 4.23884e-13
  103 6467.98 0.00000 1.64495e-12
  104 6467.98 0.00000 1.85629e-13
  105 6467.98 0.00000 1.03441e-12
  106 6467.98 0.00000 7.09994e-13
  107 6467.98 0.00000 -3.28728e-12
  108 6467.98 0.00000 -1.10362e-13
  109 6467.98 0.00000 -4.13007e-13
  110 6467.98 0.00000 1.45974e-12
  111 6467.98 0.00000 1.40033e-12
  112 6467.98 0.00000 -3.93077e-13
  113 6467.98 0.00000 1.28163e-13
  114 6467.98 0.00000 8.65091e-13
  115 6467.98 0.00000 2.96746e-13
  116 6467.98 0.00000 -1.38733e-13
  117 6467.98 0.00000 -4.10787e-12
  118 6467.98 0.00000 1.14170e-13
  119 6467.98 0.00000 -6.53618e-13
  120 6467.98 0.00000 1.08194e-12
  121 6467.98 0.00000 -1.77659e-13
  122 6467.98 0.00000 -1.01087e-12
  123 6467.98 0.00000 3.53845e-13
  124 6467.98 0.00000 -1.01647e-12
  125 6467.98 0.00000 2.55889e-13
  126 6467.98 0.00000 -2.35374e-13
  127 6467.98 0.00000 4.29629e-13
  128 6467.98 0.00000 5.72725e-13
  129 6467.98 0.00000 4.10589e-13
  130 6467.98 0.00000 -2.41476e-12
  131 6467.98 0.00000 1.75702e-13
  132 6467.98 0.00000 -4.87940e-15
  133 6467.98 0.00000 4.76179e-13
  134 6467.98 0.00000 3.11246e-13
  135 6467.98 0.00000 2.93101e-12
  136 6467.98 0.00000 6.90496e-13
  137 6467.98 0.00000 2.26038e-12
  138 6467.98 0.00000 -1.22988e-12
  139 6467.98 0.00000 1.42563e-14
  140 6467.98 0.00000 -1.39120e-12
  141 6467.98 0.00000 -3.05953e-13
  142 6467.98 0.00000 -4.93636e-13
  143 6467.98 0.00000 2.81739e-13
  144 6467.98 0.00000 1.05414e-12
  145 6467.98 0.00000 -2.30038e-13
  146 6467.98 0.00000 1.55489e-13
  147 6467.98 0.00000 -2.65646e-14
  148 6467.98 0.00000 6.13388e-16
  149 6467.98 0.00000 2.05539e-12
  150 6467.98 0.00000 7.93849e-13
  151 6467.98 0.00000 -2.56292e-13
  152 6467.98 0.00000 -4.59997e-13
  153 6467.98 0.00000 1.74693e-12
  154 6467.98 0.00000 -3.86639e-13
  155 6467.98 0.00000 -4.15353e-13
  156 6467.98 0.00000 -4.38105e-12
  157 6467.98 0.00000 -2.65063e-14
  158 6467.98 0.00000 -1.14843e-12
  159 6467.98 0.00000 -7.61941e-13
  160 6467.98 0.00000 -2.72708e-14
  161 6467.98 0.00000 1.28312e-12
  162 6467.98 0.00000 -1.22725e-12
  163 6467.98 0.00000 -1.23157e-12
  164 6467.98 0.00000 -1.83206e-12
  165 6467.98 0.00000 1.78047e-13
  166 6467.98 0.00000 1.82875e-13
  167 6467.98 0.00000 -1.13668e-12
  168 6467.98 0.00000 2.71884e-13
  169 6467.98 0.00000 -7.41192e-14
  170 6467.98 0.00000 1.65792e-12
  171 6467.98 0.00000 -2.85240e-13
  172 6467.98 0.00000 -3.12979e-13
  173 6467.98 0.00000 1.42449e-13
  174 6467.98 0.00000 -2.56822e-12
  175 6467.98 0.00000 1.82264e-13
  176 6467.98 0.00000 -3.17320e-13
  177 6467.98 0.00000 -2.12982e-12
  178 6467.98 0.00000 -2.90771e-13
  179 6467.98 0.00000 -2.24195e-13
  180 6467.98 0.00000 -1.80443e-13
  181 6467.98 0.00000 3.28166e-13
  182 6467.98 0.00000 -6.66172e-13
  183 6467.98 0.00000 2.37058e-13
  184 6467.98 0.00000 -3.95756e-13
  185 6467.98 0.00000 -4.07247e-13
  186 6467.98 0.00000 -8.11319e-13
  187 6467.98 0.00000 -4.66368e-13
  188 6467.98 0.00000 -6.88874e-13
  189 6467.98 0.00000 1.10201e-12
  190 6467.98 0.00000 6.06045e-13
  191 6467.98 0.00000 -2.47564e-13
  192 6467.98 0.00000 -1.73902e-12
  193 6467.98 0.00000 9.13400e-13
  194 6467.98 0.00000 -4.38080e-12
  195 6467.98 0.00000 2.27095e-13
  196 6467.98 0.00000 1.30936e-12
  197 6467.98 0.00000 -3.06806e-13
  198 6467.98 0.00000 3.37146e-13
  199 6467.98 0.00000 -4.69095e-13
  200 6467.98 0.00000 -1.30692e-12
  201 6467.98 0.00000 1.62644e-12
  202 6467.98 0.00000 -3.08634e-13
  203 6467.98 0.00000 -1.67268e-12
  204 6467.98 0.00000 2.01286e-14
  205 6467.98 0.00000 -3.21123e-13
  206 6467.98 0.00000 1.81314e-12
  207 6467.98 0.00000 7.39555e-13
  208 6467.98 0.00000 5.44362e-13
  209 6467.98 0.00000 7.94024e-13
  210 6467.98 0.00000 4.87186e-13
  211 6467.98 0.00000 -1.57128e-13
  212 6467.98 0.00000 6.29527e-13
  213 6467.98 0.00000 3.72832e-13
  214 6467.98 0.00000 -3.77057e-14
  215 6467.98 0.00000 -8.83875e-14
  216 6467.98 0.00000 2.58495e-13
  217 6467.98 0.00000 5.97514e-13
  218 6467.98 0.00000 5.78008e-13
  219 6467.98 0.00000 -1.65905e-12
  220 6467.98 0.00000 6.80839e-13
  221 6467.98 0.00000 1.34003e-12
  222 6467.98 0.00000 -1.78099e-12
  223 6467.98 0.00000 -5.32830e-13
  224 6467.98 0.00000 -8.14451e-13
  225 6467.98 0.00000 -1.43965e-12
  226 6467.98 0.00000 -3.80814e-13
  227 6467.98 0.00000 -6.16231e-13
  228 6467.98 0.00000 1.55422e-12
  229 6467.98 0.00000 -3.94393e-13
  230 6467.98 0.00000 9.62892e-14
  231 6467.98 0.00000 -2.18956e-13
  232 6467.98 0.00000 -7.10431e-13
  233 6467.98 0.00000 -1.54100e-12
  234 6467.98 0.00000 -3.12895e-13
  235 6467.98 0.00000 -9.58252e-13
  236 6467.98 0.00000 -1.18851e-13
  237 6467.98 0.00000 1.49642e-12
  238 6467.98 0.00000 9.47944e-13
  239 6467.98 0.00000 1.43885e-12
  240 6467.98 0.00000 -7.75935e-13
  241 6467.98 0.00000 -1.23166e-13
</Section>

newXOutput 137

<Section columns = "stress_xx | stress_yy | stress_xy">
  1 6520.21 0.00000 9.96494e-14
  2 6520.21 0.00000 4.24239e-13
  3 6520.21 0.00000 4.68688e-14
  4 6520.21 0.00000 2.15267e-13
  5 6520.21 0.00000 -9.20745e-14
  6 6520.21 0.00000 1.99299e-13
  7 6520.21 0.00000 -5.68761e-13
  8 6520.21 0.00000 -1.05827e-12
  9 6520.21 0.00000 4.41334e-13
  10 6520.21 0.00000 1.92384e-12
  11 6520.21 0.00000 2.39082e-12
  12 6520.21 0.00000 1.87450e-12
  13 6520.21 0.00000 3.18179e-13
  14 6520.21 0.00000 -3.54911e-13
  15 6520.21 0.00000 -6.26455e-14
  16 6520.21 0.00000 -1.19968e-12
  17 6520.21 0.00000 -5.99841e-13
  18 6520.21 0.00000 3.63048e-12
  19 6520.21 0.00000 1.47605e-12
  20 6520.21 0.00000 4.26995e-13
  21 6520.21 0.00000 -2.92712e-12
  22 6520.21 0.00000 -1.51394e-12
  23 6520.21 0.00000 -4.75522e-13
  24 6520.21 0.00000 -6.31089e-28
  25 6520.21 0.00000 -6.36359e-13
  26 6520.21 0.00000 5.85396e-13
  27 6520.21 0.00000 -6.69170e-13
  28 6520.21 0.00000 1.16586e-12
  29 6520.21 0.00000 -3.18179e-13
  30 6520.21 0.00000 -1.02927e-12
  31 6520.21 0.00000 2.71287e-12
  32 6520.21 0.00000 2.70701e-12
  33 6520.21 0.00000 1.48578e-12
  34 6520.21 0.00000 -2.52710e-12
  35 6520.21 0.00000 -5.30725e-13
  36 6520.21 0.00000 1.04609e-13
  37 6520.21 0.00000 -6.70507e-13
  38 6520.21 0.00000 -5.32315e-13
  39 6520.21 0.00000 9.53376e-13
  40 6520.21 0.00000 1.16939e-12
  41 6520.21 0.00000 2.01444e-12
  42 6520.21 0.00000 -1.27303e-12
  43 6520.21 0.00000 -3.19703e-13
  44 6520.21 0.00000 6.97953e-14
  45 6520.21 0.00000 3.00949e-13
  46 6520.21 0.00000 6.97231e-14
  47 6520.21 0.00000 -4.60337e-13
  48 6520.21 0.00000 -8.44864e-13
  49 6520.21 0.00000 -3.44815e-13
  50 6520.21 0.00000 -1.68731e-13
  51 6520.21 0.00000 4.92164e-14
  52 6520.21 0.00000 1.12947e-13
  53 6520.21 0.00000 2.13851e-13
  54 6520.21 0.00000 -9.53379e-16
  55 6520.21 0.00000 -2.12120e-13
  56 6520.21 0.00000 1.78533e-14
  57 6520.21 0.00000 2.33001e-13
  58 6520.21 0.00000 8.84409e-13
  59 6520.21 0.00000 -5.92654e-13
  60 6520.21 0.00000 1.21274e-12
  61 6520.21 0.00000 -7.51179e-13
  62 6520.21 0.00000 -8.00600e-13
  63 6520.21 0.00000 6.14448e-13
  64 6520.21 0.00000 1.68065e-12
  65 6520.21 0.00000 4.27518e-13
  66 6520.21 0.00000 3.26727e-13
  67 6520.21 0.00000 8.45178e-13
  68 6520.21 0.00000 4.03331e-13
  69 6520.21 0.00000 -1.26133e-12
  70 6520.21 0.00000 -4.90911e-13
  71 6520.21 0.00000 -2.23987e-13
  72 6520.21 0.00000 7.28633e-14
  73 6520.21 0.00000 -6.06784e-13
  74 6520.21 0.00000 -1.04569e-12
  75 6520.21 0.00000 -1.21135e-12
  76 6520.21 0.00000 -2.67799e-13
  77 6520.21 0.00000 2.46693e-14
  78 6520.21 0.00000 -1.49370e-12
  79 6520.21 0.00000 6.16751e-15
  80 6520.21 0.00000 -1.29799e-12
  81 6520.21 0.00000 -1.49296e-12
  82 6520.21 0.00000 -1.21202e-12
  83 6520.21 0.00000 3.01814e-13
  84 6520.21 0.00000 -3.52368e-13
  85 6520.21 0.00000 2.93869e-12
  86 6520.21 0.00000 -3.28124e-12
  87 6520.21 0.00000 -5.44160e-13
  88 6520.21 0.00000 -1.51059e-13
  89 6520.21 0.00000 -1.95337e-13
  90 6520.21 0.00000 -9.40836e-13
  91 6520.21 0.00000 -1.26479e-12
  92 6520.21 0.00000 -3.61722e-13
  93 6520.21 0.00000 -7.02765e-13
  94 6520.21 0.00000 1.32434e-14
  95 6520.21 0.00000 -7.06248e-13
  96 6520.21 0.00000 -1.50024e-12
  97 6520.21 0.00000 -1.53669e-12
  98 6520.21 0.00000 -9.95734e-13
  99 6520.21 0.00000 1.39344e-12
  100 6520.21 0.00000 4.31932e-13
  101 6520.21 0.00000 1.55682e-13
  102 6520.21 0.00000 1.21663e-12
  103 6520.21 0.00000 1.04383e-13
  104 6520.21 0.00000 -4.61112e-13
  105 6520.21 0.00000 -1.91526e-12
  106 6520.21 0.00000 -7.15719e-13
  107 6520.21 0.00000 5.57998e-12
  108 6520.21 0.00000 2.50793e-13
  109 6520.21 0.00000 -1.75587e-13
  110 6520.21 0.00000 4.28776e-12
  111 6520.21 0.00000 -1.42496e-13
  112 6520.21 0.00000 6.84066e-13
  113 6520.21 0.00000 -8.92081e-13
  114 6520.21 0.00000 -1.58706e-12
  115 6520.21 0.00000 -7.66420e-13
  116 6520.21 0.00000 -3.70161e-13
  117 6520.21 0.00000 2.10841e-12
  118 6520.21 0.00000 -4.63536e-13
  119 6520.21 0.00000 1.26523e-12
  120 6520.21 0.00000 -9.52015e-13
  121 6520.21 0.00000 -1.57553e-13
  122 6520.21 0.00000 6.10901e-13
  123 6520.21 0.00000 -8.55581e-13
  124 6520.21 0.00000 2.02254e-12
  125 6520.21 0.00000 1.79364e-13
  126 6520.21 0.00000 -4.49206e-13
  127 6520.21 0.00000 1.02791e-13
  128 6520.21 0.00000 -7.87291e-13
  129 6520.21 0.00000 -1.00941e-13
  130 6520.21 0.00000 -9.12089e-14
  131 6520.21 0.00000 -5.72003e-14
  132 6520.21 0.00000 -1.68348e-12
  133 6520.21 0.00000 1.50988e-12
  134 6520.21 0.00000 -6.25311e-13
  135 6520.21 0.00000 -1.31450e-12
  136 6520.21 0.00000 -7.67267e-13
  137 6520.21 0.00000 1.76977e-13
  138 6520.21 0.00000 8.09444e-13
  139 6520.21 0.00000 -6.76065e-14
  140 6520.21 0.00000 5.79568e-13
  141 6520.21 0.00000 4.90672e-13
  142 6520.21 0.00000 2.80773e-14
  143 6520.21 0.00000 -1.05773e-12
  144 6520.21 0.00000 -7.02161e-13
  145 6520.21 0.00000 -7.36104e-13
  146 6520.21 0.00000 -5.31394e-13
  147 6520.21 0.00000 -5.49420e-13
  148 6520.21 0.00000 -1.88086e-13
  149 6520.21 0.00000 -5.32312e-13
  150 6520.21 0.00000 -1.18801e-12
  151 6520.21 0.00000 -1.97958e-13
  152 6520.21 0.00000 -2.94605e-13
  153 6520.21 0.00000 -1.27304e-12
  154 6520.21 0.00000 -9.97917e-13
  155 6520.21 0.00000 7.05663e-13
  156 6520.21 0.00000 1.44323e-12
  157 6520.21 0.00000 6.00496e-14
  158 6520.21 0.00000 -2.04710e-12
  159 6520.21 0.00000 -2.25922e-12
  160 6520.21 0.00000 2.24940e-13
  161 6520.21 0.00000 -6.78084e-13
  162 6520.21 0.00000 1.14703e-12
  163 6520.21 0.00000 -6.35937e-13
  164 6520.21 0.00000 1.89771e-12
  165 6520.21 0.00000 1.77084e-13
  166 6520.21 0.00000 -4.81939e-13
  167 6520.21 0.00000 1.15169e-12
  168 6520.21 0.00000 -1.68982e-13
  169 6520.21 0.00000 -1.20886e-13
  170 6520.21 0.00000 -1.43444e-12
  171 6520.21 0.00000 8.83521e-13
  172 6520.21 0.00000 -3.72587e-13
  173 6520.21 0.00000 -2.29647e-13
  174 6520.21 0.00000 3.21764e-13
  175 6520.21 0.00000 -2.04517e-13
  176 6520.21 0.00000 -1.45307e-13
  177 6520.21 0.00000 -5.88774e-13
  178 6520.21 0.00000 -3.20613e-13
  179 6520.21 0.00000 -9.89738e-13
  180 6520.21 0.00000 2.13951e-13
  181 6520.21 0.00000 -1.67460e-13
  182 6520.21 0.00000 -1.24887e-13
  183 6520.21 0.00000 -2.11187e-12
  184 6520.21 0.00000 2.38308e-12
  185 6520.21 0.00000 3.34788e-13
  186 6520.21 0.00000 -9.33670e-14
  187 6520.21 0.00000 2.27810e-12
  188 6520.21 0.00000 -1.10756e-12
  189 6520.21 0.00000 2.59672e-13
  190 6520.21 0.00000 -1.05494e-12
  191 6520.21 0.00000 3.76794e-13
  192 6520.21 0.00000 1.27637e-12
  193 6520.21 0.00000 -1.32009e-12
  194 6520.21 0.00000 1.39471e-12
  195 6520.21 0.00000 -6.09474e-14
  196 6520.21 0.00000 1.05040e-12
  197 6520.21 0.00000 1.41413e-13
  198 6520.21 0.00000 4.05291e-13
  199 6520.21 0.00000 7.66308e-14
  200 6520.21 0.00000 3.68012e-14
  201 6520.21 0.00000 -9.55069e-13
  202 6520.21 0.00000 2.30979e-13
  203 6520.21 0.00000 -3.21005e-13
  204 6520.21 0.00000 3.27521e-13
  205 6520.21 0.00000 2.31351e-13
  206 6520.21 0.00000 1.65339e-15
  207 6520.21 0.00000 -2.76127e-13
  208 6520.21 0.00000 -2.10919e-12
  209 6520.21 0.00000 -3.37448e-12
  210 6520.21 0.00000 -7.05271e-13
  211 6520.21 0.00000 -1.75324e-13
  212 6520.21 0.00000 -2.49415e-13
  213 6520.21 0.00000 -1.97306e-13
  214 6520.21 0.00000 -9.21816e-13
  215 6520.21 0.00000 1.23250e-12
  216 6520.21 0.00000 -2.31087e-12
  217 6520.21 0.00000 -1.39708e-12
  218 6520.21 0.00000 -7.05274e-13
  219 6520.21 0.00000 -8.26237e-14
  220 6520.21 0.00000 -8.04968e-13
  221 6520.21 0.00000 -4.96430e-13
  222 6520.21 0.00000 2.17848e-12
  223 6520.21 0.00000 6.33795e-13
  224 6520.21 0.00000 -5.95314e-13
  225 6520.21 0.00000 -1.47823e-12
  226 6520.21 0.00000 2.51979e-13
  227 6520.21 0.00000 1.33255e-12
  228 6520.21 0.00000 9.09192e-13
  229 6520.21 0.00000 -1.35489e-13
  230 6520.21 0.00000 2.19905e-12
  231 6520.21 0.00000 -8.68421e-13
  232 6520.21 0.00000 3.63216e-13
  233 6520.21 0.00000 3.87770e-13
  234 6520.21 0.00000 -1.35029e-12
  235 6520.21 0.00000 -6.60056e-14
  236 6520.21 0.00000 2.51163e-13
  237 6520.21 0.00000 1.46820e-14
  238 6520.21 0.00000 -9.12370e-13
  239 6520.21 0.00000 1.47424e-12
  240 6520.21 0.00000 9.34493e-13
  241 6520.21 0.00000 1.65443e-12
</Section>

newXOutput 138

<Section columns = "stress_xx | stress_yy | stress_xy">
  1 6572.56 0.00000 -3.02276e-14
  2 6572.56 0.00000 -1.09294e-12
  3 6572.56 0.00000 4.75102e-14
  4 6572.56 0.00000 -4.05271e-13
  5 6572.56 0.00000 -5.46766e-13
  6 6572.56 0.00000 -1.51138e-14
  7 6572.56 0.00000 -1.51138e-14
  8 6572.56 0.00000 -5.94177e-13
  9 6572.56 0.00000 -1.22143e-12
  10 6572.56 0.00000 -8.38173e-13
  11 6572.56 0.00000 -4.41307e-13
  12 6572.56 0.00000 4.34200e-13
  13 6572.56 0.00000 -5.02476e-13
  14 6572.56 0.00000 -4.99355e-13
  15 6572.56 0.00000 -3.48321e-13
  16 6572.56 0.00000 7.82533e-13
  17 6572.56 0.00000 3.34679e-13
  18 6572.56 0.00000 -1.30618e-12
  19 6572.56 0.00000 -5.15368e-13
  20 6572.56 0.00000 -1.98589e-12
  21 6572.56 0.00000 -3.58645e-12
  22 6572.56 0.00000 3.10070e-12
  23 6572.56 0.00000 1.44915e-12
  24 6572.56 0.00000 -1.02490e-13
  25 6572.56 0.00000 2.10578e-13
  26 6572.56 0.00000 -2.40554e-12
  27 6572.56 0.00000 2.46896e-12
  28 6572.56 0.00000 -2.04438e-12
  29 6572.56 0.00000 0.00000
  30 6572.56 0.00000 1.02401e-12
  31 6572.56 0.00000 -3.82613e-12
  32 6572.56 0.00000 -9.83822e-12
  33 6572.56 0.00000 -4.40956e-13
  34 6572.56 0.00000 -2.52632e-12
  35 6572.56 0.00000 -2.73016e-12
  36 6572.56 0.00000 -3.25273e-12
  37 6572.56 0.00000 -2.28678e-12
  38 6572.56 0.00000 -7.01839e-13
  39 6572.56 0.00000 1.09865e-12
  40 6572.56 0.00000 5.69483e-13
  41 6572.56 0.00000 1.79222e-12
  42 6572.56 0.00000 1.80411e-12
  43 6572.56 0.00000 5.98801e-13
  44 6572.56 0.00000 4.37201e-13
  45 6572.56 0.00000 1.35695e-15
  46 6572.56 0.00000 -8.29524e-13
  47 6572.56 0.00000 -9.79578e-13
  48 6572.56 0.00000 -6.13228e-13
  49 6572.56 0.00000 -7.27353e-13
  50 6572.56 0.00000 3.34163e-14
  51 6572.56 0.00000 0.00000
  52 6572.56 0.00000 5.02826e-14
  53 6572.56 0.00000 8.30678e-14
  54 6572.56 0.00000 0.00000
  55 6572.56 0.00000 0.00000
  56 6572.56 0.00000 6.01167e-14
  57 6572.56 0.00000 1.11221e-13
  58 6572.56 0.00000 1.41155e-12
  59 6572.56 0.00000 7.45110e-13
  60 6572.56 0.00000 -2.62031e-12
  61 6572.56 0.00000 3.05080e-14
  62 6572.56 0.00000 9.52717e-13
  63 6572.56 0.00000 1.21863e-12
  64 6572.56 0.00000 -5.40184e-12
  65 6572.56 0.00000 2.78783e-13
  66 6572.56 0.00000 -5.56107e-14
  67 6572.56 0.00000 -1.31993e-12
  68 6572.56 0.00000 3.40887e-13
  69 6572.56 0.00000 1.13674e-12
  70 6572.56 0.00000 6.02129e-13
  71 6572.56 0.00000 9.56325e-14
  72 6572.56 0.00000 3.38949e-13
  73 6572.56 0.00000 -8.27899e-13
  74 6572.56 0.00000 3.87591e-13
  75 6572.56 0.00000 1.30918e-12
  76 6572.56 0.00000 2.15973e-12
  77 6572.56 0.00000 2.63307e-13
  78 6572.56 0.00000 9.18203e-15
  79 6572.56 0.00000 -1.97215e-13
  80 6572.56 0.00000 1.01603e-12
  81 6572.56 0.00000 -1.27318e-12
  82 6572.56 0.00000 3.04755e-12
  83 6572.56 0.00000 -1.03344e-12
  84 6572.56 0.00000 -6.50096e-13
  85 6572.56 0.00000 -2.27290e-12
  86 6572.56 0.00000 8.91186e-13
  87 6572.56 0.00000 -2.30059e-13
  88 6572.56 0.00000 9.04837e-13
  89 6572.56 0.00000 -1.64668e-13
  90 6572.56 0.00000 -4.21465e-13
  91 6572.56 0.00000 1.96369e-12
  92 6572.56 0.00000 -8.20149e-14
  93 6572.56 0.00000 1.14125e-12
  94 6572.56 0.00000 -2.25772e-12
  95 6572.56 0.00000 1.35900e-13
  96 6572.56 0.00000 4.93252e-13
  97 6572.56 0.00000 1.00457e-12
  98 6572.56 0.00000 1.76354e-13
  99 6572.56 0.00000 9.58685e-13
  100 6572.56 0.00000 3.12171e-13
  101 6572.56 0.00000 -4.57456e-13
  102 6572.56 0.00000 1.80553e-13
  103 6572.56 0.00000 -1.58013e-12
  104 6572.56 0.00000 1.52712e-13
  105 6572.56 0.00000 1.08681e-12
  106 6572.56 0.00000 5.41728e-13
  107 6572.56 0.00000 -1.42571e-12
  108 6572.56 0.00000 5.55481e-14
  109 6572.56 0.00000 -5.11839e-14
  110 6572.56 0.00000 -3.74861e-12
  111 6572.56 0.00000 5.59889e-13
  112 6572.56 0.00000 7.57764e-13
  113 6572.56 0.00000 1.27933e-12
  114 6572.56 0.00000 1.25114e-12
  115 6572.56 0.00000 4.94827e-13
  116 6572.56 0.00000 -6.48629e-13
  117 6572.56 0.00000 -3.51978e-12
  118 6572.56 0.00000 5.48606e-13
  119 6572.56 0.00000 -2.81684e-13
  120 6572.56 0.00000 7.52336e-13
  121 6572.56 0.00000 -2.14035e-13
  122 6572.56 0.00000 -1.68854e-12
  123 6572.56 0.00000 1.71810e-12
  124 6572.56 0.00000 -1.28145e-12
  125 6572.56 0.00000 1.19073e-12
  126 6572.56 0.00000 -2.85054e-13
  127 6572.56 0.00000 3.61449e-13
  128 6572.56 0.00000 4.92566e-13
  129 6572.56 0.00000 2.87690e-13
  130 6572.56 0.00000 -2.29610e-13
  131 6572.56 0.00000 -7.58687e-13
  132 6572.56 0.00000 5.57399e-13
  133 6572.56 0.00000 -1.79716e-12
  134 6572.56 0.00000 3.17499e-13
  135 6572.56 0.00000 1.41151e-12
  136 6572.56 0.00000 -2.96772e-13
  137 6572.56 0.00000 1.09256e-12
  138 6572.56 0.00000 5.97592e-13
  139 6572.56 0.00000 2.19790e-13
  140 6572.56 0.00000 -8.51482e-13
  141 6572.56 0.00000 -7.20763e-13
  142 6572.56 0.00000 -8.41446e-13
  143 6572.56 0.00000 4.89070e-13
  144 6572.56 0.00000 1.74187e-12
  145 6572.56 0.00000 1.11413e-12
  146 6572.56 0.00000 3.14144e-13
  147 6572.56 0.00000 5.87439e-14
  148 6572.56 0.00000 1.54380e-13
  149 6572.56 0.00000 1.64470e-12
  150 6572.56 0.00000 2.60073e-13
  151 6572.56 0.00000 -3.71115e-13
  152 6572.56 0.00000 -1.49658e-12
  153 6572.56 0.00000 1.69157e-12
  154 6572.56 0.00000 1.68255e-12
  155 6572.56 0.00000 -1.20311e-12
  156 6572.56 0.00000 -4.75687e-13
  157 6572.56 0.00000 6.45071e-14
  158 6572.56 0.00000 -5.75680e-13
  159 6572.56 0.00000 -8.10248e-13
  160 6572.56 0.00000 2.28714e-13
  161 6572.56 0.00000 7.88385e-13
  162 6572.56 0.00000 -5.29133e-13
  163 6572.56 0.00000 -1.15054e-12
  164 6572.56 0.00000 -4.49584e-13
  165 6572.56 0.00000 -6.55196e-14
  166 6572.56 0.00000 -7.03915e-14
  167 6572.56 0.00000 1.10745e-12
  168 6572.56 0.00000 -7.69679e-13
  169 6572.56 0.00000 3.47116e-14
  170 6572.56 0.00000 -2.96452e-13
  171 6572.56 0.00000 -2.01821e-13
  172 6572.56 0.00000 -3.41421e-13
  173 6572.56 0.00000 1.14003e-12
  174 6572.56 0.00000 -1.88107e-12
  175 6572.56 0.00000 -3.45642e-13
  176 6572.56 0.00000 -2.13266e-13
  177 6572.56 0.00000 -2.12989e-13
  178 6572.56 0.00000 -2.44500e-13
  179 6572.56 0.00000 -4.75902e-13
  180 6572.56 0.00000 -2.46251e-13
  181 6572.56 0.00000 -2.36437e-13
  182 6572.56 0.00000 -2.82162e-13
  183 6572.56 0.00000 1.47993e-12
  184 6572.56 0.00000 -9.25870e-13
  185 6572.56 0.00000 1.09682e-13
  186 6572.56 0.00000 -5.31350e-13
  187 6572.56 0.00000 -1.85797e-12
  188 6572.56 0.00000 4.07631e-13
  189 6572.56 0.00000 -1.58152e-13
  190 6572.56 0.00000 1.17833e-12
  191 6572.56 0.00000 3.91267e-13
  192 6572.56 0.00000 7.44347e-13
  193 6572.56 0.00000 -6.26722e-13
  194 6572.56 0.00000 -8.01312e-13
  195 6572.56 0.00000 1.11334e-13
  196 6572.56 0.00000 -2.77758e-12
  197 6572.56 0.00000 -1.93395e-14
  198 6572.56 0.00000 -4.30366e-13
  199 6572.56 0.00000 4.25019e-13
  200 6572.56 0.00000 -1.67456e-12
  201 6572.56 0.00000 1.29577e-12
  202 6572.56 0.00000 3.46767e-13
  203 6572.56 0.00000 -4.63529e-13
  204 6572.56 0.00000 2.63871e-13
  205 6572.56 0.00000 -1.31513e-13
  206 6572.56 0.00000 -1.98253e-12
  207 6572.56 0.00000 -1.79824e-13
  208 6572.56 0.00000 -6.41140e-13
  209 6572.56 0.00000 8.59833e-13
  210 6572.56 0.00000 -1.70642e-13
  211 6572.56 0.00000 -5.80110e-13
  212 6572.56 0.00000 2.70266e-13
  213 6572.56 0.00000 -5.92993e-13
  214 6572.56 0.00000 -1.62344e-13
  215 6572.56 0.00000 -1.67092e-12
  216 6572.56 0.00000 2.26987e-12
  217 6572.56 0.00000 -1.69409e-13
  218 6572.56 0.00000 -4.49599e-13
  219 6572.56 0.00000 -1.11231e-12
  220 6572.56 0.00000 8.21464e-13
  221 6572.56 0.00000 1.72666e-12
  222 6572.56 0.00000 -2.52761e-13
  223 6572.56 0.00000 -4.36977e-13
  224 6572.56 0.00000 6.61961e-13
  225 6572.56 0.00000 -4.92040e-14
  226 6572.56 0.00000 1.24331e-13
  227 6572.56 0.00000 5.06631e-13
  228 6572.56 0.00000 1.21739e-12
  229 6572.56 0.00000 6.58267e-14
  230 6572.56 0.00000 3.08564e-13
  231 6572.56 0.00000 2.17865e-13
  232 6572.56 0.00000 4.11484e-13
  233 6572.56 0.00000 -3.07701e-12
  234 6572.56 0.00000 5.78139e-13
  235 6572.56 0.00000 2.47186e-13
  236 6572.56 0.00000 -7.40046e-13
  237 6572.56 0.00000 8.37105e-13
  238 6572.56 0.00000 1.55568e-13
  239 6572.56 0.00000 3.31711e-13
  240 6572.56 0.00000 -4.32910e-13
  241 6572.56 0.00000 -2.05241e-12
</Section>

newXOutput 139

<Section columns = "stress_xx | stress_yy | stress_xy">
  1 6625.05 0.00000 -1.13225e-13
  2 6625.05 0.00000 -1.39353e-12
  3 6625.05 0.00000 4.09317e-13
  4 6625.05 0.00000 5.17353e-14
  5 6625.05 0.00000 -1.36603e-13
  6 6625.05 0.00000 -7.42616e-14
  7 6625.05 0.00000 -1.13225e-13
  8 6625.05 0.00000 9.59255e-28
  9 6625.05 0.00000 1.87271e-12
  10 6625.05 0.00000 3.80044e-12
  11 6625.05 0.00000 8.15951e-13
  12 6625.05 0.00000 -1.38467e-12
  13 6625.05 0.00000 9.14506e-13
  14 6625.05 0.00000 2.39834e-12
  15 6625.05 0.00000 4.13704e-13
  16 6625.05 0.00000 -1.66369e-12
  17 6625.05 0.00000 -5.57416e-13
  18 6625.05 0.00000 2.49980e-12
  19 6625.05 0.00000 9.66917e-13
  20 6625.05 0.00000 4.18062e-13
  21 6625.05 0.00000 2.02674e-12
  22 6625.05 0.00000 1.23706e-12
  23 6625.05 0.00000 -7.43219e-13
  24 6625.05 0.00000 1.39354e-13
  25 6625.05 0.00000 -5.70250e-13
  26 6625.05 0.00000 -9.28487e-13
  27 6625.05 0.00000 -1.71135e-13
  28 6625.05 0.00000 1.06372e-12
  29 6625.05 0.00000 0.00000
  30 6625.05 0.00000 -7.28397e-13
  31 6625.05 0.00000 9.32229e-13
  32 6625.05 0.00000 2.13545e-13
  33 6625.05 0.00000 -1.38987e-13
  34 6625.05 0.00000 -6.74626e-14
  35 6625.05 0.00000 4.73037e-13
  36 6625.05 0.00000 2.23969e-12
  37 6625.05 0.00000 2.06948e-12
  38 6625.05 0.00000 2.36351e-12
  39 6625.05 0.00000 -1.26199e-12
  40 6625.05 0.00000 -2.22729e-12
  41 6625.05 0.00000 -8.96288e-13
  42 6625.05 0.00000 -6.90069e-13
  43 6625.05 0.00000 -5.44674e-13
  44 6625.05 0.00000 7.68771e-13
  45 6625.05 0.00000 1.79466e-14
  46 6625.05 0.00000 -2.34803e-15
  47 6625.05 0.00000 -1.10531e-13
  48 6625.05 0.00000 6.41289e-14
  49 6625.05 0.00000 -4.47652e-14
  50 6625.05 0.00000 1.14753e-13
  51 6625.05 0.00000 0.00000
  52 6625.05 0.00000 5.91917e-14
  53 6625.05 0.00000 -3.07738e-13
  54 6625.05 0.00000 3.60302e-13
  55 6625.05 0.00000 3.04375e-13
  56 6625.05 0.00000 2.02917e-13
  57 6625.05 0.00000 2.46540e-13
  58 6625.05 0.00000 -6.37176e-13
  59 6625.05 0.00000 1.15110e-12
  60 6625.05 0.00000 1.55748e-12
  61 6625.05 0.00000 -1.58377e-13
  62 6625.05 0.00000 -4.00260e-13
  63 6625.05 0.00000 1.42837e-12
  64 6625.05 0.00000 5.60535e-12
  65 6625.05 0.00000 -5.61521e-13
  66 6625.05 0.00000 1.67429e-13
  67 6625.05 0.00000 4.34390e-12
  68 6625.05 0.00000 -2.62909e-12
  69 6625.05 0.00000 1.10670e-12
  70 6625.05 0.00000 1.57221e-12
  71 6625.05 0.00000 3.53736e-14
  72 6625.05 0.00000 1.18090e-12
  73 6625.05 0.00000 7.54787e-13
  74 6625.05 0.00000 -5.06670e-13
  75 6625.05 0.00000 3.39856e-13
  76 6625.05 0.00000 -1.83911e-12
  77 6625.05 0.00000 3.91941e-14
  78 6625.05 0.00000 2.31157e-12
  79 6625.05 0.00000 1.88631e-13
  80 6625.05 0.00000 7.71484e-13
  81 6625.05 0.00000 4.94934e-13
  82 6625.05 0.00000 -7.62094e-14
  83 6625.05 0.00000 1.04229e-12
  84 6625.05 0.00000 7.91044e-13
  85 6625.05 0.00000 2.47965e-12
  86 6625.05 0.00000 2.64343e-13
  87 6625.05 0.00000 1.40604e-13
  88 6625.05 0.00000 -2.69269e-12
  89 6625.05 0.00000 2.91085e-13
  90 6625.05 0.00000 -2.35312e-13
  91 6625.05 0.00000 -1.10768e-12
  92 6625.05 0.00000 -1.27437e-13
  93 6625.05 0.00000 -1.87650e-12
  94 6625.05 0.00000 -1.03452e-12
  95 6625.05 0.00000 1.49346e-13
  96 6625.05 0.00000 5.78653e-13
  97 6625.05 0.00000 3.35330e-12
  98 6625.05 0.00000 5.68094e-13
  99 6625.05 0.00000 4.60232e-13
  100 6625.05 0.00000 -1.84644e-13
  101 6625.05 0.00000 7.51773e-13
  102 6625.05 0.00000 8.34653e-13
  103 6625.05 0.00000 2.09855e-12
  104 6625.05 0.00000 5.45126e-13
  105 6625.05 0.00000 3.30506e-13
  106 6625.05 0.00000 -4.02936e-13
  107 6625.05 0.00000 -2.70610e-13
  108 6625.05 0.00000 -3.08250e-14
  109 6625.05 0.00000 2.74489e-13
  110 6625.05 0.00000 5.64038e-12
  111 6625.05 0.00000 2.12156e-13
  112 6625.05 0.00000 1.12001e-13
  113 6625.05 0.00000 1.17459e-13
  114 6625.05 0.00000 7.03020e-14
  115 6625.05 0.00000 9.15615e-13
  116 6625.05 0.00000 4.37313e-13
  117 6625.05 0.00000 2.96051e-12
  118 6625.05 0.00000 -4.90306e-13
  119 6625.05 0.00000 7.26758e-13
  120 6625.05 0.00000 -9.04576e-14
  121 6625.05 0.00000 2.39481e-13
  122 6625.05 0.00000 1.32230e-12
  123 6625.05 0.00000 2.81000e-12
  124 6625.05 0.00000 3.43897e-13
  125 6625.05 0.00000 -3.04319e-13
  126 6625.05 0.00000 3.11080e-13
  127 6625.05 0.00000 -2.05102e-13
  128 6625.05 0.00000 2.39102e-12
  129 6625.05 0.00000 -1.45141e-13
  130 6625.05 0.00000 9.00142e-13
  131 6625.05 0.00000 8.15602e-14
  132 6625.05 0.00000 -7.55294e-13
  133 6625.05 0.00000 1.89150e-12
  134 6625.05 0.00000 -6.17791e-13
  135 6625.05 0.00000 2.34335e-12
  136 6625.05 0.00000 1.28245e-13
  137 6625.05 0.00000 2.93216e-12
  138 6625.05 0.00000 -1.15960e-12
  139 6625.05 0.00000 3.33387e-13
  140 6625.05 0.00000 -1.71522e-12
  141 6625.05 0.00000 1.68897e-12
  142 6625.05 0.00000 1.15700e-12
  143 6625.05 0.00000 -1.60571e-13
  144 6625.05 0.00000 2.43422e-12
  145 6625.05 0.00000 -1.08635e-12
  146 6625.05 0.00000 1.12317e-13
  147 6625.05 0.00000 -2.94151e-13
  148 6625.05 0.00000 -3.40438e-13
  149 6625.05 0.00000 7.09768e-13
  150 6625.05 0.00000 1.19413e-12
  151 6625.05 0.00000 8.02657e-13
  152 6625.05 0.00000 1.33700e-12
  153 6625.05 0.00000 -3.03156e-13
  154 6625.05 0.00000 1.09630e-12
  155 6625.05 0.00000 2.20001e-12
  156 6625.05 0.00000 2.72554e-12
  157 6625.05 0.00000 -5.63177e-13
  158 6625.05 0.00000 -2.11935e-12
  159 6625.05 0.00000 1.18788e-12
  160 6625.05 0.00000 -7.82933e-14
  161 6625.05 0.00000 -4.28331e-13
  162 6625.05 0.00000 7.96888e-13
  163 6625.05 0.00000 1.09542e-12
  164 6625.05 0.00000 4.33254e-13
  165 6625.05 0.00000 8.82416e-14
  166 6625.05 0.00000 1.20172e-14
  167 6625.05 0.00000 -1.55477e-12
  168 6625.05 0.00000 7.12431e-13
  169 6625.05 0.00000 4.77717e-13
  170 6625.05 0.00000 4.68818e-12
  171 6625.05 0.00000 -7.71432e-14
  172 6625.05 0.00000 -9.71820e-14
  173 6625.05 0.00000 -2.00095e-14
  174 6625.05 0.00000 1.96288e-12
  175 6625.05 0.00000 1.60370e-13
  176 6625.05 0.00000 -3.34630e-14
  177 6625.05 0.00000 -7.09995e-13
  178 6625.05 0.00000 -4.49501e-13
  179 6625.05 0.00000 3.93674e-13
  180 6625.05 0.00000 3.93043e-13
  181 6625.05 0.00000 8.99089e-13
  182 6625.05 0.00000 1.22012e-12
  183 6625.05 0.00000 -8.09993e-13
  184 6625.05 0.00000 1.08367e-12
  185 6625.05 0.00000 3.25730e-13
  186 6625.05 0.00000 5.59231e-14
  187 6625.05 0.00000 -1.09193e-12
  188 6625.05 0.00000 1.36152e-14
  189 6625.05 0.00000 1.14875e-13
  190 6625.05 0.00000 -2.25786e-13
  191 6625.05 0.00000 1.79116e-13
  192 6625.05 0.00000 -1.86000e-14
  193 6625.05 0.00000 9.45369e-13
  194 6625.05 0.00000 -1.11637e-12
  195 6625.05 0.00000 -3.50808e-13
  196 6625.05 0.00000 4.09220e-12
  197 6625.05 0.00000 3.57169e-13
  198 6625.05 0.00000 1.39965e-12
  199 6625.05 0.00000 -1.43939e-13
  200 6625.05 0.00000 -3.11132e-12
  201 6625.05 0.00000 8.43441e-14
  202 6625.05 0.00000 3.76253e-13
  203 6625.05 0.00000 -1.37979e-13
  204 6625.05 0.00000 7.99869e-13
  205 6625.05 0.00000 3.19582e-13
  206 6625.05 0.00000 3.12007e-12
  207 6625.05 0.00000 2.11024e-13
  208 6625.05 0.00000 -8.79405e-13
  209 6625.05 0.00000 -1.16588e-12
  210 6625.05 0.00000 6.96190e-14
  211 6625.05 0.00000 -8.08087e-14
  212 6625.05 0.00000 4.09079e-12
  213 6625.05 0.00000 7.52388e-14
  214 6625.05 0.00000 5.75538e-13
  215 6625.05 0.00000 6.41712e-13
  216 6625.05 0.00000 -2.09535e-13
  217 6625.05 0.00000 7.16173e-13
  218 6625.05 0.00000 -2.41472e-13
  219 6625.05 0.00000 1.40233e-12
  220 6625.05 0.00000 9.30543e-14
  221 6625.05 0.00000 -2.03057e-12
  222 6625.05 0.00000 1.97419e-12
  223 6625.05 0.00000 1.22448e-12
  224 6625.05 0.00000 -4.16227e-13
  225 6625.05 0.00000 1.83362e-13
  226 6625.05 0.00000 -2.47565e-14
  227 6625.05 0.00000 -1.27192e-12
  228 6625.05 0.00000 -6.00687e-13
  229 6625.05 0.00000 1.72740e-13
  230 6625.05 0.00000 3.49333e-12
  231 6625.05 0.00000 1.34293e-12
  232 6625.05 0.00000 -7.68462e-13
  233 6625.05 0.00000 7.08324e-12
  234 6625.05 0.00000 2.69653e-13
  235 6625.05 0.00000 -6.13464e-13
  236 6625.05 0.00000 5.90518e-13
  237 6625.05 0.00000 -5.69189e-13
  238 6625.05 0.00000 1.40930e-12
  239 6625.05 0.00000 4.83767e-12
  240 6625.05 0.00000 2.78522e-13
  241 6625.05 0.00000 1.46321e-12
</Section>

newXOutput 140

<Section columns = "stress_xx | stress_yy | stress_xy">
  1 6677.66 0.00000 -4.54426e-13
  2 6677.66 0.00000 2.79826e-12
  3 6677.66 0.00000 -1.23514e-12
  4 6677.66 0.00000 -1.85722e-13
  5 6677.66 0.00000 -5.56530e-13
  6 6677.66 0.00000 7.40584e-14
  7 6677.66 0.00000 -3.30953e-13
  8 6677.66 0.00000 -1.50160e-12
  9 6677.66 0.00000 -1.71728e-12
  10 6677.66 0.00000 -2.52403e-12
  11 6677.66 0.00000 -1.71728e-12
  12 6677.66 0.00000 -8.31543e-13
  13 6677.66 0.00000 -2.60191e-12
  14 6677.66 0.00000 -2.70025e-12
  15 6677.66 0.00000 -1.33341e-13
  16 6677.66 0.00000 3.77063e-13
  17 6677.66 0.00000 -3.16783e-12
  18 6677.66 0.00000 -2.83857e-12
  19 6677.66 0.00000 3.76279e-12
  20 6677.66 0.00000 8.87949e-12
  21 6677.66 0.00000 2.37477e-12
  22 6677.66 0.00000 -1.97583e-12
  23 6677.66 0.00000 2.02527e-13
  24 6677.66 0.00000 -3.19359e-13
  25 6677.66 0.00000 0.00000
  26 6677.66 0.00000 -4.18576e-13
  27 6677.66 0.00000 2.91814e-12
  28 6677.66 0.00000 -5.75429e-13
  29 6677.66 0.00000 0.00000
  30 6677.66 0.00000 7.69726e-13
  31 6677.66 0.00000 -9.72068e-13
  32 6677.66 0.00000 -2.69441e-12
  33 6677.66 0.00000 -1.59374e-12
  34 6677.66 0.00000 -3.10221e-12
  35 6677.66 0.00000 4.01706e-13
  36 6677.66 0.00000 5.48790e-13
  37 6677.66 0.00000 -4.52190e-13
  38 6677.66 0.00000 1.98146e-12
  39 6677.66 0.00000 1.93271e-12
  40 6677.66 0.00000 8.08628e-13
  41 6677.66 0.00000 2.78997e-12
  42 6677.66 0.00000 2.24386e-12
  43 6677.66 0.00000 7.96245e-13
  44 6677.66 0.00000 7.15322e-14
  45 6677.66 0.00000 2.61908e-13
  46 6677.66 0.00000 -5.74359e-13
  47 6677.66 0.00000 -4.88863e-13
  48 6677.66 0.00000 -3.45663e-13
  49 6677.66 0.00000 -4.85553e-13
  50 6677.66 0.00000 1.56449e-13
  51 6677.66 0.00000 0.00000
  52 6677.66 0.00000 -6.77071e-14
  53 6677.66 0.00000 2.46894e-13
  54 6677.66 0.00000 -3.17372e-13
  55 6677.66 0.00000 -4.71802e-13
  56 6677.66 0.00000 -1.86055e-13
  57 6677.66 0.00000 -1.17714e-13
  58 6677.66 0.00000 1.85068e-12
  59 6677.66 0.00000 8.31900e-13
  60 6677.66 0.00000 -8.64422e-13
  61 6677.66 0.00000 4.37195e-13
  62 6677.66 0.00000 -7.22383e-13
  63 6677.66 0.00000 8.77279e-13
  64 6677.66 0.00000 1.44224e-12
  65 6677.66 0.00000 6.29543e-13
  66 6677.66 0.00000 3.87770e-13
  67 6677.66 0.00000 -2.34969e-12
  68 6677.66 0.00000 1.75631e-12
  69 6677.66 0.00000 -9.58074e-13
  70 6677.66 0.00000 -2.45543e-12
  71 6677.66 0.00000 -6.77979e-13
  72 6677.66 0.00000 6.81294e-13
  73 6677.66 0.00000 2.37756e-13
  74 6677.66 0.00000 5.96113e-13
  75 6677.66 0.00000 -6.88519e-13
  76 6677.66 0.00000 2.88324e-12
  77 6677.66 0.00000 3.85267e-13
  78 6677.66 0.00000 -1.75572e-13
  79 6677.66 0.00000 -7.53606e-13
  80 6677.66 0.00000 1.56332e-12
  81 6677.66 0.00000 -5.14564e-13
  82 6677.66 0.00000 -5.05157e-13
  83 6677.66 0.00000 -1.41102e-12
  84 6677.66 0.00000 -1.35586e-12
  85 6677.66 0.00000 -6.54488e-13
  86 6677.66 0.00000 -6.50579e-14
  87 6677.66 0.00000 5.91317e-14
  88 6677.66 0.00000 1.15543e-12
  89 6677.66 0.00000 -5.04775e-13
  90 6677.66 0.00000 7.90267e-14
  91 6677.66 0.00000 5.23094e-14
  92 6677.66 0.00000 8.52082e-13
  93 6677.66 0.00000 -1.75652e-12
  94 6677.66 0.00000 2.90210e-12
  95 6677.66 0.00000 3.75879e-13
  96 6677.66 0.00000 1.12786e-12
  97 6677.66 0.00000 -4.28236e-13
  98 6677.66 0.00000 8.11037e-13
  99 6677.66 0.00000 1.03809e-12
  100 6677.66 0.00000 4.91000e-13
  101 6677.66 0.00000 -1.73771e-13
  102 6677.66 0.00000 -2.04005e-12
  103 6677.66 0.00000 -3.40039e-13
  104 6677.66 0.00000 4.67306e-13
  105 6677.66 0.00000 -2.59764e-12
  106 6677.66 0.00000 -3.39189e-13
  107 6677.66 0.00000 3.13273e-12
  108 6677.66 0.00000 3.73893e-13
  109 6677.66 0.00000 -5.22606e-13
  110 6677.66 0.00000 -4.72382e-12
  111 6677.66 0.00000 -1.03571e-12
  112 6677.66 0.00000 -6.47116e-13
  113 6677.66 0.00000 -3.89984e-13
  114 6677.66 0.00000 1.80278e-12
  115 6677.66 0.00000 -3.13199e-13
  116 6677.66 0.00000 -5.53205e-13
  117 6677.66 0.00000 -3.23027e-13
  118 6677.66 0.00000 -3.35158e-13
  119 6677.66 0.00000 5.20096e-13
  120 6677.66 0.00000 1.06318e-14
  121 6677.66 0.00000 6.77372e-14
  122 6677.66 0.00000 -1.89829e-13
  123 6677.66 0.00000 -1.33035e-12
  124 6677.66 0.00000 -6.61114e-13
  125 6677.66 0.00000 1.06817e-13
  126 6677.66 0.00000 -1.21171e-12
  127 6677.66 0.00000 3.65144e-12
  128 6677.66 0.00000 6.41057e-13
  129 6677.66 0.00000 1.30055e-12
  130 6677.66 0.00000 -4.67596e-13
  131 6677.66 0.00000 -1.18773e-12
  132 6677.66 0.00000 -5.63819e-13
  133 6677.66 0.00000 -2.09435e-12
  134 6677.66 0.00000 3.35894e-13
  135 6677.66 0.00000 -5.64116e-13
  136 6677.66 0.00000 -2.02387e-14
  137 6677.66 0.00000 -2.40690e-12
  138 6677.66 0.00000 -8.81736e-13
  139 6677.66 0.00000 1.34053e-13
  140 6677.66 0.00000 2.04628e-13
  141 6677.66 0.00000 -8.64347e-13
  142 6677.66 0.00000 -1.40034e-12
  143 6677.66 0.00000 -6.17395e-13
  144 6677.66 0.00000 -3.56958e-12
  145 6677.66 0.00000 -6.62015e-13
  146 6677.66 0.00000 4.37535e-13
  147 6677.66 0.00000 -8.82093e-13
  148 6677.66 0.00000 1.30025e-13
  149 6677.66 0.00000 1.80148e-12
  150 6677.66 0.00000 -2.32825e-14
  151 6677.66 0.00000 4.77535e-13
  152 6677.66 0.00000 -1.80151e-12
  153 6677.66 0.00000 1.46703e-12
  154 6677.66 0.00000 2.76309e-12
  155 6677.66 0.00000 -1.08009e-12
  156 6677.66 0.00000 1.80311e-12
  157 6677.66 0.00000 5.23194e-13
  158 6677.66 0.00000 4.52779e-13
  159 6677.66 0.00000 9.95313e-13
  160 6677.66 0.00000 5.68944e-13
  161 6677.66 0.00000 3.70527e-12
  162 6677.66 0.00000 -2.47779e-13
  163 6677.66 0.00000 8.67663e-13
  164 6677.66 0.00000 2.71365e-12
  165 6677.66 0.00000 -8.08004e-13
  166 6677.66 0.00000 2.81695e-13
  167 6677.66 0.00000 6.62635e-13
  168 6677.66 0.00000 9.36726e-13
  169 6677.66 0.00000 -4.96752e-13
  170 6677.66 0.00000 -2.03609e-12
  171 6677.66 0.00000 -1.86320e-13
  172 6677.66 0.00000 -1.55594e-12
  173 6677.66 0.00000 6.70343e-13
  174 6677.66 0.00000 -1.44833e-13
  175 6677.66 0.00000 -1.89286e-13
  176 6677.66 0.00000 -3.52345e-13
  177 6677.66 0.00000 5.57616e-13
  178 6677.66 0.00000 1.73739e-13
  179 6677.66 0.00000 -8.32779e-13
  180 6677.66 0.00000 1.43235e-13
  181 6677.66 0.00000 -1.16653e-12
  182 6677.66 0.00000 1.18248e-12
  183 6677.66 0.00000 -5.36785e-13
  184 6677.66 0.00000 -2.79509e-12
  185 6677.66 0.00000 3.40020e-13
  186 6677.66 0.00000 9.43394e-16
  187 6677.66 0.00000 -1.17810e-12
  188 6677.66 0.00000 -4.55962e-13
  189 6677.66 0.00000 2.74684e-13
  190 6677.66 0.00000 3.06694e-13
  191 6677.66 0.00000 9.61562e-13
  192 6677.66 0.00000 2.06493e-12
  193 6677.66 0.00000 7.21915e-13
  194 6677.66 0.00000 2.16292e-12
  195 6677.66 0.00000 5.86738e-13
  196 6677.66 0.00000 -3.81896e-12
  197 6677.66 0.00000 -3.44908e-13
  198 6677.66 0.00000 -1.50076e-12
  199 6677.66 0.00000 8.15296e-14
  200 6677.66 0.00000 8.70107e-13
  201 6677.66 0.00000 -1.02659e-12
  202 6677.66 0.00000 -3.08850e-12
  203 6677.66 0.00000 -7.24487e-14
  204 6677.66 0.00000 -1.01734e-12
  205 6677.66 0.00000 -2.16560e-13
  206 6677.66 0.00000 2.06395e-13
  207 6677.66 0.00000 2.66097e-13
  208 6677.66 0.00000 -6.38426e-13
  209 6677.66 0.00000 1.53553e-12
  210 6677.66 0.00000 3.13436e-13
  211 6677.66 0.00000 -2.12389e-13
  212 6677.66 0.00000 -9.57312e-13
  213 6677.66 0.00000 -6.29169e-13
  214 6677.66 0.00000 5.46866e-14
  215 6677.66 0.00000 -1.16074e-12
  216 6677.66 0.00000 -5.85814e-13
  217 6677.66 0.00000 3.20507e-12
  218 6677.66 0.00000 1.00666e-12
  219 6677.66 0.00000 2.51490e-12
  220 6677.66 0.00000 -5.91035e-13
  221 6677.66 0.00000 7.42564e-13
  222 6677.66 0.00000 -5.31282e-13
  223 6677.66 0.00000 -1.57565e-12
  224 6677.66 0.00000 -8.85172e-13
  225 6677.66 0.00000 9.08243e-13
  226 6677.66 0.00000 4.46533e-13
  227 6677.66 0.00000 -1.25375e-12
  228 6677.66 0.00000 1.24488e-13
  229 6677.66 0.00000 -3.68822e-13
  230 6677.66 0.00000 -4.25954e-12
  231 6677.66 0.00000 5.07795e-13
  232 6677.66 0.00000 -3.80127e-14
  233 6677.66 0.00000 -1.91769e-13
  234 6677.66 0.00000 -9.17505e-13
  235 6677.66 0.00000 1.60189e-13
  236 6677.66 0.00000 -5.93405e-13
  237 6677.66 0.00000 3.49004e-13
  238 6677.66 0.00000 -4.63539e-14
  239 6677.66 0.00000 -1.44565e-12
  240 6677.66 0.00000 -1.57282e-12
  241 6677.66 0.00000 -1.67392e-12
</Section>

newXOutput 141

<Section columns = "stress_xx | stress_yy | stress_xy">
  1 6730.41 0.00000 0.00000
  2 6730.41 0.00000 3.83329e-12
  3 6730.41 0.00000 1.11080e-12
  4 6730.41 0.00000 -2.37485e-13
  5 6730.41 0.00000 1.98569e-13
  6 6730.41 0.00000 2.05922e-13
  7 6730.41 0.00000 -4.44937e-13
  8 6730.41 0.00000 -4.85382e-13
  9 6730.41 0.00000 4.41260e-13
  10 6730.41 0.00000 2.06054e-12
  11 6730.41 0.00000 1.07863e-12
  12 6730.41 0.00000 2.73580e-12
  13 6730.41 0.00000 2.16584e-12
  14 6730.41 0.00000 -7.45238e-13
  15 6730.41 0.00000 -3.94454e-13
  16 6730.41 0.00000 2.90516e-12
  17 6730.41 0.00000 1.58986e-12
  18 6730.41 0.00000 3.41373e-12
  19 6730.41 0.00000 -2.42090e-12
  20 6730.41 0.00000 -6.43699e-12
  21 6730.41 0.00000 -3.26553e-12
  22 6730.41 0.00000 3.16348e-12
  23 6730.41 0.00000 8.79108e-12
  24 6730.41 0.00000 -1.62776e-12
  25 6730.41 0.00000 0.00000
  26 6730.41 0.00000 8.73829e-13
  27 6730.41 0.00000 -7.17153e-13
  28 6730.41 0.00000 -6.42166e-13
  29 6730.41 0.00000 -2.52040e-13
  30 6730.41 0.00000 1.36526e-12
  31 6730.41 0.00000 5.30950e-13
  32 6730.41 0.00000 -2.33585e-12
  33 6730.41 0.00000 9.64785e-13
  34 6730.41 0.00000 1.25699e-12
  35 6730.41 0.00000 -9.66759e-13
  36 6730.41 0.00000 -2.66846e-12
  37 6730.41 0.00000 -1.89286e-12
  38 6730.41 0.00000 -1.82473e-12
  39 6730.41 0.00000 -1.24396e-12
  40 6730.41 0.00000 -2.33037e-12
  41 6730.41 0.00000 -1.35025e-12
  42 6730.41 0.00000 -1.24742e-12
  43 6730.41 0.00000 3.44874e-13
  44 6730.41 0.00000 -6.73310e-13
  45 6730.41 0.00000 -8.17705e-13
  46 6730.41 0.00000 -3.73970e-13
  47 6730.41 0.00000 2.50836e-13
  48 6730.41 0.00000 5.18762e-13
  49 6730.41 0.00000 -2.22133e-13
  50 6730.41 0.00000 7.95698e-14
  51 6730.41 0.00000 1.02961e-13
  52 6730.41 0.00000 -4.32838e-14
  53 6730.41 0.00000 -1.44635e-13
  54 6730.41 0.00000 5.43145e-14
  55 6730.41 0.00000 -4.68688e-13
  56 6730.41 0.00000 -3.97595e-13
  57 6730.41 0.00000 6.28848e-13
  58 6730.41 0.00000 -1.56948e-12
  59 6730.41 0.00000 3.21443e-13
  60 6730.41 0.00000 -7.68422e-13
  61 6730.41 0.00000 -2.49380e-13
  62 6730.41 0.00000 -4.84707e-13
  63 6730.41 0.00000 4.06756e-13
  64 6730.41 0.00000 -1.41013e-12
  65 6730.41 0.00000 -8.47282e-14
  66 6730.41 0.00000 3.26654e-13
  67 6730.41 0.00000 -1.70219e-12
  68 6730.41 0.00000 -8.79274e-13
  69 6730.41 0.00000 3.29195e-14
  70 6730.41 0.00000 -1.90320e-13
  71 6730.41 0.00000 3.48323e-13
  72 6730.41 0.00000 -1.56796e-12
  73 6730.41 0.00000 -4.31497e-12
  74 6730.41 0.00000 1.00917e-13
  75 6730.41 0.00000 -1.52294e-13
  76 6730.41 0.00000 -1.42852e-13
  77 6730.41 0.00000 -3.75783e-13
  78 6730.41 0.00000 2.15805e-12
  79 6730.41 0.00000 3.08836e-13
  80 6730.41 0.00000 1.05077e-12
  81 6730.41 0.00000 1.51095e-13
  82 6730.41 0.00000 1.97929e-12
  83 6730.41 0.00000 4.71340e-13
  84 6730.41 0.00000 6.07236e-14
  85 6730.41 0.00000 7.55040e-13
  86 6730.41 0.00000 -2.71241e-12
  87 6730.41 0.00000 -4.86661e-13
  88 6730.41 0.00000 -3.49745e-13
  89 6730.41 0.00000 6.45979e-14
  90 6730.41 0.00000 -1.17516e-13
  91 6730.41 0.00000 -2.61276e-13
  92 6730.41 0.00000 -1.44207e-13
  93 6730.41 0.00000 9.53917e-13
  94 6730.41 0.00000 -1.62877e-12
  95 6730.41 0.00000 2.25302e-13
  96 6730.41 0.00000 -9.11380e-13
  97 6730.41 0.00000 1.81572e-12
  98 6730.41 0.00000 -8.66606e-13
  99 6730.41 0.00000 1.36790e-12
  100 6730.41 0.00000 -3.90393e-14
  101 6730.41 0.00000 2.38489e-14
  102 6730.41 0.00000 -1.33474e-12
  103 6730.41 0.00000 -3.99022e-13
  104 6730.41 0.00000 -5.15477e-13
  105 6730.41 0.00000 -5.80499e-13
  106 6730.41 0.00000 -4.02034e-13
  107 6730.41 0.00000 1.55336e-13
  108 6730.41 0.00000 1.98132e-13
  109 6730.41 0.00000 -8.89263e-14
  110 6730.41 0.00000 -2.06995e-13
  111 6730.41 0.00000 2.89387e-12
  112 6730.41 0.00000 9.37403e-13
  113 6730.41 0.00000 2.74415e-13
  114 6730.41 0.00000 -3.87296e-13
  115 6730.41 0.00000 -2.96067e-13
  116 6730.41 0.00000 -1.19141e-13
  117 6730.41 0.00000 -3.12257e-12
  118 6730.41 0.00000 -4.42385e-14
  119 6730.41 0.00000 3.10325e-13
  120 6730.41 0.00000 -6.55866e-13
  121 6730.41 0.00000 -1.28174e-13
  122 6730.41 0.00000 -2.31858e-13
  123 6730.41 0.00000 6.84120e-14
  124 6730.41 0.00000 -7.51048e-13
  125 6730.41 0.00000 3.92584e-13
  126 6730.41 0.00000 4.02391e-13
  127 6730.41 0.00000 -2.50422e-13
  128 6730.41 0.00000 4.02990e-13
  129 6730.41 0.00000 -1.51454e-13
  130 6730.41 0.00000 3.18076e-13
  131 6730.41 0.00000 -3.65329e-13
  132 6730.41 0.00000 -4.36149e-13
  133 6730.41 0.00000 1.56275e-12
  134 6730.41 0.00000 -3.17285e-13
  135 6730.41 0.00000 -7.27028e-13
  136 6730.41 0.00000 4.72635e-15
  137 6730.41 0.00000 2.89144e-12
  138 6730.41 0.00000 1.52719e-12
  139 6730.41 0.00000 1.53224e-15
  140 6730.41 0.00000 -3.11069e-13
  141 6730.41 0.00000 -2.19965e-13
  142 6730.41 0.00000 8.63571e-13
  143 6730.41 0.00000 -5.45617e-13
  144 6730.41 0.00000 3.78998e-13
  145 6730.41 0.00000 -5.43646e-14
  146 6730.41 0.00000 -4.21870e-13
  147 6730.41 0.00000 -7.91057e-13
  148 6730.41 0.00000 -5.30072e-13
  149 6730.41 0.00000 -7.02674e-13
  150 6730.41 0.00000 -4.48503e-13
  151 6730.41 0.00000 -1.11586e-12
  152 6730.41 0.00000 -1.38608e-12
  153 6730.41 0.00000 3.14314e-14
  154 6730.41 0.00000 6.17767e-14
  155 6730.41 0.00000 2.13708e-13
  156 6730.41 0.00000 5.21105e-13
  157 6730.41 0.00000 8.55802e-15
  158 6730.41 0.00000 -2.00316e-12
  159 6730.41 0.00000 1.80648e-12
  160 6730.41 0.00000 -7.28073e-14
  161 6730.41 0.00000 -5.96315e-14
  162 6730.41 0.00000 -4.29111e-15
  163 6730.41 0.00000 -1.68514e-12
  164 6730.41 0.00000 -3.71859e-12
  165 6730.41 0.00000 1.25241e-13
  166 6730.41 0.00000 4.34690e-14
  167 6730.41 0.00000 -1.41699e-12
  168 6730.41 0.00000 1.15572e-13
  169 6730.41 0.00000 -1.70071e-14
  170 6730.41 0.00000 3.93603e-12
  171 6730.41 0.00000 1.21771e-12
  172 6730.41 0.00000 -3.54129e-13
  173 6730.41 0.00000 -6.79073e-13
  174 6730.41 0.00000 9.08368e-13
  175 6730.41 0.00000 -1.72418e-13
  176 6730.41 0.00000 -7.26480e-14
  177 6730.41 0.00000 3.71831e-13
  178 6730.41 0.00000 -1.91007e-13
  179 6730.41 0.00000 3.67722e-14
  180 6730.41 0.00000 2.18529e-13
  181 6730.41 0.00000 -1.63689e-12
  182 6730.41 0.00000 3.22931e-13
  183 6730.41 0.00000 -4.12287e-13
  184 6730.41 0.00000 8.31162e-13
  185 6730.41 0.00000 1.04135e-13
  186 6730.41 0.00000 -2.97914e-13
  187 6730.41 0.00000 5.03254e-13
  188 6730.41 0.00000 2.78540e-13
  189 6730.41 0.00000 -1.58851e-13
  190 6730.41 0.00000 2.08979e-13
  191 6730.41 0.00000 1.64951e-14
  192 6730.41 0.00000 -5.46304e-14
  193 6730.41 0.00000 -1.54938e-12
  194 6730.41 0.00000 -1.49660e-12
  195 6730.41 0.00000 9.87474e-14
  196 6730.41 0.00000 3.21843e-13
  197 6730.41 0.00000 4.90279e-14
  198 6730.41 0.00000 1.21857e-12
  199 6730.41 0.00000 2.41979e-13
  200 6730.41 0.00000 -2.63986e-13
  201 6730.41 0.00000 1.90433e-13
  202 6730.41 0.00000 3.93641e-13
  203 6730.41 0.00000 1.33041e-13
  204 6730.41 0.00000 -4.90069e-13
  205 6730.41 0.00000 1.29928e-13
  206 6730.41 0.00000 -1.25150e-13
  207 6730.41 0.00000 2.47096e-13
  208 6730.41 0.00000 -1.37848e-12
  209 6730.41 0.00000 -1.37827e-12
  210 6730.41 0.00000 -1.07055e-12
  211 6730.41 0.00000 -7.41972e-14
  212 6730.41 0.00000 2.26673e-12
  213 6730.41 0.00000 -2.39655e-13
  214 6730.41 0.00000 -2.77396e-13
  215 6730.41 0.00000 8.32033e-13
  216 6730.41 0.00000 -4.94854e-15
  217 6730.41 0.00000 -2.51595e-12
  218 6730.41 0.00000 -8.24383e-13
  219 6730.41 0.00000 -6.52389e-13
  220 6730.41 0.00000 6.41972e-14
  221 6730.41 0.00000 -3.65261e-13
  222 6730.41 0.00000 -2.05359e-13
  223 6730.41 0.00000 4.52414e-13
  224 6730.41 0.00000 1.30987e-12
  225 6730.41 0.00000 -2.28410e-12
  226 6730.41 0.00000 5.08121e-13
  227 6730.41 0.00000 -1.49536e-13
  228 6730.41 0.00000 9.53119e-13
  229 6730.41 0.00000 -3.83649e-13
  230 6730.41 0.00000 -1.32934e-12
  231 6730.41 0.00000 3.07536e-13
  232 6730.41 0.00000 -5.04690e-13
  233 6730.41 0.00000 8.11916e-13
  234 6730.41 0.00000 4.72680e-13
  235 6730.41 0.00000 -1.78817e-12
  236 6730.41 0.00000 -3.81418e-13
  237 6730.41 0.00000 -1.27304e-12
  238 6730.41 0.00000 -2.88840e-13
  239 6730.41 0.00000 1.46708e-12
  240 6730.41 0.00000 2.53791e-12
  241 6730.41 0.00000 9.80575e-13
</Section>

newXOutput 142

<Section columns = "stress_xx | stress_yy | stress_xy">
  1 6783.30 0.00000 -1.14380e-13
  2 6783.30 0.00000 -4.39747e-12
  3 6783.30 0.00000 9.70468e-13
  4 6783.30 0.00000 -1.19629e-13
  5 6783.30 0.00000 -2.61294e-13
  6 6783.30 0.00000 -5.06321e-13
  7 6783.30 0.00000 -1.14380e-13
  8 6783.30 0.00000 4.41254e-13
  9 6783.30 0.00000 3.25336e-14
  10 6783.30 0.00000 4.03358e-13
  11 6783.30 0.00000 -9.47575e-13
  12 6783.30 0.00000 -1.66131e-12
  13 6783.30 0.00000 7.23439e-13
  14 6783.30 0.00000 6.10028e-13
  15 6783.30 0.00000 -2.87191e-12
  16 6783.30 0.00000 -5.34310e-12
  17 6783.30 0.00000 -6.75095e-13
  18 6783.30 0.00000 9.83445e-14
  19 6783.30 0.00000 9.15785e-13
  20 6783.30 0.00000 5.47934e-12
  21 6783.30 0.00000 4.63011e-12
  22 6783.30 0.00000 -6.98963e-12
  23 6783.30 0.00000 -6.64672e-12
  24 6783.30 0.00000 -6.43305e-13
  25 6783.30 0.00000 0.00000
  26 6783.30 0.00000 -5.65793e-14
  27 6783.30 0.00000 2.60028e-12
  28 6783.30 0.00000 -1.62127e-12
  29 6783.30 0.00000 -4.53367e-14
  30 6783.30 0.00000 -3.65071e-13
  31 6783.30 0.00000 3.69413e-12
  32 6783.30 0.00000 2.74364e-12
  33 6783.30 0.00000 -1.34467e-12
  34 6783.30 0.00000 -3.37697e-12
  35 6783.30 0.00000 8.43531e-13
  36 6783.30 0.00000 1.46748e-12
  37 6783.30 0.00000 2.06549e-12
  38 6783.30 0.00000 2.44176e-12
  39 6783.30 0.00000 3.79558e-12
  40 6783.30 0.00000 1.89426e-12
  41 6783.30 0.00000 4.38468e-13
  42 6783.30 0.00000 -4.72699e-13
  43 6783.30 0.00000 -1.41924e-12
  44 6783.30 0.00000 -1.18821e-12
  45 6783.30 0.00000 -4.79472e-13
  46 6783.30 0.00000 -6.76492e-13
  47 6783.30 0.00000 9.07351e-15
  48 6783.30 0.00000 -4.72180e-13
  49 6783.30 0.00000 -5.64091e-13
  50 6783.30 0.00000 1.50127e-13
  51 6783.30 0.00000 1.47517e-13
  52 6783.30 0.00000 -3.41622e-14
  53 6783.30 0.00000 2.06669e-13
  54 6783.30 0.00000 -3.55100e-13
  55 6783.30 0.00000 -5.56237e-13
  56 6783.30 0.00000 -1.50589e-13
  57 6783.30 0.00000 4.42268e-14
  58 6783.30 0.00000 -2.67363e-12
  59 6783.30 0.00000 -3.95844e-13
  60 6783.30 0.00000 -2.07773e-13
  61 6783.30 0.00000 2.77933e-13
  62 6783.30 0.00000 -2.73555e-13
  63 6783.30 0.00000 1.67073e-12
  64 6783.30 0.00000 2.59883e-12
  65 6783.30 0.00000 3.56025e-14
  66 6783.30 0.00000 -8.05638e-14
  67 6783.30 0.00000 2.75002e-12
  68 6783.30 0.00000 -2.22934e-12
  69 6783.30 0.00000 -3.63524e-13
  70 6783.30 0.00000 3.60696e-13
  71 6783.30 0.00000 -5.56984e-13
  72 6783.30 0.00000 -1.72164e-13
  73 6783.30 0.00000 2.38150e-13
  74 6783.30 0.00000 -3.21253e-13
  75 6783.30 0.00000 3.37152e-13
  76 6783.30 0.00000 1.18477e-12
  77 6783.30 0.00000 4.27412e-13
  78 6783.30 0.00000 -2.00916e-13
  79 6783.30 0.00000 -4.46657e-13
  80 6783.30 0.00000 -7.65216e-13
  81 6783.30 0.00000 5.20083e-13
  82 6783.30 0.00000 1.25145e-12
  83 6783.30 0.00000 -1.10177e-12
  84 6783.30 0.00000 -4.95647e-13
  85 6783.30 0.00000 -2.69669e-12
  86 6783.30 0.00000 8.96786e-13
  87 6783.30 0.00000 2.46024e-13
  88 6783.30 0.00000 -4.93837e-12
  89 6783.30 0.00000 1.69269e-13
  90 6783.30 0.00000 -6.27680e-13
  91 6783.30 0.00000 1.01109e-12
  92 6783.30 0.00000 -4.97962e-13
  93 6783.30 0.00000 -5.51387e-12
  94 6783.30 0.00000 -1.57624e-12
  95 6783.30 0.00000 4.92597e-13
  96 6783.30 0.00000 -1.08612e-12
  97 6783.30 0.00000 -2.79803e-12
  98 6783.30 0.00000 -5.67170e-13
  99 6783.30 0.00000 3.22044e-13
  100 6783.30 0.00000 -2.67331e-13
  101 6783.30 0.00000 4.14302e-14
  102 6783.30 0.00000 -1.94232e-12
  103 6783.30 0.00000 1.66085e-12
  104 6783.30 0.00000 1.88081e-13
  105 6783.30 0.00000 -1.78513e-13
  106 6783.30 0.00000 3.20498e-13
  107 6783.30 0.00000 -4.80500e-13
  108 6783.30 0.00000 -3.09951e-13
  109 6783.30 0.00000 -3.55618e-13
  110 6783.30 0.00000 7.99205e-13
  111 6783.30 0.00000 -3.06910e-12
  112 6783.30 0.00000 2.27202e-13
  113 6783.30 0.00000 9.99484e-13
  114 6783.30 0.00000 8.02420e-13
  115 6783.30 0.00000 -9.03144e-13
  116 6783.30 0.00000 1.14242e-13
  117 6783.30 0.00000 1.23863e-12
  118 6783.30 0.00000 -1.79699e-13
  119 6783.30 0.00000 4.51402e-13
  120 6783.30 0.00000 -8.68918e-14
  121 6783.30 0.00000 3.04440e-13
  122 6783.30 0.00000 -5.74496e-13
  123 6783.30 0.00000 1.18784e-12
  124 6783.30 0.00000 7.40961e-13
  125 6783.30 0.00000 3.49560e-13
  126 6783.30 0.00000 -5.32691e-13
  127 6783.30 0.00000 -1.31268e-12
  128 6783.30 0.00000 7.91338e-13
  129 6783.30 0.00000 -3.29504e-13
  130 6783.30 0.00000 -4.85988e-13
  131 6783.30 0.00000 2.48050e-13
  132 6783.30 0.00000 1.27775e-13
  133 6783.30 0.00000 -2.29220e-12
  134 6783.30 0.00000 7.13419e-14
  135 6783.30 0.00000 -1.63991e-12
  136 6783.30 0.00000 -4.77166e-13
  137 6783.30 0.00000 -6.52241e-13
  138 6783.30 0.00000 1.62558e-13
  139 6783.30 0.00000 7.92282e-13
  140 6783.30 0.00000 -1.45972e-13
  141 6783.30 0.00000 -5.80034e-13
  142 6783.30 0.00000 -1.17684e-13
  143 6783.30 0.00000 5.32249e-13
  144 6783.30 0.00000 1.04066e-12
  145 6783.30 0.00000 -1.72136e-12
  146 6783.30 0.00000 -3.30525e-13
  147 6783.30 0.00000 6.55774e-14
  148 6783.30 0.00000 2.75553e-13
  149 6783.30 0.00000 2.75844e-12
  150 6783.30 0.00000 -6.95232e-13
  151 6783.30 0.00000 -4.65423e-13
  152 6783.30 0.00000 -1.52876e-12
  153 6783.30 0.00000 -1.53074e-13
  154 6783.30 0.00000 1.50494e-12
  155 6783.30 0.00000 -6.47803e-13
  156 6783.30 0.00000 -1.24939e-12
  157 6783.30 0.00000 -5.09026e-13
  158 6783.30 0.00000 -2.89813e-12
  159 6783.30 0.00000 6.71612e-14
  160 6783.30 0.00000 4.32066e-13
  161 6783.30 0.00000 4.40185e-12
  162 6783.30 0.00000 5.37137e-14
  163 6783.30 0.00000 -2.04449e-12
  164 6783.30 0.00000 3.74031e-13
  165 6783.30 0.00000 -7.96790e-13
  166 6783.30 0.00000 -1.00598e-13
  167 6783.30 0.00000 1.01410e-12
  168 6783.30 0.00000 2.25235e-12
  169 6783.30 0.00000 -8.19777e-14
  170 6783.30 0.00000 9.82016e-13
  171 6783.30 0.00000 -1.29346e-12
  172 6783.30 0.00000 8.78672e-13
  173 6783.30 0.00000 -4.27679e-13
  174 6783.30 0.00000 -2.59687e-12
  175 6783.30 0.00000 2.62264e-13
  176 6783.30 0.00000 -2.35935e-13
  177 6783.30 0.00000 -1.53367e-12
  178 6783.30 0.00000 -1.10455e-14
  179 6783.30 0.00000 2.28760e-13
  180 6783.30 0.00000 1.61102e-13
  181 6783.30 0.00000 -3.17234e-13
  182 6783.30 0.00000 9.72246e-13
  183 6783.30 0.00000 1.08429e-12
  184 6783.30 0.00000 -1.60437e-12
  185 6783.30 0.00000 -4.40734e-13
  186 6783.30 0.00000 2.58041e-13
  187 6783.30 0.00000 -3.64975e-12
  188 6783.30 0.00000 -1.01648e-12
  189 6783.30 0.00000 6.24503e-13
  190 6783.30 0.00000 -2.59893e-13
  191 6783.30 0.00000 -9.12772e-15
  192 6783.30 0.00000 -2.61439e-13
  193 6783.30 0.00000 2.70514e-13
  194 6783.30 0.00000 2.39639e-12
  195 6783.30 0.00000 -2.45207e-13
  196 6783.30 0.00000 2.25517e-12
  197 6783.30 0.00000 -8.88575e-14
  198 6783.30 0.00000 -1.03159e-12
  199 6783.30 0.00000 1.25310e-13
  200 6783.30 0.00000 -3.06479e-12
  201 6783.30 0.00000 1.36678e-12
  202 6783.30 0.00000 2.36649e-12
  203 6783.30 0.00000 -4.10106e-13
  204 6783.30 0.00000 -1.10076e-12
  205 6783.30 0.00000 -1.22001e-14
  206 6783.30 0.00000 1.52124e-12
  207 6783.30 0.00000 -9.77337e-13
  208 6783.30 0.00000 -3.19187e-13
  209 6783.30 0.00000 -4.30440e-13
  210 6783.30 0.00000 -3.02089e-15
  211 6783.30 0.00000 -1.09685e-13
  212 6783.30 0.00000 -3.91006e-12
  213 6783.30 0.00000 1.43172e-13
  214 6783.30 0.00000 -1.05065e-12
  215 6783.30 0.00000 1.70549e-13
  216 6783.30 0.00000 5.97297e-13
  217 6783.30 0.00000 1.20725e-12
  218 6783.30 0.00000 3.46657e-13
  219 6783.30 0.00000 -1.34373e-12
  220 6783.30 0.00000 1.73764e-13
  221 6783.30 0.00000 3.70061e-13
  222 6783.30 0.00000 -3.87700e-12
  223 6783.30 0.00000 -4.11323e-13
  224 6783.30 0.00000 -8.63494e-13
  225 6783.30 0.00000 1.04569e-12
  226 6783.30 0.00000 4.02478e-13
  227 6783.30 0.00000 -1.77747e-12
  228 6783.30 0.00000 1.72188e-14
  229 6783.30 0.00000 2.46554e-13
  230 6783.30 0.00000 2.71989e-12
  231 6783.30 0.00000 1.04271e-12
  232 6783.30 0.00000 -7.45134e-13
  233 6783.30 0.00000 -2.32421e-12
  234 6783.30 0.00000 1.11064e-13
  235 6783.30 0.00000 -6.88279e-13
  236 6783.30 0.00000 -1.32996e-14
  237 6783.30 0.00000 -1.76610e-13
  238 6783.30 0.00000 -3.50183e-13
  239 6783.30 0.00000 8.20372e-13
  240 6783.30 0.00000 -1.51331e-12
  241 6783.30 0.00000 -1.86022e-12
</Section>

newXOutput 143

<Section columns = "stress_xx | stress_yy | stress_xy">
  1 6836.32 0.00000 3.11775e-14
  2 6836.32 0.00000 5.38568e-12
  3 6836.32 0.00000 -2.64674e-12
  4 6836.32 0.00000 1.17722e-13
  5 6836.32 0.00000 -2.85273e-13
  6 6836.32 0.00000 5.21442e-13
  7 6836.32 0.00000 -4.17972e-14
  8 6836.32 0.00000 2.88224e-13
  9 6836.32 0.00000 3.56679e-14
  10 6836.32 0.00000 1.70863e-13
  11 6836.32 0.00000 9.73904e-13
  12 6836.32 0.00000 -1.03036e-12
  13 6836.32 0.00000 -2.80242e-12
  14 6836.32 0.00000 -1.49462e-12
  15 6836.32 0.00000 -8.19235e-14
  16 6836.32 0.00000 -9.91738e-13
  17 6836.32 0.00000 -7.13357e-14
  18 6836.32 0.00000 0.00000
  19 6836.32 0.00000 -3.21083e-12
  20 6836.32 0.00000 6.57488e-13
  21 6836.32 0.00000 4.50640e-12
  22 6836.32 0.00000 4.13062e-13
  23 6836.32 0.00000 6.37197e-12
  24 6836.32 0.00000 7.35380e-13
  25 6836.32 0.00000 3.48742e-13
  26 6836.32 0.00000 1.37446e-12
  27 6836.32 0.00000 -4.05586e-13
  28 6836.32 0.00000 1.76545e-12
  29 6836.32 0.00000 0.00000
  30 6836.32 0.00000 7.53098e-13
  31 6836.32 0.00000 -5.99460e-12
  32 6836.32 0.00000 -4.41845e-12
  33 6836.32 0.00000 -1.48356e-12
  34 6836.32 0.00000 3.35038e-12
  35 6836.32 0.00000 2.06871e-12
  36 6836.32 0.00000 1.51734e-12
  37 6836.32 0.00000 -6.68147e-13
  38 6836.32 0.00000 -1.95404e-12
  39 6836.32 0.00000 -7.40787e-13
  40 6836.32 0.00000 -1.84639e-13
  41 6836.32 0.00000 6.12801e-13
  42 6836.32 0.00000 -7.52139e-13
  43 6836.32 0.00000 -4.07650e-15
  44 6836.32 0.00000 4.08408e-13
  45 6836.32 0.00000 9.83440e-13
  46 6836.32 0.00000 6.13139e-13
  47 6836.32 0.00000 -6.00292e-13
  48 6836.32 0.00000 -5.82501e-13
  49 6836.32 0.00000 -1.98078e-13
  50 6836.32 0.00000 0.00000
  51 6836.32 0.00000 -1.01396e-13
  52 6836.32 0.00000 -2.72695e-14
  53 6836.32 0.00000 1.73814e-13
  54 6836.32 0.00000 -5.15142e-15
  55 6836.32 0.00000 -2.91899e-13
  56 6836.32 0.00000 2.28334e-14
  57 6836.32 0.00000 -6.45947e-13
  58 6836.32 0.00000 2.88378e-12
  59 6836.32 0.00000 5.93879e-14
  60 6836.32 0.00000 3.92258e-13
  61 6836.32 0.00000 2.59065e-13
  62 6836.32 0.00000 8.79601e-13
  63 6836.32 0.00000 1.00244e-12
  64 6836.32 0.00000 -3.18580e-12
  65 6836.32 0.00000 4.67108e-13
  66 6836.32 0.00000 -3.37236e-13
  67 6836.32 0.00000 3.27054e-13
  68 6836.32 0.00000 1.04707e-12
  69 6836.32 0.00000 4.95746e-13
  70 6836.32 0.00000 6.95414e-13
  71 6836.32 0.00000 -2.84700e-13
  72 6836.32 0.00000 1.23462e-13
  73 6836.32 0.00000 2.10591e-12
  74 6836.32 0.00000 -6.35264e-14
  75 6836.32 0.00000 8.18115e-13
  76 6836.32 0.00000 -7.53150e-13
  77 6836.32 0.00000 1.99661e-13
  78 6836.32 0.00000 -1.13838e-12
  79 6836.32 0.00000 1.04370e-12
  80 6836.32 0.00000 -4.28451e-13
  81 6836.32 0.00000 -2.42391e-12
  82 6836.32 0.00000 -4.12578e-14
  83 6836.32 0.00000 8.72991e-14
  84 6836.32 0.00000 2.84127e-13
  85 6836.32 0.00000 9.19289e-13
  86 6836.32 0.00000 1.97614e-13
  87 6836.32 0.00000 5.84448e-13
  88 6836.32 0.00000 1.91886e-14
  89 6836.32 0.00000 4.29878e-13
  90 6836.32 0.00000 -4.51243e-14
  91 6836.32 0.00000 -4.07828e-13
  92 6836.32 0.00000 -1.19285e-12
  93 6836.32 0.00000 3.41044e-12
  94 6836.32 0.00000 1.53574e-12
  95 6836.32 0.00000 -1.03457e-12
  96 6836.32 0.00000 6.24586e-13
  97 6836.32 0.00000 2.30093e-12
  98 6836.32 0.00000 8.66916e-13
  99 6836.32 0.00000 -2.00744e-13
  100 6836.32 0.00000 4.67545e-13
  101 6836.32 0.00000 7.50295e-13
  102 6836.32 0.00000 3.65610e-12
  103 6836.32 0.00000 -4.42370e-13
  104 6836.32 0.00000 -6.05844e-14
  105 6836.32 0.00000 8.05084e-13
  106 6836.32 0.00000 -7.11554e-13
  107 6836.32 0.00000 5.93169e-13
  108 6836.32 0.00000 -1.07497e-13
  109 6836.32 0.00000 -9.90841e-14
  110 6836.32 0.00000 2.90479e-12
  111 6836.32 0.00000 3.19120e-13
  112 6836.32 0.00000 -1.19546e-13
  113 6836.32 0.00000 -1.32740e-12
  114 6836.32 0.00000 5.72693e-13
  115 6836.32 0.00000 1.69844e-12
  116 6836.32 0.00000 2.75452e-13
  117 6836.32 0.00000 -3.58181e-12
  118 6836.32 0.00000 5.69906e-14
  119 6836.32 0.00000 9.60001e-14
  120 6836.32 0.00000 -1.57554e-12
  121 6836.32 0.00000 1.62126e-13
  122 6836.32 0.00000 1.13078e-12
  123 6836.32 0.00000 7.45129e-13
  124 6836.32 0.00000 6.28729e-13
  125 6836.32 0.00000 1.32921e-12
  126 6836.32 0.00000 1.66939e-13
  127 6836.32 0.00000 2.07031e-12
  128 6836.32 0.00000 9.44635e-14
  129 6836.32 0.00000 7.30821e-13
  130 6836.32 0.00000 -4.68364e-13
  131 6836.32 0.00000 8.85192e-13
  132 6836.32 0.00000 1.85616e-13
  133 6836.32 0.00000 1.22732e-12
  134 6836.32 0.00000 -1.12185e-12
  135 6836.32 0.00000 2.22422e-12
  136 6836.32 0.00000 4.60015e-13
  137 6836.32 0.00000 3.37242e-13
  138 6836.32 0.00000 1.35949e-13
  139 6836.32 0.00000 2.82179e-13
  140 6836.32 0.00000 1.99772e-13
  141 6836.32 0.00000 1.49038e-12
  142 6836.32 0.00000 8.15664e-13
  143 6836.32 0.00000 -4.94281e-13
  144 6836.32 0.00000 1.69852e-12
  145 6836.32 0.00000 -3.80691e-13
  146 6836.32 0.00000 -5.68665e-13
  147 6836.32 0.00000 -4.28295e-13
  148 6836.32 0.00000 1.14167e-14
  149 6836.32 0.00000 1.94200e-12
  150 6836.32 0.00000 1.57988e-13
  151 6836.32 0.00000 -5.52322e-13
  152 6836.32 0.00000 1.36192e-12
  153 6836.32 0.00000 2.51190e-12
  154 6836.32 0.00000 -1.56519e-13
  155 6836.32 0.00000 5.13537e-13
  156 6836.32 0.00000 -7.76834e-13
  157 6836.32 0.00000 -2.85975e-13
  158 6836.32 0.00000 -1.88892e-12
  159 6836.32 0.00000 -2.02158e-12
  160 6836.32 0.00000 2.21518e-13
  161 6836.32 0.00000 -1.25301e-12
  162 6836.32 0.00000 -2.14324e-14
  163 6836.32 0.00000 -1.05421e-12
  164 6836.32 0.00000 4.83619e-13
  165 6836.32 0.00000 4.15347e-13
  166 6836.32 0.00000 -2.08358e-13
  167 6836.32 0.00000 3.89345e-13
  168 6836.32 0.00000 -4.62495e-13
  169 6836.32 0.00000 1.75010e-13
  170 6836.32 0.00000 1.75323e-13
  171 6836.32 0.00000 6.33065e-13
  172 6836.32 0.00000 -8.82507e-13
  173 6836.32 0.00000 7.99024e-13
  174 6836.32 0.00000 3.86976e-12
  175 6836.32 0.00000 3.18654e-13
  176 6836.32 0.00000 2.18092e-14
  177 6836.32 0.00000 -1.97881e-12
  178 6836.32 0.00000 -4.14504e-13
  179 6836.32 0.00000 -1.07004e-14
  180 6836.32 0.00000 -7.61548e-13
  181 6836.32 0.00000 2.06137e-13
  182 6836.32 0.00000 -2.48650e-12
  183 6836.32 0.00000 -3.94562e-13
  184 6836.32 0.00000 1.44768e-12
  185 6836.32 0.00000 5.05918e-14
  186 6836.32 0.00000 -2.86153e-13
  187 6836.32 0.00000 -2.35258e-12
  188 6836.32 0.00000 9.70630e-13
  189 6836.32 0.00000 3.72837e-13
  190 6836.32 0.00000 5.51828e-13
  191 6836.32 0.00000 5.21505e-13
  192 6836.32 0.00000 4.47033e-13
  193 6836.32 0.00000 5.83143e-13
  194 6836.32 0.00000 -3.53594e-13
  195 6836.32 0.00000 -2.83693e-14
  196 6836.32 0.00000 -1.90281e-12
  197 6836.32 0.00000 3.73227e-14
  198 6836.32 0.00000 8.50577e-13
  199 6836.32 0.00000 -6.57634e-13
  200 6836.32 0.00000 3.17369e-12
  201 6836.32 0.00000 1.79431e-12
  202 6836.32 0.00000 1.15531e-12
  203 6836.32 0.00000 -2.03209e-12
  204 6836.32 0.00000 -4.21537e-13
  205 6836.32 0.00000 -1.60651e-13
  206 6836.32 0.00000 6.59122e-12
  207 6836.32 0.00000 5.55471e-13
  208 6836.32 0.00000 2.79478e-13
  209 6836.32 0.00000 -1.66523e-13
  210 6836.32 0.00000 4.10053e-13
  211 6836.32 0.00000 2.14567e-13
  212 6836.32 0.00000 2.25058e-12
  213 6836.32 0.00000 4.42970e-13
  214 6836.32 0.00000 -4.50256e-13
  215 6836.32 0.00000 2.50571e-12
  216 6836.32 0.00000 7.11893e-13
  217 6836.32 0.00000 -2.03779e-12
  218 6836.32 0.00000 1.56911e-13
  219 6836.32 0.00000 1.42604e-13
  220 6836.32 0.00000 8.71573e-13
  221 6836.32 0.00000 5.84553e-13
  222 6836.32 0.00000 1.95283e-12
  223 6836.32 0.00000 8.14103e-13
  224 6836.32 0.00000 1.85878e-13
  225 6836.32 0.00000 1.76835e-12
  226 6836.32 0.00000 5.61751e-14
  227 6836.32 0.00000 -1.77700e-13
  228 6836.32 0.00000 1.70509e-12
  229 6836.32 0.00000 7.30651e-14
  230 6836.32 0.00000 2.50564e-12
  231 6836.32 0.00000 2.16306e-12
  232 6836.32 0.00000 -6.06303e-13
  233 6836.32 0.00000 -2.64188e-12
  234 6836.32 0.00000 -5.06382e-13
  235 6836.32 0.00000 2.90080e-13
  236 6836.32 0.00000 1.62604e-13
  237 6836.32 0.00000 1.18391e-12
  238 6836.32 0.00000 2.28474e-12
  239 6836.32 0.00000 -4.52274e-13
  240 6836.32 0.00000 1.59127e-13
  241 6836.32 0.00000 6.73748e-13
</Section>

newXOutput 144

<Section columns = "stress_xx | stress_yy | stress_xy">
  1 6889.48 0.00000 -2.01220e-13
  2 6889.48 0.00000 -1.49607e-12
  3 6889.48 0.00000 -6.49776e-13
  4 6889.48 0.00000 -1.20369e-14
  5 6889.48 0.00000 -4.03298e-13
  6 6889.48 0.00000 -5.18894e-13
  7 6889.48 0.00000 -7.77054e-13
  8 6889.48 0.00000 -4.21849e-13
  9 6889.48 0.00000 1.72965e-13
  10 6889.48 0.00000 3.07111e-13
  11 6889.48 0.00000 -9.40743e-13
  12 6889.48 0.00000 1.92374e-13
  13 6889.48 0.00000 8.78951e-13
  14 6889.48 0.00000 3.33941e-12
  15 6889.48 0.00000 3.30300e-13
  16 6889.48 0.00000 -1.49674e-12
  17 6889.48 0.00000 -2.82144e-12
  18 6889.48 0.00000 -3.33941e-12
  19 6889.48 0.00000 -1.57437e-12
  20 6889.48 0.00000 -4.92266e-12
  21 6889.48 0.00000 -6.87901e-12
  22 6889.48 0.00000 -3.78929e-12
  23 6889.48 0.00000 -3.48217e-12
  24 6889.48 0.00000 2.42736e-12
  25 6889.48 0.00000 -6.60504e-13
  26 6889.48 0.00000 -3.15524e-12
  27 6889.48 0.00000 4.22223e-12
  28 6889.48 0.00000 -2.54831e-12
  29 6889.48 0.00000 4.59284e-13
  30 6889.48 0.00000 -1.26689e-12
  31 6889.48 0.00000 3.72662e-12
  32 6889.48 0.00000 9.41844e-12
  33 6889.48 0.00000 3.77894e-12
  34 6889.48 0.00000 2.81026e-13
  35 6889.48 0.00000 -1.01109e-12
  36 6889.48 0.00000 1.06297e-12
  37 6889.48 0.00000 3.85599e-13
  38 6889.48 0.00000 -7.79396e-13
  39 6889.48 0.00000 9.86402e-13
  40 6889.48 0.00000 -5.43862e-13
  41 6889.48 0.00000 -6.97261e-13
  42 6889.48 0.00000 7.32047e-13
  43 6889.48 0.00000 -1.99525e-13
  44 6889.48 0.00000 -1.27050e-12
  45 6889.48 0.00000 -7.90010e-13
  46 6889.48 0.00000 6.58111e-14
  47 6889.48 0.00000 8.51607e-13
  48 6889.48 0.00000 2.14362e-13
  49 6889.48 0.00000 1.04543e-13
  50 6889.48 0.00000 -7.52501e-15
  51 6889.48 0.00000 1.00610e-13
  52 6889.48 0.00000 1.03879e-13
  53 6889.48 0.00000 2.01220e-13
  54 6889.48 0.00000 1.81663e-13
  55 6889.48 0.00000 4.02440e-13
  56 6889.48 0.00000 1.12558e-13
  57 6889.48 0.00000 2.75818e-13
  58 6889.48 0.00000 -3.47315e-13
  59 6889.48 0.00000 9.51764e-13
  60 6889.48 0.00000 9.60028e-13
  61 6889.48 0.00000 1.26085e-12
  62 6889.48 0.00000 -1.40766e-12
  63 6889.48 0.00000 -4.41021e-13
  64 6889.48 0.00000 6.95279e-13
  65 6889.48 0.00000 5.14484e-14
  66 6889.48 0.00000 -2.72438e-13
  67 6889.48 0.00000 -1.29569e-12
  68 6889.48 0.00000 3.29129e-13
  69 6889.48 0.00000 -1.52495e-13
  70 6889.48 0.00000 -8.58399e-13
  71 6889.48 0.00000 3.58422e-13
  72 6889.48 0.00000 -2.62022e-13
  73 6889.48 0.00000 -8.80194e-13
  74 6889.48 0.00000 -4.52066e-13
  75 6889.48 0.00000 -1.71029e-12
  76 6889.48 0.00000 3.07512e-12
  77 6889.48 0.00000 1.46953e-13
  78 6889.48 0.00000 1.76193e-12
  79 6889.48 0.00000 -2.01064e-13
  80 6889.48 0.00000 4.41719e-13
  81 6889.48 0.00000 -1.41772e-12
  82 6889.48 0.00000 -6.18769e-13
  83 6889.48 0.00000 -3.21732e-13
  84 6889.48 0.00000 2.68722e-13
  85 6889.48 0.00000 -7.52793e-13
  86 6889.48 0.00000 2.24975e-12
  87 6889.48 0.00000 -2.06885e-13
  88 6889.48 0.00000 -2.80704e-12
  89 6889.48 0.00000 2.62320e-13
  90 6889.48 0.00000 5.61030e-13
  91 6889.48 0.00000 1.77790e-13
  92 6889.48 0.00000 8.75267e-13
  93 6889.48 0.00000 3.14004e-12
  94 6889.48 0.00000 1.56702e-12
  95 6889.48 0.00000 -1.74010e-12
  96 6889.48 0.00000 9.83459e-13
  97 6889.48 0.00000 -3.09277e-13
  98 6889.48 0.00000 -4.16500e-13
  99 6889.48 0.00000 -4.51359e-13
  100 6889.48 0.00000 4.28938e-13
  101 6889.48 0.00000 -4.02440e-13
  102 6889.48 0.00000 -4.06479e-13
  103 6889.48 0.00000 -1.09172e-12
  104 6889.48 0.00000 6.15965e-14
  105 6889.48 0.00000 -2.00371e-13
  106 6889.48 0.00000 1.12922e-12
  107 6889.48 0.00000 -2.05101e-12
  108 6889.48 0.00000 -2.62184e-13
  109 6889.48 0.00000 1.91397e-13
  110 6889.48 0.00000 -3.69649e-12
  111 6889.48 0.00000 6.17972e-13
  112 6889.48 0.00000 -1.03797e-12
  113 6889.48 0.00000 -8.32998e-13
  114 6889.48 0.00000 2.46980e-13
  115 6889.48 0.00000 -1.28108e-13
  116 6889.48 0.00000 2.53624e-13
  117 6889.48 0.00000 -8.13263e-13
  118 6889.48 0.00000 3.22160e-13
  119 6889.48 0.00000 6.88710e-13
  120 6889.48 0.00000 6.13081e-13
  121 6889.48 0.00000 1.91346e-13
  122 6889.48 0.00000 -7.58577e-13
  123 6889.48 0.00000 1.68192e-12
  124 6889.48 0.00000 -5.73548e-13
  125 6889.48 0.00000 -9.74424e-13
  126 6889.48 0.00000 1.01340e-13
  127 6889.48 0.00000 -3.53322e-13
  128 6889.48 0.00000 -5.00557e-14
  129 6889.48 0.00000 -6.03640e-13
  130 6889.48 0.00000 4.78789e-14
  131 6889.48 0.00000 -6.58288e-13
  132 6889.48 0.00000 -3.80869e-13
  133 6889.48 0.00000 -2.42630e-12
  134 6889.48 0.00000 8.99734e-14
  135 6889.48 0.00000 -2.04813e-12
  136 6889.48 0.00000 1.69719e-15
  137 6889.48 0.00000 -2.27792e-13
  138 6889.48 0.00000 7.07951e-13
  139 6889.48 0.00000 2.10393e-13
  140 6889.48 0.00000 -6.21032e-13
  141 6889.48 0.00000 4.19359e-13
  142 6889.48 0.00000 5.82866e-13
  143 6889.48 0.00000 4.55206e-13
  144 6889.48 0.00000 -5.88241e-13
  145 6889.48 0.00000 1.00266e-12
  146 6889.48 0.00000 -1.15558e-12
  147 6889.48 0.00000 2.34674e-13
  148 6889.48 0.00000 3.50876e-14
  149 6889.48 0.00000 2.80573e-12
  150 6889.48 0.00000 8.69146e-13
  151 6889.48 0.00000 -1.89304e-13
  152 6889.48 0.00000 -3.48008e-13
  153 6889.48 0.00000 -5.89994e-13
  154 6889.48 0.00000 5.44401e-13
  155 6889.48 0.00000 3.92776e-13
  156 6889.48 0.00000 6.28463e-13
  157 6889.48 0.00000 -9.87419e-14
  158 6889.48 0.00000 7.31140e-13
  159 6889.48 0.00000 2.51064e-13
  160 6889.48 0.00000 -3.43827e-14
  161 6889.48 0.00000 4.16824e-12
  162 6889.48 0.00000 -8.03773e-13
  163 6889.48 0.00000 5.47149e-13
  164 6889.48 0.00000 -6.46975e-13
  165 6889.48 0.00000 4.16066e-14
  166 6889.48 0.00000 -3.22500e-15
  167 6889.48 0.00000 4.05240e-13
  168 6889.48 0.00000 -8.08848e-13
  169 6889.48 0.00000 1.88360e-13
  170 6889.48 0.00000 2.92921e-13
  171 6889.48 0.00000 3.20914e-13
  172 6889.48 0.00000 5.39689e-13
  173 6889.48 0.00000 -8.25356e-13
  174 6889.48 0.00000 -4.73320e-14
  175 6889.48 0.00000 -1.54949e-13
  176 6889.48 0.00000 -3.46161e-13
  177 6889.48 0.00000 -3.07417e-12
  178 6889.48 0.00000 -1.34670e-14
  179 6889.48 0.00000 -3.68019e-13
  180 6889.48 0.00000 6.37300e-13
  181 6889.48 0.00000 1.19294e-13
  182 6889.48 0.00000 -1.42986e-12
  183 6889.48 0.00000 -7.07089e-13
  184 6889.48 0.00000 -1.79561e-12
  185 6889.48 0.00000 1.56368e-13
  186 6889.48 0.00000 8.97529e-13
  187 6889.48 0.00000 1.53330e-12
  188 6889.48 0.00000 8.30033e-13
  189 6889.48 0.00000 5.81103e-13
  190 6889.48 0.00000 -1.91196e-13
  191 6889.48 0.00000 -1.98547e-13
  192 6889.48 0.00000 -6.78523e-13
  193 6889.48 0.00000 4.76926e-13
  194 6889.48 0.00000 1.49659e-12
  195 6889.48 0.00000 5.20448e-14
  196 6889.48 0.00000 -9.62195e-13
  197 6889.48 0.00000 4.05724e-13
  198 6889.48 0.00000 -5.95275e-13
  199 6889.48 0.00000 1.17504e-12
  200 6889.48 0.00000 -1.72087e-12
  201 6889.48 0.00000 -1.70665e-12
  202 6889.48 0.00000 -2.99138e-13
  203 6889.48 0.00000 -4.46571e-13
  204 6889.48 0.00000 1.32206e-12
  205 6889.48 0.00000 4.99056e-13
  206 6889.48 0.00000 -5.31310e-12
  207 6889.48 0.00000 1.44632e-13
  208 6889.48 0.00000 -4.39772e-13
  209 6889.48 0.00000 2.32168e-12
  210 6889.48 0.00000 2.04511e-13
  211 6889.48 0.00000 2.45867e-14
  212 6889.48 0.00000 -1.40999e-12
  213 6889.48 0.00000 -2.28096e-13
  214 6889.48 0.00000 -8.02938e-13
  215 6889.48 0.00000 -1.23765e-12
  216 6889.48 0.00000 -2.18791e-12
  217 6889.48 0.00000 1.22224e-12
  218 6889.48 0.00000 -5.31639e-13
  219 6889.48 0.00000 1.63563e-12
  220 6889.48 0.00000 1.31871e-13
  221 6889.48 0.00000 5.96127e-14
  222 6889.48 0.00000 1.50580e-12
  223 6889.48 0.00000 4.71540e-13
  224 6889.48 0.00000 -2.79093e-13
  225 6889.48 0.00000 9.24704e-13
  226 6889.48 0.00000 -7.88467e-15
  227 6889.48 0.00000 5.44509e-13
  228 6889.48 0.00000 -2.00364e-12
  229 6889.48 0.00000 1.15274e-13
  230 6889.48 0.00000 -1.19245e-12
  231 6889.48 0.00000 -1.27623e-13
  232 6889.48 0.00000 7.94226e-13
  233 6889.48 0.00000 4.29222e-12
  234 6889.48 0.00000 -1.22773e-12
  235 6889.48 0.00000 -1.47660e-12
  236 6889.48 0.00000 9.64545e-13
  237 6889.48 0.00000 -3.73168e-13
  238 6889.48 0.00000 9.27118e-13
  239 6889.48 0.00000 -1.37233e-12
  240 6889.48 0.00000 1.00285e-12
  241 6889.48 0.00000 3.45929e-13
</Section>

newXOutput 145

<Section columns = "stress_xx | stress_yy | stress_xy">
  1 6942.78 0.00000 -2.58364e-13
  2 6942.78 0.00000 4.51545e-13
  3 6942.78 0.00000 -1.14322e-12
  4 6942.78 0.00000 2.12625e-14
  5 6942.78 0.00000 -3.08173e-13
  6 6942.78 0.00000 -2.62618e-13
  7 6942.78 0.00000 -1.71773e-12
  8 6942.78 0.00000 -1.07861e-12
  9 6942.78 0.00000 -1.05761e-12
  10 6942.78 0.00000 -1.36988e-12
  11 6942.78 0.00000 -2.35328e-12
  12 6942.78 0.00000 -4.60721e-14
  13 6942.78 0.00000 -5.86249e-13
  14 6942.78 0.00000 -8.82536e-13
  15 6942.78 0.00000 2.43808e-13
  16 6942.78 0.00000 -5.67220e-13
  17 6942.78 0.00000 1.19785e-12
  18 6942.78 0.00000 3.78234e-12
  19 6942.78 0.00000 3.03261e-12
  20 6942.78 0.00000 3.64925e-12
  21 6942.78 0.00000 3.56528e-12
  22 6942.78 0.00000 -9.31663e-13
  23 6942.78 0.00000 -1.70990e-13
  24 6942.78 0.00000 3.01030e-13
  25 6942.78 0.00000 2.56486e-13
  26 6942.78 0.00000 1.07252e-12
  27 6942.78 0.00000 -4.10690e-12
  28 6942.78 0.00000 1.33074e-12
  29 6942.78 0.00000 5.55949e-13
  30 6942.78 0.00000 -4.30081e-13
  31 6942.78 0.00000 -3.06207e-13
  32 6942.78 0.00000 -2.15453e-12
  33 6942.78 0.00000 -1.37808e-12
  34 6942.78 0.00000 -7.96002e-13
  35 6942.78 0.00000 -4.52134e-13
  36 6942.78 0.00000 6.99421e-13
  37 6942.78 0.00000 -4.53904e-12
  38 6942.78 0.00000 -3.88722e-12
  39 6942.78 0.00000 -2.38858e-12
  40 6942.78 0.00000 -1.79223e-12
  41 6942.78 0.00000 1.83437e-13
  42 6942.78 0.00000 -1.73061e-13
  43 6942.78 0.00000 -3.80735e-14
  44 6942.78 0.00000 1.25970e-12
  45 6942.78 0.00000 1.31111e-12
  46 6942.78 0.00000 -6.42585e-14
  47 6942.78 0.00000 -5.79877e-13
  48 6942.78 0.00000 -9.81090e-13
  49 6942.78 0.00000 -5.05978e-14
  50 6942.78 0.00000 1.10842e-13
  51 6942.78 0.00000 0.00000
  52 6942.78 0.00000 -3.18667e-13
  53 6942.78 0.00000 3.14879e-14
  54 6942.78 0.00000 2.73169e-13
  55 6942.78 0.00000 3.99284e-13
  56 6942.78 0.00000 -1.05695e-13
  57 6942.78 0.00000 -4.75693e-13
  58 6942.78 0.00000 1.12852e-12
  59 6942.78 0.00000 -2.25685e-13
  60 6942.78 0.00000 -5.73824e-13
  61 6942.78 0.00000 -8.31991e-13
  62 6942.78 0.00000 1.22784e-12
  63 6942.78 0.00000 8.46741e-13
  64 6942.78 0.00000 -1.08783e-12
  65 6942.78 0.00000 -1.22834e-13
  66 6942.78 0.00000 4.78556e-13
  67 6942.78 0.00000 1.93400e-12
  68 6942.78 0.00000 -4.51764e-13
  69 6942.78 0.00000 -1.60339e-14
  70 6942.78 0.00000 -4.43892e-13
  71 6942.78 0.00000 -6.38494e-13
  72 6942.78 0.00000 -4.99317e-13
  73 6942.78 0.00000 -1.20276e-12
  74 6942.78 0.00000 6.55799e-13
  75 6942.78 0.00000 1.73625e-12
  76 6942.78 0.00000 -3.92336e-12
  77 6942.78 0.00000 -1.91402e-13
  78 6942.78 0.00000 -1.31034e-12
  79 6942.78 0.00000 -1.14766e-12
  80 6942.78 0.00000 -1.11855e-12
  81 6942.78 0.00000 3.28166e-28
  82 6942.78 0.00000 1.14874e-12
  83 6942.78 0.00000 -3.58430e-14
  84 6942.78 0.00000 1.40387e-13
  85 6942.78 0.00000 3.22532e-12
  86 6942.78 0.00000 -1.18907e-12
  87 6942.78 0.00000 6.43362e-13
  88 6942.78 0.00000 -9.27191e-13
  89 6942.78 0.00000 -3.84170e-13
  90 6942.78 0.00000 3.50580e-13
  91 6942.78 0.00000 -1.72367e-13
  92 6942.78 0.00000 -8.16324e-13
  93 6942.78 0.00000 1.00104e-12
  94 6942.78 0.00000 -3.64582e-13
  95 6942.78 0.00000 7.15933e-13
  96 6942.78 0.00000 3.08173e-13
  97 6942.78 0.00000 -2.35971e-12
  98 6942.78 0.00000 1.13644e-12
  99 6942.78 0.00000 -9.33230e-13
  100 6942.78 0.00000 5.43188e-13
  101 6942.78 0.00000 7.24214e-14
  102 6942.78 0.00000 -5.04525e-13
  103 6942.78 0.00000 5.88321e-13
  104 6942.78 0.00000 1.41890e-12
  105 6942.78 0.00000 -1.22467e-12
  106 6942.78 0.00000 -1.31782e-12
  107 6942.78 0.00000 -2.80824e-13
  108 6942.78 0.00000 -5.80712e-13
  109 6942.78 0.00000 5.21081e-13
  110 6942.78 0.00000 1.30233e-12
  111 6942.78 0.00000 3.05827e-13
  112 6942.78 0.00000 6.32933e-13
  113 6942.78 0.00000 -2.03932e-13
  114 6942.78 0.00000 5.49267e-14
  115 6942.78 0.00000 -1.10588e-12
  116 6942.78 0.00000 -7.94282e-13
  117 6942.78 0.00000 -2.93566e-12
  118 6942.78 0.00000 2.96145e-14
  119 6942.78 0.00000 -6.84930e-13
  120 6942.78 0.00000 -1.20346e-12
  121 6942.78 0.00000 -7.27395e-13
  122 6942.78 0.00000 -1.89794e-13
  123 6942.78 0.00000 -5.19922e-13
  124 6942.78 0.00000 7.41271e-13
  125 6942.78 0.00000 1.36096e-12
  126 6942.78 0.00000 -4.49979e-13
  127 6942.78 0.00000 4.44488e-13
  128 6942.78 0.00000 -8.77288e-13
  129 6942.78 0.00000 9.34689e-13
  130 6942.78 0.00000 -7.49700e-13
  131 6942.78 0.00000 -1.17068e-12
  132 6942.78 0.00000 -3.46470e-13
  133 6942.78 0.00000 2.58039e-12
  134 6942.78 0.00000 -5.67787e-13
  135 6942.78 0.00000 1.44988e-12
  136 6942.78 0.00000 3.67483e-13
  137 6942.78 0.00000 3.23727e-13
  138 6942.78 0.00000 9.29004e-15
  139 6942.78 0.00000 -1.80400e-14
  140 6942.78 0.00000 -1.47486e-12
  141 6942.78 0.00000 -1.17664e-12
  142 6942.78 0.00000 -8.05751e-13
  143 6942.78 0.00000 8.85321e-14
  144 6942.78 0.00000 1.55532e-13
  145 6942.78 0.00000 -1.62823e-12
  146 6942.78 0.00000 -5.44471e-14
  147 6942.78 0.00000 -1.87453e-12
  148 6942.78 0.00000 5.19546e-14
  149 6942.78 0.00000 -3.54555e-12
  150 6942.78 0.00000 -9.47723e-13
  151 6942.78 0.00000 -1.88778e-13
  152 6942.78 0.00000 -9.94939e-13
  153 6942.78 0.00000 -2.64145e-13
  154 6942.78 0.00000 -8.38991e-13
  155 6942.78 0.00000 1.05765e-13
  156 6942.78 0.00000 1.34044e-12
  157 6942.78 0.00000 -3.72698e-13
  158 6942.78 0.00000 -5.19546e-14
  159 6942.78 0.00000 -8.09056e-13
  160 6942.78 0.00000 -6.58146e-14
  161 6942.78 0.00000 -1.63144e-12
  162 6942.78 0.00000 9.98967e-13
  163 6942.78 0.00000 6.42364e-14
  164 6942.78 0.00000 6.79571e-13
  165 6942.78 0.00000 8.81696e-14
  166 6942.78 0.00000 1.33065e-13
  167 6942.78 0.00000 1.44263e-13
  168 6942.78 0.00000 9.06598e-13
  169 6942.78 0.00000 5.40261e-14
  170 6942.78 0.00000 2.47831e-12
  171 6942.78 0.00000 -1.02970e-13
  172 6942.78 0.00000 -2.25703e-12
  173 6942.78 0.00000 2.53673e-13
  174 6942.78 0.00000 6.21227e-13
  175 6942.78 0.00000 3.14778e-13
  176 6942.78 0.00000 -5.20097e-13
  177 6942.78 0.00000 -1.59405e-12
  178 6942.78 0.00000 1.63694e-13
  179 6942.78 0.00000 -1.06320e-12
  180 6942.78 0.00000 -3.80535e-14
  181 6942.78 0.00000 9.10824e-13
  182 6942.78 0.00000 -1.55228e-12
  183 6942.78 0.00000 -5.01355e-13
  184 6942.78 0.00000 1.52559e-12
  185 6942.78 0.00000 3.55746e-13
  186 6942.78 0.00000 -8.82449e-13
  187 6942.78 0.00000 -3.80808e-12
  188 6942.78 0.00000 -1.08899e-12
  189 6942.78 0.00000 -1.25001e-13
  190 6942.78 0.00000 8.98020e-13
  191 6942.78 0.00000 1.96602e-12
  192 6942.78 0.00000 1.95187e-12
  193 6942.78 0.00000 -1.77762e-13
  194 6942.78 0.00000 -1.46717e-12
  195 6942.78 0.00000 -5.21941e-14
  196 6942.78 0.00000 2.55945e-12
  197 6942.78 0.00000 5.97086e-13
  198 6942.78 0.00000 2.08929e-12
  199 6942.78 0.00000 -8.09480e-13
  200 6942.78 0.00000 6.52557e-13
  201 6942.78 0.00000 -2.22048e-13
  202 6942.78 0.00000 5.54082e-13
  203 6942.78 0.00000 4.82256e-14
  204 6942.78 0.00000 -8.12706e-13
  205 6942.78 0.00000 -1.86201e-13
  206 6942.78 0.00000 1.53653e-12
  207 6942.78 0.00000 4.38281e-13
  208 6942.78 0.00000 -1.99668e-12
  209 6942.78 0.00000 -3.62216e-12
  210 6942.78 0.00000 4.84172e-13
  211 6942.78 0.00000 -6.82641e-13
  212 6942.78 0.00000 -1.33640e-12
  213 6942.78 0.00000 -3.79027e-13
  214 6942.78 0.00000 2.81905e-13
  215 6942.78 0.00000 2.35497e-13
  216 6942.78 0.00000 1.89221e-13
  217 6942.78 0.00000 -1.41459e-12
  218 6942.78 0.00000 6.03393e-13
  219 6942.78 0.00000 1.74740e-12
  220 6942.78 0.00000 1.35020e-12
  221 6942.78 0.00000 -2.30500e-13
  222 6942.78 0.00000 -5.87842e-13
  223 6942.78 0.00000 -9.20610e-13
  224 6942.78 0.00000 -6.32426e-13
  225 6942.78 0.00000 -1.56463e-12
  226 6942.78 0.00000 3.01475e-13
  227 6942.78 0.00000 -1.76150e-12
  228 6942.78 0.00000 1.37204e-12
  229 6942.78 0.00000 4.88555e-13
  230 6942.78 0.00000 -1.32600e-12
  231 6942.78 0.00000 -1.09343e-12
  232 6942.78 0.00000 -6.29277e-13
  233 6942.78 0.00000 -1.02836e-13
  234 6942.78 0.00000 4.34552e-13
  235 6942.78 0.00000 1.01017e-13
  236 6942.78 0.00000 1.19543e-13
  237 6942.78 0.00000 -1.41312e-12
  238 6942.78 0.00000 -7.02461e-13
  239 6942.78 0.00000 2.93322e-13
  240 6942.78 0.00000 -2.79809e-13
  241 6942.78 0.00000 4.07001e-13
</Section>

newXOutput 146

<Section columns = "stress_xx | stress_yy | stress_xy">
  1 6996.22 0.00000 3.96117e-13
  2 6996.22 0.00000 -4.64396e-13
  3 6996.22 0.00000 1.88580e-12
  4 6996.22 0.00000 1.94629e-13
  5 6996.22 0.00000 3.56702e-13
  6 6996.22 0.00000 4.19086e-13
  7 6996.22 0.00000 1.32930e-12
  8 6996.22 0.00000 2.98532e-14
  9 6996.22 0.00000 0.00000
  10 6996.22 0.00000 1.40691e-12
  11 6996.22 0.00000 -1.32039e-13
  12 6996.22 0.00000 4.86449e-13
  13 6996.22 0.00000 5.51411e-13
  14 6996.22 0.00000 -5.38885e-13
  15 6996.22 0.00000 -1.26674e-12
  16 6996.22 0.00000 -3.96117e-13
  17 6996.22 0.00000 -4.36016e-12
  18 6996.22 0.00000 -9.72898e-13
  19 6996.22 0.00000 -2.77211e-12
  20 6996.22 0.00000 -6.18488e-13
  21 6996.22 0.00000 -1.69935e-13
  22 6996.22 0.00000 3.54410e-13
  23 6996.22 0.00000 1.62547e-12
  24 6996.22 0.00000 -6.98091e-13
  25 6996.22 0.00000 0.00000
  26 6996.22 0.00000 -1.94524e-12
  27 6996.22 0.00000 2.93966e-12
  28 6996.22 0.00000 -1.16789e-12
  29 6996.22 0.00000 0.00000
  30 6996.22 0.00000 -6.47686e-13
  31 6996.22 0.00000 4.40221e-12
  32 6996.22 0.00000 9.69905e-12
  33 6996.22 0.00000 2.69479e-12
  34 6996.22 0.00000 3.52915e-13
  35 6996.22 0.00000 9.66395e-13
  36 6996.22 0.00000 5.62946e-12
  37 6996.22 0.00000 3.90452e-12
  38 6996.22 0.00000 -3.22184e-13
  39 6996.22 0.00000 9.19764e-13
  40 6996.22 0.00000 2.09134e-12
  41 6996.22 0.00000 2.00515e-12
  42 6996.22 0.00000 -1.40816e-12
  43 6996.22 0.00000 -1.31106e-12
  44 6996.22 0.00000 -2.02997e-13
  45 6996.22 0.00000 -3.71810e-13
  46 6996.22 0.00000 -6.37732e-15
  47 6996.22 0.00000 9.97973e-13
  48 6996.22 0.00000 7.50790e-13
  49 6996.22 0.00000 1.43882e-13
  50 6996.22 0.00000 -2.65457e-14
  51 6996.22 0.00000 0.00000
  52 6996.22 0.00000 3.83416e-13
  53 6996.22 0.00000 -3.86555e-13
  54 6996.22 0.00000 2.35298e-14
  55 6996.22 0.00000 -5.09804e-13
  56 6996.22 0.00000 -3.27000e-13
  57 6996.22 0.00000 -8.96727e-13
  58 6996.22 0.00000 -9.71169e-13
  59 6996.22 0.00000 4.44606e-12
  60 6996.22 0.00000 2.11663e-13
  61 6996.22 0.00000 -4.28466e-13
  62 6996.22 0.00000 -5.47255e-13
  63 6996.22 0.00000 5.69344e-12
  64 6996.22 0.00000 -2.04847e-12
  65 6996.22 0.00000 1.00426e-12
  66 6996.22 0.00000 3.44268e-13
  67 6996.22 0.00000 7.44449e-13
  68 6996.22 0.00000 6.48190e-13
  69 6996.22 0.00000 -9.25312e-14
  70 6996.22 0.00000 -1.84287e-13
  71 6996.22 0.00000 2.40379e-13
  72 6996.22 0.00000 -2.47303e-13
  73 6996.22 0.00000 -1.12259e-13
  74 6996.22 0.00000 1.38972e-13
  75 6996.22 0.00000 -6.26738e-13
  76 6996.22 0.00000 2.55615e-13
  77 6996.22 0.00000 -3.90956e-13
  78 6996.22 0.00000 5.61777e-13
  79 6996.22 0.00000 1.63437e-12
  80 6996.22 0.00000 6.19739e-13
  81 6996.22 0.00000 -4.58980e-12
  82 6996.22 0.00000 1.25755e-12
  83 6996.22 0.00000 -6.45420e-13
  84 6996.22 0.00000 -6.24134e-13
  85 6996.22 0.00000 1.12915e-13
  86 6996.22 0.00000 2.17519e-12
  87 6996.22 0.00000 -8.22423e-13
  88 6996.22 0.00000 -1.33091e-12
  89 6996.22 0.00000 -9.42667e-14
  90 6996.22 0.00000 2.31167e-13
  91 6996.22 0.00000 -7.53751e-13
  92 6996.22 0.00000 -9.16195e-13
  93 6996.22 0.00000 -3.83523e-12
  94 6996.22 0.00000 2.05456e-12
  95 6996.22 0.00000 5.83289e-13
  96 6996.22 0.00000 6.66781e-13
  97 6996.22 0.00000 1.79469e-12
  98 6996.22 0.00000 -9.68810e-13
  99 6996.22 0.00000 9.35716e-13
  100 6996.22 0.00000 2.31933e-13
  101 6996.22 0.00000 6.15718e-13
  102 6996.22 0.00000 -1.30319e-12
  103 6996.22 0.00000 1.75161e-12
  104 6996.22 0.00000 -1.17749e-12
  105 6996.22 0.00000 8.59983e-13
  106 6996.22 0.00000 3.69099e-12
  107 6996.22 0.00000 -1.94940e-12
  108 6996.22 0.00000 4.17830e-13
  109 6996.22 0.00000 4.89016e-13
  110 6996.22 0.00000 -2.10179e-12
  111 6996.22 0.00000 -3.51965e-13
  112 6996.22 0.00000 -9.03496e-13
  113 6996.22 0.00000 2.89239e-13
  114 6996.22 0.00000 2.57826e-12
  115 6996.22 0.00000 3.96339e-13
  116 6996.22 0.00000 8.03497e-13
  117 6996.22 0.00000 -1.38239e-12
  118 6996.22 0.00000 9.13056e-13
  119 6996.22 0.00000 4.31996e-13
  120 6996.22 0.00000 2.89686e-13
  121 6996.22 0.00000 -4.00740e-13
  122 6996.22 0.00000 -9.14647e-14
  123 6996.22 0.00000 5.88685e-13
  124 6996.22 0.00000 -5.81950e-13
  125 6996.22 0.00000 -1.22335e-12
  126 6996.22 0.00000 -3.08607e-13
  127 6996.22 0.00000 9.84176e-14
  128 6996.22 0.00000 2.12270e-13
  129 6996.22 0.00000 -5.10140e-13
  130 6996.22 0.00000 3.68806e-13
  131 6996.22 0.00000 1.16076e-12
  132 6996.22 0.00000 1.70230e-13
  133 6996.22 0.00000 -3.91417e-13
  134 6996.22 0.00000 -7.56511e-13
  135 6996.22 0.00000 -6.47497e-13
  136 6996.22 0.00000 -2.48058e-13
  137 6996.22 0.00000 1.65677e-12
  138 6996.22 0.00000 1.83841e-12
  139 6996.22 0.00000 3.86899e-13
  140 6996.22 0.00000 -2.27223e-13
  141 6996.22 0.00000 3.01162e-13
  142 6996.22 0.00000 3.09244e-13
  143 6996.22 0.00000 -4.77662e-13
  144 6996.22 0.00000 1.48810e-13
  145 6996.22 0.00000 4.26646e-13
  146 6996.22 0.00000 -1.71247e-12
  147 6996.22 0.00000 7.39584e-13
  148 6996.22 0.00000 -3.24557e-13
  149 6996.22 0.00000 -1.29382e-12
  150 6996.22 0.00000 1.59306e-12
  151 6996.22 0.00000 -7.27663e-13
  152 6996.22 0.00000 2.58537e-13
  153 6996.22 0.00000 2.43225e-13
  154 6996.22 0.00000 4.91676e-12
  155 6996.22 0.00000 1.74333e-13
  156 6996.22 0.00000 -2.93583e-12
  157 6996.22 0.00000 -7.00786e-14
  158 6996.22 0.00000 -1.75939e-12
  159 6996.22 0.00000 8.63705e-13
  160 6996.22 0.00000 -1.68153e-13
  161 6996.22 0.00000 1.84302e-12
  162 6996.22 0.00000 2.93990e-13
  163 6996.22 0.00000 3.22085e-13
  164 6996.22 0.00000 8.81944e-13
  165 6996.22 0.00000 -5.79400e-13
  166 6996.22 0.00000 -1.97491e-13
  167 6996.22 0.00000 -1.64589e-12
  168 6996.22 0.00000 6.67005e-13
  169 6996.22 0.00000 -3.32054e-13
  170 6996.22 0.00000 6.18167e-13
  171 6996.22 0.00000 1.08241e-12
  172 6996.22 0.00000 -1.02502e-14
  173 6996.22 0.00000 -1.14288e-12
  174 6996.22 0.00000 1.24174e-12
  175 6996.22 0.00000 -1.63391e-13
  176 6996.22 0.00000 5.35066e-14
  177 6996.22 0.00000 -8.89379e-13
  178 6996.22 0.00000 -8.44314e-13
  179 6996.22 0.00000 5.09789e-13
  180 6996.22 0.00000 -1.34456e-14
  181 6996.22 0.00000 -2.52874e-12
  182 6996.22 0.00000 1.42241e-12
  183 6996.22 0.00000 1.62316e-12
  184 6996.22 0.00000 -1.52784e-12
  185 6996.22 0.00000 -7.51769e-13
  186 6996.22 0.00000 -4.00268e-13
  187 6996.22 0.00000 1.25046e-12
  188 6996.22 0.00000 3.53308e-12
  189 6996.22 0.00000 -1.10846e-12
  190 6996.22 0.00000 -6.50088e-15
  191 6996.22 0.00000 -1.57157e-12
  192 6996.22 0.00000 6.77488e-14
  193 6996.22 0.00000 1.61821e-12
  194 6996.22 0.00000 -1.35902e-12
  195 6996.22 0.00000 -4.45046e-15
  196 6996.22 0.00000 7.12229e-13
  197 6996.22 0.00000 -5.55866e-14
  198 6996.22 0.00000 1.25783e-12
  199 6996.22 0.00000 -8.51234e-13
  200 6996.22 0.00000 -2.35163e-12
  201 6996.22 0.00000 -6.31976e-14
  202 6996.22 0.00000 2.20796e-13
  203 6996.22 0.00000 -6.71592e-13
  204 6996.22 0.00000 3.28876e-13
  205 6996.22 0.00000 5.43948e-13
  206 6996.22 0.00000 -7.42186e-13
  207 6996.22 0.00000 -2.88282e-13
  208 6996.22 0.00000 8.09878e-13
  209 6996.22 0.00000 4.84862e-12
  210 6996.22 0.00000 -3.05784e-13
  211 6996.22 0.00000 4.84536e-13
  212 6996.22 0.00000 1.90537e-12
  213 6996.22 0.00000 -7.17546e-14
  214 6996.22 0.00000 -1.66754e-12
  215 6996.22 0.00000 7.64309e-13
  216 6996.22 0.00000 9.88193e-13
  217 6996.22 0.00000 2.79186e-12
  218 6996.22 0.00000 2.31780e-13
  219 6996.22 0.00000 7.68248e-13
  220 6996.22 0.00000 3.45129e-13
  221 6996.22 0.00000 1.63372e-12
  222 6996.22 0.00000 -2.10640e-12
  223 6996.22 0.00000 6.08307e-13
  224 6996.22 0.00000 1.99096e-13
  225 6996.22 0.00000 2.08148e-12
  226 6996.22 0.00000 8.19460e-13
  227 6996.22 0.00000 4.24778e-13
  228 6996.22 0.00000 -1.03112e-12
  229 6996.22 0.00000 2.60548e-13
  230 6996.22 0.00000 -1.31080e-12
  231 6996.22 0.00000 1.89078e-12
  232 6996.22 0.00000 -3.64381e-13
  233 6996.22 0.00000 -5.32704e-12
  234 6996.22 0.00000 -5.91124e-13
  235 6996.22 0.00000 1.15478e-12
  236 6996.22 0.00000 -5.02903e-13
  237 6996.22 0.00000 2.91105e-13
  238 6996.22 0.00000 1.20945e-12
  239 6996.22 0.00000 -2.20969e-13
  240 6996.22 0.00000 1.71057e-12
  241 6996.22 0.00000 -1.09278e-12
</Section>

newXOutput 147

<Section columns = "stress_xx | stress_yy | stress_xy">
  1 7049.81 0.00000 -1.16371e-13
  2 7049.81 0.00000 4.77797e-12
  3 7049.81 0.00000 -4.93566e-13
  4 7049.81 0.00000 -3.12039e-13
  5 7049.81 0.00000 1.30980e-13
  6 7049.81 0.00000 6.61956e-13
  7 7049.81 0.00000 2.50879e-13
  8 7049.81 0.00000 -6.56332e-28
  9 7049.81 0.00000 -3.20792e-13
  10 7049.81 0.00000 7.62096e-13
  11 7049.81 0.00000 1.46900e-12
  12 7049.81 0.00000 4.89668e-13
  13 7049.81 0.00000 -3.53933e-13
  14 7049.81 0.00000 1.30980e-13
  15 7049.81 0.00000 5.63721e-13
  16 7049.81 0.00000 2.08965e-12
  17 7049.81 0.00000 4.78530e-12
  18 7049.81 0.00000 2.53042e-12
  19 7049.81 0.00000 -5.82752e-13
  20 7049.81 0.00000 2.67835e-12
  21 7049.81 0.00000 3.99577e-12
  22 7049.81 0.00000 3.18531e-12
  23 7049.81 0.00000 2.42322e-12
  24 7049.81 0.00000 -2.86541e-13
  25 7049.81 0.00000 1.23566e-12
  26 7049.81 0.00000 9.55859e-13
  27 7049.81 0.00000 3.05433e-12
  28 7049.81 0.00000 2.26823e-13
  29 7049.81 0.00000 -4.13915e-14
  30 7049.81 0.00000 2.96636e-13
  31 7049.81 0.00000 -4.50850e-13
  32 7049.81 0.00000 -8.68725e-13
  33 7049.81 0.00000 -3.78248e-13
  34 7049.81 0.00000 8.95529e-13
  35 7049.81 0.00000 -9.33239e-13
  36 7049.81 0.00000 -9.65602e-13
  37 7049.81 0.00000 2.67688e-13
  38 7049.81 0.00000 1.92408e-12
  39 7049.81 0.00000 1.24132e-12
  40 7049.81 0.00000 -2.23432e-13
  41 7049.81 0.00000 -2.54601e-12
  42 7049.81 0.00000 -9.24801e-13
  43 7049.81 0.00000 -5.54954e-13
  44 7049.81 0.00000 -1.32431e-12
  45 7049.81 0.00000 -1.24525e-12
  46 7049.81 0.00000 -8.63008e-13
  47 7049.81 0.00000 -3.11341e-13
  48 7049.81 0.00000 3.55824e-13
  49 7049.81 0.00000 -3.65321e-14
  50 7049.81 0.00000 1.08703e-13
  51 7049.81 0.00000 -4.13915e-14
  52 7049.81 0.00000 -3.92544e-13
  53 7049.81 0.00000 1.55162e-13
  54 7049.81 0.00000 3.71027e-13
  55 7049.81 0.00000 6.46253e-13
  56 7049.81 0.00000 8.61439e-14
  57 7049.81 0.00000 -1.59250e-14
  58 7049.81 0.00000 8.38170e-13
  59 7049.81 0.00000 -8.21719e-13
  60 7049.81 0.00000 5.30493e-13
  61 7049.81 0.00000 1.09514e-12
  62 7049.81 0.00000 -8.05322e-13
  63 7049.81 0.00000 -3.14405e-12
  64 7049.81 0.00000 4.40417e-12
  65 7049.81 0.00000 -8.75809e-13
  66 7049.81 0.00000 -3.76989e-13
  67 7049.81 0.00000 -1.13472e-12
  68 7049.81 0.00000 2.48639e-13
  69 7049.81 0.00000 -1.66087e-12
  70 7049.81 0.00000 -8.20911e-13
  71 7049.81 0.00000 9.51291e-13
  72 7049.81 0.00000 6.21394e-13
  73 7049.81 0.00000 1.31960e-12
  74 7049.81 0.00000 5.69361e-14
  75 7049.81 0.00000 5.47871e-13
  76 7049.81 0.00000 2.82198e-12
  77 7049.81 0.00000 5.39513e-13
  78 7049.81 0.00000 -1.90463e-13
  79 7049.81 0.00000 -3.50299e-13
  80 7049.81 0.00000 3.28518e-13
  81 7049.81 0.00000 3.63351e-12
  82 7049.81 0.00000 -5.45828e-13
  83 7049.81 0.00000 -5.12227e-13
  84 7049.81 0.00000 4.91290e-13
  85 7049.81 0.00000 -8.77373e-13
  86 7049.81 0.00000 -2.57885e-12
  87 7049.81 0.00000 1.54463e-13
  88 7049.81 0.00000 9.21507e-14
  89 7049.81 0.00000 -3.07385e-13
  90 7049.81 0.00000 2.27145e-13
  91 7049.81 0.00000 -3.22047e-13
  92 7049.81 0.00000 9.07160e-13
  93 7049.81 0.00000 -1.59674e-12
  94 7049.81 0.00000 9.01366e-13
  95 7049.81 0.00000 -5.35343e-13
  96 7049.81 0.00000 1.73279e-12
  97 7049.81 0.00000 -8.04622e-13
  98 7049.81 0.00000 7.82867e-14
  99 7049.81 0.00000 7.29351e-13
  100 7049.81 0.00000 -2.11049e-13
  101 7049.81 0.00000 7.61343e-13
  102 7049.81 0.00000 3.27385e-13
  103 7049.81 0.00000 -1.46094e-12
  104 7049.81 0.00000 1.27743e-12
  105 7049.81 0.00000 -3.80326e-12
  106 7049.81 0.00000 3.51413e-13
  107 7049.81 0.00000 2.31833e-12
  108 7049.81 0.00000 -6.76805e-13
  109 7049.81 0.00000 8.48690e-14
  110 7049.81 0.00000 1.98015e-13
  111 7049.81 0.00000 -6.16023e-13
  112 7049.81 0.00000 3.86910e-13
  113 7049.81 0.00000 -3.51427e-13
  114 7049.81 0.00000 -6.36748e-13
  115 7049.81 0.00000 5.00190e-13
  116 7049.81 0.00000 -2.11953e-13
  117 7049.81 0.00000 2.56933e-12
  118 7049.81 0.00000 -9.27514e-13
  119 7049.81 0.00000 7.83247e-13
  120 7049.81 0.00000 -2.54627e-13
  121 7049.81 0.00000 7.39921e-13
  122 7049.81 0.00000 -1.01443e-12
  123 7049.81 0.00000 -1.02487e-12
  124 7049.81 0.00000 -1.58636e-12
  125 7049.81 0.00000 -5.29675e-13
  126 7049.81 0.00000 3.91032e-13
  127 7049.81 0.00000 9.75738e-13
  128 7049.81 0.00000 2.69278e-12
  129 7049.81 0.00000 -2.03540e-13
  130 7049.81 0.00000 3.54618e-14
  131 7049.81 0.00000 8.15378e-13
  132 7049.81 0.00000 -2.33246e-12
  133 7049.81 0.00000 1.19103e-12
  134 7049.81 0.00000 9.60142e-13
  135 7049.81 0.00000 -8.12352e-13
  136 7049.81 0.00000 6.10304e-14
  137 7049.81 0.00000 7.14621e-13
  138 7049.81 0.00000 -2.07081e-12
  139 7049.81 0.00000 6.40164e-13
  140 7049.81 0.00000 2.27611e-13
  141 7049.81 0.00000 -3.62464e-13
  142 7049.81 0.00000 2.61206e-13
  143 7049.81 0.00000 -9.56936e-14
  144 7049.81 0.00000 -1.75801e-12
  145 7049.81 0.00000 -2.02222e-12
  146 7049.81 0.00000 2.36066e-14
  147 7049.81 0.00000 -1.36348e-12
  148 7049.81 0.00000 4.98147e-13
  149 7049.81 0.00000 3.15901e-12
  150 7049.81 0.00000 1.02422e-13
  151 7049.81 0.00000 1.07485e-12
  152 7049.81 0.00000 -1.49393e-13
  153 7049.81 0.00000 2.08313e-12
  154 7049.81 0.00000 1.71978e-14
  155 7049.81 0.00000 -1.99673e-12
  156 7049.81 0.00000 3.15178e-12
  157 7049.81 0.00000 -4.70668e-13
  158 7049.81 0.00000 1.65547e-13
  159 7049.81 0.00000 2.42722e-12
  160 7049.81 0.00000 2.56454e-13
  161 7049.81 0.00000 2.50278e-12
  162 7049.81 0.00000 -5.74313e-13
  163 7049.81 0.00000 1.42450e-12
  164 7049.81 0.00000 -1.96013e-12
  165 7049.81 0.00000 1.20332e-12
  166 7049.81 0.00000 -1.06835e-13
  167 7049.81 0.00000 -5.17762e-13
  168 7049.81 0.00000 2.67465e-13
  169 7049.81 0.00000 1.29121e-13
  170 7049.81 0.00000 1.91865e-12
  171 7049.81 0.00000 1.32370e-12
  172 7049.81 0.00000 6.71587e-13
  173 7049.81 0.00000 -4.23145e-13
  174 7049.81 0.00000 6.82340e-13
  175 7049.81 0.00000 3.78829e-14
  176 7049.81 0.00000 -2.35318e-13
  177 7049.81 0.00000 2.89722e-13
  178 7049.81 0.00000 7.83343e-14
  179 7049.81 0.00000 1.15835e-13
  180 7049.81 0.00000 4.42601e-13
  181 7049.81 0.00000 1.50167e-12
  182 7049.81 0.00000 -3.07537e-13
  183 7049.81 0.00000 -1.22864e-12
  184 7049.81 0.00000 4.07688e-13
  185 7049.81 0.00000 2.28585e-13
  186 7049.81 0.00000 1.27216e-12
  187 7049.81 0.00000 -5.34409e-13
  188 7049.81 0.00000 -1.29782e-12
  189 7049.81 0.00000 9.57267e-13
  190 7049.81 0.00000 1.75091e-13
  191 7049.81 0.00000 7.42028e-13
  192 7049.81 0.00000 -5.54003e-13
  193 7049.81 0.00000 -8.09337e-13
  194 7049.81 0.00000 7.51628e-13
  195 7049.81 0.00000 -2.78026e-13
  196 7049.81 0.00000 -9.81544e-14
  197 7049.81 0.00000 -3.68914e-13
  198 7049.81 0.00000 1.95317e-12
  199 7049.81 0.00000 1.41812e-13
  200 7049.81 0.00000 2.84577e-13
  201 7049.81 0.00000 9.02321e-13
  202 7049.81 0.00000 -1.55740e-12
  203 7049.81 0.00000 -2.92187e-13
  204 7049.81 0.00000 2.03095e-13
  205 7049.81 0.00000 2.51774e-13
  206 7049.81 0.00000 4.50093e-12
  207 7049.81 0.00000 4.77831e-14
  208 7049.81 0.00000 -1.25962e-12
  209 7049.81 0.00000 -4.51620e-12
  210 7049.81 0.00000 -7.76646e-14
  211 7049.81 0.00000 -3.02923e-28
  212 7049.81 0.00000 3.57879e-13
  213 7049.81 0.00000 1.06222e-13
  214 7049.81 0.00000 -2.81931e-13
  215 7049.81 0.00000 5.94427e-13
  216 7049.81 0.00000 -1.86213e-12
  217 7049.81 0.00000 4.75117e-13
  218 7049.81 0.00000 -7.10696e-13
  219 7049.81 0.00000 -3.01055e-13
  220 7049.81 0.00000 4.21771e-14
  221 7049.81 0.00000 6.43542e-13
  222 7049.81 0.00000 -2.41131e-12
  223 7049.81 0.00000 9.78057e-13
  224 7049.81 0.00000 6.92117e-13
  225 7049.81 0.00000 1.73591e-12
  226 7049.81 0.00000 -4.98568e-13
  227 7049.81 0.00000 -7.99568e-14
  228 7049.81 0.00000 -2.87791e-14
  229 7049.81 0.00000 1.95087e-13
  230 7049.81 0.00000 1.23238e-12
  231 7049.81 0.00000 -4.50977e-13
  232 7049.81 0.00000 -8.30720e-13
  233 7049.81 0.00000 2.63313e-12
  234 7049.81 0.00000 -3.18974e-13
  235 7049.81 0.00000 -3.66830e-12
  236 7049.81 0.00000 -9.31946e-15
  237 7049.81 0.00000 7.06108e-13
  238 7049.81 0.00000 1.20193e-12
  239 7049.81 0.00000 2.53141e-12
  240 7049.81 0.00000 9.39439e-13
  241 7049.81 0.00000 5.70777e-13
</Section>

newXOutput 148

<Section columns = "stress_xx | stress_yy | stress_xy">
  1 0.00000 0.00000 0.00000
  2 0.00000 0.00000 0.00000
  3 0.00000 0.00000 0.00000
  4 0.00000 0.00000 0.00000
  5 0.00000 0.00000 0.00000
  6 0.00000 0.00000 0.00000
  7 0.00000 0.00000 0.00000
  8 0.00000 0.00000 0.00000
  9 0.00000 0.00000 0.00000
  10 0.00000 0.00000 0.00000
  11 0.00000 0.00000 0.00000
  12 0.00000 0.00000 0.00000
  13 0.00000 0.00000 0.00000
  14 0.00000 0.00000 0.00000
  15 0.00000 0.00000 0.00000
  16 0.00000 0.00000 0.00000
  17 0.00000 0.00000 0.00000
  18 0.00000 0.00000 0.00000
  19 0.00000 0.00000 0.00000
  20 0.00000 0.00000 0.00000
  21 0.00000 0.00000 0.00000
  22 0.00000 0.00000 0.00000
  23 0.00000 0.00000 0.00000
  24 0.00000 0.00000 0.00000
  25 0.00000 0.00000 0.00000
  26 0.00000 0.00000 0.00000
  27 0.00000 0.00000 0.00000
  28 0.00000 0.00000 0.00000
  29 0.00000 0.00000 0.00000
  30 0.00000 0.00000 0.00000
  31 0.00000 0.00000 0.00000
  32 0.00000 0.00000 0.00000
  33 0.00000 0.00000 0.00000
  34 0.00000 0.00000 0.00000
  35 0.00000 0.00000 0.00000
  36 0.00000 0.00000 0.00000
  37 0.00000 0.00000 0.00000
  38 0.00000 0.00000 0.00000
  39 0.00000 0.00000 0.00000
  40 0.00000 0.00000 0.00000
  41 0.00000 0.00000 0.00000
  42 0.00000 0.00000 0.00000
  43 0.00000 0.00000 0.00000
  44 0.00000 0.00000 0.00000
  45 0.00000 0.00000 0.00000
  46 0.00000 0.00000 0.00000
  47 0.00000 0.00000 0.00000
  48 0.00000 0.00000 0.00000
  49 0.00000 0.00000 0.00000
  50 0.00000 0.00000 0.00000
  51 0.00000 0.00000 0.00000
  52 0.00000 0.00000 0.00000
  53 0.00000 0.00000 0.00000
  54 0.00000 0.00000 0.00000
  55 0.00000 0.00000 0.00000
  56 0.00000 0.00000 0.00000
  57 0.00000 0.00000 0.00000
  58 0.00000 0.00000 0.00000
  59 0.00000 0.00000 0.00000
  60 0.00000 0.00000 0.00000
  61 0.00000 0.00000 0.00000
  62 0.00000 0.00000 0.00000
  63 0.00000 0.00000 0.00000
  64 0.00000 0.00000 0.00000
  65 0.00000 0.00000 0.00000
  66 0.00000 0.00000 0.00000
  67 0.00000 0.00000 0.00000
  68 0.00000 0.00000 0.00000
  69 0.00000 0.00000 0.00000
  70 0.00000 0.00000 0.00000
  71 0.00000 0.00000 0.00000
  72 0.00000 0.00000 0.00000
  73 0.00000 0.00000 0.00000
  74 0.00000 0.00000 0.00000
  75 0.00000 0.00000 0.00000
  76 0.00000 0.00000 0.00000
  77 0.00000 0.00000 0.00000
  78 0.00000 0.00000 0.00000
  79 0.00000 0.00000 0.00000
  80 0.00000 0.00000 0.00000
  81 0.00000 0.00000 0.00000
  82 0.00000 0.00000 0.00000
  83 0.00000 0.00000 0.00000
  84 0.00000 0.00000 0.00000
  85 0.00000 0.00000 0.00000
  86 0.00000 0.00000 0.00000
  87 0.00000 0.00000 0.00000
  88 0.00000 0.00000 0.00000
  89 0.00000 0.00000 0.00000
  90 0.00000 0.00000 0.00000
  91 0.00000 0.00000 0.00000
  92 0.00000 0.00000 0.00000
  93 0.00000 0.00000 0.00000
  94 0.00000 0.00000 0.00000
  95 0.00000 0.00000 0.00000
  96 0.00000 0.00000 0.00000
  97 0.00000 0.00000 0.00000
  98 0.00000 0.00000 0.00000
  99 0.00000 0.00000 0.00000
  100 0.00000 0.00000 0.00000
  101 0.00000 0.00000 0.00000
  102 0.00000 0.00000 0.00000
  103 0.00000 0.00000 0.00000
  104 0.00000 0.00000 0.00000
  105 0.00000 0.00000 0.00000
  106 0.00000 0.00000 0.00000
  107 0.00000 0.00000 0.00000
  108 0.00000 0.00000 0.00000
  109 0.00000 0.00000 0.00000
  110 0.00000 0.00000 0.00000
  111 0.00000 0.00000 0.00000
  112 0.00000 0.00000 0.00000
  113 0.00000 0.00000 0.00000
  114 0.00000 0.00000 0.00000
  115 0.00000 0.00000 0.00000
  116 0.00000 0.00000 0.00000
  117 0.00000 0.00000 0.00000
  118 0.00000 0.00000 0.00000
  119 0.00000 0.00000 0.00000
  120 0.00000 0.00000 0.00000
  121 0.00000 0.00000 0.00000
  122 0.00000 0.00000 0.00000
  123 0.00000 0.00000 0.00000
  124 0.00000 0.00000 0.00000
  125 0.00000 0.00000 0.00000
  126 0.00000 0.00000 0.00000
  127 0.00000 0.00000 0.00000
  128 0.00000 0.00000 0.00000
  129 0.00000 0.00000 0.00000
  130 0.00000 0.00000 0.00000
  131 0.00000 0.00000 0.00000
  132 0.00000 0.00000 0.00000
  133 0.00000 0.00000 0.00000
  134 0.00000 0.00000 0.00000
  135 0.00000 0.00000 0.00000
  136 0.00000 0.00000 0.00000
  137 0.00000 0.00000 0.00000
  138 0.00000 0.00000 0.00000
  139 0.00000 0.00000 0.00000
  140 0.00000 0.00000 0.00000
  141 0.00000 0.00000 0.00000
  142 0.00000 0.00000 0.00000
  143 0.00000 0.00000 0.00000
  144 0.00000 0.00000 0.00000
  145 0.00000 0.00000 0.00000
  146 0.00000 0.00000 0.00000
  147 0.00000 0.00000 0.00000
  148 0.00000 0.00000 0.00000
  149 0.00000 0.00000 0.00000
  150 0.00000 0.00000 0.00000
  151 0.00000 0.00000 0.00000
  152 0.00000 0.00000 0.00000
  153 0.00000 0.00000 0.00000
  154 0.00000 0.00000 0.00000
  155 0.00000 0.00000 0.00000
  156 0.00000 0.00000 0.00000
  157 0.00000 0.00000 0.00000
  158 0.00000 0.00000 0.00000
  159 0.00000 0.00000 0.00000
  160 0.00000 0.00000 0.00000
  161 0.00000 0.00000 0.00000
  162 0.00000 0.00000 0.00000
  163 0.00000 0.00000 0.00000
  164 0.00000 0.00000 0.00000
  165 0.00000 0.00000 0.00000
  166 0.00000 0.00000 0.00000
  167 0.00000 0.00000 0.00000
  168 0.00000 0.00000 0.00000
  169 0.00000 0.00000 0.00000
  170 0.00000 0.00000 0.00000
  171 0.00000 0.00000 0.00000
  172 0.00000 0.00000 0.00000
  173 0.00000 0.00000 0.00000
  174 0.00000 0.00000 0.00000
  175 0.00000 0.00000 0.00000
  176 0.00000 0.00000 0.00000
  177 0.00000 0.00000 0.00000
  178 0.00000 0.00000 0.00000
  179 0.00000 0.00000 0.00000
  180 0.00000 0.00000 0.00000
  181 0.00000 0.00000 0.00000
  182 0.00000 0.00000 0.00000
  183 0.00000 0.00000 0.00000
  184 0.00000 0.00000 0.00000
  185 0.00000 0.00000 0.00000
  186 0.00000 0.00000 0.00000
  187 0.00000 0.00000 0.00000
  188 0.00000 0.00000 0.00000
  189 0.00000 0.00000 0.00000
  190 0.00000 0.00000 0.00000
  191 0.00000 0.00000 0.00000
  192 0.00000 0.00000 0.00000
  193 0.00000 0.00000 0.00000
  194 0.00000 0.00000 0.00000
  195 0.00000 0.00000 0.00000
  196 0.00000 0.00000 0.00000
  197 0.00000 0.00000 0.00000
  198 0.00000 0.00000 0.00000
  199 0.00000 0.00000 0.00000
  200 0.00000 0.00000 0.00000
  201 0.00000 0.00000 0.00000
  202 0.00000 0.00000 0.00000
  203 0.00000 0.00000 0.00000
  204 0.00000 0.00000 0.00000
  205 0.00000 0.00000 0.00000
  206 0.00000 0.00000 0.00000
  207 0.00000 0.00000 0.00000
  208 0.00000 0.00000 0.00000
  209 0.00000 0.00000 0.00000
  210 0.00000 0.00000 0.00000
  211 0.00000 0.00000 0.00000
  212 0.00000 0.00000 0.00000
  213 0.00000 0.00000 0.00000
  214 0.00000 0.00000 0.00000
  215 0.00000 0.00000 0.00000
  216 0.00000 0.00000 0.00000
  217 0.00000 0.00000 0.00000
  218 0.00000 0.00000 0.00000
  219 0.00000 0.00000 0.00000
  220 0.00000 0.00000 0.00000
  221 0.00000 0.00000 0.00000
  222 0.00000 0.00000 0.00000
  223 0.00000 0.00000 0.00000
  224 0.00000 0.00000 0.00000
  225 0.00000 0.00000 0.00000
  226 0.00000 0.00000 0.00000
  227 0.00000 0.00000 0.00000
  228 0.00000 0.00000 0.00000
  229 0.00000 0.00000 0.00000
  230 0.00000 0.00000 0.00000
  231 0.00000 0.00000 0.00000
  232 0.00000 0.00000 0.00000
  233 0.00000 0.00000 0.00000
  234 0.00000 0.00000 0.00000
  235 0.00000 0.00000 0.00000
  236 0.00000 0.00000 0.00000
  237 0.00000 0.00000 0.00000
  238 0.00000 0.00000 0.00000
  239 0.00000 0.00000 0.00000
  240 0.00000 0.00000 0.00000
  241 0.00000 0.00000 0.00000
</Section>

newXOutput 149

<Section columns = "stress_xx | stress_yy | stress_xy">
  1 0.00000 0.00000 0.00000
  2 0.00000 0.00000 0.00000
  3 0.00000 0.00000 0.00000
  4 0.00000 0.00000 0.00000
  5 0.00000 0.00000 0.00000
  6 0.00000 0.00000 0.00000
  7 0.00000 0.00000 0.00000
  8 0.00000 0.00000 0.00000
  9 0.00000 0.00000 0.00000
  10 0.00000 0.00000 0.00000
  11 0.00000 0.00000 0.00000
  12 0.00000 0.00000 0.00000
  13 0.00000 0.00000 0.00000
  14 0.00000 0.00000 0.00000
  15 0.00000 0.00000 0.00000
  16 0.00000 0.00000 0.00000
  17 0.00000 0.00000 0.00000
  18 0.00000 0.00000 0.00000
  19 0.00000 0.00000 0.00000
  20 0.00000 0.00000 0.00000
  21 0.00000 0.00000 0.00000
  22 0.00000 0.00000 0.00000
  23 0.00000 0.00000 0.00000
  24 0.00000 0.00000 0.00000
  25 0.00000 0.00000 0.00000
  26 0.00000 0.00000 0.00000
  27 0.00000 0.00000 0.00000
  28 0.00000 0.00000 0.00000
  29 0.00000 0.00000 0.00000
  30 0.00000 0.00000 0.00000
  31 0.00000 0.00000 0.00000
  32 0.00000 0.00000 0.00000
  33 0.00000 0.00000 0.00000
  34 0.00000 0.00000 0.00000
  35 0.00000 0.00000 0.00000
  36 0.00000 0.00000 0.00000
  37 0.00000 0.00000 0.00000
  38 0.00000 0.00000 0.00000
  39 0.00000 0.00000 0.00000
  40 0.00000 0.00000 0.00000
  41 0.00000 0.00000 0.00000
  42 0.00000 0.00000 0.00000
  43 0.00000 0.00000 0.00000
  44 0.00000 0.00000 0.00000
  45 0.00000 0.00000 0.00000
  46 0.00000 0.00000 0.00000
  47 0.00000 0.00000 0.00000
  48 0.00000 0.00000 0.00000
  49 0.00000 0.00000 0.00000
  50 0.00000 0.00000 0.00000
  51 0.00000 0.00000 0.00000
  52 0.00000 0.00000 0.00000
  53 0.00000 0.00000 0.00000
  54 0.00000 0.00000 0.00000
  55 0.00000 0.00000 0.00000
  56 0.00000 0.00000 0.00000
  57 0.00000 0.00000 0.00000
  58 0.00000 0.00000 0.00000
  59 0.00000 0.00000 0.00000
  60 0.00000 0.00000 0.00000
  61 0.00000 0.00000 0.00000
  62 0.00000 0.00000 0.00000
  63 0.00000 0.00000 0.00000
  64 0.00000 0.00000 0.00000
  65 0.00000 0.00000 0.00000
  66 0.00000 0.00000 0.00000
  67 0.00000 0.00000 0.00000
  68 0.00000 0.00000 0.00000
  69 0.00000 0.00000 0.00000
  70 0.00000 0.00000 0.00000
  71 0.00000 0.00000 0.00000
  72 0.00000 0.00000 0.00000
  73 0.00000 0.00000 0.00000
  74 0.00000 0.00000 0.00000
  75 0.00000 0.00000 0.00000
  76 0.00000 0.00000 0.00000
  77 0.00000 0.00000 0.00000
  78 0.00000 0.00000 0.00000
  79 0.00000 0.00000 0.00000
  80 0.00000 0.00000 0.00000
  81 0.00000 0.00000 0.00000
  82 0.00000 0.00000 0.00000
  83 0.00000 0.00000 0.00000
  84 0.00000 0.00000 0.00000
  85 0.00000 0.00000 0.00000
  86 0.00000 0.00000 0.00000
  87 0.00000 0.00000 0.00000
  88 0.00000 0.00000 0.00000
  89 0.00000 0.00000 0.00000
  90 0.00000 0.00000 0.00000
  91 0.00000 0.00000 0.00000
  92 0.00000 0.00000 0.00000
  93 0.00000 0.00000 0.00000
  94 0.00000 0.00000 0.00000
  95 0.00000 0.00000 0.00000
  96 0.00000 0.00000 0.00000
  97 0.00000 0.00000 0.00000
  98 0.00000 0.00000 0.00000
  99 0.00000 0.00000 0.00000
  100 0.00000 0.00000 0.00000
  101 0.00000 0.00000 0.00000
  102 0.00000 0.00000 0.00000
  103 0.00000 0.00000 0.00000
  104 0.00000 0.00000 0.00000
  105 0.00000 0.00000 0.00000
  106 0.00000 0.00000 0.00000
  107 0.00000 0.00000 0.00000
  108 0.00000 0.00000 0.00000
  109 0.00000 0.00000 0.00000
  110 0.00000 0.00000 0.00000
  111 0.00000 0.00000 0.00000
  112 0.00000 0.00000 0.00000
  113 0.00000 0.00000 0.00000
  114 0.00000 0.00000 0.00000
  115 0.00000 0.00000 0.00000
  116 0.00000 0.00000 0.00000
  117 0.00000 0.00000 0.00000
  118 0.00000 0.00000 0.00000
  119 0.00000 0.00000 0.00000
  120 0.00000 0.00000 0.00000
  121 0.00000 0.00000 0.00000
  122 0.00000 0.00000 0.00000
  123 0.00000 0.00000 0.00000
  124 0.00000 0.00000 0.00000
  125 0.00000 0.00000 0.00000
  126 0.00000 0.00000 0.00000
  127 0.00000 0.00000 0.00000
  128 0.00000 0.00000 0.00000
  129 0.00000 0.00000 0.00000
  130 0.00000 0.00000 0.00000
  131 0.00000 0.00000 0.00000
  132 0.00000 0.00000 0.00000
  133 0.00000 0.00000 0.00000
  134 0.00000 0.00000 0.00000
  135 0.00000 0.00000 0.00000
  136 0.00000 0.00000 0.00000
  137 0.00000 0.00000 0.00000
  138 0.00000 0.00000 0.00000
  139 0.00000 0.00000 0.00000
  140 0.00000 0.00000 0.00000
  141 0.00000 0.00000 0.00000
  142 0.00000 0.00000 0.00000
  143 0.00000 0.00000 0.00000
  144 0.00000 0.00000 0.00000
  145 0.00000 0.00000 0.00000
  146 0.00000 0.00000 0.00000
  147 0.00000 0.00000 0.00000
  148 0.00000 0.00000 0.00000
  149 0.00000 0.00000 0.00000
  150 0.00000 0.00000 0.00000
  151 0.00000 0.00000 0.00000
  152 0.00000 0.00000 0.00000
  153 0.00000 0.00000 0.00000
  154 0.00000 0.00000 0.00000
  155 0.00000 0.00000 0.00000
  156 0.00000 0.00000 0.00000
  157 0.00000 0.00000 0.00000
  158 0.00000 0.00000 0.00000
  159 0.00000 0.00000 0.00000
  160 0.00000 0.00000 0.00000
  161 0.00000 0.00000 0.00000
  162 0.00000 0.00000 0.00000
  163 0.00000 0.00000 0.00000
  164 0.00000 0.00000 0.00000
  165 0.00000 0.00000 0.00000
  166 0.00000 0.00000 0.00000
  167 0.00000 0.00000 0.00000
  168 0.00000 0.00000 0.00000
  169 0.00000 0.00000 0.00000
  170 0.00000 0.00000 0.00000
  171 0.00000 0.00000 0.00000
  172 0.00000 0.00000 0.00000
  173 0.00000 0.00000 0.00000
  174 0.00000 0.00000 0.00000
  175 0.00000 0.00000 0.00000
  176 0.00000 0.00000 0.00000
  177 0.00000 0.00000 0.00000
  178 0.00000 0.00000 0.00000
  179 0.00000 0.00000 0.00000
  180 0.00000 0.00000 0.00000
  181 0.00000 0.00000 0.00000
  182 0.00000 0.00000 0.00000
  183 0.00000 0.00000 0.00000
  184 0.00000 0.00000 0.00000
  185 0.00000 0.00000 0.00000
  186 0.00000 0.00000 0.00000
  187 0.00000 0.00000 0.00000
  188 0.00000 0.00000 0.00000
  189 0.00000 0.00000 0.00000
  190 0.00000 0.00000 0.00000
  191 0.00000 0.00000 0.00000
  192 0.00000 0.00000 0.00000
  193 0.00000 0.00000 0.00000
  194 0.00000 0.00000 0.00000
  195 0.00000 0.00000 0.00000
  196 0.00000 0.00000 0.00000
  197 0.00000 0.00000 0.00000
  198 0.00000 0.00000 0.00000
  199 0.00000 0.00000 0.00000
  200 0.00000 0.00000 0.00000
  201 0.00000 0.00000 0.00000
  202 0.00000 0.00000 0.00000
  203 0.00000 0.00000 0.00000
  204 0.00000 0.00000 0.00000
  205 0.00000 0.00000 0.00000
  206 0.00000 0.00000 0.00000
  207 0.00000 0.00000 0.00000
  208 0.00000 0.00000 0.00000
  209 0.00000 0.00000 0.00000
  210 0.00000 0.00000 0.00000
  211 0.00000 0.00000 0.00000
  212 0.00000 0.00000 0.00000
  213 0.00000 0.00000 0.00000
  214 0.00000 0.00000 0.00000
  215 0.00000 0.00000 0.00000
  216 0.00000 0.00000 0.00000
  217 0.00000 0.00000 0.00000
  218 0.00000 0.00000 0.00000
  219 0.00000 0.00000 0.00000
  220 0.00000 0.00000 0.00000
  221 0.00000 0.00000 0.00000
  222 0.00000 0.00000 0.00000
  223 0.00000 0.00000 0.00000
  224 0.00000 0.00000 0.00000
  225 0.00000 0.00000 0.00000
  226 0.00000 0.00000 0.00000
  227 0.00000 0.00000 0.00000
  228 0.00000 0.00000 0.00000
  229 0.00000 0.00000 0.00000
  230 0.00000 0.00000 0.00000
  231 0.00000 0.00000 0.00000
  232 0.00000 0.00000 0.00000
  233 0.00000 0.00000 0.00000
  234 0.00000 0.00000 0.00000
  235 0.00000 0.00000 0.00000
  236 0.00000 0.00000 0.00000
  237 0.00000 0.00000 0.00000
  238 0.00000 0.00000 0.00000
  239 0.00000 0.00000 0.00000
  240 0.00000 0.00000 0.00000
  241 0.00000 0.00000 0.00000
</Section>

newXOutput 150

<Section columns = "stress_xx | stress_yy | stress_xy">
  1 0.00000 0.00000 0.00000
  2 0.00000 0.00000 0.00000
  3 0.00000 0.00000 0.00000
  4 0.00000 0.00000 0.00000
  5 0.00000 0.00000 0.00000
  6 0.00000 0.00000 0.00000
  7 0.00000 0.00000 0.00000
  8 0.00000 0.00000 0.00000
  9 0.00000 0.00000 0.00000
  10 0.00000 0.00000 0.00000
  11 0.00000 0.00000 0.00000
  12 0.00000 0.00000 0.00000
  13 0.00000 0.00000 0.00000
  14 0.00000 0.00000 0.00000
  15 0.00000 0.00000 0.00000
  16 0.00000 0.00000 0.00000
  17 0.00000 0.00000 0.00000
  18 0.00000 0.00000 0.00000
  19 0.00000 0.00000 0.00000
  20 0.00000 0.00000 0.00000
  21 0.00000 0.00000 0.00000
  22 0.00000 0.00000 0.00000
  23 0.00000 0.00000 0.00000
  24 0.00000 0.00000 0.00000
  25 0.00000 0.00000 0.00000
  26 0.00000 0.00000 0.00000
  27 0.00000 0.00000 0.00000
  28 0.00000 0.00000 0.00000
  29 0.00000 0.00000 0.00000
  30 0.00000 0.00000 0.00000
  31 0.00000 0.00000 0.00000
  32 0.00000 0.00000 0.00000
  33 0.00000 0.00000 0.00000
  34 0.00000 0.00000 0.00000
  35 0.00000 0.00000 0.00000
  36 0.00000 0.00000 0.00000
  37 0.00000 0.00000 0.00000
  38 0.00000 0.00000 0.00000
  39 0.00000 0.00000 0.00000
  40 0.00000 0.00000 0.00000
  41 0.00000 0.00000 0.00000
  42 0.00000 0.00000 0.00000
  43 0.00000 0.00000 0.00000
  44 0.00000 0.00000 0.00000
  45 0.00000 0.00000 0.00000
  46 0.00000 0.00000 0.00000
  47 0.00000 0.00000 0.00000
  48 0.00000 0.00000 0.00000
  49 0.00000 0.00000 0.00000
  50 0.00000 0.00000 0.00000
  51 0.00000 0.00000 0.00000
  52 0.00000 0.00000 0.00000
  53 0.00000 0.00000 0.00000
  54 0.00000 0.00000 0.00000
  55 0.00000 0.00000 0.00000
  56 0.00000 0.00000 0.00000
  57 0.00000 0.00000 0.00000
  58 0.00000 0.00000 0.00000
  59 0.00000 0.00000 0.00000
  60 0.00000 0.00000 0.00000
  61 0.00000 0.00000 0.00000
  62 0.00000 0.00000 0.00000
  63 0.00000 0.00000 0.00000
  64 0.00000 0.00000 0.00000
  65 0.00000 0.00000 0.00000
  66 0.00000 0.00000 0.00000
  67 0.00000 0.00000 0.00000
  68 0.00000 0.00000 0.00000
  69 0.00000 0.00000 0.00000
  70 0.00000 0.00000 0.00000
  71 0.00000 0.00000 0.00000
  72 0.00000 0.00000 0.00000
  73 0.00000 0.00000 0.00000
  74 0.00000 0.00000 0.00000
  75 0.00000 0.00000 0.00000
  76 0.00000 0.00000 0.00000
  77 0.00000 0.00000 0.00000
  78 0.00000 0.00000 0.00000
  79 0.00000 0.00000 0.00000
  80 0.00000 0.00000 0.00000
  81 0.00000 0.00000 0.00000
  82 0.00000 0.00000 0.00000
  83 0.00000 0.00000 0.00000
  84 0.00000 0.00000 0.00000
  85 0.00000 0.00000 0.00000
  86 0.00000 0.00000 0.00000
  87 0.00000 0.00000 0.00000
  88 0.00000 0.00000 0.00000
  89 0.00000 0.00000 0.00000
  90 0.00000 0.00000 0.00000
  91 0.00000 0.00000 0.00000
  92 0.00000 0.00000 0.00000
  93 0.00000 0.00000 0.00000
  94 0.00000 0.00000 0.00000
  95 0.00000 0.00000 0.00000
  96 0.00000 0.00000 0.00000
  97 0.00000 0.00000 0.00000
  98 0.00000 0.00000 0.00000
  99 0.00000 0.00000 0.00000
  100 0.00000 0.00000 0.00000
  101 0.00000 0.00000 0.00000
  102 0.00000 0.00000 0.00000
  103 0.00000 0.00000 0.00000
  104 0.00000 0.00000 0.00000
  105 0.00000 0.00000 0.00000
  106 0.00000 0.00000 0.00000
  107 0.00000 0.00000 0.00000
  108 0.00000 0.00000 0.00000
  109 0.00000 0.00000 0.00000
  110 0.00000 0.00000 0.00000
  111 0.00000 0.00000 0.00000
  112 0.00000 0.00000 0.00000
  113 0.00000 0.00000 0.00000
  114 0.00000 0.00000 0.00000
  115 0.00000 0.00000 0.00000
  116 0.00000 0.00000 0.00000
  117 0.00000 0.00000 0.00000
  118 0.00000 0.00000 0.00000
  119 0.00000 0.00000 0.00000
  120 0.00000 0.00000 0.00000
  121 0.00000 0.00000 0.00000
  122 0.00000 0.00000 0.00000
  123 0.00000 0.00000 0.00000
  124 0.00000 0.00000 0.00000
  125 0.00000 0.00000 0.00000
  126 0.00000 0.00000 0.00000
  127 0.00000 0.00000 0.00000
  128 0.00000 0.00000 0.00000
  129 0.00000 0.00000 0.00000
  130 0.00000 0.00000 0.00000
  131 0.00000 0.00000 0.00000
  132 0.00000 0.00000 0.00000
  133 0.00000 0.00000 0.00000
  134 0.00000 0.00000 0.00000
  135 0.00000 0.00000 0.00000
  136 0.00000 0.00000 0.00000
  137 0.00000 0.00000 0.00000
  138 0.00000 0.00000 0.00000
  139 0.00000 0.00000 0.00000
  140 0.00000 0.00000 0.00000
  141 0.00000 0.00000 0.00000
  142 0.00000 0.00000 0.00000
  143 0.00000 0.00000 0.00000
  144 0.00000 0.00000 0.00000
  145 0.00000 0.00000 0.00000
  146 0.00000 0.00000 0.00000
  147 0.00000 0.00000 0.00000
  148 0.00000 0.00000 0.00000
  149 0.00000 0.00000 0.00000
  150 0.00000 0.00000 0.00000
  151 0.00000 0.00000 0.00000
  152 0.00000 0.00000 0.00000
  153 0.00000 0.00000 0.00000
  154 0.00000 0.00000 0.00000
  155 0.00000 0.00000 0.00000
  156 0.00000 0.00000 0.00000
  157 0.00000 0.00000 0.00000
  158 0.00000 0.00000 0.00000
  159 0.00000 0.00000 0.00000
  160 0.00000 0.00000 0.00000
  161 0.00000 0.00000 0.00000
  162 0.00000 0.00000 0.00000
  163 0.00000 0.00000 0.00000
  164 0.00000 0.00000 0.00000
  165 0.00000 0.00000 0.00000
  166 0.00000 0.00000 0.00000
  167 0.00000 0.00000 0.00000
  168 0.00000 0.00000 0.00000
  169 0.00000 0.00000 0.00000
  170 0.00000 0.00000 0.00000
  171 0.00000 0.00000 0.00000
  172 0.00000 0.00000 0.00000
  173 0.00000 0.00000 0.00000
  174 0.00000 0.00000 0.00000
  175 0.00000 0.00000 0.00000
  176 0.00000 0.00000 0.00000
  177 0.00000 0.00000 0.00000
  178 0.00000 0.00000 0.00000
  179 0.00000 0.00000 0.00000
  180 0.00000 0.00000 0.00000
  181 0.00000 0.00000 0.00000
  182 0.00000 0.00000 0.00000
  183 0.00000 0.00000 0.00000
  184 0.00000 0.00000 0.00000
  185 0.00000 0.00000 0.00000
  186 0.00000 0.00000 0.00000
  187 0.00000 0.00000 0.00000
  188 0.00000 0.00000 0.00000
  189 0.00000 0.00000 0.00000
  190 0.00000 0.00000 0.00000
  191 0.00000 0.00000 0.00000
  192 0.00000 0.00000 0.00000
  193 0.00000 0.00000 0.00000
  194 0.00000 0.00000 0.00000
  195 0.00000 0.00000 0.00000
  196 0.00000 0.00000 0.00000
  197 0.00000 0.00000 0.00000
  198 0.00000 0.00000 0.00000
  199 0.00000 0.00000 0.00000
  200 0.00000 0.00000 0.00000
  201 0.00000 0.00000 0.00000
  202 0.00000 0.00000 0.00000
  203 0.00000 0.00000 0.00000
  204 0.00000 0.00000 0.00000
  205 0.00000 0.00000 0.00000
  206 0.00000 0.00000 0.00000
  207 0.00000 0.00000 0.00000
  208 0.00000 0.00000 0.00000
  209 0.00000 0.00000 0.00000
  210 0.00000 0.00000 0.00000
  211 0.00000 0.00000 0.00000
  212 0.00000 0.00000 0.00000
  213 0.00000 0.00000 0.00000
  214 0.00000 0.00000 0.00000
  215 0.00000 0.00000 0.00000
  216 0.00000 0.00000 0.00000
  217 0.00000 0.00000 0.00000
  218 0.00000 0.00000 0.00000
  219 0.00000 0.00000 0.00000
  220 0.00000 0.00000 0.00000
  221 0.00000 0.00000 0.00000
  222 0.00000 0.00000 0.00000
  223 0.00000 0.00000 0.00000
  224 0.00000 0.00000 0.00000
  225 0.00000 0.00000 0.00000
  226 0.00000 0.00000 0.00000
  227 0.00000 0.00000 0.00000
  228 0.00000 0.00000 0.00000
  229 0.00000 0.00000 0.00000
  230 0.00000 0.00000 0.00000
  231 0.00000 0.00000 0.00000
  232 0.00000 0.00000 0.00000
  233 0.00000 0.00000 0.00000
  234 0.00000 0.00000 0.00000
  235 0.00000 0.00000 0.00000
  236 0.00000 0.00000 0.00000
  237 0.00000 0.00000 0.00000
  238 0.00000 0.00000 0.00000
  239 0.00000 0.00000 0.00000
  240 0.00000 0.00000 0.00000
  241 0.00000 0.00000 0.00000
</Section>

newXOutput 151

<Section columns = "stress_xx | stress_yy | stress_xy">
  1 0.00000 0.00000 0.00000
  2 0.00000 0.00000 0.00000
  3 0.00000 0.00000 0.00000
  4 0.00000 0.00000 0.00000
  5 0.00000 0.00000 0.00000
  6 0.00000 0.00000 0.00000
  7 0.00000 0.00000 0.00000
  8 0.00000 0.00000 0.00000
  9 0.00000 0.00000 0.00000
  10 0.00000 0.00000 0.00000
  11 0.00000 0.00000 0.00000
  12 0.00000 0.00000 0.00000
  13 0.00000 0.00000 0.00000
  14 0.00000 0.00000 0.00000
  15 0.00000 0.00000 0.00000
  16 0.00000 0.00000 0.00000
  17 0.00000 0.00000 0.00000
  18 0.00000 0.00000 0.00000
  19 0.00000 0.00000 0.00000
  20 0.00000 0.00000 0.00000
  21 0.00000 0.00000 0.00000
  22 0.00000 0.00000 0.00000
  23 0.00000 0.00000 0.00000
  24 0.00000 0.00000 0.00000
  25 0.00000 0.00000 0.00000
  26 0.00000 0.00000 0.00000
  27 0.00000 0.00000 0.00000
  28 0.00000 0.00000 0.00000
  29 0.00000 0.00000 0.00000
  30 0.00000 0.00000 0.00000
  31 0.00000 0.00000 0.00000
  32 0.00000 0.00000 0.00000
  33 0.00000 0.00000 0.00000
  34 0.00000 0.00000 0.00000
  35 0.00000 0.00000 0.00000
  36 0.00000 0.00000 0.00000
  37 0.00000 0.00000 0.00000
  38 0.00000 0.00000 0.00000
  39 0.00000 0.00000 0.00000
  40 0.00000 0.00000 0.00000
  41 0.00000 0.00000 0.00000
  42 0.00000 0.00000 0.00000
  43 0.00000 0.00000 0.00000
  44 0.00000 0.00000 0.00000
  45 0.00000 0.00000 0.00000
  46 0.00000 0.00000 0.00000
  47 0.00000 0.00000 0.00000
  48 0.00000 0.00000 0.00000
  49 0.00000 0.00000 0.00000
  50 0.00000 0.00000 0.00000
  51 0.00000 0.00000 0.00000
  52 0.00000 0.00000 0.00000
  53 0.00000 0.00000 0.00000
  54 0.00000 0.00000 0.00000
  55 0.00000 0.00000 0.00000
  56 0.00000 0.00000 0.00000
  57 0.00000 0.00000 0.00000
  58 0.00000 0.00000 0.00000
  59 0.00000 0.00000 0.00000
  60 0.00000 0.00000 0.00000
  61 0.00000 0.00000 0.00000
  62 0.00000 0.00000 0.00000
  63 0.00000 0.00000 0.00000
  64 0.00000 0.00000 0.00000
  65 0.00000 0.00000 0.00000
  66 0.00000 0.00000 0.00000
  67 0.00000 0.00000 0.00000
  68 0.00000 0.00000 0.00000
  69 0.00000 0.00000 0.00000
  70 0.00000 0.00000 0.00000
  71 0.00000 0.00000 0.00000
  72 0.00000 0.00000 0.00000
  73 0.00000 0.00000 0.00000
  74 0.00000 0.00000 0.00000
  75 0.00000 0.00000 0.00000
  76 0.00000 0.00000 0.00000
  77 0.00000 0.00000 0.00000
  78 0.00000 0.00000 0.00000
  79 0.00000 0.00000 0.00000
  80 0.00000 0.00000 0.00000
  81 0.00000 0.00000 0.00000
  82 0.00000 0.00000 0.00000
  83 0.00000 0.00000 0.00000
  84 0.00000 0.00000 0.00000
  85 0.00000 0.00000 0.00000
  86 0.00000 0.00000 0.00000
  87 0.00000 0.00000 0.00000
  88 0.00000 0.00000 0.00000
  89 0.00000 0.00000 0.00000
  90 0.00000 0.00000 0.00000
  91 0.00000 0.00000 0.00000
  92 0.00000 0.00000 0.00000
  93 0.00000 0.00000 0.00000
  94 0.00000 0.00000 0.00000
  95 0.00000 0.00000 0.00000
  96 0.00000 0.00000 0.00000
  97 0.00000 0.00000 0.00000
  98 0.00000 0.00000 0.00000
  99 0.00000 0.00000 0.00000
  100 0.00000 0.00000 0.00000
  101 0.00000 0.00000 0.00000
  102 0.00000 0.00000 0.00000
  103 0.00000 0.00000 0.00000
  104 0.00000 0.00000 0.00000
  105 0.00000 0.00000 0.00000
  106 0.00000 0.00000 0.00000
  107 0.00000 0.00000 0.00000
  108 0.00000 0.00000 0.00000
  109 0.00000 0.00000 0.00000
  110 0.00000 0.00000 0.00000
  111 0.00000 0.00000 0.00000
  112 0.00000 0.00000 0.00000
  113 0.00000 0.00000 0.00000
  114 0.00000 0.00000 0.00000
  115 0.00000 0.00000 0.00000
  116 0.00000 0.00000 0.00000
  117 0.00000 0.00000 0.00000
  118 0.00000 0.00000 0.00000
  119 0.00000 0.00000 0.00000
  120 0.00000 0.00000 0.00000
  121 0.00000 0.00000 0.00000
  122 0.00000 0.00000 0.00000
  123 0.00000 0.00000 0.00000
  124 0.00000 0.00000 0.00000
  125 0.00000 0.00000 0.00000
  126 0.00000 0.00000 0.00000
  127 0.00000 0.00000 0.00000
  128 0.00000 0.00000 0.00000
  129 0.00000 0.00000 0.00000
  130 0.00000 0.00000 0.00000
  131 0.00000 0.00000 0.00000
  132 0.00000 0.00000 0.00000
  133 0.00000 0.00000 0.00000
  134 0.00000 0.00000 0.00000
  135 0.00000 0.00000 0.00000
  136 0.00000 0.00000 0.00000
  137 0.00000 0.00000 0.00000
  138 0.00000 0.00000 0.00000
  139 0.00000 0.00000 0.00000
  140 0.00000 0.00000 0.00000
  141 0.00000 0.00000 0.00000
  142 0.00000 0.00000 0.00000
  143 0.00000 0.00000 0.00000
  144 0.00000 0.00000 0.00000
  145 0.00000 0.00000 0.00000
  146 0.00000 0.00000 0.00000
  147 0.00000 0.00000 0.00000
  148 0.00000 0.00000 0.00000
  149 0.00000 0.00000 0.00000
  150 0.00000 0.00000 0.00000
  151 0.00000 0.00000 0.00000
  152 0.00000 0.00000 0.00000
  153 0.00000 0.00000 0.00000
  154 0.00000 0.00000 0.00000
  155 0.00000 0.00000 0.00000
  156 0.00000 0.00000 0.00000
  157 0.00000 0.00000 0.00000
  158 0.00000 0.00000 0.00000
  159 0.00000 0.00000 0.00000
  160 0.00000 0.00000 0.00000
  161 0.00000 0.00000 0.00000
  162 0.00000 0.00000 0.00000
  163 0.00000 0.00000 0.00000
  164 0.00000 0.00000 0.00000
  165 0.00000 0.00000 0.00000
  166 0.00000 0.00000 0.00000
  167 0.00000 0.00000 0.00000
  168 0.00000 0.00000 0.00000
  169 0.00000 0.00000 0.00000
  170 0.00000 0.00000 0.00000
  171 0.00000 0.00000 0.00000
  172 0.00000 0.00000 0.00000
  173 0.00000 0.00000 0.00000
  174 0.00000 0.00000 0.00000
  175 0.00000 0.00000 0.00000
  176 0.00000 0.00000 0.00000
  177 0.00000 0.00000 0.00000
  178 0.00000 0.00000 0.00000
  179 0.00000 0.00000 0.00000
  180 0.00000 0.00000 0.00000
  181 0.00000 0.00000 0.00000
  182 0.00000 0.00000 0.00000
  183 0.00000 0.00000 0.00000
  184 0.00000 0.00000 0.00000
  185 0.00000 0.00000 0.00000
  186 0.00000 0.00000 0.00000
  187 0.00000 0.00000 0.00000
  188 0.00000 0.00000 0.00000
  189 0.00000 0.00000 0.00000
  190 0.00000 0.00000 0.00000
  191 0.00000 0.00000 0.00000
  192 0.00000 0.00000 0.00000
  193 0.00000 0.00000 0.00000
  194 0.00000 0.00000 0.00000
  195 0.00000 0.00000 0.00000
  196 0.00000 0.00000 0.00000
  197 0.00000 0.00000 0.00000
  198 0.00000 0.00000 0.00000
  199 0.00000 0.00000 0.00000
  200 0.00000 0.00000 0.00000
  201 0.00000 0.00000 0.00000
  202 0.00000 0.00000 0.00000
  203 0.00000 0.00000 0.00000
  204 0.00000 0.00000 0.00000
  205 0.00000 0.00000 0.00000
  206 0.00000 0.00000 0.00000
  207 0.00000 0.00000 0.00000
  208 0.00000 0.00000 0.00000
  209 0.00000 0.00000 0.00000
  210 0.00000 0.00000 0.00000
  211 0.00000 0.00000 0.00000
  212 0.00000 0.00000 0.00000
  213 0.00000 0.00000 0.00000
  214 0.00000 0.00000 0.00000
  215 0.00000 0.00000 0.00000
  216 0.00000 0.00000 0.00000
  217 0.00000 0.00000 0.00000
  218 0.00000 0.00000 0.00000
  219 0.00000 0.00000 0.00000
  220 0.00000 0.00000 0.00000
  221 0.00000 0.00000 0.00000
  222 0.00000 0.00000 0.00000
  223 0.00000 0.00000 0.00000
  224 0.00000 0.00000 0.00000
  225 0.00000 0.00000 0.00000
  226 0.00000 0.00000 0.00000
  227 0.00000 0.00000 0.00000
  228 0.00000 0.00000 0.00000
  229 0.00000 0.00000 0.00000
  230 0.00000 0.00000 0.00000
  231 0.00000 0.00000 0.00000
  232 0.00000 0.00000 0.00000
  233 0.00000 0.00000 0.00000
  234 0.00000 0.00000 0.00000
  235 0.00000 0.00000 0.00000
  236 0.00000 0.00000 0.00000
  237 0.00000 0.00000 0.00000
  238 0.00000 0.00000 0.00000
  239 0.00000 0.00000 0.00000
  240 0.00000 0.00000 0.00000
  241 0.00000 0.00000 0.00000
</Section>

newXOutput 152

<Section columns = "stress_xx | stress_yy | stress_xy">
  1 0.00000 0.00000 0.00000
  2 0.00000 0.00000 0.00000
  3 0.00000 0.00000 0.00000
  4 0.00000 0.00000 0.00000
  5 0.00000 0.00000 0.00000
  6 0.00000 0.00000 0.00000
  7 0.00000 0.00000 0.00000
  8 0.00000 0.00000 0.00000
  9 0.00000 0.00000 0.00000
  10 0.00000 0.00000 0.00000
  11 0.00000 0.00000 0.00000
  12 0.00000 0.00000 0.00000
  13 0.00000 0.00000 0.00000
  14 0.00000 0.00000 0.00000
  15 0.00000 0.00000 0.00000
  16 0.00000 0.00000 0.00000
  17 0.00000 0.00000 0.00000
  18 0.00000 0.00000 0.00000
  19 0.00000 0.00000 0.00000
  20 0.00000 0.00000 0.00000
  21 0.00000 0.00000 0.00000
  22 0.00000 0.00000 0.00000
  23 0.00000 0.00000 0.00000
  24 0.00000 0.00000 0.00000
  25 0.00000 0.00000 0.00000
  26 0.00000 0.00000 0.00000
  27 0.00000 0.00000 0.00000
  28 0.00000 0.00000 0.00000
  29 0.00000 0.00000 0.00000
  30 0.00000 0.00000 0.00000
  31 0.00000 0.00000 0.00000
  32 0.00000 0.00000 0.00000
  33 0.00000 0.00000 0.00000
  34 0.00000 0.00000 0.00000
  35 0.00000 0.00000 0.00000
  36 0.00000 0.00000 0.00000
  37 0.00000 0.00000 0.00000
  38 0.00000 0.00000 0.00000
  39 0.00000 0.00000 0.00000
  40 0.00000 0.00000 0.00000
  41 0.00000 0.00000 0.00000
  42 0.00000 0.00000 0.00000
  43 0.00000 0.00000 0.00000
  44 0.00000 0.00000 0.00000
  45 0.00000 0.00000 0.00000
  46 0.00000 0.00000 0.00000
  47 0.00000 0.00000 0.00000
  48 0.00000 0.00000 0.00000
  49 0.00000 0.00000 0.00000
  50 0.00000 0.00000 0.00000
  51 0.00000 0.00000 0.00000
  52 0.00000 0.00000 0.00000
  53 0.00000 0.00000 0.00000
  54 0.00000 0.00000 0.00000
  55 0.00000 0.00000 0.00000
  56 0.00000 0.00000 0.00000
  57 0.00000 0.00000 0.00000
  58 0.00000 0.00000 0.00000
  59 0.00000 0.00000 0.00000
  60 0.00000 0.00000 0.00000
  61 0.00000 0.00000 0.00000
  62 0.00000 0.00000 0.00000
  63 0.00000 0.00000 0.00000
  64 0.00000 0.00000 0.00000
  65 0.00000 0.00000 0.00000
  66 0.00000 0.00000 0.00000
  67 0.00000 0.00000 0.00000
  68 0.00000 0.00000 0.00000
  69 0.00000 0.00000 0.00000
  70 0.00000 0.00000 0.00000
  71 0.00000 0.00000 0.00000
  72 0.00000 0.00000 0.00000
  73 0.00000 0.00000 0.00000
  74 0.00000 0.00000 0.00000
  75 0.00000 0.00000 0.00000
  76 0.00000 0.00000 0.00000
  77 0.00000 0.00000 0.00000
  78 0.00000 0.00000 0.00000
  79 0.00000 0.00000 0.00000
  80 0.00000 0.00000 0.00000
  81 0.00000 0.00000 0.00000
  82 0.00000 0.00000 0.00000
  83 0.00000 0.00000 0.00000
  84 0.00000 0.00000 0.00000
  85 0.00000 0.00000 0.00000
  86 0.00000 0.00000 0.00000
  87 0.00000 0.00000 0.00000
  88 0.00000 0.00000 0.00000
  89 0.00000 0.00000 0.00000
  90 0.00000 0.00000 0.00000
  91 0.00000 0.00000 0.00000
  92 0.00000 0.00000 0.00000
  93 0.00000 0.00000 0.00000
  94 0.00000 0.00000 0.00000
  95 0.00000 0.00000 0.00000
  96 0.00000 0.00000 0.00000
  97 0.00000 0.00000 0.00000
  98 0.00000 0.00000 0.00000
  99 0.00000 0.00000 0.00000
  100 0.00000 0.00000 0.00000
  101 0.00000 0.00000 0.00000
  102 0.00000 0.00000 0.00000
  103 0.00000 0.00000 0.00000
  104 0.00000 0.00000 0.00000
  105 0.00000 0.00000 0.00000
  106 0.00000 0.00000 0.00000
  107 0.00000 0.00000 0.00000
  108 0.00000 0.00000 0.00000
  109 0.00000 0.00000 0.00000
  110 0.00000 0.00000 0.00000
  111 0.00000 0.00000 0.00000
  112 0.00000 0.00000 0.00000
  113 0.00000 0.00000 0.00000
  114 0.00000 0.00000 0.00000
  115 0.00000 0.00000 0.00000
  116 0.00000 0.00000 0.00000
  117 0.00000 0.00000 0.00000
  118 0.00000 0.00000 0.00000
  119 0.00000 0.00000 0.00000
  120 0.00000 0.00000 0.00000
  121 0.00000 0.00000 0.00000
  122 0.00000 0.00000 0.00000
  123 0.00000 0.00000 0.00000
  124 0.00000 0.00000 0.00000
  125 0.00000 0.00000 0.00000
  126 0.00000 0.00000 0.00000
  127 0.00000 0.00000 0.00000
  128 0.00000 0.00000 0.00000
  129 0.00000 0.00000 0.00000
  130 0.00000 0.00000 0.00000
  131 0.00000 0.00000 0.00000
  132 0.00000 0.00000 0.00000
  133 0.00000 0.00000 0.00000
  134 0.00000 0.00000 0.00000
  135 0.00000 0.00000 0.00000
  136 0.00000 0.00000 0.00000
  137 0.00000 0.00000 0.00000
  138 0.00000 0.00000 0.00000
  139 0.00000 0.00000 0.00000
  140 0.00000 0.00000 0.00000
  141 0.00000 0.00000 0.00000
  142 0.00000 0.00000 0.00000
  143 0.00000 0.00000 0.00000
  144 0.00000 0.00000 0.00000
  145 0.00000 0.00000 0.00000
  146 0.00000 0.00000 0.00000
  147 0.00000 0.00000 0.00000
  148 0.00000 0.00000 0.00000
  149 0.00000 0.00000 0.00000
  150 0.00000 0.00000 0.00000
  151 0.00000 0.00000 0.00000
  152 0.00000 0.00000 0.00000
  153 0.00000 0.00000 0.00000
  154 0.00000 0.00000 0.00000
  155 0.00000 0.00000 0.00000
  156 0.00000 0.00000 0.00000
  157 0.00000 0.00000 0.00000
  158 0.00000 0.00000 0.00000
  159 0.00000 0.00000 0.00000
  160 0.00000 0.00000 0.00000
  161 0.00000 0.00000 0.00000
  162 0.00000 0.00000 0.00000
  163 0.00000 0.00000 0.00000
  164 0.00000 0.00000 0.00000
  165 0.00000 0.00000 0.00000
  166 0.00000 0.00000 0.00000
  167 0.00000 0.00000 0.00000
  168 0.00000 0.00000 0.00000
  169 0.00000 0.00000 0.00000
  170 0.00000 0.00000 0.00000
  171 0.00000 0.00000 0.00000
  172 0.00000 0.00000 0.00000
  173 0.00000 0.00000 0.00000
  174 0.00000 0.00000 0.00000
  175 0.00000 0.00000 0.00000
  176 0.00000 0.00000 0.00000
  177 0.00000 0.00000 0.00000
  178 0.00000 0.00000 0.00000
  179 0.00000 0.00000 0.00000
  180 0.00000 0.00000 0.00000
  181 0.00000 0.00000 0.00000
  182 0.00000 0.00000 0.00000
  183 0.00000 0.00000 0.00000
  184 0.00000 0.00000 0.00000
  185 0.00000 0.00000 0.00000
  186 0.00000 0.00000 0.00000
  187 0.00000 0.00000 0.00000
  188 0.00000 0.00000 0.00000
  189 0.00000 0.00000 0.00000
  190 0.00000 0.00000 0.00000
  191 0.00000 0.00000 0.00000
  192 0.00000 0.00000 0.00000
  193 0.00000 0.00000 0.00000
  194 0.00000 0.00000 0.00000
  195 0.00000 0.00000 0.00000
  196 0.00000 0.00000 0.00000
  197 0.00000 0.00000 0.00000
  198 0.00000 0.00000 0.00000
  199 0.00000 0.00000 0.00000
  200 0.00000 0.00000 0.00000
  201 0.00000 0.00000 0.00000
  202 0.00000 0.00000 0.00000
  203 0.00000 0.00000 0.00000
  204 0.00000 0.00000 0.00000
  205 0.00000 0.00000 0.00000
  206 0.00000 0.00000 0.00000
  207 0.00000 0.00000 0.00000
  208 0.00000 0.00000 0.00000
  209 0.00000 0.00000 0.00000
  210 0.00000 0.00000 0.00000
  211 0.00000 0.00000 0.00000
  212 0.00000 0.00000 0.00000
  213 0.00000 0.00000 0.00000
  214 0.00000 0.00000 0.00000
  215 0.00000 0.00000 0.00000
  216 0.00000 0.00000 0.00000
  217 0.00000 0.00000 0.00000
  218 0.00000 0.00000 0.00000
  219 0.00000 0.00000 0.00000
  220 0.00000 0.00000 0.00000
  221 0.00000 0.00000 0.00000
  222 0.00000 0.00000 0.00000
  223 0.00000 0.00000 0.00000
  224 0.00000 0.00000 0.00000
  225 0.00000 0.00000 0.00000
  226 0.00000 0.00000 0.00000
  227 0.00000 0.00000 0.00000
  228 0.00000 0.00000 0.00000
  229 0.00000 0.00000 0.00000
  230 0.00000 0.00000 0.00000
  231 0.00000 0.00000 0.00000
  232 0.00000 0.00000 0.00000
  233 0.00000 0.00000 0.00000
  234 0.00000 0.00000 0.00000
  235 0.00000 0.00000 0.00000
  236 0.00000 0.00000 0.00000
  237 0.00000 0.00000 0.00000
  238 0.00000 0.00000 0.00000
  239 0.00000 0.00000 0.00000
  240 0.00000 0.00000 0.00000
  241 0.00000 0.00000 0.00000
</Section>

newXOutput 153

<Section columns = "stress_xx | stress_yy | stress_xy">
  1 0.00000 0.00000 0.00000
  2 0.00000 0.00000 0.00000
  3 0.00000 0.00000 0.00000
  4 0.00000 0.00000 0.00000
  5 0.00000 0.00000 0.00000
  6 0.00000 0.00000 0.00000
  7 0.00000 0.00000 0.00000
  8 0.00000 0.00000 0.00000
  9 0.00000 0.00000 0.00000
  10 0.00000 0.00000 0.00000
  11 0.00000 0.00000 0.00000
  12 0.00000 0.00000 0.00000
  13 0.00000 0.00000 0.00000
  14 0.00000 0.00000 0.00000
  15 0.00000 0.00000 0.00000
  16 0.00000 0.00000 0.00000
  17 0.00000 0.00000 0.00000
  18 0.00000 0.00000 0.00000
  19 0.00000 0.00000 0.00000
  20 0.00000 0.00000 0.00000
  21 0.00000 0.00000 0.00000
  22 0.00000 0.00000 0.00000
  23 0.00000 0.00000 0.00000
  24 0.00000 0.00000 0.00000
  25 0.00000 0.00000 0.00000
  26 0.00000 0.00000 0.00000
  27 0.00000 0.00000 0.00000
  28 0.00000 0.00000 0.00000
  29 0.00000 0.00000 0.00000
  30 0.00000 0.00000 0.00000
  31 0.00000 0.00000 0.00000
  32 0.00000 0.00000 0.00000
  33 0.00000 0.00000 0.00000
  34 0.00000 0.00000 0.00000
  35 0.00000 0.00000 0.00000
  36 0.00000 0.00000 0.00000
  37 0.00000 0.00000 0.00000
  38 0.00000 0.00000 0.00000
  39 0.00000 0.00000 0.00000
  40 0.00000 0.00000 0.00000
  41 0.00000 0.00000 0.00000
  42 0.00000 0.00000 0.00000
  43 0.00000 0.00000 0.00000
  44 0.00000 0.00000 0.00000
  45 0.00000 0.00000 0.00000
  46 0.00000 0.00000 0.00000
  47 0.00000 0.00000 0.00000
  48 0.00000 0.00000 0.00000
  49 0.00000 0.00000 0.00000
  50 0.00000 0.00000 0.00000
  51 0.00000 0.00000 0.00000
  52 0.00000 0.00000 0.00000
  53 0.00000 0.00000 0.00000
  54 0.00000 0.00000 0.00000
  55 0.00000 0.00000 0.00000
  56 0.00000 0.00000 0.00000
  57 0.00000 0.00000 0.00000
  58 0.00000 0.00000 0.00000
  59 0.00000 0.00000 0.00000
  60 0.00000 0.00000 0.00000
  61 0.00000 0.00000 0.00000
  62 0.00000 0.00000 0.00000
  63 0.00000 0.00000 0.00000
  64 0.00000 0.00000 0.00000
  65 0.00000 0.00000 0.00000
  66 0.00000 0.00000 0.00000
  67 0.00000 0.00000 0.00000
  68 0.00000 0.00000 0.00000
  69 0.00000 0.00000 0.00000
  70 0.00000 0.00000 0.00000
  71 0.00000 0.00000 0.00000
  72 0.00000 0.00000 0.00000
  73 0.00000 0.00000 0.00000
  74 0.00000 0.00000 0.00000
  75 0.00000 0.00000 0.00000
  76 0.00000 0.00000 0.00000
  77 0.00000 0.00000 0.00000
  78 0.00000 0.00000 0.00000
  79 0.00000 0.00000 0.00000
  80 0.00000 0.00000 0.00000
  81 0.00000 0.00000 0.00000
  82 0.00000 0.00000 0.00000
  83 0.00000 0.00000 0.00000
  84 0.00000 0.00000 0.00000
  85 0.00000 0.00000 0.00000
  86 0.00000 0.00000 0.00000
  87 0.00000 0.00000 0.00000
  88 0.00000 0.00000 0.00000
  89 0.00000 0.00000 0.00000
  90 0.00000 0.00000 0.00000
  91 0.00000 0.00000 0.00000
  92 0.00000 0.00000 0.00000
  93 0.00000 0.00000 0.00000
  94 0.00000 0.00000 0.00000
  95 0.00000 0.00000 0.00000
  96 0.00000 0.00000 0.00000
  97 0.00000 0.00000 0.00000
  98 0.00000 0.00000 0.00000
  99 0.00000 0.00000 0.00000
  100 0.00000 0.00000 0.00000
  101 0.00000 0.00000 0.00000
  102 0.00000 0.00000 0.00000
  103 0.00000 0.00000 0.00000
  104 0.00000 0.00000 0.00000
  105 0.00000 0.00000 0.00000
  106 0.00000 0.00000 0.00000
  107 0.00000 0.00000 0.00000
  108 0.00000 0.00000 0.00000
  109 0.00000 0.00000 0.00000
  110 0.00000 0.00000 0.00000
  111 0.00000 0.00000 0.00000
  112 0.00000 0.00000 0.00000
  113 0.00000 0.00000 0.00000
  114 0.00000 0.00000 0.00000
  115 0.00000 0.00000 0.00000
  116 0.00000 0.00000 0.00000
  117 0.00000 0.00000 0.00000
  118 0.00000 0.00000 0.00000
  119 0.00000 0.00000 0.00000
  120 0.00000 0.00000 0.00000
  121 0.00000 0.00000 0.00000
  122 0.00000 0.00000 0.00000
  123 0.00000 0.00000 0.00000
  124 0.00000 0.00000 0.00000
  125 0.00000 0.00000 0.00000
  126 0.00000 0.00000 0.00000
  127 0.00000 0.00000 0.00000
  128 0.00000 0.00000 0.00000
  129 0.00000 0.00000 0.00000
  130 0.00000 0.00000 0.00000
  131 0.00000 0.00000 0.00000
  132 0.00000 0.00000 0.00000
  133 0.00000 0.00000 0.00000
  134 0.00000 0.00000 0.00000
  135 0.00000 0.00000 0.00000
  136 0.00000 0.00000 0.00000
  137 0.00000 0.00000 0.00000
  138 0.00000 0.00000 0.00000
  139 0.00000 0.00000 0.00000
  140 0.00000 0.00000 0.00000
  141 0.00000 0.00000 0.00000
  142 0.00000 0.00000 0.00000
  143 0.00000 0.00000 0.00000
  144 0.00000 0.00000 0.00000
  145 0.00000 0.00000 0.00000
  146 0.00000 0.00000 0.00000
  147 0.00000 0.00000 0.00000
  148 0.00000 0.00000 0.00000
  149 0.00000 0.00000 0.00000
  150 0.00000 0.00000 0.00000
  151 0.00000 0.00000 0.00000
  152 0.00000 0.00000 0.00000
  153 0.00000 0.00000 0.00000
  154 0.00000 0.00000 0.00000
  155 0.00000 0.00000 0.00000
  156 0.00000 0.00000 0.00000
  157 0.00000 0.00000 0.00000
  158 0.00000 0.00000 0.00000
  159 0.00000 0.00000 0.00000
  160 0.00000 0.00000 0.00000
  161 0.00000 0.00000 0.00000
  162 0.00000 0.00000 0.00000
  163 0.00000 0.00000 0.00000
  164 0.00000 0.00000 0.00000
  165 0.00000 0.00000 0.00000
  166 0.00000 0.00000 0.00000
  167 0.00000 0.00000 0.00000
  168 0.00000 0.00000 0.00000
  169 0.00000 0.00000 0.00000
  170 0.00000 0.00000 0.00000
  171 0.00000 0.00000 0.00000
  172 0.00000 0.00000 0.00000
  173 0.00000 0.00000 0.00000
  174 0.00000 0.00000 0.00000
  175 0.00000 0.00000 0.00000
  176 0.00000 0.00000 0.00000
  177 0.00000 0.00000 0.00000
  178 0.00000 0.00000 0.00000
  179 0.00000 0.00000 0.00000
  180 0.00000 0.00000 0.00000
  181 0.00000 0.00000 0.00000
  182 0.00000 0.00000 0.00000
  183 0.00000 0.00000 0.00000
  184 0.00000 0.00000 0.00000
  185 0.00000 0.00000 0.00000
  186 0.00000 0.00000 0.00000
  187 0.00000 0.00000 0.00000
  188 0.00000 0.00000 0.00000
  189 0.00000 0.00000 0.00000
  190 0.00000 0.00000 0.00000
  191 0.00000 0.00000 0.00000
  192 0.00000 0.00000 0.00000
  193 0.00000 0.00000 0.00000
  194 0.00000 0.00000 0.00000
  195 0.00000 0.00000 0.00000
  196 0.00000 0.00000 0.00000
  197 0.00000 0.00000 0.00000
  198 0.00000 0.00000 0.00000
  199 0.00000 0.00000 0.00000
  200 0.00000 0.00000 0.00000
  201 0.00000 0.00000 0.00000
  202 0.00000 0.00000 0.00000
  203 0.00000 0.00000 0.00000
  204 0.00000 0.00000 0.00000
  205 0.00000 0.00000 0.00000
  206 0.00000 0.00000 0.00000
  207 0.00000 0.00000 0.00000
  208 0.00000 0.00000 0.00000
  209 0.00000 0.00000 0.00000
  210 0.00000 0.00000 0.00000
  211 0.00000 0.00000 0.00000
  212 0.00000 0.00000 0.00000
  213 0.00000 0.00000 0.00000
  214 0.00000 0.00000 0.00000
  215 0.00000 0.00000 0.00000
  216 0.00000 0.00000 0.00000
  217 0.00000 0.00000 0.00000
  218 0.00000 0.00000 0.00000
  219 0.00000 0.00000 0.00000
  220 0.00000 0.00000 0.00000
  221 0.00000 0.00000 0.00000
  222 0.00000 0.00000 0.00000
  223 0.00000 0.00000 0.00000
  224 0.00000 0.00000 0.00000
  225 0.00000 0.00000 0.00000
  226 0.00000 0.00000 0.00000
  227 0.00000 0.00000 0.00000
  228 0.00000 0.00000 0.00000
  229 0.00000 0.00000 0.00000
  230 0.00000 0.00000 0.00000
  231 0.00000 0.00000 0.00000
  232 0.00000 0.00000 0.00000
  233 0.00000 0.00000 0.00000
  234 0.00000 0.00000 0.00000
  235 0.00000 0.00000 0.00000
  236 0.00000 0.00000 0.00000
  237 0.00000 0.00000 0.00000
  238 0.00000 0.00000 0.00000
  239 0.00000 0.00000 0.00000
  240 0.00000 0.00000 0.00000
  241 0.00000 0.00000 0.00000
</Section>

newXOutput 154

<Section columns = "stress_xx | stress_yy | stress_xy">
  1 0.00000 0.00000 0.00000
  2 0.00000 0.00000 0.00000
  3 0.00000 0.00000 0.00000
  4 0.00000 0.00000 0.00000
  5 0.00000 0.00000 0.00000
  6 0.00000 0.00000 0.00000
  7 0.00000 0.00000 0.00000
  8 0.00000 0.00000 0.00000
  9 0.00000 0.00000 0.00000
  10 0.00000 0.00000 0.00000
  11 0.00000 0.00000 0.00000
  12 0.00000 0.00000 0.00000
  13 0.00000 0.00000 0.00000
  14 0.00000 0.00000 0.00000
  15 0.00000 0.00000 0.00000
  16 0.00000 0.00000 0.00000
  17 0.00000 0.00000 0.00000
  18 0.00000 0.00000 0.00000
  19 0.00000 0.00000 0.00000
  20 0.00000 0.00000 0.00000
  21 0.00000 0.00000 0.00000
  22 0.00000 0.00000 0.00000
  23 0.00000 0.00000 0.00000
  24 0.00000 0.00000 0.00000
  25 0.00000 0.00000 0.00000
  26 0.00000 0.00000 0.00000
  27 0.00000 0.00000 0.00000
  28 0.00000 0.00000 0.00000
  29 0.00000 0.00000 0.00000
  30 0.00000 0.00000 0.00000
  31 0.00000 0.00000 0.00000
  32 0.00000 0.00000 0.00000
  33 0.00000 0.00000 0.00000
  34 0.00000 0.00000 0.00000
  35 0.00000 0.00000 0.00000
  36 0.00000 0.00000 0.00000
  37 0.00000 0.00000 0.00000
  38 0.00000 0.00000 0.00000
  39 0.00000 0.00000 0.00000
  40 0.00000 0.00000 0.00000
  41 0.00000 0.00000 0.00000
  42 0.00000 0.00000 0.00000
  43 0.00000 0.00000 0.00000
  44 0.00000 0.00000 0.00000
  45 0.00000 0.00000 0.00000
  46 0.00000 0.00000 0.00000
  47 0.00000 0.00000 0.00000
  48 0.00000 0.00000 0.00000
  49 0.00000 0.00000 0.00000
  50 0.00000 0.00000 0.00000
  51 0.00000 0.00000 0.00000
  52 0.00000 0.00000 0.00000
  53 0.00000 0.00000 0.00000
  54 0.00000 0.00000 0.00000
  55 0.00000 0.00000 0.00000
  56 0.00000 0.00000 0.00000
  57 0.00000 0.00000 0.00000
  58 0.00000 0.00000 0.00000
  59 0.00000 0.00000 0.00000
  60 0.00000 0.00000 0.00000
  61 0.00000 0.00000 0.00000
  62 0.00000 0.00000 0.00000
  63 0.00000 0.00000 0.00000
  64 0.00000 0.00000 0.00000
  65 0.00000 0.00000 0.00000
  66 0.00000 0.00000 0.00000
  67 0.00000 0.00000 0.00000
  68 0.00000 0.00000 0.00000
  69 0.00000 0.00000 0.00000
  70 0.00000 0.00000 0.00000
  71 0.00000 0.00000 0.00000
  72 0.00000 0.00000 0.00000
  73 0.00000 0.00000 0.00000
  74 0.00000 0.00000 0.00000
  75 0.00000 0.00000 0.00000
  76 0.00000 0.00000 0.00000
  77 0.00000 0.00000 0.00000
  78 0.00000 0.00000 0.00000
  79 0.00000 0.00000 0.00000
  80 0.00000 0.00000 0.00000
  81 0.00000 0.00000 0.00000
  82 0.00000 0.00000 0.00000
  83 0.00000 0.00000 0.00000
  84 0.00000 0.00000 0.00000
  85 0.00000 0.00000 0.00000
  86 0.00000 0.00000 0.00000
  87 0.00000 0.00000 0.00000
  88 0.00000 0.00000 0.00000
  89 0.00000 0.00000 0.00000
  90 0.00000 0.00000 0.00000
  91 0.00000 0.00000 0.00000
  92 0.00000 0.00000 0.00000
  93 0.00000 0.00000 0.00000
  94 0.00000 0.00000 0.00000
  95 0.00000 0.00000 0.00000
  96 0.00000 0.00000 0.00000
  97 0.00000 0.00000 0.00000
  98 0.00000 0.00000 0.00000
  99 0.00000 0.00000 0.00000
  100 0.00000 0.00000 0.00000
  101 0.00000 0.00000 0.00000
  102 0.00000 0.00000 0.00000
  103 0.00000 0.00000 0.00000
  104 0.00000 0.00000 0.00000
  105 0.00000 0.00000 0.00000
  106 0.00000 0.00000 0.00000
  107 0.00000 0.00000 0.00000
  108 0.00000 0.00000 0.00000
  109 0.00000 0.00000 0.00000
  110 0.00000 0.00000 0.00000
  111 0.00000 0.00000 0.00000
  112 0.00000 0.00000 0.00000
  113 0.00000 0.00000 0.00000
  114 0.00000 0.00000 0.00000
  115 0.00000 0.00000 0.00000
  116 0.00000 0.00000 0.00000
  117 0.00000 0.00000 0.00000
  118 0.00000 0.00000 0.00000
  119 0.00000 0.00000 0.00000
  120 0.00000 0.00000 0.00000
  121 0.00000 0.00000 0.00000
  122 0.00000 0.00000 0.00000
  123 0.00000 0.00000 0.00000
  124 0.00000 0.00000 0.00000
  125 0.00000 0.00000 0.00000
  126 0.00000 0.00000 0.00000
  127 0.00000 0.00000 0.00000
  128 0.00000 0.00000 0.00000
  129 0.00000 0.00000 0.00000
  130 0.00000 0.00000 0.00000
  131 0.00000 0.00000 0.00000
  132 0.00000 0.00000 0.00000
  133 0.00000 0.00000 0.00000
  134 0.00000 0.00000 0.00000
  135 0.00000 0.00000 0.00000
  136 0.00000 0.00000 0.00000
  137 0.00000 0.00000 0.00000
  138 0.00000 0.00000 0.00000
  139 0.00000 0.00000 0.00000
  140 0.00000 0.00000 0.00000
  141 0.00000 0.00000 0.00000
  142 0.00000 0.00000 0.00000
  143 0.00000 0.00000 0.00000
  144 0.00000 0.00000 0.00000
  145 0.00000 0.00000 0.00000
  146 0.00000 0.00000 0.00000
  147 0.00000 0.00000 0.00000
  148 0.00000 0.00000 0.00000
  149 0.00000 0.00000 0.00000
  150 0.00000 0.00000 0.00000
  151 0.00000 0.00000 0.00000
  152 0.00000 0.00000 0.00000
  153 0.00000 0.00000 0.00000
  154 0.00000 0.00000 0.00000
  155 0.00000 0.00000 0.00000
  156 0.00000 0.00000 0.00000
  157 0.00000 0.00000 0.00000
  158 0.00000 0.00000 0.00000
  159 0.00000 0.00000 0.00000
  160 0.00000 0.00000 0.00000
  161 0.00000 0.00000 0.00000
  162 0.00000 0.00000 0.00000
  163 0.00000 0.00000 0.00000
  164 0.00000 0.00000 0.00000
  165 0.00000 0.00000 0.00000
  166 0.00000 0.00000 0.00000
  167 0.00000 0.00000 0.00000
  168 0.00000 0.00000 0.00000
  169 0.00000 0.00000 0.00000
  170 0.00000 0.00000 0.00000
  171 0.00000 0.00000 0.00000
  172 0.00000 0.00000 0.00000
  173 0.00000 0.00000 0.00000
  174 0.00000 0.00000 0.00000
  175 0.00000 0.00000 0.00000
  176 0.00000 0.00000 0.00000
  177 0.00000 0.00000 0.00000
  178 0.00000 0.00000 0.00000
  179 0.00000 0.00000 0.00000
  180 0.00000 0.00000 0.00000
  181 0.00000 0.00000 0.00000
  182 0.00000 0.00000 0.00000
  183 0.00000 0.00000 0.00000
  184 0.00000 0.00000 0.00000
  185 0.00000 0.00000 0.00000
  186 0.00000 0.00000 0.00000
  187 0.00000 0.00000 0.00000
  188 0.00000 0.00000 0.00000
  189 0.00000 0.00000 0.00000
  190 0.00000 0.00000 0.00000
  191 0.00000 0.00000 0.00000
  192 0.00000 0.00000 0.00000
  193 0.00000 0.00000 0.00000
  194 0.00000 0.00000 0.00000
  195 0.00000 0.00000 0.00000
  196 0.00000 0.00000 0.00000
  197 0.00000 0.00000 0.00000
  198 0.00000 0.00000 0.00000
  199 0.00000 0.00000 0.00000
  200 0.00000 0.00000 0.00000
  201 0.00000 0.00000 0.00000
  202 0.00000 0.00000 0.00000
  203 0.00000 0.00000 0.00000
  204 0.00000 0.00000 0.00000
  205 0.00000 0.00000 0.00000
  206 0.00000 0.00000 0.00000
  207 0.00000 0.00000 0.00000
  208 0.00000 0.00000 0.00000
  209 0.00000 0.00000 0.00000
  210 0.00000 0.00000 0.00000
  211 0.00000 0.00000 0.00000
  212 0.00000 0.00000 0.00000
  213 0.00000 0.00000 0.00000
  214 0.00000 0.00000 0.00000
  215 0.00000 0.00000 0.00000
  216 0.00000 0.00000 0.00000
  217 0.00000 0.00000 0.00000
  218 0.00000 0.00000 0.00000
  219 0.00000 0.00000 0.00000
  220 0.00000 0.00000 0.00000
  221 0.00000 0.00000 0.00000
  222 0.00000 0.00000 0.00000
  223 0.00000 0.00000 0.00000
  224 0.00000 0.00000 0.00000
  225 0.00000 0.00000 0.00000
  226 0.00000 0.00000 0.00000
  227 0.00000 0.00000 0.00000
  228 0.00000 0.00000 0.00000
  229 0.00000 0.00000 0.00000
  230 0.00000 0.00000 0.00000
  231 0.00000 0.00000 0.00000
  232 0.00000 0.00000 0.00000
  233 0.00000 0.00000 0.00000
  234 0.00000 0.00000 0.00000
  235 0.00000 0.00000 0.00000
  236 0.00000 0.00000 0.00000
  237 0.00000 0.00000 0.00000
  238 0.00000 0.00000 0.00000
  239 0.00000 0.00000 0.00000
  240 0.00000 0.00000 0.00000
  241 0.00000 0.00000 0.00000
</Section>

newXOutput 155

<Section columns = "stress_xx | stress_yy | stress_xy">
  1 0.00000 0.00000 0.00000
  2 0.00000 0.00000 0.00000
  3 0.00000 0.00000 0.00000
  4 0.00000 0.00000 0.00000
  5 0.00000 0.00000 0.00000
  6 0.00000 0.00000 0.00000
  7 0.00000 0.00000 0.00000
  8 0.00000 0.00000 0.00000
  9 0.00000 0.00000 0.00000
  10 0.00000 0.00000 0.00000
  11 0.00000 0.00000 0.00000
  12 0.00000 0.00000 0.00000
  13 0.00000 0.00000 0.00000
  14 0.00000 0.00000 0.00000
  15 0.00000 0.00000 0.00000
  16 0.00000 0.00000 0.00000
  17 0.00000 0.00000 0.00000
  18 0.00000 0.00000 0.00000
  19 0.00000 0.00000 0.00000
  20 0.00000 0.00000 0.00000
  21 0.00000 0.00000 0.00000
  22 0.00000 0.00000 0.00000
  23 0.00000 0.00000 0.00000
  24 0.00000 0.00000 0.00000
  25 0.00000 0.00000 0.00000
  26 0.00000 0.00000 0.00000
  27 0.00000 0.00000 0.00000
  28 0.00000 0.00000 0.00000
  29 0.00000 0.00000 0.00000
  30 0.00000 0.00000 0.00000
  31 0.00000 0.00000 0.00000
  32 0.00000 0.00000 0.00000
  33 0.00000 0.00000 0.00000
  34 0.00000 0.00000 0.00000
  35 0.00000 0.00000 0.00000
  36 0.00000 0.00000 0.00000
  37 0.00000 0.00000 0.00000
  38 0.00000 0.00000 0.00000
  39 0.00000 0.00000 0.00000
  40 0.00000 0.00000 0.00000
  41 0.00000 0.00000 0.00000
  42 0.00000 0.00000 0.00000
  43 0.00000 0.00000 0.00000
  44 0.00000 0.00000 0.00000
  45 0.00000 0.00000 0.00000
  46 0.00000 0.00000 0.00000
  47 0.00000 0.00000 0.00000
  48 0.00000 0.00000 0.00000
  49 0.00000 0.00000 0.00000
  50 0.00000 0.00000 0.00000
  51 0.00000 0.00000 0.00000
  52 0.00000 0.00000 0.00000
  53 0.00000 0.00000 0.00000
  54 0.00000 0.00000 0.00000
  55 0.00000 0.00000 0.00000
  56 0.00000 0.00000 0.00000
  57 0.00000 0.00000 0.00000
  58 0.00000 0.00000 0.00000
  59 0.00000 0.00000 0.00000
  60 0.00000 0.00000 0.00000
  61 0.00000 0.00000 0.00000
  62 0.00000 0.00000 0.00000
  63 0.00000 0.00000 0.00000
  64 0.00000 0.00000 0.00000
  65 0.00000 0.00000 0.00000
  66 0.00000 0.00000 0.00000
  67 0.00000 0.00000 0.00000
  68 0.00000 0.00000 0.00000
  69 0.00000 0.00000 0.00000
  70 0.00000 0.00000 0.00000
  71 0.00000 0.00000 0.00000
  72 0.00000 0.00000 0.00000
  73 0.00000 0.00000 0.00000
  74 0.00000 0.00000 0.00000
  75 0.00000 0.00000 0.00000
  76 0.00000 0.00000 0.00000
  77 0.00000 0.00000 0.00000
  78 0.00000 0.00000 0.00000
  79 0.00000 0.00000 0.00000
  80 0.00000 0.00000 0.00000
  81 0.00000 0.00000 0.00000
  82 0.00000 0.00000 0.00000
  83 0.00000 0.00000 0.00000
  84 0.00000 0.00000 0.00000
  85 0.00000 0.00000 0.00000
  86 0.00000 0.00000 0.00000
  87 0.00000 0.00000 0.00000
  88 0.00000 0.00000 0.00000
  89 0.00000 0.00000 0.00000
  90 0.00000 0.00000 0.00000
  91 0.00000 0.00000 0.00000
  92 0.00000 0.00000 0.00000
  93 0.00000 0.00000 0.00000
  94 0.00000 0.00000 0.00000
  95 0.00000 0.00000 0.00000
  96 0.00000 0.00000 0.00000
  97 0.00000 0.00000 0.00000
  98 0.00000 0.00000 0.00000
  99 0.00000 0.00000 0.00000
  100 0.00000 0.00000 0.00000
  101 0.00000 0.00000 0.00000
  102 0.00000 0.00000 0.00000
  103 0.00000 0.00000 0.00000
  104 0.00000 0.00000 0.00000
  105 0.00000 0.00000 0.00000
  106 0.00000 0.00000 0.00000
  107 0.00000 0.00000 0.00000
  108 0.00000 0.00000 0.00000
  109 0.00000 0.00000 0.00000
  110 0.00000 0.00000 0.00000
  111 0.00000 0.00000 0.00000
  112 0.00000 0.00000 0.00000
  113 0.00000 0.00000 0.00000
  114 0.00000 0.00000 0.00000
  115 0.00000 0.00000 0.00000
  116 0.00000 0.00000 0.00000
  117 0.00000 0.00000 0.00000
  118 0.00000 0.00000 0.00000
  119 0.00000 0.00000 0.00000
  120 0.00000 0.00000 0.00000
  121 0.00000 0.00000 0.00000
  122 0.00000 0.00000 0.00000
  123 0.00000 0.00000 0.00000
  124 0.00000 0.00000 0.00000
  125 0.00000 0.00000 0.00000
  126 0.00000 0.00000 0.00000
  127 0.00000 0.00000 0.00000
  128 0.00000 0.00000 0.00000
  129 0.00000 0.00000 0.00000
  130 0.00000 0.00000 0.00000
  131 0.00000 0.00000 0.00000
  132 0.00000 0.00000 0.00000
  133 0.00000 0.00000 0.00000
  134 0.00000 0.00000 0.00000
  135 0.00000 0.00000 0.00000
  136 0.00000 0.00000 0.00000
  137 0.00000 0.00000 0.00000
  138 0.00000 0.00000 0.00000
  139 0.00000 0.00000 0.00000
  140 0.00000 0.00000 0.00000
  141 0.00000 0.00000 0.00000
  142 0.00000 0.00000 0.00000
  143 0.00000 0.00000 0.00000
  144 0.00000 0.00000 0.00000
  145 0.00000 0.00000 0.00000
  146 0.00000 0.00000 0.00000
  147 0.00000 0.00000 0.00000
  148 0.00000 0.00000 0.00000
  149 0.00000 0.00000 0.00000
  150 0.00000 0.00000 0.00000
  151 0.00000 0.00000 0.00000
  152 0.00000 0.00000 0.00000
  153 0.00000 0.00000 0.00000
  154 0.00000 0.00000 0.00000
  155 0.00000 0.00000 0.00000
  156 0.00000 0.00000 0.00000
  157 0.00000 0.00000 0.00000
  158 0.00000 0.00000 0.00000
  159 0.00000 0.00000 0.00000
  160 0.00000 0.00000 0.00000
  161 0.00000 0.00000 0.00000
  162 0.00000 0.00000 0.00000
  163 0.00000 0.00000 0.00000
  164 0.00000 0.00000 0.00000
  165 0.00000 0.00000 0.00000
  166 0.00000 0.00000 0.00000
  167 0.00000 0.00000 0.00000
  168 0.00000 0.00000 0.00000
  169 0.00000 0.00000 0.00000
  170 0.00000 0.00000 0.00000
  171 0.00000 0.00000 0.00000
  172 0.00000 0.00000 0.00000
  173 0.00000 0.00000 0.00000
  174 0.00000 0.00000 0.00000
  175 0.00000 0.00000 0.00000
  176 0.00000 0.00000 0.00000
  177 0.00000 0.00000 0.00000
  178 0.00000 0.00000 0.00000
  179 0.00000 0.00000 0.00000
  180 0.00000 0.00000 0.00000
  181 0.00000 0.00000 0.00000
  182 0.00000 0.00000 0.00000
  183 0.00000 0.00000 0.00000
  184 0.00000 0.00000 0.00000
  185 0.00000 0.00000 0.00000
  186 0.00000 0.00000 0.00000
  187 0.00000 0.00000 0.00000
  188 0.00000 0.00000 0.00000
  189 0.00000 0.00000 0.00000
  190 0.00000 0.00000 0.00000
  191 0.00000 0.00000 0.00000
  192 0.00000 0.00000 0.00000
  193 0.00000 0.00000 0.00000
  194 0.00000 0.00000 0.00000
  195 0.00000 0.00000 0.00000
  196 0.00000 0.00000 0.00000
  197 0.00000 0.00000 0.00000
  198 0.00000 0.00000 0.00000
  199 0.00000 0.00000 0.00000
  200 0.00000 0.00000 0.00000
  201 0.00000 0.00000 0.00000
  202 0.00000 0.00000 0.00000
  203 0.00000 0.00000 0.00000
  204 0.00000 0.00000 0.00000
  205 0.00000 0.00000 0.00000
  206 0.00000 0.00000 0.00000
  207 0.00000 0.00000 0.00000
  208 0.00000 0.00000 0.00000
  209 0.00000 0.00000 0.00000
  210 0.00000 0.00000 0.00000
  211 0.00000 0.00000 0.00000
  212 0.00000 0.00000 0.00000
  213 0.00000 0.00000 0.00000
  214 0.00000 0.00000 0.00000
  215 0.00000 0.00000 0.00000
  216 0.00000 0.00000 0.00000
  217 0.00000 0.00000 0.00000
  218 0.00000 0.00000 0.00000
  219 0.00000 0.00000 0.00000
  220 0.00000 0.00000 0.00000
  221 0.00000 0.00000 0.00000
  222 0.00000 0.00000 0.00000
  223 0.00000 0.00000 0.00000
  224 0.00000 0.00000 0.00000
  225 0.00000 0.00000 0.00000
  226 0.00000 0.00000 0.00000
  227 0.00000 0.00000 0.00000
  228 0.00000 0.00000 0.00000
  229 0.00000 0.00000 0.00000
  230 0.00000 0.00000 0.00000
  231 0.00000 0.00000 0.00000
  232 0.00000 0.00000 0.00000
  233 0.00000 0.00000 0.00000
  234 0.00000 0.00000 0.00000
  235 0.00000 0.00000 0.00000
  236 0.00000 0.00000 0.00000
  237 0.00000 0.00000 0.00000
  238 0.00000 0.00000 0.00000
  239 0.00000 0.00000 0.00000
  240 0.00000 0.00000 0.00000
  241 0.00000 0.00000 0.00000
</Section>

newXOutput 156

<Section columns = "stress_xx | stress_yy | stress_xy">
  1 0.00000 0.00000 0.00000
  2 0.00000 0.00000 0.00000
  3 0.00000 0.00000 0.00000
  4 0.00000 0.00000 0.00000
  5 0.00000 0.00000 0.00000
  6 0.00000 0.00000 0.00000
  7 0.00000 0.00000 0.00000
  8 0.00000 0.00000 0.00000
  9 0.00000 0.00000 0.00000
  10 0.00000 0.00000 0.00000
  11 0.00000 0.00000 0.00000
  12 0.00000 0.00000 0.00000
  13 0.00000 0.00000 0.00000
  14 0.00000 0.00000 0.00000
  15 0.00000 0.00000 0.00000
  16 0.00000 0.00000 0.00000
  17 0.00000 0.00000 0.00000
  18 0.00000 0.00000 0.00000
  19 0.00000 0.00000 0.00000
  20 0.00000 0.00000 0.00000
  21 0.00000 0.00000 0.00000
  22 0.00000 0.00000 0.00000
  23 0.00000 0.00000 0.00000
  24 0.00000 0.00000 0.00000
  25 0.00000 0.00000 0.00000
  26 0.00000 0.00000 0.00000
  27 0.00000 0.00000 0.00000
  28 0.00000 0.00000 0.00000
  29 0.00000 0.00000 0.00000
  30 0.00000 0.00000 0.00000
  31 0.00000 0.00000 0.00000
  32 0.00000 0.00000 0.00000
  33 0.00000 0.00000 0.00000
  34 0.00000 0.00000 0.00000
  35 0.00000 0.00000 0.00000
  36 0.00000 0.00000 0.00000
  37 0.00000 0.00000 0.00000
  38 0.00000 0.00000 0.00000
  39 0.00000 0.00000 0.00000
  40 0.00000 0.00000 0.00000
  41 0.00000 0.00000 0.00000
  42 0.00000 0.00000 0.00000
  43 0.00000 0.00000 0.00000
  44 0.00000 0.00000 0.00000
  45 0.00000 0.00000 0.00000
  46 0.00000 0.00000 0.00000
  47 0.00000 0.00000 0.00000
  48 0.00000 0.00000 0.00000
  49 0.00000 0.00000 0.00000
  50 0.00000 0.00000 0.00000
  51 0.00000 0.00000 0.00000
  52 0.00000 0.00000 0.00000
  53 0.00000 0.00000 0.00000
  54 0.00000 0.00000 0.00000
  55 0.00000 0.00000 0.00000
  56 0.00000 0.00000 0.00000
  57 0.00000 0.00000 0.00000
  58 0.00000 0.00000 0.00000
  59 0.00000 0.00000 0.00000
  60 0.00000 0.00000 0.00000
  61 0.00000 0.00000 0.00000
  62 0.00000 0.00000 0.00000
  63 0.00000 0.00000 0.00000
  64 0.00000 0.00000 0.00000
  65 0.00000 0.00000 0.00000
  66 0.00000 0.00000 0.00000
  67 0.00000 0.00000 0.00000
  68 0.00000 0.00000 0.00000
  69 0.00000 0.00000 0.00000
  70 0.00000 0.00000 0.00000
  71 0.00000 0.00000 0.00000
  72 0.00000 0.00000 0.00000
  73 0.00000 0.00000 0.00000
  74 0.00000 0.00000 0.00000
  75 0.00000 0.00000 0.00000
  76 0.00000 0.00000 0.00000
  77 0.00000 0.00000 0.00000
  78 0.00000 0.00000 0.00000
  79 0.00000 0.00000 0.00000
  80 0.00000 0.00000 0.00000
  81 0.00000 0.00000 0.00000
  82 0.00000 0.00000 0.00000
  83 0.00000 0.00000 0.00000
  84 0.00000 0.00000 0.00000
  85 0.00000 0.00000 0.00000
  86 0.00000 0.00000 0.00000
  87 0.00000 0.00000 0.00000
  88 0.00000 0.00000 0.00000
  89 0.00000 0.00000 0.00000
  90 0.00000 0.00000 0.00000
  91 0.00000 0.00000 0.00000
  92 0.00000 0.00000 0.00000
  93 0.00000 0.00000 0.00000
  94 0.00000 0.00000 0.00000
  95 0.00000 0.00000 0.00000
  96 0.00000 0.00000 0.00000
  97 0.00000 0.00000 0.00000
  98 0.00000 0.00000 0.00000
  99 0.00000 0.00000 0.00000
  100 0.00000 0.00000 0.00000
  101 0.00000 0.00000 0.00000
  102 0.00000 0.00000 0.00000
  103 0.00000 0.00000 0.00000
  104 0.00000 0.00000 0.00000
  105 0.00000 0.00000 0.00000
  106 0.00000 0.00000 0.00000
  107 0.00000 0.00000 0.00000
  108 0.00000 0.00000 0.00000
  109 0.00000 0.00000 0.00000
  110 0.00000 0.00000 0.00000
  111 0.00000 0.00000 0.00000
  112 0.00000 0.00000 0.00000
  113 0.00000 0.00000 0.00000
  114 0.00000 0.00000 0.00000
  115 0.00000 0.00000 0.00000
  116 0.00000 0.00000 0.00000
  117 0.00000 0.00000 0.00000
  118 0.00000 0.00000 0.00000
  119 0.00000 0.00000 0.00000
  120 0.00000 0.00000 0.00000
  121 0.00000 0.00000 0.00000
  122 0.00000 0.00000 0.00000
  123 0.00000 0.00000 0.00000
  124 0.00000 0.00000 0.00000
  125 0.00000 0.00000 0.00000
  126 0.00000 0.00000 0.00000
  127 0.00000 0.00000 0.00000
  128 0.00000 0.00000 0.00000
  129 0.00000 0.00000 0.00000
  130 0.00000 0.00000 0.00000
  131 0.00000 0.00000 0.00000
  132 0.00000 0.00000 0.00000
  133 0.00000 0.00000 0.00000
  134 0.00000 0.00000 0.00000
  135 0.00000 0.00000 0.00000
  136 0.00000 0.00000 0.00000
  137 0.00000 0.00000 0.00000
  138 0.00000 0.00000 0.00000
  139 0.00000 0.00000 0.00000
  140 0.00000 0.00000 0.00000
  141 0.00000 0.00000 0.00000
  142 0.00000 0.00000 0.00000
  143 0.00000 0.00000 0.00000
  144 0.00000 0.00000 0.00000
  145 0.00000 0.00000 0.00000
  146 0.00000 0.00000 0.00000
  147 0.00000 0.00000 0.00000
  148 0.00000 0.00000 0.00000
  149 0.00000 0.00000 0.00000
  150 0.00000 0.00000 0.00000
  151 0.00000 0.00000 0.00000
  152 0.00000 0.00000 0.00000
  153 0.00000 0.00000 0.00000
  154 0.00000 0.00000 0.00000
  155 0.00000 0.00000 0.00000
  156 0.00000 0.00000 0.00000
  157 0.00000 0.00000 0.00000
  158 0.00000 0.00000 0.00000
  159 0.00000 0.00000 0.00000
  160 0.00000 0.00000 0.00000
  161 0.00000 0.00000 0.00000
  162 0.00000 0.00000 0.00000
  163 0.00000 0.00000 0.00000
  164 0.00000 0.00000 0.00000
  165 0.00000 0.00000 0.00000
  166 0.00000 0.00000 0.00000
  167 0.00000 0.00000 0.00000
  168 0.00000 0.00000 0.00000
  169 0.00000 0.00000 0.00000
  170 0.00000 0.00000 0.00000
  171 0.00000 0.00000 0.00000
  172 0.00000 0.00000 0.00000
  173 0.00000 0.00000 0.00000
  174 0.00000 0.00000 0.00000
  175 0.00000 0.00000 0.00000
  176 0.00000 0.00000 0.00000
  177 0.00000 0.00000 0.00000
  178 0.00000 0.00000 0.00000
  179 0.00000 0.00000 0.00000
  180 0.00000 0.00000 0.00000
  181 0.00000 0.00000 0.00000
  182 0.00000 0.00000 0.00000
  183 0.00000 0.00000 0.00000
  184 0.00000 0.00000 0.00000
  185 0.00000 0.00000 0.00000
  186 0.00000 0.00000 0.00000
  187 0.00000 0.00000 0.00000
  188 0.00000 0.00000 0.00000
  189 0.00000 0.00000 0.00000
  190 0.00000 0.00000 0.00000
  191 0.00000 0.00000 0.00000
  192 0.00000 0.00000 0.00000
  193 0.00000 0.00000 0.00000
  194 0.00000 0.00000 0.00000
  195 0.00000 0.00000 0.00000
  196 0.00000 0.00000 0.00000
  197 0.00000 0.00000 0.00000
  198 0.00000 0.00000 0.00000
  199 0.00000 0.00000 0.00000
  200 0.00000 0.00000 0.00000
  201 0.00000 0.00000 0.00000
  202 0.00000 0.00000 0.00000
  203 0.00000 0.00000 0.00000
  204 0.00000 0.00000 0.00000
  205 0.00000 0.00000 0.00000
  206 0.00000 0.00000 0.00000
  207 0.00000 0.00000 0.00000
  208 0.00000 0.00000 0.00000
  209 0.00000 0.00000 0.00000
  210 0.00000 0.00000 0.00000
  211 0.00000 0.00000 0.00000
  212 0.00000 0.00000 0.00000
  213 0.00000 0.00000 0.00000
  214 0.00000 0.00000 0.00000
  215 0.00000 0.00000 0.00000
  216 0.00000 0.00000 0.00000
  217 0.00000 0.00000 0.00000
  218 0.00000 0.00000 0.00000
  219 0.00000 0.00000 0.00000
  220 0.00000 0.00000 0.00000
  221 0.00000 0.00000 0.00000
  222 0.00000 0.00000 0.00000
  223 0.00000 0.00000 0.00000
  224 0.00000 0.00000 0.00000
  225 0.00000 0.00000 0.00000
  226 0.00000 0.00000 0.00000
  227 0.00000 0.00000 0.00000
  228 0.00000 0.00000 0.00000
  229 0.00000 0.00000 0.00000
  230 0.00000 0.00000 0.00000
  231 0.00000 0.00000 0.00000
  232 0.00000 0.00000 0.00000
  233 0.00000 0.00000 0.00000
  234 0.00000 0.00000 0.00000
  235 0.00000 0.00000 0.00000
  236 0.00000 0.00000 0.00000
  237 0.00000 0.00000 0.00000
  238 0.00000 0.00000 0.00000
  239 0.00000 0.00000 0.00000
  240 0.00000 0.00000 0.00000
  241 0.00000 0.00000 0.00000
</Section>

newXOutput 157

<Section columns = "stress_xx | stress_yy | stress_xy">
  1 0.00000 0.00000 0.00000
  2 0.00000 0.00000 0.00000
  3 0.00000 0.00000 0.00000
  4 0.00000 0.00000 0.00000
  5 0.00000 0.00000 0.00000
  6 0.00000 0.00000 0.00000
  7 0.00000 0.00000 0.00000
  8 0.00000 0.00000 0.00000
  9 0.00000 0.00000 0.00000
  10 0.00000 0.00000 0.00000
  11 0.00000 0.00000 0.00000
  12 0.00000 0.00000 0.00000
  13 0.00000 0.00000 0.00000
  14 0.00000 0.00000 0.00000
  15 0.00000 0.00000 0.00000
  16 0.00000 0.00000 0.00000
  17 0.00000 0.00000 0.00000
  18 0.00000 0.00000 0.00000
  19 0.00000 0.00000 0.00000
  20 0.00000 0.00000 0.00000
  21 0.00000 0.00000 0.00000
  22 0.00000 0.00000 0.00000
  23 0.00000 0.00000 0.00000
  24 0.00000 0.00000 0.00000
  25 0.00000 0.00000 0.00000
  26 0.00000 0.00000 0.00000
  27 0.00000 0.00000 0.00000
  28 0.00000 0.00000 0.00000
  29 0.00000 0.00000 0.00000
  30 0.00000 0.00000 0.00000
  31 0.00000 0.00000 0.00000
  32 0.00000 0.00000 0.00000
  33 0.00000 0.00000 0.00000
  34 0.00000 0.00000 0.00000
  35 0.00000 0.00000 0.00000
  36 0.00000 0.00000 0.00000
  37 0.00000 0.00000 0.00000
  38 0.00000 0.00000 0.00000
  39 0.00000 0.00000 0.00000
  40 0.00000 0.00000 0.00000
  41 0.00000 0.00000 0.00000
  42 0.00000 0.00000 0.00000
  43 0.00000 0.00000 0.00000
  44 0.00000 0.00000 0.00000
  45 0.00000 0.00000 0.00000
  46 0.00000 0.00000 0.00000
  47 0.00000 0.00000 0.00000
  48 0.00000 0.00000 0.00000
  49 0.00000 0.00000 0.00000
  50 0.00000 0.00000 0.00000
  51 0.00000 0.00000 0.00000
  52 0.00000 0.00000 0.00000
  53 0.00000 0.00000 0.00000
  54 0.00000 0.00000 0.00000
  55 0.00000 0.00000 0.00000
  56 0.00000 0.00000 0.00000
  57 0.00000 0.00000 0.00000
  58 0.00000 0.00000 0.00000
  59 0.00000 0.00000 0.00000
  60 0.00000 0.00000 0.00000
  61 0.00000 0.00000 0.00000
  62 0.00000 0.00000 0.00000
  63 0.00000 0.00000 0.00000
  64 0.00000 0.00000 0.00000
  65 0.00000 0.00000 0.00000
  66 0.00000 0.00000 0.00000
  67 0.00000 0.00000 0.00000
  68 0.00000 0.00000 0.00000
  69 0.00000 0.00000 0.00000
  70 0.00000 0.00000 0.00000
  71 0.00000 0.00000 0.00000
  72 0.00000 0.00000 0.00000
  73 0.00000 0.00000 0.00000
  74 0.00000 0.00000 0.00000
  75 0.00000 0.00000 0.00000
  76 0.00000 0.00000 0.00000
  77 0.00000 0.00000 0.00000
  78 0.00000 0.00000 0.00000
  79 0.00000 0.00000 0.00000
  80 0.00000 0.00000 0.00000
  81 0.00000 0.00000 0.00000
  82 0.00000 0.00000 0.00000
  83 0.00000 0.00000 0.00000
  84 0.00000 0.00000 0.00000
  85 0.00000 0.00000 0.00000
  86 0.00000 0.00000 0.00000
  87 0.00000 0.00000 0.00000
  88 0.00000 0.00000 0.00000
  89 0.00000 0.00000 0.00000
  90 0.00000 0.00000 0.00000
  91 0.00000 0.00000 0.00000
  92 0.00000 0.00000 0.00000
  93 0.00000 0.00000 0.00000
  94 0.00000 0.00000 0.00000
  95 0.00000 0.00000 0.00000
  96 0.00000 0.00000 0.00000
  97 0.00000 0.00000 0.00000
  98 0.00000 0.00000 0.00000
  99 0.00000 0.00000 0.00000
  100 0.00000 0.00000 0.00000
  101 0.00000 0.00000 0.00000
  102 0.00000 0.00000 0.00000
  103 0.00000 0.00000 0.00000
  104 0.00000 0.00000 0.00000
  105 0.00000 0.00000 0.00000
  106 0.00000 0.00000 0.00000
  107 0.00000 0.00000 0.00000
  108 0.00000 0.00000 0.00000
  109 0.00000 0.00000 0.00000
  110 0.00000 0.00000 0.00000
  111 0.00000 0.00000 0.00000
  112 0.00000 0.00000 0.00000
  113 0.00000 0.00000 0.00000
  114 0.00000 0.00000 0.00000
  115 0.00000 0.00000 0.00000
  116 0.00000 0.00000 0.00000
  117 0.00000 0.00000 0.00000
  118 0.00000 0.00000 0.00000
  119 0.00000 0.00000 0.00000
  120 0.00000 0.00000 0.00000
  121 0.00000 0.00000 0.00000
  122 0.00000 0.00000 0.00000
  123 0.00000 0.00000 0.00000
  124 0.00000 0.00000 0.00000
  125 0.00000 0.00000 0.00000
  126 0.00000 0.00000 0.00000
  127 0.00000 0.00000 0.00000
  128 0.00000 0.00000 0.00000
  129 0.00000 0.00000 0.00000
  130 0.00000 0.00000 0.00000
  131 0.00000 0.00000 0.00000
  132 0.00000 0.00000 0.00000
  133 0.00000 0.00000 0.00000
  134 0.00000 0.00000 0.00000
  135 0.00000 0.00000 0.00000
  136 0.00000 0.00000 0.00000
  137 0.00000 0.00000 0.00000
  138 0.00000 0.00000 0.00000
  139 0.00000 0.00000 0.00000
  140 0.00000 0.00000 0.00000
  141 0.00000 0.00000 0.00000
  142 0.00000 0.00000 0.00000
  143 0.00000 0.00000 0.00000
  144 0.00000 0.00000 0.00000
  145 0.00000 0.00000 0.00000
  146 0.00000 0.00000 0.00000
  147 0.00000 0.00000 0.00000
  148 0.00000 0.00000 0.00000
  149 0.00000 0.00000 0.00000
  150 0.00000 0.00000 0.00000
  151 0.00000 0.00000 0.00000
  152 0.00000 0.00000 0.00000
  153 0.00000 0.00000 0.00000
  154 0.00000 0.00000 0.00000
  155 0.00000 0.00000 0.00000
  156 0.00000 0.00000 0.00000
  157 0.00000 0.00000 0.00000
  158 0.00000 0.00000 0.00000
  159 0.00000 0.00000 0.00000
  160 0.00000 0.00000 0.00000
  161 0.00000 0.00000 0.00000
  162 0.00000 0.00000 0.00000
  163 0.00000 0.00000 0.00000
  164 0.00000 0.00000 0.00000
  165 0.00000 0.00000 0.00000
  166 0.00000 0.00000 0.00000
  167 0.00000 0.00000 0.00000
  168 0.00000 0.00000 0.00000
  169 0.00000 0.00000 0.00000
  170 0.00000 0.00000 0.00000
  171 0.00000 0.00000 0.00000
  172 0.00000 0.00000 0.00000
  173 0.00000 0.00000 0.00000
  174 0.00000 0.00000 0.00000
  175 0.00000 0.00000 0.00000
  176 0.00000 0.00000 0.00000
  177 0.00000 0.00000 0.00000
  178 0.00000 0.00000 0.00000
  179 0.00000 0.00000 0.00000
  180 0.00000 0.00000 0.00000
  181 0.00000 0.00000 0.00000
  182 0.00000 0.00000 0.00000
  183 0.00000 0.00000 0.00000
  184 0.00000 0.00000 0.00000
  185 0.00000 0.00000 0.00000
  186 0.00000 0.00000 0.00000
  187 0.00000 0.00000 0.00000
  188 0.00000 0.00000 0.00000
  189 0.00000 0.00000 0.00000
  190 0.00000 0.00000 0.00000
  191 0.00000 0.00000 0.00000
  192 0.00000 0.00000 0.00000
  193 0.00000 0.00000 0.00000
  194 0.00000 0.00000 0.00000
  195 0.00000 0.00000 0.00000
  196 0.00000 0.00000 0.00000
  197 0.00000 0.00000 0.00000
  198 0.00000 0.00000 0.00000
  199 0.00000 0.00000 0.00000
  200 0.00000 0.00000 0.00000
  201 0.00000 0.00000 0.00000
  202 0.00000 0.00000 0.00000
  203 0.00000 0.00000 0.00000
  204 0.00000 0.00000 0.00000
  205 0.00000 0.00000 0.00000
  206 0.00000 0.00000 0.00000
  207 0.00000 0.00000 0.00000
  208 0.00000 0.00000 0.00000
  209 0.00000 0.00000 0.00000
  210 0.00000 0.00000 0.00000
  211 0.00000 0.00000 0.00000
  212 0.00000 0.00000 0.00000
  213 0.00000 0.00000 0.00000
  214 0.00000 0.00000 0.00000
  215 0.00000 0.00000 0.00000
  216 0.00000 0.00000 0.00000
  217 0.00000 0.00000 0.00000
  218 0.00000 0.00000 0.00000
  219 0.00000 0.00000 0.00000
  220 0.00000 0.00000 0.00000
  221 0.00000 0.00000 0.00000
  222 0.00000 0.00000 0.00000
  223 0.00000 0.00000 0.00000
  224 0.00000 0.00000 0.00000
  225 0.00000 0.00000 0.00000
  226 0.00000 0.00000 0.00000
  227 0.00000 0.00000 0.00000
  228 0.00000 0.00000 0.00000
  229 0.00000 0.00000 0.00000
  230 0.00000 0.00000 0.00000
  231 0.00000 0.00000 0.00000
  232 0.00000 0.00000 0.00000
  233 0.00000 0.00000 0.00000
  234 0.00000 0.00000 0.00000
  235 0.00000 0.00000 0.00000
  236 0.00000 0.00000 0.00000
  237 0.00000 0.00000 0.00000
  238 0.00000 0.00000 0.00000
  239 0.00000 0.00000 0.00000
  240 0.00000 0.00000 0.00000
  241 0.00000 0.00000 0.00000
</Section>

newXOutput 158

<Section columns = "stress_xx | stress_yy | stress_xy">
  1 0.00000 0.00000 0.00000
  2 0.00000 0.00000 0.00000
  3 0.00000 0.00000 0.00000
  4 0.00000 0.00000 0.00000
  5 0.00000 0.00000 0.00000
  6 0.00000 0.00000 0.00000
  7 0.00000 0.00000 0.00000
  8 0.00000 0.00000 0.00000
  9 0.00000 0.00000 0.00000
  10 0.00000 0.00000 0.00000
  11 0.00000 0.00000 0.00000
  12 0.00000 0.00000 0.00000
  13 0.00000 0.00000 0.00000
  14 0.00000 0.00000 0.00000
  15 0.00000 0.00000 0.00000
  16 0.00000 0.00000 0.00000
  17 0.00000 0.00000 0.00000
  18 0.00000 0.00000 0.00000
  19 0.00000 0.00000 0.00000
  20 0.00000 0.00000 0.00000
  21 0.00000 0.00000 0.00000
  22 0.00000 0.00000 0.00000
  23 0.00000 0.00000 0.00000
  24 0.00000 0.00000 0.00000
  25 0.00000 0.00000 0.00000
  26 0.00000 0.00000 0.00000
  27 0.00000 0.00000 0.00000
  28 0.00000 0.00000 0.00000
  29 0.00000 0.00000 0.00000
  30 0.00000 0.00000 0.00000
  31 0.00000 0.00000 0.00000
  32 0.00000 0.00000 0.00000
  33 0.00000 0.00000 0.00000
  34 0.00000 0.00000 0.00000
  35 0.00000 0.00000 0.00000
  36 0.00000 0.00000 0.00000
  37 0.00000 0.00000 0.00000
  38 0.00000 0.00000 0.00000
  39 0.00000 0.00000 0.00000
  40 0.00000 0.00000 0.00000
  41 0.00000 0.00000 0.00000
  42 0.00000 0.00000 0.00000
  43 0.00000 0.00000 0.00000
  44 0.00000 0.00000 0.00000
  45 0.00000 0.00000 0.00000
  46 0.00000 0.00000 0.00000
  47 0.00000 0.00000 0.00000
  48 0.00000 0.00000 0.00000
  49 0.00000 0.00000 0.00000
  50 0.00000 0.00000 0.00000
  51 0.00000 0.00000 0.00000
  52 0.00000 0.00000 0.00000
  53 0.00000 0.00000 0.00000
  54 0.00000 0.00000 0.00000
  55 0.00000 0.00000 0.00000
  56 0.00000 0.00000 0.00000
  57 0.00000 0.00000 0.00000
  58 0.00000 0.00000 0.00000
  59 0.00000 0.00000 0.00000
  60 0.00000 0.00000 0.00000
  61 0.00000 0.00000 0.00000
  62 0.00000 0.00000 0.00000
  63 0.00000 0.00000 0.00000
  64 0.00000 0.00000 0.00000
  65 0.00000 0.00000 0.00000
  66 0.00000 0.00000 0.00000
  67 0.00000 0.00000 0.00000
  68 0.00000 0.00000 0.00000
  69 0.00000 0.00000 0.00000
  70 0.00000 0.00000 0.00000
  71 0.00000 0.00000 0.00000
  72 0.00000 0.00000 0.00000
  73 0.00000 0.00000 0.00000
  74 0.00000 0.00000 0.00000
  75 0.00000 0.00000 0.00000
  76 0.00000 0.00000 0.00000
  77 0.00000 0.00000 0.00000
  78 0.00000 0.00000 0.00000
  79 0.00000 0.00000 0.00000
  80 0.00000 0.00000 0.00000
  81 0.00000 0.00000 0.00000
  82 0.00000 0.00000 0.00000
  83 0.00000 0.00000 0.00000
  84 0.00000 0.00000 0.00000
  85 0.00000 0.00000 0.00000
  86 0.00000 0.00000 0.00000
  87 0.00000 0.00000 0.00000
  88 0.00000 0.00000 0.00000
  89 0.00000 0.00000 0.00000
  90 0.00000 0.00000 0.00000
  91 0.00000 0.00000 0.00000
  92 0.00000 0.00000 0.00000
  93 0.00000 0.00000 0.00000
  94 0.00000 0.00000 0.00000
  95 0.00000 0.00000 0.00000
  96 0.00000 0.00000 0.00000
  97 0.00000 0.00000 0.00000
  98 0.00000 0.00000 0.00000
  99 0.00000 0.00000 0.00000
  100 0.00000 0.00000 0.00000
  101 0.00000 0.00000 0.00000
  102 0.00000 0.00000 0.00000
  103 0.00000 0.00000 0.00000
  104 0.00000 0.00000 0.00000
  105 0.00000 0.00000 0.00000
  106 0.00000 0.00000 0.00000
  107 0.00000 0.00000 0.00000
  108 0.00000 0.00000 0.00000
  109 0.00000 0.00000 0.00000
  110 0.00000 0.00000 0.00000
  111 0.00000 0.00000 0.00000
  112 0.00000 0.00000 0.00000
  113 0.00000 0.00000 0.00000
  114 0.00000 0.00000 0.00000
  115 0.00000 0.00000 0.00000
  116 0.00000 0.00000 0.00000
  117 0.00000 0.00000 0.00000
  118 0.00000 0.00000 0.00000
  119 0.00000 0.00000 0.00000
  120 0.00000 0.00000 0.00000
  121 0.00000 0.00000 0.00000
  122 0.00000 0.00000 0.00000
  123 0.00000 0.00000 0.00000
  124 0.00000 0.00000 0.00000
  125 0.00000 0.00000 0.00000
  126 0.00000 0.00000 0.00000
  127 0.00000 0.00000 0.00000
  128 0.00000 0.00000 0.00000
  129 0.00000 0.00000 0.00000
  130 0.00000 0.00000 0.00000
  131 0.00000 0.00000 0.00000
  132 0.00000 0.00000 0.00000
  133 0.00000 0.00000 0.00000
  134 0.00000 0.00000 0.00000
  135 0.00000 0.00000 0.00000
  136 0.00000 0.00000 0.00000
  137 0.00000 0.00000 0.00000
  138 0.00000 0.00000 0.00000
  139 0.00000 0.00000 0.00000
  140 0.00000 0.00000 0.00000
  141 0.00000 0.00000 0.00000
  142 0.00000 0.00000 0.00000
  143 0.00000 0.00000 0.00000
  144 0.00000 0.00000 0.00000
  145 0.00000 0.00000 0.00000
  146 0.00000 0.00000 0.00000
  147 0.00000 0.00000 0.00000
  148 0.00000 0.00000 0.00000
  149 0.00000 0.00000 0.00000
  150 0.00000 0.00000 0.00000
  151 0.00000 0.00000 0.00000
  152 0.00000 0.00000 0.00000
  153 0.00000 0.00000 0.00000
  154 0.00000 0.00000 0.00000
  155 0.00000 0.00000 0.00000
  156 0.00000 0.00000 0.00000
  157 0.00000 0.00000 0.00000
  158 0.00000 0.00000 0.00000
  159 0.00000 0.00000 0.00000
  160 0.00000 0.00000 0.00000
  161 0.00000 0.00000 0.00000
  162 0.00000 0.00000 0.00000
  163 0.00000 0.00000 0.00000
  164 0.00000 0.00000 0.00000
  165 0.00000 0.00000 0.00000
  166 0.00000 0.00000 0.00000
  167 0.00000 0.00000 0.00000
  168 0.00000 0.00000 0.00000
  169 0.00000 0.00000 0.00000
  170 0.00000 0.00000 0.00000
  171 0.00000 0.00000 0.00000
  172 0.00000 0.00000 0.00000
  173 0.00000 0.00000 0.00000
  174 0.00000 0.00000 0.00000
  175 0.00000 0.00000 0.00000
  176 0.00000 0.00000 0.00000
  177 0.00000 0.00000 0.00000
  178 0.00000 0.00000 0.00000
  179 0.00000 0.00000 0.00000
  180 0.00000 0.00000 0.00000
  181 0.00000 0.00000 0.00000
  182 0.00000 0.00000 0.00000
  183 0.00000 0.00000 0.00000
  184 0.00000 0.00000 0.00000
  185 0.00000 0.00000 0.00000
  186 0.00000 0.00000 0.00000
  187 0.00000 0.00000 0.00000
  188 0.00000 0.00000 0.00000
  189 0.00000 0.00000 0.00000
  190 0.00000 0.00000 0.00000
  191 0.00000 0.00000 0.00000
  192 0.00000 0.00000 0.00000
  193 0.00000 0.00000 0.00000
  194 0.00000 0.00000 0.00000
  195 0.00000 0.00000 0.00000
  196 0.00000 0.00000 0.00000
  197 0.00000 0.00000 0.00000
  198 0.00000 0.00000 0.00000
  199 0.00000 0.00000 0.00000
  200 0.00000 0.00000 0.00000
  201 0.00000 0.00000 0.00000
  202 0.00000 0.00000 0.00000
  203 0.00000 0.00000 0.00000
  204 0.00000 0.00000 0.00000
  205 0.00000 0.00000 0.00000
  206 0.00000 0.00000 0.00000
  207 0.00000 0.00000 0.00000
  208 0.00000 0.00000 0.00000
  209 0.00000 0.00000 0.00000
  210 0.00000 0.00000 0.00000
  211 0.00000 0.00000 0.00000
  212 0.00000 0.00000 0.00000
  213 0.00000 0.00000 0.00000
  214 0.00000 0.00000 0.00000
  215 0.00000 0.00000 0.00000
  216 0.00000 0.00000 0.00000
  217 0.00000 0.00000 0.00000
  218 0.00000 0.00000 0.00000
  219 0.00000 0.00000 0.00000
  220 0.00000 0.00000 0.00000
  221 0.00000 0.00000 0.00000
  222 0.00000 0.00000 0.00000
  223 0.00000 0.00000 0.00000
  224 0.00000 0.00000 0.00000
  225 0.00000 0.00000 0.00000
  226 0.00000 0.00000 0.00000
  227 0.00000 0.00000 0.00000
  228 0.00000 0.00000 0.00000
  229 0.00000 0.00000 0.00000
  230 0.00000 0.00000 0.00000
  231 0.00000 0.00000 0.00000
  232 0.00000 0.00000 0.00000
  233 0.00000 0.00000 0.00000
  234 0.00000 0.00000 0.00000
  235 0.00000 0.00000 0.00000
  236 0.00000 0.00000 0.00000
  237 0.00000 0.00000 0.00000
  238 0.00000 0.00000 0.00000
  239 0.00000 0.00000 0.00000
  240 0.00000 0.00000 0.00000
  241 0.00000 0.00000 0.00000
</Section>

newXOutput 159

<Section columns = "stress_xx | stress_yy | stress_xy">
  1 0.00000 0.00000 0.00000
  2 0.00000 0.00000 0.00000
  3 0.00000 0.00000 0.00000
  4 0.00000 0.00000 0.00000
  5 0.00000 0.00000 0.00000
  6 0.00000 0.00000 0.00000
  7 0.00000 0.00000 0.00000
  8 0.00000 0.00000 0.00000
  9 0.00000 0.00000 0.00000
  10 0.00000 0.00000 0.00000
  11 0.00000 0.00000 0.00000
  12 0.00000 0.00000 0.00000
  13 0.00000 0.00000 0.00000
  14 0.00000 0.00000 0.00000
  15 0.00000 0.00000 0.00000
  16 0.00000 0.00000 0.00000
  17 0.00000 0.00000 0.00000
  18 0.00000 0.00000 0.00000
  19 0.00000 0.00000 0.00000
  20 0.00000 0.00000 0.00000
  21 0.00000 0.00000 0.00000
  22 0.00000 0.00000 0.00000
  23 0.00000 0.00000 0.00000
  24 0.00000 0.00000 0.00000
  25 0.00000 0.00000 0.00000
  26 0.00000 0.00000 0.00000
  27 0.00000 0.00000 0.00000
  28 0.00000 0.00000 0.00000
  29 0.00000 0.00000 0.00000
  30 0.00000 0.00000 0.00000
  31 0.00000 0.00000 0.00000
  32 0.00000 0.00000 0.00000
  33 0.00000 0.00000 0.00000
  34 0.00000 0.00000 0.00000
  35 0.00000 0.00000 0.00000
  36 0.00000 0.00000 0.00000
  37 0.00000 0.00000 0.00000
  38 0.00000 0.00000 0.00000
  39 0.00000 0.00000 0.00000
  40 0.00000 0.00000 0.00000
  41 0.00000 0.00000 0.00000
  42 0.00000 0.00000 0.00000
  43 0.00000 0.00000 0.00000
  44 0.00000 0.00000 0.00000
  45 0.00000 0.00000 0.00000
  46 0.00000 0.00000 0.00000
  47 0.00000 0.00000 0.00000
  48 0.00000 0.00000 0.00000
  49 0.00000 0.00000 0.00000
  50 0.00000 0.00000 0.00000
  51 0.00000 0.00000 0.00000
  52 0.00000 0.00000 0.00000
  53 0.00000 0.00000 0.00000
  54 0.00000 0.00000 0.00000
  55 0.00000 0.00000 0.00000
  56 0.00000 0.00000 0.00000
  57 0.00000 0.00000 0.00000
  58 0.00000 0.00000 0.00000
  59 0.00000 0.00000 0.00000
  60 0.00000 0.00000 0.00000
  61 0.00000 0.00000 0.00000
  62 0.00000 0.00000 0.00000
  63 0.00000 0.00000 0.00000
  64 0.00000 0.00000 0.00000
  65 0.00000 0.00000 0.00000
  66 0.00000 0.00000 0.00000
  67 0.00000 0.00000 0.00000
  68 0.00000 0.00000 0.00000
  69 0.00000 0.00000 0.00000
  70 0.00000 0.00000 0.00000
  71 0.00000 0.00000 0.00000
  72 0.00000 0.00000 0.00000
  73 0.00000 0.00000 0.00000
  74 0.00000 0.00000 0.00000
  75 0.00000 0.00000 0.00000
  76 0.00000 0.00000 0.00000
  77 0.00000 0.00000 0.00000
  78 0.00000 0.00000 0.00000
  79 0.00000 0.00000 0.00000
  80 0.00000 0.00000 0.00000
  81 0.00000 0.00000 0.00000
  82 0.00000 0.00000 0.00000
  83 0.00000 0.00000 0.00000
  84 0.00000 0.00000 0.00000
  85 0.00000 0.00000 0.00000
  86 0.00000 0.00000 0.00000
  87 0.00000 0.00000 0.00000
  88 0.00000 0.00000 0.00000
  89 0.00000 0.00000 0.00000
  90 0.00000 0.00000 0.00000
  91 0.00000 0.00000 0.00000
  92 0.00000 0.00000 0.00000
  93 0.00000 0.00000 0.00000
  94 0.00000 0.00000 0.00000
  95 0.00000 0.00000 0.00000
  96 0.00000 0.00000 0.00000
  97 0.00000 0.00000 0.00000
  98 0.00000 0.00000 0.00000
  99 0.00000 0.00000 0.00000
  100 0.00000 0.00000 0.00000
  101 0.00000 0.00000 0.00000
  102 0.00000 0.00000 0.00000
  103 0.00000 0.00000 0.00000
  104 0.00000 0.00000 0.00000
  105 0.00000 0.00000 0.00000
  106 0.00000 0.00000 0.00000
  107 0.00000 0.00000 0.00000
  108 0.00000 0.00000 0.00000
  109 0.00000 0.00000 0.00000
  110 0.00000 0.00000 0.00000
  111 0.00000 0.00000 0.00000
  112 0.00000 0.00000 0.00000
  113 0.00000 0.00000 0.00000
  114 0.00000 0.00000 0.00000
  115 0.00000 0.00000 0.00000
  116 0.00000 0.00000 0.00000
  117 0.00000 0.00000 0.00000
  118 0.00000 0.00000 0.00000
  119 0.00000 0.00000 0.00000
  120 0.00000 0.00000 0.00000
  121 0.00000 0.00000 0.00000
  122 0.00000 0.00000 0.00000
  123 0.00000 0.00000 0.00000
  124 0.00000 0.00000 0.00000
  125 0.00000 0.00000 0.00000
  126 0.00000 0.00000 0.00000
  127 0.00000 0.00000 0.00000
  128 0.00000 0.00000 0.00000
  129 0.00000 0.00000 0.00000
  130 0.00000 0.00000 0.00000
  131 0.00000 0.00000 0.00000
  132 0.00000 0.00000 0.00000
  133 0.00000 0.00000 0.00000
  134 0.00000 0.00000 0.00000
  135 0.00000 0.00000 0.00000
  136 0.00000 0.00000 0.00000
  137 0.00000 0.00000 0.00000
  138 0.00000 0.00000 0.00000
  139 0.00000 0.00000 0.00000
  140 0.00000 0.00000 0.00000
  141 0.00000 0.00000 0.00000
  142 0.00000 0.00000 0.00000
  143 0.00000 0.00000 0.00000
  144 0.00000 0.00000 0.00000
  145 0.00000 0.00000 0.00000
  146 0.00000 0.00000 0.00000
  147 0.00000 0.00000 0.00000
  148 0.00000 0.00000 0.00000
  149 0.00000 0.00000 0.00000
  150 0.00000 0.00000 0.00000
  151 0.00000 0.00000 0.00000
  152 0.00000 0.00000 0.00000
  153 0.00000 0.00000 0.00000
  154 0.00000 0.00000 0.00000
  155 0.00000 0.00000 0.00000
  156 0.00000 0.00000 0.00000
  157 0.00000 0.00000 0.00000
  158 0.00000 0.00000 0.00000
  159 0.00000 0.00000 0.00000
  160 0.00000 0.00000 0.00000
  161 0.00000 0.00000 0.00000
  162 0.00000 0.00000 0.00000
  163 0.00000 0.00000 0.00000
  164 0.00000 0.00000 0.00000
  165 0.00000 0.00000 0.00000
  166 0.00000 0.00000 0.00000
  167 0.00000 0.00000 0.00000
  168 0.00000 0.00000 0.00000
  169 0.00000 0.00000 0.00000
  170 0.00000 0.00000 0.00000
  171 0.00000 0.00000 0.00000
  172 0.00000 0.00000 0.00000
  173 0.00000 0.00000 0.00000
  174 0.00000 0.00000 0.00000
  175 0.00000 0.00000 0.00000
  176 0.00000 0.00000 0.00000
  177 0.00000 0.00000 0.00000
  178 0.00000 0.00000 0.00000
  179 0.00000 0.00000 0.00000
  180 0.00000 0.00000 0.00000
  181 0.00000 0.00000 0.00000
  182 0.00000 0.00000 0.00000
  183 0.00000 0.00000 0.00000
  184 0.00000 0.00000 0.00000
  185 0.00000 0.00000 0.00000
  186 0.00000 0.00000 0.00000
  187 0.00000 0.00000 0.00000
  188 0.00000 0.00000 0.00000
  189 0.00000 0.00000 0.00000
  190 0.00000 0.00000 0.00000
  191 0.00000 0.00000 0.00000
  192 0.00000 0.00000 0.00000
  193 0.00000 0.00000 0.00000
  194 0.00000 0.00000 0.00000
  195 0.00000 0.00000 0.00000
  196 0.00000 0.00000 0.00000
  197 0.00000 0.00000 0.00000
  198 0.00000 0.00000 0.00000
  199 0.00000 0.00000 0.00000
  200 0.00000 0.00000 0.00000
  201 0.00000 0.00000 0.00000
  202 0.00000 0.00000 0.00000
  203 0.00000 0.00000 0.00000
  204 0.00000 0.00000 0.00000
  205 0.00000 0.00000 0.00000
  206 0.00000 0.00000 0.00000
  207 0.00000 0.00000 0.00000
  208 0.00000 0.00000 0.00000
  209 0.00000 0.00000 0.00000
  210 0.00000 0.00000 0.00000
  211 0.00000 0.00000 0.00000
  212 0.00000 0.00000 0.00000
  213 0.00000 0.00000 0.00000
  214 0.00000 0.00000 0.00000
  215 0.00000 0.00000 0.00000
  216 0.00000 0.00000 0.00000
  217 0.00000 0.00000 0.00000
  218 0.00000 0.00000 0.00000
  219 0.00000 0.00000 0.00000
  220 0.00000 0.00000 0.00000
  221 0.00000 0.00000 0.00000
  222 0.00000 0.00000 0.00000
  223 0.00000 0.00000 0.00000
  224 0.00000 0.00000 0.00000
  225 0.00000 0.00000 0.00000
  226 0.00000 0.00000 0.00000
  227 0.00000 0.00000 0.00000
  228 0.00000 0.00000 0.00000
  229 0.00000 0.00000 0.00000
  230 0.00000 0.00000 0.00000
  231 0.00000 0.00000 0.00000
  232 0.00000 0.00000 0.00000
  233 0.00000 0.00000 0.00000
  234 0.00000 0.00000 0.00000
  235 0.00000 0.00000 0.00000
  236 0.00000 0.00000 0.00000
  237 0.00000 0.00000 0.00000
  238 0.00000 0.00000 0.00000
  239 0.00000 0.00000 0.00000
  240 0.00000 0.00000 0.00000
  241 0.00000 0.00000 0.00000
</Section>

newXOutput 160

<Section columns = "stress_xx | stress_yy | stress_xy">
  1 0.00000 0.00000 0.00000
  2 0.00000 0.00000 0.00000
  3 0.00000 0.00000 0.00000
  4 0.00000 0.00000 0.00000
  5 0.00000 0.00000 0.00000
  6 0.00000 0.00000 0.00000
  7 0.00000 0.00000 0.00000
  8 0.00000 0.00000 0.00000
  9 0.00000 0.00000 0.00000
  10 0.00000 0.00000 0.00000
  11 0.00000 0.00000 0.00000
  12 0.00000 0.00000 0.00000
  13 0.00000 0.00000 0.00000
  14 0.00000 0.00000 0.00000
  15 0.00000 0.00000 0.00000
  16 0.00000 0.00000 0.00000
  17 0.00000 0.00000 0.00000
  18 0.00000 0.00000 0.00000
  19 0.00000 0.00000 0.00000
  20 0.00000 0.00000 0.00000
  21 0.00000 0.00000 0.00000
  22 0.00000 0.00000 0.00000
  23 0.00000 0.00000 0.00000
  24 0.00000 0.00000 0.00000
  25 0.00000 0.00000 0.00000
  26 0.00000 0.00000 0.00000
  27 0.00000 0.00000 0.00000
  28 0.00000 0.00000 0.00000
  29 0.00000 0.00000 0.00000
  30 0.00000 0.00000 0.00000
  31 0.00000 0.00000 0.00000
  32 0.00000 0.00000 0.00000
  33 0.00000 0.00000 0.00000
  34 0.00000 0.00000 0.00000
  35 0.00000 0.00000 0.00000
  36 0.00000 0.00000 0.00000
  37 0.00000 0.00000 0.00000
  38 0.00000 0.00000 0.00000
  39 0.00000 0.00000 0.00000
  40 0.00000 0.00000 0.00000
  41 0.00000 0.00000 0.00000
  42 0.00000 0.00000 0.00000
  43 0.00000 0.00000 0.00000
  44 0.00000 0.00000 0.00000
  45 0.00000 0.00000 0.00000
  46 0.00000 0.00000 0.00000
  47 0.00000 0.00000 0.00000
  48 0.00000 0.00000 0.00000
  49 0.00000 0.00000 0.00000
  50 0.00000 0.00000 0.00000
  51 0.00000 0.00000 0.00000
  52 0.00000 0.00000 0.00000
  53 0.00000 0.00000 0.00000
  54 0.00000 0.00000 0.00000
  55 0.00000 0.00000 0.00000
  56 0.00000 0.00000 0.00000
  57 0.00000 0.00000 0.00000
  58 0.00000 0.00000 0.00000
  59 0.00000 0.00000 0.00000
  60 0.00000 0.00000 0.00000
  61 0.00000 0.00000 0.00000
  62 0.00000 0.00000 0.00000
  63 0.00000 0.00000 0.00000
  64 0.00000 0.00000 0.00000
  65 0.00000 0.00000 0.00000
  66 0.00000 0.00000 0.00000
  67 0.00000 0.00000 0.00000
  68 0.00000 0.00000 0.00000
  69 0.00000 0.00000 0.00000
  70 0.00000 0.00000 0.00000
  71 0.00000 0.00000 0.00000
  72 0.00000 0.00000 0.00000
  73 0.00000 0.00000 0.00000
  74 0.00000 0.00000 0.00000
  75 0.00000 0.00000 0.00000
  76 0.00000 0.00000 0.00000
  77 0.00000 0.00000 0.00000
  78 0.00000 0.00000 0.00000
  79 0.00000 0.00000 0.00000
  80 0.00000 0.00000 0.00000
  81 0.00000 0.00000 0.00000
  82 0.00000 0.00000 0.00000
  83 0.00000 0.00000 0.00000
  84 0.00000 0.00000 0.00000
  85 0.00000 0.00000 0.00000
  86 0.00000 0.00000 0.00000
  87 0.00000 0.00000 0.00000
  88 0.00000 0.00000 0.00000
  89 0.00000 0.00000 0.00000
  90 0.00000 0.00000 0.00000
  91 0.00000 0.00000 0.00000
  92 0.00000 0.00000 0.00000
  93 0.00000 0.00000 0.00000
  94 0.00000 0.00000 0.00000
  95 0.00000 0.00000 0.00000
  96 0.00000 0.00000 0.00000
  97 0.00000 0.00000 0.00000
  98 0.00000 0.00000 0.00000
  99 0.00000 0.00000 0.00000
  100 0.00000 0.00000 0.00000
  101 0.00000 0.00000 0.00000
  102 0.00000 0.00000 0.00000
  103 0.00000 0.00000 0.00000
  104 0.00000 0.00000 0.00000
  105 0.00000 0.00000 0.00000
  106 0.00000 0.00000 0.00000
  107 0.00000 0.00000 0.00000
  108 0.00000 0.00000 0.00000
  109 0.00000 0.00000 0.00000
  110 0.00000 0.00000 0.00000
  111 0.00000 0.00000 0.00000
  112 0.00000 0.00000 0.00000
  113 0.00000 0.00000 0.00000
  114 0.00000 0.00000 0.00000
  115 0.00000 0.00000 0.00000
  116 0.00000 0.00000 0.00000
  117 0.00000 0.00000 0.00000
  118 0.00000 0.00000 0.00000
  119 0.00000 0.00000 0.00000
  120 0.00000 0.00000 0.00000
  121 0.00000 0.00000 0.00000
  122 0.00000 0.00000 0.00000
  123 0.00000 0.00000 0.00000
  124 0.00000 0.00000 0.00000
  125 0.00000 0.00000 0.00000
  126 0.00000 0.00000 0.00000
  127 0.00000 0.00000 0.00000
  128 0.00000 0.00000 0.00000
  129 0.00000 0.00000 0.00000
  130 0.00000 0.00000 0.00000
  131 0.00000 0.00000 0.00000
  132 0.00000 0.00000 0.00000
  133 0.00000 0.00000 0.00000
  134 0.00000 0.00000 0.00000
  135 0.00000 0.00000 0.00000
  136 0.00000 0.00000 0.00000
  137 0.00000 0.00000 0.00000
  138 0.00000 0.00000 0.00000
  139 0.00000 0.00000 0.00000
  140 0.00000 0.00000 0.00000
  141 0.00000 0.00000 0.00000
  142 0.00000 0.00000 0.00000
  143 0.00000 0.00000 0.00000
  144 0.00000 0.00000 0.00000
  145 0.00000 0.00000 0.00000
  146 0.00000 0.00000 0.00000
  147 0.00000 0.00000 0.00000
  148 0.00000 0.00000 0.00000
  149 0.00000 0.00000 0.00000
  150 0.00000 0.00000 0.00000
  151 0.00000 0.00000 0.00000
  152 0.00000 0.00000 0.00000
  153 0.00000 0.00000 0.00000
  154 0.00000 0.00000 0.00000
  155 0.00000 0.00000 0.00000
  156 0.00000 0.00000 0.00000
  157 0.00000 0.00000 0.00000
  158 0.00000 0.00000 0.00000
  159 0.00000 0.00000 0.00000
  160 0.00000 0.00000 0.00000
  161 0.00000 0.00000 0.00000
  162 0.00000 0.00000 0.00000
  163 0.00000 0.00000 0.00000
  164 0.00000 0.00000 0.00000
  165 0.00000 0.00000 0.00000
  166 0.00000 0.00000 0.00000
  167 0.00000 0.00000 0.00000
  168 0.00000 0.00000 0.00000
  169 0.00000 0.00000 0.00000
  170 0.00000 0.00000 0.00000
  171 0.00000 0.00000 0.00000
  172 0.00000 0.00000 0.00000
  173 0.00000 0.00000 0.00000
  174 0.00000 0.00000 0.00000
  175 0.00000 0.00000 0.00000
  176 0.00000 0.00000 0.00000
  177 0.00000 0.00000 0.00000
  178 0.00000 0.00000 0.00000
  179 0.00000 0.00000 0.00000
  180 0.00000 0.00000 0.00000
  181 0.00000 0.00000 0.00000
  182 0.00000 0.00000 0.00000
  183 0.00000 0.00000 0.00000
  184 0.00000 0.00000 0.00000
  185 0.00000 0.00000 0.00000
  186 0.00000 0.00000 0.00000
  187 0.00000 0.00000 0.00000
  188 0.00000 0.00000 0.00000
  189 0.00000 0.00000 0.00000
  190 0.00000 0.00000 0.00000
  191 0.00000 0.00000 0.00000
  192 0.00000 0.00000 0.00000
  193 0.00000 0.00000 0.00000
  194 0.00000 0.00000 0.00000
  195 0.00000 0.00000 0.00000
  196 0.00000 0.00000 0.00000
  197 0.00000 0.00000 0.00000
  198 0.00000 0.00000 0.00000
  199 0.00000 0.00000 0.00000
  200 0.00000 0.00000 0.00000
  201 0.00000 0.00000 0.00000
  202 0.00000 0.00000 0.00000
  203 0.00000 0.00000 0.00000
  204 0.00000 0.00000 0.00000
  205 0.00000 0.00000 0.00000
  206 0.00000 0.00000 0.00000
  207 0.00000 0.00000 0.00000
  208 0.00000 0.00000 0.00000
  209 0.00000 0.00000 0.00000
  210 0.00000 0.00000 0.00000
  211 0.00000 0.00000 0.00000
  212 0.00000 0.00000 0.00000
  213 0.00000 0.00000 0.00000
  214 0.00000 0.00000 0.00000
  215 0.00000 0.00000 0.00000
  216 0.00000 0.00000 0.00000
  217 0.00000 0.00000 0.00000
  218 0.00000 0.00000 0.00000
  219 0.00000 0.00000 0.00000
  220 0.00000 0.00000 0.00000
  221 0.00000 0.00000 0.00000
  222 0.00000 0.00000 0.00000
  223 0.00000 0.00000 0.00000
  224 0.00000 0.00000 0.00000
  225 0.00000 0.00000 0.00000
  226 0.00000 0.00000 0.00000
  227 0.00000 0.00000 0.00000
  228 0.00000 0.00000 0.00000
  229 0.00000 0.00000 0.00000
  230 0.00000 0.00000 0.00000
  231 0.00000 0.00000 0.00000
  232 0.00000 0.00000 0.00000
  233 0.00000 0.00000 0.00000
  234 0.00000 0.00000 0.00000
  235 0.00000 0.00000 0.00000
  236 0.00000 0.00000 0.00000
  237 0.00000 0.00000 0.00000
  238 0.00000 0.00000 0.00000
  239 0.00000 0.00000 0.00000
  240 0.00000 0.00000 0.00000
  241 0.00000 0.00000 0.00000
</Section>

newXOutput 161

<Section columns = "stress_xx | stress_yy | stress_xy">
  1 0.00000 0.00000 0.00000
  2 0.00000 0.00000 0.00000
  3 0.00000 0.00000 0.00000
  4 0.00000 0.00000 0.00000
  5 0.00000 0.00000 0.00000
  6 0.00000 0.00000 0.00000
  7 0.00000 0.00000 0.00000
  8 0.00000 0.00000 0.00000
  9 0.00000 0.00000 0.00000
  10 0.00000 0.00000 0.00000
  11 0.00000 0.00000 0.00000
  12 0.00000 0.00000 0.00000
  13 0.00000 0.00000 0.00000
  14 0.00000 0.00000 0.00000
  15 0.00000 0.00000 0.00000
  16 0.00000 0.00000 0.00000
  17 0.00000 0.00000 0.00000
  18 0.00000 0.00000 0.00000
  19 0.00000 0.00000 0.00000
  20 0.00000 0.00000 0.00000
  21 0.00000 0.00000 0.00000
  22 0.00000 0.00000 0.00000
  23 0.00000 0.00000 0.00000
  24 0.00000 0.00000 0.00000
  25 0.00000 0.00000 0.00000
  26 0.00000 0.00000 0.00000
  27 0.00000 0.00000 0.00000
  28 0.00000 0.00000 0.00000
  29 0.00000 0.00000 0.00000
  30 0.00000 0.00000 0.00000
  31 0.00000 0.00000 0.00000
  32 0.00000 0.00000 0.00000
  33 0.00000 0.00000 0.00000
  34 0.00000 0.00000 0.00000
  35 0.00000 0.00000 0.00000
  36 0.00000 0.00000 0.00000
  37 0.00000 0.00000 0.00000
  38 0.00000 0.00000 0.00000
  39 0.00000 0.00000 0.00000
  40 0.00000 0.00000 0.00000
  41 0.00000 0.00000 0.00000
  42 0.00000 0.00000 0.00000
  43 0.00000 0.00000 0.00000
  44 0.00000 0.00000 0.00000
  45 0.00000 0.00000 0.00000
  46 0.00000 0.00000 0.00000
  47 0.00000 0.00000 0.00000
  48 0.00000 0.00000 0.00000
  49 0.00000 0.00000 0.00000
  50 0.00000 0.00000 0.00000
  51 0.00000 0.00000 0.00000
  52 0.00000 0.00000 0.00000
  53 0.00000 0.00000 0.00000
  54 0.00000 0.00000 0.00000
  55 0.00000 0.00000 0.00000
  56 0.00000 0.00000 0.00000
  57 0.00000 0.00000 0.00000
  58 0.00000 0.00000 0.00000
  59 0.00000 0.00000 0.00000
  60 0.00000 0.00000 0.00000
  61 0.00000 0.00000 0.00000
  62 0.00000 0.00000 0.00000
  63 0.00000 0.00000 0.00000
  64 0.00000 0.00000 0.00000
  65 0.00000 0.00000 0.00000
  66 0.00000 0.00000 0.00000
  67 0.00000 0.00000 0.00000
  68 0.00000 0.00000 0.00000
  69 0.00000 0.00000 0.00000
  70 0.00000 0.00000 0.00000
  71 0.00000 0.00000 0.00000
  72 0.00000 0.00000 0.00000
  73 0.00000 0.00000 0.00000
  74 0.00000 0.00000 0.00000
  75 0.00000 0.00000 0.00000
  76 0.00000 0.00000 0.00000
  77 0.00000 0.00000 0.00000
  78 0.00000 0.00000 0.00000
  79 0.00000 0.00000 0.00000
  80 0.00000 0.00000 0.00000
  81 0.00000 0.00000 0.00000
  82 0.00000 0.00000 0.00000
  83 0.00000 0.00000 0.00000
  84 0.00000 0.00000 0.00000
  85 0.00000 0.00000 0.00000
  86 0.00000 0.00000 0.00000
  87 0.00000 0.00000 0.00000
  88 0.00000 0.00000 0.00000
  89 0.00000 0.00000 0.00000
  90 0.00000 0.00000 0.00000
  91 0.00000 0.00000 0.00000
  92 0.00000 0.00000 0.00000
  93 0.00000 0.00000 0.00000
  94 0.00000 0.00000 0.00000
  95 0.00000 0.00000 0.00000
  96 0.00000 0.00000 0.00000
  97 0.00000 0.00000 0.00000
  98 0.00000 0.00000 0.00000
  99 0.00000 0.00000 0.00000
  100 0.00000 0.00000 0.00000
  101 0.00000 0.00000 0.00000
  102 0.00000 0.00000 0.00000
  103 0.00000 0.00000 0.00000
  104 0.00000 0.00000 0.00000
  105 0.00000 0.00000 0.00000
  106 0.00000 0.00000 0.00000
  107 0.00000 0.00000 0.00000
  108 0.00000 0.00000 0.00000
  109 0.00000 0.00000 0.00000
  110 0.00000 0.00000 0.00000
  111 0.00000 0.00000 0.00000
  112 0.00000 0.00000 0.00000
  113 0.00000 0.00000 0.00000
  114 0.00000 0.00000 0.00000
  115 0.00000 0.00000 0.00000
  116 0.00000 0.00000 0.00000
  117 0.00000 0.00000 0.00000
  118 0.00000 0.00000 0.00000
  119 0.00000 0.00000 0.00000
  120 0.00000 0.00000 0.00000
  121 0.00000 0.00000 0.00000
  122 0.00000 0.00000 0.00000
  123 0.00000 0.00000 0.00000
  124 0.00000 0.00000 0.00000
  125 0.00000 0.00000 0.00000
  126 0.00000 0.00000 0.00000
  127 0.00000 0.00000 0.00000
  128 0.00000 0.00000 0.00000
  129 0.00000 0.00000 0.00000
  130 0.00000 0.00000 0.00000
  131 0.00000 0.00000 0.00000
  132 0.00000 0.00000 0.00000
  133 0.00000 0.00000 0.00000
  134 0.00000 0.00000 0.00000
  135 0.00000 0.00000 0.00000
  136 0.00000 0.00000 0.00000
  137 0.00000 0.00000 0.00000
  138 0.00000 0.00000 0.00000
  139 0.00000 0.00000 0.00000
  140 0.00000 0.00000 0.00000
  141 0.00000 0.00000 0.00000
  142 0.00000 0.00000 0.00000
  143 0.00000 0.00000 0.00000
  144 0.00000 0.00000 0.00000
  145 0.00000 0.00000 0.00000
  146 0.00000 0.00000 0.00000
  147 0.00000 0.00000 0.00000
  148 0.00000 0.00000 0.00000
  149 0.00000 0.00000 0.00000
  150 0.00000 0.00000 0.00000
  151 0.00000 0.00000 0.00000
  152 0.00000 0.00000 0.00000
  153 0.00000 0.00000 0.00000
  154 0.00000 0.00000 0.00000
  155 0.00000 0.00000 0.00000
  156 0.00000 0.00000 0.00000
  157 0.00000 0.00000 0.00000
  158 0.00000 0.00000 0.00000
  159 0.00000 0.00000 0.00000
  160 0.00000 0.00000 0.00000
  161 0.00000 0.00000 0.00000
  162 0.00000 0.00000 0.00000
  163 0.00000 0.00000 0.00000
  164 0.00000 0.00000 0.00000
  165 0.00000 0.00000 0.00000
  166 0.00000 0.00000 0.00000
  167 0.00000 0.00000 0.00000
  168 0.00000 0.00000 0.00000
  169 0.00000 0.00000 0.00000
  170 0.00000 0.00000 0.00000
  171 0.00000 0.00000 0.00000
  172 0.00000 0.00000 0.00000
  173 0.00000 0.00000 0.00000
  174 0.00000 0.00000 0.00000
  175 0.00000 0.00000 0.00000
  176 0.00000 0.00000 0.00000
  177 0.00000 0.00000 0.00000
  178 0.00000 0.00000 0.00000
  179 0.00000 0.00000 0.00000
  180 0.00000 0.00000 0.00000
  181 0.00000 0.00000 0.00000
  182 0.00000 0.00000 0.00000
  183 0.00000 0.00000 0.00000
  184 0.00000 0.00000 0.00000
  185 0.00000 0.00000 0.00000
  186 0.00000 0.00000 0.00000
  187 0.00000 0.00000 0.00000
  188 0.00000 0.00000 0.00000
  189 0.00000 0.00000 0.00000
  190 0.00000 0.00000 0.00000
  191 0.00000 0.00000 0.00000
  192 0.00000 0.00000 0.00000
  193 0.00000 0.00000 0.00000
  194 0.00000 0.00000 0.00000
  195 0.00000 0.00000 0.00000
  196 0.00000 0.00000 0.00000
  197 0.00000 0.00000 0.00000
  198 0.00000 0.00000 0.00000
  199 0.00000 0.00000 0.00000
  200 0.00000 0.00000 0.00000
  201 0.00000 0.00000 0.00000
  202 0.00000 0.00000 0.00000
  203 0.00000 0.00000 0.00000
  204 0.00000 0.00000 0.00000
  205 0.00000 0.00000 0.00000
  206 0.00000 0.00000 0.00000
  207 0.00000 0.00000 0.00000
  208 0.00000 0.00000 0.00000
  209 0.00000 0.00000 0.00000
  210 0.00000 0.00000 0.00000
  211 0.00000 0.00000 0.00000
  212 0.00000 0.00000 0.00000
  213 0.00000 0.00000 0.00000
  214 0.00000 0.00000 0.00000
  215 0.00000 0.00000 0.00000
  216 0.00000 0.00000 0.00000
  217 0.00000 0.00000 0.00000
  218 0.00000 0.00000 0.00000
  219 0.00000 0.00000 0.00000
  220 0.00000 0.00000 0.00000
  221 0.00000 0.00000 0.00000
  222 0.00000 0.00000 0.00000
  223 0.00000 0.00000 0.00000
  224 0.00000 0.00000 0.00000
  225 0.00000 0.00000 0.00000
  226 0.00000 0.00000 0.00000
  227 0.00000 0.00000 0.00000
  228 0.00000 0.00000 0.00000
  229 0.00000 0.00000 0.00000
  230 0.00000 0.00000 0.00000
  231 0.00000 0.00000 0.00000
  232 0.00000 0.00000 0.00000
  233 0.00000 0.00000 0.00000
  234 0.00000 0.00000 0.00000
  235 0.00000 0.00000 0.00000
  236 0.00000 0.00000 0.00000
  237 0.00000 0.00000 0.00000
  238 0.00000 0.00000 0.00000
  239 0.00000 0.00000 0.00000
  240 0.00000 0.00000 0.00000
  241 0.00000 0.00000 0.00000
</Section>

newXOutput 162

<Section columns = "stress_xx | stress_yy | stress_xy">
  1 0.00000 0.00000 0.00000
  2 0.00000 0.00000 0.00000
  3 0.00000 0.00000 0.00000
  4 0.00000 0.00000 0.00000
  5 0.00000 0.00000 0.00000
  6 0.00000 0.00000 0.00000
  7 0.00000 0.00000 0.00000
  8 0.00000 0.00000 0.00000
  9 0.00000 0.00000 0.00000
  10 0.00000 0.00000 0.00000
  11 0.00000 0.00000 0.00000
  12 0.00000 0.00000 0.00000
  13 0.00000 0.00000 0.00000
  14 0.00000 0.00000 0.00000
  15 0.00000 0.00000 0.00000
  16 0.00000 0.00000 0.00000
  17 0.00000 0.00000 0.00000
  18 0.00000 0.00000 0.00000
  19 0.00000 0.00000 0.00000
  20 0.00000 0.00000 0.00000
  21 0.00000 0.00000 0.00000
  22 0.00000 0.00000 0.00000
  23 0.00000 0.00000 0.00000
  24 0.00000 0.00000 0.00000
  25 0.00000 0.00000 0.00000
  26 0.00000 0.00000 0.00000
  27 0.00000 0.00000 0.00000
  28 0.00000 0.00000 0.00000
  29 0.00000 0.00000 0.00000
  30 0.00000 0.00000 0.00000
  31 0.00000 0.00000 0.00000
  32 0.00000 0.00000 0.00000
  33 0.00000 0.00000 0.00000
  34 0.00000 0.00000 0.00000
  35 0.00000 0.00000 0.00000
  36 0.00000 0.00000 0.00000
  37 0.00000 0.00000 0.00000
  38 0.00000 0.00000 0.00000
  39 0.00000 0.00000 0.00000
  40 0.00000 0.00000 0.00000
  41 0.00000 0.00000 0.00000
  42 0.00000 0.00000 0.00000
  43 0.00000 0.00000 0.00000
  44 0.00000 0.00000 0.00000
  45 0.00000 0.00000 0.00000
  46 0.00000 0.00000 0.00000
  47 0.00000 0.00000 0.00000
  48 0.00000 0.00000 0.00000
  49 0.00000 0.00000 0.00000
  50 0.00000 0.00000 0.00000
  51 0.00000 0.00000 0.00000
  52 0.00000 0.00000 0.00000
  53 0.00000 0.00000 0.00000
  54 0.00000 0.00000 0.00000
  55 0.00000 0.00000 0.00000
  56 0.00000 0.00000 0.00000
  57 0.00000 0.00000 0.00000
  58 0.00000 0.00000 0.00000
  59 0.00000 0.00000 0.00000
  60 0.00000 0.00000 0.00000
  61 0.00000 0.00000 0.00000
  62 0.00000 0.00000 0.00000
  63 0.00000 0.00000 0.00000
  64 0.00000 0.00000 0.00000
  65 0.00000 0.00000 0.00000
  66 0.00000 0.00000 0.00000
  67 0.00000 0.00000 0.00000
  68 0.00000 0.00000 0.00000
  69 0.00000 0.00000 0.00000
  70 0.00000 0.00000 0.00000
  71 0.00000 0.00000 0.00000
  72 0.00000 0.00000 0.00000
  73 0.00000 0.00000 0.00000
  74 0.00000 0.00000 0.00000
  75 0.00000 0.00000 0.00000
  76 0.00000 0.00000 0.00000
  77 0.00000 0.00000 0.00000
  78 0.00000 0.00000 0.00000
  79 0.00000 0.00000 0.00000
  80 0.00000 0.00000 0.00000
  81 0.00000 0.00000 0.00000
  82 0.00000 0.00000 0.00000
  83 0.00000 0.00000 0.00000
  84 0.00000 0.00000 0.00000
  85 0.00000 0.00000 0.00000
  86 0.00000 0.00000 0.00000
  87 0.00000 0.00000 0.00000
  88 0.00000 0.00000 0.00000
  89 0.00000 0.00000 0.00000
  90 0.00000 0.00000 0.00000
  91 0.00000 0.00000 0.00000
  92 0.00000 0.00000 0.00000
  93 0.00000 0.00000 0.00000
  94 0.00000 0.00000 0.00000
  95 0.00000 0.00000 0.00000
  96 0.00000 0.00000 0.00000
  97 0.00000 0.00000 0.00000
  98 0.00000 0.00000 0.00000
  99 0.00000 0.00000 0.00000
  100 0.00000 0.00000 0.00000
  101 0.00000 0.00000 0.00000
  102 0.00000 0.00000 0.00000
  103 0.00000 0.00000 0.00000
  104 0.00000 0.00000 0.00000
  105 0.00000 0.00000 0.00000
  106 0.00000 0.00000 0.00000
  107 0.00000 0.00000 0.00000
  108 0.00000 0.00000 0.00000
  109 0.00000 0.00000 0.00000
  110 0.00000 0.00000 0.00000
  111 0.00000 0.00000 0.00000
  112 0.00000 0.00000 0.00000
  113 0.00000 0.00000 0.00000
  114 0.00000 0.00000 0.00000
  115 0.00000 0.00000 0.00000
  116 0.00000 0.00000 0.00000
  117 0.00000 0.00000 0.00000
  118 0.00000 0.00000 0.00000
  119 0.00000 0.00000 0.00000
  120 0.00000 0.00000 0.00000
  121 0.00000 0.00000 0.00000
  122 0.00000 0.00000 0.00000
  123 0.00000 0.00000 0.00000
  124 0.00000 0.00000 0.00000
  125 0.00000 0.00000 0.00000
  126 0.00000 0.00000 0.00000
  127 0.00000 0.00000 0.00000
  128 0.00000 0.00000 0.00000
  129 0.00000 0.00000 0.00000
  130 0.00000 0.00000 0.00000
  131 0.00000 0.00000 0.00000
  132 0.00000 0.00000 0.00000
  133 0.00000 0.00000 0.00000
  134 0.00000 0.00000 0.00000
  135 0.00000 0.00000 0.00000
  136 0.00000 0.00000 0.00000
  137 0.00000 0.00000 0.00000
  138 0.00000 0.00000 0.00000
  139 0.00000 0.00000 0.00000
  140 0.00000 0.00000 0.00000
  141 0.00000 0.00000 0.00000
  142 0.00000 0.00000 0.00000
  143 0.00000 0.00000 0.00000
  144 0.00000 0.00000 0.00000
  145 0.00000 0.00000 0.00000
  146 0.00000 0.00000 0.00000
  147 0.00000 0.00000 0.00000
  148 0.00000 0.00000 0.00000
  149 0.00000 0.00000 0.00000
  150 0.00000 0.00000 0.00000
  151 0.00000 0.00000 0.00000
  152 0.00000 0.00000 0.00000
  153 0.00000 0.00000 0.00000
  154 0.00000 0.00000 0.00000
  155 0.00000 0.00000 0.00000
  156 0.00000 0.00000 0.00000
  157 0.00000 0.00000 0.00000
  158 0.00000 0.00000 0.00000
  159 0.00000 0.00000 0.00000
  160 0.00000 0.00000 0.00000
  161 0.00000 0.00000 0.00000
  162 0.00000 0.00000 0.00000
  163 0.00000 0.00000 0.00000
  164 0.00000 0.00000 0.00000
  165 0.00000 0.00000 0.00000
  166 0.00000 0.00000 0.00000
  167 0.00000 0.00000 0.00000
  168 0.00000 0.00000 0.00000
  169 0.00000 0.00000 0.00000
  170 0.00000 0.00000 0.00000
  171 0.00000 0.00000 0.00000
  172 0.00000 0.00000 0.00000
  173 0.00000 0.00000 0.00000
  174 0.00000 0.00000 0.00000
  175 0.00000 0.00000 0.00000
  176 0.00000 0.00000 0.00000
  177 0.00000 0.00000 0.00000
  178 0.00000 0.00000 0.00000
  179 0.00000 0.00000 0.00000
  180 0.00000 0.00000 0.00000
  181 0.00000 0.00000 0.00000
  182 0.00000 0.00000 0.00000
  183 0.00000 0.00000 0.00000
  184 0.00000 0.00000 0.00000
  185 0.00000 0.00000 0.00000
  186 0.00000 0.00000 0.00000
  187 0.00000 0.00000 0.00000
  188 0.00000 0.00000 0.00000
  189 0.00000 0.00000 0.00000
  190 0.00000 0.00000 0.00000
  191 0.00000 0.00000 0.00000
  192 0.00000 0.00000 0.00000
  193 0.00000 0.00000 0.00000
  194 0.00000 0.00000 0.00000
  195 0.00000 0.00000 0.00000
  196 0.00000 0.00000 0.00000
  197 0.00000 0.00000 0.00000
  198 0.00000 0.00000 0.00000
  199 0.00000 0.00000 0.00000
  200 0.00000 0.00000 0.00000
  201 0.00000 0.00000 0.00000
  202 0.00000 0.00000 0.00000
  203 0.00000 0.00000 0.00000
  204 0.00000 0.00000 0.00000
  205 0.00000 0.00000 0.00000
  206 0.00000 0.00000 0.00000
  207 0.00000 0.00000 0.00000
  208 0.00000 0.00000 0.00000
  209 0.00000 0.00000 0.00000
  210 0.00000 0.00000 0.00000
  211 0.00000 0.00000 0.00000
  212 0.00000 0.00000 0.00000
  213 0.00000 0.00000 0.00000
  214 0.00000 0.00000 0.00000
  215 0.00000 0.00000 0.00000
  216 0.00000 0.00000 0.00000
  217 0.00000 0.00000 0.00000
  218 0.00000 0.00000 0.00000
  219 0.00000 0.00000 0.00000
  220 0.00000 0.00000 0.00000
  221 0.00000 0.00000 0.00000
  222 0.00000 0.00000 0.00000
  223 0.00000 0.00000 0.00000
  224 0.00000 0.00000 0.00000
  225 0.00000 0.00000 0.00000
  226 0.00000 0.00000 0.00000
  227 0.00000 0.00000 0.00000
  228 0.00000 0.00000 0.00000
  229 0.00000 0.00000 0.00000
  230 0.00000 0.00000 0.00000
  231 0.00000 0.00000 0.00000
  232 0.00000 0.00000 0.00000
  233 0.00000 0.00000 0.00000
  234 0.00000 0.00000 0.00000
  235 0.00000 0.00000 0.00000
  236 0.00000 0.00000 0.00000
  237 0.00000 0.00000 0.00000
  238 0.00000 0.00000 0.00000
  239 0.00000 0.00000 0.00000
  240 0.00000 0.00000 0.00000
  241 0.00000 0.00000 0.00000
</Section>

newXOutput 163

<Section columns = "stress_xx | stress_yy | stress_xy">
  1 0.00000 0.00000 0.00000
  2 0.00000 0.00000 0.00000
  3 0.00000 0.00000 0.00000
  4 0.00000 0.00000 0.00000
  5 0.00000 0.00000 0.00000
  6 0.00000 0.00000 0.00000
  7 0.00000 0.00000 0.00000
  8 0.00000 0.00000 0.00000
  9 0.00000 0.00000 0.00000
  10 0.00000 0.00000 0.00000
  11 0.00000 0.00000 0.00000
  12 0.00000 0.00000 0.00000
  13 0.00000 0.00000 0.00000
  14 0.00000 0.00000 0.00000
  15 0.00000 0.00000 0.00000
  16 0.00000 0.00000 0.00000
  17 0.00000 0.00000 0.00000
  18 0.00000 0.00000 0.00000
  19 0.00000 0.00000 0.00000
  20 0.00000 0.00000 0.00000
  21 0.00000 0.00000 0.00000
  22 0.00000 0.00000 0.00000
  23 0.00000 0.00000 0.00000
  24 0.00000 0.00000 0.00000
  25 0.00000 0.00000 0.00000
  26 0.00000 0.00000 0.00000
  27 0.00000 0.00000 0.00000
  28 0.00000 0.00000 0.00000
  29 0.00000 0.00000 0.00000
  30 0.00000 0.00000 0.00000
  31 0.00000 0.00000 0.00000
  32 0.00000 0.00000 0.00000
  33 0.00000 0.00000 0.00000
  34 0.00000 0.00000 0.00000
  35 0.00000 0.00000 0.00000
  36 0.00000 0.00000 0.00000
  37 0.00000 0.00000 0.00000
  38 0.00000 0.00000 0.00000
  39 0.00000 0.00000 0.00000
  40 0.00000 0.00000 0.00000
  41 0.00000 0.00000 0.00000
  42 0.00000 0.00000 0.00000
  43 0.00000 0.00000 0.00000
  44 0.00000 0.00000 0.00000
  45 0.00000 0.00000 0.00000
  46 0.00000 0.00000 0.00000
  47 0.00000 0.00000 0.00000
  48 0.00000 0.00000 0.00000
  49 0.00000 0.00000 0.00000
  50 0.00000 0.00000 0.00000
  51 0.00000 0.00000 0.00000
  52 0.00000 0.00000 0.00000
  53 0.00000 0.00000 0.00000
  54 0.00000 0.00000 0.00000
  55 0.00000 0.00000 0.00000
  56 0.00000 0.00000 0.00000
  57 0.00000 0.00000 0.00000
  58 0.00000 0.00000 0.00000
  59 0.00000 0.00000 0.00000
  60 0.00000 0.00000 0.00000
  61 0.00000 0.00000 0.00000
  62 0.00000 0.00000 0.00000
  63 0.00000 0.00000 0.00000
  64 0.00000 0.00000 0.00000
  65 0.00000 0.00000 0.00000
  66 0.00000 0.00000 0.00000
  67 0.00000 0.00000 0.00000
  68 0.00000 0.00000 0.00000
  69 0.00000 0.00000 0.00000
  70 0.00000 0.00000 0.00000
  71 0.00000 0.00000 0.00000
  72 0.00000 0.00000 0.00000
  73 0.00000 0.00000 0.00000
  74 0.00000 0.00000 0.00000
  75 0.00000 0.00000 0.00000
  76 0.00000 0.00000 0.00000
  77 0.00000 0.00000 0.00000
  78 0.00000 0.00000 0.00000
  79 0.00000 0.00000 0.00000
  80 0.00000 0.00000 0.00000
  81 0.00000 0.00000 0.00000
  82 0.00000 0.00000 0.00000
  83 0.00000 0.00000 0.00000
  84 0.00000 0.00000 0.00000
  85 0.00000 0.00000 0.00000
  86 0.00000 0.00000 0.00000
  87 0.00000 0.00000 0.00000
  88 0.00000 0.00000 0.00000
  89 0.00000 0.00000 0.00000
  90 0.00000 0.00000 0.00000
  91 0.00000 0.00000 0.00000
  92 0.00000 0.00000 0.00000
  93 0.00000 0.00000 0.00000
  94 0.00000 0.00000 0.00000
  95 0.00000 0.00000 0.00000
  96 0.00000 0.00000 0.00000
  97 0.00000 0.00000 0.00000
  98 0.00000 0.00000 0.00000
  99 0.00000 0.00000 0.00000
  100 0.00000 0.00000 0.00000
  101 0.00000 0.00000 0.00000
  102 0.00000 0.00000 0.00000
  103 0.00000 0.00000 0.00000
  104 0.00000 0.00000 0.00000
  105 0.00000 0.00000 0.00000
  106 0.00000 0.00000 0.00000
  107 0.00000 0.00000 0.00000
  108 0.00000 0.00000 0.00000
  109 0.00000 0.00000 0.00000
  110 0.00000 0.00000 0.00000
  111 0.00000 0.00000 0.00000
  112 0.00000 0.00000 0.00000
  113 0.00000 0.00000 0.00000
  114 0.00000 0.00000 0.00000
  115 0.00000 0.00000 0.00000
  116 0.00000 0.00000 0.00000
  117 0.00000 0.00000 0.00000
  118 0.00000 0.00000 0.00000
  119 0.00000 0.00000 0.00000
  120 0.00000 0.00000 0.00000
  121 0.00000 0.00000 0.00000
  122 0.00000 0.00000 0.00000
  123 0.00000 0.00000 0.00000
  124 0.00000 0.00000 0.00000
  125 0.00000 0.00000 0.00000
  126 0.00000 0.00000 0.00000
  127 0.00000 0.00000 0.00000
  128 0.00000 0.00000 0.00000
  129 0.00000 0.00000 0.00000
  130 0.00000 0.00000 0.00000
  131 0.00000 0.00000 0.00000
  132 0.00000 0.00000 0.00000
  133 0.00000 0.00000 0.00000
  134 0.00000 0.00000 0.00000
  135 0.00000 0.00000 0.00000
  136 0.00000 0.00000 0.00000
  137 0.00000 0.00000 0.00000
  138 0.00000 0.00000 0.00000
  139 0.00000 0.00000 0.00000
  140 0.00000 0.00000 0.00000
  141 0.00000 0.00000 0.00000
  142 0.00000 0.00000 0.00000
  143 0.00000 0.00000 0.00000
  144 0.00000 0.00000 0.00000
  145 0.00000 0.00000 0.00000
  146 0.00000 0.00000 0.00000
  147 0.00000 0.00000 0.00000
  148 0.00000 0.00000 0.00000
  149 0.00000 0.00000 0.00000
  150 0.00000 0.00000 0.00000
  151 0.00000 0.00000 0.00000
  152 0.00000 0.00000 0.00000
  153 0.00000 0.00000 0.00000
  154 0.00000 0.00000 0.00000
  155 0.00000 0.00000 0.00000
  156 0.00000 0.00000 0.00000
  157 0.00000 0.00000 0.00000
  158 0.00000 0.00000 0.00000
  159 0.00000 0.00000 0.00000
  160 0.00000 0.00000 0.00000
  161 0.00000 0.00000 0.00000
  162 0.00000 0.00000 0.00000
  163 0.00000 0.00000 0.00000
  164 0.00000 0.00000 0.00000
  165 0.00000 0.00000 0.00000
  166 0.00000 0.00000 0.00000
  167 0.00000 0.00000 0.00000
  168 0.00000 0.00000 0.00000
  169 0.00000 0.00000 0.00000
  170 0.00000 0.00000 0.00000
  171 0.00000 0.00000 0.00000
  172 0.00000 0.00000 0.00000
  173 0.00000 0.00000 0.00000
  174 0.00000 0.00000 0.00000
  175 0.00000 0.00000 0.00000
  176 0.00000 0.00000 0.00000
  177 0.00000 0.00000 0.00000
  178 0.00000 0.00000 0.00000
  179 0.00000 0.00000 0.00000
  180 0.00000 0.00000 0.00000
  181 0.00000 0.00000 0.00000
  182 0.00000 0.00000 0.00000
  183 0.00000 0.00000 0.00000
  184 0.00000 0.00000 0.00000
  185 0.00000 0.00000 0.00000
  186 0.00000 0.00000 0.00000
  187 0.00000 0.00000 0.00000
  188 0.00000 0.00000 0.00000
  189 0.00000 0.00000 0.00000
  190 0.00000 0.00000 0.00000
  191 0.00000 0.00000 0.00000
  192 0.00000 0.00000 0.00000
  193 0.00000 0.00000 0.00000
  194 0.00000 0.00000 0.00000
  195 0.00000 0.00000 0.00000
  196 0.00000 0.00000 0.00000
  197 0.00000 0.00000 0.00000
  198 0.00000 0.00000 0.00000
  199 0.00000 0.00000 0.00000
  200 0.00000 0.00000 0.00000
  201 0.00000 0.00000 0.00000
  202 0.00000 0.00000 0.00000
  203 0.00000 0.00000 0.00000
  204 0.00000 0.00000 0.00000
  205 0.00000 0.00000 0.00000
  206 0.00000 0.00000 0.00000
  207 0.00000 0.00000 0.00000
  208 0.00000 0.00000 0.00000
  209 0.00000 0.00000 0.00000
  210 0.00000 0.00000 0.00000
  211 0.00000 0.00000 0.00000
  212 0.00000 0.00000 0.00000
  213 0.00000 0.00000 0.00000
  214 0.00000 0.00000 0.00000
  215 0.00000 0.00000 0.00000
  216 0.00000 0.00000 0.00000
  217 0.00000 0.00000 0.00000
  218 0.00000 0.00000 0.00000
  219 0.00000 0.00000 0.00000
  220 0.00000 0.00000 0.00000
  221 0.00000 0.00000 0.00000
  222 0.00000 0.00000 0.00000
  223 0.00000 0.00000 0.00000
  224 0.00000 0.00000 0.00000
  225 0.00000 0.00000 0.00000
  226 0.00000 0.00000 0.00000
  227 0.00000 0.00000 0.00000
  228 0.00000 0.00000 0.00000
  229 0.00000 0.00000 0.00000
  230 0.00000 0.00000 0.00000
  231 0.00000 0.00000 0.00000
  232 0.00000 0.00000 0.00000
  233 0.00000 0.00000 0.00000
  234 0.00000 0.00000 0.00000
  235 0.00000 0.00000 0.00000
  236 0.00000 0.00000 0.00000
  237 0.00000 0.00000 0.00000
  238 0.00000 0.00000 0.00000
  239 0.00000 0.00000 0.00000
  240 0.00000 0.00000 0.00000
  241 0.00000 0.00000 0.00000
</Section>

newXOutput 164

<Section columns = "stress_xx | stress_yy | stress_xy">
  1 0.00000 0.00000 0.00000
  2 0.00000 0.00000 0.00000
  3 0.00000 0.00000 0.00000
  4 0.00000 0.00000 0.00000
  5 0.00000 0.00000 0.00000
  6 0.00000 0.00000 0.00000
  7 0.00000 0.00000 0.00000
  8 0.00000 0.00000 0.00000
  9 0.00000 0.00000 0.00000
  10 0.00000 0.00000 0.00000
  11 0.00000 0.00000 0.00000
  12 0.00000 0.00000 0.00000
  13 0.00000 0.00000 0.00000
  14 0.00000 0.00000 0.00000
  15 0.00000 0.00000 0.00000
  16 0.00000 0.00000 0.00000
  17 0.00000 0.00000 0.00000
  18 0.00000 0.00000 0.00000
  19 0.00000 0.00000 0.00000
  20 0.00000 0.00000 0.00000
  21 0.00000 0.00000 0.00000
  22 0.00000 0.00000 0.00000
  23 0.00000 0.00000 0.00000
  24 0.00000 0.00000 0.00000
  25 0.00000 0.00000 0.00000
  26 0.00000 0.00000 0.00000
  27 0.00000 0.00000 0.00000
  28 0.00000 0.00000 0.00000
  29 0.00000 0.00000 0.00000
  30 0.00000 0.00000 0.00000
  31 0.00000 0.00000 0.00000
  32 0.00000 0.00000 0.00000
  33 0.00000 0.00000 0.00000
  34 0.00000 0.00000 0.00000
  35 0.00000 0.00000 0.00000
  36 0.00000 0.00000 0.00000
  37 0.00000 0.00000 0.00000
  38 0.00000 0.00000 0.00000
  39 0.00000 0.00000 0.00000
  40 0.00000 0.00000 0.00000
  41 0.00000 0.00000 0.00000
  42 0.00000 0.00000 0.00000
  43 0.00000 0.00000 0.00000
  44 0.00000 0.00000 0.00000
  45 0.00000 0.00000 0.00000
  46 0.00000 0.00000 0.00000
  47 0.00000 0.00000 0.00000
  48 0.00000 0.00000 0.00000
  49 0.00000 0.00000 0.00000
  50 0.00000 0.00000 0.00000
  51 0.00000 0.00000 0.00000
  52 0.00000 0.00000 0.00000
  53 0.00000 0.00000 0.00000
  54 0.00000 0.00000 0.00000
  55 0.00000 0.00000 0.00000
  56 0.00000 0.00000 0.00000
  57 0.00000 0.00000 0.00000
  58 0.00000 0.00000 0.00000
  59 0.00000 0.00000 0.00000
  60 0.00000 0.00000 0.00000
  61 0.00000 0.00000 0.00000
  62 0.00000 0.00000 0.00000
  63 0.00000 0.00000 0.00000
  64 0.00000 0.00000 0.00000
  65 0.00000 0.00000 0.00000
  66 0.00000 0.00000 0.00000
  67 0.00000 0.00000 0.00000
  68 0.00000 0.00000 0.00000
  69 0.00000 0.00000 0.00000
  70 0.00000 0.00000 0.00000
  71 0.00000 0.00000 0.00000
  72 0.00000 0.00000 0.00000
  73 0.00000 0.00000 0.00000
  74 0.00000 0.00000 0.00000
  75 0.00000 0.00000 0.00000
  76 0.00000 0.00000 0.00000
  77 0.00000 0.00000 0.00000
  78 0.00000 0.00000 0.00000
  79 0.00000 0.00000 0.00000
  80 0.00000 0.00000 0.00000
  81 0.00000 0.00000 0.00000
  82 0.00000 0.00000 0.00000
  83 0.00000 0.00000 0.00000
  84 0.00000 0.00000 0.00000
  85 0.00000 0.00000 0.00000
  86 0.00000 0.00000 0.00000
  87 0.00000 0.00000 0.00000
  88 0.00000 0.00000 0.00000
  89 0.00000 0.00000 0.00000
  90 0.00000 0.00000 0.00000
  91 0.00000 0.00000 0.00000
  92 0.00000 0.00000 0.00000
  93 0.00000 0.00000 0.00000
  94 0.00000 0.00000 0.00000
  95 0.00000 0.00000 0.00000
  96 0.00000 0.00000 0.00000
  97 0.00000 0.00000 0.00000
  98 0.00000 0.00000 0.00000
  99 0.00000 0.00000 0.00000
  100 0.00000 0.00000 0.00000
  101 0.00000 0.00000 0.00000
  102 0.00000 0.00000 0.00000
  103 0.00000 0.00000 0.00000
  104 0.00000 0.00000 0.00000
  105 0.00000 0.00000 0.00000
  106 0.00000 0.00000 0.00000
  107 0.00000 0.00000 0.00000
  108 0.00000 0.00000 0.00000
  109 0.00000 0.00000 0.00000
  110 0.00000 0.00000 0.00000
  111 0.00000 0.00000 0.00000
  112 0.00000 0.00000 0.00000
  113 0.00000 0.00000 0.00000
  114 0.00000 0.00000 0.00000
  115 0.00000 0.00000 0.00000
  116 0.00000 0.00000 0.00000
  117 0.00000 0.00000 0.00000
  118 0.00000 0.00000 0.00000
  119 0.00000 0.00000 0.00000
  120 0.00000 0.00000 0.00000
  121 0.00000 0.00000 0.00000
  122 0.00000 0.00000 0.00000
  123 0.00000 0.00000 0.00000
  124 0.00000 0.00000 0.00000
  125 0.00000 0.00000 0.00000
  126 0.00000 0.00000 0.00000
  127 0.00000 0.00000 0.00000
  128 0.00000 0.00000 0.00000
  129 0.00000 0.00000 0.00000
  130 0.00000 0.00000 0.00000
  131 0.00000 0.00000 0.00000
  132 0.00000 0.00000 0.00000
  133 0.00000 0.00000 0.00000
  134 0.00000 0.00000 0.00000
  135 0.00000 0.00000 0.00000
  136 0.00000 0.00000 0.00000
  137 0.00000 0.00000 0.00000
  138 0.00000 0.00000 0.00000
  139 0.00000 0.00000 0.00000
  140 0.00000 0.00000 0.00000
  141 0.00000 0.00000 0.00000
  142 0.00000 0.00000 0.00000
  143 0.00000 0.00000 0.00000
  144 0.00000 0.00000 0.00000
  145 0.00000 0.00000 0.00000
  146 0.00000 0.00000 0.00000
  147 0.00000 0.00000 0.00000
  148 0.00000 0.00000 0.00000
  149 0.00000 0.00000 0.00000
  150 0.00000 0.00000 0.00000
  151 0.00000 0.00000 0.00000
  152 0.00000 0.00000 0.00000
  153 0.00000 0.00000 0.00000
  154 0.00000 0.00000 0.00000
  155 0.00000 0.00000 0.00000
  156 0.00000 0.00000 0.00000
  157 0.00000 0.00000 0.00000
  158 0.00000 0.00000 0.00000
  159 0.00000 0.00000 0.00000
  160 0.00000 0.00000 0.00000
  161 0.00000 0.00000 0.00000
  162 0.00000 0.00000 0.00000
  163 0.00000 0.00000 0.00000
  164 0.00000 0.00000 0.00000
  165 0.00000 0.00000 0.00000
  166 0.00000 0.00000 0.00000
  167 0.00000 0.00000 0.00000
  168 0.00000 0.00000 0.00000
  169 0.00000 0.00000 0.00000
  170 0.00000 0.00000 0.00000
  171 0.00000 0.00000 0.00000
  172 0.00000 0.00000 0.00000
  173 0.00000 0.00000 0.00000
  174 0.00000 0.00000 0.00000
  175 0.00000 0.00000 0.00000
  176 0.00000 0.00000 0.00000
  177 0.00000 0.00000 0.00000
  178 0.00000 0.00000 0.00000
  179 0.00000 0.00000 0.00000
  180 0.00000 0.00000 0.00000
  181 0.00000 0.00000 0.00000
  182 0.00000 0.00000 0.00000
  183 0.00000 0.00000 0.00000
  184 0.00000 0.00000 0.00000
  185 0.00000 0.00000 0.00000
  186 0.00000 0.00000 0.00000
  187 0.00000 0.00000 0.00000
  188 0.00000 0.00000 0.00000
  189 0.00000 0.00000 0.00000
  190 0.00000 0.00000 0.00000
  191 0.00000 0.00000 0.00000
  192 0.00000 0.00000 0.00000
  193 0.00000 0.00000 0.00000
  194 0.00000 0.00000 0.00000
  195 0.00000 0.00000 0.00000
  196 0.00000 0.00000 0.00000
  197 0.00000 0.00000 0.00000
  198 0.00000 0.00000 0.00000
  199 0.00000 0.00000 0.00000
  200 0.00000 0.00000 0.00000
  201 0.00000 0.00000 0.00000
  202 0.00000 0.00000 0.00000
  203 0.00000 0.00000 0.00000
  204 0.00000 0.00000 0.00000
  205 0.00000 0.00000 0.00000
  206 0.00000 0.00000 0.00000
  207 0.00000 0.00000 0.00000
  208 0.00000 0.00000 0.00000
  209 0.00000 0.00000 0.00000
  210 0.00000 0.00000 0.00000
  211 0.00000 0.00000 0.00000
  212 0.00000 0.00000 0.00000
  213 0.00000 0.00000 0.00000
  214 0.00000 0.00000 0.00000
  215 0.00000 0.00000 0.00000
  216 0.00000 0.00000 0.00000
  217 0.00000 0.00000 0.00000
  218 0.00000 0.00000 0.00000
  219 0.00000 0.00000 0.00000
  220 0.00000 0.00000 0.00000
  221 0.00000 0.00000 0.00000
  222 0.00000 0.00000 0.00000
  223 0.00000 0.00000 0.00000
  224 0.00000 0.00000 0.00000
  225 0.00000 0.00000 0.00000
  226 0.00000 0.00000 0.00000
  227 0.00000 0.00000 0.00000
  228 0.00000 0.00000 0.00000
  229 0.00000 0.00000 0.00000
  230 0.00000 0.00000 0.00000
  231 0.00000 0.00000 0.00000
  232 0.00000 0.00000 0.00000
  233 0.00000 0.00000 0.00000
  234 0.00000 0.00000 0.00000
  235 0.00000 0.00000 0.00000
  236 0.00000 0.00000 0.00000
  237 0.00000 0.00000 0.00000
  238 0.00000 0.00000 0.00000
  239 0.00000 0.00000 0.00000
  240 0.00000 0.00000 0.00000
  241 0.00000 0.00000 0.00000
</Section>

newXOutput 165

<Section columns = "stress_xx | stress_yy | stress_xy">
  1 0.00000 0.00000 0.00000
  2 0.00000 0.00000 0.00000
  3 0.00000 0.00000 0.00000
  4 0.00000 0.00000 0.00000
  5 0.00000 0.00000 0.00000
  6 0.00000 0.00000 0.00000
  7 0.00000 0.00000 0.00000
  8 0.00000 0.00000 0.00000
  9 0.00000 0.00000 0.00000
  10 0.00000 0.00000 0.00000
  11 0.00000 0.00000 0.00000
  12 0.00000 0.00000 0.00000
  13 0.00000 0.00000 0.00000
  14 0.00000 0.00000 0.00000
  15 0.00000 0.00000 0.00000
  16 0.00000 0.00000 0.00000
  17 0.00000 0.00000 0.00000
  18 0.00000 0.00000 0.00000
  19 0.00000 0.00000 0.00000
  20 0.00000 0.00000 0.00000
  21 0.00000 0.00000 0.00000
  22 0.00000 0.00000 0.00000
  23 0.00000 0.00000 0.00000
  24 0.00000 0.00000 0.00000
  25 0.00000 0.00000 0.00000
  26 0.00000 0.00000 0.00000
  27 0.00000 0.00000 0.00000
  28 0.00000 0.00000 0.00000
  29 0.00000 0.00000 0.00000
  30 0.00000 0.00000 0.00000
  31 0.00000 0.00000 0.00000
  32 0.00000 0.00000 0.00000
  33 0.00000 0.00000 0.00000
  34 0.00000 0.00000 0.00000
  35 0.00000 0.00000 0.00000
  36 0.00000 0.00000 0.00000
  37 0.00000 0.00000 0.00000
  38 0.00000 0.00000 0.00000
  39 0.00000 0.00000 0.00000
  40 0.00000 0.00000 0.00000
  41 0.00000 0.00000 0.00000
  42 0.00000 0.00000 0.00000
  43 0.00000 0.00000 0.00000
  44 0.00000 0.00000 0.00000
  45 0.00000 0.00000 0.00000
  46 0.00000 0.00000 0.00000
  47 0.00000 0.00000 0.00000
  48 0.00000 0.00000 0.00000
  49 0.00000 0.00000 0.00000
  50 0.00000 0.00000 0.00000
  51 0.00000 0.00000 0.00000
  52 0.00000 0.00000 0.00000
  53 0.00000 0.00000 0.00000
  54 0.00000 0.00000 0.00000
  55 0.00000 0.00000 0.00000
  56 0.00000 0.00000 0.00000
  57 0.00000 0.00000 0.00000
  58 0.00000 0.00000 0.00000
  59 0.00000 0.00000 0.00000
  60 0.00000 0.00000 0.00000
  61 0.00000 0.00000 0.00000
  62 0.00000 0.00000 0.00000
  63 0.00000 0.00000 0.00000
  64 0.00000 0.00000 0.00000
  65 0.00000 0.00000 0.00000
  66 0.00000 0.00000 0.00000
  67 0.00000 0.00000 0.00000
  68 0.00000 0.00000 0.00000
  69 0.00000 0.00000 0.00000
  70 0.00000 0.00000 0.00000
  71 0.00000 0.00000 0.00000
  72 0.00000 0.00000 0.00000
  73 0.00000 0.00000 0.00000
  74 0.00000 0.00000 0.00000
  75 0.00000 0.00000 0.00000
  76 0.00000 0.00000 0.00000
  77 0.00000 0.00000 0.00000
  78 0.00000 0.00000 0.00000
  79 0.00000 0.00000 0.00000
  80 0.00000 0.00000 0.00000
  81 0.00000 0.00000 0.00000
  82 0.00000 0.00000 0.00000
  83 0.00000 0.00000 0.00000
  84 0.00000 0.00000 0.00000
  85 0.00000 0.00000 0.00000
  86 0.00000 0.00000 0.00000
  87 0.00000 0.00000 0.00000
  88 0.00000 0.00000 0.00000
  89 0.00000 0.00000 0.00000
  90 0.00000 0.00000 0.00000
  91 0.00000 0.00000 0.00000
  92 0.00000 0.00000 0.00000
  93 0.00000 0.00000 0.00000
  94 0.00000 0.00000 0.00000
  95 0.00000 0.00000 0.00000
  96 0.00000 0.00000 0.00000
  97 0.00000 0.00000 0.00000
  98 0.00000 0.00000 0.00000
  99 0.00000 0.00000 0.00000
  100 0.00000 0.00000 0.00000
  101 0.00000 0.00000 0.00000
  102 0.00000 0.00000 0.00000
  103 0.00000 0.00000 0.00000
  104 0.00000 0.00000 0.00000
  105 0.00000 0.00000 0.00000
  106 0.00000 0.00000 0.00000
  107 0.00000 0.00000 0.00000
  108 0.00000 0.00000 0.00000
  109 0.00000 0.00000 0.00000
  110 0.00000 0.00000 0.00000
  111 0.00000 0.00000 0.00000
  112 0.00000 0.00000 0.00000
  113 0.00000 0.00000 0.00000
  114 0.00000 0.00000 0.00000
  115 0.00000 0.00000 0.00000
  116 0.00000 0.00000 0.00000
  117 0.00000 0.00000 0.00000
  118 0.00000 0.00000 0.00000
  119 0.00000 0.00000 0.00000
  120 0.00000 0.00000 0.00000
  121 0.00000 0.00000 0.00000
  122 0.00000 0.00000 0.00000
  123 0.00000 0.00000 0.00000
  124 0.00000 0.00000 0.00000
  125 0.00000 0.00000 0.00000
  126 0.00000 0.00000 0.00000
  127 0.00000 0.00000 0.00000
  128 0.00000 0.00000 0.00000
  129 0.00000 0.00000 0.00000
  130 0.00000 0.00000 0.00000
  131 0.00000 0.00000 0.00000
  132 0.00000 0.00000 0.00000
  133 0.00000 0.00000 0.00000
  134 0.00000 0.00000 0.00000
  135 0.00000 0.00000 0.00000
  136 0.00000 0.00000 0.00000
  137 0.00000 0.00000 0.00000
  138 0.00000 0.00000 0.00000
  139 0.00000 0.00000 0.00000
  140 0.00000 0.00000 0.00000
  141 0.00000 0.00000 0.00000
  142 0.00000 0.00000 0.00000
  143 0.00000 0.00000 0.00000
  144 0.00000 0.00000 0.00000
  145 0.00000 0.00000 0.00000
  146 0.00000 0.00000 0.00000
  147 0.00000 0.00000 0.00000
  148 0.00000 0.00000 0.00000
  149 0.00000 0.00000 0.00000
  150 0.00000 0.00000 0.00000
  151 0.00000 0.00000 0.00000
  152 0.00000 0.00000 0.00000
  153 0.00000 0.00000 0.00000
  154 0.00000 0.00000 0.00000
  155 0.00000 0.00000 0.00000
  156 0.00000 0.00000 0.00000
  157 0.00000 0.00000 0.00000
  158 0.00000 0.00000 0.00000
  159 0.00000 0.00000 0.00000
  160 0.00000 0.00000 0.00000
  161 0.00000 0.00000 0.00000
  162 0.00000 0.00000 0.00000
  163 0.00000 0.00000 0.00000
  164 0.00000 0.00000 0.00000
  165 0.00000 0.00000 0.00000
  166 0.00000 0.00000 0.00000
  167 0.00000 0.00000 0.00000
  168 0.00000 0.00000 0.00000
  169 0.00000 0.00000 0.00000
  170 0.00000 0.00000 0.00000
  171 0.00000 0.00000 0.00000
  172 0.00000 0.00000 0.00000
  173 0.00000 0.00000 0.00000
  174 0.00000 0.00000 0.00000
  175 0.00000 0.00000 0.00000
  176 0.00000 0.00000 0.00000
  177 0.00000 0.00000 0.00000
  178 0.00000 0.00000 0.00000
  179 0.00000 0.00000 0.00000
  180 0.00000 0.00000 0.00000
  181 0.00000 0.00000 0.00000
  182 0.00000 0.00000 0.00000
  183 0.00000 0.00000 0.00000
  184 0.00000 0.00000 0.00000
  185 0.00000 0.00000 0.00000
  186 0.00000 0.00000 0.00000
  187 0.00000 0.00000 0.00000
  188 0.00000 0.00000 0.00000
  189 0.00000 0.00000 0.00000
  190 0.00000 0.00000 0.00000
  191 0.00000 0.00000 0.00000
  192 0.00000 0.00000 0.00000
  193 0.00000 0.00000 0.00000
  194 0.00000 0.00000 0.00000
  195 0.00000 0.00000 0.00000
  196 0.00000 0.00000 0.00000
  197 0.00000 0.00000 0.00000
  198 0.00000 0.00000 0.00000
  199 0.00000 0.00000 0.00000
  200 0.00000 0.00000 0.00000
  201 0.00000 0.00000 0.00000
  202 0.00000 0.00000 0.00000
  203 0.00000 0.00000 0.00000
  204 0.00000 0.00000 0.00000
  205 0.00000 0.00000 0.00000
  206 0.00000 0.00000 0.00000
  207 0.00000 0.00000 0.00000
  208 0.00000 0.00000 0.00000
  209 0.00000 0.00000 0.00000
  210 0.00000 0.00000 0.00000
  211 0.00000 0.00000 0.00000
  212 0.00000 0.00000 0.00000
  213 0.00000 0.00000 0.00000
  214 0.00000 0.00000 0.00000
  215 0.00000 0.00000 0.00000
  216 0.00000 0.00000 0.00000
  217 0.00000 0.00000 0.00000
  218 0.00000 0.00000 0.00000
  219 0.00000 0.00000 0.00000
  220 0.00000 0.00000 0.00000
  221 0.00000 0.00000 0.00000
  222 0.00000 0.00000 0.00000
  223 0.00000 0.00000 0.00000
  224 0.00000 0.00000 0.00000
  225 0.00000 0.00000 0.00000
  226 0.00000 0.00000 0.00000
  227 0.00000 0.00000 0.00000
  228 0.00000 0.00000 0.00000
  229 0.00000 0.00000 0.00000
  230 0.00000 0.00000 0.00000
  231 0.00000 0.00000 0.00000
  232 0.00000 0.00000 0.00000
  233 0.00000 0.00000 0.00000
  234 0.00000 0.00000 0.00000
  235 0.00000 0.00000 0.00000
  236 0.00000 0.00000 0.00000
  237 0.00000 0.00000 0.00000
  238 0.00000 0.00000 0.00000
  239 0.00000 0.00000 0.00000
  240 0.00000 0.00000 0.00000
  241 0.00000 0.00000 0.00000
</Section>

newXOutput 166

<Section columns = "stress_xx | stress_yy | stress_xy">
  1 0.00000 0.00000 0.00000
  2 0.00000 0.00000 0.00000
  3 0.00000 0.00000 0.00000
  4 0.00000 0.00000 0.00000
  5 0.00000 0.00000 0.00000
  6 0.00000 0.00000 0.00000
  7 0.00000 0.00000 0.00000
  8 0.00000 0.00000 0.00000
  9 0.00000 0.00000 0.00000
  10 0.00000 0.00000 0.00000
  11 0.00000 0.00000 0.00000
  12 0.00000 0.00000 0.00000
  13 0.00000 0.00000 0.00000
  14 0.00000 0.00000 0.00000
  15 0.00000 0.00000 0.00000
  16 0.00000 0.00000 0.00000
  17 0.00000 0.00000 0.00000
  18 0.00000 0.00000 0.00000
  19 0.00000 0.00000 0.00000
  20 0.00000 0.00000 0.00000
  21 0.00000 0.00000 0.00000
  22 0.00000 0.00000 0.00000
  23 0.00000 0.00000 0.00000
  24 0.00000 0.00000 0.00000
  25 0.00000 0.00000 0.00000
  26 0.00000 0.00000 0.00000
  27 0.00000 0.00000 0.00000
  28 0.00000 0.00000 0.00000
  29 0.00000 0.00000 0.00000
  30 0.00000 0.00000 0.00000
  31 0.00000 0.00000 0.00000
  32 0.00000 0.00000 0.00000
  33 0.00000 0.00000 0.00000
  34 0.00000 0.00000 0.00000
  35 0.00000 0.00000 0.00000
  36 0.00000 0.00000 0.00000
  37 0.00000 0.00000 0.00000
  38 0.00000 0.00000 0.00000
  39 0.00000 0.00000 0.00000
  40 0.00000 0.00000 0.00000
  41 0.00000 0.00000 0.00000
  42 0.00000 0.00000 0.00000
  43 0.00000 0.00000 0.00000
  44 0.00000 0.00000 0.00000
  45 0.00000 0.00000 0.00000
  46 0.00000 0.00000 0.00000
  47 0.00000 0.00000 0.00000
  48 0.00000 0.00000 0.00000
  49 0.00000 0.00000 0.00000
  50 0.00000 0.00000 0.00000
  51 0.00000 0.00000 0.00000
  52 0.00000 0.00000 0.00000
  53 0.00000 0.00000 0.00000
  54 0.00000 0.00000 0.00000
  55 0.00000 0.00000 0.00000
  56 0.00000 0.00000 0.00000
  57 0.00000 0.00000 0.00000
  58 0.00000 0.00000 0.00000
  59 0.00000 0.00000 0.00000
  60 0.00000 0.00000 0.00000
  61 0.00000 0.00000 0.00000
  62 0.00000 0.00000 0.00000
  63 0.00000 0.00000 0.00000
  64 0.00000 0.00000 0.00000
  65 0.00000 0.00000 0.00000
  66 0.00000 0.00000 0.00000
  67 0.00000 0.00000 0.00000
  68 0.00000 0.00000 0.00000
  69 0.00000 0.00000 0.00000
  70 0.00000 0.00000 0.00000
  71 0.00000 0.00000 0.00000
  72 0.00000 0.00000 0.00000
  73 0.00000 0.00000 0.00000
  74 0.00000 0.00000 0.00000
  75 0.00000 0.00000 0.00000
  76 0.00000 0.00000 0.00000
  77 0.00000 0.00000 0.00000
  78 0.00000 0.00000 0.00000
  79 0.00000 0.00000 0.00000
  80 0.00000 0.00000 0.00000
  81 0.00000 0.00000 0.00000
  82 0.00000 0.00000 0.00000
  83 0.00000 0.00000 0.00000
  84 0.00000 0.00000 0.00000
  85 0.00000 0.00000 0.00000
  86 0.00000 0.00000 0.00000
  87 0.00000 0.00000 0.00000
  88 0.00000 0.00000 0.00000
  89 0.00000 0.00000 0.00000
  90 0.00000 0.00000 0.00000
  91 0.00000 0.00000 0.00000
  92 0.00000 0.00000 0.00000
  93 0.00000 0.00000 0.00000
  94 0.00000 0.00000 0.00000
  95 0.00000 0.00000 0.00000
  96 0.00000 0.00000 0.00000
  97 0.00000 0.00000 0.00000
  98 0.00000 0.00000 0.00000
  99 0.00000 0.00000 0.00000
  100 0.00000 0.00000 0.00000
  101 0.00000 0.00000 0.00000
  102 0.00000 0.00000 0.00000
  103 0.00000 0.00000 0.00000
  104 0.00000 0.00000 0.00000
  105 0.00000 0.00000 0.00000
  106 0.00000 0.00000 0.00000
  107 0.00000 0.00000 0.00000
  108 0.00000 0.00000 0.00000
  109 0.00000 0.00000 0.00000
  110 0.00000 0.00000 0.00000
  111 0.00000 0.00000 0.00000
  112 0.00000 0.00000 0.00000
  113 0.00000 0.00000 0.00000
  114 0.00000 0.00000 0.00000
  115 0.00000 0.00000 0.00000
  116 0.00000 0.00000 0.00000
  117 0.00000 0.00000 0.00000
  118 0.00000 0.00000 0.00000
  119 0.00000 0.00000 0.00000
  120 0.00000 0.00000 0.00000
  121 0.00000 0.00000 0.00000
  122 0.00000 0.00000 0.00000
  123 0.00000 0.00000 0.00000
  124 0.00000 0.00000 0.00000
  125 0.00000 0.00000 0.00000
  126 0.00000 0.00000 0.00000
  127 0.00000 0.00000 0.00000
  128 0.00000 0.00000 0.00000
  129 0.00000 0.00000 0.00000
  130 0.00000 0.00000 0.00000
  131 0.00000 0.00000 0.00000
  132 0.00000 0.00000 0.00000
  133 0.00000 0.00000 0.00000
  134 0.00000 0.00000 0.00000
  135 0.00000 0.00000 0.00000
  136 0.00000 0.00000 0.00000
  137 0.00000 0.00000 0.00000
  138 0.00000 0.00000 0.00000
  139 0.00000 0.00000 0.00000
  140 0.00000 0.00000 0.00000
  141 0.00000 0.00000 0.00000
  142 0.00000 0.00000 0.00000
  143 0.00000 0.00000 0.00000
  144 0.00000 0.00000 0.00000
  145 0.00000 0.00000 0.00000
  146 0.00000 0.00000 0.00000
  147 0.00000 0.00000 0.00000
  148 0.00000 0.00000 0.00000
  149 0.00000 0.00000 0.00000
  150 0.00000 0.00000 0.00000
  151 0.00000 0.00000 0.00000
  152 0.00000 0.00000 0.00000
  153 0.00000 0.00000 0.00000
  154 0.00000 0.00000 0.00000
  155 0.00000 0.00000 0.00000
  156 0.00000 0.00000 0.00000
  157 0.00000 0.00000 0.00000
  158 0.00000 0.00000 0.00000
  159 0.00000 0.00000 0.00000
  160 0.00000 0.00000 0.00000
  161 0.00000 0.00000 0.00000
  162 0.00000 0.00000 0.00000
  163 0.00000 0.00000 0.00000
  164 0.00000 0.00000 0.00000
  165 0.00000 0.00000 0.00000
  166 0.00000 0.00000 0.00000
  167 0.00000 0.00000 0.00000
  168 0.00000 0.00000 0.00000
  169 0.00000 0.00000 0.00000
  170 0.00000 0.00000 0.00000
  171 0.00000 0.00000 0.00000
  172 0.00000 0.00000 0.00000
  173 0.00000 0.00000 0.00000
  174 0.00000 0.00000 0.00000
  175 0.00000 0.00000 0.00000
  176 0.00000 0.00000 0.00000
  177 0.00000 0.00000 0.00000
  178 0.00000 0.00000 0.00000
  179 0.00000 0.00000 0.00000
  180 0.00000 0.00000 0.00000
  181 0.00000 0.00000 0.00000
  182 0.00000 0.00000 0.00000
  183 0.00000 0.00000 0.00000
  184 0.00000 0.00000 0.00000
  185 0.00000 0.00000 0.00000
  186 0.00000 0.00000 0.00000
  187 0.00000 0.00000 0.00000
  188 0.00000 0.00000 0.00000
  189 0.00000 0.00000 0.00000
  190 0.00000 0.00000 0.00000
  191 0.00000 0.00000 0.00000
  192 0.00000 0.00000 0.00000
  193 0.00000 0.00000 0.00000
  194 0.00000 0.00000 0.00000
  195 0.00000 0.00000 0.00000
  196 0.00000 0.00000 0.00000
  197 0.00000 0.00000 0.00000
  198 0.00000 0.00000 0.00000
  199 0.00000 0.00000 0.00000
  200 0.00000 0.00000 0.00000
  201 0.00000 0.00000 0.00000
  202 0.00000 0.00000 0.00000
  203 0.00000 0.00000 0.00000
  204 0.00000 0.00000 0.00000
  205 0.00000 0.00000 0.00000
  206 0.00000 0.00000 0.00000
  207 0.00000 0.00000 0.00000
  208 0.00000 0.00000 0.00000
  209 0.00000 0.00000 0.00000
  210 0.00000 0.00000 0.00000
  211 0.00000 0.00000 0.00000
  212 0.00000 0.00000 0.00000
  213 0.00000 0.00000 0.00000
  214 0.00000 0.00000 0.00000
  215 0.00000 0.00000 0.00000
  216 0.00000 0.00000 0.00000
  217 0.00000 0.00000 0.00000
  218 0.00000 0.00000 0.00000
  219 0.00000 0.00000 0.00000
  220 0.00000 0.00000 0.00000
  221 0.00000 0.00000 0.00000
  222 0.00000 0.00000 0.00000
  223 0.00000 0.00000 0.00000
  224 0.00000 0.00000 0.00000
  225 0.00000 0.00000 0.00000
  226 0.00000 0.00000 0.00000
  227 0.00000 0.00000 0.00000
  228 0.00000 0.00000 0.00000
  229 0.00000 0.00000 0.00000
  230 0.00000 0.00000 0.00000
  231 0.00000 0.00000 0.00000
  232 0.00000 0.00000 0.00000
  233 0.00000 0.00000 0.00000
  234 0.00000 0.00000 0.00000
  235 0.00000 0.00000 0.00000
  236 0.00000 0.00000 0.00000
  237 0.00000 0.00000 0.00000
  238 0.00000 0.00000 0.00000
  239 0.00000 0.00000 0.00000
  240 0.00000 0.00000 0.00000
  241 0.00000 0.00000 0.00000
</Section>

newXOutput 167

<Section columns = "stress_xx | stress_yy | stress_xy">
  1 0.00000 0.00000 0.00000
  2 0.00000 0.00000 0.00000
  3 0.00000 0.00000 0.00000
  4 0.00000 0.00000 0.00000
  5 0.00000 0.00000 0.00000
  6 0.00000 0.00000 0.00000
  7 0.00000 0.00000 0.00000
  8 0.00000 0.00000 0.00000
  9 0.00000 0.00000 0.00000
  10 0.00000 0.00000 0.00000
  11 0.00000 0.00000 0.00000
  12 0.00000 0.00000 0.00000
  13 0.00000 0.00000 0.00000
  14 0.00000 0.00000 0.00000
  15 0.00000 0.00000 0.00000
  16 0.00000 0.00000 0.00000
  17 0.00000 0.00000 0.00000
  18 0.00000 0.00000 0.00000
  19 0.00000 0.00000 0.00000
  20 0.00000 0.00000 0.00000
  21 0.00000 0.00000 0.00000
  22 0.00000 0.00000 0.00000
  23 0.00000 0.00000 0.00000
  24 0.00000 0.00000 0.00000
  25 0.00000 0.00000 0.00000
  26 0.00000 0.00000 0.00000
  27 0.00000 0.00000 0.00000
  28 0.00000 0.00000 0.00000
  29 0.00000 0.00000 0.00000
  30 0.00000 0.00000 0.00000
  31 0.00000 0.00000 0.00000
  32 0.00000 0.00000 0.00000
  33 0.00000 0.00000 0.00000
  34 0.00000 0.00000 0.00000
  35 0.00000 0.00000 0.00000
  36 0.00000 0.00000 0.00000
  37 0.00000 0.00000 0.00000
  38 0.00000 0.00000 0.00000
  39 0.00000 0.00000 0.00000
  40 0.00000 0.00000 0.00000
  41 0.00000 0.00000 0.00000
  42 0.00000 0.00000 0.00000
  43 0.00000 0.00000 0.00000
  44 0.00000 0.00000 0.00000
  45 0.00000 0.00000 0.00000
  46 0.00000 0.00000 0.00000
  47 0.00000 0.00000 0.00000
  48 0.00000 0.00000 0.00000
  49 0.00000 0.00000 0.00000
  50 0.00000 0.00000 0.00000
  51 0.00000 0.00000 0.00000
  52 0.00000 0.00000 0.00000
  53 0.00000 0.00000 0.00000
  54 0.00000 0.00000 0.00000
  55 0.00000 0.00000 0.00000
  56 0.00000 0.00000 0.00000
  57 0.00000 0.00000 0.00000
  58 0.00000 0.00000 0.00000
  59 0.00000 0.00000 0.00000
  60 0.00000 0.00000 0.00000
  61 0.00000 0.00000 0.00000
  62 0.00000 0.00000 0.00000
  63 0.00000 0.00000 0.00000
  64 0.00000 0.00000 0.00000
  65 0.00000 0.00000 0.00000
  66 0.00000 0.00000 0.00000
  67 0.00000 0.00000 0.00000
  68 0.00000 0.00000 0.00000
  69 0.00000 0.00000 0.00000
  70 0.00000 0.00000 0.00000
  71 0.00000 0.00000 0.00000
  72 0.00000 0.00000 0.00000
  73 0.00000 0.00000 0.00000
  74 0.00000 0.00000 0.00000
  75 0.00000 0.00000 0.00000
  76 0.00000 0.00000 0.00000
  77 0.00000 0.00000 0.00000
  78 0.00000 0.00000 0.00000
  79 0.00000 0.00000 0.00000
  80 0.00000 0.00000 0.00000
  81 0.00000 0.00000 0.00000
  82 0.00000 0.00000 0.00000
  83 0.00000 0.00000 0.00000
  84 0.00000 0.00000 0.00000
  85 0.00000 0.00000 0.00000
  86 0.00000 0.00000 0.00000
  87 0.00000 0.00000 0.00000
  88 0.00000 0.00000 0.00000
  89 0.00000 0.00000 0.00000
  90 0.00000 0.00000 0.00000
  91 0.00000 0.00000 0.00000
  92 0.00000 0.00000 0.00000
  93 0.00000 0.00000 0.00000
  94 0.00000 0.00000 0.00000
  95 0.00000 0.00000 0.00000
  96 0.00000 0.00000 0.00000
  97 0.00000 0.00000 0.00000
  98 0.00000 0.00000 0.00000
  99 0.00000 0.00000 0.00000
  100 0.00000 0.00000 0.00000
  101 0.00000 0.00000 0.00000
  102 0.00000 0.00000 0.00000
  103 0.00000 0.00000 0.00000
  104 0.00000 0.00000 0.00000
  105 0.00000 0.00000 0.00000
  106 0.00000 0.00000 0.00000
  107 0.00000 0.00000 0.00000
  108 0.00000 0.00000 0.00000
  109 0.00000 0.00000 0.00000
  110 0.00000 0.00000 0.00000
  111 0.00000 0.00000 0.00000
  112 0.00000 0.00000 0.00000
  113 0.00000 0.00000 0.00000
  114 0.00000 0.00000 0.00000
  115 0.00000 0.00000 0.00000
  116 0.00000 0.00000 0.00000
  117 0.00000 0.00000 0.00000
  118 0.00000 0.00000 0.00000
  119 0.00000 0.00000 0.00000
  120 0.00000 0.00000 0.00000
  121 0.00000 0.00000 0.00000
  122 0.00000 0.00000 0.00000
  123 0.00000 0.00000 0.00000
  124 0.00000 0.00000 0.00000
  125 0.00000 0.00000 0.00000
  126 0.00000 0.00000 0.00000
  127 0.00000 0.00000 0.00000
  128 0.00000 0.00000 0.00000
  129 0.00000 0.00000 0.00000
  130 0.00000 0.00000 0.00000
  131 0.00000 0.00000 0.00000
  132 0.00000 0.00000 0.00000
  133 0.00000 0.00000 0.00000
  134 0.00000 0.00000 0.00000
  135 0.00000 0.00000 0.00000
  136 0.00000 0.00000 0.00000
  137 0.00000 0.00000 0.00000
  138 0.00000 0.00000 0.00000
  139 0.00000 0.00000 0.00000
  140 0.00000 0.00000 0.00000
  141 0.00000 0.00000 0.00000
  142 0.00000 0.00000 0.00000
  143 0.00000 0.00000 0.00000
  144 0.00000 0.00000 0.00000
  145 0.00000 0.00000 0.00000
  146 0.00000 0.00000 0.00000
  147 0.00000 0.00000 0.00000
  148 0.00000 0.00000 0.00000
  149 0.00000 0.00000 0.00000
  150 0.00000 0.00000 0.00000
  151 0.00000 0.00000 0.00000
  152 0.00000 0.00000 0.00000
  153 0.00000 0.00000 0.00000
  154 0.00000 0.00000 0.00000
  155 0.00000 0.00000 0.00000
  156 0.00000 0.00000 0.00000
  157 0.00000 0.00000 0.00000
  158 0.00000 0.00000 0.00000
  159 0.00000 0.00000 0.00000
  160 0.00000 0.00000 0.00000
  161 0.00000 0.00000 0.00000
  162 0.00000 0.00000 0.00000
  163 0.00000 0.00000 0.00000
  164 0.00000 0.00000 0.00000
  165 0.00000 0.00000 0.00000
  166 0.00000 0.00000 0.00000
  167 0.00000 0.00000 0.00000
  168 0.00000 0.00000 0.00000
  169 0.00000 0.00000 0.00000
  170 0.00000 0.00000 0.00000
  171 0.00000 0.00000 0.00000
  172 0.00000 0.00000 0.00000
  173 0.00000 0.00000 0.00000
  174 0.00000 0.00000 0.00000
  175 0.00000 0.00000 0.00000
  176 0.00000 0.00000 0.00000
  177 0.00000 0.00000 0.00000
  178 0.00000 0.00000 0.00000
  179 0.00000 0.00000 0.00000
  180 0.00000 0.00000 0.00000
  181 0.00000 0.00000 0.00000
  182 0.00000 0.00000 0.00000
  183 0.00000 0.00000 0.00000
  184 0.00000 0.00000 0.00000
  185 0.00000 0.00000 0.00000
  186 0.00000 0.00000 0.00000
  187 0.00000 0.00000 0.00000
  188 0.00000 0.00000 0.00000
  189 0.00000 0.00000 0.00000
  190 0.00000 0.00000 0.00000
  191 0.00000 0.00000 0.00000
  192 0.00000 0.00000 0.00000
  193 0.00000 0.00000 0.00000
  194 0.00000 0.00000 0.00000
  195 0.00000 0.00000 0.00000
  196 0.00000 0.00000 0.00000
  197 0.00000 0.00000 0.00000
  198 0.00000 0.00000 0.00000
  199 0.00000 0.00000 0.00000
  200 0.00000 0.00000 0.00000
  201 0.00000 0.00000 0.00000
  202 0.00000 0.00000 0.00000
  203 0.00000 0.00000 0.00000
  204 0.00000 0.00000 0.00000
  205 0.00000 0.00000 0.00000
  206 0.00000 0.00000 0.00000
  207 0.00000 0.00000 0.00000
  208 0.00000 0.00000 0.00000
  209 0.00000 0.00000 0.00000
  210 0.00000 0.00000 0.00000
  211 0.00000 0.00000 0.00000
  212 0.00000 0.00000 0.00000
  213 0.00000 0.00000 0.00000
  214 0.00000 0.00000 0.00000
  215 0.00000 0.00000 0.00000
  216 0.00000 0.00000 0.00000
  217 0.00000 0.00000 0.00000
  218 0.00000 0.00000 0.00000
  219 0.00000 0.00000 0.00000
  220 0.00000 0.00000 0.00000
  221 0.00000 0.00000 0.00000
  222 0.00000 0.00000 0.00000
  223 0.00000 0.00000 0.00000
  224 0.00000 0.00000 0.00000
  225 0.00000 0.00000 0.00000
  226 0.00000 0.00000 0.00000
  227 0.00000 0.00000 0.00000
  228 0.00000 0.00000 0.00000
  229 0.00000 0.00000 0.00000
  230 0.00000 0.00000 0.00000
  231 0.00000 0.00000 0.00000
  232 0.00000 0.00000 0.00000
  233 0.00000 0.00000 0.00000
  234 0.00000 0.00000 0.00000
  235 0.00000 0.00000 0.00000
  236 0.00000 0.00000 0.00000
  237 0.00000 0.00000 0.00000
  238 0.00000 0.00000 0.00000
  239 0.00000 0.00000 0.00000
  240 0.00000 0.00000 0.00000
  241 0.00000 0.00000 0.00000
</Section>

newXOutput 168

<Section columns = "stress_xx | stress_yy | stress_xy">
  1 0.00000 0.00000 0.00000
  2 0.00000 0.00000 0.00000
  3 0.00000 0.00000 0.00000
  4 0.00000 0.00000 0.00000
  5 0.00000 0.00000 0.00000
  6 0.00000 0.00000 0.00000
  7 0.00000 0.00000 0.00000
  8 0.00000 0.00000 0.00000
  9 0.00000 0.00000 0.00000
  10 0.00000 0.00000 0.00000
  11 0.00000 0.00000 0.00000
  12 0.00000 0.00000 0.00000
  13 0.00000 0.00000 0.00000
  14 0.00000 0.00000 0.00000
  15 0.00000 0.00000 0.00000
  16 0.00000 0.00000 0.00000
  17 0.00000 0.00000 0.00000
  18 0.00000 0.00000 0.00000
  19 0.00000 0.00000 0.00000
  20 0.00000 0.00000 0.00000
  21 0.00000 0.00000 0.00000
  22 0.00000 0.00000 0.00000
  23 0.00000 0.00000 0.00000
  24 0.00000 0.00000 0.00000
  25 0.00000 0.00000 0.00000
  26 0.00000 0.00000 0.00000
  27 0.00000 0.00000 0.00000
  28 0.00000 0.00000 0.00000
  29 0.00000 0.00000 0.00000
  30 0.00000 0.00000 0.00000
  31 0.00000 0.00000 0.00000
  32 0.00000 0.00000 0.00000
  33 0.00000 0.00000 0.00000
  34 0.00000 0.00000 0.00000
  35 0.00000 0.00000 0.00000
  36 0.00000 0.00000 0.00000
  37 0.00000 0.00000 0.00000
  38 0.00000 0.00000 0.00000
  39 0.00000 0.00000 0.00000
  40 0.00000 0.00000 0.00000
  41 0.00000 0.00000 0.00000
  42 0.00000 0.00000 0.00000
  43 0.00000 0.00000 0.00000
  44 0.00000 0.00000 0.00000
  45 0.00000 0.00000 0.00000
  46 0.00000 0.00000 0.00000
  47 0.00000 0.00000 0.00000
  48 0.00000 0.00000 0.00000
  49 0.00000 0.00000 0.00000
  50 0.00000 0.00000 0.00000
  51 0.00000 0.00000 0.00000
  52 0.00000 0.00000 0.00000
  53 0.00000 0.00000 0.00000
  54 0.00000 0.00000 0.00000
  55 0.00000 0.00000 0.00000
  56 0.00000 0.00000 0.00000
  57 0.00000 0.00000 0.00000
  58 0.00000 0.00000 0.00000
  59 0.00000 0.00000 0.00000
  60 0.00000 0.00000 0.00000
  61 0.00000 0.00000 0.00000
  62 0.00000 0.00000 0.00000
  63 0.00000 0.00000 0.00000
  64 0.00000 0.00000 0.00000
  65 0.00000 0.00000 0.00000
  66 0.00000 0.00000 0.00000
  67 0.00000 0.00000 0.00000
  68 0.00000 0.00000 0.00000
  69 0.00000 0.00000 0.00000
  70 0.00000 0.00000 0.00000
  71 0.00000 0.00000 0.00000
  72 0.00000 0.00000 0.00000
  73 0.00000 0.00000 0.00000
  74 0.00000 0.00000 0.00000
  75 0.00000 0.00000 0.00000
  76 0.00000 0.00000 0.00000
  77 0.00000 0.00000 0.00000
  78 0.00000 0.00000 0.00000
  79 0.00000 0.00000 0.00000
  80 0.00000 0.00000 0.00000
  81 0.00000 0.00000 0.00000
  82 0.00000 0.00000 0.00000
  83 0.00000 0.00000 0.00000
  84 0.00000 0.00000 0.00000
  85 0.00000 0.00000 0.00000
  86 0.00000 0.00000 0.00000
  87 0.00000 0.00000 0.00000
  88 0.00000 0.00000 0.00000
  89 0.00000 0.00000 0.00000
  90 0.00000 0.00000 0.00000
  91 0.00000 0.00000 0.00000
  92 0.00000 0.00000 0.00000
  93 0.00000 0.00000 0.00000
  94 0.00000 0.00000 0.00000
  95 0.00000 0.00000 0.00000
  96 0.00000 0.00000 0.00000
  97 0.00000 0.00000 0.00000
  98 0.00000 0.00000 0.00000
  99 0.00000 0.00000 0.00000
  100 0.00000 0.00000 0.00000
  101 0.00000 0.00000 0.00000
  102 0.00000 0.00000 0.00000
  103 0.00000 0.00000 0.00000
  104 0.00000 0.00000 0.00000
  105 0.00000 0.00000 0.00000
  106 0.00000 0.00000 0.00000
  107 0.00000 0.00000 0.00000
  108 0.00000 0.00000 0.00000
  109 0.00000 0.00000 0.00000
  110 0.00000 0.00000 0.00000
  111 0.00000 0.00000 0.00000
  112 0.00000 0.00000 0.00000
  113 0.00000 0.00000 0.00000
  114 0.00000 0.00000 0.00000
  115 0.00000 0.00000 0.00000
  116 0.00000 0.00000 0.00000
  117 0.00000 0.00000 0.00000
  118 0.00000 0.00000 0.00000
  119 0.00000 0.00000 0.00000
  120 0.00000 0.00000 0.00000
  121 0.00000 0.00000 0.00000
  122 0.00000 0.00000 0.00000
  123 0.00000 0.00000 0.00000
  124 0.00000 0.00000 0.00000
  125 0.00000 0.00000 0.00000
  126 0.00000 0.00000 0.00000
  127 0.00000 0.00000 0.00000
  128 0.00000 0.00000 0.00000
  129 0.00000 0.00000 0.00000
  130 0.00000 0.00000 0.00000
  131 0.00000 0.00000 0.00000
  132 0.00000 0.00000 0.00000
  133 0.00000 0.00000 0.00000
  134 0.00000 0.00000 0.00000
  135 0.00000 0.00000 0.00000
  136 0.00000 0.00000 0.00000
  137 0.00000 0.00000 0.00000
  138 0.00000 0.00000 0.00000
  139 0.00000 0.00000 0.00000
  140 0.00000 0.00000 0.00000
  141 0.00000 0.00000 0.00000
  142 0.00000 0.00000 0.00000
  143 0.00000 0.00000 0.00000
  144 0.00000 0.00000 0.00000
  145 0.00000 0.00000 0.00000
  146 0.00000 0.00000 0.00000
  147 0.00000 0.00000 0.00000
  148 0.00000 0.00000 0.00000
  149 0.00000 0.00000 0.00000
  150 0.00000 0.00000 0.00000
  151 0.00000 0.00000 0.00000
  152 0.00000 0.00000 0.00000
  153 0.00000 0.00000 0.00000
  154 0.00000 0.00000 0.00000
  155 0.00000 0.00000 0.00000
  156 0.00000 0.00000 0.00000
  157 0.00000 0.00000 0.00000
  158 0.00000 0.00000 0.00000
  159 0.00000 0.00000 0.00000
  160 0.00000 0.00000 0.00000
  161 0.00000 0.00000 0.00000
  162 0.00000 0.00000 0.00000
  163 0.00000 0.00000 0.00000
  164 0.00000 0.00000 0.00000
  165 0.00000 0.00000 0.00000
  166 0.00000 0.00000 0.00000
  167 0.00000 0.00000 0.00000
  168 0.00000 0.00000 0.00000
  169 0.00000 0.00000 0.00000
  170 0.00000 0.00000 0.00000
  171 0.00000 0.00000 0.00000
  172 0.00000 0.00000 0.00000
  173 0.00000 0.00000 0.00000
  174 0.00000 0.00000 0.00000
  175 0.00000 0.00000 0.00000
  176 0.00000 0.00000 0.00000
  177 0.00000 0.00000 0.00000
  178 0.00000 0.00000 0.00000
  179 0.00000 0.00000 0.00000
  180 0.00000 0.00000 0.00000
  181 0.00000 0.00000 0.00000
  182 0.00000 0.00000 0.00000
  183 0.00000 0.00000 0.00000
  184 0.00000 0.00000 0.00000
  185 0.00000 0.00000 0.00000
  186 0.00000 0.00000 0.00000
  187 0.00000 0.00000 0.00000
  188 0.00000 0.00000 0.00000
  189 0.00000 0.00000 0.00000
  190 0.00000 0.00000 0.00000
  191 0.00000 0.00000 0.00000
  192 0.00000 0.00000 0.00000
  193 0.00000 0.00000 0.00000
  194 0.00000 0.00000 0.00000
  195 0.00000 0.00000 0.00000
  196 0.00000 0.00000 0.00000
  197 0.00000 0.00000 0.00000
  198 0.00000 0.00000 0.00000
  199 0.00000 0.00000 0.00000
  200 0.00000 0.00000 0.00000
  201 0.00000 0.00000 0.00000
  202 0.00000 0.00000 0.00000
  203 0.00000 0.00000 0.00000
  204 0.00000 0.00000 0.00000
  205 0.00000 0.00000 0.00000
  206 0.00000 0.00000 0.00000
  207 0.00000 0.00000 0.00000
  208 0.00000 0.00000 0.00000
  209 0.00000 0.00000 0.00000
  210 0.00000 0.00000 0.00000
  211 0.00000 0.00000 0.00000
  212 0.00000 0.00000 0.00000
  213 0.00000 0.00000 0.00000
  214 0.00000 0.00000 0.00000
  215 0.00000 0.00000 0.00000
  216 0.00000 0.00000 0.00000
  217 0.00000 0.00000 0.00000
  218 0.00000 0.00000 0.00000
  219 0.00000 0.00000 0.00000
  220 0.00000 0.00000 0.00000
  221 0.00000 0.00000 0.00000
  222 0.00000 0.00000 0.00000
  223 0.00000 0.00000 0.00000
  224 0.00000 0.00000 0.00000
  225 0.00000 0.00000 0.00000
  226 0.00000 0.00000 0.00000
  227 0.00000 0.00000 0.00000
  228 0.00000 0.00000 0.00000
  229 0.00000 0.00000 0.00000
  230 0.00000 0.00000 0.00000
  231 0.00000 0.00000 0.00000
  232 0.00000 0.00000 0.00000
  233 0.00000 0.00000 0.00000
  234 0.00000 0.00000 0.00000
  235 0.00000 0.00000 0.00000
  236 0.00000 0.00000 0.00000
  237 0.00000 0.00000 0.00000
  238 0.00000 0.00000 0.00000
  239 0.00000 0.00000 0.00000
  240 0.00000 0.00000 0.00000
  241 0.00000 0.00000 0.00000
</Section>

newXOutput 169

<Section columns = "stress_xx | stress_yy | stress_xy">
  1 0.00000 0.00000 0.00000
  2 0.00000 0.00000 0.00000
  3 0.00000 0.00000 0.00000
  4 0.00000 0.00000 0.00000
  5 0.00000 0.00000 0.00000
  6 0.00000 0.00000 0.00000
  7 0.00000 0.00000 0.00000
  8 0.00000 0.00000 0.00000
  9 0.00000 0.00000 0.00000
  10 0.00000 0.00000 0.00000
  11 0.00000 0.00000 0.00000
  12 0.00000 0.00000 0.00000
  13 0.00000 0.00000 0.00000
  14 0.00000 0.00000 0.00000
  15 0.00000 0.00000 0.00000
  16 0.00000 0.00000 0.00000
  17 0.00000 0.00000 0.00000
  18 0.00000 0.00000 0.00000
  19 0.00000 0.00000 0.00000
  20 0.00000 0.00000 0.00000
  21 0.00000 0.00000 0.00000
  22 0.00000 0.00000 0.00000
  23 0.00000 0.00000 0.00000
  24 0.00000 0.00000 0.00000
  25 0.00000 0.00000 0.00000
  26 0.00000 0.00000 0.00000
  27 0.00000 0.00000 0.00000
  28 0.00000 0.00000 0.00000
  29 0.00000 0.00000 0.00000
  30 0.00000 0.00000 0.00000
  31 0.00000 0.00000 0.00000
  32 0.00000 0.00000 0.00000
  33 0.00000 0.00000 0.00000
  34 0.00000 0.00000 0.00000
  35 0.00000 0.00000 0.00000
  36 0.00000 0.00000 0.00000
  37 0.00000 0.00000 0.00000
  38 0.00000 0.00000 0.00000
  39 0.00000 0.00000 0.00000
  40 0.00000 0.00000 0.00000
  41 0.00000 0.00000 0.00000
  42 0.00000 0.00000 0.00000
  43 0.00000 0.00000 0.00000
  44 0.00000 0.00000 0.00000
  45 0.00000 0.00000 0.00000
  46 0.00000 0.00000 0.00000
  47 0.00000 0.00000 0.00000
  48 0.00000 0.00000 0.00000
  49 0.00000 0.00000 0.00000
  50 0.00000 0.00000 0.00000
  51 0.00000 0.00000 0.00000
  52 0.00000 0.00000 0.00000
  53 0.00000 0.00000 0.00000
  54 0.00000 0.00000 0.00000
  55 0.00000 0.00000 0.00000
  56 0.00000 0.00000 0.00000
  57 0.00000 0.00000 0.00000
  58 0.00000 0.00000 0.00000
  59 0.00000 0.00000 0.00000
  60 0.00000 0.00000 0.00000
  61 0.00000 0.00000 0.00000
  62 0.00000 0.00000 0.00000
  63 0.00000 0.00000 0.00000
  64 0.00000 0.00000 0.00000
  65 0.00000 0.00000 0.00000
  66 0.00000 0.00000 0.00000
  67 0.00000 0.00000 0.00000
  68 0.00000 0.00000 0.00000
  69 0.00000 0.00000 0.00000
  70 0.00000 0.00000 0.00000
  71 0.00000 0.00000 0.00000
  72 0.00000 0.00000 0.00000
  73 0.00000 0.00000 0.00000
  74 0.00000 0.00000 0.00000
  75 0.00000 0.00000 0.00000
  76 0.00000 0.00000 0.00000
  77 0.00000 0.00000 0.00000
  78 0.00000 0.00000 0.00000
  79 0.00000 0.00000 0.00000
  80 0.00000 0.00000 0.00000
  81 0.00000 0.00000 0.00000
  82 0.00000 0.00000 0.00000
  83 0.00000 0.00000 0.00000
  84 0.00000 0.00000 0.00000
  85 0.00000 0.00000 0.00000
  86 0.00000 0.00000 0.00000
  87 0.00000 0.00000 0.00000
  88 0.00000 0.00000 0.00000
  89 0.00000 0.00000 0.00000
  90 0.00000 0.00000 0.00000
  91 0.00000 0.00000 0.00000
  92 0.00000 0.00000 0.00000
  93 0.00000 0.00000 0.00000
  94 0.00000 0.00000 0.00000
  95 0.00000 0.00000 0.00000
  96 0.00000 0.00000 0.00000
  97 0.00000 0.00000 0.00000
  98 0.00000 0.00000 0.00000
  99 0.00000 0.00000 0.00000
  100 0.00000 0.00000 0.00000
  101 0.00000 0.00000 0.00000
  102 0.00000 0.00000 0.00000
  103 0.00000 0.00000 0.00000
  104 0.00000 0.00000 0.00000
  105 0.00000 0.00000 0.00000
  106 0.00000 0.00000 0.00000
  107 0.00000 0.00000 0.00000
  108 0.00000 0.00000 0.00000
  109 0.00000 0.00000 0.00000
  110 0.00000 0.00000 0.00000
  111 0.00000 0.00000 0.00000
  112 0.00000 0.00000 0.00000
  113 0.00000 0.00000 0.00000
  114 0.00000 0.00000 0.00000
  115 0.00000 0.00000 0.00000
  116 0.00000 0.00000 0.00000
  117 0.00000 0.00000 0.00000
  118 0.00000 0.00000 0.00000
  119 0.00000 0.00000 0.00000
  120 0.00000 0.00000 0.00000
  121 0.00000 0.00000 0.00000
  122 0.00000 0.00000 0.00000
  123 0.00000 0.00000 0.00000
  124 0.00000 0.00000 0.00000
  125 0.00000 0.00000 0.00000
  126 0.00000 0.00000 0.00000
  127 0.00000 0.00000 0.00000
  128 0.00000 0.00000 0.00000
  129 0.00000 0.00000 0.00000
  130 0.00000 0.00000 0.00000
  131 0.00000 0.00000 0.00000
  132 0.00000 0.00000 0.00000
  133 0.00000 0.00000 0.00000
  134 0.00000 0.00000 0.00000
  135 0.00000 0.00000 0.00000
  136 0.00000 0.00000 0.00000
  137 0.00000 0.00000 0.00000
  138 0.00000 0.00000 0.00000
  139 0.00000 0.00000 0.00000
  140 0.00000 0.00000 0.00000
  141 0.00000 0.00000 0.00000
  142 0.00000 0.00000 0.00000
  143 0.00000 0.00000 0.00000
  144 0.00000 0.00000 0.00000
  145 0.00000 0.00000 0.00000
  146 0.00000 0.00000 0.00000
  147 0.00000 0.00000 0.00000
  148 0.00000 0.00000 0.00000
  149 0.00000 0.00000 0.00000
  150 0.00000 0.00000 0.00000
  151 0.00000 0.00000 0.00000
  152 0.00000 0.00000 0.00000
  153 0.00000 0.00000 0.00000
  154 0.00000 0.00000 0.00000
  155 0.00000 0.00000 0.00000
  156 0.00000 0.00000 0.00000
  157 0.00000 0.00000 0.00000
  158 0.00000 0.00000 0.00000
  159 0.00000 0.00000 0.00000
  160 0.00000 0.00000 0.00000
  161 0.00000 0.00000 0.00000
  162 0.00000 0.00000 0.00000
  163 0.00000 0.00000 0.00000
  164 0.00000 0.00000 0.00000
  165 0.00000 0.00000 0.00000
  166 0.00000 0.00000 0.00000
  167 0.00000 0.00000 0.00000
  168 0.00000 0.00000 0.00000
  169 0.00000 0.00000 0.00000
  170 0.00000 0.00000 0.00000
  171 0.00000 0.00000 0.00000
  172 0.00000 0.00000 0.00000
  173 0.00000 0.00000 0.00000
  174 0.00000 0.00000 0.00000
  175 0.00000 0.00000 0.00000
  176 0.00000 0.00000 0.00000
  177 0.00000 0.00000 0.00000
  178 0.00000 0.00000 0.00000
  179 0.00000 0.00000 0.00000
  180 0.00000 0.00000 0.00000
  181 0.00000 0.00000 0.00000
  182 0.00000 0.00000 0.00000
  183 0.00000 0.00000 0.00000
  184 0.00000 0.00000 0.00000
  185 0.00000 0.00000 0.00000
  186 0.00000 0.00000 0.00000
  187 0.00000 0.00000 0.00000
  188 0.00000 0.00000 0.00000
  189 0.00000 0.00000 0.00000
  190 0.00000 0.00000 0.00000
  191 0.00000 0.00000 0.00000
  192 0.00000 0.00000 0.00000
  193 0.00000 0.00000 0.00000
  194 0.00000 0.00000 0.00000
  195 0.00000 0.00000 0.00000
  196 0.00000 0.00000 0.00000
  197 0.00000 0.00000 0.00000
  198 0.00000 0.00000 0.00000
  199 0.00000 0.00000 0.00000
  200 0.00000 0.00000 0.00000
  201 0.00000 0.00000 0.00000
  202 0.00000 0.00000 0.00000
  203 0.00000 0.00000 0.00000
  204 0.00000 0.00000 0.00000
  205 0.00000 0.00000 0.00000
  206 0.00000 0.00000 0.00000
  207 0.00000 0.00000 0.00000
  208 0.00000 0.00000 0.00000
  209 0.00000 0.00000 0.00000
  210 0.00000 0.00000 0.00000
  211 0.00000 0.00000 0.00000
  212 0.00000 0.00000 0.00000
  213 0.00000 0.00000 0.00000
  214 0.00000 0.00000 0.00000
  215 0.00000 0.00000 0.00000
  216 0.00000 0.00000 0.00000
  217 0.00000 0.00000 0.00000
  218 0.00000 0.00000 0.00000
  219 0.00000 0.00000 0.00000
  220 0.00000 0.00000 0.00000
  221 0.00000 0.00000 0.00000
  222 0.00000 0.00000 0.00000
  223 0.00000 0.00000 0.00000
  224 0.00000 0.00000 0.00000
  225 0.00000 0.00000 0.00000
  226 0.00000 0.00000 0.00000
  227 0.00000 0.00000 0.00000
  228 0.00000 0.00000 0.00000
  229 0.00000 0.00000 0.00000
  230 0.00000 0.00000 0.00000
  231 0.00000 0.00000 0.00000
  232 0.00000 0.00000 0.00000
  233 0.00000 0.00000 0.00000
  234 0.00000 0.00000 0.00000
  235 0.00000 0.00000 0.00000
  236 0.00000 0.00000 0.00000
  237 0.00000 0.00000 0.00000
  238 0.00000 0.00000 0.00000
  239 0.00000 0.00000 0.00000
  240 0.00000 0.00000 0.00000
  241 0.00000 0.00000 0.00000
</Section>

newXOutput 170

<Section columns = "stress_xx | stress_yy | stress_xy">
  1 0.00000 0.00000 0.00000
  2 0.00000 0.00000 0.00000
  3 0.00000 0.00000 0.00000
  4 0.00000 0.00000 0.00000
  5 0.00000 0.00000 0.00000
  6 0.00000 0.00000 0.00000
  7 0.00000 0.00000 0.00000
  8 0.00000 0.00000 0.00000
  9 0.00000 0.00000 0.00000
  10 0.00000 0.00000 0.00000
  11 0.00000 0.00000 0.00000
  12 0.00000 0.00000 0.00000
  13 0.00000 0.00000 0.00000
  14 0.00000 0.00000 0.00000
  15 0.00000 0.00000 0.00000
  16 0.00000 0.00000 0.00000
  17 0.00000 0.00000 0.00000
  18 0.00000 0.00000 0.00000
  19 0.00000 0.00000 0.00000
  20 0.00000 0.00000 0.00000
  21 0.00000 0.00000 0.00000
  22 0.00000 0.00000 0.00000
  23 0.00000 0.00000 0.00000
  24 0.00000 0.00000 0.00000
  25 0.00000 0.00000 0.00000
  26 0.00000 0.00000 0.00000
  27 0.00000 0.00000 0.00000
  28 0.00000 0.00000 0.00000
  29 0.00000 0.00000 0.00000
  30 0.00000 0.00000 0.00000
  31 0.00000 0.00000 0.00000
  32 0.00000 0.00000 0.00000
  33 0.00000 0.00000 0.00000
  34 0.00000 0.00000 0.00000
  35 0.00000 0.00000 0.00000
  36 0.00000 0.00000 0.00000
  37 0.00000 0.00000 0.00000
  38 0.00000 0.00000 0.00000
  39 0.00000 0.00000 0.00000
  40 0.00000 0.00000 0.00000
  41 0.00000 0.00000 0.00000
  42 0.00000 0.00000 0.00000
  43 0.00000 0.00000 0.00000
  44 0.00000 0.00000 0.00000
  45 0.00000 0.00000 0.00000
  46 0.00000 0.00000 0.00000
  47 0.00000 0.00000 0.00000
  48 0.00000 0.00000 0.00000
  49 0.00000 0.00000 0.00000
  50 0.00000 0.00000 0.00000
  51 0.00000 0.00000 0.00000
  52 0.00000 0.00000 0.00000
  53 0.00000 0.00000 0.00000
  54 0.00000 0.00000 0.00000
  55 0.00000 0.00000 0.00000
  56 0.00000 0.00000 0.00000
  57 0.00000 0.00000 0.00000
  58 0.00000 0.00000 0.00000
  59 0.00000 0.00000 0.00000
  60 0.00000 0.00000 0.00000
  61 0.00000 0.00000 0.00000
  62 0.00000 0.00000 0.00000
  63 0.00000 0.00000 0.00000
  64 0.00000 0.00000 0.00000
  65 0.00000 0.00000 0.00000
  66 0.00000 0.00000 0.00000
  67 0.00000 0.00000 0.00000
  68 0.00000 0.00000 0.00000
  69 0.00000 0.00000 0.00000
  70 0.00000 0.00000 0.00000
  71 0.00000 0.00000 0.00000
  72 0.00000 0.00000 0.00000
  73 0.00000 0.00000 0.00000
  74 0.00000 0.00000 0.00000
  75 0.00000 0.00000 0.00000
  76 0.00000 0.00000 0.00000
  77 0.00000 0.00000 0.00000
  78 0.00000 0.00000 0.00000
  79 0.00000 0.00000 0.00000
  80 0.00000 0.00000 0.00000
  81 0.00000 0.00000 0.00000
  82 0.00000 0.00000 0.00000
  83 0.00000 0.00000 0.00000
  84 0.00000 0.00000 0.00000
  85 0.00000 0.00000 0.00000
  86 0.00000 0.00000 0.00000
  87 0.00000 0.00000 0.00000
  88 0.00000 0.00000 0.00000
  89 0.00000 0.00000 0.00000
  90 0.00000 0.00000 0.00000
  91 0.00000 0.00000 0.00000
  92 0.00000 0.00000 0.00000
  93 0.00000 0.00000 0.00000
  94 0.00000 0.00000 0.00000
  95 0.00000 0.00000 0.00000
  96 0.00000 0.00000 0.00000
  97 0.00000 0.00000 0.00000
  98 0.00000 0.00000 0.00000
  99 0.00000 0.00000 0.00000
  100 0.00000 0.00000 0.00000
  101 0.00000 0.00000 0.00000
  102 0.00000 0.00000 0.00000
  103 0.00000 0.00000 0.00000
  104 0.00000 0.00000 0.00000
  105 0.00000 0.00000 0.00000
  106 0.00000 0.00000 0.00000
  107 0.00000 0.00000 0.00000
  108 0.00000 0.00000 0.00000
  109 0.00000 0.00000 0.00000
  110 0.00000 0.00000 0.00000
  111 0.00000 0.00000 0.00000
  112 0.00000 0.00000 0.00000
  113 0.00000 0.00000 0.00000
  114 0.00000 0.00000 0.00000
  115 0.00000 0.00000 0.00000
  116 0.00000 0.00000 0.00000
  117 0.00000 0.00000 0.00000
  118 0.00000 0.00000 0.00000
  119 0.00000 0.00000 0.00000
  120 0.00000 0.00000 0.00000
  121 0.00000 0.00000 0.00000
  122 0.00000 0.00000 0.00000
  123 0.00000 0.00000 0.00000
  124 0.00000 0.00000 0.00000
  125 0.00000 0.00000 0.00000
  126 0.00000 0.00000 0.00000
  127 0.00000 0.00000 0.00000
  128 0.00000 0.00000 0.00000
  129 0.00000 0.00000 0.00000
  130 0.00000 0.00000 0.00000
  131 0.00000 0.00000 0.00000
  132 0.00000 0.00000 0.00000
  133 0.00000 0.00000 0.00000
  134 0.00000 0.00000 0.00000
  135 0.00000 0.00000 0.00000
  136 0.00000 0.00000 0.00000
  137 0.00000 0.00000 0.00000
  138 0.00000 0.00000 0.00000
  139 0.00000 0.00000 0.00000
  140 0.00000 0.00000 0.00000
  141 0.00000 0.00000 0.00000
  142 0.00000 0.00000 0.00000
  143 0.00000 0.00000 0.00000
  144 0.00000 0.00000 0.00000
  145 0.00000 0.00000 0.00000
  146 0.00000 0.00000 0.00000
  147 0.00000 0.00000 0.00000
  148 0.00000 0.00000 0.00000
  149 0.00000 0.00000 0.00000
  150 0.00000 0.00000 0.00000
  151 0.00000 0.00000 0.00000
  152 0.00000 0.00000 0.00000
  153 0.00000 0.00000 0.00000
  154 0.00000 0.00000 0.00000
  155 0.00000 0.00000 0.00000
  156 0.00000 0.00000 0.00000
  157 0.00000 0.00000 0.00000
  158 0.00000 0.00000 0.00000
  159 0.00000 0.00000 0.00000
  160 0.00000 0.00000 0.00000
  161 0.00000 0.00000 0.00000
  162 0.00000 0.00000 0.00000
  163 0.00000 0.00000 0.00000
  164 0.00000 0.00000 0.00000
  165 0.00000 0.00000 0.00000
  166 0.00000 0.00000 0.00000
  167 0.00000 0.00000 0.00000
  168 0.00000 0.00000 0.00000
  169 0.00000 0.00000 0.00000
  170 0.00000 0.00000 0.00000
  171 0.00000 0.00000 0.00000
  172 0.00000 0.00000 0.00000
  173 0.00000 0.00000 0.00000
  174 0.00000 0.00000 0.00000
  175 0.00000 0.00000 0.00000
  176 0.00000 0.00000 0.00000
  177 0.00000 0.00000 0.00000
  178 0.00000 0.00000 0.00000
  179 0.00000 0.00000 0.00000
  180 0.00000 0.00000 0.00000
  181 0.00000 0.00000 0.00000
  182 0.00000 0.00000 0.00000
  183 0.00000 0.00000 0.00000
  184 0.00000 0.00000 0.00000
  185 0.00000 0.00000 0.00000
  186 0.00000 0.00000 0.00000
  187 0.00000 0.00000 0.00000
  188 0.00000 0.00000 0.00000
  189 0.00000 0.00000 0.00000
  190 0.00000 0.00000 0.00000
  191 0.00000 0.00000 0.00000
  192 0.00000 0.00000 0.00000
  193 0.00000 0.00000 0.00000
  194 0.00000 0.00000 0.00000
  195 0.00000 0.00000 0.00000
  196 0.00000 0.00000 0.00000
  197 0.00000 0.00000 0.00000
  198 0.00000 0.00000 0.00000
  199 0.00000 0.00000 0.00000
  200 0.00000 0.00000 0.00000
  201 0.00000 0.00000 0.00000
  202 0.00000 0.00000 0.00000
  203 0.00000 0.00000 0.00000
  204 0.00000 0.00000 0.00000
  205 0.00000 0.00000 0.00000
  206 0.00000 0.00000 0.00000
  207 0.00000 0.00000 0.00000
  208 0.00000 0.00000 0.00000
  209 0.00000 0.00000 0.00000
  210 0.00000 0.00000 0.00000
  211 0.00000 0.00000 0.00000
  212 0.00000 0.00000 0.00000
  213 0.00000 0.00000 0.00000
  214 0.00000 0.00000 0.00000
  215 0.00000 0.00000 0.00000
  216 0.00000 0.00000 0.00000
  217 0.00000 0.00000 0.00000
  218 0.00000 0.00000 0.00000
  219 0.00000 0.00000 0.00000
  220 0.00000 0.00000 0.00000
  221 0.00000 0.00000 0.00000
  222 0.00000 0.00000 0.00000
  223 0.00000 0.00000 0.00000
  224 0.00000 0.00000 0.00000
  225 0.00000 0.00000 0.00000
  226 0.00000 0.00000 0.00000
  227 0.00000 0.00000 0.00000
  228 0.00000 0.00000 0.00000
  229 0.00000 0.00000 0.00000
  230 0.00000 0.00000 0.00000
  231 0.00000 0.00000 0.00000
  232 0.00000 0.00000 0.00000
  233 0.00000 0.00000 0.00000
  234 0.00000 0.00000 0.00000
  235 0.00000 0.00000 0.00000
  236 0.00000 0.00000 0.00000
  237 0.00000 0.00000 0.00000
  238 0.00000 0.00000 0.00000
  239 0.00000 0.00000 0.00000
  240 0.00000 0.00000 0.00000
  241 0.00000 0.00000 0.00000
</Section>

newXOutput 171

<Section columns = "stress_xx | stress_yy | stress_xy">
  1 0.00000 0.00000 0.00000
  2 0.00000 0.00000 0.00000
  3 0.00000 0.00000 0.00000
  4 0.00000 0.00000 0.00000
  5 0.00000 0.00000 0.00000
  6 0.00000 0.00000 0.00000
  7 0.00000 0.00000 0.00000
  8 0.00000 0.00000 0.00000
  9 0.00000 0.00000 0.00000
  10 0.00000 0.00000 0.00000
  11 0.00000 0.00000 0.00000
  12 0.00000 0.00000 0.00000
  13 0.00000 0.00000 0.00000
  14 0.00000 0.00000 0.00000
  15 0.00000 0.00000 0.00000
  16 0.00000 0.00000 0.00000
  17 0.00000 0.00000 0.00000
  18 0.00000 0.00000 0.00000
  19 0.00000 0.00000 0.00000
  20 0.00000 0.00000 0.00000
  21 0.00000 0.00000 0.00000
  22 0.00000 0.00000 0.00000
  23 0.00000 0.00000 0.00000
  24 0.00000 0.00000 0.00000
  25 0.00000 0.00000 0.00000
  26 0.00000 0.00000 0.00000
  27 0.00000 0.00000 0.00000
  28 0.00000 0.00000 0.00000
  29 0.00000 0.00000 0.00000
  30 0.00000 0.00000 0.00000
  31 0.00000 0.00000 0.00000
  32 0.00000 0.00000 0.00000
  33 0.00000 0.00000 0.00000
  34 0.00000 0.00000 0.00000
  35 0.00000 0.00000 0.00000
  36 0.00000 0.00000 0.00000
  37 0.00000 0.00000 0.00000
  38 0.00000 0.00000 0.00000
  39 0.00000 0.00000 0.00000
  40 0.00000 0.00000 0.00000
  41 0.00000 0.00000 0.00000
  42 0.00000 0.00000 0.00000
  43 0.00000 0.00000 0.00000
  44 0.00000 0.00000 0.00000
  45 0.00000 0.00000 0.00000
  46 0.00000 0.00000 0.00000
  47 0.00000 0.00000 0.00000
  48 0.00000 0.00000 0.00000
  49 0.00000 0.00000 0.00000
  50 0.00000 0.00000 0.00000
  51 0.00000 0.00000 0.00000
  52 0.00000 0.00000 0.00000
  53 0.00000 0.00000 0.00000
  54 0.00000 0.00000 0.00000
  55 0.00000 0.00000 0.00000
  56 0.00000 0.00000 0.00000
  57 0.00000 0.00000 0.00000
  58 0.00000 0.00000 0.00000
  59 0.00000 0.00000 0.00000
  60 0.00000 0.00000 0.00000
  61 0.00000 0.00000 0.00000
  62 0.00000 0.00000 0.00000
  63 0.00000 0.00000 0.00000
  64 0.00000 0.00000 0.00000
  65 0.00000 0.00000 0.00000
  66 0.00000 0.00000 0.00000
  67 0.00000 0.00000 0.00000
  68 0.00000 0.00000 0.00000
  69 0.00000 0.00000 0.00000
  70 0.00000 0.00000 0.00000
  71 0.00000 0.00000 0.00000
  72 0.00000 0.00000 0.00000
  73 0.00000 0.00000 0.00000
  74 0.00000 0.00000 0.00000
  75 0.00000 0.00000 0.00000
  76 0.00000 0.00000 0.00000
  77 0.00000 0.00000 0.00000
  78 0.00000 0.00000 0.00000
  79 0.00000 0.00000 0.00000
  80 0.00000 0.00000 0.00000
  81 0.00000 0.00000 0.00000
  82 0.00000 0.00000 0.00000
  83 0.00000 0.00000 0.00000
  84 0.00000 0.00000 0.00000
  85 0.00000 0.00000 0.00000
  86 0.00000 0.00000 0.00000
  87 0.00000 0.00000 0.00000
  88 0.00000 0.00000 0.00000
  89 0.00000 0.00000 0.00000
  90 0.00000 0.00000 0.00000
  91 0.00000 0.00000 0.00000
  92 0.00000 0.00000 0.00000
  93 0.00000 0.00000 0.00000
  94 0.00000 0.00000 0.00000
  95 0.00000 0.00000 0.00000
  96 0.00000 0.00000 0.00000
  97 0.00000 0.00000 0.00000
  98 0.00000 0.00000 0.00000
  99 0.00000 0.00000 0.00000
  100 0.00000 0.00000 0.00000
  101 0.00000 0.00000 0.00000
  102 0.00000 0.00000 0.00000
  103 0.00000 0.00000 0.00000
  104 0.00000 0.00000 0.00000
  105 0.00000 0.00000 0.00000
  106 0.00000 0.00000 0.00000
  107 0.00000 0.00000 0.00000
  108 0.00000 0.00000 0.00000
  109 0.00000 0.00000 0.00000
  110 0.00000 0.00000 0.00000
  111 0.00000 0.00000 0.00000
  112 0.00000 0.00000 0.00000
  113 0.00000 0.00000 0.00000
  114 0.00000 0.00000 0.00000
  115 0.00000 0.00000 0.00000
  116 0.00000 0.00000 0.00000
  117 0.00000 0.00000 0.00000
  118 0.00000 0.00000 0.00000
  119 0.00000 0.00000 0.00000
  120 0.00000 0.00000 0.00000
  121 0.00000 0.00000 0.00000
  122 0.00000 0.00000 0.00000
  123 0.00000 0.00000 0.00000
  124 0.00000 0.00000 0.00000
  125 0.00000 0.00000 0.00000
  126 0.00000 0.00000 0.00000
  127 0.00000 0.00000 0.00000
  128 0.00000 0.00000 0.00000
  129 0.00000 0.00000 0.00000
  130 0.00000 0.00000 0.00000
  131 0.00000 0.00000 0.00000
  132 0.00000 0.00000 0.00000
  133 0.00000 0.00000 0.00000
  134 0.00000 0.00000 0.00000
  135 0.00000 0.00000 0.00000
  136 0.00000 0.00000 0.00000
  137 0.00000 0.00000 0.00000
  138 0.00000 0.00000 0.00000
  139 0.00000 0.00000 0.00000
  140 0.00000 0.00000 0.00000
  141 0.00000 0.00000 0.00000
  142 0.00000 0.00000 0.00000
  143 0.00000 0.00000 0.00000
  144 0.00000 0.00000 0.00000
  145 0.00000 0.00000 0.00000
  146 0.00000 0.00000 0.00000
  147 0.00000 0.00000 0.00000
  148 0.00000 0.00000 0.00000
  149 0.00000 0.00000 0.00000
  150 0.00000 0.00000 0.00000
  151 0.00000 0.00000 0.00000
  152 0.00000 0.00000 0.00000
  153 0.00000 0.00000 0.00000
  154 0.00000 0.00000 0.00000
  155 0.00000 0.00000 0.00000
  156 0.00000 0.00000 0.00000
  157 0.00000 0.00000 0.00000
  158 0.00000 0.00000 0.00000
  159 0.00000 0.00000 0.00000
  160 0.00000 0.00000 0.00000
  161 0.00000 0.00000 0.00000
  162 0.00000 0.00000 0.00000
  163 0.00000 0.00000 0.00000
  164 0.00000 0.00000 0.00000
  165 0.00000 0.00000 0.00000
  166 0.00000 0.00000 0.00000
  167 0.00000 0.00000 0.00000
  168 0.00000 0.00000 0.00000
  169 0.00000 0.00000 0.00000
  170 0.00000 0.00000 0.00000
  171 0.00000 0.00000 0.00000
  172 0.00000 0.00000 0.00000
  173 0.00000 0.00000 0.00000
  174 0.00000 0.00000 0.00000
  175 0.00000 0.00000 0.00000
  176 0.00000 0.00000 0.00000
  177 0.00000 0.00000 0.00000
  178 0.00000 0.00000 0.00000
  179 0.00000 0.00000 0.00000
  180 0.00000 0.00000 0.00000
  181 0.00000 0.00000 0.00000
  182 0.00000 0.00000 0.00000
  183 0.00000 0.00000 0.00000
  184 0.00000 0.00000 0.00000
  185 0.00000 0.00000 0.00000
  186 0.00000 0.00000 0.00000
  187 0.00000 0.00000 0.00000
  188 0.00000 0.00000 0.00000
  189 0.00000 0.00000 0.00000
  190 0.00000 0.00000 0.00000
  191 0.00000 0.00000 0.00000
  192 0.00000 0.00000 0.00000
  193 0.00000 0.00000 0.00000
  194 0.00000 0.00000 0.00000
  195 0.00000 0.00000 0.00000
  196 0.00000 0.00000 0.00000
  197 0.00000 0.00000 0.00000
  198 0.00000 0.00000 0.00000
  199 0.00000 0.00000 0.00000
  200 0.00000 0.00000 0.00000
  201 0.00000 0.00000 0.00000
  202 0.00000 0.00000 0.00000
  203 0.00000 0.00000 0.00000
  204 0.00000 0.00000 0.00000
  205 0.00000 0.00000 0.00000
  206 0.00000 0.00000 0.00000
  207 0.00000 0.00000 0.00000
  208 0.00000 0.00000 0.00000
  209 0.00000 0.00000 0.00000
  210 0.00000 0.00000 0.00000
  211 0.00000 0.00000 0.00000
  212 0.00000 0.00000 0.00000
  213 0.00000 0.00000 0.00000
  214 0.00000 0.00000 0.00000
  215 0.00000 0.00000 0.00000
  216 0.00000 0.00000 0.00000
  217 0.00000 0.00000 0.00000
  218 0.00000 0.00000 0.00000
  219 0.00000 0.00000 0.00000
  220 0.00000 0.00000 0.00000
  221 0.00000 0.00000 0.00000
  222 0.00000 0.00000 0.00000
  223 0.00000 0.00000 0.00000
  224 0.00000 0.00000 0.00000
  225 0.00000 0.00000 0.00000
  226 0.00000 0.00000 0.00000
  227 0.00000 0.00000 0.00000
  228 0.00000 0.00000 0.00000
  229 0.00000 0.00000 0.00000
  230 0.00000 0.00000 0.00000
  231 0.00000 0.00000 0.00000
  232 0.00000 0.00000 0.00000
  233 0.00000 0.00000 0.00000
  234 0.00000 0.00000 0.00000
  235 0.00000 0.00000 0.00000
  236 0.00000 0.00000 0.00000
  237 0.00000 0.00000 0.00000
  238 0.00000 0.00000 0.00000
  239 0.00000 0.00000 0.00000
  240 0.00000 0.00000 0.00000
  241 0.00000 0.00000 0.00000
</Section>

newXOutput 172

<Section columns = "stress_xx | stress_yy | stress_xy">
  1 0.00000 0.00000 0.00000
  2 0.00000 0.00000 0.00000
  3 0.00000 0.00000 0.00000
  4 0.00000 0.00000 0.00000
  5 0.00000 0.00000 0.00000
  6 0.00000 0.00000 0.00000
  7 0.00000 0.00000 0.00000
  8 0.00000 0.00000 0.00000
  9 0.00000 0.00000 0.00000
  10 0.00000 0.00000 0.00000
  11 0.00000 0.00000 0.00000
  12 0.00000 0.00000 0.00000
  13 0.00000 0.00000 0.00000
  14 0.00000 0.00000 0.00000
  15 0.00000 0.00000 0.00000
  16 0.00000 0.00000 0.00000
  17 0.00000 0.00000 0.00000
  18 0.00000 0.00000 0.00000
  19 0.00000 0.00000 0.00000
  20 0.00000 0.00000 0.00000
  21 0.00000 0.00000 0.00000
  22 0.00000 0.00000 0.00000
  23 0.00000 0.00000 0.00000
  24 0.00000 0.00000 0.00000
  25 0.00000 0.00000 0.00000
  26 0.00000 0.00000 0.00000
  27 0.00000 0.00000 0.00000
  28 0.00000 0.00000 0.00000
  29 0.00000 0.00000 0.00000
  30 0.00000 0.00000 0.00000
  31 0.00000 0.00000 0.00000
  32 0.00000 0.00000 0.00000
  33 0.00000 0.00000 0.00000
  34 0.00000 0.00000 0.00000
  35 0.00000 0.00000 0.00000
  36 0.00000 0.00000 0.00000
  37 0.00000 0.00000 0.00000
  38 0.00000 0.00000 0.00000
  39 0.00000 0.00000 0.00000
  40 0.00000 0.00000 0.00000
  41 0.00000 0.00000 0.00000
  42 0.00000 0.00000 0.00000
  43 0.00000 0.00000 0.00000
  44 0.00000 0.00000 0.00000
  45 0.00000 0.00000 0.00000
  46 0.00000 0.00000 0.00000
  47 0.00000 0.00000 0.00000
  48 0.00000 0.00000 0.00000
  49 0.00000 0.00000 0.00000
  50 0.00000 0.00000 0.00000
  51 0.00000 0.00000 0.00000
  52 0.00000 0.00000 0.00000
  53 0.00000 0.00000 0.00000
  54 0.00000 0.00000 0.00000
  55 0.00000 0.00000 0.00000
  56 0.00000 0.00000 0.00000
  57 0.00000 0.00000 0.00000
  58 0.00000 0.00000 0.00000
  59 0.00000 0.00000 0.00000
  60 0.00000 0.00000 0.00000
  61 0.00000 0.00000 0.00000
  62 0.00000 0.00000 0.00000
  63 0.00000 0.00000 0.00000
  64 0.00000 0.00000 0.00000
  65 0.00000 0.00000 0.00000
  66 0.00000 0.00000 0.00000
  67 0.00000 0.00000 0.00000
  68 0.00000 0.00000 0.00000
  69 0.00000 0.00000 0.00000
  70 0.00000 0.00000 0.00000
  71 0.00000 0.00000 0.00000
  72 0.00000 0.00000 0.00000
  73 0.00000 0.00000 0.00000
  74 0.00000 0.00000 0.00000
  75 0.00000 0.00000 0.00000
  76 0.00000 0.00000 0.00000
  77 0.00000 0.00000 0.00000
  78 0.00000 0.00000 0.00000
  79 0.00000 0.00000 0.00000
  80 0.00000 0.00000 0.00000
  81 0.00000 0.00000 0.00000
  82 0.00000 0.00000 0.00000
  83 0.00000 0.00000 0.00000
  84 0.00000 0.00000 0.00000
  85 0.00000 0.00000 0.00000
  86 0.00000 0.00000 0.00000
  87 0.00000 0.00000 0.00000
  88 0.00000 0.00000 0.00000
  89 0.00000 0.00000 0.00000
  90 0.00000 0.00000 0.00000
  91 0.00000 0.00000 0.00000
  92 0.00000 0.00000 0.00000
  93 0.00000 0.00000 0.00000
  94 0.00000 0.00000 0.00000
  95 0.00000 0.00000 0.00000
  96 0.00000 0.00000 0.00000
  97 0.00000 0.00000 0.00000
  98 0.00000 0.00000 0.00000
  99 0.00000 0.00000 0.00000
  100 0.00000 0.00000 0.00000
  101 0.00000 0.00000 0.00000
  102 0.00000 0.00000 0.00000
  103 0.00000 0.00000 0.00000
  104 0.00000 0.00000 0.00000
  105 0.00000 0.00000 0.00000
  106 0.00000 0.00000 0.00000
  107 0.00000 0.00000 0.00000
  108 0.00000 0.00000 0.00000
  109 0.00000 0.00000 0.00000
  110 0.00000 0.00000 0.00000
  111 0.00000 0.00000 0.00000
  112 0.00000 0.00000 0.00000
  113 0.00000 0.00000 0.00000
  114 0.00000 0.00000 0.00000
  115 0.00000 0.00000 0.00000
  116 0.00000 0.00000 0.00000
  117 0.00000 0.00000 0.00000
  118 0.00000 0.00000 0.00000
  119 0.00000 0.00000 0.00000
  120 0.00000 0.00000 0.00000
  121 0.00000 0.00000 0.00000
  122 0.00000 0.00000 0.00000
  123 0.00000 0.00000 0.00000
  124 0.00000 0.00000 0.00000
  125 0.00000 0.00000 0.00000
  126 0.00000 0.00000 0.00000
  127 0.00000 0.00000 0.00000
  128 0.00000 0.00000 0.00000
  129 0.00000 0.00000 0.00000
  130 0.00000 0.00000 0.00000
  131 0.00000 0.00000 0.00000
  132 0.00000 0.00000 0.00000
  133 0.00000 0.00000 0.00000
  134 0.00000 0.00000 0.00000
  135 0.00000 0.00000 0.00000
  136 0.00000 0.00000 0.00000
  137 0.00000 0.00000 0.00000
  138 0.00000 0.00000 0.00000
  139 0.00000 0.00000 0.00000
  140 0.00000 0.00000 0.00000
  141 0.00000 0.00000 0.00000
  142 0.00000 0.00000 0.00000
  143 0.00000 0.00000 0.00000
  144 0.00000 0.00000 0.00000
  145 0.00000 0.00000 0.00000
  146 0.00000 0.00000 0.00000
  147 0.00000 0.00000 0.00000
  148 0.00000 0.00000 0.00000
  149 0.00000 0.00000 0.00000
  150 0.00000 0.00000 0.00000
  151 0.00000 0.00000 0.00000
  152 0.00000 0.00000 0.00000
  153 0.00000 0.00000 0.00000
  154 0.00000 0.00000 0.00000
  155 0.00000 0.00000 0.00000
  156 0.00000 0.00000 0.00000
  157 0.00000 0.00000 0.00000
  158 0.00000 0.00000 0.00000
  159 0.00000 0.00000 0.00000
  160 0.00000 0.00000 0.00000
  161 0.00000 0.00000 0.00000
  162 0.00000 0.00000 0.00000
  163 0.00000 0.00000 0.00000
  164 0.00000 0.00000 0.00000
  165 0.00000 0.00000 0.00000
  166 0.00000 0.00000 0.00000
  167 0.00000 0.00000 0.00000
  168 0.00000 0.00000 0.00000
  169 0.00000 0.00000 0.00000
  170 0.00000 0.00000 0.00000
  171 0.00000 0.00000 0.00000
  172 0.00000 0.00000 0.00000
  173 0.00000 0.00000 0.00000
  174 0.00000 0.00000 0.00000
  175 0.00000 0.00000 0.00000
  176 0.00000 0.00000 0.00000
  177 0.00000 0.00000 0.00000
  178 0.00000 0.00000 0.00000
  179 0.00000 0.00000 0.00000
  180 0.00000 0.00000 0.00000
  181 0.00000 0.00000 0.00000
  182 0.00000 0.00000 0.00000
  183 0.00000 0.00000 0.00000
  184 0.00000 0.00000 0.00000
  185 0.00000 0.00000 0.00000
  186 0.00000 0.00000 0.00000
  187 0.00000 0.00000 0.00000
  188 0.00000 0.00000 0.00000
  189 0.00000 0.00000 0.00000
  190 0.00000 0.00000 0.00000
  191 0.00000 0.00000 0.00000
  192 0.00000 0.00000 0.00000
  193 0.00000 0.00000 0.00000
  194 0.00000 0.00000 0.00000
  195 0.00000 0.00000 0.00000
  196 0.00000 0.00000 0.00000
  197 0.00000 0.00000 0.00000
  198 0.00000 0.00000 0.00000
  199 0.00000 0.00000 0.00000
  200 0.00000 0.00000 0.00000
  201 0.00000 0.00000 0.00000
  202 0.00000 0.00000 0.00000
  203 0.00000 0.00000 0.00000
  204 0.00000 0.00000 0.00000
  205 0.00000 0.00000 0.00000
  206 0.00000 0.00000 0.00000
  207 0.00000 0.00000 0.00000
  208 0.00000 0.00000 0.00000
  209 0.00000 0.00000 0.00000
  210 0.00000 0.00000 0.00000
  211 0.00000 0.00000 0.00000
  212 0.00000 0.00000 0.00000
  213 0.00000 0.00000 0.00000
  214 0.00000 0.00000 0.00000
  215 0.00000 0.00000 0.00000
  216 0.00000 0.00000 0.00000
  217 0.00000 0.00000 0.00000
  218 0.00000 0.00000 0.00000
  219 0.00000 0.00000 0.00000
  220 0.00000 0.00000 0.00000
  221 0.00000 0.00000 0.00000
  222 0.00000 0.00000 0.00000
  223 0.00000 0.00000 0.00000
  224 0.00000 0.00000 0.00000
  225 0.00000 0.00000 0.00000
  226 0.00000 0.00000 0.00000
  227 0.00000 0.00000 0.00000
  228 0.00000 0.00000 0.00000
  229 0.00000 0.00000 0.00000
  230 0.00000 0.00000 0.00000
  231 0.00000 0.00000 0.00000
  232 0.00000 0.00000 0.00000
  233 0.00000 0.00000 0.00000
  234 0.00000 0.00000 0.00000
  235 0.00000 0.00000 0.00000
  236 0.00000 0.00000 0.00000
  237 0.00000 0.00000 0.00000
  238 0.00000 0.00000 0.00000
  239 0.00000 0.00000 0.00000
  240 0.00000 0.00000 0.00000
  241 0.00000 0.00000 0.00000
</Section>

newXOutput 173

<Section columns = "stress_xx | stress_yy | stress_xy">
  1 0.00000 0.00000 0.00000
  2 0.00000 0.00000 0.00000
  3 0.00000 0.00000 0.00000
  4 0.00000 0.00000 0.00000
  5 0.00000 0.00000 0.00000
  6 0.00000 0.00000 0.00000
  7 0.00000 0.00000 0.00000
  8 0.00000 0.00000 0.00000
  9 0.00000 0.00000 0.00000
  10 0.00000 0.00000 0.00000
  11 0.00000 0.00000 0.00000
  12 0.00000 0.00000 0.00000
  13 0.00000 0.00000 0.00000
  14 0.00000 0.00000 0.00000
  15 0.00000 0.00000 0.00000
  16 0.00000 0.00000 0.00000
  17 0.00000 0.00000 0.00000
  18 0.00000 0.00000 0.00000
  19 0.00000 0.00000 0.00000
  20 0.00000 0.00000 0.00000
  21 0.00000 0.00000 0.00000
  22 0.00000 0.00000 0.00000
  23 0.00000 0.00000 0.00000
  24 0.00000 0.00000 0.00000
  25 0.00000 0.00000 0.00000
  26 0.00000 0.00000 0.00000
  27 0.00000 0.00000 0.00000
  28 0.00000 0.00000 0.00000
  29 0.00000 0.00000 0.00000
  30 0.00000 0.00000 0.00000
  31 0.00000 0.00000 0.00000
  32 0.00000 0.00000 0.00000
  33 0.00000 0.00000 0.00000
  34 0.00000 0.00000 0.00000
  35 0.00000 0.00000 0.00000
  36 0.00000 0.00000 0.00000
  37 0.00000 0.00000 0.00000
  38 0.00000 0.00000 0.00000
  39 0.00000 0.00000 0.00000
  40 0.00000 0.00000 0.00000
  41 0.00000 0.00000 0.00000
  42 0.00000 0.00000 0.00000
  43 0.00000 0.00000 0.00000
  44 0.00000 0.00000 0.00000
  45 0.00000 0.00000 0.00000
  46 0.00000 0.00000 0.00000
  47 0.00000 0.00000 0.00000
  48 0.00000 0.00000 0.00000
  49 0.00000 0.00000 0.00000
  50 0.00000 0.00000 0.00000
  51 0.00000 0.00000 0.00000
  52 0.00000 0.00000 0.00000
  53 0.00000 0.00000 0.00000
  54 0.00000 0.00000 0.00000
  55 0.00000 0.00000 0.00000
  56 0.00000 0.00000 0.00000
  57 0.00000 0.00000 0.00000
  58 0.00000 0.00000 0.00000
  59 0.00000 0.00000 0.00000
  60 0.00000 0.00000 0.00000
  61 0.00000 0.00000 0.00000
  62 0.00000 0.00000 0.00000
  63 0.00000 0.00000 0.00000
  64 0.00000 0.00000 0.00000
  65 0.00000 0.00000 0.00000
  66 0.00000 0.00000 0.00000
  67 0.00000 0.00000 0.00000
  68 0.00000 0.00000 0.00000
  69 0.00000 0.00000 0.00000
  70 0.00000 0.00000 0.00000
  71 0.00000 0.00000 0.00000
  72 0.00000 0.00000 0.00000
  73 0.00000 0.00000 0.00000
  74 0.00000 0.00000 0.00000
  75 0.00000 0.00000 0.00000
  76 0.00000 0.00000 0.00000
  77 0.00000 0.00000 0.00000
  78 0.00000 0.00000 0.00000
  79 0.00000 0.00000 0.00000
  80 0.00000 0.00000 0.00000
  81 0.00000 0.00000 0.00000
  82 0.00000 0.00000 0.00000
  83 0.00000 0.00000 0.00000
  84 0.00000 0.00000 0.00000
  85 0.00000 0.00000 0.00000
  86 0.00000 0.00000 0.00000
  87 0.00000 0.00000 0.00000
  88 0.00000 0.00000 0.00000
  89 0.00000 0.00000 0.00000
  90 0.00000 0.00000 0.00000
  91 0.00000 0.00000 0.00000
  92 0.00000 0.00000 0.00000
  93 0.00000 0.00000 0.00000
  94 0.00000 0.00000 0.00000
  95 0.00000 0.00000 0.00000
  96 0.00000 0.00000 0.00000
  97 0.00000 0.00000 0.00000
  98 0.00000 0.00000 0.00000
  99 0.00000 0.00000 0.00000
  100 0.00000 0.00000 0.00000
  101 0.00000 0.00000 0.00000
  102 0.00000 0.00000 0.00000
  103 0.00000 0.00000 0.00000
  104 0.00000 0.00000 0.00000
  105 0.00000 0.00000 0.00000
  106 0.00000 0.00000 0.00000
  107 0.00000 0.00000 0.00000
  108 0.00000 0.00000 0.00000
  109 0.00000 0.00000 0.00000
  110 0.00000 0.00000 0.00000
  111 0.00000 0.00000 0.00000
  112 0.00000 0.00000 0.00000
  113 0.00000 0.00000 0.00000
  114 0.00000 0.00000 0.00000
  115 0.00000 0.00000 0.00000
  116 0.00000 0.00000 0.00000
  117 0.00000 0.00000 0.00000
  118 0.00000 0.00000 0.00000
  119 0.00000 0.00000 0.00000
  120 0.00000 0.00000 0.00000
  121 0.00000 0.00000 0.00000
  122 0.00000 0.00000 0.00000
  123 0.00000 0.00000 0.00000
  124 0.00000 0.00000 0.00000
  125 0.00000 0.00000 0.00000
  126 0.00000 0.00000 0.00000
  127 0.00000 0.00000 0.00000
  128 0.00000 0.00000 0.00000
  129 0.00000 0.00000 0.00000
  130 0.00000 0.00000 0.00000
  131 0.00000 0.00000 0.00000
  132 0.00000 0.00000 0.00000
  133 0.00000 0.00000 0.00000
  134 0.00000 0.00000 0.00000
  135 0.00000 0.00000 0.00000
  136 0.00000 0.00000 0.00000
  137 0.00000 0.00000 0.00000
  138 0.00000 0.00000 0.00000
  139 0.00000 0.00000 0.00000
  140 0.00000 0.00000 0.00000
  141 0.00000 0.00000 0.00000
  142 0.00000 0.00000 0.00000
  143 0.00000 0.00000 0.00000
  144 0.00000 0.00000 0.00000
  145 0.00000 0.00000 0.00000
  146 0.00000 0.00000 0.00000
  147 0.00000 0.00000 0.00000
  148 0.00000 0.00000 0.00000
  149 0.00000 0.00000 0.00000
  150 0.00000 0.00000 0.00000
  151 0.00000 0.00000 0.00000
  152 0.00000 0.00000 0.00000
  153 0.00000 0.00000 0.00000
  154 0.00000 0.00000 0.00000
  155 0.00000 0.00000 0.00000
  156 0.00000 0.00000 0.00000
  157 0.00000 0.00000 0.00000
  158 0.00000 0.00000 0.00000
  159 0.00000 0.00000 0.00000
  160 0.00000 0.00000 0.00000
  161 0.00000 0.00000 0.00000
  162 0.00000 0.00000 0.00000
  163 0.00000 0.00000 0.00000
  164 0.00000 0.00000 0.00000
  165 0.00000 0.00000 0.00000
  166 0.00000 0.00000 0.00000
  167 0.00000 0.00000 0.00000
  168 0.00000 0.00000 0.00000
  169 0.00000 0.00000 0.00000
  170 0.00000 0.00000 0.00000
  171 0.00000 0.00000 0.00000
  172 0.00000 0.00000 0.00000
  173 0.00000 0.00000 0.00000
  174 0.00000 0.00000 0.00000
  175 0.00000 0.00000 0.00000
  176 0.00000 0.00000 0.00000
  177 0.00000 0.00000 0.00000
  178 0.00000 0.00000 0.00000
  179 0.00000 0.00000 0.00000
  180 0.00000 0.00000 0.00000
  181 0.00000 0.00000 0.00000
  182 0.00000 0.00000 0.00000
  183 0.00000 0.00000 0.00000
  184 0.00000 0.00000 0.00000
  185 0.00000 0.00000 0.00000
  186 0.00000 0.00000 0.00000
  187 0.00000 0.00000 0.00000
  188 0.00000 0.00000 0.00000
  189 0.00000 0.00000 0.00000
  190 0.00000 0.00000 0.00000
  191 0.00000 0.00000 0.00000
  192 0.00000 0.00000 0.00000
  193 0.00000 0.00000 0.00000
  194 0.00000 0.00000 0.00000
  195 0.00000 0.00000 0.00000
  196 0.00000 0.00000 0.00000
  197 0.00000 0.00000 0.00000
  198 0.00000 0.00000 0.00000
  199 0.00000 0.00000 0.00000
  200 0.00000 0.00000 0.00000
  201 0.00000 0.00000 0.00000
  202 0.00000 0.00000 0.00000
  203 0.00000 0.00000 0.00000
  204 0.00000 0.00000 0.00000
  205 0.00000 0.00000 0.00000
  206 0.00000 0.00000 0.00000
  207 0.00000 0.00000 0.00000
  208 0.00000 0.00000 0.00000
  209 0.00000 0.00000 0.00000
  210 0.00000 0.00000 0.00000
  211 0.00000 0.00000 0.00000
  212 0.00000 0.00000 0.00000
  213 0.00000 0.00000 0.00000
  214 0.00000 0.00000 0.00000
  215 0.00000 0.00000 0.00000
  216 0.00000 0.00000 0.00000
  217 0.00000 0.00000 0.00000
  218 0.00000 0.00000 0.00000
  219 0.00000 0.00000 0.00000
  220 0.00000 0.00000 0.00000
  221 0.00000 0.00000 0.00000
  222 0.00000 0.00000 0.00000
  223 0.00000 0.00000 0.00000
  224 0.00000 0.00000 0.00000
  225 0.00000 0.00000 0.00000
  226 0.00000 0.00000 0.00000
  227 0.00000 0.00000 0.00000
  228 0.00000 0.00000 0.00000
  229 0.00000 0.00000 0.00000
  230 0.00000 0.00000 0.00000
  231 0.00000 0.00000 0.00000
  232 0.00000 0.00000 0.00000
  233 0.00000 0.00000 0.00000
  234 0.00000 0.00000 0.00000
  235 0.00000 0.00000 0.00000
  236 0.00000 0.00000 0.00000
  237 0.00000 0.00000 0.00000
  238 0.00000 0.00000 0.00000
  239 0.00000 0.00000 0.00000
  240 0.00000 0.00000 0.00000
  241 0.00000 0.00000 0.00000
</Section>

newXOutput 174

<Section columns = "stress_xx | stress_yy | stress_xy">
  1 0.00000 0.00000 0.00000
  2 0.00000 0.00000 0.00000
  3 0.00000 0.00000 0.00000
  4 0.00000 0.00000 0.00000
  5 0.00000 0.00000 0.00000
  6 0.00000 0.00000 0.00000
  7 0.00000 0.00000 0.00000
  8 0.00000 0.00000 0.00000
  9 0.00000 0.00000 0.00000
  10 0.00000 0.00000 0.00000
  11 0.00000 0.00000 0.00000
  12 0.00000 0.00000 0.00000
  13 0.00000 0.00000 0.00000
  14 0.00000 0.00000 0.00000
  15 0.00000 0.00000 0.00000
  16 0.00000 0.00000 0.00000
  17 0.00000 0.00000 0.00000
  18 0.00000 0.00000 0.00000
  19 0.00000 0.00000 0.00000
  20 0.00000 0.00000 0.00000
  21 0.00000 0.00000 0.00000
  22 0.00000 0.00000 0.00000
  23 0.00000 0.00000 0.00000
  24 0.00000 0.00000 0.00000
  25 0.00000 0.00000 0.00000
  26 0.00000 0.00000 0.00000
  27 0.00000 0.00000 0.00000
  28 0.00000 0.00000 0.00000
  29 0.00000 0.00000 0.00000
  30 0.00000 0.00000 0.00000
  31 0.00000 0.00000 0.00000
  32 0.00000 0.00000 0.00000
  33 0.00000 0.00000 0.00000
  34 0.00000 0.00000 0.00000
  35 0.00000 0.00000 0.00000
  36 0.00000 0.00000 0.00000
  37 0.00000 0.00000 0.00000
  38 0.00000 0.00000 0.00000
  39 0.00000 0.00000 0.00000
  40 0.00000 0.00000 0.00000
  41 0.00000 0.00000 0.00000
  42 0.00000 0.00000 0.00000
  43 0.00000 0.00000 0.00000
  44 0.00000 0.00000 0.00000
  45 0.00000 0.00000 0.00000
  46 0.00000 0.00000 0.00000
  47 0.00000 0.00000 0.00000
  48 0.00000 0.00000 0.00000
  49 0.00000 0.00000 0.00000
  50 0.00000 0.00000 0.00000
  51 0.00000 0.00000 0.00000
  52 0.00000 0.00000 0.00000
  53 0.00000 0.00000 0.00000
  54 0.00000 0.00000 0.00000
  55 0.00000 0.00000 0.00000
  56 0.00000 0.00000 0.00000
  57 0.00000 0.00000 0.00000
  58 0.00000 0.00000 0.00000
  59 0.00000 0.00000 0.00000
  60 0.00000 0.00000 0.00000
  61 0.00000 0.00000 0.00000
  62 0.00000 0.00000 0.00000
  63 0.00000 0.00000 0.00000
  64 0.00000 0.00000 0.00000
  65 0.00000 0.00000 0.00000
  66 0.00000 0.00000 0.00000
  67 0.00000 0.00000 0.00000
  68 0.00000 0.00000 0.00000
  69 0.00000 0.00000 0.00000
  70 0.00000 0.00000 0.00000
  71 0.00000 0.00000 0.00000
  72 0.00000 0.00000 0.00000
  73 0.00000 0.00000 0.00000
  74 0.00000 0.00000 0.00000
  75 0.00000 0.00000 0.00000
  76 0.00000 0.00000 0.00000
  77 0.00000 0.00000 0.00000
  78 0.00000 0.00000 0.00000
  79 0.00000 0.00000 0.00000
  80 0.00000 0.00000 0.00000
  81 0.00000 0.00000 0.00000
  82 0.00000 0.00000 0.00000
  83 0.00000 0.00000 0.00000
  84 0.00000 0.00000 0.00000
  85 0.00000 0.00000 0.00000
  86 0.00000 0.00000 0.00000
  87 0.00000 0.00000 0.00000
  88 0.00000 0.00000 0.00000
  89 0.00000 0.00000 0.00000
  90 0.00000 0.00000 0.00000
  91 0.00000 0.00000 0.00000
  92 0.00000 0.00000 0.00000
  93 0.00000 0.00000 0.00000
  94 0.00000 0.00000 0.00000
  95 0.00000 0.00000 0.00000
  96 0.00000 0.00000 0.00000
  97 0.00000 0.00000 0.00000
  98 0.00000 0.00000 0.00000
  99 0.00000 0.00000 0.00000
  100 0.00000 0.00000 0.00000
  101 0.00000 0.00000 0.00000
  102 0.00000 0.00000 0.00000
  103 0.00000 0.00000 0.00000
  104 0.00000 0.00000 0.00000
  105 0.00000 0.00000 0.00000
  106 0.00000 0.00000 0.00000
  107 0.00000 0.00000 0.00000
  108 0.00000 0.00000 0.00000
  109 0.00000 0.00000 0.00000
  110 0.00000 0.00000 0.00000
  111 0.00000 0.00000 0.00000
  112 0.00000 0.00000 0.00000
  113 0.00000 0.00000 0.00000
  114 0.00000 0.00000 0.00000
  115 0.00000 0.00000 0.00000
  116 0.00000 0.00000 0.00000
  117 0.00000 0.00000 0.00000
  118 0.00000 0.00000 0.00000
  119 0.00000 0.00000 0.00000
  120 0.00000 0.00000 0.00000
  121 0.00000 0.00000 0.00000
  122 0.00000 0.00000 0.00000
  123 0.00000 0.00000 0.00000
  124 0.00000 0.00000 0.00000
  125 0.00000 0.00000 0.00000
  126 0.00000 0.00000 0.00000
  127 0.00000 0.00000 0.00000
  128 0.00000 0.00000 0.00000
  129 0.00000 0.00000 0.00000
  130 0.00000 0.00000 0.00000
  131 0.00000 0.00000 0.00000
  132 0.00000 0.00000 0.00000
  133 0.00000 0.00000 0.00000
  134 0.00000 0.00000 0.00000
  135 0.00000 0.00000 0.00000
  136 0.00000 0.00000 0.00000
  137 0.00000 0.00000 0.00000
  138 0.00000 0.00000 0.00000
  139 0.00000 0.00000 0.00000
  140 0.00000 0.00000 0.00000
  141 0.00000 0.00000 0.00000
  142 0.00000 0.00000 0.00000
  143 0.00000 0.00000 0.00000
  144 0.00000 0.00000 0.00000
  145 0.00000 0.00000 0.00000
  146 0.00000 0.00000 0.00000
  147 0.00000 0.00000 0.00000
  148 0.00000 0.00000 0.00000
  149 0.00000 0.00000 0.00000
  150 0.00000 0.00000 0.00000
  151 0.00000 0.00000 0.00000
  152 0.00000 0.00000 0.00000
  153 0.00000 0.00000 0.00000
  154 0.00000 0.00000 0.00000
  155 0.00000 0.00000 0.00000
  156 0.00000 0.00000 0.00000
  157 0.00000 0.00000 0.00000
  158 0.00000 0.00000 0.00000
  159 0.00000 0.00000 0.00000
  160 0.00000 0.00000 0.00000
  161 0.00000 0.00000 0.00000
  162 0.00000 0.00000 0.00000
  163 0.00000 0.00000 0.00000
  164 0.00000 0.00000 0.00000
  165 0.00000 0.00000 0.00000
  166 0.00000 0.00000 0.00000
  167 0.00000 0.00000 0.00000
  168 0.00000 0.00000 0.00000
  169 0.00000 0.00000 0.00000
  170 0.00000 0.00000 0.00000
  171 0.00000 0.00000 0.00000
  172 0.00000 0.00000 0.00000
  173 0.00000 0.00000 0.00000
  174 0.00000 0.00000 0.00000
  175 0.00000 0.00000 0.00000
  176 0.00000 0.00000 0.00000
  177 0.00000 0.00000 0.00000
  178 0.00000 0.00000 0.00000
  179 0.00000 0.00000 0.00000
  180 0.00000 0.00000 0.00000
  181 0.00000 0.00000 0.00000
  182 0.00000 0.00000 0.00000
  183 0.00000 0.00000 0.00000
  184 0.00000 0.00000 0.00000
  185 0.00000 0.00000 0.00000
  186 0.00000 0.00000 0.00000
  187 0.00000 0.00000 0.00000
  188 0.00000 0.00000 0.00000
  189 0.00000 0.00000 0.00000
  190 0.00000 0.00000 0.00000
  191 0.00000 0.00000 0.00000
  192 0.00000 0.00000 0.00000
  193 0.00000 0.00000 0.00000
  194 0.00000 0.00000 0.00000
  195 0.00000 0.00000 0.00000
  196 0.00000 0.00000 0.00000
  197 0.00000 0.00000 0.00000
  198 0.00000 0.00000 0.00000
  199 0.00000 0.00000 0.00000
  200 0.00000 0.00000 0.00000
  201 0.00000 0.00000 0.00000
  202 0.00000 0.00000 0.00000
  203 0.00000 0.00000 0.00000
  204 0.00000 0.00000 0.00000
  205 0.00000 0.00000 0.00000
  206 0.00000 0.00000 0.00000
  207 0.00000 0.00000 0.00000
  208 0.00000 0.00000 0.00000
  209 0.00000 0.00000 0.00000
  210 0.00000 0.00000 0.00000
  211 0.00000 0.00000 0.00000
  212 0.00000 0.00000 0.00000
  213 0.00000 0.00000 0.00000
  214 0.00000 0.00000 0.00000
  215 0.00000 0.00000 0.00000
  216 0.00000 0.00000 0.00000
  217 0.00000 0.00000 0.00000
  218 0.00000 0.00000 0.00000
  219 0.00000 0.00000 0.00000
  220 0.00000 0.00000 0.00000
  221 0.00000 0.00000 0.00000
  222 0.00000 0.00000 0.00000
  223 0.00000 0.00000 0.00000
  224 0.00000 0.00000 0.00000
  225 0.00000 0.00000 0.00000
  226 0.00000 0.00000 0.00000
  227 0.00000 0.00000 0.00000
  228 0.00000 0.00000 0.00000
  229 0.00000 0.00000 0.00000
  230 0.00000 0.00000 0.00000
  231 0.00000 0.00000 0.00000
  232 0.00000 0.00000 0.00000
  233 0.00000 0.00000 0.00000
  234 0.00000 0.00000 0.00000
  235 0.00000 0.00000 0.00000
  236 0.00000 0.00000 0.00000
  237 0.00000 0.00000 0.00000
  238 0.00000 0.00000 0.00000
  239 0.00000 0.00000 0.00000
  240 0.00000 0.00000 0.00000
  241 0.00000 0.00000 0.00000
</Section>

newXOutput 175

<Section columns = "stress_xx | stress_yy | stress_xy">
  1 0.00000 0.00000 0.00000
  2 0.00000 0.00000 0.00000
  3 0.00000 0.00000 0.00000
  4 0.00000 0.00000 0.00000
  5 0.00000 0.00000 0.00000
  6 0.00000 0.00000 0.00000
  7 0.00000 0.00000 0.00000
  8 0.00000 0.00000 0.00000
  9 0.00000 0.00000 0.00000
  10 0.00000 0.00000 0.00000
  11 0.00000 0.00000 0.00000
  12 0.00000 0.00000 0.00000
  13 0.00000 0.00000 0.00000
  14 0.00000 0.00000 0.00000
  15 0.00000 0.00000 0.00000
  16 0.00000 0.00000 0.00000
  17 0.00000 0.00000 0.00000
  18 0.00000 0.00000 0.00000
  19 0.00000 0.00000 0.00000
  20 0.00000 0.00000 0.00000
  21 0.00000 0.00000 0.00000
  22 0.00000 0.00000 0.00000
  23 0.00000 0.00000 0.00000
  24 0.00000 0.00000 0.00000
  25 0.00000 0.00000 0.00000
  26 0.00000 0.00000 0.00000
  27 0.00000 0.00000 0.00000
  28 0.00000 0.00000 0.00000
  29 0.00000 0.00000 0.00000
  30 0.00000 0.00000 0.00000
  31 0.00000 0.00000 0.00000
  32 0.00000 0.00000 0.00000
  33 0.00000 0.00000 0.00000
  34 0.00000 0.00000 0.00000
  35 0.00000 0.00000 0.00000
  36 0.00000 0.00000 0.00000
  37 0.00000 0.00000 0.00000
  38 0.00000 0.00000 0.00000
  39 0.00000 0.00000 0.00000
  40 0.00000 0.00000 0.00000
  41 0.00000 0.00000 0.00000
  42 0.00000 0.00000 0.00000
  43 0.00000 0.00000 0.00000
  44 0.00000 0.00000 0.00000
  45 0.00000 0.00000 0.00000
  46 0.00000 0.00000 0.00000
  47 0.00000 0.00000 0.00000
  48 0.00000 0.00000 0.00000
  49 0.00000 0.00000 0.00000
  50 0.00000 0.00000 0.00000
  51 0.00000 0.00000 0.00000
  52 0.00000 0.00000 0.00000
  53 0.00000 0.00000 0.00000
  54 0.00000 0.00000 0.00000
  55 0.00000 0.00000 0.00000
  56 0.00000 0.00000 0.00000
  57 0.00000 0.00000 0.00000
  58 0.00000 0.00000 0.00000
  59 0.00000 0.00000 0.00000
  60 0.00000 0.00000 0.00000
  61 0.00000 0.00000 0.00000
  62 0.00000 0.00000 0.00000
  63 0.00000 0.00000 0.00000
  64 0.00000 0.00000 0.00000
  65 0.00000 0.00000 0.00000
  66 0.00000 0.00000 0.00000
  67 0.00000 0.00000 0.00000
  68 0.00000 0.00000 0.00000
  69 0.00000 0.00000 0.00000
  70 0.00000 0.00000 0.00000
  71 0.00000 0.00000 0.00000
  72 0.00000 0.00000 0.00000
  73 0.00000 0.00000 0.00000
  74 0.00000 0.00000 0.00000
  75 0.00000 0.00000 0.00000
  76 0.00000 0.00000 0.00000
  77 0.00000 0.00000 0.00000
  78 0.00000 0.00000 0.00000
  79 0.00000 0.00000 0.00000
  80 0.00000 0.00000 0.00000
  81 0.00000 0.00000 0.00000
  82 0.00000 0.00000 0.00000
  83 0.00000 0.00000 0.00000
  84 0.00000 0.00000 0.00000
  85 0.00000 0.00000 0.00000
  86 0.00000 0.00000 0.00000
  87 0.00000 0.00000 0.00000
  88 0.00000 0.00000 0.00000
  89 0.00000 0.00000 0.00000
  90 0.00000 0.00000 0.00000
  91 0.00000 0.00000 0.00000
  92 0.00000 0.00000 0.00000
  93 0.00000 0.00000 0.00000
  94 0.00000 0.00000 0.00000
  95 0.00000 0.00000 0.00000
  96 0.00000 0.00000 0.00000
  97 0.00000 0.00000 0.00000
  98 0.00000 0.00000 0.00000
  99 0.00000 0.00000 0.00000
  100 0.00000 0.00000 0.00000
  101 0.00000 0.00000 0.00000
  102 0.00000 0.00000 0.00000
  103 0.00000 0.00000 0.00000
  104 0.00000 0.00000 0.00000
  105 0.00000 0.00000 0.00000
  106 0.00000 0.00000 0.00000
  107 0.00000 0.00000 0.00000
  108 0.00000 0.00000 0.00000
  109 0.00000 0.00000 0.00000
  110 0.00000 0.00000 0.00000
  111 0.00000 0.00000 0.00000
  112 0.00000 0.00000 0.00000
  113 0.00000 0.00000 0.00000
  114 0.00000 0.00000 0.00000
  115 0.00000 0.00000 0.00000
  116 0.00000 0.00000 0.00000
  117 0.00000 0.00000 0.00000
  118 0.00000 0.00000 0.00000
  119 0.00000 0.00000 0.00000
  120 0.00000 0.00000 0.00000
  121 0.00000 0.00000 0.00000
  122 0.00000 0.00000 0.00000
  123 0.00000 0.00000 0.00000
  124 0.00000 0.00000 0.00000
  125 0.00000 0.00000 0.00000
  126 0.00000 0.00000 0.00000
  127 0.00000 0.00000 0.00000
  128 0.00000 0.00000 0.00000
  129 0.00000 0.00000 0.00000
  130 0.00000 0.00000 0.00000
  131 0.00000 0.00000 0.00000
  132 0.00000 0.00000 0.00000
  133 0.00000 0.00000 0.00000
  134 0.00000 0.00000 0.00000
  135 0.00000 0.00000 0.00000
  136 0.00000 0.00000 0.00000
  137 0.00000 0.00000 0.00000
  138 0.00000 0.00000 0.00000
  139 0.00000 0.00000 0.00000
  140 0.00000 0.00000 0.00000
  141 0.00000 0.00000 0.00000
  142 0.00000 0.00000 0.00000
  143 0.00000 0.00000 0.00000
  144 0.00000 0.00000 0.00000
  145 0.00000 0.00000 0.00000
  146 0.00000 0.00000 0.00000
  147 0.00000 0.00000 0.00000
  148 0.00000 0.00000 0.00000
  149 0.00000 0.00000 0.00000
  150 0.00000 0.00000 0.00000
  151 0.00000 0.00000 0.00000
  152 0.00000 0.00000 0.00000
  153 0.00000 0.00000 0.00000
  154 0.00000 0.00000 0.00000
  155 0.00000 0.00000 0.00000
  156 0.00000 0.00000 0.00000
  157 0.00000 0.00000 0.00000
  158 0.00000 0.00000 0.00000
  159 0.00000 0.00000 0.00000
  160 0.00000 0.00000 0.00000
  161 0.00000 0.00000 0.00000
  162 0.00000 0.00000 0.00000
  163 0.00000 0.00000 0.00000
  164 0.00000 0.00000 0.00000
  165 0.00000 0.00000 0.00000
  166 0.00000 0.00000 0.00000
  167 0.00000 0.00000 0.00000
  168 0.00000 0.00000 0.00000
  169 0.00000 0.00000 0.00000
  170 0.00000 0.00000 0.00000
  171 0.00000 0.00000 0.00000
  172 0.00000 0.00000 0.00000
  173 0.00000 0.00000 0.00000
  174 0.00000 0.00000 0.00000
  175 0.00000 0.00000 0.00000
  176 0.00000 0.00000 0.00000
  177 0.00000 0.00000 0.00000
  178 0.00000 0.00000 0.00000
  179 0.00000 0.00000 0.00000
  180 0.00000 0.00000 0.00000
  181 0.00000 0.00000 0.00000
  182 0.00000 0.00000 0.00000
  183 0.00000 0.00000 0.00000
  184 0.00000 0.00000 0.00000
  185 0.00000 0.00000 0.00000
  186 0.00000 0.00000 0.00000
  187 0.00000 0.00000 0.00000
  188 0.00000 0.00000 0.00000
  189 0.00000 0.00000 0.00000
  190 0.00000 0.00000 0.00000
  191 0.00000 0.00000 0.00000
  192 0.00000 0.00000 0.00000
  193 0.00000 0.00000 0.00000
  194 0.00000 0.00000 0.00000
  195 0.00000 0.00000 0.00000
  196 0.00000 0.00000 0.00000
  197 0.00000 0.00000 0.00000
  198 0.00000 0.00000 0.00000
  199 0.00000 0.00000 0.00000
  200 0.00000 0.00000 0.00000
  201 0.00000 0.00000 0.00000
  202 0.00000 0.00000 0.00000
  203 0.00000 0.00000 0.00000
  204 0.00000 0.00000 0.00000
  205 0.00000 0.00000 0.00000
  206 0.00000 0.00000 0.00000
  207 0.00000 0.00000 0.00000
  208 0.00000 0.00000 0.00000
  209 0.00000 0.00000 0.00000
  210 0.00000 0.00000 0.00000
  211 0.00000 0.00000 0.00000
  212 0.00000 0.00000 0.00000
  213 0.00000 0.00000 0.00000
  214 0.00000 0.00000 0.00000
  215 0.00000 0.00000 0.00000
  216 0.00000 0.00000 0.00000
  217 0.00000 0.00000 0.00000
  218 0.00000 0.00000 0.00000
  219 0.00000 0.00000 0.00000
  220 0.00000 0.00000 0.00000
  221 0.00000 0.00000 0.00000
  222 0.00000 0.00000 0.00000
  223 0.00000 0.00000 0.00000
  224 0.00000 0.00000 0.00000
  225 0.00000 0.00000 0.00000
  226 0.00000 0.00000 0.00000
  227 0.00000 0.00000 0.00000
  228 0.00000 0.00000 0.00000
  229 0.00000 0.00000 0.00000
  230 0.00000 0.00000 0.00000
  231 0.00000 0.00000 0.00000
  232 0.00000 0.00000 0.00000
  233 0.00000 0.00000 0.00000
  234 0.00000 0.00000 0.00000
  235 0.00000 0.00000 0.00000
  236 0.00000 0.00000 0.00000
  237 0.00000 0.00000 0.00000
  238 0.00000 0.00000 0.00000
  239 0.00000 0.00000 0.00000
  240 0.00000 0.00000 0.00000
  241 0.00000 0.00000 0.00000
</Section>

newXOutput 176

<Section columns = "stress_xx | stress_yy | stress_xy">
  1 0.00000 0.00000 0.00000
  2 0.00000 0.00000 0.00000
  3 0.00000 0.00000 0.00000
  4 0.00000 0.00000 0.00000
  5 0.00000 0.00000 0.00000
  6 0.00000 0.00000 0.00000
  7 0.00000 0.00000 0.00000
  8 0.00000 0.00000 0.00000
  9 0.00000 0.00000 0.00000
  10 0.00000 0.00000 0.00000
  11 0.00000 0.00000 0.00000
  12 0.00000 0.00000 0.00000
  13 0.00000 0.00000 0.00000
  14 0.00000 0.00000 0.00000
  15 0.00000 0.00000 0.00000
  16 0.00000 0.00000 0.00000
  17 0.00000 0.00000 0.00000
  18 0.00000 0.00000 0.00000
  19 0.00000 0.00000 0.00000
  20 0.00000 0.00000 0.00000
  21 0.00000 0.00000 0.00000
  22 0.00000 0.00000 0.00000
  23 0.00000 0.00000 0.00000
  24 0.00000 0.00000 0.00000
  25 0.00000 0.00000 0.00000
  26 0.00000 0.00000 0.00000
  27 0.00000 0.00000 0.00000
  28 0.00000 0.00000 0.00000
  29 0.00000 0.00000 0.00000
  30 0.00000 0.00000 0.00000
  31 0.00000 0.00000 0.00000
  32 0.00000 0.00000 0.00000
  33 0.00000 0.00000 0.00000
  34 0.00000 0.00000 0.00000
  35 0.00000 0.00000 0.00000
  36 0.00000 0.00000 0.00000
  37 0.00000 0.00000 0.00000
  38 0.00000 0.00000 0.00000
  39 0.00000 0.00000 0.00000
  40 0.00000 0.00000 0.00000
  41 0.00000 0.00000 0.00000
  42 0.00000 0.00000 0.00000
  43 0.00000 0.00000 0.00000
  44 0.00000 0.00000 0.00000
  45 0.00000 0.00000 0.00000
  46 0.00000 0.00000 0.00000
  47 0.00000 0.00000 0.00000
  48 0.00000 0.00000 0.00000
  49 0.00000 0.00000 0.00000
  50 0.00000 0.00000 0.00000
  51 0.00000 0.00000 0.00000
  52 0.00000 0.00000 0.00000
  53 0.00000 0.00000 0.00000
  54 0.00000 0.00000 0.00000
  55 0.00000 0.00000 0.00000
  56 0.00000 0.00000 0.00000
  57 0.00000 0.00000 0.00000
  58 0.00000 0.00000 0.00000
  59 0.00000 0.00000 0.00000
  60 0.00000 0.00000 0.00000
  61 0.00000 0.00000 0.00000
  62 0.00000 0.00000 0.00000
  63 0.00000 0.00000 0.00000
  64 0.00000 0.00000 0.00000
  65 0.00000 0.00000 0.00000
  66 0.00000 0.00000 0.00000
  67 0.00000 0.00000 0.00000
  68 0.00000 0.00000 0.00000
  69 0.00000 0.00000 0.00000
  70 0.00000 0.00000 0.00000
  71 0.00000 0.00000 0.00000
  72 0.00000 0.00000 0.00000
  73 0.00000 0.00000 0.00000
  74 0.00000 0.00000 0.00000
  75 0.00000 0.00000 0.00000
  76 0.00000 0.00000 0.00000
  77 0.00000 0.00000 0.00000
  78 0.00000 0.00000 0.00000
  79 0.00000 0.00000 0.00000
  80 0.00000 0.00000 0.00000
  81 0.00000 0.00000 0.00000
  82 0.00000 0.00000 0.00000
  83 0.00000 0.00000 0.00000
  84 0.00000 0.00000 0.00000
  85 0.00000 0.00000 0.00000
  86 0.00000 0.00000 0.00000
  87 0.00000 0.00000 0.00000
  88 0.00000 0.00000 0.00000
  89 0.00000 0.00000 0.00000
  90 0.00000 0.00000 0.00000
  91 0.00000 0.00000 0.00000
  92 0.00000 0.00000 0.00000
  93 0.00000 0.00000 0.00000
  94 0.00000 0.00000 0.00000
  95 0.00000 0.00000 0.00000
  96 0.00000 0.00000 0.00000
  97 0.00000 0.00000 0.00000
  98 0.00000 0.00000 0.00000
  99 0.00000 0.00000 0.00000
  100 0.00000 0.00000 0.00000
  101 0.00000 0.00000 0.00000
  102 0.00000 0.00000 0.00000
  103 0.00000 0.00000 0.00000
  104 0.00000 0.00000 0.00000
  105 0.00000 0.00000 0.00000
  106 0.00000 0.00000 0.00000
  107 0.00000 0.00000 0.00000
  108 0.00000 0.00000 0.00000
  109 0.00000 0.00000 0.00000
  110 0.00000 0.00000 0.00000
  111 0.00000 0.00000 0.00000
  112 0.00000 0.00000 0.00000
  113 0.00000 0.00000 0.00000
  114 0.00000 0.00000 0.00000
  115 0.00000 0.00000 0.00000
  116 0.00000 0.00000 0.00000
  117 0.00000 0.00000 0.00000
  118 0.00000 0.00000 0.00000
  119 0.00000 0.00000 0.00000
  120 0.00000 0.00000 0.00000
  121 0.00000 0.00000 0.00000
  122 0.00000 0.00000 0.00000
  123 0.00000 0.00000 0.00000
  124 0.00000 0.00000 0.00000
  125 0.00000 0.00000 0.00000
  126 0.00000 0.00000 0.00000
  127 0.00000 0.00000 0.00000
  128 0.00000 0.00000 0.00000
  129 0.00000 0.00000 0.00000
  130 0.00000 0.00000 0.00000
  131 0.00000 0.00000 0.00000
  132 0.00000 0.00000 0.00000
  133 0.00000 0.00000 0.00000
  134 0.00000 0.00000 0.00000
  135 0.00000 0.00000 0.00000
  136 0.00000 0.00000 0.00000
  137 0.00000 0.00000 0.00000
  138 0.00000 0.00000 0.00000
  139 0.00000 0.00000 0.00000
  140 0.00000 0.00000 0.00000
  141 0.00000 0.00000 0.00000
  142 0.00000 0.00000 0.00000
  143 0.00000 0.00000 0.00000
  144 0.00000 0.00000 0.00000
  145 0.00000 0.00000 0.00000
  146 0.00000 0.00000 0.00000
  147 0.00000 0.00000 0.00000
  148 0.00000 0.00000 0.00000
  149 0.00000 0.00000 0.00000
  150 0.00000 0.00000 0.00000
  151 0.00000 0.00000 0.00000
  152 0.00000 0.00000 0.00000
  153 0.00000 0.00000 0.00000
  154 0.00000 0.00000 0.00000
  155 0.00000 0.00000 0.00000
  156 0.00000 0.00000 0.00000
  157 0.00000 0.00000 0.00000
  158 0.00000 0.00000 0.00000
  159 0.00000 0.00000 0.00000
  160 0.00000 0.00000 0.00000
  161 0.00000 0.00000 0.00000
  162 0.00000 0.00000 0.00000
  163 0.00000 0.00000 0.00000
  164 0.00000 0.00000 0.00000
  165 0.00000 0.00000 0.00000
  166 0.00000 0.00000 0.00000
  167 0.00000 0.00000 0.00000
  168 0.00000 0.00000 0.00000
  169 0.00000 0.00000 0.00000
  170 0.00000 0.00000 0.00000
  171 0.00000 0.00000 0.00000
  172 0.00000 0.00000 0.00000
  173 0.00000 0.00000 0.00000
  174 0.00000 0.00000 0.00000
  175 0.00000 0.00000 0.00000
  176 0.00000 0.00000 0.00000
  177 0.00000 0.00000 0.00000
  178 0.00000 0.00000 0.00000
  179 0.00000 0.00000 0.00000
  180 0.00000 0.00000 0.00000
  181 0.00000 0.00000 0.00000
  182 0.00000 0.00000 0.00000
  183 0.00000 0.00000 0.00000
  184 0.00000 0.00000 0.00000
  185 0.00000 0.00000 0.00000
  186 0.00000 0.00000 0.00000
  187 0.00000 0.00000 0.00000
  188 0.00000 0.00000 0.00000
  189 0.00000 0.00000 0.00000
  190 0.00000 0.00000 0.00000
  191 0.00000 0.00000 0.00000
  192 0.00000 0.00000 0.00000
  193 0.00000 0.00000 0.00000
  194 0.00000 0.00000 0.00000
  195 0.00000 0.00000 0.00000
  196 0.00000 0.00000 0.00000
  197 0.00000 0.00000 0.00000
  198 0.00000 0.00000 0.00000
  199 0.00000 0.00000 0.00000
  200 0.00000 0.00000 0.00000
  201 0.00000 0.00000 0.00000
  202 0.00000 0.00000 0.00000
  203 0.00000 0.00000 0.00000
  204 0.00000 0.00000 0.00000
  205 0.00000 0.00000 0.00000
  206 0.00000 0.00000 0.00000
  207 0.00000 0.00000 0.00000
  208 0.00000 0.00000 0.00000
  209 0.00000 0.00000 0.00000
  210 0.00000 0.00000 0.00000
  211 0.00000 0.00000 0.00000
  212 0.00000 0.00000 0.00000
  213 0.00000 0.00000 0.00000
  214 0.00000 0.00000 0.00000
  215 0.00000 0.00000 0.00000
  216 0.00000 0.00000 0.00000
  217 0.00000 0.00000 0.00000
  218 0.00000 0.00000 0.00000
  219 0.00000 0.00000 0.00000
  220 0.00000 0.00000 0.00000
  221 0.00000 0.00000 0.00000
  222 0.00000 0.00000 0.00000
  223 0.00000 0.00000 0.00000
  224 0.00000 0.00000 0.00000
  225 0.00000 0.00000 0.00000
  226 0.00000 0.00000 0.00000
  227 0.00000 0.00000 0.00000
  228 0.00000 0.00000 0.00000
  229 0.00000 0.00000 0.00000
  230 0.00000 0.00000 0.00000
  231 0.00000 0.00000 0.00000
  232 0.00000 0.00000 0.00000
  233 0.00000 0.00000 0.00000
  234 0.00000 0.00000 0.00000
  235 0.00000 0.00000 0.00000
  236 0.00000 0.00000 0.00000
  237 0.00000 0.00000 0.00000
  238 0.00000 0.00000 0.00000
  239 0.00000 0.00000 0.00000
  240 0.00000 0.00000 0.00000
  241 0.00000 0.00000 0.00000
</Section>

newXOutput 177

<Section columns = "stress_xx | stress_yy | stress_xy">
  1 0.00000 0.00000 0.00000
  2 0.00000 0.00000 0.00000
  3 0.00000 0.00000 0.00000
  4 0.00000 0.00000 0.00000
  5 0.00000 0.00000 0.00000
  6 0.00000 0.00000 0.00000
  7 0.00000 0.00000 0.00000
  8 0.00000 0.00000 0.00000
  9 0.00000 0.00000 0.00000
  10 0.00000 0.00000 0.00000
  11 0.00000 0.00000 0.00000
  12 0.00000 0.00000 0.00000
  13 0.00000 0.00000 0.00000
  14 0.00000 0.00000 0.00000
  15 0.00000 0.00000 0.00000
  16 0.00000 0.00000 0.00000
  17 0.00000 0.00000 0.00000
  18 0.00000 0.00000 0.00000
  19 0.00000 0.00000 0.00000
  20 0.00000 0.00000 0.00000
  21 0.00000 0.00000 0.00000
  22 0.00000 0.00000 0.00000
  23 0.00000 0.00000 0.00000
  24 0.00000 0.00000 0.00000
  25 0.00000 0.00000 0.00000
  26 0.00000 0.00000 0.00000
  27 0.00000 0.00000 0.00000
  28 0.00000 0.00000 0.00000
  29 0.00000 0.00000 0.00000
  30 0.00000 0.00000 0.00000
  31 0.00000 0.00000 0.00000
  32 0.00000 0.00000 0.00000
  33 0.00000 0.00000 0.00000
  34 0.00000 0.00000 0.00000
  35 0.00000 0.00000 0.00000
  36 0.00000 0.00000 0.00000
  37 0.00000 0.00000 0.00000
  38 0.00000 0.00000 0.00000
  39 0.00000 0.00000 0.00000
  40 0.00000 0.00000 0.00000
  41 0.00000 0.00000 0.00000
  42 0.00000 0.00000 0.00000
  43 0.00000 0.00000 0.00000
  44 0.00000 0.00000 0.00000
  45 0.00000 0.00000 0.00000
  46 0.00000 0.00000 0.00000
  47 0.00000 0.00000 0.00000
  48 0.00000 0.00000 0.00000
  49 0.00000 0.00000 0.00000
  50 0.00000 0.00000 0.00000
  51 0.00000 0.00000 0.00000
  52 0.00000 0.00000 0.00000
  53 0.00000 0.00000 0.00000
  54 0.00000 0.00000 0.00000
  55 0.00000 0.00000 0.00000
  56 0.00000 0.00000 0.00000
  57 0.00000 0.00000 0.00000
  58 0.00000 0.00000 0.00000
  59 0.00000 0.00000 0.00000
  60 0.00000 0.00000 0.00000
  61 0.00000 0.00000 0.00000
  62 0.00000 0.00000 0.00000
  63 0.00000 0.00000 0.00000
  64 0.00000 0.00000 0.00000
  65 0.00000 0.00000 0.00000
  66 0.00000 0.00000 0.00000
  67 0.00000 0.00000 0.00000
  68 0.00000 0.00000 0.00000
  69 0.00000 0.00000 0.00000
  70 0.00000 0.00000 0.00000
  71 0.00000 0.00000 0.00000
  72 0.00000 0.00000 0.00000
  73 0.00000 0.00000 0.00000
  74 0.00000 0.00000 0.00000
  75 0.00000 0.00000 0.00000
  76 0.00000 0.00000 0.00000
  77 0.00000 0.00000 0.00000
  78 0.00000 0.00000 0.00000
  79 0.00000 0.00000 0.00000
  80 0.00000 0.00000 0.00000
  81 0.00000 0.00000 0.00000
  82 0.00000 0.00000 0.00000
  83 0.00000 0.00000 0.00000
  84 0.00000 0.00000 0.00000
  85 0.00000 0.00000 0.00000
  86 0.00000 0.00000 0.00000
  87 0.00000 0.00000 0.00000
  88 0.00000 0.00000 0.00000
  89 0.00000 0.00000 0.00000
  90 0.00000 0.00000 0.00000
  91 0.00000 0.00000 0.00000
  92 0.00000 0.00000 0.00000
  93 0.00000 0.00000 0.00000
  94 0.00000 0.00000 0.00000
  95 0.00000 0.00000 0.00000
  96 0.00000 0.00000 0.00000
  97 0.00000 0.00000 0.00000
  98 0.00000 0.00000 0.00000
  99 0.00000 0.00000 0.00000
  100 0.00000 0.00000 0.00000
  101 0.00000 0.00000 0.00000
  102 0.00000 0.00000 0.00000
  103 0.00000 0.00000 0.00000
  104 0.00000 0.00000 0.00000
  105 0.00000 0.00000 0.00000
  106 0.00000 0.00000 0.00000
  107 0.00000 0.00000 0.00000
  108 0.00000 0.00000 0.00000
  109 0.00000 0.00000 0.00000
  110 0.00000 0.00000 0.00000
  111 0.00000 0.00000 0.00000
  112 0.00000 0.00000 0.00000
  113 0.00000 0.00000 0.00000
  114 0.00000 0.00000 0.00000
  115 0.00000 0.00000 0.00000
  116 0.00000 0.00000 0.00000
  117 0.00000 0.00000 0.00000
  118 0.00000 0.00000 0.00000
  119 0.00000 0.00000 0.00000
  120 0.00000 0.00000 0.00000
  121 0.00000 0.00000 0.00000
  122 0.00000 0.00000 0.00000
  123 0.00000 0.00000 0.00000
  124 0.00000 0.00000 0.00000
  125 0.00000 0.00000 0.00000
  126 0.00000 0.00000 0.00000
  127 0.00000 0.00000 0.00000
  128 0.00000 0.00000 0.00000
  129 0.00000 0.00000 0.00000
  130 0.00000 0.00000 0.00000
  131 0.00000 0.00000 0.00000
  132 0.00000 0.00000 0.00000
  133 0.00000 0.00000 0.00000
  134 0.00000 0.00000 0.00000
  135 0.00000 0.00000 0.00000
  136 0.00000 0.00000 0.00000
  137 0.00000 0.00000 0.00000
  138 0.00000 0.00000 0.00000
  139 0.00000 0.00000 0.00000
  140 0.00000 0.00000 0.00000
  141 0.00000 0.00000 0.00000
  142 0.00000 0.00000 0.00000
  143 0.00000 0.00000 0.00000
  144 0.00000 0.00000 0.00000
  145 0.00000 0.00000 0.00000
  146 0.00000 0.00000 0.00000
  147 0.00000 0.00000 0.00000
  148 0.00000 0.00000 0.00000
  149 0.00000 0.00000 0.00000
  150 0.00000 0.00000 0.00000
  151 0.00000 0.00000 0.00000
  152 0.00000 0.00000 0.00000
  153 0.00000 0.00000 0.00000
  154 0.00000 0.00000 0.00000
  155 0.00000 0.00000 0.00000
  156 0.00000 0.00000 0.00000
  157 0.00000 0.00000 0.00000
  158 0.00000 0.00000 0.00000
  159 0.00000 0.00000 0.00000
  160 0.00000 0.00000 0.00000
  161 0.00000 0.00000 0.00000
  162 0.00000 0.00000 0.00000
  163 0.00000 0.00000 0.00000
  164 0.00000 0.00000 0.00000
  165 0.00000 0.00000 0.00000
  166 0.00000 0.00000 0.00000
  167 0.00000 0.00000 0.00000
  168 0.00000 0.00000 0.00000
  169 0.00000 0.00000 0.00000
  170 0.00000 0.00000 0.00000
  171 0.00000 0.00000 0.00000
  172 0.00000 0.00000 0.00000
  173 0.00000 0.00000 0.00000
  174 0.00000 0.00000 0.00000
  175 0.00000 0.00000 0.00000
  176 0.00000 0.00000 0.00000
  177 0.00000 0.00000 0.00000
  178 0.00000 0.00000 0.00000
  179 0.00000 0.00000 0.00000
  180 0.00000 0.00000 0.00000
  181 0.00000 0.00000 0.00000
  182 0.00000 0.00000 0.00000
  183 0.00000 0.00000 0.00000
  184 0.00000 0.00000 0.00000
  185 0.00000 0.00000 0.00000
  186 0.00000 0.00000 0.00000
  187 0.00000 0.00000 0.00000
  188 0.00000 0.00000 0.00000
  189 0.00000 0.00000 0.00000
  190 0.00000 0.00000 0.00000
  191 0.00000 0.00000 0.00000
  192 0.00000 0.00000 0.00000
  193 0.00000 0.00000 0.00000
  194 0.00000 0.00000 0.00000
  195 0.00000 0.00000 0.00000
  196 0.00000 0.00000 0.00000
  197 0.00000 0.00000 0.00000
  198 0.00000 0.00000 0.00000
  199 0.00000 0.00000 0.00000
  200 0.00000 0.00000 0.00000
  201 0.00000 0.00000 0.00000
  202 0.00000 0.00000 0.00000
  203 0.00000 0.00000 0.00000
  204 0.00000 0.00000 0.00000
  205 0.00000 0.00000 0.00000
  206 0.00000 0.00000 0.00000
  207 0.00000 0.00000 0.00000
  208 0.00000 0.00000 0.00000
  209 0.00000 0.00000 0.00000
  210 0.00000 0.00000 0.00000
  211 0.00000 0.00000 0.00000
  212 0.00000 0.00000 0.00000
  213 0.00000 0.00000 0.00000
  214 0.00000 0.00000 0.00000
  215 0.00000 0.00000 0.00000
  216 0.00000 0.00000 0.00000
  217 0.00000 0.00000 0.00000
  218 0.00000 0.00000 0.00000
  219 0.00000 0.00000 0.00000
  220 0.00000 0.00000 0.00000
  221 0.00000 0.00000 0.00000
  222 0.00000 0.00000 0.00000
  223 0.00000 0.00000 0.00000
  224 0.00000 0.00000 0.00000
  225 0.00000 0.00000 0.00000
  226 0.00000 0.00000 0.00000
  227 0.00000 0.00000 0.00000
  228 0.00000 0.00000 0.00000
  229 0.00000 0.00000 0.00000
  230 0.00000 0.00000 0.00000
  231 0.00000 0.00000 0.00000
  232 0.00000 0.00000 0.00000
  233 0.00000 0.00000 0.00000
  234 0.00000 0.00000 0.00000
  235 0.00000 0.00000 0.00000
  236 0.00000 0.00000 0.00000
  237 0.00000 0.00000 0.00000
  238 0.00000 0.00000 0.00000
  239 0.00000 0.00000 0.00000
  240 0.00000 0.00000 0.00000
  241 0.00000 0.00000 0.00000
</Section>

newXOutput 178

<Section columns = "stress_xx | stress_yy | stress_xy">
  1 0.00000 0.00000 0.00000
  2 0.00000 0.00000 0.00000
  3 0.00000 0.00000 0.00000
  4 0.00000 0.00000 0.00000
  5 0.00000 0.00000 0.00000
  6 0.00000 0.00000 0.00000
  7 0.00000 0.00000 0.00000
  8 0.00000 0.00000 0.00000
  9 0.00000 0.00000 0.00000
  10 0.00000 0.00000 0.00000
  11 0.00000 0.00000 0.00000
  12 0.00000 0.00000 0.00000
  13 0.00000 0.00000 0.00000
  14 0.00000 0.00000 0.00000
  15 0.00000 0.00000 0.00000
  16 0.00000 0.00000 0.00000
  17 0.00000 0.00000 0.00000
  18 0.00000 0.00000 0.00000
  19 0.00000 0.00000 0.00000
  20 0.00000 0.00000 0.00000
  21 0.00000 0.00000 0.00000
  22 0.00000 0.00000 0.00000
  23 0.00000 0.00000 0.00000
  24 0.00000 0.00000 0.00000
  25 0.00000 0.00000 0.00000
  26 0.00000 0.00000 0.00000
  27 0.00000 0.00000 0.00000
  28 0.00000 0.00000 0.00000
  29 0.00000 0.00000 0.00000
  30 0.00000 0.00000 0.00000
  31 0.00000 0.00000 0.00000
  32 0.00000 0.00000 0.00000
  33 0.00000 0.00000 0.00000
  34 0.00000 0.00000 0.00000
  35 0.00000 0.00000 0.00000
  36 0.00000 0.00000 0.00000
  37 0.00000 0.00000 0.00000
  38 0.00000 0.00000 0.00000
  39 0.00000 0.00000 0.00000
  40 0.00000 0.00000 0.00000
  41 0.00000 0.00000 0.00000
  42 0.00000 0.00000 0.00000
  43 0.00000 0.00000 0.00000
  44 0.00000 0.00000 0.00000
  45 0.00000 0.00000 0.00000
  46 0.00000 0.00000 0.00000
  47 0.00000 0.00000 0.00000
  48 0.00000 0.00000 0.00000
  49 0.00000 0.00000 0.00000
  50 0.00000 0.00000 0.00000
  51 0.00000 0.00000 0.00000
  52 0.00000 0.00000 0.00000
  53 0.00000 0.00000 0.00000
  54 0.00000 0.00000 0.00000
  55 0.00000 0.00000 0.00000
  56 0.00000 0.00000 0.00000
  57 0.00000 0.00000 0.00000
  58 0.00000 0.00000 0.00000
  59 0.00000 0.00000 0.00000
  60 0.00000 0.00000 0.00000
  61 0.00000 0.00000 0.00000
  62 0.00000 0.00000 0.00000
  63 0.00000 0.00000 0.00000
  64 0.00000 0.00000 0.00000
  65 0.00000 0.00000 0.00000
  66 0.00000 0.00000 0.00000
  67 0.00000 0.00000 0.00000
  68 0.00000 0.00000 0.00000
  69 0.00000 0.00000 0.00000
  70 0.00000 0.00000 0.00000
  71 0.00000 0.00000 0.00000
  72 0.00000 0.00000 0.00000
  73 0.00000 0.00000 0.00000
  74 0.00000 0.00000 0.00000
  75 0.00000 0.00000 0.00000
  76 0.00000 0.00000 0.00000
  77 0.00000 0.00000 0.00000
  78 0.00000 0.00000 0.00000
  79 0.00000 0.00000 0.00000
  80 0.00000 0.00000 0.00000
  81 0.00000 0.00000 0.00000
  82 0.00000 0.00000 0.00000
  83 0.00000 0.00000 0.00000
  84 0.00000 0.00000 0.00000
  85 0.00000 0.00000 0.00000
  86 0.00000 0.00000 0.00000
  87 0.00000 0.00000 0.00000
  88 0.00000 0.00000 0.00000
  89 0.00000 0.00000 0.00000
  90 0.00000 0.00000 0.00000
  91 0.00000 0.00000 0.00000
  92 0.00000 0.00000 0.00000
  93 0.00000 0.00000 0.00000
  94 0.00000 0.00000 0.00000
  95 0.00000 0.00000 0.00000
  96 0.00000 0.00000 0.00000
  97 0.00000 0.00000 0.00000
  98 0.00000 0.00000 0.00000
  99 0.00000 0.00000 0.00000
  100 0.00000 0.00000 0.00000
  101 0.00000 0.00000 0.00000
  102 0.00000 0.00000 0.00000
  103 0.00000 0.00000 0.00000
  104 0.00000 0.00000 0.00000
  105 0.00000 0.00000 0.00000
  106 0.00000 0.00000 0.00000
  107 0.00000 0.00000 0.00000
  108 0.00000 0.00000 0.00000
  109 0.00000 0.00000 0.00000
  110 0.00000 0.00000 0.00000
  111 0.00000 0.00000 0.00000
  112 0.00000 0.00000 0.00000
  113 0.00000 0.00000 0.00000
  114 0.00000 0.00000 0.00000
  115 0.00000 0.00000 0.00000
  116 0.00000 0.00000 0.00000
  117 0.00000 0.00000 0.00000
  118 0.00000 0.00000 0.00000
  119 0.00000 0.00000 0.00000
  120 0.00000 0.00000 0.00000
  121 0.00000 0.00000 0.00000
  122 0.00000 0.00000 0.00000
  123 0.00000 0.00000 0.00000
  124 0.00000 0.00000 0.00000
  125 0.00000 0.00000 0.00000
  126 0.00000 0.00000 0.00000
  127 0.00000 0.00000 0.00000
  128 0.00000 0.00000 0.00000
  129 0.00000 0.00000 0.00000
  130 0.00000 0.00000 0.00000
  131 0.00000 0.00000 0.00000
  132 0.00000 0.00000 0.00000
  133 0.00000 0.00000 0.00000
  134 0.00000 0.00000 0.00000
  135 0.00000 0.00000 0.00000
  136 0.00000 0.00000 0.00000
  137 0.00000 0.00000 0.00000
  138 0.00000 0.00000 0.00000
  139 0.00000 0.00000 0.00000
  140 0.00000 0.00000 0.00000
  141 0.00000 0.00000 0.00000
  142 0.00000 0.00000 0.00000
  143 0.00000 0.00000 0.00000
  144 0.00000 0.00000 0.00000
  145 0.00000 0.00000 0.00000
  146 0.00000 0.00000 0.00000
  147 0.00000 0.00000 0.00000
  148 0.00000 0.00000 0.00000
  149 0.00000 0.00000 0.00000
  150 0.00000 0.00000 0.00000
  151 0.00000 0.00000 0.00000
  152 0.00000 0.00000 0.00000
  153 0.00000 0.00000 0.00000
  154 0.00000 0.00000 0.00000
  155 0.00000 0.00000 0.00000
  156 0.00000 0.00000 0.00000
  157 0.00000 0.00000 0.00000
  158 0.00000 0.00000 0.00000
  159 0.00000 0.00000 0.00000
  160 0.00000 0.00000 0.00000
  161 0.00000 0.00000 0.00000
  162 0.00000 0.00000 0.00000
  163 0.00000 0.00000 0.00000
  164 0.00000 0.00000 0.00000
  165 0.00000 0.00000 0.00000
  166 0.00000 0.00000 0.00000
  167 0.00000 0.00000 0.00000
  168 0.00000 0.00000 0.00000
  169 0.00000 0.00000 0.00000
  170 0.00000 0.00000 0.00000
  171 0.00000 0.00000 0.00000
  172 0.00000 0.00000 0.00000
  173 0.00000 0.00000 0.00000
  174 0.00000 0.00000 0.00000
  175 0.00000 0.00000 0.00000
  176 0.00000 0.00000 0.00000
  177 0.00000 0.00000 0.00000
  178 0.00000 0.00000 0.00000
  179 0.00000 0.00000 0.00000
  180 0.00000 0.00000 0.00000
  181 0.00000 0.00000 0.00000
  182 0.00000 0.00000 0.00000
  183 0.00000 0.00000 0.00000
  184 0.00000 0.00000 0.00000
  185 0.00000 0.00000 0.00000
  186 0.00000 0.00000 0.00000
  187 0.00000 0.00000 0.00000
  188 0.00000 0.00000 0.00000
  189 0.00000 0.00000 0.00000
  190 0.00000 0.00000 0.00000
  191 0.00000 0.00000 0.00000
  192 0.00000 0.00000 0.00000
  193 0.00000 0.00000 0.00000
  194 0.00000 0.00000 0.00000
  195 0.00000 0.00000 0.00000
  196 0.00000 0.00000 0.00000
  197 0.00000 0.00000 0.00000
  198 0.00000 0.00000 0.00000
  199 0.00000 0.00000 0.00000
  200 0.00000 0.00000 0.00000
  201 0.00000 0.00000 0.00000
  202 0.00000 0.00000 0.00000
  203 0.00000 0.00000 0.00000
  204 0.00000 0.00000 0.00000
  205 0.00000 0.00000 0.00000
  206 0.00000 0.00000 0.00000
  207 0.00000 0.00000 0.00000
  208 0.00000 0.00000 0.00000
  209 0.00000 0.00000 0.00000
  210 0.00000 0.00000 0.00000
  211 0.00000 0.00000 0.00000
  212 0.00000 0.00000 0.00000
  213 0.00000 0.00000 0.00000
  214 0.00000 0.00000 0.00000
  215 0.00000 0.00000 0.00000
  216 0.00000 0.00000 0.00000
  217 0.00000 0.00000 0.00000
  218 0.00000 0.00000 0.00000
  219 0.00000 0.00000 0.00000
  220 0.00000 0.00000 0.00000
  221 0.00000 0.00000 0.00000
  222 0.00000 0.00000 0.00000
  223 0.00000 0.00000 0.00000
  224 0.00000 0.00000 0.00000
  225 0.00000 0.00000 0.00000
  226 0.00000 0.00000 0.00000
  227 0.00000 0.00000 0.00000
  228 0.00000 0.00000 0.00000
  229 0.00000 0.00000 0.00000
  230 0.00000 0.00000 0.00000
  231 0.00000 0.00000 0.00000
  232 0.00000 0.00000 0.00000
  233 0.00000 0.00000 0.00000
  234 0.00000 0.00000 0.00000
  235 0.00000 0.00000 0.00000
  236 0.00000 0.00000 0.00000
  237 0.00000 0.00000 0.00000
  238 0.00000 0.00000 0.00000
  239 0.00000 0.00000 0.00000
  240 0.00000 0.00000 0.00000
  241 0.00000 0.00000 0.00000
</Section>

newXOutput 179

<Section columns = "stress_xx | stress_yy | stress_xy">
  1 0.00000 0.00000 0.00000
  2 0.00000 0.00000 0.00000
  3 0.00000 0.00000 0.00000
  4 0.00000 0.00000 0.00000
  5 0.00000 0.00000 0.00000
  6 0.00000 0.00000 0.00000
  7 0.00000 0.00000 0.00000
  8 0.00000 0.00000 0.00000
  9 0.00000 0.00000 0.00000
  10 0.00000 0.00000 0.00000
  11 0.00000 0.00000 0.00000
  12 0.00000 0.00000 0.00000
  13 0.00000 0.00000 0.00000
  14 0.00000 0.00000 0.00000
  15 0.00000 0.00000 0.00000
  16 0.00000 0.00000 0.00000
  17 0.00000 0.00000 0.00000
  18 0.00000 0.00000 0.00000
  19 0.00000 0.00000 0.00000
  20 0.00000 0.00000 0.00000
  21 0.00000 0.00000 0.00000
  22 0.00000 0.00000 0.00000
  23 0.00000 0.00000 0.00000
  24 0.00000 0.00000 0.00000
  25 0.00000 0.00000 0.00000
  26 0.00000 0.00000 0.00000
  27 0.00000 0.00000 0.00000
  28 0.00000 0.00000 0.00000
  29 0.00000 0.00000 0.00000
  30 0.00000 0.00000 0.00000
  31 0.00000 0.00000 0.00000
  32 0.00000 0.00000 0.00000
  33 0.00000 0.00000 0.00000
  34 0.00000 0.00000 0.00000
  35 0.00000 0.00000 0.00000
  36 0.00000 0.00000 0.00000
  37 0.00000 0.00000 0.00000
  38 0.00000 0.00000 0.00000
  39 0.00000 0.00000 0.00000
  40 0.00000 0.00000 0.00000
  41 0.00000 0.00000 0.00000
  42 0.00000 0.00000 0.00000
  43 0.00000 0.00000 0.00000
  44 0.00000 0.00000 0.00000
  45 0.00000 0.00000 0.00000
  46 0.00000 0.00000 0.00000
  47 0.00000 0.00000 0.00000
  48 0.00000 0.00000 0.00000
  49 0.00000 0.00000 0.00000
  50 0.00000 0.00000 0.00000
  51 0.00000 0.00000 0.00000
  52 0.00000 0.00000 0.00000
  53 0.00000 0.00000 0.00000
  54 0.00000 0.00000 0.00000
  55 0.00000 0.00000 0.00000
  56 0.00000 0.00000 0.00000
  57 0.00000 0.00000 0.00000
  58 0.00000 0.00000 0.00000
  59 0.00000 0.00000 0.00000
  60 0.00000 0.00000 0.00000
  61 0.00000 0.00000 0.00000
  62 0.00000 0.00000 0.00000
  63 0.00000 0.00000 0.00000
  64 0.00000 0.00000 0.00000
  65 0.00000 0.00000 0.00000
  66 0.00000 0.00000 0.00000
  67 0.00000 0.00000 0.00000
  68 0.00000 0.00000 0.00000
  69 0.00000 0.00000 0.00000
  70 0.00000 0.00000 0.00000
  71 0.00000 0.00000 0.00000
  72 0.00000 0.00000 0.00000
  73 0.00000 0.00000 0.00000
  74 0.00000 0.00000 0.00000
  75 0.00000 0.00000 0.00000
  76 0.00000 0.00000 0.00000
  77 0.00000 0.00000 0.00000
  78 0.00000 0.00000 0.00000
  79 0.00000 0.00000 0.00000
  80 0.00000 0.00000 0.00000
  81 0.00000 0.00000 0.00000
  82 0.00000 0.00000 0.00000
  83 0.00000 0.00000 0.00000
  84 0.00000 0.00000 0.00000
  85 0.00000 0.00000 0.00000
  86 0.00000 0.00000 0.00000
  87 0.00000 0.00000 0.00000
  88 0.00000 0.00000 0.00000
  89 0.00000 0.00000 0.00000
  90 0.00000 0.00000 0.00000
  91 0.00000 0.00000 0.00000
  92 0.00000 0.00000 0.00000
  93 0.00000 0.00000 0.00000
  94 0.00000 0.00000 0.00000
  95 0.00000 0.00000 0.00000
  96 0.00000 0.00000 0.00000
  97 0.00000 0.00000 0.00000
  98 0.00000 0.00000 0.00000
  99 0.00000 0.00000 0.00000
  100 0.00000 0.00000 0.00000
  101 0.00000 0.00000 0.00000
  102 0.00000 0.00000 0.00000
  103 0.00000 0.00000 0.00000
  104 0.00000 0.00000 0.00000
  105 0.00000 0.00000 0.00000
  106 0.00000 0.00000 0.00000
  107 0.00000 0.00000 0.00000
  108 0.00000 0.00000 0.00000
  109 0.00000 0.00000 0.00000
  110 0.00000 0.00000 0.00000
  111 0.00000 0.00000 0.00000
  112 0.00000 0.00000 0.00000
  113 0.00000 0.00000 0.00000
  114 0.00000 0.00000 0.00000
  115 0.00000 0.00000 0.00000
  116 0.00000 0.00000 0.00000
  117 0.00000 0.00000 0.00000
  118 0.00000 0.00000 0.00000
  119 0.00000 0.00000 0.00000
  120 0.00000 0.00000 0.00000
  121 0.00000 0.00000 0.00000
  122 0.00000 0.00000 0.00000
  123 0.00000 0.00000 0.00000
  124 0.00000 0.00000 0.00000
  125 0.00000 0.00000 0.00000
  126 0.00000 0.00000 0.00000
  127 0.00000 0.00000 0.00000
  128 0.00000 0.00000 0.00000
  129 0.00000 0.00000 0.00000
  130 0.00000 0.00000 0.00000
  131 0.00000 0.00000 0.00000
  132 0.00000 0.00000 0.00000
  133 0.00000 0.00000 0.00000
  134 0.00000 0.00000 0.00000
  135 0.00000 0.00000 0.00000
  136 0.00000 0.00000 0.00000
  137 0.00000 0.00000 0.00000
  138 0.00000 0.00000 0.00000
  139 0.00000 0.00000 0.00000
  140 0.00000 0.00000 0.00000
  141 0.00000 0.00000 0.00000
  142 0.00000 0.00000 0.00000
  143 0.00000 0.00000 0.00000
  144 0.00000 0.00000 0.00000
  145 0.00000 0.00000 0.00000
  146 0.00000 0.00000 0.00000
  147 0.00000 0.00000 0.00000
  148 0.00000 0.00000 0.00000
  149 0.00000 0.00000 0.00000
  150 0.00000 0.00000 0.00000
  151 0.00000 0.00000 0.00000
  152 0.00000 0.00000 0.00000
  153 0.00000 0.00000 0.00000
  154 0.00000 0.00000 0.00000
  155 0.00000 0.00000 0.00000
  156 0.00000 0.00000 0.00000
  157 0.00000 0.00000 0.00000
  158 0.00000 0.00000 0.00000
  159 0.00000 0.00000 0.00000
  160 0.00000 0.00000 0.00000
  161 0.00000 0.00000 0.00000
  162 0.00000 0.00000 0.00000
  163 0.00000 0.00000 0.00000
  164 0.00000 0.00000 0.00000
  165 0.00000 0.00000 0.00000
  166 0.00000 0.00000 0.00000
  167 0.00000 0.00000 0.00000
  168 0.00000 0.00000 0.00000
  169 0.00000 0.00000 0.00000
  170 0.00000 0.00000 0.00000
  171 0.00000 0.00000 0.00000
  172 0.00000 0.00000 0.00000
  173 0.00000 0.00000 0.00000
  174 0.00000 0.00000 0.00000
  175 0.00000 0.00000 0.00000
  176 0.00000 0.00000 0.00000
  177 0.00000 0.00000 0.00000
  178 0.00000 0.00000 0.00000
  179 0.00000 0.00000 0.00000
  180 0.00000 0.00000 0.00000
  181 0.00000 0.00000 0.00000
  182 0.00000 0.00000 0.00000
  183 0.00000 0.00000 0.00000
  184 0.00000 0.00000 0.00000
  185 0.00000 0.00000 0.00000
  186 0.00000 0.00000 0.00000
  187 0.00000 0.00000 0.00000
  188 0.00000 0.00000 0.00000
  189 0.00000 0.00000 0.00000
  190 0.00000 0.00000 0.00000
  191 0.00000 0.00000 0.00000
  192 0.00000 0.00000 0.00000
  193 0.00000 0.00000 0.00000
  194 0.00000 0.00000 0.00000
  195 0.00000 0.00000 0.00000
  196 0.00000 0.00000 0.00000
  197 0.00000 0.00000 0.00000
  198 0.00000 0.00000 0.00000
  199 0.00000 0.00000 0.00000
  200 0.00000 0.00000 0.00000
  201 0.00000 0.00000 0.00000
  202 0.00000 0.00000 0.00000
  203 0.00000 0.00000 0.00000
  204 0.00000 0.00000 0.00000
  205 0.00000 0.00000 0.00000
  206 0.00000 0.00000 0.00000
  207 0.00000 0.00000 0.00000
  208 0.00000 0.00000 0.00000
  209 0.00000 0.00000 0.00000
  210 0.00000 0.00000 0.00000
  211 0.00000 0.00000 0.00000
  212 0.00000 0.00000 0.00000
  213 0.00000 0.00000 0.00000
  214 0.00000 0.00000 0.00000
  215 0.00000 0.00000 0.00000
  216 0.00000 0.00000 0.00000
  217 0.00000 0.00000 0.00000
  218 0.00000 0.00000 0.00000
  219 0.00000 0.00000 0.00000
  220 0.00000 0.00000 0.00000
  221 0.00000 0.00000 0.00000
  222 0.00000 0.00000 0.00000
  223 0.00000 0.00000 0.00000
  224 0.00000 0.00000 0.00000
  225 0.00000 0.00000 0.00000
  226 0.00000 0.00000 0.00000
  227 0.00000 0.00000 0.00000
  228 0.00000 0.00000 0.00000
  229 0.00000 0.00000 0.00000
  230 0.00000 0.00000 0.00000
  231 0.00000 0.00000 0.00000
  232 0.00000 0.00000 0.00000
  233 0.00000 0.00000 0.00000
  234 0.00000 0.00000 0.00000
  235 0.00000 0.00000 0.00000
  236 0.00000 0.00000 0.00000
  237 0.00000 0.00000 0.00000
  238 0.00000 0.00000 0.00000
  239 0.00000 0.00000 0.00000
  240 0.00000 0.00000 0.00000
  241 0.00000 0.00000 0.00000
</Section>

newXOutput 180

<Section columns = "stress_xx | stress_yy | stress_xy">
  1 0.00000 0.00000 0.00000
  2 0.00000 0.00000 0.00000
  3 0.00000 0.00000 0.00000
  4 0.00000 0.00000 0.00000
  5 0.00000 0.00000 0.00000
  6 0.00000 0.00000 0.00000
  7 0.00000 0.00000 0.00000
  8 0.00000 0.00000 0.00000
  9 0.00000 0.00000 0.00000
  10 0.00000 0.00000 0.00000
  11 0.00000 0.00000 0.00000
  12 0.00000 0.00000 0.00000
  13 0.00000 0.00000 0.00000
  14 0.00000 0.00000 0.00000
  15 0.00000 0.00000 0.00000
  16 0.00000 0.00000 0.00000
  17 0.00000 0.00000 0.00000
  18 0.00000 0.00000 0.00000
  19 0.00000 0.00000 0.00000
  20 0.00000 0.00000 0.00000
  21 0.00000 0.00000 0.00000
  22 0.00000 0.00000 0.00000
  23 0.00000 0.00000 0.00000
  24 0.00000 0.00000 0.00000
  25 0.00000 0.00000 0.00000
  26 0.00000 0.00000 0.00000
  27 0.00000 0.00000 0.00000
  28 0.00000 0.00000 0.00000
  29 0.00000 0.00000 0.00000
  30 0.00000 0.00000 0.00000
  31 0.00000 0.00000 0.00000
  32 0.00000 0.00000 0.00000
  33 0.00000 0.00000 0.00000
  34 0.00000 0.00000 0.00000
  35 0.00000 0.00000 0.00000
  36 0.00000 0.00000 0.00000
  37 0.00000 0.00000 0.00000
  38 0.00000 0.00000 0.00000
  39 0.00000 0.00000 0.00000
  40 0.00000 0.00000 0.00000
  41 0.00000 0.00000 0.00000
  42 0.00000 0.00000 0.00000
  43 0.00000 0.00000 0.00000
  44 0.00000 0.00000 0.00000
  45 0.00000 0.00000 0.00000
  46 0.00000 0.00000 0.00000
  47 0.00000 0.00000 0.00000
  48 0.00000 0.00000 0.00000
  49 0.00000 0.00000 0.00000
  50 0.00000 0.00000 0.00000
  51 0.00000 0.00000 0.00000
  52 0.00000 0.00000 0.00000
  53 0.00000 0.00000 0.00000
  54 0.00000 0.00000 0.00000
  55 0.00000 0.00000 0.00000
  56 0.00000 0.00000 0.00000
  57 0.00000 0.00000 0.00000
  58 0.00000 0.00000 0.00000
  59 0.00000 0.00000 0.00000
  60 0.00000 0.00000 0.00000
  61 0.00000 0.00000 0.00000
  62 0.00000 0.00000 0.00000
  63 0.00000 0.00000 0.00000
  64 0.00000 0.00000 0.00000
  65 0.00000 0.00000 0.00000
  66 0.00000 0.00000 0.00000
  67 0.00000 0.00000 0.00000
  68 0.00000 0.00000 0.00000
  69 0.00000 0.00000 0.00000
  70 0.00000 0.00000 0.00000
  71 0.00000 0.00000 0.00000
  72 0.00000 0.00000 0.00000
  73 0.00000 0.00000 0.00000
  74 0.00000 0.00000 0.00000
  75 0.00000 0.00000 0.00000
  76 0.00000 0.00000 0.00000
  77 0.00000 0.00000 0.00000
  78 0.00000 0.00000 0.00000
  79 0.00000 0.00000 0.00000
  80 0.00000 0.00000 0.00000
  81 0.00000 0.00000 0.00000
  82 0.00000 0.00000 0.00000
  83 0.00000 0.00000 0.00000
  84 0.00000 0.00000 0.00000
  85 0.00000 0.00000 0.00000
  86 0.00000 0.00000 0.00000
  87 0.00000 0.00000 0.00000
  88 0.00000 0.00000 0.00000
  89 0.00000 0.00000 0.00000
  90 0.00000 0.00000 0.00000
  91 0.00000 0.00000 0.00000
  92 0.00000 0.00000 0.00000
  93 0.00000 0.00000 0.00000
  94 0.00000 0.00000 0.00000
  95 0.00000 0.00000 0.00000
  96 0.00000 0.00000 0.00000
  97 0.00000 0.00000 0.00000
  98 0.00000 0.00000 0.00000
  99 0.00000 0.00000 0.00000
  100 0.00000 0.00000 0.00000
  101 0.00000 0.00000 0.00000
  102 0.00000 0.00000 0.00000
  103 0.00000 0.00000 0.00000
  104 0.00000 0.00000 0.00000
  105 0.00000 0.00000 0.00000
  106 0.00000 0.00000 0.00000
  107 0.00000 0.00000 0.00000
  108 0.00000 0.00000 0.00000
  109 0.00000 0.00000 0.00000
  110 0.00000 0.00000 0.00000
  111 0.00000 0.00000 0.00000
  112 0.00000 0.00000 0.00000
  113 0.00000 0.00000 0.00000
  114 0.00000 0.00000 0.00000
  115 0.00000 0.00000 0.00000
  116 0.00000 0.00000 0.00000
  117 0.00000 0.00000 0.00000
  118 0.00000 0.00000 0.00000
  119 0.00000 0.00000 0.00000
  120 0.00000 0.00000 0.00000
  121 0.00000 0.00000 0.00000
  122 0.00000 0.00000 0.00000
  123 0.00000 0.00000 0.00000
  124 0.00000 0.00000 0.00000
  125 0.00000 0.00000 0.00000
  126 0.00000 0.00000 0.00000
  127 0.00000 0.00000 0.00000
  128 0.00000 0.00000 0.00000
  129 0.00000 0.00000 0.00000
  130 0.00000 0.00000 0.00000
  131 0.00000 0.00000 0.00000
  132 0.00000 0.00000 0.00000
  133 0.00000 0.00000 0.00000
  134 0.00000 0.00000 0.00000
  135 0.00000 0.00000 0.00000
  136 0.00000 0.00000 0.00000
  137 0.00000 0.00000 0.00000
  138 0.00000 0.00000 0.00000
  139 0.00000 0.00000 0.00000
  140 0.00000 0.00000 0.00000
  141 0.00000 0.00000 0.00000
  142 0.00000 0.00000 0.00000
  143 0.00000 0.00000 0.00000
  144 0.00000 0.00000 0.00000
  145 0.00000 0.00000 0.00000
  146 0.00000 0.00000 0.00000
  147 0.00000 0.00000 0.00000
  148 0.00000 0.00000 0.00000
  149 0.00000 0.00000 0.00000
  150 0.00000 0.00000 0.00000
  151 0.00000 0.00000 0.00000
  152 0.00000 0.00000 0.00000
  153 0.00000 0.00000 0.00000
  154 0.00000 0.00000 0.00000
  155 0.00000 0.00000 0.00000
  156 0.00000 0.00000 0.00000
  157 0.00000 0.00000 0.00000
  158 0.00000 0.00000 0.00000
  159 0.00000 0.00000 0.00000
  160 0.00000 0.00000 0.00000
  161 0.00000 0.00000 0.00000
  162 0.00000 0.00000 0.00000
  163 0.00000 0.00000 0.00000
  164 0.00000 0.00000 0.00000
  165 0.00000 0.00000 0.00000
  166 0.00000 0.00000 0.00000
  167 0.00000 0.00000 0.00000
  168 0.00000 0.00000 0.00000
  169 0.00000 0.00000 0.00000
  170 0.00000 0.00000 0.00000
  171 0.00000 0.00000 0.00000
  172 0.00000 0.00000 0.00000
  173 0.00000 0.00000 0.00000
  174 0.00000 0.00000 0.00000
  175 0.00000 0.00000 0.00000
  176 0.00000 0.00000 0.00000
  177 0.00000 0.00000 0.00000
  178 0.00000 0.00000 0.00000
  179 0.00000 0.00000 0.00000
  180 0.00000 0.00000 0.00000
  181 0.00000 0.00000 0.00000
  182 0.00000 0.00000 0.00000
  183 0.00000 0.00000 0.00000
  184 0.00000 0.00000 0.00000
  185 0.00000 0.00000 0.00000
  186 0.00000 0.00000 0.00000
  187 0.00000 0.00000 0.00000
  188 0.00000 0.00000 0.00000
  189 0.00000 0.00000 0.00000
  190 0.00000 0.00000 0.00000
  191 0.00000 0.00000 0.00000
  192 0.00000 0.00000 0.00000
  193 0.00000 0.00000 0.00000
  194 0.00000 0.00000 0.00000
  195 0.00000 0.00000 0.00000
  196 0.00000 0.00000 0.00000
  197 0.00000 0.00000 0.00000
  198 0.00000 0.00000 0.00000
  199 0.00000 0.00000 0.00000
  200 0.00000 0.00000 0.00000
  201 0.00000 0.00000 0.00000
  202 0.00000 0.00000 0.00000
  203 0.00000 0.00000 0.00000
  204 0.00000 0.00000 0.00000
  205 0.00000 0.00000 0.00000
  206 0.00000 0.00000 0.00000
  207 0.00000 0.00000 0.00000
  208 0.00000 0.00000 0.00000
  209 0.00000 0.00000 0.00000
  210 0.00000 0.00000 0.00000
  211 0.00000 0.00000 0.00000
  212 0.00000 0.00000 0.00000
  213 0.00000 0.00000 0.00000
  214 0.00000 0.00000 0.00000
  215 0.00000 0.00000 0.00000
  216 0.00000 0.00000 0.00000
  217 0.00000 0.00000 0.00000
  218 0.00000 0.00000 0.00000
  219 0.00000 0.00000 0.00000
  220 0.00000 0.00000 0.00000
  221 0.00000 0.00000 0.00000
  222 0.00000 0.00000 0.00000
  223 0.00000 0.00000 0.00000
  224 0.00000 0.00000 0.00000
  225 0.00000 0.00000 0.00000
  226 0.00000 0.00000 0.00000
  227 0.00000 0.00000 0.00000
  228 0.00000 0.00000 0.00000
  229 0.00000 0.00000 0.00000
  230 0.00000 0.00000 0.00000
  231 0.00000 0.00000 0.00000
  232 0.00000 0.00000 0.00000
  233 0.00000 0.00000 0.00000
  234 0.00000 0.00000 0.00000
  235 0.00000 0.00000 0.00000
  236 0.00000 0.00000 0.00000
  237 0.00000 0.00000 0.00000
  238 0.00000 0.00000 0.00000
  239 0.00000 0.00000 0.00000
  240 0.00000 0.00000 0.00000
  241 0.00000 0.00000 0.00000
</Section>

newXOutput 181

<Section columns = "stress_xx | stress_yy | stress_xy">
  1 0.00000 0.00000 0.00000
  2 0.00000 0.00000 0.00000
  3 0.00000 0.00000 0.00000
  4 0.00000 0.00000 0.00000
  5 0.00000 0.00000 0.00000
  6 0.00000 0.00000 0.00000
  7 0.00000 0.00000 0.00000
  8 0.00000 0.00000 0.00000
  9 0.00000 0.00000 0.00000
  10 0.00000 0.00000 0.00000
  11 0.00000 0.00000 0.00000
  12 0.00000 0.00000 0.00000
  13 0.00000 0.00000 0.00000
  14 0.00000 0.00000 0.00000
  15 0.00000 0.00000 0.00000
  16 0.00000 0.00000 0.00000
  17 0.00000 0.00000 0.00000
  18 0.00000 0.00000 0.00000
  19 0.00000 0.00000 0.00000
  20 0.00000 0.00000 0.00000
  21 0.00000 0.00000 0.00000
  22 0.00000 0.00000 0.00000
  23 0.00000 0.00000 0.00000
  24 0.00000 0.00000 0.00000
  25 0.00000 0.00000 0.00000
  26 0.00000 0.00000 0.00000
  27 0.00000 0.00000 0.00000
  28 0.00000 0.00000 0.00000
  29 0.00000 0.00000 0.00000
  30 0.00000 0.00000 0.00000
  31 0.00000 0.00000 0.00000
  32 0.00000 0.00000 0.00000
  33 0.00000 0.00000 0.00000
  34 0.00000 0.00000 0.00000
  35 0.00000 0.00000 0.00000
  36 0.00000 0.00000 0.00000
  37 0.00000 0.00000 0.00000
  38 0.00000 0.00000 0.00000
  39 0.00000 0.00000 0.00000
  40 0.00000 0.00000 0.00000
  41 0.00000 0.00000 0.00000
  42 0.00000 0.00000 0.00000
  43 0.00000 0.00000 0.00000
  44 0.00000 0.00000 0.00000
  45 0.00000 0.00000 0.00000
  46 0.00000 0.00000 0.00000
  47 0.00000 0.00000 0.00000
  48 0.00000 0.00000 0.00000
  49 0.00000 0.00000 0.00000
  50 0.00000 0.00000 0.00000
  51 0.00000 0.00000 0.00000
  52 0.00000 0.00000 0.00000
  53 0.00000 0.00000 0.00000
  54 0.00000 0.00000 0.00000
  55 0.00000 0.00000 0.00000
  56 0.00000 0.00000 0.00000
  57 0.00000 0.00000 0.00000
  58 0.00000 0.00000 0.00000
  59 0.00000 0.00000 0.00000
  60 0.00000 0.00000 0.00000
  61 0.00000 0.00000 0.00000
  62 0.00000 0.00000 0.00000
  63 0.00000 0.00000 0.00000
  64 0.00000 0.00000 0.00000
  65 0.00000 0.00000 0.00000
  66 0.00000 0.00000 0.00000
  67 0.00000 0.00000 0.00000
  68 0.00000 0.00000 0.00000
  69 0.00000 0.00000 0.00000
  70 0.00000 0.00000 0.00000
  71 0.00000 0.00000 0.00000
  72 0.00000 0.00000 0.00000
  73 0.00000 0.00000 0.00000
  74 0.00000 0.00000 0.00000
  75 0.00000 0.00000 0.00000
  76 0.00000 0.00000 0.00000
  77 0.00000 0.00000 0.00000
  78 0.00000 0.00000 0.00000
  79 0.00000 0.00000 0.00000
  80 0.00000 0.00000 0.00000
  81 0.00000 0.00000 0.00000
  82 0.00000 0.00000 0.00000
  83 0.00000 0.00000 0.00000
  84 0.00000 0.00000 0.00000
  85 0.00000 0.00000 0.00000
  86 0.00000 0.00000 0.00000
  87 0.00000 0.00000 0.00000
  88 0.00000 0.00000 0.00000
  89 0.00000 0.00000 0.00000
  90 0.00000 0.00000 0.00000
  91 0.00000 0.00000 0.00000
  92 0.00000 0.00000 0.00000
  93 0.00000 0.00000 0.00000
  94 0.00000 0.00000 0.00000
  95 0.00000 0.00000 0.00000
  96 0.00000 0.00000 0.00000
  97 0.00000 0.00000 0.00000
  98 0.00000 0.00000 0.00000
  99 0.00000 0.00000 0.00000
  100 0.00000 0.00000 0.00000
  101 0.00000 0.00000 0.00000
  102 0.00000 0.00000 0.00000
  103 0.00000 0.00000 0.00000
  104 0.00000 0.00000 0.00000
  105 0.00000 0.00000 0.00000
  106 0.00000 0.00000 0.00000
  107 0.00000 0.00000 0.00000
  108 0.00000 0.00000 0.00000
  109 0.00000 0.00000 0.00000
  110 0.00000 0.00000 0.00000
  111 0.00000 0.00000 0.00000
  112 0.00000 0.00000 0.00000
  113 0.00000 0.00000 0.00000
  114 0.00000 0.00000 0.00000
  115 0.00000 0.00000 0.00000
  116 0.00000 0.00000 0.00000
  117 0.00000 0.00000 0.00000
  118 0.00000 0.00000 0.00000
  119 0.00000 0.00000 0.00000
  120 0.00000 0.00000 0.00000
  121 0.00000 0.00000 0.00000
  122 0.00000 0.00000 0.00000
  123 0.00000 0.00000 0.00000
  124 0.00000 0.00000 0.00000
  125 0.00000 0.00000 0.00000
  126 0.00000 0.00000 0.00000
  127 0.00000 0.00000 0.00000
  128 0.00000 0.00000 0.00000
  129 0.00000 0.00000 0.00000
  130 0.00000 0.00000 0.00000
  131 0.00000 0.00000 0.00000
  132 0.00000 0.00000 0.00000
  133 0.00000 0.00000 0.00000
  134 0.00000 0.00000 0.00000
  135 0.00000 0.00000 0.00000
  136 0.00000 0.00000 0.00000
  137 0.00000 0.00000 0.00000
  138 0.00000 0.00000 0.00000
  139 0.00000 0.00000 0.00000
  140 0.00000 0.00000 0.00000
  141 0.00000 0.00000 0.00000
  142 0.00000 0.00000 0.00000
  143 0.00000 0.00000 0.00000
  144 0.00000 0.00000 0.00000
  145 0.00000 0.00000 0.00000
  146 0.00000 0.00000 0.00000
  147 0.00000 0.00000 0.00000
  148 0.00000 0.00000 0.00000
  149 0.00000 0.00000 0.00000
  150 0.00000 0.00000 0.00000
  151 0.00000 0.00000 0.00000
  152 0.00000 0.00000 0.00000
  153 0.00000 0.00000 0.00000
  154 0.00000 0.00000 0.00000
  155 0.00000 0.00000 0.00000
  156 0.00000 0.00000 0.00000
  157 0.00000 0.00000 0.00000
  158 0.00000 0.00000 0.00000
  159 0.00000 0.00000 0.00000
  160 0.00000 0.00000 0.00000
  161 0.00000 0.00000 0.00000
  162 0.00000 0.00000 0.00000
  163 0.00000 0.00000 0.00000
  164 0.00000 0.00000 0.00000
  165 0.00000 0.00000 0.00000
  166 0.00000 0.00000 0.00000
  167 0.00000 0.00000 0.00000
  168 0.00000 0.00000 0.00000
  169 0.00000 0.00000 0.00000
  170 0.00000 0.00000 0.00000
  171 0.00000 0.00000 0.00000
  172 0.00000 0.00000 0.00000
  173 0.00000 0.00000 0.00000
  174 0.00000 0.00000 0.00000
  175 0.00000 0.00000 0.00000
  176 0.00000 0.00000 0.00000
  177 0.00000 0.00000 0.00000
  178 0.00000 0.00000 0.00000
  179 0.00000 0.00000 0.00000
  180 0.00000 0.00000 0.00000
  181 0.00000 0.00000 0.00000
  182 0.00000 0.00000 0.00000
  183 0.00000 0.00000 0.00000
  184 0.00000 0.00000 0.00000
  185 0.00000 0.00000 0.00000
  186 0.00000 0.00000 0.00000
  187 0.00000 0.00000 0.00000
  188 0.00000 0.00000 0.00000
  189 0.00000 0.00000 0.00000
  190 0.00000 0.00000 0.00000
  191 0.00000 0.00000 0.00000
  192 0.00000 0.00000 0.00000
  193 0.00000 0.00000 0.00000
  194 0.00000 0.00000 0.00000
  195 0.00000 0.00000 0.00000
  196 0.00000 0.00000 0.00000
  197 0.00000 0.00000 0.00000
  198 0.00000 0.00000 0.00000
  199 0.00000 0.00000 0.00000
  200 0.00000 0.00000 0.00000
  201 0.00000 0.00000 0.00000
  202 0.00000 0.00000 0.00000
  203 0.00000 0.00000 0.00000
  204 0.00000 0.00000 0.00000
  205 0.00000 0.00000 0.00000
  206 0.00000 0.00000 0.00000
  207 0.00000 0.00000 0.00000
  208 0.00000 0.00000 0.00000
  209 0.00000 0.00000 0.00000
  210 0.00000 0.00000 0.00000
  211 0.00000 0.00000 0.00000
  212 0.00000 0.00000 0.00000
  213 0.00000 0.00000 0.00000
  214 0.00000 0.00000 0.00000
  215 0.00000 0.00000 0.00000
  216 0.00000 0.00000 0.00000
  217 0.00000 0.00000 0.00000
  218 0.00000 0.00000 0.00000
  219 0.00000 0.00000 0.00000
  220 0.00000 0.00000 0.00000
  221 0.00000 0.00000 0.00000
  222 0.00000 0.00000 0.00000
  223 0.00000 0.00000 0.00000
  224 0.00000 0.00000 0.00000
  225 0.00000 0.00000 0.00000
  226 0.00000 0.00000 0.00000
  227 0.00000 0.00000 0.00000
  228 0.00000 0.00000 0.00000
  229 0.00000 0.00000 0.00000
  230 0.00000 0.00000 0.00000
  231 0.00000 0.00000 0.00000
  232 0.00000 0.00000 0.00000
  233 0.00000 0.00000 0.00000
  234 0.00000 0.00000 0.00000
  235 0.00000 0.00000 0.00000
  236 0.00000 0.00000 0.00000
  237 0.00000 0.00000 0.00000
  238 0.00000 0.00000 0.00000
  239 0.00000 0.00000 0.00000
  240 0.00000 0.00000 0.00000
  241 0.00000 0.00000 0.00000
</Section>

newXOutput 182

<Section columns = "stress_xx | stress_yy | stress_xy">
  1 0.00000 0.00000 0.00000
  2 0.00000 0.00000 0.00000
  3 0.00000 0.00000 0.00000
  4 0.00000 0.00000 0.00000
  5 0.00000 0.00000 0.00000
  6 0.00000 0.00000 0.00000
  7 0.00000 0.00000 0.00000
  8 0.00000 0.00000 0.00000
  9 0.00000 0.00000 0.00000
  10 0.00000 0.00000 0.00000
  11 0.00000 0.00000 0.00000
  12 0.00000 0.00000 0.00000
  13 0.00000 0.00000 0.00000
  14 0.00000 0.00000 0.00000
  15 0.00000 0.00000 0.00000
  16 0.00000 0.00000 0.00000
  17 0.00000 0.00000 0.00000
  18 0.00000 0.00000 0.00000
  19 0.00000 0.00000 0.00000
  20 0.00000 0.00000 0.00000
  21 0.00000 0.00000 0.00000
  22 0.00000 0.00000 0.00000
  23 0.00000 0.00000 0.00000
  24 0.00000 0.00000 0.00000
  25 0.00000 0.00000 0.00000
  26 0.00000 0.00000 0.00000
  27 0.00000 0.00000 0.00000
  28 0.00000 0.00000 0.00000
  29 0.00000 0.00000 0.00000
  30 0.00000 0.00000 0.00000
  31 0.00000 0.00000 0.00000
  32 0.00000 0.00000 0.00000
  33 0.00000 0.00000 0.00000
  34 0.00000 0.00000 0.00000
  35 0.00000 0.00000 0.00000
  36 0.00000 0.00000 0.00000
  37 0.00000 0.00000 0.00000
  38 0.00000 0.00000 0.00000
  39 0.00000 0.00000 0.00000
  40 0.00000 0.00000 0.00000
  41 0.00000 0.00000 0.00000
  42 0.00000 0.00000 0.00000
  43 0.00000 0.00000 0.00000
  44 0.00000 0.00000 0.00000
  45 0.00000 0.00000 0.00000
  46 0.00000 0.00000 0.00000
  47 0.00000 0.00000 0.00000
  48 0.00000 0.00000 0.00000
  49 0.00000 0.00000 0.00000
  50 0.00000 0.00000 0.00000
  51 0.00000 0.00000 0.00000
  52 0.00000 0.00000 0.00000
  53 0.00000 0.00000 0.00000
  54 0.00000 0.00000 0.00000
  55 0.00000 0.00000 0.00000
  56 0.00000 0.00000 0.00000
  57 0.00000 0.00000 0.00000
  58 0.00000 0.00000 0.00000
  59 0.00000 0.00000 0.00000
  60 0.00000 0.00000 0.00000
  61 0.00000 0.00000 0.00000
  62 0.00000 0.00000 0.00000
  63 0.00000 0.00000 0.00000
  64 0.00000 0.00000 0.00000
  65 0.00000 0.00000 0.00000
  66 0.00000 0.00000 0.00000
  67 0.00000 0.00000 0.00000
  68 0.00000 0.00000 0.00000
  69 0.00000 0.00000 0.00000
  70 0.00000 0.00000 0.00000
  71 0.00000 0.00000 0.00000
  72 0.00000 0.00000 0.00000
  73 0.00000 0.00000 0.00000
  74 0.00000 0.00000 0.00000
  75 0.00000 0.00000 0.00000
  76 0.00000 0.00000 0.00000
  77 0.00000 0.00000 0.00000
  78 0.00000 0.00000 0.00000
  79 0.00000 0.00000 0.00000
  80 0.00000 0.00000 0.00000
  81 0.00000 0.00000 0.00000
  82 0.00000 0.00000 0.00000
  83 0.00000 0.00000 0.00000
  84 0.00000 0.00000 0.00000
  85 0.00000 0.00000 0.00000
  86 0.00000 0.00000 0.00000
  87 0.00000 0.00000 0.00000
  88 0.00000 0.00000 0.00000
  89 0.00000 0.00000 0.00000
  90 0.00000 0.00000 0.00000
  91 0.00000 0.00000 0.00000
  92 0.00000 0.00000 0.00000
  93 0.00000 0.00000 0.00000
  94 0.00000 0.00000 0.00000
  95 0.00000 0.00000 0.00000
  96 0.00000 0.00000 0.00000
  97 0.00000 0.00000 0.00000
  98 0.00000 0.00000 0.00000
  99 0.00000 0.00000 0.00000
  100 0.00000 0.00000 0.00000
  101 0.00000 0.00000 0.00000
  102 0.00000 0.00000 0.00000
  103 0.00000 0.00000 0.00000
  104 0.00000 0.00000 0.00000
  105 0.00000 0.00000 0.00000
  106 0.00000 0.00000 0.00000
  107 0.00000 0.00000 0.00000
  108 0.00000 0.00000 0.00000
  109 0.00000 0.00000 0.00000
  110 0.00000 0.00000 0.00000
  111 0.00000 0.00000 0.00000
  112 0.00000 0.00000 0.00000
  113 0.00000 0.00000 0.00000
  114 0.00000 0.00000 0.00000
  115 0.00000 0.00000 0.00000
  116 0.00000 0.00000 0.00000
  117 0.00000 0.00000 0.00000
  118 0.00000 0.00000 0.00000
  119 0.00000 0.00000 0.00000
  120 0.00000 0.00000 0.00000
  121 0.00000 0.00000 0.00000
  122 0.00000 0.00000 0.00000
  123 0.00000 0.00000 0.00000
  124 0.00000 0.00000 0.00000
  125 0.00000 0.00000 0.00000
  126 0.00000 0.00000 0.00000
  127 0.00000 0.00000 0.00000
  128 0.00000 0.00000 0.00000
  129 0.00000 0.00000 0.00000
  130 0.00000 0.00000 0.00000
  131 0.00000 0.00000 0.00000
  132 0.00000 0.00000 0.00000
  133 0.00000 0.00000 0.00000
  134 0.00000 0.00000 0.00000
  135 0.00000 0.00000 0.00000
  136 0.00000 0.00000 0.00000
  137 0.00000 0.00000 0.00000
  138 0.00000 0.00000 0.00000
  139 0.00000 0.00000 0.00000
  140 0.00000 0.00000 0.00000
  141 0.00000 0.00000 0.00000
  142 0.00000 0.00000 0.00000
  143 0.00000 0.00000 0.00000
  144 0.00000 0.00000 0.00000
  145 0.00000 0.00000 0.00000
  146 0.00000 0.00000 0.00000
  147 0.00000 0.00000 0.00000
  148 0.00000 0.00000 0.00000
  149 0.00000 0.00000 0.00000
  150 0.00000 0.00000 0.00000
  151 0.00000 0.00000 0.00000
  152 0.00000 0.00000 0.00000
  153 0.00000 0.00000 0.00000
  154 0.00000 0.00000 0.00000
  155 0.00000 0.00000 0.00000
  156 0.00000 0.00000 0.00000
  157 0.00000 0.00000 0.00000
  158 0.00000 0.00000 0.00000
  159 0.00000 0.00000 0.00000
  160 0.00000 0.00000 0.00000
  161 0.00000 0.00000 0.00000
  162 0.00000 0.00000 0.00000
  163 0.00000 0.00000 0.00000
  164 0.00000 0.00000 0.00000
  165 0.00000 0.00000 0.00000
  166 0.00000 0.00000 0.00000
  167 0.00000 0.00000 0.00000
  168 0.00000 0.00000 0.00000
  169 0.00000 0.00000 0.00000
  170 0.00000 0.00000 0.00000
  171 0.00000 0.00000 0.00000
  172 0.00000 0.00000 0.00000
  173 0.00000 0.00000 0.00000
  174 0.00000 0.00000 0.00000
  175 0.00000 0.00000 0.00000
  176 0.00000 0.00000 0.00000
  177 0.00000 0.00000 0.00000
  178 0.00000 0.00000 0.00000
  179 0.00000 0.00000 0.00000
  180 0.00000 0.00000 0.00000
  181 0.00000 0.00000 0.00000
  182 0.00000 0.00000 0.00000
  183 0.00000 0.00000 0.00000
  184 0.00000 0.00000 0.00000
  185 0.00000 0.00000 0.00000
  186 0.00000 0.00000 0.00000
  187 0.00000 0.00000 0.00000
  188 0.00000 0.00000 0.00000
  189 0.00000 0.00000 0.00000
  190 0.00000 0.00000 0.00000
  191 0.00000 0.00000 0.00000
  192 0.00000 0.00000 0.00000
  193 0.00000 0.00000 0.00000
  194 0.00000 0.00000 0.00000
  195 0.00000 0.00000 0.00000
  196 0.00000 0.00000 0.00000
  197 0.00000 0.00000 0.00000
  198 0.00000 0.00000 0.00000
  199 0.00000 0.00000 0.00000
  200 0.00000 0.00000 0.00000
  201 0.00000 0.00000 0.00000
  202 0.00000 0.00000 0.00000
  203 0.00000 0.00000 0.00000
  204 0.00000 0.00000 0.00000
  205 0.00000 0.00000 0.00000
  206 0.00000 0.00000 0.00000
  207 0.00000 0.00000 0.00000
  208 0.00000 0.00000 0.00000
  209 0.00000 0.00000 0.00000
  210 0.00000 0.00000 0.00000
  211 0.00000 0.00000 0.00000
  212 0.00000 0.00000 0.00000
  213 0.00000 0.00000 0.00000
  214 0.00000 0.00000 0.00000
  215 0.00000 0.00000 0.00000
  216 0.00000 0.00000 0.00000
  217 0.00000 0.00000 0.00000
  218 0.00000 0.00000 0.00000
  219 0.00000 0.00000 0.00000
  220 0.00000 0.00000 0.00000
  221 0.00000 0.00000 0.00000
  222 0.00000 0.00000 0.00000
  223 0.00000 0.00000 0.00000
  224 0.00000 0.00000 0.00000
  225 0.00000 0.00000 0.00000
  226 0.00000 0.00000 0.00000
  227 0.00000 0.00000 0.00000
  228 0.00000 0.00000 0.00000
  229 0.00000 0.00000 0.00000
  230 0.00000 0.00000 0.00000
  231 0.00000 0.00000 0.00000
  232 0.00000 0.00000 0.00000
  233 0.00000 0.00000 0.00000
  234 0.00000 0.00000 0.00000
  235 0.00000 0.00000 0.00000
  236 0.00000 0.00000 0.00000
  237 0.00000 0.00000 0.00000
  238 0.00000 0.00000 0.00000
  239 0.00000 0.00000 0.00000
  240 0.00000 0.00000 0.00000
  241 0.00000 0.00000 0.00000
</Section>

newXOutput 183

<Section columns = "stress_xx | stress_yy | stress_xy">
  1 0.00000 0.00000 0.00000
  2 0.00000 0.00000 0.00000
  3 0.00000 0.00000 0.00000
  4 0.00000 0.00000 0.00000
  5 0.00000 0.00000 0.00000
  6 0.00000 0.00000 0.00000
  7 0.00000 0.00000 0.00000
  8 0.00000 0.00000 0.00000
  9 0.00000 0.00000 0.00000
  10 0.00000 0.00000 0.00000
  11 0.00000 0.00000 0.00000
  12 0.00000 0.00000 0.00000
  13 0.00000 0.00000 0.00000
  14 0.00000 0.00000 0.00000
  15 0.00000 0.00000 0.00000
  16 0.00000 0.00000 0.00000
  17 0.00000 0.00000 0.00000
  18 0.00000 0.00000 0.00000
  19 0.00000 0.00000 0.00000
  20 0.00000 0.00000 0.00000
  21 0.00000 0.00000 0.00000
  22 0.00000 0.00000 0.00000
  23 0.00000 0.00000 0.00000
  24 0.00000 0.00000 0.00000
  25 0.00000 0.00000 0.00000
  26 0.00000 0.00000 0.00000
  27 0.00000 0.00000 0.00000
  28 0.00000 0.00000 0.00000
  29 0.00000 0.00000 0.00000
  30 0.00000 0.00000 0.00000
  31 0.00000 0.00000 0.00000
  32 0.00000 0.00000 0.00000
  33 0.00000 0.00000 0.00000
  34 0.00000 0.00000 0.00000
  35 0.00000 0.00000 0.00000
  36 0.00000 0.00000 0.00000
  37 0.00000 0.00000 0.00000
  38 0.00000 0.00000 0.00000
  39 0.00000 0.00000 0.00000
  40 0.00000 0.00000 0.00000
  41 0.00000 0.00000 0.00000
  42 0.00000 0.00000 0.00000
  43 0.00000 0.00000 0.00000
  44 0.00000 0.00000 0.00000
  45 0.00000 0.00000 0.00000
  46 0.00000 0.00000 0.00000
  47 0.00000 0.00000 0.00000
  48 0.00000 0.00000 0.00000
  49 0.00000 0.00000 0.00000
  50 0.00000 0.00000 0.00000
  51 0.00000 0.00000 0.00000
  52 0.00000 0.00000 0.00000
  53 0.00000 0.00000 0.00000
  54 0.00000 0.00000 0.00000
  55 0.00000 0.00000 0.00000
  56 0.00000 0.00000 0.00000
  57 0.00000 0.00000 0.00000
  58 0.00000 0.00000 0.00000
  59 0.00000 0.00000 0.00000
  60 0.00000 0.00000 0.00000
  61 0.00000 0.00000 0.00000
  62 0.00000 0.00000 0.00000
  63 0.00000 0.00000 0.00000
  64 0.00000 0.00000 0.00000
  65 0.00000 0.00000 0.00000
  66 0.00000 0.00000 0.00000
  67 0.00000 0.00000 0.00000
  68 0.00000 0.00000 0.00000
  69 0.00000 0.00000 0.00000
  70 0.00000 0.00000 0.00000
  71 0.00000 0.00000 0.00000
  72 0.00000 0.00000 0.00000
  73 0.00000 0.00000 0.00000
  74 0.00000 0.00000 0.00000
  75 0.00000 0.00000 0.00000
  76 0.00000 0.00000 0.00000
  77 0.00000 0.00000 0.00000
  78 0.00000 0.00000 0.00000
  79 0.00000 0.00000 0.00000
  80 0.00000 0.00000 0.00000
  81 0.00000 0.00000 0.00000
  82 0.00000 0.00000 0.00000
  83 0.00000 0.00000 0.00000
  84 0.00000 0.00000 0.00000
  85 0.00000 0.00000 0.00000
  86 0.00000 0.00000 0.00000
  87 0.00000 0.00000 0.00000
  88 0.00000 0.00000 0.00000
  89 0.00000 0.00000 0.00000
  90 0.00000 0.00000 0.00000
  91 0.00000 0.00000 0.00000
  92 0.00000 0.00000 0.00000
  93 0.00000 0.00000 0.00000
  94 0.00000 0.00000 0.00000
  95 0.00000 0.00000 0.00000
  96 0.00000 0.00000 0.00000
  97 0.00000 0.00000 0.00000
  98 0.00000 0.00000 0.00000
  99 0.00000 0.00000 0.00000
  100 0.00000 0.00000 0.00000
  101 0.00000 0.00000 0.00000
  102 0.00000 0.00000 0.00000
  103 0.00000 0.00000 0.00000
  104 0.00000 0.00000 0.00000
  105 0.00000 0.00000 0.00000
  106 0.00000 0.00000 0.00000
  107 0.00000 0.00000 0.00000
  108 0.00000 0.00000 0.00000
  109 0.00000 0.00000 0.00000
  110 0.00000 0.00000 0.00000
  111 0.00000 0.00000 0.00000
  112 0.00000 0.00000 0.00000
  113 0.00000 0.00000 0.00000
  114 0.00000 0.00000 0.00000
  115 0.00000 0.00000 0.00000
  116 0.00000 0.00000 0.00000
  117 0.00000 0.00000 0.00000
  118 0.00000 0.00000 0.00000
  119 0.00000 0.00000 0.00000
  120 0.00000 0.00000 0.00000
  121 0.00000 0.00000 0.00000
  122 0.00000 0.00000 0.00000
  123 0.00000 0.00000 0.00000
  124 0.00000 0.00000 0.00000
  125 0.00000 0.00000 0.00000
  126 0.00000 0.00000 0.00000
  127 0.00000 0.00000 0.00000
  128 0.00000 0.00000 0.00000
  129 0.00000 0.00000 0.00000
  130 0.00000 0.00000 0.00000
  131 0.00000 0.00000 0.00000
  132 0.00000 0.00000 0.00000
  133 0.00000 0.00000 0.00000
  134 0.00000 0.00000 0.00000
  135 0.00000 0.00000 0.00000
  136 0.00000 0.00000 0.00000
  137 0.00000 0.00000 0.00000
  138 0.00000 0.00000 0.00000
  139 0.00000 0.00000 0.00000
  140 0.00000 0.00000 0.00000
  141 0.00000 0.00000 0.00000
  142 0.00000 0.00000 0.00000
  143 0.00000 0.00000 0.00000
  144 0.00000 0.00000 0.00000
  145 0.00000 0.00000 0.00000
  146 0.00000 0.00000 0.00000
  147 0.00000 0.00000 0.00000
  148 0.00000 0.00000 0.00000
  149 0.00000 0.00000 0.00000
  150 0.00000 0.00000 0.00000
  151 0.00000 0.00000 0.00000
  152 0.00000 0.00000 0.00000
  153 0.00000 0.00000 0.00000
  154 0.00000 0.00000 0.00000
  155 0.00000 0.00000 0.00000
  156 0.00000 0.00000 0.00000
  157 0.00000 0.00000 0.00000
  158 0.00000 0.00000 0.00000
  159 0.00000 0.00000 0.00000
  160 0.00000 0.00000 0.00000
  161 0.00000 0.00000 0.00000
  162 0.00000 0.00000 0.00000
  163 0.00000 0.00000 0.00000
  164 0.00000 0.00000 0.00000
  165 0.00000 0.00000 0.00000
  166 0.00000 0.00000 0.00000
  167 0.00000 0.00000 0.00000
  168 0.00000 0.00000 0.00000
  169 0.00000 0.00000 0.00000
  170 0.00000 0.00000 0.00000
  171 0.00000 0.00000 0.00000
  172 0.00000 0.00000 0.00000
  173 0.00000 0.00000 0.00000
  174 0.00000 0.00000 0.00000
  175 0.00000 0.00000 0.00000
  176 0.00000 0.00000 0.00000
  177 0.00000 0.00000 0.00000
  178 0.00000 0.00000 0.00000
  179 0.00000 0.00000 0.00000
  180 0.00000 0.00000 0.00000
  181 0.00000 0.00000 0.00000
  182 0.00000 0.00000 0.00000
  183 0.00000 0.00000 0.00000
  184 0.00000 0.00000 0.00000
  185 0.00000 0.00000 0.00000
  186 0.00000 0.00000 0.00000
  187 0.00000 0.00000 0.00000
  188 0.00000 0.00000 0.00000
  189 0.00000 0.00000 0.00000
  190 0.00000 0.00000 0.00000
  191 0.00000 0.00000 0.00000
  192 0.00000 0.00000 0.00000
  193 0.00000 0.00000 0.00000
  194 0.00000 0.00000 0.00000
  195 0.00000 0.00000 0.00000
  196 0.00000 0.00000 0.00000
  197 0.00000 0.00000 0.00000
  198 0.00000 0.00000 0.00000
  199 0.00000 0.00000 0.00000
  200 0.00000 0.00000 0.00000
  201 0.00000 0.00000 0.00000
  202 0.00000 0.00000 0.00000
  203 0.00000 0.00000 0.00000
  204 0.00000 0.00000 0.00000
  205 0.00000 0.00000 0.00000
  206 0.00000 0.00000 0.00000
  207 0.00000 0.00000 0.00000
  208 0.00000 0.00000 0.00000
  209 0.00000 0.00000 0.00000
  210 0.00000 0.00000 0.00000
  211 0.00000 0.00000 0.00000
  212 0.00000 0.00000 0.00000
  213 0.00000 0.00000 0.00000
  214 0.00000 0.00000 0.00000
  215 0.00000 0.00000 0.00000
  216 0.00000 0.00000 0.00000
  217 0.00000 0.00000 0.00000
  218 0.00000 0.00000 0.00000
  219 0.00000 0.00000 0.00000
  220 0.00000 0.00000 0.00000
  221 0.00000 0.00000 0.00000
  222 0.00000 0.00000 0.00000
  223 0.00000 0.00000 0.00000
  224 0.00000 0.00000 0.00000
  225 0.00000 0.00000 0.00000
  226 0.00000 0.00000 0.00000
  227 0.00000 0.00000 0.00000
  228 0.00000 0.00000 0.00000
  229 0.00000 0.00000 0.00000
  230 0.00000 0.00000 0.00000
  231 0.00000 0.00000 0.00000
  232 0.00000 0.00000 0.00000
  233 0.00000 0.00000 0.00000
  234 0.00000 0.00000 0.00000
  235 0.00000 0.00000 0.00000
  236 0.00000 0.00000 0.00000
  237 0.00000 0.00000 0.00000
  238 0.00000 0.00000 0.00000
  239 0.00000 0.00000 0.00000
  240 0.00000 0.00000 0.00000
  241 0.00000 0.00000 0.00000
</Section>

newXOutput 184

<Section columns = "stress_xx | stress_yy | stress_xy">
  1 0.00000 0.00000 0.00000
  2 0.00000 0.00000 0.00000
  3 0.00000 0.00000 0.00000
  4 0.00000 0.00000 0.00000
  5 0.00000 0.00000 0.00000
  6 0.00000 0.00000 0.00000
  7 0.00000 0.00000 0.00000
  8 0.00000 0.00000 0.00000
  9 0.00000 0.00000 0.00000
  10 0.00000 0.00000 0.00000
  11 0.00000 0.00000 0.00000
  12 0.00000 0.00000 0.00000
  13 0.00000 0.00000 0.00000
  14 0.00000 0.00000 0.00000
  15 0.00000 0.00000 0.00000
  16 0.00000 0.00000 0.00000
  17 0.00000 0.00000 0.00000
  18 0.00000 0.00000 0.00000
  19 0.00000 0.00000 0.00000
  20 0.00000 0.00000 0.00000
  21 0.00000 0.00000 0.00000
  22 0.00000 0.00000 0.00000
  23 0.00000 0.00000 0.00000
  24 0.00000 0.00000 0.00000
  25 0.00000 0.00000 0.00000
  26 0.00000 0.00000 0.00000
  27 0.00000 0.00000 0.00000
  28 0.00000 0.00000 0.00000
  29 0.00000 0.00000 0.00000
  30 0.00000 0.00000 0.00000
  31 0.00000 0.00000 0.00000
  32 0.00000 0.00000 0.00000
  33 0.00000 0.00000 0.00000
  34 0.00000 0.00000 0.00000
  35 0.00000 0.00000 0.00000
  36 0.00000 0.00000 0.00000
  37 0.00000 0.00000 0.00000
  38 0.00000 0.00000 0.00000
  39 0.00000 0.00000 0.00000
  40 0.00000 0.00000 0.00000
  41 0.00000 0.00000 0.00000
  42 0.00000 0.00000 0.00000
  43 0.00000 0.00000 0.00000
  44 0.00000 0.00000 0.00000
  45 0.00000 0.00000 0.00000
  46 0.00000 0.00000 0.00000
  47 0.00000 0.00000 0.00000
  48 0.00000 0.00000 0.00000
  49 0.00000 0.00000 0.00000
  50 0.00000 0.00000 0.00000
  51 0.00000 0.00000 0.00000
  52 0.00000 0.00000 0.00000
  53 0.00000 0.00000 0.00000
  54 0.00000 0.00000 0.00000
  55 0.00000 0.00000 0.00000
  56 0.00000 0.00000 0.00000
  57 0.00000 0.00000 0.00000
  58 0.00000 0.00000 0.00000
  59 0.00000 0.00000 0.00000
  60 0.00000 0.00000 0.00000
  61 0.00000 0.00000 0.00000
  62 0.00000 0.00000 0.00000
  63 0.00000 0.00000 0.00000
  64 0.00000 0.00000 0.00000
  65 0.00000 0.00000 0.00000
  66 0.00000 0.00000 0.00000
  67 0.00000 0.00000 0.00000
  68 0.00000 0.00000 0.00000
  69 0.00000 0.00000 0.00000
  70 0.00000 0.00000 0.00000
  71 0.00000 0.00000 0.00000
  72 0.00000 0.00000 0.00000
  73 0.00000 0.00000 0.00000
  74 0.00000 0.00000 0.00000
  75 0.00000 0.00000 0.00000
  76 0.00000 0.00000 0.00000
  77 0.00000 0.00000 0.00000
  78 0.00000 0.00000 0.00000
  79 0.00000 0.00000 0.00000
  80 0.00000 0.00000 0.00000
  81 0.00000 0.00000 0.00000
  82 0.00000 0.00000 0.00000
  83 0.00000 0.00000 0.00000
  84 0.00000 0.00000 0.00000
  85 0.00000 0.00000 0.00000
  86 0.00000 0.00000 0.00000
  87 0.00000 0.00000 0.00000
  88 0.00000 0.00000 0.00000
  89 0.00000 0.00000 0.00000
  90 0.00000 0.00000 0.00000
  91 0.00000 0.00000 0.00000
  92 0.00000 0.00000 0.00000
  93 0.00000 0.00000 0.00000
  94 0.00000 0.00000 0.00000
  95 0.00000 0.00000 0.00000
  96 0.00000 0.00000 0.00000
  97 0.00000 0.00000 0.00000
  98 0.00000 0.00000 0.00000
  99 0.00000 0.00000 0.00000
  100 0.00000 0.00000 0.00000
  101 0.00000 0.00000 0.00000
  102 0.00000 0.00000 0.00000
  103 0.00000 0.00000 0.00000
  104 0.00000 0.00000 0.00000
  105 0.00000 0.00000 0.00000
  106 0.00000 0.00000 0.00000
  107 0.00000 0.00000 0.00000
  108 0.00000 0.00000 0.00000
  109 0.00000 0.00000 0.00000
  110 0.00000 0.00000 0.00000
  111 0.00000 0.00000 0.00000
  112 0.00000 0.00000 0.00000
  113 0.00000 0.00000 0.00000
  114 0.00000 0.00000 0.00000
  115 0.00000 0.00000 0.00000
  116 0.00000 0.00000 0.00000
  117 0.00000 0.00000 0.00000
  118 0.00000 0.00000 0.00000
  119 0.00000 0.00000 0.00000
  120 0.00000 0.00000 0.00000
  121 0.00000 0.00000 0.00000
  122 0.00000 0.00000 0.00000
  123 0.00000 0.00000 0.00000
  124 0.00000 0.00000 0.00000
  125 0.00000 0.00000 0.00000
  126 0.00000 0.00000 0.00000
  127 0.00000 0.00000 0.00000
  128 0.00000 0.00000 0.00000
  129 0.00000 0.00000 0.00000
  130 0.00000 0.00000 0.00000
  131 0.00000 0.00000 0.00000
  132 0.00000 0.00000 0.00000
  133 0.00000 0.00000 0.00000
  134 0.00000 0.00000 0.00000
  135 0.00000 0.00000 0.00000
  136 0.00000 0.00000 0.00000
  137 0.00000 0.00000 0.00000
  138 0.00000 0.00000 0.00000
  139 0.00000 0.00000 0.00000
  140 0.00000 0.00000 0.00000
  141 0.00000 0.00000 0.00000
  142 0.00000 0.00000 0.00000
  143 0.00000 0.00000 0.00000
  144 0.00000 0.00000 0.00000
  145 0.00000 0.00000 0.00000
  146 0.00000 0.00000 0.00000
  147 0.00000 0.00000 0.00000
  148 0.00000 0.00000 0.00000
  149 0.00000 0.00000 0.00000
  150 0.00000 0.00000 0.00000
  151 0.00000 0.00000 0.00000
  152 0.00000 0.00000 0.00000
  153 0.00000 0.00000 0.00000
  154 0.00000 0.00000 0.00000
  155 0.00000 0.00000 0.00000
  156 0.00000 0.00000 0.00000
  157 0.00000 0.00000 0.00000
  158 0.00000 0.00000 0.00000
  159 0.00000 0.00000 0.00000
  160 0.00000 0.00000 0.00000
  161 0.00000 0.00000 0.00000
  162 0.00000 0.00000 0.00000
  163 0.00000 0.00000 0.00000
  164 0.00000 0.00000 0.00000
  165 0.00000 0.00000 0.00000
  166 0.00000 0.00000 0.00000
  167 0.00000 0.00000 0.00000
  168 0.00000 0.00000 0.00000
  169 0.00000 0.00000 0.00000
  170 0.00000 0.00000 0.00000
  171 0.00000 0.00000 0.00000
  172 0.00000 0.00000 0.00000
  173 0.00000 0.00000 0.00000
  174 0.00000 0.00000 0.00000
  175 0.00000 0.00000 0.00000
  176 0.00000 0.00000 0.00000
  177 0.00000 0.00000 0.00000
  178 0.00000 0.00000 0.00000
  179 0.00000 0.00000 0.00000
  180 0.00000 0.00000 0.00000
  181 0.00000 0.00000 0.00000
  182 0.00000 0.00000 0.00000
  183 0.00000 0.00000 0.00000
  184 0.00000 0.00000 0.00000
  185 0.00000 0.00000 0.00000
  186 0.00000 0.00000 0.00000
  187 0.00000 0.00000 0.00000
  188 0.00000 0.00000 0.00000
  189 0.00000 0.00000 0.00000
  190 0.00000 0.00000 0.00000
  191 0.00000 0.00000 0.00000
  192 0.00000 0.00000 0.00000
  193 0.00000 0.00000 0.00000
  194 0.00000 0.00000 0.00000
  195 0.00000 0.00000 0.00000
  196 0.00000 0.00000 0.00000
  197 0.00000 0.00000 0.00000
  198 0.00000 0.00000 0.00000
  199 0.00000 0.00000 0.00000
  200 0.00000 0.00000 0.00000
  201 0.00000 0.00000 0.00000
  202 0.00000 0.00000 0.00000
  203 0.00000 0.00000 0.00000
  204 0.00000 0.00000 0.00000
  205 0.00000 0.00000 0.00000
  206 0.00000 0.00000 0.00000
  207 0.00000 0.00000 0.00000
  208 0.00000 0.00000 0.00000
  209 0.00000 0.00000 0.00000
  210 0.00000 0.00000 0.00000
  211 0.00000 0.00000 0.00000
  212 0.00000 0.00000 0.00000
  213 0.00000 0.00000 0.00000
  214 0.00000 0.00000 0.00000
  215 0.00000 0.00000 0.00000
  216 0.00000 0.00000 0.00000
  217 0.00000 0.00000 0.00000
  218 0.00000 0.00000 0.00000
  219 0.00000 0.00000 0.00000
  220 0.00000 0.00000 0.00000
  221 0.00000 0.00000 0.00000
  222 0.00000 0.00000 0.00000
  223 0.00000 0.00000 0.00000
  224 0.00000 0.00000 0.00000
  225 0.00000 0.00000 0.00000
  226 0.00000 0.00000 0.00000
  227 0.00000 0.00000 0.00000
  228 0.00000 0.00000 0.00000
  229 0.00000 0.00000 0.00000
  230 0.00000 0.00000 0.00000
  231 0.00000 0.00000 0.00000
  232 0.00000 0.00000 0.00000
  233 0.00000 0.00000 0.00000
  234 0.00000 0.00000 0.00000
  235 0.00000 0.00000 0.00000
  236 0.00000 0.00000 0.00000
  237 0.00000 0.00000 0.00000
  238 0.00000 0.00000 0.00000
  239 0.00000 0.00000 0.00000
  240 0.00000 0.00000 0.00000
  241 0.00000 0.00000 0.00000
</Section>

newXOutput 185

<Section columns = "stress_xx | stress_yy | stress_xy">
  1 0.00000 0.00000 0.00000
  2 0.00000 0.00000 0.00000
  3 0.00000 0.00000 0.00000
  4 0.00000 0.00000 0.00000
  5 0.00000 0.00000 0.00000
  6 0.00000 0.00000 0.00000
  7 0.00000 0.00000 0.00000
  8 0.00000 0.00000 0.00000
  9 0.00000 0.00000 0.00000
  10 0.00000 0.00000 0.00000
  11 0.00000 0.00000 0.00000
  12 0.00000 0.00000 0.00000
  13 0.00000 0.00000 0.00000
  14 0.00000 0.00000 0.00000
  15 0.00000 0.00000 0.00000
  16 0.00000 0.00000 0.00000
  17 0.00000 0.00000 0.00000
  18 0.00000 0.00000 0.00000
  19 0.00000 0.00000 0.00000
  20 0.00000 0.00000 0.00000
  21 0.00000 0.00000 0.00000
  22 0.00000 0.00000 0.00000
  23 0.00000 0.00000 0.00000
  24 0.00000 0.00000 0.00000
  25 0.00000 0.00000 0.00000
  26 0.00000 0.00000 0.00000
  27 0.00000 0.00000 0.00000
  28 0.00000 0.00000 0.00000
  29 0.00000 0.00000 0.00000
  30 0.00000 0.00000 0.00000
  31 0.00000 0.00000 0.00000
  32 0.00000 0.00000 0.00000
  33 0.00000 0.00000 0.00000
  34 0.00000 0.00000 0.00000
  35 0.00000 0.00000 0.00000
  36 0.00000 0.00000 0.00000
  37 0.00000 0.00000 0.00000
  38 0.00000 0.00000 0.00000
  39 0.00000 0.00000 0.00000
  40 0.00000 0.00000 0.00000
  41 0.00000 0.00000 0.00000
  42 0.00000 0.00000 0.00000
  43 0.00000 0.00000 0.00000
  44 0.00000 0.00000 0.00000
  45 0.00000 0.00000 0.00000
  46 0.00000 0.00000 0.00000
  47 0.00000 0.00000 0.00000
  48 0.00000 0.00000 0.00000
  49 0.00000 0.00000 0.00000
  50 0.00000 0.00000 0.00000
  51 0.00000 0.00000 0.00000
  52 0.00000 0.00000 0.00000
  53 0.00000 0.00000 0.00000
  54 0.00000 0.00000 0.00000
  55 0.00000 0.00000 0.00000
  56 0.00000 0.00000 0.00000
  57 0.00000 0.00000 0.00000
  58 0.00000 0.00000 0.00000
  59 0.00000 0.00000 0.00000
  60 0.00000 0.00000 0.00000
  61 0.00000 0.00000 0.00000
  62 0.00000 0.00000 0.00000
  63 0.00000 0.00000 0.00000
  64 0.00000 0.00000 0.00000
  65 0.00000 0.00000 0.00000
  66 0.00000 0.00000 0.00000
  67 0.00000 0.00000 0.00000
  68 0.00000 0.00000 0.00000
  69 0.00000 0.00000 0.00000
  70 0.00000 0.00000 0.00000
  71 0.00000 0.00000 0.00000
  72 0.00000 0.00000 0.00000
  73 0.00000 0.00000 0.00000
  74 0.00000 0.00000 0.00000
  75 0.00000 0.00000 0.00000
  76 0.00000 0.00000 0.00000
  77 0.00000 0.00000 0.00000
  78 0.00000 0.00000 0.00000
  79 0.00000 0.00000 0.00000
  80 0.00000 0.00000 0.00000
  81 0.00000 0.00000 0.00000
  82 0.00000 0.00000 0.00000
  83 0.00000 0.00000 0.00000
  84 0.00000 0.00000 0.00000
  85 0.00000 0.00000 0.00000
  86 0.00000 0.00000 0.00000
  87 0.00000 0.00000 0.00000
  88 0.00000 0.00000 0.00000
  89 0.00000 0.00000 0.00000
  90 0.00000 0.00000 0.00000
  91 0.00000 0.00000 0.00000
  92 0.00000 0.00000 0.00000
  93 0.00000 0.00000 0.00000
  94 0.00000 0.00000 0.00000
  95 0.00000 0.00000 0.00000
  96 0.00000 0.00000 0.00000
  97 0.00000 0.00000 0.00000
  98 0.00000 0.00000 0.00000
  99 0.00000 0.00000 0.00000
  100 0.00000 0.00000 0.00000
  101 0.00000 0.00000 0.00000
  102 0.00000 0.00000 0.00000
  103 0.00000 0.00000 0.00000
  104 0.00000 0.00000 0.00000
  105 0.00000 0.00000 0.00000
  106 0.00000 0.00000 0.00000
  107 0.00000 0.00000 0.00000
  108 0.00000 0.00000 0.00000
  109 0.00000 0.00000 0.00000
  110 0.00000 0.00000 0.00000
  111 0.00000 0.00000 0.00000
  112 0.00000 0.00000 0.00000
  113 0.00000 0.00000 0.00000
  114 0.00000 0.00000 0.00000
  115 0.00000 0.00000 0.00000
  116 0.00000 0.00000 0.00000
  117 0.00000 0.00000 0.00000
  118 0.00000 0.00000 0.00000
  119 0.00000 0.00000 0.00000
  120 0.00000 0.00000 0.00000
  121 0.00000 0.00000 0.00000
  122 0.00000 0.00000 0.00000
  123 0.00000 0.00000 0.00000
  124 0.00000 0.00000 0.00000
  125 0.00000 0.00000 0.00000
  126 0.00000 0.00000 0.00000
  127 0.00000 0.00000 0.00000
  128 0.00000 0.00000 0.00000
  129 0.00000 0.00000 0.00000
  130 0.00000 0.00000 0.00000
  131 0.00000 0.00000 0.00000
  132 0.00000 0.00000 0.00000
  133 0.00000 0.00000 0.00000
  134 0.00000 0.00000 0.00000
  135 0.00000 0.00000 0.00000
  136 0.00000 0.00000 0.00000
  137 0.00000 0.00000 0.00000
  138 0.00000 0.00000 0.00000
  139 0.00000 0.00000 0.00000
  140 0.00000 0.00000 0.00000
  141 0.00000 0.00000 0.00000
  142 0.00000 0.00000 0.00000
  143 0.00000 0.00000 0.00000
  144 0.00000 0.00000 0.00000
  145 0.00000 0.00000 0.00000
  146 0.00000 0.00000 0.00000
  147 0.00000 0.00000 0.00000
  148 0.00000 0.00000 0.00000
  149 0.00000 0.00000 0.00000
  150 0.00000 0.00000 0.00000
  151 0.00000 0.00000 0.00000
  152 0.00000 0.00000 0.00000
  153 0.00000 0.00000 0.00000
  154 0.00000 0.00000 0.00000
  155 0.00000 0.00000 0.00000
  156 0.00000 0.00000 0.00000
  157 0.00000 0.00000 0.00000
  158 0.00000 0.00000 0.00000
  159 0.00000 0.00000 0.00000
  160 0.00000 0.00000 0.00000
  161 0.00000 0.00000 0.00000
  162 0.00000 0.00000 0.00000
  163 0.00000 0.00000 0.00000
  164 0.00000 0.00000 0.00000
  165 0.00000 0.00000 0.00000
  166 0.00000 0.00000 0.00000
  167 0.00000 0.00000 0.00000
  168 0.00000 0.00000 0.00000
  169 0.00000 0.00000 0.00000
  170 0.00000 0.00000 0.00000
  171 0.00000 0.00000 0.00000
  172 0.00000 0.00000 0.00000
  173 0.00000 0.00000 0.00000
  174 0.00000 0.00000 0.00000
  175 0.00000 0.00000 0.00000
  176 0.00000 0.00000 0.00000
  177 0.00000 0.00000 0.00000
  178 0.00000 0.00000 0.00000
  179 0.00000 0.00000 0.00000
  180 0.00000 0.00000 0.00000
  181 0.00000 0.00000 0.00000
  182 0.00000 0.00000 0.00000
  183 0.00000 0.00000 0.00000
  184 0.00000 0.00000 0.00000
  185 0.00000 0.00000 0.00000
  186 0.00000 0.00000 0.00000
  187 0.00000 0.00000 0.00000
  188 0.00000 0.00000 0.00000
  189 0.00000 0.00000 0.00000
  190 0.00000 0.00000 0.00000
  191 0.00000 0.00000 0.00000
  192 0.00000 0.00000 0.00000
  193 0.00000 0.00000 0.00000
  194 0.00000 0.00000 0.00000
  195 0.00000 0.00000 0.00000
  196 0.00000 0.00000 0.00000
  197 0.00000 0.00000 0.00000
  198 0.00000 0.00000 0.00000
  199 0.00000 0.00000 0.00000
  200 0.00000 0.00000 0.00000
  201 0.00000 0.00000 0.00000
  202 0.00000 0.00000 0.00000
  203 0.00000 0.00000 0.00000
  204 0.00000 0.00000 0.00000
  205 0.00000 0.00000 0.00000
  206 0.00000 0.00000 0.00000
  207 0.00000 0.00000 0.00000
  208 0.00000 0.00000 0.00000
  209 0.00000 0.00000 0.00000
  210 0.00000 0.00000 0.00000
  211 0.00000 0.00000 0.00000
  212 0.00000 0.00000 0.00000
  213 0.00000 0.00000 0.00000
  214 0.00000 0.00000 0.00000
  215 0.00000 0.00000 0.00000
  216 0.00000 0.00000 0.00000
  217 0.00000 0.00000 0.00000
  218 0.00000 0.00000 0.00000
  219 0.00000 0.00000 0.00000
  220 0.00000 0.00000 0.00000
  221 0.00000 0.00000 0.00000
  222 0.00000 0.00000 0.00000
  223 0.00000 0.00000 0.00000
  224 0.00000 0.00000 0.00000
  225 0.00000 0.00000 0.00000
  226 0.00000 0.00000 0.00000
  227 0.00000 0.00000 0.00000
  228 0.00000 0.00000 0.00000
  229 0.00000 0.00000 0.00000
  230 0.00000 0.00000 0.00000
  231 0.00000 0.00000 0.00000
  232 0.00000 0.00000 0.00000
  233 0.00000 0.00000 0.00000
  234 0.00000 0.00000 0.00000
  235 0.00000 0.00000 0.00000
  236 0.00000 0.00000 0.00000
  237 0.00000 0.00000 0.00000
  238 0.00000 0.00000 0.00000
  239 0.00000 0.00000 0.00000
  240 0.00000 0.00000 0.00000
  241 0.00000 0.00000 0.00000
</Section>

newXOutput 186

<Section columns = "stress_xx | stress_yy | stress_xy">
  1 0.00000 0.00000 0.00000
  2 0.00000 0.00000 0.00000
  3 0.00000 0.00000 0.00000
  4 0.00000 0.00000 0.00000
  5 0.00000 0.00000 0.00000
  6 0.00000 0.00000 0.00000
  7 0.00000 0.00000 0.00000
  8 0.00000 0.00000 0.00000
  9 0.00000 0.00000 0.00000
  10 0.00000 0.00000 0.00000
  11 0.00000 0.00000 0.00000
  12 0.00000 0.00000 0.00000
  13 0.00000 0.00000 0.00000
  14 0.00000 0.00000 0.00000
  15 0.00000 0.00000 0.00000
  16 0.00000 0.00000 0.00000
  17 0.00000 0.00000 0.00000
  18 0.00000 0.00000 0.00000
  19 0.00000 0.00000 0.00000
  20 0.00000 0.00000 0.00000
  21 0.00000 0.00000 0.00000
  22 0.00000 0.00000 0.00000
  23 0.00000 0.00000 0.00000
  24 0.00000 0.00000 0.00000
  25 0.00000 0.00000 0.00000
  26 0.00000 0.00000 0.00000
  27 0.00000 0.00000 0.00000
  28 0.00000 0.00000 0.00000
  29 0.00000 0.00000 0.00000
  30 0.00000 0.00000 0.00000
  31 0.00000 0.00000 0.00000
  32 0.00000 0.00000 0.00000
  33 0.00000 0.00000 0.00000
  34 0.00000 0.00000 0.00000
  35 0.00000 0.00000 0.00000
  36 0.00000 0.00000 0.00000
  37 0.00000 0.00000 0.00000
  38 0.00000 0.00000 0.00000
  39 0.00000 0.00000 0.00000
  40 0.00000 0.00000 0.00000
  41 0.00000 0.00000 0.00000
  42 0.00000 0.00000 0.00000
  43 0.00000 0.00000 0.00000
  44 0.00000 0.00000 0.00000
  45 0.00000 0.00000 0.00000
  46 0.00000 0.00000 0.00000
  47 0.00000 0.00000 0.00000
  48 0.00000 0.00000 0.00000
  49 0.00000 0.00000 0.00000
  50 0.00000 0.00000 0.00000
  51 0.00000 0.00000 0.00000
  52 0.00000 0.00000 0.00000
  53 0.00000 0.00000 0.00000
  54 0.00000 0.00000 0.00000
  55 0.00000 0.00000 0.00000
  56 0.00000 0.00000 0.00000
  57 0.00000 0.00000 0.00000
  58 0.00000 0.00000 0.00000
  59 0.00000 0.00000 0.00000
  60 0.00000 0.00000 0.00000
  61 0.00000 0.00000 0.00000
  62 0.00000 0.00000 0.00000
  63 0.00000 0.00000 0.00000
  64 0.00000 0.00000 0.00000
  65 0.00000 0.00000 0.00000
  66 0.00000 0.00000 0.00000
  67 0.00000 0.00000 0.00000
  68 0.00000 0.00000 0.00000
  69 0.00000 0.00000 0.00000
  70 0.00000 0.00000 0.00000
  71 0.00000 0.00000 0.00000
  72 0.00000 0.00000 0.00000
  73 0.00000 0.00000 0.00000
  74 0.00000 0.00000 0.00000
  75 0.00000 0.00000 0.00000
  76 0.00000 0.00000 0.00000
  77 0.00000 0.00000 0.00000
  78 0.00000 0.00000 0.00000
  79 0.00000 0.00000 0.00000
  80 0.00000 0.00000 0.00000
  81 0.00000 0.00000 0.00000
  82 0.00000 0.00000 0.00000
  83 0.00000 0.00000 0.00000
  84 0.00000 0.00000 0.00000
  85 0.00000 0.00000 0.00000
  86 0.00000 0.00000 0.00000
  87 0.00000 0.00000 0.00000
  88 0.00000 0.00000 0.00000
  89 0.00000 0.00000 0.00000
  90 0.00000 0.00000 0.00000
  91 0.00000 0.00000 0.00000
  92 0.00000 0.00000 0.00000
  93 0.00000 0.00000 0.00000
  94 0.00000 0.00000 0.00000
  95 0.00000 0.00000 0.00000
  96 0.00000 0.00000 0.00000
  97 0.00000 0.00000 0.00000
  98 0.00000 0.00000 0.00000
  99 0.00000 0.00000 0.00000
  100 0.00000 0.00000 0.00000
  101 0.00000 0.00000 0.00000
  102 0.00000 0.00000 0.00000
  103 0.00000 0.00000 0.00000
  104 0.00000 0.00000 0.00000
  105 0.00000 0.00000 0.00000
  106 0.00000 0.00000 0.00000
  107 0.00000 0.00000 0.00000
  108 0.00000 0.00000 0.00000
  109 0.00000 0.00000 0.00000
  110 0.00000 0.00000 0.00000
  111 0.00000 0.00000 0.00000
  112 0.00000 0.00000 0.00000
  113 0.00000 0.00000 0.00000
  114 0.00000 0.00000 0.00000
  115 0.00000 0.00000 0.00000
  116 0.00000 0.00000 0.00000
  117 0.00000 0.00000 0.00000
  118 0.00000 0.00000 0.00000
  119 0.00000 0.00000 0.00000
  120 0.00000 0.00000 0.00000
  121 0.00000 0.00000 0.00000
  122 0.00000 0.00000 0.00000
  123 0.00000 0.00000 0.00000
  124 0.00000 0.00000 0.00000
  125 0.00000 0.00000 0.00000
  126 0.00000 0.00000 0.00000
  127 0.00000 0.00000 0.00000
  128 0.00000 0.00000 0.00000
  129 0.00000 0.00000 0.00000
  130 0.00000 0.00000 0.00000
  131 0.00000 0.00000 0.00000
  132 0.00000 0.00000 0.00000
  133 0.00000 0.00000 0.00000
  134 0.00000 0.00000 0.00000
  135 0.00000 0.00000 0.00000
  136 0.00000 0.00000 0.00000
  137 0.00000 0.00000 0.00000
  138 0.00000 0.00000 0.00000
  139 0.00000 0.00000 0.00000
  140 0.00000 0.00000 0.00000
  141 0.00000 0.00000 0.00000
  142 0.00000 0.00000 0.00000
  143 0.00000 0.00000 0.00000
  144 0.00000 0.00000 0.00000
  145 0.00000 0.00000 0.00000
  146 0.00000 0.00000 0.00000
  147 0.00000 0.00000 0.00000
  148 0.00000 0.00000 0.00000
  149 0.00000 0.00000 0.00000
  150 0.00000 0.00000 0.00000
  151 0.00000 0.00000 0.00000
  152 0.00000 0.00000 0.00000
  153 0.00000 0.00000 0.00000
  154 0.00000 0.00000 0.00000
  155 0.00000 0.00000 0.00000
  156 0.00000 0.00000 0.00000
  157 0.00000 0.00000 0.00000
  158 0.00000 0.00000 0.00000
  159 0.00000 0.00000 0.00000
  160 0.00000 0.00000 0.00000
  161 0.00000 0.00000 0.00000
  162 0.00000 0.00000 0.00000
  163 0.00000 0.00000 0.00000
  164 0.00000 0.00000 0.00000
  165 0.00000 0.00000 0.00000
  166 0.00000 0.00000 0.00000
  167 0.00000 0.00000 0.00000
  168 0.00000 0.00000 0.00000
  169 0.00000 0.00000 0.00000
  170 0.00000 0.00000 0.00000
  171 0.00000 0.00000 0.00000
  172 0.00000 0.00000 0.00000
  173 0.00000 0.00000 0.00000
  174 0.00000 0.00000 0.00000
  175 0.00000 0.00000 0.00000
  176 0.00000 0.00000 0.00000
  177 0.00000 0.00000 0.00000
  178 0.00000 0.00000 0.00000
  179 0.00000 0.00000 0.00000
  180 0.00000 0.00000 0.00000
  181 0.00000 0.00000 0.00000
  182 0.00000 0.00000 0.00000
  183 0.00000 0.00000 0.00000
  184 0.00000 0.00000 0.00000
  185 0.00000 0.00000 0.00000
  186 0.00000 0.00000 0.00000
  187 0.00000 0.00000 0.00000
  188 0.00000 0.00000 0.00000
  189 0.00000 0.00000 0.00000
  190 0.00000 0.00000 0.00000
  191 0.00000 0.00000 0.00000
  192 0.00000 0.00000 0.00000
  193 0.00000 0.00000 0.00000
  194 0.00000 0.00000 0.00000
  195 0.00000 0.00000 0.00000
  196 0.00000 0.00000 0.00000
  197 0.00000 0.00000 0.00000
  198 0.00000 0.00000 0.00000
  199 0.00000 0.00000 0.00000
  200 0.00000 0.00000 0.00000
  201 0.00000 0.00000 0.00000
  202 0.00000 0.00000 0.00000
  203 0.00000 0.00000 0.00000
  204 0.00000 0.00000 0.00000
  205 0.00000 0.00000 0.00000
  206 0.00000 0.00000 0.00000
  207 0.00000 0.00000 0.00000
  208 0.00000 0.00000 0.00000
  209 0.00000 0.00000 0.00000
  210 0.00000 0.00000 0.00000
  211 0.00000 0.00000 0.00000
  212 0.00000 0.00000 0.00000
  213 0.00000 0.00000 0.00000
  214 0.00000 0.00000 0.00000
  215 0.00000 0.00000 0.00000
  216 0.00000 0.00000 0.00000
  217 0.00000 0.00000 0.00000
  218 0.00000 0.00000 0.00000
  219 0.00000 0.00000 0.00000
  220 0.00000 0.00000 0.00000
  221 0.00000 0.00000 0.00000
  222 0.00000 0.00000 0.00000
  223 0.00000 0.00000 0.00000
  224 0.00000 0.00000 0.00000
  225 0.00000 0.00000 0.00000
  226 0.00000 0.00000 0.00000
  227 0.00000 0.00000 0.00000
  228 0.00000 0.00000 0.00000
  229 0.00000 0.00000 0.00000
  230 0.00000 0.00000 0.00000
  231 0.00000 0.00000 0.00000
  232 0.00000 0.00000 0.00000
  233 0.00000 0.00000 0.00000
  234 0.00000 0.00000 0.00000
  235 0.00000 0.00000 0.00000
  236 0.00000 0.00000 0.00000
  237 0.00000 0.00000 0.00000
  238 0.00000 0.00000 0.00000
  239 0.00000 0.00000 0.00000
  240 0.00000 0.00000 0.00000
  241 0.00000 0.00000 0.00000
</Section>

newXOutput 187

<Section columns = "stress_xx | stress_yy | stress_xy">
  1 0.00000 0.00000 0.00000
  2 0.00000 0.00000 0.00000
  3 0.00000 0.00000 0.00000
  4 0.00000 0.00000 0.00000
  5 0.00000 0.00000 0.00000
  6 0.00000 0.00000 0.00000
  7 0.00000 0.00000 0.00000
  8 0.00000 0.00000 0.00000
  9 0.00000 0.00000 0.00000
  10 0.00000 0.00000 0.00000
  11 0.00000 0.00000 0.00000
  12 0.00000 0.00000 0.00000
  13 0.00000 0.00000 0.00000
  14 0.00000 0.00000 0.00000
  15 0.00000 0.00000 0.00000
  16 0.00000 0.00000 0.00000
  17 0.00000 0.00000 0.00000
  18 0.00000 0.00000 0.00000
  19 0.00000 0.00000 0.00000
  20 0.00000 0.00000 0.00000
  21 0.00000 0.00000 0.00000
  22 0.00000 0.00000 0.00000
  23 0.00000 0.00000 0.00000
  24 0.00000 0.00000 0.00000
  25 0.00000 0.00000 0.00000
  26 0.00000 0.00000 0.00000
  27 0.00000 0.00000 0.00000
  28 0.00000 0.00000 0.00000
  29 0.00000 0.00000 0.00000
  30 0.00000 0.00000 0.00000
  31 0.00000 0.00000 0.00000
  32 0.00000 0.00000 0.00000
  33 0.00000 0.00000 0.00000
  34 0.00000 0.00000 0.00000
  35 0.00000 0.00000 0.00000
  36 0.00000 0.00000 0.00000
  37 0.00000 0.00000 0.00000
  38 0.00000 0.00000 0.00000
  39 0.00000 0.00000 0.00000
  40 0.00000 0.00000 0.00000
  41 0.00000 0.00000 0.00000
  42 0.00000 0.00000 0.00000
  43 0.00000 0.00000 0.00000
  44 0.00000 0.00000 0.00000
  45 0.00000 0.00000 0.00000
  46 0.00000 0.00000 0.00000
  47 0.00000 0.00000 0.00000
  48 0.00000 0.00000 0.00000
  49 0.00000 0.00000 0.00000
  50 0.00000 0.00000 0.00000
  51 0.00000 0.00000 0.00000
  52 0.00000 0.00000 0.00000
  53 0.00000 0.00000 0.00000
  54 0.00000 0.00000 0.00000
  55 0.00000 0.00000 0.00000
  56 0.00000 0.00000 0.00000
  57 0.00000 0.00000 0.00000
  58 0.00000 0.00000 0.00000
  59 0.00000 0.00000 0.00000
  60 0.00000 0.00000 0.00000
  61 0.00000 0.00000 0.00000
  62 0.00000 0.00000 0.00000
  63 0.00000 0.00000 0.00000
  64 0.00000 0.00000 0.00000
  65 0.00000 0.00000 0.00000
  66 0.00000 0.00000 0.00000
  67 0.00000 0.00000 0.00000
  68 0.00000 0.00000 0.00000
  69 0.00000 0.00000 0.00000
  70 0.00000 0.00000 0.00000
  71 0.00000 0.00000 0.00000
  72 0.00000 0.00000 0.00000
  73 0.00000 0.00000 0.00000
  74 0.00000 0.00000 0.00000
  75 0.00000 0.00000 0.00000
  76 0.00000 0.00000 0.00000
  77 0.00000 0.00000 0.00000
  78 0.00000 0.00000 0.00000
  79 0.00000 0.00000 0.00000
  80 0.00000 0.00000 0.00000
  81 0.00000 0.00000 0.00000
  82 0.00000 0.00000 0.00000
  83 0.00000 0.00000 0.00000
  84 0.00000 0.00000 0.00000
  85 0.00000 0.00000 0.00000
  86 0.00000 0.00000 0.00000
  87 0.00000 0.00000 0.00000
  88 0.00000 0.00000 0.00000
  89 0.00000 0.00000 0.00000
  90 0.00000 0.00000 0.00000
  91 0.00000 0.00000 0.00000
  92 0.00000 0.00000 0.00000
  93 0.00000 0.00000 0.00000
  94 0.00000 0.00000 0.00000
  95 0.00000 0.00000 0.00000
  96 0.00000 0.00000 0.00000
  97 0.00000 0.00000 0.00000
  98 0.00000 0.00000 0.00000
  99 0.00000 0.00000 0.00000
  100 0.00000 0.00000 0.00000
  101 0.00000 0.00000 0.00000
  102 0.00000 0.00000 0.00000
  103 0.00000 0.00000 0.00000
  104 0.00000 0.00000 0.00000
  105 0.00000 0.00000 0.00000
  106 0.00000 0.00000 0.00000
  107 0.00000 0.00000 0.00000
  108 0.00000 0.00000 0.00000
  109 0.00000 0.00000 0.00000
  110 0.00000 0.00000 0.00000
  111 0.00000 0.00000 0.00000
  112 0.00000 0.00000 0.00000
  113 0.00000 0.00000 0.00000
  114 0.00000 0.00000 0.00000
  115 0.00000 0.00000 0.00000
  116 0.00000 0.00000 0.00000
  117 0.00000 0.00000 0.00000
  118 0.00000 0.00000 0.00000
  119 0.00000 0.00000 0.00000
  120 0.00000 0.00000 0.00000
  121 0.00000 0.00000 0.00000
  122 0.00000 0.00000 0.00000
  123 0.00000 0.00000 0.00000
  124 0.00000 0.00000 0.00000
  125 0.00000 0.00000 0.00000
  126 0.00000 0.00000 0.00000
  127 0.00000 0.00000 0.00000
  128 0.00000 0.00000 0.00000
  129 0.00000 0.00000 0.00000
  130 0.00000 0.00000 0.00000
  131 0.00000 0.00000 0.00000
  132 0.00000 0.00000 0.00000
  133 0.00000 0.00000 0.00000
  134 0.00000 0.00000 0.00000
  135 0.00000 0.00000 0.00000
  136 0.00000 0.00000 0.00000
  137 0.00000 0.00000 0.00000
  138 0.00000 0.00000 0.00000
  139 0.00000 0.00000 0.00000
  140 0.00000 0.00000 0.00000
  141 0.00000 0.00000 0.00000
  142 0.00000 0.00000 0.00000
  143 0.00000 0.00000 0.00000
  144 0.00000 0.00000 0.00000
  145 0.00000 0.00000 0.00000
  146 0.00000 0.00000 0.00000
  147 0.00000 0.00000 0.00000
  148 0.00000 0.00000 0.00000
  149 0.00000 0.00000 0.00000
  150 0.00000 0.00000 0.00000
  151 0.00000 0.00000 0.00000
  152 0.00000 0.00000 0.00000
  153 0.00000 0.00000 0.00000
  154 0.00000 0.00000 0.00000
  155 0.00000 0.00000 0.00000
  156 0.00000 0.00000 0.00000
  157 0.00000 0.00000 0.00000
  158 0.00000 0.00000 0.00000
  159 0.00000 0.00000 0.00000
  160 0.00000 0.00000 0.00000
  161 0.00000 0.00000 0.00000
  162 0.00000 0.00000 0.00000
  163 0.00000 0.00000 0.00000
  164 0.00000 0.00000 0.00000
  165 0.00000 0.00000 0.00000
  166 0.00000 0.00000 0.00000
  167 0.00000 0.00000 0.00000
  168 0.00000 0.00000 0.00000
  169 0.00000 0.00000 0.00000
  170 0.00000 0.00000 0.00000
  171 0.00000 0.00000 0.00000
  172 0.00000 0.00000 0.00000
  173 0.00000 0.00000 0.00000
  174 0.00000 0.00000 0.00000
  175 0.00000 0.00000 0.00000
  176 0.00000 0.00000 0.00000
  177 0.00000 0.00000 0.00000
  178 0.00000 0.00000 0.00000
  179 0.00000 0.00000 0.00000
  180 0.00000 0.00000 0.00000
  181 0.00000 0.00000 0.00000
  182 0.00000 0.00000 0.00000
  183 0.00000 0.00000 0.00000
  184 0.00000 0.00000 0.00000
  185 0.00000 0.00000 0.00000
  186 0.00000 0.00000 0.00000
  187 0.00000 0.00000 0.00000
  188 0.00000 0.00000 0.00000
  189 0.00000 0.00000 0.00000
  190 0.00000 0.00000 0.00000
  191 0.00000 0.00000 0.00000
  192 0.00000 0.00000 0.00000
  193 0.00000 0.00000 0.00000
  194 0.00000 0.00000 0.00000
  195 0.00000 0.00000 0.00000
  196 0.00000 0.00000 0.00000
  197 0.00000 0.00000 0.00000
  198 0.00000 0.00000 0.00000
  199 0.00000 0.00000 0.00000
  200 0.00000 0.00000 0.00000
  201 0.00000 0.00000 0.00000
  202 0.00000 0.00000 0.00000
  203 0.00000 0.00000 0.00000
  204 0.00000 0.00000 0.00000
  205 0.00000 0.00000 0.00000
  206 0.00000 0.00000 0.00000
  207 0.00000 0.00000 0.00000
  208 0.00000 0.00000 0.00000
  209 0.00000 0.00000 0.00000
  210 0.00000 0.00000 0.00000
  211 0.00000 0.00000 0.00000
  212 0.00000 0.00000 0.00000
  213 0.00000 0.00000 0.00000
  214 0.00000 0.00000 0.00000
  215 0.00000 0.00000 0.00000
  216 0.00000 0.00000 0.00000
  217 0.00000 0.00000 0.00000
  218 0.00000 0.00000 0.00000
  219 0.00000 0.00000 0.00000
  220 0.00000 0.00000 0.00000
  221 0.00000 0.00000 0.00000
  222 0.00000 0.00000 0.00000
  223 0.00000 0.00000 0.00000
  224 0.00000 0.00000 0.00000
  225 0.00000 0.00000 0.00000
  226 0.00000 0.00000 0.00000
  227 0.00000 0.00000 0.00000
  228 0.00000 0.00000 0.00000
  229 0.00000 0.00000 0.00000
  230 0.00000 0.00000 0.00000
  231 0.00000 0.00000 0.00000
  232 0.00000 0.00000 0.00000
  233 0.00000 0.00000 0.00000
  234 0.00000 0.00000 0.00000
  235 0.00000 0.00000 0.00000
  236 0.00000 0.00000 0.00000
  237 0.00000 0.00000 0.00000
  238 0.00000 0.00000 0.00000
  239 0.00000 0.00000 0.00000
  240 0.00000 0.00000 0.00000
  241 0.00000 0.00000 0.00000
</Section>

newXOutput 188

<Section columns = "stress_xx | stress_yy | stress_xy">
  1 0.00000 0.00000 0.00000
  2 0.00000 0.00000 0.00000
  3 0.00000 0.00000 0.00000
  4 0.00000 0.00000 0.00000
  5 0.00000 0.00000 0.00000
  6 0.00000 0.00000 0.00000
  7 0.00000 0.00000 0.00000
  8 0.00000 0.00000 0.00000
  9 0.00000 0.00000 0.00000
  10 0.00000 0.00000 0.00000
  11 0.00000 0.00000 0.00000
  12 0.00000 0.00000 0.00000
  13 0.00000 0.00000 0.00000
  14 0.00000 0.00000 0.00000
  15 0.00000 0.00000 0.00000
  16 0.00000 0.00000 0.00000
  17 0.00000 0.00000 0.00000
  18 0.00000 0.00000 0.00000
  19 0.00000 0.00000 0.00000
  20 0.00000 0.00000 0.00000
  21 0.00000 0.00000 0.00000
  22 0.00000 0.00000 0.00000
  23 0.00000 0.00000 0.00000
  24 0.00000 0.00000 0.00000
  25 0.00000 0.00000 0.00000
  26 0.00000 0.00000 0.00000
  27 0.00000 0.00000 0.00000
  28 0.00000 0.00000 0.00000
  29 0.00000 0.00000 0.00000
  30 0.00000 0.00000 0.00000
  31 0.00000 0.00000 0.00000
  32 0.00000 0.00000 0.00000
  33 0.00000 0.00000 0.00000
  34 0.00000 0.00000 0.00000
  35 0.00000 0.00000 0.00000
  36 0.00000 0.00000 0.00000
  37 0.00000 0.00000 0.00000
  38 0.00000 0.00000 0.00000
  39 0.00000 0.00000 0.00000
  40 0.00000 0.00000 0.00000
  41 0.00000 0.00000 0.00000
  42 0.00000 0.00000 0.00000
  43 0.00000 0.00000 0.00000
  44 0.00000 0.00000 0.00000
  45 0.00000 0.00000 0.00000
  46 0.00000 0.00000 0.00000
  47 0.00000 0.00000 0.00000
  48 0.00000 0.00000 0.00000
  49 0.00000 0.00000 0.00000
  50 0.00000 0.00000 0.00000
  51 0.00000 0.00000 0.00000
  52 0.00000 0.00000 0.00000
  53 0.00000 0.00000 0.00000
  54 0.00000 0.00000 0.00000
  55 0.00000 0.00000 0.00000
  56 0.00000 0.00000 0.00000
  57 0.00000 0.00000 0.00000
  58 0.00000 0.00000 0.00000
  59 0.00000 0.00000 0.00000
  60 0.00000 0.00000 0.00000
  61 0.00000 0.00000 0.00000
  62 0.00000 0.00000 0.00000
  63 0.00000 0.00000 0.00000
  64 0.00000 0.00000 0.00000
  65 0.00000 0.00000 0.00000
  66 0.00000 0.00000 0.00000
  67 0.00000 0.00000 0.00000
  68 0.00000 0.00000 0.00000
  69 0.00000 0.00000 0.00000
  70 0.00000 0.00000 0.00000
  71 0.00000 0.00000 0.00000
  72 0.00000 0.00000 0.00000
  73 0.00000 0.00000 0.00000
  74 0.00000 0.00000 0.00000
  75 0.00000 0.00000 0.00000
  76 0.00000 0.00000 0.00000
  77 0.00000 0.00000 0.00000
  78 0.00000 0.00000 0.00000
  79 0.00000 0.00000 0.00000
  80 0.00000 0.00000 0.00000
  81 0.00000 0.00000 0.00000
  82 0.00000 0.00000 0.00000
  83 0.00000 0.00000 0.00000
  84 0.00000 0.00000 0.00000
  85 0.00000 0.00000 0.00000
  86 0.00000 0.00000 0.00000
  87 0.00000 0.00000 0.00000
  88 0.00000 0.00000 0.00000
  89 0.00000 0.00000 0.00000
  90 0.00000 0.00000 0.00000
  91 0.00000 0.00000 0.00000
  92 0.00000 0.00000 0.00000
  93 0.00000 0.00000 0.00000
  94 0.00000 0.00000 0.00000
  95 0.00000 0.00000 0.00000
  96 0.00000 0.00000 0.00000
  97 0.00000 0.00000 0.00000
  98 0.00000 0.00000 0.00000
  99 0.00000 0.00000 0.00000
  100 0.00000 0.00000 0.00000
  101 0.00000 0.00000 0.00000
  102 0.00000 0.00000 0.00000
  103 0.00000 0.00000 0.00000
  104 0.00000 0.00000 0.00000
  105 0.00000 0.00000 0.00000
  106 0.00000 0.00000 0.00000
  107 0.00000 0.00000 0.00000
  108 0.00000 0.00000 0.00000
  109 0.00000 0.00000 0.00000
  110 0.00000 0.00000 0.00000
  111 0.00000 0.00000 0.00000
  112 0.00000 0.00000 0.00000
  113 0.00000 0.00000 0.00000
  114 0.00000 0.00000 0.00000
  115 0.00000 0.00000 0.00000
  116 0.00000 0.00000 0.00000
  117 0.00000 0.00000 0.00000
  118 0.00000 0.00000 0.00000
  119 0.00000 0.00000 0.00000
  120 0.00000 0.00000 0.00000
  121 0.00000 0.00000 0.00000
  122 0.00000 0.00000 0.00000
  123 0.00000 0.00000 0.00000
  124 0.00000 0.00000 0.00000
  125 0.00000 0.00000 0.00000
  126 0.00000 0.00000 0.00000
  127 0.00000 0.00000 0.00000
  128 0.00000 0.00000 0.00000
  129 0.00000 0.00000 0.00000
  130 0.00000 0.00000 0.00000
  131 0.00000 0.00000 0.00000
  132 0.00000 0.00000 0.00000
  133 0.00000 0.00000 0.00000
  134 0.00000 0.00000 0.00000
  135 0.00000 0.00000 0.00000
  136 0.00000 0.00000 0.00000
  137 0.00000 0.00000 0.00000
  138 0.00000 0.00000 0.00000
  139 0.00000 0.00000 0.00000
  140 0.00000 0.00000 0.00000
  141 0.00000 0.00000 0.00000
  142 0.00000 0.00000 0.00000
  143 0.00000 0.00000 0.00000
  144 0.00000 0.00000 0.00000
  145 0.00000 0.00000 0.00000
  146 0.00000 0.00000 0.00000
  147 0.00000 0.00000 0.00000
  148 0.00000 0.00000 0.00000
  149 0.00000 0.00000 0.00000
  150 0.00000 0.00000 0.00000
  151 0.00000 0.00000 0.00000
  152 0.00000 0.00000 0.00000
  153 0.00000 0.00000 0.00000
  154 0.00000 0.00000 0.00000
  155 0.00000 0.00000 0.00000
  156 0.00000 0.00000 0.00000
  157 0.00000 0.00000 0.00000
  158 0.00000 0.00000 0.00000
  159 0.00000 0.00000 0.00000
  160 0.00000 0.00000 0.00000
  161 0.00000 0.00000 0.00000
  162 0.00000 0.00000 0.00000
  163 0.00000 0.00000 0.00000
  164 0.00000 0.00000 0.00000
  165 0.00000 0.00000 0.00000
  166 0.00000 0.00000 0.00000
  167 0.00000 0.00000 0.00000
  168 0.00000 0.00000 0.00000
  169 0.00000 0.00000 0.00000
  170 0.00000 0.00000 0.00000
  171 0.00000 0.00000 0.00000
  172 0.00000 0.00000 0.00000
  173 0.00000 0.00000 0.00000
  174 0.00000 0.00000 0.00000
  175 0.00000 0.00000 0.00000
  176 0.00000 0.00000 0.00000
  177 0.00000 0.00000 0.00000
  178 0.00000 0.00000 0.00000
  179 0.00000 0.00000 0.00000
  180 0.00000 0.00000 0.00000
  181 0.00000 0.00000 0.00000
  182 0.00000 0.00000 0.00000
  183 0.00000 0.00000 0.00000
  184 0.00000 0.00000 0.00000
  185 0.00000 0.00000 0.00000
  186 0.00000 0.00000 0.00000
  187 0.00000 0.00000 0.00000
  188 0.00000 0.00000 0.00000
  189 0.00000 0.00000 0.00000
  190 0.00000 0.00000 0.00000
  191 0.00000 0.00000 0.00000
  192 0.00000 0.00000 0.00000
  193 0.00000 0.00000 0.00000
  194 0.00000 0.00000 0.00000
  195 0.00000 0.00000 0.00000
  196 0.00000 0.00000 0.00000
  197 0.00000 0.00000 0.00000
  198 0.00000 0.00000 0.00000
  199 0.00000 0.00000 0.00000
  200 0.00000 0.00000 0.00000
  201 0.00000 0.00000 0.00000
  202 0.00000 0.00000 0.00000
  203 0.00000 0.00000 0.00000
  204 0.00000 0.00000 0.00000
  205 0.00000 0.00000 0.00000
  206 0.00000 0.00000 0.00000
  207 0.00000 0.00000 0.00000
  208 0.00000 0.00000 0.00000
  209 0.00000 0.00000 0.00000
  210 0.00000 0.00000 0.00000
  211 0.00000 0.00000 0.00000
  212 0.00000 0.00000 0.00000
  213 0.00000 0.00000 0.00000
  214 0.00000 0.00000 0.00000
  215 0.00000 0.00000 0.00000
  216 0.00000 0.00000 0.00000
  217 0.00000 0.00000 0.00000
  218 0.00000 0.00000 0.00000
  219 0.00000 0.00000 0.00000
  220 0.00000 0.00000 0.00000
  221 0.00000 0.00000 0.00000
  222 0.00000 0.00000 0.00000
  223 0.00000 0.00000 0.00000
  224 0.00000 0.00000 0.00000
  225 0.00000 0.00000 0.00000
  226 0.00000 0.00000 0.00000
  227 0.00000 0.00000 0.00000
  228 0.00000 0.00000 0.00000
  229 0.00000 0.00000 0.00000
  230 0.00000 0.00000 0.00000
  231 0.00000 0.00000 0.00000
  232 0.00000 0.00000 0.00000
  233 0.00000 0.00000 0.00000
  234 0.00000 0.00000 0.00000
  235 0.00000 0.00000 0.00000
  236 0.00000 0.00000 0.00000
  237 0.00000 0.00000 0.00000
  238 0.00000 0.00000 0.00000
  239 0.00000 0.00000 0.00000
  240 0.00000 0.00000 0.00000
  241 0.00000 0.00000 0.00000
</Section>

newXOutput 189

<Section columns = "stress_xx | stress_yy | stress_xy">
  1 0.00000 0.00000 0.00000
  2 0.00000 0.00000 0.00000
  3 0.00000 0.00000 0.00000
  4 0.00000 0.00000 0.00000
  5 0.00000 0.00000 0.00000
  6 0.00000 0.00000 0.00000
  7 0.00000 0.00000 0.00000
  8 0.00000 0.00000 0.00000
  9 0.00000 0.00000 0.00000
  10 0.00000 0.00000 0.00000
  11 0.00000 0.00000 0.00000
  12 0.00000 0.00000 0.00000
  13 0.00000 0.00000 0.00000
  14 0.00000 0.00000 0.00000
  15 0.00000 0.00000 0.00000
  16 0.00000 0.00000 0.00000
  17 0.00000 0.00000 0.00000
  18 0.00000 0.00000 0.00000
  19 0.00000 0.00000 0.00000
  20 0.00000 0.00000 0.00000
  21 0.00000 0.00000 0.00000
  22 0.00000 0.00000 0.00000
  23 0.00000 0.00000 0.00000
  24 0.00000 0.00000 0.00000
  25 0.00000 0.00000 0.00000
  26 0.00000 0.00000 0.00000
  27 0.00000 0.00000 0.00000
  28 0.00000 0.00000 0.00000
  29 0.00000 0.00000 0.00000
  30 0.00000 0.00000 0.00000
  31 0.00000 0.00000 0.00000
  32 0.00000 0.00000 0.00000
  33 0.00000 0.00000 0.00000
  34 0.00000 0.00000 0.00000
  35 0.00000 0.00000 0.00000
  36 0.00000 0.00000 0.00000
  37 0.00000 0.00000 0.00000
  38 0.00000 0.00000 0.00000
  39 0.00000 0.00000 0.00000
  40 0.00000 0.00000 0.00000
  41 0.00000 0.00000 0.00000
  42 0.00000 0.00000 0.00000
  43 0.00000 0.00000 0.00000
  44 0.00000 0.00000 0.00000
  45 0.00000 0.00000 0.00000
  46 0.00000 0.00000 0.00000
  47 0.00000 0.00000 0.00000
  48 0.00000 0.00000 0.00000
  49 0.00000 0.00000 0.00000
  50 0.00000 0.00000 0.00000
  51 0.00000 0.00000 0.00000
  52 0.00000 0.00000 0.00000
  53 0.00000 0.00000 0.00000
  54 0.00000 0.00000 0.00000
  55 0.00000 0.00000 0.00000
  56 0.00000 0.00000 0.00000
  57 0.00000 0.00000 0.00000
  58 0.00000 0.00000 0.00000
  59 0.00000 0.00000 0.00000
  60 0.00000 0.00000 0.00000
  61 0.00000 0.00000 0.00000
  62 0.00000 0.00000 0.00000
  63 0.00000 0.00000 0.00000
  64 0.00000 0.00000 0.00000
  65 0.00000 0.00000 0.00000
  66 0.00000 0.00000 0.00000
  67 0.00000 0.00000 0.00000
  68 0.00000 0.00000 0.00000
  69 0.00000 0.00000 0.00000
  70 0.00000 0.00000 0.00000
  71 0.00000 0.00000 0.00000
  72 0.00000 0.00000 0.00000
  73 0.00000 0.00000 0.00000
  74 0.00000 0.00000 0.00000
  75 0.00000 0.00000 0.00000
  76 0.00000 0.00000 0.00000
  77 0.00000 0.00000 0.00000
  78 0.00000 0.00000 0.00000
  79 0.00000 0.00000 0.00000
  80 0.00000 0.00000 0.00000
  81 0.00000 0.00000 0.00000
  82 0.00000 0.00000 0.00000
  83 0.00000 0.00000 0.00000
  84 0.00000 0.00000 0.00000
  85 0.00000 0.00000 0.00000
  86 0.00000 0.00000 0.00000
  87 0.00000 0.00000 0.00000
  88 0.00000 0.00000 0.00000
  89 0.00000 0.00000 0.00000
  90 0.00000 0.00000 0.00000
  91 0.00000 0.00000 0.00000
  92 0.00000 0.00000 0.00000
  93 0.00000 0.00000 0.00000
  94 0.00000 0.00000 0.00000
  95 0.00000 0.00000 0.00000
  96 0.00000 0.00000 0.00000
  97 0.00000 0.00000 0.00000
  98 0.00000 0.00000 0.00000
  99 0.00000 0.00000 0.00000
  100 0.00000 0.00000 0.00000
  101 0.00000 0.00000 0.00000
  102 0.00000 0.00000 0.00000
  103 0.00000 0.00000 0.00000
  104 0.00000 0.00000 0.00000
  105 0.00000 0.00000 0.00000
  106 0.00000 0.00000 0.00000
  107 0.00000 0.00000 0.00000
  108 0.00000 0.00000 0.00000
  109 0.00000 0.00000 0.00000
  110 0.00000 0.00000 0.00000
  111 0.00000 0.00000 0.00000
  112 0.00000 0.00000 0.00000
  113 0.00000 0.00000 0.00000
  114 0.00000 0.00000 0.00000
  115 0.00000 0.00000 0.00000
  116 0.00000 0.00000 0.00000
  117 0.00000 0.00000 0.00000
  118 0.00000 0.00000 0.00000
  119 0.00000 0.00000 0.00000
  120 0.00000 0.00000 0.00000
  121 0.00000 0.00000 0.00000
  122 0.00000 0.00000 0.00000
  123 0.00000 0.00000 0.00000
  124 0.00000 0.00000 0.00000
  125 0.00000 0.00000 0.00000
  126 0.00000 0.00000 0.00000
  127 0.00000 0.00000 0.00000
  128 0.00000 0.00000 0.00000
  129 0.00000 0.00000 0.00000
  130 0.00000 0.00000 0.00000
  131 0.00000 0.00000 0.00000
  132 0.00000 0.00000 0.00000
  133 0.00000 0.00000 0.00000
  134 0.00000 0.00000 0.00000
  135 0.00000 0.00000 0.00000
  136 0.00000 0.00000 0.00000
  137 0.00000 0.00000 0.00000
  138 0.00000 0.00000 0.00000
  139 0.00000 0.00000 0.00000
  140 0.00000 0.00000 0.00000
  141 0.00000 0.00000 0.00000
  142 0.00000 0.00000 0.00000
  143 0.00000 0.00000 0.00000
  144 0.00000 0.00000 0.00000
  145 0.00000 0.00000 0.00000
  146 0.00000 0.00000 0.00000
  147 0.00000 0.00000 0.00000
  148 0.00000 0.00000 0.00000
  149 0.00000 0.00000 0.00000
  150 0.00000 0.00000 0.00000
  151 0.00000 0.00000 0.00000
  152 0.00000 0.00000 0.00000
  153 0.00000 0.00000 0.00000
  154 0.00000 0.00000 0.00000
  155 0.00000 0.00000 0.00000
  156 0.00000 0.00000 0.00000
  157 0.00000 0.00000 0.00000
  158 0.00000 0.00000 0.00000
  159 0.00000 0.00000 0.00000
  160 0.00000 0.00000 0.00000
  161 0.00000 0.00000 0.00000
  162 0.00000 0.00000 0.00000
  163 0.00000 0.00000 0.00000
  164 0.00000 0.00000 0.00000
  165 0.00000 0.00000 0.00000
  166 0.00000 0.00000 0.00000
  167 0.00000 0.00000 0.00000
  168 0.00000 0.00000 0.00000
  169 0.00000 0.00000 0.00000
  170 0.00000 0.00000 0.00000
  171 0.00000 0.00000 0.00000
  172 0.00000 0.00000 0.00000
  173 0.00000 0.00000 0.00000
  174 0.00000 0.00000 0.00000
  175 0.00000 0.00000 0.00000
  176 0.00000 0.00000 0.00000
  177 0.00000 0.00000 0.00000
  178 0.00000 0.00000 0.00000
  179 0.00000 0.00000 0.00000
  180 0.00000 0.00000 0.00000
  181 0.00000 0.00000 0.00000
  182 0.00000 0.00000 0.00000
  183 0.00000 0.00000 0.00000
  184 0.00000 0.00000 0.00000
  185 0.00000 0.00000 0.00000
  186 0.00000 0.00000 0.00000
  187 0.00000 0.00000 0.00000
  188 0.00000 0.00000 0.00000
  189 0.00000 0.00000 0.00000
  190 0.00000 0.00000 0.00000
  191 0.00000 0.00000 0.00000
  192 0.00000 0.00000 0.00000
  193 0.00000 0.00000 0.00000
  194 0.00000 0.00000 0.00000
  195 0.00000 0.00000 0.00000
  196 0.00000 0.00000 0.00000
  197 0.00000 0.00000 0.00000
  198 0.00000 0.00000 0.00000
  199 0.00000 0.00000 0.00000
  200 0.00000 0.00000 0.00000
  201 0.00000 0.00000 0.00000
  202 0.00000 0.00000 0.00000
  203 0.00000 0.00000 0.00000
  204 0.00000 0.00000 0.00000
  205 0.00000 0.00000 0.00000
  206 0.00000 0.00000 0.00000
  207 0.00000 0.00000 0.00000
  208 0.00000 0.00000 0.00000
  209 0.00000 0.00000 0.00000
  210 0.00000 0.00000 0.00000
  211 0.00000 0.00000 0.00000
  212 0.00000 0.00000 0.00000
  213 0.00000 0.00000 0.00000
  214 0.00000 0.00000 0.00000
  215 0.00000 0.00000 0.00000
  216 0.00000 0.00000 0.00000
  217 0.00000 0.00000 0.00000
  218 0.00000 0.00000 0.00000
  219 0.00000 0.00000 0.00000
  220 0.00000 0.00000 0.00000
  221 0.00000 0.00000 0.00000
  222 0.00000 0.00000 0.00000
  223 0.00000 0.00000 0.00000
  224 0.00000 0.00000 0.00000
  225 0.00000 0.00000 0.00000
  226 0.00000 0.00000 0.00000
  227 0.00000 0.00000 0.00000
  228 0.00000 0.00000 0.00000
  229 0.00000 0.00000 0.00000
  230 0.00000 0.00000 0.00000
  231 0.00000 0.00000 0.00000
  232 0.00000 0.00000 0.00000
  233 0.00000 0.00000 0.00000
  234 0.00000 0.00000 0.00000
  235 0.00000 0.00000 0.00000
  236 0.00000 0.00000 0.00000
  237 0.00000 0.00000 0.00000
  238 0.00000 0.00000 0.00000
  239 0.00000 0.00000 0.00000
  240 0.00000 0.00000 0.00000
  241 0.00000 0.00000 0.00000
</Section>

newXOutput 190

<Section columns = "stress_xx | stress_yy | stress_xy">
  1 0.00000 0.00000 0.00000
  2 0.00000 0.00000 0.00000
  3 0.00000 0.00000 0.00000
  4 0.00000 0.00000 0.00000
  5 0.00000 0.00000 0.00000
  6 0.00000 0.00000 0.00000
  7 0.00000 0.00000 0.00000
  8 0.00000 0.00000 0.00000
  9 0.00000 0.00000 0.00000
  10 0.00000 0.00000 0.00000
  11 0.00000 0.00000 0.00000
  12 0.00000 0.00000 0.00000
  13 0.00000 0.00000 0.00000
  14 0.00000 0.00000 0.00000
  15 0.00000 0.00000 0.00000
  16 0.00000 0.00000 0.00000
  17 0.00000 0.00000 0.00000
  18 0.00000 0.00000 0.00000
  19 0.00000 0.00000 0.00000
  20 0.00000 0.00000 0.00000
  21 0.00000 0.00000 0.00000
  22 0.00000 0.00000 0.00000
  23 0.00000 0.00000 0.00000
  24 0.00000 0.00000 0.00000
  25 0.00000 0.00000 0.00000
  26 0.00000 0.00000 0.00000
  27 0.00000 0.00000 0.00000
  28 0.00000 0.00000 0.00000
  29 0.00000 0.00000 0.00000
  30 0.00000 0.00000 0.00000
  31 0.00000 0.00000 0.00000
  32 0.00000 0.00000 0.00000
  33 0.00000 0.00000 0.00000
  34 0.00000 0.00000 0.00000
  35 0.00000 0.00000 0.00000
  36 0.00000 0.00000 0.00000
  37 0.00000 0.00000 0.00000
  38 0.00000 0.00000 0.00000
  39 0.00000 0.00000 0.00000
  40 0.00000 0.00000 0.00000
  41 0.00000 0.00000 0.00000
  42 0.00000 0.00000 0.00000
  43 0.00000 0.00000 0.00000
  44 0.00000 0.00000 0.00000
  45 0.00000 0.00000 0.00000
  46 0.00000 0.00000 0.00000
  47 0.00000 0.00000 0.00000
  48 0.00000 0.00000 0.00000
  49 0.00000 0.00000 0.00000
  50 0.00000 0.00000 0.00000
  51 0.00000 0.00000 0.00000
  52 0.00000 0.00000 0.00000
  53 0.00000 0.00000 0.00000
  54 0.00000 0.00000 0.00000
  55 0.00000 0.00000 0.00000
  56 0.00000 0.00000 0.00000
  57 0.00000 0.00000 0.00000
  58 0.00000 0.00000 0.00000
  59 0.00000 0.00000 0.00000
  60 0.00000 0.00000 0.00000
  61 0.00000 0.00000 0.00000
  62 0.00000 0.00000 0.00000
  63 0.00000 0.00000 0.00000
  64 0.00000 0.00000 0.00000
  65 0.00000 0.00000 0.00000
  66 0.00000 0.00000 0.00000
  67 0.00000 0.00000 0.00000
  68 0.00000 0.00000 0.00000
  69 0.00000 0.00000 0.00000
  70 0.00000 0.00000 0.00000
  71 0.00000 0.00000 0.00000
  72 0.00000 0.00000 0.00000
  73 0.00000 0.00000 0.00000
  74 0.00000 0.00000 0.00000
  75 0.00000 0.00000 0.00000
  76 0.00000 0.00000 0.00000
  77 0.00000 0.00000 0.00000
  78 0.00000 0.00000 0.00000
  79 0.00000 0.00000 0.00000
  80 0.00000 0.00000 0.00000
  81 0.00000 0.00000 0.00000
  82 0.00000 0.00000 0.00000
  83 0.00000 0.00000 0.00000
  84 0.00000 0.00000 0.00000
  85 0.00000 0.00000 0.00000
  86 0.00000 0.00000 0.00000
  87 0.00000 0.00000 0.00000
  88 0.00000 0.00000 0.00000
  89 0.00000 0.00000 0.00000
  90 0.00000 0.00000 0.00000
  91 0.00000 0.00000 0.00000
  92 0.00000 0.00000 0.00000
  93 0.00000 0.00000 0.00000
  94 0.00000 0.00000 0.00000
  95 0.00000 0.00000 0.00000
  96 0.00000 0.00000 0.00000
  97 0.00000 0.00000 0.00000
  98 0.00000 0.00000 0.00000
  99 0.00000 0.00000 0.00000
  100 0.00000 0.00000 0.00000
  101 0.00000 0.00000 0.00000
  102 0.00000 0.00000 0.00000
  103 0.00000 0.00000 0.00000
  104 0.00000 0.00000 0.00000
  105 0.00000 0.00000 0.00000
  106 0.00000 0.00000 0.00000
  107 0.00000 0.00000 0.00000
  108 0.00000 0.00000 0.00000
  109 0.00000 0.00000 0.00000
  110 0.00000 0.00000 0.00000
  111 0.00000 0.00000 0.00000
  112 0.00000 0.00000 0.00000
  113 0.00000 0.00000 0.00000
  114 0.00000 0.00000 0.00000
  115 0.00000 0.00000 0.00000
  116 0.00000 0.00000 0.00000
  117 0.00000 0.00000 0.00000
  118 0.00000 0.00000 0.00000
  119 0.00000 0.00000 0.00000
  120 0.00000 0.00000 0.00000
  121 0.00000 0.00000 0.00000
  122 0.00000 0.00000 0.00000
  123 0.00000 0.00000 0.00000
  124 0.00000 0.00000 0.00000
  125 0.00000 0.00000 0.00000
  126 0.00000 0.00000 0.00000
  127 0.00000 0.00000 0.00000
  128 0.00000 0.00000 0.00000
  129 0.00000 0.00000 0.00000
  130 0.00000 0.00000 0.00000
  131 0.00000 0.00000 0.00000
  132 0.00000 0.00000 0.00000
  133 0.00000 0.00000 0.00000
  134 0.00000 0.00000 0.00000
  135 0.00000 0.00000 0.00000
  136 0.00000 0.00000 0.00000
  137 0.00000 0.00000 0.00000
  138 0.00000 0.00000 0.00000
  139 0.00000 0.00000 0.00000
  140 0.00000 0.00000 0.00000
  141 0.00000 0.00000 0.00000
  142 0.00000 0.00000 0.00000
  143 0.00000 0.00000 0.00000
  144 0.00000 0.00000 0.00000
  145 0.00000 0.00000 0.00000
  146 0.00000 0.00000 0.00000
  147 0.00000 0.00000 0.00000
  148 0.00000 0.00000 0.00000
  149 0.00000 0.00000 0.00000
  150 0.00000 0.00000 0.00000
  151 0.00000 0.00000 0.00000
  152 0.00000 0.00000 0.00000
  153 0.00000 0.00000 0.00000
  154 0.00000 0.00000 0.00000
  155 0.00000 0.00000 0.00000
  156 0.00000 0.00000 0.00000
  157 0.00000 0.00000 0.00000
  158 0.00000 0.00000 0.00000
  159 0.00000 0.00000 0.00000
  160 0.00000 0.00000 0.00000
  161 0.00000 0.00000 0.00000
  162 0.00000 0.00000 0.00000
  163 0.00000 0.00000 0.00000
  164 0.00000 0.00000 0.00000
  165 0.00000 0.00000 0.00000
  166 0.00000 0.00000 0.00000
  167 0.00000 0.00000 0.00000
  168 0.00000 0.00000 0.00000
  169 0.00000 0.00000 0.00000
  170 0.00000 0.00000 0.00000
  171 0.00000 0.00000 0.00000
  172 0.00000 0.00000 0.00000
  173 0.00000 0.00000 0.00000
  174 0.00000 0.00000 0.00000
  175 0.00000 0.00000 0.00000
  176 0.00000 0.00000 0.00000
  177 0.00000 0.00000 0.00000
  178 0.00000 0.00000 0.00000
  179 0.00000 0.00000 0.00000
  180 0.00000 0.00000 0.00000
  181 0.00000 0.00000 0.00000
  182 0.00000 0.00000 0.00000
  183 0.00000 0.00000 0.00000
  184 0.00000 0.00000 0.00000
  185 0.00000 0.00000 0.00000
  186 0.00000 0.00000 0.00000
  187 0.00000 0.00000 0.00000
  188 0.00000 0.00000 0.00000
  189 0.00000 0.00000 0.00000
  190 0.00000 0.00000 0.00000
  191 0.00000 0.00000 0.00000
  192 0.00000 0.00000 0.00000
  193 0.00000 0.00000 0.00000
  194 0.00000 0.00000 0.00000
  195 0.00000 0.00000 0.00000
  196 0.00000 0.00000 0.00000
  197 0.00000 0.00000 0.00000
  198 0.00000 0.00000 0.00000
  199 0.00000 0.00000 0.00000
  200 0.00000 0.00000 0.00000
  201 0.00000 0.00000 0.00000
  202 0.00000 0.00000 0.00000
  203 0.00000 0.00000 0.00000
  204 0.00000 0.00000 0.00000
  205 0.00000 0.00000 0.00000
  206 0.00000 0.00000 0.00000
  207 0.00000 0.00000 0.00000
  208 0.00000 0.00000 0.00000
  209 0.00000 0.00000 0.00000
  210 0.00000 0.00000 0.00000
  211 0.00000 0.00000 0.00000
  212 0.00000 0.00000 0.00000
  213 0.00000 0.00000 0.00000
  214 0.00000 0.00000 0.00000
  215 0.00000 0.00000 0.00000
  216 0.00000 0.00000 0.00000
  217 0.00000 0.00000 0.00000
  218 0.00000 0.00000 0.00000
  219 0.00000 0.00000 0.00000
  220 0.00000 0.00000 0.00000
  221 0.00000 0.00000 0.00000
  222 0.00000 0.00000 0.00000
  223 0.00000 0.00000 0.00000
  224 0.00000 0.00000 0.00000
  225 0.00000 0.00000 0.00000
  226 0.00000 0.00000 0.00000
  227 0.00000 0.00000 0.00000
  228 0.00000 0.00000 0.00000
  229 0.00000 0.00000 0.00000
  230 0.00000 0.00000 0.00000
  231 0.00000 0.00000 0.00000
  232 0.00000 0.00000 0.00000
  233 0.00000 0.00000 0.00000
  234 0.00000 0.00000 0.00000
  235 0.00000 0.00000 0.00000
  236 0.00000 0.00000 0.00000
  237 0.00000 0.00000 0.00000
  238 0.00000 0.00000 0.00000
  239 0.00000 0.00000 0.00000
  240 0.00000 0.00000 0.00000
  241 0.00000 0.00000 0.00000
</Section>

newXOutput 191

<Section columns = "stress_xx | stress_yy | stress_xy">
  1 0.00000 0.00000 0.00000
  2 0.00000 0.00000 0.00000
  3 0.00000 0.00000 0.00000
  4 0.00000 0.00000 0.00000
  5 0.00000 0.00000 0.00000
  6 0.00000 0.00000 0.00000
  7 0.00000 0.00000 0.00000
  8 0.00000 0.00000 0.00000
  9 0.00000 0.00000 0.00000
  10 0.00000 0.00000 0.00000
  11 0.00000 0.00000 0.00000
  12 0.00000 0.00000 0.00000
  13 0.00000 0.00000 0.00000
  14 0.00000 0.00000 0.00000
  15 0.00000 0.00000 0.00000
  16 0.00000 0.00000 0.00000
  17 0.00000 0.00000 0.00000
  18 0.00000 0.00000 0.00000
  19 0.00000 0.00000 0.00000
  20 0.00000 0.00000 0.00000
  21 0.00000 0.00000 0.00000
  22 0.00000 0.00000 0.00000
  23 0.00000 0.00000 0.00000
  24 0.00000 0.00000 0.00000
  25 0.00000 0.00000 0.00000
  26 0.00000 0.00000 0.00000
  27 0.00000 0.00000 0.00000
  28 0.00000 0.00000 0.00000
  29 0.00000 0.00000 0.00000
  30 0.00000 0.00000 0.00000
  31 0.00000 0.00000 0.00000
  32 0.00000 0.00000 0.00000
  33 0.00000 0.00000 0.00000
  34 0.00000 0.00000 0.00000
  35 0.00000 0.00000 0.00000
  36 0.00000 0.00000 0.00000
  37 0.00000 0.00000 0.00000
  38 0.00000 0.00000 0.00000
  39 0.00000 0.00000 0.00000
  40 0.00000 0.00000 0.00000
  41 0.00000 0.00000 0.00000
  42 0.00000 0.00000 0.00000
  43 0.00000 0.00000 0.00000
  44 0.00000 0.00000 0.00000
  45 0.00000 0.00000 0.00000
  46 0.00000 0.00000 0.00000
  47 0.00000 0.00000 0.00000
  48 0.00000 0.00000 0.00000
  49 0.00000 0.00000 0.00000
  50 0.00000 0.00000 0.00000
  51 0.00000 0.00000 0.00000
  52 0.00000 0.00000 0.00000
  53 0.00000 0.00000 0.00000
  54 0.00000 0.00000 0.00000
  55 0.00000 0.00000 0.00000
  56 0.00000 0.00000 0.00000
  57 0.00000 0.00000 0.00000
  58 0.00000 0.00000 0.00000
  59 0.00000 0.00000 0.00000
  60 0.00000 0.00000 0.00000
  61 0.00000 0.00000 0.00000
  62 0.00000 0.00000 0.00000
  63 0.00000 0.00000 0.00000
  64 0.00000 0.00000 0.00000
  65 0.00000 0.00000 0.00000
  66 0.00000 0.00000 0.00000
  67 0.00000 0.00000 0.00000
  68 0.00000 0.00000 0.00000
  69 0.00000 0.00000 0.00000
  70 0.00000 0.00000 0.00000
  71 0.00000 0.00000 0.00000
  72 0.00000 0.00000 0.00000
  73 0.00000 0.00000 0.00000
  74 0.00000 0.00000 0.00000
  75 0.00000 0.00000 0.00000
  76 0.00000 0.00000 0.00000
  77 0.00000 0.00000 0.00000
  78 0.00000 0.00000 0.00000
  79 0.00000 0.00000 0.00000
  80 0.00000 0.00000 0.00000
  81 0.00000 0.00000 0.00000
  82 0.00000 0.00000 0.00000
  83 0.00000 0.00000 0.00000
  84 0.00000 0.00000 0.00000
  85 0.00000 0.00000 0.00000
  86 0.00000 0.00000 0.00000
  87 0.00000 0.00000 0.00000
  88 0.00000 0.00000 0.00000
  89 0.00000 0.00000 0.00000
  90 0.00000 0.00000 0.00000
  91 0.00000 0.00000 0.00000
  92 0.00000 0.00000 0.00000
  93 0.00000 0.00000 0.00000
  94 0.00000 0.00000 0.00000
  95 0.00000 0.00000 0.00000
  96 0.00000 0.00000 0.00000
  97 0.00000 0.00000 0.00000
  98 0.00000 0.00000 0.00000
  99 0.00000 0.00000 0.00000
  100 0.00000 0.00000 0.00000
  101 0.00000 0.00000 0.00000
  102 0.00000 0.00000 0.00000
  103 0.00000 0.00000 0.00000
  104 0.00000 0.00000 0.00000
  105 0.00000 0.00000 0.00000
  106 0.00000 0.00000 0.00000
  107 0.00000 0.00000 0.00000
  108 0.00000 0.00000 0.00000
  109 0.00000 0.00000 0.00000
  110 0.00000 0.00000 0.00000
  111 0.00000 0.00000 0.00000
  112 0.00000 0.00000 0.00000
  113 0.00000 0.00000 0.00000
  114 0.00000 0.00000 0.00000
  115 0.00000 0.00000 0.00000
  116 0.00000 0.00000 0.00000
  117 0.00000 0.00000 0.00000
  118 0.00000 0.00000 0.00000
  119 0.00000 0.00000 0.00000
  120 0.00000 0.00000 0.00000
  121 0.00000 0.00000 0.00000
  122 0.00000 0.00000 0.00000
  123 0.00000 0.00000 0.00000
  124 0.00000 0.00000 0.00000
  125 0.00000 0.00000 0.00000
  126 0.00000 0.00000 0.00000
  127 0.00000 0.00000 0.00000
  128 0.00000 0.00000 0.00000
  129 0.00000 0.00000 0.00000
  130 0.00000 0.00000 0.00000
  131 0.00000 0.00000 0.00000
  132 0.00000 0.00000 0.00000
  133 0.00000 0.00000 0.00000
  134 0.00000 0.00000 0.00000
  135 0.00000 0.00000 0.00000
  136 0.00000 0.00000 0.00000
  137 0.00000 0.00000 0.00000
  138 0.00000 0.00000 0.00000
  139 0.00000 0.00000 0.00000
  140 0.00000 0.00000 0.00000
  141 0.00000 0.00000 0.00000
  142 0.00000 0.00000 0.00000
  143 0.00000 0.00000 0.00000
  144 0.00000 0.00000 0.00000
  145 0.00000 0.00000 0.00000
  146 0.00000 0.00000 0.00000
  147 0.00000 0.00000 0.00000
  148 0.00000 0.00000 0.00000
  149 0.00000 0.00000 0.00000
  150 0.00000 0.00000 0.00000
  151 0.00000 0.00000 0.00000
  152 0.00000 0.00000 0.00000
  153 0.00000 0.00000 0.00000
  154 0.00000 0.00000 0.00000
  155 0.00000 0.00000 0.00000
  156 0.00000 0.00000 0.00000
  157 0.00000 0.00000 0.00000
  158 0.00000 0.00000 0.00000
  159 0.00000 0.00000 0.00000
  160 0.00000 0.00000 0.00000
  161 0.00000 0.00000 0.00000
  162 0.00000 0.00000 0.00000
  163 0.00000 0.00000 0.00000
  164 0.00000 0.00000 0.00000
  165 0.00000 0.00000 0.00000
  166 0.00000 0.00000 0.00000
  167 0.00000 0.00000 0.00000
  168 0.00000 0.00000 0.00000
  169 0.00000 0.00000 0.00000
  170 0.00000 0.00000 0.00000
  171 0.00000 0.00000 0.00000
  172 0.00000 0.00000 0.00000
  173 0.00000 0.00000 0.00000
  174 0.00000 0.00000 0.00000
  175 0.00000 0.00000 0.00000
  176 0.00000 0.00000 0.00000
  177 0.00000 0.00000 0.00000
  178 0.00000 0.00000 0.00000
  179 0.00000 0.00000 0.00000
  180 0.00000 0.00000 0.00000
  181 0.00000 0.00000 0.00000
  182 0.00000 0.00000 0.00000
  183 0.00000 0.00000 0.00000
  184 0.00000 0.00000 0.00000
  185 0.00000 0.00000 0.00000
  186 0.00000 0.00000 0.00000
  187 0.00000 0.00000 0.00000
  188 0.00000 0.00000 0.00000
  189 0.00000 0.00000 0.00000
  190 0.00000 0.00000 0.00000
  191 0.00000 0.00000 0.00000
  192 0.00000 0.00000 0.00000
  193 0.00000 0.00000 0.00000
  194 0.00000 0.00000 0.00000
  195 0.00000 0.00000 0.00000
  196 0.00000 0.00000 0.00000
  197 0.00000 0.00000 0.00000
  198 0.00000 0.00000 0.00000
  199 0.00000 0.00000 0.00000
  200 0.00000 0.00000 0.00000
  201 0.00000 0.00000 0.00000
  202 0.00000 0.00000 0.00000
  203 0.00000 0.00000 0.00000
  204 0.00000 0.00000 0.00000
  205 0.00000 0.00000 0.00000
  206 0.00000 0.00000 0.00000
  207 0.00000 0.00000 0.00000
  208 0.00000 0.00000 0.00000
  209 0.00000 0.00000 0.00000
  210 0.00000 0.00000 0.00000
  211 0.00000 0.00000 0.00000
  212 0.00000 0.00000 0.00000
  213 0.00000 0.00000 0.00000
  214 0.00000 0.00000 0.00000
  215 0.00000 0.00000 0.00000
  216 0.00000 0.00000 0.00000
  217 0.00000 0.00000 0.00000
  218 0.00000 0.00000 0.00000
  219 0.00000 0.00000 0.00000
  220 0.00000 0.00000 0.00000
  221 0.00000 0.00000 0.00000
  222 0.00000 0.00000 0.00000
  223 0.00000 0.00000 0.00000
  224 0.00000 0.00000 0.00000
  225 0.00000 0.00000 0.00000
  226 0.00000 0.00000 0.00000
  227 0.00000 0.00000 0.00000
  228 0.00000 0.00000 0.00000
  229 0.00000 0.00000 0.00000
  230 0.00000 0.00000 0.00000
  231 0.00000 0.00000 0.00000
  232 0.00000 0.00000 0.00000
  233 0.00000 0.00000 0.00000
  234 0.00000 0.00000 0.00000
  235 0.00000 0.00000 0.00000
  236 0.00000 0.00000 0.00000
  237 0.00000 0.00000 0.00000
  238 0.00000 0.00000 0.00000
  239 0.00000 0.00000 0.00000
  240 0.00000 0.00000 0.00000
  241 0.00000 0.00000 0.00000
</Section>

newXOutput 192

<Section columns = "stress_xx | stress_yy | stress_xy">
  1 0.00000 0.00000 0.00000
  2 0.00000 0.00000 0.00000
  3 0.00000 0.00000 0.00000
  4 0.00000 0.00000 0.00000
  5 0.00000 0.00000 0.00000
  6 0.00000 0.00000 0.00000
  7 0.00000 0.00000 0.00000
  8 0.00000 0.00000 0.00000
  9 0.00000 0.00000 0.00000
  10 0.00000 0.00000 0.00000
  11 0.00000 0.00000 0.00000
  12 0.00000 0.00000 0.00000
  13 0.00000 0.00000 0.00000
  14 0.00000 0.00000 0.00000
  15 0.00000 0.00000 0.00000
  16 0.00000 0.00000 0.00000
  17 0.00000 0.00000 0.00000
  18 0.00000 0.00000 0.00000
  19 0.00000 0.00000 0.00000
  20 0.00000 0.00000 0.00000
  21 0.00000 0.00000 0.00000
  22 0.00000 0.00000 0.00000
  23 0.00000 0.00000 0.00000
  24 0.00000 0.00000 0.00000
  25 0.00000 0.00000 0.00000
  26 0.00000 0.00000 0.00000
  27 0.00000 0.00000 0.00000
  28 0.00000 0.00000 0.00000
  29 0.00000 0.00000 0.00000
  30 0.00000 0.00000 0.00000
  31 0.00000 0.00000 0.00000
  32 0.00000 0.00000 0.00000
  33 0.00000 0.00000 0.00000
  34 0.00000 0.00000 0.00000
  35 0.00000 0.00000 0.00000
  36 0.00000 0.00000 0.00000
  37 0.00000 0.00000 0.00000
  38 0.00000 0.00000 0.00000
  39 0.00000 0.00000 0.00000
  40 0.00000 0.00000 0.00000
  41 0.00000 0.00000 0.00000
  42 0.00000 0.00000 0.00000
  43 0.00000 0.00000 0.00000
  44 0.00000 0.00000 0.00000
  45 0.00000 0.00000 0.00000
  46 0.00000 0.00000 0.00000
  47 0.00000 0.00000 0.00000
  48 0.00000 0.00000 0.00000
  49 0.00000 0.00000 0.00000
  50 0.00000 0.00000 0.00000
  51 0.00000 0.00000 0.00000
  52 0.00000 0.00000 0.00000
  53 0.00000 0.00000 0.00000
  54 0.00000 0.00000 0.00000
  55 0.00000 0.00000 0.00000
  56 0.00000 0.00000 0.00000
  57 0.00000 0.00000 0.00000
  58 0.00000 0.00000 0.00000
  59 0.00000 0.00000 0.00000
  60 0.00000 0.00000 0.00000
  61 0.00000 0.00000 0.00000
  62 0.00000 0.00000 0.00000
  63 0.00000 0.00000 0.00000
  64 0.00000 0.00000 0.00000
  65 0.00000 0.00000 0.00000
  66 0.00000 0.00000 0.00000
  67 0.00000 0.00000 0.00000
  68 0.00000 0.00000 0.00000
  69 0.00000 0.00000 0.00000
  70 0.00000 0.00000 0.00000
  71 0.00000 0.00000 0.00000
  72 0.00000 0.00000 0.00000
  73 0.00000 0.00000 0.00000
  74 0.00000 0.00000 0.00000
  75 0.00000 0.00000 0.00000
  76 0.00000 0.00000 0.00000
  77 0.00000 0.00000 0.00000
  78 0.00000 0.00000 0.00000
  79 0.00000 0.00000 0.00000
  80 0.00000 0.00000 0.00000
  81 0.00000 0.00000 0.00000
  82 0.00000 0.00000 0.00000
  83 0.00000 0.00000 0.00000
  84 0.00000 0.00000 0.00000
  85 0.00000 0.00000 0.00000
  86 0.00000 0.00000 0.00000
  87 0.00000 0.00000 0.00000
  88 0.00000 0.00000 0.00000
  89 0.00000 0.00000 0.00000
  90 0.00000 0.00000 0.00000
  91 0.00000 0.00000 0.00000
  92 0.00000 0.00000 0.00000
  93 0.00000 0.00000 0.00000
  94 0.00000 0.00000 0.00000
  95 0.00000 0.00000 0.00000
  96 0.00000 0.00000 0.00000
  97 0.00000 0.00000 0.00000
  98 0.00000 0.00000 0.00000
  99 0.00000 0.00000 0.00000
  100 0.00000 0.00000 0.00000
  101 0.00000 0.00000 0.00000
  102 0.00000 0.00000 0.00000
  103 0.00000 0.00000 0.00000
  104 0.00000 0.00000 0.00000
  105 0.00000 0.00000 0.00000
  106 0.00000 0.00000 0.00000
  107 0.00000 0.00000 0.00000
  108 0.00000 0.00000 0.00000
  109 0.00000 0.00000 0.00000
  110 0.00000 0.00000 0.00000
  111 0.00000 0.00000 0.00000
  112 0.00000 0.00000 0.00000
  113 0.00000 0.00000 0.00000
  114 0.00000 0.00000 0.00000
  115 0.00000 0.00000 0.00000
  116 0.00000 0.00000 0.00000
  117 0.00000 0.00000 0.00000
  118 0.00000 0.00000 0.00000
  119 0.00000 0.00000 0.00000
  120 0.00000 0.00000 0.00000
  121 0.00000 0.00000 0.00000
  122 0.00000 0.00000 0.00000
  123 0.00000 0.00000 0.00000
  124 0.00000 0.00000 0.00000
  125 0.00000 0.00000 0.00000
  126 0.00000 0.00000 0.00000
  127 0.00000 0.00000 0.00000
  128 0.00000 0.00000 0.00000
  129 0.00000 0.00000 0.00000
  130 0.00000 0.00000 0.00000
  131 0.00000 0.00000 0.00000
  132 0.00000 0.00000 0.00000
  133 0.00000 0.00000 0.00000
  134 0.00000 0.00000 0.00000
  135 0.00000 0.00000 0.00000
  136 0.00000 0.00000 0.00000
  137 0.00000 0.00000 0.00000
  138 0.00000 0.00000 0.00000
  139 0.00000 0.00000 0.00000
  140 0.00000 0.00000 0.00000
  141 0.00000 0.00000 0.00000
  142 0.00000 0.00000 0.00000
  143 0.00000 0.00000 0.00000
  144 0.00000 0.00000 0.00000
  145 0.00000 0.00000 0.00000
  146 0.00000 0.00000 0.00000
  147 0.00000 0.00000 0.00000
  148 0.00000 0.00000 0.00000
  149 0.00000 0.00000 0.00000
  150 0.00000 0.00000 0.00000
  151 0.00000 0.00000 0.00000
  152 0.00000 0.00000 0.00000
  153 0.00000 0.00000 0.00000
  154 0.00000 0.00000 0.00000
  155 0.00000 0.00000 0.00000
  156 0.00000 0.00000 0.00000
  157 0.00000 0.00000 0.00000
  158 0.00000 0.00000 0.00000
  159 0.00000 0.00000 0.00000
  160 0.00000 0.00000 0.00000
  161 0.00000 0.00000 0.00000
  162 0.00000 0.00000 0.00000
  163 0.00000 0.00000 0.00000
  164 0.00000 0.00000 0.00000
  165 0.00000 0.00000 0.00000
  166 0.00000 0.00000 0.00000
  167 0.00000 0.00000 0.00000
  168 0.00000 0.00000 0.00000
  169 0.00000 0.00000 0.00000
  170 0.00000 0.00000 0.00000
  171 0.00000 0.00000 0.00000
  172 0.00000 0.00000 0.00000
  173 0.00000 0.00000 0.00000
  174 0.00000 0.00000 0.00000
  175 0.00000 0.00000 0.00000
  176 0.00000 0.00000 0.00000
  177 0.00000 0.00000 0.00000
  178 0.00000 0.00000 0.00000
  179 0.00000 0.00000 0.00000
  180 0.00000 0.00000 0.00000
  181 0.00000 0.00000 0.00000
  182 0.00000 0.00000 0.00000
  183 0.00000 0.00000 0.00000
  184 0.00000 0.00000 0.00000
  185 0.00000 0.00000 0.00000
  186 0.00000 0.00000 0.00000
  187 0.00000 0.00000 0.00000
  188 0.00000 0.00000 0.00000
  189 0.00000 0.00000 0.00000
  190 0.00000 0.00000 0.00000
  191 0.00000 0.00000 0.00000
  192 0.00000 0.00000 0.00000
  193 0.00000 0.00000 0.00000
  194 0.00000 0.00000 0.00000
  195 0.00000 0.00000 0.00000
  196 0.00000 0.00000 0.00000
  197 0.00000 0.00000 0.00000
  198 0.00000 0.00000 0.00000
  199 0.00000 0.00000 0.00000
  200 0.00000 0.00000 0.00000
  201 0.00000 0.00000 0.00000
  202 0.00000 0.00000 0.00000
  203 0.00000 0.00000 0.00000
  204 0.00000 0.00000 0.00000
  205 0.00000 0.00000 0.00000
  206 0.00000 0.00000 0.00000
  207 0.00000 0.00000 0.00000
  208 0.00000 0.00000 0.00000
  209 0.00000 0.00000 0.00000
  210 0.00000 0.00000 0.00000
  211 0.00000 0.00000 0.00000
  212 0.00000 0.00000 0.00000
  213 0.00000 0.00000 0.00000
  214 0.00000 0.00000 0.00000
  215 0.00000 0.00000 0.00000
  216 0.00000 0.00000 0.00000
  217 0.00000 0.00000 0.00000
  218 0.00000 0.00000 0.00000
  219 0.00000 0.00000 0.00000
  220 0.00000 0.00000 0.00000
  221 0.00000 0.00000 0.00000
  222 0.00000 0.00000 0.00000
  223 0.00000 0.00000 0.00000
  224 0.00000 0.00000 0.00000
  225 0.00000 0.00000 0.00000
  226 0.00000 0.00000 0.00000
  227 0.00000 0.00000 0.00000
  228 0.00000 0.00000 0.00000
  229 0.00000 0.00000 0.00000
  230 0.00000 0.00000 0.00000
  231 0.00000 0.00000 0.00000
  232 0.00000 0.00000 0.00000
  233 0.00000 0.00000 0.00000
  234 0.00000 0.00000 0.00000
  235 0.00000 0.00000 0.00000
  236 0.00000 0.00000 0.00000
  237 0.00000 0.00000 0.00000
  238 0.00000 0.00000 0.00000
  239 0.00000 0.00000 0.00000
  240 0.00000 0.00000 0.00000
  241 0.00000 0.00000 0.00000
</Section>

newXOutput 193

<Section columns = "stress_xx | stress_yy | stress_xy">
  1 0.00000 0.00000 0.00000
  2 0.00000 0.00000 0.00000
  3 0.00000 0.00000 0.00000
  4 0.00000 0.00000 0.00000
  5 0.00000 0.00000 0.00000
  6 0.00000 0.00000 0.00000
  7 0.00000 0.00000 0.00000
  8 0.00000 0.00000 0.00000
  9 0.00000 0.00000 0.00000
  10 0.00000 0.00000 0.00000
  11 0.00000 0.00000 0.00000
  12 0.00000 0.00000 0.00000
  13 0.00000 0.00000 0.00000
  14 0.00000 0.00000 0.00000
  15 0.00000 0.00000 0.00000
  16 0.00000 0.00000 0.00000
  17 0.00000 0.00000 0.00000
  18 0.00000 0.00000 0.00000
  19 0.00000 0.00000 0.00000
  20 0.00000 0.00000 0.00000
  21 0.00000 0.00000 0.00000
  22 0.00000 0.00000 0.00000
  23 0.00000 0.00000 0.00000
  24 0.00000 0.00000 0.00000
  25 0.00000 0.00000 0.00000
  26 0.00000 0.00000 0.00000
  27 0.00000 0.00000 0.00000
  28 0.00000 0.00000 0.00000
  29 0.00000 0.00000 0.00000
  30 0.00000 0.00000 0.00000
  31 0.00000 0.00000 0.00000
  32 0.00000 0.00000 0.00000
  33 0.00000 0.00000 0.00000
  34 0.00000 0.00000 0.00000
  35 0.00000 0.00000 0.00000
  36 0.00000 0.00000 0.00000
  37 0.00000 0.00000 0.00000
  38 0.00000 0.00000 0.00000
  39 0.00000 0.00000 0.00000
  40 0.00000 0.00000 0.00000
  41 0.00000 0.00000 0.00000
  42 0.00000 0.00000 0.00000
  43 0.00000 0.00000 0.00000
  44 0.00000 0.00000 0.00000
  45 0.00000 0.00000 0.00000
  46 0.00000 0.00000 0.00000
  47 0.00000 0.00000 0.00000
  48 0.00000 0.00000 0.00000
  49 0.00000 0.00000 0.00000
  50 0.00000 0.00000 0.00000
  51 0.00000 0.00000 0.00000
  52 0.00000 0.00000 0.00000
  53 0.00000 0.00000 0.00000
  54 0.00000 0.00000 0.00000
  55 0.00000 0.00000 0.00000
  56 0.00000 0.00000 0.00000
  57 0.00000 0.00000 0.00000
  58 0.00000 0.00000 0.00000
  59 0.00000 0.00000 0.00000
  60 0.00000 0.00000 0.00000
  61 0.00000 0.00000 0.00000
  62 0.00000 0.00000 0.00000
  63 0.00000 0.00000 0.00000
  64 0.00000 0.00000 0.00000
  65 0.00000 0.00000 0.00000
  66 0.00000 0.00000 0.00000
  67 0.00000 0.00000 0.00000
  68 0.00000 0.00000 0.00000
  69 0.00000 0.00000 0.00000
  70 0.00000 0.00000 0.00000
  71 0.00000 0.00000 0.00000
  72 0.00000 0.00000 0.00000
  73 0.00000 0.00000 0.00000
  74 0.00000 0.00000 0.00000
  75 0.00000 0.00000 0.00000
  76 0.00000 0.00000 0.00000
  77 0.00000 0.00000 0.00000
  78 0.00000 0.00000 0.00000
  79 0.00000 0.00000 0.00000
  80 0.00000 0.00000 0.00000
  81 0.00000 0.00000 0.00000
  82 0.00000 0.00000 0.00000
  83 0.00000 0.00000 0.00000
  84 0.00000 0.00000 0.00000
  85 0.00000 0.00000 0.00000
  86 0.00000 0.00000 0.00000
  87 0.00000 0.00000 0.00000
  88 0.00000 0.00000 0.00000
  89 0.00000 0.00000 0.00000
  90 0.00000 0.00000 0.00000
  91 0.00000 0.00000 0.00000
  92 0.00000 0.00000 0.00000
  93 0.00000 0.00000 0.00000
  94 0.00000 0.00000 0.00000
  95 0.00000 0.00000 0.00000
  96 0.00000 0.00000 0.00000
  97 0.00000 0.00000 0.00000
  98 0.00000 0.00000 0.00000
  99 0.00000 0.00000 0.00000
  100 0.00000 0.00000 0.00000
  101 0.00000 0.00000 0.00000
  102 0.00000 0.00000 0.00000
  103 0.00000 0.00000 0.00000
  104 0.00000 0.00000 0.00000
  105 0.00000 0.00000 0.00000
  106 0.00000 0.00000 0.00000
  107 0.00000 0.00000 0.00000
  108 0.00000 0.00000 0.00000
  109 0.00000 0.00000 0.00000
  110 0.00000 0.00000 0.00000
  111 0.00000 0.00000 0.00000
  112 0.00000 0.00000 0.00000
  113 0.00000 0.00000 0.00000
  114 0.00000 0.00000 0.00000
  115 0.00000 0.00000 0.00000
  116 0.00000 0.00000 0.00000
  117 0.00000 0.00000 0.00000
  118 0.00000 0.00000 0.00000
  119 0.00000 0.00000 0.00000
  120 0.00000 0.00000 0.00000
  121 0.00000 0.00000 0.00000
  122 0.00000 0.00000 0.00000
  123 0.00000 0.00000 0.00000
  124 0.00000 0.00000 0.00000
  125 0.00000 0.00000 0.00000
  126 0.00000 0.00000 0.00000
  127 0.00000 0.00000 0.00000
  128 0.00000 0.00000 0.00000
  129 0.00000 0.00000 0.00000
  130 0.00000 0.00000 0.00000
  131 0.00000 0.00000 0.00000
  132 0.00000 0.00000 0.00000
  133 0.00000 0.00000 0.00000
  134 0.00000 0.00000 0.00000
  135 0.00000 0.00000 0.00000
  136 0.00000 0.00000 0.00000
  137 0.00000 0.00000 0.00000
  138 0.00000 0.00000 0.00000
  139 0.00000 0.00000 0.00000
  140 0.00000 0.00000 0.00000
  141 0.00000 0.00000 0.00000
  142 0.00000 0.00000 0.00000
  143 0.00000 0.00000 0.00000
  144 0.00000 0.00000 0.00000
  145 0.00000 0.00000 0.00000
  146 0.00000 0.00000 0.00000
  147 0.00000 0.00000 0.00000
  148 0.00000 0.00000 0.00000
  149 0.00000 0.00000 0.00000
  150 0.00000 0.00000 0.00000
  151 0.00000 0.00000 0.00000
  152 0.00000 0.00000 0.00000
  153 0.00000 0.00000 0.00000
  154 0.00000 0.00000 0.00000
  155 0.00000 0.00000 0.00000
  156 0.00000 0.00000 0.00000
  157 0.00000 0.00000 0.00000
  158 0.00000 0.00000 0.00000
  159 0.00000 0.00000 0.00000
  160 0.00000 0.00000 0.00000
  161 0.00000 0.00000 0.00000
  162 0.00000 0.00000 0.00000
  163 0.00000 0.00000 0.00000
  164 0.00000 0.00000 0.00000
  165 0.00000 0.00000 0.00000
  166 0.00000 0.00000 0.00000
  167 0.00000 0.00000 0.00000
  168 0.00000 0.00000 0.00000
  169 0.00000 0.00000 0.00000
  170 0.00000 0.00000 0.00000
  171 0.00000 0.00000 0.00000
  172 0.00000 0.00000 0.00000
  173 0.00000 0.00000 0.00000
  174 0.00000 0.00000 0.00000
  175 0.00000 0.00000 0.00000
  176 0.00000 0.00000 0.00000
  177 0.00000 0.00000 0.00000
  178 0.00000 0.00000 0.00000
  179 0.00000 0.00000 0.00000
  180 0.00000 0.00000 0.00000
  181 0.00000 0.00000 0.00000
  182 0.00000 0.00000 0.00000
  183 0.00000 0.00000 0.00000
  184 0.00000 0.00000 0.00000
  185 0.00000 0.00000 0.00000
  186 0.00000 0.00000 0.00000
  187 0.00000 0.00000 0.00000
  188 0.00000 0.00000 0.00000
  189 0.00000 0.00000 0.00000
  190 0.00000 0.00000 0.00000
  191 0.00000 0.00000 0.00000
  192 0.00000 0.00000 0.00000
  193 0.00000 0.00000 0.00000
  194 0.00000 0.00000 0.00000
  195 0.00000 0.00000 0.00000
  196 0.00000 0.00000 0.00000
  197 0.00000 0.00000 0.00000
  198 0.00000 0.00000 0.00000
  199 0.00000 0.00000 0.00000
  200 0.00000 0.00000 0.00000
  201 0.00000 0.00000 0.00000
  202 0.00000 0.00000 0.00000
  203 0.00000 0.00000 0.00000
  204 0.00000 0.00000 0.00000
  205 0.00000 0.00000 0.00000
  206 0.00000 0.00000 0.00000
  207 0.00000 0.00000 0.00000
  208 0.00000 0.00000 0.00000
  209 0.00000 0.00000 0.00000
  210 0.00000 0.00000 0.00000
  211 0.00000 0.00000 0.00000
  212 0.00000 0.00000 0.00000
  213 0.00000 0.00000 0.00000
  214 0.00000 0.00000 0.00000
  215 0.00000 0.00000 0.00000
  216 0.00000 0.00000 0.00000
  217 0.00000 0.00000 0.00000
  218 0.00000 0.00000 0.00000
  219 0.00000 0.00000 0.00000
  220 0.00000 0.00000 0.00000
  221 0.00000 0.00000 0.00000
  222 0.00000 0.00000 0.00000
  223 0.00000 0.00000 0.00000
  224 0.00000 0.00000 0.00000
  225 0.00000 0.00000 0.00000
  226 0.00000 0.00000 0.00000
  227 0.00000 0.00000 0.00000
  228 0.00000 0.00000 0.00000
  229 0.00000 0.00000 0.00000
  230 0.00000 0.00000 0.00000
  231 0.00000 0.00000 0.00000
  232 0.00000 0.00000 0.00000
  233 0.00000 0.00000 0.00000
  234 0.00000 0.00000 0.00000
  235 0.00000 0.00000 0.00000
  236 0.00000 0.00000 0.00000
  237 0.00000 0.00000 0.00000
  238 0.00000 0.00000 0.00000
  239 0.00000 0.00000 0.00000
  240 0.00000 0.00000 0.00000
  241 0.00000 0.00000 0.00000
</Section>

newXOutput 194

<Section columns = "stress_xx | stress_yy | stress_xy">
  1 0.00000 0.00000 0.00000
  2 0.00000 0.00000 0.00000
  3 0.00000 0.00000 0.00000
  4 0.00000 0.00000 0.00000
  5 0.00000 0.00000 0.00000
  6 0.00000 0.00000 0.00000
  7 0.00000 0.00000 0.00000
  8 0.00000 0.00000 0.00000
  9 0.00000 0.00000 0.00000
  10 0.00000 0.00000 0.00000
  11 0.00000 0.00000 0.00000
  12 0.00000 0.00000 0.00000
  13 0.00000 0.00000 0.00000
  14 0.00000 0.00000 0.00000
  15 0.00000 0.00000 0.00000
  16 0.00000 0.00000 0.00000
  17 0.00000 0.00000 0.00000
  18 0.00000 0.00000 0.00000
  19 0.00000 0.00000 0.00000
  20 0.00000 0.00000 0.00000
  21 0.00000 0.00000 0.00000
  22 0.00000 0.00000 0.00000
  23 0.00000 0.00000 0.00000
  24 0.00000 0.00000 0.00000
  25 0.00000 0.00000 0.00000
  26 0.00000 0.00000 0.00000
  27 0.00000 0.00000 0.00000
  28 0.00000 0.00000 0.00000
  29 0.00000 0.00000 0.00000
  30 0.00000 0.00000 0.00000
  31 0.00000 0.00000 0.00000
  32 0.00000 0.00000 0.00000
  33 0.00000 0.00000 0.00000
  34 0.00000 0.00000 0.00000
  35 0.00000 0.00000 0.00000
  36 0.00000 0.00000 0.00000
  37 0.00000 0.00000 0.00000
  38 0.00000 0.00000 0.00000
  39 0.00000 0.00000 0.00000
  40 0.00000 0.00000 0.00000
  41 0.00000 0.00000 0.00000
  42 0.00000 0.00000 0.00000
  43 0.00000 0.00000 0.00000
  44 0.00000 0.00000 0.00000
  45 0.00000 0.00000 0.00000
  46 0.00000 0.00000 0.00000
  47 0.00000 0.00000 0.00000
  48 0.00000 0.00000 0.00000
  49 0.00000 0.00000 0.00000
  50 0.00000 0.00000 0.00000
  51 0.00000 0.00000 0.00000
  52 0.00000 0.00000 0.00000
  53 0.00000 0.00000 0.00000
  54 0.00000 0.00000 0.00000
  55 0.00000 0.00000 0.00000
  56 0.00000 0.00000 0.00000
  57 0.00000 0.00000 0.00000
  58 0.00000 0.00000 0.00000
  59 0.00000 0.00000 0.00000
  60 0.00000 0.00000 0.00000
  61 0.00000 0.00000 0.00000
  62 0.00000 0.00000 0.00000
  63 0.00000 0.00000 0.00000
  64 0.00000 0.00000 0.00000
  65 0.00000 0.00000 0.00000
  66 0.00000 0.00000 0.00000
  67 0.00000 0.00000 0.00000
  68 0.00000 0.00000 0.00000
  69 0.00000 0.00000 0.00000
  70 0.00000 0.00000 0.00000
  71 0.00000 0.00000 0.00000
  72 0.00000 0.00000 0.00000
  73 0.00000 0.00000 0.00000
  74 0.00000 0.00000 0.00000
  75 0.00000 0.00000 0.00000
  76 0.00000 0.00000 0.00000
  77 0.00000 0.00000 0.00000
  78 0.00000 0.00000 0.00000
  79 0.00000 0.00000 0.00000
  80 0.00000 0.00000 0.00000
  81 0.00000 0.00000 0.00000
  82 0.00000 0.00000 0.00000
  83 0.00000 0.00000 0.00000
  84 0.00000 0.00000 0.00000
  85 0.00000 0.00000 0.00000
  86 0.00000 0.00000 0.00000
  87 0.00000 0.00000 0.00000
  88 0.00000 0.00000 0.00000
  89 0.00000 0.00000 0.00000
  90 0.00000 0.00000 0.00000
  91 0.00000 0.00000 0.00000
  92 0.00000 0.00000 0.00000
  93 0.00000 0.00000 0.00000
  94 0.00000 0.00000 0.00000
  95 0.00000 0.00000 0.00000
  96 0.00000 0.00000 0.00000
  97 0.00000 0.00000 0.00000
  98 0.00000 0.00000 0.00000
  99 0.00000 0.00000 0.00000
  100 0.00000 0.00000 0.00000
  101 0.00000 0.00000 0.00000
  102 0.00000 0.00000 0.00000
  103 0.00000 0.00000 0.00000
  104 0.00000 0.00000 0.00000
  105 0.00000 0.00000 0.00000
  106 0.00000 0.00000 0.00000
  107 0.00000 0.00000 0.00000
  108 0.00000 0.00000 0.00000
  109 0.00000 0.00000 0.00000
  110 0.00000 0.00000 0.00000
  111 0.00000 0.00000 0.00000
  112 0.00000 0.00000 0.00000
  113 0.00000 0.00000 0.00000
  114 0.00000 0.00000 0.00000
  115 0.00000 0.00000 0.00000
  116 0.00000 0.00000 0.00000
  117 0.00000 0.00000 0.00000
  118 0.00000 0.00000 0.00000
  119 0.00000 0.00000 0.00000
  120 0.00000 0.00000 0.00000
  121 0.00000 0.00000 0.00000
  122 0.00000 0.00000 0.00000
  123 0.00000 0.00000 0.00000
  124 0.00000 0.00000 0.00000
  125 0.00000 0.00000 0.00000
  126 0.00000 0.00000 0.00000
  127 0.00000 0.00000 0.00000
  128 0.00000 0.00000 0.00000
  129 0.00000 0.00000 0.00000
  130 0.00000 0.00000 0.00000
  131 0.00000 0.00000 0.00000
  132 0.00000 0.00000 0.00000
  133 0.00000 0.00000 0.00000
  134 0.00000 0.00000 0.00000
  135 0.00000 0.00000 0.00000
  136 0.00000 0.00000 0.00000
  137 0.00000 0.00000 0.00000
  138 0.00000 0.00000 0.00000
  139 0.00000 0.00000 0.00000
  140 0.00000 0.00000 0.00000
  141 0.00000 0.00000 0.00000
  142 0.00000 0.00000 0.00000
  143 0.00000 0.00000 0.00000
  144 0.00000 0.00000 0.00000
  145 0.00000 0.00000 0.00000
  146 0.00000 0.00000 0.00000
  147 0.00000 0.00000 0.00000
  148 0.00000 0.00000 0.00000
  149 0.00000 0.00000 0.00000
  150 0.00000 0.00000 0.00000
  151 0.00000 0.00000 0.00000
  152 0.00000 0.00000 0.00000
  153 0.00000 0.00000 0.00000
  154 0.00000 0.00000 0.00000
  155 0.00000 0.00000 0.00000
  156 0.00000 0.00000 0.00000
  157 0.00000 0.00000 0.00000
  158 0.00000 0.00000 0.00000
  159 0.00000 0.00000 0.00000
  160 0.00000 0.00000 0.00000
  161 0.00000 0.00000 0.00000
  162 0.00000 0.00000 0.00000
  163 0.00000 0.00000 0.00000
  164 0.00000 0.00000 0.00000
  165 0.00000 0.00000 0.00000
  166 0.00000 0.00000 0.00000
  167 0.00000 0.00000 0.00000
  168 0.00000 0.00000 0.00000
  169 0.00000 0.00000 0.00000
  170 0.00000 0.00000 0.00000
  171 0.00000 0.00000 0.00000
  172 0.00000 0.00000 0.00000
  173 0.00000 0.00000 0.00000
  174 0.00000 0.00000 0.00000
  175 0.00000 0.00000 0.00000
  176 0.00000 0.00000 0.00000
  177 0.00000 0.00000 0.00000
  178 0.00000 0.00000 0.00000
  179 0.00000 0.00000 0.00000
  180 0.00000 0.00000 0.00000
  181 0.00000 0.00000 0.00000
  182 0.00000 0.00000 0.00000
  183 0.00000 0.00000 0.00000
  184 0.00000 0.00000 0.00000
  185 0.00000 0.00000 0.00000
  186 0.00000 0.00000 0.00000
  187 0.00000 0.00000 0.00000
  188 0.00000 0.00000 0.00000
  189 0.00000 0.00000 0.00000
  190 0.00000 0.00000 0.00000
  191 0.00000 0.00000 0.00000
  192 0.00000 0.00000 0.00000
  193 0.00000 0.00000 0.00000
  194 0.00000 0.00000 0.00000
  195 0.00000 0.00000 0.00000
  196 0.00000 0.00000 0.00000
  197 0.00000 0.00000 0.00000
  198 0.00000 0.00000 0.00000
  199 0.00000 0.00000 0.00000
  200 0.00000 0.00000 0.00000
  201 0.00000 0.00000 0.00000
  202 0.00000 0.00000 0.00000
  203 0.00000 0.00000 0.00000
  204 0.00000 0.00000 0.00000
  205 0.00000 0.00000 0.00000
  206 0.00000 0.00000 0.00000
  207 0.00000 0.00000 0.00000
  208 0.00000 0.00000 0.00000
  209 0.00000 0.00000 0.00000
  210 0.00000 0.00000 0.00000
  211 0.00000 0.00000 0.00000
  212 0.00000 0.00000 0.00000
  213 0.00000 0.00000 0.00000
  214 0.00000 0.00000 0.00000
  215 0.00000 0.00000 0.00000
  216 0.00000 0.00000 0.00000
  217 0.00000 0.00000 0.00000
  218 0.00000 0.00000 0.00000
  219 0.00000 0.00000 0.00000
  220 0.00000 0.00000 0.00000
  221 0.00000 0.00000 0.00000
  222 0.00000 0.00000 0.00000
  223 0.00000 0.00000 0.00000
  224 0.00000 0.00000 0.00000
  225 0.00000 0.00000 0.00000
  226 0.00000 0.00000 0.00000
  227 0.00000 0.00000 0.00000
  228 0.00000 0.00000 0.00000
  229 0.00000 0.00000 0.00000
  230 0.00000 0.00000 0.00000
  231 0.00000 0.00000 0.00000
  232 0.00000 0.00000 0.00000
  233 0.00000 0.00000 0.00000
  234 0.00000 0.00000 0.00000
  235 0.00000 0.00000 0.00000
  236 0.00000 0.00000 0.00000
  237 0.00000 0.00000 0.00000
  238 0.00000 0.00000 0.00000
  239 0.00000 0.00000 0.00000
  240 0.00000 0.00000 0.00000
  241 0.00000 0.00000 0.00000
</Section>

newXOutput 195

<Section columns = "stress_xx | stress_yy | stress_xy">
  1 0.00000 0.00000 0.00000
  2 0.00000 0.00000 0.00000
  3 0.00000 0.00000 0.00000
  4 0.00000 0.00000 0.00000
  5 0.00000 0.00000 0.00000
  6 0.00000 0.00000 0.00000
  7 0.00000 0.00000 0.00000
  8 0.00000 0.00000 0.00000
  9 0.00000 0.00000 0.00000
  10 0.00000 0.00000 0.00000
  11 0.00000 0.00000 0.00000
  12 0.00000 0.00000 0.00000
  13 0.00000 0.00000 0.00000
  14 0.00000 0.00000 0.00000
  15 0.00000 0.00000 0.00000
  16 0.00000 0.00000 0.00000
  17 0.00000 0.00000 0.00000
  18 0.00000 0.00000 0.00000
  19 0.00000 0.00000 0.00000
  20 0.00000 0.00000 0.00000
  21 0.00000 0.00000 0.00000
  22 0.00000 0.00000 0.00000
  23 0.00000 0.00000 0.00000
  24 0.00000 0.00000 0.00000
  25 0.00000 0.00000 0.00000
  26 0.00000 0.00000 0.00000
  27 0.00000 0.00000 0.00000
  28 0.00000 0.00000 0.00000
  29 0.00000 0.00000 0.00000
  30 0.00000 0.00000 0.00000
  31 0.00000 0.00000 0.00000
  32 0.00000 0.00000 0.00000
  33 0.00000 0.00000 0.00000
  34 0.00000 0.00000 0.00000
  35 0.00000 0.00000 0.00000
  36 0.00000 0.00000 0.00000
  37 0.00000 0.00000 0.00000
  38 0.00000 0.00000 0.00000
  39 0.00000 0.00000 0.00000
  40 0.00000 0.00000 0.00000
  41 0.00000 0.00000 0.00000
  42 0.00000 0.00000 0.00000
  43 0.00000 0.00000 0.00000
  44 0.00000 0.00000 0.00000
  45 0.00000 0.00000 0.00000
  46 0.00000 0.00000 0.00000
  47 0.00000 0.00000 0.00000
  48 0.00000 0.00000 0.00000
  49 0.00000 0.00000 0.00000
  50 0.00000 0.00000 0.00000
  51 0.00000 0.00000 0.00000
  52 0.00000 0.00000 0.00000
  53 0.00000 0.00000 0.00000
  54 0.00000 0.00000 0.00000
  55 0.00000 0.00000 0.00000
  56 0.00000 0.00000 0.00000
  57 0.00000 0.00000 0.00000
  58 0.00000 0.00000 0.00000
  59 0.00000 0.00000 0.00000
  60 0.00000 0.00000 0.00000
  61 0.00000 0.00000 0.00000
  62 0.00000 0.00000 0.00000
  63 0.00000 0.00000 0.00000
  64 0.00000 0.00000 0.00000
  65 0.00000 0.00000 0.00000
  66 0.00000 0.00000 0.00000
  67 0.00000 0.00000 0.00000
  68 0.00000 0.00000 0.00000
  69 0.00000 0.00000 0.00000
  70 0.00000 0.00000 0.00000
  71 0.00000 0.00000 0.00000
  72 0.00000 0.00000 0.00000
  73 0.00000 0.00000 0.00000
  74 0.00000 0.00000 0.00000
  75 0.00000 0.00000 0.00000
  76 0.00000 0.00000 0.00000
  77 0.00000 0.00000 0.00000
  78 0.00000 0.00000 0.00000
  79 0.00000 0.00000 0.00000
  80 0.00000 0.00000 0.00000
  81 0.00000 0.00000 0.00000
  82 0.00000 0.00000 0.00000
  83 0.00000 0.00000 0.00000
  84 0.00000 0.00000 0.00000
  85 0.00000 0.00000 0.00000
  86 0.00000 0.00000 0.00000
  87 0.00000 0.00000 0.00000
  88 0.00000 0.00000 0.00000
  89 0.00000 0.00000 0.00000
  90 0.00000 0.00000 0.00000
  91 0.00000 0.00000 0.00000
  92 0.00000 0.00000 0.00000
  93 0.00000 0.00000 0.00000
  94 0.00000 0.00000 0.00000
  95 0.00000 0.00000 0.00000
  96 0.00000 0.00000 0.00000
  97 0.00000 0.00000 0.00000
  98 0.00000 0.00000 0.00000
  99 0.00000 0.00000 0.00000
  100 0.00000 0.00000 0.00000
  101 0.00000 0.00000 0.00000
  102 0.00000 0.00000 0.00000
  103 0.00000 0.00000 0.00000
  104 0.00000 0.00000 0.00000
  105 0.00000 0.00000 0.00000
  106 0.00000 0.00000 0.00000
  107 0.00000 0.00000 0.00000
  108 0.00000 0.00000 0.00000
  109 0.00000 0.00000 0.00000
  110 0.00000 0.00000 0.00000
  111 0.00000 0.00000 0.00000
  112 0.00000 0.00000 0.00000
  113 0.00000 0.00000 0.00000
  114 0.00000 0.00000 0.00000
  115 0.00000 0.00000 0.00000
  116 0.00000 0.00000 0.00000
  117 0.00000 0.00000 0.00000
  118 0.00000 0.00000 0.00000
  119 0.00000 0.00000 0.00000
  120 0.00000 0.00000 0.00000
  121 0.00000 0.00000 0.00000
  122 0.00000 0.00000 0.00000
  123 0.00000 0.00000 0.00000
  124 0.00000 0.00000 0.00000
  125 0.00000 0.00000 0.00000
  126 0.00000 0.00000 0.00000
  127 0.00000 0.00000 0.00000
  128 0.00000 0.00000 0.00000
  129 0.00000 0.00000 0.00000
  130 0.00000 0.00000 0.00000
  131 0.00000 0.00000 0.00000
  132 0.00000 0.00000 0.00000
  133 0.00000 0.00000 0.00000
  134 0.00000 0.00000 0.00000
  135 0.00000 0.00000 0.00000
  136 0.00000 0.00000 0.00000
  137 0.00000 0.00000 0.00000
  138 0.00000 0.00000 0.00000
  139 0.00000 0.00000 0.00000
  140 0.00000 0.00000 0.00000
  141 0.00000 0.00000 0.00000
  142 0.00000 0.00000 0.00000
  143 0.00000 0.00000 0.00000
  144 0.00000 0.00000 0.00000
  145 0.00000 0.00000 0.00000
  146 0.00000 0.00000 0.00000
  147 0.00000 0.00000 0.00000
  148 0.00000 0.00000 0.00000
  149 0.00000 0.00000 0.00000
  150 0.00000 0.00000 0.00000
  151 0.00000 0.00000 0.00000
  152 0.00000 0.00000 0.00000
  153 0.00000 0.00000 0.00000
  154 0.00000 0.00000 0.00000
  155 0.00000 0.00000 0.00000
  156 0.00000 0.00000 0.00000
  157 0.00000 0.00000 0.00000
  158 0.00000 0.00000 0.00000
  159 0.00000 0.00000 0.00000
  160 0.00000 0.00000 0.00000
  161 0.00000 0.00000 0.00000
  162 0.00000 0.00000 0.00000
  163 0.00000 0.00000 0.00000
  164 0.00000 0.00000 0.00000
  165 0.00000 0.00000 0.00000
  166 0.00000 0.00000 0.00000
  167 0.00000 0.00000 0.00000
  168 0.00000 0.00000 0.00000
  169 0.00000 0.00000 0.00000
  170 0.00000 0.00000 0.00000
  171 0.00000 0.00000 0.00000
  172 0.00000 0.00000 0.00000
  173 0.00000 0.00000 0.00000
  174 0.00000 0.00000 0.00000
  175 0.00000 0.00000 0.00000
  176 0.00000 0.00000 0.00000
  177 0.00000 0.00000 0.00000
  178 0.00000 0.00000 0.00000
  179 0.00000 0.00000 0.00000
  180 0.00000 0.00000 0.00000
  181 0.00000 0.00000 0.00000
  182 0.00000 0.00000 0.00000
  183 0.00000 0.00000 0.00000
  184 0.00000 0.00000 0.00000
  185 0.00000 0.00000 0.00000
  186 0.00000 0.00000 0.00000
  187 0.00000 0.00000 0.00000
  188 0.00000 0.00000 0.00000
  189 0.00000 0.00000 0.00000
  190 0.00000 0.00000 0.00000
  191 0.00000 0.00000 0.00000
  192 0.00000 0.00000 0.00000
  193 0.00000 0.00000 0.00000
  194 0.00000 0.00000 0.00000
  195 0.00000 0.00000 0.00000
  196 0.00000 0.00000 0.00000
  197 0.00000 0.00000 0.00000
  198 0.00000 0.00000 0.00000
  199 0.00000 0.00000 0.00000
  200 0.00000 0.00000 0.00000
  201 0.00000 0.00000 0.00000
  202 0.00000 0.00000 0.00000
  203 0.00000 0.00000 0.00000
  204 0.00000 0.00000 0.00000
  205 0.00000 0.00000 0.00000
  206 0.00000 0.00000 0.00000
  207 0.00000 0.00000 0.00000
  208 0.00000 0.00000 0.00000
  209 0.00000 0.00000 0.00000
  210 0.00000 0.00000 0.00000
  211 0.00000 0.00000 0.00000
  212 0.00000 0.00000 0.00000
  213 0.00000 0.00000 0.00000
  214 0.00000 0.00000 0.00000
  215 0.00000 0.00000 0.00000
  216 0.00000 0.00000 0.00000
  217 0.00000 0.00000 0.00000
  218 0.00000 0.00000 0.00000
  219 0.00000 0.00000 0.00000
  220 0.00000 0.00000 0.00000
  221 0.00000 0.00000 0.00000
  222 0.00000 0.00000 0.00000
  223 0.00000 0.00000 0.00000
  224 0.00000 0.00000 0.00000
  225 0.00000 0.00000 0.00000
  226 0.00000 0.00000 0.00000
  227 0.00000 0.00000 0.00000
  228 0.00000 0.00000 0.00000
  229 0.00000 0.00000 0.00000
  230 0.00000 0.00000 0.00000
  231 0.00000 0.00000 0.00000
  232 0.00000 0.00000 0.00000
  233 0.00000 0.00000 0.00000
  234 0.00000 0.00000 0.00000
  235 0.00000 0.00000 0.00000
  236 0.00000 0.00000 0.00000
  237 0.00000 0.00000 0.00000
  238 0.00000 0.00000 0.00000
  239 0.00000 0.00000 0.00000
  240 0.00000 0.00000 0.00000
  241 0.00000 0.00000 0.00000
</Section>

newXOutput 196

<Section columns = "stress_xx | stress_yy | stress_xy">
  1 0.00000 0.00000 0.00000
  2 0.00000 0.00000 0.00000
  3 0.00000 0.00000 0.00000
  4 0.00000 0.00000 0.00000
  5 0.00000 0.00000 0.00000
  6 0.00000 0.00000 0.00000
  7 0.00000 0.00000 0.00000
  8 0.00000 0.00000 0.00000
  9 0.00000 0.00000 0.00000
  10 0.00000 0.00000 0.00000
  11 0.00000 0.00000 0.00000
  12 0.00000 0.00000 0.00000
  13 0.00000 0.00000 0.00000
  14 0.00000 0.00000 0.00000
  15 0.00000 0.00000 0.00000
  16 0.00000 0.00000 0.00000
  17 0.00000 0.00000 0.00000
  18 0.00000 0.00000 0.00000
  19 0.00000 0.00000 0.00000
  20 0.00000 0.00000 0.00000
  21 0.00000 0.00000 0.00000
  22 0.00000 0.00000 0.00000
  23 0.00000 0.00000 0.00000
  24 0.00000 0.00000 0.00000
  25 0.00000 0.00000 0.00000
  26 0.00000 0.00000 0.00000
  27 0.00000 0.00000 0.00000
  28 0.00000 0.00000 0.00000
  29 0.00000 0.00000 0.00000
  30 0.00000 0.00000 0.00000
  31 0.00000 0.00000 0.00000
  32 0.00000 0.00000 0.00000
  33 0.00000 0.00000 0.00000
  34 0.00000 0.00000 0.00000
  35 0.00000 0.00000 0.00000
  36 0.00000 0.00000 0.00000
  37 0.00000 0.00000 0.00000
  38 0.00000 0.00000 0.00000
  39 0.00000 0.00000 0.00000
  40 0.00000 0.00000 0.00000
  41 0.00000 0.00000 0.00000
  42 0.00000 0.00000 0.00000
  43 0.00000 0.00000 0.00000
  44 0.00000 0.00000 0.00000
  45 0.00000 0.00000 0.00000
  46 0.00000 0.00000 0.00000
  47 0.00000 0.00000 0.00000
  48 0.00000 0.00000 0.00000
  49 0.00000 0.00000 0.00000
  50 0.00000 0.00000 0.00000
  51 0.00000 0.00000 0.00000
  52 0.00000 0.00000 0.00000
  53 0.00000 0.00000 0.00000
  54 0.00000 0.00000 0.00000
  55 0.00000 0.00000 0.00000
  56 0.00000 0.00000 0.00000
  57 0.00000 0.00000 0.00000
  58 0.00000 0.00000 0.00000
  59 0.00000 0.00000 0.00000
  60 0.00000 0.00000 0.00000
  61 0.00000 0.00000 0.00000
  62 0.00000 0.00000 0.00000
  63 0.00000 0.00000 0.00000
  64 0.00000 0.00000 0.00000
  65 0.00000 0.00000 0.00000
  66 0.00000 0.00000 0.00000
  67 0.00000 0.00000 0.00000
  68 0.00000 0.00000 0.00000
  69 0.00000 0.00000 0.00000
  70 0.00000 0.00000 0.00000
  71 0.00000 0.00000 0.00000
  72 0.00000 0.00000 0.00000
  73 0.00000 0.00000 0.00000
  74 0.00000 0.00000 0.00000
  75 0.00000 0.00000 0.00000
  76 0.00000 0.00000 0.00000
  77 0.00000 0.00000 0.00000
  78 0.00000 0.00000 0.00000
  79 0.00000 0.00000 0.00000
  80 0.00000 0.00000 0.00000
  81 0.00000 0.00000 0.00000
  82 0.00000 0.00000 0.00000
  83 0.00000 0.00000 0.00000
  84 0.00000 0.00000 0.00000
  85 0.00000 0.00000 0.00000
  86 0.00000 0.00000 0.00000
  87 0.00000 0.00000 0.00000
  88 0.00000 0.00000 0.00000
  89 0.00000 0.00000 0.00000
  90 0.00000 0.00000 0.00000
  91 0.00000 0.00000 0.00000
  92 0.00000 0.00000 0.00000
  93 0.00000 0.00000 0.00000
  94 0.00000 0.00000 0.00000
  95 0.00000 0.00000 0.00000
  96 0.00000 0.00000 0.00000
  97 0.00000 0.00000 0.00000
  98 0.00000 0.00000 0.00000
  99 0.00000 0.00000 0.00000
  100 0.00000 0.00000 0.00000
  101 0.00000 0.00000 0.00000
  102 0.00000 0.00000 0.00000
  103 0.00000 0.00000 0.00000
  104 0.00000 0.00000 0.00000
  105 0.00000 0.00000 0.00000
  106 0.00000 0.00000 0.00000
  107 0.00000 0.00000 0.00000
  108 0.00000 0.00000 0.00000
  109 0.00000 0.00000 0.00000
  110 0.00000 0.00000 0.00000
  111 0.00000 0.00000 0.00000
  112 0.00000 0.00000 0.00000
  113 0.00000 0.00000 0.00000
  114 0.00000 0.00000 0.00000
  115 0.00000 0.00000 0.00000
  116 0.00000 0.00000 0.00000
  117 0.00000 0.00000 0.00000
  118 0.00000 0.00000 0.00000
  119 0.00000 0.00000 0.00000
  120 0.00000 0.00000 0.00000
  121 0.00000 0.00000 0.00000
  122 0.00000 0.00000 0.00000
  123 0.00000 0.00000 0.00000
  124 0.00000 0.00000 0.00000
  125 0.00000 0.00000 0.00000
  126 0.00000 0.00000 0.00000
  127 0.00000 0.00000 0.00000
  128 0.00000 0.00000 0.00000
  129 0.00000 0.00000 0.00000
  130 0.00000 0.00000 0.00000
  131 0.00000 0.00000 0.00000
  132 0.00000 0.00000 0.00000
  133 0.00000 0.00000 0.00000
  134 0.00000 0.00000 0.00000
  135 0.00000 0.00000 0.00000
  136 0.00000 0.00000 0.00000
  137 0.00000 0.00000 0.00000
  138 0.00000 0.00000 0.00000
  139 0.00000 0.00000 0.00000
  140 0.00000 0.00000 0.00000
  141 0.00000 0.00000 0.00000
  142 0.00000 0.00000 0.00000
  143 0.00000 0.00000 0.00000
  144 0.00000 0.00000 0.00000
  145 0.00000 0.00000 0.00000
  146 0.00000 0.00000 0.00000
  147 0.00000 0.00000 0.00000
  148 0.00000 0.00000 0.00000
  149 0.00000 0.00000 0.00000
  150 0.00000 0.00000 0.00000
  151 0.00000 0.00000 0.00000
  152 0.00000 0.00000 0.00000
  153 0.00000 0.00000 0.00000
  154 0.00000 0.00000 0.00000
  155 0.00000 0.00000 0.00000
  156 0.00000 0.00000 0.00000
  157 0.00000 0.00000 0.00000
  158 0.00000 0.00000 0.00000
  159 0.00000 0.00000 0.00000
  160 0.00000 0.00000 0.00000
  161 0.00000 0.00000 0.00000
  162 0.00000 0.00000 0.00000
  163 0.00000 0.00000 0.00000
  164 0.00000 0.00000 0.00000
  165 0.00000 0.00000 0.00000
  166 0.00000 0.00000 0.00000
  167 0.00000 0.00000 0.00000
  168 0.00000 0.00000 0.00000
  169 0.00000 0.00000 0.00000
  170 0.00000 0.00000 0.00000
  171 0.00000 0.00000 0.00000
  172 0.00000 0.00000 0.00000
  173 0.00000 0.00000 0.00000
  174 0.00000 0.00000 0.00000
  175 0.00000 0.00000 0.00000
  176 0.00000 0.00000 0.00000
  177 0.00000 0.00000 0.00000
  178 0.00000 0.00000 0.00000
  179 0.00000 0.00000 0.00000
  180 0.00000 0.00000 0.00000
  181 0.00000 0.00000 0.00000
  182 0.00000 0.00000 0.00000
  183 0.00000 0.00000 0.00000
  184 0.00000 0.00000 0.00000
  185 0.00000 0.00000 0.00000
  186 0.00000 0.00000 0.00000
  187 0.00000 0.00000 0.00000
  188 0.00000 0.00000 0.00000
  189 0.00000 0.00000 0.00000
  190 0.00000 0.00000 0.00000
  191 0.00000 0.00000 0.00000
  192 0.00000 0.00000 0.00000
  193 0.00000 0.00000 0.00000
  194 0.00000 0.00000 0.00000
  195 0.00000 0.00000 0.00000
  196 0.00000 0.00000 0.00000
  197 0.00000 0.00000 0.00000
  198 0.00000 0.00000 0.00000
  199 0.00000 0.00000 0.00000
  200 0.00000 0.00000 0.00000
  201 0.00000 0.00000 0.00000
  202 0.00000 0.00000 0.00000
  203 0.00000 0.00000 0.00000
  204 0.00000 0.00000 0.00000
  205 0.00000 0.00000 0.00000
  206 0.00000 0.00000 0.00000
  207 0.00000 0.00000 0.00000
  208 0.00000 0.00000 0.00000
  209 0.00000 0.00000 0.00000
  210 0.00000 0.00000 0.00000
  211 0.00000 0.00000 0.00000
  212 0.00000 0.00000 0.00000
  213 0.00000 0.00000 0.00000
  214 0.00000 0.00000 0.00000
  215 0.00000 0.00000 0.00000
  216 0.00000 0.00000 0.00000
  217 0.00000 0.00000 0.00000
  218 0.00000 0.00000 0.00000
  219 0.00000 0.00000 0.00000
  220 0.00000 0.00000 0.00000
  221 0.00000 0.00000 0.00000
  222 0.00000 0.00000 0.00000
  223 0.00000 0.00000 0.00000
  224 0.00000 0.00000 0.00000
  225 0.00000 0.00000 0.00000
  226 0.00000 0.00000 0.00000
  227 0.00000 0.00000 0.00000
  228 0.00000 0.00000 0.00000
  229 0.00000 0.00000 0.00000
  230 0.00000 0.00000 0.00000
  231 0.00000 0.00000 0.00000
  232 0.00000 0.00000 0.00000
  233 0.00000 0.00000 0.00000
  234 0.00000 0.00000 0.00000
  235 0.00000 0.00000 0.00000
  236 0.00000 0.00000 0.00000
  237 0.00000 0.00000 0.00000
  238 0.00000 0.00000 0.00000
  239 0.00000 0.00000 0.00000
  240 0.00000 0.00000 0.00000
  241 0.00000 0.00000 0.00000
</Section>

newXOutput 197

<Section columns = "stress_xx | stress_yy | stress_xy">
  1 0.00000 0.00000 0.00000
  2 0.00000 0.00000 0.00000
  3 0.00000 0.00000 0.00000
  4 0.00000 0.00000 0.00000
  5 0.00000 0.00000 0.00000
  6 0.00000 0.00000 0.00000
  7 0.00000 0.00000 0.00000
  8 0.00000 0.00000 0.00000
  9 0.00000 0.00000 0.00000
  10 0.00000 0.00000 0.00000
  11 0.00000 0.00000 0.00000
  12 0.00000 0.00000 0.00000
  13 0.00000 0.00000 0.00000
  14 0.00000 0.00000 0.00000
  15 0.00000 0.00000 0.00000
  16 0.00000 0.00000 0.00000
  17 0.00000 0.00000 0.00000
  18 0.00000 0.00000 0.00000
  19 0.00000 0.00000 0.00000
  20 0.00000 0.00000 0.00000
  21 0.00000 0.00000 0.00000
  22 0.00000 0.00000 0.00000
  23 0.00000 0.00000 0.00000
  24 0.00000 0.00000 0.00000
  25 0.00000 0.00000 0.00000
  26 0.00000 0.00000 0.00000
  27 0.00000 0.00000 0.00000
  28 0.00000 0.00000 0.00000
  29 0.00000 0.00000 0.00000
  30 0.00000 0.00000 0.00000
  31 0.00000 0.00000 0.00000
  32 0.00000 0.00000 0.00000
  33 0.00000 0.00000 0.00000
  34 0.00000 0.00000 0.00000
  35 0.00000 0.00000 0.00000
  36 0.00000 0.00000 0.00000
  37 0.00000 0.00000 0.00000
  38 0.00000 0.00000 0.00000
  39 0.00000 0.00000 0.00000
  40 0.00000 0.00000 0.00000
  41 0.00000 0.00000 0.00000
  42 0.00000 0.00000 0.00000
  43 0.00000 0.00000 0.00000
  44 0.00000 0.00000 0.00000
  45 0.00000 0.00000 0.00000
  46 0.00000 0.00000 0.00000
  47 0.00000 0.00000 0.00000
  48 0.00000 0.00000 0.00000
  49 0.00000 0.00000 0.00000
  50 0.00000 0.00000 0.00000
  51 0.00000 0.00000 0.00000
  52 0.00000 0.00000 0.00000
  53 0.00000 0.00000 0.00000
  54 0.00000 0.00000 0.00000
  55 0.00000 0.00000 0.00000
  56 0.00000 0.00000 0.00000
  57 0.00000 0.00000 0.00000
  58 0.00000 0.00000 0.00000
  59 0.00000 0.00000 0.00000
  60 0.00000 0.00000 0.00000
  61 0.00000 0.00000 0.00000
  62 0.00000 0.00000 0.00000
  63 0.00000 0.00000 0.00000
  64 0.00000 0.00000 0.00000
  65 0.00000 0.00000 0.00000
  66 0.00000 0.00000 0.00000
  67 0.00000 0.00000 0.00000
  68 0.00000 0.00000 0.00000
  69 0.00000 0.00000 0.00000
  70 0.00000 0.00000 0.00000
  71 0.00000 0.00000 0.00000
  72 0.00000 0.00000 0.00000
  73 0.00000 0.00000 0.00000
  74 0.00000 0.00000 0.00000
  75 0.00000 0.00000 0.00000
  76 0.00000 0.00000 0.00000
  77 0.00000 0.00000 0.00000
  78 0.00000 0.00000 0.00000
  79 0.00000 0.00000 0.00000
  80 0.00000 0.00000 0.00000
  81 0.00000 0.00000 0.00000
  82 0.00000 0.00000 0.00000
  83 0.00000 0.00000 0.00000
  84 0.00000 0.00000 0.00000
  85 0.00000 0.00000 0.00000
  86 0.00000 0.00000 0.00000
  87 0.00000 0.00000 0.00000
  88 0.00000 0.00000 0.00000
  89 0.00000 0.00000 0.00000
  90 0.00000 0.00000 0.00000
  91 0.00000 0.00000 0.00000
  92 0.00000 0.00000 0.00000
  93 0.00000 0.00000 0.00000
  94 0.00000 0.00000 0.00000
  95 0.00000 0.00000 0.00000
  96 0.00000 0.00000 0.00000
  97 0.00000 0.00000 0.00000
  98 0.00000 0.00000 0.00000
  99 0.00000 0.00000 0.00000
  100 0.00000 0.00000 0.00000
  101 0.00000 0.00000 0.00000
  102 0.00000 0.00000 0.00000
  103 0.00000 0.00000 0.00000
  104 0.00000 0.00000 0.00000
  105 0.00000 0.00000 0.00000
  106 0.00000 0.00000 0.00000
  107 0.00000 0.00000 0.00000
  108 0.00000 0.00000 0.00000
  109 0.00000 0.00000 0.00000
  110 0.00000 0.00000 0.00000
  111 0.00000 0.00000 0.00000
  112 0.00000 0.00000 0.00000
  113 0.00000 0.00000 0.00000
  114 0.00000 0.00000 0.00000
  115 0.00000 0.00000 0.00000
  116 0.00000 0.00000 0.00000
  117 0.00000 0.00000 0.00000
  118 0.00000 0.00000 0.00000
  119 0.00000 0.00000 0.00000
  120 0.00000 0.00000 0.00000
  121 0.00000 0.00000 0.00000
  122 0.00000 0.00000 0.00000
  123 0.00000 0.00000 0.00000
  124 0.00000 0.00000 0.00000
  125 0.00000 0.00000 0.00000
  126 0.00000 0.00000 0.00000
  127 0.00000 0.00000 0.00000
  128 0.00000 0.00000 0.00000
  129 0.00000 0.00000 0.00000
  130 0.00000 0.00000 0.00000
  131 0.00000 0.00000 0.00000
  132 0.00000 0.00000 0.00000
  133 0.00000 0.00000 0.00000
  134 0.00000 0.00000 0.00000
  135 0.00000 0.00000 0.00000
  136 0.00000 0.00000 0.00000
  137 0.00000 0.00000 0.00000
  138 0.00000 0.00000 0.00000
  139 0.00000 0.00000 0.00000
  140 0.00000 0.00000 0.00000
  141 0.00000 0.00000 0.00000
  142 0.00000 0.00000 0.00000
  143 0.00000 0.00000 0.00000
  144 0.00000 0.00000 0.00000
  145 0.00000 0.00000 0.00000
  146 0.00000 0.00000 0.00000
  147 0.00000 0.00000 0.00000
  148 0.00000 0.00000 0.00000
  149 0.00000 0.00000 0.00000
  150 0.00000 0.00000 0.00000
  151 0.00000 0.00000 0.00000
  152 0.00000 0.00000 0.00000
  153 0.00000 0.00000 0.00000
  154 0.00000 0.00000 0.00000
  155 0.00000 0.00000 0.00000
  156 0.00000 0.00000 0.00000
  157 0.00000 0.00000 0.00000
  158 0.00000 0.00000 0.00000
  159 0.00000 0.00000 0.00000
  160 0.00000 0.00000 0.00000
  161 0.00000 0.00000 0.00000
  162 0.00000 0.00000 0.00000
  163 0.00000 0.00000 0.00000
  164 0.00000 0.00000 0.00000
  165 0.00000 0.00000 0.00000
  166 0.00000 0.00000 0.00000
  167 0.00000 0.00000 0.00000
  168 0.00000 0.00000 0.00000
  169 0.00000 0.00000 0.00000
  170 0.00000 0.00000 0.00000
  171 0.00000 0.00000 0.00000
  172 0.00000 0.00000 0.00000
  173 0.00000 0.00000 0.00000
  174 0.00000 0.00000 0.00000
  175 0.00000 0.00000 0.00000
  176 0.00000 0.00000 0.00000
  177 0.00000 0.00000 0.00000
  178 0.00000 0.00000 0.00000
  179 0.00000 0.00000 0.00000
  180 0.00000 0.00000 0.00000
  181 0.00000 0.00000 0.00000
  182 0.00000 0.00000 0.00000
  183 0.00000 0.00000 0.00000
  184 0.00000 0.00000 0.00000
  185 0.00000 0.00000 0.00000
  186 0.00000 0.00000 0.00000
  187 0.00000 0.00000 0.00000
  188 0.00000 0.00000 0.00000
  189 0.00000 0.00000 0.00000
  190 0.00000 0.00000 0.00000
  191 0.00000 0.00000 0.00000
  192 0.00000 0.00000 0.00000
  193 0.00000 0.00000 0.00000
  194 0.00000 0.00000 0.00000
  195 0.00000 0.00000 0.00000
  196 0.00000 0.00000 0.00000
  197 0.00000 0.00000 0.00000
  198 0.00000 0.00000 0.00000
  199 0.00000 0.00000 0.00000
  200 0.00000 0.00000 0.00000
  201 0.00000 0.00000 0.00000
  202 0.00000 0.00000 0.00000
  203 0.00000 0.00000 0.00000
  204 0.00000 0.00000 0.00000
  205 0.00000 0.00000 0.00000
  206 0.00000 0.00000 0.00000
  207 0.00000 0.00000 0.00000
  208 0.00000 0.00000 0.00000
  209 0.00000 0.00000 0.00000
  210 0.00000 0.00000 0.00000
  211 0.00000 0.00000 0.00000
  212 0.00000 0.00000 0.00000
  213 0.00000 0.00000 0.00000
  214 0.00000 0.00000 0.00000
  215 0.00000 0.00000 0.00000
  216 0.00000 0.00000 0.00000
  217 0.00000 0.00000 0.00000
  218 0.00000 0.00000 0.00000
  219 0.00000 0.00000 0.00000
  220 0.00000 0.00000 0.00000
  221 0.00000 0.00000 0.00000
  222 0.00000 0.00000 0.00000
  223 0.00000 0.00000 0.00000
  224 0.00000 0.00000 0.00000
  225 0.00000 0.00000 0.00000
  226 0.00000 0.00000 0.00000
  227 0.00000 0.00000 0.00000
  228 0.00000 0.00000 0.00000
  229 0.00000 0.00000 0.00000
  230 0.00000 0.00000 0.00000
  231 0.00000 0.00000 0.00000
  232 0.00000 0.00000 0.00000
  233 0.00000 0.00000 0.00000
  234 0.00000 0.00000 0.00000
  235 0.00000 0.00000 0.00000
  236 0.00000 0.00000 0.00000
  237 0.00000 0.00000 0.00000
  238 0.00000 0.00000 0.00000
  239 0.00000 0.00000 0.00000
  240 0.00000 0.00000 0.00000
  241 0.00000 0.00000 0.00000
</Section>

newXOutput 198

<Section columns = "stress_xx | stress_yy | stress_xy">
  1 0.00000 0.00000 0.00000
  2 0.00000 0.00000 0.00000
  3 0.00000 0.00000 0.00000
  4 0.00000 0.00000 0.00000
  5 0.00000 0.00000 0.00000
  6 0.00000 0.00000 0.00000
  7 0.00000 0.00000 0.00000
  8 0.00000 0.00000 0.00000
  9 0.00000 0.00000 0.00000
  10 0.00000 0.00000 0.00000
  11 0.00000 0.00000 0.00000
  12 0.00000 0.00000 0.00000
  13 0.00000 0.00000 0.00000
  14 0.00000 0.00000 0.00000
  15 0.00000 0.00000 0.00000
  16 0.00000 0.00000 0.00000
  17 0.00000 0.00000 0.00000
  18 0.00000 0.00000 0.00000
  19 0.00000 0.00000 0.00000
  20 0.00000 0.00000 0.00000
  21 0.00000 0.00000 0.00000
  22 0.00000 0.00000 0.00000
  23 0.00000 0.00000 0.00000
  24 0.00000 0.00000 0.00000
  25 0.00000 0.00000 0.00000
  26 0.00000 0.00000 0.00000
  27 0.00000 0.00000 0.00000
  28 0.00000 0.00000 0.00000
  29 0.00000 0.00000 0.00000
  30 0.00000 0.00000 0.00000
  31 0.00000 0.00000 0.00000
  32 0.00000 0.00000 0.00000
  33 0.00000 0.00000 0.00000
  34 0.00000 0.00000 0.00000
  35 0.00000 0.00000 0.00000
  36 0.00000 0.00000 0.00000
  37 0.00000 0.00000 0.00000
  38 0.00000 0.00000 0.00000
  39 0.00000 0.00000 0.00000
  40 0.00000 0.00000 0.00000
  41 0.00000 0.00000 0.00000
  42 0.00000 0.00000 0.00000
  43 0.00000 0.00000 0.00000
  44 0.00000 0.00000 0.00000
  45 0.00000 0.00000 0.00000
  46 0.00000 0.00000 0.00000
  47 0.00000 0.00000 0.00000
  48 0.00000 0.00000 0.00000
  49 0.00000 0.00000 0.00000
  50 0.00000 0.00000 0.00000
  51 0.00000 0.00000 0.00000
  52 0.00000 0.00000 0.00000
  53 0.00000 0.00000 0.00000
  54 0.00000 0.00000 0.00000
  55 0.00000 0.00000 0.00000
  56 0.00000 0.00000 0.00000
  57 0.00000 0.00000 0.00000
  58 0.00000 0.00000 0.00000
  59 0.00000 0.00000 0.00000
  60 0.00000 0.00000 0.00000
  61 0.00000 0.00000 0.00000
  62 0.00000 0.00000 0.00000
  63 0.00000 0.00000 0.00000
  64 0.00000 0.00000 0.00000
  65 0.00000 0.00000 0.00000
  66 0.00000 0.00000 0.00000
  67 0.00000 0.00000 0.00000
  68 0.00000 0.00000 0.00000
  69 0.00000 0.00000 0.00000
  70 0.00000 0.00000 0.00000
  71 0.00000 0.00000 0.00000
  72 0.00000 0.00000 0.00000
  73 0.00000 0.00000 0.00000
  74 0.00000 0.00000 0.00000
  75 0.00000 0.00000 0.00000
  76 0.00000 0.00000 0.00000
  77 0.00000 0.00000 0.00000
  78 0.00000 0.00000 0.00000
  79 0.00000 0.00000 0.00000
  80 0.00000 0.00000 0.00000
  81 0.00000 0.00000 0.00000
  82 0.00000 0.00000 0.00000
  83 0.00000 0.00000 0.00000
  84 0.00000 0.00000 0.00000
  85 0.00000 0.00000 0.00000
  86 0.00000 0.00000 0.00000
  87 0.00000 0.00000 0.00000
  88 0.00000 0.00000 0.00000
  89 0.00000 0.00000 0.00000
  90 0.00000 0.00000 0.00000
  91 0.00000 0.00000 0.00000
  92 0.00000 0.00000 0.00000
  93 0.00000 0.00000 0.00000
  94 0.00000 0.00000 0.00000
  95 0.00000 0.00000 0.00000
  96 0.00000 0.00000 0.00000
  97 0.00000 0.00000 0.00000
  98 0.00000 0.00000 0.00000
  99 0.00000 0.00000 0.00000
  100 0.00000 0.00000 0.00000
  101 0.00000 0.00000 0.00000
  102 0.00000 0.00000 0.00000
  103 0.00000 0.00000 0.00000
  104 0.00000 0.00000 0.00000
  105 0.00000 0.00000 0.00000
  106 0.00000 0.00000 0.00000
  107 0.00000 0.00000 0.00000
  108 0.00000 0.00000 0.00000
  109 0.00000 0.00000 0.00000
  110 0.00000 0.00000 0.00000
  111 0.00000 0.00000 0.00000
  112 0.00000 0.00000 0.00000
  113 0.00000 0.00000 0.00000
  114 0.00000 0.00000 0.00000
  115 0.00000 0.00000 0.00000
  116 0.00000 0.00000 0.00000
  117 0.00000 0.00000 0.00000
  118 0.00000 0.00000 0.00000
  119 0.00000 0.00000 0.00000
  120 0.00000 0.00000 0.00000
  121 0.00000 0.00000 0.00000
  122 0.00000 0.00000 0.00000
  123 0.00000 0.00000 0.00000
  124 0.00000 0.00000 0.00000
  125 0.00000 0.00000 0.00000
  126 0.00000 0.00000 0.00000
  127 0.00000 0.00000 0.00000
  128 0.00000 0.00000 0.00000
  129 0.00000 0.00000 0.00000
  130 0.00000 0.00000 0.00000
  131 0.00000 0.00000 0.00000
  132 0.00000 0.00000 0.00000
  133 0.00000 0.00000 0.00000
  134 0.00000 0.00000 0.00000
  135 0.00000 0.00000 0.00000
  136 0.00000 0.00000 0.00000
  137 0.00000 0.00000 0.00000
  138 0.00000 0.00000 0.00000
  139 0.00000 0.00000 0.00000
  140 0.00000 0.00000 0.00000
  141 0.00000 0.00000 0.00000
  142 0.00000 0.00000 0.00000
  143 0.00000 0.00000 0.00000
  144 0.00000 0.00000 0.00000
  145 0.00000 0.00000 0.00000
  146 0.00000 0.00000 0.00000
  147 0.00000 0.00000 0.00000
  148 0.00000 0.00000 0.00000
  149 0.00000 0.00000 0.00000
  150 0.00000 0.00000 0.00000
  151 0.00000 0.00000 0.00000
  152 0.00000 0.00000 0.00000
  153 0.00000 0.00000 0.00000
  154 0.00000 0.00000 0.00000
  155 0.00000 0.00000 0.00000
  156 0.00000 0.00000 0.00000
  157 0.00000 0.00000 0.00000
  158 0.00000 0.00000 0.00000
  159 0.00000 0.00000 0.00000
  160 0.00000 0.00000 0.00000
  161 0.00000 0.00000 0.00000
  162 0.00000 0.00000 0.00000
  163 0.00000 0.00000 0.00000
  164 0.00000 0.00000 0.00000
  165 0.00000 0.00000 0.00000
  166 0.00000 0.00000 0.00000
  167 0.00000 0.00000 0.00000
  168 0.00000 0.00000 0.00000
  169 0.00000 0.00000 0.00000
  170 0.00000 0.00000 0.00000
  171 0.00000 0.00000 0.00000
  172 0.00000 0.00000 0.00000
  173 0.00000 0.00000 0.00000
  174 0.00000 0.00000 0.00000
  175 0.00000 0.00000 0.00000
  176 0.00000 0.00000 0.00000
  177 0.00000 0.00000 0.00000
  178 0.00000 0.00000 0.00000
  179 0.00000 0.00000 0.00000
  180 0.00000 0.00000 0.00000
  181 0.00000 0.00000 0.00000
  182 0.00000 0.00000 0.00000
  183 0.00000 0.00000 0.00000
  184 0.00000 0.00000 0.00000
  185 0.00000 0.00000 0.00000
  186 0.00000 0.00000 0.00000
  187 0.00000 0.00000 0.00000
  188 0.00000 0.00000 0.00000
  189 0.00000 0.00000 0.00000
  190 0.00000 0.00000 0.00000
  191 0.00000 0.00000 0.00000
  192 0.00000 0.00000 0.00000
  193 0.00000 0.00000 0.00000
  194 0.00000 0.00000 0.00000
  195 0.00000 0.00000 0.00000
  196 0.00000 0.00000 0.00000
  197 0.00000 0.00000 0.00000
  198 0.00000 0.00000 0.00000
  199 0.00000 0.00000 0.00000
  200 0.00000 0.00000 0.00000
  201 0.00000 0.00000 0.00000
  202 0.00000 0.00000 0.00000
  203 0.00000 0.00000 0.00000
  204 0.00000 0.00000 0.00000
  205 0.00000 0.00000 0.00000
  206 0.00000 0.00000 0.00000
  207 0.00000 0.00000 0.00000
  208 0.00000 0.00000 0.00000
  209 0.00000 0.00000 0.00000
  210 0.00000 0.00000 0.00000
  211 0.00000 0.00000 0.00000
  212 0.00000 0.00000 0.00000
  213 0.00000 0.00000 0.00000
  214 0.00000 0.00000 0.00000
  215 0.00000 0.00000 0.00000
  216 0.00000 0.00000 0.00000
  217 0.00000 0.00000 0.00000
  218 0.00000 0.00000 0.00000
  219 0.00000 0.00000 0.00000
  220 0.00000 0.00000 0.00000
  221 0.00000 0.00000 0.00000
  222 0.00000 0.00000 0.00000
  223 0.00000 0.00000 0.00000
  224 0.00000 0.00000 0.00000
  225 0.00000 0.00000 0.00000
  226 0.00000 0.00000 0.00000
  227 0.00000 0.00000 0.00000
  228 0.00000 0.00000 0.00000
  229 0.00000 0.00000 0.00000
  230 0.00000 0.00000 0.00000
  231 0.00000 0.00000 0.00000
  232 0.00000 0.00000 0.00000
  233 0.00000 0.00000 0.00000
  234 0.00000 0.00000 0.00000
  235 0.00000 0.00000 0.00000
  236 0.00000 0.00000 0.00000
  237 0.00000 0.00000 0.00000
  238 0.00000 0.00000 0.00000
  239 0.00000 0.00000 0.00000
  240 0.00000 0.00000 0.00000
  241 0.00000 0.00000 0.00000
</Section>

newXOutput 199

<Section columns = "stress_xx | stress_yy | stress_xy">
  1 0.00000 0.00000 0.00000
  2 0.00000 0.00000 0.00000
  3 0.00000 0.00000 0.00000
  4 0.00000 0.00000 0.00000
  5 0.00000 0.00000 0.00000
  6 0.00000 0.00000 0.00000
  7 0.00000 0.00000 0.00000
  8 0.00000 0.00000 0.00000
  9 0.00000 0.00000 0.00000
  10 0.00000 0.00000 0.00000
  11 0.00000 0.00000 0.00000
  12 0.00000 0.00000 0.00000
  13 0.00000 0.00000 0.00000
  14 0.00000 0.00000 0.00000
  15 0.00000 0.00000 0.00000
  16 0.00000 0.00000 0.00000
  17 0.00000 0.00000 0.00000
  18 0.00000 0.00000 0.00000
  19 0.00000 0.00000 0.00000
  20 0.00000 0.00000 0.00000
  21 0.00000 0.00000 0.00000
  22 0.00000 0.00000 0.00000
  23 0.00000 0.00000 0.00000
  24 0.00000 0.00000 0.00000
  25 0.00000 0.00000 0.00000
  26 0.00000 0.00000 0.00000
  27 0.00000 0.00000 0.00000
  28 0.00000 0.00000 0.00000
  29 0.00000 0.00000 0.00000
  30 0.00000 0.00000 0.00000
  31 0.00000 0.00000 0.00000
  32 0.00000 0.00000 0.00000
  33 0.00000 0.00000 0.00000
  34 0.00000 0.00000 0.00000
  35 0.00000 0.00000 0.00000
  36 0.00000 0.00000 0.00000
  37 0.00000 0.00000 0.00000
  38 0.00000 0.00000 0.00000
  39 0.00000 0.00000 0.00000
  40 0.00000 0.00000 0.00000
  41 0.00000 0.00000 0.00000
  42 0.00000 0.00000 0.00000
  43 0.00000 0.00000 0.00000
  44 0.00000 0.00000 0.00000
  45 0.00000 0.00000 0.00000
  46 0.00000 0.00000 0.00000
  47 0.00000 0.00000 0.00000
  48 0.00000 0.00000 0.00000
  49 0.00000 0.00000 0.00000
  50 0.00000 0.00000 0.00000
  51 0.00000 0.00000 0.00000
  52 0.00000 0.00000 0.00000
  53 0.00000 0.00000 0.00000
  54 0.00000 0.00000 0.00000
  55 0.00000 0.00000 0.00000
  56 0.00000 0.00000 0.00000
  57 0.00000 0.00000 0.00000
  58 0.00000 0.00000 0.00000
  59 0.00000 0.00000 0.00000
  60 0.00000 0.00000 0.00000
  61 0.00000 0.00000 0.00000
  62 0.00000 0.00000 0.00000
  63 0.00000 0.00000 0.00000
  64 0.00000 0.00000 0.00000
  65 0.00000 0.00000 0.00000
  66 0.00000 0.00000 0.00000
  67 0.00000 0.00000 0.00000
  68 0.00000 0.00000 0.00000
  69 0.00000 0.00000 0.00000
  70 0.00000 0.00000 0.00000
  71 0.00000 0.00000 0.00000
  72 0.00000 0.00000 0.00000
  73 0.00000 0.00000 0.00000
  74 0.00000 0.00000 0.00000
  75 0.00000 0.00000 0.00000
  76 0.00000 0.00000 0.00000
  77 0.00000 0.00000 0.00000
  78 0.00000 0.00000 0.00000
  79 0.00000 0.00000 0.00000
  80 0.00000 0.00000 0.00000
  81 0.00000 0.00000 0.00000
  82 0.00000 0.00000 0.00000
  83 0.00000 0.00000 0.00000
  84 0.00000 0.00000 0.00000
  85 0.00000 0.00000 0.00000
  86 0.00000 0.00000 0.00000
  87 0.00000 0.00000 0.00000
  88 0.00000 0.00000 0.00000
  89 0.00000 0.00000 0.00000
  90 0.00000 0.00000 0.00000
  91 0.00000 0.00000 0.00000
  92 0.00000 0.00000 0.00000
  93 0.00000 0.00000 0.00000
  94 0.00000 0.00000 0.00000
  95 0.00000 0.00000 0.00000
  96 0.00000 0.00000 0.00000
  97 0.00000 0.00000 0.00000
  98 0.00000 0.00000 0.00000
  99 0.00000 0.00000 0.00000
  100 0.00000 0.00000 0.00000
  101 0.00000 0.00000 0.00000
  102 0.00000 0.00000 0.00000
  103 0.00000 0.00000 0.00000
  104 0.00000 0.00000 0.00000
  105 0.00000 0.00000 0.00000
  106 0.00000 0.00000 0.00000
  107 0.00000 0.00000 0.00000
  108 0.00000 0.00000 0.00000
  109 0.00000 0.00000 0.00000
  110 0.00000 0.00000 0.00000
  111 0.00000 0.00000 0.00000
  112 0.00000 0.00000 0.00000
  113 0.00000 0.00000 0.00000
  114 0.00000 0.00000 0.00000
  115 0.00000 0.00000 0.00000
  116 0.00000 0.00000 0.00000
  117 0.00000 0.00000 0.00000
  118 0.00000 0.00000 0.00000
  119 0.00000 0.00000 0.00000
  120 0.00000 0.00000 0.00000
  121 0.00000 0.00000 0.00000
  122 0.00000 0.00000 0.00000
  123 0.00000 0.00000 0.00000
  124 0.00000 0.00000 0.00000
  125 0.00000 0.00000 0.00000
  126 0.00000 0.00000 0.00000
  127 0.00000 0.00000 0.00000
  128 0.00000 0.00000 0.00000
  129 0.00000 0.00000 0.00000
  130 0.00000 0.00000 0.00000
  131 0.00000 0.00000 0.00000
  132 0.00000 0.00000 0.00000
  133 0.00000 0.00000 0.00000
  134 0.00000 0.00000 0.00000
  135 0.00000 0.00000 0.00000
  136 0.00000 0.00000 0.00000
  137 0.00000 0.00000 0.00000
  138 0.00000 0.00000 0.00000
  139 0.00000 0.00000 0.00000
  140 0.00000 0.00000 0.00000
  141 0.00000 0.00000 0.00000
  142 0.00000 0.00000 0.00000
  143 0.00000 0.00000 0.00000
  144 0.00000 0.00000 0.00000
  145 0.00000 0.00000 0.00000
  146 0.00000 0.00000 0.00000
  147 0.00000 0.00000 0.00000
  148 0.00000 0.00000 0.00000
  149 0.00000 0.00000 0.00000
  150 0.00000 0.00000 0.00000
  151 0.00000 0.00000 0.00000
  152 0.00000 0.00000 0.00000
  153 0.00000 0.00000 0.00000
  154 0.00000 0.00000 0.00000
  155 0.00000 0.00000 0.00000
  156 0.00000 0.00000 0.00000
  157 0.00000 0.00000 0.00000
  158 0.00000 0.00000 0.00000
  159 0.00000 0.00000 0.00000
  160 0.00000 0.00000 0.00000
  161 0.00000 0.00000 0.00000
  162 0.00000 0.00000 0.00000
  163 0.00000 0.00000 0.00000
  164 0.00000 0.00000 0.00000
  165 0.00000 0.00000 0.00000
  166 0.00000 0.00000 0.00000
  167 0.00000 0.00000 0.00000
  168 0.00000 0.00000 0.00000
  169 0.00000 0.00000 0.00000
  170 0.00000 0.00000 0.00000
  171 0.00000 0.00000 0.00000
  172 0.00000 0.00000 0.00000
  173 0.00000 0.00000 0.00000
  174 0.00000 0.00000 0.00000
  175 0.00000 0.00000 0.00000
  176 0.00000 0.00000 0.00000
  177 0.00000 0.00000 0.00000
  178 0.00000 0.00000 0.00000
  179 0.00000 0.00000 0.00000
  180 0.00000 0.00000 0.00000
  181 0.00000 0.00000 0.00000
  182 0.00000 0.00000 0.00000
  183 0.00000 0.00000 0.00000
  184 0.00000 0.00000 0.00000
  185 0.00000 0.00000 0.00000
  186 0.00000 0.00000 0.00000
  187 0.00000 0.00000 0.00000
  188 0.00000 0.00000 0.00000
  189 0.00000 0.00000 0.00000
  190 0.00000 0.00000 0.00000
  191 0.00000 0.00000 0.00000
  192 0.00000 0.00000 0.00000
  193 0.00000 0.00000 0.00000
  194 0.00000 0.00000 0.00000
  195 0.00000 0.00000 0.00000
  196 0.00000 0.00000 0.00000
  197 0.00000 0.00000 0.00000
  198 0.00000 0.00000 0.00000
  199 0.00000 0.00000 0.00000
  200 0.00000 0.00000 0.00000
  201 0.00000 0.00000 0.00000
  202 0.00000 0.00000 0.00000
  203 0.00000 0.00000 0.00000
  204 0.00000 0.00000 0.00000
  205 0.00000 0.00000 0.00000
  206 0.00000 0.00000 0.00000
  207 0.00000 0.00000 0.00000
  208 0.00000 0.00000 0.00000
  209 0.00000 0.00000 0.00000
  210 0.00000 0.00000 0.00000
  211 0.00000 0.00000 0.00000
  212 0.00000 0.00000 0.00000
  213 0.00000 0.00000 0.00000
  214 0.00000 0.00000 0.00000
  215 0.00000 0.00000 0.00000
  216 0.00000 0.00000 0.00000
  217 0.00000 0.00000 0.00000
  218 0.00000 0.00000 0.00000
  219 0.00000 0.00000 0.00000
  220 0.00000 0.00000 0.00000
  221 0.00000 0.00000 0.00000
  222 0.00000 0.00000 0.00000
  223 0.00000 0.00000 0.00000
  224 0.00000 0.00000 0.00000
  225 0.00000 0.00000 0.00000
  226 0.00000 0.00000 0.00000
  227 0.00000 0.00000 0.00000
  228 0.00000 0.00000 0.00000
  229 0.00000 0.00000 0.00000
  230 0.00000 0.00000 0.00000
  231 0.00000 0.00000 0.00000
  232 0.00000 0.00000 0.00000
  233 0.00000 0.00000 0.00000
  234 0.00000 0.00000 0.00000
  235 0.00000 0.00000 0.00000
  236 0.00000 0.00000 0.00000
  237 0.00000 0.00000 0.00000
  238 0.00000 0.00000 0.00000
  239 0.00000 0.00000 0.00000
  240 0.00000 0.00000 0.00000
  241 0.00000 0.00000 0.00000
</Section>

newXOutput 200

<Section columns = "stress_xx | stress_yy | stress_xy">
  1 0.00000 0.00000 0.00000
  2 0.00000 0.00000 0.00000
  3 0.00000 0.00000 0.00000
  4 0.00000 0.00000 0.00000
  5 0.00000 0.00000 0.00000
  6 0.00000 0.00000 0.00000
  7 0.00000 0.00000 0.00000
  8 0.00000 0.00000 0.00000
  9 0.00000 0.00000 0.00000
  10 0.00000 0.00000 0.00000
  11 0.00000 0.00000 0.00000
  12 0.00000 0.00000 0.00000
  13 0.00000 0.00000 0.00000
  14 0.00000 0.00000 0.00000
  15 0.00000 0.00000 0.00000
  16 0.00000 0.00000 0.00000
  17 0.00000 0.00000 0.00000
  18 0.00000 0.00000 0.00000
  19 0.00000 0.00000 0.00000
  20 0.00000 0.00000 0.00000
  21 0.00000 0.00000 0.00000
  22 0.00000 0.00000 0.00000
  23 0.00000 0.00000 0.00000
  24 0.00000 0.00000 0.00000
  25 0.00000 0.00000 0.00000
  26 0.00000 0.00000 0.00000
  27 0.00000 0.00000 0.00000
  28 0.00000 0.00000 0.00000
  29 0.00000 0.00000 0.00000
  30 0.00000 0.00000 0.00000
  31 0.00000 0.00000 0.00000
  32 0.00000 0.00000 0.00000
  33 0.00000 0.00000 0.00000
  34 0.00000 0.00000 0.00000
  35 0.00000 0.00000 0.00000
  36 0.00000 0.00000 0.00000
  37 0.00000 0.00000 0.00000
  38 0.00000 0.00000 0.00000
  39 0.00000 0.00000 0.00000
  40 0.00000 0.00000 0.00000
  41 0.00000 0.00000 0.00000
  42 0.00000 0.00000 0.00000
  43 0.00000 0.00000 0.00000
  44 0.00000 0.00000 0.00000
  45 0.00000 0.00000 0.00000
  46 0.00000 0.00000 0.00000
  47 0.00000 0.00000 0.00000
  48 0.00000 0.00000 0.00000
  49 0.00000 0.00000 0.00000
  50 0.00000 0.00000 0.00000
  51 0.00000 0.00000 0.00000
  52 0.00000 0.00000 0.00000
  53 0.00000 0.00000 0.00000
  54 0.00000 0.00000 0.00000
  55 0.00000 0.00000 0.00000
  56 0.00000 0.00000 0.00000
  57 0.00000 0.00000 0.00000
  58 0.00000 0.00000 0.00000
  59 0.00000 0.00000 0.00000
  60 0.00000 0.00000 0.00000
  61 0.00000 0.00000 0.00000
  62 0.00000 0.00000 0.00000
  63 0.00000 0.00000 0.00000
  64 0.00000 0.00000 0.00000
  65 0.00000 0.00000 0.00000
  66 0.00000 0.00000 0.00000
  67 0.00000 0.00000 0.00000
  68 0.00000 0.00000 0.00000
  69 0.00000 0.00000 0.00000
  70 0.00000 0.00000 0.00000
  71 0.00000 0.00000 0.00000
  72 0.00000 0.00000 0.00000
  73 0.00000 0.00000 0.00000
  74 0.00000 0.00000 0.00000
  75 0.00000 0.00000 0.00000
  76 0.00000 0.00000 0.00000
  77 0.00000 0.00000 0.00000
  78 0.00000 0.00000 0.00000
  79 0.00000 0.00000 0.00000
  80 0.00000 0.00000 0.00000
  81 0.00000 0.00000 0.00000
  82 0.00000 0.00000 0.00000
  83 0.00000 0.00000 0.00000
  84 0.00000 0.00000 0.00000
  85 0.00000 0.00000 0.00000
  86 0.00000 0.00000 0.00000
  87 0.00000 0.00000 0.00000
  88 0.00000 0.00000 0.00000
  89 0.00000 0.00000 0.00000
  90 0.00000 0.00000 0.00000
  91 0.00000 0.00000 0.00000
  92 0.00000 0.00000 0.00000
  93 0.00000 0.00000 0.00000
  94 0.00000 0.00000 0.00000
  95 0.00000 0.00000 0.00000
  96 0.00000 0.00000 0.00000
  97 0.00000 0.00000 0.00000
  98 0.00000 0.00000 0.00000
  99 0.00000 0.00000 0.00000
  100 0.00000 0.00000 0.00000
  101 0.00000 0.00000 0.00000
  102 0.00000 0.00000 0.00000
  103 0.00000 0.00000 0.00000
  104 0.00000 0.00000 0.00000
  105 0.00000 0.00000 0.00000
  106 0.00000 0.00000 0.00000
  107 0.00000 0.00000 0.00000
  108 0.00000 0.00000 0.00000
  109 0.00000 0.00000 0.00000
  110 0.00000 0.00000 0.00000
  111 0.00000 0.00000 0.00000
  112 0.00000 0.00000 0.00000
  113 0.00000 0.00000 0.00000
  114 0.00000 0.00000 0.00000
  115 0.00000 0.00000 0.00000
  116 0.00000 0.00000 0.00000
  117 0.00000 0.00000 0.00000
  118 0.00000 0.00000 0.00000
  119 0.00000 0.00000 0.00000
  120 0.00000 0.00000 0.00000
  121 0.00000 0.00000 0.00000
  122 0.00000 0.00000 0.00000
  123 0.00000 0.00000 0.00000
  124 0.00000 0.00000 0.00000
  125 0.00000 0.00000 0.00000
  126 0.00000 0.00000 0.00000
  127 0.00000 0.00000 0.00000
  128 0.00000 0.00000 0.00000
  129 0.00000 0.00000 0.00000
  130 0.00000 0.00000 0.00000
  131 0.00000 0.00000 0.00000
  132 0.00000 0.00000 0.00000
  133 0.00000 0.00000 0.00000
  134 0.00000 0.00000 0.00000
  135 0.00000 0.00000 0.00000
  136 0.00000 0.00000 0.00000
  137 0.00000 0.00000 0.00000
  138 0.00000 0.00000 0.00000
  139 0.00000 0.00000 0.00000
  140 0.00000 0.00000 0.00000
  141 0.00000 0.00000 0.00000
  142 0.00000 0.00000 0.00000
  143 0.00000 0.00000 0.00000
  144 0.00000 0.00000 0.00000
  145 0.00000 0.00000 0.00000
  146 0.00000 0.00000 0.00000
  147 0.00000 0.00000 0.00000
  148 0.00000 0.00000 0.00000
  149 0.00000 0.00000 0.00000
  150 0.00000 0.00000 0.00000
  151 0.00000 0.00000 0.00000
  152 0.00000 0.00000 0.00000
  153 0.00000 0.00000 0.00000
  154 0.00000 0.00000 0.00000
  155 0.00000 0.00000 0.00000
  156 0.00000 0.00000 0.00000
  157 0.00000 0.00000 0.00000
  158 0.00000 0.00000 0.00000
  159 0.00000 0.00000 0.00000
  160 0.00000 0.00000 0.00000
  161 0.00000 0.00000 0.00000
  162 0.00000 0.00000 0.00000
  163 0.00000 0.00000 0.00000
  164 0.00000 0.00000 0.00000
  165 0.00000 0.00000 0.00000
  166 0.00000 0.00000 0.00000
  167 0.00000 0.00000 0.00000
  168 0.00000 0.00000 0.00000
  169 0.00000 0.00000 0.00000
  170 0.00000 0.00000 0.00000
  171 0.00000 0.00000 0.00000
  172 0.00000 0.00000 0.00000
  173 0.00000 0.00000 0.00000
  174 0.00000 0.00000 0.00000
  175 0.00000 0.00000 0.00000
  176 0.00000 0.00000 0.00000
  177 0.00000 0.00000 0.00000
  178 0.00000 0.00000 0.00000
  179 0.00000 0.00000 0.00000
  180 0.00000 0.00000 0.00000
  181 0.00000 0.00000 0.00000
  182 0.00000 0.00000 0.00000
  183 0.00000 0.00000 0.00000
  184 0.00000 0.00000 0.00000
  185 0.00000 0.00000 0.00000
  186 0.00000 0.00000 0.00000
  187 0.00000 0.00000 0.00000
  188 0.00000 0.00000 0.00000
  189 0.00000 0.00000 0.00000
  190 0.00000 0.00000 0.00000
  191 0.00000 0.00000 0.00000
  192 0.00000 0.00000 0.00000
  193 0.00000 0.00000 0.00000
  194 0.00000 0.00000 0.00000
  195 0.00000 0.00000 0.00000
  196 0.00000 0.00000 0.00000
  197 0.00000 0.00000 0.00000
  198 0.00000 0.00000 0.00000
  199 0.00000 0.00000 0.00000
  200 0.00000 0.00000 0.00000
  201 0.00000 0.00000 0.00000
  202 0.00000 0.00000 0.00000
  203 0.00000 0.00000 0.00000
  204 0.00000 0.00000 0.00000
  205 0.00000 0.00000 0.00000
  206 0.00000 0.00000 0.00000
  207 0.00000 0.00000 0.00000
  208 0.00000 0.00000 0.00000
  209 0.00000 0.00000 0.00000
  210 0.00000 0.00000 0.00000
  211 0.00000 0.00000 0.00000
  212 0.00000 0.00000 0.00000
  213 0.00000 0.00000 0.00000
  214 0.00000 0.00000 0.00000
  215 0.00000 0.00000 0.00000
  216 0.00000 0.00000 0.00000
  217 0.00000 0.00000 0.00000
  218 0.00000 0.00000 0.00000
  219 0.00000 0.00000 0.00000
  220 0.00000 0.00000 0.00000
  221 0.00000 0.00000 0.00000
  222 0.00000 0.00000 0.00000
  223 0.00000 0.00000 0.00000
  224 0.00000 0.00000 0.00000
  225 0.00000 0.00000 0.00000
  226 0.00000 0.00000 0.00000
  227 0.00000 0.00000 0.00000
  228 0.00000 0.00000 0.00000
  229 0.00000 0.00000 0.00000
  230 0.00000 0.00000 0.00000
  231 0.00000 0.00000 0.00000
  232 0.00000 0.00000 0.00000
  233 0.00000 0.00000 0.00000
  234 0.00000 0.00000 0.00000
  235 0.00000 0.00000 0.00000
  236 0.00000 0.00000 0.00000
  237 0.00000 0.00000 0.00000
  238 0.00000 0.00000 0.00000
  239 0.00000 0.00000 0.00000
  240 0.00000 0.00000 0.00000
  241 0.00000 0.00000 0.00000
</Section>

newXOutput 201

<Section columns = "stress_xx | stress_yy | stress_xy">
  1 0.00000 0.00000 0.00000
  2 0.00000 0.00000 0.00000
  3 0.00000 0.00000 0.00000
  4 0.00000 0.00000 0.00000
  5 0.00000 0.00000 0.00000
  6 0.00000 0.00000 0.00000
  7 0.00000 0.00000 0.00000
  8 0.00000 0.00000 0.00000
  9 0.00000 0.00000 0.00000
  10 0.00000 0.00000 0.00000
  11 0.00000 0.00000 0.00000
  12 0.00000 0.00000 0.00000
  13 0.00000 0.00000 0.00000
  14 0.00000 0.00000 0.00000
  15 0.00000 0.00000 0.00000
  16 0.00000 0.00000 0.00000
  17 0.00000 0.00000 0.00000
  18 0.00000 0.00000 0.00000
  19 0.00000 0.00000 0.00000
  20 0.00000 0.00000 0.00000
  21 0.00000 0.00000 0.00000
  22 0.00000 0.00000 0.00000
  23 0.00000 0.00000 0.00000
  24 0.00000 0.00000 0.00000
  25 0.00000 0.00000 0.00000
  26 0.00000 0.00000 0.00000
  27 0.00000 0.00000 0.00000
  28 0.00000 0.00000 0.00000
  29 0.00000 0.00000 0.00000
  30 0.00000 0.00000 0.00000
  31 0.00000 0.00000 0.00000
  32 0.00000 0.00000 0.00000
  33 0.00000 0.00000 0.00000
  34 0.00000 0.00000 0.00000
  35 0.00000 0.00000 0.00000
  36 0.00000 0.00000 0.00000
  37 0.00000 0.00000 0.00000
  38 0.00000 0.00000 0.00000
  39 0.00000 0.00000 0.00000
  40 0.00000 0.00000 0.00000
  41 0.00000 0.00000 0.00000
  42 0.00000 0.00000 0.00000
  43 0.00000 0.00000 0.00000
  44 0.00000 0.00000 0.00000
  45 0.00000 0.00000 0.00000
  46 0.00000 0.00000 0.00000
  47 0.00000 0.00000 0.00000
  48 0.00000 0.00000 0.00000
  49 0.00000 0.00000 0.00000
  50 0.00000 0.00000 0.00000
  51 0.00000 0.00000 0.00000
  52 0.00000 0.00000 0.00000
  53 0.00000 0.00000 0.00000
  54 0.00000 0.00000 0.00000
  55 0.00000 0.00000 0.00000
  56 0.00000 0.00000 0.00000
  57 0.00000 0.00000 0.00000
  58 0.00000 0.00000 0.00000
  59 0.00000 0.00000 0.00000
  60 0.00000 0.00000 0.00000
  61 0.00000 0.00000 0.00000
  62 0.00000 0.00000 0.00000
  63 0.00000 0.00000 0.00000
  64 0.00000 0.00000 0.00000
  65 0.00000 0.00000 0.00000
  66 0.00000 0.00000 0.00000
  67 0.00000 0.00000 0.00000
  68 0.00000 0.00000 0.00000
  69 0.00000 0.00000 0.00000
  70 0.00000 0.00000 0.00000
  71 0.00000 0.00000 0.00000
  72 0.00000 0.00000 0.00000
  73 0.00000 0.00000 0.00000
  74 0.00000 0.00000 0.00000
  75 0.00000 0.00000 0.00000
  76 0.00000 0.00000 0.00000
  77 0.00000 0.00000 0.00000
  78 0.00000 0.00000 0.00000
  79 0.00000 0.00000 0.00000
  80 0.00000 0.00000 0.00000
  81 0.00000 0.00000 0.00000
  82 0.00000 0.00000 0.00000
  83 0.00000 0.00000 0.00000
  84 0.00000 0.00000 0.00000
  85 0.00000 0.00000 0.00000
  86 0.00000 0.00000 0.00000
  87 0.00000 0.00000 0.00000
  88 0.00000 0.00000 0.00000
  89 0.00000 0.00000 0.00000
  90 0.00000 0.00000 0.00000
  91 0.00000 0.00000 0.00000
  92 0.00000 0.00000 0.00000
  93 0.00000 0.00000 0.00000
  94 0.00000 0.00000 0.00000
  95 0.00000 0.00000 0.00000
  96 0.00000 0.00000 0.00000
  97 0.00000 0.00000 0.00000
  98 0.00000 0.00000 0.00000
  99 0.00000 0.00000 0.00000
  100 0.00000 0.00000 0.00000
  101 0.00000 0.00000 0.00000
  102 0.00000 0.00000 0.00000
  103 0.00000 0.00000 0.00000
  104 0.00000 0.00000 0.00000
  105 0.00000 0.00000 0.00000
  106 0.00000 0.00000 0.00000
  107 0.00000 0.00000 0.00000
  108 0.00000 0.00000 0.00000
  109 0.00000 0.00000 0.00000
  110 0.00000 0.00000 0.00000
  111 0.00000 0.00000 0.00000
  112 0.00000 0.00000 0.00000
  113 0.00000 0.00000 0.00000
  114 0.00000 0.00000 0.00000
  115 0.00000 0.00000 0.00000
  116 0.00000 0.00000 0.00000
  117 0.00000 0.00000 0.00000
  118 0.00000 0.00000 0.00000
  119 0.00000 0.00000 0.00000
  120 0.00000 0.00000 0.00000
  121 0.00000 0.00000 0.00000
  122 0.00000 0.00000 0.00000
  123 0.00000 0.00000 0.00000
  124 0.00000 0.00000 0.00000
  125 0.00000 0.00000 0.00000
  126 0.00000 0.00000 0.00000
  127 0.00000 0.00000 0.00000
  128 0.00000 0.00000 0.00000
  129 0.00000 0.00000 0.00000
  130 0.00000 0.00000 0.00000
  131 0.00000 0.00000 0.00000
  132 0.00000 0.00000 0.00000
  133 0.00000 0.00000 0.00000
  134 0.00000 0.00000 0.00000
  135 0.00000 0.00000 0.00000
  136 0.00000 0.00000 0.00000
  137 0.00000 0.00000 0.00000
  138 0.00000 0.00000 0.00000
  139 0.00000 0.00000 0.00000
  140 0.00000 0.00000 0.00000
  141 0.00000 0.00000 0.00000
  142 0.00000 0.00000 0.00000
  143 0.00000 0.00000 0.00000
  144 0.00000 0.00000 0.00000
  145 0.00000 0.00000 0.00000
  146 0.00000 0.00000 0.00000
  147 0.00000 0.00000 0.00000
  148 0.00000 0.00000 0.00000
  149 0.00000 0.00000 0.00000
  150 0.00000 0.00000 0.00000
  151 0.00000 0.00000 0.00000
  152 0.00000 0.00000 0.00000
  153 0.00000 0.00000 0.00000
  154 0.00000 0.00000 0.00000
  155 0.00000 0.00000 0.00000
  156 0.00000 0.00000 0.00000
  157 0.00000 0.00000 0.00000
  158 0.00000 0.00000 0.00000
  159 0.00000 0.00000 0.00000
  160 0.00000 0.00000 0.00000
  161 0.00000 0.00000 0.00000
  162 0.00000 0.00000 0.00000
  163 0.00000 0.00000 0.00000
  164 0.00000 0.00000 0.00000
  165 0.00000 0.00000 0.00000
  166 0.00000 0.00000 0.00000
  167 0.00000 0.00000 0.00000
  168 0.00000 0.00000 0.00000
  169 0.00000 0.00000 0.00000
  170 0.00000 0.00000 0.00000
  171 0.00000 0.00000 0.00000
  172 0.00000 0.00000 0.00000
  173 0.00000 0.00000 0.00000
  174 0.00000 0.00000 0.00000
  175 0.00000 0.00000 0.00000
  176 0.00000 0.00000 0.00000
  177 0.00000 0.00000 0.00000
  178 0.00000 0.00000 0.00000
  179 0.00000 0.00000 0.00000
  180 0.00000 0.00000 0.00000
  181 0.00000 0.00000 0.00000
  182 0.00000 0.00000 0.00000
  183 0.00000 0.00000 0.00000
  184 0.00000 0.00000 0.00000
  185 0.00000 0.00000 0.00000
  186 0.00000 0.00000 0.00000
  187 0.00000 0.00000 0.00000
  188 0.00000 0.00000 0.00000
  189 0.00000 0.00000 0.00000
  190 0.00000 0.00000 0.00000
  191 0.00000 0.00000 0.00000
  192 0.00000 0.00000 0.00000
  193 0.00000 0.00000 0.00000
  194 0.00000 0.00000 0.00000
  195 0.00000 0.00000 0.00000
  196 0.00000 0.00000 0.00000
  197 0.00000 0.00000 0.00000
  198 0.00000 0.00000 0.00000
  199 0.00000 0.00000 0.00000
  200 0.00000 0.00000 0.00000
  201 0.00000 0.00000 0.00000
  202 0.00000 0.00000 0.00000
  203 0.00000 0.00000 0.00000
  204 0.00000 0.00000 0.00000
  205 0.00000 0.00000 0.00000
  206 0.00000 0.00000 0.00000
  207 0.00000 0.00000 0.00000
  208 0.00000 0.00000 0.00000
  209 0.00000 0.00000 0.00000
  210 0.00000 0.00000 0.00000
  211 0.00000 0.00000 0.00000
  212 0.00000 0.00000 0.00000
  213 0.00000 0.00000 0.00000
  214 0.00000 0.00000 0.00000
  215 0.00000 0.00000 0.00000
  216 0.00000 0.00000 0.00000
  217 0.00000 0.00000 0.00000
  218 0.00000 0.00000 0.00000
  219 0.00000 0.00000 0.00000
  220 0.00000 0.00000 0.00000
  221 0.00000 0.00000 0.00000
  222 0.00000 0.00000 0.00000
  223 0.00000 0.00000 0.00000
  224 0.00000 0.00000 0.00000
  225 0.00000 0.00000 0.00000
  226 0.00000 0.00000 0.00000
  227 0.00000 0.00000 0.00000
  228 0.00000 0.00000 0.00000
  229 0.00000 0.00000 0.00000
  230 0.00000 0.00000 0.00000
  231 0.00000 0.00000 0.00000
  232 0.00000 0.00000 0.00000
  233 0.00000 0.00000 0.00000
  234 0.00000 0.00000 0.00000
  235 0.00000 0.00000 0.00000
  236 0.00000 0.00000 0.00000
  237 0.00000 0.00000 0.00000
  238 0.00000 0.00000 0.00000
  239 0.00000 0.00000 0.00000
  240 0.00000 0.00000 0.00000
  241 0.00000 0.00000 0.00000
</Section>

newXOutput 202

<Section columns = "stress_xx | stress_yy | stress_xy">
  1 0.00000 0.00000 0.00000
  2 0.00000 0.00000 0.00000
  3 0.00000 0.00000 0.00000
  4 0.00000 0.00000 0.00000
  5 0.00000 0.00000 0.00000
  6 0.00000 0.00000 0.00000
  7 0.00000 0.00000 0.00000
  8 0.00000 0.00000 0.00000
  9 0.00000 0.00000 0.00000
  10 0.00000 0.00000 0.00000
  11 0.00000 0.00000 0.00000
  12 0.00000 0.00000 0.00000
  13 0.00000 0.00000 0.00000
  14 0.00000 0.00000 0.00000
  15 0.00000 0.00000 0.00000
  16 0.00000 0.00000 0.00000
  17 0.00000 0.00000 0.00000
  18 0.00000 0.00000 0.00000
  19 0.00000 0.00000 0.00000
  20 0.00000 0.00000 0.00000
  21 0.00000 0.00000 0.00000
  22 0.00000 0.00000 0.00000
  23 0.00000 0.00000 0.00000
  24 0.00000 0.00000 0.00000
  25 0.00000 0.00000 0.00000
  26 0.00000 0.00000 0.00000
  27 0.00000 0.00000 0.00000
  28 0.00000 0.00000 0.00000
  29 0.00000 0.00000 0.00000
  30 0.00000 0.00000 0.00000
  31 0.00000 0.00000 0.00000
  32 0.00000 0.00000 0.00000
  33 0.00000 0.00000 0.00000
  34 0.00000 0.00000 0.00000
  35 0.00000 0.00000 0.00000
  36 0.00000 0.00000 0.00000
  37 0.00000 0.00000 0.00000
  38 0.00000 0.00000 0.00000
  39 0.00000 0.00000 0.00000
  40 0.00000 0.00000 0.00000
  41 0.00000 0.00000 0.00000
  42 0.00000 0.00000 0.00000
  43 0.00000 0.00000 0.00000
  44 0.00000 0.00000 0.00000
  45 0.00000 0.00000 0.00000
  46 0.00000 0.00000 0.00000
  47 0.00000 0.00000 0.00000
  48 0.00000 0.00000 0.00000
  49 0.00000 0.00000 0.00000
  50 0.00000 0.00000 0.00000
  51 0.00000 0.00000 0.00000
  52 0.00000 0.00000 0.00000
  53 0.00000 0.00000 0.00000
  54 0.00000 0.00000 0.00000
  55 0.00000 0.00000 0.00000
  56 0.00000 0.00000 0.00000
  57 0.00000 0.00000 0.00000
  58 0.00000 0.00000 0.00000
  59 0.00000 0.00000 0.00000
  60 0.00000 0.00000 0.00000
  61 0.00000 0.00000 0.00000
  62 0.00000 0.00000 0.00000
  63 0.00000 0.00000 0.00000
  64 0.00000 0.00000 0.00000
  65 0.00000 0.00000 0.00000
  66 0.00000 0.00000 0.00000
  67 0.00000 0.00000 0.00000
  68 0.00000 0.00000 0.00000
  69 0.00000 0.00000 0.00000
  70 0.00000 0.00000 0.00000
  71 0.00000 0.00000 0.00000
  72 0.00000 0.00000 0.00000
  73 0.00000 0.00000 0.00000
  74 0.00000 0.00000 0.00000
  75 0.00000 0.00000 0.00000
  76 0.00000 0.00000 0.00000
  77 0.00000 0.00000 0.00000
  78 0.00000 0.00000 0.00000
  79 0.00000 0.00000 0.00000
  80 0.00000 0.00000 0.00000
  81 0.00000 0.00000 0.00000
  82 0.00000 0.00000 0.00000
  83 0.00000 0.00000 0.00000
  84 0.00000 0.00000 0.00000
  85 0.00000 0.00000 0.00000
  86 0.00000 0.00000 0.00000
  87 0.00000 0.00000 0.00000
  88 0.00000 0.00000 0.00000
  89 0.00000 0.00000 0.00000
  90 0.00000 0.00000 0.00000
  91 0.00000 0.00000 0.00000
  92 0.00000 0.00000 0.00000
  93 0.00000 0.00000 0.00000
  94 0.00000 0.00000 0.00000
  95 0.00000 0.00000 0.00000
  96 0.00000 0.00000 0.00000
  97 0.00000 0.00000 0.00000
  98 0.00000 0.00000 0.00000
  99 0.00000 0.00000 0.00000
  100 0.00000 0.00000 0.00000
  101 0.00000 0.00000 0.00000
  102 0.00000 0.00000 0.00000
  103 0.00000 0.00000 0.00000
  104 0.00000 0.00000 0.00000
  105 0.00000 0.00000 0.00000
  106 0.00000 0.00000 0.00000
  107 0.00000 0.00000 0.00000
  108 0.00000 0.00000 0.00000
  109 0.00000 0.00000 0.00000
  110 0.00000 0.00000 0.00000
  111 0.00000 0.00000 0.00000
  112 0.00000 0.00000 0.00000
  113 0.00000 0.00000 0.00000
  114 0.00000 0.00000 0.00000
  115 0.00000 0.00000 0.00000
  116 0.00000 0.00000 0.00000
  117 0.00000 0.00000 0.00000
  118 0.00000 0.00000 0.00000
  119 0.00000 0.00000 0.00000
  120 0.00000 0.00000 0.00000
  121 0.00000 0.00000 0.00000
  122 0.00000 0.00000 0.00000
  123 0.00000 0.00000 0.00000
  124 0.00000 0.00000 0.00000
  125 0.00000 0.00000 0.00000
  126 0.00000 0.00000 0.00000
  127 0.00000 0.00000 0.00000
  128 0.00000 0.00000 0.00000
  129 0.00000 0.00000 0.00000
  130 0.00000 0.00000 0.00000
  131 0.00000 0.00000 0.00000
  132 0.00000 0.00000 0.00000
  133 0.00000 0.00000 0.00000
  134 0.00000 0.00000 0.00000
  135 0.00000 0.00000 0.00000
  136 0.00000 0.00000 0.00000
  137 0.00000 0.00000 0.00000
  138 0.00000 0.00000 0.00000
  139 0.00000 0.00000 0.00000
  140 0.00000 0.00000 0.00000
  141 0.00000 0.00000 0.00000
  142 0.00000 0.00000 0.00000
  143 0.00000 0.00000 0.00000
  144 0.00000 0.00000 0.00000
  145 0.00000 0.00000 0.00000
  146 0.00000 0.00000 0.00000
  147 0.00000 0.00000 0.00000
  148 0.00000 0.00000 0.00000
  149 0.00000 0.00000 0.00000
  150 0.00000 0.00000 0.00000
  151 0.00000 0.00000 0.00000
  152 0.00000 0.00000 0.00000
  153 0.00000 0.00000 0.00000
  154 0.00000 0.00000 0.00000
  155 0.00000 0.00000 0.00000
  156 0.00000 0.00000 0.00000
  157 0.00000 0.00000 0.00000
  158 0.00000 0.00000 0.00000
  159 0.00000 0.00000 0.00000
  160 0.00000 0.00000 0.00000
  161 0.00000 0.00000 0.00000
  162 0.00000 0.00000 0.00000
  163 0.00000 0.00000 0.00000
  164 0.00000 0.00000 0.00000
  165 0.00000 0.00000 0.00000
  166 0.00000 0.00000 0.00000
  167 0.00000 0.00000 0.00000
  168 0.00000 0.00000 0.00000
  169 0.00000 0.00000 0.00000
  170 0.00000 0.00000 0.00000
  171 0.00000 0.00000 0.00000
  172 0.00000 0.00000 0.00000
  173 0.00000 0.00000 0.00000
  174 0.00000 0.00000 0.00000
  175 0.00000 0.00000 0.00000
  176 0.00000 0.00000 0.00000
  177 0.00000 0.00000 0.00000
  178 0.00000 0.00000 0.00000
  179 0.00000 0.00000 0.00000
  180 0.00000 0.00000 0.00000
  181 0.00000 0.00000 0.00000
  182 0.00000 0.00000 0.00000
  183 0.00000 0.00000 0.00000
  184 0.00000 0.00000 0.00000
  185 0.00000 0.00000 0.00000
  186 0.00000 0.00000 0.00000
  187 0.00000 0.00000 0.00000
  188 0.00000 0.00000 0.00000
  189 0.00000 0.00000 0.00000
  190 0.00000 0.00000 0.00000
  191 0.00000 0.00000 0.00000
  192 0.00000 0.00000 0.00000
  193 0.00000 0.00000 0.00000
  194 0.00000 0.00000 0.00000
  195 0.00000 0.00000 0.00000
  196 0.00000 0.00000 0.00000
  197 0.00000 0.00000 0.00000
  198 0.00000 0.00000 0.00000
  199 0.00000 0.00000 0.00000
  200 0.00000 0.00000 0.00000
  201 0.00000 0.00000 0.00000
  202 0.00000 0.00000 0.00000
  203 0.00000 0.00000 0.00000
  204 0.00000 0.00000 0.00000
  205 0.00000 0.00000 0.00000
  206 0.00000 0.00000 0.00000
  207 0.00000 0.00000 0.00000
  208 0.00000 0.00000 0.00000
  209 0.00000 0.00000 0.00000
  210 0.00000 0.00000 0.00000
  211 0.00000 0.00000 0.00000
  212 0.00000 0.00000 0.00000
  213 0.00000 0.00000 0.00000
  214 0.00000 0.00000 0.00000
  215 0.00000 0.00000 0.00000
  216 0.00000 0.00000 0.00000
  217 0.00000 0.00000 0.00000
  218 0.00000 0.00000 0.00000
  219 0.00000 0.00000 0.00000
  220 0.00000 0.00000 0.00000
  221 0.00000 0.00000 0.00000
  222 0.00000 0.00000 0.00000
  223 0.00000 0.00000 0.00000
  224 0.00000 0.00000 0.00000
  225 0.00000 0.00000 0.00000
  226 0.00000 0.00000 0.00000
  227 0.00000 0.00000 0.00000
  228 0.00000 0.00000 0.00000
  229 0.00000 0.00000 0.00000
  230 0.00000 0.00000 0.00000
  231 0.00000 0.00000 0.00000
  232 0.00000 0.00000 0.00000
  233 0.00000 0.00000 0.00000
  234 0.00000 0.00000 0.00000
  235 0.00000 0.00000 0.00000
  236 0.00000 0.00000 0.00000
  237 0.00000 0.00000 0.00000
  238 0.00000 0.00000 0.00000
  239 0.00000 0.00000 0.00000
  240 0.00000 0.00000 0.00000
  241 0.00000 0.00000 0.00000
</Section>

