newXOutput 1

<Section columns = "stress_xx | stress_yy | stress_xy">
  1 0.00000 0.00000 0.00000
  2 0.00000 0.00000 0.00000
  3 0.00000 0.00000 0.00000
  4 0.00000 0.00000 0.00000
  5 0.00000 0.00000 0.00000
  6 0.00000 0.00000 0.00000
  7 0.00000 0.00000 0.00000
  8 0.00000 0.00000 0.00000
  9 0.00000 0.00000 0.00000
  10 0.00000 0.00000 0.00000
  11 0.00000 0.00000 0.00000
  12 0.00000 0.00000 0.00000
  13 0.00000 0.00000 0.00000
  14 0.00000 0.00000 0.00000
  15 0.00000 0.00000 0.00000
  16 0.00000 0.00000 0.00000
  17 0.00000 0.00000 0.00000
  18 0.00000 0.00000 0.00000
  19 0.00000 0.00000 0.00000
  20 0.00000 0.00000 0.00000
  21 0.00000 0.00000 0.00000
  22 0.00000 0.00000 0.00000
  23 0.00000 0.00000 0.00000
  24 0.00000 0.00000 0.00000
  25 0.00000 0.00000 0.00000
  26 0.00000 0.00000 0.00000
  27 0.00000 0.00000 0.00000
  28 0.00000 0.00000 0.00000
  29 0.00000 0.00000 0.00000
  30 0.00000 0.00000 0.00000
  31 0.00000 0.00000 0.00000
  32 0.00000 0.00000 0.00000
  33 0.00000 0.00000 0.00000
  34 0.00000 0.00000 0.00000
  35 0.00000 0.00000 0.00000
  36 0.00000 0.00000 0.00000
  37 0.00000 0.00000 0.00000
  38 0.00000 0.00000 0.00000
  39 0.00000 0.00000 0.00000
  40 0.00000 0.00000 0.00000
  41 0.00000 0.00000 0.00000
  42 0.00000 0.00000 0.00000
  43 0.00000 0.00000 0.00000
  44 0.00000 0.00000 0.00000
  45 0.00000 0.00000 0.00000
  46 0.00000 0.00000 0.00000
  47 0.00000 0.00000 0.00000
  48 0.00000 0.00000 0.00000
  49 0.00000 0.00000 0.00000
  50 0.00000 0.00000 0.00000
  51 0.00000 0.00000 0.00000
  52 0.00000 0.00000 0.00000
  53 0.00000 0.00000 0.00000
  54 0.00000 0.00000 0.00000
  55 0.00000 0.00000 0.00000
  56 0.00000 0.00000 0.00000
  57 0.00000 0.00000 0.00000
  58 0.00000 0.00000 0.00000
  59 0.00000 0.00000 0.00000
  60 0.00000 0.00000 0.00000
  61 0.00000 0.00000 0.00000
  62 0.00000 0.00000 0.00000
  63 0.00000 0.00000 0.00000
  64 0.00000 0.00000 0.00000
  65 0.00000 0.00000 0.00000
  66 0.00000 0.00000 0.00000
  67 0.00000 0.00000 0.00000
  68 0.00000 0.00000 0.00000
  69 0.00000 0.00000 0.00000
  70 0.00000 0.00000 0.00000
  71 0.00000 0.00000 0.00000
  72 0.00000 0.00000 0.00000
  73 0.00000 0.00000 0.00000
  74 0.00000 0.00000 0.00000
  75 0.00000 0.00000 0.00000
  76 0.00000 0.00000 0.00000
  77 0.00000 0.00000 0.00000
  78 0.00000 0.00000 0.00000
  79 0.00000 0.00000 0.00000
  80 0.00000 0.00000 0.00000
  81 0.00000 0.00000 0.00000
  82 0.00000 0.00000 0.00000
  83 0.00000 0.00000 0.00000
  84 0.00000 0.00000 0.00000
  85 0.00000 0.00000 0.00000
  86 0.00000 0.00000 0.00000
  87 0.00000 0.00000 0.00000
  88 0.00000 0.00000 0.00000
  89 0.00000 0.00000 0.00000
  90 0.00000 0.00000 0.00000
  91 0.00000 0.00000 0.00000
  92 0.00000 0.00000 0.00000
  93 0.00000 0.00000 0.00000
  94 0.00000 0.00000 0.00000
  95 0.00000 0.00000 0.00000
  96 0.00000 0.00000 0.00000
  97 0.00000 0.00000 0.00000
  98 0.00000 0.00000 0.00000
  99 0.00000 0.00000 0.00000
  100 0.00000 0.00000 0.00000
  101 0.00000 0.00000 0.00000
  102 0.00000 0.00000 0.00000
  103 0.00000 0.00000 0.00000
  104 0.00000 0.00000 0.00000
  105 0.00000 0.00000 0.00000
  106 0.00000 0.00000 0.00000
  107 0.00000 0.00000 0.00000
  108 0.00000 0.00000 0.00000
  109 0.00000 0.00000 0.00000
  110 0.00000 0.00000 0.00000
  111 0.00000 0.00000 0.00000
  112 0.00000 0.00000 0.00000
  113 0.00000 0.00000 0.00000
  114 0.00000 0.00000 0.00000
  115 0.00000 0.00000 0.00000
  116 0.00000 0.00000 0.00000
  117 0.00000 0.00000 0.00000
  118 0.00000 0.00000 0.00000
  119 0.00000 0.00000 0.00000
  120 0.00000 0.00000 0.00000
  121 0.00000 0.00000 0.00000
  122 0.00000 0.00000 0.00000
  123 0.00000 0.00000 0.00000
  124 0.00000 0.00000 0.00000
  125 0.00000 0.00000 0.00000
  126 0.00000 0.00000 0.00000
  127 0.00000 0.00000 0.00000
  128 0.00000 0.00000 0.00000
  129 0.00000 0.00000 0.00000
  130 0.00000 0.00000 0.00000
  131 0.00000 0.00000 0.00000
  132 0.00000 0.00000 0.00000
  133 0.00000 0.00000 0.00000
  134 0.00000 0.00000 0.00000
  135 0.00000 0.00000 0.00000
  136 0.00000 0.00000 0.00000
  137 0.00000 0.00000 0.00000
  138 0.00000 0.00000 0.00000
  139 0.00000 0.00000 0.00000
  140 0.00000 0.00000 0.00000
  141 0.00000 0.00000 0.00000
  142 0.00000 0.00000 0.00000
  143 0.00000 0.00000 0.00000
  144 0.00000 0.00000 0.00000
  145 0.00000 0.00000 0.00000
  146 0.00000 0.00000 0.00000
  147 0.00000 0.00000 0.00000
  148 0.00000 0.00000 0.00000
  149 0.00000 0.00000 0.00000
  150 0.00000 0.00000 0.00000
  151 0.00000 0.00000 0.00000
  152 0.00000 0.00000 0.00000
  153 0.00000 0.00000 0.00000
  154 0.00000 0.00000 0.00000
  155 0.00000 0.00000 0.00000
  156 0.00000 0.00000 0.00000
  157 0.00000 0.00000 0.00000
  158 0.00000 0.00000 0.00000
  159 0.00000 0.00000 0.00000
  160 0.00000 0.00000 0.00000
  161 0.00000 0.00000 0.00000
  162 0.00000 0.00000 0.00000
  163 0.00000 0.00000 0.00000
  164 0.00000 0.00000 0.00000
  165 0.00000 0.00000 0.00000
  166 0.00000 0.00000 0.00000
  167 0.00000 0.00000 0.00000
  168 0.00000 0.00000 0.00000
  169 0.00000 0.00000 0.00000
  170 0.00000 0.00000 0.00000
  171 0.00000 0.00000 0.00000
  172 0.00000 0.00000 0.00000
  173 0.00000 0.00000 0.00000
  174 0.00000 0.00000 0.00000
  175 0.00000 0.00000 0.00000
  176 0.00000 0.00000 0.00000
  177 0.00000 0.00000 0.00000
  178 0.00000 0.00000 0.00000
  179 0.00000 0.00000 0.00000
  180 0.00000 0.00000 0.00000
  181 0.00000 0.00000 0.00000
  182 0.00000 0.00000 0.00000
  183 0.00000 0.00000 0.00000
  184 0.00000 0.00000 0.00000
  185 0.00000 0.00000 0.00000
  186 0.00000 0.00000 0.00000
  187 0.00000 0.00000 0.00000
  188 0.00000 0.00000 0.00000
  189 0.00000 0.00000 0.00000
  190 0.00000 0.00000 0.00000
  191 0.00000 0.00000 0.00000
  192 0.00000 0.00000 0.00000
  193 0.00000 0.00000 0.00000
  194 0.00000 0.00000 0.00000
  195 0.00000 0.00000 0.00000
  196 0.00000 0.00000 0.00000
  197 0.00000 0.00000 0.00000
  198 0.00000 0.00000 0.00000
  199 0.00000 0.00000 0.00000
  200 0.00000 0.00000 0.00000
  201 0.00000 0.00000 0.00000
  202 0.00000 0.00000 0.00000
  203 0.00000 0.00000 0.00000
  204 0.00000 0.00000 0.00000
  205 0.00000 0.00000 0.00000
  206 0.00000 0.00000 0.00000
  207 0.00000 0.00000 0.00000
  208 0.00000 0.00000 0.00000
  209 0.00000 0.00000 0.00000
  210 0.00000 0.00000 0.00000
  211 0.00000 0.00000 0.00000
  212 0.00000 0.00000 0.00000
  213 0.00000 0.00000 0.00000
  214 0.00000 0.00000 0.00000
  215 0.00000 0.00000 0.00000
  216 0.00000 0.00000 0.00000
  217 0.00000 0.00000 0.00000
  218 0.00000 0.00000 0.00000
  219 0.00000 0.00000 0.00000
  220 0.00000 0.00000 0.00000
  221 0.00000 0.00000 0.00000
  222 0.00000 0.00000 0.00000
  223 0.00000 0.00000 0.00000
  224 0.00000 0.00000 0.00000
  225 0.00000 0.00000 0.00000
  226 0.00000 0.00000 0.00000
  227 0.00000 0.00000 0.00000
  228 0.00000 0.00000 0.00000
  229 0.00000 0.00000 0.00000
  230 0.00000 0.00000 0.00000
  231 0.00000 0.00000 0.00000
  232 0.00000 0.00000 0.00000
  233 0.00000 0.00000 0.00000
  234 0.00000 0.00000 0.00000
  235 0.00000 0.00000 0.00000
  236 0.00000 0.00000 0.00000
  237 0.00000 0.00000 0.00000
  238 0.00000 0.00000 0.00000
  239 0.00000 0.00000 0.00000
  240 0.00000 0.00000 0.00000
  241 0.00000 0.00000 0.00000
  242 0.00000 0.00000 0.00000
  243 0.00000 0.00000 0.00000
  244 0.00000 0.00000 0.00000
  245 0.00000 0.00000 0.00000
  246 0.00000 0.00000 0.00000
  247 0.00000 0.00000 0.00000
  248 0.00000 0.00000 0.00000
  249 0.00000 0.00000 0.00000
  250 0.00000 0.00000 0.00000
  251 0.00000 0.00000 0.00000
  252 0.00000 0.00000 0.00000
  253 0.00000 0.00000 0.00000
  254 0.00000 0.00000 0.00000
  255 0.00000 0.00000 0.00000
  256 0.00000 0.00000 0.00000
  257 0.00000 0.00000 0.00000
  258 0.00000 0.00000 0.00000
  259 0.00000 0.00000 0.00000
  260 0.00000 0.00000 0.00000
  261 0.00000 0.00000 0.00000
  262 0.00000 0.00000 0.00000
  263 0.00000 0.00000 0.00000
  264 0.00000 0.00000 0.00000
  265 0.00000 0.00000 0.00000
  266 0.00000 0.00000 0.00000
  267 0.00000 0.00000 0.00000
  268 0.00000 0.00000 0.00000
  269 0.00000 0.00000 0.00000
  270 0.00000 0.00000 0.00000
  271 0.00000 0.00000 0.00000
  272 0.00000 0.00000 0.00000
  273 0.00000 0.00000 0.00000
  274 0.00000 0.00000 0.00000
  275 0.00000 0.00000 0.00000
  276 0.00000 0.00000 0.00000
  277 0.00000 0.00000 0.00000
  278 0.00000 0.00000 0.00000
  279 0.00000 0.00000 0.00000
  280 0.00000 0.00000 0.00000
  281 0.00000 0.00000 0.00000
  282 0.00000 0.00000 0.00000
  283 0.00000 0.00000 0.00000
  284 0.00000 0.00000 0.00000
  285 0.00000 0.00000 0.00000
  286 0.00000 0.00000 0.00000
  287 0.00000 0.00000 0.00000
  288 0.00000 0.00000 0.00000
  289 0.00000 0.00000 0.00000
  290 0.00000 0.00000 0.00000
  291 0.00000 0.00000 0.00000
  292 0.00000 0.00000 0.00000
  293 0.00000 0.00000 0.00000
  294 0.00000 0.00000 0.00000
  295 0.00000 0.00000 0.00000
  296 0.00000 0.00000 0.00000
  297 0.00000 0.00000 0.00000
  298 0.00000 0.00000 0.00000
  299 0.00000 0.00000 0.00000
  300 0.00000 0.00000 0.00000
  301 0.00000 0.00000 0.00000
  302 0.00000 0.00000 0.00000
  303 0.00000 0.00000 0.00000
  304 0.00000 0.00000 0.00000
  305 0.00000 0.00000 0.00000
  306 0.00000 0.00000 0.00000
  307 0.00000 0.00000 0.00000
  308 0.00000 0.00000 0.00000
  309 0.00000 0.00000 0.00000
  310 0.00000 0.00000 0.00000
  311 0.00000 0.00000 0.00000
  312 0.00000 0.00000 0.00000
  313 0.00000 0.00000 0.00000
  314 0.00000 0.00000 0.00000
  315 0.00000 0.00000 0.00000
  316 0.00000 0.00000 0.00000
  317 0.00000 0.00000 0.00000
  318 0.00000 0.00000 0.00000
  319 0.00000 0.00000 0.00000
  320 0.00000 0.00000 0.00000
  321 0.00000 0.00000 0.00000
  322 0.00000 0.00000 0.00000
  323 0.00000 0.00000 0.00000
  324 0.00000 0.00000 0.00000
  325 0.00000 0.00000 0.00000
  326 0.00000 0.00000 0.00000
  327 0.00000 0.00000 0.00000
  328 0.00000 0.00000 0.00000
  329 0.00000 0.00000 0.00000
  330 0.00000 0.00000 0.00000
  331 0.00000 0.00000 0.00000
  332 0.00000 0.00000 0.00000
  333 0.00000 0.00000 0.00000
  334 0.00000 0.00000 0.00000
  335 0.00000 0.00000 0.00000
  336 0.00000 0.00000 0.00000
  337 0.00000 0.00000 0.00000
  338 0.00000 0.00000 0.00000
  339 0.00000 0.00000 0.00000
  340 0.00000 0.00000 0.00000
  341 0.00000 0.00000 0.00000
  342 0.00000 0.00000 0.00000
  343 0.00000 0.00000 0.00000
  344 0.00000 0.00000 0.00000
  345 0.00000 0.00000 0.00000
  346 0.00000 0.00000 0.00000
  347 0.00000 0.00000 0.00000
  348 0.00000 0.00000 0.00000
  349 0.00000 0.00000 0.00000
  350 0.00000 0.00000 0.00000
  351 0.00000 0.00000 0.00000
  352 0.00000 0.00000 0.00000
  353 0.00000 0.00000 0.00000
  354 0.00000 0.00000 0.00000
  355 0.00000 0.00000 0.00000
  356 0.00000 0.00000 0.00000
  357 0.00000 0.00000 0.00000
  358 0.00000 0.00000 0.00000
  359 0.00000 0.00000 0.00000
  360 0.00000 0.00000 0.00000
  361 0.00000 0.00000 0.00000
  362 0.00000 0.00000 0.00000
  363 0.00000 0.00000 0.00000
  364 0.00000 0.00000 0.00000
  365 0.00000 0.00000 0.00000
  366 0.00000 0.00000 0.00000
  367 0.00000 0.00000 0.00000
  368 0.00000 0.00000 0.00000
  369 0.00000 0.00000 0.00000
  370 0.00000 0.00000 0.00000
  371 0.00000 0.00000 0.00000
  372 0.00000 0.00000 0.00000
  373 0.00000 0.00000 0.00000
  374 0.00000 0.00000 0.00000
  375 0.00000 0.00000 0.00000
  376 0.00000 0.00000 0.00000
  377 0.00000 0.00000 0.00000
  378 0.00000 0.00000 0.00000
  379 0.00000 0.00000 0.00000
  380 0.00000 0.00000 0.00000
  381 0.00000 0.00000 0.00000
  382 0.00000 0.00000 0.00000
  383 0.00000 0.00000 0.00000
  384 0.00000 0.00000 0.00000
  385 0.00000 0.00000 0.00000
  386 0.00000 0.00000 0.00000
  387 0.00000 0.00000 0.00000
  388 0.00000 0.00000 0.00000
  389 0.00000 0.00000 0.00000
  390 0.00000 0.00000 0.00000
  391 0.00000 0.00000 0.00000
  392 0.00000 0.00000 0.00000
  393 0.00000 0.00000 0.00000
  394 0.00000 0.00000 0.00000
  395 0.00000 0.00000 0.00000
  396 0.00000 0.00000 0.00000
  397 0.00000 0.00000 0.00000
  398 0.00000 0.00000 0.00000
  399 0.00000 0.00000 0.00000
  400 0.00000 0.00000 0.00000
  401 0.00000 0.00000 0.00000
  402 0.00000 0.00000 0.00000
  403 0.00000 0.00000 0.00000
  404 0.00000 0.00000 0.00000
  405 0.00000 0.00000 0.00000
  406 0.00000 0.00000 0.00000
  407 0.00000 0.00000 0.00000
  408 0.00000 0.00000 0.00000
  409 0.00000 0.00000 0.00000
  410 0.00000 0.00000 0.00000
  411 0.00000 0.00000 0.00000
  412 0.00000 0.00000 0.00000
  413 0.00000 0.00000 0.00000
  414 0.00000 0.00000 0.00000
  415 0.00000 0.00000 0.00000
  416 0.00000 0.00000 0.00000
  417 0.00000 0.00000 0.00000
  418 0.00000 0.00000 0.00000
  419 0.00000 0.00000 0.00000
  420 0.00000 0.00000 0.00000
  421 0.00000 0.00000 0.00000
  422 0.00000 0.00000 0.00000
  423 0.00000 0.00000 0.00000
  424 0.00000 0.00000 0.00000
  425 0.00000 0.00000 0.00000
  426 0.00000 0.00000 0.00000
  427 0.00000 0.00000 0.00000
  428 0.00000 0.00000 0.00000
  429 0.00000 0.00000 0.00000
  430 0.00000 0.00000 0.00000
  431 0.00000 0.00000 0.00000
  432 0.00000 0.00000 0.00000
  433 0.00000 0.00000 0.00000
  434 0.00000 0.00000 0.00000
  435 0.00000 0.00000 0.00000
  436 0.00000 0.00000 0.00000
  437 0.00000 0.00000 0.00000
  438 0.00000 0.00000 0.00000
  439 0.00000 0.00000 0.00000
  440 0.00000 0.00000 0.00000
  441 0.00000 0.00000 0.00000
  442 0.00000 0.00000 0.00000
  443 0.00000 0.00000 0.00000
  444 0.00000 0.00000 0.00000
  445 0.00000 0.00000 0.00000
  446 0.00000 0.00000 0.00000
  447 0.00000 0.00000 0.00000
  448 0.00000 0.00000 0.00000
  449 0.00000 0.00000 0.00000
  450 0.00000 0.00000 0.00000
  451 0.00000 0.00000 0.00000
  452 0.00000 0.00000 0.00000
  453 0.00000 0.00000 0.00000
  454 0.00000 0.00000 0.00000
  455 0.00000 0.00000 0.00000
  456 0.00000 0.00000 0.00000
  457 0.00000 0.00000 0.00000
  458 0.00000 0.00000 0.00000
  459 0.00000 0.00000 0.00000
  460 0.00000 0.00000 0.00000
  461 0.00000 0.00000 0.00000
  462 0.00000 0.00000 0.00000
  463 0.00000 0.00000 0.00000
  464 0.00000 0.00000 0.00000
  465 0.00000 0.00000 0.00000
  466 0.00000 0.00000 0.00000
  467 0.00000 0.00000 0.00000
  468 0.00000 0.00000 0.00000
  469 0.00000 0.00000 0.00000
  470 0.00000 0.00000 0.00000
  471 0.00000 0.00000 0.00000
  472 0.00000 0.00000 0.00000
  473 0.00000 0.00000 0.00000
  474 0.00000 0.00000 0.00000
  475 0.00000 0.00000 0.00000
  476 0.00000 0.00000 0.00000
  477 0.00000 0.00000 0.00000
  478 0.00000 0.00000 0.00000
  479 0.00000 0.00000 0.00000
  480 0.00000 0.00000 0.00000
  481 0.00000 0.00000 0.00000
  482 0.00000 0.00000 0.00000
  483 0.00000 0.00000 0.00000
  484 0.00000 0.00000 0.00000
  485 0.00000 0.00000 0.00000
  486 0.00000 0.00000 0.00000
  487 0.00000 0.00000 0.00000
  488 0.00000 0.00000 0.00000
  489 0.00000 0.00000 0.00000
  490 0.00000 0.00000 0.00000
  491 0.00000 0.00000 0.00000
  492 0.00000 0.00000 0.00000
  493 0.00000 0.00000 0.00000
  494 0.00000 0.00000 0.00000
  495 0.00000 0.00000 0.00000
  496 0.00000 0.00000 0.00000
  497 0.00000 0.00000 0.00000
  498 0.00000 0.00000 0.00000
  499 0.00000 0.00000 0.00000
  500 0.00000 0.00000 0.00000
  501 0.00000 0.00000 0.00000
  502 0.00000 0.00000 0.00000
  503 0.00000 0.00000 0.00000
  504 0.00000 0.00000 0.00000
  505 0.00000 0.00000 0.00000
  506 0.00000 0.00000 0.00000
  507 0.00000 0.00000 0.00000
  508 0.00000 0.00000 0.00000
  509 0.00000 0.00000 0.00000
  510 0.00000 0.00000 0.00000
  511 0.00000 0.00000 0.00000
  512 0.00000 0.00000 0.00000
  513 0.00000 0.00000 0.00000
  514 0.00000 0.00000 0.00000
  515 0.00000 0.00000 0.00000
  516 0.00000 0.00000 0.00000
  517 0.00000 0.00000 0.00000
  518 0.00000 0.00000 0.00000
  519 0.00000 0.00000 0.00000
  520 0.00000 0.00000 0.00000
  521 0.00000 0.00000 0.00000
  522 0.00000 0.00000 0.00000
  523 0.00000 0.00000 0.00000
  524 0.00000 0.00000 0.00000
  525 0.00000 0.00000 0.00000
  526 0.00000 0.00000 0.00000
  527 0.00000 0.00000 0.00000
  528 0.00000 0.00000 0.00000
  529 0.00000 0.00000 0.00000
  530 0.00000 0.00000 0.00000
  531 0.00000 0.00000 0.00000
  532 0.00000 0.00000 0.00000
  533 0.00000 0.00000 0.00000
  534 0.00000 0.00000 0.00000
  535 0.00000 0.00000 0.00000
  536 0.00000 0.00000 0.00000
  537 0.00000 0.00000 0.00000
  538 0.00000 0.00000 0.00000
  539 0.00000 0.00000 0.00000
  540 0.00000 0.00000 0.00000
  541 0.00000 0.00000 0.00000
  542 0.00000 0.00000 0.00000
  543 0.00000 0.00000 0.00000
  544 0.00000 0.00000 0.00000
  545 0.00000 0.00000 0.00000
  546 0.00000 0.00000 0.00000
  547 0.00000 0.00000 0.00000
  548 0.00000 0.00000 0.00000
  549 0.00000 0.00000 0.00000
  550 0.00000 0.00000 0.00000
  551 0.00000 0.00000 0.00000
  552 0.00000 0.00000 0.00000
  553 0.00000 0.00000 0.00000
  554 0.00000 0.00000 0.00000
  555 0.00000 0.00000 0.00000
  556 0.00000 0.00000 0.00000
  557 0.00000 0.00000 0.00000
  558 0.00000 0.00000 0.00000
  559 0.00000 0.00000 0.00000
  560 0.00000 0.00000 0.00000
  561 0.00000 0.00000 0.00000
  562 0.00000 0.00000 0.00000
  563 0.00000 0.00000 0.00000
  564 0.00000 0.00000 0.00000
  565 0.00000 0.00000 0.00000
  566 0.00000 0.00000 0.00000
  567 0.00000 0.00000 0.00000
  568 0.00000 0.00000 0.00000
  569 0.00000 0.00000 0.00000
  570 0.00000 0.00000 0.00000
  571 0.00000 0.00000 0.00000
  572 0.00000 0.00000 0.00000
  573 0.00000 0.00000 0.00000
  574 0.00000 0.00000 0.00000
  575 0.00000 0.00000 0.00000
  576 0.00000 0.00000 0.00000
  577 0.00000 0.00000 0.00000
  578 0.00000 0.00000 0.00000
  579 0.00000 0.00000 0.00000
  580 0.00000 0.00000 0.00000
  581 0.00000 0.00000 0.00000
  582 0.00000 0.00000 0.00000
  583 0.00000 0.00000 0.00000
  584 0.00000 0.00000 0.00000
  585 0.00000 0.00000 0.00000
  586 0.00000 0.00000 0.00000
  587 0.00000 0.00000 0.00000
  588 0.00000 0.00000 0.00000
  589 0.00000 0.00000 0.00000
  590 0.00000 0.00000 0.00000
  591 0.00000 0.00000 0.00000
  592 0.00000 0.00000 0.00000
  593 0.00000 0.00000 0.00000
  594 0.00000 0.00000 0.00000
  595 0.00000 0.00000 0.00000
  596 0.00000 0.00000 0.00000
  597 0.00000 0.00000 0.00000
  598 0.00000 0.00000 0.00000
  599 0.00000 0.00000 0.00000
  600 0.00000 0.00000 0.00000
  601 0.00000 0.00000 0.00000
  602 0.00000 0.00000 0.00000
  603 0.00000 0.00000 0.00000
  604 0.00000 0.00000 0.00000
  605 0.00000 0.00000 0.00000
  606 0.00000 0.00000 0.00000
  607 0.00000 0.00000 0.00000
  608 0.00000 0.00000 0.00000
  609 0.00000 0.00000 0.00000
  610 0.00000 0.00000 0.00000
  611 0.00000 0.00000 0.00000
  612 0.00000 0.00000 0.00000
  613 0.00000 0.00000 0.00000
  614 0.00000 0.00000 0.00000
  615 0.00000 0.00000 0.00000
  616 0.00000 0.00000 0.00000
  617 0.00000 0.00000 0.00000
  618 0.00000 0.00000 0.00000
  619 0.00000 0.00000 0.00000
  620 0.00000 0.00000 0.00000
  621 0.00000 0.00000 0.00000
  622 0.00000 0.00000 0.00000
  623 0.00000 0.00000 0.00000
  624 0.00000 0.00000 0.00000
  625 0.00000 0.00000 0.00000
  626 0.00000 0.00000 0.00000
  627 0.00000 0.00000 0.00000
  628 0.00000 0.00000 0.00000
  629 0.00000 0.00000 0.00000
  630 0.00000 0.00000 0.00000
  631 0.00000 0.00000 0.00000
  632 0.00000 0.00000 0.00000
  633 0.00000 0.00000 0.00000
  634 0.00000 0.00000 0.00000
  635 0.00000 0.00000 0.00000
  636 0.00000 0.00000 0.00000
  637 0.00000 0.00000 0.00000
  638 0.00000 0.00000 0.00000
  639 0.00000 0.00000 0.00000
  640 0.00000 0.00000 0.00000
  641 0.00000 0.00000 0.00000
  642 0.00000 0.00000 0.00000
  643 0.00000 0.00000 0.00000
  644 0.00000 0.00000 0.00000
  645 0.00000 0.00000 0.00000
  646 0.00000 0.00000 0.00000
  647 0.00000 0.00000 0.00000
  648 0.00000 0.00000 0.00000
  649 0.00000 0.00000 0.00000
  650 0.00000 0.00000 0.00000
  651 0.00000 0.00000 0.00000
  652 0.00000 0.00000 0.00000
  653 0.00000 0.00000 0.00000
  654 0.00000 0.00000 0.00000
  655 0.00000 0.00000 0.00000
  656 0.00000 0.00000 0.00000
  657 0.00000 0.00000 0.00000
  658 0.00000 0.00000 0.00000
  659 0.00000 0.00000 0.00000
  660 0.00000 0.00000 0.00000
  661 0.00000 0.00000 0.00000
  662 0.00000 0.00000 0.00000
  663 0.00000 0.00000 0.00000
  664 0.00000 0.00000 0.00000
  665 0.00000 0.00000 0.00000
  666 0.00000 0.00000 0.00000
  667 0.00000 0.00000 0.00000
  668 0.00000 0.00000 0.00000
  669 0.00000 0.00000 0.00000
  670 0.00000 0.00000 0.00000
  671 0.00000 0.00000 0.00000
  672 0.00000 0.00000 0.00000
  673 0.00000 0.00000 0.00000
  674 0.00000 0.00000 0.00000
  675 0.00000 0.00000 0.00000
  676 0.00000 0.00000 0.00000
  677 0.00000 0.00000 0.00000
  678 0.00000 0.00000 0.00000
  679 0.00000 0.00000 0.00000
  680 0.00000 0.00000 0.00000
  681 0.00000 0.00000 0.00000
  682 0.00000 0.00000 0.00000
  683 0.00000 0.00000 0.00000
  684 0.00000 0.00000 0.00000
  685 0.00000 0.00000 0.00000
  686 0.00000 0.00000 0.00000
  687 0.00000 0.00000 0.00000
  688 0.00000 0.00000 0.00000
  689 0.00000 0.00000 0.00000
  690 0.00000 0.00000 0.00000
  691 0.00000 0.00000 0.00000
  692 0.00000 0.00000 0.00000
  693 0.00000 0.00000 0.00000
  694 0.00000 0.00000 0.00000
  695 0.00000 0.00000 0.00000
  696 0.00000 0.00000 0.00000
  697 0.00000 0.00000 0.00000
  698 0.00000 0.00000 0.00000
  699 0.00000 0.00000 0.00000
  700 0.00000 0.00000 0.00000
  701 0.00000 0.00000 0.00000
  702 0.00000 0.00000 0.00000
  703 0.00000 0.00000 0.00000
  704 0.00000 0.00000 0.00000
  705 0.00000 0.00000 0.00000
  706 0.00000 0.00000 0.00000
  707 0.00000 0.00000 0.00000
  708 0.00000 0.00000 0.00000
  709 0.00000 0.00000 0.00000
  710 0.00000 0.00000 0.00000
  711 0.00000 0.00000 0.00000
  712 0.00000 0.00000 0.00000
  713 0.00000 0.00000 0.00000
  714 0.00000 0.00000 0.00000
  715 0.00000 0.00000 0.00000
  716 0.00000 0.00000 0.00000
  717 0.00000 0.00000 0.00000
  718 0.00000 0.00000 0.00000
  719 0.00000 0.00000 0.00000
  720 0.00000 0.00000 0.00000
  721 0.00000 0.00000 0.00000
  722 0.00000 0.00000 0.00000
  723 0.00000 0.00000 0.00000
  724 0.00000 0.00000 0.00000
  725 0.00000 0.00000 0.00000
  726 0.00000 0.00000 0.00000
  727 0.00000 0.00000 0.00000
  728 0.00000 0.00000 0.00000
  729 0.00000 0.00000 0.00000
  730 0.00000 0.00000 0.00000
  731 0.00000 0.00000 0.00000
  732 0.00000 0.00000 0.00000
  733 0.00000 0.00000 0.00000
  734 0.00000 0.00000 0.00000
  735 0.00000 0.00000 0.00000
  736 0.00000 0.00000 0.00000
  737 0.00000 0.00000 0.00000
  738 0.00000 0.00000 0.00000
  739 0.00000 0.00000 0.00000
  740 0.00000 0.00000 0.00000
  741 0.00000 0.00000 0.00000
  742 0.00000 0.00000 0.00000
  743 0.00000 0.00000 0.00000
  744 0.00000 0.00000 0.00000
  745 0.00000 0.00000 0.00000
  746 0.00000 0.00000 0.00000
  747 0.00000 0.00000 0.00000
  748 0.00000 0.00000 0.00000
  749 0.00000 0.00000 0.00000
  750 0.00000 0.00000 0.00000
  751 0.00000 0.00000 0.00000
  752 0.00000 0.00000 0.00000
  753 0.00000 0.00000 0.00000
  754 0.00000 0.00000 0.00000
  755 0.00000 0.00000 0.00000
  756 0.00000 0.00000 0.00000
  757 0.00000 0.00000 0.00000
  758 0.00000 0.00000 0.00000
  759 0.00000 0.00000 0.00000
  760 0.00000 0.00000 0.00000
  761 0.00000 0.00000 0.00000
  762 0.00000 0.00000 0.00000
  763 0.00000 0.00000 0.00000
  764 0.00000 0.00000 0.00000
  765 0.00000 0.00000 0.00000
  766 0.00000 0.00000 0.00000
  767 0.00000 0.00000 0.00000
  768 0.00000 0.00000 0.00000
  769 0.00000 0.00000 0.00000
  770 0.00000 0.00000 0.00000
  771 0.00000 0.00000 0.00000
  772 0.00000 0.00000 0.00000
  773 0.00000 0.00000 0.00000
  774 0.00000 0.00000 0.00000
  775 0.00000 0.00000 0.00000
  776 0.00000 0.00000 0.00000
  777 0.00000 0.00000 0.00000
  778 0.00000 0.00000 0.00000
  779 0.00000 0.00000 0.00000
  780 0.00000 0.00000 0.00000
  781 0.00000 0.00000 0.00000
  782 0.00000 0.00000 0.00000
  783 0.00000 0.00000 0.00000
  784 0.00000 0.00000 0.00000
  785 0.00000 0.00000 0.00000
  786 0.00000 0.00000 0.00000
  787 0.00000 0.00000 0.00000
  788 0.00000 0.00000 0.00000
  789 0.00000 0.00000 0.00000
  790 0.00000 0.00000 0.00000
  791 0.00000 0.00000 0.00000
  792 0.00000 0.00000 0.00000
  793 0.00000 0.00000 0.00000
  794 0.00000 0.00000 0.00000
  795 0.00000 0.00000 0.00000
  796 0.00000 0.00000 0.00000
  797 0.00000 0.00000 0.00000
  798 0.00000 0.00000 0.00000
  799 0.00000 0.00000 0.00000
  800 0.00000 0.00000 0.00000
  801 0.00000 0.00000 0.00000
  802 0.00000 0.00000 0.00000
  803 0.00000 0.00000 0.00000
  804 0.00000 0.00000 0.00000
  805 0.00000 0.00000 0.00000
  806 0.00000 0.00000 0.00000
  807 0.00000 0.00000 0.00000
  808 0.00000 0.00000 0.00000
  809 0.00000 0.00000 0.00000
  810 0.00000 0.00000 0.00000
  811 0.00000 0.00000 0.00000
  812 0.00000 0.00000 0.00000
  813 0.00000 0.00000 0.00000
  814 0.00000 0.00000 0.00000
  815 0.00000 0.00000 0.00000
  816 0.00000 0.00000 0.00000
  817 0.00000 0.00000 0.00000
  818 0.00000 0.00000 0.00000
  819 0.00000 0.00000 0.00000
  820 0.00000 0.00000 0.00000
  821 0.00000 0.00000 0.00000
  822 0.00000 0.00000 0.00000
  823 0.00000 0.00000 0.00000
  824 0.00000 0.00000 0.00000
  825 0.00000 0.00000 0.00000
  826 0.00000 0.00000 0.00000
  827 0.00000 0.00000 0.00000
  828 0.00000 0.00000 0.00000
  829 0.00000 0.00000 0.00000
  830 0.00000 0.00000 0.00000
  831 0.00000 0.00000 0.00000
  832 0.00000 0.00000 0.00000
  833 0.00000 0.00000 0.00000
  834 0.00000 0.00000 0.00000
  835 0.00000 0.00000 0.00000
  836 0.00000 0.00000 0.00000
  837 0.00000 0.00000 0.00000
  838 0.00000 0.00000 0.00000
  839 0.00000 0.00000 0.00000
  840 0.00000 0.00000 0.00000
  841 0.00000 0.00000 0.00000
  842 0.00000 0.00000 0.00000
  843 0.00000 0.00000 0.00000
  844 0.00000 0.00000 0.00000
  845 0.00000 0.00000 0.00000
  846 0.00000 0.00000 0.00000
  847 0.00000 0.00000 0.00000
  848 0.00000 0.00000 0.00000
  849 0.00000 0.00000 0.00000
  850 0.00000 0.00000 0.00000
  851 0.00000 0.00000 0.00000
  852 0.00000 0.00000 0.00000
  853 0.00000 0.00000 0.00000
  854 0.00000 0.00000 0.00000
  855 0.00000 0.00000 0.00000
  856 0.00000 0.00000 0.00000
  857 0.00000 0.00000 0.00000
  858 0.00000 0.00000 0.00000
  859 0.00000 0.00000 0.00000
  860 0.00000 0.00000 0.00000
  861 0.00000 0.00000 0.00000
  862 0.00000 0.00000 0.00000
  863 0.00000 0.00000 0.00000
  864 0.00000 0.00000 0.00000
  865 0.00000 0.00000 0.00000
  866 0.00000 0.00000 0.00000
  867 0.00000 0.00000 0.00000
  868 0.00000 0.00000 0.00000
  869 0.00000 0.00000 0.00000
  870 0.00000 0.00000 0.00000
  871 0.00000 0.00000 0.00000
  872 0.00000 0.00000 0.00000
  873 0.00000 0.00000 0.00000
  874 0.00000 0.00000 0.00000
  875 0.00000 0.00000 0.00000
  876 0.00000 0.00000 0.00000
  877 0.00000 0.00000 0.00000
  878 0.00000 0.00000 0.00000
  879 0.00000 0.00000 0.00000
  880 0.00000 0.00000 0.00000
  881 0.00000 0.00000 0.00000
  882 0.00000 0.00000 0.00000
  883 0.00000 0.00000 0.00000
  884 0.00000 0.00000 0.00000
  885 0.00000 0.00000 0.00000
  886 0.00000 0.00000 0.00000
  887 0.00000 0.00000 0.00000
  888 0.00000 0.00000 0.00000
  889 0.00000 0.00000 0.00000
  890 0.00000 0.00000 0.00000
  891 0.00000 0.00000 0.00000
  892 0.00000 0.00000 0.00000
  893 0.00000 0.00000 0.00000
  894 0.00000 0.00000 0.00000
  895 0.00000 0.00000 0.00000
  896 0.00000 0.00000 0.00000
  897 0.00000 0.00000 0.00000
  898 0.00000 0.00000 0.00000
  899 0.00000 0.00000 0.00000
  900 0.00000 0.00000 0.00000
  901 0.00000 0.00000 0.00000
  902 0.00000 0.00000 0.00000
  903 0.00000 0.00000 0.00000
  904 0.00000 0.00000 0.00000
  905 0.00000 0.00000 0.00000
  906 0.00000 0.00000 0.00000
  907 0.00000 0.00000 0.00000
  908 0.00000 0.00000 0.00000
  909 0.00000 0.00000 0.00000
  910 0.00000 0.00000 0.00000
  911 0.00000 0.00000 0.00000
  912 0.00000 0.00000 0.00000
  913 0.00000 0.00000 0.00000
  914 0.00000 0.00000 0.00000
  915 0.00000 0.00000 0.00000
  916 0.00000 0.00000 0.00000
  917 0.00000 0.00000 0.00000
  918 0.00000 0.00000 0.00000
  919 0.00000 0.00000 0.00000
  920 0.00000 0.00000 0.00000
  921 0.00000 0.00000 0.00000
  922 0.00000 0.00000 0.00000
  923 0.00000 0.00000 0.00000
  924 0.00000 0.00000 0.00000
  925 0.00000 0.00000 0.00000
  926 0.00000 0.00000 0.00000
  927 0.00000 0.00000 0.00000
  928 0.00000 0.00000 0.00000
  929 0.00000 0.00000 0.00000
  930 0.00000 0.00000 0.00000
  931 0.00000 0.00000 0.00000
  932 0.00000 0.00000 0.00000
  933 0.00000 0.00000 0.00000
  934 0.00000 0.00000 0.00000
  935 0.00000 0.00000 0.00000
  936 0.00000 0.00000 0.00000
  937 0.00000 0.00000 0.00000
  938 0.00000 0.00000 0.00000
  939 0.00000 0.00000 0.00000
  940 0.00000 0.00000 0.00000
  941 0.00000 0.00000 0.00000
  942 0.00000 0.00000 0.00000
  943 0.00000 0.00000 0.00000
  944 0.00000 0.00000 0.00000
  945 0.00000 0.00000 0.00000
  946 0.00000 0.00000 0.00000
  947 0.00000 0.00000 0.00000
  948 0.00000 0.00000 0.00000
  949 0.00000 0.00000 0.00000
  950 0.00000 0.00000 0.00000
  951 0.00000 0.00000 0.00000
  952 0.00000 0.00000 0.00000
  953 0.00000 0.00000 0.00000
  954 0.00000 0.00000 0.00000
  955 0.00000 0.00000 0.00000
  956 0.00000 0.00000 0.00000
  957 0.00000 0.00000 0.00000
  958 0.00000 0.00000 0.00000
  959 0.00000 0.00000 0.00000
  960 0.00000 0.00000 0.00000
  961 0.00000 0.00000 0.00000
  962 0.00000 0.00000 0.00000
  963 0.00000 0.00000 0.00000
  964 0.00000 0.00000 0.00000
  965 0.00000 0.00000 0.00000
  966 0.00000 0.00000 0.00000
  967 0.00000 0.00000 0.00000
  968 0.00000 0.00000 0.00000
  969 0.00000 0.00000 0.00000
  970 0.00000 0.00000 0.00000
  971 0.00000 0.00000 0.00000
  972 0.00000 0.00000 0.00000
  973 0.00000 0.00000 0.00000
  974 0.00000 0.00000 0.00000
  975 0.00000 0.00000 0.00000
  976 0.00000 0.00000 0.00000
  977 0.00000 0.00000 0.00000
  978 0.00000 0.00000 0.00000
  979 0.00000 0.00000 0.00000
  980 0.00000 0.00000 0.00000
  981 0.00000 0.00000 0.00000
  982 0.00000 0.00000 0.00000
  983 0.00000 0.00000 0.00000
  984 0.00000 0.00000 0.00000
  985 0.00000 0.00000 0.00000
  986 0.00000 0.00000 0.00000
  987 0.00000 0.00000 0.00000
  988 0.00000 0.00000 0.00000
  989 0.00000 0.00000 0.00000
  990 0.00000 0.00000 0.00000
  991 0.00000 0.00000 0.00000
  992 0.00000 0.00000 0.00000
  993 0.00000 0.00000 0.00000
  994 0.00000 0.00000 0.00000
  995 0.00000 0.00000 0.00000
  996 0.00000 0.00000 0.00000
  997 0.00000 0.00000 0.00000
  998 0.00000 0.00000 0.00000
  999 0.00000 0.00000 0.00000
  1000 0.00000 0.00000 0.00000
  1001 0.00000 0.00000 0.00000
  1002 0.00000 0.00000 0.00000
  1003 0.00000 0.00000 0.00000
  1004 0.00000 0.00000 0.00000
  1005 0.00000 0.00000 0.00000
  1006 0.00000 0.00000 0.00000
  1007 0.00000 0.00000 0.00000
  1008 0.00000 0.00000 0.00000
  1009 0.00000 0.00000 0.00000
  1010 0.00000 0.00000 0.00000
  1011 0.00000 0.00000 0.00000
  1012 0.00000 0.00000 0.00000
  1013 0.00000 0.00000 0.00000
  1014 0.00000 0.00000 0.00000
  1015 0.00000 0.00000 0.00000
  1016 0.00000 0.00000 0.00000
  1017 0.00000 0.00000 0.00000
  1018 0.00000 0.00000 0.00000
  1019 0.00000 0.00000 0.00000
  1020 0.00000 0.00000 0.00000
  1021 0.00000 0.00000 0.00000
  1022 0.00000 0.00000 0.00000
  1023 0.00000 0.00000 0.00000
  1024 0.00000 0.00000 0.00000
  1025 0.00000 0.00000 0.00000
  1026 0.00000 0.00000 0.00000
  1027 0.00000 0.00000 0.00000
  1028 0.00000 0.00000 0.00000
  1029 0.00000 0.00000 0.00000
  1030 0.00000 0.00000 0.00000
  1031 0.00000 0.00000 0.00000
  1032 0.00000 0.00000 0.00000
  1033 0.00000 0.00000 0.00000
  1034 0.00000 0.00000 0.00000
  1035 0.00000 0.00000 0.00000
  1036 0.00000 0.00000 0.00000
  1037 0.00000 0.00000 0.00000
  1038 0.00000 0.00000 0.00000
  1039 0.00000 0.00000 0.00000
  1040 0.00000 0.00000 0.00000
  1041 0.00000 0.00000 0.00000
  1042 0.00000 0.00000 0.00000
  1043 0.00000 0.00000 0.00000
  1044 0.00000 0.00000 0.00000
  1045 0.00000 0.00000 0.00000
  1046 0.00000 0.00000 0.00000
  1047 0.00000 0.00000 0.00000
  1048 0.00000 0.00000 0.00000
  1049 0.00000 0.00000 0.00000
  1050 0.00000 0.00000 0.00000
  1051 0.00000 0.00000 0.00000
  1052 0.00000 0.00000 0.00000
  1053 0.00000 0.00000 0.00000
  1054 0.00000 0.00000 0.00000
  1055 0.00000 0.00000 0.00000
  1056 0.00000 0.00000 0.00000
  1057 0.00000 0.00000 0.00000
  1058 0.00000 0.00000 0.00000
  1059 0.00000 0.00000 0.00000
  1060 0.00000 0.00000 0.00000
  1061 0.00000 0.00000 0.00000
  1062 0.00000 0.00000 0.00000
  1063 0.00000 0.00000 0.00000
  1064 0.00000 0.00000 0.00000
  1065 0.00000 0.00000 0.00000
  1066 0.00000 0.00000 0.00000
  1067 0.00000 0.00000 0.00000
  1068 0.00000 0.00000 0.00000
  1069 0.00000 0.00000 0.00000
  1070 0.00000 0.00000 0.00000
  1071 0.00000 0.00000 0.00000
  1072 0.00000 0.00000 0.00000
  1073 0.00000 0.00000 0.00000
  1074 0.00000 0.00000 0.00000
  1075 0.00000 0.00000 0.00000
  1076 0.00000 0.00000 0.00000
  1077 0.00000 0.00000 0.00000
  1078 0.00000 0.00000 0.00000
  1079 0.00000 0.00000 0.00000
  1080 0.00000 0.00000 0.00000
  1081 0.00000 0.00000 0.00000
  1082 0.00000 0.00000 0.00000
  1083 0.00000 0.00000 0.00000
  1084 0.00000 0.00000 0.00000
  1085 0.00000 0.00000 0.00000
  1086 0.00000 0.00000 0.00000
  1087 0.00000 0.00000 0.00000
  1088 0.00000 0.00000 0.00000
  1089 0.00000 0.00000 0.00000
  1090 0.00000 0.00000 0.00000
  1091 0.00000 0.00000 0.00000
  1092 0.00000 0.00000 0.00000
  1093 0.00000 0.00000 0.00000
  1094 0.00000 0.00000 0.00000
  1095 0.00000 0.00000 0.00000
  1096 0.00000 0.00000 0.00000
  1097 0.00000 0.00000 0.00000
  1098 0.00000 0.00000 0.00000
  1099 0.00000 0.00000 0.00000
  1100 0.00000 0.00000 0.00000
  1101 0.00000 0.00000 0.00000
  1102 0.00000 0.00000 0.00000
  1103 0.00000 0.00000 0.00000
  1104 0.00000 0.00000 0.00000
  1105 0.00000 0.00000 0.00000
  1106 0.00000 0.00000 0.00000
  1107 0.00000 0.00000 0.00000
  1108 0.00000 0.00000 0.00000
  1109 0.00000 0.00000 0.00000
  1110 0.00000 0.00000 0.00000
  1111 0.00000 0.00000 0.00000
  1112 0.00000 0.00000 0.00000
  1113 0.00000 0.00000 0.00000
  1114 0.00000 0.00000 0.00000
  1115 0.00000 0.00000 0.00000
  1116 0.00000 0.00000 0.00000
  1117 0.00000 0.00000 0.00000
  1118 0.00000 0.00000 0.00000
  1119 0.00000 0.00000 0.00000
  1120 0.00000 0.00000 0.00000
  1121 0.00000 0.00000 0.00000
  1122 0.00000 0.00000 0.00000
  1123 0.00000 0.00000 0.00000
  1124 0.00000 0.00000 0.00000
  1125 0.00000 0.00000 0.00000
  1126 0.00000 0.00000 0.00000
  1127 0.00000 0.00000 0.00000
  1128 0.00000 0.00000 0.00000
  1129 0.00000 0.00000 0.00000
  1130 0.00000 0.00000 0.00000
  1131 0.00000 0.00000 0.00000
  1132 0.00000 0.00000 0.00000
  1133 0.00000 0.00000 0.00000
  1134 0.00000 0.00000 0.00000
  1135 0.00000 0.00000 0.00000
  1136 0.00000 0.00000 0.00000
  1137 0.00000 0.00000 0.00000
  1138 0.00000 0.00000 0.00000
  1139 0.00000 0.00000 0.00000
  1140 0.00000 0.00000 0.00000
  1141 0.00000 0.00000 0.00000
  1142 0.00000 0.00000 0.00000
  1143 0.00000 0.00000 0.00000
  1144 0.00000 0.00000 0.00000
  1145 0.00000 0.00000 0.00000
  1146 0.00000 0.00000 0.00000
  1147 0.00000 0.00000 0.00000
  1148 0.00000 0.00000 0.00000
  1149 0.00000 0.00000 0.00000
  1150 0.00000 0.00000 0.00000
  1151 0.00000 0.00000 0.00000
  1152 0.00000 0.00000 0.00000
  1153 0.00000 0.00000 0.00000
  1154 0.00000 0.00000 0.00000
  1155 0.00000 0.00000 0.00000
  1156 0.00000 0.00000 0.00000
  1157 0.00000 0.00000 0.00000
  1158 0.00000 0.00000 0.00000
  1159 0.00000 0.00000 0.00000
  1160 0.00000 0.00000 0.00000
  1161 0.00000 0.00000 0.00000
  1162 0.00000 0.00000 0.00000
  1163 0.00000 0.00000 0.00000
  1164 0.00000 0.00000 0.00000
  1165 0.00000 0.00000 0.00000
  1166 0.00000 0.00000 0.00000
  1167 0.00000 0.00000 0.00000
  1168 0.00000 0.00000 0.00000
  1169 0.00000 0.00000 0.00000
  1170 0.00000 0.00000 0.00000
  1171 0.00000 0.00000 0.00000
  1172 0.00000 0.00000 0.00000
  1173 0.00000 0.00000 0.00000
  1174 0.00000 0.00000 0.00000
  1175 0.00000 0.00000 0.00000
  1176 0.00000 0.00000 0.00000
  1177 0.00000 0.00000 0.00000
  1178 0.00000 0.00000 0.00000
  1179 0.00000 0.00000 0.00000
  1180 0.00000 0.00000 0.00000
  1181 0.00000 0.00000 0.00000
  1182 0.00000 0.00000 0.00000
  1183 0.00000 0.00000 0.00000
  1184 0.00000 0.00000 0.00000
  1185 0.00000 0.00000 0.00000
  1186 0.00000 0.00000 0.00000
  1187 0.00000 0.00000 0.00000
  1188 0.00000 0.00000 0.00000
  1189 0.00000 0.00000 0.00000
  1190 0.00000 0.00000 0.00000
  1191 0.00000 0.00000 0.00000
  1192 0.00000 0.00000 0.00000
  1193 0.00000 0.00000 0.00000
  1194 0.00000 0.00000 0.00000
  1195 0.00000 0.00000 0.00000
  1196 0.00000 0.00000 0.00000
  1197 0.00000 0.00000 0.00000
  1198 0.00000 0.00000 0.00000
  1199 0.00000 0.00000 0.00000
  1200 0.00000 0.00000 0.00000
  1201 0.00000 0.00000 0.00000
  1202 0.00000 0.00000 0.00000
  1203 0.00000 0.00000 0.00000
  1204 0.00000 0.00000 0.00000
  1205 0.00000 0.00000 0.00000
  1206 0.00000 0.00000 0.00000
  1207 0.00000 0.00000 0.00000
  1208 0.00000 0.00000 0.00000
  1209 0.00000 0.00000 0.00000
  1210 0.00000 0.00000 0.00000
  1211 0.00000 0.00000 0.00000
  1212 0.00000 0.00000 0.00000
  1213 0.00000 0.00000 0.00000
  1214 0.00000 0.00000 0.00000
  1215 0.00000 0.00000 0.00000
  1216 0.00000 0.00000 0.00000
  1217 0.00000 0.00000 0.00000
  1218 0.00000 0.00000 0.00000
  1219 0.00000 0.00000 0.00000
  1220 0.00000 0.00000 0.00000
  1221 0.00000 0.00000 0.00000
  1222 0.00000 0.00000 0.00000
  1223 0.00000 0.00000 0.00000
  1224 0.00000 0.00000 0.00000
  1225 0.00000 0.00000 0.00000
  1226 0.00000 0.00000 0.00000
  1227 0.00000 0.00000 0.00000
  1228 0.00000 0.00000 0.00000
  1229 0.00000 0.00000 0.00000
  1230 0.00000 0.00000 0.00000
  1231 0.00000 0.00000 0.00000
  1232 0.00000 0.00000 0.00000
  1233 0.00000 0.00000 0.00000
  1234 0.00000 0.00000 0.00000
  1235 0.00000 0.00000 0.00000
  1236 0.00000 0.00000 0.00000
  1237 0.00000 0.00000 0.00000
  1238 0.00000 0.00000 0.00000
  1239 0.00000 0.00000 0.00000
  1240 0.00000 0.00000 0.00000
  1241 0.00000 0.00000 0.00000
  1242 0.00000 0.00000 0.00000
  1243 0.00000 0.00000 0.00000
  1244 0.00000 0.00000 0.00000
  1245 0.00000 0.00000 0.00000
  1246 0.00000 0.00000 0.00000
  1247 0.00000 0.00000 0.00000
  1248 0.00000 0.00000 0.00000
  1249 0.00000 0.00000 0.00000
  1250 0.00000 0.00000 0.00000
  1251 0.00000 0.00000 0.00000
  1252 0.00000 0.00000 0.00000
  1253 0.00000 0.00000 0.00000
  1254 0.00000 0.00000 0.00000
  1255 0.00000 0.00000 0.00000
  1256 0.00000 0.00000 0.00000
  1257 0.00000 0.00000 0.00000
  1258 0.00000 0.00000 0.00000
  1259 0.00000 0.00000 0.00000
  1260 0.00000 0.00000 0.00000
  1261 0.00000 0.00000 0.00000
  1262 0.00000 0.00000 0.00000
  1263 0.00000 0.00000 0.00000
  1264 0.00000 0.00000 0.00000
  1265 0.00000 0.00000 0.00000
  1266 0.00000 0.00000 0.00000
  1267 0.00000 0.00000 0.00000
  1268 0.00000 0.00000 0.00000
  1269 0.00000 0.00000 0.00000
  1270 0.00000 0.00000 0.00000
  1271 0.00000 0.00000 0.00000
  1272 0.00000 0.00000 0.00000
  1273 0.00000 0.00000 0.00000
  1274 0.00000 0.00000 0.00000
  1275 0.00000 0.00000 0.00000
  1276 0.00000 0.00000 0.00000
  1277 0.00000 0.00000 0.00000
  1278 0.00000 0.00000 0.00000
  1279 0.00000 0.00000 0.00000
  1280 0.00000 0.00000 0.00000
  1281 0.00000 0.00000 0.00000
  1282 0.00000 0.00000 0.00000
  1283 0.00000 0.00000 0.00000
  1284 0.00000 0.00000 0.00000
  1285 0.00000 0.00000 0.00000
  1286 0.00000 0.00000 0.00000
  1287 0.00000 0.00000 0.00000
  1288 0.00000 0.00000 0.00000
  1289 0.00000 0.00000 0.00000
  1290 0.00000 0.00000 0.00000
  1291 0.00000 0.00000 0.00000
  1292 0.00000 0.00000 0.00000
  1293 0.00000 0.00000 0.00000
  1294 0.00000 0.00000 0.00000
  1295 0.00000 0.00000 0.00000
  1296 0.00000 0.00000 0.00000
  1297 0.00000 0.00000 0.00000
  1298 0.00000 0.00000 0.00000
  1299 0.00000 0.00000 0.00000
  1300 0.00000 0.00000 0.00000
  1301 0.00000 0.00000 0.00000
  1302 0.00000 0.00000 0.00000
  1303 0.00000 0.00000 0.00000
  1304 0.00000 0.00000 0.00000
  1305 0.00000 0.00000 0.00000
  1306 0.00000 0.00000 0.00000
  1307 0.00000 0.00000 0.00000
  1308 0.00000 0.00000 0.00000
  1309 0.00000 0.00000 0.00000
  1310 0.00000 0.00000 0.00000
  1311 0.00000 0.00000 0.00000
  1312 0.00000 0.00000 0.00000
  1313 0.00000 0.00000 0.00000
  1314 0.00000 0.00000 0.00000
  1315 0.00000 0.00000 0.00000
  1316 0.00000 0.00000 0.00000
  1317 0.00000 0.00000 0.00000
  1318 0.00000 0.00000 0.00000
  1319 0.00000 0.00000 0.00000
  1320 0.00000 0.00000 0.00000
  1321 0.00000 0.00000 0.00000
  1322 0.00000 0.00000 0.00000
  1323 0.00000 0.00000 0.00000
  1324 0.00000 0.00000 0.00000
  1325 0.00000 0.00000 0.00000
  1326 0.00000 0.00000 0.00000
  1327 0.00000 0.00000 0.00000
  1328 0.00000 0.00000 0.00000
  1329 0.00000 0.00000 0.00000
  1330 0.00000 0.00000 0.00000
  1331 0.00000 0.00000 0.00000
  1332 0.00000 0.00000 0.00000
  1333 0.00000 0.00000 0.00000
  1334 0.00000 0.00000 0.00000
  1335 0.00000 0.00000 0.00000
  1336 0.00000 0.00000 0.00000
  1337 0.00000 0.00000 0.00000
  1338 0.00000 0.00000 0.00000
  1339 0.00000 0.00000 0.00000
  1340 0.00000 0.00000 0.00000
  1341 0.00000 0.00000 0.00000
  1342 0.00000 0.00000 0.00000
  1343 0.00000 0.00000 0.00000
</Section>

newXOutput 2

<Section columns = "stress_xx | stress_yy | stress_xy">
  1 8.00182 -0.00406847 0.00685796
  2 8.00206 -0.00407164 -0.00686170
  3 -2.57488 0.0150332 -0.0342347
  4 0.00421224 0.00132063 0.00732020
  5 15.0088 3.28590 4.41914
  6 16.9375 3.79446 -4.18870
  7 0.00420076 0.00130908 -0.00730524
  8 -2.57494 0.0150370 0.0342404
  9 7.97524 -0.00336745 -0.0259379
  10 7.97965 -0.0176110 -0.0433757
  11 8.05628 -0.0166023 -0.0102710
  12 8.06067 -0.0139299 -0.0486184
  13 8.07288 -0.0128042 -0.0124095
  14 8.24682 -0.0140772 -0.0182964
  15 8.30134 -0.0237209 -0.0649394
  16 8.35431 -0.00732007 -0.0428882
  17 8.38145 0.0160357 -0.0829765
  18 8.73293 -0.0383789 -0.0713623
  19 8.87241 -0.0263543 -0.0938663
  20 9.01889 -0.0459132 -0.0278829
  21 9.07560 -0.0659250 -0.00884933
  22 8.95580 -0.0806612 0.145063
  23 8.57217 -0.0948535 0.290785
  24 7.71285 -0.117425 0.600186
  25 6.38158 0.0500630 0.690487
  26 5.24974 0.0537408 0.655343
  27 3.71749 0.151698 0.398273
  28 3.99286 0.148431 0.0226085
  29 3.17871 0.453626 -0.260644
  30 4.90435 0.200146 -0.693085
  31 5.90043 0.0386073 -0.572649
  32 7.52250 -0.0314022 -0.495616
  33 8.43728 -0.115049 -0.344510
  34 8.92889 -0.0945438 -0.145501
  35 9.04694 -0.0633328 0.00853605
  36 8.99800 -0.0451593 0.0246448
  37 8.86124 -0.0266572 0.0900981
  38 8.72641 -0.0390891 0.0690442
  39 8.37866 0.0155913 0.0817082
  40 8.35288 -0.00748996 0.0423500
  41 8.30076 -0.0238154 0.0646777
  42 8.24659 -0.0141251 0.0181589
  43 8.07287 -0.0128273 0.0123299
  44 8.06080 -0.0139520 0.0485837
  45 8.05647 -0.0166153 0.0102503
  46 7.97988 -0.0176178 0.0433734
  47 7.97547 -0.00336987 0.0259367
  48 7.50813 0.0359292 -0.00885499
  49 6.91260 0.0339911 -0.0216041
  50 6.17544 0.0149048 -0.0243004
  51 5.41865 0.0646976 -0.0202093
  52 4.76350 0.0639608 -0.0164640
  53 4.06886 0.0875838 -0.0197995
  54 3.38961 0.121693 -0.0136960
  55 2.69079 0.112836 -0.0254427
  56 2.11551 0.0894643 -0.0343592
  57 1.36625 0.0682538 -0.0361441
  58 0.609925 0.0769705 -0.0271921
  59 -0.0184444 0.0625572 -0.0262202
  60 -0.798099 0.0407340 -0.0245953
  61 -1.37734 0.00653922 -0.0551714
  62 -1.93712 -0.0314012 -0.0257599
  63 -2.50157 0.00777136 0.0152366
  64 -2.61965 0.0456781 -0.00880657
  65 -2.62373 0.0214859 0.00436337
  66 -2.53458 0.0123091 -0.00648269
  67 -2.54947 0.0301728 -0.0343596
  68 -2.50293 0.0359266 -0.00829447
  69 -2.36201 0.0124007 -0.0514519
  70 -2.37378 0.0219484 -0.0545606
  71 -2.30628 0.0211067 -0.0331037
  72 -2.13014 0.0140645 -0.0475829
  73 -2.03754 0.0230876 -0.0749088
  74 -1.90762 0.0251670 -0.0631222
  75 -1.68128 0.0131012 -0.103612
  76 -1.55242 0.00398177 -0.0868091
  77 -1.32683 0.00573651 -0.0986904
  78 -1.13067 0.00350901 -0.107560
  79 -0.962633 0.000892283 -0.0848303
  80 -0.732974 0.00463149 -0.0850895
  81 -0.536211 -0.00276539 -0.0903234
  82 -0.346150 -0.0103017 -0.0782414
  83 -0.196576 -0.00893667 -0.0593080
  84 -0.0951854 -0.0151580 -0.0490661
  85 -0.0136530 -0.00872133 -0.0168819
  86 0.00271414 -0.00935909 -0.00557888
  87 -0.00513048 -0.00373556 -0.000363532
  88 -0.0136049 -0.0100248 -0.0146914
  89 -0.0131552 -0.0801160 -0.0424273
  90 -0.0115121 -0.182458 -0.0614438
  91 -0.00617725 -0.315867 -0.0902056
  92 -0.00343142 -0.487109 -0.0779680
  93 -0.00350326 -0.646783 -0.0983125
  94 -0.0124386 -0.844663 -0.111837
  95 -0.00503327 -1.08689 -0.113951
  96 0.00242855 -1.33112 -0.109721
  97 0.00543828 -1.59402 -0.108734
  98 0.00799526 -1.86589 -0.107789
  99 0.00173281 -2.07299 -0.146643
  100 0.0151133 -2.36015 -0.131856
  101 0.0177354 -2.69865 -0.108877
  102 0.00225683 -2.86594 -0.145113
  103 0.0253135 -3.13157 -0.137251
  104 0.0584221 -3.48783 -0.0819304
  105 0.112354 -3.62257 -0.129512
  106 0.0706772 -3.44712 0.0183414
  107 0.0874644 -2.82709 0.209092
  108 0.597407 -2.09807 0.777163
  109 1.98537 1.44504 3.17450
  110 23.4395 1.14492 2.19294
  111 20.0256 0.386205 0.822589
  112 19.3855 0.166205 0.175775
  113 19.2607 0.0812155 -0.0306701
  114 19.3746 0.240186 -0.435362
  115 19.9013 0.678370 -0.950392
  116 22.6915 2.23656 -2.76038
  117 4.62910 1.06839 -3.90760
  118 0.953725 -2.06132 -0.999038
  119 0.275845 -3.08633 -0.335368
  120 0.0739922 -3.28393 -0.0253689
  121 0.0890470 -3.49967 0.0887945
  122 0.0269458 -3.36053 0.0688555
  123 0.0116075 -3.05522 0.121381
  124 0.0114063 -2.85912 0.0974285
  125 0.0150394 -2.55828 0.151492
  126 -0.000643351 -2.37859 0.143942
  127 0.00597918 -2.14251 0.104452
  128 0.0108279 -1.84266 0.129686
  129 0.00173098 -1.62979 0.103056
  130 0.00334800 -1.33428 0.129907
  131 -0.0133052 -1.09967 0.111224
  132 -0.00976430 -0.845588 0.108525
  133 -0.00265915 -0.643515 0.0986405
  134 -0.00433917 -0.484432 0.0782105
  135 -0.00607706 -0.314964 0.0893752
  136 -0.0113623 -0.182314 0.0611490
  137 -0.0130897 -0.0802252 0.0423959
  138 -0.0135930 -0.0101274 0.0147158
  139 -0.00513091 -0.00378218 0.000393583
  140 0.00265966 -0.00936964 0.00560878
  141 -0.0137636 -0.00872119 0.0169247
  142 -0.0953824 -0.0151523 0.0491220
  143 -0.196865 -0.00891649 0.0593393
  144 -0.346444 -0.0102768 0.0782375
  145 -0.536431 -0.00274493 0.0902751
  146 -0.733094 0.00463522 0.0850293
  147 -0.962613 0.000896981 0.0847707
  148 -1.13053 0.00351128 0.107502
  149 -1.32654 0.00573048 0.0986378
  150 -1.55204 0.00397292 0.0867706
  151 -1.68085 0.0130914 0.103589
  152 -1.90716 0.0251566 0.0631176
  153 -2.03709 0.0230786 0.0749187
  154 -2.12973 0.0140606 0.0476046
  155 -2.30593 0.0211045 0.0331298
  156 -2.37349 0.0219458 0.0545916
  157 -2.36179 0.0124002 0.0514865
  158 -2.50279 0.0359299 0.00832598
  159 -2.54939 0.0301776 0.0343860
  160 -2.53455 0.0123124 0.00650152
  161 -2.62374 0.0214902 -0.00435082
  162 -2.61968 0.0456846 0.00881791
  163 -2.50161 0.00777339 -0.0152317
  164 -1.93713 -0.0313943 0.0257687
  165 -1.37731 0.00656431 0.0551832
  166 -0.798056 0.0407836 0.0246091
  167 -0.0183930 0.0626359 0.0262318
  168 0.609976 0.0770813 0.0272030
  169 1.36629 0.0683953 0.0361562
  170 2.11554 0.0896291 0.0343665
  171 2.69081 0.113016 0.0254467
  172 3.38963 0.121872 0.0136918
  173 4.06889 0.0877418 0.0197903
  174 4.76354 0.0640919 0.0164503
  175 5.41868 0.0647907 0.0201897
  176 6.17544 0.0149604 0.0242779
  177 6.91253 0.0340101 0.0215906
  178 7.50797 0.0359319 0.00884877
  179 1.91939 0.381636 0.0141889
  180 1.91923 0.381616 -0.0123652
  181 -0.0816700 0.0352078 0.639464
  182 -0.0834627 0.0354326 -0.639098
  183 4.54167 -0.0725984 -0.922861
  184 4.54150 -0.0827614 0.934559
  185 0.843932 0.145983 0.0836531
  186 0.833991 0.150716 -0.0821048
  187 0.540414 0.148921 -0.137270
  188 0.540498 0.149087 0.137566
  189 4.35696 0.136711 -0.116584
  190 4.35728 0.135976 0.116442
  191 -0.178091 0.188363 0.376528
  192 -0.178703 0.188589 -0.376213
  193 5.07111 0.178138 -0.337561
  194 5.07345 0.175114 0.337404
  195 -0.209240 -0.184853 0.473956
  196 -0.209017 -0.185747 -0.474272
  197 0.0285118 -0.470742 -0.603016
  198 1.48296 -0.0538123 -0.778554
  199 0.0386486 -0.501372 0.591481
  200 1.45879 -0.0395235 0.796002
  201 7.23471 -1.08413 -1.36362
  202 7.51175 -1.12791 1.29835
  203 2.49632 0.137215 0.00668257
  204 2.49638 0.136901 -0.00660568
  205 -0.567336 0.0510665 -0.0833991
  206 -0.567256 0.0511363 0.0835086
  207 -0.635210 0.0865483 0.484429
  208 -0.635912 0.0867643 -0.484605
  209 2.50477 0.286621 -0.0103112
  210 2.50517 0.285964 0.0108529
  211 0.708832 0.316942 0.318827
  212 0.706538 0.318965 -0.318435
  213 -0.856833 0.0921613 -0.221813
  214 -0.856512 0.0921476 0.222020
  215 5.91030 0.0499342 0.0619382
  216 5.91034 0.0501162 -0.0621023
  217 0.164757 -0.899369 0.319473
  218 0.179643 -0.825894 -0.296389
  219 -0.0617217 -0.516685 0.541334
  220 -0.0623730 -0.534087 -0.523257
  221 2.29559 0.348814 -0.295158
  222 2.29480 0.349985 0.300530
  223 -0.548744 -0.00773844 0.470236
  224 -0.549146 -0.00772459 -0.470542
  225 6.32516 0.0762540 -0.197407
  226 6.32510 0.0753577 0.196576
  227 6.76279 -0.0657532 -0.378264
  228 6.76697 -0.0738494 0.374540
  229 10.6571 0.887999 -0.0385929
  230 9.78603 1.03630 0.885766
  231 9.79390 -0.232526 -1.16562
  232 1.06831 0.293972 0.188892
  233 1.06812 0.293901 -0.188147
  234 0.00635625 0.214301 0.515871
  235 0.00517088 0.214944 -0.515668
  236 7.54725 -0.458974 -0.191501
  237 7.50066 -0.465645 0.213938
  238 4.11719 0.0888218 -0.0375224
  239 4.11722 0.0885576 0.0374582
  240 -1.00498 0.0695086 0.330859
  241 -1.00550 0.0696240 -0.330813
  242 -0.129828 -0.128152 -0.208037
  243 -0.129776 -0.128147 0.208246
  244 -1.16572 0.0390715 0.119266
  245 -1.16588 0.0390343 -0.119118
  246 3.32199 0.301266 -0.187619
  247 3.32318 0.299766 0.188678
  248 4.26198 0.164066 -0.506442
  249 4.26661 0.160402 0.508942
  250 0.911137 0.104572 -0.0292210
  251 0.911172 0.104730 0.0293172
  252 2.39499 -0.224471 -1.85256
  253 2.86298 -0.133537 2.05012
  254 0.280171 0.116992 0.511757
  255 0.279025 0.120469 -0.512711
  256 10.4166 -1.01807 0.0603630
  257 0.781424 0.347163 0.275167
  258 0.780616 0.347664 -0.274271
  259 2.33869 0.222857 -0.631659
  260 2.33567 0.229667 0.641878
  261 11.5281 1.48630 -0.441325
  262 6.85974 0.0391592 0.267321
  263 6.85948 0.0419353 -0.269547
  264 -0.0643127 -0.388401 -0.330959
  265 -0.0628088 -0.390151 0.332417
  266 -0.0165598 -0.939598 -0.468591
  267 0.0237213 -1.13007 -0.456289
  268 0.0110739 -1.11662 0.467982
  269 -0.190028 -0.167985 0.623755
  270 -0.190537 -0.167402 -0.625490
  271 0.328322 -1.02590 -0.0289950
  272 0.351822 -0.961739 0.0828179
  273 -0.400185 -0.0356240 0.291479
  274 -0.400189 -0.0357443 -0.291604
  275 4.79148 0.185047 -0.201276
  276 4.79233 0.183589 0.200959
  277 8.49811 -0.942568 0.0944785
  278 1.74432 0.201825 -0.0539566
  279 1.74423 0.202175 0.0542374
  280 -0.0254187 -0.879703 0.446610
  281 0.0606348 0.192905 0.262384
  282 0.0602926 0.192940 -0.261977
  283 13.7217 1.01232 -0.242883
  284 6.69587 0.0349899 0.0786917
  285 6.69600 0.0352069 -0.0789934
  286 4.29750 -0.271935 -1.41692
  287 4.34203 -0.267879 1.44389
  288 8.48476 -0.890393 -0.238597
  289 -0.836872 0.0234399 0.375309
  290 -0.837285 0.0234860 -0.375514
  291 8.36303 -0.931328 2.38438
  292 -0.397159 0.0493543 0.576963
  293 -0.397972 0.0494514 -0.577346
  294 1.29178 0.360384 0.0165298
  295 1.28747 0.364014 -0.0136523
  296 -1.62573 0.0217194 0.0237072
  297 -1.62576 0.0217020 -0.0236722
  298 6.99958 -0.191954 -3.30661
  299 -1.46710 0.0327859 -0.183734
  300 -1.46671 0.0327540 0.183831
  301 -0.0633710 -0.208503 0.652549
  302 -0.0445297 -0.205789 -0.648873
  303 2.94900 0.339646 -0.280662
  304 2.95036 0.338527 0.283640
  305 0.527562 0.111559 0.102442
  306 0.527508 0.111403 -0.102261
  307 3.10074 0.174590 -0.0386390
  308 3.10093 0.174077 0.0387124
  309 0.261120 -0.311376 0.407745
  310 0.237832 -0.358163 -0.408796
  311 3.00902 0.106035 -0.00395729
  312 3.00902 0.105812 0.00396057
  313 -1.17865 0.0304614 0.279722
  314 -1.17911 0.0305155 -0.279812
  315 0.705338 -0.186538 -0.0541880
  316 0.682701 -0.186470 0.0357760
  317 7.02068 0.0187756 0.0216066
  318 7.02061 0.0188065 -0.0216499
  319 15.5550 0.927349 0.510023
  320 1.42697 0.244599 0.105766
  321 1.42700 0.244285 -0.105264
  322 -0.460351 0.0942180 0.168202
  323 -0.460546 0.0941668 -0.167960
  324 2.01781 0.326301 0.0271284
  325 2.01802 0.325805 -0.0260759
  326 0.183419 0.202325 0.541989
  327 0.182443 0.203021 -0.542158
  328 0.0293357 -1.61120 0.342892
  329 -1.66714 0.0121365 -0.0503711
  330 -1.66707 0.0121544 0.0504370
  331 5.26496 0.0601246 -0.0397588
  332 5.26493 0.0599818 0.0396814
  333 5.54896 0.0820188 -0.105597
  334 5.54901 0.0815554 0.105275
  335 -1.53287 0.0325075 -0.138691
  336 -1.53261 0.0325119 0.138817
  337 -0.180297 0.0517545 0.0252851
  338 -0.180350 0.0516788 -0.0252358
  339 -0.0337489 -0.638243 0.332404
  340 -0.0270577 -0.663564 -0.331930
  341 6.15922 -0.546077 -0.937126
  342 6.41547 -0.651715 0.916410
  343 3.61143 0.231597 -0.111117
  344 3.61199 0.230616 0.111263
  345 1.51191 0.385647 0.0532986
  346 1.51027 0.386933 -0.0510336
  347 -0.671467 0.119928 0.308030
  348 -0.671925 0.120035 -0.307821
  349 11.8630 -0.101894 -0.0347545
  350 0.557697 -1.17911 -0.520113
  351 0.597311 -1.12914 0.554474
  352 -0.321701 0.178690 0.477613
  353 -0.322546 0.179052 -0.477506
  354 -0.341126 -0.0762806 0.547632
  355 -0.341611 -0.0762776 -0.548171
  356 13.3776 2.04607 -0.287053
  357 8.31983 -0.199270 1.30297
  358 7.95348 -0.167101 -0.147925
  359 7.94064 -0.163441 0.131596
  360 5.44911 -0.0401479 -0.590431
  361 5.44388 -0.0474037 0.589795
  362 0.0102917 -1.93826 -0.283256
  363 7.33247 0.0432226 -0.153151
  364 7.33158 0.0423828 0.151951
  365 0.0880931 -1.85841 0.249223
  366 8.03820 0.623030 -0.781030
  367 1.91559 0.114598 0.0379411
  368 1.91556 0.114415 -0.0379083
  369 5.50191 0.0794869 -0.439596
  370 5.50588 0.0751483 0.439207
  371 5.99933 0.0916763 -0.272943
  372 5.99992 0.0897408 0.271778
  373 -0.251287 0.0890397 0.120555
  374 -0.251407 0.0889492 -0.120360
  375 3.30165 0.184663 -0.674157
  376 3.30470 0.185976 0.682639
  377 7.24471 0.0182071 0.0358667
  378 7.24471 0.0182610 -0.0359726
  379 3.91970 0.261884 -0.326152
  380 3.92196 0.259403 0.327568
  381 4.60904 0.121733 0.0797920
  382 4.60895 0.122140 -0.0799482
  383 -0.223174 -0.0416558 0.177204
  384 -0.223070 -0.0417345 -0.177139
  385 -0.0521661 -0.0373154 -0.0498853
  386 -0.0521998 -0.0373473 0.0499662
  387 9.57600 -1.35539 0.472271
  388 -0.132041 -0.313134 0.495077
  389 -0.131213 -0.315388 -0.494786
  390 1.40807 0.140090 -0.0674159
  391 1.40805 0.140345 0.0675975
  392 -0.0482466 -0.236473 0.177574
  393 -0.0487470 -0.235983 -0.177538
  394 0.480562 0.282536 0.296697
  395 0.480025 0.282757 -0.296071
  396 7.84610 -0.00826062 0.197944
  397 7.84753 -0.00471644 -0.203407
  398 -0.0309415 -0.498769 0.613805
  399 -0.648556 -0.0136150 0.278929
  400 -0.648671 -0.0136424 -0.279109
  401 -0.0333444 -0.524385 -0.606507
  402 7.40177 0.0240137 0.0970428
  403 7.40222 0.0242807 -0.0975418
  404 -0.125257 0.146227 0.590015
  405 -0.126862 0.146902 -0.590175
  406 5.35989 0.126508 -0.173348
  407 5.36015 0.125602 0.172847
  408 8.27573 -0.359102 -0.271066
  409 8.32030 -0.284431 0.212839
  410 -0.0189526 -0.873102 -0.366570
  411 0.661531 0.231216 -0.265368
  412 0.666834 0.227773 0.265756
  413 7.84131 0.538621 0.499524
  414 4.55166 -0.371706 -1.99562
  415 4.68741 -0.461309 2.10074
  416 0.184060 0.259839 0.415257
  417 0.183186 0.260304 -0.414805
  418 3.35385 0.144727 -0.0262877
  419 3.35392 0.144373 0.0262789
  420 3.23215 0.104981 3.20431
  421 1.26391 0.345027 -0.167888
  422 1.26430 0.344900 0.168978
  423 0.0709188 -0.899584 0.449814
  424 -0.0106883 -1.42715 -0.324688
  425 0.457172 0.308504 0.404742
  426 0.455930 0.309338 -0.404224
  427 0.550503 0.206854 -0.193065
  428 0.550672 0.206958 0.193502
  429 -0.263398 -0.0283764 -0.629167
  430 -0.262557 -0.0287699 0.628656
  431 1.54133 0.288001 -0.184720
  432 1.53549 0.293155 0.189572
  433 8.21793 -0.295730 -0.971341
  434 0.192778 -0.138584 0.537011
  435 0.185618 -0.135191 -0.538888
  436 5.97026 -0.247738 -0.653517
  437 5.99854 -0.268412 0.650822
  438 -1.57391 0.0147319 -0.172786
  439 -1.57346 0.0146987 0.172803
  440 0.000494644 -1.39334 0.289854
  441 -0.0107325 -0.881206 0.325649
  442 -0.649008 0.0359255 0.481892
  443 -0.649530 0.0359829 -0.482166
  444 4.27941 0.0865244 -0.0109309
  445 4.27939 0.0863409 0.0108897
  446 -0.134147 -0.211428 0.331424
  447 -0.134258 -0.211773 -0.330905
  448 2.55935 0.0649472 -0.998669
  449 2.55638 0.0785425 1.01444
  450 0.0220017 -1.72278 -0.335396
  451 15.5450 0.630835 0.0276528
  452 0.0393533 -2.09471 -0.229250
  453 -1.91025 0.00666245 -0.0695988
  454 -1.91011 0.00667511 0.0696736
  455 -0.753375 0.0980338 0.410665
  456 -0.754008 0.0982299 -0.410675
  457 -0.818867 0.0108131 0.282291
  458 -0.819090 0.0108287 -0.282463
  459 2.82796 0.335759 -0.168341
  460 2.82896 0.334857 0.170225
  461 4.38383 0.224650 -0.253419
  462 4.38540 0.222565 0.253635
  463 -0.0918634 -0.308213 0.631442
  464 -0.0918645 -0.306019 -0.633763
  465 7.49139 0.0713341 -1.22852
  466 0.473157 -0.230992 -0.199610
  467 0.456765 -0.235063 0.208139
  468 0.110999 -1.96327 0.0621456
  469 0.0685943 -2.24556 -0.108386
  470 -0.242426 -0.110809 0.341917
  471 -0.242375 -0.111124 -0.341895
  472 1.53958 -0.540598 -1.56452
  473 12.1742 -0.393773 -0.855329
  474 2.57087 0.218809 0.0210818
  475 2.57061 0.219393 -0.0207891
  476 3.76894 0.0142619 -0.982263
  477 3.78107 0.0126250 1.00075
  478 1.03638 0.399730 0.219387
  479 1.03514 0.400775 -0.218167
  480 3.39683 0.278166 -0.479027
  481 3.40006 0.275782 0.484041
  482 0.0834547 0.0366229 0.610016
  483 0.0911778 0.0405219 -0.608973
  484 -1.67898 0.0285549 -0.134118
  485 -1.67866 0.0285504 0.134213
  486 7.75590 -0.956738 -0.470050
  487 6.24086 0.0370003 -0.0310166
  488 6.24086 0.0369393 0.0309716
  489 0.184910 0.0711082 -0.0590089
  490 0.184969 0.0712221 0.0591175
  491 -0.482234 0.149900 0.395916
  492 -0.482875 0.150119 -0.395745
  493 -1.01760 0.0669915 -0.156650
  494 -1.01737 0.0670104 0.156835
  495 2.56689 0.303055 -0.0433102
  496 2.56740 0.302263 0.0440919
  497 -0.382053 0.118902 0.536852
  498 -0.383003 0.119265 -0.537013
  499 7.11821 -0.177849 -0.339575
  500 7.12884 -0.189384 0.330859
  501 4.55072 0.0670454 -0.645444
  502 4.54531 0.0621435 0.651878
  503 1.60356 0.121765 -0.0416019
  504 1.60357 0.121980 0.0416881
  505 0.0109895 -0.900988 -0.526615
  506 8.28889 -0.330651 0.803298
  507 0.0943327 -0.632832 -0.506320
  508 2.24149 0.388022 0.153538
  509 2.24173 0.387602 -0.150162
  510 7.66941 -0.895630 0.459836
  511 0.528430 -1.16112 0.764156
  512 9.21865 -1.36784 -0.996321
  513 6.22980 0.0631042 0.326384
  514 6.22818 0.0665486 -0.327999
  515 0.00837422 -0.776659 0.548093
  516 -0.121239 -0.0368557 -0.0934378
  517 -0.121326 -0.0368569 0.0935317
  518 0.618199 0.0731209 -0.0212198
  519 0.618247 0.0732398 0.0212622
  520 -0.0218352 -0.487086 0.211482
  521 -0.0198099 -0.484645 -0.212440
  522 5.12613 0.0968631 0.0676259
  523 5.12613 0.0971025 -0.0677655
  524 14.8371 2.38269 0.761085
  525 0.543387 -0.509277 -0.0558300
  526 0.419683 -0.636327 -0.0301403
  527 -0.264582 0.127424 -0.217808
  528 -0.264315 0.127439 0.218105
  529 -1.28169 0.0206446 0.171981
  530 -1.28205 0.0206652 -0.172057
  531 0.0120722 -1.60709 0.329001
  532 -1.90063 0.0223180 0.0236755
  533 -1.90066 0.0223064 -0.0236347
  534 1.47929 -0.325787 -1.12028
  535 1.44411 -0.293350 1.17180
  536 1.34654 0.184621 -0.306864
  537 1.33657 0.191978 0.311456
  538 -0.350152 -0.0783396 0.474885
  539 -0.350403 -0.0785450 -0.475283
  540 1.29727 0.165746 0.0757219
  541 1.29729 0.165482 -0.0754675
  542 -0.877414 0.0501365 0.0763433
  543 -0.877520 0.0500873 -0.0762174
  544 1.56065 0.279426 0.103420
  545 1.56070 0.279109 -0.102694
  546 -0.0342467 -0.108607 0.0795466
  547 -0.0343512 -0.108483 -0.0795208
  548 0.537658 0.230025 0.385058
  549 0.534294 0.233889 -0.385356
  550 0.435461 0.0179153 0.354771
  551 0.429031 0.0173147 -0.357508
  552 6.36524 0.0794885 0.139274
  553 6.36535 0.0799378 -0.139746
  554 5.57332 0.117663 0.214692
  555 5.57289 0.118964 -0.215397
  556 -0.00579909 -1.32676 -0.199129
  557 3.81756 0.244137 -0.181128
  558 3.81852 0.242761 0.181443
  559 3.84486 0.140661 -0.0571662
  560 3.84505 0.140165 0.0571170
  561 -0.681856 0.0382663 -0.00567370
  562 -0.681809 0.0383168 0.00570115
  563 6.14154 0.376386 -0.235439
  564 8.80838 -1.22173 -0.262437
  565 6.84876 0.295146 0.948188
  566 0.0496055 -1.20789 -0.409249
  567 -0.490750 0.136198 -0.273850
  568 -0.490367 0.136148 0.274125
  569 0.0478589 -0.714854 0.533082
  570 -0.416414 0.00235898 0.554943
  571 -0.417037 0.00242482 -0.555306
  572 11.1362 1.08810 -0.194272
  573 2.43593 0.164415 0.00426690
  574 2.43603 0.164037 -0.00413979
  575 17.7039 1.44461 -1.38370
  576 -0.113160 -0.0910272 0.660688
  577 -0.108088 -0.0866259 -0.661376
  578 9.31866 -0.938219 0.582151
  579 7.57798 0.0288837 -0.172440
  580 7.57657 0.0276033 0.170561
  581 3.29093 -0.0979352 -1.45261
  582 3.33577 -0.106517 1.48124
  583 -0.204911 -0.198775 0.552268
  584 -0.204944 -0.199583 -0.553301
  585 1.68333 0.0608516 0.697672
  586 1.69722 0.0461006 -0.688642
  587 -1.51568 0.0184735 -0.165719
  588 -1.51522 0.0184493 0.165700
  589 11.0077 0.727388 0.994144
  590 1.96062 0.232018 -0.0438804
  591 1.96046 0.232448 0.0442539
  592 2.32980 0.284032 -0.457298
  593 2.32802 0.287542 0.465051
  594 6.77257 0.0200269 -0.324558
  595 6.77446 0.0156605 0.322101
  596 -0.0349212 -0.714306 -0.500128
  597 7.49701 0.00595616 0.0504633
  598 7.49707 0.00602071 -0.0506050
  599 -1.21003 0.0345732 -0.0336935
  600 -1.20997 0.0346071 0.0337613
  601 -2.03402 -0.00761127 0.00263393
  602 -2.03402 -0.00761717 -0.00262161
  603 0.139689 -1.15962 -0.249677
  604 -0.0731105 -0.457134 0.420709
  605 -0.0770866 -0.433318 -0.423514
  606 -0.877407 0.0511119 0.405062
  607 -0.877919 0.0512159 -0.405227
  608 5.09177 0.171766 0.265417
  609 5.09066 0.173771 -0.265910
  610 3.70836 0.0976090 0.0147253
  611 3.70838 0.0977932 -0.0147409
  612 0.779551 -0.396116 0.388732
  613 0.807548 -0.379013 -0.382938
  614 -0.0272697 -0.338558 0.177724
  615 -0.0280257 -0.337354 -0.178248
  616 8.96387 0.135342 3.49014
  617 -0.436958 -0.0145018 0.165908
  618 -0.436823 -0.0145516 -0.165970
  619 0.134846 -0.714281 -0.429611
  620 3.61315 0.196186 -0.0816190
  621 3.61348 0.195480 0.0816507
  622 1.69421 0.376541 -0.0765801
  623 1.69186 0.378566 0.0801323
  624 0.0188484 -2.48242 0.161718
  625 1.24432 0.387172 0.163833
  626 1.24364 0.387659 -0.162533
  627 -0.247643 0.166568 0.327778
  628 -0.248121 0.166689 -0.327458
  629 -0.0106392 -1.17758 0.272702
  630 -1.99397 0.00640530 -0.0682000
  631 -1.99378 0.00640963 0.0682687
  632 2.31772 0.109552 -0.0141539
  633 2.31771 0.109801 0.0142090
  634 6.20381 0.0537590 0.0891198
  635 6.20387 0.0540044 -0.0893717
  636 5.35160 -0.555121 2.66696
  637 4.29909 0.157662 -0.145912
  638 4.29960 0.156680 0.145805
  639 0.0373781 -0.132506 0.629226
  640 0.0513058 -0.0919697 -0.630359
  641 6.94562 -0.867036 -2.13541
  642 17.2190 0.622629 -0.578041
  643 -1.79835 0.00362778 -0.117305
  644 -1.79793 0.00361285 0.117338
  645 0.280936 0.117924 -0.118816
  646 0.281021 0.118056 0.119040
  647 -0.0354720 -0.748549 0.437908
  648 9.36078 0.452309 -1.24508
  649 7.42108 0.00181053 0.00754200
  650 7.42094 0.00181870 -0.00755615
  651 -0.480581 -0.0294653 -0.391170
  652 -0.480391 -0.0293960 0.390914
  653 -0.000740462 -1.68605 -0.267794
  654 7.55435 -0.00137581 0.0191361
  655 7.55423 -0.00136312 -0.0191714
  656 0.562366 0.253465 0.256931
  657 0.562024 0.253499 -0.256346
  658 5.53304 -0.540665 -1.37407
  659 5.64563 -0.540123 1.39249
  660 8.36007 -0.0381586 0.108410
  661 8.36713 -0.0372944 -0.115374
  662 0.0356557 -2.15985 0.225109
  663 -0.595296 0.0337305 -0.0457460
  664 -0.595235 0.0337880 0.0458189
  665 2.63590 -0.296522 -2.46887
  666 2.41907 0.103158 0.0119130
  667 2.41909 0.103345 -0.0119010
  668 1.11137 0.129184 0.0448598
  669 1.11135 0.128978 -0.0447155
  670 1.35356 0.198567 -0.0753882
  671 1.35353 0.198872 0.0757501
  672 4.72919 0.174001 -0.409383
  673 4.73260 0.170519 0.410152
  674 1.16991 0.358074 0.125041
  675 1.16709 0.360530 -0.123293
  676 -0.966856 0.0735291 -0.250760
  677 -0.966464 0.0734750 0.250936
  678 -1.09439 0.0750584 -0.277729
  679 -1.09393 0.0749767 0.277835
  680 8.54285 -0.120848 -0.0664617
  681 -0.00894502 -0.386515 -0.626855
  682 8.56836 -0.126885 0.0510227
  683 10.6239 0.881636 0.100623
  684 -1.08351 0.00462107 0.194222
  685 -1.08378 0.00463387 -0.194332
  686 1.01484 0.275673 0.0588654
  687 1.00796 0.279935 -0.0567306
  688 -2.14888 0.00610914 -0.0282868
  689 -2.14880 0.00611623 0.0283327
  690 -0.00442128 -0.352775 0.630817
  691 -0.691604 0.00611695 0.418751
  692 -0.691997 0.00614366 -0.419005
  693 9.33050 -0.887416 -0.621649
  694 1.33139 0.0752490 -0.000651237
  695 1.33135 0.0751016 0.000683136
  696 0.210503 0.159942 0.184844
  697 0.210331 0.159843 -0.184504
  698 4.79083 -0.253446 -1.13297
  699 4.83333 -0.263552 1.15903
  700 17.9348 1.23219 1.28464
  701 0.298425 -1.93491 -0.427309
  702 -0.136663 -0.281233 0.594757
  703 -0.137052 -0.282033 -0.595613
  704 0.911444 0.257826 -0.166077
  705 0.911584 0.257979 0.166639
  706 7.76345 0.000365120 -0.0522592
  707 7.76323 0.000300470 0.0520602
  708 3.53205 0.110773 0.0163796
  709 3.53202 0.111054 -0.0164059
  710 0.223198 0.255819 0.492516
  711 0.221995 0.256646 -0.492264
  712 0.0440544 0.0938068 0.0844265
  713 0.0439841 0.0936958 -0.0842803
  714 -0.252429 0.0353060 0.626513
  715 -0.253560 0.0355809 -0.627119
  716 6.30872 0.0284867 0.0359704
  717 6.30874 0.0285766 -0.0360661
  718 5.40336 0.0910197 0.0991932
  719 5.40335 0.0913571 -0.0994185
  720 0.658766 -0.677439 0.491080
  721 0.680617 -0.711029 -0.469426
  722 -0.467040 0.0857228 0.546989
  723 -0.467877 0.0859418 -0.547284
  724 0.195240 -0.611356 0.364353
  725 -0.0345853 0.141544 0.599986
  726 -0.0363258 0.142208 -0.599797
  727 -1.30241 0.0424024 -0.170374
  728 -1.30211 0.0423925 0.170523
  729 0.831222 0.320060 0.255956
  730 0.830648 0.320287 -0.255095
  731 8.34484 -0.265808 -0.559438
  732 7.91833 -0.716119 -0.0811720
  733 -0.133391 -0.271571 0.412578
  734 -0.133113 -0.272646 -0.411857
  735 2.93817 -0.171667 -1.71840
  736 2.85661 -0.101290 1.74205
  737 1.75105 0.337312 -0.171251
  738 1.74763 0.340687 0.176085
  739 0.134434 -0.367369 0.536581
  740 -0.0124511 -0.863781 -0.234280
  741 3.79891 0.247863 -0.361092
  742 3.80184 0.245393 0.363465
  743 0.0113077 -1.71481 0.221247
  744 2.20872 0.353616 -0.0335133
  745 2.20902 0.353081 0.0349896
  746 8.12625 0.00746589 -0.131657
  747 8.12297 0.00623408 0.128844
  748 0.145745 -2.51737 -0.0257174
  749 3.49026 0.307035 0.259742
  750 3.48862 0.308827 -0.258252
  751 0.882588 0.313268 -0.211045
  752 0.886695 0.309691 0.211879
  753 -1.47906 0.0100404 -0.138047
  754 -1.47865 0.0100243 0.138000
  755 3.92734 0.118388 -0.0541935
  756 3.92742 0.118034 0.0541293
  757 2.33929 0.376521 -0.120166
  758 2.33954 0.376267 0.122676
  759 -0.0625600 0.216406 0.478003
  760 -0.0635222 0.216898 -0.477756
  761 7.94412 -0.609272 -0.0131422
  762 -1.35873 0.0370143 0.131749
  763 -1.35892 0.0369963 -0.131614
  764 17.8828 3.03345 -2.11905
  765 -0.598476 0.0663133 0.146749
  766 -0.598636 0.0662497 -0.146553
  767 6.81429 0.0523713 0.233028
  768 6.81453 0.0540709 -0.234694
  769 12.6327 0.872273 0.0460439
  770 7.81006 -0.00798393 -0.101472
  771 7.80926 -0.00822048 0.100899
  772 4.86051 0.118272 0.120332
  773 4.86036 0.118820 -0.120572
  774 7.30365 -0.972500 1.94189
  775 3.06958 0.278891 -0.0664875
  776 3.07018 0.277973 0.0669414
  777 0.0645762 -1.38367 0.320464
  778 8.41802 -1.15248 0.526470
  779 5.08859 0.0587077 0.0218132
  780 5.08862 0.0588314 -0.0218457
  781 6.78680 0.0291005 0.0118074
  782 6.78675 0.0291278 -0.0118278
  783 -0.0327932 -0.695297 -0.407979
  784 0.0359367 -1.22804 0.428768
  785 2.88358 0.347228 0.361696
  786 2.88218 0.347916 -0.357158
  787 17.9032 0.225670 0.135805
  788 5.10038 0.0779968 -0.523570
  789 5.10510 0.0738271 0.524481
  790 -1.13453 0.0381301 0.308237
  791 -1.13503 0.0382124 -0.308262
  792 0.194678 -1.07083 0.172297
  793 0.129731 -2.37676 -0.0669520
  794 11.8370 1.49965 0.0616874
  795 -0.0110167 -0.860453 0.211253
  796 0.183153 0.142245 0.558322
  797 0.182916 0.142449 -0.559581
  798 1.45803 0.338245 0.123919
  799 1.45792 0.338141 -0.122946
  800 7.91194 -0.352130 -0.0558604
  801 7.91759 -0.350537 0.0211277
  802 9.52373 0.729664 -3.28045
  803 -1.40501 0.0247679 -0.0674845
  804 -1.40489 0.0247950 0.0675881
  805 -0.601090 -0.00323930 0.157330
  806 -0.601017 -0.00325632 -0.157422
  807 0.512230 -0.0305405 0.254977
  808 0.501312 -0.0312231 -0.254872
  809 5.93073 -0.00112971 0.474605
  810 5.92585 0.00547654 -0.474769
  811 2.94446 0.128817 0.00433579
  812 2.94451 0.128523 -0.00431376
  813 9.66069 -0.296559 1.16042
  814 0.889744 0.193505 -0.145863
  815 0.889810 0.193715 0.146274
  816 0.866593 0.0447933 -0.0257013
  817 0.858837 0.0500697 0.0292094
  818 -0.0122505 -0.713768 -0.566551
  819 14.0368 1.65703 1.60427
  820 -2.07437 0.00459158 -0.0668289
  821 -2.07410 0.00458979 0.0668874
  822 -0.00297062 -2.10926 0.215577
  823 0.116913 -0.361387 -0.539819
  824 -0.295386 -0.0189060 0.115376
  825 -0.295179 -0.0189415 -0.115370
  826 10.9993 0.429524 -0.951205
  827 2.71718 0.318832 -0.0819318
  828 2.71790 0.317945 0.0831057
  829 7.52871 -0.0830596 -0.235966
  830 7.53313 -0.0851230 0.229892
  831 -1.96980 0.0174590 0.0860788
  832 -1.97017 0.0174616 -0.0860331
  833 -0.0128656 -0.0134035 -0.0104876
  834 -0.0128901 -0.0134279 0.0105263
  835 0.00806194 -2.15956 -0.213552
  836 0.0108427 -2.31051 -0.207029
  837 -2.22676 0.0246061 0.0151713
  838 -2.22675 0.0245991 -0.0151516
  839 1.04862 -0.653092 -1.05827
  840 4.60050 0.104027 -0.0296970
  841 4.60050 0.103817 0.0296209
  842 -0.297785 0.0611761 0.0191402
  843 -0.297837 0.0611071 -0.0191189
  844 6.97370 0.0473770 -0.157061
  845 6.97327 0.0467523 0.156214
  846 -0.792925 0.00532138 0.150397
  847 -0.792955 0.00532425 -0.150494
  848 4.06276 -0.223320 -2.65688
  849 7.16525 -0.629752 0.478812
  850 5.66797 0.0651724 -0.0436442
  851 5.66794 0.0650301 0.0435312
  852 7.09102 -0.688000 -0.545457
  853 2.10349 0.286136 0.0236452
  854 2.10375 0.285569 -0.0229017
  855 2.96843 0.248452 -0.0435184
  856 2.96882 0.247719 0.0438080
  857 8.35973 -0.183888 0.425507
  858 0.432636 0.286661 0.429503
  859 0.431157 0.287840 -0.429350
  860 0.385301 0.0662871 0.0430364
  861 0.385250 0.0661722 -0.0429627
  862 3.87408 0.0995042 0.0227291
  863 3.87408 0.0997273 -0.0227662
  864 10.4977 -1.20628 0.939894
  865 6.50754 0.0724186 -0.200873
  866 6.50750 0.0712552 0.199738
  867 -0.0356116 0.120276 0.147523
  868 -0.0357489 0.120178 -0.147271
  869 6.56004 0.0217637 0.0546139
  870 6.56007 0.0218614 -0.0547567
  871 -1.35225 0.0200022 -0.0361077
  872 -1.35223 0.0200286 0.0361279
  873 -0.00637700 -0.655986 0.187233
  874 -0.00819523 -0.666210 -0.188778
  875 7.60615 -0.139611 0.970159
  876 -0.535370 0.118921 0.472760
  877 -0.536137 0.119208 -0.472797
  878 -0.00296433 -1.08703 -0.208975
  879 2.97409 0.161974 -0.0181236
  880 2.97419 0.161592 0.0181712
  881 5.56949 -0.291489 -0.854696
  882 5.61749 -0.323597 0.863730
  883 -0.264157 -0.100650 -0.599105
  884 -0.263367 -0.100863 0.598376
  885 0.224512 0.266773 0.455896
  886 0.223443 0.267415 -0.455488
  887 0.0285421 -2.56386 0.164113
  888 0.0145553 0.196191 0.557105
  889 0.0131998 0.196861 -0.556950
  890 5.12823 -0.0843748 -0.756013
  891 5.11858 -0.0905653 0.762262
  892 8.90286 0.402504 1.27006
  893 1.95150 0.269742 -0.0435717
  894 1.95132 0.270239 0.0441190
  895 6.70742 0.0734152 -0.152352
  896 6.70716 0.0728743 0.151715
  897 -0.273853 -0.124477 0.519799
  898 -0.274122 -0.124794 -0.520407
  899 0.0220069 -2.68408 -0.130926
  900 -0.420314 -0.0347661 0.513301
  901 -0.420746 -0.0347451 -0.513689
  902 0.155651 0.250967 -0.365954
  903 0.156318 0.250653 0.366421
  904 -0.0208262 -0.161657 0.0902638
  905 -0.0210458 -0.161463 -0.0903820
  906 0.465150 0.282113 -0.343227
  907 0.465907 0.281725 0.343875
  908 0.0899419 -0.251035 0.590626
  909 0.0757838 -0.233964 -0.614419
  910 6.39917 -0.160960 0.476286
  911 6.38275 -0.150400 -0.481444
  912 -2.25877 0.0101982 -0.0222206
  913 -2.25874 0.0102055 0.0222514
  914 -0.179774 -0.0169050 0.0858865
  915 -0.179575 -0.0169245 -0.0858349
  916 0.00932478 -1.55119 -0.192629
  917 -0.199418 -0.0871501 -0.247165
  918 -0.199452 -0.0869917 0.247289
  919 -0.884408 0.0708645 0.396196
  920 -0.884986 0.0710133 -0.396279
  921 1.88223 0.398493 -0.0195127
  922 1.88174 0.399023 0.0218124
  923 8.18559 0.694305 -0.250356
  924 -0.183132 0.197046 0.435092
  925 -0.183903 0.197380 -0.434837
  926 3.03120 0.175888 -0.760817
  927 3.03355 0.178512 0.772420
  928 -0.471071 0.142761 0.352448
  929 -0.471610 0.142933 -0.352222
  930 10.4876 -0.715805 -0.452755
  931 5.72233 0.233031 0.541803
  932 7.31170 -0.121829 -0.877883
  933 5.60448 0.118581 -0.322070
  934 5.60604 0.115878 0.321190
  935 -0.714753 0.0940457 -0.185662
  936 -0.714505 0.0940556 0.185890
  937 -1.42133 0.0279318 0.203625
  938 -1.42177 0.0279733 -0.203571
  939 -0.0837586 -0.266535 -0.287609
  940 -0.0832829 -0.266937 0.288266
  941 1.86758 0.170518 -0.0301415
  942 1.86750 0.170849 0.0303368
  943 -0.672383 0.0619976 0.483208
  944 -0.672992 0.0621183 -0.483460
  945 6.85969 0.0229189 0.0742453
  946 6.85976 0.0230311 -0.0744367
  947 -0.0550379 -0.593738 0.443914
  948 0.144484 0.235821 -0.319434
  949 0.144987 0.235654 0.319890
  950 0.223511 0.176043 0.222701
  951 0.223274 0.175994 -0.222310
  952 1.02652 0.142786 -0.0787056
  953 1.02654 0.142994 0.0789035
  954 12.9720 1.26333 0.0791256
  955 -0.0480028 -0.0138785 -0.0329486
  956 -0.0481039 -0.0138839 0.0330110
  957 0.376754 0.0714703 -0.417034
  958 0.383280 0.0673207 0.416764
  959 4.46246 0.226729 -0.319465
  960 4.46460 0.224126 0.319956
  961 0.460207 0.217017 -0.220788
  962 0.460455 0.217069 0.221267
  963 1.17863 -0.830518 1.47659
  964 8.70036 -0.0517463 -0.0514513
  965 8.67860 -0.0496417 0.0415959
  966 1.40943 -0.451383 1.24821
  967 1.45482 0.108801 0.0127612
  968 1.45480 0.108624 -0.0127024
  969 4.00656 -0.319196 -2.28888
  970 3.02456 0.102331 0.0142048
  971 3.02458 0.102517 -0.0142050
  972 0.352778 -0.527292 0.196138
  973 0.390094 -0.460562 -0.166490
  974 7.76427 0.00107882 0.0260305
  975 7.76417 0.00109412 -0.0260757
  976 -0.642566 -0.000315662 0.376230
  977 -0.642827 -0.000312836 -0.376464
  978 13.8241 1.68917 0.537490
  979 -0.0690684 -0.462384 -0.596770
  980 0.0520616 -2.48569 0.137748
  981 -0.0171944 -0.725614 0.554545
  982 8.00523 0.00806491 -0.103602
  983 8.00379 0.00772000 0.102744
  984 -0.106258 -0.193110 0.247529
  985 -0.106474 -0.192994 -0.247177
  986 9.62740 0.950274 -0.819988
  987 18.2195 0.202013 -0.0909722
  988 -0.0255508 -0.0366640 -0.0358596
  989 -0.0255300 -0.0367396 0.0359100
  990 4.51011 0.100924 -0.0645596
  991 4.51014 0.100632 0.0644502
  992 -0.0720168 -0.446525 0.601154
  993 6.35364 0.0672609 0.294446
  994 6.35302 0.0698099 -0.296039
  995 8.31915 -0.580699 -0.474388
  996 -0.295773 -0.0642350 0.281395
  997 -0.295724 -0.0644199 -0.281411
  998 0.113012 -0.625217 0.475216
  999 -0.0166923 -1.07281 0.434441
  1000 -0.00103064 -1.07766 0.208311
  1001 8.13847 0.590056 -0.0391042
  1002 9.55526 1.04834 0.535852
  1003 6.93171 -0.863192 -1.02356
  1004 0.0870282 -1.10711 0.391265
  1005 0.113916 -1.61840 0.153709
  1006 1.80802 0.0903544 0.0122881
  1007 1.80798 0.0901912 -0.0122722
  1008 -0.0780173 -0.0886977 -0.116219
  1009 -0.0779781 -0.0887570 0.116340
  1010 0.0548179 -0.908089 -0.494403
  1011 5.66218 0.0471224 -0.0159624
  1012 5.66215 0.0470350 0.0159247
  1013 1.03643 -0.134057 -0.388561
  1014 0.990316 -0.130926 0.385236
  1015 -0.167060 0.164286 0.552573
  1016 -0.168301 0.164861 -0.552626
  1017 -0.748269 0.107582 -0.347887
  1018 -0.747733 0.107437 0.348021
  1019 4.16814 0.0727584 -0.765454
  1020 4.17304 0.0749225 0.775443
  1021 2.95558 0.276221 -0.494132
  1022 2.95695 0.275440 0.500947
  1023 3.24576 0.288372 -0.138917
  1024 3.24659 0.287137 0.139564
  1025 8.63426 -0.314813 -1.19218
  1026 -0.280827 0.0966799 0.590550
  1027 -0.281998 0.0970369 -0.590964
  1028 6.14973 0.0295273 0.396024
  1029 6.14684 0.0346037 -0.397542
  1030 -0.0575272 -0.361679 0.635940
  1031 -0.506658 -0.0188521 0.273864
  1032 -0.506677 -0.0189083 -0.274018
  1033 5.58230 0.0932309 -0.390255
  1034 5.58490 0.0894968 0.389477
  1035 6.54637 0.129745 -0.844657
  1036 -0.0127047 -1.07086 -0.456692
  1037 -0.0905518 -0.424398 0.529044
  1038 -0.0940272 -0.428475 -0.524130
  1039 3.86307 0.275681 -0.245867
  1040 3.86475 0.273709 0.246716
  1041 4.97457 0.138432 0.151326
  1042 4.97430 0.139190 -0.151658
  1043 8.30288 -0.566823 0.419367
  1044 0.261373 0.0705611 -0.0124179
  1045 0.261425 0.0706578 0.0124396
  1046 7.02312 -0.967955 1.09492
  1047 -0.190106 0.0528455 0.0529839
  1048 -0.190168 0.0527583 -0.0529009
  1049 1.40457 0.395451 0.109313
  1050 1.40352 0.396306 -0.107583
  1051 0.478261 0.308663 0.374184
  1052 0.477286 0.309261 -0.373551
  1053 0.0698050 -1.36659 -0.331857
  1054 1.91381 0.119158 -0.0299157
  1055 1.91377 0.119431 0.0300379
  1056 5.48042 0.205397 0.220858
  1057 5.69562 0.0854203 0.146871
  1058 5.69555 0.0860479 -0.147316
  1059 -0.0521125 -0.372846 -0.636601
  1060 8.60578 -0.104863 -0.227724
  1061 -0.0358626 -0.0621862 0.649278
  1062 -0.0297846 -0.0560786 -0.647076
  1063 7.97709 -0.00554765 -0.0566199
  1064 7.97665 -0.00562562 0.0563506
  1065 8.47134 -0.0181494 -0.0981451
  1066 8.46463 -0.0194642 0.0942715
  1067 -0.00654331 -1.63637 0.158349
  1068 4.82163 0.172659 -0.203174
  1069 4.82213 0.171495 0.202832
  1070 5.94525 0.0937916 0.175463
  1071 5.94519 0.0945518 -0.176073
  1072 0.0784054 0.113846 0.604093
  1073 0.0782324 0.114168 -0.603794
  1074 13.0162 0.946386 0.0715012
  1075 -0.190718 -0.0930519 0.646893
  1076 -0.192602 -0.0913875 -0.647930
  1077 1.71062 0.384621 0.0687821
  1078 1.71053 0.384570 -0.0674521
  1079 -1.17448 0.0338028 -0.0720651
  1080 -1.17439 0.0338434 0.0721622
  1081 2.87952 0.124984 -0.885016
  1082 2.87784 0.133774 0.899493
  1083 0.762480 0.347265 0.315535
  1084 0.761341 0.348024 -0.314659
  1085 1.92388 0.168529 -0.607498
  1086 1.91476 0.179261 0.615958
  1087 -0.0583942 -0.556546 -0.431762
  1088 6.95824 0.0637409 1.07207
  1089 5.00443 -0.274387 3.02408
  1090 0.717630 0.347283 0.327146
  1091 0.716089 0.348470 -0.326389
  1092 2.95861 0.211522 -0.0265648
  1093 2.95890 0.210905 0.0267403
  1094 11.3060 -0.227055 0.615692
  1095 0.638416 0.124065 0.258371
  1096 0.630315 0.126833 -0.259833
  1097 -0.339794 -0.0779648 0.377804
  1098 -0.339842 -0.0782378 -0.377982
  1099 -0.0112408 -0.242061 0.0991215
  1100 -0.0116508 -0.241867 -0.0994919
  1101 7.39406 0.0217714 0.243383
  1102 7.39425 0.0252178 -0.246745
  1103 -0.00166435 -0.567923 0.600834
  1104 -0.533226 0.0255552 -0.520345
  1105 -0.532664 0.0255038 0.520030
  1106 0.00323776 -2.00637 -0.209371
  1107 -0.137012 -0.188794 0.645453
  1108 -0.136739 -0.185390 -0.645900
  1109 7.11619 0.0330411 -0.102688
  1110 7.11596 0.0328041 0.102315
  1111 7.26244 -0.0250076 0.283602
  1112 7.25977 -0.0195970 -0.287315
  1113 1.15467 0.218405 -0.117630
  1114 1.14620 0.224546 0.121349
  1115 -0.0189155 -1.03374 -0.363171
  1116 9.61284 -1.17428 -1.68551
  1117 12.5307 1.30185 -0.321066
  1118 0.112558 -1.71723 -0.113066
  1119 0.369379 0.225650 -0.476943
  1120 0.371279 0.224070 0.476059
  1121 1.06670 0.375940 0.205918
  1122 1.06489 0.377432 -0.204596
  1123 2.37061 0.193224 -0.0185615
  1124 2.37044 0.193693 0.0187786
  1125 -0.168570 -0.240225 0.491667
  1126 -0.168208 -0.242191 -0.492124
  1127 -0.529750 0.144191 0.441286
  1128 -0.530464 0.144453 -0.441207
  1129 -0.231898 0.175626 0.514080
  1130 -0.232918 0.176080 -0.514033
  1131 6.85345 -0.343666 -0.453156
  1132 6.90144 -0.349065 0.446156
  1133 0.00331104 -1.21539 -0.439825
  1134 3.52866 -0.0601588 -1.14850
  1135 3.53767 -0.0482942 1.17259
  1136 1.05475 0.362609 -0.204333
  1137 1.05532 0.362237 0.205390
  1138 3.73070 0.878924 3.39565
  1139 0.797213 0.300539 0.242735
  1140 0.796813 0.300622 -0.241993
  1141 9.48215 -1.18412 -0.249685
  1142 3.45948 0.148017 0.0282056
  1143 3.45935 0.148444 -0.0282073
  1144 -0.164087 -0.147312 0.295587
  1145 -0.164088 -0.147563 -0.295348
  1146 -0.197804 -0.178943 0.385505
  1147 -0.197654 -0.179513 -0.385348
  1148 6.08009 -0.719615 -1.67956
  1149 6.22413 -0.784534 1.69406
  1150 0.961566 0.0786376 -0.00171689
  1151 0.961606 0.0787805 0.00177776
  1152 3.73811 0.189608 -0.601890
  1153 3.74041 0.186211 0.609763
  1154 8.47988 -1.27527 1.23419
  1155 7.70815 -0.00712946 0.0157270
  1156 7.70797 -0.00712061 -0.0157423
  1157 -0.747898 0.109868 0.391792
  1158 -0.748507 0.110041 -0.391730
  1159 -1.25415 0.0439123 -0.212192
  1160 -1.25380 0.0438909 0.212336
  1161 1.79977 -0.324723 1.92983
  1162 5.28861 0.394613 -0.443811
  1163 3.41934 0.288046 -0.263713
  1164 3.42133 0.286257 0.265805
  1165 11.2310 -0.720169 1.78170
  1166 3.47143 0.267662 -0.421035
  1167 3.47410 0.265257 0.424700
  1168 0.759917 0.148578 -0.103644
  1169 0.759965 0.148780 0.103889
  1170 0.279760 -1.38733 0.0845946
  1171 0.283449 -1.36530 -0.160208
  1172 4.74962 -0.422355 -1.68980
  1173 4.82342 -0.399908 1.69232
  1174 1.78286 0.261057 -0.387286
  1175 1.77616 0.268006 0.394206
  1176 8.55989 -0.629900 -0.809820
  1177 -0.339431 -0.0385862 0.584744
  1178 -0.340115 -0.0384563 -0.585202
  1179 -0.0178916 -0.510081 -0.615874
  1180 2.05494 -0.0865195 -1.17741
  1181 2.06183 -0.0771069 1.20311
  1182 -0.00568702 -0.432087 0.111312
  1183 -0.00483141 -0.433047 -0.112597
  1184 -2.15269 0.0193798 -0.0618140
  1185 -2.15237 0.0193786 0.0618582
  1186 6.95326 0.0211256 -0.0253397
  1187 6.95328 0.0210785 0.0252570
  1188 4.13851 0.204382 -0.155328
  1189 4.13930 0.203158 0.155349
  1190 -0.187453 -0.0222268 0.653192
  1191 -0.187885 -0.0197958 -0.654117
  1192 0.00180314 -1.77419 -0.177854
  1193 -1.81001 0.00518664 0.0949492
  1194 -1.81047 0.00519763 -0.0949430
  1195 1.24968 -0.212989 -0.775525
  1196 1.23967 -0.204621 0.806233
  1197 7.98568 -0.494316 0.0721016
  1198 2.14047 0.0344535 -1.05144
  1199 2.14360 0.0435533 1.06633
  1200 -0.984449 0.00494187 0.137656
  1201 -0.984578 0.00494389 -0.137745
  1202 0.0234176 -1.62025 -0.327272
  1203 -0.429458 0.0819076 -0.0981909
  1204 -0.429357 0.0819874 0.0983450
  1205 1.07975 0.317615 0.200950
  1206 1.07941 0.317635 -0.200080
  1207 4.44630 0.0728434 -0.0235009
  1208 4.44627 0.0726903 0.0234777
  1209 6.09409 0.0667207 0.112212
  1210 6.09414 0.0671167 -0.112574
  1211 0.284700 -0.112870 0.425317
  1212 0.280538 -0.117785 -0.430118
  1213 0.0451496 -0.951568 0.489340
  1214 10.8484 1.35046 0.745128
  1215 -0.337156 -0.0278349 0.213023
  1216 -0.337054 -0.0279277 -0.213048
  1217 0.0346673 -0.890111 -0.505002
  1218 -0.0337776 -0.515917 0.313436
  1219 -0.0318319 -0.512176 -0.324988
  1220 8.66151 -0.0904012 0.203675
  1221 0.00841572 -2.03996 0.183692
  1222 0.0470574 -0.665518 -0.562268
  1223 0.878120 0.0681570 0.0158435
  1224 0.878074 0.0680344 -0.0158245
  1225 -0.0952487 -0.388207 0.587426
  1226 -1.06041 0.0639673 -0.186794
  1227 -1.06013 0.0639657 0.186974
  1228 18.5446 0.349980 0.487647
  1229 -0.536566 0.0519882 0.531609
  1230 -0.537246 0.0520944 -0.531924
  1231 4.01360 0.188240 -0.545761
  1232 4.01875 0.183895 0.549803
  1233 0.234448 -0.509140 -0.314753
  1234 3.83774 0.248668 -0.196180
  1235 3.83899 0.247045 0.196692
  1236 0.144860 -1.37521 -0.157179
  1237 -0.0953084 -0.388387 -0.585632
  1238 -0.800036 0.0437764 0.119760
  1239 -0.800170 0.0437199 -0.119605
  1240 -0.332734 0.00911734 -0.604078
  1241 -0.331923 0.00902476 0.603694
  1242 8.12776 0.632222 0.925228
  1243 4.68052 0.0817208 -0.595548
  1244 4.68750 0.0787271 0.597066
  1245 -2.28277 0.00794547 -0.0262442
  1246 -2.28265 0.00794951 0.0262841
  1247 4.25165 0.155083 -0.107877
  1248 4.25186 0.154495 0.107746
  1249 -2.37025 -0.0355422 -0.00555007
  1250 -2.37021 -0.0355407 0.00555302
  1251 6.36754 -0.463455 -0.679533
  1252 -1.05186 0.0165789 0.298301
  1253 -1.05226 0.0166188 -0.298443
  1254 6.43840 -0.489385 0.672972
  1255 4.30927 0.209464 -0.230622
  1256 4.31034 0.207791 0.230656
  1257 0.474176 -1.71877 -0.775363
  1258 0.00889236 -1.46485 -0.379775
  1259 -0.0363879 -0.622247 0.552086
  1260 14.2753 1.74675 -1.53441
  1261 -0.00400759 -1.36027 0.363567
  1262 14.7148 1.37543 -0.684488
  1263 -0.00503603 -2.50742 -0.179276
  1264 0.547781 0.101269 -0.0494230
  1265 0.547829 0.101417 0.0495599
  1266 -0.00658273 -0.556010 0.116813
  1267 -0.00541558 -0.558797 -0.116366
  1268 2.32704 0.108123 -0.0142774
  1269 2.32705 0.108331 0.0143079
  1270 8.67837 -0.719845 0.777948
  1271 0.0331065 0.0905847 -0.114102
  1272 0.0331923 0.0906939 0.114282
  1273 0.0510747 -2.85847 0.119572
  1274 0.0326193 -3.02617 -0.116666
  1275 7.97989 -1.07775 -0.692918
  1276 -0.0236604 -0.741660 0.349323
  1277 8.10083 0.465575 -1.12210
  1278 -0.0251334 -0.977642 0.344891
  1279 0.0159905 -2.73088 -0.150289
  1280 3.94399 0.165588 -0.108247
  1281 3.94442 0.164696 0.108232
  1282 -0.00236913 -1.44048 0.155794
  1283 -0.00428034 -1.21415 -0.354352
  1284 19.9878 3.06108 2.72537
  1285 7.74829 0.0150751 0.0128078
  1286 7.74809 0.0150751 -0.0128105
  1287 0.156729 -0.0312955 0.561545
  1288 0.151229 -0.0230730 -0.563137
  1289 -0.163640 0.0932189 0.626926
  1290 -0.165731 0.0937144 -0.627422
  1291 7.96241 -0.162077 -0.626961
  1292 7.47088 -0.300763 -0.236309
  1293 7.45990 -0.345731 0.234983
  1294 0.979605 0.165366 0.111331
  1295 0.979575 0.165124 -0.111015
  1296 -1.29499 0.0359798 -0.243263
  1297 -1.29452 0.0359222 0.243286
  1298 8.34297 -1.28010 -1.02499
  1299 -0.0634370 -0.151136 0.152753
  1300 -0.0636480 -0.150955 -0.152641
  1301 8.74876 -0.442879 1.12285
  1302 -0.0972155 -0.358647 0.422923
  1303 -0.0961827 -0.359819 -0.420894
  1304 -0.910434 0.0666466 0.140761
  1305 -0.910619 0.0666088 -0.140583
  1306 1.22481 0.0545179 -0.342735
  1307 1.21222 0.0626530 0.343902
  1308 1.95336 0.102704 0.0271821
  1309 1.95335 0.102494 -0.0271302
  1310 -0.914867 0.0882136 0.380665
  1311 -0.915431 0.0883484 -0.380671
  1312 7.23621 0.0380309 0.0199562
  1313 7.23609 0.0380377 -0.0199632
  1314 3.78581 -0.200384 2.27227
  1315 5.82936 0.0517413 0.0391205
  1316 5.82939 0.0518402 -0.0391944
  1317 3.71223 0.0704806 -0.864485
  1318 3.71523 0.0652735 0.874356
  1319 0.0339722 -1.66920 -0.265648
  1320 1.37745 0.322246 -0.0803295
  1321 1.37225 0.326609 0.0841630
  1322 -0.0130435 -0.0131666 -0.0179960
  1323 -0.0131052 -0.0131755 0.0180464
  1324 4.89445 0.197250 0.314440
  1325 4.89276 0.199879 -0.314649
  1326 2.34027 0.244993 -0.00321546
  1327 2.34000 0.245576 0.00362416
  1328 3.52694 0.251586 -0.118192
  1329 3.52770 0.250444 0.118521
  1330 4.72409 0.0758239 -0.0386984
  1331 4.72407 0.0756711 0.0386485
  1332 -0.152434 -0.0749882 -0.172931
  1333 -0.152468 -0.0749448 0.173076
  1334 -1.57524 0.0101577 0.0838997
  1335 -1.57539 0.0101437 -0.0837925
  1336 -0.266989 -0.125934 -0.433153
  1337 -0.266977 -0.125426 0.432932
  1338 -0.975887 0.0310026 0.0371844
  1339 -0.975936 0.0309573 -0.0371370
  1340 -2.38654 0.0240990 0.0153481
  1341 -2.38654 0.0240930 -0.0153281
  1342 9.03441 -1.31881 1.44351
  1343 6.09471 -0.0554604 -0.856924
</Section>

newXOutput 3

<Section columns = "stress_xx | stress_yy | stress_xy">
  1 15.9844 -0.00845617 0.0137579
  2 15.9850 -0.00846249 -0.0137653
  3 -5.14049 0.0298923 -0.0683761
  4 0.00840560 0.00262602 0.0146132
  5 29.9619 6.60188 8.84258
  6 33.8138 7.61990 -8.38442
  7 0.00838237 0.00260272 -0.0145829
  8 -5.14048 0.0298995 0.0683865
  9 15.9314 -0.00705796 -0.0518373
  10 15.9404 -0.0354625 -0.0866251
  11 16.0934 -0.0334809 -0.0205657
  12 16.1023 -0.0282116 -0.0971917
  13 16.1270 -0.0259902 -0.0249217
  14 16.4743 -0.0284359 -0.0366894
  15 16.5833 -0.0477067 -0.129829
  16 16.6896 -0.0149455 -0.0858088
  17 16.7444 0.0314890 -0.166012
  18 17.4460 -0.0770805 -0.142758
  19 17.7250 -0.0531142 -0.187690
  20 18.0183 -0.0921726 -0.0561634
  21 18.1326 -0.132085 -0.0183096
  22 17.8958 -0.161388 0.288559
  23 17.1328 -0.189580 0.578981
  24 15.4224 -0.234241 1.19591
  25 12.7702 0.100381 1.37622
  26 10.5164 0.108054 1.30577
  27 7.46368 0.302973 0.793550
  28 8.01460 0.296402 0.0454935
  29 6.38886 0.905774 -0.519096
  30 9.82841 0.399874 -1.38172
  31 11.8120 0.0775238 -1.14138
  32 15.0435 -0.0624450 -0.987779
  33 16.8649 -0.229947 -0.686108
  34 17.8427 -0.189136 -0.289386
  35 18.0759 -0.126915 0.0177239
  36 17.9771 -0.0906658 0.0497330
  37 17.7030 -0.0537153 0.180204
  38 17.4333 -0.0784946 0.138160
  39 16.7390 0.0306061 0.163502
  40 16.6869 -0.0152828 0.0847458
  41 16.5823 -0.0478948 0.129314
  42 16.4739 -0.0285312 0.0364193
  43 16.1271 -0.0260363 0.0247661
  44 16.1027 -0.0282556 0.0971253
  45 16.0939 -0.0335070 0.0205258
  46 15.9409 -0.0354762 0.0866218
  47 15.9320 -0.00706281 0.0518358
  48 14.9999 0.0710907 -0.0177380
  49 13.8119 0.0667800 -0.0431837
  50 12.3411 0.0282195 -0.0484664
  51 10.8307 0.127371 -0.0403074
  52 9.52283 0.125712 -0.0328233
  53 8.13585 0.172828 -0.0394614
  54 6.77934 0.240996 -0.0272371
  55 5.38347 0.223354 -0.0506922
  56 4.23418 0.176834 -0.0685026
  57 2.73706 0.134656 -0.0720653
  58 1.22563 0.152343 -0.0542288
  59 -0.0302366 0.123837 -0.0522940
  60 -1.58865 0.0805237 -0.0490312
  61 -2.74649 0.0124742 -0.110154
  62 -3.86550 -0.0630717 -0.0514130
  63 -4.99398 0.0154027 0.0304835
  64 -5.23020 0.0911527 -0.0174964
  65 -5.23854 0.0428219 0.00883654
  66 -5.06060 0.0244717 -0.0128185
  67 -5.09081 0.0601797 -0.0684994
  68 -4.99810 0.0716852 -0.0163626
  69 -4.71688 0.0246850 -0.102619
  70 -4.74099 0.0438010 -0.108847
  71 -4.60647 0.0421113 -0.0659542
  72 -4.25483 0.0280276 -0.0948796
  73 -4.07039 0.0460922 -0.149494
  74 -3.81108 0.0502709 -0.125912
  75 -3.35914 0.0261577 -0.206880
  76 -3.10192 0.00795182 -0.173322
  77 -2.65136 0.0114567 -0.197100
  78 -2.25966 0.00704226 -0.214879
  79 -1.92400 0.00180527 -0.169472
  80 -1.46512 0.00926619 -0.170005
  81 -1.07192 -0.00550011 -0.180489
  82 -0.692105 -0.0205672 -0.156388
  83 -0.393157 -0.0178453 -0.118569
  84 -0.190430 -0.0302875 -0.0981130
  85 -0.0274047 -0.0174279 -0.0337826
  86 0.00536450 -0.0187156 -0.0111824
  87 -0.0102564 -0.00751773 -0.000760027
  88 -0.0271887 -0.0201660 -0.0294033
  89 -0.0262922 -0.160298 -0.0848453
  90 -0.0229965 -0.364951 -0.122835
  91 -0.0123308 -0.631614 -0.180311
  92 -0.00684065 -0.973957 -0.155842
  93 -0.00696157 -1.29309 -0.196500
  94 -0.0248456 -1.68846 -0.223496
  95 -0.0100560 -2.17252 -0.227682
  96 0.00484778 -2.66059 -0.219209
  97 0.0108606 -3.18593 -0.217222
  98 0.0159814 -3.72912 -0.215302
  99 0.00341008 -4.14264 -0.292885
  100 0.0301499 -4.71629 -0.263332
  101 0.0354103 -5.39243 -0.217307
  102 0.00436725 -5.72590 -0.289615
  103 0.0505263 -6.25579 -0.273836
  104 0.116778 -6.96641 -0.162871
  105 0.224659 -7.23377 -0.257473
  106 0.141645 -6.87821 0.0392825
  107 0.175925 -5.63217 0.423508
  108 1.19442 -4.16250 1.56300
  109 3.96533 2.94403 6.35606
  110 46.7748 2.28952 4.38276
  111 39.9649 0.770063 1.64251
  112 38.6867 0.330274 0.351497
  113 38.4371 0.160410 -0.0612721
  114 38.6654 0.477945 -0.869299
  115 39.7210 1.35371 -1.89897
  116 45.2879 4.47339 -5.51819
  117 9.25063 2.18133 -7.82224
  118 1.90922 -4.08960 -2.00653
  119 0.552331 -6.14889 -0.675321
  120 0.148211 -6.55176 -0.0533424
  121 0.178108 -6.98777 0.175965
  122 0.0538168 -6.71171 0.136673
  123 0.0230961 -6.10314 0.241993
  124 0.0227416 -5.71201 0.194190
  125 0.0300342 -5.11160 0.302456
  126 -0.00129466 -4.75323 0.287510
  127 0.0119408 -4.28167 0.208599
  128 0.0216597 -3.68271 0.259110
  129 0.00347888 -3.25747 0.205892
  130 0.00668966 -2.66684 0.259544
  131 -0.0265942 -2.19807 0.222233
  132 -0.0194974 -1.69030 0.216872
  133 -0.00527869 -1.28654 0.197152
  134 -0.00865419 -0.968599 0.156323
  135 -0.0121290 -0.629807 0.178649
  136 -0.0226966 -0.364664 0.122245
  137 -0.0261610 -0.160517 0.0847826
  138 -0.0271646 -0.0203730 0.0294523
  139 -0.0102573 -0.00761157 0.000820579
  140 0.00525471 -0.0187366 0.0112425
  141 -0.0276270 -0.0174274 0.0338683
  142 -0.190824 -0.0302757 0.0982243
  143 -0.393736 -0.0178046 0.118631
  144 -0.692690 -0.0205168 0.156378
  145 -1.07235 -0.00545882 0.180390
  146 -1.46535 0.00927373 0.169882
  147 -1.92394 0.00181507 0.169350
  148 -2.25935 0.00704740 0.214758
  149 -2.65075 0.0114449 0.196990
  150 -3.10112 0.00793441 0.173240
  151 -3.35822 0.0261381 0.206829
  152 -3.81009 0.0502498 0.125899
  153 -4.06941 0.0460735 0.149509
  154 -4.25393 0.0280194 0.0949193
  155 -4.60568 0.0421064 0.0660033
  156 -4.74031 0.0437954 0.108906
  157 -4.71634 0.0246836 0.102684
  158 -4.99772 0.0716909 0.0164237
  159 -5.09052 0.0601884 0.0685503
  160 -5.06042 0.0244778 0.0128551
  161 -5.23844 0.0428298 -0.00881196
  162 -5.23014 0.0911644 0.0175183
  163 -4.99394 0.0154065 -0.0304735
  164 -3.86541 -0.0630575 0.0514295
  165 -2.74635 0.0125230 0.110175
  166 -1.58849 0.0806196 0.0490576
  167 -0.0300724 0.123989 0.0523162
  168 1.22578 0.152558 0.0542495
  169 2.73717 0.134931 0.0720882
  170 4.23425 0.177154 0.0685162
  171 5.38352 0.223703 0.0506996
  172 6.77938 0.241343 0.0272284
  173 8.13589 0.173135 0.0394430
  174 9.52285 0.125967 0.0327959
  175 10.8307 0.127552 0.0402685
  176 12.3410 0.0283280 0.0484217
  177 13.8117 0.0668164 0.0431569
  178 14.9995 0.0710952 0.0177257
  179 3.84224 0.761866 0.0241243
  180 3.84188 0.761862 -0.0205128
  181 -0.161407 0.0714305 1.27581
  182 -0.165014 0.0718514 -1.27512
  183 9.08392 -0.144791 -1.85012
  184 9.08343 -0.165043 1.87348
  185 1.69061 0.294804 0.161709
  186 1.67068 0.304231 -0.158680
  187 1.08615 0.296367 -0.272404
  188 1.08637 0.296685 0.272982
  189 8.71175 0.271018 -0.234668
  190 8.71243 0.269572 0.234395
  191 -0.351715 0.376062 0.750130
  192 -0.352993 0.376521 -0.749532
  193 10.1394 0.354041 -0.677298
  194 10.1440 0.348054 0.677016
  195 -0.417839 -0.369026 0.946886
  196 -0.417404 -0.370821 -0.947533
  197 0.0577165 -0.938603 -1.20321
  198 2.96924 -0.101408 -1.56413
  199 0.0779950 -0.999744 1.18008
  200 2.92084 -0.0729189 1.59890
  201 14.4635 -2.16272 -2.73250
  202 15.0162 -2.25002 2.60218
  203 4.99504 0.272131 0.0120216
  204 4.99516 0.271520 -0.0118698
  205 -1.12770 0.101137 -0.165828
  206 -1.12747 0.101272 0.166040
  207 -1.26735 0.173080 0.966736
  208 -1.26880 0.173511 -0.967117
  209 5.01215 0.570985 -0.0234290
  210 5.01292 0.569702 0.0245029
  211 1.42087 0.634346 0.632906
  212 1.41624 0.638391 -0.632178
  213 -1.70793 0.183673 -0.441843
  214 -1.70722 0.183640 0.442239
  215 11.8123 0.0980284 0.124313
  216 11.8122 0.0983855 -0.124633
  217 0.330296 -1.79270 0.634976
  218 0.360112 -1.64584 -0.588689
  219 -0.123090 -1.03171 1.08123
  220 -0.124418 -1.06657 -1.04517
  221 4.59450 0.697341 -0.595396
  222 4.59284 0.699712 0.606081
  223 -1.09582 -0.0152224 0.939114
  224 -1.09665 -0.0151989 -0.939744
  225 12.6413 0.150676 -0.395437
  226 12.6412 0.148903 0.393804
  227 13.5180 -0.132878 -0.758295
  228 13.5264 -0.148996 0.750947
  229 21.3095 1.77183 -0.0754823
  230 19.5667 2.07414 1.75703
  231 19.5756 -0.458625 -2.31709
  232 2.14096 0.586457 0.374346
  233 2.14051 0.586336 -0.372883
  234 0.0159989 0.428580 1.02824
  235 0.0135849 0.429867 -1.02788
  236 15.0864 -0.917410 -0.387045
  237 14.9934 -0.930687 0.431992
  238 8.23248 0.175283 -0.0758117
  239 8.23256 0.174767 0.0756872
  240 -2.00564 0.138760 0.659972
  241 -2.00673 0.138993 -0.659901
  242 -0.259423 -0.256056 -0.415835
  243 -0.259315 -0.256042 0.416248
  244 -2.32440 0.0774723 0.237334
  245 -2.32480 0.0774015 -0.237048
  246 6.64534 0.600270 -0.378366
  247 6.64770 0.597320 0.380480
  248 8.52412 0.326546 -1.01628
  249 8.53332 0.319293 1.02128
  250 1.82750 0.207427 -0.0574473
  251 1.82762 0.207733 0.0576352
  252 4.79325 -0.437853 -3.71322
  253 5.72855 -0.256916 4.10772
  254 0.562598 0.235538 1.01926
  255 0.560282 0.242484 -1.02121
  256 20.8152 -2.02555 0.108965
  257 1.56682 0.693514 0.546275
  258 1.56516 0.694532 -0.544524
  259 4.68084 0.447334 -1.26919
  260 4.67471 0.460942 1.28954
  261 23.0413 2.97636 -0.866529
  262 13.7097 0.0767225 0.535489
  263 13.7091 0.0822355 -0.539881
  264 -0.128440 -0.776028 -0.661344
  265 -0.125422 -0.779515 0.664249
  266 -0.0329743 -1.87665 -0.935836
  267 0.0476693 -2.25578 -0.910310
  268 0.0223279 -2.22945 0.934002
  269 -0.379002 -0.334911 1.24557
  270 -0.380033 -0.333765 -1.24907
  271 0.657768 -2.04263 -0.0632038
  272 0.704901 -1.91432 0.171105
  273 -0.799604 -0.0710981 0.582413
  274 -0.799624 -0.0713403 -0.582670
  275 9.58007 0.367682 -0.404296
  276 9.58180 0.364804 0.403684
  277 16.9862 -1.88132 0.181647
  278 3.49245 0.401615 -0.105741
  279 3.49229 0.402295 0.106293
  280 -0.0506820 -1.75709 0.891984
  281 0.126361 0.384767 0.522008
  282 0.125620 0.384848 -0.521221
  283 27.4182 2.02002 -0.491377
  284 13.3803 0.0685860 0.157796
  285 13.3804 0.0690137 -0.158387
  286 8.59646 -0.540999 -2.83913
  287 8.68518 -0.532907 2.89292
  288 16.9596 -1.77731 -0.469475
  289 -1.67137 0.0469123 0.749386
  290 -1.67223 0.0470024 -0.749812
  291 16.7144 -1.85086 4.77445
  292 -0.792149 0.0990940 1.15169
  293 -0.793803 0.0992800 -1.15248
  294 2.58700 0.721473 0.0276874
  295 2.57831 0.728734 -0.0219996
  296 -3.24308 0.0429597 0.0471010
  297 -3.24323 0.0429263 -0.0470332
  298 13.9919 -0.369484 -6.61860
  299 -2.92880 0.0653086 -0.366309
  300 -2.92794 0.0652434 0.366488
  301 -0.125659 -0.415274 1.30241
  302 -0.0879244 -0.409786 -1.29497
  303 5.90043 0.677780 -0.565440
  304 5.90309 0.675593 0.571367
  305 1.06076 0.221593 0.203307
  306 1.06060 0.221292 -0.202954
  307 6.20259 0.346751 -0.0789684
  308 6.20298 0.345748 0.0791162
  309 0.523654 -0.618807 0.811097
  310 0.476948 -0.712282 -0.813333
  311 6.01916 0.209724 -0.00856966
  312 6.01917 0.209290 0.00857649
  313 -2.35396 0.0608397 0.558347
  314 -2.35493 0.0609475 -0.558541
  315 1.41298 -0.367955 -0.114231
  316 1.36769 -0.367878 0.0773142
  317 14.0276 0.0364305 0.0433461
  318 14.0274 0.0364907 -0.0434300
  319 31.0697 1.85017 1.02367
  320 2.85812 0.487338 0.208726
  321 2.85815 0.486732 -0.207739
  322 -0.914553 0.187502 0.334556
  323 -0.915010 0.187407 -0.334088
  324 4.03899 0.650690 0.0507307
  325 4.03937 0.649731 -0.0486477
  326 0.369561 0.405322 1.08004
  327 0.367571 0.406706 -1.08043
  328 0.0587376 -3.21699 0.683790
  329 -3.32633 0.0238454 -0.100184
  330 -3.32609 0.0238800 0.100312
  331 10.5239 0.118158 -0.0798316
  332 10.5239 0.117880 0.0796808
  333 11.0914 0.161968 -0.212020
  334 11.0915 0.161056 0.211391
  335 -3.05921 0.0646058 -0.276314
  336 -3.05861 0.0646124 0.276555
  337 -0.353734 0.102337 0.0500876
  338 -0.353906 0.102190 -0.0499918
  339 -0.0673780 -1.27530 0.664145
  340 -0.0540113 -1.32591 -0.663202
  341 12.3153 -1.09039 -1.87873
  342 12.8269 -1.30135 1.83738
  343 7.22305 0.460686 -0.224393
  344 7.22417 0.458757 0.224691
  345 3.02739 0.770757 0.101759
  346 3.02405 0.773350 -0.0972814
  347 -1.33792 0.239289 0.613832
  348 -1.33890 0.239508 -0.613439
  349 23.7013 -0.189959 -0.0542814
  350 1.11718 -2.34474 -1.04700
  351 1.19647 -2.24438 1.11560
  352 -0.639727 0.357131 0.952323
  353 -0.641464 0.357857 -0.952145
  354 -0.680998 -0.151980 1.09375
  355 -0.681986 -0.151982 -1.09485
  356 26.7306 4.09688 -0.589845
  357 16.6363 -0.395138 2.59441
  358 15.8952 -0.334871 -0.297735
  359 15.8698 -0.327519 0.265266
  360 10.8958 -0.0813741 -1.18401
  361 10.8854 -0.0957897 1.18279
  362 0.0205437 -3.87017 -0.564655
  363 14.6516 0.0852131 -0.306621
  364 14.6500 0.0835482 0.304254
  365 0.176291 -3.70927 0.495778
  366 16.0823 1.24645 -1.55222
  367 3.83475 0.227075 0.0752603
  368 3.83468 0.226721 -0.0751968
  369 11.0004 0.157134 -0.881480
  370 11.0083 0.148536 0.880751
  371 11.9917 0.181323 -0.546966
  372 11.9929 0.177488 0.544679
  373 -0.496221 0.176968 0.239544
  374 -0.496527 0.176795 -0.239166
  375 6.60581 0.369371 -1.35324
  376 6.61181 0.372039 1.37014
  377 14.4748 0.0354054 0.0719276
  378 14.4747 0.0355111 -0.0721342
  379 7.83981 0.521636 -0.655429
  380 7.84431 0.516737 0.658266
  381 9.21481 0.241112 0.160547
  382 9.21459 0.241910 -0.160850
  383 -0.446050 -0.0831975 0.354184
  384 -0.445848 -0.0833563 -0.354057
  385 -0.104300 -0.0745974 -0.0997787
  386 -0.104367 -0.0746605 0.0999405
  387 19.1368 -2.70204 0.953223
  388 -0.263580 -0.625261 0.989027
  389 -0.261926 -0.629783 -0.988464
  390 2.82051 0.278251 -0.133138
  391 2.82051 0.278745 0.133493
  392 -0.0963886 -0.472647 0.354940
  393 -0.0973907 -0.471674 -0.354871
  394 0.965532 0.564099 0.589897
  395 0.964409 0.564556 -0.588679
  396 15.6788 -0.0176397 0.396527
  397 15.6814 -0.0105909 -0.407366
  398 -0.0613455 -0.995299 1.22544
  399 -1.29586 -0.0271277 0.557211
  400 -1.29610 -0.0271840 -0.557581
  401 -0.0661530 -1.04652 -1.21090
  402 14.7892 0.0470029 0.194313
  403 14.7899 0.0475311 -0.195294
  404 -0.247887 0.292915 1.17683
  405 -0.251135 0.294256 -1.17720
  406 10.7144 0.250761 -0.347785
  407 10.7150 0.248973 0.346805
  408 16.5415 -0.717633 -0.537650
  409 16.6297 -0.568653 0.421895
  410 -0.0377983 -1.74444 -0.732321
  411 1.32579 0.464106 -0.525698
  412 1.33643 0.457242 0.526410
  413 15.6912 1.07632 0.992300
  414 9.10418 -0.737661 -3.99703
  415 9.37500 -0.916678 4.20699
  416 0.372038 0.519170 0.826942
  417 0.370243 0.520108 -0.826077
  418 6.70806 0.287020 -0.0537406
  419 6.70822 0.286329 0.0537249
  420 6.46643 0.229389 6.41686
  421 2.53178 0.688770 -0.331859
  422 2.53260 0.688491 0.334005
  423 0.142358 -1.79439 0.896566
  424 -0.0213603 -2.85110 -0.648391
  425 0.917854 0.616855 0.805310
  426 0.915325 0.618528 -0.804322
  427 1.10600 0.412331 -0.383435
  428 1.10639 0.412523 0.384288
  429 -0.525214 -0.0560044 -1.25610
  430 -0.523507 -0.0567858 1.25505
  431 3.08608 0.577404 -0.375178
  432 3.07434 0.587702 0.384807
  433 16.4304 -0.589972 -1.93453
  434 0.387098 -0.274549 1.06999
  435 0.372754 -0.267825 -1.07379
  436 11.9372 -0.495750 -1.31047
  437 11.9935 -0.536961 1.30516
  438 -3.14326 0.0293232 -0.344723
  439 -3.14230 0.0292564 0.344746
  440 0.000964952 -2.78389 0.578917
  441 -0.0214153 -1.76080 0.650597
  442 -1.29576 0.0719679 0.962133
  443 -1.29683 0.0720793 -0.962703
  444 8.55629 0.170691 -0.0222568
  445 8.55629 0.170333 0.0221763
  446 -0.267961 -0.422347 0.662306
  447 -0.268189 -0.423044 -0.661277
  448 5.12212 0.133204 -2.00366
  449 5.11606 0.160323 2.03506
  450 0.0439786 -3.44065 -0.669217
  451 31.0489 1.25610 0.0544253
  452 0.0787213 -4.18103 -0.456021
  453 -3.81291 0.0129918 -0.138591
  454 -3.81253 0.0130161 0.138735
  455 -1.50290 0.195881 0.819217
  456 -1.50422 0.196274 -0.819263
  457 -1.63599 0.0216377 0.563837
  458 -1.63646 0.0216681 -0.564193
  459 5.65832 0.669698 -0.340464
  460 5.66026 0.667942 0.344213
  461 8.76646 0.446887 -0.509211
  462 8.76959 0.442770 0.509661
  463 -0.182946 -0.614808 1.26078
  464 -0.182955 -0.610444 -1.26543
  465 14.9864 0.145086 -2.44674
  466 0.948202 -0.457457 -0.394085
  467 0.915357 -0.465599 0.411157
  468 0.222335 -3.91549 0.120588
  469 0.137479 -4.47992 -0.213503
  470 -0.484314 -0.221274 0.683242
  471 -0.484222 -0.221907 -0.683207
  472 3.08237 -1.06291 -3.13777
  473 24.3213 -0.769700 -1.72454
  474 5.14411 0.435318 0.0444330
  475 5.14360 0.436459 -0.0438525
  476 7.53998 0.0296867 -1.96967
  477 7.56406 0.0264432 2.00655
  478 2.07647 0.798971 0.434239
  479 2.07394 0.801074 -0.431846
  480 6.79579 0.555315 -0.962439
  481 6.80215 0.550607 0.972430
  482 0.168781 0.0746838 1.21637
  483 0.184215 0.0824751 -1.21431
  484 -3.35187 0.0568296 -0.267314
  485 -3.35114 0.0568192 0.267495
  486 15.5039 -1.91030 -0.945598
  487 12.4716 0.0723839 -0.0621538
  488 12.4716 0.0722653 0.0620666
  489 0.376017 0.140858 -0.116998
  490 0.376192 0.141078 0.117209
  491 -0.960187 0.299334 0.789274
  492 -0.961521 0.299778 -0.788962
  493 -2.02879 0.133335 -0.311822
  494 -2.02827 0.133368 0.312178
  495 5.13634 0.603904 -0.0897143
  496 5.13732 0.602355 0.0912661
  497 -0.761073 0.237868 1.07103
  498 -0.763011 0.238591 -1.07139
  499 14.2283 -0.356569 -0.681445
  500 14.2496 -0.379550 0.664172
  501 9.10156 0.133213 -1.29470
  502 9.09068 0.123498 1.30757
  503 3.21122 0.241516 -0.0820864
  504 3.21126 0.241934 0.0822547
  505 0.0222726 -1.79860 -1.05111
  506 16.5708 -0.659760 1.59961
  507 0.189385 -1.26163 -1.00938
  508 4.48617 0.775184 0.311753
  509 4.48673 0.774307 -0.305049
  510 15.3311 -1.78826 0.925318
  511 1.05875 -2.30426 1.53548
  512 18.4242 -2.72597 -2.00025
  513 12.4529 0.124377 0.654187
  514 12.4495 0.131212 -0.657358
  515 0.0171158 -1.55015 1.09396
  516 -0.242375 -0.0736503 -0.186814
  517 -0.242548 -0.0736518 0.187001
  518 1.24213 0.144651 -0.0419691
  519 1.24228 0.144882 0.0420516
  520 -0.0436131 -0.973507 0.422626
  521 -0.0395680 -0.968638 -0.424548
  522 10.2470 0.191539 0.135810
  523 10.2469 0.192007 -0.136081
  524 29.6405 4.77058 1.53724
  525 1.08859 -1.01167 -0.117394
  526 0.840890 -1.26572 -0.0549976
  527 -0.523593 0.253906 -0.433410
  528 -0.522998 0.253928 0.433984
  529 -2.56061 0.0412253 0.343402
  530 -2.56138 0.0412667 -0.343563
  531 0.0241361 -3.20992 0.656659
  532 -3.79277 0.0442735 0.0469940
  533 -3.79294 0.0442515 -0.0469149
  534 2.96184 -0.641370 -2.24828
  535 2.89148 -0.576789 2.35122
  536 2.69635 0.372261 -0.619913
  537 2.67636 0.386929 0.629012
  538 -0.699295 -0.156246 0.948639
  539 -0.699810 -0.156662 -0.949448
  540 2.59907 0.329620 0.149434
  541 2.59908 0.329108 -0.148935
  542 -1.74764 0.0994765 0.151643
  543 -1.74793 0.0993822 -0.151399
  544 3.12524 0.557055 0.203604
  545 3.12530 0.556448 -0.202173
  546 -0.0684361 -0.217151 0.159055
  547 -0.0686456 -0.216903 -0.159004
  548 1.07803 0.461326 0.765350
  549 1.07126 0.469043 -0.766004
  550 0.873039 0.0385748 0.704645
  551 0.860149 0.0373653 -0.710189
  552 12.7208 0.157230 0.279059
  553 12.7209 0.158116 -0.279984
  554 11.1409 0.233176 0.430559
  555 11.1400 0.235747 -0.431941
  556 -0.0115912 -2.65138 -0.397796
  557 7.63509 0.485817 -0.364667
  558 7.63699 0.483107 0.365305
  559 7.68888 0.278876 -0.115725
  560 7.68927 0.277901 0.115632
  561 -1.35629 0.0755935 -0.0110995
  562 -1.35612 0.0756913 0.0111530
  563 12.3019 0.751534 -0.468990
  564 17.6054 -2.43740 -0.532418
  565 13.7066 0.591455 1.88773
  566 0.0995230 -2.41058 -0.815871
  567 -0.976249 0.271628 -0.545420
  568 -0.975421 0.271522 0.545947
  569 0.0962515 -1.42602 1.06336
  570 -0.831109 0.00509606 1.10809
  571 -0.832378 0.00522146 -1.10884
  572 22.2631 2.17406 -0.379163
  573 4.87441 0.326533 0.00687795
  574 4.87460 0.325794 -0.00662672
  575 35.3529 2.88743 -2.77134
  576 -0.224873 -0.180788 1.31868
  577 -0.214712 -0.171991 -1.32006
  578 18.6247 -1.87060 1.15383
  579 15.1421 0.0566835 -0.345139
  580 15.1394 0.0541407 0.341425
  581 6.58470 -0.191521 -2.91149
  582 6.67413 -0.208761 2.96857
  583 -0.408993 -0.396658 1.10311
  584 -0.409068 -0.398282 -1.10520
  585 3.37007 0.126000 1.40191
  586 3.39792 0.0965720 -1.38395
  587 -3.02743 0.0368502 -0.330736
  588 -3.02647 0.0368016 0.330688
  589 21.9993 1.46282 1.97020
  590 3.92467 0.461944 -0.0853008
  591 3.92439 0.462782 0.0860374
  592 4.66294 0.568725 -0.920091
  593 4.65931 0.575757 0.935521
  594 13.5366 0.0384200 -0.650265
  595 13.5405 0.0297425 0.645427
  596 -0.0696040 -1.42650 -0.998848
  597 14.9784 0.0112061 0.101061
  598 14.9784 0.0113335 -0.101337
  599 -2.41231 0.0684728 -0.0668080
  600 -2.41211 0.0685380 0.0669395
  601 -4.05916 -0.0154836 0.00517546
  602 -4.05926 -0.0154952 -0.00515146
  603 0.279939 -2.31215 -0.495489
  604 -0.145951 -0.913190 0.840552
  605 -0.153891 -0.865581 -0.846161
  606 -1.75189 0.102176 0.808588
  607 -1.75296 0.102383 -0.808939
  608 10.1799 0.341214 0.532578
  609 10.1777 0.345177 -0.533534
  610 7.41593 0.192840 0.0297222
  611 7.41595 0.193198 -0.0297524
  612 1.56156 -0.784527 0.783973
  613 1.61752 -0.750267 -0.772444
  614 -0.0544697 -0.676699 0.355203
  615 -0.0559834 -0.674301 -0.356254
  616 17.9112 0.291163 6.98795
  617 -0.873354 -0.0289396 0.331534
  618 -0.873093 -0.0290400 -0.331662
  619 0.270456 -1.42372 -0.855595
  620 7.22625 0.389868 -0.165027
  621 7.22691 0.388482 0.165096
  622 3.39192 0.752982 -0.158304
  623 3.38716 0.757051 0.165348
  624 0.0375986 -4.95586 0.321584
  625 2.49248 0.773345 0.323394
  626 2.49107 0.774343 -0.320836
  627 -0.490416 0.332366 0.652866
  628 -0.491429 0.332617 -0.652256
  629 -0.0212637 -2.35293 0.544735
  630 -3.98067 0.0125891 -0.135848
  631 -3.98020 0.0125971 0.135980
  632 4.63818 0.216897 -0.0272730
  633 4.63816 0.217383 0.0273813
  634 12.3982 0.105779 0.178727
  635 12.3982 0.106261 -0.179219
  636 10.7012 -1.10152 5.33935
  637 8.59641 0.312888 -0.293556
  638 8.59745 0.310954 0.293353
  639 0.0761801 -0.263017 1.25513
  640 0.104105 -0.182072 -1.25731
  641 13.8855 -1.72573 -4.27632
  642 34.3821 1.24169 -1.15760
  643 -3.59167 0.00714507 -0.234005
  644 -3.59074 0.00711496 0.234064
  645 0.567629 0.234511 -0.235865
  646 0.567855 0.234764 0.236300
  647 -0.0707795 -1.49525 0.874737
  648 18.7151 0.908679 -2.47551
  649 14.8263 0.00294264 0.0151646
  650 14.8260 0.00295864 -0.0151920
  651 -0.960028 -0.0587230 -0.781440
  652 -0.959632 -0.0585815 0.780916
  653 -0.00151622 -3.36840 -0.534694
  654 15.0923 -0.00329995 0.0383355
  655 15.0920 -0.00327493 -0.0384038
  656 1.12938 0.505707 0.510622
  657 1.12864 0.505793 -0.509483
  658 11.0648 -1.07840 -2.75297
  659 11.2893 -1.07724 2.78971
  660 16.7048 -0.0769427 0.217477
  661 16.7186 -0.0752320 -0.231316
  662 0.0712720 -4.31352 0.448831
  663 -1.18341 0.0665238 -0.0908236
  664 -1.18321 0.0666352 0.0909650
  665 5.27224 -0.568127 -4.94615
  666 4.84064 0.204084 0.0241656
  667 4.84069 0.204449 -0.0241416
  668 2.22763 0.256531 0.0883258
  669 2.22755 0.256132 -0.0880438
  670 2.71146 0.395267 -0.148402
  671 2.71144 0.395858 0.149113
  672 9.45696 0.346023 -0.821510
  673 9.46375 0.339130 0.823071
  674 2.34328 0.716368 0.245037
  675 2.33759 0.721287 -0.241600
  676 -1.92835 0.146568 -0.499755
  677 -1.92750 0.146456 0.500085
  678 -2.18393 0.149775 -0.553792
  679 -2.18295 0.149609 0.553984
  680 17.0723 -0.241920 -0.130923
  681 -0.0171005 -0.770653 -1.25107
  682 17.1226 -0.254000 0.100232
  683 21.2426 1.76023 0.195584
  684 -2.16483 0.00925097 0.387870
  685 -2.16541 0.00927584 -0.388100
  686 2.03279 0.553026 0.112233
  687 2.01897 0.561532 -0.108033
  688 -4.28967 0.0119968 -0.0562089
  689 -4.28940 0.0120104 0.0562978
  690 -0.00796634 -0.703183 1.25885
  691 -1.38122 0.0123582 0.836237
  692 -1.38204 0.0124087 -0.836763
  693 18.6485 -1.76900 -1.23260
  694 2.66745 0.148653 -0.00171069
  695 2.66735 0.148366 0.00177322
  696 0.426486 0.318606 0.367347
  697 0.426086 0.318420 -0.366688
  698 9.58194 -0.505294 -2.27070
  699 9.66664 -0.525427 2.32273
  700 35.8118 2.46211 2.57159
  701 0.597907 -3.85176 -0.860200
  702 -0.272594 -0.561206 1.18781
  703 -0.273367 -0.562820 -1.18954
  704 1.82746 0.514107 -0.329171
  705 1.82779 0.514392 0.330272
  706 15.5101 0.000198518 -0.104615
  707 15.5098 7.04792e-05 0.104225
  708 7.06392 0.219158 0.0336633
  709 7.06384 0.219708 -0.0337138
  710 0.449588 0.511786 0.981107
  711 0.447139 0.513439 -0.980650
  712 0.0944244 0.186316 0.167575
  713 0.0942239 0.186102 -0.167291
  714 -0.502861 0.0712733 1.25041
  715 -0.505145 0.0718089 -1.25165
  716 12.6072 0.0553995 0.0722179
  717 12.6071 0.0555756 -0.0724045
  718 10.8006 0.179918 0.199053
  719 10.8005 0.180581 -0.199493
  720 1.31974 -1.34484 0.988907
  721 1.36341 -1.41197 -0.945627
  722 -0.931432 0.171583 1.09167
  723 -0.933141 0.172016 -1.09229
  724 0.391518 -1.21770 0.724654
  725 -0.0667668 0.283787 1.19652
  726 -0.0702840 0.285104 -1.19618
  727 -2.59869 0.0843784 -0.339415
  728 -2.59802 0.0843561 0.339700
  729 1.66659 0.639014 0.508080
  730 1.66540 0.639485 -0.506396
  731 16.6812 -0.530833 -1.11344
  732 15.8279 -1.43035 -0.167686
  733 -0.266391 -0.542397 0.824354
  734 -0.265843 -0.544556 -0.822926
  735 5.87948 -0.335998 -3.44404
  736 5.71647 -0.195521 3.49106
  737 3.50562 0.675152 -0.347985
  738 3.49871 0.681908 0.357584
  739 0.269951 -0.731411 1.06948
  740 -0.0248450 -1.72627 -0.468106
  741 7.59879 0.493947 -0.725770
  742 7.60459 0.489071 0.730510
  743 0.0225481 -3.42635 0.441893
  744 4.42061 0.705418 -0.0708528
  745 4.42116 0.704388 0.0737798
  746 16.2363 0.0142204 -0.263461
  747 16.2300 0.0117714 0.257885
  748 0.291772 -5.02152 -0.0481137
  749 6.98171 0.611978 0.522781
  750 6.97847 0.615507 -0.519807
  751 1.76828 0.627528 -0.417014
  752 1.77654 0.620380 0.418619
  753 -2.95487 0.0200446 -0.275581
  754 -2.95399 0.0200126 0.275480
  755 7.85343 0.234367 -0.109417
  756 7.85361 0.233673 0.109293
  757 4.68171 0.751651 -0.244666
  758 4.68214 0.751184 0.249650
  759 -0.121466 0.432523 0.952685
  760 -0.123437 0.433510 -0.952230
  761 15.8794 -1.21708 -0.0209244
  762 -2.71052 0.0735225 0.262389
  763 -2.71100 0.0734891 -0.262130
  764 35.7101 6.07790 -4.24863
  765 -1.19044 0.131714 0.291942
  766 -1.19083 0.131593 -0.291563
  767 13.6183 0.103143 0.466756
  768 13.6187 0.106514 -0.470041
  769 25.2483 1.73930 0.0900736
  770 15.6038 -0.0166003 -0.202995
  771 15.6024 -0.0170698 0.201868
  772 9.71703 0.234242 0.241703
  773 9.71670 0.235320 -0.242171
  774 14.6002 -1.93759 3.88894
  775 6.14071 0.555375 -0.135637
  776 6.14190 0.553575 0.136541
  777 0.129398 -2.76088 0.638017
  778 16.8258 -2.29944 1.05984
  779 10.1718 0.115272 0.0437489
  780 10.1718 0.115513 -0.0438120
  781 13.5610 0.0569337 0.0236720
  782 13.5608 0.0569866 -0.0237115
  783 -0.0654348 -1.38900 -0.815030
  784 0.0720161 -2.45141 0.855222
  785 5.76979 0.693520 0.727915
  786 5.76708 0.694847 -0.718880
  787 35.7405 0.448128 0.272066
  788 10.1989 0.154390 -1.04998
  789 10.2083 0.146134 1.05183
  790 -2.26513 0.0760949 0.615095
  791 -2.26620 0.0762599 -0.615164
  792 0.390205 -2.13418 0.340369
  793 0.259831 -4.73979 -0.137483
  794 23.6598 2.99885 0.110967
  795 -0.0219930 -1.71965 0.422105
  796 0.368657 0.285627 1.11265
  797 0.368151 0.286022 -1.11522
  798 2.92002 0.674916 0.244179
  799 2.91976 0.674735 -0.242262
  800 15.8137 -0.704303 -0.114889
  801 15.8255 -0.700997 0.0458333
  802 19.0262 1.48681 -6.56971
  803 -2.80261 0.0490016 -0.134135
  804 -2.80228 0.0490536 0.134335
  805 -1.20134 -0.00644061 0.314349
  806 -1.20121 -0.00647518 -0.314538
  807 1.02656 -0.0577005 0.504833
  808 1.00467 -0.0590711 -0.504696
  809 11.8571 -0.00371379 0.951624
  810 11.8473 0.00941071 -0.951885
  811 5.89028 0.255273 0.00755718
  812 5.89038 0.254699 -0.00751325
  813 19.3097 -0.586377 2.30663
  814 1.78430 0.385391 -0.289174
  815 1.78447 0.385793 0.289977
  816 1.73584 0.0932529 -0.0572348
  817 1.72028 0.103760 0.0641762
  818 -0.0241103 -1.42477 -1.13103
  819 28.0391 3.33258 3.22319
  820 -4.14202 0.00905917 -0.133164
  821 -4.14140 0.00905534 0.133276
  822 -0.00594558 -4.21367 0.430281
  823 0.234877 -0.719571 -1.07606
  824 -0.590505 -0.0377587 0.230595
  825 -0.590096 -0.0378303 -0.230586
  826 21.9814 0.867467 -1.88534
  827 5.43679 0.635584 -0.167289
  828 5.43819 0.633852 0.169621
  829 15.0466 -0.167241 -0.473303
  830 15.0556 -0.171319 0.461261
  831 -3.93376 0.0347526 0.171628
  832 -3.93458 0.0347587 -0.171543
  833 -0.0257416 -0.0268143 -0.0210039
  834 -0.0257909 -0.0268631 0.0210817
  835 0.0160235 -4.31409 -0.426130
  836 0.0215995 -4.61402 -0.412584
  837 -4.44459 0.0489607 0.0301593
  838 -4.44469 0.0489477 -0.0301213
  839 2.10021 -1.29165 -2.12461
  840 9.19747 0.205722 -0.0599537
  841 9.19750 0.205312 0.0598055
  842 -0.588529 0.121175 0.0380579
  843 -0.588700 0.121041 -0.0380167
  844 13.9354 0.0933612 -0.314461
  845 13.9347 0.0921246 0.312795
  846 -1.58463 0.0106360 0.300464
  847 -1.58471 0.0106416 -0.300661
  848 8.12642 -0.434065 -5.32119
  849 14.3239 -1.25811 0.962115
  850 11.3284 0.128411 -0.0876661
  851 11.3284 0.128133 0.0874456
  852 14.1759 -1.37436 -1.09540
  853 4.21025 0.570205 0.0441515
  854 4.21075 0.569103 -0.0426807
  855 5.93847 0.494471 -0.0893838
  856 5.93924 0.493035 0.0899609
  857 16.7102 -0.367377 0.846934
  858 0.868429 0.573663 0.854680
  859 0.865430 0.576019 -0.854426
  860 0.776668 0.131109 0.0853134
  861 0.776514 0.130886 -0.0851702
  862 7.74695 0.196625 0.0460395
  863 7.74693 0.197061 -0.0461113
  864 20.9756 -2.40008 1.88928
  865 13.0056 0.143097 -0.402424
  866 13.0056 0.140793 0.400190
  867 -0.0652603 0.239364 0.293140
  868 -0.0655955 0.239176 -0.292651
  869 13.1088 0.0421538 0.109521
  870 13.1088 0.0423456 -0.109799
  871 -2.69639 0.0393751 -0.0720004
  872 -2.69624 0.0394262 0.0720390
  873 -0.0127172 -1.31113 0.374156
  874 -0.0163504 -1.33157 -0.377240
  875 15.2116 -0.277794 1.93297
  876 -1.06727 0.237738 0.943070
  877 -1.06885 0.238313 -0.943175
  878 -0.00591263 -2.17239 -0.417518
  879 5.94953 0.321545 -0.0376475
  880 5.94973 0.320799 0.0377427
  881 11.1372 -0.582415 -1.71349
  882 11.2329 -0.646497 1.73157
  883 -0.527094 -0.200519 -1.19642
  884 -0.525499 -0.200933 1.19493
  885 0.452606 0.533291 0.908011
  886 0.450423 0.534582 -0.907238
  887 0.0569722 -5.12049 0.327006
  888 0.0319906 0.392745 1.11065
  889 0.0292402 0.394080 -1.11038
  890 10.2554 -0.169087 -1.51584
  891 10.2361 -0.181358 1.52836
  892 17.8021 0.808674 2.52604
  893 3.90643 0.537410 -0.0843072
  894 3.90611 0.538376 0.0853881
  895 13.4038 0.145213 -0.305116
  896 13.4033 0.144144 0.303865
  897 -0.546784 -0.248324 1.03831
  898 -0.547336 -0.248965 -1.03954
  899 0.0439989 -5.35890 -0.260079
  900 -0.839247 -0.0691455 1.02518
  901 -0.840130 -0.0691090 -1.02597
  902 0.315547 0.501238 -0.728581
  903 0.316932 0.500598 0.729479
  904 -0.0416107 -0.323242 0.180454
  905 -0.0420503 -0.322856 -0.180691
  906 0.934356 0.563475 -0.682747
  907 0.935921 0.562687 0.684003
  908 0.181155 -0.499443 1.17777
  909 0.152775 -0.465477 -1.22548
  910 12.7930 -0.322779 0.955389
  911 12.7602 -0.301759 -0.965598
  912 -4.50903 0.0201860 -0.0441760
  913 -4.50885 0.0202000 0.0442355
  914 -0.359460 -0.0337721 0.171694
  915 -0.359065 -0.0338117 -0.171592
  916 0.0186110 -3.09978 -0.384779
  917 -0.398475 -0.174077 -0.493992
  918 -0.398537 -0.173757 0.494234
  919 -1.76532 0.141598 0.790610
  920 -1.76652 0.141895 -0.790798
  921 3.76795 0.795948 -0.0435905
  922 3.76691 0.797041 0.0481464
  923 16.3793 1.38664 -0.496053
  924 -0.362230 0.393632 0.867139
  925 -0.363823 0.394305 -0.866665
  926 6.06534 0.352692 -1.52705
  927 6.06991 0.357955 1.55017
  928 -0.937458 0.284950 0.702366
  929 -0.938592 0.285300 -0.701943
  930 20.9574 -1.42188 -0.892365
  931 11.4624 0.466338 1.07798
  932 14.6254 -0.242435 -1.74911
  933 11.2040 0.235024 -0.645739
  934 11.2072 0.229670 0.644022
  935 -1.42348 0.187341 -0.369531
  936 -1.42291 0.187355 0.369969
  937 -2.83773 0.0556600 0.406107
  938 -2.83867 0.0557439 -0.406012
  939 -0.167307 -0.532570 -0.574793
  940 -0.166352 -0.533365 0.576100
  941 3.73877 0.338954 -0.0584580
  942 3.73864 0.339597 0.0588422
  943 -1.34210 0.124060 0.964564
  944 -1.34335 0.124299 -0.965092
  945 13.7068 0.0445894 0.148757
  946 13.7069 0.0448103 -0.149131
  947 -0.109844 -1.18602 0.886814
  948 0.293564 0.470749 -0.635782
  949 0.294624 0.470405 0.636664
  950 0.452279 0.350893 0.442793
  951 0.451749 0.350806 -0.442035
  952 2.05798 0.283832 -0.155701
  953 2.05805 0.284235 0.156088
  954 25.9168 2.54018 0.138796
  955 -0.0960424 -0.0277386 -0.0659108
  956 -0.0962448 -0.0277490 0.0660355
  957 0.755654 0.145113 -0.829502
  958 0.768746 0.136848 0.828903
  959 8.92376 0.451157 -0.641485
  960 8.92804 0.446011 0.642485
  961 0.925328 0.432757 -0.438711
  962 0.925876 0.432845 0.439642
  963 2.35884 -1.63706 2.96104
  964 17.3842 -0.103875 -0.103709
  965 17.3412 -0.0996575 0.0841018
  966 2.82198 -0.889138 2.50490
  967 2.91407 0.215649 0.0247513
  968 2.91399 0.215305 -0.0246362
  969 8.01508 -0.630150 -4.58446
  970 6.05020 0.202313 0.0286475
  971 6.05024 0.202676 -0.0286475
  972 0.707012 -1.04886 0.387315
  973 0.781785 -0.915525 -0.327914
  974 15.5112 0.00173503 0.0521333
  975 15.5109 0.00176519 -0.0522208
  976 -1.28358 -0.000532236 0.751495
  977 -1.28412 -0.000528617 -0.751977
  978 27.6225 3.37679 1.08567
  979 -0.137604 -0.922905 -1.19170
  980 0.104610 -4.95451 0.279836
  981 -0.0340792 -1.44864 1.10722
  982 15.9936 0.0154789 -0.207255
  983 15.9909 0.0147939 0.205560
  984 -0.212282 -0.385851 0.494730
  985 -0.212718 -0.385626 -0.494032
  986 19.2509 1.90224 -1.62655
  987 36.3693 0.401165 -0.182345
  988 -0.0510704 -0.0733591 -0.0717340
  989 -0.0510284 -0.0735106 0.0718349
  990 9.01710 0.199510 -0.129873
  991 9.01721 0.198936 0.129661
  992 -0.143435 -0.891160 1.20040
  993 12.6994 0.132670 0.590005
  994 12.6980 0.137726 -0.593137
  995 16.6293 -1.15958 -0.942043
  996 -0.590995 -0.128250 0.562324
  997 -0.590906 -0.128623 -0.562363
  998 0.226873 -1.24620 0.946985
  999 -0.0332393 -2.14265 0.867458
  1000 -0.00206860 -2.15369 0.416204
  1001 16.2858 1.17770 -0.0786736
  1002 19.1093 2.09622 1.06068
  1003 13.8583 -1.72285 -2.05217
  1004 0.174472 -2.20870 0.779435
  1005 0.228197 -3.22779 0.303849
  1006 3.61982 0.178655 0.0242779
  1007 3.61974 0.178338 -0.0242470
  1008 -0.155923 -0.177279 -0.232364
  1009 -0.155844 -0.177395 0.232604
  1010 0.110038 -1.81172 -0.985916
  1011 11.3167 0.0923404 -0.0320660
  1012 11.3167 0.0921702 0.0319925
  1013 2.07568 -0.262306 -0.783646
  1014 1.98337 -0.256084 0.776893
  1015 -0.331131 0.328768 1.10199
  1016 -0.333653 0.329914 -1.10214
  1017 -1.49202 0.214768 -0.693643
  1018 -1.49089 0.214474 0.693886
  1019 8.33741 0.145280 -1.53524
  1020 8.34709 0.149684 1.55519
  1021 5.91393 0.551992 -0.993082
  1022 5.91658 0.550474 1.00666
  1023 6.49281 0.574357 -0.280644
  1024 6.49446 0.571930 0.281937
  1025 17.2627 -0.626257 -2.37316
  1026 -0.559118 0.193686 1.17834
  1027 -0.561494 0.194392 -1.17920
  1028 12.2937 0.0573482 0.793873
  1029 12.2879 0.0674295 -0.796839
  1030 -0.114275 -0.721325 1.26952
  1031 -1.01241 -0.0375889 0.547181
  1032 -1.01246 -0.0377028 -0.547496
  1033 11.1603 0.184443 -0.782469
  1034 11.1655 0.177041 0.780960
  1035 13.1040 0.260789 -1.68188
  1036 -0.0252230 -2.13860 -0.911862
  1037 -0.180685 -0.847441 1.05677
  1038 -0.187633 -0.855627 -1.04698
  1039 7.72643 0.549051 -0.494614
  1040 7.72975 0.545163 0.496317
  1041 9.94504 0.274568 0.303839
  1042 9.94445 0.276061 -0.304485
  1043 16.5967 -1.13189 0.832564
  1044 0.529003 0.139680 -0.0246028
  1045 0.529163 0.139868 0.0246449
  1046 14.0404 -1.93184 2.19512
  1047 -0.373442 0.104488 0.105179
  1048 -0.373630 0.104319 -0.105018
  1049 2.81281 0.790106 0.214036
  1050 2.81068 0.791838 -0.210622
  1051 0.960352 0.616821 0.744395
  1052 0.958353 0.618028 -0.743171
  1053 0.139808 -2.72687 -0.660771
  1054 3.83116 0.236254 -0.0583935
  1055 3.83111 0.236787 0.0586334
  1056 10.9823 0.410160 0.439480
  1057 11.3844 0.168789 0.294579
  1058 11.3842 0.170027 -0.295448
  1059 -0.103436 -0.743706 -1.27086
  1060 17.1996 -0.209836 -0.452792
  1061 -0.0701813 -0.122882 1.29545
  1062 -0.0580247 -0.110729 -1.29104
  1063 15.9366 -0.0114949 -0.113296
  1064 15.9358 -0.0116495 0.112767
  1065 16.9252 -0.0367735 -0.196445
  1066 16.9121 -0.0393888 0.188756
  1067 -0.0130713 -3.27014 0.316320
  1068 9.63991 0.342883 -0.407790
  1069 9.64095 0.340585 0.407125
  1070 11.8829 0.185621 0.351710
  1071 11.8827 0.187123 -0.352906
  1072 0.159088 0.228672 1.20450
  1073 0.158709 0.229303 -1.20395
  1074 26.0122 1.88726 0.145839
  1075 -0.380102 -0.185076 1.29149
  1076 -0.383897 -0.181759 -1.29359
  1077 3.42493 0.767710 0.133601
  1078 3.42470 0.767639 -0.130972
  1079 -2.34149 0.0668936 -0.143307
  1080 -2.34122 0.0669717 0.143495
  1081 5.76223 0.251954 -1.77588
  1082 5.75873 0.269515 1.80473
  1083 1.52871 0.694017 0.626765
  1084 1.52638 0.695548 -0.625059
  1085 3.85126 0.339869 -1.22126
  1086 3.83295 0.361298 1.23808
  1087 -0.116558 -1.11177 -0.862573
  1088 13.9218 0.128762 2.13597
  1089 10.0073 -0.535981 6.05466
  1090 1.43876 0.694463 0.649787
  1091 1.43563 0.696844 -0.648326
  1092 5.91880 0.420602 -0.0551906
  1093 5.91937 0.419393 0.0555403
  1094 22.5915 -0.442475 1.21508
  1095 1.27939 0.250466 0.511532
  1096 1.26314 0.255974 -0.514522
  1097 -0.678802 -0.155609 0.754848
  1098 -0.678910 -0.156159 -0.755215
  1099 -0.0224520 -0.483983 0.198139
  1100 -0.0232724 -0.483599 -0.198881
  1101 14.7763 0.0421638 0.487386
  1102 14.7765 0.0490165 -0.494037
  1103 -0.00281213 -1.13314 1.19927
  1104 -1.06448 0.0513438 -1.03897
  1105 -1.06333 0.0512460 1.03832
  1106 0.00643368 -4.00853 -0.417938
  1107 -0.272937 -0.376216 1.28863
  1108 -0.272394 -0.369415 -1.28954
  1109 14.2190 0.0648705 -0.205623
  1110 14.2186 0.0644025 0.204891
  1111 14.5146 -0.0513956 0.568355
  1112 14.5092 -0.0406315 -0.575692
  1113 2.31246 0.439213 -0.241126
  1114 2.29547 0.451460 0.248491
  1115 -0.0377409 -2.06528 -0.725432
  1116 19.2104 -2.33492 -3.37845
  1117 25.0376 2.61477 -0.623204
  1118 0.225526 -3.42452 -0.222345
  1119 0.741434 0.452165 -0.949575
  1120 0.745272 0.449014 0.947754
  1121 2.13696 0.751669 0.407077
  1122 2.13329 0.754663 -0.404487
  1123 4.74392 0.384185 -0.0350628
  1124 4.74359 0.385101 0.0354918
  1125 -0.336567 -0.479623 0.982244
  1126 -0.335851 -0.483563 -0.983174
  1127 -1.05564 0.288071 0.880053
  1128 -1.05712 0.288597 -0.879927
  1129 -0.460465 0.351171 1.02512
  1130 -0.462548 0.352079 -1.02506
  1131 13.7008 -0.687359 -0.909706
  1132 13.7966 -0.698031 0.895836
  1133 0.00672993 -2.42706 -0.877964
  1134 7.05996 -0.118004 -2.30263
  1135 7.07781 -0.0942963 2.35068
  1136 2.11348 0.724196 -0.404636
  1137 2.11466 0.723432 0.406711
  1138 7.45601 1.79371 6.79868
  1139 1.59879 0.599820 0.481904
  1140 1.59794 0.600006 -0.480452
  1141 18.9500 -2.36052 -0.508302
  1142 6.91912 0.293604 0.0577895
  1143 6.91885 0.294440 -0.0577905
  1144 -0.327815 -0.294258 0.590726
  1145 -0.327822 -0.294765 -0.590255
  1146 -0.395096 -0.357360 0.770298
  1147 -0.394803 -0.358506 -0.769996
  1148 12.1575 -1.43457 -3.36412
  1149 12.4445 -1.56427 3.39306
  1150 1.92834 0.155555 -0.00277999
  1151 1.92846 0.155832 0.00289918
  1152 7.47798 0.378548 -1.20818
  1153 7.48248 0.371816 1.22388
  1154 16.9489 -2.54307 2.47451
  1155 15.3990 -0.0147042 0.0314682
  1156 15.3985 -0.0146866 -0.0314975
  1157 -1.49167 0.219423 0.781439
  1158 -1.49294 0.219771 -0.781342
  1159 -2.50259 0.0874025 -0.422967
  1160 -2.50182 0.0873569 0.423241
  1161 3.60322 -0.633875 3.86857
  1162 10.5983 0.788648 -0.883365
  1163 6.84025 0.574179 -0.531068
  1164 6.84416 0.570658 0.535240
  1165 22.4382 -1.42292 3.57306
  1166 6.94462 0.533912 -0.846100
  1167 6.94989 0.529167 0.853406
  1168 1.52502 0.295503 -0.205376
  1169 1.52516 0.295893 0.205853
  1170 0.560522 -2.76328 0.174376
  1171 0.567915 -2.71888 -0.325918
  1172 9.49989 -0.840786 -3.38488
  1173 9.64707 -0.795923 3.38975
  1174 3.56920 0.524145 -0.780585
  1175 3.55573 0.538017 0.794339
  1176 17.1114 -1.25682 -1.61069
  1177 -0.677348 -0.0765998 1.16764
  1178 -0.678737 -0.0763471 -1.16858
  1179 -0.0352604 -1.01763 -1.22935
  1180 4.11347 -0.166517 -2.36209
  1181 4.12714 -0.147833 2.41336
  1182 -0.0113605 -0.863808 0.222474
  1183 -0.00965235 -0.865732 -0.225046
  1184 -4.29909 0.0386388 -0.123212
  1185 -4.29836 0.0386356 0.123295
  1186 13.8932 0.0410812 -0.0508958
  1187 13.8933 0.0409891 0.0507346
  1188 8.27597 0.406313 -0.312731
  1189 8.27756 0.403903 0.312784
  1190 -0.373277 -0.0435287 1.30380
  1191 -0.374149 -0.0386714 -1.30567
  1192 0.00354624 -3.54532 -0.355221
  1193 -3.61548 0.0103172 0.189441
  1194 -3.61645 0.0103392 -0.189435
  1195 2.50253 -0.417782 -1.55831
  1196 2.48247 -0.401069 1.61967
  1197 15.9620 -0.987871 0.139647
  1198 4.28458 0.0736841 -2.10969
  1199 4.29073 0.0917439 2.13933
  1200 -1.96727 0.00989040 0.274972
  1201 -1.96756 0.00989408 -0.275156
  1202 0.0468748 -3.23477 -0.652560
  1203 -0.852274 0.162755 -0.195104
  1204 -0.852003 0.162908 0.195403
  1205 2.16368 0.633831 0.398211
  1206 2.16294 0.633895 -0.396503
  1207 8.88950 0.143390 -0.0471402
  1208 8.88948 0.143092 0.0470955
  1209 12.1795 0.131608 0.225038
  1210 12.1795 0.132388 -0.225748
  1211 0.571088 -0.222620 0.846154
  1212 0.562726 -0.232487 -0.855818
  1213 0.0907029 -1.89892 0.975983
  1214 21.6850 2.70528 1.47334
  1215 -0.673812 -0.0555676 0.425709
  1216 -0.673617 -0.0557544 -0.425764
  1217 0.0696945 -1.77633 -1.00750
  1218 -0.0674401 -1.03091 0.626309
  1219 -0.0635660 -1.02339 -0.649386
  1220 17.3101 -0.180876 0.404922
  1221 0.0167836 -4.07600 0.366818
  1222 0.0947133 -1.32764 -1.12177
  1223 1.76166 0.134633 0.0314490
  1224 1.76153 0.134395 -0.0314122
  1225 -0.189945 -0.774876 1.17316
  1226 -2.11469 0.127391 -0.372077
  1227 -2.11406 0.127384 0.372422
  1228 37.0191 0.697173 0.975366
  1229 -1.07078 0.104161 1.06122
  1230 -1.07217 0.104369 -1.06188
  1231 8.02821 0.375266 -1.09543
  1232 8.03842 0.366653 1.10350
  1233 0.470072 -1.01331 -0.625001
  1234 7.67558 0.494948 -0.395003
  1235 7.67808 0.491748 0.396035
  1236 0.290253 -2.74194 -0.310346
  1237 -0.190075 -0.775264 -1.16962
  1238 -1.59318 0.0867228 0.238241
  1239 -1.59352 0.0866143 -0.237940
  1240 -0.663692 0.0188047 -1.20600
  1241 -0.662044 0.0186283 1.20521
  1242 16.2595 1.26534 1.83936
  1243 9.36051 0.162126 -1.19446
  1244 9.37439 0.156222 1.19751
  1245 -4.55770 0.0157457 -0.0521815
  1246 -4.55735 0.0157534 0.0522585
  1247 8.50130 0.307703 -0.217047
  1248 8.50174 0.306548 0.216795
  1249 -4.73126 -0.0711606 -0.0111075
  1250 -4.73130 -0.0711586 0.0111134
  1251 12.7310 -0.926213 -1.36305
  1252 -2.10097 0.0331646 0.595573
  1253 -2.10182 0.0332431 -0.595871
  1254 12.8724 -0.978003 1.34992
  1255 8.61721 0.416476 -0.463368
  1256 8.61936 0.413175 0.463452
  1257 0.949595 -3.41321 -1.55767
  1258 0.0177765 -2.92543 -0.757991
  1259 -0.0724343 -1.24239 1.10253
  1260 28.5129 3.51642 -3.08684
  1261 -0.00799109 -2.71711 0.725922
  1262 29.3974 2.74819 -1.37766
  1263 -0.0101959 -5.00916 -0.357726
  1264 1.10125 0.200997 -0.0976060
  1265 1.10139 0.201284 0.0978728
  1266 -0.0131363 -1.11150 0.233462
  1267 -0.0108029 -1.11708 -0.232575
  1268 4.65680 0.214020 -0.0278453
  1269 4.65683 0.214425 0.0279051
  1270 17.3472 -1.43637 1.54702
  1271 0.0723521 0.179936 -0.226704
  1272 0.0725838 0.180147 0.227053
  1273 0.102020 -5.70598 0.237288
  1274 0.0651365 -6.04152 -0.231582
  1275 15.9512 -2.15075 -1.39176
  1276 -0.0472252 -1.48182 0.697900
  1277 16.2043 0.933526 -2.23238
  1278 -0.0502338 -1.95330 0.688984
  1279 0.0319734 -5.45423 -0.299405
  1280 7.88715 0.328699 -0.218342
  1281 7.88801 0.326945 0.218319
  1282 -0.00476428 -2.87875 0.311232
  1283 -0.00853553 -2.42568 -0.707766
  1284 39.9042 6.13038 5.45553
  1285 15.4789 0.0296408 0.0255925
  1286 15.4784 0.0296406 -0.0255972
  1287 0.315163 -0.0605152 1.11918
  1288 0.304124 -0.0440896 -1.12240
  1289 -0.325030 0.187046 1.25080
  1290 -0.329246 0.188022 -1.25184
  1291 15.9203 -0.323468 -1.24903
  1292 14.9331 -0.601791 -0.475655
  1293 14.9114 -0.691581 0.473220
  1294 1.96409 0.328992 0.220423
  1295 1.96398 0.328524 -0.219805
  1296 -2.58555 0.0717690 -0.485277
  1297 -2.58455 0.0716530 0.485308
  1298 16.6761 -2.55310 -2.05642
  1299 -0.126750 -0.302071 0.305366
  1300 -0.127173 -0.301713 -0.305145
  1301 17.4891 -0.882504 2.23522
  1302 -0.194104 -0.716394 0.845009
  1303 -0.192042 -0.718745 -0.840962
  1304 -1.81421 0.132549 0.280095
  1305 -1.81466 0.132478 -0.279751
  1306 2.45271 0.113138 -0.691841
  1307 2.42749 0.129369 0.694093
  1308 3.91022 0.203295 0.0535032
  1309 3.91018 0.202886 -0.0534018
  1310 -1.82582 0.176171 0.759491
  1311 -1.82700 0.176442 -0.759526
  1312 14.4575 0.0750753 0.0398732
  1313 14.4572 0.0750876 -0.0398862
  1314 7.57307 -0.393245 4.55090
  1315 11.6505 0.101632 0.0784831
  1316 11.6504 0.101825 -0.0786268
  1317 7.42647 0.141338 -1.73378
  1318 7.43234 0.130973 1.75346
  1319 0.0679878 -3.33099 -0.528544
  1320 2.75836 0.645614 -0.166237
  1321 2.74790 0.654336 0.173833
  1322 -0.0261357 -0.0263197 -0.0360193
  1323 -0.0262596 -0.0263374 0.0361205
  1324 9.78627 0.392160 0.630947
  1325 9.78289 0.397362 -0.631335
  1326 4.68336 0.487747 -0.00388345
  1327 4.68285 0.488886 0.00469274
  1328 7.05447 0.500709 -0.238854
  1329 7.05599 0.498463 0.239515
  1330 9.44414 0.149392 -0.0776639
  1331 9.44414 0.149095 0.0775669
  1332 -0.304645 -0.149818 -0.345685
  1333 -0.304709 -0.149728 0.345972
  1334 -3.14312 0.0199199 0.166943
  1335 -3.14353 0.0198933 -0.166736
  1336 -0.533279 -0.251395 -0.865416
  1337 -0.533245 -0.250374 0.864960
  1338 -1.94403 0.0611605 0.0739218
  1339 -1.94422 0.0610726 -0.0738301
  1340 -4.76415 0.0480017 0.0305025
  1341 -4.76426 0.0479905 -0.0304639
  1342 18.0553 -2.62802 2.89374
  1343 12.2007 -0.110251 -1.70799
</Section>

newXOutput 4

<Section columns = "stress_xx | stress_yy | stress_xy">
  1 23.9479 -0.0131615 0.0206993
  2 23.9490 -0.0131709 -0.0207104
  3 -7.69681 0.0445786 -0.102424
  4 0.0125801 0.00391618 0.0218791
  5 44.8596 9.94778 13.2701
  6 50.6288 11.4761 -12.5869
  7 0.0125448 0.00388094 -0.0218331
  8 -7.69660 0.0445885 0.102438
  9 23.8687 -0.0110699 -0.0776981
  10 23.8822 -0.0535532 -0.129748
  11 24.1113 -0.0506344 -0.0308840
  12 24.1249 -0.0428436 -0.145720
  13 24.1625 -0.0395562 -0.0375364
  14 24.6824 -0.0430747 -0.0551786
  15 24.8460 -0.0719560 -0.194668
  16 25.0059 -0.0228747 -0.128762
  17 25.0888 0.0463627 -0.249107
  18 26.1394 -0.116103 -0.214188
  19 26.5579 -0.0802774 -0.281471
  20 26.9984 -0.138776 -0.0848395
  21 27.1710 -0.198477 -0.0283775
  22 26.8200 -0.242178 0.430496
  23 25.6818 -0.284178 0.864601
  24 23.1285 -0.350445 1.78719
  25 19.1657 0.150958 2.05721
  26 15.7999 0.162946 1.95129
  27 11.2385 0.453835 1.18583
  28 12.0651 0.443924 0.0686562
  29 9.63032 1.35645 -0.775354
  30 14.7720 0.599192 -2.06591
  31 17.7345 0.116753 -1.70620
  32 22.5630 -0.0931262 -1.47650
  33 25.2829 -0.344694 -1.02481
  34 26.7414 -0.283775 -0.431664
  35 27.0869 -0.190745 0.0275595
  36 26.9373 -0.136517 0.0752622
  37 26.5254 -0.0811722 0.270318
  38 26.1207 -0.118215 0.207346
  39 25.0811 0.0450473 0.245381
  40 25.0022 -0.0233771 0.127187
  41 24.8448 -0.0722368 0.193910
  42 24.6821 -0.0432170 0.0547808
  43 24.1629 -0.0396252 0.0373080
  44 24.1257 -0.0429093 0.145625
  45 24.1122 -0.0506736 0.0308263
  46 23.8832 -0.0535741 0.129746
  47 23.8697 -0.0110772 0.0776972
  48 22.4755 0.105488 -0.0266487
  49 20.6980 0.0983723 -0.0647386
  50 18.4968 0.0399514 -0.0724983
  51 16.2361 0.188030 -0.0602946
  52 14.2780 0.185262 -0.0490779
  53 12.2010 0.255743 -0.0589860
  54 10.1692 0.357919 -0.0406235
  55 8.07803 0.331564 -0.0757490
  56 6.35599 0.262118 -0.102431
  57 4.11243 0.199215 -0.107764
  58 1.84709 0.226126 -0.0811103
  59 -0.0353846 0.183845 -0.0782215
  60 -2.37166 0.119374 -0.0733078
  61 -4.10746 0.0178088 -0.164947
  62 -5.78512 -0.0950092 -0.0769591
  63 -7.47721 0.0228949 0.0457408
  64 -7.83165 0.136424 -0.0260695
  65 -7.84441 0.0640087 0.0134194
  66 -7.57805 0.0364886 -0.0190072
  67 -7.62401 0.0900215 -0.102419
  68 -7.48550 0.107277 -0.0242043
  69 -7.06461 0.0368536 -0.153500
  70 -7.10162 0.0655583 -0.162859
  71 -6.90055 0.0630142 -0.0985513
  72 -6.37407 0.0418899 -0.141890
  73 -6.09854 0.0690139 -0.223756
  74 -5.71036 0.0753118 -0.188370
  75 -5.03357 0.0391697 -0.309804
  76 -4.64850 0.0119103 -0.259537
  77 -3.97359 0.0171608 -0.295228
  78 -3.38696 0.0105998 -0.321957
  79 -2.88411 0.00273897 -0.253925
  80 -2.19644 0.0139041 -0.254745
  81 -1.60713 -0.00820415 -0.270497
  82 -1.03787 -0.0307963 -0.234438
  83 -0.589744 -0.0267259 -0.177783
  84 -0.285734 -0.0453886 -0.147141
  85 -0.0412551 -0.0261198 -0.0507022
  86 0.00795110 -0.0280695 -0.0168105
  87 -0.0153779 -0.0113465 -0.00118948
  88 -0.0407515 -0.0304236 -0.0441355
  89 -0.0394110 -0.240546 -0.127254
  90 -0.0344533 -0.547477 -0.184174
  91 -0.0184605 -0.947241 -0.270315
  92 -0.0102277 -1.46054 -0.233622
  93 -0.0103749 -1.93891 -0.294562
  94 -0.0372209 -2.53140 -0.334979
  95 -0.0150683 -3.25691 -0.341194
  96 0.00725773 -3.98841 -0.328465
  97 0.0162671 -4.77571 -0.325461
  98 0.0239585 -5.58969 -0.322539
  99 0.00503204 -6.20892 -0.438724
  100 0.0451100 -7.06839 -0.394426
  101 0.0530249 -8.08130 -0.325290
  102 0.00633194 -8.57985 -0.433505
  103 0.0756394 -9.37263 -0.409749
  104 0.175070 -10.4357 -0.242819
  105 0.336917 -10.8336 -0.383877
  106 0.212907 -10.2932 0.0628293
  107 0.265393 -8.41521 0.643250
  108 1.79104 -6.19326 2.35748
  109 5.93984 4.49684 9.54456
  110 70.0062 3.43378 6.56936
  111 59.8182 1.15160 2.45976
  112 57.9042 0.492231 0.527162
  113 57.5297 0.237607 -0.0918026
  114 57.8728 0.713301 -1.30181
  115 59.4597 2.02603 -2.84571
  116 67.7896 6.71043 -8.27331
  117 13.8645 3.33871 -11.7438
  118 2.86648 -6.08482 -3.02244
  119 0.829457 -9.18763 -1.01985
  120 0.222659 -9.80344 -0.0839243
  121 0.267184 -10.4643 0.261508
  122 0.0806142 -10.0535 0.203449
  123 0.0344668 -9.14373 0.361835
  124 0.0340063 -8.55867 0.290283
  125 0.0449849 -7.65995 0.452891
  126 -0.00195360 -7.12389 0.430704
  127 0.0178849 -6.41747 0.312439
  128 0.0324954 -5.52016 0.388271
  129 0.00524373 -4.88303 0.308506
  130 0.0100250 -3.99767 0.388910
  131 -0.0398671 -3.29523 0.333026
  132 -0.0291992 -2.53413 0.325038
  133 -0.00785865 -1.92907 0.295534
  134 -0.0129451 -1.45250 0.234337
  135 -0.0181558 -0.944530 0.267820
  136 -0.0340028 -0.547049 0.183289
  137 -0.0392139 -0.240877 0.127160
  138 -0.0407149 -0.0307365 0.0442094
  139 -0.0153790 -0.0114881 0.00128098
  140 0.00778518 -0.0281010 0.0169011
  141 -0.0415903 -0.0261187 0.0508309
  142 -0.286326 -0.0453702 0.147307
  143 -0.590610 -0.0266644 0.177874
  144 -1.03874 -0.0307202 0.234422
  145 -1.60777 -0.00814170 0.270345
  146 -2.19676 0.0139155 0.254557
  147 -2.88399 0.00275426 0.253738
  148 -3.38646 0.0106084 0.321769
  149 -3.97263 0.0171432 0.295057
  150 -4.64722 0.0118846 0.259408
  151 -5.03213 0.0391402 0.309720
  152 -5.70878 0.0752796 0.188342
  153 -6.09696 0.0689852 0.223772
  154 -6.37260 0.0418769 0.141944
  155 -6.89923 0.0630060 0.0986204
  156 -7.10045 0.0655491 0.162942
  157 -7.06364 0.0368510 0.153594
  158 -7.48476 0.107284 0.0242930
  159 -7.62340 0.0900331 0.102492
  160 -7.57760 0.0364971 0.0190605
  161 -7.84408 0.0640196 -0.0133833
  162 -7.83138 0.136440 0.0261013
  163 -7.47698 0.0229002 -0.0457256
  164 -5.78483 -0.0949874 0.0769825
  165 -4.10710 0.0178801 0.164977
  166 -2.37130 0.119513 0.0733456
  167 -0.0350472 0.184066 0.0782532
  168 1.84739 0.226438 0.0811397
  169 4.11264 0.199616 0.107796
  170 6.35613 0.262585 0.102449
  171 8.07811 0.332071 0.0757590
  172 10.1692 0.358425 0.0406104
  173 12.2010 0.256192 0.0589583
  174 14.2779 0.185635 0.0490372
  175 16.2360 0.188293 0.0602368
  176 18.4966 0.0401102 0.0724318
  177 20.6975 0.0984244 0.0646985
  178 22.4747 0.105493 0.0266302
  179 5.76854 1.14070 0.0298171
  180 5.76792 1.14074 -0.0244529
  181 -0.239209 0.108668 1.90904
  182 -0.244654 0.109256 -1.90805
  183 13.6267 -0.216576 -2.78177
  184 13.6258 -0.246846 2.81674
  185 2.54003 0.446458 0.234177
  186 2.51005 0.460538 -0.229734
  187 1.63719 0.442344 -0.405405
  188 1.63760 0.442802 0.406251
  189 13.0644 0.402930 -0.354245
  190 13.0654 0.400796 0.353853
  191 -0.520875 0.563098 1.12081
  192 -0.522871 0.563799 -1.11996
  193 15.2047 0.527718 -1.01920
  194 15.2118 0.518829 1.01883
  195 -0.625798 -0.552519 1.41879
  196 -0.625159 -0.555222 -1.41978
  197 0.0876159 -1.40358 -1.80057
  198 4.45884 -0.142803 -2.35671
  199 0.118041 -1.49512 1.76578
  200 4.38616 -0.100200 2.40868
  201 21.6863 -3.23578 -4.10661
  202 22.5133 -3.36633 3.91147
  203 7.49616 0.404758 0.0160205
  204 7.49631 0.403864 -0.0157957
  205 -1.68110 0.150216 -0.247287
  206 -1.68065 0.150412 0.247594
  207 -1.89644 0.259597 1.44692
  208 -1.89866 0.260239 -1.44753
  209 7.52213 0.853101 -0.0393456
  210 7.52325 0.851224 0.0409424
  211 2.13611 0.952211 0.942244
  212 2.12910 0.958279 -0.941237
  213 -2.55330 0.274539 -0.660090
  214 -2.55213 0.274482 0.660657
  215 17.7059 0.144291 0.187122
  216 17.7057 0.144816 -0.187591
  217 0.496620 -2.68000 0.946507
  218 0.541410 -2.45984 -0.876898
  219 -0.184106 -1.54507 1.61967
  220 -0.186135 -1.59744 -1.56572
  221 6.89670 1.04558 -0.900698
  222 6.89410 1.04918 0.916637
  223 -1.64124 -0.0224516 1.40663
  224 -1.64251 -0.0224228 -1.40761
  225 18.9483 0.223274 -0.594085
  226 18.9484 0.220645 0.591680
  227 20.2656 -0.201368 -1.14008
  228 20.2783 -0.225433 1.12921
  229 31.9571 2.65154 -0.110676
  230 29.3420 3.11352 2.61388
  231 29.3452 -0.678292 -3.45444
  232 3.21792 0.877460 0.556368
  233 3.21719 0.877312 -0.554216
  234 0.0289262 0.642837 1.53712
  235 0.0252412 0.644769 -1.53664
  236 22.6174 -1.37530 -0.586615
  237 22.4782 -1.39512 0.654144
  238 12.3458 0.259395 -0.114865
  239 12.3460 0.258637 0.114684
  240 -3.00195 0.207757 0.987337
  241 -3.00368 0.208108 -0.987265
  242 -0.388783 -0.383712 -0.623393
  243 -0.388617 -0.383685 0.624007
  244 -3.47604 0.115206 0.354204
  245 -3.47676 0.115105 -0.353792
  246 9.97004 0.897020 -0.572230
  247 9.97354 0.892668 0.575395
  248 12.7864 0.487447 -1.52949
  249 12.8001 0.476678 1.53700
  250 2.74909 0.308572 -0.0846805
  251 2.74932 0.309018 0.0849556
  252 7.19474 -0.640168 -5.58194
  253 8.59667 -0.370159 6.17276
  254 0.847281 0.355637 1.52251
  255 0.843773 0.366043 -1.52551
  256 31.1956 -3.02245 0.145851
  257 2.35618 1.03906 0.813330
  258 2.35361 1.04061 -0.810764
  259 7.02642 0.673425 -1.91258
  260 7.01709 0.693821 1.94296
  261 34.5396 4.47016 -1.27571
  262 20.5499 0.112697 0.804499
  263 20.5488 0.120908 -0.810995
  264 -0.192382 -1.16288 -0.991154
  265 -0.187839 -1.16809 0.995495
  266 -0.0492427 -2.81114 -1.40173
  267 0.0718458 -3.37710 -1.36206
  268 0.0337636 -3.33848 1.39806
  269 -0.566922 -0.500779 1.86544
  270 -0.568486 -0.499087 -1.87073
  271 0.988341 -3.05021 -0.102624
  272 1.05924 -2.85776 0.264859
  273 -1.19826 -0.106422 0.872801
  274 -1.19830 -0.106788 -0.873199
  275 14.3658 0.547914 -0.609054
  276 14.3684 0.543653 0.608167
  277 25.4643 -2.81625 0.261531
  278 5.24438 0.599376 -0.155357
  279 5.24418 0.600367 0.156171
  280 -0.0757891 -2.63215 1.33612
  281 0.197172 0.575589 0.778873
  282 0.195978 0.575729 -0.777732
  283 41.0896 3.02313 -0.745419
  284 20.0532 0.100794 0.237312
  285 20.0533 0.101427 -0.238179
  286 12.8968 -0.807195 -4.26662
  287 13.0294 -0.795088 4.34706
  288 25.4246 -2.66073 -0.692662
  289 -2.50350 0.0704172 1.12223
  290 -2.50484 0.0705498 -1.12289
  291 25.0539 -2.75858 7.17018
  292 -1.18497 0.149219 1.72418
  293 -1.18749 0.149486 -1.72541
  294 3.88563 1.08327 0.0334845
  295 3.87252 1.09416 -0.0250523
  296 -4.85204 0.0637239 0.0701814
  297 -4.85242 0.0636759 -0.0700829
  298 20.9769 -0.532613 -9.93591
  299 -4.38508 0.0975694 -0.547723
  300 -4.38368 0.0974694 0.547972
  301 -0.186863 -0.620314 1.94957
  302 -0.130182 -0.611989 -1.93828
  303 8.85424 1.01441 -0.854318
  304 8.85814 1.01120 0.863168
  305 1.59958 0.330108 0.302596
  306 1.59927 0.329672 -0.302082
  307 9.30554 0.516495 -0.120983
  308 9.30612 0.515022 0.121206
  309 0.787606 -0.922295 1.21006
  310 0.717349 -1.06236 -1.21361
  311 9.03040 0.311076 -0.0138352
  312 9.03042 0.310442 0.0138459
  313 -3.52595 0.0911352 0.835874
  314 -3.52748 0.0912965 -0.836188
  315 2.12292 -0.544259 -0.180122
  316 2.05495 -0.544229 0.124608
  317 21.0208 0.0529701 0.0652176
  318 21.0204 0.0530581 -0.0653397
  319 46.5444 2.76849 1.54088
  320 4.29344 0.728224 0.308886
  321 4.29343 0.727349 -0.307431
  322 -1.36261 0.279855 0.499063
  323 -1.36339 0.279724 -0.498386
  324 6.06352 0.973173 0.0708159
  325 6.06404 0.971784 -0.0677241
  326 0.558424 0.608991 1.61416
  327 0.555385 0.611053 -1.61481
  328 0.0882075 -4.81736 1.02269
  329 -4.97757 0.0351293 -0.149439
  330 -4.97706 0.0351794 0.149624
  331 15.7768 0.174111 -0.120217
  332 15.7769 0.173703 0.119997
  333 16.6272 0.239857 -0.319267
  334 16.6275 0.238510 0.318345
  335 -4.57902 0.0962972 -0.412869
  336 -4.57800 0.0963039 0.413213
  337 -0.520319 0.151754 0.0744079
  338 -0.520673 0.151541 -0.0742683
  339 -0.100887 -1.91116 0.995223
  340 -0.0808605 -1.98703 -0.993815
  341 18.4683 -1.63293 -2.82479
  342 19.2342 -1.94890 2.76288
  343 10.8348 0.687274 -0.339820
  344 10.8365 0.684431 0.340275
  345 4.54644 1.15533 0.145393
  346 4.54134 1.15925 -0.138754
  347 -1.99937 0.358085 0.917406
  348 -2.00092 0.358421 -0.916854
  349 35.5150 -0.264200 -0.0586457
  350 1.67844 -3.49688 -1.58066
  351 1.79747 -3.34575 1.68337
  352 -0.954079 0.535324 1.42413
  353 -0.956754 0.536417 -1.42392
  354 -1.01962 -0.227098 1.63836
  355 -1.02112 -0.227113 -1.64003
  356 40.0588 6.15239 -0.908244
  357 24.9494 -0.587595 3.87436
  358 23.8250 -0.503304 -0.449422
  359 23.7874 -0.492229 0.401000
  360 16.3402 -0.123672 -1.78073
  361 16.3244 -0.145153 1.77896
  362 0.0307581 -5.79571 -0.844193
  363 21.9575 0.125977 -0.460408
  364 21.9552 0.123501 0.456907
  365 0.264596 -5.55257 0.739663
  366 24.1321 1.87026 -2.31359
  367 5.75747 0.337442 0.111959
  368 5.75734 0.336927 -0.111867
  369 16.4955 0.232948 -1.32564
  370 16.5074 0.220169 1.32462
  371 17.9770 0.268947 -0.822063
  372 17.9790 0.263250 0.818695
  373 -0.734808 0.263791 0.356968
  374 -0.735363 0.263542 -0.356418
  375 9.91245 0.554124 -2.03723
  376 9.92129 0.558190 2.06249
  377 21.6904 0.0515993 0.108182
  378 21.6901 0.0517549 -0.108484
  379 11.7603 0.779263 -0.987819
  380 11.7670 0.772007 0.992079
  381 13.8173 0.358147 0.242260
  382 13.8169 0.359322 -0.242703
  383 -0.668630 -0.124625 0.530941
  384 -0.668334 -0.124865 -0.530756
  385 -0.156402 -0.111846 -0.149680
  386 -0.156501 -0.111940 0.149923
  387 28.6824 -4.03995 1.44282
  388 -0.394616 -0.936383 1.48185
  389 -0.392140 -0.943184 -1.48103
  390 4.23730 0.414489 -0.197169
  391 4.23735 0.415209 0.197690
  392 -0.144426 -0.708522 0.532098
  393 -0.145931 -0.707071 -0.532000
  394 1.45490 0.844693 0.879604
  395 1.45314 0.845402 -0.877827
  396 23.4981 -0.0281316 0.595746
  397 23.5017 -0.0176173 -0.611873
  398 -0.0912108 -1.48959 1.83491
  399 -1.94190 -0.0405381 0.834848
  400 -1.94230 -0.0406248 -0.835416
  401 -0.0984245 -1.56640 -1.81317
  402 22.1622 0.0689721 0.291808
  403 22.1631 0.0697557 -0.293254
  404 -0.367890 0.440062 1.76046
  405 -0.372818 0.442063 -1.76106
  406 16.0636 0.372769 -0.523307
  407 16.0645 0.370122 0.521870
  408 24.7974 -1.07559 -0.799770
  409 24.9283 -0.852661 0.627184
  410 -0.0565368 -2.61402 -1.09725
  411 1.99276 0.698667 -0.780994
  412 2.00879 0.688403 0.781968
  413 23.5495 1.61313 1.47836
  414 13.6575 -1.09787 -6.00417
  415 14.0627 -1.36611 6.31870
  416 0.563931 0.777996 1.23506
  417 0.561167 0.779415 -1.23382
  418 10.0626 0.426889 -0.0823548
  419 10.0629 0.425877 0.0823343
  420 9.70277 0.373191 9.63759
  421 3.80360 1.03123 -0.491921
  422 3.80490 1.03078 0.495087
  423 0.214319 -2.68441 1.34025
  424 -0.0320157 -4.27186 -0.971106
  425 1.38204 0.925053 1.20171
  426 1.37818 0.927571 -1.20030
  427 1.66647 0.616435 -0.571113
  428 1.66713 0.616701 0.572360
  429 -0.785446 -0.0828837 -1.88079
  430 -0.782849 -0.0840476 1.87918
  431 4.63425 0.868206 -0.571358
  432 4.61655 0.883636 0.585690
  433 24.6374 -0.882722 -2.88959
  434 0.582959 -0.407895 1.59893
  435 0.561409 -0.397903 -1.60471
  436 17.9007 -0.744030 -1.97083
  437 17.9850 -0.805644 1.96298
  438 -4.70805 0.0437747 -0.515812
  439 -4.70652 0.0436739 0.515829
  440 0.00141129 -4.17166 0.867190
  441 -0.0320483 -2.63877 0.974843
  442 -1.94026 0.108128 1.44072
  443 -1.94191 0.108290 -1.44161
  444 12.8306 0.252510 -0.0339761
  445 12.8307 0.251987 0.0338585
  446 -0.401441 -0.632758 0.992646
  447 -0.401791 -0.633812 -0.991118
  448 7.68829 0.204761 -3.01495
  449 7.67901 0.245333 3.06185
  450 0.0659322 -5.15359 -1.00146
  451 46.5120 1.87585 0.0803299
  452 0.118107 -6.25895 -0.680309
  453 -5.70799 0.0189901 -0.206975
  454 -5.70728 0.0190250 0.207183
  455 -2.24857 0.293543 1.22565
  456 -2.25062 0.294133 -1.22576
  457 -2.45138 0.0324739 0.844639
  458 -2.45212 0.0325182 -0.845188
  459 8.49105 1.00182 -0.516357
  460 8.49389 0.999257 0.521950
  461 13.1478 0.666721 -0.767367
  462 13.1525 0.660623 0.768067
  463 -0.273246 -0.919787 1.88800
  464 -0.273272 -0.913274 -1.89500
  465 22.4850 0.221264 -3.65466
  466 1.42514 -0.679399 -0.583427
  467 1.37578 -0.691613 0.609058
  468 0.334014 -5.85664 0.175326
  469 0.206659 -6.70307 -0.315348
  470 -0.725665 -0.331393 1.02398
  471 -0.725539 -0.332349 -1.02393
  472 4.62834 -1.56697 -4.71972
  473 36.4414 -1.12778 -2.60757
  474 7.71970 0.649536 0.0700473
  475 7.71897 0.651209 -0.0691838
  476 11.3131 0.0462723 -2.96220
  477 11.3489 0.0414515 3.01738
  478 3.12026 1.19772 0.644563
  479 3.11639 1.20090 -0.641046
  480 10.1968 0.831452 -1.45022
  481 10.2063 0.824479 1.46515
  482 0.255980 0.114182 1.81907
  483 0.279112 0.125859 -1.81602
  484 -5.01867 0.0848254 -0.399589
  485 -5.01746 0.0848076 0.399844
  486 23.2440 -2.86067 -1.42662
  487 18.6921 0.106158 -0.0934109
  488 18.6924 0.105985 0.0932841
  489 0.573312 0.209255 -0.173967
  490 0.573658 0.209575 0.174275
  491 -1.43386 0.448306 1.18008
  492 -1.43594 0.448979 -1.17965
  493 -3.03359 0.199033 -0.465517
  494 -3.03268 0.199076 0.466030
  495 7.70834 0.902554 -0.139203
  496 7.70977 0.900286 0.141514
  497 -1.13706 0.356899 1.60254
  498 -1.14003 0.357980 -1.60313
  499 21.3303 -0.536152 -1.02560
  500 21.3624 -0.570491 0.999926
  501 13.6525 0.198506 -1.94776
  502 13.6361 0.184065 1.96705
  503 4.82298 0.359262 -0.121456
  504 4.82308 0.359871 0.121702
  505 0.0338509 -2.69283 -1.57347
  506 24.8458 -0.987320 2.38897
  507 0.285158 -1.88640 -1.50916
  508 6.73405 1.16149 0.474633
  509 6.73497 1.16012 -0.464647
  510 22.9850 -2.67788 1.39642
  511 1.59098 -3.42943 2.31396
  512 27.6167 -4.07439 -3.01175
  513 18.6691 0.183825 0.983400
  514 18.6641 0.193997 -0.988067
  515 0.0262260 -2.32047 1.63760
  516 -0.363408 -0.110384 -0.280129
  517 -0.363664 -0.110385 0.280407
  518 1.87179 0.214598 -0.0622487
  519 1.87208 0.214934 0.0623689
  520 -0.0653337 -1.45926 0.633434
  521 -0.0592744 -1.45198 -0.636324
  522 15.3626 0.284037 0.204549
  523 15.3624 0.284725 -0.204946
  524 44.4101 7.16361 2.32833
  525 1.63562 -1.50717 -0.184686
  526 1.26362 -1.88818 -0.0745743
  527 -0.777037 0.379451 -0.646807
  528 -0.776052 0.379470 0.647637
  529 -3.83678 0.0617423 0.514264
  530 -3.83798 0.0618047 -0.514518
  531 0.0361925 -4.80849 0.982972
  532 -5.67642 0.0658689 0.0699556
  533 -5.67683 0.0658376 -0.0698406
  534 4.44763 -0.946767 -3.38396
  535 4.34209 -0.850335 3.53823
  536 4.04943 0.562911 -0.939130
  537 4.01936 0.584846 0.952652
  538 -1.04743 -0.233719 1.42126
  539 -1.04822 -0.234351 -1.42250
  540 3.90538 0.491631 0.221139
  541 3.90534 0.490886 -0.220407
  542 -2.61068 0.148024 0.225901
  543 -2.61123 0.147889 -0.225546
  544 4.69376 0.832894 0.300559
  545 4.69378 0.832023 -0.298445
  546 -0.102568 -0.325630 0.238526
  547 -0.102883 -0.325261 -0.238451
  548 1.62111 0.693900 1.14088
  549 1.61091 0.705460 -1.14195
  550 1.31273 0.0619750 1.04963
  551 1.29335 0.0601487 -1.05805
  552 19.0667 0.233233 0.419353
  553 19.0668 0.234544 -0.420712
  554 16.7027 0.346548 0.647595
  555 16.7012 0.350359 -0.649625
  556 -0.0173762 -3.97387 -0.596001
  557 11.4526 0.725051 -0.550608
  558 11.4554 0.721047 0.551575
  559 11.5320 0.414653 -0.175672
  560 11.5326 0.413219 0.175540
  561 -2.02331 0.111987 -0.0162776
  562 -2.02294 0.112129 0.0163557
  563 18.4810 1.12546 -0.700654
  564 26.3910 -3.64699 -0.809915
  565 20.5735 0.888936 2.81866
  566 0.149755 -3.60806 -1.21986
  567 -1.45650 0.406294 -0.814712
  568 -1.45516 0.406123 0.815467
  569 0.145180 -2.13351 1.59085
  570 -1.24408 0.00821146 1.65945
  571 -1.24602 0.00839024 -1.66060
  572 33.3807 3.25790 -0.554738
  573 7.31542 0.486362 0.00783756
  574 7.31570 0.485281 -0.00746508
  575 52.9470 4.32846 -4.16280
  576 -0.335137 -0.269282 1.97399
  577 -0.319869 -0.256095 -1.97606
  578 27.9181 -2.79712 1.71506
  579 22.6923 0.0834046 -0.518097
  580 22.6886 0.0796169 0.512590
  581 9.88127 -0.280767 -4.37661
  582 10.0150 -0.306741 4.46196
  583 -0.612245 -0.593648 1.65253
  584 -0.612372 -0.596097 -1.65568
  585 5.06021 0.195435 2.11268
  586 5.10208 0.151403 -2.08591
  587 -4.53526 0.0551306 -0.495049
  588 -4.53372 0.0550572 0.494963
  589 32.9748 2.20630 2.92825
  590 5.89213 0.689786 -0.124267
  591 5.89175 0.691007 0.125356
  592 6.99940 0.854077 -1.38836
  593 6.99383 0.864642 1.41139
  594 20.2921 0.0551872 -0.977113
  595 20.2980 0.0422531 0.969970
  596 -0.104047 -2.13659 -1.49616
  597 22.4442 0.0157532 0.151791
  598 22.4440 0.0159417 -0.152196
  599 -3.60686 0.101703 -0.0993437
  600 -3.60642 0.101797 0.0995349
  601 -6.07541 -0.0236148 0.00762448
  602 -6.07572 -0.0236321 -0.00758945
  603 0.420751 -3.45757 -0.737435
  604 -0.218521 -1.36817 1.25953
  605 -0.230411 -1.29679 -1.26794
  606 -2.62346 0.153192 1.21058
  607 -2.62512 0.153501 -1.21113
  608 15.2645 0.508351 0.801473
  609 15.2611 0.514228 -0.802864
  610 11.1227 0.285703 0.0449898
  611 11.1227 0.286226 -0.0450335
  612 2.34602 -1.16524 1.18571
  613 2.42991 -1.11378 -1.16851
  614 -0.0816000 -1.01442 0.532437
  615 -0.0838731 -1.01084 -0.534019
  616 26.8419 0.467437 10.4933
  617 -1.30919 -0.0433135 0.496878
  618 -1.30881 -0.0434651 -0.497076
  619 0.406833 -2.12831 -1.27795
  620 10.8393 0.581057 -0.250219
  621 10.8403 0.579016 0.250330
  622 5.09311 1.12932 -0.245160
  623 5.08589 1.13545 0.255636
  624 0.0562524 -7.42032 0.479594
  625 3.74447 1.15852 0.478693
  626 3.74228 1.16005 -0.474918
  627 -0.728323 0.497399 0.975267
  628 -0.729928 0.497787 -0.974394
  629 -0.0318731 -3.52604 0.816099
  630 -5.96011 0.0185528 -0.202945
  631 -5.95926 0.0185638 0.203134
  632 6.96136 0.322044 -0.0393597
  633 6.96134 0.322754 0.0395193
  634 18.5831 0.156066 0.268819
  635 18.5830 0.156778 -0.269541
  636 16.0488 -1.63921 8.01713
  637 12.8919 0.465689 -0.442925
  638 12.8935 0.462831 0.442640
  639 0.116407 -0.391533 1.87771
  640 0.158398 -0.270308 -1.88084
  641 20.8194 -2.57609 -6.42268
  642 51.4895 1.85720 -1.73863
  643 -5.37993 0.0105525 -0.350100
  644 -5.37843 0.0105070 0.350177
  645 0.860070 0.349766 -0.351149
  646 0.860491 0.350129 0.351784
  647 -0.105922 -2.24010 1.31049
  648 28.0628 1.36912 -3.69135
  649 22.2158 0.00339959 0.0228673
  650 22.2151 0.00342312 -0.0229069
  651 -1.43834 -0.0877729 -1.17081
  652 -1.43772 -0.0875566 1.17000
  653 -0.00232672 -5.04705 -0.800700
  654 22.6140 -0.00576983 0.0575979
  655 22.6133 -0.00573280 -0.0576970
  656 1.70102 0.756732 0.761077
  657 1.69984 0.756884 -0.759412
  658 16.5952 -1.61320 -4.13665
  659 16.9311 -1.61136 4.19162
  660 25.0341 -0.116349 0.327196
  661 25.0544 -0.113809 -0.347822
  662 0.106850 -6.46102 0.671163
  663 -1.76433 0.0983849 -0.135233
  664 -1.76393 0.0985469 0.135439
  665 7.90898 -0.814842 -7.43177
  666 7.26468 0.302787 0.0367569
  667 7.26477 0.303319 -0.0367210
  668 3.34877 0.382049 0.130401
  669 3.34859 0.381469 -0.129987
  670 4.07368 0.590106 -0.219046
  671 4.07370 0.590964 0.220092
  672 14.1833 0.516075 -1.23637
  673 14.1934 0.505839 1.23874
  674 3.52011 1.07488 0.359998
  675 3.51150 1.08227 -0.354930
  676 -2.88449 0.219118 -0.746982
  677 -2.88312 0.218944 0.747449
  678 -3.26863 0.224152 -0.828190
  679 -3.26707 0.223899 0.828447
  680 25.5884 -0.363215 -0.193395
  681 -0.0244647 -1.15241 -1.87264
  682 25.6629 -0.381341 0.147637
  683 31.8561 2.63581 0.284925
  684 -3.24397 0.0138898 0.580945
  685 -3.24488 0.0139260 -0.581302
  686 3.05384 0.832055 0.160114
  687 3.03303 0.844787 -0.153917
  688 -6.42235 0.0176645 -0.0837661
  689 -6.42179 0.0176841 0.0838951
  690 -0.0106338 -1.05122 1.88410
  691 -2.06886 0.0187239 1.25246
  692 -2.07012 0.0187954 -1.25327
  693 27.9540 -2.64475 -1.83289
  694 4.00816 0.220220 -0.00317752
  695 4.00796 0.219802 0.00326943
  696 0.647941 0.475997 0.547514
  697 0.647258 0.475736 -0.546553
  698 14.3733 -0.755545 -3.41318
  699 14.4999 -0.785625 3.49108
  700 53.6313 3.68976 3.86075
  701 0.898450 -5.75053 -1.29867
  702 -0.407792 -0.839918 1.77915
  703 -0.408944 -0.842360 -1.78179
  704 2.74803 0.768848 -0.489286
  705 2.74859 0.769246 0.490904
  706 23.2401 -0.000497322 -0.157066
  707 23.2399 -0.000687532 0.156493
  708 10.5956 0.325166 0.0518480
  709 10.5954 0.325971 -0.0519208
  710 0.679168 0.767900 1.46578
  711 0.675432 0.770379 -1.46516
  712 0.151101 0.277534 0.249447
  713 0.150712 0.277224 -0.249033
  714 -0.751295 0.107902 1.87169
  715 -0.754756 0.108684 -1.87360
  716 18.8954 0.0807456 0.108741
  717 18.8952 0.0810042 -0.109014
  718 16.1916 0.266703 0.299577
  719 16.1914 0.267679 -0.300220
  720 1.98291 -2.00221 1.49347
  721 2.04839 -2.10283 -1.42859
  722 -1.39318 0.257582 1.63404
  723 -1.39579 0.258225 -1.63501
  724 0.588839 -1.81902 1.08090
  725 -0.0965445 0.426728 1.78960
  726 -0.101874 0.428688 -1.78916
  727 -3.88885 0.125930 -0.507122
  728 -3.88773 0.125893 0.507528
  729 2.50611 0.956863 0.756380
  730 2.50424 0.957600 -0.753908
  731 25.0091 -0.795072 -1.66202
  732 23.7288 -2.14268 -0.259520
  733 -0.399000 -0.812478 1.23533
  734 -0.398189 -0.815729 -1.23321
  735 8.82390 -0.493008 -5.17687
  736 8.57953 -0.282710 5.24700
  737 5.26370 1.01352 -0.530190
  738 5.25323 1.02366 0.544484
  739 0.406552 -1.09213 1.59871
  740 -0.0371814 -2.58746 -0.701478
  741 11.3996 0.738258 -1.09402
  742 11.4082 0.731039 1.10112
  743 0.0337213 -5.13464 0.661938
  744 6.63564 1.05541 -0.112008
  745 6.63641 1.05392 0.116361
  746 24.3302 0.0202673 -0.395410
  747 24.3210 0.0166153 0.387122
  748 0.438085 -7.51243 -0.0671838
  749 10.4743 0.914836 0.789105
  750 10.4695 0.920046 -0.784653
  751 2.65707 0.942778 -0.617916
  752 2.66953 0.932066 0.620229
  753 -4.42742 0.0300129 -0.412604
  754 -4.42603 0.0299651 0.412440
  755 11.7783 0.347947 -0.165666
  756 11.7786 0.346927 0.165487
  757 7.02723 1.12539 -0.373489
  758 7.02779 1.12475 0.380911
  759 -0.176721 0.648353 1.42405
  760 -0.179746 0.649839 -1.42342
  761 23.8059 -1.82342 -0.0233690
  762 -4.05539 0.109527 0.391920
  763 -4.05623 0.109481 -0.391547
  764 53.4818 9.13323 -6.38856
  765 -1.77589 0.196206 0.435578
  766 -1.77658 0.196033 -0.435031
  767 20.4121 0.152322 0.701180
  768 20.4125 0.157336 -0.706036
  769 37.8468 2.60112 0.132110
  770 23.3813 -0.0258459 -0.304570
  771 23.3794 -0.0265450 0.302906
  772 14.5696 0.347921 0.364109
  773 14.5690 0.349511 -0.364792
  774 21.8897 -2.89527 5.84110
  775 9.21337 0.829463 -0.207440
  776 9.21513 0.826815 0.208792
  777 0.194469 -4.13163 0.952659
  778 25.2232 -3.44087 1.60008
  779 15.2497 0.169703 0.0658067
  780 15.2497 0.170055 -0.0658986
  781 20.3225 0.0835056 0.0355936
  782 20.3221 0.0835822 -0.0356510
  783 -0.0979245 -2.08111 -1.22115
  784 0.108240 -3.67013 1.27936
  785 8.65863 1.03888 1.09864
  786 8.65466 1.04080 -1.08515
  787 53.5125 0.667410 0.408778
  788 15.2955 0.229187 -1.57922
  789 15.3095 0.216926 1.58204
  790 -3.39182 0.113895 0.920574
  791 -3.39349 0.114143 -0.920705
  792 0.586583 -3.19008 0.504216
  793 0.390301 -7.08909 -0.211595
  794 35.4685 4.49758 0.147934
  795 -0.0329289 -2.57759 0.632555
  796 0.556510 0.430145 1.66299
  797 0.555704 0.430716 -1.66692
  798 4.38595 1.01002 0.360787
  799 4.38549 1.00979 -0.357953
  800 23.7053 -1.05651 -0.177072
  801 23.7236 -1.05137 0.0740998
  802 28.5075 2.27138 -9.86765
  803 -4.19277 0.0727041 -0.199951
  804 -4.19214 0.0727788 0.200242
  805 -1.80076 -0.00960393 0.471057
  806 -1.80058 -0.00965657 -0.471347
  807 1.54298 -0.0814847 0.749573
  808 1.51008 -0.0835479 -0.749475
  809 17.7790 -0.00774580 1.43105
  810 17.7644 0.0118102 -1.43134
  811 8.83744 0.379377 0.00966732
  812 8.83760 0.378537 -0.00960160
  813 28.9471 -0.869449 3.43867
  814 2.68364 0.575664 -0.429937
  815 2.68398 0.576242 0.431114
  816 2.60772 0.145372 -0.0945907
  817 2.58433 0.161064 0.104892
  818 -0.0355780 -2.13299 -1.69344
  819 42.0070 5.02659 4.85664
  820 -6.20295 0.0134036 -0.199005
  821 -6.20188 0.0133975 0.199164
  822 -0.00892424 -6.31322 0.644109
  823 0.353894 -1.07455 -1.60874
  824 -0.885355 -0.0565582 0.345659
  825 -0.884749 -0.0566664 -0.345649
  826 32.9461 1.31383 -2.80249
  827 8.15880 0.950263 -0.256060
  828 8.16084 0.947725 0.259537
  829 22.5537 -0.252537 -0.712002
  830 22.5673 -0.258581 0.694098
  831 -5.89186 0.0518814 0.256648
  832 -5.89322 0.0518918 -0.256529
  833 -0.0386280 -0.0402323 -0.0315490
  834 -0.0387021 -0.0403057 0.0316661
  835 0.0238854 -6.46357 -0.637731
  836 0.0322718 -6.91053 -0.616660
  837 -6.65349 0.0730654 0.0449642
  838 -6.65382 0.0730472 -0.0449091
  839 3.15474 -1.91569 -3.19901
  840 13.7909 0.305094 -0.0907680
  841 13.7910 0.304494 0.0905514
  842 -0.872238 0.180003 0.0567532
  843 -0.872595 0.179809 -0.0566935
  844 20.8851 0.137959 -0.472199
  845 20.8842 0.136123 0.469739
  846 -2.37512 0.0159439 0.450199
  847 -2.37526 0.0159522 -0.450502
  848 12.1909 -0.632256 -7.99287
  849 21.4759 -1.88508 1.44989
  850 16.9813 0.189724 -0.132064
  851 16.9814 0.189316 0.131742
  852 21.2547 -2.05909 -1.64981
  853 6.32028 0.852216 0.0615270
  854 6.32096 0.850609 -0.0593447
  855 8.91010 0.738066 -0.137589
  856 8.91124 0.735958 0.138451
  857 25.0514 -0.550466 1.26430
  858 1.30738 0.861004 1.27554
  859 1.30282 0.864536 -1.27523
  860 1.17409 0.194472 0.126832
  861 1.17378 0.194148 -0.126623
  862 11.6186 0.291374 0.0699291
  863 11.6185 0.292011 -0.0700334
  864 31.4337 -3.58140 2.84812
  865 19.4943 0.212043 -0.604648
  866 19.4944 0.208622 0.601352
  867 -0.0889534 0.357267 0.436853
  868 -0.0895458 0.357000 -0.436141
  869 19.6464 0.0611763 0.164719
  870 19.6463 0.0614590 -0.165126
  871 -4.03240 0.0581227 -0.107678
  872 -4.03204 0.0581968 0.107733
  873 -0.0190204 -1.96542 0.560769
  874 -0.0244656 -1.99607 -0.565386
  875 22.8163 -0.414545 2.88846
  876 -1.59571 0.356453 1.41093
  877 -1.59814 0.357315 -1.41113
  878 -0.00884481 -3.25608 -0.625630
  879 8.92629 0.478723 -0.0585674
  880 8.92660 0.477629 0.0587105
  881 16.7029 -0.872774 -2.57634
  882 16.8462 -0.968697 2.60348
  883 -0.788812 -0.299605 -1.79193
  884 -0.786397 -0.300210 1.78967
  885 0.684280 0.799558 1.35635
  886 0.680937 0.801501 -1.35525
  887 0.0852913 -7.66988 0.488677
  888 0.0523050 0.589662 1.66063
  889 0.0481210 0.591657 -1.66030
  890 15.3816 -0.254131 -2.27946
  891 15.3524 -0.272375 2.29827
  892 26.6975 1.21852 3.76800
  893 5.86478 0.803011 -0.122213
  894 5.86435 0.804418 0.123814
  895 20.0890 0.215400 -0.458290
  896 20.0885 0.213817 0.456448
  897 -0.818794 -0.371540 1.55553
  898 -0.819640 -0.372513 -1.55740
  899 0.0659782 -8.02443 -0.387455
  900 -1.25680 -0.103138 1.53563
  901 -1.25815 -0.103091 -1.53685
  902 0.479683 0.750814 -1.08788
  903 0.481838 0.749839 1.08918
  904 -0.0623537 -0.484754 0.270571
  905 -0.0630136 -0.484177 -0.270928
  906 1.40761 0.844089 -1.01856
  907 1.41003 0.842887 1.02039
  908 0.273640 -0.745227 1.76143
  909 0.230976 -0.694540 -1.83317
  910 19.1814 -0.485450 1.43729
  911 19.1323 -0.454072 -1.45245
  912 -6.75077 0.0299646 -0.0658661
  913 -6.75034 0.0299847 0.0659523
  914 -0.539058 -0.0506014 0.257422
  915 -0.538468 -0.0506614 -0.257271
  916 0.0278590 -4.64576 -0.576451
  917 -0.597171 -0.260781 -0.740480
  918 -0.597256 -0.260297 0.740834
  919 -2.64274 0.212201 1.18324
  920 -2.64461 0.212647 -1.18356
  921 5.65714 1.19237 -0.0722219
  922 5.65549 1.19405 0.0789908
  923 24.5810 2.07703 -0.737109
  924 -0.537296 0.589760 1.29614
  925 -0.539759 0.590778 -1.29548
  926 9.10240 0.530407 -2.29868
  927 9.10907 0.538327 2.33323
  928 -1.39916 0.426570 1.04975
  929 -1.40095 0.427103 -1.04916
  930 31.4096 -2.11822 -1.31887
  931 17.2201 0.699932 1.60854
  932 21.9410 -0.361814 -2.61370
  933 16.7986 0.349340 -0.970999
  934 16.8034 0.341383 0.968488
  935 -2.12618 0.279890 -0.551607
  936 -2.12523 0.279902 0.552237
  937 -4.24919 0.0831856 0.607445
  938 -4.25069 0.0833129 -0.607324
  939 -0.250646 -0.798106 -0.861551
  940 -0.249207 -0.799284 0.863500
  941 5.61357 0.505316 -0.0849536
  942 5.61341 0.506255 0.0855203
  943 -2.00916 0.186189 1.44407
  944 -2.01109 0.186542 -1.44490
  945 20.5415 0.0650173 0.223534
  946 20.5414 0.0653432 -0.224080
  947 -0.164419 -1.77684 1.32870
  948 0.447236 0.704789 -0.949048
  949 0.448905 0.704254 0.950324
  950 0.686296 0.524553 0.660280
  951 0.685418 0.524442 -0.659176
  952 3.09434 0.423147 -0.230990
  953 3.09451 0.423732 0.231556
  954 38.8344 3.83053 0.179118
  955 -0.144119 -0.0415802 -0.0988866
  956 -0.144423 -0.0415953 0.0990736
  957 1.13670 0.220927 -1.23741
  958 1.15640 0.208580 1.23642
  959 13.3839 0.673291 -0.966048
  960 13.3903 0.665662 0.967574
  961 1.39536 0.647226 -0.653770
  962 1.39626 0.647336 0.655130
  963 3.54060 -2.41964 4.45331
  964 26.0516 -0.156384 -0.156769
  965 25.9878 -0.150045 0.127512
  966 4.23763 -1.31328 3.77002
  967 4.37773 0.320551 0.0359719
  968 4.37756 0.320050 -0.0358029
  969 12.0255 -0.932878 -6.88669
  970 9.07691 0.299956 0.0433275
  971 9.07696 0.300486 -0.0433268
  972 1.06271 -1.56472 0.573533
  973 1.17508 -1.36489 -0.484271
  974 23.2409 0.00197061 0.0783078
  975 23.2402 0.00201524 -0.0784349
  976 -1.92303 -0.000649600 1.12580
  977 -1.92388 -0.000647193 -1.12654
  978 41.3950 5.06288 1.64443
  979 -0.205606 -1.38156 -1.78480
  980 0.157654 -7.40642 0.426269
  981 -0.0506533 -2.16908 1.65803
  982 23.9651 0.0222448 -0.310958
  983 23.9613 0.0212246 0.308448
  984 -0.318072 -0.578223 0.741604
  985 -0.318730 -0.577894 -0.740566
  986 28.8706 2.85591 -2.41973
  987 54.4498 0.597487 -0.274107
  988 -0.0765587 -0.110085 -0.107623
  989 -0.0764952 -0.110313 0.107775
  990 13.5210 0.295766 -0.195938
  991 13.5212 0.294924 0.195628
  992 -0.214253 -1.33391 1.79773
  993 19.0372 0.196236 0.886669
  994 19.0351 0.203756 -0.891288
  995 24.9303 -1.73663 -1.40299
  996 -0.885668 -0.192047 0.842788
  997 -0.885546 -0.192608 -0.842856
  998 0.341588 -1.86296 1.41531
  999 -0.0496405 -3.20951 1.29905
  1000 -0.00311381 -3.22811 0.623680
  1001 24.4418 1.76297 -0.118702
  1002 28.6620 3.14365 1.57454
  1003 20.7796 -2.57896 -3.08581
  1004 0.262335 -3.30478 1.16451
  1005 0.342846 -4.82814 0.450418
  1006 5.43540 0.264911 0.0359701
  1007 5.43524 0.264449 -0.0359250
  1008 -0.233718 -0.265743 -0.348434
  1009 -0.233596 -0.265914 0.348792
  1010 0.165663 -2.71089 -1.47454
  1011 16.9635 0.135663 -0.0483101
  1012 16.9637 0.135414 0.0482028
  1013 3.11775 -0.384761 -1.18524
  1014 2.97916 -0.375483 1.17496
  1015 -0.492214 0.493448 1.64825
  1016 -0.496057 0.495162 -1.64853
  1017 -2.23124 0.321558 -1.03727
  1018 -2.22946 0.321112 1.03760
  1019 12.5078 0.217566 -2.30934
  1020 12.5221 0.224284 2.33923
  1021 8.87503 0.827315 -1.49683
  1022 8.87887 0.825103 1.51711
  1023 9.74116 0.857963 -0.425172
  1024 9.74359 0.854386 0.427110
  1025 25.8853 -0.934325 -3.54298
  1026 -0.834874 0.291018 1.76337
  1027 -0.838486 0.292065 -1.76472
  1028 18.4320 0.0834700 1.19354
  1029 18.4232 0.0984859 -1.19788
  1030 -0.170241 -1.07894 1.90074
  1031 -1.51726 -0.0562104 0.819950
  1032 -1.51735 -0.0563833 -0.820433
  1033 16.7341 0.273643 -1.17663
  1034 16.7419 0.262641 1.17444
  1035 19.6727 0.393141 -2.51169
  1036 -0.0375539 -3.20322 -1.36551
  1037 -0.270399 -1.26913 1.58318
  1038 -0.280816 -1.28145 -1.56855
  1039 11.5901 0.820120 -0.746229
  1040 11.5950 0.814368 0.748792
  1041 14.9114 0.408415 0.457532
  1042 14.9104 0.410621 -0.458476
  1043 24.8814 -1.69519 1.23961
  1044 0.802882 0.207365 -0.0365550
  1045 0.803203 0.207637 0.0366164
  1046 21.0518 -2.89166 3.30056
  1047 -0.550015 0.154933 0.156587
  1048 -0.550393 0.154687 -0.156352
  1049 4.22473 1.18397 0.314178
  1050 4.22144 1.18660 -0.309128
  1051 1.44627 0.924476 1.11064
  1052 1.44320 0.926301 -1.10887
  1053 0.210011 -4.08083 -0.986738
  1054 5.75205 0.351297 -0.0854366
  1055 5.75200 0.352076 0.0857897
  1056 16.5056 0.614301 0.655873
  1057 17.0663 0.250115 0.443117
  1058 17.0660 0.251946 -0.444393
  1059 -0.153970 -1.11258 -1.90279
  1060 25.7815 -0.314915 -0.675215
  1061 -0.102955 -0.182089 1.93852
  1062 -0.0847188 -0.163951 -1.93188
  1063 23.8785 -0.0178397 -0.170028
  1064 23.8776 -0.0180698 0.169248
  1065 25.3616 -0.0558694 -0.294899
  1066 25.3423 -0.0597712 0.283451
  1067 -0.0195838 -4.90132 0.473913
  1068 14.4548 0.510680 -0.613839
  1069 14.4564 0.507280 0.612873
  1070 17.8130 0.275497 0.528737
  1071 17.8125 0.277721 -0.530494
  1072 0.242047 0.344477 1.80123
  1073 0.241432 0.345405 -1.80047
  1074 38.9878 2.82268 0.222990
  1075 -0.568150 -0.276073 1.93379
  1076 -0.573883 -0.271114 -1.93698
  1077 5.14290 1.14927 0.194465
  1078 5.14249 1.14921 -0.190569
  1079 -3.50103 0.0992762 -0.213727
  1080 -3.50050 0.0993891 0.214000
  1081 8.64809 0.380903 -2.67258
  1082 8.64265 0.407216 2.71569
  1083 2.29868 1.04026 0.933697
  1084 2.29512 1.04257 -0.931207
  1085 5.78214 0.514011 -1.84127
  1086 5.75456 0.546102 1.86635
  1087 -0.174492 -1.66567 -1.29243
  1088 20.8907 0.195071 3.19172
  1089 15.0084 -0.784799 9.09168
  1090 2.16338 1.04154 0.967931
  1091 2.15862 1.04512 -0.965815
  1092 8.88053 0.627249 -0.0858711
  1093 8.88138 0.625475 0.0863940
  1094 33.8563 -0.646260 1.79822
  1095 1.92291 0.379198 0.759490
  1096 1.89849 0.387419 -0.764072
  1097 -1.01703 -0.232934 1.13113
  1098 -1.01720 -0.233763 -1.13170
  1099 -0.0336337 -0.725767 0.297052
  1100 -0.0348647 -0.725194 -0.298166
  1101 22.1467 0.0611835 0.732006
  1102 22.1468 0.0714028 -0.741873
  1103 -0.00344196 -1.69566 1.79531
  1104 -1.59376 0.0773661 -1.55587
  1105 -1.59199 0.0772267 1.55486
  1106 0.00958831 -6.00646 -0.625700
  1107 -0.407772 -0.562263 1.92954
  1108 -0.406963 -0.552076 -1.93093
  1109 21.3084 0.0954936 -0.308803
  1110 21.3080 0.0948005 0.307727
  1111 21.7566 -0.0791575 0.854253
  1112 21.7482 -0.0630963 -0.865124
  1113 3.47337 0.662418 -0.370477
  1114 3.44780 0.680737 0.381413
  1115 -0.0564761 -3.09460 -1.08678
  1116 28.7926 -3.48191 -5.07875
  1117 37.5209 3.93874 -0.906518
  1118 0.338909 -5.12184 -0.327832
  1119 1.11616 0.679543 -1.41790
  1120 1.12198 0.674832 1.41509
  1121 3.21078 1.12719 0.603487
  1122 3.20520 1.13170 -0.599680
  1123 7.11990 0.572893 -0.0495090
  1124 7.11944 0.574235 0.0501449
  1125 -0.503990 -0.718193 1.47173
  1126 -0.502927 -0.724116 -1.47315
  1127 -1.57768 0.431639 1.31630
  1128 -1.57997 0.432433 -1.31616
  1129 -0.685702 0.526637 1.53311
  1130 -0.688891 0.528000 -1.53308
  1131 20.5421 -1.03107 -1.36963
  1132 20.6854 -1.04689 1.34902
  1133 0.0102580 -3.63500 -1.31441
  1134 10.5939 -0.173542 -3.46236
  1135 10.6204 -0.138012 3.53423
  1136 3.17618 1.08477 -0.600915
  1137 3.17803 1.08359 0.603970
  1138 11.1759 2.74429 10.2090
  1139 2.40473 0.897848 0.717510
  1140 2.40338 0.898156 -0.715380
  1141 28.4034 -3.52918 -0.775817
  1142 10.3789 0.436770 0.0887473
  1143 10.3785 0.437998 -0.0887451
  1144 -0.491183 -0.440839 0.885416
  1145 -0.491203 -0.441607 -0.884721
  1146 -0.591876 -0.535250 1.15438
  1147 -0.591447 -0.536977 -1.15394
  1148 18.2323 -2.14488 -5.05365
  1149 18.6612 -2.33922 5.09696
  1150 2.90031 0.230759 -0.00319048
  1151 2.90055 0.231164 0.00336549
  1152 11.2196 0.566822 -1.81885
  1153 11.2262 0.556818 1.84234
  1154 25.4070 -3.80337 3.72093
  1155 23.0725 -0.0227219 0.0472234
  1156 23.0716 -0.0226958 -0.0472656
  1157 -2.23130 0.328666 1.16894
  1158 -2.23329 0.329191 -1.16883
  1159 -3.74533 0.130473 -0.632326
  1160 -3.74406 0.130400 0.632712
  1161 5.41034 -0.927481 5.81616
  1162 15.9290 1.18212 -1.31867
  1163 10.2627 0.858406 -0.802052
  1164 10.2685 0.853209 0.808291
  1165 33.6214 -2.10825 5.37401
  1166 10.4196 0.798755 -1.27518
  1167 10.4274 0.791733 1.28610
  1168 2.29529 0.440783 -0.305196
  1169 2.29557 0.441347 0.305895
  1170 0.842291 -4.12783 0.269344
  1171 0.853401 -4.06073 -0.497127
  1172 14.2508 -1.25530 -5.08522
  1173 14.4709 -1.18805 5.09225
  1174 5.35902 0.789257 -1.17988
  1175 5.33872 0.810026 1.20038
  1176 25.6546 -1.88074 -2.40265
  1177 -1.01375 -0.114041 1.74868
  1178 -1.01587 -0.113672 -1.75013
  1179 -0.0521047 -1.52265 -1.84042
  1180 6.17558 -0.240007 -3.55401
  1181 6.19591 -0.212194 3.63071
  1182 -0.0170205 -1.29516 0.333486
  1183 -0.0144628 -1.29805 -0.337347
  1184 -6.43920 0.0577773 -0.184193
  1185 -6.43797 0.0577716 0.184311
  1186 20.8198 0.0598722 -0.0766670
  1187 20.8201 0.0597370 0.0764315
  1188 12.4124 0.605804 -0.472200
  1189 12.4148 0.602242 0.472297
  1190 -0.557472 -0.0639057 1.95184
  1191 -0.558790 -0.0566265 -1.95467
  1192 0.00522952 -5.31339 -0.532102
  1193 -5.41640 0.0153919 0.283475
  1194 -5.41796 0.0154250 -0.283475
  1195 3.75853 -0.614398 -2.34833
  1196 3.72841 -0.589359 2.44028
  1197 23.9289 -1.48066 0.202655
  1198 6.43229 0.117679 -3.17474
  1199 6.44138 0.144559 3.21897
  1200 -2.94847 0.0148456 0.411948
  1201 -2.94893 0.0148506 -0.412231
  1202 0.0703735 -4.84356 -0.975861
  1203 -1.26845 0.242548 -0.290741
  1204 -1.26794 0.242768 0.291175
  1205 3.25177 0.948654 0.591789
  1206 3.25059 0.948784 -0.589274
  1207 13.3296 0.211650 -0.0709175
  1208 13.3296 0.211214 0.0708528
  1209 18.2563 0.194669 0.338477
  1210 18.2562 0.195822 -0.339518
  1211 0.859165 -0.329254 1.26252
  1212 0.846566 -0.344108 -1.27710
  1213 0.136662 -2.84205 1.45993
  1214 32.5096 4.06445 2.18471
  1215 -1.00997 -0.0831983 0.638059
  1216 -1.00969 -0.0834801 -0.638149
  1217 0.105084 -2.65864 -1.50748
  1218 -0.100987 -1.54497 0.938619
  1219 -0.0952023 -1.53365 -0.973193
  1220 25.9456 -0.271423 0.603753
  1221 0.0251038 -6.10811 0.549378
  1222 0.142970 -1.98638 -1.67851
  1223 2.65061 0.199438 0.0468169
  1224 2.65035 0.199091 -0.0467635
  1225 -0.284087 -1.16001 1.75719
  1226 -3.16285 0.190274 -0.555849
  1227 -3.16180 0.190258 0.556342
  1228 55.4240 1.04161 1.46314
  1229 -1.60264 0.156519 1.58883
  1230 -1.60477 0.156823 -1.58985
  1231 12.0438 0.561082 -1.64900
  1232 12.0590 0.548275 1.66108
  1233 0.706876 -1.51250 -0.930744
  1234 11.5135 0.738846 -0.596461
  1235 11.5172 0.734116 0.598018
  1236 0.436184 -4.10021 -0.459498
  1237 -0.284300 -1.16063 -1.75195
  1238 -2.37943 0.128844 0.355443
  1239 -2.38006 0.128688 -0.355008
  1240 -0.992874 0.0290624 -1.80577
  1241 -0.990364 0.0288109 1.80454
  1242 24.3951 1.89937 2.74245
  1243 14.0399 0.241222 -1.79673
  1244 14.0606 0.232491 1.80132
  1245 -6.82478 0.0234017 -0.0778117
  1246 -6.82410 0.0234124 0.0779232
  1247 12.7489 0.457871 -0.327504
  1248 12.7496 0.456169 0.327140
  1249 -7.08300 -0.106854 -0.0166724
  1250 -7.08324 -0.106852 0.0166812
  1251 19.0904 -1.38827 -2.05053
  1252 -3.14734 0.0497575 0.891816
  1253 -3.14867 0.0498734 -0.892285
  1254 19.3019 -1.46585 2.03083
  1255 12.9238 0.621046 -0.698228
  1256 12.9270 0.616160 0.698379
  1257 1.42625 -5.08330 -2.34691
  1258 0.0266537 -4.38171 -1.13464
  1259 -0.108138 -1.86044 1.65133
  1260 42.7127 5.30893 -4.65715
  1261 -0.0119498 -4.07052 1.08706
  1262 44.0479 4.11831 -2.07942
  1263 -0.0154788 -7.50522 -0.535349
  1264 1.66039 0.299193 -0.144551
  1265 1.66068 0.299608 0.144941
  1266 -0.0196607 -1.66647 0.349948
  1267 -0.0161620 -1.67485 -0.348627
  1268 6.98926 0.317701 -0.0407055
  1269 6.98932 0.318292 0.0407934
  1270 26.0064 -2.14958 2.30723
  1271 0.117730 0.268061 -0.337808
  1272 0.118166 0.268364 0.338314
  1273 0.152839 -8.54251 0.353145
  1274 0.0975537 -9.04602 -0.344744
  1275 23.9140 -3.21902 -2.09650
  1276 -0.0706941 -2.22049 1.04573
  1277 24.3105 1.40386 -3.33090
  1278 -0.0753011 -2.92699 1.03228
  1279 0.0479499 -8.17003 -0.447343
  1280 11.8294 0.489344 -0.330276
  1281 11.8308 0.486754 0.330255
  1282 -0.00718537 -4.31479 0.466313
  1283 -0.0127651 -3.63458 -1.06024
  1284 59.7493 9.20779 8.19031
  1285 23.1920 0.0436996 0.0383541
  1286 23.1911 0.0436988 -0.0383604
  1287 0.475302 -0.0876609 1.67289
  1288 0.458688 -0.0630508 -1.67778
  1289 -0.484170 0.281482 1.87163
  1290 -0.490544 0.282923 -1.87325
  1291 23.8735 -0.484169 -1.86622
  1292 22.3868 -0.903076 -0.718025
  1293 22.3544 -1.03755 0.714692
  1294 2.95343 0.490885 0.327279
  1295 2.95321 0.490208 -0.326374
  1296 -3.87167 0.107369 -0.726043
  1297 -3.87008 0.107193 0.726065
  1298 24.9993 -3.81899 -3.09427
  1299 -0.189938 -0.452804 0.457840
  1300 -0.190575 -0.452274 -0.457512
  1301 26.2211 -1.31887 3.33714
  1302 -0.290666 -1.07324 1.26626
  1303 -0.287577 -1.07678 -1.26020
  1304 -2.71133 0.197711 0.418001
  1305 -2.71211 0.197612 -0.417504
  1306 3.68371 0.175850 -1.04730
  1307 3.64582 0.200140 1.05056
  1308 5.87055 0.301781 0.0789651
  1309 5.87046 0.301184 -0.0788167
  1310 -2.73285 0.263872 1.13648
  1311 -2.73469 0.264281 -1.13657
  1312 21.6640 0.111138 0.0597509
  1313 21.6634 0.111154 -0.0597691
  1314 11.3617 -0.578598 6.83583
  1315 17.4633 0.149681 0.118087
  1316 17.4632 0.149963 -0.118296
  1317 11.1427 0.212571 -2.60786
  1318 11.1513 0.197097 2.63729
  1319 0.102050 -4.98538 -0.788683
  1320 4.14271 0.970102 -0.257711
  1321 4.12693 0.983176 0.268998
  1322 -0.0392765 -0.0394594 -0.0540700
  1323 -0.0394631 -0.0394855 0.0542221
  1324 14.6754 0.584739 0.949510
  1325 14.6704 0.592457 -0.950050
  1326 7.02926 0.728270 -0.00201067
  1327 7.02853 0.729938 0.00321260
  1328 10.5826 0.747380 -0.361979
  1329 10.5848 0.744067 0.362975
  1330 14.1601 0.220716 -0.116895
  1331 14.1602 0.220281 0.116754
  1332 -0.456634 -0.224488 -0.518262
  1333 -0.456724 -0.224351 0.518687
  1334 -4.70365 0.0292891 0.249130
  1335 -4.70439 0.0292513 -0.248832
  1336 -0.798871 -0.376383 -1.29679
  1337 -0.798804 -0.374845 1.29609
  1338 -2.90445 0.0904784 0.110212
  1339 -2.90484 0.0903508 -0.110079
  1340 -7.13281 0.0717090 0.0454632
  1341 -7.13316 0.0716934 -0.0454072
  1342 27.0626 -3.92764 4.35065
  1343 18.3178 -0.164366 -2.55320
</Section>

newXOutput 5

<Section columns = "stress_xx | stress_yy | stress_xy">
  1 31.8922 -0.0181827 0.0276816
  2 31.8939 -0.0181954 -0.0276964
  3 -10.2438 0.0590930 -0.136379
  4 0.0167357 0.00519111 0.0291178
  5 59.7017 13.3234 17.7016
  6 67.3826 15.3629 -16.7960
  7 0.0166882 0.00514373 -0.0290557
  8 -10.2433 0.0591053 0.136396
  9 31.7870 -0.0154017 -0.103520
  10 31.8051 -0.0718818 -0.172746
  11 32.1101 -0.0680614 -0.0412260
  12 32.1286 -0.0578240 -0.194202
  13 32.1793 -0.0535004 -0.0502531
  14 32.8712 -0.0579921 -0.0737636
  15 33.0895 -0.0964675 -0.259457
  16 33.3033 -0.0311063 -0.171747
  17 33.4149 0.0606595 -0.332260
  18 34.8129 -0.155444 -0.285652
  19 35.3710 -0.107841 -0.375209
  20 35.9591 -0.185720 -0.113909
  21 36.1910 -0.265101 -0.0390496
  22 35.7284 -0.323031 0.570881
  23 34.2193 -0.378646 1.14765
  24 30.8311 -0.466034 2.37405
  25 25.5680 0.201798 2.73346
  26 21.1001 0.218425 2.59190
  27 15.0417 0.604294 1.57513
  28 16.1443 0.591008 0.0920977
  29 12.9030 1.80567 -1.02942
  30 19.7352 0.798110 -2.74566
  31 23.6680 0.156299 -2.26712
  32 30.0809 -0.123444 -1.96179
  33 33.6912 -0.459286 -1.36062
  34 35.6251 -0.378458 -0.572343
  35 36.0800 -0.254821 0.0380390
  36 35.8786 -0.182711 0.101230
  37 35.3284 -0.109026 0.360439
  38 34.7886 -0.158247 0.276602
  39 33.4049 0.0589173 0.327344
  40 33.2986 -0.0317713 0.169674
  41 33.0881 -0.0968400 0.258464
  42 32.8711 -0.0581809 0.0732428
  43 32.1800 -0.0535922 0.0499552
  44 32.1299 -0.0579113 0.194081
  45 32.1116 -0.0681138 0.0411517
  46 31.8067 -0.0719102 0.172746
  47 31.7886 -0.0154115 0.103521
  48 29.9347 0.139125 -0.0355865
  49 27.5708 0.128774 -0.0862684
  50 24.6428 0.0501079 -0.0963965
  51 21.6349 0.246683 -0.0801711
  52 19.0289 0.242623 -0.0652283
  53 16.2642 0.336339 -0.0783738
  54 13.5591 0.472473 -0.0538559
  55 10.7744 0.437475 -0.100614
  56 8.48093 0.345326 -0.136144
  57 5.49233 0.261939 -0.143240
  58 2.47431 0.298326 -0.107837
  59 -0.0338963 0.242589 -0.104003
  60 -3.14714 0.157291 -0.0974251
  61 -5.46023 0.0225470 -0.219551
  62 -7.69599 -0.127211 -0.102398
  63 -9.95126 0.0302492 0.0610085
  64 -10.4240 0.181494 -0.0345260
  65 -10.4413 0.0850471 0.0181120
  66 -10.0869 0.0483608 -0.0250489
  67 -10.1490 0.119699 -0.136119
  68 -9.96512 0.142702 -0.0318194
  69 -9.40518 0.0489073 -0.204095
  70 -9.45567 0.0872206 -0.216596
  71 -9.18854 0.0838159 -0.130895
  72 -8.48785 0.0556516 -0.188613
  73 -8.12198 0.0918530 -0.297693
  74 -7.60546 0.100290 -0.250495
  75 -6.70459 0.0521373 -0.412384
  76 -6.19215 0.0158572 -0.345455
  77 -5.29351 0.0228486 -0.393074
  78 -4.51258 0.0141816 -0.428792
  79 -3.84295 0.00369337 -0.338189
  80 -2.92693 0.0185452 -0.339311
  81 -2.14185 -0.0108775 -0.360347
  82 -1.38343 -0.0409892 -0.312394
  83 -0.786336 -0.0355785 -0.236950
  84 -0.381097 -0.0604611 -0.196149
  85 -0.0552040 -0.0347969 -0.0676405
  86 0.0104739 -0.0374209 -0.0224632
  87 -0.0204949 -0.0152218 -0.00165189
  88 -0.0542932 -0.0407977 -0.0588881
  89 -0.0525115 -0.320861 -0.169653
  90 -0.0458824 -0.730038 -0.245460
  91 -0.0245666 -1.26275 -0.360219
  92 -0.0135925 -1.94687 -0.311309
  93 -0.0137433 -2.58425 -0.392498
  94 -0.0495645 -3.37347 -0.446285
  95 -0.0200700 -4.34004 -0.454486
  96 0.00965842 -5.31458 -0.437488
  97 0.0216577 -6.36338 -0.433453
  98 0.0319267 -7.44759 -0.429498
  99 0.00659892 -8.27185 -0.584159
  100 0.0599938 -9.41644 -0.525138
  101 0.0705796 -10.7653 -0.432823
  102 0.00815159 -11.4278 -0.576780
  103 0.100654 -12.4821 -0.544990
  104 0.233298 -13.8957 -0.321769
  105 0.449128 -14.4219 -0.508718
  106 0.284466 -13.6921 0.0889879
  107 0.355877 -11.1761 0.868323
  108 2.38728 -8.19028 3.16059
  109 7.90888 6.10334 12.7398
  110 93.1342 4.57772 8.75268
  111 79.5860 1.53084 3.27435
  112 77.0385 0.652100 0.702764
  113 76.5390 0.312832 -0.122258
  114 76.9974 0.946280 -1.73289
  115 79.1177 2.69536 -3.79060
  116 90.1968 8.94762 -11.0256
  117 18.4707 4.54042 -15.6720
  118 3.82547 -8.04695 -4.04673
  119 1.10723 -12.2025 -1.36896
  120 0.297341 -13.0389 -0.117119
  121 0.356278 -13.9291 0.345419
  122 0.107339 -13.3859 0.269180
  123 0.0457204 -12.1770 0.480903
  124 0.0452013 -11.3991 0.385705
  125 0.0598921 -10.2033 0.602794
  126 -0.00261982 -9.49058 0.573523
  127 0.0238118 -8.54992 0.415973
  128 0.0433352 -7.35499 0.517168
  129 0.00702558 -6.50646 0.410899
  130 0.0133540 -5.32678 0.518007
  131 -0.0531237 -4.39112 0.443603
  132 -0.0388698 -3.37709 0.433026
  133 -0.0103990 -2.57111 0.393787
  134 -0.0172118 -1.93613 0.312252
  135 -0.0241574 -1.25913 0.356890
  136 -0.0452810 -0.729468 0.244279
  137 -0.0522485 -0.321303 0.169528
  138 -0.0542438 -0.0412180 0.0589872
  139 -0.0204962 -0.0154118 0.00177476
  140 0.0102511 -0.0374626 0.0225846
  141 -0.0556532 -0.0347950 0.0678125
  142 -0.381887 -0.0604358 0.196370
  143 -0.787489 -0.0354959 0.237070
  144 -1.38458 -0.0408869 0.312370
  145 -2.14267 -0.0107936 0.360140
  146 -2.92733 0.0185606 0.339056
  147 -3.84275 0.00371456 0.337935
  148 -4.51185 0.0141943 0.428535
  149 -5.29216 0.0228257 0.392838
  150 -6.19036 0.0158235 0.345274
  151 -6.70255 0.0520979 0.412262
  152 -7.60323 0.100246 0.250449
  153 -8.11973 0.0918139 0.297705
  154 -8.48572 0.0556334 0.188678
  155 -9.18659 0.0838037 0.130981
  156 -9.45392 0.0872075 0.216701
  157 -9.40368 0.0489033 0.204214
  158 -9.96391 0.142709 0.0319339
  159 -10.1480 0.119713 0.136212
  160 -10.0861 0.0483712 0.0251179
  161 -10.4407 0.0850603 -0.0180648
  162 -10.4234 0.181513 0.0345670
  163 -9.95071 0.0302557 -0.0609881
  164 -7.69539 -0.127181 0.102428
  165 -5.45958 0.0226395 0.219588
  166 -3.14649 0.157470 0.0974733
  167 -0.0333264 0.242874 0.104043
  168 2.47480 0.298728 0.107874
  169 5.49267 0.262459 0.143281
  170 8.48114 0.345931 0.136167
  171 10.7746 0.438132 0.100626
  172 13.5591 0.473127 0.0538381
  173 16.2642 0.336920 0.0783368
  174 19.0288 0.243106 0.0651743
  175 21.6346 0.247023 0.0800947
  176 24.6423 0.0503146 0.0963085
  177 27.5700 0.128840 0.0862151
  178 29.9335 0.139130 0.0355621
  179 7.69826 1.51813 0.0312781
  180 7.69734 1.51825 -0.0241961
  181 -0.315077 0.146920 2.53916
  182 -0.322380 0.147648 -2.53791
  183 18.1700 -0.287953 -3.71777
  184 18.1685 -0.328169 3.76431
  185 3.39219 0.600938 0.301065
  186 3.35212 0.619632 -0.295274
  187 2.19354 0.586858 -0.536277
  188 2.19418 0.587443 0.537374
  189 17.4148 0.532457 -0.475310
  190 17.4163 0.529659 0.474809
  191 -0.685574 0.749475 1.48856
  192 -0.688340 0.750425 -1.48749
  193 20.2672 0.699178 -1.36326
  194 20.2766 0.687447 1.36282
  195 -0.833117 -0.735332 1.88966
  196 -0.832283 -0.738948 -1.89101
  197 0.118212 -1.86568 -2.39509
  198 5.95175 -0.178011 -3.15628
  199 0.158788 -1.98749 2.34860
  200 5.85472 -0.121381 3.22532
  201 28.9031 -4.30328 -5.48592
  202 30.0030 -4.47684 5.22620
  203 9.99964 0.535107 0.0186830
  204 9.99983 0.533944 -0.0183870
  205 -2.22754 0.198310 -0.327776
  206 -2.22679 0.198561 0.328172
  207 -2.52245 0.346099 1.92499
  208 -2.52550 0.346952 -1.92586
  209 10.0347 1.13298 -0.0580529
  210 10.0361 1.13053 0.0601637
  211 2.85454 1.27054 1.24685
  212 2.84511 1.27863 -1.24562
  213 -3.39293 0.364760 -0.876554
  214 -3.39124 0.364674 0.877274
  215 23.5911 0.188729 0.250364
  216 23.5908 0.189416 -0.250974
  217 0.663731 -3.56127 1.25407
  218 0.723540 -3.26790 -1.16102
  219 -0.244767 -2.05677 2.15668
  220 -0.247522 -2.12670 -2.08493
  221 9.20217 1.39354 -1.21105
  222 9.19856 1.39839 1.23218
  223 -2.18498 -0.0294259 1.87280
  224 -2.18672 -0.0293960 -1.87413
  225 25.2464 0.294056 -0.793349
  226 25.2466 0.290589 0.790200
  227 27.0056 -0.271214 -1.52362
  228 27.0226 -0.303155 1.50931
  229 42.5997 3.52715 -0.144182
  230 39.1118 4.15445 3.45636
  231 39.1025 -0.891519 -4.57772
  232 4.29919 1.16698 0.734964
  233 4.29812 1.16683 -0.732151
  234 0.0451366 0.857074 2.04250
  235 0.0401390 0.859651 -2.04194
  236 30.1403 -1.83264 -0.790193
  237 29.9551 -1.85894 0.880373
  238 16.4572 0.341168 -0.154680
  239 16.4575 0.340179 0.154446
  240 -3.99394 0.276499 1.31296
  241 -3.99635 0.276970 -1.31290
  242 -0.517908 -0.511120 -0.830713
  243 -0.517680 -0.511077 0.831522
  244 -4.62065 0.152276 0.469878
  245 -4.62177 0.152148 -0.469348
  246 13.2961 1.19152 -0.769201
  247 13.3007 1.18582 0.773412
  248 17.0488 0.646775 -2.04607
  249 17.0669 0.632562 2.05609
  250 3.67588 0.408016 -0.110922
  251 3.67627 0.408593 0.111280
  252 9.59943 -0.831439 -7.45867
  253 11.4673 -0.473284 8.24518
  254 1.13422 0.477287 2.02151
  255 1.12950 0.491145 -2.02560
  256 41.5579 -4.00874 0.171062
  257 3.14951 1.38379 1.07634
  258 3.14598 1.38589 -1.07300
  259 9.37541 0.901126 -2.56181
  260 9.36280 0.928297 2.60212
  261 46.0228 5.96771 -1.66896
  262 27.3803 0.147089 1.07435
  263 27.3786 0.157961 -1.08289
  264 -0.256138 -1.54896 -1.32039
  265 -0.250061 -1.55588 1.32615
  266 -0.0653643 -3.74308 -1.86628
  267 0.0962526 -4.49404 -1.81153
  268 0.0453821 -4.44373 1.86015
  269 -0.753787 -0.665589 2.48336
  270 -0.755896 -0.663369 -2.49048
  271 1.32004 -4.04863 -0.147255
  272 1.41485 -3.79204 0.364079
  273 -1.59614 -0.141596 1.16264
  274 -1.59623 -0.142087 -1.16319
  275 19.1485 0.725753 -0.815541
  276 19.1521 0.720145 0.814402
  277 33.9323 -3.74735 0.334158
  278 7.00008 0.795116 -0.202809
  279 6.99988 0.796399 0.203877
  280 -0.100740 -3.50489 1.77902
  281 0.273063 0.765375 1.03298
  282 0.271361 0.765586 -1.03151
  283 54.7358 4.02169 -1.00495
  284 26.7147 0.131621 0.317235
  285 26.7146 0.132452 -0.318368
  286 17.1985 -1.07053 -5.69935
  287 17.3747 -1.05442 5.80629
  288 33.8797 -3.54067 -0.908187
  289 -3.33326 0.0939552 1.49384
  290 -3.33510 0.0941282 -1.49476
  291 33.3817 -3.65451 9.57150
  292 -1.57562 0.199730 2.29443
  293 -1.57904 0.200071 -2.29613
  294 5.18768 1.44576 0.0339326
  295 5.17009 1.46028 -0.0228210
  296 -6.45261 0.0840153 0.0929484
  297 -6.45330 0.0839538 -0.0928213
  298 27.9544 -0.681360 -13.2584
  299 -5.83594 0.129570 -0.727977
  300 -5.83394 0.129434 0.728281
  301 -0.246982 -0.823623 2.59404
  302 -0.171302 -0.812399 -2.57880
  303 11.8104 1.34953 -1.14728
  304 11.8155 1.34536 1.15903
  305 2.14402 0.437111 0.400312
  306 2.14351 0.436549 -0.399645
  307 12.4096 0.683830 -0.164678
  308 12.4103 0.681907 0.164977
  309 1.05298 -1.22184 1.60463
  310 0.959040 -1.40840 -1.60963
  311 12.0427 0.410102 -0.0197520
  312 12.0427 0.409278 0.0197668
  313 -4.69461 0.121349 1.11230
  314 -4.69674 0.121563 -1.11275
  315 2.83515 -0.715458 -0.251852
  316 2.74451 -0.715532 0.177652
  317 28.0004 0.0683993 0.0872203
  318 27.9995 0.0685136 -0.0873781
  319 61.9789 3.68236 2.06162
  320 5.73291 0.967263 0.406253
  321 5.73282 0.966141 -0.404346
  322 -1.80453 0.371283 0.661725
  323 -1.80570 0.371122 -0.660854
  324 8.09139 1.29376 0.0873931
  325 8.09201 1.29197 -0.0833138
  326 0.750008 0.813330 2.14435
  327 0.745884 0.816064 -2.14531
  328 0.117747 -6.41230 1.35959
  329 -6.62085 0.0459911 -0.198136
  330 -6.61998 0.0460554 0.198374
  331 21.0236 0.227992 -0.160913
  332 21.0239 0.227461 0.160628
  333 22.1565 0.315695 -0.427333
  334 22.1570 0.313926 0.426132
  335 -6.09229 0.127584 -0.548356
  336 -6.09077 0.127588 0.548793
  337 -0.680059 0.200011 0.0982465
  338 -0.680658 0.199736 -0.0980659
  339 -0.134276 -2.54584 1.32564
  340 -0.107605 -2.64694 -1.32377
  341 24.6181 -2.17369 -3.77528
  342 25.6374 -2.59437 3.69290
  343 14.4468 0.911373 -0.457392
  344 14.4490 0.907648 0.458008
  345 6.06903 1.53937 0.184211
  346 6.06213 1.54464 -0.175461
  347 -2.65581 0.476318 1.21875
  348 -2.65800 0.476777 -1.21807
  349 47.3041 -0.324626 -0.0479126
  350 2.24148 -4.63555 -2.12108
  351 2.40032 -4.43323 2.25777
  352 -1.26476 0.713271 1.89304
  353 -1.26842 0.714733 -1.89283
  354 -1.35698 -0.301635 2.18145
  355 -1.35903 -0.301671 -2.18373
  356 53.3623 8.21255 -1.24212
  357 33.2592 -0.776631 5.14285
  358 31.7430 -0.672395 -0.602977
  359 31.6935 -0.657568 0.538787
  360 21.7821 -0.167036 -2.38057
  361 21.7609 -0.195489 2.37830
  362 0.0409371 -7.71487 -1.12187
  363 29.2501 0.165520 -0.614510
  364 29.2474 0.162248 0.609907
  365 0.353011 -7.38830 0.980873
  366 32.1875 2.49449 -3.06519
  367 7.68373 0.445708 0.148038
  368 7.68352 0.445041 -0.147919
  369 21.9872 0.306939 -1.77206
  370 22.0029 0.290056 1.77080
  371 23.9554 0.354559 -1.09823
  372 23.9581 0.347035 1.09382
  373 -0.967056 0.349513 0.472828
  374 -0.967923 0.349196 -0.472118
  375 13.2216 0.738922 -2.72611
  376 13.2331 0.744427 2.75965
  377 28.8914 0.0667935 0.144628
  378 28.8908 0.0669971 -0.145020
  379 15.6812 1.03477 -1.32331
  380 15.6900 1.02522 1.32899
  381 18.4164 0.472848 0.324928
  382 18.4158 0.474384 -0.325501
  383 -0.890912 -0.165939 0.707474
  384 -0.890527 -0.166262 -0.707235
  385 -0.208471 -0.149061 -0.199590
  386 -0.208603 -0.149185 0.199913
  387 38.2128 -5.36912 1.94103
  388 -0.525150 -1.24650 1.97355
  389 -0.521854 -1.25559 -1.97249
  390 5.65844 0.548814 -0.259512
  391 5.65857 0.549746 0.260192
  392 -0.192359 -0.944098 0.709048
  393 -0.194368 -0.942175 -0.708924
  394 1.94867 1.12432 1.16582
  395 1.94622 1.12530 -1.16352
  396 31.3039 -0.0397312 0.795595
  397 31.3085 -0.0257899 -0.816925
  398 -0.120536 -1.98164 2.44222
  399 -2.58668 -0.0538461 1.11184
  400 -2.58725 -0.0539647 -1.11261
  401 -0.130158 -2.08403 -2.41332
  402 29.5208 0.0899257 0.389528
  403 29.5219 0.0909593 -0.391422
  404 -0.485266 0.587670 2.34089
  405 -0.491911 0.590322 -2.34177
  406 21.4074 0.492540 -0.699909
  407 21.4087 0.489058 0.698036
  408 33.0432 -1.43297 -1.05745
  409 33.2160 -1.13645 0.828722
  410 -0.0751678 -3.48183 -1.46136
  411 2.66246 0.934897 -1.03126
  412 2.68391 0.921253 1.03244
  413 31.4162 2.14905 1.95772
  414 18.2116 -1.45235 -8.01701
  415 18.7506 -1.80962 8.43583
  416 0.759736 1.03632 1.63961
  417 0.755956 1.03823 -1.63803
  418 13.4175 0.564345 -0.112127
  419 13.4179 0.563026 0.112104
  420 12.9411 0.536349 12.8664
  421 5.07934 1.37242 -0.648082
  422 5.08117 1.37176 0.652234
  423 0.286806 -3.56965 1.78087
  424 -0.0426536 -5.68941 -1.29283
  425 1.84973 1.23310 1.59395
  426 1.84450 1.23647 -1.59216
  427 2.23191 0.819172 -0.756102
  428 2.23289 0.819496 0.757723
  429 -1.04409 -0.109014 -2.50325
  430 -1.04058 -0.110555 2.50105
  431 6.18582 1.16040 -0.773249
  432 6.16210 1.18095 0.792211
  433 32.8389 -1.17397 -3.83655
  434 0.780365 -0.538625 2.12384
  435 0.751585 -0.525427 -2.13164
  436 23.8608 -0.992573 -2.63460
  437 23.9729 -1.07446 2.62428
  438 -6.26827 0.0580871 -0.686052
  439 -6.26611 0.0579519 0.686052
  440 0.00183401 -5.55663 1.15467
  441 -0.0426312 -3.51514 1.29839
  442 -2.58249 0.144405 1.91766
  443 -2.58476 0.144614 -1.91889
  444 17.1024 0.331992 -0.0460876
  445 17.1025 0.331313 0.0459348
  446 -0.534589 -0.842660 1.32244
  447 -0.535066 -0.844078 -1.32042
  448 10.2578 0.279609 -4.03251
  449 10.2452 0.333563 4.09478
  450 0.0878636 -6.86160 -1.33212
  451 61.9341 2.49013 0.105379
  452 0.157514 -8.32846 -0.902109
  453 -7.59547 0.0246594 -0.274752
  454 -7.59433 0.0247040 0.275018
  455 -2.99040 0.391020 1.62998
  456 -2.99323 0.391809 -1.63018
  457 -3.26502 0.0433218 1.12470
  458 -3.26605 0.0433791 -1.12545
  459 11.3261 1.33214 -0.696009
  460 11.3298 1.32881 0.703425
  461 17.5280 0.884161 -1.02788
  462 17.5342 0.876132 1.02884
  463 -0.362763 -1.22315 2.51312
  464 -0.362812 -1.21451 -2.52247
  465 29.9871 0.299879 -4.85232
  466 1.90396 -0.896823 -0.767641
  467 1.83803 -0.913110 0.801846
  468 0.446039 -7.78671 0.226355
  469 0.276140 -8.91498 -0.413914
  470 -0.966478 -0.441167 1.36412
  471 -0.966326 -0.442449 -1.36408
  472 6.17747 -2.05278 -6.31033
  473 48.5345 -1.46803 -3.50434
  474 10.2976 0.861470 0.0979183
  475 10.2967 0.863650 -0.0967764
  476 15.0882 0.0640164 -3.95983
  477 15.1357 0.0576472 4.03321
  478 4.16773 1.59599 0.850368
  479 4.16248 1.60025 -0.845774
  480 13.6000 1.10658 -1.94235
  481 13.6123 1.09740 1.96219
  482 0.345052 0.155116 2.41811
  483 0.375871 0.170673 -2.41410
  484 -6.67937 0.112544 -0.530942
  485 -6.67760 0.112517 0.531262
  486 30.9761 -3.80785 -1.91310
  487 24.9025 0.138331 -0.124787
  488 24.9030 0.138106 0.124623
  489 0.776786 0.276306 -0.229919
  490 0.777358 0.276720 0.230317
  491 -1.90325 0.596817 1.56832
  492 -1.90613 0.597724 -1.56782
  493 -4.03198 0.264089 -0.617734
  494 -4.03063 0.264138 0.618391
  495 10.2829 1.19901 -0.191768
  496 10.2847 1.19606 0.194826
  497 -1.51001 0.475996 2.13138
  498 -1.51405 0.477432 -2.13223
  499 28.4241 -0.716592 -1.37203
  500 28.4670 -0.762203 1.33811
  501 18.2035 0.262931 -2.60460
  502 18.1814 0.243851 2.63030
  503 6.43881 0.475012 -0.159711
  504 6.43899 0.475801 0.160032
  505 0.0457258 -3.58368 -2.09371
  506 33.1138 -1.31333 3.17140
  507 0.381656 -2.50713 -2.00568
  508 8.98509 1.54693 0.642164
  509 8.98645 1.54504 -0.628942
  510 30.6312 -3.56450 1.87312
  511 2.12509 -4.53664 3.09958
  512 36.7960 -5.41308 -4.03080
  513 24.8786 0.241458 1.31402
  514 24.8718 0.254914 -1.32012
  515 0.0357063 -3.08763 2.17901
  516 -0.484337 -0.147056 -0.373383
  517 -0.484676 -0.147055 0.373751
  518 2.50717 0.282969 -0.0820590
  519 2.50764 0.283403 0.0822149
  520 -0.0869970 -1.94435 0.843904
  521 -0.0789289 -1.93467 -0.847767
  522 20.4728 0.374366 0.273841
  523 20.4725 0.375263 -0.274356
  524 59.1460 9.56175 3.13419
  525 2.18446 -1.99581 -0.257700
  526 1.68789 -2.50371 -0.0888728
  527 -1.02492 0.504062 -0.858000
  528 -1.02348 0.504070 0.859067
  529 -5.11018 0.0821957 0.684566
  530 -5.11187 0.0822792 -0.684920
  531 0.0482424 -6.40279 1.30794
  532 -7.55157 0.0871066 0.0925602
  533 -7.55232 0.0870668 -0.0924118
  534 5.93665 -1.24200 -4.52729
  535 5.79595 -1.11401 4.73283
  536 5.40577 0.756564 -1.26450
  537 5.36557 0.785722 1.28236
  538 -1.39455 -0.310760 1.89275
  539 -1.39563 -0.311611 -1.89442
  540 5.21619 0.651786 0.290841
  541 5.21606 0.650824 -0.289885
  542 -3.46654 0.195784 0.299115
  543 -3.46742 0.195611 -0.298659
  544 6.26618 1.10695 0.394292
  545 6.26613 1.10584 -0.391516
  546 -0.136642 -0.434045 0.317959
  547 -0.137064 -0.433556 -0.317860
  548 2.16690 0.927746 1.51166
  549 2.15322 0.943138 -1.51320
  550 1.75455 0.0881124 1.38972
  551 1.72865 0.0856619 -1.40109
  552 25.4030 0.307503 0.560151
  553 25.4029 0.309227 -0.561926
  554 22.2587 0.457786 0.865795
  555 22.2566 0.462809 -0.868444
  556 -0.0231540 -5.29422 -0.793742
  557 15.2699 0.961846 -0.738940
  558 15.2737 0.956590 0.740245
  559 15.3743 0.548003 -0.237002
  560 15.3751 0.546129 0.236836
  561 -2.68291 0.147451 -0.0212081
  562 -2.68227 0.147634 0.0213095
  563 24.6786 1.49819 -0.930432
  564 35.1652 -4.85051 -1.09490
  565 27.4493 1.18760 3.74099
  566 0.200304 -4.80032 -1.62123
  567 -1.93150 0.540198 -1.08173
  568 -1.92960 0.539954 1.08269
  569 0.194645 -2.83732 2.11553
  570 -1.65534 0.0117054 2.20900
  571 -1.65796 0.0119315 -2.21059
  572 44.4890 4.33965 -0.721058
  573 9.75896 0.643912 0.00715014
  574 9.75929 0.642505 -0.00665918
  575 70.4866 5.76769 -5.55800
  576 -0.443952 -0.356510 2.62661
  577 -0.423559 -0.338939 -2.62936
  578 37.1988 -3.71780 2.26589
  579 30.2287 0.109052 -0.691310
  580 30.2240 0.104037 0.684054
  581 13.1806 -0.365685 -5.84793
  582 13.3585 -0.400468 5.96138
  583 -0.814666 -0.789746 2.20052
  584 -0.814853 -0.793027 -2.20476
  585 6.75375 0.269146 2.82999
  586 6.80968 0.210582 -2.79450
  587 -6.03916 0.0733150 -0.658658
  588 -6.03700 0.0732166 0.658524
  589 43.9342 2.95781 3.86837
  590 7.86299 0.915551 -0.160784
  591 7.86255 0.917134 0.162216
  592 9.33917 1.14008 -1.86209
  593 9.33159 1.15419 1.89265
  594 27.0390 0.0703362 -1.30510
  595 27.0471 0.0531995 1.29572
  596 -0.138251 -2.84456 -1.99206
  597 29.8944 0.0196004 0.202654
  598 29.8940 0.0198485 -0.203181
  599 -4.79366 0.134267 -0.131301
  600 -4.79290 0.134387 0.131548
  601 -8.08276 -0.0320028 0.00998089
  602 -8.08338 -0.0320257 -0.00993545
  603 0.562132 -4.59590 -0.975511
  604 -0.290821 -1.82207 1.67764
  605 -0.306649 -1.72694 -1.68885
  606 -3.49211 0.204162 1.61103
  607 -3.49439 0.204571 -1.61181
  608 20.3454 0.673185 1.07209
  609 20.3408 0.680933 -1.07389
  610 14.8287 0.376208 0.0605271
  611 14.8286 0.376887 -0.0605832
  612 3.13294 -1.53828 1.59394
  613 3.24471 -1.46955 -1.57111
  614 -0.108661 -1.35173 0.709426
  615 -0.111695 -1.34697 -0.711541
  616 35.7559 0.664138 14.0062
  617 -1.74446 -0.0576235 0.661941
  618 -1.74398 -0.0578269 -0.662212
  619 0.543981 -2.82806 -1.69668
  620 14.4522 0.769762 -0.337188
  621 14.4536 0.767091 0.337346
  622 6.79777 1.50557 -0.337133
  623 6.78802 1.51377 0.350984
  624 0.0748122 -9.87577 0.635747
  625 5.00028 1.54271 0.629738
  626 4.99726 1.54479 -0.624785
  627 -0.961368 0.661668 1.29498
  628 -0.963618 0.662203 -1.29387
  629 -0.0424673 -4.69691 1.08679
  630 -7.93227 0.0242979 -0.269488
  631 -7.93095 0.0243113 0.269730
  632 9.28723 0.425003 -0.0504166
  633 9.28723 0.425925 0.0506257
  634 24.7585 0.204629 0.359394
  635 24.7583 0.205563 -0.360333
  636 21.3943 -2.16820 10.7002
  637 17.1857 0.616073 -0.594012
  638 17.1878 0.612320 0.593656
  639 0.158060 -0.518056 2.49696
  640 0.214187 -0.356677 -2.50097
  641 27.7475 -3.41811 -8.57444
  642 68.5414 2.46920 -2.32110
  643 -7.16315 0.0138507 -0.465589
  644 -7.16101 0.0137896 0.465675
  645 1.15825 0.463695 -0.464669
  646 1.15892 0.464159 0.465491
  647 -0.140899 -2.98309 1.74516
  648 37.4039 1.83364 -4.89265
  649 29.5895 0.00318465 0.0306496
  650 29.5884 0.00321544 -0.0307004
  651 -1.91552 -0.116615 -1.55928
  652 -1.91466 -0.116321 1.55818
  653 -0.00317137 -6.72200 -1.06581
  654 30.1194 -0.00878282 0.0769229
  655 30.1183 -0.00873407 -0.0770507
  656 2.27730 1.00654 1.00830
  657 2.27563 1.00678 -1.00614
  658 22.1243 -2.14506 -5.52509
  659 22.5708 -2.14248 5.59821
  660 33.3481 -0.156373 0.437563
  661 33.3745 -0.153021 -0.464889
  662 0.142391 -8.60233 0.892103
  663 -2.33808 0.129319 -0.178975
  664 -2.33740 0.129528 0.179241
  665 10.5461 -1.03669 -9.92565
  666 9.69118 0.399279 0.0496858
  667 9.69132 0.399968 -0.0496382
  668 4.47477 0.505746 0.171087
  669 4.47446 0.504996 -0.170548
  670 5.44020 0.783092 -0.287324
  671 5.44031 0.784197 0.288694
  672 18.9081 0.684164 -1.65395
  673 18.9216 0.670654 1.65716
  674 4.70039 1.43361 0.469932
  675 4.68881 1.44348 -0.463293
  676 -3.83527 0.291183 -0.992443
  677 -3.83331 0.290943 0.993026
  678 -4.34847 0.298191 -1.10092
  679 -4.34627 0.297849 1.10123
  680 34.0911 -0.484728 -0.253886
  681 -0.0310361 -1.53180 -2.49157
  682 34.1890 -0.508907 0.193246
  683 42.4642 3.50841 0.368688
  684 -4.32091 0.0185377 0.773447
  685 -4.32219 0.0185845 -0.773938
  686 4.07798 1.11276 0.202518
  687 4.05013 1.12970 -0.194391
  688 -8.54692 0.0231136 -0.110958
  689 -8.54596 0.0231387 0.111125
  690 -0.0124222 -1.39690 2.50657
  691 -2.75450 0.0252143 1.66741
  692 -2.75624 0.0253039 -1.66853
  693 37.2470 -3.51465 -2.42255
  694 5.35351 0.289959 -0.00505089
  695 5.35318 0.289418 0.00517097
  696 0.874859 0.632121 0.725346
  697 0.873840 0.631797 -0.724102
  698 19.1649 -1.00420 -4.56037
  699 19.3330 -1.04415 4.66404
  700 71.3934 4.91516 5.15207
  701 1.20005 -7.63120 -1.74270
  702 -0.542257 -1.11737 2.36878
  703 -0.543781 -1.12065 -2.37235
  704 3.67315 1.02205 -0.646428
  705 3.67399 1.02255 0.648539
  706 30.9534 -0.00171992 -0.209612
  707 30.9533 -0.00197113 0.208863
  708 14.1271 0.428806 0.0709310
  709 14.1268 0.429854 -0.0710240
  710 0.911935 1.02416 1.94653
  711 0.906872 1.02747 -1.94580
  712 0.214076 0.367467 0.330043
  713 0.213440 0.367069 -0.329508
  714 -0.997731 0.145192 2.49035
  715 -1.00239 0.146207 -2.49296
  716 25.1733 0.104532 0.145539
  717 25.1729 0.104870 -0.145893
  718 21.5764 0.351384 0.400761
  719 21.5760 0.352663 -0.401596
  720 2.64829 -2.64956 2.00476
  721 2.73554 -2.78363 -1.91831
  722 -1.85227 0.343720 2.17410
  723 -1.85582 0.344567 -2.17546
  724 0.787202 -2.41533 1.43310
  725 -0.123918 0.570368 2.37922
  726 -0.131095 0.572959 -2.37873
  727 -5.17288 0.167060 -0.673496
  728 -5.17124 0.167005 0.674010
  729 3.34975 1.27361 1.00086
  730 3.34716 1.27463 -0.997636
  731 33.3285 -1.05852 -2.20520
  732 31.6210 -2.85312 -0.356653
  733 -0.531219 -1.08181 1.64550
  734 -0.530150 -1.08616 -1.64270
  735 11.7714 -0.642714 -6.91687
  736 11.4458 -0.362872 7.00983
  737 7.02526 1.35240 -0.717850
  738 7.01118 1.36595 0.736772
  739 0.544240 -1.44952 2.12426
  740 -0.0494603 -3.44735 -0.934396
  741 15.2013 0.980803 -1.46583
  742 15.2127 0.971303 1.47528
  743 0.0448277 -6.83966 0.881381
  744 8.85381 1.40360 -0.156968
  745 8.85474 1.40170 0.162722
  746 32.4079 0.0256100 -0.527504
  747 32.3961 0.0207693 0.516552
  748 0.584688 -9.99007 -0.0829230
  749 13.9681 1.21561 1.05870
  750 13.9617 1.22245 -1.05278
  751 3.54895 1.25901 -0.813757
  752 3.56566 1.24475 0.816716
  753 -5.89670 0.0399454 -0.549113
  754 -5.89476 0.0398820 0.548881
  755 15.7018 0.459138 -0.222938
  756 15.7023 0.457807 0.222709
  757 9.37583 1.49775 -0.506620
  758 9.37647 1.49698 0.516446
  759 -0.228327 0.863896 1.89209
  760 -0.232450 0.865886 -1.89134
  761 31.7236 -2.42829 -0.0204985
  762 -5.39332 0.145031 0.520343
  763 -5.39461 0.144975 -0.519866
  764 71.1981 12.1993 -8.53868
  765 -2.35484 0.259795 0.577661
  766 -2.35590 0.259576 -0.576956
  767 27.1955 0.199915 0.936296
  768 27.1959 0.206545 -0.942677
  769 50.4282 3.45778 0.172172
  770 31.1425 -0.0357180 -0.406196
  771 31.1402 -0.0366432 0.404011
  772 19.4181 0.459317 0.487546
  773 19.4172 0.461401 -0.488431
  774 29.1720 -3.84554 7.79835
  775 12.2875 1.10116 -0.281887
  776 12.2899 1.09770 0.283684
  777 0.259790 -5.49591 1.26439
  778 33.6102 -4.57677 2.14715
  779 20.3223 0.222010 0.0879860
  780 20.3221 0.222467 -0.0881048
  781 27.0715 0.108822 0.0475719
  782 27.0707 0.108921 -0.0476459
  783 -0.130262 -2.77162 -1.62634
  784 0.144611 -4.88419 1.70117
  785 11.5501 1.38330 1.47386
  786 11.5449 1.38577 -1.45595
  787 71.2192 0.883550 0.545931
  788 20.3901 0.302395 -2.11127
  789 20.4087 0.286209 2.11510
  790 -4.51458 0.151532 1.22467
  791 -4.51692 0.151864 -1.22488
  792 0.783816 -4.23851 0.663836
  793 0.521146 -9.42463 -0.289290
  794 47.2630 5.99586 0.172683
  795 -0.0438243 -3.43427 0.842602
  796 0.746714 0.575798 2.20934
  797 0.745576 0.576533 -2.21468
  798 5.85581 1.34356 0.473750
  799 5.85511 1.34330 -0.470027
  800 31.5866 -1.40875 -0.242395
  801 31.6120 -1.40167 0.105910
  802 37.9674 3.08331 -13.1741
  803 -5.57550 0.0958784 -0.264933
  804 -5.57449 0.0959737 0.265307
  805 -2.39935 -0.0127293 0.627453
  806 -2.39913 -0.0128005 -0.627848
  807 2.06150 -0.101898 0.989202
  808 2.01753 -0.104658 -0.989213
  809 23.6965 -0.0132193 1.91286
  810 23.6771 0.0126825 -1.91311
  811 11.7859 0.501141 0.0106694
  812 11.7861 0.500049 -0.0105819
  813 38.5729 -1.14577 4.55659
  814 3.58777 0.764330 -0.568154
  815 3.58831 0.765067 0.569689
  816 3.48226 0.201142 -0.137759
  817 3.45099 0.221976 0.151349
  818 -0.0466522 -2.83844 -2.25377
  819 55.9406 6.73898 6.50450
  820 -8.25716 0.0176257 -0.264351
  821 -8.25554 0.0176171 0.264553
  822 -0.0119060 -8.40790 0.857060
  823 0.473965 -1.42633 -2.13783
  824 -1.17994 -0.0753043 0.460567
  825 -1.17914 -0.0754498 -0.460558
  826 43.8935 1.76861 -3.70271
  827 10.8832 1.26288 -0.348236
  828 10.8859 1.25957 0.352842
  829 30.0499 -0.338942 -0.952057
  830 30.0684 -0.346904 0.928394
  831 -7.84411 0.0688460 0.341137
  832 -7.84609 0.0688617 -0.340992
  833 -0.0515249 -0.0536576 -0.0421228
  834 -0.0516239 -0.0537555 0.0422796
  835 0.0316485 -8.60798 -0.848353
  836 0.0428611 -9.20001 -0.819255
  837 -8.85346 0.0969217 0.0595859
  838 -8.85411 0.0968990 -0.0595149
  839 4.21220 -2.52524 -4.28143
  840 18.3807 0.402153 -0.122138
  841 18.3809 0.401374 0.121857
  842 -1.14892 0.237665 0.0752265
  843 -1.14953 0.237417 -0.0751496
  844 27.8229 0.181176 -0.630271
  845 27.8218 0.178753 0.627045
  846 -3.16438 0.0212452 0.599604
  847 -3.16461 0.0212559 -0.600017
  848 16.2562 -0.817918 -10.6718
  849 28.6213 -2.51065 1.94211
  850 22.6266 0.249120 -0.176836
  851 22.6269 0.248589 0.176418
  852 28.3274 -2.74216 -2.20866
  853 8.43354 1.13218 0.0757798
  854 8.43439 1.13009 -0.0729016
  855 11.8833 0.979246 -0.188127
  856 11.8848 0.976494 0.189272
  857 33.3832 -0.733149 1.67761
  858 1.74948 1.14868 1.69207
  859 1.74331 1.15339 -1.69177
  860 1.57756 0.256384 0.167593
  861 1.57704 0.255965 -0.167323
  862 15.4890 0.383759 0.0943959
  863 15.4889 0.384587 -0.0945304
  864 41.8720 -4.75024 3.81637
  865 25.9734 0.279265 -0.807543
  866 25.9738 0.274747 0.803219
  867 -0.106698 0.473992 0.578664
  868 -0.107606 0.473655 -0.577743
  869 26.1728 0.0788376 0.220208
  870 26.1724 0.0792078 -0.220737
  871 -5.36028 0.0762487 -0.143141
  872 -5.35963 0.0763443 0.143211
  873 -0.0252868 -2.61886 0.747072
  874 -0.0325407 -2.65971 -0.753217
  875 30.4203 -0.549858 3.83664
  876 -2.12068 0.475066 1.87634
  877 -2.12401 0.476215 -1.87667
  878 -0.0117607 -4.33811 -0.833309
  879 11.9044 0.633516 -0.0808791
  880 11.9048 0.632092 0.0810705
  881 22.2668 -1.16256 -3.44325
  882 22.4573 -1.29019 3.47947
  883 -1.04931 -0.397909 -2.38565
  884 -1.04606 -0.398693 2.38259
  885 0.919529 1.06557 1.80091
  886 0.914982 1.06817 -1.79954
  887 0.113500 -10.2120 0.649124
  888 0.0754977 0.786943 2.20706
  889 0.0698420 0.789593 -2.20670
  890 20.5067 -0.339505 -3.04686
  891 20.4676 -0.363615 3.07199
  892 35.5892 1.63204 4.99598
  893 7.82653 1.06655 -0.157297
  894 7.82602 1.06837 0.159404
  895 26.7632 0.283984 -0.611872
  896 26.7628 0.281899 0.609462
  897 -1.08988 -0.494127 2.07146
  898 -1.09103 -0.495437 -2.07398
  899 0.0879472 -10.6807 -0.513051
  900 -1.67297 -0.136744 2.04466
  901 -1.67481 -0.136692 -2.04633
  902 0.648058 0.999699 -1.44387
  903 0.651029 0.998377 1.44552
  904 -0.0830551 -0.646193 0.360614
  905 -0.0839356 -0.645427 -0.361092
  906 1.88492 1.12396 -1.35068
  907 1.88824 1.12233 1.35304
  908 0.367398 -0.988386 2.34161
  909 0.310388 -0.921153 -2.43750
  910 25.5644 -0.648968 1.92199
  911 25.4991 -0.607331 -1.94198
  912 -8.98399 0.0395353 -0.0872908
  913 -8.98319 0.0395610 0.0874018
  914 -0.718568 -0.0673927 0.343071
  915 -0.717786 -0.0674737 -0.342873
  916 0.0370687 -6.18914 -0.767643
  917 -0.795506 -0.347261 -0.986629
  918 -0.795608 -0.346611 0.987090
  919 -3.51666 0.282675 1.57409
  920 -3.51924 0.283270 -1.57456
  921 7.54979 1.58776 -0.105395
  922 7.54748 1.59007 0.114335
  923 32.7907 2.76551 -0.973543
  924 -0.708333 0.785431 1.72210
  925 -0.711715 0.786800 -1.72129
  926 12.1423 0.709031 -3.07569
  927 12.1510 0.719623 3.12157
  928 -1.85619 0.567623 1.39461
  929 -1.85868 0.568346 -1.39388
  930 41.8440 -2.80483 -1.73233
  931 22.9953 0.933823 2.13351
  932 29.2585 -0.479961 -3.47166
  933 22.3882 0.461536 -1.29784
  934 22.3946 0.451027 1.29458
  935 -2.82286 0.371695 -0.731890
  936 -2.82146 0.371699 0.732697
  937 -5.65571 0.110510 0.807639
  938 -5.65785 0.110681 -0.807506
  939 -0.333774 -1.06314 -1.14788
  940 -0.331847 -1.06469 1.15047
  941 7.49195 0.669612 -0.109632
  942 7.49179 0.670830 0.110375
  943 -2.67354 0.248384 1.92172
  944 -2.67619 0.248849 -1.92287
  945 27.3636 0.0842080 0.298573
  946 27.3633 0.0846355 -0.299284
  947 -0.218762 -2.36620 1.76957
  948 0.605495 0.937943 -1.25923
  949 0.607824 0.937206 1.26087
  950 0.925554 0.697029 0.875165
  951 0.924275 0.696906 -0.873737
  952 4.13561 0.560737 -0.304574
  953 4.13591 0.561491 0.305311
  954 51.7248 5.13433 0.200194
  955 -0.192232 -0.0554033 -0.131876
  956 -0.192638 -0.0554229 0.132125
  957 1.51989 0.298909 -1.64075
  958 1.54623 0.282513 1.63932
  959 17.8428 0.893141 -1.29314
  960 17.8513 0.883086 1.29521
  961 1.87028 0.860428 -0.865969
  962 1.87159 0.860544 0.867734
  963 4.72391 -3.17826 5.95336
  964 34.7025 -0.209269 -0.210627
  965 34.6184 -0.200800 0.171822
  966 5.65638 -1.72384 5.04356
  967 5.84577 0.423517 0.0464245
  968 5.84550 0.422869 -0.0462042
  969 16.0378 -1.22739 -9.19553
  970 12.1047 0.395272 0.0582439
  971 12.1047 0.395959 -0.0582421
  972 1.41986 -2.07487 0.754793
  973 1.56997 -1.80867 -0.635565
  974 30.9533 0.00178756 0.104554
  975 30.9522 0.00184628 -0.104718
  976 -2.56092 -0.000667639 1.49913
  977 -2.56210 -0.000668415 -1.50015
  978 55.1419 6.74744 2.21366
  979 -0.273074 -1.83835 -2.37606
  980 0.211199 -9.84139 0.577049
  981 -0.0669158 -2.88693 2.20696
  982 31.9199 0.0283659 -0.414710
  983 31.9151 0.0270150 0.411407
  984 -0.423628 -0.770224 0.988149
  985 -0.424512 -0.769799 -0.986778
  986 38.4862 3.81130 -3.19962
  987 72.4613 0.791011 -0.366244
  988 -0.102016 -0.146843 -0.143527
  989 -0.101930 -0.147147 0.143729
  990 18.0217 0.389703 -0.262751
  991 18.0221 0.388604 0.262350
  992 -0.284471 -1.77476 2.39316
  993 25.3671 0.257965 1.18443
  994 25.3641 0.267909 -1.19049
  995 33.2223 -2.31185 -1.85726
  996 -1.17979 -0.255623 1.12279
  997 -1.17964 -0.256377 -1.12289
  998 0.457156 -2.47548 1.88018
  999 -0.0658950 -4.27339 1.72922
  1000 -0.00416617 -4.30089 0.830738
  1001 32.6065 2.34589 -0.159185
  1002 38.2133 4.19063 2.07750
  1003 27.6957 -3.43153 -4.12445
  1004 0.350619 -4.39535 1.54648
  1005 0.457867 -6.41946 0.593412
  1006 7.25473 0.349133 0.0473652
  1007 7.25448 0.348534 -0.0473068
  1008 -0.311402 -0.354090 -0.464429
  1009 -0.311237 -0.354314 0.464903
  1010 0.221696 -3.60560 -1.96026
  1011 22.6027 0.177098 -0.0646942
  1012 22.6030 0.176776 0.0645550
  1013 4.16263 -0.501430 -1.59333
  1014 3.97768 -0.489134 1.57942
  1015 -0.650311 0.658326 2.19136
  1016 -0.655512 0.660603 -2.19181
  1017 -2.96594 0.427954 -1.37877
  1018 -2.96346 0.427353 1.37915
  1019 16.6792 0.289620 -3.08773
  1020 16.6981 0.298725 3.12753
  1021 11.8388 1.10219 -2.00536
  1022 11.8438 1.09933 2.03230
  1023 12.9908 1.13920 -0.572492
  1024 12.9940 1.13451 0.575072
  1025 34.5020 -1.23901 -4.70165
  1026 -1.10809 0.388678 2.34564
  1027 -1.11298 0.390057 -2.34751
  1028 24.5644 0.107900 1.59500
  1029 24.5526 0.127781 -1.60066
  1030 -0.225426 -1.43452 2.52959
  1031 -2.02119 -0.0747167 1.09217
  1032 -2.02135 -0.0749500 -1.09283
  1033 22.3035 0.360842 -1.57273
  1034 22.3140 0.346303 1.56991
  1035 26.2525 0.526809 -3.33409
  1036 -0.0496965 -4.26472 -1.81763
  1037 -0.359693 -1.68946 2.10827
  1038 -0.373577 -1.70596 -2.08883
  1039 15.4539 1.08889 -1.00070
  1040 15.4605 1.08133 1.00413
  1041 19.8736 0.539983 0.612401
  1042 19.8723 0.542880 -0.613627
  1043 33.1569 -2.25672 1.64054
  1044 1.08300 0.273622 -0.0482747
  1045 1.08353 0.273973 0.0483541
  1046 28.0572 -3.84741 4.41122
  1047 -0.719833 0.204187 0.207207
  1048 -0.720464 0.203870 -0.206904
  1049 5.64030 1.57704 0.409750
  1050 5.63582 1.58059 -0.403108
  1051 1.93600 1.23163 1.47291
  1052 1.93181 1.23408 -1.47064
  1053 0.280419 -5.42846 -1.30976
  1054 7.67644 0.464296 -0.111048
  1055 7.67642 0.465307 0.111510
  1056 22.0501 0.817836 0.870044
  1057 22.7414 0.329407 0.592484
  1058 22.7408 0.331815 -0.594148
  1059 -0.203712 -1.47946 -2.53237
  1060 34.3513 -0.420099 -0.895006
  1061 -0.134183 -0.239806 2.57848
  1062 -0.109865 -0.215744 -2.56962
  1063 31.8029 -0.0245801 -0.226815
  1064 31.8020 -0.0248846 0.225794
  1065 33.7805 -0.0754344 -0.393506
  1066 33.7553 -0.0806089 0.378356
  1067 -0.0260808 -6.52990 0.631126
  1068 19.2664 0.676060 -0.821317
  1069 19.2686 0.671589 0.820068
  1070 23.7354 0.363427 0.706538
  1071 23.7347 0.366355 -0.708834
  1072 0.327283 0.461262 2.39428
  1073 0.326400 0.462472 -2.39336
  1074 51.9430 3.75268 0.302931
  1075 -0.754862 -0.366042 2.57379
  1076 -0.762560 -0.359452 -2.57809
  1077 6.86452 1.52931 0.251384
  1078 6.86389 1.52929 -0.246251
  1079 -4.65310 0.130955 -0.283325
  1080 -4.65223 0.131099 0.283675
  1081 11.5371 0.511825 -3.57507
  1082 11.5296 0.546872 3.63234
  1083 3.07240 1.38599 1.23634
  1084 3.06755 1.38910 -1.23311
  1085 7.71649 0.690947 -2.46750
  1086 7.67958 0.733666 2.50074
  1087 -0.232195 -2.21825 -1.72134
  1088 27.8648 0.262675 4.23935
  1089 20.0078 -1.02086 12.1351
  1090 2.89149 1.38852 1.28158
  1091 2.88506 1.39331 -1.27886
  1092 11.8438 0.831473 -0.118600
  1093 11.8449 0.829157 0.119295
  1094 45.1006 -0.838413 2.36519
  1095 2.56899 0.510259 1.00225
  1096 2.53634 0.521165 -1.00849
  1097 -1.35446 -0.309938 1.50666
  1098 -1.35472 -0.311050 -1.50743
  1099 -0.0447857 -0.967412 0.395860
  1100 -0.0464277 -0.966653 -0.397348
  1101 29.5053 0.0788367 0.977237
  1102 29.5052 0.0923837 -0.990249
  1103 -0.00355248 -2.25547 2.38894
  1104 -2.12106 0.103623 -2.07106
  1105 -2.11865 0.103446 2.06966
  1106 0.0127022 -8.00016 -0.832654
  1107 -0.541518 -0.746938 2.56818
  1108 -0.540444 -0.733372 -2.57005
  1109 28.3845 0.124916 -0.412226
  1110 28.3842 0.124003 0.410820
  1111 28.9883 -0.108286 1.14129
  1112 28.9769 -0.0869840 -1.15561
  1113 4.63740 0.888014 -0.505669
  1114 4.60320 0.912370 0.520106
  1115 -0.0751204 -4.12170 -1.44722
  1116 38.3595 -4.61523 -6.78638
  1117 49.9804 5.27373 -1.17111
  1118 0.452712 -6.80921 -0.429523
  1119 1.49357 0.907785 -1.88192
  1120 1.50139 0.901521 1.87807
  1121 4.28816 1.50249 0.795156
  1122 4.28062 1.50853 -0.790185
  1123 9.49854 0.759356 -0.0619055
  1124 9.49796 0.761102 0.0627432
  1125 -0.670838 -0.955935 1.96013
  1126 -0.669437 -0.963850 -1.96205
  1127 -2.09586 0.574898 1.75004
  1128 -2.09901 0.575962 -1.74990
  1129 -0.907611 0.702026 2.03806
  1130 -0.911947 0.703843 -2.03810
  1131 27.3771 -1.37481 -1.83292
  1132 27.5678 -1.39565 1.80570
  1133 0.0138965 -4.83923 -1.74917
  1134 14.1303 -0.226776 -4.62767
  1135 14.1653 -0.179446 4.72323
  1136 4.24284 1.44432 -0.793177
  1137 4.24540 1.44271 0.797173
  1138 14.8902 3.73057 13.6264
  1139 3.21502 1.19463 0.949561
  1140 3.21313 1.19508 -0.946785
  1141 37.8425 -4.69009 -1.05220
  1142 13.8388 0.577525 0.121074
  1143 13.8382 0.579127 -0.121067
  1144 -0.654191 -0.587054 1.17966
  1145 -0.654229 -0.588087 -1.17874
  1146 -0.788142 -0.712613 1.53775
  1147 -0.787587 -0.714927 -1.53719
  1148 24.3044 -2.85053 -6.74812
  1149 24.8741 -3.10938 6.80574
  1150 3.87747 0.304260 -0.00294956
  1151 3.87786 0.304783 0.00317794
  1152 14.9629 0.754433 -2.43387
  1153 14.9715 0.741217 2.46512
  1154 33.8542 -5.05619 4.97341
  1155 30.7287 -0.0311806 0.0629926
  1156 30.7273 -0.0311459 -0.0630462
  1157 -2.96681 0.437598 1.55430
  1158 -2.96956 0.438304 -1.55421
  1159 -4.98236 0.173125 -0.840268
  1160 -4.98053 0.173023 0.840751
  1161 7.22109 -1.20557 7.77257
  1162 21.2805 1.57503 -1.74973
  1163 13.6866 1.14073 -1.07665
  1164 13.6943 1.13392 1.08495
  1165 44.7808 -2.77616 7.18449
  1166 13.8962 1.06220 -1.70825
  1167 13.9065 1.05296 1.72278
  1168 3.07072 0.584423 -0.403108
  1169 3.07119 0.585149 0.404017
  1170 1.12507 -5.48099 0.369500
  1171 1.13991 -5.39085 -0.673833
  1172 19.0022 -1.66589 -6.79078
  1173 19.2949 -1.57630 6.79978
  1174 7.15230 1.05639 -1.58515
  1175 7.12510 1.08403 1.61232
  1176 34.1894 -2.50167 -3.18572
  1177 -1.34864 -0.150909 2.32788
  1178 -1.35150 -0.150431 -2.32985
  1179 -0.0684230 -2.02514 -2.44910
  1180 8.24125 -0.307007 -4.75314
  1181 8.26811 -0.270203 4.85513
  1182 -0.0226669 -1.72615 0.444348
  1183 -0.0192629 -1.73001 -0.449501
  1184 -8.57300 0.0767960 -0.244758
  1185 -8.57119 0.0767871 0.244906
  1186 27.7331 0.0775039 -0.102652
  1187 27.7338 0.0773276 0.102347
  1188 16.5477 0.802864 -0.633728
  1189 16.5509 0.798185 0.633881
  1190 -0.740037 -0.0833577 2.59729
  1191 -0.741806 -0.0736609 -2.60110
  1192 0.00685321 -7.07837 -0.708494
  1193 -7.21276 0.0204110 0.377051
  1194 -7.21497 0.0204553 -0.377063
  1195 5.01767 -0.802852 -3.14557
  1196 4.97747 -0.769507 3.26806
  1197 31.8865 -1.97268 0.261145
  1198 8.58359 0.166424 -4.24655
  1199 8.59551 0.201988 4.30523
  1200 -3.92804 0.0198076 0.548584
  1201 -3.92870 0.0198135 -0.548971
  1202 0.0939156 -6.44661 -1.29717
  1203 -1.67800 0.321290 -0.385101
  1204 -1.67718 0.321572 0.385661
  1205 4.34401 1.26209 0.781691
  1206 4.34234 1.26231 -0.778400
  1207 17.7665 0.277633 -0.0948321
  1208 17.7666 0.277068 0.0947488
  1209 24.3243 0.255912 0.452524
  1210 24.3241 0.257427 -0.453882
  1211 1.14893 -0.432774 1.67440
  1212 1.13206 -0.452651 -1.69398
  1213 0.183029 -3.78096 1.94117
  1214 43.3224 5.42796 2.87935
  1215 -1.34562 -0.110727 0.850072
  1216 -1.34527 -0.111105 -0.850202
  1217 0.140836 -3.53706 -2.00495
  1218 -0.134419 -2.05809 1.25037
  1219 -0.126741 -2.04295 -1.29641
  1220 34.5682 -0.362039 0.800177
  1221 0.0333768 -8.13628 0.731371
  1222 0.191829 -2.64172 -2.23247
  1223 3.54495 0.262578 0.0619475
  1224 3.54452 0.262129 -0.0618786
  1225 -0.377675 -1.54360 2.33953
  1226 -4.20489 0.252618 -0.738109
  1227 -4.20334 0.252590 0.738737
  1228 73.7595 1.38331 1.95094
  1229 -2.13214 0.209063 2.11445
  1230 -2.13504 0.209459 -2.11586
  1231 16.0603 0.745693 -2.20644
  1232 16.0804 0.728767 2.22252
  1233 0.944861 -2.00672 -1.23198
  1234 15.3515 0.980373 -0.800542
  1235 15.3564 0.974157 0.802631
  1236 0.582657 -5.44999 -0.604633
  1237 -0.377981 -1.54449 -2.33263
  1238 -3.15880 0.170143 0.471366
  1239 -3.15978 0.169944 -0.470807
  1240 -1.32028 0.0398906 -2.40338
  1241 -1.31688 0.0395727 2.40169
  1242 32.5345 2.53432 3.63452
  1243 18.7188 0.319014 -2.40234
  1244 18.7462 0.307537 2.40847
  1245 -9.08400 0.0309141 -0.103135
  1246 -9.08287 0.0309276 0.103278
  1247 16.9945 0.605596 -0.439244
  1248 16.9955 0.603368 0.438777
  1249 -9.42548 -0.142622 -0.0222448
  1250 -9.42602 -0.142621 0.0222565
  1251 25.4458 -1.84962 -2.74195
  1252 -4.19095 0.0663579 1.18703
  1253 -4.19281 0.0665099 -1.18768
  1254 25.7270 -1.95292 2.71567
  1255 17.2290 0.823183 -0.935194
  1256 17.2334 0.816754 0.935427
  1257 1.90415 -6.72904 -3.14306
  1258 0.0355251 -5.83370 -1.50973
  1259 -0.143500 -2.47638 2.19849
  1260 56.8749 7.12420 -6.24522
  1261 -0.0158831 -5.42048 1.44699
  1262 58.6662 5.48580 -2.78965
  1263 -0.0208840 -9.99559 -0.712140
  1264 2.22520 0.395861 -0.190258
  1265 2.22569 0.396398 0.190765
  1266 -0.0261558 -2.22092 0.466270
  1267 -0.0214928 -2.23211 -0.464523
  1268 9.32441 0.419176 -0.0528597
  1269 9.32451 0.419942 0.0529744
  1270 34.6560 -2.85946 3.05863
  1271 0.169232 0.354963 -0.447413
  1272 0.169931 0.355352 0.448068
  1273 0.203532 -11.3680 0.467139
  1274 0.129873 -12.0396 -0.456146
  1275 31.8682 -4.28253 -2.80712
  1276 -0.0940669 -2.95765 1.39281
  1277 32.4191 1.87660 -4.41767
  1278 -0.100335 -3.89868 1.37477
  1279 0.0639211 -10.8783 -0.594101
  1280 15.7709 0.647531 -0.444044
  1281 15.7727 0.644134 0.444032
  1282 -0.00963232 -5.74862 0.621036
  1283 -0.0169685 -4.84083 -1.41177
  1284 79.5234 12.2932 10.9296
  1285 30.8875 0.0572539 0.0510925
  1286 30.8860 0.0572521 -0.0510999
  1287 0.637148 -0.112734 2.22270
  1288 0.614921 -0.0799581 -2.22928
  1289 -0.641059 0.376527 2.48941
  1290 -0.649624 0.378418 -2.49166
  1291 31.8221 -0.644178 -2.47854
  1292 29.8317 -1.20461 -0.963403
  1293 29.7890 -1.38362 0.959383
  1294 3.94762 0.651053 0.431905
  1295 3.94724 0.650181 -0.430725
  1296 -5.15336 0.142779 -0.965561
  1297 -5.15112 0.142544 0.965557
  1298 33.3125 -5.07777 -4.13850
  1299 -0.253001 -0.603336 0.610173
  1300 -0.253853 -0.602636 -0.609741
  1301 34.9447 -1.75197 4.42866
  1302 -0.386900 -1.42919 1.68667
  1303 -0.382787 -1.43392 -1.67861
  1304 -3.60180 0.262136 0.554481
  1305 -3.60299 0.262014 -0.553843
  1306 4.91780 0.242646 -1.40911
  1307 4.86719 0.274956 1.41329
  1308 7.83435 0.398172 0.103570
  1309 7.83419 0.397398 -0.103377
  1310 -3.63596 0.351319 1.51163
  1311 -3.63852 0.351867 -1.51179
  1312 28.8556 0.146223 0.0795896
  1313 28.8546 0.146243 -0.0796120
  1314 15.1518 -0.756456 9.12702
  1315 23.2679 0.195896 0.157930
  1316 23.2675 0.196263 -0.158201
  1317 14.8608 0.284181 -3.48671
  1318 14.8721 0.263645 3.52582
  1319 0.136162 -6.63234 -1.04606
  1320 5.53049 1.29571 -0.354738
  1321 5.50934 1.31313 0.369646
  1322 -0.0524659 -0.0525855 -0.0721480
  1323 -0.0527159 -0.0526198 0.0723513
  1324 19.5619 0.774996 1.27012
  1325 19.5551 0.785174 -1.27078
  1326 9.37794 0.966570 0.00239618
  1327 9.37702 0.968740 -0.000809359
  1328 14.1112 0.991607 -0.487556
  1329 14.1143 0.987264 0.488891
  1330 18.8721 0.289804 -0.156391
  1331 18.8723 0.289238 0.156209
  1332 -0.608399 -0.298999 -0.690662
  1333 -0.608512 -0.298811 0.691222
  1334 -6.25682 0.0382678 0.330461
  1335 -6.25799 0.0382201 -0.330078
  1336 -1.06376 -0.500897 -1.72727
  1337 -1.06365 -0.498837 1.72631
  1338 -3.85712 0.118961 0.146056
  1339 -3.85781 0.118797 -0.145885
  1340 -9.49254 0.0952220 0.0602304
  1341 -9.49322 0.0952028 -0.0601583
  1342 36.0563 -5.21764 5.81420
  1343 24.4460 -0.217797 -3.39257
</Section>

newXOutput 6

<Section columns = "stress_xx | stress_yy | stress_xy">
  1 39.8175 -0.0235184 0.0347044
  2 39.8199 -0.0235343 -0.0347228
  3 -12.7815 0.0734367 -0.170241
  4 0.0208724 0.00645080 0.0363293
  5 74.4886 16.7287 22.1369
  6 84.0755 19.2800 -21.0115
  7 0.0208124 0.00639110 -0.0362507
  8 -12.7806 0.0734508 0.170259
  9 39.6863 -0.0200517 -0.129303
  10 39.7092 -0.0904470 -0.215619
  11 40.0899 -0.0857604 -0.0515915
  12 40.1133 -0.0731512 -0.242640
  13 40.1775 -0.0678209 -0.0630713
  14 41.0407 -0.0731868 -0.0924437
  15 41.3137 -0.121240 -0.324196
  16 41.5817 -0.0396385 -0.214765
  17 41.7225 0.0743822 -0.415471
  18 43.4668 -0.195102 -0.357149
  19 44.1644 -0.135804 -0.468905
  20 44.9006 -0.233004 -0.143370
  21 45.1924 -0.331952 -0.0503225
  22 44.6211 -0.403943 0.709723
  23 42.7452 -0.472981 1.42815
  24 38.5303 -0.581005 2.95648
  25 31.9772 0.252905 3.40499
  26 26.4169 0.274496 3.22762
  27 18.8734 0.754361 1.96143
  28 20.2520 0.737664 0.115819
  29 16.2067 2.25343 -1.28129
  30 24.7176 0.996635 -3.42098
  31 29.6123 0.196166 -2.82415
  32 37.5972 -0.153395 -2.44367
  33 42.0898 -0.573721 -1.69356
  34 44.4937 -0.473185 -0.711430
  35 45.0552 -0.319140 0.0491585
  36 44.8011 -0.229245 0.127633
  37 44.1121 -0.137273 0.450567
  38 43.4370 -0.198590 0.345927
  39 41.7106 0.0722188 0.409390
  40 41.5764 -0.0404639 0.212205
  41 41.3124 -0.121703 0.322976
  42 41.0410 -0.0734215 0.0918048
  43 40.1788 -0.0679356 0.0627073
  44 40.1152 -0.0732600 0.242495
  45 40.0920 -0.0858260 0.0515020
  46 39.7115 -0.0904832 0.215622
  47 39.6887 -0.0200641 0.129306
  48 37.3778 0.172004 -0.0445510
  49 34.4304 0.157989 -0.107773
  50 30.7789 0.0586964 -0.120161
  51 27.0271 0.303339 -0.0999373
  52 23.7757 0.297803 -0.0812746
  53 20.3255 0.414627 -0.0976252
  54 16.9491 0.584668 -0.0669345
  55 13.4727 0.541098 -0.125286
  56 10.6090 0.426467 -0.169642
  57 6.87675 0.322838 -0.178494
  58 3.10727 0.368951 -0.134408
  59 -0.0257799 0.300074 -0.129639
  60 -3.91507 0.194279 -0.121383
  61 -6.80481 0.0266926 -0.273966
  62 -9.59810 -0.159675 -0.127731
  63 -12.4161 0.0374663 0.0762867
  64 -13.0072 0.226363 -0.0428659
  65 -13.0293 0.105938 0.0229140
  66 -12.5872 0.0600891 -0.0309434
  67 -12.6659 0.149213 -0.169599
  68 -12.4369 0.177961 -0.0392078
  69 -11.7386 0.0608468 -0.254404
  70 -11.8031 0.108789 -0.270058
  71 -11.4704 0.104517 -0.162984
  72 -10.5962 0.0693133 -0.235050
  73 -10.1407 0.114610 -0.371305
  74 -9.49638 0.125205 -0.312287
  75 -8.37217 0.0650608 -0.514618
  76 -7.73287 0.0197928 -0.431075
  77 -6.61113 0.0285204 -0.490638
  78 -5.63651 0.0177877 -0.535385
  79 -4.80052 0.00466849 -0.422264
  80 -3.65660 0.0231894 -0.423703
  81 -2.67606 -0.0135203 -0.450038
  82 -1.72880 -0.0511458 -0.390254
  83 -0.982934 -0.0444031 -0.296070
  84 -0.476520 -0.0755052 -0.245138
  85 -0.0692516 -0.0434593 -0.0845977
  86 0.0129330 -0.0467696 -0.0281406
  87 -0.0256073 -0.0191438 -0.00214725
  88 -0.0678139 -0.0512881 -0.0736610
  89 -0.0655938 -0.401241 -0.212043
  90 -0.0572839 -0.912632 -0.306694
  91 -0.0306489 -1.57814 -0.450023
  92 -0.0169351 -2.43293 -0.388901
  93 -0.0170667 -3.22912 -0.490309
  94 -0.0618764 -4.21467 -0.557413
  95 -0.0250611 -5.42192 -0.567558
  96 0.0120499 -6.63909 -0.546277
  97 0.0270326 -7.94891 -0.541196
  98 0.0398859 -9.30281 -0.536179
  99 0.00811094 -10.3314 -0.729191
  100 0.0748015 -11.7604 -0.655465
  101 0.0880746 -13.4443 -0.539906
  102 0.00982689 -14.2697 -0.719437
  103 0.125570 -15.5841 -0.679555
  104 0.291462 -17.3463 -0.399720
  105 0.561295 -17.9988 -0.631991
  106 0.356325 -17.0747 0.117764
  107 0.447386 -13.9149 1.09873
  108 2.98313 -10.1535 3.97231
  109 9.87242 7.76341 15.9418
  110 116.159 5.72131 10.9326
  111 99.2689 1.90779 4.08628
  112 96.0900 0.809907 0.878300
  113 95.4655 0.386108 -0.152637
  114 96.0396 1.17691 -2.16254
  115 98.6954 3.36172 -4.73362
  116 112.510 11.1849 -13.7750
  117 23.0690 5.78635 -19.6068
  118 4.78618 -9.97597 -5.07937
  119 1.38564 -15.1934 -1.72265
  120 0.372259 -16.2582 -0.152929
  121 0.445391 -17.3823 0.427693
  122 0.133993 -16.7089 0.333865
  123 0.0568579 -15.2029 0.599196
  124 0.0563271 -14.2332 0.480455
  125 0.0747560 -12.7417 0.752164
  126 -0.00329299 -11.8533 0.715965
  127 0.0297214 -10.6790 0.519200
  128 0.0541790 -9.18720 0.645801
  129 0.00882446 -8.12776 0.513070
  130 0.0166768 -6.65417 0.646832
  131 -0.0663642 -5.48575 0.553963
  132 -0.0485092 -4.21917 0.540833
  133 -0.0128998 -3.21266 0.491910
  134 -0.0214544 -2.41950 0.390069
  135 -0.0301339 -1.57361 0.445858
  136 -0.0565312 -0.911922 0.305217
  137 -0.0652647 -0.401795 0.211887
  138 -0.0677514 -0.0518174 0.0737857
  139 -0.0256089 -0.0193827 0.00230192
  140 0.0126525 -0.0468216 0.0282929
  141 -0.0698159 -0.0434563 0.0848129
  142 -0.477507 -0.0754724 0.245413
  143 -0.984373 -0.0442990 0.296217
  144 -1.73023 -0.0510169 0.390220
  145 -2.67707 -0.0134145 0.449775
  146 -3.65706 0.0232089 0.423378
  147 -4.80022 0.00469594 0.421940
  148 -5.63554 0.0178050 0.535055
  149 -6.60936 0.0284922 0.490333
  150 -7.73052 0.0197513 0.430838
  151 -8.36950 0.0650115 0.514453
  152 -9.49343 0.125150 0.312218
  153 -10.1377 0.114560 0.371310
  154 -10.5933 0.0692895 0.235122
  155 -11.4677 0.104500 0.163085
  156 -11.8007 0.108771 0.270180
  157 -11.7365 0.0608410 0.254545
  158 -12.4352 0.177967 0.0393462
  159 -12.6643 0.149227 0.169710
  160 -12.5859 0.0601011 0.0310270
  161 -13.0282 0.105953 -0.0228563
  162 -13.0061 0.226383 0.0429154
  163 -12.4151 0.0374739 -0.0762610
  164 -9.59708 -0.159637 0.127765
  165 -6.80378 0.0268051 0.274008
  166 -3.91408 0.194496 0.121441
  167 -0.0249194 0.300418 0.129686
  168 3.10800 0.369438 0.134452
  169 6.87725 0.323469 0.178542
  170 10.6093 0.427201 0.169669
  171 13.4728 0.541895 0.125300
  172 16.9491 0.585461 0.0669120
  173 20.3254 0.415332 0.0975787
  174 23.7754 0.298390 0.0812076
  175 27.0266 0.303752 0.0998426
  176 30.7781 0.0589485 0.120052
  177 34.4291 0.158068 0.107707
  178 37.3759 0.172008 0.0445206
  179 9.63140 1.89417 0.0285183
  180 9.63012 1.89441 -0.0197524
  181 -0.389010 0.186186 3.16615
  182 -0.398192 0.187025 -3.16469
  183 22.7138 -0.358920 -4.65810
  184 22.7115 -0.409011 4.71618
  185 4.24708 0.758240 0.362383
  186 4.19687 0.781508 -0.355307
  187 2.75518 0.729915 -0.665021
  188 2.75610 0.730614 0.666356
  189 21.7630 0.659609 -0.597856
  190 21.7649 0.656168 0.597257
  191 -0.845816 0.935196 1.85340
  192 -0.849403 0.936403 -1.85214
  193 25.3268 0.868428 -1.70946
  194 25.3385 0.853915 1.70899
  195 -1.03979 -0.917465 2.35951
  196 -1.03878 -0.922001 -2.36123
  197 0.149507 -2.32490 -2.98679
  198 7.44794 -0.207047 -3.96280
  199 0.200238 -2.47687 2.92852
  200 7.32652 -0.136476 4.04880
  201 36.1138 -5.36525 -6.87040
  202 37.4853 -5.58155 6.54632
  203 12.5055 0.663186 0.0200126
  204 12.5057 0.661769 -0.0196471
  205 -2.76702 0.245423 -0.407296
  206 -2.76591 0.245726 0.407775
  207 -3.14540 0.432587 2.40093
  208 -3.14930 0.433648 -2.40209
  209 12.5498 1.41062 -0.0795431
  210 12.5515 1.40764 0.0821591
  211 3.57617 1.58933 1.54673
  212 3.56427 1.59943 -1.54532
  213 -4.22684 0.454341 -1.09124
  214 -4.22455 0.454220 1.09209
  215 29.4680 0.231352 0.314037
  216 29.4674 0.232194 -0.314779
  217 0.831633 -4.43651 1.55765
  218 0.906506 -4.07001 -1.44104
  219 -0.305074 -2.56680 2.69223
  220 -0.308580 -2.65435 -2.60279
  221 11.5109 1.74121 -1.52643
  222 11.5062 1.74734 1.55271
  223 -2.72706 -0.0361453 2.33760
  224 -2.72929 -0.0361182 -2.33930
  225 31.5353 0.363029 -0.993224
  226 31.5359 0.358744 0.989360
  227 33.7379 -0.342409 -1.90889
  228 33.7594 -0.382153 1.89125
  229 53.2372 4.39872 -0.176009
  230 48.8760 5.19694 4.28456
  231 48.8476 -1.09830 -5.68698
  232 5.38476 1.45504 0.910140
  233 5.38331 1.45490 -0.906692
  234 0.0646284 1.07129 2.54439
  235 0.0582773 1.07451 -2.54379
  236 37.6551 -2.28943 -0.997761
  237 37.4240 -2.32215 1.11066
  238 20.5667 0.420611 -0.195254
  239 20.5671 0.419403 0.194971
  240 -4.98158 0.344988 1.63683
  241 -4.98474 0.345581 -1.63681
  242 -0.646799 -0.638280 -1.03779
  243 -0.646506 -0.638216 1.03879
  244 -5.75822 0.188686 0.584355
  245 -5.75983 0.188535 -0.583718
  246 16.6234 1.48379 -0.969267
  247 16.6291 1.47678 0.974520
  248 21.3112 0.804535 -2.56599
  249 21.3338 0.786950 2.57852
  250 4.60787 0.505767 -0.136174
  251 4.60845 0.506465 0.136611
  252 12.0073 -1.01169 -9.34338
  253 14.3404 -0.566313 10.3250
  254 1.42341 0.600487 2.51627
  255 1.41746 0.617789 -2.52148
  256 51.9021 -4.98443 0.184644
  257 3.94678 1.72772 1.33531
  258 3.94226 1.73039 -1.33123
  259 11.7278 1.13043 -3.21684
  260 11.7118 1.16437 3.26700
  261 57.4910 7.46899 -2.04638
  262 34.2008 0.179907 1.34502
  263 34.1985 0.193400 -1.35555
  264 -0.319709 -1.93427 -1.64904
  265 -0.312087 -1.94288 1.65623
  266 -0.0813383 -4.67246 -2.32948
  267 0.120892 -5.60660 -2.25873
  268 0.0571849 -5.54518 2.32027
  269 -0.939597 -0.829340 3.09934
  270 -0.942262 -0.826611 -3.10831
  271 1.65288 -5.03790 -0.197092
  272 1.77173 -4.71718 0.468762
  273 -1.99327 -0.176621 1.45194
  274 -1.99340 -0.177238 -1.45264
  275 23.9283 0.901208 -1.02375
  276 23.9328 0.894289 1.02238
  277 42.3903 -4.67462 0.399555
  278 8.75955 0.988844 -0.248103
  279 8.75938 0.990399 0.249416
  280 -0.125533 -4.37531 2.22067
  281 0.354027 0.954130 1.28434
  282 0.351765 0.954422 -1.28257
  283 68.3567 5.01574 -1.26990
  284 33.3647 0.161073 0.397566
  285 33.3644 0.162097 -0.398951
  286 21.5016 -1.33100 -7.13728
  287 21.7210 -1.31092 7.27057
  288 42.3248 -4.41712 -1.11608
  289 -4.16064 0.117526 1.86422
  290 -4.16303 0.117738 -1.86541
  291 41.6977 -4.53862 11.9784
  292 -1.96410 0.250628 2.86244
  293 -1.96844 0.251033 -2.86464
  294 6.49313 1.80895 0.0290434
  295 6.47100 1.82710 -0.0153162
  296 -8.04479 0.103837 0.115402
  297 -8.04589 0.103763 -0.115248
  298 34.9245 -0.815745 -16.5861
  299 -7.28138 0.161311 -0.907069
  300 -7.27870 0.161137 0.907415
  301 -0.306014 -1.02520 3.23582
  302 -0.211283 -1.01102 -3.21655
  303 14.7690 1.68316 -1.44432
  304 14.7752 1.67807 1.45894
  305 2.69406 0.542609 0.496456
  306 2.69330 0.541932 -0.495646
  307 15.5147 0.848766 -0.210047
  308 15.5156 0.846414 0.210424
  309 1.31977 -1.51746 1.99481
  310 1.20202 -1.75039 -2.00139
  311 15.0561 0.506813 -0.0263181
  312 15.0561 0.505810 0.0263375
  313 -5.85994 0.151480 1.38763
  314 -5.86270 0.151748 -1.38823
  315 3.54969 -0.881561 -0.329412
  316 3.43634 -0.881793 0.236439
  317 34.9662 0.0827233 0.109354
  318 34.9649 0.0828626 -0.109545
  319 77.3734 4.59181 2.58583
  320 7.17652 1.20446 0.500831
  321 7.17631 1.20311 -0.498488
  322 -2.24031 0.461789 0.822542
  323 -2.24194 0.461605 -0.821493
  324 10.1226 1.61245 0.100471
  325 10.1233 1.61030 -0.0954254
  326 0.944311 1.01834 2.67061
  327 0.939067 1.02174 -2.67193
  328 0.147358 -8.00181 1.69449
  329 -8.25616 0.0564332 -0.246275
  330 -8.25484 0.0565109 0.246562
  331 26.2644 0.279810 -0.201920
  332 26.2649 0.279162 0.201573
  333 27.6792 0.389490 -0.536215
  334 27.6800 0.387313 0.534749
  335 -7.59903 0.158467 -0.682773
  336 -7.59692 0.158468 0.683292
  337 -0.832964 0.247115 0.121604
  338 -0.833869 0.246782 -0.121385
  339 -0.167545 -3.17932 1.65538
  340 -0.134245 -3.30562 -1.65306
  341 30.7647 -2.71268 -4.73018
  342 32.0364 -3.23776 4.62740
  343 18.0588 1.13299 -0.577099
  344 18.0616 1.12842 0.577883
  345 7.59516 1.92288 0.218225
  346 7.58640 1.92952 -0.207413
  347 -3.30724 0.593990 1.51788
  348 -3.31012 0.594578 -1.51708
  349 59.0686 -0.371243 -0.0221473
  350 2.80630 -5.76075 -2.66824
  351 3.00503 -5.50683 2.83880
  352 -1.57177 0.890973 2.35905
  353 -1.57645 0.892807 -2.35887
  354 -1.69309 -0.375590 2.72303
  355 -1.69569 -0.375655 -2.72592
  356 66.6411 10.2773 -1.59134
  357 41.5654 -0.962240 6.39991
  358 39.6492 -0.842138 -0.758388
  359 39.5881 -0.823528 0.678614
  360 27.2216 -0.211459 -2.98351
  361 27.1950 -0.246792 2.98078
  362 0.0510825 -9.62764 -1.39767
  363 36.5295 0.203847 -0.768925
  364 36.5263 0.199793 0.763251
  365 0.441538 -9.21646 1.21941
  366 40.2485 3.11915 -3.80705
  367 9.61351 0.551883 0.183499
  368 9.61321 0.551074 -0.183355
  369 27.4753 0.379114 -2.22073
  370 27.4950 0.358202 2.21928
  371 29.9267 0.438167 -1.37546
  372 29.9303 0.428850 1.37005
  373 -1.19297 0.434140 0.587126
  374 -1.19421 0.433761 -0.586267
  375 16.5331 0.923766 -3.41985
  376 16.5473 0.930749 3.46163
  377 36.0779 0.0809924 0.181266
  378 36.0768 0.0812423 -0.181743
  379 19.6024 1.28818 -1.66189
  380 19.6134 1.27639 1.66900
  381 23.0122 0.585224 0.408547
  382 23.0114 0.587107 -0.409243
  383 -1.11290 -0.207138 0.883783
  384 -1.11243 -0.207545 -0.883493
  385 -0.260508 -0.186243 -0.249508
  386 -0.260671 -0.186396 0.249911
  387 47.7280 -6.68952 2.44782
  388 -0.655181 -1.55561 2.46412
  389 -0.651067 -1.56700 -2.46284
  390 7.08390 0.681233 -0.320170
  391 7.08414 0.682363 0.321002
  392 -0.240187 -1.17937 0.885791
  393 -0.242701 -1.17699 -0.885643
  394 2.44683 1.40299 1.44856
  395 2.44364 1.40424 -1.44576
  396 39.0964 -0.0524328 0.996071
  397 39.1016 -0.0351026 -1.02252
  398 -0.149321 -2.47145 3.04735
  399 -3.23021 -0.0670518 1.38818
  400 -3.23097 -0.0672037 -1.38917
  401 -0.161351 -2.59941 -3.01136
  402 36.8651 0.109868 0.487470
  403 36.8661 0.111146 -0.489797
  404 -0.600016 0.735739 2.91813
  405 -0.608413 0.739034 -2.91934
  406 26.7458 0.610084 -0.877585
  407 26.7476 0.605790 0.875298
  408 41.2791 -1.78977 -1.31069
  409 41.4928 -1.42002 1.02652
  410 -0.0936911 -4.34787 -1.82464
  411 3.33487 1.17279 -1.27651
  412 3.36179 1.15579 1.27783
  413 39.2911 2.68411 2.43042
  414 22.7663 -1.80111 -10.0355
  415 23.4384 -2.24721 10.5583
  416 0.959447 1.29414 2.04059
  417 0.954606 1.29654 -2.03872
  418 16.7727 0.699397 -0.143053
  419 16.7732 0.697787 0.143029
  420 16.1814 0.718828 16.1032
  421 6.35901 1.71233 -0.800347
  422 6.36142 1.71145 0.805453
  423 0.359819 -4.45011 2.21843
  424 -0.0532734 -7.10376 -1.61357
  425 2.32092 1.54100 1.98203
  426 2.31427 1.54522 -1.97991
  427 2.80232 1.02055 -0.938407
  428 2.80367 1.02091 0.940380
  429 -1.30115 -0.134395 -3.12347
  430 -1.29671 -0.136308 3.12066
  431 7.74079 1.45399 -0.980834
  432 7.71098 1.47965 1.00435
  433 41.0348 -1.46372 -4.77544
  434 0.979315 -0.666741 2.64472
  435 0.943284 -0.650397 -2.65459
  436 29.8175 -1.24137 -3.30174
  437 29.9571 -1.34339 3.28904
  438 -7.82393 0.0722610 -0.855442
  439 -7.82107 0.0720912 0.855414
  440 0.00223348 -6.93881 1.44136
  441 -0.0531640 -4.38988 1.62123
  442 -3.22247 0.180801 2.39295
  443 -3.22538 0.181054 -2.39453
  444 21.3716 0.409148 -0.0585899
  445 21.3719 0.408320 0.0584038
  446 -0.667403 -1.05205 1.65170
  447 -0.668012 -1.05384 -1.64920
  448 12.8307 0.357739 -5.05631
  449 12.8147 0.425003 5.13382
  450 0.109774 -8.56467 -1.66120
  451 77.3155 3.09900 0.129584
  452 0.196944 -10.3895 -1.12142
  453 -9.47535 0.0300018 -0.341921
  454 -9.47368 0.0300552 0.342241
  455 -3.72837 0.488314 2.03219
  456 -3.73203 0.489303 -2.03250
  457 -4.07691 0.0541816 1.40401
  458 -4.07827 0.0542510 -1.40497
  459 14.1635 1.66066 -0.879405
  460 14.1681 1.65660 0.888625
  461 21.9068 1.09922 -1.29073
  462 21.9146 1.08930 1.29198
  463 -0.451497 -1.52489 3.13612
  464 -0.451576 -1.51415 -3.14784
  465 37.4926 0.380939 -6.03975
  466 2.38468 -1.10973 -0.946728
  467 2.30211 -1.13010 0.989526
  468 0.558414 -9.70570 0.273674
  469 0.345926 -11.1156 -0.509195
  470 -1.20675 -0.550595 1.70366
  471 -1.20658 -0.552207 -1.70364
  472 7.72974 -2.52039 -7.90955
  473 60.6005 -1.79045 -4.41478
  474 12.8779 1.07113 0.128040
  475 12.8767 1.07379 -0.126624
  476 18.8654 0.0829169 -4.96252
  477 18.9242 0.0750273 5.05402
  478 5.21890 1.99377 1.05166
  479 5.21221 1.99914 -1.04604
  480 17.0051 1.38070 -2.43881
  481 17.0204 1.36937 2.46352
  482 0.435998 0.197487 3.01349
  483 0.474493 0.216917 -3.00856
  484 -8.33398 0.139986 -0.661373
  485 -8.33156 0.139949 0.661747
  486 38.7002 -4.75184 -2.40500
  487 31.1028 0.168909 -0.156282
  488 31.1036 0.168636 0.156084
  489 0.986430 0.342019 -0.284853
  490 0.987283 0.342519 0.285336
  491 -2.36837 0.744869 1.95401
  492 -2.37209 0.746014 -1.95345
  493 -5.02397 0.328506 -0.768475
  494 -5.02209 0.328557 0.769261
  495 12.8599 1.49329 -0.247399
  496 12.8621 1.48969 0.251195
  497 -1.87994 0.595160 2.65755
  498 -1.88507 0.596947 -2.65870
  499 35.5097 -0.897882 -1.72071
  500 35.5636 -0.954678 1.67870
  501 22.7545 0.326492 -3.26519
  502 22.7268 0.302857 3.29730
  503 8.05869 0.588774 -0.196856
  504 8.05899 0.589732 0.197248
  505 0.0578990 -4.47115 -2.61182
  506 41.3748 -1.63778 3.94691
  507 0.478881 -3.12383 -2.49893
  508 11.2393 1.93152 0.814333
  509 11.2411 1.92907 -0.797920
  510 38.2695 -4.44811 2.35539
  511 2.66111 -5.62588 3.89232
  512 45.9622 -6.74205 -5.05735
  513 31.0813 0.297281 1.64602
  514 31.0726 0.313970 -1.65351
  515 0.0455580 -3.85161 2.71818
  516 -0.605163 -0.183668 -0.466576
  517 -0.605582 -0.183664 0.467032
  518 3.14824 0.349772 -0.101401
  519 3.14895 0.350298 0.101590
  520 -0.108603 -2.42877 1.05404
  521 -0.0985315 -2.41670 -1.05888
  522 25.5778 0.462535 0.343683
  523 25.5773 0.463633 -0.344309
  524 73.8482 11.9650 3.95468
  525 2.73512 -2.47757 -0.336431
  526 2.11369 -3.11232 -0.0978956
  527 -1.26724 0.627742 -1.06699
  528 -1.26530 0.627731 1.06828
  529 -6.38081 0.102586 0.854309
  530 -6.38302 0.102691 -0.854770
  531 0.0602865 -7.99282 1.63155
  532 -9.41823 0.107989 0.114808
  533 -9.41942 0.107942 -0.114628
  534 7.42888 -1.52708 -5.67826
  535 7.25303 -1.36782 5.93497
  536 6.76534 0.953212 -1.59601
  537 6.71497 0.989549 1.61813
  538 -1.74066 -0.387367 2.36310
  539 -1.74205 -0.388443 -2.36523
  540 6.53148 0.810092 0.358545
  541 6.53123 0.808929 -0.357375
  542 -4.31522 0.242761 0.371288
  543 -4.31651 0.242553 -0.370737
  544 7.84250 1.37922 0.484810
  545 7.84233 1.37790 -0.481392
  546 -0.170659 -0.542396 0.397355
  547 -0.171188 -0.541788 -0.397231
  548 2.71539 1.16286 1.87769
  549 2.69821 1.18207 -1.87976
  550 2.19848 0.116984 1.72493
  551 2.16603 0.113902 -1.73931
  552 31.7295 0.380048 0.701452
  553 31.7292 0.382174 -0.703625
  554 27.8089 0.566899 1.08515
  555 27.8061 0.573106 -1.08839
  556 -0.0289243 -6.61243 -0.991018
  557 19.0872 1.19621 -0.929655
  558 19.0920 1.18974 0.931305
  559 19.2157 0.678937 -0.299710
  560 19.2168 0.676640 0.299516
  561 -3.33511 0.181993 -0.0258912
  562 -3.33412 0.182214 0.0260146
  563 30.8947 1.86972 -1.15833
  564 43.9280 -6.04795 -1.38735
  565 34.3339 1.48745 4.65474
  566 0.251172 -5.98736 -2.01995
  567 -2.40125 0.673344 -1.34646
  568 -2.39873 0.673020 1.34761
  569 0.244650 -3.53744 2.63740
  570 -2.06487 0.0155781 2.75677
  571 -2.06821 0.0158454 -2.75881
  572 55.5878 5.41933 -0.878185
  573 12.2050 0.799192 0.00482009
  574 12.2054 0.797477 -0.00421335
  575 87.9716 7.20511 -6.95684
  576 -0.551317 -0.442472 3.27653
  577 -0.525779 -0.420521 -3.27997
  578 46.4669 -4.63261 2.80634
  579 37.7513 0.133630 -0.864777
  580 37.7458 0.127405 0.855815
  581 16.4827 -0.446285 -7.32542
  582 16.7044 -0.489951 7.46680
  583 -1.01626 -0.984951 2.74708
  584 -1.01651 -0.989072 -2.75243
  585 8.45065 0.347121 3.55380
  586 8.52072 0.274099 -3.50969
  587 -7.53912 0.0914037 -0.821563
  588 -7.53628 0.0912801 0.821372
  589 54.8775 3.71735 4.79065
  590 9.83723 1.13925 -0.194858
  591 9.83674 1.14117 0.196624
  592 11.6822 1.42675 -2.34126
  593 11.6725 1.44441 2.37927
  594 33.7773 0.0838749 -1.63421
  595 33.7876 0.0625887 1.62268
  596 -0.172214 -3.55043 -2.48654
  597 37.3291 0.0227512 0.253648
  598 37.3283 0.0230573 -0.254291
  599 -5.97272 0.166169 -0.162679
  600 -5.97156 0.166314 0.162978
  601 -10.0812 -0.0406455 0.0122446
  602 -10.0822 -0.0406740 -0.0121894
  603 0.704084 -5.72712 -1.20972
  604 -0.362850 -2.27488 2.09489
  605 -0.382603 -2.15604 -2.10889
  606 -4.35783 0.255085 2.00994
  607 -4.36078 0.255593 -2.01097
  608 25.4227 0.835726 1.34443
  609 25.4168 0.845301 -1.34661
  610 18.5338 0.464366 0.0763332
  611 18.5337 0.465191 -0.0764007
  612 3.92231 -1.90363 2.00865
  613 4.06193 -1.81760 -1.98026
  614 -0.135651 -1.68862 0.886169
  615 -0.139449 -1.68269 -0.888821
  616 44.6532 0.881241 17.5264
  617 -2.17917 -0.0718695 0.826722
  618 -2.17859 -0.0721254 -0.827070
  619 0.681902 -3.52297 -2.11177
  620 18.0651 0.955992 -0.425927
  621 18.0668 0.952717 0.426138
  622 8.50589 1.88171 -0.434211
  623 8.49355 1.89201 0.451379
  624 0.0932799 -12.3222 0.790036
  625 6.25990 1.92591 0.776538
  626 6.25601 1.92857 -0.770447
  627 -1.18955 0.825176 1.61201
  628 -1.19250 0.825865 -1.61070
  629 -0.0530460 -5.86554 1.35681
  630 -9.89715 0.0298256 -0.335479
  631 -9.89526 0.0298408 0.335769
  632 11.6158 0.525783 -0.0604462
  633 11.6158 0.526906 0.0607030
  634 30.9245 0.251475 0.450448
  635 30.9240 0.252623 -0.451595
  636 26.7376 -2.68848 13.3886
  637 21.4776 0.764051 -0.746811
  638 21.4803 0.759430 0.746396
  639 0.201141 -0.642586 3.11290
  640 0.271473 -0.441181 -3.11768
  641 34.6696 -4.25180 -10.7316
  642 85.5380 3.07772 -2.90496
  643 -8.94130 0.0170403 -0.580472
  644 -8.93845 0.0169633 0.580560
  645 1.46216 0.576304 -0.576427
  646 1.46313 0.576859 0.577426
  647 -0.175710 -3.72423 2.17875
  648 46.7384 2.30224 -6.07946
  649 36.9475 0.00230106 0.0385109
  650 36.9458 0.00233889 -0.0385721
  651 -2.39157 -0.145249 -1.94684
  652 -2.39046 -0.144875 1.94544
  653 -0.00404961 -8.39324 -1.33002
  654 37.6085 -0.0123363 0.0963102
  655 37.6068 -0.0122761 -0.0964645
  656 2.85820 1.25514 1.25230
  657 2.85598 1.25548 -1.24967
  658 27.6519 -2.67399 -6.91826
  659 28.2085 -2.67060 7.00943
  660 41.6468 -0.197013 0.548574
  661 41.6791 -0.192866 -0.582514
  662 0.177897 -10.7374 1.11165
  663 -2.90466 0.159332 -0.222050
  664 -2.90363 0.159585 0.222371
  665 13.1835 -1.23371 -12.4277
  666 12.1201 0.493567 0.0629515
  667 12.1203 0.494404 -0.0628921
  668 5.60563 0.627630 0.210386
  669 5.60515 0.626721 -0.209729
  670 6.81101 0.974231 -0.353241
  671 6.81124 0.975566 0.354922
  672 23.6315 0.850298 -2.07423
  673 23.6483 0.833580 2.07829
  674 5.88411 1.79256 0.574852
  675 5.86950 1.80491 -0.566697
  676 -4.78069 0.362764 -1.23614
  677 -4.77807 0.362454 1.23682
  678 -5.42347 0.371892 -1.37199
  679 -5.42056 0.371458 1.37232
  680 42.5803 -0.606457 -0.312407
  681 -0.0368131 -1.90881 -3.10786
  682 42.7012 -0.636693 0.237068
  683 53.0668 4.37805 0.446915
  684 -5.39567 0.0231947 0.965374
  685 -5.39734 0.0232515 -0.966008
  686 5.10520 1.39512 0.239455
  687 5.07027 1.41626 -0.229465
  688 -10.6634 0.0283456 -0.137786
  689 -10.6619 0.0283756 0.137986
  690 -0.0133303 -1.74021 3.12625
  691 -3.43816 0.0318297 2.08110
  692 -3.44040 0.0319346 -2.08254
  693 46.5275 -4.37870 -3.00161
  694 6.70348 0.357879 -0.00732995
  695 6.70298 0.357223 0.00747702
  696 1.10723 0.786982 0.900846
  697 1.10582 0.786607 -0.899336
  698 23.9566 -1.25126 -5.71225
  699 24.1660 -1.30100 5.84161
  700 89.0983 6.13829 6.44546
  701 1.50272 -9.49376 -2.19229
  702 -0.675987 -1.39356 2.95670
  703 -0.677879 -1.39770 -2.96122
  704 4.60281 1.27373 -0.800601
  705 4.60398 1.27430 0.803184
  706 38.6500 -0.00346681 -0.262253
  707 38.6502 -0.00377788 0.261336
  708 17.6583 0.530088 0.0909093
  709 17.6579 0.531367 -0.0910206
  710 1.14789 1.28058 2.42337
  711 1.14146 1.28470 -2.42257
  712 0.283341 0.456120 0.409365
  713 0.282401 0.455642 -0.408716
  714 -1.24217 0.183144 3.10640
  715 -1.24805 0.184378 -3.10973
  716 31.4410 0.126766 0.182610
  717 31.4402 0.127179 -0.183041
  718 26.9551 0.433971 0.502602
  719 26.9544 0.435540 -0.503620
  720 3.31589 -3.28690 2.52276
  721 3.42487 -3.45437 -2.41477
  722 -2.30871 0.429998 2.71185
  723 -2.31324 0.431045 -2.71362
  724 0.986612 -3.00664 1.78124
  725 -0.148888 0.714707 2.96540
  726 -0.157947 0.717919 -2.96489
  727 -6.45078 0.207770 -0.838537
  728 -6.44854 0.207695 0.839144
  729 4.19752 1.58927 1.24153
  730 4.19417 1.59059 -1.23759
  731 41.6394 -1.32118 -2.74301
  732 39.5043 -3.56166 -0.459064
  733 -0.663047 -1.35040 2.05487
  734 -0.661726 -1.35586 -2.05140
  735 14.7219 -0.785134 -8.66398
  736 14.3152 -0.436025 8.77951
  737 8.79031 1.69181 -0.910951
  738 8.77253 1.70876 0.934433
  739 0.683015 -1.80358 2.64613
  740 -0.0616816 -4.30595 -1.16686
  741 19.0040 1.22159 -1.84118
  742 19.0180 1.20987 1.85298
  743 0.0558675 -8.54140 1.10022
  744 11.0751 1.75000 -0.205723
  745 11.0761 1.74771 0.212853
  746 40.4695 0.0302522 -0.659741
  747 40.4552 0.0242366 0.646175
  748 0.731585 -12.4544 -0.0953265
  749 17.4630 1.51432 1.33156
  750 17.4551 1.52273 -1.32416
  751 4.44393 1.57624 -1.00454
  752 4.46492 1.55842 1.00809
  753 -7.36272 0.0498423 -0.685110
  754 -7.36017 0.0497634 0.684801
  755 19.6241 0.567950 -0.281228
  756 19.6247 0.566321 0.280954
  757 11.7275 1.86873 -0.644047
  758 11.7282 1.86786 0.656243
  759 -0.276285 1.07915 2.35683
  760 -0.281551 1.08165 -2.35598
  761 39.6323 -3.03168 -0.0123355
  762 -6.72432 0.180037 0.647657
  763 -6.72614 0.179973 -0.647087
  764 88.8591 15.2761 -10.6988
  765 -2.92729 0.322484 0.718189
  766 -2.92878 0.322224 -0.717340
  767 33.9688 0.245929 1.17210
  768 33.9689 0.254148 -1.17996
  769 62.9923 4.30933 0.210282
  770 38.8876 -0.0462133 -0.507871
  771 38.8850 -0.0473614 0.505183
  772 24.2626 0.568439 0.612007
  773 24.2614 0.571002 -0.613084
  774 36.4470 -4.78840 9.76064
  775 15.3632 1.37048 -0.358972
  776 15.3661 1.36624 0.361210
  777 0.325365 -6.85372 1.57319
  778 41.9869 -5.70712 2.70104
  779 25.3894 0.272202 0.110286
  780 25.3890 0.272758 -0.110430
  781 33.8078 0.132889 0.0596065
  782 33.8066 0.133008 -0.0596959
  783 -0.162447 -3.46053 -2.03059
  784 0.181129 -6.09357 2.12067
  785 14.4441 1.72680 1.85355
  786 14.4378 1.72977 -1.83127
  787 88.8611 1.09658 0.683519
  788 25.4828 0.374021 -2.64612
  789 25.5059 0.353989 2.65098
  790 -5.63342 0.189006 1.52739
  791 -5.63647 0.189422 -1.52770
  792 0.981905 -5.27947 0.819230
  793 0.652368 -11.7464 -0.370569
  794 59.0432 7.49369 0.185309
  795 -0.0546791 -4.28969 1.05225
  796 0.939267 0.722586 2.75170
  797 0.937767 0.723472 -2.75850
  798 7.32958 1.67554 0.583078
  799 7.32859 1.67528 -0.578493
  800 39.4577 -1.76102 -0.310843
  801 39.4907 -1.75187 0.141248
  802 47.4060 3.92253 -16.4890
  803 -6.95080 0.118528 -0.329081
  804 -6.94933 0.118641 0.329532
  805 -2.99709 -0.0158167 0.783539
  806 -2.99686 -0.0159069 -0.784043
  807 2.58212 -0.118945 1.22373
  808 2.52703 -0.122406 -1.22392
  809 29.6096 -0.0201277 2.39704
  810 29.5854 0.0120355 -2.39719
  811 14.7357 0.620574 0.0105665
  812 14.7360 0.619242 -0.0104573
  813 48.1869 -1.41533 5.66044
  814 4.49668 0.951395 -0.703831
  815 4.49746 0.952275 0.705706
  816 4.35943 0.260558 -0.186731
  817 4.32025 0.286489 0.203538
  818 -0.0573315 -3.54111 -2.81203
  819 69.8398 8.46968 8.16664
  820 -10.3046 0.0217263 -0.329202
  821 -10.3024 0.0217150 0.329441
  822 -0.0148902 -10.4977 1.06913
  823 0.595094 -1.77491 -2.66335
  824 -1.47425 -0.0939971 0.575319
  825 -1.47326 -0.0941805 -0.575313
  826 54.8236 2.23180 -4.58607
  827 13.6100 1.57343 -0.443805
  828 13.6132 1.56940 0.449526
  829 37.5353 -0.426449 -1.19346
  830 37.5587 -0.436282 1.16414
  831 -9.79050 0.0856473 0.425096
  832 -9.79317 0.0856689 -0.424930
  833 -0.0644321 -0.0670902 -0.0527253
  834 -0.0645562 -0.0672125 0.0529222
  835 0.0393135 -10.7473 -1.05799
  836 0.0533689 -11.4825 -1.02036
  837 -11.0445 0.120531 0.0740244
  838 -11.0456 0.120505 -0.0739388
  839 5.27260 -3.12031 -5.37186
  840 22.9670 0.496911 -0.154061
  841 22.9674 0.495960 0.153719
  842 -1.41858 0.294170 0.0934778
  843 -1.41951 0.293869 -0.0933851
  844 34.7487 0.223019 -0.788677
  845 34.7476 0.220021 0.784710
  846 -3.95243 0.0265397 0.748678
  847 -3.95276 0.0265529 -0.749205
  848 20.3222 -0.991074 -13.3581
  849 35.7600 -3.13482 2.43876
  850 28.2644 0.306608 -0.221981
  851 28.2649 0.305960 0.221471
  852 35.3938 -3.42359 -2.77194
  853 10.5500 1.41009 0.0869180
  854 10.5510 1.40756 -0.0833589
  855 14.8581 1.21802 -0.240990
  856 14.8599 1.21465 0.242417
  857 41.7058 -0.915426 2.08690
  858 2.19472 1.43671 2.10430
  859 2.18692 1.44258 -2.10404
  860 1.98706 0.316853 0.207598
  861 1.98629 0.316345 -0.207271
  862 19.3582 0.473792 0.119438
  863 19.3579 0.474802 -0.119600
  864 52.2904 -5.90657 4.79398
  865 32.4431 0.344768 -1.01110
  866 32.4439 0.339178 1.00579
  867 -0.118502 0.589543 0.718574
  868 -0.119783 0.589145 -0.717459
  869 32.6880 0.0951438 0.275984
  870 32.6873 0.0955983 -0.276629
  871 -6.68005 0.0937572 -0.178389
  872 -6.67901 0.0938728 0.178472
  873 -0.0315162 -3.27146 0.933066
  874 -0.0405756 -3.32250 -0.940730
  875 38.0233 -0.683729 4.77754
  876 -2.64219 0.593579 2.33930
  877 -2.64646 0.595014 -2.33979
  878 -0.0146604 -5.41846 -1.04055
  879 14.8837 0.785936 -0.104579
  880 14.8842 0.784198 0.104818
  881 27.8288 -1.45178 -4.31419
  882 28.0662 -1.61099 4.35949
  883 -1.30858 -0.495431 -2.97758
  884 -1.30448 -0.496383 2.97369
  885 1.15835 1.33134 2.24171
  886 1.15256 1.33460 -2.24010
  887 0.141601 -12.7469 0.808342
  888 0.101568 0.984588 2.74994
  889 0.0944031 0.987888 -2.74959
  890 25.6306 -0.425203 -3.81801
  891 25.5816 -0.455074 3.84947
  892 44.4772 2.04924 6.21004
  893 9.79166 1.32804 -0.189563
  894 9.79110 1.33025 0.192164
  895 33.4264 0.350971 -0.765860
  896 33.4261 0.348396 0.762903
  897 -1.36005 -0.616084 2.58609
  898 -1.36152 -0.617738 -2.58929
  899 0.109908 -13.3275 -0.636860
  900 -2.08776 -0.169962 2.55227
  901 -2.09011 -0.169910 -2.55439
  902 0.820665 1.24789 -1.79653
  903 0.824503 1.24622 1.79851
  904 -0.103715 -0.807559 0.450584
  905 -0.104816 -0.806606 -0.451183
  906 2.36626 1.40308 -1.67911
  907 2.37054 1.40102 1.68196
  908 0.462432 -1.22892 2.91831
  909 0.391014 -1.14532 -3.03846
  910 31.9420 -0.813327 2.40945
  911 31.8605 -0.761530 -2.43418
  912 -11.2087 0.0488995 -0.108450
  913 -11.2074 0.0489302 0.108584
  914 -0.897990 -0.0841462 0.428640
  915 -0.897017 -0.0842486 -0.428396
  916 0.0462405 -7.72991 -0.958355
  917 -0.993479 -0.433518 -1.23244
  918 -0.993593 -0.432699 1.23300
  919 -4.38708 0.353020 1.96315
  920 -4.39043 0.353763 -1.96380
  921 9.44587 1.98212 -0.143098
  922 9.44285 1.98508 0.154167
  923 41.0080 3.45208 -1.20537
  924 -0.875343 0.980648 2.14503
  925 -0.879690 0.982373 -2.14410
  926 15.1851 0.888561 -3.85804
  927 15.1957 0.901840 3.91518
  928 -2.30853 0.708111 1.73694
  929 -2.31178 0.709029 -1.73610
  930 52.2607 -3.48169 -2.13278
  931 28.7880 1.16802 2.65288
  932 36.5778 -0.596870 -4.32302
  933 27.9728 0.571621 -1.62626
  934 27.9809 0.558610 1.62228
  935 -3.51352 0.462760 -0.910381
  936 -3.51160 0.462750 0.911348
  937 -7.05730 0.137633 1.00669
  938 -7.06013 0.137850 -1.00656
  939 -0.416691 -1.32768 -1.43379
  940 -0.414274 -1.32959 1.43700
  941 9.37390 0.831851 -0.132498
  942 9.37377 0.833331 0.133412
  943 -3.33526 0.310646 2.39752
  944 -3.33866 0.311219 -2.39902
  945 34.1733 0.102167 0.373875
  946 34.1726 0.102693 -0.374742
  947 -0.272873 -2.95410 2.20943
  948 0.768336 1.17021 -1.56634
  949 0.771377 1.16926 1.56832
  950 1.17005 0.868325 1.08745
  951 1.16831 0.868202 -1.08572
  952 5.18176 0.696609 -0.376457
  953 5.18224 0.697521 0.377356
  954 64.5880 6.45155 0.202131
  955 -0.240382 -0.0692080 -0.164879
  956 -0.240890 -0.0692317 0.165190
  957 1.90523 0.379057 -2.03954
  958 1.93826 0.358644 2.03761
  959 22.3005 1.11071 -1.62276
  960 22.3111 1.09829 1.62539
  961 2.35010 1.07237 -1.07531
  962 2.35186 1.07247 1.07746
  963 5.90876 -3.91294 7.46116
  964 43.3369 -0.262528 -0.265278
  965 43.2331 -0.251922 0.217026
  966 7.07821 -2.12083 6.32548
  967 7.31820 0.524556 0.0561108
  968 7.31778 0.523770 -0.0558414
  969 20.0518 -1.51372 -11.5109
  970 15.1334 0.488269 0.0733959
  971 15.1335 0.489104 -0.0733926
  972 1.77847 -2.57932 0.931100
  973 1.96647 -2.24686 -0.781798
  974 38.6484 0.00118787 0.130870
  975 38.6468 0.00126032 -0.131068
  976 -3.19726 -0.000586235 1.87150
  977 -3.19878 -0.000592135 -1.87280
  978 68.8629 8.43048 2.79325
  979 -0.340006 -2.29328 -2.96548
  980 0.265255 -12.2594 0.732180
  981 -0.0828656 -3.60218 2.75402
  982 39.8579 0.0338450 -0.518511
  983 39.8523 0.0321680 0.514436
  984 -0.528950 -0.961857 1.23437
  985 -0.530062 -0.961341 -1.23267
  986 48.0978 4.76840 -3.96625
  987 90.4042 0.981767 -0.458746
  988 -0.127442 -0.183631 -0.179446
  989 -0.127334 -0.184011 0.179699
  990 22.5192 0.481332 -0.330309
  991 22.5198 0.479988 0.329823
  992 -0.354088 -2.21373 2.98667
  993 31.6891 0.317865 1.48329
  994 31.6852 0.330193 -1.49073
  995 41.5052 -2.88524 -2.30486
  996 -1.47336 -0.318980 1.40232
  997 -1.47320 -0.319928 -1.40247
  998 0.573581 -3.08377 2.34160
  999 -0.0820021 -5.33429 2.15795
  1000 -0.00522562 -5.37205 1.03738
  1001 40.7796 2.92647 -0.200115
  1002 47.7631 5.23719 2.56961
  1003 34.6065 -4.28055 -5.16806
  1004 0.439327 -5.48039 1.92536
  1005 0.573264 -8.00175 0.732829
  1006 9.07780 0.431328 0.0584640
  1007 9.07743 0.430602 -0.0583930
  1008 -0.388975 -0.442320 -0.580350
  1009 -0.388764 -0.442596 0.580939
  1010 0.278138 -4.49585 -2.44309
  1011 28.2342 0.216655 -0.0812176
  1012 28.2348 0.216263 0.0810484
  1013 5.21032 -0.612328 -2.00790
  1014 4.97892 -0.597046 1.99026
  1015 -0.805420 0.823403 2.73132
  1016 -0.812018 0.826240 -2.73198
  1017 -3.69612 0.533958 -1.71813
  1018 -3.69288 0.533198 1.71855
  1019 20.8517 0.361444 -3.87040
  1020 20.8749 0.373007 3.92007
  1021 14.8054 1.37662 -2.51866
  1022 14.8113 1.37314 2.55220
  1023 16.2416 1.41807 -0.722594
  1024 16.2456 1.41232 0.725815
  1025 43.1128 -1.54030 -5.84923
  1026 -1.37878 0.486665 2.92515
  1027 -1.38496 0.488368 -2.92758
  1028 30.6911 0.130645 1.99827
  1029 30.6763 0.155323 -2.00516
  1030 -0.279827 -1.78806 3.15609
  1031 -2.52423 -0.0931077 1.36384
  1032 -2.52445 -0.0934027 -1.36468
  1033 27.8685 0.446047 -1.97076
  1034 27.8817 0.428035 1.96735
  1035 32.8432 0.661802 -4.14911
  1036 -0.0616499 -5.32309 -2.26822
  1037 -0.448567 -2.10844 2.63205
  1038 -0.465915 -2.12913 -2.60783
  1039 19.3180 1.35538 -1.25802
  1040 19.3261 1.34606 1.26232
  1041 24.8317 0.669281 0.768440
  1042 24.8299 0.672848 -0.769931
  1043 41.4233 -2.81648 2.03536
  1044 1.36935 0.338458 -0.0597621
  1045 1.37015 0.338882 0.0598584
  1046 35.0567 -4.79908 5.52708
  1047 -0.882904 0.252257 0.257040
  1048 -0.883850 0.251874 -0.256674
  1049 7.05952 1.96932 0.500762
  1050 7.05379 1.97381 -0.492572
  1051 2.42955 1.53829 1.83123
  1052 2.42420 1.54138 -1.82849
  1053 0.351033 -6.76977 -1.62982
  1054 9.60432 0.575259 -0.135231
  1055 9.60435 0.576489 0.135798
  1056 27.6158 1.02078 1.08200
  1057 28.4097 0.406672 0.742674
  1058 28.4087 0.409640 -0.744707
  1059 -0.252662 -1.84436 -3.15962
  1060 42.9092 -0.525384 -1.11218
  1061 -0.163863 -0.296035 3.21534
  1062 -0.133463 -0.266110 -3.20424
  1063 39.7098 -0.0317142 -0.283657
  1064 39.7090 -0.0320919 0.282404
  1065 42.1820 -0.0954658 -0.492265
  1066 42.1513 -0.101899 0.473469
  1067 -0.0325620 -8.15587 0.787960
  1068 24.0745 0.839032 -1.03022
  1069 24.0774 0.833521 1.02870
  1070 29.6502 0.449419 0.885111
  1071 29.6492 0.453033 -0.887922
  1072 0.414796 0.579026 2.98365
  1073 0.413615 0.580506 -2.98261
  1074 64.8778 4.67731 0.385639
  1075 -0.940237 -0.454984 3.21150
  1076 -0.949927 -0.446773 -3.21694
  1077 8.58978 1.90784 0.304368
  1078 8.58887 1.90789 -0.298028
  1079 -5.79770 0.161933 -0.352100
  1080 -5.79640 0.162107 0.352522
  1081 14.4292 0.644714 -4.48335
  1082 14.4195 0.688477 4.55467
  1083 3.84984 1.73121 1.53469
  1084 3.84367 1.73513 -1.53077
  1085 9.65430 0.870669 -3.09994
  1086 9.60800 0.923981 3.14124
  1087 -0.289667 -2.76951 -2.14929
  1088 34.8440 0.331581 5.27886
  1089 25.0055 -1.24417 15.1847
  1090 3.62309 1.73539 1.59075
  1091 3.61493 1.74140 -1.58748
  1092 14.8086 1.03328 -0.153371
  1093 14.8099 1.03045 0.154238
  1094 56.3243 -1.01893 2.91604
  1095 3.21762 0.643644 1.23982
  1096 3.17670 0.657209 -1.24778
  1097 -1.69111 -0.386622 1.88142
  1098 -1.69147 -0.388020 -1.88242
  1099 -0.0559081 -1.20892 0.494564
  1100 -0.0579615 -1.20798 -0.496427
  1101 36.8520 0.0951296 1.22308
  1102 36.8515 0.111966 -1.23916
  1103 -0.00314235 -2.81258 2.98017
  1104 -2.64638 0.130113 -2.58452
  1105 -2.64331 0.129905 2.58272
  1106 0.0157758 -9.98961 -1.03880
  1107 -0.674172 -0.930240 3.20454
  1108 -0.672838 -0.913303 -3.20692
  1109 35.4472 0.153142 -0.515892
  1110 35.4471 0.152016 0.514170
  1111 36.2098 -0.138776 1.42945
  1112 36.1953 -0.112287 -1.44713
  1113 5.80452 1.11599 -0.646691
  1114 5.76166 1.14635 0.664557
  1115 -0.0936737 -5.14658 -1.80674
  1116 47.9110 -5.73489 -8.50129
  1117 62.4163 6.61972 -1.41709
  1118 0.566939 -8.48659 -0.527416
  1119 1.87365 1.13689 -2.34164
  1120 1.88352 1.12908 2.33669
  1121 5.36908 1.87759 0.982092
  1122 5.35953 1.88516 -0.976008
  1123 11.8798 0.943583 -0.0722575
  1124 11.8791 0.945713 0.0732922
  1125 -0.837112 -1.19285 2.44743
  1126 -0.835380 -1.20276 -2.44987
  1127 -2.61019 0.717849 2.18125
  1128 -2.61424 0.719185 -2.18116
  1129 -1.12619 0.877338 2.53998
  1130 -1.13172 0.879609 -2.54011
  1131 34.2061 -1.71855 -2.29955
  1132 34.4438 -1.74429 2.26584
  1133 0.0176467 -6.03972 -2.18224
  1134 17.6693 -0.277711 -5.79852
  1135 17.7126 -0.218604 5.91765
  1136 5.31345 1.80286 -0.981429
  1137 5.31677 1.80080 0.986329
  1138 18.5991 4.75248 17.0508
  1139 4.02965 1.49016 1.17806
  1140 4.02716 1.49077 -1.17467
  1141 47.2672 -5.84326 -1.33741
  1142 17.2988 0.715879 0.154767
  1143 17.2980 0.717838 -0.154751
  1144 -0.816840 -0.732904 1.47345
  1145 -0.816900 -0.734205 -1.47233
  1146 -0.983896 -0.889450 1.92041
  1147 -0.983221 -0.892356 -1.91973
  1148 30.3736 -3.55152 -8.44749
  1149 31.0831 -3.87474 8.51936
  1150 4.85979 0.376063 -0.00205842
  1151 4.86038 0.376698 0.00233778
  1152 18.7079 0.941384 -3.05324
  1153 18.7183 0.925015 3.09221
  1154 42.2905 -6.30151 6.23194
  1155 38.3677 -0.0400779 0.0787754
  1156 38.3657 -0.0400347 -0.0788394
  1157 -3.69818 0.546222 1.93751
  1158 -3.70175 0.547109 -1.93746
  1159 -6.21369 0.215361 -1.04679
  1160 -6.21121 0.215227 1.04736
  1161 9.03545 -1.46815 9.73774
  1162 26.6527 1.96741 -2.17656
  1163 17.1121 1.42117 -1.35485
  1164 17.1215 1.41278 1.36519
  1165 55.9162 -3.42664 9.00444
  1166 17.3746 1.32424 -2.14530
  1167 17.3872 1.31285 2.16341
  1168 3.85129 0.726431 -0.499115
  1169 3.85199 0.727305 0.500222
  1170 1.40887 -6.82275 0.474845
  1171 1.42745 -6.70924 -0.856034
  1172 23.7541 -2.07258 -8.50152
  1173 24.1190 -1.96066 8.51233
  1174 8.94903 1.32553 -1.99638
  1175 8.91486 1.36002 2.03014
  1176 42.7158 -3.11960 -3.95993
  1177 -1.68201 -0.187203 2.90522
  1178 -1.68564 -0.186623 -2.90775
  1179 -0.0842136 -2.52510 -3.05537
  1180 10.3105 -0.367532 -5.95945
  1181 10.3437 -0.321875 6.08661
  1182 -0.0282999 -2.15677 0.555060
  1183 -0.0240524 -2.16161 -0.561507
  1184 -10.7005 0.0956953 -0.304905
  1185 -10.6980 0.0956827 0.305079
  1186 34.6331 0.0939818 -0.128851
  1187 34.6342 0.0937661 0.128479
  1188 20.6819 0.997502 -0.797306
  1189 20.6859 0.991740 0.797527
  1190 -0.920970 -0.101885 3.24017
  1191 -0.923197 -0.0897745 -3.24496
  1192 0.00841750 -8.84028 -0.884397
  1193 -9.00457 0.0253749 0.470168
  1194 -9.00749 0.0254303 -0.470199
  1195 6.27994 -0.983162 -3.95001
  1196 6.22964 -0.941527 4.10298
  1197 39.8346 -2.46392 0.315135
  1198 10.7385 0.219907 -5.32510
  1199 10.7531 0.264016 5.39808
  1200 -4.90598 0.0247763 0.684880
  1201 -4.90687 0.0247828 -0.685374
  1202 0.117503 -8.04392 -1.61649
  1203 -2.08092 0.398988 -0.478185
  1204 -2.07973 0.399325 0.478862
  1205 5.44039 1.57414 0.967924
  1206 5.43819 1.57447 -0.963887
  1207 22.2003 0.341351 -0.118884
  1208 22.2006 0.340663 0.118783
  1209 30.3837 0.315345 0.567176
  1210 30.3832 0.317211 -0.568837
  1211 1.44039 -0.533185 2.08182
  1212 1.41920 -0.558117 -2.10643
  1213 0.229805 -4.71565 2.41971
  1214 54.1232 6.79579 3.55734
  1215 -1.68078 -0.138154 1.06175
  1216 -1.68035 -0.138628 -1.06192
  1217 0.176955 -4.41157 -2.49990
  1218 -0.167736 -2.57029 1.56155
  1219 -0.158181 -2.55128 -1.61903
  1220 43.1779 -0.452722 0.994207
  1221 0.0416028 -10.1605 0.912794
  1222 0.241292 -3.29366 -2.78367
  1223 4.44467 0.324062 0.0768412
  1224 4.44403 0.323518 -0.0767578
  1225 -0.470709 -1.92565 2.92017
  1226 -5.24080 0.314427 -0.918857
  1227 -5.23868 0.314383 0.919605
  1228 92.0260 1.72231 2.43876
  1229 -2.65928 0.261792 2.63806
  1230 -2.66299 0.262275 -2.63989
  1231 20.0777 0.929104 -2.76774
  1232 20.1026 0.908131 2.78780
  1233 1.18403 -2.49597 -1.52872
  1234 19.1895 1.21954 -1.00724
  1235 19.1957 1.21188 1.00986
  1236 0.729675 -6.79129 -0.745747
  1237 -0.471118 -1.92683 -2.91165
  1238 -3.93128 0.210626 0.586013
  1239 -3.93269 0.210387 -0.585339
  1240 -1.64590 0.0512897 -2.99884
  1241 -1.64159 0.0509137 2.99667
  1242 40.6777 3.17020 4.51563
  1243 23.3970 0.395508 -3.01126
  1244 23.4311 0.381366 3.01895
  1245 -11.3353 0.0382839 -0.128150
  1246 -11.3337 0.0382997 0.128323
  1247 21.2381 0.750888 -0.552262
  1248 21.2394 0.748154 0.551701
  1249 -11.7587 -0.178462 -0.0278248
  1250 -11.7596 -0.178463 0.0278394
  1251 31.7969 -2.31026 -3.43730
  1252 -5.23182 0.0829660 1.48121
  1253 -5.23423 0.0831529 -1.48206
  1254 32.1476 -2.43922 3.40443
  1255 21.5329 1.02290 -1.17426
  1256 21.5383 1.01497 1.17459
  1257 2.38327 -8.35040 -3.94610
  1258 0.0443921 -7.28139 -1.88325
  1259 -0.178517 -3.09022 2.74401
  1260 70.9994 8.96213 -7.85092
  1261 -0.0197901 -6.76700 1.80570
  1262 73.2524 6.85067 -3.50824
  1263 -0.0264106 -12.4802 -0.888098
  1264 2.79566 0.491011 -0.234731
  1265 2.79639 0.491659 0.235348
  1266 -0.0326218 -2.77485 0.582429
  1267 -0.0267954 -2.78885 -0.580260
  1268 11.6622 0.518454 -0.0643096
  1269 11.6624 0.519385 0.0644499
  1270 43.2959 -3.56600 3.80122
  1271 0.226851 0.440650 -0.555523
  1272 0.227869 0.441117 0.556316
  1273 0.254101 -14.1825 0.579265
  1274 0.162096 -15.0223 -0.565785
  1275 39.8137 -5.34130 -3.52358
  1276 -0.117343 -3.69331 1.73915
  1277 40.5303 2.35174 -5.49275
  1278 -0.125335 -4.86840 1.71647
  1279 0.0798884 -13.5789 -0.739675
  1280 19.7114 0.803271 -0.559639
  1281 19.7137 0.799094 0.559645
  1282 -0.0121050 -7.18022 0.775401
  1283 -0.0211454 -6.04446 -1.76237
  1284 99.2266 15.3866 13.6731
  1285 38.5654 0.0703060 0.0638078
  1286 38.5633 0.0703030 -0.0638158
  1287 0.800700 -0.135736 2.76859
  1288 0.772826 -0.0948126 -2.77691
  1289 -0.795698 0.472181 3.10415
  1290 -0.806486 0.474507 -3.10706
  1291 39.7660 -0.803493 -3.08602
  1292 37.2680 -1.50640 -1.21178
  1293 37.2151 -1.72981 1.20728
  1294 4.94665 0.809502 0.534303
  1295 4.94607 0.808451 -0.532861
  1296 -6.43061 0.178003 -1.20383
  1297 -6.42766 0.177707 1.20378
  1298 41.6158 -6.32943 -5.18909
  1299 -0.315940 -0.753666 0.762367
  1300 -0.317008 -0.752801 -0.761832
  1301 43.6597 -2.18179 5.50979
  1302 -0.482807 -1.78424 2.10624
  1303 -0.477674 -1.79016 -2.09620
  1304 -4.48562 0.325828 0.689535
  1305 -4.48728 0.325686 -0.688768
  1306 6.15496 0.313516 -1.77724
  1307 6.09160 0.353810 1.78227
  1308 9.80159 0.492477 0.127319
  1309 9.80135 0.491536 -0.127083
  1310 -4.53515 0.438513 1.88493
  1311 -4.53848 0.439202 -1.88520
  1312 36.0325 0.180335 0.0993893
  1313 36.0309 0.180357 -0.0994152
  1314 18.9431 -0.926834 11.4244
  1315 29.0641 0.240286 0.198011
  1316 29.0636 0.240732 -0.198341
  1317 18.5808 0.356166 -4.37031
  1318 18.5946 0.330615 4.41903
  1319 0.170326 -8.27189 -1.30067
  1320 6.92170 1.62242 -0.457305
  1321 6.89511 1.64418 0.475767
  1322 -0.0657038 -0.0656982 -0.0902533
  1323 -0.0660177 -0.0657405 0.0905081
  1324 24.4458 0.962937 1.59277
  1325 24.4372 0.975521 -1.59352
  1326 11.7294 1.20266 0.00933040
  1327 11.7283 1.20530 -0.00736624
  1328 17.6404 1.23340 -0.615578
  1329 17.6442 1.22806 0.617254
  1330 23.5799 0.356666 -0.196150
  1331 23.5803 0.355978 0.195930
  1332 -0.759941 -0.373352 -0.862884
  1333 -0.760074 -0.373111 0.863576
  1334 -7.80263 0.0468584 0.410935
  1335 -7.80431 0.0468021 -0.410475
  1336 -1.32796 -0.624938 -2.15686
  1337 -1.32779 -0.622352 2.15562
  1338 -4.80207 0.146614 0.181454
  1339 -4.80313 0.146415 -0.181247
  1340 -11.8433 0.118542 0.0748040
  1341 -11.8444 0.118520 -0.0747171
  1342 45.0364 -6.49803 7.28436
  1343 30.5852 -0.270539 -4.22610
</Section>

newXOutput 7

<Section columns = "stress_xx | stress_yy | stress_xy">
  1 47.7238 -0.0291667 0.0417671
  2 47.7270 -0.0291859 -0.0417892
  3 -15.3099 0.0876107 -0.204009
  4 0.0249903 0.00769528 0.0435136
  5 89.2202 20.1633 26.5757
  6 100.707 23.2274 -25.2331
  7 0.0249175 0.00762307 -0.0434182
  8 -15.3084 0.0876262 0.204028
  9 47.5669 -0.0250183 -0.155048
  10 47.5945 -0.109248 -0.258367
  11 48.0506 -0.103730 -0.0619804
  12 48.0792 -0.0888235 -0.291031
  13 48.1572 -0.0825159 -0.0759908
  14 49.1911 -0.0886572 -0.111219
  15 49.5188 -0.146271 -0.388885
  16 49.8414 -0.0484700 -0.257814
  17 50.0117 0.0875333 -0.498739
  18 52.1011 -0.235075 -0.428679
  19 52.9382 -0.164163 -0.562559
  20 53.8227 -0.280624 -0.173220
  21 54.1753 -0.399030 -0.0621929
  22 53.4980 -0.484913 0.847027
  23 51.2595 -0.567182 1.70611
  24 46.2260 -0.695356 3.53451
  25 38.3930 0.304284 4.07181
  26 31.7502 0.331168 3.85846
  27 22.7333 0.904044 2.34475
  28 24.3881 0.883903 0.139822
  29 19.5415 2.69975 -1.53098
  30 29.7194 1.19478 -4.09187
  31 35.5673 0.236356 -3.37728
  32 45.1117 -0.182979 -2.92213
  33 50.4787 -0.687996 -2.02363
  34 53.3472 -0.567952 -0.848932
  35 54.0125 -0.383700 0.0609140
  36 53.7047 -0.276116 0.154469
  37 52.8764 -0.165913 0.540700
  38 52.0661 -0.239242 0.415322
  39 49.9980 0.0849545 0.491518
  40 49.8354 -0.0494534 0.254782
  41 49.5176 -0.146825 0.387446
  42 49.1918 -0.0889376 0.110466
  43 48.1590 -0.0826535 0.0755638
  44 48.0818 -0.0889537 0.290867
  45 48.0536 -0.103809 0.0618771
  46 47.5976 -0.109292 0.258374
  47 47.5700 -0.0250334 0.155053
  48 44.8046 0.204129 -0.0535418
  49 41.2768 0.186024 -0.129252
  50 36.9053 0.0657241 -0.143793
  51 32.4126 0.358007 -0.119593
  52 28.5182 0.350811 -0.0972172
  53 24.3849 0.490615 -0.116740
  54 20.3392 0.694514 -0.0798598
  55 16.1728 0.642442 -0.149768
  56 12.7401 0.505551 -0.202927
  57 8.26569 0.381919 -0.213526
  58 3.74597 0.438008 -0.160825
  59 -0.0110433 0.356308 -0.155128
  60 -4.67547 0.230344 -0.145183
  61 -8.14120 0.0302494 -0.328193
  62 -11.4914 -0.192399 -0.152956
  63 -14.8717 0.0445475 0.0915755
  64 -15.5812 0.271031 -0.0510893
  65 -15.6083 0.126682 0.0278255
  66 -15.0788 0.0716745 -0.0366907
  67 -15.1746 0.178563 -0.202857
  68 -14.9010 0.213055 -0.0463694
  69 -14.0648 0.0726729 -0.304426
  70 -14.1440 0.130263 -0.323245
  71 -13.7461 0.125117 -0.194819
  72 -12.6990 0.0828753 -0.281199
  73 -12.1547 0.137285 -0.444593
  74 -11.3831 0.150058 -0.373746
  75 -10.0363 0.0779402 -0.616508
  76 -9.27066 0.0237170 -0.516398
  77 -7.92644 0.0341762 -0.587920
  78 -6.75875 0.0214182 -0.641735
  79 -5.75682 0.00566431 -0.506150
  80 -4.38543 0.0278369 -0.507919
  81 -3.20977 -0.0161324 -0.539572
  82 -2.07398 -0.0612661 -0.468018
  83 -1.17954 -0.0531997 -0.355142
  84 -0.572001 -0.0905207 -0.294108
  85 -0.0833977 -0.0521069 -0.101574
  86 0.0153284 -0.0561157 -0.0338425
  87 -0.0307153 -0.0231123 -0.00267555
  88 -0.0813135 -0.0618949 -0.0884543
  89 -0.0786579 -0.481687 -0.254424
  90 -0.0686577 -1.09526 -0.367875
  91 -0.0367074 -1.89340 -0.539725
  92 -0.0202555 -2.91873 -0.466399
  93 -0.0203452 -3.87349 -0.587994
  94 -0.0741566 -5.05500 -0.668364
  95 -0.0300416 -6.50253 -0.680410
  96 0.0144322 -7.96195 -0.654832
  97 0.0323918 -9.53232 -0.648690
  98 0.0478364 -11.1554 -0.642582
  99 0.00956833 -12.3876 -0.873816
  100 0.0895334 -14.1004 -0.785407
  101 0.105510 -16.1184 -0.646536
  102 0.0113585 -17.1055 -0.861475
  103 0.150388 -18.6786 -0.813440
  104 0.349565 -20.7875 -0.476667
  105 0.673418 -21.5641 -0.753692
  106 0.428489 -20.4411 0.149164
  107 0.539932 -16.6315 1.33446
  108 3.57861 -12.0829 4.79262
  109 11.8304 9.47690 19.1502
  110 139.082 6.86457 13.1091
  111 118.867 2.28250 4.89554
  112 115.059 0.965674 1.05377
  113 114.310 0.457459 -0.182934
  114 115.000 1.40520 -2.59075
  115 118.193 4.02513 -5.67474
  116 134.729 13.4223 -16.5212
  117 27.6596 7.07636 -23.5479
  118 5.74859 -11.8718 -6.12032
  119 1.66469 -18.1603 -2.08090
  120 0.447418 -19.4612 -0.191359
  121 0.534525 -20.8237 0.508326
  122 0.160576 -20.0224 0.397500
  123 0.0678803 -18.2213 0.716709
  124 0.0673844 -17.0610 0.574531
  125 0.0895774 -15.2751 0.901000
  126 -0.00397278 -14.2120 0.858029
  127 0.0356140 -12.8047 0.622118
  128 0.0650269 -11.0168 0.774168
  129 0.0106404 -9.74693 0.615019
  130 0.0199934 -7.97983 0.775386
  131 -0.0795883 -6.57911 0.664107
  132 -0.0581172 -5.06036 0.648461
  133 -0.0153610 -3.85371 0.589903
  134 -0.0256728 -2.90260 0.467787
  135 -0.0360854 -1.88797 0.534723
  136 -0.0677534 -1.09441 0.366101
  137 -0.0782626 -0.482355 0.254236
  138 -0.0812377 -0.0625347 0.0886048
  139 -0.0307170 -0.0234007 0.00286243
  140 0.0149893 -0.0561779 0.0340261
  141 -0.0840782 -0.0521027 0.101832
  142 -0.573186 -0.0904802 0.294436
  143 -1.18126 -0.0530738 0.355317
  144 -2.07568 -0.0611103 0.467973
  145 -3.21096 -0.0160045 0.539250
  146 -4.38595 0.0278605 0.507522
  147 -5.75641 0.00569841 0.505753
  148 -6.75751 0.0214407 0.641329
  149 -7.92421 0.0341429 0.587542
  150 -9.26770 0.0236681 0.516100
  151 -10.0330 0.0778811 0.616295
  152 -11.3794 0.149991 0.373650
  153 -12.1509 0.137223 0.444585
  154 -12.6953 0.0828454 0.281275
  155 -13.7427 0.125095 0.194931
  156 -14.1408 0.130240 0.323382
  157 -14.0620 0.0726650 0.304586
  158 -14.8985 0.213060 0.0465300
  159 -15.1724 0.178578 0.202985
  160 -15.0769 0.0716877 0.0367879
  161 -15.6066 0.126698 -0.0277577
  162 -15.5796 0.271051 0.0511465
  163 -14.8702 0.0445559 -0.0915444
  164 -11.4899 -0.192352 0.152994
  165 -8.13969 0.0303809 0.328238
  166 -4.67405 0.230595 0.145248
  167 -0.00983533 0.356707 0.155182
  168 3.74697 0.438574 0.160875
  169 8.26637 0.382654 0.213580
  170 12.7405 0.506406 0.202955
  171 16.1729 0.643370 0.149782
  172 20.3391 0.695437 0.0798326
  173 24.3847 0.491438 0.116684
  174 28.5177 0.351497 0.0971373
  175 32.4118 0.358487 0.119481
  176 36.9041 0.0660196 0.143663
  177 41.2750 0.186115 0.129173
  178 44.8021 0.204131 0.0535056
  179 11.5679 2.26882 0.0215485
  180 11.5663 2.26921 -0.0111324
  181 -0.461007 0.226466 3.79004
  182 -0.472090 0.227389 -3.78838
  183 27.2580 -0.429475 -5.60274
  184 27.2548 -0.489374 5.67233
  185 5.10470 0.918357 0.418140
  186 5.04431 0.946160 -0.409842
  187 3.32210 0.871520 -0.791640
  188 3.32335 0.872321 0.793199
  189 26.1090 0.784396 -0.721879
  190 26.1114 0.780334 0.721192
  191 -1.00160 1.12026 2.21531
  192 -1.00606 1.12173 -2.21390
  193 30.3833 1.03548 -2.05780
  194 30.3974 1.01824 2.05733
  195 -1.24583 -1.09892 2.82833
  196 -1.24463 -1.10438 -2.83044
  197 0.181502 -2.78124 -3.57566
  198 8.94742 -0.229927 -4.77627
  199 0.242392 -2.96325 3.50556
  200 8.80155 -0.145498 4.87910
  201 43.3184 -6.42166 -8.26002
  202 44.9602 -6.68045 7.87182
  203 15.0136 0.789006 0.0200128
  204 15.0139 0.787348 -0.0195795
  205 -3.29954 0.291561 -0.485848
  206 -3.29800 0.291911 0.486402
  207 -3.76528 0.519062 2.87475
  208 -3.77008 0.520329 -2.87622
  209 15.0674 1.68604 -0.103808
  210 15.0695 1.68256 0.106921
  211 4.30098 1.90857 1.84188
  212 4.28658 1.92070 -1.84036
  213 -5.05501 0.543284 -1.30414
  214 -5.05207 0.543123 1.30511
  215 35.3365 0.272166 0.378137
  216 35.3356 0.273158 -0.379005
  217 1.00033 -5.30571 1.85726
  218 1.09031 -4.86617 -1.71697
  219 -0.365025 -3.07518 3.22634
  220 -0.369307 -3.18039 -3.11929
  221 13.8229 2.08859 -1.84683
  222 13.8170 2.09603 1.87819
  223 -3.26747 -0.0426095 2.80104
  224 -3.27022 -0.0425893 -2.80314
  225 37.8152 0.430201 -1.19371
  226 37.8162 0.425116 1.18916
  227 40.4626 -0.414946 -2.29590
  228 40.4886 -0.462423 2.27502
  229 63.8696 5.26626 -0.206165
  230 58.6347 6.24099 5.09854
  231 58.5805 -1.29864 -6.78227
  232 6.47462 1.74162 1.08190
  233 6.47274 1.74152 -1.07785
  234 0.0873999 1.28549 3.04279
  235 0.0796550 1.28936 -3.04219
  236 45.1616 -2.74567 -1.20930
  237 44.8849 -2.78473 1.34499
  238 24.6742 0.497735 -0.236583
  239 24.6748 0.496318 0.236255
  240 -5.96490 0.413226 1.95895
  241 -5.96884 0.413941 -1.95900
  242 -0.775456 -0.765192 -1.24463
  243 -0.775094 -0.765104 1.24582
  244 -6.88876 0.224439 0.697635
  245 -6.89092 0.224268 -0.696901
  246 19.9520 1.77382 -1.17242
  247 19.9587 1.76555 1.17871
  248 25.5738 0.960733 -3.08925
  249 25.6006 0.939846 3.10430
  250 5.54503 0.601831 -0.160438
  251 5.54585 0.602642 0.160949
  252 14.4183 -1.18094 -11.2360
  253 17.2160 -0.649264 12.4120
  254 1.71486 0.725236 3.00678
  255 1.70765 0.745972 -3.01317
  256 62.2281 -5.94951 0.186640
  257 4.74800 2.07085 1.59024
  258 4.74243 2.07409 -1.58547
  259 14.0835 1.36133 -3.87768
  260 14.0641 1.40202 3.93759
  261 68.9442 8.97399 -2.40807
  262 41.0116 0.211156 1.61653
  263 41.0085 0.227235 -1.62898
  264 -0.383093 -2.31880 -1.97713
  265 -0.373916 -2.32909 1.98571
  266 -0.0971641 -5.59929 -2.79133
  267 0.145765 -6.71477 -2.70365
  268 0.0691733 -6.64283 2.77842
  269 -1.12435 -0.992033 3.71338
  270 -1.12758 -0.988811 -3.72422
  271 1.98685 -6.01803 -0.252135
  272 2.12989 -5.63317 0.578908
  273 -2.38962 -0.211495 1.74069
  274 -2.38981 -0.212240 -1.74155
  275 28.7052 1.07429 -1.23367
  276 28.7106 1.06609 1.23209
  277 50.8382 -5.59806 0.457748
  278 10.5228 1.18057 -0.291243
  279 10.5226 1.18238 0.292792
  280 -0.150168 -5.24341 2.66109
  281 0.440058 1.14186 1.53295
  282 0.437183 1.14224 -1.53090
  283 81.9524 6.00532 -1.54022
  284 40.0033 0.189155 0.478300
  285 40.0026 0.190366 -0.479927
  286 25.8059 -1.58861 -8.58040
  287 26.0682 -1.56459 8.73987
  288 50.7599 -5.29007 -1.31636
  289 -4.98565 0.141131 2.23336
  290 -4.98860 0.141380 -2.23484
  291 50.0017 -5.41091 14.3908
  292 -2.35041 0.301912 3.42822
  293 -2.35570 0.302375 -3.43093
  294 7.80197 2.17284 0.0188288
  295 7.77526 2.19462 -0.00254857
  296 -9.62857 0.123191 0.137542
  297 -9.63018 0.123106 -0.137364
  298 41.8869 -0.935788 -19.9189
  299 -8.72140 0.192794 -1.08500
  300 -8.71797 0.192582 1.08537
  301 -0.363958 -1.22505 3.87490
  302 -0.250122 -1.20784 -3.85151
  303 17.7298 2.01529 -1.74541
  304 17.7371 2.00934 1.76287
  305 3.24970 0.646609 0.591030
  306 3.24864 0.645826 -0.590086
  307 18.6208 1.01131 -0.257086
  308 18.6220 1.00855 0.257541
  309 1.58798 -1.80913 2.38061
  310 1.44629 -2.08836 -2.38890
  311 18.0705 0.601217 -0.0335316
  312 18.0706 0.600046 0.0335559
  313 -7.02193 0.181530 1.66186
  314 -7.02538 0.181850 -1.66262
  315 4.26652 -1.04257 -0.412796
  316 4.13046 -1.04302 0.300962
  317 41.9184 0.0959471 0.131617
  318 41.9165 0.0961102 -0.131838
  319 92.7279 5.49689 3.11345
  320 8.62425 1.43983 0.592626
  321 8.62389 1.43828 -0.589864
  322 -2.66995 0.551377 0.981517
  323 -2.67210 0.551178 -0.980304
  324 12.1571 1.92925 0.110060
  325 12.1578 1.92676 -0.104068
  326 1.14133 1.22402 3.19294
  327 1.13493 1.22807 -3.19466
  328 0.177042 -9.58588 2.02738
  329 -9.88351 0.0664586 -0.293855
  330 -9.88165 0.0665484 0.294187
  331 31.4992 0.329574 -0.243234
  332 31.4998 0.328816 0.242830
  333 33.1953 0.461252 -0.645910
  334 33.1965 0.458679 0.644191
  335 -9.09923 0.188951 -0.816121
  336 -9.09645 0.188945 0.816712
  337 -0.979040 0.293071 0.144481
  338 -0.980312 0.292685 -0.144226
  339 -0.200693 -3.81161 1.98447
  340 -0.160781 -3.96307 -1.98169
  341 36.9080 -3.24990 -5.68947
  342 38.4312 -3.87905 5.56636
  343 21.6709 1.35214 -0.698935
  344 21.6743 1.34674 0.699891
  345 9.12482 2.30585 0.247445
  346 9.11415 2.31388 -0.234620
  347 -3.95367 0.711105 1.81477
  348 -3.95730 0.711825 -1.81389
  349 70.8085 -0.404060 0.0185850
  350 3.37291 -6.87248 -3.22213
  351 3.61158 -6.56656 3.42644
  352 -1.87511 1.06843 2.82217
  353 -1.88086 1.07064 -2.82205
  354 -2.02795 -0.448963 3.26310
  355 -2.03111 -0.449065 -3.26662
  356 79.8952 12.3467 -1.95577
  357 49.8681 -1.14441 7.64558
  358 47.5436 -1.01253 -0.915647
  359 47.4711 -0.990107 0.820472
  360 32.6585 -0.256936 -3.58953
  361 32.6265 -0.299057 3.58639
  362 0.0611965 -11.5340 -1.67161
  363 43.7956 0.240965 -0.923651
  364 43.7922 0.236141 0.916939
  365 0.530181 -11.0370 1.45526
  366 48.3150 3.74426 -4.53921
  367 11.5468 0.655975 0.218343
  368 11.5464 0.655033 -0.218176
  369 32.9600 0.449481 -2.67165
  370 32.9836 0.424615 2.67005
  371 35.8910 0.519779 -1.65374
  372 35.8955 0.508704 1.64737
  373 -1.41256 0.517677 0.699863
  374 -1.41423 0.517243 -0.698866
  375 19.8470 1.10865 -4.11843
  376 19.8637 1.11716 4.16838
  377 43.2498 0.0942007 0.218093
  378 43.2483 0.0944951 -0.218651
  379 23.5239 1.53948 -2.00354
  380 23.5370 1.52551 2.01208
  381 27.6047 0.695286 0.493112
  382 27.6036 0.697501 -0.493923
  383 -1.33458 -0.248224 1.05987
  384 -1.33403 -0.248716 -1.05953
  385 -0.312512 -0.223391 -0.299433
  386 -0.312707 -0.223573 0.299917
  387 57.2280 -8.00117 2.96314
  388 -0.784708 -1.86371 2.95356
  389 -0.779779 -1.87742 -2.95207
  390 8.51368 0.811753 -0.379148
  391 8.51406 0.813069 0.380124
  392 -0.287911 -1.41435 1.06232
  393 -0.290931 -1.41150 -1.06216
  394 2.94936 1.68069 1.72781
  395 2.94540 1.68224 -1.72456
  396 46.8755 -0.0662311 1.19717
  397 46.8811 -0.0455496 -1.22865
  398 -0.177563 -2.95903 3.65031
  399 -3.87248 -0.0801551 1.66388
  400 -3.87344 -0.0803417 -1.66509
  401 -0.192004 -3.11253 -3.60726
  402 44.1951 0.128804 0.585634
  403 44.1960 0.130322 -0.588376
  404 -0.712139 0.884269 3.49217
  405 -0.722324 0.888199 -3.49374
  406 32.0788 0.725410 -1.05633
  407 32.0811 0.720328 1.05365
  408 49.5049 -2.14598 -1.55954
  409 49.7586 -1.70336 1.22061
  410 -0.112106 -5.21214 -2.18710
  411 4.01000 1.41235 -1.51675
  412 4.04242 1.39201 1.51814
  413 47.1741 3.21834 2.89649
  414 27.3217 -2.14415 -12.0596
  415 28.1263 -2.67889 12.6862
  416 1.16306 1.55146 2.43802
  417 1.15711 1.55437 -2.43589
  418 20.1282 0.832056 -0.175129
  419 20.1288 0.830169 0.175106
  420 19.4236 0.920590 19.3478
  421 7.64260 2.05098 -0.948726
  422 7.64562 2.04985 0.954752
  423 0.433362 -5.32579 2.65291
  424 -0.0638747 -8.51489 -1.93331
  425 2.79560 1.84874 2.36596
  426 2.78749 1.85383 -2.36355
  427 3.37768 1.22056 -1.11803
  428 3.37945 1.22096 1.12033
  429 -1.55663 -0.159026 -3.74145
  430 -1.55122 -0.161307 3.73800
  431 9.29913 1.74896 -1.19410
  432 9.26319 1.77972 1.22211
  433 49.2252 -1.75195 -5.70628
  434 1.17981 -0.792244 3.16157
  435 1.13651 -0.772816 -3.17356
  436 35.7706 -1.49042 -3.97225
  437 35.9377 -1.61245 3.95723
  438 -9.37501 0.0862972 -1.02398
  439 -9.37139 0.0860924 1.02391
  440 0.00261007 -8.31819 1.72725
  441 -0.0636463 -5.26300 1.94336
  442 -3.86019 0.217314 2.86658
  443 -3.86377 0.217608 -2.86855
  444 25.6382 0.483987 -0.0714814
  445 25.6386 0.483020 0.0712641
  446 -0.799883 -1.26094 1.98041
  447 -0.800630 -1.26310 -1.97744
  448 15.4069 0.439140 -6.08633
  449 15.3873 0.519645 6.17896
  450 0.131666 -10.2628 -1.98869
  451 92.6562 3.70250 0.152959
  452 0.236401 -12.4422 -1.33822
  453 -11.3476 0.0350193 -0.408482
  454 -11.3453 0.0350806 0.408850
  455 -4.46250 0.585426 2.43229
  456 -4.46703 0.586614 -2.43274
  457 -4.88706 0.0650533 1.68258
  458 -4.88876 0.0651340 -1.68376
  459 17.0033 1.98738 -1.06654
  460 17.0086 1.98264 1.07754
  461 26.2844 1.31190 -1.55591
  462 26.2937 1.30015 1.55747
  463 -0.539445 -1.82502 3.75701
  464 -0.539561 -1.81219 -3.77112
  465 45.0014 0.464454 -7.21697
  466 2.86729 -1.31813 -1.12069
  467 2.76803 -1.34258 1.17210
  468 0.671144 -11.6136 0.317279
  469 0.416023 -13.3050 -0.601188
  470 -1.44649 -0.659679 2.04262
  471 -1.44631 -0.661623 -2.04262
  472 9.28512 -2.96980 -9.51735
  473 72.6395 -2.09504 -5.33881
  474 15.4604 1.27852 0.160405
  475 15.4591 1.28164 -0.158720
  476 22.6445 0.102971 -5.97027
  477 22.7146 0.0935888 6.07979
  478 6.27373 2.39107 1.24845
  479 6.26556 2.39755 -1.24184
  480 20.4123 1.65382 -2.93959
  481 20.4304 1.64039 2.96913
  482 0.528818 0.241292 3.60522
  483 0.574979 0.264590 -3.59938
  484 -9.98248 0.167153 -0.790881
  485 -9.97934 0.167105 0.791300
  486 46.4163 -5.69263 -2.90231
  487 37.2929 0.197900 -0.187895
  488 37.2941 0.197581 0.187665
  489 1.20224 0.406398 -0.338772
  490 1.20342 0.406979 0.339334
  491 -2.82921 0.892464 2.33715
  492 -2.83383 0.893851 -2.33657
  493 -6.00955 0.392287 -0.917738
  494 -6.00708 0.392336 0.918641
  495 15.4394 1.78539 -0.306088
  496 15.4420 1.78117 0.310610
  497 -2.24683 0.714392 3.18105
  498 -2.25310 0.716528 -3.18252
  499 42.5872 -1.08002 -2.07164
  500 42.6520 -1.14791 2.02170
  501 27.3056 0.389192 -3.92953
  502 27.2720 0.361086 3.96805
  503 9.68262 0.700557 -0.232892
  504 9.68306 0.701672 0.233350
  505 0.0703720 -5.35524 -3.12780
  506 49.6287 -1.96067 4.71553
  507 0.576835 -3.73649 -2.98891
  508 13.4966 2.31525 0.991128
  509 13.4990 2.31222 -0.971567
  510 45.8999 -5.32870 2.84321
  511 3.19904 -6.69717 4.69217
  512 55.1151 -8.06128 -6.09137
  513 37.2772 0.351304 1.97942
  514 37.2666 0.371174 -1.98823
  515 0.0557824 -4.61242 3.25513
  516 -0.725886 -0.220218 -0.559706
  517 -0.726384 -0.220211 0.560250
  518 3.79501 0.415015 -0.120275
  519 3.79600 0.415626 0.120495
  520 -0.130151 -2.91253 1.26383
  521 -0.118082 -2.89808 -1.26965
  522 30.6775 0.548554 0.414073
  523 30.6766 0.549843 -0.414804
  524 88.5168 14.3732 4.78966
  525 3.28760 -2.95248 -0.420871
  526 2.54102 -3.71400 -0.101645
  527 -1.50400 0.750497 -1.27378
  528 -1.50150 0.750458 1.27526
  529 -7.64867 0.122913 1.02349
  530 -7.65144 0.123039 -1.02407
  531 0.0723257 -9.57857 1.95382
  532 -11.2764 0.128518 0.136699
  533 -11.2781 0.128464 -0.136491
  534 8.92432 -1.80204 -6.83682
  535 8.71332 -1.61179 7.14463
  536 8.12816 1.15285 -1.93365
  537 8.06757 1.19632 1.95995
  538 -2.08576 -0.463540 2.83232
  539 -2.08747 -0.464846 -2.83492
  540 7.85124 0.966557 0.424254
  541 7.85083 0.965207 -0.422879
  542 -5.15672 0.288958 0.442420
  543 -5.15849 0.288720 -0.441781
  544 9.42270 1.64972 0.572120
  545 9.42238 1.64821 -0.568080
  546 -0.204619 -0.650682 0.476712
  547 -0.205254 -0.649957 -0.476566
  548 3.26659 1.39925 2.23898
  549 3.24586 1.42227 -2.24162
  550 2.64452 0.148585 2.05527
  551 2.60550 0.144866 -2.07272
  552 38.0464 0.450876 0.843252
  553 38.0458 0.453391 -0.845805
  554 33.3532 0.673896 1.30566
  555 33.3498 0.681258 -1.30946
  556 -0.0346870 -7.92850 -1.18783
  557 22.9044 1.42816 -1.12274
  558 22.9101 1.42052 1.12475
  559 23.0561 0.807464 -0.363792
  560 23.0575 0.804761 0.363574
  561 -3.97990 0.215615 -0.0303272
  562 -3.97849 0.215872 0.0304712
  563 37.1290 2.24009 -1.38434
  564 52.6793 -7.23930 -1.68722
  565 41.2273 1.78849 5.55994
  566 0.302362 -7.16919 -2.41604
  567 -2.86576 0.805734 -1.60892
  568 -2.86256 0.805324 1.61023
  569 0.295195 -4.23388 3.15648
  570 -2.47267 0.0198297 3.30274
  571 -2.47675 0.0201325 -3.30525
  572 66.6770 6.49697 -1.02618
  573 14.6535 0.952211 0.000851841
  574 14.6539 0.950205 -0.000131928
  575 105.402 8.64071 -8.35922
  576 -0.657230 -0.527168 3.92377
  577 -0.626530 -0.500842 -3.92789
  578 55.7223 -5.54155 3.33646
  579 45.2600 0.157145 -1.03850
  580 45.2539 0.149726 1.02787
  581 19.7875 -0.522578 -8.80906
  582 20.0527 -0.575199 8.97818
  583 -1.21701 -1.17926 3.29222
  584 -1.21735 -1.18423 -3.29869
  585 10.1509 0.429350 4.28410
  586 10.2352 0.341941 -4.23148
  587 -9.03515 0.109397 -0.983763
  588 -9.03157 0.109248 0.983505
  589 65.8047 4.48490 5.69515
  590 11.8148 1.36088 -0.226495
  591 11.8143 1.36312 0.228584
  592 14.0286 1.71406 -2.82585
  593 14.0167 1.73529 2.87124
  594 40.5070 0.0958112 -1.96444
  595 40.5197 0.0704278 1.95083
  596 -0.205936 -4.25417 -2.97961
  597 44.7483 0.0252085 0.304773
  598 44.7470 0.0255712 -0.305525
  599 -7.14404 0.197413 -0.193479
  600 -7.14240 0.197580 0.193826
  601 -12.0707 -0.0495409 0.0144154
  602 -12.0723 -0.0495749 -0.0143511
  603 0.846611 -6.85124 -1.44004
  604 -0.434608 -2.72662 2.51126
  605 -0.458273 -2.58408 -2.52805
  606 -5.22063 0.305962 2.40732
  607 -5.22428 0.306569 -2.40862
  608 30.4963 0.995983 1.61848
  609 30.4892 1.00734 -1.62101
  610 22.2381 0.550186 0.0924071
  611 22.2379 0.551149 -0.0924849
  612 4.71413 -2.26133 2.42982
  613 4.88156 -2.15794 -2.39592
  614 -0.162572 -2.02510 1.06267
  615 -0.167134 -2.01800 -1.06586
  616 53.5337 1.11872 21.0538
  617 -2.61332 -0.0860516 0.991221
  618 -2.61265 -0.0863607 -0.991650
  619 0.820599 -4.21303 -2.52323
  620 21.6778 1.13976 -0.516432
  621 21.6798 1.13590 0.516699
  622 10.2174 2.25775 -0.536381
  623 10.2025 2.27017 0.556809
  624 0.111658 -14.7596 0.942460
  625 7.52332 2.30812 0.919100
  626 7.51851 2.31137 -0.911910
  627 -1.41288 0.987927 1.92636
  628 -1.41659 0.988779 -1.92486
  629 -0.0636089 -7.03193 1.62616
  630 -11.8547 0.0351374 -0.400917
  631 -11.8522 0.0351539 0.401249
  632 13.9470 0.624393 -0.0694510
  633 13.9471 0.625705 0.0697537
  634 37.0811 0.296611 0.541980
  635 37.0802 0.297967 -0.543323
  636 32.0788 -3.20007 16.0822
  637 25.7676 0.909631 -0.901314
  638 25.7710 0.904171 0.900852
  639 0.245649 -0.765125 3.72551
  640 0.330259 -0.523819 -3.73098
  641 41.5857 -5.07715 -12.8940
  642 102.479 3.68278 -3.49017
  643 -10.7144 0.0201220 -0.694748
  644 -10.7108 0.0200290 0.694831
  645 1.77180 0.687597 -0.686426
  646 1.77312 0.688235 0.687589
  647 -0.210355 -4.46352 2.61125
  648 56.0663 2.77494 -7.25183
  649 44.2898 0.000752064 0.0464507
  650 44.2874 0.000796749 -0.0465212
  651 -2.86647 -0.173675 -2.33351
  652 -2.86509 -0.173218 2.33179
  653 -0.00496087 -10.0608 -1.59333
  654 45.0814 -0.0164278 0.115760
  655 45.0791 -0.0163563 -0.115938
  656 3.44370 1.50254 1.49308
  657 3.44090 1.50299 -1.49000
  658 33.1781 -3.19999 -8.31614
  659 33.8440 -3.19572 8.42527
  660 49.9301 -0.238263 0.660225
  661 49.9680 -0.233338 -0.700692
  662 0.213367 -12.8664 1.32980
  663 -3.46407 0.188428 -0.264458
  664 -3.46262 0.188721 0.264831
  665 15.8212 -1.40591 -14.9379
  666 14.5515 0.585662 0.0765530
  667 14.5517 0.586637 -0.0764820
  668 6.74132 0.747709 0.248303
  669 6.74063 0.746653 -0.247532
  670 8.18610 1.16353 -0.416802
  671 8.18648 1.16508 0.418782
  672 28.3533 1.01448 -2.49720
  673 28.3734 0.994625 2.50215
  674 7.07126 2.15173 0.674766
  675 7.05358 2.16657 -0.665152
  676 -5.72075 0.433863 -1.47806
  677 -5.71741 0.433480 1.47882
  678 -6.49361 0.445258 -1.64139
  679 -6.48994 0.444730 1.64172
  680 51.0562 -0.728398 -0.368968
  681 -0.0417940 -2.28343 -3.72149
  682 51.1992 -0.764697 0.279110
  683 63.6640 5.24476 0.519648
  684 -6.46823 0.0278611 1.15673
  685 -6.47033 0.0279271 -1.15751
  686 6.13550 1.67916 0.270936
  687 6.09345 1.70447 -0.259146
  688 -12.7717 0.0333619 -0.164248
  689 -12.7696 0.0333965 0.164479
  690 -0.0133566 -2.08115 3.74315
  691 -4.11983 0.0385701 2.49352
  692 -4.12259 0.0386877 -2.49529
  693 55.7954 -5.23690 -3.57013
  694 8.05805 0.423988 -0.0100139
  695 8.05737 0.423224 0.0101868
  696 1.34506 0.940587 1.07402
  697 1.34320 0.940172 -1.07226
  698 28.7485 -1.49672 -6.86880
  699 28.9989 -1.55617 7.02374
  700 106.746 7.35917 7.74086
  701 1.80646 -11.3382 -2.64744
  702 -0.808983 -1.66849 3.54292
  703 -0.811236 -1.67349 -3.54840
  704 5.53700 1.52389 -0.951810
  705 5.53854 1.52450 0.954843
  706 46.3300 -0.00573551 -0.314988
  707 46.3306 -0.00610536 0.313911
  708 21.1892 0.629023 0.111780
  709 21.1888 0.630521 -0.111908
  710 1.38702 1.53714 2.89630
  711 1.37919 1.54209 -2.89547
  712 0.358885 0.543501 0.487414
  713 0.357587 0.542949 -0.486660
  714 -1.48460 0.221758 3.71983
  715 -1.49173 0.223197 -3.72392
  716 37.6984 0.147454 0.219953
  717 37.6973 0.147940 -0.220456
  718 32.3275 0.514471 0.605098
  719 32.3266 0.516320 -0.606287
  720 3.98568 -3.91423 3.04748
  721 4.11638 -4.11506 -2.91796
  722 -2.76251 0.516416 3.24730
  723 -2.76804 0.517658 -3.24951
  724 1.18707 -3.59293 2.12534
  725 -0.171455 0.859745 3.54812
  726 -0.182429 0.863566 -3.54764
  727 -7.72255 0.248062 -1.00224
  728 -7.71964 0.247965 1.00293
  729 5.04941 1.90383 1.47839
  730 5.04524 1.90547 -1.47376
  731 49.9416 -1.58303 -3.27546
  732 47.3789 -4.26829 -0.566731
  733 -0.794484 -1.61825 2.46344
  734 -0.792917 -1.62482 -2.45931
  735 17.6755 -0.920283 -10.4182
  736 17.1877 -0.502184 10.5560
  737 10.5588 2.03174 -1.10948
  738 10.5373 2.05210 1.13745
  739 0.822881 -2.15433 3.16433
  740 -0.0738451 -5.16325 -1.39886
  741 22.8074 1.46062 -2.22006
  742 22.8242 1.44674 2.23419
  743 0.0668410 -10.2399 1.31845
  744 13.2995 2.09461 -0.258261
  745 13.3006 2.09197 0.266744
  746 48.5150 0.0341975 -0.792120
  747 48.4985 0.0270208 0.775988
  748 0.878781 -14.9054 -0.104390
  749 20.9589 1.81095 1.60766
  750 20.9496 1.82089 -1.59880
  751 5.34199 1.89444 -1.19029
  752 5.36732 1.87309 1.19436
  753 -8.82547 0.0597038 -0.820593
  754 -8.82227 0.0596096 0.820201
  755 23.5450 0.674393 -0.340533
  756 23.5458 0.672481 0.340218
  757 14.0822 2.23834 -0.785757
  758 14.0829 2.23741 0.800290
  759 -0.320599 1.29413 2.81825
  760 -0.327050 1.29714 -2.81734
  761 47.5322 -3.63359 0.00109769
  762 -8.04839 0.214548 0.773863
  763 -8.05081 0.214478 -0.773209
  764 106.465 18.3634 -12.8688
  765 -3.49324 0.384277 0.857164
  766 -3.49523 0.383983 -0.856183
  767 40.7317 0.290370 1.40858
  768 40.7315 0.300152 -1.41788
  769 75.5392 5.15581 0.246458
  770 46.6164 -0.0573291 -0.609596
  771 46.6138 -0.0586968 0.606421
  772 29.1030 0.675298 0.737490
  773 29.1015 0.678321 -0.738745
  774 43.7148 -5.72384 11.7279
  775 18.4403 1.63742 -0.438684
  776 18.4437 1.63244 0.441361
  777 0.391197 -8.20506 1.87908
  778 50.3532 -6.83194 3.26172
  779 30.4512 0.320289 0.132707
  780 30.4506 0.320938 -0.132874
  781 40.5316 0.155711 0.0716972
  782 40.5299 0.155849 -0.0718007
  783 -0.194479 -4.14784 -2.43392
  784 0.217798 -7.29829 2.53784
  785 17.3406 2.06936 2.23770
  786 17.3334 2.07279 -2.21109
  787 106.438 1.30654 0.821533
  788 30.5735 0.444072 -3.18375
  789 30.6011 0.420273 3.18967
  790 -6.74833 0.226318 1.82873
  791 -6.75215 0.226818 -1.82915
  792 1.18086 -6.31298 0.970398
  793 0.783971 -14.0544 -0.455434
  794 70.8091 8.99109 0.185905
  795 -0.0654933 -5.14385 1.26149
  796 1.13417 0.870508 3.29008
  797 1.13228 0.871531 -3.29838
  798 8.80726 2.00596 0.688776
  799 8.80594 2.00574 -0.683356
  800 47.3186 -2.11331 -0.382402
  801 47.3595 -2.10197 0.180096
  802 56.8231 4.78898 -19.8123
  803 -8.31867 0.140655 -0.392396
  804 -8.31664 0.140785 0.392917
  805 -3.59400 -0.0188661 0.939312
  806 -3.59376 -0.0189759 -0.939929
  807 3.10483 -0.132631 1.45315
  808 3.03857 -0.136796 -1.45359
  809 35.5182 -0.0284648 2.88359
  810 35.4891 0.00987650 -2.88358
  811 17.6868 0.737686 0.00936194
  812 17.6871 0.736128 -0.00923099
  813 57.7893 -1.67813 6.75026
  814 5.41035 1.13687 -0.836970
  815 5.41142 1.13787 0.839169
  816 5.23923 0.323611 -0.241495
  817 5.19210 0.354596 0.261451
  818 -0.0676147 -4.24101 -3.36821
  819 83.7046 10.2186 9.84293
  820 -12.3453 0.0257062 -0.393558
  821 -12.3424 0.0256920 0.393829
  822 -0.0178762 -12.5826 1.28032
  823 0.717282 -2.12029 -3.18529
  824 -1.76830 -0.112637 0.689914
  825 -1.76712 -0.112859 -0.689915
  826 65.7364 2.70340 -5.45266
  827 16.3391 1.88193 -0.542757
  828 16.3429 1.87721 0.549579
  829 45.0099 -0.515050 -1.43620
  830 45.0383 -0.526710 1.40133
  831 -11.7310 0.102286 0.508524
  832 -11.7345 0.102314 -0.508343
  833 -0.0773498 -0.0805300 -0.0633565
  834 -0.0774990 -0.0806768 0.0635937
  835 0.0468812 -12.8816 -1.26665
  836 0.0637968 -13.7579 -1.21999
  837 -13.2265 0.143895 0.0882798
  838 -13.2282 0.143866 -0.0881807
  839 6.33591 -3.70092 -6.47027
  840 27.5496 0.589376 -0.186534
  841 27.5502 0.588263 0.186136
  842 -1.68124 0.349521 0.111507
  843 -1.68254 0.349174 -0.111400
  844 41.6625 0.263493 -0.947413
  845 41.6616 0.259932 0.942733
  846 -4.73925 0.0318275 0.897421
  847 -4.73970 0.0318430 -0.898065
  848 24.3888 -1.15175 -16.0515
  849 42.8919 -3.75759 2.93981
  850 33.8946 0.362197 -0.267497
  851 33.8954 0.361437 0.266902
  852 42.4540 -4.10336 -3.33962
  853 12.6697 1.68597 0.0949495
  854 12.6708 1.68303 -0.0907246
  855 17.8344 1.45440 -0.296171
  856 17.8366 1.45044 0.297877
  857 50.0189 -1.09729 2.49216
  858 2.64312 1.72507 2.51222
  859 2.63363 1.73211 -2.51206
  860 2.40258 0.375884 0.246847
  861 2.40150 0.375294 -0.246466
  862 23.2261 0.561483 0.145053
  863 23.2257 0.562664 -0.145242
  864 62.6890 -7.05040 5.78091
  865 38.9034 0.408562 -1.21533
  866 38.9045 0.401919 1.20905
  867 -0.124372 0.703927 0.856586
  868 -0.126083 0.703476 -0.855291
  869 39.1920 0.110101 0.332048
  870 39.1908 0.110637 -0.332801
  871 -7.99168 0.110652 -0.213421
  872 -7.99017 0.110786 0.213517
  873 -0.0377087 -3.92321 1.11875
  874 -0.0485704 -3.98443 -1.12793
  875 45.6255 -0.816152 5.71117
  876 -3.16023 0.711992 2.79982
  877 -3.16548 0.713713 -2.80049
  878 -0.0175435 -6.49714 -1.24737
  879 17.8644 0.935992 -0.129662
  880 17.8650 0.933957 0.129950
  881 33.3887 -1.74041 -5.18914
  882 33.6729 -1.93108 5.24353
  883 -1.56664 -0.592169 -3.56771
  884 -1.56167 -0.593279 3.56297
  885 1.40074 1.59686 2.67874
  886 1.39366 1.60079 -2.67693
  887 0.169593 -15.2745 0.966330
  888 0.130514 1.18260 3.28926
  889 0.121804 1.18654 -3.28897
  890 30.7534 -0.511222 -4.59289
  891 30.6943 -0.546749 4.63072
  892 53.3612 2.47014 7.41022
  893 11.7602 1.58748 -0.219021
  894 11.7596 1.59005 0.222102
  895 40.0784 0.416368 -0.920251
  896 40.0784 0.413316 0.916770
  897 -1.62929 -0.737410 3.09944
  898 -1.63109 -0.739415 -3.10333
  899 0.131863 -15.9651 -0.758880
  900 -2.50117 -0.202794 3.05845
  901 -2.50404 -0.202747 -3.06105
  902 0.997502 1.49540 -2.14588
  903 1.00225 1.49336 2.14815
  904 -0.124333 -0.968852 0.540480
  905 -0.125656 -0.967713 -0.541201
  906 2.85164 1.68147 -2.00384
  907 2.85691 1.67895 2.00716
  908 0.558742 -1.46684 3.49153
  909 0.472854 -1.36703 -3.63606
  910 38.3141 -0.978522 2.89967
  911 38.2165 -0.916661 -2.92903
  912 -13.4248 0.0580584 -0.129344
  913 -13.4229 0.0580936 0.129499
  914 -1.07732 -0.100862 0.514130
  915 -1.07616 -0.100986 -0.513842
  916 0.0553744 -9.26806 -1.14858
  917 -1.19109 -0.519551 -1.47791
  918 -1.19121 -0.518561 1.47857
  919 -5.25400 0.423237 2.35044
  920 -5.25815 0.424129 -2.35128
  921 11.3454 2.37545 -0.185319
  922 11.3416 2.37910 0.198477
  923 49.2330 4.13678 -1.43262
  924 -1.03833 1.17541 2.56491
  925 -1.04369 1.17750 -2.56390
  926 18.2307 1.06899 -4.64572
  927 18.2431 1.08498 4.71403
  928 -2.75620 0.848037 2.07675
  929 -2.76026 0.849156 -2.07582
  930 62.6597 -4.14880 -2.52028
  931 34.5979 1.40254 3.16669
  932 43.8988 -0.712539 -5.16779
  933 33.5523 0.679605 -1.95625
  934 33.5623 0.664138 1.95160
  935 -4.19815 0.553088 -1.08708
  936 -4.19565 0.553059 1.08819
  937 -8.45394 0.164557 1.20459
  938 -8.45753 0.164820 -1.20448
  939 -0.499399 -1.59171 -1.71927
  940 -0.496486 -1.59398 1.72310
  941 11.2594 0.992041 -0.153555
  942 11.2593 0.993766 0.154633
  943 -3.99432 0.372975 2.87146
  944 -3.99849 0.373653 -2.87333
  945 40.9704 0.118900 0.449437
  946 40.9694 0.119521 -0.450450
  947 -0.326751 -3.54054 2.64827
  948 0.935756 1.40161 -1.87038
  949 0.939557 1.40043 1.87265
  950 1.41976 1.03845 1.29714
  951 1.41753 1.03834 -1.29513
  952 6.23279 0.830771 -0.446641
  953 6.23348 0.831827 0.447693
  954 77.4242 7.78214 0.185034
  955 -0.288568 -0.0829942 -0.197895
  956 -0.289179 -0.0830217 0.198268
  957 2.29272 0.461368 -2.43377
  958 2.33246 0.436972 2.43130
  959 26.7570 1.32602 -1.95488
  960 26.7697 1.31129 1.95809
  961 2.83480 1.28305 -1.28180
  962 2.83706 1.28313 1.28431
  963 7.09513 -4.62369 8.97666
  964 51.9550 -0.316158 -0.320717
  965 51.8318 -0.303408 0.263119
  966 8.50311 -2.50426 7.61575
  967 8.79498 0.623676 0.0650322
  968 8.79440 0.622761 -0.0647161
  969 24.0676 -1.79185 -13.8328
  970 18.1632 0.578959 0.0887829
  971 18.1633 0.579932 -0.0887776
  972 2.13855 -3.07806 1.10245
  973 2.36458 -2.67947 -0.922971
  974 46.3264 0.000173524 0.157257
  975 46.3241 0.000259379 -0.157486
  976 -3.83204 -0.000405276 2.24291
  977 -3.83393 -0.000418210 -2.24451
  978 82.5581 10.1120 3.38310
  979 -0.406401 -2.74634 -3.55306
  980 0.319829 -14.6604 0.891665
  981 -0.0985018 -4.31485 3.29921
  982 47.7791 0.0386852 -0.622360
  983 47.7729 0.0366866 0.617534
  984 -0.634037 -1.15312 1.48026
  985 -0.635381 -1.15252 -1.47823
  986 57.7052 5.72724 -4.71970
  987 108.279 1.16979 -0.551601
  988 -0.152836 -0.220450 -0.215379
  989 -0.152706 -0.220908 0.215683
  990 27.0136 0.570662 -0.398609
  991 27.0144 0.569083 0.398043
  992 -0.423102 -2.65080 3.57826
  993 38.0031 0.375945 1.78323
  994 37.9982 0.390616 -1.79200
  995 49.7789 -3.45679 -2.74584
  996 -1.76638 -0.382118 1.68138
  997 -1.76621 -0.383261 -1.68158
  998 0.690865 -3.68784 2.79957
  999 -0.0979611 -6.39221 2.58526
  1000 -0.00629206 -6.44158 1.24360
  1001 48.9610 3.50475 -0.241486
  1002 57.3113 6.28334 3.05094
  1003 41.5120 -5.12602 -6.21663
  1004 0.528461 -6.55991 2.30113
  1005 0.689040 -9.57499 0.868668
  1006 10.9046 0.511508 0.0692670
  1007 10.9041 0.510662 -0.0691843
  1008 -0.466436 -0.530434 -0.696196
  1009 -0.466179 -0.530758 0.696898
  1010 0.334994 -5.38163 -2.92302
  1011 33.8581 0.254342 -0.0978798
  1012 33.8589 0.253885 0.0976824
  1013 6.26080 -0.717463 -2.42894
  1014 5.98289 -0.699231 2.40748
  1015 -0.957544 0.988679 3.26813
  1016 -0.965575 0.992072 -3.26904
  1017 -4.42178 0.639572 -2.05536
  1018 -4.41772 0.638651 2.05579
  1019 25.0252 0.433038 -4.65731
  1020 25.0527 0.447131 4.71684
  1021 17.7745 1.65060 -3.03670
  1022 17.7814 1.64656 3.07679
  1023 19.4937 1.69459 -0.875468
  1024 19.4984 1.68781 0.879328
  1025 51.7177 -1.83818 -6.98575
  1026 -1.64693 0.584980 3.50190
  1027 -1.65444 0.587000 -3.50492
  1028 36.8119 0.151714 2.40331
  1029 36.7940 0.181121 -2.41138
  1030 -0.333445 -2.13958 3.78022
  1031 -3.02635 -0.111383 1.63497
  1032 -3.02666 -0.111741 -1.63600
  1033 33.4292 0.529267 -2.37071
  1034 33.4451 0.507845 2.36675
  1035 39.4448 0.798129 -4.95676
  1036 -0.0734130 -6.37833 -2.71728
  1037 -0.537021 -2.52607 3.15450
  1038 -0.557829 -2.55098 -3.12555
  1039 23.1822 1.61959 -1.51817
  1040 23.1919 1.60856 1.52335
  1041 29.7856 0.796318 0.925644
  1042 29.7833 0.800534 -0.927384
  1043 49.6805 -3.37447 2.42410
  1044 1.66191 0.401881 -0.0710176
  1045 1.66303 0.402373 0.0711295
  1046 42.0502 -5.74667 6.64811
  1047 -1.03924 0.299149 0.306088
  1048 -1.04056 0.298704 -0.305662
  1049 8.48237 2.36081 0.587223
  1050 8.47534 2.36626 -0.577530
  1051 2.92690 1.84444 2.18559
  1052 2.92035 1.84818 -2.18243
  1053 0.421858 -8.10474 -1.94693
  1054 11.5357 0.684194 -0.157989
  1055 11.5358 0.685631 0.158657
  1056 33.2024 1.22315 1.29175
  1057 34.0710 0.481920 0.893683
  1058 34.0697 0.485433 -0.896068
  1059 -0.300817 -2.20727 -3.78451
  1060 51.4551 -0.630768 -1.32674
  1061 -0.191996 -0.350775 3.84910
  1062 -0.155511 -0.315048 -3.83574
  1063 47.5993 -0.0392400 -0.340553
  1064 47.5987 -0.0396898 0.339077
  1065 50.5662 -0.115961 -0.591176
  1066 50.5301 -0.123639 0.568789
  1067 -0.0390274 -9.77924 0.944413
  1068 28.8792 0.999608 -1.24053
  1069 28.8828 0.993084 1.23878
  1070 35.5574 0.533482 1.06445
  1071 35.5559 0.537763 -1.06775
  1072 0.504586 0.697768 3.56934
  1073 0.503077 0.699507 -3.56823
  1074 77.7920 5.59662 0.471089
  1075 -1.12427 -0.542898 3.84691
  1076 -1.13598 -0.533077 -3.85351
  1077 10.3187 2.28485 0.353427
  1078 10.3174 2.28500 -0.345909
  1079 -6.93482 0.192215 -0.420052
  1080 -6.93302 0.192416 0.420541
  1081 17.3243 0.779565 -5.39738
  1082 17.3123 0.832023 5.48265
  1083 4.63100 2.07593 1.82877
  1084 4.62346 2.08066 -1.82419
  1085 11.5956 1.05317 -3.73856
  1086 11.5398 1.11704 3.78783
  1087 -0.346907 -3.31944 -2.57629
  1088 41.8283 0.401798 6.31028
  1089 30.0012 -1.45475 18.2406
  1090 4.35816 2.08217 1.89545
  1091 4.34823 2.08939 -1.89166
  1092 17.7748 1.23269 -0.190178
  1093 17.7764 1.22936 0.191215
  1094 67.5274 -1.18783 3.45084
  1095 3.86880 0.779350 1.47221
  1096 3.81958 0.795546 -1.48194
  1097 -2.02698 -0.462986 2.25543
  1098 -2.02744 -0.464672 -2.25665
  1099 -0.0670009 -1.45029 0.593164
  1100 -0.0694659 -1.44916 -0.595402
  1101 44.1870 0.110068 1.46952
  1102 44.1860 0.130156 -1.48861
  1103 -0.00221021 -3.36698 3.56900
  1104 -3.16973 0.156839 -3.09625
  1105 -3.16596 0.156604 3.09403
  1106 0.0188097 -11.9748 -1.24413
  1107 -0.805736 -1.11217 3.83863
  1108 -0.804141 -1.09187 -3.84152
  1109 42.4965 0.180178 -0.619798
  1110 42.4967 0.178844 0.617775
  1111 43.4210 -0.170620 1.71874
  1112 43.4032 -0.138998 -1.73969
  1113 6.97475 1.34635 -0.793529
  1114 6.92316 1.38268 0.814756
  1115 -0.112135 -6.16924 -2.16535
  1116 57.4470 -6.84087 -10.2234
  1117 74.8286 7.97667 -1.64455
  1118 0.681594 -10.1540 -0.621505
  1119 2.25640 1.36685 -2.79707
  1120 2.26835 1.35751 2.79097
  1121 6.45354 2.25248 1.16431
  1122 6.44193 2.26160 -1.15716
  1123 14.2637 1.12558 -0.0805702
  1124 14.2630 1.12807 0.0817973
  1125 -1.00281 -1.42894 2.93365
  1126 -1.00076 -1.44086 -2.93661
  1127 -3.12066 0.860494 2.60995
  1128 -3.12566 0.862105 -2.60994
  1129 -1.34145 1.05257 3.03885
  1130 -1.34820 1.05530 -3.03912
  1131 41.0288 -2.06230 -2.76950
  1132 41.3135 -2.09282 2.72943
  1133 0.0215100 -7.23648 -2.61360
  1134 21.2108 -0.326354 -6.97490
  1135 21.2623 -0.255491 7.11745
  1136 6.38799 2.16039 -1.16568
  1137 6.39212 2.15786 1.17145
  1138 22.3023 5.80992 20.4821
  1139 4.84862 1.78446 1.40302
  1140 4.84548 1.78524 -1.39904
  1141 56.6774 -6.98868 -1.63141
  1142 20.7588 0.851842 0.189820
  1143 20.7579 0.854142 -0.189793
  1144 -0.979129 -0.878388 1.76679
  1145 -0.979217 -0.879963 -1.76547
  1146 -1.17914 -1.06576 2.30235
  1147 -1.17835 -1.06926 -2.30157
  1148 36.4400 -4.24786 -10.1517
  1149 37.2882 -4.63531 10.2378
  1150 5.84727 0.446178 -0.000518274
  1151 5.84809 0.446917 0.000846283
  1152 22.4545 1.12768 -3.67693
  1153 22.4667 1.10821 3.72357
  1154 50.7157 -7.53932 7.49647
  1155 45.9895 -0.0494118 0.0945719
  1156 45.9868 -0.0493601 -0.0946451
  1157 -4.42543 0.654538 2.31857
  1158 -4.42985 0.655609 -2.31859
  1159 -7.43930 0.257183 -1.25190
  1160 -7.43612 0.257015 1.25253
  1161 10.8534 -1.71526 11.7116
  1162 32.0455 2.35926 -2.59915
  1163 20.5390 1.69972 -1.63664
  1164 20.5501 1.68982 1.64901
  1165 67.0277 -4.05970 10.8338
  1166 20.8546 1.58489 -2.58632
  1167 20.8695 1.57141 2.60798
  1168 4.63701 0.866813 -0.593220
  1169 4.63798 0.867823 0.594514
  1170 1.69369 -8.15311 0.585379
  1171 1.71601 -8.01590 -1.04373
  1172 28.5064 -2.47536 -10.2174
  1173 28.9431 -2.34116 10.2298
  1174 10.7492 1.59668 -2.41356
  1175 10.7080 1.63799 2.45382
  1176 51.2337 -3.73452 -4.72532
  1177 -2.01387 -0.222925 3.48071
  1178 -2.01828 -0.222248 -3.48381
  1179 -0.0994750 -3.02252 -3.65923
  1180 12.3832 -0.421597 -7.17291
  1181 12.4228 -0.367226 7.32510
  1182 -0.0339193 -2.58702 0.665622
  1183 -0.0288316 -2.59284 -0.673365
  1184 -12.8217 0.114476 -0.364635
  1185 -12.8184 0.114459 0.364829
  1186 41.5199 0.109311 -0.155261
  1187 41.5214 0.109058 0.154828
  1188 24.8149 1.18973 -0.962927
  1189 24.8198 1.18292 0.963227
  1190 -1.10027 -0.119487 3.88047
  1191 -1.10296 -0.104967 -3.88627
  1192 0.00992263 -10.5991 -1.05981
  1193 -10.7918 0.0302839 0.562827
  1194 -10.7955 0.0303505 -0.562882
  1195 7.54534 -1.15534 -4.76163
  1196 7.48493 -1.10544 4.94503
  1197 47.7733 -2.95439 0.364644
  1198 12.8969 0.278114 -6.41036
  1199 12.9142 0.330632 6.49751
  1200 -5.88229 0.0297517 0.820835
  1201 -5.88342 0.0297585 -0.821442
  1202 0.141137 -9.63548 -1.93380
  1203 -2.47721 0.475646 -0.569995
  1204 -2.47559 0.476033 0.570781
  1205 6.54090 1.88481 1.15049
  1206 6.53812 1.88527 -1.14574
  1207 26.6310 0.402813 -0.143071
  1208 26.6313 0.402009 0.142955
  1209 36.4344 0.372975 0.682430
  1210 36.4336 0.375182 -0.684379
  1211 1.73354 -0.630489 2.48477
  1212 1.70801 -0.660510 -2.51448
  1213 0.276993 -5.64612 2.89554
  1214 64.9121 8.16793 4.21877
  1215 -2.01544 -0.165478 1.27309
  1216 -2.01494 -0.166051 -1.27331
  1217 0.213440 -5.28218 -2.99234
  1218 -0.200937 -3.08156 1.87217
  1219 -0.189522 -3.05866 -1.94106
  1220 51.7745 -0.543469 1.18585
  1221 0.0497820 -12.1808 1.09365
  1222 0.291362 -3.94221 -3.33209
  1223 5.34976 0.383898 0.0914983
  1224 5.34887 0.383265 -0.0914016
  1225 -0.563187 -2.30616 3.49912
  1226 -6.27059 0.375703 -1.09809
  1227 -6.26783 0.375639 1.09895
  1228 110.224 2.05864 2.92657
  1229 -3.18407 0.314708 3.15968
  1230 -3.18861 0.315273 -3.16195
  1231 24.0961 1.11132 -3.33288
  1232 24.1257 1.08637 3.35692
  1233 1.42439 -2.98025 -1.82095
  1234 23.0276 1.45635 -1.21653
  1235 23.0349 1.44729 1.21971
  1236 0.877244 -8.12411 -0.882838
  1237 -0.563711 -2.30767 -3.48902
  1238 -4.69688 0.250296 0.699382
  1239 -4.69879 0.250022 -0.698603
  1240 -1.96975 0.0632600 -3.59214
  1241 -1.96450 0.0628341 3.58946
  1242 48.8245 3.80702 5.38580
  1243 28.0745 0.470711 -3.62349
  1244 28.1153 0.453982 3.63274
  1245 -13.5788 0.0455119 -0.152858
  1246 -13.5765 0.0455297 0.153057
  1247 25.4795 0.893758 -0.666552
  1248 25.4812 0.890537 0.665907
  1249 -14.0826 -0.214373 -0.0334125
  1250 -14.0841 -0.214377 0.0334299
  1251 38.1439 -2.77019 -4.13656
  1252 -6.26994 0.0995821 1.77437
  1253 -6.27295 0.0998027 -1.77543
  1254 38.5636 -2.92473 4.09708
  1255 25.8353 1.22019 -1.41541
  1256 25.8419 1.21080 1.41585
  1257 2.86363 -9.94738 -4.75601
  1258 0.0532559 -8.72478 -2.25519
  1259 -0.213190 -3.70196 3.28788
  1260 85.0862 10.8227 -9.47412
  1261 -0.0236703 -8.11007 2.16319
  1262 87.8065 8.21294 -4.23510
  1263 -0.0320580 -14.9592 -1.06322
  1264 3.37177 0.584648 -0.277971
  1265 3.37278 0.585399 0.278692
  1266 -0.0390587 -3.32825 0.698423
  1267 -0.0320697 -3.34507 -0.695841
  1268 14.0027 0.615544 -0.0750569
  1269 14.0029 0.616630 0.0752218
  1270 51.9262 -4.26921 4.53506
  1271 0.290580 0.525126 -0.662137
  1272 0.291973 0.525663 0.663058
  1273 0.304549 -16.9860 0.689521
  1274 0.194225 -17.9940 -0.673654
  1275 47.7506 -6.39531 -4.24587
  1276 -0.140524 -4.42747 2.08473
  1277 48.6438 2.82929 -6.55616
  1278 -0.150301 -5.83613 2.05736
  1279 0.0958528 -16.2719 -0.884061
  1280 23.6510 0.956573 -0.677054
  1281 23.6538 0.951642 0.677085
  1282 -0.0146034 -8.60959 0.929408
  1283 -0.0252951 -7.24543 -2.11201
  1284 118.859 18.4878 16.4209
  1285 46.2259 0.0828583 0.0765001
  1286 46.2231 0.0828539 -0.0765081
  1287 0.965961 -0.156669 3.31057
  1288 0.932402 -0.107616 -3.32066
  1289 -0.948084 0.568444 3.71584
  1290 -0.961128 0.571190 -3.71946
  1291 47.7052 -0.962111 -3.68867
  1292 44.6956 -1.80842 -1.46313
  1293 44.6327 -2.07609 1.45836
  1294 5.95051 0.966240 0.634477
  1295 5.94969 0.965023 -0.632787
  1296 -7.70341 0.213039 -1.44084
  1297 -7.69970 0.212681 1.44074
  1298 49.9091 -7.57397 -6.24600
  1299 -0.378754 -0.903795 0.914420
  1300 -0.380040 -0.902768 -0.913785
  1301 52.3663 -2.60832 6.58058
  1302 -0.578385 -2.13838 2.52497
  1303 -0.572235 -2.14551 -2.51295
  1304 -5.36278 0.388790 0.823163
  1305 -5.36500 0.388634 -0.822279
  1306 7.39520 0.388450 -2.15168
  1307 7.31904 0.436692 2.15748
  1308 11.7723 0.584706 0.150215
  1309 11.7719 0.583608 -0.149939
  1310 -5.43042 0.525455 2.25640
  1311 -5.43456 0.526286 -2.25679
  1312 43.1945 0.213478 0.119150
  1313 43.1923 0.213501 -0.119179
  1314 22.7358 -1.08975 13.7280
  1315 34.8522 0.282858 0.238330
  1316 34.8512 0.283380 -0.238714
  1317 22.3027 0.428527 -5.25862
  1318 22.3189 0.398007 5.31691
  1319 0.204547 -9.90399 -1.55252
  1320 8.31632 1.95025 -0.565400
  1321 8.28424 1.97634 0.587348
  1322 -0.0789903 -0.0787974 -0.108386
  1323 -0.0793687 -0.0788474 0.108692
  1324 29.3268 1.14857 1.91744
  1325 29.3166 1.16351 -1.91827
  1326 14.0836 1.43653 0.0187852
  1327 14.0824 1.43963 -0.0164511
  1328 21.1701 1.47276 -0.746035
  1329 21.1746 1.46647 0.748057
  1330 28.2837 0.421314 -0.236172
  1331 28.2842 0.420510 0.235917
  1332 -0.911260 -0.447545 -1.03493
  1333 -0.911409 -0.447250 1.03575
  1334 -9.34107 0.0550635 0.490553
  1335 -9.34335 0.0549998 -0.490022
  1336 -1.59145 -0.748505 -2.58555
  1337 -1.59122 -0.745389 2.58404
  1338 -5.73928 0.173442 0.216405
  1339 -5.74079 0.173211 -0.216165
  1340 -14.1851 0.141670 0.0891842
  1341 -14.1868 0.141645 -0.0890836
  1342 54.0029 -7.76879 8.76109
  1343 36.7353 -0.322585 -5.05382
</Section>

newXOutput 8

<Section columns = "stress_xx | stress_yy | stress_xy">
  1 55.6111 -0.0351262 0.0488693
  2 55.6152 -0.0351488 -0.0488950
  3 -17.8289 0.101616 -0.237684
  4 0.0290893 0.00892453 0.0506708
  5 103.897 23.6272 31.0179
  6 117.278 27.2046 -29.4607
  7 0.0290034 0.00883963 -0.0505583
  8 -17.8268 0.101633 0.237703
  9 55.4286 -0.0302999 -0.180753
  10 55.4611 -0.128283 -0.300990
  11 55.9924 -0.121969 -0.0723928
  12 56.0263 -0.104839 -0.339377
  13 56.1183 -0.0975838 -0.0890110
  14 57.3223 -0.104402 -0.130088
  15 57.7048 -0.171561 -0.453524
  16 58.0822 -0.0575992 -0.300896
  17 58.2826 0.100116 -0.582064
  18 60.7157 -0.275360 -0.500242
  19 61.6924 -0.192916 -0.656169
  20 62.7256 -0.328578 -0.203457
  21 63.1398 -0.466333 -0.0746575
  22 62.3592 -0.565939 0.982801
  23 59.7622 -0.661248 1.98152
  24 53.9181 -0.809085 4.10815
  25 44.8155 0.355937 4.73392
  26 37.1000 0.388447 4.48441
  27 26.6214 1.05336 2.72508
  28 28.5525 1.02973 0.164107
  29 22.9071 3.14462 -1.77847
  30 34.7402 1.39254 -4.75833
  31 41.5330 0.276875 -3.92654
  32 52.6245 -0.212193 -3.39720
  33 58.8578 -0.802111 -2.35085
  34 62.1856 -0.662758 -0.984859
  35 62.9520 -0.448500 0.0733017
  36 62.5896 -0.323324 0.181735
  37 61.6215 -0.194943 0.630839
  38 60.6759 -0.280201 0.484784
  39 58.2673 0.0971268 0.573728
  40 58.0758 -0.0587384 0.297403
  41 57.7039 -0.172204 0.451874
  42 57.3236 -0.104728 0.129226
  43 56.1209 -0.0977442 0.0885243
  44 56.0297 -0.104991 0.339195
  45 55.9962 -0.122061 0.0722769
  46 55.4651 -0.128335 0.301004
  47 55.4326 -0.0303178 0.180762
  48 52.2153 0.235504 -0.0625584
  49 48.1100 0.212885 -0.150705
  50 43.0218 0.0711985 -0.167292
  51 37.7914 0.410696 -0.139140
  52 33.2565 0.401659 -0.113056
  53 28.4424 0.564315 -0.135720
  54 23.7293 0.802021 -0.0926322
  55 18.8746 0.741519 -0.174058
  56 14.8743 0.582587 -0.235997
  57 9.65911 0.439192 -0.248337
  58 4.39038 0.505507 -0.187088
  59 0.0103050 0.411296 -0.180472
  60 -5.42833 0.265491 -0.168823
  61 -9.46940 0.0332214 -0.382232
  62 -13.3760 -0.225380 -0.178075
  63 -17.3181 0.0514935 0.106875
  64 -18.1461 0.315500 -0.0591963
  65 -18.1783 0.147280 0.0328464
  66 -17.5619 0.0831178 -0.0422906
  67 -17.6751 0.207752 -0.235895
  68 -17.3571 0.247984 -0.0533041
  69 -16.3838 0.0843862 -0.354162
  70 -16.4782 0.151643 -0.376155
  71 -16.0157 0.145617 -0.226400
  72 -14.7963 0.0963380 -0.327060
  73 -14.1640 0.159878 -0.517555
  74 -13.2656 0.174849 -0.434871
  75 -11.6970 0.0907759 -0.718052
  76 -10.8055 0.0276300 -0.601422
  77 -9.23944 0.0398161 -0.684920
  78 -7.87930 0.0250731 -0.747843
  79 -6.71186 0.00668085 -0.589847
  80 -5.11343 0.0324875 -0.591961
  81 -3.74297 -0.0187138 -0.628947
  82 -2.41896 -0.0713501 -0.545687
  83 -1.37614 -0.0619682 -0.414168
  84 -0.667541 -0.105508 -0.343058
  85 -0.0976423 -0.0607398 -0.118568
  86 0.0176600 -0.0654592 -0.0395690
  87 -0.0358187 -0.0271273 -0.00323679
  88 -0.0947919 -0.0726180 -0.103268
  89 -0.0917037 -0.562199 -0.296795
  90 -0.0800038 -1.27792 -0.429004
  91 -0.0427423 -2.20855 -0.629327
  92 -0.0235537 -3.40427 -0.543803
  93 -0.0235786 -4.51739 -0.685553
  94 -0.0864050 -5.89447 -0.779137
  95 -0.0350116 -7.58189 -0.793041
  96 0.0168053 -9.28314 -0.763153
  97 0.0377354 -11.1136 -0.755935
  98 0.0557782 -13.0052 -0.748705
  99 0.0109713 -14.4404 -1.01803
  100 0.104190 -16.4362 -0.914963
  101 0.122887 -18.7875 -0.752713
  102 0.0127472 -19.9353 -1.00289
  103 0.175111 -21.7657 -0.946645
  104 0.407606 -24.2193 -0.552608
  105 0.785500 -25.1178 -0.873814
  106 0.500959 -23.7912 0.183193
  107 0.633522 -19.3258 1.57553
  108 4.17372 -13.9785 5.62149
  109 13.7829 11.2437 22.3650
  110 161.903 8.00747 15.2821
  111 138.382 2.65497 5.70215
  112 133.947 1.11943 1.22916
  113 133.072 0.526907 -0.213149
  114 133.879 1.63119 -3.01753
  115 137.611 4.68560 -6.61396
  116 156.855 15.6596 -19.2643
  117 32.2421 8.41036 -27.4953
  118 6.71270 -13.7346 -7.16954
  119 1.94438 -21.1032 -2.44371
  120 0.522820 -22.6478 -0.232412
  121 0.623682 -24.2534 0.587313
  122 0.187091 -23.3263 0.460082
  123 0.0787885 -21.2324 0.833442
  124 0.0783737 -19.8826 0.667931
  125 0.104357 -17.8034 1.04930
  126 -0.00465885 -16.5667 0.999714
  127 0.0414897 -14.9270 0.724726
  128 0.0758791 -12.8437 0.902270
  129 0.0124735 -11.3640 0.716745
  130 0.0233037 -9.30375 0.903669
  131 -0.0927961 -7.67122 0.774034
  132 -0.0676941 -5.90068 0.755909
  133 -0.0177827 -4.49427 0.687767
  134 -0.0298672 -3.38543 0.545406
  135 -0.0420117 -2.20221 0.623487
  136 -0.0789475 -1.27693 0.426933
  137 -0.0912421 -0.562981 0.296576
  138 -0.0947026 -0.0733697 0.103444
  139 -0.0358205 -0.0274657 0.00345629
  140 0.0172617 -0.0655315 0.0397842
  141 -0.0984400 -0.0607341 0.118870
  142 -0.668925 -0.105459 0.343439
  143 -1.37815 -0.0618203 0.414369
  144 -2.42093 -0.0711670 0.545630
  145 -3.74434 -0.0185635 0.628564
  146 -5.11399 0.0325153 0.591490
  147 -6.71130 0.00672196 0.589375
  148 -7.87777 0.0251014 0.747358
  149 -9.23672 0.0397779 0.684465
  150 -10.8019 0.0275740 0.601060
  151 -11.6929 0.0907069 0.717786
  152 -13.2611 0.174770 0.434743
  153 -14.1593 0.159805 0.517531
  154 -14.7918 0.0963017 0.327137
  155 -16.0114 0.145590 0.226521
  156 -16.4741 0.151616 0.376304
  157 -16.3802 0.0843761 0.354338
  158 -17.3539 0.247987 0.0534850
  159 -17.6721 0.207767 0.236037
  160 -17.5592 0.0831319 0.0424004
  161 -18.1759 0.147296 -0.0327689
  162 -18.1438 0.315519 0.0592606
  163 -17.3160 0.0515026 -0.106838
  164 -13.3739 -0.225324 0.178116
  165 -9.46733 0.0333709 0.382278
  166 -5.42642 0.265774 0.168895
  167 0.0119164 0.411746 0.180531
  168 4.39170 0.506145 0.187142
  169 9.66001 0.440024 0.248395
  170 14.8748 0.583555 0.236027
  171 18.8748 0.742568 0.174072
  172 23.7291 0.803065 0.0926002
  173 28.4420 0.565248 0.135654
  174 33.2558 0.402437 0.112964
  175 37.7903 0.411239 0.139009
  176 43.0201 0.0715351 0.167142
  177 48.1075 0.212986 0.150613
  178 52.2120 0.235503 0.0625164
  179 13.5079 2.64208 0.0103799
  180 13.5057 2.64265 0.00165368
  181 -0.531068 0.267761 4.41081
  182 -0.544070 0.268739 -4.40900
  183 31.8026 -0.499619 -6.55168
  184 31.7984 -0.569256 6.63272
  185 5.96505 1.08128 0.468345
  186 5.89443 1.11358 -0.458886
  187 3.89429 1.01168 -0.916137
  188 3.89592 1.01257 0.917907
  189 30.4528 0.906827 -0.847371
  190 30.4556 0.902166 0.846608
  191 -1.15294 1.30468 2.57431
  192 -1.15832 1.30642 -2.57277
  193 35.4370 1.20034 -2.40826
  194 35.4534 1.18043 2.40782
  195 -1.45122 -1.27969 3.29612
  196 -1.44986 -1.28608 -3.29862
  197 0.214199 -3.23469 -4.16169
  198 10.4502 -0.246665 -5.59665
  199 0.285252 -3.44663 4.07970
  200 10.2798 -0.148463 5.71620
  201 50.5169 -7.47252 -9.65476
  202 52.4275 -7.77354 9.20266
  203 17.5241 0.912577 0.0186873
  204 17.5243 0.910691 -0.0181878
  205 -3.82512 0.336728 -0.563431
  206 -3.82308 0.337122 0.564055
  207 -4.38210 0.605525 3.34645
  208 -4.38783 0.606996 -3.34826
  209 17.5876 1.95924 -0.130841
  210 17.5899 1.95528 0.134441
  211 5.02898 2.22828 2.13233
  212 5.01203 2.24242 -2.13074
  213 -5.87745 0.631591 -1.51525
  214 -5.87379 0.631387 1.51633
  215 41.1967 0.311181 0.442665
  216 41.1954 0.312317 -0.443651
  217 1.16982 -6.16888 2.15290
  218 1.27496 -5.65639 -1.98880
  219 -0.424621 -3.58189 3.75901
  220 -0.429703 -3.70482 -3.63444
  221 16.1380 2.43569 -2.17223
  222 16.1310 2.44447 2.20862
  223 -3.80621 -0.0488183 3.26313
  224 -3.80949 -0.0488090 -3.26563
  225 44.0861 0.495581 -1.39480
  226 44.0874 0.489714 1.38958
  227 47.1796 -0.488817 -2.68462
  228 47.2101 -0.543958 2.66059
  229 74.4967 6.12982 -0.234657
  230 68.3878 7.28662 5.89838
  231 68.3011 -1.49251 -7.86364
  232 7.56875 2.02675 1.25026
  233 7.56639 2.02670 -1.24562
  234 0.113449 1.49967 3.53771
  235 0.104271 1.50419 -3.53715
  236 52.6599 -3.20133 -1.42480
  237 52.3377 -3.24670 1.58334
  238 28.7797 0.572551 -0.278665
  239 28.7805 0.570935 0.278296
  240 -6.94387 0.481213 2.27933
  241 -6.94866 0.482053 -2.27946
  242 -0.903878 -0.891856 -1.45123
  243 -0.903444 -0.891740 1.45260
  244 -8.01227 0.259539 0.809718
  245 -8.01506 0.259352 -0.808897
  246 23.2818 2.06163 -1.37864
  247 23.2896 2.05214 1.38597
  248 29.8363 1.11538 -3.61583
  249 29.8674 1.09126 3.63339
  250 6.48737 0.696217 -0.183715
  251 6.48846 0.697132 0.184296
  252 16.8324 -1.33922 -13.1365
  253 20.0940 -0.722160 14.5063
  254 2.00857 0.851531 3.49306
  255 2.00008 0.875695 -3.50066
  256 72.5361 -6.90398 0.177093
  257 5.55315 2.41318 1.84115
  258 5.54649 2.41702 -1.83572
  259 16.4427 1.59383 -4.54428
  260 16.4197 1.64126 4.61386
  261 80.3823 10.4827 -2.75412
  262 47.8126 0.240843 1.88885
  263 47.8086 0.259471 -1.90317
  264 -0.446291 -2.70256 -2.30463
  265 -0.435550 -2.71451 2.31461
  266 -0.112841 -6.52355 -3.25182
  267 0.170873 -7.81855 -3.14628
  268 0.0813486 -7.73668 3.23460
  269 -1.30805 -1.15367 4.32547
  270 -1.31185 -1.14997 -4.33822
  271 2.32197 -6.98901 -0.312380
  272 2.48932 -6.54002 0.694514
  273 -2.78521 -0.246219 2.02890
  274 -2.78547 -0.247094 -2.02993
  275 33.4790 1.24500 -1.44530
  276 33.4855 1.23557 1.44353
  277 59.2759 -6.51766 0.508764
  278 12.2897 1.37029 -0.332234
  279 12.2897 1.37234 0.334011
  280 -0.174646 -6.10918 3.10026
  281 0.531150 1.32856 1.77881
  282 0.527610 1.32905 -1.77650
  283 95.5228 6.99045 -1.81585
  284 46.6304 0.215874 0.559437
  285 46.6293 0.217267 -0.561293
  286 30.1114 -1.84338 -10.0287
  287 30.4164 -1.81542 10.2142
  288 59.1850 -6.15951 -1.50907
  289 -5.80828 0.164770 2.60127
  290 -5.81184 0.165053 -2.60305
  291 58.2938 -6.27139 16.8086
  292 -2.73455 0.353583 3.99176
  293 -2.74081 0.354096 -3.99502
  294 9.11420 2.53742 0.00330042
  295 9.08285 2.56283 0.0154711
  296 -11.2040 0.142082 0.159369
  297 -11.2062 0.141987 -0.159169
  298 48.8417 -1.04151 -23.2567
  299 -10.1560 0.224020 -1.26177
  300 -10.1518 0.223768 1.26216
  301 -0.420814 -1.42317 4.51130
  302 -0.287819 -1.40287 -4.48368
  303 20.6930 2.34594 -2.05055
  304 20.7013 2.33916 2.07083
  305 3.81091 0.749118 0.684038
  306 3.80951 0.748237 -0.682968
  307 21.7280 1.17148 -0.305789
  308 21.7293 1.16833 0.306324
  309 1.85762 -2.09688 2.76202
  310 1.69186 -2.42228 -2.77214
  311 21.0860 0.693327 -0.0413906
  312 21.0861 0.691997 0.0414202
  313 -8.18058 0.211500 1.93499
  314 -8.18477 0.211872 -1.93593
  315 4.98564 -1.19851 -0.501993
  316 4.82686 -1.19922 0.371215
  317 48.8569 0.108076 0.154009
  318 48.8544 0.108262 -0.154259
  319 108.043 6.39763 3.64445
  320 10.0761 1.67337 0.681644
  321 10.0755 1.67163 -0.678478
  322 -3.09348 0.640053 1.13865
  323 -3.09620 0.639844 -1.13729
  324 14.1949 2.24417 0.116168
  325 14.1955 2.24138 -0.109249
  326 1.34107 1.43038 3.71135
  327 1.33348 1.43507 -3.71352
  328 0.206800 -11.1645 2.35827
  329 -11.5029 0.0760698 -0.340877
  330 -11.5004 0.0761708 0.341249
  331 36.7278 0.377296 -0.284856
  332 36.7288 0.376432 0.284399
  333 38.7048 0.530989 -0.756412
  334 38.7064 0.528033 0.754456
  335 -10.5929 0.219035 -0.948399
  336 -10.5894 0.219022 0.949053
  337 -1.11830 0.337887 0.166877
  338 -1.11999 0.337452 -0.166589
  339 -0.233720 -4.44271 2.31289
  340 -0.187211 -4.61931 -2.30966
  341 43.0480 -3.78533 -6.65312
  342 44.8218 -4.51826 6.50977
  343 25.2832 1.56882 -0.822893
  344 25.2871 1.56264 0.824026
  345 10.6580 2.68830 0.271882
  346 10.6454 2.69774 -0.257093
  347 -4.59509 0.827664 2.10945
  348 -4.59953 0.828522 -2.10849
  349 82.5239 -0.423085 0.0742190
  350 3.94130 -7.97075 -3.78276
  351 4.21999 -7.61241 4.02068
  352 -2.17478 1.24565 3.28238
  353 -2.18165 1.24823 -3.28236
  354 -2.36155 -0.521756 3.80165
  355 -2.36529 -0.521901 -3.80583
  356 93.1245 14.4207 -2.33530
  357 58.1673 -1.32314 8.87988
  358 55.4261 -1.18356 -1.07474
  359 55.3427 -1.15730 0.964348
  360 38.0930 -0.303459 -4.19863
  361 38.0554 -0.352280 4.19512
  362 0.0712811 -13.4340 -1.94366
  363 51.0484 0.276878 -1.07869
  364 51.0450 0.271299 1.07097
  365 0.618941 -12.8500 1.68843
  366 56.3869 4.36983 -5.26170
  367 13.4836 0.757994 0.252572
  368 13.4830 0.756929 -0.252384
  369 38.4411 0.518048 -3.12479
  370 38.4686 0.489303 3.12309
  371 41.8482 0.599403 -1.93308
  372 41.8538 0.586604 1.92579
  373 -1.62583 0.600129 0.811040
  374 -1.62799 0.599647 -0.809916
  375 23.1633 1.29359 -4.82184
  376 23.1825 1.30365 4.87990
  377 50.4073 0.106423 0.255110
  378 50.4051 0.106760 -0.255742
  379 27.4457 1.78868 -2.34825
  380 27.4609 1.77259 2.35823
  381 32.1939 0.803041 0.578621
  382 32.1924 0.805575 -0.579538
  383 -1.55598 -0.289196 1.23573
  384 -1.55535 -0.289774 -1.23535
  385 -0.364485 -0.260506 -0.349367
  386 -0.364710 -0.260716 0.349931
  387 66.7126 -9.30404 3.48698
  388 -0.913731 -2.17080 3.44187
  389 -0.907989 -2.18685 -3.44020
  390 9.94775 0.940384 -0.436446
  391 9.94831 0.941872 0.437560
  392 -0.335530 -1.64903 1.23865
  393 -0.339057 -1.64573 -1.23846
  394 3.45627 1.95745 2.00359
  395 3.45148 1.95930 -1.99991
  396 54.6412 -0.0811206 1.39888
  397 54.6471 -0.0571250 -1.43531
  398 -0.205263 -3.44436 4.25110
  399 -4.51349 -0.0931559 1.93893
  400 -4.51467 -0.0933788 -1.94037
  401 -0.222114 -3.62340 -4.20105
  402 51.5108 0.146738 0.684018
  403 51.5114 0.148490 -0.687160
  404 -0.821637 1.03326 4.06303
  405 -0.833644 1.03782 -4.06500
  406 37.4064 0.838528 -1.23614
  407 37.4093 0.832678 1.23309
  408 57.7208 -2.50160 -1.80399
  409 58.0135 -1.98647 1.41099
  410 -0.130413 -6.07464 -2.54874
  411 4.68785 1.65357 -1.75197
  412 4.72580 1.62991 1.75339
  413 55.0652 3.75174 3.35595
  414 31.8778 -2.48148 -14.0893
  415 32.8142 -3.10466 14.8194
  416 1.37058 1.80828 2.83189
  417 1.36348 1.81170 -2.82954
  418 23.4840 0.962332 -0.208352
  419 23.4847 0.960182 0.208333
  420 22.6675 1.14160 22.6003
  421 8.93008 2.38835 -1.09322
  422 8.93377 2.38696 1.10014
  423 0.507437 -6.19668 3.08432
  424 -0.0744566 -9.92281 -2.25206
  425 3.27377 2.15634 2.74574
  426 3.26415 2.16229 -2.74308
  427 3.95799 1.41923 -1.29497
  428 3.96022 1.41964 1.29759
  429 -1.81051 -0.182908 -4.35719
  430 -1.80412 -0.185552 4.35308
  431 10.8608 2.04531 -1.41303
  432 10.8187 2.08116 1.44546
  433 57.4098 -2.03867 -6.62910
  434 1.38185 -0.915137 3.67439
  435 1.33126 -0.892684 -3.68854
  436 41.7203 -1.73972 -4.64611
  437 41.9147 -1.88163 4.62885
  438 -10.9215 0.100196 -1.19167
  439 -10.9171 0.0999563 1.19155
  440 0.00296412 -9.69477 2.01234
  441 -0.0740781 -6.13451 2.26479
  442 -4.49565 0.253947 3.33856
  443 -4.49992 0.254278 -3.34093
  444 29.9022 0.556520 -0.0847610
  445 29.9028 0.555422 0.0845143
  446 -0.932030 -1.46931 2.30858
  447 -0.932919 -1.47186 -2.30514
  448 17.9864 0.523803 -7.12255
  449 17.9631 0.617478 7.23016
  450 0.153539 -11.9560 -2.31459
  451 107.956 4.30070 0.175513
  452 0.275887 -14.4864 -1.55253
  453 -13.2123 0.0397140 -0.474435
  454 -13.2093 0.0397824 0.474845
  455 -5.19277 0.682357 2.83027
  456 -5.19822 0.683746 -2.83089
  457 -5.69547 0.0759370 1.96040
  458 -5.69753 0.0760281 -1.96182
  459 19.8453 2.31231 -1.25739
  460 19.8513 2.30693 1.27015
  461 30.6606 1.52221 -1.82342
  462 30.6715 1.50867 1.82529
  463 -0.626608 -2.12353 4.37579
  464 -0.626767 -2.10864 -4.39228
  465 52.5135 0.550432 -8.38400
  466 3.35179 -1.52203 -1.28954
  467 3.23577 -1.55056 1.34958
  468 0.784231 -13.5104 0.357170
  469 0.486435 -15.4831 -0.689885
  470 -1.68569 -0.768418 2.38098
  471 -1.68551 -0.770697 -2.38101
  472 10.8436 -3.40106 -11.1337
  473 84.6515 -2.38182 -6.27637
  474 18.0452 1.48366 0.195009
  475 18.0437 1.48721 -0.193058
  476 26.4255 0.124178 -6.98304
  477 26.5067 0.113329 7.11049
  478 7.33223 2.78788 1.44075
  479 7.32253 2.79549 -1.43320
  480 23.8215 1.92593 -3.44466
  481 23.8423 1.91047 3.47901
  482 0.623513 0.286531 4.19330
  483 0.677329 0.313692 -4.18657
  484 -11.6249 0.194047 -0.919465
  485 -11.6209 0.193987 0.919920
  486 54.1243 -6.63023 -3.40500
  487 43.4729 0.225311 -0.219625
  488 43.4746 0.224949 0.219366
  489 1.42419 0.469451 -0.391676
  490 1.42576 0.470106 0.392312
  491 -3.28577 1.03960 2.71774
  492 -3.29134 1.04124 -2.71716
  493 -6.98873 0.455435 -1.06552
  494 -6.98560 0.455477 1.06653
  495 18.0214 2.07532 -0.367826
  496 18.0243 2.07052 0.373063
  497 -2.61068 0.833692 3.70189
  498 -2.61813 0.836174 -3.70372
  499 49.6565 -1.26299 -2.42481
  500 49.7323 -1.34190 2.36708
  501 31.8565 0.451038 -4.59760
  502 31.8172 0.418544 4.64251
  503 11.3106 0.810369 -0.267822
  504 11.3112 0.811632 0.268343
  505 0.0831462 -6.23593 -3.64164
  506 57.8755 -2.28200 5.47728
  507 0.675520 -4.34512 -3.47561
  508 15.7571 2.69813 1.17253
  509 15.7601 2.69447 -1.14987
  510 53.5225 -6.20627 3.33655
  511 3.73887 -7.75051 5.49911
  512 64.2548 -9.37076 -7.13282
  513 43.4663 0.403533 2.31419
  514 43.4537 0.426535 -2.32427
  515 0.0663809 -5.37006 3.78984
  516 -0.846505 -0.256707 -0.652775
  517 -0.847080 -0.256695 0.653405
  518 4.44746 0.478705 -0.138682
  519 4.44876 0.479395 0.138931
  520 -0.151642 -3.39562 1.47329
  521 -0.137581 -3.37880 -1.48010
  522 35.7718 0.632432 0.485009
  523 35.7706 0.633903 -0.485837
  524 103.152 16.7864 5.63899
  525 3.84191 -3.42054 -0.511016
  526 2.96989 -4.30878 -0.100125
  527 -1.73522 0.872329 -1.47837
  528 -1.73209 0.872254 1.48003
  529 -8.91377 0.143177 1.19211
  530 -8.91714 0.143324 -1.19281
  531 0.0843610 -11.1600 2.27472
  532 -13.1260 0.148696 0.158233
  533 -13.1284 0.148637 -0.157998
  534 10.4229 -2.06689 -8.00297
  535 10.1768 -1.84594 8.36179
  536 9.49420 1.35546 -2.27739
  537 9.42335 1.40603 2.30780
  538 -2.42985 -0.539281 3.30041
  539 -2.43189 -0.540821 -3.30349
  540 9.17546 1.12119 0.487971
  541 9.17485 1.11967 -0.486401
  542 -5.99104 0.334379 0.512511
  543 -5.99337 0.334114 -0.511791
  544 11.0068 1.91846 0.656229
  545 11.0063 1.91679 -0.651587
  546 -0.238521 -0.758904 0.556031
  547 -0.239264 -0.758063 -0.555862
  548 3.82049 1.63690 2.59554
  549 3.79618 1.66372 -2.59881
  550 3.09269 0.182912 2.38072
  551 3.04707 0.178550 -2.40132
  552 44.3537 0.519994 0.985549
  553 44.3526 0.522887 -0.988464
  554 38.8918 0.778785 1.52731
  555 38.8876 0.787275 -1.53165
  556 -0.0404420 -9.24241 -1.38417
  557 26.7214 1.65769 -1.31820
  558 26.7280 1.64891 1.32056
  559 26.8956 0.933594 -0.429242
  560 26.8973 0.930504 0.429006
  561 -4.61728 0.248325 -0.0345161
  562 -4.61540 0.248614 0.0346794
  563 43.3815 2.60931 -1.60846
  564 61.4191 -8.42457 -1.99451
  565 48.1293 2.09075 6.45660
  566 0.353876 -8.34579 -2.80949
  567 -3.32503 0.937370 -1.86911
  568 -3.32109 0.936868 1.87055
  569 0.346284 -4.92663 3.67274
  570 -2.87876 0.0244605 3.84691
  571 -2.88359 0.0247928 -3.84992
  572 77.7567 7.57260 -1.16511
  573 17.1045 1.10298 -0.00475017
  574 17.1049 1.10070 0.00558075
  575 122.779 10.0745 -9.76505
  576 -0.761692 -0.610598 4.56831
  577 -0.725809 -0.579902 -4.57311
  578 64.9651 -6.44463 3.85628
  579 52.7550 0.179601 -1.21247
  580 52.7483 0.171005 1.20022
  581 23.0949 -0.594573 -10.2988
  582 23.4035 -0.656223 10.4955
  583 -1.41694 -1.37268 3.83593
  584 -1.41736 -1.37851 -3.84354
  585 11.8545 0.515823 5.02086
  586 11.9530 0.414098 -4.95983
  587 -10.5272 0.127296 -1.14526
  588 -10.5229 0.127121 1.14492
  589 76.7157 5.26047 6.58196
  590 13.7958 1.58046 -0.255701
  591 13.7953 1.58299 0.258104
  592 16.3781 2.00202 -3.31585
  593 16.3640 2.02682 3.36855
  594 47.2282 0.106153 -2.29579
  595 47.2432 0.0767239 2.28016
  596 -0.239415 -4.95580 -3.47127
  597 52.1520 0.0269757 0.356028
  598 52.1500 0.0273934 -0.356884
  599 -8.30762 0.228002 -0.223700
  600 -8.30541 0.228190 0.224092
  601 -14.0514 -0.0586869 0.0164934
  602 -14.0536 -0.0587263 -0.0164204
  603 0.989718 -7.96824 -1.66650
  604 -0.506095 -3.17728 2.92677
  605 -0.533658 -3.01106 -2.94635
  606 -6.08050 0.356795 2.80316
  607 -6.08490 0.357497 -2.80474
  608 35.5662 1.15396 1.89423
  609 35.5578 1.16706 -1.89708
  610 25.9415 0.633680 0.108748
  611 25.9412 0.634772 -0.108835
  612 5.50841 -2.61136 2.85746
  613 5.70360 -2.49058 -2.81809
  614 -0.189424 -2.36116 1.23892
  615 -0.194752 -2.35290 -1.24265
  616 62.3972 1.37655 24.5885
  617 -3.04691 -0.100170 1.15544
  618 -3.04615 -0.100533 -1.15595
  619 0.960075 -4.89826 -2.93105
  620 25.2903 1.32107 -0.608694
  621 25.2927 1.31666 0.609024
  622 11.9324 2.63370 -0.643630
  623 11.9148 2.64824 0.667263
  624 0.129948 -17.1879 1.09302
  625 8.79053 2.68934 1.05743
  626 8.78475 2.69322 -1.04918
  627 -1.63136 1.14992 2.23803
  628 -1.63587 1.15095 -2.23638
  629 -0.0741559 -8.19608 1.89483
  630 -13.8050 0.0402347 -0.465802
  631 -13.8017 0.0402519 0.466171
  632 16.2808 0.720842 -0.0774334
  633 16.2810 0.722332 0.0777805
  634 43.2282 0.340046 0.633987
  635 43.2269 0.341601 -0.635515
  636 37.4177 -3.70297 18.7810
  637 30.0558 1.05282 -1.05751
  638 30.0598 1.04655 1.05702
  639 0.291587 -0.885672 4.33480
  640 0.390545 -0.604593 -4.34086
  641 48.4957 -5.89416 -15.0617
  642 119.366 4.28442 -4.07669
  643 -12.4824 0.0230963 -0.808416
  644 -12.4779 0.0229871 0.808486
  645 2.08714 0.797582 -0.794667
  646 2.08887 0.798293 0.795984
  647 -0.244834 -5.20095 3.04268
  648 65.3874 3.25175 -8.40983
  649 51.6164 -0.00145909 0.0544684
  650 51.6133 -0.00140770 -0.0545475
  651 -3.34025 -0.201893 -2.71927
  652 -3.33858 -0.201351 2.71723
  653 -0.00590458 -11.7246 -1.85573
  654 52.5380 -0.0210546 0.135270
  655 52.5350 -0.0209721 -0.135471
  656 4.03381 1.74874 1.73064
  657 4.03037 1.74931 -1.72715
  658 38.7027 -3.72306 -9.71869
  659 39.4775 -3.71784 9.84569
  660 58.1981 -0.280122 0.772512
  661 58.2413 -0.274434 -0.819422
  662 0.248804 -14.9890 1.54654
  663 -4.01631 0.216612 -0.306200
  664 -4.01437 0.216944 0.306620
  665 18.4590 -1.55333 -17.4562
  666 16.9853 0.675574 0.0904894
  667 16.9856 0.676678 -0.0904067
  668 7.88183 0.865991 0.284838
  669 7.88090 0.864799 -0.283960
  670 9.56546 1.35100 -0.478012
  671 9.56603 1.35274 0.480279
  672 33.0736 1.17673 -2.92286
  673 33.0969 1.15379 2.92870
  674 8.26183 2.51112 0.769685
  675 8.24104 2.52845 -0.758667
  676 -6.65544 0.504483 -1.71822
  677 -6.65133 0.504023 1.71904
  678 -7.55890 0.518289 -1.90912
  679 -7.55441 0.517666 1.90944
  680 59.5187 -0.850550 -0.423578
  681 -0.0459773 -2.65568 -4.33248
  682 59.6833 -0.892915 0.319383
  683 74.2554 6.10858 0.586929
  684 -7.53861 0.0325368 1.34751
  685 -7.54116 0.0326113 -1.34845
  686 7.16888 1.96485 0.296971
  687 7.11965 1.99432 -0.283446
  688 -14.8719 0.0381640 -0.190344
  689 -14.8691 0.0382027 0.190605
  690 -0.0124998 -2.41972 4.35726
  691 -4.79952 0.0454360 2.90468
  692 -4.80283 0.0455634 -2.90680
  693 65.0508 -6.08923 -4.12812
  694 9.41721 0.488296 -0.0131018
  695 9.41631 0.487430 0.0132994
  696 1.58832 1.09294 1.24486
  697 1.58597 1.09250 -1.24287
  698 33.5405 -1.74058 -8.02999
  699 33.8315 -1.80968 8.21043
  700 124.337 8.57780 9.03818
  701 2.11126 -13.1645 -3.10813
  702 -0.941244 -1.94216 4.12742
  703 -0.943851 -1.94804 -4.13390
  704 6.47571 1.77252 -1.10006
  705 6.47765 1.77318 1.10352
  706 53.9934 -0.00852357 -0.367816
  707 53.9945 -0.00895115 0.366586
  708 24.7199 0.725620 0.133540
  709 24.7194 0.727326 -0.133682
  710 1.62934 1.79385 3.36533
  711 1.62006 1.79963 -3.36451
  712 0.440701 0.629615 0.564191
  713 0.438989 0.628996 -0.563339
  714 -1.72504 0.261033 4.33064
  715 -1.73343 0.262664 -4.33551
  716 43.9456 0.166604 0.257567
  717 43.9440 0.167159 -0.258136
  718 37.6938 0.592894 0.708245
  719 37.6924 0.595013 -0.709596
  720 4.65769 -4.53157 3.57888
  721 4.81006 -4.76572 -3.42786
  722 -3.21365 0.602974 3.78043
  723 -3.22022 0.604407 -3.78311
  724 1.38858 -4.17423 2.46538
  725 -0.191618 1.00548 4.12740
  726 -0.204540 1.00990 -4.12699
  727 -8.98819 0.287939 -1.16461
  728 -8.98454 0.287818 1.16537
  729 5.90540 2.21730 1.71145
  730 5.90037 2.21928 -1.70617
  731 58.2353 -1.84409 -3.80257
  732 55.2446 -4.97301 -0.679632
  733 -0.925529 -1.88535 2.87121
  734 -0.923723 -1.89304 -2.86642
  735 20.6320 -1.04818 -12.1794
  736 20.0632 -0.561364 12.3393
  737 12.3308 2.37219 -1.31342
  738 12.3054 2.39596 1.34582
  739 0.963838 -2.50175 3.67885
  740 -0.0859509 -6.01924 -1.63041
  741 26.6117 1.69790 -2.60246
  742 26.6311 1.68192 2.61892
  743 0.0777486 -11.9350 1.53608
  744 15.5269 2.43743 -0.314573
  745 15.5281 2.43447 0.324385
  746 56.5444 0.0374494 -0.924641
  747 56.5259 0.0291252 0.905990
  748 1.02628 -17.3431 -0.110108
  749 24.4560 2.10553 1.88700
  750 24.4452 2.11694 -1.87668
  751 6.24313 2.21363 -1.37099
  752 6.27283 2.18874 1.37553
  753 -10.2850 0.0695301 -0.955561
  754 -10.2811 0.0694207 0.955079
  755 27.4646 0.778479 -0.400850
  756 27.4657 0.776295 0.400498
  757 16.4400 2.60657 -0.931738
  758 16.4405 2.60562 0.948574
  759 -0.361269 1.50883 3.27636
  760 -0.368948 1.51235 -3.27543
  761 55.4231 -4.23402 0.0197785
  762 -9.36553 0.248566 0.898960
  763 -9.36862 0.248493 -0.898232
  764 124.016 21.4612 -15.0485
  765 -4.05270 0.445181 0.994588
  766 -4.05526 0.444856 -0.993486
  767 47.4844 0.333246 1.64575
  768 47.4838 0.344564 -1.65643
  769 88.0686 5.99726 0.280720
  770 54.3291 -0.0690622 -0.711371
  771 54.3265 -0.0706463 0.707724
  772 33.9394 0.779902 0.863990
  773 33.9375 0.783370 -0.865411
  774 50.9753 -6.65185 13.7002
  775 21.5189 1.90201 -0.521016
  776 21.5228 1.89631 0.524129
  777 0.457288 -9.54992 2.18205
  778 58.7091 -7.95121 3.82915
  779 35.5076 0.366280 0.155247
  780 35.5067 0.367017 -0.155436
  781 47.2428 0.177295 0.0838435
  782 47.2405 0.177451 -0.0839600
  783 -0.226358 -4.83356 -2.83630
  784 0.254618 -8.49834 2.95268
  785 20.2397 2.41100 2.62629
  786 20.2315 2.41484 -2.59539
  787 123.951 1.51347 0.959967
  788 35.6622 0.512555 -3.72415
  789 35.6942 0.485066 3.73116
  790 -7.85932 0.263470 2.12869
  791 -7.86395 0.264054 -2.12924
  792 1.38067 -7.33902 1.11734
  793 0.915956 -16.3485 -0.543886
  794 82.5606 10.4880 0.174565
  795 -0.0762668 -5.99675 1.47032
  796 1.33142 1.01956 3.82448
  797 1.32911 1.02071 -3.83434
  798 10.2888 2.33484 0.790854
  799 10.2871 2.33467 -0.784624
  800 55.1693 -2.46562 -0.457058
  801 55.2186 -2.45198 0.222438
  802 66.2188 5.68259 -23.1436
  803 -9.67910 0.162262 -0.454876
  804 -9.67644 0.162408 0.455461
  805 -4.19008 -0.0218775 1.09477
  806 -4.18983 -0.0220074 -1.09551
  807 3.62964 -0.142962 1.67748
  808 3.55217 -0.147832 -1.67823
  809 41.4222 -0.0382240 3.37248
  810 41.3884 0.00621322 -3.37224
  811 20.6391 0.852487 0.00705877
  812 20.6395 0.850715 -0.00690602
  813 67.3799 -1.93416 7.82610
  814 6.32876 1.32075 -0.967577
  815 6.33017 1.32187 0.970083
  816 6.12167 0.390295 -0.302043
  817 6.06656 0.426291 0.325079
  818 -0.0775003 -4.93813 -3.92231
  819 97.5350 11.9857 11.5333
  820 -14.3793 0.0295663 -0.457418
  821 -14.3755 0.0295490 0.457717
  822 -0.0208635 -14.6626 1.49063
  823 0.840531 -2.46248 -3.70366
  824 -2.06207 -0.131223 0.804354
  825 -2.06072 -0.131484 -0.804363
  826 76.6320 3.18340 -6.30254
  827 19.0705 2.18838 -0.645082
  828 19.0748 2.18301 0.652990
  829 52.4736 -0.604740 -1.68028
  830 52.5072 -0.618180 1.63995
  831 -13.6657 0.118762 0.591420
  832 -13.6700 0.118798 -0.591231
  833 -0.0902778 -0.0939770 -0.0740164
  834 -0.0904522 -0.0941484 0.0742943
  835 0.0543524 -15.0108 -1.47432
  836 0.0741460 -16.0262 -1.41812
  837 -15.3996 0.167015 0.102352
  838 -15.4019 0.166984 -0.102241
  839 7.40214 -4.26709 -7.57662
  840 32.1287 0.679559 -0.219557
  841 32.1295 0.678294 0.219105
  842 -1.93688 0.403727 0.129315
  843 -1.93862 0.403336 -0.129195
  844 48.5644 0.302606 -1.10648
  845 48.5637 0.298493 1.10111
  846 -5.52485 0.0371087 1.04583
  847 -5.52543 0.0371264 -1.04660
  848 28.4560 -1.29996 -18.7520
  849 50.0172 -4.37895 3.44525
  850 39.5172 0.415895 -0.313382
  851 39.5184 0.415029 0.312707
  852 49.5080 -4.78148 -3.91169
  853 14.7926 1.95982 0.0998826
  854 14.7937 1.95649 -0.0950064
  855 20.8122 1.68839 -0.353663
  856 20.8147 1.68388 0.355647
  857 58.3227 -1.27875 2.89343
  858 3.09465 2.01377 2.91584
  859 3.08345 2.02198 -2.91582
  860 2.82411 0.433487 0.285342
  861 2.82268 0.432820 -0.284911
  862 27.0927 0.646841 0.171240
  863 27.0922 0.648184 -0.171452
  864 73.0678 -8.18171 6.77711
  865 45.3542 0.470654 -1.42021
  866 45.3558 0.462980 1.41301
  867 -0.124316 0.817147 0.992701
  868 -0.126511 0.816652 -0.991239
  869 45.6847 0.123716 0.388397
  870 45.6831 0.124330 -0.389252
  871 -9.29519 0.126937 -0.248239
  872 -9.29312 0.127088 0.248344
  873 -0.0438642 -4.57411 1.30412
  874 -0.0565249 -4.64550 -1.31481
  875 53.2267 -0.947122 6.63756
  876 -3.67480 0.830307 3.25788
  877 -3.68108 0.832313 -3.25878
  878 -0.0204102 -7.57414 -1.45374
  879 20.8463 1.08369 -0.156124
  880 20.8470 1.08138 0.156462
  881 38.9467 -2.02847 -6.06807
  882 39.2773 -2.25046 6.13157
  883 -1.82347 -0.688125 -4.15604
  884 -1.81763 -0.689381 4.15043
  885 1.64670 1.86213 3.11200
  886 1.63828 1.86674 -3.11003
  887 0.197479 -17.7947 1.12308
  888 0.162336 1.38097 3.82503
  889 0.152044 1.38556 -3.82484
  890 35.8750 -0.597557 -5.37149
  891 35.8058 -0.638638 5.41570
  892 62.2414 2.89474 8.59657
  893 13.7320 1.84488 -0.245675
  894 13.7315 1.84779 0.249225
  895 46.7195 0.480183 -1.07504
  896 46.7197 0.476665 1.07106
  897 -1.89761 -0.858107 3.61149
  898 -1.89975 -0.860467 -3.61608
  899 0.153815 -18.5932 -0.879106
  900 -2.91319 -0.235238 3.56320
  901 -2.91660 -0.235201 -3.56630
  902 1.17857 1.74223 -2.49191
  903 1.18428 1.73981 2.49445
  904 -0.144909 -1.13007 0.630302
  905 -0.146454 -1.12875 -0.631146
  906 3.34105 1.95911 -2.32489
  907 3.34737 1.95613 2.32863
  908 0.656329 -1.70213 4.06127
  909 0.555911 -1.58630 -4.23029
  910 44.6808 -1.14455 3.39263
  911 44.5671 -1.07272 -3.42652
  912 -15.6323 0.0670132 -0.149972
  913 -15.6298 0.0670525 0.150146
  914 -1.25657 -0.117540 0.599540
  915 -1.25522 -0.117686 -0.599209
  916 0.0644707 -10.8036 -1.33833
  917 -1.38834 -0.605361 -1.72304
  918 -1.38846 -0.604197 1.72379
  919 -6.11742 0.493327 2.73593
  920 -6.12242 0.494367 -2.73699
  921 13.2483 2.76776 -0.232047
  922 13.2437 2.77212 0.247252
  923 57.4656 4.81963 -1.65530
  924 -1.19729 1.36973 2.98176
  925 -1.20371 1.37218 -2.98070
  926 21.2792 1.25033 -5.43871
  927 21.2932 1.26902 5.51811
  928 -3.19919 0.987403 2.41403
  929 -3.20412 0.988728 -2.41303
  930 73.0410 -4.80616 -2.89486
  931 40.4250 1.63738 3.67493
  932 51.2215 -0.826960 -6.00600
  933 39.1269 0.785496 -2.28779
  934 39.1386 0.767622 2.28251
  935 -4.87677 0.642682 -1.26199
  936 -4.87362 0.642628 1.26323
  937 -9.84563 0.191282 1.40135
  938 -9.85004 0.191592 -1.40126
  939 -0.581895 -1.85524 -2.00433
  940 -0.578484 -1.85786 2.00876
  941 13.1485 1.15019 -0.172808
  942 13.1484 1.15214 0.174044
  943 -4.65071 0.435372 3.34356
  944 -4.65569 0.436153 -3.34582
  945 47.7551 0.134413 0.525257
  946 47.7536 0.135126 -0.526409
  947 -0.380396 -4.12552 3.08610
  948 1.10775 1.63212 -2.17134
  949 1.11236 1.63071 2.17389
  950 1.67470 1.20740 1.50423
  951 1.67191 1.20731 -1.50196
  952 7.28868 0.963230 -0.515128
  953 7.28962 0.964419 0.516326
  954 90.2332 9.12607 0.149006
  955 -0.336792 -0.0967619 -0.230924
  956 -0.337505 -0.0967929 0.231360
  957 2.68236 0.545841 -2.82346
  958 2.72885 0.517493 2.82037
  959 31.2122 1.53907 -2.28950
  960 31.2269 1.52208 2.29331
  961 3.32438 1.49248 -1.48544
  962 3.32719 1.49252 1.48828
  963 8.28301 -5.31052 10.4998
  964 60.5566 -0.370157 -0.376941
  965 60.4146 -0.355254 0.310094
  966 9.93107 -2.87417 8.91435
  967 10.2761 0.720886 0.0731904
  968 10.2753 0.719852 -0.0728299
  969 28.0851 -2.06183 -16.1611
  970 21.1940 0.667351 0.104404
  971 21.1940 0.668453 -0.104396
  972 2.50010 -3.57111 1.26886
  973 2.76430 -3.10650 -1.05909
  974 53.9872 -0.00125350 0.183713
  975 53.9842 -0.00115454 -0.183971
  976 -4.46526 -0.000124649 2.61335
  977 -4.46754 -0.000146495 -2.61525
  978 96.2275 11.7920 3.98308
  979 -0.472259 -3.19753 -4.13879
  980 0.374927 -17.0444 1.05551
  981 -0.113823 -5.02492 3.84252
  982 55.6836 0.0428893 -0.726258
  983 55.6770 0.0405735 0.720700
  984 -0.738891 -1.34401 1.72582
  985 -0.740469 -1.34333 -1.72348
  986 67.3085 6.68782 -5.46002
  987 126.085 1.35510 -0.644796
  988 -0.178199 -0.257300 -0.251327
  989 -0.178046 -0.257835 0.251683
  990 31.5048 0.657703 -0.467648
  991 31.5059 0.655900 0.467009
  992 -0.491514 -3.08598 4.16795
  993 44.3092 0.432210 2.08425
  994 44.3032 0.449186 -2.09431
  995 58.0435 -4.02650 -3.18021
  996 -2.05885 -0.445037 1.95998
  997 -2.05868 -0.446378 -1.96024
  998 0.809009 -4.28767 3.25409
  999 -0.113771 -7.44714 3.01113
  1000 -0.00736543 -7.50948 1.44940
  1001 57.1506 4.08075 -0.283295
  1002 66.8579 7.32908 3.52153
  1003 48.4120 -5.96794 -7.27012
  1004 0.618023 -7.63391 2.67380
  1005 0.805199 -11.1392 1.00092
  1006 12.7351 0.589680 0.0797749
  1007 12.7344 0.588723 -0.0796812
  1008 -0.543786 -0.618430 -0.811966
  1009 -0.543481 -0.618801 0.812781
  1010 0.392265 -6.26295 -3.40004
  1011 39.4743 0.290168 -0.114680
  1012 39.4755 0.289649 0.114456
  1013 7.31408 -0.816848 -2.85644
  1014 6.98958 -0.795699 2.83106
  1015 -1.10668 1.15415 3.80179
  1016 -1.11618 1.15810 -3.80298
  1017 -5.14291 0.744798 -2.39047
  1018 -5.13799 0.743711 2.39088
  1019 29.1996 0.504407 -5.44846
  1020 29.2313 0.521099 5.51781
  1021 20.7464 1.92414 -3.55947
  1022 20.7541 1.91957 3.60606
  1023 22.7469 1.96876 -1.03110
  1024 22.7523 1.96100 1.03560
  1025 60.3165 -2.13266 -8.11124
  1026 -1.91254 0.683624 4.07590
  1027 -1.92141 0.685952 -4.07954
  1028 42.9269 0.171112 2.81013
  1029 42.9059 0.205182 -2.81931
  1030 -0.386277 -2.48906 4.40198
  1031 -3.52757 -0.129544 1.90554
  1032 -3.52797 -0.129966 -1.90677
  1033 38.9856 0.610509 -2.77257
  1034 39.0041 0.585740 2.76811
  1035 46.0571 0.935798 -5.75705
  1036 -0.0849849 -7.43045 -3.16481
  1037 -0.625053 -2.94233 3.67563
  1038 -0.649318 -2.97150 -3.64198
  1039 27.0467 1.88154 -1.78115
  1040 27.0579 1.86885 1.78721
  1041 34.7353 0.921104 1.08401
  1042 34.7326 0.925947 -1.08598
  1043 57.9285 -3.93067 2.80678
  1044 1.96068 0.463897 -0.0820413
  1045 1.96217 0.464452 0.0821678
  1046 49.0377 -6.69018 7.77427
  1047 -1.18884 0.344868 0.354350
  1048 -1.19059 0.344366 -0.353870
  1049 9.90884 2.75151 0.669144
  1050 9.90047 2.75795 -0.657991
  1051 3.42806 2.15011 2.53601
  1052 3.42025 2.15450 -2.53246
  1053 0.492896 -9.43338 -2.26108
  1054 13.4705 0.791111 -0.179325
  1055 13.4707 0.792741 0.180089
  1056 38.8099 1.42495 1.49929
  1057 39.7255 0.555158 1.04551
  1058 39.7237 0.559200 -1.04823
  1059 -0.348177 -2.56819 -4.40707
  1060 59.9889 -0.736248 -1.53871
  1061 -0.218580 -0.404028 4.47975
  1062 -0.176007 -0.362559 -4.46413
  1063 55.4713 -0.0471557 -0.397503
  1064 55.4711 -0.0476765 0.395813
  1065 58.9330 -0.136916 -0.690237
  1066 58.8918 -0.145827 0.664313
  1067 -0.0454768 -11.4000 1.10048
  1068 33.6805 1.15779 -1.45225
  1069 33.6848 1.15029 1.45027
  1070 41.4570 0.615622 1.24455
  1071 41.4550 0.620554 -1.24833
  1072 0.596653 0.817489 4.15136
  1073 0.594786 0.819472 -4.15022
  1074 90.6858 6.51066 0.559261
  1075 -1.30697 -0.629784 4.48002
  1076 -1.32072 -0.618364 -4.48781
  1077 12.0512 2.66035 0.398568
  1078 12.0496 2.66063 -0.389902
  1079 -8.06447 0.221805 -0.487183
  1080 -8.06209 0.222030 0.487732
  1081 20.2225 0.916372 -6.31714
  1082 20.2081 0.977505 6.41625
  1083 5.41588 2.42014 2.11857
  1084 5.40692 2.42571 -2.11339
  1085 13.5402 1.23844 -4.38335
  1086 13.4749 1.31283 4.44050
  1087 -0.403915 -3.86805 -3.00233
  1088 48.8176 0.473332 7.33363
  1089 34.9951 -1.65262 21.3027
  1090 5.09670 2.42885 2.19567
  1091 5.08497 2.43730 -2.19142
  1092 20.7426 1.42970 -0.229015
  1093 20.7444 1.42590 0.230222
  1094 78.7101 -1.34509 3.96964
  1095 4.52252 0.917372 1.69942
  1096 4.46496 0.936174 -1.71099
  1097 -2.36206 -0.539029 2.62868
  1098 -2.36263 -0.541008 -2.63014
  1099 -0.0780641 -1.69151 0.691659
  1100 -0.0809411 -1.69021 -0.694274
  1101 51.5101 0.123659 1.71656
  1102 51.5084 0.146960 -1.73858
  1103 -0.000754748 -3.91868 4.15542
  1104 -3.69109 0.183800 -3.60627
  1105 -3.68661 0.183542 3.60360
  1106 0.0218045 -13.9558 -1.44866
  1107 -0.936207 -1.29272 4.47044
  1108 -0.934355 -1.26907 -4.47386
  1109 49.5326 0.206029 -0.723943
  1110 49.5332 0.204493 0.721632
  1111 50.6219 -0.203811 2.00914
  1112 50.6008 -0.167110 -2.03329
  1113 8.14807 1.57909 -0.946172
  1114 8.08771 1.62135 0.970691
  1115 -0.130505 -7.18968 -2.52305
  1116 66.9675 -7.93317 -11.9528
  1117 87.2172 9.34455 -1.85361
  1118 0.796683 -11.8114 -0.711789
  1119 2.64183 1.59768 -3.24820
  1120 2.65588 1.58682 3.24091
  1121 7.54152 2.62716 1.34181
  1122 7.52782 2.63783 -1.33364
  1123 16.6503 1.30536 -0.0868489
  1124 16.6494 1.30820 0.0882638
  1125 -1.16793 -1.66419 3.41877
  1126 -1.16556 -1.67813 -3.42228
  1127 -3.62728 1.00283 3.03614
  1128 -3.63327 1.00472 -3.03622
  1129 -1.55338 1.22774 3.53469
  1130 -1.56140 1.23091 -3.53513
  1131 47.8453 -2.40604 -3.24277
  1132 48.1767 -2.44123 3.19646
  1133 0.0254877 -8.42950 -3.04327
  1134 24.7548 -0.372708 -8.15676
  1135 24.8142 -0.290114 8.32262
  1136 7.46647 2.51692 -1.34593
  1137 7.47145 2.51390 1.35253
  1138 25.9999 6.90282 23.9202
  1139 5.67190 2.07752 1.62443
  1140 5.66808 2.07849 -1.61990
  1141 66.0733 -8.12633 -1.93418
  1142 24.2189 0.985422 0.226229
  1143 24.2178 0.988047 -0.226189
  1144 -1.14106 -1.02351 2.05968
  1145 -1.14118 -1.02536 -2.05816
  1146 -1.37386 -1.24154 2.68358
  1147 -1.37297 -1.24565 -2.68271
  1148 42.5035 -4.93955 -11.8608
  1149 43.4894 -5.39109 11.9610
  1150 6.83989 0.514612 0.00166966
  1151 6.84098 0.515448 -0.00129529
  1152 26.2028 1.31331 -4.30493
  1153 26.2167 1.29082 4.35921
  1154 59.1299 -8.76963 8.76698
  1155 53.5941 -0.0591799 0.110382
  1156 53.5906 -0.0591199 -0.110463
  1157 -5.14855 0.762548 2.69749
  1158 -5.15388 0.763806 -2.69761
  1159 -8.65921 0.298593 -1.45558
  1160 -8.65525 0.298388 1.45627
  1161 12.6749 -1.94693 13.6942
  1162 37.4588 2.75059 -3.01753
  1163 23.9673 1.97639 -1.92201
  1164 23.9802 1.96502 1.93639
  1165 78.1152 -4.67532 12.6725
  1166 24.3362 1.84415 -3.03129
  1167 24.3534 1.82863 3.05649
  1168 5.42785 1.00558 -0.685425
  1169 5.42914 1.00671 0.686896
  1170 1.97954 -9.47206 0.701102
  1171 2.00561 -9.31084 -1.23691
  1172 33.2592 -2.87423 -11.9384
  1173 33.7672 -2.71778 11.9523
  1174 12.5528 1.86982 -2.83666
  1175 12.5045 1.91793 2.88335
  1176 59.7432 -4.34643 -5.48190
  1177 -2.34421 -0.258073 4.05435
  1178 -2.34942 -0.257307 -4.05805
  1179 -0.114206 -3.51741 -4.26069
  1180 14.4594 -0.469220 -8.39350
  1181 14.5052 -0.406269 8.57059
  1182 -0.0395252 -3.01690 0.776034
  1183 -0.0336002 -3.02371 -0.785075
  1184 -14.9365 0.133138 -0.423947
  1185 -14.9324 0.133116 0.424158
  1186 48.3933 0.123497 -0.181883
  1187 48.3955 0.123208 0.181391
  1188 28.9468 1.37955 -1.13058
  1189 28.9526 1.37172 1.13097
  1190 -1.27794 -0.136164 4.51819
  1191 -1.28110 -0.119238 -4.52501
  1192 0.0113688 -12.3548 -1.23473
  1193 -12.5745 0.0351382 0.655027
  1194 -12.5790 0.0352160 -0.655112
  1195 8.81386 -1.31941 -5.58041
  1196 8.74332 -1.26125 5.79418
  1197 55.7025 -3.44407 0.409691
  1198 15.0588 0.341032 -7.50231
  1199 15.0787 0.401823 7.60347
  1200 -6.85697 0.0347339 0.956449
  1201 -6.85837 0.0347407 -0.957173
  1202 0.164821 -11.2213 -2.24912
  1203 -2.86688 0.551269 -0.660531
  1204 -2.86477 0.551701 0.661416
  1205 7.64553 2.19410 1.32941
  1206 7.64213 2.19472 -1.32397
  1207 31.0584 0.462029 -0.167394
  1208 31.0590 0.461117 0.167264
  1209 42.4765 0.428810 0.798284
  1210 42.4752 0.431347 -0.800506
  1211 2.02838 -0.724689 2.88325
  1212 1.99847 -0.759832 -2.91812
  1213 0.324595 -6.57236 3.36866
  1214 75.6890 9.54439 4.86373
  1215 -2.34959 -0.192701 1.48409
  1216 -2.34904 -0.193372 -1.48437
  1217 0.250296 -6.14888 -3.48225
  1218 -0.234023 -3.59190 2.18223
  1219 -0.220766 -3.56507 -2.26250
  1220 60.3582 -0.634279 1.37513
  1221 0.0579149 -14.1971 1.27393
  1222 0.342041 -4.58736 -3.87774
  1223 6.26020 0.442094 0.105919
  1224 6.25903 0.441379 -0.105810
  1225 -0.655108 -2.68513 4.07636
  1226 -7.29425 0.436448 -1.27582
  1227 -7.29079 0.436361 1.27676
  1228 128.353 2.39232 3.41436
  1229 -3.70651 0.367811 3.67930
  1230 -3.71190 0.368454 -3.68203
  1231 28.1152 1.29234 -3.90184
  1232 28.1495 1.26349 3.92984
  1233 1.66594 -3.45957 -2.10867
  1234 26.8656 1.69081 -1.42842
  1235 26.8741 1.68040 1.43215
  1236 1.02537 -9.44843 -1.01590
  1237 -0.655757 -2.68699 -4.06474
  1238 -5.45560 0.289158 0.811475
  1239 -5.45808 0.288853 -0.810600
  1240 -2.29181 0.0758016 -4.18329
  1241 -2.28561 0.0753341 4.18007
  1242 56.9748 4.44479 6.24509
  1243 32.7514 0.544627 -4.23901
  1244 32.7987 0.525389 4.24983
  1245 -15.8144 0.0525989 -0.177258
  1246 -15.8113 0.0526183 0.177481
  1247 29.7189 1.03422 -0.782110
  1248 29.7209 1.03053 0.781388
  1249 -16.3972 -0.250355 -0.0390079
  1250 -16.3993 -0.250363 0.0390281
  1251 44.4866 -3.22939 -4.83969
  1252 -7.30531 0.116206 2.06649
  1253 -7.30894 0.116459 -2.06778
  1254 44.9751 -3.40946 4.79361
  1255 30.1364 1.41509 -1.65864
  1256 30.1440 1.40428 1.65921
  1257 3.34520 -11.5200 -5.57277
  1258 0.0621177 -10.1639 -2.62557
  1259 -0.247518 -4.31159 3.83011
  1260 99.1355 12.7057 -11.1147
  1261 -0.0275230 -9.44969 2.51946
  1262 102.328 9.57261 -4.97012
  1263 -0.0378252 -17.4323 -1.23750
  1264 3.95351 0.676779 -0.319979
  1265 3.95485 0.677625 0.320798
  1266 -0.0454663 -3.88114 0.814254
  1267 -0.0373158 -3.90078 -0.811264
  1268 16.3458 0.710457 -0.0851034
  1269 16.3461 0.711688 0.0852917
  1270 60.5468 -4.96907 5.26015
  1271 0.360411 0.608397 -0.767257
  1272 0.362234 0.608998 0.768297
  1273 0.354878 -19.7783 0.797901
  1274 0.226262 -20.9548 -0.779750
  1275 55.6788 -7.44456 -4.97395
  1276 -0.163607 -5.16013 2.42957
  1277 56.7596 3.30927 -7.60795
  1278 -0.175233 -6.80186 2.39745
  1279 0.111816 -18.9573 -1.02726
  1280 27.5897 1.10745 -0.796282
  1281 27.5930 1.10179 0.796347
  1282 -0.0171273 -10.0367 1.08305
  1283 -0.0294174 -8.44377 -2.46071
  1284 138.421 21.5967 19.1726
  1285 53.8689 0.0949133 0.0891692
  1286 53.8652 0.0949072 -0.0891769
  1287 1.13293 -0.175534 3.84865
  1288 1.09365 -0.118369 -3.86054
  1289 -1.09822 0.665316 4.32449
  1290 -1.11355 0.668468 -4.32885
  1291 55.6395 -1.12003 -4.28650
  1292 52.1145 -2.11068 -1.71744
  1293 52.0418 -2.42247 1.71261
  1294 6.95918 1.12127 0.732431
  1295 6.95807 1.11991 -0.730505
  1296 -8.97177 0.247889 -1.67661
  1297 -8.96724 0.247469 1.67644
  1298 58.1923 -8.81138 -7.30921
  1299 -0.441444 -1.05372 1.06633
  1300 -0.442949 -1.05254 -1.06560
  1301 61.0644 -3.03157 7.64106
  1302 -0.673636 -2.49163 2.94286
  1303 -0.666471 -2.49997 -2.92888
  1304 -6.23330 0.451025 0.955366
  1305 -6.23614 0.450859 -0.954377
  1306 8.63850 0.467440 -2.53242
  1307 8.54951 0.523593 2.53892
  1308 13.7463 0.674869 0.172259
  1309 13.7459 0.673624 -0.171945
  1310 -6.32177 0.612146 2.62603
  1311 -6.32677 0.613120 -2.62656
  1312 50.3418 0.245657 0.138872
  1313 50.3389 0.245680 -0.138903
  1314 26.5296 -1.24520 16.0377
  1315 40.6319 0.323621 0.278885
  1316 40.6306 0.324214 -0.279319
  1317 26.0265 0.501263 -6.15164
  1318 26.0450 0.465819 6.21942
  1319 0.238827 -11.5287 -1.80159
  1320 9.71434 2.27918 -0.679009
  1321 9.67672 2.30960 0.704377
  1322 -0.0923254 -0.0918831 -0.126546
  1323 -0.0927687 -0.0919405 0.126904
  1324 34.2052 1.33191 2.24413
  1325 34.1932 1.34915 -2.24500
  1326 16.4405 1.66821 0.0307540
  1327 16.4392 1.67173 -0.0280571
  1328 24.7003 1.70971 -0.878920
  1329 24.7055 1.70249 0.881290
  1330 32.9834 0.483757 -0.276456
  1331 32.9842 0.482843 0.276168
  1332 -1.06235 -0.521579 -1.20679
  1333 -1.06252 -0.521227 1.20774
  1334 -10.8722 0.0628854 0.569314
  1335 -10.8751 0.0628156 -0.568720
  1336 -1.85424 -0.871599 -3.01335
  1337 -1.85394 -0.867948 3.01155
  1338 -6.66878 0.199449 0.250910
  1339 -6.67081 0.199188 -0.250641
  1340 -16.5179 0.164606 0.103371
  1341 -16.5203 0.164580 -0.103258
  1342 62.9556 -9.02992 10.2444
  1343 42.8961 -0.373929 -5.87573
</Section>

newXOutput 9

<Section columns = "stress_xx | stress_yy | stress_xy">
  1 63.4794 -0.0413953 0.0560104
  2 63.4845 -0.0414212 -0.0560397
  3 -20.3386 0.115454 -0.271265
  4 0.0331694 0.0101386 0.0578008
  5 118.518 27.1201 35.4633
  6 133.789 31.2117 -33.6940
  7 0.0330702 0.0100408 -0.0576708
  8 -20.3357 0.115471 0.271283
  9 63.2716 -0.0358950 -0.206419
  10 63.3090 -0.147550 -0.343490
  11 63.9153 -0.140475 -0.0828285
  12 63.9546 -0.121197 -0.387678
  13 64.0610 -0.113023 -0.102132
  14 65.4344 -0.120420 -0.149051
  15 65.8716 -0.197107 -0.518111
  16 66.3042 -0.0670245 -0.344010
  17 66.5352 0.112132 -0.665446
  18 69.3107 -0.315957 -0.571839
  19 70.4270 -0.222060 -0.749737
  20 71.6093 -0.376864 -0.234079
  21 72.0859 -0.533857 -0.0877129
  22 71.2047 -0.647020 1.11705
  23 68.2533 -0.755177 2.25442
  24 61.6065 -0.922188 4.67742
  25 51.2445 0.407869 5.39134
  26 42.4660 0.446340 5.10550
  27 30.5375 1.20230 3.10244
  28 32.7450 1.17517 0.188675
  29 26.3035 3.58807 -2.02378
  30 39.7801 1.58994 -5.42038
  31 47.5091 0.317725 -4.47192
  32 60.1355 -0.241034 -3.86888
  33 67.2271 -0.916062 -2.67524
  34 71.0090 -0.757602 -1.11922
  35 71.8736 -0.513537 0.0863177
  36 71.4558 -0.370865 0.209429
  37 70.3474 -0.224360 0.720983
  38 69.2663 -0.321465 0.554315
  39 66.5185 0.108739 0.656019
  40 66.2976 -0.0683174 0.340068
  41 65.8712 -0.197838 0.516260
  42 65.4364 -0.120790 0.148085
  43 64.0644 -0.113206 0.101588
  44 63.9590 -0.121369 0.387481
  45 63.9200 -0.140581 0.0827014
  46 63.3140 -0.147611 0.343511
  47 63.2766 -0.0359157 0.206433
  48 59.6098 0.266132 -0.0716005
  49 54.9299 0.238576 -0.172133
  50 49.1285 0.0751268 -0.190659
  51 43.1636 0.461414 -0.158576
  52 37.9905 0.450355 -0.128792
  53 32.4979 0.635737 -0.154564
  54 27.1194 0.907199 -0.105252
  55 21.5783 0.838337 -0.198158
  56 17.0116 0.657584 -0.268854
  57 11.0570 0.494664 -0.282926
  58 5.04049 0.571453 -0.213196
  59 0.0382569 0.465046 -0.205670
  60 -6.17367 0.299725 -0.192305
  61 -10.7894 0.0356124 -0.436082
  62 -15.2518 -0.258617 -0.203087
  63 -19.7553 0.0583056 0.122185
  64 -20.7018 0.359770 -0.0671869
  65 -20.7393 0.167732 0.0379765
  66 -20.0363 0.0944200 -0.0477431
  67 -20.1674 0.236779 -0.268712
  68 -19.8055 0.282750 -0.0600119
  69 -18.6957 0.0959876 -0.403611
  70 -18.8058 0.172931 -0.428790
  71 -18.2792 0.166017 -0.257726
  72 -16.8882 0.109702 -0.372634
  73 -16.1686 0.182390 -0.590192
  74 -15.1440 0.199578 -0.495662
  75 -13.3543 0.103568 -0.819250
  76 -12.3374 0.0315320 -0.686148
  77 -10.5501 0.0454401 -0.781637
  78 -8.99816 0.0287524 -0.853708
  79 -7.66562 0.00771809 -0.673354
  80 -5.84060 0.0371412 -0.675827
  81 -4.27568 -0.0212647 -0.718164
  82 -2.76374 -0.0813978 -0.623261
  83 -1.57276 -0.0707087 -0.473146
  84 -0.763140 -0.120466 -0.391989
  85 -0.111985 -0.0693579 -0.135582
  86 0.0199279 -0.0748001 -0.0453201
  87 -0.0409176 -0.0311889 -0.00383095
  88 -0.108249 -0.0834573 -0.118102
  89 -0.104731 -0.642777 -0.339157
  90 -0.0913222 -1.46062 -0.490080
  91 -0.0487534 -2.52357 -0.718828
  92 -0.0268297 -3.88954 -0.621112
  93 -0.0267671 -5.16080 -0.782986
  94 -0.0986217 -6.73306 -0.889732
  95 -0.0399709 -8.65999 -0.905450
  96 0.0191693 -10.6027 -0.871239
  97 0.0430634 -12.6927 -0.862929
  98 0.0637112 -14.8524 -0.854549
  99 0.0123202 -16.4898 -1.16185
  100 0.118770 -18.7680 -1.04413
  101 0.140205 -21.4517 -0.858435
  102 0.0139936 -22.7589 -1.14368
  103 0.199737 -24.8453 -1.07916
  104 0.465587 -27.6416 -0.627538
  105 0.897542 -28.6599 -0.992352
  106 0.573739 -27.1249 0.219856
  107 0.728167 -21.9978 1.82194
  108 4.76846 -15.8401 6.45889
  109 15.7297 13.0636 25.5860
  110 184.622 9.15002 17.4515
  111 157.813 3.02524 6.50610
  112 152.753 1.27119 1.40447
  113 151.753 0.594476 -0.243276
  114 152.677 1.85490 -3.44288
  115 156.951 5.34316 -7.55124
  116 178.889 17.8969 -22.0041
  117 36.8167 9.78820 -31.4487
  118 7.67847 -15.5641 -8.22699
  119 2.22472 -24.0221 -2.81108
  120 0.598469 -25.8181 -0.276092
  121 0.712863 -27.6712 0.664651
  122 0.213538 -26.6208 0.521608
  123 0.0895834 -24.2360 0.949391
  124 0.0892958 -22.6978 0.760654
  125 0.119094 -20.3267 1.19706
  126 -0.00535087 -18.9174 1.14102
  127 0.0473486 -17.0459 0.827025
  128 0.0867356 -14.6681 1.03011
  129 0.0143237 -12.9789 0.818248
  130 0.0266078 -10.6259 1.03168
  131 -0.105988 -8.76205 0.883743
  132 -0.0772396 -6.74011 0.863176
  133 -0.0201648 -5.13434 0.785500
  134 -0.0340374 -3.86799 0.622927
  135 -0.0479129 -2.51632 0.712148
  136 -0.0901135 -1.45949 0.487711
  137 -0.104203 -0.643674 0.338906
  138 -0.108146 -0.0843225 0.118305
  139 -0.0409194 -0.0315778 0.00408348
  140 0.0194697 -0.0748824 0.0455670
  141 -0.112901 -0.0693505 0.135928
  142 -0.764722 -0.120409 0.392422
  143 -1.57505 -0.0705385 0.473372
  144 -2.76598 -0.0811872 0.623190
  145 -4.27720 -0.0210916 0.717718
  146 -5.84120 0.0371734 0.675280
  147 -7.66491 0.00776658 0.672804
  148 -8.99631 0.0287870 0.853140
  149 -10.5469 0.0453972 0.781101
  150 -12.3331 0.0314691 0.685717
  151 -13.3494 0.103489 0.818927
  152 -15.1385 0.199486 0.495498
  153 -16.1630 0.182304 0.590147
  154 -16.8826 0.109659 0.372708
  155 -18.2739 0.165984 0.257853
  156 -18.8008 0.172898 0.428946
  157 -18.6911 0.0959749 0.403800
  158 -19.8014 0.282749 0.0602113
  159 -20.1635 0.236792 0.268866
  160 -20.0328 0.0944346 0.0478646
  161 -20.7360 0.167749 -0.0378899
  162 -20.6987 0.359787 0.0672577
  163 -19.7524 0.0583150 -0.122143
  164 -15.2489 -0.258551 0.203130
  165 -10.7867 0.0357788 0.436129
  166 -6.17119 0.300036 0.192383
  167 0.0403265 0.465542 0.205734
  168 5.04218 0.572159 0.213254
  169 11.0582 0.495587 0.282988
  170 17.0122 0.658657 0.268885
  171 21.5785 0.839499 0.198172
  172 27.1192 0.908356 0.105215
  173 32.4973 0.636772 0.154489
  174 37.9895 0.451220 0.128687
  175 43.1622 0.462016 0.158428
  176 49.1263 0.0755026 0.190489
  177 54.9268 0.238686 0.172027
  178 59.6056 0.266128 0.0715527
  179 15.4511 3.01397 -0.00497679
  180 15.4485 3.01475 0.0185953
  181 -0.599192 0.310069 5.02847
  182 -0.614134 0.311075 -5.02654
  183 36.3476 -0.569348 -7.50488
  184 36.3422 -0.648657 7.59734
  185 6.82813 1.24701 0.513007
  186 6.74722 1.28377 -0.502447
  187 4.47175 1.15040 -1.03851
  188 4.47380 1.15137 1.04048
  189 34.7943 1.02691 -0.974328
  190 34.7976 1.02167 0.973498
  191 -1.29983 1.48844 2.93040
  192 -1.30617 1.49047 -2.92875
  193 40.4876 1.36302 -2.76083
  194 40.5064 1.34050 2.76045
  195 -1.65598 -1.45978 3.76288
  196 -1.65445 -1.46711 -3.76580
  197 0.247600 -3.68527 -4.74488
  198 11.9561 -0.257277 -6.42393
  199 0.328820 -3.92701 4.65096
  200 11.7613 -0.145383 6.56008
  201 57.7091 -8.51782 -11.0546
  202 59.8873 -8.86081 10.5388
  203 20.0369 1.03391 0.0160395
  204 20.0371 1.03181 -0.0154754
  205 -4.34374 0.380930 -0.640048
  206 -4.34114 0.381363 0.640734
  207 -4.99585 0.691976 3.81603
  208 -5.00255 0.693649 -3.81820
  209 20.1103 2.23023 -0.160632
  210 20.1128 2.22583 0.164713
  211 5.76015 2.54844 2.41807
  212 5.74061 2.56461 -2.41647
  213 -6.69415 0.719265 -1.72459
  214 -6.68972 0.719012 1.72575
  215 47.0485 0.348405 0.507616
  216 47.0467 0.349677 -0.508713
  217 1.34011 -7.02603 2.44456
  218 1.46045 -6.44066 -2.25654
  219 -0.483861 -4.08693 4.29022
  220 -0.489767 -4.22763 -4.14823
  221 18.4564 2.78250 -2.50262
  222 18.4481 2.79264 2.54397
  223 -4.34329 -0.0547717 3.72385
  224 -4.34712 -0.0547772 -3.72678
  225 50.3479 0.559175 -1.59649
  226 50.3498 0.552545 1.59064
  227 53.8889 -0.564015 -3.07505
  228 53.9240 -0.626750 3.04796
  229 85.1184 6.98943 -0.261494
  230 78.1352 8.33382 6.68414
  231 78.0095 -1.67993 -8.93113
  232 8.66714 2.31041 1.41521
  233 8.66427 2.31044 -1.41002
  234 0.142774 1.71384 4.02914
  235 0.132125 1.71900 -4.02866
  236 60.1500 -3.65643 -1.64423
  237 59.7825 -3.70803 1.82569
  238 32.8831 0.645068 -0.321498
  239 32.8842 0.643263 0.321091
  240 -7.91851 0.548951 2.59796
  241 -7.92419 0.549916 -2.59819
  242 -1.03207 -1.01827 -1.65759
  243 -1.03156 -1.01812 1.65914
  244 -9.12874 0.293990 0.920606
  245 -9.13224 0.293789 -0.919706
  246 26.6129 2.34723 -1.58792
  247 26.6217 2.33657 1.59628
  248 34.0988 1.26847 -4.14570
  249 34.1341 1.24119 4.16578
  250 7.43485 0.788931 -0.206007
  251 7.43626 0.789943 0.206655
  252 19.2495 -1.48655 -15.0448
  253 22.9744 -0.785018 16.6078
  254 2.30452 0.979371 3.97510
  255 2.29474 1.00695 -3.98395
  256 82.8260 -7.84783 0.156047
  257 6.36223 2.75471 2.08804
  258 6.35444 2.75916 -2.08199
  259 18.8051 1.82791 -5.21663
  260 18.7785 1.88207 5.29579
  261 91.8053 11.9952 -3.08463
  262 54.6038 0.268976 2.16199
  263 54.5988 0.290117 -2.17812
  264 -0.509303 -3.08554 -2.63155
  265 -0.496987 -3.09915 2.64292
  266 -0.128368 -7.44525 -3.71095
  267 0.196220 -8.91793 -3.58663
  268 0.0937120 -8.82672 3.68881
  269 -1.49068 -1.31424 4.93562
  270 -1.49508 -1.31009 -4.95030
  271 2.65822 -7.95085 -0.377824
  272 2.85004 -7.43773 0.815578
  273 -3.18003 -0.280794 2.31656
  274 -3.18037 -0.281800 -2.31776
  275 38.2499 1.41336 -1.65863
  276 38.2574 1.40272 1.65669
  277 67.7035 -7.43341 0.552629
  278 14.0604 1.55802 -0.371080
  279 14.0604 1.56029 0.373076
  280 -0.198964 -6.97262 3.53820
  281 0.627296 1.51424 2.02193
  282 0.623043 1.51485 -2.01939
  283 109.068 7.97118 -2.09672
  284 53.2462 0.241236 0.640974
  285 53.2445 0.242805 -0.643047
  286 34.4182 -2.09529 -11.4820
  287 34.7655 -2.06342 11.6934
  288 67.6001 -7.02545 -1.69423
  289 -6.62853 0.188442 2.96795
  290 -6.63272 0.188759 -2.97004
  291 66.5739 -7.12005 19.2319
  292 -3.11652 0.405640 4.55307
  293 -3.12378 0.406196 -4.55689
  294 10.4298 2.90270 -0.0175299
  295 10.3938 2.93174 0.0387321
  296 -12.7710 0.160513 0.180882
  297 -12.7738 0.160408 -0.180662
  298 55.7887 -1.13293 -26.5994
  299 -11.5852 0.254992 -1.43737
  300 -11.5800 0.254698 1.43777
  301 -0.476580 -1.61955 5.14499
  302 -0.324372 -1.59611 -5.11307
  303 23.6585 2.67510 -2.35972
  304 23.6677 2.66754 2.38279
  305 4.37770 0.850142 0.775480
  306 4.37590 0.849174 -0.774294
  307 24.8361 1.32928 -0.356151
  308 24.8376 1.32575 0.356767
  309 2.12868 -2.38071 3.13906
  310 1.93873 -2.75218 -3.15113
  311 24.1024 0.783152 -0.0498933
  312 24.1025 0.781673 0.0499284
  313 -9.33590 0.241389 2.20702
  314 -9.34086 0.241814 -2.20815
  315 5.70706 -1.34937 -0.596996
  316 5.52554 -1.35039 0.447192
  317 55.7818 0.119115 0.176530
  318 55.7786 0.119322 -0.176805
  319 123.317 7.29407 4.17877
  320 11.5320 1.90509 0.767891
  321 11.5313 1.90319 -0.764336
  322 -3.51088 0.727819 1.29394
  323 -3.51424 0.727607 -1.29245
  324 16.2359 2.55722 0.118804
  325 16.2366 2.55416 -0.110979
  326 1.54352 1.63740 4.22585
  327 1.53472 1.64273 -4.22851
  328 0.236635 -12.7377 2.68715
  329 -13.1143 0.0852694 -0.387341
  330 -13.1111 0.0853808 0.387750
  331 41.9504 0.422982 -0.326783
  332 41.9518 0.422019 0.326276
  333 44.2077 0.598709 -0.867719
  334 44.2098 0.595384 0.865538
  335 -12.0800 0.248723 -1.07961
  336 -12.0757 0.248701 1.08031
  337 -1.25074 0.381568 0.188794
  338 -1.25292 0.381087 -0.188475
  339 -0.266627 -5.07262 2.64064
  340 -0.213536 -5.27431 -2.63697
  341 49.1847 -4.31897 -7.62110
  342 51.2080 -5.15537 7.45759
  343 28.8955 1.78306 -0.948964
  344 28.9000 1.77611 0.950279
  345 12.1947 3.07022 0.291549
  346 12.1800 3.08108 -0.274842
  347 -5.23151 0.943670 2.40190
  348 -5.23681 0.944670 -2.40090
  349 94.2147 -0.428326 0.144689
  350 4.51147 -9.05557 -4.35010
  351 4.83026 -8.64441 4.62153
  352 -2.47078 1.42262 3.73971
  353 -2.47880 1.42558 -3.73981
  354 -2.69389 -0.593966 4.33869
  355 -2.69823 -0.594163 -4.34354
  356 106.329 16.4991 -2.72978
  357 66.4629 -1.49842 10.1029
  358 63.2968 -1.35522 -1.23567
  359 63.2026 -1.32510 1.11023
  360 43.5249 -0.351023 -4.81078
  361 43.4818 -0.406455 4.80694
  362 0.0813384 -15.3275 -2.21384
  363 58.2881 0.311592 -1.23403
  364 58.2846 0.305271 1.22533
  365 0.707823 -14.6554 1.91891
  366 64.4640 4.99588 -5.97455
  367 15.4238 0.857951 0.286186
  368 15.4231 0.856771 -0.285979
  369 43.9187 0.584823 -3.58015
  370 43.9501 0.552271 3.57839
  371 47.7984 0.677048 -2.21346
  372 47.8050 0.662558 2.20528
  373 -1.83278 0.681501 0.920658
  374 -1.83550 0.680978 -0.919417
  375 26.4819 1.47857 -5.53005
  376 26.5034 1.49022 5.59617
  377 57.5503 0.117663 0.292315
  378 57.5474 0.118042 -0.293017
  379 31.3678 2.03580 -2.69601
  380 31.3850 2.01764 2.70743
  381 36.7796 0.908501 0.665070
  382 36.7778 0.911340 -0.666084
  383 -1.77707 -0.330053 1.41137
  384 -1.77637 -0.330720 -1.41095
  385 -0.416424 -0.297587 -0.399309
  386 -0.416680 -0.297824 0.399952
  387 76.1821 -10.5981 4.01929
  388 -1.04225 -2.47689 3.92905
  389 -1.03570 -2.49527 -3.92721
  390 11.3861 1.06713 -0.492070
  391 11.3869 1.06878 0.493314
  392 -0.383045 -1.88341 1.41477
  393 -0.387080 -1.87966 -1.41457
  394 3.96755 2.23324 2.27590
  395 3.96188 2.23542 -2.27182
  396 62.3935 -0.0970961 1.60121
  397 62.3996 -0.0698229 -1.64251
  398 -0.232418 -3.92745 4.84972
  399 -5.15324 -0.106054 2.21333
  400 -5.15466 -0.106315 -2.21501
  401 -0.251681 -4.13201 -4.79271
  402 58.8123 0.163675 0.782620
  403 58.8124 0.165655 -0.786146
  404 -0.928509 1.18271 4.63070
  405 -0.942372 1.18789 -4.63311
  406 42.7286 0.949446 -1.41701
  407 42.7321 0.942851 1.41360
  408 65.9265 -2.85663 -2.04408
  409 66.2575 -2.26935 1.59768
  410 -0.148612 -6.93537 -2.90955
  411 5.36840 1.89645 -1.98219
  412 5.41193 1.86949 1.98358
  413 62.9641 4.28433 3.80884
  414 36.4343 -2.81311 -16.1245
  415 37.5019 -3.52453 16.9578
  416 1.58198 2.06461 3.22221
  417 1.57369 2.06855 -3.21967
  418 26.8400 1.09023 -0.242718
  419 26.8409 1.08784 0.242704
  420 25.9133 1.38182 25.8605
  421 10.2215 2.72447 -1.23385
  422 10.2259 2.72279 1.24162
  423 0.582045 -7.06280 3.51266
  424 -0.0850187 -11.3275 -2.56981
  425 3.75542 2.46380 3.12137
  426 3.74427 2.47061 -3.11852
  427 4.54323 1.61655 -1.46924
  428 4.54598 1.61696 1.47215
  429 -2.06281 -0.206040 -4.97069
  430 -2.05542 -0.209042 4.96590
  431 12.4259 2.34304 -1.63762
  432 12.3775 2.38397 1.67439
  433 65.5888 -2.32387 -7.54392
  434 1.58545 -1.03542 4.18319
  435 1.52753 -1.01000 -4.19955
  436 47.6664 -1.98926 -5.32329
  437 47.8879 -2.15092 5.30386
  438 -12.4634 0.113959 -1.35850
  439 -12.4581 0.113684 1.35833
  440 0.00329602 -11.0686 2.29664
  441 -0.0844591 -7.00439 2.58552
  442 -5.12886 0.290698 3.80889
  443 -5.13385 0.291064 -3.81167
  444 34.1636 0.626758 -0.0984271
  445 34.1644 0.625536 0.0981530
  446 -1.06384 -1.67718 2.63621
  447 -1.06488 -1.68011 -2.63232
  448 20.5692 0.611720 -8.16493
  449 20.5421 0.718494 8.28740
  450 0.175395 -13.6442 -2.63889
  451 123.216 4.89363 0.197260
  452 0.315406 -16.5221 -1.76433
  453 -15.0693 0.0440879 -0.539779
  454 -15.0655 0.0441625 0.540227
  455 -5.91920 0.779108 3.22614
  456 -5.92561 0.780698 -3.22695
  457 -6.50212 0.0868328 2.23748
  458 -6.50458 0.0869336 -2.23913
  459 22.6896 2.63546 -1.45194
  460 22.6963 2.62948 1.46646
  461 35.0355 1.73016 -2.09325
  462 35.0479 1.71489 2.09545
  463 -0.712984 -2.42042 4.99246
  464 -0.713193 -2.40349 -5.01135
  465 60.0288 0.638883 -9.54088
  466 3.83819 -1.72143 -1.45327
  467 3.70535 -1.75405 1.52196
  468 0.897681 -15.3960 0.393343
  469 0.557168 -17.6499 -0.775283
  470 -1.92435 -0.876811 2.71875
  471 -1.92417 -0.879429 -2.71881
  472 12.4051 -3.81418 -12.7585
  473 96.6365 -2.65079 -7.22739
  474 20.6323 1.68654 0.231843
  475 20.6306 1.69051 -0.229632
  476 30.2084 0.146534 -8.00080
  477 30.3006 0.134245 8.14610
  478 8.39438 3.18421 1.62856
  479 8.38312 3.19296 -1.62011
  480 27.2327 2.19705 -3.95401
  481 27.2560 2.17961 3.99313
  482 0.720084 0.333203 4.77773
  483 0.781546 0.364221 -4.77014
  484 -13.2611 0.220668 -1.04713
  485 -13.2563 0.220595 1.04761
  486 61.8243 -7.56462 -3.91305
  487 49.6428 0.251150 -0.251471
  488 49.6450 0.250748 0.251186
  489 1.65229 0.531185 -0.443566
  490 1.65430 0.531908 0.444270
  491 -3.73807 1.18629 3.09577
  492 -3.74463 1.18817 -3.09522
  493 -7.96151 0.517953 -1.21183
  494 -7.95765 0.517986 1.21293
  495 20.6058 2.36309 -0.432603
  496 20.6091 2.35774 0.438546
  497 -2.97151 0.953061 4.22005
  498 -2.98016 0.955887 -4.22227
  499 56.7175 -1.44679 -2.78021
  500 56.8044 -1.53664 2.71483
  501 36.4075 0.512033 -5.26937
  502 36.3622 0.475231 5.32067
  503 12.9425 0.918220 -0.301647
  504 12.9433 0.919619 0.302228
  505 0.0962232 -7.11324 -4.15335
  506 66.1152 -2.60176 6.23218
  507 0.774939 -4.94972 -3.95904
  508 18.0206 3.08016 1.35854
  509 18.0243 3.07585 -1.33281
  510 61.1372 -7.08083 3.83539
  511 4.28060 -8.78590 6.31312
  512 73.3812 -10.6705 -8.18168
  513 49.6485 0.453976 2.65033
  514 49.6339 0.480059 -2.66162
  515 0.0773547 -6.12453 4.32231
  516 -0.967021 -0.293135 -0.745783
  517 -0.967671 -0.293118 0.746498
  518 5.10557 0.540849 -0.156622
  519 5.10724 0.541613 0.156899
  520 -0.173076 -3.87804 1.68240
  521 -0.157028 -3.85887 -1.69021
  522 40.8608 0.714179 0.556488
  523 40.8593 0.715823 -0.557407
  524 117.753 19.2046 6.50251
  525 4.39804 -3.88175 -0.606859
  526 3.40031 -4.89664 -0.0933370
  527 -1.96089 0.993242 -1.68077
  528 -1.95708 0.993123 1.68259
  529 -10.1761 0.163378 1.36017
  530 -10.1801 0.163547 -1.36100
  531 0.0963933 -12.7372 2.59428
  532 -14.9671 0.168526 0.179410
  533 -14.9702 0.168461 -0.179151
  534 11.9247 -2.32165 -9.17666
  535 11.6435 -2.07029 9.58642
  536 10.8635 1.56104 -2.62723
  537 10.7823 1.61866 2.66166
  538 -2.77293 -0.614587 3.76737
  539 -2.77531 -0.616366 -3.77094
  540 10.5041 1.27400 0.549702
  541 10.5033 1.27231 -0.547946
  542 -6.81820 0.379030 0.581562
  543 -6.82116 0.378741 -0.580769
  544 12.5947 2.18544 0.737144
  545 12.5939 2.18362 -0.731919
  546 -0.272366 -0.867062 0.635312
  547 -0.273217 -0.866106 -0.635121
  548 4.37709 1.87581 2.94736
  549 4.34917 1.90642 -2.95131
  550 3.54297 0.219963 2.70131
  551 3.49072 0.214952 -2.72511
  552 50.6512 0.587408 1.12834
  553 50.6497 0.590669 -1.13160
  554 44.4245 0.881575 1.75011
  555 44.4195 0.891166 -1.75496
  556 -0.0461891 -10.5542 -1.58005
  557 30.5383 1.88482 -1.51601
  558 30.5458 1.87495 1.51874
  559 30.7342 1.05734 -0.496055
  560 30.7362 1.05388 0.495806
  561 -5.24727 0.280127 -0.0384581
  562 -5.24483 0.280446 0.0386395
  563 49.6521 2.97739 -1.83071
  564 70.1474 -9.60373 -2.30917
  565 55.0399 2.39421 7.34476
  566 0.405717 -9.51716 -3.20029
  567 -3.77906 1.06826 -2.12702
  568 -3.77433 1.06765 2.12858
  569 0.397916 -5.61570 4.18620
  570 -3.28312 0.0294706 4.38929
  571 -3.28873 0.0298268 -4.39281
  572 88.8267 8.64623 -1.29503
  573 19.5579 1.25151 -0.0119815
  574 19.5584 1.24897 0.0129203
  575 140.101 11.5064 -11.1742
  576 -0.864701 -0.692762 5.21016
  577 -0.823616 -0.657700 -5.21564
  578 74.1951 -7.34181 4.36582
  579 60.2361 0.201004 -1.38669
  580 60.2291 0.191247 1.37285
  581 26.4049 -0.662281 -11.7946
  582 26.7566 -0.733032 12.0187
  583 -1.61604 -1.56521 4.37821
  584 -1.61655 -1.57189 -4.38698
  585 13.5615 0.606528 5.76408
  586 13.6743 0.490558 -5.69472
  587 -12.0154 0.145101 -1.30605
  588 -12.0102 0.144900 1.30563
  589 87.6107 6.04403 7.45116
  590 15.7801 1.79799 -0.282480
  591 15.7796 1.80080 0.285189
  592 18.7309 2.29063 -3.81123
  593 18.7145 2.31901 3.87117
  594 53.9407 0.114907 -2.62824
  595 53.9582 0.0814839 2.61068
  596 -0.272652 -5.65531 -3.96150
  597 59.5402 0.0280559 0.407412
  598 59.5376 0.0285273 -0.408365
  599 -9.46344 0.257942 -0.253344
  600 -9.46060 0.258147 0.253777
  601 -16.0231 -0.0680813 0.0184783
  602 -16.0260 -0.0681263 -0.0183974
  603 1.13341 -9.07814 -1.88907
  604 -0.577311 -3.62686 3.34141
  605 -0.608759 -3.43698 -3.36377
  606 -6.93745 0.407582 3.19746
  607 -6.94262 0.408380 -3.19934
  608 40.6323 1.30967 2.17168
  609 40.6227 1.32448 -2.17481
  610 29.6440 0.714857 0.125355
  611 29.6436 0.716070 -0.125450
  612 6.30514 -2.95376 3.29154
  613 6.52806 -2.81554 -3.24676
  614 -0.216205 -2.69679 1.41492
  615 -0.222301 -2.68739 -1.41921
  616 71.2439 1.65469 28.1302
  617 -3.47994 -0.114224 1.31937
  618 -3.47910 -0.114641 -1.31997
  619 1.10033 -5.57863 -3.33524
  620 28.9027 1.49993 -0.702709
  621 28.9055 1.49499 0.703106
  622 13.6508 3.00954 -0.755944
  623 13.6304 3.02622 0.782727
  624 0.148152 -19.6072 1.24170
  625 10.0615 3.06959 1.19155
  626 10.0547 3.07410 -1.18227
  627 -1.84500 1.31117 2.54702
  628 -1.85036 1.31237 -2.54524
  629 -0.0846866 -9.35797 2.16284
  630 -15.7480 0.0451188 -0.530133
  631 -15.7439 0.0451362 0.530534
  632 18.6173 0.815141 -0.0843961
  633 18.6175 0.816798 0.0847859
  634 49.3659 0.381785 0.726466
  635 49.3641 0.383534 -0.728170
  636 42.7542 -4.19720 21.4850
  637 34.3421 1.19364 -1.21541
  638 34.3468 1.18658 1.21489
  639 0.338956 -1.00423 4.94077
  640 0.452333 -0.683502 -4.94734
  641 55.3995 -6.70284 -17.2347
  642 136.198 4.88265 -4.66449
  643 -14.2454 0.0259639 -0.921477
  644 -14.2400 0.0258383 0.921527
  645 2.40820 0.906264 -0.901152
  646 2.41037 0.907039 0.902612
  647 -0.279145 -5.93653 3.47302
  648 74.7018 3.73266 -9.55349
  649 58.9274 -0.00432917 0.0625635
  650 58.9234 -0.00427120 -0.0626502
  651 -3.81288 -0.229902 -3.10412
  652 -3.81092 -0.229273 3.10175
  653 -0.00688016 -13.3846 -2.11724
  654 59.9785 -0.0262141 0.154843
  655 59.9746 -0.0261207 -0.155064
  656 4.62851 1.99374 1.96498
  657 4.62439 1.99446 -1.96110
  658 44.2258 -4.24320 -11.1259
  659 45.1088 -4.23697 11.2707
  660 66.4509 -0.322585 0.885430
  661 66.4991 -0.316151 -0.938700
  662 0.284209 -17.1055 1.76189
  663 -4.56138 0.243890 -0.347276
  664 -4.55890 0.244257 0.347739
  665 21.0971 -1.67601 -19.9824
  666 19.4214 0.763312 0.104760
  667 19.4218 0.764537 -0.104665
  668 9.02715 0.982484 0.319995
  669 9.02595 0.981165 -0.319015
  670 10.9491 1.53664 -0.536874
  671 10.9499 1.53855 0.539416
  672 37.7923 1.33705 -3.35118
  673 37.8188 1.31110 3.35794
  674 9.45581 2.87072 0.859618
  675 9.43186 2.89055 -0.847250
  676 -7.58477 0.574625 -1.95662
  677 -7.57983 0.574086 1.95748
  678 -8.61933 0.590989 -2.17518
  679 -8.61397 0.590266 2.17548
  680 67.9677 -0.972908 -0.476248
  681 -0.0493614 -3.02556 -4.94083
  682 68.1532 -1.02134 0.357894
  683 84.8412 6.96952 0.648799
  684 -8.60678 0.0372219 1.53771
  685 -8.60982 0.0373043 -1.53882
  686 8.20532 2.25219 0.317570
  687 8.14887 2.28581 -0.302372
  688 -16.9639 0.0427533 -0.216075
  689 -16.9603 0.0427957 0.216362
  690 -0.0107587 -2.75593 4.96859
  691 -5.47721 0.0524273 3.31456
  692 -5.48109 0.0525619 -3.31705
  693 74.2936 -6.93569 -4.67563
  694 10.7810 0.550810 -0.0165928
  695 10.7798 0.549851 0.0168140
  696 1.83701 1.24404 1.41338
  697 1.83412 1.24358 -1.41118
  698 38.3325 -1.98286 -9.19579
  699 38.6639 -2.06151 9.40163
  700 141.871 9.79419 10.3374
  701 2.41713 -14.9727 -3.57436
  702 -1.07277 -2.21457 4.71022
  703 -1.07572 -2.22134 -4.71770
  704 7.41892 2.01964 -1.24535
  705 7.42132 2.02031 1.24922
  706 61.6402 -0.0118285 -0.420737
  707 61.6420 -0.0123128 0.419362
  708 28.2503 0.819890 0.156187
  709 28.2496 0.821792 -0.156341
  710 1.87483 2.05071 3.83045
  711 1.86407 2.05731 -3.82969
  712 0.528779 0.714468 0.639699
  713 0.526600 0.713789 -0.638756
  714 -1.96348 0.300971 4.93884
  715 -1.97315 0.302780 -4.94452
  716 50.1825 0.184223 0.295449
  717 50.1804 0.184843 -0.296082
  718 43.0538 0.669248 0.812041
  719 43.0520 0.671626 -0.813542
  720 5.33191 -5.13894 4.11698
  721 5.50591 -5.40635 -3.94448
  722 -3.66215 0.689675 4.31126
  723 -3.66978 0.691292 -4.31443
  724 1.59114 -4.75051 2.80137
  725 -0.209377 1.15192 4.70324
  726 -0.224281 1.15692 -4.70293
  727 -10.2477 0.327402 -1.32565
  728 -10.2432 0.327254 1.32646
  729 6.76549 2.52969 1.94072
  730 6.75956 2.53202 -1.93482
  731 66.5204 -2.10435 -4.32437
  732 63.1015 -5.67581 -0.797747
  733 -1.05618 -2.15170 3.27817
  734 -1.05414 -2.16053 -3.27275
  735 23.5914 -1.16884 -13.9476
  736 22.9419 -0.613584 14.1293
  737 14.1061 2.71315 -1.52275
  738 14.0770 2.74034 1.55953
  739 1.10589 -2.84585 4.18969
  740 -0.0979987 -6.87393 -1.86150
  741 30.4169 1.93344 -2.98835
  742 30.4388 1.91542 3.00714
  743 0.0885905 -13.6269 1.75310
  744 17.7574 2.77847 -0.374647
  745 17.7586 2.77524 0.385765
  746 64.5578 0.0400115 -1.05730
  747 64.5374 0.0305531 1.03618
  748 1.17408 -19.7674 -0.112477
  749 27.9541 2.39805 2.16956
  750 27.9419 2.41088 -2.15779
  751 7.14735 2.53379 -1.54667
  752 7.18146 2.50538 1.55161
  753 -11.7412 0.0793214 -1.09002
  754 -11.7365 0.0791969 1.08944
  755 31.3829 0.880216 -0.462174
  756 31.3842 0.877774 0.461791
  757 18.8007 2.97344 -1.08198
  758 18.8012 2.97250 1.10108
  759 -0.398300 1.72324 3.73116
  760 -0.407247 1.72728 -3.73025
  761 63.3051 -4.83297 0.0436847
  762 -10.6757 0.282094 1.02295
  763 -10.6796 0.282020 -1.02216
  764 141.511 24.5693 -17.2377
  765 -4.60567 0.505198 1.13046
  766 -4.60885 0.504849 -1.12925
  767 54.2268 0.374562 1.88358
  768 54.2257 0.387391 -1.89561
  769 100.581 6.83374 0.313088
  770 62.0257 -0.0814096 -0.813193
  771 62.0233 -0.0832071 0.809092
  772 38.7717 0.882261 0.991502
  773 38.7694 0.886157 -0.993078
  774 58.2284 -7.57245 15.6774
  775 24.5989 2.16424 -0.605959
  776 24.6033 2.15786 0.609506
  777 0.523641 -10.8883 2.48209
  778 67.0546 -9.06493 4.40330
  779 40.5585 0.410184 0.177907
  780 40.5573 0.411005 -0.178116
  781 53.9414 0.197647 0.0960453
  782 53.9385 0.197819 -0.0961736
  783 -0.258083 -5.51767 -3.23776
  784 0.291592 -9.69371 3.36520
  785 23.1413 2.75171 3.01931
  786 23.1322 2.75592 -2.98416
  787 141.400 1.71738 1.09881
  788 40.7488 0.579476 -4.26730
  789 40.7852 0.548373 4.27544
  790 -8.96638 0.300461 2.42726
  791 -8.97187 0.301130 -2.42796
  792 1.58135 -8.35759 1.26005
  793 1.04833 -18.6288 -0.635927
  794 94.2977 11.9846 0.151381
  795 -0.0869996 -6.84838 1.67876
  796 1.53102 1.16975 4.35490
  797 1.52826 1.17101 -4.36636
  798 11.7743 2.66217 0.889319
  799 11.7722 2.66208 -0.882305
  800 63.0097 -2.81794 -0.534796
  801 63.0678 -2.80188 0.268257
  802 75.5929 6.60330 -26.4831
  803 -11.0321 0.183354 -0.516522
  804 -11.0287 0.183512 0.517166
  805 -4.78531 -0.0248511 1.24992
  806 -4.78508 -0.0250013 -1.25078
  807 4.15655 -0.149940 1.89672
  808 4.06781 -0.155519 -1.89785
  809 47.3218 -0.0493989 3.86371
  810 47.2832 0.00105316 -3.86318
  811 23.5927 0.964987 0.00366020
  812 23.5932 0.963013 -0.00348557
  813 76.9589 -2.18341 8.88801
  814 7.25192 1.50305 -1.09565
  815 7.25370 1.50426 1.09845
  816 7.00674 0.460602 -0.368364
  817 6.94360 0.501567 0.394414
  818 -0.0869871 -5.63247 -4.47433
  819 111.331 13.7709 13.2375
  820 -16.4065 0.0333074 -0.520781
  821 -16.4019 0.0332868 0.521103
  822 -0.0238514 -16.7378 1.70005
  823 0.964843 -2.80146 -4.21845
  824 -2.35558 -0.149756 0.918637
  825 -2.35405 -0.150056 -0.918656
  826 87.5102 3.67181 -7.13579
  827 21.8043 2.49280 -0.750768
  828 21.8090 2.48681 0.759750
  829 59.9264 -0.695512 -1.92568
  830 59.9653 -0.710687 1.88000
  831 -15.5944 0.135078 0.673786
  832 -15.5997 0.135122 -0.673594
  833 -0.103216 -0.107431 -0.0847049
  834 -0.103416 -0.107627 0.0850238
  835 0.0617279 -17.1348 -1.68101
  836 0.0844183 -18.2874 -1.61475
  837 -17.5638 0.189893 0.116241
  838 -17.5668 0.189860 -0.116119
  839 8.47126 -4.81885 -8.69091
  840 36.7041 0.767470 -0.253127
  841 36.7052 0.766060 0.252626
  842 -2.18553 0.456792 0.146902
  843 -2.18777 0.456362 -0.146770
  844 55.4544 0.340362 -1.26587
  845 55.4540 0.335710 1.25984
  846 -6.30922 0.0423833 1.19391
  847 -6.30996 0.0424030 -1.19480
  848 32.5238 -1.43574 -21.4595
  849 57.1356 -4.99890 3.95505
  850 45.1323 0.467710 -0.359635
  851 45.1339 0.466744 0.358885
  852 56.5557 -5.45793 -4.48812
  853 16.9186 2.23164 0.101725
  854 16.9198 2.22795 -0.0962121
  855 23.7915 1.92000 -0.413459
  856 23.7943 1.91495 0.415718
  857 66.6172 -1.45978 3.29071
  858 3.54933 2.30281 3.31517
  859 3.53636 2.31219 -3.31534
  860 3.25164 0.489667 0.323084
  861 3.24981 0.488929 -0.322607
  862 30.9579 0.729878 0.197995
  863 30.9573 0.731374 -0.198229
  864 83.4266 -9.30050 7.78255
  865 51.7955 0.531050 -1.62575
  866 51.7977 0.522366 1.61766
  867 -0.118342 0.929210 1.12692
  868 -0.121076 0.928679 -1.12531
  869 52.1663 0.135994 0.445031
  870 52.1641 0.136684 -0.445980
  871 -10.5906 0.142616 -0.282842
  872 -10.5879 0.142783 0.282956
  873 -0.0499827 -5.22416 1.48918
  874 -0.0644393 -5.30571 -1.50137
  875 60.8268 -1.07664 7.55672
  876 -4.18591 0.948524 3.71350
  877 -4.19325 0.950815 -3.71464
  878 -0.0232602 -8.64947 -1.65969
  879 23.8294 1.22905 -0.183961
  880 23.8302 1.22647 0.184349
  881 44.5026 -2.31594 -6.95096
  882 44.8795 -2.56912 7.02359
  883 -2.07907 -0.783297 -4.74257
  884 -2.07234 -0.784690 4.73607
  885 1.89622 2.12716 3.54151
  886 1.88643 2.13244 -3.53942
  887 0.225260 -20.3077 1.27860
  888 0.197032 1.57971 4.35726
  889 0.185123 1.58493 -4.35721
  890 40.9954 -0.684206 -6.15379
  891 40.9160 -0.730739 6.20440
  892 71.1176 3.32304 9.76914
  893 15.7072 2.10025 -0.269533
  894 15.7067 2.10347 0.273539
  895 53.3494 0.542421 -1.23023
  896 53.3501 0.538450 1.22577
  897 -2.16501 -0.978173 4.12226
  898 -2.16750 -0.980896 -4.12756
  899 0.175765 -21.2120 -0.997534
  900 -3.32384 -0.267295 4.06654
  901 -3.32780 -0.267273 -4.07014
  902 1.36385 1.98837 -2.83464
  903 1.37057 1.98557 2.83740
  904 -0.165444 -1.29122 0.720050
  905 -0.167210 -1.28971 -0.721019
  906 3.83449 2.23602 -2.64225
  907 3.84189 2.23257 2.64638
  908 0.755196 -1.93481 4.62753
  909 0.640186 -1.80312 -4.82116
  910 51.0419 -1.31140 3.88832
  911 50.9122 -1.22969 -3.92663
  912 -17.8313 0.0757654 -0.170335
  913 -17.8281 0.0758082 0.170526
  914 -1.43573 -0.134179 0.684871
  915 -1.43419 -0.134349 -0.684498
  916 0.0735295 -12.3365 -1.52759
  917 -1.58523 -0.690948 -1.96783
  918 -1.58535 -0.689607 1.96866
  919 -6.97735 0.563292 3.11965
  920 -6.98323 0.564479 -3.12094
  921 15.1546 3.15905 -0.283269
  922 15.1492 3.16415 0.300483
  923 65.7055 5.50065 -1.87342
  924 -1.35224 1.56359 3.39557
  925 -1.35976 1.56642 -3.39449
  926 24.3304 1.43256 -6.23699
  927 24.3459 1.45398 6.32738
  928 -3.63752 1.12621 2.74879
  929 -3.64335 1.12775 -2.74776
  930 83.4046 -5.45377 -3.25658
  931 46.2692 1.87256 4.17763
  932 58.5457 -0.940132 -6.83765
  933 44.6964 0.889303 -2.62088
  934 44.7099 0.869067 2.61501
  935 -5.54937 0.731546 -1.43511
  936 -5.54551 0.731462 1.43646
  937 -11.2324 0.217810 1.59696
  938 -11.2377 0.218167 -1.59692
  939 -0.664181 -2.11827 -2.28895
  940 -0.660267 -2.12123 2.29399
  941 15.0410 1.30630 -0.190260
  942 15.0411 1.30847 0.191649
  943 -5.30442 0.497838 3.81380
  944 -5.31025 0.498717 -3.81647
  945 54.5274 0.148710 0.601335
  946 54.5253 0.149513 -0.602617
  947 -0.433808 -4.70904 3.52291
  948 1.28431 1.86176 -2.46923
  949 1.28978 1.86010 2.47203
  950 1.93485 1.37518 1.70874
  951 1.93145 1.37513 -1.70622
  952 8.34942 1.09399 -0.581923
  953 8.35065 1.09530 0.583257
  954 103.015 10.4833 0.0941532
  955 -0.385051 -0.110511 -0.263967
  956 -0.385868 -0.110545 0.264465
  957 3.07414 0.632473 -3.20859
  958 3.12743 0.600205 3.20485
  959 35.6660 1.74986 -2.62661
  960 35.6829 1.73067 2.63103
  961 3.81883 1.70066 -1.68624
  962 3.82223 1.70065 1.68939
  963 9.47238 -5.97346 12.0306
  964 69.1418 -0.424521 -0.433945
  965 68.9814 -0.407458 0.357947
  966 11.3621 -3.23058 10.2212
  967 11.7616 0.816195 0.0805869
  968 11.7606 0.815050 -0.0801843
  969 32.1043 -2.32365 -18.4959
  970 24.2258 0.753455 0.120258
  971 24.2258 0.754678 -0.120248
  972 2.86312 -4.05847 1.43032
  973 3.16562 -3.52795 -1.19015
  974 61.6309 -0.00309124 0.210238
  975 61.6270 -0.00297944 -0.210523
  976 -5.09692 0.000255756 2.98282
  977 -5.09960 0.000223148 -2.98505
  978 109.871 13.4706 4.59310
  979 -0.537578 -3.64685 -4.72269
  980 0.430558 -19.4113 1.22371
  981 -0.128829 -5.73240 4.38395
  982 63.5715 0.0464605 -0.830202
  983 63.5645 0.0438318 0.823934
  984 -0.843509 -1.53453 1.97105
  985 -0.845326 -1.53378 -1.96840
  986 76.9075 7.65014 -6.18729
  987 143.824 1.53773 -0.738321
  988 -0.203531 -0.294181 -0.287290
  989 -0.203355 -0.294793 0.287696
  990 35.9928 0.742465 -0.537423
  991 35.9942 0.740450 0.536717
  992 -0.559321 -3.51928 4.75571
  993 50.6073 0.486670 2.38634
  994 50.6001 0.505911 -2.39764
  995 66.2989 -4.59437 -3.60800
  996 -2.35077 -0.507736 2.23812
  997 -2.35061 -0.509277 -2.23843
  998 0.928016 -4.88328 3.70516
  999 -0.129432 -8.49908 3.43557
  1000 -0.00844564 -8.57575 1.65477
  1001 65.3483 4.65449 -0.325533
  1002 76.4027 8.37444 3.98146
  1003 55.3067 -6.80630 -8.32851
  1004 0.708017 -8.70238 3.04336
  1005 0.921744 -12.6943 1.12960
  1006 14.5693 0.665856 0.0899883
  1007 14.5684 0.664794 -0.0898844
  1008 -0.621024 -0.706310 -0.927662
  1009 -0.620670 -0.706725 0.928587
  1010 0.449953 -7.13979 -3.87416
  1011 45.0827 0.324142 -0.131618
  1012 45.0844 0.323565 0.131370
  1013 8.37014 -0.910495 -3.29037
  1014 7.99899 -0.886459 3.26098
  1015 -1.25284 1.31983 4.33230
  1016 -1.26384 1.32433 -4.33381
  1017 -5.85952 0.849636 -2.72344
  1018 -5.85368 0.848382 2.72382
  1019 33.3750 0.575551 -6.24382
  1020 33.4107 0.594910 6.32297
  1021 23.7208 2.19724 -4.08695
  1022 23.7293 2.19217 4.13999
  1023 26.0014 2.24060 -1.18949
  1024 26.0075 2.23188 1.19463
  1025 68.9093 -2.42373 -9.22573
  1026 -2.17562 0.782596 4.64713
  1027 -2.18588 0.785225 -4.65144
  1028 49.0360 0.188847 3.21870
  1029 49.0120 0.227514 -3.22894
  1030 -0.438322 -2.83651 5.02139
  1031 -4.02787 -0.147589 2.17557
  1032 -4.02839 -0.148077 -2.17700
  1033 44.5375 0.689784 -3.17633
  1034 44.5588 0.661728 3.17141
  1035 52.6800 1.07482 -6.55001
  1036 -0.0963647 -8.47943 -3.61081
  1037 -0.712664 -3.35724 4.19545
  1038 -0.740382 -3.39070 -4.15712
  1039 30.9112 2.14122 -2.04694
  1040 30.9240 2.12692 2.05388
  1041 39.6809 1.04365 1.24353
  1042 39.6775 1.04910 -1.24572
  1043 66.1674 -4.48509 3.18343
  1044 2.26566 0.524513 -0.0928335
  1045 2.26756 0.525127 0.0929735
  1046 56.0190 -7.62961 8.90554
  1047 -1.33171 0.389422 0.401828
  1048 -1.33396 0.388867 -0.401298
  1049 11.3389 3.14144 0.746535
  1050 11.3292 3.14888 -0.733964
  1051 3.93302 2.45528 2.88248
  1052 3.92391 2.46033 -2.87859
  1053 0.564150 -10.7557 -2.57226
  1054 15.4088 0.896017 -0.199243
  1055 15.4091 0.897830 0.200099
  1056 44.4381 1.62620 1.70464
  1057 45.3731 0.626396 1.19814
  1058 45.3708 0.630951 -1.20118
  1059 -0.394740 -2.92712 -5.02728
  1060 68.5107 -0.841822 -1.74810
  1061 -0.243614 -0.455794 5.10730
  1062 -0.194951 -0.408642 -5.08940
  1063 63.3260 -0.0554591 -0.454507
  1064 63.3262 -0.0560499 0.452612
  1065 67.2824 -0.158330 -0.789448
  1066 67.2365 -0.168460 0.760041
  1067 -0.0519100 -13.0181 1.25617
  1068 38.4784 1.31360 -1.66538
  1069 38.4834 1.30514 1.66320
  1070 47.3489 0.695849 1.42541
  1071 47.3464 0.701415 -1.42963
  1072 0.690997 0.938188 4.72970
  1073 0.688744 0.940404 -4.72858
  1074 103.559 7.41947 0.650129
  1075 -1.48833 -0.715642 5.11083
  1076 -1.50415 -0.702633 -5.11983
  1077 13.7872 3.03434 0.439803
  1078 13.7852 3.03478 -0.430016
  1079 -9.18665 0.250707 -0.553491
  1080 -9.18361 0.250953 0.554095
  1081 23.1237 1.05513 -7.24261
  1082 23.1068 1.12492 7.35547
  1083 6.20448 2.76385 2.40411
  1084 6.19405 2.77026 -2.39836
  1085 15.4883 1.42647 -5.03428
  1086 15.4134 1.51136 5.09921
  1087 -0.460691 -4.41533 -3.42742
  1088 55.8118 0.546190 8.34893
  1089 39.9869 -1.83779 24.3709
  1090 5.83871 2.77542 2.49142
  1091 5.82513 2.78511 -2.48676
  1092 23.7117 1.62433 -0.269875
  1093 23.7138 1.62008 0.271251
  1094 89.8722 -1.49073 4.47252
  1095 5.17879 1.05771 1.92146
  1096 5.11285 1.07909 -1.93493
  1097 -2.69635 -0.614752 3.00116
  1098 -2.69705 -0.617026 -3.00287
  1099 -0.0890978 -1.93260 0.790049
  1100 -0.0923870 -1.93112 -0.793042
  1101 58.8214 0.135909 1.96419
  1102 58.8189 0.162386 -1.98909
  1103 0.00122537 -4.46767 4.73944
  1104 -4.21048 0.210996 -4.11456
  1105 -4.20526 0.210720 4.11142
  1106 0.0247606 -15.9324 -1.65236
  1107 -1.06558 -1.47191 5.09998
  1108 -1.06348 -1.44490 -5.10394
  1109 56.5553 0.230701 -0.828327
  1110 56.5565 0.228967 0.825741
  1111 57.8125 -0.238342 2.30065
  1112 57.7880 -0.196616 -2.32790
  1113 9.32447 1.81419 -1.10461
  1114 9.25530 1.86235 1.13235
  1115 -0.148783 -8.20790 -2.87982
  1116 76.4725 -9.01177 -13.6893
  1117 99.5823 10.7233 -2.04436
  1118 0.912210 -13.4588 -0.798262
  1119 3.02992 1.82937 -3.69504
  1120 3.04612 1.81699 3.68651
  1121 8.63302 3.00163 1.51460
  1122 8.61717 3.01387 -1.50547
  1123 19.0394 1.48293 -0.0910988
  1124 19.0385 1.48609 0.0926971
  1125 -1.33248 -1.89862 3.90280
  1126 -1.32980 -1.91458 -3.90687
  1127 -4.13004 1.14487 3.45981
  1128 -4.13708 1.14704 -3.46002
  1129 -1.76198 1.40282 4.02749
  1130 -1.77131 1.40646 -4.02814
  1131 54.6555 -2.74979 -3.71933
  1132 55.0334 -2.78951 3.66691
  1133 0.0295809 -9.61879 -3.47124
  1134 28.3012 -0.416779 -9.34410
  1135 28.3684 -0.322476 9.53313
  1136 8.54887 2.87244 -1.52219
  1137 8.55475 2.86891 1.52959
  1138 29.6918 8.03108 27.3649
  1139 6.49950 2.36934 1.84232
  1140 6.49495 2.37053 -1.83726
  1141 75.4547 -9.25623 -2.24568
  1142 27.6791 1.11663 0.263989
  1143 27.6778 1.11956 -0.263935
  1144 -1.30263 -1.16826 2.35213
  1145 -1.30279 -1.17039 -2.35042
  1146 -1.56808 -1.41680 3.06410
  1147 -1.56709 -1.42151 -3.06315
  1148 48.5641 -5.62658 -13.5747
  1149 49.6867 -6.14208 13.6889
  1150 7.83764 0.581374 0.00450416
  1151 7.83904 0.582299 -0.00408567
  1152 29.9526 1.49830 -4.93721
  1153 29.9681 1.47282 4.99908
  1154 67.5331 -9.99243 10.0434
  1155 61.1816 -0.0693803 0.126205
  1156 61.1772 -0.0693117 -0.126293
  1157 -5.86753 0.870253 3.07427
  1158 -5.87383 0.871699 -3.07450
  1159 -9.87339 0.339593 -1.65785
  1160 -9.86860 0.339350 1.65858
  1161 14.4999 -2.16317 15.6853
  1162 42.8924 3.14142 -3.43170
  1163 27.3970 2.25118 -2.21093
  1164 27.4116 2.23841 2.22733
  1165 89.1788 -5.27351 14.5205
  1166 27.8195 2.10203 -3.48019
  1167 27.8389 2.08453 3.50890
  1168 6.22381 1.14273 -0.775732
  1169 6.22545 1.14397 0.777370
  1170 2.26641 -10.7796 0.822014
  1171 2.29625 -10.5940 -1.43558
  1172 38.0123 -3.26922 -13.6645
  1173 38.5914 -3.09054 13.6797
  1174 14.3597 2.14496 -3.26568
  1175 14.3043 2.19984 3.31870
  1176 68.2441 -4.95532 -6.22972
  1177 -2.67303 -0.292648 4.62615
  1178 -2.67906 -0.291798 -4.63046
  1179 -0.128404 -4.00977 -4.85974
  1180 16.5391 -0.510415 -9.62118
  1181 16.5909 -0.439019 9.82305
  1182 -0.0451176 -3.44642 0.886296
  1183 -0.0383585 -3.45421 -0.896636
  1184 -17.0450 0.151682 -0.482841
  1185 -17.0400 0.151655 0.483063
  1186 55.2536 0.136546 -0.208715
  1187 55.2564 0.136222 0.208169
  1188 33.0776 1.56698 -1.30026
  1189 33.0842 1.55817 1.30076
  1190 -1.45398 -0.151917 5.15333
  1191 -1.45761 -0.132588 -5.16118
  1192 0.0127562 -14.1075 -1.40916
  1193 -14.3526 0.0399382 0.746767
  1194 -14.3580 0.0400272 -0.746888
  1195 10.0855 -1.47539 -6.40633
  1196 10.0048 -1.40898 6.65043
  1197 63.6222 -3.93296 0.450295
  1198 17.2243 0.408648 -8.60091
  1199 17.2466 0.477577 8.71596
  1200 -7.83002 0.0397229 1.09172
  1201 -7.83171 0.0397293 -1.09257
  1202 0.188555 -12.8013 -2.56244
  1203 -3.24994 0.625863 -0.749794
  1204 -3.24727 0.626333 0.750770
  1205 8.75427 2.50202 1.50467
  1206 8.75020 2.50282 -1.49857
  1207 35.4827 0.519009 -0.191852
  1208 35.4835 0.517996 0.191709
  1209 48.5098 0.482858 0.914733
  1210 48.5081 0.485715 -0.917215
  1211 2.32491 -0.815789 3.27727
  1212 2.29059 -0.856085 -3.31736
  1213 0.372612 -7.49438 3.83908
  1214 86.4539 10.9251 5.49232
  1215 -2.68325 -0.219822 1.69475
  1216 -2.68265 -0.220592 -1.69509
  1217 0.287522 -7.01167 -3.96965
  1218 -0.266993 -4.10131 2.49172
  1219 -0.251910 -4.07052 -2.58335
  1220 68.9288 -0.725149 1.56204
  1221 0.0660016 -16.2094 1.45363
  1222 0.393329 -5.22911 -4.42061
  1223 7.17597 0.498659 0.120104
  1224 7.17448 0.497867 -0.119984
  1225 -0.746473 -3.06257 4.65191
  1226 -8.31178 0.496665 -1.45203
  1227 -8.30755 0.496553 1.45306
  1228 146.414 2.72338 3.90210
  1229 -4.22658 0.421102 4.19692
  1230 -4.23286 0.421817 -4.20014
  1231 32.1352 1.47218 -4.47462
  1232 32.1740 1.43949 4.50655
  1233 1.90869 -3.93393 -2.39189
  1234 30.7036 1.92294 -1.64290
  1235 30.7133 1.91122 1.64718
  1236 1.17405 -10.7643 -1.14494
  1237 -0.747257 -3.06480 -4.63880
  1238 -6.20745 0.327216 0.922292
  1239 -6.21056 0.326884 -0.921332
  1240 -2.61210 0.0889149 -4.77227
  1241 -2.60491 0.0884137 4.76850
  1242 65.1286 5.08353 7.09353
  1243 37.4276 0.617264 -4.85779
  1244 37.4813 0.595593 4.87020
  1245 -18.0420 0.0595459 -0.201350
  1246 -18.0382 0.0595665 0.201595
  1247 33.9562 1.17227 -0.898930
  1248 33.9586 1.16813 0.898142
  1249 -18.7025 -0.286406 -0.0446111
  1250 -18.7054 -0.286418 0.0446342
  1251 50.8252 -3.68787 -5.54670
  1252 -8.33792 0.132839 2.35758
  1253 -8.34222 0.133124 -2.35910
  1254 51.3820 -3.89340 5.49399
  1255 34.4359 1.60758 -1.90394
  1256 34.4447 1.59539 1.90466
  1257 3.82800 -13.0682 -6.39636
  1258 0.0709787 -11.5986 -2.99436
  1259 -0.281500 -4.91912 4.37068
  1260 113.147 14.6111 -12.7725
  1261 -0.0313473 -10.7859 2.87451
  1262 116.818 10.9297 -5.71320
  1263 -0.0437116 -19.8998 -1.41095
  1264 4.54087 0.767411 -0.360758
  1265 4.54259 0.768344 0.361668
  1266 -0.0518448 -4.43350 0.929921
  1267 -0.0425335 -4.45597 -0.926529
  1268 18.6915 0.803202 -0.0944507
  1269 18.6919 0.804568 0.0946615
  1270 69.1577 -5.66558 5.97654
  1271 0.436336 0.690469 -0.870885
  1272 0.438642 0.691127 0.872035
  1273 0.405089 -22.5595 0.904403
  1274 0.258209 -23.9045 -0.884068
  1275 63.5982 -8.48905 -5.70780
  1276 -0.186594 -5.89129 2.77365
  1277 64.8777 3.79168 -8.64814
  1278 -0.200130 -7.76561 2.73674
  1279 0.127778 -21.6351 -1.16926
  1280 31.5275 1.25590 -0.917317
  1281 31.5312 1.24954 0.917423
  1282 -0.0196767 -11.4616 1.23634
  1283 -0.0335116 -9.63945 -2.80847
  1284 157.913 24.7133 21.9282
  1285 61.4945 0.106473 0.101815
  1286 61.4899 0.106465 -0.101822
  1287 1.30161 -0.192334 4.38283
  1288 1.25658 -0.127073 -4.39654
  1289 -1.24610 0.762799 4.93009
  1290 -1.26375 0.766341 -4.93524
  1291 63.5690 -1.27725 -4.87954
  1292 59.5247 -2.41317 -1.97471
  1293 59.4423 -2.76894 1.97002
  1294 7.97264 1.27461 0.828170
  1295 7.97122 1.27311 -0.826020
  1296 -10.2357 0.282554 -1.91112
  1297 -10.2303 0.282072 1.91087
  1298 66.4654 -10.0417 -8.37868
  1299 -0.504009 -1.20345 1.21811
  1300 -0.505734 -1.20211 -1.21728
  1301 69.7540 -3.45152 8.69125
  1302 -0.768559 -2.84397 3.35991
  1303 -0.760382 -2.85353 -3.34397
  1304 -7.09718 0.512538 1.08614
  1305 -7.10070 0.512366 -1.08506
  1306 9.88485 0.550475 -2.91945
  1307 9.78300 0.614505 2.92657
  1308 15.7238 0.762973 0.193454
  1309 15.7232 0.761591 -0.193103
  1310 -7.20920 0.698588 2.99382
  1311 -7.21510 0.699706 -2.99451
  1312 57.4743 0.276876 0.158556
  1313 57.4706 0.276899 -0.158587
  1314 30.3247 -1.39322 18.3535
  1315 46.4034 0.362582 0.319676
  1316 46.4016 0.363244 -0.320156
  1317 29.7521 0.574374 -7.04933
  1318 29.7727 0.534050 7.12655
  1319 0.273170 -13.1459 -2.04789
  1320 11.1158 2.60922 -0.798119
  1321 11.0725 2.64396 0.826843
  1322 -0.105709 -0.104955 -0.144733
  1323 -0.106218 -0.105020 0.145143
  1324 39.0808 1.51295 2.57283
  1325 39.0670 1.53244 -2.57371
  1326 18.8002 1.89770 0.0452298
  1327 18.7987 1.90162 -0.0421772
  1328 28.2310 1.94426 -1.01422
  1329 28.2369 1.93615 1.01694
  1330 37.6790 0.544004 -0.316999
  1331 37.6800 0.542988 0.316681
  1332 -1.21323 -0.595454 -1.37848
  1333 -1.21340 -0.595043 1.37955
  1334 -12.3959 0.0703268 0.647218
  1335 -12.3996 0.0702518 -0.646568
  1336 -2.11633 -0.994218 -3.44026
  1337 -2.11595 -0.990029 3.43815
  1338 -7.59054 0.224640 0.284970
  1339 -7.59318 0.224353 -0.284673
  1340 -18.8418 0.187353 0.117365
  1341 -18.8449 0.187326 -0.117240
  1342 71.8947 -10.2814 11.7341
  1343 49.0677 -0.424564 -6.69183
</Section>

newXOutput 10

<Section columns = "stress_xx | stress_yy | stress_xy">
  1 71.3289 -0.0479722 0.0631900
  2 71.3351 -0.0480017 -0.0632229
  3 -22.8389 0.129125 -0.304753
  4 0.0372307 0.0113374 0.0649036
  5 133.085 30.6420 39.9117
  6 150.238 35.2483 -37.9328
  7 0.0371180 0.0112266 -0.0647558
  8 -22.8351 0.129143 0.304769
  9 71.0958 -0.0418019 -0.232046
  10 71.1383 -0.167050 -0.385866
  11 71.8192 -0.159248 -0.0932875
  12 71.8641 -0.137894 -0.435932
  13 71.9852 -0.128830 -0.115352
  14 73.5274 -0.136709 -0.168107
  15 74.0195 -0.222908 -0.582649
  16 74.5075 -0.0767445 -0.387156
  17 74.7696 0.123585 -0.748884
  18 77.8863 -0.356862 -0.643468
  19 79.1421 -0.251594 -0.843263
  20 80.4738 -0.425480 -0.265083
  21 81.0136 -0.601602 -0.101356
  22 80.0344 -0.728153 1.24979
  23 76.7328 -0.848966 2.52481
  24 69.2914 -1.03466 5.24232
  25 57.6800 0.460084 6.04407
  26 47.8483 0.504853 5.72172
  27 34.4815 1.35090 3.47681
  28 36.9656 1.32022 0.213527
  29 29.7305 4.03009 -2.26689
  30 44.8390 1.78697 -6.07801
  31 53.4957 0.358910 -5.01343
  32 67.6445 -0.269502 -4.33718
  33 75.5866 -1.02985 -2.99679
  34 79.8174 -0.852481 -1.25201
  35 80.7774 -0.578809 0.0999581
  36 80.3032 -0.418737 0.237549
  37 79.0541 -0.254163 0.811131
  38 77.8374 -0.363032 0.623913
  39 74.7517 0.119792 0.738390
  40 74.5008 -0.0781889 0.382778
  41 74.0196 -0.223727 0.580603
  42 73.5303 -0.137124 0.167042
  43 71.9895 -0.129037 0.114755
  44 71.8696 -0.138088 0.435723
  45 71.8251 -0.159368 0.0931504
  46 71.1443 -0.167120 0.385895
  47 71.1019 -0.0418256 0.232065
  48 66.9882 0.296016 -0.0806675
  49 61.7368 0.263103 -0.193534
  50 55.2254 0.0775164 -0.213894
  51 48.5292 0.510171 -0.177903
  52 42.7203 0.496910 -0.144425
  53 36.5514 0.704890 -0.173273
  54 30.5095 1.01006 -0.117720
  55 24.2837 0.932907 -0.222069
  56 19.1519 0.730552 -0.301499
  57 12.4594 0.548345 -0.317295
  58 5.69630 0.635855 -0.239151
  59 0.0728038 0.517564 -0.230723
  60 -6.91148 0.333051 -0.215628
  61 -12.1012 0.0374262 -0.489744
  62 -17.1187 -0.292105 -0.227991
  63 -22.1832 0.0649845 0.137506
  64 -23.2483 0.403841 -0.0750612
  65 -23.2912 0.188040 0.0432158
  66 -22.5020 0.105582 -0.0530482
  67 -22.6514 0.265645 -0.301308
  68 -22.2460 0.317353 -0.0664925
  69 -21.0003 0.107478 -0.452772
  70 -21.1267 0.194126 -0.481147
  71 -20.5365 0.186318 -0.288798
  72 -18.9745 0.122967 -0.417920
  73 -18.1684 0.204820 -0.662502
  74 -17.0181 0.224245 -0.556119
  75 -15.0081 0.116317 -0.920102
  76 -13.8664 0.0354229 -0.770574
  77 -11.8585 0.0510484 -0.878071
  78 -10.1153 0.0324561 -0.959329
  79 -8.61811 0.00877604 -0.756672
  80 -6.56694 0.0417981 -0.759519
  81 -4.80788 -0.0237849 -0.807223
  82 -3.10832 -0.0914093 -0.700738
  83 -1.76938 -0.0794212 -0.532077
  84 -0.858798 -0.135396 -0.440901
  85 -0.126427 -0.0779613 -0.152614
  86 0.0221321 -0.0841384 -0.0510958
  87 -0.0460120 -0.0352969 -0.00445804
  88 -0.121686 -0.0944129 -0.132956
  89 -0.117741 -0.723421 -0.381509
  90 -0.102613 -1.64334 -0.551103
  91 -0.0547407 -2.83848 -0.808228
  92 -0.0300834 -4.37455 -0.698328
  93 -0.0299106 -5.80373 -0.880293
  94 -0.110807 -7.57078 -1.00015
  95 -0.0449196 -9.73682 -1.01764
  96 0.0215242 -11.9205 -0.979090
  97 0.0483758 -14.2697 -0.969673
  98 0.0716358 -16.6968 -0.960112
  99 0.0136151 -18.5357 -1.30525
  100 0.133276 -21.0957 -1.17291
  101 0.157464 -24.1109 -0.963700
  102 0.0150985 -25.5764 -1.28385
  103 0.224269 -27.9173 -1.21100
  104 0.523509 -31.0544 -0.701455
  105 1.00954 -32.1903 -1.10930
  106 0.646832 -30.4422 0.259160
  107 0.823875 -24.6475 2.07369
  108 5.36284 -17.6678 7.30482
  109 17.6710 14.9366 28.8131
  110 207.240 10.2922 19.6172
  111 177.161 3.39331 7.30740
  112 171.479 1.42098 1.57970
  113 170.353 0.660189 -0.273315
  114 171.394 2.07635 -3.86679
  115 176.211 5.99782 -8.48658
  116 200.829 20.1341 -24.7404
  117 41.3832 11.2098 -35.4080
  118 8.64590 -17.3604 -9.29264
  119 2.50570 -26.9168 -3.18300
  120 0.674368 -28.9720 -0.322402
  121 0.802071 -31.0772 0.740336
  122 0.239918 -29.9057 0.582076
  123 0.100266 -27.2322 1.06455
  124 0.100151 -25.5066 0.852697
  125 0.133790 -22.8450 1.34428
  126 -0.00604849 -21.2640 1.28194
  127 0.0531908 -19.1614 0.929014
  128 0.0975965 -16.4897 1.15767
  129 0.0161911 -14.5916 0.919527
  130 0.0299057 -11.9464 1.15942
  131 -0.119163 -9.85162 0.993235
  132 -0.0867539 -7.57866 0.970263
  133 -0.0225073 -5.77391 0.883104
  134 -0.0381834 -4.35028 0.700349
  135 -0.0537890 -2.83032 0.800708
  136 -0.101252 -1.64208 0.548437
  137 -0.117146 -0.724433 0.381227
  138 -0.121568 -0.0953930 0.133186
  139 -0.0460137 -0.0357369 0.00474398
  140 0.0216132 -0.0842306 0.0513747
  141 -0.127462 -0.0779519 0.153003
  142 -0.860578 -0.135330 0.441386
  143 -1.77195 -0.0792285 0.532328
  144 -3.11083 -0.0911706 0.700652
  145 -4.80956 -0.0235888 0.806712
  146 -6.56755 0.0418346 0.758894
  147 -8.61723 0.00883226 0.756042
  148 -10.1131 0.0324976 0.958675
  149 -11.8547 0.0510010 0.877450
  150 -13.8614 0.0353534 0.770071
  151 -15.0024 0.116228 0.919717
  152 -17.0116 0.224140 0.555915
  153 -18.1618 0.204723 0.662433
  154 -18.9680 0.122917 0.417987
  155 -20.5301 0.186278 0.288928
  156 -21.1207 0.194087 0.481310
  157 -20.9948 0.107462 0.452971
  158 -22.2409 0.317348 0.0667088
  159 -22.6466 0.265657 0.301472
  160 -22.4976 0.105597 0.0531804
  161 -23.2871 0.188056 -0.0431204
  162 -23.2443 0.403855 0.0751378
  163 -22.1794 0.0649943 -0.137458
  164 -17.1151 -0.292029 0.228036
  165 -12.0978 0.0376088 0.489790
  166 -6.90836 0.333389 0.215711
  167 0.0753854 0.518102 0.230790
  168 5.69840 0.636622 0.239211
  169 12.4608 0.549353 0.317359
  170 19.1527 0.731722 0.301529
  171 24.2840 0.934174 0.222081
  172 30.5092 1.01132 0.117678
  173 36.5507 0.706021 0.173188
  174 42.7190 0.497856 0.144308
  175 48.5273 0.510827 0.177739
  176 55.2226 0.0779294 0.213704
  177 61.7329 0.263221 0.193415
  178 66.9831 0.296008 0.0806140
  179 17.3978 3.38448 -0.0245104
  180 17.3946 3.38550 0.0396821
  181 -0.665380 0.353390 5.64301
  182 -0.682280 0.354398 -5.64099
  183 40.8929 -0.638663 -8.46233
  184 40.8862 -0.727577 8.56617
  185 7.69392 1.41554 0.552135
  186 7.60270 1.45672 -0.540533
  187 5.05445 1.28769 -1.15878
  188 5.05697 1.28872 1.16093
  189 39.1335 1.14466 -1.10274
  190 39.1374 1.13887 1.10186
  191 -1.44228 1.67156 3.28357
  192 -1.44963 1.67387 -3.28185
  193 45.5352 1.52352 -3.11551
  194 45.5564 1.49845 3.11522
  195 -1.86009 -1.63919 4.22861
  196 -1.85841 -1.64747 -4.23195
  197 0.281707 -4.13296 -5.32524
  198 13.4654 -0.261777 -7.25809
  199 0.373098 -4.40439 5.21932
  200 13.2459 -0.136274 7.41072
  201 64.8951 -9.55756 -12.4595
  202 67.3395 -9.94226 11.8802
  203 22.5519 1.15301 0.0120731
  204 22.5522 1.15071 -0.0114459
  205 -4.85543 0.424172 -0.715697
  206 -4.85220 0.424641 0.716440
  207 -5.60654 0.778415 4.28349
  208 -5.61424 0.780289 -4.28605
  209 22.6354 2.49903 -0.193175
  210 22.6381 2.49420 0.197727
  211 6.49450 2.86907 2.69911
  212 6.47234 2.88724 -2.69755
  213 -7.50513 0.806310 -1.93214
  214 -7.49986 0.806004 1.93337
  215 52.8919 0.383844 0.572990
  216 52.8896 0.385248 -0.574191
  217 1.51121 -7.87714 2.73225
  218 1.64679 -7.21900 -2.52017
  219 -0.542743 -4.59031 4.81999
  220 -0.549499 -4.74883 -4.66066
  221 20.7780 3.12903 -2.83797
  222 20.7683 3.14055 2.88425
  223 -4.87869 -0.0604695 4.18322
  224 -4.88309 -0.0604936 -4.18658
  225 56.6006 0.620993 -1.79877
  226 56.6031 0.613616 1.79232
  227 60.5905 -0.640532 -3.46718
  228 60.6303 -0.710793 3.43712
  229 95.7347 7.84513 -0.286684
  230 87.8769 9.38261 7.45588
  231 87.7056 -1.86088 -9.98479
  232 9.76978 2.59263 1.57677
  233 9.76636 2.59275 -1.57104
  234 0.175374 1.92799 4.51709
  235 0.163215 1.93380 -4.51672
  236 67.6318 -4.11096 -1.86758
  237 67.2192 -4.16874 2.07202
  238 36.9846 0.715298 -0.365078
  239 36.9859 0.713313 0.364637
  240 -8.88881 0.616441 2.91484
  241 -8.89544 0.617533 -2.91519
  242 -1.16002 -1.14444 -1.86371
  243 -1.15943 -1.14426 1.86544
  244 -10.2382 0.327795 1.03030
  245 -10.2425 0.327583 -1.02933
  246 29.9452 2.63062 -1.80026
  247 29.9549 2.61883 1.80964
  248 38.3613 1.42002 -4.67887
  249 38.4008 1.38964 4.70146
  250 8.38748 0.879983 -0.227316
  251 8.38923 0.881083 0.228026
  252 21.6698 -1.62294 -16.9610
  253 25.8571 -0.837861 18.7165
  254 2.60273 1.10875 4.45291
  255 2.59164 1.13975 -4.46305
  256 93.0977 -8.78106 0.123547
  257 7.17523 3.09545 2.33091
  258 7.16626 3.10052 -2.32427
  259 21.1708 2.06358 -5.89472
  260 21.1406 2.12445 5.98337
  261 103.213 13.5113 -3.39969
  262 61.3852 0.295562 2.43593
  263 61.3790 0.319180 -2.45382
  264 -0.572129 -3.46774 -2.95790
  265 -0.558228 -3.48299 2.97065
  266 -0.143744 -8.36438 -4.16873
  267 0.221806 -10.0129 -4.02469
  268 0.106265 -9.91297 4.14104
  269 -1.67226 -1.47376 5.54382
  270 -1.67726 -1.46916 -5.56046
  271 2.99562 -8.90355 -0.448466
  272 3.21204 -8.32631 0.942097
  273 -3.57408 -0.315219 2.60367
  274 -3.57452 -0.316357 -2.60506
  275 43.0177 1.57938 -1.87365
  276 43.0263 1.56756 1.87156
  277 76.1210 -8.34531 0.589372
  278 15.8347 1.74377 -0.407787
  279 15.8349 1.74624 0.409994
  280 -0.223123 -7.83373 3.97488
  281 0.728491 1.69891 2.26231
  282 0.723474 1.69964 -2.25955
  283 122.588 8.94754 -2.38277
  284 59.8505 0.265246 0.722909
  285 59.8482 0.266987 -0.725189
  286 38.7261 -2.34436 -12.9405
  287 39.1154 -2.30861 13.1776
  288 76.0052 -7.88788 -1.87187
  289 -7.44641 0.212149 3.33339
  290 -7.45126 0.212498 -3.33581
  291 74.8419 -7.95688 21.6605
  292 -3.49631 0.458086 5.11214
  293 -3.50460 0.458677 -5.11656
  294 11.7488 3.26866 -0.0436502
  295 11.7080 3.30133 0.0672236
  296 -14.3295 0.178485 0.202082
  297 -14.3332 0.178373 -0.201843
  298 62.7280 -1.21008 -29.9470
  299 -13.0089 0.285709 -1.61181
  300 -13.0028 0.285374 1.61220
  301 -0.531255 -1.81421 5.77600
  302 -0.359780 -1.78755 -5.73967
  303 26.6262 3.00278 -2.67290
  304 26.6363 2.99450 2.69874
  305 4.95004 0.949689 0.865359
  306 4.94781 0.948641 -0.864066
  307 27.9452 1.48471 -0.408168
  308 27.9470 1.48084 0.408866
  309 2.40116 -2.66060 3.51171
  310 2.18690 -3.07805 -3.52586
  311 27.1198 0.870701 -0.0590376
  312 27.1200 0.869084 0.0590788
  313 -10.4879 0.271198 2.47795
  314 -10.4936 0.271675 -2.47929
  315 6.43077 -1.49516 -0.697797
  316 6.22650 -1.49656 0.528884
  317 62.6931 0.129069 0.199178
  318 62.6891 0.129296 -0.199477
  319 138.552 8.18624 4.71636
  320 12.9921 2.13500 0.851373
  321 12.9910 2.13295 -0.847444
  322 -3.92216 0.814680 1.44740
  323 -3.92622 0.814472 -1.44578
  324 18.2802 2.86840 0.117977
  325 18.2808 2.86510 -0.109266
  326 1.74869 1.84509 4.73642
  327 1.73863 1.85105 -4.73962
  328 0.266548 -14.3054 3.01401
  329 -14.7177 0.0940603 -0.433246
  330 -14.7137 0.0941811 0.433687
  331 47.1669 0.466644 -0.369015
  332 47.1687 0.465587 0.368462
  333 49.7040 0.664423 -0.979828
  334 49.7066 0.660739 0.977434
  335 -13.5605 0.278017 -1.20975
  336 -13.5553 0.277983 1.21049
  337 -1.37638 0.424120 0.210231
  338 -1.37911 0.423597 -0.209884
  339 -0.299413 -5.70134 2.96772
  340 -0.239756 -5.92809 -2.96361
  341 55.3181 -4.85083 -8.59341
  342 57.5900 -5.79039 8.40980
  343 32.5078 1.99485 -1.07714
  344 32.5128 1.98717 1.07864
  345 13.7348 3.45160 0.306455
  346 13.7181 3.46392 -0.287877
  347 -5.86294 1.05912 2.69212
  348 -5.86915 1.06027 -2.69111
  349 105.881 -0.419792 0.229931
  350 5.08342 -10.1269 -4.92414
  351 5.44238 -9.66254 5.22895
  352 -2.76312 1.59936 4.19414
  353 -2.77234 1.60270 -4.19441
  354 -3.02498 -0.665595 4.87421
  355 -3.02993 -0.665849 -4.87975
  356 119.509 18.5821 -3.13909
  357 74.7548 -1.67023 11.3146
  358 71.1556 -1.52752 -1.39842
  359 71.0510 -1.49350 1.25811
  360 48.9542 -0.399622 -5.42597
  361 48.9055 -0.461577 5.42184
  362 0.0913703 -17.2146 -2.48214
  363 65.5145 0.345112 -1.38968
  364 65.5112 0.338062 1.38003
  365 0.796827 -16.4531 2.14670
  366 72.5462 5.62241 -6.67781
  367 17.3675 0.955853 0.319188
  368 17.3667 0.954568 -0.318963
  369 49.3928 0.649815 -4.03771
  370 49.4280 0.613527 4.03594
  371 53.7416 0.752723 -2.49488
  372 53.7493 0.736575 2.48586
  373 -2.03343 0.761798 1.02872
  374 -2.03675 0.761240 -1.02737
  375 29.8029 1.66359 -6.24305
  376 29.8266 1.67688 6.31716
  377 64.6789 0.127926 0.329706
  378 64.6752 0.128345 -0.330475
  379 35.2901 2.28084 -3.04681
  380 35.3093 2.26067 3.05967
  381 41.3620 1.01167 0.752453
  382 41.3598 1.01480 -0.753558
  383 -1.99786 -0.370797 1.58678
  384 -1.99710 -0.371552 -1.58632
  385 -0.468332 -0.334635 -0.449258
  386 -0.468617 -0.334899 0.449982
  387 85.6362 -11.8835 4.56003
  388 -1.17027 -2.78197 4.41510
  389 -1.16290 -2.80270 -4.41310
  390 12.8287 1.19201 -0.546022
  391 12.8297 1.19380 0.547390
  392 -0.430455 -2.11749 1.59068
  393 -0.434999 -2.11329 -1.59046
  394 4.48318 2.50809 2.54475
  395 4.47660 2.51060 -2.54030
  396 70.1325 -0.114152 1.80415
  397 70.1384 -0.0836375 -1.85023
  398 -0.259027 -4.40830 5.44616
  399 -5.79173 -0.118850 2.48709
  400 -5.79340 -0.119150 -2.48901
  401 -0.280703 -4.63837 -5.38224
  402 66.0994 0.179618 0.881440
  403 66.0991 0.181822 -0.885334
  404 -1.03276 1.33263 5.19518
  405 -1.04851 1.33842 -5.19806
  406 48.0453 1.05817 -1.59893
  407 48.0495 1.05086 1.59520
  408 74.1222 -3.21106 -2.27982
  409 74.4906 -2.55199 1.78070
  410 -0.166701 -7.79432 -3.26953
  411 6.05167 2.14097 -2.20742
  412 6.10080 2.11074 2.20872
  413 70.8708 4.81614 4.25517
  414 40.9914 -3.13905 -18.1653
  415 42.1895 -3.93852 19.1014
  416 1.79728 2.32045 3.60898
  417 1.78776 2.32491 -3.60629
  418 30.1963 1.21577 -0.278222
  419 30.1973 1.21314 0.278216
  420 29.1607 1.64121 29.1284
  421 11.5167 3.05933 -1.37061
  422 11.5219 3.05733 1.37921
  423 0.657190 -7.92413 3.93793
  424 -0.0955603 -12.7290 -2.88656
  425 4.24056 2.77110 3.49287
  426 4.22782 2.77879 -3.48986
  427 5.13340 1.81252 -1.64084
  428 5.13671 1.81292 1.64402
  429 -2.31351 -0.228421 -5.58196
  430 -2.30510 -0.231777 5.57646
  431 13.9943 2.64214 -1.86784
  432 13.9396 2.68814 1.90890
  433 73.7621 -2.60754 -8.45077
  434 1.79059 -1.15310 4.68797
  435 1.72534 -1.12477 -4.70657
  436 53.6090 -2.23904 -6.00378
  437 53.8573 -2.42032 5.98226
  438 -14.0008 0.127586 -1.52449
  439 -13.9945 0.127275 1.52424
  440 0.00360610 -12.4395 2.58014
  441 -0.0947892 -7.87265 2.90553
  442 -5.75980 0.327570 4.27757
  443 -5.76554 0.327966 -4.28079
  444 38.4224 0.694711 -0.112478
  445 38.4234 0.693372 0.112179
  446 -1.19532 -1.88453 2.96329
  447 -1.19651 -1.88786 -2.95895
  448 23.1552 0.702880 -9.21346
  449 23.1242 0.822683 9.35066
  450 0.197236 -15.3274 -2.96160
  451 138.435 5.48136 0.218210
  452 0.354961 -18.5493 -1.97362
  453 -16.9187 0.0481431 -0.604514
  454 -16.9141 0.0482232 0.604995
  455 -6.64177 0.875680 3.61990
  456 -6.64919 0.877472 -3.62092
  457 -7.30703 0.0977409 2.51381
  458 -7.30990 0.0978504 -2.51571
  459 25.5361 2.95682 -1.65020
  460 25.5434 2.95029 1.66644
  461 39.4090 1.93576 -2.36537
  462 39.4230 1.91880 2.36792
  463 -0.798572 -2.71569 5.60702
  464 -0.798836 -2.69674 -5.62831
  465 67.5472 0.729815 -10.6876
  466 4.32649 -1.91633 -1.61188
  467 4.17676 -1.95305 1.68925
  468 1.01150 -17.2706 0.425797
  469 0.628226 -19.8054 -0.857376
  470 -2.16247 -0.984859 3.05592
  471 -2.16230 -0.987819 -3.05603
  472 13.9697 -4.20918 -14.3918
  473 108.595 -2.90196 -8.19179
  474 23.2216 1.88718 0.270903
  475 23.2198 1.89154 -0.268434
  476 33.9932 0.170038 -9.02354
  477 34.0961 0.156333 9.18659
  478 9.46019 3.58007 1.81189
  479 9.44731 3.58997 -1.80259
  480 30.6458 2.46718 -4.46763
  481 30.6717 2.44780 4.51148
  482 0.818530 0.381307 5.35850
  483 0.887629 0.416178 -5.35008
  484 -14.8913 0.247019 -1.17386
  485 -14.8856 0.246931 1.17436
  486 69.5161 -8.49580 -4.42644
  487 55.8026 0.275424 -0.283433
  488 55.8054 0.274984 0.283124
  489 1.88653 0.591605 -0.494444
  490 1.88902 0.592391 0.495211
  491 -4.18609 1.33253 3.47126
  492 -4.19369 1.33467 -3.47076
  493 -8.92788 0.579845 -1.35667
  494 -8.92323 0.579863 1.35785
  495 23.1927 2.64871 -0.500410
  496 23.1962 2.64284 0.507050
  497 -3.32930 1.07250 4.73555
  498 -3.33920 1.07567 -4.73819
  499 63.7703 -1.63141 -3.13781
  500 63.8683 -1.73211 3.06495
  501 40.9583 0.572181 -5.94483
  502 40.9071 0.531153 6.00251
  503 14.5785 1.02412 -0.334369
  504 14.5795 1.02564 0.335007
  505 0.109605 -7.98715 -4.66291
  506 74.3477 -2.91994 6.98027
  507 0.875095 -5.55028 -4.43919
  508 20.2872 3.46134 1.54913
  509 20.2916 3.45635 -1.52038
  510 68.7439 -7.95236 4.33970
  511 4.82424 -9.80336 7.13420
  512 82.4944 -11.9605 -9.23791
  513 55.8239 0.502641 2.98783
  514 55.8072 0.531757 -3.00028
  515 0.0887051 -6.87582 4.85255
  516 -1.08743 -0.329502 -0.838728
  517 -1.08816 -0.329479 0.839527
  518 5.76934 0.601455 -0.174096
  519 5.77141 0.602287 0.174398
  520 -0.194452 -4.35980 1.89118
  521 -0.176422 -4.33828 -1.89998
  522 45.9444 0.793802 0.628507
  523 45.9425 0.795612 -0.629511
  524 132.321 21.6277 7.38010
  525 4.95599 -4.33613 -0.708394
  526 3.83226 -5.47760 -0.0812846
  527 -2.18101 1.11324 -1.88096
  528 -2.17647 1.11307 1.88292
  529 -11.4356 0.183516 1.52767
  530 -11.4403 0.183707 -1.52864
  531 0.108423 -14.3101 2.91248
  532 -16.7998 0.188009 0.200231
  533 -16.8036 0.187941 -0.199950
  534 13.4297 -2.56634 -10.3579
  535 13.1133 -2.28485 10.8185
  536 12.2359 1.76959 -2.98315
  537 12.1444 1.83421 3.02152
  538 -3.11499 -0.689461 4.23319
  539 -3.11773 -0.691482 -4.23727
  540 11.8372 1.42498 0.609449
  541 11.8361 1.42316 -0.607516
  542 -7.63819 0.422914 0.649573
  543 -7.64184 0.422604 -0.648713
  544 14.1864 2.45066 0.814871
  545 14.1854 2.44873 -0.809083
  546 -0.306153 -0.975155 0.714555
  547 -0.307113 -0.974085 -0.714343
  548 4.93639 2.11599 3.29446
  549 4.90482 2.15038 -3.29915
  550 3.99537 0.259733 3.01704
  551 3.93647 0.254068 -3.04410
  552 56.9391 0.653126 1.27162
  553 56.9370 0.656745 -1.27521
  554 49.9514 0.982274 1.97403
  555 49.9455 0.992938 -1.97937
  556 -0.0519282 -11.8638 -1.77546
  557 34.3550 2.10956 -1.71616
  558 34.3634 2.09863 1.71926
  559 34.5718 1.17870 -0.564228
  560 34.5741 1.17489 0.563970
  561 -5.86986 0.311027 -0.0421535
  562 -5.86680 0.311373 0.0423518
  563 55.9405 3.34434 -2.05108
  564 78.8642 -10.7768 -2.63117
  565 61.9590 2.69890 8.22443
  566 0.457887 -10.6833 -3.58845
  567 -4.22785 1.19840 -2.38266
  568 -4.22227 1.19769 2.38432
  569 0.450095 -6.30109 4.69685
  570 -3.68576 0.0348602 4.92987
  571 -3.69217 0.0352346 -4.93393
  572 99.8869 9.71790 -1.41600
  573 22.0137 1.39780 -0.0208377
  574 22.0142 1.39502 0.0218825
  575 157.370 12.9365 -12.5867
  576 -0.966256 -0.773661 5.84933
  577 -0.919949 -0.734237 -5.85547
  578 83.4124 -8.23312 4.86514
  579 67.7035 0.221357 -1.56115
  580 67.6963 0.210456 1.54578
  581 29.7176 -0.725714 -13.2965
  582 30.1122 -0.805637 13.5478
  583 -1.81430 -1.75684 4.91906
  584 -1.81491 -1.76439 -4.92900
  585 15.2718 0.701455 6.51372
  586 15.3989 0.571310 -6.43614
  587 -13.4996 0.162811 -1.46613
  588 -13.4935 0.162585 1.46561
  589 98.4896 6.83559 8.30283
  590 17.7677 2.01349 -0.306840
  591 17.7673 2.01655 0.309845
  592 21.0869 2.57988 -4.31197
  593 21.0681 2.61185 4.37909
  594 60.6446 0.122083 -2.96180
  595 60.6647 0.0847149 2.94236
  596 -0.305645 -6.35271 -4.45032
  597 66.9130 0.0284523 0.458924
  598 66.9095 0.0289761 -0.459968
  599 -10.6115 0.287235 -0.282410
  600 -10.6080 0.287456 0.282880
  601 -17.9859 -0.0777221 0.0203701
  602 -17.9896 -0.0777727 -0.0202818
  603 1.27769 -10.1809 -2.10776
  604 -0.648255 -4.07536 3.75518
  605 -0.683575 -3.86185 -3.78032
  606 -7.79147 0.458325 3.59022
  607 -7.79745 0.459218 -3.59243
  608 45.6948 1.46313 2.45081
  609 45.6838 1.47959 -2.45421
  610 33.3457 0.793727 0.142227
  611 33.3451 0.795053 -0.142329
  612 7.10432 -3.28852 3.73206
  613 7.35491 -3.13282 -3.68191
  614 -0.242917 -3.03202 1.59069
  615 -0.249782 -3.02147 -1.59551
  616 80.0735 1.95313 31.6788
  617 -3.91240 -0.128215 1.48303
  618 -3.91149 -0.128687 -1.48372
  619 1.24138 -6.25417 -3.73579
  620 32.5149 1.67637 -0.798469
  621 32.5181 1.67091 0.798939
  622 15.3726 3.38528 -0.873310
  623 15.3494 3.40412 0.903190
  624 0.166273 -22.0174 1.38850
  625 11.3363 3.44886 1.32145
  626 11.3284 3.45402 -1.31119
  627 -2.05378 1.47167 2.85334
  628 -2.06005 1.47305 -2.85145
  629 -0.0952009 -10.5176 2.43016
  630 -17.6837 0.0497911 -0.593910
  631 -17.6786 0.0498083 0.594338
  632 20.9564 0.907298 -0.0903416
  633 20.9567 0.909112 0.0907726
  634 55.4941 0.421837 0.819416
  635 55.4918 0.423772 -0.821283
  636 48.0884 -4.68275 24.1940
  637 38.6265 1.33209 -1.37498
  638 38.6318 1.32427 1.37445
  639 0.387756 -1.12080 5.54342
  640 0.515624 -0.760549 -5.55040
  641 62.2972 -7.50319 -19.4128
  642 152.975 5.47751 -5.25353
  643 -16.0032 0.0287254 -1.03393
  644 -15.9969 0.0285833 1.03395
  645 2.73495 1.01365 -1.00588
  646 2.73762 1.01448 1.00747
  647 -0.313289 -6.67025 3.90227
  648 84.0094 4.21769 -10.6829
  649 66.2227 -0.00785495 0.0707356
  650 66.2178 -0.00779048 -0.0708290
  651 -4.28438 -0.257703 -3.48808
  652 -4.28210 -0.256984 3.48536
  653 -0.00788707 -15.0409 -2.37783
  654 67.4028 -0.0319037 0.174476
  655 67.3980 -0.0317997 -0.174715
  656 5.22780 2.23754 2.19612
  657 5.22296 2.23842 -2.19188
  658 49.7473 -4.76040 -12.5377
  659 50.7378 -4.75310 12.7002
  660 74.6883 -0.365649 0.998975
  661 74.7413 -0.358484 -1.05852
  662 0.319582 -19.2157 1.97583
  663 -5.09931 0.270267 -0.387686
  664 -5.09621 0.270666 0.388189
  665 23.7352 -1.77396 -22.5166
  666 21.8599 0.848886 0.119363
  667 21.8604 0.850223 -0.119257
  668 10.1773 1.09720 0.353776
  669 10.1758 1.09576 -0.352699
  670 12.3369 1.72046 -0.593393
  671 12.3379 1.72254 0.596199
  672 42.5094 1.49544 -3.78216
  673 42.5391 1.46654 3.78986
  674 10.6532 3.23054 0.944577
  675 10.6260 3.25287 -0.930912
  676 -8.50874 0.644292 -2.19324
  677 -8.50290 0.643669 2.19413
  678 -9.67490 0.663357 -2.43958
  679 -9.66861 0.662534 2.43983
  680 76.4033 -1.09547 -0.526988
  681 -0.0519448 -3.39305 -5.54652
  682 76.6092 -1.14998 0.394652
  683 95.4210 7.82762 0.705300
  684 -9.67277 0.0419167 1.72734
  685 -9.67631 0.0420062 -1.72862
  686 9.24482 2.54119 0.332745
  687 9.18111 2.57893 -0.315935
  688 -19.0477 0.0471313 -0.241440
  689 -19.0433 0.0471770 0.241750
  690 -0.00813180 -3.08978 5.57713
  691 -6.15292 0.0595444 3.72318
  692 -6.15740 0.0596836 -3.72605
  693 83.5238 -7.77627 -5.21269
  694 12.1492 0.611540 -0.0204861
  695 12.1478 0.610493 0.0207299
  696 2.09112 1.39391 1.57958
  697 2.08764 1.39344 -1.57718
  698 43.1245 -2.22353 -10.3662
  699 43.4960 -2.31168 10.5973
  700 159.349 11.0083 11.6383
  701 2.72407 -16.7627 -4.04612
  702 -1.20356 -2.48572 5.29130
  703 -1.20685 -2.49339 -5.29981
  704 8.36663 2.26525 -1.38770
  705 8.36953 2.26593 1.39196
  706 69.2705 -0.0156479 -0.473750
  707 69.2730 -0.0161880 0.472237
  708 31.7804 0.911842 0.179718
  709 31.7796 0.913930 -0.179882
  710 2.12350 2.30773 4.29167
  711 2.11122 2.31515 -4.29101
  712 0.623110 0.798067 0.713937
  713 0.620412 0.797334 -0.712912
  714 -2.19991 0.341570 5.54442
  715 -2.21089 0.343545 -5.55094
  716 56.4092 0.200317 0.333600
  717 56.4065 0.201001 -0.334291
  718 48.4076 0.743543 0.916481
  719 48.4054 0.746170 -0.918124
  720 6.00834 -5.73632 4.66175
  721 6.20394 -6.03697 -4.46779
  722 -4.10799 0.776517 4.83978
  723 -4.11672 0.778315 -4.84347
  724 1.79475 -5.32180 3.13331
  725 -0.224734 1.29905 5.27563
  726 -0.241651 1.30464 -5.27547
  727 -11.5010 0.366455 -1.48535
  728 -11.4957 0.366278 1.48620
  729 7.62967 2.84100 2.16620
  730 7.62280 2.84370 -2.15972
  731 74.7968 -2.36380 -4.84087
  732 70.9495 -6.37670 -0.921053
  733 -1.18644 -2.41731 3.68433
  734 -1.18418 -2.42727 -3.67828
  735 26.5537 -1.28228 -15.7228
  736 25.8235 -0.658858 15.9260
  737 15.8850 3.05462 -1.73747
  738 15.8518 3.08524 1.77855
  739 1.24903 -3.18664 4.69686
  740 -0.109989 -7.72732 -2.09214
  741 34.2228 2.16724 -3.37773
  742 34.2472 2.14724 3.39883
  743 0.0993669 -15.3155 1.96951
  744 19.9910 3.11773 -0.438473
  745 19.9921 3.11426 0.450875
  746 72.5551 0.0418873 -1.19010
  747 72.5331 0.0313080 1.16655
  748 1.32220 -22.1783 -0.111493
  749 31.4532 2.68852 2.45533
  750 31.4397 2.70272 -2.44212
  751 8.05464 2.85494 -1.71732
  752 8.09321 2.82300 1.72262
  753 -13.1941 0.0890778 -1.22395
  754 -13.1887 0.0889385 1.22327
  755 35.2998 0.979616 -0.524503
  756 35.3013 0.976928 0.524092
  757 21.1645 3.33894 -1.23646
  758 21.1648 3.33805 1.25780
  759 -0.431692 1.93738 4.18266
  760 -0.441949 1.94194 -4.18179
  761 71.1781 -5.43042 0.0727937
  762 -11.9790 0.315134 1.14583
  763 -11.9837 0.315062 -1.14498
  764 158.952 27.6876 -19.4362
  765 -5.15216 0.564333 1.26478
  766 -5.15603 0.563965 -1.26347
  767 60.9589 0.414327 2.12209
  768 60.9572 0.428640 -2.13542
  769 113.075 7.66527 0.343582
  770 69.7061 -0.0943685 -0.915063
  771 69.7040 -0.0963763 0.910524
  772 43.6000 0.982384 1.12002
  773 43.5971 0.986693 -1.12174
  774 65.4741 -8.48563 17.6595
  775 27.6804 2.42412 -0.693505
  776 27.6852 2.41710 0.697483
  777 0.590259 -12.2202 2.77921
  778 75.3895 -10.1731 4.98416
  779 45.6041 0.452012 0.200685
  780 45.6025 0.452910 -0.200912
  781 60.6275 0.216772 0.108302
  782 60.6238 0.216959 -0.108441
  783 -0.289655 -6.20018 -3.63827
  784 0.328722 -10.8844 3.77539
  785 26.0454 3.09149 3.41675
  786 26.0354 3.09604 -3.37738
  787 158.785 1.91832 1.23806
  788 45.8333 0.644844 -4.81320
  789 45.8740 0.610202 4.82248
  790 -10.0695 0.337292 2.72446
  791 -10.0759 0.338047 -2.72532
  792 1.78290 -9.36871 1.39854
  793 1.18109 -20.8953 -0.731558
  794 106.020 13.4807 0.116448
  795 -0.0976915 -7.69875 1.88679
  796 1.73297 1.32107 4.88135
  797 1.72973 1.32242 -4.89445
  798 13.2636 2.98797 0.984179
  799 13.2610 2.98797 -0.976407
  800 70.8398 -3.17026 -0.615603
  801 70.9072 -3.15167 0.317535
  802 84.9455 7.55103 -29.8304
  803 -12.3776 0.203933 -0.577334
  804 -12.3735 0.204102 0.578030
  805 -5.37971 -0.0277867 1.40476
  806 -5.37950 -0.0279578 -1.40574
  807 4.68554 -0.153573 2.11088
  808 4.58551 -0.159861 -2.11244
  809 53.2167 -0.0619830 4.35726
  810 53.1734 -0.00559615 -4.35638
  811 26.5476 1.07520 -0.000830577
  812 26.5481 1.07303 0.00102723
  813 86.5261 -2.42589 9.93603
  814 8.17981 1.68377 -1.22121
  815 8.18200 1.68506 1.22428
  816 7.89443 0.534525 -0.440448
  817 7.82324 0.580417 0.469446
  818 -0.0960737 -6.32403 -5.02426
  819 125.093 15.5742 14.9555
  820 -18.4270 0.0369302 -0.583649
  821 -18.4213 0.0369063 0.583988
  822 -0.0268392 -18.8080 1.90859
  823 1.09022 -3.13724 -4.72966
  824 -2.64882 -0.168236 1.03276
  825 -2.64712 -0.168576 -1.03280
  826 98.3712 4.16862 -7.95246
  827 24.5403 2.79518 -0.859805
  828 24.5455 2.78862 0.869847
  829 67.3685 -0.787359 -2.17240
  830 67.4128 -0.804226 2.12146
  831 -17.5173 0.151232 0.755620
  832 -17.5236 0.151285 -0.755431
  833 -0.116165 -0.120893 -0.0954222
  834 -0.116390 -0.121113 0.0957822
  835 0.0690084 -19.2538 -1.88670
  836 0.0946149 -20.5416 -1.80988
  837 -19.7189 0.212529 0.129947
  838 -19.7228 0.212496 -0.129815
  839 9.54327 -5.35620 -9.81309
  840 41.2759 0.853119 -0.287242
  841 41.2773 0.851573 0.286694
  842 -2.42719 0.508724 0.164268
  843 -2.42999 0.508257 -0.164124
  844 62.3324 0.376769 -1.42559
  845 62.3325 0.371587 1.41892
  846 -7.09238 0.0476512 1.34166
  847 -7.09329 0.0476729 -1.34268
  848 36.5921 -1.55911 -24.1740
  849 64.2473 -5.61744 4.46920
  850 50.7398 0.517652 -0.406254
  851 50.7420 0.516590 0.405434
  852 63.5970 -6.13272 -5.06889
  853 19.0478 2.50145 0.100486
  854 19.0490 2.49743 -0.0943497
  855 26.7723 2.14924 -0.475550
  856 26.7754 2.14369 0.478084
  857 74.9022 -1.64040 3.68402
  858 4.00713 2.59219 3.71020
  859 3.99238 2.60273 -3.71060
  860 3.68516 0.544432 0.360073
  861 3.68289 0.543628 -0.359553
  862 34.8219 0.810602 0.225318
  863 34.8210 0.812242 -0.225571
  864 93.7657 -10.4067 8.79716
  865 58.2274 0.589759 -1.83194
  866 58.2303 0.580086 1.82299
  867 -0.106458 1.04012 1.25925
  868 -0.109782 1.03956 -1.25749
  869 58.6368 0.146941 0.501946
  870 58.6339 0.147704 -0.502985
  871 -11.8778 0.157692 -0.317230
  872 -11.8744 0.157874 0.317351
  873 -0.0560641 -5.87336 1.67393
  874 -0.0723133 -5.96506 -1.68761
  875 68.4259 -1.20469 8.46867
  876 -4.69355 1.06664 4.16667
  877 -4.70199 1.06922 -4.16808
  878 -0.0260935 -9.72312 -1.86519
  879 26.8137 1.37207 -0.213170
  880 26.8146 1.36924 0.213607
  881 50.0564 -2.60282 -7.83780
  882 50.4793 -2.88708 7.91956
  883 -2.33345 -0.877685 -5.32730
  884 -2.32581 -0.879205 5.31989
  885 2.14929 2.39195 3.96726
  886 2.13810 2.39790 -3.96510
  887 0.252935 -22.8133 1.43288
  888 0.234601 1.77882 4.88594
  889 0.221041 1.78466 -4.88606
  890 46.1145 -0.771163 -6.93977
  891 46.0249 -0.823048 6.99680
  892 79.9898 3.75504 10.9280
  893 17.6857 2.35359 -0.290602
  894 17.6853 2.35710 0.295051
  895 59.9684 0.603091 -1.38582
  896 59.9696 0.598678 1.38089
  897 -2.43148 -1.09761 4.63173
  898 -2.43433 -1.10070 -4.63776
  899 0.197717 -23.8213 -1.11416
  900 -3.73309 -0.298965 4.56844
  901 -3.73763 -0.298962 -4.57258
  902 1.55335 2.23383 -3.17405
  903 1.56112 2.23063 3.17701
  904 -0.185938 -1.45229 0.809725
  905 -0.187926 -1.45060 -0.810818
  906 4.33195 2.51220 -2.95594
  907 4.34047 2.50826 2.96042
  908 0.855342 -2.16486 5.19031
  909 0.725681 -2.01749 -5.40866
  910 57.3974 -1.47906 4.38671
  911 57.2518 -1.38758 -4.42935
  912 -20.0218 0.0843161 -0.190432
  913 -20.0176 0.0843621 0.190639
  914 -1.61479 -0.150781 0.770123
  915 -1.61308 -0.150974 -0.769709
  916 0.0825509 -13.8668 -1.71637
  917 -1.78176 -0.776311 -2.21228
  918 -1.78187 -0.774791 2.21319
  919 -7.83377 0.633131 3.50158
  920 -7.84058 0.634466 -3.50314
  921 17.0643 3.54931 -0.338974
  922 17.0579 3.55518 0.358157
  923 73.9527 6.17986 -2.08702
  924 -1.50316 1.75701 3.80636
  925 -1.51183 1.76021 -3.80529
  926 27.3843 1.61569 -7.04052
  927 27.4013 1.63985 7.14184
  928 -4.07117 1.26446 3.08102
  929 -4.07797 1.26622 -3.07998
  930 93.7506 -6.09162 -3.60548
  931 52.1304 2.10808 4.67480
  932 65.8714 -1.05205 -7.66277
  933 50.2608 0.991035 -2.95552
  934 50.2761 0.968483 2.94909
  935 -6.21596 0.819682 -1.60643
  936 -6.21133 0.819564 1.60788
  937 -12.6142 0.244141 1.79143
  938 -12.6204 0.244547 -1.79144
  939 -0.746256 -2.38081 -2.57315
  940 -0.741837 -2.38409 2.57879
  941 16.9371 1.46039 -0.205915
  942 16.9373 1.46276 0.207452
  943 -5.95547 0.560372 4.28218
  944 -5.96217 0.561348 -4.28530
  945 61.2872 0.161798 0.677668
  946 61.2844 0.162687 -0.679072
  947 -0.486986 -5.29110 3.95870
  948 1.46544 2.09053 -2.76405
  949 1.47181 2.08862 2.76707
  950 2.20020 1.54180 1.91065
  951 2.19614 1.54180 -1.90792
  952 9.41500 1.22306 -0.647027
  953 9.41655 1.22449 0.648490
  954 115.770 11.8538 0.0205797
  955 -0.433348 -0.124242 -0.297024
  956 -0.434267 -0.124279 0.297584
  957 3.46807 0.721261 -3.58919
  958 3.52819 0.685105 3.58473
  959 40.1186 1.95841 -2.96620
  960 40.1375 1.93708 2.97125
  961 4.31813 1.90759 -1.88419
  962 4.32218 1.90752 1.88763
  963 10.6632 -6.61250 13.5690
  964 77.7107 -0.479248 -0.491725
  965 77.5324 -0.460018 0.406673
  966 12.7961 -3.57350 11.5364
  967 13.2513 0.909611 0.0872235
  968 13.2501 0.908365 -0.0867807
  969 36.1250 -2.57734 -20.8369
  970 27.2585 0.837282 0.136345
  971 27.2584 0.838618 -0.136331
  972 3.22760 -4.54014 1.58684
  973 3.56857 -3.94383 -1.31615
  974 69.2575 -0.00533770 0.236832
  975 69.2527 -0.00521332 -0.237140
  976 -5.72702 0.000736047 3.35133
  977 -5.73013 0.000690860 -3.35389
  978 123.489 15.1476 5.21305
  979 -0.602357 -4.09430 -5.30473
  980 0.486729 -21.7611 1.39627
  981 -0.143519 -6.43729 4.92351
  982 71.4427 0.0494017 -0.934192
  983 71.4355 0.0464643 0.927234
  984 -0.947894 -1.72469 2.21595
  985 -0.949951 -1.72387 -2.21300
  986 86.5021 8.61422 -6.90155
  987 161.496 1.71772 -0.832165
  988 -0.228832 -0.331093 -0.323267
  989 -0.228632 -0.331783 0.323725
  990 40.4776 0.824958 -0.607931
  991 40.4793 0.822741 0.607163
  992 -0.626524 -3.95068 5.34157
  993 56.8974 0.539332 2.68950
  994 56.8890 0.560800 -2.70198
  995 74.5451 -5.16039 -4.02923
  996 -2.64214 -0.570216 2.51578
  997 -2.64199 -0.571959 -2.51617
  998 1.04789 -5.47467 4.15277
  999 -0.144942 -9.54804 3.85858
  1000 -0.00953261 -9.64039 1.85973
  1001 73.5540 5.22601 -0.368197
  1002 85.9456 9.41943 4.43077
  1003 62.1960 -7.64110 -9.39177
  1004 0.798444 -9.76533 3.40982
  1005 1.03868 -14.2404 1.25469
  1006 16.4071 0.740043 0.0999079
  1007 16.4061 0.738885 -0.0997945
  1008 -0.698151 -0.794072 -1.04328
  1009 -0.697747 -0.794531 1.04432
  1010 0.508062 -8.01217 -4.34537
  1011 50.6836 0.356272 -0.148692
  1012 50.6857 0.355640 0.148422
  1013 9.42899 -0.998415 -3.73073
  1014 9.01111 -0.971524 3.69724
  1015 -1.39601 1.48571 4.85967
  1016 -1.40856 1.49075 -4.86154
  1017 -6.57160 0.954089 -3.05429
  1018 -6.56479 0.952664 3.05460
  1019 37.5512 0.646473 -7.04337
  1020 37.5910 0.668567 7.13229
  1021 26.6979 2.46989 -4.61913
  1022 26.7071 2.46437 4.67856
  1023 29.2569 2.51010 -1.35063
  1024 29.2638 2.50048 1.35640
  1025 77.4959 -2.71137 -10.3293
  1026 -2.43616 0.881898 5.21562
  1027 -2.44784 0.884820 -5.22061
  1028 55.1393 0.204927 3.62903
  1029 55.1121 0.248126 -3.64025
  1030 -0.489581 -3.18193 5.63842
  1031 -4.52727 -0.165519 2.44505
  1032 -4.52791 -0.166074 -2.44669
  1033 50.0850 0.767098 -3.58197
  1034 50.1090 0.735817 3.57665
  1035 59.3134 1.21519 -7.33565
  1036 -0.107551 -9.52527 -4.05527
  1037 -0.799853 -3.77080 4.71394
  1038 -0.831020 -3.80856 -4.67098
  1039 34.7759 2.39865 -2.31553
  1040 34.7902 2.38279 2.32336
  1041 44.6222 1.16395 1.40419
  1042 44.6183 1.16999 -1.40659
  1043 74.3969 -5.03772 3.55406
  1044 2.57682 0.583738 -0.103394
  1045 2.57919 0.584404 0.103547
  1046 62.9943 -8.56495 10.0419
  1047 -1.46787 0.432816 0.448522
  1048 -1.47067 0.432213 -0.447946
  1049 12.7726 3.53058 0.819406
  1050 12.7614 3.53905 -0.805459
  1051 4.44176 2.75996 3.22501
  1052 4.43133 2.76569 -3.22081
  1053 0.635624 -12.0716 -2.88048
  1054 17.3505 0.998922 -0.217744
  1055 17.3509 1.00090 0.218689
  1056 50.0870 1.82692 1.90781
  1057 51.0138 0.695641 1.35158
  1058 51.0109 0.700694 -1.35492
  1059 -0.440505 -3.28406 -5.64514
  1060 77.0205 -0.947487 -1.95492
  1061 -0.267098 -0.506074 5.73175
  1062 -0.212341 -0.453298 -5.71155
  1063 71.1633 -0.0641485 -0.511563
  1064 71.1641 -0.0648083 0.509471
  1065 75.6146 -0.180200 -0.888807
  1066 75.5641 -0.191535 0.855972
  1067 -0.0583270 -14.6337 1.41148
  1068 43.2728 1.46704 -1.87990
  1069 43.2785 1.45766 1.87753
  1070 53.2332 0.774170 1.60703
  1071 53.2301 0.780353 -1.61167
  1072 0.787617 1.05986 5.30438
  1073 0.784950 1.06230 -5.30331
  1074 116.411 8.32309 0.743672
  1075 -1.66835 -0.800473 5.73934
  1076 -1.68626 -0.785884 -5.74957
  1077 15.5269 3.40684 0.477140
  1078 15.5245 3.40746 -0.466260
  1079 -10.3014 0.278924 -0.618977
  1080 -10.2976 0.279190 0.619630
  1081 26.0279 1.19583 -8.17376
  1082 26.0084 1.27425 8.30026
  1083 6.99677 3.10707 2.68539
  1084 6.98484 3.11432 -2.67911
  1085 17.4398 1.61726 -5.69134
  1086 17.3553 1.71260 5.76396
  1087 -0.517234 -4.96128 -3.85155
  1088 62.8108 0.620380 9.35620
  1089 44.9767 -2.01028 27.4450
  1090 6.58418 3.12191 2.78273
  1091 6.56871 3.13282 -2.77769
  1092 26.6823 1.81658 -0.312753
  1093 26.6847 1.81190 0.314297
  1094 101.014 -1.62475 4.95954
  1095 5.83759 1.20035 2.13833
  1096 5.76325 1.22429 -2.15376
  1097 -3.02985 -0.690155 3.37288
  1098 -3.03069 -0.692726 -3.37485
  1099 -0.100102 -2.17355 0.888335
  1100 -0.103804 -2.17190 -0.891706
  1101 66.1208 0.146823 2.21242
  1102 66.1175 0.176440 -2.24011
  1103 0.00373144 -5.01396 5.32105
  1104 -4.72788 0.238428 -4.62112
  1105 -4.72190 0.238139 4.61750
  1106 0.0276787 -17.9048 -1.85526
  1107 -1.19387 -1.64972 5.72724
  1108 -1.19150 -1.61937 -5.73176
  1109 63.5648 0.254198 -0.932947
  1110 63.5665 0.252271 0.930099
  1111 64.9929 -0.274208 2.59326
  1112 64.9648 -0.227508 -2.62354
  1113 10.5039 2.05165 -1.26882
  1114 10.4259 2.10568 1.29973
  1115 -0.166968 -9.22388 -3.23568
  1116 85.9619 -10.0767 -15.4328
  1117 111.924 12.1130 -2.21691
  1118 1.02818 -15.0962 -0.880923
  1119 3.42069 2.06191 -4.13759
  1120 3.43907 2.04803 4.12777
  1121 9.72804 3.37590 1.68270
  1122 9.71000 3.38971 -1.67265
  1123 21.4310 1.65829 -0.0933253
  1124 21.4301 1.66176 0.0951026
  1125 -1.49646 -2.13222 4.38573
  1126 -1.49347 -2.15021 -4.39037
  1127 -4.62896 1.28661 3.88097
  1128 -4.63707 1.28906 -3.88134
  1129 -1.96727 1.57784 4.51727
  1130 -1.97793 1.58193 -4.51815
  1131 61.4594 -3.09352 -4.19917
  1132 61.8836 -3.13767 4.14075
  1133 0.0337911 -10.8043 -3.89750
  1134 31.8499 -0.458571 -10.5369
  1135 31.9249 -0.352585 10.7489
  1136 9.63519 3.22696 -1.69447
  1137 9.64200 3.22290 1.70263
  1138 33.3779 9.19462 30.8162
  1139 7.33139 2.65994 2.05668
  1140 7.32607 2.66136 -2.05112
  1141 84.8217 -10.3783 -2.56587
  1142 31.1393 1.24548 0.303097
  1143 31.1377 1.24870 -0.303025
  1144 -1.46384 -1.31265 2.64412
  1145 -1.46404 -1.31507 -2.64223
  1146 -1.76178 -1.59153 3.44391
  1147 -1.76070 -1.59685 -3.44288
  1148 54.6217 -6.30897 -15.2934
  1149 55.8799 -6.88827 15.4216
  1150 8.84050 0.646470 0.00798400
  1151 8.84225 0.647479 -0.00752356
  1152 33.7040 1.68263 -5.57376
  1153 33.7209 1.65423 5.64319
  1154 75.9251 -11.2077 11.3258
  1155 68.7520 -0.0800106 0.142042
  1156 68.7466 -0.0799336 -0.142135
  1157 -6.58239 0.977655 3.44891
  1158 -6.58969 0.979291 -3.44927
  1159 -11.0819 0.380185 -1.85870
  1160 -11.0762 0.379901 1.85945
  1161 16.3284 -2.36402 17.6851
  1162 48.3463 3.53175 -3.84166
  1163 30.8282 2.52411 -2.50340
  1164 30.8443 2.50998 2.52180
  1165 100.218 -5.85426 16.3777
  1166 31.3043 2.35852 -3.93301
  1167 31.3259 2.33911 3.96522
  1168 7.02487 1.27827 -0.864146
  1169 7.02691 1.27962 0.865939
  1170 2.55433 -12.0757 0.948115
  1171 2.58792 -11.8655 -1.63973
  1172 42.7658 -3.66030 -15.3956
  1173 43.4154 -3.45944 15.4119
  1174 16.1701 2.42209 -3.70058
  1175 16.1075 2.48371 3.75988
  1176 76.7365 -5.56119 -6.96881
  1177 -3.00034 -0.326650 5.19609
  1178 -3.00721 -0.325722 -5.20104
  1179 -0.142068 -4.49959 -5.45638
  1180 18.6222 -0.545199 -10.8559
  1181 18.6801 -0.465492 11.0824
  1182 -0.0506965 -3.87556 0.996407
  1183 -0.0431062 -3.88435 -1.00805
  1184 -19.1472 0.170110 -0.541316
  1185 -19.1412 0.170077 0.541546
  1186 62.1007 0.148462 -0.235755
  1187 62.1042 0.148105 0.235159
  1188 37.2071 1.75202 -1.47196
  1189 37.2146 1.74226 1.47257
  1190 -1.62838 -0.166744 5.78589
  1191 -1.63248 -0.145017 -5.79479
  1192 0.0140852 -15.8570 -1.58310
  1193 -16.1261 0.0446841 0.838047
  1194 -16.1325 0.0447843 -0.838209
  1195 11.3602 -1.62329 -7.23936
  1196 11.2694 -1.54865 7.51374
  1197 71.5325 -4.42106 0.486474
  1198 19.3932 0.480949 -9.70615
  1199 19.4179 0.557881 9.83493
  1200 -8.80143 0.0447187 1.22665
  1201 -8.80344 0.0447244 -1.22763
  1202 0.212343 -14.3756 -2.87374
  1203 -3.62639 0.699431 -0.837784
  1204 -3.62310 0.699935 0.838844
  1205 9.86711 2.80858 1.67629
  1206 9.86233 2.80957 -1.66956
  1207 39.9037 0.573765 -0.216445
  1208 39.9048 0.572656 0.216290
  1209 54.5345 0.535127 1.03178
  1210 54.5322 0.538294 -1.03450
  1211 2.62314 -0.903792 3.66683
  1212 2.58437 -0.949273 -3.71219
  1213 0.421047 -8.41217 4.30679
  1214 97.2067 12.3102 6.10462
  1215 -3.01640 -0.246840 1.90508
  1216 -3.01576 -0.247711 -1.90548
  1217 0.325122 -7.87055 -4.45451
  1218 -0.299848 -4.60978 2.80064
  1219 -0.282956 -4.57501 -2.90360
  1220 77.4865 -0.816076 1.74660
  1221 0.0740424 -18.2178 1.63277
  1222 0.445230 -5.86746 -4.96070
  1223 8.09707 0.553601 0.134053
  1224 8.09523 0.552737 -0.133923
  1225 -0.837280 -3.43846 5.22576
  1226 -9.32319 0.556356 -1.62673
  1227 -9.31813 0.556216 1.62782
  1228 164.408 3.05185 4.38979
  1229 -4.74430 0.474580 4.71254
  1230 -4.75149 0.475364 -4.71627
  1231 36.1561 1.65084 -5.05118
  1232 36.1993 1.61438 5.08705
  1233 2.15263 -4.40332 -2.67061
  1234 34.5416 2.15273 -1.85994
  1235 34.5524 2.13974 1.86479
  1236 1.32330 -12.0716 -1.26995
  1237 -0.838210 -3.44109 -5.21120
  1238 -6.95242 0.364475 1.03183
  1239 -6.95624 0.364118 -1.03080
  1240 -2.93060 0.102600 -5.35910
  1241 -2.92241 0.102073 5.35475
  1242 73.2858 5.72323 7.93116
  1243 42.1030 0.688626 -5.47983
  1244 42.1631 0.664599 5.49383
  1245 -20.2618 0.0663536 -0.225134
  1246 -20.2570 0.0663751 0.225398
  1247 38.1913 1.30793 -1.01701
  1248 38.1941 1.30336 1.01616
  1249 -20.9985 -0.322525 -0.0502222
  1250 -21.0022 -0.322542 0.0502480
  1251 57.1594 -4.14562 -6.25755
  1252 -9.36778 0.149481 2.64764
  1253 -9.37277 0.149796 -2.64941
  1254 57.7842 -4.37656 6.19821
  1255 38.7340 1.79769 -2.15130
  1256 38.7439 1.78416 2.15218
  1257 4.31201 -14.5919 -7.22676
  1258 0.0798403 -13.0291 -3.36158
  1259 -0.315136 -5.52454 4.90961
  1260 127.121 16.5389 -14.4475
  1261 -0.0351428 -12.1186 3.22833
  1262 131.276 12.2842 -6.46422
  1263 -0.0497164 -22.3614 -1.58355
  1264 5.13384 0.856551 -0.400308
  1265 5.13598 0.857563 0.401304
  1266 -0.0581940 -4.98534 1.04542
  1267 -0.0477231 -5.01065 -1.04164
  1268 21.0398 0.893789 -0.103101
  1269 21.0403 0.895281 0.103333
  1270 77.7589 -6.35873 6.68425
  1271 0.518348 0.771348 -0.973022
  1272 0.521189 0.772055 0.974271
  1273 0.455184 -25.3297 1.00902
  1274 0.290069 -26.8432 -0.986603
  1275 71.5088 -9.52878 -6.44740
  1276 -0.209483 -6.62094 3.11699
  1277 72.9979 4.27653 -9.67678
  1278 -0.224991 -8.72737 3.07522
  1279 0.143742 -24.3052 -1.31006
  1280 35.4642 1.40195 -1.04015
  1281 35.4685 1.39491 1.04031
  1282 -0.0222515 -12.8843 1.38927
  1283 -0.0375773 -10.8325 -3.15527
  1284 177.335 27.8374 24.6874
  1285 69.1027 0.117540 0.114438
  1286 69.0971 0.117530 -0.114444
  1287 1.47200 -0.207069 4.91310
  1288 1.42118 -0.133730 -4.92868
  1289 -1.39174 0.860890 5.53265
  1290 -1.41173 0.864810 -5.53863
  1291 71.4936 -1.43376 -5.46780
  1292 66.9261 -2.71589 -2.23491
  1293 66.8343 -3.11550 2.23056
  1294 8.99089 1.42625 0.921696
  1295 8.98911 1.42463 -0.919334
  1296 -11.4951 0.317035 -2.14439
  1297 -11.4888 0.316489 2.14403
  1298 74.7285 -11.2648 -9.45439
  1299 -0.566449 -1.35297 1.36974
  1300 -0.568396 -1.35148 -1.36881
  1301 78.4350 -3.86816 9.73119
  1302 -0.863154 -3.19541 3.77612
  1303 -0.853967 -3.20619 -3.75823
  1304 -7.95441 0.573332 1.21550
  1305 -7.95868 0.573157 -1.21433
  1306 11.1343 0.637547 -3.31274
  1307 11.0195 0.709420 3.32041
  1308 17.7046 0.849030 0.213800
  1309 17.7039 0.847520 -0.213416
  1310 -8.09271 0.784781 3.35977
  1311 -8.09956 0.786045 -3.36065
  1312 64.5921 0.307140 0.178201
  1313 64.5875 0.307162 -0.178232
  1314 34.1209 -1.53382 20.6753
  1315 52.1665 0.399751 0.360700
  1316 52.1643 0.400476 -0.361223
  1317 33.4794 0.647860 -7.95167
  1318 33.5021 0.602699 8.03828
  1319 0.307578 -14.7556 -2.29140
  1320 12.5205 2.94036 -0.922718
  1321 12.4717 2.97940 0.954734
  1322 -0.119141 -0.118014 -0.162947
  1323 -0.119716 -0.118086 0.163410
  1324 43.9536 1.69172 2.90353
  1325 43.9381 1.71340 -2.90439
  1326 21.1625 2.12500 0.0622060
  1327 21.1610 2.12930 -0.0588046
  1328 31.7621 2.17640 -1.15194
  1329 31.7687 2.16743 1.15501
  1330 42.3704 0.602066 -0.357801
  1331 42.3718 0.600953 0.357457
  1332 -1.36387 -0.669170 -1.54999
  1333 -1.36406 -0.668697 1.55118
  1334 -13.9122 0.0773900 0.724265
  1335 -13.9168 0.0773109 -0.723566
  1336 -2.37772 -1.11636 -3.86627
  1337 -2.37725 -1.11163 3.86385
  1338 -8.50459 0.249021 0.318584
  1339 -8.50790 0.248709 -0.318263
  1340 -21.1566 0.209910 0.131165
  1341 -21.1606 0.209884 -0.131031
  1342 80.8200 -11.5233 13.2303
  1343 55.2498 -0.474485 -7.50215
</Section>

newXOutput 11

<Section columns = "stress_xx | stress_yy | stress_xy">
  1 79.1595 -0.0548555 0.0704076
  2 79.1669 -0.0548887 -0.0704440
  3 -25.3298 0.142631 -0.338147
  4 0.0412731 0.0125210 0.0719792
  5 147.597 34.1926 44.3629
  6 166.627 39.3143 -42.1769
  7 0.0411466 0.0123969 -0.0718132
  8 -25.3250 0.142649 0.338161
  9 78.9014 -0.0480191 -0.257633
  10 78.9489 -0.186779 -0.428119
  11 79.7043 -0.178286 -0.103770
  12 79.7549 -0.154930 -0.484141
  13 79.8910 -0.145006 -0.128672
  14 81.6014 -0.153269 -0.187256
  15 82.1483 -0.248963 -0.647135
  16 82.6921 -0.0867576 -0.430333
  17 82.9857 0.134477 -0.832377
  18 86.4423 -0.398074 -0.715131
  19 87.8377 -0.281515 -0.936746
  20 89.3192 -0.474423 -0.296469
  21 89.9230 -0.669565 -0.115583
  22 88.8485 -0.809336 1.38102
  23 85.2006 -0.942615 2.79269
  24 76.9725 -1.14651 5.80288
  25 64.1219 0.512585 6.69214
  26 53.2468 0.563993 6.33308
  27 38.4533 1.49915 3.84822
  28 41.2141 1.46489 0.238664
  29 33.1880 4.47070 -2.50782
  30 49.9166 1.98366 -6.73123
  31 59.4927 0.400434 -5.55108
  32 75.1516 -0.297593 -4.80211
  33 83.9362 -1.14346 -3.31553
  34 88.6106 -0.947394 -1.38326
  35 89.6635 -0.644315 0.114219
  36 89.1320 -0.466938 0.266091
  37 87.7415 -0.284348 0.901283
  38 86.3894 -0.404901 0.693578
  39 82.9668 0.130290 0.820841
  40 82.6854 -0.0883514 0.425531
  41 82.1492 -0.249869 0.644904
  42 81.6052 -0.153728 0.186095
  43 79.8964 -0.145235 0.128025
  44 79.7616 -0.155145 0.483922
  45 79.7114 -0.178419 0.103624
  46 78.9562 -0.186858 0.428158
  47 78.9087 -0.0480459 0.257659
  48 74.3505 0.325160 -0.0897590
  49 68.5305 0.286472 -0.214908
  50 61.3125 0.0783745 -0.236997
  51 53.8881 0.556976 -0.197122
  52 47.4458 0.541332 -0.159955
  53 40.6030 0.771786 -0.191847
  54 33.8995 1.11061 -0.130037
  55 26.9909 1.02524 -0.245789
  56 21.2952 0.801499 -0.333930
  57 13.8662 0.600243 -0.351443
  58 6.35780 0.698720 -0.264951
  59 0.113937 0.568855 -0.255630
  60 -7.64177 0.365474 -0.238792
  61 -13.4048 0.0386668 -0.543219
  62 -18.9769 -0.325845 -0.252789
  63 -24.6019 0.0715314 0.152838
  64 -25.7856 0.447716 -0.0828193
  65 -25.8342 0.208204 0.0485641
  66 -24.9591 0.116604 -0.0582057
  67 -25.1273 0.294352 -0.333682
  68 -24.6787 0.351793 -0.0727460
  69 -23.2977 0.118857 -0.501645
  70 -23.4411 0.215230 -0.533228
  71 -22.7876 0.206520 -0.319614
  72 -21.0554 0.136134 -0.462917
  73 -20.1635 0.227170 -0.734487
  74 -18.8880 0.248850 -0.616242
  75 -16.6585 0.129022 -1.02061
  76 -15.3924 0.0393029 -0.854702
  77 -13.1645 0.0566409 -0.974221
  78 -11.2308 0.0361844 -1.06471
  79 -9.56933 0.00985470 -0.839799
  80 -7.29245 0.0464581 -0.843035
  81 -5.33958 -0.0262746 -0.896123
  82 -3.45271 -0.101384 -0.778120
  83 -1.96600 -0.0881057 -0.590961
  84 -0.954515 -0.150298 -0.489793
  85 -0.140967 -0.0865499 -0.169665
  86 0.0242726 -0.0934740 -0.0568960
  87 -0.0511018 -0.0394515 -0.00511804
  88 -0.135101 -0.105485 -0.147830
  89 -0.130732 -0.804130 -0.423851
  90 -0.113876 -1.82610 -0.612073
  91 -0.0607044 -3.15326 -0.897527
  92 -0.0333150 -4.85929 -0.775448
  93 -0.0330091 -6.44618 -0.977473
  94 -0.122960 -8.40763 -1.11039
  95 -0.0498576 -10.8124 -1.12961
  96 0.0238701 -13.2367 -1.08671
  97 0.0536728 -15.8445 -1.07616
  98 0.0795518 -18.5386 -1.06539
  99 0.0148563 -20.5783 -1.44824
  100 0.147707 -23.4192 -1.30130
  101 0.174666 -26.7650 -1.06851
  102 0.0160625 -28.3878 -1.42339
  103 0.248707 -30.9818 -1.34214
  104 0.581372 -34.4577 -0.774355
  105 1.12151 -35.7090 -1.22466
  106 0.720242 -33.7431 0.301109
  107 0.920657 -27.2747 2.33077
  108 5.95686 -19.4615 8.15923
  109 19.6066 16.8624 32.0462
  110 229.757 11.4340 21.7793
  111 196.426 3.75923 8.10605
  112 190.124 1.56882 1.75484
  113 188.873 0.724069 -0.303262
  114 190.031 2.29556 -4.28927
  115 195.393 6.64961 -9.41995
  116 222.677 22.3712 -27.4733
  117 45.9416 12.6750 -39.3731
  118 9.61496 -19.1235 -10.3664
  119 2.78733 -29.7873 -3.55947
  120 0.750521 -32.1095 -0.371345
  121 0.891306 -34.4714 0.814363
  122 0.266232 -33.1810 0.641482
  123 0.110837 -30.2209 1.17893
  124 0.110941 -28.3091 0.944059
  125 0.148446 -25.3582 1.49097
  126 -0.00675139 -23.6066 1.42248
  127 0.0590165 -21.2735 1.03069
  128 0.108462 -18.3088 1.28498
  129 0.0180757 -16.2022 1.02058
  130 0.0331975 -13.2651 1.28688
  131 -0.132322 -10.9399 1.10251
  132 -0.0962369 -8.41633 1.07717
  133 -0.0248103 -6.41298 0.980578
  134 -0.0423054 -4.83231 0.777672
  135 -0.0596400 -3.14419 0.889165
  136 -0.112362 -1.82471 0.609110
  137 -0.130070 -0.805258 0.423539
  138 -0.134969 -0.106581 0.148087
  139 -0.0511035 -0.0399431 0.00543777
  140 0.0236924 -0.0935761 0.0572072
  141 -0.142123 -0.0865384 0.170098
  142 -0.956494 -0.150222 0.490329
  143 -1.96885 -0.0878901 0.591236
  144 -3.45548 -0.101118 0.778018
  145 -5.34141 -0.0260551 0.895545
  146 -7.29306 0.0464990 0.842330
  147 -9.56826 0.00991901 0.839087
  148 -11.2282 0.0362333 1.06396
  149 -13.1602 0.0565892 0.973513
  150 -15.3866 0.0392271 0.854122
  151 -16.6519 0.128923 1.02015
  152 -18.8805 0.248732 0.615993
  153 -20.1558 0.227059 0.734388
  154 -21.0477 0.136076 0.462975
  155 -22.7802 0.206473 0.319745
  156 -23.4339 0.215183 0.533393
  157 -23.2911 0.118839 0.501852
  158 -24.6725 0.351783 0.0729774
  159 -25.1214 0.294360 0.333855
  160 -24.9537 0.116619 0.0583476
  161 -25.8290 0.208219 -0.0484605
  162 -25.7806 0.447726 0.0829011
  163 -24.5971 0.0715413 -0.152785
  164 -18.9724 -0.325757 0.252835
  165 -13.4006 0.0388645 0.543261
  166 -7.63794 0.365836 0.238879
  167 0.117084 0.569432 0.255699
  168 6.36034 0.699543 0.265014
  169 13.8679 0.601329 0.351508
  170 21.2962 0.802759 0.333959
  171 26.9912 1.02660 0.245800
  172 33.8992 1.11197 0.129989
  173 40.6020 0.773005 0.191753
  174 47.4441 0.542354 0.159826
  175 53.8857 0.557682 0.196940
  176 61.3090 0.0788230 0.236788
  177 68.5257 0.286597 0.214777
  178 74.3443 0.325147 0.0896999
  179 19.3478 3.75362 -0.0482099
  180 19.3440 3.75490 0.0649036
  181 -0.729630 0.397724 6.25445
  182 -0.748508 0.398706 -6.25237
  183 45.4385 -0.707562 -9.42400
  184 45.4304 -0.806017 9.53918
  185 8.56243 1.58686 0.585739
  186 8.46084 1.63243 -0.573153
  187 5.64240 1.42355 -1.27692
  188 5.64543 1.42464 1.27924
  189 43.4704 1.26008 -1.23261
  190 43.4748 1.25375 1.23168
  191 -1.58029 1.85404 3.63384
  192 -1.58870 1.85664 -3.63208
  193 50.5798 1.68186 -3.47228
  194 50.6033 1.65428 3.47210
  195 -2.06355 -1.81792 4.69331
  196 -2.06174 -1.82714 -4.69709
  197 0.316522 -4.57777 -5.90275
  198 14.9778 -0.260181 -8.09910
  199 0.418086 -4.87878 5.78478
  200 14.7338 -0.121149 8.26811
  201 72.0748 -10.5917 -13.8694
  202 74.7840 -11.0179 13.2269
  203 25.0692 1.26988 0.00679167
  204 25.0694 1.26740 -0.00610279
  205 -5.36018 0.466459 -0.790379
  206 -5.35626 0.466960 0.791174
  207 -6.21416 0.864845 4.74883
  208 -6.22290 0.866917 -4.75180
  209 25.1631 2.76563 -0.228461
  210 25.1659 2.76041 0.233478
  211 7.23201 3.19015 2.97545
  212 7.20719 3.21034 -2.97398
  213 -8.31038 0.892727 -2.13792
  214 -8.30420 0.892364 2.13920
  215 58.7269 0.417508 0.638785
  216 58.7240 0.419038 -0.640081
  217 1.68311 -8.72223 3.01596
  218 1.83399 -7.99138 -2.77971
  219 -0.601268 -5.09203 5.34830
  220 -0.608898 -5.26842 -5.17174
  221 23.1027 3.47527 -3.17828
  222 23.0916 3.48820 3.22942
  223 -5.41242 -0.0659116 4.64122
  224 -5.41742 -0.0659580 -4.64504
  225 62.8443 0.681040 -2.00166
  226 62.8474 0.672935 1.99463
  227 67.2844 -0.718362 -3.86099
  228 67.3288 -0.796082 3.82806
  229 106.345 8.69696 -0.310235
  230 97.6128 10.4330 8.21370
  231 97.3894 -2.03536 -11.0247
  232 10.8767 2.87339 1.73494
  233 10.8726 2.87363 -1.72871
  234 0.211245 2.14213 5.00156
  235 0.197540 2.14858 -5.00135
  236 75.1054 -4.56491 -2.09483
  237 74.6479 -4.62880 2.32231
  238 41.0840 0.783249 -0.409403
  239 41.0855 0.781094 0.408931
  240 -9.85478 0.683684 3.22997
  241 -9.86240 0.684904 -3.23046
  242 -1.28773 -1.27036 -2.06959
  243 -1.28707 -1.27014 2.07149
  244 -11.3406 0.360958 1.13879
  245 -11.3457 0.360738 -1.13777
  246 33.2787 2.91180 -2.01563
  247 33.2894 2.89893 2.02604
  248 42.6238 1.57004 -5.21530
  249 42.6673 1.53662 5.24042
  250 9.34523 0.969379 -0.247644
  251 9.34737 0.970559 0.248412
  252 24.0930 -1.74844 -18.8849
  253 28.7421 -0.880709 20.8323
  254 2.90320 1.23968 4.92649
  255 2.89077 1.27408 -4.93796
  256 103.351 -9.70366 0.0796367
  257 7.99214 3.43540 2.56978
  258 7.98195 3.44110 -2.56259
  259 23.5399 2.30083 -6.57851
  260 23.5058 2.36839 6.67657
  261 114.606 15.0311 -3.69940
  262 68.1567 0.320607 2.71068
  263 68.1494 0.346667 -2.73027
  264 -0.634768 -3.84917 -3.28367
  265 -0.619273 -3.86605 3.29778
  266 -0.158969 -9.28094 -4.62515
  267 0.247633 -11.1035 -4.46046
  268 0.119009 -10.9954 4.59130
  269 -1.85278 -1.63222 6.15008
  270 -1.85839 -1.62720 -6.16869
  271 3.33417 -9.84713 -0.524303
  272 3.57533 -9.20575 1.07407
  273 -3.96737 -0.349493 2.89023
  274 -3.96791 -0.350765 -2.89181
  275 47.7826 1.74305 -2.09036
  276 47.7921 1.73009 2.08813
  277 84.5282 -9.25336 0.619018
  278 17.6128 1.92755 -0.442358
  279 17.6131 1.93020 0.444769
  280 -0.247122 -8.69252 4.41032
  281 0.834727 1.88257 2.49994
  282 0.828898 1.88343 -2.49701
  283 136.082 9.91956 -2.67395
  284 66.4434 0.287911 0.805239
  285 66.4404 0.289818 -0.807714
  286 43.0351 -2.59059 -14.4041
  287 43.4662 -2.55097 14.6667
  288 84.4002 -8.74679 -2.04202
  289 -8.26191 0.235891 3.69759
  290 -8.26744 0.236270 -3.70036
  291 83.0979 -8.78189 24.0944
  292 -3.87394 0.510919 5.66897
  293 -3.88327 0.511537 -5.67401
  294 13.0711 3.63531 -0.0750486
  295 13.0255 3.67161 0.100935
  296 -15.8797 0.196003 0.222969
  297 -15.8842 0.195884 -0.222714
  298 69.6593 -1.27296 -33.2993
  299 -14.4272 0.316174 -1.78509
  300 -14.4201 0.315795 1.78546
  301 -0.584838 -2.00714 6.40431
  302 -0.394041 -1.97720 -6.36348
  303 29.5961 3.32898 -2.99007
  304 29.6071 3.32002 3.01866
  305 5.52793 1.04776 0.953678
  306 5.52523 1.04665 -0.952285
  307 31.0554 1.63780 -0.461832
  308 31.0573 1.63359 0.462614
  309 2.67508 -2.93658 3.87998
  310 2.43636 -3.39989 -3.89634
  311 30.1383 0.955987 -0.0688216
  312 30.1385 0.954239 0.0688693
  313 -11.6365 0.300928 2.74778
  314 -11.6431 0.301456 -2.74933
  315 7.15676 -1.63590 -0.804386
  316 6.92975 -1.63771 0.616286
  317 69.5908 0.137943 0.221953
  318 69.5859 0.138190 -0.222273
  319 153.748 9.07419 5.25718
  320 14.4561 2.36310 0.932095
  321 14.4548 2.36093 -0.927807
  322 -4.32733 0.900641 1.59901
  323 -4.33215 0.900442 -1.59729
  324 20.3278 3.17771 0.113698
  325 20.3282 3.17420 -0.104118
  326 1.95658 2.05346 5.24309
  327 1.94523 2.06004 -5.24686
  328 0.296541 -15.8677 3.33886
  329 -16.3131 0.102445 -0.478593
  330 -16.3082 0.102574 0.479063
  331 52.3773 0.508289 -0.411550
  332 52.3796 0.507143 0.410955
  333 55.1937 0.728138 -1.09273
  334 55.1969 0.724108 1.09014
  335 -15.0345 0.306919 -1.33881
  336 -15.0283 0.306872 1.33959
  337 -1.49523 0.465549 0.231190
  338 -1.49855 0.464988 -0.230817
  339 -0.332078 -6.32886 3.29414
  340 -0.265871 -6.58065 -3.28959
  341 61.4480 -5.38090 -9.57000
  342 63.9676 -6.42332 9.36638
  343 36.1201 2.20420 -1.20742
  344 36.1258 2.19583 1.20911
  345 15.2785 3.83247 0.316614
  346 15.2597 3.84625 -0.296209
  347 -6.48936 1.17403 2.98013
  348 -6.49654 1.17533 -2.97911
  349 117.523 -0.397494 0.329877
  350 5.65715 -11.1849 -5.50487
  351 6.05636 -10.6668 5.84296
  352 -3.05180 1.77586 4.64568
  353 -3.06225 1.77958 -4.64614
  354 -3.35481 -0.736642 5.40822
  355 -3.36039 -0.736962 -5.41446
  356 132.664 20.6695 -3.56310
  357 83.0431 -1.83858 12.5150
  358 79.0026 -1.70044 -1.56297
  359 78.8879 -1.66250 1.40798
  360 54.3809 -0.449249 -6.04418
  361 54.3266 -0.517642 6.03981
  362 0.101379 -19.0953 -2.74855
  363 72.7277 0.377445 -1.54563
  364 72.7247 0.369678 1.53507
  365 0.885957 -18.2433 2.37180
  366 80.6336 6.24945 -7.37150
  367 19.3147 1.05171 0.351578
  368 19.3136 1.05033 -0.351337
  369 54.8632 0.713030 -4.49747
  370 54.9022 0.673078 4.49573
  371 59.6777 0.826436 -2.77733
  372 59.6865 0.808662 2.76751
  373 -2.22778 0.841026 1.13523
  374 -2.23176 0.840439 -1.13378
  375 33.1262 1.84866 -6.96081
  376 33.1520 1.86362 7.04285
  377 71.7930 0.137217 0.367284
  378 71.7884 0.137674 -0.368113
  379 39.2127 2.52381 -3.40063
  380 39.2338 2.50169 3.41493
  381 45.9409 1.11257 0.840768
  382 45.9383 1.11598 -0.841955
  383 -2.21836 -0.411427 1.76197
  384 -2.21753 -0.412272 -1.76148
  385 -0.520206 -0.371649 -0.499215
  386 -0.520521 -0.371939 0.500019
  387 95.0750 -13.1600 5.10918
  388 -1.29778 -3.08605 4.90002
  389 -1.28961 -3.10914 -4.89788
  390 14.2756 1.31501 -0.598306
  391 14.2769 1.31694 0.599790
  392 -0.477760 -2.35126 1.76638
  393 -0.482814 -2.34663 -1.76615
  394 5.00317 2.78200 2.81014
  395 4.99562 2.78485 -2.80535
  396 77.8580 -0.132283 2.00769
  397 77.8638 -0.0985630 -2.05847
  398 -0.285090 -4.88691 6.04043
  399 -6.42896 -0.131544 2.76020
  400 -6.43090 -0.131883 -2.76238
  401 -0.309179 -5.14247 -5.96964
  402 73.3723 0.194572 0.980475
  403 73.3714 0.196996 -0.984722
  404 -1.13438 1.48301 5.75647
  405 -1.15205 1.48940 -5.75987
  406 53.3566 1.16472 -1.78191
  407 53.3615 1.15670 1.77786
  408 82.3078 -3.56489 -2.51122
  409 82.7126 -2.83438 1.96006
  410 -0.184681 -8.65149 -3.62868
  411 6.73764 2.38716 -2.42765
  412 6.79241 2.35366 2.42881
  413 78.7853 5.34718 4.69499
  414 45.5489 -3.45932 -20.2114
  415 46.8769 -4.34662 21.2503
  416 2.01647 2.57579 3.99221
  417 2.00566 2.58079 -3.98940
  418 33.5528 1.33896 -0.314863
  419 33.5540 1.33611 0.314866
  420 32.4097 1.91974 32.4038
  421 12.8158 3.39293 -1.50351
  422 12.8218 3.39060 1.51291
  423 0.732873 -8.78067 4.36012
  424 -0.106081 -14.1272 -3.20231
  425 4.72917 3.07827 3.86024
  426 4.71481 3.08683 -3.85711
  427 5.72849 2.00716 -1.80977
  428 5.73240 2.00753 1.81321
  429 -2.56263 -0.250052 -6.19098
  430 -2.55316 -0.253757 6.18475
  431 15.5661 2.94261 -2.10368
  432 15.5050 2.99366 2.14896
  433 81.9296 -2.88969 -9.34968
  434 1.99728 -1.26817 5.18872
  435 1.92468 -1.23700 -5.20961
  436 59.5479 -2.48905 -6.68757
  437 59.8230 -2.68982 6.66402
  438 -15.5335 0.141079 -1.68962
  439 -15.5263 0.140731 1.68930
  440 0.00389474 -13.8077 2.86284
  441 -0.105068 -8.73929 3.22485
  442 -6.38848 0.364560 4.74459
  443 -6.39499 0.364985 -4.74827
  444 42.6785 0.760388 -0.126913
  445 42.6798 0.758941 0.126590
  446 -1.32647 -2.09138 3.28983
  447 -1.32781 -2.09511 -3.28505
  448 25.7445 0.797274 -10.2681
  449 25.7095 0.930036 10.4199
  450 0.219063 -17.0056 -3.28272
  451 153.613 6.06392 0.238375
  452 0.394554 -20.5681 -2.18039
  453 -18.7605 0.0518815 -0.668641
  454 -18.7549 0.0519664 0.669149
  455 -7.36049 0.972075 4.01154
  456 -7.36896 0.974068 -4.01280
  457 -8.11020 0.108661 2.78939
  458 -8.11349 0.108779 -2.79155
  459 28.3848 3.27642 -1.85214
  460 28.3928 3.26936 1.87009
  461 43.7811 2.13903 -2.63979
  462 43.7967 2.12041 2.64270
  463 -0.883372 -3.00935 6.21946
  464 -0.883698 -2.98840 -6.24317
  465 75.0687 0.823236 -11.8243
  466 4.81668 -2.10674 -1.76539
  467 4.65000 -2.14756 1.85146
  468 1.12568 -19.1340 0.454529
  469 0.699615 -21.9495 -0.936159
  470 -2.40005 -1.09256 3.39250
  471 -2.39991 -1.09587 -3.39267
  472 15.5373 -4.58610 -16.0335
  473 120.526 -3.13533 -9.16950
  474 25.8131 2.08559 0.312181
  475 25.8112 2.09031 -0.309459
  476 37.7798 0.194686 -10.0512
  477 37.8933 0.179592 10.2319
  478 10.5296 3.97544 1.99076
  479 10.5151 3.98650 -1.98065
  480 34.0608 2.73631 -4.98549
  481 34.0891 2.71505 5.03405
  482 0.918854 0.430843 5.93563
  483 0.995581 0.469561 -5.92640
  484 -16.5153 0.273101 -1.29967
  485 -16.5086 0.272996 1.30018
  486 77.1998 -9.42377 -4.94514
  487 61.9523 0.298140 -0.315511
  488 61.9558 0.297664 0.315180
  489 2.12689 0.650719 -0.544310
  490 2.12992 0.651561 0.545135
  491 -4.62984 1.47831 3.84419
  492 -4.63852 1.48071 -3.84378
  493 -9.88786 0.641112 -1.50003
  494 -9.88234 0.641113 1.50127
  495 25.7819 2.93218 -0.571239
  496 25.7857 2.92582 0.578565
  497 -3.68406 1.19201 5.24838
  498 -3.69524 1.19551 -5.25148
  499 70.8149 -1.81686 -3.49761
  500 70.9241 -1.92833 3.41741
  501 45.5090 0.631489 -6.62395
  502 45.4517 0.586313 6.68802
  503 16.2185 1.12807 -0.365992
  504 16.2197 1.12971 0.366682
  505 0.123292 -8.85767 -5.17034
  506 82.5730 -3.23655 7.72155
  507 0.975990 -6.14681 -4.91606
  508 22.5569 3.84167 1.74429
  509 22.5621 3.83597 -1.71257
  510 76.3426 -8.82087 4.84947
  511 5.36980 -10.8029 7.96232
  512 91.5941 -13.2407 -10.3015
  513 61.9924 0.549535 3.32669
  514 61.9736 0.581635 -3.34024
  515 0.100433 -7.62394 5.38055
  516 -1.20774 -0.365807 -0.931612
  517 -1.20854 -0.365777 0.932493
  518 6.43875 0.660532 -0.191105
  519 6.44126 0.661426 0.191431
  520 -0.215770 -4.84088 2.09962
  521 -0.195765 -4.81703 -2.10942
  522 51.0226 0.871313 0.701065
  523 51.0203 0.873279 -0.702146
  524 146.855 24.0556 8.27160
  525 5.51576 -4.78368 -0.815614
  526 4.26577 -6.05166 -0.0639709
  527 -2.39560 1.23233 -2.07897
  528 -2.39027 1.23210 2.08105
  529 -12.6924 0.203592 1.69461
  530 -12.6978 0.203805 -1.69572
  531 0.120452 -15.8787 3.22931
  532 -18.6238 0.207149 0.220694
  533 -18.6286 0.207077 -0.220394
  534 14.9378 -2.80098 -11.5466
  535 14.5864 -2.48965 12.0580
  536 13.6116 1.98109 -3.34512
  537 13.5097 2.05268 3.38738
  538 -3.45604 -0.763901 4.69787
  539 -3.45915 -0.766169 -4.70247
  540 13.1747 1.57416 0.667216
  541 13.1733 1.57220 -0.665115
  542 -8.45101 0.466035 0.716545
  543 -8.45542 0.465707 -0.715626
  544 15.7820 2.71413 0.889419
  545 15.7807 2.71211 -0.883086
  546 -0.339883 -1.08318 0.793760
  547 -0.340952 -1.08200 -0.793527
  548 5.49838 2.35743 3.63683
  549 5.46314 2.39559 -3.64231
  550 4.44988 0.302218 3.32791
  551 4.38431 0.295895 -3.35830
  552 63.2174 0.717155 1.41539
  553 63.2146 0.721121 -1.41929
  554 55.4724 1.08089 2.19909
  555 55.4655 1.09260 -2.20488
  556 -0.0576590 -13.1712 -1.97041
  557 38.1714 2.33192 -1.91866
  558 38.1808 2.31996 1.92214
  559 38.4084 1.29770 -0.633754
  560 38.4110 1.29355 0.633492
  561 -6.48506 0.341029 -0.0456025
  562 -6.48132 0.341400 0.0458163
  563 62.2467 3.71020 -2.26957
  564 87.5694 -11.9437 -2.96050
  565 68.8864 3.00482 9.09563
  566 0.510388 -11.8442 -3.97396
  567 -4.67140 1.32779 -2.63603
  568 -4.66492 1.32697 2.63776
  569 0.502822 -6.98279 5.20470
  570 -4.08667 0.0406296 5.46866
  571 -4.09390 0.0410166 -5.47327
  572 110.937 10.7876 -1.52808
  573 24.4720 1.54187 -0.0313144
  574 24.4725 1.53886 0.0324628
  575 174.584 14.3647 -14.0023
  576 -1.06636 -0.853294 6.48580
  577 -1.01481 -0.809512 -6.49262
  578 92.6170 -9.11853 5.35426
  579 75.1571 0.240667 -1.73586
  580 75.1498 0.228637 1.71898
  581 33.0328 -0.784880 -14.8043
  582 33.4700 -0.874047 15.0827
  583 -2.01172 -1.94758 5.45848
  584 -2.01245 -1.95601 -5.46962
  585 16.9854 0.800593 7.26978
  586 17.1269 0.656343 -7.18406
  587 -14.9798 0.180428 -1.62550
  588 -14.9728 0.180175 1.62489
  589 109.352 7.63513 9.13705
  590 19.7586 2.22695 -0.328786
  591 19.7583 2.23024 0.332078
  592 23.4461 2.86977 -4.81807
  593 23.4248 2.90534 4.89229
  594 67.3399 0.127686 -3.29645
  595 67.3626 0.0864240 3.27521
  596 -0.338394 -7.04798 -4.93772
  597 74.2703 0.0281681 0.510563
  598 74.2660 0.0287430 -0.511693
  599 -11.7519 0.315885 -0.310898
  600 -11.7475 0.316120 0.311402
  601 -19.9397 -0.0876073 0.0221687
  602 -19.9443 -0.0876635 -0.0220736
  603 1.42256 -11.2766 -2.32257
  604 -0.718928 -4.52277 4.16808
  605 -0.758106 -4.28565 -4.19600
  606 -8.64257 0.509025 3.98145
  607 -8.64939 0.510011 -3.98399
  608 50.7535 1.61433 2.73161
  609 50.7411 1.63241 -2.73525
  610 37.0464 0.870301 0.159363
  611 37.0456 0.871732 -0.159472
  612 7.90596 -3.61566 4.17900
  613 8.18417 -3.44244 -4.12353
  614 -0.269558 -3.36682 1.76620
  615 -0.277195 -3.35515 -1.77158
  616 88.8861 2.27184 35.2343
  617 -4.34430 -0.142141 1.64640
  618 -4.34333 -0.142669 -1.64718
  619 1.38321 -6.92486 -4.13270
  620 36.1269 1.85037 -0.895970
  621 36.1305 1.84442 0.896517
  622 17.0978 3.76093 -0.995715
  623 17.0717 3.78194 1.02864
  624 0.184312 -24.4184 1.53343
  625 12.6148 3.82715 1.44715
  626 12.6058 3.83299 -1.43594
  627 -2.25773 1.63142 3.15697
  628 -2.26495 1.63300 -3.15501
  629 -0.105698 -11.6750 2.69681
  630 -19.6121 0.0542531 -0.657133
  631 -19.6060 0.0542695 0.657584
  632 23.2981 0.997323 -0.0952723
  633 23.2984 0.999283 0.0957430
  634 61.6128 0.460210 0.912832
  635 61.6099 0.462325 -0.914855
  636 53.4202 -5.15964 26.9080
  637 42.9090 1.46818 -1.53623
  638 42.9150 1.45962 1.53570
  639 0.437989 -1.23538 6.14275
  640 0.580419 -0.835732 -6.15005
  641 69.1886 -8.29521 -21.5961
  642 169.697 6.06903 -5.84376
  643 -17.7560 0.0313814 -1.14577
  644 -17.7486 0.0312227 1.14576
  645 3.06738 1.11974 -1.10886
  646 3.07061 1.12062 1.11058
  647 -0.347265 -7.40211 4.33044
  648 93.3102 4.70684 -11.7981
  649 73.5024 -0.0120332 0.0789840
  650 73.4965 -0.0119623 -0.0790832
  651 -4.75474 -0.285296 -3.87113
  652 -4.75213 -0.284484 3.86805
  653 -0.00892471 -16.6935 -2.63752
  654 74.8110 -0.0381210 0.194170
  655 74.8052 -0.0380063 -0.194425
  656 5.83167 2.48017 2.42406
  657 5.82605 2.48121 -2.41948
  658 55.2671 -5.27468 -13.9541
  659 56.3646 -5.26623 14.1342
  660 82.9105 -0.409310 1.11314
  661 82.9680 -0.401430 -1.17888
  662 0.354926 -21.3197 2.18837
  663 -5.63007 0.295748 -0.427432
  664 -5.62630 0.296176 0.427971
  665 26.3735 -1.84722 -25.0586
  666 24.3008 0.932305 0.134298
  667 24.3014 0.933746 -0.134181
  668 11.3322 1.21013 0.386183
  669 11.3303 1.20859 -0.385017
  670 13.7290 1.90247 -0.647574
  671 13.7303 1.90469 0.650634
  672 47.2249 1.65191 -4.21578
  673 47.2578 1.62012 4.22444
  674 11.8540 3.59057 1.02457
  675 11.8236 3.61542 -1.00966
  676 -9.42735 0.713486 -2.42810
  677 -9.42055 0.712777 2.42900
  678 -10.7256 0.735395 -2.70230
  679 -10.7183 0.734470 2.70249
  680 84.8256 -1.21823 -0.575806
  681 -0.0537259 -3.75817 -6.14956
  682 85.0511 -1.27882 0.429666
  683 105.995 8.68291 0.756471
  684 -10.7366 0.0466212 1.91639
  685 -10.7406 0.0467171 -1.91785
  686 10.2874 2.83184 0.342505
  687 10.2164 2.87369 -0.324143
  688 -21.1235 0.0512993 -0.266440
  689 -21.1180 0.0513480 0.266771
  690 -0.00461797 -3.42126 6.18289
  691 -6.82663 0.0667875 4.13053
  692 -6.83173 0.0669286 -4.13380
  693 92.7415 -8.61098 -5.73934
  694 13.5221 0.670493 -0.0247809
  695 13.5204 0.669366 0.0250461
  696 2.35065 1.54253 1.74346
  697 2.34653 1.54207 -1.74088
  698 47.9165 -2.46262 -11.5411
  699 48.3277 -2.56018 11.7975
  700 176.770 12.2202 12.9410
  701 3.03208 -18.5346 -4.52340
  702 -1.33361 -2.75561 5.87067
  703 -1.33724 -2.76419 -5.88023
  704 9.31882 2.50936 -1.52709
  705 9.32226 2.51002 1.53172
  706 76.8843 -0.0199794 -0.526855
  707 76.8877 -0.0205742 0.525211
  708 35.3102 1.00149 0.204129
  709 35.3092 1.00375 -0.204301
  710 2.37534 2.56490 4.74900
  711 2.36150 2.57314 -4.74847
  712 0.723685 0.880417 0.786908
  713 0.720416 0.879636 -0.785807
  714 -2.43435 0.382832 6.14739
  715 -2.44665 0.384959 -6.15478
  716 62.6257 0.214894 0.372017
  717 62.6223 0.215638 -0.372762
  718 53.7551 0.815787 1.02156
  719 53.7524 0.818653 -1.02334
  720 6.68699 -6.32375 5.21318
  721 6.90414 -6.65759 -4.99778
  722 -4.55118 0.863501 5.36599
  723 -4.56104 0.865476 -5.37023
  724 1.99942 -5.88810 3.46120
  725 -0.237687 1.44688 5.84458
  726 -0.256649 1.45304 -5.84460
  727 -12.7483 0.405098 -1.64372
  728 -12.7420 0.404890 1.64460
  729 8.49792 3.15122 2.38790
  730 8.49007 3.15431 -2.38086
  731 83.0645 -2.62244 -5.35209
  732 78.7886 -7.07567 -1.04953
  733 -1.31631 -2.68217 4.08969
  734 -1.31383 -2.69327 -4.08303
  735 29.5189 -1.38851 -17.5049
  736 28.7082 -0.697203 17.7294
  737 17.6672 3.39661 -1.95756
  738 17.6301 3.43066 2.00287
  739 1.39327 -3.52411 5.20036
  740 -0.121920 -8.57940 -2.32232
  741 38.0294 2.39932 -3.77058
  742 38.0563 2.37739 3.79400
  743 0.110078 -17.0008 2.18531
  744 22.2276 3.45523 -0.506040
  745 22.2286 3.45155 0.519704
  746 80.5365 0.0430805 -1.32304
  747 80.5130 0.0313931 1.29711
  748 1.47063 -24.5757 -0.107151
  749 34.9533 2.97695 2.74430
  750 34.9385 2.99247 -2.72964
  751 8.96499 3.17705 -1.88295
  752 9.00806 3.14160 1.88856
  753 -14.6437 0.0987996 -1.35738
  754 -14.6375 0.0986455 1.35659
  755 39.2153 1.07669 -0.587832
  756 39.2171 1.07377 0.587397
  757 23.5312 3.70308 -1.39517
  758 23.5313 3.70227 1.41872
  759 -0.461449 2.15124 4.63086
  760 -0.473055 2.15633 -4.63007
  761 79.0421 -6.02638 0.107083
  762 -13.2753 0.347690 1.26760
  763 -13.2809 0.347621 -1.26671
  764 176.338 30.8161 -21.6440
  765 -5.69216 0.622591 1.39756
  766 -5.69679 0.622208 -1.39616
  767 67.6807 0.452546 2.36126
  768 67.6784 0.468319 -2.37584
  769 125.552 8.49192 0.372221
  770 77.3705 -0.107936 -1.01698
  771 77.3688 -0.110151 1.01202
  772 48.4241 1.08028 1.24954
  773 48.4207 1.08499 -1.25140
  774 72.7124 -9.39138 19.6465
  775 30.7632 2.68166 -0.783645
  776 30.7685 2.67402 0.788051
  777 0.657144 -13.5456 3.07340
  778 83.7139 -11.2757 5.57168
  779 50.6442 0.491773 0.223582
  780 50.6422 0.492743 -0.223825
  781 67.3011 0.234677 0.120614
  782 67.2966 0.234877 -0.120762
  783 -0.321072 -6.88109 -4.03785
  784 0.366008 -12.0704 4.18324
  785 28.9519 3.43035 3.81857
  786 28.9412 3.43519 -3.77503
  787 176.107 2.11633 1.37771
  788 50.9158 0.708665 -5.36182
  789 50.9608 0.670557 5.37228
  790 -11.1687 0.373966 3.02027
  791 -11.1761 0.374806 -3.02132
  792 1.98531 -10.3724 1.53280
  793 1.31424 -23.1479 -0.830780
  794 117.729 14.9764 0.0698549
  795 -0.108343 -8.54786 2.09441
  796 1.93726 1.47352 5.40382
  797 1.93352 1.47496 -5.41861
  798 14.7567 3.31223 1.07544
  799 14.7537 3.31235 -1.06694
  800 78.6596 -3.52259 -0.699463
  801 78.7368 -3.50135 0.370258
  802 94.2765 8.52572 -33.1856
  803 -13.7157 0.224001 -0.637313
  804 -13.7107 0.224180 0.638054
  805 -5.97327 -0.0306843 1.55929
  806 -5.97310 -0.0308769 -1.56040
  807 5.21664 -0.153865 2.31996
  808 5.10525 -0.160863 -2.32203
  809 59.1071 -0.0759701 4.85312
  810 59.0591 -0.0137272 -4.85183
  811 29.5036 1.18313 -0.00641039
  812 29.5042 1.18078 0.00662921
  813 96.0816 -2.66158 10.9702
  814 9.11242 1.86292 -1.34424
  815 9.11506 1.86428 1.34757
  816 8.78475 0.612057 -0.518285
  817 8.70547 0.662834 0.550168
  818 -0.104759 -7.01280 -5.57211
  819 138.820 17.3953 16.6872
  820 -20.4407 0.0404357 -0.646019
  821 -20.4339 0.0404082 0.646371
  822 -0.0298264 -20.8733 2.11624
  823 1.21667 -3.46983 -5.23729
  824 -2.94179 -0.186663 1.14673
  825 -2.93992 -0.187044 -1.14678
  826 109.215 4.67382 -8.75265
  827 27.2786 3.09554 -0.972182
  828 27.2842 3.08843 0.983272
  829 74.7996 -0.880276 -2.42043
  830 74.8494 -0.898790 2.36433
  831 -19.4343 0.167227 0.836922
  832 -19.4417 0.167290 -0.836741
  833 -0.129124 -0.134361 -0.106168
  834 -0.129375 -0.134606 0.106570
  835 0.0761947 -21.3676 -2.09140
  836 0.104738 -22.7887 -2.00352
  837 -21.8651 0.234927 0.143470
  838 -21.8699 0.234893 -0.143329
  839 10.6182 -5.87918 -10.9431
  840 45.8440 0.936516 -0.321899
  841 45.8458 0.934843 0.321309
  842 -2.66187 0.559527 0.181412
  843 -2.66529 0.559028 -0.181260
  844 69.1985 0.411831 -1.58563
  845 69.1991 0.406132 1.57834
  846 -7.87431 0.0529125 1.48908
  847 -7.87540 0.0529360 -1.49023
  848 40.6608 -1.67009 -26.8955
  849 71.3521 -6.23457 4.98766
  850 56.3398 0.565728 -0.453237
  851 56.3425 0.564576 0.452352
  852 70.6320 -6.80584 -5.65399
  853 21.1802 2.76925 0.0961725
  854 21.1813 2.76493 -0.0894270
  855 29.7545 2.37613 -0.539931
  856 29.7579 2.37009 0.542738
  857 83.1777 -1.82060 4.07338
  858 4.46808 2.88191 4.10095
  859 4.45149 2.89362 -4.10163
  860 4.12465 0.597789 0.396310
  861 4.12189 0.596926 -0.395752
  862 38.6845 0.889025 0.253206
  863 38.6835 0.890799 -0.253476
  864 104.085 -11.5005 9.82092
  865 64.6498 0.646788 -2.03878
  866 64.6534 0.636145 2.02900
  867 -0.0886700 1.14988 1.38969
  868 -0.0926382 1.14930 -1.38780
  869 65.0960 0.156565 0.559143
  870 65.0925 0.157398 -0.560264
  871 -13.1569 0.172171 -0.351403
  872 -13.1527 0.172366 0.351529
  873 -0.0621086 -6.52171 1.85837
  874 -0.0801471 -6.62355 -1.87354
  875 76.0239 -1.33127 9.37344
  876 -5.19774 1.18467 4.61740
  877 -5.20731 1.18753 -4.61911
  878 -0.0289100 -10.7951 -2.07026
  879 29.7992 1.51277 -0.243745
  880 29.8003 1.50970 0.244233
  881 55.6081 -2.88912 -8.72856
  882 56.0767 -3.20432 8.81946
  883 -2.58660 -0.971290 -5.91023
  884 -2.57805 -0.972926 5.90188
  885 2.40593 2.65649 4.38927
  886 2.39328 2.66313 -4.38705
  887 0.280508 -25.3116 1.58592
  888 0.275042 1.97829 5.41108
  889 0.259797 1.98476 -5.41141
  890 51.2323 -0.858425 -7.72940
  891 51.1323 -0.915562 7.79288
  892 88.8580 4.19076 12.0732
  893 19.6675 2.60492 -0.308888
  894 19.6672 2.60868 0.313769
  895 66.5763 0.662198 -1.54180
  896 66.5781 0.657354 1.53643
  897 -2.69703 -1.21641 5.13990
  898 -2.70025 -1.21988 -5.14668
  899 0.219672 -26.4212 -1.22898
  900 -4.14097 -0.330247 5.06892
  901 -4.14610 -0.330268 -5.07360
  902 1.74707 2.47861 -3.51017
  903 1.75593 2.47502 3.51329
  904 -0.206389 -1.61329 0.899326
  905 -0.208600 -1.61142 -0.900543
  906 4.83342 2.78764 -3.26596
  907 4.84312 2.78321 3.27076
  908 0.956770 -2.39230 5.74961
  909 0.812398 -2.22941 -5.99280
  910 63.7474 -1.64755 4.88780
  911 63.5860 -1.54638 -4.93468
  912 -22.2036 0.0926666 -0.210264
  913 -22.1985 0.0927154 0.210484
  914 -1.79377 -0.167346 0.855295
  915 -1.79187 -0.167562 -0.854842
  916 0.0915353 -15.3944 -1.90467
  917 -1.97792 -0.861450 -2.45639
  918 -1.97802 -0.859749 2.45737
  919 -8.68669 0.702846 3.88173
  920 -8.69447 0.704328 -3.88356
  921 18.9774 3.93857 -0.399150
  922 18.9700 3.94523 0.420264
  923 82.2070 6.85728 -2.29611
  924 -1.65008 1.94999 4.21411
  925 -1.65993 1.95357 -4.21308
  926 30.4410 1.79970 -7.84930
  927 30.4594 1.82662 7.96146
  928 -4.50016 1.40216 3.41074
  929 -4.50797 1.40414 -3.40971
  930 104.079 -6.71971 -3.94161
  931 58.0084 2.34397 5.16644
  932 73.1985 -1.16270 -8.48138
  933 55.8201 1.09070 -3.29168
  934 55.8374 1.06588 3.28474
  935 -6.87653 0.907095 -1.77597
  936 -6.87108 0.906936 1.77751
  937 -13.9910 0.270277 1.98475
  938 -13.9983 0.270732 -1.98483
  939 -0.828120 -2.64283 -2.85692
  940 -0.823191 -2.64644 2.86315
  941 18.8366 1.61246 -0.219778
  942 18.8369 1.61502 0.221457
  943 -6.60385 0.622975 4.74872
  944 -6.61146 0.624044 -4.75229
  945 68.0345 0.173682 0.754255
  946 68.0310 0.174654 -0.755773
  947 -0.539930 -5.87169 4.39347
  948 1.65112 2.31843 -3.05582
  949 1.65844 2.31625 3.05903
  950 2.47074 1.70727 2.10998
  951 2.46599 1.70732 -2.10705
  952 10.4854 1.35046 -0.710443
  953 10.4873 1.35198 0.712028
  954 128.498 13.2375 -0.0716098
  955 -0.481680 -0.137954 -0.330094
  956 -0.482703 -0.137994 0.330716
  957 3.86415 0.812203 -3.96524
  958 3.93113 0.772189 3.96003
  959 44.5698 2.16473 -3.30824
  960 44.5908 2.14130 3.31394
  961 4.82229 2.11328 -2.07930
  962 4.82703 2.11314 2.08302
  963 11.8556 -7.22768 15.1148
  964 86.2632 -0.534335 -0.550275
  965 86.0674 -0.512931 0.456266
  966 14.2332 -3.90296 12.8598
  967 14.7454 1.00114 0.0931016
  968 14.7439 0.999804 -0.0926208
  969 40.1472 -2.82291 -23.1843
  970 30.2921 0.918841 0.152664
  971 30.2921 0.920282 -0.152646
  972 3.59356 -5.01614 1.73841
  973 3.97313 -4.35415 -1.43711
  974 76.8671 -0.00799092 0.263493
  975 76.8612 -0.00785418 -0.263823
  976 -6.35556 0.00131633 3.71887
  977 -6.35911 0.00125678 -3.72177
  978 137.081 16.8232 5.84281
  979 -0.666595 -4.53989 -5.88493
  980 0.543448 -24.0938 1.57320
  981 -0.157891 -7.13958 5.46119
  982 79.2973 0.0517157 -1.03823
  983 79.2901 0.0484737 1.03060
  984 -1.05204 -1.91447 2.46053
  985 -1.05434 -1.91359 -2.45727
  986 96.0924 9.58007 -7.60287
  987 179.100 1.89509 -0.926316
  988 -0.254101 -0.368036 -0.359258
  989 -0.253877 -0.368803 0.359768
  990 44.9592 0.905193 -0.679170
  991 44.9612 0.902783 0.678346
  992 -0.693122 -4.38019 5.92550
  993 63.1796 0.590202 2.99371
  994 63.1699 0.613860 -3.00734
  995 82.7821 -5.72455 -4.44394
  996 -2.93295 -0.632476 2.79298
  997 -2.93283 -0.634423 -2.79344
  998 1.16862 -6.06183 4.59694
  999 -0.160301 -10.5940 4.28015
  1000 -0.0106263 -10.7034 2.06427
  1001 81.7675 5.79532 -0.411281
  1002 95.4866 10.4640 4.86953
  1003 69.0797 -8.47234 -10.4599
  1004 0.889307 -10.8228 3.77316
  1005 1.15601 -15.7774 1.37618
  1006 18.2486 0.812251 0.109534
  1007 18.2474 0.811005 -0.109412
  1008 -0.775167 -0.881717 -1.15883
  1009 -0.774711 -0.882217 1.15997
  1010 0.566594 -8.88007 -4.81367
  1011 56.2767 0.386566 -0.165903
  1012 56.2794 0.385884 0.165612
  1013 10.4906 -1.08062 -4.17750
  1014 10.0259 -1.05090 4.13983
  1015 -1.53620 1.65179 5.38389
  1016 -1.55032 1.65737 -5.38615
  1017 -7.27916 1.05816 -3.38300
  1018 -7.27134 1.05656 3.38323
  1019 41.7284 0.717174 -7.84708
  1020 41.7719 0.742070 7.94576
  1021 29.6775 2.74211 -5.15597
  1022 29.6873 2.73617 5.22175
  1023 32.5137 2.77729 -1.51449
  1024 32.5212 2.76679 1.52090
  1025 86.0765 -2.99557 -11.4219
  1026 -2.69416 0.981530 5.78134
  1027 -2.70729 0.984737 -5.78706
  1028 61.2366 0.219359 4.04111
  1029 61.2062 0.267026 -4.05324
  1030 -0.540051 -3.52531 6.25309
  1031 -5.02577 -0.183333 2.71398
  1032 -5.02653 -0.183956 -2.71583
  1033 55.6281 0.842460 -3.98949
  1034 55.6548 0.808013 3.98380
  1035 65.9573 1.35694 -8.11399
  1036 -0.118544 -10.5680 -4.49819
  1037 -0.886619 -4.18299 5.23111
  1038 -0.921233 -4.22510 -5.18354
  1039 38.6407 2.65383 -2.58690
  1040 38.6565 2.63646 2.59564
  1041 49.5594 1.28204 1.56600
  1042 49.5548 1.28865 -1.56858
  1043 82.6172 -5.58856 3.91870
  1044 2.89417 0.641577 -0.113725
  1045 2.89705 0.642291 0.113888
  1046 69.9634 -9.49621 11.1833
  1047 -1.59733 0.475057 0.494433
  1048 -1.60073 0.474410 -0.493815
  1049 14.2099 3.91894 0.887767
  1050 14.1972 3.92845 -0.872485
  1051 4.95430 3.06415 3.56361
  1052 4.94248 3.07056 -3.55914
  1053 0.707320 -13.3812 -3.18573
  1054 19.2955 1.09983 -0.234834
  1055 19.2961 1.10197 0.235864
  1056 55.7563 2.02711 2.10879
  1057 56.6476 0.762901 1.50583
  1058 56.6441 0.768439 -1.50945
  1059 -0.485470 -3.63901 -6.26066
  1060 85.5182 -1.05324 -2.15918
  1061 -0.289030 -0.554868 6.35310
  1062 -0.228175 -0.496527 -6.33060
  1063 78.9832 -0.0732219 -0.568672
  1064 78.9848 -0.0739497 0.566392
  1065 83.9296 -0.202522 -0.988315
  1066 83.8747 -0.215050 0.952102
  1067 -0.0647276 -16.2466 1.56640
  1068 48.0637 1.61812 -2.09581
  1069 48.0702 1.60784 2.09327
  1070 59.1099 0.850593 1.78939
  1071 59.1060 0.857376 -1.79444
  1072 0.886514 1.18252 5.87539
  1073 0.883406 1.18516 -5.87441
  1074 129.243 9.22157 0.839867
  1075 -1.84703 -0.884276 6.36556
  1076 -1.86706 -0.868117 -6.37704
  1077 17.2701 3.77785 0.510590
  1078 17.2672 3.77867 -0.498644
  1079 -11.4086 0.306461 -0.683642
  1080 -11.4040 0.306744 0.684338
  1081 28.9351 1.33846 -9.11057
  1082 28.9128 1.42550 9.25062
  1083 7.79276 3.44978 2.96242
  1084 7.77929 3.45789 -2.95566
  1085 19.3946 1.81079 -6.35450
  1086 19.3004 1.91655 6.43472
  1087 -0.573544 -5.50591 -4.27473
  1088 69.8146 0.695908 10.3555
  1089 49.9644 -2.17011 30.5252
  1090 7.33310 3.46829 3.06958
  1091 7.31570 3.48045 -3.06421
  1092 29.6544 2.00646 -0.357641
  1093 29.6569 2.00138 0.359354
  1094 112.135 -1.74716 5.43076
  1095 6.49894 1.34530 2.35006
  1096 6.41615 1.37176 -2.36749
  1097 -3.36257 -0.765238 3.74385
  1098 -3.36355 -0.768109 -3.74608
  1099 -0.111076 -2.41436 0.986516
  1100 -0.115191 -2.41254 -0.990266
  1101 73.4085 0.156407 2.46123
  1102 73.4041 0.189128 -2.49166
  1103 0.00676476 -5.55754 5.90026
  1104 -5.24331 0.266096 -5.12596
  1105 -5.23654 0.265798 5.12184
  1106 0.0305591 -19.8730 -2.05733
  1107 -1.32106 -1.82615 6.35223
  1108 -1.31844 -1.79247 -6.35731
  1109 70.5610 0.276526 -1.03780
  1110 70.5634 0.274412 1.03471
  1111 72.1629 -0.311402 2.88697
  1112 72.1312 -0.259779 -2.92019
  1113 11.6865 2.29146 -1.43880
  1114 11.5996 2.35133 1.47280
  1115 -0.185060 -10.2376 -3.59062
  1116 95.4357 -11.1279 -17.1835
  1117 124.242 13.5135 -2.37136
  1118 1.14460 -16.7236 -0.959767
  1119 3.81412 2.29532 -4.57586
  1120 3.83471 2.27993 4.56470
  1121 10.8266 3.74996 1.84611
  1122 10.8063 3.76536 -1.83519
  1123 23.8252 1.83147 -0.0935336
  1124 23.8243 1.83522 0.0954858
  1125 -1.65985 -2.36500 4.86758
  1126 -1.65657 -2.38502 -4.87280
  1127 -5.12402 1.42804 4.29962
  1128 -5.13326 1.43078 -4.30016
  1129 -2.16923 1.75278 5.00400
  1130 -2.18128 1.75732 -5.00516
  1131 68.2571 -3.43723 -4.68226
  1132 68.7273 -3.48569 4.61797
  1133 0.0381194 -11.9861 -4.32206
  1134 35.4011 -0.498090 -11.7350
  1135 35.4835 -0.380444 11.9700
  1136 10.7254 3.58047 -1.86277
  1137 10.7332 3.57588 1.87166
  1138 37.0582 10.3934 34.2738
  1139 8.16759 2.94932 2.26751
  1140 8.16145 2.95098 -2.26148
  1141 94.1742 -11.4927 -2.89472
  1142 34.5994 1.37197 0.343548
  1143 34.5977 1.37548 -0.343455
  1144 -1.62468 -1.45667 2.93566
  1145 -1.62494 -1.45938 -2.93360
  1146 -1.95497 -1.76573 3.82300
  1147 -1.95380 -1.77167 -3.82190
  1148 60.6762 -6.98670 -17.0167
  1149 62.0690 -7.62968 17.1589
  1150 9.84847 0.709910 0.0121079
  1151 9.85059 0.710995 -0.0116077
  1152 37.4569 1.86632 -6.21455
  1153 37.4752 1.83505 6.29151
  1154 84.3060 -12.4155 12.6140
  1155 76.3053 -0.0910688 0.157891
  1156 76.2988 -0.0909832 -0.157989
  1157 -7.29312 1.08475 3.82140
  1158 -7.30147 1.08658 -3.82193
  1159 -12.2846 0.420372 -2.05813
  1160 -12.2780 0.420043 2.05889
  1161 18.1604 -2.54949 19.6933
  1162 53.8203 3.92160 -4.24742
  1163 34.2607 2.79518 -2.79941
  1164 34.2784 2.77973 2.81979
  1165 111.234 -6.41759 18.2440
  1166 34.7907 2.61365 -4.38973
  1167 34.8143 2.59237 4.42541
  1168 7.83102 1.41222 -0.950668
  1169 7.83350 1.41365 0.952607
  1170 2.84328 -13.3605 1.07941
  1171 2.88063 -13.1253 -1.84936
  1172 47.5195 -4.04751 -17.1318
  1173 48.2393 -3.82449 17.1490
  1174 17.9838 2.70120 -4.14136
  1175 17.9140 2.76954 4.20685
  1176 85.2203 -6.16403 -7.69918
  1177 -3.32612 -0.360078 5.76417
  1178 -3.33385 -0.359079 -5.76978
  1179 -0.155197 -4.98688 -6.05061
  1180 20.7087 -0.573587 -12.0977
  1181 20.7725 -0.485702 12.3488
  1182 -0.0562619 -4.30434 1.10637
  1183 -0.0478436 -4.31412 -1.11931
  1184 -21.2430 0.188420 -0.599373
  1185 -21.2359 0.188381 0.599606
  1186 68.9345 0.159250 -0.263003
  1187 68.9389 0.158862 0.262360
  1188 41.3355 1.93469 -1.64567
  1189 41.3438 1.92401 1.64640
  1190 -1.80115 -0.180647 6.41587
  1191 -1.80573 -0.156523 -6.42584
  1192 0.0153558 -17.6034 -1.75654
  1193 -17.8951 0.0493762 0.928867
  1194 -17.9025 0.0494876 -0.929077
  1195 12.6380 -1.76313 -8.07949
  1196 12.5370 -1.68027 8.38409
  1197 79.4332 -4.90836 0.518246
  1198 21.5656 0.557921 -10.8180
  1199 21.5926 0.642722 10.9604
  1200 -9.77122 0.0497214 1.36125
  1201 -9.77356 0.0497260 -1.36235
  1202 0.236185 -15.9441 -3.18304
  1203 -3.99623 0.771980 -0.924503
  1204 -3.99226 0.772513 0.925637
  1205 10.9840 3.11377 1.84428
  1206 10.9785 3.11498 -1.83695
  1207 44.3216 0.626305 -0.241171
  1208 44.3230 0.625107 0.241007
  1209 60.5505 0.585624 1.14941
  1210 60.5476 0.589091 -1.15237
  1211 2.92307 -0.988702 4.05194
  1212 2.87981 -1.03940 -4.10261
  1213 0.469902 -9.32573 4.77178
  1214 107.947 13.6995 6.70072
  1215 -3.34905 -0.273757 2.11507
  1216 -3.34838 -0.274729 -2.11554
  1217 0.363096 -8.72552 -4.93685
  1218 -0.332586 -5.11732 3.10900
  1219 -0.313904 -5.07853 -3.22325
  1220 86.0313 -0.907059 1.92882
  1221 0.0820377 -20.2222 1.81132
  1222 0.497745 -6.50241 -5.49801
  1223 9.02348 0.606927 0.147768
  1224 9.02124 0.605998 -0.147628
  1225 -0.927528 -3.81281 5.79790
  1226 -10.3285 0.615525 -1.79993
  1227 -10.3225 0.615353 1.80106
  1228 182.334 3.37775 4.87739
  1229 -5.25966 0.528246 5.22616
  1230 -5.26778 0.529094 -5.23043
  1231 40.1776 1.82832 -5.63151
  1232 40.2252 1.78816 5.67130
  1233 2.39777 -4.86776 -2.94483
  1234 38.3795 2.38021 -2.07955
  1235 38.3915 2.36599 2.08497
  1236 1.47311 -13.3704 -1.39093
  1237 -0.928614 -3.81587 -5.78194
  1238 -7.69054 0.400938 1.14010
  1239 -7.69512 0.400561 -1.13900
  1240 -3.24731 0.116857 -5.94377
  1241 -3.23810 0.116312 5.93882
  1242 81.4464 6.36392 8.75802
  1243 46.7776 0.758719 -6.10511
  1244 46.8440 0.732410 6.12071
  1245 -22.4736 0.0730229 -0.248609
  1246 -22.4678 0.0730451 0.248891
  1247 42.4243 1.44121 -1.13634
  1248 42.4276 1.43623 1.13544
  1249 -23.2852 -0.358711 -0.0558412
  1250 -23.2899 -0.358734 0.0558699
  1251 63.4893 -4.60264 -6.97222
  1252 -10.3949 0.166132 2.93666
  1253 -10.4006 0.166475 -2.93870
  1254 64.1818 -4.85891 6.90624
  1255 43.0306 1.98542 -2.40071
  1256 43.0416 1.97059 2.40177
  1257 4.79723 -16.0913 -8.06396
  1258 0.0887037 -14.4552 -3.72722
  1259 -0.348424 -6.12786 5.44689
  1260 141.058 18.4889 -16.1395
  1261 -0.0389086 -13.4478 3.58093
  1262 145.702 13.6362 -7.22310
  1263 -0.0558387 -24.8173 -1.75531
  1264 5.73241 0.944206 -0.438633
  1265 5.73501 0.945290 0.439708
  1266 -0.0645141 -5.53665 1.16076
  1267 -0.0528843 -5.56480 -1.15658
  1268 23.3907 0.982226 -0.111055
  1269 23.3912 0.983836 0.111308
  1270 86.3503 -7.04853 7.38331
  1271 0.606439 0.851038 -1.07367
  1272 0.609867 0.851788 1.07501
  1273 0.505165 -28.0886 1.11176
  1274 0.321842 -29.7708 -1.08735
  1275 79.4107 -10.5637 -7.19271
  1276 -0.232276 -7.34909 3.45957
  1277 81.1202 4.76383 -10.6939
  1278 -0.249818 -9.68714 3.41290
  1279 0.159707 -26.9675 -1.44967
  1280 39.4000 1.54560 -1.16478
  1281 39.4048 1.53791 1.16499
  1282 -0.0248516 -14.3047 1.54183
  1283 -0.0416140 -12.0229 -3.50113
  1284 196.686 30.9690 27.4503
  1285 76.6935 0.128117 0.127038
  1286 76.6868 0.128105 -0.127042
  1287 1.64410 -0.219743 5.43947
  1288 1.58746 -0.138341 -5.45694
  1289 -1.53511 0.959592 6.13217
  1290 -1.55749 0.963873 -6.13901
  1291 79.4133 -1.58956 -6.05129
  1292 74.3187 -3.01882 -2.49803
  1293 74.2176 -3.46214 2.49422
  1294 10.0139 1.57621 1.01301
  1295 10.0117 1.57448 -1.01045
  1296 -12.7501 0.351332 -2.37639
  1297 -12.7428 0.350723 2.37592
  1298 82.9813 -12.4808 -10.5363
  1299 -0.628765 -1.50229 1.52123
  1300 -0.630934 -1.50065 -1.52021
  1301 87.1074 -4.28149 10.7609
  1302 -0.957419 -3.54595 4.19149
  1303 -0.947226 -3.55796 -4.17166
  1304 -8.80500 0.633411 1.34343
  1305 -8.81009 0.633238 -1.34219
  1306 12.3867 0.728646 -3.71228
  1307 12.2590 0.808327 3.72044
  1308 19.6888 0.933048 0.233301
  1309 19.6879 0.931419 -0.232885
  1310 -8.97229 0.870726 3.72388
  1311 -8.98014 0.872137 -3.72497
  1312 71.6952 0.336453 0.197807
  1313 71.6897 0.336472 -0.197838
  1314 37.9183 -1.66700 23.0030
  1315 57.9214 0.435135 0.401956
  1316 57.9186 0.435920 -0.402519
  1317 37.2085 0.721721 -8.85865
  1318 37.2331 0.671764 8.95457
  1319 0.342056 -16.3579 -2.53214
  1320 13.9287 3.27259 -1.05279
  1321 13.8742 3.31594 1.08804
  1322 -0.132621 -0.131059 -0.181189
  1323 -0.133263 -0.131138 0.181704
  1324 48.8236 1.86821 3.23622
  1325 48.8063 1.89204 -3.23704
  1326 23.5276 2.35013 0.0816758
  1327 23.5259 2.35478 -0.0779322
  1328 35.2937 2.40615 -1.29205
  1329 35.3010 2.39636 1.29548
  1330 47.0577 0.657953 -0.398861
  1331 47.0594 0.656750 0.398493
  1332 -1.51430 -0.742726 -1.72133
  1333 -1.51448 -0.742191 1.72263
  1334 -15.4212 0.0840774 0.800456
  1335 -15.4267 0.0839953 -0.799714
  1336 -2.63841 -1.23803 -4.29139
  1337 -2.63783 -1.23276 4.28864
  1338 -9.41093 0.272597 0.351752
  1339 -9.41497 0.272261 -0.351410
  1340 -23.4625 0.232280 0.144773
  1341 -23.4675 0.232254 -0.144629
  1342 89.7315 -12.7555 14.7330
  1343 61.4424 -0.523684 -8.30669
</Section>

newXOutput 12

<Section columns = "stress_xx | stress_yy | stress_xy">
  1 86.9713 -0.0620435 0.0776627
  2 86.9800 -0.0620805 -0.0777027
  3 -27.8113 0.155973 -0.371448
  4 0.0452966 0.0136894 0.0790277
  5 162.054 37.7718 48.8168
  6 182.956 43.4095 -46.4262
  7 0.0451561 0.0135520 -0.0788433
  8 -27.8055 0.155990 0.371458
  9 86.6883 -0.0545449 -0.283181
  10 86.7410 -0.206738 -0.470249
  11 87.5707 -0.197587 -0.114275
  12 87.6271 -0.172303 -0.532303
  13 87.7785 -0.161547 -0.142092
  14 89.6564 -0.170097 -0.206498
  15 90.2582 -0.275270 -0.711571
  16 90.8580 -0.0970623 -0.473543
  17 91.1837 0.144812 -0.915925
  18 94.9790 -0.439592 -0.786826
  19 96.5139 -0.311820 -1.03019
  20 98.1455 -0.523690 -0.328234
  21 98.8141 -0.737744 -0.130391
  22 97.6468 -0.890569 1.51075
  23 93.6569 -1.03612 3.05808
  24 84.6498 -1.25772 6.35911
  25 70.5701 0.565376 7.33554
  26 58.6612 0.623766 6.93959
  27 42.4528 1.64706 4.21665
  28 45.4904 1.60919 0.264086
  29 36.6759 4.90990 -2.74657
  30 55.0129 2.18000 -7.38006
  31 65.4999 0.442300 -6.08488
  32 82.6567 -0.325306 -5.26369
  33 92.2761 -1.25691 -3.63147
  34 97.3888 -1.04234 -1.51296
  35 98.5317 -0.710053 0.129097
  36 97.9421 -0.515465 0.295053
  37 96.4099 -0.314915 0.991438
  38 94.9221 -0.447069 0.763308
  39 91.1638 0.140236 0.903369
  40 90.8515 -0.0988035 0.468328
  41 90.2599 -0.276263 0.709161
  42 89.6613 -0.170600 0.205246
  43 87.7850 -0.161799 0.141397
  44 87.6350 -0.172539 0.532078
  45 87.5790 -0.197735 0.114122
  46 86.7495 -0.206827 0.470299
  47 86.6969 -0.0545749 0.283213
  48 81.6968 0.353567 -0.0988746
  49 75.3110 0.308688 -0.236256
  50 67.3898 0.0777084 -0.259968
  51 59.2403 0.601837 -0.216231
  52 52.1671 0.583633 -0.175383
  53 44.6525 0.836433 -0.210287
  54 37.2896 1.20886 -0.142202
  55 29.6997 1.11534 -0.269321
  56 23.4416 0.870435 -0.366150
  57 15.2774 0.650366 -0.385370
  58 7.02496 0.760056 -0.290598
  59 0.161649 0.618927 -0.280392
  60 -8.36453 0.397000 -0.261798
  61 -14.7002 0.0393379 -0.596506
  62 -20.8263 -0.359831 -0.277480
  63 -27.0113 0.0779472 0.168181
  64 -28.3137 0.491394 -0.0904612
  65 -28.3681 0.228225 0.0540214
  66 -27.4075 0.127489 -0.0632155
  67 -27.5948 0.322899 -0.365834
  68 -27.1035 0.386072 -0.0787723
  69 -25.5879 0.130127 -0.550230
  70 -25.7487 0.236241 -0.585031
  71 -25.0326 0.226623 -0.350176
  72 -23.1307 0.149204 -0.507626
  73 -22.1538 0.249439 -0.806144
  74 -20.7537 0.273393 -0.676030
  75 -18.3054 0.141685 -1.12077
  76 -16.9155 0.0431722 -0.938530
  77 -14.4683 0.0622177 -1.07009
  78 -12.3446 0.0399371 -1.16984
  79 -10.5193 0.0109541 -0.922737
  80 -8.01712 0.0511212 -0.926376
  81 -5.87078 -0.0287336 -0.984864
  82 -3.79691 -0.111323 -0.855407
  83 -2.16262 -0.0967621 -0.649798
  84 -1.05029 -0.165171 -0.538666
  85 -0.155605 -0.0951237 -0.186734
  86 0.0263494 -0.102807 -0.0627208
  87 -0.0561871 -0.0436526 -0.00581094
  88 -0.148495 -0.116673 -0.162725
  89 -0.143704 -0.884904 -0.466184
  90 -0.125111 -2.00890 -0.672990
  91 -0.0666443 -3.46792 -0.986724
  92 -0.0365244 -5.34377 -0.852474
  93 -0.0360627 -7.08814 -1.07453
  94 -0.135081 -9.24361 -1.22045
  95 -0.0547850 -11.8867 -1.24135
  96 0.0262069 -14.5513 -1.19408
  97 0.0589543 -17.4172 -1.18241
  98 0.0874594 -20.3776 -1.17039
  99 0.0160440 -22.6175 -1.59082
  100 0.162063 -25.7387 -1.42930
  101 0.191809 -29.4142 -1.17286
  102 0.0168863 -31.1931 -1.56229
  103 0.273052 -34.0387 -1.47259
  104 0.639177 -37.8514 -0.846234
  105 1.23344 -39.2160 -1.33842
  106 0.793971 -37.0274 0.345709
  107 1.01852 -29.8796 2.59320
  108 6.55053 -21.2212 9.02211
  109 21.5365 18.8409 35.2851
  110 252.175 12.5755 23.9375
  111 215.609 4.12299 8.90205
  112 208.689 1.71474 1.92990
  113 207.314 0.786138 -0.333114
  114 208.589 2.51256 -4.71030
  115 214.497 7.29854 -10.3513
  116 244.433 24.6081 -30.2024
  117 50.4917 14.1836 -43.3437
  118 10.5856 -20.8534 -11.4484
  119 3.06960 -32.6336 -3.94048
  120 0.826931 -35.2304 -0.422925
  121 0.980571 -37.8536 0.886728
  122 0.292483 -36.4466 0.699825
  123 0.121298 -33.2021 1.29251
  124 0.121665 -31.1052 1.03474
  125 0.163061 -27.8663 1.63711
  126 -0.00745923 -25.9452 1.56264
  127 0.0648258 -23.3822 1.13206
  128 0.119332 -20.1252 1.41201
  129 0.0199776 -17.8107 1.12141
  130 0.0364832 -14.5821 1.41407
  131 -0.145464 -12.0270 1.21157
  132 -0.105689 -9.25311 1.18389
  133 -0.0270738 -7.05156 1.07792
  134 -0.0464032 -5.31406 0.854896
  135 -0.0654660 -3.45794 0.977520
  136 -0.123444 -2.00737 0.669729
  137 -0.142976 -0.886149 0.465841
  138 -0.148349 -0.117887 0.163009
  139 -0.0561887 -0.0441962 0.00616485
  140 0.0257071 -0.102919 0.0630645
  141 -0.156882 -0.0951100 0.187212
  142 -1.05247 -0.165085 0.539252
  143 -2.16576 -0.0965234 0.650095
  144 -3.79992 -0.111028 0.855287
  145 -5.87274 -0.0284905 0.984218
  146 -8.01773 0.0511666 0.925588
  147 -10.5180 0.0110268 0.921941
  148 -12.3416 0.0399939 1.16901
  149 -14.4633 0.0621619 1.06929
  150 -16.9089 0.0430903 0.937870
  151 -18.2979 0.141576 1.12024
  152 -20.7452 0.273263 0.675733
  153 -22.1450 0.249315 0.806013
  154 -23.1218 0.149138 0.507671
  155 -25.0239 0.226569 0.350304
  156 -25.7403 0.236188 0.585195
  157 -25.5801 0.130105 0.550441
  158 -27.0962 0.386056 0.0790171
  159 -27.5879 0.322904 0.366014
  160 -27.4010 0.127503 0.0633664
  161 -28.3618 0.228238 -0.0539099
  162 -28.3076 0.491398 0.0905476
  163 -27.0054 0.0779571 -0.168122
  164 -20.8208 -0.359733 0.277526
  165 -14.6951 0.0395500 0.596544
  166 -8.35994 0.397384 0.261888
  167 0.165411 0.619539 0.280463
  168 7.02799 0.760930 0.290662
  169 15.2794 0.651525 0.385436
  170 23.4427 0.871779 0.366177
  171 29.7001 1.11679 0.269330
  172 37.2891 1.21031 0.142150
  173 44.6513 0.837735 0.210183
  174 52.1650 0.584725 0.175241
  175 59.2373 0.602590 0.216033
  176 67.3856 0.0781907 0.259741
  177 75.3053 0.308819 0.236112
  178 81.6895 0.353549 0.0988099
  179 21.3011 4.12139 -0.0760643
  180 21.2967 4.12297 0.0942492
  181 -0.791942 0.443071 6.86278
  182 -0.812815 0.444001 -6.86067
  183 49.9843 -0.776043 -10.3899
  184 49.9747 -0.883975 10.5164
  185 9.43365 1.76097 0.613828
  186 9.32166 1.81088 -0.600314
  187 6.23558 1.55798 -1.39296
  188 6.23917 1.55912 1.39544
  189 47.8050 1.37319 -1.36393
  190 47.8100 1.36634 1.36296
  191 -1.71386 2.03587 3.98119
  192 -1.72338 2.03877 -3.97942
  193 55.6213 1.83804 -3.83113
  194 55.6472 1.80802 3.83110
  195 -2.26638 -1.99598 5.15698
  196 -2.26443 -2.00615 -5.16121
  197 0.352047 -5.01969 -6.47743
  198 16.4935 -0.252505 -8.94695
  199 0.463786 -5.35018 6.34735
  200 16.2248 -0.100023 9.13222
  201 79.2482 -11.6203 -15.2842
  202 82.2210 -12.0877 14.5788
  203 27.5888 1.38455 0.000198789
  204 27.5890 1.38189 0.000550407
  205 -5.85799 0.507797 -0.864096
  206 -5.85333 0.508325 0.864935
  207 -6.81871 0.951265 5.21205
  208 -6.82852 0.953534 -5.21545
  209 27.6931 3.03004 -0.266482
  210 27.6962 3.02446 0.271955
  211 7.97269 3.51169 3.24712
  212 7.94517 3.53389 -3.24578
  213 -9.10989 0.978521 -2.34191
  214 -9.10276 0.978095 2.34322
  215 64.5536 0.449403 0.704997
  216 64.5501 0.451055 -0.706383
  217 1.85581 -9.56129 3.29570
  218 2.02204 -8.75783 -3.03515
  219 -0.659435 -5.59208 5.87517
  220 -0.667963 -5.78639 -5.68146
  221 25.4306 3.82123 -3.52352
  222 25.4180 3.83560 3.57948
  223 -5.94449 -0.0710978 5.09786
  224 -5.95009 -0.0711702 -5.10215
  225 69.0789 0.739325 -2.20513
  226 69.0828 0.730508 2.19755
  227 73.9706 -0.797496 -4.25649
  228 74.0197 -0.882609 4.22077
  229 116.950 9.54495 -0.332156
  230 107.343 11.4850 8.95764
  231 107.061 -2.20336 -12.0508
  232 11.9878 3.15272 1.88973
  233 11.9831 3.15309 -1.88301
  234 0.250387 2.35625 5.48256
  235 0.235098 2.36335 -5.48253
  236 82.5706 -5.01827 -2.32596
  237 82.0684 -5.08823 2.57655
  238 45.1813 0.848933 -0.454469
  239 45.1832 0.846617 0.453971
  240 -10.8164 0.750682 3.54335
  241 -10.8251 0.752031 -3.54400
  242 -1.41522 -1.39603 -2.27523
  243 -1.41447 -1.39576 2.27730
  244 -12.4360 0.393481 1.24609
  245 -12.4420 0.393256 -1.24502
  246 36.6133 3.19080 -2.23404
  247 36.6249 3.17689 2.24546
  248 46.8861 1.71852 -5.75499
  249 46.9337 1.68213 5.78264
  250 10.3081 1.05713 -0.266992
  251 10.3107 1.05838 0.267814
  252 26.5192 -1.86305 -20.8164
  253 31.6294 -0.913582 22.9551
  254 3.20592 1.37215 5.39585
  255 3.19213 1.40994 -5.40868
  256 113.587 -10.6156 0.0243595
  257 8.81295 3.77456 2.80465
  258 8.80150 3.78091 -2.79694
  259 25.9122 2.53964 -7.26800
  260 25.8743 2.61389 7.37538
  261 125.983 16.5547 -3.98386
  262 74.9185 0.344117 2.98623
  263 74.9099 0.372586 -3.00747
  264 -0.697220 -4.22982 -3.60886
  265 -0.680121 -4.24831 3.62433
  266 -0.174043 -10.1949 -5.08021
  267 0.273703 -12.1897 -4.89394
  268 0.131945 -12.0740 5.03957
  269 -2.03224 -1.78962 6.75439
  270 -2.03846 -1.78419 -6.77501
  271 3.67387 -10.7816 -0.605330
  272 3.93992 -10.0761 1.21149
  273 -4.35989 -0.383618 3.17625
  274 -4.36053 -0.385024 -3.17802
  275 52.5443 1.90440 -2.30874
  276 52.5550 1.89033 2.30640
  277 92.9253 -10.1576 0.641594
  278 19.3945 2.10936 -0.474799
  279 19.3950 2.11218 0.477407
  280 -0.270961 -9.54897 4.84451
  281 0.945999 2.06521 2.73485
  282 0.939311 2.06622 -2.73175
  283 149.551 10.8873 -2.97019
  284 73.0248 0.309238 0.887963
  285 73.0212 0.311306 -0.890623
  286 47.3452 -2.83398 -15.8726
  287 47.8177 -2.79052 16.1607
  288 92.7851 -9.60219 -2.20471
  289 -9.07503 0.259667 4.06056
  290 -9.08128 0.260074 -4.06369
  291 91.3417 -9.59507 26.5336
  292 -4.24939 0.564139 6.22357
  293 -4.25979 0.564778 -6.22924
  294 14.3967 4.00265 -0.111713
  295 14.3464 4.04258 0.139854
  296 -17.4215 0.213070 0.243543
  297 -17.4269 0.212944 -0.243273
  298 76.5827 -1.32161 -36.6563
  299 -15.8400 0.346387 -1.95721
  300 -15.8319 0.345964 1.95754
  301 -0.637328 -2.19834 7.02993
  302 -0.427154 -2.16506 -6.98450
  303 32.5683 3.65372 -3.31124
  304 32.5801 3.64411 3.34255
  305 6.11135 1.14438 1.04044
  306 6.10813 1.14319 -1.03895
  307 34.1664 1.78855 -0.517141
  308 34.1685 1.78402 0.518007
  309 2.95042 -3.20865 4.24388
  310 2.68714 -3.71771 -4.26257
  311 33.1576 1.03902 -0.0792435
  312 33.1579 1.03715 0.0792980
  313 -12.7818 0.330580 3.01651
  314 -12.7893 0.331158 -3.01829
  315 7.88505 -1.77159 -0.916754
  316 7.63527 -1.77387 0.709389
  317 76.4749 0.145743 0.244854
  318 76.4691 0.146008 -0.245193
  319 168.903 9.95796 5.80117
  320 15.9243 2.58941 1.01006
  321 15.9226 2.58713 -1.00543
  322 -4.72639 0.985705 1.74879
  323 -4.73202 0.985521 -1.74698
  324 22.3786 3.48517 0.105974
  325 22.3788 3.48148 -0.0955447
  326 2.16717 2.26249 5.74584
  327 2.15451 2.26968 -5.75023
  328 0.326615 -17.4245 3.66169
  329 -17.9006 0.110426 -0.523381
  330 -17.8947 0.110563 0.523876
  331 57.5816 0.547928 -0.454386
  332 57.5844 0.546699 0.453753
  333 60.6767 0.789864 -1.20643
  334 60.6805 0.785500 1.20365
  335 -16.5020 0.335431 -1.46681
  336 -16.4947 0.335369 1.46761
  337 -1.60729 0.505862 0.251670
  338 -1.61126 0.505266 -0.251274
  339 -0.364622 -6.95519 3.61989
  340 -0.291879 -7.23197 -3.61490
  341 67.5744 -5.90918 -10.5509
  342 70.3409 -7.05415 10.3273
  343 39.7325 2.41113 -1.33978
  344 39.7387 2.40209 1.34168
  345 16.8256 4.21281 0.322034
  346 16.8046 4.22807 -0.299849
  347 -7.11079 1.28839 3.26592
  348 -7.11898 1.28985 -3.26492
  349 129.140 -0.361439 0.444464
  350 6.23266 -12.2294 -6.09229
  351 6.67219 -11.6573 6.46353
  352 -3.33681 1.95213 5.09433
  353 -3.34853 1.95623 -5.09501
  354 -3.68338 -0.807107 5.94072
  355 -3.68960 -0.807499 -5.94767
  356 145.795 22.7613 -4.00169
  357 91.3276 -2.00346 13.7042
  358 86.8377 -1.87397 -1.72932
  359 86.7131 -1.83209 1.55982
  360 59.8050 -0.499899 -6.66540
  361 59.7450 -0.574645 6.66083
  362 0.111366 -20.9696 -3.01307
  363 79.9278 0.408594 -1.70188
  364 79.9251 0.400124 1.69043
  365 0.975216 -20.0258 2.59420
  366 88.7259 6.87700 -8.05567
  367 21.2652 1.14553 0.383358
  368 21.2640 1.14406 -0.383103
  369 60.3300 0.774478 -4.95940
  370 60.3729 0.730930 4.95775
  371 65.6067 0.898195 -3.06081
  372 65.6168 0.878827 3.05022
  373 -2.41583 0.919190 1.24018
  374 -2.42054 0.918579 -1.23865
  375 36.4517 2.03378 -7.68331
  376 36.4795 2.05043 7.77323
  377 78.8928 0.145540 0.405047
  378 78.8872 0.146034 -0.405932
  379 43.1354 2.76471 -3.75746
  380 43.1584 2.74069 3.77321
  381 50.5165 1.21120 0.930011
  382 50.5134 1.21488 -0.931272
  383 -2.43856 -0.451943 1.93693
  384 -2.43767 -0.452879 -1.93641
  385 -0.572049 -0.408630 -0.549180
  386 -0.572392 -0.408945 0.550063
  387 104.499 -14.4277 5.66669
  388 -1.42478 -3.38911 5.38381
  389 -1.41580 -3.41457 -5.38155
  390 15.7267 1.43616 -0.648924
  391 15.7283 1.43822 0.650519
  392 -0.524961 -2.58474 1.94187
  393 -0.530525 -2.57968 -1.94164
  394 5.52750 3.05496 3.07207
  395 5.51895 3.05817 -3.06697
  396 85.5703 -0.151484 2.21183
  397 85.5756 -0.114593 -2.26724
  398 -0.310606 -5.36328 6.63253
  399 -7.06493 -0.144135 3.03266
  400 -7.06715 -0.144516 -3.03510
  401 -0.337108 -5.64431 -6.55492
  402 80.6310 0.208543 1.07972
  403 80.6294 0.211181 -1.08431
  404 -1.23337 1.63385 6.31459
  405 -1.25300 1.64084 -6.31853
  406 58.6624 1.26910 -1.96592
  407 58.6681 1.26039 1.96158
  408 90.4832 -3.91812 -2.73831
  409 90.9237 -3.11653 2.13578
  410 -0.202552 -9.50689 -3.98700
  411 7.42632 2.63498 -2.64290
  412 7.48675 2.59825 2.64386
  413 86.7073 5.87748 5.12831
  414 50.1068 -3.77390 -22.2630
  415 51.5640 -4.74884 23.4042
  416 2.23954 2.83065 4.37190
  417 2.22742 2.83618 -4.36900
  418 36.9095 1.45980 -0.352635
  419 36.9108 1.45674 0.352650
  420 35.6604 2.21737 35.6866
  421 14.1188 3.72528 -1.63256
  422 14.1256 3.72260 1.64272
  423 0.809097 -9.63244 4.77923
  424 -0.116580 -15.5222 -3.51707
  425 5.22125 3.38528 4.22348
  426 5.20524 3.39473 -4.22027
  427 6.32849 2.20046 -1.97604
  428 6.33304 2.20080 1.97971
  429 -2.81015 -0.270933 -6.79776
  430 -2.79962 -0.274983 6.79079
  431 17.1412 3.24445 -2.34513
  432 17.0737 3.30054 2.39457
  433 90.0913 -3.17029 -10.2407
  434 2.20552 -1.38064 5.68545
  435 2.12555 -1.34668 -5.70867
  436 65.4832 -2.73928 -7.37463
  437 65.7849 -2.95943 7.34912
  438 -17.0617 0.154437 -1.85390
  439 -17.0534 0.154053 1.85348
  440 0.00416230 -15.1730 3.14473
  441 -0.115296 -9.60431 3.54345
  442 -7.01489 0.401671 5.20996
  443 -7.02221 0.402120 -5.21411
  444 46.9319 0.823802 -0.141731
  445 46.9335 0.822252 0.141386
  446 -1.45728 -2.29772 3.61582
  447 -1.45879 -2.30185 -3.61062
  448 28.3369 0.894892 -11.3288
  449 28.2978 1.04054 11.4951
  450 0.240878 -18.6789 -3.60223
  451 168.751 6.64137 0.257766
  452 0.434189 -22.5783 -2.38465
  453 -20.5946 0.0553053 -0.732158
  454 -20.5880 0.0553943 0.732690
  455 -8.07537 1.06829 4.40108
  456 -8.08493 1.07049 -4.40259
  457 -8.91161 0.119594 3.06423
  458 -8.91536 0.119719 -3.06666
  459 31.2358 3.59424 -2.05774
  460 31.2443 3.58671 2.07739
  461 48.1519 2.33996 -2.91649
  462 48.1689 2.31974 2.91978
  463 -0.967383 -3.30139 6.82979
  464 -0.967775 -3.27846 -6.85592
  465 82.5931 0.919154 -12.9508
  466 5.30877 -2.29267 -1.91379
  467 5.12507 -2.33760 2.00858
  468 1.24024 -20.9862 0.479538
  469 0.771339 -24.0823 -1.01163
  470 -2.63710 -1.19992 3.72849
  471 -2.63698 -1.20357 -3.72871
  472 17.1079 -4.94496 -17.6835
  473 132.430 -3.35093 -10.1605
  474 28.4068 2.28178 0.355672
  475 28.4048 2.28683 -0.352701
  476 41.5683 0.220478 -11.0838
  477 41.6922 0.204017 11.2821
  478 11.6027 4.37034 2.16516
  479 11.5865 4.38258 -2.15428
  480 37.4776 3.00446 -5.50758
  481 37.5084 2.98137 5.56080
  482 1.02105 0.481809 6.50912
  483 1.10540 0.524370 -6.49909
  484 -18.1332 0.298914 -1.42456
  485 -18.1254 0.298793 1.42507
  486 84.8754 -10.3485 -5.46912
  487 68.0918 0.319306 -0.347703
  488 68.0961 0.318797 0.347353
  489 2.37336 0.708532 -0.593167
  490 2.37697 0.709425 0.594044
  491 -5.06933 1.62365 4.21458
  492 -5.07914 1.62631 -4.21427
  493 -10.8414 0.701759 -1.64191
  494 -10.8350 0.701739 1.64321
  495 28.3736 3.21351 -0.645080
  496 28.3776 3.20670 0.653082
  497 -4.03580 1.31159 5.75855
  498 -4.04829 1.31543 -5.76213
  499 77.8512 -2.00311 -3.85961
  500 77.9716 -2.12527 3.77221
  501 50.0595 0.689959 -7.30674
  502 49.9961 0.640713 7.37717
  503 17.8624 1.23008 -0.396517
  504 17.8638 1.23184 0.397257
  505 0.137286 -9.72479 -5.67562
  506 90.7912 -3.55157 8.45605
  507 1.07763 -6.73931 -5.38966
  508 24.8297 4.22115 1.94401
  509 24.8357 4.21471 -1.90935
  510 83.9334 -9.68634 5.36465
  511 5.91726 -11.7845 8.79747
  512 100.681 -14.5112 -11.3723
  513 68.1540 0.594665 3.66689
  514 68.1330 0.629703 -3.68149
  515 0.112541 -8.36889 5.90631
  516 -1.32795 -0.402051 -1.02443
  517 -1.32881 -0.402013 1.02540
  518 7.11379 0.718085 -0.207650
  519 7.11679 0.719036 0.207996
  520 -0.237031 -5.32130 2.30773
  521 -0.215055 -5.29513 -2.31853
  522 56.0955 0.946719 0.774158
  523 56.0927 0.948833 -0.775311
  524 161.356 26.4884 9.17688
  525 6.07736 -5.22440 -0.928512
  526 4.70082 -6.61883 -0.0413990
  527 -2.60465 1.35051 -2.27477
  528 -2.59849 1.35021 2.27696
  529 -13.9464 0.223606 1.86098
  530 -13.9525 0.223841 -1.86224
  531 0.132480 -17.4430 3.54479
  532 -20.4394 0.225947 0.240802
  533 -20.4452 0.225872 -0.240484
  534 16.4490 -3.02559 -12.7428
  535 16.0625 -2.68470 13.3049
  536 14.9904 2.19554 -3.71315
  537 14.8781 2.27405 3.75921
  538 -3.79608 -0.837908 5.16142
  539 -3.79956 -0.840427 -5.16656
  540 14.5166 1.72154 0.723008
  541 14.5149 1.71946 -0.720748
  542 -9.25668 0.508398 0.782478
  543 -9.26191 0.508056 -0.781507
  544 17.3814 2.97587 0.960794
  545 17.3797 2.97377 -0.953934
  546 -0.373555 -1.19115 0.872926
  547 -0.374734 -1.18986 -0.872673
  548 6.06306 2.60013 3.97450
  549 6.02411 2.64204 -3.98081
  550 4.90651 0.347415 3.63392
  551 4.83424 0.340429 -3.66770
  552 69.4860 0.779503 1.55965
  553 69.4825 0.783805 -1.56384
  554 60.9875 1.17743 2.42526
  555 60.9797 1.19017 -2.43149
  556 -0.0633815 -14.4765 -2.16488
  557 41.9877 2.55189 -2.12348
  558 41.9979 2.53895 2.12735
  559 42.2439 1.41435 -0.704629
  560 42.2469 1.40987 0.704369
  561 -7.09288 0.370138 -0.0488051
  562 -7.08838 0.370533 0.0490334
  563 68.5705 4.07496 -2.48618
  564 96.2631 -13.1046 -3.29713
  565 75.8222 3.31197 9.95839
  566 0.563224 -12.9999 -4.35681
  567 -5.10972 1.45645 -2.88712
  568 -5.10229 1.45551 2.88891
  569 0.556099 -7.66081 5.70973
  570 -4.48586 0.0467788 6.00565
  571 -4.49392 0.0471730 -6.01083
  572 121.978 11.8554 -1.63135
  573 26.9326 1.68373 -0.0434070
  574 26.9331 1.68050 0.0446568
  575 191.745 15.7911 -15.4210
  576 -1.16500 -0.931662 7.11959
  577 -1.10819 -0.883525 -7.12706
  578 101.809 -9.99804 5.83322
  579 82.5970 0.258938 -1.91082
  580 82.5897 0.245794 1.89248
  581 36.3505 -0.839792 -16.3182
  582 36.8301 -0.938272 16.6235
  583 -2.20832 -2.13743 5.99647
  584 -2.20916 -2.14674 -6.00881
  585 18.7023 0.903930 8.03222
  586 18.8583 0.745644 -7.93847
  587 -16.4561 0.197952 -1.78417
  588 -16.4480 0.197673 1.78344
  589 120.199 8.44264 9.95389
  590 21.7528 2.43838 -0.348323
  591 21.7526 2.44189 0.351894
  592 25.8085 3.16030 -5.32950
  593 25.7846 3.19948 5.41075
  594 74.0266 0.131726 -3.63218
  595 74.0519 0.0866182 3.60922
  596 -0.370898 -7.74113 -5.42369
  597 81.6123 0.0272063 0.562329
  598 81.6070 0.0278311 -0.563539
  599 -12.8845 0.343896 -0.338808
  600 -12.8792 0.344144 0.339343
  601 -21.8846 -0.0977347 0.0238740
  602 -21.8902 -0.0977967 -0.0237727
  603 1.56802 -12.3652 -2.53349
  604 -0.789328 -4.96911 4.58012
  605 -0.832352 -4.70840 -4.61080
  606 -9.49074 0.559681 4.37113
  607 -9.49844 0.560759 -4.37403
  608 55.8084 1.76328 3.01409
  609 55.7947 1.78295 -3.01794
  610 40.7461 0.944589 0.176762
  611 40.7452 0.946118 -0.176876
  612 8.71004 -3.93520 4.63237
  613 9.01583 -3.74441 -4.57162
  614 -0.296130 -3.70121 1.94147
  615 -0.304540 -3.68841 -1.94740
  616 97.6816 2.61078 38.7965
  617 -4.77563 -0.156004 1.80948
  618 -4.77461 -0.156588 -1.81037
  619 1.52583 -7.59071 -4.52597
  620 39.7387 2.02196 -0.995203
  621 39.7426 2.01554 0.995833
  622 18.8264 4.13647 -1.12315
  623 18.7974 4.15966 1.15906
  624 0.202272 -26.8104 1.67648
  625 13.8970 4.20447 1.56866
  626 13.8869 4.21100 -1.55653
  627 -2.45685 1.79043 3.45794
  628 -2.46507 1.79220 -3.45592
  629 -0.116179 -12.8301 2.96278
  630 -21.5331 0.0585060 -0.719801
  631 -21.5259 0.0585212 0.720270
  632 25.6423 1.08523 -0.0991908
  633 25.6428 1.08732 0.0996998
  634 67.7222 0.496910 1.00671
  635 67.7185 0.499199 -1.00888
  636 58.7495 -5.62786 29.6270
  637 47.1896 1.60192 -1.69916
  638 47.1962 1.59265 1.69864
  639 0.489654 -1.34797 6.73876
  640 0.646721 -0.909053 -6.74629
  641 76.0737 -9.07890 -23.7845
  642 186.366 6.65723 -6.43515
  643 -19.5037 0.0339327 -1.25701
  644 -19.4952 0.0337572 1.25695
  645 3.40550 1.22455 -1.21009
  646 3.40931 1.22546 1.21192
  647 -0.381073 -8.13211 4.75752
  648 102.604 5.20013 -12.8991
  649 80.7666 -0.0168607 0.0873083
  650 80.7596 -0.0167834 -0.0874125
  651 -5.22395 -0.312680 -4.25327
  652 -5.22101 -0.311774 4.24983
  653 -0.00999253 -18.3424 -2.89630
  654 82.2031 -0.0448633 0.213924
  655 82.1962 -0.0447381 -0.214193
  656 6.44010 2.72160 2.64879
  657 6.43367 2.72284 -2.64390
  658 60.7853 -5.78602 -15.3751
  659 61.9891 -5.77637 15.5727
  660 91.1174 -0.453565 1.22793
  661 91.1791 -0.444985 -1.29979
  662 0.390240 -23.4174 2.39949
  663 -6.15370 0.320339 -0.466513
  664 -6.14917 0.320793 0.467084
  665 29.0117 -1.89582 -27.6083
  666 26.7440 1.01358 0.149564
  667 26.7447 1.01512 -0.149435
  668 12.4918 1.32131 0.417221
  669 12.4896 1.31967 -0.415968
  670 15.1252 2.08267 -0.699423
  671 15.1269 2.08502 0.702724
  672 51.9387 1.80647 -4.65202
  673 51.9748 1.77186 4.66167
  674 13.0582 3.95082 1.09961
  675 13.0245 3.97818 -1.08351
  676 -10.3406 0.782209 -2.66119
  677 -10.3328 0.781410 2.66208
  678 -11.7715 0.807105 -2.96336
  679 -11.7632 0.806076 2.96347
  680 93.2344 -1.34119 -0.622714
  681 -0.0547033 -4.12090 -6.74995
  682 93.4791 -1.40787 0.462943
  683 116.563 9.53541 0.802355
  684 -11.7981 0.0513354 2.10487
  685 -11.8028 0.0514372 -2.10651
  686 11.3330 3.12413 0.346861
  687 11.2546 3.17007 -0.327006
  688 -23.1910 0.0552589 -0.291074
  689 -23.1845 0.0553102 0.291423
  690 -0.000215882 -3.75038 6.78585
  691 -7.49836 0.0741567 4.53662
  692 -7.50410 0.0742972 -4.54029
  693 101.946 -9.43979 -6.25562
  694 14.8994 0.727680 -0.0294761
  695 14.8974 0.726478 0.0297619
  696 2.61558 1.68993 1.90503
  697 2.61078 1.68948 -1.90228
  698 52.7085 -2.70010 -12.7206
  699 53.1591 -2.80701 13.0021
  700 194.136 13.4299 14.2453
  701 3.34116 -20.2883 -5.00620
  702 -1.46292 -3.02424 6.44833
  703 -1.46688 -3.03374 -6.45896
  704 10.2755 2.75197 -1.66355
  705 10.2795 2.75259 1.66853
  706 84.4817 -0.0248203 -0.580052
  707 84.4860 -0.0254691 0.578282
  708 38.8396 1.08883 0.229419
  709 38.8384 1.09126 -0.229597
  710 2.63035 2.82222 5.20243
  711 2.61492 2.83128 -5.20209
  712 0.830494 0.961525 0.858614
  713 0.826604 0.960703 -0.857444
  714 -2.66678 0.424756 6.74775
  715 -2.68043 0.427022 -6.75602
  716 68.8320 0.227960 0.410699
  717 68.8278 0.228762 -0.411494
  718 59.0965 0.885990 1.12728
  719 59.0931 0.889084 -1.12918
  720 7.36784 -6.90122 5.77127
  721 7.60651 -7.26822 -5.53444
  722 -4.99173 0.950629 5.88989
  723 -5.00273 0.952776 -5.89470
  724 2.20515 -6.44940 3.78504
  725 -0.248237 1.59541 6.41009
  726 -0.269275 1.60212 -6.41034
  727 -13.9894 0.443334 -1.80075
  728 -13.9821 0.443094 1.80165
  729 9.37025 3.46038 2.60582
  730 9.36137 3.46387 -2.59827
  731 91.3234 -2.88026 -5.85806
  732 86.6188 -7.77272 -1.18316
  733 -1.44579 -2.94629 4.49424
  734 -1.44309 -2.95854 -4.48697
  735 32.4869 -1.48756 -19.2939
  736 31.5957 -0.728635 19.5394
  737 19.4528 3.73911 -2.18300
  738 19.4116 3.77659 2.23249
  739 1.53861 -3.85827 5.70018
  740 -0.133794 -9.43017 -2.55203
  741 41.8368 2.62967 -4.16689
  742 41.8662 2.60587 4.19261
  743 0.120725 -18.6828 2.40050
  744 24.4671 3.79097 -0.577338
  745 24.4681 3.78711 0.592241
  746 88.5019 0.0435944 -1.45612
  747 88.4771 0.0308118 1.42786
  748 1.61937 -26.9598 -0.0994468
  749 38.4544 3.26335 3.03646
  750 38.4383 3.28014 -3.02036
  751 9.87841 3.50014 -2.04359
  752 9.92601 3.46119 2.04943
  753 -16.0901 0.108487 -1.49029
  754 -16.0830 0.108318 1.48938
  755 43.1294 1.17144 -0.652157
  756 43.1315 1.16830 0.651704
  757 25.9009 4.06587 -1.55810
  758 25.9007 4.06518 1.58383
  759 -0.487573 2.36483 5.07575
  760 -0.500567 2.37044 -5.07508
  761 86.8971 -6.62084 0.146531
  762 -14.5647 0.379764 1.38826
  763 -14.5713 0.379701 -1.38733
  764 193.670 33.9546 -23.8608
  765 -6.22570 0.679976 1.52878
  766 -6.23113 0.679583 -1.52731
  767 74.3923 0.489226 2.60108
  768 74.3892 0.506435 -2.61689
  769 138.011 9.31371 0.399023
  770 85.0189 -0.122109 -1.11895
  771 85.0177 -0.124528 1.11357
  772 53.2441 1.17596 1.38007
  773 53.2402 1.18105 -1.38204
  774 79.9431 -10.2897 21.6383
  775 33.8474 2.93688 -0.876371
  776 33.8531 2.92865 0.881203
  777 0.724298 -14.8645 3.36465
  778 92.0279 -12.3727 6.16584
  779 55.6789 0.529475 0.246596
  780 55.6764 0.530513 -0.246854
  781 73.9622 0.251365 0.132980
  782 73.9567 0.251579 -0.133137
  783 -0.352334 -7.56039 -4.43649
  784 0.403453 -13.2518 4.58876
  785 31.8609 3.76830 4.22479
  786 31.8495 3.77338 -4.17710
  787 193.366 2.31142 1.51775
  788 55.9961 0.770946 -5.91316
  789 56.0453 0.729445 5.92482
  790 -12.2640 0.410482 3.31470
  791 -12.2723 0.411408 -3.31594
  792 2.18861 -11.3686 1.66284
  793 1.44779 -25.3866 -0.933595
  794 129.422 16.4716 0.0116954
  795 -0.118953 -9.39570 2.30163
  796 2.14391 1.62710 5.92233
  797 2.13963 1.62861 -5.93885
  798 16.2537 3.63496 1.16312
  799 16.2501 3.63523 -1.15390
  800 86.4691 -3.87491 -0.786363
  801 86.5564 -3.85092 0.426407
  802 103.586 9.52731 -36.5484
  803 -15.0464 0.243563 -0.696458
  804 -15.0404 0.243749 0.697240
  805 -6.56599 -0.0335441 1.71350
  806 -6.56586 -0.0337584 -1.71474
  807 5.74982 -0.150822 2.52398
  808 5.62704 -0.158530 -2.52660
  809 64.9929 -0.0913536 5.35128
  810 64.9402 -0.0233326 -5.34951
  811 32.4608 1.28878 -0.0130760
  812 32.4615 1.28628 0.0133172
  813 105.625 -2.89049 11.9906
  814 10.0497 2.04050 -1.46475
  815 10.0529 2.04192 1.46833
  816 9.67768 0.693190 -0.601864
  817 9.59028 0.748813 0.636570
  818 -0.113041 -7.69879 -6.11787
  819 152.514 19.2344 18.4324
  820 -22.4475 0.0438246 -0.707893
  821 -22.4397 0.0437935 0.708253
  822 -0.0328123 -22.9336 2.32299
  823 1.34418 -3.79923 -5.74134
  824 -3.23449 -0.205036 1.26055
  825 -3.23246 -0.205458 -1.26061
  826 120.041 5.18741 -9.53641
  827 30.0191 3.39388 -1.08789
  828 30.0251 3.38626 1.10001
  829 82.2199 -0.974254 -2.66976
  830 82.2753 -0.994374 2.60859
  831 -21.3455 0.183062 0.917692
  832 -21.3539 0.183135 -0.917525
  833 -0.142093 -0.147837 -0.116943
  834 -0.142370 -0.148107 0.117386
  835 0.0832876 -23.4763 -2.29511
  836 0.114788 -25.0286 -2.19564
  837 -24.0023 0.257086 0.156810
  838 -24.0081 0.257053 -0.156661
  839 11.6959 -6.38780 -12.0810
  840 50.4085 1.01767 -0.357096
  841 50.4107 1.01588 0.356468
  842 -2.88958 0.609209 0.198336
  843 -2.89367 0.608681 -0.198175
  844 76.0527 0.445556 -1.74599
  845 76.0539 0.439350 1.73811
  846 -8.65501 0.0581672 1.63616
  847 -8.65630 0.0581925 -1.63746
  848 44.7299 -1.76870 -29.6238
  849 78.4501 -6.85027 5.51043
  850 61.9322 0.611948 -0.500583
  851 61.9354 0.610710 0.499638
  852 77.6607 -7.47728 -6.24338
  853 23.3156 3.03505 0.0887931
  854 23.3167 3.03045 -0.0814518
  855 32.7382 2.60065 -0.606594
  856 32.7419 2.59416 0.609672
  857 91.4438 -2.00038 4.45880
  858 4.93214 3.17197 4.48741
  859 4.91370 3.18484 -4.48841
  860 4.57011 0.649745 0.431797
  861 4.56681 0.648827 -0.431204
  862 42.5458 0.965156 0.281658
  863 42.5445 0.967057 -0.281942
  864 114.384 -12.5816 10.8538
  865 71.0627 0.702144 -2.24626
  866 71.0672 0.690551 2.23569
  867 -0.0649871 1.25850 1.51823
  868 -0.0696500 1.25791 -1.51623
  869 71.5441 0.164870 0.616620
  870 71.5397 0.165771 -0.617817
  871 -14.4279 0.186055 -0.385360
  872 -14.4228 0.186262 0.385491
  873 -0.0681159 -7.16920 2.04249
  874 -0.0879405 -7.28118 -2.05915
  875 83.6207 -1.45638 10.2710
  876 -5.69845 1.30260 5.06568
  877 -5.70921 1.30575 -5.06771
  878 -0.0317095 -11.8654 -2.27490
  879 32.7860 1.65115 -0.275683
  880 32.7871 1.64786 0.276222
  881 61.1576 -3.17482 -9.62322
  882 61.6717 -3.52085 9.72328
  883 -2.83853 -1.06411 -6.49136
  884 -2.82905 -1.06585 6.48206
  885 2.66611 2.92079 4.80752
  886 2.65198 2.92812 -4.80530
  887 0.307978 -27.8025 1.73771
  888 0.318354 2.17812 5.93267
  889 0.301390 2.18522 -5.93326
  890 56.3488 -0.945988 -8.52267
  891 56.2385 -1.00828 8.59261
  892 97.7221 4.63020 13.2047
  893 21.6526 2.85423 -0.324398
  894 21.6524 2.85824 0.329700
  895 73.1732 0.719750 -1.69817
  896 73.1756 0.714487 1.69238
  897 -2.96165 -1.33459 5.64679
  898 -2.96525 -1.33843 -5.65433
  899 0.241632 -29.0117 -1.34199
  900 -4.54746 -0.361141 5.56798
  901 -4.55319 -0.361191 -5.57321
  902 1.94499 2.72272 -3.84298
  903 1.95499 2.71871 3.84624
  904 -0.226799 -1.77422 0.988852
  905 -0.229232 -1.77217 -0.990196
  906 5.33890 3.06236 -3.57230
  907 5.34981 3.05742 3.57739
  908 1.05948 -2.61713 6.30543
  909 0.900339 -2.43889 -6.57356
  910 70.0919 -1.81683 5.39158
  911 69.9146 -1.70607 -5.44258
  912 -24.3768 0.100818 -0.229829
  913 -24.3706 0.100869 0.230062
  914 -1.97266 -0.183872 0.940387
  915 -1.97058 -0.184112 -0.939896
  916 0.100483 -16.9194 -2.09247
  917 -2.17372 -0.946365 -2.70015
  918 -2.17380 -0.944482 2.70121
  919 -9.53611 0.772437 4.26009
  920 -9.54489 0.774067 -4.26223
  921 20.8938 4.32681 -0.463784
  922 20.8854 4.33429 0.486793
  923 90.4683 7.53294 -2.50070
  924 -1.79298 2.14252 4.61884
  925 -1.80406 2.14649 -4.61788
  926 33.5004 1.98461 -8.66330
  927 33.5200 2.01429 8.78621
  928 -4.92448 1.53931 3.73793
  929 -4.93335 1.54151 -3.73694
  930 114.389 -7.33803 -4.26503
  931 63.9032 2.58021 5.65259
  932 80.5270 -1.27210 -9.29348
  933 61.3744 1.18831 -3.62938
  934 61.3935 1.16126 3.62196
  935 -7.53110 0.993786 -1.94372
  936 -7.52475 0.993583 1.94532
  937 -15.3629 0.296218 2.17693
  938 -15.3712 0.296723 -2.17708
  939 -0.909773 -2.90436 -3.14027
  940 -0.904331 -2.90828 3.14707
  941 20.7397 1.76253 -0.231853
  942 20.7401 1.76525 0.233668
  943 -7.24956 0.685648 5.21340
  944 -7.25810 0.686808 -5.21744
  945 74.7695 0.184368 0.831095
  946 74.7651 0.185421 -0.832718
  947 -0.592640 -6.45082 4.82722
  948 1.84136 2.54547 -3.34452
  949 1.84967 2.54302 3.34789
  950 2.74647 1.87158 2.30673
  951 2.74097 1.87170 -2.30362
  952 11.5606 1.47617 -0.772174
  953 11.5629 1.47778 0.773873
  954 141.200 14.6343 -0.182311
  955 -0.530050 -0.151648 -0.363177
  956 -0.531176 -0.151690 0.363861
  957 4.26237 0.905297 -4.33675
  958 4.33625 0.861456 4.33073
  959 49.0197 2.36883 -3.65274
  960 49.0427 2.34336 3.65910
  961 5.33129 2.31774 -2.27158
  962 5.33676 2.31751 2.27554
  963 13.0494 -7.81900 16.6682
  964 94.7994 -0.589779 -0.609593
  965 94.5866 -0.566195 0.506722
  966 15.6732 -4.21897 14.1914
  967 16.2437 1.09080 0.0982229
  968 16.2419 1.08938 -0.0977062
  969 44.1710 -3.06037 -25.5380
  970 33.3267 0.998143 0.169213
  971 33.3266 0.999681 -0.169192
  972 3.96099 -5.48645 1.88505
  973 4.37930 -4.75891 -1.55302
  974 84.4596 -0.0110489 0.290223
  975 84.4525 -0.0109001 -0.290571
  976 -6.98254 0.00199672 4.08545
  977 -6.98655 0.00192103 -4.08870
  978 150.647 18.4972 6.48230
  979 -0.730292 -4.98360 -6.46328
  980 0.600721 -26.4093 1.75449
  981 -0.171945 -7.83928 5.99698
  982 87.1353 0.0534057 -1.14231
  983 87.1282 0.0498632 1.13403
  984 -1.15596 -2.10388 2.70477
  985 -1.15851 -2.10295 -2.70122
  986 105.678 10.5477 -8.29131
  987 196.638 2.06987 -1.02076
  988 -0.279339 -0.405010 -0.395265
  989 -0.279091 -0.405855 0.395826
  990 49.4375 0.983178 -0.751135
  991 49.4399 0.980586 0.750261
  992 -0.759113 -4.80781 6.50752
  993 69.4538 0.639290 3.29898
  994 69.4427 0.665101 -3.31371
  995 91.0098 -6.28685 -4.85214
  996 -3.22322 -0.694517 3.06972
  997 -3.22312 -0.696670 -3.07025
  998 1.29023 -6.64477 5.03765
  999 -0.175509 -11.6370 4.70029
  1000 -0.0117265 -11.7648 2.26838
  1001 89.9887 6.36246 -0.454779
  1002 105.026 11.5083 5.29779
  1003 75.9579 -9.30001 -11.5328
  1004 0.980608 -11.8746 4.13340
  1005 1.27373 -17.3054 1.49409
  1006 20.0937 0.882490 0.118868
  1007 20.0923 0.881162 -0.118738
  1008 -0.852071 -0.969244 -1.27430
  1009 -0.851562 -0.969784 1.27555
  1010 0.625552 -9.74350 -5.27905
  1011 61.8621 0.415034 -0.183250
  1012 61.8654 0.414304 0.182939
  1013 11.5550 -1.15712 -4.63067
  1014 11.0435 -1.12461 4.58872
  1015 -1.67340 1.81807 5.90497
  1016 -1.68913 1.82419 -5.90766
  1017 -7.98220 1.16185 -3.70958
  1018 -7.97331 1.16007 3.70971
  1019 45.9064 0.787657 -8.65495
  1020 45.9536 0.815419 8.76335
  1021 32.6596 3.01388 -5.69748
  1022 32.6700 3.00756 5.76955
  1023 35.7715 3.04216 -1.68108
  1024 35.7796 3.03082 1.68812
  1025 94.6509 -3.27634 -12.5036
  1026 -2.94963 1.08149 6.34432
  1027 -2.96423 1.08498 -6.35078
  1028 67.3280 0.232149 4.45491
  1029 67.2945 0.284222 -4.46790
  1030 -0.589731 -3.86666 6.86540
  1031 -5.52335 -0.201033 2.98236
  1032 -5.52426 -0.201725 -2.98443
  1033 61.1667 0.915880 -4.39888
  1034 61.1962 0.878325 4.39287
  1035 72.6115 1.50005 -8.88505
  1036 -0.129342 -11.6075 -4.93957
  1037 -0.972963 -4.59383 5.74696
  1038 -1.01102 -4.64031 -5.69482
  1039 42.5056 2.90677 -2.86106
  1040 42.5228 2.88794 2.87070
  1041 54.4922 1.39791 1.72895
  1042 54.4870 1.40506 -1.73170
  1043 90.8282 -6.13760 4.27738
  1044 3.21768 0.698037 -0.123824
  1045 3.22112 0.698796 0.123998
  1046 76.9264 -10.4234 12.3298
  1047 -1.72009 0.516150 0.539561
  1048 -1.72415 0.515464 -0.538907
  1049 15.6507 4.30653 0.951628
  1050 15.6365 4.31710 -0.935051
  1051 5.47061 3.36785 3.89828
  1052 5.45738 3.37495 -3.89358
  1053 0.779242 -14.6845 -3.48801
  1054 21.2440 1.19876 -0.250514
  1055 21.2448 1.20105 0.251626
  1056 61.4460 2.22680 2.30759
  1057 62.2745 0.828186 1.66087
  1058 62.2703 0.834193 -1.66476
  1059 -0.529635 -3.99197 -6.87382
  1060 94.0038 -1.15908 -2.36089
  1061 -0.309409 -0.602177 6.97134
  1062 -0.242453 -0.538330 -6.94652
  1063 86.7859 -0.0826773 -0.625834
  1064 86.7884 -0.0834722 0.623373
  1065 92.2272 -0.225294 -1.08797
  1066 92.1683 -0.239002 1.04843
  1067 -0.0711117 -17.8568 1.72094
  1068 52.8511 1.76685 -2.31311
  1069 52.8585 1.75570 2.31042
  1070 64.9788 0.925126 1.97250
  1071 64.9742 0.932494 -1.97794
  1072 0.987687 1.30615 6.44273
  1073 0.984110 1.30899 -6.44189
  1074 142.054 10.1150 0.938691
  1075 -2.02436 -0.967052 6.98948
  1076 -2.04654 -0.949332 -7.00224
  1077 19.0169 4.14736 0.540161
  1078 19.0134 4.14842 -0.527177
  1079 -12.5083 0.333321 -0.747485
  1080 -12.5029 0.333619 0.748219
  1081 31.8452 1.48303 -10.0530
  1082 31.8201 1.57867 10.2065
  1083 8.59244 3.79199 3.23520
  1084 8.57738 3.80098 -3.22799
  1085 21.3529 2.00705 -7.02374
  1086 21.2489 2.12320 7.11148
  1087 -0.629621 -6.04920 -4.69694
  1088 76.8231 0.772782 11.3467
  1089 54.9499 -2.31728 33.6112
  1090 8.08547 3.81458 3.35199
  1091 8.06610 3.82799 -3.34634
  1092 32.6278 2.19399 -0.404534
  1093 32.6306 2.18853 0.406414
  1094 123.236 -1.85795 5.88624
  1095 7.16283 1.49255 2.55663
  1096 7.07155 1.52152 -2.57612
  1097 -3.69450 -0.840000 4.11405
  1098 -3.69564 -0.843174 -4.11655
  1099 -0.122021 -2.65503 1.08459
  1100 -0.126549 -2.65304 -1.08872
  1101 80.6844 0.164669 2.71062
  1102 80.6788 0.200458 -2.74372
  1103 0.0103266 -6.09841 6.47705
  1104 -5.75674 0.294000 -5.62908
  1105 -5.74917 0.293698 5.62443
  1106 0.0334026 -21.8368 -2.25858
  1107 -1.44715 -2.00122 6.97495
  1108 -1.44428 -1.96421 -6.98060
  1109 77.5440 0.297691 -1.14289
  1110 77.5472 0.295394 1.13956
  1111 79.3227 -0.349917 3.18175
  1112 79.2872 -0.293422 -3.21784
  1113 12.8721 2.53363 -1.61453
  1114 12.7762 2.59930 1.65157
  1115 -0.203058 -11.2492 -3.94463
  1116 104.894 -12.1653 -18.9411
  1117 136.536 14.9248 -2.50781
  1118 1.26146 -18.3410 -1.03479
  1119 4.21022 2.52958 -5.00985
  1120 4.23305 2.51270 4.99731
  1121 11.9286 4.12381 2.00484
  1122 11.9060 4.14081 -1.99310
  1123 26.2220 2.00245 -0.0917290
  1124 26.2210 2.00647 0.0938521
  1125 -1.82267 -2.59694 5.34833
  1126 -1.81910 -2.61901 -5.35415
  1127 -5.61524 1.56918 4.71576
  1128 -5.62564 1.57220 -4.71651
  1129 -2.36787 1.92766 5.48771
  1130 -2.38133 1.93265 -5.48917
  1131 75.0484 -3.78093 -5.16861
  1132 75.5645 -3.83358 5.09855
  1133 0.0425672 -13.1642 -4.74490
  1134 38.9545 -0.535341 -12.9386
  1135 39.0444 -0.406060 13.1964
  1136 11.8195 3.93300 -2.02711
  1137 11.8283 3.92784 2.03669
  1138 40.7327 11.6272 37.7377
  1139 9.00806 3.23748 2.47483
  1140 9.00107 3.23940 -2.46836
  1141 103.512 -12.5993 -3.23220
  1142 38.0596 1.49612 0.385337
  1143 38.0576 1.49989 -0.385222
  1144 -1.78517 -1.60032 3.22675
  1145 -1.78548 -1.60332 -3.22452
  1146 -2.14764 -1.93941 4.20138
  1147 -2.14640 -1.94597 -4.20023
  1148 66.7276 -7.65979 -18.7448
  1149 68.2540 -8.36629 18.9009
  1150 10.8615 0.771701 0.0168747
  1151 10.8641 0.772856 -0.0163368
  1152 41.2114 2.04937 -6.85957
  1153 41.2310 2.01528 6.94402
  1154 92.6758 -13.6157 13.9081
  1155 83.8416 -0.102553 0.173753
  1156 83.8340 -0.102458 -0.173855
  1157 -7.99972 1.19155 4.19174
  1158 -8.00917 1.19358 -4.19246
  1159 -13.4816 0.460154 -2.25614
  1160 -13.4740 0.459780 2.25690
  1161 19.9958 -2.71962 21.7100
  1162 59.3143 4.31098 -4.64900
  1163 37.6945 3.06439 -3.09894
  1164 37.7138 3.04768 3.12129
  1165 122.226 -6.96348 20.1195
  1166 38.2787 2.86740 -4.85033
  1167 38.3043 2.84432 4.88947
  1168 8.64225 1.54457 -1.03530
  1169 8.64521 1.54608 1.03738
  1170 3.13328 -14.6338 1.21588
  1171 3.17439 -14.3733 -2.06447
  1172 52.2734 -4.43083 -18.8729
  1173 53.0630 -4.18568 18.8909
  1174 19.8009 2.98228 -4.58800
  1175 19.7237 3.05731 4.65961
  1176 93.6955 -6.76383 -8.42087
  1177 -3.65039 -0.392932 6.33041
  1178 -3.65899 -0.391867 -6.33670
  1179 -0.167790 -5.47163 -6.64243
  1180 22.7987 -0.595597 -13.3465
  1181 22.8682 -0.499664 13.6219
  1182 -0.0618138 -4.73275 1.21618
  1183 -0.0525704 -4.74352 -1.23043
  1184 -23.3325 0.206614 -0.657010
  1185 -23.3242 0.206568 0.657243
  1186 75.7552 0.168917 -0.290459
  1187 75.7605 0.168499 0.289773
  1188 45.4626 2.11500 -1.82139
  1189 45.4718 2.10343 1.82225
  1190 -1.97228 -0.193626 7.04328
  1191 -1.97735 -0.167109 -7.05432
  1192 0.0165684 -19.3467 -1.92948
  1193 -19.6594 0.0540148 1.01923
  1194 -19.6680 0.0541374 -1.01949
  1195 13.9189 -1.89493 -8.92670
  1196 13.8077 -1.80386 9.26148
  1197 87.3244 -5.39486 0.545632
  1198 23.7414 0.639552 -11.9364
  1199 23.7707 0.732089 12.0923
  1200 -10.7394 0.0547309 1.49549
  1201 -10.7421 0.0547342 -1.49673
  1202 0.260083 -17.5067 -3.49033
  1203 -4.35948 0.843515 -1.00995
  1204 -4.35477 0.844071 1.01115
  1205 12.1050 3.41761 2.00863
  1206 12.0987 3.41906 -2.00073
  1207 48.7362 0.676640 -0.266031
  1208 48.7379 0.675359 0.265858
  1209 66.5577 0.634356 1.26763
  1210 66.5542 0.638115 -1.27080
  1211 3.22468 -1.07052 4.43259
  1212 3.17691 -1.12646 -4.48864
  1213 0.519178 -10.2351 5.23406
  1214 118.676 15.0930 7.28072
  1215 -3.68120 -0.300572 2.32473
  1216 -3.68050 -0.301646 -2.32526
  1217 0.401448 -9.57657 -5.41666
  1218 -0.365209 -5.62393 3.41680
  1219 -0.344752 -5.58108 -3.54231
  1220 94.5630 -0.998095 2.10872
  1221 0.0899877 -22.2226 1.98930
  1222 0.550876 -7.13396 -6.03254
  1223 9.95519 0.658646 0.161247
  1224 9.95252 0.657657 -0.161099
  1225 -1.01722 -4.18562 6.36835
  1226 -11.3276 0.674174 -1.97161
  1227 -11.3207 0.673967 1.97278
  1228 200.192 3.70111 5.36490
  1229 -5.77266 0.582100 5.73778
  1230 -5.78175 0.583008 -5.74260
  1231 44.1999 2.00463 -6.21560
  1232 44.2519 1.96084 6.25929
  1233 2.64411 -5.32725 -3.21454
  1234 42.2173 2.60538 -2.30172
  1235 42.2304 2.58997 2.30771
  1236 1.62350 -14.6608 -1.50787
  1237 -1.01847 -4.18914 -6.35103
  1238 -8.42178 0.436610 1.24710
  1239 -8.42719 0.436216 -1.24593
  1240 -3.56224 0.131687 -6.52628
  1241 -3.55198 0.131132 6.52071
  1242 89.6101 7.00560 9.57417
  1243 51.4515 0.827550 -6.73361
  1244 51.5241 0.799032 6.75081
  1245 -24.6776 0.0795546 -0.271777
  1246 -24.6706 0.0795771 0.272073
  1247 46.6552 1.57212 -1.25692
  1248 46.6589 1.56674 1.25598
  1249 -25.5626 -0.394962 -0.0614683
  1250 -25.5683 -0.394992 0.0614997
  1251 69.8149 -5.05892 -7.69070
  1252 -11.4192 0.182793 3.22466
  1253 -11.4257 0.183163 -3.22697
  1254 70.5747 -5.34047 7.61807
  1255 47.3257 2.17078 -2.65217
  1256 47.3378 2.15469 2.65342
  1257 5.28366 -17.5662 -8.90791
  1258 0.0975700 -15.8770 -4.09127
  1259 -0.381364 -6.72907 5.98252
  1260 154.958 20.4610 -17.8483
  1261 -0.0426441 -14.7736 3.93230
  1262 160.096 14.9856 -7.98973
  1263 -0.0620777 -27.2673 -1.92621
  1264 6.33657 1.03038 -0.475732
  1265 6.33967 1.03153 0.476882
  1266 -0.0708050 -6.08744 1.27594
  1267 -0.0580172 -6.11844 -1.27138
  1268 25.7441 1.06852 -0.118315
  1269 25.7448 1.07024 0.118588
  1270 94.9320 -7.73496 8.07375
  1271 0.700600 0.929546 -1.17283
  1272 0.704666 0.930333 1.17425
  1273 0.555034 -30.8364 1.21260
  1274 0.353531 -32.6874 -1.18631
  1275 87.3037 -11.5939 -7.94372
  1276 -0.254971 -8.07573 3.80140
  1277 89.2445 5.25359 -11.6995
  1278 -0.274609 -10.6449 3.74978
  1279 0.175676 -29.6222 -1.58807
  1280 43.3348 1.68686 -1.29119
  1281 43.3402 1.67854 1.29147
  1282 -0.0274769 -15.7229 1.69404
  1283 -0.0456214 -13.2106 -3.84603
  1284 215.968 34.1079 30.2165
  1285 84.2671 0.138206 0.139615
  1286 84.2591 0.138192 -0.139617
  1287 1.81791 -0.230355 5.96194
  1288 1.75542 -0.140907 -5.98133
  1289 -1.67624 1.05890 6.72866
  1290 -1.70102 1.06353 -6.73639
  1291 87.3280 -1.74466 -6.63003
  1292 81.7026 -3.32196 -2.76406
  1293 81.5924 -3.80886 2.76099
  1294 11.0417 1.72450 1.10213
  1295 11.0391 1.72267 -1.09938
  1296 -14.0007 0.385448 -2.60715
  1297 -13.9923 0.384773 2.60655
  1298 91.2240 -13.6896 -11.6244
  1299 -0.690956 -1.65141 1.67258
  1300 -0.693349 -1.64963 -1.67148
  1301 95.7713 -4.69150 11.7805
  1302 -1.05136 -3.89559 4.60601
  1303 -1.04016 -3.90883 -4.58426
  1304 -9.64895 0.692777 1.46994
  1305 -9.65493 0.692610 -1.46864
  1306 13.6422 0.823762 -4.11806
  1307 13.5015 0.911218 4.12664
  1308 21.6764 1.01504 0.251959
  1309 21.6753 1.01330 -0.251511
  1310 -9.84796 0.956425 4.08615
  1311 -9.85684 0.957984 -4.08746
  1312 78.7836 0.364819 0.217376
  1313 78.7770 0.364836 -0.217405
  1314 41.7167 -1.79279 25.3367
  1315 63.6681 0.468743 0.443444
  1316 63.6646 0.469584 -0.444043
  1317 40.9393 0.795955 -9.77024
  1318 40.9658 0.741246 9.87543
  1319 0.376605 -17.9528 -2.77008
  1320 15.3402 3.60591 -1.18833
  1321 15.2799 3.65356 1.22674
  1322 -0.146150 -0.144091 -0.199457
  1323 -0.146859 -0.144176 0.200026
  1324 53.6908 2.04244 3.57088
  1325 53.6717 2.06836 -3.57163
  1326 25.8953 2.57309 0.103632
  1327 25.8936 2.57806 -0.0995530
  1328 38.8256 2.63352 -1.43456
  1329 38.8336 2.62294 1.43835
  1330 51.7408 0.711675 -0.440178
  1331 51.7430 0.710387 0.439789
  1332 -1.66450 -0.816124 -1.89248
  1333 -1.66469 -0.815523 1.89390
  1334 -16.9228 0.0903916 0.875789
  1335 -16.9292 0.0903075 -0.875012
  1336 -2.89840 -1.35923 -4.71562
  1337 -2.89771 -1.35340 4.71253
  1338 -10.3095 0.295371 0.384476
  1339 -10.3144 0.295015 -0.384115
  1340 -25.7593 0.254463 0.158187
  1341 -25.7654 0.254438 -0.158036
  1342 98.6292 -13.9780 16.2420
  1343 67.6454 -0.572156 -9.10547
</Section>

newXOutput 13

<Section columns = "stress_xx | stress_yy | stress_xy">
  1 94.7644 -0.0695347 0.0849548
  2 94.7745 -0.0695755 -0.0849983
  3 -30.2834 0.169151 -0.404656
  4 0.0493013 0.0148425 0.0860490
  5 176.457 41.3793 53.2731
  6 199.224 47.5336 -50.6803
  7 0.0491466 0.0146916 -0.0858458
  8 -30.2764 0.169167 0.404661
  9 94.4567 -0.0613778 -0.308690
  10 94.5146 -0.226925 -0.512256
  11 95.4183 -0.217151 -0.124804
  12 95.4807 -0.190011 -0.580420
  13 95.6476 -0.178452 -0.155610
  14 97.6925 -0.187193 -0.225831
  15 98.3493 -0.301829 -0.775957
  16 99.0054 -0.107657 -0.516784
  17 99.3635 0.154591 -0.999527
  18 103.496 -0.481412 -0.858554
  19 105.171 -0.342508 -1.12358
  20 106.953 -0.573280 -0.360375
  21 107.687 -0.806137 -0.145777
  22 106.430 -0.971849 1.63898
  23 102.101 -1.12948 3.32100
  24 92.3234 -1.36829 6.91101
  25 77.0246 0.618462 7.97429
  26 64.0916 0.684180 7.54127
  27 46.4798 1.79465 4.58211
  28 49.7944 1.75314 0.289796
  29 40.1941 5.34771 -2.98313
  30 60.1278 2.37600 -8.02448
  31 71.5172 0.484512 -6.61483
  32 90.1597 -0.352639 -5.72193
  33 100.606 -1.37018 -3.94462
  34 106.152 -1.13731 -1.64112
  35 107.382 -0.776019 0.144588
  36 106.734 -0.564317 0.324434
  37 105.059 -0.345861 1.08160
  38 103.436 -0.489534 0.833105
  39 99.3429 0.149631 0.985976
  40 98.9992 -0.109544 0.511168
  41 98.3519 -0.302907 0.773376
  42 97.6985 -0.187739 0.224492
  43 95.6554 -0.178727 0.154871
  44 95.4899 -0.190268 0.580190
  45 95.4280 -0.217312 0.124644
  46 94.5245 -0.227023 0.512318
  47 94.4666 -0.0614113 0.308729
  48 89.0270 0.381241 -0.108014
  49 82.0784 0.329756 -0.257576
  50 73.4573 0.0755254 -0.282809
  51 64.5858 0.644764 -0.235232
  52 56.8840 0.623820 -0.190708
  53 48.7000 0.898843 -0.228593
  54 40.6796 1.30483 -0.154216
  55 32.4103 1.20323 -0.292664
  56 25.5909 0.937370 -0.398158
  57 16.6930 0.698724 -0.419078
  58 7.69779 0.819870 -0.316092
  59 0.215929 0.667787 -0.305009
  60 -9.07978 0.427634 -0.284646
  61 -15.9874 0.0394433 -0.649605
  62 -22.6669 -0.394064 -0.302065
  63 -29.4114 0.0842329 0.183535
  64 -30.8326 0.534877 -0.0979871
  65 -30.8929 0.248104 0.0595875
  66 -29.8472 0.138235 -0.0680778
  67 -30.0542 0.351287 -0.397765
  68 -29.5204 0.420190 -0.0845712
  69 -27.8709 0.141288 -0.598527
  70 -28.0497 0.257162 -0.636556
  71 -27.2714 0.246628 -0.380481
  72 -25.2005 0.162176 -0.552046
  73 -24.1394 0.271628 -0.877475
  74 -22.6151 0.297875 -0.735482
  75 -19.9489 0.154304 -1.22058
  76 -18.4356 0.0470307 -1.02206
  77 -15.7697 0.0677790 -1.16567
  78 -13.4566 0.0437143 -1.27473
  79 -11.4679 0.0120741 -1.00548
  80 -8.74096 0.0557874 -1.00954
  81 -6.40147 -0.0311621 -1.07345
  82 -4.14090 -0.121226 -0.932597
  83 -2.35926 -0.105391 -0.708587
  84 -1.14612 -0.180015 -0.587519
  85 -0.170342 -0.103683 -0.203823
  86 0.0283626 -0.112137 -0.0685701
  87 -0.0612679 -0.0479002 -0.00653674
  88 -0.161868 -0.127977 -0.177640
  89 -0.156659 -0.965744 -0.508508
  90 -0.136319 -2.19173 -0.733855
  91 -0.0725605 -3.78246 -1.07582
  92 -0.0397115 -5.82798 -0.929405
  93 -0.0390713 -7.72961 -1.17145
  94 -0.147170 -10.0787 -1.33033
  95 -0.0597017 -12.9597 -1.35287
  96 0.0285348 -15.8641 -1.30123
  97 0.0642206 -18.9878 -1.28839
  98 0.0953587 -22.2139 -1.27511
  99 0.0171785 -24.6532 -1.73299
  100 0.176345 -28.0540 -1.55690
  101 0.208895 -32.0583 -1.27674
  102 0.0175707 -33.9922 -1.70057
  103 0.297305 -37.0880 -1.60234
  104 0.696926 -41.2354 -0.917091
  105 1.34533 -42.7111 -1.45057
  106 0.868022 -40.2952 0.392965
  107 1.11747 -32.4619 2.86096
  108 7.14385 -22.9467 9.89343
  109 23.4608 20.8720 38.5296
  110 274.492 13.7166 26.0918
  111 234.711 4.48464 9.69541
  112 227.176 1.85877 2.10486
  113 225.674 0.846417 -0.362870
  114 227.068 2.72737 -5.12990
  115 233.524 7.94463 -11.2807
  116 266.098 26.8447 -32.9278
  117 55.0337 15.7357 -47.3197
  118 11.5579 -22.5500 -12.5384
  119 3.35251 -35.4556 -4.32602
  120 0.903600 -38.3349 -0.477144
  121 1.06987 -41.2239 0.957427
  122 0.318670 -39.7026 0.757101
  123 0.131650 -36.1758 1.40530
  124 0.132324 -33.8950 1.12473
  125 0.177637 -30.3694 1.78270
  126 -0.00817168 -28.2797 1.70241
  127 0.0706188 -25.4875 1.23311
  128 0.130206 -21.9389 1.53877
  129 0.0218968 -19.4170 1.22202
  130 0.0397627 -15.8973 1.54099
  131 -0.158590 -13.1127 1.32040
  132 -0.115109 -10.0890 1.29044
  133 -0.0292978 -7.68964 1.17513
  134 -0.0504769 -5.79555 0.932021
  135 -0.0712669 -3.77156 1.06577
  136 -0.134498 -2.19006 0.730295
  137 -0.155864 -0.967107 0.508133
  138 -0.161707 -0.129310 0.177951
  139 -0.0612693 -0.0484962 0.00692518
  140 0.0276576 -0.112259 0.0689465
  141 -0.171741 -0.103667 0.204344
  142 -1.14850 -0.179920 0.588156
  143 -2.36266 -0.105129 0.708906
  144 -4.14417 -0.120902 0.932458
  145 -6.40357 -0.0308951 1.07273
  146 -8.74155 0.0558374 1.00867
  147 -11.4664 0.0121556 1.00460
  148 -13.4533 0.0437796 1.27380
  149 -15.7640 0.0677192 1.16478
  150 -18.4281 0.0469431 1.02131
  151 -19.9404 0.154186 1.21998
  152 -22.6055 0.297731 0.735133
  153 -24.1293 0.271491 0.877307
  154 -25.1904 0.162102 0.552075
  155 -27.2614 0.246566 0.380606
  156 -28.0400 0.257102 0.636718
  157 -27.8618 0.141263 0.598740
  158 -29.5118 0.420167 0.0848277
  159 -30.0459 0.351288 0.397949
  160 -29.8395 0.138249 0.0682365
  161 -30.8854 0.248115 -0.0594686
  162 -30.8253 0.534875 0.0980774
  163 -29.4043 0.0842427 -0.183470
  164 -22.6603 -0.393954 0.302109
  165 -15.9813 0.0396691 0.649638
  166 -9.07435 0.428038 0.284738
  167 0.220359 0.668429 0.305080
  168 7.70134 0.820791 0.316155
  169 16.6954 0.699949 0.419142
  170 25.5921 0.938790 0.398181
  171 32.4107 1.20476 0.292670
  172 40.6790 1.30635 0.154159
  173 48.6985 0.900220 0.228479
  174 56.8815 0.624978 0.190555
  175 64.5822 0.645559 0.235018
  176 73.4523 0.0760400 0.282564
  177 82.0717 0.329892 0.257420
  178 89.0185 0.381217 0.107944
  179 23.2577 4.48779 -0.108063
  180 23.2526 4.48971 0.127708
  181 -0.852317 0.489431 7.46799
  182 -0.875203 0.490281 -7.46589
  183 54.5304 -0.844106 -11.3599
  184 54.5191 -0.961451 11.4977
  185 10.3076 1.93786 0.636412
  186 10.1851 1.99208 -0.622025
  187 6.83399 1.69101 -1.50689
  188 6.83817 1.69218 1.50951
  189 52.1373 1.48399 -1.49668
  190 52.1429 1.47664 1.49568
  191 -1.84299 2.21707 4.32565
  192 -1.85366 2.22028 -4.32388
  193 60.6598 1.99207 -4.19205
  194 60.6881 1.95965 4.19220
  195 -2.46856 -2.17335 5.61962
  196 -2.46648 -2.18447 -5.62431
  197 0.388282 -5.45874 -7.04927
  198 18.0124 -0.238762 -9.80160
  199 0.510201 -5.81857 6.90703
  200 17.7190 -0.0729110 10.0030
  201 86.4151 -12.6434 -16.7041
  202 89.6502 -13.1517 15.9360
  203 30.1105 1.49702 -0.00770193
  204 30.1107 1.49419 0.00851014
  205 -6.34888 0.548189 -0.936848
  206 -6.34341 0.548742 0.937726
  207 -7.42019 1.03768 5.67315
  208 -7.43111 1.04014 -5.67701
  209 30.2256 3.29228 -0.307231
  210 30.2288 3.28635 0.313153
  211 8.71652 3.83368 3.51410
  212 8.68627 3.85789 -3.51295
  213 -9.90368 1.06369 -2.54412
  214 -9.89554 1.06320 2.54546
  215 70.3719 0.479539 0.771626
  216 70.3677 0.481307 -0.773095
  217 2.02933 -10.3943 3.57146
  218 2.21095 -9.51833 -3.28649
  219 -0.717244 -6.09046 6.40059
  220 -0.726694 -6.30274 -6.18982
  221 27.7616 4.16691 -3.87368
  222 27.7475 4.18273 3.93440
  223 -6.47488 -0.0760280 5.55315
  224 -6.48112 -0.0761301 -5.55792
  225 75.3044 0.795857 -2.40919
  226 75.3092 0.786344 2.40108
  227 80.6490 -0.877927 -4.65366
  228 80.7029 -0.970368 4.61524
  229 127.550 10.3891 -0.352454
  230 117.067 12.5385 9.68778
  231 116.720 -2.36489 -13.0633
  232 13.1031 3.43060 2.04114
  233 13.0978 3.43113 -2.03397
  234 0.292797 2.57036 5.96008
  235 0.275889 2.57811 -5.96027
  236 90.0276 -5.47105 -2.56097
  237 89.4807 -5.54702 2.83471
  238 49.2766 0.912359 -0.500275
  239 49.2788 0.909891 0.499754
  240 -11.7737 0.817436 3.85499
  241 -11.7834 0.818915 -3.85582
  242 -1.54246 -1.52145 -2.48063
  243 -1.54163 -1.52114 2.48286
  244 -13.5243 0.425370 1.35220
  245 -13.5313 0.425142 -1.35108
  246 39.9491 3.46761 -2.45546
  247 39.9616 3.45269 2.46790
  248 51.1483 1.86548 -6.29792
  249 51.1999 1.82619 6.32809
  250 11.2761 1.14323 -0.285361
  251 11.2791 1.14455 0.286235
  252 28.9483 -1.96680 -22.7557
  253 34.5189 -0.936501 25.0850
  254 3.51088 1.50615 5.86098
  255 3.49574 1.54734 -5.87521
  256 123.804 -11.5170 -0.0422403
  257 9.63766 4.11293 3.03552
  258 9.62491 4.11995 -3.02733
  259 28.2877 2.78002 -7.96316
  260 28.2459 2.86095 8.07977
  261 137.346 18.0819 -4.25315
  262 81.6704 0.366101 3.26258
  263 81.6604 0.396943 -3.28540
  264 -0.759486 -4.60969 -3.93347
  265 -0.740772 -4.62979 3.95029
  266 -0.188964 -11.1064 -5.53390
  267 0.300018 -13.2715 -5.32512
  268 0.145074 -13.1488 5.48586
  269 -2.21064 -1.94596 7.35675
  270 -2.21749 -1.94014 -7.37941
  271 4.01473 -11.7069 -0.691546
  272 4.30581 -10.9373 1.35436
  273 -4.75164 -0.417593 3.46173
  274 -4.75241 -0.419135 -3.46370
  275 57.3030 2.06343 -2.52879
  276 57.3148 2.04828 2.52636
  277 101.312 -11.0579 0.657127
  278 21.1799 2.28920 -0.505115
  279 21.1806 2.29218 0.507911
  280 -0.294638 -10.4031 5.27746
  281 1.06230 2.24685 2.96702
  282 1.05471 2.24802 -2.96377
  283 162.995 11.8507 -3.27145
  284 79.5949 0.329231 0.971079
  285 79.5904 0.331456 -0.973912
  286 51.6563 -3.07454 -17.3462
  287 52.1700 -3.02726 17.6596
  288 101.160 -10.4541 -2.35996
  289 -9.88577 0.283479 4.42230
  290 -9.89276 0.283913 -4.42579
  291 99.5733 -10.3964 28.9780
  292 -4.62267 0.617748 6.77593
  293 -4.63416 0.618400 -6.78227
  294 15.7257 4.37068 -0.153632
  295 15.6705 4.41422 0.183972
  296 -18.9549 0.229688 0.263803
  297 -18.9613 0.229556 -0.263521
  298 83.4980 -1.35604 -40.0180
  299 -17.2474 0.376350 -2.12815
  300 -17.2382 0.375882 2.12844
  301 -0.688724 -2.38781 7.65285
  302 -0.459119 -2.35112 -7.60274
  303 35.5426 3.97699 -3.63638
  304 35.5552 3.96678 3.67038
  305 6.70030 1.23953 1.12564
  306 6.69652 1.23829 -1.12407
  307 37.2784 1.93696 -0.574087
  308 37.2807 1.93214 0.575039
  309 3.22719 -3.47680 4.60340
  310 2.93921 -4.03151 -4.62454
  311 36.1779 1.11980 -0.0903013
  312 36.1782 1.11782 0.0903631
  313 -13.9238 0.360152 3.28414
  314 -13.9322 0.360782 -3.28616
  315 8.61562 -1.90225 -1.03489
  316 8.34308 -1.90504 0.808188
  317 83.3455 0.152473 0.267880
  318 83.3386 0.152755 -0.268236
  319 184.019 10.8376 6.34829
  320 17.3965 2.81392 1.08529
  321 17.3944 2.81155 -1.08032
  322 -5.11936 1.06988 1.89674
  323 -5.12585 1.06971 -1.89485
  324 24.4325 3.79079 0.0948153
  325 24.4326 3.78693 -0.0835549
  326 2.38047 2.47219 6.24469
  327 2.36647 2.47999 -6.24974
  328 0.356771 -18.9758 3.98250
  329 -19.4800 0.118007 -0.567611
  330 -19.4731 0.118151 0.568127
  331 62.7799 0.585570 -0.497523
  332 62.7832 0.584262 0.496855
  333 66.1532 0.849608 -1.32092
  334 66.1577 0.844921 1.31797
  335 -17.9628 0.363555 -1.59374
  336 -17.9545 0.363477 1.59455
  337 -1.71258 0.545064 0.271673
  338 -1.71725 0.544438 -0.271256
  339 -0.397045 -7.58032 3.94497
  340 -0.317783 -7.88207 -3.93955
  341 73.6974 -6.43566 -11.5360
  342 76.7097 -7.68287 11.2926
  343 43.3448 2.61565 -1.47423
  344 43.3516 2.60596 1.47633
  345 18.3762 4.59262 0.322729
  346 18.3530 4.60939 -0.298807
  347 -7.72723 1.40221 3.54948
  348 -7.73649 1.40382 -3.54853
  349 140.734 -0.311640 0.573626
  350 6.80995 -13.2604 -6.68637
  351 7.28988 -12.6338 7.09065
  352 -3.61816 2.12815 5.54009
  353 -3.63120 2.13264 -5.54102
  354 -4.01070 -0.876991 6.47169
  355 -4.01757 -0.877461 -6.47939
  356 158.901 24.8575 -4.45473
  357 99.6084 -2.16485 14.8822
  358 94.6610 -2.04812 -1.89747
  359 94.5268 -2.00227 1.71363
  360 65.2264 -0.551564 -7.28961
  361 65.1607 -0.632580 7.28488
  362 0.121334 -22.8373 -3.27570
  363 87.1147 0.438567 -1.85843
  364 87.1125 0.429406 1.84612
  365 1.06461 -21.8007 2.81390
  366 96.8231 7.50509 -8.73034
  367 23.2192 1.23733 0.414529
  368 23.2177 1.23578 -0.414261
  369 65.7932 0.834165 -5.42351
  370 65.8398 0.787091 5.42198
  371 71.5286 0.968009 -3.34532
  372 71.5400 0.947079 3.33399
  373 -2.59760 0.996295 1.34358
  374 -2.60308 0.995666 -1.34197
  375 39.7794 2.21894 -8.41053
  376 39.8092 2.23733 8.50828
  377 85.9781 0.152899 0.442994
  378 85.9715 0.153429 -0.443931
  379 47.0583 3.00356 -4.11728
  380 47.0832 2.97768 4.13448
  381 55.0886 1.30757 1.02018
  382 55.0850 1.31150 -1.02151
  383 -2.65846 -0.492345 2.11167
  384 -2.65752 -0.493373 -2.11112
  385 -0.623858 -0.445577 -0.599153
  386 -0.624230 -0.445917 0.600116
  387 113.907 -15.6866 6.23254
  388 -1.55128 -3.69117 5.86647
  389 -1.54150 -3.71901 -5.86410
  390 17.1820 1.55546 -0.697881
  391 17.1839 1.55763 0.699580
  392 -0.572057 -2.81792 2.11715
  393 -0.578133 -2.81243 -2.11692
  394 6.05617 3.32698 3.33055
  395 6.04657 3.33056 -3.32517
  396 93.2691 -0.171749 2.41656
  397 93.2739 -0.131723 -2.47652
  398 -0.335573 -5.83741 7.22245
  399 -7.69964 -0.156623 3.30447
  400 -7.70216 -0.157047 -3.30718
  401 -0.364488 -6.14389 -7.13806
  402 87.8755 0.221533 1.17919
  403 87.8731 0.224381 -1.18410
  404 -1.32975 1.78515 6.86952
  405 -1.35136 1.79273 -6.87404
  406 63.9627 1.37131 -2.15098
  407 63.9692 1.36194 2.14637
  408 98.6486 -4.27073 -2.96111
  409 99.1239 -3.39843 2.30788
  410 -0.220313 -10.3605 -4.34450
  411 8.11769 2.88446 -2.85318
  412 8.18384 2.84451 2.85389
  413 94.6367 6.40704 5.55517
  414 54.6651 -4.08283 -24.3200
  415 56.2509 -5.14520 25.5633
  416 2.46649 3.08501 4.74805
  417 2.45300 3.09110 -4.74510
  418 40.2664 1.57832 -0.391535
  419 40.2679 1.57505 0.391564
  420 38.9125 2.53406 38.9768
  421 15.4256 4.05639 -1.75777
  422 15.4333 4.05333 1.76867
  423 0.885863 -10.4794 5.19527
  424 -0.127056 -16.9140 -3.83081
  425 5.71680 3.69216 4.58260
  426 5.69909 3.70249 -4.57935
  427 6.93339 2.39244 -2.13964
  428 6.93863 2.39273 2.14354
  429 -3.05608 -0.291062 -7.40230
  430 -3.04446 -0.295454 7.39456
  431 18.7195 3.54765 -2.59218
  432 18.6456 3.60877 2.64570
  433 98.2471 -3.44935 -11.1238
  434 2.41532 -1.49051 6.17816
  435 2.32795 -1.45382 -6.20376
  436 71.4149 -2.98973 -8.06494
  437 71.7430 -3.22913 8.03756
  438 -18.5853 0.167661 -2.01732
  439 -18.5759 0.167241 2.01681
  440 0.00440913 -16.5356 3.42583
  441 -0.125472 -10.4677 3.86135
  442 -7.63905 0.438902 5.67368
  443 -7.64719 0.439373 -5.67832
  444 51.1827 0.884961 -0.156929
  445 51.1846 0.883316 0.156565
  446 -1.58776 -2.50355 3.94127
  447 -1.58943 -2.50809 -3.93565
  448 30.9325 0.995725 -12.3956
  449 30.8892 1.15420 12.5763
  450 0.262680 -20.3472 -3.92013
  451 183.849 7.21376 0.276395
  452 0.473868 -24.5801 -2.58637
  453 -22.4211 0.0584164 -0.795065
  454 -22.4133 0.0585089 0.795616
  455 -8.78639 1.16433 4.78850
  456 -8.79709 1.16673 -4.79029
  457 -9.71128 0.130539 3.33832
  458 -9.71550 0.130670 -3.34102
  459 34.0889 3.91030 -2.26701
  460 34.0980 3.90233 2.28833
  461 52.5211 2.53857 -3.19547
  462 52.5397 2.51679 3.19915
  463 -1.05060 -3.59181 7.43800
  464 -1.05107 -3.56692 -7.46656
  465 90.1204 1.01758 -14.0673
  466 5.80276 -2.47412 -2.05709
  467 5.60198 -2.52317 2.16063
  468 1.35518 -22.8273 0.500821
  469 0.843403 -26.2037 -1.08378
  470 -2.87360 -1.30693 4.06388
  471 -2.87351 -1.31094 -4.06417
  472 18.6815 -5.28578 -19.3419
  473 144.307 -3.54874 -11.1646
  474 31.0028 2.47574 0.401369
  475 31.0007 2.48112 -0.398151
  476 45.3584 0.247410 -12.1214
  477 45.4927 0.229606 12.3371
  478 12.6794 4.76476 2.33512
  479 12.6614 4.77819 -2.32350
  480 40.8964 3.27162 -6.03389
  481 40.9295 3.24676 6.09174
  482 1.12513 0.534204 7.07896
  483 1.21709 0.580604 -7.06816
  484 -19.7450 0.324461 -1.54852
  485 -19.7360 0.324322 1.54902
  486 92.5427 -11.2701 -5.99838
  487 74.2213 0.338930 -0.380010
  488 74.2264 0.338389 0.379643
  489 2.62595 0.765051 -0.641014
  490 2.63019 0.765990 0.641939
  491 -5.50455 1.76854 4.58242
  492 -5.51553 1.77147 -4.58224
  493 -11.7886 0.761788 -1.78232
  494 -11.7812 0.761744 1.78366
  495 30.9676 3.49272 -0.721923
  496 30.9719 3.48548 0.730594
  497 -4.38450 1.43125 6.26606
  498 -4.39833 1.43542 -6.27014
  499 84.8792 -2.19017 -4.22378
  500 85.0109 -2.32294 4.12932
  501 54.6099 0.747596 -7.99315
  502 54.5403 0.694357 8.06995
  503 19.5102 1.33017 -0.425946
  504 19.5120 1.33202 0.426732
  505 0.151589 -10.5885 -6.17876
  506 99.0021 -3.86501 9.18380
  507 1.18000 -7.32777 -5.85997
  508 27.1055 4.59979 2.14828
  509 27.1124 4.59258 -2.11072
  510 91.5161 -10.5488 5.88524
  511 6.46664 -12.7482 9.63963
  512 109.754 -15.7719 -12.4505
  513 74.3087 0.638040 4.00842
  514 74.2855 0.675968 -4.02402
  515 0.125029 -9.11066 6.42982
  516 -1.44805 -0.438235 -1.11719
  517 -1.44898 -0.438188 1.11824
  518 7.79445 0.774123 -0.223731
  519 7.79797 0.775125 0.224097
  520 -0.258234 -5.80105 2.51549
  521 -0.234294 -5.77257 -2.52730
  522 61.1631 1.02003 0.847785
  523 61.1596 1.02229 -0.849003
  524 175.824 28.9260 10.0958
  525 6.64078 -5.65832 -1.04708
  526 5.13742 -7.17910 -0.0135724
  527 -2.80817 1.46778 -2.46839
  528 -2.80112 1.46741 2.47067
  529 -15.1976 0.243558 2.02679
  530 -15.2045 0.243814 -2.02822
  531 0.144509 -19.0030 3.85890
  532 -22.2464 0.244405 0.260552
  533 -22.2533 0.244328 -0.260219
  534 17.9633 -3.24019 -13.9464
  535 17.5418 -2.87002 14.5591
  536 16.3725 2.41293 -4.08721
  537 16.2497 2.49832 4.13700
  538 -4.13510 -0.911481 5.62384
  539 -4.13898 -0.914255 -5.62952
  540 15.8628 1.86712 0.776829
  541 15.8608 1.86494 -0.774417
  542 -10.0552 0.550006 0.847374
  543 -10.0613 0.549652 -0.846357
  544 18.9845 3.23586 1.02900
  545 18.9826 3.23372 -1.02163
  546 -0.407170 -1.29905 0.952055
  547 -0.408459 -1.29764 -0.951781
  548 6.63043 2.84408 4.30746
  549 6.58775 2.88974 -4.31465
  550 5.36526 0.395321 3.93508
  551 5.28626 0.387668 -3.97231
  552 75.7449 0.840177 1.70438
  553 75.7406 0.844805 -1.70886
  554 66.4967 1.27191 2.65256
  555 66.4879 1.28564 -2.65918
  556 -0.0690955 -15.7796 -2.35888
  557 45.8037 2.76950 -2.33062
  558 45.8148 2.75560 2.33488
  559 46.0785 1.52865 -0.776849
  560 46.0818 1.52386 0.776595
  561 -7.69331 0.398361 -0.0517618
  562 -7.68800 0.398776 0.0520033
  563 74.9118 4.43866 -2.70092
  564 104.945 -14.2593 -3.64101
  565 82.7661 3.62037 10.8127
  566 0.616395 -14.1503 -4.73701
  567 -5.54281 1.58437 -3.13595
  568 -5.53438 1.58330 3.13777
  569 0.609926 -8.33514 6.21195
  570 -4.88333 0.0533080 6.54084
  571 -4.89224 0.0537041 -6.54661
  572 133.008 12.9213 -1.72584
  573 29.3956 1.82339 -0.0571112
  574 29.3961 1.81996 0.0584603
  575 208.853 17.2156 -16.8426
  576 -1.26219 -1.00877 7.75068
  577 -1.20010 -0.956277 -7.75881
  578 110.988 -10.8717 6.30206
  579 90.0231 0.276174 -2.08601
  580 90.0161 0.261933 2.06625
  581 39.6707 -0.890459 -17.8380
  582 40.1925 -0.998321 18.1700
  583 -2.40408 -2.32639 6.53304
  584 -2.40505 -2.33658 -6.54660
  585 20.4225 1.01146 8.80104
  586 20.5930 0.839204 -8.69934
  587 -17.9284 0.215383 -1.94213
  588 -17.9193 0.215077 1.94128
  589 131.030 9.25812 10.7534
  590 23.7502 2.64780 -0.365458
  591 23.7501 2.65151 0.369300
  592 28.1740 3.45147 -5.84624
  593 28.1475 3.49426 5.93446
  594 80.7046 0.134210 -3.96900
  595 80.7327 0.0853043 3.94437
  596 -0.403157 -8.43216 -5.90825
  597 88.9389 0.0255703 0.614221
  598 88.9325 0.0262438 -0.615504
  599 -14.0093 0.371273 -0.366142
  600 -14.0032 0.371531 0.366704
  601 -23.8206 -0.108102 0.0254860
  602 -23.8273 -0.108170 -0.0253789
  603 1.71408 -13.4466 -2.74053
  604 -0.859456 -5.41436 4.99128
  605 -0.906312 -5.13009 -5.02473
  606 -10.3360 0.610295 4.75928
  607 -10.3446 0.611464 -4.76255
  608 60.8596 1.91001 3.29822
  609 60.8444 1.93122 -3.30226
  610 44.4450 1.01660 0.194424
  611 44.4438 1.01822 -0.194542
  612 9.51657 -4.24713 5.09213
  613 9.84988 -4.03874 -5.02615
  614 -0.322633 -4.03517 2.11649
  615 -0.331816 -4.02125 -2.12298
  616 106.460 2.96993 42.3655
  617 -5.20640 -0.169803 1.97229
  618 -5.20534 -0.170443 -1.97328
  619 1.66924 -8.25172 -4.91560
  620 43.3502 2.19114 -1.09616
  621 43.3546 2.18428 1.09688
  622 20.5583 4.51191 -1.25559
  623 20.5264 4.53730 1.29444
  624 0.220155 -29.1932 1.81764
  625 15.1830 4.58082 1.68599
  626 15.1717 4.58806 -1.67297
  627 -2.65113 1.94870 3.75624
  628 -2.66040 1.95068 -3.75418
  629 -0.126642 -13.9830 3.22808
  630 -23.4468 0.0625513 -0.781915
  631 -23.4385 0.0625649 0.782397
  632 27.9891 1.17101 -0.102100
  633 27.9897 1.17324 0.102646
  634 73.8221 0.531945 1.10106
  635 73.8177 0.534401 -1.10336
  636 64.0762 -6.08744 32.3509
  637 51.4681 1.73332 -1.86374
  638 51.4756 1.72336 1.86325
  639 0.542755 -1.45858 7.33146
  640 0.714530 -0.980513 -7.33911
  641 82.9525 -9.85426 -25.9779
  642 202.980 7.24213 -7.02766
  643 -21.2464 0.0363797 -1.36763
  644 -21.2366 0.0361873 1.36753
  645 3.74928 1.32807 -1.30958
  646 3.75374 1.32902 1.31150
  647 -0.414712 -8.86025 5.18352
  648 111.891 5.69755 -13.9860
  649 88.0152 -0.0223343 0.0957079
  650 88.0070 -0.0222505 -0.0958163
  651 -5.69203 -0.339856 -4.63451
  652 -5.68874 -0.338853 4.63069
  653 -0.0110900 -19.9874 -3.15417
  654 89.5792 -0.0521280 0.233738
  655 89.5710 -0.0519924 -0.234020
  656 7.05310 2.96186 2.87033
  657 7.04581 2.96329 -2.86515
  658 66.3017 -6.29444 -16.8006
  659 67.6113 -6.28352 17.0156
  660 99.3091 -0.498411 1.34333
  661 99.3748 -0.489146 -1.42122
  662 0.425527 -25.5088 2.60921
  663 -6.67017 0.344043 -0.504930
  664 -6.66485 0.344522 0.505529
  665 31.6500 -1.91979 -30.1658
  666 29.1895 1.09272 0.165161
  667 29.1903 1.09434 -0.165020
  668 13.6562 1.43072 0.446890
  669 13.6536 1.42900 -0.445558
  670 16.5257 2.26107 -0.748943
  671 16.5277 2.26354 0.752475
  672 56.6509 1.95913 -5.09089
  673 56.6900 1.92175 5.10153
  674 14.2657 4.31128 1.16971
  675 14.2287 4.34116 -1.15246
  676 -11.2485 0.850464 -2.89252
  677 -11.2396 0.849571 2.89338
  678 -12.8125 0.878489 -3.22275
  679 -12.8031 0.877353 3.22276
  680 101.630 -1.46435 -0.667720
  681 -0.0548754 -4.48126 -7.34769
  682 101.893 -1.53711 0.494493
  683 127.125 10.3851 0.842991
  684 -12.8575 0.0560596 2.29277
  685 -12.8628 0.0561665 -2.29461
  686 12.3816 3.41806 0.345824
  687 12.2959 3.46807 -0.324535
  688 -25.2503 0.0590114 -0.315341
  689 -25.2427 0.0590650 0.315706
  690 0.00507571 -4.07714 7.38603
  691 -8.16809 0.0816522 4.94143
  692 -8.17450 0.0817896 -4.94553
  693 111.139 -10.2627 -6.76155
  694 16.2813 0.783108 -0.0345711
  695 16.2789 0.781838 0.0348764
  696 2.88591 1.83610 2.06428
  697 2.88038 1.83567 -2.06139
  698 57.5003 -2.93600 -13.9046
  699 57.9902 -3.05218 14.2111
  700 211.445 14.6373 15.5512
  701 3.65132 -22.0238 -5.49450
  702 -1.59149 -3.29160 7.02427
  703 -1.59577 -3.30204 -7.03600
  704 11.2366 2.99309 -1.79707
  705 11.2413 2.99366 1.80238
  706 92.0626 -0.0301684 -0.633338
  707 92.0679 -0.0308703 0.631452
  708 42.3687 1.17389 0.255583
  709 42.3673 1.17647 -0.255765
  710 2.88853 3.07969 5.65198
  711 2.87148 3.08957 -5.65185
  712 0.943529 1.04140 0.929055
  713 0.938967 1.04054 -0.927823
  714 -2.89721 0.467342 7.34549
  715 -2.91222 0.469735 -7.35468
  716 75.0280 0.239523 0.449646
  717 75.0230 0.240381 -0.450486
  718 64.4315 0.954159 1.23364
  719 64.4276 0.957473 -1.23565
  720 8.05091 -7.46876 6.33600
  721 8.31104 -7.86887 -6.07776
  722 -5.42962 1.03790 6.41149
  723 -5.44181 1.04021 -6.41690
  724 2.41194 -7.00570 4.10484
  725 -0.256386 1.74464 6.97216
  726 -0.279530 1.75190 -6.97267
  727 -15.2243 0.481166 -1.95645
  728 -15.2159 0.480891 1.95735
  729 10.2466 3.76846 2.81998
  730 10.2367 3.77237 -2.81193
  731 99.5737 -3.13727 -6.35880
  732 94.4400 -8.46783 -1.32191
  733 -1.57488 -3.20966 4.89798
  734 -1.57196 -3.22307 -4.89013
  735 35.4577 -1.57944 -21.0897
  736 34.4863 -0.753171 21.3560
  737 21.2417 4.08211 -2.41377
  738 21.1965 4.12304 2.46739
  739 1.68505 -4.18912 6.19633
  740 -0.145609 -10.2796 -2.78129
  741 45.6449 2.85831 -4.56663
  742 45.6766 2.83268 4.59465
  743 0.131307 -20.3615 2.61508
  744 26.7097 4.12495 -0.652355
  745 26.7106 4.12094 0.668477
  746 96.4513 0.0434327 -1.58933
  747 96.4254 0.0295675 1.55878
  748 1.76844 -29.3303 -0.0883774
  749 41.9565 3.54771 3.33179
  750 41.9390 3.56573 -3.31425
  751 10.7949 3.82420 -2.19922
  752 10.8471 3.78175 2.20525
  753 -17.5332 0.118140 -1.62268
  754 -17.5251 0.117957 1.62164
  755 47.0421 1.26389 -0.717476
  756 47.0445 1.26054 0.717008
  757 28.2735 4.42731 -1.72524
  758 28.2730 4.42677 1.75312
  759 -0.510066 2.57814 5.51735
  760 -0.524487 2.58428 -5.51683
  761 94.7431 -7.21381 0.191115
  762 -15.8472 0.411359 1.50782
  763 -15.8548 0.411303 -1.50686
  764 210.947 37.1029 -26.0864
  765 -6.75276 0.736492 1.65846
  766 -6.75906 0.736093 -1.65693
  767 81.0936 0.524374 2.84157
  768 81.0896 0.542994 -2.85855
  769 150.453 10.1307 0.424008
  770 92.6512 -0.136884 -1.22096
  771 92.6507 -0.139505 1.21519
  772 58.0600 1.26943 1.51158
  773 58.0555 1.27488 -1.51366
  774 87.1663 -11.1806 23.6349
  775 36.9329 3.18977 -0.971674
  776 36.9391 3.18099 0.976930
  777 0.791725 -16.1770 3.65297
  778 100.331 -13.4642 6.76661
  779 60.7082 0.565128 0.269727
  780 60.7052 0.566230 -0.269999
  781 80.6107 0.266845 0.145401
  782 80.6043 0.267070 -0.145565
  783 -0.383442 -8.23808 -4.83420
  784 0.441058 -14.4284 4.99194
  785 34.7723 4.10532 4.63536
  786 34.7603 4.11062 -4.58358
  787 210.561 2.50365 1.65817
  788 61.0742 0.831693 -6.46720
  789 61.1276 0.786871 6.48008
  790 -13.3553 0.446841 3.60774
  791 -13.3647 0.447853 -3.60920
  792 2.39278 -12.3573 1.78864
  793 1.58173 -27.6114 -1.04000
  794 141.101 17.9665 -0.0579400
  795 -0.129522 -10.2423 2.50844
  796 2.35289 1.78180 6.43687
  797 2.34806 1.78338 -6.45517
  798 17.7545 3.95616 1.24721
  799 17.7504 3.95661 -1.23731
  800 94.2683 -4.22722 -0.876288
  801 94.3662 -4.20036 0.485966
  802 112.874 10.5557 -39.9188
  803 -16.3696 0.262620 -0.754769
  804 -16.3627 0.262813 0.755585
  805 -7.15787 -0.0363659 1.86741
  806 -7.15780 -0.0366024 -1.86878
  807 6.28510 -0.144447 2.72292
  808 6.15089 -0.152866 -2.72617
  809 70.8741 -0.108127 5.85172
  810 70.8167 -0.0344048 -5.84942
  811 35.4192 1.39218 -0.0208244
  812 35.4200 1.38952 0.0210881
  813 115.157 -3.11260 12.9973
  814 10.9917 2.21653 -1.58276
  815 10.9954 2.21799 1.58656
  816 10.5732 0.777916 -0.691176
  817 10.4777 0.838345 0.728642
  818 -0.120919 -8.38200 -6.66154
  819 166.173 21.0912 20.1911
  820 -24.4476 0.0470977 -0.769269
  821 -24.4386 0.0470628 0.769633
  822 -0.0357964 -24.9890 2.52886
  823 1.47277 -4.12543 -6.24182
  824 -3.52692 -0.223356 1.37421
  825 -3.52473 -0.223820 -1.37429
  826 130.851 5.70939 -10.3038
  827 32.7619 3.69021 -1.20692
  828 32.7683 3.68212 1.22006
  829 89.6293 -1.06929 -2.92039
  830 89.6904 -1.09097 2.85425
  831 -23.2507 0.198739 0.997930
  832 -23.2604 0.198823 -0.997782
  833 -0.155073 -0.161320 -0.127746
  834 -0.155375 -0.161614 0.128231
  835 0.0902879 -25.5799 -2.49782
  836 0.124767 -27.2614 -2.38626
  837 -26.1304 0.279009 0.169967
  838 -26.1374 0.278977 -0.169811
  839 12.7765 -6.88208 -13.2268
  840 54.9693 1.09660 -0.392832
  841 54.9719 1.09469 0.392168
  842 -3.11032 0.657776 0.215040
  843 -3.11514 0.657222 -0.214871
  844 82.8950 0.477949 -1.90667
  845 82.8969 0.471246 1.89823
  846 -9.43449 0.0634153 1.78291
  847 -9.43600 0.0634422 -1.78435
  848 48.7992 -1.85498 -32.3589
  849 85.5412 -7.46456 6.03748
  850 67.5170 0.656319 -0.548290
  851 67.5209 0.655001 0.547290
  852 84.6829 -8.14705 -6.83706
  853 25.4542 3.29885 0.0783561
  854 25.4552 3.29400 -0.0704322
  855 35.7233 2.82284 -0.675531
  856 35.7273 2.81592 0.678879
  857 99.7005 -2.17972 4.84029
  858 5.39934 3.46237 4.86960
  859 5.37899 3.47639 -4.87097
  860 5.02152 0.700308 0.466535
  861 5.01765 0.699340 -0.465910
  862 46.4057 1.03901 0.310670
  863 46.4041 1.04102 -0.310967
  864 124.664 -13.6502 11.8957
  865 77.4662 0.755835 -2.45439
  866 77.4716 0.743312 2.44305
  867 -0.0354170 1.36598 1.64490
  868 -0.0408245 1.36539 -1.64279
  869 77.9811 0.171863 0.674374
  870 77.9758 0.172830 -0.675641
  871 -15.6908 0.199348 -0.419104
  872 -15.6847 0.199567 0.419236
  873 -0.0740862 -7.81584 2.22631
  874 -0.0956936 -7.93794 -2.24444
  875 91.2162 -1.58002 11.1615
  876 -6.19571 1.42044 5.51151
  877 -6.20768 1.42387 -5.51390
  878 -0.0344920 -12.9340 -2.47909
  879 35.7738 1.78723 -0.308979
  880 35.7751 1.78373 0.309570
  881 66.7049 -3.45992 -10.5218
  882 67.2643 -3.83665 10.6310
  883 -3.08922 -1.15615 -7.07069
  884 -3.07880 -1.15799 7.06042
  885 2.92985 3.18486 5.22203
  886 2.91418 3.19288 -5.21985
  887 0.335347 -30.2860 1.88826
  888 0.364536 2.37833 6.45073
  889 0.345821 2.38603 -6.45160
  890 61.4639 -1.03385 -9.31957
  891 61.3431 -1.10120 9.39599
  892 106.582 5.07336 14.3226
  893 23.6410 3.10154 -0.337138
  894 23.6409 3.10576 0.342849
  895 79.7591 0.775754 -1.85494
  896 79.7623 0.770081 1.84875
  897 -3.22535 -1.45213 6.15238
  898 -3.22934 -1.45636 -6.16069
  899 0.263601 -31.5926 -1.45318
  900 -4.95256 -0.391648 6.06561
  901 -4.95892 -0.391731 -6.07142
  902 2.14712 2.96616 -4.17249
  903 2.15830 2.96173 4.17585
  904 -0.247168 -1.93507 1.07830
  905 -0.249824 -1.93285 -1.07978
  906 5.84838 3.33635 -3.87498
  907 5.86055 3.33090 3.88032
  908 1.16347 -2.83934 6.85778
  909 0.989504 -2.64592 -7.15096
  910 76.4307 -1.98693 5.89801
  911 76.2376 -1.86665 -5.95305
  912 -26.5415 0.108772 -0.249130
  913 -26.5341 0.108825 0.249373
  914 -2.15146 -0.200360 1.02540
  915 -2.14921 -0.200625 -1.02487
  916 0.109393 -18.4418 -2.27979
  917 -2.36916 -1.03106 -2.94358
  918 -2.36921 -1.02899 2.94470
  919 -10.3820 0.841906 4.63667
  920 -10.3919 0.843682 -4.63913
  921 22.8135 4.71404 -0.532866
  922 22.8041 4.72237 0.557731
  923 98.7366 8.20686 -2.70083
  924 -1.93187 2.33462 5.02054
  925 -1.94423 2.33897 -5.01968
  926 36.5624 2.17040 -9.48249
  927 36.5832 2.20286 9.61608
  928 -5.34414 1.67591 4.06260
  929 -5.35412 1.67834 -4.06168
  930 124.682 -7.94658 -4.57576
  931 69.8146 2.81684 6.13324
  932 87.8568 -1.38022 -10.0991
  933 66.9235 1.28386 -3.96859
  934 66.9446 1.25463 3.96073
  935 -8.17965 1.07976 -2.10969
  936 -8.17236 1.07951 2.11134
  937 -16.7299 0.321965 2.36795
  938 -16.7393 0.322521 -2.36820
  939 -0.991215 -3.16539 -3.42318
  940 -0.985257 -3.16961 3.43056
  941 22.6461 1.91059 -0.242143
  942 22.6468 1.91347 0.244091
  943 -7.89260 0.748391 5.67623
  944 -7.90210 0.749638 -5.68077
  945 81.4920 0.193861 0.908186
  946 81.4867 0.194992 -0.909907
  947 -0.645115 -7.02848 5.25996
  948 2.03614 2.77165 -3.63016
  949 2.04550 2.76891 3.63367
  950 3.02738 2.03475 2.50090
  951 3.02108 2.03495 -2.49763
  952 12.6406 1.60022 -0.832224
  953 12.6434 1.60191 0.834028
  954 153.874 16.0443 -0.311419
  955 -0.578455 -0.165323 -0.396273
  956 -0.579686 -0.165367 0.397019
  957 4.66275 1.00054 -4.70373
  958 4.74355 0.952902 4.69685
  959 53.4682 2.57070 -3.99969
  960 53.4932 2.54324 4.00672
  961 5.84513 2.52097 -2.46103
  962 5.85138 2.52063 2.46521
  963 14.2446 -8.38648 18.2291
  964 103.319 -0.645577 -0.669673
  965 103.090 -0.619806 0.558034
  966 17.1163 -4.52157 15.5311
  967 17.7464 1.17859 0.102589
  968 17.7442 1.17709 -0.102038
  969 48.1961 -3.28974 -27.8978
  970 36.3621 1.07520 0.185993
  971 36.3620 1.07682 -0.185967
  972 4.32990 -5.95110 2.02676
  973 4.78710 -5.15811 -1.66388
  974 92.0352 -0.0145098 0.317019
  975 92.0268 -0.0143489 -0.317384
  976 -7.60795 0.00277730 4.45106
  977 -7.61245 0.00268376 -4.45467
  978 164.187 20.1699 7.13139
  979 -0.793447 -5.42544 -7.03979
  980 0.658555 -28.7077 1.94015
  981 -0.185679 -8.53638 6.53089
  982 94.9567 0.0544744 -1.24644
  983 94.9498 0.0506354 1.23752
  984 -1.25964 -2.29293 2.94869
  985 -1.26244 -2.29194 -2.94484
  986 115.260 11.5171 -8.96694
  987 214.110 2.24209 -1.11550
  988 -0.304546 -0.442014 -0.431286
  989 -0.304273 -0.442937 0.431899
  990 53.9125 1.05893 -0.823825
  991 53.9153 1.05616 0.822906
  992 -0.824497 -5.23354 7.08762
  993 75.7199 0.686602 3.60529
  994 75.7074 0.714529 -3.62107
  995 99.2282 -6.84730 -5.25385
  996 -3.51293 -0.756339 3.34598
  997 -3.51287 -0.758699 -3.34661
  998 1.41271 -7.22349 5.47490
  999 -0.190564 -12.6770 5.11898
  1000 -0.0128333 -12.8245 2.47208
  1001 98.2175 6.92743 -0.498685
  1002 114.563 12.5523 5.71562
  1003 82.8306 -10.1241 -12.6105
  1004 1.07235 -12.9210 4.49052
  1005 1.39186 -18.8243 1.60841
  1006 21.9425 0.950768 0.127910
  1007 21.9408 0.949366 -0.127772
  1008 -0.928863 -1.05665 -1.38969
  1009 -0.928300 -1.05723 1.39105
  1010 0.684937 -10.6025 -5.74152
  1011 67.4399 0.441684 -0.200731
  1012 67.4439 0.440909 0.200403
  1013 12.6222 -1.22793 -5.09023
  1014 12.0637 -1.19265 5.04391
  1015 -1.80763 1.98456 6.42292
  1016 -1.82500 1.99121 -6.42606
  1017 -8.68071 1.26515 -4.03404
  1018 -8.67071 1.26320 4.03404
  1019 50.0851 0.857925 -9.46694
  1020 50.1360 0.888617 9.58504
  1021 35.6443 3.28522 -6.24362
  1022 35.6552 3.27855 6.32194
  1023 39.0304 3.30473 -1.85039
  1024 39.0392 3.29259 1.85806
  1025 103.219 -3.55366 -13.5744
  1026 -3.20257 1.18179 6.90454
  1027 -3.21867 1.18554 -6.91179
  1028 73.4135 0.243306 4.87043
  1029 73.3768 0.299722 -4.88422
  1030 -0.638621 -4.20598 7.47533
  1031 -6.02002 -0.218617 3.25019
  1032 -6.02108 -0.219379 -3.25249
  1033 66.7008 0.987364 -4.81013
  1034 66.7331 0.946759 4.80383
  1035 79.2759 1.64455 -9.64883
  1036 -0.139944 -12.6439 -5.37940
  1037 -1.05888 -5.00332 6.26148
  1038 -1.10038 -5.05418 -6.20480
  1039 46.3705 3.15749 -3.13798
  1040 46.3891 3.13723 3.14853
  1041 59.4209 1.51157 1.89304
  1042 59.4149 1.51926 -1.89594
  1043 99.0300 -6.68484 4.63011
  1044 3.54735 0.753127 -0.133693
  1045 3.55140 0.753924 0.133876
  1046 83.8831 -11.3464 13.4812
  1047 -1.83615 0.556103 0.583908
  1048 -1.84093 0.555380 -0.583221
  1049 17.0951 4.69334 1.01100
  1050 17.0793 4.70499 -0.993168
  1051 5.99070 3.67107 4.22903
  1052 5.97601 3.67886 -4.22413
  1053 0.851392 -15.9813 -3.78732
  1054 23.1959 1.29571 -0.264788
  1055 23.1968 1.29814 0.265978
  1056 67.1559 2.42599 2.50423
  1057 67.8945 0.891503 1.81671
  1058 67.8896 0.897965 -1.82084
  1059 -0.572998 -4.34293 -7.48464
  1060 102.477 -1.26501 -2.56007
  1061 -0.328236 -0.648001 7.58649
  1062 -0.255173 -0.578707 -7.55933
  1063 94.5714 -0.0925129 -0.683046
  1064 94.5748 -0.0933740 0.680414
  1065 100.508 -0.248513 -1.18777
  1066 100.445 -0.263390 1.14496
  1067 -0.0774792 -19.4645 1.87509
  1068 57.6350 1.91324 -2.53178
  1069 57.6432 1.90124 2.52896
  1070 70.8401 0.997776 2.15636
  1071 70.8347 1.00571 -2.16215
  1072 1.09114 1.43076 7.00641
  1073 1.08706 1.43378 -7.00574
  1074 154.845 11.0033 1.04012
  1075 -2.20036 -1.04880 7.61110
  1076 -2.22470 -1.02953 -7.62516
  1077 20.7672 4.51539 0.565864
  1078 20.7632 4.51671 -0.551867
  1079 -13.6006 0.359509 -0.810506
  1080 -13.5942 0.359820 0.811273
  1081 34.7582 1.62953 -11.0011
  1082 34.7302 1.73374 11.1679
  1083 9.39580 4.13371 3.50375
  1084 9.37912 4.14358 -3.49613
  1085 23.3144 2.20605 -7.69905
  1086 23.2006 2.33255 7.79422
  1087 -0.685464 -6.59117 -5.11819
  1088 83.8363 0.851008 12.3300
  1089 59.9331 -2.45183 36.7031
  1090 8.84128 4.16077 3.62996
  1091 8.81991 4.17543 -3.62407
  1092 35.6026 2.37917 -0.453426
  1093 35.6056 2.37334 0.455473
  1094 134.316 -1.95713 6.32605
  1095 7.82925 1.64210 2.75806
  1096 7.72946 1.67355 -2.77967
  1097 -4.02564 -0.914443 4.48349
  1098 -4.02695 -0.917922 -4.48628
  1099 -0.132936 -2.89557 1.18256
  1100 -0.137878 -2.89340 -1.18708
  1101 87.9484 0.171613 2.96058
  1102 87.9416 0.210435 -2.99629
  1103 0.0144183 -6.63659 7.05144
  1104 -6.26820 0.322141 -6.13046
  1105 -6.25979 0.321839 6.12528
  1106 0.0362095 -23.7963 -2.45901
  1107 -1.57215 -2.17491 7.59538
  1108 -1.56902 -2.13458 -7.60162
  1109 84.5137 0.317696 -1.24821
  1110 84.5178 0.315222 1.24466
  1111 86.4721 -0.389746 3.47762
  1112 86.4328 -0.328429 -3.51649
  1113 14.0608 2.77813 -1.79601
  1114 13.9559 2.84957 1.83602
  1115 -0.220963 -12.2584 -4.29773
  1116 114.336 -13.1891 -20.7057
  1117 148.807 16.3469 -2.62637
  1118 1.37879 -19.9483 -1.10599
  1119 4.60899 2.76470 -5.43956
  1120 4.63408 2.74634 5.42560
  1121 13.0341 4.49746 2.15891
  1122 13.0092 4.51606 -2.14638
  1123 28.6213 2.17126 -0.0879170
  1124 28.6203 2.17553 0.0902070
  1125 -1.98491 -2.82806 5.82798
  1126 -1.98106 -2.85217 -5.83441
  1127 -6.10260 1.71002 5.12938
  1128 -6.11421 1.71333 -5.13037
  1129 -2.56319 2.10246 5.96839
  1130 -2.57811 2.10791 -5.97018
  1131 81.8334 -4.12459 -5.65817
  1132 82.3950 -4.18132 5.58248
  1133 0.0471357 -14.3384 -5.16604
  1134 42.5103 -0.570329 -14.1475
  1135 42.6073 -0.429437 14.4280
  1136 12.9175 4.28452 -2.18748
  1137 12.9274 4.27880 2.19773
  1138 44.4013 12.8960 41.2077
  1139 9.85282 3.52442 2.67864
  1140 9.84492 3.52662 -2.67175
  1141 112.836 -13.6981 -3.57827
  1142 41.5197 1.61794 0.428461
  1143 41.5175 1.62196 -0.428320
  1144 -1.94530 -1.74361 3.51739
  1145 -1.94566 -1.74691 -3.51500
  1146 -2.33980 -2.11256 4.57904
  1147 -2.33849 -2.11974 -4.57784
  1148 72.7759 -8.32822 -20.4776
  1149 74.4349 -9.09811 20.6475
  1150 11.8797 0.831850 0.0222831
  1151 11.8826 0.833070 -0.0217095
  1152 44.9673 2.23177 -7.50881
  1153 44.9880 2.19492 7.60070
  1154 101.034 -14.8084 15.2080
  1155 91.3609 -0.114460 0.189629
  1156 91.3520 -0.114357 -0.189732
  1157 -8.70219 1.29806 4.55995
  1158 -8.71278 1.30027 -4.56087
  1159 -14.6730 0.499534 -2.45273
  1160 -14.6642 0.499113 2.45347
  1161 21.8346 -2.87443 23.7351
  1162 64.8282 4.69990 -5.04640
  1163 41.1297 3.33175 -3.40197
  1164 41.1504 3.31383 3.42629
  1165 133.194 -7.49194 22.0040
  1166 41.7681 3.11979 -5.31480
  1167 41.7957 3.09496 5.35738
  1168 9.45855 1.67534 -1.11805
  1169 9.46202 1.67691 1.12025
  1170 3.42433 -15.8957 1.35755
  1171 3.46920 -15.6096 -2.28505
  1172 57.0275 -4.81027 -20.6190
  1173 57.8866 -4.54304 20.6376
  1174 21.6214 3.26532 -5.04048
  1175 21.5368 3.34703 5.11813
  1176 102.162 -7.36060 -9.13392
  1177 -3.97314 -0.425212 6.89480
  1178 -3.98263 -0.424087 -6.90178
  1179 -0.179843 -5.95384 -7.23183
  1180 24.8920 -0.611243 -14.6023
  1181 24.9673 -0.507394 14.9020
  1182 -0.0673522 -5.16079 1.32584
  1183 -0.0572869 -5.17256 -1.34140
  1184 -25.4156 0.224693 -0.714229
  1185 -25.4060 0.224639 0.714456
  1186 82.5627 0.177467 -0.318120
  1187 82.5690 0.177020 0.317395
  1188 49.5885 2.29294 -1.99909
  1189 49.5986 2.28051 2.00010
  1190 -2.14178 -0.205680 7.66811
  1191 -2.14733 -0.176772 -7.68023
  1192 0.0177231 -21.0869 -2.10193
  1193 -21.4192 0.0586001 1.10913
  1194 -21.4289 0.0587340 -1.10945
  1195 15.2029 -2.01870 -9.78096
  1196 15.0815 -1.91943 10.1459
  1197 95.2061 -5.88055 0.568649
  1198 25.9206 0.725827 -13.0614
  1199 25.9521 0.825969 13.2306
  1200 -11.7059 0.0597473 1.62940
  1201 -11.7090 0.0597489 -1.63077
  1202 0.284040 -19.0637 -3.79560
  1203 -4.71613 0.914040 -1.09413
  1204 -4.71063 0.914614 1.09539
  1205 13.2301 3.72010 2.16937
  1206 13.2229 3.72180 -2.16092
  1207 53.1476 0.724781 -0.291023
  1208 53.1497 0.723422 0.290843
  1209 72.5563 0.681332 1.38643
  1210 72.5520 0.685372 -1.38981
  1211 3.52800 -1.14925 4.80880
  1212 3.47568 -1.21047 -4.87026
  1213 0.568878 -11.1402 5.69363
  1214 129.393 16.4908 7.84470
  1215 -4.01285 -0.327285 2.53404
  1216 -4.01213 -0.328462 -2.53465
  1217 0.440178 -10.4237 -5.89394
  1218 -0.397716 -6.12961 3.72403
  1219 -0.375501 -6.08267 -3.86078
  1220 103.082 -1.08918 2.28629
  1221 0.0978927 -24.2190 2.16671
  1222 0.604625 -7.76212 -6.56428
  1223 10.8922 0.708766 0.174492
  1224 10.8890 0.707721 -0.174337
  1225 -1.10635 -4.55689 6.93709
  1226 -12.3207 0.732306 -2.14177
  1227 -12.3127 0.732061 2.14297
  1228 217.984 4.02195 5.85230
  1229 -6.28330 0.636144 6.24741
  1230 -6.29338 0.637106 -6.25281
  1231 48.2230 2.17977 -6.80343
  1232 48.2791 2.13241 6.85101
  1233 2.89166 -5.78178 -3.47975
  1234 46.0549 2.82824 -2.52642
  1235 46.0692 2.81168 2.53300
  1236 1.77446 -15.9426 -1.62078
  1237 -1.10777 -4.56089 -6.91845
  1238 -9.14617 0.471496 1.35282
  1239 -9.15247 0.471088 -1.35160
  1240 -3.87539 0.147089 -7.10664
  1241 -3.86406 0.146531 7.10042
  1242 97.7770 7.64828 10.3796
  1243 56.1245 0.895123 -7.36532
  1244 56.2033 0.864469 7.38413
  1245 -26.8735 0.0859496 -0.294635
  1246 -26.8654 0.0859721 0.294944
  1247 50.8839 1.70066 -1.37874
  1248 50.8881 1.69490 1.37777
  1249 -27.8306 -0.431277 -0.0671035
  1250 -27.8374 -0.431315 0.0671375
  1251 76.1361 -5.51446 -8.41297
  1252 -12.4408 0.199463 3.51162
  1253 -12.4481 0.199860 -3.51422
  1254 76.9628 -5.82124 8.33367
  1255 51.6193 2.35378 -2.90566
  1256 51.6326 2.33646 2.90712
  1257 5.77129 -19.0166 -9.75862
  1258 0.106441 -17.2944 -4.45373
  1259 -0.413955 -7.32818 6.51650
  1260 168.819 22.4553 -19.5739
  1261 -0.0463486 -16.0959 4.28244
  1262 174.457 16.3325 -8.76402
  1263 -0.0684327 -29.7116 -2.09627
  1264 6.94630 1.11509 -0.511610
  1265 6.94995 1.11629 0.512828
  1266 -0.0770667 -6.63771 1.39094
  1267 -0.0631219 -6.67156 -1.38601
  1268 28.1001 1.15269 -0.124884
  1269 28.1009 1.15451 0.125175
  1270 103.504 -8.41801 8.75559
  1271 0.800824 1.00688 -1.27050
  1272 0.805577 1.00770 1.27200
  1273 0.604793 -33.5730 1.31155
  1274 0.385139 -35.5927 -1.28347
  1275 95.1879 -12.6193 -8.70040
  1276 -0.277569 -8.80086 4.14248
  1277 97.3707 5.74581 -12.6937
  1278 -0.299365 -11.6007 4.08584
  1279 0.191649 -32.2692 -1.72526
  1280 47.2685 1.82574 -1.41938
  1281 47.2745 1.81682 1.41973
  1282 -0.0301273 -17.1389 1.84588
  1283 -0.0495988 -14.3956 -4.18998
  1284 235.181 37.2541 32.9859
  1285 91.8233 0.147810 0.152170
  1286 91.8140 0.147793 -0.152168
  1287 1.99343 -0.238909 6.48052
  1288 1.92505 -0.141431 -6.50185
  1289 -1.81512 1.15883 7.32210
  1290 -1.84233 1.16379 -7.33077
  1291 95.2376 -1.89904 -7.20404
  1292 89.0777 -3.62532 -3.03299
  1293 88.9586 -4.15565 3.03085
  1294 12.0742 1.87111 1.18904
  1295 12.0712 1.86920 -1.18612
  1296 -15.2468 0.419381 -2.83665
  1297 -15.2374 0.418642 2.83591
  1298 99.4565 -14.8913 -12.7186
  1299 -0.753023 -1.80033 1.82379
  1300 -0.755641 -1.79841 -1.82260
  1301 104.427 -5.09819 12.7898
  1302 -1.14496 -4.24433 5.01970
  1303 -1.13277 -4.25880 -4.99603
  1304 -10.4863 0.751435 1.59502
  1305 -10.4932 0.751277 -1.59368
  1306 14.9006 0.922886 -4.53006
  1307 14.7470 1.01808 4.53899
  1308 23.6672 1.09500 0.269774
  1309 23.6659 1.09316 -0.269298
  1310 -10.7197 1.04188 4.44659
  1311 -10.7297 1.04359 -4.44814
  1312 85.8574 0.392243 0.236906
  1313 85.8497 0.392257 -0.236933
  1314 45.5161 -1.91119 27.6763
  1315 69.4064 0.500581 0.485163
  1316 69.4022 0.501476 -0.485793
  1317 44.6718 0.870564 -10.6864
  1318 44.7000 0.811142 10.8008
  1319 0.411230 -19.5401 -3.00524
  1320 16.7551 3.94033 -1.32932
  1321 16.6890 3.99227 1.37084
  1322 -0.159728 -0.157109 -0.217753
  1323 -0.160504 -0.157200 0.218374
  1324 58.5552 2.21440 3.90751
  1325 58.5343 2.24238 -3.90817
  1326 28.2656 2.79389 0.128069
  1327 28.2639 2.79917 -0.123660
  1328 42.3580 2.85852 -1.57945
  1329 42.3666 2.84718 1.58361
  1330 56.4198 0.763242 -0.481751
  1331 56.4224 0.761875 0.481343
  1332 -1.81448 -0.889362 -2.06345
  1333 -1.81466 -0.888694 2.06498
  1334 -18.4170 0.0963350 0.950266
  1335 -18.4245 0.0962498 -0.949459
  1336 -3.15768 -1.47995 -5.13894
  1337 -3.15687 -1.47357 5.13551
  1338 -11.2005 0.317349 0.416755
  1339 -11.2062 0.316974 -0.416378
  1340 -28.0471 0.276460 0.171409
  1341 -28.0544 0.276437 -0.171250
  1342 107.513 -15.1909 17.7574
  1343 73.8586 -0.619895 -9.89848
</Section>

newXOutput 14

<Section columns = "stress_xx | stress_yy | stress_xy">
  1 102.539 -0.0773274 0.0922834
  2 102.550 -0.0773723 -0.0923306
  3 -32.7461 0.182167 -0.437770
  4 0.0532871 0.0159805 0.0930432
  5 190.805 45.0151 57.7318
  6 215.433 51.6865 -54.9391
  7 0.0531179 0.0158159 -0.0928208
  8 -32.7378 0.182182 0.437769
  9 102.206 -0.0685162 -0.334158
  10 102.270 -0.247339 -0.554142
  11 103.247 -0.236975 -0.135355
  12 103.316 -0.208052 -0.628491
  13 103.498 -0.195718 -0.169227
  14 105.710 -0.204554 -0.245256
  15 106.421 -0.328637 -0.840291
  16 107.134 -0.118540 -0.560057
  17 107.525 0.163817 -1.08318
  18 111.994 -0.523534 -0.930314
  19 113.808 -0.373576 -1.21694
  20 115.741 -0.623191 -0.392891
  21 116.541 -0.874743 -0.161737
  22 115.197 -1.05317 1.76573
  23 110.534 -1.22270 3.58144
  24 99.9931 -1.47823 7.45861
  25 83.4852 0.671845 8.60840
  26 69.5379 0.745239 8.13811
  27 50.5344 1.94192 4.94461
  28 54.1259 1.89674 0.315793
  29 43.7425 5.78412 -3.21751
  30 65.2611 2.57167 -8.66452
  31 77.5445 0.527072 -7.14094
  32 97.6606 -0.379590 -6.17683
  33 108.926 -1.48328 -4.25498
  34 114.900 -1.23231 -1.76775
  35 116.215 -0.842213 0.160688
  36 115.506 -0.613491 0.354229
  37 113.689 -0.377184 1.17176
  38 111.930 -0.532296 0.902966
  39 107.504 0.158478 1.06866
  40 107.128 -0.120570 0.554051
  41 106.425 -0.329800 0.837547
  42 105.717 -0.205144 0.243835
  43 103.508 -0.196017 0.168446
  44 103.326 -0.208330 0.628259
  45 103.258 -0.237151 0.135190
  46 102.281 -0.247447 0.554217
  47 102.218 -0.0685533 0.334206
  48 96.3413 0.408184 -0.117177
  49 88.8328 0.349682 -0.278870
  50 79.5150 0.0718327 -0.305520
  51 69.9246 0.685764 -0.254125
  52 61.5966 0.661904 -0.205932
  53 52.7455 0.959025 -0.246765
  54 44.0695 1.39852 -0.166080
  55 35.1226 1.28890 -0.315819
  56 27.7432 1.00231 -0.429954
  57 18.1131 0.745324 -0.452566
  58 8.37626 0.878171 -0.341432
  59 0.276771 0.715440 -0.329481
  60 -9.78752 0.457380 -0.307335
  61 -17.2664 0.0389869 -0.702518
  62 -24.4987 -0.428540 -0.326542
  63 -31.8022 0.0903894 0.198900
  64 -33.3422 0.578164 -0.105397
  65 -33.4087 0.267841 0.0652624
  66 -32.2783 0.148845 -0.0727923
  67 -32.5053 0.379518 -0.429473
  68 -31.9295 0.454148 -0.0901426
  69 -30.1466 0.152340 -0.646536
  70 -30.3440 0.277992 -0.687804
  71 -29.5040 0.266535 -0.410532
  72 -27.2648 0.175052 -0.596177
  73 -26.1202 0.293737 -0.948478
  74 -24.4723 0.322297 -0.794600
  75 -21.5889 0.166881 -1.32004
  76 -19.9527 0.0508787 -1.10529
  77 -17.0688 0.0733247 -1.26097
  78 -14.5670 0.0475160 -1.37938
  79 -12.4153 0.0132149 -1.08804
  80 -9.46396 0.0604566 -1.09253
  81 -6.93166 -0.0335600 -1.16187
  82 -4.48470 -0.131092 -1.00969
  83 -2.55589 -0.113991 -0.767329
  84 -1.24202 -0.194831 -0.636352
  85 -0.185177 -0.112227 -0.220930
  86 0.0303121 -0.121465 -0.0744439
  87 -0.0663442 -0.0521942 -0.00729542
  88 -0.175220 -0.139397 -0.192575
  89 -0.169595 -1.04665 -0.550822
  90 -0.147499 -2.37458 -0.794667
  91 -0.0784529 -4.09688 -1.16482
  92 -0.0428765 -6.31192 -1.00624
  93 -0.0420348 -8.37059 -1.26825
  94 -0.159228 -10.9129 -1.44003
  95 -0.0646076 -14.0315 -1.46417
  96 0.0308537 -17.1753 -1.40813
  97 0.0694715 -20.5561 -1.39413
  98 0.103250 -24.0475 -1.37954
  99 0.0182599 -26.6855 -1.87474
  100 0.190552 -30.3652 -1.68411
  101 0.225924 -34.6974 -1.38017
  102 0.0181163 -36.7851 -1.83821
  103 0.321466 -40.1297 -1.73140
  104 0.754620 -44.6099 -0.986921
  105 1.45720 -46.1944 -1.56112
  106 0.942399 -43.5463 0.442881
  107 1.21753 -35.0217 3.13406
  108 7.73683 -24.6382 10.7732
  109 25.3793 22.9555 41.7797
  110 296.710 14.8573 28.2422
  111 253.731 4.84418 10.4861
  112 245.583 2.00091 2.27972
  113 243.956 0.904929 -0.392526
  114 245.468 2.94001 -5.54806
  115 252.473 8.58790 -12.2081
  116 287.671 29.0810 -35.6493
  117 59.5672 17.3309 -51.3010
  118 12.5318 -24.2133 -13.6364
  119 3.63607 -38.2533 -4.71610
  120 0.980533 -41.4227 -0.534005
  121 1.15920 -44.5821 1.02646
  122 0.344795 -42.9490 0.813308
  123 0.141893 -39.1419 1.51730
  124 0.142920 -36.6783 1.21404
  125 0.192173 -32.8674 1.92775
  126 -0.00888840 -30.6102 1.84179
  127 0.0763957 -27.5893 1.33385
  128 0.141085 -23.7500 1.66527
  129 0.0238333 -21.0211 1.32240
  130 0.0430362 -17.2108 1.66764
  131 -0.171699 -14.1972 1.42902
  132 -0.124498 -10.9240 1.39680
  133 -0.0314822 -8.32723 1.27222
  134 -0.0545265 -6.27677 1.00905
  135 -0.0770427 -4.08507 1.15392
  136 -0.145523 -2.37279 0.790809
  137 -0.168733 -1.04813 0.550416
  138 -0.175044 -0.140850 0.192914
  139 -0.0663453 -0.0528432 0.00771877
  140 0.0295437 -0.121596 0.0748533
  141 -0.186699 -0.112208 0.221495
  142 -1.24459 -0.194725 0.637039
  143 -2.55958 -0.113705 0.767670
  144 -4.48822 -0.130739 1.00953
  145 -6.93388 -0.0332689 1.16108
  146 -9.46453 0.0605114 1.09157
  147 -12.4136 0.0133055 1.08707
  148 -14.5632 0.0475904 1.37835
  149 -17.0625 0.0732612 1.25998
  150 -19.9444 0.0507855 1.10446
  151 -21.5794 0.166753 1.31936
  152 -24.4615 0.322139 0.794194
  153 -26.1089 0.293586 0.948270
  154 -27.2534 0.174969 0.596187
  155 -29.4927 0.266465 0.410649
  156 -30.3330 0.277924 0.687959
  157 -30.1362 0.152312 0.646748
  158 -31.9195 0.454117 0.0904094
  159 -32.4957 0.379513 0.429660
  160 -32.2692 0.148858 0.0729580
  161 -33.3999 0.267849 -0.0651364
  162 -33.3336 0.578155 0.105491
  163 -31.7939 0.0903990 -0.198829
  164 -24.4910 -0.428417 0.326584
  165 -17.2593 0.0392257 0.702543
  166 -9.78118 0.457802 0.307428
  167 0.281916 0.716110 0.329552
  168 8.38037 0.879133 0.341495
  169 18.1158 0.746610 0.452629
  170 27.7446 1.00380 0.429974
  171 35.1231 1.29051 0.315822
  172 44.0688 1.40011 0.166018
  173 52.7437 0.960472 0.246642
  174 61.5936 0.663123 0.205767
  175 69.9204 0.686599 0.253895
  176 79.5091 0.0723780 0.305256
  177 88.8249 0.349822 0.278701
  178 96.3314 0.408155 0.117101
  179 25.2175 4.85284 -0.144194
  180 25.2118 4.85511 0.165271
  181 -0.910753 0.536803 8.07011
  182 -0.935669 0.537547 -8.06803
  183 59.0767 -0.911749 -12.3341
  184 59.0635 -1.03845 12.4831
  185 11.1842 2.11752 0.653499
  186 11.0513 2.17601 -0.638294
  187 7.43761 1.82262 -1.61871
  188 7.44242 1.82381 1.62147
  189 56.4672 1.59249 -1.63087
  190 56.4734 1.58466 1.62986
  191 -1.96770 2.39763 4.66719
  192 -1.97956 2.40115 -4.66547
  193 65.6952 2.14397 -4.55504
  194 65.7258 2.10921 4.55538
  195 -2.67010 -2.35004 6.08123
  196 -2.66790 -2.36213 -6.08639
  197 0.425231 -5.89490 -7.61826
  198 19.5345 -0.218970 -10.6630
  199 0.557331 -6.28398 7.46381
  200 19.2163 -0.0398263 10.8805
  201 93.5757 -13.6609 -18.1289
  202 97.0716 -14.2098 17.2982
  203 32.6345 1.60729 -0.0169069
  204 32.6346 1.60431 0.0177729
  205 -6.83284 0.587642 -1.00864
  206 -6.82650 0.588217 1.00955
  207 -8.01861 1.12408 6.13213
  208 -8.03067 1.12673 -6.13647
  209 32.7605 3.55235 -0.350699
  210 32.7638 3.54611 0.357062
  211 9.46351 4.15613 3.77642
  212 9.43049 4.18235 -3.77550
  213 -10.6917 1.14825 -2.74455
  214 -10.6825 1.14768 2.74589
  215 76.1819 0.507923 0.838669
  216 76.1768 0.509801 -0.840214
  217 2.20366 -11.2213 3.84324
  218 2.40072 -10.2729 -3.53373
  219 -0.774693 -6.58718 6.92455
  220 -0.785090 -6.81748 -6.69681
  221 30.0957 4.51230 -4.22875
  222 30.0800 4.52959 4.29418
  223 -7.00360 -0.0807021 6.00707
  224 -7.01049 -0.0808374 -6.01234
  225 81.5209 0.850641 -2.61384
  226 81.5265 0.840450 2.60523
  227 87.3196 -0.959649 -5.05248
  228 87.3784 -1.05935 5.01145
  229 138.143 11.2295 -0.371138
  230 126.785 13.5937 10.4042
  231 126.367 -2.51993 -14.0621
  232 14.2226 3.70706 2.18919
  233 14.2166 3.70776 -2.18157
  234 0.338473 2.78446 6.43413
  235 0.319911 2.79286 -6.43458
  236 97.4762 -5.92324 -2.79981
  237 96.8849 -6.00516 3.09678
  238 53.3698 0.973539 -0.546818
  239 53.3723 0.970927 0.546276
  240 -12.7266 0.883947 4.16488
  241 -12.7375 0.885557 -4.16590
  242 -1.66948 -1.64662 -2.68579
  243 -1.66855 -1.64626 2.68818
  244 -14.6057 0.456626 1.45711
  245 -14.6137 0.456398 -1.45596
  246 43.2860 3.74224 -2.67988
  247 43.2994 3.72637 2.69334
  248 55.4104 2.01091 -6.84408
  249 55.4659 1.96878 6.87678
  250 12.2491 1.22771 -0.302754
  251 12.2526 1.22909 0.303675
  252 31.3803 -2.05972 -24.7025
  253 37.4107 -0.949486 27.2218
  254 3.81810 1.64169 6.32190
  255 3.80157 1.68626 -6.33756
  256 134.004 -12.4076 -0.120118
  257 10.4663 4.45052 3.26240
  258 10.4522 4.45821 -3.25377
  259 30.6665 3.02197 -8.66396
  260 30.6207 3.10955 8.78973
  261 148.693 19.6128 -4.50737
  262 88.4124 0.386564 3.53971
  263 88.4010 0.419747 -3.56407
  264 -0.821564 -4.98878 -4.25750
  265 -0.801227 -5.01047 4.27566
  266 -0.203731 -12.0152 -5.98623
  267 0.326579 -14.3488 -5.75400
  268 0.158399 -14.2199 5.93017
  269 -2.38798 -2.10124 7.95717
  270 -2.39547 -2.09504 -7.98188
  271 4.35674 -12.6231 -0.782947
  272 4.67300 -11.7893 1.50268
  273 -5.14262 -0.451418 3.74665
  274 -5.14352 -0.453097 -3.74883
  275 62.0586 2.22015 -2.75050
  276 62.0715 2.20396 2.74800
  277 109.689 -11.9544 0.665644
  278 22.9689 2.46710 -0.533309
  279 22.9698 2.47021 0.536287
  280 -0.318154 -11.2549 5.70915
  281 1.18362 2.42750 3.19646
  282 1.17508 2.42883 -3.19310
  283 176.413 12.8100 -3.57766
  284 86.1536 0.347897 1.05458
  285 86.1482 0.350274 -1.05758
  286 55.9684 -3.31228 -18.8247
  287 56.5229 -3.26120 19.1632
  288 109.525 -11.3024 -2.50781
  289 -10.6941 0.307326 4.78280
  290 -10.7019 0.307785 -4.78668
  291 107.793 -11.1859 31.4275
  292 -4.99377 0.671746 7.32605
  293 -5.00638 0.672403 -7.33308
  294 17.0581 4.73938 -0.200793
  295 16.9979 4.78655 0.233276
  296 -20.4799 0.245860 0.283751
  297 -20.4874 0.245724 -0.283457
  298 90.4052 -1.37628 -43.3843
  299 -18.6494 0.406065 -2.29794
  300 -18.6389 0.405550 2.29817
  301 -0.739026 -2.57556 8.27308
  302 -0.489932 -2.53539 -8.21819
  303 38.5192 4.29879 -3.96547
  304 38.5324 4.28803 4.00215
  305 7.29476 1.33323 1.20929
  306 7.29038 1.33195 -1.20765
  307 40.3913 2.08305 -0.632667
  308 40.3938 2.07795 0.633705
  309 3.50540 -3.74104 4.95855
  310 3.19260 -4.34128 -4.98225
  311 39.1991 1.19836 -0.101993
  312 39.1995 1.19627 0.102063
  313 -15.0624 0.389647 3.55067
  314 -15.0718 0.390327 -3.55295
  315 9.34847 -2.02787 -1.15880
  316 9.05317 -2.03122 0.912674
  317 90.2025 0.158138 0.291031
  318 90.1945 0.158437 -0.291402
  319 199.096 11.7131 6.89850
  320 18.8727 3.03664 1.15776
  321 18.8702 3.03421 -1.15248
  322 -5.50622 1.15316 2.04285
  323 -5.51364 1.15302 -2.04089
  324 26.4897 4.09456 0.0802309
  325 26.4895 4.09057 -0.0681573
  326 2.59649 2.68257 6.73964
  327 2.58111 2.69096 -6.74538
  328 0.387013 -20.5217 4.30129
  329 -21.0515 0.125189 -0.611282
  330 -21.0435 0.125339 0.611816
  331 67.9720 0.621223 -0.540959
  332 67.9759 0.619841 0.540259
  333 71.6230 0.907381 -1.43620
  334 71.6282 0.902382 1.43308
  335 -19.4171 0.391293 -1.71959
  336 -19.4076 0.391197 1.72041
  337 -1.81110 0.583162 0.291198
  338 -1.81653 0.582508 -0.290762
  339 -0.429346 -8.20425 4.26939
  340 -0.343580 -8.53093 -4.26354
  341 79.8168 -6.96035 -12.5253
  342 83.0741 -8.30950 12.2621
  343 46.9571 2.81776 -1.61076
  344 46.9644 2.80746 1.61306
  345 19.9302 4.97192 0.318709
  346 19.9048 4.99020 -0.293093
  347 -8.33867 1.51548 3.83083
  348 -8.34905 1.51726 -3.82994
  349 152.302 -0.248105 0.717296
  350 7.38902 -14.2781 -7.28711
  351 7.90944 -13.5966 7.72431
  352 -3.89585 2.30395 5.98297
  353 -3.91024 2.30882 -5.98418
  354 -4.33676 -0.946292 7.00116
  355 -4.34429 -0.946848 -7.00960
  356 171.982 26.9580 -4.92210
  357 107.885 -2.32275 16.0491
  358 102.472 -2.22288 -2.06740
  359 102.329 -2.17303 1.86939
  360 70.6451 -0.604240 -7.91680
  361 70.5737 -0.691442 7.91194
  362 0.131285 -24.6986 -3.53644
  363 94.2884 0.467368 -2.01528
  364 94.2868 0.457528 2.00214
  365 1.15413 -23.5679 3.03090
  366 104.925 8.13372 -9.39556
  367 25.1765 1.32711 0.445092
  368 25.1748 1.32548 -0.444813
  369 71.2527 0.892100 -5.88978
  370 71.3031 0.841567 5.88841
  371 77.4435 1.03589 -3.63084
  372 77.4561 1.01342 3.61882
  373 -2.77310 1.07235 1.44543
  374 -2.77940 1.07171 -1.44375
  375 43.1094 2.40415 -9.14246
  376 43.1410 2.42431 9.24797
  377 93.0491 0.159298 0.481124
  378 93.0413 0.159863 -0.482107
  379 50.9813 3.24035 -4.48009
  380 51.0082 3.21268 4.49875
  381 59.6573 1.40169 1.11126
  382 59.6532 1.40586 -1.11265
  383 -2.87806 -0.532633 2.28619
  384 -2.87707 -0.533754 -2.28561
  385 -0.675636 -0.482491 -0.649134
  386 -0.676035 -0.482855 0.650175
  387 123.300 -16.9367 6.80668
  388 -1.67728 -3.99222 6.34800
  389 -1.66669 -4.02246 -6.34553
  390 18.6416 1.67291 -0.745178
  391 18.6438 1.67518 0.746976
  392 -0.619048 -3.05080 2.29222
  393 -0.625637 -3.04488 -2.29199
  394 6.58917 3.59807 3.58558
  395 6.57848 3.60203 -3.57995
  396 100.955 -0.193073 2.62189
  397 100.959 -0.149947 -2.68632
  398 -0.359991 -6.30930 7.81019
  399 -8.33309 -0.169009 3.57564
  400 -8.33592 -0.169477 -3.57861
  401 -0.391319 -6.64121 -7.71907
  402 95.1058 0.233548 1.27886
  403 95.1024 0.236602 -1.28408
  404 -1.42350 1.93691 7.42127
  405 -1.44713 1.94507 -7.42641
  406 69.2576 1.47137 -2.33707
  407 69.2649 1.46136 2.33220
  408 106.804 -4.62274 -3.17964
  409 107.313 -3.68007 2.47638
  410 -0.237965 -11.2123 -4.70116
  411 8.81177 3.13557 -3.05848
  412 8.88365 3.09242 3.05889
  413 102.574 6.93589 5.97560
  414 59.2236 -4.38609 -26.3823
  415 60.9375 -5.53570 27.7274
  416 2.69731 3.33890 5.12066
  417 2.68243 3.34553 -5.11770
  418 43.6234 1.69450 -0.431559
  419 43.6251 1.69106 0.431604
  420 42.1661 2.86976 42.2743
  421 16.7363 4.38625 -1.87915
  422 16.7449 4.38280 1.89075
  423 0.963174 -11.3216 5.60823
  424 -0.137510 -18.3025 -4.14356
  425 6.21581 3.99890 4.93761
  426 6.19637 4.01011 -4.93436
  427 7.54319 2.58309 -2.30059
  428 7.54915 2.58332 2.30468
  429 -3.30042 -0.310441 -8.00460
  430 -3.28769 -0.315171 7.99606
  431 20.3012 3.85220 -2.84481
  432 20.2208 3.91834 2.90236
  433 106.397 -3.72686 -11.9990
  434 2.62667 -1.59778 6.66686
  435 2.53189 -1.55841 -6.69487
  436 77.3428 -3.24040 -8.75850
  437 77.6972 -3.49893 8.72930
  438 -20.1042 0.180753 -2.17989
  439 -20.0937 0.180296 2.17927
  440 0.00463559 -17.8953 3.70612
  441 -0.135597 -11.3295 4.17853
  442 -8.26094 0.476254 6.13574
  443 -8.26993 0.476744 -6.14090
  444 55.4307 0.943876 -0.172508
  445 55.4331 0.942143 0.172125
  446 -1.71790 -2.70887 4.26618
  447 -1.71974 -2.71383 -4.26014
  448 33.5313 1.09976 -13.4684
  449 33.4836 1.27098 13.6634
  450 0.284473 -22.0105 -4.23643
  451 198.907 7.78114 0.294271
  452 0.513594 -26.5733 -2.78557
  453 -24.2400 0.0612169 -0.857364
  454 -24.2310 0.0613123 0.857928
  455 -9.49357 1.26020 5.17381
  456 -9.50544 1.26280 -5.17590
  457 -10.5092 0.141497 3.61166
  458 -10.5139 0.141634 -3.61465
  459 36.9442 4.22461 -2.47992
  460 36.9537 4.21623 2.50290
  461 56.8890 2.73486 -3.47671
  462 56.9091 2.71157 3.48080
  463 -1.13303 -3.88062 8.04410
  464 -1.13357 -3.85378 -8.07510
  465 97.6505 1.11852 -15.1738
  466 6.29865 -2.65109 -2.19530
  467 6.08072 -2.70427 2.30761
  468 1.47049 -24.6572 0.518378
  469 0.915812 -28.3136 -1.15260
  470 -3.10957 -1.41360 4.39868
  471 -3.10952 -1.41796 -4.39905
  472 20.2580 -5.60860 -21.0085
  473 156.157 -3.72880 -12.1818
  474 33.6008 2.66750 0.449265
  475 33.5987 2.67318 -0.445805
  476 49.1504 0.275481 -13.1637
  477 49.2947 0.256357 13.3969
  478 13.7597 5.15871 2.50063
  479 13.7399 5.17333 -2.48832
  480 44.3170 3.53781 -6.56438
  481 44.3523 3.51121 6.62684
  482 1.23109 0.588028 7.64516
  483 1.33065 0.638263 -7.63361
  484 -21.3507 0.349742 -1.67156
  485 -21.3404 0.349584 1.67203
  486 100.202 -12.1884 -6.53288
  487 80.3406 0.357017 -0.412429
  488 80.3466 0.356447 0.412048
  489 2.88462 0.820283 -0.687854
  490 2.88954 0.821263 0.688822
  491 -5.93550 1.91299 4.94771
  492 -5.94771 1.91619 -4.94770
  493 -12.7294 0.821203 -1.92125
  494 -12.7209 0.821131 1.92263
  495 33.5640 3.76980 -0.801761
  496 33.5684 3.76216 0.811090
  497 -4.73017 1.55098 6.77090
  498 -4.74538 1.55547 -6.77552
  499 91.8989 -2.37802 -4.59011
  500 92.0420 -2.52133 4.48874
  501 59.1600 0.804405 -8.68318
  502 59.0842 0.747248 8.76634
  503 21.1620 1.42834 -0.454282
  504 21.1641 1.43028 0.455112
  505 0.166203 -11.4488 -6.67975
  506 107.206 -4.17686 9.90482
  507 1.28313 -7.91220 -6.32700
  508 29.3843 4.97759 2.35707
  509 29.3921 4.96958 -2.31666
  510 99.0908 -11.4082 6.41120
  511 7.01794 -13.6940 10.4888
  512 118.813 -17.0228 -13.5358
  513 80.4565 0.679666 4.35129
  514 80.4310 0.720438 -4.36784
  515 0.137899 -9.84925 6.95110
  516 -1.56804 -0.474356 -1.20989
  517 -1.56905 -0.474300 1.21101
  518 8.48072 0.828654 -0.239348
  519 8.48480 0.829702 0.239732
  520 -0.279380 -6.28012 2.72291
  521 -0.253480 -6.24935 -2.73574
  522 66.2252 1.09125 0.921943
  523 66.2212 1.09364 -0.923220
  524 190.258 31.3683 11.0282
  525 7.20603 -6.08543 -1.17132
  526 5.57557 -7.73249 0.0195057
  527 -3.00617 1.58416 -2.65982
  528 -2.99818 1.58371 2.66217
  529 -16.4461 0.263448 2.19205
  530 -16.4538 0.263726 -2.19363
  531 0.156539 -20.5586 4.17164
  532 -24.0449 0.262526 0.279947
  533 -24.0530 0.262448 -0.279600
  534 19.4807 -3.44480 -15.1574
  535 19.0243 -3.04562 15.8207
  536 17.7577 2.63324 -4.46729
  537 17.6244 2.72548 4.52074
  538 -4.47311 -0.984620 6.08512
  539 -4.47739 -0.987653 -6.09135
  540 17.2135 2.01091 0.828682
  541 17.2110 2.00863 -0.826127
  542 -10.8465 0.590864 0.911232
  543 -10.8536 0.590502 -0.910176
  544 20.5915 3.49413 1.09405
  545 20.5891 3.49195 -1.08619
  546 -0.440728 -1.40688 1.03114
  547 -0.442127 -1.40537 -1.03085
  548 7.20049 3.08929 4.63571
  549 7.15404 3.13869 -4.64383
  550 5.82612 0.445930 4.23140
  551 5.74038 0.437608 -4.27213
  552 81.9941 0.899183 1.84960
  553 81.9890 0.904128 -1.85433
  554 72.0000 1.36433 2.88096
  555 71.9902 1.37903 -2.88797
  556 -0.0748008 -17.0806 -2.55242
  557 49.6194 2.98476 -2.54007
  558 49.6314 2.96994 2.54473
  559 49.9120 1.64061 -0.850407
  560 49.9157 1.63553 0.850165
  561 -8.28637 0.425702 -0.0544726
  562 -8.28018 0.426135 0.0547262
  563 81.2705 4.80129 -2.91379
  564 113.616 -15.4079 -3.99213
  565 89.7182 3.93002 11.6587
  566 0.669905 -15.2955 -5.11456
  567 -5.97067 1.71155 -3.38251
  568 -5.96118 1.71035 3.38435
  569 0.664307 -9.00580 6.71135
  570 -5.27906 0.0602175 7.07424
  571 -5.28885 0.0606101 -7.08062
  572 144.029 13.9854 -1.81164
  573 31.8610 1.96084 -0.0724223
  574 31.8614 1.95723 0.0738689
  575 225.907 18.6382 -18.2672
  576 -1.35793 -1.08461 8.37909
  577 -1.29052 -1.02777 -8.38787
  578 120.154 -11.7394 6.76080
  579 97.4355 0.292382 -2.26145
  580 97.4288 0.277058 2.24030
  581 42.9934 -0.936892 -19.3637
  582 43.5571 -1.05421 19.7222
  583 -2.59900 -2.51445 7.06817
  584 -2.60010 -2.52553 -7.08297
  585 22.1459 1.12316 9.57621
  586 22.3309 0.937010 -9.46665
  587 -19.3967 0.232722 -2.09938
  588 -19.3866 0.232390 2.09841
  589 141.844 10.0816 11.5358
  590 25.7509 2.85521 -0.380196
  591 25.7510 2.85909 0.384300
  592 30.5426 3.74327 -6.36828
  593 30.5135 3.78968 6.46340
  594 87.3740 0.135146 -4.30690
  595 87.4049 0.0824895 4.28067
  596 -0.435169 -9.12106 -6.39138
  597 96.2502 0.0232631 0.666238
  598 96.2426 0.0239841 -0.667590
  599 -15.1264 0.398018 -0.392898
  600 -15.1193 0.398286 0.393484
  601 -25.7477 -0.118708 0.0270044
  602 -25.7555 -0.118782 -0.0268922
  603 1.86075 -14.5209 -2.94367
  604 -0.929312 -5.85853 5.40157
  605 -0.979986 -5.55071 -5.43778
  606 -11.1783 0.660867 5.14588
  607 -11.1878 0.662125 -5.14955
  608 65.9069 2.05451 3.58400
  609 65.8903 2.07722 -3.58820
  610 48.1428 1.08635 0.212346
  611 48.1415 1.08805 -0.212468
  612 10.3256 -4.55147 5.55829
  613 10.6863 -4.32545 -5.48712
  614 -0.349065 -4.36872 2.29126
  615 -0.359024 -4.35369 -2.29832
  616 115.221 3.34925 45.9409
  617 -5.63661 -0.183538 2.13481
  618 -5.63551 -0.184235 -2.13591
  619 1.81345 -8.90789 -5.30159
  620 46.9615 2.35793 -1.19885
  621 46.9663 2.35064 1.19966
  622 22.2936 4.88726 -1.39303
  623 22.2586 4.91486 1.43478
  624 0.237962 -31.5668 1.95691
  625 16.4727 4.95621 1.79913
  626 16.4602 4.96418 -1.78527
  627 -2.84058 2.10624 4.05187
  628 -2.85095 2.10843 -4.04981
  629 -0.137088 -15.1337 3.49269
  630 -25.3532 0.0663903 -0.843474
  631 -25.3436 0.0664020 0.843964
  632 30.3385 1.25470 -0.104002
  633 30.3391 1.25704 0.104583
  634 79.9125 0.565323 1.19586
  635 79.9073 0.567940 -1.19829
  636 69.4003 -6.53837 35.0797
  637 55.7448 1.86239 -2.02999
  638 55.7529 1.85177 2.02952
  639 0.597290 -1.56721 7.92084
  640 0.783848 -1.05011 -7.92853
  641 89.8249 -10.6213 -28.1764
  642 219.541 7.82378 -7.62126
  643 -22.9839 0.0387231 -1.47764
  644 -22.9729 0.0385138 1.47749
  645 4.09872 1.43032 -1.40731
  646 4.10386 1.43129 1.40933
  647 -0.448182 -9.58653 5.60842
  648 121.171 6.19911 -15.0588
  649 95.2483 -0.0284508 0.104182
  650 95.2388 -0.0283605 -0.104294
  651 -6.15897 -0.366822 -5.01484
  652 -6.15531 -0.365720 5.01064
  653 -0.0122164 -21.6288 -3.41113
  654 96.9392 -0.0599127 0.253611
  655 96.9297 -0.0597666 -0.253903
  656 7.67064 3.20094 3.08869
  657 7.66245 3.20259 -3.08324
  658 71.8164 -6.79992 -18.2306
  659 73.2311 -6.78768 18.4629
  660 107.486 -0.543844 1.45935
  661 107.555 -0.533909 -1.54319
  662 0.460786 -27.5940 2.81750
  663 -7.17951 0.366867 -0.542684
  664 -7.17333 0.367367 0.543307
  665 34.2882 -1.91916 -32.7309
  666 31.6373 1.16973 0.181086
  667 31.6382 1.17144 -0.180934
  668 14.8254 1.53839 0.475194
  669 14.8223 1.53659 -0.473786
  670 17.9303 2.43769 -0.796138
  671 17.9327 2.44024 0.799892
  672 61.3614 2.10990 -5.53236
  673 61.4036 2.06981 5.54401
  674 15.4766 4.67195 1.23487
  675 15.4362 4.70436 -1.21653
  676 -12.1510 0.918251 -3.12208
  677 -12.1410 0.917263 3.12290
  678 -13.8486 0.949547 -3.48048
  679 -13.8380 0.948303 3.48036
  680 110.012 -1.58770 -0.710835
  681 -0.0542408 -4.83924 -7.94277
  682 110.293 -1.66655 0.524323
  683 137.680 11.2322 0.878421
  684 -13.9147 0.0607937 2.48010
  685 -13.9206 0.0609051 -2.48213
  686 13.4333 3.71363 0.339405
  687 13.3401 3.76770 -0.316737
  688 -27.3015 0.0625584 -0.339243
  689 -27.2926 0.0626139 0.339621
  690 0.0112581 -4.40153 7.98343
  691 -8.83583 0.0892743 5.34498
  692 -8.84293 0.0894060 -5.34951
  693 120.319 -11.0797 -7.25719
  694 17.6677 0.836785 -0.0400649
  695 17.6649 0.835453 0.0403887
  696 3.16163 1.98105 2.22123
  697 3.15532 1.98066 -2.21820
  698 62.2920 -3.17030 -15.0931
  699 62.8207 -3.29568 15.4246
  700 228.698 15.8425 16.8586
  701 3.96256 -23.7411 -5.98830
  702 -1.71933 -3.55770 7.59851
  703 -1.72392 -3.56909 -7.61134
  704 12.2022 3.23271 -1.92767
  705 12.2075 3.23322 1.93328
  706 99.6270 -0.0360213 -0.686715
  707 99.6335 -0.0367754 0.684718
  708 45.8974 1.25667 0.282619
  709 45.8958 1.25940 -0.282804
  710 3.14988 3.33732 6.09764
  711 3.13116 3.34801 -6.09777
  712 1.06278 1.12004 0.998232
  713 1.05750 1.11915 -0.996945
  714 -3.12564 0.510591 7.94062
  715 -3.14203 0.513097 -7.95074
  716 81.2138 0.249590 0.488855
  717 81.2079 0.250500 -0.489736
  718 69.7603 1.02030 1.34063
  719 69.7557 1.02383 -1.34274
  720 8.73619 -8.02636 6.90736
  721 9.01775 -8.45955 -6.62773
  722 -5.86486 1.12532 6.93078
  723 -5.87826 1.12779 -6.93681
  724 2.61980 -7.55702 4.42058
  725 -0.262132 1.89456 7.53080
  726 -0.287412 1.90236 -7.53160
  727 -16.4531 0.518595 -2.11081
  728 -16.4436 0.518284 2.11170
  729 11.1271 4.07548 3.03037
  730 11.1160 4.07982 -3.02186
  731 107.815 -3.39346 -6.85432
  732 102.252 -9.16101 -1.46577
  733 -1.70357 -3.47228 5.30093
  734 -1.70045 -3.48685 -5.29249
  735 38.4313 -1.66417 -22.8924
  736 37.3797 -0.770826 23.1791
  737 23.0341 4.42562 -2.64987
  738 22.9847 4.46999 2.70756
  739 1.83259 -4.51665 6.68880
  740 -0.157366 -11.1278 -3.01009
  741 49.4537 3.08523 -4.96981
  742 49.4877 3.05784 5.00012
  743 0.141824 -22.0369 2.82905
  744 28.9553 4.45718 -0.731082
  745 28.9559 4.45306 0.748401
  746 104.385 0.0425989 -1.72267
  747 104.358 0.0276635 1.68988
  748 1.91783 -31.6874 -0.0739385
  749 45.4595 3.83005 3.63028
  750 45.4408 3.84925 -3.61131
  751 11.7144 4.14922 -2.34986
  752 11.7712 4.10328 2.35603
  753 -18.9729 0.127759 -1.75455
  754 -18.9640 0.127562 1.75339
  755 50.9534 1.35404 -0.783784
  756 50.9561 1.35049 0.783306
  757 30.6491 4.78739 -1.89657
  758 30.6481 4.78704 1.92656
  759 -0.528930 2.79118 5.95566
  760 -0.544816 2.79786 -5.95532
  761 102.580 -7.80526 0.240812
  762 -17.1227 0.442478 1.62627
  763 -17.1314 0.442430 -1.62529
  764 228.169 40.2611 -28.3208
  765 -7.27336 0.792144 1.78659
  766 -7.28059 0.791744 -1.78501
  767 87.7846 0.557996 3.08271
  768 87.7797 0.578004 -3.10082
  769 162.877 10.9429 0.447194
  770 100.268 -0.152259 -1.32301
  771 100.268 -0.155079 1.31687
  772 62.8718 1.36070 1.64409
  773 62.8667 1.36651 -1.64627
  774 94.3819 -12.0641 25.6362
  775 40.0198 3.44036 -1.06955
  776 40.0264 3.43105 1.07522
  777 0.859427 -17.4829 3.93836
  778 108.624 -14.5501 7.37397
  779 65.7320 0.598742 0.292975
  780 65.7284 0.599904 -0.293258
  781 87.2468 0.281120 0.157875
  782 87.2393 0.281356 -0.158045
  783 -0.414395 -8.91417 -5.23096
  784 0.478826 -15.6004 5.39279
  785 37.6861 4.44142 5.05028
  786 37.6735 4.44689 -4.99444
  787 227.694 2.69302 1.79896
  788 66.1502 0.890915 -7.02392
  789 66.2077 0.842842 7.03806
  790 -14.4427 0.483045 3.89941
  791 -14.4532 0.484143 -3.90109
  792 2.59783 -13.3386 1.91023
  793 1.71608 -29.8223 -1.15000
  794 152.765 19.4609 -0.138960
  795 -0.140050 -11.0876 2.71485
  796 2.56423 1.93764 6.94745
  797 2.55881 1.93926 -6.96756
  798 19.2591 4.27585 1.32773
  799 19.2544 4.27649 -1.31716
  800 102.057 -4.57952 -0.969225
  801 102.166 -4.54968 0.548919
  802 122.139 11.6109 -43.2967
  803 -17.6854 0.281176 -0.812247
  804 -17.6773 0.281373 0.813092
  805 -7.74891 -0.0391499 2.02100
  806 -7.74891 -0.0394090 -2.02251
  807 6.82247 -0.134747 2.91681
  808 6.67678 -0.143876 -2.92074
  809 76.7506 -0.126284 6.35443
  810 76.6885 -0.0469364 -6.35154
  811 38.3788 1.49333 -0.0296521
  812 38.3796 1.49052 0.0299387
  813 124.677 -3.32792 13.9902
  814 11.9384 2.39101 -1.69825
  815 11.9427 2.39248 1.70227
  816 11.4714 0.866229 -0.786210
  817 11.3677 0.931424 0.826377
  818 -0.128392 -9.06242 -7.20312
  819 179.798 22.9658 21.9630
  820 -26.4410 0.0502559 -0.830147
  821 -26.4306 0.0502172 0.830510
  822 -0.0387779 -27.0395 2.73383
  823 1.60243 -4.44844 -6.73871
  824 -3.81908 -0.241623 1.48771
  825 -3.81674 -0.242129 -1.48781
  826 141.643 6.23974 -11.0549
  827 35.5068 3.98454 -1.32925
  828 35.5136 3.97600 1.34341
  829 97.0279 -1.16537 -3.17231
  830 97.0948 -1.18858 3.10129
  831 -25.1500 0.214257 1.07764
  832 -25.1610 0.214354 -1.07751
  833 -0.168063 -0.174810 -0.138577
  834 -0.168391 -0.175129 0.139105
  835 0.0971963 -27.6783 -2.69953
  836 0.134676 -29.4870 -2.57537
  837 -28.2496 0.300698 0.182941
  838 -28.2578 0.300667 -0.182780
  839 13.8600 -7.36205 -14.3803
  840 59.5265 1.17330 -0.429104
  841 59.5295 1.17129 0.428408
  842 -3.32411 0.705233 0.231523
  843 -3.32971 0.704656 -0.231348
  844 89.7254 0.509016 -2.06767
  845 89.7281 0.501827 2.05868
  846 -10.2127 0.0686568 1.92933
  847 -10.2145 0.0686852 -1.93092
  848 52.8689 -1.92894 -35.1007
  849 92.6254 -8.07742 6.56878
  850 73.0942 0.698851 -0.596357
  851 73.0988 0.697456 0.595307
  852 91.6987 -8.81514 -7.43500
  853 27.5958 3.56067 0.0648695
  854 27.5967 3.55559 -0.0563759
  855 38.7098 3.04269 -0.746735
  856 38.7140 3.03536 0.750352
  857 107.948 -2.35864 5.21789
  858 5.86965 3.75311 5.24752
  859 5.84738 3.76829 -5.24930
  860 5.47888 0.749485 0.500525
  861 5.47438 0.748472 -0.499871
  862 50.2642 1.11058 0.340242
  863 50.2623 1.11271 -0.340549
  864 134.923 -14.7063 12.9466
  865 83.8602 0.807868 -2.66315
  866 83.8665 0.794434 2.65108
  867 3.24796e-05 1.47234 1.76967
  868 -0.00616877 1.47174 -1.76748
  869 84.4069 0.177551 0.732406
  870 84.4007 0.178581 -0.733737
  871 -16.9455 0.212054 -0.452632
  872 -16.9384 0.212283 0.452766
  873 -0.0800194 -8.46163 2.40981
  874 -0.103406 -8.59385 -2.42940
  875 98.8105 -1.70217 12.0449
  876 -6.68950 1.53818 5.95491
  877 -6.70272 1.54189 -5.95767
  878 -0.0372574 -14.0009 -2.68285
  879 38.7628 1.92101 -0.343629
  880 38.7642 1.91732 0.344273
  881 72.2500 -3.74442 -11.4242
  882 72.8544 -4.15174 11.5426
  883 -3.33869 -1.24740 -7.64822
  884 -3.32732 -1.24933 7.63695
  885 3.19713 3.44869 5.63281
  886 3.17990 3.45740 -5.63068
  887 0.362616 -32.7621 2.03756
  888 0.413586 2.57890 6.96526
  889 0.393087 2.58721 -6.96645
  890 66.5777 -1.12200 -10.1201
  891 66.4464 -1.19432 10.2030
  892 115.438 5.52025 15.4271
  893 25.6326 3.34685 -0.347116
  894 25.6327 3.35126 0.353226
  895 86.3339 0.830216 -2.01209
  896 86.3380 0.824145 2.00552
  897 -3.48812 -1.56905 6.65668
  898 -3.49252 -1.57367 -6.66577
  899 0.285579 -34.1640 -1.56256
  900 -5.35628 -0.421767 6.56181
  901 -5.36327 -0.421887 -6.56821
  902 2.35345 3.20892 -4.49871
  903 2.36585 3.20407 4.50215
  904 -0.267495 -2.09585 1.16768
  905 -0.270374 -2.09345 -1.16928
  906 6.36186 3.60962 -4.17400
  907 6.37533 3.60364 4.17957
  908 1.26875 -3.05894 7.40665
  909 1.07990 -2.85051 -7.72500
  910 82.7638 -2.15781 6.40710
  911 82.5551 -2.02813 -6.46608
  912 -28.6975 0.116530 -0.268164
  913 -28.6889 0.116585 0.268416
  914 -2.33018 -0.216811 1.11033
  915 -2.32774 -0.217100 -1.10977
  916 0.118267 -19.9615 -2.46662
  917 -2.56423 -1.11553 -3.18667
  918 -2.56426 -1.11327 3.18785
  919 -11.2244 0.911253 5.01146
  920 -11.2354 0.913175 -5.01426
  921 24.7366 5.10026 -0.606382
  922 24.7260 5.10946 0.633067
  923 107.012 8.87906 -2.89649
  924 -2.06676 2.52627 5.41922
  925 -2.08043 2.53102 -5.41849
  926 39.6271 2.35708 -10.3068
  927 39.6489 2.39232 10.4510
  928 -5.75914 1.81197 4.38476
  929 -5.77028 1.81464 -4.38393
  930 134.957 -8.54537 -4.87387
  931 75.7425 3.05384 6.60842
  932 95.1879 -1.48707 -10.8983
  933 72.4675 1.37738 -4.30931
  934 72.4905 1.34601 4.30105
  935 -8.82220 1.16502 -2.27386
  936 -8.81391 1.16471 2.27556
  937 -18.0919 0.347520 2.55783
  938 -18.1024 0.348127 -2.55819
  939 -1.07245 -3.42591 -3.70567
  940 -1.06597 -3.43042 3.71362
  941 24.5560 2.05666 -0.250654
  942 24.5569 2.05968 0.252728
  943 -8.53297 0.811205 6.13720
  944 -8.54347 0.812537 -6.14226
  945 88.2022 0.202166 0.985527
  946 88.1959 0.203373 -0.987338
  947 -0.697356 -7.60468 5.69167
  948 2.23548 2.99697 -3.91274
  949 2.24591 2.99393 3.91637
  950 3.31346 2.19677 2.69250
  951 3.30632 2.19706 -2.68908
  952 13.7254 1.72261 -0.890595
  953 13.7286 1.72436 0.892498
  954 166.521 17.4674 -0.458831
  955 -0.626897 -0.178980 -0.429383
  956 -0.628232 -0.179026 0.430191
  957 5.06527 1.09793 -5.06618
  958 5.15303 1.04652 5.05840
  959 57.9153 2.77037 -4.34906
  960 57.9422 2.74097 4.35679
  961 6.36380 2.72297 -2.64764
  962 6.37086 2.72251 2.65204
  963 15.4413 -8.93014 19.7973
  964 111.823 -0.701727 -0.730511
  965 111.577 -0.673762 0.610197
  966 18.5623 -4.81076 16.8790
  967 19.2532 1.26453 0.106202
  968 19.2507 1.26295 -0.105619
  969 52.2227 -3.51104 -30.2638
  970 39.3984 1.15002 0.203002
  971 39.3983 1.15172 -0.202971
  972 4.70028 -6.41008 2.16353
  973 5.19652 -5.55176 -1.76971
  974 99.5937 -0.0183715 0.343882
  975 99.5841 -0.0181989 -0.344260
  976 -8.23181 0.00365819 4.81570
  977 -8.23680 0.00354509 -4.81968
  978 177.701 21.8410 7.79000
  979 -0.856058 -5.86542 -7.61444
  980 0.716959 -30.9889 2.13018
  981 -0.199093 -9.23089 7.06292
  982 102.762 0.0549250 -1.35061
  983 102.755 0.0507932 1.34108
  984 -1.36309 -2.48160 3.19227
  985 -1.36613 -2.48057 -3.18815
  986 124.836 12.4883 -9.62980
  987 231.515 2.41177 -1.21051
  988 -0.329721 -0.479049 -0.467321
  989 -0.329424 -0.480051 0.467986
  990 58.3843 1.13244 -0.897237
  991 58.3876 1.12951 0.896278
  992 -0.889274 -5.65737 7.66580
  993 81.9781 0.732145 3.91265
  994 81.9640 0.762153 -3.92943
  995 107.437 -7.40588 -5.64911
  996 -3.80209 -0.817942 3.62178
  997 -3.80207 -0.820511 -3.62250
  998 1.53605 -7.79799 5.90871
  999 -0.205466 -13.7139 5.53624
  1000 -0.0139465 -13.8826 2.67534
  1001 106.454 7.49028 -0.542995
  1002 124.097 13.5959 6.12307
  1003 89.6976 -10.9447 -13.6930
  1004 1.16454 -13.9619 4.84454
  1005 1.51038 -20.3341 1.71913
  1006 23.7948 1.01710 0.136661
  1007 23.7928 1.01563 -0.136516
  1008 -1.00554 -1.14395 -1.50501
  1009 -1.00493 -1.14456 1.50647
  1010 0.744753 -11.4569 -6.20108
  1011 73.0100 0.466524 -0.218347
  1012 73.0147 0.465708 0.218004
  1013 13.6921 -1.29306 -5.55615
  1014 13.0866 -1.25503 5.50539
  1015 -1.93887 2.15125 6.93772
  1016 -1.95792 2.15843 -6.94135
  1017 -9.37470 1.36808 -4.35636
  1018 -9.36354 1.36595 4.35622
  1019 54.2647 0.927978 -10.2830
  1020 54.3191 0.961663 10.4108
  1021 38.6315 3.55612 -6.79438
  1022 38.6428 3.54913 6.87891
  1023 42.2904 3.56500 -2.02240
  1024 42.2998 3.55210 2.03070
  1025 111.781 -3.82753 -14.6345
  1026 -3.45297 1.28241 7.46200
  1027 -3.47059 1.28643 -7.47007
  1028 79.4931 0.252836 5.28766
  1029 79.4530 0.313534 -5.30219
  1030 -0.686720 -4.54327 8.08290
  1031 -6.51578 -0.236086 3.51747
  1032 -6.51701 -0.236919 -3.52001
  1033 72.2305 1.05692 -5.22322
  1034 72.2655 1.01332 5.21669
  1035 85.9505 1.79044 -10.4054
  1036 -0.150350 -13.6772 -5.81770
  1037 -1.14438 -5.41144 6.77468
  1038 -1.18931 -5.46673 -6.71350
  1039 50.2355 3.40599 -3.41766
  1040 50.2555 3.38435 3.42912
  1041 64.3453 1.62303 2.05825
  1042 64.3386 1.63123 -2.06129
  1043 107.222 -7.23027 4.97691
  1044 3.88317 0.806852 -0.143331
  1045 3.88787 0.807684 0.143523
  1046 90.8336 -12.2654 14.6376
  1047 -1.94554 0.594920 0.627475
  1048 -1.95108 0.594166 -0.626758
  1049 18.5431 5.07938 1.06589
  1050 18.5257 5.09212 -1.04684
  1051 6.51456 3.97380 4.55586
  1052 6.49838 3.98230 -4.55080
  1053 0.923774 -17.2718 -4.08365
  1054 25.1511 1.39070 -0.277660
  1055 25.1523 1.39325 0.278924
  1056 72.8859 2.62470 2.69871
  1057 73.5076 0.952862 1.97334
  1058 73.5018 0.959765 -1.97770
  1059 -0.615558 -4.69191 -8.09310
  1060 110.939 -1.37101 -2.75673
  1061 -0.345509 -0.692341 8.19854
  1062 -0.266334 -0.617658 -8.16903
  1063 102.340 -0.102727 -0.740310
  1064 102.344 -0.103653 0.737515
  1065 108.771 -0.272177 -1.28771
  1066 108.705 -0.288209 1.24168
  1067 -0.0838298 -21.0695 2.02886
  1068 62.4154 2.05730 -2.75183
  1069 62.4245 2.04448 2.74889
  1070 76.6938 1.06855 2.34095
  1071 76.6875 1.07704 -2.34709
  1072 1.19686 1.55634 7.56643
  1073 1.19227 1.55954 -7.56597
  1074 167.614 11.8866 1.14414
  1075 -2.37501 -1.12952 8.23042
  1076 -2.40154 -1.10871 -8.24579
  1077 22.5210 4.88193 0.587707
  1078 22.5164 4.88354 -0.572725
  1079 -14.6854 0.385028 -0.872706
  1080 -14.6780 0.385350 0.873500
  1081 37.6741 1.77794 -11.9547
  1082 37.6430 1.89070 12.1348
  1083 10.2028 4.47494 3.76806
  1084 10.1845 4.48569 -3.76008
  1085 25.2793 2.40777 -8.38041
  1086 25.1556 2.54458 8.48291
  1087 -0.741073 -7.13180 -5.53849
  1088 90.8540 0.930593 13.3053
  1089 64.9141 -2.57376 39.8007
  1090 9.60052 4.50687 3.90350
  1091 9.57711 4.52279 -3.89742
  1092 38.5787 2.56200 -0.504309
  1093 38.5819 2.55584 0.506523
  1094 145.376 -2.04470 6.75025
  1095 8.49821 1.79394 2.95435
  1096 8.38986 1.82784 -2.97814
  1097 -4.35599 -0.988565 4.85217
  1098 -4.35747 -0.992351 -4.85525
  1099 -0.143822 -3.13596 1.28043
  1100 -0.149177 -3.13363 -1.28532
  1101 95.2006 0.177246 3.21112
  1102 95.1924 0.219067 -3.24937
  1103 0.0190411 -7.17205 7.62342
  1104 -6.77767 0.350519 -6.63013
  1105 -6.76841 0.350222 6.62438
  1106 0.0389805 -25.7515 -2.65862
  1107 -1.69604 -2.34723 8.21355
  1108 -1.69267 -2.30359 -8.22037
  1109 91.4702 0.336549 -1.35376
  1110 91.4752 0.333902 1.35000
  1111 93.6113 -0.430884 3.77456
  1112 93.5680 -0.364794 -3.81614
  1113 15.2525 3.02497 -1.98321
  1114 15.1386 3.10215 2.02613
  1115 -0.238774 -13.2655 -4.64990
  1116 123.763 -14.1991 -22.4772
  1117 161.054 17.7797 -2.72713
  1118 1.49657 -21.5456 -1.17337
  1119 5.01042 3.00067 -5.86501
  1120 5.03781 2.98085 5.84957
  1121 14.1430 4.87091 2.30831
  1122 14.1158 4.89112 -2.29504
  1123 31.0231 2.33790 -0.0821027
  1124 31.0221 2.34241 0.0845558
  1125 -2.14658 -3.05834 6.30654
  1126 -2.14245 -3.08452 -6.31360
  1127 -6.58612 1.85056 5.54050
  1128 -6.59897 1.85416 -5.54175
  1129 -2.75519 2.27720 6.44605
  1130 -2.77160 2.28310 -6.44820
  1131 88.6119 -4.46823 -6.15095
  1132 89.2190 -4.52892 6.06973
  1133 0.0518262 -15.5090 -5.58547
  1134 46.0683 -0.603058 -15.3618
  1135 46.1724 -0.450582 15.6648
  1136 14.0194 4.63506 -2.34390
  1137 14.0304 4.62874 2.35477
  1138 48.0639 14.1998 44.6838
  1139 10.7018 3.81016 2.87895
  1140 10.6930 3.81264 -2.87167
  1141 122.145 -14.7890 -3.93290
  1142 44.9798 1.73743 0.472913
  1143 44.9773 1.74169 -0.472745
  1144 -2.10507 -1.88654 3.80758
  1145 -2.10549 -1.89014 -3.80504
  1146 -2.53144 -2.28518 4.95599
  1147 -2.53007 -2.29299 -4.95476
  1148 78.8210 -8.99201 -22.2150
  1149 80.6116 -9.82514 22.3987
  1150 12.9028 0.890367 0.0283318
  1151 12.9063 0.891644 -0.0277245
  1152 48.7246 2.41353 -8.16223
  1153 48.7465 2.37397 8.26153
  1154 109.382 -15.9936 16.5137
  1155 98.8633 -0.126789 0.205516
  1156 98.8529 -0.126677 -0.205621
  1157 -9.40054 1.40426 4.92601
  1158 -9.41231 1.40667 -4.92716
  1159 -15.8585 0.538515 -2.64790
  1160 -15.8486 0.538044 2.64861
  1161 23.6768 -3.01395 25.7686
  1162 70.3619 5.08838 -5.43962
  1163 44.5661 3.59727 -3.70850
  1164 44.5883 3.57819 3.73478
  1165 144.137 -8.00297 23.8974
  1166 45.2591 3.37081 -5.78313
  1167 45.2885 3.34428 5.82913
  1168 10.2799 1.80452 -1.19892
  1169 10.2839 1.80616 1.20123
  1170 3.71643 -17.1462 1.50441
  1171 3.76506 -16.8342 -2.51110
  1172 61.7817 -5.18584 -22.3700
  1173 62.7099 -4.89655 22.3890
  1174 23.4451 3.55033 -5.49878
  1175 23.3532 3.63868 5.58240
  1176 110.620 -7.95432 -9.83835
  1177 -4.29437 -0.456919 7.45733
  1178 -4.30477 -0.455739 -7.46504
  1179 -0.191357 -6.43352 -7.81882
  1180 26.9887 -0.620542 -15.8650
  1181 27.0695 -0.508905 16.1889
  1182 -0.0728771 -5.58846 1.43535
  1183 -0.0619929 -5.60124 -1.45222
  1184 -27.4923 0.242656 -0.771027
  1185 -27.4814 0.242595 0.771246
  1186 89.3570 0.184906 -0.345985
  1187 89.3644 0.184431 0.345225
  1188 53.7131 2.46854 -2.17878
  1189 53.7240 2.45528 2.17995
  1190 -2.30964 -0.216809 8.29037
  1191 -2.31568 -0.185513 -8.30358
  1192 0.0188201 -22.8239 -2.27388
  1193 -23.1744 0.0631326 1.19856
  1194 -23.1853 0.0632777 -1.19895
  1195 16.4899 -2.13447 -10.6422
  1196 16.3584 -2.02701 11.0373
  1197 103.078 -6.36543 0.587316
  1198 28.1033 0.816734 -14.1929
  1199 28.1368 0.924348 14.3753
  1200 -12.6708 0.0647706 1.76297
  1201 -12.6742 0.0647702 -1.76448
  1202 0.308057 -20.6148 -4.09885
  1203 -5.06619 0.983560 -1.17704
  1204 -5.05984 0.984148 1.17835
  1205 14.3592 4.02124 2.32649
  1206 14.3512 4.02321 -2.31751
  1207 57.5557 0.770737 -0.316147
  1208 57.5582 0.769306 0.315961
  1209 78.5462 0.726559 1.50581
  1210 78.5411 0.730872 -1.50939
  1211 3.83301 -1.22490 5.18055
  1212 3.77612 -1.29142 -5.24749
  1213 0.619003 -12.0411 6.15047
  1214 140.097 17.8928 8.39274
  1215 -4.34400 -0.353896 2.74302
  1216 -4.34326 -0.355177 -2.74371
  1217 0.479288 -11.2669 -6.36868
  1218 -0.430107 -6.63435 4.03069
  1219 -0.406151 -6.58330 -4.17864
  1220 111.587 -1.18032 2.46156
  1221 0.105753 -26.2114 2.34353
  1222 0.658993 -8.38686 -7.09324
  1223 11.8344 0.757295 0.187503
  1224 11.8308 0.756200 -0.187341
  1225 -1.19492 -4.92663 7.50413
  1226 -13.3076 0.789922 -2.31043
  1227 -13.2985 0.789636 2.31164
  1228 235.710 4.34031 6.33957
  1229 -6.79159 0.690377 6.75504
  1230 -6.80268 0.691390 -6.76103
  1231 52.2467 2.35374 -7.39499
  1232 52.3070 2.30288 7.44644
  1233 3.14042 -6.23136 -3.74047
  1234 49.8925 3.04881 -2.75366
  1235 49.9079 3.03114 2.76083
  1236 1.92600 -17.2159 -1.72965
  1237 -1.19653 -4.93112 -7.48421
  1238 -9.86370 0.505599 1.45726
  1239 -9.87096 0.505181 -1.45601
  1240 -4.18675 0.163063 -7.68483
  1241 -4.17433 0.162510 7.67794
  1242 105.947 8.29197 11.1744
  1243 60.7966 0.961446 -8.00021
  1244 60.8816 0.928726 8.02065
  1245 -29.0616 0.0922088 -0.317186
  1246 -29.0521 0.0922310 0.317504
  1247 55.1104 1.82685 -1.50179
  1248 55.1151 1.82073 1.50080
  1249 -30.0892 -0.467656 -0.0727468
  1250 -30.0974 -0.467702 0.0727836
  1251 82.4528 -5.96925 -9.13901
  1252 -13.4597 0.216142 3.79755
  1253 -13.4678 0.216565 -3.80045
  1254 83.3462 -6.30119 9.05302
  1255 55.9113 2.53443 -3.16118
  1256 55.9257 2.51592 3.16286
  1257 6.26012 -20.4426 -10.6160
  1258 0.115317 -18.7076 -4.81461
  1259 -0.446197 -7.92518 7.04883
  1260 182.644 24.4715 -21.3161
  1261 -0.0500214 -17.4148 4.63135
  1262 188.787 17.6769 -9.54585
  1263 -0.0749029 -32.1500 -2.26548
  1264 7.56160 1.19833 -0.546267
  1265 7.56584 1.19958 0.547547
  1266 -0.0832993 -7.18745 1.50579
  1267 -0.0681983 -7.22416 -1.50048
  1268 30.4586 1.23474 -0.130762
  1269 30.4595 1.23665 0.131070
  1270 112.066 -9.09770 9.42887
  1271 0.907104 1.08304 -1.36669
  1272 0.912592 1.08388 1.36825
  1273 0.654444 -36.2983 1.40861
  1274 0.416666 -38.4870 -1.37883
  1275 103.063 -13.6400 -9.46272
  1276 -0.300069 -9.52449 4.48280
  1277 105.499 6.24051 -13.6765
  1278 -0.324084 -12.5545 4.42110
  1279 0.207627 -34.9083 -1.86124
  1280 51.2012 1.96226 -1.54935
  1281 51.2077 1.95275 1.54978
  1282 -0.0328027 -18.5526 1.99736
  1283 -0.0535459 -15.5780 -4.53297
  1284 254.324 40.4075 35.7585
  1285 99.3623 0.156930 0.164701
  1286 99.3517 0.156911 -0.164696
  1287 2.17067 -0.245406 6.99520
  1288 2.09637 -0.139913 -7.01851
  1289 -1.95174 1.25936 7.91250
  1290 -1.98142 1.26464 -7.92215
  1291 103.142 -2.05271 -7.77334
  1292 96.4439 -3.92887 -3.30478
  1293 96.3161 -4.50251 3.30378
  1294 13.1115 2.01607 1.27376
  1295 13.1079 2.01409 -1.27067
  1296 -16.4884 0.453135 -3.06490
  1297 -16.4779 0.452330 3.06400
  1298 107.679 -16.0859 -13.8190
  1299 -0.814965 -1.94905 1.97486
  1300 -0.817809 -1.94699 -1.97358
  1301 113.073 -5.50154 13.7891
  1302 -1.23824 -4.59216 5.43254
  1303 -1.22504 -4.60788 -5.40696
  1304 -11.3170 0.809388 1.71869
  1305 -11.3249 0.809243 -1.71731
  1306 16.1622 1.02601 -4.94827
  1307 15.9955 1.12892 4.95748
  1308 25.6614 1.17296 0.286749
  1309 25.6598 1.17103 -0.286246
  1310 -11.5875 1.12709 4.80518
  1311 -11.5986 1.12895 -4.80700
  1312 92.9165 0.418730 0.256398
  1313 92.9076 0.418739 -0.256422
  1314 49.3165 -2.02223 30.0218
  1315 75.1365 0.530660 0.527110
  1316 75.1315 0.531604 -0.527769
  1317 48.4059 0.945546 -11.6072
  1318 48.4358 0.881452 11.7307
  1319 0.445932 -21.1200 -3.23760
  1320 18.1733 4.27583 -1.47574
  1321 18.1014 4.33205 1.52031
  1322 -0.173354 -0.170113 -0.236076
  1323 -0.174197 -0.170211 0.236751
  1324 63.4167 2.38412 4.24610
  1325 63.3940 2.41410 -4.24665
  1326 30.6386 3.01254 0.154978
  1327 30.6369 3.01810 -0.150247
  1328 45.8907 3.08116 -1.72671
  1329 45.9000 3.06909 1.73124
  1330 61.0947 0.812663 -0.523578
  1331 61.0977 0.811222 0.523154
  1332 -1.96423 -0.962441 -2.23425
  1333 -1.96441 -0.961704 2.23589
  1334 -19.9039 0.101910 1.02389
  1335 -19.9125 0.101825 -1.02306
  1336 -3.41626 -1.60020 -5.56138
  1337 -3.41533 -1.59326 5.55758
  1338 -12.0837 0.338536 0.448590
  1339 -12.0904 0.338144 -0.448198
  1340 -30.3259 0.298272 0.184437
  1341 -30.3344 0.298251 -0.184273
  1342 116.383 -16.3941 19.2791
  1343 80.0821 -0.666895 -10.6858
</Section>

newXOutput 15

<Section columns = "stress_xx | stress_yy | stress_xy">
  1 110.294 -0.0854201 0.0996481
  2 110.308 -0.0854692 -0.0996988
  3 -35.1994 0.195022 -0.470790
  4 0.0572540 0.0171033 0.100010
  5 205.099 48.6790 62.1926
  6 231.581 55.8680 -59.2024
  7 0.0570702 0.0169248 -0.0997684
  8 -35.1897 0.195036 0.470784
  9 109.938 -0.0759586 -0.359587
  10 110.006 -0.267978 -0.595906
  11 111.057 -0.257059 -0.145930
  12 111.132 -0.226425 -0.676515
  13 111.331 -0.213346 -0.182941
  14 113.708 -0.222180 -0.264772
  15 114.475 -0.355694 -0.904574
  16 115.244 -0.129711 -0.603362
  17 115.669 0.172493 -1.16689
  18 120.473 -0.565955 -1.00211
  19 122.426 -0.405022 -1.31025
  20 124.510 -0.673419 -0.425779
  21 125.378 -0.943558 -0.178268
  22 123.948 -1.13454 1.89100
  23 118.956 -1.31577 3.83942
  24 107.659 -1.58753 8.00192
  25 89.9519 0.725530 9.23789
  26 74.9998 0.806951 8.73013
  27 54.6162 2.08889 5.30414
  28 58.4849 2.04000 0.342078
  29 47.3210 6.21914 -3.44971
  30 70.4128 2.76703 -9.30018
  31 83.5818 0.569986 -7.66323
  32 105.159 -0.406157 -6.62841
  33 117.236 -1.59620 -4.56258
  34 123.633 -1.32734 -1.89286
  35 125.030 -0.908633 0.177394
  36 124.261 -0.662984 0.384436
  37 122.301 -0.408881 1.26192
  38 120.406 -0.575351 0.972893
  39 115.647 0.166780 1.15142
  40 115.239 -0.131882 0.596978
  41 114.480 -0.356941 0.901675
  42 113.717 -0.222813 0.263272
  43 111.342 -0.213668 0.182122
  44 111.144 -0.226724 0.676283
  45 111.070 -0.257248 0.145761
  46 110.019 -0.268096 0.595996
  47 109.951 -0.0759995 0.359644
  48 103.640 0.434401 -0.126362
  49 95.5740 0.368472 -0.300136
  50 85.5629 0.0666377 -0.328100
  51 75.2568 0.724848 -0.272909
  52 66.3050 0.697895 -0.221054
  53 56.7889 1.01699 -0.264804
  54 47.4593 1.48994 -0.177794
  55 37.8366 1.37238 -0.338786
  56 29.8984 1.06527 -0.461540
  57 19.5375 0.790176 -0.485835
  58 9.06036 0.934965 -0.366619
  59 0.344163 0.761892 -0.353809
  60 -10.4878 0.486245 -0.329867
  61 -18.5372 0.0379726 -0.755243
  62 -26.3216 -0.463256 -0.350913
  63 -34.1837 0.0964178 0.214276
  64 -35.8426 0.621258 -0.112691
  65 -35.9154 0.287438 0.0710458
  66 -34.7006 0.159319 -0.0773590
  67 -34.9481 0.407591 -0.460959
  68 -34.3306 0.487946 -0.0954867
  69 -32.4151 0.163285 -0.694255
  70 -32.6317 0.298732 -0.738773
  71 -31.7304 0.286345 -0.440326
  72 -29.3236 0.187831 -0.640019
  73 -28.0962 0.315766 -1.01915
  74 -26.3253 0.346657 -0.853382
  75 -23.2254 0.179415 -1.41915
  76 -21.4669 0.0547161 -1.18822
  77 -18.3655 0.0788551 -1.35599
  78 -15.6757 0.0513424 -1.48378
  79 -13.3614 0.0143764 -1.17041
  80 -10.1861 0.0651290 -1.17535
  81 -7.46134 -0.0359274 -1.25014
  82 -4.82830 -0.140923 -1.08669
  83 -2.75253 -0.122563 -0.826023
  84 -1.33797 -0.209618 -0.685166
  85 -0.200111 -0.120757 -0.238055
  86 0.0321981 -0.130790 -0.0803422
  87 -0.0714159 -0.0565347 -0.00808698
  88 -0.188550 -0.150934 -0.207531
  89 -0.182513 -1.12762 -0.593126
  90 -0.158651 -2.55748 -0.855426
  91 -0.0843217 -4.41117 -1.25371
  92 -0.0460192 -6.79560 -1.08298
  93 -0.0449535 -9.01109 -1.36493
  94 -0.171254 -11.7463 -1.54955
  95 -0.0695029 -15.1020 -1.57525
  96 0.0331636 -18.4848 -1.51480
  97 0.0747072 -22.1223 -1.49961
  98 0.111132 -25.8784 -1.48369
  99 0.0192886 -28.7143 -2.01609
  100 0.204685 -32.6722 -1.81093
  101 0.242896 -37.3314 -1.48313
  102 0.0185239 -39.5717 -1.97521
  103 0.345536 -43.1637 -1.85976
  104 0.812258 -47.9746 -1.05572
  105 1.56903 -49.6657 -1.67005
  106 1.01710 -46.7808 0.495463
  107 1.31869 -37.5590 3.41250
  108 8.32946 -26.2956 11.6613
  109 27.2921 25.0912 45.0351
  110 318.830 15.9976 30.3886
  111 272.671 5.20165 11.2742
  112 263.912 2.14120 2.45448
  113 262.159 0.961696 -0.422081
  114 263.790 3.15050 -5.96478
  115 271.345 9.22838 -13.1335
  116 309.153 31.3170 -38.3668
  117 64.0924 18.9693 -55.2873
  118 13.5072 -25.8434 -14.7425
  119 3.92027 -41.0266 -5.11069
  120 1.05773 -44.4940 -0.593511
  121 1.24856 -47.9284 1.09381
  122 0.370859 -46.1856 0.868442
  123 0.152029 -42.1005 1.62849
  124 0.153452 -39.4552 1.30266
  125 0.206670 -35.3602 2.07226
  126 -0.00960906 -32.9365 1.98079
  127 0.0821566 -29.6877 1.43427
  128 0.151969 -25.5584 1.79149
  129 0.0257872 -22.6231 1.42255
  130 0.0463037 -18.5226 1.79401
  131 -0.184792 -15.2804 1.53743
  132 -0.133856 -11.7581 1.50298
  133 -0.0336272 -8.96432 1.36917
  134 -0.0585520 -6.75771 1.08597
  135 -0.0827935 -4.39845 1.24197
  136 -0.156521 -2.55554 0.851269
  137 -0.181584 -1.12922 0.592690
  138 -0.188360 -0.152508 0.207897
  139 -0.0714167 -0.0572371 0.00854558
  140 0.0313656 -0.130931 0.0807847
  141 -0.201756 -0.120735 0.238665
  142 -1.34074 -0.209502 0.685902
  143 -2.75649 -0.122254 0.826385
  144 -4.83206 -0.140539 1.08651
  145 -7.46368 -0.0356119 1.24927
  146 -10.1867 0.0651884 1.17430
  147 -13.3595 0.0144764 1.16935
  148 -15.6715 0.0514262 1.48265
  149 -18.3585 0.0787880 1.35489
  150 -21.4577 0.0546177 1.18729
  151 -23.2148 0.179277 1.41839
  152 -26.3133 0.346485 0.852916
  153 -28.0836 0.315600 1.01890
  154 -29.3107 0.187739 0.640007
  155 -31.7176 0.286266 0.440434
  156 -32.6192 0.298656 0.738919
  157 -32.4032 0.163253 0.694464
  158 -34.3192 0.487907 0.0957620
  159 -34.9370 0.407581 0.461147
  160 -34.6902 0.159331 0.0775309
  161 -35.9052 0.287442 -0.0709132
  162 -35.8326 0.621240 0.112787
  163 -34.1740 0.0964271 -0.214199
  164 -26.3127 -0.463121 0.350952
  165 -18.5290 0.0382237 0.755259
  166 -10.4804 0.486682 0.329960
  167 0.350074 0.762587 0.353878
  168 9.06508 0.935963 0.366680
  169 19.5407 0.791517 0.485894
  170 29.9000 1.06682 0.461555
  171 37.8371 1.37405 0.338785
  172 47.4584 1.49160 0.177727
  173 56.7868 1.01850 0.264671
  174 66.3014 0.699170 0.220878
  175 75.2519 0.725718 0.272664
  176 85.5561 0.0672123 0.327818
  177 95.5650 0.368615 0.299954
  178 103.628 0.434365 0.126281
  179 27.1807 5.21653 -0.184446
  180 27.1742 5.21918 0.206925
  181 -0.967250 0.585186 8.66911
  182 -0.994214 0.585799 -8.66710
  183 63.6231 -0.978972 -13.3125
  184 63.6080 -1.11496 13.4726
  185 12.0636 2.29995 0.665100
  186 11.9201 2.36268 -0.649129
  187 8.04643 1.95282 -1.72844
  188 8.05192 1.95403 1.73131
  189 60.7948 1.69870 -1.76649
  190 60.8016 1.69042 1.76547
  191 -2.08798 2.57756 5.00584
  192 -2.10108 2.58139 -5.00418
  193 70.7274 2.29373 -4.92007
  194 70.7604 2.25668 4.92065
  195 -2.87099 -2.52605 6.54181
  196 -2.86869 -2.53910 -6.54745
  197 0.462894 -6.32818 -8.18442
  198 21.0597 -0.193142 -11.5313
  199 0.605178 -6.74638 8.01770
  200 20.7168 -0.000783946 11.7647
  201 100.730 -14.6728 -19.5586
  202 104.485 -15.2621 18.6656
  203 35.1607 1.71538 -0.0274124
  204 35.1607 1.71226 0.0283350
  205 -7.30988 0.626160 -1.07946
  206 -7.30262 0.626753 1.08040
  207 -8.61396 1.21048 6.58899
  208 -8.62719 1.21332 -6.59383
  209 35.2978 3.81026 -0.396878
  210 35.3012 3.80373 0.403676
  211 10.2136 4.47904 4.03408
  212 10.1778 4.50726 -4.03343
  213 -11.4741 1.23218 -2.94321
  214 -11.4637 1.23155 2.94454
  215 81.9834 0.534563 0.906125
  216 81.9775 0.536547 -0.907738
  217 2.37881 -12.0423 4.11104
  218 2.59135 -11.0215 -3.77687
  219 -0.831783 -7.08223 7.44706
  220 -0.843151 -7.33060 -7.20245
  221 32.4329 4.85741 -4.58870
  222 32.4155 4.87620 4.65879
  223 -7.53065 -0.0851200 6.45963
  224 -7.53820 -0.0852920 -6.46541
  225 87.7283 0.903687 -2.81907
  226 87.7349 0.892833 2.80998
  227 93.9825 -1.04265 -5.45296
  228 94.0462 -1.14956 5.40940
  229 148.730 12.0662 -0.388216
  230 136.498 14.6505 11.1069
  231 136.002 -2.66848 -15.0473
  232 15.3464 3.98209 2.33387
  233 15.3396 3.98297 -2.32584
  234 0.387413 2.99855 6.90471
  235 0.367163 3.00759 -6.90546
  236 104.916 -6.37483 -3.04249
  237 104.281 -6.46264 3.36273
  238 57.4609 1.03248 -0.594094
  239 57.4638 1.02973 0.593536
  240 -13.6753 0.950216 4.47302
  241 -13.6873 0.951958 -4.47426
  242 -1.79625 -1.77155 -2.89071
  243 -1.79523 -1.77114 2.89325
  244 -15.6800 0.487254 1.56083
  245 -15.6891 0.487029 -1.55965
  246 46.6240 4.01470 -2.90730
  247 46.6383 3.99791 2.92178
  248 59.6724 2.15484 -7.39344
  249 59.7317 2.10993 7.42867
  250 13.2273 1.31056 -0.319173
  251 13.2313 1.31199 0.320138
  252 33.8152 -2.14183 -26.6569
  253 40.3046 -0.952558 29.3656
  254 4.12758 1.77877 6.77860
  255 4.10964 1.82672 -6.79574
  256 144.185 -13.2877 -0.209231
  257 11.2987 4.78733 3.48531
  258 11.2833 4.79570 -3.47626
  259 33.0484 3.26547 -9.37039
  260 32.9986 3.35969 9.50523
  261 160.025 21.1473 -4.74663
  262 95.1447 0.405513 3.81762
  263 95.1317 0.441003 -3.84347
  264 -0.883456 -5.36710 -4.58095
  265 -0.861485 -5.39037 4.60044
  266 -0.218344 -12.9215 -6.43719
  267 0.353389 -15.4218 -6.18058
  268 0.171919 -15.2870 6.37250
  269 -2.56426 -2.25547 8.55564
  270 -2.57239 -2.24890 -8.58243
  271 4.69991 -13.5302 -0.879529
  272 5.04149 -12.6323 1.65644
  273 -5.53284 -0.485093 4.03103
  274 -5.53387 -0.486911 -4.03342
  275 66.8110 2.37457 -2.97387
  276 66.8251 2.35736 2.97131
  277 118.055 -12.8470 0.667172
  278 24.7615 2.64305 -0.559388
  279 24.7627 2.64628 0.562540
  280 -0.341508 -12.1043 6.13960
  281 1.30996 2.60714 3.42317
  282 1.30042 2.60865 -3.41971
  283 189.806 13.7650 -3.88876
  284 92.7010 0.365242 1.13848
  285 92.6945 0.367766 -1.14163
  286 60.2815 -3.54718 -20.3082
  287 60.8765 -3.49233 20.6717
  288 117.879 -12.1472 -2.64828
  289 -11.5001 0.331209 5.14206
  290 -11.5087 0.331691 -5.14634
  291 116.000 -11.9636 33.8822
  292 -5.36270 0.726132 7.87394
  293 -5.37645 0.726788 -7.88168
  294 18.3937 5.10876 -0.253184
  295 18.3286 5.15955 0.287755
  296 -21.9964 0.261590 0.303385
  297 -22.0052 0.261449 -0.303082
  298 97.3042 -1.38234 -46.7550
  299 -20.0459 0.435532 -2.46656
  300 -20.0342 0.434970 2.46672
  301 -0.788231 -2.76158 8.89062
  302 -0.519594 -2.71787 -8.83085
  303 41.4978 4.61914 -4.29850
  304 41.5117 4.60787 4.33784
  305 7.89471 1.42550 1.29139
  306 7.88970 1.42417 -1.28968
  307 43.5050 2.22683 -0.692874
  308 43.5077 2.22146 0.694001
  309 3.78504 -4.00137 5.30933
  310 3.44730 -4.64704 -5.33572
  311 42.2212 1.27469 -0.114317
  312 42.2216 1.27250 0.114395
  313 -16.1976 0.419064 3.81609
  314 -16.2081 0.419794 -3.81864
  315 10.0836 -2.14847 -1.28845
  316 9.76553 -2.15243 1.02284
  317 97.0460 0.162744 0.314307
  318 97.0368 0.163059 -0.314690
  319 214.133 12.5845 7.45174
  320 20.3529 3.25759 1.22751
  321 20.3500 3.25510 -1.22192
  322 -5.88700 1.23556 2.18713
  323 -5.89539 1.23546 -2.18512
  324 28.5500 4.39649 0.0622300
  325 28.5496 4.39240 -0.0493608
  326 2.81521 2.89361 7.23069
  327 2.79842 2.90259 -7.23716
  328 0.417340 -22.0620 4.61806
  329 -22.6150 0.131976 -0.654394
  330 -22.6057 0.132132 0.654943
  331 73.1580 0.654898 -0.584692
  332 73.1625 0.653446 0.583965
  333 77.0861 0.963190 -1.55226
  334 77.0921 0.957891 1.54899
  335 -20.8649 0.418648 -1.84438
  336 -20.8542 0.418532 1.84519
  337 -1.90285 0.620162 0.310247
  338 -1.90909 0.619483 -0.309795
  339 -0.461526 -8.82699 4.59313
  340 -0.369271 -9.17856 -4.58685
  341 85.9327 -7.48323 -13.5189
  342 89.4339 -8.93403 13.2359
  343 50.5694 3.01747 -1.74935
  344 50.5772 3.00658 1.75187
  345 21.4876 5.35069 0.309986
  346 21.4599 5.37050 -0.282719
  347 -8.94512 1.62821 4.10996
  348 -8.95666 1.63016 -4.10915
  349 163.846 -0.170847 0.875410
  350 7.96987 -15.2823 -7.89450
  351 8.53085 -14.5455 8.36451
  352 -4.16988 2.47951 6.42296
  353 -4.18566 2.48477 -6.42448
  354 -4.66155 -1.01501 7.52910
  355 -4.66977 -1.01566 -7.53832
  356 185.038 29.0628 -5.40367
  357 116.158 -2.47715 17.2048
  358 110.272 -2.39824 -2.23909
  359 110.119 -2.34437 2.02709
  360 76.0611 -0.657920 -8.54695
  361 75.9839 -0.751227 8.54200
  362 0.141221 -26.5535 -3.79527
  363 101.449 0.495003 -2.17242
  364 101.448 0.484495 2.15848
  365 1.24379 -25.3275 3.24520
  366 113.032 8.76291 -10.0514
  367 27.1372 1.41488 0.475049
  368 27.1353 1.41319 -0.474761
  369 76.7085 0.948290 -6.35819
  370 76.7627 0.894366 6.35703
  371 83.3512 1.10184 -3.91737
  372 83.3653 1.07787 3.90469
  373 -2.94232 1.14735 1.54572
  374 -2.94949 1.14670 -1.54400
  375 46.4415 2.58940 -9.87907
  376 46.4749 2.61136 9.99228
  377 100.106 0.164743 0.519436
  378 100.097 0.165341 -0.520462
  379 54.9045 3.47510 -4.84588
  380 54.9332 3.44569 4.86599
  381 64.2225 1.49358 1.20327
  382 64.2178 1.49798 -1.20471
  383 -3.09737 -0.572807 2.46048
  384 -3.09633 -0.574022 -2.45988
  385 -0.727380 -0.519370 -0.699122
  386 -0.727808 -0.519759 0.700243
  387 132.677 -18.1780 7.38908
  388 -1.80276 -4.29227 6.82839
  389 -1.79138 -4.32490 -6.82584
  390 20.1053 1.78853 -0.790821
  391 20.1079 1.79089 0.792711
  392 -0.665935 -3.28338 2.46709
  393 -0.673037 -3.27705 -2.46686
  394 7.12649 3.86822 3.83717
  395 7.11467 3.87258 -3.83132
  396 108.627 -0.215451 2.82780
  397 108.630 -0.169258 -2.89663
  398 -0.383858 -6.77895 8.39576
  399 -8.96528 -0.181292 3.84615
  400 -8.96843 -0.181805 -3.84941
  401 -0.417598 -7.13627 -8.29794
  402 102.322 0.244593 1.37874
  403 102.318 0.247847 -1.38426
  404 -1.51462 2.08914 7.96984
  405 -1.54030 2.09788 -7.97563
  406 74.5470 1.56928 -2.52419
  407 74.5552 1.55865 2.51909
  408 114.949 -4.97413 -3.39391
  409 115.491 -3.96145 2.64127
  410 -0.255506 -12.0624 -5.05699
  411 9.50854 3.38832 -3.25882
  412 9.58619 3.34200 3.25888
  413 110.518 7.46404 6.38962
  414 63.7825 -4.68372 -28.4499
  415 65.6237 -5.92034 29.8966
  416 2.93200 3.59230 5.48975
  417 2.91568 3.59949 -5.48680
  418 46.9806 1.80838 -0.472704
  419 46.9825 1.80476 0.472767
  420 45.4210 3.22445 45.5790
  421 18.0508 4.71487 -1.99669
  422 18.0603 4.71101 2.00897
  423 1.04103 -12.1590 6.01810
  424 -0.147939 -19.6878 -4.45530
  425 6.71828 4.30549 5.28851
  426 6.69707 4.31759 -5.28529
  427 8.15786 2.77243 -2.45888
  428 8.16459 2.77258 2.46316
  429 -3.54316 -0.329068 -8.60466
  430 -3.52930 -0.334132 8.59531
  431 21.8862 4.15811 -3.10300
  432 21.7992 4.22925 3.16451
  433 114.541 -4.00283 -12.8664
  434 2.83957 -1.70246 7.15154
  435 2.73736 -1.66047 -7.18200
  436 83.2670 -3.49128 -9.45528
  437 83.6475 -3.76882 9.42433
  438 -21.6186 0.193713 -2.34161
  439 -21.6068 0.193219 2.34087
  440 0.00484204 -19.2522 3.98561
  441 -0.145670 -12.1896 4.49501
  442 -8.88057 0.513727 6.59615
  443 -8.89044 0.514233 -6.60184
  444 59.6761 1.00056 -0.188464
  445 59.6788 0.998742 0.188065
  446 -1.84771 -2.91368 4.59054
  447 -1.84973 -2.91906 -4.58410
  448 36.1332 1.20700 -14.5473
  449 36.0811 1.39090 14.7564
  450 0.306257 -23.6687 -4.55112
  451 213.924 8.34355 0.311407
  452 0.553370 -28.5579 -2.98224
  453 -26.0512 0.0637089 -0.919052
  454 -26.0409 0.0638065 0.919626
  455 -10.1969 1.35590 5.55700
  456 -10.2100 1.35870 -5.55943
  457 -11.3054 0.152468 3.88426
  458 -11.3106 0.152609 -3.88753
  459 39.8016 4.53717 -2.69647
  460 39.8116 4.52841 2.72109
  461 61.2553 2.92885 -3.76020
  462 61.2770 2.90409 3.76471
  463 -1.21467 -4.16781 8.64809
  464 -1.21529 -4.13904 -8.68152
  465 105.183 1.22198 -16.2703
  466 6.79645 -2.82360 -2.32841
  467 6.56130 -2.88091 2.44952
  468 1.58620 -26.4760 0.532206
  469 0.988571 -30.4122 -1.21810
  470 -3.34499 -1.51992 4.73288
  471 -3.34499 -1.52463 -4.73333
  472 21.8375 -5.91344 -22.6834
  473 167.981 -3.89110 -13.2120
  474 36.2011 2.85705 0.499354
  475 36.1988 2.86301 -0.495655
  476 52.9440 0.304687 -14.2110
  477 53.0983 0.284266 14.4615
  478 14.8436 5.55218 2.66170
  479 14.8220 5.56801 -2.64875
  480 47.7394 3.80301 -7.09905
  481 47.7768 3.77473 7.16608
  482 1.33892 0.643280 8.20772
  483 1.44608 0.697346 -8.19544
  484 -22.9502 0.374759 -1.79367
  485 -22.9386 0.374581 1.79412
  486 107.853 -13.1035 -7.07259
  487 86.4499 0.373576 -0.444962
  488 86.4568 0.372979 0.444568
  489 3.14939 0.874234 -0.733688
  490 3.15502 0.875249 0.734693
  491 -6.36220 2.05700 5.31046
  492 -6.37566 2.06047 -5.31063
  493 -13.6637 0.880006 -2.05871
  494 -13.6541 0.879903 2.06011
  495 36.1627 4.04476 -0.884584
  496 36.1673 4.03676 0.894562
  497 -5.07282 1.67078 7.27308
  498 -5.08943 1.67560 -7.27826
  499 98.9103 -2.56667 -4.95860
  500 99.0648 -2.72043 4.85046
  501 63.7098 0.860391 -9.37681
  502 63.6278 0.799391 9.46632
  503 22.8177 1.52460 -0.481526
  504 22.8201 1.52662 0.482397
  505 0.181128 -12.3058 -7.17858
  506 115.402 -4.48712 10.6191
  507 1.38700 -8.49260 -6.79074
  508 31.6660 5.35454 2.57039
  509 31.6749 5.34571 -2.52716
  510 106.657 -12.2646 6.94251
  511 7.57114 -14.6219 11.3449
  512 127.859 -18.2639 -14.6284
  513 86.5973 0.719552 4.69547
  514 86.5695 0.763123 -4.71291
  515 0.151152 -10.5847 7.47013
  516 -1.68793 -0.510417 -1.30253
  517 -1.68901 -0.510350 1.30373
  518 9.17258 0.881684 -0.254503
  519 9.17726 0.882774 0.254903
  520 -0.300468 -6.75853 2.93000
  521 -0.272614 -6.72547 -2.94384
  522 71.2819 1.16040 0.996629
  523 71.2773 1.16292 -0.997959
  524 204.659 33.8153 11.9740
  525 7.77310 -6.50575 -1.30121
  526 6.01528 -8.27900 0.0578316
  527 -3.19865 1.69964 -2.84905
  528 -3.18967 1.69910 2.85146
  529 -17.6918 0.283276 2.35673
  530 -17.7003 0.283576 -2.35849
  531 0.168571 -22.1100 4.48302
  532 -25.8349 0.280313 0.298985
  533 -25.8442 0.280234 -0.298627
  534 21.0012 -3.63944 -16.3758
  535 20.5098 -3.21154 17.0896
  536 19.1460 2.85648 -4.85336
  537 19.0022 2.95552 4.91041
  538 -4.81011 -1.05733 6.54526
  539 -4.81480 -1.06062 -6.55206
  540 18.5685 2.15292 0.878572
  541 18.5656 2.15057 -0.875882
  542 -11.6307 0.630977 0.974054
  543 -11.6389 0.630608 -0.972965
  544 22.2022 3.75068 1.15595
  545 22.1994 3.74849 -1.14762
  546 -0.474228 -1.51465 1.11020
  547 -0.475738 -1.51303 -1.10988
  548 7.77323 3.33575 4.95927
  549 7.72299 3.38888 -4.96837
  550 6.28909 0.499240 4.52288
  551 6.19659 0.490245 -4.56717
  552 88.2337 0.956529 1.99530
  553 88.2277 0.961781 -2.00027
  554 77.4974 1.45469 3.11047
  555 77.4865 1.47035 -3.11783
  556 -0.0804974 -18.3794 -2.74548
  557 53.4348 3.19766 -2.75181
  558 53.4477 3.18196 2.75689
  559 53.7445 1.75024 -0.925300
  560 53.7486 1.74488 0.925074
  561 -8.87205 0.452165 -0.0569377
  562 -8.86493 0.452615 0.0572023
  563 87.6464 5.16289 -3.12479
  564 122.274 -16.5504 -4.35047
  565 96.6783 4.24093 12.4962
  566 0.723756 -16.4354 -5.48944
  567 -6.39331 1.83800 -3.62680
  568 -6.38272 1.83667 3.62863
  569 0.719243 -9.67277 7.20795
  570 -5.67308 0.0675073 7.60584
  571 -5.68376 0.0678913 -7.61285
  572 155.039 15.0475 -1.88879
  573 34.3287 2.09612 -0.0893360
  574 34.3290 2.09233 0.0908780
  575 242.908 20.0589 -19.6946
  576 -1.45220 -1.15918 9.00480
  577 -1.37947 -1.09800 -9.01422
  578 129.308 -12.6011 7.20948
  579 104.834 0.307566 -2.43712
  580 104.828 0.291174 2.41462
  581 46.3184 -0.979101 -20.8953
  582 46.9238 -1.10593 21.2802
  583 -2.79309 -2.70162 7.60187
  584 -2.79433 -2.71360 -7.61792
  585 23.8727 1.23903 10.3577
  586 24.0722 1.03905 -10.2404
  587 -20.8611 0.249969 -2.25592
  588 -20.8499 0.249610 2.25481
  589 152.643 10.9129 12.3010
  590 27.7548 3.06062 -0.392543
  591 27.7551 3.06465 0.396902
  592 32.9144 4.03570 -6.89559
  593 32.8825 4.08573 6.99755
  594 94.0346 0.134540 -4.64586
  595 94.0685 0.0781808 4.61809
  596 -0.466935 -9.80784 -6.87308
  597 103.546 0.0202879 0.718379
  598 103.537 0.0210554 -0.719794
  599 -16.2358 0.424136 -0.419078
  600 -16.2275 0.424411 0.419684
  601 -27.6657 -0.129550 0.0284293
  602 -27.6749 -0.129630 -0.0283125
  603 2.00802 -15.5881 -3.14292
  604 -0.998895 -6.30162 5.81099
  605 -1.05337 -5.97027 -5.84996
  606 -12.0177 0.711398 5.53095
  607 -12.0282 0.712744 -5.53502
  608 70.9504 2.19679 3.87143
  609 70.9324 2.22097 -3.87577
  610 51.8397 1.15384 0.230530
  611 51.8381 1.15562 -0.230653
  612 11.1370 -4.84823 6.03083
  613 11.5252 -4.60455 -5.95451
  614 -0.375427 -4.70185 2.46579
  615 -0.386164 -4.68572 -2.47341
  616 123.965 3.74873 49.5228
  617 -6.06625 -0.197209 2.29705
  618 -6.06512 -0.197964 -2.29825
  619 1.95846 -9.55922 -5.68393
  620 50.5725 2.52233 -1.30324
  621 50.5777 2.51464 1.30415
  622 24.0322 5.26250 -1.53546
  623 23.9942 5.29232 1.58004
  624 0.255697 -33.9313 2.09429
  625 17.7661 5.33063 1.90812
  626 17.7524 5.33935 -1.89344
  627 -3.02521 2.26304 4.34483
  628 -3.03672 2.26545 -4.34278
  629 -0.147517 -16.2820 3.75663
  630 -27.2522 0.0700244 -0.904478
  631 -27.2413 0.0700338 0.904972
  632 32.6903 1.33629 -0.104899
  633 32.6911 1.33873 0.105515
  634 85.9935 0.597050 1.29113
  635 85.9874 0.599823 -1.29367
  636 74.7218 -6.98067 37.8133
  637 60.0194 1.98914 -2.19788
  638 60.0283 1.97788 2.19746
  639 0.653262 -1.67385 8.50690
  640 0.854675 -1.11785 -8.51454
  641 96.6908 -11.3800 -30.3798
  642 236.048 8.40219 -8.21591
  643 -24.7163 0.0409636 -1.58705
  644 -24.7040 0.0407372 1.58683
  645 4.45382 1.53130 -1.50331
  646 4.45968 1.53229 1.50540
  647 -0.481483 -10.3109 6.03224
  648 130.445 6.70483 -16.1176
  649 102.466 -0.0352069 0.112731
  650 102.455 -0.0351101 -0.112845
  651 -6.62477 -0.393580 -5.39427
  652 -6.62072 -0.392377 5.38967
  653 -0.0133714 -23.2663 -3.66717
  654 104.283 -0.0682146 0.273544
  655 104.272 -0.0680581 -0.273845
  656 8.29272 3.43886 3.30386
  657 8.28360 3.44073 -3.29817
  658 77.3292 -7.30248 -19.6651
  659 78.8485 -7.28884 19.9147
  660 115.647 -0.589860 1.57597
  661 115.720 -0.579269 -1.66569
  662 0.496021 -29.6729 3.02439
  663 -7.68172 0.388815 -0.579774
  664 -7.67461 0.389335 0.580419
  665 36.9262 -1.89397 -35.3035
  666 34.0874 1.24463 0.197340
  667 34.0884 1.24641 -0.197176
  668 15.9992 1.64431 0.502135
  669 15.9957 1.64245 -0.500658
  670 19.3391 2.61251 -0.841015
  671 19.3419 2.61515 0.844979
  672 66.0701 2.25878 -5.97642
  673 66.1154 2.21605 5.98911
  674 16.6909 5.03284 1.29511
  675 16.6471 5.06777 -1.27572
  676 -13.0481 0.985575 -3.34987
  677 -13.0370 0.984488 3.35063
  678 -14.8799 1.02028 -3.73653
  679 -14.8681 1.01893 3.73628
  680 118.380 -1.71124 -0.752068
  681 -0.0527980 -5.19484 -8.53520
  682 118.679 -1.79618 0.552443
  683 148.230 12.0764 0.908683
  684 -14.9697 0.0655380 2.66685
  685 -14.9762 0.0656532 -2.66909
  686 14.4880 4.01082 0.327614
  687 14.3874 4.06894 -0.303624
  688 -29.3445 0.0659011 -0.362779
  689 -29.3343 0.0659584 0.363168
  690 0.0183324 -4.72356 8.57803
  691 -9.50158 0.0970231 5.74726
  692 -9.50938 0.0971466 -5.75224
  693 129.486 -11.8909 -7.74255
  694 19.0585 0.888721 -0.0459566
  695 19.0554 0.887332 0.0462980
  696 3.44273 2.12478 2.37586
  697 3.43559 2.12443 -2.37272
  698 67.0835 -3.40302 -16.2861
  699 67.6509 -3.53752 16.6424
  700 245.896 17.0455 18.1674
  701 4.27487 -25.4402 -6.48759
  702 -1.84642 -3.82255 8.17102
  703 -1.85132 -3.83488 -8.18498
  704 13.1723 3.47086 -2.05533
  705 13.1782 3.47128 2.06124
  706 107.175 -0.0423764 -0.740181
  707 107.183 -0.0431820 0.738080
  708 49.4257 1.33719 0.310525
  709 49.4239 1.34005 -0.310710
  710 3.41438 3.59510 6.53943
  711 3.39398 3.60661 -6.53985
  712 1.18823 1.19745 1.06615
  713 1.18219 1.19654 -1.06481
  714 -3.35206 0.554501 8.53314
  715 -3.36985 0.557109 -8.54422
  716 87.3894 0.258168 0.528325
  717 87.3825 0.259128 -0.529243
  718 75.0829 1.08443 1.44825
  719 75.0775 1.08816 -1.45045
  720 9.42369 -8.57404 7.48534
  721 9.72662 -9.04028 -7.18433
  722 -6.29746 1.21288 7.44776
  723 -6.31209 1.21551 -7.45444
  724 2.82872 -8.10336 4.73228
  725 -0.265476 2.04518 8.08600
  726 -0.292921 2.05351 -8.08714
  727 -17.6757 0.555623 -2.26383
  728 -17.6650 0.555274 2.26471
  729 12.0116 4.38143 3.23701
  730 11.9994 4.38622 -3.22807
  731 116.048 -3.64883 -7.34465
  732 110.056 -9.85226 -1.61471
  733 -1.83187 -3.73416 5.70306
  734 -1.82855 -3.74990 -5.69405
  735 41.4075 -1.74176 -24.7018
  736 40.2759 -0.781618 25.0088
  737 24.8298 4.76963 -2.89128
  738 24.7762 4.81745 2.95297
  739 1.98124 -4.84088 7.17761
  740 -0.169064 -11.9746 -3.23843
  741 53.2632 3.31045 -5.37640
  742 53.2994 3.28135 5.40900
  743 0.152278 -23.7090 3.04240
  744 31.2038 4.78766 -0.813506
  745 31.2042 4.78346 0.832002
  746 112.302 0.0410964 -1.85616
  747 112.275 0.0251031 1.82116
  748 2.06756 -34.0309 -0.0561265
  749 48.9634 4.11037 3.93192
  750 48.9435 4.13071 -3.91153
  751 12.6370 4.47521 -2.49551
  752 12.6984 4.42579 2.50178
  753 -20.4094 0.137344 -1.88591
  754 -20.3995 0.137132 1.88461
  755 54.8632 1.44190 -0.851077
  756 54.8663 1.43816 0.850594
  757 33.0275 5.14614 -2.07208
  758 33.0262 5.14600 2.10416
  759 -0.544170 3.00395 6.39067
  760 -0.561557 3.01116 -6.39055
  761 110.408 -8.39521 0.295600
  762 -18.3913 0.473122 1.74361
  763 -18.4012 0.473086 -1.74261
  764 245.337 43.4290 -30.5638
  765 -7.78750 0.846937 1.91318
  766 -7.79571 0.846540 -1.91155
  767 94.4654 0.590100 3.32449
  768 94.4594 0.611472 -3.34370
  769 175.283 11.7504 0.468601
  770 107.868 -0.168230 -1.42511
  771 107.869 -0.171247 1.41861
  772 67.6794 1.44978 1.77758
  773 67.6736 1.45593 -1.77984
  774 101.590 -12.9401 27.6423
  775 43.1079 3.68864 -1.16998
  776 43.1150 3.67883 1.17608
  777 0.927406 -18.7824 4.22081
  778 116.906 -15.6305 7.98788
  779 70.7503 0.630327 0.316339
  780 70.7461 0.631543 -0.316632
  781 93.8704 0.294198 0.170403
  782 93.8618 0.294443 -0.170578
  783 -0.445192 -9.58865 -5.62678
  784 0.516758 -16.7677 5.79129
  785 40.6023 4.77661 5.46954
  786 40.5892 4.78222 -5.40966
  787 244.765 2.87959 1.94013
  788 71.2239 0.948617 -7.58331
  789 71.2856 0.897364 7.59873
  790 -15.5262 0.519093 4.18969
  791 -15.5378 0.520277 -4.19161
  792 2.80377 -14.3125 2.02758
  793 1.85082 -32.0192 -1.26360
  794 164.415 20.9550 -0.231276
  795 -0.150537 -11.9316 2.92085
  796 2.77791 2.09460 7.45408
  797 2.77189 2.09626 -7.47604
  798 20.7675 4.59402 1.40468
  799 20.7621 4.59487 -1.39348
  800 109.836 -4.93181 -1.06516
  801 109.956 -4.89887 0.615250
  802 131.384 12.6927 -46.6818
  803 -18.9937 0.299234 -0.868892
  804 -18.9845 0.299434 0.869760
  805 -8.33911 -0.0418960 2.17428
  806 -8.33919 -0.0421781 -2.17593
  807 7.36193 -0.121727 3.10564
  808 7.20472 -0.131565 -3.11031
  809 82.6224 -0.145819 6.85939
  810 82.5557 -0.0609200 -6.85585
  811 41.3395 1.59223 -0.0395562
  812 41.3404 1.58929 0.0398658
  813 134.186 -3.53643 14.9695
  814 12.8898 2.56393 -1.81124
  815 12.8946 2.56542 1.81546
  816 12.3721 0.958121 -0.886955
  817 12.2602 1.02804 0.929765
  818 -0.135458 -9.74005 -7.74261
  819 193.388 24.8580 23.7481
  820 -28.4275 0.0533000 -0.890528
  821 -28.4157 0.0532573 0.890885
  822 -0.0417564 -29.0850 2.93790
  823 1.73316 -4.76825 -7.23203
  824 -4.11097 -0.259837 1.60105
  825 -4.10848 -0.260385 -1.60118
  826 152.418 6.77847 -11.7899
  827 38.2540 4.27687 -1.45488
  828 38.2610 4.26792 1.47004
  829 104.416 -1.26250 -3.42551
  830 104.488 -1.28718 3.34971
  831 -27.0434 0.229619 1.15681
  832 -27.0557 0.229727 -1.15671
  833 -0.181064 -0.188307 -0.149438
  834 -0.181418 -0.188651 0.150008
  835 0.104014 -29.7715 -2.90024
  836 0.144517 -31.7055 -2.76296
  837 -30.3598 0.322152 0.195732
  838 -30.3693 0.322124 -0.195566
  839 14.9463 -7.82772 -15.5416
  840 64.0799 1.24779 -0.465910
  841 64.0834 1.24568 0.465186
  842 -3.53094 0.751587 0.247786
  843 -3.53739 0.750990 -0.247606
  844 96.5439 0.538763 -2.22898
  845 96.5476 0.531098 2.21947
  846 -10.9898 0.0738917 2.07542
  847 -10.9917 0.0739216 -2.07715
  848 56.9387 -1.99060 -37.8492
  849 99.7027 -8.68885 7.10432
  850 78.6638 0.739551 -0.644781
  851 78.6692 0.738084 0.643686
  852 98.7080 -9.48154 -8.03718
  853 29.7405 3.82051 0.0483416
  854 29.7413 3.81523 -0.0392910
  855 41.6976 3.26022 -0.820199
  856 41.7022 3.25251 0.824084
  857 116.185 -2.53713 5.59159
  858 6.34309 4.04419 5.62118
  859 6.31885 4.06052 -5.62340
  860 5.94216 0.797282 0.533767
  861 5.93700 0.796229 -0.533088
  862 54.1213 1.17990 0.370371
  863 54.1191 1.18213 -0.370687
  864 145.163 -15.7498 14.0064
  865 90.2447 0.858251 -2.87254
  866 90.2521 0.843924 2.85977
  867 0.0413533 1.57756 1.89257
  868 0.0343102 1.57698 -1.89030
  869 90.8215 0.181939 0.790712
  870 90.8143 0.183029 -0.792101
  871 -18.1921 0.224178 -0.485945
  872 -18.1839 0.224416 0.486079
  873 -0.0859154 -9.10657 2.59300
  874 -0.111078 -9.24888 -2.61405
  875 106.403 -1.82284 12.9211
  876 -7.17983 1.65584 6.39586
  877 -7.19434 1.65983 -6.39902
  878 -0.0400056 -15.0661 -2.88617
  879 41.7530 2.05251 -0.379630
  880 41.7544 2.04863 0.380326
  881 77.7929 -4.02832 -12.3304
  882 78.4420 -4.46610 12.4580
  883 -3.58693 -1.33787 -8.22395
  884 -3.57459 -1.33987 8.21166
  885 3.46794 3.71228 6.03984
  886 3.44912 3.72169 -6.03782
  887 0.389786 -35.2308 2.18560
  888 0.465503 2.77983 7.47625
  889 0.443190 2.78875 -7.47780
  890 71.6900 -1.21044 -10.9241
  891 71.5481 -1.28763 11.0136
  892 124.290 5.97087 16.5180
  893 27.6275 3.59017 -0.354339
  894 27.6278 3.59476 0.360836
  895 92.8978 0.883143 -2.16962
  896 92.9028 0.876684 2.16269
  897 -3.74997 -1.68533 7.15968
  898 -3.75477 -1.69035 -7.16957
  899 0.307570 -36.7259 -1.67012
  900 -5.75861 -0.451498 7.05658
  901 -5.76625 -0.451660 -7.06358
  902 2.56398 3.45102 -4.82164
  903 2.57764 3.44574 4.82512
  904 -0.287780 -2.25655 1.25699
  905 -0.290882 -2.25398 -1.25871
  906 6.87933 3.88217 -4.46937
  907 6.89413 3.87565 4.47512
  908 1.37532 -3.27592 7.95204
  909 1.17152 -3.05266 -8.29566
  910 89.0913 -2.32949 6.91882
  911 88.8670 -2.19048 -6.98165
  912 -30.8449 0.124093 -0.286933
  913 -30.8350 0.124149 0.287192
  914 -2.50880 -0.233224 1.19519
  915 -2.50619 -0.233538 -1.19459
  916 0.127105 -21.4786 -2.65296
  917 -2.75895 -1.19977 -3.42941
  918 -2.75894 -1.19732 3.43065
  919 -12.0634 0.980478 5.38448
  920 -12.0754 0.982547 -5.38763
  921 26.6629 5.48547 -0.684321
  922 26.6513 5.49558 0.712791
  923 115.293 9.54956 -3.08772
  924 -2.19764 2.71749 5.81488
  925 -2.21266 2.72264 -5.81431
  926 42.6943 2.54463 -11.1364
  927 42.7171 2.58268 11.2911
  928 -6.16948 1.94748 4.70441
  929 -6.18182 1.95039 -4.70368
  930 145.215 -9.13438 -5.15940
  931 81.6868 3.29124 7.07814
  932 102.520 -1.59265 -11.6910
  933 78.0063 1.46887 -4.65154
  934 78.0314 1.43540 4.64291
  935 -9.45875 1.24957 -2.43625
  936 -9.44940 1.24920 2.43797
  937 -19.4489 0.372884 2.74657
  938 -19.4607 0.373542 -2.74703
  939 -1.15346 -3.68593 -3.98773
  940 -1.14646 -3.69073 3.99624
  941 26.4694 2.20074 -0.257389
  942 26.4704 2.20389 0.259585
  943 -9.17067 0.874091 6.59632
  944 -9.18219 0.875503 -6.60192
  945 94.9000 0.209289 1.06312
  946 94.8926 0.210569 -1.06501
  947 -0.749361 -8.17942 6.12236
  948 2.43934 3.22143 -4.19228
  949 2.45090 3.21808 4.19599
  950 3.60470 2.35766 2.88152
  951 3.59668 2.35804 -2.87798
  952 14.8150 1.84334 -0.947290
  953 14.8187 1.84516 0.949284
  954 179.142 18.9035 -0.624441
  955 -0.675375 -0.192618 -0.462505
  956 -0.676814 -0.192666 0.463375
  957 5.46993 1.19746 -5.42410
  958 5.56469 1.14232 5.41537
  959 62.3609 2.96783 -4.70085
  960 62.3899 2.93655 4.70929
  961 6.88728 2.92374 -2.83144
  962 6.89521 2.92316 2.83602
  963 16.6394 -9.45000 21.3730
  964 120.310 -0.758226 -0.792102
  965 120.049 -0.728061 0.663207
  966 20.0113 -5.08659 18.2350
  967 20.7643 1.34862 0.109062
  968 20.7615 1.34698 -0.108449
  969 56.2505 -3.72428 -32.6359
  970 42.4356 1.22261 0.220240
  971 42.4354 1.22439 -0.220203
  972 5.07215 -6.86340 2.29537
  973 5.60757 -5.93986 -1.87049
  974 107.135 -0.0226322 0.370810
  975 107.124 -0.0224479 -0.371201
  976 -8.85410 0.00463949 5.17937
  977 -8.85961 0.00450515 -5.18374
  978 191.190 23.5107 8.45800
  979 -0.918125 -6.30352 -8.18724
  980 0.775938 -33.2528 2.32459
  981 -0.212186 -9.92279 7.59307
  982 110.550 0.0547602 -1.45482
  983 110.544 0.0503395 1.44470
  984 -1.46630 -2.66990 3.43553
  985 -1.46960 -2.66884 -3.43112
  986 134.409 13.4613 -10.2800
  987 248.854 2.57896 -1.30578
  988 -0.354865 -0.516115 -0.503370
  989 -0.354543 -0.517195 0.504087
  990 62.8528 1.20374 -0.971366
  991 62.8565 1.20066 0.970373
  992 -0.953441 -6.07932 8.24207
  993 88.2282 0.775928 4.22104
  994 88.2126 0.807981 -4.23877
  995 115.637 -7.96259 -6.03795
  996 -4.09070 -0.879326 3.89711
  997 -4.09073 -0.882105 -3.89792
  998 1.66028 -8.36827 6.33906
  999 -0.220214 -14.7479 5.95205
  1000 -0.0150661 -14.9390 2.87819
  1001 114.697 8.05101 -0.587702
  1002 133.630 14.6392 6.52020
  1003 96.5590 -11.7616 -14.7803
  1004 1.25717 -14.9972 5.19543
  1005 1.62932 -21.8348 1.82626
  1006 25.6507 1.08148 0.145121
  1007 25.6485 1.07995 -0.144971
  1008 -1.08211 -1.23112 -1.62026
  1009 -1.08144 -1.23177 1.62182
  1010 0.805002 -12.3069 -6.65771
  1011 78.5724 0.489563 -0.236097
  1012 78.5778 0.488708 0.235740
  1013 14.7648 -1.35252 -6.02842
  1014 14.1122 -1.31178 5.97314
  1015 -2.06714 2.31814 7.44939
  1016 -2.08790 2.32585 -7.45354
  1017 -10.0642 1.47063 -4.67655
  1018 -10.0518 1.46831 4.67624
  1019 58.4450 0.997818 -11.1032
  1020 58.5028 1.03456 11.2407
  1021 41.6212 3.82658 -7.34974
  1022 41.6327 3.81932 7.44043
  1023 45.5515 3.82299 -2.19710
  1024 45.5615 3.80935 2.20604
  1025 120.337 -4.09794 -15.6837
  1026 -3.70083 1.38337 8.01672
  1027 -3.72001 1.38764 -8.02562
  1028 85.5666 0.260746 5.70660
  1029 85.5233 0.325666 -5.72180
  1030 -0.734026 -4.87853 8.68810
  1031 -7.01064 -0.253440 3.78420
  1032 -7.01204 -0.254345 -3.78698
  1033 77.7556 1.12456 -5.63815
  1034 77.7934 1.07803 5.63142
  1035 92.6350 1.93772 -11.1547
  1036 -0.160557 -14.7073 -6.25444
  1037 -1.22945 -5.81821 7.28656
  1038 -1.27781 -5.87794 -7.22090
  1039 54.1004 3.65227 -3.70008
  1040 54.1219 3.62931 3.71246
  1041 69.2654 1.73231 2.22458
  1042 69.2579 1.74100 -2.22776
  1043 115.405 -7.77390 5.31782
  1044 4.22513 0.859220 -0.152740
  1045 4.23052 0.860083 0.152939
  1046 97.7778 -13.1803 15.7990
  1047 -2.04825 0.632609 0.670261
  1048 -2.05461 0.631826 -0.669519
  1049 19.9946 5.46465 1.11632
  1050 19.9755 5.47850 -1.09609
  1051 7.04218 4.27605 4.87878
  1052 7.02447 4.28526 -4.87360
  1053 0.996390 -18.5560 -4.37699
  1054 27.1097 1.48372 -0.289133
  1055 27.1110 1.48638 0.290468
  1056 78.6359 2.82294 2.89104
  1057 79.1137 1.01227 2.13076
  1058 79.1071 1.01960 -2.13534
  1059 -0.657314 -5.03889 -8.69921
  1060 119.388 -1.47709 -2.95088
  1061 -0.361227 -0.735198 8.80749
  1062 -0.275936 -0.655183 -8.77561
  1063 110.091 -0.113317 -0.797625
  1064 110.096 -0.114308 0.794673
  1065 117.017 -0.296282 -1.38780
  1066 116.947 -0.313458 1.33860
  1067 -0.0901636 -22.6718 2.18224
  1068 67.1923 2.19903 -2.97323
  1069 67.2022 2.18542 2.97020
  1070 82.5398 1.13746 2.52628
  1071 82.5326 1.14649 -2.53273
  1072 1.30486 1.68290 8.12279
  1073 1.29972 1.68626 -8.12258
  1074 180.363 12.7650 1.25071
  1075 -2.54832 -1.20921 8.84745
  1076 -2.57706 -1.18687 -8.86416
  1077 24.2784 5.24700 0.605702
  1078 24.2731 5.24892 -0.589758
  1079 -15.7628 0.409883 -0.934085
  1080 -15.7543 0.410213 0.934901
  1081 40.5928 1.92827 -12.9139
  1082 40.5586 2.04956 13.1072
  1083 11.0135 4.81568 4.02815
  1084 10.9935 4.82733 -4.01984
  1085 27.2475 2.61220 -9.06778
  1086 27.1139 2.75930 9.17755
  1087 -0.796448 -7.67110 -5.95782
  1088 97.8762 1.01154 14.2727
  1089 69.8927 -2.68309 42.9040
  1090 10.3632 4.85287 4.17263
  1091 10.3377 4.87005 -4.16638
  1092 41.5562 2.74251 -0.557179
  1093 41.5596 2.73603 0.559559
  1094 156.415 -2.12067 7.15891
  1095 9.16970 1.94808 3.14552
  1096 9.05277 1.98440 -3.17153
  1097 -4.68556 -1.06237 5.22008
  1098 -4.68722 -1.06646 -5.22346
  1099 -0.154678 -3.37621 1.37819
  1100 -0.160447 -3.37371 -1.38347
  1101 102.441 0.181575 3.46223
  1102 102.431 0.226360 -3.50295
  1103 0.0241962 -7.70481 8.19298
  1104 -7.28515 0.379135 -7.12806
  1105 -7.27502 0.378846 7.12174
  1106 0.0417160 -27.7024 -2.85740
  1107 -1.81885 -2.51818 8.82944
  1108 -1.81522 -2.47122 -8.83686
  1109 98.4135 0.354254 -1.45955
  1110 98.4196 0.351438 1.45559
  1111 100.740 -0.473323 4.07257
  1112 100.693 -0.402509 -4.11677
  1113 16.4472 3.27415 -2.17613
  1114 16.3243 3.35703 2.22190
  1115 -0.256490 -14.2703 -5.00114
  1116 133.174 -15.1954 -24.2556
  1117 173.278 19.2233 -2.81021
  1118 1.61482 -23.1328 -1.23692
  1119 5.41451 3.23750 -6.28618
  1120 5.44423 3.21621 6.26923
  1121 15.2555 5.24415 2.45306
  1122 15.2258 5.26598 -2.43910
  1123 33.4273 2.50238 -0.0742917
  1124 33.4264 2.50710 0.0769041
  1125 -2.30767 -3.28780 6.78401
  1126 -2.30327 -3.31604 -6.79170
  1127 -7.06579 1.99081 5.94911
  1128 -7.07992 1.99470 -5.95064
  1129 -2.94388 2.45187 6.92068
  1130 -2.96181 2.45822 -6.92323
  1131 95.3841 -4.81183 -6.64693
  1132 96.0364 -4.87638 6.56030
  1133 0.0566399 -16.6757 -6.00317
  1134 49.6285 -0.633534 -16.5813
  1135 49.7395 -0.469500 16.9068
  1136 15.1251 4.98461 -2.49637
  1137 15.1372 4.97768 2.50784
  1138 51.7206 15.5384 48.1658
  1139 11.5551 4.09468 3.07575
  1140 11.5453 4.09747 -3.06812
  1141 131.439 -15.8722 -4.29605
  1142 48.4398 1.85461 0.518691
  1143 48.4371 1.85909 -0.518493
  1144 -2.26448 -2.02910 4.09732
  1145 -2.26497 -2.03300 -4.09463
  1146 -2.72257 -2.45727 5.33223
  1147 -2.72114 -2.46572 -5.33096
  1148 84.8629 -9.65115 -23.9570
  1149 86.7841 -10.5474 24.1544
  1150 13.9311 0.947258 0.0350196
  1151 13.9350 0.948588 -0.0343805
  1152 52.4833 2.59466 -8.81982
  1153 52.5062 2.55244 8.92650
  1154 117.718 -17.1712 17.8252
  1155 106.349 -0.139537 0.221416
  1156 106.337 -0.139416 -0.221521
  1157 -10.0948 1.51017 5.28993
  1158 -10.1078 1.51278 -5.29134
  1159 -17.0384 0.577097 -2.84165
  1160 -17.0273 0.576575 2.84232
  1161 25.5224 -3.13820 27.8104
  1162 75.9152 5.47642 -5.82869
  1163 48.0038 3.86096 -4.01850
  1164 48.0274 3.84075 4.04673
  1165 155.057 -8.49657 25.7998
  1166 48.7515 3.62048 -6.25529
  1167 48.7827 3.59231 6.30469
  1168 11.1063 1.93214 -1.27790
  1169 11.1109 1.93382 1.28033
  1170 4.00959 -18.3853 1.65645
  1171 4.06197 -18.0471 -2.74262
  1172 66.5360 -5.55754 -24.1258
  1173 67.5328 -5.24622 24.1451
  1174 25.2722 3.83730 -5.96288
  1175 25.1728 3.93227 6.05241
  1176 119.069 -8.54500 -10.5342
  1177 -4.61408 -0.488051 8.01801
  1178 -4.62540 -0.486823 -8.02646
  1179 -0.202330 -6.91067 -8.40339
  1180 29.0887 -0.623510 -17.1346
  1181 29.1751 -0.504214 17.4825
  1182 -0.0783886 -6.01575 1.54470
  1183 -0.0666885 -6.02954 -1.56289
  1184 -29.5627 0.260505 -0.827406
  1185 -29.5504 0.260436 0.827612
  1186 96.1383 0.191239 -0.374055
  1187 96.1468 0.190737 0.373263
  1188 57.8364 2.64181 -2.36045
  1189 57.8482 2.62774 2.36178
  1190 -2.47586 -0.227014 8.91004
  1191 -2.48239 -0.193333 -8.92436
  1192 0.0198598 -24.5578 -2.44533
  1193 -24.9250 0.0676125 1.28754
  1194 -24.9371 0.0677688 -1.28799
  1195 17.7799 -2.24224 -11.5106
  1196 17.6383 -2.12660 11.9356
  1197 110.941 -6.84949 0.601651
  1198 30.2893 0.912258 -15.3309
  1199 30.3248 1.02721 15.5263
  1200 -13.6340 0.0698009 1.89619
  1201 -13.6379 0.0697981 -1.89785
  1202 0.332136 -22.1601 -4.40008
  1203 -5.40967 1.05208 -1.25868
  1204 -5.40242 1.05268 1.26004
  1205 15.4924 4.32103 2.48000
  1206 15.4834 4.32329 -2.47053
  1207 61.9605 0.814518 -0.341403
  1208 61.9635 0.813021 0.341212
  1209 84.5274 0.770045 1.62578
  1210 84.5214 0.774622 -1.62953
  1211 4.13972 -1.29747 5.54787
  1212 4.07822 -1.36932 -5.62033
  1213 0.669555 -12.9377 6.60460
  1214 150.789 19.2991 8.92495
  1215 -4.67465 -0.380406 2.95166
  1216 -4.67390 -0.381791 -2.95244
  1217 0.518781 -12.1062 -6.84089
  1218 -0.462381 -7.13816 4.33678
  1219 -0.436701 -7.08295 -4.49592
  1220 120.080 -1.27150 2.63453
  1221 0.113569 -28.1998 2.51977
  1222 0.713983 -9.00821 -7.61941
  1223 12.7819 0.804240 0.200280
  1224 12.7778 0.803101 -0.200113
  1225 -1.28292 -5.29482 8.06947
  1226 -14.2883 0.847026 -2.47758
  1227 -14.2781 0.846697 2.47879
  1228 253.368 4.65620 6.82669
  1229 -7.29751 0.744800 7.26067
  1230 -7.30964 0.745858 -7.26728
  1231 56.2710 2.52656 -7.99024
  1232 56.3354 2.47226 8.04556
  1233 3.39038 -6.67600 -3.99668
  1234 53.7299 3.26709 -2.98342
  1235 53.7464 3.24835 2.99118
  1236 2.07812 -18.4807 -1.83448
  1237 -1.28473 -5.29984 -8.04830
  1238 -10.5744 0.538923 1.56044
  1239 -10.5827 0.538499 -1.55915
  1240 -4.49632 0.179611 -8.26086
  1241 -4.48279 0.179070 8.25329
  1242 114.120 8.93667 11.9587
  1243 65.4679 1.02652 -8.63828
  1244 65.5589 0.991808 8.66034
  1245 -31.2417 0.0983329 -0.339427
  1246 -31.2308 0.0983547 0.339753
  1247 59.3347 1.95069 -1.62609
  1248 59.3399 1.94423 1.62508
  1249 -32.3386 -0.504096 -0.0783984
  1250 -32.3480 -0.504152 0.0784378
  1251 88.7652 -6.42329 -9.86879
  1252 -14.4757 0.232833 4.08245
  1253 -14.4847 0.233279 -4.08566
  1254 89.7248 -6.78034 9.77611
  1255 60.2018 2.71274 -3.41872
  1256 60.2173 2.69308 3.42063
  1257 6.75015 -21.8442 -11.4802
  1258 0.124199 -20.1163 -5.17389
  1259 -0.478089 -8.52007 7.57950
  1260 196.431 26.5096 -23.0747
  1261 -0.0536618 -18.7302 4.97903
  1262 203.085 19.0187 -10.3351
  1263 -0.0814875 -34.5825 -2.43383
  1264 8.18246 1.28011 -0.579705
  1265 8.18731 1.28141 0.581043
  1266 -0.0895026 -7.73666 1.62047
  1267 -0.0732464 -7.77623 -1.61480
  1268 32.8197 1.31468 -0.135951
  1269 32.8207 1.31667 0.136276
  1270 120.618 -9.77400 10.0936
  1271 1.01943 1.15803 -1.46139
  1272 1.02570 1.15889 1.46301
  1273 0.703988 -39.0124 1.50377
  1274 0.448116 -41.3700 -1.47238
  1275 110.929 -14.6559 -10.2307
  1276 -0.322470 -10.2466 4.82238
  1277 113.629 6.73769 -14.6480
  1278 -0.348767 -13.5063 4.75556
  1279 0.223613 -37.5398 -1.99601
  1280 55.1329 2.09641 -1.68108
  1281 55.1399 2.08634 1.68160
  1282 -0.0355031 -19.9640 2.14848
  1283 -0.0574621 -16.7578 -4.87501
  1284 273.399 43.5679 38.5341
  1285 106.884 0.165569 0.177209
  1286 106.872 0.165548 -0.177201
  1287 2.34961 -0.249848 7.50598
  1288 2.26937 -0.136355 -7.53130
  1289 -2.08611 1.36050 8.49987
  1290 -2.11828 1.36609 -8.51052
  1291 111.042 -2.20566 -8.33793
  1292 103.801 -4.23262 -3.57945
  1293 103.665 -4.84944 3.57977
  1294 14.1535 2.15936 1.35628
  1295 14.1494 2.15733 -1.35304
  1296 -17.7256 0.486708 -3.29189
  1297 -17.7138 0.485837 3.29082
  1298 115.891 -17.2732 -14.9254
  1299 -0.876783 -2.09756 2.12579
  1300 -0.879853 -2.09537 -2.12443
  1301 121.711 -5.90156 14.7783
  1302 -1.33119 -4.93910 5.84454
  1303 -1.31700 -4.95606 -5.81706
  1304 -12.1410 0.866640 1.84093
  1305 -12.1500 0.866511 -1.83952
  1306 17.4267 1.13312 -5.37267
  1307 17.2470 1.24370 5.38209
  1308 27.6588 1.24892 0.302886
  1309 27.6571 1.24690 -0.302358
  1310 -12.4514 1.21206 5.16193
  1311 -12.4637 1.21406 -5.16404
  1312 99.9611 0.444283 0.275852
  1313 99.9509 0.444288 -0.275873
  1314 53.1179 -2.12591 32.3730
  1315 80.8582 0.558986 0.569286
  1316 80.8524 0.559976 -0.569970
  1317 52.1416 1.02090 -12.5324
  1318 52.1731 0.952174 12.6651
  1319 0.480717 -22.6923 -3.46716
  1320 19.5949 4.61241 -1.62758
  1321 19.5170 4.67291 1.67514
  1322 -0.187028 -0.183104 -0.254427
  1323 -0.187940 -0.183208 0.255154
  1324 68.2753 2.55160 4.58663
  1325 68.2508 2.58353 -4.58704
  1326 33.0142 3.22904 0.184354
  1327 33.0125 3.23486 -0.179305
  1328 49.4237 3.30144 -1.87634
  1329 49.4337 3.28868 1.88124
  1330 65.7653 0.859948 -0.565658
  1331 65.7689 0.858440 0.565221
  1332 -2.11376 -1.03536 -2.40487
  1333 -2.11393 -1.03455 2.40661
  1334 -21.3833 0.107119 1.09665
  1335 -21.3932 0.107034 -1.09580
  1336 -3.67414 -1.71997 -5.98291
  1337 -3.67306 -1.71247 5.97875
  1338 -12.9592 0.358937 0.479980
  1339 -12.9669 0.358529 -0.479577
  1340 -32.5957 0.319901 0.197273
  1341 -32.6056 0.319883 -0.197105
  1342 125.239 -17.5877 20.8071
  1343 86.3157 -0.713150 -11.4673
</Section>

newXOutput 16

<Section columns = "stress_xx | stress_yy | stress_xy">
  1 118.032 -0.0938112 0.107048
  2 118.046 -0.0938647 -0.107103
  3 -37.6433 0.207717 -0.503717
  4 0.0612021 0.0182109 0.106950
  5 219.339 52.3707 66.6553
  6 247.668 60.0778 -63.4699
  7 0.0610034 0.0180184 -0.106689
  8 -37.6321 0.207729 0.503704
  9 117.651 -0.0837034 -0.384976
  10 117.725 -0.288841 -0.637548
  11 118.849 -0.277400 -0.156527
  12 118.930 -0.245128 -0.724493
  13 119.146 -0.231331 -0.196753
  14 121.687 -0.240070 -0.284379
  15 122.509 -0.382997 -0.968807
  16 123.336 -0.141167 -0.646698
  17 123.794 0.180622 -1.25066
  18 128.932 -0.608674 -1.07393
  19 131.025 -0.436843 -1.40352
  20 133.261 -0.723963 -0.459038
  21 134.196 -1.01258 -0.195368
  22 132.684 -1.21595 2.01480
  23 127.365 -1.40869 4.09496
  24 115.321 -1.69618 8.54095
  25 96.4246 0.779520 9.86275
  26 80.4774 0.869322 9.31733
  27 58.7253 2.23556 5.66072
  28 62.8711 2.18293 0.368652
  29 50.9294 6.65279 -3.67972
  30 75.5828 2.96207 -9.93145
  31 89.6290 0.613255 -8.18169
  32 112.656 -0.432337 -7.07668
  33 125.536 -1.70895 -4.86742
  34 132.351 -1.42240 -2.01645
  35 133.828 -0.975275 0.194702
  36 132.997 -0.712796 0.415054
  37 130.893 -0.440950 1.35208
  38 128.862 -0.618698 1.04288
  39 123.773 0.174539 1.23425
  40 123.332 -0.143478 0.639946
  41 122.515 -0.384328 0.965759
  42 121.698 -0.240745 0.282804
  43 119.158 -0.231677 0.195898
  44 118.944 -0.245449 0.724264
  45 118.863 -0.277604 0.156355
  46 117.739 -0.288970 0.637654
  47 117.665 -0.0837482 0.385043
  48 110.922 0.459895 -0.135570
  49 102.302 0.386129 -0.321374
  50 91.6011 0.0599474 -0.350550
  51 80.5822 0.762024 -0.291586
  52 71.0089 0.731802 -0.236075
  53 60.8303 1.07275 -0.282710
  54 50.8490 1.57910 -0.189359
  55 40.5522 1.45367 -0.361567
  56 32.0566 1.12626 -0.492915
  57 20.9663 0.833287 -0.518884
  58 9.75009 0.990260 -0.391654
  59 0.418099 0.807151 -0.377991
  60 -11.1805 0.514233 -0.352241
  61 -19.7998 0.0364040 -0.807781
  62 -28.1358 -0.498211 -0.375177
  63 -36.5559 0.102319 0.229663
  64 -38.3337 0.664158 -0.119869
  65 -38.4130 0.306894 0.0769378
  66 -37.1143 0.169658 -0.0817779
  67 -37.3826 0.435509 -0.492222
  68 -36.7239 0.521585 -0.100603
  69 -34.6763 0.174123 -0.741686
  70 -34.9126 0.319382 -0.789464
  71 -33.9506 0.306057 -0.469865
  72 -31.3768 0.200514 -0.683571
  73 -30.0675 0.337716 -1.08950
  74 -28.1741 0.370956 -0.911828
  75 -24.8585 0.191907 -1.51792
  76 -22.9781 0.0585431 -1.27084
  77 -19.6599 0.0843700 -1.45072
  78 -16.7827 0.0551933 -1.58794
  79 -14.3063 0.0155585 -1.25259
  80 -10.9075 0.0698044 -1.25798
  81 -7.99052 -0.0382643 -1.33824
  82 -5.17171 -0.150717 -1.16359
  83 -2.94917 -0.131108 -0.884670
  84 -1.43397 -0.224377 -0.733961
  85 -0.215142 -0.129271 -0.255199
  86 0.0340204 -0.140112 -0.0862650
  87 -0.0764831 -0.0609215 -0.00891141
  88 -0.201860 -0.162586 -0.222506
  89 -0.195413 -1.20866 -0.635420
  90 -0.169775 -2.74040 -0.916131
  91 -0.0901667 -4.72534 -1.34250
  92 -0.0491397 -7.27902 -1.15963
  93 -0.0478271 -9.65110 -1.46147
  94 -0.183247 -12.5788 -1.65889
  95 -0.0743874 -16.1712 -1.68610
  96 0.0354647 -19.7926 -1.62124
  97 0.0799277 -23.6864 -1.60484
  98 0.119007 -27.7065 -1.58756
  99 0.0202648 -30.7398 -2.15701
  100 0.218745 -34.9751 -1.93735
  101 0.259811 -39.9603 -1.58562
  102 0.0187942 -42.3522 -2.11157
  103 0.369517 -46.1901 -1.98741
  104 0.869843 -51.3297 -1.12349
  105 1.68083 -53.1252 -1.77736
  106 1.09214 -49.9986 0.550715
  107 1.42097 -40.0736 3.69628
  108 8.92176 -27.9188 12.5578
  109 29.1991 27.2790 48.2958
  110 340.851 17.1376 32.5309
  111 291.531 5.55705 12.0597
  112 282.163 2.27965 2.62913
  113 280.285 1.01674 -0.451531
  114 282.034 3.35887 -6.38006
  115 290.142 9.86607 -14.0568
  116 330.545 33.5525 -41.0803
  117 68.6092 20.6506 -59.2786
  118 14.4842 -27.4401 -15.8565
  119 4.20511 -43.7755 -5.50980
  120 1.13520 -47.5486 -0.655665
  121 1.33796 -51.2626 1.15949
  122 0.396863 -49.4125 0.922503
  123 0.162058 -45.0515 1.73889
  124 0.163921 -42.2256 1.39059
  125 0.221130 -37.8480 2.21621
  126 -0.0103333 -35.2588 2.11940
  127 0.0879016 -31.7827 1.53438
  128 0.162858 -27.3641 1.91744
  129 0.0277585 -24.2229 1.52248
  130 0.0495651 -19.8325 1.92010
  131 -0.197869 -16.3623 1.64561
  132 -0.143183 -12.5914 1.60899
  133 -0.0357327 -9.60090 1.46599
  134 -0.0625534 -7.23839 1.16280
  135 -0.0885193 -4.71170 1.32992
  136 -0.167491 -2.73834 0.911675
  137 -0.194416 -1.21038 0.634953
  138 -0.201654 -0.164283 0.222901
  139 -0.0764835 -0.0616779 0.00940561
  140 0.0331233 -0.140263 0.0867409
  141 -0.216913 -0.129247 0.255853
  142 -1.43695 -0.224250 0.734746
  143 -2.95341 -0.130774 0.885052
  144 -5.17571 -0.150304 1.16339
  145 -7.99297 -0.0379241 1.33731
  146 -10.9079 0.0698686 1.25685
  147 -14.3040 0.0156683 1.25143
  148 -16.7780 0.0552872 1.58671
  149 -19.6522 0.0842996 1.44952
  150 -22.9680 0.0584398 1.26983
  151 -24.8468 0.191760 1.51707
  152 -28.1608 0.370771 0.911298
  153 -30.0535 0.337536 1.08920
  154 -31.3625 0.200413 0.683535
  155 -33.9363 0.305969 0.469961
  156 -34.8986 0.319299 0.789598
  157 -34.6629 0.174087 0.741888
  158 -36.7109 0.521538 0.100885
  159 -37.3700 0.435492 0.492411
  160 -37.1023 0.169668 0.0819551
  161 -38.4013 0.306895 -0.0767990
  162 -38.3222 0.664131 0.119968
  163 -36.5447 0.102328 -0.229580
  164 -28.1255 -0.498062 0.375213
  165 -19.7904 0.0366669 0.807787
  166 -11.1721 0.514683 0.352332
  167 0.424822 0.807867 0.378058
  168 9.75544 0.991291 0.391712
  169 20.9699 0.834678 0.518940
  170 32.0584 1.12787 0.492925
  171 40.5527 1.45540 0.361561
  172 50.8480 1.58082 0.189286
  173 60.8278 1.07431 0.282568
  174 71.0049 0.733129 0.235887
  175 80.5766 0.762925 0.291325
  176 91.5933 0.0605500 0.350251
  177 102.292 0.386275 0.321180
  178 110.909 0.459852 0.135483
  179 29.1471 5.57887 -0.228809
  180 29.1398 5.58193 0.252662
  181 -1.02181 0.634581 9.26501
  182 -1.05084 0.635037 -9.26308
  183 68.1696 -1.04577 -14.2949
  184 68.1525 -1.19099 14.4662
  185 12.9456 2.48514 0.671225
  186 12.7916 2.55208 -0.654539
  187 8.66044 2.08163 -1.83606
  188 8.66664 2.08284 1.83905
  189 65.1200 1.80264 -1.90353
  190 65.1275 1.79391 1.90252
  191 -2.20384 2.75685 5.34159
  192 -2.21821 2.76102 -5.34002
  193 75.7565 2.44137 -5.28715
  194 75.7919 2.40208 5.28798
  195 -3.07124 -2.70137 7.00136
  196 -3.06883 -2.71540 -7.00750
  197 0.501274 -6.75858 -8.74772
  198 22.5881 -0.161294 -12.4062
  199 0.653743 -7.20580 8.56869
  200 22.2204 0.0442016 12.6554
  201 107.877 -15.6791 -20.9932
  202 111.891 -16.3086 20.0382
  203 37.6890 1.82130 -0.0392150
  204 37.6890 1.81805 0.0401930
  205 -7.78001 0.663749 -1.14932
  206 -7.77177 0.664357 1.15028
  207 -9.20625 1.29686 7.04373
  208 -9.22067 1.29990 -7.04909
  209 37.8374 4.06602 -0.445761
  210 37.8409 4.05922 0.452987
  211 10.9669 4.80240 4.28708
  212 10.9283 4.83262 -4.28675
  213 -12.2507 1.31551 -3.14008
  214 -12.2392 1.31479 3.14138
  215 87.7766 0.559467 0.973991
  216 87.7698 0.561552 -0.975666
  217 2.55478 -12.8573 4.37487
  218 2.78285 -11.7642 -4.01591
  219 -0.888513 -7.57562 7.96812
  220 -0.900877 -7.84210 -7.70672
  221 34.7731 5.20224 -4.95353
  222 34.7540 5.22254 5.02823
  223 -8.05602 -0.0892815 6.91083
  224 -8.06426 -0.0894937 -6.91713
  225 93.9266 0.955001 -3.02487
  226 93.9343 0.943500 3.01533
  227 100.638 -1.12693 -5.85508
  228 100.706 -1.24097 5.80908
  229 159.311 12.8992 -0.403697
  230 146.204 15.7090 11.7961
  231 145.624 -2.81055 -16.0190
  232 16.4743 4.25569 2.47519
  233 16.4667 4.25678 -2.46677
  234 0.439615 3.21263 7.37183
  235 0.417643 3.22232 -7.37290
  236 112.348 -6.82582 -3.28898
  237 111.669 -6.91947 3.63256
  238 61.5499 1.08920 -0.642101
  239 61.5532 1.08632 0.641530
  240 -14.6195 1.01625 4.77941
  241 -14.6328 1.01812 -4.78088
  242 -1.92279 -1.89622 -3.09538
  243 -1.92168 -1.89576 3.09807
  244 -16.7472 0.517257 1.66335
  245 -16.7576 0.517037 -1.66216
  246 49.9631 4.28500 -3.13771
  247 49.9782 4.26733 3.15319
  248 63.9341 2.29726 -7.94600
  249 63.9972 2.24963 7.98377
  250 14.2105 1.39179 -0.334618
  251 14.2150 1.39327 0.335624
  252 36.2530 -2.21315 -28.6188
  253 43.2006 -0.945739 31.5162
  254 4.43930 1.91737 7.23109
  255 4.41995 1.96870 -7.24973
  256 154.348 -14.1571 -0.309533
  257 12.1351 5.12335 3.70424
  258 12.1182 5.13243 -3.69481
  259 35.4336 3.51052 -10.0824
  260 35.3797 3.61137 10.2263
  261 171.342 22.6855 -4.97100
  262 101.867 0.422956 4.09631
  263 101.853 0.460721 -4.12360
  264 -0.945160 -5.74463 -4.90382
  265 -0.921546 -5.76947 4.92463
  266 -0.232803 -13.8252 -6.88679
  267 0.380449 -16.4903 -6.60486
  268 0.185636 -16.3504 6.81283
  269 -2.73948 -2.40864 9.15216
  270 -2.74826 -2.40172 -9.18106
  271 5.04425 -14.4282 -0.981290
  272 5.41130 -13.4661 1.81563
  273 -5.92229 -0.518618 4.31486
  274 -5.92346 -0.520576 -4.31747
  275 71.5604 2.52670 -3.19889
  276 71.5756 2.50851 3.19629
  277 126.411 -13.7357 0.661738
  278 26.5577 2.81706 -0.583356
  279 26.5592 2.82040 0.586675
  280 -0.364700 -12.9515 6.56879
  281 1.44131 2.78580 3.64716
  282 1.43073 2.78748 -3.64362
  283 203.173 14.7159 -4.20469
  284 99.2369 0.381272 1.22276
  285 99.2294 0.383939 -1.22605
  286 64.5955 -3.77927 -21.7966
  287 65.2308 -3.72067 22.1849
  288 126.224 -12.9885 -2.78140
  289 -12.3037 0.355128 5.50008
  290 -12.3131 0.355631 -5.50478
  291 124.195 -12.7294 36.3420
  292 -5.72946 0.780907 8.41960
  293 -5.74437 0.781555 -8.42807
  294 19.7326 5.47882 -0.310792
  295 19.6625 5.53323 0.347399
  296 -23.5046 0.276880 0.322706
  297 -23.5146 0.276736 -0.322397
  298 104.195 -1.37425 -50.1301
  299 -21.4370 0.464754 -2.63401
  300 -21.4240 0.464143 2.63409
  301 -0.836339 -2.94587 9.50546
  302 -0.548103 -2.89856 -9.44071
  303 44.4786 4.93804 -4.63547
  304 44.4931 4.92629 4.67743
  305 8.50016 1.51632 1.37194
  306 8.49446 1.51496 -1.37017
  307 46.6197 2.36831 -0.754703
  308 46.6225 2.36269 0.755920
  309 4.06611 -4.25781 5.65575
  310 3.70331 -4.94879 -5.68493
  311 45.2442 1.34880 -0.127271
  312 45.2447 1.34653 0.127357
  313 -17.3296 0.448405 4.08041
  314 -17.3410 0.449184 -4.08324
  315 10.8210 -2.26405 -1.42385
  316 10.4802 -2.26866 1.13868
  317 103.876 0.166295 0.337705
  318 103.866 0.166625 -0.338098
  319 229.131 13.4518 8.00798
  320 21.8371 3.47676 1.29452
  321 21.8338 3.47424 -1.28865
  322 -6.26168 1.31708 2.32958
  323 -6.27110 1.31701 -2.32753
  324 30.6135 4.69659 0.0408219
  325 30.6128 4.69243 -0.0271744
  326 3.03663 3.10532 7.71784
  327 3.01841 3.11488 -7.72509
  328 0.447756 -23.5969 4.93279
  329 -24.1704 0.138370 -0.696948
  330 -24.1599 0.138530 0.697508
  331 78.3378 0.686603 -0.628721
  332 78.3431 0.685086 0.627970
  333 82.5426 1.01704 -1.66910
  334 82.5495 1.01145 1.66570
  335 -22.3061 0.445620 -1.96809
  336 -22.2940 0.445484 1.96889
  337 -1.98786 0.656070 0.328820
  338 -1.99496 0.655369 -0.328353
  339 -0.493585 -9.44853 4.91621
  340 -0.394856 -9.82496 -4.90950
  341 92.0449 -8.00432 -14.5166
  342 95.7893 -9.55645 14.2140
  343 54.1815 3.21480 -1.89000
  344 54.1900 3.20334 1.89274
  345 23.0485 5.72894 0.296571
  346 23.0184 5.75031 -0.267695
  347 -9.54659 1.74041 4.38687
  348 -9.55934 1.74253 -4.38617
  349 175.366 -0.0798751 1.04790
  350 8.55250 -16.2731 -8.50852
  351 9.15413 -15.4806 9.01123
  352 -4.44026 2.65485 6.86007
  353 -4.45746 2.66049 -6.86192
  354 -4.98509 -1.08315 8.05553
  355 -4.99401 -1.08390 -8.06553
  356 198.070 31.1719 -5.89931
  357 124.428 -2.62805 18.3494
  358 118.060 -2.57420 -2.41256
  359 117.898 -2.51628 2.18672
  360 81.4743 -0.712599 -9.18004
  361 81.3913 -0.811930 9.17504
  362 0.151143 -28.4018 -4.05221
  363 108.597 0.521477 -2.32986
  364 108.596 0.510314 2.31515
  365 1.33359 -27.0794 3.45679
  366 121.143 9.39267 -10.6978
  367 29.1013 1.50066 0.504402
  368 29.0991 1.49891 -0.504105
  369 82.1606 1.00274 -6.82874
  370 82.2186 0.945494 6.82783
  371 89.2518 1.16586 -4.20490
  372 89.2673 1.14043 4.19160
  373 -3.10527 1.22131 1.64447
  374 -3.11338 1.22066 -1.64270
  375 49.7757 2.77469 -10.6203
  376 49.8108 2.79850 10.7412
  377 107.148 0.169238 0.557929
  378 107.138 0.169868 -0.558993
  379 58.8278 3.70782 -5.21462
  380 58.8582 3.67671 5.23619
  381 68.7842 1.58323 1.29618
  382 68.7790 1.58785 -1.29767
  383 -3.31637 -0.612867 2.63455
  384 -3.31529 -0.614178 -2.63393
  385 -0.779092 -0.556217 -0.749117
  386 -0.779546 -0.556628 0.750318
  387 142.039 -19.4105 7.97972
  388 -1.92775 -4.59130 7.30766
  389 -1.91556 -4.62634 -7.30504
  390 21.5732 1.90233 -0.834811
  391 21.5762 1.90477 0.836788
  392 -0.712717 -3.51565 2.64174
  393 -0.720333 -3.50891 -2.64151
  394 7.66812 4.13745 4.08533
  395 7.65513 4.14221 -4.07928
  396 116.286 -0.238878 3.03430
  397 116.288 -0.189651 -3.10744
  398 -0.407173 -7.24636 8.97914
  399 -9.59620 -0.193473 4.11602
  400 -9.59970 -0.194032 -4.11957
  401 -0.443326 -7.62907 -8.87468
  402 109.524 0.254671 1.47884
  403 109.518 0.258121 -1.48463
  404 -1.60313 2.24183 8.51523
  405 -1.63088 2.25113 -8.52171
  406 79.8309 1.66506 -2.71234
  407 79.8400 1.65382 2.70702
  408 123.084 -5.32491 -3.60394
  409 123.658 -4.24258 2.80260
  410 -0.272936 -12.9107 -5.41198
  411 10.2080 3.64271 -3.45420
  412 10.2915 3.59322 3.45386
  413 118.469 7.99151 6.79726
  414 68.3415 -4.97570 -30.5227
  415 70.3094 -6.29914 32.0707
  416 3.17056 3.84522 5.85531
  417 3.15277 3.85297 -5.85240
  418 50.3379 1.91995 -0.514966
  419 50.3400 1.91617 0.515049
  420 48.6773 3.59809 48.8907
  421 19.3691 5.04225 -2.11042
  422 19.3796 5.03796 2.12335
  423 1.11944 -12.9917 6.42490
  424 -0.158345 -21.0698 -4.76603
  425 7.22420 4.61194 5.63530
  426 7.20119 4.62494 -5.63216
  427 8.77741 2.96045 -2.61453
  428 8.78495 2.96051 2.61897
  429 -3.78430 -0.346945 -9.20247
  430 -3.76930 -0.352339 9.19229
  431 23.4744 4.46536 -3.36674
  432 23.3809 4.54150 3.43216
  433 122.679 -4.27723 -13.7260
  434 3.05403 -1.80454 7.63221
  435 2.94437 -1.75999 -7.66516
  436 89.1874 -3.74236 -10.1553
  437 89.5939 -4.03879 10.1226
  438 -23.1284 0.206541 -2.50246
  439 -23.1153 0.206010 2.50160
  440 0.00502885 -20.6062 4.26430
  441 -0.155691 -13.0481 4.81078
  442 -9.49794 0.551322 7.05491
  443 -9.50870 0.551840 -7.06114
  444 63.9187 1.05501 -0.204797
  445 63.9219 1.05312 0.204384
  446 -1.97718 -3.11798 4.91436
  447 -1.97938 -3.12378 -4.90752
  448 38.7381 1.31742 -15.6321
  449 38.6816 1.51393 15.8552
  450 0.328033 -25.3220 -4.86420
  451 228.902 8.90104 0.327812
  452 0.593199 -30.5340 -3.17637
  453 -27.8547 0.0658942 -0.980131
  454 -27.8430 0.0659936 0.980709
  455 -10.8964 1.45142 5.93809
  456 -10.9107 1.45443 -5.94086
  457 -12.0998 0.163452 4.15611
  458 -12.1055 0.163597 -4.15968
  459 42.6612 4.84798 -2.91663
  460 42.6716 4.83889 2.94288
  461 65.6202 3.12054 -4.04594
  462 65.6433 3.09435 4.05089
  463 -1.29552 -4.45338 9.24996
  464 -1.29623 -4.42271 -9.28584
  465 112.719 1.32796 -17.3568
  466 7.29614 -2.99164 -2.45643
  467 7.04371 -3.05310 2.58637
  468 1.70229 -28.2835 0.542304
  469 1.06169 -32.4994 -1.28026
  470 -3.57988 -1.62590 5.06649
  471 -3.57993 -1.63097 -5.06703
  472 23.4199 -6.20033 -24.3665
  473 179.777 -4.03566 -14.2552
  474 38.8034 3.04442 0.551629
  475 38.8011 3.05064 -0.547695
  476 56.7393 0.335028 -15.2630
  477 56.9034 0.313330 15.5308
  478 15.9311 5.94518 2.81835
  479 15.9077 5.96223 -2.80479
  480 51.1635 4.06724 -7.63788
  481 51.2031 4.03733 7.70945
  482 1.44863 0.699958 8.76664
  483 1.56339 0.757851 -8.75365
  484 -24.5435 0.399513 -1.91486
  485 -24.5307 0.399315 1.91527
  486 115.495 -14.0154 -7.61751
  487 92.5491 0.388614 -0.477606
  488 92.5571 0.387991 0.477203
  489 3.42023 0.926911 -0.778516
  490 3.42663 0.927957 0.779554
  491 -6.78463 2.20057 5.67067
  492 -6.79940 2.20432 -5.67104
  493 -14.5917 0.938200 -2.19470
  494 -14.5809 0.938063 2.19610
  495 38.7638 4.31761 -0.970382
  496 38.7685 4.30928 0.981001
  497 -5.41243 1.79065 7.77260
  498 -5.43049 1.79580 -7.77838
  499 105.913 -2.75611 -5.32923
  500 106.079 -2.92025 5.21445
  501 68.2594 0.915557 -10.0740
  502 68.1710 0.850787 10.1699
  503 24.4773 1.61896 -0.507682
  504 24.4800 1.62105 0.508591
  505 0.196366 -13.1593 -7.67527
  506 123.591 -4.79578 11.3268
  507 1.49162 -9.06896 -7.25120
  508 33.9508 5.73065 2.78821
  509 33.9607 5.72097 -2.74220
  510 114.216 -13.1179 7.47915
  511 8.12627 -15.5319 12.2080
  512 136.892 -19.4952 -15.7281
  513 92.7312 0.757705 5.04096
  514 92.7011 0.804029 -5.05926
  515 0.164789 -11.3169 7.98692
  516 -1.80772 -0.546417 -1.39510
  517 -1.80886 -0.546338 1.39638
  518 9.87003 0.933221 -0.269197
  519 9.87534 0.934348 0.269611
  520 -0.321498 -7.23627 3.13674
  521 -0.291696 -7.20093 -3.15161
  522 76.3332 1.22748 1.07184
  523 76.3279 1.23012 -1.07322
  524 219.027 36.2669 12.9330
  525 8.34199 -6.91927 -1.43676
  526 6.45655 -8.81863 0.101402
  527 -3.38561 1.81422 -3.03610
  528 -3.37560 1.81360 3.03854
  529 -18.9346 0.303043 2.52086
  530 -18.9440 0.303365 -2.52279
  531 0.180606 -23.6570 4.79303
  532 -27.6163 0.297767 0.317667
  533 -27.6269 0.297688 -0.317300
  534 22.5247 -3.82413 -17.6016
  535 21.9984 -3.36779 18.3658
  536 20.5376 3.08264 -5.24543
  537 20.3832 3.18843 5.30600
  538 -5.14609 -1.12960 7.00427
  539 -5.15121 -1.13316 -7.01165
  540 19.9278 2.29316 0.926501
  541 19.9245 2.29074 -0.923684
  542 -12.4078 0.670348 1.03584
  543 -12.4170 0.669975 -1.03472
  544 23.8167 4.00550 1.21471
  545 23.8134 4.00333 -1.20592
  546 -0.507671 -1.62236 1.18921
  547 -0.509292 -1.62063 -1.18888
  548 8.34865 3.58347 5.27815
  549 8.29459 3.64031 -5.28826
  550 6.75419 0.555246 4.80953
  551 6.65490 0.545576 -4.85743
  552 94.4636 1.01222 2.14146
  553 94.4566 1.01777 -2.14667
  554 82.9889 1.54302 3.34107
  555 82.9769 1.55960 -3.34877
  556 -0.0861849 -19.6760 -2.93806
  557 57.2499 3.40822 -2.96586
  558 57.2637 3.39167 2.97135
  559 57.5758 1.85756 -1.00152
  560 57.5803 1.85193 1.00132
  561 -9.45037 0.477757 -0.0591575
  562 -9.44225 0.478221 0.0594320
  563 94.0393 5.52346 -3.33391
  564 130.922 -17.6868 -4.71598
  565 103.646 4.55310 13.3255
  566 0.777951 -17.5701 -5.86166
  567 -6.81072 1.96372 -3.86882
  568 -6.79898 1.96225 3.87064
  569 0.774735 -10.3361 7.70173
  570 -6.06536 0.0751776 8.13565
  571 -6.07695 0.0755478 -8.14330
  572 166.039 16.1079 -1.95736
  573 36.7987 2.22921 -0.107848
  574 36.7990 2.22527 0.109483
  575 259.855 21.4777 -21.1247
  576 -1.54502 -1.23249 9.62783
  577 -1.46694 -1.16696 -9.63789
  578 138.449 -13.4570 7.64815
  579 112.219 0.321730 -2.61303
  580 112.214 0.304285 2.58922
  581 49.6459 -1.01710 -22.4327
  582 50.2928 -1.15352 22.8439
  583 -2.98635 -2.88789 8.13414
  584 -2.98773 -2.90078 -8.15146
  585 25.6026 1.35906 11.1455
  586 25.8168 1.14532 -11.0205
  587 -22.3216 0.267125 -2.41175
  588 -22.3091 0.266738 2.41050
  589 163.425 11.7522 13.0491
  590 29.7620 3.26403 -0.402505
  591 29.7625 3.26820 0.407111
  592 35.2892 4.32876 -7.42815
  593 35.2545 4.38242 7.53689
  594 100.687 0.132401 -4.98588
  595 100.723 0.0723849 4.95665
  596 -0.498453 -10.4925 -7.35336
  597 110.827 0.0166478 0.770644
  598 110.817 0.0174608 -0.772115
  599 -17.3374 0.449630 -0.444681
  600 -17.3280 0.449912 0.445305
  601 -29.5749 -0.140626 0.0297605
  602 -29.5854 -0.140712 -0.0296397
  603 2.15590 -16.6482 -3.33828
  604 -1.06821 -6.74363 6.21954
  605 -1.12647 -6.38877 -6.26126
  606 -12.8541 0.761888 5.91447
  607 -12.8657 0.763320 -5.91897
  608 75.9901 2.33686 4.16050
  609 75.9706 2.36247 -4.16494
  610 55.5355 1.21908 0.248972
  611 55.5337 1.22093 -0.249097
  612 11.9508 -5.13743 6.50974
  613 12.3664 -4.87605 -6.42830
  614 -0.401720 -5.03456 2.64007
  615 -0.413235 -5.01733 -2.64825
  616 132.691 4.16832 53.1111
  617 -6.49533 -0.210817 2.45901
  618 -6.49418 -0.211629 -2.46032
  619 2.10427 -10.2057 -6.06262
  620 54.1832 2.68435 -1.40935
  621 54.1888 2.67627 1.41036
  622 25.7742 5.63764 -1.68286
  623 25.7330 5.66970 1.73024
  624 0.273360 -36.2867 2.22977
  625 19.0632 5.70409 2.01294
  626 19.0482 5.71357 -1.99748
  627 -3.20503 2.41911 4.63513
  628 -3.21772 2.42174 -4.63312
  629 -0.157927 -17.4281 4.01989
  630 -29.1439 0.0734550 -0.964927
  631 -29.1316 0.0734617 0.965421
  632 35.0447 1.41579 -0.104795
  633 35.0456 1.41834 0.105443
  634 92.0651 0.627135 1.38685
  635 92.0580 0.630058 -1.38949
  636 80.0406 -7.41433 40.5517
  637 64.2920 2.11357 -2.36742
  638 64.3017 2.10171 2.36705
  639 0.710671 -1.77850 9.08965
  640 0.927013 -1.18373 -9.09713
  641 103.550 -12.1304 -32.5881
  642 252.501 8.97739 -8.81157
  643 -26.4436 0.0431018 -1.69584
  644 -26.4300 0.0428582 1.69556
  645 4.81455 1.63102 -1.59756
  646 4.82119 1.63201 1.59972
  647 -0.514614 -11.0335 6.45497
  648 139.711 7.21470 -17.1625
  649 109.668 -0.0425996 0.121354
  650 109.656 -0.0424961 -0.121469
  651 -7.08942 -0.420129 -5.77279
  652 -7.08498 -0.418823 5.76778
  653 -0.0145543 -24.9001 -3.92230
  654 111.611 -0.0770314 0.293536
  655 111.599 -0.0768644 -0.293843
  656 8.91934 3.67560 3.51584
  657 8.90924 3.67771 -3.50994
  658 82.8402 -7.80211 -21.1040
  659 84.4634 -7.78702 21.3708
  660 123.793 -0.636457 1.69319
  661 123.869 -0.625224 -1.78871
  662 0.531230 -31.7454 3.22985
  663 -8.17680 0.409892 -0.616202
  664 -8.16871 0.410430 0.616865
  665 39.5641 -1.84424 -37.8836
  666 36.5398 1.31742 0.213920
  667 36.5409 1.31927 -0.213745
  668 17.1778 1.74850 0.527716
  669 17.1738 1.74658 -0.526174
  670 20.7521 2.78556 -0.883578
  671 20.7553 2.78827 0.887742
  672 70.7771 2.40578 -6.42305
  673 70.8254 2.36045 6.43680
  674 17.9085 5.39393 1.35044
  675 17.8612 5.43140 -1.33005
  676 -13.9399 1.05244 -3.57589
  677 -13.9275 1.05125 3.57658
  678 -15.9063 1.09069 -3.99091
  679 -15.8933 1.08923 3.99052
  680 126.735 -1.83496 -0.791429
  681 -0.0505456 -5.54806 -9.12497
  682 127.051 -1.92600 0.578860
  683 158.772 12.9181 0.933819
  684 -16.0225 0.0702925 2.85302
  685 -16.0297 0.0704109 -2.85547
  686 15.5458 4.30965 0.310463
  687 15.4376 4.37179 -0.285205
  688 -31.3793 0.0690410 -0.385948
  689 -31.3676 0.0690998 0.386345
  690 0.0262998 -5.04323 9.16985
  691 -10.1653 0.104899 6.14827
  692 -10.1739 0.105012 -6.15371
  693 138.640 -12.6961 -8.21769
  694 20.4538 0.938924 -0.0522454
  695 20.4502 0.937484 0.0526034
  696 3.72920 2.26730 2.52820
  697 3.72119 2.26700 -2.52495
  698 71.8747 -3.63414 -17.4835
  699 72.4805 -3.77770 17.8645
  700 263.038 18.2463 19.4776
  701 4.58826 -27.1212 -6.99235
  702 -1.97278 -4.08613 8.74183
  703 -1.97798 -4.09943 -8.75693
  704 14.1467 3.70753 -2.18008
  705 14.1534 3.70785 2.18626
  706 114.707 -0.0492313 -0.793736
  707 114.716 -0.0500877 0.791538
  708 52.9536 1.41544 0.339297
  709 52.9515 1.41843 -0.339480
  710 3.68205 3.85304 6.97734
  711 3.65992 3.86536 -6.97809
  712 1.31989 1.27365 1.13280
  713 1.31303 1.27273 -1.13143
  714 -3.57648 0.599075 9.12304
  715 -3.59569 0.601772 -9.13511
  716 93.5548 0.265263 0.568056
  717 93.5469 0.266272 -0.569007
  718 80.3991 1.14655 1.55650
  719 80.3930 1.15047 -1.55878
  720 10.1134 -9.11182 8.06993
  721 10.4377 -9.61106 -7.74755
  722 -6.72740 1.30058 7.96244
  723 -6.74330 1.30337 -7.96979
  724 3.03870 -8.64471 5.03993
  725 -0.266420 2.19651 8.63777
  726 -0.296058 2.20535 -8.63928
  727 -18.8922 0.592254 -2.41552
  728 -18.8802 0.591865 2.41637
  729 12.9001 4.68632 3.43990
  730 12.8867 4.69157 -3.43056
  731 124.272 -3.90337 -7.82980
  732 117.850 -10.5416 -1.76872
  733 -1.95978 -3.99529 6.10439
  734 -1.95626 -4.01220 -6.09482
  735 44.3865 -1.81223 -26.5179
  736 43.1750 -0.785563 26.8449
  737 26.6288 5.11415 -3.13799
  738 26.5710 5.16542 3.20362
  739 2.13098 -5.16180 7.66274
  740 -0.180704 -12.8202 -3.46630
  741 57.0732 3.53397 -5.78639
  742 57.1117 3.50321 5.82126
  743 0.162668 -25.3777 3.25514
  744 33.4552 5.11641 -0.899619
  745 33.4554 5.11215 0.919271
  746 120.204 0.0389287 -1.98977
  747 120.176 0.0218896 1.95261
  748 2.21761 -36.3609 -0.0349378
  749 52.4682 4.38869 4.23669
  750 52.4471 4.41011 -4.21488
  751 13.5626 4.80217 -2.63620
  752 13.6287 4.74927 2.64250
  753 -21.8426 0.146895 -2.01675
  754 -21.8316 0.146670 2.01531
  755 58.7715 1.52748 -0.919353
  756 58.7750 1.52357 0.918869
  757 35.4089 5.50354 -2.25176
  758 35.4070 5.50365 2.28589
  759 -0.555787 3.21645 6.82240
  760 -0.574711 3.22420 -6.82251
  761 118.227 -8.98365 0.355458
  762 -19.6529 0.503295 1.85984
  763 -19.6641 0.503271 -1.85884
  764 262.451 46.6064 -32.8151
  765 -8.29519 0.900873 2.03822
  766 -8.30443 0.900484 -2.03656
  767 101.136 0.620691 3.56692
  768 101.129 0.643404 -3.58717
  769 187.671 12.5532 0.488246
  770 115.452 -0.184795 -1.52726
  771 115.455 -0.188006 1.52041
  772 72.4829 1.53668 1.91205
  773 72.4764 1.54315 -1.91439
  774 108.790 -13.8087 29.6530
  775 46.1974 3.93462 -1.27296
  776 46.2048 3.92434 1.27948
  777 0.995665 -20.0753 4.50032
  778 125.178 -16.7052 8.60831
  779 75.7632 0.659890 0.339818
  780 75.7584 0.661157 -0.340120
  781 100.482 0.306082 0.182984
  782 100.472 0.306337 -0.183163
  783 -0.475834 -10.2615 -6.02166
  784 0.554856 -17.9302 6.18745
  785 43.5209 5.11089 5.89312
  786 43.5073 5.11659 -5.82924
  787 261.773 3.06338 2.08165
  788 76.2954 1.00481 -8.14536
  789 76.3611 0.950441 8.16208
  790 -16.6058 0.554988 4.47858
  791 -16.6185 0.556258 -4.48077
  792 3.01059 -15.2789 2.14071
  793 1.98598 -34.2022 -1.38079
  794 176.050 22.4486 -0.334796
  795 -0.160983 -12.7744 3.12644
  796 2.99393 2.25269 7.95674
  797 2.98728 2.25437 -7.98060
  798 22.2797 4.91069 1.47808
  799 22.2736 4.91177 -1.46626
  800 117.604 -5.28406 -1.16408
  801 117.736 -5.24793 0.684941
  802 140.606 13.8011 -50.0741
  803 -20.2946 0.316796 -0.924704
  804 -20.2841 0.316999 0.925590
  805 -8.92848 -0.0446042 2.32724
  806 -8.92864 -0.0449096 -2.32904
  807 7.90348 -0.105392 3.28942
  808 7.73471 -0.115937 -3.29489
  809 88.4896 -0.166724 7.36660
  810 88.4182 -0.0763483 -7.36236
  811 44.3013 1.68891 -0.0505332
  812 44.3023 1.68584 0.0508663
  813 143.682 -3.73815 15.9352
  814 13.8458 2.73532 -1.92173
  815 13.8513 2.73681 1.92614
  816 13.2755 1.05358 -0.993402
  817 13.1553 1.12819 1.03880
  818 -0.142117 -10.4149 -8.28000
  819 206.945 26.7677 25.5463
  820 -30.4072 0.0562308 -0.950410
  821 -30.3940 0.0561841 0.950758
  822 -0.0447311 -31.1256 3.14108
  823 1.86497 -5.08488 -7.72176
  824 -4.40259 -0.277997 1.71424
  825 -4.39995 -0.278588 -1.71439
  826 163.175 7.32557 -12.5087
  827 41.0033 4.56720 -1.58380
  828 41.0106 4.55788 1.59994
  829 111.792 -1.36066 -3.67998
  830 111.871 -1.38679 3.59949
  831 -28.9309 0.244824 1.23545
  832 -28.9447 0.244945 -1.23539
  833 -0.194074 -0.201812 -0.160326
  834 -0.194454 -0.202180 0.160940
  835 0.110741 -31.8596 -3.09994
  836 0.154291 -33.9168 -2.94903
  837 -32.4609 0.343375 0.208341
  838 -32.4719 0.343349 -0.208171
  839 16.0354 -8.27912 -16.7106
  840 68.6296 1.32008 -0.503248
  841 68.6336 1.31788 0.502499
  842 -3.73084 0.796843 0.263829
  843 -3.73817 0.796230 -0.263645
  844 103.351 0.567196 -2.39061
  845 103.355 0.559065 2.38060
  846 -11.7656 0.0791202 2.22118
  847 -11.7678 0.0791514 -2.22306
  848 61.0087 -2.04000 -40.6043
  849 106.773 -9.29886 7.64407
  850 84.2259 0.778429 -0.693562
  851 84.2321 0.776894 0.692426
  852 105.711 -10.1462 -8.64358
  853 31.8883 4.07837 0.0287807
  854 31.8889 4.07291 -0.0191855
  855 44.6869 3.47543 -0.895916
  856 44.6916 3.46736 0.900067
  857 124.413 -2.71518 5.96141
  858 6.81963 4.33561 5.99058
  859 6.79340 4.35309 -5.99328
  860 6.41136 0.843706 0.566263
  861 6.40550 0.842618 -0.565562
  862 57.9769 1.24696 0.401055
  863 57.9745 1.24929 -0.401377
  864 155.383 -16.7807 15.0752
  865 96.6198 0.906990 -3.08256
  866 96.6283 0.891789 3.06913
  867 0.0885373 1.68166 2.01358
  868 0.0806053 1.68110 -2.01124
  869 97.2251 0.185033 0.849292
  870 97.2168 0.186182 -0.850733
  871 -19.4305 0.235722 -0.519044
  872 -19.4212 0.235969 0.519176
  873 -0.0917743 -9.75065 2.77588
  874 -0.118710 -9.90305 -2.79838
  875 113.995 -1.94202 13.7902
  876 -7.66670 1.77340 6.83436
  877 -7.68253 1.77767 -6.83795
  878 -0.0427365 -16.1296 -3.08904
  879 44.7442 2.18173 -0.416976
  880 44.7457 2.17768 0.417726
  881 83.3334 -4.31161 -13.2405
  882 84.0271 -4.77973 13.3772
  883 -3.83394 -1.42755 -8.79787
  884 -3.82063 -1.42963 8.78455
  885 3.74230 3.97563 6.44315
  886 3.72184 3.98575 -6.44127
  887 0.416858 -37.6921 2.33239
  888 0.520286 2.98114 7.98371
  889 0.496128 2.99066 -7.98566
  890 76.8008 -1.29917 -11.7318
  891 76.6483 -1.38113 11.8278
  892 133.137 6.42523 17.5955
  893 29.6256 3.83151 -0.358812
  894 29.6261 3.83624 0.365686
  895 99.4507 0.934542 -2.32754
  896 99.4567 0.927705 2.32026
  897 -4.01089 -1.80099 7.66139
  898 -4.01611 -1.80640 -7.67209
  899 0.329575 -39.2783 -1.77585
  900 -6.15956 -0.480842 7.54993
  901 -6.16786 -0.481049 -7.55755
  902 2.77870 3.69245 -5.14127
  903 2.79366 3.68673 5.14478
  904 -0.308023 -2.41718 1.34622
  905 -0.311349 -2.41444 -1.34807
  906 7.40079 4.15399 -4.76108
  907 7.41697 4.14693 4.76700
  908 1.48317 -3.49030 8.49396
  909 1.26436 -3.25236 -8.86296
  910 95.4132 -2.50196 7.43317
  911 95.1733 -2.35370 -7.49974
  912 -32.9837 0.131462 -0.305436
  913 -32.9723 0.131519 0.305700
  914 -2.68733 -0.249599 1.27996
  915 -2.68455 -0.249939 -1.27933
  916 0.135906 -22.9930 -2.83881
  917 -2.95330 -1.28379 -3.67181
  918 -2.95326 -1.28115 3.67310
  919 -12.8988 1.04958 5.75570
  920 -12.9120 1.05180 -5.75924
  921 28.5926 5.86969 -0.766671
  922 28.5797 5.88071 0.796891
  923 123.582 10.2184 -3.27453
  924 -2.32453 2.90827 6.20752
  925 -2.34094 2.91383 -6.20714
  926 45.7642 2.73307 -11.9710
  927 45.7879 2.77391 12.1362
  928 -6.57518 2.08245 5.02153
  929 -6.58875 2.08560 -5.02094
  930 155.455 -9.71362 -5.43240
  931 87.6474 3.52904 7.54241
  932 109.853 -1.69694 -12.4773
  933 83.5400 1.55833 -4.99525
  934 83.5671 1.52281 4.98629
  935 -10.0893 1.33341 -2.59686
  936 -10.0788 1.33298 2.59859
  937 -20.8010 0.398057 2.93415
  938 -20.8140 0.398767 -2.93475
  939 -1.23427 -3.94544 -4.26936
  940 -1.22675 -3.95053 4.27842
  941 28.3861 2.34285 -0.262352
  942 28.3874 2.34611 0.264666
  943 -9.80570 0.937047 7.05359
  944 -9.81826 0.938539 -7.05974
  945 101.585 0.215236 1.14095
  946 101.577 0.216587 -1.14292
  947 -0.801131 -8.75269 6.55203
  948 2.64775 3.44504 -4.46876
  949 2.66047 3.44138 4.47254
  950 3.90109 2.51741 3.06797
  951 3.89215 2.51790 -3.06432
  952 15.9093 1.96243 -1.00231
  953 15.9135 1.96429 1.00439
  954 191.736 20.3527 -0.808146
  955 -0.723890 -0.206238 -0.495641
  956 -0.725433 -0.206286 0.496573
  957 5.87675 1.29913 -5.77750
  958 5.97853 1.24029 5.76778
  959 66.8051 3.16311 -5.05506
  960 66.8360 3.12998 5.06422
  961 7.41558 3.12330 -3.01241
  962 7.42441 3.12258 3.01716
  963 17.8389 -9.94607 22.9559
  964 128.781 -0.815071 -0.854444
  965 128.505 -0.782701 0.717059
  966 21.4633 -5.34906 19.5991
  967 22.2796 1.43086 0.111172
  968 22.2764 1.42917 -0.110531
  969 60.2797 -3.92947 -35.0140
  970 45.4737 1.29298 0.237706
  971 45.4734 1.29483 -0.237663
  972 5.44549 -7.31107 2.42230
  973 6.02024 -6.32242 -1.96624
  974 114.660 -0.0272898 0.397805
  975 114.648 -0.0270940 -0.398204
  976 -9.47483 0.00572128 5.54208
  977 -9.48087 0.00556407 -5.54683
  978 204.652 25.1789 9.13531
  979 -0.979646 -6.73974 -8.75819
  980 0.835501 -35.4995 2.52336
  981 -0.224957 -10.6121 8.12133
  982 118.322 0.0539830 -1.55908
  983 118.317 0.0492771 1.54838
  984 -1.56928 -2.85783 3.67846
  985 -1.57284 -2.85673 -3.67378
  986 143.976 14.4360 -10.9175
  987 266.129 2.74366 -1.40131
  988 -0.379977 -0.553212 -0.539434
  989 -0.379630 -0.554370 0.540203
  990 67.3179 1.27283 -1.04621
  991 67.3222 1.26960 1.04519
  992 -1.01700 -6.49937 8.81641
  993 94.4703 0.817958 4.53045
  994 94.4531 0.852020 -4.54910
  995 123.828 -8.51743 -6.42037
  996 -4.37876 -0.940490 4.17198
  997 -4.37884 -0.943482 -4.17289
  998 1.78538 -8.93434 6.76595
  999 -0.234808 -15.7789 6.36642
  1000 -0.0161919 -15.9938 3.08061
  1001 122.948 8.60966 -0.632803
  1002 143.160 15.6821 6.90706
  1003 103.415 -12.5750 -15.8722
  1004 1.35024 -16.0269 5.54321
  1005 1.74866 -23.3264 1.92979
  1006 27.5102 1.14394 0.153291
  1007 27.5077 1.14235 -0.153135
  1008 -1.15857 -1.31818 -1.73542
  1009 -1.15784 -1.31886 1.73708
  1010 0.865687 -13.1525 -7.11142
  1011 84.1270 0.510809 -0.253981
  1012 84.1333 0.509918 0.253611
  1013 15.8402 -1.40632 -6.50703
  1014 15.1406 -1.36289 6.44715
  1015 -2.19243 2.48524 7.95792
  1016 -2.21492 2.49347 -7.96262
  1017 -10.7491 1.57281 -4.99462
  1018 -10.7355 1.57030 4.99412
  1019 62.6260 1.06745 -11.9275
  1020 62.6871 1.10731 12.0745
  1021 44.6133 4.09660 -7.90969
  1022 44.6251 4.08910 8.00649
  1023 48.8136 4.07869 -2.37449
  1024 48.8242 4.06436 2.38406
  1025 128.886 -4.36489 -16.7222
  1026 -3.94616 1.48465 8.56868
  1027 -3.96692 1.48917 -8.57846
  1028 91.6342 0.267044 6.12722
  1029 91.5876 0.336127 -6.14304
  1030 -0.780538 -5.21175 9.29094
  1031 -7.50458 -0.270678 4.05038
  1032 -7.50617 -0.271657 -4.05340
  1033 83.2761 1.19029 -6.05492
  1034 83.3168 1.14087 6.04802
  1035 99.3296 2.08640 -11.8967
  1036 -0.170566 -15.7343 -6.68964
  1037 -1.31410 -6.22362 7.79711
  1038 -1.36588 -6.28782 -7.72701
  1039 57.9653 3.89635 -3.98523
  1040 57.9882 3.87210 3.99853
  1041 74.1812 1.83940 2.39203
  1042 74.1729 1.84857 -2.39532
  1043 123.579 -8.31572 5.65284
  1044 4.57322 0.910237 -0.161919
  1045 4.57934 0.911127 0.162124
  1046 104.716 -14.0911 16.9653
  1047 -2.14430 0.669175 0.712268
  1048 -2.15152 0.668367 -0.711505
  1049 21.4496 5.84916 1.16228
  1050 21.4289 5.86414 -1.14092
  1051 7.57357 4.57782 5.19779
  1052 7.55428 4.58775 -5.19252
  1053 1.06924 -19.8338 -4.66736
  1054 29.0716 1.57480 -0.299210
  1055 29.0732 1.57756 0.300613
  1056 84.4058 3.02073 3.08122
  1057 84.7129 1.06973 2.28896
  1058 84.7054 1.07748 -2.29374
  1059 -0.698264 -5.38388 -9.30297
  1060 127.825 -1.58325 -3.14253
  1061 -0.375390 -0.776573 9.41334
  1062 -0.283977 -0.691284 -9.37908
  1063 117.825 -0.124281 -0.854990
  1064 117.831 -0.125336 0.851891
  1065 125.246 -0.320827 -1.48804
  1066 125.173 -0.339134 1.43571
  1067 -0.0964803 -24.2716 2.33524
  1068 71.9656 2.33846 -3.19600
  1069 71.9764 2.32408 3.19289
  1070 88.3781 1.20452 2.71233
  1071 88.3699 1.21407 -2.71909
  1072 1.41514 1.81043 8.67550
  1073 1.40943 1.81394 -8.67557
  1074 193.090 13.6384 1.35983
  1075 -2.72028 -1.28788 9.46218
  1076 -2.75126 -1.26401 -9.48024
  1077 26.0392 5.61060 0.619856
  1078 26.0332 5.61285 -0.602976
  1079 -16.8327 0.434077 -0.994644
  1080 -16.8230 0.434414 0.995477
  1081 43.5144 2.08051 -13.8786
  1082 43.4769 2.21030 14.0850
  1083 11.8279 5.15592 4.28403
  1084 11.8061 5.16848 -4.27542
  1085 29.2190 2.81933 -9.76116
  1086 29.0754 2.97668 9.87810
  1087 -0.851588 -8.20908 -6.37619
  1088 104.903 1.09387 15.2322
  1089 74.8688 -2.77983 46.0129
  1090 11.1293 5.19878 4.43733
  1091 11.1017 5.21722 -4.43097
  1092 44.5350 2.92070 -0.612028
  1093 44.5386 2.91392 0.614574
  1094 167.435 -2.18505 7.55209
  1095 9.84371 2.10449 3.33157
  1096 9.71817 2.14323 -3.35985
  1097 -5.01433 -1.13585 5.58724
  1098 -5.01619 -1.14026 -5.59093
  1099 -0.165505 -3.61632 1.47585
  1100 -0.171688 -3.61366 -1.48151
  1101 109.670 0.184605 3.71390
  1102 109.658 0.232321 -3.75704
  1103 0.0298848 -8.23487 8.76014
  1104 -7.79065 0.407988 -7.62427
  1105 -7.77962 0.407712 7.61735
  1106 0.0444167 -29.6490 -3.05536
  1107 -1.94055 -2.68776 9.44305
  1108 -1.93667 -2.63749 -9.45108
  1109 105.344 0.370816 -1.56556
  1110 105.351 0.367835 1.56141
  1111 107.859 -0.517057 4.37163
  1112 107.807 -0.441567 -4.41839
  1113 17.6450 3.52564 -2.37475
  1114 17.5130 3.61419 2.42331
  1115 -0.274112 -15.2729 -5.35146
  1116 142.569 -16.1780 -26.0408
  1117 185.479 20.6776 -2.87570
  1118 1.73354 -24.7100 -1.29663
  1119 5.82127 3.47518 -6.70309
  1120 5.85334 3.45244 6.68459
  1121 16.3714 5.61719 2.59318
  1122 16.3393 5.64065 -2.57856
  1123 35.8340 2.66471 -0.0644891
  1124 35.8332 2.66963 0.0672573
  1125 -2.46818 -3.51643 7.26038
  1126 -2.46352 -3.54674 -7.26872
  1127 -7.54161 2.13077 6.35521
  1128 -7.55707 2.13495 -6.35705
  1129 -3.12925 2.62648 7.39229
  1130 -3.14874 2.63328 -7.39526
  1131 102.150 -5.15538 -7.14608
  1132 102.847 -5.22367 7.05415
  1133 0.0615781 -17.8387 -6.41917
  1134 53.1910 -0.661763 -17.8062
  1135 53.3087 -0.486195 18.1539
  1136 16.2347 5.33317 -2.64490
  1137 16.2480 5.32562 2.65694
  1138 55.3712 16.9117 51.6536
  1139 12.4126 4.37801 3.26907
  1140 12.4018 4.38112 -3.26109
  1141 140.719 -16.9477 -4.66769
  1142 51.8997 1.96949 0.565790
  1143 51.8967 1.97417 -0.565558
  1144 -2.42352 -2.17129 4.38661
  1145 -2.42409 -2.17550 -4.38378
  1146 -2.91319 -2.62884 5.70775
  1147 -2.91171 -2.63792 -5.70646
  1148 90.9015 -10.3057 -25.7036
  1149 92.9523 -11.2648 25.9147
  1150 14.9644 1.00253 0.0423452
  1151 14.9688 1.00391 -0.0416763
  1152 56.2435 2.77515 -9.48157
  1153 56.2673 2.73032 9.59559
  1154 126.043 -18.3413 19.1424
  1155 113.817 -0.152702 0.237329
  1156 113.804 -0.152572 -0.237433
  1157 -10.7849 1.61578 5.65171
  1158 -10.7991 1.61859 -5.65339
  1159 -18.2125 0.615284 -3.03398
  1160 -18.2001 0.614709 3.03459
  1161 27.3713 -3.24721 29.8604
  1162 81.4880 5.86403 -6.21359
  1163 51.4428 4.12282 -4.33198
  1164 51.4678 4.10154 4.36213
  1165 165.953 -8.97274 27.7110
  1166 52.2453 3.86880 -6.73128
  1167 52.2783 3.83903 6.78406
  1168 11.9378 2.05819 -1.35501
  1169 11.9430 2.05990 1.35753
  1170 4.30382 -19.6129 1.81367
  1171 4.35994 -19.2483 -2.97960
  1172 71.2903 -5.92538 -25.8865
  1173 72.3555 -5.59207 25.9059
  1174 27.1026 4.12621 -6.43277
  1175 26.9957 4.22777 6.52813
  1176 127.510 -9.13262 -11.2215
  1177 -4.93227 -0.518610 8.57684
  1178 -4.94453 -0.517337 -8.58604
  1179 -0.212760 -7.38528 -8.98554
  1180 31.1921 -0.620163 -18.4111
  1181 31.2838 -0.493335 18.7830
  1182 -0.0838865 -6.44268 1.65391
  1183 -0.0713736 -6.45748 -1.67341
  1184 -31.6266 0.278240 -0.883364
  1185 -31.6129 0.278162 0.883553
  1186 102.906 0.196472 -0.402327
  1187 102.916 0.195944 0.401507
  1188 61.9584 2.81274 -2.54410
  1189 61.9712 2.79791 2.54560
  1190 -2.64044 -0.236295 9.52714
  1191 -2.64747 -0.200231 -9.54257
  1192 0.0208422 -26.2886 -2.61629
  1193 -26.6710 0.0720400 1.37606
  1194 -26.6844 0.0722075 -1.37658
  1195 19.0730 -2.34204 -12.3859
  1196 18.9212 -2.21822 12.8409
  1197 118.794 -7.33273 0.611674
  1198 32.4786 1.01239 -16.4754
  1199 32.5161 1.13456 16.6837
  1200 -14.5956 0.0748380 2.02908
  1201 -14.5999 0.0748327 -2.03088
  1202 0.356279 -23.6996 -4.69928
  1203 -5.74657 1.11961 -1.33906
  1204 -5.73836 1.12021 1.34045
  1205 16.6296 4.61949 2.62991
  1206 16.6197 4.62206 -2.61997
  1207 66.3621 0.856135 -0.366790
  1208 66.3655 0.854576 0.366596
  1209 90.4999 0.811797 1.74631
  1210 90.4930 0.816630 -1.75023
  1211 4.44813 -1.36697 5.91074
  1212 4.38199 -1.44417 -5.98877
  1213 0.720536 -13.8301 7.05601
  1214 161.469 20.7096 9.44141
  1215 -5.00479 -0.406813 3.15996
  1216 -5.00404 -0.408303 -3.16083
  1217 0.558658 -12.9416 -7.31056
  1218 -0.494540 -7.64104 4.64231
  1219 -0.467153 -7.58164 -4.81259
  1220 128.560 -1.36273 2.80521
  1221 0.121341 -30.1841 2.69543
  1222 0.769597 -9.62615 -8.14280
  1223 13.7347 0.849611 0.212824
  1224 13.7300 0.848431 -0.212652
  1225 -1.37037 -5.66147 8.63310
  1226 -15.2630 0.903620 -2.64321
  1227 -15.2516 0.903246 2.64441
  1228 270.961 4.96966 7.31365
  1229 -7.80107 0.799413 7.76430
  1230 -7.81427 0.800513 -7.77155
  1231 60.2960 2.69823 -8.58918
  1232 60.3644 2.64054 8.64835
  1233 3.64156 -7.11569 -4.24840
  1234 57.5671 3.48310 -3.21569
  1235 57.5847 3.46332 3.22406
  1236 2.23083 -19.7369 -1.93527
  1237 -1.37238 -5.66704 -8.61073
  1238 -11.2782 0.571474 1.66235
  1239 -11.2876 0.571046 -1.66104
  1240 -4.80411 0.196732 -8.83473
  1241 -4.78944 0.196209 8.82646
  1242 122.296 9.58241 12.7323
  1243 70.1383 1.09036 -9.27950
  1244 70.2352 1.05372 9.30321
  1245 -33.4138 0.104323 -0.361359
  1246 -33.4014 0.104344 0.361691
  1247 63.5567 2.07220 -1.75160
  1248 63.5625 2.06541 1.75059
  1249 -34.5785 -0.540598 -0.0840583
  1250 -34.5894 -0.540664 0.0841003
  1251 95.0730 -6.87658 -10.6023
  1252 -15.4891 0.249533 4.36631
  1253 -15.4989 0.250003 -4.36984
  1254 96.0986 -7.25869 10.5029
  1255 64.4906 2.88872 -3.67826
  1256 64.5073 2.86794 3.68043
  1257 7.24136 -23.2213 -12.3510
  1258 0.133090 -21.5208 -5.53158
  1259 -0.509630 -9.11285 8.10852
  1260 210.181 28.5695 -24.8498
  1261 -0.0572692 -20.0421 5.32548
  1262 217.350 20.3581 -11.1318
  1263 -0.0881857 -37.0093 -2.60132
  1264 8.80886 1.36044 -0.611926
  1265 8.81437 1.36178 0.613316
  1266 -0.0956768 -8.28535 1.73498
  1267 -0.0782662 -8.32779 -1.72895
  1268 35.1832 1.39252 -0.140453
  1269 35.1843 1.39459 0.140795
  1270 129.161 -10.4469 10.7498
  1271 1.13779 1.23187 -1.55461
  1272 1.14489 1.23274 1.55627
  1273 0.753428 -41.7152 1.59702
  1274 0.479489 -44.2418 -1.56413
  1275 118.787 -15.6669 -11.0042
  1276 -0.344774 -10.9672 5.16119
  1277 121.760 7.23735 -15.6080
  1278 -0.373413 -14.4560 5.08920
  1279 0.239606 -40.1634 -2.12957
  1280 59.0634 2.22821 -1.81457
  1281 59.0711 2.21761 1.81518
  1282 -0.0382282 -21.3732 2.29923
  1283 -0.0613470 -17.9348 -5.21609
  1284 292.404 46.7353 41.3124
  1285 114.389 0.173730 0.189694
  1286 114.375 0.173706 -0.189682
  1287 2.53028 -0.252237 8.01288
  1288 2.44405 -0.130759 -8.04022
  1289 -2.21823 1.46225 9.08420
  1290 -2.25291 1.46813 -9.09589
  1291 118.936 -2.35790 -8.89784
  1292 111.150 -4.53656 -3.85696
  1293 111.005 -5.19642 3.85880
  1294 15.2002 2.30101 1.43662
  1295 15.1955 2.29893 -1.43323
  1296 -18.9583 0.520103 -3.51763
  1297 -18.9453 0.519165 3.51637
  1298 124.092 -18.4534 -16.0379
  1299 -0.938475 -2.24587 2.27658
  1300 -0.941773 -2.24355 -2.27513
  1301 130.340 -6.29822 15.7574
  1302 -1.42381 -5.28513 6.25570
  1303 -1.40862 -5.30333 -6.22632
  1304 -12.9585 0.923194 1.96176
  1305 -12.9686 0.923085 -1.96033
  1306 18.6942 1.24421 -5.80324
  1307 18.5014 1.36244 5.81282
  1308 29.6595 1.32288 0.318187
  1309 29.6575 1.32078 -0.317636
  1310 -13.3114 1.29678 5.51684
  1311 -13.3248 1.29894 -5.51925
  1312 106.991 0.468907 0.295268
  1313 106.979 0.468907 -0.295285
  1314 56.9202 -2.22225 34.7300
  1315 86.5717 0.585568 0.611688
  1316 86.5651 0.586601 -0.612394
  1317 55.8790 1.09663 -13.4622
  1318 55.9119 1.02331 13.6039
  1319 0.515586 -24.2572 -3.69392
  1320 21.0197 4.95007 -1.78484
  1321 20.9360 5.01484 1.83533
  1322 -0.200750 -0.196082 -0.272804
  1323 -0.201731 -0.196191 0.273585
  1324 73.1310 2.71685 4.92911
  1325 73.1047 2.75068 -4.92935
  1326 35.3923 3.44340 0.216190
  1327 35.3907 3.44946 -0.210830
  1328 52.9571 3.51938 -2.02833
  1329 52.9678 3.50595 2.03361
  1330 70.4318 0.905108 -0.607991
  1331 70.4359 0.903536 0.607542
  1332 -2.26306 -1.10812 -2.57531
  1333 -2.26322 -1.10724 2.57715
  1334 -22.8554 0.111965 1.16856
  1335 -22.8666 0.111881 -1.16770
  1336 -3.93131 -1.83927 -6.40355
  1337 -3.93009 -1.83121 6.39901
  1338 -13.8270 0.378555 0.510927
  1339 -13.8358 0.378134 -0.510515
  1340 -34.8564 0.341347 0.209917
  1341 -34.8677 0.341332 -0.209744
  1342 134.082 -18.7715 22.3413
  1343 92.5593 -0.758655 -12.2431
</Section>

newXOutput 17

<Section columns = "stress_xx | stress_yy | stress_xy">
  1 125.750 -0.102499 0.114484
  2 125.767 -0.102557 -0.114542
  3 -40.0777 0.220253 -0.536551
  4 0.0651313 0.0193032 0.113863
  5 233.525 56.0901 71.1198
  6 263.697 64.3157 -67.7416
  7 0.0649176 0.0190966 -0.113581
  8 -40.0649 0.220263 0.536529
  9 125.345 -0.0917490 -0.410326
  10 125.425 -0.309927 -0.679070
  11 126.622 -0.297998 -0.167147
  12 126.710 -0.264159 -0.772425
  13 126.942 -0.249674 -0.210663
  14 129.648 -0.258221 -0.304075
  15 130.525 -0.410546 -1.03299
  16 131.409 -0.152907 -0.690065
  17 131.902 0.188206 -1.33447
  18 137.372 -0.651688 -1.14579
  19 139.605 -0.469038 -1.49675
  20 141.992 -0.774820 -0.492665
  21 142.996 -1.08181 -0.213032
  22 141.404 -1.29740 2.13713
  23 135.763 -1.50146 4.34806
  24 122.979 -1.80419 9.07572
  25 102.903 0.833819 10.4830
  26 85.9705 0.932358 9.89972
  27 62.8615 2.38194 6.01435
  28 67.2846 2.32555 0.395516
  29 54.5676 7.08507 -3.90756
  30 80.7708 3.15680 -10.5584
  31 95.6859 0.656884 -8.69633
  32 120.150 -0.458130 -7.52165
  33 133.826 -1.82151 -5.16951
  34 141.054 -1.51747 -2.13853
  35 142.607 -1.04214 0.212607
  36 141.714 -0.762923 0.446080
  37 139.466 -0.473390 1.44225
  38 137.299 -0.662336 1.11294
  39 131.880 0.181759 1.31716
  40 131.406 -0.155356 0.682958
  41 130.533 -0.411960 1.02980
  42 129.660 -0.258939 0.302430
  43 126.956 -0.250043 0.209774
  44 126.725 -0.264501 0.772201
  45 126.638 -0.298217 0.166974
  46 125.441 -0.310067 0.679193
  47 125.361 -0.0917979 0.410402
  48 118.188 0.484669 -0.144800
  49 109.017 0.402661 -0.342584
  50 97.6295 0.0517692 -0.372871
  51 85.9010 0.797300 -0.310155
  52 75.7086 0.763635 -0.250994
  53 64.8696 1.12630 -0.300483
  54 54.2386 1.66601 -0.200775
  55 43.2695 1.53278 -0.384160
  56 34.2177 1.18528 -0.524080
  57 22.3995 0.874667 -0.551715
  58 10.4454 1.04406 -0.416536
  59 0.498568 0.851223 -0.402029
  60 -11.8657 0.541349 -0.374457
  61 -21.0542 0.0342850 -0.860133
  62 -29.9411 -0.533402 -0.399334
  63 -38.9187 0.108094 0.245062
  64 -40.8156 0.706866 -0.126931
  65 -40.9016 0.326211 0.0829382
  66 -39.5192 0.179863 -0.0860490
  67 -39.8088 0.463270 -0.523263
  68 -39.1092 0.555066 -0.105492
  69 -36.9303 0.184854 -0.788827
  70 -37.1869 0.339943 -0.839875
  71 -36.1646 0.325673 -0.499147
  72 -33.4244 0.213101 -0.726834
  73 -32.0340 0.359587 -1.15952
  74 -30.0186 0.395195 -0.969938
  75 -26.4881 0.204357 -1.61634
  76 -24.4864 0.0623599 -1.35317
  77 -20.9520 0.0898696 -1.54517
  78 -17.8879 0.0590689 -1.69185
  79 -15.2498 0.0167614 -1.33457
  80 -11.6280 0.0744829 -1.34045
  81 -8.51919 -0.0405706 -1.42619
  82 -5.51491 -0.160474 -1.24040
  83 -3.14582 -0.139624 -0.943269
  84 -1.53004 -0.239107 -0.782735
  85 -0.230272 -0.137771 -0.272362
  86 0.0357791 -0.149432 -0.0922123
  87 -0.0815457 -0.0653548 -0.00976870
  88 -0.215148 -0.174354 -0.237502
  89 -0.208294 -1.28976 -0.677705
  90 -0.180872 -2.92336 -0.976784
  91 -0.0959881 -5.03939 -1.43119
  92 -0.0522381 -7.76216 -1.23618
  93 -0.0506558 -10.2906 -1.55789
  94 -0.195209 -13.4103 -1.76806
  95 -0.0792611 -17.2391 -1.79674
  96 0.0377569 -21.0987 -1.72743
  97 0.0851331 -25.2482 -1.70982
  98 0.126874 -29.5319 -1.69114
  99 0.0211886 -32.7617 -2.29752
  100 0.232731 -37.2738 -2.06337
  101 0.276670 -42.5842 -1.68765
  102 0.0189278 -45.1264 -2.24729
  103 0.393409 -49.2087 -2.11435
  104 0.927374 -54.6750 -1.19022
  105 1.79260 -56.5727 -1.88306
  106 1.16751 -53.1996 0.608642
  107 1.52437 -42.5656 3.98540
  108 9.51373 -29.5078 13.4626
  109 31.1004 29.5188 51.5617
  110 362.774 18.2771 34.6691
  111 310.310 5.91042 12.8425
  112 300.336 2.41629 2.80368
  113 298.333 1.07008 -0.480875
  114 300.201 3.56514 -6.79390
  115 308.861 10.5010 -14.9780
  116 351.846 35.7877 -43.7895
  117 73.1174 22.3747 -63.2746
  118 15.4627 -29.0036 -16.9784
  119 4.49060 -46.5000 -5.91342
  120 1.21294 -50.5865 -0.720470
  121 1.42740 -54.5847 1.22349
  122 0.422809 -52.6296 0.975485
  123 0.171981 -47.9949 1.84848
  124 0.174328 -44.9896 1.47783
  125 0.235551 -40.3306 2.35962
  126 -0.0110608 -37.5770 2.25761
  127 0.0936309 -33.8742 1.63417
  128 0.173751 -29.1672 2.04313
  129 0.0297472 -25.8205 1.62218
  130 0.0528205 -21.1408 2.04592
  131 -0.210928 -17.4430 1.75357
  132 -0.152478 -13.4237 1.71480
  133 -0.0377987 -10.2370 1.56268
  134 -0.0665307 -7.71879 1.23953
  135 -0.0942200 -5.02484 1.41776
  136 -0.178433 -2.92116 0.972029
  137 -0.207231 -1.29160 0.677207
  138 -0.214927 -0.176176 0.237925
  139 -0.0815458 -0.0661655 0.0102988
  140 0.0348167 -0.149592 0.0927218
  141 -0.232168 -0.137743 0.273060
  142 -1.53321 -0.238968 0.783569
  143 -3.15033 -0.139267 0.943670
  144 -5.51915 -0.160031 1.24017
  145 -8.52174 -0.0402056 1.42518
  146 -11.6284 0.0745519 1.33922
  147 -15.2473 0.0168812 1.33332
  148 -17.8827 0.0591732 1.69051
  149 -20.9436 0.0897960 1.54385
  150 -24.4752 0.0622518 1.35205
  151 -26.4753 0.204200 1.61540
  152 -30.0040 0.394995 0.969341
  153 -32.0185 0.359391 1.15917
  154 -33.4086 0.212991 0.726769
  155 -36.1487 0.325576 0.499229
  156 -37.1712 0.339851 0.839996
  157 -36.9152 0.184814 0.789021
  158 -39.0947 0.555009 0.105780
  159 -39.7946 0.463247 0.523449
  160 -39.5056 0.179872 0.0862306
  161 -40.8882 0.326208 -0.0827935
  162 -40.8025 0.706829 0.127032
  163 -38.9060 0.108103 -0.244973
  164 -29.9294 -0.533239 0.399366
  165 -21.0435 0.0345592 0.860128
  166 -11.8563 0.541811 0.374547
  167 0.506151 0.851956 0.402093
  168 10.4515 1.04512 0.416591
  169 22.4035 0.876102 0.551766
  170 34.2197 1.18694 0.524084
  171 43.2700 1.53457 0.384150
  172 54.2374 1.66778 0.200697
  173 64.8667 1.12793 0.300332
  174 75.7039 0.765009 0.250796
  175 85.8945 0.798230 0.309880
  176 97.6206 0.0523986 0.372555
  177 109.006 0.402809 0.342377
  178 118.174 0.484618 0.144708
  179 31.1168 5.93986 -0.277271
  180 31.1086 5.94335 0.302470
  181 -1.07443 0.684988 9.85780
  182 -1.10553 0.685259 -9.85600
  183 72.7163 -1.11215 -15.2815
  184 72.6969 -1.26654 15.4639
  185 13.8303 2.67309 0.671882
  186 13.6657 2.74419 -0.654533
  187 9.27963 2.20905 -1.94159
  188 9.28659 2.21025 1.94467
  189 69.4428 1.90430 -2.04199
  190 69.4509 1.89515 2.04099
  191 -2.31528 2.93552 5.67445
  192 -2.33097 2.94001 -5.67299
  193 80.7824 2.58690 -5.65626
  194 80.8202 2.54542 5.65737
  195 -3.27085 -2.87602 7.45987
  196 -3.26834 -2.89102 -7.46652
  197 0.540372 -7.18609 -9.30818
  198 24.1197 -0.123442 -13.2879
  199 0.703028 -7.66222 9.11679
  200 23.7271 0.0951156 13.5529
  201 115.018 -16.6798 -22.4327
  202 119.289 -17.3492 21.4158
  203 40.2194 1.92506 -0.0523110
  204 40.2194 1.92169 0.0533433
  205 -8.24323 0.700414 -1.21821
  206 -8.23395 0.701034 1.21919
  207 -9.79546 1.38325 7.49635
  208 -9.81112 1.38647 -7.50226
  209 40.3794 4.31963 -0.497339
  210 40.3830 4.31258 0.504986
  211 11.7233 5.12621 4.53543
  212 11.6818 5.15844 -4.53546
  213 -13.0216 1.39822 -3.33518
  214 -13.0088 1.39742 3.33644
  215 93.5614 0.582642 1.04226
  216 93.5537 0.584824 -1.04400
  217 2.73157 -13.6663 4.63472
  218 2.97522 -12.5009 -4.25084
  219 -0.944882 -8.06734 8.48772
  220 -0.958265 -8.35198 -8.20963
  221 37.1164 5.54678 -5.32321
  222 37.0955 5.56863 5.40248
  223 -8.57973 -0.0931865 7.36067
  224 -8.58867 -0.0934423 -7.36751
  225 100.116 1.00459 -3.23126
  226 100.125 0.992459 3.22129
  227 107.285 -1.21248 -6.25883
  228 107.358 -1.33359 6.21047
  229 169.886 13.7285 -0.417588
  230 155.904 16.7690 12.4717
  231 155.234 -2.94612 -16.9772
  232 17.6063 4.52788 2.61316
  233 17.5979 4.52919 -2.60438
  234 0.495077 3.42670 7.83549
  235 0.471349 3.43704 -7.83691
  236 119.772 -7.27620 -3.53927
  237 119.048 -7.37565 3.90623
  238 65.6367 1.14369 -0.690836
  239 65.6404 1.14070 0.690256
  240 -15.5595 1.08203 5.08406
  241 -15.5740 1.08404 -5.08577
  242 -2.04910 -2.02065 -3.29981
  243 -2.04789 -2.02012 3.30266
  244 -17.8075 0.546639 1.76469
  245 -17.8191 0.546427 -1.76348
  246 53.3033 4.55315 -3.37109
  247 53.3192 4.53464 3.38757
  248 68.1956 2.43817 -8.50174
  249 68.2625 2.38789 8.54204
  250 15.1987 1.47141 -0.349093
  251 15.2038 1.47293 0.350135
  252 38.6936 -2.27371 -30.5882
  253 46.0987 -0.929048 33.6737
  254 4.75327 2.05751 7.67938
  255 4.73249 2.11220 -7.69955
  256 164.493 -15.0159 -0.420980
  257 12.9753 5.45860 3.91920
  258 12.9569 5.46839 -3.90943
  259 37.8219 3.75711 -10.8001
  260 37.7638 3.86458 10.9528
  261 182.643 24.2273 -5.18059
  262 108.580 0.438899 4.37577
  263 108.563 0.478906 -4.40444
  264 -1.00668 -6.12139 -5.22611
  265 -0.981411 -6.14778 5.24823
  266 -0.247106 -14.7263 -7.33501
  267 0.407760 -17.5545 -7.02683
  268 0.199552 -17.4100 7.25118
  269 -2.91363 -2.56074 9.74673
  270 -2.92307 -2.55350 -9.77776
  271 5.38975 -15.3170 -1.08823
  272 5.78241 -14.2909 1.98026
  273 -6.31096 -0.551994 4.59815
  274 -6.31230 -0.554092 -4.60098
  275 76.3066 2.67655 -3.42554
  276 76.3230 2.65740 3.42293
  277 134.757 -14.6206 0.649368
  278 28.3575 2.98914 -0.605218
  279 28.3593 2.99258 0.608698
  280 -0.387728 -13.7962 6.99674
  281 1.57766 2.96346 3.86844
  282 1.56600 2.96534 -3.86484
  283 216.515 15.6626 -4.52542
  284 105.762 0.395993 1.30742
  285 105.753 0.398798 -1.31084
  286 68.9103 -4.00854 -23.2898
  287 69.5856 -3.94621 23.7028
  288 134.558 -13.8262 -2.90720
  289 -13.1049 0.379083 5.85687
  290 -13.1151 0.379606 -5.86199
  291 132.377 -13.4834 38.8068
  292 -6.09405 0.836070 8.96302
  293 -6.11013 0.836704 -8.97224
  294 21.0749 5.84956 -0.373607
  295 20.9997 5.90758 0.412196
  296 -25.0043 0.291734 0.341715
  297 -25.0157 0.291587 -0.341399
  298 111.077 -1.35203 -53.5096
  299 -22.8226 0.493730 -2.80029
  300 -22.8082 0.493071 2.80029
  301 -0.883349 -3.12843 10.1176
  302 -0.575458 -3.07745 -10.0478
  303 47.4615 5.25548 -4.97634
  304 47.4766 5.24331 5.02091
  305 9.11108 1.60571 1.45094
  306 9.10467 1.60433 -1.44912
  307 49.7352 2.50750 -0.818150
  308 49.7382 2.50164 0.819458
  309 4.34862 -4.51034 5.99780
  310 3.96063 -5.24653 -6.02990
  311 48.2680 1.42071 -0.140853
  312 48.2686 1.41836 0.140949
  313 -18.4581 0.477669 4.34363
  314 -18.4707 0.478497 -4.34675
  315 11.5607 -2.37463 -1.56498
  316 11.1971 -2.37994 1.26018
  317 110.693 0.168796 0.361226
  318 110.681 0.169141 -0.361627
  319 244.089 14.3152 8.56716
  320 23.3252 3.69417 1.35881
  321 23.3215 3.69163 -1.35266
  322 -6.63029 1.39772 2.47020
  323 -6.64079 1.39770 -2.46813
  324 32.6802 4.99486 0.0160159
  325 32.6791 4.99065 -0.00160685
  326 3.26076 3.31770 8.20110
  327 3.24108 3.32783 -8.20916
  328 0.478261 -25.1263 5.24550
  329 -25.7179 0.144373 -0.738944
  330 -25.7060 0.144538 0.739511
  331 83.5116 0.716347 -0.673045
  332 83.5176 0.714770 0.672274
  333 87.9925 1.06895 -1.78671
  334 88.0002 1.06308 1.78318
  335 -23.7407 0.472214 -2.09073
  336 -23.7272 0.472054 2.09151
  337 -2.06612 0.690892 0.346917
  338 -2.07413 0.690172 -0.346438
  339 -0.525521 -10.0689 5.23861
  340 -0.420334 -10.4701 -5.23148
  341 98.1536 -8.52359 -15.5184
  342 102.140 -10.1768 15.1963
  343 57.7936 3.40974 -2.03271
  344 57.8026 3.39775 2.03567
  345 24.6127 6.10668 0.278476
  346 24.5803 6.12961 -0.248032
  347 -10.1431 1.85207 4.66157
  348 -10.1571 1.85437 -4.66099
  349 186.862 0.0247976 1.23470
  350 9.13690 -17.2505 -9.12917
  351 9.77926 -16.4019 9.66445
  352 -4.70698 2.82995 7.29430
  353 -4.72564 2.83598 -7.29651
  354 -5.30737 -1.15071 8.58045
  355 -5.31699 -1.15156 -8.59124
  356 211.076 33.2852 -6.40891
  357 132.693 -2.77545 19.4830
  358 125.836 -2.75075 -2.58777
  359 125.666 -2.68877 2.34827
  360 86.8848 -0.768269 -9.81606
  361 86.7959 -0.873545 9.81105
  362 0.161054 -30.2436 -4.30724
  363 115.731 0.546796 -2.48759
  364 115.732 0.534988 2.47213
  365 1.42353 -28.8237 3.66567
  366 129.259 10.0230 -11.3349
  367 31.0687 1.58445 0.533150
  368 31.0662 1.58265 -0.532846
  369 87.6090 1.05547 -7.30141
  370 87.6707 0.994958 7.30079
  371 95.1453 1.22798 -4.49344
  372 95.1623 1.20110 4.47954
  373 -3.26197 1.29422 1.74168
  374 -3.27105 1.29358 -1.73986
  375 53.1121 2.96004 -11.3662
  376 53.1488 2.98571 11.4947
  377 114.176 0.172787 0.596602
  378 114.164 0.173449 -0.597699
  379 62.7511 3.93851 -5.58631
  380 62.7833 3.90576 5.60934
  381 73.3424 1.67067 1.39001
  382 73.3366 1.67549 -1.39153
  383 -3.53508 -0.652814 2.80839
  384 -3.53396 -0.654221 -2.80776
  385 -0.830771 -0.593029 -0.799121
  386 -0.831252 -0.593463 0.800400
  387 151.386 -20.6342 8.57854
  388 -2.05222 -4.88933 7.78579
  389 -2.03923 -4.92679 -7.78312
  390 23.0453 2.01430 -0.877152
  391 23.0487 2.01681 0.879210
  392 -0.759394 -3.74763 2.81619
  393 -0.767526 -3.74048 -2.81597
  394 8.21406 4.40575 4.33005
  395 8.19986 4.41092 -4.32383
  396 123.931 -0.263348 3.24137
  397 123.932 -0.211120 -3.31876
  398 -0.429935 -7.71152 9.56035
  399 -10.2259 -0.205551 4.38524
  400 -10.2297 -0.206158 -4.38908
  401 -0.468501 -8.11961 -9.44928
  402 116.712 0.263786 1.57914
  403 116.705 0.267429 -1.58519
  404 -1.68901 2.39499 9.05745
  405 -1.71887 2.40485 -9.06464
  406 85.1092 1.75871 -2.90150
  407 85.1193 1.74689 2.89598
  408 131.208 -5.67506 -3.80975
  409 131.814 -4.52343 2.96036
  410 -0.290256 -13.7572 -5.76615
  411 10.9102 3.89874 -3.64463
  412 10.9994 3.84610 3.64384
  413 126.427 8.51832 7.19856
  414 72.9007 -5.26205 -32.6008
  415 74.9947 -6.67210 34.2498
  416 3.41297 4.09766 6.21735
  417 3.39367 4.10598 -6.21452
  418 53.6953 2.02923 -0.558341
  419 53.6976 2.02530 0.558447
  420 51.9349 3.99063 52.2095
  421 20.6912 5.36840 -2.22033
  422 20.7027 5.36366 2.23389
  423 1.19840 -13.8195 6.82861
  424 -0.168726 -22.4486 -5.07575
  425 7.73357 4.91826 5.97799
  426 7.70872 4.93216 -5.97496
  427 9.40182 3.14717 -2.76753
  428 9.41021 3.14713 2.77212
  429 -4.02385 -0.364069 -9.79804
  430 -4.00768 -0.369791 9.78701
  431 25.0659 4.77396 -3.63601
  432 24.9657 4.85507 3.70528
  433 130.811 -4.55007 -14.5778
  434 3.27004 -1.90403 8.10887
  435 3.15292 -1.85697 -8.14434
  436 95.1041 -3.99365 -10.8584
  437 95.5363 -4.30884 10.8242
  438 -24.6335 0.219238 -2.66247
  439 -24.6192 0.218670 2.66146
  440 0.00519636 -21.9574 4.54217
  441 -0.165660 -13.9050 5.12583
  442 -10.1130 0.589038 7.51201
  443 -10.1247 0.589566 -7.51880
  444 68.1586 1.10726 -0.221506
  445 68.1622 1.10530 0.221080
  446 -2.10632 -3.32177 5.23763
  447 -2.10870 -3.32800 -5.23041
  448 41.3462 1.43102 -16.7229
  449 41.2850 1.64007 16.9599
  450 0.349803 -26.9703 -5.17566
  451 243.839 9.45366 0.343498
  452 0.633085 -32.5016 -3.36796
  453 -29.6506 0.0677750 -1.04060
  454 -29.6374 0.0678756 1.04118
  455 -11.5920 1.54677 6.31707
  456 -11.6076 1.54998 -6.32021
  457 -12.8924 0.174448 4.42721
  458 -12.8987 0.174596 -4.43109
  459 45.5228 5.15705 -3.14041
  460 45.5336 5.14766 3.16826
  461 69.9835 3.30995 -4.33391
  462 70.0082 3.28236 4.33931
  463 -1.37557 -4.73733 9.84971
  464 -1.37637 -4.70477 -9.88805
  465 120.257 1.43649 -18.4334
  466 7.79774 -3.15522 -2.57936
  467 7.52795 -3.22085 2.71817
  468 1.81877 -30.0799 0.548671
  469 1.13516 -34.5751 -1.33909
  470 -3.81422 -1.73153 5.39951
  471 -3.81434 -1.73696 -5.40014
  472 25.0051 -6.46929 -26.0577
  473 191.547 -4.16249 -15.3112
  474 41.4079 3.22959 0.606085
  475 41.4056 3.23605 -0.601919
  476 60.5362 0.366500 -16.3199
  477 60.7100 0.343546 16.6048
  478 17.0222 6.33771 2.97058
  479 16.9969 6.35599 -2.95645
  480 54.5894 4.33049 -8.18085
  481 54.6310 4.29900 8.25693
  482 1.56022 0.758061 9.32193
  483 1.68257 0.819779 -9.30825
  484 -26.1307 0.424006 -2.03512
  485 -26.1164 0.423786 2.03548
  486 123.130 -14.9240 -8.16759
  487 98.6383 0.402138 -0.510362
  488 98.6473 0.401491 0.509951
  489 3.69714 0.978319 -0.822340
  490 3.70435 0.979391 0.823407
  491 -7.20281 2.34370 6.02834
  492 -7.21892 2.34773 -6.02894
  493 -15.5132 0.995788 -2.32921
  494 -15.5012 0.995614 2.33061
  495 41.3671 4.58837 -1.05915
  496 41.3719 4.57972 1.07040
  497 -5.74902 1.91060 8.26946
  498 -5.76854 1.91607 -8.27585
  499 112.908 -2.94632 -5.70199
  500 113.085 -3.12076 5.58072
  501 72.8087 0.969908 -10.7748
  502 72.7138 0.901441 10.8770
  503 26.1408 1.71142 -0.532752
  504 26.1439 1.71357 0.533695
  505 0.211919 -14.0094 -8.16981
  506 131.773 -5.10284 12.0277
  507 1.59700 -9.64129 -7.70837
  508 36.2386 6.10593 3.01052
  509 36.2495 6.09537 -2.96177
  510 121.766 -13.9682 8.02109
  511 8.68331 -16.4240 13.0780
  512 145.911 -20.7168 -16.8349
  513 98.8582 0.794132 5.38776
  514 98.8256 0.843166 -5.40685
  515 0.178812 -12.0460 8.50146
  516 -1.92741 -0.582355 -1.48761
  517 -1.92861 -0.582264 1.48896
  518 10.5730 0.983273 -0.283430
  519 10.5790 0.984433 0.283855
  520 -0.342470 -7.71334 3.34315
  521 -0.310725 -7.67573 -3.35903
  522 81.3791 1.29251 1.14758
  523 81.3731 1.29525 -1.14899
  524 233.361 38.7232 13.9050
  525 8.91271 -7.32602 -1.57795
  526 6.89938 -9.35140 0.150212
  527 -3.56706 1.92792 -3.22097
  528 -3.55596 1.92719 3.22343
  529 -20.1747 0.322748 2.68442
  530 -20.1850 0.323092 -2.68654
  531 0.192645 -25.1997 5.10167
  532 -29.3892 0.314891 0.335992
  533 -29.4012 0.314812 -0.335618
  534 24.0513 -3.99889 -18.8347
  535 23.4902 -3.51438 19.6492
  536 21.9322 3.31170 -5.64346
  537 21.7672 3.42421 5.70749
  538 -5.48105 -1.20144 7.46214
  539 -5.48661 -1.20527 -7.47011
  540 21.2914 2.43163 0.972476
  541 21.2877 2.42915 -0.969539
  542 -13.1777 0.708981 1.09659
  543 -13.1881 0.708607 -1.09545
  544 25.4348 4.25862 1.27033
  545 25.4311 4.25648 -1.26109
  546 -0.541056 -1.73000 1.26818
  547 -0.542789 -1.72817 -1.26784
  548 8.92675 3.83243 5.59234
  549 8.86884 3.89298 -5.60352
  550 7.22139 0.613945 5.09135
  551 7.11529 0.603598 -5.14292
  552 100.684 1.06627 2.28810
  553 100.676 1.07211 -2.29353
  554 88.4745 1.62932 3.57277
  555 88.4612 1.64679 -3.58077
  556 -0.0918634 -20.9705 -3.13018
  557 61.0647 3.61645 -3.18218
  558 61.0794 3.59908 3.18809
  559 61.4061 1.96256 -1.07907
  560 61.4110 1.95669 1.07889
  561 -10.0213 0.502483 -0.0611321
  562 -10.0121 0.502959 0.0614153
  563 100.449 5.88302 -3.54117
  564 139.557 -18.8170 -5.08864
  565 110.622 4.86655 14.1464
  566 0.832490 -18.6995 -6.23122
  567 -7.22291 2.08872 -4.10858
  568 -7.20997 2.08709 4.11035
  569 0.830785 -10.9957 8.19269
  570 -6.45592 0.0832286 8.66366
  571 -6.46844 0.0835799 -8.67197
  572 177.029 17.1665 -2.01740
  573 39.2710 2.36014 -0.127953
  574 39.2712 2.35605 0.129680
  575 276.750 22.8946 -22.5574
  576 -1.63638 -1.30454 10.2482
  577 -1.55293 -1.23467 -10.2589
  578 147.577 -14.3069 8.07683
  579 119.591 0.334880 -2.78917
  580 119.586 0.316396 2.76409
  581 52.9757 -1.05089 -23.9759
  582 53.6638 -1.19697 24.4132
  583 -3.17876 -3.07328 8.66499
  584 -3.18030 -3.08707 -8.68358
  585 27.3359 1.48323 11.9396
  586 27.5647 1.25579 -11.8070
  587 -23.7780 0.284189 -2.56688
  588 -23.7643 0.283775 2.56547
  589 174.191 12.5995 13.7802
  590 31.7723 3.46545 -0.410089
  591 31.7730 3.46975 0.414934
  592 37.6671 4.62244 -7.96596
  593 37.6295 4.67974 8.08141
  594 107.330 0.128737 -5.32696
  595 107.370 0.0651090 5.29632
  596 -0.529722 -11.1750 -7.83221
  597 118.092 0.0123460 0.823031
  598 118.081 0.0132034 -0.824555
  599 -18.4313 0.474505 -0.469708
  600 -18.4207 0.474791 0.470346
  601 -31.4751 -0.151934 0.0309980
  602 -31.4870 -0.152027 -0.0308736
  603 2.30439 -17.7012 -3.52975
  604 -1.13724 -7.18455 6.62721
  605 -1.19929 -6.80621 -6.67168
  606 -13.6877 0.812337 6.29646
  607 -13.7002 0.813855 -6.30140
  608 81.0259 2.47473 4.45119
  609 81.0050 2.50174 -4.45572
  610 59.2303 1.28209 0.267674
  611 59.2282 1.28400 -0.267799
  612 12.7672 -5.41907 6.99501
  613 13.2100 -5.13996 -6.90849
  614 -0.427942 -5.36685 2.81411
  615 -0.440238 -5.34853 -2.82285
  616 141.400 4.60800 56.7056
  617 -6.92384 -0.224360 2.62069
  618 -6.92268 -0.225232 -2.62211
  619 2.25088 -10.8474 -6.43767
  620 57.7935 2.84400 -1.51716
  621 57.7996 2.83556 1.51827
  622 27.5194 6.01268 -1.83522
  623 27.4751 6.04699 1.88534
  624 0.290954 -38.6328 2.36336
  625 20.3640 6.07659 2.11361
  626 20.3476 6.08685 -2.09741
  627 -3.38002 2.57445 4.92277
  628 -3.39394 2.57732 -4.92082
  629 -0.168319 -18.5720 4.28247
  630 -31.0282 0.0766833 -1.02482
  631 -31.0144 0.0766871 1.02531
  632 37.4016 1.49322 -0.103691
  633 37.4026 1.49585 0.104371
  634 98.1273 0.655584 1.48302
  635 98.1191 0.658651 -1.48576
  636 85.3567 -7.83938 43.2948
  637 68.5626 2.23571 -2.53859
  638 68.5730 2.22325 2.53829
  639 0.769517 -1.88118 9.66908
  640 1.00086 -1.24775 -9.67632
  641 110.403 -12.8725 -34.8014
  642 268.901 9.54940 -9.40821
  643 -28.1658 0.0451382 -1.80402
  644 -28.1508 0.0448774 1.80367
  645 5.18092 1.72948 -1.69007
  646 5.18837 1.73047 1.69230
  647 -0.547574 -11.7542 6.87661
  648 148.970 7.72872 -18.1935
  649 116.855 -0.0506255 0.130050
  650 116.841 -0.0505152 -0.130166
  651 -7.55294 -0.446470 -6.15041
  652 -7.54809 -0.445058 6.14499
  653 -0.0157645 -26.5301 -4.17651
  654 118.923 -0.0863604 0.313586
  655 118.910 -0.0861829 -0.313898
  656 9.55048 3.91119 3.72466
  657 9.53937 3.91354 -3.71856
  658 88.3492 -8.29881 -22.5473
  659 90.0759 -8.28221 22.8312
  660 131.924 -0.683630 1.81102
  661 132.003 -0.671770 -1.91225
  662 0.566417 -33.8117 3.43390
  663 -8.66475 0.430105 -0.651969
  664 -8.65563 0.430657 0.652646
  665 42.2019 -1.77002 -40.4712
  666 38.9944 1.38812 0.230827
  667 38.9956 1.39002 -0.230641
  668 18.3610 1.85097 0.551940
  669 18.3565 1.84899 -0.550338
  670 22.1692 2.95684 -0.923831
  671 22.1729 2.95960 0.928186
  672 75.4823 2.55091 -6.87226
  673 75.5336 2.50305 6.88708
  674 19.1295 5.75524 1.40086
  675 19.0787 5.79524 -1.37953
  676 -14.8263 1.11884 -3.80015
  677 -14.8127 1.11754 3.80075
  678 -16.9278 1.16079 -4.24363
  679 -16.9135 1.15921 4.24307
  680 135.077 -1.95886 -0.828927
  681 -0.0474822 -5.89891 -9.71208
  682 135.409 -2.05601 0.603583
  683 169.309 13.7570 0.953867
  684 -17.0731 0.0750573 3.03862
  685 -17.0810 0.0751783 -3.04129
  686 16.6065 4.61009 0.287961
  687 16.4908 4.67624 -0.261490
  688 -33.4058 0.0719796 -0.408752
  689 -33.3927 0.0720396 0.409155
  690 0.0351616 -5.36054 9.75888
  691 -10.8271 0.112902 6.54801
  692 -10.8364 0.113002 -6.55393
  693 147.782 -13.4954 -8.68263
  694 21.8536 0.987402 -0.0589303
  695 21.8495 0.985917 0.0593041
  696 4.02103 2.40862 2.67823
  697 4.01212 2.40838 -2.67489
  698 76.6658 -3.86367 -18.6853
  699 77.3096 -4.01622 19.0910
  700 280.124 19.4448 20.7891
  701 4.90272 -28.7839 -7.50259
  702 -2.09839 -4.34845 9.31092
  703 -2.10388 -4.36272 -9.32718
  704 15.1256 3.94272 -2.30191
  705 15.1331 3.94293 2.30835
  706 122.222 -0.0565838 -0.847380
  707 122.233 -0.0574901 0.845091
  708 56.4810 1.49145 0.368933
  709 56.4787 1.49455 -0.369112
  710 3.95287 4.11114 7.41138
  711 3.92899 4.12427 -7.41249
  712 1.45773 1.34864 1.19820
  713 1.45001 1.34770 -1.19679
  714 -3.79890 0.644310 9.71034
  715 -3.81954 0.647084 -9.72341
  716 99.7100 0.270883 0.608045
  717 99.7010 0.271937 -0.609025
  718 85.7091 1.20668 1.66537
  719 85.7022 1.21078 -1.66773
  720 10.8053 -9.63970 8.66112
  721 11.1509 -10.1719 -8.31738
  722 -7.15469 1.38844 8.47481
  723 -7.17188 1.39137 -8.48285
  724 3.24975 -9.18108 5.34354
  725 -0.264962 2.34852 9.18611
  726 -0.296823 2.35788 -9.18803
  727 -20.1026 0.628488 -2.56588
  728 -20.0893 0.628057 2.56668
  729 13.7926 4.99016 3.63905
  730 13.7780 4.99588 -3.62933
  731 132.487 -4.15708 -8.30980
  732 125.635 -11.2289 -1.92777
  733 -2.08729 -4.25567 6.50492
  734 -2.08359 -4.27376 -6.49479
  735 47.3681 -1.87560 -28.3407
  736 46.0769 -0.782677 28.6875
  737 28.4312 5.45916 -3.38997
  738 28.3690 5.51389 3.45949
  739 2.28184 -5.47942 8.14420
  740 -0.192285 -13.6644 -3.69372
  741 60.8839 3.75579 -6.19976
  742 60.9246 3.72343 6.23691
  743 0.172994 -27.0431 3.46725
  744 35.7096 5.44342 -0.989408
  745 35.7094 5.43914 1.01020
  746 128.090 0.0360993 -2.12352
  747 128.061 0.0180263 2.08424
  748 2.36801 -38.6773 -0.0103688
  749 55.9739 4.66499 4.54459
  750 55.9516 4.68746 -4.52136
  751 14.4913 5.13008 -2.77191
  752 14.5621 5.07372 2.77820
  753 -23.2725 0.156412 -2.14707
  754 -23.2605 0.156174 2.14549
  755 62.6784 1.61080 -0.988607
  756 62.6823 1.60672 0.988126
  757 37.7930 5.85961 -2.43559
  758 37.7907 5.86000 2.47175
  759 -0.563783 3.42869 7.25084
  760 -0.584280 3.43698 -7.25123
  761 126.036 -9.57058 0.420362
  762 -20.9076 0.532999 1.97496
  763 -20.9201 0.532990 -1.97397
  764 279.511 49.7934 -35.0748
  765 -8.79642 0.953959 2.16172
  766 -8.80676 0.953581 -2.16004
  767 107.796 0.649777 3.80998
  768 107.788 0.673808 -3.83125
  769 200.041 13.3514 0.506148
  770 123.021 -0.201951 -1.62945
  771 123.024 -0.205353 1.62226
  772 77.2822 1.62140 2.04750
  773 77.2750 1.62819 -2.04991
  774 115.983 -14.6699 31.6684
  775 49.2881 4.17832 -1.37849
  776 49.2960 4.16760 1.38542
  777 1.06421 -21.3617 4.77689
  778 133.439 -17.7744 9.23524
  779 80.7706 0.687442 0.363412
  780 80.7651 0.688756 -0.363721
  781 107.080 0.316780 0.195618
  782 107.069 0.317044 -0.195800
  783 -0.506319 -10.9328 -6.41559
  784 0.593120 -19.0881 6.58127
  785 46.4418 5.44425 6.32099
  786 46.4278 5.45001 -6.25316
  787 278.720 3.24442 2.22354
  788 81.3646 1.05949 -8.71005
  789 81.4344 1.00208 8.72811
  790 -17.6814 0.590729 4.76610
  791 -17.6953 0.592086 -4.76855
  792 3.21829 -16.2378 2.24962
  793 2.12154 -36.3712 -1.50157
  794 187.670 23.9418 -0.449432
  795 -0.171387 -13.6159 3.33163
  796 3.21230 2.41190 8.45545
  797 3.20499 2.41360 -8.48124
  798 23.7957 5.22585 1.54793
  799 23.7889 5.22718 -1.53551
  800 125.362 -5.63629 -1.26596
  801 125.506 -5.59685 0.757976
  802 149.807 14.9361 -53.4735
  803 -21.5880 0.333867 -0.979683
  804 -21.5763 0.334070 0.980581
  805 -9.51700 -0.0472746 2.47990
  806 -9.51726 -0.0476038 -2.48184
  807 8.44712 -0.0857480 3.46816
  808 8.26676 -0.0969975 -3.47449
  809 94.3520 -0.188995 7.87604
  810 94.2760 -0.0932138 -7.87104
  811 47.2642 1.78336 -0.0625802
  812 47.2653 1.78018 0.0629371
  813 153.167 -3.93305 16.8874
  814 14.8065 2.90517 -2.02972
  815 14.8126 2.90664 2.03430
  816 14.1814 1.15261 -1.10554
  817 14.0530 1.23187 1.15346
  818 -0.148366 -11.0869 -8.81530
  819 220.467 28.6950 27.3574
  820 -32.3801 0.0590490 -1.00979
  821 -32.3654 0.0589982 1.01013
  822 -0.0477014 -33.1612 3.34335
  823 1.99786 -5.39831 -8.20792
  824 -4.69393 -0.296105 1.82727
  825 -4.69116 -0.296739 -1.82745
  826 173.916 7.88103 -13.2114
  827 43.7548 4.85556 -1.71600
  828 43.7623 4.84589 1.73311
  829 119.158 -1.45985 -3.93572
  830 119.243 -1.48738 3.85062
  831 -30.8125 0.259873 1.31355
  832 -30.8277 0.260008 -1.31354
  833 -0.207095 -0.215323 -0.171244
  834 -0.207501 -0.215716 0.171900
  835 0.117378 -33.9425 -3.29864
  836 0.164001 -36.1209 -3.13358
  837 -34.5531 0.364367 0.220766
  838 -34.5655 0.364345 -0.220594
  839 17.1273 -8.71627 -17.8873
  840 73.1756 1.39017 -0.541116
  841 73.1802 1.38789 0.540346
  842 -3.92380 0.841009 0.279652
  843 -3.93208 0.840382 -0.279466
  844 110.145 0.594322 -2.55255
  845 110.151 0.585734 2.54206
  846 -12.5401 0.0843420 2.36660
  847 -12.5426 0.0843745 -2.36864
  848 65.0788 -2.07715 -43.3659
  849 113.836 -9.90743 8.18803
  850 89.7804 0.815492 -0.742697
  851 89.7875 0.813894 0.741526
  852 112.707 -10.8093 -9.25418
  853 34.0391 4.33427 0.00619501
  854 34.0395 4.32866 0.00393274
  855 47.6774 3.68833 -0.973879
  856 47.6824 3.67993 0.978294
  857 132.632 -2.89279 6.32737
  858 7.29929 4.62737 6.35572
  859 7.27103 4.64599 -6.35895
  860 6.88647 0.888766 0.598014
  861 6.87987 0.887647 -0.597294
  862 61.8311 1.31179 0.432292
  863 61.8283 1.31420 -0.432619
  864 165.582 -17.7991 16.1529
  865 102.985 0.954094 -3.29321
  866 102.995 0.938037 3.27914
  867 0.141576 1.78465 2.13272
  868 0.132709 1.78411 -2.13032
  869 103.617 0.186839 0.908145
  870 103.608 0.188046 -0.909632
  871 -20.6608 0.246690 -0.551928
  872 -20.6502 0.246945 0.552057
  873 -0.0975960 -10.3939 2.95844
  874 -0.126301 -10.5564 -2.98240
  875 121.585 -2.05971 14.6523
  876 -8.15011 1.89087 7.27043
  877 -8.16730 1.89543 -7.27447
  878 -0.0454500 -17.1914 -3.29148
  879 47.7365 2.30868 -0.455664
  880 47.7382 2.30448 0.456467
  881 88.8716 -4.59430 -14.1543
  882 89.6096 -5.09264 14.3003
  883 -4.07972 -1.51645 -9.36999
  884 -4.06542 -1.51858 9.35562
  885 4.02019 4.23876 6.84273
  886 3.99806 4.24957 -6.84101
  887 0.443833 -40.1460 2.47793
  888 0.577934 3.18281 8.48765
  889 0.551899 3.19292 -8.49002
  890 81.9102 -1.38818 -12.5429
  891 81.7469 -1.47482 12.6455
  892 141.980 6.88332 18.6597
  893 31.6269 4.07087 -0.360544
  894 31.6277 4.07573 0.367784
  895 105.993 0.984419 -2.48583
  896 106.000 0.977215 2.47824
  897 -4.27088 -1.91601 8.16180
  898 -4.27654 -1.92183 -8.17333
  899 0.351597 -41.8211 -1.87975
  900 -6.55911 -0.509798 8.04186
  901 -6.56810 -0.510055 -8.05010
  902 2.99761 3.93322 -5.45763
  903 3.01391 3.92705 5.46112
  904 -0.328226 -2.57774 1.43538
  905 -0.331775 -2.57482 -1.43736
  906 7.92623 4.42510 -5.04915
  907 7.94382 4.41748 5.05519
  908 1.59231 -3.70207 9.03240
  909 1.35844 -3.44962 -9.42689
  910 101.729 -2.67520 7.95011
  911 101.474 -2.51779 -8.02035
  912 -35.1138 0.138638 -0.323673
  913 -35.1009 0.138696 0.323942
  914 -2.86578 -0.265936 1.36465
  915 -2.86283 -0.266302 -1.36399
  916 0.144671 -24.5047 -3.02417
  917 -3.14728 -1.36759 -3.91388
  918 -3.14720 -1.36476 3.91521
  919 -13.7307 1.11857 6.12515
  920 -13.7450 1.12093 -6.12908
  921 30.5255 6.25290 -0.853420
  922 30.5114 6.26487 0.885355
  923 131.876 10.8855 -3.45694
  924 -2.44741 3.09863 6.59714
  925 -2.46525 3.10458 -6.59698
  926 48.8366 2.92237 -12.8108
  927 48.8611 2.96604 12.9863
  928 -6.97621 2.21688 5.33615
  929 -6.99108 2.22028 -5.33571
  930 165.677 -10.2831 -5.69292
  931 93.6242 3.76725 8.00125
  932 117.188 -1.79995 -13.2572
  933 89.0685 1.64578 -5.34045
  934 89.0976 1.60824 5.33120
  935 -10.7138 1.41655 -2.75568
  936 -10.7022 1.41605 2.75741
  937 -22.1481 0.423040 3.12059
  938 -22.1624 0.423803 -3.12132
  939 -1.31487 -4.20446 -4.55055
  940 -1.30681 -4.20981 4.56017
  941 30.3062 2.48299 -0.265548
  942 30.3078 2.48635 0.267974
  943 -10.4381 1.00008 7.50900
  944 -10.4517 1.00164 -7.51573
  945 108.258 0.220012 1.21903
  946 108.249 0.221432 -1.22107
  947 -0.852665 -9.32449 6.98068
  948 2.86068 3.66780 -4.74220
  949 2.87461 3.66382 4.74602
  950 4.20263 2.67603 3.25186
  951 4.19272 2.67664 -3.24812
  952 17.0084 2.07988 -1.05566
  953 17.0131 2.08178 1.05782
  954 204.303 21.8148 -1.00984
  955 -0.772441 -0.219839 -0.528791
  956 -0.774088 -0.219889 0.529784
  957 6.28571 1.40295 -6.12638
  958 6.39454 1.34042 6.11562
  959 71.2478 3.35620 -5.41166
  960 71.2807 3.32128 5.42156
  961 7.94868 3.32165 -3.19056
  962 7.95845 3.32078 3.19546
  963 19.0399 -10.4184 24.5462
  964 137.236 -0.872260 -0.917530
  965 136.945 -0.837677 0.771746
  966 22.9182 -5.59820 20.9712
  967 23.7991 1.51128 0.112534
  968 23.7955 1.50953 -0.111867
  969 64.3100 -4.12664 -37.3982
  970 48.5125 1.36115 0.255398
  971 48.5122 1.36306 -0.255349
  972 5.82032 -7.75309 2.54430
  973 6.43453 -6.69944 -2.05695
  974 122.168 -0.0323425 0.424864
  975 122.154 -0.0321352 -0.425270
  976 -10.0940 0.00690367 5.90381
  977 -10.1006 0.00672197 -5.90897
  978 218.089 26.8457 9.82182
  979 -1.04062 -7.17410 -9.32729
  980 0.895653 -37.7290 2.72651
  981 -0.237405 -11.2988 8.64771
  982 126.078 0.0525963 -1.66338
  983 126.073 0.0476089 1.65213
  984 -1.67202 -3.04539 3.92106
  985 -1.67584 -3.04427 -3.91610
  986 153.539 15.4126 -11.5425
  987 283.337 2.90592 -1.49709
  988 -0.405058 -0.590339 -0.575513
  989 -0.404685 -0.591576 0.576334
  990 71.7798 1.33972 -1.12177
  991 71.7846 1.33635 1.12072
  992 -1.07995 -6.91754 9.38883
  993 100.704 0.858242 4.84088
  994 100.686 0.894280 -4.86041
  995 132.009 -9.07039 -6.79642
  996 -4.66626 -1.00144 4.44638
  997 -4.66641 -1.00464 -4.44740
  998 1.91135 -9.49619 7.18939
  999 -0.249246 -16.8069 6.77935
  1000 -0.0173240 -17.0470 3.28261
  1001 131.206 9.16625 -0.678291
  1002 152.687 16.7248 7.28371
  1003 110.265 -13.3848 -16.9689
  1004 1.44377 -17.0512 5.88787
  1005 1.86842 -24.8090 2.02972
  1006 29.3733 1.20447 0.161173
  1007 29.3704 1.20283 -0.161011
  1008 -1.23492 -1.40512 -1.85052
  1009 -1.23412 -1.40583 1.85228
  1010 0.926809 -13.9935 -7.56221
  1011 89.6740 0.530271 -0.271996
  1012 89.6812 0.529347 0.271616
  1013 16.9184 -1.45448 -6.99197
  1014 16.1715 -1.40838 6.92740
  1015 -2.31474 2.65254 8.46332
  1016 -2.33900 2.66129 -8.46861
  1017 -11.4295 1.67461 -5.31056
  1018 -11.4146 1.67191 5.30985
  1019 66.8077 1.13687 -12.7558
  1020 66.8720 1.17991 12.9124
  1021 47.6079 4.36619 -8.47420
  1022 47.6198 4.35848 8.57706
  1023 52.0767 4.33212 -2.55456
  1024 52.0878 4.31713 2.56475
  1025 137.429 -4.62836 -17.7500
  1026 -4.18895 1.58627 9.11790
  1027 -4.21132 1.59103 -9.12857
  1028 97.6957 0.271737 6.54952
  1029 97.6459 0.344923 -6.56590
  1030 -0.826257 -5.54295 9.89140
  1031 -7.99761 -0.287801 4.31601
  1032 -7.99940 -0.288855 -4.31928
  1033 88.7921 1.25412 -6.47350
  1034 88.8356 1.20187 6.46648
  1035 106.034 2.23650 -12.6316
  1036 -0.180376 -16.7581 -7.12329
  1037 -1.39832 -6.62767 8.30633
  1038 -1.45353 -6.69637 -8.23182
  1039 61.8302 4.13823 -4.27311
  1040 61.8544 4.11274 4.28734
  1041 79.0927 1.94432 2.56060
  1042 79.0835 1.95395 -2.56398
  1043 131.743 -8.85572 5.98201
  1044 4.92742 0.959911 -0.170869
  1045 4.93432 0.960825 0.171080
  1046 111.647 -14.9978 18.1365
  1047 -2.23369 0.704625 0.753497
  1048 -2.24183 0.703796 -0.752717
  1049 22.9082 6.23289 1.20380
  1050 22.8857 6.24902 -1.18133
  1051 8.10870 4.87912 5.51290
  1052 8.08780 4.88977 -5.50757
  1053 1.14234 -21.1051 -4.95474
  1054 31.0368 1.66393 -0.307894
  1055 31.0386 1.66679 0.309362
  1056 90.1954 3.21807 3.26926
  1057 90.3051 1.12526 2.44794
  1058 90.2967 1.13341 -2.45290
  1059 -0.738408 -5.72688 -9.90438
  1060 136.250 -1.68949 -3.33170
  1061 -0.387997 -0.816466 10.0161
  1062 -0.290455 -0.725960 -9.97943
  1063 125.541 -0.135618 -0.912405
  1064 125.550 -0.136736 0.909165
  1065 133.458 -0.345809 -1.58841
  1066 133.382 -0.365236 1.53302
  1067 -0.102780 -25.8686 2.48784
  1068 76.7353 2.47558 -3.42012
  1069 76.7471 2.46045 3.41694
  1070 94.2087 1.26972 2.89911
  1071 94.1994 1.27978 -2.90615
  1072 1.52769 1.93894 9.22455
  1073 1.52138 1.94259 -9.22494
  1074 205.797 14.5070 1.47146
  1075 -2.89090 -1.36552 10.0746
  1076 -2.92414 -1.34013 -10.0940
  1077 27.8035 5.97273 0.630180
  1078 27.7968 5.97534 -0.612389
  1079 -17.8951 0.457613 -1.05438
  1080 -17.8842 0.457956 1.05523
  1081 46.4387 2.23464 -14.8489
  1082 46.3979 2.37293 15.0682
  1083 12.6459 5.49568 4.53569
  1084 12.6224 5.50915 -4.52683
  1085 31.1937 3.02916 -10.4605
  1086 31.0401 3.19673 10.5846
  1087 -0.906493 -8.74571 -6.79360
  1088 111.934 1.17757 16.1838
  1089 79.8425 -2.86402 49.1273
  1090 11.8988 5.54460 4.69763
  1091 11.8691 5.56431 -4.69120
  1092 47.5151 3.09658 -0.668850
  1093 47.5189 3.08951 0.671562
  1094 178.433 -2.23783 7.92984
  1095 10.5203 2.26319 3.51250
  1096 10.3861 2.30431 -3.54311
  1097 -5.34232 -1.20901 5.95363
  1098 -5.34438 -1.21373 -5.95763
  1099 -0.176302 -3.85628 1.57340
  1100 -0.182899 -3.85347 -1.57944
  1101 116.887 0.186343 3.96613
  1102 116.873 0.236956 -4.01163
  1103 0.0361083 -8.76222 9.32488
  1104 -8.29416 0.437079 -8.11875
  1105 -8.28222 0.436821 8.11122
  1106 0.0470829 -31.5912 -3.25249
  1107 -2.06115 -2.85596 10.0544
  1108 -2.05702 -2.80240 -10.0630
  1109 112.261 0.386240 -1.67179
  1110 112.269 0.383100 1.66747
  1111 114.967 -0.562080 4.67174
  1112 114.911 -0.481962 -4.72097
  1113 18.8458 3.77946 -2.57906
  1114 18.7046 3.87364 2.63036
  1115 -0.291638 -16.2732 -5.70085
  1116 151.948 -17.1468 -27.8328
  1117 197.656 22.1425 -2.92370
  1118 1.85273 -26.2771 -1.35252
  1119 6.23069 3.71372 -7.11574
  1120 6.26514 3.68954 7.09564
  1121 17.4907 5.99003 2.72866
  1122 17.4562 6.01512 -2.71343
  1123 38.2432 2.82490 -0.0527004
  1124 38.2424 2.83000 0.0556210
  1125 -2.62811 -3.74423 7.73566
  1126 -2.62320 -3.77661 -7.74465
  1127 -8.01360 2.27044 6.75881
  1128 -8.03041 2.27491 -6.76098
  1129 -3.31131 2.80102 7.86087
  1130 -3.33238 2.80827 -7.86430
  1131 108.909 -5.49889 -7.64839
  1132 109.651 -5.57082 7.55128
  1133 0.0666420 -18.9980 -6.83344
  1134 56.7555 -0.687748 -19.0362
  1135 56.8799 -0.500674 19.4062
  1136 17.3481 5.68075 -2.78950
  1137 17.3627 5.67257 2.80207
  1138 59.0158 18.3196 55.1470
  1139 13.2744 4.66013 3.45890
  1140 13.2625 4.66358 -3.45061
  1141 149.985 -18.0153 -5.04779
  1142 55.3595 2.08207 0.614205
  1143 55.3562 2.08695 -0.613938
  1144 -2.58221 -2.31312 4.67545
  1145 -2.58285 -2.31764 -4.67248
  1146 -3.10329 -2.79988 6.08255
  1147 -3.10176 -2.80960 -6.08125
  1148 96.9367 -10.9555 -27.4547
  1149 99.1161 -11.9775 27.6794
  1150 16.0026 1.05620 0.0503074
  1151 16.0077 1.05761 -0.0496104
  1152 60.0049 2.95501 -10.1475
  1153 60.0296 2.90762 10.2688
  1154 134.356 -19.5038 20.4653
  1155 121.269 -0.166282 0.253254
  1156 121.254 -0.166143 -0.253356
  1157 -11.4708 1.72110 6.01135
  1158 -11.4864 1.72411 -6.01332
  1159 -19.3809 0.653076 -3.22489
  1160 -19.3672 0.652447 3.22543
  1161 29.2235 -3.34101 31.9187
  1162 87.0802 6.25123 -6.59436
  1163 54.8830 4.38285 -4.64890
  1164 54.9093 4.36054 4.68098
  1165 176.824 -9.43149 29.6310
  1166 55.7406 4.11577 -7.21107
  1167 55.7753 4.08446 7.26721
  1168 12.7742 2.18268 -1.43024
  1169 12.7801 2.18442 1.43286
  1170 4.59911 -20.8292 1.97608
  1171 4.65896 -20.4377 -3.22204
  1172 76.0447 -6.28936 -27.6521
  1173 77.1778 -5.93409 27.6714
  1174 28.9363 4.41707 -6.90844
  1175 28.8218 4.52519 7.00955
  1176 135.942 -9.71719 -11.9002
  1177 -5.24894 -0.548595 9.13382
  1178 -5.26216 -0.547283 -9.14379
  1179 -0.222646 -7.85735 -9.56527
  1180 33.2987 -0.610517 -19.6945
  1181 33.3958 -0.476284 20.0902
  1182 -0.0893710 -6.86924 1.76297
  1183 -0.0760483 -6.88505 -1.78378
  1184 -33.6842 0.295861 -0.938902
  1185 -33.6689 0.295774 0.939071
  1186 109.661 0.200608 -0.430801
  1187 109.673 0.200056 0.429956
  1188 66.0791 2.98135 -2.72970
  1189 66.0927 2.96578 2.73139
  1190 -2.80339 -0.244652 10.1417
  1191 -2.81091 -0.206206 -10.1582
  1192 0.0217677 -28.0162 -2.78674
  1193 -28.4124 0.0764155 1.46411
  1194 -28.4272 0.0765941 -1.46471
  1195 20.3691 -2.43389 -13.2681
  1196 20.2071 -2.30190 13.7531
  1197 126.637 -7.81515 0.617402
  1198 34.6713 1.11711 -17.6263
  1199 34.7107 1.24636 17.8475
  1200 -15.5556 0.0798821 2.16162
  1201 -15.5603 0.0798739 -2.16357
  1202 0.380488 -25.2332 -4.99646
  1203 -6.07690 1.18614 -1.41817
  1204 -6.06768 1.18675 1.41959
  1205 17.7708 4.91661 2.77622
  1206 17.7599 4.91951 -2.76583
  1207 70.7604 0.895598 -0.392307
  1208 70.7643 0.893983 0.392111
  1209 96.4637 0.851824 1.86742
  1210 96.4558 0.856903 -1.87149
  1211 4.75824 -1.43339 6.26918
  1212 4.68743 -1.51598 -6.35283
  1213 0.771948 -14.7183 7.50469
  1214 172.137 22.1242 9.94220
  1215 -5.33443 -0.433119 3.36793
  1216 -5.33368 -0.434715 -3.36888
  1217 0.598920 -13.7731 -7.77769
  1218 -0.526582 -8.14298 4.94727
  1219 -0.497504 -8.07937 -5.12867
  1220 137.027 -1.45400 2.97362
  1221 0.129069 -32.1645 2.87050
  1222 0.825835 -10.2407 -8.66339
  1223 14.6927 0.893415 0.225134
  1224 14.6874 0.892199 -0.224959
  1225 -1.45726 -6.02658 9.19503
  1226 -16.2315 0.959706 -2.80734
  1227 -16.2188 0.959284 2.80851
  1228 288.489 5.28070 7.80042
  1229 -8.30228 0.854216 8.26593
  1230 -8.31656 0.855354 -8.27384
  1231 64.3216 2.86874 -9.19180
  1232 64.3939 2.80774 9.25480
  1233 3.89396 -7.55044 -4.49562
  1234 61.4041 3.69684 -3.45047
  1235 61.4227 3.67606 3.45944
  1236 2.38414 -20.9847 -2.03201
  1237 -1.45948 -6.03273 -9.17150
  1238 -11.9752 0.603256 1.76299
  1239 -11.9857 0.602826 -1.76166
  1240 -5.11011 0.214425 -9.40645
  1241 -5.09429 0.213929 9.39745
  1242 130.474 10.2292 13.4954
  1243 74.8077 1.15296 -9.92387
  1244 74.9105 1.11446 9.94922
  1245 -35.5779 0.110179 -0.382983
  1246 -35.5640 0.110199 0.383318
  1247 67.7766 2.19139 -1.87834
  1248 67.7829 2.18428 1.87733
  1249 -36.8091 -0.577159 -0.0897266
  1250 -36.8216 -0.577236 0.0897711
  1251 101.376 -7.32910 -11.3395
  1252 -16.4996 0.266245 4.64914
  1253 -16.5104 0.266736 -4.65300
  1254 102.468 -7.73621 11.2334
  1255 68.7779 3.06237 -3.93981
  1256 68.7957 3.04050 3.94223
  1257 7.73375 -24.5739 -13.2285
  1258 0.141990 -22.9208 -5.88767
  1259 -0.540819 -9.70352 8.63588
  1260 223.894 30.6511 -26.6411
  1261 -0.0608429 -21.3505 5.67069
  1262 231.584 21.6950 -11.9357
  1263 -0.0949966 -39.4301 -2.76796
  1264 9.44078 1.43933 -0.642932
  1265 9.44700 1.44069 0.644369
  1266 -0.101822 -8.83352 1.84933
  1267 -0.0832577 -8.87883 -1.84295
  1268 37.5491 1.46826 -0.144271
  1269 37.5504 1.47040 0.144628
  1270 137.693 -11.1164 11.3976
  1271 1.26219 1.30455 -1.64635
  1272 1.27016 1.30543 1.64805
  1273 0.802766 -44.4068 1.68836
  1274 0.510789 -47.1023 -1.65406
  1275 126.635 -16.6732 -11.7833
  1276 -0.366980 -11.6863 5.49925
  1277 129.893 7.73952 -16.5568
  1278 -0.398022 -15.4038 5.42203
  1279 0.255609 -42.7792 -2.26190
  1280 62.9929 2.35767 -1.94981
  1281 63.0011 2.34655 1.95053
  1282 -0.0409781 -22.7801 2.44962
  1283 -0.0652002 -19.1092 -5.55622
  1284 311.341 49.9096 44.0934
  1285 121.876 0.181414 0.202156
  1286 121.861 0.181388 -0.202140
  1287 2.71265 -0.252575 8.51589
  1288 2.62042 -0.123127 -8.54528
  1289 -2.34809 1.56462 9.66550
  1290 -2.38532 1.57077 -9.67827
  1291 126.825 -2.50941 -9.45308
  1292 118.490 -4.84069 -4.13730
  1293 118.337 -5.54346 4.14085
  1294 16.2515 2.44102 1.51477
  1295 16.2463 2.43890 -1.51125
  1296 -20.1865 0.553319 -3.74211
  1297 -20.1723 0.552315 3.74066
  1298 132.283 -19.6265 -17.1564
  1299 -1.00004 -2.39398 2.42722
  1300 -1.00357 -2.39153 -2.42570
  1301 138.961 -6.69154 16.7265
  1302 -1.51611 -5.63025 6.66602
  1303 -1.49992 -5.64971 -6.63475
  1304 -13.7693 0.979054 2.08116
  1305 -13.7806 0.978968 -2.07972
  1306 19.9647 1.35927 -6.23997
  1307 19.7588 1.48512 6.24965
  1308 31.6635 1.39486 0.332653
  1309 31.6612 1.39270 -0.332081
  1310 -14.1674 1.38127 5.86992
  1311 -14.1821 1.38358 -5.87265
  1312 114.006 0.492606 0.314646
  1313 113.993 0.492601 -0.314658
  1314 60.7233 -2.31126 37.0927
  1315 92.2769 0.610414 0.654316
  1316 92.2693 0.611488 -0.655041
  1317 59.6179 1.17273 -14.3966
  1318 59.6521 1.09485 14.5472
  1319 0.550542 -25.8146 -3.91788
  1320 22.4479 5.28881 -1.94749
  1321 22.3582 5.35783 2.00086
  1322 -0.214521 -0.209046 -0.291208
  1323 -0.215571 -0.209160 0.292043
  1324 77.9838 2.87987 5.27352
  1325 77.9556 2.91556 -5.27357
  1326 37.7731 3.65563 0.250477
  1327 37.7715 3.66191 -0.244812
  1328 56.4908 3.73498 -2.18267
  1329 56.5021 3.72091 2.18833
  1330 75.0940 0.948153 -0.650575
  1331 75.0987 0.946522 0.650118
  1332 -2.41214 -1.18072 -2.74557
  1333 -2.41229 -1.17977 2.74751
  1334 -24.3202 0.116449 1.23960
  1335 -24.3327 0.116368 -1.23874
  1336 -4.18778 -1.95810 -6.82329
  1337 -4.18641 -1.94947 6.81837
  1338 -14.6871 0.397397 0.541430
  1339 -14.6970 0.396964 -0.541011
  1340 -37.1081 0.362611 0.222368
  1341 -37.1210 0.362600 -0.222193
  1342 142.910 -19.9457 23.8818
  1343 98.8127 -0.803403 -13.0132
</Section>

newXOutput 18

<Section columns = "stress_xx | stress_yy | stress_xy">
  1 133.450 -0.111482 0.121954
  2 133.468 -0.111545 -0.122015
  3 -42.5026 0.232631 -0.569291
  4 0.0690417 0.0203804 0.120748
  5 247.656 59.8370 75.5859
  6 279.665 68.5816 -72.0172
  7 0.0688127 0.0201595 -0.120446
  8 -42.4881 0.232639 0.569261
  9 133.021 -0.100094 -0.435635
  10 133.106 -0.331235 -0.720472
  11 134.376 -0.318851 -0.177790
  12 134.471 -0.283518 -0.820310
  13 134.720 -0.268371 -0.224669
  14 137.590 -0.276632 -0.323861
  15 138.522 -0.438339 -1.09712
  16 139.464 -0.164930 -0.733464
  17 139.992 0.195249 -1.41834
  18 145.793 -0.694995 -1.21767
  19 148.165 -0.501605 -1.58994
  20 150.705 -0.825988 -0.526659
  21 151.778 -1.15124 -0.231257
  22 150.109 -1.37889 2.25800
  23 144.150 -1.59408 4.59874
  24 130.633 -1.91156 9.60624
  25 109.388 0.888430 11.0987
  26 91.4791 0.996064 10.4773
  27 67.0247 2.52804 6.36502
  28 71.7250 2.46786 0.422670
  29 58.2355 7.51598 -4.13323
  30 85.9769 3.35124 -11.1809
  31 101.752 0.700875 -9.20717
  32 127.642 -0.483533 -7.96333
  33 142.107 -1.93388 -5.46887
  34 149.742 -1.61257 -2.25912
  35 151.370 -1.10922 0.231107
  36 150.413 -0.813363 0.477511
  37 148.021 -0.506198 1.53241
  38 145.718 -0.706262 1.18305
  39 139.970 0.188440 1.40015
  40 139.462 -0.167515 0.726011
  41 138.531 -0.439836 1.09380
  42 137.604 -0.277392 0.322150
  43 134.736 -0.268765 0.223750
  44 134.488 -0.283881 0.820094
  45 134.394 -0.319085 0.177616
  46 133.124 -0.331386 0.720612
  47 133.039 -0.100147 0.435722
  48 125.439 0.508726 -0.154051
  49 115.719 0.418072 -0.363766
  50 103.648 0.0421101 -0.395062
  51 91.2130 0.830685 -0.328617
  52 80.4039 0.793404 -0.265813
  53 68.9067 1.17768 -0.318125
  54 57.6281 1.75069 -0.212042
  55 45.9883 1.60972 -0.406567
  56 36.3816 1.24234 -0.555035
  57 23.8370 0.914323 -0.584328
  58 11.1464 1.09638 -0.441265
  59 0.585561 0.894114 -0.425922
  60 -12.5434 0.567598 -0.396515
  61 -22.3004 0.0316195 -0.912299
  62 -31.7375 -0.568827 -0.423384
  63 -41.2723 0.113744 0.260472
  64 -43.2882 0.749382 -0.133878
  65 -43.3810 0.345389 0.0890469
  66 -41.9154 0.189935 -0.0901721
  67 -42.2267 0.490877 -0.554081
  68 -41.4866 0.588389 -0.110153
  69 -39.1769 0.195480 -0.835678
  70 -39.4544 0.360416 -0.890007
  71 -38.3724 0.345193 -0.528173
  72 -35.4665 0.225593 -0.769807
  73 -33.9957 0.381378 -1.22921
  74 -31.8589 0.419373 -1.02771
  75 -28.1142 0.216765 -1.71441
  76 -25.9917 0.0661664 -1.43520
  77 -22.2418 0.0953540 -1.63933
  78 -18.9915 0.0629691 -1.79552
  79 -16.1921 0.0179849 -1.41637
  80 -12.3476 0.0791644 -1.42273
  81 -9.04736 -0.0428465 -1.51398
  82 -5.85792 -0.170196 -1.31711
  83 -3.34247 -0.148113 -1.00182
  84 -1.62617 -0.253809 -0.831490
  85 -0.245500 -0.146256 -0.289543
  86 0.0374743 -0.158749 -0.0981841
  87 -0.0866038 -0.0698345 -0.0106588
  88 -0.228416 -0.186239 -0.252518
  89 -0.221157 -1.37092 -0.719980
  90 -0.191941 -3.10634 -1.03738
  91 -0.101786 -5.35332 -1.51978
  92 -0.0553142 -8.24504 -1.31264
  93 -0.0534395 -10.9297 -1.65419
  94 -0.207139 -14.2411 -1.87704
  95 -0.0841241 -18.3058 -1.90714
  96 0.0400403 -22.4032 -1.83339
  97 0.0903234 -26.8079 -1.81454
  98 0.134732 -31.3546 -1.79443
  99 0.0220604 -34.7802 -2.43762
  100 0.246644 -39.5683 -2.18900
  101 0.293473 -45.2029 -1.78921
  102 0.0189256 -47.8943 -2.38237
  103 0.417213 -52.2196 -2.24059
  104 0.984854 -58.0105 -1.25591
  105 1.90434 -60.0081 -1.98712
  106 1.24322 -56.3838 0.669249
  107 1.62891 -45.0348 4.27985
  108 10.1054 -31.0625 14.3758
  109 32.9959 31.8104 54.8325
  110 384.600 19.4163 36.8031
  111 329.011 6.26176 13.6227
  112 318.432 2.55114 2.97811
  113 316.304 1.12174 -0.510111
  114 318.291 3.76933 -7.20631
  115 327.506 11.1332 -15.8972
  116 373.057 38.0223 -46.4944
  117 77.6171 24.1416 -67.2753
  118 16.4427 -30.5337 -18.1082
  119 4.77674 -49.2000 -6.32154
  120 1.29096 -53.6077 -0.787927
  121 1.51688 -57.8946 1.28580
  122 0.448697 -55.8369 1.02739
  123 0.181800 -50.9306 1.95726
  124 0.184674 -47.7471 1.56438
  125 0.249935 -42.8081 2.50248
  126 -0.0117913 -39.8911 2.39544
  127 0.0993446 -35.9622 1.73365
  128 0.184650 -30.9676 2.16854
  129 0.0317534 -27.4160 1.72166
  130 0.0560699 -22.4473 2.17146
  131 -0.223972 -18.5224 1.86132
  132 -0.161742 -14.2552 1.82044
  133 -0.0398252 -10.8726 1.65924
  134 -0.0704839 -8.19892 1.31616
  135 -0.0998957 -5.33785 1.50550
  136 -0.189347 -3.10402 1.03233
  137 -0.220026 -1.37288 0.719452
  138 -0.228178 -0.188185 0.252970
  139 -0.0866034 -0.0706999 0.0112252
  140 0.0364460 -0.158918 0.0987274
  141 -0.247523 -0.146225 0.290286
  142 -1.62954 -0.253659 0.832372
  143 -3.34726 -0.147730 1.00224
  144 -5.86239 -0.169722 1.31686
  145 -9.05001 -0.0424563 1.51289
  146 -12.3480 0.0792383 1.42141
  147 -16.1893 0.0181151 1.41502
  148 -18.9858 0.0630844 1.79407
  149 -22.2325 0.0952774 1.63790
  150 -25.9795 0.0660539 1.43398
  151 -28.1002 0.216598 1.71337
  152 -31.8428 0.419159 1.02704
  153 -33.9788 0.381168 1.22880
  154 -35.4492 0.225473 0.769711
  155 -38.3548 0.345086 0.528238
  156 -39.4371 0.360315 0.890111
  157 -39.1602 0.195436 0.835861
  158 -41.4704 0.588322 0.110445
  159 -42.2108 0.490846 0.554263
  160 -41.9001 0.189942 0.0903573
  161 -43.3659 0.345382 -0.0888967
  162 -43.2734 0.749334 0.133980
  163 -41.2579 0.113752 -0.260377
  164 -31.7244 -0.568649 0.423411
  165 -22.2884 0.0319044 0.912281
  166 -12.5329 0.568071 0.396602
  167 0.594049 0.894862 0.425983
  168 11.1531 1.09747 0.441317
  169 23.8414 0.915799 0.584372
  170 36.3839 1.24405 0.555032
  171 45.9889 1.61155 0.406552
  172 57.6267 1.75250 0.211958
  173 68.9034 1.17934 0.317964
  174 80.3986 0.794821 0.265604
  175 91.2057 0.831642 0.328327
  176 103.638 0.0427653 0.394730
  177 115.707 0.418221 0.363547
  178 125.423 0.508667 0.153954
  179 33.0897 6.29951 -0.329822
  180 33.0806 6.30346 0.356338
  181 -1.12511 0.736404 10.4475
  182 -1.15831 0.736467 -10.4458
  183 77.2629 -1.17810 -16.2721
  184 77.2413 -1.34161 16.4656
  185 14.7177 2.86379 0.667082
  186 14.5425 2.93902 -0.649120
  187 9.90399 2.33508 -2.04502
  188 9.91175 2.33626 2.04819
  189 73.7632 2.00371 -2.18186
  190 73.7720 1.99415 2.18088
  191 -2.42231 3.11357 6.00441
  192 -2.43936 3.11839 -6.00309
  193 85.8052 2.73032 -6.02739
  194 85.8453 2.68670 6.02881
  195 -3.46981 -3.04999 7.91735
  196 -3.46722 -3.06597 -7.92452
  197 0.580189 -7.61073 -9.86580
  198 25.6544 -0.0796018 -14.1763
  199 0.753035 -8.11565 9.66199
  200 25.2369 0.151943 14.4569
  201 122.153 -17.6750 -23.8769
  202 126.679 -18.3840 22.7984
  203 42.7520 2.02666 -0.0666967
  204 42.7519 2.02318 0.0677824
  205 -8.69955 0.736159 -1.28615
  206 -8.68917 0.736788 1.28714
  207 -10.3816 1.46963 7.94685
  208 -10.3985 1.47303 -7.95333
  209 42.9238 4.57110 -0.551604
  210 42.9273 4.56384 0.559665
  211 12.4829 5.45048 4.77915
  212 12.4385 5.48470 -4.77959
  213 -13.7867 1.48032 -3.52849
  214 -13.7727 1.47944 3.52970
  215 99.3378 0.604097 1.11095
  216 99.3291 0.606372 -1.11273
  217 2.90918 -14.4692 4.89060
  218 3.16847 -13.2318 -4.48167
  219 -1.00089 -8.55739 9.00587
  220 -1.01532 -8.86024 -8.71117
  221 39.4627 5.89104 -5.69774
  222 39.4400 5.91444 5.78152
  223 -9.10176 -0.0968349 7.80915
  224 -9.11142 -0.0971377 -7.81654
  225 106.296 1.05247 -3.43821
  226 106.306 1.03972 3.42783
  227 113.924 -1.29929 -6.66421
  228 114.003 -1.42742 6.61356
  229 180.455 14.5541 -0.429898
  230 165.598 17.8307 13.1339
  231 164.831 -3.07519 -17.9220
  232 18.7426 4.79865 2.74779
  233 18.7333 4.80020 -2.73866
  234 0.553795 3.64077 8.29569
  235 0.528281 3.65175 -8.29750
  236 127.187 -7.72598 -3.79333
  237 126.419 -7.83116 4.18373
  238 69.7214 1.19599 -0.740296
  239 69.7256 1.19288 0.739710
  240 -16.4951 1.14759 5.38695
  241 -16.5109 1.14973 -5.38894
  242 -2.17517 -2.14483 -3.50401
  243 -2.17386 -2.14424 3.50699
  244 -18.8607 0.575403 1.86482
  245 -18.8736 0.575200 -1.86362
  246 56.6445 4.81915 -3.60743
  247 56.6611 4.79983 3.62492
  248 72.4568 2.57759 -9.06065
  249 72.5275 2.52471 9.10348
  250 16.1920 1.54943 -0.362598
  251 16.1977 1.55098 0.363674
  252 41.1369 -2.32353 -32.5651
  253 48.9989 -0.902508 35.8380
  254 5.06948 2.19918 8.12346
  255 5.04727 2.25723 -8.14520
  256 174.620 -15.8640 -0.543529
  257 13.8193 5.79308 4.13020
  258 13.7995 5.80359 -4.12012
  259 40.2134 4.00525 -11.5232
  260 40.1510 4.11931 11.6848
  261 193.929 25.7728 -5.37549
  262 115.282 0.453348 4.65600
  263 115.264 0.495566 -4.68600
  264 -1.06801 -6.49737 -5.54782
  265 -1.04108 -6.52531 5.57124
  266 -0.261253 -15.6248 -7.78187
  267 0.435325 -18.6142 -7.44649
  268 0.213668 -18.4657 7.68754
  269 -3.08672 -2.71179 10.3394
  270 -3.09683 -2.70423 -10.3725
  271 5.73641 -16.1968 -1.20033
  272 6.15484 -15.1065 2.15033
  273 -6.69887 -0.585219 4.88088
  274 -6.70037 -0.587459 -4.88394
  275 81.0497 2.82412 -3.65382
  276 81.0673 2.80405 3.65121
  277 143.092 -15.5015 0.630089
  278 30.1609 3.15930 -0.624979
  279 30.1631 3.16281 0.628612
  280 -0.410593 -14.6387 7.42343
  281 1.71900 3.14014 4.08699
  282 1.70622 3.14222 -4.08335
  283 229.831 16.6052 -4.85086
  284 112.275 0.409411 1.39246
  285 112.265 0.412350 -1.39600
  286 73.2260 -4.23499 -24.7880
  287 73.9410 -4.16896 25.2255
  288 142.882 -14.6605 -3.02571
  289 -13.9038 0.403075 6.21243
  290 -13.9148 0.403616 -6.21798
  291 140.547 -14.2256 41.2766
  292 -6.45646 0.891624 9.50420
  293 -6.47375 0.892235 -9.51420
  294 22.4204 6.22097 -0.441615
  295 22.3401 6.28260 0.482134
  296 -26.4957 0.306154 0.360411
  297 -26.5084 0.306005 -0.360091
  298 117.951 -1.31569 -56.8933
  299 -24.2027 0.522463 -2.96541
  300 -24.1869 0.521754 2.96531
  301 -0.929260 -3.30927 10.7271
  302 -0.601658 -3.25456 -10.6521
  303 50.4465 5.57149 -5.32112
  304 50.4621 5.55892 5.36827
  305 9.72747 1.69368 1.52840
  306 9.72030 1.69229 -1.52653
  307 52.8515 2.64440 -0.883209
  308 52.8547 2.63832 0.884610
  309 4.63256 -4.75898 6.33549
  310 4.21927 -5.54026 -6.37062
  311 51.2927 1.49043 -0.155061
  312 51.2933 1.48801 0.155167
  313 -19.5834 0.506856 4.60575
  314 -19.5970 0.507733 -4.60917
  315 12.3027 -2.48022 -1.71184
  316 11.9163 -2.48627 1.38734
  317 117.496 0.170253 0.384869
  318 117.482 0.170612 -0.385276
  319 259.009 15.1746 9.12924
  320 24.8174 3.90982 1.42038
  321 24.8131 3.90728 -1.41396
  322 -6.99283 1.47750 2.60900
  323 -7.00445 1.47752 -2.60691
  324 34.7499 5.29132 -0.0121789
  325 34.7485 5.28709 0.0273327
  326 3.48760 3.53074 8.68048
  327 3.46643 3.54144 -8.68938
  328 0.508857 -26.6503 5.55618
  329 -27.2574 0.149989 -0.780381
  330 -27.2441 0.150158 0.780952
  331 88.6792 0.744141 -0.717663
  332 88.6860 0.742507 0.716874
  333 93.4357 1.11892 -1.90509
  334 93.4443 1.11279 1.90146
  335 -25.1687 0.498429 -2.21230
  336 -25.1538 0.498247 2.21305
  337 -2.13765 0.724634 0.364539
  338 -2.14662 0.723898 -0.364050
  339 -0.557336 -10.6880 5.56035
  340 -0.445706 -11.1141 -5.55280
  341 104.259 -9.04107 -16.5244
  342 108.486 -10.7950 16.1828
  343 61.4055 3.60232 -2.17746
  344 61.4151 3.58982 2.18065
  345 26.1804 6.48390 0.255712
  346 26.1455 6.50841 -0.223740
  347 -10.7346 1.96320 4.93406
  348 -10.7499 1.96568 -4.93362
  349 198.333 0.143160 1.43575
  350 9.72308 -18.2146 -9.75642
  351 10.4063 -17.3094 10.3242
  352 -4.97005 3.00483 7.72565
  353 -4.99021 3.01125 -7.72825
  354 -5.62839 -1.21768 9.10384
  355 -5.63873 -1.21864 -9.11545
  356 224.059 35.4027 -6.93234
  357 140.954 -2.91932 20.6056
  358 133.600 -2.92789 -2.76473
  359 133.421 -2.86181 2.51173
  360 92.2924 -0.824925 -10.4550
  361 92.1976 -0.936068 10.4500
  362 0.170956 -32.0790 -4.56036
  363 122.852 0.570964 -2.64561
  364 122.854 0.558524 2.62943
  365 1.51361 -30.5603 3.87184
  366 137.379 10.6539 -11.9626
  367 33.0394 1.66626 0.561297
  368 33.0366 1.66441 -0.560987
  369 93.0536 1.10647 -7.77619
  370 93.1190 1.04277 7.77590
  371 101.032 1.28819 -4.78297
  372 101.050 1.25990 4.76852
  373 -3.41243 1.36611 1.83734
  374 -3.42253 1.36548 -1.83549
  375 56.4506 3.14542 -12.1168
  376 56.4888 3.17299 12.2528
  377 121.190 0.175395 0.635454
  378 121.177 0.176087 -0.636581
  379 66.6745 4.16718 -5.96093
  380 66.7085 4.13283 5.98542
  381 77.8972 1.75589 1.48473
  382 77.8907 1.76092 -1.48628
  383 -3.75349 -0.692647 2.98201
  384 -3.75233 -0.694151 -2.98136
  385 -0.882417 -0.629808 -0.849132
  386 -0.882925 -0.630264 0.850489
  387 160.718 -21.8490 9.18552
  388 -2.17619 -5.18635 8.26278
  389 -2.16240 -5.22624 -8.26007
  390 24.5215 2.12446 -0.917849
  391 24.5254 2.12703 0.919981
  392 -0.805967 -3.97931 2.99042
  393 -0.814614 -3.97176 -2.99021
  394 8.76430 4.67312 4.57135
  395 8.74886 4.67873 -4.56499
  396 131.563 -0.288855 3.44902
  397 131.563 -0.233660 -3.53057
  398 -0.452144 -8.17445 10.1394
  399 -10.8543 -0.217527 4.65381
  400 -10.8585 -0.218182 -4.65795
  401 -0.493121 -8.60789 -10.0217
  402 123.885 0.271944 1.67964
  403 123.877 0.275776 -1.68595
  404 -1.77227 2.54860 9.59649
  405 -1.80427 2.55902 -9.60443
  406 90.3820 1.85025 -3.09168
  407 90.3932 1.83786 3.08598
  408 139.322 -6.02458 -4.01137
  409 139.959 -4.80401 3.11457
  410 -0.307464 -14.6019 -6.11947
  411 11.6150 4.15639 -3.83012
  412 11.7101 4.10063 3.82883
  413 134.392 9.04449 7.59353
  414 77.4600 -5.54279 -34.6840
  415 79.6795 -7.03922 36.4338
  416 3.65925 4.34962 6.57588
  417 3.63840 4.35852 -6.57315
  418 57.0528 2.13623 -0.602825
  419 57.0553 2.13216 0.602955
  420 55.1936 4.40203 55.5353
  421 22.0170 5.69332 -2.32644
  422 22.0297 5.68811 2.34060
  423 1.27791 -14.6426 7.22924
  424 -0.179082 -23.8241 -5.38446
  425 8.24639 5.22444 6.31659
  426 8.21966 5.23923 -6.31371
  427 10.0311 3.33258 -2.91789
  428 10.0404 3.33243 2.92261
  429 -4.26181 -0.380442 -10.3914
  430 -4.24445 -0.386489 10.3795
  431 26.6607 5.08389 -3.91081
  432 26.5538 5.16998 3.98387
  433 138.937 -4.82134 -15.4219
  434 3.48761 -2.00093 8.58153
  435 3.36301 -1.95142 -8.61955
  436 101.017 -4.24512 -11.5648
  437 101.475 -4.57897 11.5290
  438 -26.1340 0.231806 -2.82161
  439 -26.1184 0.231200 2.82047
  440 0.00534494 -23.3058 4.81924
  441 -0.175576 -14.7602 5.44017
  442 -10.7259 0.626876 7.96746
  443 -10.7385 0.627410 -7.97483
  444 72.3958 1.15730 -0.238589
  445 72.3998 1.15528 0.238152
  446 -2.23513 -3.52505 5.56035
  447 -2.23770 -3.53172 -5.55275
  448 43.9573 1.54778 -17.8196
  449 43.8914 1.76931 18.0704
  450 0.371569 -28.6135 -5.48550
  451 258.737 10.0015 0.358474
  452 0.673029 -34.4605 -3.55700
  453 -31.4388 0.0693533 -1.10046
  454 -31.4241 0.0694546 1.10103
  455 -12.2838 1.64195 6.69394
  456 -12.3007 1.64537 -6.69746
  457 -13.6833 0.185457 4.69756
  458 -13.6902 0.185608 -4.70176
  459 48.3866 5.46438 -3.36778
  460 48.3977 5.45474 3.39722
  461 74.3453 3.49708 -4.62410
  462 74.3715 3.46814 4.62997
  463 -1.45483 -5.01967 10.4473
  464 -1.45572 -4.98524 -10.4881
  465 127.798 1.54756 -19.5001
  466 8.30124 -3.31434 -2.69722
  467 8.01403 -3.38415 2.84492
  468 1.93565 -31.8651 0.551305
  469 1.20900 -36.6393 -1.39458
  470 -4.04803 -1.83682 5.73193
  471 -4.04821 -1.84261 -5.73266
  472 26.5932 -6.72036 -27.7571
  473 203.290 -4.27160 -16.3801
  474 44.0145 3.41260 0.662715
  475 44.0121 3.41927 -0.658319
  476 64.3347 0.399101 -17.3816
  477 64.5180 0.374912 17.6835
  478 18.1168 6.72977 3.11841
  479 18.0896 6.74929 -3.10374
  480 58.0171 4.59278 -8.72794
  481 58.0606 4.55975 8.80850
  482 1.67370 0.817589 9.87359
  483 1.80362 0.883128 -9.85923
  484 -27.7118 0.448240 -2.15445
  485 -27.6960 0.447997 2.15476
  486 130.756 -15.8294 -8.72283
  487 104.717 0.414155 -0.543228
  488 104.727 0.413486 0.542812
  489 3.98011 1.02847 -0.865162
  490 3.98817 1.02956 0.866252
  491 -7.61673 2.48640 6.38346
  492 -7.63422 2.49071 -6.38432
  493 -16.4284 1.05277 -2.46225
  494 -16.4151 1.05256 2.46364
  495 43.9727 4.85703 -1.15087
  496 43.9776 4.84810 1.16274
  497 -6.08258 2.03063 8.76366
  498 -6.10360 2.03641 -8.77070
  499 119.894 -3.13730 -6.07686
  500 120.083 -3.32198 5.94923
  501 77.3576 1.02345 -11.4791
  502 77.2563 0.951356 11.5876
  503 27.8081 1.80200 -0.556737
  504 27.8116 1.80421 0.557712
  505 0.227787 -14.8561 -8.66219
  506 139.947 -5.40829 12.7220
  507 1.70313 -10.2096 -8.16226
  508 38.5292 6.48037 3.23730
  509 38.5413 6.46891 -3.18585
  510 129.308 -14.8155 8.56830
  511 9.24227 -17.2983 13.9549
  512 154.917 -21.9285 -17.9488
  513 104.978 0.828840 5.73586
  514 104.943 0.880540 -5.75570
  515 0.193222 -12.7719 9.01375
  516 -2.04699 -0.618232 -1.58006
  517 -2.04825 -0.618128 1.58149
  518 11.2816 1.03185 -0.297202
  519 11.2883 1.03303 0.297638
  520 -0.363385 -8.18974 3.54921
  521 -0.329702 -8.14988 -3.56613
  522 86.4196 1.35548 1.22384
  523 86.4128 1.35833 -1.22529
  524 247.662 41.1841 14.8901
  525 9.48526 -7.72600 -1.72478
  526 7.34377 -9.87730 0.204260
  527 -3.74301 2.04074 -3.40365
  528 -3.73078 2.03990 3.40612
  529 -21.4120 0.342392 2.84742
  530 -21.4233 0.342759 -2.84972
  531 0.204689 -26.7381 5.40893
  532 -31.1535 0.331686 0.353962
  533 -31.1670 0.331608 -0.353582
  534 25.5810 -4.16375 -20.0750
  535 24.9850 -3.65133 20.9398
  536 23.3300 3.54366 -6.04745
  537 23.1544 3.66285 6.11487
  538 -5.81501 -1.27284 7.91888
  539 -5.82101 -1.27695 -7.92745
  540 22.6594 2.56835 1.01650
  541 22.6551 2.56582 -1.01345
  542 -13.9405 0.746880 1.15631
  543 -13.9520 0.746508 -1.15516
  544 27.0568 4.51003 1.32281
  545 27.0524 4.50795 -1.31316
  546 -0.574384 -1.83757 1.34712
  547 -0.576229 -1.83564 -1.34675
  548 9.50753 4.08264 5.90185
  549 9.44575 4.14689 -5.91414
  550 7.69071 0.675333 5.36835
  551 7.57779 0.664307 -5.42364
  552 106.895 1.11868 2.43521
  553 106.885 1.12480 -2.44084
  554 93.9541 1.71359 3.80556
  555 93.9396 1.73194 -3.81384
  556 -0.0975326 -22.2627 -3.32182
  557 64.8791 3.82236 -3.40078
  558 64.8947 3.80420 3.40712
  559 65.2352 2.06528 -1.15794
  560 65.2406 2.05917 1.15779
  561 -10.5849 0.526347 -0.0628616
  562 -10.5746 0.526834 0.0631526
  563 106.876 6.24158 -3.74657
  564 148.181 -19.9411 -5.46843
  565 117.606 5.18128 14.9589
  566 0.887378 -19.8237 -6.59811
  567 -7.62989 2.21299 -4.34608
  568 -7.61570 2.21121 4.34779
  569 0.887394 -11.6516 8.68084
  570 -6.84475 0.0916604 9.18988
  571 -6.85822 0.0919879 -9.19886
  572 188.009 18.2232 -2.06898
  573 41.7456 2.48891 -0.149648
  574 41.7457 2.48469 0.151465
  575 293.592 24.3096 -23.9927
  576 -1.72628 -1.37532 10.8658
  577 -1.63744 -1.30112 -10.8771
  578 156.692 -15.1510 8.49556
  579 126.948 0.347020 -2.96555
  580 126.944 0.327511 2.93922
  581 56.3078 -1.08049 -25.5249
  582 57.0370 -1.23629 25.9881
  583 -3.37035 -3.25777 9.19440
  584 -3.37204 -3.27247 -9.21428
  585 29.0723 1.61153 12.7400
  586 29.3158 1.37047 -12.5999
  587 -25.2305 0.301162 -2.72129
  588 -25.2156 0.300722 2.71973
  589 184.941 13.4546 14.4945
  590 33.7858 3.66490 -0.415299
  591 33.7868 3.66929 0.420376
  592 40.0480 4.91675 -8.50899
  593 40.0075 4.97769 8.63109
  594 113.965 0.123554 -5.66909
  595 114.008 0.0563599 5.63710
  596 -0.560743 -11.8554 -8.30963
  597 125.342 0.00738559 0.875540
  598 125.329 0.00828654 -0.877110
  599 -19.5174 0.498764 -0.494159
  600 -19.5055 0.499054 0.494808
  601 -33.3663 -0.163473 0.0321418
  602 -33.3797 -0.163572 -0.0320143
  603 2.45350 -18.7470 -3.71731
  604 -1.20601 -7.62439 7.03401
  605 -1.27182 -7.22259 -7.08122
  606 -14.5182 0.862746 6.67690
  607 -14.5319 0.864348 -6.68230
  608 86.0579 2.61041 4.74350
  609 86.0354 2.63877 -4.74809
  610 62.9241 1.34288 0.286633
  611 62.9217 1.34485 -0.286757
  612 13.5859 -5.69317 7.48663
  613 14.0560 -5.39630 -7.39507
  614 -0.454095 -5.69873 2.98790
  615 -0.467173 -5.67932 -2.99721
  616 150.092 5.06773 60.3063
  617 -7.35179 -0.237840 2.78208
  618 -7.35062 -0.238770 -2.78362
  619 2.39830 -11.4842 -6.80908
  620 61.4036 3.00130 -1.62666
  621 61.4100 2.99251 1.62789
  622 29.2679 6.38762 -1.99252
  623 29.2204 6.42419 2.04534
  624 0.308482 -40.9697 2.49505
  625 21.6685 6.44814 2.21015
  626 21.6507 6.45919 -2.19323
  627 -3.55021 2.72907 5.20775
  628 -3.56540 2.73218 -5.20588
  629 -0.178693 -19.7135 4.54436
  630 -32.9052 0.0797109 -1.08416
  631 -32.8898 0.0797113 1.08464
  632 39.7609 1.56858 -0.101590
  633 39.7620 1.57130 0.102301
  634 104.180 0.682405 1.57964
  635 104.171 0.685611 -1.58247
  636 90.6699 -8.25581 46.0426
  637 72.8312 2.35556 -2.71140
  638 72.8424 2.34253 2.71117
  639 0.829802 -1.98188 10.2452
  640 1.07623 -1.30992 -10.2521
  641 117.249 -13.6062 -37.0195
  642 285.248 10.1183 -10.0058
  643 -29.8828 0.0470736 -1.91159
  644 -29.8664 0.0467954 1.91116
  645 5.55291 1.82669 -1.78085
  646 5.56121 1.82767 1.78313
  647 -0.580365 -12.4730 7.29716
  648 158.222 8.24692 -19.2106
  649 124.026 -0.0592816 0.138818
  650 124.011 -0.0591644 -0.138935
  651 -8.01531 -0.472601 -6.52711
  652 -8.01005 -0.471082 6.52127
  653 -0.0170015 -28.1563 -4.42979
  654 126.220 -0.0961991 0.333695
  655 126.204 -0.0960111 -0.334010
  656 10.1861 4.14562 3.93030
  657 10.1740 4.14823 -3.92403
  658 93.8563 -8.79259 -23.9951
  659 95.6858 -8.77442 24.2959
  660 140.039 -0.731377 1.92943
  661 140.121 -0.718902 -2.03631
  662 0.601581 -35.8716 3.63652
  663 -9.14559 0.449457 -0.687073
  664 -9.13537 0.450022 0.687761
  665 44.8393 -1.67134 -43.0660
  666 41.4512 1.45673 0.248060
  667 41.4525 1.45868 -0.247861
  668 19.5490 1.95172 0.574810
  669 19.5439 1.94970 -0.573152
  670 23.5904 3.12636 -0.961779
  671 23.5946 3.12915 0.966315
  672 80.1858 2.69418 -7.32401
  673 80.2400 2.64384 7.33993
  674 20.3538 6.11676 1.44640
  675 20.2995 6.15930 -1.42416
  676 -15.7074 1.18478 -4.02264
  677 -15.6924 1.18338 4.02314
  678 -17.9445 1.23056 -4.49467
  679 -17.9288 1.22886 4.49393
  680 143.405 -2.08295 -0.864572
  681 -0.0436063 -6.24737 -10.2965
  682 143.752 -2.18620 0.626621
  683 179.839 14.5933 0.968868
  684 -18.1215 0.0798326 3.22364
  685 -18.1301 0.0799554 -3.22653
  686 17.6703 4.91216 0.260121
  687 17.5470 4.98230 -0.232488
  688 -35.4242 0.0747183 -0.431188
  689 -35.4095 0.0747793 0.431595
  690 0.0449190 -5.67549 10.3451
  691 -11.4869 0.121032 6.94648
  692 -11.4969 0.121116 -6.95288
  693 156.911 -14.2888 -9.13741
  694 23.2578 1.03416 -0.0660105
  695 23.2532 1.03264 0.0663992
  696 4.31822 2.54873 2.82596
  697 4.30835 2.54857 -2.82255
  698 81.4565 -4.09161 -19.8914
  699 82.1381 -4.25309 20.3217
  700 297.156 20.6411 22.1019
  701 5.21827 -30.4284 -8.01828
  702 -2.22327 -4.60951 9.87830
  703 -2.22904 -4.62477 -9.89573
  704 16.1089 4.17645 -2.42082
  705 16.1172 4.17653 2.42751
  706 129.722 -0.0644312 -0.901111
  707 129.734 -0.0653869 0.898738
  708 60.0080 1.56522 0.399429
  709 60.0054 1.56843 -0.399602
  710 4.22685 4.36939 7.84155
  711 4.20117 4.38333 -7.84306
  712 1.60174 1.42242 1.26234
  713 1.59312 1.42147 -1.26090
  714 -4.01932 0.690208 10.2950
  715 -4.04141 0.693046 -10.3091
  716 105.855 0.275034 0.648292
  717 105.845 0.276133 -0.649297
  718 91.0128 1.26481 1.77486
  719 91.0050 1.26909 -1.77729
  720 11.4995 -10.1577 9.25889
  721 11.8662 -10.7229 -8.89381
  722 -7.57933 1.47644 8.98488
  723 -7.59784 1.47952 -8.99364
  724 3.46188 -9.71248 5.64311
  725 -0.261104 2.50124 9.73103
  726 -0.295215 2.51109 -9.73338
  727 -21.3068 0.664329 -2.71489
  728 -21.2921 0.663854 2.71565
  729 14.6892 5.29294 3.83447
  730 14.6733 5.29916 -3.82440
  731 140.693 -4.40996 -8.78467
  732 133.411 -11.9144 -2.09183
  733 -2.21441 -4.51531 6.90464
  734 -2.21053 -4.53459 -6.89397
  735 50.3523 -1.93189 -30.1701
  736 48.9816 -0.772977 30.5365
  737 30.2368 5.80468 -3.64721
  738 30.1703 5.86286 3.72057
  739 2.43380 -5.79374 8.62199
  740 -0.203807 -14.5073 -3.92067
  741 64.6952 3.97593 -6.61650
  742 64.7380 3.94201 6.65592
  743 0.183258 -28.7052 3.67876
  744 37.9668 5.76870 -1.08286
  745 37.9664 5.76442 1.10477
  746 135.960 0.0326116 -2.25739
  747 135.931 0.0135166 2.21605
  748 2.51874 -40.9801 0.0175837
  749 59.4804 4.93930 4.85560
  750 59.4570 4.96277 -4.83096
  751 15.4229 5.45895 -2.90267
  752 15.4985 5.39913 2.90890
  753 -24.6991 0.165897 -2.27688
  754 -24.6859 0.165644 2.27514
  755 66.5838 1.69186 -1.05884
  756 66.5881 1.68762 1.05836
  757 40.1801 6.21435 -2.62356
  758 40.1772 6.21504 2.66172
  759 -0.568163 3.64066 7.67599
  760 -0.590267 3.64949 -7.67669
  761 133.837 -10.1560 0.490291
  762 -22.1554 0.562237 2.08898
  763 -22.1692 0.562245 -2.08800
  764 296.517 52.9897 -37.3425
  765 -9.29121 1.00620 2.28368
  766 -9.30269 1.00584 -2.28199
  767 114.446 0.677364 4.05368
  768 114.436 0.702691 -4.07593
  769 212.393 14.1450 0.522324
  770 130.574 -0.219695 -1.73168
  771 130.578 -0.223285 1.72417
  772 82.0772 1.70397 2.18392
  773 82.0693 1.71106 -2.18638
  774 123.167 -15.5236 33.6883
  775 52.3801 4.41974 -1.48655
  776 52.3883 4.40860 1.49390
  777 1.13304 -22.6417 5.05052
  778 141.689 -18.8380 9.86864
  779 85.7725 0.712992 0.387121
  780 85.7663 0.714349 -0.387435
  781 113.667 0.326297 0.208305
  782 113.654 0.326568 -0.208489
  783 -0.536649 -11.6024 -6.80859
  784 0.631554 -20.2413 6.97274
  785 49.3649 5.77670 6.75315
  786 49.3507 5.78249 -6.68140
  787 295.606 3.42273 2.36577
  788 86.4316 1.11268 -9.27737
  789 86.5053 1.05229 9.29678
  790 -18.7530 0.626317 5.05223
  791 -18.7682 0.627761 -5.05496
  792 3.42689 -17.1893 2.35430
  793 2.25751 -38.5262 -1.62596
  794 199.275 25.4347 -0.575094
  795 -0.181751 -14.4561 3.53641
  796 3.43301 2.57223 8.95021
  797 3.42502 2.57394 -8.97798
  798 25.3154 5.53951 1.61423
  799 25.3078 5.54112 -1.60124
  800 133.109 -5.98849 -1.37080
  801 133.266 -5.94562 0.834339
  802 158.985 16.0975 -56.8799
  803 -22.8740 0.350448 -1.03383
  804 -22.8609 0.350650 1.03473
  805 -10.1047 -0.0499071 2.63224
  806 -10.1051 -0.0502604 -2.63433
  807 8.99285 -0.0627994 3.64187
  808 8.80085 -0.0747513 -3.64910
  809 100.210 -0.212623 8.38770
  810 100.129 -0.111509 -8.38188
  811 50.2282 1.87560 -0.0756938
  812 50.2293 1.87232 0.0760748
  813 162.640 -4.12114 17.8260
  814 15.7718 3.07349 -2.13522
  815 15.7786 3.07494 2.13997
  816 15.0900 1.25519 -1.22336
  817 14.9533 1.33907 1.27375
  818 -0.154204 -11.7562 -9.34850
  819 233.955 30.6397 29.1813
  820 -34.3461 0.0617556 -1.06868
  821 -34.3298 0.0617007 1.06899
  822 -0.0506668 -35.1918 3.54473
  823 2.13183 -5.70856 -8.69050
  824 -4.98501 -0.314159 1.94015
  825 -4.98210 -0.314837 -1.94035
  826 184.639 8.44485 -13.8981
  827 46.5084 5.14193 -1.85146
  828 46.5161 5.13195 1.86954
  829 126.513 -1.56007 -4.19272
  830 126.604 -1.58896 4.10311
  831 -32.6882 0.274767 1.39113
  832 -32.7050 0.274916 -1.39115
  833 -0.220126 -0.228842 -0.182190
  834 -0.220558 -0.229259 0.182889
  835 0.123927 -36.0202 -3.49633
  836 0.173646 -38.3178 -3.31661
  837 -36.6362 0.385131 0.233009
  838 -36.6502 0.385112 -0.232835
  839 18.2220 -9.13919 -19.0717
  840 77.7178 1.45809 -0.579511
  841 77.7230 1.45573 0.578723
  842 -4.10983 0.884090 0.295256
  843 -4.11911 0.883451 -0.295068
  844 116.928 0.620146 -2.71479
  845 116.935 0.611111 2.70385
  846 -13.3135 0.0895574 2.51169
  847 -13.3163 0.0895910 -2.51389
  848 69.1489 -2.10209 -46.1340
  849 120.893 -10.5146 8.73615
  850 95.3272 0.850749 -0.792184
  851 95.3353 0.849091 0.790983
  852 119.697 -11.4706 -9.86896
  853 36.1929 4.58821 -0.0194073
  854 36.1931 4.58246 0.0300556
  855 50.6693 3.89894 -1.05408
  856 50.6746 3.89022 1.05876
  857 140.841 -3.06996 6.68950
  858 7.78206 4.91947 6.71661
  859 7.75173 4.93924 -6.72041
  860 7.36747 0.932468 0.629021
  861 7.36009 0.931322 -0.628285
  862 65.6839 1.37438 0.464080
  863 65.6808 1.37688 -0.464409
  864 175.762 -18.8048 17.2394
  865 109.342 0.999569 -3.50449
  866 109.353 0.982674 3.48980
  867 0.200462 1.88652 2.24998
  868 0.190615 1.88601 -2.24754
  869 109.999 0.187364 0.967268
  870 109.988 0.188625 -0.968796
  871 -21.8830 0.257088 -0.584597
  872 -21.8711 0.257349 0.584722
  873 -0.103381 -11.0363 3.14069
  874 -0.133852 -11.2088 -3.16608
  875 129.174 -2.17589 15.5074
  876 -8.63007 2.00826 7.70406
  877 -8.64864 2.01309 -7.70857
  878 -0.0481460 -18.2515 -3.49348
  879 50.7299 2.43338 -0.495689
  880 50.7316 2.42903 0.496548
  881 94.4074 -4.87637 -15.0719
  882 95.1895 -5.40482 15.2271
  883 -4.32427 -1.60456 -9.94030
  884 -4.30897 -1.60675 9.92486
  885 4.30161 4.50165 7.23859
  886 4.27777 4.51317 -7.23707
  887 0.470712 -42.5924 2.62220
  888 0.638444 3.38485 8.98806
  889 0.610504 3.39555 -8.99089
  890 87.0181 -1.47747 -13.3576
  891 86.8440 -1.56871 13.4668
  892 150.819 7.34517 19.7105
  893 33.6314 4.30826 -0.359541
  894 33.6324 4.31323 0.367137
  895 112.523 1.03278 -2.64451
  896 112.532 1.02522 2.63661
  897 -4.52995 -2.03040 8.66093
  898 -4.53604 -2.03663 -8.67328
  899 0.373638 -44.3543 -1.98182
  900 -6.95729 -0.538366 8.53235
  901 -6.96697 -0.538677 -8.54124
  902 3.22069 4.17333 -5.77069
  903 3.23838 4.16670 5.77415
  904 -0.348386 -2.73822 1.52446
  905 -0.352160 -2.73514 -1.52657
  906 8.45565 4.69550 -5.33358
  907 8.47468 4.68732 5.33972
  908 1.70274 -3.91124 9.56737
  909 1.45376 -3.64444 -9.98745
  910 108.040 -2.84922 8.46965
  911 107.769 -2.68273 -8.54346
  912 -37.2353 0.145623 -0.341645
  913 -37.2208 0.145681 0.341916
  914 -3.04413 -0.282236 1.44927
  915 -3.04101 -0.282628 -1.44858
  916 0.153400 -26.0138 -3.20904
  917 -3.34091 -1.45116 -4.15559
  918 -3.34078 -1.44813 4.15697
  919 -14.5591 1.18744 6.49281
  920 -14.5747 1.18994 -6.49715
  921 32.4616 6.63511 -0.944556
  922 32.4463 6.64805 0.978171
  923 140.177 11.5511 -3.63497
  924 -2.56630 3.28855 6.98375
  925 -2.58561 3.29491 -6.98383
  926 51.9116 3.11255 -13.6556
  927 51.9367 3.15904 13.8414
  928 -7.37261 2.35077 5.64826
  929 -7.38880 2.35442 -5.64799
  930 175.881 -10.8428 -5.94100
  931 99.6171 4.00589 8.45467
  932 124.523 -1.90167 -14.0307
  933 94.5918 1.73122 -5.68713
  934 94.6230 1.69171 5.67761
  935 -11.3324 1.49898 -2.91272
  936 -11.3195 1.49841 2.91443
  937 -23.4902 0.447835 3.30588
  938 -23.5059 0.448651 -3.30676
  939 -1.39525 -4.46297 -4.83132
  940 -1.38666 -4.46858 4.84148
  941 32.2297 2.62116 -0.266981
  942 32.2316 2.62462 0.269515
  943 -11.0677 1.06318 7.96256
  944 -11.0825 1.06482 -7.96989
  945 114.919 0.223622 1.29736
  946 114.908 0.225108 -1.29945
  947 -0.903963 -9.89483 7.40830
  948 3.07813 3.88971 -5.01260
  949 3.09331 3.88540 5.01643
  950 4.50931 2.83353 3.43318
  951 4.49839 2.83427 -3.42937
  952 18.1121 2.19569 -1.10735
  953 18.1175 2.19763 1.10957
  954 216.843 23.2899 -1.22942
  955 -0.821027 -0.233422 -0.561953
  956 -0.822780 -0.233472 0.563008
  957 6.69681 1.50889 -6.47074
  958 6.81273 1.44272 6.45890
  959 75.6890 3.54711 -5.77064
  960 75.7239 3.51044 5.78130
  961 8.48657 3.51878 -3.36591
  962 8.49732 3.51775 3.37094
  963 20.2422 -10.8669 26.1436
  964 145.675 -0.929789 -0.981357
  965 145.369 -0.892989 0.827265
  966 24.3760 -5.83403 22.3513
  967 25.3228 1.58987 0.113149
  968 25.3187 1.58808 -0.112457
  969 68.3415 -4.31579 -39.7883
  970 51.5522 1.42712 0.273317
  971 51.5518 1.42908 -0.273261
  972 6.19663 -8.18947 2.66138
  973 6.85046 -7.07094 -2.14263
  974 129.659 -0.0377883 0.451987
  975 129.643 -0.0375696 -0.452399
  976 -10.7116 0.00818676 6.26458
  977 -10.7188 0.00797897 -6.27016
  978 231.499 28.5111 10.5174
  979 -1.10105 -7.60658 -9.89453
  980 0.956403 -39.9411 2.93404
  981 -0.249528 -11.9829 9.17219
  982 133.817 0.0506030 -1.76772
  983 133.813 0.0453377 1.75593
  984 -1.77453 -3.23259 4.16332
  985 -1.77861 -3.23144 -4.15811
  986 163.096 16.3910 -12.1549
  987 300.482 3.06576 -1.59310
  988 -0.430108 -0.627497 -0.611606
  989 -0.429709 -0.628813 0.612479
  990 76.2383 1.40442 -1.19804
  991 76.2438 1.40093 1.19697
  992 -1.14229 -7.33381 9.95933
  993 106.930 0.896788 5.15233
  994 106.910 0.934768 -5.17268
  995 140.181 -9.62148 -7.16612
  996 -4.95321 -1.06216 4.72031
  997 -4.95343 -1.06558 -4.72144
  998 2.03821 -10.0538 7.60938
  999 -0.263529 -17.8319 7.19083
  1000 -0.0184622 -18.0985 3.48418
  1001 139.471 9.72080 -0.724161
  1002 162.213 17.7673 7.65022
  1003 117.109 -14.1911 -18.0702
  1004 1.53775 -18.0699 6.22942
  1005 1.98860 -26.2825 2.12605
  1006 31.2398 1.26308 0.168765
  1007 31.2367 1.26140 -0.168599
  1008 -1.31115 -1.49195 -1.96553
  1009 -1.31030 -1.49268 1.96739
  1010 0.988372 -14.8301 -8.01007
  1011 95.2134 0.547957 -0.290144
  1012 95.2214 0.547003 0.289755
  1013 17.9993 -1.49700 -7.48322
  1014 17.2052 -1.44826 7.41389
  1015 -2.43408 2.82005 8.96559
  1016 -2.46014 2.82931 -8.97149
  1017 -12.1054 1.77604 -5.62436
  1018 -12.0892 1.77315 5.62343
  1019 70.9900 1.20609 -13.5881
  1020 71.0574 1.25236 13.7543
  1021 50.6048 4.63535 -9.04326
  1022 50.6169 4.62745 9.15214
  1023 55.3408 4.58329 -2.73729
  1024 55.3525 4.56767 2.74811
  1025 145.966 -4.88835 -18.7671
  1026 -4.42921 1.68823 9.66436
  1027 -4.45320 1.69322 -9.67597
  1028 103.751 0.274832 6.97349
  1029 103.698 0.352064 -6.99037
  1030 -0.871180 -5.87211 10.4895
  1031 -8.48973 -0.304810 4.58109
  1032 -8.49173 -0.305939 -4.58462
  1033 94.3036 1.31605 -6.89388
  1034 94.3498 1.26103 6.88679
  1035 112.748 2.38801 -13.3593
  1036 -0.189986 -17.7787 -7.55539
  1037 -1.48212 -7.03036 8.81423
  1038 -1.54074 -7.10359 -8.73534
  1039 65.6951 4.37793 -4.56369
  1040 65.7206 4.35123 4.57886
  1041 83.9999 2.04708 2.73027
  1042 83.9899 2.05716 -2.73374
  1043 139.898 -9.39389 6.30535
  1044 5.28773 1.00825 -0.179590
  1045 5.29545 1.00918 0.179805
  1046 118.572 -15.9003 19.3125
  1047 -2.31643 0.738965 0.793949
  1048 -2.32554 0.738117 -0.793154
  1049 24.3702 6.61586 1.24088
  1050 24.3459 6.63315 -1.21734
  1051 8.64758 5.17994 5.82411
  1052 8.62504 5.19132 -5.81876
  1053 1.21568 -22.3702 -5.23913
  1054 33.0053 1.75113 -0.315189
  1055 33.0074 1.75408 0.316718
  1056 96.0046 3.41499 3.45516
  1057 95.8904 1.17887 2.60769
  1058 95.8810 1.18740 -2.61282
  1059 -0.777744 -6.06789 -10.5034
  1060 144.663 -1.79579 -3.51839
  1061 -0.399047 -0.854878 10.6158
  1062 -0.295371 -0.759212 -10.5767
  1063 133.241 -0.147326 -0.969869
  1064 133.251 -0.148505 0.966497
  1065 141.653 -0.371224 -1.68893
  1066 141.575 -0.391759 1.63051
  1067 -0.109062 -27.4631 2.64006
  1068 81.5014 2.61041 -3.64558
  1069 81.5142 2.59456 3.64236
  1070 100.032 1.33308 3.08662
  1071 100.021 1.34363 -3.09391
  1072 1.64251 2.06842 9.76994
  1073 1.63559 2.07220 -9.77070
  1074 218.483 15.3707 1.58559
  1075 -3.06018 -1.44213 10.6847
  1076 -3.09570 -1.41523 -10.7056
  1077 29.5712 6.33340 0.636684
  1078 29.5638 6.33638 -0.618006
  1079 -18.9500 0.480497 -1.11330
  1080 -18.9378 0.480843 1.11415
  1081 49.3659 2.39068 -15.8246
  1082 49.3216 2.53742 16.0568
  1083 13.4676 5.83495 4.78316
  1084 13.4422 5.84935 -4.77407
  1085 33.1717 3.24167 -11.1659
  1086 33.0081 3.41943 11.2969
  1087 -0.961163 -9.28102 -7.21005
  1088 118.969 1.26265 17.1276
  1089 84.8136 -2.93565 52.2473
  1090 12.6717 5.89032 4.95354
  1091 12.6398 5.91131 -4.94706
  1092 50.4965 3.27016 -0.727639
  1093 50.5004 3.26283 0.730517
  1094 189.412 -2.27903 8.29225
  1095 11.1993 2.42417 3.68833
  1096 11.0565 2.46764 -3.72131
  1097 -5.66952 -1.28185 6.31926
  1098 -5.67180 -1.28689 -6.32359
  1099 -0.187069 -4.09611 1.67085
  1100 -0.194081 -4.09314 -1.67727
  1101 124.092 0.186794 4.21892
  1102 124.077 0.240271 -4.26671
  1103 0.0428678 -9.28687 9.88721
  1104 -8.79568 0.466409 -8.61150
  1105 -8.78281 0.466171 8.60335
  1106 0.0497154 -33.5291 -3.44879
  1107 -2.18066 -3.02280 10.6634
  1108 -2.17627 -2.96594 -10.6727
  1109 119.164 0.400532 -1.77826
  1110 119.174 0.397236 1.77377
  1111 122.065 -0.608385 4.97289
  1112 122.005 -0.523685 -5.02453
  1113 20.0496 4.03558 -2.78904
  1114 19.8993 4.13538 2.84302
  1115 -0.309069 -17.2713 -6.04932
  1116 161.312 -18.1019 -29.6315
  1117 209.810 23.6180 -2.95432
  1118 1.97239 -27.8342 -1.40456
  1119 6.64276 3.95311 -7.52414
  1120 6.67963 3.92749 7.50240
  1121 18.6135 6.36267 2.85952
  1122 18.5765 6.38940 -2.84372
  1123 40.6548 2.98295 -0.0389311
  1124 40.6540 2.98822 0.0420005
  1125 -2.78747 -3.97120 8.20984
  1126 -2.78230 -4.00566 -8.21950
  1127 -8.48174 2.40981 7.15990
  1128 -8.49995 2.41458 -7.16242
  1129 -3.49005 2.97549 8.32644
  1130 -3.51275 2.98319 -8.33035
  1131 115.662 -5.84235 -8.15385
  1132 116.449 -5.91780 8.05166
  1133 0.0718329 -20.1534 -7.24599
  1134 60.3222 -0.711495 -20.2715
  1135 60.4531 -0.512942 20.6635
  1136 18.4654 6.02735 -2.93017
  1137 18.4812 6.01851 2.94325
  1138 62.6542 19.7621 58.6460
  1139 14.1404 4.94107 3.64525
  1140 14.1274 4.94486 -3.63668
  1141 159.235 -19.0751 -5.43631
  1142 58.8192 2.19236 0.663931
  1143 58.8156 2.19742 -0.663627
  1144 -2.74054 -2.45458 4.96384
  1145 -2.74125 -2.45941 -4.96074
  1146 -3.29287 -2.97040 6.45664
  1147 -3.29131 -2.98076 -6.45534
  1148 102.969 -11.6007 -29.2103
  1149 105.276 -12.6854 29.4486
  1150 17.0459 1.10826 0.0589047
  1151 17.0516 1.10971 -0.0581815
  1152 63.7678 3.13424 -10.8175
  1153 63.7931 3.08433 10.9460
  1154 142.659 -20.6588 21.7938
  1155 128.704 -0.180275 0.269190
  1156 128.687 -0.180126 -0.269290
  1157 -12.1527 1.82612 6.36885
  1158 -12.1696 1.82934 -6.37113
  1159 -20.5436 0.690477 -3.41438
  1160 -20.5285 0.689791 3.41483
  1161 31.0790 -3.41962 33.9851
  1162 92.6917 6.63803 -6.97098
  1163 58.3244 4.64107 -4.96927
  1164 58.3520 4.61777 5.00326
  1165 187.672 -9.87281 31.5597
  1166 59.2372 4.36139 -7.69465
  1167 59.2736 4.32859 7.75414
  1168 13.6157 2.30561 -1.50361
  1169 13.6223 2.30737 1.50630
  1170 4.89547 -22.0340 2.14368
  1171 4.95905 -21.6155 -3.46994
  1172 80.7989 -6.64949 -29.4224
  1173 81.9996 -6.27229 29.4415
  1174 30.7732 4.70986 -7.38985
  1175 30.6511 4.82452 7.49666
  1176 144.365 -10.2987 -12.5705
  1177 -5.56409 -0.578005 9.68894
  1178 -5.57827 -0.576660 -9.69971
  1179 -0.231986 -8.32688 -10.1426
  1180 35.4087 -0.594589 -20.9847
  1181 35.5110 -0.453075 21.4041
  1182 -0.0948419 -7.29543 1.87187
  1183 -0.0807126 -7.31225 -1.89400
  1184 -35.7354 0.313369 -0.994020
  1185 -35.7185 0.313273 0.994164
  1186 116.403 0.203655 -0.459476
  1187 116.416 0.203079 0.458609
  1188 70.1984 3.14766 -2.91726
  1189 70.2130 3.13136 2.91915
  1190 -2.96470 -0.252085 10.7536
  1191 -2.97272 -0.211260 -10.7713
  1192 0.0226364 -29.7407 -2.95669
  1193 -30.1492 0.0807392 1.55170
  1194 -30.1654 0.0809289 -1.55239
  1195 21.6683 -2.51779 -14.1573
  1196 21.4961 -2.37764 14.6723
  1197 134.471 -8.29674 0.618855
  1198 36.8673 1.22641 -18.7836
  1199 36.9085 1.36261 19.0175
  1200 -16.5139 0.0849332 2.29381
  1201 -16.5191 0.0849218 -2.29593
  1202 0.404764 -26.7611 -5.29161
  1203 -6.40067 1.25169 -1.49601
  1204 -6.39038 1.25229 1.49745
  1205 18.9160 5.21240 2.91895
  1206 18.9041 5.21564 -2.90814
  1207 75.1553 0.932915 -0.417954
  1208 75.1597 0.931249 0.417757
  1209 102.419 0.890132 1.98910
  1210 102.410 0.895449 -1.99330
  1211 5.07004 -1.49674 6.62318
  1212 4.99453 -1.58474 -6.71250
  1213 0.823793 -15.6022 7.95066
  1214 182.792 23.5431 10.4274
  1215 -5.66357 -0.459323 3.57556
  1216 -5.66283 -0.461025 -3.57660
  1217 0.639571 -14.6006 -8.24228
  1218 -0.558508 -8.64398 5.25167
  1219 -0.527756 -8.57612 -5.44414
  1220 145.481 -1.54530 3.13977
  1221 0.136753 -34.1408 3.04499
  1222 0.882700 -10.8518 -9.18119
  1223 15.6558 0.935660 0.237213
  1224 15.6499 0.934412 -0.237034
  1225 -1.54358 -6.39014 9.75526
  1226 -17.1939 1.01529 -2.96995
  1227 -17.1799 1.01482 2.97109
  1228 305.951 5.58936 8.28701
  1229 -8.80112 0.909211 8.76557
  1230 -8.81652 0.910381 -8.77415
  1231 68.3478 3.03811 -9.79806
  1232 68.4239 2.97385 9.86489
  1233 4.14757 -7.98025 -4.73834
  1234 65.2408 3.90832 -3.68773
  1235 65.2606 3.88658 3.69732
  1236 2.53804 -22.2239 -2.12472
  1237 -1.54603 -6.39690 -9.73060
  1238 -12.6653 0.634272 1.86235
  1239 -12.6770 0.633844 -1.86101
  1240 -5.41431 0.232692 -9.97600
  1241 -5.39733 0.232229 9.96626
  1242 138.656 10.8770 14.2481
  1243 79.4761 1.21434 -10.5714
  1244 79.5848 1.17405 10.5984
  1245 -37.7341 0.115903 -0.404297
  1246 -37.7186 0.115922 0.404634
  1247 71.9941 2.30826 -2.00630
  1248 72.0011 2.30086 2.00529
  1249 -39.0304 -0.613778 -0.0954033
  1250 -39.0444 -0.613867 0.0954504
  1251 107.675 -7.78086 -12.0804
  1252 -17.5074 0.282967 4.93093
  1253 -17.5191 0.283479 -4.93514
  1254 108.832 -8.21293 11.9676
  1255 73.0635 3.23371 -4.20335
  1256 73.0825 3.21079 4.20605
  1257 8.22732 -25.9021 -14.1126
  1258 0.150900 -24.3166 -6.24217
  1259 -0.571656 -10.2921 9.16159
  1260 237.569 32.7543 -28.4485
  1261 -0.0643821 -22.6554 6.01466
  1262 245.786 23.0294 -12.7468
  1263 -0.101920 -41.8451 -2.93373
  1264 10.0782 1.51678 -0.672724
  1265 10.0852 1.51817 0.674204
  1266 -0.107938 -9.38116 1.96352
  1267 -0.0882210 -9.42934 -1.95679
  1268 39.9176 1.54192 -0.147405
  1269 39.9190 1.54412 0.147777
  1270 146.216 -11.7826 12.0369
  1271 1.39260 1.37608 -1.73661
  1272 1.40150 1.37696 1.73835
  1273 0.852003 -47.0870 1.77780
  1274 0.542017 -49.9516 -1.74218
  1275 134.475 -17.6747 -12.5679
  1276 -0.389087 -12.4039 5.83656
  1277 138.028 8.24418 -17.4944
  1278 -0.422594 -16.3496 5.75405
  1279 0.271622 -45.3872 -2.39301
  1280 66.9212 2.48480 -2.08679
  1281 66.9301 2.47319 2.08763
  1282 -0.0437527 -24.1848 2.59964
  1283 -0.0690212 -20.2809 -5.89538
  1284 330.209 53.0907 46.8770
  1285 129.347 0.188625 0.214596
  1286 129.330 0.188596 -0.214575
  1287 2.89675 -0.250864 9.01502
  1288 2.79847 -0.113459 -9.04648
  1289 -2.47571 1.66759 10.2438
  1290 -2.51551 1.67401 -10.2576
  1291 134.709 -2.66020 -10.0037
  1292 125.820 -5.14499 -4.42047
  1293 125.659 -5.89055 4.42592
  1294 17.3076 2.57939 1.59074
  1295 17.3017 2.57725 -1.58710
  1296 -21.4103 0.586359 -3.96534
  1297 -21.3947 0.585288 3.96368
  1298 140.464 -20.7923 -18.2809
  1299 -1.06149 -2.54189 2.57773
  1300 -1.06524 -2.53931 -2.57613
  1301 147.572 -7.08150 17.6857
  1302 -1.60807 -5.97448 7.07549
  1303 -1.59089 -5.99519 -7.04234
  1304 -14.5735 1.03422 2.19915
  1305 -14.5860 1.03416 -2.19771
  1306 21.2381 1.47829 -6.68285
  1307 21.0192 1.61172 6.69256
  1308 33.6707 1.46487 0.346288
  1309 33.6682 1.46264 -0.345696
  1310 -15.0196 1.46551 6.22115
  1311 -15.0355 1.46798 -6.22422
  1312 121.007 0.515385 0.333987
  1313 120.993 0.515374 -0.333993
  1314 64.5273 -2.39297 39.4611
  1315 97.9738 0.633531 0.697169
  1316 97.9653 0.634643 -0.697909
  1317 63.3583 1.24921 -15.3353
  1318 63.3938 1.16680 15.4949
  1319 0.585590 -27.3644 -4.13903
  1320 23.8794 5.62861 -2.11553
  1321 23.7836 5.70189 2.17171
  1322 -0.228340 -0.221996 -0.309640
  1323 -0.229460 -0.222116 0.310528
  1324 82.8336 3.04068 5.61984
  1325 82.8037 3.07819 -5.61968
  1326 40.1564 3.86575 0.287211
  1327 40.1548 3.87222 -0.281246
  1328 60.0247 3.94825 -2.33935
  1329 60.0367 3.93357 2.34539
  1330 79.7520 0.989091 -0.693409
  1331 79.7573 0.987407 0.692946
  1332 -2.56099 -1.25316 -2.91565
  1333 -2.56113 -1.25213 2.91769
  1334 -25.7775 0.120575 1.30980
  1335 -25.7915 0.120496 -1.30894
  1336 -4.44354 -2.07644 -7.24213
  1337 -4.44201 -2.06724 7.23681
  1338 -15.5395 0.415467 0.571490
  1339 -15.5506 0.415024 -0.571067
  1340 -39.3507 0.383695 0.234627
  1341 -39.3652 0.383688 -0.234450
  1342 151.724 -21.1102 25.4284
  1343 105.076 -0.847388 -13.7776
</Section>

newXOutput 19

<Section columns = "stress_xx | stress_yy | stress_xy">
  1 141.132 -0.120759 0.129458
  2 141.152 -0.120827 -0.129523
  3 -44.9180 0.244852 -0.601937
  4 0.0729332 0.0214425 0.127607
  5 261.734 63.6113 80.0535
  6 295.573 72.8753 -76.2964
  7 0.0726887 0.0212071 -0.127284
  8 -44.9018 0.244858 0.601898
  9 140.679 -0.108736 -0.460904
  10 140.770 -0.352763 -0.761753
  11 142.112 -0.339958 -0.188456
  12 142.214 -0.303201 -0.868149
  13 142.480 -0.287422 -0.238771
  14 145.514 -0.295303 -0.343737
  15 146.501 -0.466376 -1.16120
  16 147.501 -0.177234 -0.776893
  17 148.064 0.201751 -1.50226
  18 154.195 -0.738595 -1.28959
  19 156.707 -0.534540 -1.68308
  20 159.398 -0.877465 -0.561017
  21 160.541 -1.22088 -0.250041
  22 158.797 -1.46041 2.37743
  23 152.524 -1.68654 4.84699
  24 138.283 -2.01827 10.1325
  25 115.878 0.943357 11.7097
  26 97.0030 1.06045 11.0501
  27 71.2147 2.67387 6.71275
  28 76.1924 2.60987 0.450115
  29 61.9330 7.94554 -4.35672
  30 91.2009 3.54538 -11.7991
  31 107.829 0.745233 -9.71421
  32 135.131 -0.508544 -8.40173
  33 150.377 -2.04608 -5.76551
  34 158.415 -1.70769 -2.37821
  35 160.114 -1.17652 0.250198
  36 159.093 -0.864114 0.509344
  37 156.556 -0.539371 1.62258
  38 154.117 -0.750474 1.25323
  39 148.042 0.194587 1.48320
  40 147.500 -0.179953 0.769106
  41 146.512 -0.467954 1.15775
  42 145.529 -0.296105 0.341963
  43 142.498 -0.287839 0.237825
  44 142.233 -0.303586 0.867942
  45 142.132 -0.340207 0.188282
  46 140.790 -0.352926 0.761912
  47 140.699 -0.108794 0.461003
  48 132.674 0.532070 -0.163324
  49 122.409 0.432367 -0.384919
  50 109.657 0.0309775 -0.417125
  51 96.5184 0.862189 -0.346972
  52 85.0948 0.821117 -0.280531
  53 72.9418 1.22687 -0.335634
  54 61.0174 1.83314 -0.223161
  55 48.7088 1.68451 -0.428789
  56 38.5485 1.29746 -0.585781
  57 25.2788 0.952264 -0.616722
  58 11.8529 1.14723 -0.465843
  59 0.679070 0.935830 -0.449672
  60 -13.2137 0.592986 -0.418416
  61 -23.5384 0.0284111 -0.964278
  62 -33.5252 -0.604483 -0.447328
  63 -43.6164 0.119270 0.275894
  64 -45.7515 0.791707 -0.140710
  65 -45.8512 0.364429 0.0952637
  66 -44.3028 0.199875 -0.0941473
  67 -44.6363 0.518329 -0.584676
  68 -43.8561 0.621556 -0.114587
  69 -41.4163 0.206002 -0.882240
  70 -41.7152 0.380800 -0.939860
  71 -40.5739 0.364617 -0.556943
  72 -37.5031 0.237990 -0.812490
  73 -35.9526 0.403091 -1.29857
  74 -33.6949 0.443492 -1.08515
  75 -29.7368 0.229131 -1.81213
  76 -27.4940 0.0699629 -1.51692
  77 -23.5292 0.100823 -1.73320
  78 -20.0933 0.0668940 -1.89894
  79 -17.1331 0.0192292 -1.49797
  80 -13.0664 0.0838489 -1.50484
  81 -9.57502 -0.0450918 -1.60161
  82 -6.20073 -0.179881 -1.39372
  83 -3.53912 -0.156573 -1.06033
  84 -1.72235 -0.268482 -0.880225
  85 -0.260826 -0.154727 -0.306743
  86 0.0391059 -0.168063 -0.104180
  87 -0.0916573 -0.0743605 -0.0115818
  88 -0.241662 -0.198239 -0.267554
  89 -0.234002 -1.45215 -0.762246
  90 -0.202982 -3.28936 -1.09793
  91 -0.107560 -5.66712 -1.60827
  92 -0.0583682 -8.72765 -1.38900
  93 -0.0561782 -11.5682 -1.75035
  94 -0.219038 -15.0709 -1.98584
  95 -0.0889763 -19.3712 -2.01733
  96 0.0423148 -23.7059 -1.93911
  97 0.0954988 -28.3655 -1.91900
  98 0.142583 -33.1745 -1.89744
  99 0.0228803 -36.7952 -2.57729
  100 0.260484 -41.8586 -2.31422
  101 0.310220 -47.8165 -1.89031
  102 0.0187882 -50.6560 -2.51680
  103 0.440930 -55.2228 -2.36612
  104 1.04228 -61.3362 -1.32056
  105 2.01606 -63.4315 -2.08955
  106 1.31927 -59.5511 0.732540
  107 1.73459 -47.4814 4.57964
  108 10.6967 -32.5830 15.2972
  109 34.8855 34.1536 58.1081
  110 406.329 20.5551 38.9329
  111 347.632 6.61111 14.4003
  112 336.452 2.68422 3.15243
  113 334.198 1.17173 -0.539236
  114 336.304 3.97146 -7.61727
  115 346.075 11.7626 -16.8143
  116 394.179 40.2564 -49.1950
  117 82.1081 25.9509 -71.2803
  118 17.4242 -32.0305 -19.2459
  119 5.06351 -51.8754 -6.73416
  120 1.36926 -56.6121 -0.858040
  121 1.60641 -61.1924 1.34643
  122 0.474529 -59.0343 1.07821
  123 0.191515 -53.8587 2.06524
  124 0.194959 -50.4982 1.65023
  125 0.264282 -45.2804 2.64478
  126 -0.0125244 -42.2011 2.53288
  127 0.105043 -38.0468 1.83281
  128 0.195553 -32.7653 2.29367
  129 0.0337772 -29.0093 1.82090
  130 0.0593134 -23.7520 2.29673
  131 -0.236998 -19.6005 1.96884
  132 -0.170974 -15.0857 1.92590
  133 -0.0418123 -11.5077 1.75567
  134 -0.0744131 -8.67878 1.39269
  135 -0.105546 -5.65073 1.59314
  136 -0.200233 -3.28691 1.09258
  137 -0.232804 -1.45424 0.761686
  138 -0.241408 -0.200311 0.268035
  139 -0.0916565 -0.0752811 0.0121848
  140 0.0380112 -0.168242 0.104758
  141 -0.262976 -0.154692 0.307530
  142 -1.72592 -0.268320 0.881154
  143 -3.54418 -0.156166 1.06076
  144 -6.20543 -0.179377 1.39345
  145 -9.57776 -0.0446763 1.60044
  146 -13.0667 0.0839278 1.50343
  147 -17.1299 0.0193700 1.49653
  148 -20.0871 0.0670208 1.89738
  149 -23.5191 0.100744 1.73167
  150 -27.4808 0.0698462 1.51560
  151 -29.7216 0.228955 1.81099
  152 -33.6774 0.443263 1.08441
  153 -35.9341 0.402865 1.29811
  154 -37.4841 0.237860 0.812361
  155 -40.5547 0.364499 0.556989
  156 -41.6961 0.380690 0.939944
  157 -41.3978 0.205954 0.882409
  158 -43.8380 0.621478 0.114881
  159 -44.6186 0.518290 0.584853
  160 -44.2857 0.199880 0.0943353
  161 -45.8344 0.364418 -0.0951085
  162 -45.7349 0.791647 0.140812
  163 -43.6003 0.119277 -0.275792
  164 -33.5104 -0.604291 0.447349
  165 -23.5250 0.0287063 0.964246
  166 -13.2019 0.593467 0.418499
  167 0.688508 0.936590 0.449728
  168 11.8604 1.14833 0.465889
  169 25.2837 0.953776 0.616760
  170 38.5510 1.29920 0.585770
  171 48.7094 1.68638 0.428768
  172 61.0158 1.83499 0.223072
  173 72.9381 1.22858 0.335464
  174 85.0889 0.822573 0.280311
  175 96.5102 0.863168 0.346668
  176 109.646 0.0316573 0.416777
  177 122.394 0.432517 0.384688
  178 132.656 0.532003 0.163221
  179 35.0657 6.65782 -0.386449
  180 35.0558 6.66226 0.414256
  181 -1.17385 0.788832 11.0341
  182 -1.20916 0.788660 -11.0326
  183 81.8096 -1.24363 -17.2667
  184 81.7856 -1.41619 17.4713
  185 15.6078 3.05724 0.656835
  186 15.4219 3.13656 -0.638307
  187 10.5335 2.45972 -2.14636
  188 10.5421 2.46088 2.14961
  189 78.0811 2.10087 -2.32314
  190 78.0907 2.09092 2.32219
  191 -2.52493 3.29099 6.33148
  192 -2.54337 3.29615 -6.33032
  193 90.8247 2.87165 -6.40053
  194 90.8672 2.82593 6.40229
  195 -3.66813 -3.22328 8.37381
  196 -3.66545 -3.24024 -8.38149
  197 0.620728 -8.03248 -10.4206
  198 27.1922 -0.0297879 -15.0714
  199 0.803765 -8.56609 10.2043
  200 26.7499 0.214670 15.3674
  201 129.280 -18.6646 -25.3260
  202 134.062 -19.4130 24.1861
  203 45.2867 2.12612 -0.0823685
  204 45.2865 2.12254 0.0835065
  205 -9.14897 0.770990 -1.35312
  206 -9.13745 0.771625 1.35412
  207 -10.9647 1.55600 8.39523
  208 -10.9829 1.55958 -8.40230
  209 45.4704 4.82044 -0.608549
  210 45.4740 4.81299 0.617018
  211 13.2456 5.77520 5.01823
  212 13.1982 5.81142 -5.01912
  213 -14.5462 1.56182 -3.72003
  214 -14.5308 1.56086 3.72117
  215 105.106 0.623840 1.18003
  216 105.096 0.626203 -1.18185
  217 3.08762 -15.2662 5.14249
  218 3.36259 -13.9566 -4.70840
  219 -1.05654 -9.04577 9.52256
  220 -1.07203 -9.36688 -9.21135
  221 41.8120 6.23502 -6.07708
  222 41.7875 6.26000 6.16533
  223 -9.62212 -0.100227 8.25627
  224 -9.63251 -0.100580 -8.26422
  225 112.467 1.09863 -3.64573
  226 112.478 1.08528 3.63497
  227 120.556 -1.38735 -7.07119
  228 120.640 -1.52243 7.01835
  229 191.018 15.3762 -0.440635
  230 175.286 18.8940 13.7827
  231 174.417 -3.19776 -18.8533
  232 19.8829 5.06802 2.87908
  233 19.8728 5.06982 -2.86963
  234 0.615769 3.85483 8.75243
  235 0.588435 3.86645 -8.75466
  236 134.593 -8.17514 -4.05116
  237 133.782 -8.28601 4.46504
  238 73.8039 1.24608 -0.790480
  239 73.8086 1.24287 0.789891
  240 -17.4263 1.21290 5.68810
  241 -17.4435 1.21518 -5.69037
  242 -2.30100 -2.26876 -3.70796
  243 -2.29959 -2.26810 3.71108
  244 -19.9069 0.603552 1.96377
  245 -19.9212 0.603362 -1.96258
  246 59.9867 5.08301 -3.84672
  247 60.0041 5.06293 3.86521
  248 76.7178 2.71552 -9.62270
  249 76.7921 2.66010 9.66807
  250 17.1903 1.62586 -0.375135
  251 17.1967 1.62743 0.376242
  252 43.5830 -2.36263 -34.5493
  253 51.9012 -0.866138 38.0090
  254 5.38795 2.34238 8.56335
  255 5.36427 2.40378 -8.58669
  256 184.729 -16.7014 -0.677135
  257 14.6673 6.12679 4.33725
  258 14.6459 6.13803 -4.32688
  259 42.6079 4.25492 -12.2520
  260 42.5413 4.37557 12.4223
  261 205.200 27.3219 -5.55579
  262 121.975 0.466311 4.93699
  263 121.955 0.510708 -4.96827
  264 -1.12915 -6.87257 -5.86895
  265 -1.10055 -6.90204 5.89366
  266 -0.275244 -16.5207 -8.22735
  267 0.463146 -19.6694 -7.86384
  268 0.227985 -19.5176 8.12191
  269 -3.25875 -2.86179 10.9300
  270 -3.26954 -2.85392 -10.9654
  271 6.08425 -17.0675 -1.31761
  272 6.52860 -15.9130 2.32582
  273 -7.08601 -0.618295 5.16307
  274 -7.08768 -0.620677 -5.16636
  275 85.7895 2.96944 -3.88373
  276 85.8083 2.94846 3.88114
  277 151.417 -16.3786 0.603930
  278 31.9678 3.32755 -0.642643
  279 31.9703 3.33112 0.646423
  280 -0.433293 -15.4788 7.84886
  281 1.86534 3.31584 4.30283
  282 1.85138 3.31813 -4.29918
  283 243.122 17.5438 -5.18098
  284 118.777 0.421531 1.47788
  285 118.766 0.424601 -1.48154
  286 77.5425 -4.45864 -26.2909
  287 78.2969 -4.38893 26.7528
  288 151.195 -15.4911 -3.13696
  289 -14.7002 0.427103 6.56674
  290 -14.7122 0.427661 -6.57275
  291 148.705 -14.9559 43.7513
  292 -6.81670 0.947566 10.0432
  293 -6.83520 0.948149 -10.0539
  294 23.7692 6.59304 -0.514804
  295 23.6838 6.65829 0.557204
  296 -27.9786 0.320144 0.378794
  297 -27.9928 0.319993 -0.378472
  298 124.817 -1.26527 -60.2812
  299 -25.5774 0.550954 -3.12937
  300 -25.5602 0.550194 3.12915
  301 -0.974071 -3.48838 11.3338
  302 -0.626701 -3.42987 -11.2536
  303 53.4336 5.88605 -5.66978
  304 53.4496 5.87313 5.71949
  305 10.3493 1.78023 1.60431
  306 10.3414 1.77883 -1.60241
  307 55.9686 2.77902 -0.949874
  308 55.9721 2.77275 0.951369
  309 4.91794 -5.00373 6.66882
  310 4.47922 -5.82998 -6.70709
  311 54.3182 1.55796 -0.169894
  312 54.3189 1.55548 0.170010
  313 -20.7052 0.535969 4.86676
  314 -20.7200 0.536894 -4.87049
  315 13.0469 -2.58081 -1.86442
  316 12.6378 -2.58764 1.52016
  317 124.285 0.170670 0.408633
  318 124.270 0.171043 -0.409043
  319 273.889 16.0300 9.69417
  320 26.3135 4.12372 1.47924
  321 26.3086 4.12119 -1.47257
  322 -7.34929 1.55640 2.74597
  323 -7.36209 1.55648 -2.74388
  324 36.8228 5.58597 -0.0437530
  325 36.8210 5.58173 0.0596355
  326 3.71713 3.74446 9.15596
  327 3.69445 3.75571 -9.16575
  328 0.539546 -28.1687 5.86483
  329 -28.7888 0.155220 -0.821260
  330 -28.7740 0.155393 0.821831
  331 93.8406 0.769992 -0.762573
  332 93.8483 0.768305 0.761770
  333 98.8722 1.16697 -2.02425
  334 98.8818 1.16057 2.02051
  335 -26.5901 0.524270 -2.33280
  336 -26.5738 0.524062 2.33351
  337 -2.20246 0.757302 0.381687
  338 -2.21244 0.756552 -0.381190
  339 -0.589028 -11.3060 5.88141
  340 -0.470971 -11.7568 -5.87344
  341 110.360 -9.55673 -17.5345
  342 114.828 -11.4111 17.1735
  343 65.0174 3.79254 -2.32425
  344 65.0275 3.77955 2.32767
  345 27.7514 6.86061 0.228291
  346 27.7141 6.88671 -0.194831
  347 -11.3211 2.07380 5.20433
  348 -11.3378 2.07646 -5.20405
  349 209.780 0.275199 1.65099
  350 10.3110 -19.1652 -10.3903
  351 11.0351 -18.2031 10.9904
  352 -5.22947 3.17947 8.15412
  353 -5.25115 3.18629 -8.15714
  354 -5.94815 -1.28407 9.62572
  355 -5.95922 -1.28515 -9.63816
  356 237.016 37.5244 -7.46948
  357 149.211 -3.05967 21.7172
  358 141.352 -3.10561 -2.94342
  359 141.166 -3.03542 2.67709
  360 97.6972 -0.882561 -11.0968
  361 97.5965 -0.999494 11.0919
  362 0.180851 -33.9078 -4.81157
  363 129.960 0.593988 -2.80392
  364 129.963 0.580926 2.78705
  365 1.60384 -32.2893 4.07530
  366 145.503 11.2855 -12.5811
  367 35.0134 1.74610 0.588842
  368 35.0103 1.74421 -0.588529
  369 98.4944 1.15577 -8.25308
  370 98.5635 1.08892 8.25315
  371 106.911 1.34651 -5.07349
  372 106.931 1.31683 5.05851
  373 -3.55664 1.43697 1.93145
  374 -3.56781 1.43635 -1.92959
  375 59.7912 3.33085 -12.8719
  376 59.8308 3.36035 13.0154
  377 128.189 0.177065 0.674484
  378 128.175 0.177787 -0.675636
  379 70.5979 4.39383 -6.33847
  380 70.6336 4.35793 6.36443
  381 82.4484 1.83892 1.58036
  382 82.4413 1.84413 -1.58194
  383 -3.97160 -0.732366 3.15540
  384 -3.97041 -0.733968 -3.15474
  385 -0.934031 -0.666553 -0.899150
  386 -0.934565 -0.667031 0.900586
  387 170.034 -23.0550 9.80063
  388 -2.29965 -5.48237 8.73865
  389 -2.28506 -5.52469 -8.73591
  390 26.0019 2.23282 -0.956903
  391 26.0062 2.23544 0.959105
  392 -0.852435 -4.21068 3.16445
  393 -0.861599 -4.20273 -3.16425
  394 9.31883 4.93958 4.80923
  395 9.30211 4.94562 -4.80274
  396 139.182 -0.315395 3.65724
  397 139.180 -0.257264 -3.74289
  398 -0.473798 -8.63513 10.7162
  399 -11.4814 -0.229400 4.92174
  400 -11.4860 -0.230105 -4.92618
  401 -0.517186 -9.09390 -10.5921
  402 131.045 0.279149 1.78035
  403 131.036 0.283165 -1.78690
  404 -1.85291 2.70268 10.1324
  405 -1.88707 2.71364 -10.1411
  406 95.6493 1.93967 -3.28287
  407 95.6615 1.92674 3.27701
  408 147.427 -6.37347 -4.20880
  409 148.093 -5.08432 3.26526
  410 -0.324562 -15.4448 -6.47196
  411 12.3225 4.41566 -4.01066
  412 12.4236 4.35680 4.00884
  413 142.364 9.57003 7.98221
  414 82.0193 -5.81791 -36.7724
  415 84.3638 -7.40053 38.6227
  416 3.90937 4.60111 6.93089
  417 3.88694 4.61058 -6.92830
  418 60.4104 2.24095 -0.648415
  419 60.4131 2.23676 0.648572
  420 58.4535 4.83226 58.8678
  421 23.3467 6.01701 -2.42876
  422 23.3604 6.01132 2.44348
  423 1.35798 -15.4609 7.62678
  424 -0.189412 -25.1964 -5.69215
  425 8.76264 5.53048 6.65110
  426 8.73401 5.54618 -6.64840
  427 10.6652 3.51669 -3.06561
  428 10.6754 3.51642 3.07045
  429 -4.49816 -0.396064 -10.9825
  430 -4.47960 -0.402431 10.9697
  431 28.2587 5.39516 -4.19111
  432 28.1451 5.48620 4.26790
  433 147.057 -5.09105 -16.2582
  434 3.70674 -2.09525 9.05017
  435 3.57465 -2.04333 -9.09080
  436 106.926 -4.49679 -12.2743
  437 107.409 -4.84918 12.2370
  438 -27.6300 0.244244 -2.97990
  439 -27.6129 0.243601 2.97860
  440 0.00547495 -24.6514 5.09551
  441 -0.185441 -15.6138 5.75381
  442 -11.3365 0.664837 8.42126
  443 -11.3500 0.665375 -8.42922
  444 76.6302 1.20515 -0.256044
  445 76.6347 1.20307 0.255599
  446 -2.36360 -3.72782 5.88253
  447 -2.36636 -3.73493 -5.87456
  448 46.5714 1.66770 -18.9223
  449 46.5007 1.90163 19.1867
  450 0.393330 -30.2517 -5.79372
  451 273.595 10.5445 0.372751
  452 0.713035 -36.4109 -3.74350
  453 -33.2193 0.0706310 -1.15971
  454 -33.2031 0.0707326 1.16027
  455 -12.9717 1.73696 7.06869
  456 -12.9900 1.74058 -7.07263
  457 -14.4725 0.196480 4.96717
  458 -14.4800 0.196632 -4.97168
  459 51.2524 5.76999 -3.59873
  460 51.2638 5.76012 3.62975
  461 78.7055 3.68193 -4.91651
  462 78.7332 3.65168 4.92285
  463 -1.53329 -5.30039 11.0429
  464 -1.53428 -5.26411 -11.0861
  465 135.341 1.66118 -20.5568
  466 8.80664 -3.46902 -2.81000
  467 8.50194 -3.54301 2.96662
  468 2.05293 -33.6391 0.550204
  469 1.28320 -38.6921 -1.44672
  470 -4.28130 -1.94176 6.06375
  471 -4.28155 -1.94792 -6.06460
  472 28.1842 -6.95356 -29.4645
  473 215.006 -4.36300 -17.4617
  474 46.6231 3.59343 0.721512
  475 46.6207 3.60031 -0.716890
  476 68.1347 0.432829 -18.4480
  477 68.3275 0.407424 18.7669
  478 19.2151 7.12137 3.26183
  479 19.1858 7.14213 -3.24666
  480 61.4465 4.85410 -9.27914
  481 61.4918 4.81957 9.36415
  482 1.78905 0.878540 10.4216
  483 1.92654 0.947897 -10.4066
  484 -29.2867 0.472214 -2.27285
  485 -29.2694 0.471948 2.27311
  486 138.373 -16.7316 -9.28320
  487 110.786 0.424673 -0.576205
  488 110.798 0.423983 0.575786
  489 4.26913 1.07736 -0.906982
  490 4.27808 1.07847 0.908092
  491 -8.02640 2.62866 6.73605
  492 -8.04531 2.63325 -6.73718
  493 -17.3372 1.10916 -2.59381
  494 -17.3225 1.10890 2.59518
  495 46.5806 5.12360 -1.24554
  496 46.5855 5.11442 1.25803
  497 -6.41312 2.15074 9.25520
  498 -6.43566 2.15683 -9.26291
  499 126.872 -3.32905 -6.45384
  500 127.073 -3.52388 6.31999
  501 81.9061 1.07618 -12.1869
  502 81.7983 1.00053 12.3018
  503 29.4793 1.89070 -0.579641
  504 29.4832 1.89296 0.580644
  505 0.243973 -15.6994 -9.15241
  506 148.114 -5.71214 13.4097
  507 1.81002 -10.7739 -8.61285
  508 40.8229 6.85397 3.46856
  509 40.8361 6.84158 -3.41443
  510 136.843 -15.6597 9.12077
  511 9.80315 -18.1547 14.8388
  512 163.909 -23.1305 -19.0698
  513 111.091 0.861838 6.08524
  514 111.054 0.916161 -6.10578
  515 0.208019 -13.4946 9.52380
  516 -2.16646 -0.654047 -1.67245
  517 -2.16778 -0.653930 1.67395
  518 11.9957 1.07895 -0.310514
  519 12.0032 1.08016 0.310960
  520 -0.384243 -8.66546 3.75494
  521 -0.348627 -8.62336 -3.77288
  522 91.4546 1.41641 1.30061
  523 91.4470 1.41936 -1.30209
  524 261.930 43.6495 15.8879
  525 10.0596 -8.11922 -1.87723
  526 7.78972 -10.3963 0.263540
  527 -3.91345 2.15267 -3.58415
  528 -3.90005 2.15172 3.58661
  529 -22.6466 0.361975 3.00985
  530 -22.6587 0.362364 -3.01236
  531 0.216738 -28.2722 5.71482
  532 -32.9093 0.348156 0.371576
  533 -32.9244 0.348079 -0.371193
  534 27.1136 -4.31871 -21.3227
  535 26.4828 -3.77868 22.2377
  536 24.7309 3.77850 -6.45737
  537 24.5446 3.90434 6.52813
  538 -6.14794 -1.34382 8.37448
  539 -6.15440 -1.34820 -8.38366
  540 24.0316 2.70332 1.05857
  541 24.0268 2.70076 -1.05542
  542 -14.6962 0.784051 1.21499
  543 -14.7089 0.783682 -1.21383
  544 28.6824 4.75975 1.37218
  545 28.6775 4.75773 -1.36212
  546 -0.607654 -1.94508 1.42602
  547 -0.609611 -1.94305 -1.42563
  548 10.0910 4.33409 6.20670
  549 10.0253 4.40203 -6.22014
  550 8.16214 0.739405 5.64053
  551 8.04237 0.727700 -5.69960
  552 113.095 1.16945 2.58279
  553 113.085 1.17584 -2.58859
  554 99.4277 1.79585 4.03942
  555 99.4120 1.81505 -4.04797
  556 -0.103192 -23.5528 -3.51299
  557 68.6932 4.02595 -3.62164
  558 68.7096 4.00704 3.62841
  559 69.0632 2.16570 -1.23812
  560 69.0691 2.15937 1.23801
  561 -11.1412 0.549354 -0.0643465
  562 -11.1297 0.549851 0.0646441
  563 113.319 6.59916 -3.95011
  564 156.793 -21.0591 -5.85531
  565 124.597 5.49730 15.7632
  566 0.942616 -20.9426 -6.96233
  567 -8.03165 2.33654 -4.58131
  568 -8.01617 2.33461 4.58295
  569 0.944565 -12.3038 9.16617
  570 -7.23186 0.100473 9.71429
  571 -7.24628 0.100772 -9.72397
  572 198.978 19.2782 -2.11215
  573 44.2224 2.61553 -0.172927
  574 44.2225 2.61119 0.174832
  575 310.382 25.7227 -25.4304
  576 -1.81472 -1.44484 11.4808
  577 -1.72046 -1.36630 -11.4927
  578 165.794 -15.9890 8.90438
  579 134.292 0.358155 -3.14216
  580 134.289 0.337636 3.11463
  581 59.6422 -1.10591 -27.0797
  582 60.4122 -1.27149 27.5686
  583 -3.56109 -3.44137 9.72237
  584 -3.56295 -3.45699 -9.74356
  585 30.8119 1.74395 13.5467
  586 31.0702 1.48933 -13.3991
  587 -26.6790 0.318046 -2.87499
  588 -26.6628 0.317578 2.87326
  589 195.675 14.3177 15.1919
  590 35.8025 3.86237 -0.418143
  591 35.8038 3.86685 0.423444
  592 42.4320 5.21168 -9.05722
  593 42.3885 5.27626 9.18590
  594 120.591 0.116860 -6.01225
  595 120.637 0.0461446 5.97899
  596 -0.591515 -12.5337 -8.78562
  597 132.577 0.00176967 0.928170
  598 132.563 0.00271324 -0.929782
  599 -20.5958 0.522410 -0.518034
  600 -20.5826 0.522702 0.518691
  601 -35.2485 -0.175239 0.0331916
  602 -35.2636 -0.175345 -0.0330617
  603 2.60323 -19.7857 -3.90098
  604 -1.27450 -8.06314 7.43994
  605 -1.34406 -7.63790 -7.48989
  606 -15.3459 0.913116 7.05581
  607 -15.3606 0.914801 -7.06168
  608 91.0860 2.74391 5.03742
  609 91.0620 2.77359 -5.04205
  610 66.6169 1.40145 0.305848
  611 66.6142 1.40347 -0.305971
  612 14.4071 -5.95974 7.98459
  613 14.9044 -5.64509 -7.88801
  614 -0.480178 -6.03018 3.16144
  615 -0.494039 -6.00970 -3.17133
  616 158.766 5.54749 63.9131
  617 -7.77918 -0.251256 2.94319
  618 -7.77800 -0.252246 -2.94485
  619 2.54652 -12.1162 -7.17683
  620 65.0132 3.15625 -1.73786
  621 65.0201 3.14713 1.73920
  622 31.0197 6.76246 -2.15476
  623 30.9690 6.80130 2.21022
  624 0.325945 -43.2974 2.62483
  625 22.9766 6.81873 2.30255
  626 22.9574 6.83060 -2.28494
  627 -3.71559 2.88297 5.49007
  628 -3.73209 2.88632 -5.48830
  629 -0.189049 -20.8528 4.80557
  630 -34.7748 0.0825390 -1.14294
  631 -34.7578 0.0825359 1.14341
  632 42.1226 1.64188 -0.0984953
  633 42.1239 1.64467 0.0992363
  634 110.223 0.707605 1.67671
  635 110.213 0.710944 -1.67961
  636 95.9803 -8.66363 48.7950
  637 77.0977 2.47312 -2.88582
  638 77.1097 2.45954 2.88569
  639 0.891527 -2.08060 10.8180
  640 1.15311 -1.37022 -10.8245
  641 124.089 -14.3317 -39.2423
  642 301.542 10.6840 -10.6043
  643 -31.5948 0.0489085 -2.01855
  644 -31.5768 0.0486130 2.01803
  645 5.93051 1.92265 -1.86989
  646 5.93970 1.92362 1.87221
  647 -0.612984 -13.1900 7.71661
  648 167.467 8.76928 -20.2140
  649 131.182 -0.0685646 0.147659
  650 131.165 -0.0684403 -0.147775
  651 -8.47653 -0.498523 -6.90291
  652 -8.47084 -0.496896 6.89664
  653 -0.0182647 -29.7788 -4.68216
  654 133.500 -0.106545 0.353862
  655 133.483 -0.106346 -0.354178
  656 10.8263 4.37889 4.13278
  657 10.8130 4.38178 -4.12636
  658 99.3614 -9.28343 -25.4472
  659 101.293 -9.26364 25.7649
  660 148.140 -0.779693 2.04844
  661 148.224 -0.766618 -2.16089
  662 0.636725 -37.9253 3.83771
  663 -9.61932 0.467953 -0.721518
  664 -9.60795 0.468530 0.722213
  665 47.4765 -1.54823 -45.6681
  666 43.9102 1.52326 0.265616
  667 43.9117 1.52526 -0.265406
  668 20.7416 2.05075 0.596328
  669 20.7359 2.04870 -0.594619
  670 25.0157 3.29411 -0.997427
  671 25.0205 3.29693 1.00213
  672 84.8874 2.83558 -7.77831
  673 84.9446 2.78282 7.79533
  674 21.5815 6.47849 1.48705
  675 21.5235 6.52357 -1.46395
  676 -16.5831 1.25027 -4.24337
  677 -16.5667 1.24876 4.24375
  678 -18.9563 1.30001 -4.74405
  679 -18.9393 1.29820 4.74311
  680 151.720 -2.20722 -0.898373
  681 -0.0389166 -6.59346 -10.8783
  682 152.082 -2.31657 0.647982
  683 190.362 15.4271 0.978861
  684 -19.1676 0.0846183 3.40808
  685 -19.1770 0.0847425 -3.41120
  686 18.7370 5.21584 0.226952
  687 18.6062 5.28996 -0.198210
  688 -37.4343 0.0772585 -0.453259
  689 -37.4179 0.0773203 0.453667
  690 0.0555730 -5.98808 10.9286
  691 -12.1446 0.129289 7.34368
  692 -12.1555 0.129356 -7.35059
  693 166.027 -15.0762 -9.58207
  694 24.6664 1.07922 -0.0734850
  695 24.6614 1.07766 0.0738878
  696 4.62074 2.68765 2.97140
  697 4.60989 2.68756 -2.96793
  698 86.2469 -4.31796 -21.1020
  699 86.9660 -4.48829 21.5568
  700 314.132 21.8352 23.4158
  701 5.53490 -32.0546 -8.53943
  702 -2.34740 -4.86931 10.4440
  703 -2.35344 -4.88555 -10.4626
  704 17.0966 4.40871 -2.53684
  705 17.1057 4.40865 2.54374
  706 137.204 -0.0727714 -0.954930
  707 137.218 -0.0737757 0.952478
  708 63.5345 1.63676 0.430782
  709 63.5317 1.64007 -0.430948
  710 4.50398 4.62779 8.26786
  711 4.47648 4.64254 -8.26980
  712 1.75193 1.49500 1.32523
  713 1.74236 1.49405 -1.32376
  714 -4.23773 0.736768 10.8771
  715 -4.26129 0.739659 -10.8922
  716 111.990 0.277724 0.688795
  717 111.979 0.278864 -0.689821
  718 96.3102 1.32097 1.88497
  719 96.3015 1.32542 -1.88745
  720 12.1958 -10.6658 9.86323
  721 12.5837 -11.2639 -9.47681
  722 -8.00132 1.56458 9.49265
  723 -8.02117 1.56780 -9.50214
  724 3.67507 -10.2389 5.93863
  725 -0.254847 2.65465 10.2725
  726 -0.291234 2.66499 -10.2753
  727 -22.5048 0.699777 -2.86258
  728 -22.4887 0.699258 2.86327
  729 15.5898 5.59467 4.02615
  730 15.5726 5.60139 -4.01576
  731 148.890 -4.66201 -9.25442
  732 141.179 -12.5978 -2.26090
  733 -2.34114 -4.77420 7.30355
  734 -2.33708 -4.79467 -7.29235
  735 53.3390 -1.98111 -32.0062
  736 51.8889 -0.756478 32.3918
  737 32.0458 6.15069 -3.90971
  738 31.9749 6.21233 3.98685
  739 2.58687 -6.10475 9.09612
  740 -0.215270 -15.3489 -4.14716
  741 68.5070 4.19439 -7.03660
  742 68.5519 4.15896 7.07828
  743 0.193458 -30.3640 3.88964
  744 40.2270 6.09226 -1.17997
  745 40.2262 6.08801 1.20298
  746 143.814 0.0284692 -2.39140
  747 143.785 0.00836363 2.34802
  748 2.66982 -43.2694 0.0489229
  749 62.9877 5.21161 5.16972
  750 62.9632 5.23604 -5.14366
  751 16.3577 5.78878 -3.02848
  752 16.4380 5.72551 3.03459
  753 -26.1224 0.175348 -2.40617
  754 -26.1081 0.175082 2.40427
  755 70.4876 1.77067 -1.13004
  756 70.4924 1.76629 1.12957
  757 42.5699 6.56775 -2.81566
  758 42.5665 6.56879 2.85579
  759 -0.568928 3.85237 8.09787
  760 -0.592673 3.86174 -8.09889
  761 141.628 -10.7399 0.565222
  762 -23.3962 0.591012 2.20189
  763 -23.4115 0.591037 -2.20093
  764 313.469 56.1953 -39.6182
  765 -9.77956 1.05759 2.40410
  766 -9.79224 1.05725 -2.40241
  767 121.086 0.703459 4.29801
  768 121.075 0.730060 -4.32119
  769 224.728 14.9340 0.536794
  770 138.110 -0.238024 -1.83395
  771 138.116 -0.241800 1.82614
  772 86.8681 1.78438 2.32131
  773 86.8594 1.79176 -2.32382
  774 130.344 -16.3699 35.7129
  775 55.4733 4.65889 -1.59714
  776 55.4819 4.64737 1.60490
  777 1.20215 -23.9151 5.32120
  778 149.928 -19.8961 10.5085
  779 90.7690 0.736550 0.410943
  780 90.7619 0.737946 -0.411261
  781 120.240 0.334639 0.221044
  782 120.227 0.334917 -0.221229
  783 -0.566821 -12.2705 -7.20064
  784 0.670159 -21.3898 7.36186
  785 52.2904 6.10825 7.18958
  786 52.2759 6.11403 -7.11394
  787 312.430 3.59837 2.50834
  788 91.4962 1.16437 -9.84730
  789 91.5738 1.10107 9.86810
  790 -19.8208 0.661755 5.33697
  791 -19.8372 0.663285 -5.34001
  792 3.63638 -18.1334 2.45476
  793 2.39390 -40.6673 -1.75393
  794 210.866 26.9271 -0.711694
  795 -0.192073 -15.2950 3.74078
  796 3.65606 2.73369 9.44103
  797 3.64737 2.73539 -9.47080
  798 26.8388 5.85167 1.67701
  799 26.8305 5.85357 -1.66346
  800 140.846 -6.34065 -1.47858
  801 141.016 -6.29425 0.914014
  802 168.142 17.2854 -60.2931
  803 -24.1525 0.366543 -1.08714
  804 -24.1380 0.366743 1.08805
  805 -10.6915 -0.0525018 2.78427
  806 -10.6920 -0.0528795 -2.78651
  807 9.54067 -0.0365521 3.81055
  808 9.33699 -0.0492034 -3.81874
  809 106.063 -0.237603 8.90156
  810 105.977 -0.131227 -8.89487
  811 53.1933 1.96564 -0.0898709
  812 53.1945 1.96226 0.0902763
  813 172.101 -4.30242 18.7512
  814 16.7417 3.24029 -2.23824
  815 16.7493 3.24170 2.24313
  816 16.0011 1.36133 -1.34684
  817 15.8561 1.44977 1.39966
  818 -0.159632 -12.4227 -9.87960
  819 247.409 32.6018 31.0179
  820 -36.3054 0.0643513 -1.12706
  821 -36.2874 0.0642922 1.12736
  822 -0.0536267 -37.2175 3.74520
  823 2.26688 -6.01562 -9.16949
  824 -5.27582 -0.332160 2.05287
  825 -5.27277 -0.332883 -2.05310
  826 195.345 9.01701 -14.5689
  827 49.2641 5.42634 -1.99018
  828 49.2720 5.41608 2.00921
  829 133.857 -1.66130 -4.45097
  830 133.955 -1.69152 4.35693
  831 -34.5579 0.289507 1.46817
  832 -34.5763 0.289670 -1.46824
  833 -0.233168 -0.242367 -0.193164
  834 -0.233626 -0.242810 0.193907
  835 0.130388 -38.0926 -3.69302
  836 0.183230 -40.5075 -3.49811
  837 -38.7102 0.405666 0.245069
  838 -38.7259 0.405651 -0.244894
  839 19.3196 -9.54790 -20.2638
  840 82.2563 1.52383 -0.618432
  841 82.2621 1.52140 0.617629
  842 -4.28896 0.926091 0.310641
  843 -4.29927 0.925444 -0.310452
  844 123.699 0.644673 -2.87734
  845 123.708 0.635202 2.86597
  846 -14.0856 0.0947663 2.65645
  847 -14.0887 0.0948009 -2.65881
  848 73.2190 -2.11482 -48.9086
  849 127.942 -11.1203 9.28843
  850 100.867 0.884208 -0.842024
  851 100.876 0.882495 0.840795
  852 126.680 -12.1302 -10.4879
  853 38.3497 4.84019 -0.0480178
  854 38.3496 4.83434 0.0591752
  855 53.6625 4.10725 -1.13651
  856 53.6680 4.09824 1.14145
  857 149.040 -3.24669 7.04779
  858 8.26792 5.21191 7.07326
  859 8.23551 5.23281 -7.07767
  860 7.85435 0.974818 0.659286
  861 7.84615 0.973650 -0.658536
  862 69.5352 1.43475 0.496418
  863 69.5317 1.43732 -0.496747
  864 185.923 -19.7980 18.3346
  865 115.688 1.04342 -3.71638
  866 115.701 1.02571 3.70111
  867 0.265187 1.98729 2.36537
  868 0.254315 1.98682 -2.36289
  869 116.369 0.186614 1.02666
  870 116.357 0.187928 -1.02822
  871 -23.0971 0.266917 -0.617052
  872 -23.0838 0.267185 0.617171
  873 -0.109128 -11.6778 3.32263
  874 -0.141362 -11.8604 -3.34945
  875 136.761 -2.29058 16.3554
  876 -9.10656 2.12556 8.13524
  877 -9.12655 2.13067 -8.14026
  878 -0.0508244 -19.3100 -3.69504
  879 53.7243 2.55583 -0.537047
  880 53.7262 2.55135 0.537961
  881 99.9408 -5.15782 -15.9933
  882 100.767 -5.71627 16.1577
  883 -4.56758 -1.69189 -10.5088
  884 -4.55127 -1.69412 10.4923
  885 4.58656 4.76431 7.63073
  886 4.56098 4.77654 -7.62945
  887 0.497497 -45.0313 2.76521
  888 0.701816 3.58725 9.48495
  889 0.671942 3.59854 -9.48827
  890 92.1243 -1.56703 -14.1759
  891 91.9395 -1.66277 14.2916
  892 159.653 7.81076 20.7480
  893 35.6390 4.54369 -0.355809
  894 35.6404 4.54874 0.363752
  895 119.043 1.07964 -2.80356
  896 119.053 1.07173 2.79537
  897 -4.78809 -2.14417 9.15875
  898 -4.79463 -2.15081 -9.17195
  899 0.395701 -46.8778 -2.08205
  900 -7.35407 -0.566545 9.02142
  901 -7.36446 -0.566914 -9.03097
  902 3.44796 4.41278 -6.08049
  903 3.46706 4.40568 6.08388
  904 -0.368505 -2.89863 1.61347
  905 -0.372503 -2.89538 -1.61571
  906 8.98903 4.96519 -5.61436
  907 9.00955 4.95643 5.62058
  908 1.81446 -4.11779 10.0989
  909 1.55030 -3.83682 -10.5446
  910 114.344 -3.02400 8.99177
  911 114.058 -2.84854 -9.06905
  912 -39.3482 0.152418 -0.359350
  913 -39.3320 0.152477 0.359622
  914 -3.22240 -0.298498 1.53380
  915 -3.21911 -0.298916 -1.53308
  916 0.162094 -27.5203 -3.39342
  917 -3.53417 -1.53451 -4.39697
  918 -3.53399 -1.53129 4.39839
  919 -15.3840 1.25619 6.85869
  920 -15.4008 1.25884 -6.86346
  921 34.4010 7.01633 -1.04007
  922 34.3844 7.03026 1.07533
  923 148.484 12.2150 -3.80864
  924 -2.68121 3.47804 7.36735
  925 -2.70202 3.48482 -7.36770
  926 54.9891 3.30360 -14.5055
  927 55.0148 3.35291 14.7015
  928 -7.76435 2.48413 5.95785
  929 -7.78191 2.48804 -5.95779
  930 186.068 -11.3927 -6.17669
  931 105.626 4.24495 8.90269
  932 131.859 -2.00210 -14.7978
  933 100.110 1.81466 -6.03528
  934 100.143 1.77322 6.02553
  935 -11.9449 1.58072 -3.06797
  936 -11.9308 1.58008 3.06965
  937 -24.8274 0.472442 3.49002
  938 -24.8446 0.473312 -3.49106
  939 -1.47543 -4.72098 -5.11166
  940 -1.46630 -4.72685 5.12235
  941 34.1566 2.75739 -0.266655
  942 34.1587 2.76092 0.269293
  943 -11.6948 1.12635 8.41427
  944 -11.7106 1.12806 -8.42221
  945 121.568 0.226072 1.37592
  946 121.555 0.227623 -1.37807
  947 -0.955025 -10.4637 7.83490
  948 3.30010 4.11078 -5.27996
  949 3.31656 4.10613 5.28378
  950 4.82112 2.98991 3.61195
  951 4.80914 2.99078 -3.60808
  952 19.2207 2.30989 -1.15737
  953 19.2266 2.31184 1.15966
  954 229.357 24.7778 -1.46679
  955 -0.869650 -0.246986 -0.595128
  956 -0.871508 -0.247037 0.596245
  957 7.11007 1.61697 -6.81060
  958 7.23310 1.54718 6.79763
  959 80.1287 3.73586 -6.13200
  960 80.1655 3.69749 6.14343
  961 9.02925 3.71471 -3.53844
  962 9.04102 3.71351 3.54358
  963 21.4458 -11.2918 27.7483
  964 154.097 -0.987656 -1.04592
  965 153.777 -0.948633 0.883609
  966 25.8368 -6.05658 23.7394
  967 26.8506 1.66664 0.113018
  968 26.8461 1.66482 -0.112303
  969 72.3742 -4.49695 -42.1843
  970 54.5927 1.49090 0.291462
  971 54.5922 1.49291 -0.291398
  972 6.57442 -8.62020 2.77355
  973 7.26802 -7.43690 -2.22329
  974 137.133 -0.0436252 0.479175
  975 137.116 -0.0433952 -0.479589
  976 -11.3276 0.00957063 6.62438
  977 -11.3354 0.00933520 -6.63038
  978 244.884 30.1750 11.2220
  979 -1.16093 -8.03719 -10.4599
  980 1.01776 -42.1358 3.14595
  981 -0.261327 -12.6644 9.69479
  982 141.539 0.0480060 -1.87210
  983 141.537 0.0424663 1.85979
  984 -1.87680 -3.41941 4.40526
  985 -1.88114 -3.41824 -4.39978
  986 172.649 17.3713 -12.7549
  987 317.561 3.22320 -1.68934
  988 -0.455126 -0.664685 -0.647713
  989 -0.454701 -0.666080 0.648638
  990 80.6935 1.46694 -1.27501
  991 80.6996 1.46333 1.27393
  992 -1.20401 -7.74818 10.5279
  993 113.148 0.933604 5.46478
  994 113.126 0.973492 -5.48592
  995 148.343 -10.1707 -7.52948
  996 -5.23961 -1.12267 4.99377
  997 -5.23991 -1.12631 -4.99502
  998 2.16594 -10.6073 8.02591
  999 -0.277655 -18.8538 7.60086
  1000 -0.0196064 -19.1483 3.68533
  1001 147.742 10.2733 -0.770409
  1002 171.735 18.8094 8.00664
  1003 123.947 -14.9937 -19.1762
  1004 1.63219 -19.0831 6.56784
  1005 2.10920 -27.7468 2.21878
  1006 33.1099 1.31980 0.176069
  1007 33.1064 1.31808 -0.175900
  1008 -1.38727 -1.57865 -2.08047
  1009 -1.38636 -1.57942 2.08243
  1010 1.05038 -15.6621 -8.45500
  1011 100.745 0.563876 -0.308424
  1012 100.754 0.562894 0.308027
  1013 19.0829 -1.53391 -7.98076
  1014 18.2415 -1.48255 7.90659
  1015 -2.55044 2.98776 9.46473
  1016 -2.57833 2.99754 -9.47128
  1017 -12.7768 1.87710 -5.93605
  1018 -12.7592 1.87402 5.93487
  1019 75.1730 1.27510 -14.4245
  1020 75.2433 1.32466 14.6002
  1021 53.6041 4.90407 -9.61685
  1022 53.6162 4.89603 9.73171
  1023 58.6058 4.83220 -2.92268
  1024 58.6180 4.81598 2.93413
  1025 154.496 -5.14485 -19.7735
  1026 -4.66693 1.79051 10.2081
  1027 -4.69258 1.79573 -10.2206
  1028 109.801 0.276337 7.39912
  1029 109.744 0.357556 -7.41645
  1030 -0.915307 -6.19924 11.0852
  1031 -8.98094 -0.321703 4.84563
  1032 -8.98315 -0.322908 -4.84941
  1033 99.8104 1.37610 -7.31607
  1034 99.8595 1.31836 7.30894
  1035 119.472 2.54095 -14.0799
  1036 -0.199394 -18.7962 -7.98594
  1037 -1.56549 -7.43170 9.32080
  1038 -1.62752 -7.50947 -9.23756
  1039 69.5598 4.61544 -4.85697
  1040 69.5867 4.58758 4.87308
  1041 88.9027 2.14769 2.90104
  1042 88.8918 2.15819 -2.90458
  1043 148.044 -9.93025 6.62287
  1044 5.65414 1.05526 -0.188082
  1045 5.66271 1.05621 0.188301
  1046 125.491 -16.7988 20.4934
  1047 -2.39254 0.772200 0.833623
  1048 -2.40266 0.771337 -0.832819
  1049 25.8358 6.99807 1.27354
  1050 25.8097 7.01654 -1.24896
  1051 9.19020 5.48028 6.13143
  1052 9.16598 5.49240 -6.12609
  1053 1.28926 -23.6288 -5.52053
  1054 34.9770 1.83640 -0.321098
  1055 34.9794 1.83942 0.322686
  1056 101.833 3.61149 3.63894
  1057 101.469 1.23055 2.76822
  1058 101.458 1.23947 -2.77350
  1059 -0.816271 -6.40690 -11.1001
  1060 153.064 -1.90217 -3.70262
  1061 -0.408540 -0.891810 11.2123
  1062 -0.298723 -0.791040 -11.1708
  1063 140.924 -0.159402 -1.02738
  1064 140.935 -0.160643 1.02388
  1065 149.831 -0.397071 -1.78959
  1066 149.750 -0.418702 1.72819
  1067 -0.115327 -29.0548 2.79189
  1068 86.2639 2.74295 -3.87239
  1069 86.2778 2.72641 3.86913
  1070 105.847 1.39460 3.27484
  1071 105.835 1.40564 -3.28238
  1072 1.75961 2.19887 10.3117
  1073 1.75204 2.20277 -10.3128
  1074 231.147 16.2296 1.70219
  1075 -3.22810 -1.51772 11.2926
  1076 -3.26593 -1.48932 -11.3148
  1077 31.3424 6.69260 0.639378
  1078 31.3342 6.69600 -0.619835
  1079 -19.9975 0.502732 -1.17140
  1080 -19.9839 0.503080 1.17225
  1081 52.2958 2.54860 -16.8058
  1082 52.2480 2.70379 17.0508
  1083 14.2929 6.17374 5.02642
  1084 14.2657 6.18907 -5.01714
  1085 35.1530 3.45687 -11.8771
  1086 34.9792 3.64477 12.0151
  1087 -1.01560 -9.81499 -7.62553
  1088 126.008 1.34913 18.0635
  1089 89.7821 -2.99476 55.3726
  1090 13.4481 6.23595 5.20504
  1091 13.4139 6.25822 -5.19857
  1092 53.4791 3.44144 -0.788388
  1093 53.4832 3.43387 0.791432
  1094 200.370 -2.30864 8.63936
  1095 11.8809 2.58742 3.85906
  1096 11.7294 2.63323 -3.89446
  1097 -5.99593 -1.35437 6.68413
  1098 -5.99843 -1.35973 -6.68879
  1099 -0.197807 -4.33580 1.76819
  1100 -0.205234 -4.33267 -1.77500
  1101 131.285 0.185965 4.47226
  1102 131.268 0.242273 -4.52228
  1103 0.0501646 -9.80881 10.4471
  1104 -9.29521 0.495977 -9.10253
  1105 -9.28139 0.495764 9.09372
  1106 0.0523145 -35.4627 -3.64425
  1107 -2.29906 -3.18826 11.2702
  1108 -2.29441 -3.12811 -11.2801
  1109 126.055 0.413697 -1.88494
  1110 126.066 0.410250 1.88031
  1111 129.152 -0.655966 5.27508
  1112 129.088 -0.566730 -5.32905
  1113 21.2565 4.29401 -3.00469
  1114 21.0969 4.39938 3.06130
  1115 -0.326404 -18.2671 -6.39685
  1116 170.659 -19.0432 -31.4369
  1117 221.940 25.1041 -2.96766
  1118 2.09254 -29.3812 -1.45277
  1119 7.05749 4.19335 -7.92828
  1120 7.09679 4.16630 7.90486
  1121 19.7397 6.73510 2.98576
  1122 19.7001 6.76348 -2.96944
  1123 43.0688 3.13888 -0.0231863
  1124 43.0681 3.14430 0.0264013
  1125 -2.94624 -4.19735 8.68292
  1126 -2.94083 -4.23389 -8.69326
  1127 -8.94603 2.54890 7.55849
  1128 -8.96568 2.55397 -7.56139
  1129 -3.66549 3.14991 8.78899
  1130 -3.68984 3.15805 -8.79341
  1131 122.408 -6.18575 -8.66244
  1132 123.239 -6.26461 8.55528
  1133 0.0771520 -21.3051 -7.65681
  1134 63.8910 -0.733009 -21.5120
  1135 64.0282 -0.523004 21.9260
  1136 19.5865 6.37298 -3.06692
  1137 19.6036 6.36347 3.08048
  1138 66.2864 21.2390 62.1504
  1139 15.0106 5.22081 3.82813
  1140 14.9964 5.22496 -3.81929
  1141 168.472 -20.1271 -5.83321
  1142 62.2787 2.30038 0.714965
  1143 62.2748 2.30561 -0.714620
  1144 -2.89850 -2.59567 5.25177
  1145 -2.89930 -2.60082 -5.24855
  1146 -3.48194 -3.14038 6.83002
  1147 -3.48035 -3.15139 -6.82872
  1148 108.997 -12.2413 -30.9704
  1149 111.431 -13.3885 31.2222
  1150 18.0942 1.15873 0.0681360
  1151 18.1005 1.16021 -0.0673884
  1152 67.5319 3.31284 -11.4915
  1153 67.5579 3.26047 11.6274
  1154 150.949 -21.8063 23.1280
  1155 136.122 -0.194678 0.285139
  1156 136.103 -0.194520 -0.285234
  1157 -12.8304 1.93086 6.72421
  1158 -12.8487 1.93428 -6.72682
  1159 -21.7006 0.727488 -3.60245
  1160 -21.6841 0.726743 3.60281
  1161 32.9377 -3.48308 36.0597
  1162 98.3224 7.02443 -7.34348
  1163 61.7670 4.89748 -5.29306
  1164 61.7958 4.87324 5.32896
  1165 198.496 -10.2967 33.4971
  1166 62.7352 4.60568 -8.18200
  1167 62.7731 4.57143 8.24482
  1168 14.4622 2.42701 -1.57511
  1169 14.4695 2.42877 1.57787
  1170 5.19291 -23.2275 2.31645
  1171 5.26020 -22.7815 -3.72328
  1172 85.5531 -7.00577 -31.1974
  1173 86.8210 -6.60667 31.2162
  1174 32.6134 5.00458 -7.87700
  1175 32.4836 5.12576 7.98944
  1176 152.779 -10.8771 -13.2323
  1177 -5.87771 -0.606842 10.2422
  1178 -5.89289 -0.605468 -10.2538
  1179 -0.240778 -8.79388 -10.7175
  1180 37.5218 -0.572395 -22.2818
  1181 37.6293 -0.423725 22.7247
  1182 -0.100299 -7.72124 1.98063
  1183 -0.0853664 -7.73908 -2.00407
  1184 -37.7801 0.330764 -1.04872
  1185 -37.7615 0.330658 1.04883
  1186 123.132 0.205616 -0.488350
  1187 123.146 0.205017 0.487466
  1188 74.3164 3.31166 -3.10676
  1189 74.3319 3.29468 3.10886
  1190 -3.12437 -0.258595 11.3630
  1191 -3.13288 -0.215392 -11.3818
  1192 0.0234487 -31.4621 -3.12613
  1193 -31.8814 0.0850115 1.63883
  1194 -31.8990 0.0852122 -1.63960
  1195 22.9704 -2.59378 -15.0535
  1196 22.7881 -2.44546 15.5983
  1197 142.295 -8.77749 0.616052
  1198 39.0666 1.34027 -19.9473
  1199 39.1095 1.48330 20.1938
  1200 -17.4706 0.0899913 2.42567
  1201 -17.4763 0.0899764 -2.42794
  1202 0.429110 -28.2831 -5.58473
  1203 -6.71787 1.31627 -1.57259
  1204 -6.70647 1.31686 1.57405
  1205 20.0652 5.50686 3.05810
  1206 20.0523 5.51047 -3.04689
  1207 79.5470 0.968099 -0.443730
  1208 79.5519 0.966386 0.443534
  1209 108.365 0.926729 2.11134
  1210 108.355 0.932277 -2.11567
  1211 5.38355 -1.55703 6.97276
  1212 5.30331 -1.65046 -7.06778
  1213 0.876073 -16.4819 8.39389
  1214 193.436 24.9661 10.8971
  1215 -5.99221 -0.485426 3.78285
  1216 -5.99149 -0.487235 -3.78399
  1217 0.680610 -15.4243 -8.70432
  1218 -0.590318 -9.14405 5.55549
  1219 -0.557908 -9.07190 -5.75902
  1220 153.921 -1.63665 3.30367
  1221 0.144395 -36.1131 3.21890
  1222 0.940194 -11.4596 -9.69620
  1223 16.6242 0.976354 0.249058
  1224 16.6176 0.975079 -0.248878
  1225 -1.62934 -6.75217 10.3138
  1226 -18.1502 1.07037 -3.13106
  1227 -18.1348 1.06984 3.13214
  1228 323.347 5.89565 8.77339
  1229 -9.29761 0.964396 9.26320
  1230 -9.31413 0.965596 -9.27248
  1231 72.3744 3.20634 -10.4080
  1232 72.4544 3.13888 10.4786
  1233 4.40241 -8.40513 -4.97657
  1234 69.0774 4.11754 -3.92748
  1235 69.0982 4.09488 3.93769
  1236 2.69254 -23.4547 -2.21337
  1237 -1.63202 -6.75955 -10.2880
  1238 -13.3487 0.664526 1.96045
  1239 -13.3616 0.664103 -1.95911
  1240 -5.71673 0.251533 -10.5434
  1241 -5.69856 0.251110 10.5329
  1242 146.840 11.5259 14.9903
  1243 84.1435 1.27449 -11.2220
  1244 84.2580 1.23247 11.2506
  1245 -39.8823 0.121496 -0.425302
  1246 -39.8651 0.121513 0.425638
  1247 76.2094 2.42283 -2.13547
  1248 76.2170 2.41514 2.13448
  1249 -41.2422 -0.650455 -0.101088
  1250 -41.2580 -0.650556 0.101138
  1251 113.969 -8.23186 -12.8250
  1252 -18.5124 0.299701 5.21169
  1253 -18.5251 0.300232 -5.21626
  1254 115.191 -8.68882 12.7054
  1255 77.3475 3.40274 -4.46887
  1256 77.3676 3.37881 4.47186
  1257 8.72207 -27.2058 -15.0033
  1258 0.159822 -25.7079 -6.59506
  1259 -0.602141 -10.8785 9.68564
  1260 251.207 34.8791 -30.2718
  1261 -0.0678863 -23.9569 6.35740
  1262 259.955 24.3613 -13.5649
  1263 -0.108954 -44.2541 -3.09864
  1264 10.7212 1.59280 -0.701306
  1265 10.7289 1.59420 0.702823
  1266 -0.114024 -9.92827 2.07754
  1267 -0.0931559 -9.97933 -2.07047
  1268 42.2884 1.61351 -0.149857
  1269 42.2900 1.61577 0.150243
  1270 154.729 -12.4453 12.6678
  1271 1.52903 1.44647 -1.82539
  1272 1.53889 1.44735 1.82715
  1273 0.901141 -49.7558 1.86532
  1274 0.573175 -52.7896 -1.82847
  1275 142.305 -18.6715 -13.3581
  1276 -0.411096 -13.1200 6.17311
  1277 146.165 8.75136 -18.4207
  1278 -0.447128 -17.2934 6.08527
  1279 0.287647 -47.9874 -2.52290
  1280 70.8484 2.60961 -2.22552
  1281 70.8579 2.59752 2.22647
  1282 -0.0465518 -25.5872 2.74930
  1283 -0.0728095 -21.4500 -6.23358
  1284 349.009 56.2785 49.6630
  1285 136.800 0.195364 0.227012
  1286 136.781 0.195333 -0.226987
  1287 3.08255 -0.247105 9.51026
  1288 2.97820 -0.101759 -9.54382
  1289 -2.60107 1.77117 10.8190
  1290 -2.64347 1.77785 -10.8340
  1291 142.587 -2.81026 -10.5496
  1292 133.142 -5.44947 -4.70644
  1293 132.973 -6.23769 4.71397
  1294 18.3683 2.71613 1.66454
  1295 18.3617 2.71399 -1.66078
  1296 -22.6296 0.619223 -4.18731
  1297 -22.6127 0.618083 4.18542
  1298 148.635 -21.9510 -19.4114
  1299 -1.12281 -2.68960 2.72809
  1300 -1.12679 -2.68690 -2.72641
  1301 156.175 -7.46810 18.6348
  1302 -1.69970 -6.31780 7.48411
  1303 -1.68153 -6.33977 -7.44910
  1304 -15.3710 1.08870 2.31572
  1305 -15.3849 1.08867 -2.31429
  1306 22.5146 1.60125 -7.13186
  1307 22.2825 1.74224 7.14155
  1308 35.6811 1.53291 0.359092
  1309 35.6783 1.53063 -0.358481
  1310 -15.8678 1.54952 6.57054
  1311 -15.8851 1.55214 -6.57398
  1312 127.994 0.537248 0.353290
  1313 127.978 0.537231 -0.353290
  1314 68.3321 -2.46737 41.8350
  1315 103.662 0.654929 0.740245
  1316 103.653 0.656075 -0.740997
  1317 67.1003 1.32605 -16.2786
  1318 67.1369 1.23917 16.4470
  1319 0.620731 -28.9068 -4.35737
  1320 25.3141 5.96949 -2.28893
  1321 25.2123 6.04701 2.34788
  1322 -0.242208 -0.234933 -0.328098
  1323 -0.243398 -0.235058 0.329040
  1324 87.6805 3.19927 5.96808
  1325 87.6487 3.23855 -5.96768
  1326 42.5422 4.07375 0.326383
  1327 42.5408 4.08040 -0.320124
  1328 63.5589 4.15920 -2.49836
  1329 63.5715 4.14395 2.50478
  1330 84.4059 1.02793 -0.736492
  1331 84.4118 1.02620 0.736026
  1332 -2.70962 -1.32545 -3.08555
  1333 -2.70974 -1.32434 3.08768
  1334 -27.2275 0.124344 1.37913
  1335 -27.2429 0.124270 -1.37828
  1336 -4.69860 -2.19432 -7.66008
  1337 -4.69690 -2.18455 7.65435
  1338 -16.3842 0.432769 0.601107
  1339 -16.3966 0.432317 -0.600682
  1340 -41.5843 0.404599 0.246694
  1341 -41.6005 0.404597 -0.246516
  1342 160.525 -22.2650 26.9811
  1343 111.349 -0.890607 -14.5364
</Section>

newXOutput 20

<Section columns = "stress_xx | stress_yy | stress_xy">
  1 148.795 -0.130328 0.136996
  2 148.817 -0.130401 -0.137065
  3 -47.3240 0.256917 -0.634490
  4 0.0768059 0.0224893 0.134438
  5 275.758 67.4128 84.5223
  6 311.423 77.1965 -80.5792
  7 0.0765457 0.0222393 -0.134095
  8 -47.3059 0.256920 0.634441
  9 148.318 -0.117675 -0.486133
  10 148.415 -0.374511 -0.802915
  11 149.830 -0.361317 -0.199145
  12 149.938 -0.323208 -0.915941
  13 150.222 -0.306824 -0.252970
  14 153.418 -0.314231 -0.363701
  15 154.461 -0.494653 -1.22523
  16 155.519 -0.189818 -0.820354
  17 156.117 0.207717 -1.58623
  18 162.577 -0.782484 -1.36155
  19 165.229 -0.567841 -1.77618
  20 168.073 -0.929248 -0.595738
  21 169.287 -1.29071 -0.269379
  22 167.471 -1.54197 2.49541
  23 160.887 -1.77885 5.09285
  24 145.928 -2.12433 10.6546
  25 122.374 0.998604 12.3162
  26 102.542 1.12551 11.6182
  27 75.4315 2.81944 7.05753
  28 80.6866 2.75159 0.477851
  29 65.6599 8.37375 -4.57803
  30 96.4427 3.73924 -12.4129
  31 113.914 0.789959 -10.2175
  32 142.618 -0.533161 -8.83686
  33 158.637 -2.15808 -6.05944
  34 167.073 -1.80282 -2.49581
  35 168.841 -1.24404 0.269876
  36 167.755 -0.915174 0.541578
  37 165.073 -0.572908 1.71274
  38 162.498 -0.794972 1.32347
  39 156.096 0.200202 1.56633
  40 155.519 -0.192669 0.812243
  41 154.473 -0.496313 1.22166
  42 153.436 -0.315075 0.361868
  43 150.242 -0.307266 0.251998
  44 149.960 -0.323615 0.915746
  45 149.852 -0.361582 0.198972
  46 148.437 -0.374686 0.803094
  47 148.340 -0.117738 0.486244
  48 139.893 0.554704 -0.172617
  49 129.085 0.445552 -0.406044
  50 115.656 0.0183785 -0.439059
  51 101.817 0.891819 -0.365221
  52 89.7814 0.846785 -0.295149
  53 76.9747 1.27390 -0.353012
  54 64.4065 1.91337 -0.234132
  55 51.4308 1.75714 -0.450825
  56 40.7182 1.35064 -0.616318
  57 26.7249 0.988499 -0.648899
  58 12.5650 1.19660 -0.490268
  59 0.779085 0.976378 -0.473277
  60 -13.8764 0.617518 -0.440159
  61 -24.7682 0.0246637 -1.01607
  62 -35.3040 -0.640369 -0.471165
  63 -45.9513 0.124672 0.291327
  64 -48.2054 0.833842 -0.147425
  65 -48.3124 0.383333 0.101589
  66 -46.6815 0.209683 -0.0979745
  67 -47.0376 0.545628 -0.615048
  68 -46.2176 0.654566 -0.118793
  69 -43.6484 0.216419 -0.928511
  70 -43.9693 0.401096 -0.989433
  71 -42.7693 0.383945 -0.585456
  72 -39.5341 0.250293 -0.854882
  73 -37.9047 0.424726 -1.36760
  74 -35.5266 0.467550 -1.14225
  75 -31.3560 0.241456 -1.90950
  76 -28.9934 0.0737493 -1.59835
  77 -24.8143 0.106277 -1.82679
  78 -21.1935 0.0708436 -2.00212
  79 -18.0728 0.0204941 -1.57938
  80 -13.7844 0.0885365 -1.58678
  81 -10.1022 -0.0473067 -1.68908
  82 -6.54333 -0.189530 -1.47024
  83 -3.73578 -0.165006 -1.11878
  84 -1.81859 -0.283127 -0.928941
  85 -0.276250 -0.163182 -0.323962
  86 0.0406740 -0.177375 -0.110201
  87 -0.0967063 -0.0789329 -0.0125376
  88 -0.254887 -0.210355 -0.282610
  89 -0.246828 -1.53345 -0.804501
  90 -0.213996 -3.47241 -1.15842
  91 -0.113310 -5.98079 -1.69666
  92 -0.0613999 -9.20999 -1.46527
  93 -0.0588720 -12.2062 -1.84639
  94 -0.230904 -15.8998 -2.09447
  95 -0.0938177 -20.4353 -2.12728
  96 0.0445806 -25.0070 -2.04459
  97 0.100659 -29.9208 -2.02321
  98 0.150426 -34.9916 -2.00016
  99 0.0236486 -38.8067 -2.71655
  100 0.274251 -44.1448 -2.43905
  101 0.326912 -50.4250 -1.99093
  102 0.0185163 -53.4113 -2.65059
  103 0.464560 -58.2182 -2.49093
  104 1.09966 -64.6520 -1.38417
  105 2.12775 -66.8428 -2.19035
  106 1.39566 -62.7015 0.798519
  107 1.84142 -49.9051 4.88476
  108 11.2877 -34.0692 16.2269
  109 36.7693 36.5482 61.3884
  110 427.961 21.6934 41.0583
  111 366.175 6.95848 15.1753
  112 354.396 2.81555 3.32663
  113 352.016 1.22009 -0.568248
  114 354.242 4.17155 -8.02680
  115 364.568 12.3894 -17.7293
  116 415.212 42.4900 -51.8910
  117 86.5905 27.8028 -75.2897
  118 18.4071 -33.4940 -20.3913
  119 5.35093 -54.5263 -7.15126
  120 1.44784 -59.5997 -0.930810
  121 1.69597 -64.4779 1.40536
  122 0.500306 -62.2219 1.12794
  123 0.201128 -56.7792 2.17241
  124 0.205183 -53.2427 1.73539
  125 0.278593 -47.7476 2.78653
  126 -0.0132597 -44.5070 2.66992
  127 0.110726 -40.1279 1.93165
  128 0.206462 -34.5604 2.41854
  129 0.0358184 -30.6004 1.91992
  130 0.0625509 -25.0550 2.42172
  131 -0.250008 -20.6773 2.07615
  132 -0.180176 -15.9154 2.03117
  133 -0.0437600 -12.1423 1.85196
  134 -0.0783181 -9.15837 1.46912
  135 -0.111172 -5.96349 1.68067
  136 -0.211091 -3.46983 1.15277
  137 -0.245562 -1.53565 0.803911
  138 -0.254617 -0.212555 0.283120
  139 -0.0967049 -0.0799090 0.0131774
  140 0.0395122 -0.177563 0.110812
  141 -0.278528 -0.163144 0.324793
  142 -1.82236 -0.282952 0.929917
  143 -3.74111 -0.164574 1.11924
  144 -6.54826 -0.188995 1.46994
  145 -10.1050 -0.0468657 1.68782
  146 -13.7846 0.0886204 1.58527
  147 -18.0693 0.0206459 1.57784
  148 -21.1867 0.0709823 2.00045
  149 -24.8034 0.106195 1.82514
  150 -28.9790 0.0736287 1.59691
  151 -31.3395 0.241270 1.90825
  152 -35.5077 0.467306 1.14143
  153 -37.8846 0.424485 1.36708
  154 -39.5133 0.250153 0.854717
  155 -42.7482 0.383816 0.585480
  156 -43.9484 0.400977 0.989495
  157 -43.6281 0.216367 0.928665
  158 -46.1977 0.654477 0.119088
  159 -47.0180 0.545580 0.615218
  160 -46.6625 0.209686 0.0981645
  161 -48.2937 0.383316 -0.101429
  162 -48.1869 0.833769 0.147527
  163 -45.9333 0.124679 -0.291219
  164 -35.2876 -0.640160 0.471180
  165 -24.7534 0.0249688 1.01602
  166 -13.8634 0.618005 0.440238
  167 0.789516 0.977148 0.473327
  168 12.5732 1.19772 0.490309
  169 26.7304 0.990041 0.648929
  170 40.7210 1.35242 0.616299
  171 51.4315 1.75905 0.450798
  172 64.4046 1.91525 0.234038
  173 76.9706 1.27564 0.352832
  174 89.7747 0.848277 0.294919
  175 101.808 0.892819 0.364902
  176 115.644 0.0190819 0.438695
  177 129.069 0.445703 0.405801
  178 139.873 0.554629 0.172509
  179 37.0450 7.01479 -0.447143
  180 37.0341 7.01974 0.476213
  181 -1.22065 0.842269 11.6176
  182 -1.25809 0.841837 -11.6163
  183 86.3563 -1.30873 -18.2654
  184 86.3297 -1.49029 18.4810
  185 16.5006 3.25342 0.641150
  186 16.3039 3.33681 -0.622104
  187 11.1682 2.58300 -2.24562
  188 11.1776 2.58412 2.24893
  189 82.3966 2.19578 -2.46582
  190 82.4069 2.18547 2.46491
  191 -2.62314 3.46779 6.65566
  192 -2.64302 3.47330 -6.65469
  193 95.8410 3.01089 -6.77567
  194 95.8859 2.96312 6.77779
  195 -3.86580 -3.39589 8.82923
  196 -3.86305 -3.41384 -8.83745
  197 0.661990 -8.45135 -10.9725
  198 28.7332 0.0259838 -15.9731
  199 0.855219 -9.01354 10.7437
  200 28.2659 0.283282 16.2846
  201 136.401 -19.6486 -26.7798
  202 141.436 -20.4361 25.5787
  203 47.8235 2.22344 -0.0993228
  204 47.8232 2.21978 0.100512
  205 -9.59150 0.804912 -1.41914
  206 -9.57877 0.805550 1.42013
  207 -11.5447 1.64237 8.84150
  208 -11.5642 1.64613 -8.84918
  209 48.0193 5.06766 -0.668165
  210 48.0230 5.06004 0.677036
  211 14.0113 6.10036 5.25269
  212 13.9610 6.13858 -5.25407
  213 -15.2999 1.64272 -3.90979
  214 -15.2831 1.64166 3.91085
  215 110.866 0.641878 1.24952
  216 110.855 0.644325 -1.25138
  217 3.26688 -16.0571 5.39041
  218 3.55760 -14.6756 -4.93103
  219 -1.11182 -9.53249 10.0378
  220 -1.12841 -9.87190 -9.71016
  221 44.1644 6.57872 -6.46123
  222 44.1379 6.60529 6.55391
  223 -10.1408 -0.103362 8.70202
  224 -10.1519 -0.103768 -8.71055
  225 118.629 1.14310 -3.85381
  226 118.642 1.12916 3.84270
  227 127.180 -1.47666 -7.47978
  228 127.268 -1.61864 7.42482
  229 201.574 16.1947 -0.449808
  230 184.968 19.9589 14.4181
  231 183.989 -3.31382 -19.7713
  232 21.0274 5.33599 3.00705
  233 21.0163 5.33806 -2.99728
  234 0.680996 4.06888 9.20572
  235 0.651812 4.08115 -9.20840
  236 141.991 -8.62367 -4.31272
  237 141.137 -8.74018 4.75015
  238 77.8843 1.29399 -0.841383
  239 77.8894 1.29068 0.840795
  240 -18.3532 1.27798 5.98750
  241 -18.3718 1.28040 -5.99007
  242 -2.42660 -2.39244 -3.91166
  243 -2.42508 -2.39172 3.91493
  244 -20.9461 0.631090 2.06152
  245 -20.9618 0.630914 -2.06035
  246 63.3299 5.34473 -4.08896
  247 63.3480 5.32393 4.10843
  248 80.9785 2.85197 -10.1879
  249 81.0564 2.79406 10.2358
  250 18.1936 1.70069 -0.386707
  251 18.2007 1.70229 0.387841
  252 46.0318 -2.39104 -36.5408
  253 54.8054 -0.819961 40.1867
  254 5.70866 2.48710 8.99904
  255 5.68352 2.55186 -9.02400
  256 194.819 -17.5282 -0.821753
  257 15.5190 6.45972 4.54036
  258 15.4961 6.47171 -4.52973
  259 45.0056 4.50612 -12.9862
  260 44.9346 4.63333 13.1653
  261 216.455 28.8746 -5.72158
  262 128.658 0.477794 5.21873
  263 128.636 0.524340 -5.25125
  264 -1.19010 -7.24699 -6.18949
  265 -1.15982 -7.27798 6.21549
  266 -0.289076 -17.4141 -8.67146
  267 0.491223 -20.7203 -8.27888
  268 0.242505 -20.5657 8.55429
  269 -3.42971 -3.01072 11.5188
  270 -3.44118 -3.00257 -11.5563
  271 6.43326 -17.9291 -1.44004
  272 6.90367 -16.7105 2.50674
  273 -7.47238 -0.651221 5.44471
  274 -7.47423 -0.653747 -5.44825
  275 90.5262 3.11249 -4.11526
  276 90.5463 3.09065 4.11270
  277 159.732 -17.2518 0.570915
  278 33.7783 3.49389 -0.658216
  279 33.7812 3.49751 0.662137
  280 -0.455829 -16.3166 8.27304
  281 2.01665 3.49056 4.51596
  282 2.00149 3.49307 -4.51231
  283 256.387 18.4783 -5.51571
  284 125.267 0.432361 1.56368
  285 125.255 0.435557 -1.56744
  286 81.8597 -4.67948 -27.7986
  287 82.6533 -4.60612 28.2848
  288 159.499 -16.3182 -3.24097
  289 -15.4943 0.451169 6.91982
  290 -15.5072 0.451742 -6.92629
  291 156.850 -15.6744 46.2309
  292 -7.17476 1.00390 10.5799
  293 -7.19451 1.00445 -10.5915
  294 25.1213 6.96579 -0.593163
  295 25.0307 7.03464 0.637392
  296 -29.4531 0.333706 0.396864
  297 -29.4689 0.333554 -0.396542
  298 131.674 -1.20078 -63.6732
  299 -26.9467 0.579204 -3.29215
  300 -26.9279 0.578393 3.29181
  301 -1.01778 -3.66577 11.9379
  302 -0.650586 -3.60339 -11.8523
  303 56.4226 6.19918 -6.02230
  304 56.4391 6.18595 6.07456
  305 10.9766 1.86538 1.67868
  306 10.9678 1.86397 -1.67675
  307 59.0866 2.91139 -1.01814
  308 59.0902 2.90492 1.01973
  309 5.20477 -5.24460 6.99779
  310 4.74050 -6.11571 -7.03931
  311 57.3445 1.62332 -0.185349
  312 57.3453 1.62078 0.185476
  313 -21.8237 0.565006 5.12667
  314 -21.8397 0.565979 -5.13073
  315 13.7934 -2.67643 -2.02270
  316 13.3615 -2.68409 1.65861
  317 131.061 0.170053 0.432517
  318 131.045 0.170439 -0.432929
  319 288.730 16.8815 10.2619
  320 27.8135 4.33587 1.53540
  321 27.8081 4.33338 -1.52849
  322 -7.69969 1.63444 2.88111
  323 -7.71372 1.63458 -2.87903
  324 38.8987 5.87881 -0.0786972
  325 38.8965 5.87460 0.0952923
  326 3.94936 3.95884 9.62757
  327 3.92514 3.97064 -9.63827
  328 0.570329 -29.6816 6.17144
  329 -30.3123 0.160069 -0.861581
  330 -30.2959 0.160244 0.862149
  331 98.9959 0.793910 -0.807774
  332 99.0045 0.792174 0.806961
  333 104.302 1.21309 -2.14417
  334 104.313 1.20644 2.14034
  335 -28.0050 0.549737 -2.45223
  336 -27.9871 0.549503 2.45289
  337 -2.26056 0.788902 0.398361
  338 -2.27158 0.788142 -0.397858
  339 -0.620599 -11.9227 6.20181
  340 -0.496130 -12.3982 -6.19342
  341 116.457 -10.0706 -18.5487
  342 121.165 -12.0251 18.1683
  343 68.6290 3.98041 -2.47307
  344 68.6397 3.96695 2.47672
  345 29.3258 7.23680 0.196224
  346 29.2860 7.26451 -0.161315
  347 -11.9026 2.18387 5.47239
  348 -11.9207 2.18672 -5.47229
  349 221.203 0.420903 1.88033
  350 10.9008 -20.1025 -11.0307
  351 11.6658 -19.0829 11.6631
  352 -5.48523 3.35390 8.57971
  353 -5.50848 3.36111 -8.58317
  354 -6.26665 -1.34988 10.1461
  355 -6.27846 -1.35108 -10.1594
  356 249.949 39.6502 -8.02021
  357 157.464 -3.19649 22.8178
  358 149.092 -3.28390 -3.12383
  359 148.898 -3.20957 2.84434
  360 103.099 -0.941172 -11.7415
  361 102.992 -1.06382 11.7367
  362 0.190741 -35.7301 -5.06086
  363 137.056 0.615872 -2.96252
  364 137.060 0.602200 2.94498
  365 1.69422 -34.0105 4.27604
  366 153.632 11.9176 -13.1903
  367 36.9907 1.82397 0.615788
  368 36.9873 1.82206 -0.615472
  369 103.931 1.20335 -8.73205
  370 104.004 1.13344 8.73254
  371 112.783 1.40294 -5.36499
  372 112.805 1.37191 5.34952
  373 -3.69461 1.50680 2.02403
  374 -3.70690 1.50620 -2.02215
  375 63.1338 3.51633 -13.6316
  376 63.1747 3.54779 13.7826
  377 135.175 0.177804 0.713691
  378 135.158 0.178554 -0.714865
  379 74.5213 4.61848 -6.71892
  380 74.5587 4.58108 6.74635
  381 86.9961 1.91975 1.67689
  382 86.9883 1.92513 -1.67848
  383 -4.18942 -0.771972 3.32857
  384 -4.18820 -0.773672 -3.32790
  385 -0.985612 -0.703264 -0.949176
  386 -0.986171 -0.703763 0.950690
  387 179.334 -24.2522 10.4238
  388 -2.42260 -5.77737 9.21337
  389 -2.40722 -5.82214 -9.21063
  390 27.4864 2.33938 -0.994319
  391 27.4912 2.34204 0.996586
  392 -0.898798 -4.44176 3.33827
  393 -0.908479 -4.43342 -3.33808
  394 9.87765 5.20512 5.04369
  395 9.85960 5.21161 -5.03711
  396 146.788 -0.342963 3.86602
  397 146.784 -0.281928 -3.95569
  398 -0.494897 -9.09357 11.2909
  399 -12.1073 -0.241171 5.18901
  400 -12.1123 -0.241926 -5.19376
  401 -0.540694 -9.57766 -11.1603
  402 138.191 0.285405 1.88127
  403 138.180 0.289601 -1.88804
  404 -1.93093 2.85723 10.6651
  405 -1.96728 2.86873 -10.6746
  406 100.911 2.02700 -3.47507
  407 100.924 2.01353 3.46906
  408 155.520 -6.72174 -4.40206
  409 156.216 -5.36436 3.41243
  410 -0.341548 -16.2859 -6.82362
  411 13.0328 4.67656 -4.18628
  412 13.1397 4.61462 4.18386
  413 150.343 10.0950 8.36463
  414 86.5787 -6.08743 -38.8659
  415 89.0474 -7.75601 40.8164
  416 4.16334 4.85213 7.28239
  417 4.13929 4.86219 -7.27996
  418 63.7680 2.34341 -0.695108
  419 63.7710 2.33910 0.695293
  420 61.7145 5.28127 62.2071
  421 24.6801 6.33948 -2.52728
  422 24.6950 6.33329 2.54255
  423 1.43860 -16.2744 8.02124
  424 -0.199715 -26.5654 -5.99884
  425 9.28232 5.83639 6.98152
  426 9.25176 5.85299 -6.97905
  427 11.3041 3.69951 -3.21069
  428 11.3153 3.69911 3.21563
  429 -4.73292 -0.410934 -11.5713
  430 -4.71313 -0.417620 11.5576
  431 29.8599 5.70776 -4.47690
  432 29.7395 5.80375 4.55737
  433 155.171 -5.35917 -17.0868
  434 3.92743 -2.18698 9.51482
  435 3.78782 -2.13271 -9.55807
  436 112.831 -4.74865 -12.9869
  437 113.340 -5.11945 12.9482
  438 -29.1213 0.256553 -3.13734
  439 -29.1027 0.255873 3.13587
  440 0.00558674 -25.9941 5.37096
  441 -0.195252 -16.4658 6.06673
  442 -11.9448 0.702920 8.87340
  443 -11.9593 0.703459 -8.88197
  444 80.8618 1.25081 -0.273871
  445 80.8669 1.24868 0.273418
  446 -2.49174 -3.93008 6.20417
  447 -2.49469 -3.93764 -6.19583
  448 49.1885 1.79077 -20.0308
  449 49.1130 2.03704 20.3088
  450 0.415090 -31.8848 -6.10032
  451 288.413 11.0828 0.386338
  452 0.753105 -38.3526 -3.92744
  453 -34.9922 0.0716103 -1.21834
  454 -34.9742 0.0717116 1.21890
  455 -13.6558 1.83181 7.44134
  456 -13.6755 1.83563 -7.44570
  457 -15.2599 0.207516 5.23603
  458 -15.2680 0.207669 -5.24087
  459 54.1202 6.07387 -3.83326
  460 54.1319 6.06380 3.86583
  461 83.0642 3.86453 -5.21112
  462 83.0934 3.83301 5.21796
  463 -1.61095 -5.57950 11.6363
  464 -1.61205 -5.54137 -11.6820
  465 142.887 1.77736 -21.6037
  466 9.31395 -3.61926 -2.91771
  467 8.99169 -3.69745 3.08328
  468 2.17062 -35.4019 0.545369
  469 1.35778 -40.7334 -1.49551
  470 -4.51403 -2.04636 6.39498
  471 -4.51436 -2.05289 -6.39594
  472 29.7779 -7.16892 -31.1799
  473 226.696 -4.43671 -18.5559
  474 49.2338 3.77210 0.782470
  475 49.2314 3.77916 -0.777625
  476 71.9363 0.467681 -19.5191
  477 72.1383 0.441080 19.8550
  478 20.3168 7.51249 3.40087
  479 20.2856 7.53452 -3.38523
  480 64.8775 5.11445 -9.83442
  481 64.9246 5.07848 9.92386
  482 1.90627 0.940913 10.9660
  483 2.05134 1.01409 -10.9503
  484 -30.8554 0.495931 -2.39033
  485 -30.8365 0.495641 2.39052
  486 145.982 -17.6305 -9.84866
  487 116.845 0.433699 -0.609291
  488 116.858 0.432989 0.608871
  489 4.56418 1.12500 -0.947803
  490 4.57406 1.12612 0.948927
  491 -8.43182 2.77049 7.08610
  492 -8.45219 2.77537 -7.08753
  493 -18.2396 1.16495 -2.72391
  494 -18.2235 1.16465 2.72524
  495 49.1907 5.38810 -1.34315
  496 49.1957 5.37869 1.35625
  497 -6.74063 2.27092 9.74409
  498 -6.76472 2.27733 -9.75250
  499 133.842 -3.52156 -6.83292
  500 134.054 -3.72648 6.69298
  501 86.4542 1.12812 -12.8983
  502 86.3398 1.04898 13.0195
  503 31.1544 1.97753 -0.601465
  504 31.1587 1.97983 0.602495
  505 0.260478 -16.5393 -9.64047
  506 156.273 -6.01437 14.0908
  507 1.91766 -11.3341 -9.06016
  508 43.1194 7.22674 3.70426
  509 43.1339 7.21340 -3.64751
  510 144.368 -16.5008 9.67846
  511 10.3659 -18.9932 15.7295
  512 172.887 -24.3226 -20.1978
  513 117.197 0.893132 6.43591
  514 117.157 0.950036 -6.45710
  515 0.223206 -14.2141 10.0316
  516 -2.28583 -0.689801 -1.76477
  517 -2.28721 -0.689670 1.76634
  518 12.7154 1.12459 -0.323368
  519 12.7236 1.12582 0.323821
  520 -0.405042 -9.14052 3.96032
  521 -0.367500 -9.09618 -3.97930
  522 96.4842 1.47531 1.37791
  523 96.4758 1.47835 -1.37941
  524 276.164 46.1194 16.8984
  525 10.6358 -8.50568 -2.03531
  526 8.23724 -10.9085 0.328048
  527 -4.07840 2.26372 -3.76247
  528 -4.06378 2.26266 3.76490
  529 -23.8783 0.381497 3.17173
  530 -23.8915 0.381908 -3.17443
  531 0.228794 -29.8019 6.01934
  532 -34.6565 0.364302 0.388834
  533 -34.6733 0.364227 -0.388449
  534 28.6493 -4.46381 -22.5776
  535 27.9837 -3.89642 23.5427
  536 26.1349 4.01623 -6.87322
  537 25.9379 4.14866 6.94724
  538 -6.47986 -1.41436 8.82894
  539 -6.48679 -1.41901 -8.83874
  540 25.4081 2.83654 1.09871
  541 25.4028 2.83396 -1.09546
  542 -15.4447 0.820496 1.27264
  543 -15.4588 0.820132 -1.27148
  544 30.3117 5.00777 1.41843
  545 30.3062 5.00584 -1.40797
  546 -0.640867 -2.05253 1.50488
  547 -0.642937 -2.05039 -1.50448
  548 10.6771 4.58678 6.50688
  549 10.6075 4.65840 -6.52151
  550 8.63569 0.806158 5.90789
  551 8.50906 0.793772 -5.97079
  552 119.287 1.21861 2.73083
  553 119.275 1.22526 -2.73680
  554 104.895 1.87609 4.27437
  555 104.878 1.89613 -4.28315
  556 -0.108843 -24.8407 -3.70368
  557 72.5068 4.22724 -3.84475
  558 72.5241 4.20760 3.85197
  559 72.8901 2.26385 -1.31961
  560 72.8964 2.25731 1.31954
  561 -11.6901 0.571511 -0.0655868
  562 -11.6774 0.572015 0.0658901
  563 119.779 6.95578 -4.15178
  564 165.393 -22.1709 -6.24926
  565 131.596 5.81462 16.5593
  566 0.998206 -22.0562 -7.32387
  567 -8.42819 2.45937 -4.81428
  568 -8.41139 2.45728 4.81582
  569 1.00230 -12.9524 9.64868
  570 -7.61724 0.109667 10.2369
  571 -7.63264 0.109932 -10.2473
  572 209.937 20.3315 -2.14698
  573 46.7015 2.74002 -0.197786
  574 46.7015 2.73557 0.199778
  575 327.119 27.1339 -26.8706
  576 -1.90170 -1.51310 12.0931
  577 -1.80200 -1.43022 -12.1056
  578 174.884 -16.8212 9.30332
  579 141.623 0.368291 -3.31899
  580 141.621 0.346775 3.29030
  581 62.9788 -1.12716 -28.6402
  582 63.7894 -1.30259 29.1547
  583 -3.75100 -3.62407 10.2489
  584 -3.75303 -3.64061 -10.2714
  585 32.5548 1.88049 14.3595
  586 32.8278 1.61238 -14.2046
  587 -28.1235 0.334839 -3.02798
  588 -28.1059 0.334344 3.02608
  589 206.393 15.1886 15.8726
  590 37.8224 4.05787 -0.418625
  591 37.8239 4.06243 0.424144
  592 44.8190 5.50723 -9.61063
  593 44.7724 5.57545 9.74585
  594 127.208 0.108664 -6.35646
  595 127.257 0.0344699 6.32197
  596 -0.622036 -13.2098 -9.26017
  597 139.797 -0.00449860 0.980921
  598 139.781 -0.00351329 -0.982569
  599 -21.6665 0.545449 -0.541334
  600 -21.6518 0.545742 0.541997
  601 -37.1218 -0.187231 0.0341475
  602 -37.1386 -0.187344 -0.0340156
  603 2.75359 -20.8173 -4.08075
  604 -1.34272 -8.50081 7.84500
  605 -1.41601 -8.05215 -7.89767
  606 -16.1706 0.963447 7.43318
  607 -16.1865 0.965214 -7.43953
  608 96.1101 2.87523 5.33295
  609 96.0846 2.90620 -5.33759
  610 70.3085 1.45781 0.325319
  611 70.3055 1.45988 -0.325440
  612 15.2307 -6.21879 8.48887
  613 15.7551 -5.88632 -8.38731
  614 -0.506191 -6.36121 3.33473
  615 -0.520837 -6.33966 -3.34519
  616 167.422 6.04723 67.5258
  617 -8.20600 -0.264609 3.10401
  618 -8.20482 -0.265658 -3.10580
  619 2.69556 -12.7433 -7.54094
  620 68.6225 3.30885 -1.85073
  621 68.6299 3.29943 1.85220
  622 32.7748 7.13719 -2.32191
  623 32.7208 7.17831 2.37998
  624 0.343345 -45.6158 2.75271
  625 24.2884 7.18838 2.39083
  626 24.2678 7.20107 -2.37257
  627 -3.87617 3.03615 5.76974
  628 -3.89403 3.03974 -5.76809
  629 -0.199385 -21.9899 5.06610
  630 -36.6370 0.0851690 -1.20116
  631 -36.6183 0.0851621 1.20161
  632 44.4868 1.71314 -0.0944090
  633 44.4883 1.71599 0.0951785
  634 116.257 0.731191 1.77423
  635 116.246 0.734660 -1.77720
  636 101.288 -9.06285 51.5519
  637 81.3621 2.58841 -3.06187
  638 81.3749 2.57430 3.06183
  639 0.954692 -2.17734 11.3875
  640 1.23150 -1.42868 -11.3934
  641 130.922 -15.0488 -41.4700
  642 317.783 11.2466 -11.2037
  643 -33.3016 0.0506435 -2.12489
  644 -33.2821 0.0503306 2.12428
  645 6.31371 2.01737 -1.95720
  646 6.32384 2.01832 1.95956
  647 -0.645432 -13.9051 8.13497
  648 176.705 9.29583 -21.2036
  649 138.323 -0.0784715 0.156572
  650 138.304 -0.0783398 -0.156686
  651 -8.93662 -0.524236 -7.27781
  652 -8.93049 -0.522498 7.27109
  653 -0.0195536 -31.3974 -4.93361
  654 140.764 -0.117395 0.374086
  655 140.745 -0.117186 -0.374402
  656 11.4710 4.61102 4.33210
  657 11.4566 4.61419 -4.32555
  658 104.865 -9.77136 -26.9036
  659 106.898 -9.74988 27.2382
  660 156.225 -0.828576 2.16804
  661 156.312 -0.814914 -2.28598
  662 0.671848 -39.9726 4.03748
  663 -10.0859 0.485600 -0.755301
  664 -10.0734 0.486186 0.756001
  665 50.1133 -1.40073 -48.2775
  666 46.3715 1.58772 0.283496
  667 46.3731 1.58976 -0.283274
  668 21.9388 2.14809 0.616497
  669 21.9326 2.14601 -0.614741
  670 26.4452 3.46012 -1.03078
  671 26.4504 3.46294 1.03565
  672 89.5871 2.97514 -8.23514
  673 89.6473 2.92001 8.25329
  674 22.8124 6.84042 1.52283
  675 22.7509 6.88805 -1.49892
  676 -17.4534 1.31530 -4.46233
  677 -17.4356 1.31368 4.46257
  678 -19.9632 1.36915 -4.99176
  679 -19.9448 1.36722 4.99061
  680 160.022 -2.33166 -0.930341
  681 -0.0334118 -6.93717 -11.4575
  682 160.398 -2.44712 0.667673
  683 200.878 16.2582 0.983885
  684 -20.2116 0.0894147 3.59194
  685 -20.2217 0.0895395 -3.59530
  686 19.8068 5.52113 0.188467
  687 19.6683 5.59921 -0.158665
  688 -39.4362 0.0796015 -0.474963
  689 -39.4181 0.0796640 0.475371
  690 0.0671248 -6.29831 11.5092
  691 -12.8004 0.137674 7.73961
  692 -12.8121 0.137721 -7.74703
  693 175.131 -15.8578 -10.0166
  694 26.0794 1.12258 -0.0813531
  695 26.0738 1.12099 0.0817691
  696 4.92861 2.82538 3.11455
  697 4.91672 2.82538 -3.11103
  698 91.0369 -4.54272 -22.3169
  699 91.7932 -4.72184 22.7961
  700 331.054 23.0271 24.7309
  701 5.85261 -33.6627 -9.06601
  702 -2.47079 -5.12785 11.0079
  703 -2.47710 -5.14509 -11.0277
  704 18.0887 4.63952 -2.64995
  705 18.0986 4.63930 2.65706
  706 144.671 -0.0816018 -1.00883
  707 144.687 -0.0826541 1.00631
  708 67.0606 1.70608 0.462990
  709 67.0574 1.70949 -0.463146
  710 4.78425 4.88635 8.69031
  711 4.75491 4.90191 -8.69272
  712 1.90827 1.56639 1.38686
  713 1.89771 1.56544 -1.38538
  714 -4.45413 0.783991 11.4566
  715 -4.47917 0.786923 -11.4728
  716 118.114 0.278959 0.729553
  717 118.102 0.280140 -0.730596
  718 101.601 1.37515 1.99570
  719 101.592 1.37976 -1.99822
  720 12.8944 -11.1641 10.4741
  721 13.3034 -11.7950 -10.0664
  722 -8.42066 1.65287 9.99811
  723 -8.44188 1.65623 -10.0084
  724 3.88934 -10.7604 6.23011
  725 -0.246190 2.80876 10.8106
  726 -0.284880 2.81958 -10.8139
  727 -23.6967 0.734836 -3.00892
  728 -23.6791 0.734271 3.00954
  729 16.4944 5.89536 4.21412
  730 16.4758 5.90260 -4.20343
  731 157.078 -4.91322 -9.71908
  732 148.937 -13.2793 -2.43495
  733 -2.46748 -5.03235 7.70166
  734 -2.46324 -5.05401 -7.68993
  735 56.3284 -2.02327 -33.8488
  736 54.7990 -0.733199 34.2534
  737 33.8580 6.49719 -4.17744
  738 33.7826 6.56229 4.25831
  739 2.74105 -6.41247 9.56657
  740 -0.226675 -16.1891 -4.37319
  741 72.3193 4.41117 -7.46004
  742 72.3663 4.37428 7.50397
  743 0.203596 -32.0194 4.09990
  744 42.4900 6.41410 -1.28073
  745 42.4888 6.40992 1.30481
  746 151.653 0.0236754 -2.52553
  747 151.624 0.00257075 2.48017
  748 2.82124 -45.5450 0.0836521
  749 66.4958 5.48194 5.48691
  750 66.4703 5.50728 -5.45945
  751 17.2954 6.11957 -3.14934
  752 17.3805 6.05285 3.15530
  753 -27.5424 0.184766 -2.53493
  754 -27.5269 0.184487 2.53287
  755 74.3900 1.84725 -1.20220
  756 74.3951 1.84273 1.20176
  757 44.9626 6.91984 -3.01187
  758 44.9585 6.92124 3.05395
  759 -0.566081 4.06381 8.51647
  760 -0.591501 4.07373 -8.51785
  761 149.410 -11.3222 0.645134
  762 -24.6301 0.619326 2.31369
  763 -24.6469 0.619371 -2.31277
  764 330.368 59.4100 -41.9016
  765 -10.2615 1.10815 2.52298
  766 -10.2754 1.10783 -2.52129
  767 127.715 0.728069 4.54297
  768 127.702 0.755922 -4.56704
  769 237.044 15.7185 0.549574
  770 145.631 -0.256935 -1.93627
  771 145.639 -0.260895 1.92817
  772 91.6548 1.86265 2.45967
  773 91.6452 1.87030 -2.46220
  774 137.513 -17.2088 37.7420
  775 58.5677 4.89577 -1.71024
  776 58.5766 4.88389 1.71842
  777 1.27156 -25.1820 5.58893
  778 158.157 -20.9485 11.1547
  779 95.7599 0.758124 0.434879
  780 95.7520 0.759557 -0.435199
  781 126.802 0.341810 0.233835
  782 126.787 0.342095 -0.234020
  783 -0.596837 -12.9369 -7.59174
  784 0.708937 -22.5336 7.74864
  785 55.2182 6.43888 7.63027
  786 55.2035 6.44462 -7.55077
  787 329.193 3.77134 2.65124
  788 96.5585 1.21458 -10.4198
  789 96.6400 1.14843 10.4420
  790 -20.8846 0.697041 5.62033
  791 -20.9024 0.698658 -5.62368
  792 3.84677 -19.0700 2.55100
  793 2.53070 -42.7943 -1.88551
  794 222.441 28.4192 -0.859144
  795 -0.202353 -16.1327 3.94474
  796 3.88145 2.89627 9.92790
  797 3.87204 2.89795 -9.95972
  798 28.3660 6.16235 1.73626
  799 28.3568 6.16456 -1.72218
  800 148.573 -6.69277 -1.58929
  801 148.756 -6.64274 0.996983
  802 177.277 18.4995 -63.7130
  803 -25.4236 0.382154 -1.13963
  804 -25.4075 0.382351 1.14053
  805 -11.2775 -0.0550587 2.93598
  806 -11.2781 -0.0554612 -2.93839
  807 10.0906 -0.00701142 3.97420
  808 9.87518 -0.0203586 -3.98341
  809 111.911 -0.263928 9.41762
  810 111.821 -0.152361 -9.41000
  811 56.1594 2.05349 -0.105108
  812 56.1607 2.05002 0.105539
  813 181.551 -4.47688 19.6630
  814 17.7163 3.40557 -2.33877
  815 17.7246 3.40693 2.34379
  816 16.9149 1.47100 -1.47599
  817 16.7615 1.56399 1.53117
  818 -0.164646 -13.0864 -10.4086
  819 260.829 34.5811 32.8671
  820 -38.2578 0.0668369 -1.18495
  821 -38.2381 0.0667736 1.18522
  822 -0.0565804 -39.2381 3.94477
  823 2.40302 -6.31950 -9.64491
  824 -5.56636 -0.350109 2.16543
  825 -5.56318 -0.350875 -2.16569
  826 206.034 9.59752 -15.2238
  827 52.0219 5.70878 -2.13214
  828 52.0300 5.69826 2.15211
  829 141.191 -1.76355 -4.71047
  830 141.294 -1.79505 4.61208
  831 -36.4218 0.304093 1.54467
  832 -36.4418 0.304271 -1.54480
  833 -0.246219 -0.255900 -0.204167
  834 -0.246704 -0.256367 0.204954
  835 0.136762 -40.1599 -3.88869
  836 0.192752 -42.6900 -3.67808
  837 -40.7753 0.425976 0.256947
  838 -40.7927 0.425966 -0.256772
  839 20.4199 -9.94243 -21.4635
  840 86.7911 1.58741 -0.657877
  841 86.7975 1.58491 0.657062
  842 -4.46117 0.967020 0.325807
  843 -4.47258 0.966367 -0.325619
  844 130.459 0.667911 -3.04020
  845 130.468 0.658011 3.02842
  846 -14.8565 0.0999687 2.80087
  847 -14.8599 0.100004 -2.80340
  848 77.2890 -2.11539 -51.6895
  849 134.984 -11.7245 9.84484
  850 106.398 0.915878 -0.892213
  851 106.408 0.914113 0.890962
  852 133.657 -12.7881 -11.1110
  853 40.5094 5.09023 -0.0796284
  854 40.5091 5.08430 0.0912834
  855 56.6570 4.31328 -1.22116
  856 56.6627 4.30400 1.22637
  857 157.230 -3.42297 7.40227
  858 8.75689 5.50468 7.42568
  859 8.72236 5.52673 -7.43073
  860 8.34711 1.01582 0.688808
  861 8.33805 1.01464 -0.688049
  862 73.3850 1.49291 0.529303
  863 73.3811 1.49555 -0.529630
  864 196.063 -20.7786 19.4386
  865 122.025 1.08566 -3.92889
  866 122.039 1.06714 3.91306
  867 0.335742 2.08696 2.47888
  868 0.323802 2.08653 -2.47639
  869 122.728 0.184594 1.08632
  870 122.715 0.185959 -1.08791
  871 -24.3030 0.276182 -0.649292
  872 -24.2882 0.276455 0.649404
  873 -0.114838 -12.3184 3.50425
  874 -0.148832 -12.5111 -3.53250
  875 144.346 -2.40375 17.1964
  876 -9.57960 2.24277 8.56399
  877 -9.60104 2.24816 -8.56952
  878 -0.0534851 -20.3667 -3.89615
  879 56.7197 2.67604 -0.579734
  880 56.7217 2.67145 0.580705
  881 105.472 -5.43865 -16.9184
  882 106.341 -6.02699 17.0921
  883 -4.80966 -1.77843 -11.0755
  884 -4.79234 -1.78070 11.0579
  885 4.87502 5.02674 8.01916
  886 4.84768 5.03969 -8.01814
  887 0.524188 -47.4628 2.90696
  888 0.768047 3.79003 9.97832
  889 0.736211 3.80190 -9.98216
  890 97.2290 -1.65686 -14.9975
  891 97.0333 -1.75702 15.1199
  892 168.483 8.28010 21.7723
  893 37.6498 4.77716 -0.349356
  894 37.6515 4.78228 0.357636
  895 125.552 1.12499 -2.96299
  896 125.563 1.11674 2.95453
  897 -5.04530 -2.25730 9.65528
  898 -5.05230 -2.26436 -9.66934
  899 0.417787 -49.3918 -2.18044
  900 -7.74947 -0.594337 9.50907
  901 -7.76058 -0.594768 -9.51928
  902 3.67940 4.65158 -6.38700
  903 3.69996 4.64401 6.39030
  904 -0.388582 -3.05896 1.70240
  905 -0.392804 -3.05554 -1.70477
  906 9.52638 5.23416 -5.89152
  907 9.54842 5.22482 5.89778
  908 1.92747 -4.32175 10.6269
  909 1.64809 -4.02676 -11.0985
  910 120.643 -3.19955 9.51644
  911 120.342 -3.01518 -9.59711
  912 -41.4524 0.159025 -0.376791
  913 -41.4344 0.159083 0.377062
  914 -3.40057 -0.314722 1.61826
  915 -3.39712 -0.315167 -1.61751
  916 0.170752 -29.0240 -3.57730
  917 -3.72706 -1.61763 -4.63801
  918 -3.72683 -1.61421 4.63946
  919 -16.2054 1.32482 7.22278
  920 -16.2235 1.32761 -7.22800
  921 36.3437 7.39656 -1.13994
  922 36.3256 7.41150 1.17682
  923 156.797 12.8773 -3.97797
  924 -2.79212 3.66711 7.74794
  925 -2.81447 3.67430 -7.74858
  926 58.0690 3.49551 -15.3604
  927 58.0952 3.54766 15.5666
  928 -8.15146 2.61696 6.26494
  929 -8.17043 2.62113 -6.26510
  930 196.237 -11.9328 -6.40004
  931 111.651 4.48444 9.34532
  932 139.196 -2.10123 -15.5586
  933 105.623 1.89612 -6.38489
  934 105.658 1.85278 6.37495
  935 -12.5515 1.66176 -3.22144
  936 -12.5361 1.66104 3.22309
  937 -26.1596 0.496862 3.67301
  938 -26.1782 0.497787 -3.67423
  939 -1.55539 -4.97848 -5.39157
  940 -1.54572 -4.98460 5.40279
  941 36.0868 2.89167 -0.264575
  942 36.0892 2.89526 0.267312
  943 -12.3191 1.18960 8.86413
  944 -12.3361 1.19138 -8.87269
  945 128.204 0.227367 1.45473
  946 128.190 0.228980 -1.45692
  947 -1.00585 -11.0311 8.26048
  948 3.52658 4.33101 -5.54428
  949 3.54437 4.32601 5.54806
  950 5.13805 3.14517 3.78816
  951 5.12498 3.14619 -3.78425
  952 20.3339 2.42246 -1.20573
  953 20.3405 2.42442 1.20808
  954 241.844 26.2785 -1.72184
  955 -0.918309 -0.260531 -0.628317
  956 -0.920272 -0.260582 0.629495
  957 7.52547 1.72718 -7.14594
  958 7.65564 1.65379 7.13180
  959 84.5668 3.92244 -6.49573
  960 84.6056 3.88243 6.50794
  961 9.57671 3.90944 -3.70817
  962 9.58954 3.90806 3.71340
  963 22.6509 -11.6929 29.3602
  964 162.504 -1.04586 -1.11122
  965 162.170 -1.00461 0.940775
  966 27.3004 -6.26587 25.1355
  967 28.3826 1.74162 0.112144
  968 28.3776 1.73977 -0.111407
  969 76.4079 -4.67012 -44.5862
  970 57.6339 1.55251 0.309831
  971 57.6333 1.55456 -0.309760
  972 6.95371 -9.04531 2.88081
  973 7.68721 -7.79735 -2.29892
  974 144.591 -0.0498513 0.506426
  975 144.571 -0.0496101 -0.506840
  976 -11.9421 0.0110554 6.98322
  977 -11.9504 0.0107908 -6.98964
  978 258.243 31.8375 11.9355
  979 -1.22026 -8.46593 -11.0234
  980 1.07972 -44.3133 3.36223
  981 -0.272800 -13.3434 10.2155
  982 149.246 0.0448083 -1.97653
  983 149.244 0.0389976 1.96371
  984 -1.97884 -3.60586 4.64687
  985 -1.98345 -3.60468 -4.64113
  986 182.197 18.3533 -13.3425
  987 334.576 3.37828 -1.78580
  988 -0.480113 -0.701904 -0.683834
  989 -0.479662 -0.703378 0.684812
  990 85.1454 1.52730 -1.35269
  991 85.1521 1.52356 1.35160
  992 -1.26513 -8.16067 11.0946
  993 119.358 0.968696 5.77824
  994 119.334 1.01046 -5.80012
  995 156.496 -10.7180 -7.88654
  996 -5.52546 -1.18296 5.26676
  997 -5.52584 -1.18681 -5.26813
  998 2.29456 -11.1565 8.43899
  999 -0.291623 -19.8728 8.00944
  1000 -0.0207567 -20.1965 3.88605
  1001 156.021 10.8239 -0.817029
  1002 181.255 19.8513 8.35302
  1003 130.780 -15.7928 -20.2868
  1004 1.72708 -20.0907 6.90314
  1005 2.23022 -29.2021 2.30790
  1006 34.9835 1.37461 0.183087
  1007 34.9796 1.37286 -0.182914
  1008 -1.46328 -1.66524 -2.19534
  1009 -1.46231 -1.66603 2.19739
  1010 1.11283 -16.4897 -8.89701
  1011 106.269 0.578036 -0.326834
  1012 106.279 0.577028 0.326431
  1013 20.1692 -1.56521 -8.48458
  1014 19.2806 -1.51125 8.40550
  1015 -2.66383 3.15569 9.96074
  1016 -2.69357 3.16597 -9.96796
  1017 -13.4437 1.97779 -6.24560
  1018 -13.4246 1.97451 6.24415
  1019 79.3565 1.34391 -15.2648
  1020 79.4297 1.39682 15.4501
  1021 56.6058 5.17236 -10.1950
  1022 56.6179 5.16420 10.3157
  1023 61.8718 5.07887 -3.11072
  1024 61.8846 5.06208 3.12280
  1025 163.020 -5.39786 -20.7693
  1026 -4.90212 1.89313 10.7491
  1027 -4.92945 1.89856 -10.7626
  1028 115.844 0.276257 7.82640
  1029 115.784 0.361409 -7.84412
  1030 -0.958636 -6.52435 11.6786
  1031 -9.47124 -0.338481 5.10961
  1032 -9.47368 -0.339763 -5.11366
  1033 105.313 1.43427 -7.74004
  1034 105.365 1.37387 7.73291
  1035 126.205 2.69532 -14.7933
  1036 -0.208600 -19.8106 -8.41493
  1037 -1.64843 -7.83167 9.82605
  1038 -1.71387 -7.91402 -9.73849
  1039 73.4245 4.85078 -5.15295
  1040 73.4526 4.82180 5.17000
  1041 93.8013 2.24616 3.07291
  1042 93.7894 2.25706 -3.07651
  1043 156.180 -10.4648 6.93460
  1044 6.02663 1.10094 -0.196346
  1045 6.03611 1.10190 0.196567
  1046 132.403 -17.6932 21.6791
  1047 -2.46201 0.804337 0.872522
  1048 -2.47319 0.803463 -0.871711
  1049 27.3048 7.37952 1.30177
  1050 27.2768 7.39918 -1.27620
  1051 9.73655 5.78015 6.43487
  1052 9.71062 5.79302 -6.42957
  1053 1.36309 -24.8810 -5.79894
  1054 36.9520 1.91976 -0.325624
  1055 36.9547 1.92285 0.327268
  1056 107.681 3.80758 3.82061
  1057 107.040 1.28033 2.92951
  1058 107.029 1.28961 -2.93493
  1059 -0.853988 -6.74393 -11.6945
  1060 161.453 -2.00861 -3.88441
  1061 -0.416475 -0.927262 11.8058
  1062 -0.300509 -0.821445 -11.7618
  1063 148.589 -0.171846 -1.08494
  1064 148.603 -0.173147 1.08133
  1065 157.992 -0.423347 -1.89039
  1066 157.909 -0.446063 1.82606
  1067 -0.121574 -30.6439 2.94333
  1068 91.0228 2.87322 -4.10052
  1069 91.0377 2.85601 4.09726
  1070 111.654 1.45430 3.46377
  1071 111.642 1.46580 -3.47153
  1072 1.87898 2.33030 10.8498
  1073 1.87075 2.33431 -10.8514
  1074 243.791 17.0838 1.82124
  1075 -3.39469 -1.59228 11.8981
  1076 -3.43484 -1.56238 -11.9218
  1077 33.1171 7.05036 0.638270
  1078 33.1080 7.05417 -0.617887
  1079 -21.0375 0.524322 -1.22868
  1080 -21.0225 0.524670 1.22953
  1081 55.2284 2.70841 -17.7925
  1082 55.1770 2.87201 18.0501
  1083 15.1218 6.51205 5.26550
  1084 15.0927 6.52831 -5.25607
  1085 37.1374 3.67473 -12.5943
  1086 36.9535 3.87275 12.7391
  1087 -1.06979 -10.3476 -8.04005
  1088 133.052 1.43700 18.9915
  1089 94.7480 -3.04135 58.5033
  1090 14.2278 6.58150 5.45217
  1091 14.1914 6.60504 -5.44573
  1092 56.4630 3.61045 -0.851092
  1093 56.4673 3.60264 0.854302
  1094 211.308 -2.32668 8.97125
  1095 12.5650 2.75293 4.02471
  1096 12.4047 2.80106 -4.06257
  1097 -6.32155 -1.42657 7.04824
  1098 -6.32427 -1.43225 -7.05323
  1099 -0.208516 -4.57535 1.86542
  1100 -0.216357 -4.57206 -1.87262
  1101 138.466 0.183861 4.72615
  1102 138.447 0.242969 -4.77834
  1103 0.0579997 -10.3280 11.0046
  1104 -9.79276 0.525783 -9.59182
  1105 -9.77796 0.525600 9.58236
  1106 0.0548808 -37.3919 -3.83888
  1107 -2.41636 -3.35235 11.8747
  1108 -2.41146 -3.28892 -11.8853
  1109 132.933 0.425741 -1.99185
  1110 132.945 0.422145 1.98708
  1111 136.229 -0.704816 5.57830
  1112 136.161 -0.611090 -5.63453
  1113 22.4663 4.55474 -3.22598
  1114 22.2975 4.66565 3.28517
  1115 -0.343642 -19.2607 -6.74346
  1116 179.991 -19.9708 -33.2489
  1117 234.047 26.6007 -2.96381
  1118 2.21318 -30.9181 -1.49714
  1119 7.47488 4.43444 -8.32817
  1120 7.51664 4.40598 8.30304
  1121 20.8694 7.10734 3.10740
  1122 20.8272 7.13737 -3.09059
  1123 45.4852 3.29269 -0.00547166
  1124 45.4846 3.29824 0.00882912
  1125 -3.10444 -4.42266 9.15491
  1126 -3.09879 -4.46130 -9.16594
  1127 -9.40649 2.68770 7.95457
  1128 -9.42760 2.69307 -7.95788
  1129 -3.83762 3.32426 9.24852
  1130 -3.86365 3.33285 -9.25349
  1131 129.148 -6.52908 -9.17414
  1132 130.023 -6.61126 9.06212
  1133 0.0826005 -22.4531 -8.06591
  1134 67.4619 -0.752296 -22.7577
  1135 67.6052 -0.530866 23.1934
  1136 20.7114 6.71762 -3.19977
  1137 20.7298 6.70743 3.21378
  1138 69.9124 22.7503 65.6601
  1139 15.8850 5.49937 4.00754
  1140 15.8697 5.50390 -3.99846
  1141 177.693 -21.1712 -6.23846
  1142 65.7380 2.40613 0.767302
  1143 65.7339 2.41152 -0.766914
  1144 -3.05611 -2.73640 5.53925
  1145 -3.05700 -2.74187 -5.53591
  1146 -3.67050 -3.30984 7.20267
  1147 -3.66888 -3.32150 -7.20139
  1148 115.022 -12.8772 -32.7349
  1149 117.581 -14.0868 33.0002
  1150 19.1475 1.20761 0.0779999
  1151 19.1544 1.20912 -0.0772296
  1152 71.2972 3.49082 -12.1697
  1153 71.3238 3.43603 12.3127
  1154 159.229 -22.9461 24.4677
  1155 143.523 -0.209490 0.301100
  1156 143.503 -0.209323 -0.301190
  1157 -13.5040 2.03531 7.07743
  1158 -13.5237 2.03894 -7.08040
  1159 -22.8518 0.764110 -3.78909
  1160 -22.8338 0.763306 3.78935
  1161 34.7996 -3.53141 38.1422
  1162 103.972 7.41045 -7.71186
  1163 65.2107 5.15208 -5.62026
  1164 65.2407 5.12694 5.65806
  1165 209.296 -10.7032 35.4431
  1166 66.2345 4.84864 -8.67311
  1167 66.2740 4.81299 8.73924
  1168 15.3136 2.54686 -1.64474
  1169 15.3217 2.54862 1.64756
  1170 5.49142 -24.4095 2.49441
  1171 5.56242 -23.9358 -3.98207
  1172 90.3071 -7.35820 -32.9771
  1173 91.6419 -6.93724 32.9954
  1174 34.4568 5.30122 -8.36986
  1175 34.3194 5.42889 8.48787
  1176 161.185 -11.4525 -13.8856
  1177 -6.18982 -0.635104 10.7936
  1178 -6.20599 -0.633707 -10.8060
  1179 -0.249023 -9.25834 -11.2899
  1180 39.6382 -0.543951 -23.5856
  1181 39.7507 -0.388247 24.0519
  1182 -0.105744 -8.14668 2.08923
  1183 -0.0900099 -8.16555 -2.11400
  1184 -39.8185 0.348047 -1.10299
  1185 -39.7981 0.347932 1.10308
  1186 129.848 0.206498 -0.517423
  1187 129.864 0.205877 0.516524
  1188 78.4330 3.47337 -3.29820
  1189 78.4494 3.45572 3.30052
  1190 -3.28240 -0.264181 11.9698
  1191 -3.29141 -0.218601 -11.9898
  1192 0.0242046 -33.1802 -3.29508
  1193 -33.6090 0.0892325 1.72550
  1194 -33.6281 0.0894443 -1.72636
  1195 24.2756 -2.66187 -15.9565
  1196 24.0831 -2.50539 16.5312
  1197 150.109 -9.25741 0.609009
  1198 41.2692 1.45869 -21.1174
  1199 41.3138 1.60842 21.3763
  1200 -18.4256 0.0950564 2.55718
  1201 -18.4318 0.0950377 -2.55962
  1202 0.453527 -29.7993 -5.87581
  1203 -7.02852 1.37986 -1.64791
  1204 -7.01595 1.38044 1.64937
  1205 21.2184 5.80001 3.19367
  1206 21.2044 5.80399 -3.18209
  1207 83.9353 1.00116 -0.469634
  1208 83.9408 0.999403 0.469440
  1209 114.303 0.961623 2.23414
  1210 114.292 0.967394 -2.23859
  1211 5.69875 -1.61425 7.31791
  1212 5.61377 -1.71315 -7.41868
  1213 0.928789 -17.3574 8.83441
  1214 204.067 26.3933 11.3515
  1215 -6.32034 -0.511427 3.98980
  1216 -6.31964 -0.513343 -3.99104
  1217 0.722041 -16.2440 -9.16382
  1218 -0.622011 -9.64319 5.85875
  1219 -0.587960 -9.56672 -6.07331
  1220 162.349 -1.72803 3.46532
  1221 0.151993 -38.0813 3.39222
  1222 0.998318 -12.0639 -10.2084
  1223 17.5978 1.01550 0.260672
  1224 17.5905 1.01421 -0.260490
  1225 -1.71453 -7.11266 10.8706
  1226 -19.1003 1.12495 -3.29066
  1227 -19.0836 1.12437 3.29168
  1228 340.679 6.19960 9.25954
  1229 -9.79173 1.01977 9.75885
  1230 -9.80941 1.02100 -9.76884
  1231 76.4017 3.37343 -11.0215
  1232 76.4853 3.30283 11.0959
  1233 4.65847 -8.82508 -5.21031
  1234 72.9136 4.32452 -4.16970
  1235 72.9355 4.30097 4.18054
  1236 2.84764 -24.6768 -2.29798
  1237 -1.71745 -7.12068 -10.8438
  1238 -14.0251 0.694024 2.05728
  1239 -14.0394 0.693608 -2.05595
  1240 -6.01736 0.270947 -11.1086
  1241 -5.99797 0.270571 11.0973
  1242 155.026 12.1758 15.7221
  1243 88.8099 1.33342 -11.8757
  1244 88.9301 1.28975 11.9060
  1245 -42.0225 0.126957 -0.445998
  1246 -42.0035 0.126973 0.446331
  1247 80.4225 2.53511 -2.26585
  1248 80.4306 2.52715 2.26489
  1249 -43.4447 -0.687188 -0.106782
  1250 -43.4622 -0.687303 0.106834
  1251 120.259 -8.68208 -13.5732
  1252 -19.5147 0.316446 5.49142
  1253 -19.5284 0.316996 -5.49635
  1254 121.545 -9.16389 13.4469
  1255 81.6298 3.56948 -4.73636
  1256 81.6511 3.54456 4.73966
  1257 9.21798 -28.4850 -15.9006
  1258 0.168756 -27.0949 -6.94635
  1259 -0.632272 -11.4629 10.2080
  1260 264.808 37.0253 -32.1111
  1261 -0.0713548 -25.2549 6.69889
  1262 274.093 25.6908 -14.3900
  1263 -0.116098 -46.6573 -3.26268
  1264 11.3696 1.66739 -0.728678
  1265 11.3782 1.66881 0.730227
  1266 -0.120082 -10.4749 2.19139
  1267 -0.0980626 -10.5288 -2.18399
  1268 44.6617 1.68304 -0.151630
  1269 44.6635 1.68534 0.152029
  1270 163.232 -13.1046 13.2903
  1271 1.67147 1.51572 -1.91270
  1272 1.68233 1.51659 1.91447
  1273 0.950182 -52.4134 1.95093
  1274 0.604264 -55.6162 -1.91294
  1275 150.126 -19.6634 -14.1537
  1276 -0.433006 -13.8346 6.50891
  1277 154.302 9.26105 -19.3358
  1278 -0.471624 -18.2352 6.41566
  1279 0.303684 -50.5797 -2.65156
  1280 74.7744 2.73210 -2.36598
  1281 74.7846 2.71957 2.36705
  1282 -0.0493753 -26.9874 2.89859
  1283 -0.0765647 -22.6163 -6.57082
  1284 367.740 59.4728 52.4512
  1285 144.236 0.201633 0.239406
  1286 144.216 0.201600 -0.239375
  1287 3.27007 -0.241302 10.0016
  1288 3.15963 -0.0880262 -10.0373
  1289 -2.72418 1.87537 11.3912
  1290 -2.76920 1.88228 -11.4074
  1291 150.461 -2.95960 -11.0910
  1292 140.455 -5.75412 -4.99520
  1293 140.279 -6.58487 5.00500
  1294 19.4337 2.85125 1.73616
  1295 19.4264 2.84911 -1.73230
  1296 -23.8444 0.651911 -4.40802
  1297 -23.8261 0.650704 4.40590
  1298 156.795 -23.1025 -20.5478
  1299 -1.18400 -2.83710 2.87831
  1300 -1.18822 -2.83428 -2.87656
  1301 164.770 -7.85132 19.5741
  1302 -1.79100 -6.66022 7.89189
  1303 -1.77185 -6.68345 -7.85502
  1304 -16.1620 1.14250 2.43087
  1305 -16.1772 1.14250 -2.42947
  1306 23.7940 1.72816 -7.58698
  1307 23.5487 1.87668 7.59658
  1308 37.6947 1.59899 0.371068
  1309 37.6916 1.59667 -0.370440
  1310 -16.7120 1.63329 6.91810
  1311 -16.7307 1.63606 -6.92191
  1312 134.965 0.558199 0.372556
  1313 134.948 0.558176 -0.372549
  1314 72.1376 -2.53449 44.2146
  1315 109.343 0.674614 0.783544
  1316 109.332 0.675793 -0.784304
  1317 70.8437 1.40327 -17.2263
  1318 70.8813 1.31193 17.4035
  1319 0.655969 -30.4416 -4.57289
  1320 26.7521 6.31143 -2.46769
  1321 26.6442 6.39319 2.52935
  1322 -0.256123 -0.247856 -0.346584
  1323 -0.257384 -0.247986 0.347580
  1324 92.5244 3.35567 6.31821
  1325 92.4908 3.39668 -6.31755
  1326 44.9306 4.27964 0.367988
  1327 44.9292 4.28645 -0.361439
  1328 67.0934 4.36785 -2.65969
  1329 67.1066 4.35204 2.66650
  1330 89.0554 1.06469 -0.779822
  1331 89.0620 1.06291 0.779355
  1332 -2.85803 -1.39757 -3.25527
  1333 -2.85813 -1.39638 3.25750
  1334 -28.6700 0.127760 1.44762
  1335 -28.6871 0.127689 -1.44678
  1336 -4.95296 -2.31171 -8.07712
  1337 -4.95107 -2.30137 8.07099
  1338 -17.2213 0.449309 0.630281
  1339 -17.2350 0.448849 -0.629856
  1340 -43.8088 0.425325 0.258568
  1341 -43.8268 0.425328 -0.258391
  1342 169.311 -23.4101 28.5400
  1343 117.632 -0.933052 -15.2894
</Section>

newXOutput 21

<Section columns = "stress_xx | stress_yy | stress_xy">
  1 156.439 -0.140188 0.144567
  2 156.464 -0.140266 -0.144640
  3 -49.7205 0.268827 -0.666949
  4 0.0806597 0.0235210 0.141242
  5 289.729 71.2413 88.9923
  6 327.212 81.5450 -84.8652
  7 0.0803837 0.0232563 -0.140878
  8 -49.7005 0.268828 0.666889
  9 155.940 -0.126908 -0.511321
  10 156.042 -0.396476 -0.843957
  11 157.529 -0.382928 -0.209856
  12 157.645 -0.343537 -0.963686
  13 157.946 -0.326576 -0.267264
  14 161.305 -0.333416 -0.383753
  15 162.402 -0.523171 -1.28920
  16 163.519 -0.202680 -0.863847
  17 164.153 0.213149 -1.67025
  18 170.941 -0.826661 -1.43353
  19 173.732 -0.601508 -1.86924
  20 176.730 -0.981336 -0.630819
  21 178.015 -1.36075 -0.289270
  22 176.129 -1.62357 2.61195
  23 169.238 -1.87100 5.33631
  24 153.570 -2.22973 11.1724
  25 128.876 1.05417 12.9182
  26 108.096 1.19127 12.1814
  27 79.6750 2.96475 7.39937
  28 85.2075 2.89302 0.505879
  29 69.4162 8.80063 -4.79718
  30 101.702 3.93283 -13.0224
  31 120.009 0.835058 -10.7169
  32 150.102 -0.557383 -9.26873
  33 166.887 -2.26989 -6.35067
  34 175.716 -1.89797 -2.61194
  35 177.551 -1.31177 0.290138
  36 176.399 -0.966541 0.574209
  37 173.571 -0.606807 1.80291
  38 170.859 -0.839752 1.39378
  39 164.133 0.205287 1.64953
  40 163.520 -0.205661 0.855421
  41 162.416 -0.524912 1.28552
  42 161.324 -0.334302 0.381866
  43 157.968 -0.327042 0.266270
  44 157.668 -0.343965 0.963506
  45 157.553 -0.383208 0.209686
  46 156.066 -0.396664 0.844157
  47 155.964 -0.126976 0.511445
  48 147.096 0.576632 -0.181931
  49 135.748 0.457632 -0.427140
  50 121.645 0.00432016 -0.460865
  51 107.109 0.919586 -0.383363
  52 94.4635 0.870417 -0.309666
  53 81.0055 1.31876 -0.370259
  54 67.7954 1.99139 -0.244956
  55 54.1545 1.82764 -0.472676
  56 42.8908 1.40190 -0.646647
  57 28.1753 1.02304 -0.680858
  58 13.2826 1.24452 -0.514542
  59 0.885597 1.01576 -0.496738
  60 -14.5317 0.641199 -0.461746
  61 -25.9898 0.0203810 -1.06768
  62 -37.0739 -0.676481 -0.494895
  63 -48.2768 0.129952 0.306771
  64 -50.6501 0.875787 -0.154026
  65 -50.7644 0.402100 0.108021
  66 -49.0514 0.219361 -0.101654
  67 -49.4305 0.572774 -0.645196
  68 -48.5712 0.687421 -0.122771
  69 -45.8732 0.226733 -0.974493
  70 -46.2167 0.421305 -1.03873
  71 -44.9583 0.403178 -0.613712
  72 -41.5595 0.262502 -0.896984
  73 -39.8520 0.446283 -1.43631
  74 -37.3541 0.491548 -1.19901
  75 -32.9716 0.253739 -2.00652
  76 -30.4897 0.0775259 -1.67947
  77 -26.0971 0.111717 -1.92010
  78 -22.2919 0.0748178 -2.10505
  79 -19.0112 0.0217797 -1.66061
  80 -14.5016 0.0932271 -1.66854
  81 -10.6288 -0.0494911 -1.77639
  82 -6.88574 -0.199143 -1.54666
  83 -3.93244 -0.173410 -1.17719
  84 -1.91489 -0.297743 -0.977636
  85 -0.291772 -0.171623 -0.341199
  86 0.0421786 -0.186684 -0.116246
  87 -0.101751 -0.0835516 -0.0135262
  88 -0.268091 -0.222586 -0.297687
  89 -0.259636 -1.61481 -0.846747
  90 -0.224982 -3.65550 -1.21886
  91 -0.119036 -6.29435 -1.78494
  92 -0.0644095 -9.69206 -1.54144
  93 -0.0615208 -12.8438 -1.94229
  94 -0.242738 -16.7279 -2.20291
  95 -0.0986482 -21.4981 -2.23702
  96 0.0468377 -26.3063 -2.14983
  97 0.105805 -31.4739 -2.12717
  98 0.158262 -36.8060 -2.10260
  99 0.0243656 -40.8148 -2.85538
  100 0.287945 -46.4267 -2.56347
  101 0.343549 -53.0283 -2.09108
  102 0.0181107 -56.1604 -2.78372
  103 0.488105 -61.2058 -2.61502
  104 1.15699 -67.9580 -1.44673
  105 2.23942 -70.2419 -2.28950
  106 1.47240 -65.8350 0.867190
  107 1.94941 -52.3060 5.19522
  108 11.8783 -35.5212 17.1648
  109 38.6472 38.9941 64.6733
  110 449.497 22.8314 43.1794
  111 384.640 7.30390 15.9476
  112 372.264 2.94515 3.50071
  113 369.759 1.26683 -0.597145
  114 372.104 4.36963 -8.43488
  115 382.988 13.0135 -18.6422
  116 436.156 44.7229 -54.5825
  117 91.0642 29.6968 -79.3033
  118 19.3916 -34.9242 -21.5445
  119 5.63900 -57.1526 -7.57284
  120 1.52671 -62.5705 -1.00624
  121 1.78558 -67.7513 1.46260
  122 0.526029 -65.3997 1.17659
  123 0.210638 -59.6920 2.27876
  124 0.215348 -55.9807 1.81985
  125 0.292868 -50.2096 2.92772
  126 -0.0139970 -46.8088 2.80656
  127 0.116393 -42.2056 2.03018
  128 0.217376 -36.3527 2.54313
  129 0.0378773 -32.1894 2.01872
  130 0.0657826 -26.3562 2.54644
  131 -0.263002 -21.7528 2.18323
  132 -0.189346 -16.7442 2.13626
  133 -0.0456682 -12.7764 1.94813
  134 -0.0821991 -9.63769 1.54545
  135 -0.116773 -6.27613 1.76810
  136 -0.221921 -3.65279 1.21291
  137 -0.258303 -1.61714 0.846126
  138 -0.267805 -0.224915 0.298226
  139 -0.101749 -0.0845837 0.0142032
  140 0.0409492 -0.186881 0.116892
  141 -0.294179 -0.171581 0.342075
  142 -1.91886 -0.297555 0.978659
  143 -3.93804 -0.172953 1.17766
  144 -6.89090 -0.198577 1.54633
  145 -10.6317 -0.0490243 1.77505
  146 -14.5016 0.0933160 1.66693
  147 -19.0074 0.0219427 1.65896
  148 -22.2846 0.0749690 2.10326
  149 -26.0853 0.111632 1.91832
  150 -30.4743 0.0774015 1.67792
  151 -32.9539 0.253544 2.00517
  152 -37.3337 0.491290 1.19811
  153 -39.8303 0.446025 1.43571
  154 -41.5370 0.262351 0.896779
  155 -44.9354 0.403038 0.613713
  156 -46.1938 0.421177 1.03876
  157 -45.8510 0.226676 0.974627
  158 -48.5493 0.687320 0.123065
  159 -49.4089 0.572717 0.645358
  160 -49.0305 0.219361 0.101845
  161 -50.7437 0.402078 -0.107857
  162 -50.6296 0.875702 0.154127
  163 -48.2569 0.129958 -0.306657
  164 -37.0558 -0.676256 0.494903
  165 -25.9734 0.0206956 1.06761
  166 -14.5173 0.641691 0.461819
  167 0.897064 1.01654 0.496782
  168 13.2917 1.24565 0.514577
  169 28.1813 1.02460 0.680880
  170 42.8938 1.40370 0.646619
  171 54.1551 1.82957 0.472642
  172 67.7933 1.99330 0.244856
  173 81.0009 1.32054 0.370069
  174 94.4562 0.871941 0.309426
  175 107.099 0.920603 0.383030
  176 121.632 0.00504644 0.460486
  177 135.730 0.457783 0.426884
  178 147.074 0.576548 0.181818
  179 39.0275 7.37043 -0.511890
  180 39.0156 7.37592 0.542198
  181 -1.26551 0.896715 12.1980
  182 -1.30509 0.895999 -12.1969
  183 90.9029 -1.37341 -19.2681
  184 90.8737 -1.56391 19.4946
  185 17.3960 3.45233 0.620037
  186 17.1887 3.53975 -0.600519
  187 11.8080 2.70490 -2.34279
  188 11.8184 2.70598 2.34616
  189 86.7097 2.28847 -2.60989
  190 86.7207 2.27780 2.60903
  191 -2.71695 3.64397 6.97696
  192 -2.73831 3.64983 -6.97620
  193 100.854 3.14804 -7.15280
  194 100.901 3.09828 7.15530
  195 -4.06283 -3.56781 9.28361
  196 -4.06001 -3.58675 -9.29238
  197 0.703977 -8.86734 -11.5216
  198 30.2772 0.0876977 -16.8814
  199 0.907398 -9.45800 11.2802
  200 29.7850 0.357762 17.2083
  201 143.516 -20.6270 -28.2384
  202 148.802 -21.4533 26.9764
  203 50.3624 2.31864 -0.117556
  204 50.3620 2.31490 0.118796
  205 -10.0271 0.837929 -1.48419
  206 -10.0132 0.838569 1.48518
  207 -12.1217 1.72874 9.28565
  208 -12.1425 1.73268 -9.29396
  209 50.5706 5.31277 -0.730444
  210 50.5742 5.30499 0.739710
  211 14.7803 6.42598 5.48253
  212 14.7270 6.46619 -5.48444
  213 -16.0479 1.72302 -4.09778
  214 -16.0297 1.72187 4.09875
  215 116.617 0.658219 1.31941
  216 116.605 0.660746 -1.32130
  217 3.44698 -16.8420 5.63436
  218 3.75348 -15.3886 -5.14955
  219 -1.16674 -10.0175 10.5516
  220 -1.18444 -10.3753 -10.2076
  221 46.5197 6.92213 -6.85018
  222 46.4912 6.95032 6.94723
  223 -10.6578 -0.106240 9.14642
  224 -10.6697 -0.106703 -9.15553
  225 124.782 1.18587 -4.06246
  226 124.796 1.17136 4.05101
  227 133.796 -1.56721 -7.88996
  228 133.889 -1.71602 7.83296
  229 212.123 17.0096 -0.457425
  230 194.643 21.0255 15.0403
  231 193.550 -3.42338 -20.6760
  232 22.1761 5.60256 3.13168
  233 22.1640 5.60491 -3.12163
  234 0.749473 4.28293 9.65556
  235 0.718409 4.29584 -9.65872
  236 149.381 -9.07159 -4.57801
  237 148.484 -9.19369 5.03903
  238 81.9624 1.33972 -0.893003
  239 81.9681 1.33633 0.892419
  240 -19.2758 1.34282 6.28516
  241 -19.2959 1.34538 -6.28804
  242 -2.55196 -2.51587 -4.11513
  243 -2.55034 -2.51508 4.11853
  244 -21.9783 0.658021 2.15809
  245 -21.9955 0.657861 -2.15693
  246 66.6740 5.60434 -4.33412
  247 66.6929 5.58284 4.35459
  248 85.2388 2.98694 -10.7562
  249 85.3202 2.92660 10.8066
  250 19.2019 1.77395 -0.397315
  251 19.2097 1.77556 0.398473
  252 48.4833 -2.40879 -38.5397
  253 57.7116 -0.763997 42.3710
  254 6.03162 2.63335 9.43053
  255 6.00499 2.70145 -9.45716
  256 204.892 -18.3443 -0.977338
  257 16.3746 6.79189 4.73952
  258 16.3501 6.80464 -4.72867
  259 47.4063 4.75884 -13.7260
  260 47.3309 4.89260 13.9136
  261 227.695 30.4309 -5.87296
  262 135.331 0.487803 5.50123
  263 135.308 0.536468 -5.53494
  264 -1.25087 -7.62062 -6.50945
  265 -1.21890 -7.65312 6.53673
  266 -0.302751 -18.3049 -9.11420
  267 0.519559 -21.7667 -8.69160
  268 0.257228 -21.6100 8.98467
  269 -3.59960 -3.15860 12.1056
  270 -3.61177 -3.15017 -12.1453
  271 6.78344 -18.7816 -1.56764
  272 7.28007 -17.4988 2.69307
  273 -7.85798 -0.683998 5.72580
  274 -7.86002 -0.686668 -5.72958
  275 95.2597 3.25331 -4.34840
  276 95.2810 3.23062 4.34589
  277 168.036 -18.1212 0.531073
  278 35.5923 3.65832 -0.671702
  279 35.5956 3.66198 0.675758
  280 -0.478200 -17.1520 8.69596
  281 2.17294 3.66431 4.72638
  282 2.15654 3.66704 -4.72275
  283 269.627 19.4089 -5.85500
  284 131.746 0.441905 1.64986
  285 131.733 0.445224 -1.65370
  286 86.1776 -4.89752 -29.3111
  287 87.0101 -4.82053 29.8214
  288 167.792 -17.1418 -3.33778
  289 -16.2860 0.475271 7.27166
  290 -16.2998 0.475858 -7.27860
  291 164.982 -16.3810 48.7153
  292 -7.53065 1.06062 11.1144
  293 -7.55166 1.06113 -11.1268
  294 26.4766 7.33920 -0.676678
  295 26.3808 7.41166 0.722688
  296 -30.9193 0.346844 0.414622
  297 -30.9366 0.346691 -0.414300
  298 138.522 -1.12224 -67.0693
  299 -28.3104 0.607215 -3.45377
  300 -28.2901 0.606351 3.45330
  301 -1.06039 -3.84144 12.5393
  302 -0.673312 -3.77512 -12.4482
  303 59.4137 6.51088 -6.37869
  304 59.4305 6.49737 6.43347
  305 11.6093 1.94911 1.75152
  306 11.5997 1.94771 -1.74956
  307 62.2053 3.04149 -1.08800
  308 62.2091 3.03486 1.08969
  309 5.49303 -5.48158 7.32241
  310 5.00309 -6.39743 -7.36729
  311 60.3716 1.68652 -0.201424
  312 60.3725 1.68392 0.201562
  313 -22.9389 0.593968 5.38547
  314 -22.9561 0.594989 -5.38987
  315 14.5422 -2.76707 -2.18668
  316 14.0875 -2.77560 1.80269
  317 137.824 0.168406 0.456521
  318 137.806 0.168805 -0.456933
  319 303.532 17.7292 10.8324
  320 29.3175 4.54628 1.58885
  321 29.3115 4.54384 -1.58171
  322 -8.04403 1.71162 3.01443
  323 -8.05933 1.71182 -3.01238
  324 40.9777 6.16985 -0.117002
  325 40.9751 6.16569 0.134294
  326 4.18430 4.17388 10.0953
  327 4.15851 4.18623 -10.1070
  328 0.601209 -31.1890 6.47601
  329 -31.8277 0.164538 -0.901344
  330 -31.8097 0.164716 0.901906
  331 104.145 0.815904 -0.853265
  332 104.155 0.814123 0.852444
  333 109.725 1.25730 -2.26485
  334 109.737 1.25041 2.26094
  335 -29.4133 0.574833 -2.57058
  336 -29.3938 0.574572 2.57119
  337 -2.31194 0.819440 0.414562
  338 -2.32407 0.818672 -0.414055
  339 -0.652047 -12.5383 6.52153
  340 -0.521182 -13.0385 -6.51272
  341 122.551 -10.5826 -19.5670
  342 127.497 -12.6370 19.1673
  343 72.2405 4.16593 -2.62391
  344 72.2517 4.15204 2.62781
  345 30.9036 7.61248 0.159523
  346 30.8613 7.64181 -0.123203
  347 -12.4792 2.29342 5.73824
  348 -12.4987 2.29646 -5.73834
  349 232.602 0.580258 2.12373
  350 11.4923 -21.0265 -11.6777
  351 12.2984 -19.9490 12.3422
  352 -5.73736 3.52810 9.00243
  353 -5.76220 3.53570 -9.00636
  354 -6.58389 -1.41511 10.6649
  355 -6.59646 -1.41644 -10.6791
  356 262.857 41.7801 -8.58441
  357 165.713 -3.32977 23.9076
  358 156.821 -3.46276 -3.30597
  359 156.619 -3.38428 3.01346
  360 108.498 -1.00075 -12.3891
  361 108.385 -1.12904 12.3844
  362 0.200627 -37.5459 -5.30824
  363 144.138 0.636622 -3.12140
  364 144.143 0.622350 3.10322
  365 1.78475 -35.7241 4.47405
  366 161.765 12.5504 -13.7904
  367 38.9712 1.89990 0.642136
  368 38.9675 1.89796 -0.641819
  369 109.365 1.24924 -9.21310
  370 109.441 1.17631 9.21404
  371 118.648 1.45750 -5.65746
  372 118.671 1.42513 5.64154
  373 -3.82636 1.57562 2.11506
  374 -3.83982 1.57504 -2.11318
  375 66.4784 3.70185 -14.3959
  376 66.5205 3.73529 14.5542
  377 142.146 0.177614 0.753074
  378 142.128 0.178391 -0.754265
  379 78.4447 4.84113 -7.10227
  380 78.4838 4.80228 7.13117
  381 91.5403 1.99840 1.77431
  382 91.5317 2.00395 -1.77591
  383 -4.40693 -0.811464 3.50151
  384 -4.40568 -0.813264 -3.50084
  385 -1.03716 -0.739942 -0.999209
  386 -1.03774 -0.740461 1.00080
  387 188.620 -25.4405 11.0551
  388 -2.54505 -6.07137 9.68697
  389 -2.52887 -6.11859 -9.68422
  390 28.9750 2.44415 -1.03010
  391 28.9803 2.44684 1.03243
  392 -0.945057 -4.67253 3.51187
  393 -0.955256 -4.66380 -3.51170
  394 10.4407 5.46975 5.27474
  395 10.4213 5.47669 -5.26809
  396 154.380 -0.371552 4.07537
  397 154.375 -0.307646 -4.16899
  398 -0.515438 -9.54978 11.8634
  399 -12.7319 -0.252839 5.45563
  400 -12.7373 -0.253646 -5.46071
  401 -0.563644 -10.0591 -11.7263
  402 145.322 0.290716 1.98238
  403 145.310 0.295089 -1.98937
  404 -2.00634 3.01224 11.1946
  405 -2.04490 3.02427 -11.2050
  406 106.167 2.11224 -3.66826
  407 106.182 2.09826 3.66213
  408 163.604 -7.06936 -4.59119
  409 164.328 -5.64411 3.55610
  410 -0.358422 -17.1252 -7.17443
  411 13.7457 4.93908 -4.35698
  412 13.8585 4.87407 4.35393
  413 158.328 10.6193 8.74081
  414 91.1380 -6.35135 -40.9644
  415 93.7304 -8.10569 43.0149
  416 4.42116 5.10267 7.63039
  417 4.39546 5.11332 -7.62815
  418 67.1257 2.44362 -0.742898
  419 67.1289 2.43921 0.743114
  420 64.9765 5.74904 65.5531
  421 26.0173 6.66073 -2.62202
  422 26.0333 6.65402 2.63781
  423 1.51979 -17.0831 8.41261
  424 -0.209991 -27.9311 -6.30450
  425 9.80544 6.14216 7.30788
  426 9.77291 6.15967 -7.30565
  427 11.9479 3.88104 -3.35314
  428 11.9601 3.88050 3.35817
  429 -4.96607 -0.425051 -12.1579
  430 -4.94505 -0.432053 12.1433
  431 31.4644 6.02169 -4.76817
  432 31.3372 6.12260 4.85226
  433 163.278 -5.62571 -17.9077
  434 4.14967 -2.27612 9.97546
  435 4.00254 -2.21957 -10.0214
  436 118.732 -5.00068 -13.7027
  437 119.266 -5.38979 13.6626
  438 -30.6079 0.268735 -3.29391
  439 -30.5879 0.268017 3.29228
  440 0.00568066 -27.3340 5.64560
  441 -0.205011 -17.3161 6.37893
  442 -12.5508 0.741126 9.32389
  443 -12.5664 0.741663 -9.33308
  444 85.0906 1.29431 -0.292068
  445 85.0963 1.29213 0.291610
  446 -2.61954 -4.13184 6.52526
  447 -2.62269 -4.13984 -6.51656
  448 51.8086 1.91698 -21.1451
  449 51.7281 2.17551 21.4366
  450 0.436848 -33.5129 -6.40530
  451 303.191 11.6164 0.399247
  452 0.793243 -40.2858 -4.10883
  453 -36.7573 0.0722930 -1.27637
  454 -36.7377 0.0723937 1.27691
  455 -14.3361 1.92648 7.81188
  456 -14.3572 1.93051 -7.81669
  457 -16.0456 0.218565 5.50414
  458 -16.0542 0.218718 -5.50931
  459 56.9900 6.37604 -4.07134
  460 57.0020 6.36581 4.10546
  461 87.4212 4.04487 -5.50792
  462 87.4519 4.01211 5.51527
  463 -1.68783 -5.85699 12.2276
  464 -1.68903 -5.81704 -12.2757
  465 150.434 1.89611 -22.6408
  466 9.82316 -3.76506 -3.02035
  467 9.48327 -3.84747 3.19491
  468 2.28871 -37.1534 0.536797
  469 1.43274 -42.7631 -1.54095
  470 -4.74621 -2.15061 6.72561
  471 -4.74663 -2.15751 -6.72670
  472 31.3744 -7.36648 -32.9033
  473 238.358 -4.49274 -19.6628
  474 51.8465 3.94862 0.845582
  475 51.8441 3.95585 -0.840516
  476 75.7395 0.503656 -20.5949
  477 75.9505 0.475877 20.9476
  478 21.4222 7.90315 3.53552
  479 21.3889 7.92644 -3.51946
  480 68.3102 5.37385 -10.3938
  481 68.3590 5.33647 10.4876
  482 2.02538 1.00471 11.5068
  483 2.17802 1.08169 -11.4905
  484 -32.4180 0.519392 -2.50688
  485 -32.3975 0.519077 2.50699
  486 153.583 -18.5262 -10.4192
  487 122.894 0.441239 -0.642486
  488 122.908 0.440512 0.642067
  489 4.86526 1.17140 -0.987624
  490 4.87612 1.17253 0.988760
  491 -8.83299 2.91189 7.43362
  492 -8.85486 2.91706 -7.43536
  493 -19.1355 1.22015 -2.85253
  494 -19.1180 1.21980 2.85382
  495 51.8030 5.65052 -1.44369
  496 51.8080 5.64091 1.45739
  497 -7.06511 2.39118 10.2303
  498 -7.09079 2.39789 -10.2394
  499 140.803 -3.71483 -7.21408
  500 141.027 -3.92975 7.06818
  501 91.0019 1.17925 -13.6131
  502 90.8809 1.09670 13.7406
  503 32.8332 2.06251 -0.622211
  504 32.8380 2.06484 0.623265
  505 0.277304 -17.3758 -10.1264
  506 164.425 -6.31499 14.7653
  507 2.02607 -11.8903 -9.50418
  508 45.4188 7.59867 3.94440
  509 45.4346 7.58436 -3.88505
  510 151.886 -17.3389 10.2414
  511 10.9307 -19.8139 16.6271
  512 181.852 -25.5049 -21.3328
  513 123.296 0.922731 6.78785
  514 123.254 0.982174 -6.80964
  515 0.238783 -14.9305 10.5371
  516 -2.40510 -0.725494 -1.85703
  517 -2.40654 -0.725348 1.85868
  518 13.4406 1.16878 -0.335764
  519 13.4496 1.17002 0.336223
  520 -0.425784 -9.61490 4.16536
  521 -0.386320 -9.56834 -4.18539
  522 101.508 1.53219 1.45571
  523 101.499 1.53532 -1.45723
  524 290.366 48.5938 17.9215
  525 11.2138 -8.88539 -2.19901
  526 8.68632 -11.4139 0.397781
  527 -4.23786 2.37391 -3.93861
  528 -4.22197 2.37271 3.94100
  529 -25.1073 0.400959 3.33303
  530 -25.1214 0.401392 -3.33594
  531 0.240857 -31.3272 6.32247
  532 -36.3952 0.380127 0.405736
  533 -36.4137 0.380055 -0.405352
  534 30.1879 -4.59906 -23.8397
  535 29.4877 -4.00459 24.8549
  536 27.5420 4.25684 -7.29498
  537 27.3343 4.39583 7.37221
  538 -6.81077 -1.48446 9.28227
  539 -6.81817 -1.48940 -9.29270
  540 26.7889 2.96803 1.13690
  541 26.7830 2.96543 -1.13356
  542 -16.1861 0.856220 1.32926
  543 -16.2015 0.855865 -1.32810
  544 31.9446 5.25410 1.46157
  545 31.9385 5.25229 -1.45074
  546 -0.674022 -2.15991 1.58370
  547 -0.676205 -2.15767 -1.58328
  548 11.2659 4.84072 6.80241
  549 11.1923 4.91601 -6.81827
  550 9.11134 0.875588 6.17045
  551 8.97783 0.862521 -6.23723
  552 125.468 1.26614 2.87932
  553 125.456 1.27305 -2.88546
  554 110.357 1.95434 4.51038
  555 110.339 1.97519 -4.51938
  556 -0.114483 -26.1264 -3.89390
  557 76.3201 4.42623 -4.07011
  558 76.3383 4.40590 4.07778
  559 76.7158 2.35973 -1.40241
  560 76.7226 2.35300 1.40238
  561 -12.2316 0.592821 -0.0665829
  562 -12.2176 0.593331 0.0668908
  563 126.256 7.31145 -4.35160
  564 173.982 -23.2766 -6.65025
  565 138.602 6.13323 17.3471
  566 1.05415 -23.1646 -7.68275
  567 -8.81953 2.58149 -5.04499
  568 -8.80135 2.57923 5.04642
  569 1.06060 -13.5973 10.1284
  570 -8.00089 0.119242 10.7577
  571 -8.01728 0.119469 -10.7689
  572 220.885 21.3830 -2.17352
  573 49.1828 2.86237 -0.224220
  574 49.1827 2.85782 0.226298
  575 343.803 28.5431 -28.3130
  576 -1.98722 -1.58010 12.7027
  577 -1.88206 -1.49288 -12.7158
  578 183.961 -17.6474 9.69241
  579 148.940 0.377431 -3.49606
  580 148.939 0.354932 3.46623
  581 66.3176 -1.14425 -30.2063
  582 67.1686 -1.32960 30.7463
  583 -3.94007 -3.80588 10.7740
  584 -3.94228 -3.82335 -10.7979
  585 34.3008 2.02113 15.1786
  586 34.5886 1.73958 -15.0164
  587 -29.5640 0.351543 -3.18026
  588 -29.5451 0.351020 3.17818
  589 217.095 16.0674 16.5366
  590 39.8454 4.25142 -0.416752
  591 39.8472 4.25603 0.422481
  592 47.2089 5.80339 -10.1692
  593 47.1593 5.87526 10.3109
  594 133.816 0.0989718 -6.70169
  595 133.869 0.0213428 6.66605
  596 -0.652306 -13.8838 -9.73330
  597 147.002 -0.0114161 1.03379
  598 146.983 -0.0103899 -1.03547
  599 -22.7294 0.567883 -0.564059
  600 -22.7133 0.568175 0.564724
  601 -38.9861 -0.199447 0.0350094
  602 -39.0047 -0.199567 -0.0348759
  603 2.90457 -21.8418 -4.25662
  604 -1.41066 -8.93740 8.24918
  605 -1.48767 -8.46534 -8.30458
  606 -16.9924 1.01374 7.80900
  607 -17.0094 1.01559 -7.81586
  608 101.130 3.00438 5.63006
  609 101.103 3.03661 -5.63470
  610 73.9991 1.51198 0.345045
  611 73.9958 1.51409 -0.345162
  612 16.0568 -6.47033 8.99946
  613 16.6083 -6.12003 -8.89296
  614 -0.532134 -6.69183 3.50778
  615 -0.547566 -6.66921 -3.51882
  616 176.061 6.56694 71.1444
  617 -8.63225 -0.277898 3.26456
  618 -8.63109 -0.279007 -3.26647
  619 2.84542 -13.3656 -7.90140
  620 72.2315 3.45913 -1.96529
  621 72.2393 3.44942 1.96688
  622 34.5332 7.51183 -2.49397
  623 34.4758 7.55524 2.55460
  624 0.360685 -47.9250 2.87867
  625 25.6039 7.55708 2.47500
  626 25.5817 7.57061 -2.45611
  627 -4.03196 3.18862 6.04675
  628 -4.05120 3.19246 -6.04525
  629 -0.209702 -23.1246 5.32595
  630 -38.4919 0.0876022 -1.25883
  631 -38.4714 0.0875913 1.25926
  632 46.8534 1.78235 -0.0893337
  633 46.8550 1.78526 0.0901308
  634 122.282 0.753172 1.87218
  635 122.269 0.756764 -1.87522
  636 106.592 -9.45348 54.3134
  637 85.6244 2.70143 -3.23952
  638 85.6381 2.68682 3.23959
  639 1.01930 -2.27210 11.9537
  640 1.31141 -1.48527 -11.9590
  641 137.748 -15.7576 -43.7023
  642 333.971 11.8061 -11.8039
  643 -35.0033 0.0522793 -2.23063
  644 -34.9822 0.0519490 2.22992
  645 6.70251 2.11086 -2.04278
  646 6.71361 2.11178 2.04516
  647 -0.677709 -14.6183 8.55224
  648 185.936 9.82655 -22.1795
  649 145.448 -0.0889991 0.165556
  650 145.427 -0.0888599 -0.165668
  651 -9.39556 -0.549740 -7.65179
  652 -9.38897 -0.547889 7.64463
  653 -0.0208675 -33.0123 -5.18413
  654 148.013 -0.128748 0.394368
  655 147.992 -0.128528 -0.394681
  656 12.1201 4.84200 4.52827
  657 12.1046 4.84546 -4.52161
  658 110.366 -10.2564 -28.3644
  659 112.500 -10.2331 28.7156
  660 164.296 -0.878022 2.28822
  661 164.385 -0.863787 -2.41157
  662 0.706953 -42.0135 4.23582
  663 -10.5455 0.502401 -0.788426
  664 -10.5316 0.502995 0.789127
  665 52.7498 -1.22887 -50.8939
  666 48.8349 1.65013 0.301698
  667 48.8366 1.65220 -0.301464
  668 23.1407 2.24373 0.635319
  669 23.1338 2.24163 -0.633521
  670 27.8787 3.62438 -1.06184
  671 27.8845 3.62720 1.06687
  672 94.2850 3.11286 -8.69448
  673 94.3481 3.05541 8.71377
  674 24.0467 7.20257 1.55376
  675 23.9815 7.25274 -1.52907
  676 -18.3184 1.37988 -4.67953
  677 -18.2991 1.37814 4.67962
  678 -20.9653 1.43797 -5.23779
  679 -20.9454 1.43592 5.23642
  680 168.310 -2.45627 -0.960484
  681 -0.0270903 -7.27850 -12.0340
  682 168.700 -2.57784 0.685704
  683 211.388 17.0868 0.983979
  684 -21.2534 0.0942218 3.77523
  685 -21.2643 0.0943467 -3.77883
  686 20.8796 5.82803 0.144676
  687 20.7334 5.91005 -0.113864
  688 -41.4299 0.0817488 -0.496301
  689 -41.4099 0.0818118 0.496705
  690 0.0795756 -6.60618 12.0871
  691 -13.4542 0.146187 8.13428
  692 -13.4667 0.146212 -8.14221
  693 184.222 -16.6334 -10.4412
  694 27.4968 1.16424 -0.0896138
  695 27.4907 1.16263 0.0900422
  696 5.24180 2.96192 3.25541
  697 5.22884 2.96202 -3.25186
  698 95.8265 -4.76590 -23.5360
  699 96.6198 -4.95374 24.0396
  700 347.921 24.2168 26.0470
  701 6.17140 -35.2524 -9.59803
  702 -2.59343 -5.38513 11.5701
  703 -2.60000 -5.40338 -11.5912
  704 19.0851 4.86887 -2.76017
  705 19.0960 4.86849 2.76746
  706 152.122 -0.0909200 -1.06283
  707 152.139 -0.0920198 1.06024
  708 70.5861 1.77320 0.496050
  709 70.5827 1.77668 -0.496194
  710 5.06767 5.14508 9.10890
  711 5.03645 5.16144 -9.11181
  712 2.07076 1.63659 1.44724
  713 2.05917 1.63564 -1.44575
  714 -4.66854 0.831876 12.0334
  715 -4.69508 0.834836 -12.0507
  716 124.229 0.278746 0.770565
  717 124.215 0.279965 -0.771621
  718 106.886 1.42737 2.10703
  719 106.875 1.43213 -2.10960
  720 13.5951 -11.6525 11.0916
  721 14.0252 -12.3163 -10.6625
  722 -8.83736 1.74132 10.5013
  723 -8.85996 1.74480 -10.5123
  724 4.10468 -11.2769 6.51755
  725 -0.235134 2.96356 11.3452
  726 -0.276154 2.97485 -11.3491
  727 -24.8824 0.769508 -3.15393
  728 -24.8633 0.768894 3.15447
  729 17.4029 6.19500 4.39836
  730 17.3830 6.20277 -4.38741
  731 165.258 -5.16358 -10.1787
  732 156.686 -13.9589 -2.61395
  733 -2.59342 -5.28974 8.09896
  734 -2.58901 -5.31261 -8.08672
  735 59.3202 -2.05841 -35.6979
  736 57.7118 -0.703154 36.1214
  737 35.6735 6.84418 -4.45038
  738 35.5936 6.91275 4.53493
  739 2.89634 -6.71689 10.0334
  740 -0.238020 -17.0281 -4.59875
  741 76.1322 4.62629 -7.88681
  742 76.1812 4.58798 7.93299
  743 0.213672 -33.6714 4.30955
  744 44.7558 6.73422 -1.38512
  745 44.7542 6.73014 1.41026
  746 159.475 0.0182337 -2.65980
  747 159.447 -0.00385877 2.61248
  748 2.97302 -47.8069 0.121774
  749 70.0048 5.75029 5.80719
  750 69.9782 5.77651 -5.77832
  751 18.2361 6.45130 -3.26528
  752 18.3261 6.38115 3.27104
  753 -28.9590 0.194151 -2.66318
  754 -28.9424 0.193859 2.66095
  755 78.2907 1.92160 -1.27534
  756 78.2964 1.91695 1.27491
  757 47.3581 7.27060 -3.21218
  758 47.3533 7.27240 3.25618
  759 -0.559625 4.27499 8.93179
  760 -0.586752 4.28546 -8.93356
  761 157.183 -11.9031 0.730004
  762 -25.8571 0.647182 2.42439
  763 -25.8754 0.647247 -2.42350
  764 347.212 62.6338 -44.1928
  765 -10.7370 1.15788 2.64032
  766 -10.7522 1.15758 -2.63865
  767 134.334 0.751199 4.78854
  768 134.320 0.780283 -4.81348
  769 249.341 16.4985 0.560682
  770 153.137 -0.276425 -2.03863
  771 153.145 -0.280566 2.03025
  772 96.4372 1.93878 2.59898
  773 96.4268 1.94669 -2.60154
  774 144.675 -18.0402 39.7756
  775 61.6633 5.13041 -1.82586
  776 61.6726 5.11819 1.83444
  777 1.34125 -26.4425 5.85372
  778 166.375 -21.9953 11.8073
  779 100.745 0.777724 0.458927
  780 100.737 0.779189 -0.459248
  781 133.351 0.347817 0.246678
  782 133.334 0.348108 -0.246862
  783 -0.626695 -13.6017 -7.98190
  784 0.747888 -23.6727 8.13306
  785 58.1482 6.76861 8.07519
  786 58.1333 6.77427 -7.99187
  787 345.895 3.94168 2.79448
  788 101.618 1.26331 -10.9950
  789 101.704 1.19438 11.0186
  790 -21.9444 0.732178 5.90231
  791 -21.9636 0.733881 -5.90599
  792 4.05805 -19.9992 2.64302
  793 2.66792 -44.9073 -2.02068
  794 234.001 29.9109 -1.01736
  795 -0.212593 -16.9691 4.14830
  796 4.10918 3.05997 10.4108
  797 4.09902 3.06161 -10.4447
  798 29.8968 6.47154 1.79199
  799 29.8869 6.47408 -1.77740
  800 156.289 -7.04484 -1.70291
  801 156.486 -6.99106 1.08323
  802 186.390 19.7399 -67.1394
  803 -26.6872 0.397285 -1.19128
  804 -26.6696 0.397478 1.19217
  805 -11.8627 -0.0575778 3.08739
  806 -11.8634 -0.0580055 -3.08995
  807 10.6426 0.0258171 4.13284
  808 10.4154 0.0117780 -4.14311
  809 117.754 -0.291593 9.93585
  810 117.660 -0.174902 -9.92725
  811 59.1266 2.13916 -0.121403
  812 59.1279 2.13561 0.121858
  813 190.988 -4.64452 20.5614
  814 18.6954 3.56935 -2.43682
  815 18.7046 3.57064 2.44196
  816 17.8312 1.58420 -1.61078
  817 17.6695 1.68170 1.66827
  818 -0.169246 -13.7473 -10.9355
  819 274.215 36.5776 34.7288
  820 -40.2034 0.0692133 -1.24234
  821 -40.1819 0.0691458 1.24257
  822 -0.0595272 -41.2537 4.14343
  823 2.54024 -6.62019 -10.1168
  824 -5.85663 -0.368003 2.27784
  825 -5.85332 -0.368815 -2.27813
  826 216.705 10.1864 -15.8630
  827 54.7818 5.98926 -2.27734
  828 54.7900 5.97853 2.29824
  829 148.513 -1.86680 -4.97120
  830 148.623 -1.89955 4.86856
  831 -38.2797 0.318525 1.62064
  832 -38.3015 0.318719 -1.62083
  833 -0.259281 -0.269440 -0.215198
  834 -0.259792 -0.269931 0.216029
  835 0.143049 -42.2219 -4.08335
  836 0.202216 -44.8652 -3.85651
  837 -42.8313 0.446061 0.268641
  838 -42.8505 0.446055 -0.268468
  839 21.5229 -10.3228 -22.6708
  840 91.3220 1.64884 -0.697843
  841 91.3292 1.64628 0.697020
  842 -4.62649 1.00688 0.340754
  843 -4.63903 1.00622 -0.340567
  844 137.206 0.689864 -3.20336
  845 137.217 0.679546 3.19119
  846 -15.6261 0.105165 2.94497
  847 -15.6299 0.105201 -2.94766
  848 81.3588 -2.10381 -54.4766
  849 142.019 -12.3273 10.4054
  850 111.922 0.945767 -0.942750
  851 111.933 0.943954 0.941482
  852 140.627 -13.4443 -11.7382
  853 42.6722 5.33834 -0.114231
  854 42.6716 5.33234 0.126372
  855 59.6527 4.51704 -1.30804
  856 59.6586 4.50752 1.31350
  857 165.410 -3.59881 7.75295
  858 9.24895 5.79780 7.77386
  859 9.21228 5.82098 -7.77959
  860 8.84572 1.05549 0.717590
  861 8.83577 1.05429 -0.716824
  862 77.2332 1.54887 0.562733
  863 77.2289 1.55157 -0.563056
  864 206.183 -21.7465 20.5513
  865 128.353 1.12630 -4.14201
  866 128.368 1.10699 4.12566
  867 0.412119 2.18553 2.59053
  868 0.399068 2.18515 -2.58802
  869 129.076 0.181310 1.14625
  870 129.061 0.182725 -1.14787
  871 -25.5008 0.284887 -0.681318
  872 -25.4845 0.285165 0.681421
  873 -0.120511 -12.9582 3.68556
  874 -0.156261 -13.1609 -3.71523
  875 151.930 -2.51542 18.0305
  876 -10.0492 2.35990 8.99030
  877 -10.0721 2.36556 -8.99638
  878 -0.0561280 -21.4217 -4.09682
  879 59.7162 2.79402 -0.623746
  880 59.7183 2.78932 0.624774
  881 111.000 -5.71887 -17.8472
  882 111.913 -6.33697 18.0301
  883 -5.05051 -1.86419 -11.6404
  884 -5.03216 -1.86648 11.6217
  885 5.16701 5.28894 8.40387
  886 5.13786 5.30261 -8.40315
  887 0.550787 -49.8868 3.04744
  888 0.837138 3.99317 10.4682
  889 0.803311 4.00561 -10.4726
  890 102.332 -1.74696 -15.8227
  891 102.125 -1.85145 15.9517
  892 177.308 8.75320 22.7834
  893 39.6638 5.00868 -0.340189
  894 39.6659 5.01384 0.348797
  895 132.050 1.16885 -3.12278
  896 132.062 1.16027 3.11408
  897 -5.30158 -2.36980 10.1505
  898 -5.30905 -2.37728 -10.1654
  899 0.439898 -51.8961 -2.27699
  900 -8.14348 -0.621741 9.99528
  901 -8.15532 -0.622237 -10.0062
  902 3.91501 4.88972 -6.69024
  903 3.93705 4.88167 6.69343
  904 -0.408618 -3.21922 1.79126
  905 -0.413064 -3.21563 -1.79376
  906 10.0677 5.50243 -6.16505
  907 10.0913 5.49250 6.17132
  908 2.04178 -4.52310 11.1514
  909 1.74711 -4.21426 -11.6489
  910 126.936 -3.37586 10.0437
  911 126.619 -3.18267 -10.1276
  912 -43.5479 0.165444 -0.393965
  913 -43.5281 0.165501 0.394234
  914 -3.57866 -0.330908 1.70263
  915 -3.57504 -0.331380 -1.70185
  916 0.179374 -30.5251 -3.76068
  917 -3.91959 -1.70054 -4.87870
  918 -3.91930 -1.69691 4.88018
  919 -17.0233 1.39334 7.58509
  920 -17.0427 1.39627 -7.59078
  921 38.2895 7.77580 -1.24416
  922 38.2701 7.79177 1.28262
  923 165.117 13.5380 -4.14297
  924 -2.89905 3.85575 8.12553
  925 -2.92297 3.86337 -8.12648
  926 61.1514 3.68828 -16.2204
  927 61.1781 3.74328 16.4367
  928 -8.53392 2.74925 6.56952
  929 -8.55435 2.75369 -6.56992
  930 206.389 -12.4631 -6.61110
  931 117.691 4.72438 9.78258
  932 146.533 -2.19906 -16.3131
  933 111.130 1.97559 -6.73595
  934 111.168 1.93040 6.72585
  935 -13.1521 1.74211 -3.37314
  936 -13.1353 1.74131 3.37473
  937 -27.4869 0.521097 3.85486
  938 -27.5070 0.522076 -3.85626
  939 -1.63514 -5.23548 -5.67105
  940 -1.62493 -5.24184 5.68279
  941 38.0203 3.02401 -0.260744
  942 38.0230 3.02766 0.263576
  943 -12.9408 1.25292 9.31213
  944 -12.9590 1.25476 -9.32134
  945 134.827 0.227512 1.53378
  946 134.812 0.229187 -1.53601
  947 -1.05644 -11.5970 8.68504
  948 3.75757 4.55040 -5.80556
  949 3.77672 4.54505 5.80929
  950 5.46009 3.29932 3.96181
  951 5.44589 3.30049 -3.95788
  952 21.4518 2.53342 -1.25243
  953 21.4591 2.53539 1.25483
  954 254.304 27.7921 -1.99446
  955 -0.967004 -0.274058 -0.661518
  956 -0.969072 -0.274110 0.662758
  957 7.94301 1.83952 -7.47678
  958 8.08035 1.76257 7.46144
  959 89.0034 4.10688 -6.86180
  960 89.0441 4.06525 6.87481
  961 10.1289 4.10298 -3.87509
  962 10.1429 4.10140 3.88040
  963 23.8572 -12.0703 30.9791
  964 170.894 -1.10439 -1.17724
  965 170.547 -1.06091 0.998756
  966 28.7670 -6.46193 26.5394
  967 29.9188 1.81479 0.110528
  968 29.9133 1.81292 -0.109771
  969 80.4426 -4.83533 -46.9938
  970 60.6759 1.61195 0.328424
  971 60.6752 1.61404 -0.328345
  972 7.33448 -9.46479 2.98316
  973 8.10804 -8.15227 -2.36953
  974 152.032 -0.0564648 0.533739
  975 152.010 -0.0562123 -0.534152
  976 -12.5550 0.0126411 7.34108
  977 -12.5640 0.0123458 -7.34794
  978 271.576 33.4986 12.6578
  979 -1.27904 -8.89279 -11.5851
  980 1.14230 -46.4733 3.58289
  981 -0.283947 -14.0197 10.7343
  982 156.936 0.0410126 -2.08099
  983 156.935 0.0349342 2.06768
  984 -2.08064 -3.79194 4.88814
  985 -2.08552 -3.79075 -4.88216
  986 191.740 19.3372 -13.9178
  987 351.528 3.53101 -1.88246
  988 -0.505068 -0.739153 -0.719969
  989 -0.504590 -0.740707 0.721000
  990 89.5939 1.58549 -1.43106
  991 89.6012 1.58165 1.42998
  992 -1.32563 -8.57127 11.6593
  993 125.560 1.00207 6.09269
  994 125.534 1.04568 -6.11527
  995 164.639 -11.2634 -8.23732
  996 -5.81076 -1.24303 5.53929
  997 -5.81122 -1.24710 -5.54079
  998 2.42406 -11.7015 8.84861
  999 -0.305434 -20.8888 8.41658
  1000 -0.0219128 -21.2431 4.08635
  1001 164.306 11.3725 -0.864016
  1002 190.772 20.8929 8.68943
  1003 137.607 -16.5883 -21.4020
  1004 1.82243 -21.0928 7.23532
  1005 2.35166 -30.6483 2.39342
  1006 36.8605 1.42754 0.189817
  1007 36.8563 1.42576 -0.189642
  1008 -1.53918 -1.75171 -2.31013
  1009 -1.53814 -1.75252 2.31227
  1010 1.17573 -17.3129 -9.33608
  1011 111.785 0.590446 -0.345375
  1012 111.796 0.589414 0.344968
  1013 21.2583 -1.59091 -8.99467
  1014 20.3222 -1.53437 8.91060
  1015 -2.77424 3.32382 10.4536
  1016 -2.80587 3.33460 -10.4616
  1017 -14.1060 2.07811 -6.55303
  1018 -14.0855 2.07464 6.55129
  1019 83.5406 1.41252 -16.1091
  1020 83.6166 1.46884 16.3039
  1021 59.6099 5.44022 -10.7776
  1022 59.6218 5.43197 10.9042
  1023 65.1387 5.32330 -3.30139
  1024 65.1520 5.30597 3.31410
  1025 171.537 -5.64738 -21.7546
  1026 -5.13478 1.99609 11.2873
  1027 -5.16380 2.00173 -11.3018
  1028 121.881 0.274601 8.25532
  1029 121.818 0.363629 -8.27337
  1030 -1.00117 -6.84742 12.2696
  1031 -9.96063 -0.355143 5.37304
  1032 -9.96330 -0.356504 -5.37736
  1033 110.810 1.49058 -8.16580
  1034 110.865 1.42755 8.15870
  1035 132.948 2.85113 -15.4995
  1036 -0.217603 -20.8217 -8.84236
  1037 -1.73095 -8.23029 10.3300
  1038 -1.79980 -8.31723 -10.2381
  1039 77.2890 5.08395 -5.45159
  1040 77.3184 5.05390 5.46959
  1041 98.6954 2.34248 3.24587
  1042 98.6826 2.35378 -3.24951
  1043 164.306 -10.9975 7.24057
  1044 6.40520 1.14531 -0.204381
  1045 6.41561 1.14628 0.204604
  1046 139.309 -18.5834 22.8696
  1047 -2.52487 0.835382 0.910646
  1048 -2.53716 0.834499 -0.909832
  1049 28.7773 7.76022 1.32560
  1050 28.7474 7.78108 -1.29907
  1051 10.2866 6.07955 6.73443
  1052 10.2590 6.09317 -6.72920
  1053 1.43718 -26.1269 -6.07435
  1054 38.9303 2.00121 -0.328771
  1055 38.9333 2.00436 0.330468
  1056 113.549 4.00329 4.00016
  1057 112.604 1.32821 3.09156
  1058 112.592 1.33784 -3.09710
  1059 -0.890894 -7.07895 -12.2864
  1060 169.829 -2.11511 -4.06375
  1061 -0.422851 -0.961236 12.3962
  1062 -0.300730 -0.850428 -12.3497
  1063 156.238 -0.184654 -1.14255
  1064 156.253 -0.186015 1.13883
  1065 166.136 -0.450049 -1.99132
  1066 166.050 -0.473838 1.92412
  1067 -0.127804 -32.2304 3.09437
  1068 95.7781 3.00122 -4.32999
  1069 95.7940 2.98336 4.32672
  1070 117.454 1.51218 3.65342
  1071 117.440 1.52413 -3.66138
  1072 2.00063 2.46270 11.3843
  1073 1.99171 2.46681 -11.3863
  1074 256.413 17.9333 1.94272
  1075 -3.55992 -1.66581 12.5014
  1076 -3.60242 -1.63443 -12.5265
  1077 34.8951 7.40666 0.633372
  1078 34.8852 7.41093 -0.612171
  1079 -22.0700 0.545270 -1.28513
  1080 -22.0536 0.545617 1.28598
  1081 58.1637 2.87009 -18.7845
  1082 58.1085 3.04209 19.0548
  1083 15.9544 6.84987 5.50040
  1084 15.9233 6.86708 -5.49084
  1085 39.1251 3.89526 -13.3174
  1086 38.9310 4.10336 13.4690
  1087 -1.12376 -10.8789 -8.45360
  1088 140.099 1.52628 19.9118
  1089 99.7111 -3.07544 61.6394
  1090 15.0109 6.92695 5.69491
  1091 14.9722 6.95178 -5.68855
  1092 59.4481 3.77717 -0.915745
  1093 59.4525 3.76916 0.919120
  1094 222.225 -2.33316 9.28797
  1095 13.2516 2.92072 4.18526
  1096 13.0826 2.97114 -4.22564
  1097 -6.64638 -1.49845 7.41158
  1098 -6.64934 -1.50446 -7.41692
  1099 -0.219194 -4.81475 1.96256
  1100 -0.227452 -4.81132 -1.97014
  1101 145.636 0.180489 4.98058
  1102 145.615 0.242365 -5.03489
  1103 0.0663745 -10.8446 11.5597
  1104 -10.2883 0.555829 -10.0794
  1105 -10.2725 0.555679 10.0693
  1106 0.0574149 -39.3167 -4.03268
  1107 -2.53256 -3.51508 12.4770
  1108 -2.52740 -3.44836 -12.4881
  1109 139.797 0.436667 -2.09899
  1110 139.811 0.432927 2.09409
  1111 143.296 -0.754929 5.88254
  1112 143.223 -0.656758 -5.94096
  1113 23.6791 4.81776 -3.45292
  1114 23.5011 4.93418 3.51462
  1115 -0.360784 -20.2520 -7.08913
  1116 189.307 -20.8846 -35.0676
  1117 246.131 28.1079 -2.94289
  1118 2.33431 -32.4449 -1.53766
  1119 7.89492 4.67638 -8.72383
  1120 7.93917 4.64651 8.69694
  1121 22.0024 7.47937 3.22445
  1122 21.9577 7.51107 -3.20718
  1123 47.9039 3.44438 0.0142075
  1124 47.9035 3.45006 -0.0107107
  1125 -3.26206 -4.64715 9.62580
  1126 -3.25617 -4.68788 -9.63753
  1127 -9.86311 2.82622 8.34816
  1128 -9.88572 2.83189 -8.35189
  1129 -4.00644 3.49855 9.70505
  1130 -4.03419 3.50759 -9.71057
  1131 135.881 -6.87235 -9.68893
  1132 136.800 -6.95773 9.57217
  1133 0.0881797 -23.5972 -8.47329
  1134 71.0347 -0.769360 -24.0085
  1135 71.1842 -0.536533 24.4659
  1136 21.8401 7.06130 -3.32871
  1137 21.8599 7.05042 3.34314
  1138 73.5322 24.2958 69.1750
  1139 16.7636 5.77675 4.18349
  1140 16.7471 5.78166 -4.17419
  1141 186.900 -22.2076 -6.65204
  1142 69.1972 2.50963 0.820938
  1143 69.1928 2.51517 -0.820504
  1144 -3.21335 -2.87677 5.82628
  1145 -3.21433 -2.88256 -5.82283
  1146 -3.85854 -3.47877 7.57462
  1147 -3.85691 -3.49109 -7.57335
  1148 121.043 -13.5085 -34.5039
  1149 123.728 -14.7803 34.7825
  1150 20.2057 1.25491 0.0884951
  1151 20.2133 1.25644 -0.0877038
  1152 75.0638 3.66817 -12.8520
  1153 75.0909 3.61102 13.0021
  1154 167.497 -24.0785 25.8131
  1155 150.907 -0.224709 0.317072
  1156 150.885 -0.224531 -0.317156
  1157 -14.1735 2.13947 7.42851
  1158 -14.1947 2.14330 -7.43185
  1159 -23.9973 0.800347 -3.97432
  1160 -23.9777 0.799481 3.97446
  1161 36.6648 -3.56464 40.2328
  1162 109.641 7.79610 -8.07613
  1163 68.6555 5.40488 -5.95086
  1164 68.6868 5.37889 5.99055
  1165 220.071 -11.0923 37.3976
  1166 69.7351 5.09026 -9.16797
  1167 69.7761 5.05327 9.23738
  1168 16.1700 2.66518 -1.71251
  1169 16.1789 2.66693 1.71539
  1170 5.79102 -25.5801 2.67755
  1171 5.86570 -25.0785 -4.24630
  1172 95.0609 -7.70680 -34.7616
  1173 96.4622 -7.26401 34.7791
  1174 36.3035 5.59978 -8.86843
  1175 36.1583 5.73391 8.99193
  1176 169.581 -12.0248 -14.5305
  1177 -6.50040 -0.662792 11.3432
  1178 -6.51759 -0.661376 -11.3565
  1179 -0.256717 -9.72026 -11.8600
  1180 41.7578 -0.509273 -24.8961
  1181 41.8753 -0.346658 25.3858
  1182 -0.111174 -8.57176 2.19768
  1183 -0.0946429 -8.59164 -2.22377
  1184 -41.8504 0.365219 -1.15685
  1185 -41.8283 0.365093 1.15689
  1186 136.551 0.206305 -0.546694
  1187 136.568 0.205662 0.545783
  1188 82.5482 3.63279 -3.49157
  1189 82.5655 3.61451 3.49412
  1190 -3.43879 -0.268844 12.5740
  1191 -3.44829 -0.220889 -12.5952
  1192 0.0249044 -34.8952 -3.46352
  1193 -35.3320 0.0934027 1.81170
  1194 -35.3527 0.0936255 -1.81267
  1195 25.5837 -2.72207 -16.8665
  1196 25.3811 -2.55743 17.4710
  1197 157.914 -9.73649 0.597747
  1198 43.4750 1.58164 -22.2938
  1199 43.5212 1.73794 22.5650
  1200 -19.3790 0.100129 2.68835
  1201 -19.3858 0.100106 -2.69095
  1202 0.478017 -31.3097 -6.16485
  1203 -7.33261 1.44249 -1.72197
  1204 -7.31884 1.44306 1.72343
  1205 22.3756 6.09184 3.32568
  1206 22.3605 6.09622 -3.31375
  1207 88.3202 1.03210 -0.495667
  1208 88.3264 1.03031 0.495476
  1209 120.232 0.994821 2.35751
  1210 120.219 1.00081 -2.36206
  1211 6.01566 -1.66842 7.65863
  1212 5.92589 -1.77280 -7.76520
  1213 0.981944 -18.2287 9.27219
  1214 214.685 27.8246 11.7905
  1215 -6.64798 -0.537326 4.19641
  1216 -6.64730 -0.539350 -4.19776
  1217 0.763865 -17.0597 -9.62077
  1218 -0.653588 -10.1414 6.16144
  1219 -0.617912 -10.0606 -6.38699
  1220 170.764 -1.81945 3.62473
  1221 0.159549 -40.0455 3.56495
  1222 1.05707 -12.6648 -10.7178
  1223 18.5765 1.05312 0.272055
  1224 18.5685 1.05180 -0.271872
  1225 -1.79916 -7.47160 11.4257
  1226 -20.0443 1.17903 -3.44874
  1227 -20.0261 1.17839 3.44970
  1228 357.947 6.50124 9.74545
  1229 -10.2835 1.07534 10.2525
  1230 -10.3023 1.07659 -10.2632
  1231 80.4294 3.53939 -11.6386
  1232 80.5167 3.46571 11.7168
  1233 4.91575 -9.24010 -5.43955
  1234 76.7496 4.52927 -4.41438
  1235 76.7725 4.50486 4.42585
  1236 3.00335 -25.8905 -2.37854
  1237 -1.80233 -7.48030 -11.3979
  1238 -14.6948 0.722770 2.15285
  1239 -14.7104 0.722363 -2.15153
  1240 -6.31619 0.290935 -11.6717
  1241 -6.29558 0.290612 11.6596
  1242 163.215 12.8268 16.4436
  1243 93.4752 1.39115 -12.5324
  1244 93.6010 1.34588 12.5644
  1245 -44.1547 0.132289 -0.466384
  1246 -44.1338 0.132303 0.466713
  1247 84.6332 2.64509 -2.39744
  1248 84.6420 2.63688 2.39650
  1249 -45.6378 -0.723976 -0.112485
  1250 -45.6572 -0.724105 0.112539
  1251 126.544 -9.13152 -14.3251
  1252 -20.5142 0.333203 5.77011
  1253 -20.5289 0.333770 -5.77541
  1254 127.894 -9.63814 14.1919
  1255 85.9104 3.73393 -5.00582
  1256 85.9328 3.70806 5.00943
  1257 9.71506 -29.7397 -16.8045
  1258 0.177705 -28.4775 -7.29603
  1259 -0.662048 -12.0451 10.7288
  1260 278.373 39.1929 -33.9660
  1261 -0.0747868 -26.5493 7.03915
  1262 288.199 27.0179 -15.2220
  1263 -0.123352 -49.0545 -3.42586
  1264 12.0236 1.74057 -0.754843
  1265 12.0329 1.74200 0.756420
  1266 -0.126110 -11.0209 2.30508
  1267 -0.102941 -11.0777 -2.29735
  1268 47.0374 1.75051 -0.152725
  1269 47.0393 1.75285 0.153137
  1270 171.725 -13.7605 13.9044
  1271 1.81989 1.58384 -1.99853
  1272 1.83181 1.58469 2.00031
  1273 0.999128 -55.0595 2.03462
  1274 0.635288 -58.4315 -1.99558
  1275 157.938 -20.6505 -14.9548
  1276 -0.454817 -14.5476 6.84394
  1277 162.441 9.77326 -20.2398
  1278 -0.496082 -19.1749 6.74525
  1279 0.319736 -53.1641 -2.77898
  1280 78.6993 2.85230 -2.50816
  1281 78.7101 2.83933 2.50937
  1282 -0.0522232 -28.3853 3.04752
  1283 -0.0802863 -23.7800 -6.90709
  1284 386.404 62.6738 55.2416
  1285 151.655 0.207436 0.251777
  1286 151.633 0.207401 -0.251740
  1287 3.45931 -0.233455 10.4891
  1288 3.34274 -0.0722640 -10.5269
  1289 -2.84503 1.98017 11.9604
  1290 -2.89270 1.98731 -11.9778
  1291 158.328 -3.10820 -11.6277
  1292 147.759 -6.05893 -5.28674
  1293 147.575 -6.93208 5.29899
  1294 20.5037 2.98476 1.80562
  1295 20.4957 2.98263 -1.80166
  1296 -25.0548 0.684425 -4.62747
  1297 -25.0350 0.683150 4.62511
  1298 164.944 -24.2469 -21.6901
  1299 -1.24507 -2.98440 3.02839
  1300 -1.24952 -2.98147 -3.02657
  1301 173.355 -8.23117 20.5034
  1302 -1.88197 -7.00173 8.29883
  1303 -1.86183 -7.02624 -8.26010
  1304 -16.9464 1.19562 2.54461
  1305 -16.9630 1.19566 -2.54323
  1306 25.0764 1.85900 -8.04819
  1307 24.8179 2.01501 8.05766
  1308 39.7115 1.66313 0.382218
  1309 39.7081 1.66076 -0.381575
  1310 -17.5524 1.71682 7.26382
  1311 -17.5725 1.71975 -7.26802
  1312 141.923 0.578243 0.391785
  1313 141.903 0.578213 -0.391770
  1314 75.9438 -2.59434 46.5996
  1315 115.015 0.692595 0.827064
  1316 115.003 0.693805 -0.827829
  1317 74.5885 1.48086 -18.1783
  1318 74.6271 1.38511 18.3644
  1319 0.691308 -31.9689 -4.78560
  1320 28.1934 6.65444 -2.65179
  1321 28.0794 6.74042 2.71612
  1322 -0.270087 -0.260766 -0.365096
  1323 -0.271418 -0.260900 0.366147
  1324 97.3653 3.50988 6.67024
  1325 97.3298 3.55257 -6.66929
  1326 47.3214 4.48343 0.412017
  1327 47.3202 4.49038 -0.405184
  1328 70.6281 4.57419 -2.82334
  1329 70.6420 4.55786 2.83054
  1330 93.7007 1.09937 -0.823400
  1331 93.7081 1.09755 0.822934
  1332 -3.00621 -1.46953 -3.42481
  1333 -3.00629 -1.46826 3.42713
  1334 -30.1052 0.130824 1.51524
  1335 -30.1239 0.130758 -1.51442
  1336 -5.20660 -2.42864 -8.49327
  1337 -5.20454 -2.41771 8.48671
  1338 -18.0507 0.465091 0.659013
  1339 -18.0658 0.464625 -0.658590
  1340 -46.0242 0.445873 0.270251
  1341 -46.0441 0.445882 -0.270074
  1342 178.083 -24.5455 30.1049
  1343 123.924 -0.974718 -16.0368
</Section>

newXOutput 22

<Section columns = "stress_xx | stress_yy | stress_xy">
  1 164.066 -0.150336 0.152172
  2 164.092 -0.150420 -0.152247
  3 -52.1075 0.280583 -0.699315
  4 0.0844947 0.0245375 0.148019
  5 303.646 75.0966 93.4631
  6 342.942 85.9206 -89.1544
  7 0.0842026 0.0242580 -0.147633
  8 -52.0854 0.280581 0.699243
  9 163.543 -0.136435 -0.536469
  10 163.651 -0.418659 -0.884880
  11 165.210 -0.404788 -0.220589
  12 165.333 -0.364186 -1.01138
  13 165.652 -0.346676 -0.281653
  14 169.172 -0.352856 -0.403893
  15 170.325 -0.551928 -1.35313
  16 171.501 -0.215819 -0.907370
  17 172.172 0.218049 -1.75432
  18 179.286 -0.871124 -1.50554
  19 182.216 -0.635536 -1.96225
  20 185.367 -1.03372 -0.666258
  21 186.725 -1.43098 -0.309710
  22 184.771 -1.70519 2.72706
  23 177.578 -1.96299 5.57738
  24 161.208 -2.33448 11.6861
  25 135.383 1.11007 13.5156
  26 113.666 1.25772 12.7399
  27 83.9449 3.10982 7.73828
  28 89.7549 3.03419 0.534199
  29 73.2017 9.22617 -5.01416
  30 106.979 4.12614 -13.6275
  31 126.113 0.880532 -11.2126
  32 157.584 -0.581208 -9.69735
  33 175.127 -2.38152 -6.63921
  34 184.344 -1.99313 -2.72660
  35 186.243 -1.37971 0.310979
  36 185.024 -1.01821 0.607236
  37 182.050 -0.641066 1.89307
  38 179.202 -0.884814 1.46414
  39 172.152 0.209844 1.73280
  40 171.504 -0.218929 0.898641
  41 170.341 -0.553749 1.34934
  42 169.194 -0.353783 0.401955
  43 165.676 -0.347167 0.280640
  44 165.358 -0.364636 1.01122
  45 165.236 -0.405084 0.220423
  46 163.677 -0.418859 0.885102
  47 163.569 -0.136508 0.536607
  48 154.283 0.597857 -0.191265
  49 142.398 0.468613 -0.448206
  50 127.625 -0.0111903 -0.482544
  51 112.394 0.945496 -0.401398
  52 99.1413 0.892022 -0.324084
  53 85.0341 1.36149 -0.387375
  54 71.1841 2.06722 -0.255633
  55 56.8796 1.89600 -0.494343
  56 45.0662 1.45123 -0.676768
  57 29.6300 1.05588 -0.712600
  58 14.0058 1.29098 -0.538665
  59 0.998596 1.05400 -0.520055
  60 -15.1794 0.664033 -0.483175
  61 -27.2032 0.0155668 -1.11910
  62 -38.8350 -0.712818 -0.518519
  63 -50.5928 0.135111 0.322227
  64 -53.0854 0.917544 -0.160511
  65 -53.2073 0.420731 0.114562
  66 -51.4125 0.228910 -0.105185
  67 -51.8151 0.599768 -0.675121
  68 -50.9168 0.720122 -0.126521
  69 -48.0906 0.236945 -1.02018
  70 -48.4573 0.441427 -1.08774
  71 -47.1411 0.422316 -0.641711
  72 -43.5793 0.274617 -0.938795
  73 -41.7945 0.467762 -1.50468
  74 -39.1774 0.515487 -1.25544
  75 -34.5838 0.265981 -2.10319
  76 -31.9831 0.0812926 -1.76029
  77 -27.3775 0.117141 -2.01312
  78 -23.3886 0.0788169 -2.20774
  79 -19.9484 0.0230859 -1.74164
  80 -15.2179 0.0979206 -1.75012
  81 -11.1550 -0.0516451 -1.86354
  82 -7.22796 -0.208720 -1.62299
  83 -4.12910 -0.181787 -1.23555
  84 -2.01124 -0.312330 -1.02631
  85 -0.307392 -0.180049 -0.358454
  86 0.0436197 -0.195990 -0.122316
  87 -0.106791 -0.0882166 -0.0145475
  88 -0.281273 -0.234934 -0.312783
  89 -0.272426 -1.69624 -0.888983
  90 -0.235940 -3.83861 -1.27925
  91 -0.124739 -6.60778 -1.87312
  92 -0.0673969 -10.1739 -1.61751
  93 -0.0641247 -13.4809 -2.03808
  94 -0.254540 -17.5551 -2.31117
  95 -0.103468 -22.5596 -2.34653
  96 0.0490861 -27.6040 -2.25483
  97 0.110935 -33.0249 -2.23086
  98 0.166089 -38.6176 -2.20474
  99 0.0250314 -42.8193 -2.99380
  100 0.301567 -48.7044 -2.68749
  101 0.360131 -55.6265 -2.19075
  102 0.0175721 -58.9031 -2.91620
  103 0.511565 -64.1856 -2.73840
  104 1.21427 -71.2540 -1.50823
  105 2.35107 -73.6289 -2.38701
  106 1.54949 -68.9514 0.938558
  107 2.05857 -54.6841 5.51100
  108 12.4687 -36.9387 18.1109
  109 40.5192 41.4911 67.9627
  110 470.937 23.9689 45.2961
  111 403.027 7.64737 16.7174
  112 390.056 3.07304 3.67467
  113 387.426 1.31196 -0.625926
  114 389.891 4.56571 -8.84154
  115 401.333 13.6348 -19.5529
  116 457.011 46.9551 -57.2693
  117 95.5290 31.6331 -83.3208
  118 20.3775 -36.3210 -22.7054
  119 5.92770 -59.7542 -7.99889
  120 1.60586 -65.5244 -1.08433
  121 1.87524 -71.0123 1.51813
  122 0.551699 -68.5675 1.22415
  123 0.220048 -62.5970 2.38430
  124 0.225455 -58.7121 1.90361
  125 0.307107 -52.6664 3.06835
  126 -0.0147359 -49.1064 2.94281
  127 0.122046 -44.2797 2.12838
  128 0.228295 -38.1424 2.66744
  129 0.0399538 -33.7762 2.11728
  130 0.0690083 -27.6556 2.67088
  131 -0.275978 -22.8270 2.29009
  132 -0.198484 -17.5721 2.24117
  133 -0.0475370 -13.4099 2.04417
  134 -0.0860560 -10.1167 1.62168
  135 -0.122349 -6.58864 1.85543
  136 -0.232722 -3.83578 1.27300
  137 -0.271025 -1.69869 0.888331
  138 -0.280971 -0.237393 0.313352
  139 -0.106788 -0.0893050 0.0152621
  140 0.0423222 -0.196196 0.122996
  141 -0.309928 -0.180003 0.359375
  142 -2.01541 -0.312130 1.02738
  143 -4.13497 -0.181305 1.23604
  144 -7.23333 -0.208122 1.62263
  145 -11.1579 -0.0511524 1.86212
  146 -15.2178 0.0980147 1.74841
  147 -19.9442 0.0232605 1.73988
  148 -23.3807 0.0789808 2.20583
  149 -27.3648 0.117054 2.01122
  150 -31.9665 0.0811649 1.75863
  151 -34.5647 0.265777 2.10172
  152 -39.1553 0.515213 1.25445
  153 -41.7711 0.467488 1.50402
  154 -43.5550 0.274455 0.938549
  155 -47.1163 0.422165 0.641687
  156 -48.4325 0.441290 1.08775
  157 -48.0664 0.236883 1.02030
  158 -50.8929 0.720007 0.126814
  159 -51.7915 0.599702 0.675272
  160 -51.3896 0.228907 0.105376
  161 -53.1845 0.420703 -0.114394
  162 -53.0629 0.917444 0.160612
  163 -50.5709 0.135116 -0.322107
  164 -38.8151 -0.712576 0.518519
  165 -27.1852 0.0158907 1.11902
  166 -15.1637 0.664529 0.483243
  167 1.01114 1.05478 0.520093
  168 14.0157 1.29212 0.538692
  169 29.6365 1.05747 0.712612
  170 45.0695 1.45306 0.676730
  171 56.8803 1.89796 0.494302
  172 71.1818 2.06914 0.255528
  173 85.0290 1.36329 0.387176
  174 99.1332 0.893574 0.323834
  175 112.383 0.946529 0.401053
  176 127.610 -0.0104420 0.482149
  177 142.379 0.468764 0.447939
  178 154.260 0.597764 0.191147
  179 41.0131 7.72475 -0.580682
  180 41.0002 7.73079 0.612201
  181 -1.30844 0.952171 12.7753
  182 -1.35016 0.951145 -12.7744
  183 95.4495 -1.43765 -20.2748
  184 95.4174 -1.63704 20.5122
  185 18.2941 3.65397 0.593507
  186 18.0760 3.74538 -0.573562
  187 12.4529 2.82544 -2.43788
  188 12.4642 2.82647 2.44129
  189 91.0202 2.37894 -2.75535
  190 91.0320 2.36792 2.75455
  191 -2.80637 3.81954 7.29537
  192 -2.82923 3.82575 -7.29484
  193 105.864 3.28313 -7.53191
  194 105.914 3.23142 7.53482
  195 -4.25921 -3.73906 9.73697
  196 -4.25633 -3.75899 -9.74629
  197 0.746689 -9.28045 -12.0678
  198 31.8243 0.155338 -17.7964
  199 0.960305 -9.89947 11.8138
  200 31.3071 0.438098 18.1385
  201 150.623 -21.5998 -29.7016
  202 156.160 -22.4648 28.3789
  203 52.9033 2.41172 -0.137064
  204 52.9029 2.40791 0.138354
  205 -10.4559 0.870048 -1.54828
  206 -10.4406 0.870685 1.54927
  207 -12.6956 1.81510 9.72768
  208 -12.7178 1.81922 -9.73664
  209 53.1240 5.55577 -0.795379
  210 53.1276 5.54787 0.805034
  211 15.5523 6.75205 5.70776
  212 15.4960 6.79425 -5.71025
  213 -16.7902 1.80272 -4.28399
  214 -16.7705 1.80147 4.28485
  215 122.360 0.672872 1.38969
  216 122.346 0.675475 -1.39161
  217 3.62792 -17.6209 5.87433
  218 3.95025 -16.0957 -5.36397
  219 -1.22130 -10.5009 11.0639
  220 -1.24014 -10.8771 -10.7037
  221 48.8779 7.26526 -7.24390
  222 48.8474 7.29508 7.34527
  223 -11.1731 -0.108861 9.58945
  224 -11.1858 -0.109383 -9.59916
  225 130.926 1.22696 -4.27166
  226 130.941 1.21189 4.25991
  227 140.404 -1.65899 -8.30173
  228 140.503 -1.81458 8.24277
  229 222.666 17.8210 -0.463494
  230 204.312 22.0938 15.6493
  231 203.098 -3.52643 -21.5675
  232 23.3288 5.86773 3.25301
  233 23.3157 5.87039 -3.24269
  234 0.821198 4.49697 10.1020
  235 0.788224 4.51053 -10.1056
  236 156.762 -9.51888 -4.84701
  237 155.822 -9.64651 5.33166
  238 86.0383 1.38329 -0.945338
  239 86.0445 1.37981 0.944761
  240 -20.1941 1.40744 6.58107
  241 -20.2156 1.41013 -6.58428
  242 -2.67709 -2.63905 -4.31836
  243 -2.67536 -2.63819 4.32189
  244 -23.0035 0.684348 2.25346
  245 -23.0222 0.684206 -2.25234
  246 70.0191 5.86182 -4.58219
  247 70.0387 5.83966 4.60366
  248 89.4988 3.12044 -11.3276
  249 89.5837 3.05773 11.3806
  250 20.2152 1.84564 -0.406960
  251 20.2237 1.84725 0.408140
  252 50.9374 -2.41588 -40.5457
  253 60.6197 -0.698267 44.5619
  254 6.35682 2.78112 9.85784
  255 6.32870 2.85255 -9.88616
  256 214.947 -19.1498 -1.14385
  257 17.2340 7.12330 4.93475
  258 17.2078 7.13681 -4.92370
  259 49.8101 5.01308 -14.4712
  260 49.7302 5.15338 14.6674
  261 238.919 31.9908 -6.01002
  262 141.995 0.496347 5.78447
  263 141.969 0.547100 -5.81932
  264 -1.31145 -7.99348 -6.82883
  265 -1.27778 -8.02748 6.85737
  266 -0.316267 -19.1931 -9.55556
  267 0.548155 -22.8087 -9.10201
  268 0.272155 -22.6504 9.41305
  269 -3.76843 -3.30542 12.6904
  270 -3.78130 -3.29673 -12.7324
  271 7.13480 -19.6250 -1.70040
  272 7.65780 -18.2781 2.88483
  273 -8.24282 -0.716624 6.00635
  274 -8.24505 -0.719440 -6.01038
  275 99.9899 3.39189 -4.58314
  276 100.012 3.36839 4.58070
  277 176.330 -18.9866 0.484430
  278 37.4098 3.82087 -0.683106
  279 37.4135 3.82455 0.687291
  280 -0.500405 -17.9851 9.11763
  281 2.33420 3.83709 4.93410
  282 2.31651 3.84006 -4.93051
  283 282.841 20.3354 -6.19881
  284 138.214 0.450170 1.73640
  285 138.199 0.453608 -1.74033
  286 90.4962 -5.11277 -30.8284
  287 91.3673 -5.03217 31.3626
  288 176.075 -17.9618 -3.42741
  289 -17.0753 0.499412 7.62227
  290 -17.0901 0.500010 -7.62969
  291 173.102 -17.0758 51.2045
  292 -7.88436 1.11773 11.6466
  293 -7.90665 1.11819 -11.6599
  294 27.8352 7.71327 -0.765337
  295 27.7341 7.78933 0.813080
  296 -32.3769 0.359560 0.432067
  297 -32.3960 0.359407 -0.431748
  298 145.362 -1.02968 -70.4694
  299 -29.6687 0.634987 -3.61422
  300 -29.6467 0.634071 3.61361
  301 -1.10190 -4.01538 13.1380
  302 -0.694879 -3.94506 -13.0413
  303 62.4068 6.82115 -6.73892
  304 62.4239 6.80740 6.79619
  305 12.2474 2.03146 1.82282
  306 12.2369 2.03006 -1.82084
  307 65.3247 3.16936 -1.15946
  308 65.3287 3.16256 1.16124
  309 5.78273 -5.71468 7.64268
  310 5.26701 -6.67516 -7.69103
  311 63.3995 1.74756 -0.218118
  312 63.4004 1.74492 0.218268
  313 -24.0507 0.622857 5.64318
  314 -24.0692 0.623924 -5.64792
  315 15.2933 -2.85276 -2.35635
  316 14.8158 -2.86219 1.95241
  317 144.574 0.165734 0.480644
  318 144.554 0.166145 -0.481054
  319 318.294 18.5730 11.4057
  320 30.8253 4.75496 1.63961
  321 30.8187 4.75258 -1.63225
  322 -8.38232 1.78795 3.14594
  323 -8.39894 1.78821 -3.14391
  324 43.0598 6.45909 -0.158659
  325 43.0567 6.45501 0.176632
  326 4.42192 4.38960 10.5592
  327 4.39455 4.40247 -10.5718
  328 0.632185 -32.6909 6.77854
  329 -33.3351 0.168630 -0.940548
  330 -33.3154 0.168809 0.941101
  331 109.288 0.835984 -0.899043
  332 109.299 0.834160 0.898219
  333 115.142 1.29961 -2.38628
  334 115.155 1.29249 2.38231
  335 -30.8150 0.599560 -2.68787
  336 -30.7938 0.599270 2.68841
  337 -2.35664 0.848922 0.430290
  338 -2.36990 0.848148 -0.429781
  339 -0.683373 -13.1526 6.84058
  340 -0.546126 -13.6774 -6.83136
  341 128.641 -11.0928 -20.5893
  342 133.825 -13.2467 20.1704
  343 75.8518 4.34913 -2.77677
  344 75.8636 4.33482 2.78091
  345 32.4847 7.98764 0.118200
  346 32.4398 8.01861 -0.0805068
  347 -13.0508 2.40244 6.00188
  348 -13.0718 2.40567 -6.00219
  349 243.976 0.753251 2.38110
  350 12.0855 -21.9370 -12.3313
  351 12.9329 -20.8014 13.0278
  352 -5.98583 3.70208 9.42228
  353 -6.01231 3.71007 -9.42670
  354 -6.89987 -1.47976 11.1823
  355 -6.91320 -1.48122 -11.1973
  356 275.740 43.9140 -9.16196
  357 173.958 -3.45951 24.9864
  358 164.537 -3.64219 -3.48981
  359 164.328 -3.55953 3.18445
  360 113.894 -1.06129 -13.0395
  361 113.776 -1.19514 13.0350
  362 0.210512 -39.3551 -5.55369
  363 151.207 0.656243 -3.28056
  364 151.213 0.641382 3.26176
  365 1.87544 -37.4299 4.66935
  366 169.902 13.1839 -14.3813
  367 40.9550 1.97389 0.667888
  368 40.9510 1.97193 -0.667570
  369 114.794 1.29344 -9.69622
  370 114.874 1.21756 9.69764
  371 124.506 1.51018 -5.95091
  372 124.531 1.47651 5.93457
  373 -3.95189 1.64342 2.20455
  374 -3.96656 1.64288 -2.20268
  375 69.8250 3.88742 -15.1647
  376 69.8683 3.92287 15.3304
  377 149.103 0.176500 0.792633
  378 149.083 0.177305 -0.793836
  379 82.3680 5.06179 -7.48850
  380 82.4087 5.02153 7.51887
  381 96.0808 2.07488 1.87262
  382 96.0716 2.08058 -1.87422
  383 -4.62415 -0.850842 3.67423
  384 -4.62288 -0.852743 -3.67356
  385 -1.08867 -0.776586 -1.04925
  386 -1.08928 -0.777125 1.05092
  387 197.889 -26.6199 11.6943
  388 -2.66699 -6.36436 10.1594
  389 -2.65001 -6.41404 -10.1567
  390 30.4676 2.54715 -1.06425
  391 30.4735 2.54986 1.06663
  392 -0.991211 -4.90300 3.68527
  393 -1.00193 -4.89389 -3.68512
  394 11.0081 5.73346 5.50239
  395 10.9873 5.74087 -5.49570
  396 161.959 -0.401158 4.28527
  397 161.952 -0.334411 -4.38277
  398 -0.535422 -10.0037 12.4337
  399 -13.3552 -0.264404 5.72161
  400 -13.3610 -0.265264 -5.72700
  401 -0.586035 -10.5384 -12.2902
  402 152.439 0.295087 2.08370
  403 152.426 0.299633 -2.09088
  404 -2.07912 3.16771 11.7210
  405 -2.11993 3.18026 -11.7322
  406 111.418 2.19539 -3.86245
  407 111.433 2.18092 3.85621
  408 171.677 -7.41635 -4.77619
  409 172.429 -5.92357 3.69629
  410 -0.375184 -17.9627 -7.52441
  411 14.4612 5.20322 -4.52276
  412 14.5800 5.13515 4.51903
  413 166.320 11.1430 9.11079
  414 95.6972 -6.60969 -43.0679
  415 98.4127 -8.44957 45.2181
  416 4.68281 5.35275 7.97488
  417 4.65542 5.36399 -7.97287
  418 70.4834 2.54158 -0.791783
  419 70.4869 2.53707 0.792032
  420 68.2395 6.23550 68.9056
  421 27.3582 6.98077 -2.71299
  422 27.3755 6.97352 2.72928
  423 1.60153 -17.8870 8.80090
  424 -0.220239 -29.2935 -6.60915
  425 10.3320 6.44780 7.63016
  426 10.2974 6.46622 -7.62822
  427 12.5965 4.06129 -3.49297
  428 12.6097 4.06059 3.49807
  429 -5.19763 -0.438417 -12.7423
  430 -5.17535 -0.445732 12.7267
  431 33.0720 6.33693 -5.06490
  432 32.9380 6.44277 5.15255
  433 171.380 -5.89067 -18.7210
  434 4.37348 -2.36269 10.4321
  435 4.21880 -2.30389 -10.4807
  436 124.629 -5.25289 -14.4215
  437 125.188 -5.66019 14.3802
  438 -32.0900 0.280789 -3.44963
  439 -32.0684 0.280033 3.44781
  440 0.00575708 -28.6711 5.91943
  441 -0.214717 -18.1648 6.69042
  442 -13.1546 0.779455 9.77272
  443 -13.1712 0.779988 -9.78256
  444 89.3166 1.33564 -0.310634
  445 89.3229 1.33341 0.310172
  446 -2.74701 -4.33308 6.84580
  447 -2.75037 -4.34153 -6.83675
  448 54.4316 2.04632 -22.2653
  449 54.3460 2.31705 22.5702
  450 0.458607 -35.1360 -6.70865
  451 317.930 12.1453 0.411487
  452 0.833451 -42.2103 -4.28765
  453 -38.5148 0.0726811 -1.33379
  454 -38.4933 0.0727810 1.33431
  455 -15.0125 2.02099 8.18031
  456 -15.0351 2.02523 -8.18559
  457 -16.8294 0.229627 5.77150
  458 -16.8388 0.229780 -5.77701
  459 59.8619 6.67649 -4.31297
  460 59.8741 6.66613 4.34862
  461 91.7766 4.22297 -5.80691
  462 91.8089 4.18902 5.81478
  463 -1.76390 -6.13286 12.8167
  464 -1.76522 -6.09111 -12.8674
  465 157.985 2.01742 -23.6681
  466 10.3343 -3.90643 -3.11793
  467 9.97668 -3.99307 3.30151
  468 2.40721 -38.8937 0.524488
  469 1.50808 -44.7814 -1.58303
  470 -4.97786 -2.25452 7.05565
  471 -4.97837 -2.26179 -7.05687
  472 32.9737 -7.54625 -34.6346
  473 249.994 -4.53110 -20.7821
  474 54.4612 4.12300 0.910842
  475 54.4589 4.13037 -0.905559
  476 79.5440 0.540751 -21.6755
  477 79.7640 0.511812 22.0449
  478 22.5310 8.29335 3.66580
  479 22.4957 8.31791 -3.64934
  480 71.7445 5.63229 -10.9572
  481 71.7950 5.59354 11.0554
  482 2.14637 1.06992 12.0439
  483 2.30657 1.15072 -12.0270
  484 -33.9745 0.542598 -2.62251
  485 -33.9522 0.542257 2.62253
  486 161.176 -19.4186 -10.9948
  487 128.933 0.447302 -0.675789
  488 128.948 0.446558 0.675373
  489 5.17236 1.21656 -1.02645
  490 5.18423 1.21770 1.02759
  491 -9.22992 3.05286 7.77860
  492 -9.25331 3.05833 -7.78069
  493 -20.0251 1.27475 -2.97969
  494 -20.0061 1.27435 2.98092
  495 54.4175 5.91088 -1.54714
  496 54.4225 5.90109 1.56144
  497 -7.38658 2.51152 10.7139
  498 -7.41386 2.51854 -10.7238
  499 147.756 -3.90884 -7.59731
  500 147.991 -4.13370 7.44559
  501 95.5491 1.22959 -14.3315
  502 95.4214 1.14369 14.4652
  503 34.5159 2.14563 -0.641883
  504 34.5211 2.14799 0.642958
  505 0.294451 -18.2089 -10.6101
  506 172.569 -6.61399 15.4333
  507 2.13524 -12.4425 -9.94491
  508 47.7211 7.96978 4.18896
  509 47.7382 7.95447 -4.12705
  510 159.395 -18.1740 10.8094
  511 11.4973 -20.6168 17.5315
  512 190.803 -26.6775 -22.4748
  513 129.388 0.950641 7.14105
  514 129.343 1.01258 -7.16340
  515 0.254752 -15.6436 11.0404
  516 -2.52426 -0.761126 -1.94923
  517 -2.52576 -0.760964 1.95095
  518 14.1712 1.21152 -0.347703
  519 14.1811 1.21277 0.348166
  520 -0.446467 -10.0886 4.37007
  521 -0.405087 -10.0398 -4.39113
  522 106.527 1.58706 1.53403
  523 106.517 1.59026 -1.53556
  524 304.535 51.0725 18.9570
  525 11.7937 -9.25838 -2.36831
  526 9.13698 -11.9124 0.472734
  527 -4.39183 2.48322 -4.11257
  528 -4.37464 2.48190 4.11491
  529 -26.3334 0.420360 3.49378
  530 -26.3486 0.420816 -3.49690
  531 0.252928 -32.8483 6.62423
  532 -38.1253 0.395633 0.422283
  533 -38.1456 0.395563 -0.421900
  534 31.7296 -4.72448 -25.1090
  535 30.9946 -4.10321 26.1742
  536 28.9522 4.50030 -7.72263
  537 28.7338 4.64582 7.80300
  538 -7.14066 -1.55413 9.73446
  539 -7.14854 -1.55936 -9.74553
  540 28.1739 3.09779 1.17316
  541 28.1674 3.09519 -1.16973
  542 -16.9203 0.891227 1.38485
  543 -16.9372 0.890882 -1.38369
  544 33.5813 5.49875 1.50162
  545 33.5745 5.49707 -1.49042
  546 -0.707120 -2.26722 1.66248
  547 -0.709417 -2.26489 -1.66204
  548 11.8573 5.09589 7.09328
  549 11.7798 5.17484 -7.11042
  550 9.58911 0.947690 6.42821
  551 9.44870 0.933942 -6.49891
  552 131.640 1.31207 3.02828
  553 131.626 1.31922 -3.03455
  554 115.813 2.03060 4.74746
  555 115.793 2.05224 -4.75664
  556 -0.120114 -27.4099 -4.08364
  557 80.1329 4.62293 -4.29771
  558 80.1519 4.60194 4.30583
  559 80.5403 2.45335 -1.48651
  560 80.5476 2.44643 1.48653
  561 -12.7658 0.613291 -0.0673350
  562 -12.7505 0.613805 0.0676466
  563 132.749 7.66618 -4.54956
  564 182.559 -24.3761 -7.05825
  565 145.616 6.45315 18.1267
  566 1.11045 -24.2677 -8.03895
  567 -9.20567 2.70290 -5.27344
  568 -9.18606 2.70046 5.27475
  569 1.11946 -14.2385 10.6052
  570 -8.38281 0.129198 11.2768
  571 -8.40022 0.129382 -11.2886
  572 231.823 22.4329 -2.19183
  573 51.6663 2.98260 -0.252226
  574 51.6661 2.97797 0.254387
  575 360.435 29.9503 -29.7577
  576 -2.07128 -1.64583 13.3096
  577 -1.96063 -1.55428 -13.3232
  578 193.025 -18.4676 10.0717
  579 156.243 0.385581 -3.67335
  580 156.243 0.362112 3.64242
  581 69.6586 -1.15719 -31.7782
  582 70.5498 -1.35252 32.3434
  583 -4.12831 -3.98680 11.2977
  584 -4.13069 -4.00520 -11.3229
  585 36.0500 2.16585 16.0039
  586 36.3526 1.87095 -15.8345
  587 -31.0006 0.368158 -3.33183
  588 -30.9802 0.367607 3.32956
  589 227.781 16.9541 17.1840
  590 41.8715 4.44302 -0.412530
  591 41.8736 4.44766 0.418463
  592 49.6019 6.10016 -10.7329
  593 49.5491 6.17569 10.8810
  594 140.416 0.0877915 -7.04794
  595 140.472 0.00677008 7.01120
  596 -0.682325 -14.5557 -10.2050
  597 154.191 -0.0189798 1.08678
  598 154.171 -0.0179134 -1.08848
  599 -23.7846 0.589716 -0.586210
  600 -23.7669 0.590007 0.586874
  601 -40.8415 -0.211885 0.0357772
  602 -40.8618 -0.212013 -0.0356427
  603 3.05619 -22.8591 -4.42859
  604 -1.47833 -9.37290 8.65249
  605 -1.55905 -8.87746 -8.71060
  606 -17.8113 1.06399 8.18329
  607 -17.8295 1.06592 -8.19066
  608 106.147 3.13137 5.92877
  609 106.118 3.16483 -5.93337
  610 77.6886 1.56397 0.365025
  611 77.6849 1.56610 -0.365138
  612 16.8853 -6.71437 9.51635
  613 17.4638 -6.34621 -9.40493
  614 -0.558007 -7.02202 3.68058
  615 -0.574227 -6.99835 -3.69220
  616 184.682 7.10658 74.7687
  617 -9.05794 -0.291123 3.42482
  618 -9.05679 -0.292293 -3.42685
  619 2.99608 -13.9831 -8.25820
  620 75.8400 3.60709 -2.08152
  621 75.8482 3.59711 2.08324
  622 36.2947 7.88636 -2.67092
  623 36.2340 7.93207 2.73407
  624 0.377966 -50.2249 3.00273
  625 26.9229 7.92483 2.55506
  626 26.8993 7.93922 -2.53558
  627 -4.18295 3.34037 6.32112
  628 -4.20363 3.34447 -6.31978
  629 -0.220000 -24.2571 5.58511
  630 -40.3394 0.0898401 -1.31595
  631 -40.3170 0.0898249 1.31635
  632 49.2224 1.84954 -0.0832720
  633 49.2242 1.85250 0.0840957
  634 128.297 0.773553 1.97059
  635 128.282 0.777264 -1.97367
  636 111.894 -9.83552 57.0794
  637 89.8846 2.81220 -3.41878
  638 89.8991 2.79711 3.41896
  639 1.08535 -2.36489 12.5166
  640 1.39284 -1.54002 -12.5211
  641 144.567 -16.4581 -45.9393
  642 350.107 12.3626 -12.4049
  643 -36.6999 0.0538164 -2.33575
  644 -36.6771 0.0534687 2.33493
  645 7.09689 2.20311 -2.12663
  646 7.10900 2.20400 2.12903
  647 -0.709813 -15.3297 8.96841
  648 195.159 10.3615 -23.1418
  649 152.558 -0.100144 0.174611
  650 152.535 -0.0999971 -0.174720
  651 -9.85335 -0.575034 -8.02487
  652 -9.84630 -0.573069 8.01725
  653 -0.0222061 -34.6233 -5.43373
  654 155.246 -0.140600 0.414707
  655 155.223 -0.140369 -0.415016
  656 12.7737 5.07184 4.72128
  657 12.7570 5.07561 -4.71454
  658 115.864 -10.7384 -29.8294
  659 118.099 -10.7134 30.1973
  660 172.351 -0.928028 2.40897
  661 172.442 -0.913231 -2.53768
  662 0.742040 -44.0481 4.43273
  663 -10.9979 0.518362 -0.820891
  664 -10.9828 0.518962 0.821590
  665 55.3859 -1.03269 -53.5174
  666 51.3004 1.71048 0.320222
  667 51.3023 1.71259 -0.319976
  668 24.3472 2.33768 0.652798
  669 24.3396 2.33558 -0.650962
  670 29.3162 3.78690 -1.09062
  671 29.3227 3.78971 1.09579
  672 98.9810 3.24874 -9.15632
  673 99.0470 3.18902 9.17678
  674 25.2842 7.56492 1.57983
  675 25.2153 7.61764 -1.55441
  676 -19.1780 1.44401 -4.89496
  677 -19.1572 1.44216 4.89489
  678 -21.9625 1.50648 -5.48216
  679 -21.9410 1.50431 5.48055
  680 176.584 -2.58105 -0.988812
  681 -0.0199510 -7.61746 -12.6078
  682 176.989 -2.70874 0.702082
  683 221.890 17.9129 0.979182
  684 -22.2929 0.0990397 3.95794
  685 -22.3046 0.0991640 -3.96179
  686 21.9553 6.13652 0.0955900
  687 21.8014 6.22248 -0.0638175
  688 -43.4153 0.0837019 -0.517272
  689 -43.3935 0.0837652 0.517672
  690 0.0929264 -6.91170 12.6622
  691 -14.1060 0.154828 8.52767
  692 -14.1193 0.154828 -8.53614
  693 193.300 -17.4030 -10.8557
  694 28.9185 1.20423 -0.0982661
  695 28.9119 1.20259 0.0987062
  696 5.56031 3.09728 3.39398
  697 5.54624 3.09749 -3.39042
  698 100.616 -4.98748 -24.7595
  699 101.446 -5.18398 25.2873
  700 364.733 25.4043 27.3641
  701 6.49127 -36.8240 -10.1355
  702 -2.71533 -5.64114 12.1306
  703 -2.72215 -5.66041 -12.1530
  704 20.0860 5.09678 -2.86749
  705 20.0977 5.09621 2.87496
  706 159.556 -0.100724 -1.11690
  707 159.575 -0.101870 1.11425
  708 74.1111 1.83811 0.529959
  709 74.1074 1.84167 -0.530089
  710 5.35423 5.40395 9.52365
  711 5.32111 5.42112 -9.52709
  712 2.23939 1.70560 1.50636
  713 2.22673 1.70467 -1.50487
  714 -4.88094 0.880423 12.6077
  715 -4.90899 0.883401 -12.6261
  716 130.333 0.277092 0.811829
  717 130.318 0.278349 -0.812894
  718 112.165 1.47763 2.21898
  719 112.153 1.48254 -2.22157
  720 14.2981 -12.1310 11.7156
  721 14.7492 -12.8277 -11.2652
  722 -9.25140 1.82991 11.0021
  723 -9.27542 1.83352 -11.0140
  724 4.32110 -11.7884 6.80096
  725 -0.221680 3.11906 11.8765
  726 -0.265056 3.13082 -11.8809
  727 -26.0620 0.803793 -3.29761
  728 -26.0413 0.803131 3.29805
  729 18.3154 6.49361 4.57890
  730 18.2942 6.50192 -4.56771
  731 173.428 -5.41311 -10.6332
  732 164.426 -14.6365 -2.79789
  733 -2.71897 -5.54640 8.49545
  734 -2.71439 -5.57047 -8.48270
  735 62.3144 -2.08652 -37.5536
  736 60.6271 -0.666362 37.9955
  737 37.4922 7.19167 -4.72853
  738 37.4078 7.26369 4.81671
  739 3.05275 -7.01802 10.4965
  740 -0.249307 -17.8657 -4.82385
  741 79.9455 4.83974 -8.31689
  742 79.9964 4.80007 8.36531
  743 0.223686 -35.3202 4.51857
  744 47.0245 7.05265 -1.49313
  745 47.0224 7.04867 1.51931
  746 167.282 0.0121476 -2.79419
  747 167.254 -0.0109217 2.74496
  748 3.12515 -50.0552 0.163292
  749 73.5144 6.01666 6.13052
  750 73.4868 6.04372 -6.10025
  751 19.1799 6.78398 -3.37629
  752 19.2748 6.71040 3.38180
  753 -30.3724 0.203503 -2.79091
  754 -30.3545 0.203199 2.78850
  755 82.1899 1.99373 -1.34943
  756 82.1961 1.98897 1.34902
  757 49.7563 7.62005 -3.41658
  758 49.7508 7.62227 3.46247
  759 -0.549564 4.48592 9.34384
  760 -0.578429 4.49694 -9.34603
  761 164.946 -12.4824 0.819810
  762 -27.0772 0.674583 2.53398
  763 -27.0971 0.674670 -2.53314
  764 364.004 65.8666 -46.4914
  765 -11.2060 1.20677 2.75613
  766 -11.2226 1.20651 -2.75449
  767 140.943 0.772857 5.03474
  768 140.927 0.803150 -5.06050
  769 261.621 17.2741 0.570137
  770 160.626 -0.296492 -2.14103
  771 160.636 -0.300812 2.13238
  772 101.215 2.01279 2.73924
  773 101.204 2.02095 -2.74182
  774 151.828 -18.8642 41.8136
  775 64.7601 5.36280 -1.94398
  776 64.7697 5.35027 1.95297
  777 1.41125 -27.6964 6.11556
  778 174.583 -23.0366 12.4663
  779 105.725 0.795359 0.483088
  780 105.716 0.796854 -0.483409
  781 139.888 0.352666 0.259573
  782 139.869 0.352962 -0.259755
  783 -0.656396 -14.2649 -8.37111
  784 0.787015 -24.8071 8.51513
  785 61.0804 7.09744 8.52434
  786 61.0654 7.10299 -8.43722
  787 362.537 4.10943 2.93804
  788 106.676 1.31057 -11.5727
  789 106.765 1.23891 11.5977
  790 -23.0003 0.767165 6.18290
  791 -23.0209 0.768955 -6.18692
  792 4.27024 -20.9209 2.73081
  793 2.80557 -47.0062 -2.15944
  794 245.547 31.4022 -1.18624
  795 -0.222790 -17.8043 4.35144
  796 4.33925 3.22479 10.8898
  797 4.32833 3.22639 -10.9259
  798 31.4314 6.77925 1.84422
  799 31.4205 6.78214 -1.82913
  800 163.995 -7.39686 -1.81943
  801 164.206 -7.33923 1.17274
  802 195.481 21.0064 -70.5724
  803 -27.9433 0.411939 -1.24209
  804 -27.9241 0.412126 1.24298
  805 -12.4470 -0.0600591 3.23848
  806 -12.4479 -0.0605122 -3.24120
  807 11.1966 0.0619278 4.28647
  808 10.9577 0.0472012 -4.29785
  809 123.592 -0.320591 10.4562
  810 123.494 -0.198844 -10.4466
  811 62.0947 2.22265 -0.138751
  812 62.0961 2.21904 0.139232
  813 200.414 -4.80534 21.4465
  814 19.6791 3.73161 -2.53240
  815 19.6892 3.73283 2.53765
  816 18.7500 1.70093 -1.75121
  817 18.5800 1.80289 1.81096
  818 -0.173431 -14.4054 -11.4603
  819 287.566 38.5912 36.6028
  820 -42.1421 0.0714812 -1.29922
  821 -42.1188 0.0714094 1.29943
  822 -0.0624667 -43.2644 4.34118
  823 2.67856 -6.91770 -10.5850
  824 -6.14662 -0.385845 2.39009
  825 -6.14319 -0.386703 -2.39042
  826 227.360 10.7835 -16.4865
  827 57.5437 6.26780 -2.42575
  828 57.5520 6.25686 2.44757
  829 155.824 -1.97104 -5.23317
  830 155.941 -2.00501 5.12636
  831 -40.1316 0.332806 1.69608
  832 -40.1552 0.333016 -1.69634
  833 -0.272353 -0.282987 -0.226258
  834 -0.272891 -0.283503 0.227134
  835 0.149251 -44.2788 -4.27699
  836 0.211621 -47.0332 -4.03341
  837 -44.8782 0.465923 0.280154
  838 -44.8994 0.465923 -0.279982
  839 22.6288 -10.6890 -23.8856
  840 95.8492 1.70812 -0.738328
  841 95.8571 1.70551 0.737500
  842 -4.78492 1.04568 0.355483
  843 -4.79865 1.04502 -0.355298
  844 143.942 0.710540 -3.36683
  845 143.954 0.699811 3.35429
  846 -16.3946 0.110354 3.08873
  847 -16.3986 0.110391 -3.09159
  848 85.4285 -2.08011 -57.2700
  849 149.047 -12.9287 10.9700
  850 117.439 0.973884 -0.993633
  851 117.451 0.972025 0.992352
  852 147.590 -14.0988 -12.3695
  853 44.8379 5.58451 -0.151816
  854 44.8369 5.57847 0.164433
  855 62.6497 4.71854 -1.39711
  856 62.6558 4.70879 1.40284
  857 173.581 -3.77420 8.09985
  858 9.74411 6.09126 8.11782
  859 9.70526 6.11557 -8.12426
  860 9.35018 1.09383 0.745632
  861 9.33930 1.09262 -0.744862
  862 81.0800 1.60264 0.596706
  863 81.0753 1.60539 -0.597023
  864 216.284 -22.7019 21.6727
  865 134.671 1.16533 -4.35573
  866 134.688 1.14525 4.33889
  867 0.494309 2.28301 2.70031
  868 0.480105 2.28268 -2.69780
  869 135.413 0.176769 1.20644
  870 135.397 0.178233 -1.20808
  871 -26.6904 0.293036 -0.713129
  872 -26.6726 0.293318 0.713223
  873 -0.126147 -13.5972 3.86656
  874 -0.163649 -13.8099 -3.89763
  875 159.512 -2.62557 18.8576
  876 -10.5153 2.47694 9.41418
  877 -10.5397 2.48288 -9.42082
  878 -0.0587531 -22.4751 -4.29705
  879 62.7137 2.90978 -0.669078
  880 62.7159 2.90499 0.670165
  881 116.526 -5.99845 -18.7798
  882 117.482 -6.64621 18.9719
  883 -5.29013 -1.94917 -12.2035
  884 -5.27073 -1.95148 12.1836
  885 5.46251 5.55092 8.78488
  886 5.43153 5.56530 -8.78449
  887 0.577294 -52.3032 3.18665
  888 0.909084 4.19668 10.9545
  889 0.873241 4.20969 -10.9595
  890 107.434 -1.83732 -16.6513
  891 107.216 -1.94605 16.7869
  892 186.129 9.23006 23.7813
  893 41.6809 5.23826 -0.328314
  894 41.6833 5.24345 0.337240
  895 138.537 1.21122 -3.28295
  896 138.551 1.20232 3.27401
  897 -5.55694 -2.48168 10.6445
  898 -5.56487 -2.48958 -10.6603
  899 0.462038 -54.3907 -2.37169
  900 -8.53610 -0.648757 10.4801
  901 -8.54869 -0.649322 -10.4917
  902 4.15478 5.12721 -6.99022
  903 4.17835 5.11868 6.99326
  904 -0.428612 -3.37941 1.88004
  905 -0.433283 -3.37565 -1.88268
  906 10.6129 5.76999 -6.43495
  907 10.6381 5.75946 6.44121
  908 2.15737 -4.72186 11.6725
  909 1.84736 -4.39932 -12.1960
  910 133.223 -3.55292 10.5734
  911 132.892 -3.35099 -10.6606
  912 -45.6348 0.171676 -0.410874
  913 -45.6130 0.171734 0.411140
  914 -3.75665 -0.347056 1.78693
  915 -3.75287 -0.347556 -1.78612
  916 0.187961 -32.0235 -3.94357
  917 -4.11176 -1.78321 -5.11905
  918 -4.11141 -1.77939 5.12055
  919 -17.8376 1.46174 7.94562
  920 -17.8585 1.46482 -7.95179
  921 40.2385 8.15405 -1.35273
  922 40.2177 8.17108 1.39274
  923 173.442 14.1972 -4.30367
  924 -3.00199 4.04397 8.50011
  925 -3.02753 4.05201 -8.50141
  926 64.2363 3.88191 -17.0853
  927 64.2632 3.93976 17.3116
  928 -8.91175 2.88102 6.87160
  929 -8.93366 2.88572 -6.87226
  930 216.523 -12.9837 -6.80991
  931 123.747 4.96478 10.2145
  932 153.872 -2.29558 -17.0612
  933 116.633 2.05309 -7.08846
  934 116.673 2.00609 7.07823
  935 -13.7467 1.82177 -3.52305
  936 -13.7285 1.82088 3.52457
  937 -28.8092 0.545147 4.03555
  938 -28.8309 0.546182 -4.03714
  939 -1.71467 -5.49198 -5.95010
  940 -1.70392 -5.49857 5.96235
  941 39.9571 3.15443 -0.255167
  942 39.9602 3.15811 0.258090
  943 -13.5598 1.31632 9.75828
  944 -13.5792 1.31822 -9.76816
  945 141.439 0.226514 1.61306
  946 141.422 0.228247 -1.61532
  947 -1.10679 -12.1615 9.10856
  948 3.99306 4.76895 -6.06382
  949 4.01361 4.76324 6.06747
  950 5.78723 3.45237 4.13292
  951 5.77186 3.45370 -4.12898
  952 22.5744 2.64278 -1.29748
  953 22.5823 2.64474 1.29992
  954 266.738 29.3184 -2.28455
  955 -1.01574 -0.287567 -0.694733
  956 -1.01791 -0.287618 0.696034
  957 8.36270 1.95399 -7.80312
  958 8.50724 1.87349 7.78653
  959 93.4384 4.28917 -7.23022
  960 93.4810 4.24598 7.24405
  961 10.6859 4.29532 -4.03922
  962 10.7010 4.29354 4.04459
  963 25.0650 -12.4241 32.6051
  964 179.268 -1.16326 -1.24399
  965 178.908 -1.11754 1.05755
  966 30.2364 -6.64477 27.9513
  967 31.4590 1.88618 0.108171
  968 31.4530 1.88429 -0.107396
  969 84.4783 -4.99259 -49.4073
  970 63.7186 1.66923 0.347240
  971 63.7178 1.67135 -0.347152
  972 7.71674 -9.87865 3.08061
  973 8.53050 -8.50169 -2.43512
  974 159.456 -0.0634636 0.561116
  975 159.433 -0.0631999 -0.561525
  976 -13.1664 0.0143279 7.69798
  977 -13.1759 0.0140004 -7.70529
  978 284.883 35.1582 13.3888
  979 -1.33727 -9.31777 -12.1449
  980 1.20550 -48.6159 3.80793
  981 -0.294766 -14.6934 11.2512
  982 164.610 0.0366218 -2.18549
  983 164.610 0.0302792 2.17171
  984 -2.18221 -3.97765 5.12909
  985 -2.18736 -3.97646 -5.12286
  986 201.278 20.3229 -14.4808
  987 368.415 3.68144 -1.97932
  988 -0.529992 -0.776432 -0.756119
  989 -0.529487 -0.778066 0.757202
  990 94.0390 1.64153 -1.51014
  991 94.0470 1.63759 1.50906
  992 -1.38551 -8.97997 12.2221
  993 131.754 1.03374 6.40813
  994 131.726 1.07916 -6.43137
  995 172.773 -11.8070 -8.58184
  996 -6.09550 -1.30288 5.81135
  997 -6.09606 -1.30717 -5.81298
  998 2.55445 -12.2423 9.25479
  999 -0.319086 -21.9017 8.82226
  1000 -0.0230747 -22.2880 4.28621
  1001 172.597 11.9191 -0.911365
  1002 200.286 21.9343 9.01592
  1003 144.428 -17.3801 -22.5217
  1004 1.91825 -22.0894 7.56438
  1005 2.47354 -32.0854 2.47534
  1006 38.7411 1.47860 0.196262
  1007 38.7365 1.47680 -0.196084
  1008 -1.61497 -1.83806 -2.42484
  1009 -1.61386 -1.83890 2.42708
  1010 1.23907 -18.1315 -9.77222
  1011 117.294 0.601114 -0.364045
  1012 117.306 0.600060 0.363635
  1013 22.3501 -1.61102 -9.51101
  1014 21.3666 -1.55193 9.42188
  1015 -2.88169 3.49215 10.9434
  1016 -2.91523 3.50344 -10.9520
  1017 -14.7638 2.17807 -6.85833
  1018 -14.7418 2.17440 6.85629
  1019 87.7252 1.48093 -16.9574
  1020 87.8039 1.54071 17.1616
  1021 62.6162 5.70765 -11.3646
  1022 62.6280 5.69934 11.4971
  1023 68.4066 5.56549 -3.49469
  1024 68.4203 5.54766 3.50803
  1025 180.048 -5.89339 -22.7293
  1026 -5.36490 2.09938 11.8228
  1027 -5.39565 2.10522 -11.8383
  1028 127.913 0.271376 8.68587
  1029 127.846 0.364226 -8.70420
  1030 -1.04290 -7.16847 12.8582
  1031 -10.4491 -0.371691 5.63592
  1032 -10.4520 -0.373131 -5.64052
  1033 116.303 1.54502 -8.59332
  1034 116.361 1.47943 8.58629
  1035 139.700 3.00838 -16.1987
  1036 -0.226402 -21.8297 -9.26823
  1037 -1.81304 -8.62755 10.8326
  1038 -1.88528 -8.71911 -10.7365
  1039 81.1533 5.31497 -5.75291
  1040 81.1841 5.28388 5.77186
  1041 103.585 2.43669 3.41992
  1042 103.571 2.44836 -3.42359
  1043 172.424 -11.5283 7.54080
  1044 6.78983 1.18838 -0.212189
  1045 6.80121 1.18935 0.212413
  1046 146.208 -19.4696 24.0648
  1047 -2.58112 0.865341 0.947996
  1048 -2.59455 0.864452 -0.947182
  1049 30.2532 8.14015 1.34504
  1050 30.2215 8.16223 -1.31757
  1051 10.8404 6.37848 7.03012
  1052 10.8110 6.39286 -7.02499
  1053 1.51152 -27.3663 -6.34676
  1054 40.9118 2.08076 -0.330542
  1055 40.9151 2.08396 0.332289
  1056 119.435 4.19861 4.17760
  1057 118.162 1.37419 3.25437
  1058 118.148 1.38416 -3.26002
  1059 -0.926987 -7.41199 -12.8761
  1060 178.194 -2.22168 -4.24067
  1061 -0.427668 -0.993732 12.9835
  1062 -0.299384 -0.877988 -12.9345
  1063 163.870 -0.197825 -1.20021
  1064 163.887 -0.199246 1.19638
  1065 174.263 -0.477174 -2.09240
  1066 174.176 -0.502026 2.02236
  1067 -0.134015 -33.8142 3.24503
  1068 100.530 3.12696 -4.56077
  1069 100.547 3.10848 4.55753
  1070 123.246 1.56824 3.84377
  1071 123.231 1.58064 -3.85192
  1072 2.12455 2.59607 11.9151
  1073 2.11492 2.60027 -11.9176
  1074 269.015 18.7781 2.06661
  1075 -3.72381 -1.73832 13.1023
  1076 -3.76868 -1.70546 -13.1289
  1077 36.6766 7.76152 0.624692
  1078 36.6658 7.76625 -0.602695
  1079 -23.0951 0.565580 -1.34077
  1080 -23.0771 0.565925 1.34161
  1081 61.1016 3.03365 -19.7820
  1082 61.0427 3.21402 20.0648
  1083 16.7905 7.18721 5.73112
  1084 16.7576 7.20538 -5.72148
  1085 41.1160 4.11844 -14.0464
  1086 40.9116 4.33659 14.2047
  1087 -1.17748 -11.4089 -8.86619
  1088 147.151 1.61696 20.8242
  1089 104.671 -3.09706 64.7806
  1090 15.7974 7.27231 5.93329
  1091 15.7564 7.29842 -5.92703
  1092 62.4343 3.94164 -0.982338
  1093 62.4390 3.93343 0.985880
  1094 233.122 -2.32807 9.58960
  1095 13.9408 3.09076 4.34075
  1096 13.7629 3.14345 -4.38368
  1097 -6.97042 -1.57002 7.77416
  1098 -6.97363 -1.57634 -7.77985
  1099 -0.229844 -5.05402 2.05958
  1100 -0.238516 -5.05043 -2.06756
  1101 152.794 0.175855 5.23554
  1102 152.771 0.240468 -5.29191
  1103 0.0752901 -11.3584 12.1124
  1104 -10.7819 0.586114 -10.5652
  1105 -10.7651 0.586002 10.5544
  1106 0.0599173 -41.2372 -4.22564
  1107 -2.64766 -3.67643 13.0769
  1108 -2.64223 -3.60643 -13.0888
  1109 146.649 0.446482 -2.20634
  1110 146.664 0.442602 2.20132
  1111 150.353 -0.806299 6.18780
  1112 150.275 -0.703726 -6.24834
  1113 24.8949 5.08307 -3.68547
  1114 24.7076 5.20497 3.74965
  1115 -0.377830 -21.2411 -7.43387
  1116 198.606 -21.7846 -36.8927
  1117 258.191 29.6256 -2.90499
  1118 2.45593 -33.9616 -1.57434
  1119 8.31762 4.91917 -9.11524
  1120 8.36437 4.88789 9.08655
  1121 23.1389 7.85121 3.33691
  1122 23.0915 7.88457 -3.31923
  1123 50.3251 3.59398 0.0358458
  1124 50.3247 3.59976 -0.0322126
  1125 -3.41910 -4.87080 10.0956
  1126 -3.41298 -4.91364 -10.1080
  1127 -10.3159 2.96445 8.73924
  1128 -10.3400 2.97042 -8.74342
  1129 -4.17195 3.67278 10.1586
  1130 -4.20145 3.68227 -10.1647
  1131 142.608 -7.21555 -10.2068
  1132 143.571 -7.30403 10.0854
  1133 0.0938908 -24.7375 -8.87893
  1134 74.6096 -0.784206 -25.2644
  1135 74.7649 -0.540010 25.7434
  1136 22.9727 7.40400 -3.45375
  1137 22.9938 7.39241 3.46857
  1138 77.1457 25.8754 72.6950
  1139 17.6464 6.05295 4.35598
  1140 17.6286 6.05826 -4.34649
  1141 196.093 -23.2361 -7.07390
  1142 72.6562 2.61088 0.875867
  1143 72.6515 2.61655 -0.875386
  1144 -3.37023 -3.01677 6.11286
  1145 -3.37131 -3.02289 -6.10931
  1146 -4.04607 -3.64718 7.94584
  1147 -4.04442 -3.66015 -7.94461
  1148 127.061 -14.1352 -36.2772
  1149 129.869 -15.4690 36.5692
  1150 21.2689 1.30065 0.0996203
  1151 21.2772 1.30219 -0.0988096
  1152 78.8317 3.84491 -13.5382
  1153 78.8591 3.78543 13.6956
  1154 175.754 -25.2032 27.1640
  1155 158.275 -0.240332 0.333055
  1156 158.251 -0.240144 -0.333133
  1157 -14.8388 2.24334 7.77745
  1158 -14.8615 2.24738 -7.78119
  1159 -25.1370 0.836200 -4.15812
  1160 -25.1159 0.835271 4.15813
  1161 38.5330 -3.58279 42.3314
  1162 115.328 8.18138 -8.43629
  1163 72.1015 5.65590 -6.28485
  1164 72.1339 5.62908 6.32641
  1165 230.823 -11.4640 39.3606
  1166 73.2371 5.33056 -9.66655
  1167 73.2795 5.29226 9.73924
  1168 17.0314 2.78197 -1.77842
  1169 17.0411 2.78370 1.78135
  1170 6.09171 -26.7392 2.86586
  1171 6.17006 -26.2094 -4.51596
  1172 99.8145 -8.05156 -36.5507
  1173 101.282 -7.58698 36.5674
  1174 38.1533 5.90025 -9.37267
  1175 38.0004 6.04082 9.50161
  1176 177.969 -12.5940 -15.1671
  1177 -6.80946 -0.689906 11.8909
  1178 -6.82767 -0.688476 -11.9050
  1179 -0.263861 -10.1796 -12.4276
  1180 43.8806 -0.468378 -26.2133
  1181 44.0030 -0.298973 26.7262
  1182 -0.116591 -8.99646 2.30598
  1183 -0.0992655 -9.01737 -2.33339
  1184 -43.8759 0.382280 -1.21028
  1185 -43.8519 0.382143 1.21029
  1186 143.241 0.205042 -0.576161
  1187 143.260 0.204379 0.575243
  1188 86.6619 3.78995 -3.68687
  1189 86.6802 3.77106 3.68965
  1190 -3.59354 -0.272584 13.1757
  1191 -3.60354 -0.222255 -13.1980
  1192 0.0255484 -36.6071 -3.63145
  1193 -37.0504 0.0975222 1.89744
  1194 -37.0726 0.0977560 -1.89851
  1195 26.8948 -2.77441 -17.7833
  1196 26.6821 -2.60161 18.4175
  1197 165.709 -10.2147 0.582284
  1198 45.6840 1.70912 -23.4766
  1199 45.7318 1.87186 23.7599
  1200 -20.3308 0.105208 2.81918
  1201 -20.3381 0.105181 -2.82195
  1202 0.502582 -32.8142 -6.45186
  1203 -7.63017 1.50415 -1.79477
  1204 -7.61513 1.50470 1.79622
  1205 23.5367 6.38235 3.45413
  1206 23.5204 6.38714 -3.44187
  1207 92.7018 1.06094 -0.521827
  1208 92.7086 1.05912 0.521640
  1209 126.152 1.02633 2.48143
  1210 126.139 1.03253 -2.48607
  1211 6.33427 -1.71954 7.99494
  1212 6.23969 -1.82942 -8.10735
  1213 1.03554 -19.0957 9.70725
  1214 225.291 29.2601 12.2143
  1215 -6.97511 -0.563124 4.40269
  1216 -6.97446 -0.565257 -4.40414
  1217 0.806083 -17.8716 -10.0752
  1218 -0.685048 -10.6386 6.46355
  1219 -0.647764 -10.5534 -6.70007
  1220 179.166 -1.91090 3.78193
  1221 0.167062 -42.0056 3.73709
  1222 1.11646 -13.2623 -11.2245
  1223 19.5604 1.08921 0.283206
  1224 19.5517 1.08788 -0.283024
  1225 -1.88322 -7.82901 11.9791
  1226 -20.9822 1.23262 -3.60532
  1227 -20.9625 1.23192 3.60619
  1228 375.150 6.80059 10.2311
  1229 -10.7729 1.13110 10.7441
  1230 -10.7929 1.13237 -10.7556
  1231 84.4575 3.70423 -12.2593
  1232 84.5484 3.62752 12.3413
  1233 5.17427 -9.65019 -5.66431
  1234 80.5853 4.73179 -4.66152
  1235 80.6092 4.70656 4.67362
  1236 3.15968 -27.0956 -2.45506
  1237 -1.88666 -7.83840 -11.9503
  1238 -15.3576 0.750766 2.24715
  1239 -15.3746 0.750372 -2.24585
  1240 -6.61324 0.311497 -12.2326
  1241 -6.59139 0.311233 12.2197
  1242 171.407 13.4789 17.1548
  1243 98.1395 1.44766 -13.1923
  1244 98.2708 1.40086 13.2259
  1245 -46.2789 0.137491 -0.486461
  1246 -46.2560 0.137503 0.486783
  1247 88.8416 2.75281 -2.53022
  1248 88.8511 2.74435 2.52932
  1249 -47.8214 -0.760818 -0.118196
  1250 -47.8428 -0.760962 0.118253
  1251 132.824 -9.58019 -15.0806
  1252 -21.5109 0.349972 6.04777
  1253 -21.5267 0.350555 -6.05345
  1254 134.238 -10.1116 14.9406
  1255 90.1893 3.89609 -5.27723
  1256 90.2129 3.86931 5.28118
  1257 10.2133 -30.9700 -17.7149
  1258 0.186668 -29.8558 -7.64411
  1259 -0.691470 -12.6253 11.2478
  1260 291.900 41.3817 -35.8366
  1261 -0.0781817 -27.8403 7.37816
  1262 302.273 28.3425 -16.0608
  1263 -0.130715 -51.4458 -3.58817
  1264 12.6830 1.81234 -0.779803
  1265 12.6932 1.81376 0.781402
  1266 -0.132109 -11.5664 2.41861
  1267 -0.107791 -11.6262 -2.41055
  1268 49.4155 1.81594 -0.153143
  1269 49.4175 1.81832 0.153567
  1270 180.208 -14.4131 14.5102
  1271 1.97431 1.65083 -2.08289
  1272 1.98732 1.65167 2.08467
  1273 1.04798 -57.6942 2.11639
  1274 0.666248 -61.2354 -2.07639
  1275 165.741 -21.6329 -15.7613
  1276 -0.476529 -15.2592 7.17822
  1277 170.581 10.2880 -21.1327
  1278 -0.520502 -20.1127 7.07402
  1279 0.335802 -55.7406 -2.90517
  1280 82.6230 2.97020 -2.65206
  1281 82.6344 2.95682 2.65341
  1282 -0.0550954 -29.7809 3.19608
  1283 -0.0839738 -24.9410 -7.24240
  1284 405.000 65.8811 58.0340
  1285 159.058 0.212774 0.264125
  1286 159.033 0.212736 -0.264082
  1287 3.65027 -0.223567 10.9727
  1288 3.52753 -0.0544737 -11.0127
  1289 -2.96364 2.08559 12.5265
  1290 -3.01398 2.09293 -12.5452
  1291 166.191 -3.25607 -12.1599
  1292 155.055 -6.36391 -5.58104
  1293 154.863 -7.27933 5.59593
  1294 21.5784 3.11666 1.87291
  1295 21.5696 3.11455 -1.86887
  1296 -26.2606 0.716766 -4.84567
  1297 -26.2394 0.715422 4.84305
  1298 173.083 -25.3840 -22.8383
  1299 -1.30602 -3.13150 3.17833
  1300 -1.31070 -3.12845 -3.17644
  1301 181.932 -8.60763 21.4229
  1302 -1.97261 -7.34234 8.70492
  1303 -1.95149 -7.36812 -8.66435
  1304 -17.7241 1.24806 2.65693
  1305 -17.7422 1.24814 -2.65559
  1306 26.3617 1.99376 -8.51549
  1307 26.0901 2.15724 8.52477
  1308 41.7315 1.72534 0.392543
  1309 41.7277 1.72293 -0.391886
  1310 -18.3888 1.80012 7.60770
  1311 -18.4103 1.80320 -7.61231
  1312 148.866 0.597383 0.410976
  1313 148.845 0.597347 -0.410953
  1314 79.7506 -2.64694 48.9902
  1315 120.679 0.708881 0.870803
  1316 120.666 0.710118 -0.871572
  1317 78.3347 1.55882 -19.1348
  1318 78.3742 1.45868 19.3296
  1319 0.726749 -33.4886 -4.99549
  1320 29.6380 6.99850 -2.84123
  1321 29.5177 7.08869 2.90816
  1322 -0.284099 -0.273662 -0.383635
  1323 -0.285502 -0.273800 0.384740
  1324 102.203 3.66190 7.02414
  1325 102.166 3.70623 -7.02289
  1326 49.7148 4.68514 0.458464
  1327 49.7137 4.69220 -0.451352
  1328 74.1630 4.77824 -2.98929
  1329 74.1775 4.76141 2.99689
  1330 98.3418 1.13198 -0.867223
  1331 98.3499 1.13013 0.866761
  1332 -3.15416 -1.54134 -3.59417
  1333 -3.15422 -1.53998 3.59658
  1334 -31.5331 0.133539 1.58201
  1335 -31.5534 0.133479 -1.58121
  1336 -5.45955 -2.54508 -8.90851
  1337 -5.45729 -2.53358 8.90153
  1338 -18.8724 0.480120 0.687303
  1339 -18.8889 0.479649 -0.686885
  1340 -48.2305 0.466245 0.281741
  1341 -48.2524 0.466260 -0.281567
  1342 186.842 -25.6712 31.6758
  1343 130.225 -1.01560 -16.7785
</Section>

newXOutput 23

<Section columns = "stress_xx | stress_yy | stress_xy">
  1 171.674 -0.160772 0.159808
  2 171.702 -0.160862 -0.159888
  3 -54.4850 0.292187 -0.731587
  4 0.0883109 0.0255388 0.154769
  5 317.510 78.9786 97.9348
  6 358.614 90.3232 -93.4465
  7 0.0880026 0.0252443 -0.154361
  8 -54.4608 0.292182 0.731503
  9 171.128 -0.146253 -0.561577
  10 171.242 -0.441057 -0.925685
  11 172.873 -0.426896 -0.231345
  12 173.003 -0.385154 -1.05904
  13 173.341 -0.367122 -0.296137
  14 177.021 -0.372549 -0.424120
  15 178.229 -0.580923 -1.41700
  16 179.464 -0.229232 -0.950923
  17 180.172 0.222419 -1.83844
  18 187.611 -0.915871 -1.57759
  19 190.682 -0.669925 -2.05522
  20 193.986 -1.08641 -0.702054
  21 195.416 -1.50140 -0.330695
  22 193.398 -1.78684 2.84075
  23 185.906 -2.05483 5.81608
  24 168.841 -2.43857 12.1956
  25 141.896 1.16629 14.1084
  26 119.250 1.32487 13.2936
  27 88.2412 3.25466 8.07425
  28 94.3287 3.17509 0.562813
  29 77.0163 9.65038 -5.22897
  30 112.274 4.31919 -14.2284
  31 132.227 0.926385 -11.7045
  32 165.063 -0.604633 -10.1227
  33 183.357 -2.49294 -6.92508
  34 192.957 -2.08831 -2.83979
  35 194.917 -1.44786 0.332397
  36 193.631 -1.07019 0.640656
  37 190.510 -0.675682 1.98323
  38 187.526 -0.930155 1.53456
  39 180.153 0.213876 1.81614
  40 179.469 -0.232470 0.941901
  41 178.248 -0.582823 1.41311
  42 177.045 -0.373517 0.422135
  43 173.366 -0.367638 0.295107
  44 173.030 -0.385626 1.05889
  45 172.901 -0.427208 0.231184
  46 171.270 -0.441271 0.925930
  47 171.156 -0.146331 0.561728
  48 161.455 0.618381 -0.200619
  49 149.035 0.478500 -0.469244
  50 133.595 -0.0281457 -0.504095
  51 117.672 0.969560 -0.419328
  52 103.815 0.911611 -0.338403
  53 89.0606 1.40207 -0.404361
  54 74.5725 2.14086 -0.266163
  55 59.6063 1.96225 -0.515826
  56 47.2444 1.49866 -0.706681
  57 31.0889 1.08705 -0.744126
  58 14.7346 1.33599 -0.562636
  59 1.11807 1.09108 -0.543229
  60 -15.8197 0.686027 -0.504448
  61 -28.4084 0.0102249 -1.17034
  62 -40.5873 -0.749378 -0.542036
  63 -52.8996 0.140149 0.337695
  64 -55.5114 0.959113 -0.166881
  65 -55.6410 0.439228 0.121210
  66 -53.7649 0.238329 -0.108568
  67 -54.1913 0.626611 -0.704822
  68 -53.2545 0.752668 -0.130043
  69 -50.3008 0.247054 -1.06558
  70 -50.6912 0.461463 -1.13647
  71 -49.3177 0.441359 -0.669453
  72 -45.5936 0.286638 -0.980316
  73 -43.7322 0.489163 -1.57272
  74 -40.9963 0.539366 -1.31153
  75 -36.1925 0.278182 -2.19951
  76 -33.4735 0.0850496 -1.84081
  77 -28.6555 0.122550 -2.10586
  78 -24.4836 0.0828406 -2.31018
  79 -20.8842 0.0244129 -1.82248
  80 -15.9333 0.102617 -1.83153
  81 -11.6806 -0.0537687 -1.95053
  82 -7.56997 -0.218260 -1.69922
  83 -4.32577 -0.190136 -1.29387
  84 -2.10766 -0.326889 -1.07497
  85 -0.323110 -0.188461 -0.375728
  86 0.0449973 -0.205294 -0.128410
  87 -0.111826 -0.0929278 -0.0156017
  88 -0.294435 -0.247397 -0.327900
  89 -0.285197 -1.77773 -0.931209
  90 -0.246870 -4.02176 -1.33959
  91 -0.130418 -6.92108 -1.96120
  92 -0.0703621 -10.6554 -1.69349
  93 -0.0666836 -14.1175 -2.13373
  94 -0.266311 -18.3814 -2.41925
  95 -0.108277 -23.6199 -2.45581
  96 0.0513258 -28.9000 -2.35959
  97 0.116051 -34.5736 -2.33430
  98 0.173909 -40.4265 -2.30660
  99 0.0256464 -44.8204 -3.13179
  100 0.315117 -50.9779 -2.81111
  101 0.376659 -58.2195 -2.28995
  102 0.0169012 -61.6394 -3.04803
  103 0.534941 -67.1576 -2.86105
  104 1.27150 -74.5401 -1.56869
  105 2.46269 -77.0036 -2.48287
  106 1.62693 -72.0508 1.01263
  107 2.16890 -57.0393 5.83211
  108 13.0587 -38.3220 19.0652
  109 42.3853 44.0390 71.2563
  110 492.282 25.1060 47.4083
  111 421.337 7.98893 17.4846
  112 407.774 3.19925 3.84850
  113 405.018 1.35552 -0.654589
  114 407.603 4.75981 -9.24675
  115 419.604 14.2536 -20.4615
  116 477.778 49.1867 -59.9513
  117 99.9850 33.6113 -87.3421
  118 21.3648 -37.6844 -23.8740
  119 6.21705 -62.3311 -8.42941
  120 1.68530 -68.4613 -1.16509
  121 1.96494 -74.2610 1.57197
  122 0.577318 -71.7253 1.27062
  123 0.229359 -65.4944 2.48902
  124 0.235503 -61.4370 1.98667
  125 0.321312 -55.1180 3.20843
  126 -0.0154760 -51.3999 3.07867
  127 0.127684 -46.3504 2.22627
  128 0.239220 -39.9293 2.79148
  129 0.0420479 -35.3607 2.21561
  130 0.0722282 -28.9533 2.79504
  131 -0.288938 -23.9000 2.39674
  132 -0.207592 -18.3991 2.34590
  133 -0.0493665 -14.0430 2.14007
  134 -0.0898889 -10.5955 1.69782
  135 -0.127899 -6.90103 1.94266
  136 -0.243496 -4.01880 1.33303
  137 -0.283729 -1.78030 0.930527
  138 -0.294116 -0.249987 0.328498
  139 -0.111823 -0.0940730 0.0163541
  140 0.0436312 -0.205509 0.129125
  141 -0.325777 -0.188410 0.376693
  142 -2.11202 -0.326676 1.07608
  143 -4.33191 -0.189628 1.29437
  144 -7.57556 -0.217631 1.69883
  145 -11.6836 -0.0532498 1.94903
  146 -15.9332 0.102716 1.82972
  147 -20.8796 0.0245993 1.82062
  148 -24.4751 0.0830179 2.30815
  149 -28.6420 0.122461 2.10383
  150 -33.4558 0.0849187 1.83903
  151 -36.1720 0.277968 2.19793
  152 -40.9727 0.539078 1.31045
  153 -43.7071 0.488873 1.57199
  154 -45.5674 0.286466 0.980025
  155 -49.2908 0.441197 0.669401
  156 -50.6643 0.461316 1.13645
  157 -50.2745 0.246988 1.06567
  158 -53.2284 0.752540 0.130333
  159 -54.1656 0.626534 0.704962
  160 -53.7399 0.238324 0.108759
  161 -55.6160 0.439194 -0.121038
  162 -55.4867 0.958998 0.166980
  163 -52.8756 0.140154 -0.337568
  164 -40.5655 -0.749118 0.542027
  165 -28.3888 0.0105577 1.17024
  166 -15.8026 0.686525 0.504508
  167 1.13174 1.09186 0.543259
  168 14.7453 1.33714 0.562656
  169 31.0960 1.08866 0.744127
  170 47.2479 1.50050 0.706633
  171 59.6071 1.96422 0.515778
  172 74.5700 2.14280 0.266053
  173 89.0549 1.40390 0.404152
  174 103.806 0.913188 0.338142
  175 117.660 0.970605 0.418970
  176 133.578 -0.0273761 0.503685
  177 149.014 0.478650 0.468964
  178 161.430 0.618280 0.200495
  179 43.0019 8.07774 -0.653505
  180 42.9879 8.08436 0.686210
  181 -1.34942 1.00863 13.3495
  182 -1.39331 1.00727 -13.3489
  183 99.9959 -1.50147 -21.2854
  184 99.9610 -1.70970 21.5337
  185 19.1949 3.85833 0.561569
  186 18.9660 3.95370 -0.541242
  187 13.1030 2.94462 -2.53090
  188 13.1153 2.94559 2.53434
  189 95.3283 2.46719 -2.90220
  190 95.3409 2.45586 2.90146
  191 -2.89138 3.99449 7.61090
  192 -2.91579 4.00107 -7.61063
  193 110.870 3.41616 -7.91299
  194 110.922 3.36254 7.91634
  195 -4.45495 -3.90963 10.1893
  196 -4.45201 -3.93056 -10.1992
  197 0.790130 -9.69068 -12.6112
  198 33.3745 0.228890 -18.7180
  199 1.01394 -10.3380 12.3445
  200 32.8324 0.524273 19.0752
  201 157.724 -22.5670 -31.1696
  202 163.511 -23.4703 29.7864
  203 55.4463 2.50270 -0.157844
  204 55.4457 2.49883 0.159183
  205 -10.8778 0.901272 -1.61142
  206 -10.8611 0.901906 1.61239
  207 -13.2664 1.90146 10.1676
  208 -13.2900 1.90575 -10.1772
  209 55.6798 5.79667 -0.862961
  210 55.6833 5.78866 0.873000
  211 16.3274 7.07857 5.92839
  212 16.2680 7.12276 -5.93149
  213 -17.5268 1.88183 -4.46843
  214 -17.5056 1.88047 4.46916
  215 128.094 0.685843 1.46037
  216 128.080 0.688518 -1.46231
  217 3.80969 -18.3938 6.11032
  218 4.14791 -16.7968 -5.57429
  219 -1.27549 -10.9826 11.5748
  220 -1.29550 -11.3772 -11.1984
  221 51.2391 7.60811 -7.64238
  222 51.2065 7.63958 7.74804
  223 -11.6868 -0.111225 10.0311
  224 -11.7003 -0.111810 -10.0414
  225 137.061 1.26636 -4.48142
  226 137.078 1.25075 4.46938
  227 147.004 -1.75200 -8.71507
  228 147.108 -1.91430 8.65422
  229 233.202 18.6290 -0.468023
  230 213.975 23.1636 16.2453
  231 212.633 -3.62297 -22.4457
  232 24.4856 6.13152 3.37102
  233 24.4715 6.13449 -3.36045
  234 0.896169 4.71101 10.5449
  235 0.861255 4.72521 -10.5491
  236 164.135 -9.96553 -5.11969
  237 163.151 -10.0987 5.62803
  238 90.1121 1.42469 -0.998384
  239 90.1188 1.42114 0.997818
  240 -21.1080 1.47182 6.87523
  241 -21.1310 1.47464 -6.87878
  242 -2.80198 -2.76198 -4.52134
  243 -2.80014 -2.76104 4.52500
  244 -24.0216 0.710074 2.34764
  245 -24.0420 0.709952 -2.34656
  246 73.3652 6.11720 -4.83318
  247 73.3854 6.09442 4.85563
  248 93.7584 3.25247 -11.9021
  249 93.8468 3.18744 11.9576
  250 21.2334 1.91576 -0.415645
  251 21.2427 1.91738 0.416843
  252 53.3942 -2.41236 -42.5590
  253 63.5297 -0.622793 46.7594
  254 6.68427 2.93041 10.2810
  255 6.65464 3.00518 -10.3110
  256 224.983 -19.9446 -1.32123
  257 18.0972 7.45394 5.12606
  258 18.0694 7.46823 -5.11484
  259 52.2170 5.26883 -15.2219
  260 52.1325 5.41565 15.4266
  261 250.129 33.5543 -6.13285
  262 148.648 0.503430 6.06846
  263 148.620 0.556243 -6.10439
  264 -1.37184 -8.36555 -7.14762
  265 -1.33646 -8.40104 7.17743
  266 -0.329623 -20.0786 -9.99554
  267 0.577013 -23.8463 -9.51010
  268 0.287289 -23.6870 9.83943
  269 -3.93620 -3.45118 13.2733
  270 -3.94978 -3.44224 -13.3175
  271 7.48735 -20.4594 -1.83830
  272 8.03686 -19.0483 3.08200
  273 -8.62688 -0.749101 6.28635
  274 -8.62932 -0.752063 -6.29063
  275 104.717 3.52824 -4.81947
  276 104.741 3.50395 4.81712
  277 184.614 -19.8481 0.431013
  278 39.2309 3.98153 -0.692434
  279 39.2350 3.98522 0.696742
  280 -0.522444 -18.8158 9.53804
  281 2.50042 4.00891 5.13912
  282 2.48141 4.01211 -5.13558
  283 296.030 21.2580 -6.54706
  284 144.671 0.457161 1.82332
  285 144.654 0.460714 -1.82733
  286 94.8155 -5.32522 -32.3503
  287 95.7248 -5.24104 32.9083
  288 184.348 -18.7782 -3.50989
  289 -17.8622 0.523590 7.97163
  290 -17.8780 0.524199 -7.97956
  291 181.209 -17.7587 53.6985
  292 -8.23591 1.17524 12.1766
  293 -8.25949 1.17564 -12.1908
  294 29.1970 8.08801 -0.859128
  295 29.0906 8.16767 0.908557
  296 -33.8262 0.371857 0.449200
  297 -33.8470 0.371704 -0.448886
  298 152.193 -0.923121 -73.8733
  299 -31.0216 0.662523 -3.77351
  300 -30.9979 0.661553 3.77274
  301 -1.14230 -4.18760 13.7340
  302 -0.715284 -4.11320 -13.6316
  303 65.4019 7.13000 -7.10297
  304 65.4193 7.11604 7.16273
  305 12.8910 2.11241 1.89259
  306 12.8795 2.11103 -1.89060
  307 68.4449 3.29498 -1.23250
  308 68.4491 3.28804 1.23438
  309 6.07387 -5.94391 7.95860
  310 5.53226 -6.94889 -8.01053
  311 66.4281 1.80646 -0.235429
  312 66.4291 1.80378 0.235591
  313 -25.1592 0.651671 5.89977
  314 -25.1789 0.652785 -5.90488
  315 16.0466 -2.93349 -2.53169
  316 15.5463 -2.94387 2.10773
  317 151.310 0.162043 0.504885
  318 151.288 0.162466 -0.505291
  319 333.018 19.4130 11.9816
  320 32.3370 4.96191 1.68768
  321 32.3298 4.95961 -1.68012
  322 -8.71456 1.86343 3.27562
  323 -8.73255 1.86376 -3.27364
  324 45.1449 6.74655 -0.203657
  325 45.1413 6.74256 0.222297
  326 4.66224 4.60597 11.0191
  327 4.63325 4.61938 -11.0328
  328 0.663261 -34.1873 7.07903
  329 -34.8345 0.172347 -0.979194
  330 -34.8130 0.172528 0.979735
  331 114.425 0.854158 -0.945109
  332 114.436 0.852296 0.944283
  333 120.552 1.34003 -2.50847
  334 120.565 1.33268 2.50444
  335 -32.2101 0.623920 -2.80408
  336 -32.1872 0.623601 2.80455
  337 -2.39464 0.877355 0.445546
  338 -2.40909 0.876577 -0.445036
  339 -0.714577 -13.7658 7.15896
  340 -0.570964 -14.3152 -7.14932
  341 134.727 -11.6012 -21.6156
  342 140.147 -13.8544 21.1775
  343 79.4629 4.53000 -2.93163
  344 79.4752 4.51530 2.93603
  345 34.0691 8.36230 0.0722654
  346 34.0216 8.39491 -0.0332362
  347 -13.6174 2.51094 6.26331
  348 -13.6399 2.51437 -6.26386
  349 255.327 0.939869 2.65240
  350 12.6806 -22.8343 -12.9914
  351 13.5692 -21.6399 13.7199
  352 -6.23067 3.87584 9.83926
  353 -6.25880 3.88422 -9.84420
  354 -7.21459 -1.54383 11.6981
  355 -7.22869 -1.54543 -11.7140
  356 288.599 46.0519 -9.75273
  357 182.199 -3.58570 26.0544
  358 172.242 -3.82218 -3.67534
  359 172.026 -3.73532 3.35730
  360 119.288 -1.12279 -13.6928
  361 119.163 -1.26213 13.6885
  362 0.220398 -41.1578 -5.79723
  363 158.263 0.674741 -3.44000
  364 158.271 0.659301 3.42061
  365 1.96628 -39.1281 4.86192
  366 178.043 13.8180 -14.9630
  367 42.9420 2.04594 0.693043
  368 42.9377 2.04396 -0.692727
  369 120.219 1.33595 -10.1814
  370 120.303 1.25719 10.1833
  371 130.356 1.56100 -6.24533
  372 130.383 1.52605 6.22859
  373 -4.07121 1.71022 2.29251
  374 -4.08713 1.70970 -2.29065
  375 73.1736 4.07303 -15.9380
  376 73.2179 4.11053 16.1110
  377 156.046 0.174468 0.832365
  378 156.024 0.175298 -0.833578
  379 86.2913 5.28046 -7.87760
  380 86.3336 5.23884 7.90945
  381 100.618 2.14919 1.97181
  382 100.608 2.15504 -1.97341
  383 -4.84106 -0.890107 3.84672
  384 -4.83978 -0.892109 -3.84605
  385 -1.14016 -0.813196 -1.09930
  386 -1.14079 -0.813755 1.10105
  387 207.144 -27.7905 12.3416
  388 -2.78842 -6.65634 10.6308
  389 -2.77065 -6.70849 -10.6280
  390 31.9644 2.64837 -1.09677
  391 31.9708 2.65109 1.09920
  392 -1.03726 -5.13318 3.85846
  393 -1.04850 -5.12369 -3.85833
  394 11.5797 5.99627 5.72663
  395 11.5575 6.00416 -5.71992
  396 169.525 -0.431776 4.49573
  397 169.516 -0.362219 -4.59704
  398 -0.554848 -10.4555 13.0018
  399 -13.9773 -0.275867 5.98693
  400 -13.9835 -0.276780 -5.99266
  401 -0.607867 -11.0153 -12.8520
  402 159.543 0.298522 2.18522
  403 159.527 0.303237 -2.19259
  404 -2.14929 3.32364 12.2442
  405 -2.19236 3.33672 -12.2563
  406 116.663 2.27648 -4.05763
  407 116.680 2.26152 4.05129
  408 179.740 -7.76269 -4.95708
  409 180.518 -6.20274 3.83301
  410 -0.391834 -18.7985 -7.87355
  411 15.1795 5.46897 -4.68362
  412 15.3043 5.39787 4.67918
  413 174.318 11.6662 9.47459
  414 100.256 -6.86245 -45.1764
  415 103.094 -8.78766 47.4260
  416 4.94829 5.60235 8.31588
  417 4.91919 5.61420 -8.31411
  418 73.8411 2.63731 -0.841759
  419 73.8448 2.63272 0.842043
  420 71.5034 6.74064 72.2647
  421 28.7029 7.29959 -2.80019
  422 28.7214 7.29179 2.81695
  423 1.68384 -18.6862 9.18609
  424 -0.230459 -30.6527 -6.91278
  425 10.8619 6.75330 7.94837
  426 10.8254 6.77264 -7.94675
  427 13.2499 4.24026 -3.63017
  428 13.2642 4.23940 3.63533
  429 -5.42758 -0.451031 -13.3244
  430 -5.40403 -0.458657 13.3079
  431 34.6829 6.65350 -5.36707
  432 34.5419 6.76424 5.45824
  433 179.475 -6.15403 -19.5266
  434 4.59884 -2.44668 10.8847
  435 4.43661 -2.38570 -10.9361
  436 130.523 -5.50527 -15.1435
  437 131.106 -5.93065 15.1009
  438 -33.5674 0.292717 -3.60449
  439 -33.5443 0.291923 3.60249
  440 0.00581635 -30.0053 6.19244
  441 -0.224369 -19.0119 7.00120
  442 -13.7561 0.817908 10.2199
  443 -13.7738 0.818433 -10.2304
  444 93.5398 1.37481 -0.329566
  445 93.5467 1.37255 0.329102
  446 -2.87414 -4.53381 7.16580
  447 -2.87771 -4.54272 -7.15641
  448 57.0575 2.17878 -23.3913
  449 56.9668 2.46164 23.7094
  450 0.480368 -36.7540 -7.01036
  451 332.629 12.6697 0.423067
  452 0.873732 -44.1262 -4.46391
  453 -40.2646 0.0727768 -1.39060
  454 -40.2413 0.0728754 1.39109
  455 -15.6850 2.11534 8.54664
  456 -15.7091 2.11978 -8.55240
  457 -17.6116 0.240703 6.03811
  458 -17.6216 0.240855 -6.04397
  459 62.7357 6.97524 -4.55814
  460 62.7481 6.96478 4.59530
  461 96.1304 4.39883 -6.10808
  462 96.1641 4.36372 6.11648
  463 -1.83917 -6.40712 13.4038
  464 -1.84060 -6.36358 -13.4569
  465 165.537 2.14132 -24.6856
  466 10.8473 -4.04337 -3.21044
  467 10.4719 -4.13426 3.40309
  468 2.52613 -40.6228 0.508441
  469 1.58381 -46.7881 -1.62175
  470 -5.20897 -2.35808 7.38509
  471 -5.20957 -2.36572 -7.38644
  472 34.5758 -7.70827 -36.3738
  473 261.603 -4.55181 -21.9139
  474 57.0780 4.29524 0.978244
  475 57.0756 4.30274 -0.972745
  476 83.3500 0.578963 -22.7606
  477 83.5788 0.548881 23.1467
  478 23.6434 8.68308 3.79172
  479 23.6060 8.70893 -3.77490
  480 75.1804 5.88977 -11.5246
  481 75.2325 5.84971 11.6272
  482 2.26924 1.13656 12.5774
  483 2.43700 1.22116 -12.5599
  484 -35.5247 0.565551 -2.73720
  485 -35.5007 0.565184 2.73714
  486 168.760 -20.3078 -11.5755
  487 134.962 0.451894 -0.709200
  488 134.979 0.451134 0.708789
  489 5.48547 1.26050 -1.06428
  490 5.49839 1.26163 1.06542
  491 -9.62260 3.19340 8.12105
  492 -9.64756 3.19917 -8.12350
  493 -20.9083 1.32877 -3.10537
  494 -20.8878 1.32831 3.10654
  495 57.0342 6.16919 -1.65352
  496 57.0392 6.15924 1.66839
  497 -7.70501 2.63194 11.1948
  498 -7.73393 2.63926 -11.2055
  499 154.700 -4.10359 -7.98260
  500 154.947 -4.33832 7.82519
  501 100.096 1.27915 -15.0532
  502 99.9614 1.18996 15.1933
  503 36.2023 2.22691 -0.660482
  504 36.2080 2.22929 0.661576
  505 0.311920 -19.0385 -11.0917
  506 180.706 -6.91137 16.0948
  507 2.24517 -12.9907 -10.3823
  508 50.0263 8.34006 4.43793
  509 50.0448 8.32372 -4.37350
  510 166.896 -19.0060 11.3827
  511 12.0658 -21.4019 18.4428
  512 199.741 -27.8402 -23.6236
  513 135.473 0.976869 7.49551
  514 135.425 1.04127 -7.51837
  515 0.271114 -16.3536 11.5415
  516 -2.64332 -0.796696 -2.04137
  517 -2.64487 -0.796518 2.04315
  518 14.9074 1.25281 -0.359184
  519 14.9181 1.25408 0.359650
  520 -0.467093 -10.5617 4.57443
  521 -0.423802 -10.5107 -4.59654
  522 111.540 1.63992 1.61286
  523 111.529 1.64320 -1.61440
  524 318.670 53.5557 20.0048
  525 12.3754 -9.62463 -2.54322
  526 9.58921 -12.4041 0.552902
  527 -4.54033 2.59166 -4.28436
  528 -4.52178 2.59020 4.28663
  529 -27.5568 0.439701 3.65395
  530 -27.5731 0.440179 -3.65729
  531 0.265008 -34.3649 6.92460
  532 -39.8469 0.410823 0.438474
  533 -39.8690 0.410755 -0.438096
  534 33.2741 -4.84010 -26.3855
  535 32.5046 -4.19229 27.5006
  536 30.3655 4.74663 -8.15615
  537 30.1363 4.89862 8.23961
  538 -7.46953 -1.62337 10.1855
  539 -7.47791 -1.62889 -10.1972
  540 29.5632 3.22582 1.20748
  541 29.5560 3.22324 -1.20398
  542 -17.6475 0.925521 1.43940
  543 -17.6659 0.925188 -1.43826
  544 35.2215 5.74173 1.53857
  545 35.2141 5.74019 -1.52702
  546 -0.740161 -2.37447 1.74122
  547 -0.742571 -2.37204 -1.74077
  548 12.4515 5.35230 7.37951
  549 12.3699 5.43491 -7.39796
  550 10.0690 1.02246 6.68118
  551 9.92166 1.00803 -6.75585
  552 137.803 1.35639 3.17769
  553 137.787 1.36378 -3.18409
  554 121.263 2.10487 4.98559
  555 121.241 2.12728 -4.99495
  556 -0.125734 -28.6912 -4.27290
  557 83.9452 4.81736 -4.52754
  558 83.9651 4.79573 4.53612
  559 84.3636 2.54473 -1.57190
  560 84.3714 2.53764 1.57198
  561 -13.2927 0.632924 -0.0678433
  562 -13.2760 0.633442 0.0681576
  563 139.258 8.02000 -4.74567
  564 191.124 -25.4695 -7.47323
  565 152.637 6.77439 18.8981
  566 1.16711 -25.3656 -8.39247
  567 -9.58660 2.82360 -5.49964
  568 -9.56553 2.82099 5.50080
  569 1.17889 -14.8760 11.0793
  570 -8.76300 0.139535 11.7940
  571 -8.78143 0.139672 -11.8066
  572 242.750 23.4810 -2.20198
  573 54.1520 3.10072 -0.281798
  574 54.1517 3.09602 0.284041
  575 377.016 31.3556 -31.2045
  576 -2.15387 -1.71031 13.9138
  577 -2.03771 -1.61443 -13.9280
  578 202.076 -19.2819 10.4412
  579 163.533 0.392746 -3.85086
  580 163.534 0.368320 3.81887
  581 73.0017 -1.16599 -33.3556
  582 73.9329 -1.37136 33.9459
  583 -4.31570 -4.16683 11.8200
  584 -4.31827 -4.18616 -11.8465
  585 37.8023 2.31466 16.8354
  586 38.1198 2.00645 -16.6589
  587 -32.4331 0.384684 -3.48268
  588 -32.4113 0.384106 3.48022
  589 238.451 17.8487 17.8150
  590 43.9007 4.63267 -0.405965
  591 43.9032 4.63733 0.412095
  592 51.9978 6.39754 -11.3018
  593 51.9417 6.47673 11.4562
  594 147.007 0.0751305 -7.39521
  595 147.066 -0.00924131 7.35743
  596 -0.712092 -15.2254 -10.6752
  597 161.366 -0.0271866 1.13989
  598 161.344 -0.0260808 -1.14161
  599 -24.8321 0.610952 -0.607786
  600 -24.8128 0.611241 0.608447
  601 -42.6879 -0.224543 0.0364508
  602 -42.7101 -0.224679 -0.0363157
  603 3.20844 -23.8693 -4.59665
  604 -1.54572 -9.80732 9.05493
  605 -1.63014 -9.28851 -9.11575
  606 -18.6272 1.11421 8.55603
  607 -18.6466 1.11622 -8.56394
  608 111.159 3.25622 6.22905
  609 111.129 3.29086 -6.23360
  610 81.3769 1.61378 0.385258
  611 81.3729 1.61594 -0.385365
  612 17.7162 -6.95093 10.0395
  613 18.3216 -6.56489 -9.92321
  614 -0.583810 -7.35179 3.85313
  615 -0.600819 -7.32707 -3.86533
  616 193.286 7.66611 78.3987
  617 -9.48306 -0.304284 3.58480
  618 -9.48194 -0.305515 -3.58696
  619 3.14757 -14.5957 -8.61136
  620 79.4480 3.75274 -2.19941
  621 79.4568 3.74250 2.20127
  622 38.0595 8.26079 -2.85275
  623 37.9954 8.30881 2.91837
  624 0.395190 -52.5155 3.12487
  625 28.2456 8.29164 2.63103
  626 28.2204 8.30690 -2.61098
  627 -4.32915 3.49141 6.59284
  628 -4.35130 3.49578 -6.59168
  629 -0.230279 -25.3874 5.84358
  630 -42.1795 0.0918839 -1.37250
  631 -42.1552 0.0918642 1.37288
  632 51.5938 1.91470 -0.0762266
  633 51.5958 1.91770 0.0770760
  634 134.302 0.792343 2.06942
  635 134.287 0.796168 -2.07255
  636 117.192 -10.2090 59.8498
  637 94.1427 2.92073 -3.59963
  638 94.1580 2.90517 3.59994
  639 1.15283 -2.45571 13.0762
  640 1.47578 -1.59291 -13.0799
  641 151.379 -17.1503 -48.1810
  642 366.191 12.9160 -13.0067
  643 -38.3914 0.0552556 -2.44025
  644 -38.3668 0.0548904 2.43933
  645 7.49685 2.29414 -2.20875
  646 7.51001 2.29499 2.21116
  647 -0.741745 -16.0392 9.38349
  648 204.375 10.9005 -24.0905
  649 159.653 -0.111904 0.183737
  650 159.628 -0.111749 -0.183842
  651 -10.3100 -0.600120 -8.39703
  652 -10.3025 -0.598038 8.38896
  653 -0.0235686 -36.2305 -5.68239
  654 162.463 -0.152950 0.435102
  655 162.438 -0.152707 -0.435406
  656 13.4318 5.30054 4.91115
  657 13.4138 5.30463 -4.90434
  658 121.361 -11.2176 -31.2987
  659 123.696 -11.1907 31.6832
  660 180.391 -0.978590 2.53031
  661 180.483 -0.963245 -2.66429
  662 0.777110 -46.0763 4.62820
  663 -11.4432 0.533488 -0.852697
  664 -11.4267 0.534092 0.853392
  665 58.0214 -0.812227 -56.1479
  666 53.7681 1.76880 0.339066
  667 53.7701 1.77093 -0.338808
  668 25.5583 2.42995 0.668936
  669 25.5501 2.42785 -0.667066
  670 30.7578 3.94769 -1.11712
  671 30.7649 3.95047 1.12242
  672 103.675 3.38280 -9.62066
  673 103.744 3.32087 9.64229
  674 26.5250 7.92748 1.60107
  675 26.4525 7.98275 -1.57496
  676 -20.0323 1.50769 -5.10863
  677 -20.0099 1.50572 5.10838
  678 -22.9548 1.57468 -5.72486
  679 -22.9318 1.57239 5.72299
  680 184.845 -2.70599 -1.01533
  681 -0.0119925 -7.95403 -13.1789
  682 185.263 -2.83980 0.716816
  683 232.386 18.7364 0.969533
  684 -23.3303 0.103869 4.14007
  685 -23.3428 0.103992 -4.14417
  686 23.0340 6.44662 0.0412206
  687 22.8723 6.53649 -0.00853472
  688 -45.3925 0.0854620 -0.537877
  689 -45.3687 0.0855256 0.538269
  690 0.107178 -7.21486 13.2345
  691 -14.7558 0.163597 8.91979
  692 -14.7700 0.163570 -8.92881
  693 202.366 -18.1668 -11.2602
  694 30.3446 1.24254 -0.107309
  695 30.3374 1.24088 0.107760
  696 5.88412 3.23147 3.53028
  697 5.86891 3.23178 -3.52670
  698 105.404 -5.20749 -25.9873
  699 106.271 -5.41258 26.5391
  700 381.491 26.5896 28.6821
  701 6.81222 -38.3773 -10.6783
  702 -2.83649 -5.89590 12.6894
  703 -2.84355 -5.91619 -12.7130
  704 21.0911 5.32324 -2.97193
  705 21.1039 5.32248 2.97956
  706 166.974 -0.111011 -1.17106
  707 166.995 -0.112204 1.16836
  708 77.6356 1.90084 0.564714
  709 77.6316 1.90447 -0.564828
  710 5.64394 5.66299 9.93454
  711 5.60887 5.68096 -9.93855
  712 2.41414 1.77344 1.56424
  713 2.40037 1.77253 -1.56275
  714 -5.09133 0.929632 13.1793
  715 -5.12091 0.932616 -13.1989
  716 136.427 0.274005 0.853345
  717 136.411 0.275296 -0.854415
  718 117.437 1.52595 2.33153
  719 117.424 1.53099 -2.33415
  720 15.0033 -12.5998 12.3461
  721 15.4753 -13.3292 -11.8744
  722 -9.66279 1.91864 11.5007
  723 -9.68825 1.92238 -11.5133
  724 4.53861 -12.2949 7.08032
  725 -0.205830 3.27526 12.4043
  726 -0.251585 3.28746 -12.4093
  727 -27.2355 0.837696 -3.43995
  728 -27.2131 0.836983 3.44028
  729 19.2320 6.79118 4.75574
  730 19.2092 6.80005 -4.74433
  731 181.589 -5.66178 -11.0827
  732 172.156 -15.3121 -2.98674
  733 -2.84412 -5.80230 8.89113
  734 -2.83939 -5.82758 -8.87789
  735 65.3112 -2.10764 -39.4156
  736 63.5451 -0.622837 39.8759
  737 39.3142 7.53964 -5.01187
  738 39.2252 7.61513 5.10362
  739 3.21026 -7.31586 10.9559
  740 -0.260534 -18.7020 -5.04849
  741 83.7593 5.05154 -8.75027
  742 83.8122 5.01055 8.80093
  743 0.233638 -36.9655 4.72697
  744 49.2960 7.36937 -1.60475
  745 49.2934 7.36554 1.63196
  746 175.073 0.00542026 -2.92871
  747 175.046 -0.0186147 2.87761
  748 3.27765 -52.2898 0.208208
  749 77.0248 6.28106 6.45690
  750 76.9962 6.30892 -6.42524
  751 20.1267 7.11761 -3.48238
  752 20.2264 7.04061 3.48760
  753 -31.7824 0.212824 -2.91812
  754 -31.7632 0.212507 2.91553
  755 86.0876 2.06365 -1.42448
  756 86.0942 2.05878 1.42410
  757 52.1573 7.96818 -3.62506
  758 52.1510 7.97085 3.67281
  759 -0.535900 4.69658 9.75262
  760 -0.566535 4.70816 -9.75526
  761 172.701 -13.0601 0.914530
  762 -28.2903 0.701530 2.64246
  763 -28.3119 0.701641 -2.64167
  764 380.741 69.1082 -48.7974
  765 -11.6687 1.25484 2.87040
  766 -11.6866 1.25461 -2.86879
  767 147.541 0.793049 5.28154
  768 147.524 0.824531 -5.30809
  769 273.882 18.0453 0.577955
  770 168.100 -0.317131 -2.24347
  771 168.112 -0.321629 2.23457
  772 105.989 2.08468 2.88046
  773 105.977 2.09307 -2.88304
  774 158.973 -19.6808 43.8561
  775 67.8580 5.59295 -2.06458
  776 67.8679 5.58014 2.07398
  777 1.48154 -28.9438 6.37444
  778 182.779 -24.0722 13.1316
  779 110.700 0.811038 0.507361
  780 110.689 0.812560 -0.507679
  781 146.412 0.356361 0.272518
  782 146.392 0.356663 -0.272697
  783 -0.685939 -14.9265 -8.75937
  784 0.826320 -25.9368 8.89485
  785 64.0148 7.42536 8.97769
  786 63.9998 7.43077 -8.88682
  787 379.119 4.27461 3.08191
  788 111.731 1.35636 -12.1529
  789 111.824 1.28205 12.1795
  790 -24.0523 0.802004 6.46211
  791 -24.0743 0.803881 -6.46648
  792 4.48333 -21.8352 2.81439
  793 2.94363 -49.0911 -2.30180
  794 257.077 32.8931 -1.36572
  795 -0.232946 -18.6381 4.55418
  796 4.57166 3.39073 11.3649
  797 4.55995 3.39228 -11.4031
  798 32.9697 7.08548 1.89294
  799 32.9579 7.08875 -1.87739
  800 171.691 -7.74882 -1.93883
  801 171.916 -7.68724 1.26550
  802 204.550 22.2990 -74.0117
  803 -29.1920 0.426118 -1.29208
  804 -29.1711 0.426299 1.29294
  805 -13.0305 -0.0625027 3.38926
  806 -13.0315 -0.0629816 -3.39214
  807 11.7528 0.101315 4.43510
  808 11.5020 0.0859060 -4.44764
  809 129.426 -0.350915 10.9788
  810 129.323 -0.224180 -10.9681
  811 65.0638 2.30398 -0.157149
  812 65.0653 2.30031 0.157657
  813 209.827 -4.95934 22.3183
  814 20.6674 3.89238 -2.62550
  815 20.6784 3.89351 2.63085
  816 19.6715 1.82118 -1.89726
  817 19.4930 1.92758 1.95923
  818 -0.177199 -15.0607 -11.9830
  819 300.884 40.6219 38.4890
  820 -44.0740 0.0736414 -1.35561
  821 -44.0487 0.0735654 1.35578
  822 -0.0653982 -45.2700 4.53803
  823 2.81796 -7.21203 -11.0497
  824 -6.43635 -0.403634 2.50218
  825 -6.43280 -0.404537 -2.50255
  826 237.997 11.3890 -17.0943
  827 60.3076 6.54439 -2.57738
  828 60.3160 6.53329 2.60012
  829 163.125 -2.07628 -5.49636
  830 163.248 -2.11143 5.38546
  831 -41.9777 0.346934 1.77098
  832 -42.0031 0.347161 -1.77131
  833 -0.285435 -0.296540 -0.237346
  834 -0.285999 -0.297081 0.238266
  835 0.155368 -46.3303 -4.46961
  836 0.220971 -49.1939 -4.20877
  837 -46.9161 0.485564 0.291484
  838 -46.9392 0.485568 -0.291315
  839 23.7373 -11.0411 -25.1080
  840 100.373 1.76527 -0.779331
  841 100.381 1.76262 0.778501
  842 -4.93646 1.08343 0.369993
  843 -4.95142 1.08277 -0.369812
  844 150.666 0.729943 -3.53059
  845 150.680 0.718813 3.51770
  846 -17.1618 0.115537 3.23215
  847 -17.1662 0.115575 -3.23519
  848 89.4980 -2.04431 -60.0696
  849 156.068 -13.5286 11.5387
  850 122.948 1.00024 -1.04486
  851 122.961 0.998336 1.04357
  852 154.546 -14.7516 -13.0048
  853 47.0065 5.82876 -0.192377
  854 47.0052 5.82270 0.205459
  855 65.6479 4.91778 -1.48840
  856 65.6542 4.90782 1.49439
  857 181.741 -3.94913 8.44298
  858 10.2423 6.38505 8.45755
  859 10.2013 6.41049 -8.46474
  860 9.86047 1.13085 0.772936
  861 9.84863 1.12963 -0.772165
  862 84.9252 1.65422 0.631220
  863 84.9200 1.65702 -0.631530
  864 226.364 -23.6447 22.8026
  865 140.980 1.20277 -4.57007
  866 140.999 1.18194 4.55275
  867 0.582304 2.37940 2.80822
  868 0.566907 2.37914 -2.80572
  869 141.739 0.170977 1.26690
  870 141.721 0.172487 -1.26855
  871 -27.8719 0.300631 -0.744726
  872 -27.8524 0.300918 0.744809
  873 -0.131745 -14.2353 4.04724
  874 -0.170997 -14.4579 -4.07972
  875 167.092 -2.73420 19.6777
  876 -10.9780 2.59390 9.83562
  877 -11.0040 2.60012 -9.84284
  878 -0.0613602 -23.5267 -4.49684
  879 65.7121 3.02334 -0.715727
  880 65.7144 3.01846 0.716872
  881 122.050 -6.27741 -19.7160
  882 123.049 -6.95472 19.9173
  883 -5.52850 -2.03335 -12.7648
  884 -5.50806 -2.03567 12.7438
  885 5.76152 5.81267 9.16219
  886 5.72867 5.82778 -9.16215
  887 0.603711 -54.7121 3.32459
  888 0.983886 4.40056 11.4373
  889 0.945999 4.41414 -11.4429
  890 112.533 -1.92795 -17.4833
  891 112.305 -2.04083 17.6256
  892 194.945 9.71067 24.7662
  893 43.7011 5.46590 -0.313739
  894 43.7039 5.47110 0.322974
  895 145.014 1.25211 -3.44348
  896 145.029 1.24290 3.43433
  897 -5.81137 -2.59292 11.1371
  898 -5.81978 -2.60125 -11.1538
  899 0.484208 -56.8756 -2.46454
  900 -8.92733 -0.675385 10.9634
  901 -8.94068 -0.676022 -10.9757
  902 4.39872 5.36405 -7.28692
  903 4.42384 5.35502 7.28980
  904 -0.448565 -3.53952 1.96875
  905 -0.453460 -3.53560 -1.97152
  906 11.1621 6.03686 -6.70124
  907 11.1889 6.02572 6.70746
  908 2.27426 -4.91801 12.1901
  909 1.94886 -4.58195 -12.7398
  910 139.505 -3.73073 11.1057
  911 139.158 -3.52014 -11.1960
  912 -47.7130 0.177724 -0.427518
  913 -47.6892 0.177781 0.427778
  914 -3.93456 -0.363167 1.87114
  915 -3.93061 -0.363695 -1.87031
  916 0.196513 -33.5192 -4.12597
  917 -4.30357 -1.86567 -5.35905
  918 -4.30315 -1.86164 5.36058
  919 -18.6485 1.53003 8.30437
  920 -18.6708 1.53324 -8.31103
  921 42.1907 8.53132 -1.46561
  922 42.1684 8.54942 1.50714
  923 181.772 14.8548 -4.46008
  924 -3.10096 4.23177 8.87169
  925 -3.12814 4.24023 -8.87336
  926 67.3235 4.07640 -17.9553
  927 67.3507 4.13711 18.1915
  928 -9.28494 3.01227 7.17118
  929 -9.30839 3.01724 -7.17211
  930 226.639 -13.4945 -6.99653
  931 129.818 5.20563 10.6410
  932 161.211 -2.39080 -17.8031
  933 122.130 2.12863 -7.44240
  934 122.172 2.07985 7.43208
  935 -14.3353 1.90075 -3.67118
  936 -14.3156 1.89977 3.67263
  937 -30.1265 0.569014 4.21510
  938 -30.1498 0.570104 -4.21689
  939 -1.79400 -5.74797 -6.22872
  940 -1.78270 -5.75479 6.24148
  941 41.8972 3.28292 -0.247848
  942 41.9007 3.28664 0.250859
  943 -14.1761 1.37979 10.2026
  944 -14.1967 1.38175 -10.2131
  945 148.038 0.224377 1.69258
  946 148.020 0.226168 -1.69487
  947 -1.15690 -12.7245 9.53106
  948 4.23304 4.98668 -6.31905
  949 4.25502 4.98059 6.32260
  950 6.11947 3.60431 4.30148
  951 6.10290 3.60581 -4.29755
  952 23.7016 2.75054 -1.34087
  953 23.7103 2.75248 1.34335
  954 279.145 30.8574 -2.59202
  955 -1.06450 -0.301057 -0.727961
  956 -1.06678 -0.301107 0.729323
  957 8.78453 2.07057 -8.12497
  958 8.93630 1.98656 8.10709
  959 97.8718 4.46933 -7.60097
  960 97.9162 4.42462 7.61562
  961 11.2477 4.48647 -4.20055
  962 11.2639 4.48448 4.20596
  963 26.2740 -12.7543 34.2382
  964 187.626 -1.22245 -1.31146
  965 187.253 -1.17448 1.11715
  966 31.7086 -6.81443 29.3710
  967 33.0034 1.95579 0.105076
  968 32.9968 1.95388 -0.104284
  969 88.5149 -5.14191 -51.8264
  970 66.7620 1.72437 0.366279
  971 66.7612 1.72651 -0.366182
  972 8.10049 -10.2869 3.17316
  973 8.95460 -8.84561 -2.49570
  974 166.863 -0.0708458 0.588554
  975 166.838 -0.0705710 -0.588957
  976 -13.7761 0.0161158 8.05391
  977 -13.7864 0.0157547 -8.06167
  978 298.164 36.8165 14.1284
  979 -1.39495 -9.74088 -12.7029
  980 1.26934 -50.7412 4.03734
  981 -0.305256 -15.3645 11.7663
  982 172.267 0.0316389 -2.29003
  983 172.269 0.0250351 2.27580
  984 -2.28354 -4.16299 5.36970
  985 -2.28897 -4.16180 -5.36323
  986 210.811 21.3104 -15.0316
  987 385.240 3.82957 -2.07638
  988 -0.554884 -0.813742 -0.792283
  989 -0.554353 -0.815456 0.793418
  990 98.4807 1.69543 -1.58991
  991 98.4894 1.69140 1.58883
  992 -1.44479 -9.38679 12.7830
  993 137.940 1.06371 6.72455
  994 137.910 1.11091 -6.74841
  995 180.898 -12.3486 -8.92014
  996 -6.37969 -1.36251 6.08294
  997 -6.38034 -1.36703 -6.08471
  998 2.68573 -12.7789 9.65750
  999 -0.332578 -22.9116 9.22650
  1000 -0.0242423 -23.3313 4.48565
  1001 180.895 12.4638 -0.959072
  1002 209.798 22.9755 9.33254
  1003 151.243 -18.1685 -23.6460
  1004 2.01452 -23.0805 7.89031
  1005 2.59585 -33.5134 2.55364
  1006 40.6250 1.52778 0.202421
  1007 40.6200 1.52596 -0.202242
  1008 -1.69064 -1.92430 -2.53947
  1009 -1.68947 -1.92516 2.54181
  1010 1.30287 -18.9456 -10.2054
  1011 122.794 0.610048 -0.382844
  1012 122.808 0.608975 0.382433
  1013 23.4446 -1.62557 -10.0336
  1014 22.4135 -1.56393 9.93933
  1015 -2.98617 3.66070 11.4300
  1016 -3.02165 3.67248 -11.4394
  1017 -15.4172 2.27766 -7.16150
  1018 -15.3936 2.27379 7.15915
  1019 91.9103 1.54914 -17.8095
  1020 91.9916 1.61244 18.0232
  1021 65.6248 5.97466 -11.9562
  1022 65.6363 5.96632 12.0945
  1023 71.6753 5.80546 -3.69061
  1024 71.6895 5.78716 3.70457
  1025 188.552 -6.13589 -23.6935
  1026 -5.59250 2.20300 12.3555
  1027 -5.62498 2.20904 -12.3721
  1028 133.938 0.266588 9.11803
  1029 133.868 0.363205 -9.13659
  1030 -1.08383 -7.48749 13.4444
  1031 -10.9367 -0.388124 5.89825
  1032 -10.9398 -0.389643 -5.90313
  1033 121.791 1.59761 -9.02260
  1034 121.852 1.52950 9.01569
  1035 146.461 3.16708 -16.8908
  1036 -0.234997 -22.8346 -9.69255
  1037 -1.89470 -9.02345 11.3338
  1038 -1.97034 -9.11965 -11.2335
  1039 85.0175 5.54384 -6.05687
  1040 85.0495 5.51175 6.07678
  1041 108.471 2.52877 3.59505
  1042 108.456 2.54081 -3.59873
  1043 180.531 -12.0574 7.83530
  1044 7.18052 1.23014 -0.219769
  1045 7.19291 1.23112 0.219993
  1046 153.101 -20.3516 25.2648
  1047 -2.63076 0.894221 0.984572
  1048 -2.64539 0.893328 -0.983762
  1049 31.7326 8.51934 1.36009
  1050 31.6989 8.54265 -1.33172
  1051 11.3980 6.67695 7.32194
  1052 11.3667 6.69209 -7.31694
  1053 1.58612 -28.5994 -6.61618
  1054 42.8965 2.15842 -0.330940
  1055 42.9002 2.16165 0.332735
  1056 125.340 4.39357 4.35295
  1057 123.712 1.41829 3.41794
  1058 123.697 1.42859 -3.42369
  1059 -0.962267 -7.74303 -13.4633
  1060 186.546 -2.32830 -4.41518
  1061 -0.430926 -1.02475 13.5677
  1062 -0.296470 -0.904127 -13.5162
  1063 171.485 -0.211358 -1.25791
  1064 171.504 -0.212837 1.25399
  1065 182.373 -0.504720 -2.19361
  1066 182.284 -0.530623 2.12078
  1067 -0.140209 -35.3953 3.39529
  1068 105.278 3.25046 -4.79287
  1069 105.296 3.23137 4.78966
  1070 129.031 1.62251 4.03482
  1071 129.014 1.63533 -4.04314
  1072 2.25074 2.73042 12.4423
  1073 2.24037 2.73469 -12.4453
  1074 281.595 19.6182 2.19289
  1075 -3.88635 -1.80980 13.7009
  1076 -3.93361 -1.77547 -13.7290
  1077 38.4614 8.11494 0.612241
  1078 38.4497 8.12016 -0.589471
  1079 -24.1127 0.585257 -1.39559
  1080 -24.0932 0.585598 1.39641
  1081 64.0422 3.19907 -20.7848
  1082 63.9794 3.38779 21.0800
  1083 17.6303 7.52408 5.95768
  1084 17.5953 7.54320 -5.94798
  1085 43.1100 4.34427 -14.7812
  1086 42.8954 4.57243 14.9461
  1087 -1.23097 -11.9375 -9.27781
  1088 154.207 1.70907 21.7289
  1089 109.629 -3.10621 67.9270
  1090 16.5873 7.61758 6.16730
  1091 16.5440 7.64499 -6.16118
  1092 65.4218 4.10385 -1.05087
  1093 65.4266 4.09546 1.05458
  1094 243.999 -2.31143 9.87620
  1095 14.6324 3.26306 4.49116
  1096 14.4458 3.31800 -4.53669
  1097 -7.29367 -1.64126 8.13598
  1098 -7.29713 -1.64791 -8.14202
  1099 -0.240463 -5.29314 2.15650
  1100 -0.249552 -5.28941 -2.16486
  1101 159.940 0.169964 5.49105
  1102 159.914 0.237284 -5.54942
  1103 0.0847477 -11.8695 12.6626
  1104 -11.2734 0.616639 -11.0493
  1105 -11.2556 0.616567 11.0378
  1106 0.0623885 -43.1533 -4.41777
  1107 -2.76165 -3.83642 13.6746
  1108 -2.75596 -3.76314 -13.6871
  1109 153.487 0.455190 -2.31391
  1110 153.504 0.451174 2.30879
  1111 157.399 -0.858918 6.49407
  1112 157.316 -0.751989 -6.55665
  1113 26.1137 5.35066 -3.92364
  1114 25.9171 5.47800 3.99023
  1115 -0.394777 -22.2279 -7.77768
  1116 207.890 -22.6709 -38.7244
  1117 270.228 31.1537 -2.85021
  1118 2.57805 -35.4682 -1.60717
  1119 8.74296 5.16281 -9.50241
  1120 8.79225 5.13014 9.47190
  1121 24.2788 8.22285 3.44479
  1122 24.2287 8.25789 -3.42674
  1123 52.7485 3.74149 0.0594378
  1124 52.7483 3.74736 -0.0556711
  1125 -3.57556 -5.09363 10.5643
  1126 -3.56922 -5.13857 -10.5775
  1127 -10.7648 3.10240 9.12783
  1128 -10.7906 3.10867 -9.13247
  1129 -4.33416 3.84695 10.6091
  1130 -4.36543 3.85689 -10.6158
  1131 149.328 -7.55866 -10.7277
  1132 150.334 -7.65014 10.6018
  1133 0.0997349 -25.8741 -9.28284
  1134 78.1864 -0.796839 -26.5253
  1135 78.3475 -0.541304 27.0259
  1136 24.1090 7.74574 -3.57490
  1137 24.1316 7.73343 3.59009
  1138 80.7528 27.4891 76.2199
  1139 18.5333 6.32797 4.52503
  1140 18.5143 6.33370 -4.51536
  1141 205.271 -24.2569 -7.50400
  1142 76.1150 2.70989 0.932086
  1143 76.1099 2.71568 -0.931555
  1144 -3.52676 -3.15640 6.39899
  1145 -3.52793 -3.16285 -6.39533
  1146 -4.23308 -3.81506 8.31635
  1147 -4.23142 -3.82869 -8.31515
  1148 133.075 -14.7572 -38.0549
  1149 136.006 -16.1530 38.3602
  1150 22.3370 1.34482 0.111374
  1151 22.3461 1.34638 -0.110546
  1152 82.6007 4.02103 -14.2285
  1153 82.6284 3.95926 14.3929
  1154 183.999 -26.3204 28.5203
  1155 165.627 -0.256357 0.349050
  1156 165.600 -0.256159 -0.349121
  1157 -15.5001 2.34693 8.12426
  1158 -15.5243 2.35118 -8.12841
  1159 -26.2711 0.871671 -4.34050
  1160 -26.2483 0.870678 4.34038
  1161 40.4044 -3.58590 44.4379
  1162 121.034 8.56632 -8.79237
  1163 75.5485 5.90513 -6.62221
  1164 75.5820 5.87753 6.66564
  1165 241.551 -11.8182 41.3320
  1166 76.7402 5.56954 -10.1688
  1167 76.7840 5.52999 10.2448
  1168 17.8978 2.89724 -1.84248
  1169 17.9083 2.89895 1.84544
  1170 6.39349 -27.8870 3.05935
  1171 6.47549 -27.3287 -4.79106
  1172 104.568 -8.39250 -38.3443
  1173 106.101 -7.90615 38.3601
  1174 40.0064 6.20263 -9.88258
  1175 39.8457 6.34961 10.0169
  1176 186.348 -13.1601 -15.7953
  1177 -7.11700 -0.716446 12.4368
  1178 -7.13625 -0.715005 -12.4518
  1179 -0.270451 -10.6365 -12.9928
  1180 46.0065 -0.421281 -27.5373
  1181 46.1338 -0.245208 28.0733
  1182 -0.121995 -9.42078 2.41413
  1183 -0.103878 -9.44272 -2.44287
  1184 -45.8950 0.399231 -1.26329
  1185 -45.8690 0.399083 1.26326
  1186 149.918 0.202716 -0.605824
  1187 149.938 0.202032 0.604901
  1188 90.7742 3.94484 -3.88408
  1189 90.7934 3.92536 3.88710
  1190 -3.74665 -0.275401 13.7748
  1191 -3.75715 -0.222699 -13.7982
  1192 0.0261367 -38.3157 -3.79887
  1193 -38.7641 0.101591 1.98272
  1194 -38.7880 0.101836 -1.98389
  1195 28.2089 -2.81890 -18.7069
  1196 27.9860 -2.63794 19.3709
  1197 173.494 -10.6921 0.562637
  1198 47.8962 1.84111 -24.6656
  1199 47.9455 2.01017 24.9610
  1200 -21.2809 0.110294 2.94966
  1201 -21.2887 0.110262 -2.95260
  1202 0.527224 -34.3128 -6.73682
  1203 -7.92119 1.56486 -1.86630
  1204 -7.90484 1.56538 1.86774
  1205 24.7018 6.67156 3.57903
  1206 24.6843 6.67678 -3.56646
  1207 97.0800 1.08769 -0.548114
  1208 97.0875 1.08583 0.547932
  1209 132.064 1.05616 2.60590
  1210 132.049 1.06256 -2.61063
  1211 6.65458 -1.76760 8.32684
  1212 6.55516 -1.88302 -8.44512
  1213 1.08958 -19.9585 10.1396
  1214 235.885 30.6996 12.6230
  1215 -7.30173 -0.588820 4.60862
  1216 -7.30113 -0.591062 -4.61019
  1217 0.848697 -18.6795 -10.5270
  1218 -0.716392 -11.1350 6.76510
  1219 -0.677515 -11.0453 -7.01255
  1220 187.555 -2.00237 3.93692
  1221 0.174533 -43.9617 3.90864
  1222 1.17649 -13.8564 -11.7283
  1223 20.5494 1.12378 0.294127
  1224 20.5399 1.12243 -0.293946
  1225 -1.96672 -8.18488 12.5308
  1226 -21.9140 1.28572 -3.76039
  1227 -21.8927 1.28496 3.76117
  1228 392.290 7.09767 10.7165
  1229 -11.2599 1.18706 11.2338
  1230 -11.2812 1.18833 -11.2460
  1231 88.4861 3.86794 -12.8836
  1232 88.5805 3.78826 12.9694
  1233 5.43401 -10.0554 -5.88457
  1234 84.4206 4.93210 -4.91110
  1235 84.4456 4.90607 4.92384
  1236 3.31662 -28.2922 -2.52752
  1237 -1.97042 -8.19497 -12.5011
  1238 -16.0137 0.778019 2.34018
  1239 -16.0321 0.777639 -2.33892
  1240 -6.90849 0.332633 -12.7913
  1241 -6.88538 0.332435 12.7776
  1242 179.601 14.1321 17.8556
  1243 102.803 1.50298 -13.8551
  1244 102.939 1.45471 13.8905
  1245 -48.3950 0.142565 -0.506229
  1246 -48.3702 0.142575 0.506542
  1247 93.0477 2.85826 -2.66419
  1248 93.0578 2.84957 2.66334
  1249 -49.9957 -0.797712 -0.123916
  1250 -50.0191 -0.797872 0.123975
  1251 139.100 -10.0281 -15.8396
  1252 -22.5049 0.366753 6.32439
  1253 -22.5217 0.367352 -6.33047
  1254 140.578 -10.5841 15.6929
  1255 94.4665 4.05599 -5.55060
  1256 94.4912 4.02832 5.55489
  1257 10.7127 -32.1757 -18.6319
  1258 0.195648 -31.2296 -7.99057
  1259 -0.720537 -13.2033 11.7653
  1260 305.390 43.5917 -37.7227
  1261 -0.0815389 -29.1278 7.71593
  1262 316.316 29.6647 -16.9063
  1263 -0.138186 -53.8311 -3.74960
  1264 13.3479 1.88271 -0.803559
  1265 13.3590 1.88412 0.805177
  1266 -0.138080 -12.1114 2.53197
  1267 -0.112613 -12.1741 -2.52359
  1268 51.7959 1.87934 -0.152887
  1269 51.7982 1.88174 0.153323
  1270 188.681 -15.0621 15.1077
  1271 2.13471 1.71670 -2.16577
  1272 2.14884 1.71751 2.16756
  1273 1.09674 -60.3175 2.19623
  1274 0.697145 -64.0278 -2.15536
  1275 173.535 -22.6104 -16.5733
  1276 -0.498141 -15.9692 7.51175
  1277 178.723 10.8053 -22.0145
  1278 -0.544883 -21.0484 7.40198
  1279 0.351885 -58.3092 -3.03013
  1280 86.5455 3.08581 -2.79768
  1281 86.5575 3.07204 2.79917
  1282 -0.0579917 -31.1742 3.34427
  1283 -0.0876268 -26.0993 -7.57674
  1284 423.529 69.0948 60.8282
  1285 166.443 0.217649 0.276451
  1286 166.417 0.217610 -0.276401
  1287 3.84294 -0.211640 11.4524
  1288 3.71402 -0.0346572 -11.4946
  1289 -3.07999 2.19162 13.0897
  1290 -3.13302 2.19916 -13.1096
  1291 174.048 -3.40321 -12.6875
  1292 162.341 -6.66903 -5.87809
  1293 162.142 -7.62660 5.89580
  1294 22.6577 3.24696 1.93804
  1295 22.6481 3.24488 -1.93393
  1296 -27.4620 0.748934 -5.06261
  1297 -27.4392 0.747521 5.05973
  1298 181.212 -26.5139 -23.9924
  1299 -1.36684 -3.27840 3.32813
  1300 -1.37175 -3.27524 -3.32617
  1301 190.499 -8.98071 22.3326
  1302 -2.06292 -7.68205 9.11017
  1303 -2.04082 -7.70909 -9.06775
  1304 -18.4952 1.29983 2.76784
  1305 -18.5148 1.29995 -2.76655
  1306 27.6499 2.13242 -8.98885
  1307 27.3651 2.30335 8.99789
  1308 43.7546 1.78561 0.402046
  1309 43.7505 1.78318 -0.401376
  1310 -19.2214 1.88318 7.94974
  1311 -19.2443 1.88642 -7.95477
  1312 155.794 0.615625 0.430130
  1313 155.771 0.615582 -0.430099
  1314 83.5581 -2.69229 51.3861
  1315 126.334 0.723478 0.914762
  1316 126.320 0.724740 -0.915530
  1317 82.0824 1.63715 -20.0957
  1318 82.1227 1.53267 20.2991
  1319 0.762297 -35.0008 -5.20256
  1320 31.0857 7.34361 -3.03597
  1321 30.9593 7.43802 3.10547
  1322 -0.298159 -0.286544 -0.402202
  1323 -0.299634 -0.286687 0.403361
  1324 107.038 3.81174 7.37992
  1325 106.999 3.85768 -7.37834
  1326 52.1106 4.88476 0.507322
  1327 52.1097 4.89192 -0.499937
  1328 77.6981 4.98001 -3.15754
  1329 77.7131 4.96271 3.16554
  1330 102.979 1.16253 -0.911290
  1331 102.987 1.16065 0.910834
  1332 -3.30190 -1.61298 -3.76336
  1333 -3.30192 -1.61154 3.76585
  1334 -32.9535 0.135908 1.64792
  1335 -32.9756 0.135853 -1.64715
  1336 -5.71178 -2.66106 -9.32286
  1337 -5.70932 -2.64897 9.31544
  1338 -19.6864 0.494401 0.715152
  1339 -19.7045 0.493926 -0.714740
  1340 -50.4278 0.486441 0.293041
  1341 -50.4517 0.486462 -0.292869
  1342 195.586 -26.7871 33.2528
  1343 136.536 -1.05569 -17.5146
</Section>

newXOutput 24

<Section columns = "stress_xx | stress_yy | stress_xy">
  1 179.263 -0.171495 0.167477
  2 179.294 -0.171591 -0.167560
  3 -56.8529 0.303639 -0.763766
  4 0.0921083 0.0265250 0.161491
  5 331.321 82.8870 102.407
  6 374.226 94.7525 -97.7413
  7 0.0917835 0.0262154 -0.161062
  8 -56.8265 0.303630 0.763669
  9 178.694 -0.156360 -0.586644
  10 178.814 -0.463670 -0.966372
  11 180.517 -0.449251 -0.242124
  12 180.654 -0.406439 -1.10664
  13 181.011 -0.387913 -0.310716
  14 184.852 -0.392494 -0.444434
  15 186.115 -0.610153 -1.48082
  16 187.409 -0.242920 -0.994508
  17 188.155 0.226264 -1.92262
  18 195.918 -0.960901 -1.64966
  19 199.128 -0.704671 -2.14815
  20 202.586 -1.13940 -0.738204
  21 204.090 -1.57202 -0.352222
  22 202.009 -1.86852 2.95303
  23 194.222 -2.14650 6.05242
  24 176.470 -2.54200 12.7009
  25 148.414 1.22285 14.6967
  26 124.849 1.39273 13.8426
  27 92.5638 3.39927 8.40730
  28 98.9288 3.31574 0.591719
  29 80.8599 10.0733 -5.44162
  30 117.586 4.51199 -14.8249
  31 138.349 0.972620 -12.1927
  32 172.540 -0.627658 -10.5449
  33 191.577 -2.60418 -7.20829
  34 201.555 -2.18349 -2.95153
  35 203.574 -1.51622 0.354387
  36 202.220 -1.12246 0.674467
  37 198.952 -0.710653 2.07339
  38 195.832 -0.975773 1.60505
  39 188.137 0.217386 1.89955
  40 187.416 -0.246284 0.985202
  41 186.136 -0.612133 1.47684
  42 184.878 -0.393504 0.442405
  43 181.039 -0.388454 0.309671
  44 180.684 -0.406932 1.10652
  45 180.547 -0.449579 0.241968
  46 178.845 -0.463897 0.966640
  47 178.725 -0.156445 0.586810
  48 168.611 0.638209 -0.209991
  49 155.659 0.487298 -0.490251
  50 139.555 -0.0465390 -0.525519
  51 122.944 0.991785 -0.437153
  52 108.484 0.929192 -0.352622
  53 93.0848 1.44053 -0.421217
  54 77.9607 2.21232 -0.276547
  55 62.3345 2.02639 -0.537126
  56 49.4254 1.54418 -0.736387
  57 32.5521 1.11655 -0.775435
  58 15.4688 1.37957 -0.586456
  59 1.24402 1.12702 -0.566259
  60 -16.4526 0.707184 -0.525563
  61 -29.6054 0.00435888 -1.22139
  62 -42.3307 -0.786157 -0.565447
  63 -55.1969 0.145068 0.353175
  64 -57.9281 1.00050 -0.173136
  65 -58.0655 0.457591 0.127966
  66 -56.1085 0.247621 -0.111803
  67 -56.5592 0.653303 -0.734300
  68 -55.5841 0.785061 -0.133338
  69 -52.5036 0.257063 -1.11069
  70 -52.9183 0.481413 -1.18492
  71 -51.4880 0.460309 -0.696938
  72 -47.6022 0.298567 -1.02155
  73 -45.6651 0.510488 -1.64043
  74 -42.8110 0.563186 -1.36728
  75 -37.7977 0.290343 -2.29548
  76 -34.9610 0.0887970 -1.92102
  77 -29.9313 0.127944 -2.19830
  78 -25.5769 0.0868892 -2.41237
  79 -21.8188 0.0257605 -1.90312
  80 -16.6479 0.107317 -1.91276
  81 -12.2057 -0.0558618 -2.03737
  82 -7.91178 -0.227765 -1.77535
  83 -4.52243 -0.198456 -1.35213
  84 -2.20413 -0.341420 -1.12360
  85 -0.338926 -0.196857 -0.393021
  86 0.0463116 -0.214594 -0.134528
  87 -0.116857 -0.0976854 -0.0166887
  88 -0.307575 -0.259976 -0.343036
  89 -0.297950 -1.85928 -0.973425
  90 -0.257773 -4.20493 -1.39987
  91 -0.136074 -7.23426 -2.04918
  92 -0.0733052 -11.1367 -1.76938
  93 -0.0691976 -14.7535 -2.22925
  94 -0.278049 -19.2068 -2.52715
  95 -0.113075 -24.6788 -2.56487
  96 0.0535569 -30.1942 -2.46411
  97 0.121153 -36.1202 -2.43749
  98 0.181722 -42.2326 -2.40817
  99 0.0262106 -46.8179 -3.26936
  100 0.328595 -53.2471 -2.93432
  101 0.393132 -60.8073 -2.38868
  102 0.0160987 -64.3694 -3.17921
  103 0.558234 -70.1217 -2.98298
  104 1.32869 -77.8162 -1.62808
  105 2.57430 -80.3661 -2.57707
  106 1.70472 -75.1331 1.08940
  107 2.28041 -59.3716 6.15855
  108 13.6485 -39.6708 20.0276
  109 44.2455 46.6377 74.5541
  110 513.533 26.2427 49.5160
  111 439.570 8.32859 18.2491
  112 425.418 3.32378 4.02220
  113 422.536 1.39752 -0.683131
  114 425.241 4.95196 -9.65053
  115 437.802 14.8697 -21.3680
  116 498.457 51.4175 -62.6284
  117 104.432 35.6314 -91.3671
  118 22.3534 -39.0145 -25.0502
  119 6.50704 -64.8833 -8.86438
  120 1.76504 -71.3814 -1.24851
  121 2.05470 -77.4974 1.62410
  122 0.602886 -74.8732 1.31599
  123 0.238570 -68.3839 2.59293
  124 0.245493 -64.1553 2.06903
  125 0.335482 -57.5644 3.34795
  126 -0.0162171 -53.6892 3.21412
  127 0.133307 -48.4176 2.32383
  128 0.250149 -41.7135 2.91525
  129 0.0441597 -36.9431 2.31372
  130 0.0754423 -30.2492 2.91892
  131 -0.301882 -24.9717 2.50316
  132 -0.216668 -19.2252 2.45044
  133 -0.0511565 -14.6756 2.23584
  134 -0.0936978 -11.0740 1.77385
  135 -0.133425 -7.21329 2.02978
  136 -0.254242 -4.20185 1.39301
  137 -0.296414 -1.86198 0.972712
  138 -0.307239 -0.262697 0.343665
  139 -0.116853 -0.0988876 0.0174792
  140 0.0448763 -0.214819 0.135278
  141 -0.341723 -0.196802 0.394031
  142 -2.20869 -0.341193 1.12476
  143 -4.52884 -0.197923 1.35265
  144 -7.91758 -0.227104 1.77493
  145 -12.2088 -0.0553166 2.03577
  146 -16.6477 0.107421 1.91085
  147 -21.8138 0.0259590 1.90116
  148 -25.5678 0.0870802 2.41022
  149 -29.9168 0.127854 2.19615
  150 -34.9420 0.0886632 1.91912
  151 -37.7758 0.290119 2.29378
  152 -42.7857 0.562882 1.36611
  153 -45.6381 0.510181 1.63963
  154 -47.5741 0.298384 1.02121
  155 -51.4591 0.460135 0.696856
  156 -52.8893 0.481256 1.18487
  157 -52.4752 0.256992 1.11076
  158 -55.5559 0.784920 0.133622
  159 -56.5312 0.653216 0.734426
  160 -56.0812 0.247613 0.111993
  161 -58.0383 0.457550 -0.127791
  162 -57.9012 1.00036 0.173233
  163 -55.1707 0.145072 -0.353042
  164 -42.3070 -0.785879 0.565429
  165 -29.5840 0.00470044 1.22127
  166 -16.4339 0.707684 0.525616
  167 1.25884 1.12780 0.566280
  168 15.4805 1.38071 0.586467
  169 32.5598 1.11817 0.775425
  170 49.4292 1.54604 0.736328
  171 62.3353 2.02837 0.537070
  172 77.9580 2.21427 0.276432
  173 93.0787 1.44238 0.420999
  174 108.474 0.930791 0.352352
  175 122.931 0.992841 0.436781
  176 139.537 -0.0457488 0.525095
  177 155.637 0.487447 0.489960
  178 168.583 0.638098 0.209862
  179 44.9938 8.42941 -0.730348
  180 44.9787 8.43664 0.764216
  181 -1.38846 1.06611 13.9206
  182 -1.43453 1.06439 -13.9203
  183 104.542 -1.56486 -22.2999
  184 104.504 -1.78186 22.5592
  185 20.0984 4.06540 0.524234
  186 19.8586 4.16470 -0.503567
  187 13.7582 3.06245 -2.62184
  188 13.7714 3.06335 2.62530
  189 99.6339 2.55324 -3.05042
  190 99.6473 2.54160 3.04976
  191 -2.97201 4.16883 7.92356
  192 -2.99801 4.17578 -7.92356
  193 115.874 3.54713 -8.29603
  194 115.928 3.49164 8.29984
  195 -4.65004 -4.07951 10.6406
  196 -4.64705 -4.10144 -10.6510
  197 0.834300 -10.0980 -13.1517
  198 34.9277 0.308336 -19.6461
  199 1.06830 -10.7734 12.8723
  200 34.3606 0.616273 20.0183
  201 164.818 -23.5287 -32.6422
  202 170.853 -24.4700 31.1987
  203 57.9913 2.59158 -0.179892
  204 57.9906 2.58766 0.181279
  205 -11.2928 0.931607 -1.67360
  206 -11.2748 0.932234 1.67455
  207 -13.8341 1.98782 10.6054
  208 -13.8592 1.99229 -10.6157
  209 58.2377 6.03549 -0.933182
  210 58.2411 6.02739 0.943599
  211 17.1056 7.40554 6.14443
  212 17.0432 7.45171 -6.14818
  213 -18.2576 1.96035 -4.65109
  214 -18.2348 1.95889 4.65169
  215 133.820 0.697141 1.53145
  216 133.805 0.699885 -1.53340
  217 3.99230 -19.1607 6.34234
  218 4.34646 -17.4921 -5.78051
  219 -1.32932 -11.4627 12.0842
  220 -1.35052 -11.8757 -11.6917
  221 53.6032 7.95068 -8.04560
  222 53.5684 7.98381 8.15550
  223 -12.1988 -0.113332 10.4714
  224 -12.2131 -0.113983 -10.4824
  225 143.187 1.30410 -4.69173
  226 143.205 1.28795 4.67942
  227 153.596 -1.84622 -9.12998
  228 153.705 -2.01519 9.06732
  229 243.731 19.4335 -0.471022
  230 223.631 24.2352 16.8281
  231 222.157 -3.71299 -23.3108
  232 25.6466 6.39392 3.48572
  233 25.6314 6.39722 -3.47493
  234 0.974382 4.92505 10.9844
  235 0.937501 4.93989 -10.9892
  236 171.499 -10.4116 -5.39605
  237 170.473 -10.5501 5.92812
  238 94.1835 1.46396 -1.05214
  239 94.1908 1.46033 1.05159
  240 -22.0175 1.53597 7.16764
  241 -22.0421 1.53893 -7.17156
  242 -2.92664 -2.88467 -4.72408
  243 -2.92468 -2.88365 4.72786
  244 -25.0328 0.735203 2.44064
  245 -25.0548 0.735103 -2.43959
  246 76.7121 6.37047 -5.08706
  247 76.7330 6.34710 5.11050
  248 98.0176 3.38304 -12.4797
  249 98.1094 3.31575 12.5378
  250 22.2566 1.98432 -0.423372
  251 22.2667 1.98594 0.424585
  252 55.8535 -2.39825 -44.5795
  253 66.4415 -0.537596 48.9634
  254 7.01395 3.08121 10.6999
  255 6.98281 3.15931 -10.7317
  256 235.002 -20.7287 -1.50946
  257 18.9642 7.78383 5.31345
  258 18.9347 7.79889 -5.30209
  259 54.6268 5.52609 -15.9781
  260 54.5377 5.67941 16.1911
  261 261.322 35.1213 -6.24154
  262 155.292 0.509061 6.35318
  263 155.262 0.563903 -6.39015
  264 -1.43204 -8.73685 -7.46583
  265 -1.39494 -8.77382 7.49689
  266 -0.342819 -20.9616 -10.4341
  267 0.606135 -24.8795 -9.91586
  268 0.302631 -24.7198 10.2638
  269 -4.10290 -3.59588 13.8542
  270 -4.11719 -3.58671 -13.9007
  271 7.84107 -21.2847 -1.98135
  272 8.41726 -19.8094 3.28458
  273 -9.01017 -0.781429 6.56580
  274 -9.01282 -0.784537 -6.57034
  275 109.441 3.66237 -5.05739
  276 109.466 3.63732 5.05514
  277 192.887 -20.7057 0.370849
  278 41.0553 4.14031 -0.699690
  279 41.0599 4.14400 0.704115
  280 -0.544317 -19.6442 9.95719
  281 2.67159 4.17976 5.34144
  282 2.65122 4.18321 -5.33798
  283 309.193 22.1768 -6.89972
  284 151.116 0.462885 1.91061
  285 151.098 0.466550 -1.91468
  286 99.1353 -5.53488 -33.8769
  287 100.083 -5.44715 34.4586
  288 192.610 -19.5911 -3.58525
  289 -18.6467 0.547806 8.31976
  290 -18.6635 0.548424 -8.32819
  291 189.304 -18.4298 56.1972
  292 -8.58527 1.23313 12.7044
  293 -8.61017 1.23347 -12.7195
  294 30.5620 8.46340 -0.958039
  295 30.4503 8.54665 1.00911
  296 -35.2671 0.383739 0.466021
  297 -35.2897 0.383586 -0.465712
  298 159.015 -0.802579 -77.2811
  299 -32.3689 0.689823 -3.93162
  300 -32.3435 0.688798 3.93069
  301 -1.18160 -4.35809 14.3273
  302 -0.734528 -4.27956 -14.2192
  303 68.3989 7.43743 -7.47083
  304 68.4165 7.42330 7.53305
  305 13.5399 2.19198 1.96083
  306 13.5274 2.19062 -1.95883
  307 71.5659 3.41838 -1.30712
  308 71.5703 3.41131 1.30911
  309 6.36646 -6.16926 8.27018
  310 5.79883 -7.21864 -8.32579
  311 69.4574 1.86323 -0.253354
  312 69.4586 1.86052 0.253529
  313 -26.2643 0.680412 6.15527
  314 -26.2853 0.681573 -6.16074
  315 16.8021 -3.00928 -2.71270
  316 16.2792 -3.02064 2.26867
  317 158.032 0.157337 0.529244
  318 158.009 0.157772 -0.529644
  319 347.704 20.2493 12.5601
  320 33.8527 5.16715 1.73307
  321 33.8447 5.16494 -1.72532
  322 -9.04077 1.93806 3.40349
  323 -9.06016 1.93846 -3.40156
  324 47.2330 7.03223 -0.251988
  325 47.2289 7.02836 0.271280
  326 4.90526 4.82302 11.4753
  327 4.87463 4.83694 -11.4900
  328 0.694438 -35.6782 7.37747
  329 -36.3259 0.175693 -1.01728
  330 -36.3025 0.175875 1.01781
  331 119.556 0.870435 -0.991460
  332 119.568 0.868537 0.990637
  333 125.955 1.37855 -2.63142
  334 125.970 1.37100 2.62734
  335 -33.5986 0.647915 -2.91922
  336 -33.5739 0.647565 2.91961
  337 -2.42597 0.904743 0.460331
  338 -2.44165 0.903964 -0.459823
  339 -0.745657 -14.3777 7.47667
  340 -0.595694 -14.9517 -7.46661
  341 140.809 -12.1078 -22.6459
  342 146.465 -14.4599 22.1888
  343 83.0737 4.70855 -3.08850
  344 83.0866 4.69349 3.09315
  345 35.6569 8.73645 0.0217317
  346 35.6067 8.77072 0.0185972
  347 -14.1791 2.61893 6.52253
  348 -14.2031 2.62255 -6.52333
  349 266.653 1.14010 2.93755
  350 13.2774 -23.7182 -13.6580
  351 14.2073 -22.4647 14.4183
  352 -6.47186 4.04937 10.2534
  353 -6.50168 4.05816 -10.2589
  354 -7.52804 -1.60731 12.2124
  355 -7.54293 -1.60905 -12.2291
  356 301.432 48.1939 -10.3566
  357 190.435 -3.70834 27.1116
  358 179.935 -4.00272 -3.86257
  359 179.712 -3.91165 3.53200
  360 124.678 -1.18524 -14.3488
  361 124.547 -1.33000 14.3448
  362 0.230286 -42.9539 -6.03884
  363 165.306 0.692121 -3.59972
  364 165.316 0.676112 3.57977
  365 2.05728 -40.8186 5.05177
  366 186.187 14.4527 -15.5357
  367 44.9323 2.11607 0.717605
  368 44.9275 2.11409 -0.717290
  369 125.641 1.37680 -10.6686
  370 125.728 1.29520 10.6711
  371 136.200 1.60996 -6.54070
  372 136.228 1.57377 6.52361
  373 -4.18433 1.77601 2.37894
  374 -4.20154 1.77553 -2.37709
  375 76.5240 4.25869 -16.7159
  376 76.5694 4.29825 16.8960
  377 162.974 0.171520 0.872271
  378 162.951 0.172376 -0.873489
  379 90.2144 5.49716 -8.26956
  380 90.2584 5.45421 8.30288
  381 105.151 2.22135 2.07189
  382 105.140 2.22734 -2.07347
  383 -5.05768 -0.929258 4.01899
  384 -5.05638 -0.931362 -4.01832
  385 -1.19161 -0.849772 -1.14935
  386 -1.19226 -0.850350 1.15118
  387 216.383 -28.9523 12.9967
  388 -2.90934 -6.94731 11.1009
  389 -2.89077 -7.00194 -11.0983
  390 33.4652 2.74782 -1.12767
  391 33.4722 2.75055 1.13014
  392 -1.08320 -5.36305 4.03144
  393 -1.09496 -5.35318 -4.03133
  394 12.1556 6.25818 5.94748
  395 12.1319 6.26655 -5.94077
  396 177.078 -0.463400 4.70673
  397 177.066 -0.391064 -4.81179
  398 -0.573714 -10.9049 13.5677
  399 -14.5981 -0.287227 6.25161
  400 -14.6048 -0.288195 -6.25767
  401 -0.629137 -11.4900 -13.4116
  402 166.632 0.301026 2.28693
  403 166.615 0.305907 -2.29447
  404 -2.21684 3.48004 12.7642
  405 -2.26221 3.49363 -12.7773
  406 121.902 2.35550 -4.25379
  407 121.920 2.34007 4.24738
  408 187.793 -8.10839 -5.13388
  409 188.597 -6.48162 3.96628
  410 -0.408371 -19.6324 -8.22184
  411 15.9004 5.73632 -4.83959
  412 16.0312 5.66221 4.83438
  413 182.322 12.1889 9.83223
  414 104.815 -7.10965 -47.2899
  415 107.775 -9.11996 49.6386
  416 5.21760 5.85150 8.65339
  417 5.18675 5.86394 -8.65190
  418 77.1988 2.73081 -0.892822
  419 77.2028 2.72615 0.893143
  420 74.7681 7.26439 75.6301
  421 30.0513 7.61721 -2.88364
  422 30.0710 7.60884 2.90084
  423 1.76672 -19.4806 9.56820
  424 -0.240650 -32.0086 -7.21540
  425 11.3953 7.05868 8.26253
  426 11.3567 7.07893 -8.26126
  427 13.9081 4.41795 -3.76476
  428 13.9235 4.41692 3.76995
  429 -5.65594 -0.462893 -13.9042
  430 -5.63110 -0.470827 13.8868
  431 36.2969 6.97138 -5.67468
  432 36.1490 7.08701 5.76930
  433 187.564 -6.41580 -20.3247
  434 4.82577 -2.52809 11.3334
  435 4.65597 -2.46497 -11.3875
  436 136.412 -5.75782 -15.8685
  437 137.020 -6.20117 15.8247
  438 -35.0402 0.304519 -3.75849
  439 -35.0154 0.303687 3.75629
  440 0.00585882 -31.3366 6.46465
  441 -0.233969 -19.8573 7.31126
  442 -14.3553 0.856485 10.6654
  443 -14.3741 0.856999 -10.6766
  444 97.7602 1.41185 -0.348865
  445 97.7677 1.40956 0.348400
  446 -3.00094 -4.73404 7.48525
  447 -3.00472 -4.74341 -7.47552
  448 59.6864 2.31435 -24.5231
  449 59.5905 2.60927 24.8543
  450 0.502131 -38.3670 -7.31045
  451 347.289 13.1895 0.433997
  452 0.914089 -46.0335 -4.63760
  453 -42.0067 0.0725819 -1.44679
  454 -41.9814 0.0726789 1.44726
  455 -16.3537 2.20952 8.91086
  456 -16.3794 2.21416 -8.91712
  457 -18.3920 0.251792 6.30398
  458 -18.4026 0.251942 -6.31019
  459 65.6115 7.27229 -4.80682
  460 65.6240 7.26176 4.84548
  461 100.483 4.57247 -6.41140
  462 100.518 4.53624 6.42035
  463 -1.91365 -6.67977 13.9887
  464 -1.91520 -6.63445 -14.0443
  465 173.091 2.26780 -25.6933
  466 11.3622 -4.17590 -3.29791
  467 10.9690 -4.27104 3.49965
  468 2.64546 -42.3406 0.488656
  469 1.65993 -48.7833 -1.65711
  470 -5.43953 -2.46130 7.71393
  471 -5.44024 -2.46932 -7.71543
  472 36.1805 -7.85257 -38.1209
  473 273.186 -4.55488 -23.0581
  474 59.6967 4.46536 1.04778
  475 59.6944 4.47297 -1.04207
  476 87.1574 0.618291 -23.8504
  477 87.3949 0.587083 24.2531
  478 24.7594 9.07235 3.91328
  479 24.7198 9.09949 -3.89613
  480 78.6179 6.14631 -12.0961
  481 78.6715 6.10496 12.2029
  482 2.39399 1.20461 13.1073
  483 2.56930 1.29302 -13.0892
  484 -37.0688 0.588251 -2.85097
  485 -37.0429 0.587857 2.85081
  486 176.335 -21.1938 -12.1611
  487 140.981 0.455022 -0.742718
  488 140.999 0.454247 0.742315
  489 5.80458 1.30321 -1.10111
  490 5.81858 1.30434 1.10225
  491 -10.0110 3.33352 8.46097
  492 -10.0376 3.33959 -8.46380
  493 -21.7851 1.38220 -3.22959
  494 -21.7630 1.38169 3.23068
  495 59.6530 6.42544 -1.76279
  496 59.6580 6.41537 1.77824
  497 -8.02043 2.75244 11.6731
  498 -8.05101 2.76006 -11.6845
  499 161.636 -4.29908 -8.36994
  500 161.895 -4.54361 8.20696
  501 104.642 1.32792 -15.7784
  502 104.501 1.23551 15.9248
  503 37.8925 2.30636 -0.678011
  504 37.8987 2.30874 0.679122
  505 0.329715 -19.8648 -11.5711
  506 188.836 -7.20712 16.7497
  507 2.35588 -13.5348 -10.8165
  508 52.3343 8.70951 4.69130
  509 52.3542 8.69213 -4.62437
  510 174.389 -19.8349 11.9610
  511 12.6363 -22.1692 19.3609
  512 208.665 -28.9931 -24.7794
  513 141.551 1.00142 7.85121
  514 141.501 1.06824 -7.87454
  515 0.287870 -17.0604 12.0403
  516 -2.76227 -0.832206 -2.13344
  517 -2.76388 -0.832010 2.13529
  518 15.6491 1.29268 -0.370210
  519 15.6607 1.29395 0.370678
  520 -0.487662 -11.0340 4.77845
  521 -0.442465 -10.9808 -4.80161
  522 116.548 1.69078 1.69220
  523 116.536 1.69413 -1.69373
  524 332.773 56.0431 21.0647
  525 12.9588 -9.98417 -2.72371
  526 10.0430 -12.8889 0.638282
  527 -4.68335 2.69924 -4.45398
  528 -4.66341 2.69765 4.45617
  529 -28.7774 0.458982 3.81357
  530 -28.7947 0.459482 -3.81713
  531 0.277099 -35.8773 7.22360
  532 -41.5599 0.425697 0.454311
  533 -41.5839 0.425632 -0.453938
  534 34.8216 -4.94594 -27.6691
  535 34.0176 -4.27185 28.8340
  536 31.7818 4.99580 -8.59553
  537 31.5418 5.15424 8.68201
  538 -7.79738 -1.69218 10.6354
  539 -7.80627 -1.69798 -10.6478
  540 30.9566 3.35215 1.23988
  541 30.9489 3.34958 -1.23631
  542 -18.3676 0.959107 1.49293
  543 -18.3875 0.958787 -1.49181
  544 36.8654 5.98304 1.57243
  545 36.8573 5.98166 -1.56055
  546 -0.773144 -2.48166 1.81993
  547 -0.775668 -2.47913 -1.81946
  548 13.0482 5.60995 7.66110
  549 12.9627 5.69619 -7.68090
  550 10.5510 1.09990 6.92935
  551 10.3967 1.08479 -7.00805
  552 143.956 1.39911 3.32756
  553 143.938 1.40673 -3.33407
  554 126.706 2.17717 5.22478
  555 126.684 2.20033 -5.23428
  556 -0.131345 -29.9704 -4.46168
  557 87.7571 5.00951 -4.75958
  558 87.7778 4.98728 4.76863
  559 88.1857 2.63386 -1.65859
  560 88.1940 2.62661 1.65872
  561 -13.8123 0.651726 -0.0681080
  562 -13.7942 0.652246 0.0684241
  563 145.782 8.37290 -4.93993
  564 199.677 -26.5567 -7.89517
  565 159.666 7.09694 19.6614
  566 1.22414 -26.4581 -8.74331
  567 -9.96234 2.94360 -5.72358
  568 -9.93976 2.94080 5.72458
  569 1.23889 -15.5098 11.5505
  570 -9.14147 0.150254 12.3095
  571 -9.16094 0.150339 -12.3228
  572 253.666 24.5275 -2.20401
  573 56.6399 3.21673 -0.312931
  574 56.6394 3.21197 0.315256
  575 393.544 32.7589 -32.6533
  576 -2.23500 -1.77352 14.5153
  577 -2.11331 -1.67331 -14.5301
  578 211.114 -20.0902 10.8010
  579 170.809 0.398930 -4.02860
  580 170.812 0.373560 3.99557
  581 76.3470 -1.17066 -34.9386
  582 77.3179 -1.38613 35.5539
  583 -4.50226 -4.34596 12.3408
  584 -4.50502 -4.36623 -12.3687
  585 39.5578 2.46753 17.6730
  586 39.8901 2.14609 -17.4894
  587 -33.8617 0.401121 -3.63282
  588 -33.8384 0.400516 3.63016
  589 249.105 18.7510 18.4294
  590 45.9330 4.82038 -0.397062
  591 45.9358 4.82505 0.403383
  592 54.3966 6.69553 -11.8757
  593 54.3373 6.77838 12.0365
  594 153.590 0.0609962 -7.74349
  595 153.652 -0.0266845 7.70473
  596 -0.741606 -15.8930 -11.1441
  597 168.525 -0.0360333 1.19311
  598 168.501 -0.0348888 -1.19485
  599 -25.8718 0.631595 -0.628788
  600 -25.8509 0.631880 0.629443
  601 -44.5252 -0.237419 0.0370302
  602 -44.5495 -0.237563 -0.0368950
  603 3.36133 -24.8724 -4.76081
  604 -1.61285 -10.2407 9.45649
  605 -1.70094 -9.69850 -9.52001
  606 -19.4402 1.16439 8.92724
  607 -19.4608 1.16647 -8.93569
  608 116.167 3.37892 6.53091
  609 116.135 3.41472 -6.53537
  610 85.0642 1.66142 0.405743
  611 85.0597 1.66361 -0.405844
  612 18.5496 -7.18002 10.5690
  613 19.1818 -6.77607 -10.4478
  614 -0.609544 -7.68115 4.02544
  615 -0.627342 -7.65538 -4.03822
  616 201.871 8.24549 82.0343
  617 -9.90762 -0.317382 3.74449
  618 -9.90653 -0.318675 -3.74679
  619 3.29988 -15.2035 -8.96087
  620 83.0557 3.89608 -2.31896
  621 83.0648 3.88561 2.32096
  622 39.8275 8.63512 -3.03944
  623 39.7600 8.68546 3.10749
  624 0.412361 -54.7969 3.24509
  625 29.5719 8.65752 2.70292
  626 29.5451 8.67366 -2.68233
  627 -4.47057 3.64175 6.86191
  628 -4.49423 3.64639 -6.86096
  629 -0.240538 -26.5153 6.10137
  630 -44.0122 0.0937350 -1.42850
  631 -43.9860 0.0937107 1.42885
  632 53.9675 1.97785 -0.0682000
  633 53.9697 1.98089 0.0690743
  634 140.298 0.809548 2.16870
  635 140.282 0.813483 -2.17186
  636 122.488 -10.5739 62.6245
  637 98.3986 3.02702 -3.78207
  638 98.4148 3.01101 3.78252
  639 1.22177 -2.54456 13.6324
  640 1.56025 -1.64395 -13.6352
  641 158.185 -17.8342 -50.4272
  642 382.223 13.4665 -13.6092
  643 -40.0776 0.0565974 -2.54414
  644 -40.0513 0.0562147 2.54311
  645 7.90237 2.38396 -2.28915
  646 7.91661 2.38476 2.29157
  647 -0.773504 -16.7468 9.79748
  648 213.584 11.4438 -25.0257
  649 166.732 -0.124274 0.192932
  650 166.706 -0.124111 -0.193032
  651 -10.7655 -0.624995 -8.76829
  652 -10.7575 -0.622796 8.75974
  653 -0.0249545 -37.8339 -5.93013
  654 169.664 -0.165793 0.455554
  655 169.637 -0.165540 -0.455850
  656 14.0944 5.52812 5.09788
  657 14.0751 5.53253 -5.09103
  658 126.856 -11.6938 -32.7722
  659 129.290 -11.6650 33.1731
  660 188.416 -1.02971 2.65221
  661 188.510 -1.01382 -2.79139
  662 0.812166 -48.0982 4.82224
  663 -11.8815 0.547784 -0.883846
  664 -11.8636 0.548391 0.884533
  665 60.6565 -0.567521 -58.7853
  666 56.2379 1.82509 0.358229
  667 56.2400 1.82723 -0.357959
  668 26.7740 2.52056 0.683736
  669 26.7650 2.51845 -0.681836
  670 32.2035 4.10676 -1.14134
  671 32.2112 4.10950 1.14677
  672 108.367 3.51503 -10.0875
  673 108.439 3.45094 10.1103
  674 27.7691 8.29024 1.61747
  675 27.6928 8.34807 -1.59072
  676 -20.8811 1.57093 -5.32053
  677 -20.8572 1.56884 5.32009
  678 -23.9423 1.64256 -5.96589
  679 -23.9176 1.64015 5.96375
  680 193.093 -2.83110 -1.04006
  681 -0.00321356 -8.28824 -13.7474
  682 193.523 -2.97103 0.729915
  683 242.874 19.5575 0.955069
  684 -24.3654 0.108708 4.32163
  685 -24.3788 0.108830 -4.32598
  686 24.1157 6.75831 -0.0184211
  687 23.9462 6.85208 0.0519737
  688 -47.3615 0.0870307 -0.558116
  689 -47.3356 0.0870944 0.558498
  690 0.122332 -7.51566 13.8040
  691 -15.4036 0.172495 9.31064
  692 -15.4187 0.172439 -9.32022
  693 211.418 -18.9245 -11.6548
  694 31.7751 1.27918 -0.116742
  695 31.7672 1.27751 0.117203
  696 6.21324 3.36449 3.66429
  697 6.19684 3.36492 -3.66072
  698 110.192 -5.42590 -27.2192
  699 111.095 -5.63952 27.7951
  700 398.195 27.7727 30.0010
  701 7.13426 -39.9124 -11.2266
  702 -2.95690 -6.14940 13.2465
  703 -2.96419 -6.17072 -13.2714
  704 22.1007 5.54827 -3.07350
  705 22.1144 5.54729 3.08127
  706 174.376 -0.121778 -1.22531
  707 174.400 -0.123017 1.22256
  708 81.1595 1.96138 0.600312
  709 81.1552 1.96508 -0.600409
  710 5.93677 5.92219 10.3416
  711 5.89975 5.94096 -10.3462
  712 2.59501 1.84011 1.62087
  713 2.58009 1.83922 -1.61938
  714 -5.29972 0.979503 13.7483
  715 -5.33084 0.982482 -13.7691
  716 142.511 0.269490 0.895110
  717 142.493 0.270815 -0.896183
  718 122.702 1.57233 2.44468
  719 122.689 1.57751 -2.44731
  720 15.7107 -13.0587 12.9831
  721 16.2036 -13.8209 -12.4901
  722 -10.0715 2.00753 11.9969
  723 -10.0985 2.01139 -12.0104
  724 4.75719 -12.7966 7.35565
  725 -0.187582 3.43215 12.9287
  726 -0.235742 3.44480 -12.9343
  727 -28.4027 0.871217 -3.58095
  728 -28.3786 0.870453 3.58117
  729 20.1524 7.08772 4.92888
  730 20.1282 7.09715 -4.91728
  731 189.742 -5.90961 -11.5272
  732 179.878 -15.9858 -3.18048
  733 -2.96888 -6.05746 9.28601
  734 -2.96399 -6.08395 -9.27228
  735 68.3103 -2.12177 -41.2841
  736 66.4657 -0.572598 41.7625
  737 41.1393 7.88809 -5.30039
  738 41.0458 7.96705 5.39566
  739 3.36890 -7.61041 11.4117
  740 -0.271702 -19.5370 -5.27266
  741 87.5735 5.26168 -9.18693
  742 87.6283 5.21942 9.23983
  743 0.243529 -38.6075 4.93474
  744 51.5703 7.68439 -1.71997
  745 51.5672 7.68073 1.74819
  746 182.849 -0.00194473 -3.06335
  747 182.822 -0.0269347 3.01042
  748 3.43050 -54.5106 0.256526
  749 80.5360 6.54350 6.78633
  750 80.5064 6.57212 -6.75327
  751 21.0764 7.45218 -3.58356
  752 21.1811 7.37177 3.58845
  753 -33.1891 0.222111 -3.04481
  754 -33.1687 0.221782 3.04204
  755 89.9836 2.13138 -1.50048
  756 89.9907 2.12641 1.50013
  757 54.5610 8.31500 -3.83760
  758 54.5540 8.31815 3.88719
  759 -0.518636 4.90699 10.1581
  760 -0.551072 4.91912 -10.1612
  761 180.446 -13.6364 1.01414
  762 -29.4964 0.728027 2.74984
  763 -29.5198 0.728163 -2.74911
  764 397.426 72.3586 -51.1106
  765 -12.1249 1.30209 2.98313
  766 -12.1443 1.30190 -2.98157
  767 154.130 0.811782 5.52896
  768 154.111 0.844432 -5.55625
  769 286.125 18.8121 0.584153
  770 175.558 -0.338342 -2.34595
  771 175.572 -0.343014 2.33681
  772 110.759 2.15446 3.02262
  773 110.746 2.16308 -3.02520
  774 166.110 -20.4899 45.9030
  775 70.9571 5.82088 -2.18768
  776 70.9672 5.80780 2.19748
  777 1.55213 -30.1846 6.63038
  778 190.965 -25.1023 13.8032
  779 115.668 0.824771 0.531744
  780 115.657 0.826317 -0.532059
  781 152.924 0.358910 0.285515
  782 152.902 0.359216 -0.285690
  783 -0.715324 -15.5864 -9.14669
  784 0.865805 -27.0618 9.27221
  785 66.9515 7.75239 9.43523
  786 66.9364 7.75762 -9.34064
  787 395.640 4.43724 3.22609
  788 116.784 1.40070 -12.7357
  789 116.880 1.32379 12.7638
  790 -25.1004 0.836696 6.73993
  791 -25.1238 0.838660 -6.74466
  792 4.69732 -22.7421 2.89374
  793 3.08212 -51.1619 -2.44776
  794 268.592 34.3836 -1.55570
  795 -0.243061 -19.4707 4.75650
  796 4.80641 3.55778 11.8360
  797 4.79389 3.55927 -11.8764
  798 34.5116 7.39025 1.93817
  799 34.4989 7.39390 -1.92217
  800 179.376 -8.10072 -2.06111
  801 179.616 -8.03508 1.36149
  802 213.597 23.6176 -77.4572
  803 -30.4333 0.439825 -1.34124
  804 -30.4106 0.439999 1.34208
  805 -13.6131 -0.0649085 3.53972
  806 -13.6143 -0.0654134 -3.54278
  807 12.3110 0.143974 4.57873
  808 12.0484 0.127887 -4.59248
  809 135.255 -0.382560 11.5035
  810 135.147 -0.250902 -11.4917
  811 68.0340 2.38316 -0.176595
  812 68.0355 2.37944 0.177130
  813 219.229 -5.10650 23.1769
  814 21.6603 4.05165 -2.71615
  815 21.6721 4.05269 2.72158
  816 20.5955 1.94494 -2.04893
  817 20.4086 2.05573 2.11307
  818 -0.180550 -15.7132 -12.5036
  819 314.168 42.6695 40.3873
  820 -45.9990 0.0756948 -1.41150
  821 -45.9717 0.0756145 1.41162
  822 -0.0683210 -47.2706 4.73396
  823 2.95845 -7.50318 -11.5108
  824 -6.72580 -0.421370 2.61411
  825 -6.72213 -0.422319 -2.61452
  826 248.617 12.0028 -17.6865
  827 63.0735 6.81904 -2.73222
  828 63.0820 6.80780 2.75585
  829 170.415 -2.18251 -5.76076
  830 170.545 -2.21880 5.64586
  831 -43.8178 0.360911 1.84535
  832 -43.8451 0.361155 -1.84575
  833 -0.298527 -0.310101 -0.248463
  834 -0.299118 -0.310667 0.249427
  835 0.161401 -48.3767 -4.66122
  836 0.230265 -51.3473 -4.38259
  837 -48.9449 0.504984 0.302631
  838 -48.9701 0.504994 -0.302467
  839 24.8486 -11.3791 -26.3380
  840 104.892 1.82030 -0.820848
  841 104.902 1.81761 0.820020
  842 -5.08114 1.12013 0.384286
  843 -5.09737 1.11947 -0.384108
  844 157.378 0.748079 -3.69465
  845 157.393 0.736556 3.68143
  846 -17.9277 0.120714 3.37525
  847 -17.9325 0.120752 -3.37846
  848 93.5671 -1.99643 -62.8753
  849 163.082 -14.1271 12.1114
  850 128.449 1.02483 -1.09643
  851 128.464 1.02289 1.09514
  852 161.496 -15.4027 -13.6443
  853 49.1780 6.07109 -0.235905
  854 49.1764 6.06504 0.249441
  855 68.6473 5.11478 -1.58187
  856 68.6537 5.10463 1.58812
  857 189.892 -4.12361 8.78236
  858 10.7437 6.67918 8.79308
  859 10.7004 6.70575 -8.80105
  860 10.3766 1.16655 0.799503
  861 10.3637 1.16533 -0.798733
  862 88.7689 1.70364 0.666274
  863 88.7632 1.70648 -0.666573
  864 236.425 -24.5748 23.9411
  865 147.280 1.23863 -4.78500
  866 147.300 1.21706 4.76724
  867 0.676095 2.47471 2.91427
  868 0.659466 2.47452 -2.91179
  869 148.054 0.163940 1.32762
  870 148.035 0.165494 -1.32927
  871 -29.0453 0.307678 -0.776109
  872 -29.0241 0.307968 0.776180
  873 -0.137306 -14.8725 4.22761
  874 -0.178304 -15.1052 -4.26148
  875 174.671 -2.84130 20.4910
  876 -11.4372 2.71077 10.2546
  877 -11.4647 2.71727 -10.2625
  878 -0.0639493 -24.5766 -4.69618
  879 68.7115 3.13470 -0.763688
  880 68.7139 3.12975 0.764892
  881 127.571 -6.55574 -20.6558
  882 128.612 -7.26248 20.8664
  883 -5.76565 -2.11676 -13.3243
  884 -5.74415 -2.11908 13.3021
  885 6.06403 6.07420 9.53580
  886 6.02929 6.09003 -9.53615
  887 0.630038 -57.1136 3.46125
  888 1.06154 4.60481 11.9167
  889 1.02158 4.61895 -11.9229
  890 117.631 -2.01882 -18.3188
  891 117.391 -2.13578 18.4678
  892 203.757 10.1951 25.7381
  893 45.7243 5.69162 -0.296471
  894 45.7276 5.69681 0.306006
  895 151.479 1.29153 -3.60438
  896 151.495 1.28201 3.59503
  897 -6.06487 -2.70353 11.6285
  898 -6.07377 -2.71230 -11.6460
  899 0.506409 -59.3509 -2.55553
  900 -9.31717 -0.701625 11.4454
  901 -9.33130 -0.702338 -11.4584
  902 4.64680 5.60024 -7.58037
  903 4.67352 5.59072 7.58306
  904 -0.468476 -3.69955 2.05739
  905 -0.473596 -3.69547 -2.06029
  906 11.7153 6.30302 -6.96392
  907 11.7437 6.29127 6.97007
  908 2.39245 -5.11157 12.7043
  909 2.05160 -4.76214 -13.2801
  910 145.780 -3.90928 11.6405
  911 145.418 -3.69011 -11.7338
  912 -49.7825 0.183588 -0.443896
  913 -49.7566 0.183644 0.444150
  914 -4.11237 -0.379240 1.95528
  915 -4.10827 -0.379796 -1.95442
  916 0.205031 -35.0122 -4.30787
  917 -4.49501 -1.94790 -5.59872
  918 -4.49452 -1.94366 5.60026
  919 -19.4559 1.59820 8.66133
  920 -19.4796 1.60156 -8.66851
  921 44.1461 8.90760 -1.58282
  922 44.1222 8.92680 1.62584
  923 190.108 15.5110 -4.61223
  924 -3.19596 4.41915 9.24027
  925 -3.22481 4.42804 -9.24233
  926 70.4131 4.27175 -18.8301
  927 70.4405 4.33532 19.0762
  928 -9.65351 3.14299 7.46825
  929 -9.67852 3.14823 -7.46949
  930 236.738 -13.9955 -7.17100
  931 135.905 5.44696 11.0623
  932 168.550 -2.48471 -18.5386
  933 127.622 2.20222 -7.79777
  934 127.666 2.15169 7.78739
  935 -14.9179 1.97905 -3.81754
  936 -14.8967 1.97797 3.81890
  937 -31.4389 0.592697 4.39350
  938 -31.4638 0.593844 -4.39551
  939 -1.87311 -6.00346 -6.50690
  940 -1.86126 -6.01049 6.52017
  941 43.8405 3.40950 -0.238791
  942 43.8444 3.41323 0.241886
  943 -14.7897 1.44333 10.6450
  944 -14.8116 1.44535 -10.6563
  945 154.625 0.221107 1.77234
  946 154.605 0.222953 -1.77464
  947 -1.20678 -13.2860 9.95254
  948 4.47752 5.20358 -6.57125
  949 4.50096 5.19711 6.57469
  950 6.45679 3.75516 4.46750
  951 6.43898 3.75683 -4.46359
  952 24.8335 2.85671 -1.38262
  953 24.8430 2.85863 1.38513
  954 291.526 32.4091 -2.91674
  955 -1.11330 -0.314528 -0.761201
  956 -1.11569 -0.314578 0.762624
  957 9.20850 2.18927 -8.44233
  958 9.36752 2.10178 8.42313
  959 102.304 4.64736 -7.97404
  960 102.350 4.60118 7.98953
  961 11.8141 4.67645 -4.35910
  962 11.8316 4.67423 4.36453
  963 27.4843 -13.0608 35.8782
  964 195.968 -1.28197 -1.37964
  965 195.583 -1.23175 1.17755
  966 33.1837 -6.97092 30.7985
  967 34.5518 2.02362 0.101243
  968 34.5447 2.02172 -0.100437
  969 92.5524 -5.28331 -54.2512
  970 69.8061 1.77737 0.385539
  971 69.8052 1.77953 -0.385433
  972 8.48573 -10.6895 3.26081
  973 9.38033 -9.18402 -2.55128
  974 174.254 -0.0786096 0.616054
  975 174.227 -0.0783236 -0.616449
  976 -14.3843 0.0180049 8.40887
  977 -14.3952 0.0176088 -8.41709
  978 311.419 38.4733 14.8765
  979 -1.45208 -10.1621 -13.2590
  980 1.33381 -52.8489 4.27114
  981 -0.315418 -16.0330 12.2794
  982 179.908 0.0260667 -2.39461
  983 179.912 0.0192049 2.37994
  984 -2.38464 -4.34796 5.60999
  985 -2.39035 -4.34678 -5.60328
  986 220.339 22.2998 -15.5702
  987 402.001 3.97544 -2.17361
  988 -0.579745 -0.851083 -0.828461
  989 -0.579187 -0.852876 0.829649
  990 102.919 1.74720 -1.67037
  991 102.928 1.74309 1.66931
  992 -1.50344 -9.79171 13.3420
  993 144.117 1.09198 7.04194
  994 144.085 1.14093 -7.06638
  995 189.012 -12.8883 -9.25223
  996 -6.66332 -1.42192 6.35406
  997 -6.66409 -1.42666 -6.35597
  998 2.81790 -13.3113 10.0568
  999 -0.345911 -23.9186 9.62928
  1000 -0.0254156 -24.3729 4.68467
  1001 189.199 13.0066 -1.00713
  1002 219.306 24.0164 9.63936
  1003 158.051 -18.9532 -24.7748
  1004 2.11127 -24.0660 8.21312
  1005 2.71860 -34.9322 2.62834
  1006 42.5124 1.57511 0.208296
  1007 42.5070 1.57328 -0.208116
  1008 -1.76620 -2.01042 -2.65403
  1009 -1.76497 -2.01129 2.65646
  1010 1.36713 -19.7553 -10.6357
  1011 128.288 0.617257 -0.401772
  1012 128.302 0.616166 0.401362
  1013 24.5417 -1.63456 -10.5624
  1014 23.4632 -1.57040 10.4629
  1015 -3.08768 3.82946 11.9136
  1016 -3.12513 3.84173 -11.9238
  1017 -16.0659 2.37689 -7.46255
  1018 -16.0408 2.37282 7.45986
  1019 96.0959 1.61716 -18.6656
  1020 96.1796 1.68403 18.8887
  1021 68.6357 6.24123 -12.5521
  1022 68.6469 6.23289 12.6962
  1023 74.9449 6.04322 -3.88914
  1024 74.9596 6.02448 3.90373
  1025 197.049 -6.37487 -24.6473
  1026 -5.81756 2.30696 12.8855
  1027 -5.85180 2.31318 -12.9032
  1028 139.957 0.260244 9.55181
  1029 139.883 0.360577 -9.57054
  1030 -1.12397 -7.80448 14.0283
  1031 -11.4233 -0.404442 6.16003
  1032 -11.4268 -0.406042 -6.16520
  1033 127.275 1.64835 -9.45363
  1034 127.338 1.57778 9.44686
  1035 153.231 3.32724 -17.5758
  1036 -0.243385 -23.8362 -10.1153
  1037 -1.97594 -9.41799 11.8338
  1038 -2.05496 -9.51886 -11.7292
  1039 88.8815 5.77057 -6.36348
  1040 88.9147 5.73751 6.38436
  1041 113.352 2.61874 3.77125
  1042 113.336 2.63113 -3.77494
  1043 188.629 -12.5846 8.12410
  1044 7.57725 1.27060 -0.227122
  1045 7.59068 1.27158 0.227345
  1046 159.987 -21.2295 26.4695
  1047 -2.67381 0.922026 1.02038
  1048 -2.68967 0.921133 -1.01957
  1049 33.2154 8.89777 1.37076
  1050 33.1797 8.92233 -1.34153
  1051 11.9592 6.97495 7.60990
  1052 11.9261 6.99085 -7.60506
  1053 1.66098 -29.8261 -6.88259
  1054 44.8843 2.23420 -0.329969
  1055 44.8884 2.23746 0.331809
  1056 131.264 4.58817 4.52621
  1057 129.256 1.46051 3.58226
  1058 129.239 1.47112 -3.58808
  1059 -0.996733 -8.07208 -14.0482
  1060 194.886 -2.43498 -4.58729
  1061 -0.432624 -1.05429 14.1488
  1062 -0.291988 -0.928845 -14.0947
  1063 179.083 -0.225250 -1.31567
  1064 179.104 -0.226787 1.31165
  1065 190.466 -0.532684 -2.29496
  1066 190.376 -0.559628 2.21938
  1067 -0.146385 -36.9737 3.54517
  1068 110.022 3.37173 -5.02628
  1069 110.041 3.35205 5.02312
  1070 134.807 1.67498 4.22658
  1071 134.789 1.68821 -4.23504
  1072 2.37920 2.86573 12.9658
  1073 2.36808 2.87007 -12.9694
  1074 294.154 20.4538 2.32153
  1075 -4.04754 -1.88026 14.2973
  1076 -4.09721 -1.84446 -14.3269
  1077 40.2496 8.46692 0.596028
  1078 40.2369 8.47265 -0.572506
  1079 -25.1228 0.604305 -1.44960
  1080 -25.1017 0.604640 1.45039
  1081 66.9854 3.36636 -21.7929
  1082 66.9186 3.56340 22.1005
  1083 18.4737 7.86047 6.18008
  1084 18.4367 7.88056 -6.17035
  1085 45.1072 4.57274 -15.5219
  1086 44.8823 4.81088 15.6933
  1087 -1.28422 -12.4648 -9.68846
  1088 161.266 1.80259 22.6258
  1089 114.583 -3.10292 71.0784
  1090 17.3806 7.96277 6.39695
  1091 17.3349 7.99146 -6.39102
  1092 68.4105 4.26381 -1.12133
  1093 68.4154 4.25526 1.12520
  1094 254.856 -2.28324 10.1478
  1095 15.3265 3.43761 4.63652
  1096 15.1311 3.49478 -4.68469
  1097 -7.61614 -1.71218 8.49703
  1098 -7.61986 -1.71916 -8.50344
  1099 -0.251054 -5.53212 2.25332
  1100 -0.260558 -5.52824 -2.26207
  1101 167.074 0.162824 5.74708
  1102 167.046 0.232818 -5.80740
  1103 0.0947484 -12.3780 13.2105
  1104 -11.7630 0.647403 -11.5317
  1105 -11.7442 0.647377 11.5195
  1106 0.0648291 -45.0650 -4.60905
  1107 -2.87454 -3.99503 14.2700
  1108 -2.86858 -3.91848 -14.2831
  1109 160.312 0.462798 -2.42170
  1110 160.331 0.458648 2.41648
  1111 164.434 -0.912782 6.80133
  1112 164.347 -0.801538 -6.86589
  1113 27.3355 5.62052 -4.16740
  1114 27.1295 5.75328 4.23636
  1115 -0.411627 -23.2125 -8.12055
  1116 217.157 -23.5434 -40.5626
  1117 282.242 32.6922 -2.77865
  1118 2.70067 -36.9648 -1.63615
  1119 9.17095 5.40729 -9.88536
  1120 9.22280 5.37324 9.85298
  1121 25.4220 8.59429 3.54811
  1122 25.3692 8.63101 -3.52972
  1123 55.1743 3.88691 0.0849780
  1124 55.1743 3.89286 -0.0810806
  1125 -3.73144 -5.31563 11.0319
  1126 -3.72488 -5.36268 -11.0458
  1127 -11.2100 3.24007 9.51391
  1128 -11.2373 3.24664 -9.51904
  1129 -4.49307 4.02107 11.0566
  1130 -4.52615 4.03145 -11.0639
  1131 156.041 -7.90170 -11.2517
  1132 157.091 -7.99607 11.1213
  1133 0.105713 -27.0069 -9.68502
  1134 81.7651 -0.807265 -27.7914
  1135 81.9319 -0.540419 28.3133
  1136 25.2490 8.08652 -3.69217
  1137 25.2731 8.07347 3.70770
  1138 84.3536 29.1366 79.7496
  1139 19.4244 6.60183 4.69063
  1140 19.4041 6.60799 -4.68082
  1141 214.434 -25.2698 -7.94232
  1142 79.5735 2.80667 0.989590
  1143 79.5681 2.81258 -0.989006
  1144 -3.68292 -3.29567 6.68466
  1145 -3.68420 -3.30245 -6.68091
  1146 -4.41958 -3.98241 8.68615
  1147 -4.41791 -3.99670 -8.68499
  1148 139.086 -15.3746 -39.8368
  1149 142.139 -16.8322 40.1554
  1150 23.4101 1.38743 0.123755
  1151 23.4199 1.38900 -0.122911
  1152 86.3708 4.19654 -14.9228
  1153 86.3988 4.13253 15.0943
  1154 192.232 -27.4300 29.8822
  1155 172.961 -0.272782 0.365057
  1156 172.933 -0.272573 -0.365119
  1157 -16.1572 2.45023 8.46893
  1158 -16.1830 2.45470 -8.47351
  1159 -27.3994 0.906761 -4.52147
  1160 -27.3749 0.905703 4.52119
  1161 42.2789 -3.57399 46.5522
  1162 126.759 8.95091 -9.14436
  1163 78.9966 6.15258 -6.96293
  1164 79.0312 6.12424 7.00822
  1165 252.255 -12.1551 43.3118
  1166 80.2447 5.80720 -10.6748
  1167 80.2898 5.76644 10.7540
  1168 18.7691 3.01100 -1.90468
  1169 18.7805 3.01267 1.90768
  1170 6.69636 -29.0234 3.25801
  1171 6.78199 -28.4362 -5.07158
  1172 109.321 -8.72961 -40.1426
  1173 110.920 -8.22152 40.1572
  1174 41.8627 6.50690 -10.3981
  1175 41.6941 6.66026 10.5378
  1176 194.718 -13.7231 -16.4152
  1177 -7.42301 -0.742412 12.9808
  1178 -7.44332 -0.740966 -12.9967
  1179 -0.276488 -11.0908 -13.5556
  1180 48.1356 -0.368001 -28.8678
  1181 48.2677 -0.185377 29.4269
  1182 -0.127385 -9.84474 2.52213
  1183 -0.108480 -9.86771 -2.55219
  1184 -47.9077 0.416071 -1.31588
  1185 -47.8796 0.415912 1.31580
  1186 156.582 0.199330 -0.635682
  1187 156.604 0.198627 0.634757
  1188 94.8851 4.09747 -4.08319
  1189 94.9052 4.07743 4.08648
  1190 -3.89812 -0.277295 14.3713
  1191 -3.90911 -0.222222 -14.3959
  1192 0.0266697 -40.0212 -3.96579
  1193 -40.4732 0.105611 2.06754
  1194 -40.4988 0.105866 -2.06882
  1195 29.5259 -2.85555 -19.6373
  1196 29.2930 -2.66644 20.3311
  1197 181.269 -11.1686 0.538826
  1198 50.1116 1.97760 -25.8608
  1199 50.1623 2.15285 26.1682
  1200 -22.2294 0.115387 3.07980
  1201 -22.2378 0.115351 -3.08292
  1202 0.551944 -35.8057 -7.01973
  1203 -8.20568 1.62460 -1.93658
  1204 -8.18798 1.62510 1.93800
  1205 25.8708 6.95947 3.70038
  1206 25.8522 6.96513 -3.68752
  1207 101.455 1.11235 -0.574527
  1208 101.463 1.11047 0.574352
  1209 137.967 1.08432 2.73093
  1210 137.950 1.09090 -2.73572
  1211 6.97658 -1.81262 8.65432
  1212 6.87231 -1.93359 -8.77853
  1213 1.14406 -20.8170 10.5692
  1214 246.467 32.1433 13.0166
  1215 -7.62786 -0.614414 4.81422
  1216 -7.62730 -0.616766 -4.81591
  1217 0.891710 -19.4835 -10.9763
  1218 -0.747618 -11.6304 7.06608
  1219 -0.707166 -11.5363 -7.32443
  1220 195.930 -2.09387 4.08971
  1221 0.181963 -45.9137 4.07959
  1222 1.23715 -14.4471 -12.2293
  1223 21.5435 1.15684 0.304817
  1224 21.5333 1.15549 -0.304638
  1225 -2.04965 -8.53920 13.0808
  1226 -22.8397 1.33833 -3.91395
  1227 -22.8167 1.33750 3.91463
  1228 409.365 7.39251 11.2016
  1229 -11.7446 1.24321 11.7214
  1230 -11.7671 1.24449 -11.7345
  1231 92.5151 4.03054 -13.5114
  1232 92.6129 3.94794 13.6009
  1233 5.69498 -10.4556 -6.10035
  1234 88.2556 5.13019 -5.16311
  1235 88.2815 5.10341 5.17650
  1236 3.47417 -29.4803 -2.59593
  1237 -2.05363 -8.55003 -13.0502
  1238 -16.6629 0.804531 2.43196
  1239 -16.6828 0.804169 -2.43072
  1240 -7.20195 0.354343 -13.3479
  1241 -7.17756 0.354217 13.3334
  1242 187.797 14.7863 18.5463
  1243 107.465 1.55710 -14.5210
  1244 107.607 1.50742 14.5581
  1245 -50.5032 0.147511 -0.525687
  1246 -50.4762 0.147519 0.525989
  1247 97.2514 2.96145 -2.79935
  1248 97.2623 2.95255 2.79856
  1249 -52.1606 -0.834658 -0.129645
  1250 -52.1861 -0.834835 0.129706
  1251 145.371 -10.4752 -16.6023
  1252 -23.4961 0.383547 6.59997
  1253 -23.5140 0.384160 -6.60646
  1254 146.912 -11.0559 16.4487
  1255 98.7419 4.21363 -5.82590
  1256 98.7678 4.18510 5.83054
  1257 11.2132 -33.3570 -19.5553
  1258 0.204646 -32.5991 -8.33542
  1259 -0.749247 -13.7792 12.2810
  1260 318.843 45.8227 -39.6241
  1261 -0.0848577 -30.4118 8.05245
  1262 330.326 30.9845 -17.7584
  1263 -0.145764 -56.2105 -3.91016
  1264 14.0182 1.95167 -0.826114
  1265 14.0303 1.95308 0.827746
  1266 -0.144020 -12.6559 2.64516
  1267 -0.117406 -12.7214 -2.63647
  1268 54.1786 1.94071 -0.151959
  1269 54.1811 1.94313 0.152406
  1270 197.144 -15.7078 15.6970
  1271 2.30107 1.78146 -2.24719
  1272 2.31637 1.78224 2.24896
  1273 1.14542 -62.9293 2.27414
  1274 0.727982 -66.8088 -2.23249
  1275 181.320 -23.5832 -17.3906
  1276 -0.519654 -16.6777 7.84451
  1277 186.866 11.3251 -22.8853
  1278 -0.569225 -21.9822 7.72913
  1279 0.367986 -60.8699 -3.15384
  1280 90.4667 3.19916 -2.94499
  1281 90.4794 3.18501 2.94664
  1282 -0.0609122 -32.5653 3.49209
  1283 -0.0912449 -27.2549 -7.91011
  1284 441.990 72.3147 63.6242
  1285 173.812 0.222065 0.288753
  1286 173.783 0.222024 -0.288696
  1287 4.03732 -0.197676 11.9283
  1288 3.90220 -0.0128163 -11.9727
  1289 -3.19409 2.29825 13.6498
  1290 -3.24984 2.30598 -13.6710
  1291 181.899 -3.54961 -13.2105
  1292 169.618 -6.97431 -6.17787
  1293 169.412 -7.97390 6.19858
  1294 23.7415 3.37567 2.00102
  1295 23.7311 3.37363 -1.99684
  1296 -28.6590 0.780930 -5.27829
  1297 -28.6346 0.779448 5.27513
  1298 189.330 -27.6367 -25.1522
  1299 -1.42753 -3.42509 3.47779
  1300 -1.43268 -3.42183 -3.47576
  1301 199.058 -9.35040 23.2325
  1302 -2.15290 -8.02086 9.51457
  1303 -2.12982 -8.04917 -9.47032
  1304 -19.2598 1.35092 2.87734
  1305 -19.2809 1.35109 -2.87610
  1306 28.9411 2.27499 -9.46827
  1307 28.6430 2.45333 9.47700
  1308 45.7808 1.84397 0.410729
  1309 45.7764 1.84152 -0.410048
  1310 -20.0500 1.96601 8.28994
  1311 -20.0744 1.96941 -8.29542
  1312 162.708 0.632973 0.449247
  1313 162.684 0.632922 -0.449207
  1314 87.3662 -2.73042 53.7875
  1315 131.981 0.736395 0.958938
  1316 131.966 0.737681 -0.959702
  1317 85.8313 1.71585 -21.0608
  1318 85.8723 1.60705 21.2728
  1319 0.797954 -36.5055 -5.40680
  1320 32.5368 7.68978 -3.23602
  1321 32.4040 7.78838 3.30802
  1322 -0.312268 -0.299413 -0.420795
  1323 -0.313814 -0.299560 0.422009
  1324 111.870 3.95942 7.73756
  1325 111.829 4.00692 -7.73563
  1326 54.5089 5.08230 0.558585
  1327 54.5081 5.08955 -0.550930
  1328 81.2333 5.17950 -3.32808
  1329 81.2490 5.16175 3.33648
  1330 107.611 1.19104 -0.955601
  1331 107.621 1.18913 0.955154
  1332 -3.44940 -1.68447 -3.93236
  1333 -3.44940 -1.68294 3.93493
  1334 -34.3665 0.137932 1.71298
  1335 -34.3904 0.137884 -1.71224
  1336 -5.96331 -2.77655 -9.73631
  1337 -5.96065 -2.76388 9.72844
  1338 -20.4928 0.507938 0.742559
  1339 -20.5124 0.507460 -0.742156
  1340 -52.6159 0.506463 0.304148
  1341 -52.6420 0.506491 -0.303980
  1342 204.316 -27.8934 34.8356
  1343 142.856 -1.09499 -18.2451
</Section>

newXOutput 25

<Section columns = "stress_xx | stress_yy | stress_xy">
  1 186.835 -0.182501 0.175176
  2 186.868 -0.182603 -0.175263
  3 -59.2113 0.314940 -0.795851
  4 0.0958868 0.0274960 0.168187
  5 345.078 86.8218 106.880
  6 389.779 99.2083 -102.039
  7 0.0955455 0.0271712 -0.167736
  8 -59.1827 0.314928 0.795741
  9 186.243 -0.166757 -0.611671
  10 186.369 -0.486496 -1.00694
  11 188.143 -0.471852 -0.252925
  12 188.288 -0.428039 -1.15420
  13 188.664 -0.409046 -0.325389
  14 192.664 -0.412691 -0.464835
  15 193.983 -0.639619 -1.54459
  16 195.337 -0.256880 -1.03812
  17 196.120 0.229584 -2.00683
  18 204.206 -1.00621 -1.72177
  19 207.555 -0.739774 -2.24104
  20 211.168 -1.19268 -0.774706
  21 212.746 -1.64282 -0.374289
  22 210.605 -1.95023 3.06390
  23 202.526 -2.23801 6.28640
  24 184.095 -2.64476 13.2021
  25 154.938 1.27975 15.2805
  26 130.463 1.46129 14.3869
  27 96.9126 3.54365 8.73743
  28 103.555 3.45615 0.620920
  29 84.7323 10.4949 -5.65211
  30 122.915 4.70454 -15.4170
  31 144.481 1.01924 -12.6771
  32 180.013 -0.650280 -10.9639
  33 199.786 -2.71521 -7.48884
  34 210.139 -2.27869 -3.06182
  35 212.214 -1.58479 0.376946
  36 210.790 -1.17503 0.708666
  37 207.375 -0.745977 2.16354
  38 204.118 -1.02167 1.67559
  39 196.103 0.220376 1.98303
  40 195.345 -0.260368 1.02854
  41 194.005 -0.641677 1.54052
  42 192.692 -0.413741 0.462765
  43 188.694 -0.409613 0.324331
  44 188.320 -0.428555 1.15410
  45 188.176 -0.472197 0.252775
  46 186.402 -0.486737 1.00723
  47 186.276 -0.166848 0.611852
  48 175.751 0.657344 -0.219383
  49 162.271 0.495012 -0.511229
  50 145.505 -0.0663631 -0.546816
  51 128.209 1.01218 -0.454871
  52 113.148 0.944775 -0.366742
  53 97.1069 1.47686 -0.437943
  54 81.3487 2.28161 -0.286786
  55 65.0642 2.08843 -0.558243
  56 51.6092 1.58781 -0.765886
  57 34.0195 1.14438 -0.806527
  58 16.2086 1.42171 -0.610126
  59 1.37642 1.16182 -0.589146
  60 -17.0779 0.727510 -0.546522
  61 -30.7942 -0.00202737 -1.27225
  62 -44.0653 -0.823154 -0.588751
  63 -57.4848 0.149868 0.368666
  64 -60.3353 1.04169 -0.179276
  65 -60.4808 0.475820 0.134829
  66 -58.4432 0.256785 -0.114890
  67 -58.9187 0.679845 -0.763553
  68 -57.9058 0.817301 -0.136404
  69 -54.6991 0.266971 -1.15551
  70 -55.1387 0.501278 -1.23309
  71 -53.6520 0.479165 -0.724166
  72 -49.6053 0.310404 -1.06248
  73 -47.5932 0.531735 -1.70782
  74 -44.6214 0.586947 -1.42269
  75 -39.3994 0.302462 -2.39109
  76 -36.4454 0.0925349 -2.00093
  77 -31.2046 0.133324 -2.29047
  78 -26.6685 0.0909625 -2.51432
  79 -22.7520 0.0271287 -1.98358
  80 -17.3617 0.112019 -1.99381
  81 -12.7303 -0.0579246 -2.12404
  82 -8.25339 -0.237233 -1.85139
  83 -4.71910 -0.206749 -1.41035
  84 -2.30066 -0.355921 -1.17222
  85 -0.354840 -0.205239 -0.410332
  86 0.0475624 -0.223893 -0.140671
  87 -0.121883 -0.102489 -0.0178084
  88 -0.320695 -0.272670 -0.358193
  89 -0.310685 -1.94090 -1.01563
  90 -0.268648 -4.38814 -1.46009
  91 -0.141706 -7.54732 -2.13706
  92 -0.0762260 -11.6177 -1.84517
  93 -0.0716667 -15.3891 -2.32465
  94 -0.289755 -20.0313 -2.63487
  95 -0.117862 -25.7365 -2.67371
  96 0.0557793 -31.4868 -2.56839
  97 0.126239 -37.6646 -2.54041
  98 0.189527 -44.0358 -2.50944
  99 0.0267245 -48.8120 -3.40650
  100 0.342002 -55.5121 -3.05713
  101 0.409552 -63.3899 -2.48693
  102 0.0151654 -67.0930 -3.30972
  103 0.581445 -73.0779 -3.10418
  104 1.38583 -81.0823 -1.68642
  105 2.68589 -83.7163 -2.66962
  106 1.78287 -78.1983 1.16888
  107 2.39312 -61.6809 6.49031
  108 14.2379 -40.9853 20.9982
  109 46.0997 49.2870 77.8559
  110 534.689 27.3790 51.6191
  111 457.727 8.66636 19.0111
  112 442.987 3.44667 4.19576
  113 439.981 1.43797 -0.711551
  114 442.805 5.14218 -10.0529
  115 455.926 15.4832 -22.2723
  116 519.049 53.6475 -65.3005
  117 108.870 37.6931 -95.3956
  118 23.3435 -40.3113 -26.2340
  119 6.79767 -67.4107 -9.30379
  120 1.84508 -74.2844 -1.33460
  121 2.14451 -80.7214 1.67451
  122 0.628405 -78.0111 1.36026
  123 0.247684 -71.2658 2.69601
  124 0.255426 -66.8671 2.15068
  125 0.349619 -60.0056 3.48691
  126 -0.0169589 -55.9743 3.34918
  127 0.138915 -50.4812 2.42108
  128 0.261085 -43.4951 3.03874
  129 0.0462892 -38.5233 2.41159
  130 0.0786506 -31.5434 3.04252
  131 -0.314808 -26.0420 2.60936
  132 -0.225712 -20.0504 2.55480
  133 -0.0529072 -15.3077 2.33148
  134 -0.0974826 -11.5522 1.84978
  135 -0.138926 -7.52543 2.11680
  136 -0.264960 -4.38493 1.45294
  137 -0.309081 -1.94372 1.01489
  138 -0.320341 -0.275524 0.358851
  139 -0.121878 -0.103749 0.0186372
  140 0.0460574 -0.224126 0.141456
  141 -0.357769 -0.205179 0.411386
  142 -2.30542 -0.355681 1.17343
  143 -4.72578 -0.206190 1.41088
  144 -8.25941 -0.236540 1.85094
  145 -12.7335 -0.0573528 2.12236
  146 -17.3613 0.112129 1.99179
  147 -22.7467 0.0273396 1.98151
  148 -26.6587 0.0911678 2.51204
  149 -31.1892 0.133232 2.28818
  150 -36.4251 0.0923985 1.99891
  151 -39.3761 0.302230 2.38927
  152 -44.5944 0.586628 1.42143
  153 -47.5643 0.531411 1.70693
  154 -49.5752 0.310209 1.06210
  155 -53.6210 0.478979 0.724052
  156 -55.1075 0.501110 1.23300
  157 -54.6685 0.266896 1.15555
  158 -57.8753 0.817145 0.136683
  159 -58.8884 0.679747 0.763665
  160 -58.4137 0.256774 0.115078
  161 -60.4513 0.475772 -0.134651
  162 -60.3061 1.04154 0.179371
  163 -57.4564 0.149872 -0.368527
  164 -44.0395 -0.822857 0.588723
  165 -30.7711 -0.00167726 1.27211
  166 -17.0578 0.728010 0.546567
  167 1.39244 1.16260 0.589158
  168 16.2212 1.42286 0.610128
  169 34.0278 1.14601 0.806506
  170 51.6133 1.58968 0.765816
  171 65.0650 2.09041 0.558178
  172 81.3457 2.28356 0.286665
  173 97.1002 1.47873 0.437715
  174 113.138 0.946393 0.366462
  175 128.195 1.01324 0.454487
  176 145.486 -0.0655528 0.546378
  177 162.246 0.495160 0.510926
  178 175.722 0.657224 0.219249
  179 46.9888 8.77977 -0.811202
  180 46.9726 8.78762 0.846206
  181 -1.42557 1.12459 14.4886
  182 -1.47383 1.12248 -14.4886
  183 109.088 -1.62781 -23.3184
  184 109.047 -1.85355 23.5885
  185 21.0045 4.27518 0.481511
  186 20.7538 4.37837 -0.460547
  187 14.4184 3.17893 -2.71070
  188 14.4327 3.17976 2.71418
  189 103.937 2.63710 -3.20001
  190 103.951 2.62517 3.19944
  191 -3.04826 4.34257 8.23334
  192 -3.07587 4.34988 -8.23364
  193 120.874 3.67605 -8.68102
  194 120.930 3.61875 8.68531
  195 -4.84449 -4.24872 11.0908
  196 -4.84146 -4.27165 -11.1019
  197 0.879201 -10.5025 -13.6894
  198 36.4840 0.393663 -20.5808
  199 1.12340 -11.2060 13.3973
  200 35.8919 0.714082 20.9679
  201 171.905 -24.4847 -34.1194
  202 178.187 -25.4638 32.6159
  203 60.5383 2.67837 -0.203204
  204 60.5375 2.67441 0.204638
  205 -11.7009 0.961058 -1.73482
  206 -11.6815 0.961677 1.73575
  207 -14.3988 2.07418 11.0411
  208 -14.4254 2.07882 -11.0521
  209 60.7978 6.27222 -1.00603
  210 60.8012 6.26405 1.01682
  211 17.8870 7.73295 6.35589
  212 17.8214 7.78110 -6.36032
  213 -18.9828 2.03827 -4.83197
  214 -18.9584 2.03671 4.83243
  215 139.538 0.706773 1.60292
  216 139.521 0.709583 -1.60487
  217 4.17575 -19.9216 6.57038
  218 4.54590 -18.1814 -5.98262
  219 -1.38279 -11.9411 12.5921
  220 -1.40519 -12.3726 -12.1837
  221 55.9701 8.29296 -8.45354
  222 55.9332 8.32778 8.56765
  223 -12.7091 -0.115182 10.9104
  224 -12.7242 -0.115901 -10.9220
  225 149.304 1.34017 -4.90259
  226 149.323 1.32351 4.89003
  227 160.181 -1.94166 -9.54644
  228 160.295 -2.11723 9.48205
  229 254.253 20.2346 -0.472498
  230 233.281 25.3084 17.3980
  231 231.667 -3.79650 -24.1627
  232 26.8116 6.65495 3.59713
  233 26.7953 6.65859 -3.58613
  234 1.05584 5.13909 11.4205
  235 1.01696 5.15457 -11.4259
  236 178.854 -10.8569 -5.67606
  237 177.785 -11.0009 6.23191
  238 98.2528 1.50108 -1.10660
  239 98.2606 1.49739 1.10607
  240 -22.9228 1.59989 7.45831
  241 -22.9489 1.60299 -7.46260
  242 -3.05106 -3.00710 -4.92657
  243 -3.04898 -3.00600 4.93048
  244 -26.0369 0.759738 2.53244
  245 -26.0606 0.759662 -2.53145
  246 80.0599 6.62165 -5.34383
  247 80.0815 6.59773 5.36825
  248 102.276 3.51216 -13.0603
  249 102.371 3.44265 13.1209
  250 23.2848 2.05133 -0.430141
  251 23.2956 2.05294 0.431368
  252 58.3154 -2.37356 -46.6071
  253 69.3552 -0.442697 51.1738
  254 7.34588 3.23354 11.1147
  255 7.31321 3.31496 -11.1482
  256 245.002 -21.5022 -1.70847
  257 19.8350 8.11296 5.49693
  258 19.8038 8.12882 -5.48546
  259 57.0397 5.78485 -16.7396
  260 56.9459 5.94465 16.9610
  261 272.500 36.6919 -6.33618
  262 161.926 0.513245 6.63863
  263 161.893 0.570088 -6.67660
  264 -1.49205 -9.10736 -7.78346
  265 -1.45323 -9.14580 7.81577
  266 -0.355854 -21.8421 -10.8714
  267 0.635523 -25.9082 -10.3193
  268 0.318180 -25.7487 10.6862
  269 -4.26853 -3.73953 14.4332
  270 -4.28354 -3.73014 -14.4820
  271 8.19598 -22.1009 -2.12955
  272 8.79899 -20.5615 3.49256
  273 -9.39269 -0.813606 6.84470
  274 -9.39557 -0.816863 -6.84951
  275 114.161 3.79430 -5.29689
  276 114.188 3.76851 5.29476
  277 201.150 -21.5595 0.303966
  278 42.8833 4.29723 -0.704880
  279 42.8883 4.30090 0.709416
  280 -0.566022 -20.4703 10.3751
  281 2.84771 4.34966 5.54107
  282 2.82594 4.35336 -5.53769
  283 322.330 23.0916 -7.25672
  284 157.550 0.467347 1.99827
  285 157.530 0.471120 -2.00239
  286 103.456 -5.74176 -35.4082
  287 104.441 -5.65050 36.0134
  288 200.862 -20.4004 -3.65352
  289 -19.4289 0.572061 8.66665
  290 -19.4467 0.572685 -8.67560
  291 197.386 -19.0891 58.7005
  292 -8.93247 1.29141 13.2300
  293 -8.95870 1.29169 -13.2459
  294 31.9302 8.83945 -1.06206
  295 31.8132 8.92629 1.11472
  296 -36.6996 0.395207 0.482530
  297 -36.7241 0.395056 -0.482228
  298 165.828 -0.668079 -80.6927
  299 -33.7108 0.716888 -4.08857
  300 -33.6837 0.715809 4.08747
  301 -1.21980 -4.52687 14.9179
  302 -0.752608 -4.44413 -14.8039
  303 71.3978 7.74345 -7.84250
  304 71.4157 7.72919 7.90715
  305 14.1942 2.27017 2.02753
  306 14.1808 2.26884 -2.02554
  307 74.6875 3.53956 -1.38331
  308 74.6921 3.53237 1.38540
  309 6.66049 -6.39075 8.57741
  310 6.06672 -7.48440 -8.63681
  311 72.4875 1.91787 -0.271892
  312 72.4888 1.91514 0.272081
  313 -27.3661 0.709081 6.40966
  314 -27.3884 0.710287 -6.41551
  315 17.5600 -3.08014 -2.89938
  316 17.0143 -3.09252 2.43521
  317 164.742 0.151621 0.553719
  318 164.717 0.152067 -0.554112
  319 362.350 21.0818 13.1413
  320 35.3722 5.37067 1.77579
  321 35.3635 5.36857 -1.76785
  322 -9.36094 2.01184 3.52954
  323 -9.38178 2.01233 -3.52768
  324 49.3241 7.31613 -0.303643
  325 49.3195 7.31240 0.323572
  326 5.15096 5.04073 11.9275
  327 5.11867 5.05516 -11.9433
  328 0.725717 -37.1635 7.67387
  329 -37.8092 0.178669 -1.05481
  330 -37.7840 0.178852 1.05532
  331 124.680 0.884824 -1.03810
  332 124.694 0.882895 1.03728
  333 131.351 1.41521 -2.75510
  334 131.367 1.40745 2.75099
  335 -34.9806 0.671547 -3.03329
  336 -34.9540 0.671166 3.03359
  337 -2.45064 0.931094 0.474645
  338 -2.46758 0.930315 -0.474140
  339 -0.776616 -14.9885 7.79370
  340 -0.620316 -15.5870 -7.78323
  341 146.887 -12.6126 -23.6802
  342 152.778 -15.0633 23.2041
  343 86.6843 4.88480 -3.24736
  344 86.6978 4.86939 3.25227
  345 37.2479 9.11009 -0.0333896
  346 37.1951 9.14604 0.0749824
  347 -14.7357 2.72639 6.77955
  348 -14.7614 2.73022 -6.78062
  349 277.955 1.35392 3.23648
  350 13.8760 -24.5887 -14.3312
  351 14.8474 -23.2758 15.1232
  352 -6.70941 4.22269 10.6646
  353 -6.74096 4.23187 -10.6707
  354 -7.84023 -1.67021 12.7252
  355 -7.85592 -1.67211 -12.7428
  356 314.242 50.3397 -10.9735
  357 198.668 -3.82741 28.1580
  358 187.616 -4.18381 -4.05147
  359 187.386 -4.08850 3.70853
  360 130.065 -1.24863 -15.0077
  361 129.928 -1.39874 15.0040
  362 0.240179 -44.7435 -6.27851
  363 172.336 0.708388 -3.75972
  364 172.347 0.691821 3.73923
  365 2.14844 -42.5013 5.23888
  366 194.336 15.0882 -16.0993
  367 46.9257 2.18428 0.741574
  368 46.9206 2.18230 -0.741263
  369 131.059 1.41597 -11.1579
  370 131.150 1.33160 11.1610
  371 142.036 1.65708 -6.83703
  372 142.067 1.61966 6.81961
  373 -4.29125 1.84080 2.46383
  374 -4.30980 1.84037 -2.46201
  375 79.8764 4.44439 -17.4982
  376 79.9227 4.48604 17.6855
  377 169.889 0.167662 0.912349
  378 169.863 0.168543 -0.913568
  379 94.1375 5.71189 -8.66436
  380 94.1830 5.66766 8.69917
  381 109.681 2.29137 2.17284
  382 109.669 2.29748 -2.17441
  383 -5.27400 -0.968296 4.19103
  384 -5.27269 -0.970502 -4.19037
  385 -1.24302 -0.886314 -1.19941
  386 -1.24370 -0.886911 1.20132
  387 225.607 -30.1052 13.6598
  388 -3.02975 -7.23728 11.5700
  389 -3.01039 -7.29439 -11.5674
  390 34.9700 2.84552 -1.15694
  391 34.9777 2.84825 1.15945
  392 -1.12904 -5.59262 4.20421
  393 -1.14132 -5.58238 -4.20412
  394 12.7357 6.51919 6.16494
  395 12.7105 6.52805 -6.15826
  396 184.617 -0.496026 4.91828
  397 184.603 -0.420940 -5.02701
  398 -0.592019 -11.3522 14.1315
  399 -15.2176 -0.298484 6.51564
  400 -15.2248 -0.299508 -6.52204
  401 -0.649845 -11.9625 -13.9690
  402 173.708 0.302602 2.38884
  403 173.689 0.307646 -2.39654
  404 -2.28177 3.63691 13.2811
  405 -2.32946 3.65099 -13.2951
  406 127.136 2.43246 -4.45094
  407 127.156 2.41659 4.44447
  408 195.835 -8.45343 -5.30661
  409 196.665 -6.76021 4.09611
  410 -0.424795 -20.4646 -8.56930
  411 16.6240 6.00529 -4.99066
  412 16.7608 5.92818 4.98465
  413 190.333 12.7110 10.1838
  414 109.374 -7.35129 -49.4082
  415 112.455 -9.44648 51.8559
  416 5.49074 6.10018 8.98740
  417 5.45811 6.11323 -8.98621
  418 80.5564 2.82211 -0.944968
  419 80.5607 2.81737 0.945329
  420 78.0336 7.80673 79.0019
  421 31.4034 7.93362 -2.96333
  422 31.4244 7.92467 2.98096
  423 1.85016 -20.2702 9.94721
  424 -0.250811 -33.3612 -7.51698
  425 11.9321 7.36392 8.57263
  426 11.8914 7.38509 -8.57174
  427 14.5711 4.59438 -3.89673
  428 14.5876 4.59316 3.90195
  429 -5.88269 -0.474003 -14.4819
  430 -5.85654 -0.482244 14.4634
  431 37.9140 7.29057 -5.98770
  432 37.7592 7.41107 6.08573
  433 195.647 -6.67597 -21.1152
  434 5.05426 -2.60693 11.7781
  435 4.87687 -2.54173 -11.8349
  436 142.297 -6.01052 -16.5965
  437 142.930 -6.47174 16.5517
  438 -36.5084 0.316195 -3.91163
  439 -36.4819 0.315326 3.90923
  440 0.00588486 -32.6651 6.73604
  441 -0.243515 -20.7011 7.62061
  442 -14.9523 0.895186 11.1093
  443 -14.9721 0.895687 -11.1211
  444 101.978 1.44675 -0.368528
  445 101.986 1.44443 0.368065
  446 -3.12740 -4.93375 7.80416
  447 -3.13139 -4.94359 -7.79410
  448 62.3181 2.45302 -25.6606
  449 62.2169 2.75993 26.0049
  450 0.523898 -39.9748 -7.60890
  451 361.910 13.7048 0.444287
  452 0.954525 -47.9321 -4.80873
  453 -43.7411 0.0720985 -1.50238
  454 -43.7138 0.0721936 1.50281
  455 -17.0186 2.30354 9.27297
  456 -17.0458 2.30839 -9.27976
  457 -19.1706 0.262895 6.56909
  458 -19.1819 0.263043 -6.57567
  459 68.4892 7.56764 -5.05901
  460 68.5018 7.55707 5.09916
  461 104.833 4.74388 -6.71689
  462 104.870 4.70657 6.72639
  463 -1.98733 -6.95080 14.5715
  464 -1.98899 -6.90372 -14.6296
  465 180.648 2.39688 -26.6913
  466 11.8791 -4.30401 -3.38033
  467 11.4679 -4.40343 3.59120
  468 2.76522 -44.0472 0.465130
  469 1.73644 -50.7669 -1.68910
  470 -5.66956 -2.56417 8.04218
  471 -5.67037 -2.57257 -8.04383
  472 37.7880 -7.97918 -39.8758
  473 284.741 -4.54033 -24.2146
  474 62.3174 4.63335 1.11945
  475 62.3151 4.64106 -1.11352
  476 90.9662 0.658731 -24.9449
  477 91.2122 0.626414 25.3640
  478 25.8788 9.46116 4.03049
  479 25.8370 9.48959 -4.01305
  480 82.0569 6.40190 -12.6716
  481 82.1120 6.35931 12.7827
  482 2.52062 1.27407 13.6336
  483 2.70349 1.36629 -13.6150
  484 -38.6067 0.610702 -2.96381
  485 -38.5790 0.610280 2.96355
  486 183.902 -22.0765 -12.7518
  487 146.990 0.456693 -0.776343
  488 147.009 0.455906 0.775948
  489 6.12967 1.34470 -1.13695
  490 6.14479 1.34583 1.13809
  491 -10.3952 3.47322 8.79835
  492 -10.4234 3.47959 -8.80159
  493 -22.6555 1.43505 -3.35234
  494 -22.6317 1.43448 3.35335
  495 62.2741 6.67965 -1.87495
  496 62.2790 6.66948 1.89098
  497 -8.33283 2.87302 12.1487
  498 -8.36509 2.88094 -12.1610
  499 168.564 -4.49529 -8.75931
  500 168.834 -4.74955 8.59089
  501 109.188 1.37590 -16.5071
  502 109.040 1.28034 16.6597
  503 39.5865 2.38398 -0.694472
  504 39.5932 2.38637 0.695597
  505 0.347835 -20.6876 -12.0483
  506 196.957 -7.50124 17.3982
  507 2.46735 -14.0749 -11.2473
  508 54.6451 9.07813 4.94905
  509 54.6665 9.05969 -4.87966
  510 181.873 -20.6608 12.5445
  511 13.2087 -22.9187 20.2857
  512 217.575 -30.1361 -25.9420
  513 147.622 1.02431 8.20816
  514 147.569 1.09351 -8.23191
  515 0.305020 -17.7641 12.5368
  516 -2.88112 -0.867653 -2.22545
  517 -2.88278 -0.867440 2.22737
  518 16.3962 1.33112 -0.380781
  519 16.4088 1.33239 0.381249
  520 -0.508172 -11.5057 4.98213
  521 -0.461075 -11.4503 -5.00635
  522 121.550 1.73966 1.77204
  523 121.537 1.74307 -1.77357
  524 346.842 58.5349 22.1366
  525 13.5442 -10.3370 -2.90980
  526 10.4984 -13.3670 0.728868
  527 -4.82090 2.80597 -4.62142
  528 -4.79953 2.80422 4.62352
  529 -29.9951 0.478203 3.97262
  530 -30.0136 0.478725 -3.97641
  531 0.289199 -37.3852 7.52120
  532 -43.2643 0.440259 0.469792
  533 -43.2904 0.440198 -0.469426
  534 36.3720 -5.04201 -28.9598
  535 35.5335 -4.34192 30.1745
  536 33.2012 5.24781 -9.04075
  537 32.9504 5.41265 9.13021
  538 -8.12422 -1.76055 11.0842
  539 -8.13362 -1.76665 -11.0973
  540 32.3543 3.47677 1.27036
  541 32.3458 3.47423 -1.26673
  542 -19.0805 0.991987 1.54542
  543 -19.1020 0.991684 -1.54433
  544 38.5130 6.22268 1.60321
  545 38.5041 6.22149 -1.59102
  546 -0.806070 -2.58877 1.89859
  547 -0.808708 -2.58615 -1.89811
  548 13.6476 5.86882 7.93806
  549 13.5581 5.95870 -7.95925
  550 11.0351 1.17999 7.17274
  551 10.8739 1.16420 -7.25551
  552 150.099 1.44025 3.47787
  553 150.080 1.44809 -3.48448
  554 132.144 2.24751 5.46502
  555 132.120 2.27139 -5.47465
  556 -0.136945 -31.2473 -4.64999
  557 91.5685 5.19940 -4.99384
  558 91.5901 5.17659 5.00336
  559 92.0066 2.72077 -1.74656
  560 92.0154 2.71337 1.74675
  561 -14.3245 0.669703 -0.0681295
  562 -14.3049 0.670223 0.0684464
  563 152.323 8.72491 -5.13234
  564 208.218 -27.6378 -8.32403
  565 166.701 7.42083 20.4165
  566 1.28152 -27.5455 -9.09146
  567 -10.3329 3.06289 -5.94527
  568 -10.3088 3.05990 5.94609
  569 1.29946 -16.1400 12.0189
  570 -9.51821 0.161355 12.8231
  571 -9.53873 0.161384 -12.8373
  572 264.571 25.5724 -2.19799
  573 59.1299 3.33065 -0.345623
  574 59.1293 3.32584 0.348028
  575 410.020 34.1603 -34.1042
  576 -2.31467 -1.83547 15.1142
  577 -2.18742 -1.73093 -15.1295
  578 220.140 -20.8926 11.1511
  579 178.071 0.404137 -4.20655
  580 178.076 0.377837 4.17253
  581 79.6943 -1.17121 -36.5272
  582 80.7048 -1.39685 37.1673
  583 -4.68798 -4.52420 12.8602
  584 -4.69094 -4.54542 -12.8895
  585 41.3164 2.62445 18.5167
  586 41.6637 2.28984 -18.3262
  587 -35.2863 0.417471 -3.78225
  588 -35.2614 0.416838 3.77938
  589 259.742 19.6613 19.0276
  590 47.9683 5.00617 -0.385829
  591 47.9715 5.01083 0.392334
  592 56.7983 6.99413 -12.4548
  593 56.7357 7.08064 12.6218
  594 160.163 0.0453959 -8.09277
  595 160.229 -0.0455528 8.05308
  596 -0.770867 -16.5585 -11.6115
  597 175.669 -0.0455169 1.24645
  598 175.643 -0.0443344 -1.24821
  599 -26.9038 0.651649 -0.649216
  600 -26.8812 0.651929 0.649862
  601 -46.3536 -0.250511 0.0375153
  602 -46.3799 -0.250664 -0.0373805
  603 3.51486 -25.8684 -4.92107
  604 -1.67969 -10.6729 9.85717
  605 -1.77145 -10.1074 -9.92339
  606 -20.2503 1.21454 9.29690
  607 -20.2721 1.21669 -9.30591
  608 121.172 3.49949 6.83433
  609 121.138 3.53642 -6.83869
  610 88.7502 1.70691 0.426479
  611 88.7454 1.70912 -0.426572
  612 19.3854 -7.40166 11.1047
  613 20.0444 -6.97978 -10.9787
  614 -0.635207 -8.01008 4.19749
  615 -0.653798 -7.98327 -4.21086
  616 210.439 8.84471 85.6754
  617 -10.3316 -0.330417 3.90390
  618 -10.3306 -0.331771 -3.90634
  619 3.45301 -15.8065 -9.30673
  620 86.6628 4.03714 -2.44016
  621 86.6725 4.02644 2.44231
  622 41.5987 9.00935 -3.23099
  623 41.5277 9.06202 3.30142
  624 0.429479 -57.0689 3.36339
  625 30.9018 9.02246 2.77073
  626 30.8734 9.03950 -2.74963
  627 -4.60722 3.79138 7.12834
  628 -4.63242 3.79629 -7.12761
  629 -0.250776 -27.6410 6.35848
  630 -45.8375 0.0953947 -1.48395
  631 -45.8092 0.0953656 1.48425
  632 56.3436 2.03900 -0.0591950
  633 56.3460 2.04207 0.0600932
  634 146.285 0.825177 2.26841
  635 146.267 0.829217 -2.27159
  636 127.780 -10.9302 65.4036
  637 102.652 3.13108 -3.96609
  638 102.669 3.11465 3.96669
  639 1.29214 -2.63143 14.1854
  640 1.64624 -1.69314 -14.1871
  641 164.983 -18.5098 -52.6780
  642 398.203 14.0139 -14.2125
  643 -41.7588 0.0578424 -2.64742
  644 -41.7307 0.0574423 2.64627
  645 8.31344 2.47256 -2.36783
  646 8.32880 2.47331 2.37024
  647 -0.805090 -17.4526 10.2104
  648 222.786 11.9913 -25.9474
  649 173.796 -0.137253 0.202196
  650 173.768 -0.137081 -0.202292
  651 -11.2199 -0.649662 -9.13864
  652 -11.2114 -0.647343 9.12962
  653 -0.0263632 -39.4335 -6.17694
  654 176.850 -0.179129 0.476061
  655 176.821 -0.178864 -0.476349
  656 14.7614 5.75456 5.28148
  657 14.7408 5.75931 -5.27459
  658 132.348 -12.1671 -34.2499
  659 134.881 -12.1363 34.6672
  660 196.426 -1.08137 2.77468
  661 196.521 -1.06497 -2.91900
  662 0.847207 -50.1137 5.01484
  663 -12.3126 0.561255 -0.914338
  664 -12.2933 0.561863 0.915014
  665 63.2910 -0.298610 -61.4295
  666 58.7098 1.87936 0.377711
  667 58.7121 1.88151 -0.377429
  668 27.9943 2.60950 0.697201
  669 27.9846 2.60740 -0.695275
  670 33.6532 4.26411 -1.16329
  671 33.6616 4.26680 1.16884
  672 113.057 3.64545 -10.5568
  673 113.132 3.57925 10.5808
  674 29.0165 8.65321 1.62907
  675 28.9364 8.71359 -1.60171
  676 -21.7247 1.63373 -5.53067
  677 -21.6991 1.63151 5.53003
  678 -24.9249 1.71014 -6.20525
  679 -24.8986 1.70760 6.20283
  680 201.328 -2.95637 -1.06300
  681 0.00638717 -8.62006 -14.3133
  682 201.769 -3.10242 0.741385
  683 253.355 20.3761 0.935829
  684 -25.3984 0.113559 4.50260
  685 -25.4126 0.113678 -4.50722
  686 25.2003 7.07159 -0.0833239
  687 25.0231 7.16923 0.117697
  688 -49.3222 0.0884092 -0.577988
  689 -49.2942 0.0884730 0.578359
  690 0.138390 -7.81411 14.3708
  691 -16.0494 0.181521 9.70023
  692 -16.0654 0.181434 -9.71037
  693 220.458 -19.6764 -12.0395
  694 33.2098 1.31417 -0.126564
  695 33.2013 1.31250 0.127035
  696 6.54764 3.49634 3.79603
  697 6.53002 3.49690 -3.79247
  698 114.980 -5.64273 -28.4554
  699 115.919 -5.86481 29.0553
  700 414.845 28.9536 31.3207
  701 7.45738 -41.4292 -11.7802
  702 -3.07657 -6.40163 13.8019
  703 -3.08409 -6.42399 -13.8280
  704 23.1145 5.77187 -3.17218
  705 23.1293 5.77067 3.18008
  706 181.763 -0.133024 -1.27964
  707 181.788 -0.134309 1.27685
  708 84.6829 2.01976 0.636750
  709 84.6782 2.02351 -0.636827
  710 6.23274 6.18154 10.7448
  711 6.19373 6.20111 -10.7500
  712 2.78199 1.90562 1.67626
  713 2.76588 1.90475 -1.67478
  714 -5.50611 1.03004 14.3148
  715 -5.53878 1.03300 -14.3367
  716 148.585 0.263555 0.937124
  717 148.565 0.264913 -0.938195
  718 127.962 1.61679 2.55844
  719 127.947 1.62208 -2.56107
  720 16.4203 -13.5079 13.6266
  721 16.9340 -14.3028 -13.1123
  722 -10.4776 2.09657 12.4909
  723 -10.5060 2.10054 -12.5052
  724 4.97685 -13.2932 7.62694
  725 -0.166939 3.58974 13.4497
  726 -0.217528 3.60282 -13.4560
  727 -29.5639 0.904360 -3.72062
  728 -29.5380 0.903542 3.72072
  729 21.0768 7.38323 5.09834
  730 21.0511 7.39324 -5.08657
  731 197.885 -6.15658 -11.9667
  732 187.590 -16.6575 -3.37909
  733 -3.09324 -6.31187 9.68008
  734 -3.08821 -6.33958 -9.66587
  735 71.3117 -2.12894 -43.1590
  736 69.3888 -0.515660 43.6552
  737 42.9677 8.23703 -5.59406
  738 42.8695 8.31946 5.69281
  739 3.52865 -7.90167 11.8639
  740 -0.282811 -20.3707 -5.49637
  741 91.3881 5.47018 -9.62687
  742 91.4447 5.42669 9.68199
  743 0.253359 -40.2462 5.14189
  744 53.8473 7.99773 -1.83879
  745 53.8437 7.99426 1.86799
  746 190.609 -0.00994404 -3.19811
  747 190.583 -0.0358783 3.14339
  748 3.58372 -56.7178 0.308247
  749 84.0478 6.80399 7.11877
  750 84.0173 6.83332 -7.08433
  751 22.0292 7.78769 -3.67985
  752 22.1388 7.70388 3.68436
  753 -34.5925 0.231367 -3.17097
  754 -34.5707 0.231026 3.16801
  755 93.8780 2.19692 -1.57743
  756 93.8857 2.19186 1.57712
  757 56.9674 8.66052 -4.05418
  758 56.9596 8.66418 4.10559
  759 -0.497775 5.11714 10.5604
  760 -0.532042 5.12983 -10.5640
  761 188.182 -14.2111 1.11862
  762 -30.6957 0.754077 2.85611
  763 -30.7208 0.754239 -2.85545
  764 414.057 75.6176 -53.4309
  765 -12.5748 1.34852 3.09434
  766 -12.5956 1.34837 -3.09283
  767 160.708 0.829061 5.77698
  768 160.687 0.862861 -5.80499
  769 298.350 19.5746 0.588748
  770 183.000 -0.360120 -2.44847
  771 183.016 -0.364965 2.43911
  772 115.524 2.22215 3.16573
  773 115.510 2.23098 -3.16829
  774 173.240 -21.2916 47.9542
  775 74.0572 6.04659 -2.31324
  776 74.0677 6.03327 2.32345
  777 1.62303 -31.4190 6.88336
  778 199.140 -26.1268 14.4811
  779 120.632 0.836567 0.556239
  780 120.619 0.838133 -0.556549
  781 159.424 0.360316 0.298562
  782 159.400 0.360627 -0.298733
  783 -0.744550 -16.2448 -9.53305
  784 0.905469 -28.1821 9.64721
  785 69.8902 8.07851 9.89695
  786 69.8753 8.08355 -9.79866
  787 412.102 4.59737 3.37057
  788 121.834 1.44358 -13.3210
  789 121.934 1.36413 13.3506
  790 -26.1445 0.871242 7.01637
  791 -26.1694 0.873292 -7.02148
  792 4.91222 -23.6416 2.96889
  793 3.22105 -53.2186 -2.59731
  794 280.093 35.8738 -1.75609
  795 -0.253134 -20.3020 4.95842
  796 5.04349 3.72595 12.3032
  797 5.03015 3.72737 -12.3458
  798 36.0572 7.69355 1.97992
  799 36.0435 7.69760 -1.96348
  800 187.050 -8.45256 -2.18624
  801 187.306 -8.38276 1.46069
  802 222.622 24.9621 -80.9088
  803 -31.6671 0.453064 -1.38956
  804 -31.6426 0.453230 1.39038
  805 -14.1949 -0.0672766 3.68987
  806 -14.1963 -0.0678079 -3.69310
  807 12.8713 0.189898 4.71737
  808 12.5969 0.173140 -4.73238
  809 141.078 -0.415518 12.0303
  810 140.966 -0.279004 -12.0173
  811 71.0050 2.46020 -0.197086
  812 71.0067 2.45644 0.197648
  813 228.619 -5.24684 24.0223
  814 22.6578 4.20944 -2.80433
  815 22.6705 4.21037 2.80983
  816 21.5221 2.07220 -2.20620
  817 21.3268 2.18736 2.27246
  818 -0.183482 -16.3629 -13.0220
  819 327.418 44.7340 42.2975
  820 -47.9172 0.0776421 -1.46689
  821 -47.8879 0.0775576 1.46696
  822 -0.0712347 -49.2661 4.92897
  823 3.10003 -7.79116 -11.9683
  824 -7.01499 -0.439053 2.72589
  825 -7.01120 -0.440048 -2.72634
  826 259.220 12.6249 -18.2633
  827 65.8415 7.09177 -2.89024
  828 65.8500 7.08042 2.91476
  829 177.693 -2.28971 -6.02638
  830 177.830 -2.32711 5.90755
  831 -45.6519 0.374739 1.91919
  832 -45.6812 0.374999 -1.91966
  833 -0.311630 -0.323669 -0.259608
  834 -0.312248 -0.324259 0.260617
  835 0.167351 -50.4177 -4.85180
  836 0.239506 -53.4934 -4.55486
  837 -50.9647 0.524185 0.313597
  838 -50.9920 0.524202 -0.313437
  839 25.9627 -11.7031 -27.5754
  840 109.408 1.87322 -0.862879
  841 109.418 1.87049 0.862055
  842 -5.21895 1.15578 0.398361
  843 -5.23650 1.15513 -0.398188
  844 164.078 0.764955 -3.85900
  845 164.095 0.753048 3.84548
  846 -18.6925 0.125884 3.51801
  847 -18.6976 0.125922 -3.52140
  848 97.6359 -1.93651 -65.6870
  849 170.088 -14.7241 12.6881
  850 133.943 1.04768 -1.14835
  851 133.959 1.04571 1.14705
  852 168.439 -16.0520 -14.2877
  853 51.3524 6.31151 -0.282391
  854 51.3504 6.30548 0.296371
  855 71.6479 5.30954 -1.67753
  856 71.6545 5.29922 1.68404
  857 198.034 -4.29762 9.11800
  858 11.2481 6.97365 9.12439
  859 11.2025 7.00134 -9.13318
  860 10.8985 1.20095 0.825334
  861 10.8846 1.19972 -0.824567
  862 92.6110 1.75089 0.701864
  863 92.6049 1.75377 -0.702152
  864 246.466 -25.4924 25.0882
  865 153.570 1.27291 -5.00053
  866 153.591 1.25062 4.98236
  867 0.775674 2.56895 3.01847
  868 0.757772 2.56883 -3.01601
  869 154.358 0.155663 1.38860
  870 154.337 0.157261 -1.39025
  871 -30.2106 0.314179 -0.807277
  872 -30.1876 0.314472 0.807335
  873 -0.142830 -15.5089 4.40766
  874 -0.185571 -15.7515 -4.44292
  875 182.248 -2.94688 21.2973
  876 -11.8930 2.82757 10.6712
  877 -11.9221 2.83433 -10.6797
  878 -0.0665202 -25.6248 -4.89507
  879 71.7118 3.24386 -0.812956
  880 71.7143 3.23885 0.814222
  881 133.089 -6.83344 -21.5993
  882 134.173 -7.56950 21.8191
  883 -6.00155 -2.19937 -13.8820
  884 -5.97899 -2.20169 13.8586
  885 6.37005 6.33551 9.90572
  886 6.33338 6.35206 -9.90648
  887 0.656278 -59.5074 3.59664
  888 1.14205 4.80943 12.3925
  889 1.10000 4.82412 -12.3994
  890 122.728 -2.10995 -19.1576
  891 122.477 -2.23090 19.3133
  892 212.564 10.6832 26.6969
  893 47.7507 5.91541 -0.276516
  894 47.7544 5.92057 0.286342
  895 157.933 1.32948 -3.76564
  896 157.951 1.31967 3.75611
  897 -6.31744 -2.81352 12.1185
  898 -6.32683 -2.82272 -12.1370
  899 0.528646 -61.8164 -2.64467
  900 -9.70563 -0.727477 11.9259
  901 -9.72054 -0.728269 -11.9396
  902 4.89904 5.83579 -7.87056
  903 4.92738 5.82577 7.87303
  904 -0.488345 -3.85951 2.14595
  905 -0.493691 -3.85527 -2.14898
  906 12.2723 6.56849 -7.22298
  907 12.3025 6.55611 7.22905
  908 2.51193 -5.30254 13.2150
  909 2.15558 -4.93990 -13.8171
  910 152.050 -4.08857 12.1777
  911 151.673 -3.86089 -12.2740
  912 -51.8433 0.189270 -0.460008
  913 -51.8152 0.189324 0.460255
  914 -4.29010 -0.395275 2.03933
  915 -4.28583 -0.395859 -2.03845
  916 0.213513 -36.5026 -4.48927
  917 -4.68608 -2.02990 -5.83804
  918 -4.68552 -2.02546 5.83959
  919 -20.2598 1.66626 9.01651
  920 -20.2849 1.66976 -9.02421
  921 46.1046 9.28291 -1.70432
  922 46.0792 9.30322 1.74880
  923 198.450 16.1656 -4.76013
  924 -3.28698 4.60611 9.60586
  925 -3.31754 4.61544 -9.60833
  926 73.5050 4.46794 -19.7099
  927 73.5325 4.53438 19.9658
  928 -10.0174 3.27318 7.76283
  929 -10.0441 3.27871 -7.76438
  930 246.819 -14.4867 -7.33336
  931 142.008 5.68876 11.4782
  932 175.890 -2.57730 -19.2679
  933 133.108 2.27386 -8.15457
  934 133.155 2.22162 8.14416
  935 -15.4946 2.05666 -3.96212
  936 -15.4718 2.05549 3.96338
  937 -32.7462 0.616199 4.57075
  938 -32.7729 0.617402 -4.57298
  939 -1.95201 -6.25844 -6.78466
  940 -1.93961 -6.26569 6.79842
  941 45.7872 3.53418 -0.228002
  942 45.7914 3.53792 0.231176
  943 -15.4007 1.50695 11.0856
  944 -15.4239 1.50902 -11.0976
  945 161.200 0.216709 1.85233
  946 161.178 0.218609 -1.85464
  947 -1.25642 -13.8461 10.3730
  948 4.72647 5.41965 -6.82044
  949 4.75142 5.41280 6.82373
  950 6.79919 3.90491 4.63097
  951 6.78010 3.90677 -4.62711
  952 25.9700 2.96129 -1.42272
  953 25.9803 2.96319 1.42526
  954 303.881 33.9734 -3.25864
  955 -1.16214 -0.327981 -0.794455
  956 -1.16463 -0.328030 0.795939
  957 9.63462 2.31009 -8.75520
  958 9.80092 2.21915 8.73464
  959 106.734 4.82327 -8.34942
  960 106.782 4.77566 8.36577
  961 12.3854 4.86524 -4.51486
  962 12.4040 4.86279 4.52030
  963 28.6960 -13.3437 37.5251
  964 204.294 -1.34181 -1.44854
  965 203.897 -1.28934 1.23874
  966 34.6617 -7.11427 32.2338
  967 36.1044 2.08970 0.0966759
  968 36.0967 2.08779 -0.0958556
  969 96.5907 -5.41680 -56.6817
  970 72.8510 1.82824 0.405020
  971 72.8499 1.83041 -0.404904
  972 8.87246 -11.0866 3.34358
  973 9.80771 -9.51694 -2.60184
  974 181.629 -0.0867531 0.643614
  975 181.599 -0.0864557 -0.643999
  976 -14.9910 0.0199953 8.76285
  977 -15.0025 0.0195628 -8.77155
  978 324.648 40.1287 15.6330
  979 -1.50865 -10.5815 -13.8132
  980 1.39892 -54.9392 4.50932
  981 -0.325249 -16.6989 12.7907
  982 187.533 0.0199079 -2.49923
  983 187.539 0.0127913 2.48414
  984 -2.48551 -4.53256 5.84994
  985 -2.49149 -4.53139 -5.84300
  986 229.861 23.2911 -16.0967
  987 418.700 4.11908 -2.27101
  988 -0.604575 -0.888453 -0.864653
  989 -0.603989 -0.890326 0.865893
  990 107.354 1.79685 -1.75152
  991 107.364 1.79266 1.75048
  992 -1.56149 -10.1947 13.8990
  993 150.287 1.11857 7.36031
  994 150.253 1.16923 -7.38529
  995 197.118 -13.4262 -9.57815
  996 -6.94640 -1.48112 6.62471
  997 -6.94728 -1.48608 -6.62677
  998 2.95096 -13.8395 10.4526
  999 -0.359083 -24.9225 10.0306
  1000 -0.0265945 -25.4128 4.88325
  1001 197.509 13.5475 -1.05554
  1002 228.811 25.0571 9.93643
  1003 164.854 -19.7343 -25.9081
  1004 2.20848 -25.0459 8.53280
  1005 2.84179 -36.3420 2.69943
  1006 44.4032 1.62058 0.213887
  1007 44.3974 1.61875 -0.213706
  1008 -1.84165 -2.09642 -2.76852
  1009 -1.84035 -2.09731 2.77103
  1010 1.43184 -20.5605 -11.0630
  1011 133.773 0.622749 -0.420828
  1012 133.789 0.621641 0.420419
  1013 25.6416 -1.63800 -11.0974
  1014 24.5155 -1.57134 10.9927
  1015 -3.18622 3.99842 12.3940
  1016 -3.22566 4.01119 -12.4050
  1017 -16.7102 2.47576 -7.76147
  1018 -16.6835 2.47148 7.75843
  1019 100.282 1.68499 -19.5256
  1020 100.368 1.75548 19.7581
  1021 71.6488 6.50738 -13.1525
  1022 71.6597 6.49906 13.3023
  1023 78.2153 6.27877 -4.09027
  1024 78.2305 6.25961 4.10548
  1025 205.540 -6.61033 -25.5906
  1026 -6.04008 2.41125 13.4128
  1027 -6.07612 2.41766 -13.4316
  1028 145.970 0.252353 9.98719
  1029 145.893 0.356347 -10.0060
  1030 -1.16330 -8.11944 14.6098
  1031 -11.9091 -0.420644 6.42126
  1032 -11.9128 -0.422326 -6.42671
  1033 132.754 1.69726 -9.88640
  1034 132.820 1.62427 9.87981
  1035 160.011 3.48886 -18.2537
  1036 -0.251568 -24.8347 -10.5365
  1037 -2.05674 -9.81117 12.3324
  1038 -2.13915 -9.91673 -12.2236
  1039 92.7453 5.99516 -6.67272
  1040 92.7797 5.96119 6.69456
  1041 118.228 2.70662 3.94853
  1042 118.211 2.71934 -3.95221
  1043 196.718 -13.1099 8.40723
  1044 7.98001 1.30978 -0.234248
  1045 7.99452 1.31076 0.234469
  1046 166.866 -22.1033 27.6789
  1047 -2.71027 0.948764 1.05541
  1048 -2.72742 0.947873 -1.05462
  1049 34.7017 9.27545 1.37707
  1050 34.6639 9.30127 -1.34701
  1051 12.5241 7.27248 7.89400
  1052 12.4891 7.28916 -7.88935
  1053 1.73610 -31.0463 -7.14600
  1054 46.8754 2.30810 -0.327633
  1055 46.8798 2.31139 0.329514
  1056 137.207 4.78243 4.69738
  1057 134.792 1.50086 3.74733
  1058 134.775 1.51178 -3.75322
  1059 -1.03038 -8.39914 -14.6308
  1060 203.213 -2.54172 -4.75700
  1061 -0.432760 -1.08236 14.7268
  1062 -0.285937 -0.952142 -14.6702
  1063 186.664 -0.239499 -1.37346
  1064 186.687 -0.241094 1.36937
  1065 198.543 -0.561064 -2.39644
  1066 198.451 -0.589038 2.31817
  1067 -0.152542 -38.5495 3.69464
  1068 114.763 3.49076 -5.26099
  1069 114.783 3.47052 5.25789
  1070 140.576 1.72566 4.41902
  1071 140.557 1.73930 -4.42761
  1072 2.50993 3.00202 13.4857
  1073 2.49804 3.00641 -13.4899
  1074 306.691 21.2848 2.45252
  1075 -4.20739 -1.94969 14.8914
  1076 -4.25948 -1.91243 -14.9224
  1077 42.0411 8.81747 0.576064
  1078 42.0275 8.82373 -0.551810
  1079 -26.1255 0.622726 -1.50278
  1080 -26.1027 0.623055 1.50355
  1081 69.9312 3.53549 -22.8064
  1082 69.8604 3.74083 23.1263
  1083 19.3207 8.19639 6.39832
  1084 19.2816 8.21745 -6.38861
  1085 47.1075 4.80383 -16.2684
  1086 46.8722 5.05192 16.4463
  1087 -1.33723 -12.9908 -10.0981
  1088 168.329 1.89754 23.5151
  1089 119.535 -3.08721 74.2349
  1090 18.1772 8.30786 6.62226
  1091 18.1291 8.33785 -6.61654
  1092 71.4002 4.42153 -1.19371
  1093 71.4054 4.41285 1.19775
  1094 265.693 -2.24351 10.4045
  1095 16.0232 3.61441 4.77682
  1096 15.8189 3.67378 -4.82767
  1097 -7.93781 -1.78278 8.85732
  1098 -7.94180 -1.79009 -8.86411
  1099 -0.261614 -5.77096 2.35003
  1100 -0.271535 -5.76694 -2.35917
  1101 174.197 0.154439 6.00364
  1102 174.166 0.227079 -6.06585
  1103 0.105293 -12.8837 13.7559
  1104 -12.2506 0.678408 -12.0124
  1105 -12.2307 0.678430 11.9994
  1106 0.0672395 -46.9723 -4.79949
  1107 -2.98632 -4.15228 14.8631
  1108 -2.98010 -4.07246 -14.8769
  1109 167.125 0.469309 -2.52970
  1110 167.145 0.465030 2.52440
  1111 171.460 -0.967882 7.10959
  1112 171.368 -0.852367 -7.17607
  1113 28.5602 5.89265 -4.41675
  1114 28.3448 6.03079 4.48803
  1115 -0.428380 -24.1948 -8.46249
  1116 226.409 -24.4021 -42.4072
  1117 294.233 34.2411 -2.69041
  1118 2.82380 -38.4512 -1.66128
  1119 9.60159 5.65262 -10.2641
  1120 9.65601 5.61719 10.2298
  1121 26.5687 8.96553 3.64688
  1122 26.5131 9.00393 -3.62818
  1123 57.6024 4.03026 0.112461
  1124 57.6025 4.03627 -0.108436
  1125 -3.88674 -5.53680 11.4984
  1126 -3.87997 -5.58596 -11.5130
  1127 -11.6512 3.37746 9.89750
  1128 -11.6802 3.38434 -9.90314
  1129 -4.64869 4.19512 11.5010
  1130 -4.68359 4.20595 -11.5091
  1131 162.748 -8.24465 -11.7787
  1132 163.841 -8.34181 11.6440
  1133 0.111827 -28.1359 -10.0855
  1134 85.3457 -0.815489 -29.0625
  1135 85.5181 -0.537360 29.6056
  1136 26.3929 8.42633 -3.80557
  1137 26.4185 8.41254 3.82141
  1138 87.9479 30.8181 83.2841
  1139 20.3197 6.87452 4.85279
  1140 20.2981 6.88112 -4.84285
  1141 223.583 -26.2748 -8.38882
  1142 83.0318 2.90124 1.04837
  1143 83.0260 2.90725 -1.04774
  1144 -3.83872 -3.43457 6.96989
  1145 -3.84011 -3.44169 -6.96604
  1146 -4.60556 -4.14924 9.05523
  1147 -4.60390 -4.16419 -9.05412
  1148 145.093 -15.9873 -41.6231
  1149 148.267 -17.5066 41.9549
  1150 24.4880 1.42850 0.136763
  1151 24.4986 1.43007 -0.135903
  1152 90.1421 4.37144 -15.6211
  1153 90.1703 4.30523 15.7996
  1154 200.455 -28.5321 31.2495
  1155 180.279 -0.289606 0.381074
  1156 180.249 -0.289386 -0.381127
  1157 -16.8102 2.55325 8.81147
  1158 -16.8376 2.55793 -8.81649
  1159 -28.5219 0.941474 -4.70101
  1160 -28.4957 0.940348 4.70057
  1161 44.1565 -3.54709 48.6743
  1162 132.502 9.33517 -9.49228
  1163 82.4458 6.39825 -7.30699
  1164 82.4814 6.36922 7.35413
  1165 262.934 -12.4746 45.2998
  1166 83.7503 6.04355 -11.1845
  1167 83.7966 6.00162 11.2669
  1168 19.6453 3.12326 -1.96503
  1169 19.6576 3.12488 1.96805
  1170 7.00033 -30.1483 3.46184
  1171 7.08958 -29.5321 -5.35752
  1172 114.073 -9.06290 -41.9454
  1173 115.737 -8.53312 41.9587
  1174 43.7221 6.81306 -10.9193
  1175 43.5456 6.97278 11.0642
  1176 203.079 -14.2831 -17.0268
  1177 -7.72751 -0.767804 13.5230
  1178 -7.74888 -0.766356 -13.5398
  1179 -0.281969 -11.5426 -14.1159
  1180 50.2678 -0.308551 -30.2050
  1181 50.4045 -0.119496 30.7870
  1182 -0.132762 -10.2683 2.62998
  1183 -0.113071 -10.2923 -2.66137
  1184 -49.9138 0.432802 -1.36804
  1185 -49.8838 0.432631 1.36792
  1186 163.233 0.194890 -0.665734
  1187 163.257 0.194168 0.664810
  1188 98.9945 4.24786 -4.28421
  1189 99.0155 4.22728 4.28776
  1190 -4.04795 -0.278268 14.9652
  1191 -4.05943 -0.220823 -14.9910
  1192 0.0271474 -41.7235 -4.13220
  1193 -42.1777 0.109580 2.15189
  1194 -42.2051 0.109846 -2.15328
  1195 30.8458 -2.88440 -20.5746
  1196 30.6029 -2.68713 21.2980
  1197 189.035 -11.6443 0.510869
  1198 52.3302 2.11857 -27.0623
  1199 52.3823 2.29990 27.3815
  1200 -23.1762 0.120488 3.20960
  1201 -23.1852 0.120446 -3.21290
  1202 0.576744 -37.2926 -7.30060
  1203 -8.48364 1.68340 -2.00560
  1204 -8.46455 1.68387 2.00700
  1205 27.0438 7.24608 3.81820
  1206 27.0239 7.25219 -3.80508
  1207 105.826 1.13494 -0.601066
  1208 105.835 1.13303 0.600899
  1209 143.861 1.11081 2.85650
  1210 143.843 1.11758 -2.86135
  1211 7.30030 -1.85459 8.97740
  1212 7.19114 -1.98114 -9.10756
  1213 1.19898 -21.6713 10.9960
  1214 257.036 33.5911 13.3952
  1215 -7.95348 -0.639908 5.01948
  1216 -7.95297 -0.642369 -5.02128
  1217 0.935122 -20.2835 -11.4231
  1218 -0.778729 -12.1248 7.36650
  1219 -0.736717 -12.0262 -7.63571
  1220 204.293 -2.18540 4.24030
  1221 0.189351 -47.8616 4.24996
  1222 1.29845 -15.0344 -12.7275
  1223 22.5428 1.18839 0.315278
  1224 22.5317 1.18704 -0.315101
  1225 -2.13202 -8.89199 13.6291
  1226 -23.7592 1.39045 -4.06601
  1227 -23.7346 1.38956 4.06657
  1228 426.377 7.68512 11.6864
  1229 -12.2269 1.29955 12.2071
  1230 -12.2507 1.30083 -12.2209
  1231 96.5445 4.19202 -14.1428
  1232 96.6456 4.10656 14.2360
  1233 5.95720 -10.8510 -6.31165
  1234 92.0902 5.32609 -5.41754
  1235 92.1172 5.29857 5.43159
  1236 3.63235 -30.6598 -2.66029
  1237 -2.13628 -8.90358 -13.5976
  1238 -17.3053 0.830308 2.52246
  1239 -17.3268 0.829965 -2.52127
  1240 -7.49361 0.376627 -13.9024
  1241 -7.46793 0.376580 13.8869
  1242 195.995 15.4417 19.2267
  1243 112.125 1.61004 -15.1899
  1244 112.273 1.55901 15.2287
  1245 -52.6033 0.152331 -0.544835
  1246 -52.5742 0.152337 0.545125
  1247 101.453 3.06239 -2.93569
  1248 101.464 3.05330 2.93496
  1249 -54.3160 -0.871655 -0.135382
  1250 -54.3438 -0.871849 0.135446
  1251 151.637 -10.9215 -17.3685
  1252 -24.4845 0.400354 6.87452
  1253 -24.5036 0.400980 -6.88142
  1254 153.241 -11.5268 17.2080
  1255 103.016 4.36902 -6.10313
  1256 103.043 4.33966 6.10815
  1257 11.7149 -34.5138 -20.4852
  1258 0.213663 -33.9642 -8.67866
  1259 -0.777601 -14.3530 12.7951
  1260 332.259 48.0748 -41.5407
  1261 -0.0881373 -31.6923 8.38772
  1262 344.305 32.3018 -18.6170
  1263 -0.153449 -58.5839 -4.06984
  1264 14.6939 2.01925 -0.847470
  1265 14.7070 2.02064 0.849111
  1266 -0.149932 -13.1998 2.75819
  1267 -0.122172 -13.2683 -2.74919
  1268 56.5637 2.00006 -0.150360
  1269 56.5664 2.00250 0.150817
  1270 205.598 -16.3501 16.2780
  1271 2.47340 1.84510 -2.32714
  1272 2.48991 1.84585 2.32889
  1273 1.19400 -65.5297 2.35013
  1274 0.758762 -69.5784 -2.30777
  1275 189.095 -24.5511 -18.2133
  1276 -0.541068 -17.3847 8.17651
  1277 195.009 11.8475 -23.7451
  1278 -0.593528 -22.9139 8.05546
  1279 0.384105 -63.4226 -3.27631
  1280 94.3867 3.31023 -3.09401
  1281 94.4001 3.29574 3.09582
  1282 -0.0638565 -33.9541 3.63955
  1283 -0.0948276 -28.4078 -8.24252
  1284 460.384 75.5407 66.4217
  1285 181.163 0.226023 0.301033
  1286 181.132 0.225980 -0.300969
  1287 4.23343 -0.181678 12.4003
  1288 4.09206 0.0110472 -12.4469
  1289 -3.30594 2.40550 14.2068
  1290 -3.36443 2.41340 -14.2294
  1291 189.745 -3.69528 -13.7290
  1292 176.886 -7.27972 -6.48038
  1293 176.673 -8.32122 6.50426
  1294 24.8300 3.50279 2.06184
  1295 24.8187 3.50081 -2.05761
  1296 -29.8514 0.812756 -5.49272
  1297 -29.8254 0.811204 5.48926
  1298 197.437 -28.7522 -26.3179
  1299 -1.48810 -3.57158 3.62730
  1300 -1.49349 -3.56822 -3.62521
  1301 207.608 -9.71668 24.1226
  1302 -2.24255 -8.35876 9.91813
  1303 -2.21849 -8.38835 -9.87205
  1304 -20.0177 1.40136 2.98542
  1305 -20.0405 1.40156 -2.98425
  1306 30.2352 2.42145 -9.95371
  1307 29.9239 2.60718 9.96210
  1308 47.8101 1.90041 0.418594
  1309 47.8054 1.89795 -0.417902
  1310 -20.8746 2.04861 8.62830
  1311 -20.9006 2.05217 -8.63424
  1312 169.608 0.649430 0.468328
  1313 169.581 0.649372 -0.468277
  1314 91.1748 -2.76134 56.1941
  1315 137.620 0.747640 1.00333
  1316 137.603 0.748947 -1.00409
  1317 89.5816 1.79492 -22.0304
  1318 89.6232 1.68184 22.2509
  1319 0.833723 -38.0026 -5.60821
  1320 33.9910 8.03699 -3.44136
  1321 33.8520 8.13979 3.51582
  1322 -0.326424 -0.312268 -0.439415
  1323 -0.328042 -0.312419 0.440684
  1324 116.698 4.10494 8.09706
  1325 116.656 4.15396 -8.09475
  1326 56.9096 5.27778 0.612245
  1327 56.9090 5.28509 -0.604325
  1328 84.7687 5.37673 -3.50090
  1329 84.7850 5.35856 3.50971
  1330 112.239 1.21751 -1.00015
  1331 112.250 1.21557 0.999718
  1332 -3.59668 -1.75579 -4.10118
  1333 -3.59664 -1.75418 4.10383
  1334 -35.7722 0.139614 1.77718
  1335 -35.7980 0.139573 -1.77648
  1336 -6.21413 -2.89157 -10.1489
  1337 -6.21125 -2.87831 10.1405
  1338 -21.2915 0.520736 0.769526
  1339 -21.3127 0.520257 -0.769133
  1340 -54.7950 0.526312 0.315064
  1341 -54.8233 0.526347 -0.314901
  1342 213.032 -28.9899 36.4244
  1343 149.186 -1.13349 -18.9699
</Section>

newXOutput 26

<Section columns = "stress_xx | stress_yy | stress_xy">
  1 194.388 -0.193790 0.182907
  2 194.424 -0.193899 -0.182998
  3 -61.5602 0.326091 -0.827843
  4 0.0996465 0.0284519 0.174855
  5 358.783 90.7826 111.353
  6 405.273 103.690 -106.338
  7 0.0992884 0.0281118 -0.174382
  8 -61.5292 0.326076 0.827718
  9 193.774 -0.177440 -0.636657
  10 193.906 -0.509533 -1.04739
  11 195.751 -0.494696 -0.263748
  12 195.904 -0.449953 -1.20171
  13 196.298 -0.430521 -0.340155
  14 200.458 -0.433137 -0.485321
  15 201.832 -0.669318 -1.60831
  16 203.246 -0.271111 -1.08177
  17 204.067 0.232384 -2.09110
  18 212.475 -1.05180 -1.79391
  19 215.964 -0.775229 -2.33388
  20 219.731 -1.24626 -0.811559
  21 221.384 -1.71382 -0.396892
  22 219.185 -2.03196 3.17336
  23 210.819 -2.32935 6.51804
  24 191.715 -2.74686 13.6991
  25 161.467 1.33699 15.8598
  26 136.091 1.53058 14.9264
  27 101.287 3.68783 9.06463
  28 108.207 3.59632 0.650414
  29 88.6335 10.9151 -5.86044
  30 128.261 4.89685 -16.0049
  31 150.621 1.06625 -13.1578
  32 187.484 -0.672498 -11.3796
  33 207.986 -2.82604 -7.76675
  34 218.707 -2.37389 -3.17067
  35 220.836 -1.65356 0.400072
  36 219.343 -1.22790 0.743250
  37 215.780 -0.781652 2.25369
  38 212.387 -1.06784 1.74619
  39 204.051 0.222849 2.06658
  40 203.256 -0.274721 1.07193
  41 201.857 -0.671455 1.60416
  42 200.489 -0.434228 0.483215
  43 196.331 -0.431114 0.339088
  44 195.938 -0.450491 1.20163
  45 195.786 -0.495058 0.263606
  46 193.941 -0.509789 1.04771
  47 193.809 -0.177537 0.636854
  48 182.875 0.675789 -0.228793
  49 168.869 0.501648 -0.532177
  50 151.446 -0.0876109 -0.567987
  51 133.467 1.03076 -0.472485
  52 117.808 0.958370 -0.380763
  53 101.127 1.51109 -0.454540
  54 84.7364 2.34875 -0.296879
  55 67.7953 2.14838 -0.579177
  56 53.7957 1.62956 -0.795179
  57 35.4911 1.17055 -0.837405
  58 16.9539 1.46243 -0.633645
  59 1.51527 1.19549 -0.611889
  60 -17.6958 0.747011 -0.567325
  61 -31.9748 -0.00893018 -1.32294
  62 -45.7909 -0.860366 -0.611949
  63 -59.7633 0.154551 0.384170
  64 -62.7333 1.08270 -0.185301
  65 -62.8869 0.493916 0.141800
  66 -60.7692 0.265824 -0.117828
  67 -61.2698 0.706239 -0.792583
  68 -60.2195 0.849389 -0.139243
  69 -56.8873 0.276779 -1.20004
  70 -57.3522 0.521058 -1.28098
  71 -55.8098 0.497928 -0.751136
  72 -51.6028 0.322148 -1.10313
  73 -49.5164 0.552906 -1.77487
  74 -46.4275 0.610648 -1.47777
  75 -40.9975 0.314541 -2.48636
  76 -37.9268 0.0962634 -2.08054
  77 -32.4757 0.138689 -2.38234
  78 -27.7583 0.0950607 -2.61602
  79 -23.6840 0.0285176 -2.06385
  80 -18.0746 0.116724 -2.07469
  81 -13.2544 -0.0599570 -2.21055
  82 -8.59480 -0.246665 -1.92733
  83 -4.91578 -0.215014 -1.46852
  84 -2.39724 -0.370395 -1.22082
  85 -0.370851 -0.213606 -0.427661
  86 0.0487498 -0.233188 -0.146838
  87 -0.126904 -0.107339 -0.0189608
  88 -0.333793 -0.285480 -0.373370
  89 -0.323401 -2.02258 -1.05783
  90 -0.279495 -4.57138 -1.52027
  91 -0.147314 -7.86025 -2.22483
  92 -0.0791247 -12.0984 -1.92086
  93 -0.0740909 -16.0242 -2.41992
  94 -0.301430 -20.8549 -2.74241
  95 -0.122638 -26.7929 -2.78232
  96 0.0579932 -32.7776 -2.67243
  97 0.131311 -39.2067 -2.64308
  98 0.197325 -45.8363 -2.61043
  99 0.0271882 -50.8025 -3.54323
  100 0.355337 -57.7728 -3.17953
  101 0.425918 -65.9673 -2.58470
  102 0.0141020 -69.8103 -3.43958
  103 0.604575 -76.0262 -3.22466
  104 1.44292 -84.3384 -1.74369
  105 2.79747 -87.0541 -2.76050
  106 1.86138 -81.2463 1.25107
  107 2.50702 -63.9671 6.82739
  108 14.8271 -42.2654 21.9768
  109 47.9480 51.9866 81.1616
  110 555.750 28.5149 53.7175
  111 475.808 9.00228 19.7705
  112 460.483 3.56793 4.36919
  113 457.351 1.47691 -0.739847
  114 460.296 5.33048 -10.4538
  115 473.978 16.0940 -23.1744
  116 539.554 55.8766 -67.9677
  117 113.300 39.7965 -99.4275
  118 24.3350 -41.5747 -27.4253
  119 7.08895 -69.9133 -9.74765
  120 1.92542 -77.1704 -1.42336
  121 2.23437 -83.9330 1.72322
  122 0.653875 -81.1390 1.40344
  123 0.256700 -74.1398 2.79827
  124 0.265304 -69.5722 2.23163
  125 0.363721 -62.4416 3.62530
  126 -0.0177008 -58.2553 3.48384
  127 0.144508 -52.5414 2.51800
  128 0.272026 -45.2739 3.16195
  129 0.0484365 -40.1013 2.50924
  130 0.0818530 -32.8357 3.16585
  131 -0.327718 -27.1111 2.71535
  132 -0.234726 -20.8747 2.65898
  133 -0.0546186 -15.9393 2.42699
  134 -0.101243 -12.0302 1.92562
  135 -0.144402 -7.83744 2.20372
  136 -0.275650 -4.56804 1.51281
  137 -0.321730 -2.02553 1.05705
  138 -0.333422 -0.288468 0.374058
  139 -0.126899 -0.108657 0.0198283
  140 0.0471747 -0.233430 0.147658
  141 -0.373912 -0.213541 0.428760
  142 -2.40221 -0.370140 1.22207
  143 -4.92272 -0.214428 1.46907
  144 -8.60103 -0.245940 1.92685
  145 -13.2576 -0.0593585 2.20878
  146 -18.0741 0.116839 2.07257
  147 -23.6783 0.0287411 2.06166
  148 -27.7479 0.0952805 2.61362
  149 -32.4592 0.138595 2.37992
  150 -37.9053 0.0961246 2.07839
  151 -40.9728 0.314300 2.48441
  152 -46.3987 0.610314 1.47641
  153 -49.4857 0.552565 1.77390
  154 -51.5706 0.321942 1.10269
  155 -55.7765 0.497729 0.750988
  156 -57.3188 0.520879 1.28086
  157 -56.8544 0.276699 1.20004
  158 -60.1866 0.849219 0.139514
  159 -61.2372 0.706128 0.792678
  160 -60.7373 0.265810 0.118014
  161 -62.8551 0.493861 -0.141618
  162 -62.7017 1.08254 0.185393
  163 -59.7325 0.154554 -0.384024
  164 -45.7631 -0.860049 0.611911
  165 -31.9498 -0.00857167 1.32277
  166 -17.6741 0.747509 0.567360
  167 1.53253 1.19627 0.611892
  168 16.9674 1.46357 0.633637
  169 35.5001 1.17219 0.837371
  170 53.8001 1.63144 0.795097
  171 67.7962 2.15036 0.579104
  172 84.7331 2.35070 0.296753
  173 101.119 1.51297 0.454303
  174 117.797 0.960004 0.380475
  175 133.452 1.03183 0.472089
  176 151.425 -0.0867810 0.567535
  177 168.843 0.501795 0.531862
  178 182.844 0.675660 0.228654
  179 48.9869 9.12882 -0.896053
  180 48.9696 9.13732 0.932171
  181 -1.46073 1.18407 15.0535
  182 -1.51120 1.18156 -15.0539
  183 113.634 -1.69033 -24.3408
  184 113.590 -1.92475 24.6216
  185 21.9132 4.48766 0.433412
  186 21.6517 4.59471 -0.412191
  187 15.0838 3.29407 -2.79750
  188 15.0992 3.29481 2.80099
  189 108.237 2.71878 -3.35097
  190 108.252 2.70657 3.35049
  191 -3.12012 4.51570 8.54025
  192 -3.14938 4.52339 -8.54087
  193 125.870 3.80294 -9.06795
  194 125.929 3.74386 9.07274
  195 -5.03829 -4.41725 11.5400
  196 -5.03522 -4.44118 -11.5517
  197 0.924835 -10.9041 -14.2242
  198 38.0433 0.484853 -21.5220
  199 1.17923 -11.6355 13.9193
  200 37.4262 0.817687 21.9240
  201 178.985 -25.4351 -35.6012
  202 185.512 -26.4518 34.0379
  203 63.0872 2.76309 -0.227776
  204 63.0863 2.75909 0.229258
  205 -12.1022 0.989630 -1.79508
  206 -12.0813 0.990238 1.79599
  207 -14.9605 2.16054 11.4747
  208 -14.9885 2.16534 -11.4864
  209 63.3601 6.50687 -1.08151
  210 63.3634 6.49866 1.09266
  211 18.6714 8.06082 6.56276
  212 18.6027 8.11094 -6.56792
  213 -19.7022 2.11561 -5.01109
  214 -19.6761 2.11394 5.01139
  215 145.248 0.714748 1.67478
  216 145.229 0.717620 -1.67674
  217 4.36005 -20.6765 6.79445
  218 4.74624 -18.8648 -6.18063
  219 -1.43589 -12.4178 13.0986
  220 -1.45953 -12.8679 -12.6743
  221 58.3400 8.63497 -8.86620
  222 58.3008 8.67148 8.98446
  223 -13.2177 -0.116774 11.3480
  224 -13.2337 -0.117565 -11.3602
  225 155.411 1.37459 -5.11399
  226 155.433 1.35742 5.10121
  227 166.757 -2.03830 -9.96445
  228 166.877 -2.22042 9.89840
  229 264.768 21.0323 -0.472460
  230 242.924 26.3832 17.9550
  231 241.166 -3.87350 -25.0016
  232 27.9806 6.91460 3.70525
  233 27.9632 6.91860 -3.69406
  234 1.14053 5.35313 11.8531
  235 1.09963 5.36925 -11.8591
  236 186.201 -11.3017 -5.95971
  237 185.090 -11.4510 6.53937
  238 102.320 1.53608 -1.16177
  239 102.328 1.53234 1.16125
  240 -23.8237 1.66358 7.74723
  241 -23.8514 1.66682 -7.75191
  242 -3.17524 -3.12929 -5.12883
  243 -3.17304 -3.12810 5.13285
  244 -27.0341 0.783683 2.62305
  245 -27.0595 0.783632 -2.62213
  246 83.4086 6.87075 -5.60347
  247 83.4308 6.84630 5.62887
  248 106.535 3.63982 -13.6440
  249 106.633 3.56816 13.7072
  250 24.3178 2.11680 -0.435956
  251 24.3295 2.11840 0.437193
  252 60.7798 -2.33832 -48.6417
  253 72.2707 -0.338118 53.3907
  254 7.68005 3.38737 11.5253
  255 7.64584 3.47212 -11.5606
  256 254.984 -22.2650 -1.91822
  257 20.7096 8.44133 5.67650
  258 20.6766 8.45799 -5.66495
  259 59.4555 6.04511 -17.5066
  260 59.3570 6.21138 17.7362
  261 283.663 38.2661 -6.41687
  262 168.550 0.515989 6.92480
  263 168.515 0.574805 -6.96373
  264 -1.55188 -9.47709 -8.10050
  265 -1.51132 -9.51698 8.13405
  266 -0.368728 -22.7199 -11.3072
  267 0.665177 -26.9324 -10.7204
  268 0.333940 -26.7739 11.1066
  269 -4.43310 -3.88212 15.0103
  270 -4.44883 -3.87252 -15.0614
  271 8.55207 -22.9081 -2.28288
  272 9.18207 -21.3045 3.70594
  273 -9.77445 -0.845634 7.12305
  274 -9.77755 -0.849040 -7.12813
  275 118.878 3.92403 -5.53797
  276 118.906 3.89753 5.53597
  277 209.402 -22.4093 0.230389
  278 44.7147 4.45228 -0.708008
  279 44.7202 4.45592 0.712650
  280 -0.587560 -21.2940 10.7917
  281 3.02877 4.51860 5.73800
  282 3.00557 4.52257 -5.73474
  283 335.442 24.0026 -7.61802
  284 163.973 0.470554 2.08629
  285 163.951 0.474432 -2.09045
  286 107.777 -5.94586 -36.9440
  287 108.799 -5.85110 37.5727
  288 209.104 -21.2062 -3.71473
  289 -20.2086 0.596354 9.01231
  290 -20.2275 0.596984 -9.02179
  291 205.455 -19.7365 61.2084
  292 -9.27748 1.35009 13.7533
  293 -9.30507 1.35029 -13.7702
  294 33.3017 9.21616 -1.17117
  295 33.1793 9.30658 1.22538
  296 -38.1236 0.406266 0.498727
  297 -38.1501 0.406116 -0.498434
  298 172.632 -0.519642 -84.1080
  299 -35.0472 0.743720 -4.24435
  300 -35.0183 0.742585 4.24307
  301 -1.25688 -4.69392 15.5058
  302 -0.769524 -4.60692 -15.3859
  303 74.3986 8.04806 -8.21794
  304 74.4166 8.03370 8.28502
  305 14.8539 2.34699 2.09272
  306 14.8394 2.34569 -2.09074
  307 77.8098 3.65854 -1.46108
  308 77.8146 3.65124 1.46327
  309 6.95596 -6.60838 8.88031
  310 6.33595 -7.74618 -8.94359
  311 75.5183 1.97040 -0.291041
  312 75.5196 1.96765 0.291244
  313 -28.4644 0.737677 6.66294
  314 -28.4882 0.738928 -6.66918
  315 18.3201 -3.14607 -3.09170
  316 17.7516 -3.15950 2.60734
  317 171.438 0.144900 0.578311
  318 171.411 0.145358 -0.578694
  319 376.958 21.9106 13.7250
  320 36.8955 5.57249 1.81583
  321 36.8861 5.57050 -1.80772
  322 -9.67508 2.08479 3.65378
  323 -9.69742 2.08536 -3.65199
  324 51.4182 7.59826 -0.358612
  325 51.4130 7.59469 0.379164
  326 5.39935 5.25910 12.3759
  327 5.36538 5.27403 -12.3928
  328 0.757100 -38.6433 7.96823
  329 -39.2846 0.181278 -1.09179
  330 -39.2573 0.181462 1.09227
  331 129.798 0.897335 -1.08501
  332 129.813 0.895376 1.08420
  333 136.741 1.44999 -2.87954
  334 136.758 1.44203 2.87540
  335 -36.3559 0.694818 -3.14628
  336 -36.3274 0.694404 3.14650
  337 -2.46864 0.956412 0.488488
  338 -2.48690 0.955636 -0.487988
  339 -0.807451 -15.5980 8.11006
  340 -0.644831 -16.2210 -8.09918
  341 152.962 -13.1155 -24.7185
  342 159.087 -15.6646 24.2234
  343 90.2946 5.05876 -3.40820
  344 90.3087 5.04302 3.41338
  345 38.8423 9.48322 -0.0930866
  346 38.7867 9.52086 0.135908
  347 -15.2875 2.83334 7.03437
  348 -15.3148 2.83738 -7.03572
  349 289.233 1.58133 3.54913
  350 14.4763 -25.4460 -15.0108
  351 15.4893 -24.0731 15.8345
  352 -6.94333 4.39579 11.0730
  353 -6.97662 4.40537 -11.0796
  354 -8.15116 -1.73254 13.2364
  355 -8.16766 -1.73458 -13.2550
  356 327.026 52.4895 -11.6032
  357 206.895 -3.94292 29.1936
  358 195.285 -4.36545 -4.24204
  359 195.049 -4.26588 3.88688
  360 135.449 -1.31296 -15.6694
  361 135.306 -1.46835 15.6659
  362 0.250079 -46.5265 -6.51626
  363 179.353 0.723547 -3.91999
  364 179.366 0.706431 3.89898
  365 2.23976 -44.1763 5.42327
  366 202.488 15.7243 -16.6538
  367 48.9223 2.25059 0.764952
  368 48.9168 2.24861 -0.764645
  369 136.472 1.45349 -11.6491
  370 136.567 1.36640 11.6529
  371 147.865 1.70236 -7.13431
  372 147.898 1.66374 7.11659
  373 -4.39199 1.90461 2.54719
  374 -4.41192 1.90421 -2.54541
  375 83.2307 4.63014 -18.2849
  376 83.2779 4.67391 18.4794
  377 176.789 0.162898 0.952599
  378 176.762 0.163804 -0.953815
  379 98.0604 5.92465 -9.06200
  380 98.1074 5.87919 9.09829
  381 114.207 2.35925 2.27467
  382 114.195 2.36548 -2.27621
  383 -5.49002 -1.00722 4.36285
  384 -5.48870 -1.00953 -4.36220
  385 -1.29441 -0.922823 -1.24948
  386 -1.29511 -0.923437 1.25147
  387 234.815 -31.2492 14.3308
  388 -3.14966 -7.52623 12.0379
  389 -3.12950 -7.58583 -12.0354
  390 36.4789 2.94147 -1.18460
  391 36.4872 2.94418 1.18714
  392 -1.17478 -5.82188 4.37676
  393 -1.18758 -5.81129 -4.37671
  394 13.3201 6.77930 6.37902
  395 13.2934 6.78866 -6.37238
  396 192.143 -0.529647 5.13037
  397 192.127 -0.451841 -5.24271
  398 -0.609764 -11.7972 14.6931
  399 -15.8359 -0.309639 6.77901
  400 -15.8435 -0.310720 -6.78576
  401 -0.669990 -12.4326 -14.5244
  402 180.769 0.303256 2.49095
  403 180.748 0.308459 -2.49880
  404 -2.34409 3.79424 13.7948
  405 -2.39413 3.80882 -13.8098
  406 132.365 2.50738 -4.64906
  407 132.385 2.49108 4.64254
  408 203.867 -8.79782 -5.47528
  409 204.721 -7.03849 4.22252
  410 -0.441107 -21.2949 -8.91591
  411 17.3502 6.27586 -5.13685
  412 17.4931 6.19577 5.12999
  413 198.350 13.2325 10.5292
  414 113.932 -7.58738 -51.5314
  415 117.134 -9.76724 54.0777
  416 5.76769 6.34840 9.31794
  417 5.73325 6.36206 -9.31707
  418 83.9140 2.91120 -0.998195
  419 83.9185 2.90640 0.998596
  420 81.2998 8.36762 82.3799
  421 32.7591 8.24883 -3.03929
  422 32.7815 8.23928 3.05732
  423 1.93417 -21.0550 10.3231
  424 -0.260943 -34.7105 -7.81755
  425 12.4723 7.66904 8.87869
  426 12.4295 7.69112 -8.87821
  427 15.2388 4.76954 -4.02609
  428 15.2565 4.76813 4.03132
  429 -6.10784 -0.484361 -15.0572
  430 -6.08037 -0.492906 15.0378
  431 39.5344 7.61106 -6.30613
  432 39.3725 7.73642 6.40751
  433 203.723 -6.93454 -21.8981
  434 5.28431 -2.68321 12.2187
  435 5.09933 -2.61597 -12.2784
  436 148.179 -6.26338 -17.3276
  437 148.836 -6.74235 17.2817
  438 -37.9719 0.327747 -4.06391
  439 -37.9437 0.326840 4.06130
  440 0.00589481 -33.9908 7.00661
  441 -0.253007 -21.5433 7.92924
  442 -15.5470 0.934011 11.5515
  443 -15.5680 0.934497 -11.5641
  444 106.192 1.47953 -0.388554
  445 106.201 1.47719 0.388094
  446 -3.25353 -5.13296 8.12251
  447 -3.25774 -5.14326 -8.11213
  448 64.9526 2.59478 -26.8039
  449 64.8461 2.91361 27.1611
  450 0.545671 -41.5776 -7.90571
  451 376.491 14.2156 0.453946
  452 0.995043 -49.8220 -4.97727
  453 -45.4678 0.0713285 -1.55735
  454 -45.4384 0.0714214 1.55775
  455 -17.6796 2.39740 9.63298
  456 -17.7085 2.40245 -9.64030
  457 -19.9475 0.274012 6.83346
  458 -19.9595 0.274156 -6.84040
  459 71.3688 7.86130 -5.31470
  460 71.3815 7.85073 5.35632
  461 109.182 4.91309 -7.02451
  462 109.220 4.87473 7.03459
  463 -2.06021 -7.22021 15.1522
  464 -2.06199 -7.17139 -15.2128
  465 188.206 2.52855 -27.6796
  466 12.3978 -4.42771 -3.45770
  467 11.9687 -4.53143 3.67774
  468 2.88540 -45.7426 0.437865
  469 1.81336 -52.7389 -1.71771
  470 -5.89904 -2.66670 8.36984
  471 -5.89997 -2.67547 -8.37163
  472 39.3981 -8.08812 -41.6384
  473 296.270 -4.50817 -25.3832
  474 64.9400 4.79924 1.19323
  475 64.9378 4.80702 -1.18710
  476 94.7764 0.700282 -26.0439
  477 95.0308 0.666871 26.4794
  478 27.0017 9.84951 4.14337
  479 26.9578 9.87925 -4.12567
  480 85.4975 6.65654 -13.2510
  481 85.5540 6.61275 13.3664
  482 2.64913 1.34496 14.1563
  483 2.83955 1.44098 -14.1371
  484 -40.1385 0.632902 -3.07572
  485 -40.1088 0.632452 3.07535
  486 191.460 -22.9559 -13.3474
  487 152.988 0.456916 -0.810073
  488 153.010 0.456115 0.809689
  489 6.46074 1.38498 -1.17180
  490 6.47702 1.38610 1.17293
  491 -10.7752 3.61249 9.13322
  492 -10.8051 3.61917 -9.13687
  493 -23.5196 1.48733 -3.47361
  494 -23.4940 1.48670 3.47454
  495 64.8972 6.93183 -1.99000
  496 64.9020 6.92158 2.00659
  497 -8.64220 2.99368 12.6217
  498 -8.67617 3.00189 -12.6348
  499 175.483 -4.69223 -9.15071
  500 175.765 -4.95615 8.97698
  501 113.733 1.42312 -17.2391
  502 113.578 1.32446 17.3980
  503 41.2842 2.45978 -0.709867
  504 41.2914 2.46217 0.711004
  505 0.366282 -21.5070 -12.5234
  506 205.071 -7.79373 18.0402
  507 2.57959 -14.6110 -11.6749
  508 56.9587 9.44593 5.21117
  509 56.9816 9.42640 -5.13935
  510 189.349 -21.4836 13.1331
  511 13.7830 -23.6505 21.2174
  512 226.471 -31.2694 -27.1114
  513 153.686 1.04554 8.56634
  514 153.630 1.11708 -8.59047
  515 0.322567 -18.4645 13.0311
  516 -2.99986 -0.903040 -2.31740
  517 -3.00157 -0.902808 2.31939
  518 17.1488 1.36813 -0.390898
  519 17.1623 1.36940 0.391364
  520 -0.528624 -11.9767 5.18547
  521 -0.479633 -11.9192 -5.21074
  522 126.547 1.78656 1.85238
  523 126.533 1.79003 -1.85390
  524 360.879 61.0309 23.2205
  525 14.1313 -10.6831 -3.10145
  526 10.9553 -13.8382 0.824656
  527 -4.95298 2.91184 -4.78670
  528 -4.93015 2.90994 4.78868
  529 -31.2101 0.497365 4.13110
  530 -31.2298 0.497909 -4.13513
  531 0.301312 -38.8888 7.81742
  532 -44.9602 0.454511 0.484919
  533 -44.9883 0.454453 -0.484561
  534 37.9254 -5.12834 -30.2575
  535 37.0524 -4.40252 31.5219
  536 34.6236 5.50266 -9.49181
  537 34.3620 5.67386 9.58418
  538 -8.45004 -1.82849 11.5319
  539 -8.45997 -1.83489 -11.5456
  540 33.7562 3.59969 1.29892
  541 33.7470 3.59719 -1.29523
  542 -19.7864 1.02417 1.59689
  543 -19.8095 1.02388 -1.59583
  544 40.1641 6.46067 1.63093
  545 40.1545 6.45968 -1.61842
  546 -0.838938 -2.69583 1.97722
  547 -0.841691 -2.69311 -1.97672
  548 14.2497 6.12893 8.21040
  549 14.1561 6.22243 -8.23301
  550 11.5213 1.26274 7.41136
  551 11.3531 1.24628 -7.49824
  552 156.232 1.47980 3.62863
  553 156.212 1.48786 -3.63532
  554 137.576 2.31589 5.70629
  555 137.550 2.34047 -5.71603
  556 -0.142535 -32.5220 -4.83782
  557 95.3793 5.38704 -5.23029
  558 95.4018 5.36368 5.24030
  559 95.8262 2.80546 -1.83581
  560 95.8355 2.79793 1.83607
  561 -14.8294 0.686859 -0.0679080
  562 -14.8083 0.687379 0.0682248
  563 158.880 9.07605 -5.32290
  564 216.748 -28.7126 -8.75979
  565 173.744 7.74604 21.1635
  566 1.33928 -28.6275 -9.43694
  567 -10.6982 3.18148 -6.16470
  568 -10.6725 3.17830 6.16534
  569 1.36061 -16.7665 12.4845
  570 -9.89322 0.172837 13.3350
  571 -9.91481 0.172805 -13.3499
  572 275.466 26.6156 -2.18397
  573 61.6221 3.44249 -0.379867
  574 61.6213 3.43764 0.382350
  575 426.445 35.5597 -35.5569
  576 -2.39288 -1.89616 15.7104
  577 -2.26004 -1.78729 -15.7262
  578 229.152 -21.6890 11.4915
  579 185.321 0.408374 -4.38473
  580 185.327 0.381155 4.34974
  581 83.0436 -1.16765 -38.1213
  582 84.0935 -1.40353 38.7861
  583 -4.87286 -4.70155 13.3781
  584 -4.87602 -4.72371 -13.4088
  585 43.0782 2.78541 19.3665
  586 43.4403 2.43770 -19.1692
  587 -36.7069 0.433734 -3.93097
  588 -36.6804 0.433073 3.92788
  589 270.364 20.5793 19.6094
  590 50.0067 5.19004 -0.372270
  591 50.0103 5.19467 0.378954
  592 59.2029 7.29332 -13.0389
  593 59.1369 7.38349 13.2121
  594 166.728 0.0283372 -8.44305
  595 166.798 -0.0658392 8.40249
  596 -0.799874 -17.2218 -12.0774
  597 182.798 -0.0556343 1.29991
  598 182.770 -0.0544144 -1.30167
  599 -27.9281 0.671117 -0.669072
  600 -27.9037 0.671392 0.669706
  601 -48.1731 -0.263818 0.0379061
  602 -48.2015 -0.263979 -0.0377721
  603 3.66903 -26.8572 -5.07742
  604 -1.74627 -11.1041 10.2570
  605 -1.84167 -10.5153 -10.3259
  606 -21.0574 1.26465 9.66502
  607 -21.0805 1.26688 -9.67460
  608 126.172 3.61794 7.13930
  609 126.137 3.65596 -7.14354
  610 92.4351 1.75026 0.447465
  611 92.4298 1.75248 -0.447551
  612 20.2236 -7.61584 11.6467
  613 20.9094 -7.17602 -11.5158
  614 -0.660801 -8.33859 4.36930
  615 -0.680184 -8.31075 -4.38325
  616 218.989 9.46371 89.3218
  617 -10.7550 -0.343387 4.06303
  618 -10.7540 -0.344803 -4.06560
  619 3.60697 -16.4047 -9.64893
  620 90.2695 4.17591 -2.56302
  621 90.2796 4.16501 2.56531
  622 43.3731 9.38347 -3.42737
  623 43.2986 9.43848 3.50014
  624 0.446547 -59.3316 3.47977
  625 32.2352 9.38646 2.83447
  626 32.2052 9.40441 -2.81288
  627 -4.73909 3.94031 7.39213
  628 -4.76587 3.94550 -7.39164
  629 -0.260995 -28.7643 6.61489
  630 -47.6554 0.0968644 -1.53883
  631 -47.6250 0.0968303 1.53910
  632 58.7220 2.09816 -0.0492141
  633 58.7246 2.10125 0.0501355
  634 152.263 0.839235 2.36855
  635 152.243 0.843377 -2.37175
  636 133.069 -11.2780 68.1870
  637 106.904 3.23292 -4.15169
  638 106.922 3.21609 4.15245
  639 1.36396 -2.71633 14.7350
  640 1.73374 -1.74048 -14.7357
  641 171.775 -19.1770 -54.9332
  642 414.131 14.5584 -14.8164
  643 -43.4348 0.0589913 -2.75009
  644 -43.4048 0.0585737 2.74880
  645 8.73006 2.55995 -2.44479
  646 8.74657 2.56064 2.44719
  647 -0.836503 -18.1565 10.6222
  648 231.980 12.5430 -26.8557
  649 180.845 -0.150837 0.211530
  650 180.815 -0.150656 -0.211619
  651 -11.6731 -0.674119 -9.50808
  652 -11.6641 -0.671679 9.49857
  653 -0.0277943 -41.0293 -6.42282
  654 184.020 -0.192955 0.496625
  655 183.989 -0.192678 -0.496902
  656 15.4328 5.97988 5.46194
  657 15.4109 5.98498 -5.45505
  658 137.838 -12.6375 -35.7318
  659 140.469 -12.6047 36.1654
  660 204.421 -1.13358 2.89772
  661 204.517 -1.11666 -3.04709
  662 0.882234 -52.1228 5.20600
  663 -12.7367 0.573906 -0.944173
  664 -12.7159 0.574514 0.944835
  665 65.9249 -0.00553078 -64.0805
  666 61.1838 1.93161 0.397511
  667 61.1862 1.93377 -0.397216
  668 29.2191 2.69678 0.709334
  669 29.2086 2.69471 -0.707386
  670 35.1068 4.41975 -1.18298
  671 35.1160 4.42238 1.18864
  672 117.746 3.77407 -11.0285
  673 117.823 3.70580 11.0537
  674 30.2672 9.01638 1.63585
  675 30.1832 9.07932 -1.60793
  676 -22.5628 1.69608 -5.73905
  677 -22.5355 1.69374 5.73819
  678 -25.9026 1.77741 -6.44294
  679 -25.8746 1.77474 6.44023
  680 209.548 -3.08180 -1.08416
  681 0.0168109 -8.94951 -14.8764
  682 210.002 -3.23398 0.751236
  683 263.829 21.1923 0.911852
  684 -26.4291 0.118421 4.68300
  685 -26.4442 0.118538 -4.68789
  686 26.2879 7.38645 -0.153476
  687 26.1028 7.48796 0.188626
  688 -51.2746 0.0895991 -0.597493
  689 -51.2444 0.0896628 0.597851
  690 0.155351 -8.11021 14.9347
  691 -16.6932 0.190675 10.0885
  692 -16.7101 0.190555 -10.0993
  693 229.486 -20.4223 -12.4144
  694 34.6489 1.34751 -0.136774
  695 34.6398 1.34583 0.137254
  696 6.88733 3.62703 3.92549
  697 6.86845 3.62772 -3.92197
  698 119.767 -5.85798 -29.6958
  699 120.741 -6.08846 30.3195
  700 431.441 30.1322 32.6411
  701 7.78159 -42.9277 -12.3392
  702 -3.19550 -6.65261 14.3555
  703 -3.20322 -6.67601 -14.3830
  704 24.1327 5.99403 -3.26800
  705 24.1485 5.99260 3.27601
  706 189.133 -0.144746 -1.33406
  707 189.160 -0.146076 1.33122
  708 88.2056 2.07598 0.674026
  709 88.2006 2.07977 -0.674081
  710 6.53184 6.44106 11.1442
  711 6.49081 6.46142 -11.1501
  712 2.97507 1.96997 1.73040
  713 2.95773 1.96913 -1.72894
  714 -5.71049 1.08123 14.8786
  715 -5.74473 1.08417 -14.9017
  716 154.649 0.256206 0.979385
  717 154.628 0.257595 -0.980451
  718 133.215 1.65932 2.67279
  719 133.199 1.66473 -2.67542
  720 17.1322 -13.9472 14.2766
  721 17.6666 -14.7748 -13.7410
  722 -10.8811 2.18576 12.9825
  723 -10.9110 2.18984 -12.9978
  724 5.19760 -13.7849 7.89420
  725 -0.143900 3.74802 13.9672
  726 -0.196942 3.76153 -13.9742
  727 -30.7188 0.937125 -3.85896
  728 -30.6911 0.936253 3.85892
  729 22.0052 7.67771 5.26411
  730 21.9780 7.68832 -5.25220
  731 206.019 -6.40270 -12.4012
  732 195.293 -17.3272 -3.58256
  733 -3.21721 -6.56554 10.0733
  734 -3.21203 -6.59447 -10.0587
  735 74.3155 -2.12915 -45.0401
  736 72.3144 -0.452040 45.5539
  737 44.7993 8.58646 -5.89288
  738 44.6964 8.67235 5.99505
  739 3.68952 -8.18965 12.3124
  740 -0.293860 -21.2030 -5.71961
  741 95.2031 5.67704 -10.0701
  742 95.2615 5.63236 10.1274
  743 0.263127 -41.8815 5.34841
  744 56.1272 8.30938 -1.96118
  745 56.1230 8.30613 1.99136
  746 198.353 -0.0185743 -3.33300
  747 198.328 -0.0454424 3.27652
  748 3.73731 -58.9111 0.363375
  749 87.5602 7.06253 7.45424
  750 87.5288 7.09254 -7.41841
  751 22.9849 8.12415 -3.77124
  752 23.0996 8.03693 3.77534
  753 -35.9926 0.240591 -3.29662
  754 -35.9694 0.240237 3.29347
  755 97.7708 2.26028 -1.65533
  756 97.7790 2.25514 1.65505
  757 59.3765 9.00474 -4.27480
  758 59.3678 9.00892 4.32801
  759 -0.473321 5.32704 10.9594
  760 -0.509447 5.34029 -10.9635
  761 195.908 -14.7842 1.22795
  762 -31.8880 0.779682 2.96128
  763 -31.9150 0.779871 -2.96069
  764 430.636 78.8851 -55.7581
  765 -13.0182 1.39414 3.20401
  766 -13.0406 1.39403 -3.20256
  767 167.276 0.844895 6.02559
  768 167.253 0.879823 -6.05429
  769 310.556 20.3328 0.591759
  770 190.427 -0.382463 -2.55103
  771 190.445 -0.387478 2.54145
  772 120.286 2.28774 3.30977
  773 120.270 2.29678 -3.31230
  774 180.361 -22.0859 50.0098
  775 77.1585 6.27008 -2.44128
  776 77.1692 6.25655 2.45189
  777 1.69422 -32.6469 7.13338
  778 207.304 -27.1456 15.1652
  779 125.589 0.846435 0.580843
  780 125.576 0.848019 -0.581147
  781 165.911 0.360586 0.311660
  782 165.886 0.360902 -0.311824
  783 -0.773618 -16.9015 -9.91847
  784 0.945317 -29.2976 10.0199
  785 72.8312 8.40374 10.3628
  786 72.8163 8.40854 -10.2609
  787 428.505 4.75501 3.51535
  788 126.881 1.48502 -13.9089
  789 126.985 1.40309 13.9400
  790 -27.1846 0.905642 7.29142
  791 -27.2111 0.907778 -7.29692
  792 5.12803 -24.5336 3.03981
  793 3.36040 -55.2613 -2.75046
  794 291.578 37.3636 -1.96681
  795 -0.263165 -21.1320 5.15993
  796 5.28291 3.89524 12.7665
  797 5.26872 3.89657 -12.8114
  798 37.6064 7.99538 2.01820
  799 37.5917 7.99986 -2.00134
  800 194.715 -8.80432 -2.31422
  801 194.986 -8.73025 1.56309
  802 231.625 26.3325 -84.3665
  803 -32.8934 0.465837 -1.43706
  804 -32.8671 0.465994 1.43784
  805 -14.7758 -0.0696069 3.83971
  806 -14.7774 -0.0701649 -3.84311
  807 13.4337 0.239082 4.85102
  808 13.1473 0.221658 -4.86734
  809 146.897 -0.449784 12.5592
  810 146.781 -0.308477 -12.5450
  811 73.9770 2.53511 -0.218617
  812 73.9788 2.53131 0.219207
  813 237.997 -5.38034 24.8546
  814 23.6597 4.36574 -2.89005
  815 23.6734 4.36655 2.89562
  816 22.4512 2.20296 -2.36907
  817 22.2474 2.32244 2.43739
  818 -0.185994 -17.0098 -13.5384
  819 340.634 46.8153 44.2197
  820 -49.8285 0.0794841 -1.52177
  821 -49.7970 0.0793954 1.52180
  822 -0.0741385 -51.2567 5.12308
  823 3.24271 -8.07596 -12.4223
  824 -7.30390 -0.456682 2.83751
  825 -7.30000 -0.457724 -2.83800
  826 269.806 13.2553 -18.8246
  827 68.6114 7.36257 -3.05144
  828 68.6199 7.35113 3.07684
  829 184.961 -2.39789 -6.29319
  830 185.105 -2.43636 6.17053
  831 -47.4801 0.388416 1.99249
  832 -47.5114 0.388694 -1.99304
  833 -0.324742 -0.337244 -0.270781
  834 -0.325387 -0.337859 0.271836
  835 0.173218 -52.4535 -5.04136
  836 0.248695 -55.6323 -4.72558
  837 -52.9754 0.543169 0.324380
  838 -53.0050 0.543192 -0.324226
  839 27.0794 -12.0130 -28.8202
  840 113.920 1.92403 -0.905420
  841 113.931 1.92127 0.904603
  842 -5.34991 1.19040 0.412218
  843 -5.36882 1.18975 -0.412051
  844 170.767 0.780577 -4.02365
  845 170.786 0.768292 4.00984
  846 -19.4560 0.131047 3.66044
  847 -19.4615 0.131087 -3.66401
  848 101.704 -1.86456 -68.5047
  849 177.087 -15.3197 13.2689
  850 139.429 1.06879 -1.20060
  851 139.446 1.06678 1.19931
  852 175.376 -16.6997 -14.9352
  853 53.5297 6.55003 -0.331827
  854 53.5273 6.54404 0.346241
  855 74.6496 5.50207 -1.77538
  856 74.6564 5.49160 1.78214
  857 206.166 -4.47118 9.44993
  858 11.7556 7.26846 9.45150
  859 11.7077 7.29727 -9.46114
  860 11.4262 1.23404 0.850430
  861 11.4113 1.23281 -0.849669
  862 96.4515 1.79599 0.737990
  863 96.4449 1.79890 -0.738264
  864 256.487 -26.3973 26.2436
  865 159.850 1.30561 -5.21666
  866 159.873 1.28262 5.19809
  867 0.881031 2.66211 3.12080
  868 0.861820 2.66207 -3.11838
  869 160.650 0.146153 1.44984
  870 160.628 0.147793 -1.45149
  871 -31.3677 0.320139 -0.838231
  872 -31.3429 0.320434 0.838276
  873 -0.148316 -16.1444 4.58740
  874 -0.192796 -16.3970 -4.62404
  875 189.822 -3.05093 22.0968
  876 -12.3453 2.94428 11.0853
  877 -12.3761 2.95132 -11.0944
  878 -0.0690729 -26.6713 -5.09353
  879 74.7130 3.35085 -0.863528
  880 74.7157 3.34578 0.864855
  881 138.605 -7.11050 -22.5463
  882 139.731 -7.87578 22.7755
  883 -6.23622 -2.28120 -14.4378
  884 -6.21259 -2.28351 14.4132
  885 6.67956 6.59659 10.2720
  886 6.64094 6.61387 -10.2732
  887 0.682430 -61.8937 3.73075
  888 1.22541 5.01441 12.8648
  889 1.18123 5.02965 -12.8724
  890 127.822 -2.20133 -19.9998
  891 127.560 -2.32618 20.1622
  892 221.366 11.1751 27.6429
  893 49.7801 6.13729 -0.253881
  894 49.7843 6.14241 0.263991
  895 164.376 1.36597 -3.92726
  896 164.396 1.35587 3.91756
  897 -6.56908 -2.92287 12.6073
  898 -6.57898 -2.93251 -12.6267
  899 0.550919 -64.2721 -2.73195
  900 -10.0927 -0.752940 12.4050
  901 -10.1084 -0.753815 -12.4194
  902 5.15542 6.07069 -8.15749
  903 5.18542 6.06017 8.15973
  904 -0.508173 -4.01939 2.23444
  905 -0.513744 -4.01500 -2.23761
  906 12.8333 6.83326 -7.47845
  907 12.8652 6.82025 7.48439
  908 2.63271 -5.49091 13.7222
  909 2.26080 -5.11523 -14.3508
  910 158.314 -4.26858 12.7175
  911 157.922 -4.03248 -12.8166
  912 -53.8954 0.194770 -0.475855
  913 -53.8651 0.194823 0.476093
  914 -4.46773 -0.411273 2.12331
  915 -4.46331 -0.411886 -2.12241
  916 0.221961 -37.9902 -4.67017
  917 -4.87679 -2.11168 -6.07702
  918 -4.87616 -2.10703 6.07858
  919 -21.0602 1.73421 9.36991
  920 -21.0867 1.73785 -9.37816
  921 48.0663 9.65723 -1.83012
  922 48.0393 9.67869 1.87602
  923 206.797 16.8187 -4.90381
  924 -3.37403 4.79266 9.96845
  925 -3.40633 4.80242 -9.97137
  926 76.5993 4.66498 -20.5947
  927 76.6268 4.73429 20.8602
  928 -10.3768 3.40286 8.05490
  929 -10.4050 3.40867 -8.05680
  930 256.882 -14.9681 -7.48367
  931 148.125 5.93105 11.8888
  932 183.230 -2.66857 -19.9910
  933 138.590 2.34356 -8.51278
  934 138.638 2.28965 8.50237
  935 -16.0653 2.13360 -4.10493
  936 -16.0409 2.13233 4.10607
  937 -34.0487 0.639521 4.74685
  938 -34.0770 0.640780 -4.74931
  939 -2.03070 -6.51292 -7.06198
  940 -2.01774 -6.52037 7.07624
  941 47.7370 3.65695 -0.215483
  942 47.7417 3.66069 0.218734
  943 -16.0090 1.57065 11.5244
  944 -16.0335 1.57277 -11.5371
  945 167.762 0.211188 1.93255
  946 167.738 0.213141 -1.93487
  947 -1.30582 -14.4047 10.7924
  948 4.97990 5.63489 -7.06661
  949 5.00640 5.62765 7.06974
  950 7.14666 4.05358 4.79192
  951 7.12625 4.05563 -4.78811
  952 27.1112 3.06430 -1.46117
  953 27.1222 3.06616 1.46374
  954 316.208 35.5503 -3.61759
  955 -1.21102 -0.341415 -0.827721
  956 -1.21361 -0.341463 0.829266
  957 10.0629 2.43303 -9.06359
  958 10.2365 2.33865 9.04163
  959 111.162 4.99707 -8.72710
  960 111.212 4.94807 8.74431
  961 12.9613 5.05286 -4.66784
  962 12.9812 5.05016 4.67327
  963 29.9089 -13.6031 39.1790
  964 212.604 -1.40197 -1.51814
  965 212.196 -1.34724 1.30073
  966 36.1424 -7.24451 33.6769
  967 37.6609 2.15402 0.0913749
  968 37.6526 2.15211 -0.0905422
  969 100.630 -5.54240 -59.1176
  970 75.8964 1.87700 0.424721
  971 75.8953 1.87918 -0.424594
  972 9.26069 -11.4780 3.42146
  973 10.2367 -9.84437 -2.64741
  974 188.986 -0.0952742 0.671236
  975 188.954 -0.0949655 -0.671609
  976 -15.5961 0.0220871 9.11588
  977 -15.6083 0.0216168 -9.12505
  978 337.851 41.7827 16.3979
  979 -1.56467 -10.9990 -14.3656
  980 1.46469 -57.0120 4.75187
  981 -0.334749 -17.3623 13.3000
  982 195.142 0.0131656 -2.60388
  983 195.150 0.00579707 2.58839
  984 -2.58614 -4.71679 6.08957
  985 -2.59240 -4.71563 -6.08239
  986 239.378 24.2842 -16.6113
  987 435.336 4.26050 -2.36858
  988 -0.629373 -0.925854 -0.900859
  989 -0.628759 -0.927807 0.902152
  990 111.785 1.84439 -1.83336
  991 111.796 1.84013 1.83234
  992 -1.61891 -10.5959 14.4541
  993 156.448 1.14347 7.67963
  994 156.412 1.19583 -7.70512
  995 205.214 -13.9621 -9.89791
  996 -7.22893 -1.54009 6.89490
  997 -7.22993 -1.54528 -6.89710
  998 3.08491 -14.3635 10.8449
  999 -0.372094 -25.9234 10.4305
  1000 -0.0277788 -26.4511 5.08141
  1001 205.825 14.0866 -1.10429
  1002 238.313 26.0977 10.2238
  1003 171.651 -20.5118 -27.0459
  1004 2.30616 -26.0204 8.84935
  1005 2.96542 -37.7426 2.76691
  1006 46.2974 1.66422 0.219195
  1007 46.2911 1.66238 -0.219013
  1008 -1.91699 -2.18230 -2.88292
  1009 -1.91562 -2.18321 2.88553
  1010 1.49701 -21.3612 -11.4874
  1011 139.251 0.626532 -0.440011
  1012 139.268 0.625410 0.439605
  1013 26.7441 -1.63590 -11.6385
  1014 25.5704 -1.56675 11.5285
  1015 -3.28180 4.16760 12.8713
  1016 -3.32325 4.18084 -12.8831
  1017 -17.3500 2.57427 -8.05827
  1018 -17.3216 2.56979 8.05485
  1019 104.468 1.75262 -20.3894
  1020 104.557 1.82678 20.6313
  1021 74.6641 6.77310 -13.7573
  1022 74.6746 6.76483 13.9128
  1023 81.4865 6.51212 -4.29399
  1024 81.5022 6.49258 4.30982
  1025 214.024 -6.84227 -26.5235
  1026 -6.26008 2.51588 13.9373
  1027 -6.29792 2.52246 -13.9572
  1028 151.976 0.242920 10.4241
  1029 151.896 0.350524 -10.4431
  1030 -1.20182 -8.43237 15.1890
  1031 -12.3939 -0.436732 6.68194
  1032 -12.3979 -0.438496 -6.68769
  1033 138.228 1.74434 -10.3209
  1034 138.297 1.66898 10.3145
  1035 166.799 3.65195 -18.9246
  1036 -0.259543 -25.8300 -10.9561
  1037 -2.13712 -10.2030 12.8296
  1038 -2.22291 -10.3133 -12.7168
  1039 96.6089 6.21763 -6.98459
  1040 96.6445 6.18277 7.00740
  1041 123.100 2.79240 4.12687
  1042 123.082 2.80545 -4.13053
  1043 204.797 -13.6334 8.68470
  1044 8.38879 1.34767 -0.241147
  1045 8.40442 1.34865 0.241366
  1046 173.739 -22.9730 28.8929
  1047 -2.74017 0.974440 1.08967
  1048 -2.75863 0.973553 -1.08889
  1049 36.1913 9.65239 1.37903
  1050 36.1515 9.67948 -1.34817
  1051 13.0928 7.56956 8.17425
  1052 13.0559 7.58701 -8.16982
  1053 1.81149 -32.2602 -7.40640
  1054 48.8696 2.38014 -0.323934
  1055 48.8744 2.38344 0.325855
  1056 143.169 4.97635 4.86648
  1057 140.322 1.53935 3.91314
  1058 140.303 1.55057 -3.91908
  1059 -1.06322 -8.72420 -15.2110
  1060 211.529 -2.64850 -4.92434
  1061 -0.431336 -1.10896 15.3017
  1062 -0.278315 -0.974020 -15.2425
  1063 194.228 -0.254104 -1.43131
  1064 194.254 -0.255756 1.42714
  1065 206.602 -0.589857 -2.49806
  1066 206.509 -0.618851 2.41713
  1067 -0.158682 -40.1226 3.84373
  1068 119.499 3.60757 -5.49700
  1069 119.521 3.58679 5.49398
  1070 146.337 1.77456 4.61216
  1071 146.316 1.78859 -4.62086
  1072 2.64293 3.13927 14.0020
  1073 2.63025 3.14370 -14.0068
  1074 319.208 22.1113 2.58582
  1075 -4.36588 -2.01809 15.4831
  1076 -4.42043 -1.97938 -15.5157
  1077 43.8360 9.16659 0.552358
  1078 43.8214 9.17339 -0.527393
  1079 -27.1208 0.640525 -1.55515
  1080 -27.0961 0.640846 1.55589
  1081 72.8795 3.70648 -23.8252
  1082 72.8046 3.92009 24.1572
  1083 20.1712 8.53183 6.61242
  1084 20.1301 8.55387 -6.60274
  1085 49.1109 5.03754 -17.0207
  1086 48.8653 5.29555 17.2050
  1087 -1.39001 -13.5154 -10.5069
  1088 175.396 1.99392 24.3966
  1089 124.484 -3.05909 77.3963
  1090 18.9772 8.65287 6.84323
  1091 18.9266 8.68416 -6.83775
  1092 74.3912 4.57703 -1.26801
  1093 74.3964 4.56822 1.27221
  1094 276.509 -2.19224 10.6464
  1095 16.7223 3.79346 4.91208
  1096 16.5092 3.85501 -4.96565
  1097 -8.25869 -1.85306 9.21685
  1098 -8.26296 -1.86070 -9.22401
  1099 -0.272146 -6.00966 2.44663
  1100 -0.282482 -6.00549 -2.45616
  1101 181.308 0.144815 6.26072
  1102 181.274 0.220072 -6.32477
  1103 0.116384 -13.3867 14.2989
  1104 -12.7362 0.709653 -12.4913
  1105 -12.7152 0.709727 12.4775
  1106 0.0696203 -48.8752 -4.98909
  1107 -3.09700 -4.30815 15.4540
  1108 -3.09051 -4.22507 -15.4685
  1109 173.924 0.474729 -2.63792
  1110 173.947 0.470324 2.63255
  1111 178.475 -1.02421 7.41884
  1112 178.378 -0.904470 -7.48716
  1113 29.7879 6.16704 -4.67166
  1114 29.5631 6.31054 4.74521
  1115 -0.445034 -25.1748 -8.80349
  1116 235.644 -25.2471 -44.2581
  1117 306.200 35.8004 -2.58560
  1118 2.94744 -39.9275 -1.68256
  1119 10.0349 5.89880 -10.6386
  1120 10.0919 5.86199 10.6024
  1121 27.7187 9.33658 3.74109
  1122 27.6603 9.37667 -3.72213
  1123 60.0328 4.17154 0.141881
  1124 60.0331 4.17760 -0.137730
  1125 -4.04146 -5.75714 11.9638
  1126 -4.03448 -5.80842 -11.9792
  1127 -12.0887 3.51457 10.2786
  1128 -12.1193 3.52176 -10.2848
  1129 -4.80100 4.36913 11.9425
  1130 -4.83776 4.38039 -11.9513
  1131 169.448 -8.58750 -12.3088
  1132 170.584 -8.68736 12.1698
  1133 0.118078 -29.2611 -10.4842
  1134 88.9282 -0.821515 -30.3385
  1135 89.1059 -0.532134 30.9028
  1136 27.5405 8.76518 -3.91511
  1137 27.5676 8.75063 3.93123
  1138 91.5358 32.5332 86.8231
  1139 21.2192 7.14606 5.01153
  1140 21.1962 7.15310 -5.00148
  1141 232.717 -27.2721 -8.84347
  1142 86.4898 2.99360 1.10844
  1143 86.4837 2.99970 -1.10774
  1144 -3.99416 -3.57311 7.25466
  1145 -3.99566 -3.58056 -7.25073
  1146 -4.79102 -4.31554 9.42359
  1147 -4.78937 -4.33116 -9.42254
  1148 151.096 -16.5954 -43.4136
  1149 154.390 -18.1762 43.7586
  1150 25.5709 1.46803 0.150395
  1151 25.5822 1.46960 -0.149522
  1152 93.9145 4.54573 -16.3234
  1153 93.9427 4.47736 16.5089
  1154 208.665 -29.6265 32.6223
  1155 187.581 -0.306825 0.397103
  1156 187.548 -0.306594 -0.397145
  1157 -17.4591 2.65600 9.15187
  1158 -17.4881 2.66088 -9.15735
  1159 -29.6387 0.975811 -4.87913
  1160 -29.6108 0.974617 4.87852
  1161 46.0372 -3.50523 50.8041
  1162 138.263 9.71911 -9.83614
  1163 85.8959 6.64216 -7.65439
  1164 85.9325 6.61247 7.70336
  1165 273.590 -12.7767 47.2961
  1166 87.2571 6.27859 -11.6978
  1167 87.3047 6.23554 11.7834
  1168 20.5264 3.23401 -2.02354
  1169 20.5397 3.23558 2.02658
  1170 7.30541 -31.2619 3.67083
  1171 7.39824 -30.6163 -5.64888
  1172 118.826 -9.39238 -43.7527
  1173 120.554 -8.84093 43.7646
  1174 45.5846 7.12111 -11.4461
  1175 45.4002 7.28716 11.5962
  1176 211.431 -14.8399 -17.6301
  1177 -8.03047 -0.792622 14.0633
  1178 -8.05293 -0.791176 -14.0810
  1179 -0.286894 -11.9918 -14.6738
  1180 52.4031 -0.242950 -31.5488
  1181 52.5445 -0.0475806 32.1536
  1182 -0.138125 -10.6915 2.73767
  1183 -0.117652 -10.7166 -2.77039
  1184 -51.9136 0.449424 -1.41979
  1185 -51.8814 0.449242 1.41961
  1186 169.871 0.189402 -0.695978
  1187 169.897 0.188661 0.695059
  1188 103.102 4.39600 -4.48711
  1189 103.124 4.37492 4.49094
  1190 -4.19614 -0.278318 15.5566
  1191 -4.20811 -0.218502 -15.5836
  1192 0.0275702 -43.4226 -4.29810
  1193 -43.8776 0.113500 2.23578
  1194 -43.9067 0.113777 -2.23729
  1195 32.1687 -2.90545 -21.5186
  1196 31.9157 -2.70002 22.2716
  1197 196.791 -12.1191 0.478785
  1198 54.5519 2.26401 -28.2700
  1199 54.6053 2.45128 28.6009
  1200 -24.1214 0.125595 3.33906
  1201 -24.1310 0.125548 -3.34253
  1202 0.601627 -38.7737 -7.57941
  1203 -8.75509 1.74125 -2.07337
  1204 -8.73456 1.74169 2.07473
  1205 28.2207 7.53139 3.93248
  1206 28.1995 7.53797 -3.91912
  1207 110.194 1.15546 -0.627730
  1208 110.204 1.15354 0.627572
  1209 149.746 1.13564 2.98262
  1210 149.727 1.14259 -2.98751
  1211 7.62571 -1.89353 9.29607
  1212 7.51164 -2.02568 -9.43223
  1213 1.25436 -22.5214 11.4202
  1214 267.592 35.0429 13.7590
  1215 -8.27860 -0.665299 5.22440
  1216 -8.27814 -0.667872 -5.22633
  1217 0.978935 -21.0797 -11.8673
  1218 -0.809722 -12.6183 7.66634
  1219 -0.766167 -12.5152 -7.94638
  1220 212.643 -2.27695 4.38872
  1221 0.196698 -49.8054 4.41973
  1222 1.36040 -15.6183 -13.2230
  1223 23.5471 1.21845 0.325509
  1224 23.5352 1.21709 -0.325335
  1225 -2.21382 -9.24323 14.1756
  1226 -24.6727 1.44208 -4.21656
  1227 -24.6462 1.44113 4.21699
  1228 443.327 7.97554 12.1709
  1229 -12.7069 1.35608 12.6908
  1230 -12.7319 1.35737 -12.7054
  1231 100.574 4.35239 -14.7777
  1232 100.679 4.26412 14.8746
  1233 6.22064 -11.2414 -6.51846
  1234 95.9244 5.51979 -5.67438
  1235 95.9524 5.49158 5.68909
  1236 3.79116 -31.8308 -2.72060
  1237 -2.21837 -9.25560 -14.1433
  1238 -17.9409 0.855352 2.61171
  1239 -17.9640 0.855031 -2.61057
  1240 -7.78349 0.399485 -14.4546
  1241 -7.75649 0.399522 14.4383
  1242 204.196 16.0982 19.8971
  1243 116.785 1.66179 -15.8619
  1244 116.938 1.60947 15.9023
  1245 -54.6954 0.157025 -0.563674
  1246 -54.6640 0.157028 0.563950
  1247 105.652 3.16110 -3.07322
  1248 105.664 3.15182 3.07255
  1249 -56.4620 -0.908701 -0.141129
  1250 -56.4921 -0.908913 0.141195
  1251 157.898 -11.3670 -18.1382
  1252 -25.4702 0.417174 7.14804
  1253 -25.4904 0.417811 -7.15536
  1254 159.565 -11.9969 17.9708
  1255 107.287 4.52216 -6.38229
  1256 107.316 4.49200 6.38768
  1257 12.2177 -35.6462 -21.4215
  1258 0.222699 -35.3250 -9.02028
  1259 -0.805598 -14.9247 13.3076
  1260 345.638 50.3477 -43.4724
  1261 -0.0913773 -32.9693 8.72175
  1262 358.252 33.6168 -19.4820
  1263 -0.161239 -60.9513 -4.22864
  1264 15.3751 2.08545 -0.867628
  1265 15.3892 2.08682 0.869274
  1266 -0.155815 -13.7433 2.87105
  1267 -0.126909 -13.8146 -2.86175
  1268 58.9512 2.05741 -0.148092
  1269 58.9540 2.05985 0.148559
  1270 214.041 -16.9889 16.8507
  1271 2.65167 1.90764 -2.40562
  1272 2.66943 1.90836 2.40735
  1273 1.24250 -68.1186 2.42417
  1274 0.789485 -72.3364 -2.38121
  1275 196.862 -25.5143 -19.0413
  1276 -0.562382 -18.0902 8.50776
  1277 203.154 12.3724 -24.5940
  1278 -0.617791 -23.8436 8.38097
  1279 0.400244 -65.9673 -3.39754
  1280 98.3054 3.41906 -3.24472
  1281 98.3195 3.40423 3.24670
  1282 -0.0668248 -35.3406 3.78663
  1283 -0.0983745 -29.5580 -8.57395
  1284 478.711 78.7728 69.2208
  1285 188.498 0.229525 0.313290
  1286 188.465 0.229481 -0.313219
  1287 4.43125 -0.163647 12.8684
  1288 4.28362 0.0369313 -12.9173
  1289 -3.41555 2.51336 14.7609
  1290 -3.47680 2.52141 -14.7848
  1291 197.585 -3.84020 -14.2429
  1292 184.145 -7.58528 -6.78559
  1293 183.925 -8.66855 6.81281
  1294 25.9230 3.62833 2.12052
  1295 25.9109 3.62641 -2.11624
  1296 -31.0394 0.844412 -5.70588
  1297 -31.0117 0.842791 5.70212
  1298 205.534 -29.8606 -27.4893
  1299 -1.54855 -3.71787 3.77668
  1300 -1.55417 -3.71440 -3.77452
  1301 216.149 -10.0796 25.0030
  1302 -2.33187 -8.69576 10.3208
  1303 -2.30683 -8.72662 -10.2729
  1304 -20.7691 1.45112 3.09209
  1305 -20.7935 1.45138 -3.09099
  1306 31.5322 2.57179 -10.4452
  1307 31.2077 2.76488 10.4532
  1308 49.8426 1.95496 0.425642
  1309 49.8375 1.95248 -0.424941
  1310 -21.6954 2.13098 8.96483
  1311 -21.7229 2.13470 -8.97124
  1312 176.494 0.665001 0.487371
  1313 176.465 0.664937 -0.487310
  1314 94.9839 -2.78505 58.6061
  1315 143.251 0.757220 1.04794
  1316 143.233 0.758547 -1.04869
  1317 93.3332 1.87436 -23.0042
  1318 93.3753 1.75702 23.2332
  1319 0.869607 -39.4922 -5.80679
  1320 35.4484 8.38525 -3.65198
  1321 35.3031 8.49223 3.72885
  1322 -0.340629 -0.325110 -0.458062
  1323 -0.342320 -0.325264 0.459386
  1324 121.524 4.24831 8.45839
  1325 121.479 4.29881 -8.45570
  1326 59.3127 5.47120 0.668295
  1327 59.3123 5.47855 -0.660115
  1328 88.3042 5.57170 -3.67599
  1329 88.3210 5.55313 3.68521
  1330 116.863 1.24195 -1.04495
  1331 116.875 1.23999 1.04452
  1332 -3.74374 -1.82696 -4.26982
  1333 -3.74367 -1.82526 4.27255
  1334 -37.1705 0.140957 1.84052
  1335 -37.1982 0.140923 -1.83988
  1336 -6.46425 -3.00612 -10.5605
  1337 -6.46115 -2.99227 10.5517
  1338 -22.0826 0.532799 0.796051
  1339 -22.1054 0.532320 -0.795671
  1340 -56.9649 0.545988 0.325789
  1341 -56.9955 0.546030 -0.325632
  1342 221.734 -30.0767 38.0191
  1343 155.524 -1.17119 -19.6892
</Section>

newXOutput 27

<Section columns = "stress_xx | stress_yy | stress_xy">
  1 201.924 -0.205361 0.190669
  2 201.962 -0.205477 -0.190763
  3 -63.8995 0.337094 -0.859741
  4 0.103387 0.0293927 0.181497
  5 372.434 94.7695 115.826
  6 420.709 108.199 -110.640
  7 0.103012 0.0290371 -0.181001
  8 -63.8660 0.337076 0.859601
  9 201.287 -0.188409 -0.661602
  10 201.425 -0.532782 -1.08773
  11 203.340 -0.517784 -0.274593
  12 203.501 -0.472179 -1.24918
  13 203.915 -0.452335 -0.355014
  14 208.234 -0.453831 -0.505893
  15 209.663 -0.699249 -1.67198
  16 211.137 -0.285612 -1.12545
  17 211.997 0.234664 -2.17542
  18 220.725 -1.09767 -1.86608
  19 224.353 -0.811036 -2.42668
  20 228.275 -1.30012 -0.848761
  21 230.004 -1.78500 -0.420028
  22 227.750 -2.11371 3.28143
  23 219.100 -2.42053 6.74735
  24 199.331 -2.84829 14.1920
  25 168.001 1.39456 16.4346
  26 141.734 1.60058 15.4612
  27 105.688 3.83181 9.38892
  28 112.886 3.73626 0.680202
  29 92.5632 11.3341 -6.06661
  30 133.624 5.08893 -16.5885
  31 156.771 1.11365 -13.6347
  32 194.952 -0.694310 -11.7922
  33 216.175 -2.93667 -8.04203
  34 227.260 -2.46909 -3.27808
  35 229.440 -1.72253 0.423759
  36 227.877 -1.28106 0.778219
  37 224.166 -0.817677 2.34384
  38 220.636 -1.11428 1.81685
  39 211.983 0.224807 2.15019
  40 211.149 -0.289343 1.11535
  41 209.690 -0.701464 1.66775
  42 208.267 -0.454962 0.503754
  43 203.951 -0.452954 0.353940
  44 203.538 -0.472740 1.24912
  45 203.378 -0.518163 0.274460
  46 201.463 -0.533052 1.08807
  47 201.324 -0.188513 0.661815
  48 189.984 0.693547 -0.238220
  49 175.455 0.507211 -0.553095
  50 157.377 -0.110275 -0.589031
  51 138.719 1.04752 -0.489994
  52 122.464 0.969986 -0.394686
  53 105.144 1.54323 -0.471007
  54 88.1237 2.41374 -0.306828
  55 70.5280 2.20624 -0.599929
  56 55.9850 1.66944 -0.824266
  57 36.9670 1.19508 -0.868066
  58 17.7046 1.50174 -0.657013
  59 1.66056 1.22804 -0.634490
  60 -18.3063 0.765691 -0.587972
  61 -33.1472 -0.0163458 -1.37343
  62 -47.5077 -0.897792 -0.635040
  63 -62.0324 0.159118 0.399685
  64 -65.1218 1.12353 -0.191212
  65 -65.2839 0.511881 0.148877
  66 -63.0863 0.274737 -0.120619
  67 -63.6125 0.732483 -0.821388
  68 -62.5252 0.881326 -0.141854
  69 -59.0681 0.286488 -1.24427
  70 -59.5590 0.540753 -1.32858
  71 -57.9613 0.516598 -0.777849
  72 -53.5946 0.333801 -1.14349
  73 -51.4348 0.574001 -1.84159
  74 -48.2293 0.634292 -1.53251
  75 -42.5922 0.326580 -2.58127
  76 -39.4053 0.0999826 -2.15985
  77 -33.7443 0.144040 -2.47393
  78 -28.8465 0.0991837 -2.71748
  79 -24.6147 0.0299272 -2.14392
  80 -18.7867 0.121433 -2.15539
  81 -13.7780 -0.0619590 -2.29691
  82 -8.93601 -0.256061 -2.00317
  83 -5.11245 -0.223251 -1.52665
  84 -2.49388 -0.384840 -1.26939
  85 -0.386961 -0.221958 -0.445009
  86 0.0498739 -0.242480 -0.153029
  87 -0.131921 -0.112235 -0.0201460
  88 -0.346870 -0.298405 -0.388566
  89 -0.336099 -2.10433 -1.10001
  90 -0.290314 -4.75465 -1.58039
  91 -0.152898 -8.17305 -2.31250
  92 -0.0820013 -12.5788 -1.99646
  93 -0.0764702 -16.6588 -2.51506
  94 -0.313072 -21.6777 -2.84976
  95 -0.127404 -27.8480 -2.89070
  96 0.0601986 -34.0668 -2.77623
  97 0.136369 -40.7467 -2.74549
  98 0.205115 -47.6341 -2.71113
  99 0.0276019 -52.7894 -3.67952
  100 0.368601 -60.0293 -3.30152
  101 0.442231 -68.5395 -2.68198
  102 0.0129092 -72.5210 -3.56877
  103 0.627625 -78.9666 -3.34440
  104 1.49997 -87.5844 -1.79990
  105 2.90902 -90.3795 -2.84972
  106 1.94025 -84.2770 1.33598
  107 2.62212 -66.2304 7.16979
  108 15.4159 -43.5110 22.9635
  109 49.7904 54.7365 84.4710
  110 576.719 29.6503 55.8113
  111 493.814 9.33635 20.5273
  112 477.906 3.68759 4.54248
  113 474.649 1.51434 -0.768018
  114 477.714 5.51689 -10.8533
  115 491.957 16.7023 -24.0744
  116 559.971 58.1049 -70.6296
  117 117.720 41.9412 -103.463
  118 25.3278 -42.8048 -28.6242
  119 7.38086 -72.3911 -10.1959
  120 2.00606 -80.0394 -1.51478
  121 2.32428 -87.1321 1.77021
  122 0.679299 -84.2568 1.44551
  123 0.265621 -77.0061 2.89970
  124 0.275125 -72.2707 2.31187
  125 0.377791 -64.8723 3.76313
  126 -0.0184428 -60.5321 3.61809
  127 0.150088 -54.5980 2.61460
  128 0.282972 -47.0500 3.28488
  129 0.0506016 -41.6771 2.60665
  130 0.0850498 -34.1263 3.28890
  131 -0.340611 -28.1789 2.82111
  132 -0.243708 -21.6981 2.76298
  133 -0.0562906 -16.5704 2.52237
  134 -0.104980 -12.5078 2.00135
  135 -0.149853 -8.14932 2.29054
  136 -0.286312 -4.75119 1.57263
  137 -0.334360 -2.10740 1.09921
  138 -0.346482 -0.301528 0.389286
  139 -0.131915 -0.113611 0.0210524
  140 0.0482281 -0.242731 0.153885
  141 -0.390154 -0.221888 0.446153
  142 -2.49905 -0.384571 1.27069
  143 -5.11966 -0.222639 1.52720
  144 -8.94244 -0.255304 2.00266
  145 -13.7813 -0.0613337 2.29504
  146 -18.7860 0.121553 2.15316
  147 -24.6086 0.0301635 2.14162
  148 -28.8354 0.0994186 2.71494
  149 -33.7269 0.143944 2.47137
  150 -39.3825 0.0998416 2.15757
  151 -42.5660 0.326329 2.57920
  152 -48.1987 0.633941 1.53104
  153 -51.4021 0.573642 1.84054
  154 -53.5603 0.333583 1.14299
  155 -57.9258 0.516387 0.777664
  156 -59.5233 0.540563 1.32842
  157 -59.0329 0.286403 1.24425
  158 -62.4899 0.881140 0.142116
  159 -63.5775 0.732361 0.821466
  160 -63.0520 0.274720 0.120801
  161 -65.2495 0.511819 -0.148694
  162 -65.0877 1.12335 0.191300
  163 -61.9992 0.159120 -0.399532
  164 -47.4778 -0.897454 0.634991
  165 -33.1203 -0.0159790 1.37325
  166 -18.2829 0.766186 0.587997
  167 1.67910 1.22881 0.634482
  168 17.7192 1.50287 0.656995
  169 36.9765 1.19672 0.868019
  170 55.9897 1.67131 0.824171
  171 70.5289 2.20822 0.599847
  172 88.1202 2.41568 0.306697
  173 105.136 1.54511 0.470761
  174 122.452 0.971633 0.394388
  175 138.702 1.04859 0.489585
  176 157.354 -0.109426 0.588566
  177 175.427 0.507357 0.552768
  178 189.951 0.693409 0.238076
  179 50.9881 9.47656 -0.984891
  180 50.9696 9.48572 1.02210
  181 -1.49396 1.24457 15.6153
  182 -1.54664 1.24163 -15.6161
  183 118.180 -1.75242 -25.3670
  184 118.132 -1.99547 25.6586
  185 22.8246 4.70283 0.379946
  186 22.5522 4.81372 -0.358509
  187 15.7542 3.40788 -2.88224
  188 15.7707 3.40853 2.88572
  189 112.535 2.79828 -3.50329
  190 112.551 2.78580 3.50291
  191 -3.18761 4.68823 8.84429
  192 -3.21855 4.69629 -8.84525
  193 130.863 3.92780 -9.45681
  194 130.925 3.86699 9.46213
  195 -5.23144 -4.58509 11.9882
  196 -5.22834 -4.61004 -12.0005
  197 0.971202 -11.3028 -14.7561
  198 39.6057 0.581891 -22.4697
  199 1.23579 -12.0620 14.4384
  200 38.9635 0.927070 22.8864
  201 186.058 -26.3800 -37.0876
  202 192.830 -27.4340 35.4647
  203 65.6382 2.84573 -0.253605
  204 65.6372 2.84171 0.255133
  205 -12.4966 1.01733 -1.85439
  206 -12.4741 1.01792 1.85526
  207 -15.5190 2.24691 11.9061
  208 -15.5485 2.25187 -11.9186
  209 65.9246 6.73946 -1.15960
  210 65.9278 6.73122 1.17112
  211 19.4589 8.38912 6.76507
  212 19.3870 8.44122 -6.77098
  213 -20.4160 2.19237 -5.18843
  214 -20.3882 2.19058 5.18856
  215 150.949 0.721073 1.74703
  216 150.929 0.724004 -1.74898
  217 4.54519 -21.4254 7.01455
  218 4.94747 -19.5423 -6.37454
  219 -1.48863 -12.8928 13.6036
  220 -1.51352 -13.3616 -13.1635
  221 60.7127 8.97669 -9.28355
  222 60.6713 9.01491 9.40592
  223 -13.7247 -0.118109 11.7842
  224 -13.7415 -0.118974 -11.7971
  225 161.510 1.40736 -5.32594
  226 161.533 1.38970 5.31296
  227 173.325 -2.13613 -10.3840
  228 173.450 -2.32475 10.3164
  229 275.276 21.8267 -0.470916
  230 252.561 27.4597 18.4991
  231 250.652 -3.94397 -25.8275
  232 29.1537 7.17289 3.81008
  233 29.1352 7.17725 -3.79872
  234 1.22845 5.56717 12.2823
  235 1.18551 5.58393 -12.2890
  236 193.539 -11.7457 -6.24698
  237 192.386 -11.9004 6.85050
  238 106.384 1.56896 -1.21763
  239 106.394 1.56517 1.21714
  240 -24.7202 1.72704 8.03441
  241 -24.7496 1.73043 -8.03949
  242 -3.29919 -3.25122 -5.33084
  243 -3.29687 -3.24995 5.33498
  244 -28.0242 0.807040 2.71248
  245 -28.0515 0.807017 -2.71162
  246 86.7582 7.11776 -5.86597
  247 86.7809 7.09283 5.89235
  248 110.792 3.76605 -14.2307
  249 110.894 3.69228 14.2964
  250 25.3558 2.18074 -0.440818
  251 25.3684 2.18232 0.442062
  252 63.2467 -2.29256 -50.6833
  253 75.1879 -0.223880 55.6139
  254 8.01646 3.54272 11.9317
  255 7.98071 3.63078 -11.9689
  256 264.949 -23.0172 -2.13868
  257 21.5880 8.76895 5.85218
  258 21.5532 8.78643 -5.84057
  259 61.8742 6.30685 -18.2789
  260 61.7710 6.47958 18.5167
  261 294.810 39.8438 -6.48370
  262 175.164 0.517300 7.21170
  263 175.126 0.578062 -7.25153
  264 -1.61151 -9.84604 -8.41696
  265 -1.56921 -9.88738 8.45174
  266 -0.381439 -23.5951 -11.7417
  267 0.695100 -27.9523 -11.1192
  268 0.349910 -27.7951 11.5250
  269 -4.59659 -4.02365 15.5854
  270 -4.61306 -4.01386 -15.6388
  271 8.90935 -23.7063 -2.44134
  272 9.56649 -22.0384 3.92472
  273 -10.1554 -0.877513 7.40086
  274 -10.1588 -0.881067 -7.40621
  275 123.592 4.05157 -5.78061
  276 123.621 4.02438 5.77876
  277 217.644 -23.2552 0.150146
  278 46.5495 4.60547 -0.709079
  279 46.5555 4.60908 0.713822
  280 -0.608929 -22.1154 11.2071
  281 3.21475 4.68659 5.93225
  282 3.19009 4.69083 -5.92911
  283 348.528 24.9098 -7.98356
  284 170.385 0.472510 2.17467
  285 170.361 0.476490 -2.17887
  286 112.098 -6.14719 -38.4845
  287 113.158 -6.04894 39.1364
  288 217.335 -22.0084 -3.76890
  289 -20.9860 0.620686 9.35672
  290 -21.0059 0.621320 -9.36674
  291 213.512 -20.3721 63.7209
  292 -9.62033 1.40915 14.2744
  293 -9.64928 1.40927 -14.2922
  294 34.6763 9.59351 -1.28536
  295 34.5485 9.68752 1.34108
  296 -39.5393 0.416918 0.514612
  297 -39.5677 0.416769 -0.514329
  298 179.428 -0.357292 -87.5268
  299 -36.3782 0.770321 -4.39896
  300 -36.3473 0.769130 4.39749
  301 -1.29287 -4.85926 16.0910
  302 -0.785276 -4.76791 -15.9651
  303 77.4013 8.35127 -8.59716
  304 77.4195 8.33683 8.66664
  305 15.5189 2.42245 2.15638
  306 15.5034 2.42119 -2.15441
  307 80.9328 3.77531 -1.54041
  308 80.9378 3.76792 1.54271
  309 7.25288 -6.82215 9.17886
  310 6.60651 -8.00398 -9.24614
  311 78.5497 2.02083 -0.310798
  312 78.5512 2.01806 0.311016
  313 -29.5595 0.766201 6.91513
  314 -29.5846 0.767497 -6.92176
  315 19.0824 -3.20708 -3.28966
  316 18.4912 -3.22161 2.78506
  317 178.121 0.137179 0.603019
  318 178.092 0.137648 -0.603390
  319 391.527 22.7357 14.3112
  320 38.4226 5.77260 1.85322
  321 38.4125 5.77075 -1.84495
  322 -9.98320 2.15690 3.77620
  323 -10.0071 2.15756 -3.77451
  324 53.5153 7.87863 -0.416885
  325 53.5095 7.87524 0.438046
  326 5.65043 5.47814 12.8205
  327 5.61475 5.49357 -12.8385
  328 0.788588 -40.1176 8.26053
  329 -40.7519 0.183523 -1.12820
  330 -40.7226 0.183708 1.12866
  331 134.911 0.907977 -1.13221
  332 134.926 0.905991 1.13142
  333 142.124 1.48291 -3.00471
  334 142.143 1.47477 3.00056
  335 -37.7247 0.717731 -3.25821
  336 -37.6942 0.717283 3.25832
  337 -2.48000 0.980705 0.501862
  338 -2.49961 0.979933 -0.501369
  339 -0.838164 -16.2064 8.42575
  340 -0.669238 -16.8538 -8.41445
  341 159.032 -13.6166 -25.7606
  342 165.390 -16.2638 25.2466
  343 93.9046 5.23043 -3.57102
  344 93.9193 5.21438 3.57647
  345 40.4399 9.85585 -0.157348
  346 40.3816 9.89518 0.201364
  347 -15.8342 2.93978 7.28698
  348 -15.8632 2.94403 -7.28863
  349 300.487 1.82230 3.87544
  350 15.0784 -26.2900 -15.6970
  351 16.1330 -24.8567 16.5521
  352 -7.17361 4.56868 11.4785
  353 -7.20868 4.57865 -11.4858
  354 -8.46083 -1.79428 13.7462
  355 -8.47815 -1.79648 -13.7657
  356 339.786 54.6431 -12.2457
  357 215.119 -4.05486 30.2186
  358 202.942 -4.54762 -4.43428
  359 202.700 -4.44379 4.06705
  360 140.830 -1.37823 -16.3338
  361 140.681 -1.53882 16.3307
  362 0.259988 -48.3029 -6.75207
  363 186.357 0.737604 -4.08054
  364 186.372 0.719949 4.05904
  365 2.33126 -45.8436 5.60492
  366 210.643 16.3611 -17.1994
  367 50.9220 2.31501 0.787740
  368 50.9161 2.31303 -0.787438
  369 141.882 1.48935 -12.1424
  370 141.980 1.39960 12.1468
  371 153.687 1.74582 -7.43253
  372 153.721 1.70602 7.41454
  373 -4.48654 1.96742 2.62901
  374 -4.50789 1.96708 -2.62728
  375 86.5868 4.81593 -19.0761
  376 86.6348 4.86184 19.2777
  377 183.675 0.157232 0.993018
  378 183.646 0.158161 -0.994228
  379 101.983 6.13546 -9.46245
  380 102.032 6.08881 9.50023
  381 118.730 2.42500 2.37737
  382 118.717 2.43135 -2.37888
  383 -5.70574 -1.04603 4.53444
  384 -5.70441 -1.04845 -4.53380
  385 -1.34576 -0.959297 -1.29956
  386 -1.34648 -0.959929 1.30162
  387 244.007 -32.3844 15.0096
  388 -3.26905 -7.81418 12.5047
  389 -3.24810 -7.87628 -12.5022
  390 37.9918 3.03568 -1.21064
  391 38.0007 3.03837 1.21322
  392 -1.22041 -6.05085 4.54911
  393 -1.23373 -6.03989 -4.54908
  394 13.9086 7.03851 6.58972
  395 13.8804 7.04839 -6.58314
  396 199.656 -0.564259 5.34300
  397 199.637 -0.483763 -5.45887
  398 -0.626945 -12.2399 15.2525
  399 -16.4529 -0.320691 7.04174
  400 -16.4610 -0.321830 -7.04884
  401 -0.689571 -12.9005 -15.0775
  402 187.817 0.302991 2.59324
  403 187.794 0.308350 -2.60124
  404 -2.40380 3.95203 14.3054
  405 -2.45620 3.96710 -14.3214
  406 137.587 2.58027 -4.84815
  407 137.609 2.56354 4.84161
  408 211.888 -9.14156 -5.63992
  409 212.766 -7.31647 4.34553
  410 -0.457305 -22.1235 -9.26168
  411 18.0791 6.54802 -5.27815
  412 18.2281 6.46498 5.27042
  413 206.372 13.7536 10.8686
  414 118.491 -7.81792 -53.6595
  415 121.812 -10.0822 56.3041
  416 6.04846 6.59616 9.64499
  417 6.01218 6.61044 -9.64448
  418 87.2715 2.99809 -1.05250
  419 87.2764 2.99325 1.05294
  420 84.5667 8.94700 85.7640
  421 34.1186 8.56284 -3.11151
  422 34.1424 8.55268 3.12991
  423 2.01876 -21.8351 10.6960
  424 -0.271043 -36.0565 -8.11709
  425 13.0158 7.97402 9.18070
  426 12.9709 7.99702 -9.18067
  427 15.9114 4.94344 -4.15284
  428 15.9302 4.94183 4.15807
  429 -6.33139 -0.493967 -15.6304
  430 -6.30258 -0.502814 15.6099
  431 41.1579 7.93285 -6.62993
  432 40.9890 8.06306 6.73463
  433 211.793 -7.19149 -22.6735
  434 5.51592 -2.75691 12.6554
  435 5.32333 -2.68769 -12.7180
  436 154.056 -6.51640 -18.0617
  437 154.737 -7.01300 18.0148
  438 -39.4308 0.339176 -4.21533
  439 -39.4009 0.338231 4.21250
  440 0.00588902 -35.3136 7.27636
  441 -0.262446 -22.3838 8.23715
  442 -16.1395 0.972961 11.9921
  443 -16.1615 0.973428 -12.0053
  444 110.404 1.51020 -0.408942
  445 110.414 1.50784 0.408486
  446 -3.37933 -5.33166 8.44032
  447 -3.38376 -5.34243 -8.42963
  448 67.5900 2.73962 -27.9528
  449 67.4780 3.07031 28.3228
  450 0.567451 -43.1754 -8.20088
  451 391.033 14.7221 0.462983
  452 1.03564 -51.7033 -5.14324
  453 -47.1868 0.0702739 -1.61172
  454 -47.1553 0.0703644 1.61208
  455 -18.3368 2.49109 9.99088
  456 -18.3673 2.49635 -9.99876
  457 -20.7226 0.285143 7.09708
  458 -20.7354 0.285283 -7.10439
  459 74.2503 8.15327 -5.57387
  460 74.2631 8.14272 5.61695
  461 113.529 5.08010 -7.33428
  462 113.568 5.04072 7.34494
  463 -2.13228 -7.48801 15.7308
  464 -2.13419 -7.43746 -15.7939
  465 195.766 2.66283 -28.6583
  466 12.9184 -4.54701 -3.53004
  467 12.4713 -4.65505 3.75929
  468 3.00601 -47.4267 0.406859
  469 1.89068 -54.6994 -1.74296
  470 -6.12799 -2.76888 8.69689
  471 -6.12904 -2.77804 -8.69885
  472 41.0108 -8.17944 -43.4088
  473 307.773 -4.45843 -26.5641
  474 67.5646 4.96302 1.26913
  475 67.5625 4.97086 -1.26280
  476 98.5878 0.742941 -27.1474
  477 98.8505 0.708451 27.5994
  478 28.1281 10.2374 4.25192
  479 28.0820 10.2685 -4.23399
  480 88.9395 6.91024 -13.8345
  481 88.9974 6.86529 13.9540
  482 2.77952 1.41725 14.6753
  483 2.97749 1.51708 -14.6556
  484 -41.6640 0.654855 -3.18671
  485 -41.6324 0.654376 3.18621
  486 199.010 -23.8321 -13.9479
  487 158.977 0.455696 -0.843908
  488 159.000 0.454883 0.843538
  489 6.79778 1.42406 -1.20566
  490 6.81525 1.42516 1.20677
  491 -11.1509 3.75135 9.46555
  492 -11.1825 3.75833 -9.46964
  493 -24.3772 1.53902 -3.59343
  494 -24.3499 1.53833 3.59425
  495 67.5224 7.18198 -2.10793
  496 67.5271 7.17168 2.12507
  497 -8.94856 3.11443 13.0920
  498 -8.98426 3.12293 -13.1060
  499 182.393 -4.88989 -9.54413
  500 182.687 -5.16340 9.36521
  501 118.277 1.46956 -17.9745
  502 118.115 1.36787 18.1397
  503 42.9857 2.53378 -0.724199
  504 42.9934 2.53616 0.725346
  505 0.385058 -22.3230 -12.9963
  506 213.178 -8.08458 18.6757
  507 2.69261 -15.1430 -12.0991
  508 59.2752 9.81291 5.47764
  509 59.2996 9.79227 -5.40343
  510 196.817 -22.3034 13.7267
  511 14.3593 -24.3645 22.1557
  512 235.354 -32.3928 -28.2876
  513 159.742 1.06512 8.92575
  514 159.684 1.13896 -8.95022
  515 0.340512 -19.1618 13.5231
  516 -3.11850 -0.938365 -2.40929
  517 -3.12026 -0.938114 2.41134
  518 17.9068 1.40374 -0.400561
  519 17.9213 1.40501 0.401024
  520 -0.549019 -12.4471 5.38847
  521 -0.498138 -12.3874 -5.41480
  522 131.538 1.83150 1.93322
  523 131.523 1.83502 -1.93473
  524 374.883 63.5311 24.3161
  525 14.7203 -11.0226 -3.29868
  526 11.4139 -14.3026 0.925641
  527 -5.07961 3.01685 -4.94981
  528 -5.05527 3.01480 4.95167
  529 -32.4223 0.516467 4.28902
  530 -32.4431 0.517033 -4.29329
  531 0.313437 -40.3881 8.11225
  532 -46.6475 0.468455 0.499690
  533 -46.6777 0.468401 -0.499343
  534 39.4816 -5.20495 -31.5623
  535 38.5742 -4.45365 32.8764
  536 36.0491 5.76033 -9.94867
  537 35.7767 5.93786 10.0439
  538 -8.77485 -1.89599 11.9784
  539 -8.78530 -1.90269 -11.9928
  540 35.1622 3.72093 1.32556
  541 35.1523 3.71846 -1.32182
  542 -20.4851 1.05565 1.64733
  543 -20.5099 1.05538 -1.64630
  544 41.8188 6.69701 1.65558
  545 41.8084 6.69623 -1.64278
  546 -0.871749 -2.80281 2.05580
  547 -0.874617 -2.80000 -2.05530
  548 14.8545 6.39026 8.47812
  549 14.7567 6.48738 -8.50220
  550 12.0096 1.34814 7.64520
  551 11.8345 1.33100 -7.73623
  552 162.356 1.51778 3.77984
  553 162.334 1.52605 -3.78660
  554 143.001 2.38231 5.94861
  555 142.974 2.40759 -5.95842
  556 -0.148114 -33.7946 -5.02516
  557 99.1897 5.57243 -5.46894
  558 99.2129 5.54855 5.47943
  559 99.6446 2.88794 -1.92634
  560 99.6544 2.88028 1.92668
  561 -15.3270 0.703199 -0.0674438
  562 -15.3043 0.703717 0.0677596
  563 165.452 9.42631 -5.51163
  564 225.266 -29.7814 -9.20241
  565 180.793 8.07260 21.9024
  566 1.39740 -29.7042 -9.77972
  567 -11.0584 3.29937 -6.38189
  568 -11.0311 3.29600 6.38231
  569 1.42232 -17.3893 12.9473
  570 -10.2665 0.184701 13.8450
  571 -10.2892 0.184604 -13.8608
  572 286.350 27.6573 -2.16202
  573 64.1163 3.55225 -0.415659
  574 64.1155 3.54737 0.418220
  575 442.818 36.9570 -37.0115
  576 -2.46962 -1.95559 16.3038
  577 -2.33117 -1.84239 -16.3202
  578 238.152 -22.4795 11.8223
  579 192.556 0.411644 -4.56312
  580 192.564 0.383519 4.52720
  581 86.3949 -1.16000 -39.7209
  582 87.4840 -1.40617 40.4101
  583 -5.05690 -4.87801 13.8946
  584 -5.06027 -4.90112 -13.9267
  585 44.8430 2.95041 20.2225
  586 45.2201 2.58966 -20.0183
  587 -38.1234 0.449909 -4.07897
  588 -38.0954 0.449221 4.07566
  589 280.969 21.5051 20.1751
  590 52.0482 5.37199 -0.356392
  591 52.0522 5.37659 0.363249
  592 61.6104 7.59312 -13.6281
  593 61.5409 7.68695 13.8074
  594 173.284 0.00982732 -8.79431
  595 173.357 -0.0875371 8.75295
  596 -0.828627 -17.8830 -12.5419
  597 189.912 -0.0663825 1.35348
  598 189.882 -0.0651257 -1.35524
  599 -28.9446 0.690003 -0.688354
  600 -28.9184 0.690272 0.688974
  601 -49.9835 -0.277336 0.0382025
  602 -50.0141 -0.277506 -0.0380698
  603 3.82386 -27.8389 -5.22986
  604 -1.81256 -11.5342 10.6559
  605 -1.91160 -10.9221 -10.7275
  606 -21.8616 1.31472 10.0316
  607 -21.8860 1.31702 -10.0418
  608 131.168 3.73426 7.44582
  609 131.132 3.77335 -7.44992
  610 96.1188 1.79147 0.468701
  611 96.1131 1.79370 -0.468777
  612 21.0643 -7.82259 12.1949
  613 21.7766 -7.36481 -12.0592
  614 -0.686324 -8.66669 4.54086
  615 -0.706502 -8.63782 -4.55540
  616 227.522 10.1025 92.9735
  617 -11.1779 -0.356294 4.22188
  618 -11.1769 -0.357773 -4.22459
  619 3.76176 -16.9980 -9.98749
  620 93.8757 4.31241 -2.68751
  621 93.8863 4.30132 2.68995
  622 45.1507 9.75749 -3.62857
  623 45.0725 9.81484 3.70365
  624 0.463566 -61.5849 3.59423
  625 33.5723 9.74954 2.89415
  626 33.5405 9.76841 -2.87211
  627 -4.86619 4.08854 7.65328
  628 -4.89459 4.09402 -7.65305
  629 -0.271193 -29.8854 6.87062
  630 -49.4659 0.0981455 -1.59316
  631 -49.4334 0.0981063 1.59338
  632 61.1027 2.15533 -0.0382599
  633 61.1055 2.15844 0.0392038
  634 158.231 0.851731 2.46912
  635 158.209 0.855969 -2.47233
  636 138.354 -11.6172 70.9745
  637 111.153 3.33256 -4.33886
  638 111.172 3.31533 4.33978
  639 1.43723 -2.79927 15.2814
  640 1.82277 -1.78597 -15.2808
  641 178.559 -19.8360 -57.1930
  642 430.007 15.1000 -15.4210
  643 -45.1057 0.0600446 -2.85214
  644 -45.0737 0.0596096 2.85072
  645 9.15221 2.64614 -2.52004
  646 9.16991 2.64677 2.52241
  647 -0.867742 -18.8585 11.0328
  648 241.167 13.0989 -27.7507
  649 187.879 -0.165023 0.220932
  650 187.847 -0.164833 -0.221014
  651 -12.1251 -0.698367 -9.87661
  652 -12.1156 -0.695805 9.86661
  653 -0.0292471 -42.6213 -6.66777
  654 191.174 -0.207268 0.517244
  655 191.141 -0.206979 -0.517509
  656 16.1087 6.20408 5.63928
  657 16.0854 6.20953 -5.63240
  658 143.326 -13.1050 -37.2178
  659 146.055 -13.0701 37.6676
  660 212.401 -1.18634 3.02131
  661 212.498 -1.16892 -3.17568
  662 0.917250 -54.1255 5.39571
  663 -13.1538 0.585741 -0.973352
  664 -13.1314 0.586348 0.973998
  665 68.5582 0.311676 -66.7381
  666 63.6598 1.98187 0.417626
  667 63.6625 1.98403 -0.417319
  668 30.4484 2.78242 0.720137
  669 30.4372 2.78037 -0.718171
  670 36.5645 4.57369 -1.20040
  671 36.5744 4.57624 1.20617
  672 122.432 3.90089 -11.5027
  673 122.512 3.83061 11.5292
  674 31.5210 9.37975 1.63785
  675 31.4333 9.44526 -1.60940
  676 -23.3957 1.75800 -5.94567
  677 -23.3666 1.75553 5.94457
  678 -26.8754 1.84437 -6.67897
  679 -26.8457 1.84158 6.67594
  680 217.756 -3.20738 -1.10356
  681 0.0280590 -9.27658 -15.4369
  682 218.220 -3.36569 0.759476
  683 274.296 22.0061 0.883174
  684 -27.4576 0.123295 4.86282
  685 -27.4736 0.123408 -4.86798
  686 27.3784 7.70290 -0.228867
  687 27.1855 7.80826 0.264749
  688 -53.2187 0.0906016 -0.616632
  689 -53.1863 0.0906652 0.616975
  690 0.173218 -8.40395 15.4959
  691 -17.3350 0.199958 10.4756
  692 -17.3528 0.199803 -10.4869
  693 238.500 -21.1622 -12.7794
  694 36.0922 1.37921 -0.147371
  695 36.0824 1.37753 0.147859
  696 7.23228 3.75656 4.05268
  697 7.21212 3.75740 -4.04920
  698 124.553 -6.07164 -30.9403
  699 125.563 -6.31047 31.5878
  700 447.983 31.3087 33.9623
  701 8.10688 -44.4080 -12.9036
  702 -3.31367 -6.90232 14.9075
  703 -3.32160 -6.92678 -14.9362
  704 25.1552 6.21478 -3.36095
  705 25.1721 6.21310 3.36906
  706 196.487 -0.156942 -1.38855
  707 196.516 -0.158316 1.38569
  708 91.7278 2.13005 0.712136
  709 91.7224 2.13388 -0.712167
  710 6.83406 6.70073 11.5398
  711 6.79100 6.72189 -11.5463
  712 3.17423 2.03316 1.78330
  713 3.15563 2.03236 -1.78186
  714 -5.91287 1.13309 15.4398
  715 -5.94869 1.13598 -15.4641
  716 160.702 0.247451 1.02189
  717 160.680 0.248870 -1.02295
  718 138.462 1.69994 2.78773
  719 138.444 1.70546 -2.79036
  720 17.8462 -14.3768 14.9331
  721 18.4013 -15.2371 -14.3762
  722 -11.2819 2.27510 13.4719
  723 -11.3133 2.27928 -13.4880
  724 5.41943 -14.2717 8.15743
  725 -0.118467 3.90700 14.4814
  726 -0.173984 3.92092 -14.4891
  727 -31.8676 0.969516 -3.99596
  728 -31.8381 0.968588 3.99578
  729 22.9375 7.97118 5.42621
  730 22.9087 7.98238 -5.41418
  731 214.144 -6.64796 -12.8308
  732 202.987 -17.9950 -3.79085
  733 -3.34079 -6.81846 10.4658
  734 -3.33547 -6.84862 -10.4507
  735 77.3216 -2.12244 -46.9276
  736 75.2424 -0.381755 47.4588
  737 46.6341 8.93636 -6.19682
  738 46.5264 9.02571 6.30238
  739 3.85151 -8.47434 12.7572
  740 -0.304849 -22.0340 -5.94238
  741 99.0185 5.88227 -10.5165
  742 99.0787 5.83645 10.5760
  743 0.272836 -43.5134 5.55431
  744 58.4097 8.61935 -2.08714
  745 58.4049 8.61635 2.11828
  746 206.082 -0.0278321 -3.46801
  747 206.057 -0.0556236 3.40981
  748 3.89127 -61.0907 0.421910
  749 91.0734 7.31912 7.79270
  750 91.0410 7.34978 -7.75549
  751 23.9437 8.46153 -3.85775
  752 24.0633 8.37093 3.86139
  753 -37.3894 0.249783 -3.42175
  754 -37.3648 0.249417 3.41839
  755 101.662 2.32147 -1.73416
  756 101.671 2.31626 1.73394
  757 61.7883 9.34766 -4.49945
  758 61.7787 9.35240 4.55442
  759 -0.445276 5.53669 11.3551
  760 -0.483291 5.55049 -11.3598
  761 203.626 -15.3558 1.34211
  762 -33.0734 0.804844 3.06535
  763 -33.1022 0.805061 -3.06484
  764 447.161 82.1611 -58.0921
  765 -13.4552 1.43895 3.31215
  766 -13.4792 1.43889 -3.31077
  767 173.833 0.859289 6.27481
  768 173.808 0.895327 -6.30415
  769 322.744 21.0868 0.593200
  770 197.838 -0.405368 -2.65362
  771 197.858 -0.410552 2.64385
  772 125.042 2.35125 3.45474
  773 125.026 2.36049 -3.45724
  774 187.474 -22.8727 52.0696
  775 80.2608 6.49138 -2.57177
  776 80.2718 6.47765 2.58278
  777 1.76573 -33.8682 7.38044
  778 215.457 -28.1589 15.8555
  779 130.542 0.854383 0.605557
  780 130.527 0.855984 -0.605854
  781 172.386 0.359725 0.324808
  782 172.359 0.360045 -0.324965
  783 -0.802527 -17.5566 -10.3029
  784 0.985349 -30.4085 10.3901
  785 75.7742 8.72807 10.8328
  786 75.7595 8.73261 -10.7273
  787 444.849 4.91020 3.66042
  788 131.927 1.52502 -14.4993
  789 132.034 1.44068 14.5319
  790 -28.2209 0.939897 7.56509
  791 -28.2489 0.942120 -7.57099
  792 5.34476 -25.4182 3.10652
  793 3.50019 -57.2898 -2.90720
  794 303.047 38.8530 -2.18778
  795 -0.273154 -21.9607 5.36103
  796 5.52466 4.06564 13.2259
  797 5.50961 4.06687 -13.2730
  798 39.1593 8.29576 2.05300
  799 39.1435 8.30067 -2.03575
  800 202.368 -9.15601 -2.44502
  801 202.656 -9.07757 1.66868
  802 240.605 27.7286 -87.8300
  803 -34.1123 0.478147 -1.48372
  804 -34.0841 0.478294 1.48447
  805 -15.3559 -0.0718996 3.98924
  806 -15.3577 -0.0724845 -3.99281
  807 13.9982 0.291520 4.97970
  808 13.6999 0.273437 -4.99736
  809 152.711 -0.485352 13.0903
  810 152.591 -0.339315 -13.0748
  811 76.9500 2.60789 -0.241186
  812 76.9518 2.60406 0.241804
  813 247.363 -5.50702 25.6738
  814 24.6662 4.52057 -2.97332
  815 24.6809 4.52126 2.97894
  816 23.3829 2.33720 -2.53751
  817 23.1706 2.46098 2.60787
  818 -0.188085 -17.6539 -14.0527
  819 353.816 48.9133 46.1536
  820 -51.7330 0.0812216 -1.57616
  821 -51.6993 0.0811288 1.57613
  822 -0.0770318 -53.2422 5.31626
  823 3.38648 -8.35758 -12.8726
  824 -7.59254 -0.474259 2.94898
  825 -7.58854 -0.475348 -2.94951
  826 280.375 13.8940 -19.3705
  827 71.3832 7.63145 -3.21582
  828 71.3917 7.61995 3.24209
  829 192.218 -2.50704 -6.56120
  830 192.369 -2.54654 6.43477
  831 -49.3023 0.401944 2.06525
  832 -49.3357 0.402241 -2.06589
  833 -0.337865 -0.350826 -0.281983
  834 -0.338536 -0.351465 0.283083
  835 0.179003 -54.4840 -5.22990
  836 0.257833 -57.7638 -4.89475
  837 -54.9770 0.561937 0.334981
  838 -55.0089 0.561967 -0.334833
  839 28.1988 -12.3089 -30.0725
  840 118.428 1.97275 -0.948471
  841 118.440 1.96996 0.947664
  842 -5.47402 1.22399 0.425858
  843 -5.49434 1.22335 -0.425698
  844 177.444 0.794949 -4.18859
  845 177.464 0.782296 4.17451
  846 -20.2182 0.136205 3.80253
  847 -20.2242 0.136244 -3.80629
  848 105.772 -1.78062 -71.3283
  849 184.079 -15.9138 13.8537
  850 144.908 1.08817 -1.25319
  851 144.926 1.08613 1.25191
  852 182.305 -17.3456 -15.5867
  853 55.7098 6.78665 -0.384204
  854 55.7070 6.78072 0.399043
  855 77.6525 5.69238 -1.87539
  856 77.6595 5.68179 1.88242
  857 214.288 -4.64428 9.77815
  858 12.2661 7.56361 9.77441
  859 12.2160 7.59353 -9.78494
  860 11.9597 1.26583 0.874792
  861 11.9437 1.26462 -0.874041
  862 100.290 1.83895 0.774650
  863 100.283 1.84189 -0.774908
  864 266.488 -27.2896 27.4076
  865 166.121 1.33676 -5.43337
  866 166.146 1.31307 5.41444
  867 0.992159 2.75421 3.22128
  868 0.971600 2.75425 -3.21891
  869 166.932 0.135415 1.51133
  870 166.908 0.137097 -1.51298
  871 -32.5167 0.325561 -0.868972
  872 -32.4900 0.325859 0.869000
  873 -0.153765 -16.7790 4.76683
  874 -0.199981 -17.0416 -4.80483
  875 197.395 -3.15345 22.8894
  876 -12.7941 3.06091 11.4970
  877 -12.8266 3.06822 -11.5068
  878 -0.0716072 -27.7161 -5.29153
  879 77.7152 3.45567 -0.915400
  880 77.7179 3.45056 0.916789
  881 144.118 -7.38692 -23.4970
  882 145.286 -8.18131 23.7354
  883 -6.46966 -2.36225 -14.9919
  884 -6.44494 -2.36454 14.9661
  885 6.99256 6.85746 10.6345
  886 6.95197 6.87546 -10.6362
  887 0.708497 -64.2724 3.86358
  888 1.31161 5.21977 13.3336
  889 1.26530 5.23556 -13.3420
  890 132.915 -2.29295 -20.8454
  891 132.641 -2.42163 21.0145
  892 230.164 11.6708 28.5759
  893 51.8126 6.35727 -0.228574
  894 51.8172 6.36231 0.238959
  895 170.809 1.40100 -4.08924
  896 170.830 1.39062 4.07939
  897 -6.81979 -3.03159 13.0947
  898 -6.83020 -3.04168 -13.1151
  899 0.573231 -66.7181 -2.81736
  900 -10.4784 -0.778016 12.8826
  901 -10.4949 -0.778977 -12.8978
  902 5.41594 6.30496 -8.44117
  903 5.44762 6.29392 8.44315
  904 -0.527959 -4.17920 2.32285
  905 -0.533755 -4.17465 -2.32615
  906 13.3983 7.09733 -7.73031
  907 13.4319 7.08369 7.73612
  908 2.75478 -5.67669 14.2260
  909 2.36726 -5.28812 -14.8810
  910 164.571 -4.44932 13.2596
  911 164.165 -4.20488 -13.3616
  912 -55.9388 0.200090 -0.491437
  913 -55.9062 0.200142 0.491664
  914 -4.64527 -0.427233 2.20720
  915 -4.64070 -0.427875 -2.20628
  916 0.230375 -39.4752 -4.85057
  917 -5.06714 -2.19324 -6.31565
  918 -5.06642 -2.18838 6.31722
  919 -21.8570 1.80204 9.72152
  920 -21.8851 1.80583 -9.73033
  921 50.0310 10.0306 -1.96019
  922 50.0024 10.0532 2.00749
  923 215.150 17.4704 -5.04327
  924 -3.45712 4.97879 10.3281
  925 -3.49119 4.98900 -10.3314
  926 79.6959 4.86287 -21.4843
  927 79.7233 4.93505 21.7595
  928 -10.7315 3.53203 8.34449
  929 -10.7614 3.53812 -8.34674
  930 266.928 -15.4398 -7.62198
  931 154.257 6.17383 12.2941
  932 190.571 -2.75852 -20.7078
  933 144.065 2.41133 -8.87239
  934 144.116 2.35579 8.86201
  935 -16.6300 2.20987 -4.24596
  936 -16.6040 2.20849 4.24697
  937 -35.3461 0.662662 4.92180
  938 -35.3763 0.663979 -4.92450
  939 -2.10918 -6.76689 -7.33887
  940 -2.09566 -6.77454 7.35362
  941 49.6901 3.77784 -0.201240
  942 49.6952 3.78157 0.204563
  943 -16.6147 1.63443 11.9613
  944 -16.6404 1.63659 -11.9747
  945 174.313 0.204550 2.01300
  946 174.287 0.206554 -2.01532
  947 -1.35498 -14.9618 11.2108
  948 5.23781 5.84932 -7.30976
  949 5.26587 5.84168 7.31271
  950 7.49919 4.20116 4.95033
  951 7.47744 4.20341 -4.94658
  952 28.2569 3.16574 -1.49799
  953 28.2688 3.16756 1.50057
  954 328.510 37.1398 -3.99350
  955 -1.25993 -0.354831 -0.861000
  956 -1.26263 -0.354878 0.862606
  957 10.4933 2.55807 -9.36749
  958 10.6742 2.46028 9.34410
  959 115.589 5.16877 -9.10707
  960 115.641 5.11842 9.12515
  961 13.5420 5.23931 -4.81804
  962 13.5632 5.23636 4.82345
  963 31.1231 -13.8390 40.8397
  964 220.898 -1.46244 -1.58844
  965 220.478 -1.40545 1.36350
  966 37.6260 -7.36166 35.1276
  967 39.2215 2.21659 0.0853421
  968 39.2126 2.21470 -0.0844983
  969 104.670 -5.66013 -61.5591
  970 78.9426 1.92364 0.444641
  971 78.9413 1.92583 -0.444504
  972 9.65041 -11.8638 3.49445
  973 10.6674 -10.1663 -2.68798
  974 196.328 -0.104171 0.698917
  975 196.293 -0.103851 -0.699276
  976 -16.1996 0.0242804 9.46793
  977 -16.2125 0.0237710 -9.47759
  978 351.028 43.4353 17.1709
  979 -1.62014 -11.4146 -14.9161
  980 1.53111 -59.0673 4.99880
  981 -0.343918 -18.0230 13.8075
  982 202.735 0.00584237 -2.70858
  983 202.744 -0.00177500 2.69269
  984 -2.68653 -4.90065 6.32886
  985 -2.69308 -4.89951 -6.32146
  986 248.889 25.2792 -17.1138
  987 451.910 4.39974 -2.46631
  988 -0.654139 -0.963285 -0.937079
  989 -0.653498 -0.965318 0.938425
  990 116.213 1.88982 -1.91588
  991 116.225 1.88550 1.91488
  992 -1.67572 -10.9951 15.0073
  993 162.602 1.16671 7.99992
  994 162.563 1.22073 -8.02587
  995 213.300 -14.4961 -10.2115
  996 -7.51091 -1.59885 7.16461
  997 -7.51202 -1.60427 -7.16698
  998 3.21976 -14.8833 11.2338
  999 -0.384943 -26.9213 10.8289
  1000 -0.0289686 -27.4877 5.27914
  1001 214.147 14.6238 -1.15337
  1002 247.812 27.1380 10.5015
  1003 178.442 -21.2857 -28.1881
  1004 2.40431 -26.9893 9.16278
  1005 3.08949 -39.1342 2.83078
  1006 48.1950 1.70602 0.224220
  1007 48.1883 1.70419 -0.224038
  1008 -1.99222 -2.26806 -2.99725
  1009 -1.99078 -2.26899 2.99995
  1010 1.56265 -22.1574 -11.9088
  1011 144.721 0.628615 -0.459321
  1012 144.739 0.627480 0.458920
  1013 27.8494 -1.62828 -12.1859
  1014 26.6279 -1.55667 12.0705
  1015 -3.37442 4.33698 13.3454
  1016 -3.41791 4.35071 -13.3582
  1017 -17.9852 2.67243 -8.35295
  1018 -17.9551 2.66774 8.34914
  1019 108.655 1.82007 -21.2571
  1020 108.746 1.89795 21.5083
  1021 77.6816 7.03840 -14.3665
  1022 77.6916 7.03020 14.5276
  1023 84.7586 6.74329 -4.50028
  1024 84.7746 6.72338 4.51675
  1025 222.502 -7.07067 -27.4460
  1026 -6.47755 2.62085 14.4591
  1027 -6.51721 2.62759 -14.4802
  1028 157.977 0.231954 10.8627
  1029 157.893 0.343117 -10.8816
  1030 -1.23955 -8.74328 15.7657
  1031 -12.8778 -0.452705 6.94206
  1032 -12.8821 -0.454551 -6.94811
  1033 143.697 1.78960 -10.7571
  1034 143.769 1.71191 10.7510
  1035 173.597 3.81651 -19.5885
  1036 -0.267310 -26.8222 -11.3742
  1037 -2.21707 -10.5935 13.3256
  1038 -2.30623 -10.7085 -13.2086
  1039 100.472 6.43799 -7.29906
  1040 100.509 6.40227 7.32285
  1041 127.968 2.87611 4.30627
  1042 127.949 2.88945 -4.30990
  1043 212.866 -14.1550 8.95654
  1044 8.80357 1.38430 -0.247820
  1045 8.82035 1.38526 0.248036
  1046 180.605 -23.8386 30.1115
  1047 -2.76350 0.999060 1.12316
  1048 -2.78331 0.998180 -1.12240
  1049 37.6844 10.0286 1.37664
  1050 37.6425 10.0570 -1.34501
  1051 13.6651 7.86617 8.45066
  1052 13.6263 7.88441 -8.44647
  1053 1.88715 -33.4676 -7.66380
  1054 50.8669 2.45032 -0.318876
  1055 50.8721 2.45363 0.320835
  1056 149.149 5.16996 5.03351
  1057 145.844 1.57599 4.07968
  1058 145.824 1.58750 -4.08566
  1059 -1.09523 -9.04727 -15.7888
  1060 219.832 -2.75534 -5.08931
  1061 -0.428350 -1.13408 15.8736
  1062 -0.269122 -0.994479 -15.8118
  1063 201.776 -0.269063 -1.48920
  1064 201.804 -0.270772 1.48496
  1065 214.645 -0.619061 -2.59981
  1066 214.551 -0.649064 2.51628
  1067 -0.164802 -41.6930 3.99242
  1068 124.233 3.72218 -5.73429
  1069 124.255 3.70088 5.73137
  1070 152.091 1.82169 4.80598
  1071 152.068 1.83609 -4.81478
  1072 2.77819 3.27749 14.5146
  1073 2.76471 3.28196 -14.5201
  1074 331.703 22.9334 2.72143
  1075 -4.52303 -2.08547 16.0726
  1076 -4.58004 -2.04532 -16.1067
  1077 45.6342 9.51429 0.524919
  1078 45.6185 9.52166 -0.499265
  1079 -28.1085 0.657706 -1.60670
  1080 -28.0821 0.658018 1.60741
  1081 75.8304 3.87930 -24.8492
  1082 75.7512 4.10117 25.1934
  1083 21.0253 8.86680 6.82239
  1084 20.9822 8.88983 -6.81277
  1085 51.1175 5.27387 -17.7787
  1086 50.8614 5.54176 17.9694
  1087 -1.44255 -14.0386 -10.9146
  1088 182.466 2.09174 25.2704
  1089 129.429 -3.01858 80.5627
  1090 19.7805 8.99779 7.05986
  1091 19.7275 9.03038 -7.05467
  1092 77.3832 4.73030 -1.34421
  1093 77.3886 4.72138 1.34859
  1094 287.305 -2.12946 10.8735
  1095 17.4240 3.97474 5.04230
  1096 17.2019 4.03846 -5.09864
  1097 -8.57878 -1.92302 9.57561
  1098 -8.58333 -1.93100 -9.58316
  1099 -0.282647 -6.24821 2.54313
  1100 -0.293400 -6.24390 -2.55305
  1101 188.407 0.133960 6.51832
  1102 188.371 0.211803 -6.58415
  1103 0.128020 -13.8870 14.8395
  1104 -13.2198 0.741139 -12.9685
  1105 -13.1977 0.741269 12.9540
  1106 0.0719720 -50.7736 -5.17784
  1107 -3.20658 -4.46267 16.0426
  1108 -3.19981 -4.37631 -16.0577
  1109 180.710 0.479063 -2.74635
  1110 180.735 0.474535 2.74092
  1111 185.479 -1.08177 7.72907
  1112 185.378 -0.957838 -7.79917
  1113 31.0185 6.44368 -4.93213
  1114 30.7843 6.59250 5.00791
  1115 -0.461589 -26.1526 -9.14355
  1116 244.863 -26.0783 -46.1154
  1117 318.144 37.3699 -2.46431
  1118 3.07160 -41.3937 -1.69998
  1119 10.4708 6.14581 -11.0089
  1120 10.5304 6.10765 10.9707
  1121 28.8720 9.70742 3.83077
  1122 28.8109 9.74921 -3.81157
  1123 62.4654 4.31076 0.173233
  1124 62.4659 4.31685 -0.168960
  1125 -4.19560 -5.97666 12.4281
  1126 -4.18842 -6.03006 -12.4443
  1127 -12.5223 3.65140 10.6572
  1128 -12.5546 3.65890 -10.6639
  1129 -4.95002 4.54307 12.3810
  1130 -4.98866 4.55478 -12.3905
  1131 176.141 -8.93026 -12.8418
  1132 177.320 -9.03271 12.6987
  1133 0.124467 -30.3825 -10.8811
  1134 92.5125 -0.825350 -31.6196
  1135 92.6955 -0.524746 32.2049
  1136 28.6918 9.10308 -4.02078
  1137 28.7205 9.08776 4.03717
  1138 95.1172 34.2819 90.3666
  1139 22.1227 7.41643 5.16684
  1140 22.0984 7.42394 -5.15671
  1141 241.836 -28.2615 -9.30622
  1142 89.9475 3.08376 1.16977
  1143 89.9411 3.08993 -1.16901
  1144 -4.14924 -3.71128 7.53898
  1145 -4.15085 -3.71907 -7.53497
  1146 -4.97597 -4.48131 9.79123
  1147 -4.97433 -4.49760 -9.79025
  1148 157.095 -17.1989 -45.2083
  1149 160.508 -18.8410 45.5664
  1150 26.6586 1.50603 0.164650
  1151 26.6708 1.50760 -0.163765
  1152 97.6879 4.71941 -17.0296
  1153 97.7162 4.64892 17.2220
  1154 216.864 -30.7134 34.0004
  1155 194.866 -0.324439 0.413142
  1156 194.830 -0.324195 -0.413173
  1157 -18.1039 2.75846 9.49014
  1158 -18.1346 2.76356 -9.49610
  1159 -30.7498 1.00977 -5.05583
  1160 -30.7200 1.00851 5.05503
  1161 47.9208 -3.44845 52.9417
  1162 144.043 10.1027 -10.1759
  1163 89.3471 6.88431 -8.00510
  1164 89.3846 6.85400 8.05591
  1165 284.222 -13.0615 49.3005
  1166 90.7651 6.51233 -12.2148
  1167 90.8138 6.46820 12.3036
  1168 21.4124 3.34327 -2.08021
  1169 21.4267 3.34478 2.08325
  1170 7.61159 -32.3640 3.88500
  1171 7.70798 -31.6888 -5.94565
  1172 123.577 -9.71805 -45.5645
  1173 125.370 -9.14497 45.5748
  1174 47.4503 7.43103 -11.9785
  1175 47.2580 7.60339 12.1337
  1176 219.774 -15.3937 -18.2252
  1177 -8.33192 -0.816865 14.6018
  1178 -8.35547 -0.815427 -14.6204
  1179 -0.291261 -12.4385 -15.2293
  1180 54.5415 -0.171214 -32.8992
  1181 54.6874 0.0303534 33.5266
  1182 -0.143475 -11.1144 2.84522
  1183 -0.122223 -11.1404 -2.87927
  1184 -53.9069 0.465938 -1.47111
  1185 -53.8725 0.465743 1.47088
  1186 176.496 0.182869 -0.726414
  1187 176.524 0.182111 0.725502
  1188 107.209 4.54193 -4.69190
  1189 107.232 4.52035 4.69601
  1190 -4.34268 -0.277447 16.1454
  1191 -4.35514 -0.215260 -16.1736
  1192 0.0279383 -45.1185 -4.46349
  1193 -45.5728 0.117371 2.31920
  1194 -45.6038 0.117658 -2.32084
  1195 33.4945 -2.91873 -22.4694
  1196 33.2315 -2.70513 23.2520
  1197 204.538 -12.5930 0.442591
  1198 56.7767 2.41392 -29.4839
  1199 56.8314 2.60701 29.8264
  1200 -25.0649 0.130710 3.46817
  1201 -25.0751 0.130657 -3.47183
  1202 0.626593 -40.2489 -7.85618
  1203 -9.02003 1.79817 -2.13988
  1204 -8.99801 1.79857 2.14121
  1205 29.4015 7.81542 4.04325
  1206 29.3789 7.82248 -4.02966
  1207 114.559 1.17393 -0.654519
  1208 114.569 1.17199 0.654371
  1209 155.623 1.15882 3.10928
  1210 155.602 1.16595 -3.11421
  1211 7.95282 -1.92943 9.61035
  1212 7.83382 -2.06720 -9.75254
  1213 1.31018 -23.3672 11.8416
  1214 278.136 36.4988 14.1080
  1215 -8.60321 -0.690590 5.42899
  1216 -8.60281 -0.693273 -5.43104
  1217 1.02315 -21.8719 -12.3089
  1218 -0.840598 -13.1109 7.96561
  1219 -0.795516 -13.0032 -8.25646
  1220 220.980 -2.36853 4.53497
  1221 0.204004 -51.7452 4.58891
  1222 1.42298 -16.1988 -13.7156
  1223 24.5566 1.24703 0.335511
  1224 24.5438 1.24567 -0.335340
  1225 -2.29504 -9.59293 14.7205
  1226 -25.5800 1.49324 -4.36560
  1227 -25.5518 1.49221 4.36590
  1228 460.213 8.26378 12.6551
  1229 -13.1845 1.41281 13.1724
  1230 -13.2108 1.41409 -13.1879
  1231 104.604 4.51165 -15.4161
  1232 104.712 4.42063 15.5167
  1233 6.48533 -11.6269 -6.72079
  1234 99.7582 5.71131 -5.93363
  1235 99.7872 5.68243 5.94900
  1236 3.95060 -32.9933 -2.77686
  1237 -2.29990 -9.60610 -14.6874
  1238 -18.5697 0.879670 2.69970
  1239 -18.5944 0.879371 -2.69861
  1240 -8.07156 0.422917 -15.0047
  1241 -8.04324 0.423045 14.9875
  1242 212.398 16.7557 20.5573
  1243 121.443 1.71236 -16.5368
  1244 121.602 1.65881 16.5789
  1245 -56.7795 0.161593 -0.582203
  1246 -56.7458 0.161594 0.582463
  1247 109.848 3.25758 -3.21191
  1248 109.861 3.24812 3.21133
  1249 -58.5986 -0.945795 -0.146885
  1250 -58.6310 -0.946026 0.146953
  1251 164.155 -11.8117 -18.9114
  1252 -26.4531 0.434007 7.42051
  1253 -26.4745 0.434655 -7.42827
  1254 165.883 -12.4661 18.7372
  1255 111.557 4.67307 -6.66336
  1256 111.587 4.64214 6.66915
  1257 12.7216 -36.7540 -22.3643
  1258 0.231757 -36.6813 -9.36028
  1259 -0.833236 -15.4942 13.8183
  1260 358.981 52.6414 -45.4191
  1261 -0.0945768 -34.2428 9.05453
  1262 372.167 34.9294 -20.3534
  1263 -0.169133 -63.3127 -4.38656
  1264 16.0617 2.15026 -0.886591
  1265 16.0768 2.15161 0.888238
  1266 -0.161668 -14.2861 2.98374
  1267 -0.131617 -14.3604 -2.97416
  1268 61.3409 2.11276 -0.145156
  1269 61.3439 2.11521 0.145633
  1270 222.474 -17.6243 17.4153
  1271 2.83589 1.96909 -2.48264
  1272 2.85493 1.96976 2.48433
  1273 1.29092 -70.6960 2.49629
  1274 0.820153 -75.0829 -2.45279
  1275 204.619 -26.4726 -19.8747
  1276 -0.583596 -18.7942 8.83824
  1277 211.299 12.8999 -25.4319
  1278 -0.642014 -24.7713 8.70566
  1279 0.416404 -68.5041 -3.51751
  1280 102.223 3.52564 -3.39711
  1281 102.238 3.51049 3.39927
  1282 -0.0698169 -36.7248 3.93335
  1283 -0.101885 -30.7055 -8.90441
  1284 496.972 82.0109 72.0212
  1285 195.816 0.232574 0.325525
  1286 195.781 0.232528 -0.325445
  1287 4.63079 -0.143585 13.3327
  1288 4.47687 0.0648342 -13.3838
  1289 -3.52290 2.62183 15.3119
  1290 -3.58693 2.63003 -15.3372
  1291 205.419 -3.98438 -14.7524
  1292 191.396 -7.89096 -7.09349
  1293 191.169 -9.01589 7.12424
  1294 27.0206 3.75230 2.17705
  1295 27.0076 3.75045 -2.17274
  1296 -32.2228 0.875898 -5.91779
  1297 -32.1935 0.874208 5.91372
  1298 213.620 -30.9617 -28.6664
  1299 -1.60887 -3.86396 3.92591
  1300 -1.61473 -3.86039 -3.92368
  1301 224.682 -10.4390 25.8737
  1302 -2.42085 -9.03185 10.7227
  1303 -2.39484 -9.06400 -10.6730
  1304 -21.5139 1.50023 3.19735
  1305 -21.5400 1.50054 -3.19633
  1306 32.8321 2.72600 -10.9426
  1307 32.4943 2.92643 10.9502
  1308 51.8781 2.00761 0.431876
  1309 51.8726 2.00514 -0.431167
  1310 -22.5122 2.21312 9.29952
  1311 -22.5413 2.21699 -9.30642
  1312 183.365 0.679691 0.506378
  1313 183.334 0.679619 -0.506306
  1314 98.7935 -2.80159 61.0234
  1315 148.873 0.765145 1.09276
  1316 148.854 0.766489 -1.09350
  1317 97.0860 1.95417 -23.9823
  1318 97.1286 1.83261 24.2198
  1319 0.905610 -40.9742 -6.00254
  1320 36.9090 8.73454 -3.86785
  1321 36.7573 8.84570 3.94709
  1322 -0.354881 -0.337938 -0.476736
  1323 -0.356645 -0.338096 0.478115
  1324 126.347 4.38954 8.82156
  1325 126.300 4.44147 -8.81845
  1326 61.7182 5.66257 0.726728
  1327 61.7180 5.66995 -0.718292
  1328 91.8398 5.76442 -3.85334
  1329 91.8572 5.74548 3.86297
  1330 121.483 1.26438 -1.08998
  1331 121.495 1.26240 1.08957
  1332 -3.89057 -1.89797 -4.43829
  1333 -3.89046 -1.89618 4.44109
  1334 -38.5614 0.141962 1.90301
  1335 -38.5911 0.141937 -1.90242
  1336 -6.71366 -3.12019 -10.9712
  1337 -6.71033 -3.10575 10.9620
  1338 -22.8660 0.544133 0.822137
  1339 -22.8906 0.543654 -0.821772
  1340 -59.1258 0.565493 0.336323
  1341 -59.1587 0.565543 -0.336172
  1342 230.421 -31.1538 39.6196
  1343 161.871 -1.20807 -20.4028
</Section>

newXOutput 28

<Section columns = "stress_xx | stress_yy | stress_xy">
  1 209.441 -0.217211 0.198461
  2 209.481 -0.217335 -0.198558
  3 -66.2293 0.347950 -0.891546
  4 0.107110 0.0303183 0.188111
  5 386.033 98.7820 120.299
  6 436.086 112.733 -114.944
  7 0.106717 0.0299471 -0.187592
  8 -66.1933 0.347927 0.891391
  9 208.781 -0.199661 -0.686507
  10 208.926 -0.556240 -1.12795
  11 210.912 -0.541113 -0.285461
  12 211.081 -0.494715 -1.29659
  13 211.515 -0.474487 -0.369967
  14 215.991 -0.474771 -0.526551
  15 217.475 -0.729412 -1.73559
  16 219.010 -0.300380 -1.16915
  17 219.909 0.236429 -2.25978
  18 228.957 -1.14381 -1.93827
  19 232.724 -0.847193 -2.51944
  20 236.801 -1.35428 -0.886309
  21 238.607 -1.85636 -0.443695
  22 236.300 -2.19549 3.38811
  23 227.369 -2.51154 6.97434
  24 206.943 -2.94905 14.6808
  25 174.540 1.45249 17.0049
  26 147.392 1.67132 15.9913
  27 110.114 3.97559 9.71031
  28 117.590 3.87598 0.710285
  29 96.5215 11.7518 -6.27062
  30 139.004 5.28077 -17.1677
  31 162.929 1.16144 -14.1079
  32 202.418 -0.715714 -12.2015
  33 224.354 -3.04710 -8.31469
  34 235.798 -2.56430 -3.38407
  35 238.028 -1.79170 0.448005
  36 236.393 -1.33451 0.813568
  37 232.533 -0.854048 2.43398
  38 228.867 -1.16099 1.88757
  39 219.896 0.226253 2.23387
  40 219.024 -0.304231 1.15881
  41 217.505 -0.731704 1.73130
  42 216.027 -0.475944 0.524382
  43 211.553 -0.475132 0.368887
  44 211.121 -0.495299 1.29657
  45 210.952 -0.541509 0.285337
  46 208.966 -0.556525 1.12832
  47 208.822 -0.199772 0.686736
  48 197.078 0.710622 -0.247666
  49 182.028 0.511705 -0.573982
  50 163.298 -0.134349 -0.609950
  51 143.963 1.06248 -0.507398
  52 127.115 0.979632 -0.408511
  53 109.160 1.57327 -0.487347
  54 91.5108 2.47659 -0.316633
  55 73.2620 2.26204 -0.620500
  56 58.1770 1.70746 -0.853148
  57 38.4470 1.21797 -0.898513
  58 18.4608 1.53963 -0.680232
  59 1.81228 1.25947 -0.656947
  60 -18.9093 0.783555 -0.608462
  61 -34.3114 -0.0242706 -1.42375
  62 -49.2157 -0.935428 -0.658025
  63 -64.2921 0.163569 0.415212
  64 -67.5010 1.16417 -0.197007
  65 -67.6716 0.529714 0.156062
  66 -65.3947 0.283525 -0.123261
  67 -65.9468 0.758580 -0.849969
  68 -64.8228 0.913112 -0.144236
  69 -61.2415 0.296099 -1.28821
  70 -61.7591 0.560364 -1.37591
  71 -60.1064 0.535175 -0.804303
  72 -55.5809 0.345362 -1.18355
  73 -53.3483 0.595019 -1.90798
  74 -50.0268 0.657876 -1.58690
  75 -44.1834 0.338579 -2.67584
  76 -40.8807 0.103692 -2.23885
  77 -35.0106 0.149375 -2.56523
  78 -29.9329 0.103332 -2.81869
  79 -25.5441 0.0313573 -2.22380
  80 -19.4980 0.126144 -2.23591
  81 -14.3011 -0.0639307 -2.38310
  82 -9.27702 -0.265421 -2.07892
  83 -5.30913 -0.231460 -1.58472
  84 -2.59058 -0.399256 -1.31795
  85 -0.403167 -0.230295 -0.462375
  86 0.0509347 -0.251770 -0.159245
  87 -0.136934 -0.117178 -0.0213638
  88 -0.359925 -0.311446 -0.403783
  89 -0.348779 -2.18614 -1.14219
  90 -0.301106 -4.93794 -1.64045
  91 -0.158459 -8.48573 -2.40007
  92 -0.0848557 -13.0590 -2.07196
  93 -0.0788045 -17.2929 -2.61007
  94 -0.324683 -22.4995 -2.95693
  95 -0.132158 -28.9018 -2.99885
  96 0.0623954 -35.3542 -2.87978
  97 0.141412 -42.2844 -2.84764
  98 0.212898 -49.4290 -2.81153
  99 0.0279660 -54.7729 -3.81539
  100 0.381794 -62.2815 -3.42310
  101 0.458491 -71.1064 -2.77879
  102 0.0115878 -75.2254 -3.69730
  103 0.650594 -81.8990 -3.46340
  104 1.55698 -90.8202 -1.85504
  105 3.02057 -93.6925 -2.93727
  106 2.01949 -87.2905 1.42360
  107 2.73843 -68.4706 7.51749
  108 16.0044 -44.7222 23.9581
  109 51.6267 57.5364 87.7840
  110 597.594 30.7853 57.9003
  111 511.744 9.66860 21.2816
  112 495.256 3.80565 4.71562
  113 491.874 1.55029 -0.796061
  114 495.059 5.70142 -11.2513
  115 509.864 17.3080 -24.9721
  116 580.303 60.3322 -73.2864
  117 122.131 44.1272 -107.501
  118 26.3219 -44.0016 -29.8304
  119 7.67342 -74.8440 -10.6486
  120 2.08700 -82.8912 -1.60888
  121 2.41425 -90.3187 1.81548
  122 0.704677 -87.3645 1.48648
  123 0.274447 -79.8645 3.00030
  124 0.284892 -74.9626 2.39140
  125 0.391829 -67.2978 3.90039
  126 -0.0191843 -62.8047 3.75194
  127 0.155653 -56.6512 2.71087
  128 0.293924 -48.8234 3.40754
  129 0.0527845 -43.2507 2.70383
  130 0.0882407 -35.4152 3.41167
  131 -0.353487 -29.2454 2.92665
  132 -0.252659 -22.5206 2.86679
  133 -0.0579233 -17.2009 2.61761
  134 -0.108693 -12.9852 2.07698
  135 -0.155279 -8.46108 2.37725
  136 -0.296946 -4.93437 1.63240
  137 -0.346972 -2.18934 1.14136
  138 -0.359520 -0.314705 0.404533
  139 -0.136927 -0.118612 0.0223094
  140 0.0492178 -0.252030 0.160136
  141 -0.406494 -0.230220 0.463564
  142 -2.59595 -0.398972 1.31929
  143 -5.31660 -0.230822 1.58529
  144 -9.28366 -0.264631 2.07837
  145 -14.3044 -0.0632784 2.38115
  146 -19.4971 0.126270 2.23358
  147 -25.5375 0.0316068 2.22139
  148 -29.9211 0.103582 2.81602
  149 -34.9922 0.149279 2.56253
  150 -40.8566 0.103550 2.23644
  151 -44.1556 0.338319 2.67363
  152 -49.9944 0.657510 1.58534
  153 -53.3137 0.594643 1.90684
  154 -55.5444 0.345132 1.18300
  155 -60.0686 0.534951 0.804081
  156 -61.7210 0.560164 1.37571
  157 -61.2040 0.296009 1.28816
  158 -64.7851 0.912911 0.144489
  159 -65.9093 0.758445 0.850028
  160 -65.3578 0.283505 0.123440
  161 -67.6347 0.529644 -0.155876
  162 -67.4644 1.16397 0.197092
  163 -64.2564 0.163570 -0.415053
  164 -49.1835 -0.935070 0.657964
  165 -34.2826 -0.0238956 1.42354
  166 -18.8842 0.784047 0.608477
  167 1.83213 1.26023 0.656928
  168 18.4764 1.54075 0.680202
  169 38.4572 1.21961 0.898451
  170 58.1820 1.70932 0.853039
  171 73.2630 2.26401 0.620409
  172 91.5069 2.47852 0.316496
  173 109.151 1.57516 0.487091
  174 127.102 0.981290 0.408204
  175 143.945 1.06355 0.506978
  176 163.274 -0.133481 0.609473
  177 181.998 0.511850 0.573644
  178 197.042 0.710474 0.247517
  179 52.9924 9.82299 -1.07770
  180 52.9726 9.83285 1.11598
  181 -1.52524 1.30607 16.1741
  182 -1.58015 1.30267 -16.1752
  183 122.725 -1.81407 -26.3971
  184 122.674 -2.06570 26.6994
  185 23.7387 4.92069 0.321123
  186 23.4553 5.03538 -0.299509
  187 16.4297 3.52036 -2.96491
  188 16.4473 3.52091 2.96837
  189 116.831 2.87562 -3.65696
  190 116.848 2.86289 3.65669
  191 -3.25073 4.86015 9.14546
  192 -3.28338 4.86861 -9.14678
  193 135.853 4.05064 -9.84759
  194 135.917 3.98814 9.85346
  195 -5.42395 -4.75226 12.4354
  196 -5.42083 -4.77822 -12.4482
  197 1.01831 -11.6987 -15.2853
  198 41.1710 0.684761 -23.4238
  199 1.29309 -12.4856 14.9546
  200 40.5037 1.04222 23.8553
  201 193.124 -27.3192 -38.5785
  202 200.139 -28.4102 36.8962
  203 68.1911 2.92632 -0.280688
  204 68.1899 2.92229 0.282262
  205 -12.8842 1.04416 -1.91275
  206 -12.8602 1.04474 1.91358
  207 -16.0745 2.33327 12.3355
  208 -16.1056 2.33840 -12.3487
  209 68.4913 6.96999 -1.24029
  210 68.4943 6.96175 1.25217
  211 20.2494 8.71787 6.96281
  212 20.1744 8.77194 -6.96952
  213 -21.1240 2.26855 -5.36400
  214 -21.0944 2.26664 5.36395
  215 156.641 0.725755 1.81967
  216 156.620 0.728742 -1.82161
  217 4.73118 -22.1683 7.23067
  218 5.14961 -20.2138 -6.56435
  219 -1.54099 -13.3662 14.1072
  220 -1.56717 -13.8536 -13.6513
  221 63.0883 9.31813 -9.70558
  222 63.0445 9.35808 9.83202
  223 -14.2300 -0.119187 12.2190
  224 -14.2477 -0.120129 -12.2326
  225 167.600 1.43849 -5.53842
  226 167.624 1.42035 5.52526
  227 179.886 -2.23516 -10.8051
  228 180.016 -2.43022 10.7359
  229 285.777 22.6177 -0.467874
  230 262.191 28.5379 19.0304
  231 260.125 -4.00792 -26.6404
  232 30.3308 7.42981 3.91164
  233 30.3111 7.43456 -3.90012
  234 1.31961 5.78121 12.7081
  235 1.27459 5.79861 -12.7154
  236 200.869 -12.1892 -6.53785
  237 199.674 -12.3491 7.16527
  238 110.447 1.59974 -1.27419
  239 110.457 1.59590 1.27373
  240 -25.6124 1.79028 8.31984
  241 -25.6436 1.79381 -8.32534
  242 -3.42290 -3.37291 -5.53260
  243 -3.42046 -3.37155 5.53686
  244 -29.0074 0.829815 2.80072
  245 -29.0365 0.829820 -2.79994
  246 90.1085 7.36270 -6.13132
  247 90.1318 7.33731 6.15868
  248 115.050 3.89084 -14.8204
  249 115.155 3.81501 14.8887
  250 26.3987 2.24315 -0.444729
  251 26.4121 2.24471 0.445978
  252 65.7161 -2.23631 -52.7320
  253 78.1068 -0.100006 57.8435
  254 8.35511 3.69958 12.3340
  255 8.31780 3.79095 -12.3730
  256 274.895 -23.7587 -2.36979
  257 22.4701 9.09582 6.02397
  258 22.4335 9.11412 -6.01232
  259 64.2959 6.57009 -19.0566
  260 64.1879 6.74924 19.3025
  261 305.942 41.4250 -6.53675
  262 181.768 0.517185 7.49931
  263 181.728 0.579864 -7.54001
  264 -1.67096 -10.2142 -8.73283
  265 -1.62690 -10.2570 8.76883
  266 -0.393988 -24.4677 -12.1747
  267 0.725293 -28.9677 -11.5157
  268 0.366093 -28.8126 11.9413
  269 -4.75902 -4.16413 16.1585
  270 -4.77623 -4.15415 -16.2143
  271 9.26782 -24.4954 -2.60494
  272 9.95225 -22.7633 4.14889
  273 -10.5356 -0.909242 7.67811
  274 -10.5392 -0.912946 -7.68374
  275 128.303 4.17692 -6.02481
  276 128.333 4.14907 6.02313
  277 225.875 -24.0972 0.0632643
  278 48.3877 4.75682 -0.708099
  279 48.3943 4.76038 0.712938
  280 -0.630130 -22.9344 11.6212
  281 3.40567 4.85364 6.12381
  282 3.37950 4.85815 -6.12081
  283 361.589 25.8132 -8.35329
  284 176.785 0.473223 2.26341
  285 176.759 0.477301 -2.26764
  286 116.420 -6.34574 -40.0295
  287 117.517 -6.24404 40.7045
  288 225.556 -22.8070 -3.81607
  289 -21.7610 0.645057 9.69990
  290 -21.7820 0.645694 -9.71047
  291 221.555 -20.9958 66.2379
  292 -9.96100 1.46861 14.7933
  293 -9.99133 1.46864 -14.8121
  294 36.0541 9.97152 -1.40463
  295 35.9209 10.0691 1.46180
  296 -40.9465 0.427166 0.530186
  297 -40.9770 0.427018 -0.529914
  298 186.214 -0.181050 -90.9493
  299 -37.7037 0.796691 -4.55240
  300 -37.6709 0.795444 4.55073
  301 -1.32774 -5.02287 16.6736
  302 -0.799861 -4.92712 -16.5414
  303 80.4059 8.65308 -8.98013
  304 80.4241 8.63860 9.05199
  305 16.1893 2.49655 2.21852
  306 16.1726 2.49534 -2.21657
  307 84.0564 3.88990 -1.62130
  308 84.0616 3.88243 1.62371
  309 7.55125 -7.03206 9.47309
  310 6.87840 -8.25781 -9.54446
  311 81.5819 2.06916 -0.331163
  312 81.5835 2.06638 0.331396
  313 -30.6512 0.794654 7.16620
  314 -30.6777 0.795994 -7.17324
  315 19.8470 -3.26319 -3.49325
  316 19.2331 -3.27885 2.96835
  317 184.790 0.128463 0.627841
  318 184.759 0.128943 -0.628199
  319 406.057 23.5572 14.8999
  320 39.9536 5.97103 1.88794
  321 39.9427 5.96932 -1.87952
  322 -10.2853 2.22818 3.89682
  323 -10.3108 2.22893 -3.89522
  324 55.6153 8.15724 -0.478453
  325 55.6089 8.15406 0.500210
  326 5.90419 5.69784 13.2611
  327 5.86678 5.71376 -13.2804
  328 0.820184 -41.5864 8.55078
  329 -42.2112 0.185407 -1.16406
  330 -42.1798 0.185592 1.16450
  331 140.017 0.916758 -1.17969
  332 140.033 0.914748 1.17891
  333 147.500 1.51399 -3.13061
  334 147.520 1.50566 3.12646
  335 -39.0869 0.740287 -3.36906
  336 -39.0544 0.739805 3.36907
  337 -2.48472 1.00398 0.514767
  338 -2.50572 1.00321 -0.514283
  339 -0.868753 -16.8135 8.74076
  340 -0.693538 -17.4853 -8.72905
  341 165.098 -14.1159 -26.8067
  342 171.689 -16.8609 26.2739
  343 97.5143 5.39982 -3.73581
  344 97.5295 5.38349 3.74154
  345 42.0408 10.2280 -0.226161
  346 41.9798 10.2690 0.271338
  347 -16.3760 3.04571 7.53740
  348 -16.4067 3.05017 -7.53936
  349 311.717 2.07682 4.21534
  350 15.6823 -27.1206 -16.3896
  351 16.7786 -25.6266 17.2761
  352 -7.40026 4.74135 11.8812
  353 -7.43714 4.75172 -11.8890
  354 -8.76924 -1.85544 14.2544
  355 -8.78738 -1.85780 -14.2749
  356 352.521 56.8006 -12.9009
  357 223.338 -4.16322 31.2329
  358 210.588 -4.73033 -4.62816
  359 210.339 -4.62220 4.24902
  360 146.208 -1.44442 -17.0010
  361 146.052 -1.61015 16.9983
  362 0.269907 -50.0727 -6.98595
  363 193.348 0.750563 -4.24136
  364 193.365 0.732379 4.21939
  365 2.42292 -47.5032 5.78384
  366 218.802 16.9986 -17.7361
  367 52.9249 2.37753 0.809940
  368 52.9186 2.37557 -0.809644
  369 147.288 1.52357 -12.6377
  370 147.390 1.43122 12.6428
  371 159.502 1.78745 -7.73169
  372 159.538 1.74650 7.71346
  373 -4.57493 2.02925 2.70931
  374 -4.59773 2.02896 -2.70763
  375 89.9447 5.00176 -19.8718
  376 89.9934 5.04984 20.0804
  377 190.548 0.150668 1.03361
  378 190.516 0.151622 -1.03481
  379 105.906 6.34432 -9.86571
  380 105.956 6.29652 9.90497
  381 123.249 2.48864 2.48094
  382 123.235 2.49509 -2.48241
  383 -5.92116 -1.08473 4.70581
  384 -5.91983 -1.08725 -4.70518
  385 -1.39707 -0.995738 -1.34964
  386 -1.39782 -0.996387 1.35178
  387 253.185 -33.5106 15.6962
  388 -3.38794 -8.10113 12.9703
  389 -3.36619 -8.16573 -12.9679
  390 39.5087 3.12816 -1.23507
  391 39.5183 3.13082 1.23768
  392 -1.26594 -6.27952 4.72125
  393 -1.27978 -6.26820 -4.72125
  394 14.5014 7.29684 6.79704
  395 14.4716 7.30724 -6.79055
  396 207.155 -0.599857 5.55616
  397 207.134 -0.516699 -5.67551
  398 -0.643564 -12.6805 15.8097
  399 -17.0687 -0.331641 7.30382
  400 -17.0773 -0.332838 -7.31127
  401 -0.708586 -13.3662 -15.6286
  402 194.851 0.301812 2.69574
  403 194.825 0.307323 -2.70385
  404 -2.46090 4.11029 14.8128
  405 -2.51568 4.12584 -14.8298
  406 142.804 2.65112 -5.04821
  407 142.828 2.63400 5.04165
  408 219.900 -9.48463 -5.80055
  409 220.800 -7.59414 4.46514
  410 -0.473389 -22.9502 -9.60661
  411 18.8107 6.82179 -5.41458
  412 18.9657 6.73580 5.40593
  413 214.401 14.2742 11.2019
  414 123.048 -8.04294 -55.7923
  415 126.490 -10.3915 58.5350
  416 6.33303 6.84346 9.96857
  417 6.29488 6.85836 -9.96843
  418 90.6290 3.08280 -1.10787
  419 90.6341 3.07792 1.10836
  420 87.8343 9.54484 89.1542
  421 35.4817 8.87566 -3.18000
  422 35.5069 8.86488 3.19877
  423 2.10392 -22.6104 11.0657
  424 -0.281113 -37.3993 -8.41561
  425 13.5628 8.27888 9.47868
  426 13.5157 8.30280 -9.47912
  427 16.5887 5.11609 -4.27699
  428 16.6088 5.11427 4.28221
  429 -6.55333 -0.502820 -16.2013
  430 -6.52317 -0.511968 16.1798
  431 42.7845 8.25593 -6.95911
  432 42.6085 8.39099 7.06707
  433 219.856 -7.44683 -23.4414
  434 5.74910 -2.82805 13.0881
  435 5.54888 -2.75690 -13.1535
  436 159.929 -6.76956 -18.7988
  437 160.634 -7.28370 18.7510
  438 -40.8851 0.350481 -4.36589
  439 -40.8533 0.349498 4.36284
  440 0.00586787 -36.6335 7.54530
  441 -0.271831 -23.2227 8.54435
  442 -16.7297 1.01204 12.4310
  443 -16.7529 1.01248 -12.4450
  444 114.613 1.53877 -0.429690
  445 114.623 1.53639 0.429241
  446 -3.50479 -5.52984 8.75759
  447 -3.50944 -5.54109 -8.74658
  448 70.2301 2.88753 -29.1075
  449 70.1126 3.23001 29.4902
  450 0.589239 -44.7680 -8.49441
  451 405.536 15.2241 0.471408
  452 1.07633 -53.5759 -5.30663
  453 -48.8981 0.0689367 -1.66547
  454 -48.8643 0.0690246 1.66579
  455 -18.9902 2.58463 10.3467
  456 -19.0223 2.59009 -10.3551
  457 -21.4960 0.296287 7.35995
  458 -21.5095 0.296422 -7.36764
  459 77.1337 8.44357 -5.83652
  460 77.1465 8.43307 5.88104
  461 117.874 5.24492 -7.64616
  462 117.915 5.20455 7.65743
  463 -2.20356 -7.75420 16.3073
  464 -2.20560 -7.70193 -16.3728
  465 203.328 2.79971 -29.6273
  466 13.4410 -4.66191 -3.59734
  467 12.9757 -4.77429 3.83584
  468 3.12705 -49.0995 0.372113
  469 1.96842 -56.6482 -1.76482
  470 -6.35639 -2.87072 9.02336
  471 -6.35757 -2.88026 -9.02547
  472 42.6262 -8.25317 -45.1868
  473 319.249 -4.39110 -27.7570
  474 70.1911 5.12470 1.34715
  475 70.1890 5.13259 -1.34061
  476 102.400 0.786706 -28.2555
  477 102.671 0.751152 28.7237
  478 29.2580 10.6248 4.35616
  479 29.2096 10.6572 -4.33802
  480 92.3830 7.16300 -14.4218
  481 92.4422 7.11692 14.5456
  482 2.91179 1.49096 15.1908
  483 3.11730 1.59459 -15.1705
  484 -43.1834 0.676560 -3.29677
  485 -43.1497 0.676053 3.29614
  486 206.551 -24.7050 -14.5534
  487 164.956 0.453040 -0.877848
  488 164.980 0.452217 0.877493
  489 7.14078 1.46194 -1.23852
  490 7.15947 1.46303 1.23962
  491 -11.5224 3.88979 9.79536
  492 -11.5558 3.89708 -9.79991
  493 -25.2285 1.59015 -3.71177
  494 -25.1994 1.58939 3.71248
  495 70.1497 7.43011 -2.22872
  496 70.1544 7.41977 2.24641
  497 -9.25190 3.23526 13.5597
  498 -9.28936 3.24404 -13.5745
  499 189.295 -5.08825 -9.93954
  500 189.601 -5.37130 9.75556
  501 122.821 1.51523 -18.7133
  502 122.652 1.41058 18.8847
  503 44.6908 2.60597 -0.737471
  504 44.6991 2.60834 0.738626
  505 0.404163 -23.1356 -13.4670
  506 221.277 -8.37380 19.3049
  507 2.80640 -15.6711 -12.5201
  508 61.5944 10.1791 5.74846
  509 61.6203 10.1573 -5.67188
  510 204.276 -23.1201 14.3253
  511 14.9374 -25.0607 23.1008
  512 244.223 -33.5063 -29.4706
  513 165.792 1.08305 9.28637
  514 165.730 1.15915 -9.31113
  515 0.358855 -19.8559 14.0129
  516 -3.23703 -0.973629 -2.50111
  517 -3.23884 -0.973358 2.50322
  518 18.6703 1.43795 -0.409772
  519 18.6858 1.43920 0.410230
  520 -0.569356 -12.9168 5.59112
  521 -0.516590 -12.8549 -5.61852
  522 136.524 1.87447 2.01456
  523 136.507 1.87804 -2.01605
  524 388.854 66.0354 25.4233
  525 15.3111 -11.3553 -3.50147
  526 11.8740 -14.7602 1.03182
  527 -5.20079 3.12102 -5.11075
  528 -5.17490 3.11881 5.11248
  529 -33.6317 0.535509 4.44637
  530 -33.6537 0.536097 -4.45088
  531 0.325575 -41.8829 8.40569
  532 -48.3262 0.482093 0.514108
  533 -48.3587 0.482043 -0.513773
  534 41.0407 -5.27185 -32.8741
  535 40.0990 -4.49536 34.2378
  536 37.4776 6.02081 -10.4113
  537 37.1943 6.20463 10.5094
  538 -9.09864 -1.96306 12.4237
  539 -9.10963 -1.97006 -12.4388
  540 36.5724 3.84047 1.35030
  541 36.5618 3.83807 -1.34651
  542 -21.1768 1.08644 1.69675
  543 -21.2033 1.08620 -1.69576
  544 43.4770 6.93170 1.67717
  545 43.4658 6.93115 -1.66410
  546 -0.904503 -2.90974 2.13435
  547 -0.907486 -2.90683 -2.13383
  548 15.4618 6.65282 8.74123
  549 15.3600 6.75354 -8.76680
  550 12.5000 1.43619 7.87427
  551 12.3179 1.41838 -7.96951
  552 168.470 1.55419 3.93148
  553 168.446 1.56266 -3.93830
  554 148.421 2.44680 6.19195
  555 148.392 2.47274 -6.20183
  556 -0.153682 -35.0649 -5.21203
  557 102.999 5.75559 -5.70977
  558 103.024 5.73122 5.72075
  559 103.462 2.96822 -2.01814
  560 103.472 2.96045 2.01855
  561 -15.8173 0.718729 -0.0667370
  562 -15.7930 0.719244 0.0670511
  563 172.040 9.77573 -5.69851
  564 233.772 -30.8440 -9.65188
  565 187.849 8.40050 22.6332
  566 1.45589 -30.7757 -10.1198
  567 -11.4133 3.41657 -6.59682
  568 -11.3844 3.41300 6.59703
  569 1.48462 -18.0084 13.4073
  570 -10.6380 0.196947 14.3533
  571 -10.6618 0.196781 -14.3699
  572 297.222 28.6973 -2.13218
  573 66.6127 3.65994 -0.452996
  574 66.6117 3.65505 0.455633
  575 459.140 38.3524 -38.4678
  576 -2.54490 -2.01377 16.8946
  577 -2.40081 -1.89623 -16.9115
  578 247.138 -23.2639 12.1435
  579 199.778 0.413952 -4.74173
  580 199.788 0.384933 4.70491
  581 89.7482 -1.14826 -41.3259
  582 90.8762 -1.40478 42.0395
  583 -5.24010 -5.05357 14.4097
  584 -5.24368 -5.07763 -14.4432
  585 46.6109 3.11943 21.0845
  586 47.0030 2.74570 -20.8736
  587 -39.5360 0.465997 -4.22626
  588 -39.5063 0.465281 4.22272
  589 291.559 22.4387 20.7246
  590 54.0926 5.55203 -0.338202
  591 54.0971 5.55658 0.345225
  592 64.0207 7.89351 -14.2223
  593 63.9478 7.99101 14.4077
  594 179.832 -0.0101264 -9.14656
  595 179.908 -0.110639 9.10444
  596 -0.857124 -18.5421 -13.0050
  597 197.012 -0.0777583 1.40716
  598 196.979 -0.0764653 -1.40893
  599 -29.9534 0.708311 -0.707064
  600 -29.9253 0.708572 0.707668
  601 -51.7849 -0.291064 0.0384044
  602 -51.8178 -0.291243 -0.0382734
  603 3.97933 -28.8135 -5.37839
  604 -1.87859 -11.9631 11.0540
  605 -1.98125 -11.3278 -11.1282
  606 -22.6629 1.36476 10.3967
  607 -22.6886 1.36713 -10.4074
  608 136.161 3.84848 7.75387
  609 136.122 3.88861 -7.75781
  610 99.8013 1.83055 0.490185
  611 99.7952 1.83279 -0.490251
  612 21.9073 -8.02192 12.7493
  613 22.6463 -7.54617 -12.6089
  614 -0.711778 -8.99436 4.71218
  615 -0.732751 -8.96447 -4.72731
  616 236.036 10.7610 96.6304
  617 -11.6002 -0.369138 4.38044
  618 -11.5993 -0.370679 -4.38329
  619 3.91738 -17.5865 -10.3224
  620 97.4814 4.44665 -2.81363
  621 97.4925 4.43539 2.81624
  622 46.9314 10.1314 -3.83458
  623 46.8497 10.1911 3.91193
  624 0.480540 -63.8290 3.70675
  625 34.9129 10.1117 2.94978
  626 34.8794 10.1315 -2.92731
  627 -4.98853 4.23608 7.91180
  628 -5.01858 4.24184 -7.91185
  629 -0.281370 -31.0043 7.12566
  630 -51.2690 0.0992391 -1.64693
  631 -51.2343 0.0991948 1.64711
  632 63.4857 2.21053 -0.0263352
  633 63.4887 2.21364 0.0273007
  634 164.189 0.862671 2.57012
  635 164.166 0.867003 -2.57333
  636 143.637 -11.9479 73.7663
  637 115.400 3.43000 -4.52760
  638 115.420 3.41240 4.52869
  639 1.51194 -2.88024 15.8244
  640 1.91333 -1.82961 -15.8225
  641 185.336 -20.4867 -59.4571
  642 445.832 15.6386 -16.0262
  643 -46.7714 0.0610030 -2.95357
  644 -46.7375 0.0605506 2.95202
  645 9.57989 2.73114 -2.59357
  646 9.59881 2.73170 2.59591
  647 -0.898807 -19.5587 11.4424
  648 250.347 13.6590 -28.6323
  649 194.898 -0.179808 0.230401
  650 194.863 -0.179607 -0.230476
  651 -12.5761 -0.722405 -10.2442
  652 -12.5660 -0.719719 10.2337
  653 -0.0307211 -44.2094 -6.91178
  654 198.313 -0.222065 0.537917
  655 198.277 -0.221764 -0.538170
  656 16.7890 6.42717 5.81351
  657 16.7643 6.43298 -5.80665
  658 148.811 -13.5695 -38.7080
  659 151.637 -13.5325 39.1739
  660 220.365 -1.23963 3.14546
  661 220.463 -1.22172 -3.30476
  662 0.952255 -56.1218 5.58399
  663 -13.5638 0.596767 -1.00188
  664 -13.5398 0.597371 1.00250
  665 71.1908 0.652969 -69.4024
  666 66.1379 2.03013 0.438058
  667 66.1407 2.03228 -0.437738
  668 31.6823 2.86641 0.729613
  669 31.6703 2.86439 -0.727632
  670 38.0262 4.72593 -1.21557
  671 38.0368 4.72840 1.22143
  672 127.116 4.02592 -11.9793
  673 127.199 3.95367 12.0070
  674 32.7782 9.74333 1.63505
  675 32.6865 9.81139 -1.60612
  676 -24.2231 1.81948 -6.15052
  677 -24.1923 1.81688 6.14918
  678 -27.8434 1.91103 -6.91332
  679 -27.8119 1.90811 6.90997
  680 225.950 -3.33311 -1.12119
  681 0.0401325 -9.60128 -15.9948
  682 226.424 -3.49755 0.766112
  683 284.755 22.8175 0.849834
  684 -28.4839 0.128180 5.04206
  685 -28.5008 0.128288 -5.04750
  686 28.4719 8.02092 -0.309485
  687 28.2711 8.13011 0.346056
  688 -55.1546 0.0914182 -0.635405
  689 -55.1199 0.0914816 0.635730
  690 0.191991 -8.69535 16.0542
  691 -17.9748 0.209371 10.8614
  692 -17.9936 0.209178 -10.8733
  693 247.502 -21.8962 -13.1346
  694 37.5398 1.40928 -0.158355
  695 37.5294 1.40760 0.158850
  696 7.58250 3.88495 4.17761
  697 7.56101 3.88593 -4.17419
  698 129.339 -6.28372 -32.1890
  699 130.384 -6.53082 32.8602
  700 464.472 32.4831 35.2841
  701 8.43325 -45.8700 -13.4733
  702 -3.43111 -7.15078 15.4577
  703 -3.43923 -7.17629 -15.4877
  704 26.1820 6.43411 -3.45105
  705 26.2000 6.43217 3.45924
  706 203.825 -0.169609 -1.44313
  707 203.857 -0.171027 1.44024
  708 95.2493 2.18198 0.751077
  709 95.2436 2.18584 -0.751083
  710 7.13941 6.96057 11.9315
  711 7.09428 6.98252 -11.9388
  712 3.37947 2.09521 1.83496
  713 3.35957 2.09444 -1.83354
  714 -6.11324 1.18561 15.9985
  715 -6.15066 1.18845 -16.0240
  716 166.746 0.237296 1.06465
  717 166.721 0.238743 -1.06569
  718 143.702 1.73866 2.90327
  719 143.684 1.74429 -2.90587
  720 18.5624 -14.7966 15.5961
  721 19.1381 -15.6895 -15.0178
  722 -11.6800 2.36459 13.9590
  723 -11.7130 2.36887 -13.9760
  724 5.64235 -14.7535 8.41663
  725 -0.0906408 4.06667 14.9922
  726 -0.148656 4.08100 -15.0006
  727 -33.0103 1.00153 -4.13162
  728 -32.9788 1.00055 4.13129
  729 23.8737 8.26362 5.58465
  730 23.8433 8.27544 -5.57251
  731 222.260 -6.89236 -13.2554
  732 210.672 -18.6608 -4.00395
  733 -3.46397 -7.07063 10.8574
  734 -3.45851 -7.10202 -10.8418
  735 80.3300 -2.10881 -48.8213
  736 78.1730 -0.304821 49.3696
  737 48.4720 9.28673 -6.50588
  738 48.3595 9.37956 6.61477
  739 4.01462 -8.75576 13.1983
  740 -0.315779 -22.8637 -6.16469
  741 102.834 6.08587 -10.9661
  742 102.896 6.03895 11.0279
  743 0.282484 -45.1419 5.75958
  744 60.6950 8.92765 -2.21666
  745 60.6896 8.92492 2.24874
  746 213.795 -0.0377142 -3.60314
  747 213.772 -0.0664189 3.54327
  748 4.04561 -63.2566 0.483857
  749 94.5871 7.57378 8.13415
  750 94.5539 7.60504 -8.09557
  751 24.9054 8.79986 -3.93939
  752 25.0300 8.70588 3.94253
  753 -38.7828 0.258943 -3.54635
  754 -38.7568 0.258566 3.54279
  755 105.551 2.38051 -1.81394
  756 105.561 2.37522 1.81376
  757 64.2028 9.68929 -4.72810
  758 64.1922 9.69460 4.78482
  759 -0.413645 5.74609 11.7476
  760 -0.453575 5.76045 -11.7528
  761 211.334 -15.9259 1.46107
  762 -34.2518 0.829566 3.16831
  763 -34.2826 0.829813 -3.16788
  764 463.634 85.4454 -60.4328
  765 -13.8859 1.48296 3.41876
  766 -13.9115 1.48295 -3.41747
  767 180.380 0.872250 6.52462
  768 180.354 0.909378 -6.55457
  769 334.913 21.8365 0.593089
  770 205.233 -0.428832 -2.75626
  771 205.255 -0.434182 2.74629
  772 129.795 2.41269 3.60065
  773 129.778 2.42211 -3.60310
  774 194.578 -23.6521 54.1337
  775 83.3642 6.71047 -2.70471
  776 83.3755 6.69658 2.71613
  777 1.83755 -35.0830 7.62455
  778 223.599 -29.1665 16.5519
  779 135.488 0.860422 0.630380
  780 135.473 0.862036 -0.630668
  781 178.849 0.357739 0.338005
  782 178.820 0.358063 -0.338155
  783 -0.831277 -18.2101 -10.6865
  784 1.02557 -31.5147 10.7581
  785 78.7193 9.05151 11.3070
  786 78.7048 9.05576 -11.1978
  787 461.134 5.06295 3.80578
  788 136.969 1.56359 -15.0921
  789 137.080 1.47688 15.1263
  790 -29.2531 0.974008 7.83737
  791 -29.2828 0.976317 -7.84369
  792 5.56240 -26.2954 3.16902
  793 3.64041 -59.3042 -3.06753
  794 314.502 40.3421 -2.41891
  795 -0.283102 -22.7882 5.56171
  796 5.76875 4.23715 13.6814
  797 5.75281 4.23828 -13.7308
  798 40.7157 8.59470 2.08435
  799 40.6989 8.60006 -2.06672
  800 210.012 -9.50762 -2.57864
  801 210.315 -9.42471 1.77742
  802 249.564 29.1505 -91.2993
  803 -35.3237 0.489997 -1.52956
  804 -35.2936 0.490133 1.53026
  805 -15.9352 -0.0741545 4.13845
  806 -15.9371 -0.0747666 -4.14220
  807 14.5648 0.347207 5.10341
  808 14.2544 0.328471 -5.12247
  809 158.520 -0.522214 13.6234
  810 158.395 -0.371511 -13.6066
  811 79.9238 2.67856 -0.264789
  812 79.9257 2.67471 0.265436
  813 256.717 -5.62685 26.4800
  814 25.6773 4.67393 -3.05415
  815 25.6930 4.67448 3.05980
  816 24.3171 2.47492 -2.71153
  817 24.0964 2.60296 2.78387
  818 -0.189754 -18.2952 -14.5648
  819 366.964 51.0280 48.0991
  820 -53.6305 0.0828555 -1.63004
  821 -53.5946 0.0827586 1.62996
  822 -0.0799142 -55.2226 5.50853
  823 3.53135 -8.63603 -13.3194
  824 -7.88091 -0.491783 3.06029
  825 -7.87680 -0.492919 -3.06086
  826 290.927 14.5410 -19.9012
  827 74.1570 7.89842 -3.38335
  828 74.1655 7.88689 3.41048
  829 199.464 -2.61714 -6.83040
  830 199.622 -2.65766 6.70029
  831 -51.1186 0.415324 2.13748
  832 -51.1541 0.415639 -2.13822
  833 -0.350998 -0.364415 -0.293213
  834 -0.351696 -0.365078 0.294358
  835 0.184708 -56.5093 -5.41741
  836 0.266923 -59.8880 -5.06237
  837 -56.9695 0.580491 0.345400
  838 -57.0038 0.580528 -0.345259
  839 29.3209 -12.5907 -31.3322
  840 122.932 2.01939 -0.992028
  841 122.945 2.01658 0.991235
  842 -5.59130 1.25655 0.439281
  843 -5.61306 1.25592 -0.439129
  844 184.109 0.808078 -4.35382
  845 184.131 0.795065 4.33949
  846 -20.9793 0.141356 3.94429
  847 -20.9856 0.141395 -3.94824
  848 109.840 -1.68470 -74.1578
  849 191.064 -16.5064 14.4424
  850 150.378 1.10583 -1.30612
  851 150.398 1.10376 1.30485
  852 189.228 -17.9897 -16.2422
  853 57.8928 7.02138 -0.439515
  854 57.8895 7.01554 0.454769
  855 80.6566 5.88048 -1.97757
  856 80.6637 5.86978 1.98486
  857 222.400 -4.81691 10.1027
  858 12.7797 7.85909 10.0931
  859 12.7273 7.89013 -10.1046
  860 12.4990 1.29634 0.898421
  861 12.4819 1.29513 -0.897682
  862 104.128 1.87978 0.811840
  863 104.120 1.88273 -0.812081
  864 276.469 -28.1693 28.5798
  865 172.382 1.36635 -5.65067
  866 172.410 1.34198 5.63141
  867 1.10905 2.84525 3.31991
  868 1.08710 2.84538 -3.31759
  869 173.203 0.123456 1.57309
  870 173.177 0.125177 -1.57472
  871 -33.6576 0.330449 -0.899498
  872 -33.6289 0.330749 0.899510
  873 -0.159177 -17.4128 4.94594
  874 -0.207125 -17.6853 -4.98530
  875 204.966 -3.25442 23.6752
  876 -13.2395 3.17747 11.9063
  877 -13.2737 3.18505 -11.9168
  878 -0.0741232 -28.7592 -5.48909
  879 80.7182 3.55832 -0.968567
  880 80.7211 3.55318 0.970019
  881 149.628 -7.66270 -24.4512
  882 150.838 -8.48609 24.6989
  883 -6.70185 -2.44251 -15.5442
  884 -6.67604 -2.44477 15.5171
  885 7.30906 7.11811 10.9934
  886 7.26646 7.13684 -10.9955
  887 0.734479 -66.6435 3.99512
  888 1.40066 5.42550 13.7990
  889 1.35218 5.44182 -13.8080
  890 138.006 -2.38481 -21.6943
  891 137.721 -2.51724 21.8702
  892 238.957 12.1703 29.4962
  893 53.8481 6.57534 -0.200602
  894 53.8532 6.58030 0.211253
  895 177.230 1.43459 -4.25158
  896 177.254 1.42394 4.24159
  897 -7.06958 -3.13969 13.5809
  898 -7.08050 -3.15022 -13.6022
  899 0.595583 -69.1543 -2.90091
  900 -10.8627 -0.802704 13.3588
  901 -10.8800 -0.803753 -13.3748
  902 5.68059 6.53859 -8.72161
  903 5.71400 6.52703 8.72330
  904 -0.547704 -4.33894 2.41119
  905 -0.553726 -4.33422 -2.41462
  906 13.9671 7.36072 -7.97859
  907 14.0025 7.34644 7.98422
  908 2.87816 -5.85988 14.7263
  909 2.47498 -5.45858 -15.4079
  910 170.823 -4.63079 13.8043
  911 170.402 -4.37807 -13.9090
  912 -57.9735 0.205232 -0.506753
  913 -57.9385 0.205283 0.506969
  914 -4.82273 -0.443155 2.29102
  915 -4.81800 -0.443826 -2.29007
  916 0.238754 -40.9574 -5.03047
  917 -5.25712 -2.27458 -6.55394
  918 -5.25632 -2.26951 6.55551
  919 -22.6504 1.86977 10.0714
  920 -22.6800 1.87369 -10.0807
  921 51.9989 10.4030 -2.09452
  922 51.9686 10.4267 2.14320
  923 223.507 18.1207 -5.17855
  924 -3.53624 5.16452 10.6847
  925 -3.57211 5.17516 -10.6885
  926 82.7947 5.06160 -22.3787
  927 82.8220 5.13666 22.6635
  928 -11.0815 3.66068 8.63158
  929 -11.1132 3.66705 -8.63420
  930 276.956 -15.9016 -7.74833
  931 160.405 6.41712 12.6942
  932 197.912 -2.84714 -21.4185
  933 149.536 2.47717 -9.23340
  934 149.589 2.42004 9.22309
  935 -17.1887 2.28547 -4.38521
  936 -17.1611 2.28399 4.38610
  937 -36.6386 0.685625 5.09560
  938 -36.6706 0.686999 -5.09856
  939 -2.18744 -7.02036 -7.61533
  940 -2.17336 -7.02820 7.63056
  941 51.6464 3.89685 -0.185277
  942 51.6519 3.90056 0.188669
  943 -17.2176 1.69828 12.3963
  944 -17.2447 1.70049 -12.4105
  945 180.851 0.196801 2.09368
  946 180.823 0.198854 -2.09599
  947 -1.40390 -15.5174 11.6282
  948 5.50018 6.06293 -7.54991
  949 5.52984 6.05489 7.55266
  950 7.85677 4.34766 5.10621
  951 7.83363 4.35012 -5.10255
  952 29.4073 3.26562 -1.53317
  953 29.4200 3.26739 1.53576
  954 340.785 38.7417 -4.38627
  955 -1.30887 -0.368228 -0.894292
  956 -1.31168 -0.368273 0.895959
  957 10.9258 2.68522 -9.66693
  958 11.1141 2.58405 9.64207
  959 120.014 5.33838 -9.48931
  960 120.068 5.28672 9.50829
  961 14.1273 5.42460 -4.96546
  962 14.1499 5.42139 4.97083
  963 32.3385 -14.0513 42.5072
  964 229.175 -1.52323 -1.65945
  965 228.745 -1.46398 1.42705
  966 39.1123 -7.46575 36.5861
  967 40.7861 2.27743 0.0785791
  968 40.7766 2.27555 -0.0777255
  969 108.710 -5.77001 -64.0061
  970 81.9893 1.96819 0.464780
  971 81.9879 1.97038 -0.464631
  972 10.0416 -12.2441 3.56257
  973 11.0997 -10.4828 -2.72355
  974 203.652 -0.113442 0.726658
  975 203.615 -0.113110 -0.727001
  976 -16.8015 0.0265753 9.81901
  977 -16.8152 0.0260253 -9.82916
  978 364.179 45.0865 17.9521
  979 -1.67505 -11.8283 -15.4647
  980 1.59819 -61.1051 5.25011
  981 -0.352754 -18.6811 14.3130
  982 210.312 -0.00205880 -2.81330
  983 210.323 -0.00992216 2.79704
  984 -2.78669 -5.08413 6.56782
  985 -2.79352 -5.08302 -6.56020
  986 258.396 26.2760 -17.6044
  987 468.422 4.53682 -2.56418
  988 -0.678874 -1.00075 -0.973313
  989 -0.678205 -1.00286 0.974712
  990 120.638 1.93317 -1.99908
  991 120.651 1.92879 1.99812
  992 -1.73191 -11.3925 15.5585
  993 168.747 1.18828 8.32115
  994 168.706 1.24393 -8.34754
  995 221.377 -15.0282 -10.5191
  996 -7.79233 -1.65739 7.43386
  997 -7.79357 -1.66303 -7.43638
  998 3.35550 -15.3989 11.6193
  999 -0.397629 -27.9161 11.2258
  1000 -0.0301637 -28.5227 5.47644
  1001 222.474 15.1592 -1.20279
  1002 257.307 28.1781 10.7697
  1003 185.227 -22.0560 -29.3347
  1004 2.50294 -27.9527 9.47308
  1005 3.21402 -40.5166 2.89103
  1006 50.0959 1.74601 0.228963
  1007 50.0887 1.74418 -0.228782
  1008 -2.06733 -2.35371 -3.11151
  1009 -2.06583 -2.35465 3.11429
  1010 1.62874 -22.9491 -12.3273
  1011 150.183 0.629006 -0.478757
  1012 150.203 0.627859 0.478362
  1013 28.9572 -1.61516 -12.7394
  1014 27.6881 -1.54109 12.6185
  1015 -3.46407 4.50658 13.8165
  1016 -3.50963 4.52078 -13.8301
  1017 -18.6159 2.77022 -8.64551
  1018 -18.5841 2.76532 8.64129
  1019 112.842 1.88733 -22.1286
  1020 112.935 1.96898 22.3892
  1021 80.7012 7.30327 -14.9801
  1022 80.7107 7.29517 15.1467
  1023 88.0314 6.97226 -4.70915
  1024 88.0479 6.95202 4.72624
  1025 230.972 -7.29554 -28.3582
  1026 -6.69248 2.72615 14.9781
  1027 -6.73399 2.73306 -15.0004
  1028 163.971 0.219460 11.3028
  1029 163.884 0.334132 -11.3217
  1030 -1.27647 -9.05216 16.3401
  1031 -13.3608 -0.468563 7.20164
  1032 -13.3654 -0.470493 -7.20799
  1033 149.162 1.83305 -11.1951
  1034 149.237 1.75308 11.1892
  1035 180.403 3.98256 -20.2454
  1036 -0.274868 -27.8111 -11.7907
  1037 -2.29659 -10.9826 13.8202
  1038 -2.38912 -11.1023 -13.6991
  1039 104.335 6.65623 -7.61613
  1040 104.373 6.61970 7.64090
  1041 132.831 2.95773 4.48673
  1042 132.811 2.97137 -4.49031
  1043 220.926 -14.6748 9.22276
  1044 9.22436 1.41965 -0.254267
  1045 9.24232 1.42061 0.254480
  1046 187.465 -24.7000 31.3347
  1047 -2.78027 1.02263 1.15589
  1048 -2.80149 1.02176 -1.15514
  1049 39.1808 10.4040 1.36992
  1050 39.1368 10.4337 -1.33755
  1051 14.2411 8.16233 8.72322
  1052 14.2003 8.18136 -8.71931
  1053 1.96308 -34.6687 -7.91818
  1054 52.8674 2.51865 -0.312462
  1055 52.8730 2.52196 0.314456
  1056 155.147 5.36326 5.19848
  1057 151.360 1.61079 4.24697
  1058 151.338 1.62257 -4.25297
  1059 -1.12643 -9.36835 -16.3642
  1060 228.123 -2.86222 -5.25192
  1061 -0.423803 -1.15772 16.4423
  1062 -0.258358 -1.01352 -16.3779
  1063 209.307 -0.284374 -1.54713
  1064 209.337 -0.286138 1.54283
  1065 222.671 -0.648673 -2.70170
  1066 222.576 -0.679674 2.61559
  1067 -0.170905 -43.2608 4.14072
  1068 128.962 3.83458 -5.97287
  1069 128.986 3.81278 5.97006
  1070 157.837 1.86705 5.00048
  1071 157.813 1.88182 -5.00936
  1072 2.91573 3.41668 15.0237
  1073 2.90142 3.42118 -15.0298
  1074 344.176 23.7510 2.85932
  1075 -4.67882 -2.15182 16.6598
  1076 -4.73833 -2.11023 -16.6954
  1077 47.4358 9.86057 0.493759
  1078 47.4190 9.86852 -0.467434
  1079 -29.0889 0.674273 -1.65743
  1080 -29.0606 0.674575 1.65811
  1081 78.7838 4.05397 -25.8785
  1082 78.7003 4.28405 26.2347
  1083 21.8830 9.20130 7.02822
  1084 21.8377 9.22532 -7.01871
  1085 53.1271 5.51280 -18.5425
  1086 52.8606 5.79054 18.7395
  1087 -1.49485 -14.5606 -11.3214
  1088 189.540 2.19100 26.1366
  1089 134.372 -2.96570 83.7338
  1090 20.5872 9.34262 7.27217
  1091 20.5317 9.37651 -7.26728
  1092 80.3763 4.88137 -1.42233
  1093 80.3818 4.87235 1.42687
  1094 298.081 -2.05515 11.0859
  1095 18.1281 4.15826 5.16750
  1096 17.8972 4.22412 -5.22663
  1097 -8.89808 -1.99267 9.93361
  1098 -8.90292 -2.00098 -9.94155
  1099 -0.293119 -6.48663 2.63952
  1100 -0.304289 -6.48218 -2.64983
  1101 195.494 0.121878 6.77644
  1102 195.455 0.202278 -6.84399
  1103 0.140205 -14.3846 15.3776
  1104 -13.7014 0.772865 -13.4439
  1105 -13.6782 0.773055 13.4287
  1106 0.0742952 -52.6677 -5.36575
  1107 -3.31505 -4.61581 16.6289
  1108 -3.30800 -4.52620 -16.6447
  1109 187.483 0.482317 -2.85500
  1110 187.510 0.477669 2.84951
  1111 192.474 -1.14054 8.04028
  1112 192.367 -1.01247 -8.11208
  1113 32.2520 6.72257 -5.19814
  1114 32.0084 6.87668 5.27610
  1115 -0.478045 -27.1281 -9.48268
  1116 254.066 -26.8957 -47.9789
  1117 330.065 38.9497 -2.32664
  1118 3.19627 -42.8498 -1.71355
  1119 10.9094 6.39367 -11.3749
  1120 10.9716 6.35416 11.3347
  1121 30.0288 10.0781 3.91592
  1122 29.9648 10.1216 -3.89653
  1123 64.9003 4.44792 0.206512
  1124 64.9010 4.45405 -0.202118
  1125 -4.34916 -6.19534 12.8913
  1126 -4.34178 -6.25087 -12.9082
  1127 -12.9521 3.78796 11.0333
  1128 -12.9861 3.79576 -11.0406
  1129 -5.09574 4.71697 12.8165
  1130 -5.13629 4.72911 -12.8267
  1131 182.828 -9.27292 -13.3778
  1132 184.049 -9.37786 13.2307
  1133 0.130995 -31.5001 -11.2763
  1134 96.0985 -0.826997 -32.9056
  1135 96.2868 -0.515200 33.5118
  1136 29.8469 9.44002 -4.12260
  1137 29.8771 9.42392 4.13923
  1138 98.6920 36.0642 93.9145
  1139 23.0304 7.68566 5.31874
  1140 23.0046 7.69363 -5.30853
  1141 250.941 -29.2430 -9.77705
  1142 93.4049 3.17173 1.23237
  1143 93.3981 3.17797 -1.23155
  1144 -4.30396 -3.84909 7.82284
  1145 -4.30569 -3.85722 -7.81876
  1146 -5.16040 -4.64655 10.1582
  1147 -5.15878 -4.66352 -10.1572
  1148 163.090 -17.7978 -47.0072
  1149 166.622 -19.5011 47.3784
  1150 27.7512 1.54250 0.179527
  1151 27.7642 1.54406 -0.178632
  1152 101.462 4.89248 -17.7397
  1153 101.491 4.81992 17.9391
  1154 225.052 -31.7927 35.3838
  1155 202.134 -0.342444 0.429192
  1156 202.097 -0.342188 -0.429211
  1157 -18.7446 2.86064 9.82627
  1158 -18.7769 2.86595 -9.83273
  1159 -31.8552 1.04336 -5.23111
  1160 -31.8235 1.04203 5.23012
  1161 49.8074 -3.37676 55.0869
  1162 149.840 10.4861 -10.5117
  1163 92.7992 7.12470 -8.35912
  1164 92.8377 7.09380 8.41175
  1165 294.829 -13.3288 51.3130
  1166 94.2742 6.74478 -12.7354
  1167 94.3240 6.69961 12.8274
  1168 22.3033 3.45105 -2.13504
  1169 22.3186 3.45248 2.13808
  1170 7.91888 -33.4548 4.10432
  1171 8.01881 -32.7497 -6.24783
  1172 128.329 -10.0399 -47.3808
  1173 130.186 -9.44523 47.3893
  1174 49.3191 7.74283 -12.5165
  1175 49.1188 7.92147 12.6767
  1176 228.108 -15.9443 -18.8121
  1177 -8.63184 -0.840535 15.1384
  1178 -8.65649 -0.839107 -15.1579
  1179 -0.295068 -12.8827 -15.7823
  1180 56.6829 -0.0933582 -34.2561
  1181 56.8333 0.114290 34.9061
  1182 -0.148812 -11.5368 2.95261
  1183 -0.126783 -11.5639 -2.98799
  1184 -55.8937 0.482344 -1.52201
  1185 -55.8571 0.482137 1.52172
  1186 183.108 0.175299 -0.757040
  1187 183.138 0.174522 0.756139
  1188 111.314 4.68563 -4.89856
  1189 111.337 4.66358 4.90296
  1190 -4.48759 -0.275654 16.7316
  1191 -4.50053 -0.211097 -16.7610
  1192 0.0282519 -46.8112 -4.62837
  1193 -47.2634 0.121193 2.40216
  1194 -47.2962 0.121491 -2.40392
  1195 34.8232 -2.92425 -23.4269
  1196 34.5502 -2.70248 24.2391
  1197 212.274 -13.0661 0.402306
  1198 59.0046 2.56826 -30.7039
  1199 59.0606 2.76705 31.0579
  1200 -26.0068 0.135832 3.59694
  1201 -26.0177 0.135773 -3.60078
  1202 0.651645 -41.7183 -8.13089
  1203 -9.27846 1.85414 -2.20513
  1204 -9.25492 1.85451 2.20642
  1205 30.5861 8.09816 4.15050
  1206 30.5623 8.10572 -4.13670
  1207 118.920 1.19035 -0.681432
  1208 118.931 1.18840 0.681295
  1209 161.491 1.18036 3.23648
  1210 161.469 1.18766 -3.24143
  1211 8.28164 -1.96230 9.92023
  1212 8.15768 -2.10571 -10.0685
  1213 1.36645 -24.2088 12.2602
  1214 288.667 37.9587 14.4423
  1215 -8.92732 -0.715779 5.63323
  1216 -8.92699 -0.718573 -5.63541
  1217 1.06777 -22.6601 -12.7480
  1218 -0.871358 -13.6025 8.26430
  1219 -0.824765 -13.4903 -8.56593
  1220 229.304 -2.46012 4.67906
  1221 0.211269 -53.6808 4.75748
  1222 1.48621 -16.7759 -14.2054
  1223 25.5710 1.27412 0.345284
  1224 25.5574 1.27277 -0.345118
  1225 -2.37570 -9.94110 15.2637
  1226 -26.4812 1.54391 -4.51313
  1227 -26.4512 1.54282 4.51329
  1228 477.037 8.54987 13.1389
  1229 -13.6597 1.46973 13.6521
  1230 -13.6874 1.47101 -13.6684
  1231 108.635 4.66982 -16.0579
  1232 108.745 4.57609 16.1623
  1233 6.75126 -12.0076 -6.91864
  1234 103.592 5.90065 -6.19527
  1235 103.622 5.87114 6.21131
  1236 4.11067 -34.1472 -2.82906
  1237 -2.38087 -9.95508 -15.2298
  1238 -19.1917 0.903263 2.78642
  1239 -19.2181 0.902991 -2.78540
  1240 -8.35785 0.446924 -15.5527
  1241 -8.32818 0.447148 15.5346
  1242 220.602 17.4144 21.2074
  1243 126.100 1.76176 -17.2146
  1244 126.264 1.70704 17.2584
  1245 -58.8555 0.166038 -0.600423
  1246 -58.8194 0.166036 0.600664
  1247 114.043 3.35185 -3.35178
  1248 114.056 3.34223 3.35127
  1249 -60.7258 -0.982937 -0.152649
  1250 -60.7606 -0.983187 0.152720
  1251 170.407 -12.2556 -19.6882
  1252 -27.4332 0.450854 7.69196
  1253 -27.4558 0.451512 -7.70015
  1254 172.197 -12.9345 19.5070
  1255 115.826 4.82175 -6.94633
  1256 115.856 4.79008 6.95253
  1257 13.2267 -37.8374 -23.3135
  1258 0.240837 -38.0332 -9.69866
  1259 -0.860517 -16.0617 14.3274
  1260 372.286 54.9559 -47.3807
  1261 -0.0977352 -35.5128 9.38605
  1262 386.050 36.2397 -21.2310
  1263 -0.177132 -65.6680 -4.54360
  1264 16.7537 2.21371 -0.904360
  1265 16.7698 2.21503 0.906005
  1266 -0.167493 -14.8285 3.09627
  1267 -0.136298 -14.9057 -3.08640
  1268 63.7328 2.16612 -0.141556
  1269 63.7361 2.16857 0.142041
  1270 230.897 -18.2562 17.9717
  1271 3.02604 2.02943 -2.55820
  1272 3.04640 2.03006 2.55985
  1273 1.33925 -73.2619 2.56646
  1274 0.850770 -77.8179 -2.52252
  1275 212.366 -27.4262 -20.7133
  1276 -0.604710 -19.4966 9.16797
  1277 219.446 13.4299 -26.2589
  1278 -0.666197 -25.6970 9.02954
  1279 0.432586 -71.0328 -3.63624
  1280 106.139 3.62998 -3.55119
  1281 106.154 3.61453 3.55352
  1282 -0.0728326 -38.1067 4.07970
  1283 -0.105359 -31.8504 -9.23390
  1284 515.166 85.2549 74.8228
  1285 203.118 0.235171 0.337737
  1286 203.080 0.235125 -0.337649
  1287 4.83204 -0.121496 13.7931
  1288 4.67181 0.0947539 -13.8465
  1289 -3.62800 2.73091 15.8599
  1290 -3.69484 2.73924 -15.8866
  1291 213.248 -4.12781 -15.2574
  1292 198.637 -8.19678 -7.40407
  1293 198.403 -9.36324 7.43852
  1294 28.1227 3.87470 2.23145
  1295 28.1088 3.87293 -2.22710
  1296 -33.4018 0.907217 -6.12844
  1297 -33.3707 0.905456 6.12404
  1298 221.695 -32.0557 -29.8492
  1299 -1.66907 -4.00985 4.07500
  1300 -1.67517 -4.00618 -4.07271
  1301 233.205 -10.7951 26.7347
  1302 -2.50951 -9.36704 11.1237
  1303 -2.48252 -9.40047 -11.0722
  1304 -22.2521 1.54868 3.30120
  1305 -22.2799 1.54905 -3.30027
  1306 34.1349 2.88407 -11.4461
  1307 33.7838 3.09181 11.4531
  1308 53.9167 2.05839 0.437298
  1309 53.9108 2.05591 -0.436583
  1310 -23.3251 2.29503 9.63238
  1311 -23.3559 2.29906 -9.63978
  1312 190.222 0.693503 0.525349
  1313 190.188 0.693424 -0.525265
  1314 102.603 -2.81095 63.4458
  1315 154.487 0.771421 1.13780
  1316 154.466 0.772781 -1.13852
  1317 100.840 2.03434 -24.9646
  1318 100.883 1.90859 25.2105
  1319 0.941733 -42.4486 -6.19545
  1320 38.3729 9.08487 -4.08897
  1321 38.2148 9.20019 4.17053
  1322 -0.369182 -0.350752 -0.495437
  1323 -0.371019 -0.350914 0.496870
  1324 131.166 4.52863 9.18655
  1325 131.117 4.58197 -9.18301
  1326 64.1261 5.85189 0.787538
  1327 64.1261 5.85928 -0.778851
  1328 95.3755 5.95490 -4.03295
  1329 95.3935 5.93562 4.04299
  1330 126.098 1.28479 -1.13526
  1331 126.111 1.28280 1.13487
  1332 -4.03718 -1.96882 -4.60657
  1333 -4.03703 -1.96693 4.60945
  1334 -39.9449 0.142633 1.96465
  1335 -39.9766 0.142616 -1.96411
  1336 -6.96236 -3.23378 -11.3811
  1337 -6.95879 -3.21875 11.3714
  1338 -23.6417 0.554743 0.847783
  1339 -23.6681 0.554265 -0.847434
  1340 -61.2775 0.584828 0.346666
  1341 -61.3129 0.584886 -0.346522
  1342 239.095 -32.2212 41.2260
  1343 168.228 -1.24414 -21.1109
</Section>

newXOutput 29

<Section columns = "stress_xx | stress_yy | stress_xy">
  1 216.940 -0.229340 0.206282
  2 216.983 -0.229471 -0.206384
  3 -68.5495 0.358658 -0.923257
  4 0.110813 0.0312288 0.194698
  5 399.580 102.820 124.772
  6 451.404 117.293 -119.250
  7 0.110403 0.0308419 -0.194156
  8 -68.5109 0.358632 0.923086
  9 216.258 -0.211196 -0.711370
  10 216.409 -0.579907 -1.16805
  11 218.466 -0.564682 -0.296350
  12 218.642 -0.517561 -1.34396
  13 219.096 -0.496975 -0.385012
  14 223.730 -0.495958 -0.547292
  15 225.270 -0.759803 -1.79916
  16 226.865 -0.315415 -1.21289
  17 227.804 0.237679 -2.34419
  18 237.169 -1.19022 -2.01050
  19 241.077 -0.883696 -2.61216
  20 245.309 -1.40872 -0.924201
  21 247.191 -1.92791 -0.467888
  22 244.834 -2.27728 3.49341
  23 235.626 -2.60238 7.19902
  24 214.550 -3.04914 15.1655
  25 181.084 1.51077 17.5707
  26 153.064 1.74279 16.5167
  27 114.567 4.11919 10.0288
  28 122.319 4.01549 0.740663
  29 100.508 12.1682 -6.47249
  30 144.401 5.47240 -17.7427
  31 169.095 1.20963 -14.5774
  32 209.880 -0.736708 -12.6077
  33 232.523 -3.15732 -8.58475
  34 244.321 -2.65952 -3.48864
  35 246.598 -1.86107 0.472806
  36 244.890 -1.38825 0.849296
  37 240.882 -0.890764 2.52412
  38 237.079 -1.20797 1.95835
  39 227.792 0.227189 2.31762
  40 226.881 -0.319384 1.20231
  41 225.302 -0.762173 1.79480
  42 223.768 -0.497171 0.545097
  43 219.137 -0.497646 0.383930
  44 218.685 -0.518168 1.34397
  45 218.509 -0.565096 0.296237
  46 216.452 -0.580207 1.16845
  47 216.301 -0.211315 0.711617
  48 204.156 0.727017 -0.257129
  49 188.588 0.515137 -0.594839
  50 169.209 -0.159826 -0.630744
  51 149.201 1.07564 -0.524698
  52 131.762 0.987318 -0.422238
  53 113.173 1.60124 -0.503558
  54 94.8975 2.53731 -0.326293
  55 75.9975 2.31578 -0.640889
  56 60.3717 1.74361 -0.881824
  57 39.9311 1.23922 -0.928745
  58 19.2225 1.57613 -0.703300
  59 1.97042 1.28979 -0.679262
  60 -19.5048 0.800608 -0.628796
  61 -35.4674 -0.0327008 -1.47387
  62 -50.9148 -0.973273 -0.680903
  63 -66.5423 0.167905 0.430752
  64 -69.8707 1.20463 -0.202689
  65 -70.0501 0.547417 0.163353
  66 -67.6941 0.292191 -0.125756
  67 -68.2727 0.784530 -0.878325
  68 -67.1124 0.944749 -0.146391
  69 -63.4076 0.305612 -1.33187
  70 -63.9523 0.579891 -1.42295
  71 -62.2453 0.553661 -0.830500
  72 -57.5615 0.356833 -1.22332
  73 -55.2570 0.615962 -1.97403
  74 -51.8201 0.681402 -1.64096
  75 -45.7711 0.350538 -2.77005
  76 -42.3532 0.107393 -2.31755
  77 -36.2746 0.154697 -2.65625
  78 -31.0176 0.107504 -2.91965
  79 -26.4722 0.0328081 -2.30349
  80 -20.2084 0.130858 -2.31626
  81 -14.8237 -0.0658721 -2.46914
  82 -9.61783 -0.274745 -2.15457
  83 -5.50581 -0.239641 -1.64275
  84 -2.68734 -0.413644 -1.36649
  85 -0.419472 -0.238618 -0.479760
  86 0.0519322 -0.261057 -0.165485
  87 -0.141942 -0.122166 -0.0226144
  88 -0.372960 -0.324602 -0.419019
  89 -0.361440 -2.26802 -1.18435
  90 -0.311870 -5.12127 -1.70047
  91 -0.163997 -8.79828 -2.48754
  92 -0.0876879 -13.5389 -2.14737
  93 -0.0810940 -17.9265 -2.70495
  94 -0.336261 -23.3205 -3.06393
  95 -0.136901 -29.9543 -3.10678
  96 0.0645838 -36.6399 -2.98310
  97 0.146440 -43.8200 -2.94953
  98 0.220674 -51.2211 -2.91164
  99 0.0282805 -56.7528 -3.95083
  100 0.394917 -64.5294 -3.54427
  101 0.474699 -73.6680 -2.87512
  102 0.0101385 -77.9233 -3.82517
  103 0.673485 -84.8234 -3.58167
  104 1.61395 -94.0459 -1.90911
  105 3.13210 -96.9931 -3.02314
  106 2.09910 -90.2867 1.51395
  107 2.85597 -70.6877 7.87051
  108 16.5927 -45.8990 24.9608
  109 53.4570 60.3861 91.1006
  110 618.376 31.9198 59.9846
  111 529.600 9.99905 22.0332
  112 512.534 3.92214 4.88863
  113 509.027 1.58477 -0.823976
  114 512.332 5.88410 -11.6479
  115 527.699 17.9112 -25.8677
  116 600.548 62.5586 -75.9378
  117 126.533 46.3543 -111.542
  118 27.3173 -45.1650 -31.0441
  119 7.96661 -77.2720 -11.1057
  120 2.16826 -85.7260 -1.70566
  121 2.50428 -93.4928 1.85903
  122 0.730009 -90.4621 1.52634
  123 0.283179 -82.7150 3.10007
  124 0.294604 -77.6479 2.47022
  125 0.405834 -69.7180 4.03709
  126 -0.0199252 -65.0731 3.88539
  127 0.161204 -58.7008 2.80682
  128 0.304882 -50.5941 3.52991
  129 0.0549852 -44.8221 2.80078
  130 0.0914260 -36.7022 3.53416
  131 -0.366346 -30.3107 3.03196
  132 -0.261578 -23.3422 2.97042
  133 -0.0595167 -17.8310 2.71272
  134 -0.112382 -13.4624 2.15252
  135 -0.160681 -8.77271 2.46386
  136 -0.307552 -5.11757 1.69211
  137 -0.359566 -2.27134 1.18349
  138 -0.372537 -0.327998 0.419800
  139 -0.141934 -0.123659 0.0235994
  140 0.0501437 -0.261325 0.166411
  141 -0.422933 -0.238538 0.480993
  142 -2.69290 -0.413345 1.36787
  143 -5.51354 -0.238976 1.64333
  144 -9.62466 -0.273922 2.15399
  145 -14.8270 -0.0651926 2.46709
  146 -20.2074 0.130989 2.31381
  147 -26.4652 0.0330710 2.30096
  148 -31.0051 0.107770 2.91684
  149 -36.2551 0.154599 2.65340
  150 -42.3277 0.107249 2.31501
  151 -45.7417 0.350269 2.76771
  152 -51.7858 0.681021 1.63929
  153 -55.2203 0.615568 1.97280
  154 -57.5229 0.356591 1.22271
  155 -62.2052 0.553423 0.830238
  156 -63.9118 0.579680 1.42270
  157 -63.3676 0.305518 1.33177
  158 -67.0721 0.944531 0.146633
  159 -68.2326 0.784383 0.878364
  160 -67.6547 0.292167 0.125929
  161 -70.0106 0.547340 -0.163166
  162 -69.8315 1.20441 0.202769
  163 -66.5041 0.167906 -0.430586
  164 -50.8803 -0.972893 0.680830
  165 -35.4366 -0.0323176 1.47364
  166 -19.4781 0.801096 0.628800
  167 1.99161 1.29054 0.679232
  168 19.2391 1.57723 0.703259
  169 39.9421 1.24086 0.928668
  170 60.3770 1.74547 0.881702
  171 75.9985 2.31774 0.640789
  172 94.8933 2.53922 0.326151
  173 113.164 1.60312 0.503293
  174 131.748 0.988984 0.421922
  175 149.182 1.07672 0.524266
  176 169.184 -0.158939 0.630254
  177 188.556 0.515281 0.594489
  178 204.118 0.726860 0.256975
  179 54.9997 10.1681 -1.17448
  180 54.9787 10.1787 1.21380
  181 -1.55459 1.36857 16.7297
  182 -1.61174 1.36470 -16.7312
  183 127.270 -1.87529 -27.4310
  184 127.216 -2.13545 27.7440
  185 24.6553 5.14124 0.256955
  186 24.3610 5.25969 -0.235201
  187 17.1103 3.63151 -3.04553
  188 17.1290 3.63196 3.04896
  189 121.124 2.95081 -3.81198
  190 121.141 2.93784 3.81183
  191 -3.30948 5.03148 9.44376
  192 -3.34388 5.04032 -9.44547
  193 140.840 4.17146 -10.2403
  194 140.906 4.10731 10.2467
  195 -5.61581 -4.91875 12.8815
  196 -5.61267 -4.94572 -12.8950
  197 1.06615 -12.0916 -15.8115
  198 42.7393 0.793448 -24.3845
  199 1.35112 -12.9062 15.4679
  200 42.0470 1.16312 24.8305
  201 200.184 -28.2529 -40.0739
  202 207.440 -29.3806 38.3325
  203 70.7459 3.00486 -0.309020
  204 70.7446 3.00082 0.310639
  205 -13.2650 1.07012 -1.97015
  206 -13.2393 1.07069 1.97094
  207 -16.6270 2.41963 12.7627
  208 -16.6596 2.42492 -12.7767
  209 71.0600 7.19846 -1.32359
  210 71.0629 7.19023 1.33582
  211 21.0431 9.04707 7.15600
  212 20.9649 9.10311 -7.16354
  213 -21.8263 2.34415 -5.53781
  214 -21.7950 2.34213 5.53756
  215 162.325 0.728803 1.89269
  216 162.302 0.731843 -1.89461
  217 4.91802 -22.9053 7.44283
  218 5.35265 -20.8795 -6.75006
  219 -1.59300 -13.8379 14.6093
  220 -1.62048 -14.3440 -14.1378
  221 65.4666 9.65929 -10.1323
  222 65.4205 9.70099 10.2627
  223 -14.7336 -0.120007 12.6525
  224 -14.7522 -0.121029 -12.6668
  225 173.680 1.46798 -5.75144
  226 173.707 1.44938 5.73812
  227 186.439 -2.33537 -11.2277
  228 186.574 -2.53682 11.1571
  229 296.270 23.4055 -0.463344
  230 271.814 29.6177 19.5491
  231 269.586 -4.06536 -27.4404
  232 31.5120 7.68537 4.00992
  233 31.4911 7.69052 -3.99827
  234 1.41400 5.99525 13.1305
  235 1.36688 6.01329 -13.1385
  236 208.190 -12.6319 -6.83230
  237 206.953 -12.7970 7.48367
  238 114.507 1.62842 -1.33145
  239 114.517 1.62454 1.33102
  240 -26.5003 1.85329 8.60352
  241 -26.5332 1.85696 -8.60946
  242 -3.54637 -3.49435 -5.73413
  243 -3.54380 -3.49289 5.73849
  244 -29.9835 0.852009 2.88778
  245 -30.0145 0.852044 -2.88707
  246 93.4597 7.60558 -6.39951
  247 93.4835 7.57976 6.42785
  248 119.306 4.01419 -15.4132
  249 119.415 3.93636 15.4839
  250 27.4465 2.30404 -0.447691
  251 27.4608 2.30558 0.448942
  252 68.1879 -2.16958 -54.7875
  253 81.0274 0.0334845 60.0793
  254 8.69600 3.85795 12.7321
  255 8.65712 3.95263 -12.7730
  256 284.823 -24.4895 -2.61151
  257 23.3560 9.42195 6.19188
  258 23.3176 9.44107 -6.18022
  259 66.7205 6.83480 -19.8396
  260 66.6076 7.02037 20.0935
  261 317.058 43.0097 -6.57612
  262 188.362 0.515650 7.78763
  263 188.320 0.580219 -7.82915
  264 -1.73022 -10.5816 -9.04812
  265 -1.68440 -10.6258 9.08533
  266 -0.406373 -25.3377 -12.6064
  267 0.755759 -29.9786 -11.9098
  268 0.382489 -29.8262 12.3557
  269 -4.92039 -4.30355 16.7297
  270 -4.93834 -4.29340 -16.7879
  271 9.62749 -25.2755 -2.77366
  272 10.3394 -23.4792 4.37845
  273 -10.9151 -0.940821 7.95482
  274 -10.9189 -0.944677 -7.96073
  275 133.010 4.30011 -6.27056
  276 133.042 4.27162 6.26906
  277 234.095 -24.9353 -0.0302296
  278 50.2293 4.90633 -0.705072
  279 50.2364 4.90982 0.710001
  280 -0.651162 -23.7511 12.0340
  281 3.60150 5.01974 6.31269
  282 3.57380 5.02453 -6.30986
  283 374.623 26.7128 -8.72717
  284 183.174 0.472697 2.35251
  285 183.146 0.476871 -2.35676
  286 120.742 -6.54152 -41.5791
  287 121.876 -6.43639 42.2771
  288 233.766 -23.6020 -3.85626
  289 -22.5336 0.669468 10.0418
  290 -22.5557 0.670106 -10.0530
  291 229.586 -21.6077 68.7594
  292 -10.2995 1.52846 15.3099
  293 -10.3312 1.52840 -15.3297
  294 37.4351 10.3502 -1.52895
  295 37.2964 10.4513 1.58754
  296 -42.3453 0.437013 0.545448
  297 -42.3780 0.436867 -0.545188
  298 192.991 0.00906142 -94.3752
  299 -39.0237 0.822832 -4.70468
  300 -38.9889 0.821527 4.70280
  301 -1.36151 -5.18477 17.2534
  302 -0.813279 -5.08454 -17.1150
  303 83.4123 8.95349 -9.36684
  304 83.4306 8.93901 9.44106
  305 16.8650 2.56930 2.27914
  306 16.8472 2.56814 -2.27722
  307 87.1807 4.00230 -1.70374
  308 87.1861 3.99477 1.70626
  309 7.85106 -7.23813 9.76298
  310 7.15163 -8.50766 -9.83855
  311 84.6146 2.11541 -0.352132
  312 84.6163 2.11263 0.352381
  313 -31.7395 0.823036 7.41617
  314 -31.7675 0.824420 -7.42363
  315 20.6138 -3.31440 -3.70245
  316 19.9773 -3.33122 3.15721
  317 191.446 0.118756 0.652778
  318 191.413 0.119248 -0.653120
  319 420.550 24.3750 15.4910
  320 41.4884 6.16777 1.92002
  321 41.4767 6.16622 -1.91145
  322 -10.5814 2.29864 4.01562
  323 -10.6085 2.29948 -4.01414
  324 57.7183 8.43410 -0.543307
  325 57.7112 8.43115 0.565646
  326 6.16063 5.91820 13.6980
  327 6.12148 5.93460 -13.7184
  328 0.851888 -43.0496 8.83898
  329 -43.6624 0.186932 -1.19936
  330 -43.6289 0.187116 1.19977
  331 145.116 0.923687 -1.22745
  332 145.134 0.921656 1.22669
  333 152.870 1.54321 -3.25725
  334 152.891 1.53472 3.25311
  335 -40.4424 0.762488 -3.47885
  336 -40.4079 0.761971 3.47873
  337 -2.48281 1.02624 0.527203
  338 -2.50524 1.02548 -0.526729
  339 -0.899220 -17.4194 9.05510
  340 -0.717729 -18.1157 -9.04298
  341 171.160 -14.6134 -27.8566
  342 177.982 -17.4558 27.3051
  343 101.124 5.56694 -3.90256
  344 101.139 5.55035 3.90857
  345 43.6450 10.5996 -0.299515
  346 43.5811 10.6424 0.345819
  347 -16.9129 3.15113 7.78561
  348 -16.9453 3.15580 -7.78790
  349 322.923 2.34488 4.56875
  350 16.2879 -27.9380 -17.0887
  351 17.4261 -26.3828 18.0065
  352 -7.62328 4.91381 12.2810
  353 -7.66200 4.92458 -12.2895
  354 -9.07638 -1.91601 14.7611
  355 -9.09536 -1.91855 -14.7825
  356 365.231 58.9618 -13.5686
  357 231.552 -4.26800 32.2365
  358 218.221 -4.91357 -4.82369
  359 217.967 -4.80113 4.43278
  360 151.583 -1.51153 -17.6710
  361 151.421 -1.68234 17.6686
  362 0.279838 -51.8360 -7.21788
  363 200.326 0.762431 -4.40244
  364 200.345 0.743727 4.38003
  365 2.51475 -49.1550 5.96002
  366 226.965 17.6369 -18.2638
  367 54.9309 2.43818 0.831552
  368 54.9242 2.43624 -0.831264
  369 152.690 1.55615 -13.1350
  370 152.795 1.46125 13.1408
  371 165.309 1.82726 -8.03179
  372 165.347 1.78520 8.01335
  373 -4.65715 2.09010 2.78809
  374 -4.68145 2.08987 -2.78646
  375 93.3045 5.18764 -20.6718
  376 93.3538 5.23791 20.8874
  377 197.406 0.143212 1.07436
  378 197.372 0.144188 -1.07555
  379 109.828 6.55124 -10.2718
  380 109.880 6.50232 10.3125
  381 127.764 2.55017 2.58537
  382 127.749 2.55671 -2.58679
  383 -6.13628 -1.12331 4.87695
  384 -6.13495 -1.12594 -4.87633
  385 -1.44836 -1.03215 -1.39973
  386 -1.44913 -1.03281 1.40195
  387 262.346 -34.6281 16.3906
  388 -3.50631 -8.38706 13.4349
  389 -3.48377 -8.45417 -13.4325
  390 41.0295 3.21890 -1.25790
  391 41.0398 3.22153 1.26052
  392 -1.31136 -6.50788 4.89318
  393 -1.32572 -6.49621 -4.89321
  394 15.0984 7.55428 7.00099
  395 15.0670 7.56520 -6.99462
  396 214.641 -0.636436 5.76985
  397 214.618 -0.550644 -5.89260
  398 -0.659619 -13.1188 16.3647
  399 -17.6831 -0.342488 7.56525
  400 -17.6922 -0.343744 -7.57306
  401 -0.727035 -13.8296 -16.1774
  402 201.870 0.299723 2.79842
  403 201.843 0.305384 -2.80665
  404 -2.51538 4.26901 15.3171
  405 -2.57258 4.28504 -15.3352
  406 148.016 2.71996 -5.24923
  407 148.040 2.70245 5.24267
  408 227.900 -9.82704 -5.95718
  409 228.823 -7.87150 4.58139
  410 -0.489360 -23.7752 -9.95069
  411 19.5449 7.09714 -5.54615
  412 19.7061 7.00823 5.53653
  413 222.435 14.7944 11.5292
  414 127.606 -8.26243 -57.9298
  415 131.166 -10.6950 60.7704
  416 6.62141 7.09031 10.2887
  417 6.58136 7.10583 -10.2889
  418 93.9863 3.16533 -1.16431
  419 93.9917 3.16042 1.16485
  420 91.1023 10.1611 92.5503
  421 36.8485 9.18729 -3.24478
  422 36.8751 9.17586 3.26388
  423 2.18965 -23.3809 11.4324
  424 -0.291150 -38.7387 -8.71310
  425 14.1132 8.58361 9.77263
  426 14.0639 8.60845 -9.77357
  427 17.2707 5.28748 -4.39855
  428 17.2921 5.28545 4.40373
  429 -6.77367 -0.510922 -16.7699
  430 -6.74214 -0.520369 16.7474
  431 44.4142 8.58031 -7.29365
  432 44.2312 8.72018 7.40481
  433 227.913 -7.70056 -24.2019
  434 5.98384 -2.89663 13.5169
  435 5.77599 -2.82359 -13.5852
  436 165.798 -7.02286 -19.5389
  437 166.527 -7.55443 19.4902
  438 -42.3347 0.361664 -4.51559
  439 -42.3011 0.360643 4.51231
  440 0.00583168 -37.9506 7.81342
  441 -0.281162 -24.0599 8.85083
  442 -17.3176 1.05124 12.8683
  443 -17.3419 1.05166 -12.8830
  444 118.819 1.56524 -0.450797
  445 118.830 1.56285 0.450356
  446 -3.62991 -5.72752 9.07431
  447 -3.63479 -5.73925 -9.06300
  448 72.8731 3.03851 -30.2677
  449 72.7500 3.39270 30.6631
  450 0.611036 -46.3555 -8.78630
  451 419.999 15.7218 0.479229
  452 1.11711 -55.4398 -5.46743
  453 -50.6016 0.0673188 -1.71861
  454 -50.5657 0.0674040 1.71889
  455 -19.6397 2.67801 10.7004
  456 -19.6735 2.68367 -10.7094
  457 -22.2676 0.307446 7.62206
  458 -22.2818 0.307576 -7.63014
  459 80.0189 8.73219 -6.10262
  460 80.0317 8.72177 6.14857
  461 122.217 5.40755 -7.96017
  462 122.260 5.36624 7.97204
  463 -2.27403 -8.01878 16.8816
  464 -2.27620 -7.96480 -16.9496
  465 210.892 2.93921 -30.5867
  466 13.9655 -4.77243 -3.65962
  467 13.4819 -4.88916 3.90741
  468 3.24853 -50.7611 0.333625
  469 2.04656 -58.5854 -1.78331
  470 -6.58426 -2.97222 9.34922
  471 -6.58556 -2.98214 -9.35151
  472 44.2441 -8.30932 -46.9724
  473 330.698 -4.30623 -28.9619
  474 72.8194 5.28430 1.42726
  475 72.8175 5.29222 -1.42052
  476 106.214 0.831575 -29.3681
  477 106.493 0.794971 29.8525
  478 30.3914 11.0118 4.45608
  479 30.3407 11.0455 -4.43777
  480 95.8280 7.41482 -15.0131
  481 95.8884 7.36766 15.1411
  482 3.04593 1.56608 15.7026
  483 3.25900 1.67351 -15.6818
  484 -44.6966 0.698021 -3.40589
  485 -44.6608 0.697483 3.40514
  486 214.084 -25.5747 -15.1637
  487 170.925 0.448957 -0.911891
  488 170.951 0.448123 0.911553
  489 7.48972 1.49863 -1.27040
  490 7.50967 1.49969 1.27148
  491 -11.8897 4.02782 10.1226
  492 -11.9248 4.03542 -10.1277
  493 -26.0734 1.64070 -3.82865
  494 -26.0424 1.63988 3.82924
  495 72.7791 7.67623 -2.35236
  496 72.7836 7.66588 2.37060
  497 -9.55223 3.35617 14.0247
  498 -9.59146 3.36524 -14.0404
  499 196.189 -5.28732 -10.3370
  500 196.507 -5.57983 10.1480
  501 127.364 1.56014 -19.4554
  502 127.188 1.45258 19.6331
  503 46.3997 2.67638 -0.749684
  504 46.4085 2.67872 0.750844
  505 0.423600 -23.9447 -13.9356
  506 229.368 -8.66137 19.9277
  507 2.92097 -16.1951 -12.9378
  508 63.9163 10.5444 6.02360
  509 63.9439 10.5215 -5.94470
  510 211.727 -23.9337 14.9289
  511 15.5175 -25.7392 24.0526
  512 253.078 -34.6101 -30.6602
  513 171.834 1.09935 9.64821
  514 171.770 1.17768 -9.67322
  515 0.377598 -20.5468 14.5004
  516 -3.35546 -1.00883 -2.59287
  517 -3.35732 -1.00854 2.59505
  518 19.4392 1.47076 -0.418530
  519 19.4558 1.47200 0.418983
  520 -0.589635 -13.3857 5.79344
  521 -0.534990 -13.3217 -5.82189
  522 141.504 1.91550 2.09640
  523 141.486 1.91911 -2.09786
  524 402.792 68.5439 26.5421
  525 15.9037 -11.6814 -3.70981
  526 12.3356 -15.2110 1.14318
  527 -5.31652 3.22435 -5.26954
  528 -5.28905 3.22197 5.27111
  529 -34.8383 0.554492 4.60316
  530 -34.8615 0.555103 -4.60792
  531 0.337727 -43.3734 8.69774
  532 -49.9964 0.495428 0.528171
  533 -50.0311 0.495382 -0.527849
  534 42.6026 -5.32909 -34.1929
  535 41.6267 -4.52764 35.6061
  536 38.9091 6.28410 -10.8798
  537 38.6149 6.47418 10.9805
  538 -9.42141 -2.02970 12.8680
  539 -9.43294 -2.03701 -12.8838
  540 37.9867 3.95835 1.37312
  541 37.9753 3.95600 -1.36930
  542 -21.8613 1.11654 1.74514
  543 -21.8896 1.11632 -1.74419
  544 45.1389 7.16476 1.69572
  545 45.1268 7.16445 -1.68238
  546 -0.937199 -3.01659 2.21286
  547 -0.940297 -3.01360 -2.21233
  548 16.0718 6.91660 8.99974
  549 15.9659 7.02092 -9.02684
  550 12.9925 1.52689 8.09859
  551 12.8034 1.50840 -8.19807
  552 174.575 1.58904 4.08357
  553 174.549 1.59770 -4.09043
  554 153.834 2.50935 6.43632
  555 153.804 2.53594 -6.44624
  556 -0.159240 -36.3330 -5.39841
  557 106.809 5.93652 -5.95277
  558 106.834 5.91168 5.96425
  559 107.277 3.04631 -2.11121
  560 107.288 3.03844 2.11170
  561 -16.3004 0.733452 -0.0657881
  562 -16.2744 0.733964 0.0660995
  563 178.643 10.1243 -5.88356
  564 242.265 -31.9004 -10.1082
  565 194.913 8.72975 23.3560
  566 1.51475 -31.8419 -10.4572
  567 -11.7631 3.53308 -6.80951
  568 -11.7325 3.52931 6.80948
  569 1.54749 -18.6239 13.8644
  570 -11.0079 0.209574 14.8597
  571 -11.0328 0.209335 -14.8772
  572 308.084 29.7358 -2.09452
  573 69.1112 3.76558 -0.491871
  574 69.1100 3.76067 0.494584
  575 475.411 39.7458 -39.9258
  576 -2.61871 -2.07068 17.4828
  577 -2.46896 -1.94881 -17.5002
  578 256.112 -24.0424 12.4551
  579 206.987 0.415303 -4.92055
  580 206.999 0.385403 4.88286
  581 93.1035 -1.13244 -42.9364
  582 94.2702 -1.39937 43.6742
  583 -5.42247 -5.22825 14.9234
  584 -5.42626 -5.25326 -14.9583
  585 48.3819 3.29246 21.9526
  586 48.7890 2.90582 -21.7350
  587 -40.9446 0.482000 -4.37284
  588 -40.9132 0.481256 4.36906
  589 302.132 23.3801 21.2581
  590 56.1401 5.73018 -0.317704
  591 56.1450 5.73466 0.324888
  592 66.4339 8.19450 -14.8216
  593 66.3574 8.29566 15.0129
  594 186.370 -0.0315166 -9.49979
  595 186.450 -0.135140 9.45697
  596 -0.885366 -19.1990 -13.4666
  597 204.096 -0.0897587 1.46096
  598 204.061 -0.0884300 -1.46272
  599 -30.9545 0.726044 -0.725201
  600 -30.9245 0.726298 0.725786
  601 -53.5774 -0.305000 0.0385118
  602 -53.6126 -0.305189 -0.0383829
  603 4.13546 -29.7810 -5.52302
  604 -1.94433 -12.3911 11.4511
  605 -2.05060 -11.7325 -11.5281
  606 -23.4612 1.41476 10.7602
  607 -23.4883 1.41721 -10.7715
  608 141.149 3.96060 8.06346
  609 141.109 4.00173 -8.06721
  610 103.483 1.86752 0.511916
  611 103.476 1.86976 -0.511971
  612 22.7528 -8.21384 13.3099
  613 23.5183 -7.72010 -13.1648
  614 -0.737162 -9.32161 4.88324
  615 -0.758932 -9.29070 -4.89897
  616 244.532 11.4391 100.292
  617 -12.0219 -0.381918 4.53872
  618 -12.0210 -0.383522 -4.54171
  619 4.07383 -18.1702 -10.6536
  620 101.087 4.57863 -2.94139
  621 101.098 4.56721 2.94415
  622 48.7152 10.5052 -4.04539
  623 48.6299 10.5673 4.12496
  624 0.497469 -66.0636 3.81735
  625 36.2570 10.4729 3.00138
  626 36.2218 10.4937 -2.97850
  627 -5.10611 4.38292 8.16768
  628 -5.13785 4.38898 -8.16803
  629 -0.291527 -32.1208 7.38001
  630 -53.0647 0.100147 -1.70015
  631 -53.0277 0.100097 1.70027
  632 65.8709 2.26377 -0.0134425
  633 65.8742 2.26688 0.0144291
  634 170.138 0.872063 2.67154
  635 170.114 0.876484 -2.67474
  636 148.916 -12.2701 76.5622
  637 119.645 3.52525 -4.71789
  638 119.666 3.50730 4.71917
  639 1.58810 -2.95925 16.3642
  640 2.00540 -1.87141 -16.3609
  641 192.106 -21.1292 -61.7257
  642 461.606 16.1744 -16.6320
  643 -48.4319 0.0618670 -3.05439
  644 -48.3960 0.0613973 3.05270
  645 10.0131 2.81494 -2.66539
  646 10.0332 2.81543 2.66770
  647 -0.929697 -20.2570 11.8509
  648 259.519 14.2232 -29.5007
  649 201.902 -0.195188 0.239938
  650 201.865 -0.194978 -0.240005
  651 -13.0258 -0.746234 -10.6109
  652 -13.0152 -0.743422 10.5999
  653 -0.0322157 -45.7936 -7.15485
  654 205.436 -0.237344 0.558646
  655 205.398 -0.237031 -0.558883
  656 17.4737 6.64914 5.98462
  657 17.4476 6.65533 -5.97781
  658 154.294 -14.0312 -40.2022
  659 157.217 -13.9920 40.6841
  660 228.315 -1.29346 3.27017
  661 228.413 -1.27508 -3.43432
  662 0.987250 -58.1117 5.77082
  663 -13.9667 0.606988 -1.02974
  664 -13.9411 0.607588 1.03035
  665 73.8227 1.01831 -72.0733
  666 68.6180 2.07641 0.458804
  667 68.6210 2.07856 -0.458471
  668 32.9208 2.94877 0.737766
  669 32.9079 2.94679 -0.735774
  670 39.4918 4.87649 -1.22849
  671 39.5032 4.87885 1.23444
  672 131.798 4.14916 -12.4583
  673 131.884 4.07499 12.4873
  674 34.0385 10.1071 1.62749
  675 33.9430 10.1777 -1.59810
  676 -25.0452 1.88052 -6.35361
  677 -25.0126 1.87779 6.35202
  678 -28.8065 1.97739 -7.14601
  679 -28.7732 1.97434 7.14233
  680 234.131 -3.45899 -1.13708
  681 0.0530328 -9.92361 -16.5500
  682 234.615 -3.62957 0.771153
  683 295.207 23.6265 0.811870
  684 -29.5080 0.133076 5.22072
  685 -29.5259 0.133180 -5.22644
  686 29.5683 8.34051 -0.395318
  687 29.3596 8.45352 0.432536
  688 -57.0822 0.0920503 -0.653811
  689 -57.0451 0.0921135 0.654117
  690 0.211672 -8.98439 16.6098
  691 -18.6126 0.218912 11.2459
  692 -18.6324 0.218680 -11.2584
  693 256.490 -22.6242 -13.4800
  694 38.9917 1.43773 -0.169723
  695 38.9806 1.43606 0.170225
  696 7.93797 4.01219 4.30028
  697 7.91512 4.01333 -4.29692
  698 134.124 -6.49422 -33.4417
  699 135.204 -6.74954 34.1366
  700 480.907 33.6552 36.6064
  701 8.76071 -47.3138 -14.0484
  702 -3.54779 -7.39798 16.0062
  703 -3.55610 -7.42455 -16.0376
  704 27.2130 6.65203 -3.53829
  705 27.2322 6.64981 3.54655
  706 211.147 -0.182745 -1.49779
  707 211.181 -0.184207 1.49488
  708 98.7703 2.23178 0.790847
  709 98.7641 2.23567 -0.790825
  710 7.44788 7.22057 12.3194
  711 7.40065 7.24330 -12.3274
  712 3.59078 2.15612 1.88537
  713 3.56954 2.15539 -1.88399
  714 -6.31161 1.23879 16.5545
  715 -6.35063 1.24157 -16.5812
  716 172.779 0.225748 1.10764
  717 172.753 0.227223 -1.10867
  718 148.936 1.77548 3.01939
  719 148.916 1.78121 -3.02197
  720 19.2809 -15.2067 16.2654
  721 19.8771 -16.1322 -15.6659
  722 -12.0756 2.45424 14.4437
  723 -12.1101 2.45861 -14.4617
  724 5.86636 -15.2304 8.67180
  725 -0.0604218 4.22704 15.4996
  726 -0.120958 4.24176 -15.5087
  727 -34.1468 1.03318 -4.26596
  728 -34.1134 1.03214 4.26546
  729 24.8138 8.55505 5.73942
  730 24.7818 8.56749 -5.72721
  731 230.367 -7.13590 -13.6751
  732 218.348 -19.3246 -4.22183
  733 -3.58676 -7.32206 11.2483
  734 -3.58117 -7.35468 -11.2322
  735 83.3405 -2.08828 -50.7212
  736 81.1059 -0.221255 51.2865
  737 50.3130 9.63759 -6.82003
  738 50.1958 9.73387 6.93221
  739 4.17885 -9.03390 13.6358
  740 -0.326650 -23.6920 -6.38653
  741 106.650 6.28785 -11.4190
  742 106.714 6.23987 11.4830
  743 0.292072 -46.7671 5.96422
  744 62.9830 9.23429 -2.34973
  745 62.9769 9.23184 2.38273
  746 221.493 -0.0482171 -3.73839
  747 221.471 -0.0778250 3.67687
  748 4.20032 -65.4086 0.549216
  749 98.1015 7.82650 8.47858
  750 98.0674 7.85834 -8.43862
  751 25.8700 9.13911 -4.01617
  752 25.9998 9.04176 4.01877
  753 -40.1729 0.268072 -3.67044
  754 -40.1454 0.267684 3.66667
  755 109.439 2.43740 -1.89465
  756 109.449 2.43205 1.89452
  757 66.6199 10.0296 -4.96075
  758 66.6084 10.0355 5.01919
  759 -0.378429 5.95524 12.1368
  760 -0.420303 5.97016 -12.1427
  761 219.032 -16.4944 1.58481
  762 -35.4234 0.853851 3.27016
  763 -35.4562 0.854128 -3.26983
  764 480.053 88.7379 -62.7799
  765 -14.3101 1.52616 3.52385
  766 -14.3374 1.52621 -3.52264
  767 186.917 0.883784 6.77501
  768 186.888 0.921983 -6.80555
  769 347.064 22.5821 0.591443
  770 212.613 -0.452852 -2.85893
  771 212.638 -0.458367 2.84879
  772 134.543 2.47207 3.74747
  773 134.525 2.48166 -3.74988
  774 201.675 -24.4240 56.2020
  775 86.4686 6.92739 -2.84010
  776 86.4801 6.91335 2.85191
  777 1.90968 -36.2913 7.86570
  778 231.731 -30.1685 17.2546
  779 140.429 0.864561 0.655312
  780 140.412 0.866186 -0.655590
  781 185.300 0.354633 0.351252
  782 185.269 0.354962 -0.351394
  783 -0.859867 -18.8620 -11.0690
  784 1.06597 -32.6161 11.1236
  785 81.6665 9.37406 11.7852
  786 81.6523 9.37799 -11.6725
  787 477.360 5.21331 3.95141
  788 142.009 1.60074 -15.6874
  789 142.124 1.51172 15.7233
  790 -30.2815 1.00798 8.10827
  791 -30.3128 1.01037 -8.11501
  792 5.78095 -27.1652 3.22730
  793 3.78107 -61.3044 -3.23146
  794 325.941 41.8307 -2.66012
  795 -0.293008 -23.6144 5.76199
  796 6.01516 4.40977 14.1329
  797 5.99833 4.41079 -14.1847
  798 42.2758 8.89218 2.11225
  799 42.2579 8.89801 -2.09425
  800 217.644 -9.85914 -2.71506
  801 217.965 -9.77166 1.88932
  802 258.500 30.5979 -94.7742
  803 -36.5277 0.501390 -1.57456
  804 -36.4955 0.501515 1.57522
  805 -16.5136 -0.0763718 4.28735
  806 -16.5158 -0.0770114 -4.29128
  807 15.1334 0.406136 5.22215
  808 14.8110 0.386755 -5.24265
  809 164.324 -0.560366 14.1586
  810 164.195 -0.405058 -14.1404
  811 82.8985 2.74712 -0.289424
  812 82.9006 2.74326 0.290101
  813 266.059 -5.73986 27.2732
  814 26.6928 4.82582 -3.13253
  815 26.7096 4.82623 3.13821
  816 25.2539 2.61611 -2.89110
  817 25.0247 2.74838 2.96538
  818 -0.190999 -18.9337 -15.0749
  819 380.078 53.1592 50.0561
  820 -55.5212 0.0843865 -1.68343
  821 -55.4830 0.0842855 1.68328
  822 -0.0827849 -57.1980 5.69988
  823 3.67732 -8.91131 -13.7627
  824 -8.16900 -0.509254 3.17144
  825 -8.16480 -0.510438 -3.17206
  826 301.462 15.1962 -20.4167
  827 76.9327 8.16349 -3.55403
  828 76.9411 8.15196 3.58201
  829 206.699 -2.72821 -7.10079
  830 206.864 -2.76969 6.96706
  831 -52.9290 0.428556 2.20918
  832 -52.9666 0.428890 -2.21001
  833 -0.364141 -0.378010 -0.304471
  834 -0.364866 -0.378699 0.305662
  835 0.190333 -58.5292 -5.60389
  836 0.275965 -62.0048 -5.22843
  837 -58.9530 0.598832 0.355637
  838 -58.9897 0.598875 -0.355505
  839 30.4457 -12.8586 -32.5993
  840 127.433 2.06395 -1.03609
  841 127.446 2.06112 1.03531
  842 -5.70175 1.28809 0.452488
  843 -5.72499 1.28748 -0.452344
  844 190.762 0.819970 -4.51934
  845 190.787 0.806604 4.50478
  846 -21.7391 0.146500 4.08572
  847 -21.7458 0.146540 -4.08985
  848 113.907 -1.57683 -76.9931
  849 198.042 -17.0976 15.0351
  850 155.842 1.12177 -1.35938
  851 155.863 1.11968 1.35813
  852 196.144 -18.6322 -16.9016
  853 60.0786 7.25423 -0.497751
  854 60.0749 7.24849 0.513410
  855 83.6617 6.06638 -2.08191
  856 83.6690 6.05558 2.08945
  857 230.502 -4.98907 10.4235
  858 13.2964 8.15492 10.4077
  859 13.2416 8.18706 -10.4201
  860 13.0441 1.32557 0.921319
  861 13.0257 1.32437 -0.920594
  862 107.963 1.91849 0.849560
  863 107.955 1.92146 -0.849781
  864 286.430 -29.0364 29.7605
  865 178.635 1.39438 -5.86856
  866 178.664 1.36936 5.84898
  867 1.23169 2.93523 3.41668
  868 1.20833 2.93545 -3.41443
  869 179.463 0.110281 1.63510
  870 179.435 0.112041 -1.63671
  871 -34.7903 0.334807 -0.929810
  872 -34.7597 0.335108 0.929805
  873 -0.164552 -18.0458 5.12473
  874 -0.214229 -18.3282 -5.16545
  875 212.535 -3.35386 24.4541
  876 -13.6815 3.29395 12.3132
  877 -13.7174 3.30179 -12.3243
  878 -0.0766206 -29.8005 -5.68620
  879 83.7221 3.65882 -1.02302
  880 83.7251 3.65366 1.02454
  881 155.135 -7.93783 -25.4090
  882 156.387 -8.79013 25.6660
  883 -6.93281 -2.52199 -16.0946
  884 -6.90590 -2.52422 16.0663
  885 7.62904 7.37854 11.3486
  886 7.58440 7.39800 -11.3513
  887 0.760376 -69.0071 4.12538
  888 1.49256 5.63159 14.2608
  889 1.44188 5.64845 -14.2707
  890 143.095 -2.47691 -22.5465
  891 142.798 -2.61300 22.7291
  892 247.745 12.6735 30.4036
  893 55.8866 6.79151 -0.169972
  894 55.8922 6.79638 0.180881
  895 183.641 1.46673 -4.41426
  896 183.666 1.45582 4.40417
  897 -7.31843 -3.24715 14.0658
  898 -7.32988 -3.25814 -14.0880
  899 0.617979 -71.5807 -2.98259
  900 -11.2456 -0.827003 13.8336
  901 -11.2637 -0.828145 -13.8504
  902 5.94937 6.77159 -8.99880
  903 5.98453 6.75950 9.00019
  904 -0.567408 -4.49860 2.49945
  905 -0.573654 -4.49373 -2.50302
  906 14.5398 7.62342 -8.22327
  907 14.5770 7.60849 8.22872
  908 3.00283 -6.04049 15.2231
  909 2.58394 -5.62662 -15.9315
  910 177.069 -4.81296 14.3514
  911 176.633 -4.55204 -14.4587
  912 -59.9994 0.210196 -0.521804
  913 -59.9621 0.210245 0.522007
  914 -5.00009 -0.459040 2.37475
  915 -4.99521 -0.459740 -2.37379
  916 0.247100 -42.4370 -5.20987
  917 -5.44674 -2.35569 -6.79189
  918 -5.44585 -2.35040 6.79345
  919 -23.4402 1.93739 10.4194
  920 -23.4714 1.94145 -10.4294
  921 53.9698 10.7744 -2.23311
  922 53.9379 10.7993 2.28313
  923 231.870 18.7695 -5.30965
  924 -3.61141 5.34983 11.0383
  925 -3.64911 5.36092 -11.0427
  926 85.8958 5.26116 -23.2780
  927 85.9228 5.33911 23.5724
  928 -11.4270 3.78881 8.91617
  929 -11.4604 3.79548 -8.91919
  930 286.967 -16.3537 -7.86277
  931 166.567 6.66091 13.0890
  932 205.253 -2.93443 -22.1229
  933 155.001 2.54111 -9.59581
  934 155.057 2.48241 9.58558
  935 -17.7415 2.36040 -4.52270
  936 -17.7121 2.35881 4.52344
  937 -37.9261 0.708410 5.26826
  938 -37.9599 0.709841 -5.27147
  939 -2.26549 -7.27333 -7.89135
  940 -2.25085 -7.28135 7.90706
  941 53.6059 4.01399 -0.167598
  942 53.6119 4.01766 0.171056
  943 -17.8179 1.76220 12.8295
  944 -17.8464 1.76446 -12.8445
  945 187.377 0.187945 2.17459
  946 187.347 0.190046 -2.17689
  947 -1.45259 -16.0716 12.0445
  948 5.76701 6.27573 -7.78705
  949 5.79831 6.26727 7.78957
  950 8.21939 4.49309 5.25957
  951 8.19484 4.49576 -5.25600
  952 30.5622 3.36395 -1.56672
  953 30.5758 3.36566 1.56932
  954 353.034 40.3560 -4.79578
  955 -1.35785 -0.381607 -0.927597
  956 -1.36077 -0.381650 0.929325
  957 11.3605 2.81447 -9.96190
  958 11.5561 2.70995 9.93554
  959 124.437 5.50590 -9.87382
  960 124.493 5.45297 9.89370
  961 14.7174 5.60872 -5.11012
  962 14.7413 5.60524 5.11544
  963 33.5552 -14.2401 44.1814
  964 237.437 -1.58434 -1.73115
  965 236.997 -1.52281 1.49138
  966 40.6014 -7.55679 38.0522
  967 42.3548 2.33654 0.0710877
  968 42.3446 2.33468 -0.0702257
  969 112.751 -5.87203 -66.4585
  970 85.0367 2.01066 0.485136
  971 85.0352 2.01284 -0.484976
  972 10.4343 -12.6188 3.62582
  973 11.5336 -10.7938 -2.75414
  974 210.961 -0.123085 0.754458
  975 210.921 -0.122742 -0.754783
  976 -17.4019 0.0289717 10.1691
  977 -17.4163 0.0283800 -10.1798
  978 377.304 46.7363 18.7412
  979 -1.72940 -12.2402 -16.0115
  980 1.66594 -63.1253 5.50580
  981 -0.361256 -19.3366 14.8167
  982 217.873 -0.0105351 -2.91807
  983 217.886 -0.0186416 2.90145
  984 -2.88662 -5.26725 6.80645
  985 -2.89373 -5.26617 -6.79861
  986 267.896 27.2747 -18.0832
  987 484.872 4.67176 -2.66219
  988 -0.703578 -1.03824 -1.00956
  989 -0.702880 -1.04043 1.01101
  990 125.059 1.97443 -2.08296
  991 125.072 1.97000 2.08203
  992 -1.78749 -11.7880 16.1079
  993 174.884 1.20820 8.64333
  994 174.841 1.26545 -8.67011
  995 229.444 -15.5584 -10.8205
  996 -8.07320 -1.71571 7.70264
  997 -8.07458 -1.72158 -7.70533
  998 3.49214 -15.9103 12.0013
  999 -0.410151 -28.9080 11.6213
  1000 -0.0313641 -29.5560 5.67330
  1001 230.808 15.6928 -1.25254
  1002 266.799 29.2181 11.0283
  1003 192.005 -22.8228 -30.4858
  1004 2.60205 -28.9105 9.78025
  1005 3.33900 -41.8899 2.94768
  1006 52.0002 1.78418 0.233425
  1007 51.9925 1.78235 -0.233245
  1008 -2.14233 -2.43924 -3.22568
  1009 -2.14076 -2.44019 3.22855
  1010 1.69530 -23.7363 -12.7429
  1011 155.638 0.627713 -0.498318
  1012 155.659 0.626556 0.497931
  1013 30.0678 -1.59653 -13.2990
  1014 28.7509 -1.52002 13.1727
  1015 -3.55076 4.67638 14.2845
  1016 -3.59841 4.69106 -14.2990
  1017 -19.2422 2.86767 -8.93594
  1018 -19.2086 2.86256 8.93130
  1019 117.029 1.95440 -23.0039
  1020 117.124 2.03988 23.2738
  1021 83.7230 7.56772 -15.5980
  1022 83.7319 7.55975 15.7702
  1023 91.3051 7.19907 -4.92058
  1024 91.3219 7.17852 4.93829
  1025 239.436 -7.51686 -29.2601
  1026 -6.90489 2.83179 15.4944
  1027 -6.94826 2.83885 -15.5179
  1028 169.959 0.205446 11.7445
  1029 169.868 0.323577 -11.7633
  1030 -1.31259 -9.35902 16.9121
  1031 -13.8429 -0.484306 7.46066
  1032 -13.8478 -0.486320 -7.46732
  1033 154.622 1.87469 -11.6347
  1034 154.700 1.79249 11.6292
  1035 187.217 4.15009 -20.8954
  1036 -0.282217 -28.7969 -12.2056
  1037 -2.37568 -11.3703 14.3135
  1038 -2.47157 -11.4949 -14.1884
  1039 108.198 6.87237 -7.93578
  1040 108.237 6.83506 7.96154
  1041 137.690 3.03730 4.66824
  1042 137.669 3.05121 -4.67176
  1043 228.976 -15.1928 9.48340
  1044 9.65113 1.45375 -0.260488
  1045 9.67030 1.45469 0.260696
  1046 194.317 -25.5573 32.5625
  1047 -2.79049 1.04516 1.18784
  1048 -2.81315 1.04430 -1.18712
  1049 40.6806 10.7787 1.35889
  1050 40.6344 10.8097 -1.32581
  1051 14.8208 8.45803 8.99196
  1052 14.7780 8.47785 -8.98834
  1053 2.03929 -35.8633 -8.16956
  1054 54.8710 2.58514 -0.304696
  1055 54.8770 2.58845 0.306724
  1056 161.163 5.55627 5.36139
  1057 156.868 1.64375 4.41498
  1058 156.845 1.65579 -4.42100
  1059 -1.15681 -9.68744 -16.9373
  1060 236.402 -2.96915 -5.41219
  1061 -0.417693 -1.17990 17.0080
  1062 -0.246022 -1.03114 -16.9409
  1063 216.821 -0.300035 -1.60511
  1064 216.854 -0.301855 1.60075
  1065 230.680 -0.678690 -2.80371
  1066 230.585 -0.710680 2.71509
  1067 -0.176988 -44.8258 4.28862
  1068 133.688 3.94479 -6.21273
  1069 133.713 3.92251 6.21004
  1070 163.575 1.91066 5.19567
  1071 163.549 1.92578 -5.20461
  1072 3.05554 3.55684 15.5291
  1073 3.04037 3.56135 -15.5359
  1074 356.629 24.5642 2.99947
  1075 -4.83327 -2.21716 17.2446
  1076 -4.89528 -2.17413 -17.2819
  1077 49.2406 10.2054 0.458886
  1078 49.2227 10.2140 -0.431911
  1079 -30.0617 0.690229 -1.70735
  1080 -30.0315 0.690520 1.70798
  1081 81.7396 4.23046 -26.9130
  1082 81.6518 4.46874 27.2811
  1083 22.7443 9.53534 7.22993
  1084 22.6968 9.56036 -7.22054
  1085 55.1398 5.75433 -19.3121
  1086 54.8628 6.04188 19.5152
  1087 -1.54691 -15.0812 -11.7272
  1088 196.618 2.29171 26.9951
  1089 139.311 -2.90047 86.9098
  1090 21.3972 9.68737 7.48016
  1091 21.3392 9.72256 -7.47562
  1092 83.3705 5.03024 -1.50233
  1093 83.3761 5.02114 1.50704
  1094 308.837 -1.96934 11.2836
  1095 18.8348 4.34401 5.28767
  1096 18.5949 4.41199 -5.34965
  1097 -9.21659 -2.06199 10.2908
  1098 -9.22173 -2.07063 -10.2992
  1099 -0.303562 -6.72490 2.73581
  1100 -0.315149 -6.72031 -2.74651
  1101 202.570 0.108575 7.03506
  1102 202.528 0.191505 -7.10429
  1103 0.152938 -14.8795 15.9134
  1104 -14.1810 0.804832 -13.9177
  1105 -14.1567 0.805085 13.9016
  1106 0.0765904 -54.5574 -5.55281
  1107 -3.42241 -4.76758 17.2129
  1108 -3.41508 -4.67471 -17.2294
  1109 194.244 0.484494 -2.96385
  1110 194.273 0.479730 2.95832
  1111 199.458 -1.20053 8.35245
  1112 199.346 -1.06835 -8.42590
  1113 33.4885 7.00370 -5.46968
  1114 33.2354 7.16308 5.54978
  1115 -0.494402 -28.1014 -9.82086
  1116 263.253 -27.6993 -49.8487
  1117 341.963 40.5398 -2.17269
  1118 3.32147 -44.2957 -1.72326
  1119 11.3506 6.64237 -11.7368
  1120 11.4155 6.60151 11.6946
  1121 31.1888 10.4485 3.99656
  1122 31.1220 10.4937 -3.97699
  1123 67.3374 4.58305 0.241711
  1124 67.3383 4.58919 -0.237199
  1125 -4.50214 -6.41320 13.3534
  1126 -4.49457 -6.47085 -13.3711
  1127 -13.3781 3.92425 11.4069
  1128 -13.4139 3.93236 -11.4148
  1129 -5.23817 4.89081 13.2490
  1130 -5.28066 4.90339 -13.2600
  1131 189.508 -9.61547 -13.9168
  1132 190.771 -9.72281 13.7657
  1133 0.137663 -32.6139 -11.6698
  1134 99.6864 -0.826462 -34.1965
  1135 99.8796 -0.503503 34.8235
  1136 31.0057 9.77601 -4.22058
  1137 31.0376 9.75912 4.23742
  1138 102.260 37.8799 97.4666
  1139 23.9423 7.95374 5.46722
  1140 23.9150 7.96219 -5.45697
  1141 260.031 -30.2168 -10.2559
  1142 96.8620 3.25751 1.29623
  1143 96.8549 3.26382 -1.29535
  1144 -4.45831 -3.98653 8.10625
  1145 -4.46017 -3.99501 -8.10210
  1146 -5.34432 -4.81127 10.5244
  1147 -5.34272 -4.82891 -10.5235
  1148 169.082 -18.3920 -48.8103
  1149 172.731 -20.1563 49.1945
  1150 28.8486 1.57746 0.195025
  1151 28.8626 1.57901 -0.194121
  1152 105.238 5.06496 -18.4538
  1153 105.266 4.99036 18.6601
  1154 233.227 -32.8645 36.7726
  1155 209.386 -0.360838 0.445253
  1156 209.346 -0.360571 -0.445259
  1157 -19.3811 2.96255 10.1603
  1158 -19.4152 2.96808 -10.1672
  1159 -32.9548 1.07658 -5.40497
  1160 -32.9212 1.07518 5.40378
  1161 51.6970 -3.29020 57.2397
  1162 155.656 10.8691 -10.8434
  1163 96.2523 7.36335 -8.71642
  1164 96.2916 7.33190 8.77088
  1165 305.413 -13.5788 53.3336
  1166 97.7844 6.97592 -13.2596
  1167 97.8353 6.92976 13.3548
  1168 23.1991 3.55734 -2.18803
  1169 23.2154 3.55870 2.19107
  1170 8.22728 -34.5341 4.32881
  1171 8.33072 -33.7989 -6.55540
  1172 133.079 -10.3580 -49.2015
  1173 135.000 -9.74173 49.2081
  1174 51.1911 8.05649 -13.0600
  1175 50.9827 8.24138 13.2253
  1176 236.433 -16.4919 -19.3909
  1177 -8.93024 -0.863631 15.6731
  1178 -8.95601 -0.862217 -15.6937
  1179 -0.298315 -13.3243 -16.3329
  1180 58.8273 -0.00940017 -35.6195
  1181 58.9821 0.204215 36.2920
  1182 -0.154135 -11.9589 3.05985
  1183 -0.131333 -11.9871 -3.09656
  1184 -57.8741 0.498643 -1.57249
  1185 -57.8351 0.498423 1.57213
  1186 189.708 0.166694 -0.787857
  1187 189.739 0.165901 0.786969
  1188 115.417 4.82712 -5.10709
  1189 115.442 4.80463 5.11180
  1190 -4.63085 -0.272940 17.3153
  1191 -4.64428 -0.206012 -17.3458
  1192 0.0285112 -48.5007 -4.79274
  1193 -48.9494 0.124966 2.48465
  1194 -48.9841 0.125274 -2.48655
  1195 36.1549 -2.92203 -24.3911
  1196 35.8718 -2.69209 25.2329
  1197 220.001 -13.5383 0.357949
  1198 61.2356 2.72704 -31.9301
  1199 61.2927 2.93141 32.2954
  1200 -26.9471 0.140961 3.72536
  1201 -26.9586 0.140896 -3.72939
  1202 0.676784 -43.1817 -8.40354
  1203 -9.53040 1.90919 -2.26914
  1204 -9.50529 1.90951 2.27037
  1205 31.7747 8.37961 4.25424
  1206 31.7495 8.38769 -4.24026
  1207 123.278 1.20474 -0.708468
  1208 123.290 1.20278 0.708344
  1209 167.351 1.20026 3.36421
  1210 167.327 1.20772 -3.36918
  1211 8.61216 -1.99215 10.2257
  1212 8.48322 -2.14121 -10.3801
  1213 1.42318 -25.0461 12.6761
  1214 299.186 39.4227 14.7619
  1215 -9.25093 -0.740866 5.83714
  1216 -9.25066 -0.743773 -5.83944
  1217 1.11280 -23.4445 -13.1845
  1218 -0.902000 -14.0932 8.56243
  1219 -0.853913 -13.9763 -8.87480
  1220 237.615 -2.55172 4.82100
  1221 0.218494 -55.6124 4.92547
  1222 1.55008 -17.3496 -14.6924
  1223 26.5906 1.29974 0.354828
  1224 26.5760 1.29839 -0.354668
  1225 -2.45580 -10.2877 15.8051
  1226 -27.3762 1.59411 -4.65916
  1227 -27.3444 1.59294 4.65916
  1228 493.798 8.83383 13.6224
  1229 -14.1326 1.52685 14.1298
  1230 -14.1616 1.52812 -14.1470
  1231 112.665 4.82689 -16.7033
  1232 112.779 4.73050 16.8113
  1233 7.01843 -12.3833 -7.11202
  1234 107.425 6.08782 -6.45929
  1235 107.455 6.05771 6.47601
  1236 4.27138 -35.2926 -2.87721
  1237 -2.46128 -10.3025 -15.7705
  1238 -19.8069 0.926138 2.87189
  1239 -19.8351 0.925893 -2.87094
  1240 -8.64233 0.471505 -16.0985
  1241 -8.61131 0.471831 16.0794
  1242 228.809 18.0743 21.8475
  1243 130.756 1.80999 -17.8954
  1244 130.925 1.75415 17.9410
  1245 -60.9234 0.170359 -0.618332
  1246 -60.8849 0.170355 0.618554
  1247 118.234 3.44390 -3.49280
  1248 118.249 3.43413 3.49239
  1249 -62.8435 -1.02012 -0.158423
  1250 -62.8808 -1.02039 0.158496
  1251 176.653 -12.6987 -20.4684
  1252 -28.4106 0.467714 7.96236
  1253 -28.4344 0.468381 -7.97100
  1254 178.505 -13.4021 20.2803
  1255 120.092 4.96822 -7.23120
  1256 120.124 4.93584 7.23781
  1257 13.7329 -38.8963 -24.2690
  1258 0.249941 -39.3807 -10.0354
  1259 -0.887437 -16.6271 14.8349
  1260 385.555 57.2909 -49.3569
  1261 -0.100852 -36.7792 9.71633
  1262 399.902 37.5476 -22.1148
  1263 -0.185234 -68.0174 -4.69976
  1264 17.4511 2.27580 -0.920939
  1265 17.4683 2.27708 0.922577
  1266 -0.173288 -15.3703 3.20863
  1267 -0.140950 -15.4504 -3.19848
  1268 66.1271 2.21750 -0.137292
  1269 66.1306 2.21994 0.137786
  1270 239.310 -18.8847 18.5200
  1271 3.22212 2.08870 -2.63229
  1272 3.24383 2.08928 2.63390
  1273 1.38750 -75.8162 2.63469
  1274 0.881336 -80.5413 -2.59039
  1275 220.105 -28.3749 -21.5572
  1276 -0.625723 -20.1975 9.49693
  1277 227.593 13.9625 -27.0751
  1278 -0.690340 -26.6207 9.35260
  1279 0.448791 -73.5535 -3.75371
  1280 110.054 3.73209 -3.70693
  1281 110.070 3.71636 3.70945
  1282 -0.0758720 -39.4864 4.22567
  1283 -0.108796 -32.9925 -9.56242
  1284 533.293 88.5047 77.6255
  1285 210.402 0.237321 0.349926
  1286 210.362 0.237273 -0.349830
  1287 5.03501 -0.0973801 14.2497
  1288 4.86844 0.126688 -14.3053
  1289 -3.73085 2.84060 16.4050
  1290 -3.80052 2.84905 -16.4331
  1291 221.072 -4.27050 -15.7579
  1292 205.869 -8.50271 -7.71732
  1293 205.629 -9.71059 7.75563
  1294 29.2294 3.99554 2.28371
  1295 29.2145 3.99386 -2.27934
  1296 -34.5763 0.938368 -6.33783
  1297 -34.5435 0.936537 6.33310
  1298 229.760 -33.1424 -31.0377
  1299 -1.72914 -4.15553 4.22394
  1300 -1.73548 -4.15177 -4.22160
  1301 241.719 -11.1477 27.5862
  1302 -2.59783 -9.70132 11.5239
  1303 -2.56988 -9.73604 -11.4706
  1304 -22.9837 1.59648 3.40365
  1305 -23.0134 1.59690 -3.40281
  1306 35.4405 3.04598 -11.9555
  1307 35.0762 3.26101 11.9620
  1308 55.9583 2.10729 0.441909
  1309 55.9520 2.10482 -0.441188
  1310 -24.1341 2.37672 9.96340
  1311 -24.1665 2.38091 -9.97132
  1312 197.064 0.706443 0.544283
  1313 197.029 0.706357 -0.544187
  1314 106.414 -2.81316 65.8734
  1315 160.093 0.776056 1.18305
  1316 160.070 0.777431 -1.18375
  1317 104.595 2.11489 -25.9512
  1318 104.638 1.98497 26.2055
  1319 0.977982 -43.9155 -6.38552
  1320 39.8399 9.43624 -4.31533
  1321 39.6753 9.55571 4.39916
  1322 -0.383530 -0.363553 -0.514164
  1323 -0.385441 -0.363718 0.515653
  1324 135.982 4.66559 9.55336
  1325 135.932 4.72030 -9.54936
  1326 66.5363 6.03918 0.850716
  1327 66.5366 6.04656 -0.841782
  1328 98.9112 6.14315 -4.21480
  1329 98.9298 6.12354 4.22527
  1330 130.709 1.30321 -1.18077
  1331 130.723 1.30120 1.18040
  1332 -4.18356 -2.03950 -4.77467
  1333 -4.18337 -2.03753 4.77762
  1334 -41.3210 0.142971 2.02543
  1335 -41.3548 0.142963 -2.02495
  1336 -7.21035 -3.34690 -11.7900
  1337 -7.20655 -3.33127 11.7798
  1338 -24.4099 0.564632 0.872990
  1339 -24.4380 0.564156 -0.872659
  1340 -63.4201 0.603993 0.356818
  1341 -63.4580 0.604060 -0.356682
  1342 247.754 -33.2788 42.8381
  1343 174.593 -1.27939 -21.8134
</Section>

newXOutput 30

<Section columns = "stress_xx | stress_yy | stress_xy">
  1 224.421 -0.241745 0.214133
  2 224.467 -0.241884 -0.214238
  3 -70.8601 0.369222 -0.954874
  4 0.114497 0.0321242 0.201258
  5 413.074 106.884 129.244
  6 466.665 121.878 -123.557
  7 0.114071 0.0317215 -0.200693
  8 -70.8188 0.369192 0.954686
  9 223.717 -0.223012 -0.736193
  10 223.875 -0.603781 -1.20803
  11 226.001 -0.588490 -0.307262
  12 226.186 -0.540714 -1.39129
  13 226.661 -0.519797 -0.400148
  14 231.451 -0.517388 -0.568118
  15 233.046 -0.790424 -1.86267
  16 234.702 -0.330715 -1.25666
  17 235.681 0.238419 -2.42865
  18 245.364 -1.23691 -2.08276
  19 249.410 -0.920544 -2.70483
  20 253.798 -1.46345 -0.962436
  21 255.758 -1.99964 -0.492605
  22 253.352 -2.35909 3.59733
  23 243.872 -2.69305 7.42140
  24 222.152 -3.14855 15.6461
  25 187.633 1.56939 18.1321
  26 158.750 1.81499 17.0374
  27 119.044 4.26260 10.3444
  28 127.074 4.15480 0.771336
  29 104.523 12.5833 -6.67220
  30 149.814 5.66381 -18.3134
  31 175.270 1.25822 -15.0432
  32 217.339 -0.757292 -13.0108
  33 240.681 -3.26733 -8.85221
  34 252.830 -2.75473 -3.59179
  35 255.150 -1.93063 0.498159
  36 253.370 -1.44228 0.885400
  37 249.212 -0.927823 2.61425
  38 245.273 -1.25522 2.02918
  39 235.671 0.227617 2.40143
  40 234.721 -0.334801 1.24585
  41 233.081 -0.792870 1.85825
  42 231.492 -0.518642 0.565900
  43 226.704 -0.520495 0.399066
  44 226.231 -0.541344 1.39132
  45 226.047 -0.588922 0.307160
  46 223.920 -0.604097 1.20846
  47 223.763 -0.223138 0.736457
  48 211.218 0.742735 -0.266609
  49 195.135 0.517512 -0.615665
  50 175.111 -0.186698 -0.651413
  51 154.433 1.08702 -0.541893
  52 136.404 0.993054 -0.435867
  53 117.184 1.62713 -0.519641
  54 98.2839 2.59591 -0.335810
  55 78.7344 2.36746 -0.661098
  56 62.5691 1.77793 -0.910296
  57 41.4194 1.25886 -0.958763
  58 19.9896 1.61123 -0.726219
  59 2.13496 1.31901 -0.701435
  60 -20.0930 0.816855 -0.648975
  61 -36.6152 -0.0416327 -1.52382
  62 -52.6050 -1.01132 -0.703676
  63 -68.7831 0.172127 0.446303
  64 -72.2311 1.24490 -0.208256
  65 -72.4194 0.564991 0.170752
  66 -69.9848 0.300733 -0.128102
  67 -70.5902 0.810334 -0.906457
  68 -69.3940 0.976236 -0.148318
  69 -65.5663 0.315028 -1.37522
  70 -66.1387 0.599336 -1.46971
  71 -64.3779 0.572054 -0.856439
  72 -59.5365 0.368213 -1.26280
  73 -57.1609 0.636829 -2.03976
  74 -53.6090 0.704871 -1.69469
  75 -47.3552 0.362457 -2.86391
  76 -43.8226 0.111085 -2.39595
  77 -37.5362 0.160004 -2.74698
  78 -32.1006 0.111702 -3.02036
  79 -27.3991 0.0342796 -2.38299
  80 -20.9179 0.135575 -2.39643
  81 -15.3457 -0.0677832 -2.55501
  82 -9.95844 -0.284032 -2.23012
  83 -5.70249 -0.247794 -1.70073
  84 -2.78415 -0.428003 -1.41500
  85 -0.435874 -0.246925 -0.497162
  86 0.0528664 -0.270342 -0.171749
  87 -0.146945 -0.127201 -0.0238976
  88 -0.385973 -0.337873 -0.434276
  89 -0.374083 -2.34996 -1.22651
  90 -0.322606 -5.30463 -1.76043
  91 -0.169510 -9.11071 -2.57491
  92 -0.0904980 -14.0185 -2.22268
  93 -0.0833387 -18.5596 -2.79971
  94 -0.347807 -24.1406 -3.17074
  95 -0.141634 -31.0055 -3.21449
  96 0.0667637 -37.9239 -3.08617
  97 0.151455 -45.3533 -3.05116
  98 0.228443 -53.0104 -3.01146
  99 0.0285459 -58.7292 -4.08584
  100 0.407969 -66.7730 -3.66503
  101 0.490854 -76.2244 -2.97096
  102 0.00856197 -80.6147 -3.95236
  103 0.696298 -87.7399 -3.69921
  104 1.67087 -97.2615 -1.96211
  105 3.24362 -100.281 -3.10733
  106 2.17907 -93.2655 1.60702
  107 2.97473 -72.8816 8.22883
  108 17.1806 -47.0413 25.9714
  109 55.2813 63.2855 94.4205
  110 639.067 33.0539 62.0640
  111 547.382 10.3277 22.7824
  112 529.740 4.03709 5.06148
  113 526.108 1.61781 -0.851761
  114 529.533 6.06495 -12.0431
  115 545.463 18.5119 -26.7610
  116 620.707 64.7840 -78.5839
  117 130.925 48.6224 -115.586
  118 28.3141 -46.2951 -32.2652
  119 8.26044 -79.6751 -11.5672
  120 2.24983 -88.5435 -1.80511
  121 2.59438 -96.6544 1.90085
  122 0.755299 -93.5496 1.56509
  123 0.291818 -85.5578 3.19901
  124 0.304262 -80.3264 2.54833
  125 0.419808 -72.1329 4.17322
  126 -0.0206650 -67.3374 4.01844
  127 0.166740 -60.7468 2.90245
  128 0.315846 -52.3620 3.65201
  129 0.0572038 -46.3912 2.89750
  130 0.0946056 -37.9875 3.65637
  131 -0.379188 -31.3746 3.13706
  132 -0.270466 -24.1629 3.07386
  133 -0.0610708 -18.4606 2.80770
  134 -0.116046 -13.9392 2.22795
  135 -0.166057 -9.08422 2.55037
  136 -0.318130 -5.30081 1.75177
  137 -0.372141 -2.35341 1.22562
  138 -0.385532 -0.341407 0.435088
  139 -0.146936 -0.128752 0.0249223
  140 0.0510059 -0.270618 0.172712
  141 -0.439469 -0.246840 0.498441
  142 -2.78991 -0.427690 1.41642
  143 -5.71048 -0.247103 1.70132
  144 -9.96547 -0.283177 2.22951
  145 -15.3491 -0.0670764 2.55287
  146 -20.9167 0.135712 2.39388
  147 -27.3916 0.0345560 2.38034
  148 -32.0874 0.111984 3.01742
  149 -37.5157 0.159905 2.74399
  150 -43.7957 0.110939 2.39326
  151 -47.3242 0.362179 2.86142
  152 -53.5728 0.704473 1.69290
  153 -57.1221 0.636418 2.03844
  154 -59.4956 0.367959 1.26213
  155 -64.3353 0.571803 0.856135
  156 -66.0957 0.599113 1.46942
  157 -65.5238 0.314929 1.37509
  158 -69.3511 0.976001 0.148547
  159 -70.5474 0.810173 0.906474
  160 -69.9427 0.300707 0.128270
  161 -72.3771 0.564905 -0.170562
  162 -72.1892 1.24467 0.208332
  163 -68.7422 0.172128 -0.446131
  164 -52.5681 -1.01092 0.703590
  165 -36.5823 -0.0412413 1.52356
  166 -20.0644 0.817338 0.648966
  167 2.15754 1.31974 0.701392
  168 20.0073 1.61232 0.726166
  169 41.4311 1.26049 0.958670
  170 62.5747 1.77977 0.910160
  171 78.7354 2.36940 0.660988
  172 98.2794 2.59781 0.335663
  173 117.174 1.62902 0.519367
  174 136.389 0.994725 0.435543
  175 154.412 1.08810 0.541451
  176 175.084 -0.185793 0.650910
  177 195.101 0.517655 0.615303
  178 211.178 0.742569 0.266449
  179 57.0100 10.5120 -1.27521
  180 56.9877 10.5233 1.31555
  181 -1.58200 1.43208 17.2823
  182 -1.64139 1.42771 -17.2842
  183 131.815 -1.93607 -28.4688
  184 131.757 -2.20471 28.7924
  185 25.5747 5.36445 0.187451
  186 25.2693 5.48664 -0.165595
  187 17.7958 3.74135 -3.12409
  188 17.8158 3.74168 3.12749
  189 125.414 3.02384 -3.96835
  190 125.432 3.01066 3.96832
  191 -3.36387 5.20222 9.73921
  192 -3.40004 5.21145 -9.74131
  193 145.823 4.29028 -10.6349
  194 145.891 4.22452 10.6419
  195 -5.80703 -5.08456 13.3266
  196 -5.80387 -5.11254 -13.3407
  197 1.11472 -12.4817 -16.3349
  198 44.3106 0.907935 -25.3515
  199 1.40990 -13.3238 15.9784
  200 43.5932 1.28975 25.8120
  201 207.236 -29.1809 -41.5738
  202 214.733 -30.3452 39.7735
  203 73.3026 3.08136 -0.338598
  204 73.3012 3.07731 0.340261
  205 -13.6389 1.09523 -2.02660
  206 -13.6115 1.09577 2.02735
  207 -17.1763 2.50600 13.1878
  208 -17.2105 2.51145 -13.2026
  209 73.6309 7.42489 -1.40948
  210 73.6336 7.41670 1.42205
  211 21.8398 9.37671 7.34464
  212 21.7583 9.43471 -7.35305
  213 -22.5229 2.41918 -5.70984
  214 -22.4898 2.41703 5.70938
  215 168.001 0.730224 1.96610
  216 167.977 0.733314 -1.96799
  217 5.10572 -23.6362 7.65101
  218 5.55660 -21.5392 -6.93167
  219 -1.64463 -14.3079 15.1099
  220 -1.67344 -14.8328 -14.6229
  221 67.8478 10.0002 -10.5636
  222 67.7992 10.0436 10.6981
  223 -15.2355 -0.120569 13.0847
  224 -15.2550 -0.121674 -13.0996
  225 179.752 1.49585 -5.96499
  226 179.780 1.47679 5.95153
  227 192.983 -2.43675 -11.6518
  228 193.124 -2.64455 11.5798
  229 306.756 24.1900 -0.457332
  230 281.431 30.6993 20.0550
  231 279.034 -4.11627 -28.2276
  232 32.6972 7.93958 4.10495
  233 32.6750 7.94513 -4.09317
  234 1.51162 6.20930 13.5494
  235 1.46237 6.22797 -13.5581
  236 215.503 -13.0741 -7.13032
  237 214.223 -13.2443 7.80567
  238 118.565 1.65501 -1.38940
  239 118.576 1.65109 1.38900
  240 -27.3839 1.91608 8.88546
  241 -27.4185 1.91989 -8.89185
  242 -3.66961 -3.61554 -5.93541
  243 -3.66691 -3.61399 5.93988
  244 -30.9527 0.873626 2.97365
  245 -30.9857 0.873693 -2.97302
  246 96.8117 7.84640 -6.67054
  247 96.8360 7.82018 6.69984
  248 123.563 4.13612 -16.0089
  249 123.674 4.05633 16.0822
  250 28.4991 2.36342 -0.449705
  251 28.5144 2.36492 0.450956
  252 70.6620 -2.09239 -56.8500
  253 83.9497 0.176569 62.3214
  254 9.03911 4.01782 13.1261
  255 8.99867 4.11581 -13.1688
  256 294.733 -25.2096 -2.86380
  257 24.2457 9.74733 6.35591
  258 24.2054 9.76729 -6.34427
  259 69.1480 7.10099 -20.6280
  260 69.0302 7.29296 20.8898
  261 328.158 44.5979 -6.60189
  262 194.947 0.512701 8.07666
  263 194.902 0.579134 -8.11895
  264 -1.78929 -10.9482 -9.36282
  265 -1.74170 -10.9938 9.40124
  266 -0.418594 -26.2051 -13.0367
  267 0.786498 -30.9851 -12.3016
  268 0.399099 -30.8360 12.7681
  269 -5.08068 -4.44191 17.2990
  270 -5.09938 -4.43161 -17.3595
  271 9.98835 -26.0465 -2.94749
  272 10.7278 -24.1860 4.61339
  273 -11.2938 -0.972251 8.23098
  274 -11.2978 -0.976258 -8.23718
  275 137.714 4.42113 -6.51785
  276 137.747 4.39202 6.51655
  277 242.306 -25.7695 -0.130309
  278 52.0743 5.05400 -0.700003
  279 52.0820 5.05743 0.705018
  280 -0.672024 -24.5654 12.4456
  281 3.80223 5.18490 6.49890
  282 3.77297 5.18999 -6.49624
  283 387.633 27.6088 -9.10514
  284 189.552 0.470939 2.44197
  285 189.522 0.475206 -2.44623
  286 125.065 -6.73454 -43.1331
  287 126.235 -6.62601 43.8540
  288 241.966 -24.3934 -3.88950
  289 -23.3038 0.693918 10.3825
  290 -23.3270 0.694555 -10.3942
  291 237.604 -22.2077 71.2852
  292 -10.6358 1.58869 15.8243
  293 -10.6690 1.58854 -15.8451
  294 38.8192 10.7295 -1.65831
  295 38.6750 10.8342 1.71828
  296 -43.7357 0.446461 0.560399
  297 -43.7706 0.446317 -0.560153
  298 199.759 0.213020 -97.8045
  299 -40.3382 0.848745 -4.85578
  300 -40.3015 0.847383 4.85369
  301 -1.39417 -5.34495 17.8306
  302 -0.825529 -5.24017 -17.6858
  303 86.4206 9.25250 -9.75728
  304 86.4388 9.23806 9.83384
  305 17.5460 2.64071 2.33824
  306 17.5271 2.63960 -2.33635
  307 90.3056 4.11254 -1.78774
  308 90.3111 4.10495 1.79037
  309 8.15233 -7.44035 10.0485
  310 7.42619 -8.75354 -10.1284
  311 87.6480 2.15959 -0.373704
  312 87.6499 2.15680 0.373970
  313 -32.8245 0.851347 7.66504
  314 -32.8539 0.852775 -7.67292
  315 21.3829 -3.36073 -3.91727
  316 20.7237 -3.37874 3.35162
  317 198.089 0.108065 0.677828
  318 198.054 0.108568 -0.678153
  319 435.003 25.1893 16.0845
  320 43.0270 6.36282 1.94945
  321 43.0144 6.36145 -1.94075
  322 -10.8715 2.36827 4.13263
  323 -10.9002 2.36921 -4.13125
  324 59.8241 8.70922 -0.611437
  325 59.8164 8.70651 0.634346
  326 6.41976 6.13923 14.1310
  327 6.37883 6.15610 -14.1526
  328 0.883702 -44.5073 9.12512
  329 -45.1057 0.188100 -1.23411
  330 -45.0700 0.188284 1.23448
  331 150.210 0.928773 -1.27549
  332 150.229 0.926724 1.27475
  333 158.232 1.57061 -3.38462
  334 158.255 1.56195 3.38049
  335 -41.7914 0.784337 -3.58756
  336 -41.7548 0.783783 3.58732
  337 -2.47428 1.04749 0.539172
  338 -2.49817 1.04674 -0.538710
  339 -0.929563 -18.0242 9.36876
  340 -0.741812 -18.7447 -9.35623
  341 177.218 -15.1090 -28.9104
  342 184.271 -18.0486 28.3402
  343 104.733 5.73180 -4.07127
  344 104.749 5.71497 4.07756
  345 45.2524 10.9707 -0.377398
  346 45.1857 11.0152 0.424797
  347 -17.4448 3.25605 8.03163
  348 -17.4790 3.26094 -8.03426
  349 334.105 2.62645 4.93563
  350 16.8953 -28.7422 -17.7942
  351 18.0754 -27.1253 18.7432
  352 -7.84268 5.08606 12.6779
  353 -7.88325 5.09723 -12.6871
  354 -9.38226 -1.97601 15.2663
  355 -9.40209 -1.97872 -15.2887
  356 377.917 61.1268 -14.2487
  357 239.762 -4.36919 33.2295
  358 225.843 -5.09733 -5.02085
  359 225.583 -4.98056 4.61833
  360 156.955 -1.57956 -18.3436
  361 156.786 -1.75537 18.3418
  362 0.289784 -53.5926 -7.44787
  363 207.292 0.773212 -4.56380
  364 207.313 0.753997 4.54096
  365 2.60676 -50.7991 6.13346
  366 235.130 18.2759 -18.7827
  367 56.9401 2.49696 0.852579
  368 56.9329 2.49504 -0.852299
  369 158.087 1.58711 -13.6342
  370 158.196 1.48971 13.6408
  371 171.109 1.86528 -8.33281
  372 171.150 1.82211 8.31419
  373 -4.73322 2.14998 2.86534
  374 -4.75906 2.14981 -2.86378
  375 96.6660 5.37356 -21.4762
  376 96.7158 5.42604 21.6987
  377 204.250 0.134867 1.11529
  378 204.214 0.135866 -1.11646
  379 113.750 6.75622 -10.6806
  380 113.803 6.70624 10.7229
  381 132.276 2.60961 2.69066
  382 132.260 2.61623 -2.69203
  383 -6.35110 -1.16178 5.04786
  384 -6.34978 -1.16451 -5.04727
  385 -1.49961 -1.06852 -1.44983
  386 -1.50040 -1.06920 1.45212
  387 271.493 -35.7366 17.0927
  388 -3.62418 -8.67199 13.8982
  389 -3.60084 -8.74161 -13.8960
  390 42.5544 3.30793 -1.27912
  391 42.5654 3.31052 1.28176
  392 -1.35667 -6.73594 5.06489
  393 -1.37156 -6.72393 -5.06496
  394 15.6997 7.81083 7.20158
  395 15.6666 7.82229 -7.19534
  396 222.115 -0.673989 5.98406
  397 222.088 -0.585593 -6.11016
  398 -0.675108 -13.5548 16.9175
  399 -18.2964 -0.353233 7.82603
  400 -18.3060 -0.354549 -7.83420
  401 -0.744916 -14.2907 -16.7242
  402 208.876 0.296728 2.90129
  403 208.847 0.302535 -2.90962
  404 -2.56725 4.42819 15.8182
  405 -2.62689 4.44470 -15.8374
  406 153.221 2.78679 -5.45120
  407 153.247 2.76890 5.44467
  408 235.891 -10.1688 -6.10983
  409 236.835 -8.14854 4.69427
  410 -0.505217 -24.5983 -10.2939
  411 20.2818 7.37409 -5.67285
  412 20.4491 7.28227 5.66225
  413 230.475 15.3140 11.8506
  414 132.163 -8.47641 -60.0721
  415 135.841 -10.9927 63.0102
  416 6.91358 7.33671 10.6053
  417 6.87161 7.35286 -10.6060
  418 97.3435 3.24570 -1.22182
  419 97.3492 3.24077 1.22241
  420 94.3709 10.7957 95.9523
  421 38.2190 9.49773 -3.30585
  422 38.2470 9.48565 3.32526
  423 2.27596 -24.1466 11.7959
  424 -0.301155 -40.0748 -9.00956
  425 14.6669 8.88821 10.0626
  426 14.6154 8.91398 -10.0640
  427 17.9575 5.45764 -4.51750
  428 17.9801 5.45538 4.52265
  429 -6.99241 -0.518271 -17.3363
  430 -6.95950 -0.528016 17.3127
  431 46.0470 8.90597 -7.63352
  432 45.8569 9.05066 7.74785
  433 235.964 -7.95266 -24.9549
  434 6.22014 -2.96264 13.9416
  435 6.00465 -2.88777 -14.0128
  436 171.662 -7.27629 -20.2819
  437 172.416 -7.82519 20.2324
  438 -43.7796 0.372725 -4.66444
  439 -43.7442 0.371666 4.66091
  440 0.00578083 -39.2648 8.08072
  441 -0.290438 -24.8955 9.15659
  442 -17.9032 1.09056 13.3039
  443 -17.9288 1.09096 -13.3193
  444 123.022 1.58963 -0.472262
  445 123.034 1.58724 0.471830
  446 -3.75470 -5.92469 9.39048
  447 -3.75981 -5.93690 -9.37887
  448 75.5187 3.19254 -31.4336
  449 75.3900 3.55838 31.8415
  450 0.632844 -47.9380 -9.07654
  451 434.424 16.2152 0.486456
  452 1.15799 -57.2950 -5.62565
  453 -52.2975 0.0654223 -1.77115
  454 -52.2592 0.0655045 1.77137
  455 -20.2854 2.77123 11.0520
  456 -20.3209 2.77709 -11.0616
  457 -23.0374 0.318618 7.88343
  458 -23.0524 0.318742 -7.89190
  459 82.9059 9.01915 -6.37217
  460 82.9187 9.00883 6.41954
  461 126.559 5.56801 -8.27628
  462 126.603 5.52578 8.28877
  463 -2.34370 -8.28174 17.4538
  464 -2.34600 -8.22607 -17.5243
  465 218.458 3.08134 -31.5365
  466 14.4918 -4.87856 -3.71687
  467 13.9900 -4.99966 3.97399
  468 3.37045 -52.4113 0.291395
  469 2.12513 -60.5110 -1.79841
  470 -6.81158 -3.07337 9.67449
  471 -6.81302 -3.08367 -9.67695
  472 45.8647 -8.34794 -48.7656
  473 342.121 -4.20381 -30.1788
  474 75.4497 5.44182 1.50947
  475 75.4478 5.44976 -1.50253
  476 110.030 0.877545 -30.4852
  477 110.316 0.839904 30.9857
  478 31.5282 11.3983 4.55170
  479 31.4752 11.4334 -4.53326
  480 99.2744 7.66571 -15.6084
  481 99.3359 7.61750 15.7404
  482 3.18196 1.64261 16.2109
  483 3.40258 1.75384 -16.1895
  484 -46.2036 0.719237 -3.51409
  485 -46.1657 0.718669 3.51320
  486 221.608 -26.4411 -15.7790
  487 176.884 0.443452 -0.946038
  488 176.911 0.442609 0.945719
  489 7.84459 1.53413 -1.30130
  490 7.86584 1.53517 1.30235
  491 -12.2527 4.16543 10.4474
  492 -12.2896 4.17334 -10.4529
  493 -26.9119 1.69069 -3.94407
  494 -26.8790 1.68980 3.94453
  495 75.4106 7.92035 -2.47885
  496 75.4149 7.91001 2.49763
  497 -9.84953 3.47717 14.4871
  498 -9.89057 3.48652 -14.5038
  499 203.074 -5.48709 -10.7363
  500 203.404 -5.78899 10.5426
  501 131.906 1.60429 -20.2009
  502 131.723 1.49388 20.3848
  503 48.1122 2.74500 -0.760841
  504 48.1216 2.74732 0.762005
  505 0.443369 -24.7504 -14.4020
  506 237.451 -8.94729 20.5440
  507 3.03632 -16.7151 -13.3522
  508 66.2410 10.9089 6.30306
  509 66.2703 10.8848 -6.22185
  510 219.169 -24.7443 15.5376
  511 16.0995 -26.4000 25.0111
  512 261.919 -35.7040 -31.8566
  513 177.870 1.11402 10.0112
  514 177.803 1.19454 -10.0365
  515 0.396742 -21.2346 14.9856
  516 -3.47378 -1.04397 -2.68456
  517 -3.47568 -1.04366 2.68680
  518 20.2135 1.50218 -0.426837
  519 20.2311 1.50341 0.427284
  520 -0.609855 -13.8541 5.99541
  521 -0.553337 -13.7879 -6.02494
  522 146.479 1.95458 2.17873
  523 146.460 1.95823 -2.18015
  524 416.697 71.0564 27.6722
  525 16.4981 -12.0008 -3.92369
  526 12.7989 -15.6551 1.25973
  527 -5.42681 3.32683 -5.42616
  528 -5.39772 3.32428 5.42757
  529 -36.0421 0.573417 4.75939
  530 -36.0666 0.574049 -4.76440
  531 0.349895 -44.8595 8.98840
  532 -51.6580 0.508461 0.541880
  533 -51.6950 0.508419 -0.541573
  534 44.1674 -5.37666 -35.5187
  535 43.1573 -4.55054 36.9813
  536 40.3437 6.55019 -11.3540
  537 40.0385 6.74648 11.4574
  538 -9.74316 -2.09591 13.3110
  539 -9.75525 -2.10352 -13.3276
  540 39.4052 4.07455 1.39405
  541 39.3930 4.07228 -1.39019
  542 -22.5388 1.14596 1.79250
  543 -22.5689 1.14576 -1.79161
  544 46.8042 7.39618 1.71122
  545 46.7913 7.39614 -1.69763
  546 -0.969838 -3.12338 2.29133
  547 -0.973051 -3.12030 -2.29078
  548 16.6845 7.18160 9.25365
  549 16.5744 7.28951 -9.28231
  550 13.4871 1.62022 8.31815
  551 13.2910 1.60107 -8.42192
  552 180.670 1.62233 4.23609
  553 180.642 1.63118 -4.24299
  554 159.242 2.56997 6.68171
  555 159.210 2.59719 -6.69165
  556 -0.164787 -37.5989 -5.58431
  557 110.617 6.11523 -6.19794
  558 110.643 6.08994 6.20992
  559 111.092 3.12222 -2.20554
  560 111.103 3.11425 2.20611
  561 -16.7761 0.747375 -0.0645972
  562 -16.7484 0.747883 0.0649052
  563 185.261 10.4721 -6.06677
  564 250.748 -32.9506 -10.5712
  565 201.982 9.06035 24.0708
  566 1.57399 -32.9028 -10.7919
  567 -12.1078 3.64890 -7.01996
  568 -12.0753 3.64492 7.01967
  569 1.61093 -19.2357 14.3187
  570 -11.3760 0.222584 15.3644
  571 -11.4020 0.222268 -15.3827
  572 318.934 30.7728 -2.04910
  573 71.6117 3.86916 -0.532281
  574 71.6103 3.86426 0.535068
  575 491.630 41.1372 -41.3855
  576 -2.69106 -2.12634 18.0682
  577 -2.53562 -2.00014 -18.0861
  578 265.073 -24.8149 12.7572
  579 214.182 0.415702 -5.09959
  580 214.196 0.384932 5.06105
  581 96.4606 -1.11256 -44.5523
  582 97.6659 -1.38996 45.3141
  583 -5.60399 -5.40203 15.4356
  584 -5.60800 -5.42800 -15.4719
  585 50.1560 3.46949 22.8267
  586 50.5780 3.06999 -22.6024
  587 -42.3492 0.497916 -4.51870
  588 -42.3160 0.497145 4.51469
  589 312.689 24.3293 21.7756
  590 58.1905 5.90643 -0.294906
  591 58.1959 5.91083 0.302246
  592 68.8498 8.49608 -15.4258
  593 68.7698 8.60090 15.6231
  594 192.900 -0.0543361 -9.85399
  595 192.984 -0.161031 9.81052
  596 -0.913351 -19.8538 -13.9268
  597 211.165 -0.102381 1.51487
  598 211.128 -0.101017 -1.51662
  599 -31.9479 0.743206 -0.742767
  600 -31.9159 0.743452 0.743331
  601 -55.3608 -0.319142 0.0385246
  602 -55.3984 -0.319342 -0.0383983
  603 4.29225 -30.7413 -5.66374
  604 -2.00981 -12.8179 11.8474
  605 -2.11967 -12.1361 -11.9271
  606 -24.2566 1.46473 11.1221
  607 -24.2851 1.46725 -11.1341
  608 146.133 4.07063 8.37457
  609 146.091 4.11273 -8.37811
  610 107.163 1.90239 0.533893
  611 107.156 1.90462 -0.533937
  612 23.6007 -8.39837 13.8768
  613 24.3926 -7.88662 -13.7269
  614 -0.762476 -9.64843 5.05406
  615 -0.785044 -9.61652 -5.07038
  616 253.010 12.1370 103.959
  617 -12.4431 -0.394635 4.69671
  618 -12.4423 -0.396301 -4.69985
  619 4.23112 -18.7491 -10.9812
  620 104.691 4.70837 -3.07076
  621 104.703 4.69681 3.07370
  622 50.5022 10.8789 -4.26097
  623 50.4132 10.9434 4.34273
  624 0.514356 -68.2889 3.92601
  625 37.6047 10.8332 3.04894
  626 37.5677 10.8549 -3.02569
  627 -5.21893 4.52908 8.42094
  628 -5.25239 4.53544 -8.42159
  629 -0.301662 -33.2350 7.63367
  630 -54.8530 0.100870 -1.75281
  631 -54.8136 0.100815 1.75288
  632 68.2585 2.31504 0.000415513
  633 68.2619 2.31815 0.000591499
  634 176.078 0.879914 2.77339
  635 176.052 0.884420 -2.77657
  636 154.191 -12.5838 79.3621
  637 123.888 3.61832 -4.90973
  638 123.910 3.60004 4.91120
  639 1.66570 -3.03629 16.9007
  640 2.09901 -1.91136 -16.8958
  641 198.869 -21.7633 -63.9985
  642 477.329 16.7073 -17.2383
  643 -50.0873 0.0626373 -3.15459
  644 -50.0493 0.0621503 3.15276
  645 10.4518 2.89756 -2.73551
  646 10.4732 2.89797 2.73776
  647 -0.960412 -20.9534 12.2583
  648 268.683 14.7917 -30.3559
  649 208.890 -0.211162 0.249543
  650 208.851 -0.210940 -0.249601
  651 -13.4744 -0.769853 -10.9767
  652 -13.4633 -0.766914 10.9652
  653 -0.0337304 -47.3741 -7.39699
  654 212.543 -0.253104 0.579429
  655 212.503 -0.252777 -0.579650
  656 18.1628 6.87001 6.15262
  657 18.1353 6.87658 -6.14587
  658 159.775 -14.4899 -41.7005
  659 162.793 -14.4484 42.1984
  660 236.250 -1.34782 3.39542
  661 236.349 -1.32898 -3.56436
  662 1.02224 -60.0952 5.95620
  663 -14.3626 0.616408 -1.05696
  664 -14.3353 0.617004 1.05754
  665 76.4538 1.40766 -74.7506
  666 71.1002 2.12072 0.479863
  667 71.1033 2.12285 -0.479518
  668 34.1637 3.02951 0.744597
  669 34.1500 3.02757 -0.742598
  670 40.9614 5.02535 -1.23917
  671 40.9735 5.02761 1.24520
  672 136.478 4.27063 -12.9397
  673 136.566 4.19459 12.9700
  674 35.3021 10.4711 1.61516
  675 35.2026 10.5443 -1.58536
  676 -25.8620 1.94113 -6.55494
  677 -25.8275 1.93827 6.55308
  678 -29.7647 2.04344 -7.37703
  679 -29.7296 2.04026 7.37300
  680 242.298 -3.58502 -1.15122
  681 0.0667609 -10.2436 -17.1025
  682 242.792 -3.76173 0.774607
  683 305.651 24.4332 0.769317
  684 -30.5298 0.137984 5.39880
  685 -30.5487 0.138083 -5.40481
  686 30.6676 8.66167 -0.486355
  687 30.4510 8.77848 0.524179
  688 -59.0015 0.0924991 -0.671851
  689 -58.9620 0.0925622 0.672136
  690 0.232260 -9.27108 17.1626
  691 -19.2484 0.228583 11.6291
  692 -19.2692 0.228309 -11.6422
  693 265.466 -23.3462 -13.8157
  694 40.4478 1.46456 -0.181476
  695 40.4359 1.46290 0.181985
  696 8.29868 4.13829 4.42068
  697 8.27445 4.13959 -4.41740
  698 138.908 -6.70314 -34.6986
  699 140.023 -6.96662 35.4170
  700 497.289 34.8251 37.9293
  701 9.08925 -48.7392 -14.6288
  702 -3.66373 -7.64391 16.5530
  703 -3.67221 -7.67156 -16.5857
  704 28.2484 6.86854 -3.62268
  705 28.2687 6.86604 3.63100
  706 218.453 -0.196348 -1.55253
  707 218.490 -0.197853 1.54961
  708 102.291 2.27946 0.831442
  709 102.284 2.28337 -0.831392
  710 7.75946 7.48073 12.7035
  711 7.71012 7.50425 -12.7123
  712 3.80814 2.21589 1.93455
  713 3.78553 2.21521 -1.93321
  714 -6.50798 1.29263 17.1079
  715 -6.54861 1.29535 -17.1359
  716 178.802 0.212814 1.15088
  717 178.774 0.214315 -1.15189
  718 154.164 1.81042 3.13610
  719 154.143 1.81624 -3.13865
  720 20.0015 -15.6070 16.9412
  721 20.6182 -16.5652 -16.3204
  722 -12.4684 2.54403 14.9262
  723 -12.5045 2.54850 -14.9451
  724 6.09146 -15.7024 8.92295
  725 -0.0278111 4.38809 16.0035
  726 -0.0908893 4.40321 -16.0135
  727 -35.2771 1.06446 -4.39895
  728 -35.2417 1.06336 4.39829
  729 25.7578 8.84547 5.89054
  730 25.7242 8.85855 -5.87827
  731 238.464 -7.37857 -14.0900
  732 226.014 -19.9864 -4.44448
  733 -3.70915 -7.57274 11.6383
  734 -3.70343 -7.60660 -11.6218
  735 86.3533 -2.06087 -52.6273
  736 84.0412 -0.131075 53.2093
  737 52.1572 9.98891 -7.13927
  738 52.0351 10.0887 7.25469
  739 4.34420 -9.30877 14.0697
  740 -0.337460 -24.5191 -6.60790
  741 110.467 6.48821 -11.8751
  742 110.532 6.43921 11.9413
  743 0.301601 -48.3889 6.16823
  744 65.2737 9.53926 -2.48633
  745 65.2670 9.53712 2.52024
  746 229.175 -0.0593376 -3.87376
  747 229.154 -0.0898387 3.81063
  748 4.35542 -67.5467 0.617990
  749 101.616 8.07730 8.82597
  750 101.582 8.10968 -8.78464
  751 26.8377 9.47929 -4.08809
  752 26.9725 9.37858 4.09012
  753 -41.5597 0.277170 -3.79400
  754 -41.5307 0.276771 3.79002
  755 113.325 2.49215 -1.97630
  756 113.336 2.48675 1.97622
  757 69.0396 10.3687 -5.19739
  758 69.0271 10.3752 5.25752
  759 -0.339633 6.16414 12.5228
  760 -0.383477 6.17962 -12.5293
  761 226.721 -17.0613 1.71332
  762 -36.5880 0.877701 3.37091
  763 -36.6228 0.878010 -3.37069
  764 496.421 92.0386 -65.1335
  765 -14.7280 1.56858 3.62741
  766 -14.7570 1.56867 -3.62629
  767 193.444 0.893897 7.02599
  768 193.413 0.933150 -7.05707
  769 359.196 23.3236 0.588278
  770 219.978 -0.477426 -2.96164
  771 220.004 -0.483104 2.95133
  772 139.287 2.52940 3.89522
  773 139.268 2.53915 -3.89756
  774 208.763 -25.1885 58.2745
  775 89.5740 7.14212 -2.97791
  776 89.5858 7.12795 2.99013
  777 1.98212 -37.4930 8.10389
  778 239.851 -31.1650 17.9633
  779 145.365 0.866807 0.680352
  780 145.347 0.868441 -0.680619
  781 191.738 0.350414 0.364548
  782 191.705 0.350746 -0.364681
  783 -0.888298 -19.5122 -11.4506
  784 1.10656 -33.7128 11.4868
  785 84.6158 9.69572 12.2676
  786 84.6019 9.69930 -12.1513
  787 493.527 5.36130 4.09731
  788 147.047 1.63647 -16.2852
  789 147.164 1.54520 16.3227
  790 -31.3059 1.04180 8.37779
  791 -31.3389 1.04428 -8.38496
  792 6.00043 -28.0276 3.28138
  793 3.92217 -63.2905 -3.39897
  794 337.364 43.3190 -2.91131
  795 -0.302872 -24.4392 5.96185
  796 6.26391 4.58351 14.5806
  797 6.24616 4.58440 -14.6347
  798 43.8394 9.18822 2.13671
  799 43.8204 9.19454 -2.11836
  800 225.267 -10.2106 -2.85427
  801 225.604 -10.1184 2.00436
  802 267.415 32.0708 -98.2547
  803 -37.7243 0.512329 -1.61874
  804 -37.6900 0.512442 1.61935
  805 -17.0912 -0.0785515 4.43594
  806 -17.0935 -0.0792187 -4.44005
  807 15.7041 0.468302 5.33594
  808 15.3697 0.448284 -5.35791
  809 170.123 -0.599800 14.6959
  810 169.989 -0.439948 -14.6762
  811 85.8741 2.81360 -0.315086
  812 85.8762 2.80973 0.315794
  813 275.390 -5.84602 28.0535
  814 27.7128 4.97626 -3.20847
  815 27.7306 4.97651 3.21418
  816 26.1932 2.76076 -3.07622
  817 25.9555 2.89723 3.15240
  818 -0.191820 -19.5695 -15.5828
  819 393.159 55.3069 52.0246
  820 -57.4050 0.0858153 -1.73631
  821 -57.3645 0.0857103 1.73610
  822 -0.0856433 -59.1683 5.89031
  823 3.82439 -9.18343 -14.2023
  824 -8.45683 -0.526672 3.28243
  825 -8.45252 -0.527903 -3.28310
  826 311.979 15.8597 -20.9170
  827 79.7103 8.42667 -3.72785
  828 79.7186 8.41515 3.75668
  829 213.924 -2.84022 -7.37234
  830 214.095 -2.88264 7.23509
  831 -54.7333 0.441641 2.28034
  832 -54.7732 0.441995 -2.28126
  833 -0.377294 -0.391613 -0.315758
  834 -0.378046 -0.392326 0.316995
  835 0.195878 -60.5438 -5.78933
  836 0.284961 -64.1143 -5.39294
  837 -60.9274 0.616961 0.365693
  838 -60.9665 0.617012 -0.365569
  839 31.5732 -13.1126 -33.8737
  840 131.929 2.10645 -1.08065
  841 131.944 2.10361 1.07990
  842 -5.80539 1.31862 0.465478
  843 -5.83015 1.31802 -0.465343
  844 197.404 0.830631 -4.68514
  845 197.430 0.816920 4.67037
  846 -22.4976 0.151639 4.22681
  847 -22.5048 0.151678 -4.23114
  848 117.973 -1.45704 -79.8341
  849 205.012 -17.6873 15.6316
  850 161.298 1.13600 -1.41298
  851 161.320 1.13389 1.41175
  852 203.053 -19.2729 -17.5650
  853 62.2673 7.48521 -0.558903
  854 62.2630 7.47958 0.574959
  855 86.6679 6.25009 -2.18839
  856 86.6754 6.23921 2.19620
  857 238.595 -5.16076 10.7407
  858 13.8161 8.45108 10.7180
  859 13.7590 8.48433 -10.7314
  860 13.5948 1.35352 0.943487
  861 13.5753 1.35234 -0.942778
  862 111.797 1.95508 0.887807
  863 111.789 1.95806 -0.888007
  864 296.372 -29.8908 30.9494
  865 184.877 1.42088 -6.08703
  866 184.908 1.39521 6.06716
  867 1.36007 3.02416 3.51161
  868 1.33526 3.02448 -3.50943
  869 185.711 0.0958962 1.69736
  870 185.682 0.0976948 -1.69895
  871 -35.9150 0.338637 -0.959909
  872 -35.8823 0.338940 0.959886
  873 -0.169889 -18.6778 5.30321
  874 -0.221291 -18.9701 -5.34527
  875 220.101 -3.45174 25.2263
  876 -14.1200 3.41034 12.7176
  877 -14.1576 3.41846 -12.7295
  878 -0.0790995 -30.8402 -5.88287
  879 86.7268 3.75719 -1.07877
  880 86.7299 3.75201 1.08035
  881 160.640 -8.21232 -26.3703
  882 161.933 -9.09341 26.6366
  883 -7.16253 -2.60068 -16.6432
  884 -7.13451 -2.60287 16.6137
  885 7.95250 7.63875 11.7001
  886 7.90580 7.65895 -11.7033
  887 0.786192 -71.3630 4.25435
  888 1.58730 5.83805 14.7191
  889 1.53441 5.85544 -14.7298
  890 148.182 -2.56924 -23.4020
  891 147.874 -2.70893 23.5914
  892 256.528 13.1805 31.2983
  893 57.9281 7.00580 -0.136690
  894 57.9343 7.01056 0.147851
  895 190.041 1.49744 -4.57731
  896 190.068 1.48627 4.56711
  897 -7.56635 -3.35399 14.5494
  898 -7.57833 -3.36543 -14.5725
  899 0.640421 -73.9972 -3.06239
  900 -11.6271 -0.850915 14.3070
  901 -11.6461 -0.852152 -14.3246
  902 6.22227 7.00395 -9.27275
  903 6.25921 6.99133 9.27381
  904 -0.587069 -4.65818 2.58764
  905 -0.593542 -4.65315 -2.59135
  906 15.1165 7.88544 -8.46438
  907 15.1555 7.86985 8.46960
  908 3.12880 -6.21851 15.7165
  909 2.69414 -5.79223 -16.4516
  910 183.309 -4.99585 14.9008
  911 182.858 -4.72681 -15.0107
  912 -62.0167 0.214983 -0.536590
  913 -61.9768 0.215031 0.536779
  914 -5.17736 -0.474887 2.45841
  915 -5.17233 -0.475617 -2.45742
  916 0.255411 -43.9138 -5.38877
  917 -5.63599 -2.43657 -7.02949
  918 -5.63501 -2.43108 7.03105
  919 -24.2266 2.00489 10.7657
  920 -24.2594 2.00909 -10.7763
  921 55.9438 11.1448 -2.37594
  922 55.9102 11.1710 2.42728
  923 240.237 19.4169 -5.43661
  924 -3.68263 5.53474 11.3890
  925 -3.72218 5.54627 -11.3938
  926 88.9990 5.46156 -24.1821
  927 89.0258 5.54239 24.4859
  928 -11.7679 3.91644 9.19828
  929 -11.8030 3.92340 -9.20171
  930 296.960 -16.7960 -7.96535
  931 172.744 6.90522 13.4786
  932 212.594 -3.02040 -22.8212
  933 160.461 2.60314 -9.95959
  934 160.519 2.54291 9.94949
  935 -18.2884 2.43467 -4.65842
  936 -18.2572 2.43297 4.65900
  937 -39.2086 0.731018 5.43976
  938 -39.2444 0.732507 -5.44325
  939 -2.34333 -7.52578 -8.16694
  940 -2.32812 -7.53399 8.18312
  941 55.5685 4.12926 -0.148208
  942 55.5750 4.13289 0.151728
  943 -18.4156 1.82621 13.2608
  944 -18.4454 1.82850 -13.2766
  945 193.890 0.177988 2.25572
  946 193.859 0.180136 -2.25800
  947 -1.50103 -16.6243 12.4598
  948 6.03829 6.48771 -8.02119
  949 6.07126 6.47884 8.02347
  950 8.58704 4.63745 5.41040
  951 8.56105 4.64034 -5.40695
  952 31.7217 3.46072 -1.59864
  953 31.7362 3.46237 1.60124
  954 365.257 41.9828 -5.22195
  955 -1.40687 -0.394967 -0.960915
  956 -1.40989 -0.395008 0.962703
  957 11.7973 2.94583 -10.2524
  958 12.0004 2.83798 10.2245
  959 128.859 5.67134 -10.2606
  960 128.916 5.61718 10.2814
  961 15.3121 5.79169 -5.25201
  962 15.3374 5.78793 5.25726
  963 34.7731 -14.4055 45.8624
  964 245.683 -1.64575 -1.80354
  965 245.233 -1.58194 1.55648
  966 42.0933 -7.63482 39.5259
  967 43.9274 2.39393 0.0628696
  968 43.9166 2.39209 -0.0620004
  969 116.793 -5.96624 -68.9163
  970 88.0847 2.05104 0.505709
  971 88.0830 2.05321 -0.505537
  972 10.8286 -12.9879 3.68420
  973 11.9692 -11.0993 -2.77974
  974 218.252 -0.133098 0.782316
  975 218.211 -0.132743 -0.782622
  976 -18.0007 0.0314698 10.5183
  977 -18.0158 0.0308351 -10.5294
  978 390.403 48.3847 19.5384
  979 -1.78320 -12.6501 -16.5564
  980 1.73437 -65.1279 5.76586
  981 -0.369424 -19.9895 15.3184
  982 225.417 -0.0195838 -3.02286
  983 225.433 -0.0279307 3.00590
  984 -2.98631 -5.45000 7.04474
  985 -2.99371 -5.44895 -7.03670
  986 277.391 28.2753 -18.5502
  987 501.262 4.80459 -2.76034
  988 -0.728250 -1.07576 -1.04582
  989 -0.727524 -1.07803 1.04733
  990 129.477 2.01362 -2.16752
  991 129.491 2.00915 2.16662
  992 -1.84244 -12.1816 16.6553
  993 181.013 1.22647 8.96645
  994 180.967 1.28529 -8.99358
  995 237.501 -16.0867 -11.1159
  996 -8.35352 -1.77381 7.97095
  997 -8.35503 -1.77991 -7.97380
  998 3.62968 -16.4176 12.3798
  999 -0.422510 -29.8968 12.0154
  1000 -0.0325697 -30.5876 5.86974
  1001 239.146 16.2246 -1.30261
  1002 276.288 30.2579 11.2775
  1003 198.778 -23.5859 -31.6412
  1004 2.70163 -29.8628 10.0843
  1005 3.46443 -43.2541 3.00071
  1006 53.9077 1.82054 0.237607
  1007 53.8996 1.81873 -0.237428
  1008 -2.21722 -2.52465 -3.33978
  1009 -2.21558 -2.52561 3.34273
  1010 1.76234 -24.5191 -13.1555
  1011 161.085 0.624744 -0.518005
  1012 161.107 0.623578 0.517627
  1013 31.1810 -1.57243 -13.8648
  1014 29.8163 -1.49349 13.7329
  1015 -3.63450 4.84640 14.7493
  1016 -3.68426 4.86155 -14.7648
  1017 -19.8639 2.96476 -9.22425
  1018 -19.8285 2.95943 9.21918
  1019 121.217 2.02129 -23.8830
  1020 121.314 2.11064 24.1622
  1021 86.7469 7.83175 -16.2202
  1022 86.7552 7.82392 16.3979
  1023 94.5794 7.42371 -5.13456
  1024 94.5967 7.40288 5.15290
  1025 247.894 -7.73464 -30.1517
  1026 -7.11477 2.93776 16.0080
  1027 -7.16002 2.94497 -16.0327
  1028 175.941 0.189919 12.1877
  1029 175.846 0.311460 -12.2064
  1030 -1.34790 -9.66385 17.4818
  1031 -14.3241 -0.499934 7.71914
  1032 -14.3293 -0.502033 -7.72611
  1033 160.077 1.91454 -12.0760
  1034 160.158 1.83015 12.0708
  1035 194.040 4.31911 -21.5383
  1036 -0.289354 -29.7795 -12.6189
  1037 -2.45434 -11.7567 14.8054
  1038 -2.55359 -11.8860 -14.6763
  1039 112.060 7.08642 -8.25802
  1040 112.100 7.04836 8.28476
  1041 142.545 3.11480 4.85079
  1042 142.522 3.12898 -4.85425
  1043 237.017 -15.7088 9.73848
  1044 10.0839 1.48659 -0.266484
  1045 10.1043 1.48751 0.266687
  1046 201.163 -26.4105 33.7949
  1047 -2.79419 1.06665 1.21903
  1048 -2.81831 1.06580 -1.21834
  1049 42.1837 11.1527 1.34354
  1050 42.1354 11.1850 -1.30977
  1051 15.4041 8.75327 9.25687
  1052 15.3593 8.77389 -9.25357
  1053 2.11577 -37.0515 -8.41791
  1054 56.8777 2.64980 -0.295581
  1055 56.8841 2.65309 0.297640
  1056 167.198 5.74899 5.52226
  1057 162.369 1.67488 4.58373
  1058 162.344 1.68718 -4.58974
  1059 -1.18637 -10.0045 -17.5081
  1060 244.669 -3.07612 -5.57013
  1061 -0.410020 -1.20061 17.5706
  1062 -0.232113 -1.04735 -17.5008
  1063 224.319 -0.316044 -1.66313
  1064 224.354 -0.317919 1.65872
  1065 238.673 -0.709111 -2.90586
  1066 238.577 -0.742079 2.81475
  1067 -0.183053 -46.3881 4.43612
  1068 138.410 4.05282 -6.45386
  1069 138.436 4.03008 6.45131
  1070 169.305 1.95251 5.39152
  1071 169.278 1.96798 -5.40051
  1072 3.19761 3.69796 16.0309
  1073 3.18158 3.70249 -16.0384
  1074 369.059 25.3731 3.14186
  1075 -4.98636 -2.28146 17.8272
  1076 -5.05090 -2.23701 -17.8660
  1077 51.0487 10.5489 0.420312
  1078 51.0297 10.5581 -0.392705
  1079 -31.0272 0.705578 -1.75645
  1080 -30.9950 0.705857 1.75704
  1081 84.6979 4.40878 -27.9527
  1082 84.6057 4.65523 28.3327
  1083 23.6091 9.86890 7.42753
  1084 23.5595 9.89493 -7.41829
  1085 57.1555 5.99844 -20.0874
  1086 56.8680 6.29577 20.2966
  1087 -1.59873 -15.6004 -12.1320
  1088 203.699 2.39387 27.8460
  1089 144.247 -2.82290 90.0904
  1090 22.2106 10.0320 7.68384
  1091 22.1500 10.0685 -7.67967
  1092 86.3657 5.17691 -1.58424
  1093 86.3715 5.16775 1.58911
  1094 319.573 -1.87204 11.4668
  1095 19.5439 4.53198 5.40283
  1096 19.2950 4.60207 -5.46769
  1097 -9.53432 -2.13099 10.6473
  1098 -9.53976 -2.13997 -10.6561
  1099 -0.313976 -6.96303 2.83200
  1100 -0.325979 -6.95830 -2.84309
  1101 209.633 0.0940582 7.29419
  1102 209.589 0.179489 -7.36505
  1103 0.166221 -15.3718 16.4467
  1104 -14.6586 0.837041 -14.3897
  1105 -14.6332 0.837361 14.3728
  1106 0.0788581 -56.4426 -5.73902
  1107 -3.52867 -4.91799 17.7947
  1108 -3.52105 -4.82186 -17.8118
  1109 200.991 0.485602 -3.07292
  1110 201.022 0.480723 3.06735
  1111 206.431 -1.26172 8.66558
  1112 206.314 -1.12547 -8.74062
  1113 34.7279 7.28707 -5.74674
  1114 34.4653 7.45167 5.82893
  1115 -0.510660 -29.0724 -10.1581
  1116 272.424 -28.4891 -51.7247
  1117 353.838 42.1401 -2.00257
  1118 3.44719 -45.7316 -1.72911
  1119 11.7944 6.89192 -12.0944
  1120 11.8620 6.84972 12.0502
  1121 32.3522 10.8188 4.07268
  1122 32.2825 10.8657 -4.05299
  1123 69.7768 4.71615 0.278826
  1124 69.7778 4.72228 -0.274198
  1125 -4.65454 -6.63023 13.8144
  1126 -4.64678 -6.69002 -13.8329
  1127 -13.8002 4.06026 11.7781
  1128 -13.8378 4.06868 -11.7865
  1129 -5.37731 5.06460 13.6785
  1130 -5.42176 5.07762 -13.6903
  1131 196.181 -9.95791 -14.4587
  1132 197.486 -10.0675 14.3038
  1133 0.144472 -33.7239 -12.0616
  1134 103.276 -0.823750 -35.4923
  1135 103.474 -0.489661 36.1401
  1136 32.1682 10.1111 -4.31473
  1137 32.2017 10.0934 4.33176
  1138 105.822 39.7288 101.023
  1139 24.8582 8.22067 5.61230
  1140 24.8294 8.22962 -5.60202
  1141 269.106 -31.1826 -10.7428
  1142 100.319 3.34113 1.36135
  1143 100.311 3.34749 -1.36040
  1144 -4.61231 -4.12361 8.38921
  1145 -4.61429 -4.13243 -8.38500
  1146 -5.52772 -4.97546 10.8899
  1147 -5.52615 -4.99378 -10.8891
  1148 175.069 -18.9816 -50.6175
  1149 178.835 -20.8068 51.0146
  1150 29.9509 1.61091 0.211142
  1151 29.9657 1.61245 -0.210231
  1152 109.014 5.23683 -19.1717
  1153 109.042 5.16023 19.3849
  1154 241.392 -33.9286 38.1667
  1155 216.622 -0.379621 0.461324
  1156 216.579 -0.379341 -0.461317
  1157 -20.0136 3.06418 10.4921
  1158 -20.0494 3.06992 -10.4997
  1159 -34.0487 1.10944 -5.57741
  1160 -34.0132 1.10796 5.57600
  1161 53.5895 -3.18881 59.4000
  1162 161.489 11.2518 -11.1711
  1163 99.7062 7.60025 -9.07701
  1164 99.7465 7.56829 9.13327
  1165 315.973 -13.8115 55.3622
  1166 101.296 7.20578 -13.7875
  1167 101.348 7.15866 13.8857
  1168 24.0998 3.66216 -2.23918
  1169 24.1171 3.66344 2.24221
  1170 8.53680 -35.6021 4.55845
  1171 8.64373 -34.8364 -6.86837
  1172 137.829 -10.6723 -51.0265
  1173 139.814 -10.0345 51.0311
  1174 53.0661 8.37201 -13.6090
  1175 52.8496 8.56313 13.7793
  1176 244.749 -17.0363 -19.9615
  1177 -9.22711 -0.886153 16.2060
  1178 -9.25401 -0.884757 -16.2276
  1179 -0.301000 -13.7634 -16.8811
  1180 60.9747 0.0806438 -36.9894
  1181 61.1339 0.300112 37.6842
  1182 -0.159445 -12.3806 3.16694
  1183 -0.135872 -12.4098 -3.20499
  1184 -59.8480 0.514834 -1.62254
  1185 -59.8066 0.514601 1.62212
  1186 196.294 0.157062 -0.818862
  1187 196.328 0.156251 0.817990
  1188 119.519 4.96641 -5.31748
  1189 119.544 4.94350 5.32250
  1190 -4.77246 -0.269305 17.8964
  1191 -4.78638 -0.200007 -17.9281
  1192 0.0287165 -50.1870 -4.95659
  1193 -50.6307 0.128691 2.56668
  1194 -50.6674 0.129010 -2.56872
  1195 37.4894 -2.91210 -25.3620
  1196 37.1963 -2.67398 26.2333
  1197 227.718 -14.0096 0.309538
  1198 63.4696 2.89023 -33.1623
  1199 63.5279 3.10006 33.5389
  1200 -27.8857 0.146097 3.85344
  1201 -27.8978 0.146025 -3.85767
  1202 0.702012 -44.6393 -8.67413
  1203 -9.77584 1.96331 -2.33189
  1204 -9.74913 1.96359 2.33307
  1205 32.9671 8.65980 4.35447
  1206 32.9405 8.66839 -4.34033
  1207 127.632 1.21710 -0.735628
  1208 127.645 1.21513 0.735516
  1209 173.201 1.21854 3.49248
  1210 173.176 1.22615 -3.49745
  1211 8.94438 -2.01897 10.5268
  1212 8.81044 -2.17371 -10.6873
  1213 1.48036 -25.8792 13.0893
  1214 309.693 40.8907 15.0671
  1215 -9.57404 -0.765853 6.04071
  1216 -9.57384 -0.768872 -6.04315
  1217 1.15823 -24.2249 -13.6184
  1218 -0.932526 -14.5830 8.85999
  1219 -0.882959 -14.4614 -9.18307
  1220 245.913 -2.64335 4.96081
  1221 0.225679 -57.5398 5.09285
  1222 1.61460 -17.9199 -15.1766
  1223 27.6152 1.32390 0.364145
  1224 27.5996 1.32256 -0.363991
  1225 -2.53532 -10.6328 16.3448
  1226 -28.2652 1.64384 -4.80369
  1227 -28.2314 1.64259 4.80353
  1228 510.498 9.11569 14.1055
  1229 -14.6031 1.58416 14.6055
  1230 -14.6335 1.58541 -14.6235
  1231 116.696 4.98287 -17.3521
  1232 116.813 4.88388 17.4638
  1233 7.28685 -12.7541 -7.30092
  1234 111.257 6.27283 -6.72568
  1235 111.289 6.24215 6.74308
  1236 4.43273 -36.4295 -2.92130
  1237 -2.54113 -10.6485 -16.3096
  1238 -20.4153 0.948298 2.95610
  1239 -20.4453 0.948082 -2.95522
  1240 -8.92503 0.496661 -16.6421
  1241 -8.89263 0.497094 16.6221
  1242 237.017 18.7353 22.4777
  1243 135.411 1.85706 -18.5792
  1244 135.585 1.80016 18.6264
  1245 -62.9833 0.174557 -0.635932
  1246 -62.9423 0.174551 0.636132
  1247 122.424 3.53376 -3.63499
  1248 122.439 3.52385 3.63468
  1249 -64.9518 -1.05736 -0.164207
  1250 -64.9917 -1.05765 0.164282
  1251 182.895 -13.1409 -21.2521
  1252 -29.3852 0.484589 8.23173
  1253 -29.4103 0.485263 -8.24083
  1254 184.809 -13.8688 21.0570
  1255 124.357 5.11248 -7.51796
  1256 124.390 5.07941 7.52500
  1257 14.2402 -39.9307 -25.2309
  1258 0.259070 -40.7239 -10.3706
  1259 -0.913999 -17.1903 15.3407
  1260 398.788 59.6465 -51.3478
  1261 -0.103926 -38.0422 10.0453
  1262 413.722 38.8531 -23.0047
  1263 -0.193438 -70.3607 -4.85502
  1264 18.1538 2.33652 -0.936328
  1265 18.1722 2.33777 0.937955
  1266 -0.179054 -15.9116 3.32083
  1267 -0.145574 -15.9946 -3.31040
  1268 68.5236 2.26692 -0.132366
  1269 68.5273 2.26935 0.132868
  1270 247.713 -19.5098 19.0602
  1271 3.42411 2.14687 -2.70493
  1272 3.44721 2.14740 2.70648
  1273 1.43568 -78.3589 2.70098
  1274 0.911853 -83.2531 -2.65640
  1275 227.834 -29.3188 -22.4063
  1276 -0.646637 -20.8970 9.82513
  1277 235.741 14.4977 -27.8806
  1278 -0.714442 -27.5424 9.67484
  1279 0.465021 -76.0662 -3.86992
  1280 113.967 3.83199 -3.86434
  1281 113.984 3.81599 3.86705
  1282 -0.0789349 -40.8637 4.37128
  1283 -0.112195 -34.1319 -9.88996
  1284 551.355 91.7601 80.4292
  1285 217.670 0.239023 0.362093
  1286 217.627 0.238976 -0.361988
  1287 5.23970 -0.0712409 14.7024
  1288 5.06676 0.160636 -14.7604
  1289 -3.83145 2.95090 16.9469
  1290 -3.90397 2.95946 -16.9765
  1291 228.889 -4.41244 -16.2540
  1292 213.092 -8.80876 -8.03321
  1293 212.846 -10.0579 8.07556
  1294 30.3405 4.11483 2.33384
  1295 30.3247 4.11325 -2.32946
  1296 -35.7463 0.969353 -6.54595
  1297 -35.7117 0.967452 6.54088
  1298 237.814 -34.2219 -32.2319
  1299 -1.78909 -4.30101 4.37275
  1300 -1.79567 -4.29716 -4.37035
  1301 250.224 -11.4969 28.4280
  1302 -2.68582 -10.0347 11.9232
  1303 -2.65690 -10.0707 -11.8681
  1304 -23.7087 1.64364 3.50468
  1305 -23.7402 1.64411 -3.50396
  1306 36.7491 3.21174 -12.4709
  1307 36.3715 3.43403 12.4768
  1308 58.0029 2.15432 0.445712
  1309 57.9962 2.15186 -0.444987
  1310 -24.9392 2.45818 10.2926
  1311 -24.9733 2.46252 -10.3010
  1312 203.892 0.718513 0.563181
  1313 203.855 0.718420 -0.563072
  1314 110.225 -2.80823 68.3061
  1315 165.690 0.779058 1.22851
  1316 165.666 0.780446 -1.22919
  1317 108.352 2.19580 -26.9420
  1318 108.395 2.06175 27.2046
  1319 1.01436 -45.3747 -6.57275
  1320 41.3100 9.78863 -4.54690
  1321 41.1390 9.91225 4.63296
  1322 -0.397927 -0.376340 -0.532918
  1323 -0.399911 -0.376508 0.534462
  1324 140.795 4.80043 9.92197
  1325 140.743 4.85647 -9.91750
  1326 68.9489 6.22443 0.916258
  1327 68.9495 6.23180 -0.907080
  1328 102.447 6.32918 -4.39889
  1329 102.466 6.30927 4.40978
  1330 135.316 1.31964 -1.22651
  1331 135.331 1.31762 1.22617
  1332 -4.32971 -2.11003 -4.94259
  1333 -4.32948 -2.10796 4.94561
  1334 -42.6898 0.142980 2.08536
  1335 -42.7257 0.142980 -2.08494
  1336 -7.45764 -3.45954 -12.1981
  1337 -7.45358 -3.44332 12.1874
  1338 -25.1704 0.573805 0.897757
  1339 -25.2004 0.573332 -0.897446
  1340 -65.5535 0.622990 0.366780
  1341 -65.5940 0.623065 -0.366652
  1342 256.399 -34.3267 44.4559
  1343 180.966 -1.31382 -22.5104
</Section>

newXOutput 31

<Section columns = "stress_xx | stress_yy | stress_xy">
  1 231.884 -0.254426 0.222012
  2 231.933 -0.254573 -0.222122
  3 -73.1612 0.379640 -0.986399
  4 0.118163 0.0330045 0.207791
  5 426.515 110.973 133.716
  6 481.867 126.489 -127.866
  7 0.117719 0.0325859 -0.207203
  8 -73.1171 0.379607 0.986193
  9 231.159 -0.235107 -0.760974
  10 231.322 -0.627861 -1.24790
  11 233.519 -0.612536 -0.318195
  12 233.712 -0.564173 -1.43856
  13 234.207 -0.542951 -0.415377
  14 239.153 -0.539062 -0.589028
  15 240.804 -0.821271 -1.92613
  16 242.522 -0.346279 -1.30045
  17 243.541 0.238650 -2.51315
  18 253.539 -1.28386 -2.15505
  19 257.725 -0.957735 -2.79746
  20 262.269 -1.51845 -1.00101
  21 264.307 -2.07155 -0.517843
  22 261.856 -2.44092 3.69989
  23 252.106 -2.78355 7.64149
  24 229.750 -3.24729 16.1227
  25 194.187 1.62838 18.6890
  26 164.450 1.88794 17.5535
  27 123.547 4.40585 10.6570
  28 131.855 4.29392 0.802304
  29 108.566 12.9972 -6.86977
  30 155.245 5.85502 -18.8798
  31 181.454 1.30721 -15.5053
  32 224.795 -0.777462 -13.4107
  33 248.830 -3.37713 -9.11708
  34 261.323 -2.84994 -3.69354
  35 263.686 -2.00039 0.524060
  36 261.832 -1.49660 0.921879
  37 257.524 -0.965222 2.70438
  38 253.449 -1.30273 2.10007
  39 243.533 0.227541 2.48530
  40 242.543 -0.350480 1.28943
  41 240.842 -0.823793 1.92166
  42 239.197 -0.540355 0.586789
  43 234.253 -0.543677 0.414297
  44 233.760 -0.564826 1.43863
  45 233.567 -0.612985 0.318106
  46 231.370 -0.628193 1.24836
  47 231.207 -0.235241 0.761257
  48 218.265 0.757779 -0.276105
  49 201.669 0.518835 -0.636459
  50 181.003 -0.214958 -0.671957
  51 159.657 1.09662 -0.558985
  52 141.042 0.996848 -0.449398
  53 121.192 1.65097 -0.535596
  54 101.670 2.65241 -0.345184
  55 81.4727 2.41711 -0.681127
  56 64.7692 1.81040 -0.938564
  57 42.9119 1.27688 -0.988566
  58 20.7622 1.64494 -0.748989
  59 2.30591 1.34713 -0.723465
  60 -20.6736 0.832302 -0.668998
  61 -37.7548 -0.0510627 -1.57358
  62 -54.2863 -1.04958 -0.726342
  63 -71.0145 0.176237 0.461867
  64 -74.5821 1.28500 -0.213708
  65 -74.7794 0.582435 0.178256
  66 -72.2666 0.309154 -0.130300
  67 -72.8993 0.835992 -0.934364
  68 -71.6676 1.00757 -0.150017
  69 -67.7177 0.324349 -1.41829
  70 -68.3183 0.618697 -1.51618
  71 -66.5041 0.590356 -0.882120
  72 -61.5059 0.379503 -1.30199
  73 -59.0599 0.657621 -2.10515
  74 -55.3936 0.728281 -1.74807
  75 -48.9358 0.374336 -2.95741
  76 -45.2891 0.114768 -2.47404
  77 -38.7955 0.165296 -2.83742
  78 -33.1818 0.115924 -3.12083
  79 -28.3246 0.0357716 -2.46229
  80 -21.6267 0.140295 -2.47643
  81 -15.8673 -0.0696641 -2.64073
  82 -10.2988 -0.293284 -2.30558
  83 -5.89917 -0.255919 -1.75866
  84 -2.88102 -0.442334 -1.46350
  85 -0.452373 -0.255218 -0.514583
  86 0.0537374 -0.279623 -0.178038
  87 -0.151944 -0.132281 -0.0252136
  88 -0.398966 -0.351260 -0.449552
  89 -0.386708 -2.43196 -1.26866
  90 -0.333314 -5.48802 -1.82033
  91 -0.175000 -9.42301 -2.66217
  92 -0.0932860 -14.4979 -2.29790
  93 -0.0855384 -19.1923 -2.89433
  94 -0.359321 -24.9598 -3.27736
  95 -0.146355 -32.0554 -3.32196
  96 0.0689353 -39.2062 -3.18900
  97 0.156454 -46.8844 -3.15253
  98 0.236206 -54.7969 -3.11099
  99 0.0287622 -60.7020 -4.22042
  100 0.420951 -69.0123 -3.78537
  101 0.506958 -78.7755 -3.06632
  102 0.00685904 -83.2997 -4.07889
  103 0.719034 -90.6483 -3.81599
  104 1.72775 -100.467 -2.01402
  105 3.35514 -103.557 -3.18984
  106 2.25942 -96.2269 1.70282
  107 3.09472 -75.0524 8.59245
  108 17.7683 -48.1491 26.9900
  109 57.0995 66.2344 97.7435
  110 659.665 34.1876 64.1386
  111 565.089 10.6546 23.5289
  112 546.875 4.15049 5.23419
  113 543.117 1.64942 -0.879415
  114 546.663 6.24398 -12.4369
  115 563.156 19.1100 -27.6521
  116 640.781 67.0083 -81.2245
  117 135.309 50.9312 -119.632
  118 29.3121 -47.3918 -33.4936
  119 8.55491 -82.0532 -12.0332
  120 2.33171 -91.3439 -1.90723
  121 2.68453 -99.8034 1.94095
  122 0.780546 -96.6270 1.60273
  123 0.300365 -88.3926 3.29711
  124 0.313868 -82.9983 2.62573
  125 0.433751 -74.5426 4.30878
  126 -0.0214034 -69.5974 4.15107
  127 0.172263 -62.7893 2.99775
  128 0.326816 -54.1272 3.77383
  129 0.0594403 -47.9582 2.99399
  130 0.0977795 -39.2710 3.77830
  131 -0.392013 -32.4372 3.24193
  132 -0.279323 -24.9827 3.17713
  133 -0.0625857 -19.0896 2.90255
  134 -0.119687 -14.4158 2.30329
  135 -0.171409 -9.39560 2.63677
  136 -0.328680 -5.48408 1.81138
  137 -0.384697 -2.43554 1.26773
  138 -0.398506 -0.354932 0.450396
  139 -0.151934 -0.133892 0.0262782
  140 0.0518045 -0.279908 0.179036
  141 -0.456104 -0.255128 0.515907
  142 -2.88698 -0.442005 1.46496
  143 -5.90742 -0.255201 1.75926
  144 -10.3061 -0.292395 2.30493
  145 -15.8706 -0.0689297 2.63849
  146 -21.6253 0.140437 2.47376
  147 -28.3166 0.0360619 2.45953
  148 -33.1679 0.116224 3.11775
  149 -38.7739 0.165197 2.83428
  150 -45.2608 0.114621 2.47122
  151 -48.9032 0.374050 2.95479
  152 -55.3555 0.727867 1.74617
  153 -59.0190 0.657192 2.10373
  154 -61.4627 0.379237 1.30125
  155 -66.4591 0.590092 0.881772
  156 -68.2727 0.618464 1.51585
  157 -67.6726 0.324245 1.41812
  158 -71.6220 1.00732 0.150233
  159 -72.8537 0.835817 0.934359
  160 -72.2218 0.309124 0.130462
  161 -74.7344 0.582341 -0.178066
  162 -74.5373 1.28474 0.213779
  163 -70.9708 0.176237 -0.461688
  164 -54.2470 -1.04915 0.726242
  165 -37.7199 -0.0506631 1.57329
  166 -20.6433 0.832779 0.668977
  167 2.32990 1.34785 0.723409
  168 20.7810 1.64601 0.748923
  169 42.9242 1.27850 0.988458
  170 64.7751 1.81223 0.938413
  171 81.4737 2.41903 0.681007
  172 101.665 2.65428 0.345032
  173 121.182 1.65285 0.535314
  174 141.026 0.998522 0.449066
  175 159.635 1.09769 0.558532
  176 180.974 -0.214036 0.671442
  177 201.633 0.518976 0.636086
  178 218.222 0.757604 0.275941
  179 59.0234 10.8545 -1.37988
  180 58.9998 10.8666 1.42122
  181 -1.60747 1.49659 17.8318
  182 -1.66912 1.49170 -17.8342
  183 136.359 -1.99642 -29.5103
  184 136.297 -2.27349 29.8445
  185 26.4966 5.59034 0.112622
  186 26.1802 5.71623 -0.0907005
  187 18.4865 3.84988 -3.20060
  188 18.5076 3.85009 3.20396
  189 129.701 3.09475 -4.12605
  190 129.721 3.08135 4.12616
  191 -3.41389 5.37236 10.0318
  192 -3.45188 5.38198 -10.0343
  193 150.802 4.40711 -11.0313
  194 150.873 4.33978 11.0390
  195 -5.99759 -5.24968 13.7706
  196 -5.99443 -5.27868 -13.7854
  197 1.16404 -12.8689 -16.8555
  198 45.8849 1.02821 -26.3250
  199 1.46941 -13.7384 16.4859
  200 45.1424 1.42210 26.7999
  201 214.280 -30.1033 -43.0781
  202 222.018 -31.3038 41.2191
  203 75.8612 3.15582 -0.369418
  204 75.8597 3.15179 0.371126
  205 -14.0060 1.11948 -2.08210
  206 -13.9769 1.12000 2.08280
  207 -17.7227 2.59237 13.6108
  208 -17.7584 2.59798 -13.6264
  209 76.2039 7.64929 -1.49794
  210 76.2064 7.64114 1.51086
  211 22.6395 9.70679 7.52875
  212 22.5549 9.76675 -7.53806
  213 -23.2139 2.49363 -5.88010
  214 -23.1788 2.49136 5.87943
  215 173.669 0.730026 2.03988
  216 173.643 0.733163 -2.04175
  217 5.29427 -24.3612 7.85522
  218 5.76146 -22.1930 -7.10918
  219 -1.69590 -14.7763 15.6091
  220 -1.72606 -15.3199 -15.1066
  221 70.2317 10.3408 -10.9996
  222 70.1807 10.3860 11.1380
  223 -15.7358 -0.120874 13.5155
  224 -15.7562 -0.122064 -13.5310
  225 185.814 1.52210 -6.17907
  226 185.844 1.50260 6.16548
  227 199.520 -2.53931 -12.0774
  228 199.666 -2.75339 12.0041
  229 317.235 24.9713 -0.449849
  230 291.041 31.7824 20.5485
  231 288.470 -4.16065 -29.0019
  232 33.8864 8.19244 4.19671
  233 33.8629 8.19841 -4.18484
  234 1.61246 6.42335 13.9649
  235 1.56106 6.44266 -13.9744
  236 222.806 -13.5155 -7.43190
  237 221.485 -13.6909 8.13126
  238 122.620 1.67953 -1.44805
  239 122.632 1.67558 1.44768
  240 -28.2631 1.97865 9.16566
  241 -28.2995 1.98260 -9.17250
  242 -3.79261 -3.73647 -6.13645
  243 -3.78979 -3.73483 6.14102
  244 -31.9148 0.894670 3.05833
  245 -31.9498 0.894770 -3.05780
  246 100.164 8.08517 -6.94438
  247 100.189 8.05859 6.97465
  248 127.818 4.25663 -16.6075
  249 127.932 4.17493 16.6834
  250 29.5566 2.42129 -0.450774
  251 29.5728 2.42276 0.452023
  252 73.1385 -2.00479 -58.9192
  253 86.8735 0.329225 64.5696
  254 9.38447 4.17920 13.5159
  255 9.34244 4.28049 -13.5606
  256 304.625 -25.9191 -3.12661
  257 25.1391 10.0720 6.51607
  258 25.0969 10.0928 -6.50447
  259 71.5784 7.36865 -21.4216
  260 71.4556 7.56699 21.6914
  261 339.243 46.1896 -6.61416
  262 201.521 0.508346 8.36638
  263 201.474 0.576616 -8.40941
  264 -1.84817 -11.3140 -9.67694
  265 -1.79880 -11.3610 9.71656
  266 -0.430650 -27.0699 -13.4656
  267 0.817512 -31.9872 -12.6910
  268 0.415926 -31.8419 13.1784
  269 -5.23990 -4.57922 17.8663
  270 -5.25936 -4.56877 -17.9292
  271 10.3504 -26.8085 -3.12644
  272 11.1177 -24.8838 4.85370
  273 -11.6717 -1.00353 8.50659
  274 -11.6760 -1.00769 -8.51308
  275 142.414 4.54000 -6.76668
  276 142.449 4.51030 6.76560
  277 250.505 -26.5998 -0.236946
  278 53.9227 5.19985 -0.692898
  279 53.9309 5.20320 0.697994
  280 -0.692716 -25.3774 12.8559
  281 4.00788 5.34913 6.68243
  282 3.97701 5.35451 -6.67996
  283 400.616 28.5010 -9.48714
  284 195.918 0.467954 2.53179
  285 195.887 0.472311 -2.53605
  286 129.388 -6.92480 -44.6917
  287 130.594 -6.81290 45.4352
  288 250.156 -25.1813 -3.91582
  289 -24.0716 0.718407 10.7220
  290 -24.0960 0.719043 -10.7343
  291 245.609 -22.7959 73.8155
  292 -10.9700 1.64932 16.3365
  293 -11.0045 1.64906 -16.3583
  294 40.2065 11.1094 -1.79271
  295 40.0568 11.2177 1.85402
  296 -45.1177 0.455515 0.575038
  297 -45.1548 0.455372 -0.574808
  298 206.518 0.430802 -101.237
  299 -41.6472 0.874431 -5.00572
  300 -41.6084 0.873011 5.00340
  301 -1.42572 -5.50341 18.4051
  302 -0.836610 -5.39402 -18.2538
  303 89.4306 9.55014 -10.1514
  304 89.4488 9.53575 10.2303
  305 18.2323 2.71078 2.39584
  306 18.2123 2.70973 -2.39398
  307 93.4311 4.22062 -1.87327
  308 93.4368 4.21298 1.87601
  309 8.45504 -7.63873 10.3298
  310 7.70209 -8.99546 -10.4141
  311 90.6821 2.20170 -0.395878
  312 90.6840 2.19892 0.396160
  313 -33.9061 0.879588 7.91280
  314 -33.9370 0.881059 -7.92112
  315 22.1542 -3.40217 -4.13768
  316 21.4723 -3.42141 3.55158
  317 204.719 0.0963924 0.702991
  318 204.682 0.0969071 -0.703298
  319 449.419 26.0000 16.6803
  320 44.5693 6.55621 1.97624
  321 44.5559 6.55502 -1.96742
  322 -11.1556 2.43709 4.24782
  323 -11.1860 2.43813 -4.24658
  324 61.9329 8.98260 -0.682834
  325 61.9245 8.98015 0.706299
  326 6.68156 6.36092 14.5602
  327 6.63885 6.37825 -14.5830
  328 0.915628 -45.9594 9.40921
  329 -46.5409 0.188915 -1.26830
  330 -46.5029 0.189099 1.26863
  331 155.297 0.932026 -1.32381
  332 155.318 0.929960 1.32308
  333 163.588 1.59618 -3.51272
  334 163.613 1.58736 3.50861
  335 -43.1338 0.805835 -3.69520
  336 -43.0950 0.805244 3.69483
  337 -2.45915 1.06773 0.550674
  338 -2.48454 1.06700 -0.550225
  339 -0.959783 -18.6277 9.68175
  340 -0.765787 -19.3725 -9.66881
  341 183.272 -15.6028 -29.9681
  342 190.555 -18.6393 29.3793
  343 108.341 5.89441 -4.24193
  344 108.358 5.87736 4.24851
  345 46.8630 11.3413 -0.459797
  346 46.7934 11.3876 0.508259
  347 -17.9718 3.36046 8.27544
  348 -18.0078 3.36557 -8.27844
  349 345.263 2.92153 5.31589
  350 17.5044 -29.5330 -18.5062
  351 18.7266 -27.8541 19.4863
  352 -8.05844 5.25810 13.0720
  353 -8.10090 5.26966 -13.0819
  354 -9.68688 -2.03543 15.7700
  355 -9.70756 -2.03831 -15.7933
  356 390.578 63.2955 -14.9410
  357 247.968 -4.46679 34.2120
  358 233.453 -5.28161 -5.21964
  359 233.188 -5.16050 4.80565
  360 162.324 -1.64850 -19.0190
  361 162.149 -1.82925 19.0176
  362 0.299747 -55.3426 -7.67592
  363 214.244 0.782912 -4.72542
  364 214.267 0.763194 4.70218
  365 2.69894 -52.4354 6.30416
  366 243.299 18.9156 -19.2927
  367 58.9523 2.55389 0.873021
  368 58.9447 2.55199 -0.872751
  369 163.481 1.61644 -14.1354
  370 163.593 1.51660 14.1428
  371 176.903 1.90149 -8.63475
  372 176.945 1.85724 8.61598
  373 -4.80315 2.20890 2.94107
  374 -4.83055 2.20879 -2.93958
  375 100.029 5.55953 -22.2849
  376 100.080 5.61424 22.5144
  377 211.080 0.125638 1.15638
  378 211.042 0.126659 -1.15753
  379 117.672 6.95928 -11.0922
  380 117.726 6.90826 11.1360
  381 136.784 2.66695 2.79680
  382 136.767 2.67365 -2.79812
  383 -6.56563 -1.20014 5.21856
  384 -6.56431 -1.20298 -5.21798
  385 -1.55083 -1.10486 -1.49994
  386 -1.55164 -1.10555 1.50230
  387 280.623 -36.8362 17.8026
  388 -3.74153 -8.95591 14.3605
  389 -3.71740 -9.02806 -14.3584
  390 44.0832 3.39525 -1.29874
  391 44.0949 3.39779 1.30139
  392 -1.40189 -6.96370 5.23640
  393 -1.41730 -6.95135 -5.23651
  394 16.3051 8.06650 7.39881
  395 16.2703 8.07850 -7.39272
  396 229.574 -0.712513 6.19879
  397 229.545 -0.621539 -6.32817
  398 -0.690032 -13.9886 17.4681
  399 -18.9083 -0.363875 8.08616
  400 -18.9184 -0.365252 -8.09469
  401 -0.762230 -14.7495 -17.2687
  402 215.868 0.292832 3.00436
  403 215.836 0.298783 -3.01278
  404 -2.61651 4.58784 16.3162
  405 -2.67861 4.60481 -16.3364
  406 158.422 2.85161 -5.65413
  407 158.449 2.83337 5.64763
  408 243.870 -10.5099 -6.25851
  409 244.836 -8.42526 4.80380
  410 -0.520960 -25.4197 -10.6363
  411 21.0213 7.65262 -5.79471
  412 21.1948 7.55791 5.78308
  413 238.520 15.8333 12.1659
  414 136.719 -8.68488 -62.2190
  415 140.515 -11.2847 65.2544
  416 7.20955 7.58265 10.9185
  417 7.16562 7.59943 -10.9196
  418 100.701 3.32392 -1.28039
  419 100.707 3.31897 1.28103
  420 97.6399 11.4487 99.3601
  421 39.5931 9.80699 -3.36322
  422 39.6226 9.79424 3.38292
  423 2.36285 -24.9076 12.1564
  424 -0.311127 -41.4076 -9.30499
  425 15.2240 9.19269 10.3485
  426 15.1703 9.21938 -10.3505
  427 18.6489 5.62655 -4.63387
  428 18.6729 5.62406 4.63896
  429 -7.20954 -0.524869 -17.9005
  430 -7.17523 -0.534909 17.8758
  431 47.6829 9.23292 -7.97872
  432 47.4856 9.38240 8.09617
  433 244.008 -8.20314 -25.7005
  434 6.45801 -3.02611 14.3624
  435 6.23486 -2.94944 -14.4366
  436 177.523 -7.52986 -21.0279
  437 178.300 -8.09598 20.9777
  438 -45.2200 0.383664 -4.81242
  439 -45.1826 0.382568 4.80865
  440 0.00571565 -40.5761 8.34720
  441 -0.299660 -25.7295 9.46163
  442 -18.4866 1.13001 13.7379
  443 -18.5133 1.13038 -13.7541
  444 127.222 1.61195 -0.494083
  445 127.235 1.60955 0.493662
  446 -3.87915 -6.12135 9.70610
  447 -3.88450 -6.13405 -9.69420
  448 78.1671 3.34961 -32.6051
  449 78.0326 3.72704 33.0254
  450 0.654664 -49.5153 -9.36513
  451 448.810 16.7044 0.493097
  452 1.19895 -59.1414 -5.78127
  453 -53.9856 0.0632490 -1.82307
  454 -53.9449 0.0633281 1.82324
  455 -20.9272 2.86430 11.4015
  456 -20.9645 2.87036 -11.4117
  457 -23.8055 0.329805 8.14405
  458 -23.8213 0.329922 -8.15291
  459 85.7948 9.30444 -6.64515
  460 85.8075 9.29426 6.69392
  461 130.899 5.72630 -8.59448
  462 130.945 5.68319 8.60761
  463 -2.41257 -8.54309 18.0239
  464 -2.41500 -8.48574 -18.0969
  465 226.025 3.22609 -32.4768
  466 15.0201 -4.98031 -3.76911
  467 14.4999 -5.10581 4.03560
  468 3.49281 -54.0503 0.245425
  469 2.20412 -62.4250 -1.81012
  470 -7.03837 -3.17417 9.99916
  471 -7.03994 -3.18487 -10.0018
  472 47.4877 -8.36906 -50.5663
  473 353.517 -4.08387 -31.4075
  474 78.0818 5.59727 1.59377
  475 78.0800 5.60521 -1.58663
  476 113.846 0.924613 -31.6068
  477 114.140 0.885948 32.1233
  478 32.6685 11.7844 4.64303
  479 32.6131 11.8208 -4.62448
  480 102.722 7.91567 -16.2075
  481 102.785 7.86645 16.3437
  482 3.31987 1.72056 16.7155
  483 3.54803 1.83558 -16.6936
  484 -47.7045 0.740210 -3.62137
  485 -47.6643 0.739611 3.62033
  486 229.123 -27.3042 -16.3991
  487 182.833 0.436533 -0.980288
  488 182.862 0.435681 0.979989
  489 8.20539 1.56845 -1.33121
  490 8.22796 1.56947 1.33224
  491 -12.6116 4.30263 10.7697
  492 -12.6503 4.31086 -10.7757
  493 -27.7440 1.74012 -4.05802
  494 -27.7092 1.73915 4.05835
  495 78.0441 8.16246 -2.60818
  496 78.0482 8.15215 2.62750
  497 -10.1438 3.59825 14.9469
  498 -10.1867 3.60788 -14.9644
  499 209.950 -5.68755 -11.1377
  500 210.292 -5.99879 10.9392
  501 136.448 1.64769 -20.9496
  502 136.258 1.53449 21.1398
  503 49.8283 2.81184 -0.770945
  504 49.8384 2.81413 0.772111
  505 0.463472 -25.5527 -14.8662
  506 245.527 -9.23157 21.1541
  507 3.15245 -17.2311 -13.7632
  508 68.5684 11.2726 6.58681
  509 68.5994 11.2474 -6.50334
  510 226.603 -25.5518 16.1512
  511 16.6833 -27.0431 25.9763
  512 270.746 -36.7881 -33.0595
  513 183.898 1.12706 10.3755
  514 183.828 1.20974 -10.4009
  515 0.416288 -21.9191 15.4686
  516 -3.59200 -1.07905 -2.77619
  517 -3.59395 -1.07872 2.77850
  518 20.9932 1.53221 -0.434694
  519 21.0119 1.53343 0.435133
  520 -0.630018 -14.3217 6.19704
  521 -0.571632 -14.2534 -6.22764
  522 151.448 1.99173 2.26155
  523 151.428 1.99542 -2.26294
  524 430.570 73.5730 28.8136
  525 17.0943 -12.3136 -4.14312
  526 13.2638 -16.0923 1.38145
  527 -5.53166 3.42848 -5.58062
  528 -5.50092 3.42576 5.58186
  529 -37.2431 0.592282 4.91504
  530 -37.2688 0.592937 -4.92031
  531 0.362078 -46.3413 9.27766
  532 -53.3110 0.521195 0.555234
  533 -53.3504 0.521158 -0.554945
  534 45.7350 -5.41460 -36.8514
  535 44.6908 -4.56406 38.3634
  536 41.7812 6.81906 -11.8339
  537 41.4651 7.02154 11.9400
  538 -10.0639 -2.16168 13.7530
  539 -10.0765 -2.16960 -13.7702
  540 40.8277 4.18909 1.41308
  541 40.8147 4.18690 -1.40919
  542 -23.2093 1.17470 1.83884
  543 -23.2412 1.17453 -1.83800
  544 48.4731 7.62598 1.72369
  545 48.4593 7.62621 -1.70986
  546 -1.00242 -3.23011 2.36976
  547 -1.00575 -3.22694 -2.36920
  548 17.2998 7.44781 9.50297
  549 17.1855 7.55931 -9.53322
  550 13.9838 1.71619 8.53296
  551 13.7807 1.69637 -8.64106
  552 186.755 1.65408 4.38905
  553 186.726 1.66311 -4.39596
  554 164.643 2.62868 6.92811
  555 164.609 2.65651 -6.93805
  556 -0.170322 -38.8626 -5.76973
  557 114.425 6.29173 -6.44526
  558 114.452 6.26603 6.45776
  559 114.905 3.19597 -2.30113
  560 114.917 3.18791 2.30179
  561 -17.2445 0.760503 -0.0631647
  562 -17.2151 0.761005 0.0634683
  563 191.895 10.8190 -6.24816
  564 259.218 -33.9946 -11.0410
  565 209.059 9.39232 24.7776
  566 1.63360 -33.9584 -11.1240
  567 -12.4472 3.76404 -7.22815
  568 -12.4130 3.75985 7.22760
  569 1.67496 -19.8438 14.7702
  570 -11.7423 0.235975 15.8673
  571 -11.7695 0.235578 -15.8864
  572 329.774 31.8082 -1.99596
  573 74.1142 3.97071 -0.574221
  574 74.1127 3.96582 0.577082
  575 507.799 42.5265 -42.8466
  576 -2.76194 -2.18074 18.6510
  577 -2.60079 -2.05020 -18.6693
  578 274.021 -25.5815 13.0498
  579 221.364 0.415153 -5.27883
  580 221.380 0.383524 5.23949
  581 99.8196 -1.08862 -46.1735
  582 101.063 -1.37655 46.9593
  583 -5.78467 -5.57492 15.9464
  584 -5.78891 -5.60185 -15.9842
  585 51.9331 3.65050 23.7068
  586 52.3701 3.23821 -23.4760
  587 -43.7497 0.513747 -4.66384
  588 -43.7148 0.512948 4.65959
  589 323.231 25.2862 22.2773
  590 60.2439 6.08080 -0.269813
  591 60.2498 6.08511 0.277303
  592 71.2686 8.79824 -16.0350
  593 71.1849 8.90673 16.2383
  594 199.421 -0.0785774 -10.2092
  595 199.509 -0.188306 10.1651
  596 -0.941079 -20.5065 -14.3855
  597 218.220 -0.115621 1.56890
  598 218.180 -0.114222 -1.57063
  599 -32.9335 0.759802 -0.759762
  600 -32.8995 0.760038 0.760302
  601 -57.1353 -0.333489 0.0384429
  602 -57.1753 -0.333699 -0.0383195
  603 4.44971 -31.6945 -5.80054
  604 -2.07501 -13.2436 12.2429
  605 -2.18844 -12.5386 -12.3251
  606 -25.0491 1.51467 11.4825
  607 -25.0789 1.51725 -11.4952
  608 151.113 4.17857 8.68720
  609 151.070 4.22162 -8.69051
  610 110.841 1.93516 0.556116
  611 110.834 1.93739 -0.556147
  612 24.4510 -8.57551 14.4498
  613 25.2692 -8.04574 -14.2952
  614 -0.787719 -9.97484 5.22463
  615 -0.811088 -9.94192 -5.24154
  616 261.471 12.8544 107.631
  617 -12.8637 -0.407288 4.85442
  618 -12.8629 -0.409018 -4.85771
  619 4.38924 -19.3232 -11.3052
  620 108.295 4.83587 -3.20176
  621 108.308 4.82418 3.20486
  622 52.2923 11.2525 -4.48133
  623 52.1996 11.3193 4.56524
  624 0.531204 -70.5048 4.03274
  625 38.9559 11.1926 3.09248
  626 38.9171 11.2153 -3.06887
  627 -5.32701 4.67455 8.67156
  628 -5.36222 4.68121 -8.67255
  629 -0.311776 -34.3470 7.88663
  630 -56.6339 0.101409 -1.80491
  631 -56.5921 0.101349 1.80492
  632 70.6482 2.36437 0.0152361
  633 70.6519 2.36747 -0.0142093
  634 182.008 0.886231 2.87565
  635 181.980 0.890819 -2.87881
  636 159.464 -12.8889 82.1661
  637 128.129 3.70922 -5.10311
  638 128.151 3.69062 5.10478
  639 1.74475 -3.11137 17.4338
  640 2.19413 -1.94947 -17.4273
  641 205.625 -22.3891 -66.2757
  642 493.000 17.2374 -17.8452
  643 -51.7375 0.0633146 -3.25418
  644 -51.6975 0.0628103 3.25220
  645 10.8960 2.97900 -2.80391
  646 10.9187 2.97933 2.80612
  647 -0.990953 -21.6479 12.6646
  648 277.840 15.3645 -31.1979
  649 215.864 -0.227724 0.259213
  650 215.822 -0.227492 -0.259262
  651 -13.9219 -0.793262 -11.3416
  652 -13.9102 -0.790196 11.3296
  653 -0.0352646 -48.9506 -7.63819
  654 219.635 -0.269340 0.600267
  655 219.593 -0.269000 -0.600470
  656 18.8563 7.08977 6.31751
  657 18.8273 7.09674 -6.31085
  658 165.253 -14.9457 -43.2028
  659 168.367 -14.9020 43.7165
  660 244.170 -1.40272 3.52122
  661 244.269 -1.38341 -3.69488
  662 1.05721 -62.0723 6.14013
  663 -14.7514 0.625033 -1.08352
  664 -14.7224 0.625623 1.08408
  665 79.0841 1.82097 -77.4343
  666 73.5843 2.16307 0.501235
  667 73.5877 2.16518 -0.500877
  668 35.4111 3.10863 0.750110
  669 35.3965 3.10674 -0.748107
  670 42.4349 5.17255 -1.24760
  671 42.4478 5.17468 1.25370
  672 141.156 4.39033 -13.4235
  673 141.247 4.31246 13.4551
  674 36.5689 10.8353 1.59808
  675 36.4655 10.9110 -1.56790
  676 -26.6734 2.00131 -6.75451
  677 -26.6370 1.99831 6.75238
  678 -30.7181 2.10919 -7.60638
  679 -30.6811 2.10588 7.60199
  680 250.452 -3.71119 -1.16363
  681 0.0813182 -10.5611 -17.6523
  682 250.955 -3.89404 0.776482
  683 316.087 25.2376 0.722215
  684 -31.5495 0.142904 5.57630
  685 -31.5693 0.142997 -5.58260
  686 31.7699 8.98439 -0.582584
  687 31.5453 9.10499 0.620974
  688 -60.9126 0.0927662 -0.689525
  689 -60.8705 0.0928291 0.689787
  690 0.253758 -9.55543 17.7126
  691 -19.8823 0.238383 12.0111
  692 -19.9040 0.238065 -12.0248
  693 274.429 -24.0623 -14.1418
  694 41.9081 1.48978 -0.193613
  695 41.8955 1.48814 0.194127
  696 8.66463 4.26325 4.53883
  697 8.63897 4.26472 -4.53564
  698 143.692 -6.91048 -35.9595
  699 144.840 -7.18205 36.7013
  700 513.618 35.9929 39.2527
  701 9.41888 -50.1465 -15.2146
  702 -3.77892 -7.88859 17.0980
  703 -3.78756 -7.91731 -17.1321
  704 29.2880 7.08365 -3.70424
  705 29.3095 7.08086 3.71259
  706 225.744 -0.210415 -1.60736
  707 225.783 -0.211963 1.60442
  708 105.810 2.32503 0.872860
  709 105.803 2.32895 -0.872779
  710 8.07415 7.74105 13.0838
  711 8.02268 7.76535 -13.0934
  712 4.03155 2.27454 1.98250
  713 4.00753 2.27390 -1.98120
  714 -6.70234 1.34713 17.6587
  715 -6.74460 1.34977 -17.6880
  716 184.815 0.198500 1.19436
  717 184.786 0.200027 -1.19535
  718 159.385 1.84348 3.25340
  719 159.363 1.84939 -3.25590
  720 20.7244 -15.9976 17.6235
  721 21.3615 -16.9883 -16.9813
  722 -12.8586 2.63398 15.4063
  723 -12.8963 2.63854 -15.4262
  724 6.31765 -16.1694 9.17007
  725 0.00719028 4.54985 16.5041
  726 -0.0584513 4.56535 -16.5149
  727 -36.4013 1.09537 -4.53062
  728 -36.3639 1.09421 4.52977
  729 26.7058 9.13488 6.03801
  730 26.6704 9.14860 -6.02571
  731 246.553 -7.62037 -14.4999
  732 233.671 -20.6462 -4.67187
  733 -3.83115 -7.82267 12.0275
  734 -3.82530 -7.85778 -12.0106
  735 89.3682 -2.02660 -54.5395
  736 86.9788 -0.0342956 55.1379
  737 54.0045 10.3407 -7.46357
  738 53.8775 10.4439 7.58219
  739 4.51068 -9.58036 14.4999
  740 -0.348211 -25.3448 -6.82881
  741 114.283 6.68697 -12.3343
  742 114.350 6.63699 12.4027
  743 0.311070 -50.0073 6.37160
  744 67.5671 9.84257 -2.62646
  745 67.5596 9.84077 2.66126
  746 236.841 -0.0710723 -4.00925
  747 236.822 -0.102457 3.94455
  748 4.51091 -69.6711 0.690180
  749 105.132 8.32618 9.17631
  750 105.096 8.35906 -9.13362
  751 27.8083 9.82040 -4.15516
  752 27.9482 9.71633 4.15658
  753 -42.9431 0.286237 -3.91704
  754 -42.9126 0.285826 3.91284
  755 117.210 2.54477 -2.05887
  756 117.221 2.53933 2.05885
  757 71.4619 10.7064 -5.43799
  758 71.4484 10.7136 5.49979
  759 -0.297260 6.37279 12.9056
  760 -0.343100 6.38884 -12.9127
  761 234.401 -17.6267 1.84656
  762 -37.7457 0.901119 3.47056
  763 -37.7826 0.901461 -3.47044
  764 512.735 95.3473 -67.4932
  765 -15.1396 1.61020 3.72945
  766 -15.1703 1.61035 -3.72843
  767 199.960 0.902597 7.27755
  768 199.927 0.942885 -7.30915
  769 371.309 24.0609 0.583609
  770 227.327 -0.502550 -3.06438
  771 227.356 -0.508390 3.05392
  772 144.026 2.58468 4.04388
  773 144.006 2.59458 -4.04615
  774 215.843 -25.9456 60.3511
  775 92.6804 7.35469 -3.11816
  776 92.6924 7.34041 3.13077
  777 2.05488 -38.6883 8.33911
  778 247.961 -32.1558 18.6782
  779 150.295 0.867172 0.705499
  780 150.275 0.868813 -0.705753
  781 198.164 0.345085 0.377893
  782 198.129 0.345422 -0.378016
  783 -0.916568 -20.1608 -11.8313
  784 1.14735 -34.8048 11.8476
  785 87.5671 10.0165 12.7540
  786 87.5535 10.0197 -12.6342
  787 509.637 5.50694 4.24348
  788 152.081 1.67078 -16.8855
  789 152.203 1.57732 16.9245
  790 -32.3264 1.07548 8.64592
  791 -32.3610 1.07805 -8.65353
  792 6.22082 -28.8825 3.33125
  793 4.06372 -65.2625 -3.57008
  794 348.773 44.8070 -3.17242
  795 -0.312694 -25.2629 6.16130
  796 6.51498 4.75835 15.0243
  797 6.49631 4.75910 -15.0808
  798 45.4066 9.48283 2.15773
  799 45.3865 9.48964 -2.13906
  800 232.878 -10.5619 -2.99625
  801 233.233 -10.4650 2.12251
  802 276.307 33.5692 -101.741
  803 -38.9133 0.522817 -1.66209
  804 -38.8769 0.522917 1.66265
  805 -17.6679 -0.0806935 4.58422
  806 -17.6705 -0.0813887 -4.58851
  807 16.2769 0.533699 5.44478
  808 15.9304 0.513052 -5.46827
  809 175.917 -0.640511 15.2352
  810 175.779 -0.476175 -15.2141
  811 88.8505 2.87798 -0.341774
  812 88.8528 2.87412 0.342512
  813 284.708 -5.94535 28.8209
  814 28.7373 5.12524 -3.28198
  815 28.7562 5.12532 3.28769
  816 27.1350 2.90886 -3.26688
  817 26.8888 3.04951 3.34491
  818 -0.192215 -20.2024 -16.0886
  819 406.205 57.4711 54.0043
  820 -59.2819 0.0871429 -1.78869
  821 -59.2390 0.0870339 1.78842
  822 -0.0884889 -61.1335 6.07981
  823 3.97256 -9.45238 -14.6384
  824 -8.74438 -0.544036 3.39327
  825 -8.73998 -0.545316 -3.39398
  826 322.480 16.5314 -21.4022
  827 82.4897 8.68795 -3.90479
  828 82.4979 8.67647 3.93445
  829 221.137 -2.95317 -7.64506
  830 221.316 -2.99650 7.50436
  831 -56.5317 0.454580 2.35096
  832 -56.5739 0.454953 -2.35199
  833 -0.390457 -0.405222 -0.327073
  834 -0.391236 -0.405960 0.328355
  835 0.201344 -62.5531 -5.97375
  836 0.293912 -66.2165 -5.55588
  837 -62.8927 0.634880 0.375567
  838 -62.9344 0.634938 -0.375452
  839 32.7032 -13.3526 -35.1554
  840 136.422 2.14690 -1.12572
  841 136.437 2.14404 1.12498
  842 -5.90221 1.34814 0.478251
  843 -5.92854 1.34756 -0.478127
  844 204.034 0.840065 -4.85123
  845 204.062 0.826016 4.83626
  846 -23.2550 0.156771 4.36757
  847 -23.2626 0.156810 -4.37210
  848 122.039 -1.32534 -82.6808
  849 211.975 -18.2755 16.2321
  850 166.746 1.14854 -1.46691
  851 166.770 1.14641 1.46570
  852 209.955 -19.9118 -18.2322
  853 64.4587 7.71431 -0.622964
  854 64.4539 7.70882 0.639406
  855 89.6753 6.43161 -2.29703
  856 89.6828 6.42067 2.30508
  857 246.678 -5.33198 11.0543
  858 14.3389 8.74757 11.0242
  859 14.2794 8.78193 -11.0386
  860 14.1514 1.38020 0.964927
  861 14.1306 1.37904 -0.964235
  862 115.630 1.98957 0.926579
  863 115.620 1.99256 -0.926756
  864 306.293 -30.7327 32.1465
  865 191.110 1.44584 -6.30607
  866 191.143 1.41954 6.28594
  867 1.49419 3.11205 3.60469
  868 1.46789 3.11247 -3.60259
  869 191.949 0.0803080 1.75987
  870 191.917 0.0821435 -1.76144
  871 -37.0315 0.341945 -0.989794
  872 -36.9967 0.342249 0.989751
  873 -0.175189 -19.3090 5.48137
  874 -0.228313 -19.6112 -5.52477
  875 227.666 -3.54808 25.9917
  876 -14.5551 3.52667 13.1196
  877 -14.5945 3.53505 -13.1322
  878 -0.0815597 -31.8781 -6.07909
  879 89.7324 3.85341 -1.13580
  880 89.7356 3.84823 1.13744
  881 166.142 -8.48615 -27.3352
  882 167.476 -9.39593 27.6107
  883 -7.39101 -2.67858 -17.1901
  884 -7.36188 -2.68072 17.1593
  885 8.27943 7.89875 12.0480
  886 8.23065 7.91968 -12.0518
  887 0.811925 -73.7113 4.38203
  888 1.68488 6.04489 15.1740
  889 1.62975 6.06280 -15.1855
  890 153.267 -2.66181 -24.2608
  891 152.948 -2.80500 24.4570
  892 265.306 13.6913 32.1803
  893 59.9726 7.21821 -0.100764
  894 59.9793 7.22284 0.112168
  895 196.430 1.52672 -4.74070
  896 196.459 1.51531 4.73041
  897 -7.81335 -3.46019 15.0316
  898 -7.82586 -3.47209 -15.0558
  899 0.662909 -76.4039 -3.14032
  900 -12.0072 -0.874438 14.7789
  901 -12.0270 -0.875774 -14.7973
  902 6.49929 7.23568 -9.54347
  903 6.53804 7.22253 9.54418
  904 -0.606690 -4.81769 2.67575
  905 -0.613388 -4.81251 -2.67959
  906 15.6970 8.14677 -8.70190
  907 15.7379 8.13052 8.70689
  908 3.25608 -6.39394 16.2064
  909 2.80560 -5.95541 -16.9685
  910 189.543 -5.17944 15.4527
  911 189.077 -4.90234 -15.5650
  912 -64.0252 0.219596 -0.551111
  913 -63.9827 0.219642 0.551284
  914 -5.35454 -0.490696 2.54198
  915 -5.34936 -0.491456 -2.54098
  916 0.263689 -45.3880 -5.56716
  917 -5.82488 -2.51724 -7.26675
  918 -5.82380 -2.51152 7.26830
  919 -25.0095 2.07229 11.1102
  920 -25.0439 2.07663 -11.1214
  921 57.9209 11.5143 -2.52300
  922 57.8855 11.5417 2.57563
  923 248.609 20.0629 -5.55943
  924 -3.74989 5.71924 11.7366
  925 -3.79134 5.73122 -11.7420
  926 92.1045 5.66280 -25.0911
  927 92.1309 5.74652 25.4042
  928 -12.1041 4.04356 9.47790
  929 -12.1411 4.05081 -9.48175
  930 306.935 -17.2285 -8.05612
  931 178.935 7.15005 13.8630
  932 219.936 -3.10502 -23.5134
  933 165.915 2.66328 -10.3248
  934 165.976 2.60154 10.3148
  935 -18.8293 2.50828 -4.79236
  936 -18.7963 2.50646 4.79278
  937 -40.4862 0.753450 5.61012
  938 -40.5239 0.754997 -5.61388
  939 -2.42096 -7.77774 -8.44210
  940 -2.40518 -7.78612 8.45874
  941 57.5343 4.24267 -0.127110
  942 57.5413 4.24625 0.130690
  943 -19.0105 1.89029 13.6903
  944 -19.0417 1.89262 -13.7069
  945 200.392 0.166935 2.33708
  946 200.358 0.169129 -2.33934
  947 -1.54923 -17.1756 12.8741
  948 6.31402 6.69889 -8.25232
  949 6.34868 6.68959 8.25435
  950 8.95972 4.78074 5.55872
  951 8.93225 4.78386 -5.55539
  952 32.8858 3.55596 -1.62893
  953 32.9012 3.55753 1.63153
  954 377.453 43.6219 -5.66466
  955 -1.45592 -0.408309 -0.994245
  956 -1.45905 -0.408347 0.996094
  957 12.2363 3.07928 -10.5384
  958 12.4467 2.96812 10.5090
  959 133.278 5.83472 -10.6496
  960 133.337 5.77936 10.6713
  961 15.9115 5.97351 -5.39115
  962 15.9383 5.96946 5.39631
  963 35.9922 -14.5474 47.5501
  964 253.913 -1.70746 -1.87661
  965 253.453 -1.64138 1.62235
  966 43.5879 -7.69987 41.0072
  967 45.5040 2.44960 0.0539265
  968 45.4925 2.44780 -0.0530513
  969 120.835 -6.05262 -71.3794
  970 91.1332 2.08936 0.526498
  971 91.1314 2.09152 -0.526313
  972 11.2243 -13.3515 3.73771
  973 12.4065 -11.3994 -2.80035
  974 225.528 -0.143479 0.810233
  975 225.484 -0.143113 -0.810518
  976 -18.5980 0.0340697 10.8664
  977 -18.6138 0.0333907 -10.8781
  978 403.477 50.0318 20.3433
  979 -1.83643 -13.0582 -17.0995
  980 1.80347 -67.1130 6.03030
  981 -0.377257 -20.6398 15.8183
  982 232.946 -0.0292021 -3.12770
  983 232.963 -0.0377866 3.11041
  984 -3.08577 -5.63238 7.28271
  985 -3.09346 -5.63137 -7.27445
  986 286.881 29.2777 -19.0055
  987 517.590 4.93533 -2.85861
  988 -0.752890 -1.11331 -1.08210
  989 -0.752135 -1.11566 1.08366
  990 133.891 2.05075 -2.25274
  991 133.906 2.04623 2.25189
  992 -1.89677 -12.5732 17.2008
  993 187.134 1.24309 9.29050
  994 187.086 1.30346 -9.31795
  995 245.549 -16.6130 -11.4053
  996 -8.63328 -1.83169 8.23879
  997 -8.63494 -1.83802 -8.24182
  998 3.76812 -16.9206 12.7549
  999 -0.434705 -30.8826 12.4079
  1000 -0.0337804 -31.6176 6.06575
  1001 247.490 16.7547 -1.35301
  1002 285.773 31.2976 11.5173
  1003 205.544 -24.3454 -32.8009
  1004 2.80170 -30.8096 10.3852
  1005 3.59033 -44.6092 3.05012
  1006 55.8186 1.85511 0.241509
  1007 55.8101 1.85332 -0.241331
  1008 -2.29200 -2.60994 -3.45380
  1009 -2.29028 -2.61091 3.45684
  1010 1.82984 -25.2973 -13.5652
  1011 166.524 0.620108 -0.537816
  1012 166.548 0.618934 0.537448
  1013 32.2968 -1.54285 -14.4367
  1014 30.8844 -1.46149 14.2991
  1015 -3.71527 5.01663 15.2111
  1016 -3.76717 5.03225 -15.2275
  1017 -20.4811 3.06149 -9.51044
  1018 -20.4439 3.05596 9.50492
  1019 125.405 2.08800 -24.7659
  1020 125.504 2.18126 25.0543
  1021 89.7730 8.09535 -16.8467
  1022 89.7805 8.08770 17.0300
  1023 97.8545 7.64618 -5.35108
  1024 97.8721 7.62511 5.37004
  1025 256.344 -7.94887 -31.0332
  1026 -7.32212 3.04407 16.5188
  1027 -7.36927 3.05142 -16.5448
  1028 181.916 0.172887 12.6325
  1029 181.818 0.297789 -12.6510
  1030 -1.38240 -9.96666 18.0491
  1031 -14.8043 -0.515447 7.97706
  1032 -14.8098 -0.517632 -7.98435
  1033 165.527 1.95260 -12.5190
  1034 165.611 1.86607 12.5142
  1035 200.872 4.48963 -22.1744
  1036 -0.296280 -30.7589 -13.0307
  1037 -2.53257 -12.1417 15.2960
  1038 -2.63517 -12.2759 -15.1629
  1039 115.922 7.29838 -8.58281
  1040 115.964 7.25961 8.61055
  1041 147.395 3.19026 5.03439
  1042 147.371 3.20469 -5.03776
  1043 245.048 -16.2230 9.98801
  1044 10.5226 1.51818 -0.272255
  1045 10.5443 1.51909 0.272452
  1046 208.002 -27.2596 35.0317
  1047 -2.79135 1.08710 1.24945
  1048 -2.81699 1.08627 -1.24879
  1049 43.6902 11.5259 1.32389
  1050 43.6397 11.5596 -1.28947
  1051 15.9912 9.04807 9.51796
  1052 15.9443 9.06948 -9.51501
  1053 2.19253 -38.2333 -8.66326
  1054 58.8874 2.71264 -0.285122
  1055 58.8943 2.71591 0.287209
  1056 173.250 5.94143 5.68108
  1057 167.864 1.70419 4.75320
  1058 167.837 1.71674 -4.75920
  1059 -1.21510 -10.3196 -18.0764
  1060 252.923 -3.18313 -5.72575
  1061 -0.400784 -1.21984 18.1302
  1062 -0.216630 -1.06214 -18.0577
  1063 231.800 -0.332400 -1.72120
  1064 231.837 -0.334329 1.71675
  1065 246.649 -0.739931 -3.00814
  1066 246.553 -0.773869 2.91459
  1067 -0.189098 -47.9478 4.58322
  1068 143.128 4.15868 -6.69625
  1069 143.155 4.13549 6.69385
  1070 175.027 1.99263 5.58805
  1071 174.998 2.00843 -5.59707
  1072 3.34194 3.84005 16.5290
  1073 3.32503 3.84457 -16.5373
  1074 381.469 26.1776 3.28647
  1075 -5.13811 -2.34474 18.4075
  1076 -5.20519 -2.29887 -18.4479
  1077 52.8601 10.8909 0.378045
  1078 52.8399 10.9008 -0.349825
  1079 -31.9851 0.720324 -1.80474
  1080 -31.9510 0.720591 1.80527
  1081 87.6586 4.58891 -28.9976
  1082 87.5619 4.84352 29.3894
  1083 24.4775 10.2020 7.62102
  1084 24.4256 10.2290 -7.61196
  1085 59.1743 6.24513 -20.8684
  1086 58.8763 6.55221 21.0836
  1087 -1.65031 -16.1183 -12.5359
  1088 210.783 2.49749 28.6893
  1089 149.180 -2.73302 93.2757
  1090 23.0273 10.3766 7.88322
  1091 22.9642 10.4144 -7.87945
  1092 89.3620 5.32141 -1.66802
  1093 89.3679 5.31219 1.67307
  1094 330.289 -1.76324 11.6354
  1095 20.2555 4.72218 5.51299
  1096 19.9977 4.79435 -5.58076
  1097 -9.85125 -2.19968 11.0030
  1098 -9.85700 -2.20900 -11.0122
  1099 -0.324359 -7.20101 2.92807
  1100 -0.336779 -7.19615 -2.93956
  1101 216.685 0.0783327 7.55383
  1102 216.638 0.166237 -7.62626
  1103 0.180055 -15.8613 16.9776
  1104 -15.1343 0.869491 -14.8599
  1105 -15.1076 0.869881 14.8423
  1106 0.0810988 -58.3234 -5.92438
  1107 -3.63381 -5.06704 18.3741
  1108 -3.62591 -4.96765 -18.3920
  1109 207.726 0.485643 -3.18219
  1110 207.759 0.480654 3.17660
  1111 213.394 -1.32411 8.97966
  1112 213.272 -1.18384 -9.05623
  1113 35.9702 7.57266 -6.02930
  1114 35.6980 7.74247 6.11354
  1115 -0.526817 -30.0411 -10.4944
  1116 281.578 -29.2652 -53.6068
  1117 365.690 43.7505 -1.81636
  1118 3.57344 -47.1573 -1.73110
  1119 12.2409 7.14230 -12.4479
  1120 12.3112 7.09877 12.4015
  1121 33.5189 11.1889 4.14431
  1122 33.4463 11.2375 -4.12451
  1123 72.2183 4.84721 0.317851
  1124 72.2196 4.85333 -0.313109
  1125 -4.80636 -6.84643 14.2744
  1126 -4.79841 -6.90835 -14.2936
  1127 -14.2185 4.19600 12.1467
  1128 -14.2579 4.20473 -12.1558
  1129 -5.51316 5.23833 14.1050
  1130 -5.55960 5.25179 -14.1176
  1131 202.848 -10.3002 -15.0036
  1132 204.194 -10.4121 14.8450
  1133 0.151424 -34.8301 -12.4515
  1134 106.867 -0.818867 -36.7930
  1135 107.070 -0.473677 37.4613
  1136 33.3344 10.4452 -4.40505
  1137 33.3696 10.4266 4.42224
  1138 109.377 41.6109 104.583
  1139 25.7782 8.48646 5.75398
  1140 25.7479 8.49591 -5.74369
  1141 278.167 -32.1407 -11.2377
  1142 103.775 3.42259 1.42773
  1143 103.767 3.42899 -1.42671
  1144 -4.76595 -4.26032 8.67172
  1145 -4.76805 -4.26949 -8.66745
  1146 -5.71061 -5.13913 11.2546
  1147 -5.70907 -5.15813 -11.2540
  1148 181.053 -19.5666 -52.4287
  1149 184.934 -21.4526 52.8388
  1150 31.0580 1.64286 0.227877
  1151 31.0737 1.64438 -0.226959
  1152 112.792 5.40811 -19.8935
  1153 112.819 5.32955 20.1135
  1154 249.544 -34.9851 39.5660
  1155 223.841 -0.398789 0.477406
  1156 223.796 -0.398496 -0.477384
  1157 -20.6419 3.16554 10.8219
  1158 -20.6796 3.17150 -10.8299
  1159 -35.1368 1.14192 -5.74842
  1160 -35.0993 1.14037 5.74680
  1161 55.4849 -3.07260 61.5678
  1162 167.341 11.6343 -11.4948
  1163 103.161 7.83542 -9.44086
  1164 103.202 7.80298 9.49892
  1165 326.508 -14.0268 57.3987
  1166 104.808 7.43436 -14.3189
  1167 104.861 7.38631 14.4203
  1168 25.0053 3.76551 -2.28851
  1169 25.0237 3.76670 2.29152
  1170 8.84744 -36.6586 4.79325
  1171 8.95782 -35.8623 -7.18673
  1172 142.579 -10.9827 -52.8559
  1173 144.627 -10.3235 52.8583
  1174 54.9442 8.68938 -14.1636
  1175 54.7196 8.88670 14.3388
  1176 253.056 -17.5776 -20.5240
  1177 -9.52246 -0.908100 16.7371
  1178 -9.55049 -0.906727 -16.7596
  1179 -0.303122 -14.2000 -17.4269
  1180 63.1251 0.176757 -38.3657
  1181 63.2887 0.401965 39.0828
  1182 -0.164741 -12.8020 3.27387
  1183 -0.140401 -12.8322 -3.31326
  1184 -61.8154 0.530919 -1.67217
  1185 -61.7716 0.530674 1.67168
  1186 202.868 0.146406 -0.850055
  1187 202.904 0.145578 0.849202
  1188 123.619 5.10350 -5.52972
  1189 123.645 5.08019 5.53506
  1190 -4.91244 -0.264750 18.4749
  1191 -4.92683 -0.193081 -18.5079
  1192 0.0288679 -51.8701 -5.11993
  1193 -52.3074 0.132367 2.64825
  1194 -52.3460 0.132697 -2.65042
  1195 38.8267 -2.89446 -26.3395
  1196 38.5238 -2.64815 27.2403
  1197 235.425 -14.4800 0.257090
  1198 65.7066 3.05783 -34.4006
  1199 65.7660 3.27299 34.7883
  1200 -28.8226 0.151240 3.98118
  1201 -28.8354 0.151162 -3.98560
  1202 0.727331 -46.0910 -8.94266
  1203 -10.0148 2.01651 -2.39339
  1204 -9.98645 2.01675 2.39451
  1205 34.1634 8.93871 4.45122
  1206 34.1354 8.94784 -4.43693
  1207 131.983 1.22744 -0.762909
  1208 131.997 1.22548 0.762812
  1209 179.043 1.23519 3.62128
  1210 179.016 1.24295 -3.62624
  1211 9.27830 -2.04278 10.8235
  1212 9.13933 -2.20321 -10.9902
  1213 1.53799 -26.7081 13.4998
  1214 320.187 42.3627 15.3578
  1215 -9.89664 -0.790738 6.24394
  1216 -9.89652 -0.793869 -6.24651
  1217 1.20408 -25.0014 -14.0498
  1218 -0.962934 -15.0718 9.15698
  1219 -0.911905 -14.9456 -9.49073
  1220 254.197 -2.73498 5.09849
  1221 0.232825 -59.4632 5.25963
  1222 1.67977 -18.4867 -15.6580
  1223 28.6448 1.34660 0.373235
  1224 28.6283 1.34528 -0.373086
  1225 -2.61427 -10.9764 16.8829
  1226 -29.1480 1.69309 -4.94671
  1227 -29.1123 1.69177 4.94637
  1228 527.136 9.39545 14.5883
  1229 -15.0713 1.64167 15.0792
  1230 -15.1030 1.64290 -15.0981
  1231 120.727 5.13776 -18.0043
  1232 120.847 5.03621 18.1197
  1233 7.55652 -13.1200 -7.48535
  1234 115.089 6.45570 -6.99444
  1235 115.122 6.42447 7.01252
  1236 4.59472 -37.5578 -2.96135
  1237 -2.62042 -10.9929 -16.8469
  1238 -21.0170 0.969746 3.03905
  1239 -21.0488 0.969561 -3.03826
  1240 -9.20592 0.522391 -17.1835
  1241 -9.17214 0.522937 17.1626
  1242 245.226 19.3974 23.0979
  1243 140.064 1.90298 -19.2658
  1244 140.243 1.84507 19.3148
  1245 -65.0351 0.178634 -0.653222
  1246 -64.9915 0.178625 0.653399
  1247 126.611 3.62143 -3.77833
  1248 126.627 3.61139 3.77812
  1249 -67.0506 -1.09463 -0.169999
  1250 -67.0932 -1.09495 0.170076
  1251 189.132 -13.5824 -22.0392
  1252 -30.3570 0.501478 8.50006
  1253 -30.3833 0.502159 -8.50963
  1254 191.107 -14.3346 21.8371
  1255 128.619 5.25454 -7.80659
  1256 128.654 5.22082 7.81408
  1257 14.7486 -40.9407 -26.1991
  1258 0.268224 -42.0626 -10.7041
  1259 -0.940200 -17.7514 15.8448
  1260 411.983 62.0225 -53.3532
  1261 -0.106958 -39.3016 10.3731
  1262 427.510 40.1563 -23.9005
  1263 -0.201744 -72.6980 -5.00940
  1264 18.8620 2.39590 -0.950531
  1265 18.8815 2.39711 0.952143
  1266 -0.184791 -16.4524 3.43286
  1267 -0.150170 -16.5383 -3.42215
  1268 70.9223 2.31437 -0.126780
  1269 70.9262 2.31679 0.127290
  1270 256.106 -20.1314 19.5923
  1271 3.63201 2.20397 -2.77611
  1272 3.65653 2.20445 2.77761
  1273 1.48378 -80.8900 2.76532
  1274 0.942324 -85.9532 -2.72054
  1275 235.553 -30.2579 -23.2606
  1276 -0.667449 -21.5949 10.1526
  1277 243.889 15.0354 -28.6752
  1278 -0.738504 -28.4620 9.99626
  1279 0.481277 -78.5709 -3.98488
  1280 117.880 3.92968 -4.02341
  1281 117.897 3.91343 4.02632
  1282 -0.0820211 -42.2388 4.51651
  1283 -0.115556 -35.2686 -10.2165
  1284 569.350 95.0212 83.2338
  1285 224.922 0.240282 0.374237
  1286 224.876 0.240234 -0.374123
  1287 5.44611 -0.0430804 15.1512
  1288 5.26678 0.196594 -15.2115
  1289 -3.92980 3.06181 17.4859
  1290 -4.00519 3.07046 -17.5170
  1291 236.700 -4.55363 -16.7456
  1292 220.306 -9.11493 -8.35174
  1293 220.054 -10.4053 8.39830
  1294 31.4562 4.23258 2.38185
  1295 31.4394 4.23110 -2.37746
  1296 -36.9119 1.00017 -6.75282
  1297 -36.8754 0.998201 6.74740
  1298 245.857 -35.2942 -33.4316
  1299 -1.84892 -4.44629 4.52141
  1300 -1.85573 -4.44235 -4.51895
  1301 258.721 -11.8427 29.2602
  1302 -2.77349 -10.3672 12.3217
  1303 -2.74359 -10.4045 -12.2648
  1304 -24.4272 1.69014 3.60431
  1305 -24.4606 1.69068 -3.60370
  1306 38.0605 3.38133 -12.9922
  1307 37.6696 3.61085 12.9975
  1308 60.0506 2.19950 0.448709
  1309 60.0435 2.19706 -0.447981
  1310 -25.7403 2.53941 10.6199
  1311 -25.7761 2.54392 -10.6289
  1312 210.707 0.729718 0.582042
  1313 210.667 0.729619 -0.581920
  1314 114.036 -2.79617 70.7439
  1315 171.280 0.780436 1.27418
  1316 171.254 0.781836 -1.27483
  1317 112.109 2.27709 -27.9370
  1318 112.153 2.13892 28.2078
  1319 1.05086 -46.8264 -6.75714
  1320 42.7833 10.1421 -4.78368
  1321 42.6059 10.2698 4.87193
  1322 -0.412371 -0.389113 -0.551699
  1323 -0.414430 -0.389284 0.553298
  1324 145.605 4.93317 10.2924
  1325 145.551 4.99049 -10.2874
  1326 71.3639 6.40767 0.984154
  1327 71.3647 6.41500 -0.974737
  1328 105.983 6.51299 -4.58521
  1329 106.003 6.49281 4.59652
  1330 139.918 1.33408 -1.27250
  1331 139.934 1.33206 1.27217
  1332 -4.47564 -2.18040 -5.11033
  1333 -4.47536 -2.17824 5.11341
  1334 -44.0511 0.142660 2.14443
  1335 -44.0893 0.142669 -2.14408
  1336 -7.70421 -3.57171 -12.6052
  1337 -7.69991 -3.55489 12.5940
  1338 -25.9232 0.582268 0.922086
  1339 -25.9552 0.581798 -0.921797
  1340 -67.6779 0.641820 0.376551
  1341 -67.7210 0.641904 -0.376432
  1342 265.030 -35.3648 46.0795
  1343 187.348 -1.34742 -23.2018
</Section>

newXOutput 32

<Section columns = "stress_xx | stress_yy | stress_xy">
  1 239.330 -0.267381 0.229921
  2 239.381 -0.267536 -0.230033
  3 -75.4526 0.389916 -1.01783
  4 0.121810 0.0338696 0.214297
  5 439.905 115.087 138.188
  6 497.011 131.124 -132.176
  7 0.121348 0.0334351 -0.213685
  8 -75.4057 0.389878 1.01761
  9 238.582 -0.247480 -0.785715
  10 238.752 -0.652146 -1.28766
  11 241.018 -0.636817 -0.329151
  12 241.221 -0.587935 -1.48579
  13 241.736 -0.566436 -0.430697
  14 246.838 -0.560977 -0.610020
  15 248.544 -0.852344 -1.98954
  16 250.323 -0.362105 -1.34428
  17 251.383 0.238375 -2.59770
  18 261.696 -1.33108 -2.22736
  19 266.021 -0.995267 -2.89005
  20 270.722 -1.57374 -1.03993
  21 272.839 -2.14363 -0.543599
  22 270.343 -2.52276 3.80108
  23 260.328 -2.87387 7.85929
  24 237.344 -3.34535 16.5952
  25 200.746 1.68772 19.2415
  26 170.164 1.96164 18.0648
  27 128.076 4.54894 10.9668
  28 136.661 4.43285 0.833567
  29 112.637 13.4098 -7.06520
  30 160.691 6.04602 -19.4420
  31 187.646 1.35660 -15.9637
  32 232.248 -0.797218 -13.8074
  33 256.968 -3.48672 -9.37939
  34 269.801 -2.94515 -3.79389
  35 272.204 -2.07034 0.550506
  36 270.275 -1.55119 0.958730
  37 265.818 -1.00296 2.79450
  38 261.606 -1.35050 2.17102
  39 251.377 0.226962 2.56924
  40 250.347 -0.366420 1.33305
  41 248.585 -0.854942 1.98502
  42 246.885 -0.562311 0.607766
  43 241.785 -0.567189 0.429621
  44 241.271 -0.588613 1.48590
  45 241.070 -0.637285 0.329074
  46 238.803 -0.652495 1.28815
  47 238.633 -0.247623 0.786017
  48 225.296 0.772153 -0.285617
  49 208.191 0.519110 -0.657222
  50 186.885 -0.244600 -0.692377
  51 164.875 1.10445 -0.575974
  52 145.675 0.998710 -0.462833
  53 125.198 1.67276 -0.551425
  54 105.055 2.70681 -0.354415
  55 84.2123 2.46472 -0.700976
  56 66.9719 1.84105 -0.966628
  57 44.4085 1.29330 -1.01816
  58 21.5402 1.67728 -0.771610
  59 2.48324 1.37415 -0.745352
  60 -21.2469 0.846953 -0.688866
  61 -38.8863 -0.0609871 -1.62316
  62 -55.9588 -1.08804 -0.748901
  63 -73.2363 0.180235 0.477443
  64 -76.9236 1.32491 -0.219047
  65 -77.1302 0.599751 0.185868
  66 -74.5395 0.317453 -0.132349
  67 -75.1999 0.861505 -0.962046
  68 -73.9331 1.03876 -0.151488
  69 -69.8617 0.333573 -1.46106
  70 -70.4911 0.637977 -1.56238
  71 -68.6241 0.608567 -0.907543
  72 -63.4696 0.390704 -1.34089
  73 -60.9541 0.678338 -2.17021
  74 -57.1739 0.751633 -1.80111
  75 -50.5129 0.386176 -3.05057
  76 -46.7525 0.118442 -2.55183
  77 -40.0524 0.170575 -2.92757
  78 -34.2613 0.120172 -3.22105
  79 -29.2488 0.0372842 -2.54140
  80 -22.3345 0.145018 -2.55624
  81 -16.3883 -0.0715146 -2.72629
  82 -10.6391 -0.302500 -2.38094
  83 -6.09585 -0.264017 -1.81654
  84 -2.97795 -0.456636 -1.51197
  85 -0.468970 -0.263496 -0.532023
  86 0.0545452 -0.288902 -0.184351
  87 -0.156938 -0.137408 -0.0265621
  88 -0.411937 -0.364762 -0.464849
  89 -0.399314 -2.51403 -1.31079
  90 -0.343995 -5.67144 -1.88019
  91 -0.180467 -9.73518 -2.74933
  92 -0.0960518 -14.9770 -2.37301
  93 -0.0876933 -19.8244 -2.98883
  94 -0.370804 -25.7781 -3.38381
  95 -0.151066 -33.1040 -3.42921
  96 0.0710984 -40.4868 -3.29159
  97 0.161440 -48.4132 -3.25364
  98 0.243961 -56.5805 -3.21022
  99 0.0289299 -62.6712 -4.35457
  100 0.433863 -71.2473 -3.90530
  101 0.523009 -81.3214 -3.16118
  102 0.00503042 -85.9781 -4.20475
  103 0.741694 -93.5487 -3.93204
  104 1.78460 -103.662 -2.06486
  105 3.46664 -106.820 -3.27066
  106 2.34015 -99.1709 1.80135
  107 3.21595 -77.2000 8.96136
  108 18.3557 -49.2224 28.0164
  109 58.9117 69.2325 101.070
  110 680.172 35.3208 66.2082
  111 582.724 10.9797 24.2729
  112 563.939 4.26239 5.40674
  113 560.056 1.67962 -0.906935
  114 563.721 6.42121 -12.8292
  115 580.778 19.7056 -28.5410
  116 660.769 69.2315 -83.8595
  117 139.683 53.2807 -123.681
  118 30.3113 -48.4553 -34.7292
  119 8.85001 -84.4064 -12.5034
  120 2.41391 -94.1271 -2.01203
  121 2.77474 -102.940 1.97931
  122 0.805751 -99.6941 1.63926
  123 0.308821 -91.2195 3.39438
  124 0.323421 -85.6636 2.70241
  125 0.447663 -76.9470 4.44377
  126 -0.0221401 -71.8531 4.28331
  127 0.177773 -64.8283 3.09273
  128 0.337791 -55.8896 3.89537
  129 0.0616948 -49.5229 3.09025
  130 0.100948 -40.5527 3.89995
  131 -0.404822 -33.4985 3.34658
  132 -0.288149 -25.8016 3.28020
  133 -0.0640613 -19.7182 2.99727
  134 -0.123304 -14.8921 2.37852
  135 -0.176735 -9.70685 2.72307
  136 -0.339202 -5.66738 1.87093
  137 -0.397236 -2.51774 1.30984
  138 -0.411459 -0.368573 0.465723
  139 -0.156927 -0.139079 0.0276669
  140 0.0525394 -0.289196 0.185385
  141 -0.472836 -0.263400 0.533391
  142 -2.98411 -0.456292 1.51348
  143 -6.10436 -0.263272 1.81716
  144 -10.6465 -0.301577 2.38025
  145 -16.3917 -0.0707527 2.72395
  146 -22.3329 0.145165 2.55346
  147 -29.2404 0.0375886 2.53852
  148 -34.2467 0.120488 3.21783
  149 -40.0297 0.170475 2.92428
  150 -46.7228 0.118294 2.54886
  151 -50.4787 0.385881 3.04780
  152 -57.1338 0.751203 1.79910
  153 -60.9110 0.677891 2.16870
  154 -63.4241 0.390425 1.34008
  155 -68.5765 0.608289 0.907149
  156 -70.4429 0.637732 1.56199
  157 -69.8139 0.333464 1.46085
  158 -73.8847 1.03850 0.151689
  159 -75.1516 0.861317 0.962017
  160 -74.4919 0.317420 0.132505
  161 -77.0823 0.599648 -0.185676
  162 -76.8760 1.32463 0.219112
  163 -73.1900 0.180235 -0.477258
  164 -55.9170 -1.08759 0.748788
  165 -38.8491 -0.0605792 1.62284
  166 -21.2146 0.847423 0.688831
  167 2.50868 1.37485 0.745283
  168 21.5601 1.67833 0.771530
  169 44.4215 1.29491 1.01803
  170 66.9782 1.84286 0.966462
  171 84.2134 2.46662 0.700846
  172 105.050 2.70865 0.354258
  173 125.187 1.67463 0.551133
  174 145.658 1.00038 0.462492
  175 164.851 1.10552 0.575510
  176 186.855 -0.243660 0.691851
  177 208.152 0.519251 0.656838
  178 225.251 0.771969 0.285448
  179 61.0398 11.1958 -1.48849
  180 61.0148 11.2086 1.53080
  181 -1.63100 1.56211 18.3782
  182 -1.69492 1.55667 -18.3810
  183 140.903 -2.05632 -30.5555
  184 140.837 -2.34179 30.9004
  185 27.4211 5.81889 0.0324792
  186 27.0937 5.94845 -0.0105267
  187 19.1821 3.95710 -3.27506
  188 19.2045 3.95718 3.27837
  189 133.986 3.16352 -4.28508
  190 134.007 3.14993 4.28534
  191 -3.45957 5.54191 10.3215
  192 -3.49939 5.55193 -10.3245
  193 155.778 4.52195 -11.4297
  194 155.852 4.45309 11.4380
  195 -6.18752 -5.41413 14.2137
  196 -6.18435 -5.44415 -14.2290
  197 1.21410 -13.2533 -17.3732
  198 47.4621 1.15425 -27.3049
  199 1.52966 -14.1500 16.9905
  200 46.6945 1.56015 27.7941
  201 221.318 -31.0202 -44.5869
  202 229.294 -32.2566 42.6694
  203 78.4217 3.22827 -0.401476
  204 78.4200 3.22424 0.403228
  205 -14.3662 1.14288 -2.13664
  206 -14.3354 1.14338 2.13729
  207 -18.2659 2.67875 14.0317
  208 -18.3033 2.68451 -14.0481
  209 78.7789 7.87165 -1.58899
  210 78.7812 7.86357 1.60224
  211 23.4424 10.0373 7.70833
  212 23.3544 10.0992 -7.71857
  213 -23.8991 2.56751 -6.04860
  214 -23.8622 2.56512 6.04770
  215 179.328 0.728217 2.11405
  216 179.300 0.731398 -2.11589
  217 5.48368 -25.0802 8.05547
  218 5.96723 -22.8410 -7.28260
  219 -1.74680 -15.2430 16.1068
  220 -1.77834 -15.8055 -15.5889
  221 72.6184 10.6811 -11.4401
  222 72.5649 10.7281 11.5825
  223 -16.2344 -0.120921 13.9449
  224 -16.2557 -0.122198 -13.9612
  225 191.867 1.54674 -6.39368
  226 191.899 1.52681 6.37999
  227 206.048 -2.64302 -12.5045
  228 206.200 -2.86334 12.4300
  229 327.706 25.7493 -0.440902
  230 300.644 32.8673 21.0294
  231 297.894 -4.19852 -29.7634
  232 35.0795 8.44395 4.28523
  233 35.0548 8.45036 -4.27327
  234 1.71652 6.63741 14.3770
  235 1.66295 6.65734 -14.3873
  236 230.101 -13.9563 -7.73700
  237 228.739 -14.1368 8.46043
  238 126.673 1.70197 -1.50737
  239 126.686 1.69800 1.50705
  240 -29.1380 2.04100 9.44411
  241 -29.1762 2.04509 -9.45143
  242 -3.91538 -3.85716 -6.33724
  243 -3.91242 -3.85542 6.34191
  244 -32.8700 0.915144 3.14183
  245 -32.9071 0.915279 -3.14140
  246 103.518 8.32189 -7.22103
  247 103.543 8.29498 7.25227
  248 132.073 4.37573 -17.2092
  249 132.190 4.29216 17.2876
  250 30.6189 2.47766 -0.450900
  251 30.6361 2.47910 0.452143
  252 75.6174 -1.90678 -60.9953
  253 89.7990 0.491432 66.8239
  254 9.73206 4.34208 13.9016
  255 9.68844 4.44666 -13.9482
  256 314.499 -26.6179 -3.39989
  257 26.0362 10.3959 6.67237
  258 25.9921 10.4175 -6.66084
  259 74.0116 7.63777 -22.2205
  260 73.8837 7.84248 22.4981
  261 350.312 47.7847 -6.61301
  262 208.086 0.502590 8.65681
  263 208.036 0.572671 -8.70053
  264 -1.90687 -11.6790 -9.99047
  265 -1.85570 -11.7275 10.0313
  266 -0.442541 -27.9321 -13.8931
  267 0.848802 -32.9848 -13.0782
  268 0.432969 -32.8440 13.5867
  269 -5.39806 -4.71547 18.4316
  270 -5.41827 -4.70489 -18.4970
  271 10.7137 -27.5615 -3.31050
  272 11.5088 -25.5725 5.09939
  273 -12.0488 -1.03466 8.78165
  274 -12.0534 -1.03897 -8.78844
  275 147.111 4.65672 -7.01704
  276 147.147 4.62645 7.01618
  277 258.694 -27.4261 -0.350115
  278 55.7744 5.34389 -0.683762
  279 55.7832 5.34713 0.688934
  280 -0.713238 -26.1870 13.2650
  281 4.21841 5.51243 6.86330
  282 4.18592 5.51811 -6.86102
  283 413.574 29.3895 -9.87314
  284 202.274 0.463748 2.62196
  285 202.240 0.468193 -2.62621
  286 133.711 -7.11230 -46.2546
  287 134.953 -6.99706 47.0207
  288 258.335 -25.9656 -3.93525
  289 -24.8371 0.742937 11.0602
  290 -24.8626 0.743570 -11.0731
  291 253.601 -23.3723 76.3501
  292 -11.3020 1.71035 16.8465
  293 -11.3380 1.70997 -16.8693
  294 41.5970 11.4900 -1.93212
  295 41.4417 11.6018 1.99473
  296 -46.4913 0.464175 0.589367
  297 -46.5307 0.464035 -0.589153
  298 213.267 0.662386 -104.673
  299 -42.9507 0.899892 -5.15449
  300 -42.9099 0.898414 5.15194
  301 -1.45616 -5.66016 18.9769
  302 -0.846522 -5.54608 -18.8190
  303 92.4424 9.84639 -10.5493
  304 92.4605 9.83208 10.6305
  305 18.9239 2.77952 2.45192
  306 18.9027 2.77853 -2.45011
  307 96.5571 4.32654 -1.96035
  308 96.5630 4.31887 1.96320
  309 8.75920 -7.83327 10.6067
  310 7.97932 -9.23342 -10.6955
  311 93.7167 2.24176 -0.418650
  312 93.7188 2.23899 0.418951
  313 -34.9843 0.907760 8.15946
  314 -35.0168 0.909273 -8.16822
  315 22.9278 -3.43874 -4.36368
  316 22.2232 -3.45925 3.75708
  317 211.336 0.0837445 0.728266
  318 211.296 0.0842707 -0.728552
  319 463.796 26.8072 17.2785
  320 46.1154 6.74793 2.00040
  321 46.1012 6.74694 -1.99147
  322 -11.4337 2.50509 4.36122
  323 -11.4658 2.50623 -4.36011
  324 64.0446 9.25424 -0.757488
  325 64.0355 9.25208 0.781497
  326 6.94603 6.58326 14.9855
  327 6.90152 6.60106 -15.0097
  328 0.947667 -47.4060 9.69124
  329 -47.9681 0.189378 -1.30193
  330 -47.9278 0.189561 1.30223
  331 160.378 0.933454 -1.37239
  332 160.400 0.931374 1.37170
  333 168.938 1.61993 -3.64154
  334 168.964 1.61096 3.63747
  335 -44.4696 0.826985 -3.80177
  336 -44.4286 0.826356 3.80127
  337 -2.43742 1.08699 0.561709
  338 -2.46435 1.08626 -0.561275
  339 -0.989879 -19.2300 9.99407
  340 -0.789654 -19.9991 -9.98071
  341 189.322 -16.0947 -31.0296
  342 196.833 -19.2279 30.4222
  343 111.950 6.05478 -4.41452
  344 111.967 6.03753 4.42140
  345 48.4768 11.7115 -0.546702
  346 48.4044 11.7594 0.596194
  347 -18.4938 3.46437 8.51707
  348 -18.5317 3.46970 -8.52043
  349 356.397 3.23010 5.70948
  350 18.1153 -30.3107 -19.2245
  351 19.3796 -28.5692 20.2357
  352 -8.27059 5.42992 13.4633
  353 -8.31496 5.44189 -13.4739
  354 -9.99023 -2.09426 16.2721
  355 -10.0118 -2.09733 -16.2965
  356 403.214 65.4679 -15.6456
  357 256.169 -4.56079 35.1839
  358 241.051 -5.46640 -5.42004
  359 240.781 -5.34093 4.99474
  360 167.689 -1.71835 -19.6971
  361 167.508 -1.90397 19.6962
  362 0.309728 -57.0860 -7.90202
  363 221.184 0.791535 -4.88731
  364 221.209 0.771324 4.86368
  365 2.79130 -54.0640 6.47212
  366 251.471 19.5560 -19.7939
  367 60.9676 2.60896 0.892881
  368 60.9596 2.60709 -0.892620
  369 168.871 1.64416 -14.6386
  370 168.987 1.54192 14.6468
  371 182.688 1.93592 -8.93761
  372 182.733 1.89061 8.91871
  373 -4.86693 2.26685 3.01527
  374 -4.89594 2.26680 -3.01386
  375 103.394 5.74554 -23.0980
  376 103.445 5.80251 23.3343
  377 217.897 0.115528 1.19764
  378 217.856 0.116571 -1.19876
  379 121.594 7.16042 -11.5066
  380 121.649 7.10841 11.5518
  381 141.288 2.72222 2.90380
  382 141.270 2.72899 -2.90505
  383 -6.77985 -1.23839 5.38902
  384 -6.77854 -1.24133 -5.38846
  385 -1.60201 -1.14116 -1.55005
  386 -1.60285 -1.14188 1.55249
  387 289.739 -37.9270 18.5200
  388 -3.85838 -9.23882 14.8216
  389 -3.83345 -9.31350 -14.8196
  390 45.6159 3.48087 -1.31676
  391 45.6283 3.48335 1.31943
  392 -1.44699 -7.19116 5.40770
  393 -1.46293 -7.17846 -5.40784
  394 16.9147 8.32129 7.59269
  395 16.8782 8.33385 -7.58678
  396 237.021 -0.752002 6.41405
  397 236.988 -0.658479 -6.54664
  398 -0.704389 -14.4202 18.0166
  399 -19.5190 -0.374414 8.34563
  400 -19.5296 -0.375853 -8.35455
  401 -0.778973 -15.2061 -17.8111
  402 222.847 0.288039 3.10761
  403 222.812 0.294131 -3.11610
  404 -2.66317 4.74796 16.8110
  405 -2.72774 4.76538 -16.8324
  406 163.616 2.91444 -5.85800
  407 163.645 2.89585 5.85155
  408 251.840 -10.8503 -6.40326
  409 252.825 -8.70166 4.91001
  410 -0.536588 -26.2392 -10.9779
  411 21.7635 7.93273 -5.91172
  412 21.9431 7.83515 5.89903
  413 246.571 16.3521 12.4754
  414 141.275 -8.88786 -64.3705
  415 145.188 -11.5710 67.5029
  416 7.50931 7.82814 11.2282
  417 7.46340 7.84556 -11.2298
  418 104.058 3.39999 -1.34002
  419 104.064 3.39503 1.34071
  420 100.909 12.1200 102.774
  421 40.9708 10.1151 -3.41689
  422 41.0018 10.1016 3.43686
  423 2.45032 -25.6638 12.5138
  424 -0.321065 -42.7372 -9.59938
  425 15.7845 9.49704 10.6304
  426 15.7285 9.52466 -10.6330
  427 19.3452 5.79423 -4.74765
  428 19.3705 5.79149 4.75268
  429 -7.42506 -0.530715 -18.4624
  430 -7.38934 -0.541050 18.4367
  431 49.3219 9.56114 -8.32923
  432 49.1174 9.71540 8.44975
  433 252.045 -8.45198 -26.4387
  434 6.69745 -3.08701 14.7792
  435 6.46663 -3.00861 -14.8563
  436 183.379 -7.78356 -21.7769
  437 184.180 -8.36680 21.7259
  438 -46.6556 0.394484 -4.95953
  439 -46.6163 0.393350 4.95551
  440 0.00563651 -41.8846 8.61286
  441 -0.308828 -26.5618 9.76595
  442 -19.0677 1.16959 14.1702
  443 -19.0957 1.16993 -14.1871
  444 131.420 1.63221 -0.516259
  445 131.433 1.62981 0.515851
  446 -4.00327 -6.31750 10.0212
  447 -4.00886 -6.33069 -10.0090
  448 80.8182 3.50971 -33.7822
  449 80.6779 3.89866 34.2148
  450 0.676497 -51.0876 -9.65206
  451 463.157 17.1893 0.499160
  452 1.24002 -60.9792 -5.93430
  453 -55.6660 0.0608010 -1.87438
  454 -55.6229 0.0608768 1.87449
  455 -21.5652 2.95720 11.7488
  456 -21.6043 2.96347 -11.7598
  457 -24.5718 0.341006 8.40393
  458 -24.5884 0.341116 -8.41319
  459 88.6855 9.58808 -6.92155
  460 88.6981 9.57805 6.97172
  461 135.237 5.88243 -8.91477
  462 135.284 5.83847 8.92855
  463 -2.48063 -8.80283 18.5919
  464 -2.48319 -8.74381 -18.6674
  465 233.593 3.37347 -33.4075
  466 15.5503 -5.07769 -3.81634
  467 15.0116 -5.20761 4.09224
  468 3.61561 -55.6780 0.195712
  469 2.28354 -64.3273 -1.81844
  470 -7.26461 -3.27463 10.3232
  471 -7.26632 -3.28572 -10.3261
  472 49.1133 -8.37270 -52.3746
  473 364.886 -3.94643 -32.6480
  474 80.7157 5.75066 1.68015
  475 80.7141 5.75858 -1.67282
  476 117.663 0.972777 -32.7328
  477 117.966 0.933102 33.2653
  478 33.8123 12.1700 4.73009
  479 33.7545 12.2077 -4.71144
  480 106.171 8.16471 -16.8105
  481 106.235 8.11450 16.9508
  482 3.45966 1.79990 17.2165
  483 3.69537 1.91873 -17.1942
  484 -49.1991 0.760942 -3.72771
  485 -49.1567 0.760312 3.72652
  486 236.630 -28.1641 -17.0240
  487 188.772 0.428207 -1.01464
  488 188.803 0.427346 1.01436
  489 8.57210 1.60160 -1.36014
  490 8.59603 1.60259 1.36113
  491 -12.9662 4.43942 11.0894
  492 -13.0068 4.44796 -11.0960
  493 -28.5697 1.78898 -4.17051
  494 -28.5330 1.78794 4.17069
  495 80.6795 8.40259 -2.74034
  496 80.6835 8.39233 2.76018
  497 -10.4351 3.71942 15.4040
  498 -10.4798 3.72932 -15.4225
  499 216.818 -5.88870 -11.5410
  500 217.172 -6.20920 11.3380
  501 140.989 1.69033 -21.7017
  502 140.792 1.57440 21.8981
  503 51.5482 2.87692 -0.779998
  504 51.5588 2.87917 0.781163
  505 0.483910 -26.3516 -15.3282
  506 253.595 -9.51419 21.7578
  507 3.26937 -17.7430 -14.1710
  508 70.8986 11.6355 6.87486
  509 70.9312 11.6090 -6.78914
  510 234.028 -26.3562 16.7697
  511 17.2692 -27.6686 26.9481
  512 279.560 -37.8623 -34.2691
  513 189.919 1.13849 10.7409
  514 189.846 1.22328 -10.7664
  515 0.436237 -22.6005 15.9494
  516 -3.71011 -1.11407 -2.86776
  517 -3.71210 -1.11372 2.87013
  518 21.7782 1.56088 -0.442102
  519 21.7981 1.56207 0.442531
  520 -0.650123 -14.7887 6.39833
  521 -0.589874 -14.7183 -6.43000
  522 156.411 2.02696 2.34485
  523 156.390 2.03067 -2.34620
  524 444.410 76.0936 29.9662
  525 17.6924 -12.6197 -4.36806
  526 13.7302 -16.5228 1.50835
  527 -5.63109 3.52930 -5.73293
  528 -5.59866 3.52639 5.73398
  529 -38.4413 0.611089 5.07014
  530 -38.4683 0.611765 -5.07567
  531 0.374278 -47.8186 9.56553
  532 -54.9554 0.533632 0.568236
  533 -54.9973 0.533599 -0.567964
  534 47.3055 -5.44293 -38.1909
  535 46.2272 -4.56823 39.7523
  536 43.2217 7.09072 -12.3196
  537 42.8947 7.29934 12.4283
  538 -10.3836 -2.22702 14.1938
  539 -10.3968 -2.23526 -14.2118
  540 42.2544 4.30198 1.43021
  541 42.2406 4.29988 -1.42630
  542 -23.8726 1.20276 1.88416
  543 -23.9065 1.20262 -1.88338
  544 50.1455 7.85415 1.73313
  545 50.1308 7.85467 -1.71907
  546 -1.03494 -3.33677 2.44815
  547 -1.03839 -3.33351 -2.44758
  548 17.9177 7.71525 9.74770
  549 17.7993 7.83031 -9.77959
  550 14.4827 1.81478 8.74303
  551 14.2725 1.79430 -8.85550
  552 192.831 1.68429 4.54243
  553 192.800 1.69349 -4.54936
  554 170.038 2.68548 7.17552
  555 170.003 2.71391 -7.18545
  556 -0.175846 -40.1240 -5.95467
  557 118.233 6.46602 -6.69473
  558 118.260 6.43993 6.70774
  559 118.717 3.26755 -2.39797
  560 118.729 3.25942 2.39872
  561 -17.7057 0.772840 -0.0614908
  562 -17.6744 0.773336 0.0617894
  563 198.543 11.1652 -6.42771
  564 267.676 -35.0325 -11.5176
  565 216.142 9.72565 25.4764
  566 1.69359 -35.0088 -11.4533
  567 -12.7815 3.87849 -7.43411
  568 -12.7455 3.87409 7.43328
  569 1.73957 -20.4482 15.2188
  570 -12.1070 0.249749 16.3684
  571 -12.1353 0.249267 -16.3884
  572 340.602 32.8421 -1.93518
  573 76.6188 4.07023 -0.617686
  574 76.6171 4.06536 0.620620
  575 523.916 43.9138 -44.3092
  576 -2.83136 -2.23388 19.2311
  577 -2.66447 -2.09901 -19.2498
  578 282.956 -26.3420 13.3330
  579 228.532 0.413661 -5.45828
  580 228.550 0.381185 5.41816
  581 103.180 -1.06064 -47.8000
  582 104.462 -1.35916 48.6096
  583 -5.96451 -5.74692 16.4557
  584 -5.96898 -5.77481 -16.4950
  585 53.7132 3.83549 24.5929
  586 54.1653 3.41047 -24.3556
  587 -45.1463 0.529493 -4.80827
  588 -45.1096 0.528666 4.80377
  589 333.756 26.2509 22.7631
  590 62.3003 6.25329 -0.242432
  591 62.3067 6.25750 0.250067
  592 73.6901 9.10099 -16.6492
  593 73.6028 9.21315 16.8583
  594 205.933 -0.104234 -10.5653
  595 206.025 -0.216960 10.5207
  596 -0.968550 -21.1570 -14.8428
  597 225.259 -0.129477 1.62303
  598 225.217 -0.128044 -1.62474
  599 -33.9115 0.775834 -0.776186
  600 -33.8753 0.776060 0.776700
  601 -58.9007 -0.348038 0.0382664
  602 -58.9433 -0.348259 -0.0381465
  603 4.60782 -32.6406 -5.93344
  604 -2.13993 -13.6683 12.6374
  605 -2.25693 -12.9400 -12.7223
  606 -25.8386 1.56458 11.8414
  607 -25.8699 1.56722 -11.8547
  608 156.089 4.28444 9.00133
  609 156.044 4.32841 -9.00440
  610 114.519 1.96585 0.578584
  611 114.511 1.96806 -0.578602
  612 25.3037 -8.74528 15.0290
  613 26.1482 -8.19749 -14.8697
  614 -0.812894 -10.3008 5.39495
  615 -0.837063 -10.2669 -5.41246
  616 269.913 13.5914 111.308
  617 -13.2837 -0.419878 5.01185
  618 -13.2830 -0.421671 -5.01529
  619 4.54821 -19.8924 -11.6255
  620 111.899 4.96115 -3.33436
  621 111.912 4.94935 3.33764
  622 54.0854 11.6260 -4.70644
  623 53.9890 11.6952 4.79246
  624 0.548013 -72.7112 4.13753
  625 40.3106 11.5510 3.13202
  626 40.2700 11.5747 -3.10807
  627 -5.43035 4.81934 8.91957
  628 -5.46734 4.82630 -8.92090
  629 -0.321868 -35.4567 8.13891
  630 -58.4073 0.101767 -1.85646
  631 -58.3630 0.101701 1.85641
  632 73.0402 2.41176 0.0310167
  633 73.0441 2.41484 -0.0299707
  634 187.930 0.891021 2.97834
  635 187.900 0.895687 -2.98146
  636 164.732 -13.1855 84.9741
  637 132.367 3.79796 -5.29803
  638 132.390 3.77906 5.29991
  639 1.82525 -3.18449 17.9637
  640 2.29079 -1.98574 -17.9555
  641 212.374 -23.0067 -68.5571
  642 508.622 17.7646 -18.4526
  643 -53.3825 0.0638993 -3.35315
  644 -53.3404 0.0633778 3.35101
  645 11.3456 3.05927 -2.87061
  646 11.3697 3.05951 2.87276
  647 -1.02132 -22.3406 13.0698
  648 286.990 15.9414 -32.0269
  649 222.822 -0.244874 0.268950
  650 222.778 -0.244630 -0.268989
  651 -14.3682 -0.816462 -11.7056
  652 -14.3560 -0.813266 11.6930
  653 -0.0368177 -50.5234 -7.87845
  654 226.712 -0.286051 0.621158
  655 226.667 -0.285698 -0.621342
  656 19.5542 7.30844 6.47931
  657 19.5237 7.31581 -6.47274
  658 170.728 -15.3986 -44.7091
  659 173.937 -15.3525 45.2387
  660 252.075 -1.45814 3.64756
  661 252.173 -1.43839 -3.82587
  662 1.09219 -64.0429 6.32261
  663 -15.1332 0.632868 -1.10943
  664 -15.1025 0.633451 1.10996
  665 81.7135 2.25820 -80.1243
  666 76.0704 2.20346 0.522919
  667 76.0739 2.20555 -0.522547
  668 36.6629 3.18615 0.754308
  669 36.6475 3.18431 -0.752304
  670 43.9123 5.31807 -1.25380
  671 43.9261 5.32007 1.25997
  672 145.832 4.50827 -13.9097
  673 145.925 4.42862 13.9426
  674 37.8389 11.1996 1.57627
  675 37.7315 11.2780 -1.54574
  676 -27.4794 2.06106 -6.95233
  677 -27.4411 2.05793 6.94990
  678 -31.6666 2.17465 -7.83406
  679 -31.6277 2.17120 7.82930
  680 258.592 -3.83751 -1.17432
  681 0.0967056 -10.8763 -18.1995
  682 259.104 -4.02649 0.776786
  683 326.516 26.0397 0.670598
  684 -32.5670 0.147835 5.75323
  685 -32.5878 0.147922 -5.75982
  686 32.8750 9.30867 -0.683995
  687 32.6425 9.43304 0.722911
  688 -62.8153 0.0928529 -0.706832
  689 -62.7707 0.0929156 0.707070
  690 0.276166 -9.83743 18.2598
  691 -20.5141 0.248312 12.3917
  692 -20.5368 0.247949 -12.4061
  693 283.380 -24.7724 -14.4582
  694 43.3727 1.51341 -0.206132
  695 43.3593 1.51178 0.206651
  696 9.03580 4.38709 4.65472
  697 9.00869 4.38873 -4.65163
  698 148.475 -7.11624 -37.2245
  699 149.657 -7.39585 37.9897
  700 529.894 37.1584 40.5764
  701 9.74959 -51.5354 -15.8056
  702 -3.89336 -8.13201 17.6414
  703 -3.90216 -8.16181 -17.6768
  704 30.3318 7.29737 -3.78295
  705 30.3546 7.29427 3.79134
  706 233.018 -0.224944 -1.66226
  707 233.060 -0.226535 1.65932
  708 109.329 2.36849 0.915098
  709 109.322 2.37242 -0.914984
  710 8.39195 8.00153 13.4603
  711 8.33833 8.02661 -13.4707
  712 4.26099 2.33206 2.02921
  713 4.23554 2.33147 -2.02796
  714 -6.89470 1.40230 18.2069
  715 -6.93860 1.40484 -18.2375
  716 190.818 0.182813 1.23808
  717 190.787 0.184365 -1.23904
  718 164.600 1.87468 3.37127
  719 164.576 1.88066 -3.37372
  720 21.4495 -16.3785 18.3121
  721 22.1068 -17.4018 -17.6487
  722 -13.2462 2.72409 15.8842
  723 -13.2855 2.72873 -15.9051
  724 6.54494 -16.6315 9.41317
  725 0.0445814 4.71229 17.0013
  726 -0.0236443 4.72816 -17.0129
  727 -37.5194 1.12592 -4.66095
  728 -37.4798 1.12470 4.65992
  729 27.6576 9.42329 6.18185
  730 27.6205 9.43766 -6.16954
  731 254.632 -7.86130 -14.9050
  732 241.318 -21.3041 -4.90399
  733 -3.95276 -8.07186 12.4159
  734 -3.94679 -8.10821 -12.3986
  735 92.3852 -1.98548 -56.4579
  736 89.9188 0.0690652 57.0725
  737 55.8549 10.6930 -7.79293
  738 55.7230 10.7996 7.91470
  739 4.67828 -9.84868 14.9264
  740 -0.358902 -26.1691 -7.04924
  741 118.100 6.88412 -12.7968
  742 118.168 6.83320 12.8673
  743 0.320480 -51.6223 6.57435
  744 69.8631 10.1442 -2.77010
  745 69.8549 10.1428 2.80578
  746 244.492 -0.0834180 -4.14485
  747 244.475 -0.115676 4.07862
  748 4.66679 -71.7815 0.765789
  749 108.648 8.57315 9.52959
  750 108.611 8.60650 -9.48553
  751 28.7818 10.1624 -4.21740
  752 28.9269 10.0550 4.21817
  753 -44.3232 0.295273 -4.03955
  754 -44.2912 0.294851 4.03513
  755 121.093 2.59527 -2.14236
  756 121.104 2.58979 2.14241
  757 73.8868 11.0429 -5.68255
  758 73.8722 11.0508 5.74600
  759 -0.251313 6.58120 13.2851
  760 -0.299174 6.59782 -13.2928
  761 242.071 -18.1905 1.98452
  762 -38.8964 0.924107 3.56911
  763 -38.9355 0.924482 -3.56910
  764 528.998 98.6640 -69.8591
  765 -15.5447 1.65103 3.82996
  766 -15.5772 1.65125 -3.82906
  767 206.467 0.909890 7.52969
  768 206.431 0.951194 -7.56176
  769 383.403 24.7942 0.577454
  770 234.660 -0.528223 -3.16716
  771 234.692 -0.534221 3.15656
  772 148.762 2.63793 4.19346
  773 148.740 2.64797 -4.19565
  774 222.915 -26.6952 62.4319
  775 95.7878 7.56509 -3.26081
  776 95.8000 7.55073 3.27382
  777 2.12796 -39.8770 8.57137
  778 256.059 -33.1410 19.3991
  779 155.219 0.865663 0.730753
  780 155.198 0.867309 -0.730994
  781 204.578 0.338653 0.391287
  782 204.541 0.338995 -0.391398
  783 -0.944679 -20.8078 -12.2110
  784 1.18833 -35.8921 12.2061
  785 90.5204 10.3364 13.2445
  786 90.5072 10.3392 -13.1212
  787 525.689 5.65026 4.38991
  788 157.113 1.70370 -17.4881
  789 157.238 1.60809 17.5289
  790 -33.3429 1.10903 8.91266
  791 -33.3793 1.11168 -8.92073
  792 6.44214 -29.7301 3.37691
  793 4.20571 -67.2203 -3.74478
  794 360.166 46.2946 -3.44335
  795 -0.322474 -26.0852 6.36034
  796 6.76839 4.93429 15.4641
  797 6.74876 4.93491 -15.5231
  798 46.9774 9.77600 2.17532
  799 46.9561 9.78333 -2.15634
  800 240.480 -10.9132 -3.14099
  801 240.852 -10.8114 2.24376
  802 285.177 35.0930 -105.232
  803 -40.0950 0.532857 -1.70461
  804 -40.0564 0.532943 1.70511
  805 -18.2438 -0.0827980 4.73218
  806 -18.2466 -0.0835213 -4.73666
  807 16.8517 0.602321 5.54868
  808 16.4931 0.581053 -5.57373
  809 181.706 -0.682492 15.7766
  810 181.564 -0.513731 -15.7540
  811 91.8278 2.94030 -0.369482
  812 91.8301 2.93644 0.370252
  813 294.014 -6.03784 29.5755
  814 29.7663 5.27278 -3.35306
  815 29.7863 5.27269 3.35877
  816 28.0794 3.06042 -3.46306
  817 27.8246 3.20520 3.54291
  818 -0.192183 -20.8325 -16.5923
  819 419.218 59.6515 55.9952
  820 -61.1520 0.0883699 -1.84057
  821 -61.1065 0.0882571 1.84023
  822 -0.0913211 -63.0937 6.26839
  823 4.12184 -9.71816 -15.0709
  824 -9.03166 -0.561349 3.50395
  825 -9.02717 -0.562677 -3.50472
  826 332.963 17.2114 -21.8725
  827 85.2710 8.94735 -4.08485
  828 85.2791 8.93593 4.11534
  829 228.339 -3.06706 -7.91894
  830 228.525 -3.11127 7.77486
  831 -58.3242 0.467373 2.42105
  832 -58.3687 0.467766 -2.42219
  833 -0.403630 -0.418839 -0.338416
  834 -0.404436 -0.419601 0.339745
  835 0.206733 -64.5571 -6.15713
  836 0.302820 -68.3112 -5.71726
  837 -64.8489 0.652590 0.385259
  838 -64.8932 0.652656 -0.385154
  839 33.8360 -13.5788 -36.4444
  840 140.910 2.18529 -1.17128
  841 140.927 2.18244 1.17057
  842 -5.99225 1.37666 0.490809
  843 -6.02017 1.37609 -0.490695
  844 210.652 0.848280 -5.01760
  845 210.683 0.833901 5.00246
  846 -24.0111 0.161896 4.50800
  847 -24.0192 0.161936 -4.51272
  848 126.103 -1.18178 -85.5331
  849 218.930 -18.8623 16.8365
  850 172.186 1.15938 -1.52117
  851 172.212 1.15723 1.51999
  852 216.850 -20.5490 -18.9034
  853 66.6528 7.94156 -0.689924
  854 66.6475 7.93622 0.706745
  855 92.6836 6.61095 -2.40779
  856 92.6913 6.59997 2.41611
  857 254.751 -5.50272 11.3642
  858 14.8648 9.04441 11.3262
  859 14.8028 9.07986 -11.3416
  860 14.7136 1.40563 0.985638
  861 14.6916 1.40449 -0.984968
  862 119.460 2.02197 0.965875
  863 119.450 2.02496 -0.966027
  864 316.195 -31.5619 33.3519
  865 197.334 1.46928 -6.52569
  866 197.369 1.44236 6.50532
  867 1.63404 3.19889 3.69593
  868 1.60621 3.19942 -3.69392
  869 198.176 0.0635218 1.82264
  870 198.142 0.0653934 -1.82418
  871 -38.1399 0.344734 -1.01947
  872 -38.1029 0.345039 1.01940
  873 -0.180451 -19.9394 5.65922
  874 -0.235294 -20.2515 -5.70395
  875 235.228 -3.64287 26.7504
  876 -14.9867 3.64292 13.5192
  877 -15.0279 3.65157 -13.5326
  878 -0.0840011 -32.9143 -6.27486
  879 92.7387 3.94752 -1.19410
  880 92.7421 3.94234 1.19582
  881 171.641 -8.75933 -28.3035
  882 173.016 -9.69770 28.5883
  883 -7.61825 -2.75570 -17.7351
  884 -7.58800 -2.75779 17.7030
  885 8.60984 8.15854 12.3922
  886 8.55894 8.18020 -12.3966
  887 0.837578 -76.0519 4.50842
  888 1.78530 6.25209 15.6254
  889 1.72791 6.27053 -15.6377
  890 158.350 -2.75460 -25.1228
  891 158.019 -2.90123 25.3259
  892 274.079 14.2059 33.0497
  893 62.0200 7.42875 -0.0622005
  894 62.0273 7.43323 0.0738414
  895 202.808 1.55458 -4.90443
  896 202.839 1.54293 4.89408
  897 -8.05941 -3.56577 15.5126
  898 -8.07247 -3.57812 -15.5377
  899 0.685447 -78.8008 -3.21637
  900 -12.3859 -0.897574 15.2495
  901 -12.4066 -0.899010 -15.2686
  902 6.78043 7.46678 -9.81095
  903 6.82101 7.45309 9.81130
  904 -0.626269 -4.97712 2.76379
  905 -0.633192 -4.97179 -2.76777
  906 16.2814 8.40742 -8.93585
  907 16.3242 8.39050 8.94059
  908 3.38465 -6.56680 16.6928
  909 2.91831 -6.11616 -17.4819
  910 195.770 -5.36372 16.0070
  911 195.291 -5.07865 -16.1217
  912 -66.0250 0.224035 -0.565366
  913 -65.9799 0.224079 0.565524
  914 -5.53163 -0.506468 2.62547
  915 -5.52630 -0.507258 -2.62446
  916 0.271934 -46.8594 -5.74506
  917 -6.01340 -2.59767 -7.50366
  918 -6.01223 -2.59175 7.50520
  919 -25.7888 2.13959 11.4529
  920 -25.8249 2.14406 -11.4647
  921 59.9010 11.8828 -2.67428
  922 59.8638 11.9115 2.72816
  923 256.986 20.7076 -5.67814
  924 -3.81321 5.90334 12.0813
  925 -3.85657 5.91576 -12.0873
  926 95.2121 5.86486 -26.0048
  927 95.2381 5.95147 26.3273
  928 -12.4358 4.17017 9.75504
  929 -12.4746 4.17773 -9.75933
  930 316.893 -17.6513 -8.13512
  931 185.142 7.39541 14.2421
  932 227.277 -3.18831 -24.1994
  933 171.365 2.72153 -10.6913
  934 171.427 2.65833 10.6815
  935 -19.3642 2.58124 -4.92454
  936 -19.3294 2.57930 4.92478
  937 -41.7587 0.775708 5.77933
  938 -41.7984 0.777313 -5.78338
  939 -2.49837 -8.02919 -8.71683
  940 -2.48202 -8.03773 8.73393
  941 59.5033 4.35424 -0.104310
  942 59.5107 4.35776 0.107946
  943 -19.6028 1.95446 14.1180
  944 -19.6354 1.95682 -14.1353
  945 206.881 0.154791 2.41867
  946 206.846 0.157030 -2.42089
  947 -1.59720 -17.7253 13.2874
  948 6.59420 6.90927 -8.48047
  949 6.63058 6.89953 8.48222
  950 9.33741 4.92297 5.70452
  951 9.30843 4.92633 -5.70133
  952 34.0544 3.64966 -1.65760
  953 34.0708 3.65116 1.66018
  954 389.623 45.2733 -6.12382
  955 -1.50501 -0.421632 -1.02759
  956 -1.50824 -0.421668 1.02950
  957 12.6774 3.21483 -10.8200
  958 12.8953 3.10039 10.7890
  959 137.696 5.99603 -11.0408
  960 137.757 5.93951 11.0635
  961 16.5156 6.15417 -5.52752
  962 16.5438 6.14984 5.53259
  963 37.2125 -14.6659 49.2443
  964 262.127 -1.76949 -1.95037
  965 261.658 -1.70112 1.68898
  966 45.0852 -7.75195 42.4961
  967 47.0845 2.50358 0.0442602
  968 47.0724 2.50181 -0.0433801
  969 124.877 -6.13122 -73.8477
  970 94.1823 2.12562 0.547503
  971 94.1804 2.12776 -0.547305
  972 11.6215 -13.7095 3.78636
  973 12.8454 -11.6941 -2.81600
  974 232.787 -0.154227 0.838207
  975 232.740 -0.153848 -0.838469
  976 -19.1937 0.0367715 11.2136
  977 -19.2102 0.0360469 -11.2258
  978 416.524 51.6774 21.1561
  979 -1.88911 -13.4645 -17.6407
  980 1.87326 -69.0804 6.29911
  981 -0.384754 -21.2875 16.3163
  982 240.458 -0.0393872 -3.23256
  983 240.478 -0.0482066 3.21496
  984 -3.18499 -5.81438 7.52034
  985 -3.19297 -5.81341 -7.51188
  986 296.365 30.2820 -19.4491
  987 533.857 5.06401 -2.95699
  988 -0.777499 -1.15089 -1.11839
  989 -0.776716 -1.15333 1.12000
  990 138.301 2.08582 -2.33863
  991 138.318 2.08127 2.33784
  992 -1.95049 -12.9630 17.7443
  993 193.247 1.25808 9.61548
  994 193.196 1.31996 -9.64321
  995 253.587 -17.1375 -11.6886
  996 -8.91249 -1.88936 8.50617
  997 -8.91429 -1.89592 -8.50937
  998 3.90746 -17.4195 13.1266
  999 -0.446734 -31.8654 12.7991
  1000 -0.0349961 -32.6459 6.26133
  1001 255.840 17.2830 -1.40371
  1002 295.254 32.3371 11.7477
  1003 212.304 -25.1013 -33.9649
  1004 2.90225 -31.7508 10.6830
  1005 3.71668 -45.9551 3.09593
  1006 57.7328 1.88789 0.245131
  1007 57.7237 1.88612 -0.244956
  1008 -2.36667 -2.69512 -3.56775
  1009 -2.36488 -2.69609 3.57087
  1010 1.89781 -26.0711 -13.9719
  1011 171.955 0.613813 -0.557751
  1012 171.981 0.612632 0.557394
  1013 33.4153 -1.50781 -15.0147
  1014 31.9550 -1.42405 14.8714
  1015 -3.79310 5.18708 15.6697
  1016 -3.84715 5.20315 -15.6871
  1017 -21.0938 3.15788 -9.79451
  1018 -21.0548 3.15213 9.78852
  1019 129.593 2.15453 -25.6525
  1020 129.694 2.25175 25.9502
  1021 92.8010 8.35854 -17.4776
  1022 92.8078 8.35108 17.6662
  1023 101.130 7.86651 -5.57014
  1024 101.148 7.84521 5.58972
  1025 264.787 -8.15953 -31.9044
  1026 -7.52695 3.15072 17.0269
  1027 -7.57601 3.15820 -17.0541
  1028 187.886 0.154355 13.0788
  1029 187.784 0.282571 -13.0971
  1030 -1.41610 -10.2674 18.6140
  1031 -15.2837 -0.530846 8.23444
  1032 -15.2895 -0.533117 -8.24204
  1033 170.973 1.98888 -12.9637
  1034 171.059 1.90025 12.9593
  1035 207.712 4.66165 -22.8035
  1036 -0.302994 -31.7351 -13.4409
  1037 -2.61037 -12.5254 15.7853
  1038 -2.71632 -12.6644 -15.6482
  1039 119.784 7.50826 -8.91016
  1040 119.826 7.46881 8.93890
  1041 152.240 3.26368 5.21902
  1042 152.215 3.27835 -5.22230
  1043 253.069 -16.7354 10.2320
  1044 10.9673 1.54854 -0.277801
  1045 10.9902 1.54943 0.277992
  1046 214.834 -28.1046 36.2731
  1047 -2.78200 1.10653 1.27911
  1048 -2.80918 1.10572 -1.27848
  1049 45.2001 11.8984 1.29995
  1050 45.1473 11.9334 -1.26491
  1051 16.5818 9.34241 9.77523
  1052 16.5329 9.36463 -9.77266
  1053 2.26958 -39.4087 -8.90558
  1054 60.9002 2.77366 -0.273320
  1055 60.9076 2.77690 0.275434
  1056 179.321 6.13362 5.83787
  1057 173.351 1.73169 4.92338
  1058 173.323 1.74448 -4.92936
  1059 -1.24302 -10.6327 -18.6424
  1060 261.165 -3.29018 -5.87905
  1061 -0.389985 -1.23761 18.6866
  1062 -0.199572 -1.07551 -18.6114
  1063 239.264 -0.349101 -1.77931
  1064 239.304 -0.351084 1.77482
  1065 254.608 -0.771150 -3.11055
  1066 254.512 -0.806046 3.01460
  1067 -0.195125 -49.5048 4.72993
  1068 147.842 4.26237 -6.93990
  1069 147.871 4.23876 6.93767
  1070 180.742 2.03101 5.78525
  1071 180.711 2.04714 -5.79428
  1072 3.48854 3.98310 17.0236
  1073 3.47073 3.98762 -17.0326
  1074 393.856 26.9779 3.43327
  1075 -5.28850 -2.40700 18.9855
  1076 -5.35814 -2.35972 -19.0275
  1077 54.6747 11.2316 0.332096
  1078 54.6533 11.2421 -0.303282
  1079 -32.9357 0.734471 -1.85221
  1080 -32.8994 0.734724 1.85269
  1081 90.6217 4.77086 -30.0477
  1082 90.5204 5.03358 30.4511
  1083 25.3494 10.5346 7.81042
  1084 25.2953 10.5627 -7.80156
  1085 61.1960 6.49440 -21.6550
  1086 60.8875 6.81119 21.8763
  1087 -1.70165 -16.6349 -12.9388
  1088 217.871 2.60258 29.5250
  1089 154.109 -2.63083 96.4655
  1090 23.8473 10.7211 8.07830
  1091 23.7816 10.7602 -8.07497
  1092 92.3592 5.46373 -1.75369
  1093 92.3653 5.45447 1.75890
  1094 340.984 -1.64296 11.7896
  1095 20.9696 4.91460 5.61815
  1096 20.7027 4.98882 -5.68886
  1097 -10.1674 -2.26804 11.3580
  1098 -10.1735 -2.27770 -11.3675
  1099 -0.334714 -7.43886 3.02404
  1100 -0.347551 -7.43386 -3.03592
  1101 223.726 0.0614044 7.81396
  1102 223.675 0.151755 -7.88791
  1103 0.194441 -16.3481 17.5061
  1104 -15.6079 0.902183 -15.3285
  1105 -15.5801 0.902646 15.3100
  1106 0.0833131 -60.1997 -6.10889
  1107 -3.73785 -5.21472 18.9513
  1108 -3.72966 -5.11207 -18.9698
  1109 214.447 0.484624 -3.29167
  1110 214.483 0.479527 3.28607
  1111 220.347 -1.38770 9.29470
  1112 220.220 -1.24343 -9.37273
  1113 37.2155 7.86048 -6.31734
  1114 36.9337 8.03546 6.40359
  1115 -0.542874 -31.0075 -10.8298
  1116 290.716 -30.0274 -55.4951
  1117 377.518 45.3711 -1.61417
  1118 3.70023 -48.5728 -1.72923
  1119 12.6900 7.39351 -12.7972
  1120 12.7630 7.34866 12.7487
  1121 34.6890 11.5587 4.21145
  1122 34.6134 11.6091 -4.19158
  1123 74.6620 4.97627 0.358780
  1124 74.6636 4.98236 -0.353926
  1125 -4.95760 -7.06180 14.7332
  1126 -4.94947 -7.12586 -14.7533
  1127 -14.6330 4.33148 12.5129
  1128 -14.6743 4.34052 -12.5226
  1129 -5.64573 5.41202 14.5285
  1130 -5.69417 5.42591 -14.5419
  1131 209.507 -10.6424 -15.5514
  1132 210.896 -10.7564 15.3891
  1133 0.158520 -35.9325 -12.8398
  1134 110.460 -0.811817 -38.0986
  1135 110.668 -0.455558 38.7873
  1136 34.5044 10.7783 -4.49154
  1137 34.5412 10.7590 4.50888
  1138 112.925 43.5261 108.147
  1139 26.7023 8.75112 5.89227
  1140 26.6705 8.76108 -5.88199
  1141 287.213 -33.0909 -11.7405
  1142 107.231 3.50189 1.49535
  1143 107.223 3.50832 -1.49426
  1144 -4.91922 -4.39667 8.95377
  1145 -4.92146 -4.40619 -8.94945
  1146 -5.89298 -5.30227 11.6187
  1147 -5.89148 -5.32195 -11.6181
  1148 187.033 -20.1470 -54.2440
  1149 191.029 -22.0935 54.6671
  1150 32.1699 1.67332 0.245229
  1151 32.1866 1.67481 -0.244305
  1152 116.570 5.57879 -20.6192
  1153 116.597 5.49831 20.8460
  1154 257.685 -36.0341 40.9706
  1155 231.044 -0.418341 0.493498
  1156 230.996 -0.418034 -0.493460
  1157 -21.2661 3.26662 11.1495
  1158 -21.3056 3.27280 -11.1581
  1159 -36.2193 1.17404 -5.91802
  1160 -36.1797 1.17241 5.91617
  1161 57.3832 -2.94161 63.7431
  1162 173.209 12.0165 -11.8145
  1163 106.617 8.06886 -9.80797
  1164 106.659 8.03597 9.86781
  1165 337.020 -14.2248 59.4430
  1166 108.321 7.66165 -14.8539
  1167 108.375 7.61273 14.9584
  1168 25.9156 3.86740 -2.33601
  1169 25.9352 3.86850 2.33900
  1170 9.15920 -37.7038 5.03319
  1171 9.27300 -36.8765 -7.51046
  1172 147.328 -11.2895 -54.6896
  1173 149.438 -10.6087 54.6897
  1174 56.8253 9.00859 -14.7237
  1175 56.5927 9.21209 14.9037
  1176 261.354 -18.1158 -21.0784
  1177 -9.81629 -0.929475 17.2663
  1178 -9.84547 -0.928126 -17.2898
  1179 -0.304679 -14.6340 -17.9702
  1180 65.2785 0.278924 -39.7484
  1181 65.4463 0.509759 40.4877
  1182 -0.170024 -13.2229 3.38066
  1183 -0.144920 -13.2542 -3.42138
  1184 -63.7763 0.546899 -1.72138
  1185 -63.7301 0.546640 1.72082
  1186 209.429 0.134732 -0.881434
  1187 209.467 0.133887 0.880604
  1188 127.717 5.23842 -5.74380
  1189 127.745 5.21473 5.74947
  1190 -5.05077 -0.259274 19.0509
  1191 -5.06564 -0.185235 -19.0850
  1192 0.0289658 -53.5500 -5.28276
  1193 -53.9795 0.135996 2.72935
  1194 -54.0201 0.136336 -2.73166
  1195 40.1670 -2.86913 -27.3237
  1196 39.8541 -2.61464 28.2540
  1197 243.122 -14.9496 0.200625
  1198 67.9467 3.22982 -35.6450
  1199 68.0071 3.45020 36.0437
  1200 -29.7579 0.156391 4.10857
  1201 -29.7714 0.156306 -4.11319
  1202 0.752743 -47.5368 -9.20912
  1203 -10.2473 2.06880 -2.45365
  1204 -10.2172 2.06898 2.45470
  1205 35.3636 9.21635 4.54448
  1206 35.3341 9.22603 -4.53006
  1207 136.330 1.23578 -0.790313
  1208 136.345 1.23382 0.790231
  1209 184.877 1.25023 3.75061
  1210 184.848 1.25813 -3.75555
  1211 9.61393 -2.06357 11.1159
  1212 9.46991 -2.22971 -11.2888
  1213 1.59608 -27.5328 13.9075
  1214 330.668 43.8387 15.6341
  1215 -10.2187 -0.815522 6.44683
  1216 -10.2187 -0.818766 -6.44954
  1217 1.25034 -25.7739 -14.4786
  1218 -0.993226 -15.5597 9.45339
  1219 -0.940749 -15.4287 -9.79779
  1220 262.469 -2.82662 5.23405
  1221 0.239931 -61.3824 5.42581
  1222 1.74559 -19.0502 -16.1366
  1223 29.6794 1.36785 0.382097
  1224 29.6619 1.36654 -0.381956
  1225 -2.69265 -11.3184 17.4192
  1226 -30.0248 1.74187 -5.08822
  1227 -29.9871 1.74048 5.08771
  1228 543.713 9.67315 15.0706
  1229 -15.5371 1.69938 15.5509
  1230 -15.5702 1.70059 -15.5707
  1231 124.758 5.29157 -18.6599
  1232 124.881 5.18751 18.7790
  1233 7.82743 -13.4811 -7.66531
  1234 118.920 6.63642 -7.26554
  1235 118.954 6.60467 7.28432
  1236 4.75737 -38.6776 -2.99733
  1237 -2.69914 -11.3358 -17.3826
  1238 -21.6119 0.990488 3.12075
  1239 -21.6456 0.990336 -3.12004
  1240 -9.48502 0.548695 -17.7228
  1241 -9.44984 0.549360 17.7010
  1242 253.438 20.0606 23.7082
  1243 144.716 1.94774 -19.9554
  1244 144.900 1.88888 20.0061
  1245 -67.0789 0.182590 -0.670202
  1246 -67.0327 0.182577 0.670355
  1247 130.795 3.70692 -3.92282
  1248 130.812 3.69676 3.92272
  1249 -69.1400 -1.13195 -0.175801
  1250 -69.1852 -1.13229 0.175880
  1251 195.364 -14.0231 -22.8297
  1252 -31.3261 0.518381 8.76736
  1253 -31.3537 0.519068 -8.77740
  1254 197.399 -14.7996 22.6207
  1255 132.880 5.39441 -8.09710
  1256 132.915 5.36006 8.10504
  1257 15.2581 -41.9262 -27.1736
  1258 0.277406 -43.3969 -11.0359
  1259 -0.966039 -18.3104 16.3472
  1260 425.143 64.4188 -55.3728
  1261 -0.109945 -40.5576 10.6996
  1262 441.267 41.4571 -24.8023
  1263 -0.210151 -75.0292 -5.16289
  1264 19.5754 2.45394 -0.963548
  1265 19.5961 2.45509 0.965143
  1266 -0.190499 -16.9926 3.54473
  1267 -0.154737 -17.0814 -3.53375
  1268 73.3232 2.35987 -0.120536
  1269 73.3273 2.36227 0.121054
  1270 264.488 -20.7495 20.1164
  1271 3.84580 2.26000 -2.84583
  1272 3.87178 2.26042 2.84727
  1273 1.53180 -83.4096 2.82771
  1274 0.972750 -88.6417 -2.78282
  1275 243.263 -31.1922 -24.1201
  1276 -0.688161 -22.2912 10.4793
  1277 252.038 15.5758 -29.4591
  1278 -0.762524 -29.3796 10.3169
  1279 0.497559 -81.0674 -4.09857
  1280 121.790 4.02517 -4.18413
  1281 121.809 4.00869 4.18725
  1282 -0.0851307 -43.6116 4.66137
  1283 -0.118878 -36.4026 -10.5421
  1284 587.280 98.2878 86.0391
  1285 232.156 0.241098 0.386359
  1286 232.108 0.241050 -0.386235
  1287 5.65424 -0.0129008 15.5962
  1288 5.46850 0.234560 -15.6589
  1289 -4.02591 3.17333 18.0219
  1290 -4.10418 3.18207 -18.0545
  1291 244.506 -4.69406 -17.2328
  1292 227.511 -9.42120 -8.67289
  1293 227.252 -10.7526 8.72382
  1294 32.5764 4.34878 2.42773
  1295 32.5585 4.34741 -2.42335
  1296 -38.0729 1.03083 -6.95843
  1297 -38.0346 1.02879 6.95265
  1298 253.889 -36.3593 -34.6369
  1299 -1.90862 -4.59136 4.66993
  1300 -1.91567 -4.58734 -4.66742
  1301 267.208 -12.1851 30.0830
  1302 -2.86082 -10.6988 12.7193
  1303 -2.82995 -10.7373 -12.6606
  1304 -25.1391 1.73600 3.70254
  1305 -25.1744 1.73660 -3.70204
  1306 39.3748 3.55474 -13.5194
  1307 38.9706 3.79148 13.5240
  1308 62.1012 2.24283 0.450902
  1309 62.0937 2.24042 -0.450171
  1310 -26.5376 2.62042 10.9454
  1311 -26.5751 2.62508 -10.9550
  1312 217.506 0.740063 0.600867
  1313 217.464 0.739957 -0.600731
  1314 117.847 -2.77700 73.1867
  1315 176.860 0.780197 1.32006
  1316 176.833 0.781607 -1.32069
  1317 115.868 2.35873 -28.9362
  1318 115.911 2.21649 29.2152
  1319 1.08750 -48.2706 -6.93868
  1320 44.2598 10.4965 -5.02566
  1321 44.0758 10.6284 5.11604
  1322 -0.426863 -0.401873 -0.570506
  1323 -0.428996 -0.402047 0.572161
  1324 150.412 5.06380 10.6646
  1325 150.356 5.12238 -10.6591
  1326 73.7811 6.58889 1.05440
  1327 73.7822 6.59617 -1.04475
  1328 109.519 6.69460 -4.77375
  1329 109.539 6.67416 4.78549
  1330 144.516 1.34656 -1.31872
  1331 144.533 1.34453 1.31842
  1332 -4.62134 -2.25061 -5.27789
  1333 -4.62102 -2.24835 5.28104
  1334 -45.4051 0.142015 2.20265
  1335 -45.4455 0.142034 -2.20238
  1336 -7.95008 -3.68340 -13.0114
  1337 -7.94551 -3.66598 12.9997
  1338 -26.6685 0.590024 0.945977
  1339 -26.7024 0.589558 -0.945712
  1340 -69.7931 0.660484 0.386132
  1341 -69.8389 0.660577 -0.386023
  1342 273.646 -36.3932 47.7087
  1343 193.739 -1.38018 -23.8877
</Section>

newXOutput 33

<Section columns = "stress_xx | stress_yy | stress_xy">
  1 246.757 -0.280607 0.237857
  2 246.811 -0.280771 -0.237973
  3 -77.7345 0.400048 -1.04917
  4 0.125438 0.0347197 0.220776
  5 453.242 119.225 142.658
  6 512.097 135.785 -136.487
  7 0.124958 0.0342691 -0.220140
  8 -77.6847 0.400007 1.04892
  9 245.988 -0.260130 -0.810414
  10 246.165 -0.676635 -1.32730
  11 248.500 -0.661333 -0.340128
  12 248.711 -0.612001 -1.53297
  13 249.247 -0.590251 -0.446108
  14 254.505 -0.583132 -0.631096
  15 256.266 -0.883641 -2.05289
  16 258.107 -0.378192 -1.38814
  17 259.208 0.237597 -2.68229
  18 269.834 -1.37857 -2.29971
  19 274.299 -1.03314 -2.98259
  20 279.156 -1.62931 -1.07918
  21 281.353 -2.21589 -0.569870
  22 278.816 -2.60462 3.90092
  23 268.539 -2.96402 8.07483
  24 244.933 -3.44273 17.0637
  25 207.310 1.74743 19.7896
  26 175.892 2.03609 18.5716
  27 132.629 4.69187 11.2737
  28 141.491 4.57161 0.865126
  29 116.736 13.8211 -7.25848
  30 166.154 6.23683 -19.9999
  31 193.846 1.40641 -16.4184
  32 239.698 -0.816557 -14.2010
  33 265.096 -3.59609 -9.63913
  34 278.265 -3.04035 -3.89285
  35 280.705 -2.14048 0.577493
  36 278.701 -1.60607 0.995950
  37 274.093 -1.04103 2.88462
  38 269.744 -1.39854 2.24202
  39 259.204 0.225883 2.65324
  40 258.133 -0.382619 1.37671
  41 256.310 -0.886315 2.04834
  42 254.554 -0.584506 0.628828
  43 249.299 -0.591032 0.445038
  44 248.765 -0.612702 1.53312
  45 248.554 -0.661820 0.340065
  46 246.218 -0.677000 1.32782
  47 246.042 -0.260281 0.810735
  48 232.312 0.785860 -0.295145
  49 214.699 0.518343 -0.677954
  50 192.758 -0.275617 -0.712673
  51 170.085 1.11052 -0.592859
  52 150.304 0.998649 -0.476170
  53 129.202 1.69252 -0.567126
  54 108.441 2.75912 -0.363504
  55 86.9533 2.51032 -0.720646
  56 69.1772 1.86988 -0.994489
  57 45.9091 1.30812 -1.04753
  58 22.3235 1.70824 -0.794081
  59 2.66695 1.40009 -0.767098
  60 -21.8127 0.860813 -0.708578
  61 -40.0096 -0.0714021 -1.67256
  62 -57.6223 -1.12669 -0.771355
  63 -75.4488 0.184121 0.493031
  64 -79.2557 1.36465 -0.224271
  65 -79.4717 0.616940 0.193585
  66 -76.8036 0.325633 -0.134251
  67 -77.4921 0.886874 -0.989503
  68 -76.1905 1.06981 -0.152732
  69 -71.9982 0.342703 -1.50355
  70 -72.6571 0.657175 -1.60829
  71 -70.7377 0.626688 -0.932707
  72 -65.4277 0.401815 -1.37949
  73 -62.8434 0.698980 -2.23494
  74 -58.9499 0.774928 -1.85382
  75 -52.0865 0.397977 -3.14337
  76 -48.2129 0.122107 -2.62932
  77 -41.3069 0.175839 -3.01744
  78 -35.3391 0.124444 -3.32102
  79 -30.1718 0.0388175 -2.62032
  80 -23.0415 0.149743 -2.63588
  81 -16.9089 -0.0733350 -2.81168
  82 -10.9791 -0.311679 -2.45621
  83 -6.29254 -0.272086 -1.87438
  84 -3.07493 -0.470909 -1.56043
  85 -0.485664 -0.271760 -0.549481
  86 0.0552898 -0.298178 -0.190688
  87 -0.161928 -0.142581 -0.0279433
  88 -0.424886 -0.378378 -0.480165
  89 -0.411902 -2.59616 -1.35292
  90 -0.354648 -5.85489 -1.93999
  91 -0.185909 -10.0472 -2.83639
  92 -0.0987955 -15.4558 -2.44804
  93 -0.0898034 -20.4560 -3.08319
  94 -0.382254 -26.5954 -3.49007
  95 -0.155766 -34.1513 -3.53623
  96 0.0732532 -41.7656 -3.39394
  97 0.166412 -49.9399 -3.35448
  98 0.251709 -58.3614 -3.30916
  99 0.0290490 -64.6369 -4.48829
  100 0.446706 -73.4779 -4.02482
  101 0.539010 -83.8619 -3.25557
  102 0.00307685 -88.6501 -4.32993
  103 0.764278 -96.4410 -4.04734
  104 1.84140 -106.847 -2.11462
  105 3.57814 -110.070 -3.34979
  106 2.42125 -102.097 1.90261
  107 3.33843 -79.3244 9.33557
  108 18.9428 -50.2613 29.0508
  109 60.7179 72.2798 104.399
  110 700.588 36.4535 68.2728
  111 600.285 11.3031 25.0144
  112 580.932 4.37279 5.57914
  113 576.924 1.70843 -0.934322
  114 580.709 6.59666 -13.2201
  115 598.329 20.2987 -29.4276
  116 680.673 71.4536 -86.4890
  117 144.048 55.6707 -127.732
  118 31.3118 -49.4854 -35.9721
  119 9.14576 -86.7345 -12.9781
  120 2.49643 -96.8930 -2.11951
  121 2.86502 -106.063 2.01594
  122 0.830917 -102.751 1.67468
  123 0.317187 -94.0386 3.49080
  124 0.332922 -88.3221 2.77837
  125 0.461545 -79.3460 4.57818
  126 -0.0228748 -74.1047 4.41513
  127 0.183268 -66.8637 3.18738
  128 0.348773 -57.6494 4.01663
  129 0.0639672 -51.0855 3.18627
  130 0.104110 -41.8326 4.02131
  131 -0.417613 -34.5585 3.45101
  132 -0.296943 -26.6196 3.38310
  133 -0.0654977 -20.3462 3.09185
  134 -0.126897 -15.3681 2.45366
  135 -0.182037 -10.0180 2.80927
  136 -0.349697 -5.85071 1.93043
  137 -0.409756 -2.59999 1.35193
  138 -0.424391 -0.382330 0.481071
  139 -0.161916 -0.144311 0.0290884
  140 0.0532108 -0.298480 0.191758
  141 -0.489667 -0.271658 0.550894
  142 -3.08129 -0.470549 1.56198
  143 -6.30130 -0.271314 1.87500
  144 -10.9867 -0.310724 2.45548
  145 -16.9122 -0.0725453 2.80925
  146 -23.0398 0.149897 2.63299
  147 -30.1628 0.0391362 2.61732
  148 -35.3237 0.124778 3.31766
  149 -41.2831 0.175739 3.01400
  150 -48.1818 0.121958 2.62620
  151 -52.0505 0.397674 3.14045
  152 -58.9078 0.774482 1.85168
  153 -62.7981 0.698515 2.23332
  154 -65.3798 0.401523 1.37862
  155 -70.6876 0.626395 0.932266
  156 -72.6062 0.656918 1.60785
  157 -71.9478 0.342589 1.50329
  158 -76.1394 1.06952 0.152916
  159 -77.4409 0.886671 0.989449
  160 -76.7531 0.325596 0.134400
  161 -79.4209 0.616828 -0.193393
  162 -79.2052 1.36435 0.224331
  163 -75.3995 0.184121 -0.492839
  164 -57.5781 -1.12622 0.771228
  165 -39.9702 -0.0709859 1.67221
  166 -21.7786 0.861275 0.708530
  167 2.69388 1.40077 0.767014
  168 22.3446 1.70927 0.793987
  169 45.9230 1.30971 1.04739
  170 69.1839 1.87167 0.994307
  171 86.9544 2.51218 0.720505
  172 108.435 2.76093 0.363342
  173 129.190 1.69437 0.566826
  174 150.285 1.00032 0.475822
  175 170.061 1.11159 0.592385
  176 192.725 -0.274658 0.712135
  177 214.659 0.518483 0.677558
  178 232.264 0.785667 0.294971
  179 63.0591 11.5358 -1.60101
  180 63.0328 11.5494 1.64428
  181 -1.65259 1.62863 18.9215
  182 -1.71879 1.62262 -18.9248
  183 145.446 -2.11579 -31.6046
  184 145.377 -2.40959 31.9599
  185 28.3483 6.05010 -0.0529677
  186 28.0098 6.18330 0.0749165
  187 19.8828 4.06302 -3.34747
  188 19.9064 4.06297 3.35073
  189 138.269 3.23018 -4.44544
  190 138.290 3.21641 4.44584
  191 -3.50090 5.71087 10.6084
  192 -3.54259 5.72130 -10.6118
  193 160.751 4.63481 -11.8299
  194 160.827 4.56446 11.8389
  195 -6.37679 -5.57790 14.6556
  196 -6.37363 -5.60894 -14.6717
  197 1.26490 -13.6347 -17.8880
  198 49.0422 1.28604 -28.2911
  199 1.59065 -14.5587 17.4923
  200 48.2496 1.70389 28.7945
  201 228.349 -31.9314 -46.1001
  202 236.561 -33.2036 44.1243
  203 80.9841 3.29870 -0.434769
  204 80.9823 3.29470 0.436565
  205 -14.7197 1.16544 -2.19024
  206 -14.6871 1.16592 2.19083
  207 -18.8061 2.76513 14.4505
  208 -18.8451 2.77104 -14.4677
  209 81.3560 8.09200 -1.68260
  210 81.3581 8.08400 1.69618
  211 24.2482 10.3683 7.88338
  212 24.1570 10.4321 -7.89458
  213 -24.5786 2.64083 -6.21533
  214 -24.5397 2.63830 6.21419
  215 184.979 0.724803 2.18859
  216 184.949 0.728027 -2.19039
  217 5.67395 -25.7932 8.25174
  218 6.17392 -23.4830 -7.45191
  219 -1.79733 -15.7080 16.6031
  220 -1.83027 -16.2893 -16.0699
  221 75.0079 11.0211 -11.8853
  222 74.9519 11.0699 12.0315
  223 -16.7313 -0.120711 14.3729
  224 -16.7535 -0.122078 -14.3899
  225 197.912 1.56978 -6.60881
  226 197.946 1.54942 6.59503
  227 212.569 -2.74790 -12.9330
  228 212.726 -2.97440 12.8574
  229 338.169 26.5242 -0.430499
  230 310.240 33.9538 21.4978
  231 307.304 -4.22986 -30.5122
  232 36.2767 8.69413 4.37050
  233 36.2506 8.70098 -4.35847
  234 1.82380 6.85147 14.7857
  235 1.76803 6.87204 -14.7968
  236 237.388 -14.3964 -8.04562
  237 235.984 -14.5819 8.79314
  238 130.724 1.72236 -1.56739
  239 130.737 1.71837 1.56710
  240 -30.0086 2.10313 9.72082
  241 -30.0486 2.10736 -9.72862
  242 -4.03790 -3.97760 -6.53779
  243 -4.03482 -3.97576 6.54256
  244 -33.8182 0.935051 3.22415
  245 -33.8574 0.935222 -3.22382
  246 106.872 8.55658 -7.50047
  247 106.898 8.52936 7.53268
  248 136.328 4.49342 -17.8138
  249 136.448 4.40803 17.8947
  250 31.6861 2.53255 -0.450084
  251 31.7043 2.53394 0.451320
  252 78.0985 -1.79839 -63.0782
  253 92.7260 0.663167 69.0844
  254 10.0819 4.50646 14.2831
  255 10.0367 4.61434 -14.3317
  256 324.355 -27.3061 -3.68360
  257 26.9371 10.7190 6.82483
  258 26.8910 10.7415 -6.81338
  259 76.4476 7.90835 -23.0247
  260 76.3147 8.11940 23.3101
  261 361.366 49.3833 -6.59854
  262 214.641 0.495441 8.94792
  263 214.588 0.567308 -8.99230
  264 -1.96537 -12.0433 -10.3034
  265 -1.91241 -12.0931 10.3454
  266 -0.454266 -28.7917 -14.3193
  267 0.880372 -33.9780 -13.4629
  268 0.450230 -33.8423 13.9931
  269 -5.55514 -4.85067 18.9950
  270 -5.57612 -4.83997 -19.0629
  271 11.0781 -28.3055 -3.49967
  272 11.9014 -26.2523 5.35044
  273 -12.4252 -1.06565 9.05617
  274 -12.4300 -1.07011 -9.06325
  275 151.805 4.77130 -7.26892
  276 151.842 4.74049 7.26831
  277 266.873 -28.2485 -0.469788
  278 57.6295 5.48611 -0.672600
  279 57.6389 5.48925 0.677844
  280 -0.733589 -26.9943 13.6727
  281 4.43383 5.67480 7.04149
  282 4.39968 5.68079 -7.03944
  283 426.506 30.2745 -10.2631
  284 208.618 0.458328 2.71248
  285 208.582 0.462857 -2.71672
  286 138.034 -7.29706 -47.8220
  287 139.313 -7.17849 48.6106
  288 266.503 -26.7463 -3.94781
  289 -25.6001 0.767507 11.3972
  290 -25.6268 0.768135 -11.4107
  291 261.580 -23.9368 78.8890
  292 -11.6318 1.77176 17.3542
  293 -11.6692 1.77127 -17.3780
  294 42.9905 11.8712 -2.07654
  295 42.8296 11.9866 2.14041
  296 -47.8565 0.472447 0.603384
  297 -47.8983 0.472309 -0.603189
  298 220.007 0.907749 -108.112
  299 -44.2488 0.925129 -5.30209
  300 -44.2059 0.923592 5.29930
  301 -1.48548 -5.81519 19.5460
  302 -0.855263 -5.69636 -19.3814
  303 95.4560 10.1413 -10.9508
  304 95.4740 10.1271 11.0343
  305 19.6208 2.84694 2.50649
  306 19.5984 2.84601 -2.50473
  307 99.6837 4.43032 -2.04895
  308 99.6898 4.42263 2.05193
  309 9.06480 -8.02398 10.8793
  310 8.25790 -9.46742 -10.9727
  311 96.7519 2.27977 -0.442020
  312 96.7541 2.27702 0.442338
  313 -36.0592 0.935862 8.40501
  314 -36.0932 0.937417 -8.41422
  315 23.7036 -3.47046 -4.59526
  316 22.9764 -3.49226 3.96812
  317 217.939 0.0701258 0.753653
  318 217.898 0.0706635 -0.753917
  319 478.134 27.6109 17.8789
  320 47.6652 6.93798 2.02193
  321 47.6501 6.93721 -2.01290
  322 -11.7058 2.57227 4.47281
  323 -11.7397 2.57353 -4.47185
  324 66.1591 9.52416 -0.835390
  325 66.1493 9.52229 0.859931
  326 7.21319 6.80627 15.4070
  327 7.16684 6.82452 -15.4325
  328 0.979821 -48.8470 9.97121
  329 -49.3872 0.189492 -1.33500
  330 -49.3445 0.189675 1.33526
  331 165.453 0.933066 -1.42126
  332 165.477 0.930974 1.42059
  333 174.280 1.64187 -3.77107
  334 174.308 1.63276 3.76705
  335 -45.7988 0.847788 -3.90727
  336 -45.7555 0.847121 3.90663
  337 -2.40910 1.10525 0.572279
  338 -2.43760 1.10454 -0.571861
  339 -1.01985 -19.8312 10.3057
  340 -0.813412 -20.6244 -10.2919
  341 195.368 -16.5848 -32.0948
  342 203.107 -19.8143 31.4690
  343 115.558 6.21292 -4.58905
  344 115.576 6.19548 4.59622
  345 50.0939 12.0811 -0.638099
  346 50.0185 12.1308 0.688592
  347 -19.0109 3.56779 8.75650
  348 -19.0506 3.57334 -8.76025
  349 367.507 3.55213 6.11633
  350 18.7279 -31.0751 -19.9493
  351 20.0345 -29.2707 20.9913
  352 -8.47911 5.60154 13.8516
  353 -8.52543 5.61390 -13.8630
  354 -10.2923 -2.15252 16.7728
  355 -10.3147 -2.15577 -16.7981
  356 415.826 67.6440 -16.3622
  357 264.365 -4.65119 36.1454
  358 248.637 -5.65170 -5.62205
  359 248.362 -5.52185 5.18558
  360 173.051 -1.78909 -20.3778
  361 172.863 -1.97953 20.3775
  362 0.319729 -58.8228 -8.12617
  363 228.111 0.799087 -5.04945
  364 228.138 0.778392 5.02547
  365 2.88384 -55.6849 6.63733
  366 259.647 20.1973 -20.2864
  367 62.9859 2.66219 0.912159
  368 62.9775 2.66036 -0.911909
  369 174.256 1.67027 -15.1437
  370 174.376 1.56570 15.1528
  371 188.467 1.96856 -9.24138
  372 188.513 1.92222 9.22239
  373 -4.92459 2.32384 3.08796
  374 -4.95524 2.32386 -3.08663
  375 106.761 5.93159 -23.9154
  376 106.812 5.99083 24.1585
  377 224.699 0.104543 1.23906
  378 224.656 0.105607 -1.24016
  379 125.515 7.35964 -11.9237
  380 125.572 7.30668 11.9704
  381 145.789 2.77542 3.01164
  382 145.770 2.78224 -3.01283
  383 -6.99378 -1.27652 5.55926
  384 -6.99248 -1.27957 -5.55873
  385 -1.65316 -1.17743 -1.60017
  386 -1.65402 -1.17816 1.60268
  387 298.839 -39.0089 19.2451
  388 -3.97472 -9.52072 15.2815
  389 -3.94899 -9.59794 -15.2797
  390 47.1525 3.56479 -1.33319
  391 47.1657 3.56720 1.33586
  392 -1.49200 -7.41832 5.57878
  393 -1.50846 -7.40529 -5.57896
  394 17.5284 8.57521 7.78323
  395 17.4902 8.58832 -7.77750
  396 244.455 -0.792451 6.62981
  397 244.419 -0.696406 -6.76556
  398 -0.718178 -14.8495 18.5629
  399 -20.1284 -0.384851 8.60446
  400 -20.1396 -0.386352 -8.61375
  401 -0.795147 -15.6604 -18.3514
  402 229.811 0.282354 3.21104
  403 229.774 0.288583 -3.21961
  404 -2.70722 4.90854 17.3027
  405 -2.77429 4.92641 -17.3252
  406 168.805 2.97529 -6.06282
  407 168.835 2.95637 6.05643
  408 259.799 -11.1900 -6.54407
  409 260.804 -8.97774 5.01291
  410 -0.552101 -27.0569 -11.3186
  411 22.5083 8.21443 -6.02390
  412 22.6941 8.11398 6.01011
  413 254.628 16.8704 12.7790
  414 145.830 -9.08535 -66.5267
  415 149.860 -11.8516 69.7558
  416 7.81284 8.07319 11.5345
  417 7.76493 8.09124 -11.5366
  418 107.414 3.47392 -1.40070
  419 107.421 3.46897 1.40145
  420 104.179 12.8095 106.193
  421 42.3521 10.4220 -3.46688
  422 42.3846 10.4078 3.48711
  423 2.53837 -26.4152 12.8680
  424 -0.330969 -44.0634 -9.89275
  425 16.3484 9.80127 10.9083
  426 16.2901 9.82981 -10.9115
  427 20.0461 5.96067 -4.85885
  428 20.0728 5.95769 4.86380
  429 -7.63898 -0.535808 -19.0221
  430 -7.60184 -0.546437 18.9952
  431 50.9640 9.89064 -8.68504
  432 50.7523 10.0497 8.80859
  433 260.076 -8.69919 -27.1695
  434 6.93844 -3.14537 15.1920
  435 6.69995 -3.06528 -15.2722
  436 189.231 -8.03738 -22.5287
  437 190.055 -8.63763 22.4771
  438 -48.0866 0.405184 -5.10579
  439 -48.0453 0.404012 5.10151
  440 0.00554376 -43.1902 8.87770
  441 -0.317941 -27.3924 10.0696
  442 -19.6466 1.20929 14.6008
  443 -19.6757 1.20960 -14.6186
  444 135.614 1.65042 -0.538789
  445 135.628 1.64802 0.538395
  446 -4.12706 -6.51314 10.3357
  447 -4.13289 -6.52682 -10.3232
  448 83.4719 3.67284 -34.9648
  449 83.3258 4.07324 35.4096
  450 0.698344 -52.6547 -9.93735
  451 477.466 17.6701 0.504655
  452 1.28119 -62.8082 -6.08473
  453 -57.3387 0.0580801 -1.92508
  454 -57.2931 0.0581526 1.92513
  455 -22.1994 3.04996 12.0941
  456 -22.2402 3.05643 -12.1057
  457 -25.3364 0.352222 8.66305
  458 -25.3538 0.352323 -8.67271
  459 91.5779 9.87006 -7.20136
  460 91.5904 9.86022 7.25291
  461 139.573 6.03642 -9.23714
  462 139.622 5.99163 9.25158
  463 -2.54789 -9.06095 19.1578
  464 -2.55059 -9.00029 -19.2357
  465 241.164 3.52349 -34.3288
  466 16.0823 -5.17071 -3.85855
  467 15.5252 -5.30507 4.14392
  468 3.73887 -57.2945 0.142258
  469 2.36339 -66.2179 -1.82337
  470 -7.49031 -3.37475 10.6467
  471 -7.49217 -3.38622 -10.6497
  472 50.7414 -8.35891 -54.1902
  473 376.230 -3.79151 -33.9002
  474 83.3514 5.90199 1.76861
  475 83.3499 5.90988 -1.76108
  476 121.482 1.02204 -33.8632
  477 121.792 0.981362 34.4116
  478 34.9594 12.5552 4.81286
  479 34.8993 12.5942 -4.79417
  480 109.622 8.41282 -17.4174
  481 109.686 8.36167 17.5617
  482 3.60133 1.88066 17.7140
  483 3.84458 2.00328 -17.6911
  484 -50.6876 0.781434 -3.83313
  485 -50.6429 0.780772 3.83178
  486 244.128 -29.0207 -17.6537
  487 194.701 0.418481 -1.04909
  488 194.734 0.417612 1.04884
  489 8.94472 1.63359 -1.38808
  490 8.97003 1.63455 1.38904
  491 -13.3166 4.57580 11.4066
  492 -13.3590 4.58466 -11.4137
  493 -29.3891 1.83729 -4.28153
  494 -29.3504 1.83617 4.28157
  495 83.3170 8.64073 -2.87532
  496 83.3208 8.63054 2.89568
  497 -10.7234 3.84067 15.8584
  498 -10.7700 3.85085 -15.8780
  499 223.677 -6.09053 -11.9463
  500 224.043 -6.42023 11.7388
  501 145.529 1.73223 -22.4570
  502 145.324 1.61363 22.6597
  503 53.2716 2.94024 -0.788001
  504 53.2829 2.94245 0.789165
  505 0.504684 -27.1471 -15.7880
  506 261.655 -9.79516 22.3552
  507 3.38707 -18.2510 -14.5755
  508 73.2314 11.9976 7.16717
  509 73.2658 11.9699 -7.07924
  510 241.445 -27.1575 17.3931
  511 17.8569 -28.2763 27.9265
  512 288.359 -38.9267 -35.4853
  513 195.933 1.14832 11.1075
  514 195.857 1.23519 -11.1331
  515 0.456590 -23.2787 16.4278
  516 -3.82811 -1.14903 -2.95927
  517 -3.83015 -1.14865 2.96169
  518 22.5687 1.58818 -0.449060
  519 22.5897 1.58935 0.449479
  520 -0.670170 -15.2550 6.59927
  521 -0.608063 -15.1825 -6.63202
  522 161.369 2.06027 2.42865
  523 161.347 2.06401 -2.42995
  524 458.217 78.6181 31.1297
  525 18.2923 -12.9192 -4.59853
  526 14.1982 -16.9465 1.64041
  527 -5.72509 3.62928 -5.88308
  528 -5.69094 3.62619 5.88394
  529 -39.6367 0.629838 5.22466
  530 -39.6650 0.630536 -5.23046
  531 0.386495 -49.2916 9.85200
  532 -56.5913 0.545774 0.580883
  533 -56.6357 0.545746 -0.580631
  534 48.8787 -5.46166 -39.5374
  535 47.7664 -4.56307 41.1480
  536 44.6652 7.36515 -12.8110
  537 44.3272 7.57987 12.9222
  538 -10.7023 -2.29193 14.6335
  539 -10.7161 -2.30048 -14.6522
  540 43.6851 4.41322 1.44546
  541 43.6705 4.41122 -1.44153
  542 -24.5289 1.23015 1.92846
  543 -24.5647 1.23003 -1.92774
  544 51.8214 8.08071 1.73956
  545 51.8058 8.08153 -1.72528
  546 -1.06741 -3.44336 2.52651
  547 -1.07097 -3.44002 -2.52592
  548 18.5382 7.98390 9.98786
  549 18.4156 8.10252 -10.0214
  550 14.9836 1.91601 8.94837
  551 14.7664 1.89487 -9.06524
  552 198.897 1.71296 4.69625
  553 198.864 1.72233 -4.70317
  554 175.427 2.74038 7.42393
  555 175.390 2.76938 -7.43382
  556 -0.181359 -41.3833 -6.13912
  557 122.039 6.63813 -6.94634
  558 122.067 6.61167 6.95987
  559 122.527 3.33698 -2.49605
  560 122.540 3.32878 2.49691
  561 -18.1596 0.784390 -0.0595758
  562 -18.1265 0.784880 0.0598685
  563 205.206 11.5105 -6.60545
  564 276.122 -36.0642 -12.0008
  565 223.231 10.0604 26.1672
  566 1.75397 -36.0538 -11.7799
  567 -13.1106 3.99227 -7.63783
  568 -13.0728 3.98764 7.63670
  569 1.80476 -21.0490 15.6646
  570 -12.4699 0.263905 16.8677
  571 -12.4993 0.263334 -16.8886
  572 351.419 33.8746 -1.86679
  573 79.1254 4.16773 -0.662673
  574 79.1235 4.16288 0.665678
  575 539.983 45.2991 -45.7732
  576 -2.89931 -2.28577 19.8085
  577 -2.72666 -2.14657 -19.8277
  578 291.879 -27.0966 13.6067
  579 235.687 0.411231 -5.63794
  580 235.707 0.377919 5.59707
  581 106.543 -1.02862 -49.4319
  582 107.863 -1.33779 50.2651
  583 -6.14351 -5.91803 16.9636
  584 -6.14821 -5.94688 -17.0043
  585 55.4964 4.02444 25.4849
  586 55.9635 3.58676 -25.2413
  587 -46.5388 0.545154 -4.95199
  588 -46.5003 0.544300 4.94722
  589 344.265 27.2232 23.2332
  590 64.3596 6.42391 -0.212768
  591 64.3665 6.42800 0.220543
  592 76.1144 9.40433 -17.2683
  593 76.0233 9.52015 17.4832
  594 212.437 -0.131297 -10.9224
  595 212.532 -0.246983 10.8772
  596 -0.995763 -21.8053 -15.2987
  597 232.284 -0.143946 1.67728
  598 232.240 -0.142479 -1.67896
  599 -34.8817 0.791306 -0.792039
  600 -34.8434 0.791523 0.792525
  601 -60.6572 -0.362787 0.0379953
  602 -60.7024 -0.363019 -0.0378791
  603 4.76661 -33.5796 -6.06243
  604 -2.20457 -14.0918 13.0311
  605 -2.32512 -13.3404 -13.1186
  606 -26.6252 1.61445 12.1988
  607 -26.6579 1.61716 -12.2127
  608 161.061 4.38824 9.31696
  609 161.014 4.43310 -9.31976
  610 118.195 1.99446 0.601296
  611 118.187 1.99666 -0.601299
  612 26.1588 -8.90770 15.6143
  613 27.0295 -8.34187 -15.4503
  614 -0.837998 -10.6264 5.56502
  615 -0.862969 -10.5915 -5.58313
  616 278.337 14.3479 114.989
  617 -13.7031 -0.432404 5.16900
  618 -13.7026 -0.434262 -5.17259
  619 4.70802 -20.4568 -11.9421
  620 115.501 5.08421 -3.46856
  621 115.515 5.07231 3.47202
  622 55.8817 11.9994 -4.93629
  623 55.7815 12.0710 5.02439
  624 0.564787 -74.9083 4.24038
  625 41.6688 11.9086 3.16755
  626 41.6264 11.9333 -3.14330
  627 -5.52895 4.96344 9.16495
  628 -5.56775 4.97071 -9.16664
  629 -0.331938 -36.5640 8.39050
  630 -60.1733 0.101944 -1.90744
  631 -60.1265 0.101872 1.90733
  632 75.4344 2.45722 0.0477547
  633 75.4385 2.46028 -0.0466899
  634 193.841 0.894291 3.08143
  635 193.809 0.899033 -3.08452
  636 169.997 -13.4737 87.7860
  637 136.603 3.88454 -5.49447
  638 136.627 3.86536 5.49658
  639 1.90719 -3.25565 18.4903
  640 2.38897 -2.02016 -18.4802
  641 219.115 -23.6160 -70.8428
  642 524.192 18.2891 -19.0605
  643 -55.0224 0.0643921 -3.45151
  644 -54.9781 0.0638535 3.44921
  645 11.8008 3.13837 -2.93561
  646 11.8263 3.13851 2.93770
  647 -1.05151 -23.0314 13.4739
  648 296.131 16.5225 -32.8428
  649 229.766 -0.262607 0.278752
  650 229.719 -0.262351 -0.278780
  651 -14.8134 -0.839452 -12.0687
  652 -14.8006 -0.836126 12.0556
  653 -0.0383893 -52.0922 -8.11776
  654 233.773 -0.303234 0.642103
  655 233.725 -0.302868 -0.642266
  656 20.2565 7.52601 6.63802
  657 20.2244 7.53379 -6.63156
  658 176.201 -15.8486 -46.2194
  659 179.505 -15.8001 46.7646
  660 259.965 -1.51408 3.77443
  661 260.063 -1.49390 -3.95733
  662 1.12715 -66.0070 6.50364
  663 -15.5080 0.639918 -1.13469
  664 -15.4755 0.640493 1.13518
  665 84.3421 2.71931 -82.8207
  666 78.5585 2.24190 0.544913
  667 78.5622 2.24397 -0.544528
  668 37.9193 3.26205 0.757194
  669 37.9029 3.26028 -0.755192
  670 45.3936 5.46193 -1.25777
  671 45.4083 5.46379 1.26400
  672 150.506 4.62446 -14.3983
  673 150.602 4.54306 14.4325
  674 39.1120 11.5642 1.54972
  675 39.0006 11.6451 -1.51889
  676 -28.2801 2.12038 -7.14838
  677 -28.2398 2.11711 7.14565
  678 -32.6102 2.23980 -8.06008
  679 -32.5694 2.23622 8.05494
  680 266.719 -3.96396 -1.18330
  681 0.112925 -11.1892 -18.7441
  682 267.239 -4.15908 0.775527
  683 336.936 26.8395 0.614505
  684 -33.5822 0.152778 5.92957
  685 -33.6040 0.152858 -5.93647
  686 33.9831 9.63451 -0.790574
  687 33.7426 9.76263 0.829978
  688 -64.7098 0.0927605 -0.723773
  689 -64.6625 0.0928230 0.723984
  690 0.299485 -10.1171 18.8043
  691 -21.1439 0.258371 12.7712
  692 -21.1677 0.257961 -12.7862
  693 292.317 -25.4765 -14.7650
  694 44.8414 1.53545 -0.219032
  695 44.8273 1.53384 0.219556
  696 9.41218 4.50979 4.76837
  697 9.38359 4.51162 -4.76539
  698 153.256 -7.32042 -38.4934
  699 154.473 -7.60801 39.2819
  700 546.118 38.3218 41.9006
  701 10.0814 -52.9061 -16.4019
  702 -4.00705 -8.37417 18.1830
  703 -4.01600 -8.40506 -18.2199
  704 31.3799 7.50969 -3.85883
  705 31.4039 7.50628 3.86723
  706 240.277 -0.239933 -1.71724
  707 240.322 -0.241566 1.71430
  708 112.847 2.40987 0.958153
  709 112.839 2.41380 -0.958004
  710 8.71286 8.26217 13.8330
  711 8.65705 8.28804 -13.8442
  712 4.49646 2.38847 2.07469
  713 4.46954 2.38793 -2.07349
  714 -7.08505 1.45812 18.7526
  715 -7.13061 1.46056 -18.7844
  716 196.811 0.165761 1.28204
  717 196.778 0.167336 -1.28297
  718 169.809 1.90401 3.48972
  719 169.783 1.91007 -3.49211
  720 22.1767 -16.7497 19.0071
  721 22.8543 -17.8056 -18.3224
  722 -13.6311 2.81434 16.3598
  723 -13.6721 2.81906 -16.3817
  724 6.77332 -17.0887 9.65225
  725 0.0843613 4.87543 17.4951
  726 0.0135311 4.89167 -17.5076
  727 -38.6312 1.15611 -4.78994
  728 -38.5896 1.15482 4.78872
  729 28.6132 9.71070 6.32205
  730 28.5745 9.72573 -6.30975
  731 262.702 -8.10135 -15.3053
  732 248.957 -21.9599 -5.14081
  733 -4.07396 -8.32030 12.8035
  734 -4.06788 -8.35790 -12.7858
  735 95.4043 -1.93754 -58.3822
  736 92.8610 0.178991 59.0129
  737 57.7084 11.0457 -8.12732
  738 57.5715 11.1558 8.25220
  739 4.84701 -10.1137 15.3493
  740 -0.369533 -26.9921 -7.26921
  741 121.917 7.07967 -13.2624
  742 121.987 7.02786 13.3351
  743 0.329831 -53.2339 6.77646
  744 72.1617 10.4442 -2.91724
  745 72.1528 10.4432 2.95378
  746 252.128 -0.0963713 -4.28057
  747 252.112 -0.129494 4.21284
  748 4.82305 -73.8781 0.844817
  749 112.164 8.81822 9.88580
  750 112.127 8.85200 -9.84038
  751 29.7583 10.5054 -4.27481
  752 29.9085 10.3946 4.27489
  753 -45.6999 0.304278 -4.16155
  754 -45.6664 0.303846 4.15690
  755 124.974 2.64367 -2.22678
  756 124.986 2.63816 2.22689
  757 76.3143 11.3781 -5.93105
  758 76.2986 11.3867 5.99614
  759 -0.201795 6.78937 13.6613
  760 -0.251703 6.80655 -13.6698
  761 249.732 -18.7528 2.12717
  762 -40.0403 0.946668 3.66656
  763 -40.0815 0.947078 -3.66667
  764 545.208 101.988 -72.2309
  765 -15.9435 1.69108 3.92896
  766 -15.9778 1.69136 -3.92817
  767 212.963 0.915781 7.78240
  768 212.925 0.958085 -7.81492
  769 395.479 25.5235 0.569828
  770 241.978 -0.554440 -3.26998
  771 242.012 -0.560597 3.25924
  772 153.492 2.68915 4.34394
  773 153.470 2.69933 -4.34604
  774 229.978 -27.4374 64.5167
  775 98.8962 7.77334 -3.40588
  776 98.9086 7.75892 3.41928
  777 2.20137 -41.0592 8.80067
  778 264.147 -34.1206 20.1260
  779 160.137 0.862290 0.756114
  780 160.116 0.863940 -0.756339
  781 210.980 0.331124 0.404729
  782 210.941 0.331470 -0.404829
  783 -0.972628 -21.4532 -12.5897
  784 1.22950 -36.9747 12.5622
  785 93.4757 10.6554 13.7391
  786 93.4629 10.6578 -13.6123
  787 541.683 5.79129 4.53660
  788 162.143 1.73521 -18.0932
  789 162.271 1.63752 18.1357
  790 -34.3555 1.14243 9.17802
  791 -34.3936 1.14517 -9.18656
  792 6.66439 -30.5703 3.41837
  793 4.34815 -69.1638 -3.92306
  794 371.543 47.7818 -3.72403
  795 -0.332212 -26.9062 6.55897
  796 7.02412 5.11135 15.9001
  797 7.00353 5.11181 -15.9615
  798 48.5517 10.0677 2.18950
  799 48.5293 10.0756 -2.17023
  800 248.070 -11.2643 -3.28848
  801 248.461 -11.1575 2.36810
  802 294.024 36.6420 -108.728
  803 -41.2691 0.542451 -1.74630
  804 -41.2283 0.542523 1.74674
  805 -18.8188 -0.0848648 4.87983
  806 -18.8219 -0.0856166 -4.88450
  807 17.4286 0.674162 5.64764
  808 17.0579 0.652282 -5.67429
  809 187.490 -0.725736 16.3200
  810 187.343 -0.552610 -16.2958
  811 94.8059 3.00054 -0.398210
  812 94.8083 2.99670 0.399012
  813 303.309 -6.12349 30.3173
  814 30.7997 5.41888 -3.42171
  815 30.8209 5.41860 3.42741
  816 29.0263 3.21541 -3.66475
  817 28.7630 3.36429 3.74638
  818 -0.191723 -21.4598 -17.0938
  819 432.197 61.8483 57.9971
  820 -63.0151 0.0894972 -1.89195
  821 -62.9671 0.0893806 1.89153
  822 -0.0941393 -65.0487 6.45605
  823 4.27222 -9.98078 -15.4998
  824 -9.31867 -0.578608 3.61447
  825 -9.31409 -0.579985 -3.61529
  826 343.429 17.8996 -22.3278
  827 88.0542 9.20487 -4.26802
  828 88.0621 9.19354 4.29932
  829 235.531 -3.18188 -8.19398
  830 235.724 -3.22694 8.04659
  831 -60.1107 0.480022 2.49061
  832 -60.1575 0.480435 -2.49185
  833 -0.416813 -0.432462 -0.349787
  834 -0.417647 -0.433249 0.351162
  835 0.212045 -66.5558 -6.33947
  836 0.311687 -70.3986 -5.87707
  837 -66.7960 0.670093 0.394769
  838 -66.8430 0.670167 -0.394675
  839 34.9713 -13.7910 -37.7406
  840 145.395 2.22166 -1.21734
  841 145.413 2.21880 1.21666
  842 -6.07549 1.40419 0.503152
  843 -6.10504 1.40364 -0.503049
  844 217.258 0.855280 -5.18425
  845 217.291 0.840578 5.16895
  846 -24.7660 0.167015 4.64809
  847 -24.7745 0.167055 -4.65301
  848 130.168 -1.02636 -88.3910
  849 225.878 -19.4475 17.4448
  850 177.619 1.16855 -1.57576
  851 177.646 1.16638 1.57461
  852 223.738 -21.1845 -19.5785
  853 68.8498 8.16695 -0.759775
  854 68.8439 8.16178 0.776966
  855 95.6930 6.78812 -2.52069
  856 95.7009 6.77712 2.52926
  857 262.814 -5.67299 11.6705
  858 15.3937 9.34157 11.6241
  859 15.3292 9.37812 -11.6406
  860 15.2816 1.42980 1.00562
  861 15.2583 1.42868 -1.00498
  862 123.289 2.05229 1.00569
  863 123.279 2.05527 -1.00582
  864 326.077 -32.3784 34.5654
  865 203.548 1.49119 -6.74588
  866 203.586 1.46366 6.72529
  867 1.77960 3.28470 3.78533
  868 1.75021 3.28534 -3.78342
  869 204.392 0.0455437 1.88566
  870 204.356 0.0474505 -1.88716
  871 -39.2401 0.347007 -1.04892
  872 -39.2010 0.347313 1.04884
  873 -0.185676 -20.5689 5.83675
  874 -0.242234 -20.8908 -5.88280
  875 242.788 -3.73610 27.5023
  876 -15.4149 3.75909 13.9163
  877 -15.4579 3.76801 -13.9305
  878 -0.0864237 -33.9488 -6.47018
  879 95.7459 4.03951 -1.25368
  880 95.7493 4.03434 1.25546
  881 177.137 -9.03186 -29.2752
  882 178.553 -9.99871 29.5693
  883 -7.84425 -2.83204 -18.2783
  884 -7.81287 -2.83406 18.2449
  885 8.94371 8.41811 12.7327
  886 8.89068 8.44051 -12.7377
  887 0.863152 -78.3849 4.63351
  888 1.88855 6.45966 16.0733
  889 1.82889 6.47861 -16.0865
  890 163.431 -2.84761 -25.9881
  891 163.089 -2.99761 26.1980
  892 282.848 14.7243 33.9065
  893 64.0704 7.63742 -0.0210075
  894 64.0783 7.64174 0.0328775
  895 209.175 1.58103 -5.06852
  896 209.208 1.56914 5.05810
  897 -8.30455 -3.67072 15.9923
  898 -8.31815 -3.68353 -16.0184
  899 0.708037 -81.1878 -3.29053
  900 -12.7632 -0.920322 15.7186
  901 -12.7848 -0.921862 -15.7385
  902 7.06567 7.69726 -10.0752
  903 7.10811 7.68303 10.0752
  904 -0.645806 -5.13648 2.85176
  905 -0.652955 -5.13099 -2.85587
  906 16.8697 8.66739 -9.16624
  907 16.9144 8.64980 9.17069
  908 3.51453 -6.73708 17.1758
  909 3.03226 -6.27450 -17.9920
  910 201.992 -5.54871 16.5636
  911 201.498 -5.25573 -16.6807
  912 -68.0160 0.228301 -0.579357
  913 -67.9682 0.228344 0.579497
  914 -5.70863 -0.522202 2.70889
  915 -5.70315 -0.523022 -2.70786
  916 0.280145 -48.3281 -5.92244
  917 -6.20156 -2.67789 -7.74023
  918 -6.20029 -2.67174 7.74175
  919 -26.5647 2.20677 11.7938
  920 -26.6024 2.21138 -11.8063
  921 61.8841 12.2504 -2.82976
  922 61.8451 12.2803 2.88488
  923 265.368 21.3508 -5.79276
  924 -3.87259 6.08703 12.4230
  925 -3.91788 6.09991 -12.4296
  926 98.3219 6.06775 -26.9232
  927 98.3474 6.15725 27.2550
  928 -12.7628 4.29628 10.0297
  929 -12.8035 4.30414 -10.0344
  930 326.834 -18.0643 -8.20241
  931 191.362 7.64130 14.6161
  932 234.618 -3.27025 -24.8793
  933 176.808 2.77789 -11.0592
  934 176.873 2.71326 11.0496
  935 -19.8932 2.65354 -5.05495
  936 -19.8565 2.65148 5.05501
  937 -43.0264 0.797791 5.94739
  938 -43.0680 0.799454 -5.95173
  939 -2.57558 -8.28013 -8.99113
  940 -2.55865 -8.28884 9.00868
  941 61.4753 4.46396 -0.0798111
  942 61.4833 4.46741 0.0835011
  943 -20.1924 2.01870 14.5437
  944 -20.2264 2.02109 -14.5619
  945 213.359 0.141562 2.50047
  946 213.321 0.143845 -2.50266
  947 -1.64492 -18.2736 13.6996
  948 6.87880 7.11884 -8.70562
  949 6.91694 7.10867 8.70707
  950 9.72011 5.06414 5.84781
  951 9.68959 5.06774 -5.84477
  952 35.2275 3.74183 -1.68465
  953 35.2449 3.74325 1.68722
  954 401.767 46.9370 -6.59933
  955 -1.55413 -0.434936 -1.06094
  956 -1.55747 -0.434970 1.06291
  957 13.1206 3.35247 -11.0972
  958 13.3460 3.23477 11.0645
  959 142.112 6.15529 -11.4343
  960 142.175 6.09765 11.4579
  961 17.1244 6.33370 -5.66115
  962 17.1541 6.32906 5.66610
  963 38.4341 -14.7611 50.9451
  964 270.326 -1.83181 -2.02481
  965 269.847 -1.76115 1.75637
  966 46.5852 -7.79110 43.9924
  967 48.6690 2.55586 0.0338725
  968 48.6562 2.55412 -0.0329886
  969 128.921 -6.20203 -76.3213
  970 97.2319 2.15983 0.568722
  971 97.2299 2.16195 -0.568511
  972 12.0202 -14.0619 3.83016
  973 13.2859 -11.9832 -2.82667
  974 240.030 -0.165339 0.866238
  975 239.980 -0.164948 -0.866475
  976 -19.7878 0.0395751 11.5599
  977 -19.8051 0.0388039 -11.5726
  978 429.545 53.3217 21.9764
  979 -1.94123 -13.8688 -18.1800
  980 1.94375 -71.0302 6.57229
  981 -0.391914 -21.9326 16.8123
  982 247.955 -0.0501362 -3.33746
  983 247.977 -0.0591880 3.31956
  984 -3.28398 -5.99602 7.75765
  985 -3.29225 -5.99510 -7.74898
  986 305.843 31.2882 -19.8811
  987 550.064 5.19064 -3.05549
  988 -0.802077 -1.18850 -1.15469
  989 -0.801264 -1.19102 1.15636
  990 142.708 2.11885 -2.42519
  991 142.726 2.11427 2.42445
  992 -2.00358 -13.3510 18.2859
  993 199.351 1.27144 9.94137
  994 199.298 1.33482 -9.96935
  995 261.615 -17.6600 -11.9660
  996 -9.19115 -1.94680 8.77307
  997 -9.19310 -1.95360 -8.77645
  998 4.04770 -17.9142 13.4948
  999 -0.458597 -32.8451 13.1887
  1000 -0.0362167 -33.6726 6.45647
  1001 264.195 17.8097 -1.45473
  1002 304.732 33.3764 11.9688
  1003 219.058 -25.8536 -35.1333
  1004 3.00328 -32.6865 10.9776
  1005 3.84350 -47.2920 3.13811
  1006 59.6503 1.91890 0.248475
  1007 59.6407 1.91715 -0.248303
  1008 -2.44122 -2.78018 -3.68162
  1009 -2.43936 -2.78116 3.68482
  1010 1.96626 -26.8404 -14.3757
  1011 177.379 0.605867 -0.577809
  1012 177.406 0.604680 0.577466
  1013 34.5364 -1.46732 -15.5987
  1014 33.0282 -1.38118 15.4498
  1015 -3.86796 5.35773 16.1253
  1016 -3.92420 5.37427 -16.1437
  1017 -21.7020 3.25392 -10.0765
  1018 -21.6611 3.24796 10.0700
  1019 133.781 2.22088 -26.5428
  1020 133.884 2.32211 26.8497
  1021 95.8312 8.62131 -18.1127
  1022 95.8371 8.61407 18.3068
  1023 104.407 8.08470 -5.79171
  1024 104.425 8.06319 5.81192
  1025 273.224 -8.36664 -32.7655
  1026 -7.72924 3.25771 17.5323
  1027 -7.78025 3.26532 -17.5608
  1028 193.849 0.134331 13.5266
  1029 193.744 0.265814 -13.5446
  1030 -1.44899 -10.5662 19.1765
  1031 -15.7621 -0.546129 8.49126
  1032 -15.7683 -0.548487 -8.49918
  1033 176.413 2.02339 -13.4100
  1034 176.503 1.93270 13.4061
  1035 214.560 4.83518 -23.4257
  1036 -0.309495 -32.7082 -13.8495
  1037 -2.68773 -12.9077 16.2733
  1038 -2.79702 -13.0516 -16.1322
  1039 123.645 7.71608 -9.24006
  1040 123.689 7.67597 9.26980
  1041 157.081 3.33508 5.40468
  1042 157.054 3.34997 -5.40785
  1043 261.081 -17.2458 10.4705
  1044 11.4179 1.57766 -0.283123
  1045 11.4422 1.57853 0.283307
  1046 221.660 -28.9454 37.5189
  1047 -2.76614 1.12495 1.30801
  1048 -2.79490 1.12415 -1.30740
  1049 46.7132 12.2702 1.27173
  1050 46.6582 12.3065 -1.23609
  1051 17.1762 9.63630 10.0287
  1052 17.1252 9.65933 -10.0265
  1053 2.34691 -40.5776 -9.14489
  1054 62.9160 2.83287 -0.260180
  1055 62.9239 2.83608 0.262319
  1056 185.409 6.32555 5.99264
  1057 178.831 1.75739 5.09429
  1058 178.802 1.77040 -5.10022
  1059 -1.27011 -10.9439 -19.2061
  1060 269.395 -3.39726 -6.03007
  1061 -0.377622 -1.25391 19.2400
  1062 -0.180940 -1.08747 -19.1620
  1063 246.712 -0.366144 -1.83746
  1064 246.755 -0.368181 1.83294
  1065 262.551 -0.802764 -3.21309
  1066 262.455 -0.838610 3.11478
  1067 -0.201133 -51.0590 4.87624
  1068 152.553 4.36390 -7.18481
  1069 152.583 4.33989 7.18276
  1070 186.449 2.06767 5.98310
  1071 186.417 2.08410 -5.99213
  1072 3.63741 4.12712 17.5146
  1073 3.61868 4.13162 -17.5244
  1074 406.223 27.7739 3.58225
  1075 -5.43754 -2.46824 19.5612
  1076 -5.50977 -2.41954 -19.6048
  1077 56.4925 11.5708 0.282474
  1078 56.4699 11.5820 -0.253084
  1079 -33.8788 0.748023 -1.89886
  1080 -33.8404 0.748261 1.89929
  1081 93.5872 4.95461 -31.1028
  1082 93.4812 5.22543 31.5179
  1083 26.2248 10.8668 7.99572
  1084 26.1684 10.8959 -7.98709
  1085 63.2208 6.74622 -22.4473
  1086 62.9017 7.07270 22.6745
  1087 -1.75276 -17.1501 -13.3407
  1088 224.962 2.70914 30.3532
  1089 159.035 -2.51637 99.6598
  1090 24.6706 11.0655 8.26910
  1091 24.6023 11.1059 -8.26622
  1092 95.3575 5.60388 -1.84122
  1093 95.3636 5.59460 1.84661
  1094 351.660 -1.51122 11.9294
  1095 21.6862 5.10922 5.71833
  1096 21.4103 5.18549 -5.79202
  1097 -10.4827 -2.33609 11.7122
  1098 -10.4891 -2.34609 -11.7221
  1099 -0.345039 -7.67656 3.11991
  1100 -0.358293 -7.67143 -3.13218
  1101 230.754 0.0432793 8.07459
  1102 230.701 0.136048 -8.15001
  1103 0.209380 -16.8322 18.0321
  1104 -16.0795 0.935117 -15.7953
  1105 -16.0505 0.935657 15.7759
  1106 0.0855014 -62.0716 -6.29254
  1107 -3.84079 -5.36103 19.5263
  1108 -3.83229 -5.25513 -19.5454
  1109 221.156 0.482550 -3.40136
  1110 221.194 0.477347 3.39575
  1111 227.289 -1.45247 9.61067
  1112 227.157 -1.30425 -9.69010
  1113 38.4636 8.15051 -6.61086
  1114 38.1723 8.33063 6.69907
  1115 -0.558831 -31.9717 -11.1642
  1116 299.838 -30.7759 -57.3893
  1117 389.324 47.0017 -1.39610
  1118 3.82756 -49.9782 -1.72350
  1119 13.1417 7.64557 -13.1422
  1120 13.2175 7.59941 13.0916
  1121 35.8623 11.9284 4.27411
  1122 35.7837 11.9805 -4.25420
  1123 77.1079 5.10331 0.401608
  1124 77.1097 5.10937 -0.396645
  1125 -5.10825 -7.27635 15.1909
  1126 -5.09995 -7.34255 -15.2118
  1127 -15.0437 4.46668 12.8765
  1128 -15.0868 4.47603 -12.8869
  1129 -5.77502 5.58566 14.9491
  1130 -5.82549 5.59999 -14.9633
  1131 216.160 -10.9845 -16.1021
  1132 217.590 -11.1005 15.9362
  1133 0.165761 -37.0311 -13.2263
  1134 114.055 -0.802606 -39.4089
  1135 114.267 -0.435309 40.1180
  1136 35.6780 11.1105 -4.57423
  1137 35.7166 11.0904 4.59169
  1138 116.467 45.4742 111.715
  1139 27.6305 9.01464 6.02717
  1140 27.5971 9.02512 -6.01693
  1141 296.244 -34.0333 -12.2512
  1142 110.687 3.57905 1.56422
  1143 110.678 3.58551 -1.56306
  1144 -5.07213 -4.53265 9.23537
  1145 -5.07451 -4.54252 -9.23100
  1146 -6.07483 -5.46488 11.9820
  1147 -6.07338 -5.48524 -11.9816
  1148 193.008 -20.7228 -56.0634
  1149 197.118 -22.7297 56.4993
  1150 33.2866 1.70229 0.263195
  1151 33.3043 1.70376 -0.262268
  1152 120.350 5.74888 -21.3487
  1153 120.376 5.66651 21.5822
  1154 265.814 -37.0755 42.3803
  1155 238.230 -0.438274 0.509600
  1156 238.180 -0.437953 -0.509547
  1157 -21.8863 3.36744 11.4750
  1158 -21.9276 3.37383 -11.4842
  1159 -37.2959 1.20580 -6.08620
  1160 -37.2543 1.20410 6.08410
  1161 59.2843 -2.79586 65.9257
  1162 179.095 12.3985 -12.1302
  1163 110.073 8.30057 -10.1783
  1164 110.116 8.26727 10.2399
  1165 347.508 -14.4055 61.4951
  1166 111.836 7.88766 -15.3924
  1167 111.891 7.83790 15.5000
  1168 26.8308 3.96784 -2.38169
  1169 26.8515 3.96883 2.38464
  1170 9.47210 -38.7376 5.27829
  1171 9.58928 -37.8791 -7.83957
  1172 152.076 -11.5924 -56.5276
  1173 154.249 -10.8902 56.5253
  1174 58.7095 9.32964 -15.2892
  1175 58.4687 9.53929 15.4741
  1176 269.643 -18.6508 -21.6247
  1177 -10.1086 -0.950275 17.7937
  1178 -10.1389 -0.948955 -17.8182
  1179 -0.305671 -15.0655 -18.5111
  1180 67.4348 0.387126 -41.1376
  1181 67.6068 0.623477 41.8989
  1182 -0.175293 -13.6435 3.48729
  1183 -0.149429 -13.6759 -3.52935
  1184 -65.7307 0.562773 -1.77016
  1185 -65.6820 0.562500 1.76953
  1186 215.977 0.122045 -0.913000
  1187 216.017 0.121183 0.912194
  1188 131.814 5.37116 -5.95972
  1189 131.843 5.34711 5.96573
  1190 -5.18746 -0.252879 19.6243
  1191 -5.20280 -0.176468 -19.6596
  1192 0.0290102 -55.2266 -5.44507
  1193 -55.6469 0.139578 2.80999
  1194 -55.6896 0.139928 -2.81245
  1195 41.5101 -2.83615 -28.3145
  1196 41.1873 -2.57346 29.2742
  1197 250.809 -15.4183 0.140161
  1198 70.1897 3.40618 -36.8953
  1199 70.2512 3.63166 37.3050
  1200 -30.6916 0.161549 4.23562
  1201 -30.7058 0.161456 -4.24044
  1202 0.778249 -48.9767 -9.47352
  1203 -10.4733 2.12017 -2.51265
  1204 -10.4415 2.12030 2.51364
  1205 36.5676 9.49273 4.63426
  1206 36.5366 9.50297 -4.61973
  1207 140.674 1.24213 -0.817837
  1208 140.690 1.24016 0.817772
  1209 190.701 1.26367 3.88046
  1210 190.670 1.27170 -3.88537
  1211 9.95126 -2.08135 11.4039
  1212 9.80217 -2.25323 -11.5830
  1213 1.65464 -28.3532 14.3125
  1214 341.136 45.3186 15.8962
  1215 -10.5403 -0.840205 6.64938
  1216 -10.5404 -0.843562 -6.65223
  1217 1.29700 -26.5425 -14.9049
  1218 -1.02340 -16.0467 9.74923
  1219 -0.969492 -15.9109 -10.1042
  1220 270.728 -2.91828 5.36751
  1221 0.246998 -63.2975 5.59139
  1222 1.81206 -19.6103 -16.6124
  1223 30.7190 1.38766 0.390732
  1224 30.7005 1.38637 -0.390599
  1225 -2.77046 -11.6588 17.9538
  1226 -30.8954 1.79019 -5.22824
  1227 -30.8557 1.78872 5.22753
  1228 560.228 9.94881 15.5526
  1229 -16.0006 1.75728 16.0206
  1230 -16.0350 1.75846 -16.0414
  1231 128.790 5.44430 -19.3190
  1232 128.915 5.33778 19.4416
  1233 8.09960 -13.8373 -7.84080
  1234 122.751 6.81500 -7.53899
  1235 122.786 6.78277 7.55847
  1236 4.92066 -39.7888 -3.02926
  1237 -2.77730 -11.6772 -17.9167
  1238 -22.2000 1.01053 3.20119
  1239 -22.2356 1.01041 -3.20058
  1240 -9.76233 0.575574 -18.2600
  1241 -9.72572 0.576362 18.2371
  1242 261.651 20.7250 24.3086
  1243 149.366 1.99136 -20.6479
  1244 149.555 1.93160 20.7003
  1245 -69.1146 0.186426 -0.686872
  1246 -69.0656 0.186410 0.686999
  1247 134.977 3.79024 -4.06845
  1248 134.995 3.77998 4.06847
  1249 -71.2199 -1.16931 -0.181612
  1250 -71.2679 -1.16967 0.181694
  1251 201.591 -14.4629 -23.6236
  1252 -32.2924 0.535300 9.03362
  1253 -32.3213 0.535991 -9.04414
  1254 203.687 -15.2637 23.4076
  1255 137.139 5.53210 -8.38947
  1256 137.176 5.49714 8.39787
  1257 15.7687 -42.8872 -28.1544
  1258 0.286616 -44.7268 -11.3662
  1259 -0.991518 -18.8673 16.8480
  1260 438.265 66.8353 -57.4067
  1261 -0.112888 -41.8100 11.0249
  1262 454.992 42.7557 -25.7099
  1263 -0.218657 -77.3543 -5.31548
  1264 20.2942 2.51064 -0.975383
  1265 20.3161 2.51174 0.976956
  1266 -0.196178 -17.5323 3.65642
  1267 -0.159276 -17.6241 -3.64519
  1268 75.7263 2.40344 -0.113636
  1269 75.7307 2.40581 0.114161
  1270 272.861 -21.3642 20.6325
  1271 4.06548 2.31497 -2.91410
  1272 4.09294 2.31532 2.91547
  1273 1.57975 -85.9175 2.88814
  1274 1.00313 -91.3186 -2.84322
  1275 250.964 -32.1217 -24.9847
  1276 -0.708773 -22.9861 10.8052
  1277 260.187 16.1187 -30.2324
  1278 -0.786502 -30.2952 10.6366
  1279 0.513869 -83.5559 -4.21099
  1280 125.700 4.11847 -4.34649
  1281 125.719 4.10177 4.34983
  1282 -0.0882635 -44.9821 4.80586
  1283 -0.122161 -37.5339 -10.8667
  1284 605.144 101.560 88.8450
  1285 239.374 0.241475 0.398458
  1286 239.324 0.241427 -0.398325
  1287 5.86408 0.0192954 16.0373
  1288 5.67190 0.274534 -16.1024
  1289 -4.11977 3.28546 18.5548
  1290 -4.20095 3.29427 -18.5890
  1291 252.306 -4.83374 -17.7155
  1292 234.707 -9.72758 -8.99665
  1293 234.442 -11.0999 9.05212
  1294 33.7010 4.46345 2.47150
  1295 33.6821 4.46221 -2.46712
  1296 -39.2295 1.06132 -7.16278
  1297 -39.1892 1.05921 7.15663
  1298 261.911 -37.4172 -35.8478
  1299 -1.96819 -4.73623 4.81831
  1300 -1.97549 -4.73213 -4.81574
  1301 275.686 -12.5240 30.8962
  1302 -2.94781 -11.0294 13.1161
  1303 -2.91598 -11.0693 -13.0556
  1304 -25.8444 1.78123 3.79936
  1305 -25.8817 1.78189 -3.79899
  1306 40.6919 3.73196 -14.0525
  1307 40.2744 3.97588 14.0564
  1308 64.1549 2.28433 0.452293
  1309 64.1469 2.28194 -0.451561
  1310 -27.3309 2.70120 11.2691
  1311 -27.3702 2.70603 -11.2793
  1312 224.292 0.749551 0.619657
  1313 224.247 0.749439 -0.619506
  1314 121.658 -2.75073 75.6344
  1315 182.433 0.778348 1.36614
  1316 182.404 0.779767 -1.36674
  1317 119.628 2.44075 -29.9395
  1318 119.671 2.29445 30.2267
  1319 1.12428 -49.7071 -7.11738
  1320 45.7393 10.8520 -5.27281
  1321 45.5488 10.9879 5.36530
  1322 -0.441403 -0.414619 -0.589341
  1323 -0.443611 -0.414795 0.591051
  1324 155.215 5.19234 11.0385
  1325 155.157 5.25214 -11.0325
  1326 76.2006 6.76810 1.12698
  1327 76.2021 6.77532 -1.11710
  1328 113.054 6.87401 -4.96450
  1329 113.075 6.85334 4.97667
  1330 149.110 1.35707 -1.36517
  1331 149.128 1.35505 1.36490
  1332 -4.76682 -2.32067 -5.44527
  1333 -4.76645 -2.31830 5.44848
  1334 -46.7517 0.141047 2.26001
  1335 -46.7945 0.141076 -2.25982
  1336 -8.19524 -3.79462 -13.4168
  1337 -8.19041 -3.77660 13.4046
  1338 -27.4061 0.597078 0.969430
  1339 -27.4420 0.596618 -0.969190
  1340 -71.8991 0.678982 0.395522
  1341 -71.9477 0.679085 -0.395425
  1342 282.248 -37.4119 49.3436
  1343 200.138 -1.41211 -24.5681
</Section>

newXOutput 34

<Section columns = "stress_xx | stress_yy | stress_xy">
  1 254.167 -0.294105 0.245820
  2 254.223 -0.294278 -0.245941
  3 -80.0067 0.410040 -1.08041
  4 0.129048 0.0355547 0.227228
  5 466.527 123.389 147.128
  6 527.125 140.470 -140.800
  7 0.128550 0.0350879 -0.226568
  8 -79.9540 0.409994 1.08015
  9 253.376 -0.273054 -0.835073
  10 253.560 -0.701326 -1.36683
  11 255.964 -0.686083 -0.351127
  12 256.184 -0.636367 -1.58010
  13 256.741 -0.614393 -0.461609
  14 262.153 -0.605526 -0.652254
  15 263.971 -0.915162 -2.11620
  16 265.873 -0.394538 -1.43203
  17 267.015 0.236317 -2.76693
  18 277.954 -1.42633 -2.37209
  19 282.558 -1.07134 -3.07509
  20 287.572 -1.68515 -1.11876
  21 289.849 -2.28832 -0.596653
  22 287.273 -2.68648 3.99942
  23 276.738 -3.05400 8.28811
  24 252.517 -3.53943 17.5281
  25 213.878 1.80750 20.3332
  26 181.634 2.11129 19.0736
  27 137.208 4.83466 11.5777
  28 146.347 4.71020 0.896980
  29 120.862 14.2312 -7.44963
  30 171.633 6.42746 -20.5536
  31 200.055 1.45663 -16.8694
  32 247.144 -0.835480 -14.5915
  33 273.213 -3.70524 -9.89632
  34 286.714 -3.13554 -3.99042
  35 289.188 -2.21082 0.605018
  36 287.109 -1.66123 1.03354
  37 282.350 -1.07944 2.97473
  38 277.864 -1.44684 2.31307
  39 267.013 0.224306 2.73730
  40 265.902 -0.399077 1.42040
  41 264.017 -0.917911 2.11161
  42 262.206 -0.606940 0.649976
  43 256.796 -0.615202 0.460548
  44 256.240 -0.637092 1.58029
  45 256.021 -0.686589 0.351079
  46 253.616 -0.701708 1.36738
  47 253.433 -0.273214 0.835413
  48 239.313 0.798903 -0.304689
  49 221.196 0.516540 -0.698654
  50 198.621 -0.308001 -0.732845
  51 175.290 1.11484 -0.609641
  52 154.928 0.996675 -0.489411
  53 133.204 1.71024 -0.582702
  54 111.826 2.80935 -0.372452
  55 89.6956 2.55390 -0.740138
  56 71.3852 1.89690 -1.02215
  57 47.4139 1.32135 -1.07670
  58 23.1123 1.73784 -0.816404
  59 2.85703 1.42495 -0.788702
  60 -22.3711 0.873887 -0.728136
  61 -41.1246 -0.0823042 -1.72177
  62 -59.2770 -1.16555 -0.793703
  63 -77.6517 0.187898 0.508632
  64 -81.5783 1.40420 -0.229382
  65 -81.8040 0.634002 0.201409
  66 -79.0587 0.333693 -0.136005
  67 -79.7758 0.912100 -1.01674
  68 -78.4399 1.10070 -0.153747
  69 -74.1274 0.351738 -1.54574
  70 -74.8162 0.676291 -1.65391
  71 -72.8450 0.644718 -0.957614
  72 -67.3802 0.412837 -1.41780
  73 -64.7278 0.719548 -2.29934
  74 -60.7216 0.798165 -1.90618
  75 -53.6566 0.409739 -3.23581
  76 -49.6703 0.125764 -2.70650
  77 -42.5591 0.181089 -3.10702
  78 -36.4152 0.128742 -3.42075
  79 -31.0934 0.0403713 -2.69905
  80 -23.7477 0.154472 -2.71535
  81 -17.4289 -0.0751251 -2.89692
  82 -11.3189 -0.320823 -2.53138
  83 -6.48922 -0.280128 -1.93217
  84 -3.17197 -0.485155 -1.60886
  85 -0.502455 -0.280008 -0.566957
  86 0.0559713 -0.307451 -0.197049
  87 -0.166913 -0.147799 -0.0293571
  88 -0.437815 -0.392110 -0.495501
  89 -0.424472 -2.67835 -1.39503
  90 -0.365273 -6.03836 -1.99973
  91 -0.191329 -10.3591 -2.92334
  92 -0.101517 -15.9343 -2.52296
  93 -0.0918686 -21.0871 -3.17743
  94 -0.393672 -27.4119 -3.59615
  95 -0.160454 -35.1973 -3.64303
  96 0.0753997 -43.0428 -3.49604
  97 0.171369 -51.4643 -3.45507
  98 0.259451 -60.1394 -3.40780
  99 0.0291198 -66.5990 -4.62158
  100 0.459479 -75.7043 -4.14392
  101 0.554960 -86.3970 -3.34946
  102 0.000999075 -91.3155 -4.45444
  103 0.786788 -99.3253 -4.16189
  104 1.89817 -110.021 -2.16330
  105 3.68963 -113.308 -3.42723
  106 2.50273 -105.006 2.00661
  107 3.46216 -81.4255 9.71506
  108 19.5297 -51.2656 30.0929
  109 62.5180 75.3758 107.731
  110 720.913 37.5858 70.3325
  111 617.773 11.6248 25.7533
  112 597.854 4.48171 5.75138
  113 593.722 1.73586 -0.961572
  114 597.627 6.77036 -13.6096
  115 615.811 20.8894 -30.3120
  116 700.492 73.6746 -89.1127
  117 148.404 58.1010 -131.786
  118 32.3136 -50.4823 -37.2221
  119 9.44213 -89.0375 -13.4571
  120 2.57927 -99.6416 -2.22967
  121 2.95537 -109.175 2.05083
  122 0.856043 -105.798 1.70897
  123 0.325464 -96.8497 3.58639
  124 0.342372 -90.9738 2.85362
  125 0.475398 -81.7398 4.71202
  126 -0.0236072 -76.3520 4.54654
  127 0.188751 -68.8956 3.28170
  128 0.359761 -59.4063 4.13760
  129 0.0662577 -52.6458 3.28206
  130 0.107268 -43.1108 4.14240
  131 -0.430388 -35.6173 3.55522
  132 -0.305706 -27.4368 3.48581
  133 -0.0668949 -20.9737 3.18631
  134 -0.130465 -15.8438 2.52869
  135 -0.187314 -10.3290 2.89536
  136 -0.360163 -6.03407 1.98987
  137 -0.422257 -2.68232 1.39402
  138 -0.437301 -0.396203 0.496439
  139 -0.166900 -0.149590 0.0305428
  140 0.0538186 -0.307762 0.198156
  141 -0.506595 -0.279901 0.568415
  142 -3.17853 -0.484779 1.61046
  143 -6.49825 -0.279329 1.93280
  144 -11.3266 -0.319834 2.53061
  145 -17.4323 -0.0743076 2.89439
  146 -23.7457 0.154631 2.71234
  147 -31.0840 0.0407045 2.69593
  148 -36.3990 0.129093 3.41724
  149 -42.5341 0.180989 3.10342
  150 -49.6377 0.125614 2.70323
  151 -53.6189 0.409427 3.23275
  152 -60.6774 0.797703 1.90393
  153 -64.6803 0.719064 2.29762
  154 -67.3298 0.412533 1.41686
  155 -72.7922 0.644411 0.957123
  156 -74.7627 0.676023 1.65342
  157 -74.0742 0.351620 1.54543
  158 -78.3859 1.10040 0.153915
  159 -79.7217 0.911882 1.01665
  160 -79.0054 0.333653 0.136145
  161 -81.7502 0.633881 -0.201216
  162 -81.5249 1.40388 0.229435
  163 -77.5996 0.187898 -0.508433
  164 -59.2302 -1.16505 0.793560
  165 -41.0830 -0.0818796 1.72139
  166 -22.3350 0.874341 0.728072
  167 2.88547 1.42561 0.788603
  168 23.1345 1.73884 0.816296
  169 47.4285 1.32292 1.07654
  170 71.3922 1.89866 1.02195
  171 89.6968 2.55572 0.739985
  172 111.820 2.81112 0.372285
  173 133.191 1.71208 0.582392
  174 154.909 0.998346 0.489055
  175 175.263 1.11590 0.609157
  176 198.586 -0.307024 0.732297
  177 221.152 0.516680 0.698247
  178 239.263 0.798702 0.304510
  179 65.0815 11.8745 -1.71743
  180 65.0537 11.8889 1.76164
  181 -1.67224 1.69615 19.4618
  182 -1.74073 1.68955 -19.4656
  183 149.989 -2.17482 -32.6573
  184 149.916 -2.47692 33.0232
  185 29.2781 6.28395 -0.143708
  186 28.9285 6.42077 0.165619
  187 20.5884 4.16765 -3.41784
  188 20.6134 4.16745 3.42104
  189 142.548 3.29473 -4.60712
  190 142.571 3.28079 4.60768
  191 -3.53788 5.87925 10.8924
  192 -3.58147 5.89008 -10.8963
  193 165.720 4.74569 -12.2320
  194 165.798 4.67389 12.2417
  195 -6.56542 -5.74099 15.0966
  196 -6.56226 -5.77305 -15.1133
  197 1.31645 -14.0133 -18.4000
  198 50.6253 1.42357 -29.2837
  199 1.65239 -14.9644 17.9911
  200 49.8076 1.85331 29.8012
  201 235.372 -32.8370 -47.6176
  202 243.821 -34.1446 45.5838
  203 83.5483 3.36713 -0.469294
  204 83.5463 3.36316 0.471133
  205 -15.0663 1.18716 -2.24289
  206 -15.0319 1.18761 2.24342
  207 -19.3432 2.85152 14.8672
  208 -19.3839 2.85758 -14.8853
  209 83.9351 8.31033 -1.77876
  210 83.9370 8.30243 1.79268
  211 25.0572 10.6997 8.05393
  212 24.9626 10.7655 -8.06612
  213 -25.2525 2.71358 -6.38029
  214 -25.2116 2.71093 6.37891
  215 190.621 0.719794 2.26350
  216 190.590 0.723058 -2.26526
  217 5.86508 -26.5002 8.44405
  218 6.38152 -24.1191 -7.61713
  219 -1.84750 -16.1714 17.0979
  220 -1.88186 -16.7716 -16.5495
  221 77.4001 11.3609 -12.3351
  222 77.3414 11.4115 12.4851
  223 -17.2265 -0.120242 14.7996
  224 -17.2497 -0.121702 -14.8173
  225 203.947 1.59122 -6.82446
  226 203.983 1.57045 6.81062
  227 219.082 -2.85392 -13.3631
  228 219.244 -3.08655 13.2863
  229 348.624 27.2960 -0.418649
  230 319.829 35.0420 21.9539
  231 316.703 -4.25468 -31.2483
  232 37.4778 8.94297 4.45254
  233 37.4504 8.95028 -4.44045
  234 1.93429 7.06554 15.1910
  235 1.87630 7.08674 -15.2029
  236 244.665 -14.8358 -8.35774
  237 243.220 -15.0263 9.12938
  238 134.772 1.74071 -1.62808
  239 134.786 1.73670 1.62784
  240 -30.8748 2.16503 9.99579
  241 -30.9167 2.16941 -10.0041
  242 -4.16020 -4.09780 -6.73810
  243 -4.15698 -4.09585 6.74296
  244 -34.7595 0.954395 3.30528
  245 -34.8007 0.954603 -3.30507
  246 110.227 8.78925 -7.78270
  247 110.253 8.76175 7.81588
  248 140.581 4.60970 -18.4213
  249 140.704 4.52254 18.5048
  250 32.7581 2.58595 -0.448328
  251 32.7773 2.58729 0.449555
  252 80.5819 -1.67966 -65.1677
  253 95.6545 0.844409 71.3509
  254 10.4339 4.67234 14.6605
  255 10.3871 4.78350 -14.7110
  256 334.193 -27.9836 -3.97770
  257 27.8417 11.0414 6.97343
  258 27.7936 11.0648 -6.96209
  259 78.8864 8.18039 -23.8341
  260 78.7484 8.39775 24.1272
  261 372.404 50.9854 -6.57083
  262 221.186 0.486904 9.23972
  263 221.130 0.560531 -9.28471
  264 -2.02368 -12.4067 -10.6158
  265 -1.96892 -12.4579 10.6590
  266 -0.465824 -29.6487 -14.7440
  267 0.912221 -34.9667 -13.8454
  268 0.467711 -34.8367 14.3974
  269 -5.71115 -4.98481 19.5565
  270 -5.73290 -4.97400 -19.6268
  271 11.4438 -29.0406 -3.69393
  272 12.2953 -26.9231 5.60685
  273 -12.8007 -1.09648 9.33013
  274 -12.8059 -1.10110 -9.33752
  275 156.495 4.88376 -7.52232
  276 156.534 4.85242 7.52196
  277 275.040 -29.0670 -0.595938
  278 59.4878 5.62653 -0.659417
  279 59.4979 5.62956 0.664727
  280 -0.753768 -27.7993 14.0792
  281 4.65413 5.83624 7.21703
  282 4.61829 5.84254 -7.21521
  283 439.412 31.1558 -10.6569
  284 214.951 0.451698 2.80335
  285 214.913 0.456310 -2.80757
  286 142.358 -7.47906 -49.3938
  287 143.672 -7.35720 50.2046
  288 274.661 -27.5234 -3.95354
  289 -26.3608 0.792118 11.7330
  290 -26.3887 0.792739 -11.7470
  291 269.546 -24.4895 81.4321
  292 -11.9594 1.83356 17.8597
  293 -11.9983 1.83295 -17.8846
  294 44.3872 12.2530 -2.22595
  295 44.2207 12.3720 2.29104
  296 -49.2133 0.480331 0.617091
  297 -49.2575 0.480195 -0.616915
  298 226.738 1.16687 -111.555
  299 -45.5414 0.950143 -5.44852
  300 -45.4963 0.948547 5.44548
  301 -1.51370 -5.96851 20.1124
  302 -0.862833 -5.84485 -19.9411
  303 98.4712 10.4348 -11.3560
  304 98.4891 10.4207 11.4418
  305 20.3230 2.91303 2.55956
  306 20.2993 2.91219 -2.55785
  307 102.811 4.53197 -2.13909
  308 102.817 4.52426 2.14218
  309 9.37186 -8.21086 11.1476
  310 8.53781 -9.69747 -11.2456
  311 99.7876 2.31575 -0.465984
  312 99.7900 2.31302 0.466322
  313 -37.1307 0.963896 8.64946
  314 -37.1663 0.965492 -8.65913
  315 24.4816 -3.49733 -4.83241
  316 23.7318 -3.52045 4.18467
  317 224.530 0.0555411 0.779150
  318 224.486 0.0560906 -0.779390
  319 492.435 28.4112 18.4816
  320 49.2188 7.12639 2.04085
  321 49.2028 7.12583 -2.03172
  322 -11.9720 2.63866 4.58261
  323 -12.0077 2.64003 -4.58180
  324 68.2765 9.79236 -0.916531
  325 68.2659 9.79081 0.941591
  326 7.48301 7.02994 15.8247
  327 7.43482 7.04864 -15.8515
  328 1.01209 -50.2825 10.2491
  329 -50.7983 0.189260 -1.36752
  330 -50.7532 0.189443 1.36774
  331 170.522 0.930871 -1.47039
  332 170.547 0.928769 1.46975
  333 179.616 1.66201 -3.90132
  334 179.645 1.65276 3.89736
  335 -47.1214 0.868247 -4.01170
  336 -47.0758 0.867541 4.01091
  337 -2.37420 1.12252 0.582383
  338 -2.40431 1.12183 -0.581984
  339 -1.04970 -20.4311 10.6167
  340 -0.837062 -21.2485 -10.6025
  341 201.409 -17.0731 -33.1638
  342 209.375 -20.3986 32.5196
  343 119.165 6.36883 -4.76550
  344 119.184 6.35123 4.77298
  345 51.7141 12.4502 -0.733978
  346 51.6358 12.5017 0.785441
  347 -19.5230 3.67070 8.99374
  348 -19.5647 3.67648 -8.99789
  349 378.593 3.88762 6.53637
  350 19.3423 -31.8262 -20.6805
  351 20.6913 -29.9585 21.7533
  352 -8.68402 5.77296 14.2372
  353 -8.73229 5.78572 -14.2493
  354 -10.5932 -2.21019 17.2719
  355 -10.6165 -2.21364 -17.2982
  356 428.413 69.8237 -17.0908
  357 272.557 -4.73799 37.0963
  358 256.211 -5.83751 -5.82565
  359 255.931 -5.70327 5.37815
  360 178.410 -1.86073 -21.0612
  361 178.216 -2.05591 21.0614
  362 0.329752 -60.5529 -8.34837
  363 235.024 0.805573 -5.21186
  364 235.054 0.784402 5.18755
  365 2.97657 -57.2979 6.79980
  366 267.825 20.8392 -20.7701
  367 65.0073 2.71358 0.930856
  368 64.9984 2.71179 -0.930619
  369 179.638 1.69479 -15.6507
  370 179.760 1.58792 15.6607
  371 194.238 1.99943 -9.54606
  372 194.287 1.95208 9.52700
  373 -4.97613 2.37988 3.15913
  374 -5.00845 2.37998 -3.15790
  375 110.129 6.11769 -24.7372
  376 110.181 6.17923 24.9870
  377 231.488 0.0926861 1.28065
  378 231.442 0.0937721 -1.28171
  379 129.436 7.55696 -12.3435
  380 129.494 7.50308 12.3918
  381 150.286 2.82655 3.12033
  382 150.266 2.83343 -3.12144
  383 -7.20740 -1.31454 5.72927
  384 -7.20612 -1.31770 -5.72877
  385 -1.70428 -1.21367 -1.65029
  386 -1.70516 -1.21441 1.65289
  387 307.923 -40.0819 19.9778
  388 -4.09054 -9.80162 15.7403
  389 -4.06401 -9.88137 -15.7387
  390 48.6931 3.64703 -1.34803
  391 48.7071 3.64937 1.35071
  392 -1.53689 -7.64517 5.74965
  393 -1.55388 -7.63181 -5.74988
  394 18.1464 8.82826 7.97042
  395 18.1064 8.84194 -7.96490
  396 251.875 -0.833855 6.84608
  397 251.836 -0.735314 -6.98493
  398 -0.731399 -15.2766 19.1070
  399 -20.7365 -0.395185 8.86264
  400 -20.7483 -0.396749 -8.87231
  401 -0.810749 -16.1125 -18.8895
  402 236.762 0.275779 3.31466
  403 236.722 0.282143 -3.32329
  404 -2.74866 5.06958 17.7912
  405 -2.81825 5.08790 -17.8149
  406 173.988 3.03417 -6.26857
  407 174.020 3.01493 6.26226
  408 267.747 -11.5290 -6.68098
  409 268.771 -9.25348 5.11250
  410 -0.567500 -27.8729 -11.6584
  411 23.2557 8.49770 -6.13126
  412 23.4477 8.39441 6.11633
  413 262.689 17.3884 13.0767
  414 150.385 -9.27736 -68.6873
  415 154.531 -12.1265 72.0130
  416 8.12016 8.31779 11.8373
  417 8.07022 8.33648 -11.8399
  418 110.771 3.54573 -1.46243
  419 110.778 3.54078 1.46323
  420 107.449 13.5172 109.618
  421 43.7370 10.7277 -3.51319
  422 43.7711 10.7129 3.53365
  423 2.62701 -27.1618 13.2192
  424 -0.340839 -45.3863 -10.1851
  425 16.9156 10.1054 11.1822
  426 16.8550 10.1348 -11.1860
  427 20.7517 6.12590 -4.96747
  428 20.7798 6.12265 4.97233
  429 -7.85129 -0.540150 -19.5795
  430 -7.81271 -0.551072 19.5516
  431 52.6091 10.2214 -9.04612
  432 52.3902 10.3852 9.17265
  433 268.100 -8.94477 -27.8930
  434 7.18101 -3.20117 15.6009
  435 6.93482 -3.11944 -15.6841
  436 195.079 -8.29132 -23.2834
  437 195.926 -8.90848 23.2312
  438 -49.5130 0.415764 -5.25119
  439 -49.4697 0.414555 5.24664
  440 0.00543774 -44.4929 9.14171
  441 -0.326999 -28.2214 10.3724
  442 -20.2232 1.24912 15.0298
  443 -20.2536 1.24939 -15.0484
  444 139.805 1.66658 -0.561671
  445 139.820 1.66418 0.561292
  446 -4.25051 -6.70828 10.6497
  447 -4.25658 -6.72245 -10.6370
  448 86.1283 3.83899 -36.1529
  449 85.9763 4.25077 36.6098
  450 0.720207 -54.2167 -10.2210
  451 491.736 18.1468 0.509590
  452 1.32246 -64.6285 -6.23256
  453 -59.0037 0.0550884 -1.97517
  454 -58.9555 0.0551575 1.97516
  455 -22.8297 3.14256 12.4373
  456 -22.8724 3.14923 -12.4496
  457 -26.0992 0.363451 8.92142
  458 -26.1174 0.363545 -8.93149
  459 94.4721 10.1504 -7.48457
  460 94.4844 10.1408 7.53748
  461 143.908 6.18826 -9.56158
  462 143.957 6.14269 9.57668
  463 -2.61434 -9.31747 19.7215
  464 -2.61718 -9.25516 -19.8020
  465 248.735 3.67615 -35.2406
  466 16.6163 -5.25937 -3.89577
  467 16.0406 -5.39819 4.19064
  468 3.86257 -58.8996 0.0850634
  469 2.44367 -68.0969 -1.82491
  470 -7.71547 -3.47452 10.9696
  471 -7.71749 -3.48639 -10.9728
  472 52.3719 -8.32771 -56.0133
  473 387.546 -3.61912 -35.1641
  474 85.9890 6.05127 1.85914
  475 85.9876 6.05913 -1.85142
  476 125.302 1.07239 -34.9980
  477 125.619 1.03072 35.5623
  478 36.1100 12.9399 4.89138
  479 36.0474 12.9803 -4.87265
  480 113.074 8.66000 -18.0281
  481 113.139 8.60795 18.1764
  482 3.74487 1.96282 18.2078
  483 3.99568 2.08924 -18.1844
  484 -52.1698 0.801687 -3.93761
  485 -52.1229 0.800993 3.93611
  486 251.617 -29.8740 -18.2882
  487 200.620 0.407362 -1.08365
  488 200.655 0.406485 1.08342
  489 9.32322 1.66441 -1.41504
  490 9.34995 1.66534 1.41597
  491 -13.6627 4.71178 11.7213
  492 -13.7071 4.72096 -11.7290
  493 -30.2021 1.88504 -4.39110
  494 -30.1613 1.88385 4.39097
  495 85.9565 8.87689 -3.01311
  496 85.9600 8.86680 3.03398
  497 -11.0086 3.96201 16.3103
  498 -11.0571 3.97246 -16.3308
  499 230.528 -6.29303 -12.3535
  500 230.906 -6.63188 12.1416
  501 150.068 1.77339 -23.2157
  502 149.856 1.65217 23.4245
  503 54.9987 3.00181 -0.794959
  504 55.0106 3.00397 0.796119
  505 0.525797 -27.9391 -16.2457
  506 269.707 -10.0745 22.9464
  507 3.50556 -18.7549 -14.9767
  508 75.5669 12.3588 7.46374
  509 75.6031 12.3299 -7.37363
  510 248.853 -27.9558 18.0215
  511 18.4465 -28.8665 28.9115
  512 297.145 -39.9812 -36.7080
  513 201.940 1.15654 11.4753
  514 201.861 1.24546 -11.5009
  515 0.477348 -23.9537 16.9041
  516 -3.94602 -1.18392 -3.05071
  517 -3.94810 -1.18352 3.05320
  518 23.3645 1.61411 -0.455571
  519 23.3866 1.61526 0.455979
  520 -0.690159 -15.7206 6.79988
  521 -0.626200 -15.6460 -6.83370
  522 166.322 2.09168 2.51292
  523 166.298 2.09544 -2.51418
  524 471.992 81.1466 32.3042
  525 18.8940 -13.2121 -4.83451
  526 14.6678 -17.3635 1.77763
  527 -5.81368 3.72844 -6.03108
  528 -5.77777 3.72517 6.03173
  529 -40.8292 0.648528 5.37862
  530 -40.8589 0.649248 -5.38469
  531 0.398730 -50.7602 10.1371
  532 -58.2186 0.557623 0.593178
  533 -58.2656 0.557600 -0.592946
  534 50.4546 -5.47083 -40.8906
  535 49.3085 -4.54859 42.5505
  536 46.1116 7.64235 -13.3080
  537 45.7627 7.86314 13.4218
  538 -11.0200 -2.35641 15.0720
  539 -11.0344 -2.36527 -15.0915
  540 45.1199 4.52282 1.45882
  541 45.1044 4.52093 -1.45488
  542 -25.1781 1.25687 1.97174
  543 -25.2159 1.25678 -1.97108
  544 53.5007 8.30566 1.74297
  545 53.4842 8.30680 -1.72849
  546 -1.09982 -3.54989 2.60482
  547 -1.10350 -3.54646 -2.60422
  548 19.1614 8.25376 10.2235
  549 19.0346 8.37594 -10.2587
  550 15.4866 2.01985 9.14897
  551 15.2624 1.99806 -9.27029
  552 204.953 1.74011 4.85049
  553 204.918 1.74964 -4.85739
  554 180.811 2.79339 7.67334
  555 180.772 2.82295 -7.68318
  556 -0.186860 -42.6403 -6.32309
  557 125.845 6.80805 -7.20007
  558 125.874 6.78125 7.21413
  559 126.336 3.40426 -2.59538
  560 126.350 3.39602 2.59634
  561 -18.6062 0.795161 -0.0574201
  562 -18.5712 0.795643 0.0577062
  563 211.884 11.8551 -6.78136
  564 284.556 -37.0897 -12.4907
  565 230.327 10.3964 26.8502
  566 1.81472 -37.0936 -12.1039
  567 -13.4345 4.10536 -7.83930
  568 -13.3948 4.10052 7.83787
  569 1.87053 -21.6461 16.1076
  570 -12.8310 0.278442 17.3652
  571 -12.8617 0.277779 -17.3870
  572 362.224 34.9055 -1.79087
  573 81.6340 4.26321 -0.709175
  574 81.6319 4.25840 0.712251
  575 556.000 46.6824 -47.2385
  576 -2.96580 -2.33640 20.3832
  577 -2.78735 -2.19286 -20.4028
  578 300.788 -27.8452 13.8711
  579 242.828 0.407867 -5.81781
  580 242.851 0.373731 5.77621
  581 109.907 -0.992583 -51.0690
  582 111.265 -1.31245 51.9256
  583 -6.32168 -6.08824 17.4701
  584 -6.32661 -6.11806 -17.5123
  585 57.2825 4.21734 26.3829
  586 57.7647 3.76706 -26.1330
  587 -47.9273 0.560730 -5.09499
  588 -47.8870 0.559849 5.08996
  589 354.758 28.2033 23.6877
  590 66.4218 6.59267 -0.180828
  591 66.4293 6.59663 0.188738
  592 78.5414 9.70825 -17.8923
  593 78.4465 9.82772 18.1130
  594 218.931 -0.159761 -11.2804
  595 219.030 -0.278372 11.2348
  596 -1.02272 -22.4515 -15.7531
  597 239.294 -0.159024 1.73163
  598 239.247 -0.157523 -1.73329
  599 -35.8442 0.806222 -0.807323
  600 -35.8038 0.806428 0.807778
  601 -62.4046 -0.377734 0.0376294
  602 -62.4524 -0.377978 -0.0375174
  603 4.92606 -34.5115 -6.18751
  604 -2.26895 -14.5143 13.4239
  605 -2.39302 -13.7397 -13.5141
  606 -27.4088 1.66429 12.5546
  607 -27.4430 1.66706 -12.5692
  608 166.029 4.48998 9.63408
  609 165.980 4.53571 -9.63660
  610 121.870 2.02100 0.624250
  611 121.861 2.02318 -0.624238
  612 27.0164 -9.06277 16.2058
  613 27.9131 -8.47889 -16.0371
  614 -0.863032 -10.9515 5.73485
  615 -0.888806 -10.9156 -5.75356
  616 286.743 15.1240 118.675
  617 -14.1220 -0.444867 5.32586
  618 -14.1215 -0.446789 -5.32961
  619 4.86867 -21.0164 -12.2551
  620 119.104 5.20507 -3.60437
  621 119.118 5.19308 3.60801
  622 57.6811 12.3727 -5.17087
  623 57.5771 12.4467 5.26100
  624 0.581527 -77.0960 4.34128
  625 43.0306 12.2652 3.19908
  626 42.9862 12.2909 -3.17455
  627 -5.62282 5.10687 9.40771
  628 -5.66346 5.11445 -9.40978
  629 -0.341986 -37.6691 8.64139
  630 -61.9319 0.101941 -1.95787
  631 -61.8825 0.101864 1.95769
  632 77.8308 2.50076 0.0654472
  633 77.8352 2.50380 -0.0643643
  634 199.743 0.896049 3.18495
  635 199.710 0.900862 -3.18799
  636 175.259 -13.7533 90.6018
  637 140.836 3.96898 -5.69245
  638 140.862 3.94953 5.69478
  639 1.99058 -3.32485 19.0136
  640 2.48867 -2.05275 -19.0016
  641 225.848 -24.2170 -73.1326
  642 539.712 18.8107 -19.6688
  643 -56.6571 0.0647936 -3.54925
  644 -56.6106 0.0642379 3.54678
  645 12.2614 3.21631 -2.99891
  646 12.2883 3.21635 3.00093
  647 -1.08152 -23.7203 13.8769
  648 305.266 17.1079 -33.6457
  649 236.695 -0.280920 0.288620
  650 236.645 -0.280651 -0.288637
  651 -15.2574 -0.862233 -12.4308
  652 -15.2440 -0.858774 12.4172
  653 -0.0399788 -53.6572 -8.35613
  654 240.818 -0.320888 0.663100
  655 240.768 -0.320507 -0.663241
  656 20.9631 7.74249 6.79363
  657 20.9295 7.75069 -6.78731
  658 181.671 -16.2957 -47.7337
  659 185.069 -16.2447 48.2945
  660 267.840 -1.57054 3.90184
  661 267.938 -1.54994 -4.08927
  662 1.16212 -67.9648 6.68321
  663 -15.8758 0.646187 -1.15930
  664 -15.8414 0.646753 1.15976
  665 86.9697 3.20426 -85.5232
  666 81.0485 2.27841 0.567217
  667 81.0524 2.28045 -0.566819
  668 39.1800 3.33637 0.758770
  669 39.1628 3.33466 -0.756773
  670 46.8788 5.60413 -1.25951
  671 46.8944 5.60585 1.26579
  672 155.177 4.73889 -14.8892
  673 155.276 4.65580 14.9248
  674 40.3884 11.9290 1.51846
  675 40.2729 12.0124 -1.48735
  676 -29.0755 2.17928 -7.34267
  677 -29.0331 2.17587 7.33963
  678 -33.5490 2.30466 -8.28443
  679 -33.5061 2.30095 8.27889
  680 274.833 -4.09054 -1.19057
  681 0.129976 -11.4996 -19.2859
  682 275.360 -4.29181 0.772713
  683 347.349 27.6371 0.553971
  684 -34.5952 0.157734 6.10534
  685 -34.6181 0.157806 -6.11254
  686 35.0941 9.96189 -0.902311
  687 34.8455 10.0937 0.942164
  688 -66.5959 0.0924904 -0.740348
  689 -66.5459 0.0925528 0.740531
  690 0.323716 -10.3944 19.3459
  691 -21.7717 0.268560 13.1493
  692 -21.7966 0.268101 -13.1650
  693 301.242 -26.1747 -15.0622
  694 46.3143 1.55590 -0.232313
  695 46.2994 1.55432 0.232841
  696 9.79377 4.63138 4.87977
  697 9.76367 4.63339 -4.87690
  698 158.037 -7.52303 -39.7664
  699 159.287 -7.81854 40.5780
  700 562.289 39.4831 43.2250
  701 10.4143 -54.2585 -17.0036
  702 -4.12000 -8.61508 18.7229
  703 -4.12907 -8.64705 -18.7612
  704 32.4323 7.72062 -3.93189
  705 32.4575 7.71689 3.94030
  706 247.520 -0.255379 -1.77230
  707 247.567 -0.257054 1.76937
  708 116.365 2.44916 1.00202
  709 116.356 2.45309 -1.00184
  710 9.03687 8.52298 14.2018
  711 8.97886 8.54962 -14.2140
  712 4.73793 2.44376 2.11894
  713 4.70952 2.44328 -2.11779
  714 -7.27341 1.51461 19.2956
  715 -7.32062 1.51694 -19.3288
  716 202.794 0.147349 1.32623
  717 202.759 0.148947 -1.32714
  718 175.011 1.93149 3.60874
  719 174.984 1.93762 -3.61107
  720 22.9062 -17.1113 19.7085
  721 23.6039 -18.1996 -19.0024
  722 -14.0134 2.90475 16.8331
  723 -14.0560 2.90955 -16.8560
  724 7.00279 -17.5410 9.88731
  725 0.126529 5.03926 17.9855
  726 0.0530743 5.05585 -17.9989
  727 -39.7370 1.18593 -4.91761
  728 -39.6931 1.18459 4.91618
  729 29.5728 9.99711 6.45863
  730 29.5323 10.0128 -6.44636
  731 270.763 -8.34053 -15.7008
  732 256.586 -22.6138 -5.38230
  733 -4.19478 -8.56799 13.1903
  734 -4.18858 -8.60684 -13.1722
  735 98.4254 -1.88278 -60.3126
  736 95.8055 0.295465 60.9590
  737 59.5650 11.3989 -8.46673
  738 59.4231 11.5125 8.59469
  739 5.01687 -10.3755 15.7685
  740 -0.380104 -27.8138 -7.48871
  741 125.734 7.27363 -13.7311
  742 125.805 7.22096 13.8060
  743 0.339124 -54.8422 6.97794
  744 74.4630 10.7426 -3.06788
  745 74.4532 10.7420 3.10527
  746 259.748 -0.109929 -4.41640
  747 259.735 -0.143906 4.34720
  748 4.97972 -75.9608 0.927267
  749 115.681 9.06138 10.2449
  750 115.644 9.09557 -10.1982
  751 30.7378 10.8493 -4.32740
  752 30.8932 10.7352 4.32677
  753 -47.0734 0.313253 -4.28302
  754 -47.0382 0.312810 4.27814
  755 128.853 2.68996 -2.31211
  756 128.866 2.68443 2.31229
  757 78.7443 11.7121 -6.18349
  758 78.7275 11.7214 6.25018
  759 -0.148711 6.99729 14.0344
  760 -0.200689 7.01504 -14.0435
  761 257.384 -19.3135 2.27450
  762 -41.1772 0.968805 3.76290
  763 -41.2207 0.969250 -3.76314
  764 561.366 105.321 -74.6085
  765 -16.3360 1.73036 4.02643
  766 -16.3721 1.73070 -4.02576
  767 219.448 0.920279 8.03567
  768 219.408 0.963564 -8.06861
  769 407.536 26.2488 0.560746
  770 249.281 -0.581200 -3.37283
  771 249.317 -0.587512 3.36197
  772 158.219 2.73835 4.49532
  773 158.195 2.74865 -4.49733
  774 237.033 -28.1722 66.6055
  775 102.005 7.97944 -3.55334
  776 102.018 7.96498 3.56714
  777 2.27509 -42.2349 9.02700
  778 272.223 -35.0945 20.8590
  779 165.051 0.857062 0.781581
  780 165.028 0.858713 -0.781790
  781 217.370 0.322503 0.418219
  782 217.328 0.322853 -0.418306
  783 -1.00042 -22.0970 -12.9675
  784 1.27086 -38.0525 12.9159
  785 96.4329 10.9735 14.2376
  786 96.4207 10.9754 -14.1075
  787 557.620 5.93005 4.68353
  788 167.170 1.76533 -18.7007
  789 167.301 1.66560 18.7449
  790 -35.3641 1.17569 9.44200
  791 -35.4041 1.17852 -9.45101
  792 6.88756 -31.4031 3.45562
  793 4.49103 -71.0933 -4.10493
  794 382.905 49.2686 -4.01437
  795 -0.341907 -27.7260 6.75719
  796 7.28217 5.28951 16.3321
  797 7.26060 5.28981 -16.3960
  798 50.1296 10.3581 2.20028
  799 50.1059 10.3665 -2.18072
  800 255.651 -11.6153 -3.43870
  801 256.059 -11.5035 2.49551
  802 302.850 38.2162 -112.230
  803 -42.4359 0.551602 -1.78717
  804 -42.3928 0.551659 1.78754
  805 -19.3930 -0.0868941 5.02716
  806 -19.3963 -0.0876745 -5.03202
  807 18.0076 0.749216 5.74168
  808 17.6248 0.726734 -5.76996
  809 193.268 -0.770239 16.8654
  810 193.118 -0.592804 -16.8396
  811 97.7848 3.05873 -0.427952
  812 97.7873 3.05491 0.428787
  813 312.591 -6.20230 31.0463
  814 31.8376 5.56354 -3.48795
  815 31.8600 5.56308 3.49363
  816 29.9757 3.37383 -3.87194
  817 29.7038 3.52679 3.95532
  818 -0.190835 -22.0844 -17.5933
  819 445.143 64.0612 60.0100
  820 -64.8713 0.0905255 -1.94283
  821 -64.8208 0.0904052 1.94233
  822 -0.0969428 -66.9987 6.64277
  823 4.42370 -10.2402 -15.9252
  824 -9.60540 -0.595814 3.72484
  825 -9.60074 -0.597240 -3.72571
  826 353.878 18.5960 -22.7682
  827 90.8391 9.46053 -4.45428
  828 90.8469 9.44931 4.48639
  829 242.711 -3.29762 -8.47016
  830 242.912 -3.34350 8.31953
  831 -61.8911 0.492526 2.55962
  832 -61.9404 0.492959 -2.56099
  833 -0.430006 -0.446092 -0.361187
  834 -0.430867 -0.446903 0.362608
  835 0.217281 -68.5491 -6.52078
  836 0.320513 -72.4786 -6.03531
  837 -68.7340 0.687390 0.404098
  838 -68.7838 0.687472 -0.404016
  839 36.1093 -13.9894 -39.0441
  840 149.876 2.25599 -1.26389
  841 149.895 2.25314 1.26324
  842 -6.15195 1.43073 0.515279
  843 -6.18317 1.43019 -0.515189
  844 223.853 0.861072 -5.35118
  845 223.888 0.846053 5.33574
  846 -25.5196 0.172128 4.78785
  847 -25.5286 0.172167 -4.79297
  848 134.231 -0.859120 -91.2543
  849 232.819 -20.0314 18.0569
  850 183.044 1.17604 -1.63068
  851 183.073 1.17386 1.62956
  852 230.619 -21.8182 -20.2574
  853 71.0494 8.39049 -0.832509
  854 71.0430 8.38551 0.850062
  855 98.7035 6.96314 -2.63570
  856 98.7114 6.95213 2.64453
  857 270.868 -5.84278 11.9732
  858 15.9256 9.63908 11.9178
  859 15.8587 9.67672 -11.9353
  860 15.8552 1.45273 1.02488
  861 15.8307 1.45163 -1.02426
  862 127.116 2.08053 1.04603
  863 127.105 2.08351 -1.04612
  864 335.938 -33.1823 35.7870
  865 209.753 1.51159 -6.96663
  866 209.793 1.48347 6.94585
  867 1.93086 3.36948 3.87289
  868 1.89989 3.37024 -3.87109
  869 210.597 0.0263795 1.94892
  870 210.559 0.0283207 -1.95038
  871 -40.3323 0.348767 -1.07817
  872 -40.2909 0.349074 1.07806
  873 -0.190863 -21.1975 6.01396
  874 -0.249133 -21.5293 -6.06133
  875 250.345 -3.82776 28.2475
  876 -15.8397 3.87519 14.3110
  877 -15.8845 3.88437 -14.3260
  878 -0.0888274 -34.9815 -6.66505
  879 98.7538 4.12940 -1.31453
  880 98.7574 4.12425 1.31638
  881 182.631 -9.30373 -30.2504
  882 184.087 -10.2990 30.5538
  883 -8.06901 -2.90759 -18.8197
  884 -8.03649 -2.90955 18.7850
  885 9.28104 8.67747 13.0696
  886 9.22586 8.70061 -13.0753
  887 0.888647 -80.7103 4.75731
  888 1.99464 6.66760 16.5177
  889 1.93268 6.68707 -16.5318
  890 168.511 -2.94085 -26.8566
  891 168.157 -3.09413 27.0733
  892 291.611 15.2464 34.7508
  893 66.1237 7.84423 0.0228084
  894 66.1322 7.84838 -0.0107163
  895 215.531 1.60606 -5.23294
  896 215.567 1.59395 5.22249
  897 -8.54875 -3.77504 16.4707
  898 -8.56291 -3.78832 -16.4978
  899 0.730681 -83.5649 -3.36281
  900 -13.1392 -0.942681 16.1862
  901 -13.1616 -0.944328 -16.2070
  902 7.35501 7.92711 -10.3362
  903 7.39935 7.91233 10.3358
  904 -0.665302 -5.29576 2.93965
  905 -0.672677 -5.29012 -2.94390
  906 17.4619 8.92668 -9.39306
  907 17.5085 8.90841 9.39721
  908 3.64571 -6.90478 17.6554
  909 3.14747 -6.43041 -18.4988
  910 208.208 -5.73437 17.1226
  911 207.699 -5.43356 -17.2419
  912 -69.9983 0.232396 -0.593083
  913 -69.9478 0.232437 0.593204
  914 -5.88554 -0.537899 2.79222
  915 -5.87991 -0.538750 -2.79118
  916 0.288323 -49.7940 -6.09933
  917 -6.38935 -2.75788 -7.97646
  918 -6.38798 -2.75152 7.97796
  919 -27.3370 2.27385 12.1330
  920 -27.3764 2.27859 -12.1461
  921 63.8702 12.6170 -2.98942
  922 63.8293 12.6481 3.04576
  923 273.754 21.9928 -5.90331
  924 -3.92802 6.27033 12.7618
  925 -3.97529 6.28366 -12.7690
  926 101.434 6.27147 -27.8464
  927 101.459 6.36385 28.1873
  928 -13.0853 4.42189 10.3019
  929 -13.1278 4.43005 -10.3071
  930 336.756 -18.4675 -8.25803
  931 197.597 7.88774 14.9849
  932 241.960 -3.35085 -25.5532
  933 182.246 2.83239 -11.4284
  934 182.314 2.76635 11.4191
  935 -20.4162 2.72519 -5.18360
  936 -20.3776 2.72300 5.18346
  937 -44.2890 0.819701 6.11430
  938 -44.3327 0.821423 -6.11894
  939 -2.65257 -8.53057 -9.26499
  940 -2.63506 -8.53943 9.28299
  941 63.4505 4.57185 -0.0536187
  942 63.4590 4.57523 0.0573593
  943 -20.7793 2.08302 14.9677
  944 -20.8148 2.08544 -14.9867
  945 219.824 0.127253 2.58250
  946 219.784 0.129579 -2.58464
  947 -1.69241 -18.8204 14.1108
  948 7.16784 7.32761 -8.92778
  949 7.20776 7.31700 8.92892
  950 10.1078 5.20426 5.98860
  951 10.0757 5.20811 -5.98571
  952 36.4051 3.83249 -1.71008
  953 36.4235 3.83381 1.71263
  954 413.884 48.6129 -7.09107
  955 -1.60329 -0.448222 -1.09431
  956 -1.60674 -0.448253 1.09634
  957 13.5660 3.49219 -11.3699
  958 13.7988 3.37127 11.3355
  959 146.527 6.31250 -11.8300
  960 146.591 6.25378 11.8545
  961 17.7378 6.51208 -5.79202
  962 17.7690 6.50714 5.79685
  963 39.6568 -14.8329 52.6525
  964 278.508 -1.89443 -2.09992
  965 278.020 -1.82149 1.82451
  966 48.0880 -7.81733 45.4962
  967 50.2574 2.60645 0.0227650
  968 50.2438 2.60476 -0.0218785
  969 132.964 -6.26508 -78.8001
  970 100.282 2.19201 0.590154
  971 100.280 2.19410 -0.589930
  972 12.4204 -14.4088 3.86911
  973 13.7281 -12.2670 -2.83237
  974 247.256 -0.176814 0.894327
  975 247.204 -0.176411 -0.894537
  976 -20.3803 0.0424807 11.9051
  977 -20.3984 0.0416616 -11.9184
  978 442.540 54.9646 22.8044
  979 -1.99279 -14.2713 -18.7174
  980 2.01493 -72.9624 6.84984
  981 -0.398737 -22.5751 17.3065
  982 255.436 -0.0614464 -3.44239
  983 255.461 -0.0707280 3.42421
  984 -3.38273 -6.17729 7.99462
  985 -3.39129 -6.17641 -7.98576
  986 315.315 32.2963 -20.3015
  987 566.211 5.31526 -3.15408
  988 -0.826623 -1.22614 -1.19101
  989 -0.825781 -1.22874 1.19273
  990 147.112 2.14984 -2.51242
  991 147.130 2.14524 2.51173
  992 -2.05606 -13.7370 18.8256
  993 205.447 1.28318 10.2682
  994 205.392 1.34802 -10.2964
  995 269.634 -18.1805 -12.2374
  996 -9.46925 -2.00403 9.03951
  997 -9.47136 -2.01106 -9.04307
  998 4.18885 -18.4047 13.8595
  999 -0.470294 -33.8218 13.5769
  1000 -0.0374422 -34.6976 6.65119
  1001 272.554 18.3346 -1.50605
  1002 314.206 34.4156 12.1806
  1003 225.805 -26.6023 -36.3059
  1004 3.10480 -33.6167 11.2691
  1005 3.97078 -48.6197 3.17669
  1006 61.5710 1.94814 0.251542
  1007 61.5609 1.94642 -0.251372
  1008 -2.51566 -2.86512 -3.79541
  1009 -2.51372 -2.86610 3.79869
  1010 2.03519 -27.6051 -14.7765
  1011 182.795 0.596278 -0.597990
  1012 182.824 0.595086 0.597661
  1013 35.6602 -1.42141 -16.1888
  1014 34.1041 -1.33288 16.0341
  1015 -3.93988 5.52860 16.5777
  1016 -3.99831 5.54559 -16.5972
  1017 -22.3056 3.34962 -10.3563
  1018 -22.2628 3.34344 10.3493
  1019 137.970 2.28705 -27.4369
  1020 138.074 2.39234 27.7530
  1021 98.8633 8.88366 -18.7521
  1022 98.8684 8.87665 18.9515
  1023 107.684 8.30075 -6.01580
  1024 107.703 8.27906 6.03663
  1025 281.653 -8.57018 -33.6164
  1026 -7.92902 3.36503 18.0350
  1027 -7.98197 3.37276 -18.0648
  1028 199.805 0.112822 13.9759
  1029 199.697 0.247526 -13.9936
  1030 -1.48107 -10.8629 19.7367
  1031 -16.2396 -0.561298 8.74753
  1032 -16.2462 -0.563743 -8.75578
  1033 181.849 2.05613 -13.8580
  1034 181.941 1.96343 13.8546
  1035 221.417 5.01022 -24.0410
  1036 -0.315782 -33.6780 -14.2566
  1037 -2.76467 -13.2886 16.7599
  1038 -2.87729 -13.4374 -16.6149
  1039 127.506 7.92183 -9.57248
  1040 127.551 7.88111 9.60323
  1041 161.917 3.40445 5.59137
  1042 161.889 3.41956 -5.59442
  1043 269.083 -17.7544 10.7036
  1044 11.8744 1.60556 -0.288220
  1045 11.9001 1.60640 0.288397
  1046 228.478 -29.7821 38.7691
  1047 -2.74379 1.14234 1.33614
  1048 -2.77416 1.14157 -1.33557
  1049 48.2297 12.6412 1.23925
  1050 48.1723 12.6789 -1.20304
  1051 17.7742 9.92974 10.2784
  1052 17.7210 9.95358 -10.2766
  1053 2.42454 -41.7401 -9.38118
  1054 64.9349 2.89029 -0.245705
  1055 64.9432 2.89345 0.247867
  1056 191.514 6.51725 6.14538
  1057 184.304 1.78129 5.26590
  1058 184.273 1.79452 -5.27178
  1059 -1.29637 -11.2530 -19.7674
  1060 277.613 -3.50437 -6.17879
  1061 -0.363695 -1.26875 19.7903
  1062 -0.160733 -1.09801 -19.7095
  1063 254.143 -0.383528 -1.89565
  1064 254.189 -0.385618 1.89111
  1065 270.477 -0.834771 -3.31575
  1066 270.382 -0.871557 3.21513
  1067 -0.207121 -52.6106 5.02216
  1068 157.260 4.46329 -7.43096
  1069 157.291 4.43889 7.42911
  1070 192.148 2.10261 6.18162
  1071 192.114 2.11934 -6.19063
  1072 3.78853 4.27210 18.0019
  1073 3.76887 4.27657 -18.0126
  1074 418.567 28.5657 3.73339
  1075 -5.58523 -2.52845 20.1346
  1076 -5.66005 -2.47835 -20.1799
  1077 58.3136 11.9087 0.229191
  1078 58.2897 11.9205 -0.199242
  1079 -34.8145 0.760983 -1.94471
  1080 -34.7740 0.761205 1.94508
  1081 96.5550 5.14016 -32.1631
  1082 96.4443 5.41905 32.5897
  1083 27.1038 11.1985 8.17693
  1084 27.0451 11.2286 -8.16857
  1085 65.2486 7.00060 -23.2452
  1086 64.9188 7.33672 23.4783
  1087 -1.80362 -17.6640 -13.7417
  1088 232.056 2.81717 31.1738
  1089 163.957 -2.38966 102.859
  1090 25.4972 11.4098 8.45562
  1091 25.4263 11.4516 -8.45323
  1092 98.3568 5.74188 -1.93062
  1093 98.3630 5.73259 1.93618
  1094 362.316 -1.36802 12.0548
  1095 22.4052 5.30606 5.81353
  1096 22.1203 5.38436 -5.89023
  1097 -10.7973 -2.40381 12.0656
  1098 -10.8040 -2.41415 -12.0760
  1099 -0.355334 -7.91411 3.21567
  1100 -0.369006 -7.90886 -3.22833
  1101 237.771 0.0239633 8.33570
  1102 237.714 0.119124 -8.41255
  1103 0.224872 -17.3136 18.5558
  1104 -16.5491 0.968293 -16.2604
  1105 -16.5190 0.968913 16.2402
  1106 0.0876644 -63.9391 -6.47534
  1107 -3.94261 -5.50598 20.0989
  1108 -3.93381 -5.39683 -20.1188
  1109 227.852 0.479425 -3.51125
  1110 227.892 0.474120 3.50564
  1111 234.221 -1.51842 9.92758
  1112 234.084 -1.36629 -10.0083
  1113 39.7146 8.44276 -6.90984
  1114 39.4137 8.62798 6.99998
  1115 -0.574686 -32.9336 -11.4977
  1116 308.943 -31.5106 -59.2896
  1117 401.106 48.6424 -1.16225
  1118 3.95543 -51.3735 -1.71391
  1119 13.5961 7.89846 -13.4831
  1120 13.6746 7.85099 13.4303
  1121 37.0390 12.2979 4.33231
  1122 36.9574 12.3517 -4.31239
  1123 79.5559 5.22835 0.446330
  1124 79.5580 5.23436 -0.441258
  1125 -5.25833 -7.49007 15.6475
  1126 -5.24985 -7.55841 -15.6692
  1127 -15.4506 4.60162 13.2377
  1128 -15.4956 4.61128 -13.2488
  1129 -5.90102 5.75925 15.3666
  1130 -5.95355 5.77401 -15.3817
  1131 222.806 -11.3264 -16.6557
  1132 224.277 -11.4443 16.4863
  1133 0.173148 -38.1259 -13.6110
  1134 117.651 -0.791238 -40.7241
  1135 117.867 -0.412936 41.4534
  1136 36.8552 11.4418 -4.65311
  1137 36.8956 11.4208 4.67067
  1138 120.002 47.4552 115.287
  1139 28.5627 9.27703 6.15870
  1140 28.5278 9.28805 -6.14850
  1141 305.261 -34.9678 -12.7697
  1142 114.142 3.65408 1.63434
  1143 114.133 3.66055 -1.63309
  1144 -5.22469 -4.66827 9.51652
  1145 -5.22720 -4.67849 -9.51210
  1146 -6.25617 -5.62697 12.3447
  1147 -6.25476 -5.64801 -12.3443
  1148 198.979 -21.2939 -57.8867
  1149 203.202 -23.3611 58.3354
  1150 34.4081 1.72978 0.281776
  1151 34.4267 1.73123 -0.280846
  1152 124.130 5.91838 -22.0820
  1153 124.156 5.83416 22.3223
  1154 273.931 -38.1093 43.7953
  1155 245.400 -0.458586 0.525712
  1156 245.348 -0.458252 -0.525642
  1157 -22.5023 3.46798 11.7983
  1158 -22.5455 3.47459 -11.8081
  1159 -38.3669 1.23720 -6.25296
  1160 -38.3231 1.23542 6.25061
  1161 61.1882 -2.63540 68.1157
  1162 184.999 12.7802 -12.4419
  1163 113.531 8.53057 -10.5519
  1164 113.574 8.49689 10.6153
  1165 357.972 -14.5689 63.5550
  1166 115.351 8.11241 -15.9345
  1167 115.407 8.06184 16.0451
  1168 27.7508 4.06683 -2.42555
  1169 27.7726 4.06772 2.42846
  1170 9.78612 -39.7600 5.52853
  1171 9.90665 -38.8701 -8.17406
  1172 156.823 -11.8915 -58.3699
  1173 159.058 -11.1679 58.3650
  1174 60.5967 9.65253 -15.8603
  1175 60.3478 9.86830 16.0498
  1176 277.922 -19.1828 -22.1631
  1177 -10.3994 -0.970502 18.3192
  1178 -10.4309 -0.969214 -18.3447
  1179 -0.306096 -15.4944 -19.0495
  1180 69.5941 0.501349 -42.5330
  1181 69.7702 0.743105 43.3163
  1182 -0.180549 -14.0637 3.59377
  1183 -0.153927 -14.0971 -3.63717
  1184 -67.6787 0.578543 -1.81852
  1185 -67.6274 0.578256 1.81781
  1186 222.512 0.108350 -0.944751
  1187 222.555 0.107471 0.943972
  1188 135.909 5.50173 -6.17747
  1189 135.939 5.47734 6.18382
  1190 -5.32250 -0.245565 20.1951
  1191 -5.33831 -0.166782 -20.2317
  1192 0.0290016 -56.9000 -5.60686
  1193 -57.3096 0.143112 2.89016
  1194 -57.3544 0.143472 -2.89277
  1195 42.8560 -2.79552 -29.3119
  1196 42.5234 -2.52462 30.3010
  1197 258.487 -15.8860 0.0757147
  1198 72.4357 3.58691 -38.1516
  1199 72.4981 3.81736 38.5721
  1200 -31.6236 0.166714 4.36233
  1201 -31.6385 0.166614 -4.36734
  1202 0.803851 -50.4107 -9.73585
  1203 -10.6929 2.17064 -2.57041
  1204 -10.6593 2.17072 2.57132
  1205 37.7754 9.76785 4.72057
  1206 37.7429 9.77866 -4.70595
  1207 145.015 1.24648 -0.845482
  1208 145.031 1.24453 0.845435
  1209 196.517 1.27550 4.01083
  1210 196.484 1.28367 -4.01570
  1211 10.2903 -2.09613 11.6875
  1212 10.1361 -2.27375 -11.8729
  1213 1.71365 -29.1694 14.7147
  1214 351.592 46.8025 16.1440
  1215 -10.8614 -0.864787 6.85160
  1216 -10.8616 -0.868258 -6.85459
  1217 1.34409 -27.3072 -15.3286
  1218 -1.05346 -16.5327 10.0445
  1219 -0.998134 -16.3921 -10.4101
  1220 278.974 -3.00994 5.49887
  1221 0.254026 -65.2084 5.75637
  1222 1.87918 -20.1669 -17.0854
  1223 31.7635 1.40604 0.399142
  1224 31.7440 1.40477 -0.399016
  1225 -2.84770 -11.9978 18.4867
  1226 -31.7600 1.83804 -5.36675
  1227 -31.7181 1.83649 5.36585
  1228 576.682 10.2225 16.0341
  1229 -16.4616 1.81537 16.4883
  1230 -16.4975 1.81653 -16.5100
  1231 132.821 5.59596 -19.9814
  1232 132.950 5.48702 20.1077
  1233 8.37302 -14.1886 -8.01182
  1234 126.582 6.99146 -7.81478
  1235 126.617 6.95876 7.83496
  1236 5.08461 -40.8916 -3.05714
  1237 -2.85489 -12.0171 -18.4490
  1238 -22.7814 1.02987 3.28038
  1239 -22.8190 1.02979 -3.27987
  1240 -10.0378 0.603027 -18.7950
  1241 -9.99980 0.603944 18.7711
  1242 269.865 21.3906 24.8992
  1243 154.015 2.03384 -21.3432
  1244 154.209 1.97324 21.3973
  1245 -71.1422 0.190142 -0.703233
  1246 -71.0905 0.190123 0.703332
  1247 139.156 3.87140 -4.21523
  1248 139.175 3.86104 4.21537
  1249 -73.2904 -1.20671 -0.187433
  1250 -73.3413 -1.20709 0.187516
  1251 207.813 -14.9019 -24.4210
  1252 -33.2559 0.552233 9.29885
  1253 -33.2861 0.552928 -9.30985
  1254 209.969 -15.7269 24.1978
  1255 141.396 5.66761 -8.68369
  1256 141.434 5.63208 8.69257
  1257 16.2804 -43.8238 -29.1414
  1258 0.295855 -46.0522 -11.6948
  1259 -1.01663 -19.4221 17.3471
  1260 451.351 69.2720 -59.4548
  1261 -0.115787 -43.0589 11.3489
  1262 468.685 44.0519 -26.6232
  1263 -0.227262 -79.6734 -5.46718
  1264 21.0184 2.56601 -0.986038
  1265 21.0415 2.56706 0.987585
  1266 -0.201828 -18.0714 3.76796
  1267 -0.163787 -18.1662 -3.75647
  1268 78.1315 2.44507 -0.106081
  1269 78.1362 2.44741 0.106613
  1270 281.223 -21.9755 21.1405
  1271 4.29104 2.36887 -2.98092
  1272 4.32001 2.36915 2.98221
  1273 1.62763 -88.4138 2.94663
  1274 1.03348 -93.9837 -2.90174
  1275 258.656 -33.0464 -25.8545
  1276 -0.729283 -23.6794 11.1303
  1277 268.337 16.6642 -30.9950
  1278 -0.810439 -31.2088 10.9556
  1279 0.530209 -86.0363 -4.32215
  1280 129.608 4.20959 -4.51049
  1281 129.627 4.19269 4.51405
  1282 -0.0914194 -46.3503 4.94998
  1283 -0.125406 -38.6624 -11.1903
  1284 622.943 104.837 91.6514
  1285 246.576 0.241414 0.410535
  1286 246.523 0.241367 -0.410391
  1287 6.07564 0.0535060 16.4747
  1288 5.87701 0.316511 -16.5421
  1289 -4.21138 3.39819 19.0848
  1290 -4.29549 3.40707 -19.1205
  1291 260.100 -4.97267 -18.1939
  1292 241.893 -10.0341 -9.32301
  1293 241.623 -11.4472 9.38318
  1294 34.8302 4.57660 2.51316
  1295 34.8102 4.57549 -2.50879
  1296 -40.3815 1.09165 -7.36588
  1297 -40.3394 1.08946 7.35934
  1298 269.921 -38.4679 -37.0642
  1299 -2.02764 -4.88090 4.96654
  1300 -2.03518 -4.87672 -4.96393
  1301 284.155 -12.8594 31.7000
  1302 -3.03448 -11.3592 13.5120
  1303 -3.00168 -11.4003 -13.4498
  1304 -26.5432 1.82582 3.89477
  1305 -26.5825 1.82655 -3.89454
  1306 42.0118 3.91298 -14.5916
  1307 41.5811 4.16407 14.5947
  1308 66.2114 2.32400 0.452884
  1309 66.2030 2.32164 -0.452151
  1310 -28.1203 2.78177 11.5910
  1311 -28.1614 2.78675 -11.6017
  1312 231.064 0.758188 0.638410
  1313 231.017 0.758070 -0.638245
  1314 125.470 -2.71737 78.0871
  1315 187.997 0.774899 1.41244
  1316 187.967 0.776325 -1.41301
  1317 123.388 2.52313 -30.9469
  1318 123.432 2.37280 31.2422
  1319 1.16119 -51.1360 -7.29322
  1320 47.2220 11.2084 -5.52512
  1321 47.0250 11.3485 5.61967
  1322 -0.455991 -0.427352 -0.608201
  1323 -0.458274 -0.427530 0.609967
  1324 160.015 5.31878 11.4143
  1325 159.955 5.37977 -11.4077
  1326 78.6224 6.94532 1.20190
  1327 78.6242 6.95245 -1.19179
  1328 116.590 7.05124 -5.15745
  1329 116.612 7.03035 5.17005
  1330 153.699 1.36564 -1.41185
  1331 153.718 1.36361 1.41161
  1332 -4.91208 -2.39056 -5.61247
  1333 -4.91165 -2.38809 5.61574
  1334 -48.0909 0.139759 2.31652
  1335 -48.1360 0.139797 -2.31641
  1336 -8.43969 -3.90536 -13.8212
  1337 -8.43459 -3.88673 13.8085
  1338 -28.1361 0.603436 0.992446
  1339 -28.1741 0.602980 -0.992233
  1340 -73.9960 0.697317 0.404723
  1341 -74.0475 0.697428 -0.404637
  1342 290.836 -38.4208 50.9840
  1343 206.546 -1.44320 -25.2430
</Section>

newXOutput 35

<Section columns = "stress_xx | stress_yy | stress_xy">
  1 261.559 -0.307871 0.253811
  2 261.618 -0.308054 -0.253936
  3 -82.2694 0.419891 -1.11156
  4 0.132638 0.0363746 0.233653
  5 479.761 127.577 151.596
  6 542.096 145.180 -145.112
  7 0.132122 0.0358915 -0.232968
  8 -82.2136 0.419841 1.11128
  9 260.747 -0.286252 -0.859690
  10 260.937 -0.726218 -1.40624
  11 263.410 -0.711065 -0.362148
  12 263.639 -0.661033 -1.62719
  13 264.218 -0.638860 -0.477200
  14 269.784 -0.628157 -0.673494
  15 271.657 -0.946904 -2.17945
  16 273.621 -0.411143 -1.47594
  17 274.805 0.234539 -2.85161
  18 286.056 -1.47434 -2.44449
  19 290.799 -1.10988 -3.16755
  20 295.969 -1.74126 -1.15868
  21 298.328 -2.36092 -0.623944
  22 295.715 -2.76836 4.09657
  23 284.925 -3.14379 8.49913
  24 260.096 -3.63544 17.9886
  25 220.451 1.86794 20.8725
  26 187.390 2.18727 19.5711
  27 141.811 4.97730 11.8789
  28 151.228 4.84862 0.929129
  29 125.016 14.6401 -7.63865
  30 177.128 6.61790 -21.1030
  31 206.271 1.50726 -17.3168
  32 254.588 -0.853982 -14.9789
  33 281.320 -3.81418 -10.1510
  34 295.147 -3.23073 -4.08662
  35 297.655 -2.28133 0.633078
  36 295.499 -1.71666 1.07149
  37 290.589 -1.11819 3.06483
  38 285.966 -1.49539 2.38418
  39 274.806 0.222235 2.82143
  40 273.653 -0.415792 1.46413
  41 271.706 -0.949728 2.17483
  42 269.839 -0.629612 0.671208
  43 264.275 -0.639698 0.476150
  44 263.698 -0.661783 1.62742
  45 263.470 -0.711590 0.362116
  46 260.996 -0.726619 1.40682
  47 260.806 -0.286421 0.860050
  48 246.298 0.811286 -0.314248
  49 227.679 0.513705 -0.719323
  50 204.474 -0.341746 -0.752894
  51 180.487 1.11741 -0.626320
  52 159.548 0.992797 -0.502556
  53 137.203 1.72594 -0.598151
  54 115.210 2.85751 -0.381258
  55 92.4392 2.59547 -0.759451
  56 73.5958 1.92212 -1.04960
  57 48.9227 1.33299 -1.10565
  58 23.9065 1.76608 -0.838579
  59 3.05347 1.44873 -0.810164
  60 -22.9221 0.886181 -0.747538
  61 -42.2315 -0.0936898 -1.77080
  62 -60.9228 -1.20460 -0.815944
  63 -79.8452 0.191566 0.524245
  64 -83.8915 1.44358 -0.234378
  65 -84.1269 0.650938 0.209338
  66 -81.3050 0.341635 -0.137610
  67 -82.0511 0.937183 -1.04374
  68 -80.6813 1.13146 -0.154534
  69 -76.2492 0.360680 -1.58763
  70 -76.9685 0.695327 -1.69926
  71 -74.9459 0.662659 -0.982261
  72 -69.3270 0.423771 -1.45582
  73 -66.6074 0.740042 -2.36340
  74 -62.4890 0.821345 -1.95821
  75 -55.2231 0.421462 -3.32791
  76 -51.1247 0.129412 -2.78338
  77 -43.8089 0.186325 -3.19631
  78 -37.4896 0.133064 -3.52023
  79 -32.0138 0.0419457 -2.77759
  80 -24.4530 0.159203 -2.79463
  81 -17.9484 -0.0768850 -2.98200
  82 -11.6585 -0.329930 -2.60645
  83 -6.68591 -0.288142 -1.98991
  84 -3.26907 -0.499371 -1.65728
  85 -0.519344 -0.288242 -0.584451
  86 0.0565897 -0.316722 -0.203435
  87 -0.171893 -0.153064 -0.0308035
  88 -0.450723 -0.405957 -0.510857
  89 -0.437023 -2.76061 -1.43714
  90 -0.375870 -6.22187 -2.05943
  91 -0.196724 -10.6709 -3.01019
  92 -0.104217 -16.4126 -2.59779
  93 -0.0938891 -21.7177 -3.27154
  94 -0.405058 -28.2275 -3.70205
  95 -0.165132 -36.2421 -3.74959
  96 0.0775379 -44.3181 -3.59790
  97 0.176313 -52.9864 -3.55539
  98 0.267186 -61.9146 -3.50614
  99 0.0291427 -68.5575 -4.75443
  100 0.472183 -77.9263 -4.26261
  101 0.570858 -88.9269 -3.44286
  102 -0.00120217 -93.9743 -4.57827
  103 0.809224 -102.201 -4.27569
  104 1.95490 -113.186 -2.21089
  105 3.80111 -116.533 -3.50297
  106 2.58460 -107.898 2.11335
  107 3.58715 -83.5033 10.0998
  108 20.1162 -52.2355 31.1428
  109 64.3119 78.5206 111.065
  110 741.149 38.7177 72.3871
  111 635.190 11.9448 26.4897
  112 614.707 4.58917 5.92346
  113 610.450 1.76194 -0.988686
  114 614.476 6.94231 -13.9977
  115 633.223 21.4776 -31.1941
  116 720.228 75.8943 -91.7307
  117 152.750 60.5715 -135.841
  118 33.3165 -51.4459 -38.4793
  119 9.73914 -91.3155 -13.9405
  120 2.66243 -102.373 -2.34251
  121 3.04578 -112.273 2.08398
  122 0.881132 -108.834 1.74215
  123 0.333653 -99.6528 3.68113
  124 0.351772 -93.6189 2.92815
  125 0.489222 -84.1282 4.84529
  126 -0.0243368 -78.5951 4.67755
  127 0.194220 -70.9238 3.37569
  128 0.370755 -61.1606 4.25830
  129 0.0685661 -54.2038 3.37762
  130 0.110419 -44.3871 4.26321
  131 -0.443145 -36.6747 3.65920
  132 -0.314437 -28.2530 3.58834
  133 -0.0682529 -21.6008 3.28062
  134 -0.134010 -16.3193 2.60363
  135 -0.192566 -10.6398 2.98135
  136 -0.370602 -6.21746 2.04926
  137 -0.434740 -2.76470 1.43609
  138 -0.450190 -0.410191 0.511827
  139 -0.171879 -0.154915 0.0320300
  140 0.0543629 -0.317040 0.204578
  141 -0.523620 -0.288128 0.585954
  142 -3.27582 -0.498979 1.65891
  143 -6.69519 -0.287315 1.99055
  144 -11.6664 -0.328907 2.60564
  145 -17.9518 -0.0760395 2.97936
  146 -24.4509 0.159368 2.79151
  147 -32.0038 0.0422937 2.77434
  148 -37.4726 0.133433 3.51657
  149 -43.7828 0.186225 3.19256
  150 -51.0906 0.129262 2.77996
  151 -55.1837 0.421142 3.32469
  152 -62.4427 0.820867 1.95583
  153 -66.5576 0.739540 2.36157
  154 -69.2742 0.423454 1.45481
  155 -74.8905 0.662337 0.981720
  156 -76.9122 0.695047 1.69871
  157 -76.1932 0.360557 1.58728
  158 -80.6243 1.13113 0.154684
  159 -81.9940 0.936950 1.04363
  160 -81.2487 0.341592 0.137742
  161 -84.0701 0.650808 -0.209145
  162 -83.8350 1.44323 0.234425
  163 -79.7901 0.191566 -0.524040
  164 -60.8733 -1.20407 0.815786
  165 -42.1876 -0.0932565 1.77039
  166 -22.8840 0.886626 0.747460
  167 3.08345 1.44938 0.810050
  168 23.9299 1.76705 0.838455
  169 48.9381 1.33455 1.10547
  170 73.6032 1.92385 1.04939
  171 92.4405 2.59727 0.759287
  172 115.204 2.85924 0.381086
  173 137.190 1.72776 0.597832
  174 159.527 0.994463 0.502192
  175 180.459 1.11846 0.625826
  176 204.438 -0.340751 0.752335
  177 227.633 0.513844 0.718904
  178 246.245 0.811076 0.314064
  179 67.1068 12.2119 -1.83776
  180 67.0776 12.2271 1.88288
  181 -1.68996 1.76468 19.9990
  182 -1.76074 1.75745 -20.0033
  183 154.531 -2.23340 -33.7137
  184 154.454 -2.54376 34.0901
  185 30.2105 6.52045 -0.239730
  186 29.8498 6.66084 0.261572
  187 21.2990 4.27098 -3.48618
  188 21.3253 4.27064 3.48930
  189 146.825 3.35718 -4.77011
  190 146.849 3.34308 4.77084
  191 -3.57052 6.04705 11.1736
  192 -3.61603 6.05829 -11.1780
  193 170.686 4.85462 -12.6360
  194 170.766 4.78140 12.6463
  195 -6.75340 -5.90340 15.5365
  196 -6.75025 -5.93649 -15.5539
  197 1.36874 -14.3890 -18.9091
  198 52.2112 1.56682 -30.2826
  199 1.71487 -15.3671 18.4871
  200 51.3684 2.00838 30.8142
  201 242.388 -33.7370 -49.1394
  202 251.071 -35.0798 47.0479
  203 86.1143 3.43356 -0.505045
  204 86.1122 3.42963 0.506927
  205 -15.4061 1.20804 -2.29459
  206 -15.3699 1.20847 2.29506
  207 -19.8773 2.93791 15.2817
  208 -19.9197 2.94412 -15.3007
  209 86.5162 8.52666 -1.87748
  210 86.5179 8.51888 1.89172
  211 25.8691 11.0315 8.21996
  212 25.7712 11.0993 -8.23318
  213 -25.9207 2.78577 -6.54349
  214 -25.8778 2.78298 6.54185
  215 196.255 0.713196 2.33880
  216 196.222 0.716497 -2.34051
  217 6.05707 -27.2013 8.63240
  218 6.59004 -24.7494 -7.77826
  219 -1.89729 -16.6330 17.5912
  220 -1.93310 -17.2522 -17.0277
  221 79.7949 11.7004 -12.7894
  222 79.7337 11.7528 12.9432
  223 -17.7200 -0.119516 15.2250
  224 -17.7442 -0.121071 -15.2434
  225 209.973 1.61106 -7.04062
  226 210.011 1.58990 7.02674
  227 225.586 -2.96108 -13.7946
  228 225.754 -3.19980 13.7168
  229 359.072 28.0647 -0.405361
  230 329.412 36.1319 22.3977
  231 326.089 -4.27297 -31.9718
  232 38.6828 9.19049 4.53135
  233 38.6541 9.19826 -4.51922
  234 2.04800 7.27961 15.5929
  235 1.98777 7.30144 -15.6056
  236 251.934 -15.2745 -8.67334
  237 250.448 -15.4700 9.46914
  238 138.818 1.75701 -1.68946
  239 138.833 1.75299 1.68926
  240 -31.7367 2.22673 10.2690
  241 -31.7805 2.23125 -10.2778
  242 -4.28225 -4.21774 -6.93816
  243 -4.27889 -4.21568 6.94311
  244 -35.6937 0.973179 3.38524
  245 -35.7372 0.973425 -3.38513
  246 113.582 9.01989 -8.06771
  247 113.609 8.99214 8.10185
  248 144.834 4.72459 -19.0317
  249 144.960 4.63570 19.1177
  250 33.8348 2.63787 -0.445634
  251 33.8551 2.63917 0.446850
  252 83.0675 -1.55060 -67.2639
  253 98.5844 1.03514 73.6234
  254 10.7882 4.83971 15.0338
  255 10.7398 4.95416 -15.0863
  256 344.013 -28.6504 -4.28214
  257 28.7499 11.3631 7.11820
  258 28.6998 11.3874 -7.10699
  259 81.3280 8.45387 -24.6487
  260 81.1849 8.67753 24.9494
  261 383.426 52.5909 -6.52998
  262 227.721 0.476987 9.53219
  263 227.662 0.552350 -9.57776
  264 -2.08181 -12.7694 -10.9275
  265 -2.02523 -12.8220 10.9719
  266 -0.477215 -30.5031 -15.1673
  267 0.944351 -35.9510 -14.2255
  268 0.485412 -35.8272 14.7997
  269 -5.86610 -5.11790 20.1160
  270 -5.88862 -5.10699 -20.1888
  271 11.8106 -29.7666 -3.89328
  272 12.6905 -27.5848 5.86862
  273 -13.1756 -1.12716 9.60355
  274 -13.1810 -1.13193 -9.61124
  275 161.182 4.99410 -7.77722
  276 161.222 4.96226 7.77714
  277 283.198 -29.8816 -0.728539
  278 61.3495 5.76515 -0.644217
  279 61.3602 5.76806 0.649591
  280 -0.773775 -28.6018 14.4845
  281 4.87930 5.99677 7.38990
  282 4.84175 6.00339 -7.38833
  283 452.293 32.0335 -11.0546
  284 221.272 0.443865 2.89456
  285 221.232 0.448556 -2.89875
  286 146.682 -7.65833 -50.9699
  287 148.031 -7.53320 51.8029
  288 282.809 -28.2969 -3.95247
  289 -27.1191 0.816769 12.0675
  290 -27.1482 0.817383 -12.0822
  291 277.499 -25.0303 83.9794
  292 -12.2849 1.89576 18.3630
  293 -12.3253 1.89502 -18.3889
  294 45.7870 12.6355 -2.38034
  295 45.6149 12.7580 2.44662
  296 -50.5617 0.487832 0.630488
  297 -50.6083 0.487698 -0.630332
  298 233.459 1.43972 -115.000
  299 -46.8285 0.974935 -5.59378
  300 -46.7812 0.973280 5.59048
  301 -1.54081 -6.12012 20.6761
  302 -0.869231 -5.99156 -20.4979
  303 101.488 10.7269 -11.7648
  304 101.506 10.7130 11.8529
  305 21.0304 2.97782 2.61113
  306 21.0054 2.97705 -2.60948
  307 105.939 4.63149 -2.23075
  308 105.945 4.62379 2.23396
  309 9.68037 -8.39392 11.4116
  310 8.81907 -9.92356 -11.5144
  311 102.824 2.34970 -0.490542
  312 102.826 2.34700 0.490900
  313 -38.1989 0.991862 8.89280
  314 -38.2361 0.993499 -8.90294
  315 25.2619 -3.51935 -5.07511
  316 24.4895 -3.54383 4.40674
  317 231.107 0.0399953 0.804757
  318 231.060 0.0405568 -0.804973
  319 506.698 29.2080 19.0864
  320 50.7761 7.31314 2.05715
  321 50.7591 7.31282 -2.04793
  322 -12.2321 2.70424 4.69061
  323 -12.2697 2.70572 -4.68996
  324 70.3967 10.0588 -1.00090
  325 70.3853 10.0576 1.02647
  326 7.75550 7.25427 16.2385
  327 7.70545 7.27340 -16.2667
  328 1.04448 -51.7124 10.5250
  329 -52.2014 0.188685 -1.39948
  330 -52.1538 0.188867 1.39966
  331 175.584 0.926878 -1.51980
  332 175.611 0.924767 1.51919
  333 184.946 1.68036 -4.03229
  334 184.976 1.67098 4.02838
  335 -48.4373 0.888363 -4.11506
  336 -48.3894 0.887618 4.11411
  337 -2.33274 1.13882 0.592023
  338 -2.36448 1.13814 -0.591643
  339 -1.07943 -21.0298 10.9270
  340 -0.860603 -21.8714 -10.9123
  341 207.446 -17.5595 -34.2366
  342 215.638 -20.9808 33.5740
  343 122.772 6.52253 -4.94387
  344 122.791 6.50478 4.95165
  345 53.3376 12.8189 -0.834325
  346 53.2562 12.8721 0.886729
  347 -20.0302 3.77313 9.22879
  348 -20.0738 3.77913 -9.23336
  349 389.656 4.23653 6.96954
  350 19.9584 -32.5642 -21.4180
  351 21.3499 -30.6327 22.5215
  352 -8.88531 5.94417 14.6199
  353 -8.93557 5.95732 -14.6328
  354 -10.8927 -2.26728 17.7695
  355 -10.9169 -2.27092 -17.7969
  356 440.975 72.0069 -17.8313
  357 280.744 -4.82117 38.0369
  358 263.773 -6.02381 -6.03085
  359 263.489 -5.88516 5.57246
  360 183.766 -1.93325 -21.7473
  361 183.565 -2.13312 21.7481
  362 0.339799 -62.2764 -8.56861
  363 241.925 0.810998 -5.37453
  364 241.958 0.789359 5.34990
  365 3.06948 -58.9032 6.95952
  366 276.005 21.4820 -21.2452
  367 67.0317 2.76316 0.948976
  368 67.0223 2.76141 -0.948751
  369 185.015 1.71771 -16.1597
  370 185.141 1.60861 16.1706
  371 200.002 2.02854 -9.85163
  372 200.053 1.98020 9.83253
  373 -5.02155 2.43497 3.22879
  374 -5.05558 2.43514 -3.22765
  375 113.499 6.30383 -25.5631
  376 113.551 6.36768 25.8196
  377 238.262 0.0799622 1.32239
  378 238.214 0.0810695 -1.32343
  379 133.357 7.75238 -12.7661
  380 133.416 7.69762 12.8158
  381 154.779 2.87564 3.22986
  382 154.758 2.88256 -3.23089
  383 -7.42073 -1.35244 5.89906
  384 -7.41947 -1.35571 -5.89858
  385 -1.75537 -1.24987 -1.70042
  386 -1.75627 -1.25063 1.70309
  387 316.992 -41.1460 20.7181
  388 -4.20585 -10.0815 16.1980
  389 -4.17853 -10.1638 -16.1965
  390 50.2375 3.72758 -1.36129
  391 50.2523 3.72985 1.36396
  392 -1.58169 -7.87172 5.92032
  393 -1.59920 -7.85804 -5.92059
  394 18.7685 9.08044 8.15427
  395 18.7268 9.09469 -8.14898
  396 259.282 -0.876209 7.06286
  397 259.240 -0.775199 -7.20474
  398 -0.744051 -15.7015 19.6489
  399 -21.3434 -0.405417 9.12017
  400 -21.3557 -0.407045 -9.13022
  401 -0.825779 -16.5622 -19.4255
  402 243.698 0.268321 3.41847
  403 243.657 0.274817 -3.42714
  404 -2.78750 5.23109 18.2766
  405 -2.85963 5.24984 -18.3015
  406 179.165 3.09107 -6.47525
  407 179.199 3.07153 6.46904
  408 275.685 -11.8674 -6.81400
  409 276.727 -9.52890 5.20881
  410 -0.582784 -28.6870 -11.9974
  411 24.0058 8.78254 -6.23379
  412 24.2040 8.67642 6.21770
  413 270.756 17.9060 13.3686
  414 154.939 -9.46391 -70.8525
  415 159.200 -12.3957 74.2745
  416 8.43124 8.56195 12.1367
  417 8.37925 8.58127 -12.1398
  418 114.127 3.61542 -1.52520
  419 114.135 3.61049 1.52607
  420 110.719 14.2431 113.048
  421 45.1256 11.0323 -3.55583
  422 45.1612 11.0167 3.57651
  423 2.71623 -27.9037 13.5673
  424 -0.350673 -46.7058 -10.4764
  425 17.4862 10.4094 11.4521
  426 17.4232 10.4398 -11.4566
  427 21.4620 6.28990 -5.07352
  428 21.4916 6.28639 5.07828
  429 -8.06200 -0.543740 -20.1347
  430 -8.02197 -0.554954 20.1056
  431 54.2573 10.5534 -9.41247
  432 54.0310 10.7219 9.54194
  433 276.118 -9.18870 -28.6092
  434 7.42514 -3.25443 16.0058
  435 7.17125 -3.17110 -16.0920
  436 200.923 -8.54537 -24.0411
  437 201.792 -9.17935 23.9883
  438 -50.9347 0.426227 -5.39572
  439 -50.8893 0.424980 5.39090
  440 0.00531880 -45.7928 9.40490
  441 -0.336002 -29.0488 10.6746
  442 -20.7975 1.28908 15.4572
  443 -20.8291 1.28931 -15.4765
  444 143.994 1.68071 -0.584904
  445 144.009 1.67832 0.584542
  446 -4.37362 -6.90290 10.9631
  447 -4.37995 -6.91757 -10.9501
  448 88.7873 4.00813 -37.3465
  449 88.6293 4.43123 37.8154
  450 0.742086 -55.7736 -10.5030
  451 505.967 18.6193 0.513974
  452 1.36383 -66.4400 -6.37779
  453 -60.6609 0.0518278 -2.02465
  454 -60.6102 0.0518934 2.02458
  455 -23.4562 3.23501 12.7784
  456 -23.5008 3.24188 -12.7913
  457 -26.8603 0.374696 9.17904
  458 -26.8793 0.374780 -9.18953
  459 97.3680 10.4291 -7.77116
  460 97.3802 10.4197 7.82543
  461 148.240 6.33797 -9.88807
  462 148.291 6.29164 9.90385
  463 -2.67999 -9.57237 20.2832
  464 -2.68296 -9.50844 -20.3661
  465 256.308 3.83147 -36.1429
  466 17.1522 -5.34368 -3.92800
  467 16.5578 -5.48698 4.23241
  468 3.98673 -60.4934 0.0241273
  469 2.52440 -69.9642 -1.82305
  470 -7.94009 -3.57395 11.2919
  471 -7.94227 -3.58621 -11.2953
  472 54.0049 -8.27914 -57.8437
  473 398.837 -3.42929 -36.4395
  474 88.6283 6.19852 1.95173
  475 88.6271 6.20632 -1.94382
  476 129.122 1.12383 -36.1372
  477 129.447 1.08119 36.7172
  478 37.2640 13.3241 4.96564
  479 37.1990 13.3659 -4.94691
  480 116.527 8.90627 -18.6426
  481 116.593 8.85334 18.7950
  482 3.89030 2.04638 18.6981
  483 4.14865 2.17660 -18.6742
  484 -53.6459 0.821702 -4.04117
  485 -53.5965 0.820975 4.03950
  486 259.098 -30.7240 -18.9274
  487 206.529 0.394856 -1.11830
  488 206.566 0.393971 1.11810
  489 9.70761 1.69408 -1.44103
  490 9.73578 1.69497 1.44192
  491 -14.0047 4.84735 12.0335
  492 -14.0510 4.85685 -12.0418
  493 -31.0088 1.93223 -4.49921
  494 -30.9659 1.93097 4.49891
  495 88.5979 9.11109 -3.15369
  496 88.6012 9.10111 3.17507
  497 -11.2909 4.08344 16.7595
  498 -11.3413 4.09416 -16.7810
  499 237.370 -6.49620 -12.7626
  500 237.760 -6.84413 12.5465
  501 154.607 1.81381 -23.9775
  502 154.388 1.69002 24.1925
  503 56.7293 3.06163 -0.800873
  504 56.7419 3.06375 0.802028
  505 0.547248 -28.7277 -16.7012
  506 277.751 -10.3521 23.5313
  507 3.62483 -19.2548 -15.3746
  508 77.9050 12.7193 7.76456
  509 77.9431 12.6891 -7.67229
  510 256.252 -28.7509 18.6547
  511 19.0381 -29.4389 29.9031
  512 305.917 -41.0259 -37.9372
  513 207.940 1.16317 11.8442
  514 207.858 1.25410 -11.8699
  515 0.498513 -24.6256 17.3780
  516 -4.06381 -1.21876 -3.14209
  517 -4.06593 -1.21833 3.14463
  518 24.1656 1.63870 -0.461634
  519 24.1889 1.63982 0.462030
  520 -0.710090 -16.1856 7.00014
  521 -0.644284 -16.1088 -7.03505
  522 171.269 2.12119 2.59768
  523 171.244 2.12496 -2.59888
  524 485.734 83.6789 33.4894
  525 19.4975 -13.4984 -5.07599
  526 15.1390 -17.7737 1.92000
  527 -5.89685 3.82678 -6.17694
  528 -5.85916 3.82331 6.17736
  529 -42.0190 0.667160 5.53201
  530 -42.0500 0.667901 -5.53836
  531 0.410985 -52.2243 10.4207
  532 -59.8373 0.569182 0.605119
  533 -59.8869 0.569163 -0.604910
  534 52.0334 -5.47045 -42.2507
  535 50.8535 -4.52483 43.9597
  536 47.5610 7.92230 -13.8108
  537 47.2011 8.14912 13.9270
  538 -11.3367 -2.42045 15.5095
  539 -11.3516 -2.42963 -15.5296
  540 46.5588 4.63079 1.47030
  541 46.5424 4.62901 -1.46636
  542 -25.8203 1.28293 2.01399
  543 -25.8601 1.28287 -2.01341
  544 55.1835 8.52901 1.74338
  545 55.1661 8.53048 -1.72870
  546 -1.13217 -3.65635 2.68309
  547 -1.13597 -3.65283 -2.68248
  548 19.7872 8.52482 10.4545
  549 19.6561 8.65055 -10.4914
  550 15.9917 2.12631 9.34486
  551 15.7604 2.10387 -9.47065
  552 211.000 1.76573 5.00516
  553 210.963 1.77542 -5.01203
  554 186.187 2.84451 7.92374
  555 186.147 2.87461 -7.93350
  556 -0.192349 -43.8952 -6.50657
  557 129.651 6.97579 -7.45593
  558 129.680 6.94867 7.47052
  559 130.144 3.46942 -2.69595
  560 130.158 3.46113 2.69701
  561 -19.0456 0.805155 -0.0550238
  562 -19.0087 0.805629 0.0553026
  563 218.577 12.1990 -6.95545
  564 292.979 -38.1091 -12.9873
  565 237.429 10.7339 27.5252
  566 1.87586 -38.1281 -12.4251
  567 -13.7533 4.21779 -8.03854
  568 -13.7117 4.21272 8.03680
  569 1.93689 -22.2395 16.5478
  570 -13.1905 0.293362 17.8609
  571 -13.2223 0.292603 -17.8836
  572 373.018 35.9350 -1.70746
  573 84.1446 4.35669 -0.757190
  574 84.1423 4.35192 0.760336
  575 571.966 48.0636 -48.7050
  576 -3.03082 -2.38577 20.9553
  577 -2.84654 -2.23790 -20.9753
  578 309.684 -28.5877 14.1262
  579 249.957 0.403573 -5.99787
  580 249.982 0.368624 5.95559
  581 113.273 -0.952529 -52.7114
  582 114.669 -1.28316 53.5913
  583 -6.49900 -6.25757 17.9752
  584 -6.50417 -6.28836 -18.0188
  585 59.0717 4.41418 27.2869
  586 59.5689 3.95136 -27.0306
  587 -49.3118 0.576223 -5.23727
  588 -49.2697 0.575315 5.23198
  589 365.235 29.1911 24.1266
  590 68.4870 6.75957 -0.146619
  591 68.4950 6.76339 0.154658
  592 80.9711 10.0127 -18.5213
  593 80.8725 10.1359 18.7477
  594 225.417 -0.189618 -11.6393
  595 225.520 -0.311117 11.5934
  596 -1.04941 -23.0956 -16.2060
  597 246.289 -0.174708 1.78610
  598 246.239 -0.173174 -1.78772
  599 -36.7990 0.820586 -0.822036
  600 -36.7564 0.820781 0.822459
  601 -64.1430 -0.392878 0.0371687
  602 -64.1936 -0.393134 -0.0370613
  603 5.08619 -35.4362 -6.30867
  604 -2.33304 -14.9357 13.8158
  605 -2.46064 -14.1380 -13.9086
  606 -28.1895 1.71410 12.9088
  607 -28.2252 1.71694 -12.9241
  608 170.993 4.58968 9.95269
  609 170.942 4.63624 -9.95490
  610 125.544 2.04549 0.647446
  611 125.534 2.04765 -0.647418
  612 27.8763 -9.21051 16.8035
  613 28.7991 -8.60858 -16.6301
  614 -0.887996 -11.2763 5.90443
  615 -0.914575 -11.2394 -5.92374
  616 295.130 15.9195 122.366
  617 -14.5403 -0.457267 5.48244
  618 -14.5399 -0.459253 -5.48634
  619 5.03017 -21.5712 -12.5645
  620 122.705 5.32372 -3.74176
  621 122.720 5.31166 3.74560
  622 59.4834 12.7459 -5.41016
  623 59.3757 12.8223 5.50230
  624 0.598235 -79.2742 4.44025
  625 44.3957 12.6210 3.22664
  626 44.3495 12.6477 -3.20184
  627 -5.71196 5.24963 9.64786
  628 -5.75448 5.25752 -9.65032
  629 -0.352012 -38.7719 8.89159
  630 -63.6831 0.101761 -2.00775
  631 -63.6311 0.101678 2.00750
  632 80.2293 2.54239 0.0840917
  633 80.2340 2.54540 -0.0829911
  634 205.636 0.896302 3.28887
  635 205.601 0.901184 -3.29186
  636 180.516 -14.0245 93.4214
  637 145.067 4.05129 -5.89193
  638 145.094 4.03159 5.89451
  639 2.07542 -3.39210 19.5335
  640 2.58991 -2.08350 -19.5195
  641 232.575 -24.8097 -75.4265
  642 555.183 19.3297 -20.2775
  643 -58.2866 0.0651045 -3.64637
  644 -58.2378 0.0645318 3.64374
  645 12.7274 3.29309 -3.06052
  646 12.7558 3.29303 3.06246
  647 -1.11136 -24.4074 14.2788
  648 314.392 17.6975 -34.4357
  649 243.608 -0.299810 0.298552
  650 243.556 -0.299529 -0.298557
  651 -15.7003 -0.884804 -12.7921
  652 -15.6863 -0.881212 12.7779
  653 -0.0415855 -55.2184 -8.59356
  654 247.849 -0.339008 0.684151
  655 247.796 -0.338613 -0.684269
  656 21.6741 7.95789 6.94617
  657 21.6389 7.96651 -6.94000
  658 187.139 -16.7398 -49.2519
  659 190.630 -16.6864 49.8282
  660 275.700 -1.62752 4.02978
  661 275.797 -1.60651 -4.22167
  662 1.19708 -69.9160 6.86133
  663 -16.2365 0.651681 -1.18325
  664 -16.2003 0.652238 1.18368
  665 89.5963 3.71300 -88.2318
  666 83.5405 2.31300 0.589830
  667 83.5445 2.31501 -0.589418
  668 40.4452 3.40910 0.759039
  669 40.4270 3.40746 -0.757052
  670 48.3679 5.74468 -1.25903
  671 48.3844 5.74624 1.26536
  672 159.847 4.85159 -15.3825
  673 159.948 4.76685 15.4194
  674 41.6679 12.2940 1.48249
  675 41.5484 12.3800 -1.45114
  676 -29.8655 2.23776 -7.53521
  677 -29.8211 2.23421 7.53184
  678 -34.4828 2.36923 -8.50711
  679 -34.4380 2.36538 8.50117
  680 282.933 -4.21726 -1.19615
  681 0.147861 -11.8077 -19.8251
  682 283.468 -4.42468 0.768352
  683 357.753 28.4324 0.489034
  684 -35.6060 0.162701 6.28053
  685 -35.6299 0.162766 -6.28803
  686 36.2079 10.2908 -1.01919
  687 35.9513 10.4264 1.05946
  688 -68.4738 0.0920440 -0.756557
  689 -68.4210 0.0921064 0.756711
  690 0.348860 -10.6694 19.8848
  691 -22.3976 0.278879 13.5262
  692 -22.4234 0.278369 -13.5425
  693 310.154 -26.8669 -15.3498
  694 47.7914 1.57479 -0.245974
  695 47.7757 1.57322 0.246505
  696 10.1805 4.75185 4.98893
  697 10.1489 4.75406 -4.98619
  698 162.817 -7.72405 -41.0433
  699 164.101 -8.02743 41.8781
  700 578.407 40.6421 44.5497
  701 10.7482 -55.5926 -17.6105
  702 -4.23219 -8.85472 19.2611
  703 -4.24139 -8.88779 -19.3008
  704 33.4888 7.93018 -4.00213
  705 33.5154 7.92611 4.01052
  706 254.747 -0.271281 -1.82744
  707 254.797 -0.272998 1.82452
  708 119.881 2.48639 1.04670
  709 119.873 2.49031 -1.04648
  710 9.36398 8.78395 14.5669
  711 9.30375 8.81137 -14.5800
  712 4.98541 2.49795 2.16196
  713 4.95547 2.49753 -2.16087
  714 -7.45975 1.57176 19.8360
  715 -7.50864 1.57396 -19.8705
  716 208.767 0.127584 1.37067
  717 208.729 0.129205 -1.37153
  718 180.207 1.95713 3.72833
  719 180.178 1.96332 -3.73059
  720 23.6378 -17.4631 20.4163
  721 24.3556 -18.5840 -19.6889
  722 -14.3931 2.99532 17.3041
  723 -14.4374 3.00019 -17.3280
  724 7.23337 -17.9883 10.1183
  725 0.171083 5.20378 18.4725
  726 0.0949846 5.22072 -18.4868
  727 -40.8365 1.21540 -5.04394
  728 -40.7905 1.21399 5.04230
  729 30.5362 10.2825 6.59159
  730 30.4939 10.2989 -6.57936
  731 278.814 -8.57882 -16.0914
  732 264.205 -23.2656 -5.62846
  733 -4.31520 -8.81494 13.5763
  734 -4.30889 -8.85504 -13.5578
  735 101.449 -1.82122 -62.2490
  736 98.7523 0.418471 62.9110
  737 61.4246 11.7526 -8.81115
  738 61.2777 11.8696 8.94213
  739 5.18786 -10.6341 16.1841
  740 -0.390614 -28.6342 -7.70774
  741 129.551 7.46601 -14.2029
  742 129.624 7.41251 14.2800
  743 0.348359 -56.4470 7.17879
  744 76.7668 11.0394 -3.22199
  745 76.7563 11.0391 3.26022
  746 267.353 -0.124088 -4.55235
  747 267.341 -0.158911 4.48172
  748 5.13678 -78.0296 1.01314
  749 119.199 9.30265 10.6070
  750 119.160 9.33721 -10.5588
  751 31.7201 11.1941 -4.37518
  752 31.8807 11.0766 4.37379
  753 -48.4434 0.322197 -4.40397
  754 -48.4067 0.321745 4.39885
  755 132.730 2.73416 -2.39836
  756 132.744 2.72861 2.39861
  757 81.1768 12.0448 -6.43984
  758 81.1589 12.0548 6.50812
  759 -0.0920636 7.20498 14.4042
  760 -0.146136 7.22329 -14.4140
  761 265.026 -19.8726 2.42648
  762 -42.3072 0.990520 3.85815
  763 -42.3530 0.991001 -3.85851
  764 577.472 108.660 -76.9919
  765 -16.7221 1.76885 4.12238
  766 -16.7601 1.76927 -4.12185
  767 225.924 0.923388 8.28951
  768 225.881 0.967637 -8.32284
  769 419.574 26.9701 0.550225
  770 256.568 -0.608499 -3.47571
  771 256.607 -0.614966 3.46474
  772 162.941 2.78554 4.64760
  773 162.915 2.79596 -4.64951
  774 244.079 -28.8996 68.6984
  775 105.116 8.18341 -3.70319
  776 105.128 8.16892 3.71739
  777 2.34915 -43.4040 9.25037
  778 280.289 -36.0629 21.5979
  779 169.958 0.849987 0.807153
  780 169.934 0.851639 -0.807344
  781 223.747 0.312794 0.431757
  782 223.703 0.313149 -0.431831
  783 -1.02805 -22.7391 -13.3444
  784 1.31242 -39.1256 13.2673
  785 99.3921 11.2907 14.7402
  786 99.3804 11.2922 -14.6067
  787 573.500 6.06657 4.83071
  788 172.194 1.79407 -19.3106
  789 172.328 1.69236 19.3565
  790 -36.3688 1.20882 9.70459
  791 -36.4106 1.21173 -9.71409
  792 7.11166 -32.2284 3.48868
  793 4.63437 -73.0085 -4.29038
  794 394.251 50.7551 -4.31428
  795 -0.351561 -28.5445 6.95499
  796 7.54255 5.46877 16.7603
  797 7.51999 5.46890 -16.8267
  798 51.7110 10.6470 2.20765
  799 51.6860 10.6559 -2.18783
  800 263.220 -11.9663 -3.59165
  801 263.648 -11.8492 2.62598
  802 311.653 39.8155 -115.736
  803 -43.5952 0.560313 -1.82721
  804 -43.5498 0.560356 1.82751
  805 -19.9664 -0.0888858 5.17418
  806 -19.9699 -0.0896950 -5.17924
  807 18.5887 0.827477 5.83079
  808 18.1936 0.804402 -5.86075
  809 199.042 -0.815993 17.4128
  810 198.887 -0.634307 -17.3854
  811 100.764 3.11488 -0.458706
  812 100.767 3.11108 0.459575
  813 321.861 -6.27427 31.7626
  814 32.8799 5.70677 -3.55177
  815 32.9035 5.70611 3.55742
  816 30.9276 3.53567 -4.08463
  817 30.6472 3.69268 4.16970
  818 -0.189516 -22.7061 -18.0906
  819 458.055 66.2901 62.0337
  820 -66.7206 0.0914556 -1.99320
  821 -66.6675 0.0913317 1.99263
  822 -0.0997311 -68.9436 6.82857
  823 4.57630 -10.4965 -16.3470
  824 -9.89186 -0.612968 3.83505
  825 -9.88712 -0.614443 -3.83597
  826 364.311 19.3006 -23.1939
  827 93.6259 9.71432 -4.64362
  828 93.6335 9.70323 4.67654
  829 249.881 -3.41428 -8.74748
  830 250.089 -3.46095 8.59369
  831 -63.6657 0.504886 2.62811
  832 -63.7174 0.505340 -2.62959
  833 -0.443209 -0.459730 -0.372615
  834 -0.444097 -0.460565 0.374082
  835 0.222441 -70.5371 -6.70105
  836 0.329300 -74.5512 -6.19198
  837 -70.6629 0.704483 0.413246
  838 -70.7155 0.704573 -0.413176
  839 37.2498 -14.1740 -40.3547
  840 154.353 2.28832 -1.31094
  841 154.373 2.28547 1.31032
  842 -6.22165 1.45628 0.527191
  843 -6.25457 1.45577 -0.527113
  844 230.436 0.865662 -5.51838
  845 230.474 0.850333 5.50282
  846 -26.2720 0.177235 4.92728
  847 -26.2815 0.177274 -4.93260
  848 138.293 -0.680081 -94.1231
  849 239.752 -20.6137 18.6728
  850 188.462 1.18186 -1.68592
  851 188.492 1.17967 1.68484
  852 237.494 -22.4502 -20.9401
  853 73.2518 8.61219 -0.908118
  854 73.2448 8.60742 0.926023
  855 101.715 7.13601 -2.75283
  856 101.723 7.12500 2.76192
  857 278.911 -6.01208 12.2724
  858 16.4606 9.93692 12.2074
  859 16.3912 9.97565 -12.2260
  860 16.4346 1.47441 1.04342
  861 16.4087 1.47334 -1.04282
  862 130.942 2.10671 1.08688
  863 130.930 2.10968 -1.08695
  864 345.781 -33.9737 37.0167
  865 215.948 1.53048 -7.18794
  866 215.990 1.50179 7.16700
  867 2.08783 3.45323 3.95862
  868 2.05524 3.45411 -3.95693
  869 216.791 0.00603499 2.01243
  870 216.751 0.00800992 -2.01385
  871 -41.4163 0.350020 -1.10720
  872 -41.3726 0.350328 1.10707
  873 -0.196014 -21.8252 6.19086
  874 -0.255991 -22.1669 -6.23953
  875 257.901 -3.91787 28.9861
  876 -16.2610 3.99122 14.7033
  877 -16.3077 4.00066 -14.7191
  878 -0.0912120 -36.0125 -6.85947
  879 101.763 4.21719 -1.37664
  880 101.766 4.21207 1.37857
  881 188.121 -9.57494 -31.2291
  882 189.618 -10.5985 31.5418
  883 -8.29253 -2.98235 -19.3593
  884 -8.25887 -2.98424 19.3233
  885 9.62183 8.93663 13.4029
  886 9.56447 8.96050 -13.4092
  887 0.914064 -83.0279 4.87980
  888 2.10356 6.87592 16.9587
  889 2.03928 6.89589 -16.9737
  890 173.588 -3.03430 -27.7283
  891 173.222 -3.19079 27.9519
  892 300.369 15.7723 35.5826
  893 68.1800 8.04918 0.0692399
  894 68.1891 8.05314 -0.0569325
  895 221.877 1.62970 -5.39771
  896 221.915 1.61736 5.38723
  897 -8.79202 -3.87873 16.9478
  898 -8.80674 -3.89248 -16.9759
  899 0.753381 -85.9321 -3.43321
  900 -13.5137 -0.964653 16.6525
  901 -13.5371 -0.966409 -16.6741
  902 7.64845 8.15634 -10.5940
  903 7.69470 8.14101 10.5932
  904 -0.684756 -5.45496 3.02746
  905 -0.692357 -5.44918 -3.03185
  906 18.0579 9.18531 -9.61633
  907 18.1065 9.16635 9.62016
  908 3.77819 -7.06990 18.1315
  909 3.26394 -6.58390 -19.0021
  910 214.417 -5.92073 17.6840
  911 213.895 -5.61214 -17.8054
  912 -71.9719 0.236320 -0.606544
  913 -71.9185 0.236360 0.606646
  914 -6.06235 -0.553558 2.87547
  915 -6.05659 -0.554439 -2.87441
  916 0.296468 -51.2573 -6.27570
  917 -6.57678 -2.83765 -8.21234
  918 -6.57530 -2.83106 8.21381
  919 -28.1059 2.34083 12.4704
  920 -28.1470 2.34570 -12.4841
  921 65.8593 12.9826 -3.15327
  922 65.8166 13.0151 3.21079
  923 282.144 22.6335 -6.00980
  924 -3.97952 6.45323 13.0976
  925 -4.02878 6.46701 -13.1054
  926 104.548 6.47601 -28.7743
  927 104.572 6.57128 29.1244
  928 -13.4031 4.54700 10.5715
  929 -13.4476 4.55547 -10.5773
  930 346.662 -18.8609 -8.30203
  931 203.846 8.13474 15.3486
  932 249.301 -3.43010 -26.2209
  933 187.679 2.88503 -11.7990
  934 187.749 2.81762 11.7899
  935 -20.9333 2.79619 -5.31048
  936 -20.8927 2.79388 5.31013
  937 -45.5466 0.841439 6.28006
  938 -45.5925 0.843220 -6.28502
  939 -2.72934 -8.78050 -9.53841
  940 -2.71126 -8.78951 9.55686
  941 65.4288 4.67792 -0.0257368
  942 65.4378 4.68120 0.0295253
  943 -21.3636 2.14742 15.3898
  944 -21.4006 2.14987 -15.4097
  945 226.277 0.111869 2.66475
  946 226.234 0.114236 -2.66684
  947 -1.73965 -19.3658 14.5209
  948 7.46130 7.53558 -9.14696
  949 7.50302 7.52453 9.14777
  950 10.5005 5.34334 6.12688
  951 10.4668 5.34743 -6.12417
  952 37.5873 3.92163 -1.73390
  953 37.6066 3.92285 1.73643
  954 425.976 50.3010 -7.59896
  955 -1.65248 -0.461489 -1.12769
  956 -1.65604 -0.461517 1.12978
  957 14.0135 3.63401 -11.6381
  958 14.2538 3.50987 11.6021
  959 150.939 6.46768 -12.2278
  960 151.005 6.40791 12.2534
  961 18.3559 6.68933 -5.92016
  962 18.3886 6.68407 5.92485
  963 40.8806 -14.8813 54.3664
  964 286.675 -1.95735 -2.17570
  965 286.179 -1.88211 1.89339
  966 49.5934 -7.83068 47.0075
  967 51.8497 2.65537 0.0109395
  968 51.8354 2.65372 -0.0100514
  969 137.008 -6.32037 -81.2840
  970 103.333 2.22215 0.611800
  971 103.330 2.22422 -0.611561
  972 12.8221 -14.7502 3.90321
  973 14.1719 -12.5453 -2.83311
  974 254.467 -0.188650 0.922471
  975 254.412 -0.188234 -0.922653
  976 -20.9713 0.0454884 12.2494
  977 -20.9902 0.0446202 -12.2632
  978 455.510 56.6061 23.6398
  979 -2.04379 -14.6719 -19.2530
  980 2.08682 -74.8769 7.13176
  981 -0.405221 -23.2150 17.7988
  982 262.901 -0.0733151 -3.54736
  983 262.928 -0.0828240 3.52890
  984 -3.48124 -6.35818 8.23125
  985 -3.49011 -6.35736 -8.22220
  986 324.781 33.3062 -20.7105
  987 582.298 5.43789 -3.25277
  988 -0.851137 -1.26381 -1.22734
  989 -0.850266 -1.26649 1.22911
  990 151.512 2.17881 -2.60030
  991 151.531 2.17420 2.59967
  992 -2.10791 -14.1211 19.3634
  993 211.536 1.29331 10.5959
  994 211.478 1.35959 -10.6243
  995 277.643 -18.6992 -12.5029
  996 -9.74680 -2.06104 9.30548
  997 -9.74907 -2.06830 -9.30922
  998 4.33091 -18.8910 14.2208
  999 -0.481824 -34.7956 13.9636
  1000 -0.0386726 -35.7209 6.84547
  1001 280.919 18.8579 -1.55767
  1002 323.676 35.4547 12.3833
  1003 232.546 -27.3474 -37.4828
  1004 3.20682 -34.5413 11.5575
  1005 4.09854 -49.9383 3.21165
  1006 63.4950 1.97561 0.254331
  1007 63.4843 1.97393 -0.254164
  1008 -2.58999 -2.94994 -3.90912
  1009 -2.58798 -2.95092 3.91248
  1010 2.10459 -28.3655 -15.1743
  1011 188.204 0.585055 -0.618293
  1012 188.234 0.583859 0.617979
  1013 36.7866 -1.37007 -16.7850
  1014 35.1825 -1.27918 16.6244
  1015 -4.00885 5.69969 17.0271
  1016 -4.06950 5.71713 -17.0476
  1017 -22.9048 3.44497 -10.6340
  1018 -22.8601 3.43857 10.6265
  1019 142.159 2.35305 -28.3346
  1020 142.264 2.46243 28.6599
  1021 101.897 9.14559 -19.3957
  1022 101.902 9.13884 19.6004
  1023 110.962 8.51467 -6.24239
  1024 110.981 8.49283 6.26385
  1025 290.076 -8.77015 -34.4573
  1026 -8.12627 3.47270 18.5349
  1027 -8.18119 3.48054 -18.5660
  1028 205.756 0.0898351 14.4267
  1029 205.644 0.227713 -14.4441
  1030 -1.51234 -11.1577 20.2945
  1031 -16.7163 -0.576353 9.00325
  1032 -16.7231 -0.578886 -9.01183
  1033 187.280 2.08711 -14.3077
  1034 187.375 1.99244 14.3047
  1035 228.282 5.18678 -24.6495
  1036 -0.321854 -34.6447 -14.6621
  1037 -2.84117 -13.6682 17.2452
  1038 -2.95713 -13.8219 -17.0963
  1039 131.366 8.12552 -9.90743
  1040 131.412 8.08422 9.93919
  1041 166.749 3.47180 5.77907
  1042 166.720 3.48712 -5.78200
  1043 277.075 -18.2612 10.9311
  1044 12.3368 1.63223 -0.293094
  1045 12.3639 1.63305 0.293262
  1046 235.290 -30.6147 40.0238
  1047 -2.71495 1.15873 1.36351
  1048 -2.74697 1.15798 -1.36298
  1049 49.7495 13.0115 1.20251
  1050 49.6898 13.0506 -1.16575
  1051 18.3758 10.2227 10.5242
  1052 18.3205 10.2474 -10.5229
  1053 2.50245 -42.8962 -9.61444
  1054 66.9567 2.94591 -0.229898
  1055 66.9655 2.94903 0.232082
  1056 197.637 6.70871 6.29612
  1057 189.771 1.80340 5.43823
  1058 189.738 1.81684 -5.44404
  1059 -1.32182 -11.5601 -20.3263
  1060 285.818 -3.61152 -6.32524
  1061 -0.348204 -1.28212 20.3375
  1062 -0.138950 -1.10714 -20.2539
  1063 261.558 -0.401252 -1.95389
  1064 261.607 -0.403395 1.94933
  1065 278.387 -0.867169 -3.41854
  1066 278.292 -0.904885 3.31564
  1067 -0.213089 -54.1594 5.16767
  1068 161.962 4.56055 -7.67836
  1069 161.995 4.53578 7.67671
  1070 197.840 2.13583 6.38079
  1071 197.804 2.15286 -6.38977
  1072 3.94192 4.41805 18.4856
  1073 3.92131 4.42248 -18.4972
  1074 430.891 29.3534 3.88666
  1075 -5.73157 -2.58764 20.7057
  1076 -5.80901 -2.53614 -20.7526
  1077 60.1378 12.2452 0.172255
  1078 60.1127 12.2577 -0.141765
  1079 -35.7427 0.773355 -1.98974
  1080 -35.7000 0.773561 1.99004
  1081 99.5252 5.32751 -33.2284
  1082 99.4097 5.61444 33.6665
  1083 27.9863 11.5298 8.35408
  1084 27.9253 11.5609 -8.34599
  1085 67.2793 7.25752 -24.0488
  1086 66.9389 7.60326 24.2876
  1087 -1.85424 -18.1766 -14.1416
  1088 239.153 2.92668 31.9870
  1089 168.876 -2.25069 106.062
  1090 26.3271 11.7541 8.63786
  1091 26.2535 11.7971 -8.63600
  1092 101.357 5.87773 -2.02189
  1093 101.363 5.86844 2.02761
  1094 372.951 -1.21336 12.1660
  1095 23.1268 5.50510 5.90375
  1096 22.8328 5.58540 -5.98350
  1097 -11.1111 -2.47122 12.4182
  1098 -11.1181 -2.48190 -12.4291
  1099 -0.365600 -8.15153 3.31132
  1100 -0.379690 -8.14614 -3.32438
  1101 244.776 0.00346213 8.59731
  1102 244.716 0.100989 -8.67553
  1103 0.240920 -17.7923 19.0770
  1104 -17.0168 1.00171 -16.7237
  1105 -16.9854 1.00241 16.7027
  1106 0.0898025 -65.8021 -6.65729
  1107 -4.04332 -5.64956 20.6693
  1108 -4.03421 -5.53716 -20.6898
  1109 234.535 0.475254 -3.62134
  1110 234.577 0.469850 3.61575
  1111 241.143 -1.58555 10.2454
  1112 241.000 -1.42954 -10.3275
  1113 40.9684 8.73720 -7.21426
  1114 40.6580 8.92751 7.30629
  1115 -0.590440 -33.8932 -11.8302
  1116 318.032 -32.2315 -61.1959
  1117 412.866 50.2931 -0.912713
  1118 4.08385 -52.7586 -1.70045
  1119 14.0531 8.15218 -13.8198
  1120 14.1344 8.10342 13.7648
  1121 38.2189 12.6672 4.38604
  1122 38.1343 12.7227 -4.36614
  1123 82.0061 5.35140 0.492939
  1124 82.0084 5.35736 -0.487762
  1125 -5.40782 -7.70296 16.1030
  1126 -5.39917 -7.77344 -16.1256
  1127 -15.8537 4.73629 13.5965
  1128 -15.9005 4.74626 -13.6082
  1129 -6.02375 5.93279 15.7812
  1130 -6.07835 5.94798 -15.7972
  1131 229.445 -11.6683 -17.2121
  1132 230.957 -11.7880 17.0394
  1133 0.180683 -39.2168 -13.9940
  1134 121.248 -0.777719 -42.0440
  1135 121.469 -0.388444 42.7935
  1136 38.0362 11.7721 -4.72820
  1137 38.0783 11.7503 4.74584
  1138 123.530 49.4689 118.862
  1139 29.4990 9.53831 6.28685
  1140 29.4624 9.54986 -6.27671
  1141 314.263 -35.8944 -13.2961
  1142 117.597 3.72699 1.70568
  1143 117.587 3.73346 -1.70436
  1144 -5.37688 -4.80352 9.79722
  1145 -5.37953 -4.81410 -9.79275
  1146 -6.43700 -5.78853 12.7066
  1147 -6.43564 -5.81026 -12.7063
  1148 204.947 -21.8604 -59.7140
  1149 209.282 -23.9878 60.1755
  1150 35.5343 1.75580 0.300968
  1151 35.5540 1.75722 -0.300037
  1152 127.911 6.08730 -22.8191
  1153 127.936 6.00126 23.0661
  1154 282.037 -39.1354 45.2153
  1155 252.555 -0.479276 0.541834
  1156 252.499 -0.478927 -0.541746
  1157 -23.1142 3.56825 12.1196
  1158 -23.1593 3.57508 -12.1300
  1159 -39.4321 1.26824 -6.41830
  1160 -39.3862 1.26638 6.41570
  1161 63.0949 -2.46025 70.3129
  1162 190.920 13.1616 -12.7496
  1163 116.989 8.75886 -10.9286
  1164 117.033 8.72483 10.9938
  1165 368.412 -14.7149 65.6225
  1166 118.868 8.33588 -16.4801
  1167 118.924 8.28455 16.5938
  1168 28.6756 4.16438 -2.46759
  1169 28.6986 4.16515 2.47046
  1170 10.1013 -40.7710 5.78390
  1171 10.2251 -39.8494 -8.51390
  1172 161.570 -12.1869 -60.2163
  1173 163.867 -11.4419 60.2087
  1174 62.4869 9.97724 -16.4367
  1175 62.2298 10.1991 16.6310
  1176 286.193 -19.7116 -22.6934
  1177 -10.6886 -0.990155 18.8429
  1178 -10.7213 -0.988903 -18.8694
  1179 -0.305953 -15.9209 -19.5855
  1180 71.7562 0.621575 -43.9348
  1181 71.9364 0.868626 44.7400
  1182 -0.185792 -14.4836 3.70010
  1183 -0.158414 -14.5180 -3.74484
  1184 -69.6201 0.594208 -1.86646
  1185 -69.5663 0.593907 1.86567
  1186 229.035 0.0936513 -0.976685
  1187 229.080 0.0927562 0.975937
  1188 140.003 5.63015 -6.39704
  1189 140.034 5.60544 6.40374
  1190 -5.45591 -0.237331 20.7634
  1191 -5.47217 -0.156175 -20.8012
  1192 0.0289400 -58.5702 -5.76814
  1193 -58.9677 0.146600 2.96986
  1194 -59.0146 0.146970 -2.97263
  1195 44.2048 -2.74726 -30.3159
  1196 43.8624 -2.46815 31.3344
  1197 266.154 -16.3529 0.00730569
  1198 74.6846 3.77199 -39.4139
  1199 74.7480 4.00730 39.8451
  1200 -32.5540 0.171886 4.48869
  1201 -32.5696 0.171779 -4.49391
  1202 0.829551 -51.8388 -9.99612
  1203 -10.9060 2.22021 -2.62693
  1204 -10.8706 2.22023 2.62776
  1205 38.9870 10.0417 4.80342
  1206 38.9530 10.0531 -4.78872
  1207 149.351 1.24886 -0.873248
  1208 149.369 1.24691 0.873219
  1209 202.324 1.28575 4.14172
  1210 202.290 1.29404 -4.14655
  1211 10.6310 -2.10791 11.9667
  1212 10.4717 -2.29129 -12.1584
  1213 1.77313 -29.9813 15.1142
  1214 362.035 48.2903 16.3778
  1215 -11.1820 -0.889268 7.05347
  1216 -11.1822 -0.892852 -7.05661
  1217 1.39159 -28.0679 -15.7497
  1218 -1.08340 -17.0177 10.3392
  1219 -1.02667 -16.8723 -10.7153
  1220 287.207 -3.10160 5.62814
  1221 0.261015 -67.1152 5.92074
  1222 1.94696 -20.7202 -17.5556
  1223 32.8131 1.42300 0.407325
  1224 32.7925 1.42175 -0.407208
  1225 -2.92437 -12.3351 19.0179
  1226 -32.6184 1.88543 -5.50376
  1227 -32.5745 1.88380 5.50265
  1228 593.076 10.4941 16.5152
  1229 -16.9204 1.87367 16.9540
  1230 -16.9577 1.87479 -16.9767
  1231 136.853 5.74655 -20.6472
  1232 136.984 5.63524 20.7771
  1233 8.64769 -14.5350 -8.17839
  1234 130.411 7.16580 -8.09288
  1235 130.448 7.13267 8.11377
  1236 5.24922 -41.9857 -3.08096
  1237 -2.93193 -12.3554 -18.9797
  1238 -23.3560 1.04851 3.35832
  1239 -23.3956 1.04847 -3.35791
  1240 -10.3115 0.631055 -19.3278
  1241 -10.2721 0.632106 19.3029
  1242 278.081 22.0574 25.4801
  1243 158.663 2.07518 -22.0414
  1244 158.861 2.01379 22.0973
  1245 -73.1617 0.193740 -0.719284
  1246 -73.1072 0.193718 0.719353
  1247 143.333 3.95041 -4.36313
  1248 143.353 3.93997 4.36341
  1249 -75.3514 -1.24415 -0.193263
  1250 -75.4052 -1.24456 0.193349
  1251 214.030 -15.3400 -25.2216
  1252 -34.2166 0.569182 9.56303
  1253 -34.2482 0.569880 -9.57453
  1254 216.245 -16.1893 24.9915
  1255 145.651 5.80096 -8.97976
  1256 145.690 5.76488 8.98913
  1257 16.7932 -44.7360 -30.1346
  1258 0.305126 -47.3733 -12.0218
  1259 -1.04139 -19.9748 17.8446
  1260 464.401 71.7287 -61.5167
  1261 -0.118639 -44.3042 11.6716
  1262 482.347 45.3458 -27.5421
  1263 -0.235966 -81.9863 -5.61798
  1264 21.7478 2.62005 -0.995513
  1265 21.7722 2.62104 0.997032
  1266 -0.207449 -18.6101 3.87932
  1267 -0.168270 -18.7077 -3.86758
  1268 80.5390 2.48478 -0.0978740
  1269 80.5439 2.48708 0.0984124
  1270 289.576 -22.5833 21.6407
  1271 4.52246 2.42172 -3.04629
  1272 4.55299 2.42193 3.04750
  1273 1.67545 -90.8984 3.00315
  1274 1.06378 -96.6371 -2.95839
  1275 266.338 -33.9662 -26.7294
  1276 -0.749692 -24.3713 11.4547
  1277 276.487 17.2123 -31.7470
  1278 -0.834334 -32.1204 11.2737
  1279 0.546579 -88.5085 -4.43204
  1280 133.514 4.29854 -4.67613
  1281 133.535 4.28145 4.67991
  1282 -0.0945983 -47.7161 5.09373
  1283 -0.128610 -39.7883 -11.5130
  1284 640.677 108.120 94.4582
  1285 253.761 0.240918 0.422589
  1286 253.705 0.240872 -0.422435
  1287 6.28892 0.0897285 16.9081
  1288 6.08380 0.360492 -16.9779
  1289 -4.30074 3.51154 19.6117
  1290 -4.38780 3.52046 -19.6490
  1291 267.888 -5.11083 -18.6680
  1292 249.071 -10.3406 -9.65194
  1293 248.795 -11.7945 9.71698
  1294 35.9637 4.68823 2.55271
  1295 35.9426 4.68725 -2.54836
  1296 -41.5291 1.12181 -7.56771
  1297 -41.4850 1.11956 7.56078
  1298 277.921 -39.5113 -38.2860
  1299 -2.08697 -5.02537 5.11464
  1300 -2.09475 -5.02111 -5.11197
  1301 292.615 -13.1914 32.4944
  1302 -3.12081 -11.6881 13.9071
  1303 -3.08705 -11.7305 -13.8431
  1304 -27.2355 1.86977 3.98879
  1305 -27.2768 1.87057 -3.98870
  1306 43.3346 4.09778 -15.1364
  1307 42.8905 4.35602 15.1388
  1308 68.2710 2.36185 0.452677
  1309 68.2621 2.35953 -0.451944
  1310 -28.9058 2.86211 11.9110
  1311 -28.9487 2.86726 -11.9223
  1312 237.821 0.765976 0.657128
  1313 237.772 0.765852 -0.656948
  1314 129.282 -2.67695 80.5447
  1315 193.553 0.769855 1.45894
  1316 193.521 0.771289 -1.45947
  1317 127.150 2.60588 -31.9585
  1318 127.193 2.45154 32.2618
  1319 1.19824 -52.5574 -7.46621
  1320 48.7078 11.5659 -5.78259
  1321 48.5042 11.7101 5.87916
  1322 -0.470626 -0.440071 -0.627089
  1323 -0.472984 -0.440252 0.628911
  1324 164.812 5.44316 11.7918
  1325 164.750 5.50529 -11.7846
  1326 81.0465 7.12055 1.27915
  1327 81.0486 7.12758 -1.26881
  1328 120.126 7.22628 -5.35259
  1329 120.148 7.20520 5.36564
  1330 158.284 1.37226 -1.45877
  1331 158.304 1.37024 1.45856
  1332 -5.05710 -2.46029 -5.77949
  1333 -5.05663 -2.45773 5.78281
  1334 -49.4228 0.138151 2.37218
  1335 -49.4703 0.138200 -2.37216
  1336 -8.68343 -4.01562 -14.2247
  1337 -8.67805 -3.99640 14.2115
  1338 -28.8586 0.609101 1.01502
  1339 -28.8986 0.608651 -1.01484
  1340 -76.0837 0.715488 0.413734
  1341 -76.1381 0.715609 -0.413660
  1342 299.410 -39.4200 52.6300
  1343 212.961 -1.47343 -25.9124
</Section>

newXOutput 36

<Section columns = "stress_xx | stress_yy | stress_xy">
  1 268.933 -0.321906 0.261829
  2 268.995 -0.322098 -0.261957
  3 -84.5224 0.429602 -1.14262
  4 0.136210 0.0371794 0.240050
  5 492.943 131.789 156.064
  6 557.009 149.914 -149.426
  7 0.135676 0.0366799 -0.239342
  8 -84.4635 0.429549 1.14232
  9 268.100 -0.299721 -0.884265
  10 268.296 -0.751311 -1.44554
  11 270.839 -0.736277 -0.373191
  12 271.076 -0.685997 -1.67423
  13 271.677 -0.663652 -0.492881
  14 277.396 -0.651025 -0.694815
  15 279.325 -0.978867 -2.24265
  16 281.351 -0.428004 -1.51989
  17 282.578 0.232265 -2.93633
  18 294.139 -1.52262 -2.51692
  19 299.021 -1.14876 -3.25997
  20 304.349 -1.79765 -1.19893
  21 306.789 -2.43370 -0.651742
  22 304.141 -2.85024 4.19239
  23 293.100 -3.23341 8.70792
  24 267.671 -3.73077 18.4450
  25 227.029 1.92876 21.4073
  26 193.160 2.26401 20.0639
  27 146.440 5.11982 12.1772
  28 156.133 4.98690 0.961574
  29 129.198 15.0477 -7.82553
  30 182.639 6.80816 -21.6481
  31 212.495 1.55830 -17.7605
  32 262.028 -0.872064 -15.3633
  33 289.417 -3.92290 -10.4031
  34 303.566 -3.32591 -4.18144
  35 306.104 -2.35204 0.661670
  36 303.871 -1.77237 1.10980
  37 298.809 -1.15726 3.15492
  38 294.050 -1.54421 2.45534
  39 282.581 0.219670 2.90561
  40 281.386 -0.432761 1.50791
  41 279.378 -0.981766 2.23801
  42 277.455 -0.652520 0.692526
  43 271.738 -0.664519 0.491844
  44 271.139 -0.686771 1.67450
  45 270.902 -0.736822 0.373174
  46 268.359 -0.751729 1.44616
  47 268.162 -0.299900 0.884646
  48 253.268 0.823011 -0.323821
  49 234.149 0.509844 -0.739959
  50 210.318 -0.376844 -0.772820
  51 185.677 1.11825 -0.642896
  52 164.163 0.987024 -0.515605
  53 141.200 1.73964 -0.613474
  54 118.594 2.90361 -0.389923
  55 95.1842 2.63506 -0.778586
  56 75.8090 1.94555 -1.07686
  57 50.4356 1.34307 -1.13439
  58 24.7060 1.79297 -0.860606
  59 3.25625 1.47145 -0.831485
  60 -23.4657 0.897698 -0.766786
  61 -43.3303 -0.105555 -1.81965
  62 -62.5597 -1.24384 -0.838080
  63 -82.0292 0.195126 0.539871
  64 -86.1953 1.48277 -0.239262
  65 -86.4406 0.667748 0.217374
  66 -83.5425 0.349460 -0.139067
  67 -84.3179 0.962124 -1.07053
  68 -82.9145 1.16206 -0.155094
  69 -78.3636 0.369529 -1.62923
  70 -79.1140 0.714282 -1.74432
  71 -77.0405 0.680510 -1.00665
  72 -71.2682 0.434617 -1.49355
  73 -68.4821 0.760462 -2.42713
  74 -64.2520 0.844468 -2.00989
  75 -56.7861 0.433147 -3.41965
  76 -52.5761 0.133051 -2.85995
  77 -45.0563 0.191547 -3.28531
  78 -38.5622 0.137411 -3.61945
  79 -32.9328 0.0435407 -2.85593
  80 -25.1575 0.163937 -2.87374
  81 -18.4674 -0.0786148 -3.06691
  82 -11.9979 -0.339002 -2.68142
  83 -6.88259 -0.296128 -2.04760
  84 -3.36622 -0.513559 -1.70568
  85 -0.536330 -0.296461 -0.601963
  86 0.0571450 -0.325989 -0.209845
  87 -0.176869 -0.158375 -0.0322824
  88 -0.463609 -0.419918 -0.526232
  89 -0.449556 -2.84293 -1.47923
  90 -0.386440 -6.40540 -2.11906
  91 -0.202096 -10.9826 -3.09695
  92 -0.106894 -16.8906 -2.67253
  93 -0.0958647 -22.3479 -3.36552
  94 -0.416412 -29.0423 -3.80776
  95 -0.169798 -37.2855 -3.85593
  96 0.0796679 -45.5918 -3.69951
  97 0.181242 -54.5064 -3.65545
  98 0.274914 -63.6869 -3.60420
  99 0.0291177 -70.5124 -4.88685
  100 0.484819 -80.1439 -4.38088
  101 0.586707 -91.4514 -3.53577
  102 -0.00352613 -96.6266 -4.70142
  103 0.831588 -105.069 -4.38873
  104 2.01160 -116.339 -2.25738
  105 3.91260 -119.745 -3.57701
  106 2.66685 -110.771 2.22283
  107 3.71341 -85.5579 10.4899
  108 20.7025 -53.1709 32.2005
  109 66.0998 81.7139 114.403
  110 761.294 39.8490 74.4366
  111 652.534 12.2631 27.2236
  112 631.491 4.69519 6.09538
  113 627.109 1.78668 -1.01566
  114 631.254 7.11254 -14.3844
  115 650.565 22.0634 -32.0739
  116 739.879 78.1128 -94.3428
  117 157.087 63.0820 -139.899
  118 34.3206 -52.3762 -39.7436
  119 10.0368 -93.5683 -14.4282
  120 2.74593 -105.087 -2.45803
  121 3.13627 -115.358 2.11539
  122 0.906184 -111.860 1.77420
  123 0.341755 -102.448 3.77503
  124 0.361121 -96.2572 3.00196
  125 0.503017 -86.5113 4.97798
  126 -0.0250635 -80.8339 4.80814
  127 0.199675 -72.9486 3.46936
  128 0.381755 -62.9120 4.37871
  129 0.0708927 -55.7597 3.47294
  130 0.113565 -45.6617 4.38373
  131 -0.455886 -37.7308 3.76296
  132 -0.323138 -29.0683 3.69068
  133 -0.0695718 -22.2273 3.37481
  134 -0.137531 -16.7945 2.67846
  135 -0.197794 -10.9506 3.06724
  136 -0.381012 -6.40087 2.10860
  137 -0.447205 -2.84715 1.47816
  138 -0.463057 -0.424295 0.527234
  139 -0.176854 -0.160287 0.0335500
  140 0.0548438 -0.326316 0.211024
  141 -0.540744 -0.296341 0.603511
  142 -3.37317 -0.513151 1.70735
  143 -6.89213 -0.295274 2.04824
  144 -12.0060 -0.337945 2.68057
  145 -18.4708 -0.0777412 3.06418
  146 -25.1551 0.164107 2.87050
  147 -32.9223 0.0439036 2.85256
  148 -38.5444 0.137799 3.61565
  149 -45.0290 0.191447 3.28140
  150 -52.5405 0.132902 2.85638
  151 -56.7449 0.432818 3.41627
  152 -64.2036 0.843974 2.00739
  153 -68.4300 0.759941 2.42520
  154 -71.2128 0.434287 1.49246
  155 -76.9824 0.680174 1.00606
  156 -79.0549 0.713990 1.74371
  157 -78.3047 0.369402 1.62883
  158 -82.8545 1.16172 0.155224
  159 -84.2578 0.961876 1.07039
  160 -83.4831 0.349412 0.139190
  161 -86.3807 0.667609 -0.217181
  162 -86.1357 1.48241 0.239301
  163 -81.9710 0.195126 -0.539659
  164 -62.5075 -1.24329 0.837906
  165 -43.2839 -0.105113 1.81921
  166 -23.4256 0.898134 0.766692
  167 3.28781 1.47207 0.831355
  168 24.7306 1.79391 0.860466
  169 50.4518 1.34460 1.13419
  170 75.8167 1.94725 1.07662
  171 95.1855 2.63681 0.778411
  172 118.587 2.90530 0.389746
  173 141.186 1.74143 0.613147
  174 164.141 0.988684 0.515234
  175 185.648 1.11929 0.642393
  176 210.280 -0.375831 0.772251
  177 234.102 0.509983 0.739528
  178 253.212 0.822793 0.323632
  179 69.1350 12.5480 -1.96196
  180 69.1044 12.5641 2.00798
  181 -1.70574 1.83420 20.5331
  182 -1.77883 1.82634 -20.5379
  183 159.073 -2.29154 -34.7738
  184 158.992 -2.61011 35.1606
  185 31.1455 6.75958 -0.341023
  186 30.7736 6.90353 0.362764
  187 22.0146 4.37304 -3.55248
  188 22.0423 4.37255 3.55552
  189 151.100 3.41753 -4.93441
  190 151.124 3.40329 4.93531
  191 -3.59883 6.21426 11.4520
  192 -3.64629 6.22591 -11.4569
  193 175.648 4.96159 -13.0417
  194 175.731 4.88699 13.0528
  195 -6.94073 -6.06514 15.9754
  196 -6.93760 -6.09925 -15.9934
  197 1.42178 -14.7619 -19.4154
  198 53.8001 1.71578 -31.2877
  199 1.77809 -15.7669 18.9801
  200 52.9322 2.16909 31.8333
  201 249.397 -34.6315 -50.6656
  202 258.314 -36.0092 48.5165
  203 88.6822 3.49802 -0.542020
  204 88.6798 3.49412 0.543945
  205 -15.7392 1.22810 -2.34534
  206 -15.7010 1.22850 2.34574
  207 -20.4083 3.02430 15.6942
  208 -20.4524 3.03066 -15.7141
  209 89.0994 8.74098 -1.97874
  210 89.1008 8.73334 1.99330
  211 26.6841 11.3638 8.38151
  212 26.5828 11.4335 -8.39578
  213 -26.5831 2.85740 -6.70492
  214 -26.5382 2.85448 6.70301
  215 201.880 0.705018 2.41446
  216 201.846 0.708354 -2.41612
  217 6.24994 -27.8964 8.81678
  218 6.79948 -25.3737 -7.93529
  219 -1.94672 -17.0931 18.0831
  220 -1.98399 -17.7313 -17.5045
  221 82.1925 12.0396 -13.2482
  222 82.1286 12.0938 13.4058
  223 -18.2119 -0.118532 15.6489
  224 -18.2370 -0.120184 -15.6681
  225 215.990 1.62933 -7.25730
  226 216.030 1.60778 7.24339
  227 232.083 -3.06938 -14.2276
  228 232.257 -3.31414 14.1488
  229 369.512 28.8302 -0.390643
  230 338.987 37.2234 22.8292
  231 335.462 -4.28474 -32.6828
  232 39.8918 9.43667 4.60694
  233 39.8617 9.44492 -4.59478
  234 2.16492 7.49369 15.9914
  235 2.10242 7.51615 -16.0049
  236 259.194 -15.7126 -8.99240
  237 257.667 -15.9130 9.81240
  238 142.861 1.77129 -1.75151
  239 142.877 1.76726 1.75136
  240 -32.5943 2.28820 10.5405
  241 -32.6400 2.29287 -10.5498
  242 -4.40407 -4.33743 -7.13798
  243 -4.40058 -4.33527 7.14302
  244 -36.6210 0.991407 3.46401
  245 -36.6667 0.991692 -3.46403
  246 116.939 9.24852 -8.35548
  247 116.966 9.22055 8.39058
  248 149.086 4.83808 -19.6450
  249 149.215 4.74751 19.7336
  250 34.9164 2.68833 -0.442005
  251 34.9377 2.68958 0.443207
  252 85.5553 -1.41123 -69.3667
  253 101.516 1.23533 75.9018
  254 11.1447 5.00858 15.4029
  255 11.0947 5.12631 -15.4574
  256 353.815 -29.3066 -4.59688
  257 29.6619 11.6841 7.25913
  258 29.6098 11.7092 -7.24808
  259 83.7723 8.72879 -25.4685
  260 83.6241 8.95874 25.7768
  261 394.433 54.1998 -6.47606
  262 234.246 0.465696 9.82535
  263 234.184 0.542770 -9.87144
  264 -2.13975 -13.1313 -11.2387
  265 -2.08134 -13.1853 11.2842
  266 -0.488438 -31.3549 -15.5893
  267 0.976765 -36.9308 -14.6032
  268 0.503335 -36.8140 15.2000
  269 -6.01997 -5.24994 20.6736
  270 -6.04327 -5.23893 -20.7488
  271 12.1787 -30.4836 -4.09773
  272 13.0872 -28.2376 6.13573
  273 -13.5496 -1.15770 9.87642
  274 -13.5554 -1.16262 -9.88441
  275 165.865 5.10233 -8.03362
  276 165.907 5.07000 8.03383
  277 291.344 -30.6922 -0.867563
  278 63.2144 5.90198 -0.627007
  279 63.2258 5.90476 0.632439
  280 -0.793610 -29.4021 14.8885
  281 5.10933 6.15638 7.56012
  282 5.07003 6.16332 -7.55881
  283 465.148 32.9077 -11.4561
  284 227.583 0.434834 2.98612
  285 227.541 0.439603 -2.99028
  286 151.006 -7.83485 -52.5503
  287 152.390 -7.70648 53.4054
  288 290.946 -29.0668 -3.94461
  289 -27.8750 0.841461 12.4008
  290 -27.9053 0.842066 -12.4161
  291 285.439 -25.5594 86.5308
  292 -12.6082 1.95835 18.8641
  293 -12.6501 1.95748 -18.8911
  294 47.1899 13.0186 -2.53970
  295 47.0121 13.1447 2.60712
  296 -51.9017 0.494952 0.643574
  297 -51.9508 0.494820 -0.643440
  298 240.170 1.72628 -118.448
  299 -48.1101 0.999507 -5.73788
  300 -48.0605 0.997792 5.73431
  301 -1.56680 -6.27001 21.2372
  302 -0.874455 -6.13649 -21.0519
  303 104.507 11.0176 -12.1773
  304 104.524 11.0040 12.2676
  305 21.7431 3.04130 2.66120
  306 21.7168 3.04061 -2.65960
  307 109.067 4.72890 -2.32392
  308 109.073 4.72121 2.32725
  309 9.99034 -8.57316 11.6713
  310 9.10167 -10.1457 -11.7789
  311 105.861 2.38164 -0.515692
  312 105.863 2.37896 0.516070
  313 -39.2637 1.01976 9.13504
  314 -39.3025 1.02144 -9.14566
  315 26.0444 -3.53654 -5.32335
  316 25.2494 -3.56240 4.63431
  317 237.671 0.0234931 0.830475
  318 237.622 0.0240668 -0.830663
  319 520.923 30.0014 19.6934
  320 52.3371 7.49826 2.07084
  321 52.3192 7.49818 -2.06155
  322 -12.4863 2.76902 4.79681
  323 -12.5258 2.77062 -4.79633
  324 72.5198 10.3236 -1.08849
  325 72.5076 10.3228 1.11455
  326 8.03065 7.47926 16.6485
  327 7.97873 7.49882 -16.6781
  328 1.07699 -53.1368 10.7987
  329 -53.5965 0.187768 -1.43089
  330 -53.5464 0.187949 1.43102
  331 180.641 0.921095 -1.56947
  332 180.668 0.918978 1.56891
  333 190.268 1.69692 -4.16396
  334 190.300 1.68742 4.16013
  335 -49.7467 0.908140 -4.21735
  336 -49.6964 0.907354 4.21624
  337 -2.28472 1.15414 0.601200
  338 -2.31813 1.15349 -0.600841
  339 -1.10903 -21.6273 11.2366
  340 -0.884035 -22.4930 -11.2215
  341 213.479 -18.0441 -35.3131
  342 221.896 -21.5608 34.6322
  343 126.379 6.67402 -5.12415
  344 126.398 6.65614 5.13224
  345 54.9641 13.1870 -0.939130
  346 54.8798 13.2421 0.992445
  347 -20.5325 3.87506 9.46165
  348 -20.5781 3.88129 -9.46665
  349 400.695 4.59887 7.41577
  350 20.5763 -33.2890 -22.1619
  351 22.0103 -31.2933 23.2960
  352 -9.08299 6.11517 14.9998
  353 -9.13526 6.12872 -15.0134
  354 -11.1910 -2.32380 18.2656
  355 -11.2161 -2.32764 -18.2940
  356 453.513 74.1937 -18.5834
  357 288.927 -4.90074 38.9670
  358 271.324 -6.21061 -6.23762
  359 271.035 -6.06754 5.76850
  360 189.118 -2.00665 -22.4360
  361 188.911 -2.21115 22.4374
  362 0.349873 -63.9933 -8.78689
  363 248.814 0.815367 -5.53745
  364 248.848 0.793269 5.51253
  365 3.16258 -60.5008 7.11649
  366 284.189 22.1256 -21.7116
  367 69.0591 2.81092 0.966518
  368 69.0492 2.80922 -0.966306
  369 190.388 1.73905 -16.6705
  370 190.518 1.62776 16.6825
  371 205.759 2.05588 -10.1581
  372 205.812 2.00658 10.1390
  373 -5.06088 2.48912 3.29693
  374 -5.09665 2.48937 -3.29590
  375 116.871 6.49002 -26.3934
  376 116.922 6.55620 26.6565
  377 245.023 0.0663755 1.36430
  378 244.972 0.0675038 -1.36530
  379 137.277 7.94591 -13.1914
  380 137.338 7.89030 13.2426
  381 159.269 2.92268 3.34023
  382 159.246 2.92965 -3.34117
  383 -7.63376 -1.39023 6.06862
  384 -7.63251 -1.39361 -6.06817
  385 -1.80642 -1.28604 -1.75056
  386 -1.80734 -1.28681 1.75331
  387 326.045 -42.2012 21.4659
  388 -4.32066 -10.3604 16.6546
  389 -4.29253 -10.4452 -16.6532
  390 51.7858 3.80646 -1.37296
  391 51.8014 3.80864 1.37563
  392 -1.62638 -8.09797 6.09077
  393 -1.64441 -8.08396 -6.09109
  394 19.3947 9.33175 8.33480
  395 19.3512 9.34658 -8.32976
  396 266.677 -0.919508 7.28014
  397 266.630 -0.816055 -7.42499
  398 -0.756132 -16.1241 20.1886
  399 -21.9490 -0.415546 9.37705
  400 -21.9619 -0.417238 -9.38749
  401 -0.840235 -17.0098 -19.9593
  402 250.621 0.259982 3.52245
  403 250.577 0.266608 -3.53116
  404 -2.82373 5.39306 18.7589
  405 -2.89843 5.41224 -18.7850
  406 184.337 3.14602 -6.68287
  407 184.372 3.12619 6.67676
  408 283.613 -12.2051 -6.94315
  409 284.672 -9.80397 5.30186
  410 -0.597952 -29.4993 -12.3356
  411 24.7585 9.06894 -6.33151
  412 24.9630 8.96003 6.31422
  413 278.827 18.4233 13.6546
  414 159.492 -9.64499 -73.0222
  415 163.868 -12.6592 76.5401
  416 8.74610 8.80566 12.4326
  417 8.69203 8.82563 -12.4363
  418 117.483 3.68301 -1.58902
  419 117.491 3.67809 1.58995
  420 113.990 14.9871 116.483
  421 46.5177 11.3356 -3.59482
  422 46.5549 11.3194 3.61569
  423 2.80605 -28.6409 13.9123
  424 -0.360471 -48.0221 -10.7666
  425 18.0601 10.7132 11.7180
  426 17.9948 10.7445 -11.7232
  427 22.1770 6.45268 -5.17700
  428 22.2080 6.44890 5.18165
  429 -8.27110 -0.546579 -20.6877
  430 -8.22960 -0.558084 20.6575
  431 55.9085 10.8867 -9.78406
  432 55.6749 11.0600 9.91644
  433 284.128 -9.43098 -29.3181
  434 7.67083 -3.30515 16.4067
  435 7.40924 -3.22027 -16.4960
  436 206.762 -8.79953 -24.8015
  437 207.655 -9.45022 24.7483
  438 -52.3518 0.436572 -5.53939
  439 -52.3043 0.435288 5.53429
  440 0.00518730 -47.0898 9.66726
  441 -0.344950 -29.8745 10.9760
  442 -21.3695 1.32917 15.8829
  443 -21.4025 1.32935 -15.9030
  444 148.179 1.69281 -0.608486
  445 148.196 1.69044 0.608143
  446 -4.49640 -7.09701 11.2760
  447 -4.50298 -7.11218 -11.2627
  448 91.4489 4.18028 -38.5456
  449 91.2849 4.61462 39.0265
  450 0.763984 -57.3254 -10.7833
  451 520.160 19.0878 0.517813
  452 1.40532 -68.2428 -6.52041
  453 -62.3104 0.0483002 -2.07352
  454 -62.2570 0.0483622 2.07338
  455 -24.0789 3.32730 13.1174
  456 -24.1253 3.33438 -13.1310
  457 -27.6195 0.385955 9.43591
  458 -27.6394 0.386029 -9.44682
  459 100.266 10.7062 -8.06112
  460 100.278 10.6970 8.11673
  461 152.571 6.48556 -10.2166
  462 152.623 6.43850 10.2331
  463 -2.74483 -9.82567 20.8427
  464 -2.74794 -9.76012 -20.9281
  465 263.882 3.98943 -37.0359
  466 17.6900 -5.42364 -3.95523
  467 17.0768 -5.57145 4.26924
  468 4.11136 -62.0760 -0.0405494
  469 2.60557 -71.8198 -1.81779
  470 -8.16417 -3.67304 11.6136
  471 -8.16651 -3.68569 -11.6172
  472 55.6403 -8.21323 -59.6814
  473 410.100 -3.22204 -37.7264
  474 91.2694 6.34373 2.04637
  475 91.2683 6.35147 -2.03828
  476 132.944 1.17635 -37.2808
  477 133.276 1.13275 37.8764
  478 38.4214 13.7080 5.03565
  479 38.3539 13.7511 -5.01695
  480 119.981 9.15163 -19.2610
  481 120.048 9.09785 19.4173
  482 4.03760 2.13134 19.1847
  483 4.30351 2.26536 -19.1604
  484 -55.1158 0.841481 -4.14380
  485 -55.0640 0.840722 4.14195
  486 266.570 -31.5708 -19.5714
  487 212.428 0.380971 -1.15306
  488 212.467 0.380079 1.15289
  489 10.0979 1.72260 -1.46604
  490 10.1275 1.72345 1.46688
  491 -14.3425 4.98252 12.3432
  492 -14.3908 4.99235 -12.3521
  493 -31.8091 1.97888 -4.60585
  494 -31.7640 1.97754 4.60538
  495 91.2412 9.34332 -3.29707
  496 91.2443 9.33348 3.31896
  497 -11.5701 4.20496 17.2060
  498 -11.6224 4.21594 -17.2286
  499 244.204 -6.70004 -13.1736
  500 244.606 -7.05698 12.9534
  501 159.144 1.85349 -24.7426
  502 158.918 1.72720 24.9638
  503 58.4635 3.11973 -0.805746
  504 58.4768 3.12178 0.806894
  505 0.569039 -29.5129 -17.1545
  506 285.788 -10.6281 24.1099
  507 3.74490 -19.7507 -15.7692
  508 80.2458 13.0789 8.06960
  509 80.2857 13.0475 -7.97521
  510 263.643 -29.5430 19.2927
  511 19.6315 -29.9938 30.9013
  512 314.674 -42.0607 -39.1728
  513 213.932 1.16821 12.2143
  514 213.847 1.26113 -12.2399
  515 0.520085 -25.2943 17.8497
  516 -4.18150 -1.25353 -3.23341
  517 -4.18367 -1.25308 3.23601
  518 24.9721 1.66194 -0.467252
  519 24.9966 1.66303 0.467633
  520 -0.729963 -16.6498 7.20006
  521 -0.662315 -16.5710 -7.23605
  522 176.210 2.14881 2.68292
  523 176.184 2.15260 -2.68406
  524 499.444 86.2150 34.6852
  525 20.1029 -13.7780 -5.32296
  526 15.6118 -18.1772 2.06753
  527 -5.97462 3.92430 -6.32064
  528 -5.93512 3.92064 6.32084
  529 -43.2060 0.685734 5.68484
  530 -43.2384 0.686497 -5.69147
  531 0.423260 -53.6841 10.7030
  532 -61.4474 0.580452 0.616708
  533 -61.4997 0.580438 -0.616522
  534 53.6149 -5.46054 -43.6176
  535 52.4012 -4.49180 45.3756
  536 49.0133 8.20500 -14.3192
  537 48.6424 8.43782 14.4379
  538 -11.6523 -2.48406 15.9457
  539 -11.6679 -2.49355 -15.9666
  540 48.0017 4.73714 1.47991
  541 47.9844 4.73547 -1.47596
  542 -26.4554 1.30832 2.05523
  543 -26.4974 1.30830 -2.05472
  544 56.8698 8.75076 1.74080
  545 56.8513 8.75258 -1.72593
  546 -1.16447 -3.76275 2.76133
  547 -1.16838 -3.75915 -2.76071
  548 20.4156 8.79710 10.6810
  549 20.2803 8.92636 -10.7197
  550 16.4989 2.23538 9.53602
  551 16.2606 2.21229 -9.66634
  552 217.037 1.78985 5.16024
  553 216.998 1.79968 -5.16707
  554 191.558 2.89375 8.17513
  555 191.516 2.92438 -8.18480
  556 -0.197826 -45.1477 -6.68957
  557 133.455 7.14137 -7.71390
  558 133.486 7.11395 7.72903
  559 133.950 3.53246 -2.79775
  560 133.965 3.52413 2.79892
  561 -19.4777 0.814379 -0.0523874
  562 -19.4389 0.814844 0.0526581
  563 225.284 12.5421 -7.12773
  564 301.389 -39.1222 -13.4905
  565 244.537 11.0728 28.1924
  566 1.93739 -39.1573 -12.7436
  567 -14.0669 4.32954 -8.23555
  568 -14.0234 4.32424 8.23347
  569 2.00383 -22.8293 16.9852
  570 -13.5482 0.308665 18.3548
  571 -13.5812 0.307805 -18.3784
  572 383.801 36.9631 -1.61662
  573 86.6571 4.44817 -0.806711
  574 86.6546 4.44346 0.809927
  575 587.882 49.4427 -50.1727
  576 -3.09437 -2.43389 21.5247
  577 -2.90425 -2.28168 -21.5450
  578 318.568 -29.3243 14.3719
  579 257.071 0.398356 -6.17815
  580 257.099 0.362603 6.13519
  581 116.641 -0.908473 -54.3589
  582 118.074 -1.24992 55.2621
  583 -6.67547 -6.42600 18.4788
  584 -6.68089 -6.45776 -18.5239
  585 60.8638 4.61495 28.1967
  586 61.3761 4.13965 -27.9343
  587 -50.6923 0.591632 -5.37884
  588 -50.6482 0.590696 5.37327
  589 375.696 30.1865 24.5499
  590 70.5550 6.92462 -0.110145
  591 70.5635 6.92829 0.118309
  592 83.4034 10.3178 -19.1551
  593 83.3010 10.4446 19.3872
  594 231.894 -0.220861 -11.9992
  595 232.001 -0.345213 11.9529
  596 -1.07585 -23.7375 -16.6575
  597 253.270 -0.190996 1.84067
  598 253.217 -0.189429 -1.84226
  599 -37.7461 0.834401 -0.836181
  600 -37.7012 0.834584 0.836569
  601 -65.8725 -0.408217 0.0366132
  602 -65.9258 -0.408485 -0.0365108
  603 5.24700 -36.3538 -6.42593
  604 -2.39686 -15.3560 14.2068
  605 -2.52796 -14.5352 -14.3023
  606 -28.9673 1.76388 13.2616
  607 -29.0045 1.76678 -13.2775
  608 175.952 4.68733 10.2728
  609 175.900 4.73470 -10.2747
  610 129.216 2.06793 0.670883
  611 129.206 2.07007 -0.670838
  612 28.7386 -9.35094 17.4072
  613 29.6873 -8.73095 -17.2292
  614 -0.912891 -11.6006 6.07375
  615 -0.940275 -11.5627 -6.09367
  616 303.500 16.7345 126.061
  617 -14.9581 -0.469603 5.63873
  618 -14.9578 -0.471653 -5.64279
  619 5.19251 -22.1212 -12.8702
  620 126.306 5.44019 -3.88074
  621 126.321 5.42807 3.88477
  622 61.2889 13.1190 -5.65414
  623 61.1772 13.1977 5.74826
  624 0.614913 -81.4429 4.53726
  625 45.7644 12.9758 3.25022
  626 45.7163 13.0035 -3.22519
  627 -5.79638 5.39171 9.88539
  628 -5.84080 5.39992 -9.88826
  629 -0.362016 -39.8724 9.14109
  630 -65.4268 0.101403 -2.05706
  631 -65.3721 0.101315 2.05674
  632 82.6300 2.58212 0.103686
  633 82.6349 2.58509 -0.102568
  634 211.520 0.895056 3.39320
  635 211.482 0.900003 -3.39613
  636 185.771 -14.2872 96.2448
  637 149.296 4.13147 -6.09293
  638 149.324 4.11153 6.09575
  639 2.16172 -3.45740 20.0503
  640 2.69267 -2.11241 -20.0341
  641 239.294 -25.3942 -77.7246
  642 570.603 19.8458 -20.8866
  643 -59.9110 0.0653252 -3.74288
  644 -59.8599 0.0647357 3.74007
  645 13.1989 3.36872 -3.12043
  646 13.2287 3.36855 3.12228
  647 -1.14101 -25.0925 14.6796
  648 323.511 18.2913 -35.2129
  649 250.507 -0.319275 0.308548
  650 250.452 -0.318981 -0.308540
  651 -16.1420 -0.907165 -13.1524
  652 -16.1275 -0.903439 13.1377
  653 -0.0432091 -56.7757 -8.83005
  654 254.864 -0.357594 0.705255
  655 254.808 -0.357184 -0.705347
  656 22.3894 8.17220 7.09563
  657 22.3526 8.18125 -7.08962
  658 192.604 -17.1811 -50.7739
  659 196.188 -17.1251 51.3657
  660 283.546 -1.68501 4.15824
  661 283.642 -1.66360 -4.35453
  662 1.23203 -71.8608 7.03798
  663 -16.5903 0.656404 -1.20656
  664 -16.5521 0.656950 1.20694
  665 92.2219 4.24548 -90.9464
  666 86.0343 2.34567 0.612750
  667 86.0386 2.34764 -0.612324
  668 41.7148 3.48025 0.758005
  669 41.6957 3.47868 -0.756029
  670 49.8609 5.88359 -1.25634
  671 49.8782 5.88498 1.26271
  672 164.514 4.96256 -15.8781
  673 164.617 4.87620 15.9164
  674 42.9506 12.6591 1.44182
  675 42.8270 12.7477 -1.41027
  676 -30.6501 2.29582 -7.72599
  677 -30.6037 2.29213 7.72228
  678 -35.4118 2.43350 -8.72813
  679 -35.3650 2.42951 8.72177
  680 291.020 -4.34411 -1.20004
  681 0.166581 -12.1134 -20.3616
  682 291.561 -4.55767 0.762451
  683 368.150 29.2256 0.419729
  684 -36.6146 0.167680 6.45513
  685 -36.6396 0.167737 -6.46295
  686 37.3246 10.6213 -1.14121
  687 37.0600 10.7606 1.18185
  688 -70.3433 0.0914227 -0.772400
  689 -70.2877 0.0914850 0.772522
  690 0.374917 -10.9420 20.4209
  691 -23.0214 0.289328 13.9018
  692 -23.0483 0.288765 -13.9188
  693 319.053 -27.5531 -15.6280
  694 49.2726 1.59210 -0.260014
  695 49.2561 1.59057 0.260547
  696 10.5725 4.87122 5.09585
  697 10.5393 4.87361 -5.09325
  698 167.596 -7.92351 -42.3242
  699 168.913 -8.23469 43.1819
  700 594.473 41.7990 45.8746
  701 11.0833 -56.9085 -18.2226
  702 -4.34364 -9.09311 19.7976
  703 -4.35295 -9.12728 -19.8387
  704 34.5495 8.13836 -4.06955
  705 34.5774 8.13394 4.07792
  706 261.959 -0.287635 -1.88266
  707 262.012 -0.289393 1.87975
  708 123.397 2.52155 1.09219
  709 123.388 2.52546 -1.09193
  710 9.69419 9.04508 14.9282
  711 9.63171 9.07327 -14.9422
  712 5.23889 2.55104 2.20375
  713 5.20738 2.55069 -2.20273
  714 -7.64410 1.62957 20.3739
  715 -7.69466 1.63164 -20.4097
  716 214.729 0.106473 1.41533
  717 214.690 0.108117 -1.41616
  718 185.396 1.98093 3.84849
  719 185.366 1.98718 -3.85067
  720 24.3717 -17.8053 21.1304
  721 25.1095 -18.9586 -20.3816
  722 -14.7701 3.08604 17.7728
  723 -14.8161 3.09097 -17.7978
  724 7.46504 -18.4308 10.3454
  725 0.218023 5.36899 18.9561
  726 0.139261 5.38627 -18.9714
  727 -41.9299 1.24451 -5.16894
  728 -41.8816 1.24304 5.16708
  729 31.5034 10.5669 6.72093
  730 31.4593 10.5840 -6.70878
  731 286.856 -8.81624 -16.4773
  732 271.815 -23.9155 -5.87925
  733 -4.43522 -9.06115 13.9615
  734 -4.42881 -9.10250 -13.9425
  735 104.474 -1.75289 -64.1913
  736 101.701 0.547991 64.8686
  737 63.2873 12.1067 -9.16056
  738 63.1353 12.2272 9.29453
  739 5.35997 -10.8893 16.5961
  740 -0.401065 -29.4532 -7.92630
  741 133.369 7.65680 -14.6779
  742 133.443 7.60252 14.7571
  743 0.357536 -58.0484 7.37900
  744 79.0733 11.3345 -3.37958
  745 79.0619 11.3347 3.41862
  746 274.942 -0.138844 -4.68841
  747 274.933 -0.174503 4.61638
  748 5.29424 -80.0844 1.10244
  749 122.717 9.54203 10.9719
  750 122.678 9.57693 -10.9224
  751 32.7054 11.5398 -4.41816
  752 32.8712 11.4190 4.41599
  753 -49.8102 0.331111 -4.52440
  754 -49.7718 0.330649 4.51904
  755 136.606 2.77629 -2.48551
  756 136.620 2.77073 2.48584
  757 83.6119 12.3762 -6.70009
  758 83.5927 12.3869 6.76994
  759 -0.0318564 7.41242 14.7707
  760 -0.0880463 7.43130 -14.7814
  761 272.658 -20.4302 2.58309
  762 -43.4303 1.01182 3.95229
  763 -43.4784 1.01233 -3.95279
  764 593.527 112.008 -79.3808
  765 -17.1018 1.80658 4.21682
  766 -17.1418 1.80707 -4.21642
  767 232.389 0.925115 8.54391
  768 232.344 0.970313 -8.57759
  769 431.593 27.6875 0.538280
  770 263.840 -0.636335 -3.57863
  771 263.882 -0.642955 3.56756
  772 167.658 2.83073 4.80078
  773 167.632 2.84126 -4.80257
  774 251.117 -29.6195 70.7952
  775 108.227 8.38525 -3.85543
  776 108.240 8.37075 3.87002
  777 2.42353 -44.5666 9.47077
  778 288.343 -37.0256 22.3428
  779 174.860 0.841076 0.832830
  780 174.834 0.842726 -0.833003
  781 230.112 0.302005 0.445342
  782 230.066 0.302365 -0.445402
  783 -1.05551 -23.3796 -13.7203
  784 1.35419 -40.1941 13.6162
  785 102.353 11.6071 15.2468
  786 102.342 11.6080 -15.1099
  787 589.323 6.20088 4.97812
  788 177.215 1.82143 -19.9229
  789 177.353 1.71778 19.9705
  790 -37.3696 1.24181 9.96579
  791 -37.4132 1.24480 -9.97580
  792 7.33669 -33.0464 3.51754
  793 4.77817 -74.9094 -4.47942
  794 405.582 52.2412 -4.62370
  795 -0.361173 -29.3616 7.15238
  796 7.80525 5.64914 17.1846
  797 7.78168 5.64909 -17.2535
  798 53.2958 10.9345 2.21163
  799 53.2696 10.9440 -2.19156
  800 270.780 -12.3171 -3.74729
  801 271.226 -12.1948 2.75949
  802 320.434 41.4399 -119.247
  803 -44.7470 0.568588 -1.86642
  804 -44.6992 0.568615 1.86665
  805 -20.5389 -0.0908400 5.32089
  806 -20.5427 -0.0916783 -5.32614
  807 19.1718 0.908940 5.91500
  808 18.7645 0.885282 -5.94666
  809 204.811 -0.862993 17.9622
  810 204.652 -0.677111 -17.9331
  811 103.745 3.16899 -0.490469
  812 103.748 3.16522 0.491372
  813 331.120 -6.33941 32.4663
  814 33.9266 5.84859 -3.61318
  815 33.9514 5.84772 3.61878
  816 31.8821 3.70092 -4.30279
  817 31.5930 3.86195 4.38953
  818 -0.187767 -23.3250 -18.5859
  819 470.933 68.5351 64.0682
  820 -68.5630 0.0922883 -2.04308
  821 -68.5072 0.0921609 2.04242
  822 -0.102504 -70.8833 7.01344
  823 4.73000 -10.7497 -16.7652
  824 -10.1781 -0.630068 3.94510
  825 -10.1732 -0.631593 -3.94608
  826 374.726 20.0134 -23.6048
  827 96.4144 9.96625 -4.83604
  828 96.4218 9.95531 4.86975
  829 257.040 -3.53186 -9.02593
  830 257.255 -3.57928 8.86906
  831 -65.4342 0.517103 2.69606
  832 -65.4884 0.517578 -2.69766
  833 -0.456423 -0.473373 -0.384070
  834 -0.457338 -0.474233 0.385585
  835 0.227526 -72.5198 -6.88027
  836 0.338050 -76.6164 -6.34707
  837 -72.5827 0.721373 0.422213
  838 -72.6382 0.721470 -0.422156
  839 38.3930 -14.3448 -41.6725
  840 158.826 2.31863 -1.35848
  841 158.847 2.31580 1.35790
  842 -6.28458 1.48086 0.538888
  843 -6.31925 1.48036 -0.538824
  844 237.008 0.869054 -5.68586
  845 237.048 0.853422 5.67019
  846 -27.0232 0.182336 5.06637
  847 -27.0331 0.182374 -5.07190
  848 142.355 -0.489269 -96.9972
  849 246.678 -21.1945 19.2925
  850 193.872 1.18603 -1.74149
  851 193.904 1.18383 1.74045
  852 244.361 -23.0804 -21.6267
  853 75.4569 8.83206 -0.986592
  854 75.4493 8.82750 1.00484
  855 104.727 7.30673 -2.87207
  856 104.735 7.29575 2.88142
  857 286.945 -6.18090 12.5679
  858 16.9986 10.2351 12.4928
  859 16.9267 10.2749 -12.5126
  860 17.0196 1.49487 1.06123
  861 16.9924 1.49382 -1.06067
  862 134.766 2.13084 1.12825
  863 134.753 2.13379 -1.12828
  864 355.603 -34.7523 38.2544
  865 222.134 1.54787 -7.40982
  866 222.178 1.51861 7.38873
  867 2.25048 3.53596 4.04251
  868 2.21624 3.53696 -4.04095
  869 222.973 -0.0154839 2.07619
  870 222.931 -0.0134759 -2.07756
  871 -42.4923 0.350768 -1.13602
  872 -42.4462 0.351076 1.13586
  873 -0.201126 -22.4521 6.36744
  874 -0.262808 -22.8036 -6.41741
  875 265.454 -4.00641 29.7180
  876 -16.6789 4.10718 15.0932
  877 -16.7274 4.11688 -15.1098
  878 -0.0935775 -37.0418 -7.05345
  879 104.772 4.30290 -1.44002
  880 104.776 4.29781 1.44201
  881 193.609 -9.84548 -32.2111
  882 195.146 -10.8972 32.5331
  883 -8.51481 -3.05633 -19.8971
  884 -8.48000 -3.05814 19.8597
  885 9.96608 9.19557 13.7325
  886 9.90651 9.22019 -13.7395
  887 0.939406 -85.3379 5.00100
  888 2.21531 7.08460 17.3961
  889 2.14869 7.10507 -17.4121
  890 178.663 -3.12796 -28.6032
  891 178.286 -3.28760 28.8336
  892 309.122 16.3020 36.4019
  893 70.2391 8.25229 0.118280
  894 70.2489 8.25605 -0.105764
  895 228.212 1.65194 -5.56282
  896 228.251 1.63939 5.55232
  897 -9.03437 -3.98179 17.4236
  898 -9.04965 -3.99601 -17.4527
  899 0.776138 -88.2894 -3.50171
  900 -13.8869 -0.986238 17.1173
  901 -13.9111 -0.988105 -17.1397
  902 7.94598 8.38496 -10.8486
  903 7.99417 8.36907 10.8473
  904 -0.704169 -5.61409 3.11520
  905 -0.711996 -5.60816 -3.11972
  906 18.6578 9.44326 -9.83605
  907 18.7084 9.42361 9.83953
  908 3.91198 -7.23245 18.6042
  909 3.38165 -6.73497 -19.5022
  910 220.621 -6.10775 18.2476
  911 220.084 -5.79147 -18.3712
  912 -73.9367 0.240076 -0.619741
  913 -73.8804 0.240114 0.619822
  914 -6.23908 -0.569179 2.95865
  915 -6.23317 -0.570092 -2.95757
  916 0.304580 -52.7178 -6.45157
  917 -6.76385 -2.91719 -8.44787
  918 -6.76225 -2.91039 8.44932
  919 -28.8712 2.40770 12.8060
  920 -28.9141 2.41270 -12.8204
  921 67.8514 13.3473 -3.32129
  922 67.8068 13.3811 3.37996
  923 290.538 23.2728 -6.11225
  924 -4.02709 6.63573 13.4304
  925 -4.07837 6.64997 -13.4388
  926 107.664 6.68136 -29.7068
  927 107.687 6.77953 30.0660
  928 -13.7164 4.67162 10.8388
  929 -13.7629 4.68039 -10.8450
  930 356.549 -19.2446 -8.33445
  931 210.109 8.38229 15.7071
  932 256.642 -3.50800 -26.8826
  933 193.107 2.93581 -12.1709
  934 193.179 2.86705 12.1621
  935 -21.4445 2.86655 -5.43560
  936 -21.4019 2.86411 5.43504
  937 -46.7993 0.863006 6.44467
  938 -46.8473 0.864846 -6.44995
  939 -2.80591 -9.02993 -9.81140
  940 -2.78724 -9.03907 9.83029
  941 67.4101 4.78216 0.00383007
  942 67.4196 4.78536 3.63072e-06
  943 -21.9452 2.21190 15.8100
  944 -21.9837 2.21437 -15.8308
  945 232.718 0.0954160 2.74721
  946 232.673 0.0978238 -2.74925
  947 -1.78666 -19.9097 14.9300
  948 7.75917 7.74276 -9.36316
  949 7.80273 7.73126 9.36363
  950 10.8981 5.48136 6.26266
  951 10.8628 5.48572 -6.26014
  952 38.7739 4.00926 -1.75611
  953 38.7943 4.01038 1.75861
  954 438.042 52.0012 -8.12288
  955 -1.70171 -0.474738 -1.16109
  956 -1.70537 -0.474763 1.16324
  957 14.4631 3.77790 -11.9019
  958 14.7109 3.65058 11.8642
  959 155.350 6.62082 -12.6279
  960 155.418 6.56005 12.6544
  961 18.9786 6.86545 -6.04555
  962 19.0128 6.85987 6.05009
  963 42.1056 -14.9065 56.0867
  964 294.825 -2.02056 -2.25215
  965 294.321 -1.94303 1.96302
  966 51.1014 -7.83118 48.5262
  967 53.4459 2.70261 -0.00160219
  968 53.4309 2.70101 0.00249092
  969 141.052 -6.36794 -83.7731
  970 106.384 2.25028 0.633658
  971 106.381 2.25231 -0.633404
  972 13.2254 -15.0860 3.93247
  973 14.6174 -12.8182 -2.82890
  974 261.661 -0.200844 0.950671
  975 261.603 -0.200416 -0.950823
  976 -21.5607 0.0485981 12.5928
  977 -21.5804 0.0476798 -12.6071
  978 468.453 58.2462 24.4826
  979 -2.09423 -15.0706 -19.7867
  980 2.15941 -76.7737 7.41805
  981 -0.411366 -23.8523 18.2891
  982 270.350 -0.0857395 -3.65235
  983 270.380 -0.0954732 3.63364
  984 -3.57953 -6.53871 8.46756
  985 -3.58869 -6.53794 -8.45832
  986 334.242 34.3181 -21.1080
  987 598.326 5.55854 -3.35155
  988 -0.875620 -1.30152 -1.26368
  989 -0.874720 -1.30427 1.26551
  990 155.908 2.20577 -2.68884
  991 155.929 2.20114 2.68828
  992 -2.15914 -14.5034 19.8992
  993 217.616 1.30183 10.9245
  994 217.555 1.36952 -10.9530
  995 285.642 -19.2159 -12.7625
  996 -10.0238 -2.11784 9.57097
  997 -10.0262 -2.12533 -9.57491
  998 4.47387 -19.3732 14.5787
  999 -0.493185 -35.7662 14.3489
  1000 -0.0399076 -36.7425 7.03931
  1001 289.288 19.3795 -1.60959
  1002 333.142 36.4937 12.5768
  1003 239.281 -28.0889 -38.6638
  1004 3.30932 -35.4605 11.8428
  1005 4.22677 -51.2477 3.24299
  1006 65.4221 2.00134 0.256844
  1007 65.4110 1.99969 -0.256681
  1008 -2.66421 -3.03464 -4.02276
  1009 -2.66212 -3.03563 4.02620
  1010 2.17448 -29.1213 -15.5692
  1011 193.604 0.572205 -0.638718
  1012 193.636 0.571005 0.638420
  1013 37.9155 -1.31332 -17.3872
  1014 36.2635 -1.22007 17.2207
  1015 -4.07487 5.87098 17.4734
  1016 -4.13776 5.88887 -17.4949
  1017 -23.4995 3.53998 -10.9096
  1018 -23.4528 3.53336 10.9016
  1019 146.347 2.41888 -29.2360
  1020 146.454 2.53240 29.5704
  1021 104.934 9.40710 -20.0436
  1022 104.937 9.40063 20.2536
  1023 114.240 8.72648 -6.47148
  1024 114.259 8.70450 6.49356
  1025 298.491 -8.96655 -35.2881
  1026 -8.32099 3.58070 19.0321
  1027 -8.37789 3.58865 -19.0645
  1028 211.700 0.0653769 14.8790
  1029 211.584 0.206385 -14.8960
  1030 -1.54280 -11.4504 20.8499
  1031 -17.1919 -0.591293 9.25842
  1032 -17.1992 -0.593914 -9.26733
  1033 192.706 2.11635 -14.7589
  1034 192.804 2.01975 14.7565
  1035 235.154 5.36486 -25.2511
  1036 -0.327711 -35.6082 -15.0660
  1037 -2.91725 -14.0465 17.7292
  1038 -3.03652 -14.2051 -17.5764
  1039 135.226 8.32717 -10.2449
  1040 135.273 8.28532 10.2777
  1041 171.576 3.53716 5.96779
  1042 171.546 3.55266 -5.97059
  1043 285.058 -18.7660 11.1533
  1044 12.8052 1.65770 -0.297745
  1045 12.8337 1.65849 0.297904
  1046 242.094 -31.4431 41.2828
  1047 -2.67963 1.17412 1.39012
  1048 -2.71333 1.17339 -1.38963
  1049 51.2725 13.3811 1.16152
  1050 51.2105 13.4215 -1.12425
  1051 18.9810 10.5153 10.7663
  1052 18.9236 10.5408 -10.7655
  1053 2.58066 -44.0459 -9.84468
  1054 68.9816 2.99975 -0.212764
  1055 68.9909 3.00282 0.214967
  1056 203.778 6.89996 6.44485
  1057 195.230 1.82374 5.61126
  1058 195.195 1.83738 -5.61700
  1059 -1.34643 -11.8653 -20.8828
  1060 294.011 -3.71870 -6.46943
  1061 -0.331149 -1.29402 20.8816
  1062 -0.115590 -1.11486 -20.7952
  1063 268.957 -0.419313 -2.01217
  1064 269.008 -0.421508 2.00759
  1065 286.280 -0.899954 -3.52146
  1066 286.185 -0.938591 3.41632
  1067 -0.219038 -55.7055 5.31278
  1068 166.662 4.65567 -7.92699
  1069 166.696 4.63055 7.92556
  1070 203.524 2.16736 6.58062
  1071 203.486 2.18467 -6.58954
  1072 4.09757 4.56495 18.9658
  1073 4.07600 4.56934 -18.9782
  1074 443.192 30.1369 4.04205
  1075 -5.87655 -2.64581 21.2746
  1076 -5.95663 -2.59291 -21.3231
  1077 61.9653 12.5802 0.111677
  1078 61.9389 12.5935 -0.0806634
  1079 -36.6635 0.785143 -2.03395
  1080 -36.6186 0.785333 2.03419
  1081 102.498 5.51664 -34.2988
  1082 102.377 5.81159 34.7483
  1083 28.8722 11.8606 8.52715
  1084 28.8089 11.8927 -8.51937
  1085 69.3129 7.51698 -24.8579
  1086 68.9619 7.87230 25.1025
  1087 -1.90463 -18.6878 -14.5406
  1088 246.253 3.03767 32.7926
  1089 173.792 -2.09951 109.269
  1090 27.1603 12.0982 8.81585
  1091 27.0841 12.1426 -8.81452
  1092 104.358 6.01145 -2.11500
  1093 104.365 6.00217 2.12090
  1094 383.567 -1.04727 12.2630
  1095 23.8508 5.70634 5.98901
  1096 23.5477 5.78863 -6.07184
  1097 -11.4240 -2.53831 12.7701
  1098 -11.4314 -2.54933 -12.7814
  1099 -0.375837 -8.38880 3.40687
  1100 -0.390344 -8.38329 -3.42032
  1101 251.770 -0.0182183 8.85940
  1102 251.706 0.0816480 -8.93895
  1103 0.257524 -18.2684 19.5958
  1104 -17.4824 1.03537 -17.1853
  1105 -17.4498 1.03616 17.1634
  1106 0.0919163 -67.6606 -6.83837
  1107 -4.14293 -5.79178 21.2374
  1108 -4.13350 -5.67613 -21.2586
  1109 241.205 0.470044 -3.73163
  1110 241.250 0.464541 3.72607
  1111 248.054 -1.65384 10.5642
  1112 247.906 -1.49400 -10.6474
  1113 42.2252 9.03384 -7.52411
  1114 41.9051 9.22920 7.61800
  1115 -0.606093 -34.8506 -12.1618
  1116 327.105 -32.9387 -63.1081
  1117 424.602 51.9538 -0.647587
  1118 4.21281 -54.1336 -1.68312
  1119 14.5127 8.40674 -14.1524
  1120 14.5968 8.35669 14.0951
  1121 39.4021 13.0363 4.43533
  1122 39.3144 13.0935 -4.41548
  1123 84.4584 5.47247 0.541430
  1124 84.4609 5.47835 -0.536149
  1125 -5.55673 -7.91502 16.5574
  1126 -5.54792 -7.98766 -16.5808
  1127 -16.2529 4.87070 13.9527
  1128 -16.3017 4.88099 -13.9652
  1129 -6.14320 6.10629 16.1928
  1130 -6.19989 6.12191 -16.2097
  1131 236.077 -12.0099 -17.7714
  1132 237.630 -12.1314 17.5954
  1133 0.188366 -40.3040 -14.3752
  1134 124.847 -0.762054 -43.3686
  1135 125.073 -0.361839 44.1382
  1136 39.2208 12.1015 -4.79949
  1137 39.2647 12.0788 4.81719
  1138 127.051 51.5152 122.440
  1139 30.4394 9.79846 6.41164
  1140 30.4011 9.81057 -6.40158
  1141 323.250 -36.8133 -13.8303
  1142 121.051 3.79778 1.77826
  1143 121.041 3.80425 -1.77685
  1144 -5.52871 -4.93841 10.0775
  1145 -5.53151 -4.94935 -10.0730
  1146 -6.61730 -5.94956 13.0677
  1147 -6.61600 -5.97198 -13.0676
  1148 210.910 -22.4223 -61.5453
  1149 215.356 -24.6097 62.0195
  1150 36.6653 1.78037 0.320772
  1151 36.6860 1.78175 -0.319840
  1152 131.692 6.25563 -23.5600
  1153 131.718 6.16780 23.8137
  1154 290.131 -40.1540 46.6405
  1155 259.692 -0.500341 0.557966
  1156 259.634 -0.499978 -0.557860
  1157 -23.7221 3.66826 12.4387
  1158 -23.7691 3.67531 -12.4497
  1159 -40.4916 1.29892 -6.58223
  1160 -40.4435 1.29698 6.57935
  1161 65.0043 -2.27044 72.5174
  1162 196.858 13.5429 -13.0534
  1163 120.448 8.98544 -11.3086
  1164 120.493 8.95109 11.3756
  1165 378.827 -14.8437 67.6976
  1166 122.385 8.55809 -17.0292
  1167 122.442 8.50604 17.1459
  1168 29.6052 4.26050 -2.50782
  1169 29.6294 4.26114 2.51064
  1170 10.4176 -41.7706 6.04442
  1171 10.5447 -40.8171 -8.85910
  1172 166.315 -12.4785 -62.0670
  1173 168.674 -11.7122 62.0565
  1174 64.3801 10.3038 -17.0186
  1175 64.1148 10.5317 17.2175
  1176 294.454 -20.2372 -23.2158
  1177 -10.9763 -1.00924 19.3647
  1178 -11.0102 -1.00802 -19.3923
  1179 -0.305241 -16.3447 -20.1191
  1180 73.9211 0.747787 -45.3429
  1181 74.1054 1.00002 46.1698
  1182 -0.191021 -14.9030 3.80628
  1183 -0.162892 -14.9385 -3.85236
  1184 -71.5551 0.609769 -1.91397
  1185 -71.4985 0.609455 1.91310
  1186 235.545 0.0779549 -1.00880
  1187 235.592 0.0770432 1.00809
  1188 144.095 5.75641 -6.61842
  1189 144.127 5.73141 6.62548
  1190 -5.58767 -0.228179 21.3291
  1191 -5.60439 -0.144649 -21.3681
  1192 0.0288258 -60.2371 -5.92889
  1193 -60.6212 0.150040 3.04910
  1194 -60.6703 0.150420 -3.05202
  1195 45.5564 -2.69139 -31.3264
  1196 45.2042 -2.40406 32.3743
  1197 273.812 -16.8189 -0.0650483
  1198 76.9364 3.96140 -40.6821
  1199 77.0007 4.20145 41.1239
  1200 -33.4827 0.177066 4.61470
  1201 -33.4990 0.176951 -4.62013
  1202 0.855350 -53.2610 -10.2543
  1203 -11.1126 2.26888 -2.68220
  1204 -11.0755 2.26884 2.68295
  1205 40.2024 10.3143 4.88281
  1206 40.1668 10.3263 -4.86805
  1207 153.685 1.24928 -0.901133
  1208 153.703 1.24734 0.901123
  1209 208.123 1.29441 4.27312
  1210 208.086 1.30282 -4.27790
  1211 10.9735 -2.11668 12.2416
  1212 10.8090 -2.30585 -12.4396
  1213 1.83307 -30.7890 15.5109
  1214 372.466 49.7821 16.5975
  1215 -11.5021 -0.913648 7.25501
  1216 -11.5024 -0.917346 -7.25830
  1217 1.43950 -28.8247 -16.1682
  1218 -1.11322 -17.5019 10.6333
  1219 -1.05511 -17.3515 -11.0200
  1220 295.427 -3.19327 5.75534
  1221 0.267967 -69.0179 6.08451
  1222 2.01539 -21.2700 -18.0230
  1223 33.8675 1.43854 0.415283
  1224 33.8459 1.43731 -0.415175
  1225 -3.00046 -12.6710 19.5473
  1226 -33.4707 1.93237 -5.63927
  1227 -33.4246 1.93065 5.63795
  1228 609.410 10.7637 16.9959
  1229 -17.3767 1.93215 17.4178
  1230 -17.4155 1.93324 -17.4414
  1231 140.884 5.89607 -21.3163
  1232 141.019 5.78243 21.4498
  1233 8.92362 -14.8765 -8.34049
  1234 134.241 7.33804 -8.37330
  1235 134.278 7.30449 8.39490
  1236 5.41449 -43.0714 -3.10073
  1237 -3.00839 -12.6922 -19.5087
  1238 -23.9239 1.06647 3.43501
  1239 -23.9655 1.06646 -3.43471
  1240 -10.5835 0.659657 -19.8584
  1241 -10.5425 0.660847 19.8326
  1242 286.298 22.7253 26.0512
  1243 163.309 2.11540 -22.7424
  1244 163.512 2.05326 22.8000
  1245 -75.1731 0.197220 -0.735025
  1246 -75.1157 0.197195 0.735064
  1247 147.508 4.02727 -4.51217
  1248 147.528 4.01676 4.51258
  1249 -77.4029 -1.28163 -0.199103
  1250 -77.4597 -1.28206 0.199190
  1251 220.242 -15.7774 -26.0257
  1252 -35.1746 0.586146 9.82618
  1253 -35.2075 0.586845 -9.83819
  1254 222.517 -16.6509 25.7884
  1255 149.904 5.93216 -9.27766
  1256 149.944 5.89554 9.28753
  1257 17.3070 -45.6237 -31.1340
  1258 0.314428 -48.6899 -12.3471
  1259 -1.06578 -20.5254 18.3403
  1260 477.414 74.2054 -63.5926
  1261 -0.121446 -45.5461 11.9931
  1262 495.978 46.6374 -28.4667
  1263 -0.244768 -84.2931 -5.76788
  1264 22.4826 2.67278 -1.00381
  1265 22.5082 2.67371 1.00530
  1266 -0.213041 -19.1482 3.99052
  1267 -0.172725 -19.2488 -3.97853
  1268 82.9485 2.52257 -0.0890161
  1269 82.9537 2.52484 0.0895608
  1270 297.918 -23.1876 22.1329
  1271 4.75974 2.47352 -3.11021
  1272 4.79185 2.47365 3.11133
  1273 1.72319 -93.3713 3.05772
  1274 1.09405 -99.2788 -3.01316
  1275 274.010 -34.8813 -27.6094
  1276 -0.770000 -25.0616 11.7783
  1277 284.638 17.7630 -32.4884
  1278 -0.858186 -33.0299 11.5910
  1279 0.562980 -90.9726 -4.54066
  1280 137.420 4.38533 -4.84339
  1281 137.441 4.36807 4.84740
  1282 -0.0978001 -49.0797 5.23710
  1283 -0.131774 -40.9114 -11.8346
  1284 658.346 111.408 97.2653
  1285 260.930 0.239989 0.434621
  1286 260.871 0.239944 -0.434457
  1287 6.50392 0.127961 17.3378
  1288 6.29229 0.406472 -17.4099
  1289 -4.38786 3.62550 20.1357
  1290 -4.47788 3.63445 -20.1746
  1291 275.670 -5.24824 -19.1376
  1292 256.239 -10.6473 -9.98344
  1293 255.958 -12.1417 10.0535
  1294 37.1017 4.79834 2.59015
  1295 37.0795 4.79751 -2.58584
  1296 -42.6722 1.15182 -7.76828
  1297 -42.6260 1.14949 7.76095
  1298 285.910 -40.5475 -39.5134
  1299 -2.14617 -5.16963 5.26259
  1300 -2.15419 -5.16529 -5.25987
  1301 301.066 -13.5200 33.2793
  1302 -3.20682 -12.0160 14.3013
  1303 -3.17209 -12.0597 -14.2356
  1304 -27.9211 1.91310 4.08140
  1305 -27.9646 1.91397 -4.08146
  1306 44.6602 4.28637 -15.6872
  1307 44.2028 4.55172 15.6887
  1308 70.3334 2.39789 0.451673
  1309 70.3241 2.39561 -0.450942
  1310 -29.6873 2.94223 12.2292
  1311 -29.7322 2.94754 -12.2411
  1312 244.564 0.772921 0.675810
  1313 244.512 0.772792 -0.675614
  1314 133.094 -2.62947 83.0072
  1315 199.101 0.763226 1.50564
  1316 199.067 0.764665 -1.50614
  1317 130.913 2.68899 -32.9741
  1318 130.956 2.53067 33.2855
  1319 1.23545 -53.9711 -7.63635
  1320 50.1967 11.9244 -6.04519
  1321 49.9864 12.0727 6.14374
  1322 -0.485310 -0.452776 -0.646003
  1323 -0.487743 -0.452959 0.647880
  1324 169.605 5.56546 12.1710
  1325 169.542 5.62871 -12.1633
  1326 83.4728 7.29379 1.35872
  1327 83.4752 7.30072 -1.34816
  1328 123.662 7.39916 -5.54992
  1329 123.684 7.37791 5.56341
  1330 162.864 1.37695 -1.50591
  1331 162.885 1.37494 1.50574
  1332 -5.20191 -2.52986 -5.94632
  1333 -5.20137 -2.52720 5.94970
  1334 -50.7472 0.136228 2.42699
  1335 -50.7972 0.136286 -2.42706
  1336 -8.92646 -4.12541 -14.6274
  1337 -8.92080 -4.10558 14.6136
  1338 -29.5734 0.614078 1.03717
  1339 -29.6155 0.613634 -1.03701
  1340 -78.1623 0.733496 0.422556
  1341 -78.2197 0.733628 -0.422495
  1342 307.969 -40.4094 54.2815
  1343 219.385 -1.50282 -26.5763
</Section>

newXOutput 37

<Section columns = "stress_xx | stress_yy | stress_xy">
  1 276.289 -0.336207 0.269873
  2 276.355 -0.336409 -0.270005
  3 -86.7657 0.439175 -1.17358
  4 0.139763 0.0379692 0.246421
  5 506.073 136.025 160.529
  6 571.865 154.671 -153.740
  7 0.139210 0.0374533 -0.245688
  8 -86.7037 0.439118 1.17326
  9 275.435 -0.313461 -0.908800
  10 275.639 -0.776603 -1.48472
  11 278.250 -0.761719 -0.384255
  12 278.496 -0.711257 -1.72122
  13 279.119 -0.688766 -0.508652
  14 284.991 -0.674128 -0.716218
  15 286.975 -1.01105 -2.30579
  16 289.064 -0.445120 -1.56386
  17 290.334 0.229498 -3.02110
  18 302.203 -1.57115 -2.58939
  19 307.225 -1.18796 -3.35234
  20 312.710 -1.85430 -1.23951
  21 315.232 -2.50664 -0.680042
  22 312.552 -2.93213 4.28688
  23 301.263 -3.32284 8.91448
  24 275.241 -3.82541 18.8975
  25 233.611 1.98994 21.9378
  26 198.943 2.34152 20.5520
  27 151.093 5.26221 12.4726
  28 161.064 5.12503 0.994315
  29 133.407 15.4541 -8.01028
  30 188.167 6.99826 -22.1891
  31 218.728 1.60977 -18.2006
  32 269.464 -0.889723 -15.7445
  33 297.504 -4.03140 -10.6527
  34 311.970 -3.42107 -4.27491
  35 314.536 -2.42292 0.690789
  36 312.225 -1.82835 1.14848
  37 307.011 -1.19666 3.24501
  38 302.116 -1.59327 2.52656
  39 290.339 0.216616 2.98986
  40 289.102 -0.449985 1.55171
  41 287.031 -1.01402 2.30114
  42 285.053 -0.675663 0.713927
  43 279.183 -0.689662 0.507629
  44 278.562 -0.712056 1.72153
  45 278.316 -0.762284 0.384256
  46 275.704 -0.777039 1.48538
  47 275.500 -0.313650 0.909202
  48 260.223 0.834082 -0.333409
  49 240.607 0.504962 -0.760563
  50 216.152 -0.413289 -0.792624
  51 190.861 1.11736 -0.659371
  52 168.774 0.979365 -0.528557
  53 145.194 1.75133 -0.628672
  54 121.977 2.94767 -0.398447
  55 97.9304 2.67266 -0.797544
  56 78.0247 1.96719 -1.10391
  57 51.9526 1.35158 -1.16291
  58 25.5109 1.81852 -0.882484
  59 3.46536 1.49310 -0.852665
  60 -24.0019 0.908445 -0.785879
  61 -44.4208 -0.117896 -1.86831
  62 -64.1878 -1.28328 -0.860109
  63 -84.2037 0.198579 0.555509
  64 -88.4896 1.52180 -0.244031
  65 -88.7450 0.684434 0.225515
  66 -85.7710 0.357167 -0.140376
  67 -86.5762 0.986923 -1.09708
  68 -85.1397 1.19252 -0.155426
  69 -80.4705 0.378287 -1.67054
  70 -81.2526 0.733158 -1.78909
  71 -79.1288 0.698272 -1.03078
  72 -73.2037 0.445375 -1.53098
  73 -70.3519 0.780809 -2.49053
  74 -66.0107 0.867534 -2.06124
  75 -58.3455 0.444793 -3.51103
  76 -54.0245 0.136682 -2.93621
  77 -46.3014 0.196755 -3.37403
  78 -39.6331 0.141784 -3.71844
  79 -33.8505 0.0451562 -2.93408
  80 -25.8612 0.168674 -2.95268
  81 -18.9859 -0.0803144 -3.15167
  82 -12.3371 -0.348037 -2.75630
  83 -7.07928 -0.304086 -2.10524
  84 -3.46343 -0.527719 -1.75405
  85 -0.553413 -0.304665 -0.619494
  86 0.0576372 -0.335254 -0.216279
  87 -0.181840 -0.163731 -0.0337940
  88 -0.476474 -0.433994 -0.541628
  89 -0.462071 -2.92532 -1.52132
  90 -0.396982 -6.58897 -2.17865
  91 -0.207445 -11.2941 -3.18359
  92 -0.109549 -17.3683 -2.74717
  93 -0.0977956 -22.9775 -3.45937
  94 -0.427734 -29.8561 -3.91329
  95 -0.174454 -38.3276 -3.96204
  96 0.0817897 -46.8637 -3.80088
  97 0.186157 -56.0241 -3.75525
  98 0.282636 -65.4564 -3.70195
  99 0.0290452 -72.4638 -5.01884
  100 0.497385 -82.3572 -4.49873
  101 0.602506 -93.9705 -3.62819
  102 -0.00597207 -99.2723 -4.82389
  103 0.853879 -107.929 -4.50102
  104 2.06826 -119.483 -2.30279
  105 4.02408 -122.944 -3.64934
  106 2.74949 -113.628 2.33505
  107 3.84094 -87.5891 10.8852
  108 21.2885 -54.0717 33.2659
  109 67.8816 84.9554 117.742
  110 781.350 40.9800 76.4810
  111 669.807 12.5798 27.9549
  112 648.205 4.79978 6.26714
  113 643.698 1.81010 -1.04250
  114 647.964 7.28107 -14.7696
  115 667.838 22.6468 -32.9515
  116 759.447 80.3300 -96.9490
  117 161.414 65.6324 -143.958
  118 35.3258 -53.2733 -41.0149
  119 10.3351 -95.7960 -14.9202
  120 2.82976 -107.783 -2.57622
  121 3.22682 -118.431 2.14506
  122 0.931201 -114.876 1.80513
  123 0.349771 -105.235 3.86808
  124 0.370422 -98.8887 3.07505
  125 0.516784 -88.8890 5.11010
  126 -0.0257868 -83.0684 4.93832
  127 0.205118 -74.9697 3.56270
  128 0.392761 -64.6607 4.49884
  129 0.0732373 -57.3133 3.56803
  130 0.116706 -46.9345 4.50398
  131 -0.468609 -38.7856 3.86650
  132 -0.331807 -29.8827 3.79284
  133 -0.0708515 -22.8533 3.46886
  134 -0.141028 -17.2694 2.75319
  135 -0.202997 -11.2612 3.15302
  136 -0.391395 -6.58432 2.16789
  137 -0.459652 -2.92967 1.52021
  138 -0.475904 -0.438515 0.542662
  139 -0.181824 -0.165704 0.0351028
  140 0.0552613 -0.335589 0.217495
  141 -0.557965 -0.304539 0.621086
  142 -3.47057 -0.527294 1.75576
  143 -7.08907 -0.303204 2.10590
  144 -12.3454 -0.346947 2.75541
  145 -18.9892 -0.0794126 3.14883
  146 -25.8585 0.168850 2.94931
  147 -33.8396 0.0455343 2.93058
  148 -39.6145 0.142191 3.71449
  149 -46.2729 0.196656 3.36995
  150 -53.9873 0.136533 2.93249
  151 -58.3025 0.444456 3.50750
  152 -65.9602 0.867023 2.05860
  153 -70.2974 0.780269 2.48848
  154 -73.1457 0.445032 1.52981
  155 -79.0678 0.697921 1.03013
  156 -81.1906 0.732854 1.78843
  157 -80.4087 0.378154 1.67009
  158 -85.0766 1.19216 0.155536
  159 -86.5130 0.986660 1.09691
  160 -85.7085 0.357117 0.140490
  161 -88.6819 0.684285 -0.225322
  162 -88.4268 1.52140 0.244064
  163 -84.1424 0.198579 -0.555290
  164 -64.1328 -1.28270 0.859919
  165 -44.3721 -0.117445 1.86784
  166 -23.9597 0.908871 0.785769
  167 3.49853 1.49371 0.852518
  168 25.5367 1.81943 0.882328
  169 51.9695 1.35309 1.16269
  170 78.0328 1.96886 1.10366
  171 97.9317 2.67437 0.797357
  172 121.970 2.94931 0.398266
  173 145.180 1.75311 0.628336
  174 168.751 0.981018 0.528179
  175 190.830 1.11840 0.658859
  176 216.112 -0.412258 0.792045
  177 240.557 0.505101 0.760121
  178 260.164 0.833856 0.333215
  179 71.1661 12.8829 -2.09004
  180 71.1340 12.8998 2.13694
  181 -1.71958 1.90473 21.0641
  182 -1.79498 1.89621 -21.0695
  183 163.615 -2.34925 -35.8376
  184 163.529 -2.67598 36.2348
  185 32.0831 7.00135 -0.447577
  186 31.7001 7.14881 0.469187
  187 22.7352 4.47381 -3.61675
  188 22.7642 4.47316 3.61970
  189 155.371 3.47581 -5.10001
  190 155.396 3.46144 5.10110
  191 -3.62282 6.38090 11.7275
  192 -3.67225 6.39296 -11.7329
  193 180.606 5.06661 -13.4494
  194 180.691 4.99068 13.4611
  195 -7.12741 -6.22619 16.4132
  196 -7.12431 -6.26133 -16.4319
  197 1.47557 -15.1319 -19.9188
  198 55.3918 1.87042 -32.2992
  199 1.84206 -16.1636 19.4703
  200 54.4989 2.33543 32.8587
  201 256.398 -35.5203 -52.1961
  202 265.548 -36.9326 49.9896
  203 91.2518 3.56049 -0.580216
  204 91.2493 3.55664 0.582183
  205 -16.0654 1.24733 -2.39515
  206 -16.0253 1.24770 2.39548
  207 -20.9363 3.11071 16.1046
  208 -20.9821 3.11721 -16.1253
  209 91.6845 8.95332 -2.08254
  210 91.6857 8.94582 2.09741
  211 27.5021 11.6965 8.53856
  212 27.3975 11.7682 -8.55392
  213 -27.2399 2.92848 -6.86460
  214 -27.1929 2.92542 6.86241
  215 207.498 0.695266 2.49049
  216 207.461 0.698635 -2.49209
  217 6.44367 -28.5855 8.99720
  218 7.00985 -25.9921 -8.08823
  219 -1.99577 -17.5514 18.5735
  220 -2.03454 -18.2086 -17.9800
  221 84.5927 12.3785 -13.7116
  222 84.5261 12.4346 13.8729
  223 -18.7021 -0.117290 16.0715
  224 -18.7282 -0.119042 -16.0915
  225 221.998 1.64602 -7.47448
  226 222.041 1.62409 7.46056
  227 238.571 -3.17880 -14.6620
  228 238.751 -3.42955 14.5823
  229 379.944 29.5927 -0.374503
  230 348.555 38.3167 23.2486
  231 344.823 -4.28999 -33.3812
  232 41.1047 9.68154 4.67931
  233 41.0732 9.69028 -4.66714
  234 2.28504 7.70779 16.3864
  235 2.22026 7.73087 -16.4009
  236 266.446 -16.1499 -9.31491
  237 264.878 -16.3553 10.1591
  238 146.902 1.78354 -1.81423
  239 146.919 1.77952 1.81414
  240 -33.4475 2.34946 10.8102
  241 -33.4952 2.35427 -10.8201
  242 -4.52565 -4.45687 -7.33755
  243 -4.52202 -4.45460 7.34268
  244 -37.5413 1.00908 3.54160
  245 -37.5892 1.00941 -3.54175
  246 120.295 9.47515 -8.64600
  247 120.323 9.44697 8.68206
  248 153.338 4.95019 -20.2612
  249 153.470 4.85798 20.3523
  250 36.0027 2.73733 -0.437442
  251 36.0251 2.73852 0.438629
  252 88.0453 -1.26159 -71.4760
  253 104.449 1.44496 78.1861
  254 11.5034 5.17893 15.7680
  255 11.4518 5.29995 -15.8245
  256 363.599 -29.9521 -4.92187
  257 30.5776 12.0043 7.39625
  258 30.5234 12.0303 -7.38537
  259 86.2194 9.00515 -26.2934
  260 86.0660 9.24136 26.6092
  261 405.424 55.8121 -6.40917
  262 240.761 0.453037 10.1192
  263 240.697 0.531798 -10.1658
  264 -2.19749 -13.4924 -11.5493
  265 -2.13725 -13.5477 11.5960
  266 -0.499493 -32.2041 -16.0098
  267 1.00946 -37.9061 -14.9786
  268 0.521480 -37.7969 15.5982
  269 -6.17277 -5.38092 21.2292
  270 -6.19685 -5.36984 -21.3070
  271 12.5480 -31.1917 -4.30725
  272 13.4852 -28.8814 6.40819
  273 -13.9229 -1.18808 10.1487
  274 -13.9289 -1.19316 -10.1570
  275 170.545 5.20846 -8.29152
  276 170.588 5.17567 8.29202
  277 299.480 -31.4989 -1.01298
  278 65.0826 6.03704 -0.607791
  279 65.0946 6.03968 0.613278
  280 -0.813273 -30.2000 15.2912
  281 5.34422 6.31508 7.72769
  282 5.30315 6.32235 -7.72666
  283 477.977 33.7783 -11.8613
  284 233.882 0.424611 3.07803
  285 233.838 0.429455 -3.08214
  286 155.330 -8.00864 -54.1351
  287 156.749 -7.87706 55.0121
  288 299.072 -29.8332 -3.93001
  289 -28.6285 0.866194 12.7328
  290 -28.6600 0.866790 -12.7487
  291 293.366 -26.0766 89.0864
  292 -12.9293 2.02133 19.3629
  293 -12.9727 2.02032 -19.3910
  294 48.5959 13.4024 -2.70402
  295 48.4124 13.5319 2.77255
  296 -53.2333 0.501693 0.656350
  297 -53.2850 0.501564 -0.656239
  298 246.872 2.02653 -121.900
  299 -49.3862 1.02386 -5.88080
  300 -49.3344 1.02209 5.87697
  301 -1.59168 -6.41819 21.7956
  302 -0.878506 -6.27964 -21.6032
  303 107.527 11.3070 -12.5935
  304 107.544 11.2936 12.6859
  305 22.4610 3.10349 2.70976
  306 22.4334 3.10288 -2.70824
  307 112.195 4.82420 -2.41861
  308 112.202 4.81653 2.42206
  309 10.3018 -8.74859 11.9267
  310 9.38562 -10.3639 -12.0393
  311 108.898 2.41157 -0.541430
  312 108.901 2.40893 0.541829
  313 -40.3251 1.04759 9.37618
  314 -40.3656 1.04931 -9.38727
  315 26.8291 -3.54892 -5.57714
  316 26.0115 -3.57619 4.86737
  317 244.222 0.00603937 0.856300
  318 244.171 0.00662559 -0.856460
  319 535.109 30.7915 20.3025
  320 53.9017 7.68174 2.08194
  321 53.8829 7.68192 -2.07258
  322 -12.7346 2.83300 4.90122
  323 -12.7759 2.83473 -4.90093
  324 74.6456 10.5867 -1.17929
  325 74.6326 10.5862 1.20584
  326 8.30848 7.70491 17.0548
  327 8.25465 7.72489 -17.0857
  328 1.10962 -54.5556 11.0704
  329 -54.9835 0.186513 -1.46174
  330 -54.9308 0.186693 1.46182
  331 185.691 0.913532 -1.61942
  332 185.720 0.911410 1.61889
  333 195.584 1.71171 -4.29633
  334 195.617 1.70209 4.29259
  335 -51.0495 0.927577 -4.31857
  336 -50.9968 0.926751 4.31729
  337 -2.23015 1.16850 0.609913
  338 -2.26527 1.16786 -0.609576
  339 -1.13851 -22.2236 11.5455
  340 -0.907358 -23.1133 -11.5301
  341 219.507 -18.5269 -36.3933
  342 228.149 -22.1388 35.6942
  343 129.985 6.82332 -5.30633
  344 130.005 6.80532 5.31474
  345 56.5939 13.5546 -1.04838
  346 56.5065 13.6115 1.10258
  347 -21.0298 3.97650 9.69232
  348 -21.0775 3.98296 -9.69776
  349 411.710 4.97460 7.87500
  350 21.1959 -34.0006 -22.9122
  351 22.6726 -31.9402 24.0768
  352 -9.27706 6.28597 15.3768
  353 -9.33136 6.29992 -15.3913
  354 -11.4881 -2.37973 18.7602
  355 -11.5140 -2.38377 -18.7896
  356 466.026 76.3839 -19.3472
  357 297.104 -4.97668 39.8868
  358 278.862 -6.39790 -6.44596
  359 278.570 -6.25038 5.96624
  360 194.467 -2.08094 -23.1273
  361 194.254 -2.29000 23.1294
  362 0.359974 -65.7035 -9.00322
  363 255.689 0.818686 -5.70063
  364 255.726 0.796137 5.67543
  365 3.25587 -62.0905 7.27071
  366 292.375 22.7699 -22.1694
  367 71.0895 2.85687 0.983484
  368 71.0791 2.85522 -0.983287
  369 195.757 1.75881 -17.1833
  370 195.890 1.64538 17.1962
  371 211.509 2.08148 -10.4655
  372 211.564 2.03123 10.4464
  373 -5.09411 2.54232 3.36356
  374 -5.13165 2.54266 -3.36264
  375 120.244 6.67624 -27.2279
  376 120.296 6.74478 27.4976
  377 251.770 0.0519301 1.40638
  378 251.717 0.0530794 -1.40733
  379 141.197 8.13756 -13.6193
  380 141.259 8.08113 13.6721
  381 163.754 2.96769 3.45143
  382 163.731 2.97469 -3.45228
  383 -7.84648 -1.42791 6.23796
  384 -7.84526 -1.43140 -6.23754
  385 -1.85744 -1.32218 -1.80071
  386 -1.85838 -1.32296 1.80353
  387 335.083 -43.2475 22.2212
  388 -4.43495 -10.6383 17.1100
  389 -4.40603 -10.7257 -17.1088
  390 53.3380 3.88368 -1.38306
  391 53.3544 3.88577 1.38572
  392 -1.67096 -8.32392 6.26101
  393 -1.68952 -8.30959 -6.26138
  394 20.0251 9.58220 8.51200
  395 19.9798 9.59761 -8.50722
  396 274.057 -0.963746 7.49791
  397 274.008 -0.857877 -7.64568
  398 -0.767643 -16.5445 20.7261
  399 -22.5534 -0.425573 9.63328
  400 -22.5668 -0.427330 -9.64411
  401 -0.854118 -17.4550 -20.4910
  402 257.531 0.250767 3.62662
  403 257.484 0.257521 -3.63535
  404 -2.85737 5.55549 19.2380
  405 -2.93464 5.57511 -19.2654
  406 189.503 3.19902 -6.89140
  407 189.540 3.17891 6.88542
  408 291.529 -12.5421 -7.06844
  409 292.605 -10.0787 5.39165
  410 -0.613004 -30.3098 -12.6729
  411 25.5138 9.35692 -6.42443
  412 25.7245 9.24521 6.40591
  413 286.904 18.9401 13.9349
  414 164.045 -9.82062 -75.1963
  415 168.535 -12.9170 78.8099
  416 9.06471 9.04893 12.7251
  417 9.00854 9.06955 -12.7294
  418 120.839 3.74850 -1.65388
  419 120.847 3.74361 1.65487
  420 117.260 15.7491 119.924
  421 47.9133 11.6379 -3.63015
  422 47.9522 11.6209 3.65119
  423 2.89645 -29.3732 14.2542
  424 -0.370232 -49.3350 -11.0559
  425 18.6374 11.0170 11.9799
  426 18.5696 11.0492 -11.9858
  427 22.8966 6.61425 -5.27792
  428 22.9291 6.61019 5.28244
  429 -8.47859 -0.548665 -21.2384
  430 -8.43562 -0.560462 21.2070
  431 57.5627 11.2213 -10.1609
  432 57.3218 11.3992 10.2961
  433 292.133 -9.67162 -30.0197
  434 7.91810 -3.35333 16.8037
  435 7.64879 -3.26694 -16.8961
  436 212.597 -9.05380 -25.5649
  437 213.512 -9.72110 25.5112
  438 -53.7642 0.446799 -5.68220
  439 -53.7145 0.445478 5.67682
  440 0.00504358 -48.3838 9.92880
  441 -0.353843 -30.6986 11.2767
  442 -21.9393 1.36938 16.3069
  443 -21.9735 1.36952 -16.3279
  444 152.362 1.70290 -0.632416
  445 152.379 1.70055 0.632093
  446 -4.61885 -7.29062 11.5883
  447 -4.62567 -7.30629 -11.5748
  448 94.1131 4.35541 -39.7501
  449 93.9430 4.80093 40.2428
  450 0.785902 -58.8720 -11.0619
  451 534.314 19.5523 0.521118
  452 1.44692 -70.0368 -6.66042
  453 -63.9522 0.0445075 -2.12178
  454 -63.8961 0.0445660 2.12157
  455 -24.6978 3.41945 13.4543
  456 -24.7461 3.42672 -13.4686
  457 -28.3771 0.397228 9.69204
  458 -28.3978 0.397292 -9.70337
  459 103.165 10.9816 -8.35445
  460 103.177 10.9727 8.41139
  461 156.899 6.63103 -10.5472
  462 156.953 6.58327 10.5644
  463 -2.80887 -10.0774 21.4001
  464 -2.81212 -10.0102 -21.4879
  465 271.458 4.15005 -37.9194
  466 18.2297 -5.49926 -3.97748
  467 17.5977 -5.65160 4.30113
  468 4.23644 -63.6472 -0.108966
  469 2.68718 -73.6636 -1.80913
  470 -8.38771 -3.77178 11.9347
  471 -8.39021 -3.78482 -11.9385
  472 57.2781 -8.13001 -61.5264
  473 421.338 -2.99738 -39.0248
  474 93.9123 6.48693 2.14307
  475 93.9114 6.49458 -2.13479
  476 136.767 1.22996 -38.4286
  477 137.105 1.18540 39.0398
  478 39.5822 14.0913 5.10144
  479 39.5122 14.1359 -5.08278
  480 123.437 9.39607 -19.8832
  481 123.505 9.34148 20.0435
  482 4.18678 2.21771 19.6678
  483 4.46024 2.35553 -19.6430
  484 -56.5794 0.861025 -4.24551
  485 -56.5252 0.860232 4.24347
  486 274.033 -32.4143 -20.2201
  487 218.317 0.365714 -1.18791
  488 218.358 0.364815 1.18777
  489 10.4940 1.74998 -1.49007
  490 10.5251 1.75079 1.49087
  491 -14.6760 5.11729 12.6504
  492 -14.7263 5.12744 -12.6598
  493 -32.6030 2.02499 -4.71104
  494 -32.5558 2.02356 4.71038
  495 93.8865 9.57360 -3.44323
  496 93.8893 9.56391 3.46561
  497 -11.8464 4.32657 17.6500
  498 -11.9006 4.33780 -17.6736
  499 251.029 -6.90453 -13.5865
  500 251.443 -7.27043 13.3623
  501 163.681 1.89245 -25.5109
  502 163.447 1.76370 25.7383
  503 60.2013 3.17610 -0.809580
  504 60.2153 3.17809 0.810719
  505 0.591171 -30.2947 -17.6056
  506 293.817 -10.9024 24.6824
  507 3.86576 -20.2427 -16.1605
  508 82.5892 13.4378 8.37887
  509 82.6310 13.4051 -8.28238
  510 271.026 -30.3321 19.9355
  511 20.2269 -30.5311 31.9059
  512 323.418 -43.0858 -40.4149
  513 219.917 1.17167 12.5855
  514 219.829 1.26654 -12.6111
  515 0.542066 -25.9597 18.3191
  516 -4.29909 -1.28824 -3.32466
  517 -4.30129 -1.28777 3.32732
  518 25.7838 1.68384 -0.472423
  519 25.8096 1.68490 0.472790
  520 -0.749778 -17.1134 7.39963
  521 -0.680293 -17.0325 -7.43671
  522 181.146 2.17455 2.76864
  523 181.118 2.17835 -2.76971
  524 513.121 88.7549 35.8916
  525 20.7100 -14.0511 -5.57542
  526 16.0862 -18.5739 2.22020
  527 -6.04700 4.02101 -6.46220
  528 -6.00564 4.01714 6.46215
  529 -44.3902 0.704251 5.83710
  530 -44.4239 0.705035 -5.84401
  531 0.435555 -55.1395 10.9839
  532 -63.0490 0.591436 0.627944
  533 -63.1040 0.591427 -0.627783
  534 55.1991 -5.44113 -44.9912
  535 53.9517 -4.44952 46.7983
  536 50.4686 8.49044 -14.8333
  537 50.0867 8.72922 14.9543
  538 -11.9669 -2.54724 16.3809
  539 -11.9831 -2.55705 -16.4025
  540 49.4486 4.84187 1.48764
  541 49.4303 4.84032 -1.48370
  542 -27.0835 1.33306 2.09545
  543 -27.1276 1.33307 -2.09502
  544 58.5595 8.97092 1.73522
  545 58.5400 8.97309 -1.72019
  546 -1.19670 -3.86908 2.83952
  547 -1.20073 -3.86539 -2.83889
  548 21.0467 9.07057 10.9029
  549 20.9071 9.20337 -10.9434
  550 17.0082 2.34706 9.72248
  551 16.7628 2.32333 -9.85735
  552 223.065 1.81245 5.31575
  553 223.024 1.82244 -5.32253
  554 196.923 2.94113 8.42749
  555 196.879 2.97227 -8.43706
  556 -0.203292 -46.3981 -6.87208
  557 137.259 7.30479 -7.97396
  558 137.290 7.27709 7.98964
  559 137.755 3.59338 -2.90078
  560 137.771 3.58502 2.90206
  561 -19.9026 0.822837 -0.0495110
  562 -19.8617 0.823293 0.0497730
  563 232.005 12.8844 -7.29820
  564 309.787 -40.1292 -14.0002
  565 251.652 11.4130 28.8517
  566 1.99931 -40.1812 -13.0595
  567 -14.3754 4.44062 -8.43032
  568 -14.3299 4.43510 8.42790
  569 2.07137 -23.4154 17.4197
  570 -13.9042 0.324349 18.8469
  571 -13.9384 0.323386 -18.8715
  572 394.572 37.9898 -1.51841
  573 89.1716 4.53767 -0.857735
  574 89.1688 4.53302 0.861020
  575 603.747 50.8198 -51.6415
  576 -3.15645 -2.48076 22.0914
  577 -2.96046 -2.32421 -22.1121
  578 327.438 -30.0549 14.6083
  579 264.173 0.392218 -6.35862
  580 264.203 0.355673 6.31503
  581 120.011 -0.860425 -56.0116
  582 121.481 -1.21274 56.9378
  583 -6.85111 -6.59355 18.9810
  584 -6.85677 -6.62627 -19.0276
  585 62.6589 4.81964 29.1125
  586 63.1862 4.33191 -28.8439
  587 -52.0688 0.606959 -5.51970
  588 -52.0228 0.605995 5.51385
  589 386.141 31.1896 24.9579
  590 72.6259 7.08784 -0.0714135
  591 72.6350 7.09133 0.0796985
  592 85.8385 10.6235 -19.7938
  593 85.7322 10.7539 20.0315
  594 238.362 -0.253482 -12.3600
  595 238.473 -0.380653 12.3135
  596 -1.10202 -24.3773 -17.1076
  597 260.235 -0.207884 1.89535
  598 260.180 -0.206284 -1.89690
  599 -38.6856 0.847671 -0.849758
  600 -38.6383 0.847843 0.850108
  601 -67.5929 -0.423748 0.0359629
  602 -67.6490 -0.424029 -0.0358657
  603 5.40849 -37.2643 -6.53928
  604 -2.46040 -15.7752 14.5970
  605 -2.59499 -14.9313 -14.6950
  606 -29.7422 1.81363 13.6128
  607 -29.7809 1.81658 -13.6294
  608 180.907 4.78294 10.5943
  609 180.853 4.83110 -10.5959
  610 132.887 2.08834 0.694560
  611 132.877 2.09045 -0.694497
  612 29.6033 -9.48406 18.0171
  613 30.5779 -8.84601 -17.8344
  614 -0.937715 -11.9244 6.24283
  615 -0.965906 -11.8856 -6.26336
  616 311.851 17.5688 129.760
  617 -15.3753 -0.481876 5.79474
  618 -15.3751 -0.483991 -5.79897
  619 5.35571 -22.6664 -13.1722
  620 129.906 5.55448 -4.02130
  621 129.922 5.54231 4.02552
  622 63.0973 13.4919 -5.90282
  623 62.9818 13.5731 5.99886
  624 0.631564 -83.6022 4.63233
  625 47.1365 13.3297 3.26984
  626 47.0864 13.3585 -3.24459
  627 -5.87608 5.53312 10.1203
  628 -5.92243 5.54166 -10.1236
  629 -0.371997 -40.9706 9.38990
  630 -67.1631 0.100870 -2.10582
  631 -67.1057 0.100776 2.10542
  632 85.0328 2.61996 0.124226
  633 85.0380 2.62288 -0.123091
  634 217.394 0.892319 3.49794
  635 217.354 0.897329 -3.50080
  636 191.021 -14.5415 99.0720
  637 153.523 4.20954 -6.29543
  638 153.551 4.18938 6.29851
  639 2.24945 -3.52074 20.5637
  640 2.79697 -2.13948 -20.5453
  641 246.005 -25.9704 -80.0267
  642 585.973 20.3593 -21.4961
  643 -61.5301 0.0654565 -3.83877
  644 -61.4767 0.0648501 3.83578
  645 13.6759 3.44320 -3.17865
  646 13.7071 3.44292 3.18041
  647 -1.17050 -25.7758 15.0793
  648 332.622 18.8893 -35.9772
  649 257.391 -0.339312 0.318608
  650 257.334 -0.339003 -0.318587
  651 -16.5826 -0.929317 -13.5118
  652 -16.5674 -0.925455 13.4966
  653 -0.0448488 -58.3290 -9.06558
  654 261.863 -0.376642 0.726411
  655 261.804 -0.376217 -0.726477
  656 23.1091 8.38544 7.24202
  657 23.0706 8.39492 -7.23618
  658 198.067 -17.6194 -52.2999
  659 201.743 -17.5608 52.9070
  660 291.376 -1.74302 4.28723
  661 291.471 -1.72121 -4.48786
  662 1.26699 -73.7992 7.21318
  663 -16.9370 0.660361 -1.22922
  664 -16.8969 0.660897 1.22956
  665 94.8465 4.80167 -93.6671
  666 88.5301 2.37643 0.635977
  667 88.5345 2.37836 -0.635537
  668 42.9888 3.54983 0.755670
  669 42.9687 3.54834 -0.753708
  670 51.3577 6.02087 -1.25144
  671 51.3760 6.02208 1.25784
  672 169.179 5.07180 -16.3760
  673 169.285 4.98387 16.4157
  674 44.2364 13.0245 1.39647
  675 44.1088 13.1156 -1.36474
  676 -31.4294 2.35346 -7.91501
  677 -31.3809 2.34962 7.91096
  678 -36.3360 2.49748 -8.94748
  679 -36.2870 2.49336 8.94069
  680 299.094 -4.47109 -1.20226
  681 0.186136 -12.4168 -20.8955
  682 299.641 -4.69080 0.755020
  683 378.538 30.0165 0.346092
  684 -37.6209 0.172672 6.62916
  685 -37.6470 0.172720 -6.63730
  686 38.4442 10.9533 -1.26835
  687 38.1715 11.0963 1.30933
  688 -72.2045 0.0906277 -0.787877
  689 -72.1461 0.0906901 0.787966
  690 0.401889 -11.2123 20.9542
  691 -23.6432 0.299908 14.2762
  692 -23.6713 0.299290 -14.2938
  693 327.939 -28.2333 -15.8967
  694 50.7579 1.60786 -0.274431
  695 50.7406 1.60636 0.274967
  696 10.9697 4.98947 5.20053
  697 10.9349 4.99207 -5.19808
  698 172.374 -8.12139 -43.6090
  699 173.724 -8.44032 44.4897
  700 610.487 42.9537 47.1996
  701 11.4194 -58.2061 -18.8400
  702 -4.45433 -9.33024 20.3323
  703 -4.46375 -9.36551 -20.3748
  704 35.6145 8.34516 -4.13416
  705 35.6437 8.34039 4.14251
  706 269.155 -0.304439 -1.93796
  707 269.211 -0.306240 1.93507
  708 126.913 2.55465 1.13848
  709 126.903 2.55854 -1.13818
  710 10.0275 9.30638 15.2858
  711 9.96274 9.33534 -15.3006
  712 5.49834 2.60304 2.24432
  713 5.46524 2.60275 -2.24337
  714 -7.82644 1.68803 20.9091
  715 -7.87869 1.68996 -20.9463
  716 220.682 0.0840236 1.46023
  717 220.641 0.0856883 -1.46102
  718 190.579 2.00291 3.96922
  719 190.548 2.00921 -3.97131
  720 25.1077 -18.1379 21.8508
  721 25.8654 -19.3237 -21.0807
  722 -15.1444 3.17692 18.2392
  723 -15.1921 3.18191 -18.2653
  724 7.69781 -18.8683 10.5684
  725 0.267347 5.53489 19.4364
  726 0.185904 5.55250 -19.4526
  727 -43.0172 1.27327 -5.29261
  728 -42.9666 1.27173 5.29052
  729 32.4745 10.8504 6.84668
  730 32.4285 10.8682 -6.83462
  731 294.889 -9.05277 -16.8585
  732 279.416 -24.5633 -6.13466
  733 -4.55485 -9.30660 14.3459
  734 -4.54833 -9.34922 -14.3265
  735 107.501 -1.67780 -66.1395
  736 104.652 0.684009 66.8319
  737 65.1530 12.4612 -9.51495
  738 64.9959 12.5852 9.65186
  739 5.53321 -11.1414 17.0044
  740 -0.411455 -30.2709 -8.14439
  741 137.187 7.84603 -15.1560
  742 137.262 7.79099 15.2374
  743 0.366655 -59.6464 7.57857
  744 81.3823 11.6280 -3.54063
  745 81.3701 11.6286 3.58048
  746 282.516 -0.154195 -4.82459
  747 282.509 -0.190682 4.75119
  748 5.45211 -82.1253 1.19516
  749 126.235 9.77953 11.3397
  750 126.195 9.81474 -11.2888
  751 33.6937 11.8864 -4.45635
  752 33.8647 11.7623 4.45335
  753 -51.1736 0.339996 -4.64430
  754 -51.1335 0.339524 4.63870
  755 140.480 2.81634 -2.57357
  756 140.495 2.81078 2.57398
  757 86.0494 12.7063 -6.96424
  758 86.0291 12.7179 7.03563
  759 0.0319069 7.61963 15.1341
  760 -0.0264228 7.63907 -15.1455
  761 280.281 -20.9861 2.74431
  762 -44.5465 1.03269 4.04534
  763 -44.5970 1.03325 -4.04598
  764 609.529 115.363 -81.7751
  765 -17.4753 1.84355 4.30974
  766 -17.5172 1.84410 -4.30949
  767 238.844 0.925467 8.79886
  768 238.796 0.971596 -8.83287
  769 443.593 28.4011 0.524927
  770 271.096 -0.664705 -3.68158
  771 271.141 -0.671476 3.67042
  772 172.371 2.87394 4.95485
  773 172.344 2.88456 -4.95652
  774 258.146 -30.3319 72.8959
  775 111.339 8.58497 -4.01004
  776 111.352 8.57048 4.02502
  777 2.49824 -45.7227 9.68820
  778 296.387 -37.9827 23.0936
  779 179.756 0.830336 0.858612
  780 179.729 0.831983 -0.858764
  781 236.465 0.290139 0.458975
  782 236.417 0.290505 -0.459020
  783 -1.08282 -24.0185 -14.0952
  784 1.39615 -41.2578 13.9629
  785 105.316 11.9226 15.7574
  786 105.306 11.9230 -15.6171
  787 605.089 6.33299 5.12576
  788 182.234 1.84741 -20.5376
  789 182.374 1.74189 20.5869
  790 -38.3664 1.27466 10.2256
  791 -38.4118 1.27774 -10.2361
  792 7.56266 -33.8571 3.54220
  793 4.92242 -76.7962 -4.67204
  794 416.897 53.7270 -4.94253
  795 -0.370742 -30.1775 7.34936
  796 8.07027 5.83060 17.6050
  797 8.04568 5.83037 -17.6765
  798 54.8842 11.2206 2.21223
  799 54.8567 11.2307 -2.19192
  800 278.328 -12.6678 -3.90564
  801 278.794 -12.5401 2.89602
  802 329.193 43.0891 -122.763
  803 -45.8914 0.576429 -1.90481
  804 -45.8412 0.576440 1.90497
  805 -21.1106 -0.0927568 5.46729
  806 -21.1146 -0.0936242 -5.47273
  807 19.7570 0.993598 5.99429
  808 19.3375 0.969367 -6.02770
  809 210.574 -0.911232 18.5136
  810 210.411 -0.721210 -18.4827
  811 106.726 3.22107 -0.523237
  812 106.729 3.21734 0.524175
  813 340.366 -6.39770 33.1574
  814 34.9777 5.98898 -3.67218
  815 35.0038 5.98789 3.67774
  816 32.8390 3.86959 -4.52641
  817 32.5414 4.03460 4.61478
  818 -0.185585 -23.9411 -19.0790
  819 483.778 70.7960 66.1132
  820 -70.3985 0.0930244 -2.09245
  821 -70.3400 0.0928936 2.09171
  822 -0.105260 -72.8180 7.19737
  823 4.88481 -10.9997 -17.1798
  824 -10.4640 -0.647116 4.05500
  825 -10.4591 -0.648690 -4.05603
  826 385.124 20.7344 -24.0010
  827 99.2047 10.2163 -5.03152
  828 99.2118 10.2056 5.06602
  829 264.188 -3.65034 -9.30551
  830 264.411 -3.69849 9.14562
  831 -67.1968 0.529178 2.76347
  832 -67.2535 0.529675 -2.76519
  833 -0.469646 -0.487024 -0.395554
  834 -0.470588 -0.487908 0.397115
  835 0.232538 -74.4970 -7.05845
  836 0.346764 -78.6742 -6.50059
  837 -74.4933 0.738061 0.430999
  838 -74.5518 0.738166 -0.430955
  839 39.5387 -14.5018 -42.9975
  840 163.295 2.34695 -1.40650
  841 163.317 2.34413 1.40596
  842 -6.34077 1.50446 0.550370
  843 -6.37720 1.50399 -0.550321
  844 243.568 0.871254 -5.85362
  845 243.610 0.855326 5.83785
  846 -27.7731 0.187430 5.20513
  847 -27.7836 0.187468 -5.21086
  848 146.415 -0.286708 -99.8767
  849 253.597 -21.7739 19.9160
  850 199.275 1.18855 -1.79738
  851 199.308 1.18634 1.79639
  852 251.221 -23.7089 -22.3171
  853 77.6647 9.05010 -1.06792
  854 77.6565 9.04578 1.08651
  855 107.741 7.47532 -2.99341
  856 107.749 7.46437 3.00301
  857 294.969 -6.34924 12.8599
  858 17.5396 10.5336 12.7741
  859 17.4652 10.5745 -12.7950
  860 17.6102 1.51409 1.07832
  861 17.5816 1.51308 -1.07779
  862 138.588 2.15293 1.17013
  863 138.575 2.15586 -1.17013
  864 365.405 -35.5184 39.5001
  865 228.311 1.56377 -7.63225
  866 228.357 1.53396 7.61103
  867 2.41881 3.61767 4.12457
  868 2.38290 3.61881 -4.12314
  869 229.146 -0.0381714 2.14020
  870 229.101 -0.0361309 -2.14151
  871 -43.5601 0.351014 -1.16462
  872 -43.5116 0.351324 1.16444
  873 -0.206201 -23.0782 6.54371
  874 -0.269584 -23.4394 -6.59496
  875 273.004 -4.09338 30.4432
  876 -17.0933 4.22306 15.4807
  877 -17.1438 4.23302 -15.4981
  878 -0.0959238 -38.0694 -7.24697
  879 107.782 4.38653 -1.50465
  880 107.786 4.38149 1.50672
  881 199.093 -10.1154 -33.1966
  882 200.670 -11.1952 33.5279
  883 -8.73584 -3.12952 -20.4331
  884 -8.69988 -3.13125 20.3944
  885 10.3138 9.45431 14.0584
  886 10.2520 9.47966 -14.0662
  887 0.964673 -87.6402 5.12090
  888 2.32989 7.29365 17.8302
  889 2.26092 7.31462 -17.8471
  890 183.736 -3.22183 -29.4813
  891 183.347 -3.38454 29.7186
  892 317.870 16.8355 37.2089
  893 72.3011 8.45356 0.169921
  894 72.3115 8.45710 -0.157203
  895 234.535 1.67279 -5.72826
  896 234.578 1.66003 5.71776
  897 -9.27578 -4.08423 17.8981
  898 -9.29163 -4.09891 -17.9282
  899 0.798956 -90.6367 -3.56832
  900 -14.2587 -1.00743 17.5807
  901 -14.2838 -1.00942 -17.6040
  902 8.24760 8.61295 -11.1000
  903 8.29776 8.59650 11.0982
  904 -0.723541 -5.77314 3.20286
  905 -0.731594 -5.76706 -3.20753
  906 19.2616 9.70054 -10.0522
  907 19.3142 9.68019 10.0553
  908 4.04707 -7.39244 19.0734
  909 3.50063 -6.88363 -19.9988
  910 226.818 -6.29546 18.8136
  911 226.267 -5.97155 -18.9392
  912 -75.8928 0.243664 -0.632673
  913 -75.8335 0.243700 0.632732
  914 -6.41571 -0.584763 3.04174
  915 -6.40966 -0.585707 -3.04066
  916 0.312659 -54.1756 -6.62693
  917 -6.95054 -2.99651 -8.68306
  918 -6.94884 -2.98948 8.68449
  919 -29.6331 2.47446 13.1398
  920 -29.6777 2.47960 -13.1549
  921 69.8464 13.7111 -3.49346
  922 69.7999 13.7461 3.55327
  923 298.937 23.9109 -6.21070
  924 -4.07073 6.81784 13.7602
  925 -4.12405 6.83253 -13.7693
  926 110.782 6.88753 -30.6441
  927 110.805 6.98858 31.0122
  928 -14.0251 4.79574 11.1035
  929 -14.0735 4.80482 -11.1102
  930 366.420 -19.6185 -8.35536
  931 216.385 8.63040 16.0604
  932 263.982 -3.58455 -27.5383
  933 198.528 2.98474 -12.5441
  934 198.603 2.91468 12.5357
  935 -21.9498 2.93627 -5.55896
  936 -21.9052 2.93370 5.55818
  937 -48.0470 0.884403 6.60814
  938 -48.0971 0.886302 -6.61374
  939 -2.88226 -9.27885 -10.0840
  940 -2.86301 -9.28813 10.1033
  941 69.3945 4.88460 0.0350775
  942 69.4046 4.88769 -0.0312012
  943 -22.5241 2.27646 16.2284
  944 -22.5641 2.27895 -16.2501
  945 239.147 0.0778983 2.82989
  946 239.100 0.0803461 -2.83187
  947 -1.83342 -20.4521 15.3381
  948 8.06145 7.94915 -9.57638
  949 8.10687 7.93719 9.57649
  950 11.3008 5.61835 6.39595
  951 11.2638 5.62297 -6.39362
  952 39.9649 4.09539 -1.77671
  953 39.9864 4.09641 1.77917
  954 450.081 53.7134 -8.66274
  955 -1.75098 -0.487968 -1.19449
  956 -1.75474 -0.487989 1.19670
  957 14.9148 3.92387 -12.1613
  958 15.1702 3.79339 12.1218
  959 159.758 6.77194 -13.0301
  960 159.828 6.71019 13.0577
  961 19.6059 7.04045 -6.16821
  962 19.6417 7.03453 6.17258
  963 43.3317 -14.9084 57.8133
  964 302.961 -2.08406 -2.32926
  965 302.448 -2.00423 2.03339
  966 52.6122 -7.81885 50.0523
  967 55.0460 2.74820 -0.0148584
  968 55.0302 2.74665 0.0157467
  969 145.096 -6.40778 -86.2671
  970 109.436 2.27640 0.655727
  971 109.433 2.27839 -0.655459
  972 13.6301 -15.4163 3.95690
  973 15.0646 -13.0857 -2.81973
  974 268.839 -0.213395 0.978927
  975 268.778 -0.212955 -0.979047
  976 -22.1485 0.0518100 12.9351
  977 -22.1691 0.0508404 -12.9500
  978 481.370 59.8850 25.3327
  979 -2.14411 -15.4675 -20.3186
  980 2.23272 -78.6528 7.70870
  981 -0.417172 -24.4870 18.7776
  982 277.783 -0.0987167 -3.75738
  983 277.816 -0.108673 3.73842
  984 -3.67757 -6.71886 8.70354
  985 -3.68704 -6.71816 -8.69411
  986 343.696 35.3318 -21.4941
  987 614.294 5.67725 -3.45041
  988 -0.900071 -1.33925 -1.30004
  989 -0.899142 -1.34208 1.30192
  990 160.301 2.23072 -2.77803
  991 160.323 2.22608 2.77754
  992 -2.20974 -14.8837 20.4331
  993 223.688 1.30876 11.2540
  994 223.624 1.37784 -11.2827
  995 293.632 -19.7306 -13.0162
  996 -10.3002 -2.17441 9.83600
  997 -10.3028 -2.18214 -9.84013
  998 4.61775 -19.8512 14.9331
  999 -0.504379 -36.7339 14.7327
  1000 -0.0411473 -37.7625 7.23273
  1001 297.662 19.8995 -1.66181
  1002 342.603 37.5326 12.7612
  1003 246.009 -28.8268 -39.8491
  1004 3.41231 -36.3741 12.1249
  1005 4.35548 -52.5481 3.27072
  1006 67.3525 2.02533 0.259081
  1007 67.3408 2.02371 -0.258921
  1008 -2.73831 -3.11923 -4.13632
  1009 -2.73615 -3.12022 4.13984
  1010 2.24485 -29.8726 -15.9612
  1011 198.997 0.557737 -0.659263
  1012 199.031 0.556534 0.658984
  1013 39.0471 -1.25118 -17.9954
  1014 37.3470 -1.15559 17.8229
  1015 -4.13794 6.04250 17.9166
  1016 -4.20309 6.06083 -17.9392
  1017 -24.0897 3.63464 -11.1831
  1018 -24.0410 3.62780 11.1746
  1019 150.536 2.48454 -30.1411
  1020 150.644 2.60224 30.4846
  1021 107.972 9.66820 -20.6956
  1022 107.974 9.66203 20.9109
  1023 117.519 8.93617 -6.70305
  1024 117.539 8.91409 6.72575
  1025 306.900 -9.15937 -36.1090
  1026 -8.51319 3.68904 19.5266
  1027 -8.57209 3.69709 -19.5604
  1028 217.637 0.0394544 15.3328
  1029 217.518 0.183548 -15.3494
  1030 -1.57245 -11.7410 21.4030
  1031 -17.6667 -0.606118 9.51303
  1032 -17.6743 -0.608828 -9.52228
  1033 198.127 2.14385 -15.2118
  1034 198.228 2.04535 15.2100
  1035 242.035 5.54447 -25.8459
  1036 -0.333351 -36.5685 -15.4683
  1037 -2.99289 -14.4233 18.2118
  1038 -3.11548 -14.5869 -18.0552
  1039 139.086 8.52678 -10.5848
  1040 139.134 8.48440 10.6186
  1041 176.399 3.60052 6.15753
  1042 176.367 3.61620 -6.16017
  1043 293.030 -19.2690 11.3700
  1044 13.2794 1.68195 -0.302173
  1045 13.3094 1.68272 0.302322
  1046 248.892 -32.2674 42.5462
  1047 -2.63785 1.18851 1.41597
  1048 -2.67326 1.18781 -1.41552
  1049 52.7988 13.7499 1.11630
  1050 52.7344 13.7918 -1.07853
  1051 19.5899 10.8074 11.0046
  1052 19.5303 10.8337 -11.0042
  1053 2.65916 -45.1892 -10.0719
  1054 71.0094 3.05182 -0.194305
  1055 71.0192 3.05483 0.196526
  1056 209.935 7.09099 6.59158
  1057 200.682 1.84230 5.78499
  1058 200.645 1.85614 -5.79064
  1059 -1.37022 -12.1684 -21.4370
  1060 302.192 -3.82590 -6.61136
  1061 -0.312529 -1.30447 21.4227
  1062 -0.0906540 -1.12117 -21.3334
  1063 276.339 -0.437709 -2.07049
  1064 276.393 -0.439957 2.06590
  1065 294.157 -0.933126 -3.62450
  1066 294.063 -0.972674 3.51716
  1067 -0.224968 -57.2489 5.45749
  1068 171.357 4.74868 -8.17685
  1069 171.392 4.72322 8.17565
  1070 209.200 2.19719 6.78109
  1071 209.160 2.21477 -6.78995
  1072 4.25548 4.71282 19.4423
  1073 4.23293 4.71716 -19.4556
  1074 455.472 30.9163 4.19954
  1075 -6.02018 -2.70296 21.8411
  1076 -6.10291 -2.64867 -21.8913
  1077 63.7959 12.9140 0.0474672
  1078 63.7682 12.9279 -0.0159461
  1079 -37.5769 0.796350 -2.07736
  1080 -37.5296 0.796523 2.07753
  1081 105.472 5.70755 -35.3743
  1082 105.347 6.01049 35.8350
  1083 29.7617 12.1910 8.69616
  1084 29.6960 12.2241 -8.68871
  1085 71.3495 7.77896 -25.6726
  1086 70.9878 8.14383 25.9229
  1087 -1.95477 -19.1976 -14.9387
  1088 253.356 3.15015 33.5908
  1089 178.703 -1.93613 112.481
  1090 27.9968 12.4423 8.98958
  1091 27.9179 12.4880 -8.98882
  1092 107.360 6.14304 -2.20997
  1093 107.367 6.13379 2.21603
  1094 394.162 -0.869752 12.3459
  1095 24.5772 5.90977 6.06932
  1096 24.2651 5.99403 -6.15526
  1097 -11.7362 -2.60508 13.1212
  1098 -11.7440 -2.61645 -13.1330
  1099 -0.386044 -8.62592 3.50231
  1100 -0.400969 -8.62029 -3.51616
  1101 258.752 -0.0410722 9.12196
  1102 258.684 0.0611080 -9.20279
  1103 0.274685 -18.7417 20.1122
  1104 -17.9461 1.06928 -17.6452
  1105 -17.9122 1.07016 17.6224
  1106 0.0940062 -69.5146 -7.01860
  1107 -4.24142 -5.93264 21.8033
  1108 -4.23168 -5.81374 -21.8252
  1109 247.863 0.463797 -3.84213
  1110 247.910 0.458200 3.83660
  1111 254.955 -1.72330 10.8838
  1112 254.801 -1.55966 -10.9683
  1113 43.4848 9.33267 -7.83939
  1114 43.1551 9.53305 7.93509
  1115 -0.621644 -35.8057 -12.4924
  1116 336.161 -33.6320 -65.0262
  1117 436.316 53.6244 -0.366972
  1118 4.34233 -55.4985 -1.66194
  1119 14.9749 8.66213 -14.4807
  1120 15.0618 8.61079 14.4212
  1121 40.5885 13.4052 4.48017
  1122 40.4978 13.4642 -4.46040
  1123 86.9128 5.59156 0.591798
  1124 86.9156 5.59737 -0.586415
  1125 -5.70506 -8.12625 17.0108
  1126 -5.69609 -8.20104 -17.0350
  1127 -16.6484 5.00485 14.3064
  1128 -16.6991 5.01544 -14.3196
  1129 -6.25937 6.27974 16.6014
  1130 -6.31819 6.29579 -16.6192
  1131 242.702 -12.3515 -18.3336
  1132 244.296 -12.4746 18.1543
  1133 0.196198 -41.3873 -14.7547
  1134 128.448 -0.744248 -44.6980
  1135 128.678 -0.333125 45.4874
  1136 40.4090 12.4300 -4.86701
  1137 40.4548 12.4064 4.88474
  1138 130.565 53.5940 126.022
  1139 31.3837 10.0575 6.53307
  1140 31.3438 10.0702 -6.52311
  1141 332.222 -37.7242 -14.3723
  1142 124.505 3.86646 1.85207
  1143 124.495 3.87293 -1.85058
  1144 -5.68018 -5.07293 10.3572
  1145 -5.68312 -5.08423 -10.3527
  1146 -6.79709 -6.11007 13.4282
  1147 -6.79585 -6.13318 -13.4282
  1148 216.869 -22.9796 -63.3804
  1149 221.425 -25.2268 63.8673
  1150 37.8010 1.80347 0.341185
  1151 37.8227 1.80482 -0.340253
  1152 135.475 6.42337 -24.3047
  1153 135.499 6.33380 24.5650
  1154 298.213 -41.1650 48.0708
  1155 266.814 -0.521780 0.574108
  1156 266.753 -0.521401 -0.573983
  1157 -24.3258 3.76800 12.7557
  1158 -24.3748 3.77527 -12.7673
  1159 -41.5453 1.32925 -6.74473
  1160 -41.4950 1.32723 6.74158
  1161 66.9165 -2.06600 74.7291
  1162 202.812 13.9239 -13.3532
  1163 123.908 9.21032 -11.6918
  1164 123.954 9.17569 11.7605
  1165 389.219 -14.9552 69.7803
  1166 125.903 8.77905 -17.5818
  1167 125.961 8.72629 17.7016
  1168 30.5395 4.35518 -2.54624
  1169 30.5650 4.35570 2.54900
  1170 10.7350 -42.7589 6.31006
  1171 10.8654 -41.7732 -9.20965
  1172 171.060 -12.7664 -63.9218
  1173 173.480 -11.9788 63.9083
  1174 66.2764 10.6321 -17.6059
  1175 66.0028 10.8661 17.8095
  1176 302.706 -20.7598 -23.7303
  1177 -11.2625 -1.02774 19.8846
  1178 -11.2976 -1.02657 -19.9133
  1179 -0.303958 -16.7661 -20.6502
  1180 76.0890 0.879969 -46.7573
  1181 76.2772 1.13729 47.6059
  1182 -0.196237 -15.3221 3.91231
  1183 -0.167359 -15.3587 -3.95973
  1184 -73.4835 0.625227 -1.96106
  1185 -73.4243 0.624899 1.96011
  1186 242.042 0.0612654 -1.04110
  1187 242.092 0.0603371 1.04042
  1188 148.185 5.88054 -6.84160
  1189 148.218 5.85526 6.84904
  1190 -5.71778 -0.218109 21.8922
  1191 -5.73496 -0.132204 -21.9324
  1192 0.0286591 -61.9008 -6.08913
  1193 -62.2700 0.153435 3.12788
  1194 -62.3212 0.153824 -3.13096
  1195 46.9107 -2.62794 -32.3435
  1196 46.5488 -2.33237 33.4207
  1197 281.460 -17.2839 -0.141329
  1198 79.1911 4.15514 -41.9563
  1199 79.2564 4.39982 42.4085
  1200 -34.4097 0.182253 4.74038
  1201 -34.4268 0.182129 -4.74601
  1202 0.881251 -54.6773 -10.5104
  1203 -11.3128 2.31666 -2.73623
  1204 -11.2738 2.31656 2.73689
  1205 41.4216 10.5857 4.95875
  1206 41.3845 10.5983 -4.94395
  1207 158.014 1.24773 -0.929136
  1208 158.034 1.24580 0.929147
  1209 213.913 1.30149 4.40504
  1210 213.874 1.31002 -4.40975
  1211 11.3176 -2.12247 12.5121
  1212 11.1480 -2.31743 -12.7165
  1213 1.89347 -31.5925 15.9049
  1214 382.883 51.2777 16.8033
  1215 -11.8217 -0.937927 7.45621
  1216 -11.8221 -0.941739 -7.45965
  1217 1.48784 -29.5776 -16.5842
  1218 -1.14292 -17.9850 10.9269
  1219 -1.08345 -17.8298 -11.3240
  1220 303.634 -3.28494 5.88048
  1221 0.274880 -70.9165 6.24767
  1222 2.08448 -21.8165 -18.4875
  1223 34.9270 1.45266 0.423016
  1224 34.9043 1.45147 -0.422918
  1225 -3.07598 -13.0053 20.0751
  1226 -34.3170 1.97884 -5.77328
  1227 -34.2687 1.97704 5.77173
  1228 625.683 11.0314 17.4762
  1229 -17.8307 1.99084 17.8795
  1230 -17.8709 1.99188 -17.9041
  1231 144.916 6.04453 -21.9888
  1232 145.053 5.92861 22.1259
  1233 9.20082 -15.2132 -8.49814
  1234 138.069 7.50817 -8.65603
  1235 138.107 7.47424 8.67834
  1236 5.58043 -44.1485 -3.11645
  1237 -3.08429 -13.0275 -20.0360
  1238 -24.4850 1.08374 3.51044
  1239 -24.5287 1.08377 -3.51026
  1240 -10.8536 0.688833 -20.3869
  1241 -10.8112 0.690167 20.3601
  1242 294.516 23.3943 26.6126
  1243 167.954 2.15449 -23.4462
  1244 168.162 2.09166 23.5056
  1245 -77.1764 0.200583 -0.750456
  1246 -77.1161 0.200556 0.750462
  1247 151.680 4.10201 -4.66233
  1248 151.701 4.09143 4.66289
  1249 -79.4450 -1.31914 -0.204953
  1250 -79.5047 -1.31960 0.205042
  1251 226.449 -16.2139 -26.8330
  1252 -36.1298 0.603126 10.0883
  1253 -36.1641 0.603826 -10.1008
  1254 228.782 -17.1115 26.5886
  1255 154.155 6.06121 -9.57739
  1256 154.196 6.02409 9.58777
  1257 17.8220 -46.4871 -32.1395
  1258 0.323763 -50.0021 -12.6708
  1259 -1.08981 -21.0739 18.8345
  1260 490.391 76.7019 -65.6821
  1261 -0.124205 -46.7844 12.3133
  1262 509.576 47.9267 -29.3967
  1263 -0.253665 -86.5938 -5.91688
  1264 23.2226 2.72420 -1.01094
  1265 23.2496 2.72507 1.01239
  1266 -0.218603 -19.6857 4.10155
  1267 -0.177151 -19.7893 -4.08933
  1268 85.3602 2.55847 -0.0795093
  1269 85.3656 2.56069 0.0800602
  1270 306.250 -23.7884 22.6172
  1271 5.00287 2.52427 -3.17268
  1272 5.03658 2.52433 3.17371
  1273 1.77087 -95.8325 3.11033
  1274 1.12428 -101.909 -3.06604
  1275 281.673 -35.7915 -28.4944
  1276 -0.790207 -25.7504 12.1012
  1277 292.789 18.3163 -33.2193
  1278 -0.881996 -33.9374 11.9075
  1279 0.579414 -93.4286 -4.64800
  1280 141.323 4.46997 -5.01226
  1281 141.345 4.45255 5.01652
  1282 -0.101025 -50.4410 5.38009
  1283 -0.134897 -42.0318 -12.1553
  1284 675.950 114.701 100.073
  1285 268.082 0.238629 0.446630
  1286 268.020 0.238586 -0.446455
  1287 6.72063 0.168200 17.7636
  1288 6.50248 0.454450 -17.8381
  1289 -4.47273 3.74007 20.6566
  1290 -4.56573 3.74905 -20.6972
  1291 283.446 -5.38488 -19.6029
  1292 263.399 -10.9540 -10.3175
  1293 263.112 -12.4889 10.3927
  1294 38.2441 4.90695 2.62549
  1295 38.2208 4.90627 -2.62122
  1296 -43.8108 1.18166 -7.96759
  1297 -43.7626 1.17927 7.95985
  1298 293.888 -41.5765 -40.7461
  1299 -2.20525 -5.31369 5.41039
  1300 -2.21352 -5.30928 -5.40763
  1301 309.508 -13.8451 34.0549
  1302 -3.29249 -12.3431 14.6947
  1303 -3.25679 -12.3881 -14.6272
  1304 -28.6003 1.95580 4.17262
  1305 -28.6459 1.95674 -4.17283
  1306 45.9885 4.47872 -16.2438
  1307 45.5179 4.75117 16.2444
  1308 72.3987 2.43213 0.449876
  1309 72.3889 2.42989 -0.449147
  1310 -30.4650 3.02214 12.5455
  1311 -30.5117 3.02760 -12.5581
  1312 251.294 0.779026 0.694457
  1313 251.239 0.778892 -0.694244
  1314 136.906 -2.57496 85.4744
  1315 204.641 0.755019 1.55255
  1316 204.605 0.756463 -1.55300
  1317 134.677 2.77246 -33.9938
  1318 134.719 2.61019 34.3132
  1319 1.27279 -55.3773 -7.80363
  1320 51.6887 12.2839 -6.31291
  1321 51.4718 12.4362 6.41340
  1322 -0.500040 -0.465468 -0.664944
  1323 -0.502549 -0.465653 0.666877
  1324 174.396 5.68569 12.5520
  1325 174.330 5.75003 -12.5437
  1326 85.9013 7.46506 1.44060
  1327 85.9041 7.47186 -1.42982
  1328 127.197 7.56987 -5.74943
  1329 127.220 7.54847 5.76336
  1330 167.440 1.37972 -1.55329
  1331 167.463 1.37771 1.55315
  1332 -5.34648 -2.59928 -6.11298
  1333 -5.34589 -2.59651 6.11641
  1334 -52.0643 0.133991 2.48094
  1335 -52.1168 0.134060 -2.48111
  1336 -9.16878 -4.23473 -15.0291
  1337 -9.16283 -4.21429 15.0148
  1338 -30.2806 0.618372 1.05887
  1339 -30.3249 0.617935 -1.05875
  1340 -80.2318 0.751344 0.431188
  1341 -80.2921 0.751485 -0.431140
  1342 316.514 -41.3891 55.9385
  1343 225.817 -1.53135 -27.2348
</Section>

newXOutput 38

<Section columns = "stress_xx | stress_yy | stress_xy">
  1 283.628 -0.350772 0.277943
  2 283.696 -0.350985 -0.278079
  3 -88.9995 0.448611 -1.20445
  4 0.143298 0.0387439 0.252765
  5 519.152 140.286 164.994
  6 586.664 159.453 -158.054
  7 0.142726 0.0382114 -0.252007
  8 -88.9342 0.448549 1.20411
  9 282.753 -0.327470 -0.933293
  10 282.963 -0.802092 -1.52380
  11 285.643 -0.787389 -0.395340
  12 285.899 -0.736811 -1.76816
  13 286.544 -0.714201 -0.524511
  14 292.568 -0.697464 -0.737701
  15 294.608 -1.04345 -2.36889
  16 296.760 -0.462490 -1.60787
  17 298.072 0.226239 -3.10591
  18 310.250 -1.61995 -2.66188
  19 315.411 -1.22749 -3.44467
  20 321.053 -1.91123 -1.28042
  21 323.659 -2.57974 -0.708842
  22 320.948 -3.01403 4.38005
  23 309.415 -3.41210 9.11882
  24 282.806 -3.91936 19.3460
  25 240.197 2.05151 22.4639
  26 204.739 2.41981 21.0356
  27 155.770 5.40449 12.7651
  28 166.018 5.26302 1.02735
  29 137.643 15.8592 -8.19291
  30 193.709 7.18819 -22.7259
  31 224.968 1.66165 -18.6370
  32 276.897 -0.906959 -16.1226
  33 305.580 -4.13967 -10.8998
  34 320.360 -3.51623 -4.36701
  35 322.951 -2.49399 0.720433
  36 320.561 -1.88461 1.18751
  37 315.196 -1.23638 3.33508
  38 310.163 -1.64260 2.59783
  39 298.080 0.213073 3.07416
  40 296.800 -0.467461 1.59556
  41 294.667 -1.04650 2.36422
  42 292.633 -0.699039 0.735412
  43 286.611 -0.715126 0.523505
  44 285.967 -0.737635 1.76852
  45 285.712 -0.787974 0.395359
  46 283.032 -0.802548 1.52448
  47 282.821 -0.327670 0.933716
  48 267.162 0.844503 -0.343010
  49 247.053 0.499063 -0.781134
  50 221.976 -0.451074 -0.812305
  51 196.038 1.11476 -0.675743
  52 173.380 0.969831 -0.541414
  53 149.187 1.76103 -0.643745
  54 125.360 2.98968 -0.406832
  55 100.678 2.70829 -0.816326
  56 80.2430 1.98706 -1.13076
  57 53.4735 1.35854 -1.19123
  58 26.3211 1.84273 -0.904215
  59 3.68081 1.51371 -0.873703
  60 -24.5307 0.918425 -0.804818
  61 -45.5032 -0.130710 -1.91680
  62 -65.8069 -1.32290 -0.882033
  63 -86.3687 0.201925 0.571160
  64 -90.7744 1.56064 -0.248687
  65 -91.0402 0.700996 0.233761
  66 -87.9906 0.364759 -0.141537
  67 -88.8261 1.01158 -1.12341
  68 -87.3567 1.22284 -0.155530
  69 -82.5701 0.386952 -1.71156
  70 -83.3844 0.751954 -1.83358
  71 -81.2107 0.715945 -1.05465
  72 -75.1335 0.456046 -1.56812
  73 -72.2168 0.801082 -2.55359
  74 -67.7651 0.890543 -2.11224
  75 -59.9015 0.456400 -3.60206
  76 -55.4699 0.140305 -3.01218
  77 -47.5441 0.201949 -3.46245
  78 -40.7022 0.146181 -3.81717
  79 -34.7670 0.0467923 -3.01204
  80 -26.5639 0.173414 -3.03143
  81 -19.5038 -0.0819838 -3.23627
  82 -12.6760 -0.357037 -2.83108
  83 -7.27597 -0.312016 -2.16284
  84 -3.56069 -0.541850 -1.80240
  85 -0.570592 -0.312855 -0.637042
  86 0.0580665 -0.344516 -0.222737
  87 -0.186807 -0.169133 -0.0353380
  88 -0.489318 -0.448185 -0.557043
  89 -0.474567 -3.00776 -1.56339
  90 -0.407497 -6.77256 -2.23818
  91 -0.212770 -11.6055 -3.27014
  92 -0.112183 -17.8458 -2.82171
  93 -0.0996817 -23.6066 -3.55309
  94 -0.439024 -30.6690 -4.01864
  95 -0.179098 -39.3683 -4.06792
  96 0.0839032 -48.1339 -3.90201
  97 0.191059 -57.5395 -3.85479
  98 0.290351 -67.2231 -3.79941
  99 0.0289255 -74.4115 -5.15039
  100 0.509883 -84.5661 -4.61616
  101 0.618254 -96.4843 -3.72012
  102 -0.00853924 -101.911 -4.94568
  103 0.876099 -110.781 -4.61255
  104 2.12488 -122.616 -2.34710
  105 4.13556 -126.131 -3.71997
  106 2.83252 -116.466 2.45002
  107 3.96974 -89.5969 11.2858
  108 21.8742 -54.9381 34.3390
  109 69.6572 88.2450 121.084
  110 801.317 42.1104 78.5202
  111 687.009 12.8948 28.6838
  112 664.851 4.90297 6.43873
  113 660.219 1.83221 -1.06920
  114 664.605 7.44791 -15.1534
  115 685.043 23.2277 -33.8268
  116 778.932 82.5459 -99.5492
  117 165.732 68.2224 -148.018
  118 36.3323 -54.1372 -42.2933
  119 10.6340 -97.9986 -15.4165
  120 2.91392 -110.462 -2.69710
  121 3.31745 -121.491 2.17297
  122 0.956183 -117.882 1.83494
  123 0.357701 -108.014 3.96027
  124 0.379674 -101.513 3.14742
  125 0.530523 -91.2614 5.24163
  126 -0.0265064 -85.2987 5.06809
  127 0.210548 -76.9872 3.65571
  128 0.403774 -66.4067 4.61868
  129 0.0756001 -58.8647 3.66289
  130 0.119841 -48.2054 4.62394
  131 -0.481315 -39.8391 3.96981
  132 -0.340444 -30.6962 3.89481
  133 -0.0720921 -23.4788 3.56279
  134 -0.144501 -17.7440 2.82783
  135 -0.208175 -11.5717 3.23870
  136 -0.401750 -6.76780 2.22712
  137 -0.472080 -3.01225 1.56226
  138 -0.488729 -0.452850 0.558110
  139 -0.186789 -0.171168 0.0366882
  140 0.0556155 -0.344859 0.223989
  141 -0.575283 -0.312722 0.638680
  142 -3.56804 -0.541408 1.80416
  143 -7.28601 -0.311107 2.16350
  144 -12.6845 -0.355912 2.83015
  145 -19.5072 -0.0810538 3.23333
  146 -26.5611 0.173595 3.02795
  147 -34.7555 0.0471858 3.00841
  148 -40.6829 0.146607 3.81307
  149 -47.5144 0.201850 3.45822
  150 -55.4311 0.140157 3.00829
  151 -59.8566 0.456056 3.59836
  152 -67.7124 0.890016 2.10948
  153 -72.1599 0.800523 2.55143
  154 -75.0730 0.455690 1.56687
  155 -81.1469 0.715579 1.05395
  156 -83.3194 0.751638 1.83286
  157 -82.5053 0.386815 1.71106
  158 -87.2906 1.22246 0.155618
  159 -88.7597 1.01130 1.12321
  160 -87.9249 0.364705 0.141641
  161 -90.9738 0.700838 -0.233569
  162 -90.7084 1.56023 0.248712
  163 -86.3042 0.201925 -0.570935
  164 -65.7491 -1.32229 0.881826
  165 -45.4520 -0.130250 1.91629
  166 -24.4864 0.918841 0.804691
  167 3.71561 1.51428 0.873539
  168 26.3482 1.84361 0.904043
  169 53.4913 1.36002 1.19099
  170 80.2514 1.98869 1.13049
  171 100.679 2.70995 0.816127
  172 125.353 2.99128 0.406645
  173 149.171 1.76278 0.643401
  174 173.356 0.971473 0.541029
  175 196.006 1.11578 0.675222
  176 221.934 -0.450025 0.811717
  177 247.000 0.499203 0.780681
  178 267.101 0.844269 0.342811
  179 73.2002 13.2165 -2.22198
  180 73.1666 13.2343 2.26974
  181 -1.73149 1.97625 21.5921
  182 -1.80921 1.96705 -21.5980
  183 168.155 -2.40650 -36.9050
  184 168.065 -2.74136 37.3126
  185 33.0233 7.24573 -0.559381
  186 32.6291 7.39669 0.580829
  187 23.4607 4.57332 -3.67899
  188 23.4912 4.57251 3.68184
  189 159.640 3.53202 -5.26692
  190 159.666 3.51752 5.26819
  191 -3.64247 6.54696 12.0001
  192 -3.69391 6.55944 -12.0061
  193 185.561 5.16970 -13.8588
  194 185.649 5.09246 13.8713
  195 -7.31345 -6.38657 16.8500
  196 -7.31038 -6.42273 -16.8694
  197 1.53010 -15.4990 -20.4194
  198 56.9864 2.03074 -33.3169
  199 1.90678 -16.5575 19.9575
  200 56.0684 2.50738 33.8902
  201 263.392 -36.4034 -53.7308
  202 272.773 -37.8502 51.4671
  203 93.8232 3.62100 -0.619627
  204 93.8205 3.61721 0.621637
  205 -16.3849 1.26574 -2.44401
  206 -16.3428 1.26608 2.44426
  207 -21.4612 3.19712 16.5128
  208 -21.5087 3.20376 -16.5345
  209 94.2716 9.16367 -2.18885
  210 94.2725 9.15634 2.20404
  211 28.3231 12.0297 8.69113
  212 28.2151 12.1032 -8.70761
  213 -27.8911 2.99900 -7.02251
  214 -27.8419 2.99580 7.02003
  215 213.107 0.683948 2.56689
  216 213.068 0.687349 -2.56843
  217 6.63827 -29.2687 9.17366
  218 7.22114 -26.6047 -8.23707
  219 -2.04446 -18.0081 19.0624
  220 -2.08474 -18.6844 -18.4541
  221 86.9956 12.7171 -14.1795
  222 86.9263 12.7750 14.3445
  223 -19.1906 -0.115791 16.4928
  224 -19.2177 -0.117644 -16.5135
  225 227.997 1.66115 -7.69218
  226 228.042 1.63885 7.67827
  227 245.052 -3.28935 -15.0979
  228 245.236 -3.54604 15.0173
  229 390.368 30.3522 -0.356950
  230 358.116 39.4116 23.6558
  231 354.171 -4.28871 -34.0671
  232 42.3215 9.92509 4.74847
  233 42.2886 9.93432 -4.73631
  234 2.40837 7.92189 16.7781
  235 2.34129 7.94559 -16.7935
  236 273.688 -16.5866 -9.64085
  237 272.080 -16.7968 10.5093
  238 150.941 1.79379 -1.87762
  239 150.958 1.78977 1.87759
  240 -34.2964 2.41050 11.0782
  241 -34.3462 2.41546 -11.0886
  242 -4.64700 -4.57607 -7.53688
  243 -4.64322 -4.57368 7.54210
  244 -38.4546 1.02621 3.61801
  245 -38.5049 1.02657 -3.61829
  246 123.653 9.69977 -8.93926
  247 123.681 9.67143 8.97628
  248 157.589 5.06092 -20.8802
  249 157.723 4.96711 20.9739
  250 37.0938 2.78488 -0.431948
  251 37.1173 2.78600 0.433116
  252 90.5374 -1.10169 -73.5919
  253 107.383 1.66401 80.4763
  254 11.8644 5.35078 16.1289
  255 11.8111 5.47508 -16.1874
  256 373.366 -30.5869 -5.25707
  257 31.4969 12.3238 7.52954
  258 31.4407 12.3507 -7.51887
  259 88.6692 9.28294 -27.1235
  260 88.5105 9.52539 27.4468
  261 416.399 57.4278 -6.32940
  262 247.267 0.439017 10.4137
  263 247.199 0.519440 -10.4607
  264 -2.25505 -13.8528 -11.8593
  265 -2.19297 -13.9094 11.9072
  266 -0.510378 -33.0507 -16.4290
  267 1.04245 -38.8770 -15.3517
  268 0.539849 -38.7759 15.9945
  269 -6.32450 -5.51084 21.7829
  270 -6.34937 -5.49969 -21.8632
  271 12.9184 -31.8908 -4.52185
  272 13.8846 -29.5162 6.68599
  273 -14.2954 -1.21832 10.4205
  274 -14.3017 -1.22355 -10.4291
  275 175.221 5.31250 -8.55090
  276 175.266 5.27927 8.55172
  277 307.605 -32.3017 -1.16478
  278 66.9541 6.17032 -0.586575
  279 66.9668 6.17281 0.592113
  280 -0.832761 -30.9955 15.6926
  281 5.58396 6.47287 7.89261
  282 5.54109 6.48047 -7.89186
  283 490.781 34.6455 -12.2702
  284 240.171 0.413202 3.17027
  285 240.124 0.418119 -3.17433
  286 159.654 -8.17971 -55.7241
  287 161.108 -8.04493 56.6229
  288 307.188 -30.5959 -3.90868
  289 -29.3796 0.890969 13.0636
  290 -29.4124 0.891553 -13.0802
  291 301.280 -26.5819 91.6460
  292 -13.2482 2.08470 19.8596
  293 -13.2932 2.08355 -19.8887
  294 50.0050 13.7867 -2.87327
  295 49.8157 13.9198 2.94287
  296 -54.5565 0.508059 0.668817
  297 -54.6108 0.507932 -0.668729
  298 253.565 2.34045 -125.354
  299 -50.6569 1.04800 -6.02256
  300 -50.6027 1.04616 6.01844
  301 -1.61544 -6.56466 22.3512
  302 -0.881382 -6.42101 -22.1517
  303 110.549 11.5951 -13.0132
  304 110.566 11.5819 13.1079
  305 23.1841 3.16438 2.75684
  306 23.1551 3.16387 -2.75539
  307 115.325 4.91741 -2.51480
  308 115.332 4.90976 2.51838
  309 10.6146 -8.92021 12.1777
  310 9.67091 -10.5782 -12.2954
  311 111.936 2.43951 -0.567757
  312 111.939 2.43690 0.568177
  313 -41.3832 1.07535 9.61620
  314 -41.4254 1.07711 -9.62779
  315 27.6160 -3.55648 -5.83644
  316 26.7759 -3.58519 5.10591
  317 250.760 -0.0123611 0.882234
  318 250.706 -0.0117621 -0.882364
  319 549.258 31.5782 20.9137
  320 55.4700 7.86360 2.09044
  321 55.4502 7.86404 -2.08101
  322 -12.9769 2.89620 5.00384
  323 -13.0202 2.89805 -5.00374
  324 76.7743 10.8481 -1.27329
  325 76.7604 10.8480 1.30031
  326 8.58896 7.93121 17.4572
  327 8.53322 7.95161 -17.4896
  328 1.14237 -55.9688 11.3401
  329 -56.3625 0.184922 -1.49204
  330 -56.3072 0.185101 1.49206
  331 190.735 0.904197 -1.66963
  332 190.765 0.902071 1.66915
  333 200.892 1.72473 -4.42941
  334 200.928 1.71500 4.42576
  335 -52.3457 0.946679 -4.41872
  336 -52.2905 0.945811 4.41727
  337 -2.16905 1.18190 0.618164
  338 -2.20590 1.18128 -0.617850
  339 -1.16786 -22.8187 11.8538
  340 -0.930572 -23.7324 -11.8379
  341 225.531 -19.0078 -37.4772
  342 234.397 -22.7145 36.7599
  343 133.591 6.97043 -5.49041
  344 133.611 6.95233 5.49914
  345 58.2268 13.9218 -1.16206
  346 58.1363 13.9804 1.21711
  347 -21.5223 4.07745 9.92081
  348 -21.5719 4.08415 -9.92670
  349 422.701 5.36370 8.34715
  350 21.8173 -34.6990 -23.6687
  351 23.3367 -32.5736 24.8637
  352 -9.46752 6.45657 15.7510
  353 -9.52388 6.47092 -15.7663
  354 -11.7838 -2.43508 19.2533
  355 -11.8107 -2.43933 -19.2837
  356 478.514 78.5777 -20.1225
  357 305.277 -5.04901 40.7963
  358 286.389 -6.58567 -6.65587
  359 286.092 -6.43370 6.16569
  360 199.813 -2.15609 -23.8212
  361 199.593 -2.36965 23.8240
  362 0.370106 -67.4071 -9.21758
  363 262.552 0.820959 -5.86406
  364 262.592 0.797967 5.83861
  365 3.34936 -63.6725 7.42218
  366 300.564 23.4150 -22.6186
  367 73.1229 2.90103 0.999876
  368 73.1120 2.89944 -0.999693
  369 201.122 1.77701 -17.6980
  370 201.258 1.66148 17.7119
  371 217.251 2.10534 -10.7737
  372 217.309 2.05416 10.7546
  373 -5.12125 2.59460 3.42869
  374 -5.16060 2.59502 -3.42788
  375 123.618 6.86251 -28.0666
  376 123.670 6.93342 28.3429
  377 258.503 0.0366303 1.44861
  378 258.447 0.0378006 -1.44952
  379 145.116 8.32732 -14.0500
  380 145.180 8.27012 14.1042
  381 168.236 3.01067 3.56346
  382 168.212 3.01770 -3.56421
  383 -8.05891 -1.46548 6.40707
  384 -8.05772 -1.46908 -6.40669
  385 -1.90842 -1.35828 -1.85086
  386 -1.90939 -1.35907 1.85375
  387 344.105 -44.2849 22.9839
  388 -4.54873 -10.9151 17.5643
  389 -4.51901 -11.0051 -17.5633
  390 54.8940 3.95924 -1.39158
  391 54.9113 3.96124 1.39423
  392 -1.71544 -8.54957 6.43104
  393 -1.73453 -8.53492 -6.43146
  394 20.6597 9.83179 8.68588
  395 20.6125 9.84779 -8.68139
  396 281.425 -1.00892 7.71618
  397 281.372 -0.900659 -7.86680
  398 -0.778582 -16.9627 21.2614
  399 -23.1564 -0.435497 9.88885
  400 -23.1705 -0.437320 -9.90009
  401 -0.867425 -17.8980 -21.0205
  402 264.426 0.240681 3.73097
  403 264.377 0.247560 -3.73972
  404 -2.88840 5.71839 19.7140
  405 -2.96827 5.73842 -19.7427
  406 194.663 3.25008 -7.10086
  407 194.702 3.22970 7.09501
  408 299.436 -12.8783 -7.18990
  409 300.528 -10.3531 5.47820
  410 -0.627941 -31.1185 -13.0093
  411 26.2717 9.64645 -6.51255
  412 26.4888 9.53197 6.49278
  413 294.985 19.4566 14.2094
  414 168.596 -9.99081 -77.3748
  415 173.200 -13.1691 81.0839
  416 9.38708 9.29177 13.0142
  417 9.32878 9.31304 -13.0191
  418 124.195 3.81190 -1.71977
  419 124.203 3.80704 1.72083
  420 120.531 16.5292 123.370
  421 49.3125 11.9390 -3.66184
  422 49.3531 11.9212 3.68304
  423 2.98744 -30.1008 14.5930
  424 -0.379957 -50.6446 -11.3440
  425 19.2180 11.3206 12.2379
  426 19.1478 11.3538 -12.2445
  427 23.6209 6.77462 -5.37627
  428 23.6549 6.77027 5.38066
  429 -8.68448 -0.550001 -21.7868
  430 -8.64002 -0.562087 21.7544
  431 59.2199 11.5571 -10.5429
  432 58.9717 11.7397 10.6810
  433 300.130 -9.91060 -30.7142
  434 8.16693 -3.39897 17.1967
  435 7.88989 -3.31113 -17.2922
  436 218.427 -9.30816 -26.3310
  437 219.365 -9.99198 26.2769
  438 -55.1719 0.456911 -5.82415
  439 -55.1201 0.455552 5.81847
  440 0.00488800 -49.6751 10.1895
  441 -0.362680 -31.5210 11.5767
  442 -22.5069 1.40972 16.7293
  443 -22.5424 1.40981 -16.7512
  444 156.541 1.71099 -0.656693
  445 156.559 1.70866 0.656392
  446 -4.74096 -7.48372 11.9001
  447 -4.74804 -7.49989 -11.8864
  448 96.7798 4.53351 -40.9601
  449 96.6035 4.99015 41.4645
  450 0.807840 -60.4135 -11.3389
  451 548.430 20.0129 0.523895
  452 1.48863 -71.8221 -6.79782
  453 -65.5862 0.0404517 -2.16943
  454 -65.5274 0.0405066 2.16914
  455 -25.3128 3.51145 13.7891
  456 -25.3630 3.51892 -13.8042
  457 -29.1329 0.408517 9.94741
  458 -29.1544 0.408569 -9.95917
  459 106.066 11.2554 -8.65111
  460 106.077 11.2468 8.70937
  461 161.226 6.77439 -10.8798
  462 161.282 6.72596 10.8977
  463 -2.87210 -10.3274 21.9554
  464 -2.87548 -10.2587 -22.0457
  465 279.034 4.31333 -38.7936
  466 18.7713 -5.57055 -3.99476
  467 18.1204 -5.72745 4.32810
  468 4.36199 -65.2071 -0.181123
  469 2.76926 -75.4958 -1.79706
  470 -8.61070 -3.87018 12.2551
  471 -8.61338 -3.88361 -12.2592
  472 58.9183 -8.02952 -63.3786
  473 432.549 -2.75534 -40.3345
  474 96.5568 6.62810 2.24181
  475 96.5561 6.63566 -2.23334
  476 140.591 1.28465 -39.5808
  477 140.936 1.23915 40.2075
  478 40.7464 14.4742 5.16299
  479 40.6739 14.5202 -5.14441
  480 126.894 9.63960 -20.5091
  481 126.962 9.58423 20.6733
  482 4.33784 2.30547 20.1473
  483 4.61886 2.44709 -20.1221
  484 -58.0369 0.880335 -4.34628
  485 -57.9802 0.879509 4.34406
  486 281.487 -33.2545 -20.8735
  487 224.196 0.349091 -1.22286
  488 224.239 0.348185 1.22275
  489 10.8960 1.77623 -1.51313
  490 10.9286 1.77699 1.51388
  491 -15.0054 5.25166 12.9550
  492 -15.0577 5.26214 -12.9651
  493 -33.3906 2.07055 -4.81477
  494 -33.3411 2.06904 4.81392
  495 96.5337 9.80193 -3.59217
  496 96.5362 9.79241 3.61504
  497 -12.1196 4.44827 18.0913
  498 -12.1758 4.45976 -18.1160
  499 257.845 -7.10967 -14.0014
  500 258.271 -7.48447 13.7733
  501 168.217 1.93067 -26.2824
  502 167.975 1.79952 26.5159
  503 61.9426 3.23075 -0.812377
  504 61.9573 3.23268 0.813506
  505 0.613647 -31.0730 -18.0545
  506 301.837 -11.1751 25.2486
  507 3.98741 -20.7305 -16.5485
  508 84.9352 13.7958 8.69233
  509 84.9789 13.7618 -8.59377
  510 278.399 -31.1180 20.5832
  511 20.8241 -31.0508 32.9171
  512 332.148 -44.1009 -41.6634
  513 225.895 1.17357 12.9579
  514 225.804 1.27035 -12.9834
  515 0.564456 -26.6221 18.7863
  516 -4.41657 -1.32289 -3.41585
  517 -4.41881 -1.32239 3.41856
  518 26.6009 1.70441 -0.477150
  519 26.6279 1.70544 0.477502
  520 -0.769535 -17.5764 7.59887
  521 -0.698219 -17.4934 -7.63704
  522 186.076 2.19842 2.85483
  523 186.047 2.20223 -2.85583
  524 526.766 91.2986 37.1084
  525 21.3190 -14.3176 -5.83335
  526 16.5621 -18.9639 2.37800
  527 -6.11398 4.11690 -6.60162
  528 -6.07075 4.11284 6.60132
  529 -45.5715 0.722710 5.98880
  530 -45.6067 0.723516 -5.99599
  531 0.447872 -56.5905 11.2633
  532 -64.6420 0.602136 0.638827
  533 -64.6998 0.602132 -0.638693
  534 56.7860 -5.41224 -46.3715
  535 55.5051 -4.39801 48.2275
  536 51.9267 8.77860 -15.3530
  537 51.5339 9.02331 15.4763
  538 -12.2805 -2.60998 16.8149
  539 -12.2973 -2.62012 -16.8373
  540 50.8995 4.94498 1.49351
  541 50.8803 4.94357 -1.48957
  542 -27.7046 1.35715 2.13465
  543 -27.7508 1.35719 -2.13431
  544 60.2527 9.18949 1.72667
  545 60.2321 9.19204 -1.71147
  546 -1.22888 -3.97534 2.91768
  547 -1.23303 -3.97158 -2.91703
  548 21.6803 9.34525 11.1203
  549 21.5365 9.48157 -11.1626
  550 17.5196 2.46135 9.90423
  551 17.2671 2.43698 -10.0437
  552 229.083 1.83356 5.47167
  553 229.040 1.84368 -5.47838
  554 202.282 2.98664 8.68084
  555 202.235 3.01827 -8.69027
  556 -0.208745 -47.6462 -7.05411
  557 141.062 7.46605 -8.23612
  558 141.094 7.43810 8.25235
  559 141.558 3.65220 -3.00504
  560 141.575 3.64382 3.00644
  561 -20.3202 0.830533 -0.0463951
  562 -20.2774 0.830980 0.0466476
  563 238.740 13.2261 -7.46686
  564 318.173 -41.1300 -14.5165
  565 258.772 11.7546 29.5032
  566 2.06162 -41.1998 -13.3726
  567 -14.6788 4.55104 -8.62287
  568 -14.6313 4.54528 8.62009
  569 2.13949 -23.9978 17.8514
  570 -14.2585 0.340416 19.3373
  571 -14.2939 0.339346 -19.3627
  572 405.331 39.0150 -1.41287
  573 91.6880 4.62519 -0.910257
  574 91.6850 4.62061 0.913610
  575 619.563 52.1948 -53.1114
  576 -3.21707 -2.52637 22.6554
  577 -3.01517 -2.36548 -22.6765
  578 336.295 -30.7795 14.8355
  579 271.261 0.385164 -6.53928
  580 271.294 0.347838 6.49509
  581 123.382 -0.808396 -57.6695
  582 124.889 -1.17164 58.6186
  583 -7.02591 -6.76020 19.4817
  584 -7.03182 -6.79390 -19.5298
  585 64.4569 5.02823 30.0341
  586 64.9993 4.52815 -29.7594
  587 -53.4412 0.622202 -5.65983
  588 -53.3933 0.621212 5.65370
  589 396.570 32.2004 25.3505
  590 74.6996 7.24921 -0.0304306
  591 74.7093 7.25254 0.0388319
  592 88.2762 10.9297 -20.4374
  593 88.1660 11.0638 20.6806
  594 244.822 -0.287475 -12.7218
  595 244.937 -0.417431 12.6749
  596 -1.12794 -25.0150 -17.5562
  597 267.186 -0.225369 1.95013
  598 267.128 -0.223737 -1.95164
  599 -39.6173 0.860400 -0.862766
  600 -39.5677 0.860559 0.863078
  601 -69.3043 -0.439470 0.0352176
  602 -69.3633 -0.439764 -0.0351261
  603 5.57066 -38.1677 -6.64871
  604 -2.52367 -16.1934 14.9863
  605 -2.66173 -15.3263 -15.0869
  606 -30.5141 1.86334 13.9624
  607 -30.5543 1.86636 -13.9798
  608 185.858 4.87653 10.9173
  609 185.802 4.92545 -10.9185
  610 136.557 2.10672 0.718476
  611 136.546 2.10880 -0.718395
  612 30.4704 -9.60990 18.6330
  613 31.4707 -8.95377 -18.4457
  614 -0.962470 -12.2479 6.41166
  615 -0.991469 -12.2081 -6.43279
  616 320.184 18.4225 133.464
  617 -15.7919 -0.494086 5.95047
  618 -15.7918 -0.496266 -5.95486
  619 5.51976 -23.2068 -13.4706
  620 133.506 5.66660 -4.16343
  621 133.522 5.65439 4.16786
  622 64.9088 13.8648 -6.15616
  623 64.7894 13.9484 6.25411
  624 0.648188 -85.7520 4.72545
  625 48.5121 13.6827 3.28550
  626 48.4600 13.7125 -3.26005
  627 -5.95107 5.67386 10.3526
  628 -5.99938 5.68273 -10.3564
  629 -0.381955 -42.0665 9.63802
  630 -68.8919 0.100163 -2.15403
  631 -68.8317 0.100064 2.15355
  632 87.4377 2.65591 0.145710
  633 87.4432 2.65879 -0.144559
  634 223.259 0.888098 3.60308
  635 223.217 0.893167 -3.60587
  636 196.268 -14.7872 101.903
  637 157.747 4.28550 -6.49943
  638 157.776 4.26513 6.50277
  639 2.33864 -3.58213 21.0738
  640 2.90279 -2.16472 -21.0530
  641 252.709 -26.5384 -82.3328
  642 601.293 20.8701 -22.1059
  643 -63.1441 0.0654989 -3.93404
  644 -63.0883 0.0648758 3.93087
  645 14.1582 3.51654 -3.23519
  646 14.1910 3.51615 3.23685
  647 -1.19980 -26.4573 15.4778
  648 341.726 19.4915 -36.7287
  649 264.260 -0.359916 0.328732
  650 264.200 -0.359593 -0.328697
  651 -17.0221 -0.951259 -13.8703
  652 -17.0062 -0.947261 13.8545
  653 -0.0465042 -59.8786 -9.30017
  654 268.847 -0.396150 0.747618
  655 268.786 -0.395710 -0.747658
  656 23.8331 8.59760 7.38535
  657 23.7929 8.60753 -7.37970
  658 203.526 -18.0549 -53.8297
  659 207.294 -17.9936 54.4521
  660 299.192 -1.80153 4.41674
  661 299.286 -1.77933 -4.62164
  662 1.30194 -75.7310 7.38692
  663 -17.2768 0.663558 -1.25123
  664 -17.2347 0.664082 1.25153
  665 97.4700 5.38152 -96.3936
  666 91.0277 2.40529 0.659510
  667 91.0324 2.40718 -0.659055
  668 44.2672 3.61784 0.752038
  669 44.2461 3.61644 -0.750093
  670 52.8583 6.15651 -1.24433
  671 52.8775 6.15754 1.25076
  672 173.841 5.17932 -16.8762
  673 173.950 5.08986 16.9173
  674 45.5254 13.3900 1.34645
  675 45.3936 13.4837 -1.31458
  676 -32.2034 2.41068 -8.10228
  677 -32.1527 2.40670 8.09787
  678 -37.2553 2.56116 -9.16517
  679 -37.2042 2.55691 9.15794
  680 307.154 -4.59819 -1.20280
  681 0.206528 -12.7178 -21.4267
  682 307.707 -4.82405 0.746065
  683 388.919 30.8053 0.268159
  684 -38.6251 0.177676 6.80261
  685 -38.6522 0.177714 -6.81107
  686 39.5667 11.2868 -1.40060
  687 39.2859 11.4335 1.44189
  688 -74.0574 0.0896605 -0.802988
  689 -73.9961 0.0897230 0.803043
  690 0.429776 -11.4802 21.4847
  691 -24.2631 0.310617 14.6492
  692 -24.2922 0.309943 -14.6676
  693 336.812 -28.9075 -16.1560
  694 52.2473 1.62208 -0.289225
  695 52.2292 1.62061 0.289763
  696 11.3720 5.10663 5.30298
  697 11.3355 5.10944 -5.30069
  698 177.151 -8.31769 -44.8976
  699 178.534 -8.64432 45.8012
  700 626.449 44.1062 48.5247
  701 11.7566 -59.4854 -19.4627
  702 -4.56428 -9.56611 20.8653
  703 -4.57379 -9.60249 -20.9093
  704 36.6836 8.55060 -4.19597
  705 36.7142 8.54547 4.20427
  706 276.335 -0.321692 -1.99333
  707 276.394 -0.323534 1.99047
  708 130.427 2.58572 1.18558
  709 130.417 2.58959 -1.18523
  710 10.3639 9.56784 15.6395
  711 10.2968 9.59756 -15.6554
  712 5.76376 2.65395 2.28366
  713 5.72905 2.65372 -2.28278
  714 -8.00678 1.74716 21.4418
  715 -8.06073 1.74894 -21.4804
  716 226.625 0.0602411 1.50537
  717 226.581 0.0619268 -1.50611
  718 195.756 2.02307 4.09050
  719 195.723 2.02942 -4.09251
  720 25.8459 -18.4609 22.5776
  721 26.6235 -19.6791 -21.7861
  722 -15.5162 3.26795 18.7033
  723 -15.5656 3.27301 -18.7305
  724 7.93168 -19.3010 10.7874
  725 0.319054 5.70148 19.9133
  726 0.234911 5.71942 -19.9305
  727 -44.0983 1.30167 -5.41494
  728 -44.0454 1.30007 5.41262
  729 33.4493 11.1328 6.96883
  730 33.4016 11.1513 -6.95687
  731 302.912 -9.28841 -17.2349
  732 287.008 -25.2092 -6.39467
  733 -4.67408 -9.55132 14.7294
  734 -4.66747 -9.59519 -14.7097
  735 110.530 -1.59597 -68.0935
  736 107.605 0.826508 68.8009
  737 67.0217 12.8163 -9.87429
  738 66.8595 12.9437 10.0141
  739 5.70759 -11.3901 17.4091
  740 -0.421785 -31.0873 -8.36200
  741 141.004 8.03368 -15.6371
  742 141.081 7.97792 15.7207
  743 0.375718 -61.2411 7.77751
  744 83.6939 11.9198 -3.70512
  745 83.6808 11.9210 3.74576
  746 290.075 -0.170138 -4.96087
  747 290.070 -0.207443 4.88614
  748 5.61039 -84.1522 1.29130
  749 129.754 10.0151 11.7103
  750 129.714 10.0506 -11.6582
  751 34.6848 12.2339 -4.48976
  752 34.8611 12.1066 4.48591
  753 -52.5336 0.348850 -4.76368
  754 -52.4918 0.348369 4.75783
  755 144.352 2.85434 -2.66254
  756 144.368 2.84877 2.66303
  757 88.4895 13.0352 -7.23226
  758 88.4678 13.0475 7.30517
  759 0.0992225 7.82660 15.4942
  760 0.0387311 7.84661 -15.5064
  761 287.895 -21.5405 2.91011
  762 -45.6558 1.05316 4.13728
  763 -45.7087 1.05375 -4.13807
  764 625.480 118.725 -84.1748
  765 -17.8424 1.87975 4.40115
  766 -17.8863 1.88037 -4.40105
  767 245.289 0.924450 9.05437
  768 245.239 0.971494 -9.08868
  769 455.574 29.1108 0.510181
  770 278.338 -0.693607 -3.78456
  771 278.385 -0.700527 3.77333
  772 177.080 2.91516 5.10980
  773 177.051 2.92587 -5.11134
  774 265.167 -31.0370 75.0006
  775 114.452 8.78257 -4.16701
  776 114.465 8.76812 4.18239
  777 2.57329 -46.8723 9.90267
  778 304.419 -38.9342 23.8503
  779 184.647 0.817777 0.884497
  780 184.618 0.819420 -0.884629
  781 242.806 0.277203 0.472654
  782 242.755 0.277574 -0.472683
  783 -1.10996 -24.6557 -14.4691
  784 1.43831 -42.3167 14.3071
  785 108.281 12.2372 16.2719
  786 108.271 12.2371 -16.1283
  787 620.799 6.46295 5.27363
  788 187.249 1.87203 -21.1546
  789 187.393 1.76467 21.2057
  790 -39.3593 1.30738 10.4841
  791 -39.4066 1.31054 -10.4951
  792 7.78956 -34.6603 3.56266
  793 5.06712 -78.6688 -4.86824
  794 428.197 55.2124 -5.27069
  795 -0.380269 -30.9921 7.54592
  796 8.33761 6.01317 18.0215
  797 8.31199 6.01273 -18.0956
  798 56.4760 11.5052 2.20945
  799 56.4472 11.5159 -2.18892
  800 285.866 -13.0183 -4.06665
  801 286.351 -12.8852 3.03556
  802 337.929 44.7632 -126.284
  803 -47.0283 0.583838 -1.94237
  804 -46.9757 0.583833 1.94245
  805 -21.6814 -0.0946360 5.61337
  806 -21.6857 -0.0955328 -5.61901
  807 20.3442 1.08144 6.06869
  808 19.9124 1.05665 -6.10387
  809 216.332 -0.960704 19.0669
  810 216.165 -0.766596 -19.0343
  811 109.708 3.27114 -0.557007
  812 109.711 3.26745 0.557981
  813 349.600 -6.44916 33.8360
  814 36.0332 6.12796 -3.72878
  815 36.0605 6.12665 3.73428
  816 33.7984 4.04164 -4.75549
  817 33.4922 4.21061 4.84546
  818 -0.182970 -24.5545 -19.5699
  819 496.589 73.0728 68.1687
  820 -72.2271 0.0936646 -2.14132
  821 -72.1658 0.0935306 2.14049
  822 -0.107999 -74.7475 7.38038
  823 5.04073 -11.2465 -17.5909
  824 -10.7496 -0.664111 4.16474
  825 -10.7446 -0.665735 -4.16583
  826 395.505 21.4635 -24.3827
  827 101.997 10.4646 -5.23005
  828 102.004 10.4540 5.26533
  829 271.324 -3.76972 -9.58621
  830 271.555 -3.81857 9.42336
  831 -68.9534 0.541111 2.83035
  832 -69.0127 0.541630 -2.83220
  833 -0.482879 -0.500682 -0.407066
  834 -0.483848 -0.501590 0.408674
  835 0.237477 -76.4689 -7.23559
  836 0.355443 -80.7245 -6.65253
  837 -76.3949 0.754548 0.439603
  838 -76.4563 0.754662 -0.439574
  839 40.6869 -14.6451 -44.3295
  840 167.760 2.37328 -1.45501
  841 167.783 2.37048 1.45451
  842 -6.39022 1.52710 0.561639
  843 -6.42845 1.52665 -0.561605
  844 250.116 0.872269 -6.02164
  845 250.161 0.856051 6.00580
  846 -28.5218 0.192518 5.34355
  847 -28.5328 0.192555 -5.34950
  848 150.475 -0.0724249 -102.761
  849 260.507 -22.3518 20.5432
  850 204.670 1.18942 -1.85359
  851 204.705 1.18721 1.85265
  852 258.074 -24.3356 -23.0112
  853 79.8751 9.26632 -1.15210
  854 79.8663 9.26225 1.17102
  855 110.755 7.64179 -3.11684
  856 110.763 7.63089 3.12669
  857 302.983 -6.51708 13.1484
  858 18.0836 10.8325 13.0512
  859 18.0067 10.8744 -13.0734
  860 18.2066 1.53210 1.09469
  861 18.1766 1.53112 -1.09419
  862 142.408 2.17298 1.21253
  863 142.394 2.17589 -1.21249
  864 375.188 -36.2718 40.7537
  865 234.478 1.57819 -7.85524
  866 234.527 1.54783 7.83392
  867 2.59281 3.69838 4.20481
  868 2.55519 3.69964 -4.20351
  869 235.307 -0.0620217 2.20444
  870 235.260 -0.0599492 -2.20570
  871 -44.6198 0.350764 -1.19302
  872 -44.5689 0.351074 1.19281
  873 -0.211239 -23.7033 6.71966
  874 -0.276320 -24.0744 -6.77219
  875 280.552 -4.17878 31.1618
  876 -17.5043 4.33888 15.8657
  877 -17.5567 4.34910 -15.8840
  878 -0.0982509 -39.0953 -7.44004
  879 110.793 4.46809 -1.57054
  880 110.797 4.46310 1.57268
  881 204.575 -10.3846 -34.1854
  882 206.191 -11.4924 34.5260
  883 -8.95564 -3.20193 -20.9673
  884 -8.91851 -3.20357 20.9272
  885 10.6649 9.71284 14.3808
  886 10.6009 9.73894 -14.3893
  887 0.989865 -89.9348 5.23949
  888 2.44730 7.50307 18.2607
  889 2.37595 7.52453 -18.2787
  890 188.807 -3.31591 -30.3625
  891 188.406 -3.48162 30.6067
  892 326.612 17.3728 38.0035
  893 74.3660 8.65300 0.224157
  894 74.3771 8.65631 -0.211243
  895 240.848 1.69225 -5.89404
  896 240.893 1.67929 5.88356
  897 -9.51626 -4.18603 18.3713
  898 -9.53269 -4.20119 -18.4024
  899 0.821836 -92.9741 -3.63303
  900 -14.6291 -1.02824 18.0426
  901 -14.6551 -1.03034 -18.0668
  902 8.55329 8.84033 -11.3482
  903 8.60544 8.82332 11.3459
  904 -0.742871 -5.93212 3.29045
  905 -0.751150 -5.92589 -3.29525
  906 19.8692 9.95715 -10.2649
  907 19.9238 9.93610 10.2676
  908 4.18346 -7.54985 19.5391
  909 3.62085 -7.02987 -20.4921
  910 233.009 -6.48382 19.3819
  911 232.444 -6.15235 -19.5094
  912 -77.8401 0.247085 -0.645341
  913 -77.7778 0.247120 0.645377
  914 -6.59225 -0.600310 3.12475
  915 -6.58606 -0.601285 -3.12366
  916 0.320707 -55.6307 -6.80179
  917 -7.13688 -3.07561 -8.91791
  918 -7.13505 -3.06836 8.91930
  919 -30.3914 2.54113 13.4718
  920 -30.4378 2.54640 -13.4877
  921 71.8444 14.0739 -3.66977
  922 71.7959 14.1103 3.73069
  923 307.339 24.5476 -6.30514
  924 -4.11045 6.99955 14.0871
  925 -4.16583 7.01471 -14.0969
  926 113.902 7.09451 -31.5860
  927 113.924 7.19845 31.9631
  928 -14.3292 4.91937 11.3658
  929 -14.3797 4.92876 -11.3730
  930 376.272 -19.9826 -8.36478
  931 222.676 8.87909 16.4087
  932 271.322 -3.65974 -28.1880
  933 203.945 3.03183 -12.9187
  934 204.022 2.96049 12.9106
  935 -22.4491 3.00535 -5.68055
  936 -22.4024 3.00265 5.67954
  937 -49.2898 0.905631 6.77046
  938 -49.3420 0.907589 -6.77639
  939 -2.95840 -9.52727 -10.3561
  940 -2.93856 -9.53668 10.3758
  941 71.3819 4.98524 0.0680010
  942 71.3926 4.98822 -0.0640847
  943 -23.1004 2.34110 16.6450
  944 -23.1419 2.34361 -16.6675
  945 245.564 0.0593215 2.91279
  946 245.514 0.0618084 -2.91470
  947 -1.87994 -20.9930 15.7452
  948 8.36813 8.15476 -9.78663
  949 8.41544 8.14234 9.78636
  950 11.7084 5.75431 6.52675
  951 11.6697 5.75920 -6.52462
  952 41.1605 4.18003 -1.79570
  953 41.1830 4.18094 1.79813
  954 462.094 55.4377 -9.21843
  955 -1.80027 -0.501180 -1.22791
  956 -1.80414 -0.501198 1.23018
  957 15.3687 4.07192 -12.4163
  958 15.6317 3.93830 12.3750
  959 164.165 6.92105 -13.4345
  960 164.236 6.85836 13.4631
  961 20.2378 7.21432 -6.28814
  962 20.2753 7.20807 6.29233
  963 44.5590 -14.8871 59.5464
  964 311.080 -2.14786 -2.40702
  965 310.560 -2.06572 2.10449
  966 54.1255 -7.79371 51.5857
  967 56.6500 2.79213 -0.0288272
  968 56.6334 2.79064 0.0297143
  969 149.140 -6.43993 -88.7661
  970 112.488 2.30051 0.678007
  971 112.485 2.30247 -0.677723
  972 14.0363 -15.7411 3.97649
  973 15.5134 -13.3477 -2.80561
  974 276.001 -0.226302 1.00724
  975 275.937 -0.225848 -1.00732
  976 -22.7348 0.0551241 13.2765
  977 -22.7562 0.0541022 -13.2920
  978 494.262 61.5224 26.1900
  979 -2.19342 -15.8624 -20.8486
  980 2.30675 -80.5142 8.00372
  981 -0.422636 -25.1191 19.2641
  982 285.200 -0.112244 -3.86244
  983 285.236 -0.122420 3.84325
  984 -3.77539 -6.89865 8.93918
  985 -3.78515 -6.89801 -8.92957
  986 353.145 36.3475 -21.8690
  987 630.203 5.79403 -3.54934
  988 -0.924491 -1.37701 -1.33641
  989 -0.923532 -1.37992 1.33834
  990 164.691 2.25367 -2.86788
  991 164.713 2.24903 2.86746
  992 -2.25972 -15.2622 20.9651
  993 229.751 1.31409 11.5844
  994 229.686 1.38453 -11.6132
  995 301.612 -20.2435 -13.2640
  996 -10.5761 -2.23077 10.1006
  997 -10.5789 -2.23873 -10.1049
  998 4.76253 -20.3250 15.2841
  999 -0.515404 -37.6985 15.1150
  1000 -0.0423915 -38.7808 7.42571
  1001 306.041 20.4178 -1.71431
  1002 352.061 38.5713 12.9367
  1003 252.731 -29.5610 -41.0385
  1004 3.51580 -37.2821 12.4039
  1005 4.48466 -53.8393 3.29484
  1006 69.2861 2.04758 0.261044
  1007 69.2738 2.04600 -0.260888
  1008 -2.81231 -3.20369 -4.24980
  1009 -2.81006 -3.20468 4.25339
  1010 2.31571 -30.6194 -16.3502
  1011 204.383 0.541658 -0.679929
  1012 204.418 0.540453 0.679669
  1013 40.1813 -1.18366 -18.6096
  1014 38.4332 -1.08572 18.4311
  1015 -4.19807 6.21422 18.3567
  1016 -4.26550 6.23299 -18.3804
  1017 -24.6754 3.72897 -11.4545
  1018 -24.6246 3.72191 11.4454
  1019 154.725 2.55002 -31.0498
  1020 154.834 2.67194 31.4024
  1021 111.012 9.92889 -21.3519
  1022 111.013 9.92303 21.5723
  1023 120.799 9.14376 -6.93709
  1024 120.819 9.12159 6.96042
  1025 315.301 -9.34860 -36.9198
  1026 -8.70288 3.79772 20.0183
  1027 -8.76379 3.80586 -20.0535
  1028 223.569 0.0120746 15.7881
  1029 223.446 0.159210 -15.8041
  1030 -1.60129 -12.0297 21.9537
  1031 -18.1406 -0.620829 9.76710
  1032 -18.1486 -0.623628 -9.77668
  1033 203.543 2.16961 -15.6663
  1034 203.647 2.06927 15.6651
  1035 248.923 5.72561 -26.4339
  1036 -0.338775 -37.5255 -15.8690
  1037 -3.06809 -14.7988 18.6931
  1038 -3.19400 -14.9673 -18.5327
  1039 142.945 8.72435 -10.9273
  1040 142.994 8.68148 10.9621
  1041 181.217 3.66189 6.34827
  1042 181.184 3.67774 -6.35075
  1043 300.993 -19.7701 11.5814
  1044 13.7596 1.70501 -0.306378
  1045 13.7910 1.70575 0.306517
  1046 255.683 -33.0876 43.8139
  1047 -2.58961 1.20191 1.44106
  1048 -2.62676 1.20123 -1.44066
  1049 54.3284 14.1180 1.06686
  1050 54.2616 14.1613 -1.02862
  1051 20.2024 11.0991 11.2391
  1052 20.1406 11.1262 -11.2393
  1053 2.73796 -46.3260 -10.2961
  1054 73.0401 3.10212 -0.174525
  1055 73.0505 3.10507 0.176762
  1056 216.110 7.28183 6.73633
  1057 206.127 1.85910 5.95942
  1058 206.089 1.87312 -5.96497
  1059 -1.39318 -12.4696 -21.9888
  1060 310.360 -3.93312 -6.75105
  1061 -0.292345 -1.31345 21.9607
  1062 -0.0641404 -1.12607 -21.8685
  1063 283.704 -0.456440 -2.12885
  1064 283.762 -0.458739 2.12426
  1065 302.017 -0.966680 -3.72766
  1066 301.924 -1.00713 3.61817
  1067 -0.230878 -58.7896 5.60180
  1068 176.048 4.83958 -8.42793
  1069 176.085 4.81380 8.42697
  1070 214.868 2.22533 6.98221
  1071 214.826 2.24317 -6.99099
  1072 4.41565 4.86165 19.9153
  1073 4.39210 4.86592 -19.9295
  1074 467.730 31.6917 4.35910
  1075 -6.16246 -2.75909 22.4054
  1076 -6.24786 -2.70341 -22.4572
  1077 65.6297 13.2463 -0.0203646
  1078 65.6007 13.2610 0.0523767
  1079 -38.4828 0.806981 -2.11995
  1080 -38.4333 0.807136 2.12005
  1081 108.449 5.90025 -36.4547
  1082 108.319 6.21115 36.9267
  1083 30.6547 12.5208 8.86112
  1084 30.5866 12.5551 -8.85403
  1085 73.3890 8.04347 -26.4928
  1086 73.0166 8.41786 26.7487
  1087 -2.00467 -19.7061 -15.3357
  1088 260.462 3.26412 34.3815
  1089 183.611 -1.76056 115.697
  1090 28.8366 12.7863 9.15906
  1091 28.7549 12.8333 -9.15890
  1092 110.363 6.27250 -2.30677
  1093 110.370 6.26329 2.31301
  1094 404.738 -0.680818 12.4146
  1095 25.3061 6.11540 6.14468
  1096 24.9849 6.20161 -6.23376
  1097 -12.0476 -2.67153 13.4716
  1098 -12.0557 -2.68324 -13.4838
  1099 -0.396222 -8.86291 3.59765
  1100 -0.411565 -8.85715 -3.61189
  1101 265.722 -0.0650937 9.38500
  1102 265.651 0.0393748 -9.46707
  1103 0.292405 -19.2123 20.6261
  1104 -18.4077 1.10342 -18.1034
  1105 -18.3726 1.10440 18.0797
  1106 0.0960729 -71.3641 -7.19797
  1107 -4.33880 -6.07214 22.3668
  1108 -4.32874 -5.94998 -22.3894
  1109 254.507 0.456520 -3.95282
  1110 254.557 0.450830 3.94733
  1111 261.845 -1.79391 11.2044
  1112 261.686 -1.62650 -11.2900
  1113 44.7473 9.63368 -8.16006
  1114 44.4079 9.83905 8.25754
  1115 -0.637093 -36.7584 -12.8221
  1116 345.201 -34.3116 -66.9501
  1117 448.006 55.3050 -0.0709643
  1118 4.47241 -56.8532 -1.63688
  1119 15.4398 8.91835 -14.8050
  1120 15.5295 8.86574 14.7431
  1121 41.7783 13.7739 4.52059
  1122 41.6845 13.8346 -4.50092
  1123 89.3692 5.70868 0.644038
  1124 89.3723 5.71440 -0.638553
  1125 -5.85281 -8.33666 17.4630
  1126 -5.84368 -8.41360 -17.4880
  1127 -17.0400 5.13873 14.6577
  1128 -17.0928 5.14964 -14.6717
  1129 -6.37227 6.45315 17.0070
  1130 -6.43323 6.46962 -17.0258
  1131 249.321 -12.6928 -18.8985
  1132 250.955 -12.8175 18.7162
  1133 0.204181 -42.4668 -15.1324
  1134 132.050 -0.724307 -46.0320
  1135 132.284 -0.302308 46.8413
  1136 41.6008 12.7576 -4.93075
  1137 41.6485 12.7331 4.94850
  1138 134.073 55.7052 129.607
  1139 32.3321 10.3154 6.65114
  1140 32.2905 10.3286 -6.64130
  1141 341.180 -38.6273 -14.9220
  1142 127.958 3.93305 1.92710
  1143 127.948 3.93950 -1.92552
  1144 -5.83129 -5.20709 10.6366
  1145 -5.83438 -5.21875 -10.6320
  1146 -6.97637 -6.27005 13.7880
  1147 -6.97519 -6.29386 -13.7881
  1148 222.823 -23.5323 -65.2194
  1149 227.489 -25.8392 65.7189
  1150 38.9415 1.82513 0.362206
  1151 38.9643 1.82644 -0.361276
  1152 139.258 6.59054 -25.0531
  1153 139.282 6.49924 25.3201
  1154 306.283 -42.1684 49.5060
  1155 273.920 -0.543590 0.590259
  1156 273.856 -0.543195 -0.590114
  1157 -24.9254 3.86748 13.0705
  1158 -24.9764 3.87496 -13.0828
  1159 -42.5934 1.35923 -6.90582
  1160 -42.5407 1.35713 6.90238
  1161 68.8313 -1.84697 76.9478
  1162 208.784 14.3047 -13.6491
  1163 127.369 9.43350 -12.0781
  1164 127.415 9.39862 12.1485
  1165 399.587 -15.0494 71.8705
  1166 129.422 8.99874 -18.1378
  1167 129.481 8.94533 18.2606
  1168 31.4787 4.44845 -2.58285
  1169 31.5053 4.44883 2.58556
  1170 11.0536 -43.7358 6.58083
  1171 11.1871 -42.7177 -9.56554
  1172 175.804 -13.0505 -65.7808
  1173 178.285 -12.2416 65.7641
  1174 68.1755 10.9623 -18.1986
  1175 67.8937 11.2023 18.4067
  1176 310.949 -21.2792 -24.2369
  1177 -11.5472 -1.04568 20.4028
  1178 -11.5835 -1.04455 -20.4325
  1179 -0.302104 -17.1849 -21.1789
  1180 78.2596 1.01810 -48.1778
  1181 78.4518 1.28039 49.0480
  1182 -0.201440 -15.7408 4.01818
  1183 -0.171815 -15.7784 -4.06695
  1184 -75.4055 0.640582 -2.00773
  1185 -75.3434 0.640240 2.00668
  1186 248.527 0.0435879 -1.07358
  1187 248.579 0.0426428 1.07294
  1188 152.274 6.00254 -7.06658
  1189 152.307 5.97700 7.07440
  1190 -5.84625 -0.207121 22.4528
  1191 -5.86388 -0.118840 -22.4942
  1192 0.0284402 -63.5612 -6.24885
  1193 -63.9141 0.156783 3.20619
  1194 -63.9676 0.157182 -3.20943
  1195 48.2679 -2.55692 -33.3670
  1196 47.8963 -2.25310 34.4735
  1197 289.098 -17.7481 -0.221519
  1198 81.4487 4.35319 -43.2362
  1199 81.5148 4.60237 43.6989
  1200 -35.3351 0.187447 4.86571
  1201 -35.3530 0.187315 -4.87155
  1202 0.907255 -56.0876 -10.7645
  1203 -11.5066 2.36355 -2.78902
  1204 -11.4657 2.36339 2.78958
  1205 42.6446 10.8558 5.03125
  1206 42.6059 10.8690 -5.01643
  1207 162.341 1.24424 -0.957259
  1208 162.361 1.24233 0.957291
  1209 219.694 1.30701 4.53747
  1210 219.653 1.31565 -4.54210
  1211 11.6634 -2.12527 12.7783
  1212 11.4887 -2.32604 -12.9890
  1213 1.95434 -32.3917 16.2962
  1214 393.288 52.7773 16.9953
  1215 -12.1407 -0.962105 7.65707
  1216 -12.1413 -0.966031 -7.66066
  1217 1.53659 -30.3265 -16.9976
  1218 -1.17251 -18.4673 11.2199
  1219 -1.11168 -18.3071 -11.6274
  1220 311.828 -3.37660 6.00355
  1221 0.281756 -72.8108 6.41022
  1222 2.15423 -22.3596 -18.9493
  1223 35.9913 1.46539 0.430524
  1224 35.9675 1.46422 -0.430437
  1225 -3.15093 -13.3381 20.6011
  1226 -35.1571 2.02486 -5.90579
  1227 -35.1066 2.02298 5.90401
  1228 641.897 11.2972 17.9560
  1229 -18.2824 2.04973 18.3393
  1230 -18.3240 2.05072 -18.3649
  1231 148.948 6.19193 -22.6646
  1232 149.087 6.07378 22.8053
  1233 9.47927 -15.5451 -8.65133
  1234 141.897 7.67620 -8.94104
  1235 141.936 7.64191 8.96408
  1236 5.74704 -45.2171 -3.12811
  1237 -3.15962 -13.3613 -20.5616
  1238 -25.0394 1.10033 3.58463
  1239 -25.0852 1.10040 -3.58457
  1240 -11.1219 0.718584 -20.9133
  1241 -11.0780 0.720066 20.8854
  1242 302.735 24.0646 27.1644
  1243 172.597 2.19247 -24.1529
  1244 172.809 2.12899 24.2140
  1245 -79.1716 0.203830 -0.765578
  1246 -79.1083 0.203800 0.765550
  1247 155.849 4.17462 -4.81361
  1248 155.871 4.16399 4.81432
  1249 -81.4776 -1.35670 -0.210812
  1250 -81.5404 -1.35718 0.210903
  1251 232.651 -16.6495 -27.6437
  1252 -37.0822 0.620122 10.3494
  1253 -37.1179 0.620822 -10.3624
  1254 235.043 -17.5713 27.3921
  1255 158.404 6.18812 -9.87894
  1256 158.446 6.15052 9.88984
  1257 18.3379 -47.3260 -33.1512
  1258 0.333132 -51.3099 -12.9929
  1259 -1.11347 -21.6202 19.3269
  1260 503.332 79.2182 -67.7852
  1261 -0.126917 -48.0191 12.6322
  1262 523.144 49.2137 -30.3321
  1263 -0.262659 -88.8884 -6.06498
  1264 23.9680 2.77432 -1.01689
  1265 23.9962 2.77511 1.01831
  1266 -0.224137 -20.2227 4.21242
  1267 -0.181549 -20.3292 -4.19996
  1268 87.7740 2.59246 -0.0693554
  1269 87.7796 2.59464 0.0699123
  1270 314.571 -24.3858 23.0936
  1271 5.25184 2.57398 -3.23371
  1272 5.28718 2.57397 3.23465
  1273 1.81849 -98.2820 3.16097
  1274 1.15448 -104.527 -3.11703
  1275 289.326 -36.6969 -29.3844
  1276 -0.810312 -26.4376 12.4233
  1277 300.939 18.8722 -33.9397
  1278 -0.905763 -34.8429 12.2232
  1279 0.595881 -95.8764 -4.75407
  1280 145.226 4.55247 -5.18276
  1281 145.248 4.53490 5.18725
  1282 -0.104272 -51.8000 5.52272
  1283 -0.137980 -43.1495 -12.4750
  1284 693.489 117.998 102.880
  1285 275.218 0.236841 0.458617
  1286 275.153 0.236799 -0.458431
  1287 6.93906 0.210443 18.1856
  1288 6.71436 0.504424 -18.2625
  1289 -4.55536 3.85525 21.1746
  1290 -4.65136 3.86423 -21.2168
  1291 291.216 -5.52076 -20.0639
  1292 270.549 -11.2608 -10.6541
  1293 270.257 -12.8361 10.7347
  1294 39.3910 5.01406 2.65874
  1295 39.3665 5.01354 -2.65451
  1296 -44.9449 1.21135 -8.16564
  1297 -44.8947 1.20888 8.15749
  1298 301.855 -42.5983 -41.9843
  1299 -2.26420 -5.45755 5.55806
  1300 -2.27271 -5.45307 -5.55525
  1301 317.940 -14.1667 34.8212
  1302 -3.37782 -12.6692 15.0873
  1303 -3.34117 -12.7155 -15.0180
  1304 -29.2729 1.99788 4.26244
  1305 -29.3206 1.99890 -4.26281
  1306 47.3197 4.67483 -16.8061
  1307 46.8358 4.95436 16.8059
  1308 74.4670 2.46457 0.447287
  1309 74.4567 2.46238 -0.446561
  1310 -31.2388 3.10182 12.8600
  1311 -31.2873 3.10745 -12.8732
  1312 258.009 0.784296 0.713068
  1313 257.952 0.784157 -0.712839
  1314 140.718 -2.51341 87.9464
  1315 210.172 0.745241 1.59966
  1316 210.135 0.746690 -1.60007
  1317 138.441 2.85630 -35.0176
  1318 138.484 2.69010 35.3448
  1319 1.31029 -56.7758 -7.96805
  1320 53.1837 12.6444 -6.58575
  1321 52.9601 12.8008 6.68814
  1322 -0.514819 -0.478146 -0.683911
  1323 -0.517404 -0.478332 0.685899
  1324 179.183 5.80388 12.9347
  1325 179.116 5.86927 -12.9258
  1326 88.3320 7.63436 1.52479
  1327 88.3352 7.64102 -1.51379
  1328 130.733 7.73843 -5.95111
  1329 130.756 7.71690 5.96548
  1330 172.012 1.38057 -1.60089
  1331 172.035 1.37857 1.60079
  1332 -5.49083 -2.66853 -6.27945
  1333 -5.49019 -2.66566 6.28294
  1334 -53.3741 0.131442 2.53405
  1335 -53.4290 0.131521 -2.53431
  1336 -9.41040 -4.34356 -15.4299
  1337 -9.40415 -4.32252 15.4150
  1338 -30.9802 0.621987 1.08014
  1339 -31.0268 0.621556 -1.08005
  1340 -82.2920 0.769031 0.439630
  1341 -82.3555 0.769183 -0.439597
  1342 325.044 -42.3590 57.6010
  1343 232.256 -1.55902 -27.8878
</Section>

newXOutput 39

<Section columns = "stress_xx | stress_yy | stress_xy">
  1 290.949 -0.365601 0.286039
  2 291.021 -0.365824 -0.286179
  3 -91.2236 0.457910 -1.23523
  4 0.146813 0.0395036 0.259081
  5 532.180 144.570 169.456
  6 601.406 164.259 -162.368
  7 0.146223 0.0389545 -0.258299
  8 -91.1550 0.457845 1.23487
  9 290.053 -0.341747 -0.957744
  10 290.271 -0.827778 -1.56276
  11 293.018 -0.813286 -0.406447
  12 293.284 -0.762659 -1.81506
  13 293.951 -0.739955 -0.540459
  14 300.127 -0.721033 -0.759264
  15 302.222 -1.07607 -2.43193
  16 304.437 -0.480113 -1.65190
  17 305.793 0.222492 -3.19076
  18 318.278 -1.66899 -2.73440
  19 323.578 -1.26735 -3.53695
  20 329.379 -1.96841 -1.32165
  21 332.067 -2.65301 -0.738139
  22 329.329 -3.09593 4.47190
  23 317.555 -3.50117 9.32095
  24 290.367 -4.01261 19.7905
  25 246.788 2.11345 22.9857
  26 210.549 2.49888 21.5146
  27 160.472 5.54665 13.0548
  28 170.997 5.40088 1.06068
  29 141.906 16.2632 -8.37342
  30 199.268 7.37797 -23.2584
  31 231.216 1.71396 -19.0698
  32 284.327 -0.923769 -16.4977
  33 313.645 -4.24771 -11.1444
  34 328.734 -3.61137 -4.45777
  35 331.349 -2.56523 0.750598
  36 328.879 -1.94113 1.22690
  37 323.361 -1.27643 3.42515
  38 318.192 -1.69217 2.66915
  39 305.804 0.209045 3.15853
  40 304.481 -0.485189 1.63944
  41 302.285 -1.07919 2.42725
  42 300.196 -0.722648 0.756980
  43 294.021 -0.740910 0.539472
  44 293.355 -0.763509 1.81546
  45 293.091 -0.813892 0.406485
  46 290.342 -0.828253 1.56348
  47 290.125 -0.341957 0.958189
  48 274.086 0.854275 -0.352626
  49 253.485 0.492153 -0.801673
  50 227.791 -0.490192 -0.831865
  51 201.208 1.11044 -0.692014
  52 177.981 0.958429 -0.554176
  53 153.176 1.76876 -0.658693
  54 128.743 3.02967 -0.415077
  55 103.427 2.74195 -0.834931
  56 82.4638 2.00517 -1.15741
  57 54.9985 1.36395 -1.21933
  58 27.1366 1.86562 -0.925799
  59 3.90257 1.53326 -0.894600
  60 -25.0521 0.927644 -0.823603
  61 -46.5774 -0.143993 -1.96510
  62 -67.4171 -1.36271 -0.903851
  63 -88.5242 0.205166 0.586823
  64 -93.0498 1.59931 -0.253230
  65 -93.3260 0.717435 0.242113
  66 -90.2013 0.372235 -0.142551
  67 -91.0674 1.03610 -1.14952
  68 -89.5657 1.25301 -0.155406
  69 -84.6622 0.395527 -1.75228
  70 -85.5093 0.770671 -1.87779
  71 -83.2862 0.733530 -1.07827
  72 -77.0577 0.466631 -1.60497
  73 -74.0769 0.821283 -2.61632
  74 -69.5151 0.913496 -2.16291
  75 -61.4538 0.467970 -3.69274
  76 -56.9122 0.143920 -3.08783
  77 -48.7844 0.207129 -3.55059
  78 -41.7697 0.150603 -3.91565
  79 -35.6821 0.0484490 -3.08980
  80 -27.2659 0.178156 -3.11001
  81 -20.0213 -0.0836232 -3.32071
  82 -13.0148 -0.366000 -2.90576
  83 -7.47266 -0.319919 -2.22038
  84 -3.65801 -0.555953 -1.85074
  85 -0.587869 -0.321029 -0.654609
  86 0.0584328 -0.353775 -0.229219
  87 -0.191769 -0.174582 -0.0369146
  88 -0.502141 -0.462491 -0.572478
  89 -0.487045 -3.09028 -1.60545
  90 -0.417983 -6.95618 -2.29766
  91 -0.218071 -11.9168 -3.35658
  92 -0.114794 -18.3229 -2.89615
  93 -0.101523 -24.2352 -3.64668
  94 -0.450281 -31.4810 -4.12380
  95 -0.183732 -40.4078 -4.17357
  96 0.0860087 -49.4024 -4.00289
  97 0.195947 -59.0527 -3.95406
  98 0.298060 -68.9869 -3.89656
  99 0.0287586 -76.3557 -5.28150
  100 0.522314 -86.7707 -4.73316
  101 0.633954 -98.9927 -3.81155
  102 -0.0112269 -104.544 -5.06678
  103 0.898249 -113.625 -4.72332
  104 2.18147 -125.738 -2.39032
  105 4.24704 -129.305 -3.78888
  106 2.91594 -119.287 2.56773
  107 4.09983 -91.5814 11.6916
  108 22.4597 -55.7700 35.4197
  109 71.4267 91.5825 124.428
  110 821.196 43.2404 80.5542
  111 704.140 13.2081 29.4101
  112 681.428 5.00476 6.61015
  113 676.673 1.85304 -1.09575
  114 681.178 7.61308 -15.5358
  115 702.179 23.8063 -34.6997
  116 798.334 84.7605 -102.143
  117 170.040 70.8520 -152.080
  118 37.3398 -54.9678 -43.5785
  119 10.9335 -100.176 -15.9172
  120 2.99841 -113.124 -2.82066
  121 3.40815 -124.538 2.19914
  122 0.981131 -120.877 1.86362
  123 0.365547 -110.785 4.05162
  124 0.388879 -104.131 3.21906
  125 0.544235 -93.6285 5.37259
  126 -0.0272221 -87.5247 5.19745
  127 0.215965 -79.0012 3.74838
  128 0.414794 -68.1499 4.73824
  129 0.0779811 -60.4139 3.75751
  130 0.122970 -49.4746 4.74361
  131 -0.494004 -40.8913 4.07290
  132 -0.349051 -31.5087 3.99660
  133 -0.0732935 -24.1038 3.65657
  134 -0.147951 -18.2184 2.90236
  135 -0.213328 -11.8820 3.32428
  136 -0.412077 -6.95131 2.28629
  137 -0.484490 -3.09489 1.60429
  138 -0.501533 -0.467300 0.573577
  139 -0.191750 -0.176677 0.0383064
  140 0.0559063 -0.354126 0.230508
  141 -0.592699 -0.320891 0.656291
  142 -3.66555 -0.555493 1.85253
  143 -7.48295 -0.318982 2.22105
  144 -13.0235 -0.364842 2.90479
  145 -20.0246 -0.0826648 3.31766
  146 -27.2628 0.178344 3.10641
  147 -35.6701 0.0488579 3.08605
  148 -41.7494 0.151049 3.91140
  149 -48.7535 0.207031 3.54619
  150 -56.8718 0.143772 3.08379
  151 -61.4072 0.467617 3.68888
  152 -69.4602 0.912953 2.16001
  153 -74.0176 0.820705 2.61404
  154 -76.9945 0.466261 1.60364
  155 -83.2196 0.733149 1.07750
  156 -85.4414 0.770342 1.87701
  157 -84.5944 0.395386 1.75172
  158 -89.4964 1.25261 0.155472
  159 -90.9978 1.03581 1.14929
  160 -90.1324 0.372178 0.142643
  161 -93.2563 0.717267 -0.241922
  162 -92.9804 1.59887 0.253247
  163 -88.4565 0.205167 -0.586591
  164 -67.3565 -1.36207 0.903627
  165 -46.5237 -0.143523 1.96456
  166 -25.0057 0.928050 0.823458
  167 3.93903 1.53381 0.894419
  168 27.1650 1.86646 0.925609
  169 55.0170 1.36540 1.21907
  170 82.4726 2.00676 1.15712
  171 103.428 2.74356 0.834720
  172 128.735 3.03121 0.414886
  173 153.160 1.77048 0.658341
  174 177.956 0.960061 0.553784
  175 201.174 1.11145 0.691484
  176 227.747 -0.489124 0.831267
  177 253.430 0.492295 0.801209
  178 274.022 0.854033 0.352422
  179 75.2371 13.5489 -2.35777
  180 75.2020 13.5676 2.40636
  181 -1.74145 2.04878 22.1170
  182 -1.82151 2.03887 -22.1234
  183 172.695 -2.46332 -37.9760
  184 172.600 -2.80626 38.3940
  185 33.9661 7.49274 -0.676424
  186 33.5607 7.64716 0.697681
  187 24.1912 4.67155 -3.73921
  188 24.2230 4.67057 3.74196
  189 163.906 3.58617 -5.43511
  190 163.933 3.57156 5.43658
  191 -3.65781 6.71245 12.2700
  192 -3.71127 6.72535 -12.2765
  193 190.513 5.27086 -14.2700
  194 190.602 5.19234 14.2834
  195 -7.49884 -6.54627 17.2858
  196 -7.49580 -6.58346 -17.3059
  197 1.58539 -15.8632 -20.9171
  198 58.5838 2.19671 -34.3408
  199 1.97224 -16.9483 20.4419
  200 57.6407 2.68492 34.9279
  201 270.379 -37.2810 -55.2697
  202 279.989 -38.7619 52.9491
  203 96.3963 3.67955 -0.660251
  204 96.3935 3.67582 0.662303
  205 -16.6976 1.28333 -2.49193
  206 -16.6535 1.28364 2.49210
  207 -21.9831 3.28354 16.9189
  208 -22.0323 3.29033 -16.9415
  209 96.8607 9.37205 -2.29769
  210 96.8612 9.36490 2.31319
  211 29.1471 12.3632 8.83924
  212 29.0357 12.4388 -8.85685
  213 -28.5365 3.06897 -7.17866
  214 -28.4852 3.06563 7.17589
  215 218.707 0.671073 2.64366
  216 218.667 0.674502 -2.64513
  217 6.83374 -29.9460 9.34616
  218 7.43336 -27.2114 -8.38183
  219 -2.09277 -18.4631 19.5499
  220 -2.13459 -19.1585 -18.9267
  221 89.4011 13.0555 -14.6519
  222 89.3290 13.1153 14.8206
  223 -19.6775 -0.114033 16.9127
  224 -19.7056 -0.115990 -16.9341
  225 233.987 1.67471 -7.91037
  226 234.034 1.65206 7.89649
  227 251.524 -3.40101 -15.5351
  228 251.714 -3.66360 15.4538
  229 400.783 31.1087 -0.337992
  230 367.670 40.5082 24.0510
  231 363.507 -4.28092 -34.7405
  232 43.5422 10.1673 4.81444
  233 43.5078 10.1771 -4.80229
  234 2.53489 8.13600 17.1664
  235 2.46549 8.16033 -17.1827
  236 280.922 -17.0226 -9.97021
  237 279.273 -17.2376 10.8630
  238 154.977 1.80204 -1.94169
  239 154.995 1.79802 1.94171
  240 -35.1410 2.47134 11.3445
  241 -35.1928 2.47643 -11.3555
  242 -4.76811 -4.69501 -7.73597
  243 -4.76419 -4.69251 7.74126
  244 -39.3610 1.04278 3.69325
  245 -39.4136 1.04319 -3.69366
  246 127.011 9.92241 -9.23526
  247 127.039 9.89392 9.27323
  248 161.839 5.17028 -21.5021
  249 161.976 5.07491 21.5983
  250 38.1897 2.83097 -0.425523
  251 38.2143 2.83204 0.426672
  252 93.0316 -0.931572 -75.7143
  253 110.318 1.89245 82.7723
  254 12.2276 5.52411 16.4857
  255 12.1727 5.65169 -16.5463
  256 383.114 -31.2111 -5.60242
  257 32.4199 12.6426 7.65903
  258 32.3616 12.6704 -7.64858
  259 91.1217 9.56216 -27.9587
  260 90.9578 9.81083 28.2894
  261 427.358 59.0469 -6.23682
  262 253.763 0.423642 10.7088
  263 253.692 0.505705 -10.7563
  264 -2.31242 -14.2123 -12.1688
  265 -2.24849 -14.2703 12.2177
  266 -0.521094 -33.8946 -16.8468
  267 1.07572 -39.8435 -15.7224
  268 0.558444 -39.7511 16.3887
  269 -6.47516 -5.63972 22.3346
  270 -6.50082 -5.62851 -22.4174
  271 13.2901 -32.5809 -4.74152
  272 14.2853 -30.1420 6.96912
  273 -14.6671 -1.24840 10.6917
  274 -14.6738 -1.25379 -10.7007
  275 179.894 5.41446 -8.81177
  276 179.940 5.38080 8.81291
  277 315.720 -33.1005 -1.32291
  278 68.8288 6.30183 -0.563363
  279 68.8422 6.30416 0.568948
  280 -0.852077 -31.7887 16.0928
  281 5.82854 6.62975 8.05489
  282 5.78384 6.63770 -8.05444
  283 503.559 35.5092 -12.6828
  284 246.448 0.400613 3.26286
  285 246.399 0.405600 -3.26686
  286 163.978 -8.34804 -57.3174
  287 165.466 -8.21011 58.2378
  288 315.293 -31.3550 -3.88066
  289 -30.1283 0.915786 13.3932
  290 -30.1624 0.916356 -13.4104
  291 309.180 -27.0755 94.2096
  292 -13.5650 2.14847 20.3540
  293 -13.6115 2.14716 -20.3842
  294 51.4171 14.1717 -3.04746
  295 51.2221 14.3083 3.11810
  296 -55.8713 0.514053 0.680973
  297 -55.9283 0.513928 -0.680910
  298 260.247 2.66800 -128.811
  299 -51.9220 1.07191 -6.16315
  300 -51.8655 1.07002 6.15875
  301 -1.63810 -6.70942 22.9043
  302 -0.883083 -6.56059 -22.6974
  303 113.573 11.8818 -13.4365
  304 113.589 11.8689 13.5334
  305 23.9124 3.22399 2.80242
  306 23.8821 3.22357 -2.80105
  307 118.454 5.00853 -2.61250
  308 118.461 5.00092 2.61621
  309 10.9289 -9.08803 12.4245
  310 9.95755 -10.7885 -12.5473
  311 114.974 2.46546 -0.594668
  312 114.977 2.46290 0.595111
  313 -42.4379 1.10305 9.85513
  314 -42.4818 1.10485 -9.86721
  315 28.4052 -3.55924 -6.10126
  316 27.5425 -3.58941 5.34993
  317 257.285 -0.0317036 0.908276
  318 257.228 -0.0310914 -0.908375
  319 563.370 32.3615 21.5269
  320 57.0420 8.04383 2.09635
  321 57.0212 8.04454 -2.08687
  322 -13.2133 2.95861 5.10468
  323 -13.2585 2.96058 -5.10477
  324 78.9057 11.1077 -1.37048
  325 78.8909 11.1081 1.39796
  326 8.87210 8.15817 17.8558
  327 8.81444 8.17898 -17.8896
  328 1.17524 -57.3765 11.6077
  329 -57.7335 0.182997 -1.52178
  330 -57.6755 0.183176 1.52175
  331 195.772 0.893099 -1.72011
  332 195.804 0.890971 1.71967
  333 206.195 1.73599 -4.56319
  334 206.232 1.72616 4.55963
  335 -53.6353 0.965446 -4.51780
  336 -53.5776 0.964537 4.51617
  337 -2.10142 1.19434 0.625953
  338 -2.14003 1.19374 -0.625664
  339 -1.19709 -23.4126 12.1613
  340 -0.953677 -24.3502 -12.1451
  341 231.551 -19.4868 -38.5647
  342 240.639 -23.2882 37.8293
  343 137.196 7.11535 -5.67638
  344 137.217 7.09718 5.68543
  345 59.8628 14.2884 -1.28017
  346 59.7692 14.3489 1.33605
  347 -22.0098 4.17792 10.1471
  348 -22.0615 4.18485 -10.1535
  349 433.668 5.76617 8.83217
  350 22.4404 -35.3843 -24.4316
  351 24.0027 -33.1934 25.6569
  352 -9.65438 6.62697 16.1223
  353 -9.71282 6.64172 -16.1385
  354 -12.0783 -2.48985 19.7448
  355 -12.1062 -2.49431 -19.7763
  356 490.978 80.7748 -20.9093
  357 313.445 -5.11770 41.6955
  358 293.904 -6.77391 -6.86733
  359 293.604 -6.61748 6.36683
  360 205.156 -2.23211 -24.5177
  361 204.929 -2.45012 24.5212
  362 0.380269 -69.1039 -9.42998
  363 269.402 0.822191 -6.02775
  364 269.444 0.798764 6.00207
  365 3.44304 -65.2467 7.57090
  366 308.755 24.0610 -23.0592
  367 75.1592 2.94340 1.01569
  368 75.1478 2.94186 -1.01553
  369 206.483 1.79364 -18.2145
  370 206.622 1.67606 18.2295
  371 222.986 2.12746 -11.0828
  372 223.046 2.07538 11.0638
  373 -5.14232 2.64595 3.49230
  374 -5.18350 2.64646 -3.49162
  375 126.995 7.04883 -28.9095
  376 127.047 7.12212 29.1923
  377 265.222 0.0204804 1.49100
  378 265.164 0.0216716 -1.49186
  379 149.035 8.51522 -14.4833
  380 149.100 8.45727 14.5391
  381 172.714 3.05164 3.67631
  382 172.689 3.05869 -3.67697
  383 -8.27104 -1.50293 6.57596
  384 -8.26987 -1.50664 -6.57561
  385 -1.95938 -1.39435 -1.90101
  386 -1.96036 -1.39515 1.90399
  387 353.112 -45.3134 23.7540
  388 -4.66200 -11.1910 18.0174
  389 -4.63147 -11.2835 -18.0166
  390 56.4539 4.03316 -1.39853
  391 56.4720 4.03505 1.40116
  392 -1.75982 -8.77491 6.60086
  393 -1.77943 -8.75995 -6.60133
  394 21.2984 10.0805 8.85645
  395 21.2492 10.0971 -8.85225
  396 288.780 -1.05502 7.93494
  397 288.723 -0.944396 -8.08836
  398 -0.788949 -17.3786 21.7946
  399 -23.7583 -0.445319 10.1438
  400 -23.7729 -0.447209 -10.1554
  401 -0.880156 -18.3387 -21.5478
  402 271.308 0.229727 3.83549
  403 271.256 0.236728 -3.84425
  404 -2.91683 5.88176 20.1869
  405 -2.99932 5.90220 -20.2168
  406 199.818 3.29921 -7.31123
  407 199.858 3.27857 7.30552
  408 307.332 -13.2139 -7.30754
  409 308.439 -10.6271 5.56153
  410 -0.642762 -31.9253 -13.3449
  411 27.0323 9.93754 -6.59588
  412 27.2556 9.82030 6.57482
  413 303.071 19.9728 14.4782
  414 173.147 -10.1556 -79.5577
  415 177.864 -13.4156 83.3619
  416 9.71320 9.53417 13.2998
  417 9.65275 9.55609 -13.3053
  418 127.550 3.87322 -1.78670
  419 127.559 3.86841 1.78783
  420 123.801 17.3273 126.821
  421 50.7153 12.2389 -3.68989
  422 50.7575 12.2203 3.71124
  423 3.07903 -30.8237 14.9287
  424 -0.389644 -51.9509 -11.6312
  425 19.8019 11.6241 12.4919
  426 19.7294 11.6582 -12.4993
  427 24.3499 6.93379 -5.47207
  428 24.3854 6.92915 5.47632
  429 -8.88875 -0.550585 -22.3331
  430 -8.84279 -0.562961 22.2994
  431 60.8801 11.8941 -10.9302
  432 60.6245 12.0814 11.0710
  433 308.120 -10.1479 -31.4014
  434 8.41732 -3.44208 17.5858
  435 8.13256 -3.35282 -17.6844
  436 224.253 -9.56262 -27.1000
  437 225.214 -10.2629 27.0456
  438 -56.5749 0.466907 -5.96524
  439 -56.5210 0.465511 5.95926
  440 0.00472090 -50.9634 10.4494
  441 -0.371462 -32.3418 11.8760
  442 -23.0721 1.45018 17.1501
  443 -23.1089 1.45023 -17.1727
  444 160.717 1.71709 -0.681316
  445 160.737 1.71477 0.681037
  446 -4.86273 -7.67631 12.2114
  447 -4.87007 -7.69299 -12.1974
  448 99.4490 4.71459 -42.1754
  449 99.2665 5.18227 42.6914
  450 0.829800 -61.9499 -11.6142
  451 562.508 20.4695 0.526152
  452 1.53046 -73.5985 -6.93261
  453 -67.2125 0.0361347 -2.21647
  454 -67.1509 0.0361861 2.21611
  455 -25.9240 3.60329 14.1218
  456 -25.9762 3.61097 -14.1376
  457 -29.8869 0.419820 10.2020
  458 -29.9093 0.419861 -10.2142
  459 108.969 11.5276 -8.95111
  460 108.980 11.5194 9.01068
  461 165.551 6.91566 -11.2144
  462 165.608 6.86658 11.2330
  463 -2.93452 -10.5759 22.5085
  464 -2.93804 -10.5056 -22.6013
  465 286.612 4.47928 -39.6585
  466 19.3148 -5.63751 -4.00706
  467 18.6449 -5.79899 4.35014
  468 4.48800 -66.7557 -0.257018
  469 2.85178 -77.3162 -1.78158
  470 -8.83316 -3.96823 12.5750
  471 -8.83601 -3.98206 -12.5793
  472 60.5608 -7.91179 -65.2379
  473 443.734 -2.49594 -41.6554
  474 99.2031 6.76728 2.34259
  475 99.2026 6.77473 -2.33393
  476 144.415 1.34043 -40.7372
  477 144.768 1.29398 41.3794
  478 41.9140 14.8567 5.22033
  479 41.8389 14.9040 -5.20185
  480 130.352 9.88222 -21.1388
  481 130.421 9.82610 21.3069
  482 4.49078 2.39463 20.6232
  483 4.77935 2.54005 -20.5975
  484 -59.4882 0.899413 -4.44613
  485 -59.4289 0.898553 4.44372
  486 288.932 -34.0914 -21.5316
  487 230.066 0.331110 -1.25791
  488 230.111 0.330196 1.25784
  489 11.3038 1.80134 -1.53521
  490 11.3380 1.80206 1.53591
  491 -15.3305 5.38564 13.2572
  492 -15.3849 5.39644 -13.2679
  493 -34.1718 2.11557 -4.91704
  494 -34.1201 2.11397 4.91600
  495 99.1827 10.0283 -3.74387
  496 99.1849 10.0190 3.76723
  497 -12.3898 4.57005 18.5299
  498 -12.4480 4.58180 -18.5557
  499 264.653 -7.31545 -14.4180
  500 265.091 -7.69909 14.1862
  501 172.751 1.96818 -27.0570
  502 172.502 1.83468 27.2968
  503 63.6875 3.28369 -0.814141
  504 63.7029 3.28555 0.815258
  505 0.636466 -31.8479 -18.5013
  506 309.850 -11.4461 25.8087
  507 4.10986 -21.2144 -16.9332
  508 87.2837 14.1530 9.00999
  509 87.3294 14.1177 -8.90938
  510 285.765 -31.9009 21.2356
  511 21.4233 -31.5530 33.9348
  512 340.864 -45.1062 -42.9183
  513 231.866 1.17389 13.3314
  514 231.772 1.27256 -13.3568
  515 0.587257 -27.2812 19.2512
  516 -4.53394 -1.35748 -3.50698
  517 -4.53622 -1.35696 3.50974
  518 27.4233 1.72365 -0.481434
  519 27.4516 1.72465 0.481768
  520 -0.789234 -18.0386 7.79776
  521 -0.716092 -17.9535 -7.83702
  522 191.001 2.22043 2.94149
  523 190.970 2.22424 -2.94242
  524 540.378 93.8459 38.3354
  525 21.9298 -14.5775 -6.09675
  526 17.0397 -19.3472 2.54094
  527 -6.17558 4.21199 -6.73889
  528 -6.13044 4.20772 6.73833
  529 -46.7501 0.741111 6.13993
  530 -46.7867 0.741938 -6.14741
  531 0.460212 -58.0371 11.5414
  532 -66.2264 0.612554 0.649359
  533 -66.2870 0.612555 -0.649252
  534 58.3756 -5.37389 -47.7585
  535 57.0612 -4.33730 49.6635
  536 53.3878 9.06949 -15.8783
  537 52.9839 9.32009 16.0039
  538 -12.5931 -2.67230 17.2477
  539 -12.6105 -2.68276 -17.2709
  540 52.3544 5.04650 1.49751
  541 52.3343 5.04523 -1.49359
  542 -28.3186 1.38059 2.17284
  543 -28.3670 1.38067 -2.17259
  544 61.9492 9.40649 1.71514
  545 61.9276 9.40941 -1.69979
  546 -1.26101 -4.08154 2.99579
  547 -1.26527 -4.07769 -2.99514
  548 22.3165 9.62113 11.3331
  549 22.1684 9.76097 -11.3772
  550 18.0331 2.57823 10.0813
  551 17.7735 2.55324 -10.2254
  552 235.092 1.85318 5.62800
  553 235.046 1.86343 -5.63464
  554 207.634 3.03031 8.93515
  555 207.586 3.06241 -8.94444
  556 -0.214186 -48.8921 -7.23564
  557 144.865 7.62517 -8.50037
  558 144.898 7.59700 8.51715
  559 145.360 3.70892 -3.11051
  560 145.377 3.70053 3.11203
  561 -20.7307 0.837474 -0.0430399
  562 -20.6857 0.837911 0.0432823
  563 245.490 13.5670 -7.63372
  564 326.548 -42.1246 -15.0394
  565 265.899 12.0977 30.1470
  566 2.12432 -42.2131 -13.6830
  567 -14.9770 4.66080 -8.81318
  568 -14.9275 4.65480 8.81003
  569 2.20820 -24.5766 18.2803
  570 -14.6110 0.356865 19.8258
  571 -14.6476 0.355685 -19.8522
  572 416.079 40.0389 -1.30008
  573 94.2062 4.71075 -0.964272
  574 94.2031 4.70625 0.967694
  575 635.329 53.5677 -54.5822
  576 -3.27622 -2.57074 23.2168
  577 -3.06839 -2.40549 -23.2382
  578 345.140 -31.4981 15.0536
  579 278.336 0.377200 -6.72015
  580 278.371 0.339103 6.67537
  581 126.754 -0.752395 -59.3324
  582 128.298 -1.12662 60.3043
  583 -7.19986 -6.92597 19.9810
  584 -7.20602 -6.96064 -20.0307
  585 66.2578 5.24072 30.9615
  586 66.8154 4.72833 -30.6808
  587 -54.8097 0.637363 -5.79925
  588 -54.7597 0.636346 5.79284
  589 406.983 33.2187 25.7279
  590 76.7762 7.40876 0.0127975
  591 76.7865 7.41190 -0.00428434
  592 90.7166 11.2364 -21.0857
  593 90.6024 11.3742 21.3345
  594 251.272 -0.322833 -13.0844
  595 251.391 -0.455540 13.0374
  596 -1.15359 -25.6505 -18.0034
  597 274.123 -0.243449 2.00503
  598 274.062 -0.241785 -2.00649
  599 -40.5413 0.872591 -0.875207
  600 -40.4893 0.872738 0.875478
  601 -71.0067 -0.455380 0.0343774
  602 -71.0687 -0.455689 -0.0342920
  603 5.73352 -39.0640 -6.75424
  604 -2.58666 -16.6104 15.3747
  605 -2.72818 -15.7203 -15.4779
  606 -31.2831 1.91303 14.3105
  607 -31.3249 1.91611 -14.3286
  608 190.805 4.96810 11.2418
  609 190.747 5.01775 -11.2426
  610 140.225 2.12308 0.742630
  611 140.213 2.12513 -0.742530
  612 31.3399 -9.72846 19.2550
  613 32.3659 -9.05426 -19.0631
  614 -0.987155 -12.5709 6.58024
  615 -1.01696 -12.5302 -6.60198
  616 328.498 19.2955 137.172
  617 -16.2079 -0.506233 6.10592
  618 -16.2080 -0.508477 -6.11046
  619 5.68466 -23.7424 -13.7653
  620 137.105 5.77656 -4.30713
  621 137.121 5.76433 4.31176
  622 66.7233 14.2376 -6.41416
  623 66.5999 14.3236 6.51398
  624 0.664789 -87.8924 4.81661
  625 49.8910 14.0348 3.29721
  626 49.8370 14.0657 -3.27159
  627 -6.02136 5.81395 10.5823
  628 -6.07165 5.82314 -10.5865
  629 -0.391889 -43.1601 9.88543
  630 -70.6133 0.0992831 -2.20167
  631 -70.5503 0.0991784 2.20111
  632 89.8448 2.68999 0.168136
  633 89.8505 2.69282 -0.166968
  634 229.114 0.882400 3.70862
  635 229.071 0.887526 -3.71133
  636 201.510 -15.0246 104.737
  637 161.968 4.35936 -6.70492
  638 161.999 4.33880 6.70853
  639 2.42928 -3.64157 21.5807
  640 3.01014 -2.18813 -21.5574
  641 259.405 -27.0981 -84.6428
  642 616.564 21.3783 -22.7160
  643 -64.7529 0.0654529 -4.02870
  644 -64.6947 0.0648133 4.02534
  645 14.6460 3.58875 -3.29003
  646 14.6803 3.58823 3.29160
  647 -1.22893 -27.1368 15.8753
  648 350.821 20.0980 -37.4675
  649 271.114 -0.381086 0.338918
  650 271.051 -0.380748 -0.338869
  651 -17.4603 -0.972991 -14.2279
  652 -17.4439 -0.968856 14.2115
  653 -0.0481747 -61.4242 -9.53381
  654 275.816 -0.416116 0.768878
  655 275.752 -0.415660 -0.768889
  656 24.5614 8.80869 7.52561
  657 24.5195 8.81908 -7.52017
  658 208.983 -18.4874 -55.3633
  659 212.843 -18.4234 56.0009
  660 306.992 -1.86054 4.54676
  661 307.086 -1.83798 -4.75587
  662 1.33690 -77.6564 7.55919
  663 -17.6096 0.665999 -1.27259
  664 -17.5655 0.666511 1.27284
  665 100.092 5.98497 -99.1260
  666 93.5272 2.43227 0.683347
  667 93.5320 2.43411 -0.682878
  668 45.5499 3.68430 0.747110
  669 45.5278 3.68299 -0.745186
  670 54.3628 6.29053 -1.23503
  671 54.3829 6.29137 1.24148
  672 178.502 5.28513 -17.3787
  673 178.613 5.19418 17.4212
  674 46.8175 13.7558 1.29177
  675 46.6816 13.8520 -1.25978
  676 -32.9720 2.46749 -8.28780
  677 -32.9192 2.46336 8.28302
  678 -38.1697 2.62456 -9.38119
  679 -38.1165 2.62017 9.37352
  680 315.200 -4.72541 -1.20169
  681 0.227758 -13.0164 -21.9552
  682 315.759 -4.95742 0.735594
  683 399.290 31.5920 0.185966
  684 -39.6270 0.182692 6.97548
  685 -39.6553 0.182721 -6.98426
  686 40.6920 11.6219 -1.53794
  687 40.4031 11.7722 1.57951
  688 -75.9020 0.0885224 -0.817734
  689 -75.8377 0.0885852 0.817753
  690 0.458580 -11.7458 22.0125
  691 -24.8809 0.321458 15.0211
  692 -24.9111 0.320725 -15.0401
  693 345.672 -29.5757 -16.4059
  694 53.7408 1.63475 -0.304395
  695 53.7218 1.63331 0.304935
  696 11.7794 5.22269 5.40320
  697 11.7413 5.22571 -5.40108
  698 181.927 -8.51243 -46.1902
  699 183.342 -8.84670 47.1165
  700 642.360 45.2566 49.8499
  701 12.0949 -60.7465 -20.0905
  702 -4.67347 -9.80073 21.3967
  703 -4.68306 -9.83822 -21.4421
  704 37.7569 8.75468 -4.25498
  705 37.7889 8.74917 4.26323
  706 283.500 -0.339391 -2.04878
  707 283.561 -0.341274 2.04594
  708 133.941 2.61475 1.23348
  709 133.930 2.61859 -1.23308
  710 10.7033 9.82946 15.9895
  711 10.6340 9.85995 -16.0063
  712 6.03514 2.70377 2.32179
  713 5.99879 2.70362 -2.32098
  714 -8.18512 1.80695 21.9719
  715 -8.24078 1.80857 -22.0118
  716 232.557 0.0351327 1.55073
  717 232.511 0.0368390 -1.55143
  718 200.926 2.04142 4.21235
  719 200.891 2.04782 -4.21426
  720 26.5864 -18.7742 23.3106
  721 27.3836 -20.0248 -22.4978
  722 -15.8852 3.35914 19.1652
  723 -15.9364 3.36425 -19.1934
  724 8.16665 -19.7288 11.0024
  725 0.373143 5.86876 20.3868
  726 0.286283 5.88702 -20.4050
  727 -45.1733 1.32973 -5.53595
  728 -45.1180 1.32806 5.53339
  729 34.4280 11.4143 7.08739
  730 34.3784 11.4335 -7.07556
  731 310.926 -9.52316 -17.6066
  732 294.590 -25.8530 -6.65925
  733 -4.79292 -9.79528 15.1122
  734 -4.78621 -9.84042 -15.0920
  735 113.561 -1.50740 -70.0534
  736 110.561 0.975472 70.7754
  737 68.8934 13.1718 -10.2386
  738 68.7261 13.3026 10.3813
  739 5.88310 -11.6356 17.8101
  740 -0.432055 -31.9023 -8.57915
  741 144.822 8.21977 -16.1214
  742 144.900 8.16333 16.2071
  743 0.384723 -62.8322 7.97580
  744 86.0080 12.2101 -3.87305
  745 85.9940 12.2117 3.91447
  746 297.618 -0.186668 -5.09726
  747 297.616 -0.224783 5.02123
  748 5.76908 -86.1652 1.39088
  749 133.273 10.2489 12.0839
  750 133.232 10.2846 -12.0303
  751 35.6789 12.5823 -4.51840
  752 35.8604 12.4517 4.51366
  753 -53.8903 0.357675 -4.88253
  754 -53.8468 0.357184 4.87644
  755 148.222 2.89028 -2.75240
  756 148.239 2.88472 2.75298
  757 90.9319 13.3629 -7.50415
  758 90.9090 13.3760 7.57857
  759 0.170087 8.03333 15.8511
  760 0.107412 8.05391 -15.8641
  761 295.499 -22.0934 3.08048
  762 -46.7582 1.07321 4.22813
  763 -46.8135 1.07384 -4.22907
  764 641.379 122.094 -86.5796
  765 -18.2032 1.91519 4.49105
  766 -18.2492 1.91589 -4.49111
  767 251.723 0.922071 9.31042
  768 251.671 0.970013 -9.34500
  769 467.536 29.8166 0.494057
  770 285.564 -0.723036 -3.88757
  771 285.614 -0.730104 3.87628
  772 181.784 2.95440 5.26564
  773 181.754 2.96520 -5.26704
  774 272.179 -31.7346 77.1091
  775 117.565 8.97808 -4.32634
  776 117.579 8.96367 4.34211
  777 2.64867 -48.0153 10.1142
  778 312.440 -39.8801 24.6128
  779 189.532 0.803408 0.910486
  780 189.502 0.805046 -0.910596
  781 249.135 0.263202 0.486381
  782 249.082 0.263579 -0.486393
  783 -1.13694 -25.2913 -14.8422
  784 1.48068 -43.3710 14.6489
  785 111.248 12.5509 16.7904
  786 111.239 12.5502 -16.6435
  787 636.453 6.59076 5.42172
  788 192.262 1.89529 -21.7739
  789 192.409 1.78615 21.8268
  790 -40.3482 1.33996 10.7411
  791 -40.3975 1.34320 -10.7527
  792 8.01740 -35.4562 3.57894
  793 5.21229 -80.5271 -5.06801
  794 439.481 56.6974 -5.60812
  795 -0.389754 -31.8055 7.74207
  796 8.60726 6.19683 18.4342
  797 8.58060 6.19619 -18.5109
  798 58.0713 11.7885 2.20331
  799 58.0412 11.7998 -2.18257
  800 293.394 -13.3688 -4.23034
  801 293.899 -13.2301 3.17809
  802 346.643 46.4621 -129.809
  803 -48.1578 0.590820 -1.97911
  804 -48.1027 0.590797 1.97910
  805 -22.2513 -0.0964778 5.75914
  806 -22.2559 -0.0974041 -5.76498
  807 20.9335 1.17247 6.13820
  808 20.4895 1.14713 -6.17519
  809 222.085 -1.01140 19.6222
  810 221.914 -0.813264 -19.5878
  811 112.691 3.31920 -0.591776
  812 112.694 3.31556 0.592787
  813 358.823 -6.49377 34.5020
  814 37.0932 6.26554 -3.78299
  815 37.1217 6.26400 3.78842
  816 34.7603 4.21709 -4.99001
  817 34.4455 4.38999 5.08154
  818 -0.179921 -25.1650 -20.0588
  819 509.366 75.3654 70.2346
  820 -74.0487 0.0942097 -2.18969
  821 -73.9846 0.0940726 2.18877
  822 -0.110720 -76.6719 7.56244
  823 5.19777 -11.4902 -17.9984
  824 -11.0350 -0.681054 4.27432
  825 -11.0299 -0.682727 -4.27547
  826 405.869 22.2008 -24.7499
  827 104.790 10.7110 -5.43163
  828 104.797 10.7006 5.46767
  829 278.451 -3.89000 -9.86802
  830 278.689 -3.93952 9.70229
  831 -70.7040 0.552904 2.89669
  832 -70.7659 0.553444 -2.89867
  833 -0.496121 -0.514346 -0.418606
  834 -0.497119 -0.515279 0.420261
  835 0.242343 -78.4354 -7.41168
  836 0.364090 -82.7674 -6.80289
  837 -78.2874 0.770837 0.448027
  838 -78.3519 0.770960 -0.448013
  839 41.8377 -14.7746 -45.6686
  840 172.222 2.39763 -1.50401
  841 172.245 2.39485 1.50355
  842 -6.43294 1.54877 0.572693
  843 -6.47301 1.54835 -0.572675
  844 256.653 0.872104 -6.18993
  845 256.700 0.855602 6.17404
  846 -29.2692 0.197600 5.48164
  847 -29.2807 0.197636 -5.48780
  848 154.533 0.153556 -105.651
  849 267.411 -22.9282 21.1742
  850 210.057 1.18867 -1.91012
  851 210.094 1.18645 1.90923
  852 264.920 -24.9605 -23.7091
  853 82.0882 9.48072 -1.23913
  854 82.0787 9.47692 1.25837
  855 113.770 7.80614 -3.24235
  856 113.779 7.79531 3.25246
  857 310.986 -6.68444 13.4334
  858 18.6307 11.1316 13.3242
  859 18.5512 11.1747 -13.3476
  860 18.8085 1.54890 1.11035
  861 18.7771 1.54795 -1.10988
  862 146.227 2.19100 1.25543
  863 146.212 2.19389 -1.25536
  864 384.950 -37.0126 42.0152
  865 240.636 1.59112 -8.07877
  866 240.687 1.56024 8.05737
  867 2.77247 3.77807 4.28322
  868 2.73312 3.77947 -4.28207
  869 241.457 -0.0870289 2.26893
  870 241.408 -0.0849250 -2.27012
  871 -45.6714 0.350019 -1.22120
  872 -45.6180 0.350331 1.22096
  873 -0.216240 -24.3276 6.89529
  874 -0.283014 -24.7084 -6.94909
  875 288.097 -4.26260 31.8738
  876 -17.9119 4.45463 16.2484
  877 -17.9662 4.46510 -16.2676
  878 -0.100559 -40.1194 -7.63266
  879 113.805 4.54759 -1.63767
  880 113.809 4.54267 1.63989
  881 210.053 -10.6531 -35.1775
  882 211.709 -11.7888 35.5274
  883 -9.17419 -3.27356 -21.4996
  884 -9.13590 -3.27510 21.4582
  885 11.0195 9.97117 14.6995
  886 10.9532 9.99800 -14.7087
  887 1.01498 -92.2216 5.35677
  888 2.56753 7.71286 18.6878
  889 2.49378 7.73481 -18.7068
  890 193.875 -3.41019 -31.2469
  891 193.463 -3.57883 31.4979
  892 335.350 17.9138 38.7859
  893 76.4337 8.85061 0.280979
  894 76.4455 8.85368 -0.267876
  895 247.151 1.71034 -6.06014
  896 247.198 1.69719 6.04969
  897 -9.75581 -4.28721 18.8432
  898 -9.77282 -4.30284 -18.8754
  899 0.844781 -95.3015 -3.69584
  900 -14.9980 -1.04866 18.5032
  901 -15.0250 -1.05088 -18.5282
  902 8.86306 9.06710 -11.5932
  903 8.91722 9.04952 11.5904
  904 -0.762160 -6.09102 3.37797
  905 -0.770665 -6.08465 -3.38291
  906 20.4806 10.2131 -10.4740
  907 20.5373 10.1913 10.4763
  908 4.32116 -7.70470 20.0014
  909 3.74234 -7.17369 -20.9821
  910 239.194 -6.67285 19.9525
  911 238.615 -6.33388 -20.0818
  912 -79.7786 0.250341 -0.657745
  913 -79.7133 0.250374 0.657756
  914 -6.76870 -0.615818 3.20769
  915 -6.76237 -0.616825 -3.20658
  916 0.328722 -57.0830 -6.97614
  917 -7.32284 -3.15448 -9.15241
  918 -7.32090 -3.14701 9.15376
  919 -31.1463 2.60769 13.8021
  920 -31.1945 2.61309 -13.8187
  921 73.8453 14.4357 -3.85021
  922 73.7948 14.4735 3.91222
  923 315.746 25.1832 -6.39561
  924 -4.14625 7.18087 14.4111
  925 -4.20372 7.19649 -14.4216
  926 117.024 7.30230 -32.5325
  927 117.045 7.40913 32.9184
  928 -14.6288 5.04250 11.6255
  929 -14.6813 5.05221 -11.6334
  930 386.108 -20.3370 -8.36278
  931 228.981 9.12835 16.7519
  932 278.662 -3.73356 -28.8316
  933 209.356 3.07710 -13.2946
  934 209.435 3.00450 13.2868
  935 -22.9425 3.07380 -5.80039
  936 -22.8937 3.07096 5.79914
  937 -50.5275 0.926691 6.93163
  938 -50.5820 0.928707 -6.93790
  939 -3.03432 -9.77518 -10.6278
  940 -3.01390 -9.78471 10.6480
  941 73.3723 5.08408 0.102596
  942 73.3836 5.08694 -0.0986422
  943 -23.6740 2.40582 17.0597
  944 -23.7170 2.40835 -17.0831
  945 251.969 0.0396907 2.99590
  946 251.917 0.0422161 -2.99774
  947 -1.92622 -21.5325 16.1512
  948 8.67921 8.35958 -9.99391
  949 8.72843 8.34669 9.99325
  950 12.1209 5.88923 6.65505
  951 12.0806 5.89440 -6.65315
  952 42.3605 4.26319 -1.81310
  953 42.3841 4.26398 1.81549
  954 474.082 57.1740 -9.78986
  955 -1.84961 -0.514373 -1.26134
  956 -1.85358 -0.514387 1.26367
  957 15.8247 4.22204 -12.6668
  958 16.0953 4.08531 12.6238
  959 168.570 7.06816 -13.8411
  960 168.643 7.00456 13.8707
  961 20.8743 7.38707 -6.40534
  962 20.9134 7.38048 6.40935
  963 45.7874 -14.8426 61.2857
  964 319.183 -2.21193 -2.48545
  965 318.656 -2.12749 2.17633
  966 55.6415 -7.75579 53.1264
  967 58.2577 2.83442 -0.0435070
  968 58.2404 2.83299 0.0443918
  969 153.185 -6.46438 -91.2701
  970 115.540 2.32264 0.700497
  971 115.537 2.32456 -0.700197
  972 14.4441 -16.0604 3.99126
  973 15.9638 -13.6044 -2.78655
  974 283.146 -0.239562 1.03560
  975 283.079 -0.239095 -1.03566
  976 -23.3195 0.0585405 13.6169
  977 -23.3417 0.0574652 -13.6329
  978 507.127 63.1584 27.0545
  979 -2.24217 -16.2555 -21.3767
  980 2.38151 -82.3579 8.30309
  981 -0.427759 -25.7486 19.7488
  982 292.602 -0.126319 -3.96752
  983 292.640 -0.136713 3.94812
  984 -3.87297 -7.07807 9.17449
  985 -3.88303 -7.07749 -9.16470
  986 362.587 37.3650 -22.2326
  987 646.053 5.90891 -3.64834
  988 -0.948879 -1.41480 -1.37280
  989 -0.947890 -1.41780 1.37478
  990 169.077 2.27464 -2.95837
  991 169.100 2.26999 2.95804
  992 -2.30908 -15.6388 21.4952
  993 235.807 1.31784 11.9157
  994 235.738 1.38962 -11.9445
  995 309.581 -20.7543 -13.5060
  996 -10.8515 -2.28691 10.3647
  997 -10.8544 -2.29511 -10.3692
  998 4.90822 -20.7947 15.6316
  999 -0.526259 -38.6601 15.4958
  1000 -0.0436403 -39.7974 7.61826
  1001 314.424 20.9346 -1.76709
  1002 361.515 39.6100 13.1031
  1003 259.446 -30.2917 -42.2321
  1004 3.61979 -38.1847 12.6797
  1005 4.61433 -55.1214 3.31534
  1006 71.2228 2.06811 0.262732
  1007 71.2100 2.06657 -0.262580
  1008 -2.88619 -3.28804 -4.36321
  1009 -2.88387 -3.28903 4.36687
  1010 2.38705 -31.3618 -16.7362
  1011 209.760 0.523977 -0.700715
  1012 209.797 0.522771 0.700475
  1013 41.3180 -1.11077 -19.2297
  1014 39.5219 -1.01050 19.0453
  1015 -4.25526 6.38616 18.7937
  1016 -4.32498 6.40537 -18.8186
  1017 -25.2566 3.82296 -11.7238
  1018 -25.2038 3.81567 11.7141
  1019 158.914 2.61534 -31.9621
  1020 159.024 2.74153 32.3238
  1021 114.053 10.1892 -22.0123
  1022 114.054 10.1836 22.2379
  1023 124.079 9.34926 -7.17360
  1024 124.099 9.32702 7.19756
  1025 323.695 -9.53425 -37.7207
  1026 -8.89004 3.90674 20.5074
  1027 -8.95298 3.91497 -20.5439
  1028 229.494 -0.0167557 16.2448
  1029 229.368 0.133378 -16.2603
  1030 -1.62932 -12.3163 22.5020
  1031 -18.6136 -0.635425 10.0206
  1032 -18.6219 -0.638314 -10.0305
  1033 208.954 2.19365 -16.1225
  1034 209.061 2.09149 16.1219
  1035 255.819 5.90828 -27.0151
  1036 -0.343980 -38.4794 -16.2682
  1037 -3.14287 -15.1730 19.1730
  1038 -3.27208 -15.3465 -19.0089
  1039 146.803 8.91991 -11.2722
  1040 146.853 8.87657 11.3080
  1041 186.031 3.72129 6.54000
  1042 185.996 3.73730 -6.54232
  1043 308.947 -20.2693 11.7874
  1044 14.2456 1.72688 -0.310361
  1045 14.2785 1.72758 0.310490
  1046 262.466 -33.9037 45.0860
  1047 -2.53492 1.21433 1.46539
  1048 -2.57385 1.21368 -1.46504
  1049 55.8612 14.4854 1.01320
  1050 55.7920 14.5301 -0.974520
  1051 20.8185 11.3903 11.4699
  1052 20.7545 11.4183 -11.4705
  1053 2.81707 -47.4564 -10.5173
  1054 75.0739 3.15067 -0.153428
  1055 75.0847 3.15354 0.155679
  1056 222.301 7.47249 6.87909
  1057 211.565 1.87414 6.13454
  1058 211.525 1.88834 -6.13998
  1059 -1.41531 -12.7687 -22.5383
  1060 318.516 -4.04037 -6.88851
  1061 -0.270595 -1.32097 22.4956
  1062 -0.0360491 -1.12956 -22.4005
  1063 291.054 -0.475502 -2.18725
  1064 291.114 -0.477853 2.18266
  1065 309.861 -1.00061 -3.83095
  1066 309.768 -1.04196 3.71934
  1067 -0.236767 -60.3276 5.74571
  1068 180.736 4.92838 -8.68022
  1069 180.774 4.90229 8.67953
  1070 220.528 2.25179 7.18396
  1071 220.484 2.26988 -7.19265
  1072 4.57808 5.01144 20.3846
  1073 4.55352 5.01564 -20.3998
  1074 479.967 32.4630 4.52072
  1075 -6.30339 -2.81419 22.9673
  1076 -6.39147 -2.75713 -23.0209
  1077 67.4666 13.5772 -0.0918083
  1078 67.4362 13.5927 0.124295
  1079 -39.3813 0.817039 -2.16173
  1080 -39.3294 0.817175 2.16175
  1081 111.428 6.09471 -37.5401
  1082 111.293 6.41354 38.0232
  1083 31.5511 12.8503 9.02203
  1084 31.4806 12.8855 -9.01532
  1085 75.4314 8.31049 -27.3186
  1086 75.0483 8.69435 27.5801
  1087 -2.05433 -20.2133 -15.7318
  1088 267.571 3.37959 35.1648
  1089 188.516 -1.57282 118.917
  1090 29.6797 13.1302 9.32431
  1091 29.5952 13.1785 -9.32477
  1092 113.367 6.39986 -2.40541
  1093 113.374 6.39070 2.41182
  1094 415.294 -0.480479 12.4694
  1095 26.0375 6.32321 6.21511
  1096 25.7072 6.41135 -6.30735
  1097 -12.3582 -2.73766 13.8212
  1098 -12.3667 -2.74972 -13.8338
  1099 -0.406371 -9.09975 3.69288
  1100 -0.422131 -9.09386 -3.70751
  1101 272.680 -0.0902771 9.64852
  1102 272.606 0.0164548 -9.73177
  1103 0.310683 -19.6803 21.1376
  1104 -18.8674 1.13781 -18.5598
  1105 -18.8310 1.13888 18.5352
  1106 0.0981167 -73.2092 -7.37647
  1107 -4.43508 -6.21027 22.9281
  1108 -4.42468 -6.08486 -22.9514
  1109 261.139 0.448218 -4.06372
  1110 261.192 0.442437 4.05827
  1111 268.725 -1.86567 11.5259
  1112 268.560 -1.69454 -11.6125
  1113 46.0126 9.93687 -8.48613
  1114 45.6635 10.1472 8.58535
  1115 -0.652439 -37.7089 -13.1508
  1116 354.224 -34.9774 -68.8797
  1117 459.674 56.9954 0.240337
  1118 4.60304 -58.1977 -1.60796
  1119 15.9073 9.17540 -15.1250
  1120 15.9998 9.12152 15.0608
  1121 42.9713 14.1425 4.55659
  1122 42.8743 14.2049 -4.53705
  1123 91.8277 5.82384 0.698142
  1124 91.8311 5.82947 -0.692559
  1125 -5.99998 -8.54624 17.9141
  1126 -5.99069 -8.62534 -17.9400
  1127 -17.4278 5.27236 15.0065
  1128 -17.4826 5.28358 -15.0212
  1129 -6.48191 6.62651 17.4097
  1130 -6.54502 6.64341 -17.4295
  1131 255.932 -13.0341 -19.4663
  1132 257.606 -13.1602 19.2810
  1133 0.212316 -43.5425 -15.5084
  1134 135.654 -0.702234 -47.3707
  1135 135.891 -0.269394 48.1997
  1136 42.7963 13.0842 -4.99073
  1137 42.8458 13.0588 5.00848
  1138 137.573 57.8487 133.195
  1139 33.2846 10.5722 6.76588
  1140 33.2412 10.5860 -6.75616
  1141 350.123 -39.5226 -15.4794
  1142 131.411 3.99755 2.00335
  1143 131.400 4.00398 -2.00168
  1144 -5.98204 -5.34088 10.9155
  1145 -5.98528 -5.35291 -10.9109
  1146 -7.15513 -6.42951 14.1470
  1147 -7.15402 -6.45401 -14.1473
  1148 228.773 -24.0804 -67.0623
  1149 233.548 -26.4468 67.5744
  1150 40.0866 1.84535 0.383834
  1151 40.1105 1.84662 -0.382906
  1152 143.043 6.75713 -25.8053
  1153 143.065 6.66415 26.0788
  1154 314.341 -43.1642 50.9463
  1155 281.009 -0.565769 0.606419
  1156 280.942 -0.565358 -0.606254
  1157 -25.5210 3.96669 13.3833
  1158 -25.5739 3.97440 -13.3962
  1159 -43.6357 1.38885 -7.06549
  1160 -43.5807 1.38667 7.06176
  1161 70.7489 -1.61336 79.1737
  1162 214.772 14.6853 -13.9411
  1163 130.830 9.65500 -12.4676
  1164 130.877 9.61990 12.5398
  1165 409.931 -15.1264 73.9681
  1166 132.942 9.21719 -18.6974
  1167 133.001 9.16315 18.8232
  1168 32.4225 4.54030 -2.61766
  1169 32.4505 4.54054 2.62030
  1170 11.3733 -44.7014 6.85673
  1171 11.5100 -43.6506 -9.92676
  1172 180.547 -13.3309 -67.6438
  1173 183.088 -12.5007 67.6239
  1174 70.0776 11.2942 -18.7967
  1175 69.7875 11.5402 19.0093
  1176 319.182 -21.7954 -24.7356
  1177 -11.8304 -1.06304 20.9190
  1178 -11.8679 -1.06195 -20.9499
  1179 -0.299677 -17.6012 -21.7052
  1180 80.4330 1.16218 -49.6046
  1181 80.6291 1.42933 50.4963
  1182 -0.206629 -16.1592 4.12390
  1183 -0.176262 -16.1978 -4.17402
  1184 -77.3209 0.655835 -2.05397
  1185 -77.2560 0.655478 2.05284
  1186 254.998 0.0249273 -1.10624
  1187 255.053 0.0239654 1.10564
  1188 156.360 6.12242 -7.29335
  1189 156.395 6.09664 7.30156
  1190 -5.97308 -0.195216 23.0109
  1191 -5.99115 -0.104557 -23.0535
  1192 0.0281693 -65.2184 -6.40805
  1193 -65.5536 0.160085 3.28403
  1194 -65.6094 0.160494 -3.28744
  1195 49.6279 -2.47834 -34.3970
  1196 49.2466 -2.16628 35.5329
  1197 296.726 -18.2113 -0.305599
  1198 83.7092 4.55553 -44.5221
  1199 83.7761 4.80910 44.9950
  1200 -36.2589 0.192648 4.99069
  1201 -36.2775 0.192508 -4.99675
  1202 0.933364 -57.4921 -11.0164
  1203 -11.6939 2.40956 -2.84058
  1204 -11.6511 2.40934 2.84103
  1205 43.8713 11.1247 5.10032
  1206 43.8310 11.1386 -5.08549
  1207 166.663 1.23881 -0.985499
  1208 166.685 1.23691 0.985553
  1209 225.466 1.31096 4.67041
  1210 225.424 1.31971 -4.67495
  1211 12.0110 -2.12508 13.0401
  1212 11.8311 -2.33167 -13.2573
  1213 2.01569 -33.1867 16.6847
  1214 403.680 54.2807 17.1735
  1215 -12.4593 -0.986182 7.85759
  1216 -12.4600 -0.990223 -7.86134
  1217 1.58577 -31.0715 -17.4085
  1218 -1.20198 -18.9486 11.5123
  1219 -1.13982 -18.7834 -11.9303
  1220 320.010 -3.46827 6.12459
  1221 0.288594 -74.7010 6.57217
  1222 2.22464 -22.8992 -19.4082
  1223 37.0605 1.47672 0.437808
  1224 37.0356 1.47559 -0.437732
  1225 -3.22530 -13.6693 21.1255
  1226 -35.9912 2.07043 -6.03680
  1227 -35.9384 2.06846 6.03478
  1228 658.051 11.5610 18.4353
  1229 -18.7317 2.10881 18.7970
  1230 -18.7748 2.10976 -18.8236
  1231 152.980 6.33828 -23.3437
  1232 153.122 6.21793 23.4879
  1233 9.75898 -15.8720 -8.80007
  1234 145.724 7.84216 -9.22834
  1235 145.764 7.80753 9.25210
  1236 5.91432 -46.2771 -3.13572
  1237 -3.23439 -13.6936 -21.0855
  1238 -25.5871 1.11623 3.65757
  1239 -25.6350 1.11635 -3.65764
  1240 -11.3884 0.748908 -21.4375
  1241 -11.3430 0.750544 21.4085
  1242 310.956 24.7361 27.7066
  1243 177.238 2.22933 -24.8624
  1244 177.456 2.16526 24.9252
  1245 -81.1587 0.206961 -0.780390
  1246 -81.0924 0.206928 0.780327
  1247 160.016 4.24512 -4.96600
  1248 160.039 4.23444 4.96687
  1249 -83.5007 -1.39428 -0.216681
  1250 -83.5667 -1.39480 0.216774
  1251 238.847 -17.0843 -28.4576
  1252 -38.0318 0.637135 10.6094
  1253 -38.0690 0.637833 -10.6230
  1254 241.298 -18.0302 28.1989
  1255 162.651 6.31291 -10.1823
  1256 162.695 6.27485 10.1937
  1257 18.8550 -48.1405 -34.1690
  1258 0.342536 -52.6132 -13.3133
  1259 -1.13677 -22.1645 19.8177
  1260 516.237 81.7541 -69.9019
  1261 -0.129581 -49.2504 12.9499
  1262 536.680 50.4985 -31.2729
  1263 -0.271748 -91.1768 -6.21218
  1264 24.7185 2.82314 -1.02168
  1265 24.7481 2.82386 1.02305
  1266 -0.229642 -20.7592 4.32311
  1267 -0.185919 -20.8687 -4.31043
  1268 90.1899 2.62458 -0.0585564
  1269 90.1958 2.62671 0.0591189
  1270 322.883 -24.9797 23.5622
  1271 5.50663 2.62266 -3.29330
  1272 5.54364 2.62257 3.29413
  1273 1.86604 -100.720 3.20965
  1274 1.18464 -107.133 -3.16614
  1275 296.970 -37.5975 -30.2795
  1276 -0.830315 -27.1234 12.7446
  1277 309.090 19.4307 -34.6496
  1278 -0.929487 -35.7464 12.5380
  1279 0.612383 -98.3160 -4.85885
  1280 149.126 4.63283 -5.35485
  1281 149.150 4.61513 5.35960
  1282 -0.107542 -53.1566 5.66496
  1283 -0.141021 -44.2644 -12.7937
  1284 710.964 121.301 105.687
  1285 282.338 0.234626 0.470582
  1286 282.270 0.234586 -0.470385
  1287 7.15920 0.254689 18.6037
  1288 6.92794 0.556391 -18.6831
  1289 -4.63575 3.97103 21.6895
  1290 -4.73476 3.98002 -21.7334
  1291 298.979 -5.65587 -20.5206
  1292 277.690 -11.5677 -10.9932
  1293 277.393 -13.1833 11.0793
  1294 40.5422 5.11968 2.68990
  1295 40.5165 5.11933 -2.68572
  1296 -46.0745 1.24087 -8.36243
  1297 -46.0222 1.23834 8.35385
  1298 309.811 -43.6129 -43.2278
  1299 -2.32303 -5.60121 5.70558
  1300 -2.33178 -5.59666 -5.70273
  1301 326.364 -14.4849 35.5782
  1302 -3.46283 -12.9945 15.4790
  1303 -3.42521 -13.0421 -15.4079
  1304 -29.9390 2.03935 4.35086
  1305 -29.9889 2.04043 -4.35140
  1306 48.6537 4.87469 -17.3743
  1307 48.1565 5.16128 17.3731
  1308 76.5381 2.49524 0.443909
  1309 76.5273 2.49309 -0.443186
  1310 -32.0086 3.18129 13.1727
  1311 -32.0591 3.18708 -13.1866
  1312 264.710 0.788734 0.731643
  1313 264.650 0.788591 -0.731398
  1314 144.530 -2.44486 90.4231
  1315 215.695 0.733901 1.64697
  1316 215.656 0.735353 -1.64734
  1317 142.207 2.94051 -36.0453
  1318 142.249 2.77039 36.3804
  1319 1.34794 -58.1667 -8.12961
  1320 54.6818 13.0059 -6.86367
  1321 54.4515 13.1664 6.96793
  1322 -0.529645 -0.490811 -0.702904
  1323 -0.532306 -0.490998 0.704949
  1324 183.966 5.92001 13.3192
  1325 183.897 5.98643 -13.3096
  1326 90.7650 7.80170 1.61127
  1327 90.7685 7.80821 -1.60007
  1328 134.268 7.90484 -6.15494
  1329 134.292 7.88320 6.16977
  1330 176.579 1.37952 -1.64872
  1331 176.604 1.37754 1.64866
  1332 -5.63496 -2.73763 -6.44574
  1333 -5.63425 -2.73465 6.44928
  1334 -54.6764 0.128585 2.58630
  1335 -54.7340 0.128674 -2.58667
  1336 -9.65130 -4.45193 -15.8298
  1337 -9.64475 -4.43028 15.8144
  1338 -31.6723 0.624927 1.10098
  1339 -31.7211 0.624504 -1.10093
  1340 -84.3431 0.786559 0.447884
  1341 -84.4097 0.786721 -0.447866
  1342 333.560 -43.3192 59.2689
  1343 238.704 -1.58583 -28.5354
</Section>

newXOutput 40

<Section columns = "stress_xx | stress_yy | stress_xy">
  1 298.253 -0.380691 0.294160
  2 298.328 -0.380926 -0.294304
  3 -93.4380 0.467074 -1.26591
  4 0.150310 0.0402482 0.265371
  5 545.156 148.878 173.917
  6 616.090 169.088 -166.682
  7 0.149701 0.0396824 -0.264563
  8 -93.3661 0.467005 1.26553
  9 297.337 -0.356289 -0.982154
  10 297.561 -0.853660 -1.60160
  11 300.376 -0.839409 -0.417576
  12 300.651 -0.788798 -1.86190
  13 301.341 -0.766027 -0.556496
  14 307.668 -0.744833 -0.780907
  15 309.819 -1.10890 -2.49492
  16 312.098 -0.497986 -1.69597
  17 313.498 0.218259 -3.27566
  18 326.288 -1.71830 -2.80694
  19 331.727 -1.30753 -3.62920
  20 337.686 -2.02586 -1.36320
  21 340.459 -2.72644 -0.767931
  22 337.694 -3.17782 4.56245
  23 325.683 -3.59005 9.52089
  24 297.922 -4.10518 20.2311
  25 253.383 2.17578 23.5031
  26 216.372 2.57874 21.9890
  27 165.198 5.68872 13.3416
  28 176.000 5.53862 1.09431
  29 146.196 16.6659 -8.55181
  30 204.842 7.56759 -23.7867
  31 237.471 1.76670 -19.4990
  32 291.753 -0.940152 -16.8697
  33 321.701 -4.35553 -11.3865
  34 337.093 -3.70649 -4.54718
  35 339.730 -2.63666 0.781282
  36 337.180 -1.99791 1.26665
  37 331.509 -1.31681 3.51521
  38 326.203 -1.74199 2.74053
  39 313.511 0.204534 3.24295
  40 312.145 -0.503166 1.68336
  41 309.885 -1.11209 2.49024
  42 307.740 -0.746488 0.778630
  43 301.414 -0.767012 0.555529
  44 300.726 -0.789674 1.86236
  45 300.452 -0.840035 0.417633
  46 297.635 -0.854154 1.60236
  47 297.411 -0.356510 0.982622
  48 280.995 0.863403 -0.362254
  49 259.905 0.484238 -0.822179
  50 233.596 -0.530636 -0.851303
  51 206.372 1.10443 -0.708183
  52 182.578 0.945170 -0.566843
  53 157.164 1.77451 -0.673518
  54 132.125 3.06763 -0.423183
  55 106.177 2.77366 -0.853360
  56 84.6871 2.02152 -1.18386
  57 56.5274 1.36782 -1.24723
  58 27.9575 1.88718 -0.947235
  59 4.13063 1.55176 -0.915357
  60 -25.5662 0.936108 -0.842234
  61 -47.6434 -0.157742 -2.01322
  62 -69.0185 -1.40270 -0.925564
  63 -90.6702 0.208303 0.602500
  64 -95.3156 1.63781 -0.257660
  65 -95.6025 0.733751 0.250570
  66 -92.4031 0.379598 -0.143416
  67 -93.3003 1.06048 -1.17540
  68 -91.7666 1.28304 -0.155055
  69 -86.7469 0.404012 -1.79271
  70 -87.6273 0.789309 -1.92171
  71 -85.3554 0.751027 -1.10162
  72 -78.9762 0.477128 -1.64152
  73 -75.9320 0.841410 -2.67872
  74 -71.2608 0.936393 -2.21324
  75 -63.0027 0.479502 -3.78306
  76 -58.3515 0.147526 -3.16318
  77 -50.0224 0.212296 -3.63844
  78 -42.8354 0.155051 -4.01389
  79 -36.5960 0.0501261 -3.16737
  80 -27.9670 0.182902 -3.18841
  81 -20.5382 -0.0852325 -3.40498
  82 -13.3534 -0.374928 -2.98035
  83 -7.66934 -0.327794 -2.27788
  84 -3.75539 -0.570027 -1.89905
  85 -0.605243 -0.329189 -0.672194
  86 0.0587362 -0.363031 -0.235725
  87 -0.196726 -0.180076 -0.0385236
  88 -0.514943 -0.476911 -0.587933
  89 -0.499504 -3.17285 -1.64751
  90 -0.428442 -7.13983 -2.35708
  91 -0.223349 -12.2280 -3.44292
  92 -0.117383 -18.7998 -2.97050
  93 -0.103320 -24.8633 -3.74014
  94 -0.461507 -32.2921 -4.22878
  95 -0.188354 -41.4460 -4.27900
  96 0.0881059 -50.6691 -4.10353
  97 0.200821 -60.5637 -4.05307
  98 0.305763 -70.7479 -3.99342
  99 0.0285450 -78.2962 -5.41218
  100 0.534676 -88.9709 -4.84975
  101 0.649604 -101.496 -3.90248
  102 -0.0140343 -107.170 -5.18720
  103 0.920329 -116.460 -4.83333
  104 2.23803 -128.851 -2.43243
  105 4.35853 -132.466 -3.85608
  106 2.99976 -122.090 2.68820
  107 4.23121 -93.5424 12.1027
  108 23.0449 -56.5674 36.5081
  109 73.1901 94.9676 127.774
  110 840.987 44.3698 82.5829
  111 721.201 13.5199 30.1339
  112 697.938 5.10519 6.78140
  113 693.058 1.87259 -1.12216
  114 697.683 7.77660 -15.9169
  115 719.248 24.3825 -35.5704
  116 817.654 86.9737 -104.731
  117 174.339 73.5209 -156.144
  118 38.3484 -55.7653 -44.8707
  119 11.2337 -102.328 -16.4221
  120 3.08325 -115.768 -2.94691
  121 3.49893 -127.573 2.22355
  122 1.00605 -123.861 1.89116
  123 0.373311 -113.549 4.14211
  124 0.398036 -106.743 3.28998
  125 0.557921 -95.9901 5.50296
  126 -0.0279334 -89.7465 5.32638
  127 0.221369 -81.0116 3.84073
  128 0.425820 -69.8903 4.85752
  129 0.0803802 -61.9608 3.85189
  130 0.126094 -50.7420 4.86301
  131 -0.506676 -41.9422 4.17577
  132 -0.357626 -32.3204 4.09820
  133 -0.0744559 -24.7283 3.75023
  134 -0.151376 -18.6924 2.97680
  135 -0.218456 -12.1923 3.40976
  136 -0.422376 -7.13484 2.34542
  137 -0.496881 -3.17759 1.64632
  138 -0.514315 -0.481866 0.589064
  139 -0.196706 -0.182233 0.0399573
  140 0.0561340 -0.363391 0.237052
  141 -0.610212 -0.329044 0.673921
  142 -3.76313 -0.569550 1.90088
  143 -7.67989 -0.326829 2.27856
  144 -13.3623 -0.373735 2.97933
  145 -20.5415 -0.0842457 3.40183
  146 -27.9636 0.183094 3.18469
  147 -36.5834 0.0505508 3.16349
  148 -42.8143 0.155516 4.00948
  149 -49.9903 0.212199 3.63387
  150 -58.3095 0.147380 3.15898
  151 -62.9542 0.479141 3.77903
  152 -71.2036 0.935833 2.21020
  153 -75.8703 0.840813 2.67632
  154 -78.9103 0.476745 1.64011
  155 -85.2859 0.750631 1.10080
  156 -87.5564 0.788969 1.92086
  157 -86.6760 0.403866 1.79210
  158 -91.6940 1.28262 0.155097
  159 -93.2274 1.06017 1.17513
  160 -92.3309 0.379537 0.143497
  161 -95.5294 0.733573 -0.250380
  162 -95.2429 1.63734 0.257669
  163 -90.5992 0.208304 -0.602261
  164 -68.9549 -1.40203 0.925321
  165 -47.5872 -0.157262 2.01264
  166 -25.5176 0.936502 0.842071
  167 4.16878 1.55229 0.915158
  168 27.9872 1.88799 0.947028
  169 56.5468 1.36924 1.24694
  170 84.6964 2.02306 1.18355
  171 106.178 2.77522 0.853136
  172 132.117 3.06912 0.422987
  173 157.146 1.77620 0.673156
  174 182.552 0.946789 0.566444
  175 206.336 1.10543 0.707645
  176 233.549 -0.529549 0.850696
  177 259.848 0.484380 0.821704
  178 280.928 0.863154 0.362045
  179 77.2769 13.8800 -2.49740
  180 77.2403 13.8996 2.54681
  181 -1.74949 2.12230 22.6388
  182 -1.83187 2.11167 -22.6459
  183 177.235 -2.51968 -39.0507
  184 177.135 -2.87067 39.4789
  185 34.9114 7.74235 -0.798694
  186 34.4948 7.90021 0.819732
  187 24.9266 4.76853 -3.79741
  188 24.9599 4.76738 3.80005
  189 168.170 3.63826 -5.60459
  190 168.198 3.62355 5.60626
  191 -3.66883 6.87737 12.5370
  192 -3.72434 6.89069 -12.5440
  193 195.461 5.37009 -14.6831
  194 195.553 5.29034 14.6972
  195 -7.68358 -6.70528 17.7205
  196 -7.68058 -6.74351 -17.7413
  197 1.64143 -16.2246 -21.4120
  198 60.1840 2.36832 -35.3709
  199 2.03846 -17.3362 20.9234
  200 59.2159 2.86805 35.9717
  201 277.358 -38.1530 -56.8129
  202 287.198 -39.6678 54.4355
  203 98.9712 3.73616 -0.702083
  204 98.9682 3.73249 0.704177
  205 -17.0036 1.30012 -2.53890
  206 -16.9574 1.30039 2.53900
  207 -22.5019 3.36998 17.3230
  208 -22.5529 3.37689 -17.3465
  209 99.4516 9.57846 -2.40904
  210 99.4519 9.57151 2.42484
  211 29.9742 12.6973 8.98288
  212 29.8593 12.7747 -9.00166
  213 -29.1763 3.13839 -7.33305
  214 -29.1228 3.13491 7.32997
  215 224.299 0.656647 2.72079
  216 224.257 0.660104 -2.72219
  217 7.03009 -30.6172 9.51470
  218 7.64651 -27.8122 -8.52250
  219 -2.14071 -18.9165 20.0359
  220 -2.18409 -19.6310 -19.3981
  221 91.8092 13.3936 -15.1288
  222 91.7343 13.4552 15.3011
  223 -20.1627 -0.112017 17.3312
  224 -20.1917 -0.114081 -17.3534
  225 239.968 1.68672 -8.12907
  226 240.017 1.66372 8.11523
  227 257.988 -3.51378 -15.9738
  228 258.184 -3.78222 15.8918
  229 411.190 31.8622 -0.317637
  230 377.217 41.6064 24.4342
  231 372.830 -4.26660 -35.4016
  232 44.7669 10.4083 4.87721
  233 44.7310 10.4185 -4.86508
  234 2.66462 8.35012 17.5514
  235 2.59287 8.37507 -17.5686
  236 288.147 -17.4579 -10.3030
  237 286.458 -17.6776 11.2200
  238 159.011 1.80831 -2.00641
  239 159.030 1.80429 2.00650
  240 -35.9813 2.53196 11.6090
  241 -36.0351 2.53720 -11.6205
  242 -4.88898 -4.81371 -7.93481
  243 -4.88492 -4.81109 7.94018
  244 -40.2604 1.05882 3.76730
  245 -40.3154 1.05927 -3.76786
  246 130.369 10.1431 -9.53397
  247 130.398 10.1144 9.57289
  248 166.088 5.27827 -22.1269
  249 166.228 5.18138 22.2256
  250 39.2903 2.87564 -0.418171
  251 39.3160 2.87664 0.419299
  252 95.5278 -0.751247 -77.8431
  253 113.255 2.13028 85.0741
  254 12.5930 5.69892 16.8383
  255 12.5365 5.82978 -16.9010
  256 392.844 -31.8247 -5.95790
  257 33.3466 12.9606 7.78472
  258 33.2862 12.9894 -7.77450
  259 93.5769 9.84279 -28.7991
  260 93.4076 10.0977 29.1371
  261 438.301 60.6693 -6.13154
  262 260.248 0.406919 11.0046
  263 260.175 0.490598 -11.0525
  264 -2.36960 -14.5711 -12.4776
  265 -2.30381 -14.6304 12.5277
  266 -0.531639 -34.7359 -17.2631
  267 1.10928 -40.8055 -16.0908
  268 0.577264 -40.7225 16.7809
  269 -6.62475 -5.76754 22.8844
  270 -6.65120 -5.75628 -22.9698
  271 13.6630 -33.2621 -4.96625
  272 14.6874 -30.7589 7.25757
  273 -15.0381 -1.27834 10.9624
  274 -15.0451 -1.28389 -10.9717
  275 184.564 5.51434 -9.07410
  276 184.611 5.48028 9.07558
  277 323.824 -33.8954 -1.48736
  278 70.7067 6.43159 -0.538162
  279 70.7208 6.43375 0.543789
  280 -0.871217 -32.5795 16.4917
  281 6.07795 6.78574 8.21452
  282 6.03140 6.79402 -8.21439
  283 516.311 36.3694 -13.0989
  284 252.714 0.386848 3.35578
  285 252.662 0.391905 -3.35971
  286 168.302 -8.51365 -58.9149
  287 169.824 -8.37259 59.8568
  288 323.388 -32.1106 -3.84598
  289 -30.8747 0.940644 13.7215
  290 -30.9100 0.941200 -13.7394
  291 317.067 -27.5572 96.7772
  292 -13.8796 2.21262 20.8462
  293 -13.9277 2.21117 -20.8775
  294 52.8322 14.5573 -3.22656
  295 52.6315 14.6975 3.29820
  296 -57.1777 0.519677 0.692820
  297 -57.2374 0.519554 -0.692783
  298 266.920 3.00917 -132.271
  299 -53.1817 1.09562 -6.30257
  300 -53.1228 1.09366 6.29787
  301 -1.65963 -6.85248 23.4546
  302 -0.883608 -6.69840 -23.2403
  303 116.598 12.1671 -13.8634
  304 116.614 12.1545 13.9625
  305 24.6460 3.28232 2.84651
  306 24.6142 3.28199 -2.84522
  307 121.584 5.09757 -2.71169
  308 121.592 5.09001 2.71553
  309 11.2447 -9.25205 12.6670
  310 10.2455 -10.9949 -12.7950
  311 118.013 2.48944 -0.622163
  312 118.016 2.48692 0.622629
  313 -43.4892 1.13068 10.0929
  314 -43.5348 1.13251 -10.1055
  315 29.1965 -3.55720 -6.37158
  316 28.3114 -3.58887 5.59942
  317 263.797 -0.0519832 0.934424
  318 263.738 -0.0513576 -0.934490
  319 577.443 33.1416 22.1422
  320 58.6176 8.22245 2.09968
  321 58.5958 8.22345 -2.09016
  322 -13.4437 3.02024 5.20372
  323 -13.4909 3.02234 -5.20402
  324 81.0398 11.3657 -1.47085
  325 81.0242 11.3665 1.49879
  326 9.15790 8.38579 18.2506
  327 9.09829 8.40700 -18.2859
  328 1.20824 -58.7786 11.8732
  329 -59.0964 0.180741 -1.55097
  330 -59.0357 0.180919 1.55088
  331 200.803 0.880246 -1.77085
  332 200.837 0.878119 1.77046
  333 211.490 1.74550 -4.69766
  334 211.529 1.73557 4.69421
  335 -54.9183 0.983881 -4.61581
  336 -54.8580 0.982929 4.61400
  337 -2.02728 1.20583 0.633281
  338 -2.06768 1.20525 -0.633019
  339 -1.22620 -24.0053 12.4682
  340 -0.976673 -24.9668 -12.4515
  341 237.566 -19.9640 -39.6559
  342 246.877 -23.8597 38.9025
  343 140.800 7.25811 -5.86422
  344 140.822 7.23988 5.87360
  345 61.5019 14.6546 -1.40268
  346 61.4052 14.7169 1.45936
  347 -22.4924 4.27790 10.3712
  348 -22.5462 4.28507 -10.3781
  349 444.612 6.18198 9.32998
  350 23.0652 -36.0564 -25.2008
  351 24.6706 -33.7996 26.4563
  352 -9.83764 6.79717 16.4908
  353 -9.89817 6.81231 -16.5078
  354 -12.3716 -2.54405 20.2348
  355 -12.4003 -2.54872 -20.2674
  356 503.417 82.9754 -21.7073
  357 321.608 -5.18276 42.5844
  358 301.407 -6.96264 -7.08033
  359 301.103 -6.80172 6.56965
  360 210.495 -2.30898 -25.2168
  361 210.261 -2.53138 25.2210
  362 0.390466 -70.7942 -9.64041
  363 276.239 0.822388 -6.19168
  364 276.284 0.798533 6.16579
  365 3.53691 -66.8131 7.71685
  366 316.949 24.7078 -23.4914
  367 77.1984 2.98399 1.03094
  368 77.1866 2.98252 -1.03079
  369 211.839 1.80871 -18.7329
  370 211.982 1.68914 18.7490
  371 228.714 2.14786 -11.3928
  372 228.776 2.09489 11.3739
  373 -5.15732 2.69637 3.55442
  374 -5.20036 2.69697 -3.55386
  375 130.372 7.23518 -29.7565
  376 130.424 7.31088 30.0459
  377 271.928 0.00348469 1.53355
  378 271.866 0.00469668 -1.53436
  379 152.954 8.70125 -14.9193
  380 153.020 8.64260 14.9765
  381 177.189 3.09061 3.78999
  382 177.162 3.09767 -3.79053
  383 -8.48287 -1.54027 6.74462
  384 -8.48173 -1.54409 -6.74431
  385 -2.01030 -1.43038 -1.95118
  386 -2.01130 -1.43120 1.95423
  387 362.103 -46.3330 24.5315
  388 -4.77476 -11.4659 18.4694
  389 -4.74343 -11.5610 -18.4688
  390 58.0176 4.10543 -1.40391
  391 58.0365 4.10721 1.40652
  392 -1.80409 -8.99995 6.77047
  393 -1.82423 -8.98469 -6.77099
  394 21.9411 10.3284 9.02372
  395 21.8901 10.3456 -9.01983
  396 296.122 -1.10205 8.15418
  397 296.061 -0.989083 -8.31034
  398 -0.798742 -17.7923 22.3255
  399 -24.3588 -0.455038 10.3981
  400 -24.3740 -0.456995 -10.4101
  401 -0.892310 -18.7772 -22.0730
  402 278.177 0.217910 3.94020
  403 278.122 0.225031 -3.94895
  404 -2.94267 6.04558 20.6566
  405 -3.02779 6.06643 -20.6879
  406 204.967 3.34642 -7.52251
  407 205.009 3.32554 7.51696
  408 315.217 -13.5488 -7.42138
  409 316.339 -10.9008 5.64165
  410 -0.657467 -32.7304 -13.6797
  411 27.7954 10.2302 -6.67444
  412 28.0251 10.1102 6.65206
  413 311.162 20.4887 14.7413
  414 177.697 -10.3149 -81.7448
  415 182.527 -13.6564 85.6440
  416 10.0431 9.77613 13.5821
  417 9.98045 9.79871 -13.5882
  418 130.905 3.93247 -1.85465
  419 130.914 3.92771 1.85585
  420 127.071 18.1434 130.277
  421 52.1216 12.5376 -3.71432
  422 52.1655 12.5183 3.73579
  423 3.17121 -31.5417 15.2613
  424 -0.399292 -53.2538 -11.9173
  425 20.3892 11.9275 12.7419
  426 20.3142 11.9625 -12.7501
  427 25.0835 7.09176 -5.56532
  428 25.1205 7.08682 5.56941
  429 -9.09142 -0.550418 -22.8771
  430 -9.04395 -0.563084 22.8422
  431 62.5432 12.2324 -11.3226
  432 62.2803 12.4244 11.4662
  433 316.104 -10.3836 -32.0814
  434 8.66928 -3.48265 17.9709
  435 8.37678 -3.39202 -18.0727
  436 230.075 -9.81718 -27.8718
  437 231.058 -10.5337 27.8171
  438 -57.9733 0.476787 -6.10546
  439 -57.9172 0.475355 6.09918
  440 0.00454263 -52.2488 10.7085
  441 -0.380187 -33.1609 12.1746
  442 -23.6351 1.49078 17.5692
  443 -23.6732 1.49078 -17.5927
  444 164.891 1.72120 -0.706282
  445 164.911 1.71891 0.706028
  446 -4.98417 -7.86839 12.5221
  447 -4.99178 -7.88558 -12.5078
  448 102.121 4.89862 -43.3961
  449 101.932 5.37729 43.9237
  450 0.851783 -63.4811 -11.8879
  451 576.547 20.9222 0.527899
  452 1.57241 -75.3662 -7.06478
  453 -68.8311 0.0315585 -2.26290
  454 -68.7666 0.0316063 2.26246
  455 -26.5314 3.69499 14.4525
  456 -26.5855 3.70287 -14.4690
  457 -30.6391 0.431138 10.4559
  458 -30.6625 0.431167 -10.4685
  459 111.873 11.7982 -9.25444
  460 111.884 11.7903 9.31530
  461 169.874 7.05483 -11.5511
  462 169.932 7.00514 11.5704
  463 -2.99613 -10.8228 23.0596
  464 -2.99979 -10.7509 -23.1548
  465 294.190 4.64790 -40.5141
  466 19.8602 -5.70016 -4.01440
  467 19.1713 -5.86625 4.36726
  468 4.61449 -68.2930 -0.336652
  469 2.93477 -79.1249 -1.76270
  470 -9.05508 -4.06594 12.8943
  471 -9.05811 -4.08017 -12.8988
  472 62.2056 -7.77686 -67.1044
  473 454.893 -2.21921 -42.9876
  474 101.851 6.90445 2.44540
  475 101.851 6.91179 -2.43656
  476 148.241 1.39728 -41.8979
  477 148.600 1.34991 42.5554
  478 43.0849 15.2388 5.27346
  479 43.0073 15.2874 -5.25511
  480 133.811 10.1239 -21.7722
  481 133.881 10.0671 21.9443
  482 4.64559 2.48519 21.0956
  483 4.94173 2.63442 -21.0694
  484 -60.9332 0.918260 -4.54505
  485 -60.8714 0.917366 4.54244
  486 296.369 -34.9250 -22.1943
  487 235.925 0.311777 -1.29306
  488 235.973 0.310856 1.29302
  489 11.7174 1.82533 -1.55633
  490 11.7532 1.82601 1.55697
  491 -15.6515 5.51922 13.5569
  492 -15.7079 5.53034 -13.5683
  493 -34.9466 2.16005 -5.01786
  494 -34.8927 2.15837 5.01662
  495 101.834 10.2528 -3.89832
  496 101.836 10.2436 3.92216
  497 -12.6571 4.69193 18.9660
  498 -12.7172 4.70393 -18.9929
  499 271.452 -7.52188 -14.8366
  500 271.902 -7.91430 14.6011
  501 177.285 2.00497 -27.8348
  502 177.029 1.86917 28.0807
  503 65.4359 3.33494 -0.814873
  504 65.4520 3.33672 0.815977
  505 0.659631 -32.6193 -18.9458
  506 317.855 -11.7154 26.3627
  507 4.23310 -21.6943 -17.3146
  508 89.6349 14.5095 9.33182
  509 89.6826 14.4728 -9.22920
  510 293.121 -32.6806 21.8927
  511 22.0244 -32.0376 34.9589
  512 349.566 -46.1017 -44.1795
  513 237.830 1.17266 13.7061
  514 237.733 1.27318 -13.7313
  515 0.610470 -27.9372 19.7138
  516 -4.65121 -1.39201 -3.59804
  517 -4.65352 -1.39146 3.60086
  518 28.2509 1.74159 -0.485274
  519 28.2805 1.74254 0.485591
  520 -0.808875 -18.5002 7.99630
  521 -0.733912 -18.4131 -8.03666
  522 195.920 2.24058 3.02862
  523 195.887 2.24439 -3.02947
  524 553.958 96.3969 39.5727
  525 22.5423 -14.8308 -6.36560
  526 17.5188 -19.7238 2.70900
  527 -6.23180 4.30627 -6.87403
  528 -6.18473 4.30179 6.87320
  529 -47.9258 0.759456 6.29049
  530 -47.9639 0.760304 -6.29827
  531 0.472575 -59.4792 11.8180
  532 -67.8022 0.622692 0.659539
  533 -67.8657 0.622697 -0.659460
  534 59.9678 -5.32610 -49.1521
  535 58.6200 -4.26741 51.1060
  536 54.8518 9.36310 -16.4092
  537 54.4369 9.61955 16.5371
  538 -12.9047 -2.73418 17.6794
  539 -12.9227 -2.74496 -17.7034
  540 53.8132 5.14641 1.49965
  541 53.7922 5.14529 -1.49575
  542 -28.9256 1.40338 2.21001
  543 -28.9762 1.40350 -2.20985
  544 63.6491 9.62191 1.70064
  545 63.6265 9.62523 -1.68516
  546 -1.29307 -4.18767 3.07387
  547 -1.29745 -4.18374 -3.07321
  548 22.9554 9.89821 11.5415
  549 22.8030 10.0415 -11.5874
  550 18.5487 2.69770 10.2537
  551 18.2820 2.67209 -10.4024
  552 241.090 1.87131 5.78474
  553 241.043 1.88169 -5.79130
  554 212.980 3.07212 9.19043
  555 212.930 3.10469 -9.19955
  556 -0.219614 -50.1358 -7.41669
  557 148.666 7.78216 -8.76669
  558 148.700 7.75378 8.78403
  559 149.160 3.76356 -3.21720
  560 149.178 3.75517 3.21884
  561 -21.1339 0.843663 -0.0394458
  562 -21.0868 0.844090 0.0396773
  563 252.253 13.9073 -7.79877
  564 334.910 -43.1130 -15.5687
  565 273.031 12.4421 30.7829
  566 2.18742 -43.2211 -13.9907
  567 -15.2700 4.76989 -9.00127
  568 -15.2185 4.76366 8.99774
  569 2.27751 -25.1517 18.7063
  570 -14.9618 0.373696 20.3126
  571 -14.9997 0.372402 -20.3399
  572 426.815 41.0613 -1.18008
  573 96.7264 4.79434 -1.01978
  574 96.7230 4.78993 1.02326
  575 651.045 54.9385 -56.0539
  576 -3.33390 -2.61385 23.7755
  577 -3.12011 -2.44426 -23.7972
  578 353.972 -32.2106 15.2624
  579 285.397 0.368330 -6.90121
  580 285.436 0.329471 6.85588
  581 130.129 -0.692434 -61.0005
  582 131.709 -1.07770 61.9949
  583 -7.37298 -7.09084 20.4789
  584 -7.37939 -7.12649 -20.5301
  585 68.0617 5.45709 31.8947
  586 68.6343 4.93246 -31.6081
  587 -56.1741 0.652442 -5.93796
  588 -56.1221 0.651398 5.93125
  589 417.379 34.2447 26.0900
  590 78.8556 7.56650 0.0582646
  591 78.8665 7.56943 -0.0496437
  592 93.1595 11.5438 -21.7389
  593 93.0413 11.6852 21.9932
  594 257.714 -0.359549 -13.4480
  595 257.837 -0.494973 13.4008
  596 -1.17898 -26.2839 -18.4491
  597 281.044 -0.262121 2.06002
  598 280.980 -0.260425 -2.06143
  599 -41.4576 0.884248 -0.887081
  600 -41.4032 0.884382 0.887309
  601 -72.7001 -0.471478 0.0334423
  602 -72.7651 -0.471800 -0.0333632
  603 5.89707 -39.9532 -6.85586
  604 -2.64937 -17.0264 15.7622
  605 -2.79433 -16.1132 -15.8680
  606 -32.0492 1.96269 14.6571
  607 -32.0925 1.96582 -14.6759
  608 195.748 5.05766 11.5677
  609 195.688 5.10802 -11.5681
  610 143.892 2.13744 0.767021
  611 143.880 2.13945 -0.766901
  612 32.2118 -9.83976 19.8831
  613 33.2634 -9.14748 -19.6865
  614 -1.01177 -12.8935 6.74858
  615 -1.04239 -12.8518 -6.77093
  616 336.794 20.1877 140.884
  617 -16.6234 -0.518316 6.26108
  618 -16.6235 -0.520626 -6.26579
  619 5.85043 -24.2732 -14.0564
  620 140.703 5.88437 -4.45239
  621 140.720 5.87213 4.45723
  622 68.5407 14.6102 -6.67680
  623 68.4134 14.6986 6.77846
  624 0.681369 -90.0232 4.90582
  625 51.2734 14.3861 3.30499
  626 51.2173 14.4180 -3.27922
  627 -6.08695 5.95337 10.8095
  628 -6.13924 5.96290 -10.8141
  629 -0.401800 -44.2514 10.1322
  630 -72.3273 0.0982315 -2.24876
  631 -72.2614 0.0981214 2.24811
  632 92.2539 2.72220 0.191500
  633 92.2599 2.72497 -0.190317
  634 234.960 0.875231 3.81457
  635 234.915 0.880412 -3.81719
  636 206.749 -15.2535 107.575
  637 166.188 4.43113 -6.91189
  638 166.219 4.41040 6.91578
  639 2.52137 -3.69907 22.0842
  640 3.11903 -2.20970 -22.0585
  641 266.093 -27.6496 -86.9568
  642 631.786 21.8838 -23.3264
  643 -66.3565 0.0653193 -4.12274
  644 -66.2959 0.0646632 4.11919
  645 15.1391 3.65982 -3.34320
  646 15.1750 3.65919 3.34465
  647 -1.25788 -27.8145 16.2717
  648 359.909 20.7087 -38.1937
  649 277.954 -0.402818 0.349167
  650 277.888 -0.402464 -0.349102
  651 -17.8975 -0.994513 -14.5846
  652 -17.8804 -0.990240 14.5677
  653 -0.0498598 -62.9659 -9.76650
  654 282.770 -0.436537 0.790189
  655 282.703 -0.436065 -0.790170
  656 25.2940 9.01872 7.66282
  657 25.2504 9.02956 -7.65760
  658 214.437 -18.9170 -56.9007
  659 218.387 -18.8503 57.5534
  660 314.778 -1.92006 4.67729
  661 314.870 -1.89713 -4.89056
  662 1.37186 -79.5753 7.73000
  663 -17.9354 0.667688 -1.29330
  664 -17.8892 0.668188 1.29351
  665 102.713 6.61200 -101.864
  666 96.0285 2.45736 0.707488
  667 96.0336 2.45916 -0.707005
  668 46.8370 3.74921 0.740891
  669 46.8139 3.74800 -0.738989
  670 55.8710 6.42294 -1.22353
  671 55.8922 6.42357 1.23000
  672 183.160 5.38923 -17.8835
  673 183.273 5.29684 17.9274
  674 48.1128 14.1217 1.23243
  675 47.9726 14.2205 -1.20036
  676 -33.7353 2.52389 -8.47156
  677 -33.6803 2.51961 8.46641
  678 -39.0792 2.68767 -9.59554
  679 -39.0238 2.68314 9.58742
  680 323.234 -4.85275 -1.19893
  681 0.249827 -13.3127 -22.4811
  682 323.797 -5.09092 0.723616
  683 409.654 32.3765 0.0995474
  684 -40.6267 0.187721 7.14777
  685 -40.6561 0.187739 -7.15687
  686 41.8202 11.9585 -1.68038
  687 41.5231 12.1125 1.72218
  688 -77.7383 0.0872147 -0.832114
  689 -77.6710 0.0872778 0.832095
  690 0.488300 -12.0091 22.5374
  691 -25.4968 0.332428 15.3916
  692 -25.5281 0.331636 -15.4113
  693 354.520 -30.2380 -16.6464
  694 55.2384 1.64589 -0.319940
  695 55.2186 1.64449 0.320481
  696 12.1920 5.33765 5.50119
  697 12.1523 5.34090 -5.49925
  698 186.702 -8.70559 -47.4866
  699 188.150 -9.04745 48.4355
  700 658.218 46.4048 51.1751
  701 12.4343 -61.9893 -20.7236
  702 -4.78192 -10.0341 21.9263
  703 -4.79157 -10.0727 -21.9732
  704 38.8343 8.95741 -4.31120
  705 38.8677 8.95152 4.31938
  706 290.649 -0.357534 -2.10430
  707 290.714 -0.359457 2.10150
  708 137.453 2.64176 1.28217
  709 137.443 2.64556 -1.28172
  710 11.0459 10.0913 16.3357
  711 10.9742 10.1225 -16.3535
  712 6.31247 2.75252 2.35869
  713 6.27444 2.75244 -2.35797
  714 -8.36146 1.86740 22.4993
  715 -8.41883 1.86884 -22.5407
  716 238.480 0.00870498 1.59633
  717 238.432 0.0104314 -1.59698
  718 206.089 2.05797 4.33475
  719 206.053 2.06441 -4.33656
  720 27.3290 -19.0780 24.0500
  721 28.1459 -20.3610 -23.2158
  722 -16.2517 3.45048 19.6247
  723 -16.3046 3.45565 -19.6540
  724 8.40273 -20.1516 11.2134
  725 0.429613 6.03673 20.8569
  726 0.340018 6.05530 -20.8761
  727 -46.2421 1.35744 -5.65563
  728 -46.1844 1.35570 5.65282
  729 35.4106 11.6948 7.20237
  730 35.3590 11.7147 -7.19068
  731 318.931 -9.75702 -17.9736
  732 302.162 -26.4949 -6.92839
  733 -4.91136 -10.0385 15.4941
  734 -4.90456 -10.0849 -15.4736
  735 116.593 -1.41213 -72.0190
  736 113.518 1.13088 72.7555
  737 70.7681 13.5277 -10.6078
  738 70.5956 13.6620 10.7533
  739 6.05974 -11.8779 18.2075
  740 -0.442264 -32.7160 -8.79583
  741 148.640 8.40430 -16.6086
  742 148.720 8.34722 16.6965
  743 0.393671 -64.4200 8.17346
  744 88.3246 12.4987 -4.04441
  745 88.3096 12.5009 4.08660
  746 305.147 -0.203784 -5.23377
  747 305.147 -0.242700 5.15647
  748 5.92818 -88.1642 1.49388
  749 136.793 10.4808 12.4602
  750 136.751 10.5168 -12.4054
  751 36.6758 12.9317 -4.54227
  752 36.8627 12.7977 4.53662
  753 -55.2437 0.366470 -5.00086
  754 -55.1984 0.365970 4.99451
  755 152.091 2.92418 -2.84316
  756 152.108 2.91864 2.84383
  757 93.3769 13.6893 -7.77989
  758 93.3526 13.7032 7.85579
  759 0.244496 8.23983 16.2048
  760 0.179618 8.26098 -16.2186
  761 303.093 -22.6446 3.25540
  762 -47.8536 1.09285 4.31788
  763 -47.9114 1.09353 -4.31898
  764 657.227 125.471 -88.9895
  765 -18.5577 1.94988 4.57944
  766 -18.6057 1.95066 -4.57966
  767 258.148 0.918335 9.56702
  768 258.092 0.967161 -9.60184
  769 479.479 30.5187 0.476569
  770 292.774 -0.752992 -3.99062
  771 292.828 -0.760206 3.97926
  772 186.484 2.99169 5.42235
  773 186.453 3.00256 -5.42360
  774 279.183 -32.4248 79.2215
  775 120.680 9.17148 -4.48802
  776 120.693 9.15714 4.50418
  777 2.72439 -49.1519 10.3227
  778 320.450 -40.8203 25.3812
  779 194.411 0.787238 0.936578
  780 194.380 0.788869 -0.936664
  781 255.452 0.248141 0.500153
  782 255.396 0.248525 -0.500149
  783 -1.16376 -25.9253 -15.2142
  784 1.52325 -44.4205 14.9884
  785 114.217 12.8637 17.3129
  786 114.208 12.8625 -17.1627
  787 652.051 6.71646 5.57003
  788 197.272 1.91720 -22.3956
  789 197.423 1.80632 22.4503
  790 -41.3333 1.37240 10.9968
  791 -41.3844 1.37573 -11.0089
  792 8.24618 -36.2447 3.59102
  793 5.35792 -82.3711 -5.27136
  794 450.749 58.1820 -5.95472
  795 -0.399196 -32.6175 7.93781
  796 8.87924 6.38159 18.8429
  797 8.85151 6.38074 -18.9223
  798 59.6700 12.0704 2.19381
  799 59.6386 12.0823 -2.17288
  800 300.911 -13.7191 -4.39668
  801 301.436 -13.5747 3.32360
  802 355.335 48.1857 -133.339
  803 -49.2799 0.597375 -2.01502
  804 -49.2222 0.597336 2.01493
  805 -22.8205 -0.0982821 5.90460
  806 -22.8253 -0.0992382 -5.91063
  807 21.5248 1.26668 6.20282
  808 21.0685 1.24080 -6.24166
  809 227.833 -1.06332 20.1795
  810 227.657 -0.861205 -20.1432
  811 115.674 3.36526 -0.627540
  812 115.677 3.36167 0.628589
  813 368.033 -6.53155 35.1556
  814 38.1574 6.40172 -3.83481
  815 38.1873 6.39994 3.84016
  816 35.7247 4.39592 -5.22996
  817 35.4013 4.57272 5.32303
  818 -0.176437 -25.7727 -20.5455
  819 522.110 77.6736 72.3108
  820 -75.8635 0.0946606 -2.23755
  821 -75.7965 0.0945204 2.23654
  822 -0.113423 -78.5912 7.74357
  823 5.35591 -11.7308 -18.4024
  824 -11.3201 -0.697943 4.38374
  825 -11.3150 -0.699667 -4.38495
  826 416.216 22.9463 -25.1026
  827 107.586 10.9555 -5.63623
  828 107.592 10.9454 5.67303
  829 285.566 -4.01116 -10.1509
  830 285.812 -4.06133 9.98239
  831 -72.4486 0.564556 2.96250
  832 -72.5132 0.565118 -2.96462
  833 -0.509374 -0.528017 -0.430175
  834 -0.510399 -0.528974 0.431876
  835 0.247138 -80.3966 -7.58672
  836 0.372705 -84.8028 -6.95166
  837 -80.1707 0.786929 0.456271
  838 -80.2383 0.787059 -0.456272
  839 42.9911 -14.8905 -47.0147
  840 176.679 2.42002 -1.55348
  841 176.704 2.41726 1.55307
  842 -6.46894 1.56950 0.583534
  843 -6.51087 1.56910 -0.583532
  844 263.178 0.870764 -6.35849
  845 263.228 0.853985 6.34256
  846 -30.0155 0.202675 5.61940
  847 -30.0275 0.202711 -5.62577
  848 158.591 0.391208 -108.546
  849 274.307 -23.5031 21.8090
  850 215.436 1.18628 -1.96697
  851 215.475 1.18406 1.96614
  852 271.759 -25.5837 -24.4108
  853 84.3040 9.69332 -1.32898
  854 84.2938 9.68980 1.34853
  855 116.786 7.96838 -3.36994
  856 116.795 7.95763 3.38031
  857 318.980 -6.85130 13.7148
  858 19.1808 11.4311 13.5931
  859 19.0987 11.4753 -13.6178
  860 19.4161 1.56449 1.12528
  861 19.3832 1.56358 -1.12485
  862 150.043 2.20702 1.29884
  863 150.028 2.20987 -1.29873
  864 394.693 -37.7407 43.2845
  865 246.784 1.60258 -8.30285
  866 246.837 1.57119 8.28139
  867 2.95778 3.85677 4.35981
  868 2.91667 3.85831 -4.35881
  869 247.596 -0.113187 2.33365
  870 247.545 -0.111052 -2.33478
  871 -46.7150 0.348784 -1.24916
  872 -46.6590 0.349097 1.24890
  873 -0.221202 -24.9511 7.07060
  874 -0.289667 -25.3416 -7.12567
  875 295.640 -4.34485 32.5793
  876 -18.3161 4.57030 16.6286
  877 -18.3723 4.58104 -16.6487
  878 -0.102847 -41.1418 -7.82483
  879 116.817 4.62505 -1.70605
  880 116.821 4.62019 1.70834
  881 215.528 -10.9210 -36.1730
  882 217.224 -12.0844 36.5322
  883 -9.39150 -3.34440 -22.0302
  884 -9.35204 -3.34584 21.9874
  885 11.3775 10.2293 15.0146
  886 11.3089 10.2569 -15.0246
  887 1.04003 -94.5007 5.47274
  888 2.69058 7.92302 19.1115
  889 2.61442 7.94545 -19.1315
  890 198.942 -3.50467 -32.1343
  891 198.517 -3.67617 32.3923
  892 344.082 18.4587 39.5560
  893 78.5043 9.04641 0.340381
  894 78.5168 9.04922 -0.327094
  895 253.442 1.72707 -6.22658
  896 253.492 1.71372 6.21618
  897 -9.99443 -4.38776 19.3139
  898 -10.0120 -4.40387 -19.3470
  899 0.867791 -97.6189 -3.75675
  900 -15.3657 -1.06870 18.9623
  901 -15.3936 -1.07104 -18.9881
  902 9.17689 9.29326 -11.8349
  903 9.23309 9.27511 11.8316
  904 -0.781407 -6.24984 3.46541
  905 -0.790138 -6.24333 -3.47049
  906 21.0959 10.4684 -10.6795
  907 21.1547 10.4459 10.6814
  908 4.46017 -7.85698 20.4603
  909 3.86508 -7.31511 -21.4687
  910 245.373 -6.86254 20.5253
  911 244.780 -6.51614 -20.6565
  912 -81.7083 0.253433 -0.669884
  913 -81.6399 0.253464 0.669871
  914 -6.94506 -0.631290 3.29054
  915 -6.93859 -0.632328 -3.28942
  916 0.336704 -58.5326 -7.14997
  917 -7.50845 -3.23313 -9.38657
  918 -7.50638 -3.22543 9.38788
  919 -31.8977 2.67415 14.1306
  920 -31.9477 2.67968 -14.1479
  921 75.8491 14.7966 -4.03476
  922 75.7966 14.8357 4.09784
  923 324.156 25.8175 -6.48212
  924 -4.17813 7.36181 14.7321
  925 -4.23772 7.37789 -14.7433
  926 120.148 7.51089 -33.4836
  927 120.168 7.62061 33.8784
  928 -14.9237 5.16515 11.8829
  929 -14.9783 5.17517 -11.8913
  930 395.925 -20.6817 -8.34941
  931 235.299 9.37820 17.0900
  932 286.001 -3.80603 -29.4693
  933 214.761 3.12054 -13.6718
  934 214.843 3.04672 13.6644
  935 -23.4300 3.14161 -5.91848
  936 -23.3791 3.13863 5.91698
  937 -51.7603 0.947583 7.09165
  938 -51.8170 0.949659 -7.09827
  939 -3.11003 -10.0226 -10.8990
  940 -3.08902 -10.0322 10.9196
  941 75.3658 5.18113 0.138858
  942 75.3776 5.18387 -0.134869
  943 -24.2449 2.47063 17.4726
  944 -24.2895 2.47317 -17.4969
  945 258.362 0.0190113 3.07922
  946 258.307 0.0215744 -3.08099
  947 -1.97226 -22.0704 16.5562
  948 8.99468 8.56361 -10.1982
  949 9.04584 8.55026 10.1972
  950 12.5384 6.02313 6.78088
  951 12.4963 6.02858 -6.77920
  952 43.5649 4.34486 -1.82890
  953 43.5896 4.34553 1.83125
  954 486.043 58.9222 -10.3769
  955 -1.89898 -0.527547 -1.29478
  956 -1.90306 -0.527557 1.29717
  957 16.2829 4.37423 -12.9130
  958 16.5610 4.23440 12.8681
  959 172.972 7.21327 -14.2498
  960 173.047 7.14879 14.2804
  961 21.5155 7.55871 -6.51982
  962 21.5562 7.55177 6.52363
  963 47.0168 -14.7750 63.0313
  964 327.271 -2.27630 -2.56452
  965 326.737 -2.18954 2.24888
  966 57.1600 -7.70513 54.6743
  967 59.8693 2.87507 -0.0588960
  968 59.8512 2.87370 0.0597777
  969 157.230 -6.48117 -93.7790
  970 118.593 2.34279 0.723196
  971 118.590 2.34467 -0.722879
  972 14.8533 -16.3741 4.00122
  973 16.4159 -13.8557 -2.76256
  974 290.276 -0.253174 1.06402
  975 290.206 -0.252693 -1.06404
  976 -23.9026 0.0620592 13.9564
  977 -23.9257 0.0609296 -13.9730
  978 519.966 64.7931 27.9259
  979 -2.29035 -16.6468 -21.9029
  980 2.45700 -84.1839 8.60682
  981 -0.432540 -26.3755 20.2315
  982 299.988 -0.140939 -4.07264
  983 300.029 -0.151548 4.05303
  984 -3.97031 -7.25711 9.40947
  985 -3.98068 -7.25661 -9.39950
  986 372.024 38.3844 -22.5850
  987 661.844 6.02191 -3.74740
  988 -0.973236 -1.45262 -1.40920
  989 -0.972217 -1.45570 1.41123
  990 173.459 2.29363 -3.04951
  991 173.483 2.28899 3.04926
  992 -2.35781 -16.0135 22.0233
  993 241.854 1.32001 12.2479
  994 241.783 1.39310 -12.2767
  995 317.542 -21.2633 -13.7422
  996 -11.1262 -2.34283 10.6283
  997 -11.1294 -2.35127 -10.6330
  998 5.05483 -21.2602 15.9757
  999 -0.536944 -39.6187 15.8752
  1000 -0.0448934 -40.8123 7.81038
  1001 322.811 21.4498 -1.82016
  1002 370.964 40.6486 13.2606
  1003 266.155 -31.0187 -43.4298
  1004 3.72428 -39.0817 12.9525
  1005 4.74448 -56.3943 3.33222
  1006 73.1627 2.08693 0.264146
  1007 73.1493 2.08543 -0.263999
  1008 -2.95995 -3.37227 -4.47653
  1009 -2.95756 -3.37326 4.48028
  1010 2.45889 -32.0997 -17.1193
  1011 215.130 0.504702 -0.721620
  1012 215.169 0.503494 0.721402
  1013 42.4574 -1.03253 -19.8559
  1014 40.6132 -0.929928 19.6653
  1015 -4.30950 6.55832 19.2276
  1016 -4.38154 6.57796 -19.2537
  1017 -25.8333 3.91661 -11.9909
  1018 -25.7784 3.90910 11.9807
  1019 163.102 2.68050 -32.8780
  1020 163.214 2.81098 33.2487
  1021 117.097 10.4490 -22.6769
  1022 117.096 10.4438 22.9077
  1023 127.360 9.55266 -7.41257
  1024 127.380 9.53039 7.43715
  1025 332.082 -9.71631 -38.5117
  1026 -9.07468 4.01610 20.9937
  1027 -9.13966 4.02440 -21.0317
  1028 235.412 -0.0470296 16.7030
  1029 235.283 0.106060 -16.7180
  1030 -1.65654 -12.6010 23.0479
  1031 -19.0856 -0.649907 10.2736
  1032 -19.0943 -0.652886 -10.2838
  1033 214.361 2.21597 -16.5802
  1034 214.470 2.11204 16.5802
  1035 262.722 6.09250 -27.5896
  1036 -0.348967 -39.4301 -16.6657
  1037 -3.21721 -15.5458 19.6517
  1038 -3.34972 -15.7243 -19.4837
  1039 150.661 9.11344 -11.6196
  1040 150.712 9.06967 11.6565
  1041 190.840 3.77871 6.73274
  1042 190.804 3.79487 -6.73487
  1043 316.890 -20.7666 11.9880
  1044 14.7374 1.74756 -0.314122
  1045 14.7718 1.74823 0.314239
  1046 269.243 -34.7156 46.3623
  1047 -2.47380 1.22576 1.48897
  1048 -2.51453 1.22514 -1.48867
  1049 57.3973 14.8521 0.955342
  1050 57.3256 14.8982 -0.916240
  1051 21.4383 11.6811 11.6968
  1052 21.3719 11.7099 -11.6981
  1053 2.89648 -48.5803 -10.7354
  1054 77.1105 3.19747 -0.131017
  1055 77.1219 3.20027 0.133281
  1056 228.509 7.66296 7.01987
  1057 216.996 1.88744 6.31035
  1058 216.954 1.90180 -6.31567
  1059 -1.43662 -13.0659 -23.0854
  1060 326.660 -4.14763 -7.02376
  1061 -0.247281 -1.32703 23.0275
  1062 -0.00637971 -1.13163 -22.9294
  1063 298.387 -0.494895 -2.24569
  1064 298.450 -0.497297 2.24111
  1065 317.688 -1.03493 -3.93436
  1066 317.597 -1.07716 3.82067
  1067 -0.242637 -61.8629 5.88922
  1068 185.419 5.01508 -8.93373
  1069 185.459 4.98871 8.93331
  1070 226.181 2.27657 7.38635
  1071 226.135 2.29491 -7.39494
  1072 4.74276 5.16218 20.8504
  1073 4.71718 5.16631 -20.8665
  1074 492.181 33.2304 4.68438
  1075 -6.44296 -2.86828 23.5270
  1076 -6.53374 -2.80984 -23.5822
  1077 69.3067 13.9068 -0.166854
  1078 69.2749 13.9231 0.199800
  1079 -40.2724 0.826528 -2.20270
  1080 -40.2181 0.826645 2.20264
  1081 114.410 6.29093 -38.6305
  1082 114.269 6.61767 39.1247
  1083 32.4510 13.1793 9.17891
  1084 32.3781 13.2156 -9.17260
  1085 77.4766 8.58000 -28.1499
  1086 77.0828 8.97332 28.4169
  1087 -2.10375 -20.7191 -16.1269
  1088 274.682 3.49656 35.9407
  1089 193.416 -1.37295 122.141
  1090 30.5260 13.4740 9.48532
  1091 30.4388 13.5237 -9.48642
  1092 116.372 6.52511 -2.50587
  1093 116.379 6.51602 2.51246
  1094 425.829 -0.268749 12.5103
  1095 26.7713 6.53320 6.28061
  1096 26.4319 6.62325 -6.37604
  1097 -12.6680 -2.80347 14.1700
  1098 -12.6769 -2.81588 -14.1831
  1099 -0.416490 -9.33644 3.78801
  1100 -0.432668 -9.33044 -3.80303
  1101 279.627 -0.116617 9.91249
  1102 279.549 -0.00764610 -9.99689
  1103 0.329521 -20.1455 21.6468
  1104 -19.3250 1.17245 -19.0145
  1105 -19.2874 1.17361 18.9890
  1106 0.100138 -75.0498 -7.55412
  1107 -4.53024 -6.34705 23.4872
  1108 -4.51951 -6.21839 -23.5111
  1109 267.758 0.438895 -4.17480
  1110 267.814 0.433026 4.16942
  1111 275.595 -1.93858 11.8483
  1112 275.424 -1.76375 -11.9359
  1113 47.2807 10.2422 -8.81757
  1114 46.9220 10.4575 8.91850
  1115 -0.667682 -38.6572 -13.4786
  1116 363.231 -35.6294 -70.8152
  1117 471.319 58.6956 0.566837
  1118 4.73424 -59.5321 -1.57518
  1119 16.3773 9.43328 -15.4409
  1120 16.4727 9.37814 15.3744
  1121 44.1675 14.5108 4.58818
  1122 44.0674 14.5750 -4.56880
  1123 94.2883 5.93706 0.754107
  1124 94.2919 5.94257 -0.748426
  1125 -6.14656 -8.75500 18.3641
  1126 -6.13712 -8.83625 -18.3909
  1127 -17.8119 5.40572 15.3529
  1128 -17.8687 5.41726 -15.3683
  1129 -6.58827 6.79983 17.8094
  1130 -6.65356 6.81715 -17.8301
  1131 262.537 -13.3751 -20.0369
  1132 264.251 -13.5026 19.8486
  1133 0.220604 -44.6143 -15.8826
  1134 139.259 -0.678036 -48.7140
  1135 139.500 -0.234388 49.5626
  1136 43.9954 13.4099 -5.04696
  1137 44.0468 13.3836 5.06468
  1138 141.067 60.0242 136.787
  1139 34.2410 10.8279 6.87727
  1140 34.1959 10.8423 -6.86770
  1141 359.051 -40.4100 -16.0444
  1142 134.864 4.05998 2.08081
  1143 134.852 4.06638 -2.07905
  1144 -6.13242 -5.47431 11.1939
  1145 -6.13583 -5.48671 -11.1893
  1146 -7.33337 -6.58844 14.5053
  1147 -7.33233 -6.61363 -14.5057
  1148 234.719 -24.6239 -68.9089
  1149 239.602 -27.0496 69.4336
  1150 41.2365 1.86414 0.406067
  1151 41.2614 1.86537 -0.405143
  1152 146.827 6.92314 -26.5611
  1153 146.849 6.82851 26.8412
  1154 322.388 -44.1524 52.3916
  1155 288.082 -0.588315 0.622589
  1156 288.012 -0.587888 -0.622403
  1157 -26.1124 4.06564 13.6939
  1158 -26.1674 4.07357 -13.7075
  1159 -44.6722 1.41813 -7.22374
  1160 -44.6149 1.41587 7.21971
  1161 72.6690 -1.36523 81.4065
  1162 220.778 15.0657 -14.2291
  1163 134.292 9.87482 -12.8602
  1164 134.339 9.83952 12.9341
  1165 420.252 -15.1861 76.0731
  1166 136.463 9.43439 -19.2603
  1167 136.523 9.37976 19.3891
  1168 33.3711 4.63074 -2.65067
  1169 33.4004 4.63084 2.65324
  1170 11.6941 -45.6556 7.13775
  1171 11.8340 -44.5719 -10.2933
  1172 185.289 -13.6075 -69.5109
  1173 187.891 -12.7562 69.4875
  1174 71.9827 11.6279 -19.4002
  1175 71.6843 11.8799 19.6172
  1176 327.406 -22.3085 -25.2264
  1177 -12.1120 -1.07982 21.4335
  1178 -12.1508 -1.07879 -21.4654
  1179 -0.296676 -18.0150 -22.2290
  1180 82.6093 1.31217 -51.0376
  1181 82.8092 1.58408 51.9506
  1182 -0.211805 -16.5771 4.22947
  1183 -0.180698 -16.6168 -4.28093
  1184 -79.2298 0.670987 -2.09979
  1185 -79.1621 0.670615 2.09856
  1186 261.458 0.00528865 -1.13908
  1187 261.515 0.00430965 1.13852
  1188 160.445 6.24019 -7.52190
  1189 160.481 6.21418 7.53050
  1190 -6.09827 -0.182394 23.5663
  1191 -6.11678 -0.0893555 -23.6102
  1192 0.0278467 -66.8724 -6.56673
  1193 -67.1884 0.163342 3.36141
  1194 -67.2465 0.163761 -3.36499
  1195 50.9906 -2.39224 -35.4335
  1196 50.5997 -2.07190 36.5986
  1197 304.344 -18.6736 -0.393552
  1198 85.9724 4.76216 -45.8137
  1199 86.0401 5.02000 46.2968
  1200 -37.1810 0.197857 5.11533
  1201 -37.2004 0.197708 -5.12160
  1202 0.959578 -58.8906 -11.2663
  1203 -11.8749 2.45470 -2.89089
  1204 -11.8301 2.45440 2.89124
  1205 45.1018 11.3924 5.16596
  1206 45.0598 11.4069 -5.15113
  1207 170.982 1.23145 -1.01386
  1208 171.005 1.22957 1.01393
  1209 231.230 1.31336 4.80385
  1210 231.186 1.32221 -4.80830
  1211 12.3602 -2.12192 13.2976
  1212 12.1751 -2.33435 -13.5212
  1213 2.07750 -33.9775 17.0705
  1214 414.060 55.7880 17.3380
  1215 -12.7774 -1.01016 8.05777
  1216 -12.7782 -1.01431 -8.06168
  1217 1.63537 -31.8126 -17.8167
  1218 -1.23133 -19.4290 11.8041
  1219 -1.16785 -19.2587 -12.2325
  1220 328.178 -3.55993 6.24359
  1221 0.295395 -76.5871 6.73350
  1222 2.29572 -23.4355 -19.8643
  1223 38.1346 1.48667 0.444869
  1224 38.1086 1.48556 -0.444803
  1225 -3.29910 -13.9990 21.6481
  1226 -36.8191 2.11555 -6.16632
  1227 -36.7641 2.11349 6.16405
  1228 674.146 11.8230 18.9141
  1229 -19.1786 2.16809 19.2528
  1230 -19.2233 2.16899 -19.2804
  1231 157.012 6.48358 -24.0261
  1232 157.156 6.36108 24.1739
  1233 10.0400 -16.1942 -8.94437
  1234 149.551 8.00603 -9.51792
  1235 149.592 7.97110 9.54240
  1236 6.08227 -47.3287 -3.13928
  1237 -3.30859 -14.0243 -21.6078
  1238 -26.1280 1.13147 3.72927
  1239 -26.1781 1.13163 -3.72946
  1240 -11.6531 0.779808 -21.9595
  1241 -11.6063 0.781601 21.9295
  1242 319.178 25.4087 28.2392
  1243 181.878 2.26508 -25.5746
  1244 182.100 2.20047 25.6392
  1245 -83.1377 0.209979 -0.794892
  1246 -83.0683 0.209943 0.794793
  1247 164.180 4.31352 -5.11951
  1248 164.204 4.30280 5.12054
  1249 -85.5143 -1.43190 -0.222560
  1250 -85.5835 -1.43245 0.222655
  1251 245.039 -17.5183 -29.2748
  1252 -38.9787 0.654164 10.8684
  1253 -39.0173 0.654859 -10.8825
  1254 247.547 -18.4882 29.0089
  1255 166.896 6.43557 -10.4875
  1256 166.941 6.39708 10.4994
  1257 19.3731 -48.9306 -35.1929
  1258 0.351977 -53.9121 -13.6321
  1259 -1.15970 -22.7066 20.3068
  1260 529.105 84.3095 -72.0318
  1261 -0.132196 -50.4781 13.2663
  1262 550.184 51.7810 -32.2189
  1263 -0.280931 -93.4591 -6.35847
  1264 25.4744 2.87067 -1.02529
  1265 25.5053 2.87132 1.02662
  1266 -0.235117 -21.2952 4.43364
  1267 -0.190261 -21.4076 -4.42074
  1268 92.6078 2.65481 -0.0471139
  1269 92.6139 2.65689 0.0476821
  1270 331.184 -25.5701 24.0230
  1271 5.76725 2.67032 -3.35145
  1272 5.80594 2.67013 3.35218
  1273 1.91354 -103.146 3.25636
  1274 1.21478 -109.727 -3.21335
  1275 304.604 -38.4932 -31.1795
  1276 -0.850216 -27.8076 13.0652
  1277 317.241 19.9918 -35.3492
  1278 -0.953167 -36.6479 12.8520
  1279 0.628922 -100.747 -4.96236
  1280 153.026 4.71106 -5.52855
  1281 153.050 4.69325 5.53355
  1282 -0.110835 -54.5110 5.80683
  1283 -0.144019 -45.3767 -13.1115
  1284 728.375 124.609 108.494
  1285 289.441 0.231987 0.482525
  1286 289.370 0.231950 -0.482316
  1287 7.38107 0.300934 19.0180
  1288 7.14322 0.610350 -19.0999
  1289 -4.71389 4.08743 22.2015
  1290 -4.81594 4.09640 -22.2471
  1291 306.737 -5.79022 -20.9730
  1292 284.822 -11.8747 -11.3348
  1293 284.519 -13.5303 11.4266
  1294 41.6978 5.22382 2.71897
  1295 41.6709 5.22363 -2.71484
  1296 -47.1996 1.27024 -8.55797
  1297 -47.1452 1.26764 8.54895
  1298 317.756 -44.6202 -44.4767
  1299 -2.38173 -5.74466 5.85296
  1300 -2.39073 -5.74005 -5.85006
  1301 334.778 -14.7996 36.3259
  1302 -3.54750 -13.3188 15.8698
  1303 -3.50892 -13.3677 -15.7970
  1304 -30.5985 2.08019 4.43788
  1305 -30.6507 2.08135 -4.43860
  1306 49.9904 5.07829 -17.9483
  1307 49.4799 5.37191 17.9461
  1308 78.6120 2.52412 0.439743
  1309 78.6008 2.52204 -0.439024
  1310 -32.7745 3.26055 13.4836
  1311 -32.8270 3.26650 -13.4981
  1312 271.397 0.792345 0.750184
  1313 271.335 0.792198 -0.749921
  1314 148.342 -2.36931 92.9045
  1315 221.210 0.721006 1.69448
  1316 221.169 0.722461 -1.69480
  1317 145.974 3.02508 -37.0771
  1318 146.015 2.85107 37.4200
  1319 1.38575 -59.5500 -8.28831
  1320 56.1830 13.3684 -7.14668
  1321 55.9460 13.5329 7.25277
  1322 -0.544519 -0.503461 -0.721924
  1323 -0.547256 -0.503650 0.724025
  1324 188.747 6.03411 13.7053
  1325 188.676 6.10151 -13.6950
  1326 93.2000 7.96708 1.70005
  1327 93.2039 7.97343 -1.68863
  1328 137.803 8.06912 -6.36093
  1329 137.828 8.04738 6.37621
  1330 181.142 1.37657 -1.69678
  1331 181.168 1.37460 1.69676
  1332 -5.77886 -2.80656 -6.61185
  1333 -5.77809 -2.80348 6.61544
  1334 -55.9714 0.125420 2.63770
  1335 -56.0316 0.125520 -2.63818
  1336 -9.89149 -4.55981 -16.2288
  1337 -9.88464 -4.53755 16.2129
  1338 -32.3568 0.627198 1.12138
  1339 -32.4079 0.626783 -1.12136
  1340 -86.3850 0.803929 0.455949
  1341 -86.4548 0.804101 -0.455946
  1342 342.062 -44.2696 60.9421
  1343 245.159 -1.61176 -29.1776
</Section>

newXOutput 41

<Section columns = "stress_xx | stress_yy | stress_xy">
  1 305.539 -0.396042 0.302305
  2 305.617 -0.396288 -0.302453
  3 -95.6428 0.476103 -1.29650
  4 0.153789 0.0409778 0.271634
  5 558.082 153.209 178.376
  6 630.718 173.940 -170.996
  7 0.153161 0.0403952 -0.270801
  8 -95.5675 0.476030 1.29610
  9 304.602 -0.371096 -1.00652
  10 304.833 -0.879736 -1.64034
  11 307.717 -0.865755 -0.428726
  12 308.001 -0.815227 -1.90870
  13 308.714 -0.792414 -0.572620
  14 315.192 -0.768863 -0.802630
  15 317.399 -1.14194 -2.55786
  16 319.741 -0.516109 -1.74006
  17 321.185 0.213542 -3.36059
  18 334.279 -1.76785 -2.87952
  19 339.858 -1.34803 -3.72140
  20 345.975 -2.08358 -1.40508
  21 348.832 -2.80004 -0.798213
  22 346.044 -3.25972 4.65170
  23 333.799 -3.67875 9.71863
  24 305.472 -4.19704 20.6678
  25 259.982 2.23850 24.0162
  26 222.208 2.65938 22.4588
  27 169.949 5.83069 13.6256
  28 181.027 5.67625 1.12823
  29 150.513 17.0674 -8.72809
  30 210.431 7.75707 -24.3109
  31 243.734 1.81987 -19.9246
  32 299.176 -0.956106 -17.2387
  33 329.746 -4.46311 -11.6262
  34 345.438 -3.80159 -4.63526
  35 348.094 -2.70826 0.812481
  36 345.463 -2.05497 1.30674
  37 339.639 -1.35750 3.60526
  38 334.196 -1.79206 2.81195
  39 321.201 0.199543 3.32742
  40 319.791 -0.521392 1.72732
  41 317.468 -1.14521 2.55318
  42 315.267 -0.770558 0.800363
  43 308.791 -0.793430 0.571675
  44 308.079 -0.816129 1.90921
  45 307.796 -0.866403 0.428803
  46 304.911 -0.880250 1.64114
  47 304.680 -0.371329 1.00701
  48 287.889 0.871890 -0.371896
  49 266.313 0.475321 -0.842651
  50 239.391 -0.572400 -0.870620
  51 211.528 1.09672 -0.724251
  52 187.171 0.930062 -0.579415
  53 161.148 1.77830 -0.688218
  54 135.506 3.10359 -0.431150
  55 108.928 2.80343 -0.871614
  56 86.9130 2.03612 -1.21011
  57 58.0603 1.37016 -1.27491
  58 28.7836 1.90743 -0.968525
  59 4.36498 1.56924 -0.935973
  60 -26.0728 0.943819 -0.860711
  61 -48.7013 -0.171951 -2.06116
  62 -70.6110 -1.44287 -0.947170
  63 -92.8067 0.211336 0.618189
  64 -97.5720 1.67613 -0.261977
  65 -97.8696 0.749946 0.259132
  66 -94.5960 0.386847 -0.144133
  67 -95.5247 1.08472 -1.20106
  68 -93.9593 1.31293 -0.154476
  69 -88.8242 0.412408 -1.83285
  70 -89.7385 0.807869 -1.96535
  71 -87.4182 0.768437 -1.12472
  72 -80.8891 0.487540 -1.67778
  73 -77.7823 0.861466 -2.74078
  74 -73.0022 0.959233 -2.26322
  75 -64.5480 0.490995 -3.87303
  76 -59.7878 0.151125 -3.23823
  77 -51.2580 0.217449 -3.72600
  78 -43.8993 0.159523 -4.11188
  79 -37.5085 0.0518238 -3.24475
  80 -28.6672 0.187650 -3.26664
  81 -21.0546 -0.0868117 -3.48910
  82 -13.6918 -0.383820 -3.05484
  83 -7.86603 -0.335641 -2.33534
  84 -3.85282 -0.584072 -1.94735
  85 -0.622713 -0.337334 -0.689797
  86 0.0589767 -0.372285 -0.242256
  87 -0.201679 -0.185616 -0.0401652
  88 -0.527724 -0.491446 -0.603407
  89 -0.511945 -3.25549 -1.68955
  90 -0.438873 -7.32351 -2.41645
  91 -0.228603 -12.5390 -3.52916
  92 -0.119950 -19.2764 -3.04475
  93 -0.105072 -25.4910 -3.83347
  94 -0.472701 -33.1023 -4.33358
  95 -0.192965 -42.4828 -4.38419
  96 0.0901952 -51.9341 -4.20392
  97 0.205681 -62.0724 -4.15181
  98 0.313459 -72.5060 -4.08999
  99 0.0282848 -80.2331 -5.54242
  100 0.546971 -91.1667 -4.96591
  101 0.665206 -103.993 -3.99292
  102 -0.0169606 -109.789 -5.30693
  103 0.942341 -119.287 -4.94257
  104 2.29456 -131.952 -2.47345
  105 4.47001 -135.614 -3.92156
  106 3.08397 -124.875 2.81141
  107 4.36389 -95.4800 12.5190
  108 23.6299 -57.3303 37.6041
  109 74.9473 98.4002 131.122
  110 860.690 45.4989 84.6064
  111 738.192 13.8301 30.8553
  112 714.380 5.20425 6.95248
  113 709.376 1.89089 -1.14843
  114 714.120 7.93849 -16.2965
  115 736.248 24.9564 -36.4388
  116 836.891 89.1854 -107.313
  117 178.628 76.2291 -160.209
  118 39.3582 -56.5295 -46.1697
  119 11.5345 -104.455 -16.9313
  120 3.16842 -118.395 -3.07583
  121 3.58978 -130.594 2.24620
  122 1.03093 -126.836 1.91758
  123 0.380992 -116.304 4.23175
  124 0.407147 -109.347 3.36016
  125 0.571580 -98.3464 5.63276
  126 -0.0286401 -91.9639 5.45491
  127 0.226761 -83.0183 3.93275
  128 0.436852 -71.6279 4.97651
  129 0.0827975 -63.5055 3.94604
  130 0.129213 -52.0076 4.98212
  131 -0.519331 -42.9918 4.27841
  132 -0.366170 -33.1312 4.19962
  133 -0.0755793 -25.3523 3.84375
  134 -0.154777 -19.1662 3.05113
  135 -0.223560 -12.5024 3.49513
  136 -0.432647 -7.31841 2.40449
  137 -0.509254 -3.26036 1.68833
  138 -0.527076 -0.496547 0.604572
  139 -0.201658 -0.187835 0.0416408
  140 0.0562984 -0.372652 0.243619
  141 -0.627822 -0.337182 0.691569
  142 -3.86075 -0.583579 1.94921
  143 -7.87683 -0.334648 2.33601
  144 -13.7008 -0.382592 3.05378
  145 -21.0579 -0.0857964 3.48585
  146 -28.6636 0.187848 3.26279
  147 -37.4953 0.0522645 3.24074
  148 -43.8774 0.160009 4.10731
  149 -51.2246 0.217353 3.72127
  150 -59.7442 0.150979 3.23386
  151 -64.4976 0.490627 3.86883
  152 -72.9427 0.958657 2.26005
  153 -77.7180 0.860850 2.73826
  154 -80.8204 0.487144 1.67629
  155 -87.3457 0.768025 1.12383
  156 -89.6645 0.807517 1.96443
  157 -88.7501 0.412258 1.83217
  158 -93.8835 1.31249 0.154494
  159 -95.4485 1.08439 1.20076
  160 -94.5204 0.386783 0.144202
  161 -97.7932 0.749758 -0.258943
  162 -97.4958 1.67564 0.261977
  163 -92.7323 0.211338 -0.617943
  164 -70.5444 -1.44218 0.946909
  165 -48.6424 -0.171462 2.06055
  166 -26.0220 0.944203 0.860529
  167 4.40485 1.56974 0.935755
  168 28.8147 1.90821 0.968299
  169 58.0806 1.37154 1.27461
  170 86.9226 2.03762 1.20979
  171 108.929 2.80493 0.871378
  172 135.498 3.10502 0.430949
  173 161.130 1.77996 0.687848
  174 187.143 0.931668 0.579010
  175 211.491 1.09770 0.723705
  176 239.343 -0.571293 0.870005
  177 266.252 0.475466 0.842165
  178 287.819 0.871634 0.371682
  179 79.3196 14.2099 -2.64085
  180 79.2814 14.2303 2.69107
  181 -1.75559 2.19682 23.1576
  182 -1.84032 2.18545 -23.1652
  183 181.773 -2.57560 -40.1289
  184 181.669 -2.93459 40.5674
  185 35.8593 7.99456 -0.926182
  186 35.4315 8.15583 0.946973
  187 25.6669 4.86425 -3.85359
  188 25.7016 4.86292 3.85611
  189 172.430 3.68831 -5.77535
  190 172.459 3.67351 5.77723
  191 -3.67555 7.04171 12.8011
  192 -3.73313 7.05546 -12.8088
  193 200.405 5.46741 -15.0979
  194 200.499 5.38646 15.1128
  195 -7.86768 -6.86363 18.1542
  196 -7.86471 -6.90288 -18.1757
  197 1.69822 -16.5831 -21.9040
  198 61.7871 2.54556 -36.4072
  199 2.10543 -17.7211 21.4019
  200 60.7940 3.05674 37.0215
  201 284.330 -39.0194 -58.3602
  202 294.397 -40.5677 55.9264
  203 101.548 3.79083 -0.745121
  204 101.545 3.78723 0.747257
  205 -17.3027 1.31610 -2.58493
  206 -17.2546 1.31634 2.58494
  207 -23.0176 3.45642 17.7249
  208 -23.0705 3.46347 -17.7494
  209 102.044 9.78291 -2.52288
  210 102.044 9.77617 2.53899
  211 30.8042 13.0317 9.12206
  212 30.6859 13.1111 -9.14204
  213 -29.8104 3.20727 -7.48569
  214 -29.7547 3.20365 7.48229
  215 229.883 0.640678 2.79828
  216 229.839 0.644160 -2.79961
  217 7.22732 -31.2826 9.67929
  218 7.86060 -28.4071 -8.65908
  219 -2.18828 -19.3682 20.5204
  220 -2.23325 -20.1019 -19.8680
  221 94.2199 13.7313 -15.6102
  222 94.1422 13.7949 15.7860
  223 -20.6462 -0.109743 17.7484
  224 -20.6762 -0.111916 -17.7714
  225 245.940 1.69719 -8.34827
  226 245.991 1.67385 8.33449
  227 264.444 -3.62765 -16.4139
  228 264.646 -3.90190 16.3313
  229 421.589 32.6128 -0.295895
  230 386.757 42.7064 24.8055
  231 382.140 -4.24576 -36.0504
  232 45.9953 10.6479 4.93679
  233 45.9579 10.6587 -4.92471
  234 2.79753 8.56426 17.9329
  235 2.72342 8.58983 -17.9511
  236 295.363 -17.8924 -10.6391
  237 293.634 -18.1169 11.5805
  238 163.042 1.81259 -2.07180
  239 163.062 1.80859 2.07195
  240 -36.8172 2.59237 11.8718
  241 -36.8731 2.59775 -11.8839
  242 -5.00962 -4.93215 -8.13341
  243 -5.00541 -4.92942 8.13886
  244 -41.1529 1.07431 3.84018
  245 -41.2103 1.07481 -3.84089
  246 133.729 10.3617 -9.83540
  247 133.758 10.3330 9.87527
  248 170.336 5.38489 -22.7544
  249 170.479 5.28653 22.8557
  250 40.3955 2.91886 -0.409893
  251 40.4224 2.91980 0.410997
  252 98.0261 -0.560743 -79.9783
  253 116.193 2.37745 87.3816
  254 12.9606 5.87522 17.1869
  255 12.9024 6.00935 -17.2517
  256 402.556 -32.4276 -6.32344
  257 34.2770 13.2780 7.90662
  258 34.2144 13.3076 -7.89666
  259 96.0347 10.1248 -29.6445
  260 95.8601 10.3859 29.9898
  261 449.229 62.2951 -6.01364
  262 266.724 0.388854 11.3011
  263 266.647 0.474127 -11.3493
  264 -2.42659 -14.9290 -12.7858
  265 -2.35893 -14.9897 12.8371
  266 -0.542013 -35.5747 -17.6781
  267 1.14313 -41.7630 -16.4568
  268 0.596312 -41.6900 17.1711
  269 -6.77327 -5.89431 23.4323
  270 -6.80051 -5.88302 -23.5202
  271 14.0371 -33.9344 -5.19604
  272 15.0909 -31.3668 7.55135
  273 -15.4083 -1.30813 11.2325
  274 -15.4156 -1.31383 -11.2421
  275 189.230 5.61215 -9.33790
  276 189.279 5.57771 9.33973
  277 331.917 -34.6864 -1.65810
  278 72.5878 6.55959 -0.510975
  279 72.6026 6.56158 0.516642
  280 -0.890184 -33.3680 16.8893
  281 6.33218 6.94082 8.37152
  282 6.28375 6.94946 -8.37172
  283 529.037 37.2263 -13.5187
  284 258.969 0.371915 3.44904
  285 258.915 0.377038 -3.45290
  286 172.626 -8.67655 -60.5165
  287 174.182 -8.53239 61.4798
  288 331.472 -32.8625 -3.80466
  289 -31.6186 0.965544 14.0486
  290 -31.6553 0.966085 -14.0671
  291 324.941 -28.0271 99.3487
  292 -14.1921 2.27717 21.3361
  293 -14.2417 2.27556 -21.3686
  294 54.2505 14.9435 -3.41056
  295 54.0440 15.0872 3.48318
  296 -58.4757 0.524935 0.704358
  297 -58.5381 0.524814 -0.704348
  298 273.583 3.36394 -135.733
  299 -54.4358 1.11911 -6.44082
  300 -54.3745 1.11709 6.43583
  301 -1.68005 -6.99382 24.0022
  302 -0.882957 -6.83443 -23.7804
  303 119.625 12.4511 -14.2939
  304 119.641 12.4388 14.3951
  305 25.3847 3.33938 2.88912
  306 25.3515 3.33915 -2.88791
  307 124.715 5.18455 -2.81238
  308 124.722 5.17704 2.81634
  309 11.5619 -9.41227 12.9052
  310 10.5349 -11.1974 -13.0386
  311 121.052 2.51145 -0.650240
  312 121.056 2.50897 0.650729
  313 -44.5372 1.15825 10.3297
  314 -44.5845 1.16012 -10.3428
  315 29.9901 -3.55039 -6.64739
  316 29.0825 -3.58358 5.85436
  317 270.296 -0.0731954 0.960679
  318 270.234 -0.0725558 -0.960710
  319 591.479 33.9185 22.7594
  320 60.1969 8.39945 2.10044
  321 60.1740 8.40075 -2.09088
  322 -13.6682 3.08108 5.30099
  323 -13.7175 3.08332 -5.30149
  324 83.1767 11.6221 -1.57439
  325 83.1602 11.6232 1.60277
  326 9.44635 8.61406 18.6416
  327 9.38479 8.63567 -18.6784
  328 1.24137 -60.1751 12.1366
  329 -60.4513 0.178156 -1.57960
  330 -60.3879 0.178334 1.57946
  331 205.829 0.865648 -1.82186
  332 205.864 0.863521 1.82152
  333 216.779 1.75327 -4.83282
  334 216.819 1.74325 4.82949
  335 -56.1947 1.00199 -4.71275
  336 -56.1318 1.00099 4.71076
  337 -1.94663 1.21637 0.640149
  338 -1.98886 1.21582 -0.639914
  339 -1.25518 -24.5968 12.7745
  340 -0.999560 -25.5822 -12.7573
  341 243.577 -20.4394 -40.7507
  342 253.109 -24.4291 39.9793
  343 144.404 7.39871 -6.05394
  344 144.427 7.38043 6.06365
  345 63.1441 15.0203 -1.52959
  346 63.0443 15.0844 1.58704
  347 -22.9701 4.37740 10.5932
  348 -23.0260 4.38481 -10.6005
  349 455.532 6.61110 9.84053
  350 23.6917 -36.7154 -25.9762
  351 25.3402 -34.3923 27.2618
  352 -10.0173 6.96717 16.8565
  353 -10.0799 6.98271 -16.8744
  354 -12.6636 -2.59766 20.7234
  355 -12.6932 -2.60255 -20.7569
  356 515.831 85.1793 -22.5165
  357 329.766 -5.24419 43.4631
  358 308.899 -7.15183 -7.29487
  359 308.591 -6.98642 6.77414
  360 215.830 -2.38671 -25.9185
  361 215.590 -2.61344 25.9234
  362 0.400698 -72.4777 -9.84887
  363 283.063 0.821555 -6.35586
  364 283.111 0.797280 6.32977
  365 3.63099 -68.3717 7.86006
  366 325.145 25.3554 -23.9151
  367 79.2406 3.02282 1.04562
  368 79.2282 3.02140 -1.04549
  369 217.191 1.82224 -19.2531
  370 217.337 1.70072 19.2703
  371 234.434 2.16654 -11.7037
  372 234.499 2.11271 11.6849
  373 -5.16626 2.74588 3.61502
  374 -5.21119 2.74657 -3.61460
  375 133.752 7.42158 -30.6078
  376 133.803 7.49969 30.9035
  377 278.619 -0.0143527 1.57625
  378 278.555 -0.0131198 -1.57701
  379 156.872 8.88543 -15.3579
  380 156.939 8.82610 15.4167
  381 181.659 3.12758 3.90449
  382 181.631 3.13465 -3.90492
  383 -8.69440 -1.57750 6.91305
  384 -8.69329 -1.58143 -6.91278
  385 -2.06118 -1.46638 -2.00135
  386 -2.06220 -1.46721 2.00447
  387 371.079 -47.3438 25.3164
  388 -4.88701 -11.7397 18.9202
  389 -4.85487 -11.8374 -18.9199
  390 59.5850 4.17606 -1.40773
  391 59.6049 4.17774 1.41032
  392 -1.84825 -9.22469 6.93987
  393 -1.86893 -9.20912 -6.94044
  394 22.5880 10.5754 9.18768
  395 22.5351 10.5932 -9.18412
  396 303.450 -1.15000 8.37391
  397 303.385 -1.03471 -8.53275
  398 -0.807962 -18.2037 22.8543
  399 -24.9581 -0.464655 10.6517
  400 -24.9739 -0.466680 -10.6641
  401 -0.903887 -19.2134 -22.5960
  402 285.031 0.205234 4.04508
  403 284.973 0.212473 -4.05381
  404 -2.96591 6.20988 21.1232
  405 -3.05368 6.23113 -21.1558
  406 210.110 3.39171 -7.73469
  407 210.153 3.37060 7.72931
  408 323.092 -13.8830 -7.53143
  409 324.228 -11.1742 5.71858
  410 -0.672055 -33.5336 -14.0136
  411 28.5612 10.5244 -6.74822
  412 28.7972 10.4017 6.72450
  413 319.257 21.0042 14.9988
  414 182.246 -10.4688 -83.9363
  415 187.188 -13.8915 87.9301
  416 10.3767 10.0177 13.8609
  417 10.3119 10.0409 -13.8677
  418 134.260 3.98967 -1.92363
  419 134.270 3.98495 1.92490
  420 130.342 18.9773 133.738
  421 53.5314 12.8352 -3.73513
  422 53.5770 12.8152 3.75670
  423 3.26399 -32.2551 15.5909
  424 -0.408902 -54.5534 -12.2023
  425 20.9798 12.2308 12.9880
  426 20.9023 12.2667 -12.9970
  427 25.8217 7.24853 -5.65602
  428 25.8603 7.24329 5.65994
  429 -9.29249 -0.549500 -23.4188
  430 -9.24349 -0.562456 23.3828
  431 64.2094 12.5719 -11.7202
  432 63.9391 12.7685 11.8665
  433 324.081 -10.6176 -32.7543
  434 8.92281 -3.52070 18.3521
  435 8.62256 -3.42875 -18.4571
  436 235.892 -10.0718 -28.6463
  437 236.897 -10.8046 28.5914
  438 -59.3671 0.486554 -6.24482
  439 -59.3087 0.485084 6.23823
  440 0.00435353 -53.5314 10.9667
  441 -0.388858 -33.9784 12.4724
  442 -24.1958 1.53150 17.9866
  443 -24.2353 1.53145 -18.0110
  444 169.061 1.72334 -0.731591
  445 169.082 1.72107 0.731364
  446 -5.10528 -8.05996 12.8322
  447 -5.11315 -8.07767 -12.8177
  448 104.795 5.08559 -44.6221
  449 104.600 5.57518 45.1612
  450 0.873791 -65.0071 -12.1599
  451 590.549 21.3711 0.529141
  452 1.61448 -77.1251 -7.19432
  453 -70.4419 0.0267249 -2.30873
  454 -70.3745 0.0267692 2.30820
  455 -27.1349 3.78655 14.7810
  456 -27.1911 3.79462 -14.7983
  457 -31.3896 0.442471 10.7090
  458 -31.4139 0.442487 -10.7221
  459 114.779 12.0671 -9.56107
  460 114.789 12.0596 9.62322
  461 174.194 7.19193 -11.8897
  462 174.254 7.14165 11.9098
  463 -3.05693 -11.0680 23.6085
  464 -3.06074 -10.9945 -23.7062
  465 301.770 4.81919 -41.3604
  466 20.4075 -5.75849 -4.01678
  467 19.6994 -5.92921 4.37948
  468 4.74145 -69.8190 -0.420023
  469 3.01823 -80.9219 -1.74041
  470 -9.27645 -4.16331 13.2130
  471 -9.27967 -4.17793 -13.2177
  472 63.8527 -7.62476 -68.9780
  473 466.025 -1.92516 -44.3309
  474 104.501 7.03963 2.55023
  475 104.501 7.04684 -2.54121
  476 152.067 1.45520 -43.0628
  477 152.433 1.40691 43.7356
  478 44.2592 15.6203 5.32240
  479 44.1790 15.6704 -5.30419
  480 137.271 10.3648 -22.4094
  481 137.342 10.3072 22.5853
  482 4.80228 2.57714 21.5643
  483 5.10598 2.73017 -21.5377
  484 -62.3721 0.936877 -4.64304
  485 -62.3077 0.935949 4.64023
  486 303.796 -35.7554 -22.8616
  487 241.775 0.291099 -1.32830
  488 241.824 0.290171 1.32830
  489 12.1368 1.84821 -1.57647
  490 12.1742 1.84883 1.57706
  491 -15.9682 5.65240 13.8540
  492 -16.0268 5.66386 -13.8661
  493 -35.7152 2.20400 -5.11723
  494 -35.6588 2.20223 5.11577
  495 104.486 10.4753 -4.05551
  496 104.488 10.4664 4.07983
  497 -12.9213 4.81390 19.3994
  498 -12.9835 4.82614 -19.4274
  499 278.242 -7.72894 -15.2570
  500 278.704 -8.13008 15.0179
  501 181.818 2.04104 -28.6158
  502 181.554 1.90300 28.8678
  503 67.1878 3.38449 -0.814576
  504 67.2046 3.38620 0.815666
  505 0.683142 -33.3874 -19.3882
  506 325.852 -11.9830 26.9105
  507 4.35715 -22.1702 -17.6927
  508 91.9886 14.8651 9.65781
  509 92.0383 14.8271 -9.55319
  510 300.469 -33.4573 22.5546
  511 22.6274 -32.5047 35.9895
  512 358.253 -47.0873 -45.4470
  513 243.786 1.16988 14.0818
  514 243.686 1.27222 -14.1068
  515 0.634095 -28.5899 20.1742
  516 -4.76837 -1.42648 -3.68904
  517 -4.77072 -1.42590 3.69191
  518 29.0838 1.75821 -0.488672
  519 29.1147 1.75913 0.488970
  520 -0.828458 -18.9611 8.19451
  521 -0.751679 -18.8719 -8.23596
  522 200.833 2.25890 3.11622
  523 200.799 2.26270 -3.11699
  524 567.506 98.9515 40.8200
  525 23.1568 -15.0776 -6.63990
  526 17.9996 -20.0937 2.88218
  527 -6.28265 4.39975 -7.00703
  528 -6.23361 4.39506 7.00592
  529 -49.0988 0.777743 6.44048
  530 -49.1383 0.778613 -6.44856
  531 0.484962 -60.9170 12.0933
  532 -69.3695 0.632553 0.669367
  533 -69.4359 0.632562 -0.669318
  534 61.5627 -5.26890 -50.5524
  535 60.1816 -4.18836 52.5550
  536 56.3186 9.65940 -16.9457
  537 55.8927 9.92168 17.0758
  538 -13.2152 -2.79563 18.1100
  539 -13.2339 -2.80674 -18.1348
  540 55.2761 5.24474 1.49994
  541 55.2540 5.24377 -1.49606
  542 -29.5256 1.42554 2.24617
  543 -29.5784 1.42569 -2.24610
  544 65.3524 9.83576 1.68319
  545 65.3287 9.83948 -1.66758
  546 -1.32508 -4.29374 3.15191
  547 -1.32958 -4.28973 -3.15123
  548 23.5968 10.1765 11.7453
  549 23.4401 10.3233 -11.7931
  550 19.0664 2.81977 10.4213
  551 18.7926 2.79354 -10.5748
  552 247.080 1.88797 5.94190
  553 247.030 1.89847 -5.94835
  554 218.320 3.11211 9.44666
  555 218.268 3.14512 -9.45561
  556 -0.225030 -51.3772 -7.59725
  557 152.467 7.93703 -9.03508
  558 152.501 7.90845 9.05298
  559 152.959 3.81613 -3.32509
  560 152.978 3.80774 3.32687
  561 -21.5298 0.849107 -0.0356130
  562 -21.4806 0.849523 0.0358331
  563 259.031 14.2468 -7.96203
  564 343.260 -44.0952 -16.1045
  565 280.169 12.7880 31.4111
  566 2.25091 -44.2238 -14.2957
  567 -15.5580 4.87833 -9.18713
  568 -15.5043 4.87186 9.18321
  569 2.34741 -25.7232 19.1296
  570 -15.3109 0.390909 20.7976
  571 -15.3500 0.389499 -20.8259
  572 437.539 42.0825 -1.05292
  573 99.2485 4.87599 -1.07676
  574 99.2448 4.87166 1.08032
  575 666.711 56.3072 -57.5265
  576 -3.39012 -2.65571 24.3315
  577 -3.17034 -2.48176 -24.3535
  578 362.790 -32.9172 15.4621
  579 292.445 0.358558 -7.08247
  580 292.487 0.318948 7.03661
  581 133.504 -0.628522 -62.6735
  582 135.122 -1.02488 63.6905
  583 -7.54525 -7.25483 20.9754
  584 -7.55192 -7.29145 -21.0280
  585 69.8685 5.67733 32.8338
  586 70.4562 5.14052 -32.5412
  587 -57.5344 0.667440 -6.07595
  588 -57.4804 0.666368 6.06894
  589 427.760 35.2783 26.4370
  590 80.9378 7.72241 0.105964
  591 80.9494 7.72515 -0.0972400
  592 95.6050 11.8517 -22.3969
  593 95.4828 11.9967 22.6566
  594 264.147 -0.397614 -13.8125
  595 264.274 -0.535723 13.7652
  596 -1.20411 -26.9151 -18.8934
  597 287.951 -0.281381 2.11513
  598 287.885 -0.279653 -2.11648
  599 -42.3663 0.895375 -0.898388
  600 -42.3094 0.895495 0.898571
  601 -74.3845 -0.487760 0.0324121
  602 -74.4525 -0.488097 -0.0323398
  603 6.06132 -40.8352 -6.95356
  604 -2.71181 -17.4413 16.1488
  605 -2.86020 -16.5051 -16.2572
  606 -32.8123 2.01233 15.0021
  607 -32.8572 2.01551 -15.0217
  608 200.686 5.14522 11.8950
  609 200.625 5.19627 -11.8950
  610 147.558 2.14980 0.791649
  611 147.545 2.15177 -0.791508
  612 33.0861 -9.94381 20.5172
  613 34.1631 -9.23345 -20.3160
  614 -1.03631 -13.2157 6.91666
  615 -1.06774 -13.1731 -6.93962
  616 345.072 21.0992 144.599
  617 -17.0383 -0.530336 6.41595
  618 -17.0386 -0.532711 -6.42083
  619 6.01705 -24.7992 -14.3439
  620 144.300 5.99003 -4.59920
  621 144.318 5.97779 4.60426
  622 70.3612 14.9828 -6.94408
  623 70.2299 15.0736 7.04753
  624 0.697928 -92.1446 4.99307
  625 52.6592 14.7364 3.30885
  626 52.6011 14.7694 -3.28294
  627 -6.14785 6.09213 11.0340
  628 -6.20217 6.10199 -11.0391
  629 -0.411688 -45.3404 10.3782
  630 -74.0337 0.0970097 -2.29529
  631 -73.9649 0.0968942 2.29456
  632 94.6651 2.75255 0.215800
  633 94.6713 2.75527 -0.214601
  634 240.797 0.866600 3.92091
  635 240.749 0.871832 -3.92344
  636 211.984 -15.4740 110.417
  637 170.405 4.50082 -7.12034
  638 170.437 4.47993 7.12452
  639 2.61491 -3.75462 22.5845
  640 3.22944 -2.22945 -22.5561
  641 272.774 -28.1928 -89.2747
  642 646.958 22.3867 -23.9370
  643 -67.9549 0.0650986 -4.21616
  644 -67.8918 0.0644261 4.21242
  645 15.6377 3.72978 -3.39468
  646 15.6751 3.72901 3.39602
  647 -1.28665 -28.4903 16.6669
  648 368.989 21.3236 -38.9072
  649 284.778 -0.425109 0.359477
  650 284.710 -0.424739 -0.359398
  651 -18.3334 -1.01583 -14.9404
  652 -18.3157 -1.01141 14.9229
  653 -0.0515589 -64.5038 -9.99823
  654 289.708 -0.457412 0.811551
  655 289.638 -0.456922 -0.811501
  656 26.0309 9.22768 7.79698
  657 25.9856 9.23899 -7.79199
  658 219.888 -19.3438 -58.4419
  659 223.929 -19.2743 59.1096
  660 322.550 -1.98007 4.80833
  661 322.640 -1.95678 -5.02569
  662 1.40682 -81.4876 7.89934
  663 -18.2542 0.668631 -1.31337
  664 -18.2060 0.669118 1.31353
  665 105.333 7.26254 -104.608
  666 98.5316 2.48059 0.731931
  667 98.5369 2.48233 -0.731433
  668 48.1284 3.81258 0.733383
  669 48.1042 3.81146 -0.731506
  670 57.3831 6.55373 -1.20984
  671 57.4052 6.55415 1.21632
  672 187.815 5.49164 -18.3906
  673 187.931 5.39783 18.4359
  674 49.4111 14.4878 1.16846
  675 49.2668 14.5892 -1.13634
  676 -34.4933 2.57988 -8.65357
  677 -34.4360 2.57545 8.64803
  678 -39.9839 2.75050 -9.80824
  679 -39.9263 2.74583 9.79965
  680 331.254 -4.98021 -1.19452
  681 0.272736 -13.6065 -23.0043
  682 331.822 -5.22453 0.710138
  683 420.009 33.1589 0.00893981
  684 -41.6242 0.192762 7.31947
  685 -41.6547 0.192770 -7.32891
  686 42.9512 12.2966 -1.82788
  687 42.6460 12.4542 1.86990
  688 -79.5662 0.0857388 -0.846129
  689 -79.4958 0.0858024 0.846071
  690 0.518938 -12.2700 23.0596
  691 -26.1106 0.343530 15.7609
  692 -26.1431 0.342676 -15.7813
  693 363.354 -30.8943 -16.8776
  694 56.7401 1.65551 -0.335859
  695 56.7194 1.65415 0.336401
  696 12.6098 5.45154 5.59697
  697 12.5683 5.45500 -5.59521
  698 191.476 -8.89718 -48.7868
  699 192.955 -9.24657 49.7583
  700 674.026 47.5509 52.5003
  701 12.7747 -63.2139 -21.3618
  702 -4.88961 -10.2662 22.4541
  703 -4.89932 -10.3059 -22.5025
  704 39.9159 9.15878 -4.36463
  705 39.9508 9.15250 4.37273
  706 297.782 -0.376117 -2.15990
  707 297.850 -0.378082 2.15714
  708 140.965 2.66675 1.33166
  709 140.954 2.67052 -1.33116
  710 11.3915 10.3532 16.6782
  711 11.3175 10.3852 -16.6970
  712 6.59573 2.80020 2.39438
  713 6.55601 2.80020 -2.39374
  714 -8.53580 1.92850 23.0242
  715 -8.59489 1.92977 -23.0670
  716 244.392 -0.0190355 1.64215
  717 244.342 -0.0172891 -1.64275
  718 211.247 2.07273 4.45771
  719 211.209 2.07920 -4.45940
  720 28.0738 -19.3722 24.7956
  721 28.9102 -20.6875 -23.9400
  722 -16.6155 3.54199 20.0820
  723 -16.6701 3.54720 -20.1124
  724 8.63991 -20.5696 11.4204
  725 0.488462 6.20539 21.3237
  726 0.396116 6.22426 -21.3440
  727 -47.3047 1.38480 -5.77397
  728 -47.2446 1.38300 5.77091
  729 36.3969 11.9743 7.31378
  730 36.3434 11.9950 -7.30225
  731 326.926 -9.98998 -18.3359
  732 309.725 -27.1347 -7.20206
  733 -5.02941 -10.2810 15.8752
  734 -5.02252 -10.3286 -15.8544
  735 119.628 -1.31017 -73.9904
  736 116.477 1.29272 74.7412
  737 72.6457 13.8841 -10.9819
  738 72.4681 14.0218 11.1302
  739 6.23752 -12.1169 18.6012
  740 -0.452412 -33.5283 -9.01203
  741 152.458 8.58728 -17.0990
  742 152.539 8.52959 17.1889
  743 0.402563 -66.0044 8.37048
  744 90.6437 12.7858 -4.21918
  745 90.6278 12.7884 4.26212
  746 312.660 -0.221481 -5.37038
  747 312.663 -0.261189 5.29184
  748 6.08770 -90.1491 1.60031
  749 140.313 10.7108 12.8394
  750 140.270 10.7470 -12.7832
  751 37.6757 13.2819 -4.56139
  752 37.8678 13.1447 4.55479
  753 -56.5936 0.375236 -5.11867
  754 -56.5467 0.374728 5.11206
  755 155.957 2.95606 -2.93481
  756 155.975 2.95052 2.93557
  757 95.8242 14.0144 -8.05946
  758 95.7987 14.0292 8.13683
  759 0.322446 8.44610 16.5553
  760 0.255344 8.46782 -16.5700
  761 310.678 -23.1942 3.43483
  762 -48.9422 1.11209 4.40653
  763 -49.0025 1.11280 -4.40779
  764 673.024 128.854 -91.4043
  765 -18.9059 1.98382 4.66632
  766 -18.9560 1.98468 -4.66671
  767 264.562 0.913250 9.82415
  768 264.504 0.962943 -9.85919
  769 491.403 31.2171 0.457734
  770 299.970 -0.783470 -4.09369
  771 300.027 -0.790830 4.08229
  772 191.180 3.02701 5.57993
  773 191.147 3.03796 -5.58104
  774 286.178 -33.1075 81.3376
  775 123.795 9.36280 -4.65203
  776 123.809 9.34854 4.66859
  777 2.80045 -50.2819 10.5282
  778 328.449 -41.7549 26.1554
  779 199.284 0.769275 0.962772
  780 199.252 0.770899 -0.962834
  781 261.757 0.232026 0.513972
  782 261.699 0.232417 -0.513950
  783 -1.19042 -26.5577 -15.5853
  784 1.56603 -45.4653 15.3255
  785 117.187 13.1757 17.8392
  786 117.179 13.1739 -17.6858
  787 667.593 6.84008 5.71854
  788 202.280 1.93776 -23.0196
  789 202.433 1.82520 23.0761
  790 -42.3143 1.40472 11.2511
  791 -42.3675 1.40813 -11.2637
  792 8.47590 -37.0258 3.59892
  793 5.50402 -84.2009 -5.47828
  794 462.001 59.6663 -6.31042
  795 -0.408596 -33.4282 8.13313
  796 9.15352 6.56745 19.2479
  797 9.12473 6.56637 -19.3299
  798 61.2722 12.3509 2.18096
  799 61.2394 12.3635 -2.15985
  800 308.417 -14.0692 -4.56565
  801 308.963 -13.9192 3.47207
  802 364.005 49.9338 -136.873
  803 -50.3945 0.603508 -2.05011
  804 -50.3343 0.603451 2.04993
  805 -23.3887 -0.100049 6.04974
  806 -23.3939 -0.101035 -6.05598
  807 22.1183 1.36406 6.26257
  808 21.6496 1.33764 -6.30329
  809 233.575 -1.11646 20.7387
  810 233.396 -0.910413 -20.7005
  811 118.658 3.40933 -0.664297
  812 118.661 3.40580 0.665384
  813 377.231 -6.56250 35.7968
  814 39.2261 6.53651 -3.88423
  815 39.2573 6.53448 3.88951
  816 36.6916 4.57812 -5.47533
  817 36.3596 4.75879 5.56989
  818 -0.172516 -26.3776 -21.0301
  819 534.821 79.9974 74.3971
  820 -77.6713 0.0950178 -2.28492
  821 -77.6014 0.0948748 2.28381
  822 -0.116108 -80.5053 7.92377
  823 5.51518 -11.9682 -18.8028
  824 -11.6049 -0.714780 4.49301
  825 -11.5997 -0.716554 -4.49428
  826 426.546 23.6999 -25.4410
  827 110.383 11.1983 -5.84385
  828 110.389 11.1884 5.88141
  829 292.670 -4.13321 -10.4349
  830 292.923 -4.18400 10.2637
  831 -74.1872 0.576068 3.02777
  832 -74.2545 0.576652 -3.03002
  833 -0.522637 -0.541695 -0.441771
  834 -0.523689 -0.542676 0.443520
  835 0.251862 -82.3523 -7.76071
  836 0.381289 -86.8307 -7.09885
  837 -82.0449 0.802824 0.464333
  838 -82.1157 0.802963 -0.464351
  839 44.1469 -14.9927 -48.3679
  840 181.132 2.44044 -1.60344
  841 181.158 2.43771 1.60308
  842 -6.49823 1.58927 0.594162
  843 -6.54206 1.58889 -0.594177
  844 269.692 0.868256 -6.52732
  845 269.744 0.851205 6.51135
  846 -30.7605 0.207744 5.75682
  847 -30.7730 0.207779 -5.76340
  848 162.647 0.640506 -111.446
  849 281.195 -24.0765 22.4474
  850 220.809 1.18228 -2.02414
  851 220.849 1.18006 2.02336
  852 278.591 -26.2051 -25.1161
  853 86.5223 9.90412 -1.42165
  854 86.5114 9.90089 1.44152
  855 119.803 8.12852 -3.49960
  856 119.812 8.11786 3.51023
  857 326.965 -7.01767 13.9928
  858 19.7339 11.7310 13.8579
  859 19.6493 11.7762 -13.8838
  860 20.0292 1.57888 1.13950
  861 19.9949 1.57801 -1.13911
  862 153.858 2.22102 1.34276
  863 153.842 2.22385 -1.34260
  864 404.416 -38.4562 44.5617
  865 252.923 1.61258 -8.52747
  866 252.978 1.58068 8.50597
  867 3.14873 3.93447 4.43458
  868 3.10583 3.93615 -4.43374
  869 253.725 -0.140491 2.39862
  870 253.671 -0.138326 -2.39968
  871 -47.7504 0.347063 -1.27692
  872 -47.6919 0.347377 1.27663
  873 -0.226128 -25.5736 7.24560
  874 -0.296280 -25.9739 -7.30192
  875 303.180 -4.42551 33.2782
  876 -18.7168 4.68592 17.0064
  877 -18.7750 4.69690 -17.0274
  878 -0.105116 -42.1624 -8.01654
  879 119.830 4.70047 -1.77567
  880 119.834 4.69568 1.77804
  881 221.001 -11.1882 -37.1718
  882 222.735 -12.3793 37.5403
  883 -9.60757 -3.41445 -22.5589
  884 -9.56693 -3.41579 22.5147
  885 11.7389 10.4872 15.3261
  886 11.6680 10.5155 -15.3369
  887 1.06501 -96.7721 5.58741
  888 2.81645 8.13355 19.5317
  889 2.73786 8.15646 -19.5527
  890 204.006 -3.59934 -33.0249
  891 203.570 -3.77364 33.2898
  892 352.808 19.0073 40.3140
  893 80.5776 9.24039 0.402356
  894 80.5909 9.24293 -0.388891
  895 259.723 1.74242 -6.39335
  896 259.775 1.72890 6.38300
  897 -10.2321 -4.48769 19.7832
  898 -10.2503 -4.50427 -19.8174
  899 0.890871 -99.9263 -3.81576
  900 -15.7319 -1.08834 19.4200
  901 -15.7607 -1.09081 -19.4467
  902 9.49479 9.51881 -12.0735
  903 9.55305 9.50008 12.0697
  904 -0.800613 -6.40858 3.55277
  905 -0.809570 -6.40193 -3.55799
  906 21.7150 10.7230 -10.8816
  907 21.7759 10.6998 10.8830
  908 4.60048 -8.00670 20.9157
  909 3.98909 -7.45411 -21.9520
  910 251.546 -7.05287 21.1005
  911 250.938 -6.69911 -21.2333
  912 -83.6293 0.256362 -0.681760
  913 -83.5578 0.256392 0.681720
  914 -7.12132 -0.646724 3.37331
  915 -7.11472 -0.647794 -3.37218
  916 0.344655 -59.9794 -7.32330
  917 -7.69368 -3.31156 -9.62038
  918 -7.69149 -3.30363 9.62165
  919 -32.6455 2.74051 14.4573
  920 -32.6974 2.74617 -14.4753
  921 77.8558 15.1566 -4.22342
  922 77.8013 15.1971 4.28754
  923 332.570 26.4506 -6.56470
  924 -4.20611 7.54235 15.0501
  925 -4.26782 7.55890 -15.0620
  926 123.274 7.72029 -34.4393
  927 123.293 7.83290 34.8428
  928 -15.2141 5.28732 12.1377
  929 -15.2708 5.29765 -12.1467
  930 405.725 -21.0165 -8.32470
  931 241.630 9.62864 17.4231
  932 293.340 -3.87713 -30.1011
  933 220.161 3.16217 -14.0503
  934 220.245 3.08715 14.0433
  935 -23.9116 3.20880 -6.03481
  936 -23.8585 3.20568 6.03305
  937 -52.9881 0.968309 7.25052
  938 -53.0471 0.970444 -7.25750
  939 -3.18553 -10.2695 -11.1699
  940 -3.16392 -10.2792 11.1909
  941 77.3622 5.27641 0.176783
  942 77.3747 5.27902 -0.172761
  943 -24.8132 2.53551 17.8836
  944 -24.8593 2.53807 -17.9088
  945 264.743 -0.00271175 3.16276
  946 264.686 -0.000111445 -3.16444
  947 -2.01806 -22.6070 16.9602
  948 9.31454 8.76687 -10.3996
  949 9.36765 8.75304 10.3981
  950 12.9608 6.15601 6.90422
  951 12.9170 6.16174 -6.90279
  952 44.7737 4.42507 -1.84310
  953 44.7995 4.42561 1.84540
  954 497.979 60.6823 -10.9795
  955 -1.94838 -0.540703 -1.32824
  956 -1.95257 -0.540709 1.33069
  957 16.7432 4.52849 -13.1547
  958 17.0289 4.38559 13.1079
  959 177.373 7.35638 -14.6607
  960 177.450 7.29106 14.6923
  961 22.1612 7.72925 -6.63159
  962 22.2036 7.72194 6.63518
  963 48.2473 -14.6842 64.7831
  964 335.343 -2.34094 -2.64424
  965 334.802 -2.25187 2.32216
  966 58.6812 -7.64175 56.2295
  967 61.4848 2.91410 -0.0749923
  968 61.4658 2.91279 0.0758700
  969 161.274 -6.49030 -96.2928
  970 121.647 2.36097 0.746103
  971 121.643 2.36280 -0.745770
  972 15.2640 -16.6824 4.00635
  973 16.8697 -14.1015 -2.73363
  974 297.389 -0.267135 1.09249
  975 297.317 -0.266641 -1.09247
  976 -24.4842 0.0656803 14.2949
  977 -24.5081 0.0644953 -14.3120
  978 532.780 66.4264 28.8044
  979 -2.33797 -17.0361 -22.4273
  980 2.53323 -85.9920 8.91491
  981 -0.436978 -26.9998 20.7123
  982 307.358 -0.156101 -4.17779
  983 307.403 -0.166923 4.15798
  984 -4.06742 -7.43579 9.64411
  985 -4.07810 -7.43536 -9.63398
  986 381.454 39.4057 -22.9262
  987 677.578 6.13305 -3.84651
  988 -0.997561 -1.49046 -1.44561
  989 -0.996512 -1.49362 1.44770
  990 177.837 2.31065 -3.14130
  991 177.863 2.30601 3.14113
  992 -2.40592 -16.3863 22.5495
  993 247.894 1.32061 12.5809
  994 247.820 1.39499 -12.6097
  995 325.492 -21.7703 -13.9726
  996 -11.4005 -2.39854 10.8914
  997 -11.4038 -2.40721 -10.8964
  998 5.20235 -21.7215 16.3163
  999 -0.547458 -40.5742 16.2531
  1000 -0.0461509 -41.8256 8.00206
  1001 331.203 21.9634 -1.87350
  1002 380.409 41.6871 13.4093
  1003 272.857 -31.7421 -44.6316
  1004 3.82927 -39.9731 13.2220
  1005 4.87513 -57.6582 3.34549
  1006 75.1058 2.10403 0.265288
  1007 75.0918 2.10259 -0.265145
  1008 -3.03361 -3.45639 -4.58978
  1009 -3.03113 -3.45737 4.59360
  1010 2.53121 -32.8331 -17.4994
  1011 220.492 0.483841 -0.742644
  1012 220.533 0.482632 0.742448
  1013 43.5993 -0.948941 -20.4880
  1014 41.7070 -0.844021 20.2913
  1015 -4.36081 6.73070 19.6585
  1016 -4.43518 6.75076 -19.6857
  1017 -26.4055 4.00992 -12.2559
  1018 -26.3485 4.00219 12.2451
  1019 167.291 2.74548 -33.7974
  1020 167.404 2.88031 34.1772
  1021 120.143 10.7085 -23.3456
  1022 120.141 10.7037 23.5815
  1023 130.641 9.75399 -7.65398
  1024 130.662 9.73170 7.67918
  1025 340.462 -9.89478 -39.2928
  1026 -9.25680 4.12579 21.4773
  1027 -9.32384 4.13418 -21.5167
  1028 241.325 -0.0787401 17.1627
  1029 241.191 0.0772628 -17.1770
  1030 -1.68294 -12.8836 23.5915
  1031 -19.5567 -0.664274 10.5260
  1032 -19.5658 -0.667344 -10.5366
  1033 219.762 2.23659 -17.0395
  1034 219.874 2.13092 17.0402
  1035 269.633 6.27826 -28.1573
  1036 -0.353734 -40.3776 -17.0617
  1037 -3.29112 -15.9172 20.1290
  1038 -3.42691 -16.1007 -19.9573
  1039 154.519 9.30497 -11.9694
  1040 154.570 9.26079 12.0073
  1041 195.644 3.83418 6.92646
  1042 195.607 3.85047 -6.92840
  1043 324.824 -21.2620 12.1833
  1044 15.2351 1.76706 -0.317661
  1045 15.2711 1.76770 0.317767
  1046 276.012 -35.5234 47.6428
  1047 -2.40626 1.23623 1.51179
  1048 -2.44882 1.23564 -1.51154
  1049 58.9366 15.2181 0.893293
  1050 58.8624 15.2656 -0.853793
  1051 22.0616 11.9715 11.9201
  1052 21.9930 12.0011 -11.9219
  1053 2.97620 -49.6979 -10.9505
  1054 79.1500 3.24252 -0.107295
  1055 79.1620 3.24524 0.109571
  1056 234.735 7.85327 7.15869
  1057 222.419 1.89899 6.48685
  1058 222.376 1.91352 -6.49203
  1059 -1.45709 -13.3611 -23.6301
  1060 334.792 -4.25491 -7.15680
  1061 -0.222402 -1.33163 23.5563
  1062 0.0248681 -1.13230 -23.4552
  1063 305.704 -0.514616 -2.30417
  1064 305.770 -0.517069 2.29961
  1065 325.499 -1.06962 -4.03790
  1066 325.409 -1.11272 3.92215
  1067 -0.248486 -63.3954 6.03232
  1068 190.099 5.09970 -9.18845
  1069 190.140 5.07306 9.18831
  1070 231.826 2.29970 7.58938
  1071 231.778 2.31827 -7.59785
  1072 4.90969 5.31388 21.3126
  1073 4.88308 5.31793 -21.3297
  1074 504.374 33.9938 4.85005
  1075 -6.58119 -2.92134 24.0844
  1076 -6.67468 -2.86153 -24.1413
  1077 71.1498 14.2351 -0.245491
  1078 71.1167 14.2521 0.278881
  1079 -41.1561 0.835451 -2.24286
  1080 -41.0994 0.835549 2.24272
  1081 117.393 6.48892 -39.7258
  1082 117.248 6.82353 40.2310
  1083 33.3544 13.5078 9.33176
  1084 33.2791 13.5452 -9.32587
  1085 79.5247 8.85202 -28.9867
  1086 79.1202 9.25475 29.2591
  1087 -2.15292 -21.2236 -16.5210
  1088 281.796 3.61504 36.7092
  1089 198.313 -1.16094 125.369
  1090 31.3755 13.8178 9.64211
  1091 31.2855 13.8687 -9.64388
  1092 119.377 6.64828 -2.60816
  1093 119.384 6.63925 2.61493
  1094 436.345 -0.0456378 12.5372
  1095 27.5076 6.74536 6.34119
  1096 27.1591 6.83732 -6.43984
  1097 -12.9771 -2.86897 14.5181
  1098 -12.9863 -2.88172 -14.5316
  1099 -0.426579 -9.57299 3.88303
  1100 -0.443176 -9.56687 -3.89845
  1101 286.562 -0.144106 10.1769
  1102 286.480 -0.0329217 -10.2624
  1103 0.348921 -20.6081 22.1534
  1104 -19.7807 1.20732 -19.4675
  1105 -19.7418 1.20859 19.4411
  1106 0.102138 -76.8858 -7.73089
  1107 -4.62429 -6.48246 24.0439
  1108 -4.61322 -6.35055 -24.0685
  1109 274.365 0.428557 -4.28609
  1110 274.423 0.422602 4.28077
  1111 282.454 -2.01262 12.1715
  1112 282.278 -1.83413 -12.2601
  1113 48.5517 10.5497 -9.15437
  1114 48.1833 10.7699 9.25697
  1115 -0.682823 -39.6031 -13.8055
  1116 372.221 -36.2676 -72.7563
  1117 482.940 60.4056 0.908436
  1118 4.86601 -60.8563 -1.53853
  1119 16.8500 9.69199 -15.7526
  1120 16.9482 9.63559 15.6838
  1121 45.3669 14.8790 4.61538
  1122 45.2637 14.9449 -4.59618
  1123 96.7508 6.04833 0.811927
  1124 96.7548 6.05372 -0.806150
  1125 -6.29256 -8.96292 18.8131
  1126 -6.28298 -9.04633 -18.8407
  1127 -18.1921 5.53883 15.6967
  1128 -18.2509 5.55068 -15.7130
  1129 -6.69138 6.97311 18.2061
  1130 -6.75886 6.99085 -18.2279
  1131 269.134 -13.7160 -20.6102
  1132 270.888 -13.8448 20.4191
  1133 0.229046 -45.6824 -16.2550
  1134 142.865 -0.651718 -50.0619
  1135 143.110 -0.197296 50.9301
  1136 45.1981 13.7347 -5.09943
  1137 45.2514 13.7075 5.11712
  1138 144.554 62.2318 140.381
  1139 35.2014 11.0826 6.98533
  1140 35.1546 11.0975 -6.97592
  1141 367.964 -41.2896 -16.6171
  1142 138.316 4.12034 2.15948
  1143 138.304 4.12670 -2.15763
  1144 -6.28245 -5.60738 11.4719
  1145 -6.28601 -5.62014 -11.4672
  1146 -7.51110 -6.74685 14.8629
  1147 -7.51014 -6.77273 -14.8635
  1148 240.661 -25.1628 -70.7593
  1149 245.650 -27.6477 71.2965
  1150 42.3910 1.88150 0.428904
  1151 42.4171 1.88269 -0.427985
  1152 150.613 7.08858 -27.3207
  1153 150.634 6.99232 27.6073
  1154 330.422 -45.1330 53.8419
  1155 295.140 -0.611227 0.638768
  1156 295.067 -0.610783 -0.638560
  1157 -26.6998 4.16433 14.0024
  1158 -26.7568 4.17248 -14.0167
  1159 -45.7030 1.44706 -7.38057
  1160 -45.6434 1.44472 7.37623
  1161 74.5918 -1.10259 83.6464
  1162 226.799 15.4459 -14.5132
  1163 137.755 10.0930 -13.2560
  1164 137.802 10.0575 13.3316
  1165 430.548 -15.2286 78.1853
  1166 139.985 9.65035 -19.8267
  1167 140.045 9.59516 19.9585
  1168 34.3245 4.71977 -2.68188
  1169 34.3550 4.71973 2.68438
  1170 12.0162 -46.5985 7.42388
  1171 12.1591 -45.4816 -10.6652
  1172 190.030 -13.8804 -71.3820
  1173 192.691 -13.0079 71.3551
  1174 73.8907 11.9635 -20.0089
  1175 73.5840 12.2214 20.2304
  1176 335.621 -22.8185 -25.7095
  1177 -12.3921 -1.09604 21.9461
  1178 -12.4321 -1.09506 -21.9791
  1179 -0.293100 -18.4262 -22.7504
  1180 84.7882 1.46806 -52.4767
  1181 84.9920 1.74463 53.4110
  1182 -0.216968 -16.9947 4.33489
  1183 -0.185124 -17.0355 -4.38770
  1184 -81.1321 0.686037 -2.14518
  1185 -81.0616 0.685650 2.14386
  1186 267.904 -0.0153232 -1.17210
  1187 267.964 -0.0163194 1.17159
  1188 164.529 6.35585 -7.75223
  1189 164.565 6.32964 7.76123
  1190 -6.22181 -0.168655 24.1192
  1191 -6.24075 -0.0732362 -24.1643
  1192 0.0274725 -68.5230 -6.72488
  1193 -68.8186 0.166554 3.43832
  1194 -68.8789 0.166981 -3.44208
  1195 52.3561 -2.29862 -36.4764
  1196 51.9556 -1.97001 37.6708
  1197 311.952 -19.1351 -0.485360
  1198 88.2385 4.97305 -47.1112
  1199 88.3069 5.23506 47.6044
  1200 -38.1014 0.203073 5.23963
  1201 -38.1216 0.202915 -5.24611
  1202 0.985901 -60.2832 -11.5141
  1203 -12.0494 2.49896 -2.93997
  1204 -12.0026 2.49860 2.94021
  1205 46.3361 11.6588 5.22818
  1206 46.2924 11.6739 -5.21338
  1207 175.298 1.22218 -1.04233
  1208 175.321 1.22031 1.04243
  1209 236.985 1.31421 4.93779
  1210 236.939 1.32315 -4.94214
  1211 12.7111 -2.11578 13.5507
  1212 12.5208 -2.33406 -13.7808
  1213 2.13978 -34.7640 17.4535
  1214 424.426 57.2991 17.4889
  1215 -13.0949 -1.03403 8.25761
  1216 -13.0958 -1.03831 -8.26168
  1217 1.68540 -32.5497 -18.2224
  1218 -1.26057 -19.9084 12.0954
  1219 -1.19578 -19.7331 -12.5341
  1220 336.333 -3.65158 6.36056
  1221 0.302160 -78.4690 6.89423
  1222 2.36745 -23.9683 -20.3176
  1223 39.2136 1.49524 0.451706
  1224 39.1864 1.49416 -0.451652
  1225 -3.37232 -14.3272 22.1690
  1226 -37.6410 2.16023 -6.29434
  1227 -37.5836 2.15808 6.29181
  1228 690.182 12.0830 19.3924
  1229 -19.6232 2.22756 19.7066
  1230 -19.6693 2.22841 -19.7352
  1231 161.043 6.62784 -24.7117
  1232 161.190 6.50323 24.8631
  1233 10.3222 -16.5114 -9.08421
  1234 153.377 8.16784 -9.80975
  1235 153.418 8.13262 9.83498
  1236 6.25090 -48.3716 -3.13878
  1237 -3.38222 -14.3536 -22.1284
  1238 -26.6623 1.14603 3.79972
  1239 -26.7145 1.14624 -3.80005
  1240 -11.9161 0.811281 -22.4794
  1241 -11.8677 0.813237 22.4483
  1242 327.400 26.0826 28.7623
  1243 186.517 2.29973 -26.2896
  1244 186.743 2.23462 26.3559
  1245 -85.1086 0.212882 -0.809084
  1246 -85.0361 0.212843 0.808947
  1247 168.341 4.37982 -5.27412
  1248 168.366 4.36908 5.27532
  1249 -87.5184 -1.46956 -0.228449
  1250 -87.5909 -1.47013 0.228545
  1251 251.225 -17.9514 -30.0953
  1252 -39.9228 0.671209 11.1264
  1253 -39.9629 0.671902 -11.1410
  1254 253.791 -18.9454 29.8222
  1255 171.139 6.55612 -10.7944
  1256 171.185 6.51722 10.8069
  1257 19.8922 -49.6964 -36.2228
  1258 0.361456 -55.2066 -13.9492
  1259 -1.18226 -23.2466 20.7942
  1260 541.937 86.8845 -74.1750
  1261 -0.134761 -51.7023 13.5814
  1262 563.657 53.0612 -33.1701
  1263 -0.290208 -95.7352 -6.50385
  1264 26.2355 2.91692 -1.02774
  1265 26.2678 2.91748 1.02902
  1266 -0.240564 -21.8306 4.54401
  1267 -0.194575 -21.9460 -4.53088
  1268 95.0278 2.68318 -0.0350300
  1269 95.0342 2.68520 0.0356035
  1270 339.475 -26.1571 24.4760
  1271 6.03367 2.71695 -3.40816
  1272 6.07408 2.71668 3.40877
  1273 1.96097 -105.560 3.30110
  1274 1.24489 -112.310 -3.25866
  1275 312.229 -39.3842 -32.0845
  1276 -0.870016 -28.4903 13.3850
  1277 325.392 20.5555 -36.0384
  1278 -0.976804 -37.5473 13.1652
  1279 0.645497 -103.171 -5.06457
  1280 156.923 4.78718 -5.70383
  1281 156.948 4.76927 5.70910
  1282 -0.114150 -55.8630 5.94833
  1283 -0.146976 -46.4862 -13.4282
  1284 745.723 127.921 111.301
  1285 296.528 0.228925 0.494445
  1286 296.454 0.228891 -0.494224
  1287 7.60465 0.349177 19.4285
  1288 7.36019 0.666297 -19.5128
  1289 -4.78979 4.20443 22.7104
  1290 -4.89489 4.21338 -22.7577
  1291 314.488 -5.92380 -21.4211
  1292 291.944 -12.1817 -11.6790
  1293 291.637 -13.8774 11.7765
  1294 42.8578 5.32647 2.74596
  1295 42.8297 5.32647 -2.74190
  1296 -48.3202 1.29946 -8.75224
  1297 -48.2636 1.29678 8.74278
  1298 325.691 -45.6203 -45.7309
  1299 -2.44031 -5.88792 6.00020
  1300 -2.44956 -5.88323 -5.99726
  1301 343.183 -15.1108 37.0644
  1302 -3.63184 -13.6423 16.2598
  1303 -3.59231 -13.6924 -16.1853
  1304 -31.2515 2.12043 4.52351
  1305 -31.3060 2.12167 -4.52441
  1306 51.3300 5.28561 -18.5281
  1307 50.8062 5.58625 18.5249
  1308 80.6888 2.55124 0.434791
  1309 80.6771 2.54922 -0.434077
  1310 -33.5365 3.33959 13.7926
  1311 -33.5910 3.34570 -13.8078
  1312 278.070 0.795133 0.768689
  1313 278.005 0.794982 -0.768408
  1314 152.154 -2.28677 95.3905
  1315 226.716 0.706564 1.74219
  1316 226.673 0.708021 -1.74247
  1317 149.741 3.11001 -38.1129
  1318 149.781 2.93214 38.4636
  1319 1.42372 -60.9257 -8.44414
  1320 57.6872 13.7318 -7.43475
  1321 57.4434 13.9004 7.54263
  1322 -0.559440 -0.516098 -0.740971
  1323 -0.562254 -0.516289 0.743127
  1324 193.524 6.14618 14.0932
  1325 193.451 6.21454 -14.0822
  1326 95.6373 8.13052 1.79111
  1327 95.6416 8.13670 -1.77949
  1328 141.338 8.23127 -6.56906
  1329 141.363 8.20946 6.58480
  1330 185.700 1.37174 -1.74506
  1331 185.727 1.36979 1.74508
  1332 -5.92253 -2.87534 -6.77778
  1333 -5.92170 -2.87215 6.78141
  1334 -57.2589 0.121950 2.68825
  1335 -57.3218 0.122061 -2.68884
  1336 -10.1310 -4.66723 -16.6269
  1337 -10.1238 -4.64436 16.6104
  1338 -33.0337 0.628804 1.14135
  1339 -33.0871 0.628396 -1.14137
  1340 -88.4177 0.821142 0.463826
  1341 -88.4908 0.821324 -0.463838
  1342 350.549 -45.2102 62.6207
  1343 251.622 -1.63683 -29.8143
</Section>

newXOutput 42

<Section columns = "stress_xx | stress_yy | stress_xy">
  1 312.808 -0.411652 0.310475
  2 312.889 -0.411910 -0.310627
  3 -97.8379 0.484999 -1.32700
  4 0.157248 0.0416924 0.277870
  5 570.957 157.564 182.833
  6 645.289 178.815 -175.310
  7 0.156601 0.0410929 -0.277011
  8 -97.7591 0.484922 1.32657
  9 311.851 -0.386166 -1.03085
  10 312.089 -0.906005 -1.67897
  11 315.040 -0.892325 -0.439897
  12 315.334 -0.841945 -1.95545
  13 316.070 -0.819115 -0.588831
  14 322.698 -0.793121 -0.824431
  15 324.960 -1.17520 -2.62074
  16 327.366 -0.534481 -1.78418
  17 328.855 0.208344 -3.44557
  18 342.253 -1.81765 -2.95212
  19 347.970 -1.38886 -3.81355
  20 354.246 -2.14155 -1.44728
  21 357.189 -2.87379 -0.828984
  22 354.379 -3.34162 4.73965
  23 341.904 -3.76726 9.91420
  24 313.018 -4.28822 21.1006
  25 266.585 2.30160 24.5249
  26 228.057 2.74083 22.9241
  27 174.723 5.97257 13.9068
  28 186.078 5.81378 1.16245
  29 154.857 17.4677 -8.90226
  30 216.036 7.94642 -24.8308
  31 250.005 1.87347 -20.3466
  32 306.595 -0.971631 -17.6047
  33 337.780 -4.57047 -11.8634
  34 353.768 -3.89667 -4.72201
  35 356.441 -2.78003 0.844191
  36 353.728 -2.11228 1.34719
  37 347.751 -1.39851 3.69530
  38 342.171 -1.84238 2.88343
  39 328.874 0.194073 3.41196
  40 327.419 -0.539865 1.77131
  41 325.033 -1.17854 2.61607
  42 322.777 -0.794856 0.822177
  43 316.150 -0.820162 0.587911
  44 315.415 -0.842873 1.95601
  45 315.122 -0.892994 0.439995
  46 312.170 -0.906540 1.67980
  47 311.931 -0.386411 1.03136
  48 294.767 0.879738 -0.381550
  49 272.707 0.465409 -0.863091
  50 245.177 -0.615476 -0.889816
  51 216.678 1.08732 -0.740218
  52 191.758 0.913115 -0.591892
  53 165.131 1.78014 -0.702794
  54 138.887 3.13754 -0.438978
  55 111.680 2.83126 -0.889693
  56 89.1413 2.04899 -1.23616
  57 59.5972 1.37097 -1.30239
  58 29.6151 1.92638 -0.989668
  59 4.60562 1.58568 -0.956448
  60 -26.5721 0.950785 -0.879035
  61 -49.7510 -0.186619 -2.10892
  62 -72.1945 -1.48323 -0.968671
  63 -94.9337 0.214267 0.633891
  64 -99.8189 1.71427 -0.266181
  65 -100.127 0.766019 0.267799
  66 -96.7799 0.393984 -0.144702
  67 -97.7405 1.10883 -1.22648
  68 -96.1440 1.34268 -0.153669
  69 -90.8940 0.420715 -1.87269
  70 -91.8428 0.826352 -2.00870
  71 -89.4747 0.785759 -1.14755
  72 -82.7962 0.497866 -1.71375
  73 -79.6276 0.881449 -2.80251
  74 -74.7392 0.982018 -2.31287
  75 -66.0897 0.502452 -3.96265
  76 -61.2211 0.154716 -3.31297
  77 -52.4912 0.222588 -3.81327
  78 -44.9615 0.164021 -4.20961
  79 -38.4198 0.0535420 -3.32194
  80 -29.3666 0.192400 -3.34468
  81 -21.5706 -0.0883609 -3.57306
  82 -14.0300 -0.392676 -3.12923
  83 -8.06272 -0.343460 -2.39274
  84 -3.95031 -0.598090 -1.99562
  85 -0.640281 -0.345465 -0.707418
  86 0.0591543 -0.381536 -0.248810
  87 -0.206627 -0.191201 -0.0418392
  88 -0.540483 -0.506095 -0.618901
  89 -0.524368 -3.33819 -1.73158
  90 -0.449277 -7.50722 -2.47577
  91 -0.233834 -12.8499 -3.61529
  92 -0.122495 -19.7528 -3.11891
  93 -0.106779 -26.1181 -3.92667
  94 -0.483862 -33.9116 -4.43819
  95 -0.197565 -43.5184 -4.48916
  96 0.0922763 -53.1974 -4.30407
  97 0.210528 -63.5788 -4.25029
  98 0.321150 -74.2612 -4.18625
  99 0.0279783 -82.1664 -5.67222
  100 0.559198 -93.3581 -5.08166
  101 0.680759 -106.485 -4.08286
  102 -0.0200052 -112.402 -5.42596
  103 0.964285 -122.106 -5.05105
  104 2.35105 -135.043 -2.51336
  105 4.58150 -138.749 -3.98532
  106 3.16859 -127.642 2.93738
  107 4.49787 -97.3942 12.9405
  108 24.2146 -58.0587 38.7076
  109 76.6984 101.880 134.472
  110 880.305 46.6274 86.6245
  111 755.114 14.1386 31.5741
  112 730.755 5.30198 7.12338
  113 725.626 1.90795 -1.17456
  114 730.491 8.09876 -16.6747
  115 753.181 25.5279 -37.3049
  116 856.047 91.3957 -109.889
  117 182.908 78.9762 -164.274
  118 40.3690 -57.2606 -47.4756
  119 11.8359 -106.557 -17.4448
  120 3.25394 -121.004 -3.20743
  121 3.68071 -133.603 2.26710
  122 1.05579 -129.799 1.94286
  123 0.388591 -119.051 4.32053
  124 0.416211 -111.944 3.42962
  125 0.585214 -100.697 5.76196
  126 -0.0293418 -94.1770 5.58301
  127 0.232140 -85.0215 4.02443
  128 0.447891 -73.3628 5.09521
  129 0.0852331 -65.0479 4.03995
  130 0.132326 -53.2714 5.10095
  131 -0.531969 -44.0401 4.38083
  132 -0.374682 -33.9411 4.30086
  133 -0.0766636 -25.9757 3.93714
  134 -0.158155 -19.6398 3.12536
  135 -0.228639 -12.8123 3.58040
  136 -0.442890 -7.50200 2.46350
  137 -0.521609 -3.34319 1.73033
  138 -0.539816 -0.511343 0.620099
  139 -0.206605 -0.193483 0.0433570
  140 0.0563996 -0.381911 0.250210
  141 -0.645529 -0.345306 0.709235
  142 -3.95844 -0.597578 1.99752
  143 -8.07377 -0.342439 2.39342
  144 -14.0392 -0.391414 3.12813
  145 -21.5738 -0.0873170 3.56970
  146 -29.3627 0.192605 3.34072
  147 -38.4060 0.0539988 3.31779
  148 -44.9388 0.164527 4.20489
  149 -52.4566 0.222493 3.80837
  150 -61.1758 0.154571 3.30843
  151 -66.0374 0.502076 3.95827
  152 -74.6774 0.981425 2.30955
  153 -79.5608 0.880814 2.79987
  154 -82.7248 0.497456 1.71217
  155 -89.3992 0.785332 1.14661
  156 -91.7657 0.825987 2.00772
  157 -90.8168 0.420561 1.87196
  158 -96.0648 1.34222 0.153662
  159 -97.6609 1.10848 1.22615
  160 -96.7010 0.393916 0.144759
  161 -100.048 0.765822 -0.267612
  162 -99.7392 1.71376 0.266172
  163 -94.8559 0.214269 -0.633638
  164 -72.1250 -1.48250 0.968392
  165 -49.6895 -0.186119 2.10827
  166 -26.5191 0.951157 0.878834
  167 4.64722 1.58615 0.956212
  168 29.6474 1.92711 0.989424
  169 59.6184 1.37233 1.30206
  170 89.1513 2.05044 1.23582
  171 111.682 2.83271 0.889444
  172 138.878 3.13891 0.438773
  173 165.112 1.78177 0.702417
  174 191.729 0.914706 0.591481
  175 216.639 1.08830 0.739664
  176 245.126 -0.614349 0.889193
  177 272.645 0.465556 0.862594
  178 294.695 0.879476 0.381331
  179 81.3651 14.5385 -2.78812
  180 81.3253 14.5599 2.83912
  181 -1.75975 2.27234 23.6733
  182 -1.84683 2.26020 -23.6815
  183 186.311 -2.63108 -41.2106
  184 186.203 -2.99803 41.6593
  185 36.8098 8.24938 -1.05887
  186 36.3708 8.41402 1.07939
  187 26.4121 4.95873 -3.90776
  188 26.4484 4.95721 3.91015
  189 176.688 3.73632 -5.94739
  190 176.718 3.72144 5.94949
  191 -3.67796 7.20550 13.0625
  192 -3.73764 7.21967 -13.0708
  193 205.345 5.56282 -15.5145
  194 205.442 5.48070 15.5303
  195 -8.05113 -7.02129 18.5869
  196 -8.04820 -7.06158 -18.6091
  197 1.75577 -16.9388 -22.3931
  198 63.3930 2.72840 -37.4497
  199 2.17314 -18.1030 21.8776
  200 62.3748 3.25097 38.0775
  201 291.294 -39.8801 -59.9116
  202 301.588 -41.4618 57.4215
  203 104.126 3.84356 -0.789360
  204 104.123 3.84004 0.791538
  205 -17.5952 1.33128 -2.63002
  206 -17.5449 1.33148 2.62995
  207 -23.5303 3.54287 18.1248
  208 -23.5850 3.55005 -18.1502
  209 104.639 9.98541 -2.63922
  210 104.639 9.97889 2.65562
  211 31.6372 13.3666 9.25680
  212 31.5155 13.4479 -9.27800
  213 -30.4388 3.27560 -7.63656
  214 -30.3809 3.27184 7.63284
  215 235.458 0.623173 2.87613
  216 235.412 0.626679 -2.87738
  217 7.42542 -31.9420 9.83992
  218 8.07562 -28.9962 -8.79158
  219 -2.23548 -19.8182 21.0035
  220 -2.28206 -20.5711 -20.3365
  221 96.6332 14.0689 -16.0960
  222 96.5526 14.1343 16.2754
  223 -21.1280 -0.107212 18.1642
  224 -21.1591 -0.109494 -18.1879
  225 251.903 1.70612 -8.56796
  226 251.956 1.68245 8.55426
  227 270.892 -3.74262 -16.8554
  228 271.100 -4.02262 16.7722
  229 431.980 33.3604 -0.272773
  230 396.289 43.8080 25.1650
  231 391.438 -4.21841 -36.6868
  232 47.2277 10.8862 4.99319
  233 47.1888 10.8976 -4.98117
  234 2.93364 8.77840 18.3111
  235 2.85715 8.80459 -18.3302
  236 302.571 -18.3263 -10.9786
  237 300.801 -18.5555 11.9444
  238 167.071 1.81490 -2.13785
  239 167.092 1.81091 2.13807
  240 -37.6488 2.65257 12.1328
  241 -37.7068 2.65810 -12.1455
  242 -5.13002 -5.05035 -8.33176
  243 -5.12566 -5.04749 8.33728
  244 -42.0384 1.08927 3.91188
  245 -42.0983 1.08981 -3.91275
  246 137.088 10.5784 -10.1395
  247 137.118 10.5497 10.1803
  248 174.584 5.49015 -23.3848
  249 174.729 5.39036 23.4886
  250 41.5055 2.96067 -0.400691
  251 41.5336 2.96153 0.401771
  252 100.526 -0.360087 -82.1198
  253 119.133 2.63395 89.6947
  254 13.3304 6.05300 17.5314
  255 13.2707 6.19040 -17.5983
  256 412.250 -33.0198 -6.69901
  257 35.2109 13.5946 8.02473
  258 35.1462 13.6252 -8.01505
  259 98.4952 10.4083 -30.4950
  260 98.3152 10.6755 30.8475
  261 460.141 63.9242 -5.88319
  262 273.190 0.369453 11.5982
  263 273.110 0.456297 -11.6467
  264 -2.48338 -15.2862 -13.0935
  265 -2.41385 -15.3482 13.1459
  266 -0.552216 -36.4108 -18.0916
  267 1.17728 -42.7161 -16.8205
  268 0.615588 -42.6536 17.5593
  269 -6.92071 -6.02002 23.9782
  270 -6.94875 -6.00871 -24.0686
  271 14.4125 -34.5977 -5.43088
  272 15.4958 -31.9658 7.85043
  273 -15.7777 -1.33777 11.5021
  274 -15.7853 -1.34363 -11.5120
  275 193.892 5.70791 -9.60316
  276 193.942 5.67310 9.60536
  277 340.000 -35.4734 -1.83510
  278 74.4721 6.68585 -0.481809
  279 74.4877 6.68766 0.487512
  280 -0.908975 -34.1541 17.2856
  281 6.59122 7.09501 8.52589
  282 6.54090 7.10400 -8.52642
  283 541.737 38.0797 -13.9419
  284 265.212 0.355818 3.54263
  285 265.156 0.361006 -3.54641
  286 176.950 -8.83673 -62.1224
  287 178.540 -8.68949 63.1069
  288 339.546 -33.6108 -3.75673
  289 -32.3602 0.990487 14.3745
  290 -32.3981 0.991010 -14.3936
  291 332.802 -28.4852 101.924
  292 -14.5023 2.34211 21.8239
  293 -14.5535 2.34033 -21.8575
  294 55.6717 15.3304 -3.59945
  295 55.4594 15.4775 3.67301
  296 -59.7653 0.529828 0.715587
  297 -59.8306 0.529709 -0.715605
  298 280.237 3.73227 -139.198
  299 -55.6845 1.14238 -6.57791
  300 -55.6208 1.14031 6.57260
  301 -1.69936 -7.13346 24.5472
  302 -0.881128 -6.96869 -24.3177
  303 122.653 12.7338 -14.7279
  304 122.669 12.7219 14.8312
  305 26.1285 3.39517 2.93024
  306 26.0939 3.39505 -2.92912
  307 127.845 5.26946 -2.91455
  308 127.853 5.26202 2.91864
  309 11.8806 -9.56870 13.1392
  310 10.8256 -11.3960 -13.2779
  311 124.092 2.53150 -0.678896
  312 124.095 2.52908 0.679410
  313 -45.5819 1.18575 10.5653
  314 -45.6309 1.18765 -10.5789
  315 30.7859 -3.53880 -6.92869
  316 29.8558 -3.57353 6.11474
  317 276.781 -0.0953352 0.987040
  318 276.717 -0.0946813 -0.987035
  319 605.478 34.6921 23.3785
  320 61.7797 8.57486 2.09862
  321 61.7558 8.57646 -2.08903
  322 -13.8868 3.14116 5.39647
  323 -13.9381 3.14352 -5.39719
  324 85.3163 11.8767 -1.68110
  325 85.2989 11.8783 1.70991
  326 9.73746 8.84298 19.0288
  327 9.67392 8.86499 -19.0672
  328 1.27462 -61.5660 12.3979
  329 -61.7982 0.175245 -1.60768
  330 -61.7319 0.175423 1.60748
  331 210.847 0.849313 -1.87313
  332 210.884 0.847189 1.87284
  333 222.060 1.75930 -4.96867
  334 222.103 1.74919 4.96546
  335 -57.4644 1.01976 -4.80863
  336 -57.3989 1.01872 4.80644
  337 -1.85949 1.22598 0.646558
  338 -1.90356 1.22545 -0.646351
  339 -1.28404 -25.1870 13.0800
  340 -1.02234 -26.1963 -13.0625
  341 249.584 -20.9129 -41.8491
  342 259.335 -24.9963 41.0597
  343 148.008 7.53715 -6.24553
  344 148.031 7.51884 6.25557
  345 64.7895 15.3855 -1.66089
  346 64.6865 15.4514 1.71908
  347 -23.4428 4.47643 10.8129
  348 -23.5009 4.48408 -10.8208
  349 466.429 7.05353 10.3637
  350 24.3200 -37.3613 -26.7579
  351 26.0117 -34.9714 28.0735
  352 -10.1934 7.13698 17.2194
  353 -10.2581 7.15291 -17.2382
  354 -12.9543 -2.65070 21.2104
  355 -12.9849 -2.65580 -21.2450
  356 528.221 87.3865 -23.3367
  357 337.919 -5.30198 44.3316
  358 316.378 -7.34148 -7.51093
  359 316.067 -7.17157 6.98029
  360 221.162 -2.46529 -26.6227
  361 220.915 -2.69630 26.6284
  362 0.410968 -74.1545 -10.0554
  363 289.875 0.819696 -6.52029
  364 289.926 0.795008 6.49403
  365 3.72526 -69.9226 8.00050
  366 333.343 26.0038 -24.3304
  367 81.2857 3.05988 1.05973
  368 81.2728 3.05853 -1.05961
  369 222.539 1.83424 -19.7752
  370 222.689 1.71080 19.7935
  371 240.147 2.18351 -12.0154
  372 240.214 2.12883 11.9968
  373 -5.16915 2.79447 3.67413
  374 -5.21601 2.79526 -3.67384
  375 137.132 7.60802 -31.4631
  376 137.184 7.68857 31.7653
  377 285.297 -0.0330275 1.61912
  378 285.231 -0.0317738 -1.61982
  379 160.790 9.06775 -15.7992
  380 160.858 9.00778 15.8594
  381 186.126 3.16256 4.01980
  382 186.097 3.16963 -4.02011
  383 -8.90563 -1.61461 7.08126
  384 -8.90456 -1.61866 -7.08103
  385 -2.11203 -1.50235 -2.05153
  386 -2.11307 -1.50319 2.05472
  387 380.039 -48.3456 26.1086
  388 -4.99874 -12.0126 19.3700
  389 -4.96580 -12.1128 -19.3698
  390 61.1563 4.24507 -1.40998
  391 61.1770 4.24663 1.41255
  392 -1.89231 -9.44913 7.10906
  393 -1.91351 -9.43326 -7.10968
  394 23.2390 10.8216 9.34834
  395 23.1841 10.8400 -9.34513
  396 310.766 -1.19886 8.59411
  397 310.697 -1.08128 -8.75558
  398 -0.816606 -18.6130 23.3809
  399 -25.5561 -0.474169 10.9047
  400 -25.5725 -0.476262 -10.9175
  401 -0.914885 -19.6473 -23.1169
  402 291.872 0.191703 4.15013
  403 291.811 0.199058 -4.15884
  404 -2.98655 6.37463 21.5868
  405 -3.07699 6.39628 -21.6207
  406 215.247 3.43510 -7.94777
  407 215.293 3.41376 7.94258
  408 330.956 -14.2165 -7.63772
  409 332.105 -11.4472 5.79233
  410 -0.686526 -34.3351 -14.3466
  411 29.3296 10.8201 -6.81725
  412 29.5719 10.6947 6.79215
  413 327.357 21.5195 15.2506
  414 186.794 -10.6173 -86.1320
  415 191.847 -14.1210 90.2202
  416 10.7140 10.2588 14.1363
  417 10.6470 10.2827 -14.1437
  418 137.615 4.04481 -1.99363
  419 137.624 4.04016 1.99497
  420 133.612 19.8291 137.204
  421 54.9447 13.1317 -3.75233
  422 54.9920 13.1109 3.77399
  423 3.35737 -32.9636 15.9173
  424 -0.418473 -55.8497 -12.4864
  425 21.5737 12.5339 13.2302
  426 21.4937 12.5708 -13.2399
  427 26.5645 7.40412 -5.74418
  428 26.6047 7.39857 5.74793
  429 -9.49194 -0.547832 -23.9583
  430 -9.44141 -0.561076 23.9211
  431 65.8785 12.9127 -12.1230
  432 65.6007 13.1139 12.2719
  433 332.051 -10.8499 -33.4201
  434 9.17791 -3.55622 18.7294
  435 8.86990 -3.46299 -18.8375
  436 241.705 -10.3265 -29.4237
  437 242.732 -11.0755 29.3685
  438 -60.7561 0.496207 -6.38332
  439 -60.6954 0.494700 6.37642
  440 0.00415396 -54.8110 11.2241
  441 -0.397472 -34.7942 12.7695
  442 -24.7543 1.57235 18.4024
  443 -24.7951 1.57224 -18.4277
  444 173.228 1.72351 -0.757242
  445 173.250 1.72127 0.757042
  446 -5.22604 -8.25102 13.1418
  447 -5.23418 -8.26925 -13.1271
  448 107.472 5.27551 -45.8534
  449 107.270 5.77594 46.4039
  450 0.895824 -66.5281 -12.4302
  451 604.512 21.8161 0.529887
  452 1.65668 -78.8752 -7.32125
  453 -72.0449 0.0216358 -2.35394
  454 -71.9746 0.0216767 2.35332
  455 -27.7347 3.87795 15.1074
  456 -27.7928 3.88622 -15.1255
  457 -32.1384 0.453820 10.9614
  458 -32.1635 0.453822 -10.9749
  459 117.686 12.3345 -9.87100
  460 117.696 12.3274 9.93442
  461 178.513 7.32695 -12.2303
  462 178.574 7.27611 12.2512
  463 -3.11693 -11.3117 24.1553
  464 -3.12087 -11.2366 -24.2555
  465 309.350 4.99316 -42.1975
  466 20.9567 -5.81252 -4.01421
  467 20.2294 -5.98790 4.38679
  468 4.86889 -71.3336 -0.507131
  469 3.10215 -82.7070 -1.71470
  470 -9.49729 -4.26034 13.5311
  471 -9.50069 -4.27536 -13.5361
  472 65.5021 -7.45553 -70.8586
  473 477.131 -1.61382 -45.6853
  474 107.152 7.17283 2.65708
  475 107.152 7.17990 -2.64788
  476 155.894 1.51419 -44.2319
  477 156.266 1.46499 44.9200
  478 45.4368 16.0015 5.36715
  479 45.3540 16.0529 -5.34911
  480 140.733 10.6047 -23.0503
  481 140.804 10.5465 23.2300
  482 4.96084 2.67049 22.0295
  483 5.27211 2.82732 -22.0025
  484 -63.8048 0.955265 -4.74011
  485 -63.7377 0.954303 4.73709
  486 311.215 -36.5825 -23.5335
  487 247.615 0.269083 -1.36364
  488 247.666 0.268148 1.36368
  489 12.5621 1.86997 -1.59565
  490 12.6011 1.87054 1.59618
  491 -16.2808 5.78519 14.1487
  492 -16.3415 5.79698 -14.1615
  493 -36.4773 2.24741 -5.21514
  494 -36.4187 2.24556 5.21346
  495 107.141 10.6959 -4.21545
  496 107.142 10.6873 4.24024
  497 -13.1825 4.93596 19.8302
  498 -13.2467 4.94845 -19.8593
  499 285.024 -7.93662 -15.6793
  500 285.498 -8.34643 15.4367
  501 186.349 2.07641 -29.3999
  502 186.078 1.93616 29.6581
  503 68.9431 3.43236 -0.813253
  504 68.9607 3.43398 0.814327
  505 0.707000 -34.1520 -19.8283
  506 333.840 -12.2490 27.4523
  507 4.48200 -22.6421 -18.0675
  508 94.3448 15.2199 9.98795
  509 94.3965 15.1805 -9.88136
  510 307.808 -34.2309 23.2211
  511 23.2322 -32.9542 37.0265
  512 366.927 -48.0630 -46.7207
  513 249.735 1.16556 14.4587
  514 249.632 1.26969 -14.4834
  515 0.658134 -29.2396 20.6323
  516 -4.88542 -1.46088 -3.77997
  517 -4.88781 -1.46028 3.78290
  518 29.9219 1.77353 -0.491629
  519 29.9542 1.77441 0.491908
  520 -0.847982 -19.4213 8.39237
  521 -0.769393 -19.3301 -8.43492
  522 205.741 2.27537 3.20428
  523 205.706 2.27917 -3.20497
  524 581.021 101.510 42.0772
  525 23.7730 -15.3179 -6.91964
  526 18.4819 -20.4569 3.06048
  527 -6.32813 4.49244 -7.13790
  528 -6.27711 4.48753 7.13650
  529 -50.2689 0.795974 6.58991
  530 -50.3099 0.796864 -6.59830
  531 0.497373 -62.3503 12.3671
  532 -70.9281 0.642137 0.678844
  533 -70.9975 0.642152 -0.678826
  534 63.1603 -5.20230 -51.9593
  535 61.7460 -4.10016 54.0106
  536 57.7884 9.95841 -17.4877
  537 57.3514 10.2265 17.6200
  538 -13.5248 -2.85665 18.5395
  539 -13.5441 -2.86809 -18.5650
  540 56.7429 5.34149 1.49838
  541 56.7198 5.34068 -1.49452
  542 -30.1186 1.44705 2.28132
  543 -30.1737 1.44724 -2.28135
  544 67.0590 10.0480 1.66279
  545 67.0342 10.0522 -1.64705
  546 -1.35703 -4.39974 3.22990
  547 -1.36165 -4.39565 -3.22922
  548 24.2409 10.4559 11.9446
  549 24.0798 10.6063 -11.9943
  550 19.5861 2.94442 10.5843
  551 19.3052 2.91758 -10.7425
  552 253.060 1.90315 6.09945
  553 253.008 1.91377 -6.10581
  554 223.654 3.15026 9.70385
  555 223.600 3.18371 -9.71260
  556 -0.230434 -52.6164 -7.77732
  557 156.267 8.08978 -9.30552
  558 156.302 8.06103 9.32400
  559 156.757 3.86663 -3.43419
  560 156.776 3.85826 3.43610
  561 -21.9186 0.853809 -0.0315419
  562 -21.8672 0.854214 0.0317500
  563 265.822 14.5857 -8.12350
  564 351.598 -45.0712 -16.6467
  565 287.312 13.1353 32.0316
  566 2.31480 -45.2213 -14.5980
  567 -15.8408 4.98612 -9.37077
  568 -15.7850 4.97940 9.36645
  569 2.41790 -26.2910 19.5500
  570 -15.6582 0.408505 21.2807
  571 -15.6986 0.406974 -21.3100
  572 448.252 43.1023 -0.918665
  573 101.772 4.95569 -1.13523
  574 101.768 4.95146 1.13885
  575 682.328 57.6739 -58.9999
  576 -3.44487 -2.69631 24.8849
  577 -3.21906 -2.51802 -24.9071
  578 371.596 -33.6178 15.6528
  579 299.480 0.347889 -7.26391
  580 299.525 0.307537 7.21755
  581 136.882 -0.560671 -64.3516
  582 138.535 -0.968169 65.3909
  583 -7.71668 -7.41793 21.4704
  584 -7.72360 -7.45552 -21.5246
  585 71.6781 5.90142 33.7786
  586 72.2809 5.35250 -33.4802
  587 -58.8908 0.682356 -6.21322
  588 -58.8347 0.681258 6.20590
  589 438.125 36.3195 26.7690
  590 83.0228 7.87653 0.155891
  591 83.0350 7.87904 -0.147067
  592 98.0531 12.1602 -23.0597
  593 97.9269 12.3088 23.3248
  594 270.571 -0.437024 -14.1778
  595 270.702 -0.577784 14.1305
  596 -1.22897 -27.5441 -19.3362
  597 294.844 -0.301226 2.17033
  598 294.774 -0.299467 -2.17163
  599 -43.2673 0.905975 -0.909130
  600 -43.2079 0.906082 0.909266
  601 -76.0599 -0.504225 0.0312870
  602 -76.1309 -0.504578 -0.0312218
  603 6.22625 -41.7102 -7.04736
  604 -2.77397 -17.8551 16.5346
  605 -2.92577 -16.8958 -16.6455
  606 -33.5725 2.06193 15.3456
  607 -33.6190 2.06517 -15.3660
  608 205.621 5.23079 12.2238
  609 205.557 5.28250 -12.2234
  610 151.222 2.16018 0.816512
  611 151.208 2.16211 -0.816350
  612 33.9627 -10.0406 21.1574
  613 35.0651 -9.31219 -20.9516
  614 -1.06079 -13.5375 7.08450
  615 -1.09303 -13.4939 -7.10807
  616 353.331 22.0299 148.319
  617 -17.4527 -0.542294 6.57055
  618 -17.4530 -0.544734 -6.57560
  619 6.18453 -25.3204 -14.6277
  620 147.897 6.09356 -4.74756
  621 147.915 6.08134 4.75284
  622 72.1846 15.3552 -7.21596
  623 72.0493 15.4485 7.32119
  624 0.714470 -94.2564 5.07836
  625 54.0484 15.0858 3.30879
  626 53.9882 15.1199 -3.28277
  627 -6.20406 6.23024 11.2559
  628 -6.26044 6.24044 -11.2615
  629 -0.421552 -46.4271 10.6235
  630 -75.7328 0.0956189 -2.34126
  631 -75.6610 0.0954981 2.34044
  632 97.0783 2.78106 0.241033
  633 97.0849 2.78371 -0.239819
  634 246.625 0.856512 4.02764
  635 246.575 0.861793 -4.03007
  636 217.215 -15.6860 113.262
  637 174.619 4.56844 -7.33026
  638 174.653 4.54740 7.33473
  639 2.70990 -3.80823 23.0815
  640 3.34139 -2.24737 -23.0504
  641 279.448 -28.7277 -91.5964
  642 662.082 22.8870 -24.5479
  643 -69.5481 0.0647914 -4.30896
  644 -69.4825 0.0641027 4.30502
  645 16.1416 3.79861 -3.44449
  646 16.1806 3.79772 3.44571
  647 -1.31524 -29.1642 17.0611
  648 378.061 21.9427 -39.6082
  649 291.588 -0.447957 0.369850
  650 291.517 -0.447570 -0.369754
  651 -18.7683 -1.03693 -15.2952
  652 -18.7499 -1.03238 15.2771
  653 -0.0532715 -66.0377 -10.2290
  654 296.632 -0.478736 0.832964
  655 296.559 -0.478230 -0.832881
  656 26.7721 9.43559 7.92810
  657 26.7250 9.44737 -7.92336
  658 225.336 -19.7676 -59.9868
  659 229.467 -19.6952 60.6694
  660 330.306 -2.04057 4.93988
  661 330.394 -2.01695 -5.16127
  662 1.44179 -83.3935 8.06721
  663 -18.5661 0.668833 -1.33280
  664 -18.5158 0.669306 1.33291
  665 107.952 7.93655 -107.357
  666 101.037 2.50196 0.756677
  667 101.042 2.50364 -0.756164
  668 49.4242 3.87442 0.724589
  669 49.3989 3.87340 -0.722740
  670 58.8989 6.68292 -1.19397
  671 58.9221 6.68313 1.20046
  672 192.469 5.59236 -18.8999
  673 192.587 5.49718 18.9467
  674 50.7125 14.8541 1.09986
  675 50.5640 14.9580 -1.06771
  676 -35.2459 2.63545 -8.83383
  677 -35.1864 2.63088 8.82789
  678 -40.8837 2.81304 -10.0193
  679 -40.8239 2.80823 10.0102
  680 339.260 -5.10778 -1.18848
  681 0.296486 -13.8981 -23.5248
  682 339.833 -5.35826 0.695168
  683 430.355 33.9393 -0.0858223
  684 -42.6195 0.197817 7.49060
  685 -42.6511 0.197812 -7.50038
  686 44.0851 12.6362 -1.98045
  687 43.7716 12.7974 2.02264
  688 -81.3858 0.0840961 -0.859778
  689 -81.3123 0.0841602 0.859679
  690 0.550495 -12.5286 23.5790
  691 -26.7224 0.354762 16.1289
  692 -26.7560 0.353845 -16.1500
  693 372.176 -31.5445 -17.0996
  694 58.2458 1.66361 -0.352151
  695 58.2242 1.66229 0.352693
  696 13.0326 5.56434 5.69052
  697 12.9895 5.56803 -5.68896
  698 196.249 -9.08720 -50.0908
  699 197.760 -9.44407 51.0848
  700 689.782 48.6948 53.8253
  701 13.1162 -64.4202 -22.0053
  702 -4.99655 -10.4970 22.9803
  703 -5.00631 -10.5379 -23.0302
  704 41.0017 9.35880 -4.41528
  705 41.0379 9.35212 4.42330
  706 304.900 -0.395141 -2.21558
  707 304.971 -0.397146 2.21286
  708 144.477 2.68973 1.38193
  709 144.465 2.69347 -1.38139
  710 11.7402 10.6153 17.0169
  711 11.6639 10.6481 -17.0368
  712 6.88492 2.84682 2.42885
  713 6.84348 2.84689 -2.42830
  714 -8.70813 1.99027 23.5465
  715 -8.76896 1.99134 -23.5907
  716 250.295 -0.0480821 1.68821
  717 250.242 -0.0463160 -1.68875
  718 216.398 2.08570 4.58122
  719 216.358 2.09220 -4.58279
  720 28.8207 -19.6568 25.5475
  721 29.6766 -21.0045 -24.6705
  722 -16.9766 3.63365 20.5370
  723 -17.0331 3.63890 -20.5686
  724 8.87820 -20.9827 11.6234
  725 0.549689 6.37474 21.7871
  726 0.454575 6.39390 -21.8084
  727 -48.3612 1.41182 -5.89099
  728 -48.2986 1.40995 5.88766
  729 37.3869 12.2529 7.42162
  730 37.3315 12.2743 -7.41026
  731 334.912 -10.2221 -18.6935
  732 317.279 -27.7725 -7.48024
  733 -5.14706 -10.5227 16.2555
  734 -5.14009 -10.5716 -16.2343
  735 122.664 -1.20154 -75.9675
  736 119.439 1.46098 76.7323
  737 74.5263 14.2409 -11.3610
  738 74.3434 14.3821 11.5120
  739 6.41643 -12.3527 18.9914
  740 -0.462500 -34.3393 -9.22776
  741 156.276 8.76872 -17.5923
  742 156.358 8.71044 17.6844
  743 0.411399 -67.5853 8.56686
  744 92.9653 13.0712 -4.39735
  745 92.9484 13.0744 4.44104
  746 320.157 -0.239756 -5.50709
  747 320.163 -0.280249 5.42735
  748 6.24764 -92.1200 1.71017
  749 143.833 10.9390 13.2214
  750 143.790 10.9753 -13.1639
  751 38.6784 13.6330 -4.57576
  752 38.8759 13.4926 4.56819
  753 -57.9403 0.383974 -5.23595
  754 -57.8915 0.383456 5.22908
  755 159.822 2.98590 -3.02735
  756 159.841 2.98039 3.02821
  757 98.2739 14.3383 -8.34287
  758 98.2470 14.3540 8.42168
  759 0.403934 8.65214 16.9026
  760 0.334587 8.67442 -16.9181
  761 318.253 -23.7423 3.61877
  762 -50.0239 1.13092 4.49408
  763 -50.0868 1.13167 -4.49552
  764 688.769 132.245 -93.8239
  765 -19.2478 2.01702 4.75169
  766 -19.3000 2.01796 -4.75226
  767 270.966 0.906821 10.0818
  768 270.905 0.957366 -10.1170
  769 503.308 31.9117 0.437566
  770 307.150 -0.814469 -4.19680
  771 307.210 -0.821973 4.18536
  772 195.871 3.06039 5.73839
  773 195.837 3.07140 -5.73933
  774 293.164 -33.7829 83.4575
  775 126.911 9.55204 -4.81838
  776 126.925 9.53788 4.83533
  777 2.87685 -51.4053 10.7308
  778 336.437 -42.6839 26.9354
  779 204.152 0.749529 0.989068
  780 204.119 0.751145 -0.989105
  781 268.049 0.214862 0.527837
  782 267.989 0.215260 -0.527796
  783 -1.21691 -27.1884 -15.9554
  784 1.60901 -46.5054 15.6603
  785 120.159 13.4869 18.3695
  786 120.152 13.4844 -18.2129
  787 683.080 6.96162 5.86726
  788 207.284 1.95699 -23.6459
  789 207.440 1.84277 23.7042
  790 -43.2915 1.43690 11.5040
  791 -43.3466 1.44039 -11.5172
  792 8.70657 -37.7996 3.60263
  793 5.65058 -86.0164 -5.68878
  794 473.237 61.1503 -6.67513
  795 -0.417953 -34.2377 8.32804
  796 9.43012 6.75440 19.6489
  797 9.40024 6.75309 -19.7337
  798 62.8777 12.6300 2.16477
  799 62.8435 12.6432 -2.14350
  800 315.913 -14.4192 -4.73725
  801 316.479 -14.2633 3.62349
  802 372.652 51.7064 -140.411
  803 -51.5017 0.609221 -2.08438
  804 -51.4389 0.609147 2.08410
  805 -23.9562 -0.101779 6.19457
  806 -23.9616 -0.102795 -6.20101
  807 22.7137 1.46460 6.31744
  808 22.2327 1.43767 -6.36007
  809 239.313 -1.17080 21.2997
  810 239.129 -0.960882 -21.2597
  811 121.642 3.45143 -0.702043
  812 121.646 3.44796 0.703169
  813 386.417 -6.58661 36.4256
  814 40.2990 6.66990 -3.93128
  815 40.3316 6.66763 3.93647
  816 37.6610 4.76368 -5.72610
  817 37.3204 4.94820 5.82214
  818 -0.168159 -26.9797 -21.5126
  819 547.498 82.3368 76.4934
  820 -79.4721 0.0952823 -2.33178
  821 -79.3993 0.0951365 2.33057
  822 -0.118773 -82.4143 8.10302
  823 5.67556 -12.2024 -19.1996
  824 -11.8895 -0.731565 4.60212
  825 -11.8842 -0.733389 -4.60345
  826 436.859 24.4616 -25.7650
  827 113.182 11.4392 -6.05448
  828 113.188 11.4296 6.09279
  829 299.763 -4.25613 -10.7200
  830 300.024 -4.30751 10.5461
  831 -75.9198 0.587441 3.09251
  832 -75.9899 0.588048 -3.09490
  833 -0.535910 -0.555380 -0.453395
  834 -0.536989 -0.556385 0.455191
  835 0.256516 -84.3027 -7.93366
  836 0.389845 -88.8512 -7.24445
  837 -83.9101 0.818525 0.472216
  838 -83.9840 0.818672 -0.472250
  839 45.3053 -15.0812 -49.7280
  840 185.581 2.45892 -1.65387
  841 185.608 2.45621 1.65357
  842 -6.52083 1.60810 0.604576
  843 -6.56658 1.60775 -0.604609
  844 276.194 0.864584 -6.69641
  845 276.249 0.847268 6.68043
  846 -31.5042 0.212808 5.89391
  847 -31.5173 0.212841 -5.90071
  848 166.702 0.901425 -114.352
  849 288.076 -24.6484 23.0895
  850 226.173 1.17667 -2.08162
  851 226.216 1.17444 2.08091
  852 285.415 -26.8247 -25.8252
  853 88.7432 10.1131 -1.51715
  854 88.7317 10.1102 1.53731
  855 122.821 8.28657 -3.63132
  856 122.830 8.27602 3.64221
  857 334.939 -7.18354 14.2672
  858 20.2900 12.0312 14.1186
  859 20.2027 12.0774 -14.1458
  860 20.6480 1.59208 1.15300
  861 20.6122 1.59125 -1.15265
  862 157.671 2.23303 1.38718
  863 157.655 2.23582 -1.38698
  864 414.120 -39.1591 45.8466
  865 259.052 1.62112 -8.75263
  866 259.110 1.58872 8.73112
  867 3.34531 4.01117 4.50753
  868 3.30059 4.01300 -4.50685
  869 259.842 -0.168935 2.46383
  870 259.787 -0.166739 -2.46481
  871 -48.7777 0.344859 -1.30446
  872 -48.7166 0.345174 1.30414
  873 -0.231016 -26.1953 7.42028
  874 -0.302851 -26.6054 -7.47784
  875 310.718 -4.50458 33.9705
  876 -19.1141 4.80146 17.3818
  877 -19.1743 4.81270 -17.4037
  878 -0.107365 -43.1813 -8.20780
  879 122.843 4.77386 -1.84652
  880 122.848 4.76915 1.84897
  881 226.470 -11.4547 -38.1738
  882 228.243 -12.6734 38.5516
  883 -9.82239 -3.48373 -23.0859
  884 -9.78057 -3.48495 23.0403
  885 12.1038 10.7449 15.6339
  886 12.0305 10.7740 -15.6455
  887 1.08992 -99.0357 5.70076
  888 2.94514 8.34445 19.9484
  889 2.86410 8.36783 -19.9705
  890 209.068 -3.69421 -33.9185
  891 208.620 -3.87123 34.1904
  892 361.530 19.5597 41.0598
  893 82.6538 9.43256 0.466896
  894 82.6678 9.43482 -0.453259
  895 265.993 1.75642 -6.56045
  896 266.047 1.74272 6.55016
  897 -10.4689 -4.58698 20.2512
  898 -10.4877 -4.60405 -20.2864
  899 0.914020 -102.224 -3.87286
  900 -16.0967 -1.10760 19.8762
  901 -16.1265 -1.11019 -19.9039
  902 9.81674 9.74376 -12.3089
  903 9.87708 9.72445 12.3045
  904 -0.819777 -6.56725 3.64006
  905 -0.828960 -6.56046 -3.64542
  906 22.3379 10.9770 -11.0801
  907 22.4009 10.9531 11.0811
  908 4.74210 -8.15387 21.3677
  909 4.11435 -7.59070 -22.4319
  910 257.712 -7.24386 21.6778
  911 257.091 -6.88279 -21.8124
  912 -85.5415 0.259129 -0.693371
  913 -85.4667 0.259157 0.693305
  914 -7.29750 -0.662120 3.45600
  915 -7.29076 -0.663223 -3.45487
  916 0.352574 -61.4235 -7.49611
  917 -7.87855 -3.38976 -9.85385
  918 -7.87624 -3.38161 9.85507
  919 -33.3899 2.80677 14.7822
  920 -33.4436 2.81256 -14.8010
  921 79.8654 15.5156 -4.41618
  922 79.8088 15.5575 4.48131
  923 340.988 27.0825 -6.64335
  924 -4.23017 7.72251 15.3652
  925 -4.29404 7.73953 -15.3779
  926 126.402 7.93049 -35.3995
  927 126.420 8.04598 35.8118
  928 -15.5000 5.40899 12.3901
  929 -15.5587 5.41965 -12.3997
  930 415.508 -21.3417 -8.28871
  931 247.975 9.87967 17.7511
  932 300.678 -3.94686 -30.7269
  933 225.556 3.20199 -14.4300
  934 225.642 3.12581 14.4235
  935 -24.3872 3.27536 -6.14938
  936 -24.3320 3.27210 6.14736
  937 -54.2109 0.988869 7.40825
  938 -54.2722 0.991063 -7.41559
  939 -3.26082 -10.5159 -11.4402
  940 -3.23862 -10.5257 11.4617
  941 79.3616 5.36991 0.216367
  942 79.3747 5.37238 -0.212314
  943 -25.3788 2.60048 18.2927
  944 -25.4265 2.60304 -18.3189
  945 271.111 -0.0254731 3.24650
  946 271.052 -0.0228363 -3.24810
  947 -2.06361 -23.1420 17.3631
  948 9.63876 8.96935 -10.5980
  949 9.69386 8.95504 10.5960
  950 13.3881 6.28787 7.02509
  951 13.3425 6.29389 -7.02391
  952 45.9869 4.50381 -1.85572
  953 46.0139 4.50422 1.85797
  954 509.889 62.4543 -11.5975
  955 -1.99782 -0.553841 -1.36171
  956 -2.00211 -0.553842 1.36421
  957 17.2056 4.68480 -13.3920
  958 17.4989 4.53885 13.3434
  959 181.772 7.49752 -15.0736
  960 181.850 7.43138 15.1064
  961 22.8114 7.89867 -6.74064
  962 22.8556 7.89101 6.74401
  963 49.4789 -14.5703 66.5410
  964 343.400 -2.40586 -2.72460
  965 342.852 -2.31448 2.39615
  966 60.2049 -7.56567 57.7919
  967 63.1040 2.95150 -0.0917942
  968 63.0842 2.95026 0.0926672
  969 165.319 -6.49179 -98.8113
  970 124.700 2.37719 0.769217
  971 124.697 2.37897 -0.768867
  972 15.6763 -16.9852 4.00668
  973 17.3251 -14.3420 -2.69977
  974 304.487 -0.281444 1.12102
  975 304.411 -0.280936 -1.12096
  976 -25.0642 0.0694039 14.6324
  977 -25.0890 0.0681624 -14.6501
  978 545.567 68.0583 29.6896
  979 -2.38503 -17.4236 -22.9497
  980 2.61019 -87.7825 9.22734
  981 -0.441072 -27.6215 21.1913
  982 314.712 -0.171801 -4.28296
  983 314.760 -0.182836 4.26298
  984 -4.16429 -7.61409 9.87842
  985 -4.17528 -7.61375 -9.86812
  986 390.878 40.4289 -23.2564
  987 693.253 6.24235 -3.94568
  988 -1.02186 -1.52834 -1.48204
  989 -1.02078 -1.53158 1.48418
  990 182.212 2.32571 -3.23372
  991 182.239 2.32109 3.23364
  992 -2.45341 -16.7573 23.0737
  993 253.925 1.31965 12.9148
  994 253.848 1.39530 -12.9436
  995 333.432 -22.2753 -14.1973
  996 -11.6741 -2.45402 11.1541
  997 -11.6777 -2.46293 -11.1593
  998 5.35079 -22.1787 16.6535
  999 -0.557800 -41.5267 16.6296
  1000 -0.0474127 -42.8372 8.19330
  1001 339.599 22.4755 -1.92711
  1002 389.850 42.7255 13.5492
  1003 279.553 -32.4619 -45.8374
  1004 3.93476 -40.8591 13.4885
  1005 5.00626 -58.9129 3.35515
  1006 77.0519 2.11945 0.266157
  1007 77.0373 2.11805 -0.266020
  1008 -3.10715 -3.54038 -4.70295
  1009 -3.10460 -3.54136 4.70684
  1010 2.60403 -33.5620 -17.8766
  1011 225.847 0.461401 -0.763786
  1012 225.889 0.460192 0.763614
  1013 44.7437 -0.860025 -21.1260
  1014 42.8033 -0.752791 20.9231
  1015 -4.40918 6.90328 20.0863
  1016 -4.48590 6.92378 -20.1146
  1017 -26.9732 4.10290 -12.5189
  1018 -26.9141 4.09495 12.5075
  1019 171.480 2.81031 -34.7205
  1020 171.594 2.94952 35.1092
  1021 123.190 10.9675 -24.0184
  1022 123.187 10.9631 24.2594
  1023 133.923 9.95325 -7.89783
  1024 133.944 9.93095 7.92366
  1025 348.835 -10.0696 -40.0641
  1026 -9.43640 4.23583 21.9582
  1027 -9.50551 4.24428 -21.9990
  1028 247.231 -0.111881 17.6237
  1029 247.093 0.0469947 -17.6374
  1030 -1.70853 -13.1642 24.1327
  1031 -20.0269 -0.678527 10.7779
  1032 -20.0364 -0.681688 -10.7888
  1033 225.158 2.25550 -17.5004
  1034 225.273 2.14814 17.5018
  1035 276.552 6.46556 -28.7183
  1036 -0.358282 -41.3219 -17.4561
  1037 -3.36459 -16.2873 20.6049
  1038 -3.50367 -16.4759 -20.4295
  1039 158.376 9.49450 -12.3217
  1040 158.428 9.44994 12.3606
  1041 200.444 3.88769 7.12117
  1042 200.405 3.90411 -7.12291
  1043 332.748 -21.7555 12.3733
  1044 15.7386 1.78539 -0.320980
  1045 15.7762 1.78599 0.321073
  1046 282.774 -36.3271 48.9276
  1047 -2.33230 1.24572 1.53385
  1048 -2.37672 1.24516 -1.53366
  1049 60.4791 15.5833 0.827063
  1050 60.4024 15.6322 -0.787190
  1051 22.6885 12.2614 12.1395
  1052 22.6176 12.2918 -12.1419
  1053 3.05622 -50.8089 -11.1626
  1054 81.1924 3.28585 -0.0822668
  1055 81.2050 3.28848 0.0845533
  1056 240.976 8.04342 7.29555
  1057 227.836 1.90882 6.66403
  1058 227.791 1.92350 -6.66907
  1059 -1.47673 -13.6543 -24.1724
  1060 342.911 -4.36221 -7.28764
  1061 -0.195957 -1.33477 24.0820
  1062 0.0576946 -1.13157 -23.9779
  1063 313.004 -0.534664 -2.36269
  1064 313.074 -0.537168 2.35815
  1065 333.294 -1.10468 -4.14155
  1066 333.205 -1.14865 4.02380
  1067 -0.254316 -64.9252 6.17503
  1068 194.775 5.18225 -9.44436
  1069 194.817 5.15535 9.44451
  1070 237.463 2.32116 7.79303
  1071 237.413 2.33996 -7.80137
  1072 5.07888 5.46654 21.7712
  1073 5.05123 5.47049 -21.7893
  1074 516.546 34.7532 5.01772
  1075 -6.71805 -2.97339 24.6395
  1076 -6.81427 -2.91221 -24.6981
  1077 72.9961 14.5619 -0.327709
  1078 72.9615 14.5798 0.361528
  1079 -42.0324 0.843812 -2.28221
  1080 -41.9732 0.843891 2.28199
  1081 120.379 6.68865 -40.8260
  1082 120.228 7.03112 41.3421
  1083 34.2613 13.8359 9.48058
  1084 34.1834 13.8743 -9.47514
  1085 81.5757 9.12652 -29.8289
  1086 81.1604 9.53864 30.1067
  1087 -2.20186 -21.7267 -16.9142
  1088 288.913 3.73503 37.4704
  1089 203.206 -0.936831 128.601
  1090 32.2283 14.1615 9.79469
  1091 32.1356 14.2137 -9.79715
  1092 122.384 6.76936 -2.71226
  1093 122.391 6.76042 2.71920
  1094 446.841 0.188841 12.5504
  1095 28.2463 6.95970 6.39685
  1096 27.8886 7.05354 -6.49876
  1097 -13.2853 -2.93414 14.8654
  1098 -13.2949 -2.94724 -14.8794
  1099 -0.436640 -9.80940 3.97794
  1100 -0.453655 -9.80316 -3.99376
  1101 293.485 -0.172741 10.4418
  1102 293.400 -0.0593661 -10.5284
  1103 0.368882 -21.0680 22.6577
  1104 -20.2343 1.24244 -19.9187
  1105 -20.1942 1.24382 19.8914
  1106 0.104117 -78.7174 -7.90681
  1107 -4.71723 -6.61652 24.5984
  1108 -4.70581 -6.48135 -24.6237
  1109 280.959 0.417207 -4.39757
  1110 281.019 0.411168 4.39232
  1111 289.303 -2.08779 12.4957
  1112 289.121 -1.90567 -12.5851
  1113 49.8255 10.8594 -9.49652
  1114 49.4473 11.0845 9.60076
  1115 -0.697860 -40.5468 -14.1313
  1116 381.195 -36.8921 -74.7031
  1117 494.539 62.1253 1.26504
  1118 4.99835 -62.1703 -1.49801
  1119 17.3253 9.95152 -16.0602
  1120 17.4264 9.89388 15.9890
  1121 46.5696 15.2469 4.63818
  1122 46.4632 15.3146 -4.61919
  1123 99.2154 6.15766 0.871595
  1124 99.2197 6.16293 -0.865723
  1125 -6.43798 -9.17003 19.2609
  1126 -6.42825 -9.25559 -19.2894
  1127 -18.5685 5.67169 16.0381
  1128 -18.6294 5.68385 -16.0551
  1129 -6.79122 7.14634 18.5999
  1130 -6.86092 7.16451 -18.6227
  1131 275.724 -14.0568 -21.1863
  1132 277.518 -14.1868 20.9924
  1133 0.237644 -46.7466 -16.6257
  1134 146.473 -0.623285 -51.4144
  1135 146.722 -0.158122 52.3020
  1136 46.4044 14.0585 -5.14817
  1137 46.4596 14.0305 5.16579
  1138 148.033 64.4713 143.977
  1139 36.1658 11.3361 7.09007
  1140 36.1172 11.3517 -7.08083
  1141 376.863 -42.1613 -17.1974
  1142 141.767 4.17864 2.23936
  1143 141.755 4.18495 -2.23741
  1144 -6.43212 -5.74008 11.7494
  1145 -6.43584 -5.75321 -11.7448
  1146 -7.68831 -6.90473 15.2198
  1147 -7.68743 -6.93131 -15.2205
  1148 246.598 -25.6971 -72.6135
  1149 251.694 -28.2410 73.1632
  1150 43.5502 1.89745 0.452343
  1151 43.5774 1.89859 -0.451429
  1152 154.399 7.25345 -28.0839
  1153 154.419 7.15560 28.3770
  1154 338.445 -46.1060 55.2970
  1155 302.181 -0.634501 0.654957
  1156 302.105 -0.634040 -0.654726
  1157 -27.2830 4.26276 14.3087
  1158 -27.3422 4.27113 -14.3237
  1159 -46.7281 1.47564 -7.53599
  1160 -46.6661 1.47322 7.53133
  1161 76.5171 -0.825482 85.8931
  1162 232.837 15.8259 -14.7935
  1163 141.218 10.3094 -13.6549
  1164 141.266 10.2738 13.7322
  1165 440.820 -15.2539 80.3049
  1166 143.507 9.86507 -20.3965
  1167 143.568 9.80936 20.5313
  1168 35.2825 4.80742 -2.71131
  1169 35.3144 4.80722 2.71372
  1170 12.3393 -47.5300 7.71512
  1171 12.4853 -46.3797 -11.0424
  1172 194.770 -14.1496 -73.2571
  1173 197.491 -13.2559 73.2266
  1174 75.8015 12.3008 -20.6230
  1175 75.4865 12.5646 20.8488
  1176 343.827 -23.3253 -26.1847
  1177 -12.6707 -1.11168 22.4568
  1178 -12.7119 -1.11075 -22.4909
  1179 -0.288948 -18.8349 -23.2693
  1180 86.9699 1.62985 -53.9219
  1181 87.1775 1.91096 54.8774
  1182 -0.222117 -17.4119 4.44015
  1183 -0.189539 -17.4537 -4.49431
  1184 -83.0280 0.700986 -2.19015
  1185 -82.9545 0.700585 2.18873
  1186 274.338 -0.0369032 -1.20530
  1187 274.401 -0.0379169 1.20483
  1188 168.610 6.46942 -7.98432
  1189 168.648 6.44302 7.99373
  1190 -6.34371 -0.154001 24.6696
  1191 -6.36307 -0.0561992 -24.7159
  1192 0.0270471 -70.1705 -6.88251
  1193 -70.4441 0.169720 3.51477
  1194 -70.5068 0.170157 -3.51870
  1195 53.7243 -2.19751 -37.5257
  1196 53.3143 -1.86061 38.7493
  1197 319.550 -19.5955 -0.581005
  1198 90.5073 5.18820 -48.4144
  1199 90.5765 5.45425 48.9176
  1200 -39.0202 0.208297 5.36358
  1201 -39.0412 0.208130 -5.37028
  1202 1.01233 -61.6698 -11.7598
  1203 -12.2175 2.54235 -2.98781
  1204 -12.1687 2.54192 2.98794
  1205 47.5740 11.9240 5.28700
  1206 47.5287 11.9398 -5.27223
  1207 179.610 1.21099 -1.07092
  1208 179.634 1.20915 1.07105
  1209 242.732 1.31352 5.07223
  1210 242.683 1.32256 -5.07647
  1211 13.0638 -2.10667 13.7995
  1212 12.8682 -2.33081 -14.0361
  1213 2.20254 -35.5463 17.8338
  1214 434.780 58.8140 17.6262
  1215 -13.4120 -1.05781 8.45712
  1216 -13.4130 -1.06220 -8.46135
  1217 1.73585 -33.2830 -18.6255
  1218 -1.28969 -20.3869 12.3861
  1219 -1.22361 -20.2065 -12.8351
  1220 344.475 -3.74322 6.47552
  1221 0.308888 -80.3467 7.05434
  1222 2.43985 -24.4978 -20.7681
  1223 40.2975 1.50243 0.458320
  1224 40.2691 1.50139 -0.458279
  1225 -3.44497 -14.6538 22.6882
  1226 -38.4568 2.20446 -6.42086
  1227 -38.3970 2.20222 6.41807
  1228 706.159 12.3412 19.8703
  1229 -20.0654 2.28724 20.1584
  1230 -20.1131 2.28803 -20.1881
  1231 165.075 6.77106 -25.4006
  1232 165.224 6.64438 25.5555
  1233 10.6057 -16.8239 -9.21962
  1234 157.202 8.32758 -10.1038
  1235 157.244 8.29210 10.1298
  1236 6.42022 -49.4061 -3.13424
  1237 -3.45528 -14.6813 -22.6473
  1238 -27.1898 1.15993 3.86892
  1239 -27.2443 1.16019 -3.86940
  1240 -12.1772 0.843328 -22.9971
  1241 -12.1273 0.845451 22.9650
  1242 335.623 26.7576 29.2759
  1243 191.153 2.33329 -27.0073
  1244 191.384 2.26772 27.0754
  1245 -87.0714 0.215673 -0.822968
  1246 -86.9956 0.215631 0.822791
  1247 172.500 4.44403 -5.42983
  1248 172.526 4.43327 5.43121
  1249 -89.5130 -1.50724 -0.234348
  1250 -89.5888 -1.50784 0.234446
  1251 257.406 -18.3837 -30.9190
  1252 -40.8642 0.688271 11.3833
  1253 -40.9057 0.688960 -11.3985
  1254 260.030 -19.4016 30.6386
  1255 175.380 6.67457 -11.1032
  1256 175.427 6.63527 11.1163
  1257 20.4124 -50.4377 -37.2588
  1258 0.370973 -56.4966 -14.2647
  1259 -1.20446 -23.7845 21.2800
  1260 554.733 89.4787 -76.3313
  1261 -0.137277 -52.9229 13.8953
  1262 577.099 54.3392 -34.1263
  1263 -0.299577 -98.0051 -6.64831
  1264 27.0018 2.96189 -1.02903
  1265 27.0355 2.96237 1.03026
  1266 -0.245981 -22.3655 4.65421
  1267 -0.198860 -22.4838 -4.64087
  1268 97.4498 2.70969 -0.0223064
  1269 97.4565 2.71165 0.0228852
  1270 347.756 -26.7405 24.9213
  1271 6.30589 2.76256 -3.46344
  1272 6.34804 2.76220 3.46393
  1273 2.00835 -107.963 3.34386
  1274 1.27498 -114.881 -3.30207
  1275 319.844 -40.2703 -32.9944
  1276 -0.889713 -29.1714 13.7040
  1277 333.543 21.1219 -36.7172
  1278 -1.00040 -38.4447 13.4776
  1279 0.662111 -105.586 -5.16550
  1280 160.820 4.86120 -5.88070
  1281 160.845 4.84320 5.88624
  1282 -0.117487 -57.2127 6.08945
  1283 -0.149889 -47.5930 -13.7439
  1284 763.006 131.238 114.107
  1285 303.599 0.225444 0.506343
  1286 303.522 0.225414 -0.506110
  1287 7.82994 0.399414 19.8352
  1288 7.57886 0.724231 -19.9220
  1289 -4.86345 4.32204 23.2164
  1290 -4.97161 4.33096 -23.2655
  1291 322.234 -6.05660 -21.8650
  1292 299.058 -12.4887 -12.0256
  1293 298.746 -14.2244 12.1291
  1294 44.0221 5.42765 2.77088
  1295 43.9928 5.42784 -2.76688
  1296 -49.4363 1.32851 -8.94525
  1297 -49.3776 1.32577 8.93535
  1298 333.614 -46.6131 -46.9903
  1299 -2.49877 -6.03096 6.14729
  1300 -2.50826 -6.02622 -6.14431
  1301 351.579 -15.4186 37.7936
  1302 -3.71585 -13.9648 16.6489
  1303 -3.67535 -14.0162 -16.5727
  1304 -31.8980 2.16005 4.60775
  1305 -31.9548 2.16137 -4.60884
  1306 52.6722 5.49666 -19.1136
  1307 52.1352 5.80429 19.1093
  1308 82.7684 2.57661 0.429055
  1309 82.7562 2.57464 -0.428347
  1310 -34.2947 3.41841 14.0998
  1311 -34.3511 3.42468 -14.1157
  1312 284.730 0.797102 0.787159
  1313 284.662 0.796949 -0.786860
  1314 155.966 -2.19727 97.8811
  1315 232.214 0.690582 1.79010
  1316 232.169 0.692040 -1.79032
  1317 153.509 3.19530 -39.1526
  1318 153.549 3.01358 39.5110
  1319 1.46185 -62.2938 -8.59711
  1320 59.1944 14.0963 -7.72787
  1321 58.9439 14.2689 7.83751
  1322 -0.574409 -0.528722 -0.760043
  1323 -0.577299 -0.528913 0.762256
  1324 198.297 6.25622 14.4827
  1325 198.222 6.32551 -14.4711
  1326 98.0767 8.29203 1.88445
  1327 98.0813 8.29802 -1.87263
  1328 144.873 8.39130 -6.77933
  1329 144.898 8.36943 6.79552
  1330 190.254 1.36503 -1.79356
  1331 190.282 1.36310 1.79363
  1332 -6.06598 -2.94396 -6.94353
  1333 -6.06508 -2.94066 6.94720
  1334 -58.5392 0.118179 2.73795
  1335 -58.6047 0.118300 -2.73865
  1336 -10.3697 -4.77416 -17.0241
  1337 -10.3623 -4.75068 17.0071
  1338 -33.7030 0.629749 1.16088
  1339 -33.7588 0.629350 -1.16094
  1340 -90.4413 0.838198 0.471514
  1341 -90.5177 0.838391 -0.471543
  1342 359.022 -46.1411 64.3046
  1343 258.093 -1.66102 -30.4457
</Section>

newXOutput 43

<Section columns = "stress_xx | stress_yy | stress_xy">
  1 320.059 -0.427520 0.318669
  2 320.143 -0.427789 -0.318825
  3 -100.023 0.493763 -1.35740
  4 0.160689 0.0423919 0.284078
  5 583.781 161.941 187.287
  6 659.804 183.713 -179.623
  7 0.160023 0.0417755 -0.283194
  8 -99.9411 0.493682 1.35695
  9 319.082 -0.401498 -1.05513
  10 319.327 -0.932467 -1.71748
  11 322.345 -0.919116 -0.451089
  12 322.649 -0.868950 -2.00216
  13 323.409 -0.846129 -0.605130
  14 330.186 -0.817606 -0.846311
  15 332.504 -1.20868 -2.68357
  16 334.974 -0.553099 -1.82833
  17 336.508 0.202667 -3.53059
  18 350.208 -1.86770 -3.02475
  19 356.065 -1.43000 -3.90567
  20 362.500 -2.19978 -1.48979
  21 365.528 -2.94769 -0.860240
  22 362.699 -3.42352 4.82631
  23 349.996 -3.85559 10.1076
  24 320.559 -4.37869 21.5295
  25 273.193 2.36510 25.0294
  26 233.920 2.82307 23.3848
  27 179.521 6.11438 14.1851
  28 191.153 5.95120 1.19696
  29 159.227 17.8669 -9.07432
  30 221.656 8.13562 -25.3466
  31 256.283 1.92750 -20.7650
  32 314.010 -0.986724 -17.9677
  33 345.804 -4.67759 -12.0981
  34 362.083 -3.99174 -4.80744
  35 364.771 -2.85198 0.876409
  36 361.976 -2.16985 1.38798
  37 355.845 -1.43984 3.78533
  38 350.128 -1.89294 2.95496
  39 336.530 0.188127 3.49655
  40 335.031 -0.558584 1.81534
  41 332.580 -1.21209 2.67891
  42 330.269 -0.819381 0.844072
  43 323.492 -0.847207 0.604236
  44 322.734 -0.869904 2.00277
  45 322.431 -0.919807 0.451209
  46 319.411 -0.933022 1.71835
  47 319.166 -0.401755 1.05567
  48 301.631 0.886952 -0.391216
  49 279.089 0.454506 -0.883497
  50 250.953 -0.659857 -0.908891
  51 221.821 1.07625 -0.756084
  52 196.342 0.894337 -0.604275
  53 169.111 1.78003 -0.717248
  54 142.267 3.16950 -0.446669
  55 114.434 2.85717 -0.907597
  56 91.3721 2.06012 -1.26201
  57 61.1381 1.37027 -1.32965
  58 30.4518 1.94403 -1.01066
  59 4.85252 1.60109 -0.976784
  60 -27.0641 0.957008 -0.897205
  61 -50.7926 -0.201742 -2.15650
  62 -73.7692 -1.52376 -0.990067
  63 -97.0511 0.217096 0.649605
  64 -102.056 1.75225 -0.270272
  65 -102.376 0.781972 0.276571
  66 -98.9549 0.401008 -0.145123
  67 -99.9479 1.13279 -1.25169
  68 -98.3205 1.37229 -0.152635
  69 -92.9563 0.428934 -1.91224
  70 -93.9402 0.844757 -2.05177
  71 -91.5247 0.802995 -1.17013
  72 -84.6977 0.508106 -1.74942
  73 -81.4681 0.901360 -2.86390
  74 -76.4719 1.00475 -2.36217
  75 -67.6279 0.513871 -4.05191
  76 -62.6513 0.158299 -3.38741
  77 -53.7220 0.227714 -3.90026
  78 -46.0220 0.168543 -4.30710
  79 -39.3297 0.0552807 -3.39893
  80 -30.0651 0.197154 -3.42255
  81 -22.0860 -0.0898801 -3.65685
  82 -14.3680 -0.401496 -3.20353
  83 -8.25941 -0.351252 -2.45009
  84 -4.04785 -0.612078 -2.04387
  85 -0.657944 -0.353580 -0.725057
  86 0.0592691 -0.390783 -0.255389
  87 -0.211571 -0.196832 -0.0435456
  88 -0.553221 -0.520858 -0.634415
  89 -0.536772 -3.42095 -1.77360
  90 -0.459653 -7.69095 -2.53503
  91 -0.239041 -13.1607 -3.70132
  92 -0.125018 -20.2288 -3.19297
  93 -0.108441 -26.7447 -4.01974
  94 -0.494992 -34.7200 -4.54262
  95 -0.202154 -44.5526 -4.59389
  96 0.0943495 -54.4589 -4.40397
  97 0.215361 -65.0830 -4.34850
  98 0.328834 -76.0136 -4.28221
  99 0.0276257 -84.0960 -5.80158
  100 0.571358 -95.5450 -5.19697
  101 0.696264 -108.972 -4.17230
  102 -0.0231672 -115.008 -5.54431
  103 0.986162 -124.916 -5.15876
  104 2.40752 -138.124 -2.55217
  105 4.69300 -141.871 -4.04735
  106 3.25360 -130.392 3.06610
  107 4.63315 -99.2849 13.3673
  108 24.7990 -58.7526 39.8186
  109 78.4433 105.407 137.824
  110 899.834 47.7554 88.6373
  111 771.966 14.4457 32.2905
  112 747.063 5.39838 7.29411
  113 741.810 1.92379 -1.20054
  114 746.794 8.25743 -17.0515
  115 770.047 26.0971 -38.1687
  116 875.121 93.6045 -112.458
  117 187.178 81.7622 -168.341
  118 41.3808 -57.9586 -48.7882
  119 12.1379 -108.633 -17.9626
  120 3.33980 -123.596 -3.34172
  121 3.77173 -136.598 2.28624
  122 1.08062 -132.753 1.96700
  123 0.396111 -121.789 4.40845
  124 0.425231 -114.535 3.49835
  125 0.598823 -103.043 5.89059
  126 -0.0300383 -96.3858 5.71070
  127 0.237507 -87.0210 4.11578
  128 0.458937 -75.0949 5.21363
  129 0.0876869 -66.5881 4.13363
  130 0.135434 -54.5334 5.21950
  131 -0.544590 -45.0871 4.48302
  132 -0.383164 -34.7500 4.40191
  133 -0.0777089 -26.5987 4.03040
  134 -0.161509 -20.1130 3.19949
  135 -0.233693 -13.1222 3.66556
  136 -0.453106 -7.68562 2.52246
  137 -0.533945 -3.42608 1.77233
  138 -0.552535 -0.526253 0.635645
  139 -0.211547 -0.199176 0.0451057
  140 0.0564378 -0.391166 0.256826
  141 -0.663333 -0.353414 0.726919
  142 -4.05617 -0.611549 2.04581
  143 -8.27070 -0.350203 2.45078
  144 -14.3773 -0.400199 3.20238
  145 -22.0892 -0.0888075 3.65339
  146 -30.0610 0.197364 3.41846
  147 -39.3154 0.0557537 3.39465
  148 -45.9984 0.169071 4.30223
  149 -53.6861 0.227621 3.89518
  150 -62.6044 0.158156 3.38270
  151 -67.5737 0.513488 4.04736
  152 -76.4078 1.00414 2.35871
  153 -81.3987 0.900706 2.86114
  154 -84.6235 0.507683 1.74776
  155 -91.4462 0.802551 1.16912
  156 -93.8599 0.844380 2.05072
  157 -92.8759 0.428775 1.91144
  158 -98.2380 1.37181 0.152602
  159 -99.8649 1.13243 1.25132
  160 -98.8725 0.400938 0.145167
  161 -102.293 0.781765 -0.276385
  162 -101.973 1.75171 0.270254
  163 -96.9699 0.217099 -0.649346
  164 -73.6966 -1.52300 0.989768
  165 -50.7284 -0.201231 2.15581
  166 -27.0087 0.957369 0.896984
  167 4.89590 1.60154 0.976528
  168 30.4855 1.94472 1.01040
  169 61.1601 1.37159 1.32930
  170 91.3825 2.06152 1.26165
  171 114.435 2.85855 0.907335
  172 142.258 3.17081 0.446460
  173 169.091 1.78163 0.716862
  174 196.311 0.895913 0.603858
  175 221.780 1.07721 0.755523
  176 250.900 -0.658710 0.908260
  177 279.024 0.454656 0.882989
  178 301.555 0.886683 0.390992
  179 83.4135 14.8658 -2.93920
  180 83.3720 14.8882 2.99096
  181 -1.76198 2.34885 24.1859
  182 -1.85141 2.33592 -24.1948
  183 190.848 -2.68610 -42.2959
  184 190.735 -3.06099 42.7548
  185 37.7629 8.50678 -1.19676
  186 37.3126 8.67477 1.21698
  187 27.1622 5.05196 -3.95991
  188 27.2000 5.05025 3.96218
  189 180.943 3.78231 -6.12069
  190 180.975 3.76736 6.12302
  191 -3.67607 7.36872 13.3210
  192 -3.73787 7.38332 -13.3299
  193 210.282 5.65634 -15.9329
  194 210.381 5.57308 15.9495
  195 -8.23393 -7.17828 19.0186
  196 -8.23105 -7.21959 -19.0415
  197 1.81407 -17.2916 -22.8794
  198 65.0016 2.91684 -38.4983
  199 2.24162 -18.4820 22.3504
  200 63.9584 3.45074 39.1395
  201 298.251 -40.7353 -61.4672
  202 308.770 -42.3500 58.9210
  203 106.706 3.89438 -0.834797
  204 106.703 3.89094 0.837017
  205 -17.8809 1.34566 -2.67418
  206 -17.8284 1.34583 2.67401
  207 -24.0399 3.62933 18.5225
  208 -24.0964 3.63665 -18.5489
  209 107.236 10.1860 -2.75805
  210 107.235 10.1797 2.77474
  211 32.4733 13.7019 9.38711
  212 32.3481 13.7851 -9.40955
  213 -31.0616 3.34340 -7.78569
  214 -31.0014 3.33948 7.78163
  215 241.025 0.604141 2.95435
  216 240.977 0.607669 -2.95550
  217 7.62441 -32.5954 9.99660
  218 8.29157 -29.5794 -8.91999
  219 -2.28231 -20.2665 21.4851
  220 -2.33051 -21.0387 -20.8037
  221 99.0490 14.4061 -16.5862
  222 98.9655 14.4734 16.7691
  223 -21.6081 -0.104422 18.5786
  224 -21.6403 -0.106817 -18.6032
  225 257.857 1.71351 -8.78814
  226 257.913 1.68953 8.77453
  227 277.332 -3.85867 -17.2984
  228 277.545 -4.14439 17.2146
  229 442.362 34.1052 -0.248279
  230 405.814 44.9113 25.5126
  231 400.723 -4.18454 -37.3110
  232 48.4639 11.1233 5.04642
  233 48.4234 11.1351 -5.03447
  234 3.07294 8.99256 18.6859
  235 2.99405 9.01937 -18.7060
  236 309.769 -18.7594 -11.3214
  237 307.959 -18.9933 12.3116
  238 171.097 1.81525 -2.20456
  239 171.119 1.81129 2.20485
  240 -38.4761 2.71256 12.3922
  241 -38.5362 2.71823 -12.4054
  242 -5.25018 -5.16830 -8.52987
  243 -5.24567 -5.16532 8.53546
  244 -42.9170 1.10369 3.98241
  245 -42.9793 1.10428 -3.98343
  246 140.448 10.7932 -10.4463
  247 140.478 10.7644 10.4881
  248 178.830 5.59407 -24.0180
  249 178.978 5.49288 24.1243
  250 42.6202 3.00106 -0.390567
  251 42.6494 3.00184 0.391620
  252 103.029 -0.149303 -84.2676
  253 122.073 2.89977 92.0135
  254 13.7025 6.23225 17.8718
  255 13.6411 6.37293 -17.9408
  256 421.926 -33.6014 -7.08456
  257 36.1486 13.9105 8.13907
  258 36.0816 13.9420 -8.12968
  259 100.958 10.6932 -31.3505
  260 100.773 10.9665 31.7102
  261 471.037 65.5566 -5.74030
  262 279.647 0.348724 11.8959
  263 279.563 0.437116 -11.9447
  264 -2.53999 -15.6426 -13.4006
  265 -2.46858 -15.7059 13.4541
  266 -0.562247 -37.2443 -18.5038
  267 1.21172 -43.6648 -17.1818
  268 0.635093 -43.6134 17.9454
  269 -7.06708 -6.14469 24.5221
  270 -7.09593 -6.13335 -24.6152
  271 14.7890 -35.2521 -5.67077
  272 15.9021 -32.5559 8.15483
  273 -16.1464 -1.36726 11.7711
  274 -16.1543 -1.37328 -11.7814
  275 198.551 5.80163 -9.86987
  276 198.603 5.76647 9.87244
  277 348.071 -36.2565 -2.01834
  278 76.3596 6.81038 -0.450669
  279 76.3759 6.81199 0.456404
  280 -0.927591 -34.9379 17.6807
  281 6.85508 7.24831 8.67763
  282 6.80283 7.25766 -8.67851
  283 554.412 38.9298 -14.3687
  284 271.445 0.338563 3.63656
  285 271.386 0.343814 -3.64025
  286 181.274 -8.99421 -63.7323
  287 182.897 -8.84392 64.7380
  288 347.608 -34.3555 -3.70222
  289 -33.0994 1.01547 14.6991
  290 -33.1387 1.01598 -14.7189
  291 340.649 -28.9315 104.503
  292 -14.8104 2.40744 22.3094
  293 -14.8632 2.40549 -22.3442
  294 57.0960 15.7178 -3.79322
  295 56.8779 15.8685 3.86768
  296 -61.0466 0.534360 0.726507
  297 -61.1146 0.534242 -0.726554
  298 286.880 4.11416 -142.666
  299 -56.9277 1.16545 -6.71383
  300 -56.8615 1.16331 6.70821
  301 -1.71755 -7.27140 25.0895
  302 -0.878121 -7.10117 -24.8522
  303 125.683 13.0151 -15.1655
  304 125.698 13.0036 15.2709
  305 26.8775 3.44970 2.96988
  306 26.8415 3.44969 -2.96886
  307 130.977 5.35232 -3.01820
  308 130.985 5.34496 3.02242
  309 12.2008 -9.72135 13.3688
  310 11.1176 -11.5906 -13.5130
  311 127.132 2.54961 -0.708130
  312 127.136 2.54724 0.708669
  313 -46.6231 1.21318 10.7998
  314 -46.6740 1.21513 -10.8139
  315 31.5838 -3.52245 -7.21545
  316 30.6314 -3.55875 6.38056
  317 283.254 -0.118398 1.01350
  318 283.187 -0.117729 -1.01346
  319 619.438 35.4625 23.9995
  320 63.3662 8.74867 2.09425
  321 63.3411 8.75059 -2.08463
  322 -14.0995 3.20046 5.49017
  323 -14.1529 3.20296 -5.49112
  324 87.4586 12.1297 -1.79095
  325 87.4402 12.1318 1.82019
  326 10.0312 9.07256 19.4123
  327 9.96569 9.09495 -19.4521
  328 1.30801 -62.9514 12.6572
  329 -63.1371 0.172011 -1.63521
  330 -63.0680 0.172189 1.63494
  331 215.860 0.831250 -1.92466
  332 215.898 0.829129 1.92442
  333 227.335 1.76361 -5.10520
  334 227.380 1.75342 5.10213
  335 -58.7276 1.03721 -4.90344
  336 -58.6595 1.03613 4.90105
  337 -1.76587 1.23466 0.652507
  338 -1.81182 1.23415 -0.652331
  339 -1.31277 -25.7761 13.3849
  340 -1.04500 -26.8091 -13.3669
  341 255.586 -21.3845 -42.9511
  342 265.556 -25.5614 42.1438
  343 151.611 7.67345 -6.43897
  344 151.634 7.65512 6.44936
  345 66.4379 15.7502 -1.79656
  346 66.3317 15.8180 1.85547
  347 -23.9107 4.57497 11.0305
  348 -23.9710 4.58287 -11.0389
  349 477.302 7.50924 10.8996
  350 24.9500 -37.9941 -27.5459
  351 26.6851 -35.5370 28.8914
  352 -10.3658 7.30658 17.5794
  353 -10.4328 7.32292 -17.5991
  354 -13.2437 -2.70315 21.6958
  355 -13.2753 -2.70848 -21.7316
  356 540.586 89.5970 -24.1680
  357 346.067 -5.35613 45.1900
  358 323.846 -7.53160 -7.72852
  359 323.532 -7.35716 7.18810
  360 226.491 -2.54472 -27.3294
  361 226.237 -2.77994 27.3360
  362 0.421277 -75.8247 -10.2599
  363 296.674 0.816817 -6.68496
  364 296.728 0.791724 6.65854
  365 3.81975 -71.4656 8.13819
  366 341.544 26.6531 -24.7372
  367 83.3336 3.09519 1.07327
  368 83.3202 3.09391 -1.07317
  369 227.883 1.84469 -20.2992
  370 228.036 1.71939 20.3186
  371 245.853 2.19878 -12.3280
  372 245.923 2.14328 12.3095
  373 -5.16600 2.84216 3.73174
  374 -5.21481 2.84304 -3.73160
  375 140.514 7.79450 -32.3226
  376 140.566 7.87750 32.6311
  377 291.962 -0.0525356 1.66213
  378 291.892 -0.0512608 -1.66278
  379 164.707 9.24824 -16.2430
  380 164.776 9.18765 16.3048
  381 190.589 3.19556 4.13592
  382 190.559 3.20263 -4.13611
  383 -9.11656 -1.65162 7.24924
  384 -9.11553 -1.65577 -7.24906
  385 -2.16285 -1.53828 -2.10171
  386 -2.16391 -1.53913 2.10498
  387 388.984 -49.3385 26.9080
  388 -5.10996 -12.2844 19.8185
  389 -5.07621 -12.3872 -19.8186
  390 62.7313 4.31246 -1.41068
  391 62.7529 4.31390 1.41323
  392 -1.93627 -9.67327 7.27803
  393 -1.95800 -9.65710 -7.27871
  394 23.8941 11.0670 9.50572
  395 23.8373 11.0860 -9.50287
  396 318.068 -1.24863 8.81479
  397 317.995 -1.12879 -8.97883
  398 -0.824675 -19.0199 23.9053
  399 -26.1528 -0.483581 11.1570
  400 -26.1699 -0.485743 -11.1703
  401 -0.925303 -20.0790 -23.6356
  402 298.700 0.177321 4.25536
  403 298.636 0.184790 -4.26404
  404 -3.00461 6.53985 22.0471
  405 -3.09773 6.56188 -22.0824
  406 220.379 3.47658 -8.16175
  407 220.426 3.45504 8.15676
  408 338.809 -14.5493 -7.74026
  409 339.972 -11.7198 5.86292
  410 -0.700881 -35.1347 -14.6788
  411 30.1006 11.1174 -6.88151
  412 30.3492 10.9893 6.85502
  413 335.461 22.0345 15.4967
  414 191.341 -10.7605 -88.3319
  415 196.505 -14.3449 92.5143
  416 11.0551 10.4994 14.4083
  417 10.9858 10.5240 -14.4164
  418 140.969 4.09792 -2.06464
  419 140.979 4.09333 2.06606
  420 136.882 20.6987 140.675
  421 56.3615 13.4271 -3.76593
  422 56.4106 13.4054 3.78766
  423 3.45135 -33.6675 16.2406
  424 -0.428004 -57.1426 -12.7693
  425 22.1709 12.8369 13.4683
  426 22.0884 12.8748 -13.4790
  427 27.3119 7.55853 -5.82980
  428 27.3538 7.55266 5.83336
  429 -9.68978 -0.545413 -24.4956
  430 -9.63770 -0.558946 24.4572
  431 67.5505 13.2546 -12.5309
  432 67.2653 13.4605 12.6824
  433 340.014 -11.0806 -34.0787
  434 9.43457 -3.58922 19.1027
  435 9.11880 -3.49475 -19.2140
  436 247.513 -10.5813 -30.2037
  437 248.562 -11.3463 30.1484
  438 -62.1405 0.505747 -6.52095
  439 -62.0775 0.504204 6.51373
  440 0.00394426 -56.0878 11.4806
  441 -0.406030 -35.6084 13.0659
  442 -25.3105 1.61333 18.8166
  443 -25.3527 1.61317 -18.8427
  444 177.392 1.72173 -0.783233
  445 177.416 1.71952 0.783061
  446 -5.34648 -8.44158 13.4509
  447 -5.35489 -8.46032 -13.4359
  448 110.151 5.46835 -47.0900
  449 109.943 5.97957 47.6518
  450 0.917884 -68.0438 -12.6988
  451 618.438 22.2574 0.530145
  452 1.69901 -80.6164 -7.44555
  453 -73.6402 0.0162932 -2.39854
  454 -73.5670 0.0163308 2.39784
  455 -28.3306 3.96922 15.4318
  456 -28.3908 3.97768 -15.4506
  457 -32.8853 0.465183 11.2130
  458 -32.9114 0.465172 -11.2270
  459 120.595 12.6002 -10.1842
  460 120.605 12.5935 10.2489
  461 182.830 7.45990 -12.5729
  462 182.892 7.40852 12.5945
  463 -3.17611 -11.5537 24.7000
  464 -3.18019 -11.4771 -24.8026
  465 316.931 5.16982 -43.0254
  466 21.5078 -5.86225 -4.00669
  467 20.7612 -6.04232 4.38921
  468 4.99682 -72.8370 -0.597975
  469 3.18655 -84.4804 -1.68559
  470 -9.71758 -4.35702 13.8487
  471 -9.72117 -4.37244 -13.8538
  472 67.1538 -7.26920 -72.7461
  473 488.211 -1.28521 -47.0507
  474 109.805 7.30406 2.76594
  475 109.805 7.31097 -2.75656
  476 159.722 1.57426 -45.4052
  477 160.101 1.52415 46.1084
  478 46.6177 16.3822 5.40772
  479 46.5324 16.4350 -5.38987
  480 144.195 10.8437 -23.6949
  481 144.267 10.7849 23.8784
  482 5.12129 2.76523 22.4912
  483 5.44013 2.92587 -22.4637
  484 -65.2312 0.973426 -4.83625
  485 -65.1615 0.972429 4.83302
  486 318.625 -37.4063 -24.2100
  487 253.445 0.245735 -1.39907
  488 253.499 0.244794 1.39915
  489 12.9931 1.89063 -1.61386
  490 13.0338 1.89115 1.61432
  491 -16.5892 5.91760 14.4409
  492 -16.6520 5.92972 -14.4543
  493 -37.2332 2.29030 -5.31160
  494 -37.1721 2.28836 5.30970
  495 109.797 10.9146 -4.37811
  496 109.798 10.9062 4.40337
  497 -13.4407 5.05811 20.2584
  498 -13.5070 5.07085 -20.2886
  499 291.797 -8.14493 -16.1034
  500 292.284 -8.56334 15.8575
  501 190.880 2.11107 -30.1870
  502 190.601 1.96867 30.4514
  503 70.7020 3.47855 -0.810906
  504 70.7202 3.48009 0.811963
  505 0.731208 -34.9132 -20.2663
  506 341.821 -12.5132 27.9880
  507 4.60764 -23.1100 -18.4390
  508 96.7035 15.5740 10.3222
  509 96.7573 15.5332 -10.2137
  510 315.138 -35.0014 23.8923
  511 23.8390 -33.3864 38.0699
  512 375.587 -49.0290 -48.0007
  513 255.677 1.15970 14.8367
  514 255.571 1.26559 -14.8612
  515 0.682587 -29.8860 21.0881
  516 -5.00237 -1.49523 -3.87084
  517 -5.00479 -1.49459 3.87382
  518 30.7653 1.78755 -0.494145
  519 30.7989 1.78839 0.494404
  520 -0.867449 -19.8808 8.58989
  521 -0.787055 -19.7876 -8.63354
  522 210.643 2.29002 3.29281
  523 210.606 2.29381 -3.29340
  524 594.505 104.071 43.3442
  525 24.3910 -15.5516 -7.20481
  526 18.9658 -20.8134 3.24387
  527 -6.36825 4.58433 -7.26664
  528 -6.31522 4.57920 7.26494
  529 -51.4362 0.814148 6.73877
  530 -51.4787 0.815059 -6.74746
  531 0.509811 -63.7792 12.6395
  532 -72.4782 0.651449 0.687970
  533 -72.5506 0.651467 -0.687984
  534 64.7605 -5.12634 -53.3728
  535 63.3130 -4.00285 55.4728
  536 59.2609 10.2601 -18.0353
  537 58.8130 10.5339 18.1697
  538 -13.8333 -2.91723 18.9678
  539 -13.8532 -2.92900 -18.9941
  540 58.2136 5.43667 1.49498
  541 58.1895 5.43602 -1.49115
  542 -30.7045 1.46794 2.31545
  543 -30.7620 1.46816 -2.31559
  544 68.7690 10.2588 1.63944
  545 68.7431 10.2634 -1.62360
  546 -1.38893 -4.50567 3.30786
  547 -1.39366 -4.50151 -3.30717
  548 24.8875 10.7366 12.1394
  549 24.7222 10.8904 -12.1911
  550 20.1080 3.07165 10.7427
  551 19.8200 3.04420 -10.9056
  552 259.030 1.91686 6.25741
  553 258.975 1.92760 -6.26365
  554 228.982 3.18659 9.96199
  555 228.926 3.22046 -9.97052
  556 -0.235824 -53.8534 -7.95691
  557 160.066 8.24041 -9.57801
  558 160.102 8.21152 9.59706
  559 160.552 3.91508 -3.54450
  560 160.572 3.90672 3.54654
  561 -22.3002 0.857774 -0.0272328
  562 -22.2466 0.858169 0.0274283
  563 272.626 14.9239 -8.28318
  564 359.924 -46.0411 -17.1954
  565 294.461 13.4840 32.6444
  566 2.37910 -46.2134 -14.8976
  567 -16.1184 5.09325 -9.55218
  568 -16.0606 5.08629 9.54745
  569 2.48899 -26.8551 19.9676
  570 -16.0039 0.426482 21.7621
  571 -16.0455 0.424829 -21.7924
  572 458.952 44.1207 -0.777363
  573 104.298 5.03347 -1.19517
  574 104.294 5.02934 1.19886
  575 697.896 59.0384 -60.4739
  576 -3.49814 -2.73567 25.4356
  577 -3.26630 -2.55302 -25.4581
  578 380.388 -34.3123 15.8343
  579 306.502 0.336327 -7.44555
  580 306.550 0.295244 7.39871
  581 140.260 -0.488892 -66.0347
  582 141.950 -0.907585 67.0962
  583 -7.88726 -7.58013 21.9639
  584 -7.89445 -7.61870 -22.0197
  585 73.4907 6.12937 34.7292
  586 74.1085 5.56838 -34.4250
  587 -60.2431 0.697192 -6.34977
  588 -60.1850 0.696067 6.34215
  589 448.473 37.3682 27.0861
  590 85.1106 8.02884 0.208038
  591 85.1234 8.03113 -0.199118
  592 100.504 12.4692 -23.7272
  593 100.373 12.6215 23.9976
  594 276.986 -0.477769 -14.5441
  595 277.121 -0.621150 14.4967
  596 -1.25357 -28.1711 -19.7775
  597 301.721 -0.321654 2.22564
  598 301.649 -0.319863 -2.22688
  599 -44.1606 0.916051 -0.919306
  600 -44.0986 0.916145 0.919393
  601 -77.7263 -0.520872 0.0300668
  602 -77.8005 -0.521240 -0.0300090
  603 6.39189 -42.5781 -7.13725
  604 -2.83586 -18.2678 16.9195
  605 -2.99105 -17.2855 -17.0330
  606 -34.3297 2.11150 15.6876
  607 -34.3779 2.11479 -15.7087
  608 210.550 5.31437 12.5540
  609 210.485 5.36672 -12.5531
  610 154.884 2.16857 0.841609
  611 154.870 2.17046 -0.841425
  612 34.8417 -10.1302 21.8035
  613 35.9694 -9.38371 -21.5931
  614 -1.08520 -13.8588 7.25208
  615 -1.11825 -13.8143 -7.27627
  616 361.572 22.9797 152.043
  617 -17.8665 -0.554188 6.72486
  618 -17.8669 -0.556694 -6.73008
  619 6.35287 -25.8369 -14.9078
  620 151.492 6.19497 -4.89747
  621 151.511 6.18277 4.90296
  622 74.0109 15.7275 -7.49245
  623 73.8716 15.8232 7.59942
  624 0.730996 -96.3587 5.16170
  625 55.4410 15.4344 3.30482
  626 55.3787 15.4695 -3.27871
  627 -6.25558 6.36769 11.4752
  628 -6.31404 6.37824 -11.4813
  629 -0.431392 -47.5115 10.8681
  630 -77.4244 0.0940604 -2.38668
  631 -77.3496 0.0939344 2.38577
  632 99.4936 2.80772 0.267196
  633 99.5004 2.81031 -0.265967
  634 252.443 0.844976 4.13477
  635 252.390 0.850304 -4.13709
  636 222.442 -15.8897 116.111
  637 178.831 4.63400 -7.54164
  638 178.866 4.61282 7.54642
  639 2.80634 -3.85990 23.5753
  640 3.45487 -2.26346 -23.5412
  641 286.113 -29.2545 -93.9220
  642 677.156 23.3847 -25.1590
  643 -71.1361 0.0643983 -4.40115
  644 -71.0680 0.0636935 4.39701
  645 16.6509 3.86633 -3.49262
  646 16.6916 3.86530 3.49372
  647 -1.34365 -29.8363 17.4542
  648 387.126 22.5661 -40.2967
  649 298.384 -0.471358 0.380283
  650 298.309 -0.470954 -0.380170
  651 -19.2019 -1.05782 -15.6492
  652 -19.1830 -1.05313 15.6305
  653 -0.0549970 -67.5678 -10.4588
  654 303.540 -0.500509 0.854427
  655 303.464 -0.499985 -0.854311
  656 27.5175 9.64244 8.05618
  657 27.4687 9.65470 -8.05170
  658 230.782 -20.1885 -61.5354
  659 235.002 -20.1133 62.2329
  660 338.048 -2.10157 5.07192
  661 338.134 -2.07761 -5.29729
  662 1.47676 -85.2929 8.23361
  663 -18.8710 0.668299 -1.35158
  664 -18.8186 0.668758 1.35163
  665 110.569 8.63398 -110.112
  666 103.543 2.52147 0.781723
  667 103.549 2.52310 -0.781195
  668 50.7242 3.93472 0.714512
  669 50.6979 3.93382 -0.712693
  670 60.4184 6.81052 -1.17592
  671 60.4427 6.81050 1.18241
  672 197.120 5.69139 -19.4115
  673 197.241 5.59488 19.4597
  674 52.0171 15.2206 1.02665
  675 51.8643 15.3271 -0.994503
  676 -35.9932 2.69063 -9.01233
  677 -35.9314 2.68590 9.00600
  678 -41.7787 2.87530 -10.2286
  679 -41.7166 2.87035 10.2191
  680 347.253 -5.23546 -1.18082
  681 0.321078 -14.1872 -24.0427
  682 347.830 -5.49210 0.678714
  683 440.692 34.7176 -0.184704
  684 -43.6125 0.202883 7.66115
  685 -43.6454 0.202867 -7.67126
  686 45.2217 12.9773 -2.13807
  687 44.9001 13.1422 2.18041
  688 -83.1971 0.0822878 -0.873062
  689 -83.1204 0.0823526 0.872922
  690 0.582971 -12.7848 24.0956
  691 -27.3323 0.366126 16.4956
  692 -27.3670 0.365144 -16.5175
  693 380.984 -32.1888 -17.3123
  694 59.7555 1.67020 -0.368815
  695 59.7330 1.66892 0.369357
  696 13.4606 5.67606 5.78187
  697 13.4157 5.67998 -5.78050
  698 201.020 -9.27566 -51.3985
  699 202.563 -9.63995 52.4150
  700 705.487 49.8365 55.1502
  701 13.4588 -65.6083 -22.6539
  702 -5.10274 -10.7266 23.5048
  703 -5.11254 -10.7686 -23.5561
  704 42.0915 9.55749 -4.46315
  705 42.1293 9.55040 4.47108
  706 312.003 -0.414601 -2.27133
  707 312.077 -0.416647 2.26865
  708 147.987 2.71073 1.43300
  709 147.974 2.71441 -1.43240
  710 12.0919 10.8776 17.3518
  711 12.0132 10.9111 -17.3728
  712 7.18002 2.89237 2.46211
  713 7.13683 2.89253 -2.46165
  714 -8.87847 2.05269 24.0663
  715 -8.94103 2.05357 -24.1119
  716 256.187 -0.0784282 1.73448
  717 256.132 -0.0766427 -1.73497
  718 221.542 2.09689 4.70527
  719 221.501 2.10343 -4.70672
  720 29.5699 -19.9319 26.3056
  721 30.4452 -21.3119 -25.4072
  722 -17.3352 3.72547 20.9897
  723 -17.3934 3.73076 -21.0224
  724 9.11760 -21.3909 11.8224
  725 0.613292 6.54477 22.2472
  726 0.515395 6.56422 -22.2696
  727 -49.4116 1.43849 -6.00668
  728 -49.3465 1.43656 6.00308
  729 38.3808 12.5305 7.52590
  730 38.3234 12.5526 -7.51473
  731 342.888 -10.4532 -19.0466
  732 324.823 -28.4083 -7.76291
  733 -5.26431 -10.7637 16.6350
  734 -5.25726 -10.8139 -16.6135
  735 125.702 -1.08624 -77.9503
  736 122.402 1.63563 78.7289
  737 76.4099 14.5982 -11.7449
  738 76.2217 14.7428 11.8987
  739 6.59647 -12.5853 19.3778
  740 -0.472528 -35.1490 -9.44302
  741 160.094 8.94862 -18.0887
  742 160.177 8.88979 18.1829
  743 0.420179 -69.1628 8.76259
  744 95.2893 13.3551 -4.57892
  745 95.2715 13.3588 4.62334
  746 327.640 -0.258607 -5.64392
  747 327.649 -0.299875 5.56300
  748 6.40800 -94.0769 1.82346
  749 147.354 11.1653 13.6062
  750 147.310 11.2018 -13.5474
  751 39.6841 13.9850 -4.58540
  752 39.8868 13.8413 4.57683
  753 -59.2836 0.392682 -5.35271
  754 -59.2330 0.392156 5.34558
  755 163.685 3.01374 -3.12077
  756 163.704 3.00826 3.12173
  757 100.726 14.6610 -8.63008
  758 100.698 14.6776 8.71032
  759 0.488955 8.85794 17.2467
  760 0.417345 8.88080 -17.2631
  761 325.819 -24.2888 3.80719
  762 -51.0987 1.14935 4.58054
  763 -51.1641 1.15015 -4.58215
  764 704.464 135.642 -96.2481
  765 -19.5834 2.04947 4.83555
  766 -19.6378 2.05050 -4.83631
  767 277.359 0.899054 10.3400
  768 277.296 0.950437 -10.3754
  769 515.193 32.6027 0.416079
  770 314.315 -0.845985 -4.29994
  771 314.378 -0.853632 4.28847
  772 200.557 3.09184 5.89771
  773 200.522 3.10289 -5.89848
  774 300.141 -34.4508 85.5812
  775 130.028 9.73921 -4.98705
  776 130.042 9.72516 5.00439
  777 2.95360 -52.5223 10.9304
  778 344.414 -43.6073 27.7211
  779 209.015 0.728009 1.01547
  780 208.979 0.729615 -1.01548
  781 274.330 0.196654 0.541747
  782 274.267 0.197060 -0.541687
  783 -1.24324 -27.8175 -16.3246
  784 1.65221 -47.5407 15.9926
  785 123.133 13.7971 18.9036
  786 123.127 13.7940 -18.7438
  787 698.512 7.08113 6.01617
  788 212.285 1.97487 -24.2745
  789 212.444 1.85907 24.3347
  790 -44.2647 1.46894 11.7555
  791 -44.3218 1.47252 -11.7692
  792 8.93817 -38.5660 3.60217
  793 5.79761 -87.8177 -5.90284
  794 484.458 62.6338 -7.04879
  795 -0.427268 -35.0459 8.52253
  796 9.70903 6.94244 20.0462
  797 9.67806 6.94089 -20.1336
  798 64.4867 12.9077 2.14525
  799 64.4511 12.9216 -2.12382
  800 323.398 -14.7691 -4.91146
  801 323.986 -14.6073 3.77784
  802 381.277 53.5034 -143.953
  803 -52.6015 0.614518 -2.11782
  804 -52.5360 0.614425 2.11745
  805 -24.5228 -0.103471 6.33908
  806 -24.5285 -0.104517 -6.34573
  807 23.3112 1.56830 6.36746
  808 22.8178 1.54086 -6.41203
  809 245.045 -1.22635 21.8627
  810 244.857 -1.01260 -21.8207
  811 124.628 3.49155 -0.740775
  812 124.631 3.48815 0.741940
  813 395.591 -6.60388 37.0421
  814 41.3763 6.80192 -3.97595
  815 41.4103 6.79939 3.98104
  816 38.6328 4.95260 -5.98227
  817 38.2836 5.14094 6.07974
  818 -0.163363 -27.5791 -21.9930
  819 560.142 84.6916 78.5997
  820 -81.2661 0.0954548 -2.37814
  821 -81.1902 0.0953064 2.37683
  822 -0.121418 -84.3182 8.28134
  823 5.83705 -12.4335 -19.5929
  824 -12.1737 -0.748296 4.71108
  825 -12.1684 -0.750172 -4.71247
  826 447.155 25.2314 -26.0748
  827 115.982 11.6783 -6.26811
  828 115.988 11.6690 6.30716
  829 306.845 -4.37993 -11.0062
  830 307.115 -4.43187 10.8296
  831 -77.6464 0.598677 3.15671
  832 -77.7193 0.599305 -3.15925
  833 -0.549192 -0.569071 -0.465047
  834 -0.550299 -0.570101 0.466891
  835 0.261101 -86.2476 -8.10554
  836 0.398374 -90.8642 -7.38845
  837 -85.7660 0.834032 0.479918
  838 -85.8432 0.834188 -0.479969
  839 46.4661 -15.1562 -51.0951
  840 190.026 2.47545 -1.70478
  841 190.055 2.47278 1.70453
  842 -6.53674 1.62600 0.614778
  843 -6.58443 1.62567 -0.614829
  844 282.684 0.859755 -6.86576
  845 282.742 0.842178 6.84979
  846 -32.2467 0.217865 6.03067
  847 -32.2603 0.217898 -6.03768
  848 170.755 1.17394 -117.262
  849 294.949 -25.2189 23.7352
  850 231.530 1.16946 -2.13941
  851 231.574 1.16723 2.13877
  852 292.233 -27.4426 -26.5379
  853 90.9668 10.3203 -1.61544
  854 90.9545 10.3177 1.63590
  855 125.840 8.44254 -3.76510
  856 125.849 8.43211 3.77625
  857 342.903 -7.34891 14.5383
  858 20.8491 12.3317 14.3752
  859 20.7592 12.3790 -14.4037
  860 21.2724 1.60409 1.16579
  861 21.2350 1.60330 -1.16548
  862 161.482 2.24306 1.43210
  863 161.465 2.24581 -1.43186
  864 423.803 -39.8494 47.1392
  865 265.172 1.62821 -8.97833
  866 265.233 1.59533 8.95682
  867 3.54751 4.08689 4.57867
  868 3.50096 4.08887 -4.57816
  869 265.949 -0.198512 2.52927
  870 265.891 -0.196286 -2.53017
  871 -49.7970 0.342175 -1.33179
  872 -49.7332 0.342492 1.33144
  873 -0.235866 -26.8162 7.59464
  874 -0.309381 -27.2359 -7.65344
  875 318.252 -4.58207 34.6563
  876 -19.5079 4.91694 17.7548
  877 -19.5702 4.92843 -17.7776
  878 -0.109594 -44.1985 -8.39861
  879 125.857 4.84522 -1.91861
  880 125.862 4.84060 1.92113
  881 231.936 -11.7205 -39.1791
  882 233.748 -12.9668 39.5663
  883 -10.0360 -3.55221 -23.6110
  884 -9.99297 -3.55332 23.5640
  885 12.4721 11.0024 15.9382
  886 12.3965 11.0323 -15.9506
  887 1.11475 -101.292 5.81280
  888 3.07664 8.55572 20.3617
  889 2.99314 8.57957 -20.3849
  890 214.128 -3.78927 -34.8152
  891 213.667 -3.96895 35.0940
  892 370.246 20.1159 41.7935
  893 84.7328 9.62294 0.533994
  894 84.7475 9.62491 -0.520191
  895 272.252 1.76908 -6.72787
  896 272.309 1.75520 6.71766
  897 -10.7047 -4.68565 20.7179
  898 -10.7241 -4.70319 -20.7542
  899 0.937242 -104.511 -3.92806
  900 -16.4601 -1.12647 20.3310
  901 -16.4909 -1.12919 -20.3596
  902 10.1427 9.96810 -12.5411
  903 10.2052 9.94821 12.5361
  904 -0.838900 -6.72585 3.72727
  905 -0.848309 -6.71891 -3.73277
  906 22.9646 11.2303 -11.2751
  907 23.0298 11.2057 11.2756
  908 4.88503 -8.29847 21.8163
  909 4.24087 -7.72489 -22.9084
  910 263.872 -7.43548 22.2574
  911 263.237 -7.06718 -22.3935
  912 -87.4449 0.261736 -0.704719
  913 -87.3669 0.261762 0.704625
  914 -7.47358 -0.677479 3.53861
  915 -7.46670 -0.678614 -3.53747
  916 0.360462 -62.8649 -7.66842
  917 -8.06306 -3.46774 -10.0870
  918 -8.06061 -3.45936 10.0881
  919 -34.1308 2.87293 15.1054
  920 -34.1864 2.87884 -15.1250
  921 81.8778 15.8737 -4.61301
  922 81.8192 15.9170 4.67914
  923 349.408 27.7132 -6.71811
  924 -4.25033 7.90229 15.6774
  925 -4.31638 7.91977 -15.6908
  926 129.531 8.14148 -36.3643
  927 129.548 8.25985 36.7852
  928 -15.7813 5.53019 12.6401
  929 -15.8422 5.54117 -12.6502
  930 425.273 -21.6571 -8.24148
  931 254.333 10.1313 18.0741
  932 308.015 -4.01522 -31.3468
  933 230.945 3.24002 -14.8111
  934 231.034 3.16269 14.8050
  935 -24.8570 3.34130 -6.26220
  936 -24.7996 3.33790 6.25991
  937 -55.4288 1.00926 7.56483
  938 -55.4924 1.01152 -7.57254
  939 -3.33590 -10.7618 -11.7102
  940 -3.31309 -10.7717 11.7320
  941 81.3640 5.46165 0.257603
  942 81.3777 5.46398 -0.253522
  943 -25.9417 2.66553 18.7001
  944 -25.9910 2.66810 -18.7272
  945 277.468 -0.0492677 3.33046
  946 277.406 -0.0465948 -3.33196
  947 -2.10892 -23.6756 17.7650
  948 9.96736 9.17106 -10.7934
  949 10.0245 9.15627 10.7910
  950 13.8203 6.41872 7.14348
  951 13.7729 6.42503 -7.14256
  952 47.2045 4.58109 -1.86675
  953 47.2326 4.58136 1.86894
  954 521.773 64.2380 -12.2309
  955 -2.04729 -0.566959 -1.39519
  956 -2.05169 -0.566957 1.39775
  957 17.6701 4.84318 -13.6249
  958 17.9711 4.69420 13.5744
  959 186.169 7.63668 -15.4887
  960 186.249 7.56976 15.5225
  961 23.4663 8.06700 -6.84699
  962 23.5122 8.05897 6.85013
  963 50.7116 -14.4333 68.3051
  964 351.440 -2.47106 -2.80560
  965 350.887 -2.37736 2.47085
  966 61.7312 -7.47692 59.3615
  967 64.7269 2.98730 -0.109300
  968 64.7063 2.98613 0.110167
  969 169.364 -6.48566 -101.335
  970 127.755 2.39146 0.792538
  971 127.751 2.39318 -0.792171
  972 16.0901 -17.2825 4.00221
  973 17.7822 -14.5771 -2.66100
  974 311.569 -0.296099 1.14960
  975 311.489 -0.295577 -1.14950
  976 -25.6426 0.0732299 14.9689
  977 -25.6683 0.0719311 -14.9872
  978 558.329 69.6888 30.5817
  979 -2.43152 -17.8091 -23.4704
  980 2.68791 -89.5551 9.54412
  981 -0.444822 -28.2406 21.6683
  982 322.051 -0.188039 -4.38816
  983 322.102 -0.199282 4.36802
  984 -4.26093 -7.79203 10.1124
  985 -4.27223 -7.79176 -10.1019
  986 400.295 41.4540 -23.5756
  987 708.871 6.34983 -4.04488
  988 -1.04612 -1.56625 -1.51847
  989 -1.04501 -1.56957 1.52067
  990 186.583 2.33882 -3.32678
  991 186.611 2.33422 3.32680
  992 -2.50026 -17.1263 23.5961
  993 259.948 1.31713 13.2496
  994 259.868 1.39402 -13.2783
  995 341.363 -22.7784 -14.4162
  996 -11.9473 -2.50929 11.4163
  997 -11.9510 -2.51844 -11.4217
  998 5.50014 -22.6318 16.9873
  999 -0.567971 -42.4762 17.0045
  1000 -0.0486786 -43.8471 8.38411
  1001 347.999 22.9861 -1.98098
  1002 399.286 43.7638 13.6803
  1003 286.242 -33.1781 -47.0474
  1004 4.04076 -41.7395 13.7518
  1005 5.13788 -60.1585 3.36119
  1006 79.0012 2.13317 0.266755
  1007 78.9860 2.13182 -0.266623
  1008 -3.18058 -3.62426 -4.81605
  1009 -3.17795 -3.62523 4.82001
  1010 2.67735 -34.2864 -18.2508
  1011 231.194 0.437392 -0.785045
  1012 231.238 0.436182 0.784898
  1013 45.8908 -0.765794 -21.7699
  1014 43.9022 -0.656250 21.5608
  1015 -4.45462 7.07609 20.5110
  1016 -4.53371 7.09701 -20.5406
  1017 -27.5364 4.19555 -12.7797
  1018 -27.4751 4.18737 12.7677
  1019 175.668 2.87498 -35.6470
  1020 175.783 3.01860 36.0447
  1021 126.240 11.2261 -24.6953
  1022 126.235 11.2221 24.9413
  1023 137.205 10.1504 -8.14410
  1024 137.226 10.1282 8.17056
  1025 357.200 -10.2409 -40.8256
  1026 -9.61349 4.34621 22.4364
  1027 -9.68468 4.35472 -22.4787
  1028 253.130 -0.146444 18.0862
  1029 252.989 0.0152627 -18.0992
  1030 -1.73330 -13.4428 24.6715
  1031 -20.4962 -0.692666 11.0292
  1032 -20.5061 -0.695918 -11.0405
  1033 230.549 2.27272 -17.9628
  1034 230.668 2.16369 17.9650
  1035 283.478 6.65442 -29.2726
  1036 -0.362608 -42.2630 -17.8489
  1037 -3.43763 -16.6560 21.0795
  1038 -3.57999 -16.8496 -20.9005
  1039 162.232 9.68203 -12.6764
  1040 162.285 9.63712 12.7164
  1041 205.240 3.93926 7.31686
  1042 205.199 3.95580 -7.31840
  1043 340.662 -22.2471 12.5581
  1044 16.2480 1.80255 -0.324077
  1045 16.2871 1.80312 0.324157
  1046 289.529 -37.1266 50.2166
  1047 -2.25194 1.25426 1.55516
  1048 -2.29824 1.25373 -1.55503
  1049 62.0248 15.9478 0.756665
  1050 61.9456 15.9982 -0.716440
  1051 23.3190 12.5509 12.3552
  1052 23.2458 12.5821 -12.3583
  1053 3.13656 -51.9136 -11.3716
  1054 83.2377 3.32745 -0.0559350
  1055 83.2508 3.32999 0.0582305
  1056 247.234 8.23343 7.43046
  1057 233.246 1.91692 6.84189
  1058 233.198 1.93175 -6.84677
  1059 -1.49554 -13.9455 -24.7124
  1060 351.018 -4.46952 -7.41629
  1061 -0.167948 -1.33646 24.6047
  1062 0.0921002 -1.12943 -24.4975
  1063 320.288 -0.555037 -2.42125
  1064 320.362 -0.557591 2.41673
  1065 341.072 -1.14011 -4.24533
  1066 340.985 -1.18494 4.12560
  1067 -0.260124 -66.4523 6.31732
  1068 199.446 5.26273 -9.70147
  1069 199.490 5.23559 9.70192
  1070 243.092 2.34097 7.99731
  1071 243.040 2.35999 -8.00550
  1072 5.25032 5.62016 22.2262
  1073 5.22161 5.62401 -22.2454
  1074 528.695 35.5088 5.18737
  1075 -6.85357 -3.02442 25.1923
  1076 -6.95253 -2.96187 -25.2527
  1077 74.8454 14.8875 -0.413499
  1078 74.8094 14.9061 0.447732
  1079 -42.9013 0.851616 -2.32076
  1080 -42.8396 0.851675 2.32044
  1081 123.366 6.89013 -41.9311
  1082 123.210 7.24042 42.4581
  1083 35.1716 14.1636 9.62540
  1084 35.0913 14.2030 -9.62042
  1085 83.6294 9.40349 -30.6766
  1086 83.2034 9.82496 30.9597
  1087 -2.25055 -22.2285 -17.3063
  1088 296.032 3.85653 38.2242
  1089 208.095 -0.700634 131.837
  1090 33.0844 14.5051 9.94306
  1091 32.9888 14.5586 -9.94624
  1092 125.391 6.88836 -2.81818
  1093 125.398 6.87952 2.82529
  1094 457.317 0.434674 12.5498
  1095 28.9875 7.17621 6.44762
  1096 28.6207 7.27191 -6.55280
  1097 -13.5927 -2.99900 15.2120
  1098 -13.6027 -3.01245 -15.2264
  1099 -0.446671 -10.0457 4.07275
  1100 -0.464104 -10.0393 -4.08896
  1101 300.397 -0.202514 10.7072
  1102 300.308 -0.0869731 -10.7948
  1103 0.389406 -21.5251 23.1596
  1104 -20.6860 1.27781 -20.3682
  1105 -20.6445 1.27929 20.3400
  1106 0.106075 -80.5444 -8.08185
  1107 -4.80906 -6.74921 25.1506
  1108 -4.79728 -6.61079 -25.1765
  1109 287.540 0.404852 -4.50924
  1110 287.603 0.398731 4.50407
  1111 296.141 -2.16409 12.8207
  1112 295.954 -1.97838 -12.9110
  1113 51.1020 11.1712 -9.84400
  1114 50.7142 11.4011 9.94986
  1115 -0.712793 -41.4881 -14.4563
  1116 390.153 -37.5028 -76.6555
  1117 506.115 63.8547 1.63655
  1118 5.13127 -63.4742 -1.45362
  1119 17.8032 10.2119 -16.3637
  1120 17.9072 10.1530 16.2900
  1121 47.7755 15.6147 4.65661
  1122 47.6659 15.6841 -4.63785
  1123 101.682 6.26507 0.933107
  1124 101.687 6.27021 -0.927141
  1125 -6.58282 -9.37630 19.7076
  1126 -6.57295 -9.46403 -19.7370
  1127 -18.9412 5.80428 16.3770
  1128 -19.0042 5.81676 -16.3949
  1129 -6.88780 7.31954 18.9907
  1130 -6.95973 7.33812 -19.0145
  1131 282.308 -14.3973 -21.7652
  1132 284.141 -14.5285 21.5686
  1133 0.246398 -47.8070 -16.9946
  1134 150.082 -0.592741 -52.7715
  1135 150.334 -0.116873 53.6783
  1136 47.6142 14.3815 -5.19317
  1137 47.6714 14.3525 5.21072
  1138 151.506 66.7426 147.577
  1139 37.1341 11.5885 7.19148
  1140 37.0837 11.6047 -7.18244
  1141 385.747 -43.0252 -17.7852
  1142 145.218 4.23489 2.32044
  1143 145.205 4.24115 -2.31839
  1144 -6.58142 -5.87241 12.0264
  1145 -6.58531 -5.88591 -12.0218
  1146 -7.86500 -7.06208 15.5760
  1147 -7.86421 -7.08936 -15.5768
  1148 252.530 -26.2267 -74.4714
  1149 257.732 -28.8296 75.0335
  1150 44.7140 1.91199 0.476383
  1151 44.7424 1.91308 -0.475476
  1152 158.186 7.41775 -28.8508
  1153 158.205 7.31833 29.1503
  1154 346.456 -47.0714 56.7571
  1155 309.207 -0.658137 0.671154
  1156 309.127 -0.657658 -0.670901
  1157 -27.8622 4.36094 14.6130
  1158 -27.9235 4.36952 -14.6287
  1159 -47.7475 1.50388 -7.68999
  1160 -47.6830 1.50138 7.68501
  1161 78.4449 -0.533934 88.1467
  1162 238.891 16.2058 -15.0698
  1163 144.682 10.5242 -14.0569
  1164 144.731 10.4885 14.1359
  1165 451.069 -15.2620 82.4316
  1166 147.031 10.0786 -20.9698
  1167 147.092 10.0223 21.1074
  1168 36.2453 4.89367 -2.73894
  1169 36.2785 4.89331 2.74127
  1170 12.6637 -48.4501 8.01146
  1171 12.8126 -47.2663 -11.4249
  1172 199.509 -14.4150 -75.1362
  1173 202.289 -13.5002 75.1019
  1174 77.7153 12.6399 -21.2424
  1175 77.3919 12.9095 21.4725
  1176 352.023 -23.8290 -26.6522
  1177 -12.9478 -1.12675 22.9657
  1178 -12.9902 -1.12588 -23.0009
  1179 -0.284218 -19.2410 -23.7859
  1180 89.1543 1.79750 -55.3732
  1181 89.3656 2.08305 56.3498
  1182 -0.227253 -17.8287 4.54526
  1183 -0.193944 -17.8716 -4.60077
  1184 -84.9173 0.715835 -2.23470
  1185 -84.8408 0.715419 2.23318
  1186 280.759 -0.0594466 -1.23867
  1187 280.825 -0.0604779 1.23825
  1188 172.690 6.58090 -8.21816
  1189 172.728 6.55433 8.22799
  1190 -6.46397 -0.138431 25.2174
  1191 -6.48375 -0.0382449 -25.2649
  1192 0.0265705 -71.8146 -7.03962
  1193 -72.0649 0.172842 3.59074
  1194 -72.1300 0.173288 -3.59486
  1195 55.0953 -2.08892 -38.5814
  1196 54.6757 -1.74372 39.8343
  1197 327.138 -20.0551 -0.680469
  1198 92.7790 5.40760 -49.7234
  1199 92.8489 5.67758 50.2364
  1200 -39.9374 0.213528 5.48718
  1201 -39.9592 0.213351 -5.49411
  1202 1.03888 -63.0506 -12.0034
  1203 -12.3792 2.58489 -3.03442
  1204 -12.3284 2.58438 3.03443
  1205 48.8157 12.1880 5.34241
  1206 48.7687 12.2044 -5.32769
  1207 183.918 1.19791 -1.09963
  1208 183.944 1.19608 1.09978
  1209 248.469 1.31129 5.20717
  1210 248.418 1.32042 -5.21129
  1211 13.4181 -2.09459 14.0440
  1212 13.2173 -2.32461 -14.2871
  1213 2.26577 -36.3244 18.2114
  1214 445.121 60.3328 17.7502
  1215 -13.7286 -1.08148 8.65628
  1216 -13.7297 -1.08598 -8.66068
  1217 1.78673 -34.0122 -19.0261
  1218 -1.31869 -20.8644 12.6762
  1219 -1.25133 -20.6789 -13.1355
  1220 352.604 -3.83485 6.58847
  1221 0.315580 -82.2202 7.21385
  1222 2.51291 -25.0238 -21.2158
  1223 41.3862 1.50827 0.464712
  1224 41.3566 1.50726 -0.464683
  1225 -3.51704 -14.9789 23.2057
  1226 -39.2665 2.24824 -6.54589
  1227 -39.2043 2.24592 6.54283
  1228 722.077 12.5976 20.3476
  1229 -20.5053 2.34712 20.6083
  1230 -20.5545 2.34784 -20.6389
  1231 169.106 6.91324 -26.0927
  1232 169.258 6.78453 26.2512
  1233 10.8905 -17.1315 -9.35059
  1234 161.027 8.48528 -10.4002
  1235 161.070 8.44955 10.4269
  1236 6.59022 -50.4320 -3.12564
  1237 -3.52778 -15.0074 -23.1645
  1238 -27.7106 1.17317 3.93689
  1239 -27.7674 1.17347 -3.93751
  1240 -12.4365 0.875949 -23.5127
  1241 -12.3850 0.878243 23.4794
  1242 343.848 27.4339 29.7800
  1243 195.789 2.36575 -27.7278
  1244 196.024 2.29977 27.7976
  1245 -89.0260 0.218351 -0.836541
  1246 -88.9470 0.218307 0.836324
  1247 176.657 4.50617 -5.58664
  1248 176.684 4.49541 5.58819
  1249 -91.4982 -1.54496 -0.240256
  1250 -91.5774 -1.54559 0.240356
  1251 263.581 -18.8151 -31.7459
  1252 -41.8027 0.705351 11.6392
  1253 -41.8457 0.706034 -11.6549
  1254 266.262 -19.8570 31.4583
  1255 179.618 6.79092 -11.4137
  1256 179.667 6.75126 11.4273
  1257 20.9336 -51.1548 -38.3007
  1258 0.380530 -57.7822 -14.5785
  1259 -1.22630 -24.3203 21.7641
  1260 567.493 92.0923 -78.5006
  1261 -0.139741 -54.1400 14.2079
  1262 590.509 55.6149 -35.0876
  1263 -0.309037 -100.269 -6.79187
  1264 27.7733 3.00558 -1.02916
  1265 27.8084 3.00599 1.03034
  1266 -0.251370 -22.8999 4.76424
  1267 -0.203117 -23.0211 -4.75069
  1268 99.8738 2.73435 -0.00894498
  1269 99.8808 2.73625 0.00952901
  1270 356.027 -27.3205 25.3588
  1271 6.58389 2.80716 -3.51728
  1272 6.62781 2.80671 3.51765
  1273 2.05568 -110.353 3.38466
  1274 1.30504 -117.440 -3.34359
  1275 327.449 -41.1516 -33.9092
  1276 -0.909308 -29.8511 14.0223
  1277 341.693 21.6909 -37.3858
  1278 -1.02395 -39.3400 13.7891
  1279 0.678764 -107.992 -5.26515
  1280 164.714 4.93311 -6.05916
  1281 164.741 4.91504 6.06497
  1282 -0.120847 -58.5601 6.23019
  1283 -0.152760 -48.6970 -14.0587
  1284 780.226 134.560 116.913
  1285 310.653 0.221546 0.518219
  1286 310.573 0.221519 -0.517973
  1287 8.05695 0.451643 20.2381
  1288 7.79922 0.784149 -20.3273
  1289 -4.93487 4.44026 23.7194
  1290 -5.04611 4.44913 -23.7702
  1291 329.973 -6.18863 -22.3046
  1292 306.162 -12.7959 -12.3747
  1293 305.845 -14.5713 12.4843
  1294 45.1907 5.52737 2.79372
  1295 45.1602 5.52775 -2.78979
  1296 -50.5480 1.35741 -9.13701
  1297 -50.4870 1.35460 9.12665
  1298 341.526 -47.5988 -48.2550
  1299 -2.55710 -6.17381 6.29424
  1300 -2.56684 -6.16901 -6.29122
  1301 359.966 -15.7229 38.5138
  1302 -3.79953 -14.2864 17.0372
  1303 -3.75807 -14.3392 -16.9593
  1304 -32.5380 2.19907 4.69060
  1305 -32.5971 2.20047 -4.69187
  1306 54.0172 5.71140 -19.7048
  1307 53.4669 6.02601 19.6995
  1308 84.8509 2.60023 0.422539
  1309 84.8381 2.59833 -0.421836
  1310 -35.0489 3.49703 14.4052
  1311 -35.1073 3.50346 -14.4217
  1312 291.375 0.798257 0.805595
  1313 291.304 0.798100 -0.805277
  1314 159.777 -2.10081 100.376
  1315 237.704 0.673068 1.83820
  1316 237.657 0.674528 -1.83837
  1317 157.278 3.28096 -40.1962
  1318 157.317 3.09541 40.5623
  1319 1.50014 -63.6542 -8.74721
  1320 60.7046 14.4617 -8.02603
  1321 60.4473 14.6383 8.13740
  1322 -0.589425 -0.541331 -0.779142
  1323 -0.592392 -0.541524 0.781411
  1324 203.067 6.36425 14.8739
  1325 202.991 6.43444 -14.8616
  1326 100.518 8.45160 1.98006
  1327 100.523 8.45739 -1.96803
  1328 148.407 8.54922 -6.99172
  1329 148.433 8.52731 7.00838
  1330 194.803 1.35646 -1.84229
  1331 194.833 1.35454 1.84241
  1332 -6.20920 -3.01242 -7.10910
  1333 -6.20824 -3.00901 7.11281
  1334 -59.8120 0.114107 2.78680
  1335 -59.8804 0.114239 -2.78762
  1336 -10.6078 -4.88063 -17.4204
  1337 -10.6000 -4.85654 17.4028
  1338 -34.3648 0.630038 1.17998
  1339 -34.4230 0.629647 -1.18008
  1340 -92.4557 0.855099 0.479013
  1341 -92.5354 0.855303 -0.479060
  1342 367.480 -47.0623 65.9938
  1343 264.571 -1.68433 -31.0717
</Section>

newXOutput 44

<Section columns = "stress_xx | stress_yy | stress_xy">
  1 327.293 -0.443643 0.326886
  2 327.380 -0.443925 -0.327047
  3 -102.199 0.502395 -1.38772
  4 0.164111 0.0430765 0.290260
  5 596.554 166.342 191.739
  6 674.263 188.633 -183.935
  7 0.163426 0.0424431 -0.289350
  8 -102.113 0.502311 1.38724
  9 326.295 -0.417090 -1.07938
  10 326.548 -0.959119 -1.75588
  11 329.633 -0.946127 -0.462302
  12 329.947 -0.896240 -2.04881
  13 330.731 -0.873453 -0.621515
  14 337.657 -0.842317 -0.868268
  15 340.031 -1.24236 -2.74635
  16 342.565 -0.571962 -1.87251
  17 344.144 0.196514 -3.61564
  18 358.146 -1.91800 -3.09741
  19 364.141 -1.47145 -3.99774
  20 370.735 -2.25826 -1.53262
  21 373.850 -3.02176 -0.891979
  22 371.004 -3.50541 4.91169
  23 358.077 -3.94372 10.2988
  24 328.094 -4.46846 21.9544
  25 279.804 2.42899 25.5296
  26 239.795 2.90612 23.8409
  27 184.344 6.25611 14.4606
  28 196.252 6.08853 1.23176
  29 163.624 18.2648 -9.24427
  30 227.292 8.32471 -25.8582
  31 262.568 1.98197 -21.1797
  32 321.422 -1.00138 -18.3276
  33 353.818 -4.78447 -12.3304
  34 370.383 -4.08678 -4.89155
  35 373.084 -2.92409 0.909133
  36 370.206 -2.22769 1.42912
  37 363.921 -1.48149 3.87534
  38 358.067 -1.94374 3.02654
  39 344.169 0.181708 3.58120
  40 342.625 -0.577548 1.85941
  41 340.110 -1.24584 2.74171
  42 337.743 -0.844133 0.866048
  43 330.817 -0.874564 0.620650
  44 330.036 -0.897221 2.04948
  45 329.722 -0.946841 0.462444
  46 326.636 -0.959696 1.75679
  47 326.383 -0.417359 1.07994
  48 308.479 0.893533 -0.400894
  49 285.459 0.442617 -0.903870
  50 256.720 -0.705537 -0.927847
  51 226.957 1.06351 -0.771850
  52 200.920 0.873738 -0.616564
  53 173.088 1.77800 -0.731578
  54 145.647 3.19949 -0.454222
  55 117.188 2.88116 -0.925328
  56 93.6053 2.06953 -1.28767
  57 62.6828 1.36807 -1.35670
  58 31.2937 1.96038 -1.03151
  59 5.10569 1.61549 -0.996979
  60 -27.5486 0.962495 -0.915222
  61 -51.8260 -0.217316 -2.20390
  62 -75.3350 -1.56447 -1.01136
  63 -99.1590 0.219824 0.665333
  64 -104.284 1.79005 -0.274251
  65 -104.615 0.797806 0.285447
  66 -101.121 0.407922 -0.145397
  67 -102.147 1.15662 -1.27667
  68 -100.489 1.40176 -0.151374
  69 -95.0113 0.437066 -1.95149
  70 -96.0307 0.863086 -2.09456
  71 -93.5684 0.820144 -1.19245
  72 -86.5935 0.518262 -1.78481
  73 -83.3037 0.921200 -2.92496
  74 -78.2002 1.02742 -2.41114
  75 -69.1626 0.525252 -4.14081
  76 -64.0785 0.161874 -3.46153
  77 -54.9505 0.232826 -3.98695
  78 -47.0808 0.173091 -4.40434
  79 -40.2384 0.0570398 -3.47573
  80 -30.7628 0.201910 -3.50025
  81 -22.6008 -0.0913693 -3.74049
  82 -14.7057 -0.410280 -3.27773
  83 -8.45609 -0.359015 -2.50740
  84 -4.14545 -0.626039 -2.09210
  85 -0.675705 -0.361681 -0.742714
  86 0.0593211 -0.400028 -0.261991
  87 -0.216510 -0.202509 -0.0452845
  88 -0.565938 -0.535736 -0.649948
  89 -0.549159 -3.50377 -1.81562
  90 -0.470001 -7.87471 -2.59424
  91 -0.244225 -13.4713 -3.78725
  92 -0.127519 -20.7046 -3.26693
  93 -0.110059 -27.3708 -4.11268
  94 -0.506089 -35.5275 -4.64687
  95 -0.206732 -45.5855 -4.69840
  96 0.0964146 -55.7186 -4.50362
  97 0.220180 -66.5849 -4.44645
  98 0.336512 -77.7631 -4.37788
  99 0.0272273 -86.0220 -5.93049
  100 0.583452 -97.7276 -5.31186
  101 0.711722 -111.453 -4.26123
  102 -0.0264460 -117.607 -5.66197
  103 1.00797 -127.719 -5.26569
  104 2.46396 -141.194 -2.58986
  105 4.80451 -144.981 -4.10765
  106 3.33902 -133.124 3.19758
  107 4.76974 -101.152 13.7993
  108 25.3831 -59.4121 40.9371
  109 80.1820 108.981 141.177
  110 919.276 48.8830 90.6447
  111 788.749 14.7511 33.0044
  112 763.305 5.49348 7.46466
  113 757.928 1.93842 -1.22637
  114 763.031 8.41453 -17.4269
  115 786.846 26.6640 -39.0301
  116 894.114 95.8117 -115.021
  117 191.438 84.5869 -172.408
  118 42.3937 -58.6235 -50.1075
  119 12.4406 -110.684 -18.4846
  120 3.42602 -126.170 -3.47869
  121 3.86282 -139.581 2.30361
  122 1.10542 -135.696 1.99001
  123 0.403551 -124.520 4.49551
  124 0.434206 -117.119 3.56635
  125 0.612407 -105.383 6.01862
  126 -0.0307291 -98.5903 5.83797
  127 0.242862 -89.0170 4.20680
  128 0.469990 -76.8242 5.33177
  129 0.0901591 -68.1260 4.22707
  130 0.138537 -55.7935 5.33776
  131 -0.557193 -46.1327 4.58499
  132 -0.391614 -35.5581 4.50277
  133 -0.0787152 -27.2211 4.12352
  134 -0.164839 -20.5859 3.27353
  135 -0.238723 -13.4319 3.75062
  136 -0.463293 -7.86927 2.58137
  137 -0.546263 -3.50904 1.81431
  138 -0.565232 -0.541279 0.651212
  139 -0.216485 -0.204916 0.0468871
  140 0.0564129 -0.400419 0.263466
  141 -0.681234 -0.361508 0.744620
  142 -4.15397 -0.625491 2.09408
  143 -8.46764 -0.357939 2.50809
  144 -14.7152 -0.408949 3.27653
  145 -22.6040 -0.0902679 3.73692
  146 -30.7584 0.202126 3.49603
  147 -40.2234 0.0575294 3.47132
  148 -47.0563 0.173640 4.39931
  149 -54.9133 0.232734 3.98170
  150 -64.0299 0.161733 3.45666
  151 -69.1063 0.524862 4.13609
  152 -78.1337 1.02679 2.40753
  153 -83.2317 0.920526 2.92207
  154 -86.5164 0.517825 1.78305
  155 -93.4868 0.819685 1.19138
  156 -95.9473 0.862696 2.09343
  157 -94.9276 0.436903 1.95063
  158 -100.403 1.40125 0.151313
  159 -102.060 1.15624 1.27626
  160 -101.035 0.407848 0.145427
  161 -104.528 0.797588 -0.285263
  162 -104.197 1.78949 0.274223
  163 -99.0742 0.219828 -0.665067
  164 -75.2593 -1.56368 1.01104
  165 -51.7591 -0.216794 2.20317
  166 -27.4910 0.962844 0.914981
  167 5.15085 1.61591 0.996703
  168 31.3289 1.96103 1.03123
  169 62.7057 1.36934 1.35633
  170 93.6161 2.07089 1.28728
  171 117.190 2.88248 0.925053
  172 145.638 3.20073 0.454009
  173 173.068 1.77956 0.731184
  174 200.889 0.875298 0.616141
  175 226.915 1.06446 0.771282
  176 256.665 -0.704370 0.927208
  177 285.391 0.442770 0.903351
  178 308.400 0.893259 0.400666
  179 85.4646 15.1919 -3.09406
  180 85.4215 15.2152 3.14657
  181 -1.76228 2.42636 24.6955
  182 -1.85407 2.41262 -24.7050
  183 195.385 -2.74068 -43.3846
  184 195.266 -3.12345 43.8538
  185 38.7185 8.76676 -1.33983
  186 38.2569 8.93807 1.35973
  187 27.9172 5.14395 -4.01006
  188 27.9565 5.14205 4.01219
  189 185.195 3.82628 -6.29526
  190 185.228 3.81127 6.29782
  191 -3.66989 7.53137 13.5767
  192 -3.73383 7.54641 -13.5862
  193 215.216 5.74797 -16.3531
  194 215.317 5.66361 16.3706
  195 -8.41608 -7.33458 19.4492
  196 -8.41326 -7.37694 -19.4728
  197 1.87313 -17.6415 -23.3628
  198 66.6131 3.11085 -39.5530
  199 2.31084 -18.8581 22.8203
  200 65.5449 3.65603 40.2076
  201 305.200 -41.5848 -63.0268
  202 315.943 -43.2324 60.4248
  203 109.288 3.94329 -0.881427
  204 109.284 3.93993 0.883689
  205 -18.1598 1.35925 -2.71739
  206 -18.1052 1.35939 2.71712
  207 -24.5465 3.71580 18.9181
  208 -24.6049 3.72325 -18.9455
  209 109.834 10.3846 -2.87935
  210 109.833 10.3785 2.89634
  211 33.3123 14.0376 9.51298
  212 33.1836 14.1227 -9.53669
  213 -31.6787 3.41065 -7.93305
  214 -31.6162 3.40659 7.92866
  215 246.584 0.583588 3.03291
  216 246.534 0.587137 -3.03398
  217 7.82428 -33.2430 10.1493
  218 8.50847 -30.1567 -9.04432
  219 -2.32877 -20.7132 21.9653
  220 -2.37862 -21.5047 -21.2695
  221 101.467 14.7431 -17.0808
  222 101.381 14.8123 17.2672
  223 -22.0866 -0.101374 18.9917
  224 -22.1198 -0.103883 -19.0171
  225 263.801 1.71938 -9.00881
  226 263.860 1.69509 8.99531
  227 283.764 -3.97580 -17.7426
  228 283.983 -4.26720 17.6584
  229 452.735 34.8471 -0.222423
  230 415.332 46.0163 25.8486
  231 409.996 -4.14415 -37.9230
  232 49.7039 11.3590 5.09649
  233 49.6619 11.3715 -5.08461
  234 3.21541 9.20674 19.0573
  235 3.13411 9.23416 -19.0785
  236 316.959 -19.1919 -11.6676
  237 315.109 -19.4303 12.6822
  238 175.121 1.81365 -2.27193
  239 175.143 1.80971 2.27228
  240 -39.2991 2.77235 12.6497
  241 -39.3614 2.77816 -12.6636
  242 -5.37011 -5.28600 -8.72773
  243 -5.36545 -5.28289 8.73339
  244 -43.7886 1.11759 4.05177
  245 -43.8535 1.11822 -4.05295
  246 143.809 11.0060 -10.7558
  247 143.839 10.9771 10.7985
  248 183.076 5.69663 -24.6539
  249 183.226 5.59409 24.7628
  250 43.7395 3.04004 -0.379524
  251 43.7700 3.04075 0.380548
  252 105.533 0.0715840 -86.4217
  253 125.015 3.17487 94.3379
  254 14.0767 6.41298 18.2081
  255 14.0137 6.55692 -18.2793
  256 431.585 -34.1724 -7.48005
  257 37.0898 14.2257 8.24963
  258 37.0206 14.2581 -8.24055
  259 103.424 10.9794 -32.2110
  260 103.233 11.2589 32.5778
  261 481.917 67.1923 -5.58504
  262 286.093 0.326672 12.1943
  263 286.006 0.416591 -12.2433
  264 -2.59641 -15.9982 -13.7070
  265 -2.52311 -16.0628 13.7617
  266 -0.572105 -38.0751 -18.9146
  267 1.24645 -44.6089 -17.5407
  268 0.654829 -44.5694 18.3295
  269 -7.21238 -6.26830 25.0642
  270 -7.24203 -6.25696 -25.1598
  271 15.1668 -35.8976 -5.91569
  272 16.3097 -33.1370 8.46452
  273 -16.5143 -1.39660 12.0396
  274 -16.5225 -1.40278 -12.0502
  275 203.206 5.89330 -10.1380
  276 203.259 5.85781 10.1410
  277 356.132 -37.0356 -2.20778
  278 78.2503 6.93317 -0.417559
  279 78.2673 6.93458 0.423323
  280 -0.946031 -35.7193 18.0745
  281 7.12373 7.40073 8.82674
  282 7.06953 7.41043 -8.82799
  283 567.061 39.7766 -14.7988
  284 277.667 0.320157 3.73081
  285 277.605 0.325468 -3.73441
  286 185.598 -9.14898 -65.3464
  287 187.254 -8.99567 66.3731
  288 355.661 -35.0966 -3.64116
  289 -33.8362 1.04050 15.0225
  290 -33.8768 1.04099 -15.0430
  291 348.483 -29.3660 107.086
  292 -15.1164 2.47317 22.7927
  293 -15.1707 2.47104 -22.8287
  294 58.5233 16.1059 -3.99185
  295 58.2993 16.2600 4.06719
  296 -62.3194 0.538534 0.737118
  297 -62.3904 0.538417 -0.737196
  298 293.513 4.50956 -146.136
  299 -58.1654 1.18830 -6.84858
  300 -58.0967 1.18610 6.84264
  301 -1.73462 -7.40763 25.6291
  302 -0.873936 -7.23187 -25.3840
  303 128.714 13.2951 -15.6066
  304 128.729 13.2840 15.7141
  305 27.6317 3.50298 3.00805
  306 27.5942 3.50308 -3.00712
  307 134.108 5.43314 -3.12332
  308 134.117 5.42586 3.12768
  309 12.5223 -9.87022 13.5942
  310 11.4110 -11.7814 -13.7439
  311 130.172 2.56577 -0.737940
  312 130.176 2.56346 0.738504
  313 -47.6610 1.24055 11.0332
  314 -47.7136 1.24253 -11.0479
  315 32.3840 -3.50135 -7.50767
  316 31.4092 -3.53924 6.65180
  317 289.714 -0.142379 1.04007
  318 289.645 -0.141695 -1.03999
  319 633.362 36.2297 24.6224
  320 64.9562 8.92089 2.08732
  321 64.9301 8.92313 -2.07769
  322 -14.3062 3.25899 5.58209
  323 -14.3617 3.26163 -5.58328
  324 89.6036 12.3810 -1.90395
  325 89.5843 12.3836 1.93360
  326 10.3276 9.30280 19.7919
  327 10.2601 9.32556 -19.8334
  328 1.34153 -64.3311 12.9144
  329 -64.4679 0.168455 -1.66218
  330 -64.3959 0.168633 1.66185
  331 220.866 0.811467 -1.97645
  332 220.906 0.809350 1.97627
  333 232.604 1.76620 -5.24241
  334 232.650 1.75593 5.23948
  335 -59.9842 1.05434 -4.99718
  336 -59.9133 1.05321 4.99458
  337 -1.66578 1.24240 0.657999
  338 -1.71363 1.24192 -0.657853
  339 -1.34138 -26.3639 13.6891
  340 -1.06756 -27.4207 -13.6707
  341 261.583 -21.8543 -44.0566
  342 271.772 -26.1244 43.2315
  343 155.213 7.80762 -6.63426
  344 155.237 7.78929 6.64499
  345 68.0893 16.1144 -1.93658
  346 67.9800 16.1840 1.99620
  347 -24.3737 4.67305 11.2459
  348 -24.4361 4.68118 -11.2548
  349 488.151 7.97820 11.4479
  350 25.5817 -38.6138 -28.3401
  351 27.3603 -36.0891 29.7154
  352 -10.5347 7.47600 17.9366
  353 -10.6038 7.49273 -17.9573
  354 -13.5319 -2.75503 22.1798
  355 -13.5645 -2.76059 -22.2166
  356 552.927 91.8107 -25.0101
  357 354.210 -5.40663 46.0383
  358 331.301 -7.72216 -7.94761
  359 330.984 -7.54320 7.39755
  360 231.816 -2.62497 -28.0386
  361 231.556 -2.86436 28.0460
  362 0.431627 -77.4882 -10.4624
  363 303.460 0.812923 -6.84987
  364 303.517 0.787431 6.82332
  365 3.91444 -73.0008 8.27311
  366 349.746 27.3032 -25.1357
  367 85.3844 3.12876 1.08624
  368 85.3705 3.12755 -1.08616
  369 233.222 1.85363 -20.8249
  370 233.378 1.72651 20.8456
  371 251.552 2.21235 -12.6415
  372 251.624 2.15604 12.6231
  373 -5.15683 2.88894 3.78785
  374 -5.20760 2.88991 -3.78786
  375 143.898 7.98103 -33.1862
  376 143.949 8.06649 33.5010
  377 298.612 -0.0728726 1.70531
  378 298.540 -0.0715768 -1.70589
  379 168.623 9.42688 -16.6895
  380 168.694 9.36572 16.7528
  381 195.048 3.22659 4.25285
  382 195.017 3.23366 -4.25291
  383 -9.32719 -1.68851 7.41700
  384 -9.32620 -1.69278 -7.41686
  385 -2.21364 -1.57417 -2.15190
  386 -2.21471 -1.57504 2.15525
  387 397.913 -50.3225 27.7147
  388 -5.22067 -12.5553 20.2660
  389 -5.18611 -12.6606 -20.2663
  390 64.3101 4.37824 -1.40983
  391 64.3326 4.37955 1.41234
  392 -1.98013 -9.89710 7.44680
  393 -2.00238 -9.88064 -7.44753
  394 24.5533 11.3115 9.65981
  395 24.4945 11.3311 -9.65734
  396 325.357 -1.29931 9.03594
  397 325.280 -1.17722 -9.20250
  398 -0.832168 -19.4247 24.4275
  399 -26.7483 -0.492891 11.4087
  400 -26.7660 -0.495122 -11.4224
  401 -0.935140 -20.5084 -24.1521
  402 305.513 0.162092 4.36076
  403 305.447 0.169673 -4.36939
  404 -3.02007 6.70553 22.5044
  405 -3.11589 6.72795 -22.5411
  406 225.505 3.51618 -8.37661
  407 225.554 3.49444 8.37184
  408 346.652 -14.8814 -7.83908
  409 347.827 -11.9920 5.93036
  410 -0.715119 -35.9325 -15.0101
  411 30.8742 11.4162 -6.94103
  412 31.1291 11.2854 6.91312
  413 343.569 22.5492 15.7373
  414 195.887 -10.8982 -90.5360
  415 201.162 -14.5632 94.8122
  416 11.3998 10.7397 14.6768
  417 11.3284 10.7649 -14.6857
  418 144.323 4.14899 -2.13667
  419 144.333 4.14447 2.13816
  420 140.151 21.5861 144.150
  421 57.7817 13.7212 -3.77593
  422 57.8327 13.6988 3.79773
  423 3.54594 -34.3665 16.5608
  424 -0.437494 -58.4322 -13.0513
  425 22.7714 13.1399 13.7026
  426 22.6864 13.1786 -13.7141
  427 28.0639 7.71176 -5.91289
  428 28.1074 7.70556 5.91626
  429 -9.88602 -0.542243 -25.0306
  430 -9.83238 -0.556066 24.9910
  431 69.2255 13.5978 -12.9439
  432 68.9328 13.8083 13.0980
  433 347.970 -11.3096 -34.7303
  434 9.69280 -3.61970 19.4720
  435 9.36926 -3.52403 -19.5866
  436 253.317 -10.8362 -30.9865
  437 254.387 -11.6171 30.9312
  438 -63.5203 0.515174 -6.65772
  439 -63.4549 0.513595 6.65018
  440 0.00372477 -57.3617 11.7364
  441 -0.414531 -36.4209 13.3615
  442 -25.8644 1.65444 19.2291
  443 -25.9080 1.65422 -19.2561
  444 181.554 1.71801 -0.809562
  445 181.578 1.71582 0.809421
  446 -5.46658 -8.63162 13.7594
  447 -5.47526 -8.65088 -13.7442
  448 112.832 5.66412 -48.3319
  449 112.618 6.18605 48.9048
  450 0.939972 -69.5544 -12.9658
  451 632.326 22.6949 0.529921
  452 1.74146 -82.3489 -7.56723
  453 -75.2278 0.0106989 -2.44254
  454 -75.1515 0.0107332 2.44174
  455 -28.9227 4.06034 15.7540
  456 -28.9849 4.06900 -15.7737
  457 -33.6305 0.476562 11.4639
  458 -33.6575 0.476536 -11.4783
  459 123.506 12.8644 -10.5007
  460 123.515 12.8581 10.5666
  461 187.144 7.59080 -12.9175
  462 187.208 7.53891 12.9399
  463 -3.23448 -11.7941 25.2426
  464 -3.23870 -11.7160 -25.3476
  465 324.513 5.34916 -43.8441
  466 22.0609 -5.90769 -3.99423
  467 21.2949 -6.09247 4.38674
  468 5.12522 -74.3290 -0.692552
  469 3.27142 -86.2421 -1.65305
  470 -9.93733 -4.45335 14.1656
  471 -9.94112 -4.46917 -14.1710
  472 68.8076 -7.06580 -74.6406
  473 499.264 -0.939352 -48.4270
  474 112.460 7.43332 2.87680
  475 112.460 7.44007 -2.86724
  476 163.551 1.63539 -46.5826
  477 163.936 1.58439 47.3010
  478 47.8020 16.7625 5.44412
  479 47.7140 16.8167 -5.42649
  480 147.659 11.0818 -24.3431
  481 147.731 11.0224 24.5304
  482 5.28360 2.86135 22.9492
  483 5.61002 3.02581 -22.9213
  484 -66.6515 0.991362 -4.93146
  485 -66.5790 0.990330 4.92801
  486 326.026 -38.2267 -24.8911
  487 259.265 0.221064 -1.43460
  488 259.321 0.220114 1.43473
  489 13.4299 1.91019 -1.63111
  490 13.4722 1.91066 1.63151
  491 -16.8934 6.04961 14.7306
  492 -16.9584 6.06207 -14.7447
  493 -37.9827 2.33266 -5.40661
  494 -37.9192 2.33063 5.40448
  495 112.456 11.1314 -4.54348
  496 112.456 11.1233 4.56921
  497 -13.6960 5.18036 20.6839
  498 -13.7643 5.19333 -20.7154
  499 298.562 -8.35386 -16.5293
  500 299.060 -8.78082 16.2801
  501 195.410 2.14503 -30.9773
  502 195.123 2.00052 31.2478
  503 72.4642 3.52307 -0.807537
  504 72.4833 3.52453 0.808576
  505 0.755765 -35.6709 -20.7021
  506 349.794 -12.7758 28.5176
  507 4.73410 -23.5739 -18.8072
  508 99.0647 15.9272 10.6606
  509 99.1207 15.8851 -10.5502
  510 322.459 -35.7688 24.5682
  511 24.4476 -33.8010 39.1197
  512 384.232 -49.9850 -49.2869
  513 261.612 1.15232 15.2158
  514 261.502 1.25994 -15.2399
  515 0.707456 -30.5293 21.5417
  516 -5.11922 -1.52951 -3.96165
  517 -5.12167 -1.52885 3.96468
  518 31.6139 1.80029 -0.496222
  519 31.6489 1.80109 0.496459
  520 -0.886858 -20.3397 8.78706
  521 -0.804663 -20.2444 -8.83182
  522 215.539 2.30285 3.38180
  523 215.501 2.30663 -3.38230
  524 607.956 106.637 44.6210
  525 25.0108 -15.7788 -7.49540
  526 19.4514 -21.1632 3.43237
  527 -6.40303 4.67543 -7.39326
  528 -6.34795 4.67009 7.39124
  529 -52.6007 0.832265 6.88707
  530 -52.6448 0.833198 -6.89607
  531 0.522275 -65.2037 12.9105
  532 -74.0197 0.660488 0.696745
  533 -74.0952 0.660511 -0.696793
  534 66.3633 -5.04103 -54.7927
  535 64.8828 -3.89644 56.9414
  536 60.7364 10.5645 -18.5885
  537 60.2774 10.8440 18.7249
  538 -14.1408 -2.97739 19.3949
  539 -14.1614 -2.98949 -19.4221
  540 59.6882 5.53027 1.48973
  541 59.6631 5.52980 -1.48594
  542 -31.2835 1.48819 2.34858
  543 -31.3434 1.48846 -2.34882
  544 70.4823 10.4680 1.61316
  545 70.4553 10.4730 -1.59721
  546 -1.42076 -4.61153 3.38578
  547 -1.42561 -4.60730 -3.38508
  548 25.5367 11.0184 12.3297
  549 25.3670 11.1757 -12.3833
  550 20.6319 3.20145 10.8964
  551 20.3368 3.17341 -11.0640
  552 264.990 1.92912 6.41577
  553 264.934 1.93996 -6.42188
  554 234.303 3.22111 10.2211
  555 234.246 3.25538 -10.2294
  556 -0.241201 -55.0881 -8.13600
  557 163.864 8.38895 -9.85255
  558 163.901 8.35993 9.87218
  559 164.347 3.96147 -3.65599
  560 164.367 3.95315 3.65818
  561 -22.6746 0.861007 -0.0226861
  562 -22.6188 0.861391 0.0228683
  563 279.444 15.2615 -8.44107
  564 368.238 -47.0047 -17.7504
  565 301.616 13.8341 33.2495
  566 2.44379 -47.2002 -15.1945
  567 -16.3910 5.19974 -9.73138
  568 -16.3310 5.19253 9.72623
  569 2.56067 -27.4156 20.3823
  570 -16.3478 0.444842 22.2417
  571 -16.3907 0.443063 -22.2730
  572 469.641 45.1379 -0.629070
  573 106.826 5.10931 -1.25659
  574 106.821 5.10530 1.26034
  575 713.415 60.4008 -61.9487
  576 -3.54996 -2.77379 25.9836
  577 -3.31203 -2.58678 -26.0063
  578 389.168 -35.0008 16.0069
  579 313.511 0.323877 -7.62738
  580 313.561 0.282071 7.58009
  581 143.641 -0.413193 -67.7227
  582 145.366 -0.843135 68.8062
  583 -8.05701 -7.74145 22.4561
  584 -8.06446 -7.78100 -22.5134
  585 75.3061 6.36115 35.6856
  586 75.9390 5.78816 -35.3756
  587 -61.5914 0.711947 -6.48561
  588 -61.5311 0.710796 6.47767
  589 458.806 38.4244 27.3882
  590 87.2011 8.17937 0.262398
  591 87.2146 8.18142 -0.253386
  592 102.957 12.7788 -24.3995
  593 102.822 12.9347 24.6752
  594 283.392 -0.519844 -14.9112
  595 283.532 -0.665814 14.8639
  596 -1.27791 -28.7958 -20.2174
  597 308.585 -0.342662 2.28106
  598 308.509 -0.340839 -2.28223
  599 -45.0462 0.925608 -0.928917
  600 -44.9816 0.925688 0.928954
  601 -79.3837 -0.537698 0.0287516
  602 -79.4610 -0.538083 -0.0287015
  603 6.55823 -43.4388 -7.22323
  604 -2.89746 -18.6794 17.3035
  605 -3.05604 -17.6741 -17.4195
  606 -35.0841 2.16105 16.0280
  607 -35.1338 2.16439 -16.0499
  608 215.476 5.39597 12.8856
  609 215.409 5.44894 -12.8843
  610 158.546 2.17500 0.866940
  611 158.531 2.17684 -0.866733
  612 35.7231 -10.2126 22.4557
  613 36.8760 -9.44803 -22.2407
  614 -1.10953 -14.1798 7.41942
  615 -1.14340 -14.1343 -7.44422
  616 369.795 23.9487 155.770
  617 -18.2797 -0.566019 6.87889
  618 -18.2803 -0.568590 -6.88427
  619 6.52208 -26.3485 -15.1843
  620 155.088 6.29426 -5.04891
  621 155.107 6.28209 5.05463
  622 75.8401 16.0997 -7.77352
  623 75.6968 16.1979 7.88221
  624 0.747508 -98.4515 5.24306
  625 56.8369 15.7821 3.29695
  626 56.7725 15.8183 -3.27077
  627 -6.30243 6.50450 11.6919
  628 -6.36300 6.51539 -11.6986
  629 -0.441207 -48.5935 11.1121
  630 -79.1085 0.0923355 -2.43154
  631 -79.0307 0.0922044 2.43053
  632 101.911 2.83256 0.294287
  633 101.918 2.83508 -0.293043
  634 258.251 0.831997 4.24229
  635 258.197 0.837369 -4.24450
  636 227.665 -16.0850 118.963
  637 183.041 4.69751 -7.75448
  638 183.077 4.67621 7.75957
  639 2.90423 -3.90962 24.0658
  640 3.56988 -2.27772 -24.0287
  641 292.771 -29.7730 -96.2513
  642 692.182 23.8798 -25.7703
  643 -72.7189 0.0639199 -4.49272
  644 -72.6482 0.0631991 4.48837
  645 17.1655 3.93294 -3.53908
  646 17.2078 3.93178 3.54005
  647 -1.37188 -30.5065 17.8461
  648 396.182 23.1937 -40.9727
  649 305.164 -0.495310 0.390777
  650 305.087 -0.494887 -0.390647
  651 -19.6344 -1.07851 -16.0022
  652 -19.6148 -1.07367 15.9830
  653 -0.0567349 -69.0939 -10.6877
  654 310.433 -0.522728 0.875941
  655 310.354 -0.522185 -0.875790
  656 28.2673 9.84824 8.18123
  657 28.2166 9.86099 -8.17702
  658 236.224 -20.6066 -63.0878
  659 240.533 -20.5284 63.8000
  660 345.775 -2.16306 5.20447
  661 345.859 -2.13876 -5.43375
  662 1.51174 -87.1857 8.39854
  663 -19.1690 0.667032 -1.36972
  664 -19.1144 0.667477 1.36972
  665 113.185 9.35479 -112.873
  666 106.052 2.53914 0.807069
  667 106.058 2.54071 -0.806525
  668 52.0286 3.99352 0.703155
  669 52.0011 3.99272 -0.701368
  670 61.9418 6.93653 -1.15570
  671 61.9670 6.93627 1.16218
  672 201.769 5.78875 -19.9253
  673 201.892 5.69094 19.9750
  674 53.3247 15.5873 0.948829
  675 53.1677 15.6963 -0.916714
  676 -36.7352 2.74540 -9.18909
  677 -36.6710 2.74052 9.18234
  678 -42.6687 2.93727 -10.4363
  679 -42.6044 2.93218 10.4263
  680 355.233 -5.36325 -1.17154
  681 0.346512 -14.4740 -24.5579
  682 355.813 -5.62605 0.660783
  683 451.021 35.4938 -0.287670
  684 -44.6033 0.207963 7.83112
  685 -44.6374 0.207935 -7.84157
  686 46.3612 13.3200 -2.30073
  687 46.0314 13.4884 2.34318
  688 -85.0000 0.0803152 -0.885981
  689 -84.9202 0.0803810 0.885797
  690 0.616367 -13.0388 24.6095
  691 -27.9402 0.377620 16.8610
  692 -27.9761 0.376572 -16.8836
  693 389.780 -32.8271 -17.5157
  694 61.2693 1.67530 -0.385850
  695 61.2458 1.67406 0.386391
  696 13.8937 5.78671 5.87100
  697 13.8470 5.79087 -5.86985
  698 205.790 -9.46255 -52.7100
  699 207.364 -9.83422 53.7489
  700 721.140 50.9761 56.4750
  701 13.8025 -66.7781 -23.3076
  702 -5.20818 -10.9550 24.0275
  703 -5.21800 -10.9981 -24.0803
  704 43.1855 9.75484 -4.50826
  705 43.2247 9.74734 4.51608
  706 319.090 -0.434495 -2.32715
  707 319.167 -0.436582 2.32453
  708 151.496 2.72973 1.48485
  709 151.483 2.73337 -1.48419
  710 12.4468 11.1401 17.6830
  711 12.3657 11.1743 -17.7051
  712 7.48103 2.93687 2.49415
  713 7.43607 2.93711 -2.49379
  714 -9.04681 2.11578 24.5834
  715 -9.11111 2.11644 -24.6304
  716 262.069 -0.110067 1.78099
  717 262.013 -0.108262 -1.78141
  718 226.680 2.10632 4.82988
  719 226.637 2.11288 -4.83119
  720 30.3212 -20.1975 27.0699
  721 31.2158 -21.6098 -26.1501
  722 -17.6911 3.81744 21.4401
  723 -17.7511 3.82277 -21.4740
  724 9.35810 -21.7943 12.0174
  725 0.679271 6.71550 22.7038
  726 0.578574 6.73522 -22.7273
  727 -50.4558 1.46483 -6.12104
  728 -50.3882 1.46283 6.11717
  729 39.3784 12.8071 7.62663
  730 39.3191 12.8299 -7.61567
  731 350.855 -10.6835 -19.3950
  732 332.358 -29.0421 -8.05005
  733 -5.38117 -11.0039 17.0137
  734 -5.37404 -11.0554 -16.9918
  735 128.742 -0.964310 -79.9386
  736 125.367 1.81667 80.7309
  737 78.2963 14.9559 -12.1336
  738 78.1029 15.1039 12.2901
  739 6.77766 -12.8146 19.7607
  740 -0.482494 -35.9573 -9.65781
  741 163.911 9.12698 -18.5881
  742 163.996 9.06764 18.6844
  743 0.428904 -70.7369 8.95768
  744 97.6158 13.6373 -4.76387
  745 97.5970 13.6417 4.80901
  746 335.107 -0.278030 -5.78085
  747 335.119 -0.320066 5.69879
  748 6.56879 -96.0198 1.94018
  749 150.874 11.3898 13.9939
  750 150.830 11.4264 -13.9337
  751 40.6926 14.3379 -4.59032
  752 40.9007 14.1910 4.58071
  753 -60.6235 0.401361 -5.46894
  754 -60.5711 0.400827 5.46154
  755 167.546 3.03957 -3.21508
  756 167.566 3.03412 3.21614
  757 103.181 14.9824 -8.92109
  758 103.151 14.9999 9.00274
  759 0.577505 9.06352 17.5876
  760 0.503614 9.08695 -17.6049
  761 333.375 -24.8337 4.00006
  762 -52.1666 1.16738 4.66591
  763 -52.2346 1.16822 -4.66769
  764 720.107 139.046 -98.6770
  765 -19.9127 2.08119 4.91792
  766 -19.9693 2.08230 -4.91886
  767 283.743 0.889957 10.5988
  768 283.676 0.942162 -10.6343
  769 527.059 33.2900 0.393288
  770 321.466 -0.878016 -4.40310
  771 321.532 -0.885804 4.39162
  772 205.239 3.12135 6.05789
  773 205.202 3.13245 -6.05849
  774 307.110 -35.1113 87.7085
  775 133.146 9.92431 -5.15804
  776 133.160 9.91040 5.17577
  777 3.03069 -53.6327 11.1271
  778 352.379 -44.5250 28.5126
  779 213.871 0.704722 1.04196
  780 213.835 0.706319 -1.04195
  781 280.599 0.177408 0.555703
  782 280.533 0.177823 -0.555623
  783 -1.26941 -28.4450 -16.6928
  784 1.69561 -48.5713 16.3226
  785 126.109 14.1065 19.4416
  786 126.104 14.1027 -19.2787
  787 713.889 7.19861 6.16528
  788 217.284 1.99144 -24.9054
  789 217.446 1.87408 24.9674
  790 -45.2339 1.50086 12.0056
  791 -45.2931 1.50452 -12.0199
  792 9.17073 -39.3251 3.59752
  793 5.94511 -89.6047 -6.12047
  794 495.663 64.1170 -7.43130
  795 -0.436541 -35.8527 8.71661
  796 9.99025 7.13157 20.4395
  797 9.95818 7.12978 -20.5297
  798 66.0991 13.1841 2.12241
  799 66.0620 13.1986 -2.10084
  800 330.873 -15.1189 -5.08827
  801 331.482 -14.9510 3.93510
  802 389.880 55.3247 -147.499
  803 -53.6938 0.619399 -2.15045
  804 -53.6256 0.619289 2.14998
  805 -25.0885 -0.105126 6.48329
  806 -25.0945 -0.106202 -6.49014
  807 23.9108 1.67515 6.41263
  808 23.4050 1.64722 -6.45917
  809 250.771 -1.28309 22.4276
  810 250.580 -1.06557 -22.3836
  811 127.614 3.52971 -0.780489
  812 127.617 3.52638 0.781696
  813 404.753 -6.61432 37.6464
  814 42.4580 6.93255 -4.01825
  815 42.4933 6.92976 4.02323
  816 39.6071 5.14486 -6.24381
  817 39.2492 5.33699 6.34270
  818 -0.158127 -28.1756 -22.4712
  819 572.752 87.0618 80.7158
  820 -83.0530 0.0955361 -2.42400
  821 -82.9742 0.0953851 2.42258
  822 -0.124043 -86.2169 8.45871
  823 5.99967 -12.6615 -19.9826
  824 -12.4577 -0.764976 4.81987
  825 -12.4524 -0.766901 -4.82133
  826 457.434 26.0093 -26.3705
  827 118.784 11.9156 -6.48473
  828 118.789 11.9067 6.52452
  829 313.917 -4.50459 -11.2935
  830 314.194 -4.55707 11.1144
  831 -79.3671 0.609774 3.22037
  832 -79.4427 0.610425 -3.22306
  833 -0.562484 -0.582769 -0.476727
  834 -0.563619 -0.583823 0.478618
  835 0.265618 -88.1871 -8.27638
  836 0.406876 -92.8697 -7.53087
  837 -87.6129 0.849347 0.487440
  838 -87.6934 0.849512 -0.487509
  839 47.6294 -15.2175 -52.4690
  840 194.468 2.49006 -1.75617
  841 194.497 2.48742 1.75597
  842 -6.54597 1.64296 0.624768
  843 -6.59564 1.64266 -0.624838
  844 289.163 0.853773 -7.03537
  845 289.223 0.835943 7.01942
  846 -32.9880 0.222915 6.16709
  847 -33.0022 0.222947 -6.17432
  848 174.808 1.45802 -120.177
  849 301.814 -25.7878 24.3847
  850 236.879 1.16065 -2.19752
  851 236.925 1.15843 2.19694
  852 299.043 -28.0587 -27.2543
  853 93.1929 10.5258 -1.71654
  854 93.1798 10.5235 1.73729
  855 128.860 8.59644 -3.90093
  856 128.868 8.58614 3.91233
  857 350.857 -7.51378 14.8058
  858 21.4112 12.6325 14.6278
  859 21.3187 12.6809 -14.6576
  860 21.9023 1.61493 1.17787
  861 21.8634 1.61418 -1.17760
  862 165.292 2.25111 1.47752
  863 165.274 2.25382 -1.47723
  864 433.467 -40.5271 48.4394
  865 271.282 1.63385 -9.20456
  866 271.346 1.60050 9.18307
  867 3.75533 4.16163 4.64800
  868 3.70691 4.16376 -4.64767
  869 272.045 -0.229218 2.59494
  870 271.985 -0.226962 -2.59577
  871 -50.8081 0.339015 -1.35891
  872 -50.7417 0.339335 1.35853
  873 -0.240679 -27.4361 7.76869
  874 -0.315871 -27.8656 -7.82871
  875 325.784 -4.65797 35.3357
  876 -19.8984 5.03236 18.1254
  877 -19.9627 5.04410 -18.1492
  878 -0.111804 -45.2139 -8.58897
  879 128.872 4.91458 -1.99192
  880 128.877 4.91005 1.99453
  881 237.398 -11.9856 -40.1877
  882 239.249 -13.2594 40.5841
  883 -10.2483 -3.61992 -24.1343
  884 -10.2041 -3.62091 24.0859
  885 12.8437 11.2598 16.2388
  886 12.7658 11.2903 -16.2522
  887 1.13952 -103.540 5.92352
  888 3.21095 8.76736 20.7716
  889 3.12497 8.79168 -20.7959
  890 219.185 -3.88451 -35.7149
  891 218.713 -4.06679 36.0007
  892 378.956 20.6759 42.5152
  893 86.8145 9.81153 0.603642
  894 86.8300 9.81319 -0.589679
  895 278.501 1.78038 -6.89561
  896 278.560 1.76634 6.88549
  897 -10.9396 -4.78369 21.1834
  898 -10.9596 -4.80172 -21.2207
  899 0.960539 -106.788 -3.98134
  900 -16.8222 -1.14496 20.7845
  901 -16.8539 -1.14780 -20.8139
  902 10.4728 10.1918 -12.7701
  903 10.5374 10.1714 12.7646
  904 -0.857982 -6.88436 3.81441
  905 -0.867617 -6.87729 -3.82005
  906 23.5951 11.4830 -11.4666
  907 23.6625 11.4576 11.4667
  908 5.02926 -8.44053 22.2614
  909 4.36865 -7.85667 -23.3816
  910 270.026 -7.62774 22.8392
  911 269.377 -7.25226 -22.9769
  912 -89.3396 0.264183 -0.715803
  913 -89.2582 0.264208 0.715681
  914 -7.64957 -0.692801 3.62114
  915 -7.64256 -0.693968 -3.61999
  916 0.368318 -64.3034 -7.84021
  917 -8.24720 -3.54549 -10.3197
  918 -8.24462 -3.53689 10.3209
  919 -34.8681 2.93899 15.4268
  920 -34.9257 2.94503 -15.4471
  921 83.8931 16.2309 -4.81391
  922 83.8324 16.2755 4.88102
  923 357.833 28.3427 -6.78899
  924 -4.26660 8.08169 15.9866
  925 -4.33484 8.09963 -16.0008
  926 132.663 8.35327 -37.3336
  927 132.678 8.47452 37.7630
  928 -16.0580 5.65091 12.8875
  929 -16.1211 5.66221 -12.8983
  930 435.021 -21.9627 -8.18307
  931 260.705 10.3836 18.3921
  932 315.352 -4.08221 -31.9608
  933 236.328 3.27625 -15.1934
  934 236.420 3.19782 15.1878
  935 -25.3209 3.40662 -6.37328
  936 -25.2612 3.40307 6.37070
  937 -56.6417 1.02950 7.72027
  938 -56.7077 1.03181 -7.72835
  939 -3.41076 -11.0071 -11.9797
  940 -3.38735 -11.0172 12.0019
  941 83.3693 5.55164 0.300489
  942 83.3836 5.55382 -0.296381
  943 -26.5019 2.73066 19.1056
  944 -26.5528 2.73324 -19.1336
  945 283.813 -0.0740904 3.41462
  946 283.749 -0.0713820 -3.41603
  947 -2.15399 -24.2077 18.1659
  948 10.3003 9.37200 -10.9859
  949 10.3594 9.35672 10.9831
  950 14.2575 6.54856 7.25941
  951 14.2083 6.55517 -7.25876
  952 48.4265 4.65691 -1.87619
  953 48.4558 4.65705 1.87833
  954 533.631 66.0335 -12.8795
  955 -2.09680 -0.580060 -1.42868
  956 -2.10131 -0.580053 1.43131
  957 18.1367 5.00361 -13.8534
  958 18.4454 4.85162 13.8010
  959 190.564 7.77387 -15.9059
  960 190.645 7.70620 15.9408
  961 24.1257 8.23423 -6.95063
  962 24.1733 8.22583 6.95352
  963 51.9453 -14.2733 70.0752
  964 359.466 -2.53654 -2.88724
  965 358.906 -2.44051 2.54626
  966 63.2600 -7.37554 60.9382
  967 66.3537 3.02149 -0.127508
  968 66.3322 3.02039 0.128369
  969 173.408 -6.47191 -103.863
  970 130.809 2.40378 0.816065
  971 130.805 2.40545 -0.815680
  972 16.5053 -17.5744 3.99293
  973 18.2409 -14.8069 -2.61731
  974 318.634 -0.311098 1.17823
  975 318.552 -0.310561 -1.17808
  976 -26.2195 0.0771585 15.3045
  977 -26.2460 0.0758014 -15.3234
  978 571.064 71.3180 31.4805
  979 -2.47744 -18.1929 -23.9891
  980 2.76638 -91.3099 9.86525
  981 -0.448227 -28.8571 22.1434
  982 329.374 -0.204811 -4.49339
  983 329.429 -0.216261 4.47309
  984 -4.35734 -7.96959 10.3461
  985 -4.36894 -7.96942 -10.3354
  986 409.706 42.4810 -23.8838
  987 724.431 6.45553 -4.14412
  988 -1.07035 -1.60419 -1.55493
  989 -1.06921 -1.60759 1.55718
  990 190.951 2.35000 -3.42048
  991 190.980 2.34541 3.42059
  992 -2.54649 -17.4935 24.1165
  993 265.962 1.31307 13.5852
  994 265.880 1.39118 -13.6138
  995 349.283 -23.2795 -14.6294
  996 -12.2198 -2.56435 11.6781
  997 -12.2238 -2.57373 -11.6836
  998 5.65042 -23.0806 17.3176
  999 -0.577969 -43.4226 17.3780
  1000 -0.0499486 -44.8554 8.57449
  1001 356.402 23.4952 -2.03512
  1002 408.718 44.8021 13.8027
  1003 292.925 -33.8906 -48.2613
  1004 4.14726 -42.6145 14.0120
  1005 5.27000 -61.3950 3.36362
  1006 80.9535 2.14521 0.267082
  1007 80.9377 2.14392 -0.266956
  1008 -3.25390 -3.70802 -4.92906
  1009 -3.25119 -3.70898 4.93310
  1010 2.75116 -35.0064 -18.6220
  1011 236.533 0.411820 -0.806422
  1012 236.579 0.410610 0.806301
  1013 47.0403 -0.666259 -22.4197
  1014 45.0037 -0.554411 22.2044
  1015 -4.49713 7.24911 20.9327
  1016 -4.57859 7.27045 -20.9634
  1017 -28.0952 4.28787 -13.0384
  1018 -28.0317 4.27947 13.0258
  1019 179.857 2.93949 -36.5771
  1020 179.972 3.08756 36.9838
  1021 129.291 11.4843 -25.3763
  1022 129.285 11.4808 25.6273
  1023 140.488 10.3456 -8.39280
  1024 140.509 10.3233 8.41988
  1025 365.558 -10.4086 -41.5774
  1026 -9.78807 4.45692 22.9118
  1027 -9.86134 4.46549 -22.9556
  1028 259.023 -0.182424 18.5501
  1029 258.879 -0.0179257 -18.5624
  1030 -1.75726 -13.7193 25.2080
  1031 -20.9646 -0.706691 11.2799
  1032 -20.9749 -0.710034 -11.2916
  1033 235.936 2.28825 -18.4268
  1034 236.057 2.17760 18.4298
  1035 290.411 6.84484 -29.8202
  1036 -0.366712 -43.2009 -18.2401
  1037 -3.51024 -17.0234 21.5528
  1038 -3.65587 -17.2221 -21.3701
  1039 166.087 9.86758 -13.0336
  1040 166.142 9.82234 13.0746
  1041 210.030 3.98890 7.51353
  1042 209.988 4.00554 -7.51484
  1043 348.566 -22.7368 12.7376
  1044 16.7632 1.81855 -0.326954
  1045 16.8039 1.81909 0.327021
  1046 296.277 -37.9220 51.5097
  1047 -2.16518 1.26184 1.57572
  1048 -2.21339 1.26135 -1.57565
  1049 63.5736 16.3116 0.682109
  1050 63.4919 16.3635 -0.641554
  1051 23.9530 12.8399 12.5672
  1052 23.8775 12.8720 -12.5709
  1053 3.21722 -53.0118 -11.5776
  1054 85.2859 3.36733 -0.0283035
  1055 85.2995 3.36978 0.0306066
  1056 253.508 8.42330 7.56342
  1057 238.648 1.92330 7.02043
  1058 238.599 1.93827 -7.02514
  1059 -1.51352 -14.2348 -25.2501
  1060 359.112 -4.57684 -7.54277
  1061 -0.138373 -1.33670 25.1243
  1062 0.128085 -1.12588 -25.0141
  1063 327.557 -0.575733 -2.47984
  1064 327.633 -0.578337 2.47535
  1065 348.835 -1.17591 -4.34922
  1066 348.749 -1.22160 4.22755
  1067 -0.265913 -67.9766 6.45921
  1068 204.114 5.34116 -9.95976
  1069 204.159 5.31379 9.96054
  1070 248.714 2.35914 8.20222
  1071 248.659 2.37837 -8.21024
  1072 5.42401 5.77473 22.6777
  1073 5.39423 5.77847 -22.6979
  1074 540.823 36.2606 5.35897
  1075 -6.98773 -3.07443 25.7428
  1076 -7.08946 -3.01051 -25.8049
  1077 76.6979 15.2116 -0.502850
  1078 76.6604 15.2311 0.537483
  1079 -43.7628 0.858865 -2.35849
  1080 -43.6985 0.858903 2.35808
  1081 126.356 7.09335 -43.0411
  1082 126.195 7.45144 43.5789
  1083 36.0853 14.4908 9.76621
  1084 36.0025 14.5313 -9.76171
  1085 85.6860 9.68293 -31.5297
  1086 85.2491 10.1137 31.8181
  1087 -2.29900 -22.7290 -17.6975
  1088 303.154 3.97955 38.9707
  1089 212.980 -0.452372 135.077
  1090 33.9437 14.8486 10.0872
  1091 33.8452 14.9034 -10.0911
  1092 128.399 7.00530 -2.92589
  1093 128.406 6.99656 2.93319
  1094 467.774 0.691849 12.5355
  1095 29.7311 7.39487 6.49349
  1096 29.3551 7.49242 -6.60197
  1097 -13.8994 -3.06354 15.5577
  1098 -13.9097 -3.07734 -15.5727
  1099 -0.456673 -10.2818 4.16745
  1100 -0.474524 -10.2753 -4.18406
  1101 307.297 -0.233420 10.9730
  1102 307.204 -0.115737 -11.0615
  1103 0.410495 -21.9796 23.6590
  1104 -21.1357 1.31341 -20.8160
  1105 -21.0929 1.31501 20.7868
  1106 0.108013 -82.3670 -8.25603
  1107 -4.89977 -6.88055 25.7006
  1108 -4.88763 -6.73888 -25.7272
  1109 294.108 0.391496 -4.62110
  1110 294.174 0.385295 4.61603
  1111 302.969 -2.24151 13.1466
  1112 302.776 -2.05224 -13.2376
  1113 52.3814 11.4852 -10.1968
  1114 51.9839 11.7199 10.3042
  1115 -0.727622 -42.4272 -14.7803
  1116 399.093 -38.0997 -78.6135
  1117 517.669 65.5938 2.02287
  1118 5.26476 -64.7680 -1.40537
  1119 18.2837 10.4731 -16.6630
  1120 18.3906 10.4129 16.5869
  1121 48.9845 15.9823 4.67067
  1122 48.8718 16.0534 -4.65217
  1123 104.151 6.37056 0.996456
  1124 104.155 6.37556 -0.990398
  1125 -6.72708 -9.58175 20.1532
  1126 -6.71707 -9.67164 -20.1835
  1127 -19.3100 5.93663 16.7135
  1128 -19.3751 5.94942 -16.7322
  1129 -6.98112 7.49270 19.3786
  1130 -7.05531 7.51169 -19.4034
  1131 288.884 -14.7377 -22.3468
  1132 290.756 -14.8699 22.1475
  1133 0.255309 -48.8635 -17.3617
  1134 153.692 -0.560093 -54.1330
  1135 153.948 -0.0735536 55.0591
  1136 48.8276 14.7035 -5.23445
  1137 48.8868 14.6736 5.25191
  1138 154.971 69.0456 151.179
  1139 38.1064 11.8398 7.28959
  1140 38.0542 11.8566 -7.28075
  1141 394.616 -43.8812 -18.3805
  1142 148.668 4.28910 2.40272
  1143 148.655 4.29530 -2.40056
  1144 -6.73037 -6.00439 12.3031
  1145 -6.73442 -6.01826 -12.2984
  1146 -8.04118 -7.21891 15.9314
  1147 -8.04047 -7.24689 -15.9324
  1148 258.458 -26.7518 -76.3330
  1149 263.764 -29.4134 76.9075
  1150 45.8825 1.92513 0.501023
  1151 45.9120 1.92616 -0.500123
  1152 161.973 7.58148 -29.6213
  1153 161.991 7.48053 29.9273
  1154 354.454 -48.0292 58.2220
  1155 316.216 -0.682133 0.687360
  1156 316.134 -0.681635 -0.687083
  1157 -28.4373 4.45885 14.9152
  1158 -28.5007 4.46766 -14.9316
  1159 -48.7612 1.53178 -7.84258
  1160 -48.6942 1.52919 7.83727
  1161 80.3753 -0.227979 90.4071
  1162 244.962 16.5855 -15.3423
  1163 148.146 10.7374 -14.4619
  1164 148.196 10.7016 14.5427
  1165 461.293 -15.2530 84.5654
  1166 150.555 10.2908 -21.5464
  1167 150.616 10.2341 21.6870
  1168 37.2127 4.97854 -2.76479
  1169 37.2473 4.97802 2.76702
  1170 12.9891 -49.3590 8.31291
  1171 13.1410 -48.1413 -11.8127
  1172 204.246 -14.6767 -77.0193
  1173 207.086 -13.7409 76.9809
  1174 79.6319 12.9807 -21.8671
  1175 79.3002 13.2562 22.1015
  1176 360.210 -24.3295 -27.1120
  1177 -13.2233 -1.14125 23.4727
  1178 -13.2670 -1.14044 -23.5091
  1179 -0.278910 -19.6447 -24.2999
  1180 91.3414 1.97100 -56.8306
  1181 91.5564 2.26090 57.8282
  1182 -0.232375 -18.2452 4.65022
  1183 -0.198339 -18.2891 -4.70708
  1184 -86.8001 0.730585 -2.27882
  1185 -86.7206 0.730154 2.27720
  1186 287.168 -0.0829483 -1.27222
  1187 287.236 -0.0839975 1.27185
  1188 176.768 6.69030 -8.45376
  1189 176.807 6.66358 8.46402
  1190 -6.58258 -0.121947 25.7627
  1191 -6.60277 -0.0193736 -25.8113
  1192 0.0260432 -73.4555 -7.19620
  1193 -73.6810 0.175919 3.66626
  1194 -73.7486 0.176375 -3.67055
  1195 56.4689 -1.97288 -39.6435
  1196 56.0399 -1.61936 40.9255
  1197 334.717 -20.5137 -0.783734
  1198 95.0533 5.63122 -51.0380
  1199 95.1239 5.90502 51.5608
  1200 -40.8529 0.218766 5.61045
  1201 -40.8755 0.218580 -5.61759
  1202 1.06554 -64.4254 -12.2450
  1203 -12.5346 2.62656 -3.07980
  1204 -12.4817 2.62598 3.07969
  1205 50.0611 12.4508 5.39442
  1206 50.0124 12.4679 -5.37977
  1207 188.223 1.18293 -1.12845
  1208 188.250 1.18113 1.12863
  1209 254.198 1.30754 5.34260
  1210 254.145 1.31676 -5.34659
  1211 13.7742 -2.07955 14.2842
  1212 13.5681 -2.31546 -14.5338
  1213 2.32948 -37.0982 18.5862
  1214 455.449 61.8553 17.8608
  1215 -14.0446 -1.10506 8.85511
  1216 -14.0459 -1.10967 -8.85967
  1217 1.83804 -34.7376 -19.4240
  1218 -1.34757 -21.3410 12.9657
  1219 -1.27895 -21.1503 -13.4353
  1220 360.721 -3.92647 6.69943
  1221 0.322236 -84.0896 7.37273
  1222 2.58665 -25.5465 -21.6607
  1223 42.4797 1.51275 0.470882
  1224 42.4489 1.51178 -0.470866
  1225 -3.58854 -15.3025 23.7215
  1226 -40.0701 2.29159 -6.66942
  1227 -40.0055 2.28917 6.66609
  1228 737.938 12.8521 20.8245
  1229 -20.9428 2.40719 21.0561
  1230 -20.9936 2.40785 -21.0878
  1231 173.138 7.05440 -26.7881
  1232 173.291 6.92369 26.9500
  1233 11.1765 -17.4342 -9.47712
  1234 164.850 8.64093 -10.6987
  1235 164.894 8.60498 10.7262
  1236 6.76090 -51.4495 -3.11300
  1237 -3.59970 -15.3321 -23.6801
  1238 -28.2247 1.18575 4.00361
  1239 -28.2838 1.18610 -4.00438
  1240 -12.6940 0.909144 -24.0261
  1241 -12.6410 0.911614 23.9918
  1242 352.072 28.1113 30.2748
  1243 200.422 2.39713 -28.4510
  1244 200.661 2.33079 28.5226
  1245 -90.9725 0.220919 -0.849805
  1246 -90.8902 0.220871 0.849546
  1247 180.810 4.56625 -5.74454
  1248 180.838 4.55548 5.74628
  1249 -93.4738 -1.58270 -0.246175
  1250 -93.5564 -1.58337 0.246276
  1251 269.752 -19.2456 -32.5760
  1252 -42.7385 0.722448 11.8941
  1253 -42.7830 0.723125 -11.9103
  1254 272.490 -20.3115 32.2811
  1255 183.855 6.90519 -11.7260
  1256 183.904 6.86518 11.7402
  1257 21.4558 -51.8474 -39.3486
  1258 0.390128 -59.0633 -14.8907
  1259 -1.24776 -24.8540 22.2465
  1260 580.218 94.7250 -80.6827
  1261 -0.142154 -55.3536 14.5193
  1262 603.888 56.8885 -36.0538
  1263 -0.318589 -102.526 -6.93452
  1264 28.5500 3.04802 -1.02813
  1265 28.5866 3.04834 1.02925
  1266 -0.256730 -23.4337 4.87410
  1267 -0.207346 -23.5579 -4.86035
  1268 102.300 2.75717 0.00505236
  1269 102.307 2.75901 -0.00446324
  1270 364.287 -27.8970 25.7887
  1271 6.86768 2.85075 -3.56969
  1272 6.91339 2.85021 3.56994
  1273 2.10295 -112.732 3.42348
  1274 1.33508 -119.986 -3.38320
  1275 335.045 -42.0281 -34.8289
  1276 -0.928801 -30.5292 14.3398
  1277 349.843 22.2624 -38.0441
  1278 -1.04745 -40.2334 14.0998
  1279 0.695457 -110.391 -5.36350
  1280 168.607 5.00294 -6.23918
  1281 168.635 4.98480 6.24527
  1282 -0.124228 -59.9052 6.37056
  1283 -0.155587 -49.7983 -14.3725
  1284 797.382 137.886 119.718
  1285 317.692 0.217231 0.530072
  1286 317.608 0.217209 -0.529815
  1287 8.28568 0.505861 20.6372
  1288 8.02128 0.846048 -20.7288
  1289 -5.00405 4.55909 24.2194
  1290 -5.11839 4.56790 -24.2720
  1291 337.705 -6.31989 -22.7399
  1292 313.257 -13.1030 -12.7262
  1293 312.935 -14.9182 12.8421
  1294 46.3637 5.62563 2.81449
  1295 46.3319 5.62620 -2.81064
  1296 -51.6551 1.38616 -9.32750
  1297 -51.5919 1.38327 9.31668
  1298 349.427 -48.5772 -49.5250
  1299 -2.61531 -6.31645 6.44105
  1300 -2.62529 -6.31159 -6.43799
  1301 368.343 -16.0236 39.2248
  1302 -3.88287 -14.6072 17.4247
  1303 -3.84046 -14.6612 -17.3450
  1304 -33.1715 2.23749 4.77205
  1305 -33.2330 2.23897 -4.77353
  1306 55.3650 5.92984 -20.3018
  1307 54.8014 6.25140 20.2953
  1308 86.9361 2.62211 0.415242
  1309 86.9228 2.62027 -0.414547
  1310 -35.7992 3.57543 14.7087
  1311 -35.8596 3.58202 -14.7260
  1312 298.006 0.798600 0.823995
  1313 297.933 0.798442 -0.823658
  1314 163.589 -1.99742 102.876
  1315 243.186 0.654030 1.88650
  1316 243.137 0.655491 -1.88662
  1317 161.048 3.36698 -41.2437
  1318 161.086 3.17762 41.6175
  1319 1.53861 -65.0071 -8.89444
  1320 62.2178 14.8281 -8.32921
  1321 61.9537 15.0087 8.44227
  1322 -0.604488 -0.553928 -0.798268
  1323 -0.607533 -0.554121 0.800592
  1324 207.834 6.47027 15.2668
  1325 207.756 6.54133 -15.2538
  1326 102.962 8.60925 2.07793
  1327 102.967 8.61483 -2.06571
  1328 151.942 8.70504 -7.20622
  1329 151.968 8.68310 7.22335
  1330 199.348 1.34603 -1.89124
  1331 199.379 1.34413 1.89141
  1332 -6.35219 -3.08072 -7.27448
  1333 -6.35116 -3.07720 7.27824
  1334 -61.0775 0.109737 2.83481
  1335 -61.1486 0.109880 -2.83575
  1336 -10.8452 -4.98661 -17.8158
  1337 -10.8370 -4.96191 17.7976
  1338 -35.0191 0.629676 1.19865
  1339 -35.0797 0.629292 -1.19879
  1340 -94.4609 0.871845 0.486325
  1341 -94.5440 0.872060 -0.486389
  1342 375.924 -47.9736 67.6882
  1343 271.056 -1.70676 -31.6923
</Section>

newXOutput 45

<Section columns = "stress_xx | stress_yy | stress_xy">
  1 334.509 -0.460021 0.335127
  2 334.600 -0.460316 -0.335292
  3 -104.365 0.510897 -1.41793
  4 0.167515 0.0437460 0.296415
  5 609.277 170.765 196.188
  6 688.665 193.576 -188.246
  7 0.166810 0.0430956 -0.295479
  8 -104.276 0.510809 1.41743
  9 333.492 -0.432940 -1.10358
  10 333.752 -0.985961 -1.79418
  11 336.904 -0.973358 -0.473537
  12 337.228 -0.923814 -2.09542
  13 338.035 -0.901087 -0.637986
  14 345.110 -0.867253 -0.890304
  15 347.540 -1.27625 -2.80908
  16 350.138 -0.591070 -1.91671
  17 351.763 0.189887 -3.70074
  18 366.065 -1.96855 -3.17009
  19 372.199 -1.51322 -4.08977
  20 378.952 -2.31699 -1.57577
  21 382.155 -3.09597 -0.924197
  22 379.293 -3.58729 4.99580
  23 366.146 -4.03166 10.4879
  24 335.624 -4.55753 22.3756
  25 286.419 2.49328 26.0255
  26 245.682 2.98997 24.2925
  27 189.189 6.39777 14.7333
  28 201.374 6.22578 1.26686
  29 168.047 18.6616 -9.41213
  30 232.942 8.51366 -26.3657
  31 268.860 2.03688 -21.5910
  32 328.830 -1.01561 -18.6845
  33 361.821 -4.89112 -12.5603
  34 378.669 -4.18179 -4.97435
  35 381.380 -2.99638 0.942358
  36 378.418 -2.28577 1.47060
  37 371.979 -1.52344 3.96535
  38 365.989 -1.99479 3.09817
  39 351.791 0.174818 3.66590
  40 350.202 -0.596754 1.90351
  41 347.623 -1.27981 2.80445
  42 345.200 -0.869108 0.888104
  43 338.126 -0.902229 0.637151
  44 337.320 -0.924822 2.09614
  45 336.996 -0.974094 0.473702
  46 333.843 -0.986559 1.79512
  47 333.583 -0.433223 1.10416
  48 315.312 0.899486 -0.410584
  49 291.816 0.429747 -0.924208
  50 262.477 -0.752509 -0.946682
  51 232.086 1.04911 -0.787516
  52 205.494 0.851328 -0.628760
  53 177.063 1.77404 -0.745786
  54 149.026 3.22750 -0.461638
  55 119.944 2.90324 -0.942885
  56 95.8410 2.07724 -1.31312
  57 64.2315 1.36436 -1.38355
  58 32.1410 1.97545 -1.05222
  59 5.36510 1.62888 -1.01703
  60 -28.0259 0.967250 -0.933086
  61 -52.8512 -0.233337 -2.25112
  62 -76.8919 -1.60535 -1.03254
  63 -101.257 0.222452 0.681074
  64 -106.502 1.82769 -0.278117
  65 -106.845 0.813521 0.294428
  66 -103.278 0.414726 -0.145522
  67 -104.337 1.18032 -1.30142
  68 -102.649 1.43109 -0.149885
  69 -97.0587 0.445111 -1.99045
  70 -98.1144 0.881339 -2.13705
  71 -95.6057 0.837207 -1.21451
  72 -88.4836 0.528333 -1.81989
  73 -85.1343 0.940968 -2.98569
  74 -79.9242 1.05004 -2.45976
  75 -70.6937 0.536597 -4.22936
  76 -65.5026 0.165441 -3.53536
  77 -56.1766 0.237925 -4.07336
  78 -48.1378 0.177664 -4.50134
  79 -41.1457 0.0588195 -3.55234
  80 -31.4596 0.206669 -3.57776
  81 -23.1152 -0.0928286 -3.82397
  82 -15.0433 -0.419028 -3.35183
  83 -8.65278 -0.366751 -2.56466
  84 -4.24310 -0.639970 -2.14031
  85 -0.693562 -0.369767 -0.760389
  86 0.0593105 -0.409271 -0.268618
  87 -0.221444 -0.208232 -0.0470557
  88 -0.578634 -0.550727 -0.665501
  89 -0.561526 -3.58666 -1.85762
  90 -0.480321 -8.05850 -2.65339
  91 -0.249386 -13.7818 -3.87307
  92 -0.129998 -21.1801 -3.34080
  93 -0.111632 -27.9964 -4.20549
  94 -0.517154 -36.3341 -4.75093
  95 -0.211299 -46.6171 -4.80267
  96 0.0984718 -56.9766 -4.60303
  97 0.224987 -68.0846 -4.54413
  98 0.344184 -79.5097 -4.47324
  99 0.0267833 -87.9444 -6.05897
  100 0.595478 -99.9057 -5.42633
  101 0.727132 -113.929 -4.34967
  102 -0.0298407 -120.199 -5.77893
  103 1.02972 -130.513 -5.37185
  104 2.52036 -144.253 -2.62645
  105 4.91602 -148.077 -4.16623
  106 3.42485 -135.837 3.33181
  107 4.90766 -102.996 14.2365
  108 25.9671 -60.0371 42.0630
  109 81.9146 112.601 144.531
  110 938.632 50.0100 92.6467
  111 805.464 15.0551 33.7159
  112 779.481 5.58728 7.63503
  113 773.980 1.95187 -1.25206
  114 779.202 8.57006 -17.8009
  115 803.579 27.2285 -39.8892
  116 913.026 98.0174 -117.578
  117 195.688 87.4501 -176.476
  118 43.4076 -59.2553 -51.4334
  119 12.7439 -112.710 -19.0108
  120 3.51258 -128.726 -3.61833
  121 3.95400 -142.550 2.31922
  122 1.13019 -138.628 2.01188
  123 0.410913 -127.243 4.58170
  124 0.443136 -119.696 3.63362
  125 0.625966 -107.718 6.14607
  126 -0.0314139 -100.791 5.96481
  127 0.248205 -91.0093 4.29748
  128 0.481050 -78.5507 5.44961
  129 0.0926495 -69.6617 4.32027
  130 0.141634 -57.0519 5.45573
  131 -0.569779 -47.1771 4.68674
  132 -0.400033 -36.3652 4.60345
  133 -0.0796825 -27.8430 4.21651
  134 -0.168145 -21.0586 3.34746
  135 -0.243728 -13.7415 3.83558
  136 -0.473453 -8.05295 2.64023
  137 -0.558563 -3.59206 1.85628
  138 -0.577908 -0.556419 0.666798
  139 -0.221418 -0.210701 0.0487009
  140 0.0563250 -0.409669 0.270130
  141 -0.699232 -0.369587 0.762340
  142 -4.25182 -0.639405 2.14233
  143 -8.66457 -0.365646 2.56536
  144 -15.0530 -0.417663 3.35059
  145 -23.1184 -0.0916984 3.82028
  146 -31.4550 0.206891 3.57342
  147 -41.1302 0.0593256 3.54779
  148 -48.1124 0.178234 4.49614
  149 -56.1381 0.237835 4.06793
  150 -65.4523 0.165302 3.53031
  151 -70.6355 0.536199 4.22446
  152 -79.8553 1.04940 2.45601
  153 -85.0597 0.940275 2.98266
  154 -88.4037 0.527883 1.81804
  155 -95.5209 0.836732 1.21337
  156 -98.0276 0.880936 2.13585
  157 -96.9717 0.444944 1.98953
  158 -102.560 1.43056 0.149796
  159 -104.247 1.17992 1.30097
  160 -103.189 0.414649 0.145538
  161 -106.754 0.813293 -0.294245
  162 -106.412 1.82710 0.278080
  163 -101.169 0.222458 -0.680801
  164 -76.8130 -1.60453 1.03220
  165 -52.7816 -0.232803 2.25035
  166 -27.9659 0.967587 0.932825
  167 5.41208 1.62927 1.01674
  168 32.1775 1.97606 1.05192
  169 64.2553 1.36560 1.38315
  170 95.8522 2.07854 1.31272
  171 119.946 2.90449 0.942597
  172 149.016 3.22867 0.461421
  173 177.042 1.77556 0.745384
  174 205.461 0.852870 0.628331
  175 232.042 1.05005 0.786940
  176 262.420 -0.751320 0.946036
  177 291.746 0.429905 0.923679
  178 315.231 0.899206 0.410351
  179 87.5186 15.5168 -3.25271
  180 87.4738 15.5411 3.30595
  181 -1.76064 2.50487 25.2020
  182 -1.85480 2.49029 -25.2122
  183 199.920 -2.79481 -44.4769
  184 199.797 -3.18543 44.9562
  185 39.6767 9.02933 -1.48807
  186 39.2038 9.20393 1.50762
  187 28.6771 5.23471 -4.05821
  188 28.7179 5.23261 4.06020
  189 189.445 3.86825 -6.47109
  190 189.478 3.85319 6.47388
  191 -3.65942 7.69347 13.8296
  192 -3.72552 7.70895 -13.8398
  193 220.145 5.83771 -16.7750
  194 220.249 5.75228 16.7934
  195 -8.59758 -7.49022 19.8787
  196 -8.59482 -7.53360 -19.9031
  197 1.93295 -17.9886 -23.8434
  198 68.2273 3.31042 -40.6138
  199 2.38082 -19.2311 23.2873
  200 67.1341 3.86681 41.2817
  201 312.142 -42.4287 -64.5905
  202 323.108 -44.1088 61.9329
  203 111.871 3.99029 -0.929248
  204 111.867 3.98702 0.931552
  205 -18.4320 1.37206 -2.75966
  206 -18.3753 1.37216 2.75930
  207 -25.0501 3.80228 19.3117
  208 -25.1103 3.80986 -19.3400
  209 112.435 10.5813 -3.00312
  210 112.433 10.5755 3.02039
  211 34.1542 14.3738 9.63444
  212 34.0221 14.4608 -9.65944
  213 -32.2902 3.47738 -8.07867
  214 -32.2253 3.47316 8.07393
  215 252.134 0.561522 3.11184
  216 252.082 0.565090 -3.11281
  217 8.02503 -33.8845 10.2981
  218 8.72631 -30.7282 -9.16457
  219 -2.37485 -21.1582 22.4439
  220 -2.42638 -21.9690 -21.7339
  221 103.888 15.0797 -17.5799
  222 103.799 15.1508 17.7697
  223 -22.5634 -0.0980684 19.4035
  224 -22.5976 -0.100694 -19.4296
  225 269.737 1.72374 -9.22996
  226 269.798 1.69915 9.21659
  227 290.188 -4.09401 -18.1883
  228 290.412 -4.39103 18.1036
  229 463.100 35.5861 -0.195213
  230 424.842 47.1230 26.1729
  231 419.256 -4.09725 -38.5229
  232 50.9478 11.5935 5.14339
  233 50.9042 11.6065 -5.13161
  234 3.36107 9.42093 19.4253
  235 3.27734 9.44896 -19.4475
  236 324.140 -19.6236 -12.0170
  237 322.250 -19.8666 13.0561
  238 179.142 1.81011 -2.33994
  239 179.165 1.80619 2.34037
  240 -40.1178 2.83193 12.9056
  241 -40.1822 2.83788 -12.9201
  242 -5.48980 -5.40345 -8.92535
  243 -5.48499 -5.40021 8.93108
  244 -44.6533 1.13096 4.11995
  245 -44.7207 1.13164 -4.12130
  246 147.170 11.2168 -11.0680
  247 147.201 11.1880 11.1116
  248 187.321 5.79786 -25.2926
  249 187.473 5.69400 25.4041
  250 44.8635 3.07761 -0.367563
  251 44.8952 3.07825 0.368557
  252 108.039 0.302549 -88.5819
  253 127.958 3.45923 96.6677
  254 14.4532 6.59518 18.5403
  255 14.3885 6.74239 -18.6136
  256 441.225 -34.7327 -7.88543
  257 38.0346 14.5402 8.35643
  258 37.9633 14.5735 -8.34769
  259 105.892 11.2671 -33.0765
  260 105.696 11.5527 33.4504
  261 492.781 68.8313 -5.41750
  262 292.529 0.303304 12.4934
  263 292.439 0.394727 -12.5426
  264 -2.65264 -16.3531 -14.0129
  265 -2.57744 -16.4189 14.0687
  266 -0.581790 -38.9034 -19.3239
  267 1.28148 -45.5486 -17.8973
  268 0.674797 -45.5215 18.7116
  269 -7.35661 -6.39087 25.6042
  270 -7.38707 -6.37952 -25.7025
  271 15.5458 -36.5342 -6.16565
  272 16.7187 -33.7092 8.77950
  273 -16.8814 -1.42580 12.3075
  274 -16.8900 -1.43213 -12.3185
  275 207.857 5.98294 -10.4076
  276 207.913 5.94714 10.4110
  277 364.183 -37.8108 -2.40341
  278 80.1440 7.05424 -0.382485
  279 80.1618 7.05545 0.388276
  280 -0.964294 -36.4983 18.4670
  281 7.39717 7.55226 8.97324
  282 7.34101 7.56233 -8.97485
  283 579.685 40.6200 -15.2323
  284 283.877 0.300603 3.82540
  285 283.813 0.305974 -3.82889
  286 189.922 -9.30105 -66.9645
  287 191.611 -9.14475 68.0121
  288 363.702 -35.8341 -3.57358
  289 -34.5706 1.06557 15.3446
  290 -34.6125 1.06604 -15.3658
  291 356.304 -29.7887 109.673
  292 -15.4201 2.53929 23.2738
  293 -15.4761 2.53698 -23.3110
  294 59.9535 16.4946 -4.19533
  295 59.7237 16.6522 4.27152
  296 -63.5839 0.542352 0.747422
  297 -63.6578 0.542236 -0.747530
  298 300.137 4.91847 -149.608
  299 -59.3976 1.21095 -6.98216
  300 -59.3263 1.20869 6.97589
  301 -1.75058 -7.54215 26.1660
  302 -0.868571 -7.36080 -25.9130
  303 131.747 13.5737 -16.0512
  304 131.761 13.5630 16.1608
  305 28.3910 3.55502 3.04473
  306 28.3519 3.55522 -3.04390
  307 137.240 5.51193 -3.22992
  308 137.249 5.50474 3.23441
  309 12.8454 -10.0153 13.8153
  310 11.7057 -11.9682 -13.9707
  311 133.213 2.58002 -0.768323
  312 133.217 2.57776 0.768914
  313 -48.6955 1.26786 11.2655
  314 -48.7500 1.26988 -11.2807
  315 33.1864 -3.47551 -7.80534
  316 32.1892 -3.51502 6.92846
  317 296.161 -0.167274 1.06675
  318 296.089 -0.166574 -1.06663
  319 647.248 36.9938 25.2471
  320 66.5498 9.09153 2.07784
  321 66.5226 9.09410 -2.06820
  322 -14.5071 3.31677 5.67224
  323 -14.5647 3.31955 -5.67367
  324 91.7512 12.6307 -2.02009
  325 91.7310 12.6337 2.05013
  326 10.6267 9.53368 20.1678
  327 10.5571 9.55682 -20.2108
  328 1.37517 -65.7053 13.1696
  329 -65.7907 0.164581 -1.68860
  330 -65.7158 0.164759 1.68820
  331 225.866 0.789974 -2.02850
  332 225.908 0.787862 2.02838
  333 237.865 1.76708 -5.38030
  334 237.913 1.75674 5.37752
  335 -61.2342 1.07114 -5.08985
  336 -61.1606 1.06997 5.08705
  337 -1.55923 1.24923 0.663033
  338 -1.60900 1.24878 -0.662919
  339 -1.36986 -26.9506 13.9926
  340 -1.09001 -28.0311 -13.9737
  341 267.576 -22.3222 -45.1657
  342 277.983 -26.6852 44.3228
  343 158.815 7.93966 -6.83139
  344 158.839 7.92134 6.84248
  345 69.7438 16.4782 -2.08096
  346 69.6313 16.5496 2.14125
  347 -24.8318 4.77064 11.4592
  348 -24.8964 4.77903 -11.4686
  349 498.977 8.46040 12.0087
  350 26.2152 -39.2205 -29.1404
  351 28.0373 -36.6277 30.5455
  352 -10.7000 7.64522 18.2910
  353 -10.7713 7.66235 -18.3126
  354 -13.8189 -2.80632 22.6623
  355 -13.8523 -2.81211 -22.7002
  356 565.243 94.0276 -25.8630
  357 362.348 -5.45348 46.8764
  358 338.745 -7.91318 -8.16821
  359 338.426 -7.72967 7.60863
  360 237.138 -2.70607 -28.7504
  361 236.871 -2.94956 28.7586
  362 0.442021 -79.1449 -10.6630
  363 310.234 0.808019 -7.01503
  364 310.294 0.782136 6.98836
  365 4.00933 -74.5282 8.40528
  366 357.951 27.9541 -25.5259
  367 87.4381 3.16060 1.09866
  368 87.4236 3.15946 -1.09860
  369 238.557 1.86104 -21.3525
  370 238.716 1.73215 21.3744
  371 257.243 2.22424 -12.9557
  372 257.317 2.16714 12.9376
  373 -5.14163 2.93482 3.84247
  374 -5.19440 2.93590 -3.84263
  375 147.283 8.16759 -34.0539
  376 147.333 8.25553 34.3750
  377 305.249 -0.0940345 1.74863
  378 305.174 -0.0927174 -1.74915
  379 172.539 9.60370 -17.1386
  380 172.611 9.54198 17.2034
  381 199.504 3.25566 4.37059
  382 199.471 3.26272 -4.37051
  383 -9.53752 -1.72528 7.58453
  384 -9.53657 -1.72967 -7.58443
  385 -2.26439 -1.61004 -2.20210
  386 -2.26548 -1.61091 2.20552
  387 406.827 -51.2976 28.5286
  388 -5.33087 -12.8251 20.7123
  389 -5.29550 -12.9331 -20.7128
  390 65.8926 4.44242 -1.40743
  391 65.9160 4.44359 1.40991
  392 -2.02387 -10.1206 7.61535
  393 -2.04666 -10.1039 -7.61615
  394 25.2165 11.5551 9.81062
  395 25.1557 11.5754 -9.80854
  396 332.634 -1.35088 9.25755
  397 332.552 -1.22658 -9.42658
  398 -0.839083 -19.8272 24.9475
  399 -27.3425 -0.502098 11.6597
  400 -27.3608 -0.504399 -11.6738
  401 -0.944397 -20.9356 -24.6665
  402 312.314 0.146022 4.46633
  403 312.244 0.153712 -4.47491
  404 -3.03294 6.87167 22.9586
  405 -3.13147 6.89447 -22.9966
  406 230.625 3.55391 -8.59237
  407 230.675 3.53197 8.58781
  408 354.484 -15.2128 -7.93418
  409 355.670 -12.2639 5.99467
  410 -0.729239 -36.7285 -15.3406
  411 31.6504 11.7166 -6.99582
  412 31.9116 11.5831 6.96645
  413 351.682 23.0636 15.9724
  414 200.432 -11.0306 -92.7442
  415 205.816 -14.7758 97.1140
  416 11.7483 10.9795 14.9420
  417 11.6746 11.0054 -14.9516
  418 147.676 4.19805 -2.20970
  419 147.687 4.19360 2.21128
  420 143.421 22.4912 147.630
  421 59.2055 14.0143 -3.78235
  422 59.2582 13.9910 3.80419
  423 3.64112 -35.0609 16.8780
  424 -0.446943 -59.7184 -13.3321
  425 23.3752 13.4427 13.9329
  426 23.2877 13.4823 -13.9453
  427 28.8205 7.86382 -5.99345
  428 28.8657 7.85729 5.99661
  429 -10.0806 -0.538323 -25.5634
  430 -10.0254 -0.552436 25.5226
  431 70.9033 13.9423 -13.3620
  432 70.6032 14.1573 13.5187
  433 355.919 -11.5369 -35.3749
  434 9.95259 -3.64767 19.8375
  435 9.62128 -3.55085 -19.9553
  436 259.116 -11.0911 -31.7721
  437 260.208 -11.8879 31.7166
  438 -64.8953 0.524490 -6.79363
  439 -64.8276 0.522875 6.78576
  440 0.00349585 -58.6327 11.9913
  441 -0.422976 -37.2318 13.6565
  442 -26.4161 1.69568 19.6400
  443 -26.4610 1.69539 -19.6679
  444 185.712 1.71235 -0.836229
  445 185.737 1.71019 0.836119
  446 -5.58635 -8.82116 14.0673
  447 -5.59530 -8.84094 -14.0520
  448 115.516 5.86279 -49.5790
  449 115.295 6.39537 50.1630
  450 0.962090 -71.0598 -13.2311
  451 646.176 23.1288 0.529224
  452 1.78405 -84.0725 -7.68628
  453 -76.8077 0.00485491 -2.48592
  454 -76.7283 0.00488609 2.48503
  455 -29.5110 4.15131 16.0742
  456 -29.5753 4.16017 -16.0946
  457 -34.3740 0.487956 11.7140
  458 -34.4019 0.487915 -11.7289
  459 126.418 13.1270 -10.8204
  460 126.427 13.1212 10.8876
  461 191.457 7.71965 -13.2641
  462 191.522 7.66728 13.2872
  463 -3.29205 -12.0330 25.7831
  464 -3.29640 -11.9534 -25.8905
  465 332.096 5.53119 -44.6537
  466 22.6158 -5.94884 -3.97684
  467 21.8303 -6.13837 4.37939
  468 5.25411 -75.8096 -0.790864
  469 3.35678 -87.9919 -1.61710
  470 -10.1565 -4.54935 14.4819
  471 -10.1605 -4.56557 -14.4875
  472 70.4637 -6.84538 -76.5420
  473 510.292 -0.576278 -49.8141
  474 115.116 7.56062 2.98966
  475 115.116 7.56720 -2.97992
  476 167.381 1.69759 -47.7642
  477 167.772 1.64570 48.4976
  478 48.9896 17.1423 5.47636
  479 48.8989 17.1979 -5.45897
  480 151.124 11.3191 -24.9950
  481 151.196 11.2591 25.1861
  482 5.44779 2.95887 23.4037
  483 5.78179 3.12713 -23.3753
  484 -68.0655 1.00907 -5.02574
  485 -67.9903 1.00801 5.02207
  486 333.418 -39.0439 -25.5767
  487 265.075 0.195074 -1.47023
  488 265.133 0.194117 1.47039
  489 13.8725 1.92866 -1.64739
  490 13.9165 1.92907 1.64772
  491 -17.1935 6.18124 15.0177
  492 -17.2606 6.19403 -15.0326
  493 -38.7258 2.37450 -5.50017
  494 -38.6599 2.37237 5.49780
  495 115.116 11.3463 -4.71157
  496 115.116 11.3385 4.73775
  497 -13.9482 5.30270 21.1068
  498 -14.0186 5.31591 -21.1395
  499 305.317 -8.56339 -16.9571
  500 305.828 -8.99885 16.7047
  501 199.938 2.17829 -31.7707
  502 199.644 2.03173 32.0472
  503 74.2299 3.56594 -0.803150
  504 74.2497 3.56730 0.804169
  505 0.780674 -36.4253 -21.1357
  506 357.758 -13.0367 29.0412
  507 4.86136 -24.0338 -19.1721
  508 101.428 16.2796 11.0031
  509 101.487 16.2361 -10.8908
  510 329.772 -36.5332 25.2487
  511 25.0582 -34.1982 40.1758
  512 392.863 -50.9312 -50.5792
  513 267.539 1.14341 15.5959
  514 267.426 1.25273 -15.6198
  515 0.732742 -31.1694 21.9930
  516 -5.23596 -1.56373 -4.05239
  517 -5.23844 -1.56304 4.05547
  518 32.4677 1.81175 -0.497861
  519 32.5041 1.81250 0.498075
  520 -0.906208 -20.7979 8.98389
  521 -0.822219 -20.7005 -9.02975
  522 220.430 2.31387 3.47125
  523 220.391 2.31763 -3.47165
  524 621.374 109.205 45.9073
  525 25.6324 -15.9995 -7.79139
  526 19.9385 -21.5064 3.62597
  527 -6.43245 4.76575 -7.51774
  528 -6.37531 4.76018 7.51540
  529 -53.7624 0.850327 7.03480
  530 -53.8080 0.851280 -7.04411
  531 0.534767 -66.6238 13.1801
  532 -75.5527 0.669259 0.705170
  533 -75.6313 0.669286 -0.705252
  534 67.9686 -4.94640 -56.2192
  535 66.4552 -3.78096 58.4164
  536 62.2147 10.8715 -19.1471
  537 61.7447 11.1567 19.2856
  538 -14.4473 -3.03711 19.8210
  539 -14.4685 -3.04954 -19.8489
  540 61.1667 5.62232 1.48265
  541 61.1405 5.62202 -1.47889
  542 -31.8555 1.50782 2.38069
  543 -31.9177 1.50813 -2.38105
  544 72.1990 10.6756 1.58396
  545 72.1707 10.6811 -1.56791
  546 -1.45254 -4.71733 3.46365
  547 -1.45751 -4.71302 -3.46295
  548 26.1885 11.3014 12.5155
  549 26.0145 11.4622 -12.5711
  550 21.1579 3.33383 11.0454
  551 20.8557 3.30520 -11.2179
  552 270.942 1.93993 6.57453
  553 270.882 1.95087 -6.58050
  554 239.619 3.25383 10.4811
  555 239.559 3.28849 -10.4891
  556 -0.246566 -56.3205 -8.31460
  557 167.662 8.53540 -10.1291
  558 167.699 8.50627 10.1493
  559 168.140 4.00584 -3.76868
  560 168.161 3.99754 3.77101
  561 -23.0418 0.863514 -0.0179021
  562 -22.9837 0.863887 0.0180704
  563 286.275 15.5985 -8.59718
  564 376.539 -47.9622 -18.3118
  565 308.776 14.1856 33.8470
  566 2.50890 -48.1818 -15.4887
  567 -16.6585 5.30558 -9.90837
  568 -16.5963 5.29812 9.90278
  569 2.63296 -27.9724 20.7943
  570 -16.6899 0.463585 22.7196
  571 -16.7341 0.461676 -22.7518
  572 480.317 46.1537 -0.473839
  573 109.355 5.18325 -1.31946
  574 109.350 5.17935 1.32328
  575 728.885 61.7611 -63.4240
  576 -3.60030 -2.81065 26.5290
  577 -3.35627 -2.61928 -26.5519
  578 397.934 -35.6834 16.1705
  579 320.506 0.310543 -7.80939
  580 320.560 0.268025 7.76168
  581 147.022 -0.333587 -69.4156
  582 148.784 -0.774828 70.5211
  583 -8.22591 -7.90188 22.9468
  584 -8.23363 -7.94241 -23.0057
  585 77.1243 6.59675 36.6476
  586 77.7723 6.01182 -36.3320
  587 -62.9356 0.726623 -6.62073
  588 -62.8733 0.725445 6.61248
  589 469.123 39.4882 27.6756
  590 89.2944 8.32811 0.318967
  591 89.3085 8.32991 -0.309866
  592 105.413 13.0889 -25.0765
  593 105.274 13.2484 25.3574
  594 289.790 -0.563241 -15.2793
  595 289.934 -0.711769 15.2319
  596 -1.30198 -29.4185 -20.6559
  597 315.433 -0.364246 2.33657
  598 315.355 -0.362392 -2.33767
  599 -45.9241 0.934648 -0.937963
  600 -45.8570 0.934715 0.937949
  601 -81.0320 -0.554702 0.0273413
  602 -81.1126 -0.555103 -0.0272992
  603 6.72527 -44.2925 -7.30530
  604 -2.95879 -19.0899 17.6866
  605 -3.12074 -18.0617 -17.8052
  606 -35.8355 2.21058 16.3669
  607 -35.8869 2.21397 -16.3895
  608 220.397 5.47561 13.2186
  609 220.329 5.52917 -13.2168
  610 162.205 2.17947 0.892504
  611 162.190 2.18127 -0.892273
  612 36.6068 -10.2878 23.1139
  613 37.7849 -9.50516 -22.8943
  614 -1.13380 -14.5002 7.58651
  615 -1.16848 -14.4538 -7.61193
  616 377.998 24.9367 159.501
  617 -18.6923 -0.577787 7.03263
  618 -18.6931 -0.580424 -7.03819
  619 6.69216 -26.8554 -15.4572
  620 158.682 6.39145 -5.20188
  621 158.702 6.37933 5.20783
  622 77.6723 16.4719 -8.05917
  623 77.5248 16.5724 8.16954
  624 0.764009 -100.535 5.32247
  625 58.2362 16.1288 3.28520
  626 58.1697 16.1662 -3.25896
  627 -6.34461 6.64066 11.9061
  628 -6.40731 6.65189 -11.9132
  629 -0.450998 -49.6733 11.3553
  630 -80.7852 0.0904454 -2.47585
  631 -80.7043 0.0903093 2.47474
  632 104.330 2.85558 0.322303
  633 104.338 2.85802 -0.321045
  634 264.051 0.817583 4.35020
  635 263.994 0.822998 -4.35229
  636 232.884 -16.2718 121.818
  637 187.248 4.75897 -7.96878
  638 187.285 4.73756 7.97418
  639 3.00357 -3.95741 24.5530
  640 3.68643 -2.29016 -24.5129
  641 299.421 -30.2833 -98.5844
  642 707.159 24.3724 -26.3817
  643 -74.2966 0.0633568 -4.58367
  644 -74.2233 0.0626201 4.57911
  645 17.6855 3.99845 -3.58387
  646 17.7295 3.99715 3.58471
  647 -1.39994 -31.1748 18.2369
  648 405.230 23.8254 -41.6364
  649 311.930 -0.519808 0.401331
  650 311.850 -0.519367 -0.401183
  651 -20.0658 -1.09898 -16.3544
  652 -20.0455 -1.09400 16.3345
  653 -0.0584846 -70.6162 -10.9156
  654 317.311 -0.545389 0.897504
  655 317.228 -0.544828 -0.897318
  656 29.0213 10.0530 8.30325
  657 28.9688 10.0662 -8.29933
  658 241.663 -21.0217 -64.6437
  659 246.060 -20.9405 65.3706
  660 353.487 -2.22503 5.33751
  661 353.569 -2.20042 -5.57064
  662 1.54673 -89.0720 8.56200
  663 -19.4601 0.665038 -1.38721
  664 -19.4032 0.665469 1.38715
  665 115.800 10.0989 -115.639
  666 108.562 2.55498 0.832713
  667 108.568 2.55648 -0.832154
  668 53.3372 4.05079 0.690521
  669 53.3087 4.05011 -0.688769
  670 63.4688 7.06095 -1.13331
  671 63.4951 7.06045 1.13978
  672 206.415 5.88444 -20.4413
  673 206.540 5.78537 20.4925
  674 54.6354 15.9542 0.866417
  675 54.4741 16.0658 -0.834360
  676 -37.4718 2.79976 -9.36410
  677 -37.4053 2.79473 9.35693
  678 -43.5540 2.99896 -10.6424
  679 -43.4873 2.99374 10.6318
  680 363.200 -5.49115 -1.16066
  681 0.372790 -14.7585 -25.0704
  682 363.782 -5.76010 0.641383
  683 461.342 36.2681 -0.394687
  684 -45.5919 0.213056 8.00051
  685 -45.6272 0.213015 -8.01130
  686 47.5035 13.6641 -2.46842
  687 47.1655 13.8361 2.51095
  688 -86.7946 0.0781798 -0.898535
  689 -86.7115 0.0782465 0.898307
  690 0.650684 -13.2904 25.1206
  691 -28.5460 0.389246 17.2252
  692 -28.5831 0.388129 -17.2486
  693 398.563 -33.4594 -17.7101
  694 62.7870 1.67890 -0.403255
  695 62.7627 1.67771 0.403796
  696 14.3319 5.89630 5.95792
  697 14.2834 5.90070 -5.95699
  698 210.559 -9.64787 -54.0253
  699 212.164 -10.0269 55.0864
  700 736.743 52.1135 57.7994
  701 14.1473 -67.9297 -23.9665
  702 -5.31286 -11.1821 24.5485
  703 -5.32270 -11.2263 -24.6028
  704 44.2835 9.95085 -4.55060
  705 44.3243 9.94293 4.55830
  706 326.161 -0.454822 -2.38305
  707 326.242 -0.456950 2.38048
  708 155.005 2.74676 1.53748
  709 154.991 2.75035 -1.53677
  710 12.8047 11.4027 18.0104
  711 12.7212 11.4377 -18.0336
  712 7.78792 2.98033 2.52499
  713 7.74117 2.98065 -2.52472
  714 -9.21314 2.17952 25.0980
  715 -9.27920 2.17997 -25.1464
  716 267.942 -0.142993 1.82772
  717 267.883 -0.141169 -1.82808
  718 231.812 2.11399 4.95502
  719 231.767 2.12057 -4.95620
  720 31.0747 -20.4535 27.8405
  721 31.9884 -21.8981 -26.8992
  722 -18.0443 3.90958 21.8882
  723 -18.1062 3.91494 -21.9233
  724 9.59971 -22.1928 12.2084
  725 0.747624 6.88690 23.1572
  726 0.644112 6.90690 -23.1818
  727 -51.4939 1.49083 -6.23408
  728 -51.4237 1.48876 6.22992
  729 40.3798 13.0827 7.72381
  730 40.3184 13.1064 -7.71308
  731 358.813 -10.9128 -19.7388
  732 339.883 -29.6738 -8.34164
  733 -5.49764 -11.2434 17.3916
  734 -5.49043 -11.2962 -17.3694
  735 131.783 -0.835755 -81.9326
  736 128.334 2.00406 82.7383
  737 80.1857 15.3141 -12.5273
  738 79.9870 15.4655 12.6864
  739 6.95998 -13.0407 20.1399
  740 -0.492400 -36.7642 -9.87212
  741 167.729 9.30381 -19.0905
  742 167.815 9.24399 19.1889
  743 0.437573 -72.3075 9.15213
  744 99.9447 13.9180 -4.95220
  745 99.9248 13.9230 4.99804
  746 342.560 -0.298022 -5.91788
  747 342.574 -0.340817 5.83470
  748 6.73001 -97.9486 2.06033
  749 154.396 11.6125 14.3842
  750 154.351 11.6492 -14.3227
  751 41.7039 14.6918 -4.59052
  752 41.9174 14.5416 4.57986
  753 -61.9601 0.410012 -5.58465
  754 -61.9059 0.409469 5.57698
  755 171.405 3.06341 -3.31026
  756 171.426 3.05800 3.31142
  757 105.637 15.3026 -9.21589
  758 105.606 15.3210 9.29893
  759 0.669580 9.26887 17.9253
  760 0.593390 9.29287 -17.9435
  761 340.922 -25.3770 4.19737
  762 -53.2275 1.18502 4.75018
  763 -53.2983 1.18589 -4.75214
  764 735.700 142.457 -101.110
  765 -20.2357 2.11217 4.99878
  766 -20.2945 2.11337 -4.99992
  767 290.116 0.879534 10.8580
  768 290.047 0.932547 -10.8936
  769 538.906 33.9737 0.369207
  770 328.601 -0.910559 -4.50630
  771 328.670 -0.918487 4.49481
  772 209.917 3.14894 6.21892
  773 209.878 3.16008 -6.21934
  774 314.070 -35.7643 89.8395
  775 136.264 10.1074 -5.33133
  776 136.278 10.0936 5.34945
  777 3.10814 -54.7366 11.3207
  778 360.334 -45.4371 29.3097
  779 218.722 0.679679 1.06856
  780 218.684 0.681265 -1.06852
  781 286.855 0.157129 0.569703
  782 286.787 0.157553 -0.569603
  783 -1.29542 -29.0709 -17.0601
  784 1.73923 -49.5972 16.6502
  785 129.086 14.4150 19.9835
  786 129.082 14.4105 -19.8174
  787 729.211 7.31411 6.31458
  788 222.280 2.00668 -25.5385
  789 222.444 1.88781 25.6024
  790 -46.1992 1.53265 12.2544
  791 -46.2604 1.53639 -12.2693
  792 9.40423 -40.0769 3.58870
  793 6.09308 -91.3774 -6.34166
  794 506.852 65.5999 -7.82261
  795 -0.445771 -36.6583 8.91027
  796 10.2738 7.32179 20.8290
  797 10.2406 7.31974 -20.9219
  798 67.7148 13.4591 2.09625
  799 67.6763 13.4743 -2.07456
  800 338.337 -15.4684 -5.26767
  801 338.967 -15.2944 4.09527
  802 398.460 57.1703 -151.049
  803 -54.7787 0.623870 -2.18225
  804 -54.7078 0.623741 2.18168
  805 -25.6534 -0.106743 6.62718
  806 -25.6597 -0.107850 -6.63424
  807 24.5124 1.78514 6.45295
  808 23.9942 1.75674 -6.50148
  809 256.493 -1.34102 22.9944
  810 256.298 -1.11978 -22.9483
  811 130.600 3.56592 -0.821183
  812 130.604 3.56267 0.822431
  813 413.903 -6.61793 38.2385
  814 43.5439 7.06182 -4.05818
  815 43.5806 7.05876 4.06305
  816 40.5838 5.34047 -6.51073
  817 40.2174 5.53636 6.61099
  818 -0.152452 -28.7693 -22.9473
  819 585.329 89.4472 82.8416
  820 -84.8331 0.0955268 -2.46935
  821 -84.7512 0.0953736 2.46783
  822 -0.126647 -88.1104 8.63514
  823 6.16340 -12.8864 -20.3687
  824 -12.7415 -0.781602 4.92851
  825 -12.7360 -0.783579 -4.93003
  826 467.696 26.7953 -26.6520
  827 121.588 12.1511 -6.70432
  828 121.593 12.1425 6.74484
  829 320.977 -4.63011 -11.5818
  830 321.262 -4.68311 11.4002
  831 -81.0817 0.620734 3.28350
  832 -81.1602 0.621409 -3.28634
  833 -0.575786 -0.596474 -0.488435
  834 -0.576948 -0.597552 0.490373
  835 0.270066 -90.1212 -8.44615
  836 0.415354 -94.8677 -7.67169
  837 -89.4506 0.864472 0.494782
  838 -89.5345 0.864645 -0.494870
  839 48.7952 -15.2653 -53.8499
  840 198.905 2.50274 -1.80802
  841 198.935 2.50014 1.80789
  842 -6.54853 1.65900 0.634545
  843 -6.60021 1.65873 -0.634634
  844 295.630 0.846645 -7.20524
  845 295.694 0.828566 7.18932
  846 -33.7280 0.227960 6.30318
  847 -33.7428 0.227991 -6.31063
  848 178.859 1.75365 -123.096
  849 308.672 -26.3552 25.0377
  850 242.221 1.15026 -2.25594
  851 242.269 1.14804 2.25543
  852 305.846 -28.6730 -27.9744
  853 95.4215 10.7294 -1.82042
  854 95.4077 10.7275 1.84145
  855 131.880 8.74827 -4.03880
  856 131.889 8.73812 4.05046
  857 358.801 -7.67814 15.0700
  858 21.9762 12.9337 14.8762
  859 21.8811 12.9831 -14.9073
  860 22.5377 1.62459 1.18923
  861 22.4973 1.62389 -1.18901
  862 169.099 2.25719 1.52344
  863 169.081 2.25986 -1.52311
  864 443.111 -41.1921 49.7473
  865 277.383 1.63805 -9.43132
  866 277.450 1.60425 9.40987
  867 3.96874 4.23539 4.71552
  868 3.91843 4.23768 -4.71537
  869 278.130 -0.261046 2.66085
  870 278.067 -0.258760 -2.66159
  871 -51.8112 0.335383 -1.38582
  872 -51.7420 0.335705 1.38541
  873 -0.245455 -28.0553 7.94241
  874 -0.322319 -28.4943 -8.00366
  875 333.313 -4.73228 36.0085
  876 -20.2854 5.14771 18.4936
  877 -20.3518 5.15970 -18.5183
  878 -0.113994 -46.2276 -8.77887
  879 131.887 4.98193 -2.06645
  880 131.892 4.97750 2.06914
  881 242.858 -12.2501 -41.1995
  882 244.746 -13.5511 41.6052
  883 -10.4594 -3.68684 -24.6559
  884 -10.4140 -3.68770 24.6060
  885 13.2188 11.5169 16.5359
  886 13.1385 11.5482 -16.5501
  887 1.16423 -105.780 6.03292
  888 3.34807 8.97937 21.1780
  889 3.25960 9.00414 -21.2034
  890 224.240 -3.97994 -36.6177
  891 223.756 -4.16474 36.9104
  892 387.661 21.2396 43.2249
  893 88.8990 9.99833 0.675834
  894 88.9152 9.99967 -0.661715
  895 284.738 1.79035 -7.06367
  896 284.800 1.77615 7.05366
  897 -11.1736 -4.88111 21.6475
  898 -11.1942 -4.89962 -21.6859
  899 0.983913 -109.056 -4.03271
  900 -17.1828 -1.16306 21.2364
  901 -17.2155 -1.16603 -21.2668
  902 10.8069 10.4150 -12.9959
  903 10.8736 10.3939 12.9898
  904 -0.877023 -7.04280 3.90148
  905 -0.886884 -7.03559 -3.90725
  906 24.2295 11.7350 -11.6546
  907 24.2990 11.7089 11.6542
  908 5.17481 -8.58003 22.7031
  909 4.49770 -7.98605 -23.8515
  910 276.173 -7.82063 23.4232
  911 275.511 -7.43804 -23.5623
  912 -91.2254 0.266473 -0.726624
  913 -91.1407 0.266496 0.726472
  914 -7.82546 -0.708085 3.70359
  915 -7.81833 -0.709285 -3.70244
  916 0.376143 -65.7393 -8.01149
  917 -8.43097 -3.62302 -10.5522
  918 -8.42826 -3.61419 10.5532
  919 -35.6020 3.00496 15.7464
  920 -35.6615 3.01112 -15.7675
  921 85.9112 16.5872 -5.01886
  922 85.8483 16.6332 5.08693
  923 366.260 28.9710 -6.85601
  924 -4.27897 8.26070 16.2928
  925 -4.34943 8.27912 -16.3078
  926 135.796 8.56585 -38.3073
  927 135.811 8.68997 38.7453
  928 -16.3302 5.77115 13.1325
  929 -16.3954 5.78278 -13.1439
  930 444.751 -22.2586 -8.11352
  931 267.089 10.6364 18.7051
  932 322.688 -4.14782 -32.5689
  933 241.706 3.31071 -15.5770
  934 241.800 3.23118 15.5720
  935 -25.7789 3.47132 -6.48260
  936 -25.7169 3.46763 6.47973
  937 -57.8496 1.04957 7.87455
  938 -57.9180 1.05194 -7.88302
  939 -3.48541 -11.2520 -12.2488
  940 -3.46140 -11.2622 12.2714
  941 85.3776 5.63988 0.345020
  942 85.3925 5.64190 -0.340887
  943 -27.0595 2.79588 19.5092
  944 -27.1121 2.79846 -19.5383
  945 290.146 -0.0999360 3.49898
  946 290.079 -0.0971925 -3.50029
  947 -2.19882 -24.7383 18.5657
  948 10.6376 9.57217 -11.1755
  949 10.6988 9.55640 11.1721
  950 14.6995 6.67739 7.37287
  951 14.6485 6.68430 -7.37250
  952 49.6528 4.73130 -1.88406
  953 49.6833 4.73129 1.88613
  954 545.463 67.8406 -13.5432
  955 -2.14634 -0.593141 -1.46219
  956 -2.15096 -0.593129 1.46487
  957 18.6055 5.16609 -14.0776
  958 18.9218 5.01112 14.0232
  959 194.956 7.90911 -16.3252
  960 195.039 7.84072 16.3612
  961 24.7896 8.40037 -7.05158
  962 24.8391 8.39159 7.05421
  963 53.1800 -14.0904 71.8514
  964 367.475 -2.60228 -2.96951
  965 366.910 -2.50394 2.62237
  966 64.7913 -7.26154 62.5220
  967 67.9842 3.05408 -0.146415
  968 67.9619 3.05307 0.147270
  969 177.453 -6.45058 -106.395
  970 133.864 2.41418 0.839798
  971 133.860 2.41579 -0.839394
  972 16.9221 -17.8607 3.97887
  973 18.7013 -15.0312 -2.56870
  974 325.684 -0.326440 1.20691
  975 325.598 -0.325888 -1.20672
  976 -26.7948 0.0811897 15.6391
  977 -26.8222 0.0797733 -15.6586
  978 583.774 72.9459 32.3858
  979 -2.52279 -18.5747 -24.5060
  980 2.84560 -93.0470 10.1907
  981 -0.451286 -29.4710 22.6166
  982 336.682 -0.222113 -4.59864
  983 336.740 -0.233769 4.57820
  984 -4.45351 -8.14679 10.5794
  985 -4.46542 -8.14670 -10.5686
  986 419.111 43.5098 -24.1811
  987 739.934 6.55944 -4.24339
  988 -1.09455 -1.64215 -1.59139
  989 -1.09338 -1.64564 1.59369
  990 195.315 2.35924 -3.51480
  991 195.345 2.35468 3.51502
  992 -2.59210 -17.8588 24.6350
  993 271.969 1.30746 13.9217
  994 271.883 1.38677 -13.9501
  995 357.194 -23.7786 -14.8370
  996 -12.4918 -2.61918 11.9394
  997 -12.4960 -2.62880 -11.9451
  998 5.80161 -23.5254 17.6445
  999 -0.587794 -44.3660 17.7500
  1000 -0.0512227 -45.8619 8.76442
  1001 364.810 24.0028 -2.08952
  1002 418.145 45.8403 13.9165
  1003 299.601 -34.5996 -49.4792
  1004 4.25427 -43.4839 14.2691
  1005 5.40262 -62.6223 3.36244
  1006 82.9089 2.15559 0.267140
  1007 82.8926 2.15435 -0.267018
  1008 -3.32711 -3.79166 -5.04200
  1009 -3.32431 -3.79261 5.04610
  1010 2.82548 -35.7218 -18.9903
  1011 241.864 0.384694 -0.827915
  1012 241.912 0.383484 0.827821
  1013 48.1924 -0.561436 -23.0754
  1014 46.1076 -0.447288 22.8538
  1015 -4.53671 7.42235 21.3512
  1016 -4.62057 7.44410 -21.3832
  1017 -28.6495 4.37986 -13.2950
  1018 -28.5838 4.37123 13.2817
  1019 184.045 3.00384 -37.5106
  1020 184.161 3.15640 37.9262
  1021 132.344 11.7421 -26.0614
  1022 132.336 11.7390 26.3174
  1023 143.771 10.5387 -8.64390
  1024 143.793 10.5165 8.67161
  1025 373.909 -10.5726 -42.3194
  1026 -9.96013 4.56798 23.3846
  1027 -10.0355 4.57660 -23.4299
  1028 264.909 -0.219813 19.0155
  1029 264.762 -0.0525632 -19.0269
  1030 -1.78040 -13.9939 25.7421
  1031 -21.4321 -0.720601 11.5301
  1032 -21.4428 -0.724036 -11.5422
  1033 241.317 2.30210 -18.8924
  1034 241.441 2.18986 18.8961
  1035 297.351 7.03681 -30.3612
  1036 -0.370595 -44.1356 -18.6297
  1037 -3.58241 -17.3894 22.0248
  1038 -3.73131 -17.5932 -21.8384
  1039 169.942 10.0511 -13.3931
  1040 169.998 10.0056 13.4352
  1041 214.816 4.03661 7.71117
  1042 214.773 4.05335 -7.71225
  1043 356.461 -23.2246 12.9118
  1044 17.2841 1.83340 -0.329611
  1045 17.3265 1.83390 0.329664
  1046 303.018 -38.7133 52.8070
  1047 -2.07204 1.26847 1.59553
  1048 -2.12219 1.26801 -1.59552
  1049 65.1257 16.6747 0.603407
  1050 65.0414 16.7280 -0.562543
  1051 24.5907 13.1285 12.7755
  1052 24.5128 13.1615 -12.7798
  1053 3.29819 -54.1036 -11.7806
  1054 87.3369 3.40551 0.000624181
  1055 87.3511 3.40786 0.00168530
  1056 259.799 8.61304 7.69444
  1057 244.044 1.92798 7.19963
  1058 243.993 1.94308 -7.20417
  1059 -1.53066 -14.5220 -25.7853
  1060 367.195 -4.68417 -7.66709
  1061 -0.107233 -1.33548 25.6409
  1062 0.165649 -1.12093 -25.5275
  1063 334.809 -0.596750 -2.53848
  1064 334.889 -0.599405 2.53402
  1065 356.581 -1.21208 -4.45323
  1066 356.497 -1.25861 4.32966
  1067 -0.271680 -69.4982 6.60070
  1068 208.778 5.41754 -10.2192
  1069 208.825 5.38995 10.2203
  1070 254.327 2.37568 8.40773
  1071 254.271 2.39511 -8.41558
  1072 5.59996 5.93025 23.1256
  1073 5.56909 5.93388 -23.1468
  1074 552.929 37.0085 5.53252
  1075 -7.12054 -3.12342 26.2911
  1076 -7.22504 -3.05814 -26.3549
  1077 78.5533 15.5345 -0.595752
  1078 78.5144 15.5548 0.630770
  1079 -44.6169 0.865563 -2.39542
  1080 -44.5500 0.865581 2.39492
  1081 129.348 7.29831 -44.1559
  1082 129.181 7.66415 44.7044
  1083 37.0025 14.8175 9.90302
  1084 36.9171 14.8591 -9.89903
  1085 87.7453 9.96484 -32.3882
  1086 87.2977 10.4049 32.6818
  1087 -2.34720 -23.2281 -18.0877
  1088 310.278 4.10409 39.7099
  1089 217.861 -0.192062 138.320
  1090 34.8062 15.1920 10.2272
  1091 34.7049 15.2482 -10.2319
  1092 131.408 7.12018 -3.03540
  1093 131.415 7.11155 3.04288
  1094 478.210 0.960353 12.5076
  1095 30.4772 7.61570 6.53448
  1096 30.0920 7.71508 -6.64629
  1097 -14.2052 -3.12776 15.9028
  1098 -14.2160 -3.14191 -15.9181
  1099 -0.466645 -10.5178 4.26204
  1100 -0.484915 -10.5112 -4.27905
  1101 314.185 -0.265453 11.2393
  1102 314.088 -0.145651 -11.3287
  1103 0.432148 -22.4314 24.1560
  1104 -21.5833 1.34926 -21.2621
  1105 -21.5392 1.35097 21.2319
  1106 0.109931 -84.1850 -8.42933
  1107 -4.98937 -7.01053 26.2483
  1108 -4.97686 -6.86560 -26.2755
  1109 300.664 0.377144 -4.73316
  1110 300.732 0.370865 4.72818
  1111 309.787 -2.32004 13.4733
  1112 309.588 -2.12724 -13.5651
  1113 53.6636 11.8013 -10.5549
  1114 53.2563 12.0408 10.6639
  1115 -0.742347 -43.3640 -15.1033
  1116 408.018 -38.6829 -80.5770
  1117 529.199 67.3426 2.42391
  1118 5.39884 -66.0516 -1.35326
  1119 18.7668 10.7351 -16.9582
  1120 18.8766 10.6737 16.8797
  1121 50.1968 16.3497 4.68037
  1122 50.0808 16.4226 -4.66215
  1123 106.621 6.47415 1.06164
  1124 106.626 6.47899 -1.05549
  1125 -6.87075 -9.78637 20.5977
  1126 -6.86060 -9.87842 -20.6289
  1127 -19.6751 6.06872 17.0475
  1128 -19.7423 6.08183 -17.0670
  1129 -7.07120 7.66582 19.7635
  1130 -7.14765 7.68523 -19.7894
  1131 295.454 -15.0779 -22.9310
  1132 297.364 -15.2111 22.7293
  1133 0.264378 -49.9162 -17.7271
  1134 157.303 -0.525345 -55.4991
  1135 157.563 -0.0281691 56.4443
  1136 50.0446 15.0247 -5.27202
  1137 50.1058 14.9938 5.28936
  1138 158.430 71.3801 154.783
  1139 39.0827 12.0901 7.38439
  1140 39.0286 12.1075 -7.37577
  1141 403.471 -44.7293 -18.9834
  1142 152.118 4.34128 2.48618
  1143 152.104 4.34742 -2.48393
  1144 -6.87895 -6.13600 12.5792
  1145 -6.88317 -6.15024 -12.5746
  1146 -8.21685 -7.37522 16.2861
  1147 -8.21623 -7.40390 -16.2873
  1148 264.382 -27.2723 -78.1982
  1149 269.791 -29.9925 78.7851
  1150 47.0556 1.93687 0.526261
  1151 47.0862 1.93785 -0.525369
  1152 165.761 7.74465 -30.3954
  1153 165.778 7.64219 30.7078
  1154 362.441 -48.9794 59.6917
  1155 323.210 -0.706485 0.703575
  1156 323.124 -0.705969 -0.703274
  1157 -29.0083 4.55651 15.2152
  1158 -29.0739 4.56554 -15.2323
  1159 -49.7691 1.55934 -7.99375
  1160 -49.6997 1.55667 7.98810
  1161 82.3082 0.0923503 92.6742
  1162 251.048 16.9650 -15.6109
  1163 151.611 10.9489 -14.8701
  1164 151.661 10.9131 14.9525
  1165 471.494 -15.2267 86.7062
  1166 154.079 10.5019 -22.1263
  1167 154.141 10.4447 22.2698
  1168 38.1848 5.06203 -2.78886
  1169 38.2208 5.06134 2.79099
  1170 13.3158 -50.2565 8.61945
  1171 13.4705 -49.0048 -12.2057
  1172 208.982 -14.9347 -78.9062
  1173 211.881 -13.9778 78.8638
  1174 81.5514 13.3233 -22.4970
  1175 81.2113 13.6047 22.7357
  1176 368.388 -24.8268 -27.5642
  1177 -13.4973 -1.15517 23.9779
  1178 -13.5423 -1.15443 -24.0155
  1179 -0.273022 -20.0458 -24.8116
  1180 93.5312 2.15034 -58.2940
  1181 93.7498 2.44448 59.3125
  1182 -0.237485 -18.6613 4.75503
  1183 -0.202724 -18.7063 -4.81324
  1184 -88.6763 0.745235 -2.32251
  1185 -88.5938 0.744789 2.32079
  1186 293.564 -0.107403 -1.30594
  1187 293.635 -0.108471 1.30563
  1188 180.844 6.79764 -8.69110
  1189 180.884 6.77077 8.70179
  1190 -6.69955 -0.104548 26.3054
  1191 -6.72014 0.000414171 -26.3552
  1192 0.0254652 -75.0931 -7.35226
  1193 -75.2925 0.178952 3.74131
  1194 -75.3625 0.179417 -3.74578
  1195 57.8453 -1.84940 -40.7119
  1196 57.4069 -1.48756 42.0231
  1197 342.285 -20.9714 -0.890782
  1198 97.3303 5.85906 -52.3584
  1199 97.4016 6.13656 52.8909
  1200 -41.7667 0.224012 5.73336
  1201 -41.7902 0.223816 -5.74073
  1202 1.09231 -65.7942 -12.4844
  1203 -12.6836 2.66738 -3.12395
  1204 -12.6285 2.66673 3.12371
  1205 51.3102 12.7123 5.44305
  1206 51.2597 12.7301 -5.42847
  1207 192.524 1.16607 -1.15738
  1208 192.552 1.16430 1.15759
  1209 259.919 1.30228 5.47853
  1210 259.863 1.31157 -5.48237
  1211 14.1319 -2.06156 14.5200
  1212 13.9205 -2.30337 -14.7762
  1213 2.39367 -37.8678 18.9582
  1214 465.764 63.3816 17.9581
  1215 -14.3601 -1.12853 9.05360
  1216 -14.3616 -1.13326 -9.05833
  1217 1.88978 -35.4590 -19.8194
  1218 -1.37633 -21.8167 13.2547
  1219 -1.30647 -21.6208 -13.7345
  1220 368.824 -4.01807 6.80840
  1221 0.328856 -85.9547 7.53101
  1222 2.66105 -26.0657 -22.1028
  1223 43.5780 1.51588 0.476830
  1224 43.5460 1.51495 -0.476828
  1225 -3.65946 -15.6245 24.2356
  1226 -40.8676 2.33450 -6.79146
  1227 -40.8006 2.33199 6.78784
  1228 753.740 13.1049 21.3007
  1229 -21.3780 2.46746 21.5020
  1230 -21.4303 2.46806 -21.5347
  1231 177.169 7.19452 -27.4867
  1232 177.325 7.06186 27.6521
  1233 11.4639 -17.7322 -9.59922
  1234 168.673 8.79454 -10.9995
  1235 168.718 8.75840 11.0278
  1236 6.93228 -52.4584 -3.09631
  1237 -3.67106 -15.6553 -24.1939
  1238 -28.7321 1.19767 4.06910
  1239 -28.7936 1.19807 -4.07002
  1240 -12.9498 0.942913 -24.5373
  1241 -12.8952 0.945562 24.5019
  1242 360.298 28.7900 30.7602
  1243 205.054 2.42742 -29.1769
  1244 205.297 2.36077 29.2502
  1245 -92.9109 0.223375 -0.862760
  1246 -92.8253 0.223325 0.862458
  1247 184.961 4.62426 -5.90352
  1248 184.990 4.61350 5.90546
  1249 -95.4400 -1.62048 -0.252104
  1250 -95.5261 -1.62117 0.252207
  1251 275.917 -19.6753 -33.4093
  1252 -43.6715 0.739563 12.1479
  1253 -43.7175 0.740233 -12.1647
  1254 278.711 -20.7651 33.1071
  1255 188.089 7.01738 -12.0400
  1256 188.140 6.97704 12.0549
  1257 21.9790 -52.5158 -40.4025
  1258 0.399768 -60.3400 -15.2012
  1259 -1.26886 -25.3856 22.7273
  1260 592.906 97.3767 -82.8776
  1261 -0.144516 -56.5636 14.8293
  1262 617.236 58.1597 -37.0249
  1263 -0.328231 -104.778 -7.07624
  1264 29.3319 3.08920 -1.02594
  1265 29.3699 3.08943 1.02701
  1266 -0.262060 -23.9670 4.98379
  1267 -0.211547 -24.0941 -4.96985
  1268 104.728 2.77817 0.0196838
  1269 104.735 2.77993 -0.0190896
  1270 372.537 -28.4700 26.2108
  1271 7.15723 2.89334 -3.62067
  1272 7.20475 2.89270 3.62079
  1273 2.15017 -115.099 3.46032
  1274 1.36509 -122.521 -3.42090
  1275 342.631 -42.8997 -35.7534
  1276 -0.948191 -31.2058 14.6565
  1277 357.993 22.8367 -38.6921
  1278 -1.07091 -41.1247 14.4097
  1279 0.712192 -112.781 -5.46055
  1280 172.499 5.07069 -6.42077
  1281 172.527 5.05250 6.42714
  1282 -0.127632 -61.2479 6.51055
  1283 -0.158369 -50.8969 -14.6853
  1284 814.475 141.216 122.523
  1285 324.714 0.212504 0.541904
  1286 324.628 0.212486 -0.541633
  1287 8.51612 0.562065 21.0325
  1288 8.24504 0.909927 -21.1266
  1289 -5.07100 4.67853 24.7164
  1290 -5.18844 4.68727 -24.7708
  1291 345.431 -6.45038 -23.1711
  1292 320.342 -13.4103 -13.0802
  1293 320.017 -15.2650 13.2025
  1294 47.5410 5.72244 2.83320
  1295 47.5079 5.72321 -2.82944
  1296 -52.7577 1.41475 -9.51673
  1297 -52.6923 1.41180 9.50544
  1298 357.317 -49.5484 -50.8001
  1299 -2.67339 -6.45889 6.58772
  1300 -2.68362 -6.45398 -6.58462
  1301 376.711 -16.3209 39.9267
  1302 -3.96588 -14.9270 17.8113
  1303 -3.92251 -14.9823 -17.7298
  1304 -33.7985 2.27531 4.85212
  1305 -33.8624 2.27688 -4.85380
  1306 56.7155 6.15197 -20.9044
  1307 56.1387 6.48047 20.8968
  1308 89.0240 2.64225 0.407169
  1309 89.0102 2.64049 -0.406481
  1310 -36.5456 3.65363 15.0104
  1311 -36.6081 3.66037 -15.0284
  1312 304.624 0.798137 0.842361
  1313 304.547 0.797977 -0.842005
  1314 167.400 -1.88709 105.380
  1315 248.659 0.633476 1.93500
  1316 248.608 0.634937 -1.93506
  1317 164.818 3.45335 -42.2952
  1318 164.855 3.26022 42.6765
  1319 1.57724 -66.3523 -9.03880
  1320 63.7340 15.1955 -8.63740
  1321 63.4631 15.3801 8.75212
  1322 -0.619599 -0.566510 -0.817420
  1323 -0.622720 -0.566704 0.819800
  1324 212.597 6.57430 15.6614
  1325 212.517 6.64619 -15.6476
  1326 105.407 8.76499 2.17806
  1327 105.413 8.77034 -2.16564
  1328 155.476 8.85876 -7.42284
  1329 155.503 8.83682 7.44044
  1330 203.888 1.33375 -1.94041
  1331 203.921 1.33187 1.94063
  1332 -6.49496 -3.14886 -7.43968
  1333 -6.49386 -3.14523 7.44348
  1334 -62.3356 0.105072 2.88196
  1335 -62.4096 0.105225 -2.88303
  1336 -11.0818 -5.09212 -18.2103
  1337 -11.0734 -5.06681 18.1915
  1338 -35.6658 0.628666 1.21688
  1339 -35.7289 0.628290 -1.21707
  1340 -96.4568 0.888439 0.493449
  1341 -96.5435 0.888664 -0.493531
  1342 384.353 -48.8753 69.3878
  1343 277.549 -1.72830 -32.3076
</Section>

newXOutput 46

<Section columns = "stress_xx | stress_yy | stress_xy">
  1 341.708 -0.476652 0.343391
  2 341.803 -0.476960 -0.343559
  3 -106.522 0.519269 -1.44806
  4 0.170900 0.0444006 0.302543
  5 621.949 175.211 200.635
  6 703.011 198.541 -192.557
  7 0.170175 0.0437330 -0.301581
  8 -106.428 0.519178 1.44753
  9 340.672 -0.449048 -1.12774
  10 340.939 -1.01299 -1.83236
  11 344.158 -1.00081 -0.484792
  12 344.492 -0.951670 -2.14198
  13 345.323 -0.929028 -0.654544
  14 352.546 -0.892412 -0.912416
  15 355.031 -1.31035 -2.87175
  16 357.694 -0.610421 -1.96095
  17 359.365 0.182789 -3.78588
  18 373.966 -2.01933 -3.24281
  19 380.239 -1.55530 -4.18175
  20 387.152 -2.37598 -1.61922
  21 390.442 -3.17034 -0.956893
  22 387.567 -3.66917 5.07863
  23 374.204 -4.11941 10.6749
  24 343.150 -4.64589 22.7928
  25 293.038 2.55796 26.5171
  26 251.583 3.07464 24.7397
  27 194.059 6.53937 15.0032
  28 206.519 6.36295 1.30225
  29 172.496 19.0572 -9.57789
  30 238.607 8.70251 -26.8690
  31 275.159 2.09223 -21.9986
  32 336.234 -1.02940 -19.0385
  33 369.813 -4.99753 -12.7877
  34 386.939 -4.27678 -5.05585
  35 389.659 -3.06883 0.976083
  36 386.613 -2.34412 1.51242
  37 380.019 -1.56571 4.05534
  38 373.892 -2.04607 3.16984
  39 359.396 0.167459 3.75065
  40 357.761 -0.616202 1.94765
  41 355.118 -1.31398 2.86715
  42 352.639 -0.894308 0.910240
  43 345.417 -0.930203 0.653741
  44 344.587 -0.952706 2.14276
  45 344.253 -1.00156 0.484981
  46 341.033 -1.01361 1.83335
  47 340.765 -0.449344 1.12835
  48 322.131 0.904813 -0.420285
  49 298.161 0.415902 -0.944513
  50 268.224 -0.800767 -0.965398
  51 237.209 1.03306 -0.803081
  52 210.063 0.827114 -0.640862
  53 181.036 1.76817 -0.759872
  54 152.405 3.25354 -0.468918
  55 122.701 2.92342 -0.960270
  56 98.0791 2.08324 -1.33838
  57 65.7841 1.35917 -1.41019
  58 32.9934 1.98924 -1.07278
  59 5.63075 1.64126 -1.03695
  60 -28.4958 0.971278 -0.950797
  61 -53.8683 -0.249802 -2.29816
  62 -78.4399 -1.64641 -1.05362
  63 -103.346 0.224981 0.696828
  64 -108.711 1.86515 -0.281871
  65 -109.066 0.829118 0.303512
  66 -105.426 0.421421 -0.145500
  67 -106.519 1.20388 -1.32595
  68 -104.801 1.46028 -0.148169
  69 -99.0987 0.453071 -2.02912
  70 -100.191 0.899515 -2.17926
  71 -97.6366 0.854184 -1.23631
  72 -90.3680 0.538321 -1.85469
  73 -86.9601 0.960666 -3.04608
  74 -81.6438 1.07260 -2.50804
  75 -72.2212 0.547905 -4.31755
  76 -66.9238 0.169001 -3.60887
  77 -57.4003 0.243011 -4.15947
  78 -49.1931 0.182262 -4.59808
  79 -42.0517 0.0606196 -3.62875
  80 -32.1556 0.211430 -3.65510
  81 -23.6291 -0.0942579 -3.90728
  82 -15.3807 -0.427741 -3.42584
  83 -8.84946 -0.374460 -2.62187
  84 -4.34081 -0.653874 -2.18850
  85 -0.711515 -0.377838 -0.778082
  86 0.0592371 -0.418510 -0.275268
  87 -0.226374 -0.214000 -0.0488593
  88 -0.591309 -0.565833 -0.681074
  89 -0.573875 -3.66961 -1.89961
  90 -0.490614 -8.24231 -2.71250
  91 -0.254523 -14.0922 -3.95880
  92 -0.132454 -21.6553 -3.41457
  93 -0.113161 -28.6215 -4.29817
  94 -0.528187 -37.1398 -4.85480
  95 -0.215855 -47.6474 -4.90672
  96 0.100521 -58.2329 -4.70219
  97 0.229779 -69.5819 -4.64155
  98 0.351851 -81.2535 -4.56830
  99 0.0262939 -89.8631 -6.18700
  100 0.607439 -102.079 -5.54036
  101 0.742494 -116.400 -4.43760
  102 -0.0333506 -122.785 -5.89519
  103 1.05140 -133.298 -5.47724
  104 2.57674 -147.302 -2.66192
  105 5.02754 -151.160 -4.22307
  106 3.51108 -138.533 3.46881
  107 5.04689 -104.816 14.6790
  108 26.5507 -60.6277 43.1964
  109 83.6410 116.267 147.887
  110 957.903 51.1366 94.6433
  111 822.111 15.3575 34.4249
  112 795.591 5.67981 7.80521
  113 789.967 1.96413 -1.27760
  114 795.307 8.72404 -18.1735
  115 820.245 27.7909 -40.7460
  116 931.857 100.222 -120.128
  117 199.929 90.3517 -180.544
  118 44.4226 -59.8540 -52.7660
  119 13.0478 -114.710 -19.5413
  120 3.59950 -131.265 -3.76066
  121 4.04526 -145.507 2.33306
  122 1.15494 -141.550 2.03261
  123 0.418198 -129.957 4.66703
  124 0.452024 -122.266 3.70015
  125 0.639502 -110.047 6.27293
  126 -0.0320925 -102.986 6.09124
  127 0.253537 -92.9979 4.38783
  128 0.492116 -80.2744 5.56717
  129 0.0951584 -71.1952 4.41324
  130 0.144726 -58.3085 5.57343
  131 -0.582348 -48.2201 4.78826
  132 -0.408420 -37.1715 4.70395
  133 -0.0806109 -28.4645 4.30937
  134 -0.171427 -21.5310 3.42129
  135 -0.248708 -14.0509 3.92043
  136 -0.483585 -8.23665 2.69903
  137 -0.570844 -3.67514 1.89824
  138 -0.590563 -0.571674 0.682404
  139 -0.226346 -0.216532 0.0505474
  140 0.0561741 -0.418916 0.276818
  141 -0.717327 -0.377651 0.780078
  142 -4.34972 -0.653290 2.19056
  143 -8.86150 -0.373326 2.62257
  144 -15.3905 -0.426340 3.42455
  145 -23.6322 -0.0930988 3.90349
  146 -32.1507 0.211658 3.65063
  147 -42.0356 0.0611425 3.62407
  148 -49.1667 0.182853 4.59272
  149 -57.3605 0.242923 4.15387
  150 -66.8717 0.168865 3.60365
  151 -72.1610 0.547500 4.31247
  152 -81.5725 1.07194 2.50414
  153 -86.8828 0.959953 3.04292
  154 -90.2852 0.537857 1.85274
  155 -97.5487 0.853693 1.23510
  156 -100.101 0.899100 2.17799
  157 -99.0084 0.452899 2.02813
  158 -104.708 1.45973 0.148051
  159 -106.425 1.20346 1.32546
  160 -105.333 0.421341 0.145502
  161 -108.971 0.828879 -0.303332
  162 -108.617 1.86453 0.281823
  163 -103.254 0.224989 -0.696548
  164 -78.3578 -1.64554 1.05326
  165 -53.7959 -0.249256 2.29735
  166 -28.4334 0.971603 0.950515
  167 5.67957 1.64162 1.03663
  168 33.0313 1.98981 1.07246
  169 65.8088 1.36036 1.40976
  170 98.0907 2.08448 1.33796
  171 122.703 2.92461 0.959968
  172 152.394 3.25465 0.468696
  173 181.014 1.76965 0.759462
  174 210.029 0.828639 0.640427
  175 237.163 1.03398 0.802499
  176 268.165 -0.799556 0.964746
  177 298.088 0.416064 0.943973
  178 322.046 0.904528 0.420047
  179 89.5753 15.8405 -3.41512
  180 89.5289 15.8657 3.46908
  181 -1.75707 2.58436 25.7055
  182 -1.85360 2.56894 -25.7164
  183 204.455 -2.84849 -45.5726
  184 204.327 -3.24692 46.0620
  185 40.6374 9.29446 -1.64148
  186 40.1532 9.47232 1.66065
  187 29.4418 5.32424 -4.10436
  188 29.4842 5.32194 4.10620
  189 193.692 3.90821 -6.64817
  190 193.726 3.89312 6.65121
  191 -3.64467 7.85502 14.0797
  192 -3.71296 7.87093 -14.0905
  193 225.071 5.92559 -17.1986
  194 225.177 5.83911 17.2179
  195 -8.77844 -7.64517 20.3072
  196 -8.77574 -7.68959 -20.3323
  197 1.99353 -18.3328 -24.3212
  198 69.8442 3.51553 -41.6806
  199 2.45156 -19.6012 23.7514
  200 68.7260 4.08308 42.3617
  201 319.075 -43.2670 -66.1583
  202 330.264 -44.9794 63.4452
  203 114.456 4.03540 -0.978255
  204 114.452 4.03223 0.980601
  205 -18.6975 1.38409 -2.80100
  206 -18.6386 1.38415 2.80054
  207 -25.5506 3.88878 19.7031
  208 -25.6126 3.89648 -19.7325
  209 115.037 10.7760 -3.12935
  210 115.035 10.7705 3.14691
  211 34.9992 14.7104 9.75148
  212 34.8635 14.7993 -9.77780
  213 -32.8960 3.54356 -8.22253
  214 -32.8287 3.53920 8.21743
  215 257.676 0.537951 3.19111
  216 257.622 0.541537 -3.19199
  217 8.22667 -34.5202 10.4429
  218 8.94509 -31.2938 -9.28075
  219 -2.42056 -21.6016 22.9212
  220 -2.47378 -22.4317 -22.1969
  221 106.312 15.4161 -18.0833
  222 106.219 15.4892 18.2766
  223 -23.0385 -0.0945047 19.8138
  224 -23.0738 -0.0972482 -19.8408
  225 275.664 1.72658 -9.45160
  226 275.727 1.70170 9.43837
  227 296.604 -4.21329 -18.6353
  228 296.833 -4.51590 18.5503
  229 473.456 36.3224 -0.166656
  230 434.345 48.2313 26.4856
  231 428.503 -4.04384 -39.1107
  232 52.1954 11.8267 5.18715
  233 52.1503 11.8403 -5.17548
  234 3.50991 9.63513 19.7900
  235 3.42372 9.66378 -19.8133
  236 331.311 -20.0545 -12.3698
  237 329.382 -20.3022 13.4333
  238 183.161 1.80464 -2.40861
  239 183.185 1.80075 2.40911
  240 -40.9321 2.89130 13.1597
  241 -40.9987 2.89740 -13.1748
  242 -5.60926 -5.52064 -9.12272
  243 -5.60429 -5.51729 9.12851
  244 -45.5111 1.14380 4.18696
  245 -45.5811 1.14453 -4.18848
  246 150.532 11.4257 -11.3828
  247 150.562 11.3969 11.4274
  248 191.564 5.89774 -25.9341
  249 191.719 5.79260 26.0481
  250 45.9922 3.11380 -0.354686
  251 46.0251 3.11435 0.355649
  252 110.547 0.543566 -90.7483
  253 130.902 3.75283 99.0031
  254 14.8319 6.77886 18.8685
  255 14.7656 6.92933 -18.9440
  256 450.848 -35.2824 -8.30065
  257 38.9831 14.8540 8.45948
  258 38.9095 14.8882 -8.45109
  259 108.363 11.5561 -33.9471
  260 108.161 11.8478 34.3279
  261 503.630 70.4736 -5.23777
  262 298.956 0.278625 12.7930
  263 298.863 0.371533 -12.8424
  264 -2.70868 -16.7071 -14.3182
  265 -2.63157 -16.7742 14.3751
  266 -0.591300 -39.7290 -19.7319
  267 1.31681 -46.4839 -18.2516
  268 0.694998 -46.4698 19.0917
  269 -7.49976 -6.51238 26.1423
  270 -7.53103 -6.50105 -26.2432
  271 15.9260 -37.1619 -6.42063
  272 17.1292 -34.2726 9.09977
  273 -17.2477 -1.45484 12.5749
  274 -17.2567 -1.46133 -12.5862
  275 212.505 6.07056 -10.6786
  276 212.562 6.03446 10.6824
  277 372.222 -38.5820 -2.60519
  278 82.0409 7.17360 -0.345453
  279 82.0595 7.17459 0.351267
  280 -0.982381 -37.2750 18.8583
  281 7.67540 7.70291 9.11711
  282 7.61724 7.71335 -9.11911
  283 592.282 41.4602 -15.6692
  284 290.077 0.279909 3.92031
  285 290.010 0.285338 -3.92369
  286 194.245 -9.45042 -68.5867
  287 195.967 -9.29117 69.6550
  288 371.733 -36.5679 -3.49951
  289 -35.3026 1.09068 15.6655
  290 -35.3459 1.09113 -15.6874
  291 364.111 -30.1996 112.263
  292 -15.7217 2.60579 23.7527
  293 -15.7793 2.60331 -23.7911
  294 61.3868 16.8838 -4.40365
  295 61.1511 17.0449 4.48065
  296 -64.8400 0.545817 0.757417
  297 -64.9168 0.545702 -0.757557
  298 306.750 5.34085 -153.083
  299 -60.6243 1.23339 -7.11457
  300 -60.5505 1.23106 7.10798
  301 -1.76541 -7.67498 26.7003
  302 -0.862027 -7.48795 -26.4391
  303 134.782 13.8511 -16.4993
  304 134.795 13.8408 16.6110
  305 29.1554 3.60581 3.07995
  306 29.1148 3.60613 -3.07922
  307 140.373 5.58870 -3.33798
  308 140.381 5.58161 3.34261
  309 13.1699 -10.1566 14.0321
  310 12.0018 -12.1511 -14.1932
  311 136.254 2.59234 -0.799278
  312 136.259 2.59014 0.799896
  313 -49.7267 1.29510 11.4967
  314 -49.7830 1.29715 -11.5124
  315 33.9910 -3.44493 -8.10844
  316 32.9714 -3.48608 7.21052
  317 302.596 -0.193077 1.09352
  318 302.521 -0.192361 -1.09336
  319 661.097 37.7547 25.8736
  320 68.1469 9.26059 2.06581
  321 68.1186 9.26350 -2.05617
  322 -14.7021 3.37378 5.76062
  323 -14.7619 3.37670 -5.76229
  324 93.9016 12.8787 -2.13934
  325 93.8803 12.8823 2.16978
  326 10.9283 9.76522 20.5399
  327 10.8568 9.78872 -20.5845
  328 1.40896 -67.0739 13.4226
  329 -67.1055 0.160391 -1.71447
  330 -67.0276 0.160569 1.71400
  331 230.860 0.766778 -2.08081
  332 230.903 0.764672 2.08074
  333 243.120 1.76625 -5.51887
  334 243.170 1.75585 5.51625
  335 -62.4776 1.08763 -5.18146
  336 -62.4012 1.08641 5.17844
  337 -1.44622 1.25514 0.667611
  338 -1.49795 1.25471 -0.667530
  339 -1.39822 -27.5360 14.2954
  340 -1.11235 -28.6402 -14.2761
  341 273.564 -22.7883 -46.2782
  342 284.188 -27.2439 45.4177
  343 162.416 8.06958 -7.03037
  344 162.441 8.05129 7.04180
  345 71.4014 16.8414 -2.22968
  346 71.2856 16.9147 2.29061
  347 -25.2849 4.86777 11.6703
  348 -25.3519 4.87640 -11.6802
  349 509.780 8.95582 12.5819
  350 26.8503 -39.8141 -29.9470
  351 28.7162 -37.1529 31.3817
  352 -10.8617 7.81425 18.6426
  353 -10.9352 7.83177 -18.6651
  354 -14.1045 -2.85704 23.1432
  355 -14.1390 -2.86307 -23.1822
  356 577.534 96.2478 -26.7265
  357 370.481 -5.49668 47.7046
  358 346.177 -8.10464 -8.39029
  359 345.855 -7.91658 7.82133
  360 242.456 -2.78799 -29.4646
  361 242.182 -3.03553 29.4737
  362 0.452459 -80.7950 -10.8616
  363 316.995 0.802109 -7.18043
  364 317.058 0.775841 7.15365
  365 4.10444 -76.0478 8.53468
  366 366.157 28.6060 -25.9079
  367 89.4946 3.19071 1.11050
  368 89.4796 3.18965 -1.11046
  369 243.888 1.86694 -21.8819
  370 244.050 1.73632 21.9050
  371 262.927 2.23444 -13.2709
  372 263.004 2.17658 13.2530
  373 -5.12042 2.97980 3.89560
  374 -5.17521 2.98099 -3.89591
  375 150.669 8.35420 -34.9256
  376 150.719 8.44463 35.2529
  377 311.873 -0.116017 1.79211
  378 311.795 -0.114679 -1.79257
  379 176.455 9.77870 -17.5903
  380 176.527 9.71646 17.6566
  381 203.955 3.28279 4.48912
  382 203.921 3.28982 -4.48890
  383 -9.74755 -1.76195 7.75183
  384 -9.74664 -1.76644 -7.75179
  385 -2.31511 -1.64587 -2.25230
  386 -2.31622 -1.64675 2.25579
  387 415.725 -52.2638 29.3497
  388 -5.44056 -13.0939 21.1574
  389 -5.40438 -13.2045 -21.1583
  390 67.4788 4.50500 -1.40349
  391 67.5032 4.50604 1.40593
  392 -2.06752 -10.3439 7.78369
  393 -2.09083 -10.3268 -7.78455
  394 25.8839 11.7980 9.95816
  395 25.8210 11.8189 -9.95649
  396 339.897 -1.40336 9.47963
  397 339.811 -1.27685 -9.65107
  398 -0.845421 -20.2276 25.4653
  399 -27.9354 -0.511203 11.9101
  400 -27.9544 -0.513575 -11.9246
  401 -0.953071 -21.3604 -25.1788
  402 319.100 0.129112 4.57207
  403 319.028 0.136910 -4.58059
  404 -3.04322 7.03828 23.4096
  405 -3.14449 7.06145 -23.4491
  406 235.739 3.58975 -8.80900
  407 235.792 3.56764 8.80468
  408 362.306 -15.5434 -8.02558
  409 363.503 -12.5355 6.05585
  410 -0.743243 -37.5226 -15.6702
  411 32.4291 12.0185 -7.04587
  412 32.6968 11.8824 7.01503
  413 359.798 23.5779 16.2019
  414 204.975 -11.1575 -94.9566
  415 210.469 -14.9828 99.4197
  416 12.1006 11.2189 15.2039
  417 12.0245 11.2454 -15.2142
  418 151.029 4.24509 -2.28374
  419 151.040 4.24072 2.28540
  420 146.689 23.4140 151.115
  421 60.6327 14.3062 -3.78520
  422 60.6872 14.2821 3.80707
  423 3.73691 -35.7505 17.1920
  424 -0.456351 -61.0013 -13.6120
  425 23.9823 13.7454 14.1594
  426 23.8923 13.7860 -14.1726
  427 29.5817 8.01470 -6.07148
  428 29.6285 8.00784 6.07444
  429 -10.2737 -0.533653 -26.0940
  430 -10.2169 -0.548057 26.0520
  431 72.5841 14.2879 -13.7852
  432 72.2765 14.5075 13.9445
  433 363.861 -11.7625 -36.0124
  434 10.2140 -3.67312 20.1990
  435 9.87486 -3.57519 -20.3201
  436 264.911 -11.3462 -32.5603
  437 266.024 -12.1587 32.5048
  438 -66.2657 0.533695 -6.92867
  439 -66.1956 0.532044 6.92047
  440 0.00325783 -59.9007 12.2453
  441 -0.431365 -38.0410 13.9507
  442 -26.9655 1.73705 20.0492
  443 -27.0118 1.73670 -20.0780
  444 189.867 1.70476 -0.863232
  445 189.893 1.70264 0.863154
  446 -5.70578 -9.01019 14.3747
  447 -5.71501 -9.03050 -14.3592
  448 118.202 6.06436 -50.8313
  449 117.975 6.60752 51.4264
  450 0.984238 -72.5600 -13.4947
  451 659.988 23.5589 0.528060
  452 1.82678 -85.7873 -7.80269
  453 -78.3797 -0.00123695 -2.52870
  454 -78.2973 -0.00120881 2.52771
  455 -30.0954 4.24215 16.3923
  456 -30.1618 4.25120 -16.4135
  457 -35.1157 0.499365 11.9634
  458 -35.1446 0.499309 -11.9787
  459 129.331 13.3880 -11.1434
  460 129.340 13.3826 11.2118
  461 195.768 7.84646 -13.6126
  462 195.834 7.79363 13.6365
  463 -3.34880 -12.2702 26.3214
  464 -3.35329 -12.1891 -26.4313
  465 339.679 5.71592 -45.4542
  466 23.1726 -5.98572 -3.95453
  467 22.3676 -6.18002 4.36716
  468 5.38350 -77.2790 -0.892907
  469 3.44262 -89.7300 -1.57773
  470 -10.3752 -4.64500 14.7976
  471 -10.3794 -4.66162 -14.8035
  472 72.1219 -6.60796 -78.4503
  473 521.293 -0.196011 -51.2120
  474 117.774 7.68597 3.10452
  475 117.774 7.69236 -3.09460
  476 171.211 1.76085 -48.9499
  477 171.608 1.70807 49.6982
  478 50.1805 17.5217 5.50446
  479 50.0872 17.5787 -5.48732
  480 154.589 11.5555 -25.6506
  481 154.662 11.4949 25.8454
  482 5.61386 3.05777 23.8547
  483 5.95544 3.22985 -23.8259
  484 -69.4733 1.02656 -5.11910
  485 -69.3953 1.02546 5.11521
  486 340.801 -39.8578 -26.2667
  487 270.876 0.167774 -1.50595
  488 270.936 0.166809 1.50616
  489 14.3208 1.94604 -1.66271
  490 14.3666 1.94639 1.66297
  491 -17.4893 6.31249 15.3024
  492 -17.5586 6.32561 -15.3181
  493 -39.4627 2.41581 -5.59228
  494 -39.3942 2.41360 5.58967
  495 117.777 11.5593 -4.88235
  496 117.777 11.5518 4.90899
  497 -14.1975 5.42513 21.5272
  498 -14.2700 5.43857 -21.5610
  499 312.064 -8.77353 -17.3866
  500 312.587 -9.21743 17.1312
  501 204.465 2.21085 -32.5671
  502 204.163 2.06229 32.8497
  503 75.9991 3.60715 -0.797746
  504 76.0196 3.60842 0.798745
  505 0.805935 -37.1762 -21.5671
  506 365.715 -13.2959 29.5588
  507 4.98943 -24.4897 -19.5338
  508 103.795 16.6313 11.3497
  509 103.855 16.5863 -11.2355
  510 337.076 -37.2944 25.9338
  511 25.6706 -34.5780 41.2383
  512 401.481 -51.8676 -51.8777
  513 273.460 1.13298 15.9772
  514 273.343 1.24398 -16.0006
  515 0.758446 -31.8063 22.4421
  516 -5.35259 -1.59789 -4.14307
  517 -5.35510 -1.59717 4.14620
  518 33.3267 1.82193 -0.499061
  519 33.3645 1.82264 0.499253
  520 -0.925501 -21.2554 9.18038
  521 -0.839722 -21.1560 -9.22735
  522 225.315 2.32309 3.56115
  523 225.274 2.32683 -3.56145
  524 634.761 111.777 47.2031
  525 26.2559 -16.2137 -8.09279
  526 20.4272 -21.8429 3.82465
  527 -6.45655 4.85529 -7.64011
  528 -6.39731 4.84949 7.63744
  529 -54.9213 0.868332 7.18196
  530 -54.9684 0.869305 -7.19158
  531 0.547286 -68.0394 13.4483
  532 -77.0771 0.677762 0.713244
  533 -77.1588 0.677793 -0.713362
  534 69.5766 -4.84247 -57.6522
  535 68.0303 -3.65642 59.8979
  536 63.6958 11.1812 -19.7112
  537 63.2147 11.4721 19.8517
  538 -14.7527 -3.09640 20.2459
  539 -14.7746 -3.10916 -20.2746
  540 62.6491 5.71281 1.47374
  541 62.6219 5.71269 -1.47002
  542 -32.4205 1.52683 2.41180
  543 -32.4852 1.52718 -2.41227
  544 73.9189 10.8817 1.55183
  545 73.8895 10.8876 -1.53570
  546 -1.48427 -4.82307 3.54149
  547 -1.48935 -4.81868 -3.54078
  548 26.8429 11.5856 12.6968
  549 26.6645 11.7499 -12.7544
  550 21.6860 3.46877 11.1897
  551 21.3766 3.43956 -11.3671
  552 276.883 1.94929 6.73369
  553 276.822 1.96033 -6.73951
  554 244.928 3.28475 10.7420
  555 244.866 3.31978 -10.7498
  556 -0.251917 -57.5507 -8.49271
  557 171.458 8.67976 -10.4077
  558 171.496 8.65054 10.4285
  559 171.931 4.04817 -3.88255
  560 171.953 4.03992 3.88503
  561 -23.4018 0.865299 -0.0128810
  562 -23.3414 0.865661 0.0130350
  563 293.120 15.9348 -8.75151
  564 384.829 -48.9134 -18.8796
  565 315.942 14.5386 34.4368
  566 2.57441 -49.1580 -15.7801
  567 -16.9208 5.41078 -10.0831
  568 -16.8564 5.40306 10.0771
  569 2.70584 -28.5256 21.2034
  570 -17.0304 0.482709 23.1956
  571 -17.0758 0.480668 -23.2288
  572 490.982 47.1683 -0.311724
  573 111.886 5.25527 -1.38380
  574 111.881 5.25150 1.38769
  575 744.305 63.1192 -64.8998
  576 -3.64918 -2.84626 27.0717
  577 -3.39901 -2.65053 -27.0948
  578 406.688 -36.3599 16.3251
  579 327.488 0.296330 -7.99159
  580 327.545 0.253108 7.94347
  581 150.405 -0.250082 -71.1134
  582 152.202 -0.702676 72.2407
  583 -8.39397 -8.06143 23.4361
  584 -8.40195 -8.10293 -23.4965
  585 78.9453 6.83617 37.6154
  586 79.6084 6.23935 -37.2941
  587 -64.2759 0.741219 -6.75513
  588 -64.2113 0.740014 6.74656
  589 479.423 40.5596 27.9482
  590 91.3903 8.47507 0.377736
  591 91.4052 8.47662 -0.368551
  592 107.871 13.3996 -25.7581
  593 107.728 13.5627 26.0443
  594 296.178 -0.607954 -15.6481
  595 296.326 -0.759009 15.6009
  596 -1.32579 -30.0390 -21.0929
  597 322.268 -0.386404 2.39218
  598 322.186 -0.384519 -2.39322
  599 -46.7944 0.943177 -0.946446
  600 -46.7246 0.943229 0.946378
  601 -82.6714 -0.571881 0.0258359
  602 -82.7552 -0.572299 -0.0258022
  603 6.89302 -45.1390 -7.38347
  604 -3.01985 -19.4994 18.0688
  605 -3.18514 -18.4482 -18.1899
  606 -36.5839 2.26007 16.7043
  607 -36.6370 2.26351 -16.7277
  608 225.315 5.55328 13.5530
  609 225.244 5.60742 -13.5507
  610 165.864 2.18200 0.918300
  611 165.848 2.18374 -0.918043
  612 37.4929 -10.3558 23.7780
  613 38.6960 -9.55511 -23.5538
  614 -1.15799 -14.8203 7.75335
  615 -1.19350 -14.7730 -7.77938
  616 386.184 25.9437 163.235
  617 -19.1044 -0.589492 7.18609
  618 -19.1053 -0.592195 -7.19182
  619 6.86310 -27.3574 -15.7264
  620 162.275 6.48654 -5.35638
  621 162.295 6.47447 5.36256
  622 79.5074 16.8439 -8.34937
  623 79.3558 16.9469 8.46139
  624 0.780500 -102.608 5.39991
  625 59.6389 16.4747 3.26957
  626 59.5702 16.5132 -3.24329
  627 -6.38213 6.77618 12.1176
  628 -6.44697 6.78776 -12.1253
  629 -0.460764 -50.7508 11.5978
  630 -82.4544 0.0883915 -2.51960
  631 -82.3704 0.0882505 2.51839
  632 106.751 2.87678 0.351241
  633 106.759 2.87915 -0.349968
  634 269.841 0.801741 4.45849
  635 269.782 0.807196 -4.46046
  636 238.098 -16.4503 124.677
  637 191.452 4.81840 -8.18451
  638 191.490 4.79690 8.19024
  639 3.10436 -4.00327 25.0369
  640 3.80450 -2.30078 -24.9936
  641 306.062 -30.7853 -100.921
  642 722.088 24.8625 -26.9933
  643 -75.8690 0.0627095 -4.67400
  644 -75.7930 0.0619571 4.66923
  645 18.2108 4.06287 -3.62699
  646 18.2565 4.06142 3.62769
  647 -1.42781 -31.8412 18.6267
  648 414.270 24.4615 -42.2877
  649 318.681 -0.544852 0.411945
  650 318.598 -0.544391 -0.411779
  651 -20.4960 -1.11925 -16.7056
  652 -20.4751 -1.11412 16.6851
  653 -0.0602457 -72.1345 -11.1426
  654 324.173 -0.568492 0.919118
  655 324.088 -0.567912 -0.918894
  656 29.7795 10.2567 8.42225
  657 29.7252 10.2704 -8.41863
  658 247.100 -21.4340 -66.2033
  659 251.585 -21.3498 66.9448
  660 361.184 -2.28748 5.47103
  661 361.264 -2.26256 -5.70797
  662 1.58173 -90.9518 8.72399
  663 -19.7442 0.662323 -1.40407
  664 -19.6851 0.662739 1.40395
  665 118.413 10.8663 -118.410
  666 111.074 2.56899 0.858656
  667 111.080 2.57043 -0.858081
  668 54.6501 4.10657 0.676614
  669 54.6204 4.10600 -0.674899
  670 64.9996 7.18380 -1.10876
  671 65.0270 7.18305 1.11521
  672 211.059 5.97847 -20.9595
  673 211.186 5.87817 21.0122
  674 55.9491 16.3212 0.779423
  675 55.7836 16.4354 -0.747451
  676 -38.2032 2.85373 -9.53736
  677 -38.1343 2.84855 9.52976
  678 -44.4343 3.06038 -10.8468
  679 -44.3653 3.05501 10.8357
  680 371.153 -5.61915 -1.14817
  681 0.399913 -15.0405 -25.5803
  682 371.738 -5.89427 0.620522
  683 471.653 37.0403 -0.505719
  684 -46.5783 0.218161 8.16932
  685 -46.6147 0.218107 -8.18046
  686 48.6486 14.0097 -2.64112
  687 48.3024 14.1853 2.68371
  688 -88.5809 0.0758828 -0.910725
  689 -88.4945 0.0759507 0.910450
  690 0.685922 -13.5396 25.6289
  691 -29.1499 0.401002 17.5882
  692 -29.1881 0.399817 -17.6122
  693 407.332 -34.0857 -17.8952
  694 64.3087 1.68102 -0.421029
  695 64.2835 1.67988 0.421569
  696 14.7751 6.00482 6.04264
  697 14.7248 6.00947 -6.04194
  698 215.327 -9.83163 -55.3442
  699 216.963 -10.2179 56.4275
  700 752.296 53.2488 59.1237
  701 14.4931 -69.0630 -24.6305
  702 -5.41680 -11.4079 25.0678
  703 -5.42663 -11.4532 -25.1236
  704 45.3857 10.1455 -4.59019
  705 45.4279 10.1372 4.59776
  706 333.218 -0.475580 -2.43902
  707 333.302 -0.477748 2.43651
  708 158.512 2.76183 1.59089
  709 158.498 2.76536 -1.59012
  710 13.1656 11.6655 18.3342
  711 13.0797 11.7012 -18.3585
  712 8.10070 3.02274 2.55462
  713 8.05213 3.02315 -2.55445
  714 -9.37748 2.24392 25.6099
  715 -9.44530 2.24414 -25.6599
  716 273.804 -0.177198 1.87467
  717 273.743 -0.175355 -1.87496
  718 236.937 2.11991 5.08070
  719 236.890 2.12651 -5.08174
  720 31.8304 -20.7001 28.6172
  721 32.7632 -22.1770 -27.6545
  722 -18.3950 4.00188 22.3341
  723 -18.4587 4.00726 -22.3703
  724 9.84243 -22.5864 12.3954
  725 0.818350 7.05900 23.6072
  726 0.712007 7.07926 -23.6329
  727 -52.5258 1.51649 -6.34578
  728 -52.4530 1.51435 6.34134
  729 41.3849 13.3574 7.81746
  730 41.3215 13.3818 -7.80697
  731 366.761 -11.1413 -20.0780
  732 347.398 -30.3035 -8.63766
  733 -5.61371 -11.4822 17.7687
  734 -5.60643 -11.5362 -17.7461
  735 134.826 -0.700594 -83.9321
  736 131.303 2.19780 84.7510
  737 82.0779 15.6727 -12.9257
  738 81.8739 15.8275 13.0875
  739 7.14344 -13.2635 20.5155
  740 -0.502245 -37.5699 -10.0860
  741 171.547 9.47913 -19.5958
  742 171.633 9.41884 19.6964
  743 0.446188 -73.8747 9.34594
  744 102.276 14.1971 -5.14388
  745 102.255 14.2027 5.19041
  746 349.997 -0.318579 -6.05502
  747 350.014 -0.362126 5.97075
  748 6.89166 -99.8633 2.18391
  749 157.917 11.8333 14.7774
  750 157.872 11.8701 -14.7146
  751 42.7182 15.0464 -4.58601
  752 42.9370 14.8930 4.57427
  753 -63.2933 0.418634 -5.69983
  754 -63.2372 0.418084 5.69189
  755 175.262 3.08527 -3.40631
  756 175.283 3.07990 3.40759
  757 108.096 15.6216 -9.51445
  758 108.064 15.6409 9.59887
  759 0.765178 9.47400 18.2598
  760 0.686669 9.49856 -18.2789
  761 348.458 -25.9186 4.39910
  762 -54.2817 1.20226 4.83335
  763 -54.3551 1.20318 -4.83551
  764 751.242 145.874 -103.548
  765 -20.5525 2.14243 5.07814
  766 -20.6136 2.14371 -5.07948
  767 296.479 0.867794 11.1178
  768 296.407 0.921600 -11.1535
  769 550.734 34.6539 0.343851
  770 335.721 -0.943612 -4.60952
  771 335.793 -0.951679 4.59803
  772 214.590 3.17462 6.38081
  773 214.550 3.18580 -6.38104
  774 321.021 -36.4100 91.9741
  775 139.383 10.2884 -5.50691
  776 139.397 10.2748 5.52543
  777 3.18593 -55.8339 11.5114
  778 368.277 -46.3436 30.1125
  779 223.568 0.652888 1.09526
  780 223.528 0.654463 -1.09519
  781 293.100 0.135823 0.583749
  782 293.029 0.136256 -0.583627
  783 -1.32126 -29.6951 -17.4264
  784 1.78306 -50.6184 16.9754
  785 132.066 14.7227 20.5292
  786 132.062 14.7175 -20.3600
  787 744.479 7.42763 6.46406
  788 227.272 2.02060 -26.1739
  789 227.440 1.90027 26.2397
  790 -47.1606 1.56431 12.5018
  791 -47.2239 1.56813 -12.5172
  792 9.63868 -40.8213 3.57570
  793 6.24152 -93.1357 -6.56642
  794 518.024 67.0823 -8.22261
  795 -0.454958 -37.4626 9.10352
  796 10.5596 7.51310 21.2147
  797 10.5253 7.51079 -21.3104
  798 69.3339 13.7327 2.06679
  799 69.2940 13.7486 -2.04498
  800 345.791 -15.8178 -5.44964
  801 346.443 -15.6376 4.25832
  802 407.018 59.0400 -154.603
  803 -55.8562 0.627932 -2.21323
  804 -55.7825 0.627784 2.21255
  805 -26.2175 -0.108323 6.77076
  806 -26.2241 -0.109461 -6.77803
  807 25.1160 1.89828 6.48843
  808 24.5854 1.86941 -6.53899
  809 262.209 -1.40014 23.5631
  810 262.010 -1.17522 -23.5149
  811 133.587 3.60019 -0.862853
  812 133.591 3.59702 0.864143
  813 423.041 -6.61472 38.8184
  814 44.6341 7.18972 -4.09575
  815 44.6722 7.18638 4.10049
  816 41.5630 5.53940 -6.78300
  817 41.1879 5.73904 6.88462
  818 -0.146335 -29.3602 -23.4213
  819 597.873 91.8479 84.9770
  820 -86.6062 0.0954278 -2.51421
  821 -86.5212 0.0952724 2.51258
  822 -0.129228 -89.9988 8.81062
  823 6.32825 -13.1081 -20.7513
  824 -13.0249 -0.798176 5.03699
  825 -13.0194 -0.800204 -5.03858
  826 477.942 27.5893 -26.9195
  827 124.393 12.3849 -6.92688
  828 124.397 12.3766 6.96812
  829 328.027 -4.75648 -11.8712
  830 328.320 -4.80997 11.6872
  831 -82.7904 0.631559 3.34610
  832 -82.8718 0.632256 -3.34909
  833 -0.589098 -0.610185 -0.500170
  834 -0.590288 -0.611287 0.502157
  835 0.274449 -92.0499 -8.61487
  836 0.423810 -96.8582 -7.81091
  837 -91.2792 0.879408 0.501944
  838 -91.3665 0.879589 -0.502051
  839 49.9635 -15.2996 -55.2376
  840 203.338 2.51351 -1.86035
  841 203.370 2.51095 1.86027
  842 -6.54443 1.67411 0.644111
  843 -6.59814 1.67387 -0.644220
  844 302.086 0.838376 -7.37536
  845 302.152 0.820054 7.35949
  846 -34.4668 0.232999 6.43893
  847 -34.4821 0.233028 -6.44660
  848 182.908 2.06079 -126.021
  849 315.522 -26.9211 25.6943
  850 247.555 1.13829 -2.31466
  851 247.605 1.13608 2.31423
  852 312.641 -29.2855 -28.6980
  853 97.6527 10.9313 -1.92709
  854 97.6381 10.9298 1.94839
  855 134.901 8.89804 -4.17870
  856 134.910 8.88805 4.19062
  857 366.735 -7.84200 15.3307
  858 22.5443 13.2352 15.1205
  859 22.4465 13.2856 -15.1531
  860 23.1788 1.63309 1.19989
  861 23.1368 1.63243 -1.19972
  862 172.905 2.26132 1.56986
  863 172.886 2.26394 -1.56947
  864 452.735 -41.8445 51.0627
  865 283.475 1.64083 -9.65860
  866 283.544 1.60658 9.63722
  867 4.18775 4.30818 4.78123
  868 4.13553 4.31063 -4.78128
  869 284.205 -0.293990 2.72699
  870 284.139 -0.291676 -2.72764
  871 -52.8062 0.331283 -1.41251
  872 -52.7342 0.331606 1.41207
  873 -0.250193 -28.6735 8.11582
  874 -0.328726 -29.1222 -8.17827
  875 340.840 -4.80499 36.6750
  876 -20.6690 5.26299 18.8594
  877 -20.7374 5.27523 -18.8850
  878 -0.116164 -47.2396 -8.96832
  879 134.903 5.04730 -2.14221
  880 134.908 5.04297 2.14498
  881 248.314 -12.5139 -42.2145
  882 250.241 -13.8422 42.6295
  883 -10.6693 -3.75297 -25.1756
  884 -10.6227 -3.75371 25.1243
  885 13.5973 11.7738 16.8294
  886 13.5146 11.8058 -16.8445
  887 1.18887 -108.012 6.14101
  888 3.48800 9.19175 21.5810
  889 3.39702 9.21698 -21.6075
  890 229.293 -4.07554 -37.5234
  891 228.796 -4.26281 37.8232
  892 396.361 21.8072 43.9227
  893 90.9862 10.1833 0.750563
  894 91.0032 10.1844 -0.736293
  895 290.965 1.79899 -7.23205
  896 291.030 1.78463 7.22215
  897 -11.4066 -4.97790 22.1104
  898 -11.4278 -4.99689 -22.1498
  899 1.00736 -111.313 -4.08216
  900 -17.5421 -1.18077 21.6870
  901 -17.5757 -1.18388 -21.7182
  902 11.1450 10.6375 -13.2186
  903 11.2139 10.6159 13.2119
  904 -0.896022 -7.20116 3.98847
  905 -0.906109 -7.19381 -3.99438
  906 24.8676 11.9863 -11.8391
  907 24.9393 11.9595 11.8382
  908 5.32166 -8.71698 23.1414
  909 4.62800 -8.11303 -24.3180
  910 282.314 -8.01414 24.0094
  911 281.639 -7.62451 -24.1499
  912 -93.1025 0.268605 -0.737182
  913 -93.0143 0.268627 0.736999
  914 -8.00127 -0.723332 3.78596
  915 -7.99400 -0.724565 -3.78480
  916 0.383937 -67.1724 -8.18226
  917 -8.61438 -3.70033 -10.7843
  918 -8.61153 -3.69127 10.7853
  919 -36.3324 3.07083 16.0643
  920 -36.3938 3.07712 -16.0862
  921 87.9322 16.9425 -5.22786
  922 87.8671 16.9899 5.29686
  923 374.691 29.5983 -6.91920
  924 -4.28745 8.43934 16.5962
  925 -4.36014 8.45822 -16.6120
  926 138.931 8.77922 -39.2856
  927 138.944 8.90621 39.7320
  928 -16.5978 5.89092 13.3751
  929 -16.6653 5.90287 -13.3871
  930 454.464 -22.5448 -8.03289
  931 273.487 10.8899 19.0131
  932 330.023 -4.21205 -33.1712
  933 247.078 3.34339 -15.9619
  934 247.175 3.26280 15.9574
  935 -26.2310 3.53542 -6.59017
  936 -26.1667 3.53158 6.58701
  937 -59.0525 1.06948 8.02769
  938 -59.1233 1.07191 -8.03655
  939 -3.55984 -11.4964 -12.5174
  940 -3.53523 -11.5066 12.5405
  941 87.3887 5.72638 0.391190
  942 87.4043 5.72824 -0.387035
  943 -27.6145 2.86118 19.9110
  944 -27.6686 2.86375 -19.9410
  945 296.467 -0.126799 3.58355
  946 296.397 -0.124021 -3.58476
  947 -2.24341 -25.2674 18.9645
  948 10.9793 9.77158 -11.3621
  949 11.0425 9.75531 11.3583
  950 15.1464 6.80522 7.48388
  951 15.0935 6.81245 -7.48380
  952 50.8835 4.80424 -1.89035
  953 50.9152 4.80408 1.89235
  954 557.270 69.6595 -14.2220
  955 -2.19592 -0.606205 -1.49570
  956 -2.20064 -0.606188 1.49844
  957 19.0763 5.33062 -14.2973
  958 19.4004 5.17269 14.2410
  959 199.347 8.04239 -16.7466
  960 199.432 7.97331 16.7836
  961 25.4581 8.56543 -7.14983
  962 25.5093 8.55625 7.15220
  963 54.4157 -13.8844 73.6335
  964 375.469 -2.66829 -3.05240
  965 374.899 -2.56762 2.69917
  966 66.3251 -7.13496 64.1128
  967 69.6184 3.08509 -0.166022
  968 69.5952 3.08416 0.166868
  969 181.497 -6.42167 -108.933
  970 136.919 2.42265 0.863734
  971 136.915 2.42421 -0.863312
  972 17.3404 -18.1417 3.96001
  973 19.1633 -15.2503 -2.51520
  974 332.718 -0.342122 1.23565
  975 332.629 -0.341555 -1.23541
  976 -27.3685 0.0853235 15.9727
  977 -27.3968 0.0838470 -15.9928
  978 596.457 74.5723 33.2977
  979 -2.56758 -18.9547 -25.0210
  980 2.92559 -94.7662 10.5205
  981 -0.453998 -30.0823 23.0879
  982 343.974 -0.239944 -4.70393
  983 344.035 -0.251803 4.68336
  984 -4.54945 -8.32362 10.8123
  985 -4.56167 -8.32362 -10.8014
  986 428.509 44.5406 -24.4676
  987 755.380 6.66161 -4.34268
  988 -1.11871 -1.68015 -1.62787
  989 -1.11751 -1.68371 1.63023
  990 199.676 2.36656 -3.60976
  991 199.707 2.36203 3.61008
  992 -2.63707 -18.2222 25.1515
  993 277.967 1.30032 14.2590
  994 277.879 1.38080 -14.2873
  995 365.095 -24.2758 -15.0388
  996 -12.7633 -2.67380 12.2002
  997 -12.7676 -2.68366 -12.2062
  998 5.95372 -23.9660 17.9679
  999 -0.597445 -45.3064 18.1206
  1000 -0.0525007 -46.8668 8.95393
  1001 373.221 24.5089 -2.14418
  1002 427.567 46.8785 14.0217
  1003 306.270 -35.3049 -50.7011
  1004 4.36180 -44.3478 14.5230
  1005 5.53575 -63.8406 3.35764
  1006 84.8674 2.16430 0.266927
  1007 84.8504 2.16311 -0.266812
  1008 -3.40021 -3.87518 -5.15486
  1009 -3.39732 -3.87613 5.15903
  1010 2.90030 -36.4328 -19.3556
  1011 247.188 0.356022 -0.849524
  1012 247.238 0.354812 0.849459
  1013 49.3471 -0.451336 -23.7370
  1014 47.2141 -0.334892 23.5090
  1015 -4.57336 7.59581 21.7668
  1016 -4.65963 7.61797 -21.8000
  1017 -29.1992 4.47152 -13.5495
  1018 -29.1313 4.46266 13.5356
  1019 188.233 3.06803 -38.4476
  1020 188.350 3.22512 38.8722
  1021 135.398 11.9995 -26.7505
  1022 135.389 11.9968 27.0114
  1023 147.054 10.7297 -8.89740
  1024 147.076 10.7076 8.92573
  1025 382.252 -10.7331 -43.0517
  1026 -10.1297 4.67938 23.8547
  1027 -10.2072 4.68804 -23.9014
  1028 270.789 -0.258604 19.4822
  1029 270.638 -0.0886424 -19.4928
  1030 -1.80273 -14.2664 26.2739
  1031 -21.8986 -0.734397 11.7798
  1032 -21.9098 -0.737924 -11.7922
  1033 246.693 2.31428 -19.3595
  1034 246.820 2.20049 19.3640
  1035 304.298 7.23035 -30.8955
  1036 -0.374254 -45.0671 -19.0178
  1037 -3.65414 -17.7541 22.4954
  1038 -3.80630 -17.9630 -22.3054
  1039 173.797 10.2327 -13.7551
  1040 173.853 10.1869 13.7982
  1041 219.597 4.08240 7.90977
  1042 219.552 4.09923 -7.91062
  1043 364.345 -23.7106 13.0808
  1044 17.8109 1.84711 -0.332048
  1045 17.8549 1.84757 0.332087
  1046 309.751 -39.5004 54.1085
  1047 -1.97253 1.27416 1.61459
  1048 -2.02464 1.27373 -1.61464
  1049 66.6809 17.0371 0.520569
  1050 66.5940 17.0919 -0.479418
  1051 25.2319 13.4167 12.9800
  1052 25.1516 13.4506 -12.9850
  1053 3.37948 -55.1890 -11.9805
  1054 89.3907 3.44198 0.0308445
  1055 89.4055 3.44423 -0.0285299
  1056 266.105 8.80266 7.82353
  1057 249.432 1.93096 7.37950
  1058 249.379 1.94618 -7.38386
  1059 -1.54698 -14.8073 -26.3182
  1060 375.265 -4.79150 -7.78925
  1061 -0.0745276 -1.33281 26.1544
  1062 0.204794 -1.11457 -26.0379
  1063 342.045 -0.618088 -2.59715
  1064 342.128 -0.620792 2.59273
  1065 364.310 -1.24861 -4.55736
  1066 364.229 -1.29597 4.43192
  1067 -0.277427 -71.0171 6.74178
  1068 213.438 5.49188 -10.4799
  1069 213.486 5.46409 10.4813
  1070 259.933 2.39059 8.61387
  1071 259.875 2.41021 -8.62153
  1072 5.77815 6.08673 23.5699
  1073 5.74619 6.09023 -23.5922
  1074 565.013 37.7526 5.70799
  1075 -7.25199 -3.17139 26.8371
  1076 -7.35928 -3.10476 -26.9026
  1077 80.4118 15.8559 -0.692195
  1078 80.3714 15.8771 0.727584
  1079 -45.4636 0.871715 -2.43154
  1080 -45.3941 0.871712 2.43094
  1081 132.342 7.50499 -45.2755
  1082 132.170 7.87857 45.8347
  1083 37.9230 15.1438 10.0358
  1084 37.8352 15.1865 -10.0324
  1085 89.8074 10.2492 -33.2521
  1086 89.3490 10.6985 33.5508
  1087 -2.39517 -23.7258 -18.4770
  1088 317.405 4.23016 40.4419
  1089 222.738 0.0802741 141.567
  1090 35.6719 15.5353 10.3630
  1091 35.5678 15.5928 -10.3685
  1092 134.418 7.23301 -3.14670
  1093 134.425 7.22451 3.15436
  1094 488.627 1.24017 12.4661
  1095 31.2257 7.83868 6.57059
  1096 30.8313 7.93987 -6.68575
  1097 -14.5103 -3.19167 16.2470
  1098 -14.5214 -3.20616 -16.2629
  1099 -0.476588 -10.7536 4.35653
  1100 -0.495277 -10.7469 -4.37393
  1101 321.062 -0.298609 11.5060
  1102 320.961 -0.176710 -11.5963
  1103 0.454366 -22.8805 24.6506
  1104 -22.0290 1.38536 -21.7064
  1105 -21.9836 1.38718 21.6753
  1106 0.111830 -85.9984 -8.60177
  1107 -5.07786 -7.13916 26.7937
  1108 -5.06498 -6.99097 -26.8216
  1109 307.207 0.361801 -4.84540
  1110 307.278 0.355445 4.84052
  1111 316.594 -2.39968 13.8010
  1112 316.389 -2.20339 -13.8934
  1113 54.9486 12.1196 -10.9183
  1114 54.5316 12.3638 11.0288
  1115 -0.756967 -44.2985 -15.4254
  1116 416.925 -39.2523 -82.5460
  1117 540.707 69.1009 2.83956
  1118 5.53350 -67.3250 -1.29727
  1119 19.2525 10.9979 -17.2493
  1120 19.3652 10.9353 17.1683
  1121 51.4123 16.7169 4.68572
  1122 51.2930 16.7915 -4.66781
  1123 109.093 6.57583 1.12865
  1124 109.099 6.58051 -1.12241
  1125 -7.01384 -9.99017 21.0412
  1126 -7.00356 -10.0844 -21.0732
  1127 -20.0363 6.20057 17.3790
  1128 -20.1057 6.21398 -17.3994
  1129 -7.15802 7.83890 20.1454
  1130 -7.23675 7.85872 -20.1724
  1131 302.016 -15.4180 -23.5180
  1132 303.965 -15.5520 23.3138
  1133 0.273608 -50.9651 -18.0907
  1134 160.916 -0.488502 -56.8696
  1135 161.179 0.0192749 57.8338
  1136 51.2651 15.3449 -5.30587
  1137 51.3283 15.3131 5.32309
  1138 161.881 73.7460 158.390
  1139 40.0629 12.3393 7.47589
  1140 40.0070 12.3573 -7.46751
  1141 412.310 -45.5696 -19.5937
  1142 155.567 4.39144 2.57084
  1143 155.553 4.39751 -2.56848
  1144 -7.02717 -6.26724 12.8549
  1145 -7.03156 -6.28186 -12.8503
  1146 -8.39199 -7.53100 16.6401
  1147 -8.39147 -7.56038 -16.6415
  1148 270.300 -27.7883 -80.0671
  1149 275.813 -30.5669 80.6663
  1150 48.2333 1.94723 0.552095
  1151 48.2651 1.94816 -0.551212
  1152 169.550 7.90726 -31.1731
  1153 169.565 7.80332 31.4919
  1154 370.416 -49.9220 61.1663
  1155 330.187 -0.731193 0.719798
  1156 330.099 -0.730658 -0.719473
  1157 -29.5753 4.65392 15.5131
  1158 -29.6430 4.66316 -15.5310
  1159 -50.7713 1.58657 -8.14351
  1160 -50.6993 1.58381 8.13752
  1161 84.2435 0.427022 94.9480
  1162 257.150 17.3444 -15.8756
  1163 155.077 11.1588 -15.2813
  1164 155.127 11.1229 15.3654
  1165 481.671 -15.1833 88.8541
  1166 157.605 10.7117 -22.7096
  1167 157.667 10.6542 22.8561
  1168 39.1616 5.14415 -2.81114
  1169 39.1990 5.14329 2.81318
  1170 13.6436 -51.1427 8.93108
  1171 13.8011 -49.8567 -12.6041
  1172 213.717 -15.1890 -80.7970
  1173 216.674 -14.2111 80.7504
  1174 83.4738 13.6677 -23.1322
  1175 83.1252 13.9548 23.3750
  1176 376.556 -25.3210 -28.0086
  1177 -13.7698 -1.16853 24.4813
  1178 -13.8161 -1.16784 -24.5200
  1179 -0.266554 -20.4444 -25.3207
  1180 95.7235 2.33550 -59.7633
  1181 95.9459 2.63378 60.8026
  1182 -0.242581 -19.0770 4.85969
  1183 -0.207098 -19.1230 -4.91925
  1184 -90.5460 0.759787 -2.36579
  1185 -90.4604 0.759325 2.36396
  1186 299.948 -0.132807 -1.33983
  1187 300.021 -0.133893 1.33958
  1188 184.918 6.90292 -8.93018
  1189 184.960 6.87592 8.94130
  1190 -6.81488 -0.0862348 26.8455
  1191 -6.83587 0.0211181 -26.8966
  1192 0.0248369 -76.7274 -7.50779
  1193 -76.8993 0.181942 3.81589
  1194 -76.9718 0.182415 -3.82055
  1195 59.2244 -1.71851 -41.7866
  1196 58.7767 -1.34832 43.1270
  1197 349.843 -21.4282 -1.00160
  1198 99.6101 6.09109 -53.6844
  1199 99.6820 6.37219 54.2265
  1200 -42.6789 0.229265 5.85594
  1201 -42.7032 0.229059 -5.86353
  1202 1.11920 -67.1571 -12.7218
  1203 -12.8261 2.70735 -3.16687
  1204 -12.7690 2.70662 3.16650
  1205 52.5630 12.9727 5.48830
  1206 52.5107 12.9912 -5.47381
  1207 196.822 1.14734 -1.18643
  1208 196.850 1.14560 1.18667
  1209 265.630 1.29550 5.61494
  1210 265.573 1.30487 -5.61864
  1211 14.4913 -2.04061 14.7515
  1212 14.2747 -2.28834 -15.0144
  1213 2.45834 -38.6332 19.3275
  1214 476.066 64.9117 18.0422
  1215 -14.6752 -1.15191 9.25175
  1216 -14.6767 -1.15675 -9.25665
  1217 1.94195 -36.1764 -20.2122
  1218 -1.40498 -22.2914 13.5431
  1219 -1.33389 -22.0902 -14.0330
  1220 376.915 -4.10966 6.91540
  1221 0.335442 -87.8157 7.68867
  1222 2.73612 -26.5816 -22.5420
  1223 44.6812 1.51766 0.482557
  1224 44.6479 1.51677 -0.482569
  1225 -3.72981 -15.9450 24.7480
  1226 -41.6591 2.37698 -6.91201
  1227 -41.5896 2.37438 6.90810
  1228 769.485 13.3558 21.7765
  1229 -21.8108 2.52794 21.9458
  1230 -21.8647 2.52846 -21.9797
  1231 181.200 7.33362 -28.1884
  1232 181.358 7.19904 28.3573
  1233 11.7525 -18.0253 -9.71689
  1234 172.495 8.94612 -11.3026
  1235 172.541 8.90981 11.3315
  1236 7.10436 -53.4587 -3.07557
  1237 -3.74184 -15.9769 -24.7061
  1238 -29.2329 1.20895 4.13334
  1239 -29.2967 1.20939 -4.13443
  1240 -13.2037 0.977255 -25.0464
  1241 -13.1476 0.980088 25.0099
  1242 368.524 29.4699 31.2363
  1243 209.684 2.45664 -29.9055
  1244 209.932 2.38971 29.9806
  1245 -94.8411 0.225722 -0.875406
  1246 -94.7521 0.225669 0.875059
  1247 189.110 4.68023 -6.06359
  1248 189.140 4.66948 6.06572
  1249 -97.3967 -1.65828 -0.258043
  1250 -97.4862 -1.65901 0.258148
  1251 282.076 -20.1041 -34.2457
  1252 -44.6017 0.756695 12.4007
  1253 -44.6493 0.757358 -12.4181
  1254 284.927 -21.2178 33.9361
  1255 192.322 7.12750 -12.3559
  1256 192.374 7.08686 12.3713
  1257 22.5033 -53.1599 -41.4622
  1258 0.409452 -61.6122 -15.5101
  1259 -1.28959 -25.9151 23.2064
  1260 605.558 100.047 -85.0850
  1261 -0.146824 -57.7701 15.1381
  1262 630.553 59.4288 -38.0007
  1263 -0.337962 -107.023 -7.21706
  1264 30.1190 3.12912 -1.02260
  1265 30.1585 3.12926 1.02360
  1266 -0.267362 -24.4997 5.09332
  1267 -0.215720 -24.6298 -5.07919
  1268 107.158 2.79734 0.0349474
  1269 107.166 2.79903 -0.0343483
  1270 380.776 -29.0395 26.6254
  1271 7.45253 2.93494 -3.67022
  1272 7.50190 2.93420 3.67021
  1273 2.19734 -117.454 3.49518
  1274 1.39509 -125.044 -3.45669
  1275 350.207 -43.7666 -36.6828
  1276 -0.967479 -31.8809 14.9725
  1277 366.142 23.4135 -39.3301
  1278 -1.09432 -42.0140 14.7188
  1279 0.728970 -115.163 -5.55631
  1280 176.389 5.13638 -6.60392
  1281 176.418 5.11814 6.61058
  1282 -0.131058 -62.5883 6.65016
  1283 -0.161108 -51.9927 -14.9970
  1284 831.505 144.551 125.327
  1285 331.720 0.207365 0.553713
  1286 331.631 0.207352 -0.553430
  1287 8.74827 0.620254 21.4239
  1288 8.47049 0.975783 -21.5205
  1289 -5.13570 4.79857 25.2104
  1290 -5.25627 4.80723 -25.2667
  1291 353.151 -6.58008 -23.5981
  1292 327.419 -13.7175 -13.4366
  1293 327.089 -15.6117 13.5655
  1294 48.7226 5.81780 2.84985
  1295 48.6882 5.81878 -2.84618
  1296 -53.8559 1.44319 -9.70471
  1297 -53.7882 1.44017 9.69294
  1298 365.195 -50.5123 -52.0804
  1299 -2.73135 -6.60113 6.73424
  1300 -2.74183 -6.59616 -6.73110
  1301 385.070 -16.6147 40.6195
  1302 -4.04856 -15.2459 18.1970
  1303 -4.00423 -15.3025 -18.1139
  1304 -34.4190 2.31254 4.93079
  1305 -34.4853 2.31419 -4.93268
  1306 58.0687 6.37777 -21.5128
  1307 57.4786 6.71319 21.5040
  1308 91.1148 2.66068 0.398321
  1309 91.1004 2.65899 -0.397640
  1310 -37.2880 3.73161 15.3103
  1311 -37.3527 3.73852 -15.3290
  1312 311.228 0.796871 0.860693
  1313 311.148 0.796710 -0.860316
  1314 171.211 -1.76986 107.888
  1315 254.125 0.611412 1.98369
  1316 254.072 0.612873 -1.98369
  1317 168.589 3.54009 -43.3505
  1318 168.626 3.34319 43.7394
  1319 1.61604 -67.6898 -9.18029
  1320 65.2532 15.5639 -8.95059
  1321 64.9755 15.7524 9.06693
  1322 -0.634757 -0.579079 -0.836598
  1323 -0.637956 -0.579273 0.839034
  1324 217.357 6.67633 16.0576
  1325 217.275 6.74903 -16.0431
  1326 107.855 8.91882 2.28044
  1327 107.862 8.92394 -2.26783
  1328 159.010 9.01040 -7.64156
  1329 159.037 8.98847 7.65962
  1330 208.424 1.31963 -1.98980
  1331 208.458 1.31778 1.99007
  1332 -6.63751 -3.21684 -7.60470
  1333 -6.63634 -3.21310 7.60854
  1334 -63.5864 0.100113 2.92826
  1335 -63.6632 0.100277 -2.92946
  1336 -11.3177 -5.19716 -18.6039
  1337 -11.3090 -5.17124 18.5845
  1338 -36.3050 0.627013 1.23469
  1339 -36.3705 0.626646 -1.23491
  1340 -98.4436 0.904880 0.500385
  1341 -98.5338 0.905116 -0.500486
  1342 392.768 -49.7671 71.0926
  1343 284.049 -1.74894 -32.9175
</Section>

newXOutput 47

<Section columns = "stress_xx | stress_yy | stress_xy">
  1 348.890 -0.493534 0.351676
  2 348.988 -0.493856 -0.351849
  3 -108.668 0.527513 -1.47809
  4 0.174266 0.0450402 0.308644
  5 634.572 179.679 205.079
  6 717.301 203.528 -196.866
  7 0.173522 0.0443554 -0.307656
  8 -108.571 0.527418 1.47754
  9 347.834 -0.465412 -1.15186
  10 348.109 -1.04021 -1.87043
  11 351.394 -1.02847 -0.496069
  12 351.738 -0.979807 -2.18850
  13 352.594 -0.957275 -0.671186
  14 359.964 -0.917793 -0.934605
  15 362.505 -1.34465 -2.93438
  16 365.233 -0.630013 -2.00521
  17 366.950 0.175221 -3.87105
  18 381.850 -2.07036 -3.31554
  19 388.262 -1.59769 -4.27369
  20 395.334 -2.43521 -1.66299
  21 398.713 -3.24485 -0.990062
  22 395.826 -3.75104 5.16021
  23 382.249 -4.20696 10.8597
  24 350.670 -4.73355 23.2063
  25 299.661 2.62305 27.0044
  26 257.496 3.16012 25.1823
  27 198.952 6.68093 15.2702
  28 211.688 6.50005 1.33794
  29 176.971 19.4516 -9.74155
  30 244.287 8.89124 -27.3682
  31 281.466 2.14803 -22.4027
  32 343.634 -1.04275 -19.3895
  33 377.795 -5.10369 -13.0128
  34 395.195 -4.37174 -5.13606
  35 397.921 -3.14144 1.01030
  36 394.790 -2.40271 1.55458
  37 388.041 -1.60828 4.14533
  38 381.777 -2.09760 3.24157
  39 366.985 0.159634 3.83546
  40 365.304 -0.635891 1.99182
  41 362.596 -1.34835 2.92980
  42 360.061 -0.919729 0.932455
  43 352.691 -0.958483 0.670417
  44 351.837 -0.980871 2.18933
  45 351.493 -1.02925 0.496282
  46 348.206 -1.04085 1.87146
  47 347.931 -0.465722 1.15249
  48 328.934 0.909518 -0.429997
  49 304.493 0.401086 -0.964784
  50 273.962 -0.850303 -0.983996
  51 242.325 1.01537 -0.818547
  52 214.628 0.801107 -0.652870
  53 185.006 1.76039 -0.773836
  54 155.783 3.27764 -0.476061
  55 125.459 2.94172 -0.977482
  56 100.320 2.08754 -1.36344
  57 67.3405 1.35249 -1.43662
  58 33.8511 2.00177 -1.09319
  59 5.90263 1.65264 -1.05673
  60 -28.9583 0.974584 -0.968356
  61 -54.8773 -0.266707 -2.34502
  62 -79.9790 -1.68763 -1.07460
  63 -105.425 0.227413 0.712594
  64 -110.911 1.90244 -0.285513
  65 -111.277 0.844597 0.312701
  66 -107.565 0.428007 -0.145330
  67 -108.692 1.22730 -1.35025
  68 -106.945 1.48933 -0.146226
  69 -101.131 0.460945 -2.06749
  70 -102.261 0.917616 -2.22119
  71 -99.6611 0.871076 -1.25785
  72 -92.2467 0.548224 -1.88919
  73 -88.7809 0.980293 -3.10613
  74 -83.3590 1.09511 -2.55599
  75 -73.7452 0.559176 -4.40539
  76 -68.3419 0.172554 -3.68209
  77 -58.6216 0.248083 -4.24530
  78 -50.2466 0.186885 -4.69457
  79 -42.9565 0.0624401 -3.70497
  80 -32.8508 0.216195 -3.73226
  81 -24.1424 -0.0956573 -3.99044
  82 -15.7178 -0.436418 -3.49975
  83 -9.04615 -0.382141 -2.67903
  84 -4.43857 -0.667749 -2.23668
  85 -0.729565 -0.385895 -0.795793
  86 0.0591011 -0.427746 -0.281943
  87 -0.231300 -0.219814 -0.0506953
  88 -0.603962 -0.581053 -0.696666
  89 -0.586206 -3.75262 -1.94159
  90 -0.500879 -8.42616 -2.77154
  91 -0.259636 -14.4024 -4.04441
  92 -0.134889 -22.1303 -3.48824
  93 -0.114645 -29.2461 -4.39072
  94 -0.539188 -37.9446 -4.95850
  95 -0.220399 -48.6764 -5.01053
  96 0.102562 -59.4874 -4.80110
  97 0.234559 -71.0771 -4.73869
  98 0.359512 -82.9943 -4.66306
  99 0.0257595 -91.7782 -6.31459
  100 0.619334 -104.249 -5.65397
  101 0.757810 -118.864 -4.52503
  102 -0.0369750 -125.364 -6.01075
  103 1.07302 -136.076 -5.58184
  104 2.63310 -150.340 -2.69628
  105 5.13907 -154.230 -4.27817
  106 3.59772 -141.211 3.60856
  107 5.18745 -106.612 15.1266
  108 27.1341 -61.1838 44.3371
  109 85.3611 119.980 151.244
  110 977.088 52.2627 96.6343
  111 838.690 15.6584 35.1314
  112 811.635 5.77108 7.97521
  113 805.888 1.97524 -1.30299
  114 811.348 8.87648 -18.5447
  115 836.846 28.3509 -41.6004
  116 950.609 102.424 -122.671
  117 204.160 93.2914 -184.613
  118 45.4384 -60.4197 -54.1052
  119 13.3523 -116.686 -20.0759
  120 3.68677 -133.786 -3.90567
  121 4.13661 -148.450 2.34513
  122 1.17966 -144.461 2.05219
  123 0.425407 -132.664 4.75149
  124 0.460869 -124.829 3.76595
  125 0.653015 -112.370 6.39921
  126 -0.0327646 -105.178 6.21724
  127 0.258856 -94.9830 4.47785
  128 0.503190 -81.9953 5.68444
  129 0.0976856 -72.7263 4.50597
  130 0.147812 -59.5632 5.69083
  131 -0.594899 -49.2618 4.88955
  132 -0.416776 -37.9768 4.80426
  133 -0.0815004 -29.0854 4.40209
  134 -0.174685 -22.0031 3.49502
  135 -0.253664 -14.3603 4.00518
  136 -0.493689 -8.42038 2.75777
  137 -0.583107 -3.75828 1.94019
  138 -0.603197 -0.587044 0.698029
  139 -0.231270 -0.222409 0.0524263
  140 0.0559603 -0.428160 0.283530
  141 -0.735518 -0.385700 0.797833
  142 -4.44768 -0.667146 2.23877
  143 -9.05842 -0.380979 2.67973
  144 -15.7278 -0.434982 3.49841
  145 -24.1455 -0.0944693 3.98654
  146 -32.8455 0.216428 3.72767
  147 -42.9397 0.0629800 3.70016
  148 -50.2194 0.187499 4.68905
  149 -58.5805 0.247997 4.23952
  150 -68.2881 0.172419 3.67669
  151 -73.6830 0.558764 4.40012
  152 -83.2853 1.09443 2.55193
  153 -88.7010 0.979560 3.10285
  154 -92.1609 0.547746 1.88715
  155 -99.5700 0.870569 1.25658
  156 -102.168 0.917189 2.21984
  157 -101.038 0.460770 2.06644
  158 -106.849 1.48876 0.146077
  159 -108.595 1.22687 1.34972
  160 -107.469 0.427924 0.145317
  161 -111.179 0.844347 -0.312523
  162 -110.813 1.90180 0.285455
  163 -105.330 0.227421 -0.712308
  164 -79.8937 -1.68673 1.07422
  165 -54.8021 -0.266149 2.34417
  166 -28.8936 0.974897 0.968053
  167 5.95331 1.65297 1.05639
  168 33.8904 2.00229 1.09285
  169 67.3662 1.35364 1.43617
  170 100.332 2.08873 1.36300
  171 125.461 2.94284 0.977166
  172 155.772 3.27868 0.475835
  173 184.983 1.76184 0.773419
  174 214.593 0.802613 0.652431
  175 242.277 1.01627 0.817959
  176 273.900 -0.849069 0.983336
  177 304.417 0.401254 0.964233
  178 328.846 0.909228 0.429753
  179 91.6348 16.1629 -3.58129
  180 91.5866 16.1891 3.63595
  181 -1.75157 2.66485 26.2059
  182 -1.85048 2.64856 -26.2175
  183 208.989 -2.90172 -46.6718
  184 208.855 -3.30793 47.1713
  185 41.6007 9.56215 -1.80003
  186 41.1052 9.74326 1.81881
  187 30.2113 5.41256 -4.14852
  188 30.2553 5.41005 4.15020
  189 197.935 3.94619 -6.82650
  190 197.971 3.93106 6.82979
  191 -3.62565 8.01600 14.3270
  192 -3.69613 8.03236 -14.3385
  193 229.993 6.01159 -17.6240
  194 230.101 5.92411 17.6442
  195 -8.95864 -7.79945 20.7347
  196 -8.95601 -7.84490 -20.7606
  197 2.05487 -18.6741 -24.7960
  198 71.4639 3.72617 -42.7535
  199 2.52305 -19.9684 24.2127
  200 70.3208 4.30482 43.4477
  201 326.002 -44.0997 -67.7300
  202 337.411 -45.8441 64.9617
  203 117.043 4.07863 -1.02844
  204 117.038 4.07556 1.03083
  205 -18.9563 1.39534 -2.84140
  206 -18.8951 1.39536 2.84084
  207 -26.0480 3.97529 20.0924
  208 -26.1120 3.98311 -20.1228
  209 117.641 10.9689 -3.25804
  210 117.639 10.9637 3.27588
  211 35.8471 15.0474 9.86412
  212 35.7079 15.1382 -9.89179
  213 -33.4962 3.60922 -8.36465
  214 -33.4265 3.60471 8.35918
  215 263.210 0.512881 3.27074
  216 263.154 0.516484 -3.27152
  217 8.42919 -35.1500 10.5838
  218 9.16481 -31.8535 -9.39285
  219 -2.46589 -22.0433 23.3969
  220 -2.52084 -22.8928 -22.6585
  221 108.737 15.7523 -18.5911
  222 108.642 15.8272 18.7878
  223 -23.5119 -0.0906829 20.2228
  224 -23.5483 -0.0935464 -20.2506
  225 281.582 1.72792 -9.67371
  226 281.647 1.70276 9.66064
  227 303.011 -4.33363 -19.0837
  228 303.246 -4.64178 18.9983
  229 483.804 37.0558 -0.136762
  230 443.840 49.3413 26.7868
  231 437.738 -3.98392 -39.6864
  232 53.4469 12.0586 5.22776
  233 53.4001 12.0728 -5.21620
  234 3.66192 9.84935 20.1514
  235 3.57327 9.87860 -20.1757
  236 338.474 -20.4848 -12.7258
  237 336.506 -20.7369 13.8138
  238 187.177 1.79724 -2.47792
  239 187.202 1.79339 2.47850
  240 -41.7422 2.95047 13.4120
  241 -41.8110 2.95672 -13.4278
  242 -5.72847 -5.63760 -9.31985
  243 -5.72335 -5.63411 9.32570
  244 -46.3619 1.15612 4.25280
  245 -46.4346 1.15690 -4.25450
  246 153.894 11.6327 -11.7002
  247 153.925 11.6039 11.7458
  248 195.807 5.99630 -26.5783
  249 195.965 5.88992 26.6948
  250 47.1255 3.14859 -0.340895
  251 47.1596 3.14906 0.341826
  252 113.057 0.794610 -92.9209
  253 133.847 4.05566 101.344
  254 15.2128 6.96400 19.1926
  255 15.1448 7.11774 -19.2702
  256 460.453 -35.8214 -8.72568
  257 39.9351 15.1670 8.55878
  258 39.8593 15.2022 -8.55075
  259 110.836 11.8466 -34.8225
  260 110.629 12.1443 35.2103
  261 514.462 72.1191 -5.04593
  262 305.373 0.252643 13.0933
  263 305.276 0.347014 -13.1428
  264 -2.76453 -17.0604 -14.6229
  265 -2.68550 -17.1288 14.6809
  266 -0.600637 -40.5521 -20.1384
  267 1.35244 -47.4147 -18.6034
  268 0.715432 -47.4142 19.4698
  269 -7.64184 -6.63284 26.6785
  270 -7.67392 -6.62153 -26.7820
  271 16.3074 -37.7807 -6.68063
  272 17.5410 -34.8270 9.42532
  273 -17.6133 -1.48374 12.8418
  274 -17.6226 -1.49039 -12.8534
  275 217.150 6.15617 -10.9511
  276 217.208 6.11979 10.9553
  277 380.251 -39.3493 -2.81310
  278 83.9409 7.29125 -0.306467
  279 83.9603 7.29202 0.312301
  280 -1.00029 -38.0494 19.2483
  281 7.95840 7.85269 9.25838
  282 7.89823 7.86350 -9.26077
  283 604.854 42.2971 -16.1093
  284 296.265 0.258080 4.01554
  285 296.196 0.263565 -4.01881
  286 198.568 -9.59711 -70.2129
  287 200.322 -9.43492 71.3018
  288 379.753 -37.2982 -3.41896
  289 -36.0323 1.11584 15.9852
  290 -36.0769 1.11626 -16.0078
  291 371.905 -30.5988 114.858
  292 -16.0212 2.67270 24.2294
  293 -16.0803 2.67002 -24.2689
  294 62.8230 17.2737 -4.61679
  295 62.5815 17.4383 4.69458
  296 -66.0877 0.548932 0.767104
  297 -66.1676 0.548818 -0.767277
  298 313.353 5.77668 -156.560
  299 -61.8455 1.25562 -7.24582
  300 -61.7691 1.25324 7.23889
  301 -1.77913 -7.80610 27.2319
  302 -0.854303 -7.61333 -26.9625
  303 137.818 14.1271 -16.9509
  304 137.831 14.1173 17.0647
  305 29.9249 3.65537 3.11369
  306 29.8828 3.65581 -3.11308
  307 143.505 5.66345 -3.44749
  308 143.514 5.65647 3.45227
  309 13.4958 -10.2942 14.2447
  310 12.2993 -12.3302 -14.4116
  311 139.296 2.60275 -0.830803
  312 139.300 2.60062 0.831449
  313 -50.7545 1.32228 11.7267
  314 -50.8126 1.32437 -11.7431
  315 34.7977 -3.40964 -8.41696
  316 33.7559 -3.45244 7.49798
  317 309.017 -0.219785 1.12040
  318 308.939 -0.219052 -1.12020
  319 674.909 38.5126 26.5018
  320 69.7476 9.42809 2.05125
  321 69.7181 9.43134 -2.04161
  322 -14.8912 3.43004 5.84722
  323 -14.9532 3.43310 -5.84915
  324 96.0545 13.1251 -2.26172
  325 96.0322 13.1291 2.29254
  326 11.2327 9.99741 20.9082
  327 11.1591 10.0213 -20.9545
  328 1.44288 -68.4370 13.6736
  329 -68.4123 0.155886 -1.73978
  330 -68.3313 0.156066 1.73924
  331 235.848 0.741888 -2.13337
  332 235.892 0.739790 2.13337
  333 248.368 1.76374 -5.65810
  334 248.419 1.75327 5.65565
  335 -63.7143 1.10379 -5.27200
  336 -63.6352 1.10253 5.26876
  337 -1.32678 1.26015 0.671732
  338 -1.38049 1.25974 -0.671686
  339 -1.42645 -28.1203 14.5976
  340 -1.13458 -29.2480 -14.5779
  341 279.547 -23.2525 -47.3942
  342 290.387 -27.8005 46.5161
  343 166.016 8.19739 -7.23116
  344 166.042 8.17914 7.24295
  345 73.0619 17.2042 -2.38271
  346 72.9429 17.2794 2.44427
  347 -25.7332 4.96443 11.8792
  348 -25.8024 4.97331 -11.8897
  349 520.559 9.46444 13.1675
  350 27.4872 -40.3947 -30.7598
  351 29.3968 -37.6645 32.2240
  352 -11.0198 7.98309 18.9914
  353 -11.0956 8.00101 -19.0149
  354 -14.3889 -2.90719 23.6226
  355 -14.4243 -2.91344 -23.6628
  356 589.801 98.4710 -27.6006
  357 378.608 -5.53623 48.5227
  358 353.598 -8.29655 -8.61386
  359 353.273 -8.10392 8.03565
  360 247.771 -2.87073 -30.1813
  361 247.490 -3.12228 30.1913
  362 0.462944 -82.4383 -11.0582
  363 323.743 0.795198 -7.34606
  364 323.809 0.768553 7.31920
  365 4.19977 -77.5596 8.66132
  366 374.365 29.2587 -26.2815
  367 91.5539 3.21910 1.12179
  368 91.5383 3.21812 -1.12177
  369 249.214 1.87135 -22.4130
  370 249.380 1.73903 22.4374
  371 268.604 2.24298 -13.5868
  372 268.683 2.18436 13.5692
  373 -5.09320 3.02390 3.94723
  374 -5.15005 3.02519 -3.94771
  375 154.056 8.54085 -35.8014
  376 154.106 8.63378 36.1348
  377 318.482 -0.138816 1.83574
  378 318.401 -0.137456 -1.83613
  379 180.370 9.95188 -18.0445
  380 180.443 9.88915 18.1124
  381 208.403 3.30797 4.60846
  382 208.368 3.31498 -4.60809
  383 -9.95728 -1.79850 7.91891
  384 -9.95642 -1.80311 -7.91892
  385 -2.36579 -1.68166 -2.30251
  386 -2.36692 -1.68255 2.30607
  387 424.607 -53.2211 30.1779
  388 -5.54973 -13.3617 21.6015
  389 -5.51274 -13.4749 -21.6025
  390 69.0687 4.56599 -1.39800
  391 69.0941 4.56689 1.40041
  392 -2.11106 -10.5668 7.95182
  393 -2.13490 -10.5495 -7.95274
  394 26.5552 12.0399 10.1024
  395 26.4903 12.0615 -10.1012
  396 347.147 -1.45672 9.70217
  397 347.057 -1.32804 -9.87597
  398 -0.851181 -20.6256 25.9810
  399 -28.5270 -0.520206 12.1598
  400 -28.5467 -0.522648 -12.1747
  401 -0.961162 -21.7831 -25.6889
  402 325.874 0.111369 4.67798
  403 325.798 0.119273 -4.68644
  404 -3.05092 7.20535 23.8576
  405 -3.15493 7.22889 -23.8985
  406 240.848 3.62374 -9.02651
  407 240.902 3.60146 9.02244
  408 370.117 -15.8733 -8.11330
  409 371.324 -12.8066 6.11394
  410 -0.757128 -38.3150 -15.9990
  411 33.2105 12.3219 -7.09120
  412 33.4845 12.1832 7.05887
  413 367.918 24.0918 16.4259
  414 209.518 -11.2792 -97.1729
  415 215.120 -15.1843 101.729
  416 12.4565 11.4578 15.4623
  417 12.3781 11.4851 -15.4734
  418 154.382 4.29013 -2.35879
  419 154.393 4.28585 2.36053
  420 149.958 24.3544 154.604
  421 62.0633 14.5970 -3.78448
  422 62.1197 14.5721 3.80636
  423 3.83331 -36.4353 17.5030
  424 -0.465717 -62.2809 -13.8907
  425 24.5927 14.0479 14.3819
  426 24.5001 14.0895 -14.3961
  427 30.3474 8.16443 -6.14700
  428 30.3960 8.15723 6.14973
  429 -10.4651 -0.528233 -26.6223
  430 -10.4067 -0.542928 26.5790
  431 74.2677 14.6348 -14.2135
  432 73.9527 14.8589 14.3753
  433 371.796 -11.9864 -36.6429
  434 10.4769 -3.69607 20.5566
  435 10.1300 -3.59707 -20.6809
  436 270.701 -11.6012 -33.3512
  437 271.835 -12.4294 33.2958
  438 -67.6314 0.542790 -7.06286
  439 -67.5589 0.541103 7.05431
  440 0.00301106 -61.1659 12.4986
  441 -0.439697 -38.8486 14.2441
  442 -27.5126 1.77855 20.4567
  443 -27.5604 1.77813 -20.4865
  444 194.018 1.69526 -0.890569
  445 194.045 1.69317 0.890526
  446 -5.82487 -9.19872 14.6816
  447 -5.83439 -9.21955 -14.6658
  448 120.890 6.26882 -52.0888
  449 120.656 6.82250 52.6948
  450 1.00642 -74.0551 -13.7566
  451 673.763 23.9855 0.526437
  452 1.86964 -87.4933 -7.91647
  453 -79.9441 -0.00757479 -2.57087
  454 -79.8585 -0.00754955 2.56978
  455 -30.6761 4.33284 16.7083
  456 -30.7446 4.34209 -16.7304
  457 -35.8556 0.510790 12.2120
  458 -35.8855 0.510717 -12.2278
  459 132.247 13.6474 -11.4697
  460 132.255 13.6426 11.5393
  461 200.076 7.97124 -13.9630
  462 200.144 7.91797 13.9878
  463 -3.40474 -12.5058 26.8576
  464 -3.40937 -12.4232 -26.9699
  465 347.262 5.90334 -46.2455
  466 23.7313 -6.01833 -3.92729
  467 22.9067 -6.21743 4.35007
  468 5.51337 -78.7370 -0.998680
  469 3.52895 -91.4563 -1.53494
  470 -10.5933 -4.74031 15.1127
  471 -10.5977 -4.75733 -15.1189
  472 73.7822 -6.35359 -80.3653
  473 532.269 0.201426 -52.6206
  474 120.433 7.80937 3.22135
  475 120.434 7.81558 -3.21126
  476 175.042 1.82517 -50.1397
  477 175.445 1.77151 50.9029
  478 51.3747 17.9006 5.52841
  479 51.2787 17.9591 -5.51155
  480 158.056 11.7909 -26.3098
  481 158.129 11.7298 26.5083
  482 5.78179 3.15806 24.3021
  483 6.13097 3.33395 -24.2728
  484 -70.8749 1.04382 -5.21153
  485 -70.7941 1.04269 5.20741
  486 348.175 -40.6685 -26.9613
  487 276.666 0.139169 -1.54176
  488 276.729 0.138196 1.54201
  489 14.7749 1.96234 -1.67707
  490 14.8224 1.96264 1.67726
  491 -17.7810 6.44335 15.5847
  492 -17.8526 6.45680 -15.6011
  493 -40.1932 2.45662 -5.68294
  494 -40.1222 2.45431 5.68009
  495 120.441 11.7705 -5.05582
  496 120.440 11.7632 5.08291
  497 -14.4437 5.54766 21.9449
  498 -14.5183 5.56133 -21.9799
  499 318.803 -8.98427 -17.8179
  500 319.338 -9.43656 17.5596
  501 208.991 2.24273 -33.3665
  502 208.681 2.09220 33.6553
  503 77.7716 3.64672 -0.791329
  504 77.7930 3.64790 0.792305
  505 0.831549 -37.9236 -21.9963
  506 373.663 -13.5534 30.0704
  507 5.11830 -24.9417 -19.8921
  508 106.163 16.9821 11.7004
  509 106.226 16.9358 -11.5843
  510 344.371 -38.0525 26.6235
  511 26.2849 -34.9404 42.3070
  512 410.084 -52.7941 -53.1823
  513 279.372 1.12105 16.3595
  514 279.253 1.23369 -16.3826
  515 0.784568 -32.4400 22.8889
  516 -5.46911 -1.63199 -4.23369
  517 -5.47166 -1.63124 4.23686
  518 34.1909 1.83085 -0.499824
  519 34.2301 1.83151 0.499993
  520 -0.944735 -21.7122 9.37652
  521 -0.857172 -21.6109 -9.42460
  522 230.195 2.33051 3.65151
  523 230.152 2.33424 -3.65170
  524 648.116 114.353 48.5083
  525 26.8811 -16.4214 -8.39958
  526 20.9175 -22.1727 4.02840
  527 -6.47531 4.94404 -7.76035
  528 -6.41396 4.93801 7.75734
  529 -56.0774 0.886281 7.32855
  530 -56.1261 0.887275 -7.33850
  531 0.559835 -69.4507 13.7150
  532 -78.5928 0.686001 0.720969
  533 -78.6778 0.686035 -0.721123
  534 71.1870 -4.72925 -59.0916
  535 69.6080 -3.52286 61.3857
  536 65.1797 11.4936 -20.2808
  537 64.6876 11.7900 20.4233
  538 -15.0572 -3.15526 20.6696
  539 -15.0797 -3.16836 -20.6992
  540 64.1353 5.80176 1.46299
  541 64.1070 5.80183 -1.45932
  542 -32.9786 1.54523 2.44190
  543 -33.0457 1.54561 -2.44248
  544 75.6421 11.0863 1.51679
  545 75.6115 11.0927 -1.50059
  546 -1.51593 -4.92873 3.61929
  547 -1.52113 -4.92427 -3.61857
  548 27.4999 11.8710 12.8737
  549 27.3171 12.0387 -12.9333
  550 22.2161 3.60627 11.3295
  551 21.8997 3.57648 -11.5116
  552 282.815 1.95721 6.89323
  553 282.751 1.96835 -6.89890
  554 250.231 3.31388 11.0039
  555 250.167 3.34927 -11.0114
  556 -0.257254 -58.7787 -8.67032
  557 175.254 8.82205 -10.6883
  558 175.293 8.79276 10.7097
  559 175.720 4.08848 -3.99760
  560 175.743 4.08028 4.00023
  561 -23.7547 0.866367 -0.00762334
  562 -23.6920 0.866717 0.00776238
  563 299.977 16.2705 -8.90407
  564 393.106 -49.8585 -19.4536
  565 323.112 14.8930 35.0191
  566 2.64032 -50.1290 -16.0688
  567 -17.1780 5.51534 -10.2557
  568 -17.1114 5.50737 10.2492
  569 2.77932 -29.0751 21.6096
  570 -17.3691 0.502215 23.6698
  571 -17.4159 0.500039 -23.7041
  572 501.634 48.1816 -0.142777
  573 114.419 5.32540 -1.44960
  574 114.414 5.32176 1.45355
  575 759.677 64.4753 -66.3761
  576 -3.69658 -2.88063 27.6117
  577 -3.44025 -2.68053 -27.6350
  578 415.429 -37.0304 16.4708
  579 334.457 0.281243 -8.17397
  580 334.518 0.237326 8.12548
  581 153.789 -0.162691 -72.8161
  582 155.622 -0.626687 73.9650
  583 -8.56119 -8.22008 23.9239
  584 -8.56944 -8.26256 -23.9859
  585 80.7692 7.07939 38.5888
  586 81.4474 6.47074 -38.2619
  587 -65.6121 0.755735 -6.88882
  588 -65.5453 0.754504 6.87992
  589 489.708 41.6384 28.2062
  590 93.4890 8.62027 0.438701
  591 93.5046 8.62156 -0.429435
  592 110.331 13.7108 -26.4445
  593 110.184 13.8775 26.7358
  594 302.558 -0.653976 -16.0179
  595 302.710 -0.807527 15.9709
  596 -1.34933 -30.6573 -21.5284
  597 329.088 -0.409132 2.44790
  598 329.003 -0.407217 -2.44886
  599 -47.6570 0.951196 -0.954366
  600 -47.5845 0.951235 0.954242
  601 -84.3017 -0.589234 0.0242354
  602 -84.3888 -0.589670 -0.0242103
  603 7.06148 -45.9785 -7.45773
  604 -3.08062 -19.9077 18.4502
  605 -3.24925 -18.8336 -18.5738
  606 -37.3295 2.30954 17.0401
  607 -37.3842 2.31303 -17.0643
  608 230.227 5.62900 13.8888
  609 230.155 5.68369 -13.8860
  610 169.520 2.18258 0.944326
  611 169.504 2.18427 -0.944044
  612 38.3814 -10.4167 24.4481
  613 39.6094 -9.59791 -24.2193
  614 -1.18212 -15.1400 7.91994
  615 -1.21844 -15.0917 -7.94659
  616 394.350 26.9697 166.973
  617 -19.5159 -0.601134 7.33927
  618 -19.5169 -0.603903 -7.34518
  619 7.03491 -27.8548 -15.9919
  620 165.868 6.57954 -5.51239
  621 165.889 6.56754 5.51881
  622 81.3453 17.2157 -8.64412
  623 81.1896 17.3212 8.75777
  624 0.796983 -104.672 5.47538
  625 61.0448 16.8198 3.25007
  626 60.9740 16.8593 -3.22377
  627 -6.41498 6.91105 12.3266
  628 -6.48200 6.92298 -12.3349
  629 -0.470505 -51.8259 11.8397
  630 -84.1161 0.0861750 -2.56279
  631 -84.0289 0.0860293 2.56148
  632 109.175 2.89618 0.381099
  633 109.183 2.89847 -0.379812
  634 275.622 0.784478 4.56717
  635 275.561 0.789970 -4.56901
  636 243.309 -16.6204 127.539
  637 195.655 4.87581 -8.40169
  638 195.694 4.85421 8.40775
  639 3.20661 -4.04719 25.5176
  640 3.92411 -2.30958 -25.4710
  641 312.697 -31.2792 -103.262
  642 736.969 25.3501 -27.6050
  643 -77.4362 0.0619787 -4.76371
  644 -77.3576 0.0612107 4.75873
  645 18.7414 4.12619 -3.66845
  646 18.7889 4.12460 3.66901
  647 -1.45550 -32.5058 19.0153
  648 423.302 25.1017 -42.9267
  649 325.418 -0.570436 0.422618
  650 325.332 -0.569956 -0.422434
  651 -20.9251 -1.13930 -17.0559
  652 -20.9035 -1.13404 17.0348
  653 -0.0620176 -73.6489 -11.3686
  654 331.021 -0.592033 0.940780
  655 330.933 -0.591434 -0.940519
  656 30.5420 10.4594 8.53824
  657 30.4858 10.4736 -8.53492
  658 252.533 -21.8433 -67.7665
  659 257.105 -21.7560 68.5225
  660 368.867 -2.35041 5.60505
  661 368.945 -2.32518 -5.84573
  662 1.61673 -92.8250 8.88450
  663 -20.0214 0.658890 -1.42028
  664 -19.9600 0.659291 1.42010
  665 121.025 11.6570 -121.186
  666 113.588 2.58119 0.884895
  667 113.594 2.58257 -0.884304
  668 55.9672 4.16085 0.661435
  669 55.9364 4.16040 -0.659760
  670 66.5340 7.30507 -1.08205
  671 66.5625 7.30407 1.08849
  672 215.700 6.07085 -21.4800
  673 215.830 5.96935 21.5342
  674 57.2659 16.6885 0.687860
  675 57.0961 16.8052 -0.655998
  676 -38.9292 2.90730 -9.70887
  677 -38.8579 2.90196 9.70083
  678 -45.3098 3.12151 -11.0495
  679 -45.2385 3.11601 11.0379
  680 379.092 -5.74725 -1.13410
  681 0.427882 -15.3202 -26.0875
  682 379.680 -6.02853 0.598208
  683 481.955 37.8106 -0.620733
  684 -47.5625 0.223280 8.33755
  685 -47.6001 0.223212 -8.34904
  686 49.7965 14.3569 -2.81882
  687 49.4421 14.5359 2.86144
  688 -90.3588 0.0734256 -0.922550
  689 -90.2690 0.0734948 0.922228
  690 0.722082 -13.7866 26.1344
  691 -29.7517 0.412891 17.9498
  692 -29.7912 0.411634 -17.9746
  693 416.089 -34.7059 -18.0713
  694 65.8344 1.68166 -0.439171
  695 65.8082 1.68057 0.439710
  696 15.2234 6.11229 6.12517
  697 15.1713 6.11718 -6.12469
  698 220.093 -10.0138 -56.6668
  699 221.760 -10.4073 57.7722
  700 767.798 54.3820 60.4475
  701 14.8400 -70.1781 -25.2997
  702 -5.51998 -11.6325 25.5854
  703 -5.52980 -11.6790 -25.6428
  704 46.4919 10.3389 -4.62702
  705 46.5357 10.3301 4.63446
  706 340.259 -0.496765 -2.49506
  707 340.346 -0.498973 2.49261
  708 162.019 2.77493 1.64508
  709 162.005 2.77841 -1.64425
  710 13.5296 11.9284 18.6541
  711 13.4413 11.9649 -18.6796
  712 8.41935 3.06412 2.58304
  713 8.36894 3.06462 -2.58298
  714 -9.53982 2.30897 26.1193
  715 -9.60940 2.30896 -26.1707
  716 279.657 -0.212677 1.92184
  717 279.593 -0.210814 -1.92207
  718 242.055 2.12409 5.20692
  719 242.007 2.13070 -5.20781
  720 32.5883 -20.9372 29.4001
  721 33.5400 -22.4463 -28.4160
  722 -18.7430 4.09433 22.7777
  723 -18.8085 4.09974 -22.8151
  724 10.0863 -22.9752 12.5785
  725 0.891446 7.23178 24.0538
  726 0.782259 7.25229 -24.0807
  727 -53.5516 1.54183 -6.45617
  728 -53.4762 1.53961 6.45143
  729 42.3937 13.6312 7.90758
  730 42.3283 13.6563 -7.89734
  731 374.699 -11.3688 -20.4127
  732 354.904 -30.9312 -8.93808
  733 -5.72938 -11.7202 18.1449
  734 -5.72204 -11.7755 -18.1221
  735 137.871 -0.558844 -85.9371
  736 134.274 2.39788 86.7690
  737 83.9731 16.0317 -13.3290
  738 83.7637 16.1899 13.4933
  739 7.32803 -13.4832 20.8875
  740 -0.512029 -38.3741 -10.2993
  741 175.364 9.65292 -20.1041
  742 175.452 9.59221 20.2068
  743 0.454748 -75.4385 9.53910
  744 104.610 14.4747 -5.33891
  745 104.588 14.4809 5.38613
  746 357.419 -0.339699 -6.19225
  747 357.440 -0.383990 6.10694
  748 7.05374 -101.764 2.31092
  749 161.438 12.0524 15.1733
  750 161.393 12.0891 -15.1092
  751 43.7353 15.4020 -4.57681
  752 43.9595 15.2454 4.56396
  753 -64.6231 0.427228 -5.81449
  754 -64.5652 0.426670 5.80627
  755 179.117 3.10515 -3.50324
  756 179.139 3.09983 3.50463
  757 110.558 15.9394 -9.81678
  758 110.524 15.9596 9.90256
  759 0.864292 9.67890 18.5911
  760 0.783449 9.70403 -18.6111
  761 355.985 -26.4587 4.60522
  762 -55.3289 1.21910 4.91543
  763 -55.4051 1.22007 -4.91778
  764 766.734 149.298 -105.990
  765 -20.8630 2.17196 5.15601
  766 -20.9263 2.17333 -5.15755
  767 302.832 0.854741 11.3781
  768 302.757 0.909326 -11.4138
  769 562.542 35.3305 0.317234
  770 342.825 -0.977171 -4.71277
  771 342.902 -0.985376 4.70129
  772 219.258 3.19840 6.54355
  773 219.217 3.20960 -6.54358
  774 327.963 -37.0482 94.1124
  775 142.503 10.4673 -5.68479
  776 142.517 10.4539 5.70370
  777 3.26407 -56.9248 11.6992
  778 376.208 -47.2444 30.9209
  779 228.407 0.624357 1.12206
  780 228.366 0.625920 -1.12195
  781 299.333 0.113494 0.597839
  782 299.259 0.113938 -0.597695
  783 -1.34694 -30.3177 -17.7917
  784 1.82711 -51.6349 17.2982
  785 135.047 15.0295 21.0787
  786 135.044 15.0235 -20.9065
  787 759.692 7.53920 6.61372
  788 232.262 2.03322 -26.8115
  789 232.432 1.91147 26.8792
  790 -48.1181 1.59584 12.7478
  791 -48.1834 1.59974 -12.7638
  792 9.87408 -41.5584 3.55854
  793 6.39044 -94.8798 -6.79473
  794 529.181 68.5644 -8.63125
  795 -0.464103 -38.2656 9.29635
  796 10.8477 7.70550 21.5966
  797 10.8123 7.70292 -21.6950
  798 70.9563 14.0050 2.03403
  799 70.9149 14.0215 -2.01212
  800 353.233 -16.1671 -5.63416
  801 353.908 -15.9806 4.42424
  802 415.554 60.9337 -158.161
  803 -56.9263 0.631588 -2.24339
  804 -56.8498 0.631422 2.24260
  805 -26.7807 -0.109866 6.91402
  806 -26.7876 -0.111034 -6.92150
  807 25.7217 2.01455 6.51909
  808 25.1786 1.98523 -6.57170
  809 267.920 -1.46043 24.1336
  810 267.717 -1.23189 -24.0833
  811 136.575 3.63253 -0.905496
  812 136.579 3.62945 0.906829
  813 432.166 -6.60467 39.3861
  814 45.7286 7.31627 -4.13096
  815 45.7682 7.31264 4.13558
  816 42.5447 5.74166 -7.06062
  817 42.1610 5.94501 7.16357
  818 -0.139777 -29.9483 -23.8931
  819 610.384 94.2636 87.1220
  820 -88.3724 0.0952398 -2.55856
  821 -88.2842 0.0950824 2.55682
  822 -0.131788 -91.8819 8.98516
  823 6.49423 -13.3267 -21.1304
  824 -13.3081 -0.814698 5.14532
  825 -13.3026 -0.816776 -5.14697
  826 488.170 28.3915 -27.1731
  827 127.200 12.6168 -7.15240
  828 127.204 12.6089 7.19435
  829 335.066 -4.88371 -12.1617
  830 335.366 -4.93766 11.9753
  831 -84.4930 0.642247 3.40816
  832 -84.5773 0.642967 -3.41130
  833 -0.602420 -0.623903 -0.511934
  834 -0.603637 -0.625029 0.513968
  835 0.278765 -93.9731 -8.78253
  836 0.432243 -98.8412 -7.94854
  837 -93.0987 0.894156 0.508927
  838 -93.1895 0.894345 -0.509053
  839 51.1341 -15.3203 -56.6321
  840 207.767 2.52238 -1.91314
  841 207.800 2.51986 1.91313
  842 -6.53370 1.68832 0.653465
  843 -6.58946 1.68810 -0.653594
  844 308.530 0.828972 -7.54574
  845 308.599 0.810412 7.52994
  846 -35.2044 0.238031 6.57435
  847 -35.2203 0.238060 -6.58225
  848 186.956 2.37943 -128.950
  849 322.365 -27.4856 26.3545
  850 252.881 1.12476 -2.37370
  851 252.933 1.12254 2.37335
  852 319.430 -29.8962 -29.4253
  853 99.8864 11.1315 -2.03653
  854 99.8711 11.1303 2.05810
  855 137.923 9.04577 -4.32062
  856 137.932 9.03595 4.33281
  857 374.659 -8.00535 15.5880
  858 23.1154 13.5371 15.3608
  859 23.0149 13.5885 -15.3947
  860 23.8253 1.64043 1.20984
  861 23.7817 1.63982 -1.20971
  862 176.709 2.26350 1.61676
  863 176.688 2.26608 -1.61633
  864 462.339 -42.4843 52.3857
  865 289.557 1.64218 -9.88641
  866 289.629 1.60749 9.86511
  867 4.41234 4.38000 4.84514
  868 4.35818 4.38261 -4.84538
  869 290.268 -0.328046 2.79336
  870 290.200 -0.325702 -2.79392
  871 -53.7932 0.326717 -1.43900
  872 -53.7184 0.327043 1.43852
  873 -0.254893 -29.2909 8.28891
  874 -0.335092 -29.7492 -8.35256
  875 348.363 -4.87610 37.3350
  876 -21.0492 5.37822 19.2227
  877 -21.1197 5.39070 -19.2494
  878 -0.118313 -48.2498 -9.15731
  879 137.920 5.11067 -2.21918
  880 137.925 5.10646 2.22204
  881 253.767 -12.7769 -43.2327
  882 255.732 -14.1324 43.6570
  883 -10.8779 -3.81833 -25.6935
  884 -10.8301 -3.81893 25.6407
  885 13.9793 12.0305 17.1193
  886 13.8941 12.0633 -17.1352
  887 1.21344 -110.237 6.24777
  888 3.63073 9.40450 21.9806
  889 3.53723 9.43017 -22.0083
  890 234.343 -4.17132 -38.4322
  891 233.835 -4.36100 38.7389
  892 405.054 22.3785 44.6086
  893 93.0761 10.3666 0.827820
  894 93.0940 10.3673 -0.813405
  895 297.182 1.80630 -7.40074
  896 297.249 1.79179 7.39098
  897 -11.6387 -5.07406 22.5719
  898 -11.6605 -5.09354 -22.6124
  899 1.03090 -113.560 -4.12969
  900 -17.8999 -1.19809 22.1361
  901 -17.9346 -1.20134 -22.1683
  902 11.4871 10.8595 -13.4381
  903 11.5582 10.8372 13.4307
  904 -0.914980 -7.35945 4.07538
  905 -0.925292 -7.35196 -4.08143
  906 25.5095 12.2370 -12.0202
  907 25.5835 12.2095 12.0186
  908 5.46982 -8.85138 23.5762
  909 4.75957 -8.23760 -24.7812
  910 288.449 -8.20828 24.5978
  911 287.760 -7.81165 -24.7397
  912 -94.9707 0.270581 -0.747476
  913 -94.8791 0.270602 0.747263
  914 -8.17698 -0.738542 3.86825
  915 -8.16958 -0.739807 -3.86708
  916 0.391700 -68.6027 -8.35251
  917 -8.79743 -3.77742 -11.0160
  918 -8.79444 -3.76813 11.0170
  919 -37.0593 3.13660 16.3804
  920 -37.1227 3.14301 -16.4030
  921 89.9559 17.2968 -5.44088
  922 89.8887 17.3458 5.51080
  923 383.125 30.2244 -6.97856
  924 -4.29204 8.61760 16.8966
  925 -4.36699 8.63695 -16.9132
  926 142.068 8.99337 -40.2683
  927 142.080 9.12322 40.7231
  928 -16.8609 6.01021 13.6152
  929 -16.9306 6.02249 -13.6279
  930 464.160 -22.8213 -7.94121
  931 279.897 11.1440 19.3162
  932 337.357 -4.27491 -33.7676
  933 252.445 3.37430 -16.3480
  934 252.544 3.29268 16.3440
  935 -26.6772 3.59890 -6.69601
  936 -26.6106 3.59491 6.69254
  937 -60.2505 1.08922 8.17969
  938 -60.3237 1.09171 -8.18894
  939 -3.63406 -11.7402 -12.7856
  940 -3.60885 -11.7506 12.8091
  941 89.4027 5.81115 0.438997
  942 89.4190 5.81283 -0.434820
  943 -28.1667 2.92656 20.3110
  944 -28.2225 2.92914 -20.3420
  945 302.777 -0.154676 3.66833
  946 302.704 -0.151863 -3.66942
  947 -2.28775 -25.7951 19.3623
  948 11.3253 9.97023 -11.5458
  949 11.3906 9.95346 11.5414
  950 15.5982 6.93206 7.59242
  951 15.5434 6.93960 -7.59264
  952 52.1185 4.87576 -1.89506
  953 52.1514 4.87545 1.89700
  954 569.050 71.4899 -14.9156
  955 -2.24553 -0.619249 -1.52923
  956 -2.25036 -0.619227 1.53203
  957 19.5493 5.49719 -14.5127
  958 19.8811 5.33632 14.4544
  959 203.735 8.17373 -17.1701
  960 203.822 8.10399 17.2082
  961 26.1312 8.72939 -7.24539
  962 26.1842 8.71983 7.24749
  963 55.6524 -13.6556 75.4215
  964 383.448 -2.73458 -3.13592
  965 382.872 -2.63158 2.77667
  966 67.8615 -6.99583 65.7106
  967 71.2563 3.11453 -0.186325
  968 71.2323 3.11367 0.187163
  969 185.541 -6.38519 -111.475
  970 139.975 2.42921 0.887874
  971 139.970 2.43071 -0.887433
  972 17.7602 -18.4171 3.93638
  973 19.6270 -15.4639 -2.45679
  974 339.736 -0.358142 1.26443
  975 339.644 -0.357561 -1.26415
  976 -27.9407 0.0895600 16.3054
  977 -27.9699 0.0880225 -16.3261
  978 609.115 76.1974 34.2161
  979 -2.61180 -19.3328 -25.5341
  980 3.00634 -96.4676 10.8547
  981 -0.456362 -30.6910 23.5573
  982 351.251 -0.258301 -4.80923
  983 351.315 -0.270361 4.78855
  984 -4.64515 -8.50007 11.0450
  985 -4.65769 -8.50017 -11.0339
  986 437.901 45.5733 -24.7433
  987 770.770 6.76204 -4.44199
  988 -1.14285 -1.71818 -1.66436
  989 -1.14162 -1.72182 1.66677
  990 204.032 2.37197 -3.70534
  991 204.064 2.36747 3.70578
  992 -2.68142 -18.5837 25.6661
  993 283.957 1.29165 14.5972
  994 283.866 1.37329 -14.6252
  995 372.986 -24.7711 -15.2351
  996 -13.0342 -2.72820 12.4605
  997 -13.0387 -2.73830 -12.4667
  998 6.10675 -24.4024 18.2879
  999 -0.606921 -46.2437 18.4897
  1000 -0.0537826 -47.8700 9.14299
  1001 381.636 25.0136 -2.19908
  1002 436.985 47.9166 14.1183
  1003 312.932 -36.0066 -51.9269
  1004 4.46983 -45.2061 14.7738
  1005 5.66937 -65.0497 3.34924
  1006 86.8289 2.17135 0.266447
  1007 86.8113 2.17023 -0.266337
  1008 -3.47319 -3.95859 -5.26764
  1009 -3.47022 -3.95952 5.27188
  1010 2.97562 -37.1393 -19.7180
  1011 252.504 0.325811 -0.871248
  1012 252.556 0.324601 0.871212
  1013 50.5043 -0.335974 -24.4044
  1014 48.3231 -0.217236 24.1701
  1015 -4.60708 7.76949 22.1792
  1016 -4.69578 7.79205 -22.2137
  1017 -29.7446 4.56285 -13.8019
  1018 -29.6744 4.55377 13.7873
  1019 192.421 3.13207 -39.3881
  1020 192.539 3.29372 39.8216
  1021 138.454 12.2565 -27.4437
  1022 138.444 12.2543 27.7095
  1023 150.338 10.9187 -9.15329
  1024 150.361 10.8967 9.18225
  1025 390.588 -10.8899 -43.7744
  1026 -10.2967 4.79111 24.3220
  1027 -10.3763 4.79981 -24.3703
  1028 276.663 -0.298791 19.9503
  1029 276.508 -0.126156 -19.9600
  1030 -1.82424 -14.5370 26.8032
  1031 -22.3643 -0.748079 12.0289
  1032 -22.3758 -0.751699 -12.0416
  1033 252.064 2.32480 -19.8281
  1034 252.194 2.20949 19.8335
  1035 311.253 7.42546 -31.4232
  1036 -0.377689 -45.9953 -19.4042
  1037 -3.72544 -18.1174 22.9647
  1038 -3.88086 -18.3314 -22.7711
  1039 177.650 10.4124 -14.1194
  1040 177.707 10.3663 14.1636
  1041 224.374 4.12628 8.10934
  1042 224.328 4.14319 -8.10993
  1043 372.220 -24.1946 13.2447
  1044 18.3434 1.85968 -0.334265
  1045 18.3891 1.86010 0.334290
  1046 316.478 -40.2834 55.4140
  1047 -1.86666 1.27891 1.63290
  1048 -1.92075 1.27852 -1.63302
  1049 68.2392 17.3988 0.433606
  1050 68.1498 17.4550 -0.392190
  1051 25.8766 13.7045 13.1808
  1052 25.7940 13.7392 -13.1865
  1053 3.46110 -56.2679 -12.1774
  1054 91.4473 3.47677 0.0623540
  1055 91.4627 3.47891 -0.0600352
  1056 272.428 8.99218 7.95070
  1057 254.813 1.93224 7.56004
  1058 254.758 1.94759 -7.56420
  1059 -1.56245 -15.0906 -26.8487
  1060 383.322 -4.89884 -7.90928
  1061 -0.0402574 -1.32869 26.6649
  1062 0.245518 -1.10682 -26.5452
  1063 349.265 -0.639743 -2.65586
  1064 349.352 -0.642497 2.65149
  1065 372.024 -1.28551 -4.66160
  1066 371.944 -1.33369 4.53434
  1067 -0.283153 -72.5332 6.88246
  1068 218.094 5.56419 -10.7417
  1069 218.144 5.53622 10.7435
  1070 265.531 2.40388 8.82061
  1071 265.471 2.42368 -8.82807
  1072 5.95858 6.24416 24.0107
  1073 5.92552 6.24753 -24.0341
  1074 577.075 38.4930 5.88535
  1075 -7.38209 -3.21835 27.3807
  1076 -7.49219 -3.15036 -27.4480
  1077 82.2733 16.1761 -0.792168
  1078 82.2314 16.1981 0.827916
  1079 -46.3029 0.877323 -2.46685
  1080 -46.2307 0.877299 2.46616
  1081 135.338 7.71340 -46.3999
  1082 135.160 8.09468 46.9696
  1083 38.8470 15.4697 10.1647
  1084 38.7566 15.5134 -10.1618
  1085 91.8722 10.5360 -34.1213
  1086 91.4031 10.9945 34.4252
  1087 -2.44289 -24.2222 -18.8652
  1088 324.533 4.35776 41.1666
  1089 227.610 0.364617 144.818
  1090 36.5408 15.8786 10.4946
  1091 36.4338 15.9374 -10.5009
  1092 137.428 7.34380 -3.25979
  1093 137.435 7.33544 3.26762
  1094 499.024 1.53129 12.4111
  1095 31.9766 8.06380 6.60184
  1096 31.5730 8.16679 -6.72036
  1097 -14.8146 -3.25525 16.5905
  1098 -14.8261 -3.27009 -16.6068
  1099 -0.486502 -10.9893 4.45092
  1100 -0.505609 -10.9825 -4.46871
  1101 327.927 -0.332880 11.7731
  1102 327.822 -0.208907 -11.8643
  1103 0.477151 -23.3270 25.1427
  1104 -22.4727 1.42170 -22.1490
  1105 -22.4259 1.42364 22.1169
  1106 0.113710 -87.8074 -8.77333
  1107 -5.16524 -7.26642 27.3369
  1108 -5.15197 -7.11498 -27.3654
  1109 313.737 0.345471 -4.95783
  1110 313.812 0.339041 4.95307
  1111 323.391 -2.48041 14.1294
  1112 323.180 -2.28066 -14.2225
  1113 56.2363 12.4399 -11.2870
  1114 55.8095 12.6889 11.3990
  1115 -0.771482 -45.2307 -15.7465
  1116 425.816 -39.8080 -84.5204
  1117 552.192 70.8687 3.26974
  1118 5.66875 -68.5882 -1.23742
  1119 19.7408 11.2615 -17.5363
  1120 19.8564 11.1978 17.4528
  1121 52.6309 17.0839 4.68674
  1122 52.5084 17.1603 -4.66916
  1123 111.568 6.67561 1.19747
  1124 111.574 6.68013 -1.19115
  1125 -7.15634 -10.1931 21.4835
  1126 -7.14594 -10.2895 -21.5164
  1127 -20.3938 6.33216 17.7081
  1128 -20.4654 6.34589 -17.7293
  1129 -7.24159 8.01194 20.5244
  1130 -7.32263 8.03218 -20.5525
  1131 308.571 -15.7578 -24.1077
  1132 310.559 -15.8926 23.9012
  1133 0.282998 -52.0102 -18.4525
  1134 164.530 -0.449570 -58.2446
  1135 164.796 0.0687731 59.2277
  1136 52.4891 15.6642 -5.33603
  1137 52.5544 15.6315 5.35310
  1138 165.325 76.1431 161.999
  1139 41.0470 12.5874 7.56411
  1140 40.9892 12.6060 -7.55596
  1141 421.135 -46.4021 -20.2114
  1142 159.015 4.43959 2.65668
  1143 159.001 4.44558 -2.65421
  1144 -7.17503 -6.39813 13.1302
  1145 -7.17960 -6.41312 -13.1256
  1146 -8.56663 -7.68626 16.9934
  1147 -8.56620 -7.71633 -16.9950
  1148 276.215 -28.2996 -81.9395
  1149 281.830 -31.1365 82.5510
  1150 49.4156 1.95620 0.578525
  1151 49.4486 1.95708 -0.577651
  1152 173.339 8.06931 -31.9544
  1153 173.353 7.96392 32.2796
  1154 378.379 -50.8569 62.6456
  1155 337.149 -0.756254 0.736030
  1156 337.058 -0.755699 -0.735679
  1157 -30.1381 4.75107 15.8089
  1158 -30.2080 4.76054 -15.8276
  1159 -51.7678 1.61346 -8.29186
  1160 -51.6933 1.61061 8.28551
  1161 86.1812 0.776003 97.2285
  1162 263.268 17.7237 -16.1365
  1163 158.543 11.3670 -15.6956
  1164 158.594 11.3311 15.7814
  1165 491.824 -15.1228 91.0089
  1166 161.131 10.9203 -23.2963
  1167 161.194 10.8624 23.4456
  1168 40.1430 5.22491 -2.83166
  1169 40.1818 5.22387 2.83359
  1170 13.9726 -52.0176 9.24780
  1171 14.1329 -50.6971 -13.0078
  1172 218.451 -15.4396 -82.6916
  1173 221.466 -14.4407 82.6408
  1174 85.3989 14.0138 -23.7727
  1175 85.0420 14.3067 24.0196
  1176 384.714 -25.8120 -28.4454
  1177 -14.0408 -1.18131 24.9828
  1178 -14.0883 -1.18069 -25.0226
  1179 -0.259504 -20.8404 -25.8275
  1180 97.9185 2.52647 -61.2387
  1181 98.1445 2.82879 62.2987
  1182 -0.247663 -19.4923 4.96419
  1183 -0.211462 -19.5394 -5.02510
  1184 -92.4091 0.774240 -2.40864
  1185 -92.3204 0.773763 2.40670
  1186 306.319 -0.159155 -1.37390
  1187 306.395 -0.160260 1.37371
  1188 188.990 7.00614 -9.17098
  1189 189.033 6.97904 9.18255
  1190 -6.92856 -0.0670086 27.3831
  1191 -6.94994 0.0427378 -27.4354
  1192 0.0241584 -78.3584 -7.66279
  1193 -78.5015 0.184887 3.89000
  1194 -78.5764 0.185369 -3.89486
  1195 60.6062 -1.58023 -42.8676
  1196 60.1491 -1.20167 44.2371
  1197 357.391 -21.8840 -1.11616
  1198 101.892 6.32732 -55.0160
  1199 101.965 6.61189 55.5676
  1200 -43.5894 0.234525 5.97817
  1201 -43.6145 0.234309 -5.98598
  1202 1.14620 -68.5141 -12.9571
  1203 -12.9624 2.74648 -3.20856
  1204 -12.9031 2.74567 3.20806
  1205 53.8194 13.2318 5.53018
  1206 53.7654 13.2510 -5.51580
  1207 201.116 1.12675 -1.21560
  1208 201.145 1.12503 1.21586
  1209 271.333 1.28722 5.75183
  1210 271.274 1.29666 -5.75538
  1211 14.8525 -2.01672 14.9788
  1212 14.6305 -2.27037 -15.2482
  1213 2.52349 -39.3944 19.6941
  1214 486.355 66.4455 18.1132
  1215 -14.9897 -1.17518 9.44956
  1216 -14.9914 -1.18014 -9.45463
  1217 1.99456 -36.8900 -20.6024
  1218 -1.43351 -22.7652 13.8309
  1219 -1.36121 -22.5587 -14.3310
  1220 384.992 -4.20122 7.02044
  1221 0.341992 -89.6724 7.84571
  1222 2.81186 -27.0941 -22.9785
  1223 45.7891 1.51812 0.488064
  1224 45.7546 1.51727 -0.488090
  1225 -3.79957 -16.2640 25.2586
  1226 -42.4445 2.41902 -7.03106
  1227 -42.3725 2.41633 7.02686
  1228 785.172 13.6050 22.2517
  1229 -22.2412 2.58861 22.3877
  1230 -22.2967 2.58906 -22.4227
  1231 185.231 7.47170 -28.8933
  1232 185.391 7.33525 29.0657
  1233 12.0423 -18.3136 -9.83014
  1234 176.317 9.09569 -11.6078
  1235 176.363 9.05922 11.6375
  1236 7.27713 -54.4506 -3.05079
  1237 -3.81206 -16.2970 -25.2166
  1238 -29.7270 1.21957 4.19635
  1239 -29.7931 1.22007 -4.19760
  1240 -13.4558 1.01217 -25.5533
  1241 -13.3981 1.01519 25.5157
  1242 376.751 30.1510 31.7031
  1243 214.312 2.48479 -30.6367
  1244 214.564 2.41763 30.7136
  1245 -96.7632 0.227960 -0.887742
  1246 -96.6708 0.227905 0.887350
  1247 193.255 4.73416 -6.22473
  1248 193.286 4.72343 6.22707
  1249 -99.3438 -1.69611 -0.263993
  1250 -99.4370 -1.69687 0.264098
  1251 288.231 -20.5320 -35.0853
  1252 -45.5292 0.773846 12.6524
  1253 -45.5783 0.774499 -12.6704
  1254 291.138 -21.6696 34.7683
  1255 196.552 7.23556 -12.6734
  1256 196.605 7.19463 12.6894
  1257 23.0285 -53.7796 -42.5278
  1258 0.419180 -62.8800 -15.8173
  1259 -1.30995 -26.4425 23.6838
  1260 618.175 102.737 -87.3050
  1261 -0.149080 -58.9730 15.4457
  1262 643.838 60.6957 -38.9813
  1263 -0.347782 -109.262 -7.35695
  1264 30.9112 3.16781 -1.01811
  1265 30.9522 3.16785 1.01905
  1266 -0.272635 -25.0319 5.20268
  1267 -0.219865 -25.1650 -5.18836
  1268 109.590 2.81469 0.0508414
  1269 109.598 2.81632 -0.0502374
  1270 389.006 -29.6055 27.0323
  1271 7.75359 2.97554 -3.71834
  1272 7.80481 2.97470 3.71819
  1273 2.24447 -119.797 3.52806
  1274 1.42508 -127.555 -3.49058
  1275 357.774 -44.6286 -37.6169
  1276 -0.986664 -32.5545 15.2877
  1277 374.291 23.9929 -39.9578
  1278 -1.11769 -42.9012 15.0270
  1279 0.745791 -117.537 -5.65078
  1280 180.277 5.20000 -6.78862
  1281 180.307 5.18173 6.79558
  1282 -0.134506 -63.9264 6.78939
  1283 -0.163801 -53.0858 -15.3078
  1284 848.473 147.890 128.130
  1285 338.710 0.201817 0.565501
  1286 338.617 0.201810 -0.565204
  1287 8.98214 0.680424 21.8116
  1288 8.69764 1.04361 -21.9107
  1289 -5.19817 4.91922 25.7015
  1290 -5.32187 4.92779 -25.7595
  1291 360.865 -6.70901 -24.0209
  1292 334.486 -14.0248 -13.7954
  1293 334.152 -15.9583 13.9310
  1294 49.9085 5.91172 2.86445
  1295 49.8728 5.91291 -2.86087
  1296 -54.9495 1.47148 -9.89143
  1297 -54.8796 1.46839 9.87917
  1298 373.063 -51.4690 -53.3658
  1299 -2.78919 -6.74317 6.88062
  1300 -2.79991 -6.73815 -6.87745
  1301 393.419 -16.9050 41.3033
  1302 -4.13090 -15.5639 18.5819
  1303 -4.08562 -15.6218 -18.4970
  1304 -35.0330 2.34917 5.00809
  1305 -35.1018 2.35091 -5.01019
  1306 59.4246 6.60724 -22.1268
  1307 58.8213 6.94955 22.1168
  1308 93.2082 2.67739 0.388699
  1309 93.1933 2.67578 -0.388027
  1310 -38.0266 3.80939 15.6084
  1311 -38.0933 3.81645 -15.6278
  1312 317.818 0.794807 0.878989
  1313 317.735 0.794646 -0.878593
  1314 175.021 -1.64574 110.401
  1315 259.581 0.587847 2.03257
  1316 259.526 0.589308 -2.03251
  1317 172.361 3.62719 -44.4097
  1318 172.396 3.42654 44.8061
  1319 1.65503 -69.0198 -9.31891
  1320 66.7753 15.9332 -9.26875
  1321 66.4908 16.1257 9.38669
  1322 -0.649963 -0.591634 -0.855802
  1323 -0.653239 -0.591829 0.858294
  1324 222.114 6.77638 16.4555
  1325 222.030 6.84987 -16.4402
  1326 110.305 9.07075 2.38506
  1327 110.312 9.07563 -2.37226
  1328 162.543 9.15996 -7.86237
  1329 162.571 9.13806 7.88091
  1330 212.956 1.30369 -2.03941
  1331 212.991 1.30185 2.03973
  1332 -6.77982 -3.28467 -7.76954
  1333 -6.77858 -3.28081 7.77341
  1334 -64.8298 0.0948635 2.97372
  1335 -64.9095 0.0950377 -2.97505
  1336 -11.5530 -5.30172 -18.9966
  1337 -11.5438 -5.27519 18.9766
  1338 -36.9366 0.624722 1.25206
  1339 -37.0047 0.624363 -1.25233
  1340 -100.421 0.921169 0.507134
  1341 -100.515 0.921416 -0.507254
  1342 401.168 -50.6493 72.8025
  1343 290.556 -1.76869 -33.5221
</Section>

newXOutput 48

<Section columns = "stress_xx | stress_yy | stress_xy">
  1 356.055 -0.510667 0.359984
  2 356.156 -0.511003 -0.360162
  3 -110.805 0.535629 -1.50803
  4 0.177613 0.0456648 0.314718
  5 647.144 184.169 209.520
  6 731.536 208.537 -201.174
  7 0.176850 0.0449628 -0.313704
  8 -110.705 0.535531 1.50745
  9 354.979 -0.482030 -1.17593
  10 355.261 -1.06761 -1.90840
  11 358.613 -1.05635 -0.507366
  12 358.968 -1.00822 -2.23496
  13 359.848 -0.985826 -0.687914
  14 367.365 -0.943395 -0.956871
  15 369.962 -1.37916 -2.99694
  16 372.754 -0.649845 -2.04950
  17 374.519 0.167187 -3.95626
  18 389.715 -2.12163 -3.38831
  19 396.266 -1.64039 -4.36559
  20 403.498 -2.49469 -1.70707
  21 406.966 -3.31951 -1.02370
  22 404.070 -3.83289 5.24053
  23 390.283 -4.29432 11.0424
  24 358.185 -4.82050 23.6159
  25 306.287 2.68855 27.4875
  26 263.421 3.24642 25.6204
  27 203.868 6.82243 15.5345
  28 216.880 6.63709 1.37392
  29 181.473 19.8449 -9.90313
  30 249.981 9.07987 -27.8633
  31 287.779 2.20427 -22.8033
  32 351.030 -1.05567 -19.7375
  33 385.767 -5.20962 -13.2354
  34 403.437 -4.46668 -5.21497
  35 406.167 -3.21422 1.04502
  36 402.950 -2.46156 1.59708
  37 396.046 -1.65116 4.23530
  38 389.645 -2.14936 3.31334
  39 374.557 0.151345 3.92032
  40 372.829 -0.655818 2.03603
  41 370.056 -1.38294 2.99241
  42 367.465 -0.945372 0.954749
  43 359.949 -0.987068 0.687180
  44 359.070 -1.00931 2.23586
  45 358.715 -1.05716 0.507604
  46 355.362 -1.06828 1.90947
  47 355.080 -0.482354 1.17659
  48 335.722 0.913604 -0.439719
  49 310.813 0.385305 -0.985020
  50 279.690 -0.901111 -1.00247
  51 247.434 0.996045 -0.833914
  52 219.188 0.773315 -0.664786
  53 188.973 1.75073 -0.787679
  54 159.160 3.29980 -0.483069
  55 128.219 2.95814 -0.994522
  56 102.562 2.09016 -1.38831
  57 68.9009 1.34434 -1.46284
  58 34.7139 2.01303 -1.11346
  59 6.18072 1.66302 -1.07636
  60 -29.4136 0.977172 -0.985763
  61 -55.8781 -0.284050 -2.39170
  62 -81.5092 -1.72902 -1.09547
  63 -107.495 0.229747 0.728374
  64 -113.100 1.93957 -0.289043
  65 -113.478 0.859959 0.321993
  66 -109.696 0.434486 -0.145012
  67 -110.857 1.25059 -1.37432
  68 -109.081 1.51825 -0.144055
  69 -103.156 0.468734 -2.10557
  70 -104.324 0.935642 -2.26283
  71 -101.679 0.887883 -1.27913
  72 -94.1197 0.558044 -1.92340
  73 -90.5968 0.999849 -3.16586
  74 -85.0699 1.11756 -2.60359
  75 -75.2657 0.570411 -4.49287
  76 -69.7569 0.176099 -3.75499
  77 -59.8406 0.253142 -4.33084
  78 -51.2984 0.191533 -4.79082
  79 -43.8599 0.0642811 -3.78099
  80 -33.5450 0.220961 -3.80924
  81 -24.6552 -0.0970268 -4.07344
  82 -16.0548 -0.445059 -3.57356
  83 -9.24283 -0.389794 -2.73615
  84 -4.53639 -0.681595 -2.28482
  85 -0.747711 -0.393936 -0.813522
  86 0.0589024 -0.436980 -0.288641
  87 -0.236220 -0.225673 -0.0525635
  88 -0.616595 -0.596386 -0.712277
  89 -0.598519 -3.83569 -1.98356
  90 -0.511117 -8.61003 -2.83054
  91 -0.264726 -14.7125 -4.12993
  92 -0.137302 -22.6049 -3.56182
  93 -0.116085 -29.8702 -4.48313
  94 -0.550157 -38.7485 -5.06200
  95 -0.224932 -49.7040 -5.11412
  96 0.104596 -60.7402 -4.89977
  97 0.239325 -72.5699 -4.83558
  98 0.367166 -84.7323 -4.75751
  99 0.0251802 -93.6896 -6.44174
  100 0.631162 -106.414 -5.76715
  101 0.773080 -121.324 -4.61195
  102 -0.0407131 -127.937 -6.12562
  103 1.09457 -138.845 -5.68567
  104 2.68943 -153.367 -2.72952
  105 5.25062 -157.287 -4.33153
  106 3.68478 -143.870 3.75108
  107 5.32935 -108.385 15.5794
  108 27.7173 -61.7055 45.4851
  109 87.0751 123.739 154.602
  110 996.188 53.3882 98.6198
  111 855.202 15.9578 35.8355
  112 827.615 5.86111 8.14502
  113 821.744 1.98521 -1.32823
  114 827.323 9.02742 -18.9146
  115 853.381 28.9087 -42.4525
  116 969.281 104.625 -125.208
  117 208.381 96.2691 -188.682
  118 46.4553 -60.9525 -55.4508
  119 13.6575 -118.635 -20.6148
  120 3.77441 -136.290 -4.05336
  121 4.22804 -151.380 2.35543
  122 1.20436 -147.362 2.07063
  123 0.432540 -135.362 4.83509
  124 0.469672 -127.385 3.83101
  125 0.666505 -114.689 6.52489
  126 -0.0334297 -107.365 6.34283
  127 0.264164 -96.9644 4.56753
  128 0.514270 -83.7135 5.80142
  129 0.100231 -74.2552 4.59846
  130 0.150894 -60.8162 5.80796
  131 -0.607434 -50.3022 4.99062
  132 -0.425102 -38.7812 4.90438
  133 -0.0823510 -29.7058 4.49468
  134 -0.177920 -22.4750 3.56865
  135 -0.258596 -14.6694 4.08983
  136 -0.503766 -8.60414 2.81647
  137 -0.595351 -3.84149 1.98213
  138 -0.615809 -0.602528 0.713674
  139 -0.236190 -0.228331 0.0543376
  140 0.0556837 -0.437401 0.290265
  141 -0.753806 -0.393734 0.815606
  142 -4.54569 -0.680974 2.28695
  143 -9.25535 -0.388603 2.73685
  144 -16.0649 -0.443588 3.57217
  145 -24.6582 -0.0958099 4.06942
  146 -33.5395 0.221201 3.80452
  147 -43.8425 0.0648381 3.77605
  148 -51.2703 0.192169 4.78513
  149 -59.7981 0.253058 4.32488
  150 -69.7014 0.175967 3.74942
  151 -75.2014 0.569992 4.48742
  152 -84.9937 1.11687 2.59938
  153 -90.5142 0.999097 3.16243
  154 -94.0310 0.557553 1.92126
  155 -101.585 0.887360 1.27779
  156 -104.227 0.935202 2.26141
  157 -103.059 0.468555 2.10444
  158 -108.981 1.51765 0.143876
  159 -110.756 1.25014 1.37375
  160 -109.595 0.434400 0.144984
  161 -113.376 0.859699 -0.321818
  162 -112.999 1.93890 0.288974
  163 -107.396 0.229757 -0.728082
  164 -81.4206 -1.72809 1.09506
  165 -55.8000 -0.283479 2.39082
  166 -29.3464 0.977474 0.985437
  167 6.23329 1.66332 1.07600
  168 34.7547 2.01350 1.11310
  169 68.9274 1.34545 1.46236
  170 102.575 2.09129 1.38784
  171 128.220 2.95919 0.994192
  172 159.149 3.30076 0.482839
  173 188.949 1.75213 0.787254
  174 219.151 0.774802 0.664341
  175 247.384 0.996933 0.833319
  176 279.626 -0.899854 1.00181
  177 310.734 0.385478 0.984458
  178 335.631 0.913310 0.439471
  179 93.6971 16.4841 -3.75121
  180 93.6472 16.5113 3.80655
  181 -1.74414 2.74633 26.7033
  182 -1.84542 2.72915 -26.7155
  183 213.522 -2.95449 -47.7744
  184 213.383 -3.36845 48.2839
  185 42.5665 9.83240 -1.96372
  186 42.0596 10.0167 1.98209
  187 30.9857 5.49965 -4.19068
  188 31.0314 5.49693 4.19221
  189 202.176 3.98219 -7.00607
  190 202.213 3.96704 7.00961
  191 -3.60235 8.17644 14.5715
  192 -3.67505 8.19323 -14.5836
  193 234.912 6.09574 -18.0511
  194 235.022 6.00728 18.0723
  195 -9.13820 -7.95305 21.1612
  196 -9.13564 -7.99953 -21.1878
  197 2.11697 -19.0126 -25.2681
  198 73.0862 3.94232 -43.8324
  199 2.59530 -20.3326 24.6710
  200 71.9182 4.53202 44.5397
  201 332.920 -44.9268 -69.3057
  202 344.549 -46.7030 66.4825
  203 119.631 4.11998 -1.07981
  204 119.626 4.11702 1.08224
  205 -19.2084 1.40582 -2.88087
  206 -19.1449 1.40580 2.88020
  207 -26.5424 4.06181 20.4797
  208 -26.6083 4.06976 -20.5111
  209 120.247 11.1598 -3.38917
  210 120.244 11.1549 3.40728
  211 36.6979 15.3849 9.97237
  212 36.5552 15.4776 -10.0014
  213 -34.0907 3.67435 -8.50501
  214 -34.0186 3.66969 8.49917
  215 268.735 0.486321 3.35072
  216 268.677 0.489939 -3.35139
  217 8.63261 -35.7738 10.7208
  218 9.38549 -32.4075 -9.50087
  219 -2.51085 -22.4833 23.8712
  220 -2.56754 -23.3523 -23.1187
  221 111.166 16.0881 -19.1033
  222 111.067 16.1650 19.3033
  223 -23.9837 -0.0866031 20.6305
  224 -24.0212 -0.0895883 -20.6591
  225 287.490 1.72776 -9.89630
  226 287.559 1.70233 9.88341
  227 309.410 -4.45502 -19.5334
  228 309.651 -4.76868 19.4478
  229 494.142 37.7865 -0.105539
  230 453.328 50.4530 27.0765
  231 446.960 -3.91749 -40.2501
  232 54.7022 12.2893 5.26524
  233 54.6537 12.3040 -5.25381
  234 3.81709 10.0636 20.5093
  235 3.72597 10.0934 -20.5348
  236 345.628 -20.9143 -13.0851
  237 343.620 -21.1710 14.1977
  238 191.191 1.78793 -2.54787
  239 191.217 1.78411 2.54854
  240 -42.5479 3.00944 13.6627
  241 -42.6189 3.01583 -13.6791
  242 -5.84745 -5.75430 -9.51673
  243 -5.84217 -5.75068 9.52264
  244 -47.2058 1.16793 4.31747
  245 -47.2811 1.16876 -4.31935
  246 157.257 11.8377 -12.0203
  247 157.287 11.8090 12.0668
  248 200.049 6.09354 -27.2252
  249 200.209 5.98594 27.3442
  250 48.2634 3.18201 -0.326193
  251 48.2988 3.18239 0.327089
  252 115.568 1.05566 -95.0995
  253 136.793 4.36768 103.690
  254 15.5959 7.15060 19.5126
  255 15.5263 7.30760 -19.5924
  256 470.039 -36.3499 -9.16046
  257 40.8908 15.4794 8.65435
  258 40.8127 15.5155 -8.64670
  259 113.312 12.1384 -35.7029
  260 113.099 12.4421 36.0976
  261 525.279 73.7678 -4.84206
  262 311.780 0.225364 13.3942
  263 311.679 0.321177 -13.4438
  264 -2.82019 -17.4128 -14.9271
  265 -2.73924 -17.4825 14.9861
  266 -0.609798 -41.3725 -20.5435
  267 1.38837 -48.3410 -18.9530
  268 0.736102 -48.3547 19.8458
  269 -7.78285 -6.75225 27.2128
  270 -7.81574 -6.74097 -27.3189
  271 16.6900 -38.3906 -6.94565
  272 17.9542 -35.3725 9.75615
  273 -17.9781 -1.51249 13.1080
  274 -17.9877 -1.51929 -13.1200
  275 221.791 6.23977 -11.2249
  276 221.850 6.20314 11.2296
  277 388.269 -40.1127 -3.02711
  278 85.8440 7.40720 -0.265534
  279 85.8642 7.40774 0.271384
  280 -1.01802 -38.8214 19.6370
  281 8.24617 8.00160 9.39703
  282 8.18397 8.01278 -9.39983
  283 617.400 43.1308 -16.5527
  284 302.442 0.235121 4.11110
  285 302.371 0.240661 -4.11424
  286 202.891 -9.74110 -71.8431
  287 204.678 -9.57601 72.9525
  288 387.763 -38.0248 -3.33198
  289 -36.7595 1.14104 16.3036
  290 -36.8056 1.14144 -16.3269
  291 379.686 -30.9861 117.455
  292 -16.3184 2.73999 24.7038
  293 -16.3792 2.73712 -24.7446
  294 64.2623 17.6642 -4.83475
  295 64.0148 17.8322 4.91329
  296 -67.3271 0.551700 0.776483
  297 -67.4100 0.551586 -0.776690
  298 319.946 6.22594 -160.040
  299 -63.0613 1.27765 -7.37591
  300 -62.9822 1.27520 7.36863
  301 -1.79173 -7.93553 27.7608
  302 -0.845398 -7.73694 -27.4832
  303 140.855 14.4018 -17.4059
  304 140.867 14.3925 17.5218
  305 30.6995 3.70370 3.14597
  306 30.6558 3.70427 -3.14546
  307 146.638 5.73620 -3.55847
  308 146.647 5.72933 3.56338
  309 13.8232 -10.4280 14.4530
  310 12.5981 -12.5053 -14.6258
  311 142.338 2.61126 -0.862896
  312 142.343 2.60920 0.863570
  313 -51.7790 1.34940 11.9557
  314 -51.8389 1.35152 -11.9726
  315 35.6066 -3.36963 -8.73090
  316 34.5425 -3.41412 7.79082
  317 315.425 -0.247392 1.14738
  318 315.345 -0.246642 -1.14713
  319 688.684 39.2673 27.1318
  320 71.3517 9.59401 2.03416
  321 71.3211 9.59763 -2.02453
  322 -15.0744 3.48554 5.93206
  323 -15.1386 3.48876 -5.93425
  324 98.2101 13.3698 -2.38719
  325 98.1868 13.3744 2.41839
  326 11.5396 10.2303 21.2728
  327 11.4640 10.2545 -21.3207
  328 1.47693 -69.7944 13.9225
  329 -69.7110 0.151071 -1.76454
  330 -69.6270 0.151251 1.76394
  331 240.829 0.715313 -2.18618
  332 240.875 0.713223 2.18625
  333 253.609 1.75954 -5.79801
  334 253.663 1.74902 5.79572
  335 -64.9445 1.11964 -5.36148
  336 -64.8625 1.11834 5.35802
  337 -1.20092 1.26424 0.675399
  338 -1.25662 1.26387 -0.675388
  339 -1.45456 -28.7033 14.8990
  340 -1.15669 -29.8546 -14.8789
  341 285.526 -23.7149 -48.5137
  342 296.581 -28.3549 47.6180
  343 169.616 8.32310 -7.43378
  344 169.642 8.30491 7.44593
  345 74.7255 17.5665 -2.54006
  346 74.6032 17.6435 2.60222
  347 -26.1766 5.06063 12.0859
  348 -26.2481 5.06975 -12.0970
  349 531.314 9.98623 13.7653
  350 28.1257 -40.9622 -31.5787
  351 30.0793 -38.1627 33.0724
  352 -11.1744 8.15174 19.3374
  353 -11.2524 8.17005 -19.3618
  354 -14.6721 -2.95675 24.1006
  355 -14.7084 -2.96324 -24.1418
  356 602.043 100.697 -28.4851
  357 386.731 -5.57211 49.3309
  358 361.006 -8.48888 -8.83891
  359 360.679 -8.29168 8.25157
  360 253.082 -2.95428 -30.9004
  361 252.794 -3.20978 30.9114
  362 0.473478 -84.0750 -11.2528
  363 330.479 0.787292 -7.51193
  364 330.548 0.760276 7.48501
  365 4.29530 -79.0636 8.78519
  366 382.575 29.9123 -26.6470
  367 93.6161 3.24579 1.13252
  368 93.5999 3.24489 -1.13252
  369 254.536 1.87425 -22.9460
  370 254.705 1.74028 22.9716
  371 274.273 2.24985 -13.9036
  372 274.355 2.19050 13.8863
  373 -5.05999 3.06711 3.99738
  374 -5.11891 3.06851 -3.99802
  375 157.445 8.72754 -36.6811
  376 157.494 8.82299 37.0208
  377 325.079 -0.162427 1.87953
  378 324.995 -0.161046 -1.87984
  379 184.284 10.1233 -18.5013
  380 184.358 10.0601 18.5707
  381 212.847 3.33121 4.72858
  382 212.810 3.33819 -4.72807
  383 -10.1667 -1.83494 8.08576
  384 -10.1659 -1.83966 -8.08582
  385 -2.41644 -1.71742 -2.35272
  386 -2.41759 -1.71832 2.35636
  387 433.474 -54.1695 31.0131
  388 -5.65840 -13.6286 22.0443
  389 -5.62058 -13.7443 -22.0457
  390 70.6624 4.62540 -1.39097
  391 70.6887 4.62615 1.39334
  392 -2.15449 -10.7894 8.11974
  393 -2.17887 -10.7718 -8.12072
  394 27.2306 12.2811 10.2435
  395 27.1637 12.3033 -10.2426
  396 354.384 -1.51096 9.92516
  397 354.290 -1.38014 -10.1013
  398 -0.856361 -21.0215 26.4945
  399 -29.1174 -0.529107 12.4089
  400 -29.1378 -0.531620 -12.4243
  401 -0.968670 -22.2034 -26.1968
  402 332.633 0.0927953 4.78406
  403 332.554 0.100803 -4.79243
  404 -3.05603 7.37289 24.3024
  405 -3.16280 7.39678 -24.3447
  406 245.951 3.65587 -9.24490
  407 246.007 3.63343 9.24108
  408 377.917 -16.2025 -8.19737
  409 379.134 -13.0774 6.16893
  410 -0.770896 -39.1055 -16.3269
  411 33.9944 12.6269 -7.13182
  412 34.2748 12.4855 7.09797
  413 376.042 24.6056 16.6444
  414 214.059 -11.3954 -99.3934
  415 219.770 -15.3801 104.042
  416 12.8161 11.6964 15.7173
  417 12.7354 11.7243 -15.7292
  418 157.734 4.33318 -2.43483
  419 157.746 4.32899 2.43665
  420 153.226 25.3124 158.097
  421 63.4974 14.8867 -3.78020
  422 63.5556 14.8609 3.80208
  423 3.93032 -37.1154 17.8109
  424 -0.475040 -63.5571 -14.1685
  425 25.2063 14.3504 14.6005
  426 25.1112 14.3929 -14.6156
  427 31.1177 8.31299 -6.22000
  428 31.1680 8.30545 6.22250
  429 -10.6549 -0.522064 -27.1484
  430 -10.5949 -0.537050 27.1039
  431 75.9543 14.9828 -14.6469
  432 75.6317 15.2115 14.8111
  433 379.724 -12.2087 -37.2665
  434 10.7414 -3.71650 20.9103
  435 10.3867 -3.61648 -21.0379
  436 276.486 -11.8563 -34.1447
  437 277.642 -12.7001 34.0894
  438 -68.9924 0.551775 -7.19617
  439 -68.9175 0.550052 7.18729
  440 0.00275588 -62.4282 12.7510
  441 -0.447972 -39.6545 14.5369
  442 -28.0575 1.82017 20.8627
  443 -28.1067 1.81969 -20.8933
  444 198.167 1.68385 -0.918240
  445 198.195 1.68180 0.918232
  446 -5.94363 -9.38673 14.9879
  447 -5.95343 -9.40809 -14.9719
  448 123.581 6.47617 -53.3514
  449 123.341 7.04030 53.9683
  450 1.02863 -75.5450 -14.0169
  451 687.500 24.4084 0.524361
  452 1.91265 -89.1904 -8.02762
  453 -81.5006 -0.0141567 -2.61243
  454 -81.4119 -0.0141342 2.61124
  455 -31.2529 4.42340 17.0222
  456 -31.3236 4.43284 -17.0451
  457 -36.5938 0.522230 12.4599
  458 -36.6246 0.522141 -12.4762
  459 135.163 13.9053 -11.7991
  460 135.171 13.9009 11.8699
  461 204.382 8.09399 -14.3154
  462 204.452 8.04031 14.3409
  463 -3.45987 -12.7399 27.3917
  464 -3.46463 -12.6557 -27.5065
  465 354.846 6.09346 -47.0279
  466 24.2919 -6.04667 -3.89514
  467 23.4475 -6.25060 4.32812
  468 5.64374 -80.1837 -1.10818
  469 3.61577 -93.1707 -1.48873
  470 -10.8109 -4.83528 15.4272
  471 -10.8155 -4.85270 -15.4336
  472 75.4447 -6.08230 -82.2871
  473 543.218 0.616006 -54.0399
  474 123.094 7.93084 3.34017
  475 123.095 7.93685 -3.32990
  476 178.874 1.89055 -51.3336
  477 179.282 1.83602 52.1116
  478 52.5722 18.2791 5.54824
  479 52.4734 18.3390 -5.53168
  480 161.524 12.0255 -26.9725
  481 161.597 11.9639 27.1748
  482 5.95160 3.25974 24.7459
  483 6.30838 3.43944 -24.7162
  484 -72.2704 1.06087 -5.30303
  485 -72.1867 1.05970 5.29867
  486 355.540 -41.4758 -27.6603
  487 282.447 0.109268 -1.57766
  488 282.512 0.108285 1.57797
  489 15.2347 1.97757 -1.69047
  490 15.2840 1.97781 1.69059
  491 -18.0685 6.57383 15.8644
  492 -18.1423 6.58762 -15.8815
  493 -40.9173 2.49690 -5.77216
  494 -40.8439 2.49450 5.76905
  495 123.106 11.9797 -5.23198
  496 123.105 11.9728 5.25951
  497 -14.6870 5.67028 22.3600
  498 -14.7637 5.68418 -22.3962
  499 325.532 -9.19560 -18.2511
  500 326.079 -9.65623 17.9899
  501 213.516 2.27392 -34.1690
  502 213.198 2.12147 34.4638
  503 79.5475 3.68466 -0.783901
  504 79.5697 3.68573 0.784854
  505 0.857518 -38.6677 -22.4233
  506 381.603 -13.8092 30.5760
  507 5.24799 -25.3896 -20.2472
  508 108.534 17.3322 12.0551
  509 108.599 17.2844 -11.9372
  510 351.657 -38.8076 27.3177
  511 26.9011 -35.2855 43.3820
  512 418.673 -53.7108 -54.4929
  513 285.278 1.10762 16.7429
  514 285.155 1.22188 -16.7655
  515 0.811110 -33.0706 23.3334
  516 -5.58553 -1.66603 -4.32424
  517 -5.58811 -1.66525 4.32746
  518 35.0602 1.83851 -0.500152
  519 35.1009 1.83912 0.500296
  520 -0.963912 -22.1684 9.57233
  521 -0.874569 -22.0650 -9.62151
  522 235.069 2.33616 3.74232
  523 235.025 2.33986 -3.74240
  524 661.439 116.931 49.8227
  525 27.5081 -16.6227 -8.71174
  526 21.4094 -22.4960 4.23724
  527 -6.48874 5.03203 -7.87847
  528 -6.42526 5.02576 7.87512
  529 -57.2307 0.904175 7.47458
  530 -57.2809 0.905189 -7.48485
  531 0.572413 -70.8575 13.9804
  532 -80.1001 0.693976 0.728344
  533 -80.1883 0.694014 -0.728536
  534 72.8000 -4.60679 -60.5374
  535 71.1884 -3.38028 62.8799
  536 66.6664 11.8086 -20.8559
  537 66.1633 12.1106 21.0003
  538 -15.3606 -3.21369 21.0923
  539 -15.3838 -3.22712 -21.1227
  540 65.6255 5.88917 1.45043
  541 65.5961 5.88943 -1.44680
  542 -33.5296 1.56300 2.47100
  543 -33.5992 1.56343 -2.47170
  544 77.3686 11.2893 1.47885
  545 77.3368 11.2962 -1.46258
  546 -1.54754 -5.03433 3.69705
  547 -1.55286 -5.02980 -3.69632
  548 28.1594 12.1576 13.0460
  549 27.9723 12.3287 -13.1077
  550 22.7484 3.74632 11.4645
  551 22.4248 3.71598 -11.6516
  552 288.737 1.96370 7.05317
  553 288.671 1.97493 -7.05867
  554 255.528 3.34123 11.2667
  555 255.462 3.37697 -11.2739
  556 -0.262578 -60.0044 -8.84745
  557 179.048 8.96227 -10.9709
  558 179.088 8.93292 10.9929
  559 179.508 4.12679 -4.11384
  560 179.532 4.11864 4.11662
  561 -24.1004 0.866722 -0.00212936
  562 -24.0353 0.867061 0.00225293
  563 306.848 16.6056 -9.05486
  564 401.372 -50.7973 -20.0339
  565 330.288 15.2488 35.5938
  566 2.70665 -51.0946 -16.3549
  567 -17.4302 5.61926 -10.4260
  568 -17.3613 5.61103 10.4191
  569 2.85341 -29.6210 22.0131
  570 -17.7061 0.522104 24.1423
  571 -17.7542 0.519790 -24.1776
  572 512.275 49.1937 0.0329472
  573 116.954 5.39364 -1.51684
  574 116.948 5.39014 1.52086
  575 775.001 65.8292 -67.8528
  576 -3.74252 -2.91376 28.1491
  577 -3.48000 -2.70928 -28.1725
  578 424.156 -37.6948 16.6076
  579 341.413 0.265284 -8.35654
  580 341.477 0.220682 8.30769
  581 157.175 -0.0714234 -74.5236
  582 159.043 -0.546871 75.6940
  583 -8.72756 -8.37785 24.4104
  584 -8.73608 -8.42131 -24.4739
  585 82.5959 7.32639 39.5679
  586 83.2891 6.70597 -39.2355
  587 -66.9442 0.770173 -7.02178
  588 -66.8753 0.768916 7.01256
  589 499.976 42.7246 28.4496
  590 95.5904 8.76370 0.501855
  591 95.6067 8.76472 -0.492510
  592 112.795 14.0225 -27.1355
  593 112.643 14.1929 27.4320
  594 308.929 -0.701299 -16.3885
  595 309.086 -0.857317 16.3417
  596 -1.37261 -31.2735 -21.9625
  597 335.893 -0.432429 2.50372
  598 335.805 -0.430482 -2.50459
  599 -48.5120 0.958710 -0.961723
  600 -48.4368 0.958735 0.961543
  601 -85.9230 -0.606759 0.0225398
  602 -86.0135 -0.607213 -0.0225237
  603 7.23065 -46.8109 -7.52809
  604 -3.14112 -20.3150 18.8307
  605 -3.31307 -19.2180 -18.9568
  606 -38.0721 2.35899 17.3744
  607 -38.1285 2.36252 -17.3994
  608 235.136 5.70278 14.2260
  609 235.061 5.75800 -14.2227
  610 173.176 2.18123 0.970582
  611 173.158 2.18288 -0.970274
  612 39.2722 -10.4704 25.1242
  613 40.5250 -9.63356 -24.8907
  614 -1.20618 -15.4592 8.08628
  615 -1.24332 -15.4100 -8.11355
  616 402.499 28.0147 170.714
  617 -19.9268 -0.612714 7.49216
  618 -19.9280 -0.615548 -7.49825
  619 7.20760 -28.3473 -16.2539
  620 169.459 6.67046 -5.66992
  621 169.481 6.65854 5.67658
  622 83.1861 17.5875 -8.94340
  623 83.0263 17.6954 9.05865
  624 0.813460 -106.727 5.54889
  625 62.4541 17.1639 3.22672
  626 62.3811 17.2046 -3.20041
  627 -6.44319 7.04529 12.5330
  628 -6.51240 7.05757 -12.5418
  629 -0.480221 -52.8988 12.0808
  630 -85.7704 0.0837972 -2.60543
  631 -85.6800 0.0836469 2.60401
  632 111.600 2.91378 0.411874
  633 111.608 2.91599 -0.410572
  634 281.393 0.765800 4.67623
  635 281.330 0.771329 -4.67793
  636 248.515 -16.7822 130.404
  637 199.854 4.93119 -8.62030
  638 199.894 4.90953 8.62670
  639 3.31030 -4.08917 25.9950
  640 4.04526 -2.31656 -25.9450
  641 319.323 -31.7648 -105.606
  642 751.802 25.8353 -28.2168
  643 -78.9982 0.0611649 -4.85281
  644 -78.9169 0.0603815 4.84761
  645 19.2774 4.18843 -3.70825
  646 19.3265 4.18669 3.70866
  647 -1.48302 -33.1684 19.4028
  648 432.327 25.7461 -43.5535
  649 332.140 -0.596560 0.433350
  650 332.051 -0.596059 -0.433146
  651 -21.3530 -1.15915 -17.4053
  652 -21.3307 -1.15374 17.3836
  653 -0.0637996 -75.1594 -11.5936
  654 337.854 -0.616011 0.962492
  655 337.762 -0.615392 -0.962192
  656 31.3086 10.6610 8.65122
  657 31.2506 10.6758 -8.64822
  658 257.963 -22.2498 -69.3333
  659 262.622 -22.1594 70.1037
  660 376.535 -2.41381 5.73955
  661 376.611 -2.38830 -5.98392
  662 1.65175 -94.6917 9.04353
  663 -20.2917 0.654744 -1.43585
  664 -20.2280 0.655130 1.43561
  665 123.635 12.4708 -123.968
  666 116.103 2.59159 0.911429
  667 116.110 2.59289 -0.910823
  668 57.2885 4.21364 0.644989
  669 57.2566 4.21332 -0.643355
  670 68.0722 7.42479 -1.05319
  671 68.1017 7.42352 1.05960
  672 220.339 6.16157 -22.0026
  673 220.471 6.05892 22.0583
  674 58.5857 17.0559 0.591738
  675 58.4116 17.1751 -0.560012
  676 -39.6499 2.96048 -9.87864
  677 -39.5761 2.95498 9.87015
  678 -46.1805 3.18237 -11.2506
  679 -46.1068 3.17672 11.2384
  680 387.019 -5.87545 -1.11845
  681 0.456697 -15.5976 -26.5920
  682 387.609 -6.16289 0.574447
  683 492.249 38.5789 -0.739694
  684 -48.5444 0.228412 8.50520
  685 -48.5833 0.228330 -8.51704
  686 50.9472 14.7055 -3.00150
  687 50.5845 14.8880 3.04413
  688 -92.1284 0.0708095 -0.934010
  689 -92.0352 0.0708802 0.933640
  690 0.759165 -14.0312 26.6371
  691 -30.3516 0.424911 18.3102
  692 -30.3923 0.423581 -18.3358
  693 424.833 -35.3202 -18.2383
  694 67.3641 1.68084 -0.457681
  695 67.3369 1.67980 0.458218
  696 15.6768 6.21871 6.20549
  697 15.6229 6.22385 -6.20526
  698 224.858 -10.1945 -57.9931
  699 226.555 -10.5951 59.1204
  700 783.249 55.5129 61.7711
  701 15.1880 -71.2750 -25.9739
  702 -5.62240 -11.8558 26.1013
  703 -5.63220 -11.9034 -26.1601
  704 47.6022 10.5310 -4.66110
  705 47.6475 10.5217 4.66840
  706 347.284 -0.518376 -2.55117
  707 347.375 -0.520625 2.54879
  708 165.525 2.78609 1.70004
  709 165.510 2.78950 -1.69915
  710 13.8966 12.1915 18.9704
  711 13.8058 12.2287 -18.9970
  712 8.74385 3.10446 2.61026
  713 8.69158 3.10505 -2.61031
  714 -9.70017 2.37469 26.6262
  715 -9.77151 2.37444 -26.6790
  716 285.499 -0.249423 1.96924
  717 285.433 -0.247541 -1.96939
  718 247.168 2.12653 5.33368
  719 247.118 2.13315 -5.33441
  720 33.3483 -21.1648 30.1892
  721 34.3189 -22.7061 -29.1836
  722 -19.0883 4.18694 23.2190
  723 -19.1557 4.19238 -23.2576
  724 10.3312 -23.3591 12.7575
  725 0.966912 7.40524 24.4971
  726 0.854866 7.42601 -24.5252
  727 -54.5713 1.56682 -6.56522
  728 -54.4932 1.56454 6.56018
  729 43.4063 13.9040 7.99417
  730 43.3388 13.9299 -7.98420
  731 382.628 -11.5955 -20.7428
  732 362.401 -31.5569 -9.24290
  733 -5.84465 -11.9575 18.5204
  734 -5.83725 -12.0140 -18.4972
  735 140.917 -0.410524 -87.9476
  736 137.247 2.60426 88.7923
  737 85.8711 16.3911 -13.7371
  738 85.6564 16.5528 13.9040
  739 7.51377 -13.6996 21.2559
  740 -0.521752 -39.1771 -10.5122
  741 179.182 9.82520 -20.6154
  742 179.271 9.76410 20.7202
  743 0.463254 -76.9988 9.73161
  744 106.946 14.7506 -5.53728
  745 106.923 14.7575 5.58517
  746 364.826 -0.361379 -6.32959
  747 364.850 -0.406406 6.24325
  748 7.21626 -103.650 2.44136
  749 164.960 12.2696 15.5720
  750 164.914 12.3063 -15.5065
  751 44.7552 15.7585 -4.56293
  752 44.9849 15.5986 4.54893
  753 -65.9496 0.435794 -5.92862
  754 -65.8898 0.435229 5.92012
  755 182.970 3.12307 -3.60103
  756 182.993 3.11779 3.60254
  757 113.022 16.2559 -10.1229
  758 112.986 16.2771 10.2100
  759 0.966920 9.88358 18.9192
  760 0.883726 9.90928 -18.9402
  761 363.503 -26.9972 4.81572
  762 -56.3692 1.23556 4.99643
  763 -56.4482 1.23657 -4.99897
  764 782.175 152.728 -108.435
  765 -21.1673 2.20077 5.23237
  766 -21.2329 2.20223 -5.23412
  767 309.175 0.840381 11.6389
  768 309.096 0.895732 -11.6747
  769 574.331 36.0035 0.289370
  770 349.915 -1.01123 -4.81605
  771 349.995 -1.01958 4.80458
  772 223.922 3.22029 6.70713
  773 223.880 3.23151 -6.70695
  774 334.896 -37.6790 96.2541
  775 145.623 10.6442 -5.86494
  776 145.638 10.6310 5.88424
  777 3.34258 -58.0091 11.8839
  778 384.129 -48.1396 31.7350
  779 233.241 0.594097 1.14896
  780 233.198 0.595648 -1.14882
  781 305.554 0.0901480 0.611973
  782 305.477 0.0906025 -0.611807
  783 -1.37245 -30.9386 -18.1560
  784 1.87137 -52.6466 17.6186
  785 138.029 15.3354 21.6321
  786 138.028 15.3287 -21.4567
  787 774.852 7.64885 6.76355
  788 237.248 2.04454 -27.4514
  789 237.421 1.92141 27.5209
  790 -49.0716 1.62724 12.9924
  791 -49.1390 1.63122 -13.0090
  792 10.1104 -42.2881 3.53720
  793 6.53984 -96.6096 -7.02660
  794 540.322 70.0461 -9.04844
  795 -0.473205 -39.0673 9.48877
  796 11.1382 7.89898 21.9746
  797 11.1016 7.89612 -22.0758
  798 72.5821 14.2759 1.99799
  799 72.5392 14.2931 -1.97598
  800 360.666 -16.5162 -5.82123
  801 361.362 -16.3233 4.59301
  802 424.068 62.8514 -161.722
  803 -57.9889 0.634841 -2.27273
  804 -57.9096 0.634656 2.27184
  805 -27.3430 -0.111372 7.05697
  806 -27.3503 -0.112571 -7.06467
  807 26.3294 2.13394 6.54492
  808 25.7739 2.10419 -6.59961
  809 273.625 -1.52190 24.7059
  810 273.418 -1.28978 -24.6535
  811 139.563 3.66295 -0.949109
  812 139.567 3.65995 0.950486
  813 441.280 -6.58780 39.9418
  814 46.8274 7.44146 -4.16382
  815 46.8684 7.43754 4.16830
  816 43.5288 5.94723 -7.34356
  817 43.1364 6.15427 7.44781
  818 -0.132775 -30.5337 -24.3629
  819 622.861 96.6944 89.2763
  820 -90.1316 0.0949636 -2.60241
  821 -90.0402 0.0948044 2.60055
  822 -0.134325 -93.7599 9.15876
  823 6.66133 -13.5421 -21.5059
  824 -13.5910 -0.831167 5.25349
  825 -13.5854 -0.833297 -5.25521
  826 498.381 29.2016 -27.4128
  827 130.008 12.8470 -7.38086
  828 130.012 12.8394 7.42352
  829 342.094 -5.01177 -12.4532
  830 342.402 -5.06616 12.2645
  831 -86.1896 0.652800 3.46968
  832 -86.2769 0.653544 -3.47298
  833 -0.615752 -0.637628 -0.523725
  834 -0.616996 -0.638778 0.525807
  835 0.283015 -95.8909 -8.94913
  836 0.440656 -100.817 -8.08456
  837 -94.9091 0.908717 0.515730
  838 -95.0033 0.908914 -0.515876
  839 52.3072 -15.3276 -58.0334
  840 212.192 2.52936 -1.96640
  841 212.226 2.52688 1.96646
  842 -6.51632 1.70161 0.662608
  843 -6.57417 1.70142 -0.662758
  844 314.963 0.818438 -7.71637
  845 315.035 0.799645 7.70064
  846 -35.9407 0.243057 6.70943
  847 -35.9572 0.243085 -6.71756
  848 191.003 2.70953 -131.884
  849 329.200 -28.0485 27.0183
  850 258.200 1.10965 -2.43304
  851 258.254 1.10744 2.43277
  852 326.211 -30.5052 -30.1561
  853 102.123 11.3299 -2.14873
  854 102.106 11.3291 2.17056
  855 140.946 9.19145 -4.46457
  856 140.955 9.18181 4.47701
  857 382.573 -8.16820 15.8419
  858 23.6894 13.8392 15.5970
  859 23.5862 13.8917 -15.6324
  860 24.4774 1.64662 1.21908
  861 24.4322 1.64605 -1.21900
  862 180.510 2.26374 1.66417
  863 180.490 2.26627 -1.66368
  864 471.923 -43.1115 53.7161
  865 295.630 1.64211 -10.1147
  866 295.705 1.60700 10.0935
  867 4.64250 4.45086 4.90725
  868 4.58639 4.45363 -4.90770
  869 296.321 -0.363207 2.85997
  870 296.250 -0.360834 -2.86043
  871 -54.7720 0.321689 -1.46527
  872 -54.6944 0.322019 1.46476
  873 -0.259556 -29.9074 8.46169
  874 -0.341417 -30.3754 -8.52653
  875 355.883 -4.94562 37.9886
  876 -21.4260 5.49338 19.5837
  877 -21.4986 5.50611 -19.6114
  878 -0.120443 -49.2583 -9.34585
  879 140.937 5.17208 -2.29736
  880 140.942 5.16797 2.30030
  881 259.216 -13.0393 -44.2540
  882 261.219 -14.4218 44.6877
  883 -11.0852 -3.88290 -26.2096
  884 -11.0362 -3.88336 26.1554
  885 14.3645 12.2871 17.4056
  886 14.2770 12.3206 -17.4225
  887 1.23795 -112.454 6.35321
  888 3.77626 9.61762 22.3767
  889 3.68023 9.64374 -22.4056
  890 239.391 -4.26727 -39.3439
  891 238.870 -4.45929 39.6576
  892 413.743 22.9536 45.2827
  893 95.1688 10.5481 0.907599
  894 95.1874 10.5484 -0.893043
  895 303.387 1.81229 -7.56975
  896 303.457 1.79764 7.56013
  897 -11.8699 -5.16960 23.0322
  898 -11.8923 -5.18956 -23.0738
  899 1.05451 -115.797 -4.17531
  900 -18.2564 -1.21503 22.5839
  901 -18.2920 -1.21841 -22.6169
  902 11.8333 11.0808 -13.6544
  903 11.9065 11.0580 13.6464
  904 -0.933896 -7.51765 4.16222
  905 -0.944435 -7.51003 -4.16841
  906 26.1551 12.4871 -12.1977
  907 26.2314 12.4588 12.1956
  908 5.61929 -8.98324 24.0076
  909 4.89241 -8.35978 -25.2410
  910 294.578 -8.40303 25.1883
  911 293.876 -7.99947 -25.3315
  912 -96.8302 0.272403 -0.757508
  913 -96.7351 0.272423 0.757262
  914 -8.35260 -0.753714 3.95046
  915 -8.34508 -0.755012 -3.94929
  916 0.399432 -70.0302 -8.52224
  917 -8.98011 -3.85428 -11.2474
  918 -8.97697 -3.84476 11.2483
  919 -37.7827 3.20228 16.6947
  920 -37.8481 3.20881 -16.7182
  921 91.9824 17.6503 -5.65792
  922 91.9130 17.7007 5.72873
  923 391.561 30.8494 -7.03412
  924 -4.29276 8.79548 17.1941
  925 -4.36997 8.81531 -17.2116
  926 145.207 9.20831 -41.2554
  927 145.217 9.34102 41.7186
  928 -17.1195 6.12904 13.8529
  929 -17.1914 6.14164 -13.8662
  930 473.838 -23.0880 -7.83854
  931 286.320 11.3987 19.6143
  932 344.690 -4.33638 -34.3582
  933 257.806 3.40346 -16.7354
  934 257.907 3.32083 16.7320
  935 -27.1175 3.66177 -6.80009
  936 -27.0486 3.65763 6.79631
  937 -61.4435 1.10881 8.33054
  938 -61.5192 1.11136 -8.34019
  939 -3.70807 -11.9836 -13.0534
  940 -3.68225 -11.9940 13.0772
  941 91.4196 5.89419 0.488434
  942 91.4366 5.89570 -0.484238
  943 -28.7163 2.99203 20.7091
  944 -28.7738 2.99460 -20.7411
  945 309.074 -0.183559 3.75330
  946 308.998 -0.180713 -3.75429
  947 -2.33185 -26.3213 19.7590
  948 11.6756 10.1681 -11.7265
  949 11.7431 10.1508 11.7217
  950 16.0548 7.05791 7.69852
  951 15.9981 7.06576 -7.69904
  952 53.3578 4.94585 -1.89821
  953 53.3919 4.94538 1.90007
  954 580.806 73.3318 -15.6241
  955 -2.29517 -0.632275 -1.56277
  956 -2.30011 -0.632248 1.56563
  957 20.0244 5.66581 -14.7237
  958 20.3639 5.50201 14.6634
  959 208.122 8.30314 -17.5956
  960 208.210 8.23277 17.6348
  961 26.8087 8.89228 -7.33827
  962 26.8635 8.88233 7.34008
  963 56.8902 -13.4038 77.2155
  964 391.410 -2.80112 -3.22005
  965 390.830 -2.69579 2.85486
  966 69.4002 -6.84417 67.3155
  967 72.8979 3.14239 -0.207322
  968 72.8730 3.14161 0.208151
  969 189.585 -6.34118 -114.021
  970 143.030 2.43387 0.912217
  971 143.026 2.43530 -0.911756
  972 18.1815 -18.6871 3.90797
  973 20.0923 -15.6723 -2.39349
  974 346.738 -0.374500 1.29327
  975 346.643 -0.373903 -1.29294
  976 -28.5113 0.0938992 16.6371
  977 -28.5414 0.0922999 -16.6584
  978 621.747 77.8212 35.1408
  979 -2.65545 -19.7090 -26.0454
  980 3.08787 -98.1511 11.1931
  981 -0.458379 -31.2971 24.0248
  982 358.512 -0.277182 -4.91456
  983 358.580 -0.289441 4.89377
  984 -4.74062 -8.67616 11.2773
  985 -4.75347 -8.67636 -11.2661
  986 447.286 46.6079 -25.0082
  987 786.103 6.86077 -4.54131
  988 -1.16695 -1.75623 -1.70087
  989 -1.16569 -1.75995 1.70333
  990 208.385 2.37548 -3.80155
  991 208.419 2.37101 3.80209
  992 -2.72514 -18.9434 26.1788
  993 289.939 1.28146 14.9361
  994 289.845 1.36423 -14.9640
  995 380.867 -25.2644 -15.4257
  996 -13.3046 -2.78239 12.7204
  997 -13.3093 -2.79272 -12.7268
  998 6.26071 -24.8348 18.6045
  999 -0.616223 -47.1780 18.8573
  1000 -0.0550682 -48.8715 9.33162
  1001 390.054 25.5169 -2.25423
  1002 446.397 48.9547 14.2065
  1003 319.588 -36.7047 -53.1567
  1004 4.57838 -46.0590 15.0214
  1005 5.80351 -66.2497 3.33722
  1006 88.7934 2.17677 0.265698
  1007 88.7752 2.17570 -0.265595
  1008 -3.54606 -4.04187 -5.38034
  1009 -3.54301 -4.04280 5.38465
  1010 3.05144 -37.8413 -20.0774
  1011 257.812 0.294070 -0.893087
  1012 257.866 0.292859 0.893082
  1013 51.6639 -0.215364 -25.0776
  1014 49.4345 -0.0943338 24.8369
  1015 -4.63788 7.94338 22.5886
  1016 -4.72903 7.96634 -22.6244
  1017 -30.2854 4.65386 -14.0522
  1018 -30.2130 4.64456 14.0370
  1019 196.608 3.19596 -40.3321
  1020 196.727 3.36221 40.7743
  1021 141.512 12.5131 -28.1408
  1022 141.500 12.5114 28.4115
  1023 153.623 11.1057 -9.41156
  1024 153.645 11.0838 9.44114
  1025 398.917 -11.0431 -44.4874
  1026 -10.4612 4.90319 24.7866
  1027 -10.5430 4.91192 -24.8365
  1028 282.530 -0.340368 20.4198
  1029 282.371 -0.165097 -20.4286
  1030 -1.84493 -14.8055 27.3303
  1031 -22.8290 -0.761647 12.2774
  1032 -22.8410 -0.765360 -12.2906
  1033 257.430 2.33366 -20.2983
  1034 257.563 2.21687 20.3045
  1035 318.214 7.62214 -31.9443
  1036 -0.380899 -46.9204 -19.7891
  1037 -3.79631 -18.4793 23.4326
  1038 -3.95497 -18.6985 -23.2355
  1039 181.503 10.5901 -14.4861
  1040 181.561 10.5438 14.5313
  1041 229.146 4.16826 8.30986
  1042 229.098 4.18524 -8.31020
  1043 380.084 -24.6767 13.4034
  1044 18.8817 1.87111 -0.336264
  1045 18.9290 1.87149 0.336273
  1046 323.196 -41.0623 56.7236
  1047 -1.75444 1.28272 1.65046
  1048 -1.81054 1.28237 -1.65065
  1049 69.8007 17.7598 0.342531
  1050 69.7086 17.8175 -0.300868
  1051 26.5249 13.9919 13.3779
  1052 26.4399 14.0274 -13.3843
  1053 3.54303 -57.3403 -12.3713
  1054 93.5067 3.50987 0.0951489
  1055 93.5227 3.51190 -0.0928271
  1056 278.766 9.18159 8.07595
  1057 260.188 1.93184 7.74124
  1058 260.130 1.94730 -7.74519
  1059 -1.57709 -15.3718 -27.3769
  1060 391.368 -5.00617 -8.02717
  1061 -0.00442218 -1.32312 27.1723
  1062 0.287822 -1.09766 -27.0494
  1063 356.468 -0.661714 -2.71461
  1064 356.559 -0.664518 2.71028
  1065 379.721 -1.32276 -4.76596
  1066 379.644 -1.37176 4.63690
  1067 -0.288858 -74.0466 7.02273
  1068 222.746 5.63448 -11.0047
  1069 222.797 5.60634 11.0068
  1070 271.122 2.41555 9.02796
  1071 271.059 2.43553 -9.03521
  1072 6.14127 6.40254 24.4479
  1073 6.10709 6.40578 -24.4724
  1074 589.115 39.2297 6.06460
  1075 -7.51084 -3.26429 27.9221
  1076 -7.62376 -3.19495 -27.9912
  1077 84.1379 16.4949 -0.895661
  1078 84.0943 16.5178 0.931754
  1079 -47.1348 0.882391 -2.50136
  1080 -47.0599 0.882346 2.50057
  1081 138.335 7.92352 -47.5291
  1082 138.152 8.31248 48.1093
  1083 39.7744 15.7952 10.2896
  1084 39.6814 15.8399 -10.2872
  1085 93.9398 10.8252 -34.9959
  1086 93.4598 11.2930 35.3048
  1087 -2.49037 -24.7173 -19.2525
  1088 331.664 4.48689 41.8841
  1089 232.479 0.660946 148.072
  1090 37.4130 16.2218 10.6221
  1091 37.3031 16.2819 -10.6292
  1092 140.439 7.45256 -3.37465
  1093 140.446 7.44434 3.38267
  1094 509.401 1.83370 12.3428
  1095 32.7299 8.29107 6.62822
  1096 32.3171 8.39584 -6.75014
  1097 -15.1181 -3.31852 16.9332
  1098 -15.1300 -3.33371 -16.9500
  1099 -0.496387 -11.2248 4.54519
  1100 -0.515912 -11.2179 -4.56339
  1101 334.781 -0.368262 12.0407
  1102 334.671 -0.242238 -12.1327
  1103 0.500504 -23.7707 25.6325
  1104 -22.9143 1.45829 -22.5899
  1105 -22.8662 1.46035 22.5568
  1106 0.115572 -89.6118 -8.94403
  1107 -5.25150 -7.39234 27.8777
  1108 -5.23784 -7.23763 -27.9069
  1109 320.255 0.328160 -5.07045
  1110 320.333 0.321657 5.06580
  1111 330.177 -2.56225 14.4587
  1112 329.960 -2.35906 -14.5524
  1113 57.5268 12.7624 -11.6609
  1114 57.0903 13.0161 11.7743
  1115 -0.785892 -46.1607 -16.0667
  1116 434.691 -40.3499 -86.5002
  1117 563.654 72.6461 3.71435
  1118 5.80459 -69.8413 -1.17371
  1119 20.2317 11.5260 -17.8191
  1120 20.3502 11.4610 17.7331
  1121 53.8527 17.4507 4.68342
  1122 53.7269 17.5289 -4.66620
  1123 114.044 6.77351 1.26812
  1124 114.050 6.77785 -1.26170
  1125 -7.29827 -10.3953 21.9247
  1126 -7.28774 -10.4938 -21.9586
  1127 -20.7475 6.46351 18.0347
  1128 -20.8213 6.47755 -18.0568
  1129 -7.32192 8.18495 20.9005
  1130 -7.40527 8.20559 -20.9297
  1131 315.119 -16.0975 -24.7001
  1132 317.145 -16.2329 24.4912
  1133 0.292550 -53.0514 -18.8126
  1134 168.145 -0.408553 -59.6240
  1135 168.414 0.120320 60.6259
  1136 53.7167 15.9826 -5.36250
  1137 53.7840 15.9490 5.37941
  1138 168.762 78.5715 165.610
  1139 42.0350 12.8344 7.64904
  1140 41.9754 12.8537 -7.64115
  1141 429.945 -47.2267 -20.8365
  1142 162.463 4.48573 2.74370
  1143 162.448 4.49164 -2.74112
  1144 -7.32254 -6.52864 13.4050
  1145 -7.32728 -6.54401 -13.4004
  1146 -8.74074 -7.84099 17.3460
  1147 -8.74042 -7.87176 -17.3477
  1148 282.124 -28.8063 -83.8155
  1149 287.840 -31.7013 84.4393
  1150 50.6024 1.96381 0.605548
  1151 50.6367 1.96463 -0.604685
  1152 177.128 8.23080 -32.7393
  1153 177.141 8.12398 33.0708
  1154 386.330 -51.7843 64.1296
  1155 344.095 -0.781666 0.752271
  1156 344.000 -0.781092 -0.751894
  1157 -30.6969 4.84797 16.1026
  1158 -30.7690 4.85766 -16.1220
  1159 -52.7586 1.64001 -8.43879
  1160 -52.6814 1.63708 8.43208
  1161 88.1213 1.13926 99.5156
  1162 269.402 18.1028 -16.3936
  1163 162.010 11.5736 -16.1129
  1164 162.061 11.5377 16.2004
  1165 501.953 -15.0451 93.1706
  1166 164.658 11.1276 -23.8863
  1167 164.721 11.0694 24.0384
  1168 41.1291 5.30431 -2.85040
  1169 41.1693 5.30309 2.85222
  1170 14.3027 -52.8812 9.56959
  1171 14.4657 -51.5260 -13.4167
  1172 223.184 -15.6865 -84.5901
  1173 226.257 -14.6666 84.5348
  1174 87.3269 14.3616 -24.4183
  1175 86.9615 14.6603 24.6693
  1176 392.864 -26.2999 -28.8746
  1177 -14.3102 -1.19352 25.4825
  1178 -14.3590 -1.19297 -25.5235
  1179 -0.251872 -21.2340 -26.3318
  1180 100.116 2.72322 -62.7199
  1181 100.346 3.02947 63.8006
  1182 -0.252733 -19.9072 5.06854
  1183 -0.215816 -19.9554 -5.13081
  1184 -94.2657 0.788596 -2.45106
  1185 -94.1738 0.788104 2.44901
  1186 312.678 -0.186441 -1.40814
  1187 312.757 -0.187565 1.40801
  1188 193.061 7.10732 -9.41351
  1189 193.104 7.08013 9.42553
  1190 -7.04060 -0.0468696 27.9182
  1191 -7.06236 0.0652729 -27.9716
  1192 0.0234301 -79.9862 -7.81727
  1193 -80.0989 0.187790 3.96365
  1194 -80.1764 0.188280 -3.96870
  1195 61.9906 -1.43456 -43.9548
  1196 61.5243 -1.04763 45.3535
  1197 364.929 -22.3389 -1.23445
  1198 104.178 6.56772 -56.3532
  1199 104.251 6.85566 56.9142
  1200 -44.4983 0.239793 6.10005
  1201 -44.5243 0.239567 -6.10809
  1202 1.17333 -69.8651 -13.1902
  1203 -13.0923 2.78477 -3.24902
  1204 -13.0308 2.78388 3.24839
  1205 55.0795 13.4898 5.56869
  1206 55.0237 13.5097 -5.55443
  1207 205.406 1.10431 -1.24487
  1208 205.437 1.10262 1.24517
  1209 277.028 1.27744 5.88921
  1210 276.966 1.28694 -5.89259
  1211 15.2153 -1.98988 15.2017
  1212 14.9880 -2.24946 -15.4777
  1213 2.58912 -40.1513 20.0579
  1214 496.631 67.9830 18.1712
  1215 -15.3038 -1.19835 9.64703
  1216 -15.3056 -1.20343 -9.65227
  1217 2.04760 -37.5996 -20.9901
  1218 -1.46192 -23.2380 14.1181
  1219 -1.38842 -23.0262 -14.6284
  1220 393.057 -4.29277 7.12351
  1221 0.348507 -91.5250 8.00213
  1222 2.88827 -27.6032 -23.4121
  1223 46.9018 1.51725 0.493350
  1224 46.8660 1.51644 -0.493391
  1225 -3.86876 -16.5814 25.7675
  1226 -43.2238 2.46064 -7.14863
  1227 -43.1493 2.45785 7.14412
  1228 800.802 13.8525 22.7263
  1229 -22.6693 2.64948 22.8276
  1230 -22.7264 2.64985 -22.8636
  1231 189.262 7.60877 -29.6014
  1232 189.424 7.47047 29.7772
  1233 12.3335 -18.5971 -9.93896
  1234 180.137 9.24324 -11.9152
  1235 180.184 9.20664 11.9457
  1236 7.45060 -55.4339 -3.02197
  1237 -3.88170 -16.6156 -25.7255
  1238 -30.2143 1.22956 4.25812
  1239 -30.2830 1.23011 -4.25954
  1240 -13.7062 1.04766 -26.0581
  1241 -13.6469 1.05087 26.0194
  1242 384.977 30.8334 32.1607
  1243 218.939 2.51188 -31.3706
  1244 219.195 2.44452 31.4492
  1245 -98.6771 0.230090 -0.899770
  1246 -98.5813 0.230032 0.899331
  1247 197.398 4.78606 -6.38695
  1248 197.430 4.77536 6.38949
  1249 -101.281 -1.73396 -0.269952
  1250 -101.378 -1.73476 0.270060
  1251 294.380 -20.9591 -35.9280
  1252 -46.4539 0.791015 12.9031
  1253 -46.5045 0.791659 -12.9217
  1254 297.342 -22.1205 35.6036
  1255 200.780 7.34156 -12.9927
  1256 200.834 7.30037 13.0093
  1257 23.5548 -54.3751 -43.5993
  1258 0.428954 -64.1433 -16.1229
  1259 -1.32994 -26.9677 24.1595
  1260 630.756 105.445 -89.5373
  1261 -0.151282 -60.1724 15.7519
  1262 657.092 61.9603 -39.9665
  1263 -0.357690 -111.494 -7.49592
  1264 31.7086 3.20525 -1.01247
  1265 31.7511 3.20520 1.01334
  1266 -0.277879 -25.5636 5.31188
  1267 -0.223981 -25.6996 -5.29737
  1268 112.024 2.83025 0.0673638
  1269 112.032 2.83180 -0.0667549
  1270 397.225 -30.1680 27.4317
  1271 8.06038 3.01516 -3.76505
  1272 8.11348 3.01422 3.76476
  1273 2.29155 -122.129 3.55896
  1274 1.45505 -130.054 -3.52255
  1275 365.330 -45.4858 -38.5558
  1276 -1.00575 -33.2265 15.6021
  1277 382.440 24.5750 -40.5755
  1278 -1.14102 -43.7864 15.3344
  1279 0.762657 -119.902 -5.74394
  1280 184.164 5.26156 -6.97487
  1281 184.194 5.24328 6.98213
  1282 -0.137975 -65.2622 6.92825
  1283 -0.166449 -54.1762 -15.6176
  1284 865.377 151.233 130.932
  1285 345.684 0.195863 0.577266
  1286 345.588 0.195861 -0.576956
  1287 9.21772 0.742573 22.1955
  1288 8.92648 1.11342 -22.2970
  1289 -5.25840 5.04048 26.1895
  1290 -5.38525 5.04895 -26.2495
  1291 368.572 -6.83715 -24.4395
  1292 341.544 -14.3322 -14.1567
  1293 341.205 -16.3049 14.2991
  1294 51.0986 6.00421 2.87699
  1295 51.0616 6.00562 -2.87352
  1296 -56.0387 1.49962 -10.0769
  1297 -55.9664 1.49646 10.0641
  1298 380.919 -52.4185 -54.6563
  1299 -2.84690 -6.88500 7.02685
  1300 -2.85787 -6.87993 -7.02365
  1301 401.759 -17.1918 41.9781
  1302 -4.21292 -15.8811 18.9659
  1303 -4.16667 -15.9402 -18.8794
  1304 -35.6406 2.38522 5.08399
  1305 -35.7118 2.38704 -5.08631
  1306 60.7832 6.84036 -22.7464
  1307 60.1667 7.18955 22.7353
  1308 95.3044 2.69240 0.378307
  1309 95.2889 2.69087 -0.377643
  1310 -38.7613 3.88696 15.9046
  1311 -38.8302 3.89418 -15.9248
  1312 324.394 0.791948 0.897252
  1313 324.308 0.791787 -0.896835
  1314 178.832 -1.51473 112.918
  1315 265.030 0.562788 2.08165
  1316 264.973 0.564249 -2.08152
  1317 176.133 3.71465 -45.4727
  1318 176.168 3.51026 45.8765
  1319 1.69419 -70.3421 -9.45465
  1320 68.3004 16.3035 -9.59189
  1321 68.0090 16.5000 9.71138
  1322 -0.665215 -0.604175 -0.875032
  1323 -0.668569 -0.604370 0.877580
  1324 226.866 6.87445 16.8550
  1325 226.781 6.94869 -16.8389
  1326 112.757 9.22078 2.49192
  1327 112.764 9.22541 -2.47893
  1328 166.077 9.30745 -8.08526
  1329 166.105 9.28559 8.10428
  1330 217.483 1.28592 -2.08924
  1331 217.519 1.28411 2.08961
  1332 -6.92192 -3.35233 -7.93420
  1333 -6.92060 -3.34836 7.93810
  1334 -66.0659 0.0893250 3.01833
  1335 -66.1485 0.0895095 -3.01980
  1336 -11.7875 -5.40581 -19.3884
  1337 -11.7780 -5.37866 19.3678
  1338 -37.5607 0.621798 1.26900
  1339 -37.6314 0.621447 -1.26932
  1340 -102.390 0.937308 0.513696
  1341 -102.487 0.937566 -0.513836
  1342 409.554 -51.5216 74.5175
  1343 297.070 -1.78755 -34.1215
</Section>

newXOutput 49

<Section columns = "stress_xx | stress_yy | stress_xy">
  1 363.203 -0.528048 0.368314
  2 363.307 -0.528399 -0.368496
  3 -112.933 0.543619 -1.53788
  4 0.180942 0.0462745 0.320766
  5 659.667 188.682 213.958
  6 745.715 213.568 -205.480
  7 0.180159 0.0455552 -0.319725
  8 -112.828 0.543517 1.53727
  9 362.108 -0.498901 -1.19997
  10 362.397 -1.09520 -1.94626
  11 365.815 -1.08444 -0.518684
  12 366.180 -1.03692 -2.28138
  13 367.085 -1.01468 -0.704727
  14 374.748 -0.969216 -0.979212
  15 377.401 -1.41388 -3.05946
  16 380.259 -0.669916 -2.09382
  17 382.070 0.158688 -4.04151
  18 397.563 -2.17314 -3.46110
  19 404.252 -1.68340 -4.45744
  20 411.645 -2.55442 -1.75145
  21 415.202 -3.39432 -1.05781
  22 412.299 -3.91474 5.31960
  23 398.305 -4.38149 11.2230
  24 365.695 -4.90674 24.0217
  25 312.918 2.75446 27.9664
  26 269.359 3.33355 26.0540
  27 208.807 6.96390 15.7959
  28 222.095 6.77407 1.41019
  29 185.999 20.2371 -10.0626
  30 255.690 9.26840 -28.3542
  31 294.099 2.26096 -23.2003
  32 358.423 -1.06814 -20.0825
  33 393.728 -5.31530 -13.4557
  34 411.663 -4.56158 -5.29260
  35 414.396 -3.28716 1.08022
  36 411.093 -2.52065 1.63991
  37 404.033 -1.69435 4.32525
  38 397.495 -2.20135 3.38516
  39 382.112 0.142594 4.00523
  40 380.337 -0.675983 2.08027
  41 377.499 -1.41772 3.05496
  42 374.853 -0.971234 0.977122
  43 367.189 -1.01596 0.704030
  44 366.286 -1.03804 2.28233
  45 365.921 -1.08527 0.518948
  46 362.501 -1.09589 1.94736
  47 362.212 -0.499240 1.20065
  48 342.496 0.917073 -0.449452
  49 317.120 0.368562 -1.00522
  50 285.409 -0.953184 -1.02083
  51 252.536 0.975092 -0.849181
  52 223.744 0.743748 -0.676609
  53 192.938 1.73917 -0.801400
  54 162.537 3.32002 -0.489941
  55 130.979 2.97269 -1.01139
  56 104.808 2.09111 -1.41298
  57 70.4650 1.33472 -1.48885
  58 35.5820 2.02303 -1.13358
  59 6.46502 1.67242 -1.09586
  60 -29.8615 0.979048 -1.00302
  61 -56.8708 -0.301825 -2.43820
  62 -83.0305 -1.77057 -1.11623
  63 -109.555 0.231985 0.744168
  64 -115.281 1.97653 -0.292461
  65 -115.671 0.875205 0.331390
  66 -111.817 0.440858 -0.144547
  67 -113.013 1.27375 -1.39817
  68 -111.209 1.54703 -0.141658
  69 -105.174 0.476439 -2.14335
  70 -106.380 0.953594 -2.30419
  71 -103.691 0.904605 -1.30016
  72 -95.9870 0.567781 -1.95731
  73 -92.4078 1.01934 -3.22524
  74 -86.7764 1.13996 -2.65085
  75 -76.7825 0.581609 -4.57999
  76 -71.1689 0.179637 -3.82759
  77 -61.0572 0.258188 -4.41609
  78 -52.3485 0.196206 -4.88681
  79 -44.7620 0.0661425 -3.85683
  80 -34.2385 0.225731 -3.88605
  81 -25.1675 -0.0983664 -4.15627
  82 -16.3915 -0.453664 -3.64727
  83 -9.43951 -0.397419 -2.79321
  84 -4.63426 -0.695413 -2.33295
  85 -0.765953 -0.401963 -0.831268
  86 0.0586412 -0.446210 -0.295364
  87 -0.241136 -0.231578 -0.0544641
  88 -0.629206 -0.611834 -0.727908
  89 -0.610813 -3.91883 -2.02551
  90 -0.521327 -8.79392 -2.88947
  91 -0.269793 -15.0225 -4.21534
  92 -0.139693 -23.0793 -3.63530
  93 -0.117480 -30.4937 -4.57542
  94 -0.561094 -39.5515 -5.16532
  95 -0.229454 -50.7304 -5.21747
  96 0.106622 -61.9912 -4.99819
  97 0.244078 -74.0605 -4.93219
  98 0.374816 -86.4673 -4.85167
  99 0.0245563 -95.5974 -6.56844
  100 0.642925 -108.574 -5.87990
  101 0.788303 -123.778 -4.69837
  102 -0.0445640 -130.502 -6.23978
  103 1.11607 -141.605 -5.78872
  104 2.74573 -156.384 -2.76164
  105 5.36217 -160.330 -4.38315
  106 3.77225 -146.512 3.89635
  107 5.47258 -110.135 16.0374
  108 28.3002 -62.1929 46.6404
  109 88.7829 127.543 157.960
  110 1015.20 54.5133 100.600
  111 871.647 16.2558 36.5371
  112 843.531 5.94991 8.31465
  113 837.536 1.99404 -1.35332
  114 843.233 9.17685 -19.2830
  115 869.851 29.4643 -43.3022
  116 987.873 106.824 -127.738
  117 212.592 99.2847 -192.751
  118 47.4731 -61.4522 -56.8030
  119 13.9633 -120.560 -21.1578
  120 3.86240 -138.776 -4.20373
  121 4.31957 -154.298 2.36396
  122 1.22904 -150.252 2.08793
  123 0.439599 -138.052 4.91781
  124 0.478433 -129.934 3.89534
  125 0.679972 -117.002 6.64997
  126 -0.0340876 -109.548 6.46798
  127 0.269461 -98.9421 4.65687
  128 0.525358 -85.4288 5.91811
  129 0.102795 -75.7819 4.69072
  130 0.153970 -62.0673 5.92479
  131 -0.619951 -51.3413 5.09147
  132 -0.433395 -39.5847 5.00432
  133 -0.0831627 -30.3256 4.58714
  134 -0.181131 -22.9465 3.64218
  135 -0.263502 -14.9785 4.17437
  136 -0.513814 -8.78793 2.87510
  137 -0.607578 -3.92475 2.02406
  138 -0.628400 -0.618126 0.729339
  139 -0.241104 -0.234299 0.0562814
  140 0.0553444 -0.446639 0.297025
  141 -0.772190 -0.401754 0.833397
  142 -4.64375 -0.694773 2.33512
  143 -9.45227 -0.396200 2.79392
  144 -16.4018 -0.452159 3.64584
  145 -25.1705 -0.0971205 4.15215
  146 -34.2326 0.225976 3.88120
  147 -44.7440 0.0667168 3.85174
  148 -52.3194 0.196865 4.88096
  149 -61.0133 0.258107 4.40994
  150 -71.1117 0.179508 3.82184
  151 -76.7162 0.581184 4.57435
  152 -86.6978 1.13925 2.64649
  153 -92.3224 1.01856 3.22168
  154 -95.8953 0.567276 1.95507
  155 -103.593 0.904066 1.29874
  156 -106.280 0.953141 2.30268
  157 -105.073 0.476257 2.14216
  158 -111.105 1.54641 0.141447
  159 -112.908 1.27328 1.39756
  160 -111.713 0.440769 0.144503
  161 -115.565 0.874935 -0.331217
  162 -115.175 1.97583 0.292382
  163 -109.452 0.231997 -0.743868
  164 -82.9386 -1.76960 1.11581
  165 -56.7898 -0.301241 2.43728
  166 -29.7918 0.979337 1.00267
  167 6.51949 1.67269 1.09548
  168 35.6243 2.02346 1.13320
  169 70.4925 1.33579 1.48835
  170 104.821 2.09218 1.41249
  171 130.981 2.97367 1.01105
  172 162.525 3.32090 0.489707
  173 192.913 1.74053 0.800968
  174 223.705 0.745215 0.676159
  175 252.485 0.975965 0.848581
  176 285.342 -0.951903 1.02016
  177 317.038 0.368743 1.00465
  178 342.402 0.916776 0.449199
  179 95.7620 16.8040 -3.92486
  180 95.7104 16.8323 3.98087
  181 -1.73478 2.82881 27.1976
  182 -1.83845 2.81071 -27.2106
  183 218.054 -3.00682 -48.8804
  184 217.910 -3.42848 49.3999
  185 43.5348 10.1052 -2.13253
  186 43.0166 10.2927 2.15047
  187 31.7650 5.58554 -4.23086
  188 31.8122 5.58261 4.23222
  189 206.414 4.01621 -7.18687
  190 206.452 4.00105 7.19068
  191 -3.57478 8.33633 14.8131
  192 -3.64973 8.35356 -14.8260
  193 239.826 6.17804 -18.4799
  194 239.939 6.08863 18.5020
  195 -9.31712 -8.10598 21.5866
  196 -9.31462 -8.15349 -21.6139
  197 2.17983 -19.3483 -25.7372
  198 74.7113 4.16397 -44.9173
  199 2.66831 -20.6939 25.1265
  200 73.5184 4.76465 45.6376
  201 339.831 -45.7483 -70.8854
  202 351.678 -47.5560 68.0073
  203 122.220 4.15947 -1.13236
  204 122.216 4.15661 1.13483
  205 -19.4538 1.41553 -2.91940
  206 -19.3880 1.41547 2.91863
  207 -27.0338 4.14835 20.8648
  208 -27.1016 4.15641 -20.8973
  209 122.854 11.3489 -3.52273
  210 122.851 11.3443 3.54112
  211 37.5517 15.7227 10.0762
  212 37.4054 15.8173 -10.1066
  213 -34.6796 3.73896 -8.64363
  214 -34.6051 3.73414 8.63741
  215 274.252 0.458277 3.43104
  216 274.192 0.461910 -3.43160
  217 8.83691 -36.3917 10.8538
  218 9.60711 -32.9555 -9.60482
  219 -2.55544 -22.9216 24.3440
  220 -2.61390 -23.8101 -23.5776
  221 113.596 16.4237 -19.6197
  222 113.495 16.5025 19.8231
  223 -24.4538 -0.0822653 21.0368
  224 -24.4923 -0.0853740 -21.0662
  225 293.390 1.72612 -10.1194
  226 293.461 1.70042 10.1067
  227 315.801 -4.57746 -19.9845
  228 316.048 -4.89658 19.8987
  229 504.471 38.5145 -0.0729953
  230 462.808 51.5664 27.3548
  231 456.170 -3.84456 -40.8019
  232 55.9612 12.5187 5.29958
  233 55.9111 12.5340 -5.28829
  234 3.97544 10.2778 20.8640
  235 3.88182 10.3083 -20.8905
  236 352.773 -21.3431 -13.4477
  237 350.726 -21.6042 14.5847
  238 195.202 1.77672 -2.61847
  239 195.229 1.77294 2.61922
  240 -43.3493 3.06821 13.9116
  241 -43.4226 3.07474 -13.9286
  242 -5.96620 -5.87075 -9.71337
  243 -5.96076 -5.86700 9.71934
  244 -48.0428 1.17922 4.38097
  245 -48.1208 1.18010 -4.38303
  246 160.619 12.0408 -12.3430
  247 160.651 12.0122 12.3904
  248 204.290 6.18945 -27.8748
  249 204.452 6.08068 27.9964
  250 49.4059 3.21405 -0.310582
  251 49.4425 3.21434 0.311442
  252 118.082 1.32668 -97.2841
  253 139.740 4.68887 106.042
  254 15.9812 7.33867 19.8285
  255 15.9100 7.49893 -19.9105
  256 479.608 -36.8677 -9.60495
  257 41.8500 15.7910 8.74618
  258 41.7696 15.8281 -8.73893
  259 115.790 12.4315 -36.5883
  260 115.572 12.7413 36.9898
  261 536.079 75.4198 -4.62625
  262 318.177 0.196794 13.6957
  263 318.073 0.294028 -13.7454
  264 -2.87566 -17.7645 -15.2306
  265 -2.79278 -17.8354 15.2907
  266 -0.618784 -42.1903 -20.9473
  267 1.42460 -49.2629 -19.3001
  268 0.757007 -49.2915 20.2198
  269 -7.92278 -6.87062 27.7451
  270 -7.95649 -6.85937 -27.8539
  271 17.0739 -38.9917 -7.21567
  272 18.3687 -35.9092 10.0922
  273 -18.3421 -1.54109 13.3738
  274 -18.3521 -1.54805 -13.3861
  275 226.428 6.32138 -11.5002
  276 226.489 6.28450 11.5053
  277 396.276 -40.8721 -3.24720
  278 87.7502 7.52145 -0.222657
  279 87.7712 7.52177 0.228522
  280 -1.03558 -39.5910 20.0244
  281 8.53869 8.14963 9.53308
  282 8.47444 8.16120 -9.53630
  283 629.920 43.9612 -16.9993
  284 308.609 0.211038 4.20697
  285 308.534 0.216631 -4.20999
  286 207.213 -9.88242 -73.4772
  287 209.032 -9.71445 74.6070
  288 395.761 -38.7479 -3.23859
  289 -37.4844 1.16629 16.6208
  290 -37.5318 1.16666 -16.6449
  291 387.453 -31.3616 120.057
  292 -16.6135 2.80768 25.1761
  293 -16.6760 2.80461 -25.2181
  294 65.7044 18.0552 -5.05750
  295 65.4511 18.2267 5.13676
  296 -68.5580 0.554123 0.785556
  297 -68.6440 0.554009 -0.785797
  298 326.529 6.68860 -163.521
  299 -64.2715 1.29947 -7.50482
  300 -64.1898 1.29696 7.49719
  301 -1.80322 -8.06325 28.2870
  302 -0.835311 -7.85879 -28.0010
  303 143.894 14.6752 -17.8644
  304 143.905 14.6664 17.9823
  305 31.4791 3.75082 3.17678
  306 31.4339 3.75150 -3.17639
  307 149.771 5.80695 -3.67089
  308 149.780 5.80020 3.67595
  309 14.1521 -10.5581 14.6570
  310 12.8982 -12.6765 -14.8359
  311 145.380 2.61789 -0.895555
  312 145.385 2.61590 0.896258
  313 -52.8000 1.37646 12.1836
  314 -52.8619 1.37861 -12.2010
  315 36.4177 -3.32492 -9.05024
  316 35.3314 -3.37111 8.08903
  317 321.821 -0.275894 1.17446
  318 321.737 -0.275126 -1.17417
  319 702.421 40.0191 27.7634
  320 72.9594 9.75838 2.01455
  321 72.9277 9.76236 -2.00494
  322 -15.2517 3.54030 6.01513
  323 -15.3182 3.54366 -6.01758
  324 100.368 13.6129 -2.51576
  325 100.344 13.6181 2.54733
  326 11.8492 10.4637 21.6336
  327 11.7715 10.4883 -21.6831
  328 1.51113 -71.1462 14.1693
  329 -71.0017 0.145947 -1.78876
  330 -70.9146 0.146128 1.78807
  331 245.804 0.687062 -2.23925
  332 245.852 0.684980 2.23939
  333 258.843 1.75366 -5.93857
  334 258.899 1.74308 5.93647
  335 -66.1681 1.13517 -5.44989
  336 -66.0832 1.13382 5.44620
  337 -1.06864 1.26744 0.678611
  338 -1.12636 1.26709 -0.678636
  339 -1.48255 -29.2851 15.1998
  340 -1.17870 -30.4600 -15.1792
  341 291.500 -24.1754 -49.6367
  342 302.770 -28.9072 48.7234
  343 173.215 8.44672 -7.63822
  344 173.242 8.42860 7.65073
  345 76.3921 17.9283 -2.70171
  346 76.2664 18.0072 2.76445
  347 -26.6152 5.15636 12.2905
  348 -26.6890 5.16573 -12.3021
  349 542.046 10.5212 14.3754
  350 28.7660 -41.5167 -32.4038
  351 30.7637 -38.6475 33.9268
  352 -11.3254 8.32020 19.6805
  353 -11.4056 8.33890 -19.7060
  354 -14.9539 -3.00573 24.5770
  355 -14.9913 -3.01247 -24.6193
  356 614.261 102.927 -29.3799
  357 394.848 -5.60434 50.1292
  358 368.403 -8.68165 -9.06542
  359 368.073 -8.47986 8.46909
  360 258.389 -3.03865 -31.6220
  361 258.094 -3.29805 31.6340
  362 0.484062 -85.7049 -11.4454
  363 337.202 0.778396 -7.67803
  364 337.274 0.751016 7.65106
  365 4.39106 -80.5597 8.90630
  366 390.786 30.5667 -27.0043
  367 95.6810 3.27077 1.14269
  368 95.6642 3.26996 -1.14271
  369 259.854 1.87567 -23.4807
  370 260.025 1.74009 23.5077
  371 279.935 2.25507 -14.2213
  372 280.019 2.19500 14.2042
  373 -5.02080 3.10945 4.04604
  374 -5.08182 3.11095 -4.04686
  375 160.835 8.91427 -37.5649
  376 160.884 9.01225 37.9106
  377 331.661 -0.186847 1.92346
  378 331.574 -0.185443 -1.92370
  379 188.197 10.2928 -18.9607
  380 188.273 10.2292 19.0315
  381 217.287 3.35254 4.84949
  382 217.249 3.35948 -4.84882
  383 -10.3758 -1.87127 8.25239
  384 -10.3751 -1.87611 -8.25250
  385 -2.46706 -1.75315 -2.40294
  386 -2.46822 -1.75405 2.40666
  387 442.326 -55.1090 31.8555
  388 -5.76655 -13.8944 22.4861
  389 -5.72792 -14.0127 -22.4877
  390 72.2597 4.68323 -1.38241
  391 72.2870 4.68384 1.38474
  392 -2.19783 -11.0117 8.28745
  393 -2.22273 -10.9938 -8.28849
  394 27.9101 12.5215 10.3812
  395 27.8410 12.5443 -10.3808
  396 361.609 -1.56609 10.1486
  397 361.509 -1.43313 -10.3270
  398 -0.860962 -21.4151 27.0057
  399 -29.7066 -0.537905 12.6573
  400 -29.7275 -0.540490 -12.6731
  401 -0.975593 -22.6215 -26.7025
  402 339.380 0.0733957 4.89030
  403 339.297 0.0815056 -4.89859
  404 -3.05856 7.54088 24.7442
  405 -3.16810 7.56513 -24.7879
  406 251.048 3.68616 -9.46415
  407 251.106 3.66357 9.46061
  408 385.707 -16.5310 -8.27779
  409 386.933 -13.3478 6.22085
  410 -0.784545 -39.8942 -16.6539
  411 34.7809 12.9333 -7.16773
  412 35.0677 12.7893 7.13234
  413 384.170 25.1191 16.8575
  414 218.599 -11.5064 -101.618
  415 224.417 -15.5703 106.359
  416 13.1794 11.9345 15.9690
  417 13.0964 11.9631 -15.9816
  418 161.086 4.37424 -2.51186
  419 161.098 4.37015 2.51378
  420 156.493 26.2879 161.595
  421 64.9349 15.1753 -3.77237
  422 64.9950 15.1486 3.79423
  423 4.02793 -37.7907 18.1156
  424 -0.484320 -64.8299 -14.4451
  425 25.8233 14.6528 14.8151
  426 25.7255 14.6961 -14.8312
  427 31.8925 8.46041 -6.29049
  428 31.9445 8.45251 6.29275
  429 -10.8431 -0.515145 -27.6722
  430 -10.7815 -0.530424 27.6265
  431 77.6437 15.3321 -15.0853
  432 77.3135 15.5653 15.2519
  433 387.645 -12.4292 -37.8831
  434 11.0074 -3.73444 21.2600
  435 10.6450 -3.63342 -21.3909
  436 282.267 -12.1115 -34.9409
  437 283.443 -12.9708 34.8858
  438 -70.3488 0.560651 -7.32863
  439 -70.2714 0.558893 7.31939
  440 0.00249263 -63.6876 13.0025
  441 -0.456190 -40.4587 14.8289
  442 -28.6001 1.86193 21.2670
  443 -28.6507 1.86137 -21.2985
  444 202.313 1.67054 -0.946243
  445 202.342 1.66853 0.946272
  446 -6.06206 -9.57424 15.2936
  447 -6.07214 -9.59613 -15.2775
  448 126.274 6.68638 -54.6192
  449 126.027 7.26090 55.2468
  450 1.05088 -77.0297 -14.2755
  451 701.200 24.8278 0.521840
  452 1.95579 -90.8787 -8.13613
  453 -83.0495 -0.0209809 -2.65338
  454 -82.9575 -0.0209610 2.65209
  455 -31.8260 4.51381 17.3340
  456 -31.8988 4.52345 -17.3578
  457 -37.3302 0.533686 12.7070
  458 -37.3620 0.533580 -12.7238
  459 138.081 14.1615 -12.1318
  460 138.088 14.1577 12.2038
  461 208.686 8.21473 -14.6697
  462 208.757 8.16066 14.6961
  463 -3.51418 -12.9723 27.9238
  464 -3.51908 -12.8866 -28.0409
  465 362.431 6.28628 -47.8012
  466 24.8544 -6.07076 -3.85809
  467 23.9902 -6.27955 4.30132
  468 5.77461 -81.6191 -1.22141
  469 3.70309 -94.8733 -1.43910
  470 -11.0280 -4.92990 15.7412
  471 -11.0328 -4.94772 -15.7478
  472 77.1093 -5.79413 -84.2156
  473 554.141 1.04770 -55.4697
  474 125.756 8.05039 3.46095
  475 125.758 8.05618 -3.45051
  476 182.706 1.95699 -52.5314
  477 183.120 1.90158 53.3242
  478 53.7729 18.6572 5.56394
  479 53.6714 18.7185 -5.54770
  480 164.992 12.2592 -27.6389
  481 165.066 12.1971 27.8448
  482 6.12328 3.36279 25.1862
  483 6.48766 3.54632 -25.1561
  484 -73.6596 1.07769 -5.39361
  485 -73.5730 1.07648 5.38901
  486 362.896 -42.2798 -28.3638
  487 288.218 0.0780749 -1.61366
  488 288.285 0.0770836 1.61401
  489 15.7003 1.99173 -1.70292
  490 15.7513 1.99190 1.70296
  491 -18.3519 6.70393 16.1417
  492 -18.4280 6.71806 -16.1596
  493 -41.6352 2.53668 -5.85993
  494 -41.5592 2.53418 5.85656
  495 125.773 12.1871 -5.41080
  496 125.771 12.1805 5.43878
  497 -14.9273 5.79300 22.7724
  498 -15.0062 5.80713 -22.8099
  499 332.253 -9.40752 -18.6859
  500 332.812 -9.87643 18.4220
  501 218.040 2.30443 -34.9744
  502 217.714 2.15011 35.2753
  503 81.3268 3.72097 -0.775463
  504 81.3497 3.72194 0.776393
  505 0.883844 -39.4083 -22.8481
  506 389.535 -14.0634 31.0757
  507 5.37849 -25.8336 -20.5989
  508 110.908 17.6815 12.4139
  509 110.975 17.6323 -12.2942
  510 358.934 -39.5595 28.0164
  511 27.5192 -35.6131 44.4633
  512 427.248 -54.6176 -55.8095
  513 291.176 1.09270 17.1274
  514 291.050 1.20854 -17.1495
  515 0.838072 -33.6980 23.7756
  516 -5.70185 -1.70000 -4.41472
  517 -5.70445 -1.69919 4.41799
  518 35.9347 1.84491 -0.500044
  519 35.9769 1.84548 0.500163
  520 -0.983030 -22.6238 9.76778
  521 -0.891913 -22.5185 -9.81808
  522 239.937 2.34003 3.83358
  523 239.891 2.34370 -3.83354
  524 674.729 119.513 51.1462
  525 28.1369 -16.8174 -9.02928
  526 21.9029 -22.8125 4.45113
  527 -6.49686 5.11924 -7.99448
  528 -6.43122 5.11274 7.99078
  529 -58.3811 0.922013 7.62004
  530 -58.4329 0.923047 -7.63063
  531 0.585022 -72.2598 14.2443
  532 -81.5987 0.701690 0.735370
  533 -81.6902 0.701731 -0.735601
  534 74.4156 -4.47509 -61.9896
  535 72.7714 -3.22872 64.3804
  536 68.1559 12.1262 -21.4364
  537 67.6418 12.4338 21.5827
  538 -15.6630 -3.27169 21.5138
  539 -15.6869 -3.28546 -21.5450
  540 67.1194 5.97505 1.43604
  541 67.0889 5.97551 -1.43247
  542 -34.0737 1.58017 2.49909
  543 -34.1458 1.58064 -2.49991
  544 79.0983 11.4908 1.43801
  545 79.0653 11.4982 -1.42169
  546 -1.57909 -5.13987 3.77477
  547 -1.58453 -5.13526 -3.77403
  548 28.8215 12.4453 13.2140
  549 28.6300 12.6199 -13.2777
  550 23.2827 3.88893 11.5950
  551 22.9520 3.85803 -11.7870
  552 294.650 1.96877 7.21350
  553 294.582 1.98009 -7.21882
  554 260.818 3.36681 11.5304
  555 260.750 3.40288 -11.5374
  556 -0.267889 -61.2279 -9.02408
  557 182.842 9.10043 -11.2555
  558 182.882 9.07105 11.2781
  559 183.295 4.16310 -4.23124
  560 183.319 4.15500 4.23418
  561 -24.4389 0.866370 0.00360057
  562 -24.3715 0.866698 -0.00349298
  563 313.731 16.9402 -9.20388
  564 409.625 -51.7300 -20.6204
  565 337.469 15.6061 36.1609
  566 2.77339 -52.0550 -16.6382
  567 -17.6772 5.72255 -10.5942
  568 -17.6061 5.71406 10.5868
  569 2.92810 -30.1632 22.4137
  570 -18.0413 0.542374 24.6130
  571 -18.0907 0.539920 -24.6493
  572 522.903 50.2045 0.215397
  573 119.490 5.46001 -1.58554
  574 119.484 5.45664 1.58962
  575 790.276 67.1809 -69.3298
  576 -3.78700 -2.94564 28.6838
  577 -3.51825 -2.73678 -28.7074
  578 432.871 -38.3533 16.7356
  579 348.356 0.248460 -8.53928
  580 348.423 0.203182 8.49011
  581 160.562 0.0237105 -76.2359
  582 162.465 -0.463240 77.4277
  583 -8.89310 -8.53474 24.8953
  584 -8.90189 -8.57916 -24.9605
  585 84.4253 7.57717 40.5526
  586 85.1336 6.94504 -40.2147
  587 -68.2723 0.784532 -7.15403
  588 -68.2012 0.783249 7.14448
  589 510.229 43.8184 28.6785
  590 97.6945 8.90538 0.567191
  591 97.7115 8.90611 -0.557772
  592 115.260 14.3348 -27.8312
  593 115.104 14.5088 28.1327
  594 315.291 -0.749917 -16.7600
  595 315.452 -0.908372 16.7134
  596 -1.39562 -31.8875 -22.3952
  597 342.684 -0.456290 2.55963
  598 342.593 -0.454312 -2.56043
  599 -49.3593 0.965722 -0.968518
  600 -49.2813 0.965733 0.968280
  601 -87.5354 -0.624454 0.0207490
  602 -87.6292 -0.624927 -0.0207422
  603 7.40054 -47.6362 -7.59454
  604 -3.20135 -20.7212 19.2103
  605 -3.37660 -19.6012 -19.3389
  606 -38.8117 2.40841 17.7072
  607 -38.8699 2.41198 -17.7329
  608 240.040 5.77462 14.5646
  609 239.964 5.83035 -14.5607
  610 176.830 2.17797 0.997067
  611 176.811 2.17956 -0.996733
  612 40.1653 -10.5170 25.8061
  613 41.4429 -9.66209 -25.5680
  614 -1.23016 -15.7780 8.25237
  615 -1.26812 -15.7279 -8.28027
  616 410.628 29.0785 174.458
  617 -20.3372 -0.624230 7.64477
  618 -20.3385 -0.627130 -7.65103
  619 7.38116 -28.8350 -16.5122
  620 173.050 6.75932 -5.82895
  621 173.072 6.74748 5.83586
  622 85.0298 17.9592 -9.24720
  623 84.8658 18.0695 9.36401
  624 0.829934 -108.772 5.62042
  625 63.8667 17.5072 3.19951
  626 63.7916 17.5490 -3.17322
  627 -6.46675 7.17889 12.7369
  628 -6.53817 7.19153 -12.7463
  629 -0.489912 -53.9693 12.3212
  630 -87.4172 0.0812593 -2.64751
  631 -87.3236 0.0811045 2.64598
  632 114.027 2.92960 0.443563
  633 114.035 2.93172 -0.442247
  634 287.156 0.745715 4.78568
  635 287.090 0.751278 -4.78723
  636 253.717 -16.9356 133.273
  637 204.051 4.98457 -8.84033
  638 204.092 4.96284 8.84708
  639 3.41545 -4.12923 26.4691
  640 4.16794 -2.32172 -26.4157
  641 325.941 -32.2422 -107.953
  642 766.587 26.3180 -28.8286
  643 -80.5549 0.0602688 -4.94129
  644 -80.4710 0.0594701 4.93586
  645 19.8186 4.24958 -3.74639
  646 19.8695 4.24769 3.74665
  647 -1.51035 -33.8292 19.7892
  648 441.343 26.3948 -44.1681
  649 338.848 -0.623219 0.444141
  650 338.756 -0.622697 -0.443917
  651 -21.7798 -1.17878 -17.7537
  652 -21.7568 -1.17323 17.7315
  653 -0.0655914 -76.6660 -11.8177
  654 344.672 -0.640423 0.984252
  655 344.577 -0.639783 -0.983912
  656 32.0795 10.8617 8.76119
  657 32.0196 10.8769 -8.75853
  658 263.390 -22.6534 -70.9037
  659 268.135 -22.5598 71.6884
  660 384.189 -2.47769 5.87453
  661 384.261 -2.45189 -6.12253
  662 1.68678 -96.5518 9.20108
  663 -20.5551 0.649890 -1.45078
  664 -20.4891 0.650261 1.45048
  665 126.244 13.3077 -126.755
  666 118.620 2.60019 0.938259
  667 118.627 2.60142 -0.937636
  668 58.6141 4.26495 0.627278
  669 58.5810 4.26475 -0.625687
  670 69.6140 7.54294 -1.02218
  671 69.6447 7.54141 1.02857
  672 224.976 6.25066 -22.5274
  673 225.110 6.14688 22.5846
  674 59.9086 17.4235 0.491069
  675 59.7301 17.5453 -0.459504
  676 -40.3652 3.01326 -10.0467
  677 -40.2891 3.00761 10.0377
  678 -47.0463 3.24296 -11.4500
  679 -46.9702 3.23717 11.4373
  680 394.932 -6.00374 -1.10122
  681 0.486359 -15.8726 -27.0939
  682 395.523 -6.29735 0.549248
  683 502.533 39.3452 -0.862569
  684 -49.5242 0.233557 8.67227
  685 -49.5642 0.233460 -8.68446
  686 52.1007 15.0555 -3.18917
  687 51.7298 15.2416 3.23177
  688 -93.8896 0.0680357 -0.945106
  689 -93.7930 0.0681081 0.944686
  690 0.797172 -14.2735 27.1371
  691 -30.9495 0.437062 18.6693
  692 -30.9913 0.435658 -18.6956
  693 433.564 -35.9285 -18.3963
  694 68.8976 1.67856 -0.476557
  695 68.8695 1.67757 0.477091
  696 16.1353 6.32407 6.28363
  697 16.0795 6.32947 -6.28364
  698 229.622 -10.3735 -59.3230
  699 231.349 -10.7813 60.4723
  700 798.651 56.6418 63.0942
  701 15.5370 -72.3537 -26.6532
  702 -5.72408 -12.0779 26.6154
  703 -5.73384 -12.1266 -26.6758
  704 48.7165 10.7217 -4.69245
  705 48.7634 10.7120 4.69959
  706 354.295 -0.540410 -2.60736
  707 354.389 -0.542700 2.60505
  708 169.029 2.79531 1.75578
  709 169.014 2.79865 -1.75482
  710 14.2667 12.4548 19.2829
  711 14.1735 12.4928 -19.3107
  712 9.07419 3.14379 2.63627
  713 9.02004 3.14446 -2.63644
  714 -9.85851 2.44106 27.1304
  715 -9.93163 2.44056 -27.1848
  716 291.332 -0.287429 2.01685
  717 291.263 -0.285528 -2.01693
  718 252.273 2.12725 5.46096
  719 252.221 2.13387 -5.46154
  720 34.1105 -21.3829 30.9844
  721 35.0999 -22.9565 -29.9573
  722 -19.4311 4.27972 23.6580
  723 -19.5003 4.28517 -23.6978
  724 10.5773 -23.7382 12.9326
  725 1.04474 7.57939 24.9370
  726 0.929828 7.60040 -24.9663
  727 -55.5848 1.59149 -6.67295
  728 -55.5040 1.58914 6.66761
  729 44.4226 14.1758 8.07725
  730 44.3531 14.2025 -8.06757
  731 390.547 -11.8212 -21.0684
  732 369.888 -32.1805 -9.55208
  733 -5.95954 -12.1940 18.8950
  734 -5.95207 -12.2518 -18.8715
  735 143.964 -0.255651 -89.9635
  736 140.221 2.81694 90.8207
  737 87.7719 16.7510 -14.1500
  738 87.5519 16.9161 14.3194
  739 7.70065 -13.9128 21.6207
  740 -0.531414 -39.9787 -10.7246
  741 182.999 9.99598 -21.1296
  742 183.089 9.93451 21.2364
  743 0.471705 -78.5556 9.92347
  744 109.284 15.0250 -5.73898
  745 109.260 15.0326 5.78753
  746 372.218 -0.383615 -6.46703
  747 372.245 -0.429371 6.37969
  748 7.37922 -105.523 2.57523
  749 168.482 12.4850 15.9734
  750 168.436 12.5217 -15.9066
  751 45.7780 16.1158 -4.54436
  752 46.0131 15.9527 4.52921
  753 -67.2727 0.444333 -6.04223
  754 -67.2110 0.443760 6.03345
  755 186.822 3.13903 -3.69969
  756 186.845 3.13381 3.70131
  757 115.488 16.5712 -10.4327
  758 115.451 16.5934 10.5211
  759 1.07306 10.0880 19.2442
  760 0.987496 10.1143 -19.2662
  761 371.011 -27.5341 5.03057
  762 -57.4027 1.25163 5.07632
  763 -57.4845 1.25268 -5.07907
  764 797.566 156.164 -110.885
  765 -21.4653 2.22886 5.30725
  766 -21.5332 2.23042 -5.30921
  767 315.507 0.824722 11.9002
  768 315.426 0.880825 -11.9360
  769 586.100 36.6731 0.260273
  770 356.990 -1.04580 -4.91935
  771 357.073 -1.05428 4.90792
  772 228.582 3.24029 6.87155
  773 228.538 3.25152 -6.87116
  774 341.821 -38.3025 98.3994
  775 148.744 10.8192 -6.04737
  776 148.759 10.8061 6.06706
  777 3.42143 -59.0869 12.0657
  778 392.038 -49.0292 32.5546
  779 238.069 0.562114 1.17595
  780 238.025 0.563653 -1.17578
  781 311.762 0.0657903 0.626151
  782 311.684 0.0662563 -0.625962
  783 -1.39780 -31.5580 -18.5194
  784 1.91585 -53.6536 17.9367
  785 141.013 15.6405 22.1892
  786 141.013 15.6331 -22.0109
  787 789.958 7.75660 6.91355
  788 242.232 2.05456 -28.0934
  789 242.408 1.93009 28.1649
  790 -50.0212 1.65851 13.2356
  791 -50.0908 1.66258 -13.2529
  792 10.3478 -43.0105 3.51171
  793 6.68972 -98.3251 -7.26202
  794 551.447 71.5275 -9.47411
  795 -0.482264 -39.8677 9.68077
  796 11.4309 8.09354 22.3488
  797 11.3932 8.09040 -22.4528
  798 74.2112 14.5454 1.95866
  799 74.1668 14.5634 -1.93657
  800 368.087 -16.8651 -6.01084
  801 368.807 -16.6657 4.76463
  802 432.559 64.7929 -165.286
  803 -59.0441 0.637693 -2.30126
  804 -58.9619 0.637490 2.30025
  805 -27.9045 -0.112840 7.19961
  806 -27.9121 -0.114070 -7.20752
  807 26.9392 2.25646 6.56594
  808 26.3712 2.22628 -6.62274
  809 279.325 -1.58453 25.2801
  810 279.115 -1.34888 -25.2255
  811 142.552 3.69145 -0.993687
  812 142.556 3.68854 0.995110
  813 450.381 -6.56411 40.4855
  814 47.9304 7.56530 -4.19433
  815 47.9729 7.56109 4.19868
  816 44.5153 6.15610 -7.63183
  817 44.1143 6.36681 7.73736
  818 -0.125329 -31.1162 -24.8304
  819 635.305 99.1402 91.4398
  820 -91.8838 0.0945999 -2.64576
  821 -91.7892 0.0944390 2.64378
  822 -0.136838 -95.6328 9.33140
  823 6.82955 -13.7545 -21.8778
  824 -13.8737 -0.847583 5.36150
  825 -13.8680 -0.849765 -5.36329
  826 508.576 30.0198 -27.6386
  827 132.818 13.0753 -7.61225
  828 132.821 13.0682 7.65561
  829 349.111 -5.14067 -12.7458
  830 349.427 -5.19548 12.5548
  831 -87.8803 0.663219 3.53067
  832 -87.9705 0.663986 -3.53414
  833 -0.629093 -0.651359 -0.535544
  834 -0.630365 -0.652533 0.537674
  835 0.287201 -97.8033 -9.11467
  836 0.449051 -102.784 -8.21898
  837 -96.7103 0.923093 0.522353
  838 -96.8081 0.923299 -0.522520
  839 53.4827 -15.3214 -59.4415
  840 216.613 2.53445 -2.02012
  841 216.649 2.53201 2.02025
  842 -6.49232 1.71400 0.671540
  843 -6.55227 1.71384 -0.671712
  844 321.385 0.806779 -7.88726
  845 321.459 0.787759 7.87162
  846 -36.6758 0.248078 6.84419
  847 -36.6928 0.248103 -6.85254
  848 195.048 3.05107 -134.823
  849 336.027 -28.6099 27.6856
  850 263.511 1.09300 -2.49268
  851 263.567 1.09080 2.49250
  852 332.985 -31.1124 -30.8905
  853 104.361 11.5265 -2.26369
  854 104.344 11.5261 2.28578
  855 143.970 9.33510 -4.61053
  856 143.979 9.32566 4.62323
  857 390.477 -8.33053 16.0925
  858 24.2664 14.1417 15.8292
  859 24.1605 14.1953 -15.8660
  860 25.1349 1.65166 1.22761
  861 25.0881 1.65114 -1.22759
  862 184.310 2.26206 1.71206
  863 184.289 2.26453 -1.71151
  864 481.488 -43.7261 55.0540
  865 301.694 1.64063 -10.3436
  866 301.771 1.60510 10.3225
  867 4.87822 4.52076 4.96757
  868 4.82013 4.52370 -4.96822
  869 302.363 -0.399468 2.92680
  870 302.289 -0.397066 -2.92716
  871 -55.7428 0.316203 -1.49133
  872 -55.6623 0.316536 1.49079
  873 -0.264181 -30.5230 8.63414
  874 -0.347701 -31.0006 -8.70017
  875 363.400 -5.01353 38.6358
  876 -21.7994 5.60849 19.9423
  877 -21.8741 5.62146 -19.9710
  878 -0.122553 -50.2650 -9.53393
  879 143.954 5.23151 -2.37675
  880 143.960 5.22753 2.37977
  881 264.663 -13.3010 -45.2785
  882 266.703 -14.7105 45.7215
  883 -11.2913 -3.94669 -26.7239
  884 -11.2411 -3.94700 26.6682
  885 14.7532 12.5434 17.6883
  886 14.6632 12.5777 -17.7061
  887 1.26240 -114.663 6.45732
  888 3.92460 9.83110 22.7694
  889 3.82601 9.85766 -22.7995
  890 244.436 -4.36339 -40.2586
  891 243.903 -4.55769 40.5793
  892 422.425 23.5324 45.9449
  893 97.2641 10.7278 0.989892
  894 97.2835 10.7278 -0.975200
  895 309.582 1.81697 -7.73907
  896 309.655 1.80218 7.72960
  897 -12.1001 -5.26451 23.4912
  898 -12.1232 -5.28496 -23.5338
  899 1.07821 -118.023 -4.21900
  900 -18.6115 -1.23158 23.0302
  901 -18.6481 -1.23510 -23.0642
  902 12.1834 11.3016 -13.8676
  903 12.2589 11.2782 13.8589
  904 -0.952771 -7.67578 4.24898
  905 -0.963536 -7.66803 -4.25532
  906 26.8046 12.7365 -12.3718
  907 26.8831 12.7075 12.3691
  908 5.77006 -9.11256 24.4356
  909 5.02651 -8.47957 -25.6975
  910 300.700 -8.59839 25.7810
  911 299.985 -8.18796 -25.9254
  912 -98.6808 0.274071 -0.767277
  913 -98.5822 0.274091 0.766998
  914 -8.52813 -0.768849 4.03258
  915 -8.52047 -0.770180 -4.03141
  916 0.407134 -71.4550 -8.69147
  917 -9.16242 -3.93092 -11.4784
  918 -9.15914 -3.92117 11.4793
  919 -38.5026 3.26786 17.0072
  920 -38.5700 3.27452 -17.0315
  921 94.0117 18.0028 -5.87897
  922 93.9401 18.0547 5.95065
  923 400.001 31.4733 -7.08590
  924 -4.28960 8.97299 17.4887
  925 -4.36910 8.99329 -17.5070
  926 148.347 9.42402 -42.2469
  927 148.356 9.55959 42.7184
  928 -17.3735 6.24739 14.0881
  929 -17.4477 6.26032 -14.1021
  930 483.498 -23.3451 -7.72493
  931 292.755 11.6541 19.9075
  932 352.022 -4.39646 -34.9430
  933 263.161 3.43087 -17.1240
  934 263.265 3.34725 17.1212
  935 -27.5520 3.72404 -6.90244
  936 -27.4807 3.71975 6.89834
  937 -62.6315 1.12824 8.48024
  938 -62.7097 1.13085 -8.49030
  939 -3.78187 -12.2264 -13.3208
  940 -3.75544 -12.2369 13.3449
  941 93.4394 5.97552 0.539497
  942 93.4570 5.97685 -0.535284
  943 -29.2633 3.05759 21.1054
  944 -29.3224 3.06014 -21.1384
  945 315.359 -0.213446 3.83848
  946 315.281 -0.210565 -3.83934
  947 -2.37570 -26.8460 20.1547
  948 12.0303 10.3652 -11.9043
  949 12.0999 10.3475 11.8989
  950 16.5163 7.18277 7.80216
  951 16.4577 7.19094 -7.80301
  952 54.6014 5.01452 -1.89979
  953 54.6368 5.01389 1.90158
  954 592.535 75.1853 -16.3474
  955 -2.34485 -0.645283 -1.59633
  956 -2.34989 -0.645250 1.59924
  957 20.5017 5.83646 -14.9303
  958 20.8488 5.66976 14.8680
  959 212.506 8.43062 -18.0231
  960 212.595 8.35964 18.0635
  961 27.4907 9.05410 -7.42847
  962 27.5474 9.04374 7.42998
  963 58.1288 -13.1292 79.0152
  964 399.358 -2.86793 -3.30480
  965 398.773 -2.76027 2.93373
  966 70.9415 -6.68001 68.9272
  967 74.5432 3.16869 -0.229013
  968 74.5174 3.16800 0.229832
  969 193.628 -6.28963 -116.572
  970 146.086 2.43663 0.936762
  971 146.082 2.43800 -0.936281
  972 18.6043 -18.9517 3.87479
  973 20.5594 -15.8753 -2.32531
  974 353.725 -0.391193 1.32215
  975 353.626 -0.390580 -1.32177
  976 -29.0803 0.0983412 16.9678
  977 -29.1113 0.0966792 -16.9897
  978 634.352 79.4436 36.0718
  979 -2.69852 -20.0833 -26.5547
  980 3.17017 -99.8168 11.5359
  981 -0.460047 -31.9006 24.4904
  982 365.758 -0.296583 -5.01992
  983 365.829 -0.309039 4.99903
  984 -4.83585 -8.85188 11.5093
  985 -4.84902 -8.85217 -11.4979
  986 456.665 47.6444 -25.2626
  987 801.380 6.95780 -4.64064
  988 -1.19103 -1.79431 -1.73739
  989 -1.18973 -1.79812 1.73990
  990 212.735 2.37709 -3.89838
  991 212.769 2.37266 3.89904
  992 -2.76823 -19.3011 26.6896
  993 295.912 1.26976 15.2760
  994 295.815 1.35364 -15.3036
  995 388.738 -25.7557 -15.6107
  996 -13.5744 -2.83636 12.9798
  997 -13.5793 -2.84693 -12.9865
  998 6.41558 -25.2630 18.9176
  999 -0.625349 -48.1092 19.2234
  1000 -0.0563577 -49.8713 9.51981
  1001 398.476 26.0187 -2.30963
  1002 455.805 49.9927 14.2862
  1003 326.237 -37.3991 -54.3904
  1004 4.68745 -46.9063 15.2660
  1005 5.93815 -67.4406 3.32159
  1006 90.7609 2.18054 0.264682
  1007 90.7421 2.17954 -0.264585
  1008 -3.61881 -4.12504 -5.49297
  1009 -3.61568 -4.12595 5.49735
  1010 3.12778 -38.5389 -20.4338
  1011 263.113 0.260806 -0.915040
  1012 263.169 0.259595 0.915067
  1013 52.8261 -0.0895170 -25.7567
  1014 50.5485 0.0338022 25.5095
  1015 -4.66576 8.11749 22.9950
  1016 -4.75936 8.14085 -23.0321
  1017 -30.8218 4.74455 -14.3004
  1018 -30.7470 4.73502 14.2845
  1019 200.796 3.25970 -41.2794
  1020 200.915 3.43057 41.7305
  1021 144.572 12.7693 -28.8420
  1022 144.559 12.7680 29.1175
  1023 156.908 11.2907 -9.67220
  1024 156.930 11.2689 9.70241
  1025 407.238 -11.1928 -45.1909
  1026 -10.6232 5.01561 25.2486
  1027 -10.7072 5.02437 -25.3000
  1028 288.391 -0.383326 20.8906
  1029 288.228 -0.205457 -20.8986
  1030 -1.86480 -15.0720 27.8549
  1031 -23.2928 -0.775101 12.5255
  1032 -23.3052 -0.778907 -12.5389
  1033 262.791 2.34088 -20.7699
  1034 262.927 2.22264 20.7771
  1035 325.181 7.82039 -32.4588
  1036 -0.383884 -47.8423 -20.1723
  1037 -3.86674 -18.8399 23.8993
  1038 -4.02864 -19.0642 -23.6986
  1039 185.356 10.7658 -14.8552
  1040 185.414 10.7193 14.9015
  1041 233.913 4.20835 8.51133
  1042 233.864 4.22539 -8.51140
  1043 387.939 -25.1569 13.5569
  1044 19.4257 1.88142 -0.338044
  1045 19.4747 1.88176 0.338038
  1046 329.908 -41.8370 58.0372
  1047 -1.63588 1.28561 1.66728
  1048 -1.69401 1.28529 -1.66753
  1049 71.3653 18.1201 0.247353
  1050 71.2706 18.1792 -0.205464
  1051 27.1768 14.2788 13.5713
  1052 27.0893 14.3151 -13.5784
  1053 3.62530 -58.4064 -12.5621
  1054 95.5689 3.54129 0.129226
  1055 95.5855 3.54321 -0.126902
  1056 285.120 9.37092 8.19930
  1057 265.555 1.92976 7.92309
  1058 265.495 1.94533 -7.92682
  1059 -1.59090 -15.6511 -27.9027
  1060 399.401 -5.11351 -8.14294
  1061 0.0329780 -1.31610 27.6766
  1062 0.331707 -1.08711 -27.5505
  1063 363.656 -0.684000 -2.77339
  1064 363.751 -0.686853 2.76911
  1065 387.403 -1.36037 -4.87044
  1066 387.327 -1.41018 4.73961
  1067 -0.294542 -75.5572 7.16259
  1068 227.394 5.70276 -11.2688
  1069 227.446 5.67446 11.2714
  1070 276.704 2.42562 9.23592
  1071 276.639 2.44577 -9.24294
  1072 6.32619 6.56187 24.8815
  1073 6.29089 6.56496 -24.9072
  1074 601.133 39.9627 6.24572
  1075 -7.63823 -3.30921 28.4613
  1076 -7.75398 -3.23853 -28.5321
  1077 86.0054 16.8124 -1.00267
  1078 85.9603 16.8362 1.03909
  1079 -47.9594 0.886924 -2.53507
  1080 -47.8818 0.886857 2.53417
  1081 141.335 8.13535 -48.6630
  1082 141.147 8.53196 49.2537
  1083 40.7052 16.1202 10.4105
  1084 40.6097 16.1660 -10.4087
  1085 96.0101 11.1169 -35.8758
  1086 95.5193 11.5938 36.1897
  1087 -2.53760 -25.2110 -19.6388
  1088 338.797 4.61756 42.5943
  1089 237.343 0.969241 151.330
  1090 38.2883 16.5649 10.7454
  1091 38.1755 16.6263 -10.7533
  1092 143.451 7.55930 -3.49129
  1093 143.458 7.55124 3.49949
  1094 519.758 2.14738 12.2610
  1095 33.4857 8.52047 6.64976
  1096 33.0637 8.62701 -6.77510
  1097 -15.4208 -3.38147 17.2752
  1098 -15.4331 -3.39701 -17.2925
  1099 -0.506242 -11.4602 4.63936
  1100 -0.526186 -11.4532 -4.65795
  1101 341.623 -0.404748 12.3087
  1102 341.509 -0.276695 -12.4014
  1103 0.524425 -24.2118 26.1198
  1104 -23.3540 1.49511 -23.0290
  1105 -23.3045 1.49730 22.9950
  1106 0.117417 -91.4116 -9.11384
  1107 -5.33666 -7.51690 28.4164
  1108 -5.32260 -7.35893 -28.4462
  1109 326.760 0.309872 -5.18325
  1110 326.841 0.303298 5.17873
  1111 336.953 -2.64517 14.7889
  1112 336.730 -2.43859 -14.8831
  1113 58.8200 13.0870 -12.0401
  1114 58.3738 13.3453 12.1550
  1115 -0.800197 -47.0883 -16.3859
  1116 443.549 -40.8781 -88.4853
  1117 575.094 74.4329 4.17328
  1118 5.94103 -71.0842 -1.10613
  1119 20.7251 11.7912 -18.0979
  1120 20.8466 11.7251 18.0093
  1121 55.0776 17.8174 4.67580
  1122 54.9485 17.8973 -4.65894
  1123 116.522 6.86954 1.34057
  1124 116.529 6.87369 -1.33407
  1125 -7.43961 -10.5966 22.3648
  1126 -7.42895 -10.6973 -22.3996
  1127 -21.0975 6.59461 18.3589
  1128 -21.1734 6.60896 -18.3819
  1129 -7.39900 8.35792 21.2736
  1130 -7.48468 8.37897 -21.3040
  1131 321.660 -16.4369 -25.2951
  1132 323.724 -16.5730 25.0840
  1133 0.302265 -54.0888 -19.1709
  1134 171.761 -0.365458 -61.0078
  1135 172.033 0.173910 62.0284
  1136 54.9478 16.3001 -5.38529
  1137 55.0172 16.2655 5.40202
  1138 172.192 81.0309 169.223
  1139 43.0270 13.0803 7.73069
  1140 42.9654 13.1003 -7.72307
  1141 438.740 -48.0435 -21.4689
  1142 165.910 4.52988 2.83189
  1143 165.895 4.53570 -2.82920
  1144 -7.46968 -6.65880 13.6793
  1145 -7.47460 -6.67454 -13.6747
  1146 -8.91434 -7.99520 17.6978
  1147 -8.91412 -8.02667 -17.6998
  1148 288.029 -29.3085 -85.6951
  1149 293.846 -32.2614 86.3311
  1150 51.7938 1.97005 0.633163
  1151 51.8293 1.97081 -0.632311
  1152 180.918 8.39174 -33.5277
  1153 180.930 8.28352 33.8655
  1154 394.269 -52.7041 65.6184
  1155 351.026 -0.807428 0.768520
  1156 350.928 -0.806833 -0.768116
  1157 -31.2516 4.94462 16.3942
  1158 -31.3259 4.95453 -16.4144
  1159 -53.7436 1.66623 -8.58431
  1160 -53.6639 1.66321 8.57724
  1161 90.0638 1.51676 101.809
  1162 275.551 18.4818 -16.6469
  1163 165.477 11.7785 -16.5333
  1164 165.529 11.7427 16.6224
  1165 512.058 -14.9504 95.3391
  1166 168.185 11.3338 -24.4796
  1167 168.248 11.2753 24.6346
  1168 42.1198 5.38236 -2.86738
  1169 42.1614 5.38096 2.86908
  1170 14.6340 -53.7335 9.89646
  1171 14.7997 -52.3434 -13.8308
  1172 227.915 -15.9297 -86.4923
  1173 231.046 -14.8889 86.4324
  1174 89.2576 14.7112 -25.0691
  1175 88.8839 15.0156 25.3242
  1176 401.003 -26.7845 -29.2963
  1177 -14.5781 -1.20516 25.9803
  1178 -14.6282 -1.20468 -26.0225
  1179 -0.243655 -21.6250 -26.8337
  1180 102.316 2.92573 -64.2071
  1181 102.549 3.23583 65.3083
  1182 -0.257789 -20.3218 5.17274
  1183 -0.220159 -20.3710 -5.23636
  1184 -96.1158 0.802854 -2.49306
  1185 -96.0207 0.802347 2.49090
  1186 319.024 -0.214661 -1.44255
  1187 319.106 -0.215805 1.44248
  1188 197.129 7.20647 -9.65774
  1189 197.174 7.17920 9.67022
  1190 -7.15100 -0.0258184 28.4507
  1191 -7.17314 0.0887227 -28.5053
  1192 0.0226520 -81.6106 -7.97122
  1193 -81.6917 0.190649 4.03683
  1194 -81.7717 0.191148 -4.04208
  1195 63.3777 -1.28154 -45.0483
  1196 62.9022 -0.886220 46.4761
  1197 372.457 -22.7928 -1.35645
  1198 106.465 6.81229 -57.6960
  1199 106.539 7.10348 58.2663
  1200 -45.4055 0.245068 6.22159
  1201 -45.4324 0.244832 -6.22986
  1202 1.20058 -71.2102 -13.4213
  1203 -13.2158 2.82223 -3.28827
  1204 -13.1521 2.82126 3.28749
  1205 56.3432 13.7465 5.60385
  1206 56.2856 13.7671 -5.58971
  1207 209.692 1.08003 -1.27426
  1208 209.725 1.07836 1.27459
  1209 282.713 1.26617 6.02707
  1210 282.649 1.27574 -6.03028
  1211 15.5798 -1.96011 15.4203
  1212 15.3472 -2.22563 -15.7030
  1213 2.65524 -40.9040 20.4189
  1214 506.894 69.5242 18.2163
  1215 -15.6173 -1.22142 9.84417
  1216 -15.6193 -1.22661 -9.84958
  1217 2.10108 -38.3053 -21.3751
  1218 -1.49022 -23.7099 14.4048
  1219 -1.41553 -23.4928 -14.9251
  1220 401.108 -4.38430 7.22465
  1221 0.354989 -93.3733 8.15794
  1222 2.96536 -28.1089 -23.8429
  1223 48.0192 1.51506 0.498416
  1224 47.9822 1.51430 -0.498472
  1225 -3.93737 -16.8973 26.2748
  1226 -43.9971 2.50183 -7.26471
  1227 -43.9200 2.49894 7.25989
  1228 816.375 14.0982 23.2004
  1229 -23.0951 2.71055 23.2656
  1230 -23.1537 2.71085 -23.3027
  1231 193.292 7.74483 -30.3126
  1232 193.456 7.60472 30.4919
  1233 12.6259 -18.8758 -10.0434
  1234 183.957 9.38879 -12.2248
  1235 184.005 9.35207 12.2560
  1236 7.62477 -56.4088 -2.98910
  1237 -3.95077 -16.9327 -26.2326
  1238 -30.6951 1.23891 4.31866
  1239 -30.7661 1.23951 -4.32025
  1240 -13.9547 1.08372 -26.5608
  1241 -13.8938 1.08713 26.5209
  1242 393.205 31.5170 32.6091
  1243 223.563 2.53790 -32.1072
  1244 223.824 2.47039 32.1876
  1245 -100.583 0.232113 -0.911488
  1246 -100.484 0.232052 0.911002
  1247 201.539 4.83594 -6.55023
  1248 201.572 4.82528 6.55299
  1249 -103.210 -1.77184 -0.275922
  1250 -103.310 -1.77267 0.276031
  1251 300.523 -21.3853 -36.7738
  1252 -47.3758 0.808202 13.1528
  1253 -47.4280 0.808835 -13.1719
  1254 303.541 -22.5705 36.4420
  1255 205.006 7.44553 -13.3137
  1256 205.061 7.40409 13.3310
  1257 24.0820 -54.9463 -44.6766
  1258 0.438774 -65.4021 -16.4268
  1259 -1.34956 -27.4909 24.6336
  1260 643.301 108.172 -91.7819
  1261 -0.153429 -61.3683 16.0569
  1262 670.315 63.2228 -40.9562
  1263 -0.367684 -113.721 -7.63397
  1264 32.5111 3.24146 -1.00568
  1265 32.5552 3.24132 1.00649
  1266 -0.283094 -26.0947 5.42090
  1267 -0.228070 -26.2337 -5.40622
  1268 114.459 2.84401 0.0845128
  1269 114.468 2.84548 -0.0838991
  1270 405.433 -30.7270 27.8235
  1271 8.37289 3.05380 -3.81033
  1272 8.42790 3.05275 3.80989
  1273 2.33859 -124.448 3.58788
  1274 1.48500 -132.541 -3.55260
  1275 372.877 -46.3382 -39.4995
  1276 -1.02472 -33.8970 15.9158
  1277 390.587 25.1597 -41.1831
  1278 -1.16430 -44.6696 15.6410
  1279 0.779570 -122.259 -5.83580
  1280 188.049 5.32109 -7.16266
  1281 188.080 5.30280 7.17023
  1282 -0.141466 -66.5957 7.06672
  1283 -0.169051 -55.2638 -15.9264
  1284 882.220 154.581 133.732
  1285 352.642 0.189503 0.589009
  1286 352.543 0.189508 -0.588686
  1287 9.45502 0.806697 22.5755
  1288 9.15702 1.18519 -22.6796
  1289 -5.31640 5.16234 26.6746
  1290 -5.44642 5.17070 -26.7365
  1291 376.272 -6.96452 -24.8540
  1292 348.593 -14.6395 -14.5203
  1293 348.250 -16.6514 14.6697
  1294 52.2930 6.09527 2.88749
  1295 52.2547 6.09691 -2.88412
  1296 -57.1233 1.52761 -10.2611
  1297 -57.0487 1.52438 10.2478
  1298 388.765 -53.3608 -55.9519
  1299 -2.90449 -7.02663 7.17294
  1300 -2.91570 -7.02152 -7.16971
  1301 410.090 -17.4752 42.6439
  1302 -4.29460 -16.1973 19.3491
  1303 -4.24739 -16.2577 -19.2609
  1304 -36.2416 2.42068 5.15851
  1305 -36.3153 2.42258 -5.16106
  1306 62.1444 7.07712 -23.3717
  1307 61.5148 7.43318 23.3593
  1308 97.4033 2.70571 0.367145
  1309 97.3873 2.70426 -0.366491
  1310 -39.4921 3.96432 16.1990
  1311 -39.5631 3.97170 -16.2200
  1312 330.956 0.788298 0.915480
  1313 330.868 0.788138 -0.915042
  1314 182.642 -1.37685 115.440
  1315 270.471 0.536243 2.13092
  1316 270.411 0.537704 -2.13072
  1317 179.906 3.80247 -46.5395
  1318 179.940 3.59436 46.9508
  1319 1.73353 -71.6568 -9.58752
  1320 69.8284 16.6747 -9.91997
  1321 69.5302 16.8751 10.0410
  1322 -0.680515 -0.616703 -0.894289
  1323 -0.683946 -0.616898 0.896893
  1324 231.616 6.97056 17.2562
  1325 231.528 7.04553 -17.2393
  1326 115.211 9.36893 2.60100
  1327 115.218 9.37329 -2.58782
  1328 169.610 9.45288 -8.31023
  1329 169.639 9.43108 8.32972
  1330 222.006 1.26634 -2.13928
  1331 222.043 1.26455 2.13971
  1332 -7.06378 -3.41984 -8.09867
  1333 -7.06239 -3.41575 8.10261
  1334 -67.2945 0.0834999 3.06210
  1335 -67.3802 0.0836946 -3.06370
  1336 -12.0213 -5.50942 -19.7792
  1337 -12.0115 -5.48166 19.7581
  1338 -38.1774 0.618244 1.28551
  1339 -38.2506 0.617900 -1.28588
  1340 -104.349 0.953298 0.520071
  1341 -104.450 0.953567 -0.520231
  1342 417.925 -52.3842 76.2376
  1343 303.591 -1.80550 -34.7155
</Section>

newXOutput 50

<Section columns = "stress_xx | stress_yy | stress_xy">
  1 370.333 -0.545677 0.376665
  2 370.441 -0.546042 -0.376851
  3 -115.050 0.551483 -1.56763
  4 0.184252 0.0468693 0.326786
  5 672.139 193.216 218.393
  6 759.838 218.620 -209.785
  7 0.183449 0.0461326 -0.325719
  8 -114.942 0.551378 1.56700
  9 369.219 -0.516024 -1.22396
  10 369.516 -1.12298 -1.98400
  11 372.999 -1.11275 -0.530023
  12 373.375 -1.06589 -2.32774
  13 374.305 -1.04384 -0.721624
  14 382.114 -0.995256 -1.00163
  15 384.823 -1.44880 -3.12192
  16 387.746 -0.690224 -2.13817
  17 389.605 0.149728 -4.12680
  18 405.392 -2.22488 -3.53392
  19 412.221 -1.72671 -4.54926
  20 419.774 -2.61439 -1.79614
  21 423.421 -3.46928 -1.09239
  22 420.513 -3.99657 5.39742
  23 406.315 -4.46845 11.4015
  24 373.199 -4.99227 24.4236
  25 319.551 2.82077 28.4411
  26 275.309 3.42150 26.4831
  27 213.769 7.10533 16.0546
  28 227.332 6.91101 1.44676
  29 190.552 20.6280 -10.2200
  30 261.414 9.45683 -28.8410
  31 300.426 2.31810 -23.5938
  32 365.811 -1.08018 -20.4247
  33 401.678 -5.42073 -13.6736
  34 419.875 -4.65645 -5.36896
  35 422.607 -3.36026 1.11591
  36 419.218 -2.57999 1.68307
  37 412.002 -1.73783 4.41520
  38 405.327 -2.25358 3.45703
  39 389.650 0.133383 4.09020
  40 387.829 -0.696385 2.12455
  41 384.925 -1.45271 3.11747
  42 382.223 -0.997314 0.999572
  43 374.413 -1.04515 0.720966
  44 373.485 -1.06704 2.32876
  45 373.109 -1.11360 0.530313
  46 369.624 -1.12369 1.98515
  47 369.326 -0.516378 1.22467
  48 349.254 0.919930 -0.459194
  49 323.414 0.350864 -1.02539
  50 291.118 -1.00651 -1.03908
  51 257.631 0.952520 -0.864350
  52 228.295 0.712413 -0.688339
  53 196.901 1.72574 -0.815001
  54 165.913 3.33831 -0.496678
  55 133.740 2.98538 -1.02809
  56 107.055 2.09038 -1.43745
  57 72.0330 1.32364 -1.51466
  58 36.4552 2.03179 -1.15356
  59 6.75551 1.68084 -1.11522
  60 -30.3021 0.980216 -1.02012
  61 -57.8553 -0.320031 -2.48452
  62 -84.5429 -1.81229 -1.13689
  63 -111.606 0.234127 0.759974
  64 -117.451 2.01332 -0.295768
  65 -117.854 0.890336 0.340889
  66 -113.929 0.447124 -0.143935
  67 -115.160 1.29678 -1.42179
  68 -113.328 1.57567 -0.139033
  69 -107.184 0.484062 -2.18084
  70 -108.429 0.971471 -2.34525
  71 -105.696 0.921244 -1.32092
  72 -97.8486 0.577436 -1.99093
  73 -94.2138 1.03875 -3.28429
  74 -88.4786 1.16230 -2.69777
  75 -78.2959 0.592771 -4.66676
  76 -72.5779 0.183167 -3.89988
  77 -62.2714 0.263221 -4.50105
  78 -53.3968 0.200905 -4.98255
  79 -45.6628 0.0680243 -3.93247
  80 -34.9310 0.230503 -3.96268
  81 -25.6793 -0.0996762 -4.23895
  82 -16.7281 -0.462234 -3.72089
  83 -9.63619 -0.405017 -2.85023
  84 -4.73219 -0.709203 -2.38106
  85 -0.784291 -0.409975 -0.849033
  86 0.0583175 -0.455438 -0.302110
  87 -0.246048 -0.237528 -0.0563970
  88 -0.641796 -0.627395 -0.743559
  89 -0.623089 -4.00202 -2.06746
  90 -0.531509 -8.97785 -2.94836
  91 -0.274836 -15.3324 -4.30065
  92 -0.142062 -23.5534 -3.70868
  93 -0.118830 -31.1168 -4.66758
  94 -0.571998 -40.3536 -5.26846
  95 -0.233965 -51.7554 -5.32060
  96 0.108639 -63.2404 -5.09636
  97 0.248817 -75.5488 -5.02854
  98 0.382460 -88.1995 -4.94552
  99 0.0238880 -97.5015 -6.69470
  100 0.654623 -110.730 -5.99221
  101 0.803481 -126.226 -4.78428
  102 -0.0485272 -133.061 -6.35324
  103 1.13750 -144.357 -5.89098
  104 2.80201 -159.389 -2.79264
  105 5.47375 -163.361 -4.43302
  106 3.86014 -149.135 4.04439
  107 5.61715 -111.861 16.5005
  108 28.8828 -62.6458 47.8030
  109 90.4845 131.393 161.320
  110 1034.14 55.6378 102.574
  111 888.025 16.5523 37.2364
  112 859.382 6.03750 8.48408
  113 853.264 2.00177 -1.37826
  114 859.079 9.32481 -19.6501
  115 886.257 30.0176 -44.1496
  116 1006.39 109.021 -130.261
  117 216.793 102.338 -196.820
  118 48.4918 -61.9190 -58.1615
  119 14.2696 -122.459 -21.7050
  120 3.95075 -141.244 -4.35677
  121 4.41118 -157.202 2.37071
  122 1.25370 -153.131 2.10407
  123 0.446584 -140.734 4.99966
  124 0.487154 -132.477 3.95892
  125 0.693418 -119.309 6.77447
  126 -0.0347379 -111.726 6.59271
  127 0.274746 -100.916 4.74588
  128 0.536453 -87.1413 6.03451
  129 0.105378 -77.3063 4.78273
  130 0.157041 -63.3166 6.04135
  131 -0.632450 -52.3790 5.19209
  132 -0.441658 -40.3873 5.10407
  133 -0.0839356 -30.9450 4.67946
  134 -0.184318 -23.4178 3.71561
  135 -0.268384 -15.2874 4.25881
  136 -0.523835 -8.97175 2.93369
  137 -0.619786 -4.00808 2.06598
  138 -0.640970 -0.633838 0.745023
  139 -0.246014 -0.240313 0.0582576
  140 0.0549422 -0.455874 0.303809
  141 -0.790671 -0.409758 0.851206
  142 -4.74187 -0.708544 2.38326
  143 -9.64919 -0.403769 2.85094
  144 -16.7385 -0.460693 3.71941
  145 -25.6822 -0.0984013 4.23471
  146 -34.9249 0.230754 3.95770
  147 -45.6442 0.0686160 3.92724
  148 -53.3668 0.201586 4.97654
  149 -62.2261 0.263142 4.49472
  150 -72.5188 0.183042 3.89395
  151 -78.2274 0.592339 4.66093
  152 -88.3974 1.16158 2.69325
  153 -94.1257 1.03796 3.28059
  154 -97.7538 0.576918 1.98859
  155 -105.595 0.920688 1.31943
  156 -108.325 0.971006 2.34367
  157 -107.080 0.483875 2.17958
  158 -113.221 1.57503 0.138790
  159 -115.052 1.29629 1.42114
  160 -113.821 0.447033 0.143875
  161 -117.744 0.890055 -0.340720
  162 -117.342 2.01259 0.295677
  163 -111.499 0.234141 -0.759668
  164 -84.4476 -1.81128 1.13644
  165 -57.7714 -0.319433 2.48356
  166 -30.2299 0.980494 1.01975
  167 6.81190 1.68107 1.11482
  168 36.4990 2.03217 1.15316
  169 72.0615 1.32467 1.51413
  170 107.068 2.09139 1.43694
  171 133.742 2.98629 1.02773
  172 165.900 3.33912 0.496441
  173 196.875 1.72706 0.814561
  174 228.255 0.713860 0.687885
  175 257.578 0.953378 0.863744
  176 291.049 -1.00521 1.03840
  177 323.330 0.351052 1.02481
  178 349.157 0.919629 0.458936
  179 97.8297 17.1228 -4.10223
  180 97.7763 17.1521 4.15890
  181 -1.72349 2.91227 27.6889
  182 -1.82954 2.89324 -27.7026
  183 222.585 -3.05869 -49.9898
  184 222.435 -3.48802 50.5193
  185 44.5056 10.3805 -2.30647
  186 43.9761 10.5712 2.32394
  187 32.5490 5.67022 -4.26905
  188 32.5979 5.66707 4.27024
  189 210.650 4.04827 -7.36891
  190 210.689 4.03311 7.37299
  191 -3.54296 8.49567 15.0520
  192 -3.62016 8.51335 -15.0656
  193 244.737 6.25850 -18.9105
  194 244.852 6.16817 18.9335
  195 -9.49538 -8.25823 22.0110
  196 -9.49296 -8.30678 -22.0391
  197 2.24345 -19.6811 -26.2035
  198 76.3391 4.39109 -46.0081
  199 2.74208 -21.0522 25.5790
  200 75.1212 5.00270 46.7414
  201 346.734 -46.5642 -72.4690
  202 358.799 -48.4031 69.5364
  203 124.812 4.19710 -1.18607
  204 124.807 4.19435 1.18859
  205 -19.6925 1.42448 -2.95701
  206 -19.6244 1.42438 2.95612
  207 -27.5221 4.23490 21.2479
  208 -27.5918 4.24308 -21.2814
  209 125.463 11.5360 -3.65872
  210 125.460 11.5317 3.67739
  211 38.4085 16.0610 10.1757
  212 38.2586 16.1575 -10.2075
  213 -35.2629 3.80305 -8.78050
  214 -35.1859 3.79807 8.77389
  215 279.761 0.428758 3.51172
  216 279.698 0.432404 -3.51216
  217 9.04211 -37.0037 10.9828
  218 9.82968 -33.4978 -9.70470
  219 -2.59965 -23.3583 24.8153
  220 -2.65990 -24.2663 -24.0351
  221 116.029 16.7589 -20.1405
  222 115.925 16.8397 20.3472
  223 -24.9222 -0.0776695 21.4417
  224 -24.9618 -0.0809033 -21.4720
  225 299.281 1.72299 -10.3429
  226 299.354 1.69703 10.3304
  227 322.184 -4.70095 -20.4369
  228 322.437 -5.02548 20.3509
  229 514.792 39.2398 -0.0391390
  230 472.280 52.6814 27.6219
  231 465.367 -3.76513 -41.3418
  232 57.2240 12.7468 5.33081
  233 57.1722 12.7627 -5.31967
  234 4.13695 10.4921 21.2152
  235 4.04081 10.5232 -21.2429
  236 359.909 -21.7712 -13.8135
  237 357.823 -22.0367 14.9751
  238 199.210 1.76362 -2.68971
  239 199.238 1.75987 2.69054
  240 -44.1464 3.12677 14.1587
  241 -44.2220 3.13345 -14.1764
  242 -6.08470 -5.98695 -9.90976
  243 -6.07911 -5.98307 9.91579
  244 -48.8729 1.19001 4.44330
  245 -48.9536 1.19093 -4.44556
  246 163.983 12.2420 -12.6683
  247 164.014 12.2135 12.7167
  248 208.529 6.28405 -28.5272
  249 208.694 6.17415 28.6512
  250 50.5529 3.24472 -0.294063
  251 50.5909 3.24493 0.294886
  252 120.597 1.60766 -99.4747
  253 142.688 5.01922 108.399
  254 16.3687 7.52820 20.1404
  255 16.2958 7.69172 -20.2246
  256 489.159 -37.3749 -10.0591
  257 42.8128 16.1020 8.83429
  258 42.7301 16.1401 -8.82746
  259 118.271 12.7261 -37.4785
  260 118.047 13.0418 37.8868
  261 546.864 77.0750 -4.39859
  262 324.564 0.166939 13.9978
  263 324.457 0.265575 -14.0475
  264 -2.93094 -18.1154 -15.5335
  265 -2.84612 -18.1876 15.5947
  266 -0.627593 -43.0054 -21.3496
  267 1.46114 -50.1803 -19.6449
  268 0.778150 -50.2243 20.5917
  269 -8.06164 -6.98793 28.2754
  270 -8.09617 -6.97673 -28.3869
  271 17.4590 -39.5839 -7.49069
  272 18.7847 -36.4369 10.4336
  273 -18.7054 -1.56954 13.6390
  274 -18.7158 -1.57666 -13.6516
  275 231.061 6.40100 -11.7768
  276 231.124 6.36389 11.7824
  277 404.272 -41.6275 -3.47334
  278 89.6594 7.63402 -0.177843
  279 89.6812 7.63410 0.183719
  280 -1.05295 -40.3583 20.4106
  281 8.83596 8.29681 9.66653
  282 8.76964 8.30875 -9.67017
  283 642.415 44.7885 -17.4491
  284 314.764 0.185836 4.30317
  285 314.687 0.191481 -4.30606
  286 211.535 -10.0211 -75.1153
  287 213.386 -9.85023 76.2653
  288 403.749 -39.4673 -3.13881
  289 -38.2069 1.19158 16.9368
  290 -38.2557 1.19192 -16.9615
  291 395.206 -31.7254 122.661
  292 -16.9065 2.87575 25.6461
  293 -16.9706 2.87248 -25.6894
  294 67.1495 18.4469 -5.28503
  295 66.8902 18.6218 5.36500
  296 -69.7807 0.556204 0.794321
  297 -69.8697 0.556090 -0.794598
  298 333.102 7.16464 -167.005
  299 -65.4762 1.32109 -7.63257
  300 -65.3919 1.31852 7.62459
  301 -1.81358 -8.18928 28.8106
  302 -0.824043 -7.97886 -28.5161
  303 146.934 14.9473 -18.3264
  304 146.945 14.9390 18.4463
  305 32.2639 3.79671 3.20613
  306 32.2171 3.79753 -3.20586
  307 152.905 5.87571 -3.78476
  308 152.914 5.86909 3.78996
  309 14.4824 -10.6844 14.8569
  310 13.1997 -12.8439 -15.0417
  311 148.423 2.62263 -0.928778
  312 148.428 2.62071 0.929511
  313 -53.8178 1.40345 12.4104
  314 -53.8815 1.40564 -12.4284
  315 37.2310 -3.27552 -9.37497
  316 36.1225 -3.32343 8.39261
  317 328.204 -0.305287 1.20165
  318 328.117 -0.304500 -1.20131
  319 716.122 40.7678 28.3967
  320 74.5706 9.92120 1.99242
  321 74.5377 9.92555 -1.98283
  322 -15.4232 3.59432 6.09643
  323 -15.4919 3.59783 -6.09916
  324 102.529 13.8544 -2.64742
  325 102.504 13.8601 2.67934
  326 12.1614 10.6979 21.9907
  327 12.0817 10.7228 -22.0419
  328 1.54546 -72.4924 14.4140
  329 -72.2844 0.140516 -1.81242
  330 -72.1942 0.140698 1.81166
  331 250.773 0.657143 -2.29258
  332 250.823 0.655070 2.29278
  333 264.071 1.74611 -6.07980
  334 264.128 1.73549 6.07789
  335 -67.3851 1.15040 -5.53724
  336 -67.2973 1.14900 5.53331
  337 -0.929950 1.26975 0.681370
  338 -0.989718 1.26943 -0.681432
  339 -1.51041 -29.8657 15.5000
  340 -1.20060 -31.0640 -15.4789
  341 297.470 -24.6340 -50.7631
  342 308.953 -29.4573 49.8323
  343 176.813 8.56826 -7.84446
  344 176.841 8.55022 7.85734
  345 78.0617 18.2896 -2.86765
  346 77.9327 18.3704 2.93094
  347 -27.0488 5.25163 12.4929
  348 -27.1250 5.26125 -12.5051
  349 552.755 11.0692 14.9975
  350 29.4080 -42.0583 -33.2350
  351 31.4498 -39.1189 34.7872
  352 -11.4728 8.48848 20.0208
  353 -11.5553 8.50757 -20.0473
  354 -15.2346 -3.05414 25.0519
  355 -15.2729 -3.06112 -25.0953
  356 626.454 105.159 -30.2850
  357 402.960 -5.63290 50.9175
  358 375.787 -8.87485 -9.29339
  359 375.456 -8.66845 8.68818
  360 263.693 -3.12382 -32.3460
  361 263.391 -3.38707 32.3590
  362 0.494699 -87.3281 -11.6361
  363 343.913 0.768514 -7.84437
  364 343.988 0.740776 7.81736
  365 4.48704 -82.0481 9.02465
  366 398.999 31.2221 -27.3535
  367 97.7486 3.29407 1.15230
  368 97.7313 3.29334 -1.15234
  369 265.167 1.87560 -24.0171
  370 265.342 1.73845 24.0455
  371 285.590 2.25864 -14.5397
  372 285.677 2.19786 14.5229
  373 -4.97564 3.15090 4.09322
  374 -5.03877 3.15251 -4.09421
  375 164.226 9.10105 -38.4527
  376 164.275 9.20156 38.8045
  377 338.230 -0.212071 1.96754
  378 338.140 -0.210644 -1.96770
  379 192.110 10.4606 -19.4225
  380 192.187 10.3966 19.4949
  381 221.723 3.37194 4.97120
  382 221.684 3.37886 -4.97037
  383 -10.5847 -1.90748 8.41879
  384 -10.5840 -1.91244 -8.41896
  385 -2.51764 -1.78884 -2.45317
  386 -2.51882 -1.78975 2.45696
  387 451.161 -56.0396 32.7049
  388 -5.87418 -14.1592 22.9267
  389 -5.83473 -14.2801 -22.9286
  390 73.8606 4.73950 -1.37233
  391 73.8889 4.73996 1.37460
  392 -2.24105 -11.2337 8.45494
  393 -2.26648 -11.2156 -8.45606
  394 28.5936 12.7610 10.5157
  395 28.5224 12.7845 -10.5158
  396 368.820 -1.62209 10.3725
  397 368.716 -1.48703 -10.5531
  398 -0.864982 -21.8065 27.5148
  399 -30.2944 -0.546601 12.9051
  400 -30.3161 -0.549258 -12.9213
  401 -0.981930 -23.0373 -27.2061
  402 346.112 0.0531742 4.99671
  403 346.027 0.0613845 -5.00491
  404 -3.05851 7.70934 25.1828
  405 -3.17084 7.73394 -25.2281
  406 256.139 3.71460 -9.68426
  407 256.199 3.69188 9.68100
  408 393.486 -16.8588 -8.35459
  409 394.721 -13.6178 6.26971
  410 -0.798076 -40.6811 -16.9801
  411 35.5700 13.2413 -7.19895
  412 35.8632 13.0947 7.16199
  413 392.302 25.6324 17.0652
  414 223.137 -11.6120 -103.846
  415 229.063 -15.7550 108.680
  416 13.5464 12.1722 16.2173
  417 13.4610 12.2015 -16.2307
  418 164.437 4.41334 -2.58989
  419 164.450 4.40934 2.59190
  420 159.760 27.2809 165.097
  421 66.3758 15.4627 -3.76100
  422 66.4378 15.4352 3.78283
  423 4.12616 -38.4614 18.4173
  424 -0.493556 -66.0994 -14.7208
  425 26.4435 14.9550 15.0259
  426 26.3431 14.9993 -15.0430
  427 32.6719 8.60667 -6.35847
  428 32.7256 8.59842 6.36049
  429 -11.0297 -0.507477 -28.1938
  430 -10.9665 -0.523049 28.1469
  431 79.3359 15.6825 -15.5287
  432 78.9982 15.9202 15.6977
  433 395.558 -12.6481 -38.4928
  434 11.2751 -3.74987 21.6059
  435 10.9048 -3.64791 -21.7401
  436 288.043 -12.3667 -35.7398
  437 289.240 -13.2414 35.6848
  438 -71.7005 0.569419 -7.46022
  439 -71.6206 0.567625 7.45063
  440 0.00222167 -64.9440 13.2533
  441 -0.464351 -41.2613 15.1202
  442 -29.1405 1.90382 21.6696
  443 -29.1925 1.90319 -21.7021
  444 206.455 1.65535 -0.974577
  445 206.485 1.65338 0.974643
  446 -6.18015 -9.76124 15.5989
  447 -6.19052 -9.78366 -15.5825
  448 128.969 6.89946 -55.8920
  449 128.715 7.48429 56.5304
  450 1.07316 -78.5092 -14.5323
  451 714.863 25.2436 0.518881
  452 1.99909 -92.5581 -8.24200
  453 -84.5906 -0.0280454 -2.69373
  454 -84.4953 -0.0280279 2.69233
  455 -32.3952 4.60409 17.6438
  456 -32.4702 4.61391 -17.6684
  457 -38.0649 0.545158 12.9534
  458 -38.0976 0.545034 -12.9706
  459 141.001 14.4163 -12.4676
  460 141.007 14.4130 12.5409
  461 212.988 8.33346 -15.0259
  462 213.061 8.27902 15.0531
  463 -3.56768 -13.2031 28.4536
  464 -3.57271 -13.1160 -28.5732
  465 370.016 6.48181 -48.5654
  466 25.4188 -6.09060 -3.81613
  467 24.5348 -6.30428 4.26968
  468 5.90599 -83.0431 -1.33837
  469 3.79091 -96.5642 -1.38605
  470 -11.2445 -5.02418 16.0545
  471 -11.2495 -5.04240 -16.0614
  472 78.7759 -5.48911 -86.1507
  473 565.039 1.49649 -56.9099
  474 128.420 8.16801 3.58370
  475 128.422 8.17358 -3.57308
  476 186.539 2.02447 -53.7333
  477 186.959 1.96821 54.5408
  478 54.9769 19.0349 5.57554
  479 54.8727 19.0975 -5.55963
  480 168.462 12.4921 -28.3089
  481 168.535 12.4295 28.5184
  482 6.29683 3.46722 25.6230
  483 6.66882 3.65457 -25.5924
  484 -75.0425 1.09430 -5.48326
  485 -74.9531 1.09306 5.47842
  486 370.243 -43.0805 -29.0717
  487 293.979 0.0455982 -1.64975
  488 294.049 0.0445974 1.65015
  489 16.1715 2.00483 -1.71441
  490 16.2243 2.00494 1.71438
  491 -18.6311 6.83365 16.4164
  492 -18.7094 6.84812 -16.4351
  493 -42.3467 2.57594 -5.94626
  494 -42.2681 2.57335 5.94263
  495 128.441 12.3926 -5.59229
  496 128.439 12.3864 5.62070
  497 -15.1646 5.91582 23.1823
  498 -15.2456 5.93017 -23.2210
  499 338.965 -9.62003 -19.1226
  500 339.537 -10.0972 18.8560
  501 222.562 2.33426 -35.7829
  502 222.229 2.17811 36.0899
  503 83.1094 3.75566 -0.766020
  504 83.1332 3.75652 0.766925
  505 0.910526 -40.1454 -23.2708
  506 397.459 -14.3158 31.5695
  507 5.50980 -26.2736 -20.9474
  508 113.284 18.0300 12.7767
  509 113.353 17.9793 -12.6552
  510 366.202 -40.3084 28.7197
  511 28.1391 -35.9235 45.5508
  512 435.808 -55.5146 -57.1321
  513 297.067 1.07629 17.5129
  514 296.938 1.19369 -17.5345
  515 0.865456 -34.3223 24.2156
  516 -5.81806 -1.73392 -4.50515
  517 -5.82069 -1.73308 4.50846
  518 36.8143 1.85008 -0.499502
  519 36.8580 1.85059 0.499595
  520 -1.00209 -23.0786 9.96289
  521 -0.909204 -22.9713 -10.0143
  522 244.800 2.34213 3.92529
  523 244.752 2.34578 -3.92513
  524 687.988 122.099 52.4788
  525 28.7676 -17.0058 -9.35218
  526 22.3980 -23.1225 4.67009
  527 -6.49967 5.20568 -8.10838
  528 -6.43186 5.19895 8.10432
  529 -59.5288 0.939795 7.76493
  530 -59.5822 0.940849 -7.77585
  531 0.597662 -73.6577 14.5068
  532 -83.0888 0.709145 0.742047
  533 -83.1836 0.709190 -0.742317
  534 76.0336 -4.33418 -63.4482
  535 74.3569 -3.06820 65.8873
  536 69.6482 12.4464 -22.0224
  537 69.1231 12.7596 22.1705
  538 -15.9644 -3.32926 21.9341
  539 -15.9890 -3.34336 -21.9662
  540 68.6172 6.05940 1.41985
  541 68.5856 6.06006 -1.41632
  542 -34.6109 1.59674 2.52618
  543 -34.6855 1.59725 -2.52713
  544 80.8312 11.6908 1.39429
  545 80.7970 11.6987 -1.37791
  546 -1.61058 -5.24533 3.85244
  547 -1.61614 -5.24066 -3.85170
  548 29.4862 12.7342 13.3775
  549 29.2903 12.9122 -13.4433
  550 23.8190 4.03408 11.7208
  551 23.4813 4.00263 -11.9178
  552 300.554 1.97242 7.37421
  553 300.482 1.98382 -7.37934
  554 266.102 3.39062 11.7951
  555 266.032 3.42702 -11.8017
  556 -0.273185 -62.4491 -9.20022
  557 186.635 9.23654 -11.5421
  558 186.676 9.20714 11.5653
  559 187.080 4.19741 -4.34981
  560 187.105 4.18939 4.35291
  561 -24.7703 0.865315 0.00956610
  562 -24.7005 0.865631 -0.00947500
  563 320.626 17.2741 -9.35115
  564 417.866 -52.6565 -21.2132
  565 344.655 15.9649 36.7206
  566 2.84055 -53.0101 -16.9188
  567 -17.9192 5.82521 -10.7601
  568 -17.8458 5.81646 10.7522
  569 3.00339 -30.7018 22.8116
  570 -18.3749 0.563027 25.0819
  571 -18.4256 0.560429 -25.1192
  572 533.519 51.2142 0.404519
  573 122.028 5.52450 -1.65568
  574 122.022 5.52128 1.65982
  575 805.502 68.5305 -70.8072
  576 -3.83000 -2.97627 29.2159
  577 -3.55499 -2.76303 -29.2395
  578 441.572 -39.0057 16.8548
  579 355.286 0.230775 -8.72221
  580 355.356 0.184828 8.67272
  581 163.950 0.122700 -77.9529
  582 165.888 -0.375802 79.1660
  583 -9.05779 -8.69073 25.3789
  584 -9.06685 -8.73613 -25.4456
  585 86.2575 7.83172 41.5429
  586 86.9809 7.18793 -41.1996
  587 -69.5964 0.798813 -7.28557
  588 -69.5230 0.797505 7.27567
  589 520.465 44.9196 28.8929
  590 99.8012 9.04531 0.634704
  591 99.8189 9.04576 -0.625212
  592 117.728 14.6477 -28.5315
  593 117.568 14.8252 28.8381
  594 321.644 -0.799823 -17.1323
  595 321.809 -0.960687 17.0860
  596 -1.41836 -32.4994 -22.8263
  597 349.461 -0.480714 2.61564
  598 349.366 -0.478705 -2.61635
  599 -50.1990 0.972235 -0.974752
  600 -50.1182 0.972233 0.974453
  601 -89.1387 -0.642318 0.0188631
  602 -89.2360 -0.642809 -0.0188658
  603 7.57114 -48.4544 -7.65709
  604 -3.26129 -21.1263 19.5890
  605 -3.43983 -19.9834 -19.7201
  606 -39.5485 2.45781 18.0384
  607 -39.6084 2.46142 -18.0650
  608 244.940 5.84453 14.9045
  609 244.861 5.90075 -14.9000
  610 180.482 2.17279 1.02378
  611 180.463 2.17432 -1.02342
  612 41.0608 -10.5564 26.4940
  613 42.3630 -9.68351 -26.2513
  614 -1.25408 -16.0964 8.41822
  615 -1.29286 -16.0454 -8.44673
  616 418.739 30.1612 178.206
  617 -20.7470 -0.635684 7.79710
  618 -20.7484 -0.638650 -7.80354
  619 7.55559 -29.3180 -16.7668
  620 176.640 6.84611 -5.98948
  621 176.663 6.83437 5.99664
  622 86.8763 18.3308 -9.55550
  623 86.7082 18.4435 9.67385
  624 0.846405 -110.807 5.68998
  625 65.2826 17.8496 3.16847
  626 65.2052 17.8925 -3.14220
  627 -6.48567 7.31185 12.9381
  628 -6.55932 7.32485 -12.9481
  629 -0.499577 -55.0375 12.5610
  630 -89.0566 0.0785627 -2.68903
  631 -88.9597 0.0784036 2.68739
  632 116.456 2.94365 0.476163
  633 116.465 2.94568 -0.474833
  634 292.908 0.724229 4.89549
  635 292.840 0.729825 -4.89690
  636 258.914 -17.0806 136.144
  637 208.246 5.03595 -9.06178
  638 208.288 5.01417 9.06888
  639 3.52204 -4.16736 26.9400
  640 4.29215 -2.32507 -26.8829
  641 332.551 -32.7114 -110.304
  642 781.324 26.7982 -29.4405
  643 -82.1065 0.0592909 -5.02915
  644 -82.0198 0.0584770 5.02350
  645 20.3651 4.30966 -3.78288
  646 20.4178 4.30762 3.78298
  647 -1.53750 -34.4882 20.1745
  648 450.351 27.0477 -44.7706
  649 345.541 -0.650410 0.454990
  650 345.446 -0.649867 -0.454746
  651 -22.2054 -1.19821 -18.1013
  652 -22.1817 -1.19251 18.0784
  653 -0.0673924 -78.1686 -12.0408
  654 351.475 -0.665266 1.00606
  655 351.377 -0.664605 -1.00568
  656 32.8546 11.0612 8.86817
  657 32.7928 11.0770 -8.86585
  658 268.814 -23.0540 -72.4775
  659 273.645 -22.9573 73.2765
  660 391.827 -2.54204 6.00998
  661 391.897 -2.51596 -6.26157
  662 1.72182 -98.4054 9.35716
  663 -20.8116 0.644333 -1.46508
  664 -20.7433 0.644689 1.46471
  665 128.851 14.1677 -129.547
  666 121.139 2.60700 0.965382
  667 121.146 2.60816 -0.964742
  668 59.9438 4.31479 0.608306
  669 59.9096 4.31472 -0.606760
  670 71.1595 7.65955 -0.989037
  671 71.1913 7.65774 0.995386
  672 229.610 6.33811 -23.0544
  673 229.746 6.23324 23.1131
  674 61.2345 17.7913 0.385865
  675 61.0517 17.9156 -0.354485
  676 -41.0753 3.06564 -10.2129
  677 -40.9967 3.05984 10.2035
  678 -47.9072 3.30327 -11.6477
  679 -47.8287 3.29733 11.6345
  680 402.832 -6.13213 -1.08243
  681 0.516869 -16.1453 -27.5931
  682 403.424 -6.43191 0.522619
  683 512.808 40.1096 -0.989324
  684 -50.5017 0.238716 8.83876
  685 -50.5430 0.238604 -8.85131
  686 53.2569 15.4071 -3.38180
  687 52.8777 15.5967 3.42436
  688 -95.6425 0.0651056 -0.955838
  689 -95.5424 0.0651799 0.955367
  690 0.836102 -14.5135 27.6343
  691 -31.5454 0.449345 19.0272
  692 -31.5884 0.447866 -19.0542
  693 442.282 -36.5308 -18.5453
  694 70.4351 1.67482 -0.495798
  695 70.4060 1.67389 0.496330
  696 16.5988 6.42840 6.35957
  697 16.5411 6.43406 -6.35984
  698 234.384 -10.5510 -60.6564
  699 236.141 -10.9659 61.8276
  700 814.002 57.7685 64.4168
  701 15.8871 -73.4142 -27.3376
  702 -5.82500 -12.2987 27.1278
  703 -5.83471 -12.3486 -27.1898
  704 49.8349 10.9111 -4.72106
  705 49.8834 10.9010 4.72804
  706 361.290 -0.562866 -2.66361
  707 361.387 -0.565196 2.66138
  708 172.533 2.80260 1.81228
  709 172.517 2.80588 -1.81126
  710 14.6398 12.7182 19.5918
  711 14.5441 12.7569 -19.6207
  712 9.41037 3.18209 2.66109
  713 9.35432 3.18286 -2.66137
  714 -10.0149 2.50808 27.6321
  715 -10.0898 2.50732 -27.6879
  716 297.154 -0.326689 2.06469
  717 297.083 -0.324768 -2.06469
  718 257.373 2.12625 5.58877
  719 257.319 2.13287 -5.58919
  720 34.8748 -21.5916 31.7858
  721 35.8829 -23.1974 -30.7372
  722 -19.7712 4.37265 24.0948
  723 -19.8423 4.37812 -24.1358
  724 10.8244 -24.1125 13.1037
  725 1.12494 7.75422 25.3736
  726 1.00714 7.77547 -25.4041
  727 -56.5922 1.61584 -6.77936
  728 -56.5087 1.61341 6.77370
  729 45.4425 14.4467 8.15683
  730 45.3709 14.4742 -8.14744
  731 398.457 -12.0460 -21.3895
  732 377.365 -32.8022 -9.86560
  733 -6.07402 -12.4297 19.2689
  734 -6.06649 -12.4889 -19.2450
  735 147.014 -0.0942408 -91.9849
  736 143.198 3.03590 92.8544
  737 89.6756 17.1114 -14.5676
  738 89.4501 17.2798 14.7395
  739 7.88866 -14.1227 21.9818
  740 -0.541015 -40.7789 -10.9366
  741 186.816 10.1653 -21.6467
  742 186.907 10.1035 21.7556
  743 0.480103 -80.1090 10.1147
  744 111.625 15.2979 -5.94399
  745 111.600 15.3061 5.99319
  746 379.595 -0.406405 -6.60457
  747 379.626 -0.452881 6.51626
  748 7.54262 -107.381 2.71253
  749 172.004 12.6985 16.3775
  750 171.957 12.7353 -16.3094
  751 46.8037 16.4740 -4.52113
  752 47.0441 16.3077 4.50480
  753 -68.5925 0.452843 -6.15531
  754 -68.5289 0.452264 6.14624
  755 190.671 3.15304 -3.79921
  756 190.696 3.14788 3.80095
  757 117.956 16.8853 -10.7462
  758 117.917 16.9085 10.8359
  759 1.18270 10.2923 19.5660
  760 1.09475 10.3191 -19.5889
  761 378.509 -28.0694 5.24975
  762 -58.4293 1.26732 5.15513
  763 -58.5139 1.26841 -5.15808
  764 812.907 159.607 -113.339
  765 -21.7571 2.25624 5.38063
  766 -21.8274 2.25789 -5.38281
  767 321.829 0.807770 12.1620
  768 321.745 0.864611 -12.1978
  769 597.850 37.3393 0.229957
  770 364.050 -1.08086 -5.02268
  771 364.137 -1.08947 5.01128
  772 233.236 3.25841 7.03680
  773 233.191 3.26965 -7.03620
  774 348.736 -38.9185 100.548
  775 151.866 10.9920 -6.23206
  776 151.881 10.9792 6.25214
  777 3.50065 -60.1581 12.2445
  778 399.936 -49.9132 33.3797
  779 242.892 0.528419 1.20304
  780 242.846 0.529944 -1.20284
  781 317.959 0.0404261 0.640373
  782 317.878 0.0409043 -0.640161
  783 -1.42298 -32.1757 -18.8819
  784 1.96056 -54.6558 18.2524
  785 143.999 15.9447 22.7502
  786 144.000 15.9365 -22.5688
  787 805.010 7.86247 7.06371
  788 247.212 2.06329 -28.7377
  789 247.391 1.93753 28.8111
  790 -50.9668 1.68966 13.4775
  791 -51.0386 1.69380 -13.4954
  792 10.5860 -43.7257 3.48205
  793 6.84008 -100.026 -7.50098
  794 562.556 73.0085 -9.90818
  795 -0.491280 -40.6668 9.87235
  796 11.7259 8.28918 22.7192
  797 11.6871 8.28575 -22.8260
  798 75.8436 14.8136 1.91607
  799 75.7976 14.8323 -1.89390
  800 375.498 -17.2138 -6.20296
  801 376.241 -17.0079 4.93907
  802 441.027 66.7582 -168.854
  803 -60.0919 0.640148 -2.32896
  804 -60.0068 0.639926 2.32784
  805 -28.4652 -0.114272 7.34193
  806 -28.4731 -0.115533 -7.35006
  807 27.5510 2.38208 6.58215
  808 26.9705 2.35149 -6.64108
  809 285.020 -1.64833 25.8561
  810 284.805 -1.40919 -25.7993
  811 145.541 3.71805 -1.03923
  812 145.545 3.71524 1.04070
  813 459.471 -6.53360 41.0173
  814 49.0377 7.68780 -4.22250
  815 49.0817 7.68329 4.22670
  816 45.5042 6.36827 -7.92540
  817 45.0947 6.58261 8.03218
  818 -0.117438 -31.6959 -25.2959
  819 647.717 101.601 93.6126
  820 -93.6292 0.0941495 -2.68860
  821 -93.5313 0.0939871 2.68651
  822 -0.139328 -97.5004 9.50309
  823 6.99889 -13.9637 -22.2462
  824 -14.1560 -0.863947 5.46935
  825 -14.1503 -0.866180 -5.47121
  826 518.753 30.8459 -27.8508
  827 135.629 13.3020 -7.84657
  828 135.632 13.2952 7.89063
  829 356.117 -5.27040 -13.0394
  830 356.441 -5.32560 12.8462
  831 -89.5649 0.673505 3.59113
  832 -89.6581 0.674295 -3.59475
  833 -0.642444 -0.665097 -0.547391
  834 -0.643743 -0.666295 0.549569
  835 0.291324 -99.7101 -9.27914
  836 0.457428 -104.745 -8.35180
  837 -98.5024 0.937286 0.528798
  838 -98.6037 0.937499 -0.528986
  839 54.6606 -15.3018 -60.8562
  840 221.030 2.53767 -2.07431
  841 221.067 2.53528 2.07450
  842 -6.46171 1.72549 0.680262
  843 -6.52379 1.72537 -0.680456
  844 327.794 0.794001 -8.05839
  845 327.872 0.774759 8.04285
  846 -37.4097 0.253092 6.97860
  847 -37.4273 0.253116 -6.98718
  848 199.091 3.40403 -137.766
  849 342.846 -29.1698 28.3565
  850 268.815 1.07480 -2.55263
  851 268.873 1.07260 2.55253
  852 339.751 -31.7177 -31.6285
  853 106.602 11.7214 -2.38139
  854 106.585 11.7214 2.40373
  855 146.994 9.47673 -4.75849
  856 147.003 9.46750 4.77146
  857 398.371 -8.49234 16.3397
  858 24.8463 14.4445 16.0573
  859 24.7377 14.4991 -16.0955
  860 25.7980 1.65556 1.23544
  861 25.7495 1.65509 -1.23547
  862 188.108 2.25845 1.76043
  863 188.086 2.26087 -1.75984
  864 491.033 -44.3281 56.3993
  865 307.748 1.63775 -10.5729
  866 307.828 1.60181 10.5520
  867 5.11949 4.58971 5.02609
  868 5.05941 4.59281 -5.02695
  869 308.394 -0.436823 2.99386
  870 308.318 -0.434392 -2.99411
  871 -56.7056 0.310263 -1.51718
  872 -56.6221 0.310599 1.51660
  873 -0.268769 -31.1378 8.80628
  874 -0.353944 -31.6249 -8.87347
  875 370.915 -5.07983 39.2766
  876 -22.1693 5.72353 20.2985
  877 -22.2462 5.73674 -20.3282
  878 -0.124642 -51.2700 -9.72156
  879 146.972 5.28899 -2.45733
  880 146.978 5.28514 2.46045
  881 270.106 -13.5620 -46.3062
  882 272.183 -14.9984 46.7584
  883 -11.4962 -4.00969 -27.2363
  884 -11.4448 -4.00986 27.1792
  885 15.1453 12.7996 17.9675
  886 15.0528 12.8346 -17.9863
  887 1.28679 -116.864 6.56011
  888 4.07573 10.0450 23.1587
  889 3.97457 10.0720 -23.1900
  890 249.479 -4.45968 -41.1761
  891 248.934 -4.65620 41.5039
  892 431.102 24.1151 46.5955
  893 99.3621 10.9058 1.07469
  894 99.3824 10.9054 -1.05987
  895 315.766 1.82034 -7.90870
  896 315.842 1.80541 7.89939
  897 -12.3294 -5.35879 23.9488
  898 -12.3531 -5.37973 -23.9925
  899 1.10200 -120.240 -4.26077
  900 -18.9652 -1.24774 23.4750
  901 -19.0028 -1.25140 -23.5100
  902 12.5376 11.5218 -14.0776
  903 12.6153 11.4978 14.0682
  904 -0.971605 -7.83384 4.33567
  905 -0.982596 -7.82595 -4.34214
  906 27.4578 12.9853 -12.5424
  907 27.5385 12.9555 12.5391
  908 5.92215 -9.23934 24.8602
  909 5.16187 -8.59696 -26.1506
  910 306.816 -8.79435 26.3759
  911 306.087 -8.37711 -26.5213
  912 -100.523 0.275587 -0.776783
  913 -100.421 0.275606 0.776471
  914 -8.70356 -0.783947 4.11463
  915 -8.69578 -0.785311 -4.11346
  916 0.414805 -72.8770 -8.86017
  917 -9.34437 -4.00733 -11.7091
  918 -9.34094 -3.99735 11.7099
  919 -39.2191 3.33335 17.3180
  920 -39.2884 3.34013 -17.3431
  921 96.0437 18.3545 -6.10400
  922 95.9699 18.4077 6.17655
  923 408.443 32.0961 -7.13392
  924 -4.28256 9.15013 17.7803
  925 -4.36437 9.17090 -17.7995
  926 151.489 9.64051 -43.2428
  927 151.497 9.77893 43.7226
  928 -17.6230 6.36528 14.3209
  929 -17.6995 6.37854 -14.3356
  930 493.141 -23.5924 -7.60042
  931 299.204 11.9101 20.1958
  932 359.353 -4.45516 -35.5220
  933 268.511 3.45653 -17.5138
  934 268.618 3.37196 17.5116
  935 -27.9806 3.78572 -7.00304
  936 -27.9069 3.78127 6.99862
  937 -63.8145 1.14751 8.62880
  938 -63.8953 1.15018 -8.63928
  939 -3.85545 -12.4688 -13.5877
  940 -3.82841 -12.4793 13.6122
  941 95.4620 6.05514 0.592183
  942 95.4803 6.05628 -0.587954
  943 -29.8075 3.12323 21.4998
  944 -29.8684 3.12577 -21.5338
  945 321.633 -0.244329 3.92386
  946 321.552 -0.241416 -3.92460
  947 -2.41931 -27.3693 20.5494
  948 12.3893 10.5616 -12.0792
  949 12.4610 10.5433 12.0733
  950 16.9827 7.30665 7.90336
  951 16.9221 7.31514 -7.90453
  952 55.8493 5.08179 -1.89981
  953 55.8859 5.08099 1.90152
  954 604.239 77.0502 -17.0853
  955 -2.39457 -0.658272 -1.62989
  956 -2.39971 -0.658234 1.63287
  957 20.9810 6.00915 -15.1326
  958 21.3359 5.83956 15.0682
  959 216.888 8.55618 -18.4527
  960 216.979 8.48462 18.4942
  961 28.1772 9.21484 -7.51600
  962 28.2358 9.20408 7.51720
  963 59.3685 -12.8318 80.8208
  964 407.290 -2.93500 -3.39017
  965 406.701 -2.82500 3.01328
  966 72.4851 -6.50339 70.5459
  967 76.1922 3.19343 -0.251394
  968 76.1655 3.19283 0.252204
  969 197.671 -6.23057 -119.127
  970 149.143 2.43751 0.961508
  971 149.138 2.43882 -0.961007
  972 19.0286 -19.2109 3.83685
  973 21.0280 -16.0730 -2.25224
  974 360.696 -0.408219 1.35109
  975 360.594 -0.407590 -1.35066
  976 -29.6478 0.102886 17.2976
  977 -29.6797 0.101160 -17.3201
  978 646.932 81.0646 37.0090
  979 -2.74103 -20.4558 -27.0623
  980 3.25326 -101.465 11.8831
  981 -0.461365 -32.5015 24.9541
  982 372.988 -0.316501 -5.12530
  983 373.063 -0.329153 5.10433
  984 -4.93085 -9.02723 11.7410
  985 -4.94434 -9.02763 -11.7294
  986 466.037 48.6827 -25.5063
  987 816.601 7.05316 -4.73997
  988 -1.21507 -1.83243 -1.77392
  989 -1.21374 -1.83631 1.77649
  990 217.080 2.37682 -3.99582
  991 217.116 2.37242 3.99660
  992 -2.81069 -19.6570 27.1984
  993 301.878 1.25655 15.6166
  994 301.778 1.34152 -15.6439
  995 396.599 -26.2450 -15.7902
  996 -13.8436 -2.89011 13.2387
  997 -13.8488 -2.90092 -13.2456
  998 6.57139 -25.6870 19.2274
  999 -0.634300 -49.0375 19.5880
  1000 -0.0576507 -50.8695 9.70757
  1001 406.900 26.5192 -2.36526
  1002 465.208 51.0307 14.3576
  1003 332.879 -38.0900 -55.6279
  1004 4.79703 -47.7482 15.5074
  1005 6.07330 -68.6224 3.30236
  1006 92.7314 2.18269 0.263400
  1007 92.7119 2.18176 -0.263309
  1008 -3.69146 -4.20809 -5.60552
  1009 -3.68825 -4.20899 5.60996
  1010 3.20462 -39.2319 -20.7873
  1011 268.406 0.226028 -0.937107
  1012 268.464 0.224816 0.937166
  1013 53.9908 0.0415517 -26.4415
  1014 51.6650 0.167159 26.1879
  1015 -4.69073 8.29182 23.3982
  1016 -4.78680 8.31558 -23.4367
  1017 -31.3537 4.83492 -14.5465
  1018 -31.2766 4.82515 14.5299
  1019 204.983 3.32329 -42.2301
  1020 205.102 3.49882 42.6901
  1021 147.633 13.0251 -29.5471
  1022 147.618 13.0243 29.8274
  1023 160.193 11.4737 -9.93520
  1024 160.216 11.4521 9.96604
  1025 415.552 -11.3387 -45.8848
  1026 -10.7828 5.12837 25.7078
  1027 -10.8688 5.13715 -25.7608
  1028 294.245 -0.427660 21.3628
  1029 294.079 -0.247230 -21.3698
  1030 -1.88386 -15.3365 28.3772
  1031 -23.7557 -0.788441 12.7729
  1032 -23.7686 -0.792340 -12.7868
  1033 268.147 2.34645 -21.2431
  1034 268.285 2.22680 21.2512
  1035 332.156 8.02021 -32.9668
  1036 -0.386643 -48.7609 -20.5540
  1037 -3.93674 -19.1991 24.3645
  1038 -4.10187 -19.4286 -24.1604
  1039 189.207 10.9396 -15.2267
  1040 189.267 10.8929 15.2740
  1041 238.676 4.24655 8.71375
  1042 238.625 4.26365 -8.71355
  1043 395.784 -25.6351 13.7053
  1044 19.9755 1.89061 -0.339606
  1045 20.0262 1.89091 0.339584
  1046 336.612 -42.6076 59.3548
  1047 -1.51100 1.28758 1.68335
  1048 -1.57118 1.28730 -1.68367
  1049 72.9330 18.4797 0.148085
  1050 72.8356 18.5403 -0.105989
  1051 27.8322 14.5653 13.7610
  1052 27.7423 14.6025 -13.7688
  1053 3.70790 -59.4660 -12.7499
  1054 97.6338 3.57105 0.164581
  1055 97.6510 3.57285 -0.162256
  1056 291.490 9.56017 8.32074
  1057 270.915 1.92602 8.10560
  1058 270.853 1.94168 -8.10910
  1059 -1.60387 -15.9285 -28.4261
  1060 407.421 -5.22085 -8.25661
  1061 0.0719429 -1.30763 28.1780
  1062 0.377172 -1.07515 -28.0486
  1063 370.828 -0.706599 -2.83221
  1064 370.926 -0.709501 2.82799
  1065 395.068 -1.39833 -4.97503
  1066 394.995 -1.44895 4.84247
  1067 -0.300204 -77.0651 7.30205
  1068 232.038 5.76904 -11.5341
  1069 232.092 5.74059 11.5370
  1070 282.279 2.43409 9.44447
  1071 282.212 2.45440 -9.45126
  1072 6.51336 6.72215 25.3116
  1073 6.47693 6.72509 -25.3384
  1074 613.130 40.6920 6.42867
  1075 -7.76427 -3.35312 28.9981
  1076 -7.88287 -3.28110 -29.0707
  1077 87.8759 17.1285 -1.11317
  1078 87.8292 17.1532 1.14991
  1079 -48.7765 0.890923 -2.56797
  1080 -48.6962 0.890835 2.56696
  1081 144.337 8.34888 -49.8016
  1082 144.143 8.75311 50.4027
  1083 41.6394 16.4447 10.5274
  1084 41.5412 16.4916 -10.5262
  1085 98.0831 11.4110 -36.7610
  1086 97.5815 11.8970 37.0799
  1087 -2.58459 -25.7034 -20.0241
  1088 345.933 4.74977 43.2974
  1089 242.203 1.28948 154.591
  1090 39.1668 16.9080 10.8646
  1091 39.0511 16.9707 -10.8734
  1092 146.463 7.66402 -3.60969
  1093 146.471 7.65612 3.61807
  1094 530.096 2.47232 12.1660
  1095 34.2438 8.75201 6.66646
  1096 33.8126 8.86030 -6.79523
  1097 -15.7227 -3.44410 17.6164
  1098 -15.7354 -3.45999 -17.6342
  1099 -0.516068 -11.6955 4.73343
  1100 -0.536431 -11.6883 -4.75242
  1101 348.453 -0.442334 12.5772
  1102 348.335 -0.312273 -12.6706
  1103 0.548915 -24.6501 26.6047
  1104 -23.7917 1.53219 -23.4665
  1105 -23.7408 1.53450 23.4314
  1106 0.119244 -93.2069 -9.28278
  1107 -5.42069 -7.64010 28.9527
  1108 -5.40623 -7.47887 -28.9832
  1109 333.253 0.290613 -5.29623
  1110 333.337 0.283968 5.29185
  1111 343.719 -2.72917 15.1198
  1112 343.490 -2.51922 -15.2145
  1113 60.1160 13.4137 -12.4245
  1114 59.6600 13.6766 12.5408
  1115 -0.814396 -48.0136 -16.7041
  1116 452.390 -41.3925 -90.4758
  1117 586.511 76.2291 4.64646
  1118 6.07806 -72.3170 -1.03469
  1119 21.2212 12.0573 -18.3725
  1120 21.3456 11.9900 18.2814
  1121 56.3057 18.1838 4.66386
  1122 56.1733 18.2655 -4.64741
  1123 119.002 6.96369 1.41483
  1124 119.009 6.96766 -1.40824
  1125 -7.58037 -10.7971 22.8039
  1126 -7.56959 -10.9000 -22.8396
  1127 -21.4436 6.72547 18.6806
  1128 -21.5218 6.74013 -18.7045
  1129 -7.47284 8.53086 21.6438
  1130 -7.56087 8.55232 -21.6753
  1131 328.194 -16.7762 -25.8927
  1132 330.296 -16.9128 25.6795
  1133 0.312143 -55.1224 -19.5274
  1134 175.378 -0.320288 -62.3960
  1135 175.653 0.229539 63.4352
  1136 56.1824 16.6168 -5.40440
  1137 56.2538 16.5812 5.42094
  1138 175.614 83.5212 172.838
  1139 44.0228 13.3252 7.80907
  1140 43.9593 13.3458 -7.80174
  1141 447.521 -48.8524 -22.1087
  1142 169.357 4.57205 2.92125
  1143 169.341 4.57777 -2.91844
  1144 -7.61646 -6.78859 13.9532
  1145 -7.62156 -6.80471 -13.9486
  1146 -9.08743 -8.14888 18.0490
  1147 -9.08731 -8.18106 -18.0511
  1148 293.929 -29.8061 -87.5781
  1149 299.846 -32.8168 88.2263
  1150 52.9898 1.97493 0.661369
  1151 53.0265 1.97563 -0.660529
  1152 184.709 8.55212 -34.3197
  1153 184.719 8.44253 34.6637
  1154 402.195 -53.6163 67.1118
  1155 357.940 -0.833537 0.784777
  1156 357.839 -0.832921 -0.784346
  1157 -31.8023 5.04103 16.6837
  1158 -31.8788 5.05115 -16.7047
  1159 -54.7229 1.69213 -8.72842
  1160 -54.6406 1.68902 8.72098
  1161 92.0086 1.90848 104.109
  1162 281.716 18.8607 -16.8963
  1163 168.945 11.9819 -16.9566
  1164 168.997 11.9461 17.0474
  1165 522.140 -14.8385 97.5144
  1166 171.713 11.5388 -25.0761
  1167 171.777 11.4799 25.2340
  1168 43.1151 5.45906 -2.88259
  1169 43.1582 5.45747 2.88418
  1170 14.9665 -54.5745 10.2284
  1171 15.1348 -53.1492 -14.2502
  1172 232.645 -16.1692 -88.3983
  1173 235.833 -15.1075 88.3337
  1174 91.1912 15.0625 -25.7251
  1175 90.8090 15.3726 25.9842
  1176 409.134 -27.2661 -29.7104
  1177 -14.8445 -1.21623 26.4763
  1178 -14.8959 -1.21582 -26.5196
  1179 -0.234854 -22.0135 -27.3331
  1180 104.519 3.13400 -65.7001
  1181 104.756 3.44784 66.8218
  1182 -0.262832 -20.7360 5.27678
  1183 -0.224493 -20.7863 -5.34176
  1184 -97.9593 0.817016 -2.53464
  1185 -97.8609 0.816493 2.53236
  1186 325.358 -0.243811 -1.47713
  1187 325.442 -0.244975 1.47713
  1188 201.196 7.30359 -9.90368
  1189 201.242 7.27626 9.91663
  1190 -7.25976 -0.00385550 28.9807
  1191 -7.28226 0.113087 -29.0364
  1192 0.0218245 -83.2318 -8.12464
  1193 -83.2799 0.193465 4.10955
  1194 -83.3624 0.193972 -4.11499
  1195 64.7674 -1.12118 -46.1480
  1196 64.2828 -0.717454 47.6050
  1197 379.975 -23.2458 -1.48215
  1198 108.756 7.06100 -59.0444
  1199 108.830 7.35534 59.6239
  1200 -46.3111 0.250351 6.34278
  1201 -46.3388 0.250104 -6.35129
  1202 1.22795 -72.5493 -13.6503
  1203 -13.3330 2.85885 -3.32629
  1204 -13.2671 2.85780 3.32537
  1205 57.6106 14.0021 5.63566
  1206 57.5511 14.0234 -5.62166
  1207 213.975 1.05391 -1.30376
  1208 214.009 1.05227 1.30412
  1209 288.390 1.25341 6.16540
  1210 288.324 1.26305 -6.16844
  1211 15.9460 -1.92740 15.6346
  1212 15.7080 -2.19887 -15.9240
  1213 2.72184 -41.6525 20.7773
  1214 517.143 71.0691 18.2485
  1215 -15.9303 -1.24439 10.0410
  1216 -15.9324 -1.24970 -10.0466
  1217 2.15499 -39.0070 -21.7576
  1218 -1.51839 -24.1809 14.6909
  1219 -1.44254 -23.9583 -15.2213
  1220 409.147 -4.47580 7.32384
  1221 0.361436 -95.2174 8.31313
  1222 3.04312 -28.6112 -24.2709
  1223 49.1414 1.51156 0.503264
  1224 49.1031 1.51084 -0.503335
  1225 -4.00541 -17.2117 26.7803
  1226 -44.7643 2.54259 -7.37930
  1227 -44.6846 2.53961 7.37417
  1228 831.891 14.3422 23.6739
  1229 -23.5185 2.77182 23.7015
  1230 -23.5787 2.77204 -23.7397
  1231 197.322 7.87988 -31.0269
  1232 197.488 7.73800 31.2096
  1233 12.9196 -19.1497 -10.1434
  1234 187.776 9.53234 -12.5366
  1235 187.824 9.49553 12.5686
  1236 7.79965 -57.3751 -2.95219
  1237 -4.01927 -17.2482 -26.7380
  1238 -31.1692 1.24762 4.37797
  1239 -31.2427 1.24828 -4.37973
  1240 -14.2015 1.12036 -27.0613
  1241 -14.1390 1.12396 27.0202
  1242 401.432 32.2018 33.0483
  1243 228.186 2.56287 -32.8464
  1244 228.450 2.49525 32.9285
  1245 -102.481 0.234029 -0.922898
  1246 -102.378 0.233966 0.922362
  1247 205.676 4.88381 -6.71457
  1248 205.710 4.87319 6.71755
  1249 -105.128 -1.80974 -0.281903
  1250 -105.232 -1.81061 0.282013
  1251 306.661 -21.8106 -37.6227
  1252 -48.2950 0.825408 13.4014
  1253 -48.3487 0.826030 -13.4212
  1254 309.734 -23.0196 37.2834
  1255 209.229 7.54746 -13.6364
  1256 209.286 7.50579 13.6543
  1257 24.6102 -55.4933 -45.7596
  1258 0.448642 -66.6565 -16.7291
  1259 -1.36881 -28.0119 25.1060
  1260 655.811 110.918 -94.0385
  1261 -0.155521 -62.5605 16.3606
  1262 683.507 64.4830 -41.9505
  1263 -0.377765 -115.941 -7.77109
  1264 33.3188 3.27645 -0.997750
  1265 33.3644 3.27620 0.998484
  1266 -0.288280 -26.6253 5.52976
  1267 -0.232130 -26.7673 -5.51491
  1268 116.897 2.85598 0.102287
  1269 116.906 2.85737 -0.101668
  1270 413.632 -31.2826 28.2078
  1271 8.69112 3.09147 -3.85419
  1272 8.74805 3.09031 3.85361
  1273 2.38558 -126.756 3.61480
  1274 1.51495 -135.016 -3.58073
  1275 380.415 -47.1857 -40.4479
  1276 -1.04360 -34.5660 16.2287
  1277 398.734 25.7471 -41.7808
  1278 -1.18753 -45.5507 15.9467
  1279 0.796529 -124.607 -5.92635
  1280 191.932 5.37858 -7.35198
  1281 191.964 5.36030 7.35986
  1282 -0.144978 -67.9268 7.20482
  1283 -0.171608 -56.3486 -16.2342
  1284 899.000 157.932 136.532
  1285 359.584 0.182742 0.600730
  1286 359.482 0.182753 -0.600393
  1287 9.69402 0.872795 22.9518
  1288 9.38926 1.25892 -23.0584
  1289 -5.37216 5.28481 27.1568
  1290 -5.50536 5.29304 -27.2205
  1291 383.967 -7.09110 -25.2643
  1292 355.632 -14.9469 -14.8863
  1293 355.285 -16.9978 15.0429
  1294 53.4917 6.18491 2.89596
  1295 53.4519 6.18678 -2.89270
  1296 -58.2035 1.55545 -10.4440
  1297 -58.1265 1.55215 10.4303
  1298 396.599 -54.2958 -57.2526
  1299 -2.96195 -7.16806 7.31889
  1300 -2.97341 -7.16290 -7.31562
  1301 418.412 -17.7550 43.3009
  1302 -4.37594 -16.5126 19.7315
  1303 -4.32779 -16.5743 -19.6415
  1304 -36.8362 2.45556 5.23166
  1305 -36.9124 2.45755 -5.23443
  1306 63.5084 7.31752 -24.0026
  1307 62.8655 7.68042 23.9889
  1308 99.5048 2.71734 0.355217
  1309 99.4883 2.71597 -0.354573
  1310 -40.2190 4.04148 16.4916
  1311 -40.2921 4.04902 -16.5133
  1312 337.505 0.783862 0.933674
  1313 337.413 0.783704 -0.933215
  1314 186.451 -1.23213 117.965
  1315 275.903 0.508219 2.18037
  1316 275.841 0.509680 -2.18011
  1317 183.680 3.89064 -47.6100
  1318 183.712 3.67884 48.0287
  1319 1.77305 -72.9638 -9.71750
  1320 71.3594 17.0469 -10.2530
  1321 71.0543 17.2513 10.3755
  1322 -0.695862 -0.629217 -0.913572
  1323 -0.699371 -0.629412 0.916232
  1324 236.362 7.06471 17.6590
  1325 236.272 7.14038 -17.6412
  1326 117.667 9.51521 2.71231
  1327 117.675 9.51929 -2.69894
  1328 173.142 9.59625 -8.53726
  1329 173.172 9.57453 8.55724
  1330 226.523 1.24496 -2.18954
  1331 226.563 1.24320 2.19003
  1332 -7.20542 -3.48718 -8.26297
  1333 -7.20395 -3.48298 8.26693
  1334 -68.5159 0.0773904 3.10502
  1335 -68.6045 0.0775952 -3.10676
  1336 -12.2543 -5.61256 -20.1692
  1337 -12.2442 -5.58419 20.1475
  1338 -38.7865 0.614064 1.30159
  1339 -38.8624 0.613729 -1.30201
  1340 -106.299 0.969139 0.526259
  1341 -106.404 0.969419 -0.526440
  1342 426.282 -53.2370 77.9626
  1343 310.119 -1.82255 -35.3042
</Section>

newXOutput 51

<Section columns = "stress_xx | stress_yy | stress_xy">
  1 377.447 -0.563552 0.385037
  2 377.558 -0.563932 -0.385227
  3 -117.158 0.559223 -1.59729
  4 0.187544 0.0474491 0.332780
  5 684.563 197.772 222.824
  6 773.906 223.693 -214.088
  7 0.186721 0.0466949 -0.331686
  8 -117.046 0.559115 1.59663
  9 376.313 -0.533397 -1.24791
  10 376.618 -1.15094 -2.02164
  11 380.167 -1.14127 -0.541382
  12 380.554 -1.09513 -2.37406
  13 381.509 -1.07329 -0.738606
  14 389.463 -1.02151 -1.02412
  15 392.227 -1.48392 -3.18433
  16 395.217 -0.710768 -2.18255
  17 397.123 0.140308 -4.21213
  18 413.204 -2.27686 -3.60676
  19 420.172 -1.77032 -4.64102
  20 427.885 -2.67460 -1.84113
  21 431.623 -3.54437 -1.12742
  22 428.712 -4.07839 5.47401
  23 414.313 -4.55522 11.5779
  24 380.698 -5.07709 24.8219
  25 326.188 2.88750 28.9115
  26 281.272 3.51028 26.9078
  27 218.754 7.24674 16.3104
  28 232.593 7.04790 1.48361
  29 195.130 21.0179 -10.3754
  30 267.151 9.64518 -29.3238
  31 306.759 2.37569 -23.9838
  32 373.195 -1.09177 -20.7638
  33 409.618 -5.52591 -13.8891
  34 428.072 -4.75128 -5.44405
  35 430.802 -3.43351 1.15208
  36 427.325 -2.63958 1.72656
  37 419.953 -1.78162 4.50513
  38 413.142 -2.30604 3.52895
  39 397.172 0.123716 4.17521
  40 395.303 -0.717022 2.16886
  41 392.334 -1.48790 3.17992
  42 389.575 -1.02361 1.02210
  43 381.621 -1.07463 0.737987
  44 380.667 -1.09631 2.37515
  45 380.280 -1.14215 0.541699
  46 376.729 -1.15167 2.02283
  47 376.424 -0.533766 1.24865
  48 355.998 0.922176 -0.468946
  49 329.697 0.332216 -1.04552
  50 296.817 -1.06110 -1.05720
  51 262.719 0.928339 -0.879420
  52 232.841 0.679321 -0.699978
  53 200.861 1.71045 -0.828482
  54 169.288 3.35470 -0.503281
  55 136.503 2.99622 -1.04461
  56 109.305 2.08800 -1.46173
  57 73.6048 1.31111 -1.54026
  58 37.3336 2.03930 -1.17340
  59 7.05217 1.68828 -1.13444
  60 -30.7354 0.980681 -1.03707
  61 -58.8318 -0.338663 -2.53067
  62 -86.0464 -1.85417 -1.15744
  63 -113.647 0.236175 0.775794
  64 -119.612 2.04994 -0.298963
  65 -120.027 0.905353 0.350492
  66 -116.033 0.453285 -0.143175
  67 -117.299 1.31967 -1.44519
  68 -115.440 1.60418 -0.136182
  69 -109.187 0.491601 -2.21803
  70 -110.471 0.989275 -2.38604
  71 -107.695 0.937798 -1.34143
  72 -99.7045 0.587009 -2.02425
  73 -96.0150 1.05810 -3.34301
  74 -90.1763 1.18459 -2.74434
  75 -79.8056 0.603898 -4.75318
  76 -73.9839 0.186691 -3.97187
  77 -63.4832 0.268241 -4.58572
  78 -54.4434 0.205628 -5.07805
  79 -46.5623 0.0699265 -4.00791
  80 -35.6228 0.235278 -4.03913
  81 -26.1906 -0.100956 -4.32147
  82 -17.0644 -0.470767 -3.79441
  83 -9.83287 -0.412587 -2.90720
  84 -4.83017 -0.722964 -2.42915
  85 -0.802726 -0.417973 -0.866815
  86 0.0579313 -0.464663 -0.308880
  87 -0.250954 -0.243524 -0.0583621
  88 -0.654365 -0.643070 -0.759229
  89 -0.635347 -4.08528 -2.10940
  90 -0.541663 -9.16179 -3.00719
  91 -0.279856 -15.6421 -4.38586
  92 -0.144409 -24.0272 -3.78196
  93 -0.120136 -31.7394 -4.75960
  94 -0.582871 -41.1547 -5.37141
  95 -0.238465 -52.7790 -5.42349
  96 0.110650 -64.4879 -5.19429
  97 0.253544 -77.0348 -5.12462
  98 0.390098 -89.9288 -5.03907
  99 0.0231757 -99.4019 -6.82051
  100 0.666256 -112.881 -6.10410
  101 0.818612 -128.669 -4.86968
  102 -0.0526018 -135.613 -6.46599
  103 1.15887 -147.101 -5.99245
  104 2.85827 -162.384 -2.82252
  105 5.58533 -166.378 -4.48115
  106 3.94844 -151.741 4.19519
  107 5.76307 -113.563 16.9688
  108 29.4652 -63.0644 48.9728
  109 92.1799 135.289 164.680
  110 1052.98 56.7619 104.543
  111 904.337 16.8473 37.9332
  112 875.169 6.12389 8.65333
  113 868.929 2.00839 -1.40305
  114 874.861 9.47130 -20.0158
  115 902.597 30.5688 -44.9946
  116 1024.82 111.217 -132.778
  117 220.984 105.429 -200.889
  118 49.5114 -62.3529 -59.5264
  119 14.5766 -124.332 -22.2564
  120 4.03947 -143.694 -4.51249
  121 4.50289 -160.093 2.37569
  122 1.27834 -156.000 2.11907
  123 0.453497 -143.407 5.08063
  124 0.495835 -135.012 4.02177
  125 0.706843 -121.611 6.89837
  126 -0.0353803 -113.900 6.71702
  127 0.280020 -102.887 4.83455
  128 0.547556 -88.8510 6.15062
  129 0.107979 -78.8284 4.87451
  130 0.160107 -64.5641 6.15761
  131 -0.644932 -53.4155 5.29248
  132 -0.449889 -41.1890 5.20364
  133 -0.0846696 -31.5639 4.77165
  134 -0.187482 -23.8888 3.78894
  135 -0.273242 -15.5962 4.34315
  136 -0.533829 -9.15559 2.99222
  137 -0.631975 -4.09148 2.10789
  138 -0.653519 -0.649665 0.760727
  139 -0.250919 -0.246372 0.0602662
  140 0.0544774 -0.465106 0.310617
  141 -0.809247 -0.417748 0.869033
  142 -4.84005 -0.722286 2.43138
  143 -9.84611 -0.411311 2.90791
  144 -17.0750 -0.469192 3.79288
  145 -26.1934 -0.0996523 4.31712
  146 -35.6163 0.235535 4.03402
  147 -46.5431 0.0705357 4.00255
  148 -54.4124 0.206333 5.07186
  149 -63.4365 0.268165 4.57920
  150 -73.9230 0.186569 3.96575
  151 -79.7350 0.603459 4.74716
  152 -90.0927 1.18385 2.73967
  153 -95.9240 1.05729 3.33916
  154 -99.6066 0.586476 2.02182
  155 -107.591 0.937226 1.33986
  156 -110.364 0.988798 2.38437
  157 -109.079 0.491412 2.21670
  158 -115.328 1.60352 0.135906
  159 -117.187 1.31917 1.44449
  160 -115.921 0.453191 0.143098
  161 -119.914 0.905061 -0.350326
  162 -119.499 2.04918 0.298860
  163 -113.536 0.236192 -0.775481
  164 -85.9478 -1.85312 1.15698
  165 -58.7449 -0.338050 2.52966
  166 -30.6607 0.980947 1.03668
  167 7.11051 1.68848 1.13402
  168 37.3789 2.03964 1.17297
  169 73.6342 1.31209 1.53970
  170 109.319 2.08895 1.46119
  171 136.504 2.99705 1.04424
  172 169.275 3.35543 0.503040
  173 200.834 1.71172 0.828034
  174 232.800 0.680748 0.699519
  175 262.665 0.929182 0.878809
  176 296.746 -1.05977 1.05652
  177 329.610 0.332411 1.04493
  178 355.897 0.921872 0.468683
  179 99.9001 17.4403 -4.28332
  180 99.8449 17.4707 4.34062
  181 -1.71027 2.99672 28.1772
  182 -1.81872 2.97674 -28.1915
  183 227.114 -3.11011 -51.1026
  184 226.960 -3.54708 51.6420
  185 45.4790 10.6584 -2.48550
  186 44.9382 10.8522 2.50250
  187 33.3378 5.75371 -4.30526
  188 33.3884 5.75033 4.30627
  189 214.882 4.07838 -7.55217
  190 214.922 4.06322 7.55652
  191 -3.50688 8.65447 15.2881
  192 -3.58636 8.67259 -15.3024
  193 249.644 6.33712 -19.3427
  194 249.761 6.24590 19.3667
  195 -9.67300 -8.40980 22.4344
  196 -9.67065 -8.45938 -22.4632
  197 2.30785 -20.0110 -26.6670
  198 77.9695 4.62367 -47.1049
  199 2.81661 -21.4076 26.0287
  200 76.7268 5.24616 47.8510
  201 353.629 -47.3744 -74.0565
  202 365.910 -49.2443 71.0695
  203 127.405 4.23288 -1.24096
  204 127.399 4.23025 1.24351
  205 -19.9245 1.43267 -2.99368
  206 -19.8541 1.43253 2.99268
  207 -28.0074 4.32147 21.6289
  208 -28.0790 4.32977 -21.6634
  209 128.074 11.7213 -3.79713
  210 128.071 11.7173 3.81607
  211 39.2681 16.3998 10.2708
  212 39.1147 16.4981 -10.3041
  213 -35.8405 3.86661 -8.91562
  214 -35.7610 3.86148 8.90862
  215 285.261 0.397770 3.59273
  216 285.196 0.401429 -3.59305
  217 9.24821 -37.6098 11.1080
  218 10.0532 -34.0342 -9.80051
  219 -2.64349 -23.7933 25.2852
  220 -2.70555 -24.7209 -24.4912
  221 118.465 17.0939 -20.6656
  222 118.357 17.1766 20.8755
  223 -25.3889 -0.0728157 21.8453
  224 -25.4297 -0.0761764 -21.8764
  225 305.162 1.71839 -10.5669
  226 305.238 1.69218 10.5546
  227 328.559 -4.82547 -20.8906
  228 328.817 -5.15538 20.8046
  229 525.103 39.9624 -0.00397856
  230 481.745 53.7981 27.8776
  231 474.551 -3.67920 -41.8698
  232 58.4905 12.9737 5.35891
  233 58.4371 12.9902 -5.34794
  234 4.30161 10.7064 21.5632
  235 4.20296 10.7381 -21.5920
  236 367.036 -22.1985 -14.1824
  237 364.911 -22.4684 15.3686
  238 203.216 1.74863 -2.76158
  239 203.245 1.74492 2.76251
  240 -44.9392 3.18514 14.4042
  241 -45.0171 3.19196 -14.4225
  242 -6.20298 -6.10291 -10.1059
  243 -6.19722 -6.09888 10.1120
  244 -49.6961 1.20028 4.50447
  245 -49.7795 1.20126 -4.50692
  246 167.346 12.4413 -12.9962
  247 167.378 12.4129 13.0455
  248 212.768 6.37735 -29.1822
  249 212.935 6.26633 29.3088
  250 51.7046 3.27404 -0.276639
  251 51.7438 3.27415 0.277423
  252 123.114 1.89856 -101.671
  253 145.637 5.35869 110.761
  254 16.7584 7.71918 20.4483
  255 16.6839 7.88597 -20.5347
  256 498.692 -37.8715 -10.5229
  257 43.7791 16.4123 8.91869
  258 43.6941 16.4513 -8.91228
  259 120.754 13.0220 -38.3736
  260 120.525 13.3437 38.7886
  261 557.632 78.7334 -4.15915
  262 330.941 0.135806 14.3005
  263 330.830 0.235823 -14.3502
  264 -2.98603 -18.4655 -15.8359
  265 -2.89926 -18.5390 15.8982
  266 -0.636226 -43.8180 -21.7505
  267 1.49798 -51.0932 -19.9874
  268 0.799530 -51.1534 20.9617
  269 -8.19943 -7.10420 28.8039
  270 -8.23478 -7.09305 -28.9180
  271 17.8453 -40.1672 -7.77069
  272 19.2021 -36.9559 10.7802
  273 -19.0679 -1.59784 13.9036
  274 -19.0786 -1.60512 -13.9166
  275 235.691 6.47864 -12.0549
  276 235.756 6.44132 12.0609
  277 412.257 -42.3790 -3.70549
  278 91.5717 7.74491 -0.131097
  279 91.5943 7.74474 0.136982
  280 -1.07015 -41.1232 20.7954
  281 9.13797 8.44312 9.79738
  282 9.06956 8.45545 -9.80146
  283 654.884 45.6126 -17.9020
  284 320.909 0.159522 4.39968
  285 320.829 0.165217 -4.40243
  286 215.857 -10.1570 -76.7573
  287 217.739 -9.98338 77.9274
  288 411.726 -40.1831 -3.03268
  289 -38.9270 1.21691 17.2516
  290 -38.9772 1.21722 -17.2770
  291 402.946 -32.0774 125.270
  292 -17.1973 2.94422 26.1140
  293 -17.2630 2.94074 -26.1584
  294 68.5976 18.8391 -5.51733
  295 68.3323 19.0175 5.59797
  296 -70.9949 0.557946 0.802779
  297 -71.0871 0.557831 -0.803093
  298 339.664 7.65403 -170.491
  299 -66.6755 1.34251 -7.75916
  300 -66.5884 1.33987 7.75081
  301 -1.82282 -8.31362 29.3315
  302 -0.811592 -8.09716 -29.0284
  303 149.975 15.2181 -18.7917
  304 149.986 15.2104 18.9136
  305 33.0537 3.84140 3.23402
  306 33.0053 3.84234 -3.23388
  307 156.038 5.94250 -3.90006
  308 156.048 5.93601 3.90541
  309 14.8142 -10.8069 15.0524
  310 13.5026 -13.0074 -15.2434
  311 151.465 2.62551 -0.962563
  312 151.471 2.62366 0.963326
  313 -54.8321 1.43038 12.6361
  314 -54.8978 1.43260 -12.6546
  315 38.0465 -3.22144 -9.70508
  316 36.9157 -3.27109 8.70154
  317 334.574 -0.335565 1.22893
  318 334.484 -0.334758 -1.22854
  319 729.786 41.5135 29.0316
  320 76.1852 10.0825 1.96778
  321 76.1511 10.0872 -1.95822
  322 -15.5889 3.64759 6.17598
  323 -15.6599 3.65126 -6.17899
  324 104.692 14.0942 -2.78215
  325 104.666 14.1005 2.81442
  326 12.4763 10.9327 22.3440
  327 12.3944 10.9579 -22.3969
  328 1.57994 -73.8331 14.6566
  329 -73.5591 0.134781 -1.83553
  330 -73.4657 0.134965 1.83469
  331 255.735 0.625564 -2.34615
  332 255.787 0.623500 2.34643
  333 269.292 1.73690 -6.22168
  334 269.351 1.72624 6.21997
  335 -68.5955 1.16531 -5.62352
  336 -68.5048 1.16387 5.61936
  337 -0.784871 1.27117 0.683676
  338 -0.846705 1.27087 -0.683776
  339 -1.53814 -30.4451 15.7994
  340 -1.22239 -31.6669 -15.7779
  341 303.434 -25.0908 -51.8928
  342 315.130 -30.0053 50.9446
  343 180.411 8.68773 -8.05250
  344 180.439 8.66978 8.06575
  345 79.7342 18.6505 -3.03786
  346 79.6019 18.7331 3.10169
  347 -27.4776 5.34644 12.6931
  348 -27.5561 5.35632 -12.7060
  349 563.440 11.6304 15.6318
  350 30.0516 -42.5869 -34.0723
  351 32.1378 -39.5769 35.6537
  352 -11.6166 8.65657 20.3584
  353 -11.7014 8.67605 -20.3859
  354 -15.5139 -3.10197 25.5252
  355 -15.5532 -3.10920 -25.5698
  356 638.622 107.395 -31.2003
  357 411.067 -5.65780 51.6960
  358 383.160 -9.06846 -9.52281
  359 382.827 -8.85746 8.90886
  360 268.993 -3.20979 -33.0725
  361 268.684 -3.47684 33.0864
  362 0.505389 -88.9445 -11.8248
  363 350.611 0.757652 -8.01093
  364 350.689 0.729561 7.98391
  365 4.58323 -83.5286 9.14022
  366 407.214 31.8783 -27.6945
  367 99.8191 3.31569 1.16135
  368 99.8012 3.31504 -1.16142
  369 270.475 1.87406 -24.5553
  370 270.653 1.73538 24.5851
  371 291.237 2.26057 -14.8590
  372 291.326 2.19911 14.8425
  373 -4.92451 3.19149 4.13891
  374 -4.98978 3.19321 -4.14009
  375 167.619 9.28786 -39.3444
  376 167.666 9.39092 39.7022
  377 344.786 -0.238094 2.01177
  378 344.693 -0.236645 -2.01185
  379 196.022 10.6266 -19.8869
  380 196.100 10.5622 19.9609
  381 226.155 3.38944 5.09368
  382 226.114 3.39631 -5.09268
  383 -10.7932 -1.94359 8.58496
  384 -10.7926 -1.94865 -8.58519
  385 -2.56820 -1.82450 -2.50340
  386 -2.56939 -1.82542 2.50726
  387 459.982 -56.9613 33.5613
  388 -5.98131 -14.4230 23.3662
  389 -5.94103 -14.5465 -23.3684
  390 75.4652 4.79422 -1.36071
  391 75.4946 4.79451 1.36294
  392 -2.28417 -11.4555 8.62223
  393 -2.31013 -11.4370 -8.62341
  394 29.2811 12.9997 10.6470
  395 29.2078 13.0238 -10.6476
  396 376.018 -1.67897 10.5968
  397 375.910 -1.54182 -10.7796
  398 -0.868420 -22.1957 28.0217
  399 -30.8810 -0.555195 13.1522
  400 -30.9033 -0.557924 -13.1689
  401 -0.987682 -23.4509 -27.7076
  402 352.832 0.0321349 5.10328
  403 352.743 0.0404439 -5.11138
  404 -3.05587 7.87826 25.6184
  405 -3.17100 7.90320 -25.6651
  406 261.224 3.74122 -9.90523
  407 261.286 3.71836 9.90227
  408 401.254 -17.1858 -8.42778
  409 402.497 -13.8874 6.31552
  410 -0.811489 -41.4662 -17.3054
  411 36.3616 13.5508 -7.22549
  412 36.6612 13.4017 7.18694
  413 400.437 26.1456 17.2675
  414 227.675 -11.7123 -106.078
  415 233.707 -15.9341 111.004
  416 13.9171 12.4095 16.4622
  417 13.8293 12.4394 -16.4765
  418 167.788 4.45046 -2.66891
  419 167.801 4.44657 2.67100
  420 163.026 28.2914 168.603
  421 67.8200 15.7490 -3.74609
  422 67.8839 15.7206 3.76789
  423 4.22500 -39.1272 18.7159
  424 -0.502748 -67.3655 -14.9953
  425 27.0669 15.2571 15.2329
  426 26.9640 15.3024 -15.2509
  427 33.4557 8.75179 -6.42396
  428 33.5112 8.74318 6.42572
  429 -11.2146 -0.499061 -28.7132
  430 -11.1498 -0.514926 28.6650
  431 81.0310 16.0341 -15.9772
  432 80.6857 16.2764 16.1485
  433 403.465 -12.8653 -39.0956
  434 11.5443 -3.76281 21.9478
  435 11.1662 -3.65995 -22.0853
  436 293.814 -12.6220 -36.5413
  437 295.032 -13.5120 36.4865
  438 -73.0475 0.578079 -7.59095
  439 -72.9651 0.576250 7.58100
  440 0.00194332 -66.1976 13.5032
  441 -0.472454 -42.0623 15.4108
  442 -29.6786 1.94584 22.0706
  443 -29.7321 1.94513 -22.1040
  444 210.594 1.63827 -1.00324
  445 210.626 1.63635 1.00335
  446 -6.29791 -9.94774 15.9035
  447 -6.30857 -9.97069 -15.8870
  448 131.667 7.11539 -57.1700
  449 131.406 7.71048 57.8189
  450 1.09548 -79.9835 -14.7875
  451 728.488 25.6560 0.515490
  452 2.04253 -94.2286 -8.34522
  453 -86.1239 -0.0353483 -2.73346
  454 -86.0253 -0.0353331 2.73196
  455 -32.9607 4.69423 17.9514
  456 -33.0378 4.70425 -17.9770
  457 -38.7978 0.556645 13.1991
  458 -38.8315 0.556503 -13.2167
  459 143.921 14.6694 -12.8066
  460 143.928 14.6667 12.8811
  461 217.288 8.45019 -15.3840
  462 217.362 8.39541 15.4120
  463 -3.62037 -13.4323 28.9814
  464 -3.62553 -13.3437 -29.1034
  465 377.601 6.68005 -49.3208
  466 25.9850 -6.10619 -3.76928
  467 25.0811 -6.32480 4.23319
  468 6.03786 -84.4558 -1.45905
  469 3.87924 -98.2431 -1.32957
  470 -11.4605 -5.11812 16.3672
  471 -11.4657 -5.13675 -16.3744
  472 80.4446 -5.16728 -88.0925
  473 575.910 1.96234 -58.3606
  474 131.086 8.28373 3.70841
  475 131.088 8.28906 -3.69762
  476 190.372 2.09301 -54.9392
  477 190.798 2.03588 55.7613
  478 56.1842 19.4121 5.58303
  479 56.0772 19.4762 -5.56748
  480 171.932 12.7240 -28.9824
  481 172.006 12.6610 29.1956
  482 6.47226 3.57304 26.0562
  483 6.85186 3.76421 -26.0252
  484 -76.4193 1.11069 -5.57199
  485 -76.3269 1.10941 5.56690
  486 377.580 -43.8779 -29.7840
  487 299.730 0.0118442 -1.68593
  488 299.803 0.0108332 1.68638
  489 16.6484 2.01687 -1.72495
  490 16.7031 2.01692 1.72484
  491 -18.9062 6.96300 16.6887
  492 -18.9868 6.97780 -16.7082
  493 -43.0520 2.61470 -6.03115
  494 -42.9708 2.61201 6.02724
  495 131.112 12.5963 -5.77642
  496 131.109 12.5904 5.80528
  497 -15.3989 6.03873 23.5896
  498 -15.4821 6.05330 -23.6295
  499 345.669 -9.83311 -19.5610
  500 346.252 -10.3184 19.2919
  501 227.083 2.36341 -36.5943
  502 226.742 2.20548 36.9073
  503 84.8954 3.78875 -0.755573
  504 84.9200 3.78950 0.756452
  505 0.937566 -40.8792 -23.6912
  506 405.375 -14.5665 32.0574
  507 5.64193 -26.7096 -21.2925
  508 115.662 18.3777 13.1435
  509 115.733 18.3256 -13.0203
  510 373.462 -41.0542 29.4274
  511 28.7610 -36.2165 46.6445
  512 444.355 -56.4018 -58.4607
  513 302.951 1.05840 17.8994
  514 302.818 1.17734 -17.9206
  515 0.893262 -34.9433 24.6533
  516 -5.93416 -1.76777 -4.59551
  517 -5.93681 -1.76690 4.59886
  518 37.6991 1.85400 -0.498527
  519 37.7442 1.85447 0.498593
  520 -1.02109 -23.5327 10.1577
  521 -0.926443 -23.4234 -10.2102
  522 249.657 2.34247 4.01744
  523 249.607 2.34609 -4.01716
  524 701.215 124.687 53.8203
  525 29.4000 -17.1876 -9.68043
  526 22.8947 -23.4258 4.89410
  527 -6.49718 5.29136 -8.22017
  528 -6.42717 5.28439 8.21574
  529 -60.6736 0.957523 7.90926
  530 -60.7286 0.958597 -7.92051
  531 0.610335 -75.0512 14.7679
  532 -84.5703 0.716343 0.748376
  533 -84.6684 0.716391 -0.748686
  534 77.6541 -4.18408 -64.9131
  535 75.9451 -2.89873 67.4004
  536 71.1433 12.7693 -22.6137
  537 70.6071 13.0879 22.7637
  538 -16.2648 -3.38640 22.3533
  539 -16.2900 -3.40084 -22.3862
  540 70.1187 6.14224 1.40184
  541 70.0860 6.14310 -1.39837
  542 -35.1411 1.61270 2.55226
  543 -35.2182 1.61325 -2.55334
  544 82.5674 11.8893 1.34768
  545 82.5319 11.8977 -1.33126
  546 -1.64202 -5.35074 3.93008
  547 -1.64770 -5.34599 -3.92933
  548 30.1534 13.0243 13.5365
  549 29.9531 13.2057 -13.6045
  550 24.3575 4.18178 11.8421
  551 24.0126 4.14979 -12.0440
  552 306.448 1.97466 7.53530
  553 306.374 1.98613 -7.54024
  554 271.380 3.41268 12.0606
  555 271.308 3.44938 -12.0669
  556 -0.278468 -63.6681 -9.37587
  557 190.426 9.37061 -11.8306
  558 190.468 9.34121 11.8545
  559 190.863 4.22975 -4.46954
  560 190.888 4.22179 4.47281
  561 -25.0946 0.863562 0.0157669
  562 -25.0223 0.863867 -0.0156927
  563 327.535 17.6075 -9.49665
  564 426.094 -53.5768 -21.8121
  565 351.846 16.3250 37.2727
  566 2.90812 -53.9598 -17.1966
  567 -18.1561 5.92723 -10.9238
  568 -18.0804 5.91822 10.9155
  569 3.07929 -31.2368 23.2066
  570 -18.7067 0.584061 25.5490
  571 -18.7587 0.581318 -25.5873
  572 544.122 52.2225 0.600261
  573 124.568 5.58712 -1.72725
  574 124.562 5.58406 1.73146
  575 820.681 69.8779 -72.2848
  576 -3.87154 -3.00566 29.7453
  577 -3.59024 -2.78804 -29.7690
  578 450.261 -39.6521 16.9652
  579 362.202 0.212232 -8.90531
  580 362.276 0.165626 8.85554
  581 167.339 0.225535 -79.6747
  582 169.312 -0.284567 80.9089
  583 -9.22163 -8.84584 25.8610
  584 -9.23097 -8.89222 -25.9293
  585 88.0925 8.09002 42.5388
  586 88.8309 7.43463 -42.1901
  587 -70.9164 0.813017 -7.41638
  588 -70.8408 0.811683 7.40615
  589 530.686 46.0282 29.0930
  590 101.911 9.18350 0.704386
  591 101.929 9.18365 -0.694826
  592 120.198 14.9611 -29.2364
  593 120.034 15.1422 29.5480
  594 327.989 -0.851010 -17.5055
  595 328.158 -1.01425 17.4594
  596 -1.44084 -33.1092 -23.2560
  597 356.223 -0.505697 2.67175
  598 356.125 -0.503656 -2.67238
  599 -51.0311 0.978254 -0.980425
  600 -50.9474 0.978239 0.980065
  601 -90.7330 -0.660348 0.0168821
  602 -90.8338 -0.660858 -0.0168946
  603 7.74247 -49.2655 -7.71573
  604 -3.32096 -21.5303 19.9668
  605 -3.50277 -20.3646 -20.1004
  606 -40.2823 2.50718 18.3681
  607 -40.3440 2.51084 -18.3955
  608 249.835 5.91252 15.2458
  609 249.755 5.96921 -15.2408
  610 184.133 2.16572 1.05072
  611 184.113 2.16719 -1.05033
  612 41.9586 -10.5888 27.1878
  613 43.2853 -9.69783 -26.9405
  614 -1.27793 -16.4144 8.58381
  615 -1.31753 -16.3624 -8.61295
  616 426.831 31.2627 181.957
  617 -21.1562 -0.647074 7.94914
  618 -21.1578 -0.650106 -7.95576
  619 7.73091 -29.7963 -17.0178
  620 180.229 6.93085 -6.15151
  621 180.252 6.91921 6.15891
  622 88.7256 18.7022 -9.86828
  623 88.5533 18.8174 9.98815
  624 0.862877 -112.833 5.75756
  625 66.7018 18.1911 3.13360
  626 66.6222 18.2352 -3.10738
  627 -6.49995 7.44419 13.1368
  628 -6.57585 7.45754 -13.1474
  629 -0.509217 -56.1034 12.8000
  630 -90.6885 0.0757085 -2.73000
  631 -90.5882 0.0755452 2.72825
  632 118.887 2.95592 0.509671
  633 118.896 2.95786 -0.508327
  634 298.652 0.701349 5.00569
  635 298.581 0.706976 -5.00694
  636 264.108 -17.2173 139.019
  637 212.437 5.08533 -9.28464
  638 212.481 5.06352 9.29211
  639 3.63009 -4.20356 27.4076
  640 4.41789 -2.32660 -27.3469
  641 339.153 -33.1724 -112.659
  642 796.014 27.2760 -30.0524
  643 -83.6529 0.0582317 -5.11639
  644 -83.5634 0.0574029 5.11051
  645 20.9169 4.36867 -3.81772
  646 20.9714 4.36647 3.81765
  647 -1.56447 -35.1452 20.5587
  648 459.350 27.7048 -45.3610
  649 352.220 -0.678132 0.465896
  650 352.121 -0.677565 -0.465632
  651 -22.6298 -1.21742 -18.4479
  652 -22.6055 -1.21158 18.4245
  653 -0.0692019 -79.6674 -12.2630
  654 358.263 -0.690538 1.02792
  655 358.161 -0.689856 -1.02749
  656 33.6339 11.2598 8.97215
  657 33.5702 11.2761 -8.97019
  658 274.234 -23.4518 -74.0549
  659 279.151 -23.3518 74.8680
  660 399.452 -2.60685 6.14591
  661 399.519 -2.58050 -6.40102
  662 1.75687 -100.252 9.51175
  663 -21.0612 0.638078 -1.47874
  664 -20.9905 0.638418 1.47830
  665 131.457 15.0508 -132.343
  666 123.660 2.61203 0.992798
  667 123.667 2.61312 -0.992142
  668 61.2778 4.36315 0.588075
  669 61.2424 4.36322 -0.586576
  670 72.7086 7.77461 -0.953754
  671 72.7415 7.77253 0.960066
  672 234.241 6.42393 -23.5835
  673 234.380 6.31800 23.6438
  674 62.5634 18.1593 0.276138
  675 62.3762 18.2861 -0.244967
  676 -41.7800 3.11764 -10.3775
  677 -41.6989 3.11168 10.3676
  678 -48.7633 3.36331 -11.8438
  679 -48.6823 3.35723 11.8301
  680 410.718 -6.26060 -1.06209
  681 0.548228 -16.4155 -28.0897
  682 411.311 -6.56655 0.494566
  683 523.074 40.8722 -1.11993
  684 -51.4769 0.243888 9.00467
  685 -51.5195 0.243760 -9.01758
  686 54.4159 15.7601 -3.57939
  687 54.0285 15.9532 3.62187
  688 -97.3871 0.0620206 -0.966207
  689 -97.2835 0.0620969 0.965684
  690 0.875958 -14.7511 28.1287
  691 -32.1392 0.461760 19.3838
  692 -32.1835 0.460204 -19.4116
  693 450.987 -37.1271 -18.6854
  694 71.9765 1.66965 -0.515403
  695 71.9464 1.66877 0.515933
  696 17.0673 6.53168 6.43333
  697 17.0077 6.53761 -6.43387
  698 239.145 -10.7270 -61.9935
  699 240.932 -11.1488 63.1864
  700 829.303 58.8930 65.7389
  701 16.2383 -74.4564 -28.0270
  702 -5.92516 -12.5182 27.6385
  703 -5.93481 -12.5693 -27.7021
  704 50.9573 11.0993 -4.74694
  705 51.0074 11.0887 4.75376
  706 368.269 -0.585741 -2.71994
  707 368.371 -0.588112 2.71778
  708 176.036 2.80797 1.86954
  709 176.019 2.81117 -1.86845
  710 15.0160 12.9818 19.8969
  711 14.9178 13.0213 -19.9271
  712 9.75238 3.21938 2.68471
  713 9.69440 3.22024 -2.68510
  714 -10.1692 2.57577 28.1312
  715 -10.2459 2.57474 -28.1885
  716 302.967 -0.367196 2.11274
  717 302.894 -0.365256 -2.11266
  718 262.465 2.12353 5.71711
  719 262.410 2.13016 -5.71735
  720 35.6413 -21.7909 32.5933
  721 36.6680 -23.4289 -31.5231
  722 -20.1087 4.46575 24.5293
  723 -20.1817 4.47122 -24.5715
  724 11.0727 -24.4819 13.2708
  725 1.20751 7.92973 25.8069
  726 1.08681 7.95121 -25.8386
  727 -57.5934 1.63985 -6.88445
  728 -57.5072 1.63736 6.87847
  729 46.4662 14.7167 8.23290
  730 46.3925 14.7450 -8.22383
  731 406.357 -12.2699 -21.7062
  732 384.833 -33.4217 -10.1835
  733 -6.18811 -12.6648 19.6419
  734 -6.18053 -12.7252 -19.6177
  735 150.064 0.0736880 -94.0115
  736 146.175 3.26112 94.8933
  737 91.5821 17.4721 -14.9900
  738 91.3512 17.6440 15.1644
  739 8.07782 -14.3295 22.3393
  740 -0.550555 -41.5778 -11.1481
  741 190.633 10.3330 -22.1667
  742 190.725 10.2709 22.2777
  743 0.488448 -81.6590 10.3053
  744 113.968 15.5692 -6.15230
  745 113.942 15.5781 6.20214
  746 386.957 -0.429744 -6.74221
  747 386.991 -0.476934 6.65295
  748 7.70647 -109.225 2.85326
  749 175.526 12.9103 16.7843
  750 175.479 12.9470 -16.7149
  751 47.8321 16.8331 -4.49325
  752 48.0780 16.6636 4.47570
  753 -69.9089 0.461326 -6.26786
  754 -69.8433 0.460740 6.25851
  755 194.518 3.16512 -3.89958
  756 194.544 3.16002 3.90145
  757 120.427 17.1982 -11.0634
  758 120.386 17.2224 11.1544
  759 1.29584 10.4963 19.8846
  760 1.20550 10.5237 -19.9085
  761 385.997 -28.6030 5.47324
  762 -59.4490 1.28263 5.23285
  763 -59.5365 1.28376 -5.23601
  764 828.197 163.055 -115.796
  765 -22.0427 2.28292 5.45252
  766 -22.1153 2.28466 -5.45493
  767 328.142 0.789530 12.4244
  768 328.054 0.847096 -12.4601
  769 609.581 38.0020 0.198435
  770 371.095 -1.11642 -5.12604
  771 371.186 -1.12517 5.11468
  772 237.887 3.27466 7.20289
  773 237.840 3.28590 -7.20207
  774 355.643 -39.5271 102.700
  775 154.988 11.1629 -6.41901
  776 155.003 11.1504 6.43948
  777 3.58023 -61.2229 12.4203
  778 407.823 -50.7915 34.2104
  779 247.709 0.493019 1.23023
  780 247.661 0.494532 -1.23000
  781 324.144 0.0140606 0.654639
  782 324.060 0.0145517 -0.654402
  783 -1.44800 -32.7917 -19.2434
  784 2.00548 -55.6534 18.5656
  785 146.987 16.2481 23.3148
  786 146.989 16.2391 -23.1304
  787 820.009 7.96648 7.21404
  788 252.190 2.07074 -29.3841
  789 252.371 1.94372 29.4595
  790 -51.9086 1.72068 13.7179
  791 -51.9824 1.72490 -13.7364
  792 10.8252 -44.4335 3.44823
  793 6.99092 -101.713 -7.74350
  794 573.648 74.4891 -10.3506
  795 -0.500254 -41.4646 10.0635
  796 12.0233 8.48591 23.0857
  797 11.9832 8.48218 -23.1954
  798 77.4793 15.0805 1.87021
  799 77.4318 15.0999 -1.84798
  800 382.899 -17.5624 -6.39759
  801 383.664 -17.3498 5.11632
  802 449.474 68.7472 -172.425
  803 -61.1323 0.642209 -2.35585
  804 -61.0443 0.641967 2.35461
  805 -29.0250 -0.115666 7.48394
  806 -29.0332 -0.116958 -7.49228
  807 28.1648 2.51082 6.59357
  808 27.5718 2.47983 -6.65465
  809 290.709 -1.71328 26.4339
  810 290.491 -1.47070 -26.3749
  811 148.531 3.74275 -1.08573
  812 148.535 3.74004 1.08725
  813 468.548 -6.49628 41.5371
  814 50.1492 7.80896 -4.24833
  815 50.1946 7.80415 4.25238
  816 46.4956 6.58373 -8.22427
  817 46.0774 6.80169 8.33228
  818 -0.109102 -32.2728 -25.7592
  819 660.095 104.076 95.7944
  820 -95.3675 0.0936132 -2.73095
  821 -95.2663 0.0934494 2.72874
  822 -0.141792 -99.3628 9.67384
  823 7.16936 -14.1698 -22.6111
  824 -14.4381 -0.880259 5.57705
  825 -14.4324 -0.882543 -5.57898
  826 528.914 31.6801 -28.0492
  827 138.442 13.5268 -8.08379
  828 138.444 13.5205 8.12855
  829 363.112 -5.40096 -13.3340
  830 363.444 -5.45653 13.1387
  831 -91.2435 0.683657 3.65105
  832 -91.3398 0.684470 -3.65484
  833 -0.655804 -0.678842 -0.559266
  834 -0.657132 -0.680063 0.561492
  835 0.295383 -101.612 -9.44255
  836 0.465789 -106.698 -8.48300
  837 -100.285 0.951296 0.535063
  838 -100.390 0.951518 -0.535272
  839 55.8408 -15.2689 -62.2777
  840 225.443 2.53902 -2.12895
  841 225.481 2.53668 2.12922
  842 -6.42450 1.73610 0.688774
  843 -6.48872 1.73600 -0.688990
  844 334.193 0.780110 -8.22977
  845 334.274 0.760650 8.21435
  846 -38.1423 0.258100 7.11269
  847 -38.1605 0.258123 -7.12149
  848 203.133 3.76837 -140.713
  849 349.658 -29.7281 29.0308
  850 274.111 1.05506 -2.61288
  851 274.171 1.05287 2.61287
  852 346.510 -32.3213 -32.3700
  853 108.846 11.9146 -2.50183
  854 108.827 11.9150 2.52442
  855 150.019 9.61635 -4.90845
  856 150.028 9.60733 4.92168
  857 406.255 -8.65364 16.5835
  858 25.4292 14.7477 16.2814
  859 25.3179 14.8033 -16.3211
  860 26.4665 1.65834 1.24257
  861 26.4163 1.65792 -1.24265
  862 191.904 2.25294 1.80930
  863 191.881 2.25530 -1.80864
  864 500.558 -44.9174 57.7520
  865 313.793 1.63347 -10.8028
  866 313.875 1.59714 10.7820
  867 5.36630 4.65771 5.08281
  868 5.30420 4.66099 -5.08390
  869 314.414 -0.475267 3.06114
  870 314.336 -0.472806 -3.06129
  871 -57.6602 0.303871 -1.54282
  872 -57.5739 0.304212 1.54220
  873 -0.273320 -31.7516 8.97810
  874 -0.360145 -32.2484 -9.04646
  875 378.426 -5.14452 39.9111
  876 -22.5359 5.83852 20.6523
  877 -22.6149 5.85197 -20.6830
  878 -0.126711 -52.2733 -9.90872
  879 149.991 5.34453 -2.53912
  880 149.996 5.34081 2.54233
  881 275.545 -13.8223 -47.3369
  882 277.659 -15.2854 47.7984
  883 -11.6998 -4.07191 -27.7470
  884 -11.6472 -4.07193 27.6884
  885 15.5407 13.0555 18.2431
  886 15.4458 13.0913 -18.2628
  887 1.31111 -119.057 6.66157
  888 4.22965 10.2592 23.5446
  889 4.12592 10.2866 -23.5771
  890 254.520 -4.55613 -42.0967
  891 253.962 -4.75481 42.4314
  892 439.773 24.7015 47.2344
  893 101.463 11.0820 1.16199
  894 101.484 11.0812 -1.14704
  895 321.940 1.82241 -8.07864
  896 322.018 1.80736 8.06951
  897 -12.5578 -5.45245 24.4052
  898 -12.5821 -5.47388 -24.4500
  899 1.12588 -122.447 -4.30061
  900 -19.3175 -1.26352 23.9185
  901 -19.3561 -1.26732 -23.9543
  902 12.8958 11.7414 -14.2844
  903 12.9758 11.7167 14.2744
  904 -0.990398 -7.99181 4.42228
  905 -1.00161 -7.98379 -4.42890
  906 28.1147 13.2335 -12.7095
  907 28.1978 13.2029 12.7057
  908 6.07555 -9.36358 25.2813
  909 5.29850 -8.71196 -26.6005
  910 312.925 -8.99092 26.9728
  911 312.183 -8.56692 -27.1193
  912 -102.356 0.276952 -0.786027
  913 -102.250 0.276970 0.785681
  914 -8.87890 -0.799007 4.19660
  915 -8.87100 -0.800405 -4.19542
  916 0.422447 -74.2963 -9.02836
  917 -9.52595 -4.08353 -11.9395
  918 -9.52237 -4.07331 11.9402
  919 -39.9320 3.39874 17.6270
  920 -40.0034 3.40564 -17.6529
  921 98.0785 18.7052 -6.33302
  922 98.0024 18.7599 6.40640
  923 416.888 32.7178 -7.17819
  924 -4.27166 9.32690 18.0690
  925 -4.35579 9.34815 -18.0891
  926 154.633 9.85778 -44.2431
  927 154.639 9.99903 44.7310
  928 -17.8680 6.48270 14.5512
  929 -17.9468 6.49629 -14.5666
  930 502.767 -23.8300 -7.46506
  931 305.664 12.1668 20.4792
  932 366.683 -4.51246 -36.0953
  933 273.855 3.48046 -17.9048
  934 273.964 3.39496 17.9033
  935 -28.4034 3.84679 -7.10191
  936 -28.3272 3.84219 7.09716
  937 -64.9926 1.16662 8.77622
  938 -65.0759 1.16935 -8.78711
  939 -3.92883 -12.7106 -13.8541
  940 -3.90117 -12.7212 13.8791
  941 97.4874 6.13306 0.646486
  942 97.5064 6.13401 -0.642243
  943 -30.3491 3.18895 21.8924
  944 -30.4117 3.19148 -21.9274
  945 327.895 -0.276206 4.00943
  946 327.811 -0.273259 -4.01004
  947 -2.46268 -27.8911 20.9430
  948 12.7526 10.7572 -12.2512
  949 12.8264 10.7385 12.2447
  950 17.4539 7.42955 8.00213
  951 17.3913 7.43837 -8.00363
  952 57.1015 5.14764 -1.89827
  953 57.1394 5.14668 1.89989
  954 615.917 78.9265 -17.8377
  955 -2.44432 -0.671242 -1.66347
  956 -2.44957 -0.671198 1.66650
  957 21.4624 6.18387 -15.3305
  958 21.8251 6.01141 15.2641
  959 221.268 8.67983 -18.8844
  960 221.361 8.60772 18.9270
  961 28.8683 9.37452 -7.60086
  962 28.9287 9.36335 7.60175
  963 60.6090 -12.5116 82.6320
  964 415.206 -3.00232 -3.47614
  965 414.613 -2.88999 3.09351
  966 74.0312 -6.31433 72.1715
  967 77.8448 3.21663 -0.274465
  968 77.8172 3.21612 0.275264
  969 201.714 -6.16401 -121.687
  970 152.199 2.43652 0.986455
  971 152.194 2.43776 -0.985933
  972 19.4544 -19.4646 3.79415
  973 21.4983 -16.2653 -2.17430
  974 367.651 -0.425577 1.38007
  975 367.545 -0.424931 -1.37959
  976 -30.2137 0.107534 17.6264
  977 -30.2466 0.105744 -17.6495
  978 659.486 82.6843 37.9523
  979 -2.78297 -20.8264 -27.5679
  980 3.33713 -103.095 12.2345
  981 -0.462334 -33.0998 25.4158
  982 380.203 -0.336935 -5.23071
  983 380.281 -0.349781 5.20966
  984 -5.02562 -9.20221 11.9723
  985 -5.03942 -9.20271 -11.9606
  986 475.402 49.7230 -25.7394
  987 831.766 7.14687 -4.83929
  988 -1.23908 -1.87057 -1.81046
  989 -1.23772 -1.87453 1.81308
  990 221.422 2.37468 -4.09388
  991 221.459 2.37032 4.09478
  992 -2.85253 -20.0110 27.7053
  993 307.835 1.24185 15.9580
  994 307.732 1.32789 -15.9851
  995 404.450 -26.7323 -15.9641
  996 -14.1123 -2.94364 13.4972
  997 -14.1177 -2.95469 -13.5043
  998 6.72812 -26.1070 19.5337
  999 -0.643073 -49.9626 19.9512
  1000 -0.0589474 -51.8659 9.89489
  1001 415.328 27.0183 -2.42113
  1002 474.606 52.0687 14.4206
  1003 339.515 -38.7772 -56.8693
  1004 4.90714 -48.5845 15.7456
  1005 6.20897 -69.7950 3.27952
  1006 94.7049 2.18323 0.261852
  1007 94.6847 2.18235 -0.261768
  1008 -3.76399 -4.29102 -5.71798
  1009 -3.76070 -4.29191 5.72249
  1010 3.28198 -39.9205 -21.1378
  1011 273.691 0.189742 -0.959288
  1012 273.751 0.188530 0.959380
  1013 55.1580 0.177829 -27.1321
  1014 52.7840 0.305724 26.8720
  1015 -4.71278 8.46637 23.7985
  1016 -4.81133 8.49052 -23.8382
  1017 -31.8811 4.92496 -14.7905
  1018 -31.8017 4.91497 14.7732
  1019 209.169 3.38674 -43.1842
  1020 209.289 3.56695 43.6530
  1021 150.696 13.2804 -30.2562
  1022 150.680 13.2802 30.5412
  1023 163.478 11.6546 -10.2006
  1024 163.501 11.6332 10.2320
  1025 423.858 -11.4811 -46.5692
  1026 -10.9398 5.24147 26.1644
  1027 -11.0280 5.25026 -26.2189
  1028 300.092 -0.473363 21.8364
  1029 299.923 -0.290408 -21.8424
  1030 -1.90210 -15.5990 28.8971
  1031 -24.2177 -0.801668 13.0198
  1032 -24.2310 -0.805660 -13.0340
  1033 273.498 2.35040 -21.7178
  1034 273.639 2.22936 21.7268
  1035 339.137 8.22162 -33.4682
  1036 -0.389175 -49.6764 -20.9340
  1037 -4.00629 -19.5570 24.8285
  1038 -4.17465 -19.7917 -24.6208
  1039 193.058 11.1114 -15.6004
  1040 193.118 11.0646 15.6489
  1041 243.434 4.28288 8.91711
  1042 243.381 4.30003 -8.91663
  1043 403.619 -26.1115 13.8486
  1044 20.5309 1.89869 -0.340950
  1045 20.5835 1.89894 0.340911
  1046 343.309 -43.3741 60.6765
  1047 -1.37979 1.28863 1.69867
  1048 -1.44205 1.28839 -1.69907
  1049 74.5038 18.8385 0.0447368
  1050 74.4038 18.9007 -0.00245343
  1051 28.4911 14.8514 13.9469
  1052 28.3987 14.8894 -13.9555
  1053 3.79083 -60.5191 -12.9347
  1054 99.7015 3.59915 0.201211
  1055 99.7193 3.60083 -0.198886
  1056 297.874 9.74934 8.44029
  1057 276.268 1.92061 8.28875
  1058 276.204 1.93637 -8.29202
  1059 -1.61600 -16.2038 -28.9472
  1060 415.430 -5.32818 -8.36817
  1061 0.112472 -1.29772 28.6762
  1062 0.424217 -1.06180 -28.5435
  1063 377.984 -0.729509 -2.89106
  1064 378.086 -0.732460 2.88691
  1065 402.717 -1.43664 -5.07973
  1066 402.647 -1.48806 4.94548
  1067 -0.305846 -78.5702 7.44109
  1068 236.678 5.83332 -11.8006
  1069 236.733 5.80474 11.8039
  1070 287.846 2.44097 9.65362
  1071 287.776 2.46144 -9.66016
  1072 6.70277 6.88338 25.7382
  1073 6.66519 6.88616 -25.7661
  1074 625.104 41.4178 6.61346
  1075 -7.88896 -3.39601 29.5327
  1076 -8.01041 -3.32265 -29.6070
  1077 89.7493 17.4434 -1.22716
  1078 89.7011 17.4690 1.26421
  1079 -49.5863 0.894394 -2.60007
  1080 -49.5032 0.894285 2.59895
  1081 147.340 8.56412 -50.9449
  1082 147.141 8.97594 51.5564
  1083 42.5770 16.7688 10.6404
  1084 42.4762 16.8168 -10.6398
  1085 100.159 11.7074 -37.6515
  1086 99.6463 12.2026 37.9752
  1087 -2.63134 -26.1944 -20.4085
  1088 353.070 4.88353 43.9934
  1089 247.059 1.62165 157.856
  1090 40.0485 17.2509 10.9796
  1091 39.9299 17.3149 -10.9893
  1092 149.477 7.76674 -3.72985
  1093 149.484 7.75901 3.73841
  1094 540.414 2.80850 12.0577
  1095 35.0044 8.98568 6.67833
  1096 34.5640 9.09570 -6.81056
  1097 -16.0238 -3.50642 17.9568
  1098 -16.0370 -3.52266 -17.9751
  1099 -0.525865 -11.9306 4.82739
  1100 -0.546647 -11.9233 -4.84677
  1101 355.272 -0.481012 12.8460
  1102 355.150 -0.348966 -12.9402
  1103 0.573976 -25.0858 27.0872
  1104 -24.2274 1.56951 -23.9022
  1105 -24.1751 1.57195 23.8661
  1106 0.121055 -94.9977 -9.45085
  1107 -5.50362 -7.76195 29.4868
  1108 -5.48874 -7.59745 -29.5179
  1109 339.733 0.270386 -5.40940
  1110 339.820 0.263674 5.40516
  1111 350.474 -2.81425 15.4516
  1112 350.239 -2.60096 -15.5468
  1113 61.4147 13.7424 -12.8141
  1114 60.9490 14.0100 12.9318
  1115 -0.828489 -48.9367 -17.0214
  1116 461.214 -41.8932 -92.4715
  1117 597.905 78.0347 5.13378
  1118 6.21570 -73.5396 -0.959386
  1119 21.7198 12.3242 -18.6431
  1120 21.8472 12.2557 18.5494
  1121 57.5369 18.5501 4.64763
  1122 57.4012 18.6335 -4.63159
  1123 121.484 7.05599 1.49089
  1124 121.492 7.05975 -1.48421
  1125 -7.72055 -10.9968 23.2418
  1126 -7.70965 -11.1018 -23.2784
  1127 -21.7860 6.85608 18.9999
  1128 -21.8664 6.87105 -19.0247
  1129 -7.54345 8.70376 22.0110
  1130 -7.63384 8.72562 -22.0437
  1131 334.720 -17.1152 -26.4930
  1132 336.860 -17.2523 26.2777
  1133 0.322187 -56.1521 -19.8821
  1134 178.996 -0.273050 -63.7885
  1135 179.274 0.287199 64.8462
  1136 57.4204 16.9325 -5.41985
  1137 57.4940 16.8959 5.43618
  1138 179.030 86.0422 176.455
  1139 45.0226 13.5691 7.88419
  1140 44.9571 13.5903 -7.87715
  1141 456.287 -49.6534 -22.7558
  1142 172.802 4.61224 3.01178
  1143 172.786 4.61786 -3.00885
  1144 -7.76288 -6.91802 14.2266
  1145 -7.76816 -6.93452 -14.2221
  1146 -9.26000 -8.30204 18.3994
  1147 -9.26000 -8.33492 -18.4017
  1148 299.824 -30.2991 -89.4646
  1149 305.840 -33.3674 90.1250
  1150 54.1903 1.97847 0.690164
  1151 54.2283 1.97911 -0.689337
  1152 188.500 8.71196 -35.1152
  1153 188.508 8.60101 35.4654
  1154 410.110 -54.5208 68.6099
  1155 364.839 -0.859991 0.801042
  1156 364.735 -0.859354 -0.800584
  1157 -32.3489 5.13718 16.9711
  1158 -32.4277 5.14753 -16.9928
  1159 -55.6965 1.71769 -8.87112
  1160 -55.6115 1.71450 8.86330
  1161 93.9557 2.31437 106.416
  1162 287.896 19.2395 -17.1420
  1163 172.413 12.1836 -17.3830
  1164 172.465 12.1479 17.4754
  1165 532.197 -14.7096 99.6963
  1166 175.242 11.7426 -25.6760
  1167 175.305 11.6835 25.8367
  1168 44.1150 5.53443 -2.89604
  1169 44.1596 5.53264 2.89751
  1170 15.3002 -55.4042 10.5654
  1171 15.4710 -53.9436 -14.6749
  1172 237.373 -16.4050 -90.3080
  1173 240.618 -15.3225 90.2386
  1174 93.1275 15.4155 -26.3862
  1175 92.7368 15.7313 26.6494
  1176 417.254 -27.7444 -30.1170
  1177 -15.1094 -1.22672 26.9705
  1178 -15.1621 -1.22639 -27.0150
  1179 -0.225468 -22.3995 -27.8301
  1180 106.724 3.34801 -67.1990
  1181 106.964 3.66549 68.3411
  1182 -0.267861 -21.1498 5.38067
  1183 -0.228816 -21.2012 -5.44701
  1184 -99.7962 0.831082 -2.57579
  1185 -99.6946 0.830544 2.57340
  1186 331.679 -0.273884 -1.51188
  1187 331.767 -0.275070 1.51195
  1188 205.261 7.39870 -10.1513
  1189 205.307 7.37132 10.1647
  1190 -7.36688 0.0190184 29.5081
  1191 -7.38973 0.138365 -29.5650
  1192 0.0209479 -84.8497 -8.27753
  1193 -84.8633 0.196239 4.18180
  1194 -84.9484 0.196754 -4.18744
  1195 66.1598 -0.953504 -47.2539
  1196 65.6661 -0.541353 48.7400
  1197 387.484 -23.6978 -1.61152
  1198 111.048 7.31384 -60.3983
  1199 111.123 7.61122 60.9869
  1200 -47.2150 0.255642 6.46363
  1201 -47.2436 0.255383 -6.47237
  1202 1.25544 -73.8824 -13.8772
  1203 -13.4439 2.89466 -3.36309
  1204 -13.3757 2.89352 3.36202
  1205 58.8816 14.2565 5.66413
  1206 58.8203 14.2785 -5.65029
  1207 218.254 1.02596 -1.33337
  1208 218.289 1.02436 1.33377
  1209 294.059 1.23918 6.30421
  1210 293.990 1.24888 -6.30706
  1211 16.3139 -1.89176 15.8447
  1212 16.0706 -2.16920 -16.1408
  1213 2.78893 -42.3968 21.1328
  1214 527.380 72.6177 18.2679
  1215 -16.2428 -1.26727 10.2374
  1216 -16.2451 -1.27269 -10.2432
  1217 2.20935 -39.7049 -22.1375
  1218 -1.54645 -24.6509 14.9764
  1219 -1.46945 -24.4229 -15.5168
  1220 417.173 -4.56727 7.42111
  1221 0.367849 -97.0573 8.46769
  1222 3.12156 -29.1101 -24.6961
  1223 50.2682 1.50676 0.507892
  1224 50.2286 1.50609 -0.507979
  1225 -4.07286 -17.5245 27.2841
  1226 -45.5254 2.58293 -7.49240
  1227 -45.4431 2.57985 7.48695
  1228 847.350 14.5845 24.1468
  1229 -23.9395 2.83330 24.1355
  1230 -24.0014 2.83342 -24.1748
  1231 201.352 8.01393 -31.7444
  1232 201.520 7.87031 31.9305
  1233 13.2146 -19.4188 -10.2389
  1234 191.594 9.67390 -12.8505
  1235 191.643 9.63702 12.8833
  1236 7.97525 -58.3329 -2.91124
  1237 -4.08720 -17.5623 -27.2418
  1238 -31.6366 1.25571 4.43604
  1239 -31.7126 1.25642 -4.43799
  1240 -14.4464 1.15757 -27.5596
  1241 -14.3823 1.16137 27.5174
  1242 409.660 32.8878 33.4784
  1243 232.807 2.58679 -33.5882
  1244 233.075 2.51910 33.6720
  1245 -104.370 0.235839 -0.933998
  1246 -104.264 0.235773 0.933413
  1247 209.811 4.92967 -6.87998
  1248 209.846 4.91911 6.88318
  1249 -107.037 -1.84767 -0.287894
  1250 -107.145 -1.84857 0.288005
  1251 312.794 -22.2350 -38.4747
  1252 -49.2113 0.842633 13.6491
  1253 -49.2667 0.843243 -13.6694
  1254 315.922 -23.4678 38.1279
  1255 213.451 7.64736 -13.9609
  1256 213.509 7.60549 13.9794
  1257 25.1394 -56.0160 -46.8485
  1258 0.458559 -67.9065 -17.0296
  1259 -1.38769 -28.5308 25.5767
  1260 668.285 113.682 -96.3072
  1261 -0.157557 -63.7493 16.6630
  1262 696.668 65.7411 -42.9491
  1263 -0.387930 -118.155 -7.90729
  1264 34.1315 3.31022 -0.988675
  1265 34.1787 3.30987 0.989337
  1266 -0.293437 -27.1554 5.63845
  1267 -0.236163 -27.3003 -5.62343
  1268 119.337 2.86618 0.120683
  1269 119.346 2.86749 -0.120060
  1270 421.819 -31.8346 28.5847
  1271 9.01506 3.12816 -3.89664
  1272 9.07392 3.12690 3.89590
  1273 2.43253 -129.052 3.63975
  1274 1.54488 -137.479 -3.60694
  1275 387.942 -48.0285 -41.4010
  1276 -1.06237 -35.2335 16.5408
  1277 406.881 26.3371 -42.3684
  1278 -1.21071 -46.4299 16.2516
  1279 0.813537 -126.948 -6.01560
  1280 195.814 5.43405 -7.54283
  1281 195.847 5.41578 7.55102
  1282 -0.148512 -69.2556 7.34254
  1283 -0.174117 -57.4308 -16.5411
  1284 915.718 161.287 139.330
  1285 366.511 0.175579 0.612430
  1286 366.405 0.175598 -0.612079
  1287 9.93474 0.940863 23.3244
  1288 9.62319 1.33463 -23.4334
  1289 -5.42569 5.40788 27.6359
  1290 -5.56208 5.41599 -27.7015
  1291 391.654 -7.21689 -25.6705
  1292 362.662 -15.2543 -15.2546
  1293 362.312 -17.3442 15.4185
  1294 54.6945 6.27314 2.90238
  1295 54.6534 6.27524 -2.89924
  1296 -59.2791 1.58314 -10.6257
  1297 -59.1998 1.57977 10.6115
  1298 404.422 -55.2236 -58.5582
  1299 -3.01929 -7.30928 7.46470
  1300 -3.03100 -7.30408 -7.46140
  1301 426.724 -18.0312 43.9489
  1302 -4.45695 -16.8270 20.1130
  1303 -4.40784 -16.8899 -20.0213
  1304 -37.4243 2.48986 5.30342
  1305 -37.5031 2.49194 -5.30643
  1306 64.8750 7.56153 -24.6391
  1307 64.2190 7.93126 24.6241
  1308 101.609 2.72729 0.342525
  1309 101.592 2.72601 -0.341890
  1310 -40.9420 4.11843 16.7824
  1311 -41.0173 4.12613 -16.8049
  1312 344.039 0.778644 0.951834
  1313 343.945 0.778488 -0.951353
  1314 190.260 -1.08056 120.495
  1315 281.327 0.478724 2.23002
  1316 281.263 0.480184 -2.22968
  1317 187.454 3.97918 -48.6844
  1318 187.485 3.76369 49.1104
  1319 1.81277 -74.2632 -9.84461
  1320 72.8933 17.4201 -10.5909
  1321 72.5812 17.6283 10.7149
  1322 -0.711256 -0.641717 -0.932880
  1323 -0.714843 -0.641913 0.935596
  1324 241.104 7.15690 18.0633
  1325 241.013 7.23325 -18.0448
  1326 120.124 9.65961 2.82582
  1327 120.133 9.66341 -2.81228
  1328 176.675 9.73759 -8.76635
  1329 176.704 9.71596 8.78682
  1330 231.037 1.22179 -2.24001
  1331 231.077 1.22005 2.24056
  1332 -7.34684 -3.55437 -8.42708
  1333 -7.34529 -3.55005 8.43107
  1334 -69.7299 0.0709987 3.14709
  1335 -69.8215 0.0712134 -3.14898
  1336 -12.4867 -5.71522 -20.5583
  1337 -12.4762 -5.68624 20.5359
  1338 -39.3881 0.609265 1.31724
  1339 -39.4666 0.608937 -1.31771
  1340 -108.240 0.984832 0.532261
  1341 -108.348 0.985123 -0.532463
  1342 434.624 -54.0801 79.6927
  1343 316.654 -1.83869 -35.8877
</Section>

newXOutput 52

<Section columns = "stress_xx | stress_yy | stress_xy">
  1 384.543 -0.581671 0.393429
  2 384.658 -0.582067 -0.393624
  3 -119.256 0.566839 -1.62686
  4 0.190817 0.0480139 0.338746
  5 696.936 202.349 227.252
  6 787.919 228.787 -218.389
  7 0.189974 0.0472424 -0.337625
  8 -119.140 0.566728 1.62617
  9 383.391 -0.551019 -1.27182
  10 383.703 -1.17907 -2.05917
  11 387.318 -1.17000 -0.552762
  12 387.715 -1.12465 -2.42033
  13 388.696 -1.10304 -0.755670
  14 396.795 -1.04799 -1.04669
  15 399.615 -1.51924 -3.24669
  16 402.670 -0.731546 -2.22695
  17 404.625 0.130431 -4.29749
  18 420.999 -2.32907 -3.67964
  19 428.104 -1.81422 -4.73275
  20 435.979 -2.73504 -1.88643
  21 439.807 -3.61961 -1.16292
  22 436.896 -4.16019 5.54937
  23 422.300 -4.64178 11.7522
  24 388.192 -5.16119 25.2163
  25 332.829 2.95464 29.3778
  26 287.246 3.59990 27.3280
  27 223.762 7.38813 16.5635
  28 237.876 7.18476 1.52076
  29 199.734 21.4066 -10.5287
  30 272.903 9.83344 -29.8024
  31 313.099 2.43374 -24.3703
  32 380.576 -1.10292 -21.1001
  33 417.547 -5.63085 -14.1023
  34 436.254 -4.84609 -5.51788
  35 438.981 -3.50693 1.18873
  36 435.415 -2.69940 1.77038
  37 427.887 -1.82571 4.59504
  38 420.939 -2.35873 3.60091
  39 404.677 0.113594 4.26027
  40 402.760 -0.737892 2.21321
  41 399.725 -1.52329 3.24233
  42 396.911 -1.05012 1.04470
  43 388.811 -1.10442 0.755094
  44 387.832 -1.12586 2.42148
  45 387.434 -1.17090 0.553107
  46 383.818 -1.17983 2.06041
  47 383.505 -0.551403 1.27258
  48 362.727 0.923816 -0.478707
  49 335.967 0.312621 -1.06562
  50 302.507 -1.11693 -1.07521
  51 267.801 0.902555 -0.894392
  52 237.382 0.644481 -0.711524
  53 204.818 1.69330 -0.841842
  54 172.663 3.36917 -0.509750
  55 139.266 3.00522 -1.06097
  56 111.557 2.08397 -1.48581
  57 75.1805 1.29714 -1.56565
  58 38.2172 2.04558 -1.19309
  59 7.35501 1.69474 -1.15353
  60 -31.1615 0.980448 -1.05387
  61 -59.8001 -0.357718 -2.57663
  62 -87.5411 -1.89620 -1.17789
  63 -115.679 0.238129 0.791627
  64 -121.764 2.08640 -0.302046
  65 -122.192 0.920255 0.360198
  66 -118.127 0.459342 -0.142267
  67 -119.430 1.34243 -1.46836
  68 -117.543 1.63255 -0.133104
  69 -111.182 0.499059 -2.25493
  70 -112.506 1.00701 -2.42653
  71 -109.687 0.954269 -1.36167
  72 -101.555 0.596500 -2.05729
  73 -97.8112 1.07738 -3.40139
  74 -91.8698 1.20683 -2.79058
  75 -81.3118 0.614988 -4.83923
  76 -75.3868 0.190207 -4.04355
  77 -64.6926 0.273248 -4.67010
  78 -55.4882 0.210377 -5.17330
  79 -47.4605 0.0718491 -4.08317
  80 -36.3136 0.240055 -4.11540
  81 -26.7013 -0.102206 -4.40382
  82 -17.4005 -0.479266 -3.86783
  83 -10.0295 -0.420129 -2.96412
  84 -4.92820 -0.736697 -2.47722
  85 -0.821256 -0.425955 -0.884615
  86 0.0574827 -0.473885 -0.315675
  87 -0.255857 -0.249565 -0.0603594
  88 -0.666913 -0.658858 -0.774918
  89 -0.647586 -4.16860 -2.15132
  90 -0.551790 -9.34577 -3.06597
  91 -0.284852 -15.9517 -4.47096
  92 -0.146735 -24.5008 -3.85515
  93 -0.121397 -32.3614 -4.85150
  94 -0.593711 -41.9550 -5.47418
  95 -0.242954 -53.8014 -5.52615
  96 0.112652 -65.7337 -5.29197
  97 0.258257 -78.5185 -5.22043
  98 0.397731 -91.6552 -5.13231
  99 0.0224194 -101.299 -6.94588
  100 0.677824 -115.028 -6.21555
  101 0.833699 -131.106 -4.95457
  102 -0.0567870 -138.158 -6.57804
  103 1.18019 -149.837 -6.09314
  104 2.91450 -165.369 -2.85127
  105 5.69694 -169.382 -4.52752
  106 4.03716 -154.328 4.34875
  107 5.91034 -115.241 17.4423
  108 30.0474 -63.4486 50.1497
  109 93.8690 139.229 168.041
  110 1071.75 57.8854 106.506
  111 920.583 17.1410 38.6275
  112 890.893 6.20909 8.82238
  113 884.529 2.01393 -1.42768
  114 890.580 9.61633 -20.3801
  115 918.873 31.1177 -45.8373
  116 1043.18 113.411 -135.288
  117 225.166 108.557 -204.957
  118 50.5319 -62.7539 -60.8977
  119 14.8842 -126.180 -22.8119
  120 4.12856 -146.126 -4.67089
  121 4.59469 -162.970 2.37888
  122 1.30295 -158.858 2.13291
  123 0.460339 -146.072 5.16073
  124 0.504476 -137.541 4.08388
  125 0.720247 -123.907 7.02167
  126 -0.0360146 -116.070 6.84090
  127 0.285283 -104.853 4.92288
  128 0.558665 -90.5579 6.26644
  129 0.110598 -80.3483 4.96605
  130 0.163168 -65.8098 6.27359
  131 -0.657397 -54.4506 5.39265
  132 -0.458090 -41.9897 5.30302
  133 -0.0853649 -32.1822 4.86370
  134 -0.190621 -24.3595 3.86217
  135 -0.278075 -15.9049 4.42738
  136 -0.543794 -9.33945 3.05070
  137 -0.644147 -4.17493 2.14979
  138 -0.666046 -0.665605 0.776451
  139 -0.255820 -0.252477 0.0623071
  140 0.0539500 -0.474335 0.317449
  141 -0.827920 -0.425723 0.886877
  142 -4.93828 -0.736000 2.47948
  143 -10.0430 -0.418825 2.96483
  144 -17.4112 -0.477655 3.86625
  145 -26.7041 -0.100873 4.39936
  146 -36.3069 0.240318 4.11017
  147 -47.4406 0.0724760 4.07766
  148 -55.4563 0.211106 5.16694
  149 -64.6446 0.273175 4.66340
  150 -75.3241 0.190089 4.03725
  151 -81.2391 0.614543 4.83302
  152 -91.7835 1.20607 2.78574
  153 -97.7174 1.07655 3.39740
  154 -101.454 0.595954 2.05475
  155 -109.580 0.953680 1.36003
  156 -112.396 1.00652 2.42478
  157 -111.071 0.498866 2.25352
  158 -117.428 1.63187 0.132794
  159 -119.314 1.34191 1.46762
  160 -118.011 0.459245 0.142173
  161 -122.074 0.919953 -0.360035
  162 -121.647 2.08561 0.301932
  163 -115.564 0.238148 -0.791307
  164 -87.4390 -1.89512 1.17740
  165 -59.7102 -0.357090 2.57558
  166 -31.0842 0.980702 1.05345
  167 7.41531 1.69492 1.15308
  168 38.2639 2.04587 1.19264
  169 75.2108 1.29808 1.56507
  170 111.571 2.08485 1.48525
  171 139.268 3.00597 1.06058
  172 172.649 3.36982 0.509505
  173 204.790 1.69452 0.841388
  174 237.340 0.645886 0.711061
  175 267.744 0.903384 0.893775
  176 302.434 -1.11557 1.07452
  177 335.877 0.312826 1.06501
  178 362.623 0.923509 0.478440
  179 101.973 17.7567 -4.46810
  180 101.916 17.7881 4.52602
  181 -1.69512 3.08216 28.6624
  182 -1.80596 3.06121 -28.6775
  183 231.643 -3.16107 -52.2187
  184 231.483 -3.60565 52.7680
  185 46.4549 10.9388 -2.66963
  186 45.9027 11.1357 2.68613
  187 34.1315 5.83600 -4.33950
  188 34.1837 5.83240 4.34033
  189 219.111 4.10655 -7.73665
  190 219.152 4.09140 7.74129
  191 -3.46655 8.81272 15.5214
  192 -3.54833 8.83129 -15.5364
  193 254.547 6.41392 -19.7766
  194 254.667 6.32184 19.8016
  195 -9.84996 -8.56070 22.8567
  196 -9.84770 -8.61131 -22.8863
  197 2.37300 -20.3381 -27.1276
  198 79.6026 4.86169 -48.2076
  199 2.89190 -21.7600 26.4755
  200 78.3350 5.49501 48.9666
  201 360.517 -48.1791 -75.6478
  202 373.013 -50.0796 72.6067
  203 129.999 4.26682 -1.29700
  204 129.994 4.26431 1.29960
  205 -20.1499 1.44011 -3.02942
  206 -20.0771 1.43993 3.02831
  207 -28.4896 4.40806 22.0077
  208 -28.5632 4.41646 -22.0434
  209 130.687 11.9046 -3.93796
  210 130.683 11.9011 3.95716
  211 40.1307 16.7389 10.3616
  212 39.9737 16.8391 -10.3963
  213 -36.4125 3.92966 -9.04901
  214 -36.3305 3.92437 9.04161
  215 290.753 0.365321 3.67409
  216 290.686 0.368992 -3.67429
  217 9.45520 -38.2100 11.2292
  218 10.2777 -34.5648 -9.89226
  219 -2.68695 -24.2267 25.7536
  220 -2.75084 -25.1738 -24.9459
  221 120.903 17.4287 -21.1950
  222 120.792 17.5133 21.4082
  223 -25.8540 -0.0677040 22.2476
  224 -25.8958 -0.0711931 -22.2794
  225 311.035 1.71232 -10.7914
  226 311.113 1.68587 10.7793
  227 334.926 -4.95101 -21.3457
  228 335.189 -5.28627 21.2596
  229 535.405 40.6823 0.0324775
  230 491.202 54.9165 28.1222
  231 483.723 -3.58677 -42.3860
  232 59.7608 13.1993 5.38392
  233 59.7057 13.2165 -5.37311
  234 4.46943 10.9207 21.9078
  235 4.36824 10.9530 -21.9377
  236 374.155 -22.6251 -14.5546
  237 371.991 -22.8993 15.7654
  238 207.219 1.73176 -2.83408
  239 207.249 1.72810 2.83510
  240 -45.7277 3.24331 14.6479
  241 -45.8079 3.25027 -14.6669
  242 -6.32101 -6.21861 -10.3018
  243 -6.31509 -6.21445 10.3079
  244 -50.5123 1.21005 4.56447
  245 -50.5986 1.21108 -4.56711
  246 170.710 12.6387 -13.3267
  247 170.742 12.6105 13.3770
  248 217.005 6.46934 -29.8398
  249 217.174 6.35725 29.9690
  250 52.8608 3.30200 -0.258312
  251 52.9014 3.30203 0.259056
  252 125.632 2.19936 -103.874
  253 148.587 5.70727 113.128
  254 17.1503 7.91163 20.7521
  255 17.0742 8.08167 -20.8407
  256 508.208 -38.3575 -10.9962
  257 44.7490 16.7218 8.99937
  258 44.6617 16.7618 -8.99341
  259 123.240 13.3192 -39.2735
  260 123.004 13.6469 39.6953
  261 568.385 80.3949 -3.90803
  262 337.309 0.103400 14.6038
  263 337.194 0.204779 -14.6535
  264 -3.04093 -18.8149 -16.1376
  265 -2.95220 -18.8895 16.2010
  266 -0.644682 -44.6279 -22.1500
  267 1.53512 -52.0017 -20.3274
  268 0.821150 -52.0785 21.3296
  269 -8.33614 -7.21942 29.3303
  270 -8.37231 -7.20834 -29.4472
  271 18.2328 -40.7417 -8.05569
  272 19.6209 -37.4659 11.1320
  273 -19.4296 -1.62600 14.1677
  274 -19.4407 -1.63343 -14.1810
  275 240.317 6.55432 -12.3344
  276 240.383 6.51680 12.3409
  277 420.232 -43.1265 -3.94364
  278 93.4870 7.85413 -0.0824241
  279 93.5104 7.85371 0.0883156
  280 -1.08716 -41.8858 21.1790
  281 9.44472 8.58857 9.92564
  282 9.37419 8.60130 -9.93016
  283 667.327 46.4336 -18.3579
  284 327.042 0.132100 4.49651
  285 326.959 0.137844 -4.49911
  286 220.178 -10.2903 -78.4032
  287 222.092 -10.1139 79.5933
  288 419.693 -40.8952 -2.92022
  289 -39.6447 1.24229 17.5651
  290 -39.6964 1.24257 -17.5912
  291 410.673 -32.4176 127.881
  292 -17.4859 3.01309 26.5796
  293 -17.5533 3.00939 -26.6253
  294 70.0485 19.2320 -5.75440
  295 69.7773 19.4138 5.83568
  296 -72.2008 0.559352 0.810931
  297 -72.2962 0.559236 -0.811282
  298 346.216 8.15676 -173.978
  299 -67.8693 1.36372 -7.88458
  300 -67.7795 1.36103 7.87587
  301 -1.83095 -8.43626 29.8497
  302 -0.797959 -8.21370 -29.5379
  303 153.018 15.4876 -19.2605
  304 153.028 15.4804 19.3844
  305 33.8485 3.88489 3.26046
  306 33.7984 3.88596 -3.26044
  307 159.172 6.00731 -4.01680
  308 159.182 6.00097 4.02230
  309 15.1474 -10.9257 15.2438
  310 13.8068 -13.1670 -15.4409
  311 154.508 2.62652 -0.996909
  312 154.514 2.62475 0.997703
  313 -55.8431 1.45726 12.8606
  314 -55.9107 1.45951 -12.8798
  315 38.8641 -3.16269 -10.0405
  316 37.7112 -3.21410 9.01581
  317 340.931 -0.366723 1.25631
  318 340.839 -0.365897 -1.25587
  319 743.413 42.2563 29.6681
  320 77.8033 10.2422 1.94064
  321 77.7680 10.2473 -1.93111
  322 -15.7486 3.70013 6.25376
  323 -15.8220 3.70395 -6.25706
  324 106.858 14.3325 -2.91995
  325 106.831 14.3393 2.95256
  326 12.7937 11.1681 22.6936
  327 12.7098 11.1936 -22.7481
  328 1.61456 -75.1681 14.8972
  329 -74.8257 0.128745 -1.85809
  330 -74.7292 0.128930 1.85717
  331 260.691 0.592335 -2.39997
  332 260.745 0.590280 2.40033
  333 274.505 1.72603 -6.36422
  334 274.567 1.71533 6.36271
  335 -69.7993 1.17991 -5.70874
  336 -69.7057 1.17842 5.70434
  337 -0.633410 1.27171 0.685530
  338 -0.697330 1.27144 -0.685669
  339 -1.56575 -31.0233 16.0981
  340 -1.24407 -32.2684 -16.0762
  341 309.394 -25.5457 -53.0260
  342 321.302 -30.5511 52.0604
  343 184.008 8.80512 -8.26233
  344 184.036 8.78729 8.27595
  345 81.4097 19.0109 -3.21233
  346 81.2740 19.0954 3.27667
  347 -27.9015 5.44079 12.8912
  348 -27.9824 5.45092 -12.9047
  349 574.102 12.2047 16.2780
  350 30.6970 -43.1025 -34.9157
  351 32.8276 -40.0214 36.5262
  352 -11.7569 8.82447 20.6931
  353 -11.8440 8.84435 -20.7217
  354 -15.7920 -3.14922 25.9971
  355 -15.8323 -3.15670 -26.0428
  356 650.766 109.633 -32.1256
  357 419.168 -5.67903 52.4647
  358 390.521 -9.26249 -9.75367
  359 390.187 -9.04687 9.13110
  360 274.290 -3.29656 -33.8013
  361 273.974 -3.56736 33.8163
  362 0.516136 -90.5542 -12.0114
  363 357.296 0.745813 -8.17773
  364 357.378 0.717377 8.15071
  365 4.67966 -85.0013 9.25303
  366 415.429 32.5355 -28.0276
  367 101.892 3.33563 1.16986
  368 101.874 3.33507 -1.16994
  369 275.780 1.87105 -25.0953
  370 275.961 1.73088 25.1264
  371 296.877 2.26086 -15.1790
  372 296.969 2.19874 15.1630
  373 -4.86743 3.23121 4.18313
  374 -4.93486 3.23305 -4.18449
  375 171.013 9.47471 -40.2401
  376 171.059 9.58033 40.6038
  377 351.328 -0.264913 2.05615
  378 351.232 -0.263442 -2.05615
  379 199.934 10.7908 -20.3539
  380 200.012 10.7260 20.4293
  381 230.583 3.40505 5.21694
  382 230.541 3.41187 -5.21578
  383 -11.0014 -1.97958 8.75091
  384 -11.0008 -1.98476 -8.75119
  385 -2.61871 -1.86012 -2.55364
  386 -2.61992 -1.86105 2.55757
  387 468.787 -57.8741 34.4246
  388 -6.08792 -14.6858 23.8045
  389 -6.04682 -14.8119 -23.8070
  390 77.0735 4.84738 -1.34757
  391 77.1038 4.84751 1.34976
  392 -2.32719 -11.6769 8.78930
  393 -2.35368 -11.6582 -8.79055
  394 29.9726 13.2375 10.7750
  395 29.8972 13.2623 -10.7761
  396 383.204 -1.73671 10.8216
  397 383.090 -1.59749 -11.0064
  398 -0.871277 -22.5826 28.5264
  399 -31.4663 -0.563687 13.3987
  400 -31.4893 -0.566489 -13.4158
  401 -0.992847 -23.8622 -28.2068
  402 359.538 0.0102817 5.21002
  403 359.446 0.0186879 -5.21800
  404 -3.05066 8.04765 26.0508
  405 -3.16861 8.07292 -26.0991
  406 266.304 3.76602 -10.1271
  407 266.367 3.74304 10.1244
  408 409.012 -17.5121 -8.49737
  409 410.262 -14.1566 6.35831
  410 -0.824784 -42.2494 -17.6299
  411 37.1558 13.8618 -7.24734
  412 37.4618 13.7101 7.20719
  413 408.575 26.6586 17.4644
  414 232.211 -11.8072 -108.314
  415 238.349 -16.1077 113.332
  416 14.2914 12.6464 16.7038
  417 14.2013 12.6770 -16.7188
  418 171.138 4.48564 -2.74890
  419 171.152 4.48184 2.75109
  420 166.291 29.3193 172.113
  421 69.2677 16.0342 -3.72767
  422 69.3335 16.0050 3.74940
  423 4.32446 -39.7884 19.0114
  424 -0.511895 -68.6282 -15.2689
  425 27.6936 15.5592 15.4359
  426 27.5881 15.6053 -15.4550
  427 34.2441 8.89576 -6.48695
  428 34.3014 8.88680 6.48845
  429 -11.3980 -0.489896 -29.2304
  430 -11.3316 -0.506056 29.1809
  431 82.7288 16.3870 -16.4306
  432 82.3761 16.6337 16.6043
  433 411.364 -13.0807 -39.6916
  434 11.8150 -3.77325 22.2859
  435 11.4291 -3.66953 -22.4267
  436 299.581 -12.8773 -37.3453
  437 300.820 -13.7825 37.2908
  438 -74.3898 0.586632 -7.72082
  439 -74.3049 0.584768 7.71051
  440 0.00165794 -67.4482 13.7522
  441 -0.480501 -42.8615 15.7006
  442 -30.2144 1.98798 22.4699
  443 -30.2694 1.98720 -22.5043
  444 214.730 1.61933 -1.03223
  445 214.763 1.61745 1.03238
  446 -6.41533 -10.1337 16.2076
  447 -6.42628 -10.1572 -16.1909
  448 134.366 7.33416 -58.4530
  449 134.099 7.93944 59.1124
  450 1.11784 -81.4527 -15.0410
  451 742.076 26.0649 0.511675
  452 2.08613 -95.8903 -8.44581
  453 -87.6495 -0.0428879 -2.77259
  454 -87.5476 -0.0428747 2.77099
  455 -33.5223 4.78423 18.2570
  456 -33.6017 4.79444 -18.2834
  457 -39.5289 0.568148 13.4439
  458 -39.5636 0.567988 -13.4621
  459 146.844 14.9211 -13.1489
  460 146.849 14.9189 13.2245
  461 221.586 8.56493 -15.7440
  462 221.661 8.50983 15.7729
  463 -3.67225 -13.6599 29.5071
  464 -3.67753 -13.5699 -29.6314
  465 385.186 6.88100 -50.0672
  466 26.5532 -6.11756 -3.71755
  467 25.6292 -6.34112 4.19188
  468 6.17025 -85.8572 -1.58345
  469 3.96807 -99.9103 -1.26966
  470 -11.6759 -5.21172 16.6793
  471 -11.6814 -5.23074 -16.6868
  472 82.1153 -4.82867 -90.0408
  473 586.755 2.44523 -59.8216
  474 133.753 8.39754 3.83506
  475 133.755 8.40263 -3.82410
  476 194.206 2.16260 -56.1491
  477 194.637 2.10461 56.9857
  478 57.3947 19.7889 5.58644
  479 57.2850 19.8544 -5.57126
  480 175.404 12.9551 -29.6595
  481 175.477 12.8917 29.8762
  482 6.64955 3.68023 26.4859
  483 7.03677 3.87523 -26.4544
  484 -77.7899 1.12686 -5.65979
  485 -77.6945 1.12555 5.65445
  486 384.909 -44.6721 -30.5006
  487 305.472 -0.0231806 -1.72220
  488 305.547 -0.0242021 1.72270
  489 17.1311 2.02787 -1.73454
  490 17.1875 2.02785 1.73435
  491 -19.1771 7.09198 16.9585
  492 -19.2600 7.10711 -16.9789
  493 -43.7509 2.65296 -6.11459
  494 -43.6670 2.65017 6.11041
  495 133.783 12.7981 -5.96321
  496 133.781 12.7927 5.99249
  497 -15.6303 6.16174 23.9942
  498 -15.7156 6.17652 -24.0355
  499 352.363 -10.0468 -20.0011
  500 352.959 -10.5402 19.7296
  501 231.603 2.39190 -37.4087
  502 231.254 2.23222 37.7277
  503 86.6847 3.82023 -0.744125
  504 86.7101 3.82086 0.744978
  505 0.964965 -41.6095 -24.1094
  506 413.282 -14.8155 32.5394
  507 5.77487 -27.1416 -21.6344
  508 118.042 18.7246 13.5143
  509 118.116 18.6710 -13.3894
  510 380.712 -41.7968 30.1396
  511 29.3846 -36.4923 47.7443
  512 452.887 -57.2791 -59.7952
  513 308.827 1.03903 18.2870
  514 308.691 1.15948 -18.3076
  515 0.921491 -35.5612 25.0887
  516 -6.05015 -1.80157 -4.68580
  517 -6.05284 -1.80066 4.68920
  518 38.5890 1.85669 -0.497119
  519 38.6356 1.85711 0.497158
  520 -1.04004 -23.9862 10.3521
  521 -0.943628 -23.8749 -10.4057
  522 254.508 2.34106 4.11004
  523 254.457 2.34466 -4.10963
  524 714.410 127.279 55.1706
  525 30.0342 -17.3631 -10.0140
  526 23.3930 -23.7226 5.12315
  527 -6.48940 5.37628 -8.32985
  528 -6.41716 5.36906 8.32504
  529 -61.8156 0.975195 8.05302
  530 -61.8723 0.976289 -8.06460
  531 0.623041 -76.4402 15.0275
  532 -86.0432 0.723287 0.754356
  533 -86.1448 0.723337 -0.754708
  534 79.2771 -4.02482 -66.3843
  535 77.5359 -2.72034 68.9197
  536 72.6411 13.0948 -23.2105
  537 72.0940 13.4189 23.3622
  538 -16.5641 -3.44311 22.7714
  539 -16.5901 -3.45788 -22.8051
  540 71.6241 6.22357 1.38202
  541 71.5903 6.22464 -1.37862
  542 -35.6643 1.62806 2.57735
  543 -35.7441 1.62866 -2.57856
  544 84.3068 12.0863 1.29820
  545 84.2701 12.0952 -1.28174
  546 -1.67340 -5.45607 4.00768
  547 -1.67919 -5.45125 -4.00692
  548 30.8232 13.3155 13.6911
  549 30.6185 13.5003 -13.7612
  550 24.8980 4.33201 11.9587
  551 24.5460 4.29949 -12.1656
  552 312.332 1.97549 7.69678
  553 312.255 1.98704 -7.70151
  554 276.652 3.43298 12.3270
  555 276.578 3.46998 -12.3329
  556 -0.283737 -64.8848 -9.55102
  557 194.217 9.50265 -12.1212
  558 194.260 9.47326 12.1456
  559 194.644 4.26011 -4.59042
  560 194.671 4.25223 4.59387
  561 -25.4117 0.861115 0.0222025
  562 -25.3370 0.861410 -0.0221458
  563 334.455 17.9403 -9.64040
  564 434.311 -54.4908 -22.4172
  565 359.042 16.6867 37.8174
  566 2.97611 -54.9043 -17.4718
  567 -18.3879 6.02864 -11.0854
  568 -18.3098 6.01936 11.0765
  569 3.15579 -31.7681 23.5987
  570 -19.0368 0.605477 26.0143
  571 -19.0901 0.602586 -26.0537
  572 554.714 53.2298 0.802571
  573 127.109 5.64790 -1.80026
  574 127.103 5.64499 1.80453
  575 835.811 71.2231 -73.7625
  576 -3.91160 -3.03382 30.2720
  577 -3.62400 -2.81180 -30.2958
  578 458.936 -40.2925 17.0669
  579 369.106 0.192837 -9.08859
  580 369.183 0.145580 9.03856
  581 170.729 0.332204 -81.4011
  582 172.737 -0.189547 82.6563
  583 -9.38464 -9.00006 26.3417
  584 -9.39425 -9.04742 -26.4116
  585 89.9302 8.35206 43.5402
  586 90.6836 7.68513 -43.1862
  587 -72.2324 0.827143 -7.54648
  588 -72.1545 0.825783 7.53590
  589 540.890 47.1442 29.2789
  590 104.023 9.31995 0.776232
  591 104.042 9.31980 -0.766605
  592 122.671 15.2750 -29.9459
  593 122.502 15.4597 30.2624
  594 334.324 -0.903471 -17.8795
  595 334.498 -1.06907 17.8338
  596 -1.46304 -33.7168 -23.6843
  597 362.971 -0.531236 2.72796
  598 362.870 -0.529164 -2.72849
  599 -51.8555 0.983782 -0.985538
  600 -51.7690 0.983753 0.985115
  601 -92.3183 -0.678542 0.0148059
  602 -92.4226 -0.679073 -0.0148285
  603 7.91452 -50.0696 -7.77048
  604 -3.38035 -21.9332 20.3438
  605 -3.56542 -20.7447 -20.4798
  606 -41.0132 2.55653 18.6962
  607 -41.0766 2.56023 -18.7245
  608 254.726 5.97860 15.5885
  609 254.644 6.03573 -15.5828
  610 187.782 2.15675 1.07789
  611 187.762 2.15817 -1.07747
  612 42.8588 -10.6141 27.8875
  613 44.2099 -9.70507 -27.6355
  614 -1.30170 -16.7319 8.74915
  615 -1.34213 -16.6791 -8.77891
  616 434.905 32.3830 185.710
  617 -21.5649 -0.658403 8.10090
  618 -21.5666 -0.661500 -8.10770
  619 7.90710 -30.2698 -17.2652
  620 183.817 7.01355 -6.31502
  621 183.841 7.00202 6.32268
  622 90.5778 19.0735 -10.1855
  623 90.4013 19.1912 10.3069
  624 0.879351 -114.849 5.82317
  625 68.1243 18.5318 3.09491
  626 68.0424 18.5770 -3.06875
  627 -6.50961 7.57590 13.3329
  628 -6.58778 7.58962 -13.3441
  629 -0.518830 -57.1670 13.0383
  630 -92.3129 0.0726981 -2.77041
  631 -92.2093 0.0725308 2.76855
  632 121.319 2.96644 0.544086
  633 121.329 2.96828 -0.542728
  634 304.387 0.677082 5.11626
  635 304.313 0.682738 -5.11735
  636 269.296 -17.3457 141.897
  637 216.627 5.13274 -9.50892
  638 216.671 5.11090 9.51675
  639 3.73959 -4.23784 27.8720
  640 4.54517 -2.32632 -27.8074
  641 345.747 -33.6253 -115.017
  642 810.656 27.7514 -30.6643
  643 -85.1940 0.0570920 -5.20301
  644 -85.1018 0.0562484 5.19690
  645 21.4740 4.42662 -3.85090
  646 21.5303 4.42426 3.85067
  647 -1.59126 -35.8004 20.9418
  648 468.342 28.3661 -45.9394
  649 358.884 -0.706380 0.476860
  650 358.783 -0.705790 -0.476574
  651 -23.0532 -1.23643 -18.7937
  652 -23.0281 -1.23044 18.7696
  653 -0.0710196 -81.1621 -12.4841
  654 365.036 -0.716237 1.04982
  655 364.931 -0.715533 -1.04936
  656 34.4174 11.4574 9.07315
  657 34.3517 11.4742 -9.07156
  658 279.652 -23.8468 -75.6358
  659 284.653 -23.7434 76.4630
  660 407.061 -2.67213 6.28231
  661 407.126 -2.64551 -6.54089
  662 1.79194 -102.093 9.66486
  663 -21.3039 0.631129 -1.49176
  664 -21.2309 0.631454 1.49126
  665 134.061 15.9568 -135.145
  666 126.182 2.61529 1.02051
  667 126.189 2.61631 -1.01983
  668 62.6159 4.41006 0.566588
  669 62.5793 4.41027 -0.565138
  670 74.2613 7.88814 -0.916342
  671 74.2954 7.88577 0.922612
  672 238.870 6.50813 -24.1148
  673 239.011 6.40118 24.1766
  674 63.8953 18.5274 0.161899
  675 63.7037 18.6568 -0.130960
  676 -42.4795 3.16925 -10.5403
  677 -42.3958 3.16313 10.5299
  678 -49.6145 3.42307 -12.0383
  679 -49.5311 3.41686 12.0239
  680 418.591 -6.38917 -1.04020
  681 0.580438 -16.6835 -28.5836
  682 419.185 -6.70129 0.465097
  683 533.330 41.6328 -1.25434
  684 -52.4500 0.249073 9.17000
  685 -52.4938 0.248930 -9.18327
  686 55.5777 16.1146 -3.78191
  687 55.1819 16.3112 3.82429
  688 -99.1232 0.0587818 -0.976211
  689 -99.0161 0.0588604 0.975635
  690 0.916738 -14.9865 28.6204
  691 -32.7311 0.474307 19.7391
  692 -32.7767 0.472672 -19.7677
  693 459.679 -37.7174 -18.8165
  694 73.5217 1.66304 -0.535372
  695 73.4906 1.66221 0.535898
  696 17.5408 6.63394 6.50491
  697 17.4793 6.64013 -6.50572
  698 243.904 -10.9014 -63.3341
  699 245.721 -11.3302 64.5487
  700 844.555 60.0154 67.0606
  701 16.5906 -75.4805 -28.7214
  702 -6.02457 -12.7366 28.1475
  703 -6.03415 -12.7887 -28.2126
  704 52.0837 11.2861 -4.77011
  705 52.1354 11.2750 4.77674
  706 375.234 -0.609033 -2.77634
  707 375.339 -0.611444 2.77426
  708 179.538 2.81143 1.92757
  709 179.521 2.81456 -1.92641
  710 15.3952 13.2456 20.1983
  711 15.2945 13.2858 -20.2297
  712 10.1002 3.25566 2.70713
  713 10.0403 3.25662 -2.70765
  714 -10.3216 2.64411 28.6277
  715 -10.4001 2.64280 -28.6866
  716 308.770 -0.408944 2.16100
  717 308.694 -0.406984 -2.16085
  718 267.552 2.11912 5.84598
  719 267.494 2.12575 -5.84604
  720 36.4099 -21.9808 33.4069
  721 37.4551 -23.6510 -32.3152
  722 -20.4435 4.55901 24.9615
  723 -20.5185 4.56449 -25.0050
  724 11.3221 -24.8465 13.4340
  725 1.29244 8.10593 26.2369
  726 1.16882 8.12763 -26.2698
  727 -58.5885 1.66355 -6.98821
  728 -58.4995 1.66098 6.98191
  729 47.4935 14.9857 8.30549
  730 47.4177 15.0148 -8.29674
  731 414.247 -12.4929 -22.0183
  732 392.291 -34.0393 -10.5056
  733 -6.30181 -12.8991 20.0141
  734 -6.29417 -12.9608 -19.9896
  735 153.116 0.248119 -96.0435
  736 149.155 3.49259 96.9372
  737 93.4913 17.8333 -15.4172
  738 93.2551 18.0085 15.5939
  739 8.26812 -14.5330 22.6932
  740 -0.560034 -42.3753 -11.3590
  741 194.450 10.4993 -22.6896
  742 194.542 10.4369 22.8027
  743 0.496739 -83.2055 10.4952
  744 116.313 15.8390 -6.36391
  745 116.286 15.8485 6.41438
  746 394.304 -0.453631 -6.87994
  747 394.342 -0.501526 6.78977
  748 7.87076 -111.055 2.99742
  749 179.049 13.1203 17.1939
  750 179.001 13.1569 -17.1232
  751 48.8634 17.1931 -4.46072
  752 49.1147 17.0204 4.44194
  753 -71.2219 0.469782 -6.37990
  754 -71.1544 0.469189 6.37025
  755 198.363 3.17527 -4.00081
  756 198.390 3.17023 4.00280
  757 122.899 17.5099 -11.3843
  758 122.857 17.5351 11.4766
  759 1.41248 10.7001 20.2000
  760 1.31973 10.7281 -20.2250
  761 393.476 -29.1351 5.70101
  762 -60.4619 1.29755 5.30948
  763 -60.5522 1.29873 -5.31285
  764 843.438 166.510 -118.257
  765 -22.3220 2.30889 5.52292
  766 -22.3970 2.31072 -5.52556
  767 334.444 0.770008 12.6872
  768 334.353 0.828286 -12.7228
  769 621.291 38.6613 0.165721
  770 378.126 -1.15248 -5.22942
  771 378.219 -1.16135 5.21812
  772 242.533 3.28906 7.36981
  773 242.484 3.30029 -7.36875
  774 362.540 -40.1283 104.856
  775 158.111 11.3318 -6.60820
  776 158.126 11.3195 6.62906
  777 3.66018 -62.2811 12.5932
  778 415.699 -51.6642 35.0466
  779 252.520 0.455924 1.25752
  780 252.470 0.457424 -1.25725
  781 330.318 -0.0133010 0.668948
  782 330.230 -0.0127962 -0.668686
  783 -1.47286 -33.4062 -19.6039
  784 2.05062 -56.6462 18.8766
  785 149.976 16.5506 23.8833
  786 149.979 16.5408 -23.6959
  787 834.955 8.06865 7.36451
  788 257.164 2.07691 -30.0328
  789 257.348 1.94868 30.1101
  790 -52.8464 1.75158 13.9570
  791 -52.9224 1.75588 -13.9762
  792 11.0654 -45.1340 3.41026
  793 7.14224 -103.386 -7.98955
  794 584.725 75.9693 -10.8012
  795 -0.509185 -42.2611 10.2543
  796 12.3229 8.68371 23.4484
  797 12.2817 8.67967 -23.5610
  798 79.1182 15.3460 1.82110
  799 79.0691 15.3662 -1.79882
  800 390.289 -17.9108 -6.59471
  801 391.078 -17.6914 5.29637
  802 457.898 70.7597 -175.999
  803 -62.1653 0.643877 -2.38192
  804 -62.0743 0.643617 2.38056
  805 -29.5840 -0.117023 7.62564
  806 -29.5925 -0.118346 -7.63420
  807 28.7807 2.64265 6.60020
  808 28.1751 2.61129 -6.66345
  809 296.393 -1.77937 27.0135
  810 296.171 -1.53340 -26.9522
  811 151.521 3.76557 -1.13319
  812 151.526 3.76296 1.13475
  813 477.613 -6.45214 42.0450
  814 51.2649 7.92880 -4.27183
  815 51.3119 7.92367 4.27572
  816 47.4894 6.80246 -8.52841
  817 47.0626 7.02401 8.63764
  818 -0.100319 -32.8469 -26.2204
  819 672.440 106.566 97.9852
  820 -97.0989 0.0929916 -2.77279
  821 -96.9944 0.0928267 2.77046
  822 -0.144232 -101.220 9.84363
  823 7.34096 -14.3728 -22.9724
  824 -14.7199 -0.896518 5.68459
  825 -14.7142 -0.898854 -5.68659
  826 539.057 32.5223 -28.2340
  827 141.257 13.7499 -8.32393
  828 141.258 13.7440 8.36936
  829 370.096 -5.53233 -13.6296
  830 370.436 -5.58825 13.4323
  831 -92.9161 0.693677 3.71043
  832 -93.0155 0.694514 -3.71439
  833 -0.669175 -0.692593 -0.571168
  834 -0.670530 -0.693838 0.573442
  835 0.299381 -103.508 -9.60489
  836 0.474135 -108.643 -8.61260
  837 -102.059 0.965125 0.541150
  838 -102.168 0.965355 -0.541381
  839 57.0235 -15.2225 -63.7058
  840 229.851 2.53852 -2.18405
  841 229.891 2.53623 2.18440
  842 -6.38069 1.74581 0.697075
  843 -6.44709 1.74574 -0.697314
  844 340.580 0.765111 -8.40140
  845 340.664 0.745438 8.38611
  846 -38.8736 0.263102 7.24644
  847 -38.8925 0.263123 -7.25547
  848 207.173 4.14408 -143.666
  849 356.462 -30.2850 29.7086
  850 279.400 1.03379 -2.67342
  851 279.462 1.03160 2.67351
  852 353.262 -32.9231 -33.1149
  853 111.092 12.1060 -2.62500
  854 111.073 12.1069 2.64783
  855 153.044 9.75396 -5.06040
  856 153.054 9.74516 5.07389
  857 414.129 -8.81443 16.8240
  858 26.0151 15.0512 16.5014
  859 25.9011 15.1078 -16.5426
  860 27.1405 1.65998 1.24900
  861 27.0886 1.65961 -1.24913
  862 195.698 2.24553 1.85865
  863 195.674 2.24783 -1.85793
  864 510.064 -45.4942 59.1119
  865 319.828 1.62780 -11.0332
  866 319.913 1.59108 11.0126
  867 5.61865 4.72477 5.13776
  868 5.55451 4.72822 -5.13907
  869 320.424 -0.514793 3.12865
  870 320.343 -0.512303 -3.12869
  871 -58.6069 0.297032 -1.56825
  872 -58.5175 0.297377 1.56760
  873 -0.277832 -32.3647 9.14960
  874 -0.366306 -32.8710 -9.21911
  875 385.933 -5.20761 40.5393
  876 -22.8990 5.95344 21.0037
  877 -22.9802 5.96713 -21.0354
  878 -0.128760 -53.2748 -10.0954
  879 153.010 5.39812 -2.62210
  880 153.016 5.39454 2.62540
  881 280.981 -14.0819 -48.3707
  882 283.132 -15.5717 48.8415
  883 -11.9022 -4.13336 -28.2559
  884 -11.8484 -4.13322 28.1958
  885 15.9396 13.3113 18.5151
  886 15.8422 13.3478 -18.5359
  887 1.33538 -121.243 6.76170
  888 4.38636 10.4738 23.9271
  889 4.28004 10.5016 -23.9608
  890 259.558 -4.65274 -43.0201
  891 258.988 -4.85352 43.3619
  892 448.439 25.2917 47.8616
  893 103.566 11.2565 1.25178
  894 103.588 11.2553 -1.23671
  895 328.103 1.82319 -8.24888
  896 328.184 1.80801 8.23993
  897 -12.7852 -5.54549 24.8603
  898 -12.8102 -5.56741 -24.9062
  899 1.14984 -124.643 -4.33852
  900 -19.6684 -1.27891 24.3605
  901 -19.7081 -1.28285 -24.3973
  902 13.2580 11.9604 -14.4881
  903 13.3402 11.9352 14.4774
  904 -1.00915 -8.14971 4.50881
  905 -1.02059 -8.14156 -4.51557
  906 28.7754 13.4810 -12.8732
  907 28.8608 13.4497 12.8687
  908 6.23026 -9.48529 25.6990
  909 5.43640 -8.82457 -27.0469
  910 319.028 -9.18807 27.5719
  911 318.273 -8.75739 -27.7194
  912 -104.180 0.278167 -0.795009
  913 -104.071 0.278185 0.794627
  914 -9.05415 -0.814030 4.27848
  915 -9.04612 -0.815461 -4.27731
  916 0.430058 -75.7127 -9.19603
  917 -9.70716 -4.15950 -12.1695
  918 -9.70344 -4.14905 12.1701
  919 -40.6415 3.46405 17.9342
  920 -40.7149 3.47106 -17.9610
  921 100.116 19.0550 -6.56600
  922 100.038 19.1112 6.64020
  923 425.335 33.3385 -7.21875
  924 -4.25690 9.50331 18.3549
  925 -4.34337 9.52502 -18.3758
  926 157.778 10.0758 -45.2477
  927 157.783 10.2199 45.7437
  928 -18.1085 6.59966 14.7791
  929 -18.1896 6.61358 -14.7952
  930 512.376 -24.0579 -7.31890
  931 312.137 12.4241 20.7578
  932 374.012 -4.56838 -36.6628
  933 279.194 3.50267 -18.2971
  934 279.306 3.41625 18.2962
  935 -28.8203 3.90727 -7.19904
  936 -28.7416 3.90251 7.19395
  937 -66.1657 1.18558 8.92249
  938 -66.2515 1.18837 -8.93380
  939 -4.00198 -12.9520 -14.1202
  940 -3.97371 -12.9626 14.1455
  941 99.5156 6.20928 0.702401
  942 99.5353 6.21004 -0.698146
  943 -30.8881 3.25476 22.2832
  944 -30.9523 3.25728 -22.3192
  945 334.145 -0.309069 4.09520
  946 334.058 -0.306089 -4.09568
  947 -2.50580 -28.4114 21.3356
  948 13.1202 10.9521 -12.4202
  949 13.1962 10.9328 12.4132
  950 17.9298 7.55147 8.09845
  951 17.8653 7.56062 -8.10030
  952 58.3579 5.21210 -1.89517
  953 58.3971 5.21097 1.89671
  954 627.570 80.8142 -18.6045
  955 -2.49410 -0.684194 -1.69706
  956 -2.49946 -0.684145 1.70015
  957 21.9460 6.36061 -15.5241
  958 22.3164 6.18531 15.4556
  959 225.646 8.80158 -19.3180
  960 225.740 8.72894 19.3618
  961 29.5638 9.53314 -7.68305
  962 29.6261 9.52156 7.68362
  963 61.8505 -12.1687 84.4490
  964 423.107 -3.06990 -3.56272
  965 422.510 -2.95523 3.17441
  966 75.5797 -6.11285 73.8039
  967 79.5010 3.23830 -0.298224
  968 79.4725 3.23787 0.299011
  969 205.756 -6.08997 -124.251
  970 155.256 2.43366 1.01160
  971 155.251 2.43483 -1.01106
  972 19.8817 -19.7130 3.74671
  973 21.9703 -16.4524 -2.09148
  974 374.590 -0.443264 1.40910
  975 374.481 -0.442602 -1.40857
  976 -30.7780 0.112284 17.9542
  977 -30.8118 0.110429 -17.9779
  978 672.014 84.3026 38.9016
  979 -2.82433 -21.1951 -28.0716
  980 3.42179 -104.707 12.5902
  981 -0.462951 -33.6955 25.8757
  982 387.402 -0.357882 -5.33613
  983 387.485 -0.370920 5.31503
  984 -5.12015 -9.37682 12.2033
  985 -5.13427 -9.37743 -12.1914
  986 484.760 50.7652 -25.9621
  987 846.876 7.23895 -4.93861
  988 -1.26306 -1.90874 -1.84702
  989 -1.26167 -1.91278 1.84970
  990 225.760 2.37067 -4.19255
  991 225.799 2.36635 4.19358
  992 -2.89373 -20.3632 28.2103
  993 313.784 1.22565 16.3003
  994 313.678 1.31274 -16.3270
  995 412.291 -27.2177 -16.1325
  996 -14.3804 -2.99696 13.7552
  997 -14.3861 -3.00825 -13.7626
  998 6.88577 -26.5228 19.8365
  999 -0.651669 -50.8848 20.3129
  1000 -0.0602475 -52.8607 10.0818
  1001 423.759 27.5160 -2.47723
  1002 483.998 53.1066 14.4754
  1003 346.144 -39.4608 -58.1145
  1004 5.01776 -49.4153 15.9808
  1005 6.34516 -70.9586 3.25307
  1006 96.6813 2.18215 0.260039
  1007 96.6605 2.18134 -0.259962
  1008 -3.83641 -4.37384 -5.83037
  1009 -3.83303 -4.37470 5.83495
  1010 3.35985 -40.6047 -21.4853
  1011 278.969 0.151958 -0.981580
  1012 279.031 0.150744 0.981707
  1013 56.3277 0.319301 -27.8285
  1014 53.9054 0.449483 27.5618
  1015 -4.73191 8.64113 24.1957
  1016 -4.83296 8.66568 -24.2368
  1017 -32.4040 5.01469 -15.0324
  1018 -32.3223 5.00447 15.0144
  1019 213.356 3.45003 -44.1417
  1020 213.476 3.63497 44.6192
  1021 153.761 13.5354 -30.9692
  1022 153.742 13.5357 31.2590
  1023 166.764 11.8336 -10.4682
  1024 166.787 11.8123 10.5003
  1025 432.157 -11.6198 -47.2441
  1026 -11.0943 5.35491 26.6182
  1027 -11.1847 5.36371 -26.6743
  1028 305.933 -0.520428 22.3113
  1029 305.760 -0.334984 -22.3163
  1030 -1.91951 -15.8595 29.4146
  1031 -24.6788 -0.814780 13.2662
  1032 -24.6925 -0.818866 -13.2808
  1033 278.843 2.35271 -22.1939
  1034 278.987 2.23032 22.2039
  1035 346.125 8.42461 -33.9632
  1036 -0.391480 -50.5886 -21.3125
  1037 -4.07542 -19.9135 25.2911
  1038 -4.24699 -20.1534 -25.0799
  1039 196.908 11.2814 -15.9766
  1040 196.969 11.2344 16.0260
  1041 248.187 4.31735 9.12141
  1042 248.133 4.33453 -9.12063
  1043 411.444 -26.5859 13.9868
  1044 21.0921 1.90566 -0.342077
  1045 21.1464 1.90587 0.342021
  1046 349.999 -44.1364 62.0021
  1047 -1.24228 1.28877 1.71326
  1048 -1.30663 1.28857 -1.71373
  1049 76.0776 19.1967 -0.0626797
  1050 75.9750 19.2603 0.105132
  1051 29.1535 15.1370 14.1292
  1052 29.0587 15.1759 -14.1386
  1053 3.87409 -61.5659 -13.1164
  1054 101.772 3.62560 0.239112
  1055 101.790 3.62715 -0.236788
  1056 304.275 9.93845 8.55796
  1057 281.613 1.91355 8.47255
  1058 281.548 1.92940 -8.47558
  1059 -1.62729 -16.4772 -29.4659
  1060 423.426 -5.43550 -8.47765
  1061 0.154566 -1.28636 29.1715
  1062 0.472843 -1.04705 -29.0354
  1063 385.125 -0.752728 -2.94995
  1064 385.230 -0.755728 2.94586
  1065 410.350 -1.47531 -5.18455
  1066 410.282 -1.52751 5.04863
  1067 -0.311465 -80.0725 7.57973
  1068 241.314 5.89561 -12.0681
  1069 241.371 5.86691 12.0718
  1070 293.405 2.44627 9.86337
  1071 293.333 2.46689 -9.86965
  1072 6.89442 7.04555 26.1612
  1073 6.85569 7.04817 -26.1903
  1074 637.057 42.1399 6.80005
  1075 -8.01229 -3.43789 30.0649
  1076 -8.13662 -3.36319 -30.1411
  1077 91.6257 17.7569 -1.34463
  1078 91.5759 17.7834 1.38198
  1079 -50.3887 0.897340 -2.63136
  1080 -50.3028 0.897209 2.63013
  1081 150.346 8.78104 -52.0929
  1082 150.140 9.20042 52.7146
  1083 43.5180 17.0925 10.7495
  1084 43.4145 17.1416 -10.7495
  1085 102.237 12.0063 -38.5472
  1086 101.714 12.5105 38.8758
  1087 -2.67784 -26.6841 -20.7919
  1088 360.209 5.01883 44.6822
  1089 251.911 1.96572 161.124
  1090 40.9334 17.5938 11.0905
  1091 40.8118 17.6591 -11.1010
  1092 152.490 7.86747 -3.85176
  1093 152.498 7.85992 3.86051
  1094 550.712 3.15590 11.9362
  1095 35.7674 9.22147 6.68538
  1096 35.3178 9.33321 -6.82108
  1097 -16.3241 -3.56842 18.2965
  1098 -16.3377 -3.58501 -18.3153
  1099 -0.535633 -12.1655 4.92124
  1100 -0.556833 -12.1582 -4.94102
  1101 362.079 -0.520779 13.1153
  1102 361.953 -0.386768 -13.2101
  1103 0.599607 -25.5188 27.5672
  1104 -24.6611 1.60707 -24.3361
  1105 -24.6075 1.60965 24.2991
  1106 0.122850 -96.7838 -9.61803
  1107 -5.58543 -7.88245 30.0187
  1108 -5.57012 -7.71469 -30.0504
  1109 346.201 0.249197 -5.52275
  1110 346.291 0.242418 5.51866
  1111 357.219 -2.90040 15.7843
  1112 356.978 -2.68381 -15.8798
  1113 62.7162 14.0733 -13.2089
  1114 62.2406 14.3455 13.3280
  1115 -0.842476 -49.8574 -17.3378
  1116 470.022 -42.3801 -94.4725
  1117 609.276 79.8496 5.63515
  1118 6.35395 -74.7520 -0.880219
  1119 22.2210 12.5919 -18.9096
  1120 22.3514 12.5223 18.8133
  1121 58.7712 18.9162 4.62712
  1122 58.6322 19.0013 -4.61151
  1123 123.968 7.14643 1.56874
  1124 123.976 7.14999 -1.56198
  1125 -7.86014 -11.1956 23.6786
  1126 -7.84913 -11.3028 -23.7162
  1127 -22.1246 6.98645 19.3167
  1128 -22.2073 7.00174 -19.3424
  1129 -7.61083 8.87663 22.3753
  1130 -7.70359 8.89890 -22.4091
  1131 341.240 -17.4541 -27.0958
  1132 343.417 -17.5916 26.8785
  1133 0.332397 -57.1779 -20.2351
  1134 182.616 -0.223747 -65.1853
  1135 182.896 0.346887 66.2614
  1136 58.6620 17.2473 -5.43164
  1137 58.7377 17.2098 5.44775
  1138 182.437 88.5940 180.073
  1139 46.0262 13.8118 7.95605
  1140 45.9587 13.8337 -7.94932
  1141 465.038 -50.4466 -23.4100
  1142 176.247 4.65046 3.10347
  1143 176.230 4.65598 -3.10042
  1144 -7.90894 -7.04709 14.4996
  1145 -7.91441 -7.06397 -14.4951
  1146 -9.43205 -8.45468 18.7491
  1147 -9.43216 -8.48826 -18.7516
  1148 305.715 -30.7875 -91.3546
  1149 311.829 -33.9133 92.0270
  1150 55.3953 1.98066 0.719547
  1151 55.4345 1.98124 -0.718733
  1152 192.291 8.87125 -35.9141
  1153 192.298 8.75897 36.2706
  1154 418.012 -55.4178 70.1126
  1155 371.723 -0.886789 0.817316
  1156 371.615 -0.886130 -0.816829
  1157 -32.8914 5.23309 17.2563
  1158 -32.9724 5.24365 -17.2789
  1159 -56.6644 1.74293 -9.01240
  1160 -56.5767 1.73965 9.00420
  1161 95.9051 2.73440 108.729
  1162 294.091 19.6181 -17.3839
  1163 175.882 12.3837 -17.8123
  1164 175.934 12.3481 17.9064
  1165 542.231 -14.5637 101.885
  1166 178.771 11.9452 -26.2791
  1167 178.835 11.8858 26.4426
  1168 45.1194 5.60846 -2.90774
  1169 45.1655 5.60648 2.90908
  1170 15.6351 -56.2227 10.9075
  1171 15.8084 -54.7264 -15.1048
  1172 242.100 -16.6371 -92.2214
  1173 245.402 -15.5339 92.1471
  1174 95.0665 15.7702 -27.0525
  1175 94.6674 16.0917 27.3196
  1176 425.366 -28.2196 -30.5161
  1177 -15.3727 -1.23665 27.4628
  1178 -15.4268 -1.23639 -27.5085
  1179 -0.215494 -22.7829 -28.3246
  1180 108.932 3.56773 -68.7037
  1181 109.176 3.88876 69.8660
  1182 -0.272878 -21.5632 5.48441
  1183 -0.233129 -21.6157 -5.55211
  1184 -101.627 0.845052 -2.61652
  1185 -101.522 0.844498 2.61401
  1186 337.988 -0.304878 -1.54680
  1187 338.079 -0.306084 1.54693
  1188 209.324 7.49179 -10.4006
  1189 209.371 7.46439 10.4145
  1190 -7.47235 0.0428028 30.0330
  1191 -7.49556 0.164557 -30.0911
  1192 0.0200222 -86.4642 -8.42988
  1193 -86.4420 0.198970 4.25358
  1194 -86.5298 0.199494 -4.25943
  1195 67.5548 -0.778528 -48.3660
  1196 67.0520 -0.357936 49.8811
  1197 394.981 -24.1489 -1.74456
  1198 113.344 7.57081 -61.7576
  1199 113.419 7.87111 62.3552
  1200 -48.1172 0.260939 6.58414
  1201 -48.1467 0.260670 -6.59310
  1202 1.28306 -75.2096 -14.1020
  1203 -13.5484 2.92964 -3.39867
  1204 -13.4780 2.92842 3.39745
  1205 60.1562 14.5097 5.68926
  1206 60.0930 14.5325 -5.67559
  1207 222.530 0.996204 -1.36310
  1208 222.566 0.994628 1.36352
  1209 299.718 1.22349 6.44349
  1210 299.647 1.23324 -6.44615
  1211 16.6835 -1.85320 16.0505
  1212 16.4348 -2.13661 -16.3532
  1213 2.85651 -43.1368 21.4857
  1214 537.604 74.1699 18.2746
  1215 -16.5548 -1.29004 10.4335
  1216 -16.5573 -1.29558 -10.4395
  1217 2.26414 -40.3988 -22.5148
  1218 -1.57439 -25.1200 15.2614
  1219 -1.49625 -24.8865 -15.8117
  1220 425.186 -4.65872 7.51647
  1221 0.374229 -98.8930 8.62164
  1222 3.20068 -29.6056 -25.1185
  1223 51.3998 1.50067 0.512302
  1224 51.3589 1.50003 -0.512405
  1225 -4.13974 -17.8358 27.7862
  1226 -46.2805 2.62285 -7.60402
  1227 -46.1956 2.61968 7.59824
  1228 862.754 14.8252 24.6192
  1229 -24.3582 2.89497 24.5675
  1230 -24.4217 2.89501 -24.6079
  1231 205.381 8.14698 -32.4649
  1232 205.551 8.00166 32.6544
  1233 13.5108 -19.6831 -10.3301
  1234 195.411 9.81348 -13.1666
  1235 195.461 9.77655 13.2002
  1236 8.15155 -59.2822 -2.86625
  1237 -4.15455 -17.8748 -27.7439
  1238 -32.0974 1.26316 4.49289
  1239 -32.1759 1.26393 -4.49502
  1240 -14.6896 1.19535 -28.0558
  1241 -14.6238 1.19936 28.0125
  1242 417.888 33.5751 33.8995
  1243 237.426 2.60966 -34.3326
  1244 237.699 2.54195 34.4182
  1245 -106.251 0.237544 -0.944790
  1246 -106.141 0.237476 0.944154
  1247 213.943 4.97355 -7.04643
  1248 213.980 4.96304 7.04986
  1249 -108.937 -1.88561 -0.293895
  1250 -109.049 -1.88655 0.294008
  1251 318.921 -22.6585 -39.3297
  1252 -50.1249 0.859877 13.8956
  1253 -50.1819 0.860474 -13.9165
  1254 322.103 -23.9151 38.9754
  1255 217.670 7.74524 -14.2870
  1256 217.729 7.70318 14.3062
  1257 25.6696 -56.5146 -47.9430
  1258 0.468526 -69.1520 -17.3286
  1259 -1.40620 -29.0477 26.0457
  1260 680.724 116.464 -98.5878
  1261 -0.159537 -64.9345 16.9641
  1262 709.797 66.9970 -43.9521
  1263 -0.398180 -120.362 -8.04257
  1264 34.9493 3.34278 -0.978461
  1265 34.9981 3.34233 0.979048
  1266 -0.298565 -27.6849 5.74697
  1267 -0.240167 -27.8328 -5.73180
  1268 121.778 2.87461 0.139701
  1269 121.788 2.87584 -0.139072
  1270 429.997 -32.3831 28.9540
  1271 9.34468 3.16389 -3.93767
  1272 9.40551 3.16252 3.93678
  1273 2.47945 -131.335 3.66270
  1274 1.57481 -139.929 -3.63124
  1275 395.459 -48.8664 -42.3588
  1276 -1.08104 -35.8994 16.8522
  1277 415.026 26.9297 -42.9461
  1278 -1.23385 -47.3069 16.5557
  1279 0.830594 -129.280 -6.10354
  1280 199.694 5.48750 -7.73520
  1281 199.728 5.46926 7.74372
  1282 -0.152068 -70.5820 7.47987
  1283 -0.176580 -58.5101 -16.8469
  1284 932.375 164.646 142.127
  1285 373.421 0.168019 0.624107
  1286 373.312 0.168045 -0.623742
  1287 10.1772 1.01090 23.6931
  1288 9.85882 1.41229 -23.8047
  1289 -5.47699 5.53156 28.1121
  1290 -5.61658 5.53952 -28.1797
  1291 399.335 -7.34190 -26.0727
  1292 369.683 -15.5617 -15.6253
  1293 369.329 -17.6904 15.7967
  1294 55.9016 6.35997 2.90678
  1295 55.8591 6.36231 -2.90375
  1296 -60.3503 1.61068 -10.8061
  1297 -60.2686 1.60724 10.7914
  1298 412.233 -56.1441 -59.8689
  1299 -3.07651 -7.45031 7.61036
  1300 -3.08847 -7.44506 -7.60703
  1301 435.026 -18.3040 44.5880
  1302 -4.53764 -17.1405 20.4936
  1303 -4.48757 -17.2047 -20.4003
  1304 -38.0059 2.52358 5.37380
  1305 -38.0874 2.52575 -5.37705
  1306 66.2443 7.80916 -25.2812
  1307 65.5751 8.18570 25.2649
  1308 103.716 2.73557 0.329070
  1309 103.698 2.73438 -0.328446
  1310 -41.6611 4.19518 17.0714
  1311 -41.7386 4.20304 -17.0946
  1312 350.561 0.772647 0.969960
  1313 350.463 0.772494 -0.969457
  1314 194.069 -0.922174 123.029
  1315 286.742 0.447765 2.27985
  1316 286.677 0.449225 -2.27944
  1317 191.229 4.06807 -49.7625
  1318 191.258 3.84892 50.1958
  1319 1.85267 -75.5549 -9.96884
  1320 74.4300 17.7942 -10.9338
  1321 74.1111 18.0063 11.0592
  1322 -0.726697 -0.654204 -0.952215
  1323 -0.730362 -0.654399 0.954987
  1324 245.843 7.24715 18.4693
  1325 245.750 7.32415 -18.4499
  1326 122.584 9.80216 2.94155
  1327 122.593 9.80566 -2.92782
  1328 180.207 9.87689 -8.99749
  1329 180.237 9.85536 9.01845
  1330 235.546 1.19683 -2.29069
  1331 235.588 1.19512 2.29131
  1332 -7.48802 -3.62140 -8.59100
  1333 -7.48640 -3.61697 8.59502
  1334 -70.9365 0.0643271 3.18832
  1335 -71.0312 0.0645516 -3.19036
  1336 -12.7184 -5.81741 -20.9464
  1337 -12.7075 -5.78782 20.9235
  1338 -39.9822 0.603849 1.33247
  1339 -40.0634 0.603529 -1.33298
  1340 -110.171 1.00038 0.538076
  1341 -110.284 1.00068 -0.538300
  1342 442.952 -54.9135 81.4277
  1343 323.195 -1.85391 -36.4659
</Section>

newXOutput 53

<Section columns = "stress_xx | stress_yy | stress_xy">
  1 391.623 -0.600034 0.401842
  2 391.741 -0.600445 -0.402041
  3 -121.345 0.574332 -1.65633
  4 0.194071 0.0485639 0.344686
  5 709.261 206.947 231.677
  6 801.877 233.901 -222.687
  7 0.193208 0.0477748 -0.343538
  8 -121.225 0.574219 1.65562
  9 390.452 -0.568888 -1.29569
  10 390.771 -1.20739 -2.09660
  11 394.451 -1.19893 -0.564163
  12 394.860 -1.15444 -2.46656
  13 395.866 -1.13309 -0.772819
  14 404.109 -1.07467 -1.06933
  15 406.985 -1.55476 -3.30899
  16 410.106 -0.752558 -2.27138
  17 412.110 0.120099 -4.38288
  18 428.775 -2.38151 -3.75253
  19 436.020 -1.85843 -4.82443
  20 444.055 -2.79573 -1.93202
  21 447.975 -3.69498 -1.19887
  22 445.064 -4.24197 5.62350
  23 430.275 -4.72815 11.9245
  24 395.681 -5.24458 25.6070
  25 339.473 3.02220 29.8399
  26 293.232 3.69036 27.7438
  27 228.792 7.52950 16.8139
  28 243.181 7.32159 1.55820
  29 204.362 21.7941 -10.6799
  30 278.670 10.0216 -30.2770
  31 319.446 2.49225 -24.7533
  32 387.952 -1.11362 -21.4335
  33 425.466 -5.73553 -14.3131
  34 444.422 -4.94085 -5.59045
  35 447.143 -3.58049 1.22586
  36 443.488 -2.75947 1.81453
  37 435.803 -1.87010 4.68495
  38 428.718 -2.41164 3.67292
  39 412.166 0.103020 4.34539
  40 410.200 -0.758995 2.25759
  41 407.099 -1.55889 3.30469
  42 404.229 -1.07685 1.06738
  43 395.985 -1.13451 0.772285
  44 394.980 -1.15568 2.46777
  45 394.571 -1.19986 0.564535
  46 390.890 -1.20818 2.09788
  47 390.570 -0.569288 1.29647
  48 369.440 0.924851 -0.488478
  49 342.224 0.292085 -1.08568
  50 308.187 -1.17399 -1.09310
  51 272.876 0.875178 -0.909265
  52 241.919 0.607900 -0.722979
  53 208.773 1.67430 -0.855083
  54 176.037 3.38176 -0.516085
  55 142.030 3.01239 -1.07716
  56 113.812 2.07829 -1.50970
  57 76.7599 1.28174 -1.59084
  58 39.1059 2.05064 -1.21264
  59 7.66400 1.70025 -1.17247
  60 -31.5802 0.979521 -1.07052
  61 -60.7603 -0.377192 -2.62242
  62 -89.0268 -1.93840 -1.19824
  63 -117.700 0.239991 0.807473
  64 -123.906 2.12269 -0.305019
  65 -124.347 0.935044 0.370007
  66 -120.212 0.465295 -0.141212
  67 -121.552 1.36507 -1.49131
  68 -119.638 1.66079 -0.129799
  69 -113.170 0.506435 -2.29154
  70 -114.535 1.02466 -2.46674
  71 -111.673 0.970657 -1.38166
  72 -103.399 0.605909 -2.09003
  73 -99.6024 1.09658 -3.45943
  74 -93.5588 1.22901 -2.83648
  75 -82.8144 0.626043 -4.92493
  76 -76.7866 0.193717 -4.11492
  77 -65.8996 0.278242 -4.75419
  78 -56.5313 0.215151 -5.26829
  79 -48.3574 0.0737920 -4.15822
  80 -37.0036 0.244835 -4.19150
  81 -27.2116 -0.103427 -4.48602
  82 -17.7365 -0.487728 -3.94116
  83 -10.2262 -0.427644 -3.02099
  84 -5.02629 -0.750402 -2.52526
  85 -0.839882 -0.433923 -0.902433
  86 0.0569717 -0.483104 -0.322492
  87 -0.260754 -0.255652 -0.0623889
  88 -0.679440 -0.674760 -0.790627
  89 -0.659807 -4.25199 -2.19324
  90 -0.561889 -9.52977 -3.12469
  91 -0.289825 -16.2611 -4.55596
  92 -0.149038 -24.9741 -3.92824
  93 -0.122614 -32.9830 -4.94326
  94 -0.604520 -42.7543 -5.57676
  95 -0.247431 -54.8224 -5.62858
  96 0.114647 -66.9776 -5.38940
  97 0.262958 -79.9999 -5.31597
  98 0.405358 -93.3786 -5.22525
  99 0.0216196 -103.192 -7.07079
  100 0.689328 -117.171 -6.32657
  101 0.848741 -133.538 -5.03895
  102 -0.0610820 -140.697 -6.68938
  103 1.20144 -152.563 -6.19303
  104 2.97071 -168.342 -2.87890
  105 5.80856 -172.372 -4.57214
  106 4.12631 -156.897 4.50508
  107 6.05897 -116.896 17.9209
  108 30.6293 -63.7986 51.3338
  109 95.5520 143.214 171.402
  110 1090.43 59.0085 108.464
  111 936.763 17.4332 39.3195
  112 906.553 6.29313 8.99123
  113 900.067 2.01840 -1.45217
  114 906.235 9.75993 -20.7430
  115 935.086 31.6645 -46.6775
  116 1061.45 115.603 -137.791
  117 229.337 111.722 -209.025
  118 51.5532 -63.1221 -62.2752
  119 15.1924 -128.003 -23.3715
  120 4.21801 -148.541 -4.83197
  121 4.68658 -165.835 2.38029
  122 1.32756 -161.706 2.14561
  123 0.467110 -148.729 5.23994
  124 0.513079 -140.062 4.14524
  125 0.733630 -126.198 7.14438
  126 -0.0366404 -118.235 6.96435
  127 0.290535 -106.817 5.01087
  128 0.569782 -92.2620 6.38197
  129 0.113236 -81.8658 5.05734
  130 0.166223 -67.0537 6.38929
  131 -0.669845 -55.4844 5.49260
  132 -0.466259 -42.7896 5.40222
  133 -0.0860214 -32.8000 4.95562
  134 -0.193737 -24.8299 3.93530
  135 -0.282883 -16.2134 4.51151
  136 -0.553732 -9.52335 3.10912
  137 -0.656300 -4.25844 2.19168
  138 -0.678553 -0.681660 0.792193
  139 -0.260716 -0.258627 0.0643804
  140 0.0533600 -0.483562 0.324304
  141 -0.846689 -0.433683 0.904739
  142 -5.03656 -0.749685 2.52756
  143 -10.2399 -0.426311 3.02170
  144 -17.7473 -0.486083 3.93953
  145 -27.2143 -0.102065 4.48144
  146 -36.9966 0.245104 4.18614
  147 -48.3369 0.0744368 4.15258
  148 -56.4984 0.215903 5.26177
  149 -65.8502 0.278172 4.74730
  150 -76.7221 0.193602 4.10843
  151 -82.7396 0.625592 4.91853
  152 -93.4700 1.22823 2.83148
  153 -99.5058 1.09573 3.45530
  154 -103.295 0.605349 2.08738
  155 -111.562 0.970052 1.37994
  156 -114.421 1.02416 2.46491
  157 -113.055 0.506239 2.29005
  158 -119.519 1.66009 0.129454
  159 -121.432 1.36453 1.49052
  160 -120.093 0.465196 0.141101
  161 -124.225 0.934731 -0.369847
  162 -123.784 2.12188 0.304893
  163 -117.582 0.240012 -0.807147
  164 -88.9212 -1.93728 1.19773
  165 -60.6674 -0.376549 2.62133
  166 -31.5004 0.979764 1.07008
  167 7.72628 1.70039 1.17200
  168 39.1541 2.05087 1.21216
  169 76.7912 1.28263 1.59023
  170 113.826 2.07911 1.50912
  171 142.032 3.01307 1.07676
  172 176.023 3.38233 0.515837
  173 208.744 1.67547 0.854622
  174 241.875 0.609285 0.722512
  175 272.817 0.875993 0.908644
  176 308.112 -1.17261 1.09240
  177 342.131 0.292300 1.08507
  178 369.333 0.924543 0.488205
  179 104.049 18.0718 -4.65657
  180 103.990 18.1043 4.71510
  181 -1.67804 3.16859 29.1445
  182 -1.79129 3.14665 -29.1604
  183 236.171 -3.21158 -53.3381
  184 236.006 -3.66373 53.8973
  185 47.4333 11.2217 -2.85883
  186 46.8697 11.4217 2.87483
  187 34.9299 5.91710 -4.37176
  188 34.9838 5.91327 4.37240
  189 223.338 4.13278 -7.92235
  190 223.380 4.11764 7.92727
  191 -3.42197 8.97043 15.7519
  192 -3.50606 8.98945 -15.7677
  193 259.447 6.48890 -20.2122
  194 259.568 6.39598 20.2382
  195 -10.0263 -8.71092 23.2780
  196 -10.0241 -8.76257 -23.3083
  197 2.43893 -20.6623 -27.5854
  198 81.2383 5.10515 -49.3162
  199 2.96796 -22.1095 26.9194
  200 79.9459 5.74923 50.0879
  201 367.396 -48.9781 -77.2430
  202 380.107 -50.9091 74.1479
  203 132.595 4.29893 -1.35421
  204 132.589 4.29655 1.35685
  205 -20.3686 1.44680 -3.06423
  206 -20.2933 1.44658 3.06300
  207 -28.9688 4.49466 22.3845
  208 -29.0444 4.50317 -22.4212
  209 133.301 12.0862 -4.08118
  210 133.297 12.0829 4.10065
  211 40.9963 17.0784 10.4480
  212 40.8357 17.1805 -10.4842
  213 -36.9788 3.99220 -9.18065
  214 -36.8943 3.98674 9.17284
  215 296.236 0.331419 3.75579
  216 296.167 0.335099 -3.75586
  217 9.66309 -38.8044 11.3464
  218 10.5031 -35.0895 -9.97995
  219 -2.73003 -24.6584 26.2205
  220 -2.79578 -25.6251 -25.3992
  221 123.343 17.7631 -21.7287
  222 123.229 17.8497 21.9450
  223 -26.3174 -0.0623344 22.6484
  224 -26.3604 -0.0659534 -22.6812
  225 316.899 1.70480 -11.0163
  226 316.980 1.67811 11.0045
  227 341.284 -5.07758 -21.8020
  228 341.553 -5.41815 21.7159
  229 545.698 41.3996 0.0702210
  230 500.651 56.0366 28.3556
  231 492.882 -3.48786 -42.8904
  232 61.0348 13.4237 5.40582
  233 60.9779 13.4415 -5.39519
  234 4.64041 11.1350 22.2491
  235 4.53667 11.1679 -22.2801
  236 381.264 -23.0509 -14.9300
  237 379.061 -23.3295 16.1653
  238 211.220 1.71303 -2.90722
  239 211.251 1.70942 2.90833
  240 -46.5119 3.30128 14.8898
  241 -46.5944 3.30838 -14.9096
  242 -6.43881 -6.33407 -10.4975
  243 -6.43273 -6.32977 10.5036
  244 -51.3217 1.21932 4.62331
  245 -51.4107 1.22040 -4.62615
  246 174.074 12.8342 -13.6598
  247 174.106 12.8062 13.7110
  248 221.242 6.56003 -30.5001
  249 221.413 6.44691 30.6318
  250 54.0216 3.32862 -0.239083
  251 54.0634 3.32855 0.239787
  252 128.152 2.51004 -106.082
  253 151.537 6.06494 115.500
  254 17.5444 8.10552 21.0518
  255 17.4666 8.27883 -21.1427
  256 517.705 -38.8328 -11.4791
  257 45.7225 17.0307 9.07636
  258 45.6327 17.0716 -9.07086
  259 125.728 13.6179 -40.1783
  260 125.487 13.9514 40.6067
  261 579.122 82.0596 -3.64530
  262 343.666 0.0697288 14.9077
  263 343.548 0.172451 -14.9574
  264 -3.09564 -19.1634 -16.4388
  265 -3.00494 -19.2393 16.5032
  266 -0.652959 -45.4352 -22.5481
  267 1.57258 -52.9057 -20.6651
  268 0.843010 -52.9998 21.6954
  269 -8.47179 -7.33360 29.8549
  270 -8.50877 -7.32258 -29.9744
  271 18.6216 -41.3074 -8.34566
  272 20.0410 -37.9672 11.4891
  273 -19.7905 -1.65400 14.4312
  274 -19.8020 -1.66160 -14.4449
  275 244.940 6.62803 -12.6152
  276 245.007 6.59032 12.6222
  277 428.196 -43.8701 -4.18776
  278 95.4053 7.96169 -0.0318298
  279 95.4296 7.96101 0.0377251
  280 -1.10400 -42.6460 21.5613
  281 9.75618 8.73317 10.0513
  282 9.68353 8.74629 -10.0563
  283 679.744 47.2515 -18.8169
  284 333.164 0.103576 4.59365
  285 333.079 0.109368 -4.59610
  286 224.499 -10.4209 -80.0529
  287 226.444 -10.2417 81.2629
  288 427.649 -41.6037 -2.80147
  289 -40.3600 1.26771 17.8773
  290 -40.4132 1.26796 -17.9042
  291 418.386 -32.7461 130.497
  292 -17.7723 3.08234 27.0430
  293 -17.8414 3.07843 -27.0900
  294 71.5024 19.6254 -5.99620
  295 71.2252 19.8107 6.07811
  296 -73.3984 0.560423 0.818777
  297 -73.4970 0.560306 -0.819165
  298 352.758 8.67279 -177.468
  299 -69.0576 1.38474 -8.00884
  300 -68.9650 1.38199 7.99975
  301 -1.83795 -8.55720 30.3653
  302 -0.783142 -8.32847 -30.0446
  303 156.062 15.7557 -19.7327
  304 156.071 15.7492 19.8586
  305 34.6483 3.92718 3.28544
  306 34.5967 3.92839 -3.28555
  307 162.307 6.07017 -4.13497
  308 162.316 6.06397 4.14062
  309 15.4821 -11.0408 15.4308
  310 14.1124 -13.3227 -15.6343
  311 157.552 2.62568 -1.03181
  312 157.557 2.62399 1.03264
  313 -56.8507 1.48407 13.0841
  314 -56.9203 1.48635 -13.1038
  315 39.6839 -3.09927 -10.3814
  316 38.5089 -3.15247 9.33541
  317 347.275 -0.398758 1.28379
  318 347.180 -0.397911 -1.28330
  319 757.004 42.9961 30.3061
  320 79.4249 10.4004 1.91100
  321 79.3884 10.4059 -1.90151
  322 -15.9026 3.75194 6.32979
  323 -15.9783 3.75591 -6.33338
  324 109.027 14.5691 -3.06080
  325 108.998 14.5766 3.09375
  326 13.1138 11.4042 23.0394
  327 13.0278 11.4300 -23.0957
  328 1.64932 -76.4976 15.1356
  329 -76.0844 0.122409 -1.88009
  330 -75.9846 0.122597 1.87910
  331 265.641 0.557462 -2.45405
  332 265.696 0.555418 2.45447
  333 279.713 1.71353 -6.50741
  334 279.776 1.70279 6.50611
  335 -70.9965 1.19421 -5.79290
  336 -70.8999 1.19268 5.78825
  337 -0.475580 1.27137 0.686933
  338 -0.541606 1.27113 -0.687112
  339 -1.59324 -31.6003 16.3962
  340 -1.26563 -32.8688 -16.3738
  341 315.349 -25.9987 -54.1624
  342 327.468 -31.0948 53.1795
  343 187.604 8.92047 -8.47394
  344 187.633 8.90275 8.48795
  345 83.0881 19.3708 -3.39106
  346 82.9491 19.4572 3.45589
  347 -28.3206 5.53469 13.0872
  348 -28.4039 5.54507 -13.1012
  349 584.741 12.7920 16.9362
  350 31.3440 -43.6052 -35.7652
  351 33.5192 -40.4527 37.4046
  352 -11.8936 8.99219 21.0251
  353 -11.9831 9.01245 -21.0547
  354 -16.0688 -3.19590 26.4675
  355 -16.1101 -3.20363 -26.5143
  356 662.886 111.874 -33.0608
  357 427.264 -5.69659 53.2235
  358 397.871 -9.45694 -9.98596
  359 397.535 -9.23669 9.35489
  360 279.582 -3.38411 -34.5325
  361 279.260 -3.65861 34.5485
  362 0.526941 -92.1572 -12.1961
  363 363.969 0.733004 -8.34475
  364 364.055 0.704229 8.31775
  365 4.77631 -86.4661 9.36308
  366 423.646 33.1935 -28.3526
  367 103.968 3.35391 1.17780
  368 103.949 3.35344 -1.17791
  369 281.079 1.86658 -25.6370
  370 281.264 1.72496 25.6695
  371 302.510 2.25953 -15.4999
  372 302.604 2.19675 15.4842
  373 -4.80440 3.27008 4.22587
  374 -4.87401 3.27202 -4.22742
  375 174.408 9.66160 -41.1396
  376 174.454 9.76979 41.5093
  377 357.857 -0.292525 2.10068
  378 357.757 -0.291030 -2.10059
  379 203.845 10.9532 -20.8233
  380 203.924 10.8881 20.9002
  381 235.007 3.41876 5.34098
  382 234.964 3.42554 -5.33964
  383 -11.2094 -2.01546 8.91663
  384 -11.2088 -2.02075 -8.91698
  385 -2.66920 -1.89571 -2.60389
  386 -2.67042 -1.89665 2.60789
  387 477.576 -58.7780 35.2949
  388 -6.19402 -14.9476 24.2417
  389 -6.15209 -15.0763 -24.2445
  390 78.6853 4.89899 -1.33292
  391 78.7167 4.89896 1.33505
  392 -2.37011 -11.8980 8.95616
  393 -2.39713 -11.8790 -8.95748
  394 30.6681 13.4746 10.8998
  395 30.5906 13.5001 -10.9014
  396 390.376 -1.79531 11.0468
  397 390.258 -1.65405 -11.2337
  398 -0.873552 -22.9674 29.0289
  399 -32.0504 -0.572076 13.6445
  400 -32.0741 -0.574952 -13.6621
  401 -0.997423 -24.2713 -28.7040
  402 366.230 -0.0123811 5.31691
  403 366.135 -0.00387940 -5.32478
  404 -3.04288 8.21749 26.4802
  405 -3.16365 8.24310 -26.5300
  406 271.378 3.78900 -10.3497
  407 271.443 3.76591 10.3474
  408 416.759 -17.8376 -8.56340
  409 418.016 -14.4255 6.39807
  410 -0.837959 -43.0308 -17.9535
  411 37.9526 14.1743 -7.26453
  412 38.2650 14.0201 7.22275
  413 416.717 27.1714 17.6560
  414 236.745 -11.8969 -110.554
  415 242.989 -16.2756 115.664
  416 14.6694 12.8829 16.9420
  417 14.5769 12.9141 -16.9579
  418 174.488 4.51886 -2.82988
  419 174.502 4.51518 2.83216
  420 169.556 30.3645 175.627
  421 70.7187 16.3183 -3.70572
  422 70.7865 16.2882 3.72739
  423 4.42453 -40.4448 19.3038
  424 -0.520996 -69.8876 -15.5413
  425 28.3236 15.8611 15.6350
  426 28.2154 15.9081 -15.6551
  427 35.0369 9.03861 -6.54744
  428 35.0960 9.02927 6.54868
  429 -11.5798 -0.479983 -29.7453
  430 -11.5117 -0.496439 29.6945
  431 84.4295 16.7410 -16.8891
  432 84.0692 16.9921 17.0650
  433 419.256 -13.2945 -40.2807
  434 12.0873 -3.78121 22.6200
  435 11.6937 -3.67666 -22.7642
  436 305.343 -13.1327 -38.1520
  437 306.602 -14.0530 38.0978
  438 -75.7274 0.595079 -7.84982
  439 -75.6400 0.593180 7.83914
  440 0.00136585 -68.6960 14.0004
  441 -0.488489 -43.6592 15.9897
  442 -30.7480 2.03026 22.8676
  443 -30.8044 2.02941 -22.9030
  444 218.863 1.59853 -1.06155
  445 218.897 1.59670 1.06174
  446 -6.53242 -10.3192 16.5112
  447 -6.54366 -10.3432 -16.4943
  448 137.068 7.55576 -59.7410
  449 136.794 8.17117 60.4109
  450 1.14023 -82.9166 -15.2929
  451 755.627 26.4704 0.507441
  452 2.12987 -97.5431 -8.54375
  453 -89.1673 -0.0506623 -2.81112
  454 -89.0620 -0.0506509 2.80940
  455 -34.0801 4.87410 18.5605
  456 -34.1617 4.88450 -18.5879
  457 -40.2583 0.579668 13.6881
  458 -40.2940 0.579488 -13.7067
  459 149.767 15.1711 -13.4942
  460 149.772 15.1696 13.5710
  461 225.881 8.67769 -16.1059
  462 225.957 8.62229 16.1357
  463 -3.72331 -13.8860 30.0306
  464 -3.72872 -13.7945 -30.1573
  465 392.772 7.08466 -50.8047
  466 27.1233 -6.12470 -3.66094
  467 26.1792 -6.35324 4.14575
  468 6.30314 -87.2472 -1.71158
  469 4.05741 -101.566 -1.20633
  470 -11.8908 -5.30498 16.9909
  471 -11.8965 -5.32440 -16.9986
  472 83.7879 -4.47334 -91.9956
  473 597.575 2.94512 -61.2929
  474 136.421 8.50945 3.96366
  475 136.424 8.51430 -3.95253
  476 198.040 2.23323 -57.3629
  477 198.477 2.17439 58.2140
  478 58.6084 20.1652 5.58576
  479 58.4959 20.2321 -5.57098
  480 178.876 13.1854 -30.3401
  481 178.950 13.1216 30.5604
  482 6.82871 3.78879 26.9120
  483 7.22356 3.98763 -26.8801
  484 -79.1543 1.14282 -5.74667
  485 -79.0559 1.14147 5.74108
  486 392.229 -45.4629 -31.2216
  487 311.204 -0.0594694 -1.75855
  488 311.281 -0.0605021 1.75911
  489 17.6194 2.03781 -1.74318
  490 17.6777 2.03773 1.74290
  491 -19.4438 7.22058 17.2259
  492 -19.5291 7.23605 -17.2470
  493 -44.4436 2.69072 -6.19660
  494 -44.3570 2.68783 6.19214
  495 136.457 12.9981 -6.15262
  496 136.454 12.9930 6.18233
  497 -15.8586 6.28484 24.3963
  498 -15.9462 6.29984 -24.4388
  499 359.049 -10.2610 -20.4430
  500 359.657 -10.7625 20.1691
  501 236.121 2.41972 -38.2260
  502 235.764 2.25834 38.5511
  503 88.4773 3.85011 -0.731679
  504 88.5035 3.85064 0.732504
  505 0.992725 -42.3364 -24.5254
  506 421.181 -15.0629 33.0156
  507 5.90864 -27.5697 -21.9730
  508 120.425 19.0708 13.8892
  509 120.501 19.0157 -13.7625
  510 387.954 -42.5364 30.8562
  511 30.0102 -36.7508 48.8503
  512 461.405 -58.1466 -61.1355
  513 314.696 1.01820 18.6757
  514 314.557 1.14013 -18.6956
  515 0.950145 -36.1760 25.5219
  516 -6.16604 -1.83530 -4.77603
  517 -6.16875 -1.83436 4.77948
  518 39.4839 1.85816 -0.495280
  519 39.5321 1.85853 0.495290
  520 -1.05892 -24.4389 10.5462
  521 -0.960761 -24.3257 -10.6009
  522 259.354 2.33791 4.20308
  523 259.301 2.34148 -4.20254
  524 727.573 129.873 56.5296
  525 30.6702 -17.5321 -10.3529
  526 23.8928 -24.0127 5.35724
  527 -6.47633 5.46044 -8.43743
  528 -6.40185 5.45298 8.43224
  529 -62.9548 0.992812 8.19621
  530 -63.0131 0.993926 -8.20813
  531 0.635780 -77.8248 15.2858
  532 -87.5076 0.729977 0.759989
  533 -87.6126 0.730030 -0.760383
  534 80.9025 -3.85642 -67.8617
  535 79.1292 -2.53306 70.4452
  536 74.1416 13.4229 -23.8126
  537 73.5835 13.7524 23.9661
  538 -16.8625 -3.49939 23.1884
  539 -16.8891 -3.51450 -23.2229
  540 73.1332 6.30339 1.36041
  541 73.0983 6.30468 -1.35707
  542 -36.1806 1.64283 2.60144
  543 -36.2630 1.64347 -2.60278
  544 86.0494 12.2818 1.24586
  545 86.0114 12.2912 -1.22937
  546 -1.70472 -5.56133 4.08524
  547 -1.71063 -5.55645 -4.08447
  548 31.4955 13.6079 13.8413
  549 31.2864 13.7962 -13.9135
  550 25.4406 4.48477 12.0707
  551 25.0814 4.45173 -12.2826
  552 318.207 1.97493 7.85863
  553 318.128 1.98655 -7.86315
  554 281.918 3.45154 12.5944
  555 281.841 3.48883 -12.5999
  556 -0.288991 -66.0992 -9.72567
  557 198.007 9.63266 -12.4137
  558 198.050 9.60330 12.4387
  559 198.424 4.28851 -4.71247
  560 198.451 4.28072 4.71608
  561 -25.7217 0.857980 0.0288727
  562 -25.6445 0.858265 -0.0288339
  563 341.388 18.2726 -9.78241
  564 442.515 -55.3987 -23.0284
  565 366.242 17.0498 38.3547
  566 3.04452 -55.8435 -17.7442
  567 -18.6146 6.12941 -11.2447
  568 -18.5342 6.11987 11.2353
  569 3.23291 -32.2957 23.9881
  570 -19.3651 0.627275 26.4778
  571 -19.4198 0.624233 -26.5183
  572 565.292 54.2358 1.01140
  573 129.652 5.70683 -1.87469
  574 129.646 5.70408 1.87903
  575 850.894 72.5662 -75.2404
  576 -3.95021 -3.06073 30.7961
  577 -3.65625 -2.83432 -30.8199
  578 467.599 -40.9269 17.1599
  579 375.996 0.172594 -9.27204
  580 376.077 0.124694 9.22178
  581 174.121 0.442698 -83.1323
  582 176.163 -0.0907499 84.4083
  583 -9.54680 -9.15340 26.8210
  584 -9.55669 -9.20173 -26.8924
  585 91.7706 8.61783 44.5472
  586 92.5390 7.93941 -44.1879
  587 -73.5444 0.841193 -7.67586
  588 -73.4642 0.839808 7.66493
  589 551.079 48.2676 29.4505
  590 106.137 9.45468 0.850235
  591 106.157 9.45422 -0.840545
  592 125.146 15.5894 -30.6600
  593 124.973 15.7777 30.9814
  594 340.651 -0.957200 -18.2543
  595 340.829 -1.12512 18.2090
  596 -1.48498 -34.3223 -24.1111
  597 369.704 -0.557328 2.78427
  598 369.600 -0.555225 -2.78470
  599 -52.6722 0.988822 -0.990092
  600 -52.5829 0.988780 0.989604
  601 -93.8946 -0.696900 0.0126346
  602 -94.0024 -0.697451 -0.0126675
  603 8.08729 -50.8666 -7.82133
  604 -3.43946 -22.3351 20.7199
  605 -3.62777 -21.1237 -20.8584
  606 -41.7412 2.60585 19.0228
  607 -41.8063 2.60959 -19.0519
  608 259.612 6.04277 15.9324
  609 259.529 6.10034 -15.9262
  610 191.429 2.14590 1.10528
  611 191.408 2.14726 -1.10483
  612 43.7613 -10.6323 28.5930
  613 45.1367 -9.70525 -28.3364
  614 -1.32541 -17.0490 8.91425
  615 -1.36666 -16.9953 -8.94463
  616 442.960 33.5220 189.467
  617 -21.9730 -0.669668 8.25238
  618 -21.9749 -0.672832 -8.25936
  619 8.08417 -30.7385 -17.5089
  620 187.405 7.09422 -6.48002
  621 187.429 7.08281 6.48794
  622 92.4327 19.4448 -10.5073
  623 92.2520 19.5649 10.6301
  624 0.895829 -116.856 5.88680
  625 69.5500 18.8716 3.05241
  626 69.4659 18.9180 -3.02632
  627 -6.51465 7.70698 13.5265
  628 -6.59511 7.72106 -13.5383
  629 -0.528417 -58.2283 13.2759
  630 -93.9298 0.0695327 -2.81027
  631 -93.8229 0.0693616 2.80829
  632 123.754 2.97520 0.579403
  633 123.764 2.97695 -0.578031
  634 310.112 0.651436 5.22719
  635 310.036 0.657119 -5.22812
  636 274.481 -17.4658 144.777
  637 220.813 5.17817 -9.73459
  638 220.859 5.15632 9.74279
  639 3.85054 -4.27020 28.3331
  640 4.67399 -2.32423 -28.2646
  641 352.333 -34.0699 -117.378
  642 825.251 28.2245 -31.2761
  643 -86.7299 0.0558722 -5.28902
  644 -86.6349 0.0550140 5.28267
  645 22.0363 4.48351 -3.88244
  646 22.0944 4.48098 3.88204
  647 -1.61786 -36.4537 21.3237
  648 477.325 29.0316 -46.5058
  649 365.534 -0.735152 0.487881
  650 365.429 -0.734539 -0.487573
  651 -23.4753 -1.25523 -19.1385
  652 -23.4495 -1.24909 19.1138
  653 -0.0728448 -82.6530 -12.7044
  654 371.794 -0.742361 1.07178
  655 371.686 -0.741634 -1.07127
  656 35.2051 11.6539 9.17118
  657 35.1374 11.6712 -9.16995
  658 285.066 -24.2388 -77.2201
  659 290.152 -24.1321 78.0613
  660 414.656 -2.73786 6.41918
  661 414.718 -2.71099 -6.68117
  662 1.82703 -103.927 9.81648
  663 -21.5398 0.623491 -1.50415
  664 -21.4643 0.623801 1.50357
  665 136.663 16.8857 -137.952
  666 128.705 2.61679 1.04850
  667 128.713 2.61773 -1.04781
  668 63.9582 4.45552 0.543849
  669 63.9204 4.45586 -0.542450
  670 75.8176 8.00013 -0.876804
  671 75.8529 7.99747 0.883029
  672 243.496 6.59072 -24.6482
  673 243.639 6.48277 24.7115
  674 65.2301 18.8958 0.0431596
  675 65.0342 19.0277 -0.0124755
  676 -43.1736 3.22048 -10.7013
  677 -43.0874 3.21420 10.6905
  678 -50.4609 3.48257 -12.2310
  679 -50.3750 3.47621 12.2162
  680 426.451 -6.51782 -1.01677
  681 0.613497 -16.9491 -29.0748
  682 427.045 -6.83611 0.434220
  683 543.578 42.3916 -1.39253
  684 -53.4208 0.254272 9.33475
  685 -53.4659 0.254112 -9.34839
  686 56.7422 16.4706 -3.98936
  687 56.3381 16.6706 4.03162
  688 -100.851 0.0553906 -0.985852
  689 -100.740 0.0554717 0.985222
  690 0.958445 -15.2195 29.1093
  691 -33.3210 0.486986 20.0932
  692 -33.3678 0.485271 -20.1225
  693 468.359 -38.3017 -18.9388
  694 75.0709 1.65500 -0.555702
  695 75.0388 1.65423 0.556226
  696 18.0194 6.73516 6.57432
  697 17.9559 6.74162 -6.57540
  698 248.661 -11.0742 -64.6783
  699 250.508 -11.5100 65.9145
  700 859.757 61.1357 68.3816
  701 16.9439 -76.4864 -29.4209
  702 -6.12323 -12.9536 28.6548
  703 -6.13273 -13.0070 -28.7215
  704 53.2141 11.4716 -4.79055
  705 53.2675 11.4601 4.79700
  706 382.184 -0.632740 -2.83280
  707 382.292 -0.635192 2.83081
  708 183.039 2.81299 1.98636
  709 183.021 2.81604 -1.98513
  710 15.7774 13.5096 20.4960
  711 15.6742 13.5504 -20.5287
  712 10.4538 3.29094 2.72836
  713 10.3919 3.29199 -2.72900
  714 -10.4719 2.71310 29.1217
  715 -10.5522 2.71151 -29.1821
  716 314.563 -0.451928 2.20949
  717 314.484 -0.449947 -2.20925
  718 272.632 2.11301 5.97536
  719 272.572 2.11963 -5.97524
  720 37.1807 -22.1614 34.2265
  721 38.2443 -23.8637 -33.1133
  722 -20.7758 4.65243 25.3914
  723 -20.8526 4.65791 -25.4362
  724 11.5727 -25.2062 13.5931
  725 1.37973 8.28281 26.6635
  726 1.25319 8.30472 -26.6976
  727 -59.5775 1.68692 -7.09065
  728 -59.4857 1.68428 7.08402
  729 48.5246 15.2538 8.37459
  730 48.4466 15.2837 -8.36618
  731 422.128 -12.7149 -22.3261
  732 399.740 -34.6548 -10.8320
  733 -6.41510 -13.1326 20.3855
  734 -6.40741 -13.1956 -20.3607
  735 156.170 0.429033 -98.0808
  736 152.136 3.73028 98.9862
  737 95.4034 18.1949 -15.8490
  738 95.1617 18.3735 16.0282
  739 8.45957 -14.7334 23.0435
  740 -0.569452 -43.1715 -11.5696
  741 198.266 10.6642 -23.2154
  742 198.360 10.6015 23.3306
  743 0.504978 -84.7486 10.6845
  744 118.661 16.1072 -6.57881
  745 118.633 16.1175 6.62990
  746 401.636 -0.478062 -7.01777
  747 401.678 -0.526656 6.92671
  748 8.03550 -112.871 3.14500
  749 182.571 13.3286 17.6061
  750 182.523 13.3650 -17.5341
  751 49.8975 17.5539 -4.42355
  752 50.1543 17.3781 4.40352
  753 -72.5316 0.478210 -6.49140
  754 -72.4621 0.477611 6.48146
  755 202.207 3.18350 -4.10288
  756 202.234 3.17854 4.10501
  757 125.374 17.8204 -11.7089
  758 125.331 17.8467 11.8025
  759 1.53261 10.9037 20.5123
  760 1.43743 10.9322 -20.5383
  761 400.945 -29.6655 5.93306
  762 -61.4679 1.31210 5.38502
  763 -61.5611 1.31333 -5.38861
  764 858.629 169.970 -120.722
  765 -22.5951 2.33415 5.59183
  766 -22.6726 2.33609 -5.59471
  767 340.735 0.749211 12.9505
  768 340.641 0.808189 -12.9860
  769 632.983 39.3173 0.131829
  770 385.141 -1.18902 -5.33282
  771 385.238 -1.19803 5.32158
  772 247.174 3.30160 7.53755
  773 247.124 3.31283 -7.53626
  774 369.429 -40.7221 107.015
  775 161.235 11.4987 -6.79963
  776 161.250 11.4866 6.82088
  777 3.74049 -63.3328 12.7631
  778 423.563 -52.5313 35.8882
  779 257.325 0.417142 1.28490
  780 257.274 0.418629 -1.28460
  781 336.479 -0.0416534 0.683299
  782 336.389 -0.0411341 -0.683012
  783 -1.49755 -34.0190 -19.9634
  784 2.09599 -57.6343 19.1851
  785 152.966 16.8523 24.4554
  786 152.971 16.8417 -24.2651
  787 849.849 8.16902 7.51513
  788 262.135 2.08181 -30.6835
  789 262.321 1.95241 30.7628
  790 -53.7802 1.78235 14.1948
  791 -53.8585 1.78673 -14.2145
  792 11.3066 -45.8272 3.36814
  793 7.29405 -105.044 -8.23915
  794 595.785 77.4491 -11.2600
  795 -0.518073 -43.0563 10.4446
  796 12.6248 8.88259 23.8074
  797 12.5824 8.87824 -23.9228
  798 80.7604 15.6102 1.76874
  799 80.7098 15.6311 -1.74643
  800 397.668 -18.2590 -6.79432
  801 398.480 -18.0327 5.47919
  802 466.300 72.7957 -179.577
  803 -63.1909 0.645156 -2.40718
  804 -63.0969 0.644877 2.40569
  805 -30.1421 -0.118343 7.76703
  806 -30.1510 -0.119697 -7.77580
  807 29.3986 2.77758 6.60205
  808 28.7805 2.74585 -6.66750
  809 302.071 -1.84661 27.5949
  810 301.846 -1.59729 -27.5313
  811 154.512 3.78651 -1.18160
  812 154.517 3.78400 1.18321
  813 486.666 -6.40119 42.5411
  814 52.3848 8.04730 -4.29301
  815 52.4333 8.04187 4.29673
  816 48.4856 7.02447 -8.83783
  817 48.0502 7.24959 8.94824
  818 -0.0910876 -33.4183 -26.6795
  819 684.752 109.071 100.185
  820 -98.8233 0.0922855 -2.81413
  821 -98.7155 0.0921196 2.81167
  822 -0.146646 -103.072 10.0125
  823 7.51368 -14.5727 -23.3301
  824 -15.0015 -0.912725 5.79198
  825 -14.9957 -0.915113 -5.79405
  826 549.184 33.3724 -28.4053
  827 144.072 13.9713 -8.56695
  828 144.074 13.9658 8.61307
  829 377.069 -5.66452 -13.9263
  830 377.418 -5.72076 13.7270
  831 -94.5827 0.703565 3.76928
  832 -94.6852 0.704426 -3.77341
  833 -0.682555 -0.706351 -0.583098
  834 -0.683937 -0.707620 0.585420
  835 0.303317 -105.398 -9.76617
  836 0.482469 -110.581 -8.74059
  837 -103.824 0.978774 0.547058
  838 -103.936 0.979012 -0.547311
  839 58.2084 -15.1628 -65.1406
  840 234.256 2.53617 -2.23961
  841 234.297 2.53393 2.24003
  842 -6.33030 1.75465 0.705168
  843 -6.39889 1.75461 -0.705430
  844 346.955 0.749010 -8.57327
  845 347.042 0.729128 8.55812
  846 -39.6038 0.268098 7.37985
  847 -39.6232 0.268118 -7.38912
  848 211.211 4.53112 -146.622
  849 363.258 -30.8404 30.3899
  850 284.681 1.01099 -2.73427
  851 284.745 1.00882 2.73445
  852 360.006 -33.5231 -33.8634
  853 113.340 12.2957 -2.75089
  854 113.320 12.2970 2.77395
  855 156.071 9.88957 -5.21433
  856 156.080 9.88101 5.22808
  857 421.992 -8.97469 17.0612
  858 26.6039 15.3550 16.7174
  859 26.4871 15.4126 -16.7601
  860 27.8199 1.66051 1.25472
  861 27.7664 1.66019 -1.25492
  862 199.490 2.23622 1.90848
  863 199.465 2.23847 -1.90770
  864 519.550 -46.0584 60.4791
  865 325.854 1.62075 -11.2640
  866 325.942 1.58365 11.2436
  867 5.87652 4.79089 5.19091
  868 5.81032 4.79451 -5.19245
  869 326.423 -0.555396 3.19638
  870 326.339 -0.552877 -3.19631
  871 -59.5454 0.289748 -1.59347
  872 -59.4531 0.290099 1.59278
  873 -0.282308 -32.9768 9.32078
  874 -0.372425 -33.4927 -9.39143
  875 393.438 -5.26908 41.1612
  876 -23.2587 6.06831 21.3527
  877 -23.3421 6.08224 -21.3855
  878 -0.130788 -54.2745 -10.2817
  879 156.029 5.44979 -2.70627
  880 156.035 5.44634 2.70966
  881 286.414 -14.3408 -49.4076
  882 288.602 -15.8573 49.8877
  883 -12.1034 -4.19401 -28.7630
  884 -12.0483 -4.19371 28.7014
  885 16.3417 13.5669 18.7836
  886 16.2418 13.6041 -18.8054
  887 1.35959 -123.421 6.86050
  888 4.54586 10.6887 24.3062
  889 4.43695 10.7170 -24.3411
  890 264.593 -4.74951 -43.9463
  891 264.011 -4.95233 44.2952
  892 457.098 25.8856 48.4773
  893 105.672 11.4293 1.34406
  894 105.695 11.4277 -1.32887
  895 334.255 1.82268 -8.41943
  896 334.339 1.80738 8.41068
  897 -13.0118 -5.63790 25.3141
  898 -13.0374 -5.66031 -25.3611
  899 1.17390 -126.829 -4.37451
  900 -20.0180 -1.29391 24.8011
  901 -20.0586 -1.29800 -24.8389
  902 13.6241 12.1788 -14.6887
  903 13.7086 12.1530 14.6773
  904 -1.02786 -8.30753 4.59527
  905 -1.03953 -8.29925 -4.60218
  906 29.4399 13.7279 -13.0334
  907 29.5275 13.6958 13.0283
  908 6.38627 -9.60446 26.1133
  909 5.57556 -8.93479 -27.4901
  910 325.125 -9.38582 28.1730
  911 324.357 -8.94850 -28.3215
  912 -105.995 0.279234 -0.803729
  913 -105.882 0.279251 0.803311
  914 -9.22930 -0.829016 4.36029
  915 -9.22116 -0.830481 -4.35911
  916 0.437639 -77.1264 -9.36318
  917 -9.88801 -4.23525 -12.3992
  918 -9.88414 -4.22456 12.3997
  919 -41.3475 3.52926 18.2397
  920 -41.4229 3.53639 -18.2673
  921 102.156 19.4038 -6.80294
  922 102.076 19.4616 6.87794
  923 433.785 33.9582 -7.25560
  924 -4.23827 9.67934 18.6378
  925 -4.32710 9.70153 -18.6596
  926 160.925 10.2946 -46.2566
  927 160.928 10.4415 46.7607
  928 -18.3444 6.71616 15.0045
  929 -18.4279 6.73042 -15.0213
  930 521.967 -24.2762 -7.16200
  931 318.622 12.6821 21.0315
  932 381.339 -4.62290 -37.2246
  933 284.527 3.52316 -18.6906
  934 284.641 3.43585 18.6904
  935 -29.2313 3.96716 -7.29443
  936 -29.1502 3.96224 7.28900
  937 -67.3339 1.20438 9.06761
  938 -67.4223 1.20723 -9.07936
  939 -4.07493 -13.1928 -14.3858
  940 -4.04604 -13.2035 14.4114
  941 101.547 6.28382 0.759925
  942 101.567 6.28438 -0.755658
  943 -31.4244 3.32065 22.6721
  944 -31.4903 3.32316 -22.7092
  945 340.383 -0.342915 4.18117
  946 340.293 -0.339902 -4.18151
  947 -2.54868 -28.9302 21.7271
  948 13.4921 11.1463 -12.5864
  949 13.5703 11.1264 12.5788
  950 18.4107 7.67243 8.19235
  951 18.3441 7.68191 -8.19454
  952 59.6186 5.27517 -1.89052
  953 59.6591 5.27387 1.89198
  954 639.197 82.7132 -19.3857
  955 -2.54391 -0.697128 -1.73066
  956 -2.54938 -0.697072 1.73381
  957 22.4316 6.53938 -15.7133
  958 22.8098 6.36126 15.6428
  959 230.021 8.92143 -19.7537
  960 230.117 8.84829 19.7986
  961 30.2637 9.69070 -7.76258
  962 30.3280 9.67870 7.76282
  963 63.0930 -11.8031 86.2716
  964 430.993 -3.13773 -3.64989
  965 430.392 -3.02072 3.25597
  966 77.1306 -5.89899 75.4431
  967 81.1609 3.25843 -0.322668
  968 81.1314 3.25810 0.323443
  969 209.798 -6.00847 -126.819
  970 158.313 2.42895 1.03695
  971 158.307 2.43005 -1.03638
  972 20.3106 -19.9559 3.69451
  973 22.4439 -16.6341 -2.00381
  974 381.514 -0.461280 1.43818
  975 381.402 -0.460600 -1.43760
  976 -31.3408 0.117138 18.2811
  977 -31.3755 0.115217 -18.3054
  978 684.516 85.9195 39.8569
  979 -2.86513 -21.5620 -28.5735
  980 3.50725 -106.301 12.9503
  981 -0.463217 -34.2886 26.3336
  982 394.587 -0.379339 -5.44158
  983 394.673 -0.392567 5.42043
  984 -5.21445 -9.55106 12.4339
  985 -5.22889 -9.55179 -12.4220
  986 494.112 51.8092 -26.1743
  987 861.931 7.32941 -5.03791
  988 -1.28700 -1.94694 -1.88359
  989 -1.28558 -1.95106 1.88632
  990 230.095 2.36480 -4.29183
  991 230.134 2.36053 4.29299
  992 -2.93430 -20.7134 28.7133
  993 319.724 1.20796 16.6433
  994 319.615 1.29608 -16.6697
  995 420.122 -27.7011 -16.2954
  996 -14.6480 -3.05006 14.0127
  997 -14.6539 -3.06159 -14.0203
  998 7.04435 -26.9345 20.1360
  999 -0.660088 -51.8039 20.6731
  1000 -0.0615510 -53.8538 10.2682
  1001 432.193 28.0124 -2.53355
  1002 493.386 54.1446 14.5220
  1003 352.765 -40.1408 -59.3636
  1004 5.12891 -50.2406 16.2128
  1005 6.48187 -72.1130 3.22301
  1006 98.6607 2.17947 0.257961
  1007 98.6392 2.17873 -0.257891
  1008 -3.90872 -4.45653 -5.94269
  1009 -3.90525 -4.45738 5.94732
  1010 3.43824 -41.2843 -21.8299
  1011 284.239 0.112682 -1.00399
  1012 284.303 0.111467 1.00415
  1013 57.4998 0.465955 -28.5306
  1014 55.0293 0.598424 28.2574
  1015 -4.74814 8.81612 24.5898
  1016 -4.85169 8.84105 -24.6323
  1017 -32.9226 5.10410 -15.2722
  1018 -32.8385 5.09365 15.2535
  1019 217.541 3.51319 -45.1025
  1020 217.662 3.70288 45.5888
  1021 156.827 13.7900 -31.6862
  1022 156.807 13.7908 31.9807
  1023 170.050 12.0106 -10.7383
  1024 170.073 11.9895 10.7710
  1025 440.448 -11.7549 -47.9096
  1026 -11.2462 5.46870 27.0694
  1027 -11.3389 5.47750 -27.1271
  1028 311.767 -0.568849 22.7875
  1029 311.591 -0.380951 -22.7915
  1030 -1.93611 -16.1180 29.9298
  1031 -25.1389 -0.827779 13.5120
  1032 -25.1531 -0.831958 -13.5269
  1033 284.184 2.35341 -22.6716
  1034 284.331 2.22970 22.6825
  1035 353.119 8.62919 -34.4516
  1036 -0.393556 -51.4977 -21.6894
  1037 -4.14410 -20.2687 25.7524
  1038 -4.31889 -20.5138 -25.5378
  1039 200.757 11.4494 -16.3550
  1040 200.819 11.4023 16.4056
  1041 252.936 4.34995 9.32664
  1042 252.880 4.36716 -9.32556
  1043 419.259 -27.0584 14.1200
  1044 21.6590 1.91153 -0.342986
  1045 21.7151 1.91170 0.342914
  1046 356.681 -44.8947 63.3316
  1047 -1.09848 1.28801 1.72710
  1048 -1.16495 1.28785 -1.72764
  1049 77.6546 19.5542 -0.174153
  1050 77.5492 19.6193 0.216757
  1051 29.8195 15.4223 14.3079
  1052 29.7222 15.4620 -14.3180
  1053 3.95769 -62.6062 -13.2951
  1054 103.845 3.65041 0.278281
  1055 103.864 3.65183 -0.275958
  1056 310.690 10.1275 8.67374
  1057 286.952 1.90484 8.65700
  1058 286.884 1.92077 -8.65977
  1059 -1.63775 -16.7485 -29.9822
  1060 431.409 -5.54281 -8.58505
  1061 0.198225 -1.27357 29.6636
  1062 0.523049 -1.03091 -29.5242
  1063 392.249 -0.776255 -3.00887
  1064 392.358 -0.779304 3.00486
  1065 417.968 -1.51432 -5.28947
  1066 417.902 -1.56730 5.15193
  1067 -0.317064 -81.5721 7.71796
  1068 245.946 5.95593 -12.3368
  1069 246.004 5.92712 12.3410
  1070 298.957 2.44999 10.0737
  1071 298.883 2.47075 -10.0797
  1072 7.08830 7.20867 26.5807
  1073 7.04841 7.21112 -26.6109
  1074 648.987 42.8585 6.98843
  1075 -8.13427 -3.47876 30.5949
  1076 -8.26149 -3.40272 -30.6728
  1077 93.5050 18.0691 -1.46558
  1078 93.4536 18.0966 1.50320
  1079 -51.1838 0.899765 -2.66186
  1080 -51.0950 0.899612 2.66051
  1081 153.353 8.99966 -53.2456
  1082 153.142 9.42656 53.8774
  1083 44.4623 17.4158 10.8546
  1084 44.3562 17.4659 -10.8553
  1085 104.318 12.3076 -39.4481
  1086 103.784 12.8208 39.7816
  1087 -2.72410 -27.1724 -21.1742
  1088 367.350 5.15568 45.3639
  1089 256.757 2.32168 164.395
  1090 41.8215 17.9366 11.1972
  1091 41.6969 18.0032 -11.2087
  1092 155.505 7.96620 -3.97541
  1093 155.512 7.95884 3.98435
  1094 560.991 3.51452 11.8017
  1095 36.5328 9.45938 6.68762
  1096 36.0739 9.57283 -6.82681
  1097 -16.6236 -3.63010 18.6354
  1098 -16.6377 -3.64704 -18.6547
  1099 -0.545372 -12.4003 5.01499
  1100 -0.566990 -12.3929 -5.03517
  1101 368.874 -0.561628 13.3851
  1102 368.744 -0.425673 -13.4804
  1103 0.625810 -25.9492 28.0449
  1104 -25.0928 1.64488 -24.7684
  1105 -25.0378 1.64759 24.7303
  1106 0.124630 -98.5654 -9.78434
  1107 -5.66612 -8.00160 30.5482
  1108 -5.65039 -7.83056 -30.5805
  1109 352.656 0.227051 -5.63629
  1110 352.749 0.220206 5.63234
  1111 363.953 -2.98762 16.1177
  1112 363.707 -2.76775 -16.2136
  1113 64.0203 14.4063 -13.6090
  1114 63.5350 14.6830 13.7293
  1115 -0.856356 -50.7759 -17.6531
  1116 478.813 -42.8534 -96.4786
  1117 620.625 81.6739 6.15047
  1118 6.49280 -75.9543 -0.797191
  1119 22.7248 12.8605 -19.1720
  1120 22.8582 12.7896 19.0731
  1121 60.0086 19.2821 4.60233
  1122 59.8663 19.3690 -4.58718
  1123 126.453 7.23503 1.64837
  1124 126.462 7.23837 -1.64153
  1125 -7.99915 -11.3937 24.1144
  1126 -7.98802 -11.5030 -24.1528
  1127 -22.4595 7.11658 19.6310
  1128 -22.5444 7.13217 -19.6577
  1129 -7.67497 9.04947 22.7367
  1130 -7.77012 9.07214 -22.7717
  1131 347.752 -17.7927 -27.7013
  1132 349.967 -17.9305 27.4821
  1133 0.342774 -58.2000 -20.5862
  1134 186.236 -0.172387 -66.5865
  1135 186.519 0.408597 67.6808
  1136 59.9070 17.5613 -5.43978
  1137 59.9848 17.5228 5.45565
  1138 185.838 91.1762 183.693
  1139 47.0336 14.0535 8.02466
  1140 46.9642 14.0761 -8.01825
  1141 473.774 -51.2320 -24.0715
  1142 179.692 4.68673 3.19631
  1143 179.674 4.69214 -3.19315
  1144 -8.05464 -7.17579 14.7721
  1145 -8.06030 -7.19305 -14.7677
  1146 -9.60359 -8.60679 19.0981
  1147 -9.60382 -8.64107 -19.1008
  1148 311.600 -31.2714 -93.2480
  1149 317.812 -34.4545 93.9325
  1150 56.6048 1.98152 0.749516
  1151 56.6453 1.98204 -0.748716
  1152 196.083 9.02999 -36.7165
  1153 196.088 8.91641 37.0792
  1154 425.903 -56.3072 71.6199
  1155 378.591 -0.913929 0.833597
  1156 378.479 -0.913246 -0.833082
  1157 -33.4298 5.32875 17.5395
  1158 -33.5132 5.33953 -17.5629
  1159 -57.6266 1.76784 -9.15228
  1160 -57.5362 1.76448 9.14369
  1161 97.8568 3.16855 111.048
  1162 300.301 19.9967 -17.6220
  1163 179.351 12.5822 -18.2446
  1164 179.403 12.5468 18.3403
  1165 552.242 -14.4007 104.080
  1166 182.301 12.1465 -26.8854
  1167 182.364 12.0870 27.0517
  1168 46.1285 5.68117 -2.91768
  1169 46.1761 5.67899 2.91889
  1170 15.9711 -57.0298 11.2546
  1171 16.1468 -55.4978 -15.5399
  1172 246.825 -16.8656 -94.1384
  1173 250.184 -15.7415 94.0591
  1174 97.0083 16.1267 -27.7239
  1175 96.6007 16.4537 27.9949
  1176 433.467 -28.6915 -30.9077
  1177 -15.6346 -1.24600 27.9533
  1178 -15.6899 -1.24582 -28.0002
  1179 -0.204933 -23.1638 -28.8167
  1180 111.142 3.79316 -70.2141
  1181 111.389 4.11764 71.3967
  1182 -0.277881 -21.9762 5.58800
  1183 -0.237431 -22.0298 -5.65705
  1184 -103.450 0.858926 -2.65682
  1185 -103.342 0.858357 2.65419
  1186 344.285 -0.336786 -1.58189
  1187 344.378 -0.338014 1.58209
  1188 213.384 7.58289 -10.6516
  1189 213.433 7.55546 10.6660
  1190 -7.57618 0.0674969 30.5553
  1191 -7.59973 0.191662 -30.6146
  1192 0.0190478 -88.0755 -8.58171
  1193 -88.0161 0.201660 4.32490
  1194 -88.1065 0.202191 -4.33095
  1195 68.9524 -0.596274 -49.4842
  1196 68.4406 -0.167224 51.0284
  1197 402.469 -24.5990 -1.88123
  1198 115.642 7.83188 -63.1224
  1199 115.718 8.13500 63.7290
  1200 -49.0178 0.266245 6.70430
  1201 -49.0482 0.265964 -6.71350
  1202 1.31081 -76.5309 -14.3247
  1203 -13.6467 2.96380 -3.43303
  1204 -13.5739 2.96250 3.43166
  1205 61.4344 14.7617 5.71107
  1206 61.3693 14.7852 -5.69758
  1207 226.802 0.964639 -1.39293
  1208 226.839 0.963094 1.39339
  1209 305.369 1.20633 6.58324
  1210 305.296 1.21613 -6.58570
  1211 17.0549 -1.81173 16.2520
  1212 16.8007 -2.10111 -16.5614
  1213 2.92457 -43.8726 21.8357
  1214 547.815 75.7257 18.2688
  1215 -16.8664 -1.31271 10.6293
  1216 -16.8690 -1.31836 -10.6355
  1217 2.31938 -41.0887 -22.8896
  1218 -1.60221 -25.5881 15.5457
  1219 -1.52295 -25.3491 -16.1060
  1220 433.186 -4.75014 7.60992
  1221 0.380575 -100.724 8.77496
  1222 3.28047 -30.0978 -25.5380
  1223 52.5361 1.49328 0.516494
  1224 52.4939 1.49269 -0.516613
  1225 -4.20603 -18.1456 28.2866
  1226 -47.0296 2.66235 -7.71415
  1227 -46.9419 2.65908 7.70804
  1228 878.101 15.0642 25.0909
  1229 -24.7746 2.95684 24.9975
  1230 -24.8397 2.95679 -25.0391
  1231 209.410 8.27904 -33.1885
  1232 209.582 8.13205 33.3814
  1233 13.8084 -19.9427 -10.4169
  1234 199.227 9.95109 -13.4848
  1235 199.278 9.91413 13.5192
  1236 8.32857 -60.2230 -2.81723
  1237 -4.22133 -18.1858 -28.2443
  1238 -32.5515 1.27000 4.54851
  1239 -32.6326 1.27082 -4.55082
  1240 -14.9309 1.23370 -28.5498
  1241 -14.8635 1.23792 28.5053
  1242 426.116 34.2637 34.3116
  1243 242.044 2.63150 -35.0795
  1244 242.320 2.56379 35.1669
  1245 -108.125 0.239145 -0.955274
  1246 -108.011 0.239075 0.954585
  1247 218.073 5.01543 -7.21393
  1248 218.110 5.00500 7.21760
  1249 -110.827 -1.92358 -0.299907
  1250 -110.943 -1.92455 0.300021
  1251 325.043 -23.0812 -40.1877
  1252 -51.0358 0.877141 14.1412
  1253 -51.0944 0.877723 -14.1627
  1254 328.279 -24.3615 39.8259
  1255 221.887 7.84112 -14.6149
  1256 221.947 7.79888 14.6347
  1257 26.2007 -56.9889 -49.0433
  1258 0.478544 -70.3930 -17.6258
  1259 -1.42434 -29.5624 26.5131
  1260 693.127 119.265 -100.880
  1261 -0.161460 -66.1161 17.2640
  1262 722.896 68.2507 -44.9594
  1263 -0.408514 -122.563 -8.17691
  1264 35.7723 3.37413 -0.967109
  1265 35.8226 3.37357 0.967619
  1266 -0.303665 -28.2139 5.85533
  1267 -0.244143 -28.3648 -5.84000
  1268 124.221 2.88129 0.159338
  1269 124.231 2.88243 -0.158704
  1270 438.164 -32.9280 29.3159
  1271 9.67999 3.19866 -3.97729
  1272 9.74280 3.19718 3.97624
  1273 2.52633 -133.607 3.68366
  1274 1.60473 -142.368 -3.65360
  1275 402.967 -49.6995 -43.3212
  1276 -1.09961 -36.5638 17.1628
  1277 423.171 27.5249 -43.5139
  1278 -1.25695 -48.1820 16.8589
  1279 0.847702 -131.603 -6.19017
  1280 203.572 5.53895 -7.92908
  1281 203.607 5.52074 7.93793
  1282 -0.155644 -71.9061 7.61683
  1283 -0.178995 -59.5868 -17.1517
  1284 948.969 168.009 144.923
  1285 380.315 0.160062 0.635763
  1286 380.203 0.160096 -0.635384
  1287 10.4213 1.08290 24.0581
  1288 10.0961 1.49191 -24.1721
  1289 -5.52606 5.65585 28.5853
  1290 -5.66886 5.66365 -28.6548
  1291 407.009 -7.46612 -26.4707
  1292 376.694 -15.8691 -15.9984
  1293 376.336 -18.0365 16.1773
  1294 57.1129 6.44539 2.90914
  1295 57.0690 6.44797 -2.90624
  1296 -61.4170 1.63808 -10.9853
  1297 -61.3328 1.63457 10.9700
  1298 420.034 -57.0575 -61.1845
  1299 -3.13360 -7.59113 7.75588
  1300 -3.14581 -7.58584 -7.75252
  1301 443.319 -18.5733 45.2183
  1302 -4.61798 -17.4531 20.8734
  1303 -4.56696 -17.5186 -20.7784
  1304 -38.5811 2.55673 5.44280
  1305 -38.6652 2.55899 -5.44629
  1306 67.6162 8.06039 -25.9289
  1307 66.9339 8.44372 25.9112
  1308 105.825 2.74219 0.314855
  1309 105.807 2.74109 -0.314241
  1310 -42.3764 4.27173 17.3585
  1311 -42.4560 4.27975 -17.3825
  1312 357.068 0.765876 0.988052
  1313 356.968 0.765726 -0.987527
  1314 197.877 -0.756977 125.567
  1315 292.150 0.415349 2.32987
  1316 292.082 0.416809 -2.32939
  1317 195.004 4.15732 -50.8443
  1318 195.032 3.93452 51.2849
  1319 1.89276 -76.8391 -10.0902
  1320 75.9697 18.1692 -11.2815
  1321 75.6439 18.3853 11.4084
  1322 -0.742185 -0.666677 -0.971576
  1323 -0.745928 -0.666872 0.974404
  1324 250.578 7.33546 18.8769
  1325 250.483 7.41309 -18.8566
  1326 125.046 9.94284 3.05947
  1327 125.056 9.94605 -3.04557
  1328 183.738 10.0142 -9.23067
  1329 183.769 9.99275 9.25212
  1330 240.050 1.17010 -2.34159
  1331 240.094 1.16842 2.34227
  1332 -7.62899 -3.68827 -8.75475
  1333 -7.62728 -3.68372 8.75880
  1334 -72.1358 0.0573777 3.22870
  1335 -72.2336 0.0576118 -3.23090
  1336 -12.9493 -5.91912 -21.3337
  1337 -12.9381 -5.88892 21.3101
  1338 -40.5689 0.597821 1.34726
  1339 -40.6528 0.597508 -1.34783
  1340 -112.094 1.01578 0.543706
  1341 -112.210 1.01609 -0.543951
  1342 451.265 -55.7370 83.1677
  1343 329.743 -1.86822 -37.0389
</Section>

newXOutput 54

<Section columns = "stress_xx | stress_yy | stress_xy">
  1 398.685 -0.618638 0.410274
  2 398.807 -0.619066 -0.410477
  3 -123.424 0.581704 -1.68571
  4 0.197307 0.0490990 0.350599
  5 721.536 211.567 236.098
  6 815.780 239.037 -226.984
  7 0.196424 0.0482923 -0.349424
  8 -123.299 0.581588 1.68497
  9 397.495 -0.587003 -1.31951
  10 397.823 -1.23589 -2.13392
  11 401.568 -1.22808 -0.575584
  12 401.987 -1.18450 -2.51273
  13 403.019 -1.16343 -0.790050
  14 411.406 -1.10157 -1.09204
  15 414.338 -1.59047 -3.37125
  16 417.525 -0.773802 -2.31584
  17 419.578 0.109315 -4.46831
  18 436.534 -2.43419 -3.82545
  19 443.917 -1.90294 -4.91607
  20 452.114 -2.85665 -1.97791
  21 456.126 -3.77049 -1.23528
  22 453.218 -4.32373 5.69642
  23 438.238 -4.81431 12.0947
  24 403.164 -5.32725 25.9939
  25 346.120 3.09019 30.2978
  26 299.231 3.78166 28.1552
  27 233.845 7.67087 17.0614
  28 248.509 7.45839 1.59593
  29 209.016 22.1806 -10.8290
  30 284.450 10.2097 -30.7475
  31 325.799 2.55121 -25.1328
  32 395.324 -1.12388 -21.7639
  33 433.374 -5.83996 -14.5216
  34 452.575 -5.03558 -5.66177
  35 455.288 -3.65421 1.26346
  36 451.544 -2.81977 1.85900
  37 443.702 -1.91477 4.77483
  38 436.480 -2.46479 3.74497
  39 419.638 0.0919958 4.43055
  40 417.624 -0.780330 2.30200
  41 414.456 -1.59467 3.36700
  42 411.530 -1.10379 1.09014
  43 403.142 -1.16488 0.789561
  44 402.111 -1.18577 2.51402
  45 401.692 -1.22903 0.575985
  46 397.945 -1.23670 2.13524
  47 397.617 -0.587420 1.32033
  48 376.140 0.925286 -0.498256
  49 348.469 0.270614 -1.10571
  50 313.858 -1.23229 -1.11087
  51 277.944 0.846216 -0.924041
  52 246.451 0.569589 -0.734342
  53 212.725 1.65346 -0.868205
  54 179.410 3.39245 -0.522287
  55 144.796 3.01774 -1.09318
  56 116.069 2.07099 -1.53340
  57 78.3431 1.26491 -1.61583
  58 39.9997 2.05447 -1.23204
  59 7.97914 1.70480 -1.19128
  60 -31.9917 0.977905 -1.08701
  61 -61.7124 -0.397082 -2.66803
  62 -90.5037 -1.98075 -1.21848
  63 -119.713 0.241760 0.823333
  64 -126.038 2.15882 -0.307880
  65 -126.492 0.949721 0.379919
  66 -122.289 0.471146 -0.140010
  67 -123.665 1.38757 -1.51403
  68 -121.724 1.68890 -0.126268
  69 -115.150 0.513731 -2.32785
  70 -116.556 1.04225 -2.50667
  71 -113.653 0.986962 -1.40139
  72 -105.238 0.615238 -2.12247
  73 -101.389 1.11572 -3.51714
  74 -95.2434 1.25114 -2.88203
  75 -84.3134 0.637063 -5.01028
  76 -78.1834 0.197220 -4.18598
  77 -67.1043 0.283223 -4.83799
  78 -57.5727 0.219950 -5.36304
  79 -49.2530 0.0757553 -4.23309
  80 -37.6928 0.249617 -4.26742
  81 -27.7213 -0.104618 -4.56805
  82 -18.0722 -0.496155 -4.01439
  83 -10.4229 -0.435131 -3.07782
  84 -5.12444 -0.764078 -2.57329
  85 -0.858604 -0.441877 -0.920268
  86 0.0563984 -0.492320 -0.329334
  87 -0.265647 -0.261783 -0.0644506
  88 -0.691945 -0.690775 -0.806355
  89 -0.672009 -4.33543 -2.23514
  90 -0.571961 -9.71380 -3.18336
  91 -0.294775 -16.5705 -4.64086
  92 -0.151319 -25.4470 -4.00124
  93 -0.123787 -33.6040 -5.03490
  94 -0.615296 -43.5528 -5.67916
  95 -0.251897 -55.8421 -5.73078
  96 0.116634 -68.2199 -5.48658
  97 0.267646 -81.4791 -5.41124
  98 0.412980 -95.0992 -5.31788
  99 0.0207764 -105.081 -7.19526
  100 0.700767 -119.309 -6.43715
  101 0.863738 -135.964 -5.12282
  102 -0.0654862 -143.228 -6.80001
  103 1.22264 -155.282 -6.29214
  104 3.02690 -171.305 -2.90539
  105 5.92020 -175.350 -4.61500
  106 4.21588 -159.448 4.66417
  107 6.20895 -118.528 18.4046
  108 31.2109 -64.1142 52.5250
  109 97.2287 147.243 174.764
  110 1109.03 60.1310 110.416
  111 952.878 17.7240 40.0091
  112 922.151 6.37602 9.15989
  113 915.542 2.02182 -1.47650
  114 921.828 9.90212 -21.1046
  115 951.234 32.2091 -47.5155
  116 1079.65 117.793 -140.287
  117 233.499 114.924 -213.092
  118 52.5754 -63.4575 -63.6589
  119 15.5013 -129.800 -23.9352
  120 4.30784 -150.938 -4.99571
  121 4.77857 -168.686 2.37992
  122 1.35214 -164.543 2.15714
  123 0.473812 -151.378 5.31828
  124 0.521643 -142.576 4.20586
  125 0.746994 -128.484 7.26649
  126 -0.0372573 -120.396 7.08737
  127 0.295777 -108.776 5.09853
  128 0.580907 -93.9633 6.49720
  129 0.115893 -83.3811 5.14840
  130 0.169274 -68.2958 6.50469
  131 -0.682274 -56.5169 5.59231
  132 -0.474396 -43.5885 5.50122
  133 -0.0866392 -33.4173 5.04741
  134 -0.196829 -25.3000 4.00832
  135 -0.287667 -16.5218 4.59554
  136 -0.563642 -9.70727 3.16749
  137 -0.668434 -4.34202 2.23355
  138 -0.691038 -0.697828 0.807956
  139 -0.265607 -0.264823 0.0664859
  140 0.0527074 -0.492785 0.331184
  141 -0.865554 -0.441628 0.922619
  142 -5.13489 -0.763341 2.57562
  143 -10.4368 -0.433770 3.07852
  144 -18.0832 -0.494475 4.01271
  145 -27.7239 -0.103227 4.56337
  146 -37.6854 0.249892 4.26192
  147 -49.2318 0.0764180 4.22731
  148 -57.5388 0.220726 5.35634
  149 -67.0534 0.283156 4.83091
  150 -78.1170 0.197109 4.17931
  151 -84.2365 0.636605 5.00367
  152 -95.1520 1.25035 2.87687
  153 -101.289 1.11485 3.51286
  154 -105.131 0.614664 2.11972
  155 -113.538 0.986340 1.39959
  156 -116.438 1.04173 2.50475
  157 -115.031 0.513532 2.32629
  158 -121.602 1.68817 0.125887
  159 -123.541 1.38701 1.51319
  160 -122.165 0.471044 0.139881
  161 -126.366 0.949397 -0.379762
  162 -125.913 2.15798 0.307742
  163 -119.590 0.241785 -0.823000
  164 -90.3946 -1.97958 1.21794
  165 -61.6164 -0.396423 2.66690
  166 -31.9092 0.978137 1.08655
  167 8.04342 1.70491 1.19078
  168 40.0494 2.05466 1.23154
  169 78.3754 1.26575 1.61519
  170 116.084 2.07174 1.53279
  171 144.798 3.01833 1.09276
  172 179.396 3.39294 0.522036
  173 212.695 1.65459 0.867736
  174 246.406 0.570953 0.733871
  175 277.883 0.847016 0.923415
  176 313.780 -1.23088 1.11017
  177 348.374 0.270839 1.10508
  178 376.029 0.924977 0.497979
  179 106.127 18.3857 -4.84872
  180 106.067 18.4193 4.90784
  181 -1.65904 3.25601 29.6237
  182 -1.77469 3.23305 -29.6403
  183 240.698 -3.26163 -54.4609
  184 240.527 -3.72133 55.0299
  185 48.4142 11.5072 -3.05311
  186 47.8392 11.7102 3.06857
  187 35.7330 5.99702 -4.40206
  188 35.7886 5.99296 4.40251
  189 227.561 4.15708 -8.10925
  190 227.605 4.14197 8.11447
  191 -3.37316 9.12761 15.9796
  192 -3.45958 9.14708 -15.9961
  193 264.343 6.56207 -20.6495
  194 264.466 6.46835 20.6765
  195 -10.2020 -8.86047 23.6982
  196 -10.1999 -8.91315 -23.7294
  197 2.50562 -20.9837 -28.0403
  198 82.8766 5.35401 -50.4307
  199 3.04478 -22.4560 27.3605
  200 81.5595 6.00881 51.2150
  201 374.268 -49.7716 -78.8420
  202 387.191 -51.7327 75.6932
  203 135.192 4.32922 -1.41257
  204 135.186 4.32697 1.41526
  205 -20.5806 1.45275 -3.09812
  206 -20.5030 1.45249 3.09677
  207 -29.4450 4.58127 22.7592
  208 -29.5225 4.58990 -22.7970
  209 135.918 12.2658 -4.22680
  210 135.912 12.2629 4.24654
  211 41.8647 17.4184 10.5301
  212 41.7005 17.5224 -10.5677
  213 -37.5396 4.05422 -9.31055
  214 -37.4525 4.04861 9.30233
  215 301.712 0.296069 3.83782
  216 301.640 0.299760 -3.83777
  217 9.87188 -39.3928 11.4598
  218 10.7295 -35.6085 -10.0636
  219 -2.77274 -25.0884 26.6860
  220 -2.84037 -26.0748 -25.8511
  221 125.786 18.0973 -22.2666
  222 125.669 18.1858 22.4861
  223 -26.7791 -0.0567069 23.0479
  224 -26.8232 -0.0604574 -23.0815
  225 322.753 1.69581 -11.2417
  226 322.837 1.66890 11.2301
  227 347.634 -5.20517 -22.2597
  228 347.909 -5.55100 22.1736
  229 555.982 42.1143 0.109243
  230 510.093 57.1583 28.5779
  231 502.028 -3.38245 -43.3831
  232 62.3125 13.6469 5.42463
  233 62.2539 13.6652 -5.41419
  234 4.81453 11.3494 22.5870
  235 4.70823 11.3829 -22.6192
  236 388.364 -23.4760 -15.3085
  237 386.123 -23.7589 16.5685
  238 215.218 1.69245 -2.98098
  239 215.249 1.68888 2.98219
  240 -47.2918 3.35906 15.1301
  241 -47.3766 3.36630 -15.1505
  242 -6.55637 -6.44928 -10.6929
  243 -6.55013 -6.44484 10.6991
  244 -52.1242 1.22809 4.68098
  245 -52.2160 1.22922 -4.68403
  246 177.439 13.0279 -13.9955
  247 177.471 13.0000 14.0476
  248 225.477 6.64943 -31.1631
  249 225.650 6.53530 31.2973
  250 55.1868 3.35391 -0.218956
  251 55.2301 3.35374 0.219617
  252 130.674 2.83057 -108.296
  253 154.489 6.43167 117.878
  254 17.9407 8.30086 21.3476
  255 17.8613 8.47743 -21.4407
  256 527.185 -39.2976 -11.9715
  257 46.6994 17.3389 9.14966
  258 46.6073 17.3808 -9.14463
  259 128.218 13.9178 -41.0879
  260 127.971 14.2573 41.5228
  261 589.842 83.7274 -3.37105
  262 350.014 0.0347976 15.2122
  263 349.893 0.138843 -15.2618
  264 -3.15016 -19.5112 -16.7394
  265 -3.05749 -19.5883 16.8049
  266 -0.661059 -46.2399 -22.9448
  267 1.61035 -53.8053 -21.0005
  268 0.865112 -53.9173 22.0593
  269 -8.60635 -7.44673 30.3775
  270 -8.64416 -7.43579 -30.4997
  271 19.0115 -41.8643 -8.64060
  272 20.4626 -38.4596 11.8514
  273 -20.1507 -1.68186 14.6942
  274 -20.1626 -1.68961 -14.7083
  275 249.559 6.69979 -12.8974
  276 249.628 6.66191 12.9049
  277 436.148 -44.6097 -4.43782
  278 97.3265 8.06759 0.0206807
  279 97.3517 8.06664 -0.0147839
  280 -1.12066 -43.4039 21.9424
  281 10.0724 8.87692 10.1744
  282 9.99757 8.89043 -10.1798
  283 692.136 48.0663 -19.2789
  284 339.276 0.0739558 4.69111
  285 339.188 0.0797950 -4.69340
  286 228.819 -10.5489 -81.7064
  287 230.795 -10.3670 82.9362
  288 435.594 -42.3087 -2.67645
  289 -41.0730 1.29317 18.1884
  290 -41.1275 1.29340 -18.2160
  291 426.085 -33.0629 133.115
  292 -18.0566 3.15199 27.5043
  293 -18.1274 3.14785 -27.5525
  294 72.9591 20.0194 -6.24274
  295 72.6760 20.2081 6.32524
  296 -74.5876 0.561164 0.826317
  297 -74.6894 0.561045 -0.826744
  298 359.289 9.20210 -180.959
  299 -70.2403 1.40556 -8.13193
  300 -70.1450 1.40275 8.12246
  301 -1.84383 -8.67646 30.8782
  302 -0.767142 -8.44148 -30.5486
  303 159.107 16.0226 -20.2083
  304 159.116 16.0167 20.3361
  305 35.4532 3.96828 3.30898
  306 35.3998 3.96962 -3.30922
  307 165.441 6.13107 -4.25456
  308 165.451 6.12503 4.26036
  309 15.8183 -11.1522 15.6137
  310 14.4194 -13.4746 -15.8235
  311 160.595 2.62300 -1.06727
  312 160.601 2.62138 1.06813
  313 -57.8550 1.51082 13.3065
  314 -57.9265 1.51313 -13.3268
  315 40.5058 -3.03121 -10.7275
  316 39.3088 -3.08621 9.66033
  317 353.607 -0.431665 1.31137
  318 353.509 -0.430797 -1.31083
  319 770.558 43.7330 30.9457
  320 81.0499 10.5571 1.87887
  321 81.0121 10.5630 -1.86942
  322 -16.0507 3.80302 6.40407
  323 -16.1287 3.80715 -6.40795
  324 111.197 14.8041 -3.20470
  325 111.168 14.8122 3.23798
  326 13.4365 11.6409 23.3815
  327 13.3484 11.6671 -23.4395
  328 1.68423 -77.8214 15.3720
  329 -77.3350 0.115777 -1.90156
  330 -77.2320 0.115967 1.90048
  331 270.585 0.520956 -2.50837
  332 270.642 0.518923 2.50887
  333 284.913 1.69938 -6.65125
  334 284.978 1.68861 6.65016
  335 -72.1872 1.20820 -5.87599
  336 -72.0875 1.20662 5.87109
  337 -0.311391 1.27016 0.687885
  338 -0.379543 1.26995 -0.688105
  339 -1.62060 -32.1761 16.6936
  340 -1.28709 -33.4678 -16.6708
  341 321.299 -26.4499 -55.3023
  342 333.628 -31.6364 54.3021
  343 191.199 9.03376 -8.68733
  344 191.229 9.01617 8.70172
  345 84.7695 19.7302 -3.57402
  346 84.6271 19.8185 3.63932
  347 -28.7348 5.62813 13.2810
  348 -28.8205 5.63877 -13.2956
  349 595.356 13.3923 17.6063
  350 31.9928 -44.0949 -36.6207
  351 34.2126 -40.8706 38.2890
  352 -12.0267 9.15973 21.3542
  353 -12.1185 9.18038 -21.3849
  354 -16.3444 -3.24200 26.9363
  355 -16.3867 -3.24998 -26.9843
  356 674.981 114.118 -34.0058
  357 435.354 -5.71047 53.9726
  358 405.208 -9.65179 -10.2197
  359 404.871 -9.42690 9.58023
  360 284.871 -3.47245 -35.2661
  361 284.542 -3.75061 35.2832
  362 0.537805 -93.7534 -12.3788
  363 370.630 0.719229 -8.51200
  364 370.718 0.690120 8.48503
  365 4.87318 -87.9231 9.47035
  366 431.865 33.8525 -28.6696
  367 106.047 3.37054 1.18520
  368 106.027 3.37016 -1.18533
  369 286.375 1.86066 -26.1804
  370 286.562 1.71762 26.2143
  371 308.135 2.25658 -15.8216
  372 308.232 2.19317 15.8063
  373 -4.73543 3.30808 4.26714
  374 -4.80725 3.31014 -4.26888
  375 177.804 9.84854 -42.0431
  376 177.849 9.95931 42.4187
  377 364.372 -0.320923 2.14535
  378 364.269 -0.319405 -2.14518
  379 207.755 11.1139 -21.2952
  380 207.835 11.0485 21.3737
  381 239.428 3.43060 5.46578
  382 239.383 3.43732 -5.46427
  383 -11.4170 -2.05122 9.08213
  384 -11.4165 -2.05664 -9.08253
  385 -2.71964 -1.93127 -2.65414
  386 -2.72088 -1.93221 2.65821
  387 486.350 -59.6730 36.1720
  388 -6.29960 -15.2084 24.6777
  389 -6.25685 -15.3398 -24.6808
  390 80.3008 4.94907 -1.31674
  391 80.3332 4.94887 1.31882
  392 -2.41292 -12.1188 9.12281
  393 -2.44047 -12.0996 -9.12420
  394 31.3677 13.7109 11.0214
  395 31.2879 13.7370 -11.0235
  396 397.535 -1.85476 11.2725
  397 397.412 -1.71149 -11.4614
  398 -0.875243 -23.3499 29.5293
  399 -32.6331 -0.580364 13.8897
  400 -32.6576 -0.583313 -13.9077
  401 -1.00141 -24.6781 -29.1989
  402 372.909 -0.0358496 5.42397
  403 372.811 -0.0272539 -5.43171
  404 -3.03252 8.38780 26.9065
  405 -3.15613 8.41373 -26.9578
  406 276.446 3.81018 -10.5733
  407 276.513 3.78699 10.5712
  408 424.495 -18.1625 -8.62586
  409 425.758 -14.6939 6.43484
  410 -0.851016 -43.8104 -18.2763
  411 38.7519 14.4883 -7.27706
  412 39.0707 14.3315 7.23363
  413 424.862 27.6840 17.8423
  414 241.278 -11.9813 -112.798
  415 247.627 -16.4381 117.999
  416 15.0511 13.1190 17.1768
  417 14.9562 13.1509 -17.1936
  418 177.837 4.55015 -2.91183
  419 177.852 4.54658 2.91421
  420 172.820 31.4271 179.145
  421 72.1731 16.6013 -3.68028
  422 72.2428 16.5703 3.70187
  423 4.52522 -41.0965 19.5931
  424 -0.530052 -71.1437 -15.8127
  425 28.9568 16.1629 15.8303
  426 28.8460 16.2109 -15.8515
  427 35.8343 9.18032 -6.60545
  428 35.8952 9.17061 6.60641
  429 -11.7599 -0.469322 -30.2580
  430 -11.6902 -0.486076 30.2060
  431 86.1330 17.0962 -17.3525
  432 85.7651 17.3518 17.5307
  433 427.141 -13.5065 -40.8630
  434 12.3612 -3.78667 22.9502
  435 11.9597 -3.68134 -23.0978
  436 311.100 -13.3880 -38.9612
  437 312.380 -14.3235 38.9073
  438 -77.0604 0.603420 -7.97796
  439 -76.9704 0.601487 7.96691
  440 0.00106741 -69.9408 14.2478
  441 -0.496420 -44.4551 16.2781
  442 -31.2793 2.07267 23.2637
  443 -31.3372 2.07174 -23.3000
  444 222.993 1.57588 -1.09119
  445 223.028 1.57409 1.09142
  446 -6.64917 -10.5042 16.8142
  447 -6.66071 -10.5287 -16.7972
  448 139.772 7.78019 -61.0340
  449 139.491 8.40566 61.7142
  450 1.16267 -84.3753 -15.5430
  451 769.141 26.8726 0.502795
  452 2.17378 -99.1870 -8.63904
  453 -90.6774 -0.0586696 -2.84904
  454 -90.5687 -0.0586598 2.84720
  455 -34.6342 4.96384 18.8620
  456 -34.7180 4.97442 -18.8902
  457 -40.9859 0.591203 13.9314
  458 -41.0226 0.591004 -13.9506
  459 152.692 15.4197 -13.8427
  460 152.697 15.4187 13.9207
  461 230.174 8.78847 -16.4697
  462 230.252 8.73279 16.5003
  463 -3.77356 -14.1104 30.5521
  464 -3.77909 -14.0174 -30.6812
  465 400.357 7.29104 -51.5333
  466 27.6952 -6.12761 -3.59946
  467 26.7309 -6.36117 4.09480
  468 6.43655 -88.6259 -1.84342
  469 4.14727 -103.209 -1.13958
  470 -12.1051 -5.39789 17.3018
  471 -12.1111 -5.41772 -17.3098
  472 85.4626 -4.10130 -93.9569
  473 608.369 3.46199 -62.7744
  474 139.091 8.61948 4.09420
  475 139.094 8.62407 -4.08290
  476 201.875 2.30490 -58.5807
  477 202.317 2.24521 59.4461
  478 59.8254 20.5411 5.58101
  479 59.7101 20.6095 -5.56664
  480 182.349 13.4147 -31.0241
  481 182.423 13.3506 31.2481
  482 7.00974 3.89873 27.3346
  483 7.41223 4.10140 -27.3023
  484 -80.5124 1.15857 -5.83262
  485 -80.4110 1.15718 5.82677
  486 399.539 -46.2504 -31.9470
  487 316.926 -0.0970156 -1.79500
  488 317.005 -0.0980601 1.79562
  489 18.1133 2.04672 -1.75087
  490 18.1735 2.04657 1.75051
  491 -19.7064 7.34881 17.4908
  492 -19.7940 7.36462 -17.5127
  493 -45.1299 2.72797 -6.27717
  494 -45.0406 2.72499 6.27242
  495 139.132 13.1962 -6.34466
  496 139.128 13.1916 6.37479
  497 -16.0840 6.40805 24.7958
  498 -16.1737 6.42326 -24.8396
  499 365.726 -10.4758 -20.8865
  500 366.346 -10.9853 20.6104
  501 240.638 2.44688 -39.0462
  502 240.273 2.28383 39.3773
  503 90.2732 3.87841 -0.718237
  504 90.3003 3.87882 0.719034
  505 1.02085 -43.0598 -24.9392
  506 429.072 -15.3085 33.4860
  507 6.04322 -27.9937 -22.3083
  508 122.810 19.4161 14.2680
  509 122.889 19.3595 -14.1396
  510 395.187 -43.2728 31.5773
  511 30.6376 -36.9921 49.9625
  512 469.908 -59.0042 -62.4818
  513 320.558 0.995918 19.0653
  514 320.415 1.11930 -19.0847
  515 0.979224 -36.7875 25.9528
  516 -6.28182 -1.86897 -4.86620
  517 -6.28456 -1.86800 4.86968
  518 40.3840 1.85841 -0.493009
  519 40.4336 1.85873 0.492992
  520 -1.07775 -24.8910 10.7399
  521 -0.977840 -24.7758 -10.7958
  522 264.194 2.33303 4.29655
  523 264.139 2.33656 -4.29588
  524 740.704 132.471 57.8972
  525 31.3080 -17.6947 -10.6972
  526 24.3943 -24.2963 5.59636
  527 -6.45797 5.54384 -8.54291
  528 -6.38124 5.53614 8.53732
  529 -64.0912 1.01038 8.33884
  530 -64.1511 1.01151 -8.35109
  531 0.648554 -79.2050 15.5426
  532 -88.9634 0.736417 0.765274
  533 -89.0719 0.736472 -0.765711
  534 82.5303 -3.67891 -69.3454
  535 80.7250 -2.33690 71.9769
  536 75.6449 13.7536 -24.4200
  537 75.0758 14.0884 24.5753
  538 -17.1598 -3.55524 23.6042
  539 -17.1871 -3.57068 -23.6396
  540 74.6461 6.38171 1.33700
  541 74.6100 6.38322 -1.33373
  542 -36.6900 1.65701 2.62452
  543 -36.7751 1.65770 -2.62600
  544 87.7951 12.4758 1.19066
  545 87.7559 12.4857 -1.17415
  546 -1.73599 -5.66653 4.16275
  547 -1.74202 -5.66158 -4.16198
  548 32.1704 13.9015 13.9870
  549 31.9568 14.0931 -14.0614
  550 25.9852 4.64006 12.1781
  551 25.6190 4.60651 -12.3951
  552 324.072 1.97297 8.02086
  553 323.990 1.98466 -8.02516
  554 287.177 3.46838 12.8626
  555 287.098 3.50594 -12.8677
  556 -0.294231 -67.3114 -9.89984
  557 201.795 9.76065 -12.7081
  558 201.839 9.73134 12.7338
  559 202.202 4.31496 -4.83566
  560 202.230 4.30725 4.83945
  561 -26.0247 0.854162 0.0357770
  562 -25.9450 0.854436 -0.0357566
  563 348.333 18.6043 -9.92267
  564 450.707 -56.3004 -23.6458
  565 373.447 17.4143 38.8845
  566 3.11335 -56.7773 -18.0139
  567 -18.8363 6.22957 -11.4018
  568 -18.7535 6.21976 11.3919
  569 3.31063 -32.8198 24.3746
  570 -19.6918 0.649455 26.9396
  571 -19.7478 0.646259 -26.9811
  572 575.859 55.2406 1.22669
  573 132.197 5.76392 -1.95055
  574 132.190 5.76134 1.95496
  575 865.928 73.9071 -76.7183
  576 -3.98734 -3.08639 31.3176
  577 -3.68701 -2.85559 -31.3414
  578 476.248 -41.5553 17.2442
  579 382.874 0.151506 -9.45567
  580 382.959 0.102972 9.40518
  581 177.513 0.557005 -84.8680
  582 179.590 0.0118134 86.1648
  583 -9.70812 -9.30585 27.2988
  584 -9.71829 -9.35515 -27.3719
  585 93.6138 8.88732 45.5598
  586 94.3972 8.19747 -45.1952
  587 -74.8523 0.855166 -7.80452
  588 -74.7698 0.853755 7.79325
  589 561.251 49.3983 29.6080
  590 108.254 9.58769 0.926389
  591 108.275 9.58691 -0.916639
  592 127.623 15.9044 -31.3786
  593 127.446 16.0962 31.7049
  594 346.968 -1.01219 -18.6300
  595 347.151 -1.18240 18.5851
  596 -1.50665 -34.9256 -24.5365
  597 376.424 -0.583971 2.84066
  598 376.316 -0.581837 -2.84101
  599 -53.4814 0.993378 -0.994086
  600 -53.3891 0.993323 0.993533
  601 -95.4619 -0.715418 0.0103682
  602 -95.5733 -0.715990 -0.0104117
  603 8.26080 -51.6565 -7.86828
  604 -3.49829 -22.7358 21.0951
  605 -3.68983 -21.5016 -21.2360
  606 -42.4662 2.65516 19.3479
  607 -42.5331 2.65893 -19.3778
  608 264.495 6.10505 16.2778
  609 264.409 6.16302 -16.2709
  610 195.075 2.13318 1.13290
  611 195.054 2.13448 -1.13242
  612 44.6661 -10.6434 29.3044
  613 46.0657 -9.69838 -29.0431
  614 -1.34905 -17.3657 9.07909
  615 -1.39113 -17.3111 -9.11010
  616 450.996 34.6797 193.226
  617 -22.3805 -0.680871 8.40357
  618 -22.3826 -0.684100 -8.41074
  619 8.26212 -31.2024 -17.7490
  620 190.991 7.17286 -6.64649
  621 191.015 7.16158 6.65467
  622 94.2905 19.8159 -10.8334
  623 94.1055 19.9384 10.9577
  624 0.912312 -118.852 5.94846
  625 70.9790 19.2106 3.00611
  626 70.8925 19.2581 -2.98012
  627 -6.51507 7.83745 13.7175
  628 -6.59783 7.85189 -13.7300
  629 -0.537978 -59.2872 13.5129
  630 -95.5393 0.0662135 -2.84957
  631 -95.4289 0.0660387 2.84748
  632 126.191 2.98223 0.615621
  633 126.201 2.98387 -0.614235
  634 315.827 0.624416 5.33850
  635 315.749 0.630126 -5.33926
  636 279.661 -17.5776 147.661
  637 224.997 5.22164 -9.96165
  638 225.044 5.19978 9.97023
  639 3.96294 -4.30064 28.7909
  640 4.80434 -2.32033 -28.7184
  641 358.911 -34.5064 -119.743
  642 839.799 28.6952 -31.8880
  643 -88.2607 0.0545729 -5.37441
  644 -88.1628 0.0537003 5.36782
  645 22.6039 4.53934 -3.91234
  646 22.6638 4.53665 3.91176
  647 -1.64429 -37.1051 21.7046
  648 486.300 29.7013 -47.0604
  649 372.170 -0.764445 0.498958
  650 372.061 -0.763808 -0.498628
  651 -23.8963 -1.27382 -19.4824
  652 -23.8698 -1.26753 19.4571
  653 -0.0746770 -84.1399 -12.9236
  654 378.537 -0.768906 1.09378
  655 378.426 -0.768157 -1.09322
  656 35.9969 11.8494 9.26622
  657 35.9272 11.8673 -9.26539
  658 290.477 -24.6280 -78.8078
  659 295.647 -24.5179 79.6629
  660 422.237 -2.80405 6.55650
  661 422.295 -2.77694 -6.82187
  662 1.86213 -105.754 9.96663
  663 -21.7688 0.615169 -1.51590
  664 -21.6909 0.615464 1.51525
  665 139.264 17.8375 -140.763
  666 131.231 2.61655 1.07679
  667 131.239 2.61741 -1.07608
  668 65.3046 4.49954 0.519861
  669 65.2655 4.50002 -0.518514
  670 77.3776 8.11060 -0.835148
  671 77.4140 8.10764 0.841323
  672 248.120 6.67171 -25.1837
  673 248.265 6.56279 25.2486
  674 66.5680 19.2643 -0.0800679
  675 66.3677 19.3987 0.110475
  676 -43.8624 3.27132 -10.8607
  677 -43.7737 3.26488 10.8493
  678 -51.3024 3.54180 -12.4222
  679 -51.2140 3.53530 12.4067
  680 434.298 -6.64655 -0.991811
  681 0.647409 -17.2123 -29.5634
  682 434.891 -6.97101 0.401943
  683 553.815 43.1485 -1.53447
  684 -54.3895 0.259485 9.49892
  685 -54.4358 0.259308 -9.51293
  686 57.9094 16.8280 -4.20172
  687 57.4971 17.0314 4.24384
  688 -102.571 0.0518483 -0.995130
  689 -102.456 0.0519321 0.994444
  690 1.00108 -15.4502 29.5954
  691 -33.9089 0.499797 20.4460
  692 -33.9570 0.498001 -20.4761
  693 477.025 -38.8800 -19.0522
  694 76.6238 1.64554 -0.576394
  695 76.5907 1.64483 0.576915
  696 18.5029 6.83537 6.64155
  697 18.4375 6.84210 -6.64291
  698 253.418 -11.2455 -66.0260
  699 255.293 -11.6881 67.2837
  700 874.910 62.2538 69.7020
  701 17.2982 -77.4741 -30.1254
  702 -6.22113 -13.1694 29.1604
  703 -6.23053 -13.2239 -29.2286
  704 54.3485 11.6559 -4.80828
  705 54.4035 11.6439 4.81454
  706 389.118 -0.656859 -2.88933
  707 389.230 -0.659351 2.88743
  708 186.538 2.81265 2.04590
  709 186.520 2.81563 -2.04460
  710 16.1626 13.7737 20.7900
  711 16.0569 13.8153 -20.8239
  712 10.8132 3.32522 2.74840
  713 10.7494 3.32637 -2.74916
  714 -10.6203 2.78275 29.6131
  715 -10.7024 2.78087 -29.6750
  716 320.345 -0.496139 2.25818
  717 320.264 -0.494138 -2.25786
  718 277.705 2.10522 6.10526
  719 277.644 2.11183 -6.10495
  720 37.9537 -22.3325 35.0522
  721 39.0355 -24.0670 -33.9174
  722 -21.1054 4.74601 25.8191
  723 -21.1841 4.75149 -25.8651
  724 11.8243 -25.5612 13.7484
  725 1.46937 8.46036 27.0868
  726 1.33990 8.48249 -27.1222
  727 -60.5604 1.70997 -7.19177
  728 -60.4657 1.70726 7.18481
  729 49.5592 15.5210 8.44021
  730 49.4791 15.5517 -8.43215
  731 429.999 -12.9360 -22.6294
  732 407.178 -35.2682 -11.1627
  733 -6.52801 -13.3654 20.7561
  734 -6.52027 -13.4297 -20.7310
  735 159.225 0.616416 -100.123
  736 155.119 3.97419 101.040
  737 97.3183 18.5569 -16.2856
  738 97.0711 18.7389 16.4671
  739 8.65215 -14.9305 23.3902
  740 -0.578808 -43.9664 -11.7796
  741 202.082 10.8275 -23.7440
  742 202.177 10.7646 23.8613
  743 0.513164 -86.2881 10.8731
  744 121.011 16.3739 -6.79697
  745 120.981 16.3849 6.84867
  746 408.953 -0.503033 -7.15570
  747 408.999 -0.552319 7.06378
  748 8.20070 -114.673 3.29601
  749 186.094 13.5350 18.0210
  750 186.046 13.5713 -17.9477
  751 50.9344 17.9156 -4.38176
  752 51.1967 17.7366 4.36045
  753 -73.8379 0.486611 -6.60238
  754 -73.7664 0.486006 6.59215
  755 206.048 3.18982 -4.20580
  756 206.076 3.18493 4.20807
  757 127.851 18.1297 -12.0372
  758 127.806 18.1570 12.1320
  759 1.65623 11.1070 20.8214
  760 1.55861 11.1361 -20.8484
  761 408.404 -30.1943 6.16935
  762 -62.4670 1.32627 5.45948
  763 -62.5632 1.32754 -5.46328
  764 873.770 173.437 -123.189
  765 -22.8620 2.35873 5.65926
  766 -22.9419 2.36076 -5.66238
  767 347.017 0.727146 13.2143
  768 346.920 0.786810 -13.2497
  769 644.655 39.9700 0.0967715
  770 392.142 -1.22605 -5.43625
  771 392.243 -1.23519 5.42508
  772 251.810 3.31230 7.70611
  773 251.759 3.32351 -7.70457
  774 376.308 -41.3085 109.178
  775 164.359 11.6636 -6.99329
  776 164.374 11.6518 7.01493
  777 3.82116 -64.3780 12.9300
  778 431.416 -53.3927 36.7353
  779 262.125 0.376682 1.31238
  780 262.072 0.378155 -1.31204
  781 342.628 -0.0709915 0.697694
  782 342.536 -0.0704569 -0.697380
  783 -1.52207 -34.6301 -20.3220
  784 2.14159 -58.6177 19.4912
  785 155.958 17.1531 25.0313
  786 155.964 17.1417 -24.8381
  787 864.689 8.26758 7.66590
  788 267.103 2.08544 -31.3365
  789 267.292 1.95490 31.4177
  790 -54.7102 1.81300 14.4311
  791 -54.7906 1.81746 -14.4515
  792 11.5487 -46.5131 3.32187
  793 7.44635 -106.688 -8.49228
  794 606.829 78.9286 -11.7270
  795 -0.526918 -43.8503 10.6345
  796 12.9290 9.08255 24.1625
  797 12.8854 9.07788 -24.2809
  798 82.4059 15.8730 1.71315
  799 82.3536 15.8947 -1.69081
  800 405.036 -18.6070 -6.99639
  801 405.873 -18.3738 5.66478
  802 474.680 74.8551 -183.157
  803 -64.2091 0.646048 -2.43162
  804 -64.1120 0.645751 2.43000
  805 -30.6994 -0.119626 7.90810
  806 -30.7086 -0.121011 -7.91709
  807 30.0185 2.91560 6.59913
  808 29.3878 2.88352 -6.66680
  809 307.744 -1.91498 28.1781
  810 307.515 -1.66236 -28.1121
  811 157.503 3.80559 -1.23096
  812 157.508 3.80319 1.23262
  813 495.707 -6.34343 43.0254
  814 53.5089 8.16449 -4.31186
  815 53.5590 8.15874 4.31541
  816 49.4842 7.24973 -9.15250
  817 49.0402 7.47840 9.26407
  818 -0.0814082 -33.9868 -27.1364
  819 697.031 111.590 102.393
  820 -100.541 0.0914956 -2.85497
  821 -100.430 0.0913290 2.85238
  822 -0.149034 -104.919 10.1804
  823 7.68753 -14.7694 -23.6844
  824 -15.2827 -0.928880 5.89920
  825 -15.2769 -0.931319 -5.90135
  826 559.294 34.2304 -28.5631
  827 146.890 14.1909 -8.81285
  828 146.890 14.1859 8.85964
  829 384.032 -5.79751 -14.2240
  830 384.388 -5.85406 14.0227
  831 -96.2433 0.713322 3.82760
  832 -96.3489 0.714206 -3.83190
  833 -0.695944 -0.720115 -0.595056
  834 -0.697355 -0.721408 0.597426
  835 0.307192 -107.283 -9.92637
  836 0.490790 -112.511 -8.86696
  837 -105.579 0.992245 0.552788
  838 -105.695 0.992490 -0.553063
  839 59.3958 -15.0899 -66.5819
  840 238.657 2.53198 -2.29562
  841 238.699 2.52979 2.29612
  842 -6.27335 1.76261 0.713051
  843 -6.34415 1.76260 -0.713336
  844 353.320 0.731811 -8.74538
  845 353.410 0.711726 8.73039
  846 -40.3327 0.273088 7.51294
  847 -40.3527 0.273106 -7.52243
  848 215.248 4.92947 -149.583
  849 370.046 -31.3942 31.0746
  850 289.954 0.986681 -2.79542
  851 290.020 0.984516 2.79570
  852 366.743 -34.1213 -34.6153
  853 115.591 12.4837 -2.87950
  854 115.570 12.4855 2.90279
  855 159.098 10.0232 -5.37024
  856 159.107 10.0149 5.38426
  857 429.846 -9.13443 17.2951
  858 27.1957 15.6591 16.9294
  859 27.0761 15.7178 -16.9736
  860 28.5048 1.65993 1.25975
  861 28.4495 1.65966 -1.26000
  862 203.280 2.22504 1.95879
  863 203.255 2.22722 -1.95795
  864 529.016 -46.6100 61.8535
  865 331.870 1.61232 -11.4954
  866 331.961 1.57486 11.4752
  867 6.13989 4.85607 5.24229
  868 6.07162 4.85987 -5.24406
  869 332.411 -0.597071 3.26434
  870 332.324 -0.594523 -3.26415
  871 -60.4760 0.282024 -1.61847
  872 -60.3806 0.282380 1.61775
  873 -0.286746 -33.5881 9.49164
  874 -0.378504 -34.1135 -9.56343
  875 400.940 -5.32894 41.7768
  876 -23.6151 6.18312 21.6993
  877 -23.7006 6.19729 -21.7331
  878 -0.132796 -55.2725 -10.4675
  879 159.049 5.49954 -2.79162
  880 159.055 5.49624 2.79510
  881 291.843 -14.5990 -50.4476
  882 294.067 -16.1420 50.9369
  883 -12.3033 -4.25389 -29.2682
  884 -12.2469 -4.25343 29.2052
  885 16.7473 13.8223 19.0486
  886 16.6449 13.8602 -19.0713
  887 1.38375 -125.590 6.95796
  888 4.70815 10.9041 24.6818
  889 4.59662 10.9328 -24.7181
  890 269.626 -4.84643 -44.8755
  891 269.032 -5.05124 45.2314
  892 465.752 26.4834 49.0814
  893 107.780 11.6003 1.43881
  894 107.804 11.5983 -1.42351
  895 340.396 1.82089 -8.59028
  896 340.483 1.80547 8.58173
  897 -13.2373 -5.72968 25.7666
  898 -13.2636 -5.75258 -25.8147
  899 1.19805 -129.005 -4.40856
  900 -20.3661 -1.30853 25.2403
  901 -20.4078 -1.31277 -25.2790
  902 13.9943 12.3967 -14.8861
  903 14.0811 12.3702 14.8740
  904 -1.04653 -8.46527 4.68166
  905 -1.05842 -8.45686 -4.68870
  906 30.1080 13.9741 -13.1902
  907 30.1980 13.9413 13.1844
  908 6.54360 -9.72111 26.5242
  909 5.71599 -9.04263 -27.9299
  910 331.215 -9.58416 28.7763
  911 330.434 -9.14025 -28.9257
  912 -107.802 0.280152 -0.812187
  913 -107.685 0.280169 0.811732
  914 -9.40436 -0.843964 4.44201
  915 -9.39610 -0.845463 -4.44084
  916 0.445191 -78.5373 -9.52982
  917 -10.0685 -4.31077 -12.6285
  918 -10.0645 -4.29986 12.6290
  919 -42.0500 3.59438 18.5434
  920 -42.1275 3.60163 -18.5719
  921 104.199 19.7518 -7.04382
  922 104.116 19.8110 7.11960
  923 442.237 34.5768 -7.28877
  924 -4.21580 9.85501 18.9178
  925 -4.30699 9.87767 -18.9405
  926 164.074 10.5142 -47.2698
  927 164.075 10.6639 47.7820
  928 -18.5758 6.83220 15.2275
  929 -18.6617 6.84679 -15.2451
  930 531.540 -24.4847 -6.99439
  931 325.119 12.9407 21.3003
  932 388.665 -4.67602 -37.7807
  933 289.854 3.54194 -19.0853
  934 289.971 3.45376 19.0858
  935 -29.6365 4.02646 -7.38809
  936 -29.5529 4.02138 7.38231
  937 -68.4970 1.22303 9.21160
  938 -68.5880 1.22593 -9.22378
  939 -4.14766 -13.4331 -14.6509
  940 -4.11815 -13.4439 14.6769
  941 103.580 6.35668 0.819052
  942 103.602 6.35703 -0.814775
  943 -31.9580 3.38664 23.0592
  944 -32.0257 3.38912 -23.0973
  945 346.609 -0.377738 4.26733
  946 346.516 -0.374692 -4.26754
  947 -2.59132 -29.4476 22.1176
  948 13.8683 11.3397 -12.7496
  949 13.9487 11.3193 12.7414
  950 18.8963 7.79242 8.28382
  951 18.8277 7.80224 -8.28637
  952 60.8835 5.33686 -1.88432
  953 60.9253 5.33538 1.88569
  954 650.799 84.6234 -20.1811
  955 -2.59376 -0.710042 -1.76427
  956 -2.59933 -0.709981 1.76748
  957 22.9194 6.72016 -15.8982
  958 23.3053 6.53924 15.8255
  959 234.395 9.03938 -20.1914
  960 234.492 8.96578 20.2374
  961 30.9681 9.84720 -7.83946
  962 31.0343 9.83478 7.83935
  963 64.3363 -11.4148 88.0998
  964 438.863 -3.20581 -3.73767
  965 438.259 -3.08647 3.33820
  966 78.6839 -5.67278 77.0890
  967 82.8243 3.27704 -0.347796
  968 82.7940 3.27681 0.348559
  969 213.839 -5.91951 -129.392
  970 161.370 2.42239 1.06249
  971 161.364 2.42342 -1.06190
  972 20.7409 -20.1934 3.63758
  973 22.9192 -16.8106 -1.91128
  974 388.422 -0.479621 1.46731
  975 388.306 -0.478925 -1.46667
  976 -31.9020 0.122094 18.6070
  977 -31.9377 0.120107 -18.6319
  978 696.992 87.5351 40.8181
  979 -2.90535 -21.9270 -29.0735
  980 3.59351 -107.877 13.3147
  981 -0.463131 -34.8791 26.7897
  982 401.756 -0.401303 -5.54705
  983 401.845 -0.414719 5.52586
  984 -5.30851 -9.72493 12.6642
  985 -5.32328 -9.72577 -12.6521
  986 503.457 52.8552 -26.3762
  987 876.931 7.41829 -5.13719
  988 -1.31092 -1.98517 -1.92018
  989 -1.30947 -1.98937 1.92296
  990 234.425 2.35708 -4.39172
  991 234.466 2.35287 4.39301
  992 -2.97424 -21.0618 29.2144
  993 325.657 1.18880 16.9872
  994 325.545 1.27793 -17.0132
  995 427.943 -28.1826 -16.4529
  996 -14.9151 -3.10295 14.2698
  997 -14.9212 -3.11472 -14.2776
  998 7.20387 -27.3420 20.4320
  999 -0.668328 -52.7200 21.0318
  1000 -0.0628580 -54.8452 10.4542
  1001 440.630 28.5074 -2.59010
  1002 502.768 55.1825 14.5603
  1003 359.380 -40.8171 -60.6164
  1004 5.24058 -51.0605 16.4416
  1005 6.61910 -73.2584 3.18936
  1006 100.643 2.17520 0.255620
  1007 100.621 2.17452 -0.255557
  1008 -3.98092 -4.53911 -6.05492
  1009 -3.97737 -4.53994 6.05962
  1010 3.51714 -41.9595 -22.1715
  1011 289.501 0.0719225 -1.02650
  1012 289.567 0.0707058 1.02670
  1013 58.6744 0.617776 -29.2385
  1014 56.1557 0.752533 28.9586
  1015 -4.76145 8.99133 24.9810
  1016 -4.86752 9.01663 -25.0248
  1017 -33.4366 5.19320 -15.5100
  1018 -33.3501 5.18252 15.4905
  1019 221.727 3.57620 -46.0667
  1020 221.847 3.77067 46.5617
  1021 159.894 14.0442 -32.4070
  1022 159.873 14.0455 32.7062
  1023 173.337 12.1856 -11.0106
  1024 173.360 12.1647 11.0440
  1025 448.732 -11.8864 -48.5657
  1026 -11.3957 5.58282 27.5178
  1027 -11.4905 5.59162 -27.5771
  1028 317.595 -0.618618 23.2651
  1029 317.415 -0.428302 -23.2679
  1030 -1.95189 -16.3745 30.4426
  1031 -25.5982 -0.840664 13.7572
  1032 -25.6128 -0.844937 -13.7726
  1033 289.519 2.35250 -23.1507
  1034 289.669 2.22750 23.1626
  1035 360.119 8.83536 -34.9336
  1036 -0.395403 -52.4035 -22.0646
  1037 -4.21235 -20.6225 26.2123
  1038 -4.39034 -20.8728 -25.9943
  1039 204.605 11.6155 -16.7358
  1040 204.668 11.5683 16.7874
  1041 257.680 4.38071 9.53280
  1042 257.622 4.39794 -9.53141
  1043 427.064 -27.5290 14.2481
  1044 22.2316 1.91630 -0.343679
  1045 22.2894 1.91643 0.343589
  1046 363.356 -45.6487 64.6651
  1047 -0.948388 1.28635 1.74020
  1048 -1.01699 1.28623 -1.74082
  1049 79.2346 19.9110 -0.289673
  1050 79.1265 19.9776 0.332409
  1051 30.4889 15.7071 14.4828
  1052 30.3891 15.7477 -14.4937
  1053 4.04163 -63.6400 -13.4707
  1054 105.921 3.67358 0.318713
  1055 105.941 3.67487 -0.316393
  1056 317.120 10.3165 8.78766
  1057 292.284 1.89450 8.84208
  1058 292.214 1.91051 -8.84459
  1059 -1.64736 -17.0179 -30.4962
  1060 439.381 -5.65011 -8.69039
  1061 0.243447 -1.25933 30.1528
  1062 0.574836 -1.01337 -30.0099
  1063 399.358 -0.800088 -3.06783
  1064 399.470 -0.803185 3.06389
  1065 425.569 -1.55368 -5.39451
  1066 425.506 -1.60743 5.25536
  1067 -0.322640 -83.0690 7.85578
  1068 250.573 6.01428 -12.6067
  1069 250.633 5.98537 12.6112
  1070 304.501 2.45214 10.2846
  1071 304.424 2.47304 -10.2903
  1072 7.28442 7.37273 26.9966
  1073 7.24336 7.37500 -27.0281
  1074 660.895 43.5735 7.17858
  1075 -8.25490 -3.51861 31.1227
  1076 -8.38501 -3.44124 -31.2024
  1077 95.3873 18.3800 -1.58998
  1078 95.3342 18.4084 1.62787
  1079 -51.9715 0.901671 -2.69155
  1080 -51.8799 0.901496 2.69009
  1081 156.362 9.21995 -54.4028
  1082 156.145 9.65435 55.0448
  1083 45.4099 17.7386 10.9558
  1084 45.3012 17.7898 -10.9572
  1085 106.402 12.6113 -40.3543
  1086 105.857 13.1334 40.6925
  1087 -2.77012 -27.6594 -21.5556
  1088 374.493 5.29409 46.0385
  1089 261.600 2.68950 167.670
  1090 42.7127 18.2793 11.2999
  1091 42.5852 18.3473 -11.3123
  1092 158.520 8.06296 -4.10081
  1093 158.528 8.05580 4.10993
  1094 571.250 3.88434 11.6541
  1095 37.3006 9.69940 6.68506
  1096 36.8325 9.81454 -6.82776
  1097 -16.9224 -3.69147 18.9736
  1098 -16.9368 -3.70876 -18.9933
  1099 -0.555081 -12.6350 5.10863
  1100 -0.577118 -12.6274 -5.12920
  1101 375.658 -0.603554 13.6552
  1102 375.523 -0.465676 -13.7511
  1103 0.652585 -26.3768 28.5201
  1104 -25.5225 1.68294 -25.1989
  1105 -25.4661 1.68578 25.1598
  1106 0.126394 -100.342 -9.94977
  1107 -5.74570 -8.11940 31.0755
  1108 -5.72953 -7.94509 -31.1085
  1109 359.099 0.203952 -5.75000
  1110 359.195 0.197044 5.74622
  1111 370.677 -3.07590 16.4519
  1112 370.424 -2.85277 -16.5481
  1113 65.3272 14.7413 -14.0141
  1114 64.8321 15.0226 14.1358
  1115 -0.870129 -51.6920 -17.9676
  1116 487.588 -43.3129 -98.4899
  1117 631.951 83.5074 6.67965
  1118 6.63226 -77.1464 -0.710302
  1119 23.2312 13.1298 -19.4303
  1120 23.3675 13.0578 19.3288
  1121 61.2492 19.6478 4.57328
  1122 61.1034 19.7364 -4.55860
  1123 128.941 7.32179 1.72979
  1124 128.949 7.32492 -1.72286
  1125 -8.13758 -11.5909 24.5490
  1126 -8.12634 -11.7024 -24.5884
  1127 -22.7905 7.24646 19.9430
  1128 -22.8778 7.26237 -19.9706
  1129 -7.73589 9.22228 23.0951
  1130 -7.83343 9.24534 -23.1313
  1131 354.257 -18.1311 -28.3093
  1132 356.509 -18.2691 28.0883
  1133 0.353319 -59.2182 -20.9356
  1134 189.857 -0.118973 -67.9918
  1135 190.143 0.472324 69.1044
  1136 61.1555 17.8743 -5.44428
  1137 61.2354 17.8348 5.45990
  1138 189.232 93.7889 187.315
  1139 48.0449 14.2942 8.09003
  1140 47.9735 14.3175 -8.08395
  1141 482.495 -52.0096 -24.7402
  1142 183.135 4.72105 3.29031
  1143 183.117 4.72635 -3.28702
  1144 -8.19998 -7.30413 15.0442
  1145 -8.20583 -7.32178 -15.0398
  1146 -9.77461 -8.75838 19.4463
  1147 -9.77496 -8.79336 -19.4492
  1148 317.481 -31.7507 -95.1448
  1149 323.789 -34.9910 95.8413
  1150 57.8188 1.98105 0.780070
  1151 57.8606 1.98151 -0.779284
  1152 199.875 9.18819 -37.5224
  1153 199.878 9.07332 37.8912
  1154 433.781 -57.1890 73.1317
  1155 385.443 -0.941408 0.849886
  1156 385.328 -0.940703 -0.849342
  1157 -33.9642 5.42417 17.8206
  1158 -34.0499 5.43517 -17.8448
  1159 -58.5831 1.79243 -9.29075
  1160 -58.4900 1.78898 9.28176
  1161 99.8106 3.61678 113.374
  1162 306.526 20.3752 -17.8563
  1163 182.821 12.7791 -18.6799
  1164 182.873 12.7438 18.7772
  1165 562.228 -14.2207 106.282
  1166 185.831 12.3467 -27.4950
  1167 185.895 12.2870 27.6641
  1168 47.1421 5.75255 -2.92587
  1169 47.1912 5.75017 2.92695
  1170 16.3083 -57.8258 11.6067
  1171 16.4864 -56.2578 -15.9802
  1172 251.549 -17.0904 -96.0591
  1173 254.964 -15.9456 95.9745
  1174 98.9528 16.4848 -28.4004
  1175 98.5368 16.8175 28.6753
  1176 441.559 -29.1603 -31.2920
  1177 -15.8949 -1.25479 28.4419
  1178 -15.9516 -1.25468 -28.4900
  1179 -0.193782 -23.5422 -29.3064
  1180 113.355 4.02427 -71.7303
  1181 113.605 4.35211 72.9330
  1182 -0.282871 -22.3889 5.69144
  1183 -0.241724 -22.4435 -5.76184
  1184 -105.268 0.872706 -2.69670
  1185 -105.156 0.872122 2.69395
  1186 350.569 -0.369604 -1.61714
  1187 350.665 -0.370854 1.61742
  1188 217.443 7.67200 -10.9043
  1189 217.493 7.64456 10.9192
  1190 -7.67838 0.0931004 31.0751
  1191 -7.70225 0.219679 -31.1355
  1192 0.0180249 -89.6834 -8.73301
  1193 -89.5855 0.204308 4.39575
  1194 -89.6786 0.204847 -4.40201
  1195 70.3526 -0.406761 -50.6086
  1196 69.8319 0.0307645 52.1818
  1197 409.947 -25.0482 -2.02153
  1198 117.942 8.09705 -64.4927
  1199 118.019 8.40288 65.1081
  1200 -49.9168 0.271557 6.82412
  1201 -49.9480 0.271265 -6.83355
  1202 1.33869 -77.8461 -14.5452
  1203 -13.7386 2.99716 -3.46618
  1204 -13.6635 2.99577 3.46465
  1205 62.7161 15.0125 5.72957
  1206 62.6492 15.0368 -5.71626
  1207 231.070 0.931279 -1.42287
  1208 231.108 0.929765 1.42337
  1209 311.012 1.18772 6.72345
  1210 310.936 1.19756 -6.72571
  1211 17.4278 -1.76733 16.4492
  1212 17.1683 -2.06270 -16.7654
  1213 2.99313 -44.6042 22.1831
  1214 558.012 77.2852 18.2503
  1215 -17.1774 -1.33528 10.8248
  1216 -17.1801 -1.34105 -10.8311
  1217 2.37506 -41.7748 -23.2617
  1218 -1.62992 -26.0553 15.8295
  1219 -1.54954 -25.8107 -16.3997
  1220 441.173 -4.84153 7.70147
  1221 0.386889 -102.552 8.92766
  1222 3.36095 -30.5865 -25.9548
  1223 53.6771 1.48462 0.520468
  1224 53.6335 1.48408 -0.520604
  1225 -4.27175 -18.4538 28.7853
  1226 -47.7726 2.70144 -7.82280
  1227 -47.6822 2.69807 7.81635
  1228 893.393 15.3015 25.5620
  1229 -25.1886 3.01892 25.4255
  1230 -25.2554 3.01877 -25.4683
  1231 213.439 8.41011 -33.9151
  1232 213.612 8.26148 34.1115
  1233 14.1072 -20.1974 -10.4993
  1234 203.042 10.0867 -13.8052
  1235 203.094 10.0498 13.8404
  1236 8.50630 -61.1554 -2.76417
  1237 -4.28754 -18.4953 -28.7430
  1238 -32.9990 1.27621 4.60290
  1239 -33.0827 1.27709 -4.60540
  1240 -15.1705 1.27263 -29.0417
  1241 -15.1014 1.27706 28.9961
  1242 434.344 34.9534 34.7146
  1243 246.659 2.65230 -35.8291
  1244 246.939 2.58464 35.9182
  1245 -109.990 0.240642 -0.965449
  1246 -109.872 0.240570 0.964707
  1247 222.199 5.05535 -7.38248
  1248 222.238 5.04498 7.38639
  1249 -112.708 -1.96157 -0.305929
  1250 -112.827 -1.96258 0.306044
  1251 331.159 -23.5029 -41.0488
  1252 -51.9438 0.894424 14.3857
  1253 -52.0041 0.894992 -14.4078
  1254 334.449 -24.8070 40.6793
  1255 226.101 7.93499 -14.9444
  1256 226.163 7.89260 14.9649
  1257 26.7327 -57.4391 -50.1492
  1258 0.488614 -71.6295 -17.9214
  1259 -1.44210 -30.0750 26.9788
  1260 705.495 122.084 -103.184
  1261 -0.163326 -67.2942 17.5626
  1262 735.964 69.5023 -45.9708
  1263 -0.418931 -124.758 -8.31032
  1264 36.6003 3.40429 -0.954622
  1265 36.6522 3.40362 0.955054
  1266 -0.308735 -28.7424 5.96352
  1267 -0.248091 -28.8962 -5.94803
  1268 126.666 2.88621 0.179591
  1269 126.677 2.88726 -0.178953
  1270 446.321 -33.4695 29.6705
  1271 10.0210 3.23248 -4.01550
  1272 10.0858 3.23088 4.01428
  1273 2.57317 -135.867 3.70264
  1274 1.63465 -144.794 -3.67404
  1275 410.465 -50.5277 -44.2883
  1276 -1.11807 -37.2267 17.4726
  1277 431.315 28.1228 -44.0719
  1278 -1.27999 -49.0550 17.1613
  1279 0.864861 -133.918 -6.27548
  1280 207.449 5.58840 -8.12447
  1281 207.484 5.57024 8.13365
  1282 -0.159242 -73.2279 7.75340
  1283 -0.181363 -60.6606 -17.4555
  1284 965.503 171.375 147.716
  1285 387.194 0.151711 0.647397
  1286 387.078 0.151754 -0.647003
  1287 10.6672 1.15686 24.4192
  1288 10.3352 1.57349 -24.5359
  1289 -5.57290 5.78074 29.0556
  1290 -5.71893 5.78838 -29.1270
  1291 414.677 -7.58955 -26.8647
  1292 383.696 -16.1765 -16.3738
  1293 383.335 -18.3825 16.5603
  1294 58.3283 6.52942 2.90949
  1295 58.2830 6.53225 -2.90672
  1296 -62.4792 1.66533 -11.1632
  1297 -62.3926 1.66175 11.1474
  1298 427.823 -57.9636 -62.5050
  1299 -3.19056 -7.73174 7.90125
  1300 -3.20302 -7.72642 -7.89787
  1301 451.603 -18.8391 45.8399
  1302 -4.69800 -17.7648 21.2524
  1303 -4.64602 -17.8316 -21.1556
  1304 -39.1499 2.58931 5.51043
  1305 -39.2366 2.59167 -5.51417
  1306 68.9907 8.31521 -26.5821
  1307 68.2954 8.70532 26.5630
  1308 107.938 2.74715 0.299881
  1309 107.919 2.74614 -0.299279
  1310 -43.0877 4.34808 17.6438
  1311 -43.1696 4.35625 -17.6686
  1312 363.562 0.758334 1.00611
  1313 363.458 0.758188 -1.00556
  1314 201.684 -0.584985 128.109
  1315 297.549 0.381485 2.38007
  1316 297.479 0.382945 -2.37952
  1317 198.780 4.24693 -51.9299
  1318 198.807 4.02048 52.3776
  1319 1.93305 -78.1155 -10.2087
  1320 77.5123 18.5452 -11.6341
  1321 77.1795 18.7651 11.7624
  1322 -0.757720 -0.679136 -0.990963
  1323 -0.761541 -0.679331 0.993846
  1324 255.310 7.42185 19.2861
  1325 255.213 7.50008 -19.2649
  1326 127.510 10.0817 3.17959
  1327 127.520 10.0846 -3.16551
  1328 187.269 10.1494 -9.46589
  1329 187.300 10.1281 9.48783
  1330 244.550 1.14160 -2.39270
  1331 244.595 1.13995 2.39344
  1332 -7.76972 -3.75498 -8.91831
  1333 -7.76793 -3.75031 8.92238
  1334 -73.3278 0.0501527 3.26825
  1335 -73.4287 0.0503962 -3.27059
  1336 -13.1796 -6.02036 -21.7200
  1337 -13.1680 -5.98955 21.6958
  1338 -41.1480 0.591186 1.36163
  1339 -41.2347 0.590880 -1.36225
  1340 -114.007 1.03104 0.549150
  1341 -114.127 1.03136 -0.549417
  1342 459.563 -56.5509 84.9125
  1343 336.298 -1.88162 -37.6066
</Section>

newXOutput 55

<Section columns = "stress_xx | stress_yy | stress_xy">
  1 405.731 -0.637482 0.418726
  2 405.857 -0.637927 -0.418934
  3 -125.493 0.588955 -1.71500
  4 0.200525 0.0496191 0.356486
  5 733.762 216.207 240.514
  6 829.629 244.192 -231.278
  7 0.199621 0.0487949 -0.355284
  8 -125.364 0.588836 1.71424
  9 404.522 -0.605362 -1.34329
  10 404.858 -1.26457 -2.17113
  11 408.667 -1.25743 -0.587026
  12 409.098 -1.21483 -2.55886
  13 410.156 -1.19407 -0.807363
  14 418.686 -1.12869 -1.11483
  15 421.674 -1.62639 -3.43344
  16 424.928 -0.795277 -2.36032
  17 427.030 0.0980809 -4.55378
  18 444.276 -2.48709 -3.89840
  19 451.797 -1.94773 -5.00766
  20 460.155 -2.91780 -2.02410
  21 464.260 -3.84614 -1.27214
  22 461.357 -4.40547 5.76812
  23 446.189 -4.90026 12.2628
  24 410.642 -5.40921 26.3771
  25 352.771 3.15859 30.7515
  26 305.241 3.87381 28.5621
  27 238.921 7.81224 17.3062
  28 253.859 7.59518 1.63395
  29 213.695 22.5659 -10.9761
  30 290.244 10.3978 -31.2139
  31 332.158 2.61064 -25.5088
  32 402.691 -1.13369 -22.0915
  33 441.272 -5.94413 -14.7278
  34 460.713 -5.13026 -5.73185
  35 463.416 -3.72808 1.30154
  36 459.582 -2.88032 1.90380
  37 451.583 -1.95975 4.86471
  38 444.225 -2.51816 3.81707
  39 427.094 0.0805238 4.51576
  40 425.030 -0.801894 2.34645
  41 421.796 -1.63066 3.42926
  42 418.814 -1.13095 1.11297
  43 410.283 -1.19556 0.806921
  44 409.226 -1.21613 2.56021
  45 408.795 -1.25841 0.587456
  46 404.983 -1.26541 2.17249
  47 404.648 -0.605796 1.34414
  48 382.824 0.925124 -0.508044
  49 354.702 0.248211 -1.12570
  50 319.520 -1.29181 -1.12852
  51 283.005 0.815676 -0.938719
  52 250.979 0.529556 -0.745614
  53 216.675 1.63080 -0.881207
  54 182.782 3.40128 -0.528356
  55 147.562 3.02127 -1.10903
  56 118.328 2.06205 -1.55690
  57 79.9300 1.24666 -1.64061
  58 40.8986 2.05709 -1.25130
  59 8.30041 1.70839 -1.20994
  60 -32.3958 0.975605 -1.10336
  61 -62.6563 -0.417385 -2.71347
  62 -91.9716 -2.02325 -1.23861
  63 -121.716 0.243439 0.839207
  64 -128.161 2.19479 -0.310631
  65 -128.628 0.964285 0.389933
  66 -124.356 0.476894 -0.138661
  67 -125.770 1.40995 -1.53652
  68 -123.803 1.71687 -0.122510
  69 -117.122 0.520946 -2.36386
  70 -118.571 1.05976 -2.54630
  71 -115.626 1.00319 -1.42085
  72 -107.071 0.624486 -2.15462
  73 -103.170 1.13479 -3.57451
  74 -96.9237 1.27321 -2.92725
  75 -85.8089 0.648047 -5.09526
  76 -79.5771 0.200716 -4.25674
  77 -68.3065 0.288192 -4.92150
  78 -58.6123 0.224775 -5.45753
  79 -50.1473 0.0777389 -4.30776
  80 -38.3811 0.254402 -4.34316
  81 -28.2305 -0.105779 -4.64993
  82 -18.4077 -0.504546 -4.08752
  83 -10.6196 -0.442591 -3.13459
  84 -5.22264 -0.777726 -2.62129
  85 -0.877421 -0.449815 -0.938122
  86 0.0557628 -0.501533 -0.336200
  87 -0.270536 -0.267960 -0.0665445
  88 -0.704430 -0.706903 -0.822103
  89 -0.684194 -4.41893 -2.27704
  90 -0.582005 -9.89785 -3.24197
  91 -0.299701 -16.8797 -4.72565
  92 -0.153578 -25.9197 -4.07414
  93 -0.124915 -34.2246 -5.12640
  94 -0.626040 -44.3503 -5.78137
  95 -0.256352 -56.8605 -5.83275
  96 0.118613 -69.4603 -5.58351
  97 0.272320 -82.9560 -5.50625
  98 0.420597 -96.8168 -5.41021
  99 0.0198900 -106.967 -7.31928
  100 0.712143 -121.442 -6.54730
  101 0.878691 -138.385 -5.20617
  102 -0.0699988 -145.753 -6.90993
  103 1.24378 -157.992 -6.39045
  104 3.08307 -174.256 -2.93076
  105 6.03186 -178.314 -4.65611
  106 4.30588 -161.980 4.82602
  107 6.36030 -120.135 18.8934
  108 31.7924 -64.3955 53.7232
  109 98.8993 151.317 178.126
  110 1127.54 61.2530 112.362
  111 968.928 18.0135 40.6963
  112 937.686 6.45776 9.32835
  113 930.955 2.02419 -1.50068
  114 937.358 10.0429 -21.4648
  115 967.320 32.7516 -48.3510
  116 1097.77 119.981 -142.776
  117 237.650 118.162 -217.159
  118 53.5985 -63.7601 -65.0488
  119 15.8107 -131.572 -24.5030
  120 4.39804 -153.317 -5.16213
  121 4.87066 -171.524 2.37777
  122 1.37671 -167.369 2.16752
  123 0.480445 -154.019 5.39574
  124 0.530170 -145.084 4.26574
  125 0.760338 -130.764 7.38800
  126 -0.0378651 -122.553 7.20996
  127 0.301007 -110.732 5.18584
  128 0.592039 -95.6617 6.61215
  129 0.118568 -84.8942 5.23922
  130 0.172319 -69.5360 6.61981
  131 -0.694687 -57.5481 5.69181
  132 -0.482503 -44.3865 5.60005
  133 -0.0872183 -34.0341 5.13907
  134 -0.199898 -25.7699 4.08125
  135 -0.292427 -16.8301 4.67946
  136 -0.573524 -9.89122 3.22580
  137 -0.680551 -4.42566 2.27542
  138 -0.703501 -0.714109 0.823737
  139 -0.270494 -0.271064 0.0686237
  140 0.0519925 -0.502005 0.338087
  141 -0.884515 -0.449559 0.940517
  142 -5.23328 -0.776970 2.62366
  143 -10.6337 -0.441201 3.13530
  144 -18.4188 -0.502831 4.08579
  145 -28.2331 -0.104359 4.64513
  146 -38.3734 0.254683 4.33753
  147 -50.1254 0.0784197 4.30184
  148 -58.5774 0.225575 5.45067
  149 -68.2543 0.288128 4.91423
  150 -79.5089 0.200609 4.24988
  151 -85.7298 0.647583 5.08846
  152 -96.8297 1.27240 2.92191
  153 -103.068 1.13390 3.57009
  154 -106.960 0.623899 2.15177
  155 -115.508 1.00255 1.41898
  156 -118.449 1.05924 2.54430
  157 -117.000 0.520744 2.36223
  158 -123.677 1.71612 0.122093
  159 -125.642 1.40937 1.53564
  160 -124.229 0.476790 0.138514
  161 -128.498 0.963951 -0.389780
  162 -128.032 2.19392 0.310481
  163 -121.589 0.243466 -0.838867
  164 -91.8590 -2.02204 1.23805
  165 -62.5573 -0.416710 2.71229
  166 -32.3108 0.975826 1.10287
  167 8.36671 1.70847 1.20942
  168 40.9499 2.05723 1.25078
  169 79.9633 1.24745 1.63994
  170 118.343 2.06274 1.55627
  171 147.564 3.02179 1.10860
  172 182.768 3.40168 0.528102
  173 216.644 1.63188 0.880732
  174 250.932 0.530899 0.745139
  175 282.943 0.816463 0.938088
  176 319.439 -1.29037 1.12782
  177 354.604 0.248447 1.12506
  178 382.711 0.924814 0.507762
  179 108.208 18.6984 -5.04452
  180 108.146 18.7331 5.10423
  181 -1.63811 3.34441 30.0998
  182 -1.75616 3.32042 -30.1171
  183 245.224 -3.31122 -55.5869
  184 245.047 -3.77843 56.1657
  185 49.3975 11.7951 -3.25244
  186 48.8112 12.0012 3.26736
  187 36.5409 6.07577 -4.43039
  188 36.5983 6.07146 4.43064
  189 231.782 4.17946 -8.29736
  190 231.826 4.16439 8.30287
  191 -3.32012 9.28425 16.2046
  192 -3.40888 9.30417 -16.2219
  193 269.234 6.63344 -21.0884
  194 269.360 6.53893 21.1165
  195 -10.3770 -9.00935 24.1175
  196 -10.3750 -9.06305 -24.1493
  197 2.57308 -21.3023 -28.4924
  198 84.5176 5.60827 -51.5510
  199 3.12236 -22.7996 27.7986
  200 83.1757 6.27374 52.3480
  201 381.132 -50.5594 -80.4448
  202 394.267 -52.5505 77.2425
  203 137.791 4.35770 -1.47209
  204 137.785 4.35558 1.47482
  205 -20.7860 1.45796 -3.13108
  206 -20.7059 1.45765 3.12960
  207 -29.9181 4.66791 23.1318
  208 -29.9977 4.67664 -23.1707
  209 138.535 12.4436 -4.37481
  210 138.530 12.4411 4.39481
  211 42.7361 17.7588 10.6078
  212 42.5683 17.8646 -10.6470
  213 -38.0947 4.11574 -9.43871
  214 -38.0051 4.10996 9.43007
  215 307.179 0.259281 3.92019
  216 307.105 0.262981 -3.92001
  217 10.0816 -39.9753 11.5692
  218 10.9569 -36.1216 -10.1431
  219 -2.81507 -25.5168 27.1500
  220 -2.88461 -26.5228 -26.3016
  221 128.231 18.4312 -22.8087
  222 128.110 18.5216 23.0314
  223 -27.2392 -0.0508216 23.4461
  224 -27.2844 -0.0547050 -23.4805
  225 328.599 1.68538 -11.4675
  226 328.685 1.65825 11.4562
  227 353.976 -5.33377 -22.7186
  228 354.257 -5.68482 22.6327
  229 566.256 42.8264 0.149537
  230 519.527 58.2816 28.7892
  231 511.161 -3.27056 -43.8642
  232 63.5939 13.8688 5.44035
  233 63.5336 13.8878 -5.43012
  234 4.99180 11.5638 22.9216
  235 4.88292 11.5978 -22.9551
  236 395.455 -23.9003 -15.6901
  237 393.175 -24.1874 16.9747
  238 219.213 1.67002 -3.05537
  239 219.246 1.66650 3.05668
  240 -48.0674 3.41664 15.3686
  241 -48.1546 3.42403 -15.3897
  242 -6.67369 -6.56424 -10.8880
  243 -6.66729 -6.55965 10.8943
  244 -52.9198 1.23637 4.73749
  245 -53.0145 1.23755 -4.74075
  246 180.804 13.2196 -14.3337
  247 180.836 13.1919 14.3867
  248 229.711 6.73755 -31.8287
  249 229.886 6.62244 31.9653
  250 56.3566 3.37786 -0.197932
  251 56.4012 3.37759 0.198549
  252 133.198 3.16092 -110.516
  253 157.441 6.80744 120.261
  254 18.3391 8.49766 21.6393
  255 18.2582 8.67749 -21.7346
  256 536.647 -39.7518 -12.4733
  257 47.6799 17.6464 9.21927
  258 47.5854 17.6893 -9.21474
  259 130.711 14.2191 -42.0022
  260 130.459 14.5644 42.4437
  261 600.547 85.3983 -3.08536
  262 356.352 -0.00138706 15.5173
  263 356.227 0.103964 -15.5668
  264 -3.20449 -19.8581 -17.0394
  265 -3.10984 -19.9365 17.1059
  266 -0.668979 -47.0419 -23.3400
  267 1.64842 -54.7004 -21.3334
  268 0.887455 -54.8309 22.4211
  269 -8.73985 -7.55881 30.8981
  270 -8.77848 -7.54795 -31.0231
  271 19.4028 -42.4123 -8.94050
  272 20.8855 -38.9432 12.2189
  273 -20.5101 -1.70957 14.9567
  274 -20.5224 -1.71748 -14.9711
  275 254.174 6.76960 -13.1810
  276 254.244 6.73157 13.1890
  277 444.090 -45.3454 -4.69380
  278 99.2508 8.17184 0.0751019
  279 99.2769 8.17062 -0.0692058
  280 -1.13714 -44.1594 22.3221
  281 10.3933 9.01983 10.2949
  282 10.3163 9.03373 -10.3008
  283 704.502 48.8781 -19.7438
  284 345.376 0.0432447 4.78887
  285 345.285 0.0491296 -4.79100
  286 233.139 -10.6742 -83.3638
  287 235.146 -10.4896 84.6131
  288 443.528 -43.0099 -2.54518
  289 -41.7835 1.31869 18.4982
  290 -41.8396 1.31887 -18.5265
  291 433.771 -33.3678 135.737
  292 -18.3388 3.22203 27.9633
  293 -18.4112 3.21767 -28.0127
  294 74.4188 20.4140 -6.49399
  295 74.1297 20.6061 6.57706
  296 -75.7684 0.561577 0.833551
  297 -75.8736 0.561456 -0.834017
  298 365.809 9.74466 -184.453
  299 -71.4176 1.42619 -8.25386
  300 -71.3195 1.42331 8.24401
  301 -1.84860 -8.79402 31.3884
  302 -0.749958 -8.55273 -31.0497
  303 162.154 16.2883 -20.6872
  304 162.162 16.2830 20.8170
  305 36.2630 4.00820 3.33106
  306 36.2080 4.00968 -3.33144
  307 168.575 6.19003 -4.37556
  308 168.586 6.18415 4.38152
  309 16.1559 -11.2598 15.7923
  310 14.7277 -13.6226 -16.0086
  311 163.639 2.61848 -1.10329
  312 163.645 2.61695 1.10418
  313 -58.8559 1.53751 13.5277
  314 -58.9294 1.53985 -13.5487
  315 41.3300 -2.95851 -11.0790
  316 40.1108 -3.01532 9.99056
  317 359.926 -0.465439 1.33904
  318 359.825 -0.464549 -1.33845
  319 784.075 44.4670 31.5868
  320 82.6782 10.7122 1.84425
  321 82.6393 10.7186 -1.83486
  322 -16.1930 3.85338 6.47659
  323 -16.2734 3.85766 -6.48077
  324 113.371 15.0376 -3.35164
  325 113.340 15.0463 3.38523
  326 13.7619 11.8783 23.7199
  327 13.6716 11.9047 -23.7796
  328 1.71929 -79.1396 15.6063
  329 -78.5777 0.108850 -1.92247
  330 -78.4714 0.109043 1.92131
  331 275.522 0.482824 -2.56293
  332 275.581 0.480801 2.56352
  333 290.107 1.68360 -6.79573
  334 290.174 1.67281 6.79486
  335 -73.3712 1.22189 -5.95802
  336 -73.2685 1.22027 5.95287
  337 -0.140856 1.26809 0.688387
  338 -0.211151 1.26790 -0.688649
  339 -1.64783 -32.7506 16.9903
  340 -1.30843 -34.0657 -16.9670
  341 327.245 -26.8992 -56.4454
  342 339.783 -32.1758 55.4280
  343 194.794 9.14502 -8.90249
  344 194.824 9.12757 8.91727
  345 86.4538 20.0892 -3.76121
  346 86.3080 20.1793 3.82696
  347 -29.1441 5.72112 13.4726
  348 -29.2323 5.73201 -13.4879
  349 605.949 14.0057 18.2882
  350 32.6432 -44.5718 -37.4822
  351 34.9078 -41.2751 39.1794
  352 -12.1563 9.32709 21.6806
  353 -12.2505 9.34812 -21.7123
  354 -16.6187 -3.28752 27.4036
  355 -16.6620 -3.29576 -27.4528
  356 687.051 116.365 -34.9606
  357 443.439 -5.72068 54.7120
  358 412.534 -9.84704 -10.4548
  359 412.195 -9.61751 9.80711
  360 290.157 -3.56157 -36.0020
  361 289.820 -3.84333 36.0202
  362 0.548730 -95.3428 -12.5595
  363 377.278 0.704492 -8.67947
  364 377.370 0.675055 8.65255
  365 4.97029 -89.3723 9.57485
  366 440.084 34.5124 -28.9787
  367 108.128 3.38552 1.19205
  368 108.108 3.38523 -1.19221
  369 291.666 1.85329 -26.7255
  370 291.856 1.70887 26.7609
  371 313.753 2.25203 -16.1441
  372 313.853 2.18799 16.1292
  373 -4.66055 3.34523 4.30693
  374 -4.73458 3.34741 -4.30887
  375 181.201 10.0355 -42.9505
  376 181.245 10.1489 43.3319
  377 370.874 -0.350105 2.19016
  378 370.768 -0.348563 -2.18990
  379 211.664 11.2728 -21.7696
  380 211.745 11.2071 21.8496
  381 243.844 3.44057 5.59136
  382 243.798 3.44723 -5.58967
  383 -11.6243 -2.08688 9.24740
  384 -11.6239 -2.09241 -9.24787
  385 -2.77006 -1.96679 -2.70439
  386 -2.77131 -1.96774 2.70854
  387 495.108 -60.5590 37.0560
  388 -6.40467 -15.4682 25.1126
  389 -6.36109 -15.6022 -25.1161
  390 81.9198 4.99762 -1.29906
  391 81.9532 4.99725 1.30109
  392 -2.45562 -12.3393 9.28925
  393 -2.48370 -12.3198 -9.29071
  394 32.0712 13.9463 11.1398
  395 31.9892 13.9731 -11.1423
  396 404.682 -1.91507 11.4986
  397 404.554 -1.76979 -11.6894
  398 -0.876351 -23.7302 30.0274
  399 -33.2147 -0.588550 14.1342
  400 -33.2398 -0.591573 -14.1527
  401 -1.00481 -25.0826 -29.6917
  402 379.575 -0.0601198 5.53119
  403 379.473 -0.0514315 -5.53879
  404 -3.01959 8.55856 27.3297
  405 -3.14604 8.58482 -27.3825
  406 281.508 3.82957 -10.7976
  407 281.577 3.80628 10.7959
  408 432.220 -18.4865 -8.68479
  409 433.489 -14.9620 6.46861
  410 -0.863953 -44.5882 -18.5982
  411 39.5538 14.8038 -7.28493
  412 39.8790 14.6445 7.23984
  413 433.010 28.1965 18.0234
  414 245.809 -12.0603 -115.046
  415 252.263 -16.5950 120.337
  416 15.4364 13.3546 17.4084
  417 15.3391 13.3872 -17.4260
  418 181.186 4.57951 -2.99476
  419 181.201 4.57607 2.99724
  420 176.083 32.5069 182.666
  421 73.6309 16.8832 -3.65133
  422 73.7025 16.8513 3.67283
  423 4.62653 -41.7435 19.8793
  424 -0.539061 -72.3963 -16.0831
  425 29.5933 16.4646 16.0218
  426 29.4797 16.5135 -16.0440
  427 36.6361 9.32090 -6.66098
  428 36.6988 9.31082 6.66166
  429 -11.9384 -0.457913 -30.7684
  430 -11.8671 -0.474966 30.7151
  431 87.8393 17.4525 -17.8208
  432 87.4638 17.7125 18.0013
  433 435.018 -13.7169 -41.4386
  434 12.6367 -3.78966 23.2766
  435 12.2274 -3.68358 -23.4275
  436 316.852 -13.6434 -39.7730
  437 318.152 -14.5938 39.7195
  438 -78.3887 0.611656 -8.10524
  439 -78.2961 0.609689 8.09382
  440 0.000762941 -71.1827 14.4944
  441 -0.504293 -45.2495 16.5658
  442 -31.8084 2.11521 23.6581
  443 -31.8678 2.11419 -23.6954
  444 227.120 1.55139 -1.12116
  445 227.155 1.54965 1.12143
  446 -6.76559 -10.6886 17.1167
  447 -6.77743 -10.7137 -17.0995
  448 142.478 8.00744 -62.3320
  449 142.190 8.64289 63.0225
  450 1.18514 -85.8289 -15.7914
  451 782.618 27.2713 0.497744
  452 2.21784 -100.822 -8.73168
  453 -92.1797 -0.0669079 -2.88635
  454 -92.0676 -0.0668995 2.88440
  455 -35.1844 5.05344 19.1613
  456 -35.2705 5.06421 -19.1905
  457 -41.7117 0.602754 14.1741
  458 -41.7495 0.602535 -14.1937
  459 155.619 15.6666 -14.1944
  460 155.623 15.6664 14.2735
  461 234.465 8.89729 -16.8354
  462 234.544 8.84135 16.8668
  463 -3.82299 -14.3332 31.0714
  464 -3.82865 -14.2388 -31.2028
  465 407.943 7.50014 -52.2531
  466 28.2691 -6.12632 -3.53311
  467 27.2844 -6.36493 4.03905
  468 6.57047 -89.9933 -1.97898
  469 4.23764 -104.841 -1.06940
  470 -12.3189 -5.49047 17.6122
  471 -12.3251 -5.51069 -17.6204
  472 87.1392 -3.71261 -95.9246
  473 619.136 3.99581 -64.2660
  474 141.762 8.72762 4.22668
  475 141.765 8.73195 -4.21520
  476 205.711 2.37761 -59.8023
  477 206.158 2.31707 60.6821
  478 61.0455 20.9166 5.57220
  479 60.9274 20.9864 -5.55825
  480 185.823 13.6432 -31.7117
  481 185.896 13.5787 31.9392
  482 7.19263 4.01004 27.7537
  483 7.60277 4.21655 -27.7209
  484 -81.8643 1.17410 -5.91765
  485 -81.7599 1.17268 5.91154
  486 406.841 -47.0346 -32.6766
  487 322.638 -0.135813 -1.83154
  488 322.720 -0.136870 1.83221
  489 18.6130 2.05460 -1.75762
  490 18.6750 2.05439 1.75716
  491 -19.9649 7.47667 17.7532
  492 -20.0549 7.49282 -17.7760
  493 -45.8099 2.76474 -6.35630
  494 -45.7180 2.76166 6.35126
  495 141.809 13.3925 -6.53931
  496 141.804 13.3883 6.56987
  497 -16.3064 6.53135 25.1926
  498 -16.3984 6.54677 -25.2377
  499 372.395 -10.6911 -21.3318
  500 373.027 -11.2086 21.0535
  501 245.154 2.47338 -39.8694
  502 244.781 2.30871 40.2065
  503 92.0723 3.90513 -0.703802
  504 92.1003 3.90542 0.704570
  505 1.04933 -43.7798 -25.3509
  506 436.954 -15.5524 33.9506
  507 6.17862 -28.4139 -22.6403
  508 125.198 19.7607 14.6508
  509 125.279 19.7026 -14.5207
  510 402.410 -44.0062 32.3027
  511 31.2669 -37.2161 51.0807
  512 478.398 -59.8520 -63.8338
  513 326.412 0.972179 19.4560
  514 326.266 1.09700 -19.4747
  515 1.00873 -37.3960 26.3815
  516 -6.39750 -1.90258 -4.95630
  517 -6.40026 -1.90158 4.95983
  518 41.2891 1.85746 -0.490310
  519 41.3403 1.85772 0.490263
  520 -1.09652 -25.3424 10.9333
  521 -0.994867 -25.2252 -10.9903
  522 269.028 2.32643 4.39046
  523 268.972 2.32992 -4.38966
  524 753.804 135.072 59.2733
  525 31.9476 -17.8510 -11.0467
  526 24.8974 -24.5732 5.84050
  527 -6.43435 5.62650 -8.64629
  528 -6.35534 5.61855 8.64030
  529 -65.2248 1.02788 8.48090
  530 -65.2864 1.02904 -8.49349
  531 0.661363 -80.5807 15.7980
  532 -90.4107 0.742609 0.770212
  533 -90.5226 0.742666 -0.770692
  534 84.1606 -3.49230 -70.8352
  535 82.3233 -2.13189 73.5148
  536 77.1510 14.0868 -25.0329
  537 76.5709 14.4270 25.1899
  538 -17.4561 -3.61065 24.0189
  539 -17.4841 -3.62644 -24.0551
  540 76.1628 6.45855 1.31180
  541 76.1255 6.46028 -1.30860
  542 -37.1925 1.67061 2.64662
  543 -37.2802 1.67133 -2.64823
  544 89.5441 12.6683 1.13261
  545 89.5035 12.6788 -1.11609
  546 -1.76720 -5.77167 4.24023
  547 -1.77335 -5.76665 -4.23945
  548 32.8478 14.1962 14.1284
  549 32.6298 14.3912 -14.2049
  550 26.5319 4.79786 12.2810
  551 26.1586 4.76381 -12.5030
  552 329.928 1.96963 8.18346
  553 329.844 1.98138 -8.18753
  554 292.430 3.48348 13.1317
  555 292.349 3.52130 -13.1365
  556 -0.299457 -68.5213 -10.0735
  557 205.583 9.88663 -13.0045
  558 205.628 9.85738 13.0308
  559 205.979 4.33946 -4.95999
  560 206.007 4.33185 4.96396
  561 -26.3205 0.849664 0.0429151
  562 -26.2382 0.849928 -0.0429135
  563 355.290 18.9356 -10.0612
  564 458.887 -57.1959 -24.2692
  565 380.657 17.7803 39.4070
  566 3.18260 -57.7059 -18.2809
  567 -19.0529 6.32911 -11.5568
  568 -18.9677 6.31903 11.5464
  569 3.38896 -33.3402 24.7583
  570 -20.0167 0.672016 27.3996
  571 -20.0741 0.668664 -27.4421
  572 586.413 56.2443 1.44839
  573 134.744 5.81918 -2.02783
  574 134.736 5.81677 2.03230
  575 880.915 75.2459 -78.1962
  576 -4.02301 -3.11082 31.8364
  577 -3.71626 -2.87561 -31.8602
  578 484.884 -42.1776 17.3199
  579 389.738 0.129579 -9.63947
  580 389.827 0.0804185 9.58879
  581 180.907 0.675116 -86.6084
  582 183.018 0.118133 87.9257
  583 -9.86860 -9.45742 27.7752
  584 -9.87904 -9.50769 -27.8499
  585 95.4596 9.16051 46.5778
  586 96.2580 8.45929 -46.2081
  587 -76.1562 0.869063 -7.93246
  588 -76.0713 0.867627 7.92084
  589 571.407 50.5364 29.7515
  590 110.374 9.71899 1.00469
  591 110.396 9.71788 -0.994879
  592 130.103 16.2198 -32.1017
  593 129.921 16.4152 32.4329
  594 353.277 -1.06843 -19.0064
  595 353.464 -1.24092 18.9620
  596 -1.52805 -35.5267 -24.9603
  597 383.129 -0.611161 2.89716
  598 383.018 -0.608996 -2.89740
  599 -54.2829 0.997453 -0.997523
  600 -54.1877 0.997385 0.996903
  601 -97.0202 -0.734095 0.00800657
  602 -97.1352 -0.734689 -0.00806096
  603 8.43503 -52.4393 -7.91133
  604 -3.55685 -23.1355 21.4694
  605 -3.75160 -21.8784 -21.6128
  606 -43.1883 2.70444 19.6715
  607 -43.2570 2.70825 -19.7023
  608 269.372 6.16544 16.6244
  609 269.285 6.22380 -16.6170
  610 198.720 2.11860 1.16074
  611 198.697 2.11983 -1.16023
  612 45.5733 -10.6475 30.0216
  613 46.9970 -9.68448 -29.7557
  614 -1.37262 -17.6820 9.24369
  615 -1.41552 -17.6265 -9.27533
  616 459.013 35.8560 196.989
  617 -22.7874 -0.692011 8.55448
  618 -22.7897 -0.695306 -8.56183
  619 8.44096 -31.6617 -17.9855
  620 194.576 7.24949 -6.81443
  621 194.601 7.23835 6.82288
  622 96.1510 20.1869 -11.1640
  623 95.9617 20.3119 11.2897
  624 0.928804 -120.840 6.00814
  625 72.4111 19.5487 2.95602
  626 72.3224 19.5973 -2.93014
  627 -6.51088 7.96729 13.9060
  628 -6.59597 7.98210 -13.9190
  629 -0.547512 -60.3439 13.7491
  630 -97.1413 0.0627418 -2.88832
  631 -97.0275 0.0625636 2.88611
  632 128.629 2.98752 0.652737
  633 128.639 2.98906 -0.651336
  634 321.534 0.596029 5.45018
  635 321.454 0.601764 -5.45076
  636 284.836 -17.6811 150.548
  637 229.179 5.26316 -10.1901
  638 229.227 5.24130 10.1991
  639 4.07680 -4.32916 29.2456
  640 4.93622 -2.31463 -29.1689
  641 365.480 -34.9346 -122.112
  642 854.300 29.1635 -32.4997
  643 -89.7862 0.0531947 -5.45918
  644 -89.6854 0.0523078 5.45235
  645 23.1767 4.59412 -3.94059
  646 23.2385 4.59127 3.93984
  647 -1.67053 -37.7546 22.0844
  648 495.267 30.3752 -47.6030
  649 378.791 -0.794257 0.510091
  650 378.679 -0.793594 -0.509738
  651 -24.3162 -1.29220 -19.8254
  652 -24.2890 -1.28576 19.7995
  653 -0.0765157 -85.6229 -13.1419
  654 385.266 -0.795872 1.11582
  655 385.151 -0.795099 -1.11522
  656 36.7929 12.0440 9.35830
  657 36.7212 12.0624 -9.35786
  658 295.884 -25.0142 -80.3989
  659 301.138 -24.9008 81.2678
  660 429.803 -2.87070 6.69429
  661 429.857 -2.84335 -6.96297
  662 1.89725 -107.575 10.1153
  663 -21.9910 0.606167 -1.52702
  664 -21.9106 0.606447 1.52630
  665 141.863 18.8121 -143.579
  666 133.758 2.61456 1.10537
  667 133.766 2.61534 -1.10464
  668 66.6551 4.54211 0.494627
  669 66.6148 4.54274 -0.493333
  670 78.9411 8.21955 -0.791378
  671 78.9787 8.21629 0.797500
  672 252.741 6.75109 -25.7213
  673 252.889 6.64125 25.7878
  674 67.9088 19.6329 -0.207772
  675 67.7041 19.7699 0.237880
  676 -44.5460 3.32178 -11.0182
  677 -44.4547 3.31518 11.0064
  678 -52.1391 3.60076 -12.6116
  679 -52.0481 3.59412 12.5956
  680 442.131 -6.77536 -0.965330
  681 0.682172 -17.4732 -30.0493
  682 442.724 -7.10600 0.368272
  683 564.044 43.9036 -1.68013
  684 -55.3558 0.264711 9.66251
  685 -55.4035 0.264517 -9.67689
  686 59.0793 17.1869 -4.41899
  687 58.6588 17.3937 4.46094
  688 -104.282 0.0481562 -1.00405
  689 -104.164 0.0482429 1.00330
  690 1.04464 -15.6786 30.0787
  691 -34.4948 0.512740 20.7975
  692 -34.5441 0.510862 -20.8284
  693 485.678 -39.4523 -19.1568
  694 78.1807 1.63467 -0.597447
  695 78.1465 1.63402 0.597964
  696 18.9915 6.93455 6.70661
  697 18.9240 6.94156 -6.70826
  698 258.172 -11.4152 -67.3771
  699 260.076 -11.8647 68.6563
  700 890.013 63.3698 71.0217
  701 17.6537 -78.4437 -30.8349
  702 -6.31828 -13.3840 29.6643
  703 -6.32757 -13.4396 -29.7340
  704 55.4868 11.8389 -4.82331
  705 55.5435 11.8264 4.82937
  706 396.037 -0.681389 -2.94594
  707 396.153 -0.683922 2.94413
  708 190.037 2.81044 2.10620
  709 190.018 2.81333 -2.10482
  710 16.5509 14.0380 21.0803
  711 16.4426 14.0803 -21.1155
  712 11.1784 3.35851 2.76725
  713 11.1125 3.35976 -2.76814
  714 -10.7667 2.85306 30.1019
  715 -10.8506 2.85087 -30.1653
  716 326.118 -0.541572 2.30709
  717 326.035 -0.539550 -2.30668
  718 282.772 2.09575 6.23567
  719 282.709 2.10236 -6.23518
  720 38.7288 -22.4943 35.8840
  721 39.8287 -24.2609 -34.7276
  722 -21.4324 4.83975 26.2445
  723 -21.5131 4.84522 -26.2918
  724 12.0770 -25.9113 13.8996
  725 1.56138 8.63860 27.5067
  726 1.42896 8.66093 -27.5434
  727 -61.5371 1.73271 -7.29157
  728 -61.4396 1.72992 7.28427
  729 50.5976 15.7872 8.50237
  730 50.5153 15.8187 -8.49467
  731 437.861 -13.1562 -22.9283
  732 414.608 -35.8797 -11.4977
  733 -6.64051 -13.5975 21.1259
  734 -6.63273 -13.6630 -21.1005
  735 162.281 0.810247 -102.171
  736 158.104 4.22429 103.099
  737 99.2359 18.9193 -16.7269
  738 98.9832 19.1047 16.9107
  739 8.84589 -15.1245 23.7333
  740 -0.588103 -44.7599 -11.9892
  741 205.898 10.9894 -24.2755
  742 205.993 10.9263 24.3948
  743 0.521298 -87.8242 11.0610
  744 123.363 16.6390 -7.01840
  745 123.332 16.6508 7.07070
  746 416.256 -0.528543 -7.29372
  747 416.305 -0.578513 7.20096
  748 8.36635 -116.460 3.45045
  749 189.616 13.7397 18.4385
  750 189.568 13.7759 -18.3639
  751 51.9742 18.2781 -4.33535
  752 52.2418 18.0960 4.31274
  753 -75.1408 0.494986 -6.71283
  754 -75.0673 0.494374 6.70230
  755 209.887 3.19425 -4.30957
  756 209.916 3.18943 4.31197
  757 130.331 18.4378 -12.3691
  758 130.284 18.4662 12.4651
  759 1.78333 11.3102 21.1274
  760 1.68326 11.3398 -21.1555
  761 415.854 -30.7216 6.40987
  762 -63.4593 1.34008 5.53284
  763 -63.5584 1.34139 -5.53687
  764 888.862 176.909 -125.661
  765 -23.1228 2.38261 5.72521
  766 -23.2051 2.38473 -5.72857
  767 353.288 0.703817 13.4786
  768 353.188 0.764155 -13.5139
  769 656.307 40.6193 0.0605624
  770 399.127 -1.26357 -5.53971
  771 399.232 -1.27284 5.52861
  772 256.442 3.32117 7.87548
  773 256.389 3.33236 -7.87370
  774 383.178 -41.8875 111.343
  775 167.484 11.8265 -7.18917
  776 167.499 11.8150 7.21120
  777 3.90221 -65.4167 13.0939
  778 439.257 -54.2486 37.5878
  779 266.919 0.334553 1.33996
  780 266.864 0.336013 -1.33958
  781 348.766 -0.101310 0.712130
  782 348.670 -0.100759 -0.711791
  783 -1.54643 -35.2397 -20.6796
  784 2.18741 -59.5963 19.7949
  785 158.952 17.4531 25.6109
  786 158.959 17.4408 -25.4147
  787 879.478 8.36438 7.81680
  788 272.068 2.08782 -31.9915
  789 272.259 1.95618 32.0748
  790 -55.6362 1.84353 14.6661
  791 -55.7188 1.84807 -14.6871
  792 11.7917 -47.1917 3.27146
  793 7.59914 -108.317 -8.74895
  794 617.857 80.4077 -12.2019
  795 -0.535720 -44.6429 10.8240
  796 13.2355 9.28358 24.5138
  797 13.1907 9.27858 -24.6351
  798 84.0545 16.1346 1.65433
  799 84.0007 16.1570 -1.63197
  800 412.394 -18.9548 -7.20091
  801 413.255 -18.7146 5.85312
  802 483.037 76.9378 -186.740
  803 -65.2199 0.646557 -2.45525
  804 -65.1197 0.646241 2.45350
  805 -31.2558 -0.120872 8.04886
  806 -31.2654 -0.122288 -8.05807
  807 30.6404 3.05669 6.59144
  808 29.9972 3.02428 -6.66135
  809 313.412 -1.98449 28.7631
  810 313.179 -1.72860 -28.6947
  811 160.495 3.82280 -1.28127
  812 160.500 3.82051 1.28298
  813 504.735 -6.27886 43.4980
  814 54.6372 8.28037 -4.32840
  815 54.6888 8.27429 4.33177
  816 50.4852 7.47825 -9.47241
  817 50.0326 7.71044 9.58513
  818 -0.0712793 -34.5525 -27.5913
  819 709.277 114.124 104.610
  820 -102.251 0.0906228 -2.89531
  821 -102.137 0.0904555 2.89259
  822 -0.151394 -106.760 10.3473
  823 7.86251 -14.9631 -24.0350
  824 -15.5637 -0.944982 6.00627
  825 -15.5579 -0.947473 -6.00849
  826 569.387 35.0964 -28.7074
  827 149.708 14.4088 -9.06162
  828 149.709 14.4043 9.10908
  829 390.983 -5.93131 -14.5227
  830 391.348 -5.98815 14.3195
  831 -97.8979 0.722949 3.88538
  832 -98.0066 0.723857 -3.88986
  833 -0.709344 -0.733886 -0.607041
  834 -0.710782 -0.735202 0.609459
  835 0.311007 -109.162 -10.0855
  836 0.499101 -114.433 -8.99172
  837 -107.326 1.00554 0.558339
  838 -107.446 1.00579 -0.558638
  839 60.5854 -15.0036 -68.0298
  840 243.053 2.52596 -2.35209
  841 243.097 2.52383 2.35267
  842 -6.20983 1.76970 0.720725
  843 -6.28287 1.76972 -0.721035
  844 359.672 0.713520 -8.91773
  845 359.765 0.693236 8.90291
  846 -41.0603 0.278072 7.64568
  847 -41.0810 0.278088 -7.65541
  848 219.282 5.33910 -152.548
  849 376.827 -31.9465 31.7628
  850 295.220 0.960864 -2.85686
  851 295.288 0.958707 2.85724
  852 373.473 -34.7177 -35.3707
  853 117.844 12.6700 -3.01080
  854 117.822 12.6723 3.03432
  855 162.125 10.1548 -5.52812
  856 162.134 10.1468 5.54239
  857 437.689 -9.29365 17.5258
  858 27.7904 15.9636 17.1373
  859 27.6681 16.0232 -17.1831
  860 29.1950 1.65824 1.26408
  861 29.1381 1.65802 -1.26439
  862 207.068 2.21199 2.00958
  863 207.042 2.21411 -2.00868
  864 538.462 -47.1491 63.2351
  865 337.878 1.60252 -11.7273
  866 337.972 1.56470 11.7073
  867 6.40877 4.92033 5.29188
  868 6.33840 4.92430 -5.29389
  869 338.388 -0.639813 3.33251
  870 338.299 -0.637234 -3.33220
  871 -61.3985 0.273862 -1.64327
  872 -61.3000 0.274224 1.64251
  873 -0.291146 -34.1985 9.66219
  874 -0.384541 -34.7334 -9.73510
  875 408.438 -5.38718 42.3861
  876 -23.9680 6.29788 22.0435
  877 -24.0557 6.31228 -22.0784
  878 -0.134783 -56.2688 -10.6528
  879 162.069 5.54737 -2.87816
  880 162.075 5.54422 2.88173
  881 297.269 -14.8564 -51.4905
  882 299.529 -16.4259 51.9891
  883 -12.5019 -4.31299 -29.7717
  884 -12.4444 -4.31236 29.7071
  885 17.1562 14.0775 19.3100
  886 17.0512 14.1161 -19.3337
  887 1.40784 -127.752 7.05409
  888 4.87321 11.1198 25.0541
  889 4.75907 11.1489 -25.0916
  890 274.656 -4.94350 -45.8075
  891 274.049 -5.15024 46.1704
  892 474.400 27.0849 49.6740
  893 109.892 11.7696 1.53604
  894 109.916 11.7672 -1.52062
  895 346.527 1.81782 -8.76143
  896 346.617 1.80229 8.75310
  897 -13.4620 -5.82084 26.2178
  898 -13.4889 -5.84423 -26.2670
  899 1.22230 -131.171 -4.44068
  900 -20.7129 -1.32276 25.6781
  901 -20.7556 -1.32715 -25.7177
  902 14.3684 12.6140 -15.0804
  903 14.4575 12.5869 15.0676
  904 -1.06516 -8.62293 4.76797
  905 -1.07728 -8.61439 -4.77515
  906 30.7799 14.2197 -13.3435
  907 30.8723 14.1862 13.3371
  908 6.70224 -9.83523 26.9317
  909 5.85768 -9.14808 -28.3664
  910 337.299 -9.78307 29.3816
  911 336.505 -9.33263 -29.5318
  912 -109.600 0.280924 -0.820383
  913 -109.479 0.280941 0.819892
  914 -9.57933 -0.858876 4.52366
  915 -9.57095 -0.860408 -4.52248
  916 0.452714 -79.9455 -9.69594
  917 -10.2486 -4.38607 -12.8574
  918 -10.2444 -4.37492 12.8579
  919 -42.7490 3.65941 18.8453
  920 -42.8286 3.66677 -18.8747
  921 106.245 20.0989 -7.28862
  922 106.159 20.1596 7.36517
  923 450.691 35.1945 -7.31827
  924 -4.18948 10.0303 19.1949
  925 -4.28305 10.0535 -19.2185
  926 167.224 10.7345 -48.2873
  927 167.224 10.8871 48.8074
  928 -18.8028 6.94779 15.4481
  929 -18.8910 6.96271 -15.4664
  930 541.097 -24.6836 -6.81613
  931 331.628 13.2000 21.5644
  932 395.990 -4.72775 -38.3311
  933 295.176 3.55902 -19.4811
  934 295.295 3.46999 19.4824
  935 -30.0359 4.08517 -7.48002
  936 -29.9498 4.07994 7.47389
  937 -69.6552 1.24152 9.35444
  938 -69.7489 1.24449 -9.36706
  939 -4.22018 -13.6729 -14.9156
  940 -4.19005 -13.6837 14.9420
  941 105.617 6.42787 0.879778
  942 105.639 6.42801 -0.875493
  943 -32.4890 3.45270 23.4445
  944 -32.5584 3.45516 -23.4836
  945 352.824 -0.413534 4.35368
  946 352.728 -0.410455 -4.35374
  947 -2.63371 -29.9635 22.5071
  948 14.2487 11.5323 -12.9100
  949 14.3314 11.5114 12.9012
  950 19.3867 7.91145 8.37286
  951 19.3161 7.92161 -8.37578
  952 62.1526 5.39717 -1.87658
  953 62.1957 5.39551 1.87785
  954 662.376 86.5448 -20.9907
  955 -2.64365 -0.722939 -1.79790
  956 -2.64932 -0.722871 1.80116
  957 23.4093 6.90296 -16.0788
  958 23.8030 6.71925 16.0040
  959 238.766 9.15546 -20.6310
  960 238.864 9.08141 20.6782
  961 31.6770 10.0027 -7.91368
  962 31.7451 9.98981 7.91323
  963 65.5805 -11.0039 89.9336
  964 446.718 -3.27415 -3.82603
  965 446.111 -3.15245 3.42108
  966 80.2394 -5.43425 78.7417
  967 84.4914 3.29414 -0.373605
  968 84.4601 3.29400 0.374356
  969 217.879 -5.82312 -131.969
  970 164.428 2.41399 1.08823
  971 164.421 2.41495 -1.08762
  972 21.1728 -20.4256 3.57591
  973 23.3962 -16.9818 -1.81390
  974 395.315 -0.498287 1.49649
  975 395.196 -0.497573 -1.49579
  976 -32.4616 0.127153 18.9319
  977 -32.4982 0.125099 -18.9575
  978 709.442 89.1494 41.7851
  979 -2.94500 -22.2901 -29.5717
  980 3.68057 -109.435 13.6833
  981 -0.462692 -35.4671 27.2438
  982 408.909 -0.423772 -5.65255
  983 409.003 -0.437375 5.63132
  984 -5.40234 -9.89843 12.8942
  985 -5.41743 -9.89939 -12.8820
  986 512.794 53.9030 -26.5678
  987 891.876 7.50559 -5.23645
  988 -1.33480 -2.02342 -1.95677
  989 -1.33332 -2.02771 1.95960
  990 238.752 2.34753 -4.49221
  991 238.795 2.34336 4.49364
  992 -3.01355 -21.4083 29.7136
  993 331.581 1.16817 17.3318
  994 331.466 1.25829 -17.3574
  995 435.754 -28.6620 -16.6049
  996 -15.1815 -3.15562 14.5263
  997 -15.1879 -3.16763 -14.5344
  998 7.36431 -27.7455 20.7246
  999 -0.676389 -53.6330 21.3890
  1000 -0.0641681 -55.8349 10.6398
  1001 449.069 29.0012 -2.64687
  1002 512.145 56.2204 14.5906
  1003 365.988 -41.4899 -61.8729
  1004 5.35278 -51.8748 16.6674
  1005 6.75685 -74.3946 3.15210
  1006 102.628 2.16934 0.253016
  1007 102.605 2.16873 -0.252960
  1008 -4.05300 -4.62157 -6.16707
  1009 -4.04936 -4.62239 6.17183
  1010 3.59656 -42.6302 -22.5102
  1011 294.756 0.0296873 -1.04913
  1012 294.824 0.0284683 1.04936
  1013 59.8514 0.774752 -29.9520
  1014 57.2845 0.911798 29.6655
  1015 -4.77186 9.16675 25.3690
  1016 -4.88046 9.19244 -25.4142
  1017 -33.9462 5.28198 -15.7456
  1018 -33.8573 5.27107 15.7254
  1019 225.912 3.63907 -47.0341
  1020 226.033 3.83836 47.5378
  1021 162.964 14.2979 -33.1318
  1022 162.940 14.2999 33.4356
  1023 176.623 12.3586 -11.2853
  1024 176.647 12.3380 11.3193
  1025 457.008 -12.0143 -49.2124
  1026 -11.5427 5.69729 27.9636
  1027 -11.6397 5.70607 -28.0245
  1028 323.417 -0.669729 23.7440
  1029 323.233 -0.477029 -23.7457
  1030 -1.96685 -16.6290 30.9531
  1031 -26.0565 -0.853436 14.0019
  1032 -26.0716 -0.857802 -14.0176
  1033 294.849 2.34999 -23.6312
  1034 295.002 2.22373 23.6442
  1035 367.125 9.04312 -35.4091
  1036 -0.397021 -53.3061 -22.4383
  1037 -4.28017 -20.9750 26.6709
  1038 -4.46135 -21.2305 -26.4495
  1039 208.453 11.7797 -17.1189
  1040 208.516 11.7325 17.1715
  1041 262.419 4.40962 9.73988
  1042 262.359 4.42687 -9.73818
  1043 434.859 -27.9977 14.3713
  1044 22.8098 1.91999 -0.344156
  1045 22.8695 1.92008 0.344048
  1046 370.023 -46.3987 66.0024
  1047 -0.792027 1.28380 1.75256
  1048 -0.862786 1.28372 -1.75326
  1049 80.8176 20.2671 -0.409227
  1050 80.7068 20.3352 0.452079
  1051 31.1619 15.9915 14.6541
  1052 31.0596 16.0330 -14.6658
  1053 4.12591 -64.6674 -13.6433
  1054 107.999 3.69512 0.360406
  1055 108.020 3.69628 -0.358089
  1056 323.566 10.5055 8.89971
  1057 297.608 1.88252 9.02780
  1058 297.536 1.89860 -9.03004
  1059 -1.65614 -17.2853 -31.0078
  1060 447.339 -5.75740 -8.79367
  1061 0.290233 -1.24365 30.6389
  1062 0.628203 -0.994439 -30.4926
  1063 406.450 -0.824225 -3.12682
  1064 406.567 -0.827371 3.12296
  1065 433.154 -1.59338 -5.49966
  1066 433.095 -1.64789 5.35894
  1067 -0.328195 -84.5631 7.99319
  1068 255.197 6.07067 -12.8776
  1069 255.259 6.04168 12.8826
  1070 310.036 2.45273 10.4961
  1071 309.957 2.47376 -10.5015
  1072 7.48278 7.53774 27.4090
  1073 7.44054 7.53983 -27.4417
  1074 672.782 44.2851 7.37049
  1075 -8.37417 -3.55746 31.6481
  1076 -8.50720 -3.47875 -31.7296
  1077 97.2724 18.6896 -1.71782
  1078 97.2177 18.7189 1.75598
  1079 -52.7519 0.903063 -2.72044
  1080 -52.6574 0.902867 2.71887
  1081 159.373 9.44191 -55.5647
  1082 159.150 9.88378 56.2167
  1083 46.3609 18.0610 11.0531
  1084 46.2495 18.1133 -11.0551
  1085 108.488 12.9173 -41.2657
  1086 107.932 13.4484 41.6086
  1087 -2.81589 -28.1450 -21.9361
  1088 381.637 5.43405 46.7060
  1089 266.438 3.06916 170.947
  1090 43.6070 18.6220 11.3984
  1091 43.4765 18.6912 -11.4118
  1092 161.536 8.15775 -4.22794
  1093 161.543 8.15079 4.23725
  1094 581.490 4.26534 11.4935
  1095 38.0708 9.94153 6.67770
  1096 37.5934 10.0583 -6.82393
  1097 -17.2203 -3.75251 19.3109
  1098 -17.2352 -3.77015 -19.3312
  1099 -0.564761 -12.8695 5.20216
  1100 -0.587217 -12.8619 -5.22313
  1101 382.431 -0.646551 13.9257
  1102 382.291 -0.506770 -14.0222
  1103 0.679934 -26.8018 28.9929
  1104 -25.9502 1.72123 -25.6277
  1105 -25.8923 1.72422 25.5876
  1106 0.128144 -102.115 -10.1143
  1107 -5.82417 -8.23585 31.6006
  1108 -5.80755 -8.05826 -31.6341
  1109 365.529 0.179905 -5.86389
  1110 365.628 0.172934 5.86027
  1111 377.391 -3.16522 16.7870
  1112 377.132 -2.93888 -16.8834
  1113 66.6368 15.0784 -14.4245
  1114 66.1319 15.3642 14.5474
  1115 -0.883795 -52.6059 -18.2810
  1116 496.345 -43.7587 -100.506
  1117 643.255 85.3501 7.22260
  1118 6.77234 -78.3284 -0.619555
  1119 23.7401 13.3999 -19.6845
  1120 23.8794 13.3268 19.5804
  1121 62.4928 20.0133 4.53997
  1122 62.3437 20.1037 -4.52578
  1123 131.430 7.40672 1.81298
  1124 131.439 7.40962 -1.80597
  1125 -8.27542 -11.7872 24.9825
  1126 -8.26407 -11.9009 -25.0229
  1127 -23.1179 7.37611 20.2524
  1128 -23.2074 7.39233 -20.2810
  1129 -7.79358 9.39505 23.4507
  1130 -7.89353 9.41851 -23.4880
  1131 360.755 -18.4693 -28.9199
  1132 363.044 -18.6075 28.6971
  1133 0.364034 -60.2325 -21.2833
  1134 193.479 -0.0635105 -69.4014
  1135 193.767 0.538061 70.5322
  1136 62.4074 18.1865 -5.44515
  1137 62.4895 18.1460 5.46051
  1138 192.618 96.4318 190.937
  1139 49.0601 14.5338 8.15217
  1140 48.9866 14.5578 -8.14642
  1141 491.202 -52.7792 -25.4161
  1142 186.578 4.75343 3.38546
  1143 186.560 4.75861 -3.38204
  1144 -8.34496 -7.43211 15.3158
  1145 -8.35100 -7.45014 -15.3114
  1146 -9.94512 -8.90945 19.7939
  1147 -9.94559 -8.94513 -19.7970
  1148 323.357 -32.2254 -97.0449
  1149 329.761 -35.5227 97.7534
  1150 59.0373 1.97927 0.811207
  1151 59.0804 1.97965 -0.810436
  1152 203.667 9.34584 -38.3318
  1153 203.669 9.22972 38.7067
  1154 441.647 -58.0631 74.6481
  1155 392.279 -0.969224 0.866183
  1156 392.161 -0.968496 -0.865609
  1157 -34.4946 5.51934 18.0995
  1158 -34.5826 5.53056 -18.1246
  1159 -59.5339 1.81671 -9.42781
  1160 -59.4380 1.81316 9.41842
  1161 101.767 4.07905 115.705
  1162 312.766 20.7536 -18.0869
  1163 186.291 12.9744 -19.1181
  1164 186.343 12.9393 19.2171
  1165 572.191 -14.0237 108.490
  1166 189.362 12.5458 -28.1078
  1167 189.426 12.4858 28.2797
  1168 48.1602 5.82263 -2.93232
  1169 48.2109 5.82004 2.93327
  1170 16.6467 -58.6104 11.9639
  1171 16.8271 -57.0063 -16.4258
  1172 256.271 -17.3115 -97.9834
  1173 259.742 -16.1460 97.8935
  1174 100.900 16.8447 -29.0820
  1175 100.475 17.1829 29.3607
  1176 449.642 -29.6260 -31.6688
  1177 -16.1536 -1.26300 28.9287
  1178 -16.2117 -1.26298 -28.9780
  1179 -0.182042 -23.9181 -29.7936
  1180 115.570 4.26105 -73.2522
  1181 115.824 4.59215 74.4750
  1182 -0.287847 -22.8012 5.79472
  1183 -0.246006 -22.8569 -5.86649
  1184 -107.078 0.886392 -2.73616
  1185 -106.963 0.885792 2.73328
  1186 356.841 -0.403327 -1.65256
  1187 356.940 -0.404600 1.65291
  1188 221.500 7.75912 -11.1587
  1189 221.551 7.73170 11.1741
  1190 -7.77893 0.119612 31.5924
  1191 -7.80312 0.248608 -31.6540
  1192 0.0169537 -91.2880 -8.88377
  1193 -91.1502 0.206914 4.46613
  1194 -91.2460 0.207461 -4.47260
  1195 71.7553 -0.210009 -51.7390
  1196 71.2258 0.236010 53.3413
  1197 417.415 -25.4964 -2.16544
  1198 120.245 8.36630 -65.8684
  1199 120.322 8.67473 66.4925
  1200 -50.8141 0.276878 6.94359
  1201 -50.8462 0.276574 -6.95326
  1202 1.36670 -79.1554 -14.7637
  1203 -13.8242 3.02971 -3.49811
  1204 -13.7469 3.02823 3.49642
  1205 64.0015 15.2622 5.74475
  1206 63.9327 15.2873 -5.73165
  1207 235.334 0.896131 -1.45292
  1208 235.374 0.894650 1.45345
  1209 316.645 1.16766 6.86413
  1210 316.567 1.17755 -6.86617
  1211 17.8025 -1.72003 16.6421
  1212 17.5376 -2.02140 -16.9651
  1213 3.06218 -45.3316 22.5276
  1214 568.197 78.8482 18.2194
  1215 -17.4879 -1.35775 11.0199
  1216 -17.4908 -1.36364 -11.0264
  1217 2.43119 -42.4569 -23.6313
  1218 -1.65751 -26.5216 16.1127
  1219 -1.57604 -26.2714 -16.6928
  1220 449.147 -4.93288 7.79113
  1221 0.393170 -104.375 9.07974
  1222 3.44210 -31.0719 -26.3687
  1223 54.8227 1.47468 0.524226
  1224 54.7778 1.47418 -0.524378
  1225 -4.33689 -18.7605 29.2822
  1226 -48.5096 2.74011 -7.92996
  1227 -48.4165 2.73665 7.92317
  1228 908.629 15.5372 26.0325
  1229 -25.6002 3.08120 25.8516
  1230 -25.6687 3.08095 -25.8955
  1231 217.467 8.54019 -34.6448
  1232 217.642 8.38995 34.8445
  1233 14.4073 -20.4474 -10.5772
  1234 206.856 10.2204 -14.1277
  1235 206.909 10.1834 14.1637
  1236 8.68476 -62.0792 -2.70709
  1237 -4.35317 -18.8033 -29.2401
  1238 -33.4399 1.28182 4.65606
  1239 -33.5262 1.28274 -4.65876
  1240 -15.4082 1.31212 -29.5314
  1241 -15.3376 1.31678 29.4846
  1242 442.571 35.6445 35.1088
  1243 251.272 2.67207 -36.5811
  1244 251.556 2.60449 36.6721
  1245 -111.847 0.242037 -0.975316
  1246 -111.725 0.241963 0.974520
  1247 226.323 5.09330 -7.55207
  1248 226.363 5.08301 7.55622
  1249 -114.579 -1.99957 -0.311963
  1250 -114.702 -2.00062 0.312079
  1251 337.270 -23.9238 -41.9128
  1252 -52.8491 0.911727 14.6291
  1253 -52.9110 0.912279 -14.6518
  1254 340.614 -25.2515 41.5357
  1255 230.314 8.02687 -15.2756
  1256 230.376 7.98434 15.2968
  1257 27.2657 -57.8651 -51.2608
  1258 0.498738 -72.8616 -18.2154
  1259 -1.45949 -30.5855 27.4428
  1260 717.827 124.921 -105.500
  1261 -0.165134 -68.4687 17.8599
  1262 749.000 70.7517 -46.9864
  1263 -0.429429 -126.947 -8.44280
  1264 37.4333 3.43325 -0.941003
  1265 37.4869 3.43247 0.941354
  1266 -0.313777 -29.2703 6.07154
  1267 -0.252012 -29.4271 -6.05591
  1268 129.113 2.88940 0.200461
  1269 129.124 2.89036 -0.199817
  1270 454.467 -34.0075 30.0176
  1271 10.3676 3.26535 -4.05231
  1272 10.4344 3.26364 4.05092
  1273 2.61998 -138.115 3.71962
  1274 1.66457 -147.208 -3.69255
  1275 417.953 -51.3512 -45.2600
  1276 -1.13643 -37.8880 17.7817
  1277 439.457 28.7233 -44.6200
  1278 -1.30299 -49.9260 17.4629
  1279 0.882072 -136.225 -6.35949
  1280 211.324 5.63585 -8.32137
  1281 211.360 5.61775 8.33088
  1282 -0.162861 -74.5473 7.88960
  1283 -0.183682 -61.7318 -17.7583
  1284 981.975 174.745 150.509
  1285 394.057 0.142968 0.659009
  1286 393.938 0.143020 -0.658601
  1287 10.9147 1.23278 24.7767
  1288 10.5759 1.65703 -24.8958
  1289 -5.61751 5.90624 29.5229
  1290 -5.76678 5.91370 -29.5963
  1291 422.338 -7.71219 -27.2546
  1292 390.689 -16.4839 -16.7515
  1293 390.324 -18.7285 16.9459
  1294 59.5480 6.61206 2.90782
  1295 59.5012 6.61514 -2.90518
  1296 -63.5369 1.69244 -11.3399
  1297 -63.4478 1.68879 11.3235
  1298 435.600 -58.8624 -63.8305
  1299 -3.24741 -7.87216 8.04648
  1300 -3.26011 -7.86680 -8.04307
  1301 459.877 -19.1013 46.4526
  1302 -4.77768 -18.0756 21.6304
  1303 -4.72475 -18.1436 -21.5320
  1304 -39.7122 2.62133 5.57668
  1305 -39.8015 2.62378 -5.58067
  1306 70.3679 8.57360 -27.2408
  1307 69.6594 8.97048 27.2203
  1308 110.052 2.75048 0.284151
  1309 110.033 2.74956 -0.283560
  1310 -43.7951 4.42423 17.9273
  1311 -43.8792 4.43256 -17.9529
  1312 370.042 0.750026 1.02413
  1313 369.935 0.749885 -1.02357
  1314 205.491 -0.406214 130.656
  1315 302.940 0.346179 2.43046
  1316 302.868 0.347640 -2.42983
  1317 202.556 4.33689 -53.0191
  1318 202.581 4.10682 53.4740
  1319 1.97354 -79.3844 -10.3242
  1320 79.0577 18.9221 -11.9916
  1321 78.7180 19.1459 12.1212
  1322 -0.773302 -0.691582 -1.01038
  1323 -0.777201 -0.691776 1.01331
  1324 260.038 7.50632 19.6968
  1325 259.939 7.58512 -19.6748
  1326 129.975 10.2187 3.30189
  1327 129.986 10.2213 -3.28763
  1328 190.800 10.2826 -9.70313
  1329 190.832 10.2615 9.72557
  1330 249.046 1.11134 -2.44402
  1331 249.092 1.10972 2.44483
  1332 -7.91023 -3.82154 -9.08169
  1333 -7.90836 -3.81675 9.08579
  1334 -74.5124 0.0426544 3.30694
  1335 -74.6164 0.0429071 -3.30944
  1336 -13.4091 -6.12113 -22.1054
  1337 -13.3972 -6.08970 22.0807
  1338 -41.7197 0.583947 1.37557
  1339 -41.8091 0.583648 -1.37625
  1340 -115.911 1.04615 0.554408
  1341 -116.035 1.04648 -0.554698
  1342 467.847 -57.3549 86.6622
  1343 342.859 -1.89409 -38.1692
</Section>

newXOutput 56

<Section columns = "stress_xx | stress_yy | stress_xy">
  1 412.760 -0.656565 0.427197
  2 412.889 -0.657027 -0.427409
  3 -127.552 0.596086 -1.74420
  4 0.203723 0.0501244 0.362345
  5 745.939 220.868 244.927
  6 843.422 249.368 -235.570
  7 0.202799 0.0492825 -0.361116
  8 -127.419 0.595965 1.74340
  9 411.533 -0.623965 -1.36703
  10 411.876 -1.29343 -2.20823
  11 415.750 -1.28698 -0.598488
  12 416.192 -1.24542 -2.60494
  13 417.277 -1.22500 -0.824759
  14 425.949 -1.15601 -1.13769
  15 428.993 -1.66250 -3.49559
  16 432.313 -0.816981 -2.40483
  17 434.465 0.0863989 -4.63928
  18 452.000 -2.54022 -3.97137
  19 459.659 -1.99282 -5.09921
  20 468.179 -2.97918 -2.07058
  21 472.377 -3.92192 -1.30945
  22 469.480 -4.48719 5.83862
  23 454.128 -4.98601 12.4289
  24 418.114 -5.49044 26.7566
  25 359.424 3.22742 31.2011
  26 311.262 3.96681 28.9647
  27 244.018 7.95361 17.5483
  28 259.231 7.73197 1.67226
  29 218.399 22.9501 -11.1211
  30 296.051 10.5858 -31.6762
  31 338.523 2.67053 -25.8814
  32 410.055 -1.14305 -22.4161
  33 449.159 -6.04805 -14.9316
  34 468.836 -5.22491 -5.80069
  35 471.528 -3.80210 1.34008
  36 467.603 -2.94109 1.94891
  37 459.447 -2.00501 4.95456
  38 451.951 -2.57175 3.88922
  39 434.533 0.0686064 4.60102
  40 432.420 -0.823686 2.39093
  41 429.119 -1.66684 3.49147
  42 426.081 -1.15831 1.13588
  43 417.407 -1.22652 0.824365
  44 416.324 -1.24675 2.60636
  45 415.882 -1.28799 0.598948
  46 412.005 -1.29429 2.20964
  47 411.661 -0.624416 1.36790
  48 389.494 0.924367 -0.517839
  49 360.923 0.224883 -1.14565
  50 325.171 -1.35255 -1.14607
  51 288.060 0.783568 -0.953300
  52 255.501 0.487810 -0.756796
  53 220.621 1.60632 -0.894091
  54 186.154 3.40823 -0.534293
  55 150.330 3.02301 -1.12471
  56 120.589 2.05151 -1.58021
  57 81.5207 1.22701 -1.66518
  58 41.8026 2.05850 -1.27042
  59 8.62780 1.71104 -1.22848
  60 -32.7928 0.972626 -1.11956
  61 -63.5922 -0.438097 -2.75873
  62 -93.4307 -2.06590 -1.25864
  63 -123.709 0.245027 0.855094
  64 -130.275 2.23059 -0.313271
  65 -130.755 0.978739 0.400049
  66 -126.415 0.482542 -0.137164
  67 -127.866 1.43219 -1.55879
  68 -125.874 1.74471 -0.118527
  69 -119.088 0.528083 -2.39959
  70 -120.578 1.07721 -2.58565
  71 -117.593 1.01933 -1.44006
  72 -108.898 0.633654 -2.18648
  73 -104.947 1.15380 -3.63155
  74 -98.5996 1.29523 -2.97212
  75 -87.3008 0.658996 -5.17989
  76 -80.9679 0.204205 -4.32719
  77 -69.5064 0.293148 -5.00472
  78 -59.6501 0.229624 -5.55178
  79 -51.0402 0.0797429 -4.38224
  80 -39.0685 0.259190 -4.41873
  81 -28.7392 -0.106910 -4.73164
  82 -18.7430 -0.512902 -4.16056
  83 -10.8162 -0.450023 -3.19132
  84 -5.32089 -0.791345 -2.66928
  85 -0.896335 -0.457739 -0.955993
  86 0.0550649 -0.510743 -0.343089
  87 -0.275419 -0.274183 -0.0686705
  88 -0.716893 -0.723144 -0.837869
  89 -0.696359 -4.50250 -2.31892
  90 -0.592021 -10.0819 -3.30053
  91 -0.304604 -17.1887 -4.81034
  92 -0.155816 -26.3922 -4.14694
  93 -0.125999 -34.8446 -5.21777
  94 -0.636752 -45.1469 -5.88339
  95 -0.260796 -57.8776 -5.93449
  96 0.120585 -70.6990 -5.68019
  97 0.276982 -84.4305 -5.60098
  98 0.428209 -98.5315 -5.50224
  99 0.0189608 -108.849 -7.44285
  100 0.723455 -123.571 -6.65701
  101 0.893600 -140.800 -5.28901
  102 -0.0746189 -148.271 -7.01913
  103 1.26486 -160.693 -6.48796
  104 3.13922 -177.197 -2.95499
  105 6.14354 -181.264 -4.69546
  106 4.39630 -164.494 4.99064
  107 6.51302 -121.719 19.3874
  108 32.3735 -64.6426 54.9285
  109 100.564 155.436 181.487
  110 1145.98 62.3744 114.302
  111 984.914 18.3016 41.3811
  112 953.159 6.53839 9.49662
  113 946.306 2.02554 -1.52471
  114 952.826 10.1823 -21.8237
  115 983.342 33.2919 -49.1842
  116 1115.82 122.168 -145.258
  117 241.792 121.438 -221.225
  118 54.6223 -64.0299 -66.4448
  119 16.1207 -133.318 -25.0750
  120 4.48862 -155.678 -5.33122
  121 4.96285 -174.348 2.37383
  122 1.40127 -170.184 2.17674
  123 0.487011 -156.651 5.47231
  124 0.538660 -147.584 4.32487
  125 0.773663 -133.038 7.50891
  126 -0.0384634 -124.705 7.33212
  127 0.306228 -112.684 5.27282
  128 0.603179 -97.3573 6.72680
  129 0.121262 -86.4049 5.32980
  130 0.175359 -70.7744 6.73465
  131 -0.707082 -58.5779 5.79107
  132 -0.490578 -45.1836 5.69868
  133 -0.0877587 -34.6504 5.23059
  134 -0.202943 -26.2395 4.15408
  135 -0.297162 -17.1383 4.76328
  136 -0.583379 -10.0752 3.28407
  137 -0.692649 -4.50936 2.31727
  138 -0.715944 -0.730504 0.839538
  139 -0.275376 -0.277350 0.0707937
  140 0.0512151 -0.511223 0.345014
  141 -0.903571 -0.457474 0.958432
  142 -5.33173 -0.790569 2.67168
  143 -10.8306 -0.448604 3.19203
  144 -18.7543 -0.511151 4.15877
  145 -28.7417 -0.105461 4.72673
  146 -39.0605 0.259476 4.41297
  147 -51.0177 0.0804419 4.37618
  148 -59.6143 0.230449 5.54474
  149 -69.4527 0.293087 4.99726
  150 -80.8978 0.204103 4.32014
  151 -87.2195 0.658526 5.17289
  152 -98.5029 1.29441 2.96662
  153 -104.841 1.15289 3.62698
  154 -108.785 0.633053 2.18352
  155 -117.471 1.01867 1.43811
  156 -120.453 1.07667 2.58356
  157 -118.961 0.527878 2.39787
  158 -125.743 1.74394 0.118072
  159 -127.734 1.43160 1.55786
  160 -126.283 0.482436 0.136999
  161 -130.621 0.978394 -0.399901
  162 -130.141 2.22969 0.313108
  163 -123.578 0.245058 -0.854747
  164 -93.3145 -2.06465 1.25806
  165 -63.4901 -0.437404 2.75750
  166 -32.7051 0.972836 1.11904
  167 8.69613 1.71108 1.22793
  168 41.8555 2.05859 1.26987
  169 81.5549 1.22775 1.66449
  170 120.605 2.05212 1.57956
  171 150.331 3.02344 1.12426
  172 186.139 3.40855 0.534035
  173 220.590 1.60735 0.893609
  174 255.453 0.489131 0.756317
  175 287.995 0.784341 0.952665
  176 325.088 -1.35108 1.14536
  177 360.821 0.225130 1.14501
  178 389.377 0.924056 0.517552
  179 110.292 19.0099 -5.24399
  180 110.228 19.0457 5.30426
  181 -1.61526 3.43380 30.5729
  182 -1.73572 3.40876 -30.5910
  183 249.748 -3.36036 -56.7162
  184 249.565 -3.83505 57.3048
  185 50.3834 12.0856 -3.45682
  186 49.7857 12.2946 3.47117
  187 37.3536 6.15334 -4.45676
  188 37.4126 6.14880 4.45681
  189 236.000 4.19994 -8.48666
  190 236.045 4.18491 8.49248
  191 -3.26285 9.44036 16.4267
  192 -3.35397 9.46073 -16.4448
  193 274.122 6.70301 -21.5289
  194 274.250 6.60775 21.5581
  195 -10.5514 -9.15755 24.5357
  196 -10.5495 -9.21228 -24.5683
  197 2.64132 -21.6180 -28.9416
  198 86.1611 5.86791 -52.6771
  199 3.20071 -23.1403 28.2339
  200 84.7945 6.54398 53.4866
  201 387.987 -51.3416 -82.0514
  202 401.334 -53.3624 78.7957
  203 140.391 4.38438 -1.53275
  204 140.385 4.38239 1.53553
  205 -20.9848 1.46244 -3.16311
  206 -20.9022 1.46209 3.16151
  207 -30.3882 4.75456 23.5023
  208 -30.4698 4.76339 -23.5423
  209 141.155 12.6195 -4.52520
  210 141.149 12.6174 4.54545
  211 43.6103 18.0996 10.6812
  212 43.4389 18.2073 -10.7219
  213 -38.6443 4.17675 -9.56514
  214 -38.5520 4.17081 9.55606
  215 312.637 0.221061 4.00290
  216 312.561 0.224769 -4.00258
  217 10.2922 -40.5520 11.6746
  218 11.1852 -36.6289 -10.2187
  219 -2.85703 -25.9435 27.6125
  220 -2.92849 -26.9693 -26.7508
  221 130.678 18.7648 -23.3551
  222 130.554 18.8572 23.5809
  223 -27.6975 -0.0446784 23.8429
  224 -27.7439 -0.0486963 -23.8782
  225 334.436 1.67351 -11.6938
  226 334.525 1.64617 11.6828
  227 360.310 -5.46336 -23.1788
  228 360.596 -5.81961 23.0930
  229 576.520 43.5359 0.191092
  230 528.952 59.4067 28.9896
  231 520.282 -3.15219 -44.3336
  232 64.8790 14.0895 5.45300
  233 64.8169 14.1091 -5.44297
  234 5.17220 11.7782 23.2529
  235 5.06074 11.8128 -23.2875
  236 402.537 -24.3238 -16.0749
  237 400.219 -24.6152 17.3842
  238 223.206 1.64575 -3.13039
  239 223.239 1.64228 3.13180
  240 -48.8387 3.47403 15.6054
  241 -48.9283 3.48155 -15.6273
  242 -6.79078 -6.67895 -11.0830
  243 -6.78421 -6.67422 11.0893
  244 -53.7085 1.24416 4.79284
  245 -53.8060 1.24539 -4.79631
  246 184.169 13.4095 -14.6744
  247 184.201 13.3820 14.7284
  248 233.944 6.82438 -32.4969
  249 234.121 6.70833 32.6360
  250 57.5309 3.40049 -0.176013
  251 57.5768 3.40013 0.176586
  252 135.723 3.50107 -112.741
  253 160.394 7.19222 122.648
  254 18.7398 8.69590 21.9269
  255 18.6572 8.87898 -22.0245
  256 546.091 -40.1954 -12.9845
  257 48.6639 17.9532 9.28521
  258 48.5670 17.9970 -9.28118
  259 133.206 14.5217 -42.9214
  260 132.948 14.8729 43.3693
  261 611.235 87.0724 -2.78831
  262 362.680 -0.0388191 15.8230
  263 362.551 0.0678184 -15.8723
  264 -3.25863 -20.2043 -17.3388
  265 -3.16199 -20.2839 17.4064
  266 -0.676720 -47.8413 -23.7339
  267 1.68681 -55.5910 -21.6640
  268 0.910042 -55.7407 22.7809
  269 -8.87227 -7.66984 31.4169
  270 -8.91173 -7.65908 -31.5446
  271 19.7952 -42.9516 -9.24536
  272 21.3099 -39.4180 12.5916
  273 -20.8688 -1.73714 15.2186
  274 -20.8814 -1.74520 -15.2334
  275 258.785 6.83748 -13.4659
  276 258.857 6.79931 13.4744
  277 452.021 -46.0771 -4.95566
  278 101.178 8.27444 0.131428
  279 101.205 8.27296 -0.125535
  280 -1.15343 -44.9125 22.7006
  281 10.7188 9.16189 10.4128
  282 10.6397 9.17620 -10.4192
  283 716.842 49.6868 -20.2117
  284 351.466 0.0114482 4.88694
  285 351.372 0.0173778 -4.88890
  286 237.458 -10.7969 -85.0249
  287 239.496 -10.6096 86.2938
  288 451.451 -43.7076 -2.40770
  289 -42.4917 1.34424 18.8067
  290 -42.5492 1.34440 -18.8358
  291 441.443 -33.6611 138.362
  292 -18.6188 3.29246 28.4201
  293 -18.6929 3.28787 -28.4708
  294 75.8813 20.8092 -6.74995
  295 75.5862 21.0047 6.83357
  296 -76.9409 0.561663 0.840480
  297 -77.0494 0.561540 -0.840986
  298 372.320 10.3005 -187.948
  299 -72.5895 1.44662 -8.37462
  300 -72.4885 1.44367 8.36439
  301 -1.85224 -8.90989 31.8960
  302 -0.731590 -8.66221 -31.5481
  303 165.202 16.5526 -21.1695
  304 165.209 16.5479 21.3012
  305 37.0778 4.04694 3.35171
  306 37.0212 4.04856 -3.35222
  307 171.710 6.24706 -4.49798
  308 171.721 6.24134 4.50409
  309 16.4949 -11.3637 15.9668
  310 15.0373 -13.7668 -16.1895
  311 166.683 2.61214 -1.13985
  312 166.689 2.61069 1.14078
  313 -59.8535 1.56414 13.7479
  314 -59.9289 1.56652 -13.7694
  315 42.1562 -2.88118 -11.4359
  316 40.9151 -2.93983 10.3261
  317 366.233 -0.500076 1.36682
  318 366.128 -0.499162 -1.36617
  319 797.555 45.1981 32.2293
  320 84.3100 10.8659 1.80716
  321 84.2698 10.8726 -1.79782
  322 -16.3295 3.90301 6.54736
  323 -16.4123 3.90745 -6.55185
  324 115.547 15.2694 -3.50161
  325 115.515 15.2787 3.53551
  326 14.0898 12.1163 24.0545
  327 13.9974 12.1431 -24.1160
  328 1.75450 -80.4523 15.8385
  329 -79.8123 0.101632 -1.94283
  330 -79.7027 0.101828 1.94159
  331 280.453 0.443075 -2.61774
  332 280.514 0.441063 2.61841
  333 295.293 1.66621 -6.94085
  334 295.363 1.65539 6.94021
  335 -74.5487 1.23528 -6.03900
  336 -74.4429 1.23361 6.03359
  337 0.0360149 1.26515 0.688441
  338 -0.0364433 1.26500 -0.688745
  339 -1.67494 -33.3240 17.2864
  340 -1.32967 -34.6622 -17.2626
  341 333.185 -27.3466 -57.5919
  342 345.932 -32.7131 56.5573
  343 198.388 9.25424 -9.11941
  344 198.418 9.23695 9.13458
  345 88.1410 20.4476 -3.95261
  346 87.9918 20.5397 4.01880
  347 -29.5486 5.81366 13.6621
  348 -29.6392 5.82481 -13.6780
  349 616.518 14.6320 18.9818
  350 33.2953 -45.0358 -38.3498
  351 35.6048 -41.6663 40.0757
  352 -12.2824 9.49426 22.0042
  353 -12.3789 9.51569 -22.0370
  354 -16.8917 -3.33247 27.8695
  355 -16.9361 -3.34096 -27.9198
  356 699.097 118.615 -35.9250
  357 451.519 -5.72722 55.4417
  358 419.848 -10.0427 -10.6913
  359 419.508 -9.80851 10.0355
  360 295.438 -3.65146 -36.7403
  361 295.094 -3.93678 36.7596
  362 0.559719 -96.9255 -12.7382
  363 383.913 0.688799 -8.84716
  364 384.009 0.659040 8.82031
  365 5.06763 -90.8137 9.67659
  366 448.304 35.1732 -29.2798
  367 110.212 3.39886 1.19835
  368 110.191 3.39867 -1.19853
  369 296.952 1.84448 -27.2723
  370 297.145 1.69872 27.3092
  371 319.364 2.24587 -16.4674
  372 319.466 2.18123 16.4529
  373 -4.57974 3.38154 4.34526
  374 -4.65601 3.38384 -4.34740
  375 184.599 10.2225 -43.8617
  376 184.642 10.3385 44.2490
  377 377.362 -0.380067 2.23512
  378 377.253 -0.378500 -2.23477
  379 215.572 11.4300 -22.2464
  380 215.654 11.3640 22.3279
  381 248.256 3.44867 5.71770
  382 248.210 3.45527 -5.71582
  383 -11.8314 -2.12242 9.41245
  384 -11.8310 -2.12806 -9.41297
  385 -2.82044 -2.00228 -2.75465
  386 -2.82171 -2.00323 2.75887
  387 503.850 -61.4362 37.9468
  388 -6.50923 -15.7270 25.5464
  389 -6.46482 -15.8636 -25.5502
  390 83.5424 5.04465 -1.27987
  391 83.5769 5.04411 1.28184
  392 -2.49823 -12.5595 9.45547
  393 -2.52684 -12.5398 -9.45701
  394 32.7786 14.1810 11.2549
  395 32.6945 14.2084 -11.2580
  396 411.816 -1.97622 11.7251
  397 411.683 -1.82897 -11.9178
  398 -0.876874 -24.1082 30.5234
  399 -33.7949 -0.596633 14.3781
  400 -33.8207 -0.599730 -14.3970
  401 -1.00762 -25.4849 -30.1823
  402 386.228 -0.0851876 5.63856
  403 386.122 -0.0764082 -5.64602
  404 -3.00409 8.72979 27.7498
  405 -3.13340 8.75637 -27.8042
  406 286.564 3.84717 -11.0228
  407 286.635 3.82379 11.0215
  408 439.935 -18.8099 -8.74019
  409 441.209 -15.2296 6.49942
  410 -0.876771 -45.3641 -18.9192
  411 40.3582 15.1208 -7.28816
  412 40.6898 14.9590 7.24139
  413 441.161 28.7089 18.1991
  414 250.339 -12.1342 -117.297
  415 256.897 -16.7464 122.679
  416 15.8254 13.5899 17.6365
  417 15.7256 13.6231 -17.6551
  418 184.535 4.60696 -3.07866
  419 184.550 4.60363 3.08124
  420 179.345 33.6040 186.191
  421 75.0919 17.1641 -3.61890
  422 75.1656 17.1312 3.64029
  423 4.72846 -42.3858 20.1625
  424 -0.548023 -73.6456 -16.3524
  425 30.2329 16.7662 16.2094
  426 30.1167 16.8160 -16.2326
  427 37.4424 9.46037 -6.71403
  428 37.5070 9.44991 6.71442
  429 -12.1154 -0.445757 -31.2767
  430 -12.0423 -0.463110 31.2221
  431 89.5483 17.8101 -18.2941
  432 89.1652 18.0745 18.4768
  433 442.888 -13.9255 -42.0073
  434 12.9137 -3.79016 23.5991
  435 12.4966 -3.68337 -23.7533
  436 322.600 -13.8989 -40.5873
  437 323.920 -14.8641 40.5342
  438 -79.7123 0.619787 -8.23165
  439 -79.6171 0.617787 8.21985
  440 0.000452795 -72.4217 14.7401
  441 -0.512109 -46.0421 16.8527
  442 -32.3352 2.15789 24.0509
  443 -32.3961 2.15678 -24.0892
  444 231.243 1.52508 -1.15145
  445 231.280 1.52337 1.15177
  446 -6.88167 -10.8726 17.4186
  447 -6.89381 -10.8982 -17.4012
  448 145.187 8.23748 -63.6349
  449 144.892 8.88287 64.3356
  450 1.20766 -87.2772 -16.0382
  451 796.058 27.6668 0.492295
  452 2.26206 -102.448 -8.82167
  453 -93.6742 -0.0753755 -2.92305
  454 -93.5587 -0.0753683 2.92099
  455 -35.7309 5.14291 19.4586
  456 -35.8192 5.15387 -19.4887
  457 -42.4358 0.614321 14.4160
  458 -42.4746 0.614082 -14.4361
  459 158.546 15.9121 -14.5492
  460 158.550 15.9125 14.6294
  461 238.754 9.00415 -17.2029
  462 238.834 8.94798 17.2352
  463 -3.87161 -14.5545 31.5886
  464 -3.87739 -14.4586 -31.7224
  465 415.529 7.71196 -52.9640
  466 28.8448 -6.12083 -3.46191
  467 27.8398 -6.36451 3.97849
  468 6.70491 -91.3493 -2.11825
  469 4.32854 -106.460 -0.995786
  470 -12.5322 -5.58270 17.9219
  471 -12.5386 -5.60333 -17.9304
  472 88.8177 -3.30730 -97.8987
  473 629.878 4.54656 -65.7677
  474 144.435 8.83390 4.36107
  475 144.438 8.83795 -4.34943
  476 209.546 2.45137 -61.0278
  477 209.999 2.38998 61.9219
  478 62.2689 21.2917 5.55934
  479 62.1480 21.3629 -5.54584
  480 189.297 13.8709 -32.4028
  481 189.371 13.8061 32.6338
  482 7.37739 4.12272 28.1693
  483 7.79518 4.33307 -28.1360
  484 -83.2101 1.18943 -6.00176
  485 -83.1025 1.18797 5.99538
  486 414.133 -47.8156 -33.4105
  487 328.341 -0.175854 -1.86817
  488 328.425 -0.176924 1.86889
  489 19.1182 2.06146 -1.76342
  490 19.1821 2.06117 1.76287
  491 -20.2192 7.60416 18.0131
  492 -20.3116 7.62066 -18.0368
  493 -46.4837 2.80101 -6.43399
  494 -46.3890 2.79783 6.42866
  495 144.487 13.5870 -6.73658
  496 144.482 13.5832 6.76755
  497 -16.5259 6.65476 25.5869
  498 -16.6200 6.67038 -25.6333
  499 379.054 -10.9070 -21.7788
  500 379.698 -11.4324 21.4984
  501 249.668 2.49922 -40.6954
  502 249.287 2.33297 41.0385
  503 93.8747 3.93029 -0.688376
  504 93.9035 3.93045 0.689114
  505 1.07818 -44.4964 -25.7603
  506 444.828 -15.7946 34.4093
  507 6.31485 -28.8300 -22.9690
  508 127.588 20.1045 15.0375
  509 127.671 20.0449 -14.9058
  510 409.625 -44.7365 33.0325
  511 31.8980 -37.4230 52.2051
  512 486.873 -60.6900 -65.1916
  513 332.259 0.946997 19.8477
  514 332.110 1.07322 -19.8657
  515 1.03866 -38.0012 26.8078
  516 -6.51307 -1.93613 -5.04633
  517 -6.51585 -1.93509 5.04991
  518 42.1993 1.85530 -0.487181
  519 42.2520 1.85551 0.487105
  520 -1.11523 -25.7931 11.1263
  521 -1.01184 -25.6740 -11.1845
  522 273.856 2.31811 4.48481
  523 273.799 2.32156 -4.48386
  524 766.872 137.676 60.6577
  525 32.5889 -18.0008 -11.4016
  526 25.4021 -24.8436 6.08966
  527 -6.40546 5.70841 -8.74757
  528 -6.32415 5.70021 8.74118
  529 -66.3555 1.04534 8.62239
  530 -66.4188 1.04651 -8.63533
  531 0.674208 -81.9519 16.0519
  532 -91.8494 0.748553 0.774803
  533 -91.9648 0.748612 -0.775328
  534 85.7932 -3.29662 -72.3312
  535 83.9242 -1.91805 75.0587
  536 78.6597 14.4227 -25.6510
  537 78.0686 14.7682 25.8097
  538 -17.7514 -3.66564 24.4324
  539 -17.7801 -3.68177 -24.4695
  540 77.6831 6.53391 1.28481
  541 77.6447 6.53586 -1.28168
  542 -37.6881 1.68362 2.66771
  543 -37.7784 1.68439 -2.66947
  544 91.2961 12.8593 1.07172
  545 91.2542 12.8704 -1.05519
  546 -1.79835 -5.87673 4.31767
  547 -1.80462 -5.87165 -4.31688
  548 33.5277 14.4921 14.2653
  549 33.3053 14.6905 -14.3441
  550 27.0807 4.95819 12.3792
  551 26.7002 4.92365 -12.6063
  552 335.774 1.96491 8.34643
  553 335.687 1.97672 -8.35027
  554 297.677 3.49687 13.4017
  555 297.594 3.53494 -13.4060
  556 -0.304668 -69.7290 -10.2467
  557 209.369 10.0106 -13.3028
  558 209.415 9.98144 13.3298
  559 209.753 4.36203 -5.08546
  560 209.783 4.35451 5.08961
  561 -26.6092 0.844492 0.0502866
  562 -26.5244 0.844746 -0.0503042
  563 362.259 19.2663 -10.1980
  564 467.055 -58.0852 -24.8986
  565 387.871 18.1478 39.9221
  566 3.25228 -58.6292 -18.5452
  567 -19.2645 6.42804 -11.7095
  568 -19.1769 6.41769 11.6986
  569 3.46790 -33.8569 25.1392
  570 -20.3399 0.694959 27.8578
  571 -20.3986 0.691449 -27.9014
  572 596.954 57.2469 1.67645
  573 137.292 5.87263 -2.10653
  574 137.284 5.87039 2.11106
  575 895.855 76.5824 -79.6741
  576 -4.05721 -3.13402 32.3525
  577 -3.74402 -2.89440 -32.3763
  578 493.508 -42.7939 17.3870
  579 396.590 0.106816 -9.82344
  580 396.682 0.0570376 9.77258
  581 184.302 0.797020 -88.3533
  582 186.447 0.228199 89.6912
  583 -10.0282 -9.60811 28.2501
  584 -10.0390 -9.65935 -28.3264
  585 97.3081 9.43740 47.6013
  586 98.1214 8.72486 -47.2264
  587 -77.4560 0.882884 -8.05969
  588 -77.3688 0.881424 8.04771
  589 581.548 51.6818 29.8809
  590 112.496 9.84858 1.08512
  591 112.519 9.84714 -1.07526
  592 132.585 16.5359 -32.8294
  593 132.399 16.7348 33.1654
  594 359.577 -1.12592 -19.3837
  595 359.768 -1.30065 19.3398
  596 -1.54918 -36.1258 -25.3828
  597 389.820 -0.638897 2.95375
  598 389.705 -0.636699 -2.95389
  599 -55.0768 1.00105 -1.00040
  600 -54.9787 1.00097 0.999713
  601 -98.5694 -0.752930 0.00554983
  602 -98.6882 -0.753546 -0.00561534
  603 8.61000 -53.2151 -7.95049
  604 -3.61513 -23.5341 21.8428
  605 -3.81307 -22.2542 -21.9886
  606 -43.9075 2.75370 19.9935
  607 -43.9780 2.75755 -20.0251
  608 274.246 6.22394 16.9724
  609 274.156 6.28268 -16.9643
  610 202.363 2.10216 1.18880
  611 202.340 2.10334 -1.18826
  612 46.4827 -10.6446 30.7446
  613 47.9304 -9.66356 -30.4741
  614 -1.39612 -17.9978 9.40804
  615 -1.43985 -17.9414 -9.44030
  616 467.012 37.0509 200.753
  617 -23.1938 -0.703089 8.70511
  618 -23.1962 -0.706450 -8.71265
  619 8.62068 -32.1161 -18.2184
  620 198.160 7.32411 -6.98384
  621 198.186 7.31311 6.99256
  622 98.0142 20.5577 -11.4990
  623 97.8207 20.6852 11.6261
  624 0.945305 -122.817 6.06583
  625 73.8466 19.8859 2.90215
  626 73.7556 19.9358 -2.87639
  627 -6.50209 8.09652 14.0919
  628 -6.58952 8.11169 -14.1056
  629 -0.557019 -61.3982 13.9846
  630 -98.7358 0.0591189 -2.92652
  631 -98.6185 0.0589373 2.92418
  632 131.069 2.99109 0.690747
  633 131.080 2.99252 -0.689332
  634 327.231 0.566283 5.56222
  635 327.148 0.572041 -5.56262
  636 290.007 -17.7763 153.437
  637 233.358 5.30272 -10.4199
  638 233.407 5.28088 10.4293
  639 4.19210 -4.35576 29.6969
  640 5.06964 -2.30712 -29.6161
  641 372.041 -35.3548 -124.483
  642 868.755 29.6296 -33.1114
  643 -91.3064 0.0517383 -5.54333
  644 -91.2028 0.0508373 5.53626
  645 23.7547 4.64787 -3.96721
  646 23.8184 4.64485 3.96628
  647 -1.69659 -38.4023 22.4630
  648 504.225 31.0533 -48.1339
  649 385.397 -0.824584 0.521279
  650 385.283 -0.823895 -0.520904
  651 -24.7349 -1.31037 -20.1675
  652 -24.7069 -1.30378 20.1409
  653 -0.0783604 -87.1019 -13.3592
  654 391.980 -0.823255 1.13792
  655 391.862 -0.822458 -1.13727
  656 37.5930 12.2375 9.44742
  657 37.5193 12.2564 -9.44738
  658 301.288 -25.3976 -81.9934
  659 306.625 -25.2807 82.8761
  660 437.354 -2.93780 6.83253
  661 437.406 -2.91021 -7.10448
  662 1.93239 -109.389 10.2624
  663 -22.2063 0.596490 -1.53750
  664 -22.1234 0.596755 1.53671
  665 144.460 19.8094 -146.400
  666 136.286 2.61083 1.13423
  667 136.295 2.61153 -1.13349
  668 68.0097 4.58326 0.468149
  669 67.9682 4.58403 -0.466911
  670 80.5082 8.32699 -0.745500
  671 80.5470 8.32343 0.751565
  672 257.360 6.82888 -26.2610
  673 257.509 6.71813 26.3291
  674 69.2526 20.0018 -0.339941
  675 69.0435 20.1413 0.369730
  676 -45.2242 3.37186 -11.1741
  677 -45.1303 3.36511 11.1617
  678 -52.9709 3.65946 -12.7995
  679 -52.8774 3.65267 12.7828
  680 449.951 -6.90425 -0.937336
  681 0.717788 -17.7317 -30.5326
  682 450.543 -7.24106 0.333215
  683 574.262 44.6569 -1.82946
  684 -56.3200 0.269951 9.82552
  685 -56.3690 0.269740 -9.84027
  686 60.2520 17.5472 -4.64115
  687 59.8231 17.7575 4.68291
  688 -105.984 0.0443155 -1.01260
  689 -105.863 0.0444054 1.01180
  690 1.08912 -15.9046 30.5593
  691 -35.0787 0.525815 21.1478
  692 -35.1293 0.523853 -21.1794
  693 494.318 -40.0185 -19.2526
  694 79.7413 1.62240 -0.618858
  695 79.7061 1.62181 0.619371
  696 19.4850 7.03272 6.76951
  697 19.4156 7.04000 -6.77145
  698 262.925 -11.5834 -68.7318
  699 264.858 -12.0396 70.0323
  700 905.068 64.4837 72.3408
  701 18.0102 -79.3950 -31.5493
  702 -6.41468 -13.5973 30.1664
  703 -6.42384 -13.6541 -30.2377
  704 56.6291 12.0206 -4.83564
  705 56.6875 12.0076 4.84149
  706 402.941 -0.706327 -3.00261
  707 403.061 -0.708901 3.00089
  708 193.535 2.80635 2.16725
  709 193.515 2.80916 -2.16580
  710 16.9421 14.3024 21.3670
  711 16.8314 14.3454 -21.4035
  712 11.5493 3.39081 2.78491
  713 11.4815 3.39217 -2.78593
  714 -10.9111 2.92402 30.5882
  715 -10.9968 2.92153 -30.6531
  716 331.882 -0.588220 2.35621
  717 331.795 -0.586177 -2.35571
  718 287.832 2.08462 6.36660
  719 287.767 2.09120 -6.36590
  720 39.5060 -22.6468 36.7218
  721 40.6240 -24.4455 -35.5437
  722 -21.7567 4.93366 26.6676
  723 -21.8394 4.93912 -26.7162
  724 12.3309 -26.2566 14.0469
  725 1.65574 8.81752 27.9234
  726 1.52037 8.84004 -27.9614
  727 -62.5077 1.75512 -7.39005
  728 -62.4074 1.75227 7.38240
  729 51.6395 16.0525 8.56106
  730 51.5551 16.0848 -8.55374
  731 445.713 -13.3755 -23.2228
  732 422.027 -36.4890 -11.8369
  733 -6.75262 -13.8288 21.4948
  734 -6.74479 -13.8956 -21.4692
  735 165.338 1.01051 -104.224
  736 161.090 4.48057 105.163
  737 101.156 19.2822 -17.1728
  738 100.898 19.4709 17.3590
  739 9.04076 -15.3153 24.0728
  740 -0.597336 -45.5520 -12.1983
  741 209.713 11.1498 -24.8098
  742 209.810 11.0865 24.9312
  743 0.529380 -89.3569 11.2484
  744 125.718 16.9027 -7.24307
  745 125.686 16.9152 7.29596
  746 423.543 -0.554587 -7.43184
  747 423.596 -0.605235 7.33827
  748 8.53246 -118.234 3.60831
  749 193.139 13.9426 18.8587
  750 193.090 13.9786 -18.7828
  751 53.0167 18.6415 -4.28433
  752 53.2898 18.4562 4.26041
  753 -76.4403 0.503334 -6.82276
  754 -76.3648 0.502716 6.81193
  755 213.724 3.19678 -4.41417
  756 213.754 3.19204 4.41671
  757 132.812 18.7447 -12.7047
  758 132.764 18.7741 12.8019
  759 1.91391 11.5131 21.4302
  760 1.81137 11.5433 -21.4593
  761 423.293 -31.2471 6.65459
  762 -64.4447 1.35351 5.60512
  763 -64.5468 1.35487 -5.60938
  764 903.904 180.386 -128.135
  765 -23.3773 2.40580 5.78967
  766 -23.4621 2.40802 -5.79328
  767 359.550 0.679231 13.7434
  768 359.446 0.740232 -13.7785
  769 667.939 41.2654 0.0232145
  770 406.098 -1.30157 -5.64318
  771 406.207 -1.31097 5.63217
  772 261.070 3.32821 8.04567
  773 261.015 3.33938 -8.04363
  774 390.039 -42.4591 113.512
  775 170.609 11.9875 -7.38726
  776 170.624 11.9763 7.40969
  777 3.98363 -66.4489 13.2549
  778 447.087 -55.0987 38.4456
  779 271.707 0.290762 1.36763
  780 271.651 0.292209 -1.36721
  781 354.892 -0.132604 0.726610
  782 354.793 -0.132036 -0.726242
  783 -1.57063 -35.8476 -21.0363
  784 2.23346 -60.5702 20.0963
  785 161.947 17.7523 26.1941
  786 161.955 17.7391 -25.9951
  787 894.214 8.45943 7.96784
  788 277.030 2.08895 -32.6487
  789 277.223 1.95625 32.7340
  790 -56.5582 1.87394 14.8996
  791 -56.6432 1.87855 -14.9213
  792 12.0358 -47.8631 3.21690
  793 7.75242 -109.932 -9.00914
  794 628.869 81.8864 -12.6848
  795 -0.544480 -45.4342 11.0131
  796 13.5443 9.48568 24.8614
  797 13.4983 9.48035 -24.9856
  798 85.7064 16.3948 1.59230
  799 85.6510 16.4180 -1.56993
  800 419.742 -19.3024 -7.40788
  801 420.627 -19.0551 6.04420
  802 491.372 79.0437 -190.326
  803 -66.2232 0.646684 -2.47806
  804 -66.1201 0.646350 2.47619
  805 -31.8114 -0.122080 8.18931
  806 -31.8214 -0.123529 -8.19874
  807 31.2644 3.20086 6.57900
  808 30.6085 3.16814 -6.65117
  809 319.074 -2.05512 29.3498
  810 318.837 -1.79600 -29.2790
  811 163.487 3.83817 -1.33252
  812 163.492 3.83599 1.33429
  813 513.752 -6.20750 43.9590
  814 55.7696 8.39494 -4.34262
  815 55.8228 8.38853 4.34581
  816 51.4886 7.71001 -9.79756
  817 51.0274 7.94570 9.91140
  818 -0.0607002 -35.1155 -28.0439
  819 721.490 116.672 106.836
  820 -103.955 0.0896676 -2.93514
  821 -103.837 0.0895000 2.93230
  822 -0.153728 -108.597 10.5133
  823 8.03862 -15.1536 -24.3822
  824 -15.8444 -0.961032 6.11318
  825 -15.8385 -0.963575 -6.11548
  826 579.463 35.9703 -28.8385
  827 152.528 14.6249 -9.31325
  828 152.528 14.6209 9.36138
  829 397.924 -6.06591 -14.8224
  830 398.297 -6.12300 14.6173
  831 -99.5464 0.732445 3.94262
  832 -99.6584 0.733377 -3.94729
  833 -0.722753 -0.747663 -0.619054
  834 -0.724218 -0.749003 0.621520
  835 0.314763 -111.036 -10.2436
  836 0.507403 -116.348 -9.11487
  837 -109.063 1.01866 0.563712
  838 -109.187 1.01892 -0.564034
  839 61.7773 -14.9041 -69.4842
  840 247.445 2.51813 -2.40900
  841 247.490 2.51605 2.40967
  842 -6.13977 1.77593 0.728191
  843 -6.21506 1.77598 -0.728525
  844 366.014 0.694144 -9.09032
  845 366.110 0.673665 9.07568
  846 -41.7868 0.283050 7.77810
  847 -41.8081 0.283065 -7.78806
  848 223.315 5.75999 -155.517
  849 383.600 -32.4973 32.4543
  850 300.478 0.933546 -2.91859
  851 300.548 0.931398 2.91908
  852 380.194 -35.3123 -36.1295
  853 120.100 12.8546 -3.14481
  854 120.077 12.8573 3.16854
  855 165.154 10.2845 -5.68795
  856 165.163 10.2767 5.70250
  857 445.522 -9.45234 17.7531
  858 28.3880 16.2684 17.3413
  859 28.2629 16.3290 -17.3886
  860 29.8907 1.65545 1.26771
  861 29.8320 1.65529 -1.26808
  862 210.854 2.19707 2.06084
  863 210.827 2.19912 -2.05988
  864 547.889 -47.6755 64.6238
  865 343.875 1.59136 -11.9596
  866 343.972 1.55318 11.9399
  867 6.68313 4.98366 5.33970
  868 6.61066 4.98781 -5.34195
  869 344.355 -0.683614 3.40090
  870 344.263 -0.681006 -3.40047
  871 -62.3129 0.265267 -1.66786
  872 -62.2114 0.265635 1.66706
  873 -0.295509 -34.8081 9.83241
  874 -0.390537 -35.3524 -9.90644
  875 415.933 -5.44380 42.9892
  876 -24.3175 6.41258 22.3853
  877 -24.4075 6.42721 -22.4214
  878 -0.136749 -57.2633 -10.8377
  879 165.090 5.59331 -2.96587
  880 165.096 5.59031 2.96954
  881 302.691 -15.1132 -52.5365
  882 304.988 -16.7090 53.0444
  883 -12.6993 -4.37130 -30.2733
  884 -12.6405 -4.37051 30.2073
  885 17.5685 14.3325 19.5678
  886 17.4610 14.3719 -19.5926
  887 1.43188 -129.906 7.14889
  888 5.04106 11.3358 25.4230
  889 4.92428 11.3653 -25.4618
  890 279.684 -5.04071 -46.7423
  891 279.065 -5.24933 47.1123
  892 483.041 27.6901 50.2552
  893 112.005 11.9372 1.63573
  894 112.031 11.9344 -1.62021
  895 352.648 1.81349 -8.93287
  896 352.740 1.79784 8.92477
  897 -13.6857 -5.91138 26.6677
  898 -13.7132 -5.93526 -26.7180
  899 1.24665 -133.327 -4.47086
  900 -21.0582 -1.33661 26.1144
  901 -21.1020 -1.34114 -26.1550
  902 14.7464 12.8307 -15.2716
  903 14.8379 12.8030 15.2580
  904 -1.08374 -8.78052 4.85420
  905 -1.09609 -8.77185 -4.86153
  906 31.4555 14.4647 -13.4934
  907 31.5502 14.4304 13.4863
  908 6.86219 -9.94683 27.3358
  909 6.00065 -9.25116 -28.7996
  910 343.376 -9.98256 29.9889
  911 342.569 -9.52565 -30.1400
  912 -111.389 0.281551 -0.828318
  913 -111.264 0.281568 0.827789
  914 -9.75420 -0.873750 4.60522
  915 -9.74570 -0.875316 -4.60405
  916 0.460207 -81.3508 -9.86153
  917 -10.4284 -4.46115 -13.0861
  918 -10.4240 -4.44977 13.0864
  919 -43.4445 3.72435 19.1455
  920 -43.5262 3.73183 -19.1758
  921 108.293 20.4451 -7.53735
  922 108.205 20.5073 7.61464
  923 459.147 35.8111 -7.34414
  924 -4.15931 10.2053 19.4691
  925 -4.25528 10.2289 -19.4937
  926 170.376 10.9556 -49.3090
  927 170.374 11.1110 49.8371
  928 -19.0252 7.06292 15.6663
  929 -19.1158 7.07818 -15.6853
  930 550.636 -24.8728 -6.62726
  931 338.148 13.4600 21.8236
  932 403.313 -4.77808 -38.8759
  933 300.492 3.57440 -19.8782
  934 300.614 3.48455 19.8802
  935 -30.4294 4.14330 -7.57022
  936 -30.3408 4.13791 7.56373
  937 -70.8085 1.25987 9.49614
  938 -70.9048 1.26289 -9.50920
  939 -4.29249 -13.9122 -15.1799
  940 -4.26174 -13.9231 15.2066
  941 107.656 6.49740 0.942098
  942 107.679 6.49733 -0.937806
  943 -33.0174 3.51886 23.8279
  944 -33.0885 3.52129 -23.8681
  945 359.026 -0.450297 4.44023
  946 358.928 -0.447185 -4.44014
  947 -2.67586 -30.4779 22.8955
  948 14.6335 11.7242 -13.0674
  949 14.7184 11.7028 13.0580
  950 19.8819 8.02952 8.45949
  951 19.8092 8.04002 -8.46278
  952 63.4259 5.45611 -1.86730
  953 63.4703 5.45426 1.86848
  954 673.927 88.4774 -21.8143
  955 -2.69357 -0.735816 -1.83154
  956 -2.69935 -0.735742 1.83485
  957 23.9012 7.08778 -16.2550
  958 24.3028 6.90130 16.1781
  959 243.135 9.26967 -21.0726
  960 243.235 9.19519 21.1210
  961 32.3903 10.1571 -7.98527
  962 32.4604 10.1438 7.98446
  963 66.8255 -10.5704 91.7728
  964 454.558 -3.34272 -3.91499
  965 453.947 -3.21868 3.50462
  966 81.7974 -5.18343 80.4011
  967 86.1619 3.30973 -0.400095
  968 86.1297 3.30969 0.400833
  969 221.919 -5.71931 -134.550
  970 167.485 2.40377 1.11417
  971 167.479 2.40465 -1.11354
  972 21.6061 -20.6523 3.50952
  973 23.8748 -17.1477 -1.71168
  974 402.192 -0.517276 1.52572
  975 402.069 -0.516544 -1.52496
  976 -33.0196 0.132316 19.2558
  977 -33.0573 0.130193 -19.2820
  978 721.866 90.7622 42.7578
  979 -2.98407 -22.6513 -30.0679
  980 3.76844 -110.976 14.0563
  981 -0.461900 -36.0524 27.6960
  982 416.048 -0.446743 -5.75806
  983 416.145 -0.460532 5.73682
  984 -5.49593 -10.0716 13.1239
  985 -5.51135 -10.0726 -13.1115
  986 522.125 54.9527 -26.7491
  987 906.767 7.59133 -5.33568
  988 -1.35865 -2.06171 -1.99338
  989 -1.35714 -2.06608 1.99627
  990 243.076 2.33615 -4.59330
  991 243.119 2.33203 4.59487
  992 -3.05223 -21.7529 30.2109
  993 337.497 1.14607 17.6773
  994 337.379 1.23716 -17.7024
  995 443.555 -29.1395 -16.7515
  996 -15.4475 -3.20808 14.7825
  997 -15.4540 -3.22032 -14.7908
  998 7.52568 -28.1449 21.0138
  999 -0.684271 -54.5430 21.7448
  1000 -0.0654815 -56.8229 10.8249
  1001 457.511 29.4936 -2.70386
  1002 521.516 57.2584 14.6128
  1003 372.589 -42.1590 -63.1332
  1004 5.46551 -52.6836 16.8900
  1005 6.89514 -75.5218 3.11123
  1006 104.616 2.16191 0.250150
  1007 104.593 2.16137 -0.250101
  1008 -4.12497 -4.70391 -6.27915
  1009 -4.12125 -4.70471 6.28397
  1010 3.67651 -43.2965 -22.8458
  1011 300.003 -0.0140160 -1.07187
  1012 300.073 -0.0152378 1.07214
  1013 61.0309 0.936867 -30.6713
  1014 58.4157 1.07620 30.3781
  1015 -4.77937 9.34240 25.7541
  1016 -4.89051 9.36846 -25.8007
  1017 -34.4513 5.37045 -15.9791
  1018 -34.3600 5.35931 15.9582
  1019 230.097 3.70180 -48.0048
  1020 230.217 3.90593 48.5172
  1021 166.034 14.5513 -33.8604
  1022 166.009 14.5538 34.1688
  1023 179.910 12.5297 -11.5623
  1024 179.934 12.5093 11.5969
  1025 465.276 -12.1385 -49.8498
  1026 -11.6872 5.81209 28.4067
  1027 -11.7864 5.82086 -28.4693
  1028 329.231 -0.722175 24.2242
  1029 329.044 -0.527126 -24.2247
  1030 -1.98098 -16.8815 31.4612
  1031 -26.5139 -0.866094 14.2461
  1032 -26.5295 -0.870554 -14.2622
  1033 300.174 2.34589 -24.1132
  1034 300.329 2.21840 24.1273
  1035 374.138 9.25247 -35.8782
  1036 -0.398409 -54.2055 -22.8104
  1037 -4.34754 -21.3261 27.1282
  1038 -4.53192 -21.5869 -26.9034
  1039 212.299 11.9420 -17.5042
  1040 212.364 11.8947 17.5580
  1041 267.153 4.43670 9.94788
  1042 267.092 4.45395 -9.94585
  1043 442.645 -28.4645 14.4894
  1044 23.3937 1.92260 -0.344417
  1045 23.4552 1.92265 0.344291
  1046 376.683 -47.1445 67.3436
  1047 -0.629406 1.28036 1.76418
  1048 -0.702337 1.28032 -1.76496
  1049 82.4037 20.6225 -0.532805
  1050 82.2902 20.6921 0.575755
  1051 31.8383 16.2755 14.8217
  1052 31.7335 16.3179 -14.8343
  1053 4.21054 -65.6884 -13.8129
  1054 110.080 3.71505 0.403356
  1055 110.101 3.71607 -0.401043
  1056 330.026 10.6945 9.00991
  1057 302.925 1.86892 9.21415
  1058 302.851 1.88507 -9.21610
  1059 -1.66407 -17.5508 -31.5170
  1060 455.286 -5.86467 -8.89490
  1061 0.338583 -1.22653 31.1220
  1062 0.683151 -0.974118 -30.9722
  1063 413.527 -0.848664 -3.18585
  1064 413.648 -0.851859 3.18207
  1065 440.724 -1.63342 -5.60492
  1066 440.667 -1.68869 5.46266
  1067 -0.333728 -86.0544 8.13019
  1068 259.817 6.12511 -13.1497
  1069 259.880 6.09604 13.1551
  1070 315.564 2.45177 10.7082
  1071 315.483 2.47292 -10.7133
  1072 7.68337 7.70369 27.8179
  1073 7.63995 7.70559 -27.8518
  1074 684.646 44.9932 7.56413
  1075 -8.49209 -3.59529 32.1713
  1076 -8.62804 -3.51525 -32.2546
  1077 99.1604 18.9979 -1.84911
  1078 99.1040 19.0282 1.88751
  1079 -53.5249 0.903944 -2.74854
  1080 -53.4275 0.903726 2.74684
  1081 162.386 9.66555 -56.7312
  1082 162.157 10.1149 57.3932
  1083 47.3153 18.3830 11.1465
  1084 47.2012 18.4364 -11.1492
  1085 110.576 13.2257 -42.1822
  1086 110.010 13.7658 42.5298
  1087 -2.86141 -28.6293 -22.3155
  1088 388.784 5.57557 47.3665
  1089 271.271 3.46064 174.228
  1090 44.5045 18.9646 11.4929
  1091 44.3710 19.0351 -11.5072
  1092 164.552 8.25057 -4.35680
  1093 164.560 8.24383 4.36630
  1094 591.709 4.65750 11.3200
  1095 38.8433 10.1858 6.66556
  1096 38.3568 10.3042 -6.81533
  1097 -17.5175 -3.81325 19.6476
  1098 -17.5328 -3.83124 -19.6684
  1099 -0.574412 -13.1039 5.29559
  1100 -0.597287 -13.0961 -5.31696
  1101 389.191 -0.690613 14.1967
  1102 389.048 -0.548951 -14.2937
  1103 0.707857 -27.2241 29.4633
  1104 -26.3759 1.75978 -26.0548
  1105 -26.3166 1.76291 26.0136
  1106 0.129880 -103.883 -10.2780
  1107 -5.90153 -8.35095 32.1234
  1108 -5.88444 -8.17008 -32.1575
  1109 371.947 0.154915 -5.97795
  1110 372.049 0.147883 5.97451
  1111 384.094 -3.25560 17.1228
  1112 383.829 -3.02606 -17.2194
  1113 67.9490 15.4175 -14.8400
  1114 67.4344 15.7078 14.9642
  1115 -0.897353 -53.5174 -18.5935
  1116 505.086 -44.1908 -102.528
  1117 654.536 87.2019 7.77922
  1118 6.91303 -79.5002 -0.524950
  1119 24.2516 13.6709 -19.9347
  1120 24.3939 13.5966 19.8279
  1121 63.7395 20.3786 4.50242
  1122 63.5870 20.4708 -4.48875
  1123 133.921 7.48983 1.89795
  1124 133.930 7.49250 -1.89086
  1125 -8.41268 -11.9828 25.4150
  1126 -8.40123 -12.0987 -25.4562
  1127 -23.4414 7.50553 20.5595
  1128 -23.5333 7.52205 -20.5890
  1129 -7.84805 9.56780 23.8033
  1130 -7.95043 9.59165 -23.8419
  1131 367.245 -18.8073 -29.5331
  1132 369.571 -18.9455 29.3085
  1133 0.374919 -61.2430 -21.6291
  1134 197.102 -0.00600523 -70.8153
  1135 197.393 0.605805 71.9640
  1136 63.6627 18.4978 -5.44239
  1137 63.7470 18.4563 5.45748
  1138 195.996 99.1049 194.561
  1139 50.0790 14.7724 8.21107
  1140 50.0036 14.7970 -8.20568
  1141 499.894 -53.5411 -26.0990
  1142 190.020 4.78388 3.48175
  1143 190.001 4.78893 -3.47821
  1144 -8.48958 -7.55973 15.5870
  1145 -8.49581 -7.57814 -15.5826
  1146 -10.1151 -9.05999 20.1407
  1147 -10.1157 -9.09637 -20.1440
  1148 329.228 -32.6956 -98.9483
  1149 335.727 -36.0497 99.6688
  1150 60.2602 1.97617 0.842926
  1151 60.3046 1.97649 -0.842170
  1152 207.460 9.50296 -39.1445
  1153 207.460 9.38560 39.5255
  1154 449.501 -58.9297 76.1689
  1155 399.100 -0.997376 0.882487
  1156 398.979 -0.996624 -0.881883
  1157 -35.0209 5.61427 18.3764
  1158 -35.1112 5.62572 -18.4023
  1159 -60.4790 1.84066 -9.56346
  1160 -60.3803 1.83703 9.55366
  1161 103.725 4.55533 118.043
  1162 319.020 21.1319 -18.3138
  1163 189.761 13.1681 -19.5593
  1164 189.814 13.1333 19.6599
  1165 582.130 -13.8097 110.704
  1166 192.893 12.7436 -28.7238
  1167 192.957 12.6835 28.8984
  1168 49.1829 5.89139 -2.93703
  1169 49.2351 5.88860 2.93783
  1170 16.9863 -59.3839 12.3261
  1171 17.1689 -57.7433 -16.8765
  1172 260.992 -17.5290 -99.9112
  1173 264.518 -16.3428 99.8159
  1174 102.850 17.2062 -29.7686
  1175 102.417 17.5499 30.0511
  1176 457.715 -30.0884 -32.0383
  1177 -16.4109 -1.27065 29.4137
  1178 -16.4703 -1.27070 -29.4642
  1179 -0.169712 -24.2915 -30.2784
  1180 117.787 4.50348 -74.7799
  1181 118.045 4.83774 76.0225
  1182 -0.292811 -23.2131 5.89785
  1183 -0.250278 -23.2698 -5.97098
  1184 -108.882 0.899984 -2.77519
  1185 -108.764 0.899369 2.77219
  1186 363.100 -0.437950 -1.68814
  1187 363.202 -0.439247 1.68857
  1188 225.555 7.84427 -11.4147
  1189 225.606 7.81687 11.4306
  1190 -7.87784 0.147032 32.1071
  1191 -7.90235 0.278448 -32.1698
  1192 0.0158346 -92.8893 -9.03400
  1193 -92.7102 0.209479 4.53605
  1194 -92.8087 0.210034 -4.54273
  1195 73.1606 -0.00603838 -52.8755
  1196 72.6224 0.448494 54.5068
  1197 424.872 -25.9436 -2.31293
  1198 122.551 8.63961 -67.2494
  1199 122.628 8.95053 67.8822
  1200 -51.7097 0.282205 7.06271
  1201 -51.7428 0.281890 -7.07262
  1202 1.39484 -80.4588 -14.9801
  1203 -13.9036 3.06145 -3.52883
  1204 -13.8239 3.05989 3.52698
  1205 65.2904 15.5107 5.75664
  1206 65.2197 15.5365 -5.74374
  1207 239.595 0.859205 -1.48308
  1208 239.636 0.857756 1.48365
  1209 322.270 1.14615 7.00527
  1210 322.190 1.15609 -7.00709
  1211 18.1789 -1.66983 16.8308
  1212 17.9086 -1.97719 -17.1606
  1213 3.13173 -46.0548 22.8695
  1214 578.368 80.4149 18.1762
  1215 -17.7979 -1.38013 11.2146
  1216 -17.8010 -1.38613 -11.2213
  1217 2.48776 -43.1351 -23.9983
  1218 -1.68497 -26.9869 16.3954
  1219 -1.60243 -26.7311 -16.9853
  1220 457.108 -5.02420 7.87891
  1221 0.399418 -106.193 9.23119
  1222 3.52394 -31.5539 -26.7799
  1223 55.9730 1.46347 0.527766
  1224 55.9267 1.46303 -0.527936
  1225 -4.40144 -19.0657 29.7775
  1226 -49.2405 2.77838 -8.03565
  1227 -49.1447 2.77482 8.02851
  1228 923.810 15.7714 26.5024
  1229 -26.0096 3.14368 26.2757
  1230 -26.0797 3.14333 -26.3207
  1231 221.495 8.66929 -35.3775
  1232 221.672 8.51748 35.5806
  1233 14.7087 -20.6926 -10.6508
  1234 210.669 10.3522 -14.4524
  1235 210.722 10.3152 14.4891
  1236 8.86394 -62.9945 -2.64597
  1237 -4.41823 -19.1097 -29.7354
  1238 -33.8742 1.28681 4.70800
  1239 -33.9631 1.28779 -4.71090
  1240 -15.6442 1.35219 -30.0190
  1241 -15.5719 1.35707 29.9711
  1242 450.799 36.3367 35.4940
  1243 255.884 2.69081 -37.3358
  1244 256.171 2.62336 37.4284
  1245 -113.695 0.243330 -0.984875
  1246 -113.570 0.243254 0.984024
  1247 230.444 5.12929 -7.72269
  1248 230.485 5.11908 7.72709
  1249 -116.440 -2.03759 -0.318007
  1250 -116.568 -2.03868 0.318124
  1251 343.375 -24.3437 -42.7799
  1252 -53.7516 0.929050 14.8715
  1253 -53.8151 0.929586 -14.8949
  1254 346.772 -25.6952 42.3951
  1255 234.524 8.11677 -15.6085
  1256 234.587 8.07412 15.6304
  1257 27.7997 -58.2671 -52.3780
  1258 0.508916 -74.0892 -18.5076
  1259 -1.47651 -31.0939 27.9052
  1260 730.125 127.776 -107.826
  1261 -0.166882 -69.6397 18.1559
  1262 762.006 71.9990 -48.0061
  1263 -0.440009 -129.129 -8.57435
  1264 38.2714 3.46102 -0.926254
  1265 38.3266 3.46014 0.926522
  1266 -0.318790 -29.7976 6.17939
  1267 -0.255904 -29.9574 -6.16362
  1268 131.562 2.89085 0.221943
  1269 131.573 2.89172 -0.221295
  1270 462.603 -34.5419 30.3574
  1271 10.7199 3.29727 -4.08770
  1272 10.7888 3.29545 4.08614
  1273 2.66676 -140.351 3.73460
  1274 1.69448 -149.611 -3.70913
  1275 425.431 -52.1698 -46.2362
  1276 -1.15468 -38.5479 18.0899
  1277 447.599 29.3265 -45.1584
  1278 -1.32594 -50.7949 17.7636
  1279 0.899337 -138.523 -6.44217
  1280 215.197 5.68133 -8.51975
  1281 215.234 5.66330 8.52960
  1282 -0.166501 -75.8644 8.02541
  1283 -0.185953 -62.8001 -18.0601
  1284 998.386 178.119 153.299
  1285 400.904 0.133835 0.670599
  1286 400.782 0.133896 -0.670176
  1287 11.1640 1.31066 25.1303
  1288 10.8183 1.74251 -25.2520
  1289 -5.65990 6.03233 29.9872
  1290 -5.81241 6.03961 -30.0626
  1291 429.992 -7.83403 -27.6405
  1292 397.673 -16.7913 -17.1314
  1293 397.304 -19.0743 17.3338
  1294 60.7717 6.69333 2.90414
  1295 60.7236 6.69666 -2.90163
  1296 -64.5901 1.71940 -11.5153
  1297 -64.4985 1.71568 11.4984
  1298 443.367 -59.7541 -65.1608
  1299 -3.30413 -8.01237 8.19157
  1300 -3.31708 -8.00698 -8.18813
  1301 468.142 -19.3600 47.0566
  1302 -4.85703 -18.3855 22.0077
  1303 -4.80314 -18.4548 -21.9076
  1304 -40.2680 2.65279 5.64156
  1305 -40.3601 2.65532 -5.64581
  1306 71.7477 8.83557 -27.9050
  1307 71.0261 9.23919 27.8832
  1308 112.170 2.75217 0.267668
  1309 112.150 2.75135 -0.267088
  1310 -44.4987 4.50018 18.2090
  1311 -44.5850 4.50866 -18.2354
  1312 376.509 0.740955 1.04213
  1313 376.399 0.740820 -1.04153
  1314 209.297 -0.220678 133.206
  1315 308.323 0.309440 2.48104
  1316 308.249 0.310901 -2.48032
  1317 206.332 4.42720 -54.1119
  1318 206.356 4.19353 54.5740
  1319 2.01423 -80.6455 -10.4369
  1320 80.6059 19.2999 -12.3539
  1321 80.2593 19.5276 12.4849
  1322 -0.788930 -0.704014 -1.02981
  1323 -0.792908 -0.704207 1.03281
  1324 264.762 7.58887 20.1091
  1325 264.662 7.66822 -20.0862
  1326 132.443 10.3538 3.42637
  1327 132.454 10.3561 -3.41193
  1328 194.330 10.4139 -9.94239
  1329 194.362 10.3929 9.96532
  1330 253.536 1.07934 -2.49555
  1331 253.584 1.07775 2.49643
  1332 -8.05052 -3.88793 -9.24489
  1333 -8.04856 -3.88302 9.24901
  1334 -75.6896 0.0348849 3.34480
  1335 -75.7969 0.0351465 -3.34746
  1336 -13.6379 -6.22142 -22.4900
  1337 -13.6256 -6.18939 22.4646
  1338 -42.2840 0.576110 1.38909
  1339 -42.3761 0.575818 -1.38982
  1340 -117.806 1.06112 0.559481
  1341 -117.933 1.06147 -0.559794
  1342 476.116 -58.1493 88.4167
  1343 349.426 -1.90563 -38.7265
</Section>

newXOutput 57

<Section columns = "stress_xx | stress_yy | stress_xy">
  1 419.772 -0.675886 0.435686
  2 419.904 -0.676365 -0.435903
  3 -129.601 0.603098 -1.77330
  4 0.206903 0.0506149 0.368178
  5 758.067 225.550 249.336
  6 857.162 254.564 -239.859
  7 0.205959 0.0497553 -0.366921
  8 -129.465 0.602975 1.77248
  9 418.527 -0.642809 -1.39073
  10 418.877 -1.32246 -2.24523
  11 422.816 -1.31674 -0.609970
  12 423.270 -1.27628 -2.65097
  13 424.381 -1.25621 -0.842236
  14 433.195 -1.18354 -1.16063
  15 436.295 -1.69880 -3.55768
  16 439.682 -0.838913 -2.44937
  17 441.883 0.0742715 -4.72482
  18 459.706 -2.59357 -4.04437
  19 467.504 -2.03820 -5.19072
  20 476.185 -3.04079 -2.11736
  21 480.477 -3.99784 -1.34721
  22 477.589 -4.56889 5.90791
  23 462.056 -5.07156 12.5930
  24 425.581 -5.57095 27.1324
  25 366.081 3.29668 31.6466
  26 317.295 4.06065 29.3628
  27 249.138 8.09499 17.7876
  28 264.625 7.86875 1.71086
  29 223.127 23.3333 -11.2641
  30 301.873 10.7737 -32.1346
  31 344.895 2.73088 -26.2505
  32 417.414 -1.15196 -22.7380
  33 457.035 -6.15171 -15.1332
  34 476.945 -5.31951 -5.86831
  35 479.623 -3.87627 1.37909
  36 475.607 -3.00210 1.99434
  37 467.293 -2.05056 5.04441
  38 459.661 -2.62557 3.96141
  39 441.955 0.0562459 4.68632
  40 439.793 -0.845706 2.43544
  41 436.426 -1.70322 3.55363
  42 433.331 -1.18589 1.15886
  43 424.515 -1.25777 0.841891
  44 423.405 -1.27764 2.65246
  45 422.951 -1.31777 0.610460
  46 419.010 -1.32335 2.24668
  47 418.659 -0.643278 1.39163
  48 396.149 0.923018 -0.527642
  49 367.131 0.200632 -1.16557
  50 330.814 -1.41451 -1.16349
  51 293.107 0.749898 -0.967783
  52 260.019 0.444360 -0.767887
  53 224.566 1.58002 -0.906857
  54 189.525 3.41333 -0.540098
  55 153.098 3.02294 -1.14022
  56 122.853 2.03935 -1.60332
  57 83.1150 1.20595 -1.68955
  58 42.7116 2.05872 -1.28939
  59 8.96130 1.71275 -1.24687
  60 -33.1824 0.968972 -1.13560
  61 -64.5200 -0.459214 -2.80381
  62 -94.8809 -2.10869 -1.27857
  63 -125.692 0.246527 0.870994
  64 -132.378 2.26623 -0.315800
  65 -132.872 0.993081 0.410268
  66 -128.464 0.488089 -0.135521
  67 -129.954 1.45431 -1.58083
  68 -127.936 1.77242 -0.114316
  69 -121.045 0.535140 -2.43501
  70 -122.579 1.09458 -2.62472
  71 -119.553 1.03539 -1.45901
  72 -110.720 0.642742 -2.21804
  73 -106.718 1.17273 -3.68825
  74 -100.271 1.31720 -3.01665
  75 -88.7891 0.669910 -5.26417
  76 -82.3555 0.207688 -4.39734
  77 -70.7039 0.298091 -5.08765
  78 -60.6862 0.234499 -5.64578
  79 -51.9319 0.0817671 -4.45652
  80 -39.7551 0.263980 -4.49411
  81 -29.2474 -0.108012 -4.81320
  82 -19.0781 -0.521222 -4.23350
  83 -11.0129 -0.457428 -3.24800
  84 -5.41919 -0.804936 -2.71724
  85 -0.915343 -0.465648 -0.973881
  86 0.0543049 -0.519951 -0.350002
  87 -0.280298 -0.280450 -0.0708286
  88 -0.729335 -0.739499 -0.853655
  89 -0.708507 -4.58613 -2.36079
  90 -0.602010 -10.2660 -3.35904
  91 -0.309484 -17.4976 -4.89493
  92 -0.158032 -26.8643 -4.21964
  93 -0.127038 -35.4641 -5.30901
  94 -0.647432 -45.9426 -5.98523
  95 -0.265228 -58.8933 -6.03599
  96 0.122549 -71.9359 -5.77662
  97 0.281631 -85.9028 -5.69545
  98 0.435816 -100.243 -5.59395
  99 0.0179889 -110.727 -7.56596
  100 0.734703 -125.696 -6.76629
  101 0.908466 -143.209 -5.37134
  102 -0.0793459 -150.782 -7.12762
  103 1.28589 -163.386 -6.58467
  104 3.19536 -180.127 -2.97808
  105 6.25525 -184.201 -4.73304
  106 4.48715 -166.990 5.15802
  107 6.66711 -123.279 19.8865
  108 32.9545 -64.8555 56.1407
  109 102.222 159.597 184.849
  110 1164.33 63.4954 116.237
  111 1000.83 18.5883 42.0635
  112 968.571 6.61790 9.66468
  113 961.595 2.02587 -1.54858
  114 968.231 10.3203 -22.1812
  115 999.301 33.8302 -50.0150
  116 1133.79 124.352 -147.733
  117 245.923 124.750 -225.290
  118 55.6470 -64.2671 -67.8469
  119 16.4313 -135.039 -25.6509
  120 4.57958 -158.021 -5.50298
  121 5.05514 -177.159 2.36810
  122 1.42581 -172.988 2.18481
  123 0.493511 -159.274 5.54800
  124 0.547114 -150.078 4.38325
  125 0.786970 -135.307 7.62922
  126 -0.0390519 -126.853 7.45385
  127 0.311438 -114.632 5.35945
  128 0.614326 -99.0501 6.84116
  129 0.123975 -87.9134 5.42014
  130 0.178395 -72.0110 6.84919
  131 -0.719460 -59.6064 5.89011
  132 -0.498623 -45.9798 5.79714
  133 -0.0882605 -35.2662 5.32197
  134 -0.205964 -26.7087 4.22680
  135 -0.301873 -17.4463 4.84699
  136 -0.593206 -10.2592 3.34227
  137 -0.704728 -4.59312 2.35912
  138 -0.728366 -0.747013 0.855359
  139 -0.280254 -0.283682 0.0729960
  140 0.0503753 -0.520437 0.351965
  141 -0.922723 -0.465375 0.976364
  142 -5.43022 -0.804140 2.71967
  143 -11.0275 -0.455980 3.24870
  144 -19.0895 -0.519436 4.23166
  145 -29.2497 -0.106534 4.80817
  146 -39.7468 0.264272 4.48822
  147 -51.9086 0.0824844 4.45032
  148 -60.6494 0.235348 5.63856
  149 -70.6487 0.298034 5.08000
  150 -82.2835 0.207590 4.39010
  151 -88.7056 0.669435 5.25696
  152 -100.172 1.31636 3.01098
  153 -106.610 1.17180 3.68353
  154 -110.603 0.642127 2.21497
  155 -119.428 1.03471 1.45698
  156 -122.450 1.09402 2.62254
  157 -120.915 0.534933 2.43322
  158 -127.801 1.77163 0.113825
  159 -129.818 1.45370 1.57985
  160 -128.328 0.487981 0.135336
  161 -132.734 0.992726 -0.410123
  162 -132.240 2.26530 0.315625
  163 -125.558 0.246561 -0.870641
  164 -94.7611 -2.10741 1.27796
  165 -64.4148 -0.458504 2.80254
  166 -33.0921 0.969172 1.13506
  167 9.03169 1.71276 1.24630
  168 42.7661 2.05875 1.28883
  169 83.1503 1.20664 1.68883
  170 122.869 2.03990 1.60265
  171 153.100 3.02329 1.13976
  172 189.509 3.41356 0.539837
  173 224.533 1.58101 0.906368
  174 259.969 0.445660 0.767404
  175 293.041 0.750658 0.967145
  176 330.728 -1.41301 1.16278
  177 367.026 0.200893 1.16492
  178 396.029 0.922708 0.527350
  179 112.378 19.3203 -5.44709
  180 112.312 19.3571 5.50792
  181 -1.59048 3.52417 31.0429
  182 -1.71335 3.49806 -31.0618
  183 254.271 -3.40904 -57.8487
  184 254.083 -3.89118 58.4470
  185 51.3717 12.3785 -3.66623
  186 50.7626 12.5906 3.68000
  187 38.1710 6.22975 -4.48117
  188 38.2318 6.22496 4.48102
  189 240.214 4.21851 -8.67716
  190 240.261 4.20354 8.68329
  191 -3.20136 9.59594 16.6461
  192 -3.29485 9.61676 -16.6650
  193 279.006 6.77080 -21.9712
  194 279.136 6.67481 22.0014
  195 -10.7251 -9.30507 24.9528
  196 -10.7233 -9.36084 -24.9862
  197 2.71032 -21.9309 -29.3879
  198 87.8072 6.13291 -53.8090
  199 3.27982 -23.4780 28.6663
  200 86.4160 6.81954 54.6311
  201 394.835 -52.1183 -83.6616
  202 408.391 -54.1684 80.3529
  203 142.993 4.40926 -1.59456
  204 142.987 4.40741 1.59739
  205 -21.1769 1.46619 -3.19422
  206 -21.0919 1.46579 3.19250
  207 -30.8553 4.84123 23.8708
  208 -30.9388 4.85017 -23.9119
  209 143.776 12.7936 -4.67796
  210 143.769 12.7919 4.69847
  211 44.4875 18.4408 10.7503
  212 44.3124 18.5504 -10.7926
  213 -39.1882 4.23725 -9.68983
  214 -39.0933 4.23115 9.68032
  215 318.087 0.181416 4.08594
  216 318.009 0.185132 -4.08548
  217 10.5037 -41.1228 11.7762
  218 11.4145 -37.1304 -10.2901
  219 -2.89861 -26.3685 28.0736
  220 -2.97201 -27.4140 -27.1986
  221 133.128 19.0981 -23.9057
  222 133.001 19.1925 24.1345
  223 -28.1542 -0.0382775 24.2384
  224 -28.2017 -0.0424311 -24.2745
  225 340.263 1.66021 -11.9205
  226 340.355 1.63266 11.9098
  227 366.636 -5.59396 -23.6403
  228 366.927 -5.95536 23.5547
  229 586.775 44.2429 0.233901
  230 538.370 60.5334 29.1791
  231 529.390 -3.02734 -44.7915
  232 66.1677 14.3089 5.46257
  233 66.1039 14.3292 -5.45277
  234 5.35574 11.9926 23.5809
  235 5.24169 12.0278 -23.6167
  236 409.610 -24.7466 -16.4628
  237 407.254 -25.0423 17.7967
  238 227.196 1.61965 -3.20602
  239 227.230 1.61624 3.20753
  240 -49.6057 3.53122 15.8405
  241 -49.6976 3.53889 -15.8630
  242 -6.90763 -6.79341 -11.2776
  243 -6.90089 -6.78854 11.2840
  244 -54.4903 1.25146 4.84703
  245 -54.5908 1.25274 -4.85072
  246 187.534 13.5975 -15.0177
  247 187.567 13.5703 15.0726
  248 238.176 6.90994 -33.1676
  249 238.355 6.79298 33.3093
  250 58.7097 3.42180 -0.153201
  251 58.7570 3.42134 0.153729
  252 138.249 3.85100 -114.973
  253 163.348 7.58600 125.041
  254 19.1427 8.89558 22.2106
  255 19.0585 9.08192 -22.3105
  256 555.517 -40.6285 -13.5051
  257 49.6514 18.2593 9.34749
  258 49.5521 18.3041 -9.34397
  259 135.703 14.8257 -43.8452
  260 135.440 15.1827 44.2997
  261 621.907 88.7495 -2.47999
  262 368.999 -0.0774922 16.1293
  263 368.866 0.0304137 -16.1784
  264 -3.31258 -20.5497 -17.6376
  265 -3.21394 -20.6305 17.7062
  266 -0.684281 -48.6381 -24.1263
  267 1.72552 -56.4772 -21.9923
  268 0.932873 -56.6466 23.1386
  269 -9.00361 -7.77984 31.9337
  270 -9.04390 -7.76918 -32.0641
  271 20.1889 -43.4820 -9.55516
  272 21.7357 -39.8840 12.9696
  273 -21.2266 -1.76455 15.4799
  274 -21.2397 -1.77277 -15.4951
  275 263.393 6.90343 -13.7522
  276 263.466 6.86514 13.7613
  277 459.942 -46.8048 -5.22339
  278 103.108 8.37541 0.189655
  279 103.136 8.37365 -0.183767
  280 -1.16955 -45.6633 23.0778
  281 11.0491 9.30311 10.5282
  282 10.9678 9.31782 -10.5351
  283 729.156 50.4925 -20.6824
  284 357.545 -0.0214282 4.98532
  285 357.448 -0.0154549 -4.98710
  286 241.776 -10.9169 -86.6898
  287 243.845 -10.7269 87.9780
  288 459.363 -44.4016 -2.26403
  289 -43.1975 1.36984 19.1141
  290 -43.2565 1.36996 -19.1439
  291 449.101 -33.9426 140.990
  292 -18.8966 3.36328 28.8747
  293 -18.9724 3.35845 -28.9267
  294 77.3467 21.2050 -7.01059
  295 77.0456 21.4038 7.09474
  296 -78.1051 0.561427 0.847103
  297 -78.2169 0.561301 -0.847651
  298 378.819 10.8695 -191.444
  299 -73.7558 1.46685 -8.49422
  300 -73.6520 1.46385 8.48360
  301 -1.85476 -9.02408 32.4009
  302 -0.712037 -8.76993 -32.0438
  303 168.251 16.8157 -21.6551
  304 168.257 16.8116 21.7888
  305 37.8976 4.08451 3.37091
  306 37.8393 4.08627 -3.37156
  307 174.845 6.30216 -4.62181
  308 174.856 6.29662 4.62808
  309 16.8354 -11.4640 16.1369
  310 15.3484 -13.9071 -16.3662
  311 169.727 2.60399 -1.17697
  312 169.733 2.60262 1.17793
  313 -60.8476 1.59072 13.9670
  314 -60.9251 1.59312 -13.9891
  315 42.9846 -2.79924 -11.7980
  316 41.7215 -2.85973 10.6669
  317 372.526 -0.535570 1.39469
  318 372.419 -0.534633 -1.39399
  319 811.000 45.9264 32.8732
  320 85.9452 11.0180 1.76760
  321 85.9037 11.0252 -1.75832
  322 -16.4602 3.95193 6.61639
  323 -16.5454 3.95653 -6.62119
  324 117.725 15.4997 -3.65459
  325 117.692 15.5096 3.68880
  326 14.4203 12.3549 24.3855
  327 14.3258 12.3820 -24.4487
  328 1.78985 -81.7593 16.0686
  329 -81.0389 0.0941235 -1.96264
  330 -80.9260 0.0943229 1.96131
  331 285.378 0.401717 -2.67280
  332 285.441 0.399716 2.67355
  333 300.473 1.64720 -7.08661
  334 300.545 1.63636 7.08621
  335 -75.7195 1.24837 -6.11891
  336 -75.6107 1.24665 6.11324
  337 0.219209 1.26137 0.688046
  338 0.144571 1.26124 -0.688394
  339 -1.70192 -33.8961 17.5817
  340 -1.35079 -35.2575 -17.5575
  341 339.121 -27.7922 -58.7416
  342 352.076 -33.2482 57.6899
  343 201.981 9.36144 -9.33809
  344 202.012 9.34432 9.35365
  345 89.8310 20.8056 -4.14821
  346 89.6784 20.8996 4.21481
  347 -29.9483 5.90576 13.8494
  348 -30.0413 5.91717 -13.8660
  349 627.064 15.2713 19.6872
  350 33.9490 -45.4869 -39.2234
  351 36.3036 -42.0443 40.9778
  352 -12.4049 9.66126 22.3250
  353 -12.5038 9.68307 -22.3588
  354 -17.1635 -3.37684 28.3338
  355 -17.2088 -3.38559 -28.3852
  356 711.118 120.868 -36.8989
  357 459.593 -5.73007 56.1618
  358 427.150 -10.2387 -10.9293
  359 426.809 -9.99989 10.2654
  360 300.716 -3.74212 -37.4809
  361 300.365 -4.03095 37.5013
  362 0.570773 -98.5015 -12.9149
  363 390.536 0.672155 -9.01508
  364 390.635 0.642080 8.98831
  365 5.16521 -92.2472 9.77555
  366 456.526 35.8350 -29.5731
  367 112.298 3.41057 1.20410
  368 112.277 3.41048 -1.20431
  369 302.234 1.83424 -27.8208
  370 302.430 1.68718 27.8592
  371 324.967 2.23811 -16.7914
  372 325.072 2.17289 16.7774
  373 -4.49303 3.41701 4.38211
  374 -4.57156 3.41942 -4.38446
  375 187.998 10.4096 -44.7768
  376 188.041 10.5281 45.1698
  377 383.837 -0.410804 2.28023
  378 383.725 -0.409212 -2.27978
  379 219.480 11.5854 -22.7257
  380 219.563 11.5192 22.8088
  381 252.665 3.45492 5.84480
  382 252.617 3.46146 -5.84273
  383 -12.0381 -2.15785 9.57727
  384 -12.0378 -2.16361 -9.57786
  385 -2.87079 -2.03773 -2.80492
  386 -2.87208 -2.03869 2.80921
  387 512.577 -62.3045 38.8444
  388 -6.61328 -15.9848 25.9790
  389 -6.56803 -16.1240 -25.9831
  390 85.1685 5.09016 -1.25918
  391 85.2041 5.08945 1.26109
  392 -2.54072 -12.7794 9.62148
  393 -2.56986 -12.7594 -9.62310
  394 33.4901 14.4148 11.3669
  395 33.4038 14.4429 -11.3705
  396 418.936 -2.03822 11.9520
  397 418.798 -1.88901 -12.1466
  398 -0.876812 -24.4841 31.0172
  399 -34.3739 -0.604615 14.6214
  400 -34.4004 -0.607787 -14.6407
  401 -1.00984 -25.8850 -30.6708
  402 392.867 -0.111049 5.74609
  403 392.758 -0.102180 -5.75340
  404 -2.98602 8.90148 28.1668
  405 -3.11820 8.92837 -28.2228
  406 291.615 3.86298 -11.2488
  407 291.688 3.83953 11.2479
  408 447.639 -19.1324 -8.79209
  409 448.918 -15.4968 6.52727
  410 -0.889470 -46.1382 -19.2394
  411 41.1651 15.4393 -7.28676
  412 41.5032 15.2750 7.23829
  413 449.315 29.2211 18.3697
  414 254.868 -12.2027 -119.552
  415 261.528 -16.8923 125.025
  416 16.2180 13.8247 17.8614
  417 16.1158 13.8586 -17.8808
  418 187.882 4.63249 -3.16352
  419 187.898 4.62929 3.16620
  420 182.606 34.7182 189.720
  421 76.5563 17.4438 -3.58299
  422 76.6319 17.4100 3.60426
  423 4.83102 -43.0233 20.4425
  424 -0.556938 -74.8915 -16.6206
  425 30.8758 17.0677 16.3931
  426 30.7569 17.1184 -16.4174
  427 38.2531 9.59871 -6.76461
  428 38.3195 9.58787 6.76470
  429 -12.2907 -0.432854 -31.7827
  430 -12.2160 -0.450509 31.7268
  431 91.2601 18.1687 -18.7723
  432 90.8694 18.4376 18.9572
  433 450.751 -14.1324 -42.5694
  434 13.1923 -3.78819 23.9176
  435 12.7673 -3.68073 -24.0753
  436 328.343 -14.1543 -41.4041
  437 329.682 -15.1344 41.3516
  438 -81.0312 0.627815 -8.35720
  439 -80.9334 0.625781 8.34502
  440 0.000137305 -73.6578 14.9849
  441 -0.519866 -46.8331 17.1389
  442 -32.8597 2.20069 24.4420
  443 -32.9221 2.19950 -24.4813
  444 235.363 1.49693 -1.18206
  445 235.401 1.49528 1.18243
  446 -6.99742 -11.0561 17.7200
  447 -7.00986 -11.0822 -17.7024
  448 147.897 8.47033 -64.9428
  449 147.595 9.12557 65.6536
  450 1.23023 -88.7203 -16.2832
  451 809.462 28.0589 0.486452
  452 2.30645 -104.065 -8.90901
  453 -95.1611 -0.0840705 -2.95915
  454 -95.0421 -0.0840642 2.95697
  455 -36.2735 5.23224 19.7539
  456 -36.3641 5.24339 -19.7848
  457 -43.1581 0.625905 14.6571
  458 -43.1980 0.625644 -14.6777
  459 161.475 16.1561 -14.9071
  460 161.478 16.1571 14.9884
  461 243.040 9.10906 -17.5722
  462 243.122 9.05267 17.6054
  463 -3.91941 -14.7741 32.1037
  464 -3.92531 -14.6768 -32.2399
  465 423.114 7.92651 -53.6662
  466 29.4224 -6.11113 -3.38586
  467 28.3969 -6.35993 3.91315
  468 6.83987 -92.6940 -2.26124
  469 4.41997 -108.068 -0.918750
  470 -12.7449 -5.67459 18.2311
  471 -12.7516 -5.69562 -18.2399
  472 90.4980 -2.88541 -99.8791
  473 640.595 5.11419 -67.2793
  474 147.109 8.93831 4.49739
  475 147.113 8.94208 -4.48557
  476 213.383 2.52615 -62.2572
  477 213.840 2.46392 63.1655
  478 63.4955 21.6663 5.54244
  479 63.3717 21.7389 -5.52940
  480 192.773 14.0977 -33.0973
  481 192.846 14.0325 33.3318
  482 7.56402 4.23677 28.5813
  483 7.98947 4.45096 -28.5476
  484 -84.5496 1.20454 -6.08494
  485 -84.4389 1.20304 6.07829
  486 421.416 -48.5932 -34.1487
  487 334.034 -0.217133 -1.90488
  488 334.121 -0.218217 1.90566
  489 19.6291 2.06729 -1.76828
  490 19.6949 2.06694 1.76764
  491 -20.4694 7.73129 18.2706
  492 -20.5642 7.74812 -18.2951
  493 -47.1512 2.83680 -6.51026
  494 -47.0537 2.83351 6.50462
  495 147.167 13.7797 -6.93643
  496 147.162 13.7764 6.96782
  497 -16.7424 6.77826 25.9786
  498 -16.8387 6.79408 -26.0263
  499 385.705 -11.1234 -22.2274
  500 386.361 -11.6567 21.9451
  501 254.181 2.52442 -41.5243
  502 253.792 2.35662 41.8734
  503 95.6804 3.95387 -0.671963
  504 95.7100 3.95392 0.672670
  505 1.10739 -45.2096 -26.1675
  506 452.694 -16.0350 34.8624
  507 6.45190 -29.2422 -23.2944
  508 129.980 20.4475 15.4281
  509 130.065 20.3865 -15.2949
  510 416.831 -45.4636 33.7666
  511 32.5310 -37.6127 53.3354
  512 495.334 -61.5182 -66.5552
  513 338.099 0.920376 20.2404
  514 337.946 1.04798 -20.2577
  515 1.06902 -38.6033 27.2320
  516 -6.62853 -1.96961 -5.13631
  517 -6.63133 -1.96854 5.13992
  518 43.1145 1.85194 -0.483624
  519 43.1688 1.85210 0.483518
  520 -1.13388 -26.2432 11.3191
  521 -1.02876 -26.1221 -11.3783
  522 278.679 2.30808 4.57959
  523 278.620 2.31150 -4.57850
  524 779.909 140.282 62.0504
  525 33.2321 -18.1443 -11.7617
  526 25.9084 -25.1075 6.34382
  527 -6.37132 5.78958 -8.84676
  528 -6.28769 5.78112 8.83996
  529 -67.4835 1.06274 8.76332
  530 -67.5484 1.06393 -8.77660
  531 0.687090 -83.3187 16.3045
  532 -93.2795 0.754253 0.779047
  533 -93.3985 0.754313 -0.779618
  534 87.4282 -3.09190 -73.8334
  535 85.5275 -1.69541 76.6088
  536 80.1711 14.7611 -26.2744
  537 79.5691 15.1119 26.4348
  538 -18.0456 -3.72020 24.8448
  539 -18.0751 -3.73667 -24.8827
  540 79.2072 6.60779 1.25604
  541 79.1676 6.60997 -1.25298
  542 -38.1767 1.69605 2.68781
  543 -38.2698 1.69686 -2.68972
  544 93.0513 13.0489 1.00799
  545 93.0081 13.0605 -0.991464
  546 -1.82944 -5.98173 4.39506
  547 -1.83583 -5.97658 -4.39427
  548 34.2102 14.7891 14.3979
  549 33.9834 14.9909 -14.4788
  550 27.6315 5.12102 12.4729
  551 27.2439 5.08600 -12.7051
  552 341.611 1.95882 8.50978
  553 341.521 1.97069 -8.51336
  554 302.917 3.50854 13.6725
  555 302.832 3.54685 -13.6765
  556 -0.309864 -70.9343 -10.4193
  557 213.155 10.1326 -13.6031
  558 213.201 10.1035 13.6307
  559 213.526 4.38267 -5.21207
  560 213.557 4.37526 5.21641
  561 -26.8909 0.838650 0.0578912
  562 -26.8035 0.838895 -0.0579284
  563 369.240 19.5965 -10.3330
  564 475.211 -58.9683 -25.5341
  565 395.090 18.5167 40.4298
  566 3.32239 -59.5472 -18.8068
  567 -19.4710 6.52636 -11.8601
  568 -19.3809 6.51573 11.8486
  569 3.54745 -34.3701 25.5173
  570 -20.6613 0.718283 28.3142
  571 -20.7215 0.714613 -28.3589
  572 607.482 58.2483 1.91083
  573 139.841 5.92426 -2.18663
  574 139.833 5.92221 2.19123
  575 910.747 77.9167 -81.1519
  576 -4.08994 -3.15597 32.8660
  577 -3.77028 -2.91194 -32.8897
  578 502.118 -43.4042 17.4455
  579 403.428 0.0832229 -10.0076
  580 403.524 0.0328335 9.95656
  581 187.697 0.922706 -90.1028
  582 189.877 0.342001 91.4610
  583 -10.1870 -9.75791 28.7237
  584 -10.1980 -9.81011 -28.8016
  585 99.1592 9.71797 48.6303
  586 99.9875 8.99417 -48.2503
  587 -78.7518 0.896630 -8.18620
  588 -78.6622 0.895145 8.17385
  589 591.672 52.8346 29.9965
  590 114.621 9.97647 1.16769
  591 114.644 9.97469 -1.15777
  592 135.069 16.8524 -33.5615
  593 134.879 17.0549 33.9023
  594 365.868 -1.18465 -19.7618
  595 366.064 -1.36160 19.7184
  596 -1.57004 -36.7226 -25.8037
  597 396.497 -0.667174 3.01043
  598 396.378 -0.664945 -3.01047
  599 -55.8631 1.00417 -1.00272
  600 -55.7620 1.00408 1.00197
  601 -100.110 -0.771921 0.00299796
  602 -100.232 -0.772559 -0.00307482
  603 8.78570 -53.9838 -7.98576
  604 -3.67313 -23.9316 22.2153
  605 -3.87425 -22.6289 -22.3636
  606 -44.6238 2.80294 20.3140
  607 -44.6961 2.80682 -20.3465
  608 279.115 6.28058 17.3217
  609 279.023 6.33967 -17.3129
  610 206.004 2.08388 1.21708
  611 205.980 2.08499 -1.21651
  612 47.3945 -10.6346 31.4735
  613 48.8661 -9.63564 -31.1982
  614 -1.41955 -18.3132 9.57213
  615 -1.46410 -18.2560 -9.60503
  616 474.992 38.2643 204.521
  617 -23.5996 -0.714104 8.85545
  618 -23.6022 -0.717531 -8.86318
  619 8.80130 -32.5659 -18.4476
  620 201.744 7.39673 -7.15470
  621 201.770 7.38589 7.16369
  622 99.8802 20.9285 -11.8384
  623 99.6824 21.0584 11.9669
  624 0.961818 -124.785 6.12154
  625 75.2852 20.2223 2.84451
  626 75.1919 20.2733 -2.81889
  627 -6.48871 8.22513 14.2752
  628 -6.57848 8.24067 -14.2896
  629 -0.566499 -62.4502 14.2194
  630 -100.323 0.0553459 -2.96416
  631 -100.202 0.0551613 2.96169
  632 133.511 2.99294 0.729650
  633 133.522 2.99427 -0.728221
  634 332.919 0.535184 5.67462
  635 332.834 0.540964 -5.67483
  636 295.173 -17.8632 156.329
  637 237.534 5.34035 -10.6511
  638 237.584 5.31853 10.6609
  639 4.30885 -4.38045 30.1451
  640 5.20459 -2.29781 -30.0598
  641 378.594 -35.7667 -126.858
  642 883.163 30.0933 -33.7230
  643 -92.8215 0.0502041 -5.62686
  644 -92.7149 0.0492892 5.61954
  645 24.3379 4.70057 -3.99219
  646 24.4035 4.69738 3.99108
  647 -1.72246 -39.0481 22.8405
  648 513.175 31.7357 -48.6530
  649 391.990 -0.855423 0.532523
  650 391.872 -0.854708 -0.532124
  651 -25.1524 -1.32833 -20.5087
  652 -25.1238 -1.32159 20.4815
  653 -0.0802105 -88.5769 -13.5756
  654 398.679 -0.851054 1.16006
  655 398.558 -0.850232 -1.15936
  656 38.3972 12.4300 9.53358
  657 38.3215 12.4495 -9.53396
  658 306.689 -25.7782 -83.5913
  659 312.108 -25.6577 84.4876
  660 444.891 -3.00534 6.97123
  661 444.939 -2.97753 -7.24639
  662 1.96755 -111.196 10.4081
  663 -22.4148 0.586143 -1.54735
  664 -22.3294 0.586393 1.54649
  665 147.055 20.8295 -149.225
  666 138.816 2.60539 1.16339
  667 138.825 2.60601 -1.16262
  668 69.3685 4.62298 0.440431
  669 69.3257 4.62390 -0.439251
  670 82.0788 8.43293 -0.697520
  671 82.1188 8.42905 0.703524
  672 261.976 6.90509 -26.8028
  673 262.127 6.79347 26.8724
  674 70.5993 20.3708 -0.476563
  675 70.3858 20.5128 0.506011
  676 -45.8972 3.42156 -11.3282
  677 -45.8007 3.41465 11.3153
  678 -53.7979 3.71789 -12.9856
  679 -53.7019 3.71096 12.9684
  680 457.758 -7.03322 -0.907838
  681 0.754258 -17.9879 -31.0132
  682 458.348 -7.37620 0.296780
  683 584.472 45.4084 -1.98245
  684 -57.2820 0.275205 9.98795
  685 -57.3322 0.274976 -10.0031
  686 61.4274 17.9090 -4.86819
  687 60.9902 18.1226 4.90973
  688 -107.679 0.0403276 -1.02079
  689 -107.553 0.0404209 1.01993
  690 1.13454 -16.1284 31.0372
  691 -35.6607 0.539023 21.4968
  692 -35.7125 0.536976 -21.5292
  693 502.945 -40.5788 -19.3398
  694 81.3057 1.60873 -0.640628
  695 81.2695 1.60820 0.641137
  696 19.9835 7.12987 6.83025
  697 19.9120 7.13744 -6.83249
  698 267.676 -11.7500 -70.0898
  699 269.638 -12.2130 71.4116
  700 920.073 65.5954 73.6590
  701 18.3677 -80.3283 -32.2687
  702 -6.51032 -13.8094 30.6668
  703 -6.51934 -13.8673 -30.7398
  704 57.7754 12.2010 -4.84528
  705 57.8355 12.1875 4.85091
  706 409.831 -0.731670 -3.05934
  707 409.953 -0.734285 3.05773
  708 197.031 2.80039 2.22904
  709 197.011 2.80312 -2.22751
  710 17.3364 14.5670 21.6500
  711 17.2231 14.6108 -21.6877
  712 11.9260 3.42214 2.80139
  713 11.8561 3.42360 -2.80254
  714 -11.0535 2.99563 31.0719
  715 -11.1410 2.99282 -31.1384
  716 337.635 -0.636078 2.40554
  717 337.546 -0.634013 -2.40495
  718 292.886 2.07182 6.49803
  719 292.819 2.07839 -6.49714
  720 40.2853 -22.7900 37.5656
  721 41.4213 -24.6208 -36.3659
  722 -22.0785 5.02773 27.0885
  723 -22.1631 5.03318 -27.1384
  724 12.5859 -26.5972 14.1903
  725 1.75246 8.99712 28.3367
  726 1.61411 9.01983 -28.3760
  727 -63.4722 1.77723 -7.48721
  728 -63.3690 1.77431 7.47922
  729 52.6851 16.3169 8.61630
  730 52.5985 16.3500 -8.60937
  731 453.555 -13.5938 -23.5129
  732 429.437 -37.0964 -12.1802
  733 -6.86434 -14.0594 21.8630
  734 -6.85647 -14.1275 -21.8371
  735 168.397 1.21719 -106.282
  736 164.077 4.74301 107.232
  737 103.079 19.6455 -17.6234
  738 102.816 19.8375 17.8119
  739 9.23678 -15.5028 24.4087
  740 -0.606508 -46.3428 -12.4069
  741 213.529 11.3087 -25.3470
  742 213.626 11.2452 25.4704
  743 0.537410 -90.8861 11.4350
  744 128.074 17.1648 -7.47099
  745 128.041 17.1781 7.52446
  746 430.816 -0.581164 -7.57004
  747 430.873 -0.632482 7.47569
  748 8.69903 -119.993 3.76960
  749 196.662 14.1437 19.2815
  750 196.613 14.1795 -19.2044
  751 54.0620 19.0058 -4.22872
  752 54.3406 18.8174 4.20346
  753 -77.7365 0.511655 -6.93216
  754 -77.6590 0.511032 6.92103
  755 217.559 3.19743 -4.51961
  756 217.590 3.19278 4.52229
  757 135.295 19.0504 -13.0439
  758 135.245 19.0809 13.1423
  759 2.04797 11.7158 21.7298
  760 1.94295 11.7466 -21.7601
  761 430.723 -31.7711 6.90350
  762 -65.4233 1.36657 5.67632
  763 -65.5284 1.36798 -5.68081
  764 918.897 183.870 -130.612
  765 -23.6256 2.42830 5.85266
  766 -23.7129 2.43063 -5.85652
  767 365.801 0.653395 14.0086
  768 365.694 0.715046 -14.0436
  769 679.552 41.9082 -0.0152590
  770 413.054 -1.34005 -5.74668
  771 413.167 -1.34957 5.73577
  772 265.693 3.33344 8.21666
  773 265.637 3.34458 -8.21436
  774 396.891 -43.0233 115.685
  775 173.734 12.1465 -7.58756
  776 173.749 12.1356 7.61038
  777 4.06542 -67.4746 13.4128
  778 454.906 -55.9433 39.3089
  779 276.490 0.245320 1.39539
  780 276.432 0.246754 -1.39493
  781 361.006 -0.164868 0.741131
  782 360.905 -0.164283 -0.740736
  783 -1.59465 -36.4539 -21.3920
  784 2.27974 -61.5394 20.3953
  785 164.944 18.0506 26.7810
  786 164.953 18.0365 -26.5792
  787 908.898 8.55275 8.11901
  788 281.988 2.08883 -33.3080
  789 282.184 1.95510 33.3953
  790 -57.4764 1.90422 15.1318
  791 -57.5636 1.90891 -15.1542
  792 12.2808 -48.5272 3.15821
  793 7.90619 -111.533 -9.27285
  794 639.864 83.3647 -13.1756
  795 -0.553196 -46.2243 11.2018
  796 13.8553 9.68885 25.2051
  797 13.8082 9.68318 -25.3323
  798 87.3615 16.6537 1.52705
  799 87.3045 16.6776 -1.50468
  800 427.078 -19.6498 -7.61727
  801 427.988 -19.3953 6.23800
  802 499.685 81.1727 -193.914
  803 -67.2192 0.646433 -2.50007
  804 -67.1129 0.646080 2.49805
  805 -32.3661 -0.123252 8.32944
  806 -32.3764 -0.124732 -8.33909
  807 31.8904 3.34810 6.56181
  808 31.2219 3.31507 -6.63626
  809 324.730 -2.12687 29.9382
  810 324.490 -1.86457 -29.8650
  811 166.480 3.85170 -1.38472
  812 166.485 3.84964 1.38653
  813 522.756 -6.12934 44.4082
  814 56.9062 8.50820 -4.35454
  815 56.9610 8.50146 4.35754
  816 52.4944 7.94501 -10.1279
  817 52.0246 8.18417 10.2429
  818 -0.0496700 -35.6756 -28.4945
  819 733.671 119.235 109.070
  820 -105.651 0.0886310 -2.97448
  821 -105.530 0.0884631 2.97150
  822 -0.156033 -110.428 10.6783
  823 8.21585 -15.3411 -24.7258
  824 -16.1249 -0.977030 6.21994
  825 -16.1189 -0.979625 -6.22231
  826 589.522 36.8522 -28.9563
  827 155.350 14.8393 -9.56773
  828 155.349 14.8359 9.61652
  829 404.854 -6.20130 -15.1231
  830 405.235 -6.25863 14.9162
  831 -101.189 0.741813 3.99934
  832 -101.304 0.742769 -4.00418
  833 -0.736171 -0.761447 -0.631094
  834 -0.737664 -0.762810 0.633609
  835 0.318461 -112.905 -10.4006
  836 0.515698 -118.255 -9.23639
  837 -110.791 1.03160 0.568907
  838 -110.919 1.03187 -0.569253
  839 62.9715 -14.7914 -70.9451
  840 251.833 2.50848 -2.46636
  841 251.880 2.50646 2.46711
  842 -6.06318 1.78130 0.735448
  843 -6.14073 1.78138 -0.735807
  844 372.344 0.673686 -9.26315
  845 372.443 0.653016 9.24870
  846 -42.5119 0.288022 7.91018
  847 -42.5339 0.288035 -7.92038
  848 227.346 6.19211 -158.490
  849 390.365 -33.0466 33.1493
  850 305.728 0.904736 -2.98062
  851 305.801 0.902598 2.98121
  852 386.909 -35.9051 -36.8918
  853 122.358 13.0375 -3.28149
  854 122.334 13.0407 3.30545
  855 168.182 10.4122 -5.84974
  856 168.192 10.4047 5.86455
  857 453.345 -9.61051 17.9772
  858 28.9886 16.5735 17.5412
  859 28.8607 16.6352 -17.5901
  860 30.5918 1.65157 1.27065
  861 30.5314 1.65146 -1.27108
  862 214.638 2.18030 2.11258
  863 214.610 2.18229 -2.11155
  864 557.296 -48.1894 66.0197
  865 349.864 1.57884 -12.1925
  866 349.964 1.54032 12.1730
  867 6.96298 5.04607 5.38574
  868 6.88837 5.05041 -5.38824
  869 350.311 -0.728471 3.46952
  870 350.216 -0.725832 -3.46896
  871 -63.2194 0.256241 -1.69224
  872 -63.1147 0.256616 1.69140
  873 -0.299834 -35.4168 10.0023
  874 -0.396492 -35.9706 -10.0775
  875 423.424 -5.49879 43.5862
  876 -24.6637 6.52723 22.7248
  877 -24.7559 6.54209 -22.7619
  878 -0.138695 -58.2560 -11.0221
  879 168.111 5.63735 -3.05475
  880 168.117 5.63451 3.05852
  881 308.109 -15.3692 -53.5855
  882 310.442 -16.9913 54.1026
  883 -12.8955 -4.42884 -30.7732
  884 -12.8355 -4.42787 30.7056
  885 17.9840 14.5873 19.8221
  886 17.8740 14.6275 -19.8480
  887 1.45587 -132.052 7.24234
  888 5.21169 11.5523 25.7885
  889 5.09226 11.5822 -25.8286
  890 284.709 -5.13807 -47.6799
  891 284.077 -5.34850 48.0570
  892 491.677 28.2991 50.8251
  893 114.121 12.1031 1.73787
  894 114.148 12.0999 -1.72225
  895 358.757 1.80789 -9.10461
  896 358.853 1.79214 9.09675
  897 -13.9085 -6.00130 27.1163
  898 -13.9367 -6.02567 -27.1677
  899 1.27110 -135.472 -4.49910
  900 -21.4022 -1.35007 26.5493
  901 -21.4470 -1.35476 -26.5909
  902 15.1285 13.0468 -15.4596
  903 15.2223 13.0185 15.4453
  904 -1.10229 -8.93802 4.94036
  905 -1.11486 -8.92923 -4.94783
  906 32.1348 14.7091 -13.6398
  907 32.2319 14.6740 13.6321
  908 7.02345 -10.0559 27.7365
  909 6.14488 -9.35185 -29.2294
  910 349.447 -10.1826 30.5984
  911 348.627 -9.71929 -30.7501
  912 -113.169 0.282034 -0.835992
  913 -113.041 0.282051 0.835424
  914 -9.92898 -0.888587 4.68670
  915 -9.92036 -0.890187 -4.68553
  916 0.467671 -82.7534 -10.0266
  917 -10.6078 -4.53601 -13.3144
  918 -10.6033 -4.52439 13.3146
  919 -44.1366 3.78920 19.4439
  920 -44.2204 3.79679 -19.4750
  921 110.344 20.7903 -7.78997
  922 110.254 20.8541 7.86800
  923 467.605 36.4268 -7.36638
  924 -4.12530 10.3799 19.7404
  925 -4.22369 10.4039 -19.7659
  926 173.529 11.1774 -50.3350
  927 173.525 11.3356 50.8709
  928 -19.2432 7.17760 15.8820
  929 -19.3362 7.19319 -15.9018
  930 560.157 -25.0523 -6.42783
  931 344.681 13.7206 22.0781
  932 410.635 -4.82700 -39.4150
  933 305.802 3.58809 -20.2765
  934 305.927 3.49745 20.2792
  935 -30.8171 4.20085 -7.65870
  936 -30.7259 4.19530 7.65184
  937 -71.9567 1.27806 9.63669
  938 -72.0557 1.28114 -9.65021
  939 -4.36458 -14.1510 -15.4438
  940 -4.33321 -14.1619 15.4708
  941 109.698 6.56527 1.00601
  942 109.722 6.56498 -1.00171
  943 -33.5430 3.58510 24.2095
  944 -33.6159 3.58751 -24.2508
  945 365.217 -0.488022 4.52696
  946 365.116 -0.484877 -4.52673
  947 -2.71776 -30.9909 23.2829
  948 15.0225 11.9154 -13.2219
  949 15.1097 11.8935 13.2119
  950 20.3818 8.14664 8.54370
  951 20.3071 8.15749 -8.54737
  952 64.7034 5.51368 -1.85648
  953 64.7491 5.51165 1.85756
  954 685.452 90.4211 -22.6518
  955 -2.74352 -0.748676 -1.86519
  956 -2.74940 -0.748595 1.86856
  957 24.3953 7.27460 -16.4270
  958 24.8046 7.08537 16.3479
  959 247.501 9.38201 -21.5163
  960 247.603 9.30713 21.5658
  961 33.1080 10.3104 -8.05421
  962 33.1801 10.2967 8.05304
  963 68.0715 -10.1144 93.6175
  964 462.382 -3.41154 -4.00453
  965 461.769 -3.28516 3.58880
  966 83.3576 -4.92034 82.0671
  967 87.8361 3.32383 -0.427263
  968 87.8029 3.32389 0.427987
  969 225.959 -5.60810 -137.135
  970 170.543 2.39173 1.14030
  971 170.536 2.39254 -1.13965
  972 22.0410 -20.8737 3.43842
  973 24.3550 -17.3083 -1.60461
  974 409.054 -0.536586 1.55499
  975 408.927 -0.535835 -1.55417
  976 -33.5761 0.137581 19.5788
  977 -33.6147 0.135390 -19.6057
  978 734.265 92.3738 43.7362
  979 -3.02257 -23.0107 -30.5623
  980 3.85712 -112.499 14.4335
  981 -0.460754 -36.6351 28.1463
  982 423.171 -0.470213 -5.86359
  983 423.272 -0.484187 5.84234
  984 -5.58930 -10.2443 13.3532
  985 -5.60503 -10.2455 -13.3407
  986 531.449 56.0043 -26.9202
  987 921.604 7.67554 -5.43487
  988 -1.38247 -2.10002 -2.03000
  989 -1.38093 -2.10447 2.03294
  990 247.395 2.32294 -4.69499
  991 247.440 2.31889 4.69670
  992 -3.09027 -22.0957 30.7062
  993 343.405 1.12251 18.0235
  994 343.284 1.21456 -18.0482
  995 451.346 -29.6150 -16.8926
  996 -15.7129 -3.26031 15.0381
  997 -15.7197 -3.27280 -15.0467
  998 7.68798 -28.5401 21.2995
  999 -0.691973 -55.4500 22.0991
  1000 -0.0667980 -57.8092 11.0096
  1001 465.956 29.9848 -2.76106
  1002 530.882 58.2963 14.6271
  1003 379.183 -42.8245 -64.3972
  1004 5.57877 -53.4869 17.1095
  1005 7.03395 -76.6398 3.06677
  1006 106.607 2.15291 0.247023
  1007 106.583 2.15244 -0.246981
  1008 -4.19683 -4.78614 -6.39115
  1009 -4.19302 -4.78691 6.39603
  1010 3.75698 -43.9582 -23.1786
  1011 305.242 -0.0591797 -1.09471
  1012 305.314 -0.0604048 1.09503
  1013 62.2129 1.10411 -31.3962
  1014 59.5494 1.24574 31.0964
  1015 -4.78398 9.51826 26.1361
  1016 -4.89767 9.54469 -26.1841
  1017 -34.9520 5.45861 -16.2106
  1018 -34.8583 5.44724 16.1889
  1019 234.281 3.76440 -48.9788
  1020 234.401 3.97339 49.4999
  1021 169.106 14.8043 -34.5928
  1022 169.079 14.8074 34.9058
  1023 183.198 12.6988 -11.8415
  1024 183.221 12.6787 11.8768
  1025 473.537 -12.2591 -50.4779
  1026 -11.8292 5.92724 28.8471
  1027 -11.9307 5.93599 -28.9113
  1028 335.039 -0.775951 24.7057
  1029 334.849 -0.578584 -24.7050
  1030 -1.99430 -17.1320 31.9669
  1031 -26.9704 -0.878638 14.4897
  1032 -26.9864 -0.883193 -14.5061
  1033 305.494 2.34019 -24.5967
  1034 305.652 2.21151 24.6118
  1035 381.157 9.46342 -36.3409
  1036 -0.399565 -55.1017 -23.1808
  1037 -4.41448 -21.6758 27.5841
  1038 -4.60204 -21.9419 -27.3560
  1039 216.145 12.1024 -17.8919
  1040 216.210 12.0551 17.9467
  1041 271.883 4.46195 10.1568
  1042 271.820 4.47921 -10.1544
  1043 450.420 -28.9293 14.6025
  1044 23.9833 1.92414 -0.344462
  1045 24.0466 1.92414 0.344318
  1046 383.335 -47.8861 68.6886
  1047 -0.460536 1.27604 1.77506
  1048 -0.535657 1.27604 -1.77593
  1049 83.9928 20.9772 -0.660394
  1050 83.8765 21.0484 0.703427
  1051 32.5182 16.5591 14.9857
  1052 32.4109 16.6023 -14.9991
  1053 4.29551 -66.7030 -13.9794
  1054 112.164 3.73336 0.447558
  1055 112.186 3.73424 -0.445250
  1056 336.501 10.8834 9.11826
  1057 308.235 1.85371 9.40112
  1058 308.159 1.86992 -9.40279
  1059 -1.67117 -17.8142 -32.0239
  1060 463.220 -5.97193 -8.99410
  1061 0.388495 -1.20798 31.6020
  1062 0.739679 -0.952406 -31.4487
  1063 420.589 -0.873405 -3.24491
  1064 420.713 -0.876647 3.24121
  1065 448.277 -1.67380 -5.71028
  1066 448.224 -1.72982 5.56652
  1067 -0.339238 -87.5429 8.26678
  1068 264.432 6.17761 -13.4229
  1069 264.497 6.14848 13.4288
  1070 321.085 2.44926 10.9208
  1071 321.001 2.47052 -10.9257
  1072 7.88619 7.87058 28.2232
  1073 7.84158 7.87228 -28.2584
  1074 696.489 45.6978 7.75948
  1075 -8.60866 -3.63211 32.6922
  1076 -8.74754 -3.55074 -32.7773
  1077 101.051 19.3049 -1.98382
  1078 100.993 19.3361 2.02247
  1079 -54.2906 0.904318 -2.77584
  1080 -54.1902 0.904079 2.77401
  1081 165.400 9.89085 -57.9022
  1082 165.166 10.3476 58.5741
  1083 48.2729 18.7046 11.2360
  1084 48.1561 18.7590 -11.2394
  1085 112.668 13.5365 -43.1039
  1086 112.091 14.0854 43.4561
  1087 -2.90669 -29.1122 -22.6940
  1088 395.932 5.71866 48.0200
  1089 276.100 3.86393 177.512
  1090 45.4052 19.3071 11.5832
  1091 45.2687 19.3789 -11.5986
  1092 167.569 8.34145 -4.48738
  1093 167.577 8.33492 4.49706
  1094 601.910 5.06080 11.1337
  1095 39.6183 10.4321 6.64864
  1096 39.1225 10.5522 -6.80198
  1097 -17.8139 -3.87366 19.9834
  1098 -17.8297 -3.89200 -20.0047
  1099 -0.584034 -13.3381 5.38891
  1100 -0.607328 -13.3303 -5.41068
  1101 395.941 -0.735736 14.4681
  1102 395.793 -0.592211 -14.5655
  1103 0.736355 -27.6438 29.9313
  1104 -26.7996 1.79857 -26.4801
  1105 -26.7389 1.80184 26.4380
  1106 0.131602 -105.646 -10.4408
  1107 -5.97777 -8.46471 32.6439
  1108 -5.96022 -8.28055 -32.6786
  1109 378.352 0.128987 -6.09219
  1110 378.458 0.121894 6.08893
  1111 390.787 -3.34702 17.4594
  1112 390.516 -3.11431 -17.5562
  1113 69.2639 15.7587 -15.2606
  1114 68.7396 16.0535 15.3860
  1115 -0.910804 -54.4267 -18.9051
  1116 513.811 -44.6092 -104.554
  1117 665.795 89.0629 8.34942
  1118 7.05435 -80.6618 -0.426489
  1119 24.7656 13.9426 -20.1809
  1120 24.9109 13.8672 20.0713
  1121 64.9893 20.7438 4.46064
  1122 64.8334 20.8377 -4.44749
  1123 136.414 7.57112 1.98467
  1124 136.423 7.57356 -1.97750
  1125 -8.54936 -12.1775 25.8463
  1126 -8.53780 -12.2956 -25.8885
  1127 -23.7612 7.63470 20.8641
  1128 -23.8554 7.65154 -20.8946
  1129 -7.89930 9.74052 24.1529
  1130 -8.00411 9.76476 -24.1928
  1131 373.729 -19.1450 -30.1487
  1132 376.091 -19.2832 29.9226
  1133 0.385975 -62.2497 -21.9732
  1134 200.726 0.0535380 -72.2333
  1135 201.019 0.675548 73.3999
  1136 64.9215 18.8082 -5.43603
  1137 65.0080 18.7657 5.45082
  1138 199.367 101.808 198.187
  1139 51.1018 15.0100 8.26676
  1140 51.0243 15.0352 -8.26173
  1141 508.571 -54.2951 -26.7890
  1142 193.462 4.81240 3.57918
  1143 193.442 4.81733 -3.57551
  1144 -8.63384 -7.68698 15.8577
  1145 -8.64027 -7.70577 -15.8534
  1146 -10.2846 -9.21001 20.4868
  1147 -10.2853 -9.24710 -20.4903
  1148 335.094 -33.1612 -100.855
  1149 341.687 -36.5720 101.588
  1150 61.4875 1.97176 0.875225
  1151 61.5333 1.97202 -0.874485
  1152 211.253 9.65954 -39.9607
  1153 211.251 9.54096 40.3477
  1154 457.343 -59.7887 77.6943
  1155 405.906 -1.02586 0.898799
  1156 405.781 -1.02509 -0.898164
  1157 -35.5431 5.70897 18.6512
  1158 -35.6358 5.72063 -18.6779
  1159 -61.4183 1.86430 -9.69771
  1160 -61.3169 1.86058 9.68750
  1161 105.685 5.04559 120.387
  1162 325.289 21.5101 -18.5369
  1163 193.231 13.3603 -20.0033
  1164 193.284 13.3256 20.1056
  1165 592.045 -13.5788 112.925
  1166 196.425 12.9403 -29.3430
  1167 196.488 12.8801 29.5204
  1168 50.2100 5.95886 -2.94000
  1169 50.2638 5.95585 2.94066
  1170 17.3270 -60.1461 12.6934
  1171 17.5118 -58.4689 -17.3324
  1172 265.710 -17.7429 -101.843
  1173 269.293 -16.5360 101.742
  1174 104.802 17.5694 -30.4603
  1175 104.361 17.9186 30.7466
  1176 465.778 -30.5477 -32.4005
  1177 -16.6667 -1.27773 29.8968
  1178 -16.7274 -1.27786 -29.9485
  1179 -0.156790 -24.6624 -30.7608
  1180 120.007 4.75155 -76.3131
  1181 120.268 5.08888 77.5757
  1182 -0.297761 -23.6246 6.00083
  1183 -0.254539 -23.6824 -6.07531
  1184 -110.680 0.913483 -2.81380
  1185 -110.558 0.912852 2.81067
  1186 369.347 -0.473469 -1.72388
  1187 369.453 -0.474790 1.72439
  1188 229.608 7.92746 -11.6723
  1189 229.660 7.90008 11.6887
  1190 -7.97511 0.175360 32.6193
  1191 -7.99992 0.309200 -32.6832
  1192 0.0146676 -94.4873 -9.18370
  1193 -94.2656 0.212003 4.60550
  1194 -94.3667 0.212565 -4.61240
  1195 74.5685 0.205132 -54.0181
  1196 74.0215 0.668195 55.6784
  1197 432.320 -26.3899 -2.46400
  1198 124.858 8.91698 -68.6358
  1199 124.937 9.23029 69.2772
  1200 -52.6037 0.287541 7.18150
  1201 -52.6377 0.287214 -7.19164
  1202 1.42312 -81.7562 -15.1944
  1203 -13.9767 3.09241 -3.55835
  1204 -13.8946 3.09075 3.55633
  1205 66.5828 15.7581 5.76523
  1206 66.5102 15.7846 -5.75255
  1207 243.852 0.820511 -1.51335
  1208 243.894 0.819094 1.51395
  1209 327.887 1.12322 7.14686
  1210 327.804 1.13320 -7.14846
  1211 18.5570 -1.61673 17.0153
  1212 18.2812 -1.93009 -17.3518
  1213 3.20177 -46.7737 23.2086
  1214 588.526 81.9850 18.1206
  1215 -18.1074 -1.40240 11.4091
  1216 -18.1106 -1.40851 -11.4159
  1217 2.54478 -43.8094 -24.3627
  1218 -1.71233 -27.4512 16.6774
  1219 -1.62872 -27.1898 -17.2772
  1220 465.057 -5.11549 7.96483
  1221 0.405635 -108.008 9.38202
  1222 3.60646 -32.0325 -27.1882
  1223 57.1279 1.45101 0.531091
  1224 57.0802 1.45061 -0.531279
  1225 -4.46542 -19.3693 30.2710
  1226 -49.9654 2.81624 -8.13985
  1227 -49.8668 2.81258 8.13236
  1228 938.936 16.0039 26.9716
  1229 -26.4165 3.20636 26.6978
  1230 -26.4883 3.20590 -26.7440
  1231 225.523 8.79742 -36.1133
  1232 225.701 8.64406 36.3197
  1233 15.0114 -20.9331 -10.7200
  1234 214.481 10.4820 -14.7791
  1235 214.535 10.4450 14.8167
  1236 9.04384 -63.9014 -2.58082
  1237 -4.48272 -19.4147 -30.2291
  1238 -34.3019 1.29119 4.75872
  1239 -34.3935 1.29223 -4.76182
  1240 -15.8783 1.39283 -30.5045
  1241 -15.8044 1.39793 30.4553
  1242 459.026 37.0303 35.8704
  1243 260.493 2.70854 -38.0929
  1244 260.785 2.64124 38.1873
  1245 -115.536 0.244521 -0.994126
  1246 -115.407 0.244444 0.993219
  1247 234.563 5.16334 -7.89434
  1248 234.604 5.15322 7.89900
  1249 -118.292 -2.07563 -0.324061
  1250 -118.424 -2.07676 0.324179
  1251 349.474 -24.7628 -43.6498
  1252 -54.6514 0.946393 15.1129
  1253 -54.7166 0.946911 -15.1369
  1254 352.924 -26.1379 43.2574
  1255 238.731 8.20469 -15.9430
  1256 238.796 8.16193 15.9656
  1257 28.3346 -58.6449 -53.5007
  1258 0.519149 -75.3123 -18.7982
  1259 -1.49316 -31.6002 28.3659
  1260 742.386 130.648 -110.165
  1261 -0.168572 -70.8071 18.4506
  1262 774.981 73.2441 -49.0297
  1263 -0.450669 -131.305 -8.70496
  1264 39.1145 3.48761 -0.910377
  1265 39.1714 3.48662 0.910561
  1266 -0.323774 -30.3245 6.28707
  1267 -0.259768 -30.4872 -6.27117
  1268 134.013 2.89058 0.244038
  1269 134.024 2.89136 -0.243383
  1270 470.728 -35.0729 30.6899
  1271 11.0778 3.32826 -4.12170
  1272 11.1487 3.32632 4.11997
  1273 2.71351 -142.574 3.74759
  1274 1.72440 -152.000 -3.72377
  1275 432.899 -52.9836 -47.2170
  1276 -1.17283 -39.2062 18.3974
  1277 455.739 29.9322 -45.6870
  1278 -1.34884 -51.6618 18.0635
  1279 0.916657 -140.813 -6.52354
  1280 219.068 5.72484 -8.71963
  1281 219.106 5.70688 8.72982
  1282 -0.170161 -77.1791 8.16084
  1283 -0.188175 -63.8658 -18.3610
  1284 1014.74 181.496 156.088
  1285 407.736 0.124315 0.682168
  1286 407.610 0.124386 -0.681730
  1287 11.4150 1.39049 25.4802
  1288 11.0624 1.82994 -25.6044
  1289 -5.70006 6.15904 30.4486
  1290 -5.85583 6.16612 -30.5260
  1291 437.640 -7.95509 -28.0223
  1292 404.647 -17.0987 -17.5137
  1293 404.275 -19.4200 17.7242
  1294 61.9997 6.77321 2.89845
  1295 61.9500 6.77681 -2.89608
  1296 -65.6388 1.74622 -11.6894
  1297 -65.5448 1.74244 11.6720
  1298 451.122 -60.6385 -66.4959
  1299 -3.36073 -8.15238 8.33651
  1300 -3.37393 -8.14696 -8.33305
  1301 476.398 -19.6152 47.6520
  1302 -4.93604 -18.6945 22.3841
  1303 -4.88120 -18.7651 -22.2823
  1304 -40.8175 2.68368 5.70507
  1305 -40.9122 2.68631 -5.70958
  1306 73.1301 9.10109 -28.5747
  1307 72.3955 9.51144 28.5514
  1308 114.289 2.75223 0.250432
  1309 114.269 2.75150 -0.249865
  1310 -45.1984 4.57593 18.4889
  1311 -45.2870 4.58457 -18.5161
  1312 382.962 0.731126 1.06008
  1313 382.849 0.730997 -1.05947
  1314 213.103 -0.0283914 135.760
  1315 313.697 0.271273 2.53179
  1316 313.621 0.272735 -2.53099
  1317 210.109 4.51788 -55.2084
  1318 210.132 4.28061 55.6776
  1319 2.05512 -81.8991 -10.5468
  1320 82.1570 19.6787 -12.7211
  1321 81.8034 19.9102 12.8534
  1322 -0.804606 -0.716432 -1.04928
  1323 -0.808662 -0.716624 1.05233
  1324 269.483 7.66951 20.5230
  1325 269.381 7.74940 -20.4991
  1326 134.912 10.4872 3.55301
  1327 134.924 10.4891 -3.53841
  1328 197.860 10.5431 -10.1837
  1329 197.893 10.5223 10.2071
  1330 258.023 1.04560 -2.54728
  1331 258.072 1.04404 2.54823
  1332 -8.19057 -3.95417 -9.40791
  1333 -8.18853 -3.94914 9.41204
  1334 -76.8596 0.0268463 3.38182
  1335 -76.9701 0.0271167 -3.38464
  1336 -13.8660 -6.32124 -22.8736
  1337 -13.8533 -6.28859 22.8476
  1338 -42.8407 0.567678 1.40218
  1339 -42.9357 0.567392 -1.40296
  1340 -119.691 1.07595 0.564369
  1341 -119.823 1.07630 -0.564706
  1342 484.370 -58.9338 90.1760
  1343 355.999 -1.91625 -39.2787
</Section>

newXOutput 58

<Section columns = "stress_xx | stress_yy | stress_xy">
  1 426.767 -0.695442 0.444194
  2 426.903 -0.695939 -0.444416
  3 -131.641 0.609993 -1.80231
  4 0.210065 0.0510904 0.373984
  5 770.147 230.252 253.741
  6 870.847 259.779 -244.145
  7 0.209100 0.0502131 -0.372700
  8 -131.500 0.609868 1.80146
  9 425.504 -0.661894 -1.41439
  10 425.862 -1.35167 -2.28213
  11 429.865 -1.34670 -0.621472
  12 430.330 -1.30741 -2.69695
  13 431.468 -1.28772 -0.859795
  14 440.424 -1.21128 -1.18363
  15 443.580 -1.73530 -3.61972
  16 447.034 -0.861072 -2.49394
  17 449.286 0.0617011 -4.81039
  18 467.395 -2.64715 -4.11739
  19 475.331 -2.08387 -5.28218
  20 484.174 -3.10263 -2.16442
  21 488.561 -4.07388 -1.38541
  22 485.683 -4.65056 5.97602
  23 469.971 -5.15690 12.7550
  24 433.042 -5.65074 27.5046
  25 372.740 3.36637 32.0880
  26 323.340 4.15536 29.7566
  27 254.280 8.23639 18.0241
  28 270.041 8.00553 1.74974
  29 227.880 23.7153 -11.4050
  30 307.708 10.9616 -32.5889
  31 351.273 2.79171 -26.6161
  32 424.769 -1.16042 -23.0569
  33 464.901 -6.25510 -15.3325
  34 485.040 -5.41407 -5.93470
  35 487.701 -3.95058 1.41855
  36 483.594 -3.06334 2.04009
  37 475.121 -2.09640 5.13423
  38 467.353 -2.67960 4.03364
  39 449.362 0.0434445 4.77168
  40 447.149 -0.867951 2.47999
  41 443.715 -1.73978 3.61574
  42 440.565 -1.21367 1.18192
  43 431.606 -1.28932 0.859501
  44 430.469 -1.30880 2.69851
  45 430.004 -1.34776 0.621993
  46 425.999 -1.35258 2.28362
  47 425.639 -0.662381 1.41531
  48 402.789 0.921081 -0.537452
  49 373.327 0.175466 -1.18546
  50 336.447 -1.47767 -1.18080
  51 298.148 0.714675 -0.982170
  52 264.533 0.399215 -0.778887
  53 228.507 1.55193 -0.919505
  54 192.895 3.41658 -0.545772
  55 155.867 3.02110 -1.15557
  56 125.118 2.02560 -1.62625
  57 84.7131 1.18349 -1.71372
  58 43.6258 2.05774 -1.30823
  59 9.30090 1.71352 -1.26513
  60 -33.5649 0.964648 -1.15150
  61 -65.4397 -0.480734 -2.84871
  62 -96.3222 -2.15164 -1.29839
  63 -127.666 0.247938 0.886908
  64 -134.472 2.30171 -0.318219
  65 -134.980 1.00731 0.420589
  66 -130.504 0.493537 -0.133731
  67 -132.033 1.47631 -1.60265
  68 -129.990 1.80000 -0.109880
  69 -122.995 0.542120 -2.47014
  70 -124.572 1.11188 -2.66350
  71 -121.507 1.05136 -1.47770
  72 -112.536 0.651750 -2.24931
  73 -108.485 1.19160 -3.74462
  74 -101.938 1.33911 -3.06084
  75 -90.2739 0.680789 -5.34809
  76 -83.7401 0.211164 -4.46718
  77 -71.8990 0.303022 -5.17029
  78 -61.7206 0.239399 -5.73952
  79 -52.8222 0.0838117 -4.53061
  80 -40.4409 0.268773 -4.56932
  81 -29.7550 -0.109084 -4.89459
  82 -19.4130 -0.529507 -4.30634
  83 -11.2095 -0.464805 -3.30463
  84 -5.51755 -0.818499 -2.76518
  85 -0.934447 -0.473542 -0.991787
  86 0.0534827 -0.529155 -0.356938
  87 -0.285173 -0.286763 -0.0730187
  88 -0.741756 -0.755966 -0.869461
  89 -0.720636 -4.66981 -2.40265
  90 -0.611972 -10.4502 -3.41749
  91 -0.314341 -17.8064 -4.97941
  92 -0.160226 -27.3362 -4.29225
  93 -0.128033 -36.0831 -5.40012
  94 -0.658080 -46.7374 -6.08689
  95 -0.269649 -59.9077 -6.13726
  96 0.124506 -73.1710 -5.87281
  97 0.286268 -87.3728 -5.78964
  98 0.443418 -101.952 -5.68536
  99 0.0169747 -112.601 -7.68863
  100 0.745888 -127.816 -6.87512
  101 0.923288 -145.613 -5.45315
  102 -0.0841789 -153.286 -7.23540
  103 1.30686 -166.070 -6.68059
  104 3.25147 -183.046 -3.00004
  105 6.36697 -187.125 -4.76885
  106 4.57844 -169.468 5.32817
  107 6.82257 -124.816 20.3906
  108 33.5352 -65.0342 57.3599
  109 103.874 163.803 188.211
  110 1182.61 64.6158 118.166
  111 1016.69 18.8737 42.7436
  112 983.920 6.69631 9.83253
  113 976.823 2.02521 -1.57229
  114 983.576 10.4570 -22.5373
  115 1015.20 34.3663 -50.8434
  116 1151.68 126.535 -150.201
  117 250.045 128.098 -229.353
  118 56.6724 -64.4716 -69.2550
  119 16.7426 -136.734 -26.2310
  120 4.67091 -160.346 -5.67741
  121 5.14752 -179.957 2.36058
  122 1.45034 -175.782 2.19171
  123 0.499945 -161.890 5.62280
  124 0.555532 -152.564 4.44088
  125 0.800259 -137.570 7.74892
  126 -0.0396303 -128.996 7.57515
  127 0.316637 -116.577 5.44575
  128 0.625482 -100.740 6.95523
  129 0.126706 -89.4196 5.51024
  130 0.181425 -73.2458 6.96345
  131 -0.731820 -60.6336 5.98892
  132 -0.506636 -46.7751 5.89540
  133 -0.0887236 -35.8814 5.41322
  134 -0.208962 -27.1777 4.29943
  135 -0.306559 -17.7541 4.93061
  136 -0.603005 -10.4432 3.40043
  137 -0.716790 -4.67694 2.40095
  138 -0.740766 -0.763635 0.871198
  139 -0.285127 -0.290059 0.0752303
  140 0.0494733 -0.529648 0.358939
  141 -0.941970 -0.473261 0.994314
  142 -5.52877 -0.817683 2.76765
  143 -11.2244 -0.463329 3.30533
  144 -19.4245 -0.527686 4.30445
  145 -29.7573 -0.107577 4.88945
  146 -40.4322 0.269071 4.56330
  147 -52.7983 0.0845474 4.52427
  148 -61.6828 0.240273 5.73214
  149 -71.8424 0.302969 5.16245
  150 -83.6662 0.211071 4.45974
  151 -90.1882 0.680309 5.34068
  152 -101.836 1.33826 3.05500
  153 -108.374 1.19065 3.73974
  154 -112.415 0.651122 2.24613
  155 -121.378 1.05068 1.47559
  156 -124.440 1.11131 2.66122
  157 -122.862 0.541910 2.46827
  158 -129.851 1.79918 0.109350
  159 -131.893 1.47567 1.60162
  160 -130.365 0.493427 0.133527
  161 -134.838 1.00695 -0.420448
  162 -134.330 2.30075 0.318031
  163 -127.527 0.247975 -0.886549
  164 -96.1987 -2.15031 1.29776
  165 -65.3313 -0.480006 2.84740
  166 -33.4718 0.964839 1.15093
  167 9.37335 1.71350 1.26453
  168 43.6818 2.05772 1.30763
  169 84.7495 1.18413 1.71296
  170 125.135 2.02608 1.62555
  171 155.869 3.02136 1.15509
  172 192.879 3.41673 0.545508
  173 228.474 1.55287 0.919010
  174 264.481 0.400494 0.778401
  175 298.080 0.715422 0.981528
  176 336.359 -1.47613 1.18009
  177 373.219 0.175740 1.18479
  178 402.666 0.920772 0.537155
  179 114.467 19.6294 -5.65382
  180 114.399 19.6674 5.71519
  181 -1.56379 3.61552 31.5099
  182 -1.68906 3.58833 -31.5296
  183 258.793 -3.45726 -58.9844
  184 258.599 -3.94683 59.5925
  185 52.3626 12.6739 -3.88066
  186 51.7420 12.8889 3.89384
  187 38.9931 6.30500 -4.50363
  188 39.0556 6.29997 4.50327
  189 244.426 4.23520 -8.86884
  190 244.474 4.22028 8.87529
  191 -3.13566 9.75099 16.8627
  192 -3.23154 9.77226 -16.8824
  193 283.886 6.83680 -22.4150
  194 284.019 6.74011 22.4463
  195 -10.8982 -9.45192 25.3689
  196 -10.8965 -9.50871 -25.4031
  197 2.78009 -22.2409 -29.8315
  198 89.4559 6.40325 -54.9467
  199 3.35970 -23.8129 29.0958
  200 88.0400 7.10039 55.7812
  201 401.675 -52.8893 -85.2756
  202 415.440 -54.9685 81.9140
  203 145.596 4.43236 -1.65752
  204 145.590 4.43065 1.66038
  205 -21.3624 1.46921 -3.22441
  206 -21.2749 1.46877 3.22256
  207 -31.3193 4.92792 24.2371
  208 -31.4049 4.93696 -24.2793
  209 146.398 12.9659 -4.83308
  210 146.391 12.9646 4.85384
  211 45.3675 18.7825 10.8151
  212 45.1888 18.8938 -10.8589
  213 -39.7265 4.29725 -9.81278
  214 -39.6290 4.29099 9.80284
  215 323.529 0.140353 4.16932
  216 323.449 0.144077 -4.16871
  217 10.7161 -41.6878 11.8739
  218 11.6447 -37.6261 -10.3575
  219 -2.93981 -26.7919 28.5332
  220 -3.01518 -27.8572 -27.6449
  221 135.579 19.4311 -24.4604
  222 135.449 19.5275 24.6924
  223 -28.6093 -0.0316188 24.6325
  224 -28.6579 -0.0359096 -24.6695
  225 346.082 1.64548 -12.1477
  226 346.177 1.61773 12.1373
  227 372.953 -5.72555 -24.1030
  228 373.250 -6.09206 24.0177
  229 597.021 44.9474 0.277957
  230 547.780 61.6617 29.3578
  231 538.486 -2.89602 -45.2379
  232 67.4601 14.5271 5.46909
  233 67.3945 14.5480 -5.45951
  234 5.54242 12.2070 23.9056
  235 5.42575 12.2428 -23.9426
  236 416.674 -25.1687 -16.8538
  237 414.280 -25.4685 18.2124
  238 231.183 1.59173 -3.28227
  239 231.219 1.58837 3.28389
  240 -50.3684 3.58823 16.0738
  241 -50.4628 3.59604 -16.0971
  242 -7.02425 -6.90762 -11.4721
  243 -7.01734 -6.90261 11.4784
  244 -55.2652 1.25827 4.90007
  245 -55.3686 1.25961 -4.90397
  246 190.900 13.7837 -15.3635
  247 190.932 13.7567 15.4193
  248 242.406 6.99422 -33.8410
  249 242.587 6.87638 33.9852
  250 59.8929 3.44181 -0.129499
  251 59.9416 3.44124 0.129980
  252 140.777 4.21067 -117.209
  253 166.303 7.98874 127.439
  254 19.5477 9.09670 22.4902
  255 19.4619 9.28631 -22.5924
  256 564.926 -41.0509 -14.0349
  257 50.6424 18.5648 9.40610
  258 50.5407 18.6106 -9.40311
  259 138.203 15.1309 -44.7739
  260 137.933 15.4938 45.2347
  261 632.564 90.4297 -2.16047
  262 375.307 -0.117400 16.4361
  263 375.171 -0.00824400 -16.4850
  264 -3.36634 -20.8943 -17.9358
  265 -3.26570 -20.9763 18.0055
  266 -0.691662 -49.4323 -24.5174
  267 1.76453 -57.3589 -22.3181
  268 0.955950 -57.5487 23.4943
  269 -9.13389 -7.88879 32.4485
  270 -9.17500 -7.87823 -32.5817
  271 20.5838 -44.0037 -9.86990
  272 22.1628 -40.3412 13.3527
  273 -21.5837 -1.79182 15.7407
  274 -21.5971 -1.80020 -15.7562
  275 267.996 6.96746 -14.0398
  276 268.072 6.92906 14.0494
  277 467.851 -47.5286 -5.49695
  278 105.041 8.47476 0.249776
  279 105.070 8.47270 -0.243895
  280 -1.18548 -46.4118 23.4537
  281 11.3841 9.44349 10.6410
  282 11.3005 9.45861 -10.6484
  283 741.445 51.2952 -21.1559
  284 363.612 -0.0553791 5.08400
  285 363.513 -0.0493630 -5.08561
  286 246.094 -11.0342 -88.3583
  287 248.193 -10.8417 89.6658
  288 467.265 -45.0920 -2.11421
  289 -43.9009 1.39549 19.4202
  290 -43.9614 1.39558 -19.4508
  291 456.746 -34.2124 143.622
  292 -19.1722 3.43449 29.3272
  293 -19.2497 3.42943 -29.3804
  294 78.8149 21.6013 -7.27592
  295 78.5078 21.8035 7.36056
  296 -79.2609 0.560871 0.853422
  297 -79.3761 0.560742 -0.854011
  298 385.308 11.4516 -194.943
  299 -74.9166 1.48689 -8.61266
  300 -74.8100 1.48383 8.60164
  301 -1.85616 -9.13657 32.9032
  302 -0.691299 -8.87590 -32.5366
  303 171.302 17.0774 -22.1441
  304 171.307 17.0741 22.2796
  305 38.7224 4.12091 3.38867
  306 38.6623 4.12282 -3.38946
  307 177.980 6.35535 -4.74704
  308 177.991 6.34998 4.75346
  309 17.1774 -11.5605 16.3029
  310 15.6608 -14.0435 -16.5389
  311 172.771 2.59403 -1.21463
  312 172.778 2.59275 1.21563
  313 -61.8385 1.61723 14.1849
  314 -61.9179 1.61966 -14.2076
  315 43.8151 -2.71268 -12.1654
  316 42.5302 -2.77504 11.0130
  317 378.807 -0.571919 1.42265
  318 378.697 -0.570957 -1.42190
  319 824.408 46.6518 33.5185
  320 87.5837 11.1687 1.72557
  321 87.5410 11.1762 -1.71636
  322 -16.5851 4.00013 6.68367
  323 -16.6727 4.00490 -6.68879
  324 119.906 15.7284 -3.81058
  325 119.872 15.7390 3.84508
  326 14.7535 12.5942 24.7127
  327 14.6568 12.6216 -24.7777
  328 1.82536 -83.0607 16.2966
  329 -82.2575 0.0863281 -1.98191
  330 -82.1412 0.0865312 1.98049
  331 290.297 0.358758 -2.72809
  332 290.361 0.356768 2.72893
  333 305.646 1.62658 -7.23300
  334 305.720 1.61573 7.23285
  335 -76.8838 1.26116 -6.19776
  336 -76.7718 1.25940 6.19183
  337 0.408714 1.25673 0.687205
  338 0.331879 1.25664 -0.687596
  339 -1.72878 -34.4671 17.8764
  340 -1.37181 -35.8516 -17.8517
  341 345.051 -28.2359 -59.8945
  342 358.213 -33.7812 58.8258
  343 205.573 9.46663 -9.55852
  344 205.604 9.44968 9.57447
  345 91.5240 21.1632 -4.34801
  346 91.3680 21.2590 4.41500
  347 -30.3431 5.99741 14.0346
  348 -30.4386 6.00907 -14.0519
  349 637.586 15.9236 20.4041
  350 34.6045 -45.9251 -40.1030
  351 37.0042 -42.4090 41.8859
  352 -12.5238 9.82808 22.6430
  353 -12.6251 9.85027 -22.6779
  354 -17.4340 -3.42064 28.7966
  355 -17.4804 -3.42965 -28.8492
  356 723.115 123.123 -37.8823
  357 467.661 -5.72925 56.8722
  358 434.441 -10.4352 -11.1686
  359 434.099 -10.1917 10.4969
  360 305.990 -3.83354 -38.2238
  361 305.632 -4.12585 38.2454
  362 0.581893 -100.071 -13.0896
  363 397.147 0.654563 -9.18321
  364 397.249 0.624178 9.15653
  365 5.26302 -93.6729 9.87174
  366 464.748 36.4976 -29.8586
  367 114.388 3.42066 1.20931
  368 114.366 3.42066 -1.20954
  369 307.511 1.82257 -28.3709
  370 307.710 1.67424 28.4108
  371 330.563 2.22877 -17.1162
  372 330.671 2.16297 17.1027
  373 -4.40043 3.45164 4.41751
  374 -4.48123 3.45417 -4.42005
  375 191.399 10.5967 -45.6957
  376 191.440 10.7178 46.0944
  377 390.299 -0.442312 2.32547
  378 390.183 -0.440696 -2.32493
  379 223.387 11.7391 -23.2074
  380 223.470 11.6727 23.2920
  381 257.070 3.45933 5.97266
  382 257.020 3.46580 -5.97040
  383 -12.2445 -2.19317 9.74186
  384 -12.2443 -2.19905 -9.74252
  385 -2.92111 -2.07315 -2.85519
  386 -2.92240 -2.07411 2.85955
  387 521.289 -63.1639 39.7488
  388 -6.71681 -16.2416 26.4105
  389 -6.67073 -16.3834 -26.4150
  390 86.7982 5.13417 -1.23699
  391 86.8348 5.13327 1.23883
  392 -2.58312 -12.9990 9.78729
  393 -2.61279 -12.9788 -9.78897
  394 34.2055 14.6478 11.4756
  395 34.1169 14.6766 -11.4798
  396 426.044 -2.10105 12.1794
  397 425.901 -1.94990 -12.3758
  398 -0.876164 -24.8577 31.5088
  399 -34.9516 -0.612495 14.8639
  400 -34.9788 -0.615741 -14.8837
  401 -1.01147 -26.2827 -31.1571
  402 399.493 -0.137700 5.85378
  403 399.381 -0.128743 -5.86093
  404 -2.96538 9.07363 28.5808
  405 -3.10045 9.10082 -28.6384
  406 296.659 3.87703 -11.4757
  407 296.734 3.85351 11.4751
  408 455.332 -19.4543 -8.84049
  409 456.615 -15.7637 6.55217
  410 -0.902049 -46.9105 -19.5587
  411 41.9746 15.7593 -7.28074
  412 42.3191 15.5925 7.23055
  413 457.472 29.7332 18.5350
  414 259.394 -12.2660 -121.811
  415 266.158 -17.0326 127.373
  416 16.6143 14.0591 18.0829
  417 16.5096 14.0938 -18.1032
  418 191.229 4.65613 -3.24934
  419 191.246 4.65306 3.25212
  420 185.866 35.8495 193.253
  421 78.0240 17.7224 -3.54360
  422 78.1016 17.6878 3.56475
  423 4.93419 -43.6561 20.7195
  424 -0.565805 -76.1340 -16.8878
  425 31.5219 17.3691 16.5730
  426 31.4003 17.4207 -16.5984
  427 39.0682 9.73595 -6.81273
  428 39.1366 9.72472 6.81251
  429 -12.4644 -0.419205 -32.2864
  430 -12.3880 -0.437163 32.2293
  431 92.9746 18.5286 -19.2554
  432 92.5763 18.8018 19.4424
  433 458.606 -14.3376 -43.1247
  434 13.4724 -3.78375 24.2323
  435 13.0397 -3.67566 -24.3934
  436 334.081 -14.4098 -42.2235
  437 335.440 -15.4046 42.1714
  438 -82.3454 0.635740 -8.48189
  439 -82.2450 0.633672 8.46933
  440 -0.000183190 -74.8909 15.2289
  441 -0.527565 -47.6224 17.4244
  442 -33.3820 2.24363 24.8315
  443 -33.4459 2.24235 -24.8718
  444 239.480 1.46698 -1.21299
  445 239.519 1.46537 1.21341
  446 -7.11284 -11.2390 18.0208
  447 -7.12558 -11.2657 -18.0031
  448 150.609 8.70596 -66.2555
  449 150.300 9.37100 66.9764
  450 1.25284 -90.1582 -16.5266
  451 822.828 28.4479 0.480224
  452 2.35100 -105.674 -8.99370
  453 -96.6401 -0.0929911 -2.99465
  454 -96.5176 -0.0929853 2.99234
  455 -36.8124 5.32145 20.0470
  456 -36.9053 5.33278 -20.0789
  457 -43.8787 0.637505 14.8975
  458 -43.9196 0.637222 -14.9186
  459 164.405 16.3985 -15.2680
  460 164.407 16.4002 15.3505
  461 247.324 9.21202 -17.9434
  462 247.407 9.15544 17.9775
  463 -3.96640 -14.9922 32.6167
  464 -3.97241 -14.8934 -32.7552
  465 430.699 8.14378 -54.3596
  466 30.0019 -6.09725 -3.30497
  467 28.9559 -6.35120 3.84303
  468 6.97535 -94.0274 -2.40793
  469 4.51192 -109.664 -0.838286
  470 -12.9571 -5.76614 18.5396
  471 -12.9640 -5.78757 -18.5487
  472 92.1803 -2.44697 -101.866
  473 651.285 5.69869 -68.8009
  474 149.785 9.04086 4.63561
  475 149.789 9.04435 -4.62363
  476 217.219 2.60198 -63.4904
  477 217.681 2.53890 64.4129
  478 64.7252 22.0405 5.52151
  479 64.5986 22.1146 -5.50894
  480 196.249 14.3236 -33.7953
  481 196.322 14.2582 34.0332
  482 7.75251 4.35219 28.9898
  483 8.18562 4.57023 -28.9557
  484 -85.8829 1.21944 -6.16720
  485 -85.7691 1.21791 6.16027
  486 428.690 -49.3675 -34.8911
  487 339.717 -0.259643 -1.94168
  488 339.806 -0.260742 1.94252
  489 20.1456 2.07211 -1.77219
  490 20.2133 2.07169 1.77147
  491 -20.7155 7.85806 18.5257
  492 -20.8127 7.87523 -18.5510
  493 -47.8123 2.87209 -6.58509
  494 -47.7121 2.86871 6.57915
  495 149.848 13.9706 -7.13888
  496 149.842 13.9677 7.17068
  497 -16.9559 6.90186 26.3677
  498 -17.0544 6.91789 -26.4167
  499 392.347 -11.3404 -22.6778
  500 393.015 -11.8815 22.3935
  501 258.692 2.54896 -42.3560
  502 258.295 2.37966 42.7111
  503 97.4893 3.97591 -0.654564
  504 97.5198 3.97583 0.655240
  505 1.13697 -45.9193 -26.5725
  506 460.551 -16.2738 35.3096
  507 6.58977 -29.6505 -23.6166
  508 132.374 20.7898 15.8227
  509 132.462 20.7272 -15.6878
  510 424.027 -46.1877 34.5050
  511 33.1658 -37.7853 54.4718
  512 503.781 -62.3365 -67.9245
  513 343.931 0.892325 20.6341
  514 343.775 1.02129 -20.6507
  515 1.09981 -39.2022 27.6538
  516 -6.74389 -2.00304 -5.22621
  517 -6.74671 -2.00194 5.22987
  518 44.0347 1.84739 -0.479641
  519 44.0906 1.84750 0.479504
  520 -1.15248 -26.6926 11.5114
  521 -1.04563 -26.5695 -11.5718
  522 283.497 2.29635 4.67480
  523 283.435 2.29973 -4.67356
  524 792.913 142.892 63.4513
  525 33.8770 -18.2814 -12.1271
  526 26.4162 -25.3648 6.60298
  527 -6.33192 5.87000 -8.94386
  528 -6.24597 5.86130 8.93664
  529 -68.6086 1.08008 8.90368
  530 -68.6752 1.08129 -8.91731
  531 0.700010 -84.6811 16.5556
  532 -94.7011 0.759710 0.782946
  533 -94.8237 0.759771 -0.783563
  534 89.0656 -2.87815 -75.3417
  535 87.1334 -1.46398 78.1648
  536 81.6852 15.1020 -26.9032
  537 81.0722 15.4581 27.0651
  538 -18.3389 -3.77434 25.2561
  539 -18.3690 -3.79114 -25.2949
  540 80.7350 6.68020 1.22549
  541 80.6941 6.68262 -1.22251
  542 -38.6585 1.70791 2.70692
  543 -38.7543 1.70876 -2.70897
  544 94.8096 13.2369 0.941444
  545 94.7651 13.2491 -0.924920
  546 -1.86048 -6.08666 4.47242
  547 -1.86698 -6.08145 -4.47162
  548 34.8952 15.0873 14.5261
  549 34.6640 15.2924 -14.6092
  550 28.1844 5.28636 12.5620
  551 27.7897 5.25087 -12.7994
  552 347.438 1.95136 8.67349
  553 347.346 1.96328 -8.67682
  554 308.151 3.51851 13.9443
  555 308.064 3.55706 -13.9478
  556 -0.315046 -72.1375 -10.5915
  557 216.939 10.2526 -13.9053
  558 216.986 10.2236 13.9335
  559 217.298 4.40140 -5.33980
  560 217.329 4.39409 5.34433
  561 -27.1654 0.832144 0.0657284
  562 -27.0755 0.832379 -0.0657856
  563 376.233 19.9262 -10.4664
  564 483.354 -59.8452 -26.1755
  565 402.313 18.8871 40.9303
  566 3.39293 -60.4599 -19.0656
  567 -19.6724 6.62406 -12.0085
  568 -19.5800 6.61317 11.9964
  569 3.62762 -34.8796 25.8926
  570 -20.9811 0.741989 28.7688
  571 -21.0426 0.738156 -28.8146
  572 617.998 59.2486 2.15146
  573 142.392 5.97409 -2.26814
  574 142.384 5.97222 2.27280
  575 925.592 79.2489 -82.6295
  576 -4.12121 -3.17669 33.3769
  577 -3.79504 -2.92824 -33.4005
  578 510.715 -44.0085 17.4956
  579 410.254 0.0588028 -10.1919
  580 410.353 0.00781045 10.1407
  581 191.094 1.05216 -91.8568
  582 193.308 0.459530 93.2352
  583 -10.3450 -9.90683 29.1958
  584 -10.3563 -9.96000 -29.2753
  585 101.013 10.0022 49.6647
  586 101.856 9.26721 -49.2797
  587 -80.0435 0.910301 -8.31199
  588 -79.9516 0.908791 8.29928
  589 601.781 53.9946 30.0983
  590 116.749 10.1027 1.25238
  591 116.772 10.1006 -1.24242
  592 137.556 17.1694 -34.2982
  593 137.361 17.3754 34.6437
  594 372.150 -1.24462 -20.1407
  595 372.350 -1.42375 20.0979
  596 -1.59063 -37.3173 -26.2232
  597 403.159 -0.695990 3.06721
  598 403.037 -0.693729 -3.06713
  599 -56.6418 1.00683 -1.00449
  600 -56.5377 1.00672 1.00366
  601 -101.641 -0.791066 0.000350966
  602 -101.767 -0.791727 -0.000439422
  603 8.96214 -54.7455 -8.01713
  604 -3.73085 -24.3280 22.5870
  605 -3.93514 -23.0026 -22.7377
  606 -45.3371 2.85216 20.6330
  607 -45.4113 2.85607 -20.6663
  608 283.979 6.33535 17.6723
  609 283.886 6.39478 -17.6629
  610 209.643 2.06377 1.24559
  611 209.619 2.06482 -1.24498
  612 48.3086 -10.6177 32.2081
  613 49.8039 -9.60074 -31.9282
  614 -1.44291 -18.6282 9.73598
  615 -1.48829 -18.5701 -9.76950
  616 482.953 39.4962 208.291
  617 -24.0049 -0.725056 9.00551
  618 -24.0076 -0.728549 -9.01342
  619 8.98279 -33.0109 -18.6731
  620 205.326 7.46737 -7.32702
  621 205.353 7.45668 7.33629
  622 101.749 21.2992 -12.1822
  623 101.547 21.4315 12.3120
  624 0.978344 -126.743 6.17527
  625 76.7270 20.5578 2.78312
  626 76.6313 20.6100 -2.75764
  627 -6.47074 8.35313 14.4561
  628 -6.56288 8.36904 -14.4711
  629 -0.575952 -63.4999 14.4535
  630 -101.902 0.0514241 -3.00124
  631 -101.778 0.0512366 2.99865
  632 135.955 2.99308 0.769442
  633 135.966 2.99431 -0.767998
  634 338.598 0.502738 5.78738
  635 338.510 0.508540 -5.78741
  636 300.335 -17.9419 159.225
  637 241.707 5.37605 -10.8837
  638 241.759 5.35427 10.8939
  639 4.42706 -4.40323 30.5900
  640 5.34108 -2.28670 -30.5003
  641 385.139 -36.1705 -129.236
  642 897.524 30.5548 -34.3344
  643 -94.3313 0.0485927 -5.70978
  644 -94.2218 0.0476641 5.70221
  645 24.9263 4.75224 -4.01555
  646 24.9938 4.74888 4.01424
  647 -1.74815 -39.6920 23.2169
  648 522.117 32.4222 -49.1604
  649 398.568 -0.886772 0.543822
  650 398.447 -0.886029 -0.543399
  651 -25.5688 -1.34608 -20.8489
  652 -25.5394 -1.33920 20.8211
  653 -0.0820656 -90.0481 -13.7909
  654 405.363 -0.879266 1.18224
  655 405.239 -0.878419 -1.18150
  656 39.2056 12.6215 9.61679
  657 39.1278 12.6416 -9.61759
  658 312.086 -26.1558 -85.1925
  659 317.587 -26.0318 86.1023
  660 452.414 -3.07333 7.11038
  661 452.458 -3.04530 -7.38869
  662 2.00274 -112.997 10.5523
  663 -22.6164 0.575130 -1.55658
  664 -22.5285 0.575366 1.55563
  665 149.648 21.8722 -152.054
  666 141.348 2.59823 1.19282
  667 141.357 2.59876 -1.19204
  668 70.7313 4.66129 0.411477
  669 70.6873 4.66236 -0.410355
  670 83.6530 8.53737 -0.647442
  671 83.6942 8.53317 0.653382
  672 266.589 6.97971 -27.3466
  673 266.742 6.86725 27.4179
  674 71.9490 20.7400 -0.617627
  675 71.7310 20.8845 0.646714
  676 -46.5649 3.47089 -11.4806
  677 -46.4657 3.46381 11.4672
  678 -54.6201 3.77606 -13.1702
  679 -54.5215 3.76898 13.1523
  680 465.551 -7.16225 -0.876842
  681 0.791583 -18.2418 -31.4911
  682 466.140 -7.51142 0.258974
  683 594.671 46.1582 -2.13905
  684 -58.2417 0.280473 10.1498
  685 -58.2933 0.280226 -10.1653
  686 62.6055 18.2722 -5.10009
  687 62.1600 18.4892 5.14140
  688 -109.365 0.0361937 -1.02861
  689 -109.236 0.0362906 1.02770
  690 1.18088 -16.3498 31.5122
  691 -36.2406 0.552363 21.8445
  692 -36.2937 0.550229 -21.8778
  693 511.559 -41.1331 -19.4182
  694 82.8739 1.59368 -0.662755
  695 82.8367 1.59320 0.663260
  696 20.4869 7.22603 6.88883
  697 20.4134 7.23388 -6.89138
  698 272.426 -11.9151 -71.4513
  699 274.416 -12.3848 72.7943
  700 935.030 66.7050 74.9766
  701 18.7263 -81.2434 -32.9931
  702 -6.60520 -14.0202 31.1656
  703 -6.61408 -14.0793 -31.2401
  704 58.9256 12.3802 -4.85224
  705 58.9874 12.3662 4.85764
  706 416.705 -0.757418 -3.11615
  707 416.831 -0.760074 3.11464
  708 200.527 2.79259 2.29158
  709 200.506 2.79523 -2.28998
  710 17.7337 14.8318 21.9293
  711 17.6178 14.8762 -21.9683
  712 12.3084 3.45249 2.81668
  713 12.2365 3.45405 -2.81797
  714 -11.1939 3.06790 31.5530
  715 -11.2832 3.06477 -31.6211
  716 343.378 -0.685138 2.45508
  717 343.287 -0.683051 -2.45439
  718 297.934 2.05737 6.62998
  719 297.865 2.06392 -6.62887
  720 41.0668 -22.9238 38.4154
  721 42.2206 -24.7867 -37.1941
  722 -22.3976 5.12196 27.5071
  723 -22.4841 5.12739 -27.5583
  724 12.8420 -26.9329 14.3297
  725 1.85153 9.17739 28.7468
  726 1.71020 9.20028 -28.7874
  727 -64.4306 1.79903 -7.58305
  728 -64.3245 1.79603 7.57471
  729 53.7343 16.5804 8.66810
  730 53.6455 16.6143 -8.66156
  731 461.387 -13.8112 -23.7987
  732 436.837 -37.7017 -12.5278
  733 -6.97566 -14.2892 22.2303
  734 -6.96775 -14.3586 -22.2042
  735 171.457 1.43027 -108.345
  736 167.066 5.01159 109.306
  737 105.005 20.0091 -18.0787
  738 104.736 20.2045 18.2694
  739 9.43395 -15.6872 24.7410
  740 -0.615618 -47.1322 -12.6150
  741 217.343 11.4662 -25.8870
  742 217.441 11.4026 26.0125
  743 0.545389 -92.4118 11.6210
  744 130.433 17.4254 -7.70213
  745 130.399 17.4394 7.75617
  746 438.074 -0.608269 -7.70834
  747 438.135 -0.660251 7.61323
  748 8.86606 -121.738 3.93431
  749 200.184 14.3431 19.7070
  750 200.135 14.3787 -19.6285
  751 55.1100 19.3709 -4.16852
  752 55.3941 19.1793 4.14191
  753 -79.0293 0.519950 -7.04104
  754 -78.9498 0.519322 7.02960
  755 221.392 3.19621 -4.62588
  756 221.424 3.19164 4.62870
  757 137.781 19.3550 -13.3867
  758 137.729 19.3866 13.4863
  759 2.18549 11.9184 22.0264
  760 2.07798 11.9497 -22.0577
  761 438.143 -32.2934 7.15658
  762 -66.3950 1.37927 5.74643
  763 -66.5032 1.38072 -5.75116
  764 933.840 187.358 -133.093
  765 -23.8678 2.45013 5.91417
  766 -23.9576 2.45256 -5.91828
  767 372.042 0.626314 14.2744
  768 371.932 0.688603 -14.3091
  769 691.145 42.5479 -0.0548451
  770 419.996 -1.37901 -5.85021
  771 420.112 -1.38866 5.83939
  772 270.311 3.33686 8.38845
  773 270.253 3.34796 -8.38589
  774 403.734 -43.5801 117.860
  775 176.861 12.3036 -7.79005
  776 176.876 12.2930 7.81326
  777 4.14759 -68.4937 13.5679
  778 462.713 -56.7823 40.1774
  779 281.267 0.198234 1.42325
  780 281.207 0.199655 -1.42275
  781 367.108 -0.198097 0.755693
  782 367.004 -0.197493 -0.755270
  783 -1.61852 -37.0585 -21.7467
  784 2.32625 -62.5039 20.6919
  785 167.942 18.3480 27.3716
  786 167.953 18.3331 -27.1669
  787 923.531 8.64436 8.27030
  788 286.944 2.08747 -33.9694
  789 287.142 1.95276 34.0587
  790 -58.3906 1.93439 15.3627
  791 -58.4801 1.93915 -15.3857
  792 12.5267 -49.1840 3.09539
  793 8.06045 -113.120 -9.54009
  794 650.843 84.8426 -13.6742
  795 -0.561869 -47.0130 11.3900
  796 14.1687 9.89309 25.5451
  797 14.1203 9.88707 -25.6752
  798 89.0198 16.9112 1.45861
  799 88.9611 16.9360 -1.43625
  800 434.404 -19.9970 -7.82908
  801 435.339 -19.7352 6.43450
  802 507.975 83.3246 -197.505
  803 -68.2078 0.645807 -2.52126
  804 -68.0984 0.645435 2.51911
  805 -32.9200 -0.124387 8.46926
  806 -32.9307 -0.125898 -8.47914
  807 32.5184 3.49840 6.53988
  808 31.8373 3.46509 -6.61664
  809 330.381 -2.19973 30.5284
  810 330.138 -1.93430 -30.4527
  811 169.473 3.86340 -1.43785
  812 169.478 3.86145 1.43971
  813 531.748 -6.04439 44.8460
  814 58.0470 8.62017 -4.36416
  815 58.1033 8.61309 4.36697
  816 53.5025 8.18323 -10.4635
  817 53.0242 8.42585 10.5795
  818 -0.0381877 -36.2329 -28.9429
  819 745.818 121.811 111.312
  820 -107.341 0.0875135 -3.01331
  821 -107.216 0.0873456 3.01020
  822 -0.158310 -112.254 10.8423
  823 8.39422 -15.5255 -25.0659
  824 -16.4051 -0.992976 6.32654
  825 -16.3991 -0.995623 -6.32898
  826 599.565 37.7418 -29.0609
  827 158.173 15.0521 -9.82505
  828 158.171 15.0491 9.87449
  829 411.773 -6.33747 -15.4247
  830 412.162 -6.39502 15.2162
  831 -102.826 0.751052 4.05552
  832 -102.944 0.752032 -4.06054
  833 -0.749599 -0.775237 -0.643162
  834 -0.751120 -0.776624 0.645725
  835 0.322102 -114.768 -10.5565
  836 0.523986 -120.155 -9.35630
  837 -112.510 1.04437 0.573924
  838 -112.642 1.04465 -0.574295
  839 64.1680 -14.6655 -72.4125
  840 256.217 2.49703 -2.52417
  841 256.265 2.49507 2.52501
  842 -5.98005 1.78582 0.742498
  843 -6.05989 1.78592 -0.742882
  844 378.662 0.652152 -9.43621
  845 378.765 0.631297 9.42197
  846 -43.2359 0.292988 8.04193
  847 -43.2585 0.292999 -8.05236
  848 231.375 6.63543 -161.467
  849 397.121 -33.5943 33.8476
  850 310.971 0.874442 -3.04293
  851 311.046 0.872313 3.04363
  852 393.616 -36.4961 -37.6574
  853 124.618 13.2188 -3.42086
  854 124.593 13.2224 3.44502
  855 171.212 10.5379 -6.01348
  856 171.221 10.5307 6.02855
  857 461.158 -9.76815 18.1981
  858 29.5921 16.8790 17.7372
  859 29.4614 16.9416 -17.7876
  860 31.2983 1.64660 1.27290
  861 31.2361 1.64655 -1.27339
  862 218.420 2.16168 2.16479
  863 218.391 2.16361 -2.16370
  864 566.684 -48.6907 67.4225
  865 355.843 1.56496 -12.4258
  866 355.946 1.52612 12.4066
  867 7.24829 5.10756 5.43002
  868 7.17154 5.11209 -5.43277
  869 356.256 -0.774377 3.53835
  870 356.159 -0.771707 -3.53766
  871 -64.1178 0.246789 -1.71640
  872 -64.0100 0.247171 1.71552
  873 -0.304121 -36.0246 10.1719
  874 -0.402405 -36.5878 -10.2481
  875 430.912 -5.55217 44.1769
  876 -25.0065 6.64182 23.0619
  877 -25.1009 6.65691 -23.1001
  878 -0.140619 -59.2470 -11.2061
  879 171.132 5.67950 -3.14480
  880 171.139 5.67682 3.14867
  881 313.524 -15.6246 -54.6375
  882 315.893 -17.2729 55.1638
  883 -13.0904 -4.48559 -31.2712
  884 -13.0291 -4.48444 31.2021
  885 18.4030 14.8420 20.0730
  886 18.2904 14.8829 -20.0999
  887 1.47981 -134.190 7.33446
  888 5.38508 11.7691 26.1506
  889 5.26301 11.7994 -26.1920
  890 289.731 -5.23558 -48.6203
  891 289.087 -5.44777 49.0045
  892 500.307 28.9119 51.3836
  893 116.240 12.2673 1.84246
  894 116.268 12.2636 -1.82674
  895 364.856 1.80103 -9.27665
  896 364.955 1.78518 9.26903
  897 -14.1304 -6.09059 27.5637
  898 -14.1592 -6.11545 -27.6162
  899 1.29565 -137.607 -4.52541
  900 -21.7448 -1.36315 26.9828
  901 -21.7906 -1.36798 -27.0254
  902 15.5145 13.2623 -15.6445
  903 15.6106 13.2334 15.6294
  904 -1.12079 -9.09545 5.02645
  905 -1.13359 -9.08654 -5.03406
  906 32.8178 14.9528 -13.7829
  907 32.9173 14.9170 13.7745
  908 7.18601 -10.1625 28.1338
  909 6.29039 -9.45017 -29.6559
  910 355.511 -10.3832 31.2098
  911 354.679 -9.91355 -31.3622
  912 -114.940 0.282373 -0.843405
  913 -114.808 0.282391 0.842798
  914 -10.1037 -0.903387 4.76811
  915 -10.0949 -0.905021 -4.76694
  916 0.475106 -84.1531 -10.1912
  917 -10.7868 -4.61064 -13.5423
  918 -10.7821 -4.59879 13.5424
  919 -44.8252 3.85396 19.7406
  920 -44.9111 3.86167 -19.7726
  921 112.397 21.1347 -8.04649
  922 112.305 21.2000 8.12523
  923 476.066 37.0414 -7.38501
  924 -4.08746 10.5541 20.0088
  925 -4.18827 10.5786 -20.0353
  926 176.684 11.4000 -51.3652
  927 176.678 11.5610 51.9089
  928 -19.4566 7.29183 16.0953
  929 -19.5521 7.30776 -16.1159
  930 569.662 -25.2222 -6.21790
  931 351.225 13.9819 22.3278
  932 417.955 -4.87452 -39.9485
  933 311.106 3.60011 -20.6759
  934 311.234 3.50869 20.6794
  935 -31.1990 4.25783 -7.74544
  936 -31.1052 4.25211 7.73822
  937 -73.1001 1.29610 9.77611
  938 -73.2017 1.29923 -9.79007
  939 -4.43646 -14.3893 -15.7072
  940 -4.40446 -14.4002 15.7346
  941 111.743 6.63150 1.07150
  942 111.767 6.63098 -1.06720
  943 -34.0660 3.65143 24.5893
  944 -34.1407 3.65381 -24.6316
  945 371.397 -0.526704 4.61389
  946 371.292 -0.523527 -4.61350
  947 -2.75942 -31.5023 23.6693
  948 15.4158 12.1059 -13.3736
  949 15.5052 12.0834 13.3630
  950 20.8865 8.26281 8.62550
  951 20.8098 8.27400 -8.62955
  952 65.9850 5.56990 -1.84412
  953 66.0322 5.56768 1.84510
  954 696.953 92.3758 -23.5032
  955 -2.79351 -0.761516 -1.89885
  956 -2.79949 -0.761429 1.90228
  957 24.8914 7.46342 -16.5946
  958 25.3086 7.27146 16.5133
  959 251.865 9.49249 -21.9618
  960 251.968 9.41724 22.0126
  961 33.8301 10.4628 -8.12052
  962 33.9042 10.4486 8.11897
  963 69.3183 -9.63588 95.4676
  964 470.191 -3.48060 -4.09465
  965 469.575 -3.35187 3.67363
  966 84.9202 -4.64501 83.7397
  967 89.5138 3.33644 -0.455108
  968 89.4796 3.33659 0.455818
  969 229.997 -5.48950 -139.724
  970 173.601 2.37788 1.16663
  971 173.594 2.37861 -1.16595
  972 22.4774 -21.0897 3.36259
  973 24.8369 -17.4637 -1.49272
  974 415.900 -0.556214 1.58430
  975 415.770 -0.555445 -1.58343
  976 -34.1311 0.142950 19.9008
  977 -34.1706 0.140689 -19.9283
  978 746.637 93.9839 44.7201
  979 -3.06050 -23.3682 -31.0548
  980 3.94662 -114.003 14.8150
  981 -0.459253 -37.2153 28.5947
  982 430.279 -0.494181 -5.96915
  983 430.384 -0.508337 5.94789
  984 -5.68242 -10.4167 13.5822
  985 -5.69849 -10.4181 -13.5696
  986 540.765 57.0578 -27.0811
  987 936.387 7.75824 -5.53402
  988 -1.40626 -2.13837 -2.06664
  989 -1.40469 -2.14289 2.06963
  990 251.711 2.30793 -4.79728
  991 251.757 2.30393 4.79913
  992 -3.12769 -22.4366 31.1996
  993 349.305 1.09751 18.3704
  994 349.180 1.19049 -18.3947
  995 459.127 -30.0885 -17.0285
  996 -15.9777 -3.31234 15.2933
  997 -15.9847 -3.32506 -15.3021
  998 7.85122 -28.9313 21.5819
  999 -0.699494 -56.3539 22.4519
  1000 -0.0681176 -58.7938 11.1938
  1001 474.402 30.4747 -2.81846
  1002 540.243 59.3342 14.6333
  1003 385.770 -43.4863 -65.6649
  1004 5.69256 -54.2848 17.3259
  1005 7.17329 -77.7487 3.01871
  1006 108.601 2.14235 0.243634
  1007 108.576 2.14196 -0.243600
  1008 -4.26858 -4.86824 -6.50307
  1009 -4.26468 -4.86900 6.50800
  1010 3.83797 -44.6156 -23.5083
  1011 310.474 -0.105796 -1.11767
  1012 310.548 -0.107025 1.11802
  1013 63.3972 1.27647 -32.1267
  1014 60.6856 1.42039 31.8202
  1015 -4.78569 9.69435 26.5151
  1016 -4.90194 9.72115 -26.5645
  1017 -35.4482 5.54646 -16.4399
  1018 -35.3521 5.53486 16.4175
  1019 238.464 3.82686 -49.9560
  1020 238.585 4.04074 50.4857
  1021 172.180 15.0568 -35.3291
  1022 172.151 15.0605 35.6467
  1023 186.485 12.8659 -12.1231
  1024 186.509 12.8461 12.1589
  1025 481.790 -12.3760 -51.0967
  1026 -11.9687 6.04273 29.2848
  1027 -12.0724 6.05145 -29.3507
  1028 340.841 -0.831048 25.1884
  1029 340.647 -0.631398 -25.1865
  1030 -2.00679 -17.3805 32.4703
  1031 -27.4260 -0.891069 14.7327
  1032 -27.4425 -0.895718 -14.7496
  1033 310.808 2.33292 -25.0816
  1034 310.969 2.20306 25.0978
  1035 388.181 9.67597 -36.7972
  1036 -0.400490 -55.9947 -23.5497
  1037 -4.48098 -22.0242 28.0387
  1038 -4.67172 -22.2956 -27.8072
  1039 219.990 12.2609 -18.2818
  1040 220.056 12.2137 18.3377
  1041 276.607 4.48539 10.3666
  1042 276.543 4.50264 -10.3639
  1043 458.185 -29.3922 14.7107
  1044 24.5785 1.92461 -0.344292
  1045 24.6436 1.92456 0.344129
  1046 389.980 -48.6237 70.0375
  1047 -0.285429 1.27084 1.78521
  1048 -0.362756 1.27088 -1.78616
  1049 85.5849 21.3313 -0.791984
  1050 85.4658 21.4039 0.835083
  1051 33.2016 16.8423 15.1460
  1052 33.0917 16.8863 -15.1603
  1053 4.38084 -67.7111 -14.1429
  1054 114.250 3.75007 0.493010
  1055 114.273 3.75081 -0.490707
  1056 342.990 11.0723 9.22477
  1057 313.539 1.83689 9.58872
  1058 313.460 1.85316 -9.59010
  1059 -1.67742 -18.0757 -32.5284
  1060 471.142 -6.07916 -9.09128
  1061 0.439971 -1.18799 32.0790
  1062 0.797787 -0.929305 -31.9222
  1063 427.634 -0.898444 -3.30400
  1064 427.763 -0.901735 3.30040
  1065 455.815 -1.71451 -5.81575
  1066 455.765 -1.77128 5.67052
  1067 -0.344727 -89.0287 8.40295
  1068 269.044 6.22817 -13.6972
  1069 269.110 6.19899 13.7035
  1070 326.597 2.44521 11.1341
  1071 326.511 2.46659 -11.1386
  1072 8.09123 8.03841 28.6251
  1073 8.04542 8.03991 -28.6615
  1074 708.309 46.3991 7.95654
  1075 -8.72387 -3.66791 33.2109
  1076 -8.86571 -3.58522 -33.2977
  1077 102.945 19.6106 -2.12196
  1078 102.885 19.6428 2.16082
  1079 -55.0490 0.904188 -2.80233
  1080 -54.9456 0.903928 2.80039
  1081 168.416 10.1178 -59.0777
  1082 168.176 10.5819 59.7595
  1083 49.2339 19.0257 11.3215
  1084 49.1144 19.0812 -11.3257
  1085 114.762 13.8496 -44.0307
  1086 114.174 14.4074 44.3874
  1087 -2.95172 -29.5938 -23.0714
  1088 403.081 5.86331 48.6665
  1089 280.924 4.27899 180.798
  1090 46.3089 19.6495 11.6695
  1091 46.1694 19.7226 -11.6858
  1092 170.586 8.43038 -4.61967
  1093 170.594 8.42408 4.62955
  1094 612.090 5.47524 10.9345
  1095 40.3957 10.6805 6.62696
  1096 39.8906 10.8023 -6.78387
  1097 -18.1095 -3.93376 20.3185
  1098 -18.1257 -3.95245 -20.3403
  1099 -0.593627 -13.5722 5.48212
  1100 -0.617339 -13.5642 -5.50429
  1101 402.679 -0.781913 14.7398
  1102 402.526 -0.636546 -14.8377
  1103 0.765429 -28.0607 30.3968
  1104 -27.2213 1.83761 -26.9038
  1105 -27.1592 1.84103 26.8606
  1106 0.133311 -107.405 -10.6027
  1107 -6.05289 -8.57711 33.1622
  1108 -6.03487 -8.38967 -33.1975
  1109 384.745 0.102125 -6.20661
  1110 384.854 0.0949730 6.20353
  1111 397.469 -3.43947 17.7968
  1112 397.192 -3.20363 -17.8938
  1113 70.5815 16.1020 -15.6863
  1114 70.0474 16.4011 15.8130
  1115 -0.924147 -55.3336 -19.2157
  1116 522.518 -45.0139 -106.585
  1117 677.031 90.9330 8.93311
  1118 7.19629 -81.8133 -0.324172
  1119 25.2822 14.2152 -20.4229
  1120 25.4306 14.1386 20.3107
  1121 66.2421 21.1088 4.41463
  1122 66.0828 21.2044 -4.40203
  1123 138.908 7.65062 2.07316
  1124 138.918 7.65281 -2.06591
  1125 -8.68546 -12.3715 26.2765
  1126 -8.67379 -12.4916 -26.3197
  1127 -24.0773 7.76364 21.1663
  1128 -24.1738 7.78079 -21.1977
  1129 -7.94733 9.91321 24.4997
  1130 -8.05459 9.93784 -24.5408
  1131 380.205 -19.4825 -30.7669
  1132 382.603 -19.6207 30.5392
  1133 0.397203 -63.2525 -22.3155
  1134 204.351 0.115114 -73.6555
  1135 204.646 0.747287 74.8399
  1136 66.1837 19.1177 -5.42605
  1137 66.2724 19.0743 5.44055
  1138 202.731 104.541 201.813
  1139 52.1284 15.2465 8.31923
  1140 52.0489 15.2724 -8.31457
  1141 517.233 -55.0413 -27.4861
  1142 196.902 4.83902 3.67774
  1143 196.882 4.84382 -3.67394
  1144 -8.77774 -7.81387 16.1280
  1145 -8.78436 -7.83305 -16.1237
  1146 -10.4535 -9.35951 20.8322
  1147 -10.4544 -9.39730 -20.8359
  1148 340.954 -33.6223 -102.765
  1149 347.642 -37.0896 103.509
  1150 62.7193 1.96606 0.908103
  1151 62.7664 1.96625 -0.907380
  1152 215.046 9.81559 -40.7802
  1153 215.042 9.69581 41.1733
  1154 465.173 -60.6401 79.2240
  1155 412.696 -1.05468 0.915118
  1156 412.567 -1.05388 -0.914453
  1157 -36.0613 5.80342 18.9238
  1158 -36.1563 5.81530 -18.9514
  1159 -62.3520 1.88762 -9.83055
  1160 -62.2477 1.88381 9.81992
  1161 107.648 5.54979 122.737
  1162 331.573 21.8883 -18.7563
  1163 196.702 13.5508 -20.4503
  1164 196.755 13.5164 20.5541
  1165 601.937 -13.3310 115.152
  1166 199.957 13.1358 -29.9653
  1167 200.020 13.0755 30.1454
  1168 51.2417 6.02503 -2.94123
  1169 51.2971 6.02181 2.94175
  1170 17.6690 -60.8970 13.0656
  1171 17.8558 -59.1831 -17.7935
  1172 270.428 -17.9531 -103.777
  1173 274.065 -16.7256 103.671
  1174 106.758 17.9343 -31.1570
  1175 106.308 18.2890 31.4470
  1176 473.832 -31.0037 -32.7553
  1177 -16.9209 -1.28423 30.3781
  1178 -16.9829 -1.28445 -30.4310
  1179 -0.143275 -25.0307 -31.2407
  1180 122.229 5.00523 -77.8520
  1181 122.494 5.34554 79.1344
  1182 -0.302698 -24.0358 6.10365
  1183 -0.258791 -24.0947 -6.17950
  1184 -112.471 0.926889 -2.85198
  1185 -112.345 0.926243 2.84872
  1186 375.582 -0.509879 -1.75979
  1187 375.691 -0.511225 1.76038
  1188 233.659 8.00868 -11.9316
  1189 233.712 7.98136 11.9486
  1190 -8.07075 0.204593 33.1290
  1191 -8.09584 0.340861 -33.1939
  1192 0.0134530 -96.0820 -9.33286
  1193 -95.8162 0.214486 4.67448
  1194 -95.9201 0.215056 -4.68160
  1195 75.9790 0.423481 -55.1667
  1196 75.4233 0.895095 56.8560
  1197 439.757 -26.8351 -2.61862
  1198 127.169 9.19839 -70.0276
  1199 127.248 9.51397 70.6775
  1200 -53.4960 0.292884 7.29993
  1201 -53.5309 0.292544 -7.31032
  1202 1.45153 -83.0476 -15.4065
  1203 -14.0435 3.12256 -3.58665
  1204 -13.9590 3.12082 3.58446
  1205 67.8788 16.0042 5.77054
  1206 67.8042 16.0316 -5.75809
  1207 248.105 0.780057 -1.54372
  1208 248.149 0.778673 1.54437
  1209 333.495 1.09886 7.28891
  1210 333.409 1.10887 -7.29027
  1211 18.9367 -1.56073 17.1955
  1212 18.6555 -1.88011 -17.5388
  1213 3.27230 -47.4884 23.5449
  1214 598.671 83.5587 18.0528
  1215 -18.4164 -1.42457 11.6031
  1216 -18.4198 -1.43080 -11.6102
  1217 2.60224 -44.4797 -24.7245
  1218 -1.73956 -27.9147 16.9589
  1219 -1.65490 -27.6475 -17.5684
  1220 472.992 -5.20673 8.04889
  1221 0.411820 -109.818 9.53222
  1222 3.68966 -32.5077 -27.5937
  1223 58.2874 1.43730 0.534200
  1224 58.2384 1.43694 -0.534406
  1225 -4.52882 -19.6715 30.7629
  1226 -50.6842 2.85369 -8.24258
  1227 -50.5829 2.84993 8.23473
  1228 954.008 16.2349 27.4402
  1229 -26.8212 3.26924 27.1180
  1230 -26.8946 3.26868 -27.1653
  1231 229.550 8.92457 -36.8520
  1232 229.729 8.76969 37.0618
  1233 15.3153 -21.1688 -10.7848
  1234 218.293 10.6098 -15.1079
  1235 218.347 10.5730 15.1463
  1236 9.22447 -64.7998 -2.51165
  1237 -4.54662 -19.7181 -30.7211
  1238 -34.7230 1.29497 4.80822
  1239 -34.8172 1.29607 -4.81152
  1240 -16.1107 1.43405 -30.9878
  1241 -16.0351 1.43937 30.9374
  1242 467.254 37.7251 36.2379
  1243 265.101 2.72525 -38.8526
  1244 265.396 2.65815 38.9487
  1245 -117.368 0.245612 -1.00307
  1246 -117.235 0.245534 1.00210
  1247 238.678 5.19544 -8.06701
  1248 238.721 5.18542 8.07193
  1249 -120.135 -2.11369 -0.330127
  1250 -120.270 -2.11485 0.330246
  1251 355.568 -25.1809 -44.5228
  1252 -55.5483 0.963756 15.3533
  1253 -55.6152 0.964257 -15.3779
  1254 359.071 -26.5797 44.1226
  1255 242.937 8.29064 -16.2792
  1256 243.003 8.24779 16.3025
  1257 28.8704 -58.9986 -54.6290
  1258 0.529439 -76.5309 -19.0871
  1259 -1.50943 -32.1044 28.8249
  1260 754.613 133.539 -112.514
  1261 -0.170201 -71.9709 18.7441
  1262 787.925 74.4871 -50.0573
  1263 -0.461408 -133.475 -8.83464
  1264 39.9627 3.51304 -0.893375
  1265 40.0212 3.51193 0.893472
  1266 -0.328729 -30.8508 6.39459
  1267 -0.263604 -31.0165 -6.37855
  1268 136.465 2.88860 0.266741
  1269 136.476 2.88928 -0.266082
  1270 478.843 -35.6003 31.0151
  1271 11.4414 3.35831 -4.15429
  1272 11.5144 3.35625 4.15238
  1273 2.76023 -144.786 3.75859
  1274 1.75432 -154.378 -3.73649
  1275 440.357 -53.7926 -48.2023
  1276 -1.19088 -39.8630 18.7042
  1277 463.879 30.5407 -46.2059
  1278 -1.37170 -52.5267 18.3626
  1279 0.934033 -143.095 -6.60359
  1280 222.938 5.76639 -8.92098
  1281 222.976 5.74851 8.93153
  1282 -0.173843 -78.4915 8.29589
  1283 -0.190348 -64.9286 -18.6608
  1284 1031.03 184.876 158.874
  1285 414.552 0.114408 0.693714
  1286 414.422 0.114490 -0.693261
  1287 11.6676 1.47227 25.8264
  1288 11.3082 1.91932 -25.9530
  1289 -5.73800 6.28634 30.9070
  1290 -5.89704 6.29322 -30.9865
  1291 445.281 -8.07534 -28.4002
  1292 411.611 -17.4061 -17.8982
  1293 411.237 -19.7656 18.1170
  1294 63.2317 6.85173 2.89076
  1295 63.1806 6.85559 -2.88853
  1296 -66.6830 1.77289 -11.8623
  1297 -66.5865 1.76904 11.8443
  1298 458.866 -61.5157 -67.8359
  1299 -3.41720 -8.29219 8.48131
  1300 -3.43065 -8.28673 -8.47783
  1301 484.644 -19.8669 48.2386
  1302 -5.01472 -19.0026 22.7596
  1303 -4.95893 -19.0744 -22.6561
  1304 -41.3605 2.71402 5.76721
  1305 -41.4580 2.71674 -5.77198
  1306 74.5151 9.37016 -29.2499
  1307 73.7674 9.78723 29.2252
  1308 116.412 2.75067 0.232447
  1309 116.391 2.75005 -0.231892
  1310 -45.8941 4.65148 18.7669
  1311 -45.9850 4.66028 -18.7950
  1312 389.401 0.720542 1.07801
  1313 389.285 0.720420 -1.07737
  1314 216.907 0.170631 138.318
  1315 319.064 0.231688 2.58273
  1316 318.985 0.233151 -2.58185
  1317 213.887 4.60890 -56.3086
  1318 213.908 4.36805 56.7848
  1319 2.09621 -83.1449 -10.6537
  1320 83.7110 20.0584 -13.0931
  1321 83.3504 20.2938 13.2267
  1322 -0.820328 -0.728837 -1.06877
  1323 -0.824463 -0.729028 1.07188
  1324 274.200 7.74826 20.9384
  1325 274.096 7.82866 -20.9136
  1326 137.383 10.6187 3.68183
  1327 137.396 10.6203 -3.66705
  1328 201.389 10.6704 -10.4269
  1329 201.422 10.6498 10.4509
  1330 262.504 1.01013 -2.59923
  1331 262.555 1.00859 2.60024
  1332 -8.33041 -4.02025 -9.57074
  1333 -8.32828 -4.01509 9.57489
  1334 -78.0222 0.0185410 3.41799
  1335 -78.1359 0.0188199 -3.42097
  1336 -14.0934 -6.42058 -23.2563
  1337 -14.0804 -6.38733 23.2297
  1338 -43.3901 0.558656 1.41484
  1339 -43.4879 0.558376 -1.41568
  1340 -121.567 1.09063 0.569072
  1341 -121.703 1.09100 -0.569433
  1342 492.610 -59.7087 91.9400
  1343 362.579 -1.92594 -39.8257
</Section>

newXOutput 59

<Section columns = "stress_xx | stress_yy | stress_xy">
  1 433.745 -0.715234 0.452721
  2 433.885 -0.715749 -0.452947
  3 -133.671 0.616771 -1.83123
  4 0.213208 0.0515512 0.379763
  5 782.178 234.974 258.141
  6 884.479 265.014 -248.429
  7 0.212222 0.0506561 -0.378452
  8 -133.526 0.616643 1.83035
  9 432.464 -0.681217 -1.43800
  10 432.831 -1.38105 -2.31891
  11 436.898 -1.37687 -0.632995
  12 437.374 -1.33880 -2.74288
  13 438.539 -1.31951 -0.877435
  14 447.636 -1.23923 -1.20671
  15 450.848 -1.77199 -3.68170
  16 454.369 -0.883456 -2.53853
  17 456.671 0.0486899 -4.89599
  18 475.066 -2.70095 -4.19044
  19 483.141 -2.12982 -5.37360
  20 492.146 -3.16470 -2.21178
  21 496.627 -4.15005 -1.42405
  22 493.762 -4.73220 6.04293
  23 477.875 -5.24203 12.9151
  24 440.498 -5.72980 27.8730
  25 379.403 3.43649 32.5252
  26 329.396 4.25092 30.1460
  27 259.444 8.37781 18.2579
  28 275.478 8.14232 1.78891
  29 232.658 24.0962 -11.5439
  30 313.556 11.1494 -33.0391
  31 357.656 2.85300 -26.9783
  32 432.119 -1.16843 -23.3730
  33 472.756 -6.35824 -15.5295
  34 493.120 -5.50858 -5.99987
  35 495.763 -4.02503 1.45848
  36 491.563 -3.12481 2.08615
  37 482.933 -2.14253 5.22404
  38 475.028 -2.73385 4.10591
  39 456.751 0.0302045 4.85707
  40 454.488 -0.890422 2.52457
  41 450.987 -1.77654 3.67780
  42 447.781 -1.24166 1.20505
  43 438.681 -1.32115 0.877193
  44 437.517 -1.34022 2.74452
  45 437.040 -1.37795 0.633547
  46 432.971 -1.38199 2.32046
  47 432.604 -0.681723 1.43896
  48 409.415 0.918558 -0.547269
  49 379.511 0.149387 -1.20531
  50 342.070 -1.54202 -1.19799
  51 303.182 0.677907 -0.996461
  52 269.041 0.352384 -0.789797
  53 232.447 1.52205 -0.932036
  54 196.264 3.41799 -0.551314
  55 158.637 3.01747 -1.17075
  56 127.386 2.01026 -1.64898
  57 86.3149 1.15965 -1.73768
  58 44.5450 2.05558 -1.32692
  59 9.64658 1.71337 -1.28325
  60 -33.9400 0.959658 -1.16724
  61 -66.3513 -0.502652 -2.89344
  62 -97.7546 -2.19473 -1.31811
  63 -129.631 0.249261 0.902836
  64 -136.557 2.33703 -0.320528
  65 -137.078 1.02144 0.431011
  66 -132.536 0.498886 -0.131793
  67 -134.103 1.49817 -1.62424
  68 -132.036 1.82745 -0.105218
  69 -124.938 0.549022 -2.50498
  70 -126.559 1.12911 -2.70199
  71 -123.454 1.06726 -1.49614
  72 -114.346 0.660680 -2.28029
  73 -110.246 1.21040 -3.80065
  74 -103.601 1.36097 -3.10469
  75 -91.7550 0.691634 -5.43165
  76 -85.1216 0.214634 -4.53671
  77 -73.0917 0.307940 -5.25264
  78 -62.7532 0.244324 -5.83302
  79 -53.7112 0.0858765 -4.60451
  80 -41.1258 0.273568 -4.64436
  81 -30.2622 -0.110127 -4.97583
  82 -19.7477 -0.537756 -4.37908
  83 -11.4062 -0.472155 -3.36121
  84 -5.61596 -0.832033 -2.81310
  85 -0.953647 -0.481422 -1.00971
  86 0.0525984 -0.538357 -0.363899
  87 -0.290043 -0.293120 -0.0752409
  88 -0.754156 -0.772546 -0.885285
  89 -0.732747 -4.75356 -2.44450
  90 -0.621905 -10.6343 -3.47589
  91 -0.319174 -18.1151 -5.06379
  92 -0.162397 -27.8077 -4.36476
  93 -0.128984 -36.7016 -5.49110
  94 -0.668696 -47.5313 -6.18836
  95 -0.274059 -60.9207 -6.23830
  96 0.126455 -74.4044 -5.96874
  97 0.290892 -88.8404 -5.88356
  98 0.451015 -103.658 -5.77647
  99 0.0159183 -114.472 -7.81085
  100 0.757011 -129.931 -6.98352
  101 0.938067 -148.011 -5.53444
  102 -0.0891172 -155.783 -7.34246
  103 1.32778 -168.746 -6.77570
  104 3.30757 -185.953 -3.02086
  105 6.47873 -190.035 -4.80290
  106 4.67016 -171.927 5.50108
  107 6.97941 -126.328 20.8998
  108 34.1156 -65.1788 58.5859
  109 105.519 168.052 191.572
  110 1200.80 65.7357 120.089
  111 1032.49 19.1577 43.4213
  112 999.209 6.77365 10.0002
  113 991.990 2.02356 -1.59585
  114 998.859 10.5923 -22.8921
  115 1031.03 34.9003 -51.6694
  116 1169.49 128.715 -152.662
  117 254.156 131.482 -233.416
  118 57.6985 -64.6436 -70.6691
  119 17.0544 -138.404 -26.8151
  120 4.76263 -162.653 -5.85450
  121 5.24002 -182.742 2.35127
  122 1.47486 -178.565 2.19745
  123 0.506315 -164.497 5.69672
  124 0.563916 -155.043 4.49777
  125 0.813530 -139.828 7.86802
  126 -0.0401983 -131.135 7.69601
  127 0.321827 -118.518 5.53170
  128 0.636645 -102.427 7.06900
  129 0.129455 -90.9235 5.60010
  130 0.184450 -74.4787 7.07742
  131 -0.744162 -61.6594 6.08751
  132 -0.514618 -47.5694 5.99348
  133 -0.0891481 -36.4961 5.50434
  134 -0.211936 -27.6465 4.37195
  135 -0.311221 -18.0619 5.01411
  136 -0.612776 -10.6273 3.45853
  137 -0.728833 -4.76082 2.44277
  138 -0.753145 -0.780370 0.887057
  139 -0.289995 -0.296481 0.0774969
  140 0.0485091 -0.538856 0.365937
  141 -0.961313 -0.481132 1.01228
  142 -5.62737 -0.831197 2.81560
  143 -11.4213 -0.470650 3.36191
  144 -19.7593 -0.535900 4.37714
  145 -30.2644 -0.108590 4.97057
  146 -41.1167 0.273872 4.63820
  147 -53.6867 0.0866308 4.59802
  148 -62.7144 0.245223 5.82546
  149 -73.0336 0.307891 5.24461
  150 -85.0459 0.214546 4.52908
  151 -91.6671 0.691148 5.42403
  152 -103.496 1.36010 3.09867
  153 -110.132 1.20943 3.79562
  154 -114.222 0.660038 2.27699
  155 -123.322 1.06656 1.49394
  156 -126.423 1.12853 2.69962
  157 -124.801 0.548810 2.50302
  158 -131.893 1.82661 0.104649
  159 -133.959 1.49752 1.62316
  160 -132.392 0.498774 0.131570
  161 -136.932 1.02106 -0.430874
  162 -136.410 2.33604 0.320327
  163 -129.488 0.249302 -0.902470
  164 -97.6275 -2.19336 1.31746
  165 -66.2397 -0.501905 2.89208
  166 -33.8443 0.959840 1.16665
  167 9.72112 1.71332 1.28263
  168 44.6026 2.05551 1.32630
  169 86.3523 1.16024 1.73690
  170 127.403 2.01067 1.64826
  171 158.639 3.01765 1.17026
  172 196.248 3.41805 0.551047
  173 232.412 1.52294 0.931534
  174 268.988 0.353642 0.789308
  175 303.111 0.678642 0.995815
  176 341.979 -1.54046 1.19728
  177 379.400 0.149676 1.20463
  178 409.288 0.918251 0.546968
  179 116.558 19.9374 -5.86417
  180 116.488 19.9765 5.92607
  181 -1.53517 3.70786 31.9739
  182 -1.66285 3.67956 -31.9944
  183 263.314 -3.50502 -60.1234
  184 263.114 -4.00198 60.7411
  185 53.3559 12.9719 -4.10010
  186 52.7239 13.1898 4.11267
  187 39.8198 6.37909 -4.52414
  188 39.8842 6.37381 4.52357
  189 248.635 4.25000 -9.06171
  190 248.684 4.23514 9.06848
  191 -3.06575 9.90551 17.0766
  192 -3.16403 9.92724 -17.0971
  193 288.763 6.90104 -22.8604
  194 288.897 6.80367 22.8929
  195 -11.0706 -9.59810 25.7840
  196 -11.0690 -9.65592 -25.8190
  197 2.85064 -22.5481 -30.2721
  198 91.1071 6.67893 -56.0902
  199 3.44035 -24.1447 29.5224
  200 89.6666 7.38652 56.9370
  201 408.507 -53.6547 -86.8933
  202 422.479 -55.7628 83.4790
  203 148.201 4.45367 -1.72161
  204 148.194 4.45211 1.72452
  205 -21.5413 1.47152 -3.25368
  206 -21.4512 1.47104 3.25170
  207 -31.7803 5.01463 24.6014
  208 -31.8679 5.02377 -24.6447
  209 149.022 13.1364 -4.99055
  210 149.015 13.1355 5.01157
  211 46.2504 19.1245 10.8756
  212 46.0681 19.2377 -10.9210
  213 -40.2592 4.35676 -9.93400
  214 -40.1591 4.35033 9.92362
  215 328.963 0.0978810 4.25302
  216 328.880 0.101611 -4.25226
  217 10.9294 -42.2468 11.9676
  218 11.8760 -38.1160 -10.4209
  219 -2.98064 -27.2136 28.9913
  220 -3.05800 -28.2987 -28.0899
  221 138.033 19.7639 -25.0194
  222 137.900 19.8623 25.2543
  223 -29.0626 -0.0247025 25.0252
  224 -29.1124 -0.0291317 -25.0631
  225 351.892 1.62933 -12.3754
  226 351.989 1.60139 12.3653
  227 379.262 -5.85812 -24.5670
  228 379.565 -6.22971 24.4820
  229 607.257 45.6494 0.323249
  230 557.181 62.7917 29.5258
  231 547.569 -2.75823 -45.6728
  232 68.7562 14.7441 5.47254
  233 68.6888 14.7657 -5.46320
  234 5.73222 12.4215 24.2269
  235 5.61294 12.4579 -24.2652
  236 423.729 -25.5899 -17.2479
  237 421.297 -25.8939 18.6312
  238 235.168 1.56200 -3.35914
  239 235.204 1.55870 3.36086
  240 -51.1268 3.64504 16.3054
  241 -51.2236 3.65299 -16.3294
  242 -7.14063 -7.02159 -11.6662
  243 -7.13355 -7.01642 11.6727
  244 -56.0333 1.26460 4.95194
  245 -56.1397 1.26599 -4.95606
  246 194.265 13.9680 -15.7118
  247 194.298 13.9413 15.7686
  248 246.635 7.07725 -34.5169
  249 246.819 6.95855 34.6636
  250 61.0806 3.46051 -0.104909
  251 61.1307 3.45984 0.105342
  252 143.306 4.58007 -119.452
  253 169.258 8.40044 129.841
  254 19.9549 9.29926 22.7659
  255 19.8675 9.49212 -22.8703
  256 574.316 -41.4629 -14.5741
  257 51.6368 18.8695 9.46107
  258 51.5327 18.9163 -9.45861
  259 140.705 15.4375 -45.7072
  260 140.430 15.8061 46.1743
  261 643.204 92.1130 -1.82984
  262 381.606 -0.158537 16.7435
  263 381.466 -0.0481482 -16.7922
  264 -3.41990 -21.2381 -18.2334
  265 -3.31725 -21.3213 18.3041
  266 -0.698861 -50.2239 -24.9070
  267 1.80387 -58.2362 -22.6416
  268 0.979273 -58.4469 23.8480
  269 -9.26309 -7.99669 32.9614
  270 -9.30502 -7.98625 -33.0974
  271 20.9799 -44.5167 -10.1896
  272 22.5914 -40.7896 13.7410
  273 -21.9400 -1.81894 16.0010
  274 -21.9539 -1.82748 -16.0169
  275 272.596 7.02958 -14.3288
  276 272.673 6.99108 14.3390
  277 475.749 -48.2484 -5.77632
  278 106.977 8.57248 0.311787
  279 107.007 8.57014 -0.305915
  280 -1.20123 -47.1578 23.8283
  281 11.7237 9.58305 10.7512
  282 11.6379 9.59857 -10.7591
  283 753.708 52.0949 -21.6322
  284 369.669 -0.0903990 5.18298
  285 369.567 -0.0843410 -5.18441
  286 250.411 -11.1490 -90.0306
  287 252.540 -10.9538 91.3572
  288 475.156 -45.7788 -1.95825
  289 -44.6020 1.42119 19.7250
  290 -44.6639 1.42123 -19.7564
  291 464.377 -34.4704 146.256
  292 -19.4457 3.50610 29.7774
  293 -19.5249 3.50079 -29.8319
  294 80.2860 21.9982 -7.54590
  295 79.9728 22.2038 7.63103
  296 -80.4084 0.559997 0.859437
  297 -80.5270 0.559864 -0.860068
  298 391.787 12.0470 -198.442
  299 -76.0720 1.50674 -8.72994
  300 -75.9625 1.50361 8.71852
  301 -1.85643 -9.24739 33.4028
  302 -0.669376 -8.98010 -33.0267
  303 174.353 17.3380 -22.6363
  304 174.358 17.3353 22.7738
  305 39.5521 4.15616 3.40500
  306 39.4903 4.15821 -3.40593
  307 181.115 6.40663 -4.87366
  308 181.126 6.40144 4.88025
  309 17.5208 -11.6533 16.4647
  310 15.9745 -14.1761 -16.7074
  311 175.816 2.58227 -1.25284
  312 175.823 2.58108 1.25388
  313 -62.8259 1.64369 14.4018
  314 -62.9074 1.64615 -14.4251
  315 44.6478 -2.62153 -12.5381
  316 43.3410 -2.68576 11.3644
  317 385.076 -0.609115 1.45071
  318 384.962 -0.608129 -1.44990
  319 837.780 47.3745 34.1652
  320 89.2256 11.3178 1.68109
  321 89.1816 11.3258 -1.67194
  322 -16.7042 4.04763 6.74921
  323 -16.7943 4.05255 -6.75465
  324 122.089 15.9555 -3.96957
  325 122.054 15.9667 4.00436
  326 15.0892 12.8342 25.0362
  327 14.9904 12.8618 -25.1030
  328 1.86102 -84.3565 16.5225
  329 -83.4682 0.0782479 -2.00063
  330 -83.3484 0.0784551 1.99913
  331 295.209 0.314208 -2.78363
  332 295.275 0.312228 2.78456
  333 310.813 1.60437 -7.38003
  334 310.888 1.59350 7.38012
  335 -78.0415 1.27366 -6.27555
  336 -77.9264 1.27185 6.26935
  337 0.604520 1.25126 0.685916
  338 0.525471 1.25119 -0.686352
  339 -1.75551 -35.0368 18.1704
  340 -1.39271 -36.4444 -18.1452
  341 350.977 -28.6777 -61.0507
  342 364.345 -34.3120 59.9649
  343 209.164 9.56981 -9.78068
  344 209.196 9.55305 9.79703
  345 93.2198 21.5203 -4.55197
  346 93.0604 21.6180 4.61934
  347 -30.7331 6.08862 14.2177
  348 -30.8311 6.10054 -14.2356
  349 648.086 16.5888 21.1326
  350 35.2616 -46.3505 -40.9885
  351 37.7066 -42.7604 42.7999
  352 -12.6393 9.99472 22.9582
  353 -12.7429 10.0173 -22.9943
  354 -17.7033 -3.46386 29.2579
  355 -17.7507 -3.47313 -29.3117
  356 735.088 125.381 -38.8750
  357 475.724 -5.72475 57.5731
  358 441.719 -10.6320 -11.4093
  359 441.377 -10.3838 10.7298
  360 311.260 -3.92572 -38.9690
  361 310.895 -4.22145 38.9918
  362 0.593082 -101.633 -13.2623
  363 403.745 0.636030 -9.35156
  364 403.851 0.605339 9.32499
  365 5.36108 -95.0907 9.96516
  366 472.971 37.1612 -30.1363
  367 116.479 3.42914 1.21398
  368 116.457 3.42924 -1.21423
  369 312.784 1.80949 -28.9228
  370 312.986 1.65992 28.9642
  371 336.152 2.21785 -17.4419
  372 336.262 2.15149 17.4288
  373 -4.30194 3.48543 4.45143
  374 -4.38503 3.48809 -4.45419
  375 194.800 10.7838 -46.6184
  376 194.840 10.9076 47.0228
  377 396.747 -0.474588 2.37086
  378 396.629 -0.472946 -2.37022
  379 227.293 11.8910 -23.6916
  380 227.377 11.8244 23.7777
  381 261.470 3.46190 6.10127
  382 261.419 3.46830 -6.09881
  383 -12.4507 -2.22838 9.90622
  384 -12.4505 -2.23437 -9.90695
  385 -2.97139 -2.10854 -2.90547
  386 -2.97270 -2.10950 2.90990
  387 529.985 -64.0144 40.6598
  388 -6.81983 -16.4974 26.8409
  389 -6.77291 -16.6418 -26.8457
  390 88.4314 5.17668 -1.21330
  391 88.4691 5.17560 1.21509
  392 -2.62541 -13.2183 9.95288
  393 -2.65561 -13.1978 -9.95464
  394 34.9248 14.8801 11.5812
  395 34.8340 14.9096 -11.5859
  396 433.139 -2.16472 12.4071
  397 432.991 -2.01165 -12.6054
  398 -0.874931 -25.2291 31.9982
  399 -35.5280 -0.620273 15.1059
  400 -35.5560 -0.623594 -15.1261
  401 -1.01250 -26.6783 -31.6413
  402 406.106 -0.165137 5.96162
  403 405.990 -0.156092 -5.96861
  404 -2.94219 9.24624 28.9917
  405 -3.08014 9.27373 -29.0509
  406 301.698 3.88932 -11.7034
  407 301.775 3.86573 11.7031
  408 463.015 -19.7753 -8.88543
  409 464.301 -16.0301 6.57414
  410 -0.914508 -47.6810 -19.8771
  411 42.7866 16.0807 -7.27010
  412 43.1375 15.9115 7.21818
  413 465.632 30.2452 18.6952
  414 263.919 -12.3240 -124.073
  415 270.785 -17.1675 129.726
  416 17.0142 14.2932 18.3011
  417 16.9070 14.3285 -18.3223
  418 194.576 4.67788 -3.33612
  419 194.593 4.67493 3.33901
  420 189.125 36.9979 196.789
  421 79.4950 17.9999 -3.50076
  422 79.5746 17.9644 3.52176
  423 5.03800 -44.2842 20.9934
  424 -0.574623 -77.3732 -17.1539
  425 32.1712 17.6703 16.7490
  426 32.0470 17.7229 -16.7756
  427 39.8878 9.87208 -6.85838
  428 39.9580 9.86046 6.85786
  429 -12.6365 -0.404809 -32.7880
  430 -12.5584 -0.423072 32.7295
  431 94.6919 18.8896 -19.7434
  432 94.2859 19.1672 19.9325
  433 466.454 -14.5411 -43.6734
  434 13.7541 -3.77684 24.5431
  435 13.3135 -3.66815 -24.7076
  436 339.814 -14.6652 -43.0453
  437 341.193 -15.6747 42.9938
  438 -83.6550 0.643563 -8.60572
  439 -83.5519 0.641461 8.59276
  440 -0.000508354 -76.1212 15.4721
  441 -0.535205 -48.4101 17.7091
  442 -33.9021 2.28669 25.2194
  443 -33.9674 2.28533 -25.2606
  444 243.594 1.43522 -1.24424
  445 243.634 1.43367 1.24470
  446 -7.22792 -11.4215 18.3211
  447 -7.24097 -11.4487 -18.3032
  448 153.323 8.94436 -67.5731
  449 153.008 9.61914 68.3040
  450 1.27549 -91.5908 -16.7682
  451 836.159 28.8336 0.473615
  452 2.39573 -107.273 -9.07573
  453 -98.1114 -0.102135 -3.02954
  454 -97.9854 -0.102130 3.02711
  455 -37.3475 5.41053 20.3381
  456 -37.4427 5.42204 -20.3709
  457 -44.5975 0.649121 15.1371
  458 -44.6394 0.648817 -15.1587
  459 167.337 16.6394 -15.6321
  460 167.338 16.6418 15.7157
  461 251.606 9.31306 -18.3165
  462 251.690 9.25629 18.3515
  463 -4.01257 -15.2086 33.1276
  464 -4.01869 -15.1085 -33.2684
  465 438.284 8.36377 -55.0443
  466 30.5832 -6.07919 -3.21924
  467 29.5166 -6.33832 3.76813
  468 7.11137 -95.3494 -2.55834
  469 4.60441 -111.248 -0.754394
  470 -13.1688 -5.85735 18.8476
  471 -13.1759 -5.87918 -18.8569
  472 93.8644 -1.99202 -103.859
  473 661.950 6.30001 -70.3323
  474 152.461 9.14157 4.77574
  475 152.466 9.14476 -4.76359
  476 221.056 2.67883 -64.7274
  477 221.523 2.61491 65.6640
  478 65.9581 22.4143 5.49656
  479 65.8286 22.4898 -5.48448
  480 199.726 14.5487 -34.4967
  481 199.799 14.4830 34.7380
  482 7.94286 4.46897 29.3949
  483 8.38365 4.69086 -29.3602
  484 -87.2100 1.23414 -6.24854
  485 -87.0931 1.23258 6.24133
  486 435.955 -50.1385 -35.6377
  487 345.390 -0.303378 -1.97856
  488 345.482 -0.304492 1.97947
  489 20.6677 2.07592 -1.77517
  490 20.7374 2.07543 1.77435
  491 -20.9575 7.98446 18.7782
  492 -21.0570 8.00197 -18.8045
  493 -48.4673 2.90691 -6.65848
  494 -48.3642 2.90342 6.65224
  495 152.531 14.1596 -7.34390
  496 152.525 14.1572 7.37611
  497 -17.1664 7.02557 26.7542
  498 -17.2672 7.04179 -26.8045
  499 398.980 -11.5579 -23.1298
  500 399.661 -12.1067 22.8437
  501 263.202 2.57287 -43.1906
  502 262.797 2.40210 43.5517
  503 99.3014 3.99640 -0.636182
  504 99.3328 3.99620 0.636826
  505 1.16691 -46.6256 -26.9753
  506 468.400 -16.5108 35.7512
  507 6.72847 -30.0547 -23.9354
  508 134.771 21.1313 16.2212
  509 134.861 21.0672 -16.0847
  510 431.215 -46.9087 35.2478
  511 33.8024 -37.9408 55.6142
  512 512.213 -63.1450 -69.2994
  513 349.756 0.862850 21.0288
  514 349.597 0.993145 -21.0447
  515 1.13103 -39.7980 28.0734
  516 -6.85914 -2.03640 -5.31606
  517 -6.86198 -2.03527 5.31975
  518 44.9600 1.84167 -0.475231
  519 45.0175 1.84172 0.475063
  520 -1.17102 -27.1412 11.7034
  521 -1.06244 -27.0163 -11.7650
  522 288.308 2.28294 4.77043
  523 288.245 2.28627 -4.76905
  524 805.886 145.504 64.8602
  525 34.5237 -18.4121 -12.4978
  526 26.9257 -25.6155 6.86713
  527 -6.28729 5.94969 -9.03887
  528 -6.19899 5.94074 9.03123
  529 -69.7309 1.09738 9.04347
  530 -69.7993 1.09860 -9.05745
  531 0.712969 -86.0390 16.8053
  532 -96.1141 0.764927 0.786498
  533 -96.2403 0.764988 -0.787162
  534 90.7053 -2.65540 -76.8560
  535 88.7416 -1.22379 79.7270
  536 83.2020 15.4455 -27.5372
  537 82.5781 15.8068 27.7007
  538 -18.6311 -3.82804 25.6663
  539 -18.6620 -3.84518 -25.7059
  540 82.2665 6.75115 1.19317
  541 82.2244 6.75381 -1.19027
  542 -39.1334 1.71919 2.72504
  543 -39.2319 1.72009 -2.72724
  544 96.5710 13.4236 0.872076
  545 96.5251 13.4363 -0.855565
  546 -1.89146 -6.19153 4.54973
  547 -1.89808 -6.18625 -4.54893
  548 35.5828 15.3866 14.6499
  549 35.3471 15.5951 -14.7353
  550 28.7393 5.45421 12.6466
  551 28.3375 5.41826 -12.8891
  552 353.256 1.94255 8.83756
  553 353.161 1.95452 -8.84063
  554 313.379 3.52679 14.2168
  555 313.290 3.56555 -14.2199
  556 -0.320212 -73.3383 -10.7632
  557 220.722 10.3706 -14.2093
  558 220.770 10.3418 14.2382
  559 221.067 4.41821 -5.46866
  560 221.099 4.41102 5.47338
  561 -27.4329 0.824977 0.0737978
  562 -27.3404 0.825204 -0.0738755
  563 383.237 20.2554 -10.5980
  564 491.485 -60.7159 -26.8229
  565 409.540 19.2590 41.4235
  566 3.46389 -61.3673 -19.3217
  567 -19.8688 6.72116 -12.1547
  568 -19.7739 6.70999 12.1421
  569 3.70840 -35.3855 26.2650
  570 -21.2991 0.766075 29.2217
  571 -21.3620 0.762078 -29.2686
  572 628.502 60.2478 2.39830
  573 144.945 6.02213 -2.35105
  574 144.937 6.02045 2.35578
  575 940.390 80.5788 -84.1069
  576 -4.15101 -3.19617 33.8851
  577 -3.81830 -2.94329 -33.9086
  578 519.299 -44.6068 17.5371
  579 417.066 0.0335603 -10.3763
  580 417.170 -0.0180274 10.3251
  581 194.492 1.18538 -93.6152
  582 196.739 0.580775 95.0137
  583 -10.5021 -10.0549 29.6664
  584 -10.5136 -10.1090 -29.7476
  585 102.869 10.2901 50.7045
  586 103.728 9.54395 -50.3145
  587 -81.3312 0.923897 -8.43707
  588 -81.2369 0.922363 8.42399
  589 611.873 55.1619 30.1863
  590 118.879 10.2272 1.33920
  591 118.903 10.2247 -1.32918
  592 140.044 17.4870 -35.0393
  593 139.845 17.6965 35.3895
  594 378.423 -1.30581 -20.5204
  595 378.628 -1.48711 20.4782
  596 -1.61095 -37.9099 -26.6413
  597 409.808 -0.725343 3.12407
  598 409.682 -0.723050 -3.12389
  599 -57.4129 1.00901 -1.00570
  600 -57.3057 1.00890 1.00480
  601 -103.163 -0.810362 -0.00239114
  602 -103.293 -0.811047 0.00229086
  603 9.13933 -55.5001 -8.04461
  604 -3.78830 -24.7234 22.9578
  605 -3.99573 -23.3752 -23.1108
  606 -46.0476 2.90135 20.9504
  607 -46.1235 2.90530 -20.9846
  608 288.839 6.38826 18.0243
  609 288.744 6.44801 -18.0141
  610 213.281 2.04183 1.27431
  611 213.256 2.04281 -1.27367
  612 49.2249 -10.5937 32.9485
  613 50.7439 -9.55887 -32.6639
  614 -1.46620 -18.9428 9.89958
  615 -1.51241 -18.8838 -9.93373
  616 490.895 40.7466 212.063
  617 -24.4095 -0.735946 9.15529
  618 -24.4125 -0.739505 -9.16339
  619 9.16518 -33.4511 -18.8951
  620 208.907 7.53602 -7.50078
  621 208.935 7.52551 7.51033
  622 103.620 21.6697 -12.5304
  623 103.414 21.8045 12.6615
  624 0.994886 -128.692 6.22702
  625 78.1720 20.8925 2.71797
  626 78.0740 20.9459 -2.69265
  627 -6.44818 8.48052 14.6343
  628 -6.54271 8.49681 -14.6500
  629 -0.585377 -64.5472 14.6869
  630 -103.475 0.0473548 -3.03777
  631 -103.347 0.0471647 3.03506
  632 138.400 2.99153 0.810120
  633 138.412 2.99264 -0.808662
  634 344.268 0.468953 5.90050
  635 344.177 0.474775 -5.90033
  636 305.492 -18.0123 162.122
  637 245.878 5.40983 -11.1176
  638 245.931 5.38809 11.1282
  639 4.54671 -4.42410 31.0316
  640 5.47910 -2.27379 -30.9374
  641 391.675 -36.5661 -131.617
  642 911.839 31.0139 -34.9457
  643 -95.8359 0.0469048 -5.79207
  644 -95.7235 0.0459626 5.78425
  645 25.5199 4.80288 -4.03727
  646 25.5893 4.79935 4.03578
  647 -1.77366 -40.3340 23.5922
  648 531.050 33.1129 -49.6561
  649 405.132 -0.918628 0.555174
  650 405.008 -0.917857 -0.554727
  651 -25.9840 -1.36362 -21.1883
  652 -25.9539 -1.35659 21.1599
  653 -0.0839250 -91.5152 -14.0053
  654 412.033 -0.907888 1.20448
  655 411.905 -0.907016 -1.20368
  656 40.0180 12.8121 9.69706
  657 39.9382 12.8327 -9.69829
  658 317.479 -26.5306 -86.7969
  659 323.062 -26.4030 87.7203
  660 459.922 -3.14176 7.24997
  661 459.962 -3.11352 -7.53140
  662 2.03794 -114.792 10.6950
  663 -22.8113 0.563456 -1.56517
  664 -22.7208 0.563678 1.56415
  665 152.239 22.9375 -154.889
  666 143.881 2.58936 1.22255
  667 143.890 2.58981 -1.22175
  668 72.0981 4.69819 0.381289
  669 72.0529 4.69941 -0.380227
  670 85.2307 8.64032 -0.595272
  671 85.2731 8.63580 0.601145
  672 271.200 7.05277 -27.8926
  673 271.355 6.93949 27.9654
  674 73.3016 21.1094 -0.763119
  675 73.0792 21.2564 0.791826
  676 -47.2272 3.51984 -11.6312
  677 -47.1254 3.51261 11.6173
  678 -55.4374 3.83397 -13.3530
  679 -55.3362 3.82675 13.3346
  680 473.331 -7.29136 -0.844358
  681 0.829762 -18.4933 -31.9664
  682 473.918 -7.64670 0.219803
  683 604.861 46.9061 -2.29923
  684 -59.1992 0.285755 10.3111
  685 -59.2521 0.285489 -10.3270
  686 63.7863 18.6368 -5.33684
  687 63.3325 18.8572 5.37790
  688 -111.043 0.0319150 -1.03608
  689 -110.910 0.0320158 1.03510
  690 1.22816 -16.5690 31.9845
  691 -36.8185 0.565835 22.1910
  692 -36.8729 0.563614 -22.2250
  693 520.160 -41.6814 -19.4879
  694 84.4459 1.57724 -0.685239
  695 84.4076 1.57683 0.685740
  696 20.9953 7.32118 6.94525
  697 20.9198 7.32932 -6.94811
  698 277.174 -12.0786 -72.8162
  699 279.192 -12.5549 74.1803
  700 949.937 67.8125 76.2933
  701 19.0860 -82.1403 -33.7223
  702 -6.69933 -14.2298 31.6626
  703 -6.70805 -14.2900 -31.7386
  704 60.0798 12.5580 -4.85651
  705 60.1433 12.5435 4.86169
  706 423.564 -0.783568 -3.17302
  707 423.694 -0.786265 3.17161
  708 204.021 2.78293 2.35487
  709 204.000 2.78548 -2.35318
  710 18.1340 15.0967 22.2049
  711 18.0155 15.1419 -22.2453
  712 12.6966 3.48187 2.83080
  713 12.6226 3.48353 -2.83222
  714 -11.3323 3.14082 32.0316
  715 -11.4234 3.13735 -32.1012
  716 349.112 -0.735394 2.50483
  717 349.018 -0.733285 -2.50405
  718 302.975 2.04127 6.76242
  719 302.904 2.04780 -6.76111
  720 41.8505 -23.0484 39.2712
  721 43.0219 -24.9434 -38.0282
  722 -22.7141 5.21635 27.9235
  723 -22.8026 5.22177 -27.9759
  724 13.0993 -27.2638 14.4651
  725 1.95295 9.35834 29.1535
  726 1.80863 9.38141 -29.1954
  727 -65.3829 1.82051 -7.67758
  728 -65.2738 1.81744 7.66888
  729 54.7871 16.8429 8.71646
  730 54.6961 16.8777 -8.71033
  731 469.210 -14.0277 -24.0802
  732 444.228 -38.3049 -12.8795
  733 -7.08658 -14.5183 22.5969
  734 -7.07864 -14.5890 -22.5704
  735 174.518 1.64973 -110.413
  736 170.056 5.28631 111.385
  737 106.933 20.3732 -18.5386
  738 106.659 20.5719 18.7315
  739 9.63226 -15.8684 25.0698
  740 -0.624667 -47.9203 -12.8227
  741 221.158 11.6222 -26.4297
  742 221.256 11.5585 26.5573
  743 0.553317 -93.9340 11.8064
  744 132.794 17.6845 -7.93649
  745 132.758 17.6993 7.99109
  746 445.317 -0.635899 -7.84673
  747 445.382 -0.688539 7.75089
  748 9.03355 -123.469 4.10244
  749 203.707 14.5408 20.1351
  750 203.657 14.5761 -20.0553
  751 56.1609 19.7369 -4.10375
  752 56.4505 19.5422 4.07576
  753 -80.3188 0.528218 -7.14939
  754 -80.2371 0.527585 7.13764
  755 225.223 3.19313 -4.73298
  756 225.256 3.18865 4.73595
  757 140.269 19.6583 -13.7330
  758 140.215 19.6910 13.8338
  759 2.32648 12.1207 22.3197
  760 2.21647 12.1526 -22.3522
  761 445.554 -32.8142 7.41379
  762 -67.3599 1.39161 5.81547
  763 -67.4712 1.39310 -5.82043
  764 948.735 190.852 -135.576
  765 -24.1038 2.47128 5.97420
  766 -24.1962 2.47381 -5.97857
  767 378.273 0.597994 14.5406
  768 378.159 0.660910 -14.5751
  769 702.718 43.1844 -0.0955312
  770 426.923 -1.41844 -5.95375
  771 427.043 -1.42822 5.94304
  772 274.925 3.33848 8.56105
  773 274.865 3.34954 -8.55821
  774 410.567 -44.1296 120.039
  775 179.987 12.4587 -7.99473
  776 180.002 12.4484 8.01833
  777 4.23013 -69.5064 13.7199
  778 470.509 -57.6156 41.0512
  779 286.038 0.149512 1.45120
  780 285.976 0.150921 -1.45066
  781 373.199 -0.232286 0.770297
  782 373.092 -0.231662 -0.769846
  783 -1.64221 -37.6615 -22.1004
  784 2.37300 -63.4637 20.9861
  785 170.942 18.6447 27.9658
  786 170.954 18.6288 -27.7583
  787 938.112 8.73428 8.42172
  788 291.896 2.08487 -34.6328
  789 292.096 1.94921 34.7242
  790 -59.3009 1.96443 15.5921
  791 -59.3927 1.96927 -15.6158
  792 12.7737 -49.8336 3.02844
  793 8.21521 -114.692 -9.81084
  794 661.806 86.3202 -14.1805
  795 -0.570499 -47.8004 11.5778
  796 14.4843 10.0984 25.8813
  797 14.4347 10.0920 -26.0143
  798 90.6813 17.1675 1.38697
  799 90.6209 17.1931 -1.36463
  800 441.719 -20.3440 -8.04330
  801 442.679 -20.0748 6.63370
  802 516.244 85.4995 -201.098
  803 -69.1891 0.644807 -2.54163
  804 -69.0765 0.644418 2.53935
  805 -33.4731 -0.125485 8.60877
  806 -33.4841 -0.127028 -8.61887
  807 33.1484 3.65175 6.51322
  808 32.4547 3.61817 -6.59230
  809 336.026 -2.27369 31.1203
  810 335.779 -2.00517 -31.0421
  811 172.466 3.87327 -1.49191
  812 172.471 3.87145 1.49383
  813 540.728 -5.95265 45.2721
  814 59.1918 8.73085 -4.37148
  815 59.2498 8.72343 4.37409
  816 54.5130 8.42468 -10.8042
  817 54.0262 8.67073 10.9214
  818 -0.0262527 -36.7875 -29.3892
  819 757.933 124.402 113.563
  820 -109.024 0.0863160 -3.05165
  821 -108.895 0.0861483 3.04840
  822 -0.160558 -114.075 11.0054
  823 8.57372 -15.7067 -25.4024
  824 -16.6849 -1.00887 6.43298
  825 -16.6790 -1.01157 -6.43550
  826 609.591 38.6394 -29.1523
  827 160.997 15.2631 -10.0852
  828 160.995 15.2607 10.1353
  829 418.681 -6.47442 -15.7274
  830 419.078 -6.53217 15.5171
  831 -104.456 0.760163 4.11116
  832 -104.578 0.761167 -4.11637
  833 -0.763037 -0.789034 -0.655257
  834 -0.764585 -0.790444 0.657869
  835 0.325686 -116.625 -10.7113
  836 0.532269 -122.047 -9.47458
  837 -114.220 1.05697 0.578764
  838 -114.355 1.05725 -0.579159
  839 65.3668 -14.5264 -73.8863
  840 260.597 2.48379 -2.58242
  841 260.646 2.48188 2.58335
  842 -5.89042 1.78949 0.749340
  843 -5.97257 1.78962 -0.749750
  844 384.970 0.629549 -9.60951
  845 385.075 0.608511 9.59548
  846 -43.9586 0.297948 8.17334
  847 -43.9818 0.297957 -8.18401
  848 235.402 7.08994 -164.449
  849 403.871 -34.1406 34.5493
  850 316.207 0.842670 -3.10554
  851 316.284 0.840551 3.10635
  852 400.315 -37.0852 -38.4263
  853 126.881 13.3983 -3.56290
  854 126.855 13.4025 3.58726
  855 174.242 10.6617 -6.17916
  856 174.251 10.6548 6.19449
  857 468.961 -9.92525 18.4157
  858 30.1985 17.1847 17.9291
  859 30.0650 17.2483 -17.9812
  860 32.0101 1.64055 1.27445
  861 31.9461 1.64055 -1.27500
  862 222.200 2.14123 2.21747
  863 222.170 2.14309 -2.21631
  864 576.052 -49.1795 68.8323
  865 361.813 1.54975 -12.6597
  866 361.919 1.51058 12.6407
  867 7.53906 5.16815 5.47252
  868 7.46016 5.17286 -5.47553
  869 362.191 -0.821327 3.60739
  870 362.091 -0.818626 -3.60658
  871 -65.0082 0.236913 -1.74036
  872 -64.8972 0.237303 1.73944
  873 -0.308372 -36.6315 10.3412
  874 -0.408278 -37.2042 -10.4185
  875 438.397 -5.60392 44.7614
  876 -25.3458 6.75637 23.3966
  877 -25.4425 6.77168 -23.4359
  878 -0.142523 -60.2363 -11.3896
  879 174.154 5.71979 -3.23602
  880 174.161 5.71727 3.23998
  881 318.935 -15.8792 -55.6924
  882 321.340 -17.5536 56.2280
  883 -13.2840 -4.54157 -31.7675
  884 -13.2216 -4.54024 31.6969
  885 18.8253 15.0964 20.3202
  886 18.7101 15.1380 -20.3483
  887 1.50369 -136.320 7.42524
  888 5.56125 11.9862 26.5093
  889 5.43651 12.0170 -26.5521
  890 294.750 -5.33321 -49.5635
  891 294.094 -5.54712 49.9548
  892 508.931 29.5284 51.9308
  893 118.362 12.4298 1.94949
  894 118.390 12.4257 -1.93367
  895 370.945 1.79293 -9.44898
  896 371.047 1.77698 9.44162
  897 -14.3513 -6.17926 28.0097
  898 -14.3808 -6.20461 -28.0633
  899 1.32031 -139.732 -4.54977
  900 -22.0860 -1.37584 27.4149
  901 -22.1329 -1.38083 -27.4584
  902 15.9044 13.4773 -15.8263
  903 16.0029 13.4478 15.8105
  904 -1.13926 -9.25280 5.11245
  905 -1.15228 -9.24376 -5.12021
  906 33.5045 15.1960 -13.9225
  907 33.6064 15.1594 13.9134
  908 7.34990 -10.2665 28.5276
  909 6.43716 -9.54611 -30.0791
  910 361.569 -10.5844 31.8232
  911 360.724 -10.1084 -31.9763
  912 -116.703 0.282571 -0.850557
  913 -116.567 0.282589 0.849910
  914 -10.2783 -0.918150 4.84943
  915 -10.2694 -0.919818 -4.84826
  916 0.482512 -85.5501 -10.3552
  917 -10.9654 -4.68505 -13.7699
  918 -10.9606 -4.67297 13.7699
  919 -45.5103 3.91864 20.0355
  920 -45.5983 3.92646 -20.0684
  921 114.453 21.4781 -8.30688
  922 114.358 21.5450 8.38632
  923 484.527 37.6552 -7.40006
  924 -4.04579 10.7280 20.2744
  925 -4.14904 10.7530 -20.3018
  926 179.840 11.6234 -52.3995
  927 179.832 11.7871 52.9510
  928 -19.6656 7.40561 16.3062
  929 -19.7635 7.42188 -16.3275
  930 579.149 -25.3824 -5.99750
  931 357.781 14.2439 22.5727
  932 425.274 -4.92063 -40.4764
  933 316.405 3.61046 -21.0765
  934 316.535 3.51828 21.0808
  935 -31.5751 4.31423 -7.83047
  936 -31.4787 4.30835 7.82286
  937 -74.2384 1.31399 9.91438
  938 -74.3427 1.31718 -9.92881
  939 -4.50813 -14.6271 -15.9702
  940 -4.47550 -14.6380 15.9979
  941 113.791 6.69608 1.13858
  942 113.815 6.69534 -1.13427
  943 -34.5864 3.71785 24.9672
  944 -34.6628 3.72020 -25.0106
  945 377.564 -0.566340 4.70100
  946 377.457 -0.563129 -4.70045
  947 -2.80083 -32.0124 24.0546
  948 15.8133 12.2956 -13.5224
  949 15.9050 12.2726 13.5111
  950 21.3960 8.37803 8.70490
  951 21.3172 8.38958 -8.70934
  952 67.2708 5.62477 -1.83024
  953 67.3193 5.62236 1.83112
  954 708.428 94.3415 -24.3683
  955 -2.84352 -0.774339 -1.93252
  956 -2.84962 -0.774244 1.93601
  957 25.3897 7.65424 -16.7579
  958 25.8147 7.45957 16.6745
  959 256.227 9.60112 -22.4093
  960 256.332 9.52552 22.4613
  961 34.5566 10.6141 -8.18419
  962 34.6327 10.5995 8.18227
  963 70.5659 -9.13492 97.3230
  964 477.984 -3.54990 -4.18535
  965 477.367 -3.41882 3.75911
  966 86.4850 -4.35748 85.4189
  967 91.1949 3.34756 -0.483627
  968 91.1598 3.34782 0.484322
  969 234.035 -5.36354 -142.318
  970 176.659 2.36223 1.19315
  971 176.652 2.36289 -1.19245
  972 22.9152 -21.3004 3.28206
  973 25.3205 -17.6138 -1.37601
  974 422.731 -0.576161 1.61367
  975 422.597 -0.575372 -1.61273
  976 -34.6844 0.148421 20.2219
  977 -34.7250 0.146091 -20.2500
  978 758.984 95.5927 45.7096
  979 -3.09785 -23.7238 -31.5455
  980 4.03694 -115.490 15.2008
  981 -0.457396 -37.7928 29.0412
  982 437.372 -0.518643 -6.07472
  983 437.481 -0.532980 6.05348
  984 -5.77532 -10.5888 13.8108
  985 -5.79171 -10.5902 -13.7981
  986 550.075 58.1132 -27.2320
  987 951.117 7.83943 -5.63313
  988 -1.43002 -2.17674 -2.10329
  989 -1.42841 -2.18134 2.10633
  990 256.023 2.29111 -4.90015
  991 256.070 2.28717 4.90216
  992 -3.16447 -22.7756 31.6911
  993 355.196 1.07106 18.7182
  994 355.068 1.16496 -18.7420
  995 466.897 -30.5600 -17.1589
  996 -16.2419 -3.36415 15.5480
  997 -16.2492 -3.37711 -15.5571
  998 8.01539 -29.3184 21.8608
  999 -0.706834 -57.2548 22.8032
  1000 -0.0694401 -59.7768 11.3776
  1001 482.851 30.9634 -2.87608
  1002 549.598 60.3722 14.6317
  1003 392.350 -44.1446 -66.9363
  1004 5.80688 -55.0771 17.5391
  1005 7.31317 -78.8486 2.96706
  1006 110.598 2.13025 0.239986
  1007 110.572 2.12992 -0.239960
  1008 -4.34022 -4.95023 -6.61491
  1009 -4.33623 -4.95096 6.61990
  1010 3.91949 -45.2684 -23.8351
  1011 315.698 -0.153858 -1.14074
  1012 315.774 -0.155091 1.14113
  1013 64.5840 1.45392 -32.8629
  1014 61.8241 1.60015 32.5497
  1015 -4.78450 9.87065 26.8911
  1016 -4.90333 9.89781 -26.9419
  1017 -35.9400 5.63400 -16.6672
  1018 -35.8414 5.62218 16.6440
  1019 242.647 3.88918 -50.9365
  1020 242.768 4.10799 51.4748
  1021 175.255 15.3090 -36.0692
  1022 175.224 15.3133 36.3913
  1023 189.773 13.0312 -12.4069
  1024 189.796 13.0116 12.4434
  1025 490.035 -12.4893 -51.7063
  1026 -12.1057 6.15856 29.7199
  1027 -12.2116 6.16725 -29.7874
  1028 346.636 -0.887461 25.6725
  1029 346.438 -0.685560 -25.6693
  1030 -2.01846 -17.6270 32.9713
  1031 -27.8807 -0.903387 14.9752
  1032 -27.8977 -0.908130 -14.9925
  1033 316.117 2.32407 -25.5679
  1034 316.281 2.19308 25.5852
  1035 395.212 9.89012 -37.2472
  1036 -0.401182 -56.8844 -23.9169
  1037 -4.54704 -22.3712 28.4920
  1038 -4.74095 -22.6480 -28.2572
  1039 223.834 12.4176 -18.6740
  1040 223.901 12.3703 18.7310
  1041 281.327 4.50702 10.5773
  1042 281.262 4.52426 -10.5743
  1043 465.940 -29.8531 14.8140
  1044 25.1792 1.92402 -0.343908
  1045 25.2463 1.92393 0.343726
  1046 396.617 -49.3571 71.3901
  1047 -0.104095 1.26478 1.79462
  1048 -0.183645 1.26485 -1.79566
  1049 87.1800 21.6846 -0.927564
  1050 87.0581 21.7588 0.970712
  1051 33.8885 17.1251 15.3027
  1052 33.7760 17.1700 -15.3178
  1053 4.46651 -68.7127 -14.3033
  1054 116.339 3.76519 0.539708
  1055 116.362 3.76578 -0.537410
  1056 349.494 11.2612 9.32945
  1057 318.835 1.81847 9.77694
  1058 318.754 1.83479 -9.77801
  1059 -1.68284 -18.3352 -33.0306
  1060 479.052 -6.18637 -9.18644
  1061 0.493009 -1.16656 32.5530
  1062 0.857476 -0.904817 -32.3926
  1063 434.664 -0.923781 -3.36312
  1064 434.797 -0.927121 3.35961
  1065 463.337 -1.75556 -5.92133
  1066 463.290 -1.81306 5.77465
  1067 -0.350193 -90.5117 8.53872
  1068 273.651 6.27681 -13.9726
  1069 273.719 6.24759 13.9794
  1070 332.102 2.43963 11.3479
  1071 332.013 2.46111 -11.3520
  1072 8.29851 8.20718 29.0234
  1073 8.25150 8.20848 -29.0610
  1074 720.107 47.0970 8.15527
  1075 -8.83773 -3.70271 33.7273
  1076 -8.98253 -3.61869 -33.8159
  1077 104.842 19.9151 -2.26350
  1078 104.780 19.9482 2.30258
  1079 -55.8000 0.903558 -2.82804
  1080 -55.6936 0.903276 2.82596
  1081 171.434 10.3464 -60.2577
  1082 171.188 10.8178 60.9493
  1083 50.1982 19.3464 11.4033
  1084 50.0760 19.4030 -11.4082
  1085 116.858 14.1650 -44.9626
  1086 116.259 14.7317 45.3239
  1087 -2.99651 -30.0741 -23.4479
  1088 410.232 6.00953 49.3060
  1089 285.744 4.70582 184.088
  1090 47.2158 19.9918 11.7517
  1091 47.0733 20.0663 -11.7691
  1092 173.604 8.51737 -4.75367
  1093 173.612 8.51131 4.76374
  1094 622.252 5.90079 10.7227
  1095 41.1754 10.9310 6.60052
  1096 40.6611 11.0544 -6.76103
  1097 -18.4043 -3.99355 20.6528
  1098 -18.4209 -4.01258 -20.6752
  1099 -0.603191 -13.8061 5.57523
  1100 -0.627322 -13.7981 -5.59780
  1101 409.405 -0.829139 15.0120
  1102 409.247 -0.681949 -15.1102
  1103 0.795079 -28.4750 30.8600
  1104 -27.6410 1.87689 -27.3257
  1105 -27.5775 1.88046 27.2814
  1106 0.135008 -109.159 -10.7637
  1107 -6.12690 -8.68818 33.6782
  1108 -6.10839 -8.49745 -33.7141
  1109 391.126 0.0743338 -6.32120
  1110 391.238 0.0671238 6.31832
  1111 404.141 -3.53295 18.1350
  1112 403.858 -3.29400 -18.2320
  1113 71.9018 16.4473 -16.1172
  1114 71.3579 16.7508 16.2450
  1115 -0.937381 -56.2383 -19.5253
  1116 531.209 -45.4050 -108.622
  1117 688.244 92.8121 9.53019
  1118 7.33885 -82.9547 -0.218003
  1119 25.8014 14.4885 -20.6610
  1120 25.9527 14.4108 20.5461
  1121 67.4980 21.4735 4.36441
  1122 67.3353 21.5709 -4.35238
  1123 141.404 7.72831 2.16340
  1124 141.415 7.73026 -2.15607
  1125 -8.82097 -12.5645 26.7057
  1126 -8.80920 -12.6869 -26.7498
  1127 -24.3896 7.89235 21.4660
  1128 -24.4884 7.90980 -21.4985
  1129 -7.99216 10.0859 24.8436
  1130 -8.10187 10.1109 -24.8859
  1131 386.673 -19.8197 -31.3876
  1132 389.108 -19.9578 31.1584
  1133 0.408605 -64.2515 -22.6560
  1134 207.976 0.178717 -75.0818
  1135 208.274 0.821016 76.2840
  1136 67.4492 19.4264 -5.41248
  1137 67.5401 19.3819 5.42666
  1138 206.088 107.304 205.440
  1139 53.1588 15.4820 8.36850
  1140 53.0772 15.5086 -8.36422
  1141 525.880 -55.7796 -28.1901
  1142 200.342 4.86373 3.77744
  1143 200.322 4.86840 -3.77350
  1144 -8.92129 -7.94040 16.3978
  1145 -8.92810 -7.95996 -16.3935
  1146 -10.6220 -9.50848 21.1769
  1147 -10.6230 -9.54697 -21.1808
  1148 346.810 -34.0788 -104.678
  1149 353.591 -37.6024 105.435
  1150 63.9555 1.95907 0.941558
  1151 64.0039 1.95919 -0.940852
  1152 218.839 9.97110 -41.6031
  1153 218.833 9.85015 42.0022
  1154 472.990 -61.4839 80.7582
  1155 419.471 -1.08383 0.931445
  1156 419.339 -1.08300 -0.930748
  1157 -36.5754 5.89764 19.1944
  1158 -36.6728 5.90973 -19.2229
  1159 -63.2800 1.91062 -9.96199
  1160 -63.1728 1.90673 9.95094
  1161 109.612 6.06790 125.093
  1162 337.871 22.2664 -18.9721
  1163 200.173 13.7398 -20.9002
  1164 200.227 13.7057 21.0056
  1165 611.805 -13.0663 117.386
  1166 203.489 13.3301 -30.5908
  1167 203.553 13.2697 30.7737
  1168 52.2779 6.08991 -2.94074
  1169 52.3348 6.08647 2.94110
  1170 18.0121 -61.6368 13.4429
  1171 18.2010 -59.8859 -18.2598
  1172 275.143 -18.1596 -105.716
  1173 278.835 -16.9116 105.604
  1174 108.715 18.3008 -31.8587
  1175 108.257 18.6610 32.1524
  1176 481.876 -31.4566 -33.1029
  1177 -17.1736 -1.29017 30.8575
  1178 -17.2370 -1.29047 -30.9117
  1179 -0.129167 -25.3965 -31.7182
  1180 124.454 5.26451 -79.3965
  1181 124.722 5.60771 80.6986
  1182 -0.307622 -24.4465 6.20632
  1183 -0.263032 -24.5065 -6.28353
  1184 -114.255 0.940203 -2.88974
  1185 -114.126 0.939541 2.88635
  1186 381.805 -0.547176 -1.79586
  1187 381.916 -0.548546 1.79653
  1188 237.707 8.08796 -12.1926
  1189 237.762 8.06069 12.2100
  1190 -8.16474 0.234733 33.6361
  1191 -8.19012 0.373432 -33.7022
  1192 0.0121911 -97.6733 -9.48148
  1193 -97.3622 0.216929 4.74300
  1194 -97.4688 0.217506 -4.75033
  1195 77.3919 0.648990 -56.3212
  1196 76.8276 1.12917 58.0396
  1197 447.184 -27.2794 -2.77678
  1198 129.481 9.48382 -71.4246
  1199 129.561 9.80158 72.0829
  1200 -54.3867 0.298234 7.41802
  1201 -54.4225 0.297883 -7.42865
  1202 1.48008 -84.3330 -15.6166
  1203 -14.1041 3.15193 -3.61374
  1204 -14.0172 3.15010 3.61138
  1205 69.1783 16.2493 5.77257
  1206 69.1018 16.2774 -5.76036
  1207 252.355 0.737853 -1.57421
  1208 252.399 0.736502 1.57489
  1209 339.094 1.07308 7.43142
  1210 339.006 1.08313 -7.43254
  1211 19.3182 -1.50185 17.3714
  1212 19.0315 -1.82724 -17.7216
  1213 3.34334 -48.1990 23.8785
  1214 608.803 85.1360 17.9729
  1215 -18.7248 -1.44665 11.7969
  1216 -18.7285 -1.45299 -11.8041
  1217 2.66016 -45.1461 -25.0837
  1218 -1.76667 -28.3771 17.2399
  1219 -1.68098 -28.1042 -17.8591
  1220 480.915 -5.29794 8.13110
  1221 0.417973 -111.624 9.68180
  1222 3.77355 -32.9796 -27.9964
  1223 59.4515 1.42234 0.537094
  1224 59.4011 1.42203 -0.537317
  1225 -4.59163 -19.9721 31.2530
  1226 -51.3971 2.89073 -8.34383
  1227 -51.2929 2.88688 8.33562
  1228 969.024 16.4643 27.9082
  1229 -27.2234 3.33232 27.5362
  1230 -27.2986 3.33165 -27.5847
  1231 233.576 9.05075 -37.5937
  1232 233.757 8.89439 37.8068
  1233 15.6206 -21.3998 -10.8453
  1234 222.103 10.7358 -15.4389
  1235 222.158 10.6990 15.4780
  1236 9.40584 -65.6897 -2.43845
  1237 -4.60996 -20.0200 -31.2114
  1238 -35.1375 1.29816 4.85650
  1239 -35.2344 1.29931 -4.86001
  1240 -16.3413 1.47583 -31.4689
  1241 -16.2640 1.48138 31.4174
  1242 475.480 38.4211 36.5967
  1243 269.706 2.74096 -39.6147
  1244 270.005 2.67408 39.7126
  1245 -119.192 0.246604 -1.01170
  1246 -119.056 0.246524 1.01068
  1247 242.791 5.22562 -8.24071
  1248 242.834 5.21569 8.24589
  1249 -121.968 -2.15176 -0.336203
  1250 -122.107 -2.15296 0.336323
  1251 361.656 -25.5982 -45.3986
  1252 -56.4425 0.981140 15.5926
  1253 -56.5111 0.981622 -15.6178
  1254 365.211 -27.0205 44.9907
  1255 247.140 8.37463 -16.6171
  1256 247.207 8.33171 16.6410
  1257 29.4071 -59.3283 -55.7629
  1258 0.539787 -77.7451 -19.3744
  1259 -1.52532 -32.6065 29.2822
  1260 766.805 136.447 -114.874
  1261 -0.171771 -73.1312 19.0362
  1262 800.838 75.7280 -51.0887
  1263 -0.472227 -135.638 -8.96337
  1264 40.8158 3.53729 -0.875250
  1265 40.8760 3.53607 0.875259
  1266 -0.333656 -31.3765 6.50194
  1267 -0.267413 -31.5452 -6.48578
  1268 138.919 2.88491 0.290053
  1269 138.930 2.88550 -0.289388
  1270 486.947 -36.1242 31.3331
  1271 11.8106 3.38744 -4.18549
  1272 11.8856 3.38526 4.18340
  1273 2.80692 -146.986 3.76759
  1274 1.78425 -156.744 -3.74726
  1275 447.805 -54.5968 -49.1921
  1276 -1.20882 -40.5182 19.0102
  1277 472.017 31.1517 -46.7152
  1278 -1.39451 -53.3895 18.6609
  1279 0.951465 -145.368 -6.68231
  1280 226.806 5.80598 -9.12381
  1281 226.845 5.78819 9.13472
  1282 -0.177545 -79.8016 8.43056
  1283 -0.192471 -65.9887 -18.9596
  1284 1047.26 188.259 161.659
  1285 421.352 0.104118 0.705240
  1286 421.219 0.104211 -0.704771
  1287 11.9220 1.55600 26.1688
  1288 11.5556 2.01064 -26.2980
  1289 -5.77371 6.41425 31.3625
  1290 -5.93603 6.42091 -31.4440
  1291 452.915 -8.19481 -28.7741
  1292 418.567 -17.7135 -18.2850
  1293 418.189 -20.1110 18.5121
  1294 64.4679 6.92889 2.88107
  1295 64.4153 6.93301 -2.87899
  1296 -67.7227 1.79943 -12.0339
  1297 -67.6237 1.79551 12.0154
  1298 466.598 -62.3857 -69.1806
  1299 -3.47355 -8.43179 8.62597
  1300 -3.48725 -8.42631 -8.62246
  1301 492.880 -20.1150 48.8166
  1302 -5.09307 -19.3098 23.1343
  1303 -5.03632 -19.3829 -23.0292
  1304 -41.8971 2.74381 5.82798
  1305 -41.9973 2.74662 -5.83302
  1306 75.9026 9.64277 -29.9306
  1307 75.1420 10.0665 29.9044
  1308 118.537 2.74751 0.213715
  1309 118.515 2.74698 -0.213171
  1310 -46.5861 4.72684 19.0432
  1311 -46.6792 4.73579 -19.0721
  1312 395.827 0.709207 1.09590
  1313 395.708 0.709093 -1.09524
  1314 220.711 0.376376 140.880
  1315 324.422 0.190690 2.63385
  1316 324.341 0.192156 -2.63288
  1317 217.664 4.70028 -57.4123
  1318 217.684 4.45586 57.8955
  1319 2.13752 -84.3832 -10.7577
  1320 85.2677 20.4390 -13.4699
  1321 84.9002 20.6782 13.6047
  1322 -0.836096 -0.741228 -1.08828
  1323 -0.840310 -0.741418 1.09145
  1324 278.914 7.82512 21.3554
  1325 278.808 7.90600 -21.3297
  1326 139.856 10.7484 3.81279
  1327 139.869 10.7496 -3.79785
  1328 204.918 10.7957 -10.6722
  1329 204.952 10.7753 10.6966
  1330 266.981 0.972941 -2.65138
  1331 267.033 0.971433 2.65247
  1332 -8.47001 -4.08617 -9.73339
  1333 -8.46780 -4.08089 9.73756
  1334 -79.1775 0.00997091 3.45332
  1335 -79.2945 0.0102581 -3.45647
  1336 -14.3201 -6.51946 -23.6382
  1337 -14.3067 -6.48559 23.6109
  1338 -43.9320 0.549048 1.42708
  1339 -44.0327 0.548773 -1.42798
  1340 -123.434 1.10518 0.573591
  1341 -123.574 1.10556 -0.573976
  1342 500.835 -60.4738 93.7087
  1343 369.165 -1.93470 -40.3676
</Section>

newXOutput 60

<Section columns = "stress_xx | stress_yy | stress_xy">
  1 440.707 -0.735258 0.461264
  2 440.851 -0.735792 -0.461495
  3 -135.691 0.623432 -1.86006
  4 0.216333 0.0519970 0.385516
  5 794.161 239.716 262.537
  6 898.056 270.269 -252.709
  7 0.215326 0.0510842 -0.384176
  8 -135.542 0.623303 1.85915
  9 439.408 -0.700778 -1.46157
  10 439.783 -1.41060 -2.35560
  11 443.913 -1.40723 -0.644538
  12 444.402 -1.37045 -2.78877
  13 445.593 -1.35159 -0.895155
  14 454.832 -1.26739 -1.22986
  15 458.099 -1.80887 -3.74364
  16 461.688 -0.906064 -2.58315
  17 464.041 0.0352403 -4.98163
  18 482.720 -2.75496 -4.26351
  19 490.933 -2.17606 -5.46498
  20 500.100 -3.22698 -2.25942
  21 504.677 -4.22635 -1.46313
  22 501.826 -4.81382 6.10867
  23 485.767 -5.32694 13.0731
  24 447.948 -5.80814 28.2378
  25 386.069 3.50705 32.9584
  26 335.463 4.34735 30.5311
  27 264.629 8.51926 18.4891
  28 280.937 8.27913 1.82837
  29 237.460 24.4760 -11.6808
  30 319.418 11.3372 -33.4854
  31 364.046 2.91476 -27.3371
  32 439.465 -1.17598 -23.6863
  33 480.600 -6.46111 -15.7242
  34 501.185 -5.60304 -6.06383
  35 503.809 -4.09963 1.49887
  36 499.516 -3.18651 2.13252
  37 490.727 -2.18894 5.31383
  38 482.685 -2.78833 4.17823
  39 464.125 0.0165283 4.94251
  40 461.811 -0.913115 2.56918
  41 458.242 -1.81350 3.73982
  42 454.980 -1.26986 1.22826
  43 445.740 -1.35326 0.894967
  44 444.548 -1.37190 2.79048
  45 444.060 -1.40834 0.645121
  46 439.926 -1.41157 2.35719
  47 439.551 -0.701303 1.46256
  48 416.026 0.915453 -0.557093
  49 385.682 0.122402 -1.22512
  50 347.684 -1.60757 -1.21507
  51 308.209 0.639602 -1.01065
  52 273.545 0.303875 -0.800617
  53 236.383 1.49038 -0.944449
  54 199.633 3.41757 -0.556726
  55 161.408 3.01208 -1.18576
  56 129.656 1.99334 -1.67152
  57 87.9204 1.13443 -1.76144
  58 45.4692 2.05224 -1.34546
  59 9.99833 1.71229 -1.30123
  60 -34.3080 0.954008 -1.18284
  61 -67.2548 -0.524966 -2.93800
  62 -99.1782 -2.23796 -1.33773
  63 -131.586 0.250498 0.918777
  64 -138.632 2.37219 -0.322727
  65 -139.167 1.03545 0.441535
  66 -134.558 0.504137 -0.129710
  67 -136.165 1.51991 -1.64560
  68 -134.073 1.85477 -0.100330
  69 -126.873 0.555848 -2.53952
  70 -128.539 1.14627 -2.74019
  71 -125.395 1.08308 -1.51431
  72 -116.150 0.669531 -2.31097
  73 -112.003 1.22913 -3.85634
  74 -105.259 1.38278 -3.14819
  75 -93.2326 0.702445 -5.51485
  76 -86.5001 0.218098 -4.60593
  77 -74.2820 0.312846 -5.33470
  78 -63.7841 0.249274 -5.92626
  79 -54.5989 0.0879616 -4.67821
  80 -41.8098 0.278365 -4.71921
  81 -30.7688 -0.111140 -5.05690
  82 -20.0822 -0.545970 -4.45173
  83 -11.6029 -0.479477 -3.41774
  84 -5.71443 -0.845539 -2.86100
  85 -0.972941 -0.489286 -1.02765
  86 0.0516521 -0.547555 -0.370883
  87 -0.294908 -0.299523 -0.0774952
  88 -0.766535 -0.789239 -0.901129
  89 -0.744839 -4.83737 -2.48634
  90 -0.631812 -10.8185 -3.53423
  91 -0.323984 -18.4236 -5.14807
  92 -0.164548 -28.2790 -4.43717
  93 -0.129890 -37.3196 -5.58194
  94 -0.679280 -48.3243 -6.28964
  95 -0.278458 -61.9324 -6.33911
  96 0.128396 -75.6360 -6.06443
  97 0.295503 -90.3058 -5.97722
  98 0.458607 -105.361 -5.86726
  99 0.0148201 -116.339 -7.93261
  100 0.768070 -132.042 -7.09148
  101 0.952804 -150.404 -5.61521
  102 -0.0941600 -158.274 -7.44879
  103 1.34865 -171.413 -6.87001
  104 3.36366 -188.850 -3.04054
  105 6.59051 -192.932 -4.83518
  106 4.76231 -174.368 5.67675
  107 7.13764 -127.817 21.4141
  108 34.6958 -65.2892 59.8188
  109 107.159 172.344 194.933
  110 1218.91 66.8551 122.006
  111 1048.22 19.4405 44.0966
  112 1014.44 6.84992 10.1676
  113 1007.10 2.02094 -1.61926
  114 1014.08 10.7263 -23.2456
  115 1046.81 35.4323 -52.4930
  116 1187.23 130.894 -155.116
  117 258.257 134.901 -237.477
  118 58.7255 -64.7829 -72.0891
  119 17.3668 -140.048 -27.4032
  120 4.85473 -164.943 -6.03426
  121 5.33261 -185.513 2.34017
  122 1.49938 -181.337 2.20203
  123 0.512621 -167.096 5.76974
  124 0.572265 -157.516 4.55391
  125 0.826785 -142.080 7.98652
  126 -0.0407556 -133.270 7.81644
  127 0.327007 -120.455 5.61731
  128 0.647816 -104.111 7.18248
  129 0.132224 -92.4251 5.68971
  130 0.187471 -75.7098 7.19111
  131 -0.756487 -62.6840 6.18587
  132 -0.522569 -48.3629 6.09137
  133 -0.0895341 -37.1103 5.59532
  134 -0.214886 -28.1149 4.44437
  135 -0.315859 -18.3695 5.09752
  136 -0.622520 -10.8113 3.51657
  137 -0.740858 -4.84476 2.48458
  138 -0.765503 -0.797218 0.902936
  139 -0.294858 -0.302948 0.0797955
  140 0.0474826 -0.548062 0.372959
  141 -0.980751 -0.488989 1.03027
  142 -5.72603 -0.844683 2.86353
  143 -11.6182 -0.477943 3.41844
  144 -20.0940 -0.544078 4.44973
  145 -30.7709 -0.109574 5.05153
  146 -41.8004 0.278675 4.71292
  147 -54.5737 0.0887345 4.67158
  148 -63.7442 0.250199 5.91853
  149 -74.2225 0.312801 5.32647
  150 -86.4225 0.218014 4.59811
  151 -93.1425 0.701953 5.50703
  152 -105.152 1.38190 3.14201
  153 -111.886 1.22814 3.85115
  154 -116.023 0.668876 2.30756
  155 -125.259 1.08236 1.51203
  156 -128.399 1.14568 2.73773
  157 -126.732 0.555634 2.53748
  158 -133.927 1.85391 0.0997213
  159 -136.016 1.51924 1.64447
  160 -134.410 0.504024 0.129466
  161 -139.017 1.03507 -0.441403
  162 -138.481 2.37117 0.322512
  163 -131.438 0.250543 -0.918405
  164 -99.0473 -2.23654 1.33705
  165 -67.1400 -0.524200 2.93659
  166 -34.2095 0.954181 1.18222
  167 10.0750 1.71221 1.30058
  168 45.5284 2.05212 1.34482
  169 87.9587 1.13497 1.76063
  170 129.674 1.99368 1.67077
  171 161.410 3.01218 1.18526
  172 199.616 3.41754 0.556456
  173 236.347 1.49122 0.943941
  174 273.491 0.305112 0.800126
  175 308.137 0.640326 1.01001
  176 347.591 -1.60598 1.21436
  177 385.569 0.122707 1.22443
  178 415.896 0.915148 0.556787
  179 118.652 20.2441 -6.07813
  180 118.580 20.2844 6.14054
  181 -1.50462 3.80117 32.4349
  182 -1.63472 3.77175 -32.4562
  183 267.834 -3.55233 -61.2655
  184 267.628 -4.05665 61.8928
  185 54.3516 13.2722 -4.32453
  186 53.7083 13.4931 4.33649
  187 40.6513 6.45203 -4.54271
  188 40.7174 6.44650 4.54191
  189 252.840 4.26293 -9.25575
  190 252.891 4.24814 9.26285
  191 -2.99164 10.0595 17.2877
  192 -3.09233 10.0817 -17.3090
  193 293.635 6.96351 -23.3075
  194 293.772 6.86549 23.3410
  195 -11.2424 -9.74361 26.1981
  196 -11.2409 -9.80245 -26.2339
  197 2.92197 -22.8525 -30.7100
  198 92.7609 6.95992 -57.2394
  199 3.52177 -24.4737 29.9462
  200 91.2958 7.67791 58.0985
  201 415.331 -54.4145 -88.5146
  202 429.510 -56.5512 85.0478
  203 150.807 4.47323 -1.78683
  204 150.800 4.47181 1.78979
  205 -21.7136 1.47311 -3.28203
  206 -21.6210 1.47258 3.27991
  207 -32.2383 5.10136 24.9636
  208 -32.3279 5.11059 -25.0081
  209 151.648 13.3050 -5.15038
  210 151.640 13.3045 5.17164
  211 47.1362 19.4670 10.9319
  212 46.9502 19.5820 -10.9788
  213 -40.7864 4.41577 -10.0535
  214 -40.6835 4.40918 10.0427
  215 334.388 0.0540056 4.33705
  216 334.303 0.0577425 -4.33614
  217 11.1436 -42.8000 12.0574
  218 12.1081 -38.6002 -10.4802
  219 -3.02108 -27.6337 29.4480
  220 -3.10046 -28.7386 -28.5335
  221 140.490 20.0964 -25.5824
  222 140.353 20.1967 25.8204
  223 -29.5143 -0.0175285 25.4166
  224 -29.5652 -0.0220975 -25.4553
  225 357.692 1.61177 -12.6034
  226 357.793 1.58364 12.5937
  227 385.563 -5.99167 -25.0322
  228 385.872 -6.36831 24.9476
  229 617.483 46.3490 0.369771
  230 566.575 63.9233 29.6830
  231 556.639 -2.61398 -46.0963
  232 70.0559 14.9599 5.47295
  233 69.9867 14.9822 -5.46385
  234 5.92515 12.6360 24.5450
  235 5.80324 12.6729 -24.5845
  236 430.775 -26.0104 -17.6450
  237 428.305 -26.3185 19.0530
  238 239.150 1.53048 -3.43662
  239 239.187 1.52723 3.43845
  240 -51.8809 3.70167 16.5353
  241 -51.9802 3.70976 -16.5601
  242 -7.25677 -7.13530 -11.8602
  243 -7.24952 -7.12999 11.8666
  244 -56.7946 1.27045 5.00266
  245 -56.9039 1.27190 -5.00701
  246 197.631 14.1505 -16.0627
  247 197.664 14.1241 16.1203
  248 250.863 7.15901 -35.1954
  249 251.048 7.03949 35.3446
  250 62.2728 3.47792 -0.0794320
  251 62.3242 3.47715 0.0798175
  252 145.837 4.95916 -121.700
  253 172.214 8.82106 132.249
  254 20.3643 9.50325 23.0375
  255 20.2753 9.69938 -23.1442
  256 583.689 -41.8642 -15.1224
  257 52.6348 19.1736 9.51239
  258 52.5282 19.2214 -9.51049
  259 143.209 15.7454 -46.6452
  260 142.928 16.1198 47.1186
  261 653.828 93.7993 -1.48818
  262 387.895 -0.200897 17.0514
  263 387.751 -0.0892926 -17.0999
  264 -3.47328 -21.5812 -18.5305
  265 -3.36861 -21.6655 18.6022
  266 -0.705879 -51.0128 -25.2952
  267 1.84352 -59.1090 -22.9628
  268 1.00284 -59.3413 24.1996
  269 -9.39121 -8.10355 33.4724
  270 -9.43397 -8.09324 -33.6111
  271 21.3773 -45.0208 -10.5142
  272 23.0213 -41.2293 14.1345
  273 -22.2956 -1.84591 16.2607
  274 -22.3098 -1.85460 -16.2769
  275 277.193 7.08980 -14.6191
  276 277.271 7.05121 14.6298
  277 483.637 -48.9643 -6.06147
  278 108.916 8.66858 0.375681
  279 108.947 8.66595 -0.369820
  280 -1.21680 -47.9016 24.2017
  281 12.0680 9.72177 10.8589
  282 11.9800 9.73770 -10.8673
  283 765.946 52.8917 -22.1113
  284 375.715 -0.126483 5.28227
  285 375.610 -0.120384 -5.28350
  286 254.728 -11.2611 -91.7065
  287 256.886 -11.0634 93.0522
  288 483.036 -46.4620 -1.79619
  289 -45.3006 1.44692 20.0287
  290 -45.3641 1.44693 -20.0608
  291 471.995 -34.7168 148.894
  292 -19.7171 3.57810 30.2254
  293 -19.7980 3.57254 -30.2813
  294 81.7599 22.3956 -7.82054
  295 81.4407 22.6046 7.90612
  296 -81.5476 0.558807 0.865147
  297 -81.6696 0.558671 -0.865821
  298 398.254 12.6555 -201.944
  299 -77.2219 1.52640 -8.84605
  300 -77.1095 1.52321 8.83423
  301 -1.85559 -9.35652 33.8997
  302 -0.646267 -9.08255 -33.5141
  303 177.406 17.5972 -23.1319
  304 177.409 17.5953 23.2712
  305 40.3867 4.19025 3.41989
  306 40.3232 4.19245 -3.42098
  307 184.250 6.45601 -5.00168
  308 184.262 6.45101 5.00843
  309 17.8657 -11.7424 16.6223
  310 16.2896 -14.3049 -16.8717
  311 178.861 2.56873 -1.29160
  312 178.867 2.56763 1.29267
  313 -63.8100 1.67009 14.6175
  314 -63.8935 1.67257 -14.6415
  315 45.4826 -2.52580 -12.9161
  316 44.1539 -2.59192 11.7210
  317 391.332 -0.647157 1.47886
  318 391.215 -0.646144 -1.47800
  319 851.115 48.0944 34.8132
  320 90.8708 11.4654 1.63415
  321 90.8255 11.4739 -1.62508
  322 -16.8176 4.09442 6.81301
  323 -16.9101 4.09951 -6.81878
  324 124.275 16.1810 -4.13155
  325 124.238 16.1929 4.16662
  326 15.4276 13.0747 25.3560
  327 15.3266 13.1027 -25.4246
  328 1.89683 -85.6467 16.7463
  329 -84.6708 0.0698852 -2.01881
  330 -84.5476 0.0700969 2.01721
  331 300.115 0.268073 -2.83941
  332 300.183 0.266105 2.84042
  333 315.972 1.58057 -7.52768
  334 316.050 1.56969 7.52803
  335 -79.1926 1.28587 -6.35229
  336 -79.0743 1.28401 6.34581
  337 0.806613 1.24494 0.684183
  338 0.725335 1.24490 -0.684664
  339 -1.78212 -35.6053 18.4637
  340 -1.41350 -37.0359 -18.4381
  341 356.898 -29.1177 -62.2101
  342 370.471 -34.8407 61.1074
  343 212.754 9.67100 -10.0046
  344 212.787 9.65443 10.0213
  345 94.9185 21.8769 -4.76011
  346 94.7556 21.9765 4.82783
  347 -31.1182 6.17938 14.3986
  348 -31.2188 6.19156 -14.4172
  349 658.563 17.2668 21.8726
  350 35.9203 -46.7631 -41.8800
  351 38.4108 -43.0986 43.7197
  352 -12.7511 10.1612 23.2707
  353 -12.8572 10.1841 -23.3079
  354 -17.9712 -3.50651 29.7177
  355 -18.0197 -3.51604 -29.7726
  356 747.036 127.642 -39.8770
  357 483.782 -5.71656 58.2644
  358 448.986 -10.8292 -11.6514
  359 448.643 -10.5763 10.9642
  360 316.526 -4.01866 -39.7165
  361 316.154 -4.31776 39.7405
  362 0.604342 -103.189 -13.4330
  363 410.331 0.616560 -9.52013
  364 410.440 0.585569 9.49368
  365 5.45937 -96.5007 10.0558
  366 481.194 37.8258 -30.4062
  367 118.574 3.43602 1.21810
  368 118.551 3.43622 -1.21837
  369 318.052 1.79499 -29.4762
  370 318.256 1.64423 29.5192
  371 341.733 2.20535 -17.7682
  372 341.846 2.13845 17.7557
  373 -4.19758 3.51840 4.48390
  374 -4.28297 3.52118 -4.48688
  375 198.202 10.9710 -47.5448
  376 198.242 11.0974 47.9550
  377 403.183 -0.507627 2.41639
  378 403.060 -0.505958 -2.41565
  379 231.198 12.0412 -24.1782
  380 231.283 11.9745 24.2658
  381 265.867 3.46265 6.23064
  382 265.814 3.46897 -6.22797
  383 -12.6565 -2.26348 10.0704
  384 -12.6564 -2.26958 -10.0712
  385 -3.02163 -2.14389 -2.95576
  386 -3.02296 -2.14486 2.96026
  387 538.665 -64.8561 41.5776
  388 -6.92234 -16.7522 27.2701
  389 -6.87457 -16.8992 -27.2752
  390 90.0682 5.21770 -1.18812
  391 90.1069 5.21643 1.18984
  392 -2.66759 -13.4373 10.1183
  393 -2.69832 -13.4166 -10.1201
  394 35.6481 15.1115 11.6835
  395 35.5551 15.1417 -11.6889
  396 440.221 -2.22921 12.6353
  397 440.068 -2.07424 -12.8353
  398 -0.873110 -25.5983 32.4854
  399 -36.1032 -0.627949 15.3472
  400 -36.1319 -0.631345 -15.3678
  401 -1.01295 -27.0715 -32.1233
  402 412.705 -0.193355 6.06961
  403 412.586 -0.184224 -6.07644
  404 -2.91643 9.41931 29.3995
  405 -3.05729 9.44710 -29.4603
  406 306.731 3.89985 -11.9319
  407 306.810 3.87620 11.9320
  408 470.686 -20.0957 -8.92691
  409 471.976 -16.2961 6.59320
  410 -0.926846 -48.4497 -20.1947
  411 43.6011 16.4037 -7.25485
  412 43.9585 16.2320 7.20118
  413 473.795 30.7572 18.8503
  414 268.442 -12.3768 -126.339
  415 275.410 -17.2969 132.081
  416 17.4177 14.5268 18.5160
  417 17.3080 14.5628 -18.5381
  418 197.922 4.69774 -3.42385
  419 197.939 4.69493 3.42685
  420 192.382 38.1634 200.328
  421 80.9692 18.2764 -3.45446
  422 81.0509 18.2399 3.47531
  423 5.14242 -44.9076 21.2642
  424 -0.583392 -78.6090 -17.4189
  425 32.8238 17.9715 16.9213
  426 32.6968 18.0249 -16.9490
  427 40.7118 10.0071 -6.90157
  428 40.7839 9.99509 6.90073
  429 -12.8070 -0.389667 -33.2873
  430 -12.7273 -0.408237 33.2276
  431 96.4119 19.2518 -20.2362
  432 95.9983 19.5336 20.4275
  433 474.295 -14.7429 -44.2154
  434 14.0374 -3.76746 24.8501
  435 13.5890 -3.65822 -25.0179
  436 345.542 -14.9207 -43.8696
  437 346.940 -15.9447 43.8187
  438 -84.9599 0.651283 -8.72868
  439 -84.8541 0.649149 8.71533
  440 -0.000837852 -77.3485 15.7144
  441 -0.542788 -49.1961 17.9931
  442 -34.4198 2.32989 25.6056
  443 -34.4867 2.32844 -25.6478
  444 247.704 1.40168 -1.27581
  445 247.746 1.40017 1.27632
  446 -7.34267 -11.6034 18.6208
  447 -7.35603 -11.6312 -18.6028
  448 156.040 9.18553 -68.8956
  449 155.717 9.86998 69.6364
  450 1.29819 -93.0183 -17.0082
  451 849.452 29.2161 0.466633
  452 2.44062 -108.864 -9.15511
  453 -99.5750 -0.111502 -3.06383
  454 -99.4454 -0.111496 3.06127
  455 -37.8788 5.49947 20.6271
  456 -37.9763 5.51117 -20.6609
  457 -45.3146 0.660753 15.3760
  458 -45.3575 0.660427 -15.3981
  459 170.269 16.8788 -15.9992
  460 170.270 16.8819 16.0839
  461 255.885 9.41216 -18.6913
  462 255.971 9.35524 18.7272
  463 -4.05793 -15.4235 33.6364
  464 -4.06416 -15.3219 -33.7795
  465 445.869 8.58650 -55.7203
  466 31.1665 -6.05696 -3.12869
  467 30.0792 -6.32130 3.68846
  468 7.24791 -96.6601 -2.71244
  469 4.69743 -112.820 -0.667074
  470 -13.3799 -5.94821 19.1549
  471 -13.3872 -5.97044 -19.1646
  472 95.5502 -1.52061 -105.858
  473 672.589 6.91814 -71.8734
  474 155.140 9.24043 4.91777
  475 155.144 9.24332 -4.90545
  476 224.893 2.75671 -65.9682
  477 225.365 2.69195 66.9188
  478 67.1942 22.7877 5.46760
  479 67.0618 22.8646 -5.45602
  480 203.203 14.7729 -35.2015
  481 203.276 14.7070 35.4463
  482 8.13507 4.58711 29.7964
  483 8.58356 4.81286 -29.7613
  484 -88.5309 1.24864 -6.32895
  485 -88.4108 1.24703 6.32147
  486 443.210 -50.9062 -36.3885
  487 351.054 -0.348331 -2.01554
  488 351.149 -0.349461 2.01650
  489 21.1953 2.07873 -1.77721
  490 21.2670 2.07817 1.77630
  491 -21.1953 8.11050 19.0284
  492 -21.2973 8.12835 -19.0555
  493 -49.1159 2.94124 -6.73045
  494 -49.0100 2.93766 6.72389
  495 155.216 14.3469 -7.55149
  496 155.209 14.3450 7.58410
  497 -17.3740 7.14937 27.1381
  498 -17.4771 7.16579 -27.1898
  499 405.605 -11.7759 -23.5834
  500 406.297 -12.3325 23.2956
  501 267.710 2.59613 -44.0280
  502 267.297 2.42393 44.3950
  503 101.117 4.01535 -0.616820
  504 101.149 4.01502 0.617432
  505 1.19722 -47.3285 -27.3759
  506 476.241 -16.7462 36.1871
  507 6.86800 -30.4551 -24.2510
  508 137.170 21.4720 16.6236
  509 137.262 21.4063 -16.4855
  510 438.393 -47.6265 35.9948
  511 34.4409 -38.0792 56.7626
  512 520.631 -63.9437 -70.6800
  513 355.573 0.831957 21.4245
  514 355.411 0.963563 -21.4395
  515 1.16267 -40.3906 28.4907
  516 -6.97428 -2.06971 -5.40584
  517 -6.97714 -2.06854 5.40957
  518 45.8902 1.83477 -0.470397
  519 45.9493 1.83476 0.470196
  520 -1.18950 -27.5892 11.8951
  521 -1.07921 -27.4623 -11.9578
  522 293.114 2.26784 4.86649
  523 293.049 2.27113 -4.86496
  524 818.828 148.120 66.2771
  525 35.1722 -18.5366 -12.8737
  526 27.4367 -25.8598 7.13627
  527 -6.23742 6.02865 -9.13180
  528 -6.14676 6.01944 9.12373
  529 -70.8504 1.11461 9.18270
  530 -70.9205 1.11586 -9.19703
  531 0.725967 -87.3924 17.0535
  532 -97.5186 0.769904 0.789706
  533 -97.6484 0.769967 -0.790417
  534 92.3473 -2.42368 -78.3764
  535 90.3523 -0.974856 81.2951
  536 84.7215 15.7916 -28.1764
  537 84.0866 16.1580 28.3416
  538 -18.9223 -3.88131 26.0753
  539 -18.9539 -3.89879 -26.1157
  540 83.8016 6.82064 1.15908
  541 83.7583 6.82354 -1.15626
  542 -39.6013 1.72991 2.74217
  543 -39.7027 1.73085 -2.74452
  544 98.3355 13.6087 0.799899
  545 98.2883 13.6220 -0.783406
  546 -1.92238 -6.29632 4.62701
  547 -1.92913 -6.29098 -4.62620
  548 36.2728 15.6871 14.7693
  549 36.0327 15.8990 -14.8569
  550 29.2963 5.62454 12.7266
  551 28.8874 5.58814 -12.9743
  552 359.065 1.93238 9.00199
  553 358.967 1.94440 -9.00479
  554 318.601 3.53338 14.4903
  555 318.509 3.57235 -14.4929
  556 -0.325363 -74.5369 -10.9344
  557 224.504 10.4867 -14.5153
  558 224.552 10.4580 14.5448
  559 224.835 4.43313 -5.59864
  560 224.868 4.42606 5.60356
  561 -27.6934 0.817154 0.0820992
  562 -27.5982 0.817373 -0.0821976
  563 390.252 20.5842 -10.7278
  564 499.603 -61.5805 -27.4762
  565 416.772 19.6323 41.9094
  566 3.53529 -62.2694 -19.5751
  567 -20.0602 6.81766 -12.2987
  568 -19.9628 6.80621 12.2855
  569 3.78980 -35.8877 26.6346
  570 -21.6154 0.790543 29.6728
  571 -21.6797 0.786379 -29.7207
  572 638.992 61.2459 2.65131
  573 147.499 6.06838 -2.43535
  574 147.491 6.06689 2.44015
  575 955.141 81.9065 -85.5840
  576 -4.17934 -3.21442 34.3906
  577 -3.84007 -2.95711 -34.4140
  578 527.870 -45.1990 17.5702
  579 423.866 0.00749968 -10.5610
  580 423.973 -0.0446759 10.5096
  581 197.890 1.32235 -95.3781
  582 200.171 0.705727 96.7966
  583 -10.6583 -10.2020 30.1357
  584 -10.6702 -10.2571 -30.2185
  585 104.729 10.5817 51.7497
  586 105.601 9.82440 -51.3547
  587 -82.6149 0.937419 -8.56142
  588 -82.5181 0.935861 8.54798
  589 621.949 56.3364 30.2607
  590 121.011 10.3500 1.42812
  591 121.036 10.3472 -1.41806
  592 142.535 17.8050 -35.7848
  593 142.331 18.0181 36.1397
  594 384.687 -1.36822 -20.9009
  595 384.896 -1.55166 20.8593
  596 -1.63099 -38.5003 -27.0579
  597 416.442 -0.755228 3.18103
  598 416.313 -0.752904 -3.18074
  599 -58.1764 1.01074 -1.00636
  600 -58.0662 1.01061 1.00538
  601 -104.677 -0.829809 -0.00522834
  602 -104.810 -0.830518 0.00511601
  603 9.31725 -56.2477 -8.06821
  604 -3.84546 -25.1176 23.3277
  605 -4.05603 -23.7467 -23.4831
  606 -46.7551 2.95053 21.2664
  607 -46.8328 2.95451 -21.3014
  608 293.695 6.43932 18.3775
  609 293.597 6.49938 -18.3666
  610 216.917 2.01807 1.30326
  611 216.892 2.01899 -1.30258
  612 50.1436 -10.5628 33.6947
  613 51.6862 -9.51004 -33.4053
  614 -1.48942 -19.2569 10.0629
  615 -1.53646 -19.1971 -10.0977
  616 498.818 42.0154 215.838
  617 -24.8136 -0.746774 9.30478
  618 -24.8168 -0.750398 -9.31307
  619 9.34846 -33.8867 -19.1134
  620 212.487 7.60270 -7.67598
  621 212.515 7.59236 7.68581
  622 105.494 22.0401 -12.8830
  623 105.284 22.1773 13.0153
  624 1.01145 -130.631 6.27677
  625 79.6202 21.2264 2.64908
  626 79.5198 21.2809 -2.62394
  627 -6.42105 8.60731 14.8101
  628 -6.51798 8.62397 -14.8265
  629 -0.594775 -65.5923 14.9196
  630 -105.039 0.0431391 -3.07375
  631 -104.908 0.0429465 3.07091
  632 140.847 2.98829 0.851683
  633 140.860 2.98929 -0.850210
  634 349.928 0.433836 6.01398
  635 349.835 0.439676 -6.01361
  636 310.644 -18.0744 165.023
  637 250.046 5.44170 -11.3529
  638 250.100 5.42001 11.3639
  639 4.66782 -4.44306 31.4700
  640 5.61866 -2.25908 -31.3711
  641 398.203 -36.9536 -134.002
  642 926.108 31.4709 -35.5568
  643 -97.3353 0.0451408 -5.87375
  644 -97.2199 0.0441853 5.86568
  645 26.1186 4.85250 -4.05737
  646 26.1900 4.84880 4.05568
  647 -1.79899 -40.9742 23.9664
  648 539.975 33.8078 -50.1403
  649 411.682 -0.950988 0.566581
  650 411.554 -0.950188 -0.566110
  651 -26.3981 -1.38096 -21.5267
  652 -26.3673 -1.37377 21.4977
  653 -0.0857882 -92.9784 -14.2188
  654 418.688 -0.936919 1.22675
  655 418.557 -0.936020 -1.22591
  656 40.8346 13.0016 9.77439
  657 40.7527 13.0228 -9.77606
  658 322.869 -26.9025 -88.4047
  659 328.534 -26.7713 89.3414
  660 467.415 -3.21063 7.39001
  661 467.452 -3.18218 -7.67450
  662 2.07317 -116.579 10.8362
  663 -22.9993 0.551126 -1.57313
  664 -22.9063 0.551334 1.57203
  665 154.829 24.0253 -157.727
  666 146.415 2.57879 1.25255
  667 146.425 2.57916 -1.25173
  668 73.4690 4.73369 0.349871
  669 73.4225 4.73507 -0.348869
  670 86.8119 8.74178 -0.541016
  671 86.8555 8.73693 0.546819
  672 275.808 7.12426 -28.4405
  673 275.965 7.01019 28.5150
  674 74.6570 21.4789 -0.913030
  675 74.4302 21.6284 0.941336
  676 -47.8843 3.56842 -11.7801
  677 -47.7798 3.56102 11.7657
  678 -56.2499 3.89161 -13.5343
  679 -56.1460 3.88425 13.5152
  680 481.098 -7.42053 -0.810394
  681 0.868797 -18.7425 -32.4390
  682 481.683 -7.78206 0.179277
  683 615.040 47.6523 -2.46297
  684 -60.1545 0.291052 10.4718
  685 -60.2087 0.290766 -10.4880
  686 64.9698 19.0029 -5.57843
  687 64.5076 19.2266 5.61922
  688 -112.712 0.0274930 -1.04318
  689 -112.575 0.0275979 1.04214
  690 1.27636 -16.7858 32.4541
  691 -37.3945 0.579440 22.5362
  692 -37.4502 0.577131 -22.5710
  693 528.748 -42.2237 -19.5491
  694 86.0216 1.55944 -0.708077
  695 85.9823 1.55908 0.708574
  696 21.5086 7.41534 6.99953
  697 21.4311 7.42377 -7.00271
  698 281.920 -12.2406 -74.1844
  699 283.966 -12.7235 75.5695
  700 964.797 68.9179 77.6091
  701 19.4467 -83.0192 -34.4565
  702 -6.79271 -14.4381 32.1578
  703 -6.80124 -14.4995 -32.2355
  704 61.2378 12.7347 -4.85811
  705 61.3031 12.7197 4.86305
  706 430.408 -0.810117 -3.22995
  707 430.542 -0.812856 3.22866
  708 207.515 2.77144 2.41889
  709 207.493 2.77390 -2.41712
  710 18.5373 15.3619 22.4769
  711 18.4162 15.4077 -22.5186
  712 13.0904 3.51028 2.84373
  713 13.0144 3.51205 -2.84530
  714 -11.4687 3.21439 32.5077
  715 -11.5616 3.21059 -32.5788
  716 354.835 -0.786841 2.55478
  717 354.739 -0.784709 -2.55390
  718 308.009 2.02354 6.89537
  719 307.937 2.03005 -6.89384
  720 42.6362 -23.1637 40.1330
  721 43.8252 -25.0907 -38.8682
  722 -23.0280 5.31091 28.3376
  723 -23.1185 5.31631 -28.3914
  724 13.3576 -27.5900 14.5966
  725 2.05671 9.53997 29.5569
  726 1.90940 9.56321 -29.6002
  727 -66.3290 1.84169 -7.77079
  728 -66.2170 1.83855 7.76173
  729 55.8435 17.1046 8.76139
  730 55.7502 17.1402 -8.75568
  731 477.023 -14.2432 -24.3573
  732 451.609 -38.9061 -13.2353
  733 -7.19711 -14.7466 22.9626
  734 -7.18913 -14.8186 -22.9359
  735 177.580 1.87555 -112.486
  736 173.048 5.56713 113.468
  737 108.865 20.7377 -19.0031
  738 108.584 20.9397 19.1982
  739 9.83171 -16.0464 25.3949
  740 -0.633655 -48.7071 -13.0299
  741 224.972 11.7768 -26.9753
  742 225.071 11.7130 27.1049
  743 0.561195 -95.4527 11.9911
  744 135.158 17.9421 -8.17405
  745 135.120 17.9577 8.22921
  746 452.546 -0.664053 -7.98521
  747 452.615 -0.717343 7.88866
  748 9.20151 -125.185 4.27399
  749 207.229 14.7366 20.5658
  750 207.180 14.7718 -20.4847
  751 57.2145 20.1037 -4.03441
  752 57.5096 19.9059 4.00503
  753 -81.6048 0.536461 -7.25721
  754 -81.5211 0.535823 7.24516
  755 229.052 3.18820 -4.84090
  756 229.085 3.18380 4.84402
  757 142.759 19.9605 -14.0830
  758 142.704 19.9943 14.1850
  759 2.47093 12.3228 22.6100
  760 2.35841 12.3552 -22.6435
  761 452.954 -33.3332 7.67513
  762 -68.3180 1.40358 5.88341
  763 -68.4323 1.40512 -5.88861
  764 963.580 194.351 -138.061
  765 -24.3337 2.49176 6.03276
  766 -24.4286 2.49439 -6.03740
  767 384.494 0.568442 14.8072
  768 384.377 0.631973 -14.8415
  769 714.272 43.8177 -0.137304
  770 433.835 -1.45835 -6.05732
  771 433.959 -1.46825 6.04672
  772 279.534 3.33831 8.73444
  773 279.473 3.34932 -8.73132
  774 417.392 -44.6716 122.221
  775 183.114 12.6118 -8.20159
  776 183.129 12.6019 8.22559
  777 4.31306 -70.5125 13.8690
  778 478.294 -58.4433 41.9303
  779 290.803 0.0991647 1.47925
  780 290.740 0.100561 -1.47866
  781 379.278 -0.267429 0.784943
  782 379.168 -0.266785 -0.784462
  783 -1.66574 -38.2629 -22.4532
  784 2.41997 -64.4187 21.2779
  785 173.943 18.9404 28.5637
  786 173.956 18.9237 -28.3533
  787 952.642 8.82254 8.57325
  788 296.844 2.08105 -35.2984
  789 297.047 1.94447 35.3918
  790 -60.2073 1.99436 15.8202
  791 -60.3014 1.99928 -15.8445
  792 13.0216 -50.4759 2.95736
  793 8.37047 -116.249 -10.0851
  794 672.752 87.7973 -14.6945
  795 -0.579086 -48.5866 11.7653
  796 14.8022 10.3048 26.2137
  797 14.7514 10.2980 -26.3497
  798 92.3459 17.4225 1.31215
  799 92.2839 17.4488 -1.28983
  800 449.024 -20.6908 -8.25990
  801 450.009 -20.4141 6.83557
  802 524.490 87.6972 -204.694
  803 -70.1629 0.643437 -2.56120
  804 -70.0472 0.643030 2.55878
  805 -34.0252 -0.126546 8.74797
  806 -34.0367 -0.128120 -8.75829
  807 33.7804 3.80814 6.48184
  808 33.0740 3.77432 -6.56325
  809 341.666 -2.34876 31.7139
  810 341.416 -2.07718 -31.6332
  811 175.460 3.88134 -1.54691
  812 175.465 3.87964 1.54888
  813 549.695 -5.85413 45.6868
  814 60.3408 8.84024 -4.37651
  815 60.4004 8.83248 4.37892
  816 55.5259 8.66933 -11.1502
  817 55.0305 8.91879 11.2683
  818 -0.0138640 -37.3392 -29.8333
  819 770.015 127.007 115.821
  820 -110.699 0.0850391 -3.08948
  821 -110.567 0.0848718 3.08609
  822 -0.162776 -115.890 11.1675
  823 8.75436 -15.8849 -25.7355
  824 -16.9646 -1.02471 6.53927
  825 -16.9585 -1.02746 -6.54186
  826 619.599 39.5448 -29.2307
  827 163.822 15.4724 -10.3482
  828 163.820 15.4705 10.3989
  829 425.578 -6.61215 -16.0310
  830 425.984 -6.67008 15.8191
  831 -106.081 0.769148 4.16627
  832 -106.205 0.770175 -4.17167
  833 -0.776484 -0.802837 -0.667380
  834 -0.778060 -0.804270 0.670040
  835 0.329213 -118.477 -10.8651
  836 0.540549 -123.931 -9.59125
  837 -115.921 1.06940 0.583426
  838 -116.060 1.06969 -0.583846
  839 66.5678 -14.3742 -75.3665
  840 264.973 2.46877 -2.64111
  841 265.023 2.46692 2.64213
  842 -5.79429 1.79232 0.755975
  843 -5.87875 1.79248 -0.756411
  844 391.265 0.605880 -9.78304
  845 391.375 0.584664 9.76923
  846 -44.6801 0.302902 8.30442
  847 -44.7039 0.302909 -8.31532
  848 239.426 7.55559 -167.434
  849 410.612 -34.6852 35.2542
  850 321.434 0.809429 -3.16844
  851 321.513 0.807320 3.16936
  852 407.007 -37.6726 -39.1987
  853 129.145 13.5762 -3.70759
  854 129.119 13.5808 3.73216
  855 177.273 10.7836 -6.34676
  856 177.282 10.7769 6.36237
  857 476.754 -10.0818 18.6301
  858 30.8078 17.4908 18.1171
  859 30.6715 17.5554 -18.1708
  860 32.7273 1.63343 1.27532
  861 32.6615 1.63349 -1.27593
  862 225.978 2.11896 2.27062
  863 225.947 2.12075 -2.26939
  864 585.400 -49.6557 70.2491
  865 367.773 1.53320 -12.8940
  866 367.882 1.49371 12.8753
  867 7.83528 5.22783 5.51327
  868 7.75420 5.23273 -5.51654
  869 368.115 -0.869315 3.67665
  870 368.012 -0.866583 -3.67570
  871 -65.8906 0.226617 -1.76411
  872 -65.7764 0.227015 1.76315
  873 -0.312584 -37.2376 10.5101
  874 -0.414109 -37.8196 -10.5885
  875 445.878 -5.65404 45.3398
  876 -25.6818 6.87085 23.7289
  877 -25.7807 6.88639 -23.7693
  878 -0.144406 -61.2238 -11.5727
  879 177.176 5.75820 -3.32840
  880 177.183 5.75585 3.33245
  881 324.343 -16.1331 -56.7502
  882 326.783 -17.8335 57.2951
  883 -13.4765 -4.59676 -32.2619
  884 -13.4128 -4.59525 32.1898
  885 19.2509 15.3507 20.5640
  886 19.1331 15.3931 -20.5931
  887 1.52753 -138.443 7.51467
  888 5.74019 12.2038 26.8647
  889 5.61278 12.2349 -26.9088
  890 299.767 -5.43099 -50.5095
  891 299.098 -5.64655 50.9078
  892 517.549 30.1487 52.4667
  893 120.485 12.5907 2.05895
  894 120.515 12.5861 -2.04305
  895 377.023 1.78357 -9.62160
  896 377.128 1.76753 9.61450
  897 -14.5713 -6.26730 28.4545
  898 -14.6014 -6.29315 -28.5092
  899 1.34507 -141.846 -4.57219
  900 -22.4258 -1.38814 27.8456
  901 -22.4737 -1.39328 -27.8901
  902 16.2983 13.6917 -16.0050
  903 16.3992 13.6616 15.9884
  904 -1.15768 -9.41008 5.19839
  905 -1.17092 -9.40091 -5.20628
  906 34.1949 15.4385 -14.0587
  907 34.2992 15.4011 14.0489
  908 7.51509 -10.3681 28.9181
  909 6.58520 -9.63969 -30.4990
  910 367.620 -10.7862 32.4387
  911 366.763 -10.3039 -32.5923
  912 -118.457 0.282628 -0.857448
  913 -118.317 0.282647 0.856761
  914 -10.4528 -0.932876 4.93067
  915 -10.4438 -0.934578 -4.92951
  916 0.489890 -86.9443 -10.5187
  917 -11.1437 -4.75924 -13.9971
  918 -11.1387 -4.74692 13.9971
  919 -46.1919 3.98323 20.3286
  920 -46.2821 3.99115 -20.3624
  921 116.512 21.8207 -8.57114
  922 116.415 21.8891 8.65126
  923 492.991 38.2679 -7.41154
  924 -4.00030 10.9015 20.5370
  925 -4.10599 10.9270 -20.5654
  926 182.997 11.8474 -53.4380
  927 182.988 12.0140 53.9973
  928 -19.8701 7.51894 16.5147
  929 -19.9704 7.53555 -16.5368
  930 588.618 -25.5330 -5.76669
  931 364.348 14.5067 22.8129
  932 432.591 -4.96534 -40.9987
  933 321.698 3.61914 -21.4782
  934 321.831 3.52622 21.4833
  935 -31.9454 4.37007 -7.91377
  936 -31.8464 4.36402 7.90579
  937 -75.3718 1.33173 10.0515
  938 -75.4788 1.33498 -10.0664
  939 -4.57959 -14.8644 -16.2327
  940 -4.54633 -14.8753 16.2608
  941 115.841 6.75904 1.20723
  942 115.866 6.75806 -1.20292
  943 -35.1041 3.78436 25.3433
  944 -35.1823 3.78667 -25.3878
  945 383.720 -0.606922 4.78830
  946 383.610 -0.603679 -4.78759
  947 -2.84199 -32.5209 24.4389
  948 16.2151 12.4846 -13.6683
  949 16.3091 12.4611 13.6564
  950 21.9102 8.49232 8.78189
  951 21.8293 8.50422 -8.78674
  952 68.5608 5.67829 -1.81482
  953 68.6106 5.67569 1.81560
  954 719.877 96.3182 -25.2471
  955 -2.89358 -0.787142 -1.96620
  956 -2.89978 -0.787041 1.96975
  957 25.8900 7.84707 -16.9169
  958 26.3228 7.64970 16.8313
  959 260.587 9.70791 -22.8588
  960 260.693 9.63198 22.9119
  961 35.2876 10.7643 -8.24525
  962 35.3657 10.7493 8.24294
  963 71.8143 -8.61155 99.1837
  964 485.763 -3.61944 -4.27663
  965 485.143 -3.48601 3.84522
  966 88.0521 -4.05778 87.1047
  967 92.8796 3.35721 -0.512819
  968 92.8436 3.35757 0.513500
  969 238.072 -5.23021 -144.915
  970 179.717 2.34479 1.21987
  971 179.709 2.34537 -1.21914
  972 23.3546 -21.5057 3.19684
  973 25.8057 -17.7587 -1.25448
  974 429.547 -0.596422 1.64308
  975 429.409 -0.595614 -1.64208
  976 -35.2362 0.153996 20.5420
  977 -35.2778 0.151595 -20.5707
  978 771.305 97.2001 46.7044
  979 -3.13462 -24.0776 -32.0342
  980 4.12808 -116.959 15.5909
  981 -0.455183 -38.3678 29.4858
  982 444.449 -0.543597 -6.18031
  983 444.563 -0.558114 6.15909
  984 -5.86798 -10.7604 14.0391
  985 -5.88469 -10.7620 -14.0263
  986 559.377 59.1705 -27.3728
  987 965.793 7.91915 -5.73220
  988 -1.45375 -2.21514 -2.13995
  989 -1.45211 -2.21982 2.14304
  990 260.331 2.27250 -5.00362
  991 260.379 2.26862 5.00578
  992 -3.20062 -23.1127 32.1807
  993 361.079 1.04317 19.0667
  994 360.948 1.13797 -19.0900
  995 474.658 -31.0295 -17.2841
  996 -16.5057 -3.41574 15.8023
  997 -16.5132 -3.42894 -15.8116
  998 8.18049 -29.7013 22.1363
  999 -0.713993 -58.1526 23.1530
  1000 -0.0707655 -60.7580 11.5610
  1001 491.303 31.4509 -2.93389
  1002 558.947 61.4101 14.6222
  1003 398.923 -44.7992 -68.2112
  1004 5.92174 -55.8640 17.7492
  1005 7.45359 -79.9394 2.91180
  1006 112.597 2.11660 0.236079
  1007 112.571 2.11635 -0.236060
  1008 -4.41174 -5.03210 -6.72667
  1009 -4.40767 -5.03281 6.73172
  1010 4.00153 -45.9168 -24.1589
  1011 320.914 -0.203356 -1.16391
  1012 320.993 -0.204595 1.16435
  1013 65.7732 1.63646 -33.6048
  1014 62.9651 1.78499 33.2847
  1015 -4.78043 10.0472 27.2640
  1016 -4.90183 10.0747 -27.3163
  1017 -36.4274 5.72124 -16.8924
  1018 -36.3263 5.70918 16.8684
  1019 246.829 3.95137 -51.9202
  1020 246.950 4.17513 52.4671
  1021 178.332 15.5608 -36.8132
  1022 178.299 15.5657 37.1397
  1023 193.060 13.1945 -12.6930
  1024 193.084 13.1752 12.7301
  1025 498.272 -12.5990 -52.3067
  1026 -12.2402 6.27474 30.1523
  1027 -12.3484 6.28339 -30.2214
  1028 352.424 -0.945183 26.1578
  1029 352.223 -0.741063 -26.1534
  1030 -2.02930 -17.8715 33.4700
  1031 -28.3345 -0.915592 15.2172
  1032 -28.3519 -0.920429 -15.2348
  1033 321.422 2.31366 -26.0556
  1034 321.588 2.18155 26.0740
  1035 402.248 10.1059 -37.6908
  1036 -0.401641 -57.7710 -24.2826
  1037 -4.61267 -22.7169 28.9439
  1038 -4.80973 -22.9990 -28.7058
  1039 227.677 12.5724 -19.0684
  1040 227.744 12.5252 19.1265
  1041 286.043 4.52684 10.7890
  1042 285.975 4.54407 -10.7856
  1043 473.685 -30.3121 14.9123
  1044 25.7857 1.92237 -0.343309
  1045 25.8546 1.92224 0.343108
  1046 403.246 -50.0864 72.7465
  1047 0.0834540 1.25785 1.80330
  1048 0.00166393 1.25796 -1.80442
  1049 88.7780 22.0373 -1.06712
  1050 88.6534 22.1130 1.11030
  1051 34.5788 17.4075 15.4558
  1052 34.4638 17.4532 -15.4718
  1053 4.55254 -69.7080 -14.4607
  1054 118.431 3.77872 0.587648
  1055 118.455 3.77916 -0.585357
  1056 356.012 11.4502 9.43230
  1057 324.123 1.79846 9.96578
  1058 324.040 1.81483 -9.96654
  1059 -1.68740 -18.5928 -33.5304
  1060 486.949 -6.29356 -9.27960
  1061 0.547610 -1.14371 33.0240
  1062 0.918744 -0.878943 -32.8599
  1063 441.679 -0.949414 -3.42228
  1064 441.815 -0.952802 3.41887
  1065 470.843 -1.79694 -6.02702
  1066 470.799 -1.85517 5.87892
  1067 -0.355637 -91.9919 8.67407
  1068 278.254 6.32354 -14.2491
  1069 278.324 6.29428 14.2564
  1070 337.599 2.43252 11.5622
  1071 337.508 2.45410 -11.5660
  1072 8.50801 8.37689 29.4182
  1073 8.45978 8.37797 -29.4571
  1074 731.883 47.7915 8.35567
  1075 -8.95024 -3.73650 34.2414
  1076 -9.09801 -3.65115 -34.3318
  1077 106.741 20.2182 -2.40843
  1078 106.678 20.2524 2.44772
  1079 -56.5437 0.902431 -2.85294
  1080 -56.4343 0.902129 2.85074
  1081 174.453 10.5767 -61.4422
  1082 174.201 11.0554 62.1436
  1083 51.1658 19.6667 11.4811
  1084 51.0409 19.7243 -11.4868
  1085 118.957 14.4828 -45.8996
  1086 118.347 15.0582 46.2653
  1087 -3.04106 -30.5529 -23.8234
  1088 417.384 6.15733 49.9385
  1089 290.559 5.14438 187.380
  1090 48.1258 20.3341 11.8299
  1091 47.9803 20.4098 -11.8482
  1092 176.623 8.60244 -4.88937
  1093 176.631 8.59661 4.89964
  1094 632.393 6.33744 10.4982
  1095 41.9575 11.1836 6.56934
  1096 41.4339 11.3086 -6.73345
  1097 -18.6983 -4.05301 20.9864
  1098 -18.7154 -4.07240 -21.0093
  1099 -0.612725 -14.0399 5.66824
  1100 -0.637275 -14.0318 -5.69120
  1101 416.119 -0.877409 15.2845
  1102 415.958 -0.728415 -15.3831
  1103 0.825306 -28.8867 31.3207
  1104 -28.0587 1.91642 -27.7459
  1105 -27.9938 1.92013 27.7006
  1106 0.136693 -110.908 -10.9238
  1107 -6.19980 -8.79789 34.1920
  1108 -6.18079 -8.60387 -34.2284
  1109 397.494 0.0456183 -6.43596
  1110 397.609 0.0383514 6.43327
  1111 410.803 -3.62745 18.4740
  1112 410.514 -3.38542 -18.5710
  1113 73.2247 16.7946 -16.5531
  1114 72.6710 17.1025 16.6821
  1115 -0.950508 -57.1406 -19.8339
  1116 539.883 -45.7823 -110.663
  1117 699.436 94.7003 10.1406
  1118 7.48205 -84.0859 -0.107982
  1119 26.3231 14.7627 -20.8949
  1120 26.4775 14.6839 20.7773
  1121 68.7570 21.8381 4.30999
  1122 68.5908 21.9373 -4.29854
  1123 143.902 7.80422 2.25539
  1124 143.913 7.80592 -2.24798
  1125 -8.95590 -12.7568 27.1337
  1126 -8.94403 -12.8813 -27.1788
  1127 -24.6982 8.02082 21.7633
  1128 -24.7994 8.03858 -21.7968
  1129 -8.03377 10.2585 25.1845
  1130 -8.14595 10.2839 -25.2281
  1131 393.135 -20.1568 -32.0108
  1132 395.605 -20.2946 31.7801
  1133 0.420181 -65.2466 -22.9947
  1134 211.602 0.244343 -76.5122
  1135 211.902 0.896728 77.7320
  1136 68.7182 19.7342 -5.39532
  1137 68.8113 19.6887 5.40918
  1138 209.437 110.096 209.068
  1139 54.1930 15.7164 8.41457
  1140 54.1093 15.7438 -8.41068
  1141 534.513 -56.5102 -28.9011
  1142 203.781 4.88655 3.87826
  1143 203.760 4.89108 -3.87419
  1144 -9.06447 -8.06657 16.6671
  1145 -9.07149 -8.08652 -16.6629
  1146 -10.7899 -9.65694 21.5208
  1147 -10.7911 -9.69613 -21.5250
  1148 352.661 -34.5308 -106.595
  1149 359.533 -38.1106 107.363
  1150 65.1961 1.95079 0.975589
  1151 65.2458 1.95084 -0.974900
  1152 222.633 10.1261 -42.4294
  1153 222.625 10.0040 42.8344
  1154 480.796 -62.3200 82.2968
  1155 426.231 -1.11330 0.947779
  1156 426.095 -1.11245 -0.947050
  1157 -37.0855 5.99161 19.4629
  1158 -37.1853 6.00393 -19.4922
  1159 -64.2022 1.93332 -10.0920
  1160 -64.0923 1.92934 10.0805
  1161 111.578 6.59988 127.455
  1162 344.183 22.6445 -19.1841
  1163 203.645 13.9273 -21.3530
  1164 203.698 13.8934 21.4600
  1165 621.649 -12.7846 119.625
  1166 207.022 13.5232 -31.2195
  1167 207.086 13.4628 31.4050
  1168 53.3186 6.15351 -2.93852
  1169 53.3771 6.14985 2.93873
  1170 18.3565 -62.3654 13.8252
  1171 18.5473 -60.5773 -18.7312
  1172 279.857 -18.3625 -107.658
  1173 283.604 -17.0940 107.539
  1174 110.676 18.6690 -32.5654
  1175 110.209 19.0346 32.8628
  1176 489.911 -31.9063 -33.4432
  1177 -17.4248 -1.29554 31.3352
  1178 -17.4895 -1.29592 -31.3906
  1179 -0.114464 -25.7599 -32.1932
  1180 126.681 5.52938 -80.9466
  1181 126.952 5.87537 82.2682
  1182 -0.312533 -24.8569 6.30884
  1183 -0.267264 -24.9180 -6.38741
  1184 -116.033 0.953426 -2.92708
  1185 -115.900 0.952748 2.92356
  1186 388.015 -0.585353 -1.83209
  1187 388.130 -0.586750 1.83285
  1188 241.754 8.16530 -12.4551
  1189 241.809 8.13810 12.4731
  1190 -8.25709 0.265778 34.1407
  1191 -8.28274 0.406913 -34.2079
  1192 0.0108821 -99.2613 -9.62957
  1193 -98.9035 0.219332 4.81105
  1194 -99.0129 0.219916 -4.81861
  1195 78.8074 0.881637 -57.4818
  1196 78.2346 1.37041 59.2291
  1197 454.602 -27.7228 -2.93846
  1198 131.796 9.77327 -72.8269
  1199 131.876 10.0931 73.4935
  1200 -55.2757 0.303592 7.53577
  1201 -55.3124 0.303228 -7.54664
  1202 1.50877 -85.6125 -15.8245
  1203 -14.1584 3.18052 -3.63963
  1204 -14.0690 3.17860 3.63710
  1205 70.4814 16.4932 5.77133
  1206 70.4028 16.5221 -5.75937
  1207 256.600 0.693908 -1.60480
  1208 256.646 0.692590 1.60552
  1209 344.684 1.04589 7.57437
  1210 344.594 1.05597 -7.57525
  1211 19.7013 -1.44008 17.5431
  1212 19.4092 -1.77149 -17.9001
  1213 3.41487 -48.9053 24.2094
  1214 618.921 86.7167 17.8809
  1215 -19.0328 -1.46862 11.9903
  1216 -19.0366 -1.47508 -11.9977
  1217 2.71853 -45.8087 -25.4404
  1218 -1.79367 -28.8387 17.5202
  1219 -1.70696 -28.5600 -18.1491
  1220 488.824 -5.38910 8.21147
  1221 0.424096 -113.426 9.83074
  1222 3.85813 -33.4481 -28.3963
  1223 60.6202 1.40615 0.539773
  1224 60.5684 1.40589 -0.540015
  1225 -4.65386 -20.2711 31.7414
  1226 -52.1039 2.92738 -8.44360
  1227 -51.9969 2.92342 8.43502
  1228 983.987 16.6922 28.3755
  1229 -27.6234 3.39561 27.9524
  1230 -27.7002 3.39483 -28.0021
  1231 237.602 9.17596 -38.3384
  1232 237.785 9.01815 38.5548
  1233 15.9271 -21.6260 -10.9014
  1234 225.912 10.8598 -15.7719
  1235 225.968 10.8231 15.8119
  1236 9.58794 -66.5711 -2.36124
  1237 -4.67271 -20.3204 -31.7000
  1238 -35.5454 1.30074 4.90356
  1239 -35.6450 1.30195 -4.90728
  1240 -16.5701 1.51819 -31.9479
  1241 -16.4911 1.52397 31.8952
  1242 483.706 39.1185 36.9468
  1243 274.310 2.75566 -40.3794
  1244 274.612 2.68904 40.4790
  1245 -121.008 0.247497 -1.02003
  1246 -120.868 0.247415 1.01895
  1247 246.900 5.25388 -8.41542
  1248 246.945 5.24405 8.42087
  1249 -123.791 -2.18984 -0.342290
  1250 -123.935 -2.19108 0.342411
  1251 367.738 -26.0145 -46.2773
  1252 -57.3340 0.998545 15.8309
  1253 -57.4042 0.999007 -15.8568
  1254 371.346 -27.4605 45.8617
  1255 251.340 8.45667 -16.9565
  1256 251.408 8.41369 16.9812
  1257 29.9447 -59.6339 -56.9022
  1258 0.550194 -78.9548 -19.6600
  1259 -1.54084 -33.1065 29.7379
  1260 778.962 139.372 -117.245
  1261 -0.173278 -74.2879 19.3271
  1262 813.721 76.9667 -52.1239
  1263 -0.483123 -137.795 -9.09117
  1264 41.6739 3.56038 -0.856004
  1265 41.7358 3.55904 0.855925
  1266 -0.338554 -31.9017 6.60912
  1267 -0.271193 -32.0734 -6.59284
  1268 141.374 2.87952 0.313971
  1269 141.386 2.88002 -0.313300
  1270 495.041 -36.6446 31.6438
  1271 12.1853 3.41564 -4.21529
  1272 12.2625 3.41334 4.21302
  1273 2.85359 -149.174 3.77459
  1274 1.81418 -159.097 -3.75610
  1275 455.244 -55.3962 -50.1863
  1276 -1.22666 -41.1720 19.3154
  1277 480.153 31.7654 -47.2148
  1278 -1.41726 -54.2503 18.9583
  1279 0.968956 -147.632 -6.75971
  1280 230.672 5.84363 -9.32812
  1281 230.712 5.82594 9.33938
  1282 -0.181268 -81.1093 8.56484
  1283 -0.194543 -67.0461 -19.2574
  1284 1063.42 191.646 164.441
  1285 428.137 0.0934470 0.716743
  1286 428.000 0.0935513 -0.716260
  1287 12.1781 1.64167 26.5074
  1288 11.8048 2.10390 -26.6391
  1289 -5.80721 6.54276 31.8151
  1290 -5.97281 6.54920 -31.8986
  1291 460.542 -8.31347 -29.1440
  1292 425.513 -18.0208 -18.6741
  1293 425.132 -20.4564 18.9096
  1294 65.7081 7.00470 2.86938
  1295 65.6541 7.00909 -2.86745
  1296 -68.7579 1.82582 -12.2043
  1297 -68.6564 1.82184 12.1852
  1298 474.319 -63.2485 -70.5301
  1299 -3.52977 -8.57119 8.77048
  1300 -3.54373 -8.56569 -8.76695
  1301 501.107 -20.3596 49.3861
  1302 -5.17109 -19.6161 23.5082
  1303 -5.11338 -19.6904 -23.4013
  1304 -42.4273 2.77304 5.88738
  1305 -42.5303 2.77595 -5.89270
  1306 77.2927 9.91890 -30.6166
  1307 76.5191 10.3493 30.5890
  1308 120.664 2.74274 0.194237
  1309 120.642 2.74232 -0.193706
  1310 -47.2741 4.80200 19.3176
  1311 -47.3695 4.81111 -19.3474
  1312 402.240 0.697126 1.11376
  1313 402.117 0.697020 -1.11307
  1314 224.515 0.588827 143.445
  1315 329.772 0.148289 2.68514
  1316 329.689 0.149756 -2.68409
  1317 221.442 4.79202 -58.5196
  1318 221.460 4.54403 59.0098
  1319 2.17903 -85.6138 -10.8589
  1320 86.8273 20.8205 -13.8515
  1321 86.4528 21.0635 13.9875
  1322 -0.851912 -0.753605 -1.10783
  1323 -0.856204 -0.753794 1.11104
  1324 283.624 7.90010 21.7739
  1325 283.516 7.98144 -21.7472
  1326 142.331 10.8763 3.94591
  1327 142.345 10.8772 -3.93080
  1328 208.447 10.9190 -10.9194
  1329 208.480 10.8988 10.9444
  1330 271.454 0.934039 -2.70373
  1331 271.507 0.932560 2.70489
  1332 -8.60939 -4.15193 -9.89586
  1333 -8.60709 -4.14653 9.90004
  1334 -80.3255 0.00113835 3.48782
  1335 -80.4457 0.00143346 -3.49114
  1336 -14.5461 -6.61785 -24.0191
  1337 -14.5323 -6.58338 23.9912
  1338 -44.4665 0.538859 1.43889
  1339 -44.5700 0.538589 -1.43985
  1340 -125.292 1.11959 0.577925
  1341 -125.436 1.11998 -0.578335
  1342 509.046 -61.2291 95.4821
  1343 375.756 -1.94252 -40.9044
</Section>

newXOutput 61

<Section columns = "stress_xx | stress_yy | stress_xy">
  1 447.652 -0.755515 0.469826
  2 447.800 -0.756067 -0.470061
  3 -137.702 0.629979 -1.88879
  4 0.219439 0.0524281 0.391241
  5 806.096 244.479 266.928
  6 911.580 275.542 -256.986
  7 0.218411 0.0514974 -0.389875
  8 -137.548 0.629848 1.88785
  9 446.335 -0.720576 -1.48510
  10 446.718 -1.44033 -2.39218
  11 450.913 -1.43779 -0.656100
  12 451.413 -1.40235 -2.83460
  13 452.632 -1.38395 -0.912956
  14 462.010 -1.29575 -1.25308
  15 465.333 -1.84594 -3.80552
  16 468.990 -0.928895 -2.62780
  17 471.394 0.0213546 -5.06729
  18 490.357 -2.80920 -4.33660
  19 498.708 -2.22258 -5.55631
  20 508.037 -3.28949 -2.30735
  21 512.710 -4.30278 -1.50265
  22 509.875 -4.89540 6.17323
  23 493.647 -5.41165 13.2292
  24 455.392 -5.88575 28.5989
  25 392.737 3.57804 33.3874
  26 341.542 4.44464 30.9118
  27 269.836 8.66075 18.7174
  28 286.418 8.41596 1.86812
  29 242.286 24.8548 -11.8156
  30 325.293 11.5249 -33.9277
  31 370.441 2.97700 -27.6925
  32 446.807 -1.18308 -23.9968
  33 488.434 -6.56371 -15.9167
  34 509.235 -5.69746 -6.12659
  35 511.838 -4.17437 1.53971
  36 507.451 -3.24843 2.17921
  37 498.504 -2.23563 5.40361
  38 490.325 -2.84301 4.25059
  39 471.482 0.00241795 5.02800
  40 469.117 -0.936031 2.61382
  41 465.481 -1.85064 3.80178
  42 462.163 -1.29826 1.25153
  43 452.782 -1.38566 0.912823
  44 451.563 -1.40384 2.83639
  45 451.063 -1.43893 0.656716
  46 446.866 -1.44132 2.39381
  47 446.482 -0.721120 1.48611
  48 422.623 0.911769 -0.566924
  49 391.841 0.0945154 -1.24489
  50 353.288 -1.67431 -1.23204
  51 313.229 0.599769 -1.02475
  52 278.044 0.253697 -0.811348
  53 240.317 1.45694 -0.956746
  54 203.000 3.41533 -0.562007
  55 164.180 3.00494 -1.20061
  56 131.929 1.97484 -1.69387
  57 89.5295 1.10784 -1.78500
  58 46.3985 2.04772 -1.36387
  59 10.3562 1.71029 -1.31907
  60 -34.6687 0.947702 -1.19828
  61 -68.1503 -0.547672 -2.98237
  62 -100.593 -2.28133 -1.35724
  63 -133.531 0.251649 0.934733
  64 -140.697 2.40719 -0.324816
  65 -141.247 1.04936 0.452160
  66 -136.571 0.509291 -0.127479
  67 -138.218 1.54153 -1.66674
  68 -136.103 1.88197 -0.0952164
  69 -128.801 0.562598 -2.57377
  70 -130.511 1.16336 -2.77810
  71 -127.330 1.09881 -1.53222
  72 -117.949 0.678304 -2.34136
  73 -113.755 1.24780 -3.91170
  74 -106.913 1.40454 -3.19136
  75 -94.7066 0.713221 -5.59769
  76 -87.8756 0.221555 -4.67485
  77 -75.4699 0.317739 -5.41647
  78 -64.8132 0.254249 -6.01926
  79 -55.4853 0.0900669 -4.75172
  80 -42.4929 0.283165 -4.79389
  81 -31.2749 -0.112123 -5.13782
  82 -20.4165 -0.554148 -4.52428
  83 -11.7995 -0.486772 -3.47423
  84 -5.81294 -0.859017 -2.90888
  85 -0.992331 -0.497136 -1.04561
  86 0.0506438 -0.556751 -0.377891
  87 -0.299769 -0.305971 -0.0797814
  88 -0.778893 -0.806044 -0.916992
  89 -0.756914 -4.92124 -2.52817
  90 -0.641690 -11.0027 -3.59252
  91 -0.328771 -18.7320 -5.23224
  92 -0.166676 -28.7500 -4.50948
  93 -0.130752 -37.9371 -5.67266
  94 -0.689831 -49.1163 -6.39073
  95 -0.282845 -62.9428 -6.43968
  96 0.130331 -76.8659 -6.15986
  97 0.300102 -91.7688 -6.07060
  98 0.466194 -107.061 -5.95775
  99 0.0136802 -118.203 -8.05392
  100 0.779067 -134.148 -7.19899
  101 0.967499 -152.791 -5.69547
  102 -0.0993065 -160.757 -7.55441
  103 1.36947 -174.072 -6.96351
  104 3.41972 -191.736 -3.05908
  105 6.70231 -195.815 -4.86569
  106 4.85490 -176.790 5.85519
  107 7.29725 -129.282 21.9334
  108 35.2758 -65.3655 61.0586
  109 108.792 176.679 198.293
  110 1236.94 67.9739 123.918
  111 1063.88 19.7219 44.7696
  112 1029.60 6.92513 10.3349
  113 1022.14 2.01736 -1.64251
  114 1029.24 10.8589 -23.5977
  115 1062.52 35.9622 -53.3143
  116 1204.89 133.070 -157.562
  117 262.349 138.357 -241.537
  118 59.7531 -64.8897 -73.5149
  119 17.6799 -141.667 -27.9953
  120 4.94721 -167.214 -6.21668
  121 5.42531 -188.270 2.32728
  122 1.52388 -184.098 2.20544
  123 0.518864 -169.686 5.84187
  124 0.580581 -159.981 4.60929
  125 0.840023 -144.327 8.10442
  126 -0.0413018 -135.400 7.93643
  127 0.332177 -122.389 5.70258
  128 0.658995 -105.793 7.29566
  129 0.135011 -93.9244 5.77909
  130 0.190486 -76.9391 7.30450
  131 -0.768795 -63.7072 6.28400
  132 -0.530488 -49.1554 6.18908
  133 -0.0898816 -37.7240 5.68617
  134 -0.217813 -28.5830 4.51670
  135 -0.320472 -18.6770 5.18082
  136 -0.632237 -10.9954 3.57456
  137 -0.752865 -4.92877 2.52639
  138 -0.777840 -0.814179 0.918833
  139 -0.299717 -0.309461 0.0821262
  140 0.0463941 -0.557264 0.380005
  141 -1.00028 -0.496830 1.04827
  142 -5.82473 -0.858140 2.91144
  143 -11.8151 -0.485209 3.47493
  144 -20.4284 -0.552222 4.52223
  145 -31.2769 -0.110529 5.13232
  146 -42.4832 0.283481 4.78747
  147 -55.4594 0.0908585 4.74494
  148 -64.7723 0.255200 6.01135
  149 -75.4089 0.317699 5.40805
  150 -87.7960 0.221477 4.66683
  151 -94.6142 0.712724 5.58967
  152 -106.803 1.40364 3.18500
  153 -113.635 1.24679 3.90635
  154 -117.819 0.677635 2.33783
  155 -127.190 1.09808 1.52985
  156 -130.368 1.16276 2.77555
  157 -128.656 0.562381 2.57165
  158 -135.952 1.88108 0.0945674
  159 -138.065 1.54084 1.66556
  160 -136.419 0.509176 0.127215
  161 -141.092 1.04896 -0.452032
  162 -140.542 2.40615 0.324588
  163 -133.379 0.251698 -0.934354
  164 -100.458 -2.27987 1.35653
  165 -68.0322 -0.546886 2.98092
  166 -34.5675 0.947866 1.19764
  167 10.4349 1.71018 1.31840
  168 46.4593 2.04756 1.36321
  169 89.5689 1.10833 1.78416
  170 131.947 1.97511 1.69310
  171 164.182 3.00495 1.20009
  172 202.983 3.41522 0.561735
  173 240.280 1.45773 0.956231
  174 277.988 0.254914 0.810854
  175 313.155 0.600481 1.02410
  176 353.193 -1.67268 1.23132
  177 391.725 0.0948360 1.24420
  178 422.489 0.911466 0.566613
  179 120.749 20.5497 -6.29567
  180 120.675 20.5911 6.35859
  181 -1.47216 3.89547 32.8929
  182 -1.60467 3.86490 -32.9149
  183 272.352 -3.59917 -62.4108
  184 272.140 -4.11083 63.0477
  185 55.3498 13.5751 -4.55396
  186 54.6951 13.7988 4.56528
  187 41.4875 6.52383 -4.55933
  188 41.5554 6.51805 4.55832
  189 257.043 4.27399 -9.45096
  190 257.095 4.25928 9.45839
  191 -2.91333 10.2130 17.4961
  192 -3.01644 10.2356 -17.5182
  193 298.503 7.02423 -23.7562
  194 298.642 6.92558 23.7908
  195 -11.4135 -9.88844 26.6111
  196 -11.4121 -9.94831 -26.6477
  197 2.99407 -23.1540 -31.1449
  198 94.4172 7.24620 -58.3943
  199 3.60395 -24.7997 30.3671
  200 92.9275 7.97454 59.2656
  201 422.146 -55.1688 -90.1395
  202 436.531 -57.3337 86.6204
  203 153.414 4.49102 -1.85318
  204 153.407 4.48975 1.85618
  205 -21.8793 1.47398 -3.30946
  206 -21.7841 1.47342 3.30721
  207 -32.6933 5.18811 25.3237
  208 -32.7849 5.19744 -25.3693
  209 154.276 13.4718 -5.31254
  210 154.267 13.4718 5.33405
  211 48.0248 19.8098 10.9838
  212 47.8352 19.9267 -11.0324
  213 -41.3079 4.47428 -10.1713
  214 -41.2024 4.46753 10.1600
  215 339.806 0.00873436 4.42141
  216 339.718 0.0124775 -4.42035
  217 11.3587 -43.3474 12.1433
  218 12.3413 -39.0785 -10.5355
  219 -3.06115 -28.0521 29.9032
  220 -3.14256 -29.1769 -28.9757
  221 142.948 20.4286 -26.1497
  222 142.808 20.5309 26.3906
  223 -29.9643 -0.0100970 25.8066
  224 -30.0164 -0.0148069 -25.8462
  225 363.484 1.59280 -12.8319
  226 363.587 1.56450 12.8226
  227 391.855 -6.12619 -25.4987
  228 392.170 -6.50784 25.4145
  229 627.699 47.0461 0.417513
  230 575.961 65.0566 29.8297
  231 565.696 -2.46327 -46.5084
  232 71.3592 15.1745 5.47032
  233 71.2882 15.1974 -5.46147
  234 6.12120 12.8505 24.8598
  235 5.99665 12.8880 -24.9006
  236 437.811 -26.4301 -18.0452
  237 435.304 -26.7423 19.4779
  238 243.129 1.49716 -3.51471
  239 243.167 1.49397 3.51665
  240 -52.6308 3.75811 16.7635
  241 -52.7325 3.76633 -16.7890
  242 -7.37268 -7.24877 -12.0539
  243 -7.36526 -7.24331 12.0604
  244 -57.5489 1.27583 5.05222
  245 -57.6612 1.27732 -5.05680
  246 200.997 14.3311 -16.4160
  247 201.030 14.3050 16.4746
  248 255.090 7.23952 -35.8764
  249 255.277 7.11920 36.0281
  250 63.4693 3.49404 -0.0530715
  251 63.5222 3.49316 0.0534077
  252 148.369 5.34792 -123.953
  253 175.170 9.25059 134.661
  254 20.7759 9.70867 23.3052
  255 20.6853 9.90806 -23.4141
  256 593.045 -42.2550 -15.6799
  257 53.6362 19.4770 9.56007
  258 53.5272 19.5258 -9.55874
  259 145.716 16.0546 -47.5878
  260 145.429 16.4347 48.0675
  261 664.436 95.4886 -1.13557
  262 394.174 -0.244473 17.3600
  263 394.026 -0.131671 -17.4081
  264 -3.52647 -21.9234 -18.8269
  265 -3.41977 -22.0090 18.8997
  266 -0.712715 -51.7991 -25.6820
  267 1.88349 -59.9773 -23.2815
  268 1.02666 -60.2318 24.5493
  269 -9.51827 -8.20937 33.9815
  270 -9.56185 -8.19919 -34.1230
  271 21.7759 -45.5163 -10.8437
  272 23.4527 -41.6602 14.5332
  273 -22.6504 -1.87273 16.5199
  274 -22.6650 -1.88159 -16.5365
  275 281.785 7.14813 -14.9107
  276 281.865 7.10947 14.9220
  277 491.513 -49.6762 -6.35238
  278 110.858 8.76308 0.441453
  279 110.890 8.76015 -0.435605
  280 -1.23219 -48.6429 24.5738
  281 12.4169 9.85967 10.9640
  282 12.3267 9.87601 -10.9729
  283 778.157 53.6856 -22.5931
  284 381.750 -0.163624 5.38185
  285 381.642 -0.157485 -5.38289
  286 259.043 -11.3705 -93.3861
  287 261.232 -11.1703 94.7506
  288 490.905 -47.1415 -1.62806
  289 -45.9969 1.47271 20.3311
  290 -46.0618 1.47268 -20.3640
  291 479.598 -34.9514 151.535
  292 -19.9863 3.65049 30.6712
  293 -20.0689 3.64468 -30.7284
  294 83.2366 22.7937 -8.09981
  295 82.9114 23.0060 8.18583
  296 -82.6785 0.557306 0.870554
  297 -82.8039 0.557165 -0.871271
  298 404.711 13.2770 -205.447
  299 -78.3663 1.54587 -8.96101
  300 -78.2509 1.54262 8.94878
  301 -1.85362 -9.46396 34.3940
  302 -0.621972 -9.18324 -33.9986
  303 180.460 17.8552 -23.6308
  304 180.463 17.8540 23.7720
  305 41.2262 4.22320 3.43336
  306 41.1610 4.22555 -3.43459
  307 187.386 6.50350 -5.13108
  308 187.397 6.49870 5.13800
  309 18.2120 -11.8278 16.7757
  310 16.6061 -14.4299 -17.0319
  311 181.905 2.55341 -1.33090
  312 181.912 2.55240 1.33200
  313 -64.7908 1.69643 14.8322
  314 -64.8763 1.69894 -14.8568
  315 46.3196 -2.42548 -13.2993
  316 44.9691 -2.49352 12.0828
  317 397.575 -0.686038 1.50711
  318 397.455 -0.684999 -1.50618
  319 864.415 48.8115 35.4625
  320 92.5194 11.6116 1.58478
  321 92.4727 11.6205 -1.57578
  322 -16.9251 4.14051 6.87508
  323 -17.0201 4.14576 -6.88118
  324 126.463 16.4050 -4.29651
  325 126.425 16.4176 4.33186
  326 15.7685 13.3160 25.6721
  327 15.6654 13.3442 -25.7426
  328 1.93280 -86.9313 16.9681
  329 -85.8654 0.0612424 -2.03643
  330 -85.7388 0.0614589 2.03474
  331 305.014 0.220363 -2.89543
  332 305.084 0.218405 2.89653
  333 321.125 1.55518 -7.67595
  334 321.205 1.54430 7.67656
  335 -80.3371 1.29778 -6.42796
  336 -80.2157 1.29588 6.42122
  337 1.01498 1.23780 0.682004
  338 0.931459 1.23778 -0.682531
  339 -1.80860 -36.1726 18.7563
  340 -1.43418 -37.6262 -18.7302
  341 362.813 -29.5558 -63.3727
  342 376.592 -35.3673 62.2530
  343 216.344 9.77019 -10.2302
  344 216.377 9.75384 10.2474
  345 96.6200 22.2330 -4.97239
  346 96.4536 22.3345 5.04045
  347 -31.4986 6.26971 14.5773
  348 -31.6016 6.28215 -14.5966
  349 669.016 17.9577 22.6240
  350 36.5807 -47.1629 -42.7774
  351 39.1167 -43.4235 44.6453
  352 -12.8595 10.3275 23.5804
  353 -12.9680 10.3508 -23.6187
  354 -18.2380 -3.54858 30.1760
  355 -18.2874 -3.55838 -30.2321
  356 758.959 129.905 -40.8881
  357 491.833 -5.70469 58.9463
  358 456.241 -11.0268 -11.8949
  359 455.898 -10.7692 11.2001
  360 321.789 -4.11234 -40.4663
  361 321.409 -4.41478 40.4914
  362 0.615673 -104.738 -13.6017
  363 416.904 0.596157 -9.68891
  364 417.017 0.564871 9.66260
  365 5.55791 -97.9029 10.1437
  366 489.419 38.4913 -30.6684
  367 120.671 3.44130 1.22168
  368 120.647 3.44160 -1.22198
  369 323.315 1.77909 -30.0314
  370 323.523 1.62716 30.0759
  371 347.307 2.19129 -18.0954
  372 347.423 2.12385 18.0834
  373 -4.08735 3.55054 4.51491
  374 -4.17507 3.55345 -4.51810
  375 201.606 11.1582 -48.4751
  376 201.644 11.2872 48.8908
  377 409.604 -0.541425 2.46206
  378 409.479 -0.539730 -2.46122
  379 235.102 12.1897 -24.6672
  380 235.188 12.1228 24.7563
  381 270.259 3.46157 6.36075
  382 270.206 3.46782 -6.35787
  383 -12.8621 -2.29846 10.2343
  384 -12.8620 -2.30468 -10.2351
  385 -3.07185 -2.17920 -3.00605
  386 -3.07319 -2.18018 3.01062
  387 547.330 -65.6888 42.5019
  388 -7.02433 -17.0060 27.6982
  389 -6.97572 -17.1556 -27.7037
  390 91.7084 5.25723 -1.16146
  391 91.7482 5.25577 1.16311
  392 -2.70968 -13.6560 10.2834
  393 -2.74094 -13.6350 -10.2853
  394 36.3753 15.3422 11.7827
  395 36.2800 15.3730 -11.7886
  396 447.291 -2.29452 12.8639
  397 447.132 -2.13768 -13.0655
  398 -0.870702 -25.9653 32.9705
  399 -36.6771 -0.635523 15.5878
  400 -36.7065 -0.638995 -15.6089
  401 -1.01280 -27.4625 -32.6031
  402 419.291 -0.222351 6.17776
  403 419.168 -0.213136 -6.18440
  404 -2.88811 9.59284 29.8043
  405 -3.03188 9.62092 -29.8667
  406 311.758 3.90863 -12.1612
  407 311.839 3.88494 12.1617
  408 478.347 -20.4152 -8.96495
  409 479.639 -16.5617 6.60935
  410 -0.939065 -49.2165 -20.5114
  411 44.4181 16.7281 -7.23501
  412 44.7820 16.5540 7.17958
  413 481.960 31.2690 19.0002
  414 272.964 -12.4244 -128.608
  415 280.033 -17.4208 134.440
  416 17.8248 14.7601 18.7275
  417 17.7127 14.7967 -18.7506
  418 201.267 4.71573 -3.51253
  419 201.285 4.71306 3.51564
  420 195.639 39.3458 203.871
  421 82.4467 18.5518 -3.40471
  422 82.5305 18.5144 3.42541
  423 5.24748 -45.5263 21.5319
  424 -0.592112 -79.8414 -17.6829
  425 33.4795 18.2726 17.0897
  426 33.3498 18.3269 -17.1185
  427 41.5402 10.1410 -6.94231
  428 41.6143 10.1286 6.94115
  429 -12.9759 -0.373780 -33.7844
  430 -12.8944 -0.392659 33.7234
  431 98.1345 19.6151 -20.7339
  432 97.7133 19.9013 20.9273
  433 482.128 -14.9429 -44.7508
  434 14.3223 -3.75562 25.1532
  435 13.8660 -3.64586 -25.3244
  436 351.265 -15.1762 -44.6964
  437 352.683 -16.2147 44.6460
  438 -86.2601 0.658902 -8.85078
  439 -86.1516 0.656735 8.83704
  440 -0.00117135 -78.5729 15.9559
  441 -0.550311 -49.9805 18.2764
  442 -34.9354 2.37323 25.9902
  443 -35.0038 2.37168 -26.0334
  444 251.811 1.36634 -1.30769
  445 251.854 1.36488 1.30826
  446 -7.45709 -11.7848 18.9200
  447 -7.47075 -11.8132 -18.9018
  448 158.758 9.42946 -70.2229
  449 158.428 10.1235 70.9735
  450 1.32094 -94.4405 -17.2464
  451 862.710 29.5954 0.459282
  452 2.48569 -110.446 -9.23183
  453 -101.031 -0.121088 -3.09751
  454 -100.898 -0.121083 3.09483
  455 -38.4063 5.58829 20.9140
  456 -38.5061 5.60017 -20.9488
  457 -46.0299 0.672402 15.6142
  458 -46.0739 0.672053 -15.6367
  459 173.203 17.1167 -16.3695
  460 173.203 17.1205 16.4552
  461 260.163 9.50935 -19.0680
  462 260.249 9.45229 19.1048
  463 -4.10247 -15.6368 34.1431
  464 -4.10880 -15.5338 -34.2885
  465 453.454 8.81195 -56.3876
  466 31.7516 -6.03056 -3.03332
  467 30.6435 -6.30015 3.60404
  468 7.38498 -97.9595 -2.87025
  469 4.79100 -114.381 -0.576326
  470 -13.5905 -6.03874 19.4617
  471 -13.5981 -6.06137 -19.4716
  472 97.2379 -1.03278 -107.863
  473 683.203 7.55303 -73.4243
  474 157.819 9.33746 5.06169
  475 157.824 9.34004 -5.04920
  476 228.731 2.83561 -67.2128
  477 229.207 2.77001 68.1773
  478 68.4334 23.1606 5.43463
  479 68.2982 23.2389 -5.42357
  480 206.682 14.9963 -35.9096
  481 206.754 14.9302 36.1579
  482 8.32915 4.70661 30.1944
  483 8.78533 4.93622 -30.1588
  484 -89.8456 1.26292 -6.40845
  485 -89.7223 1.26129 6.40068
  486 450.457 -51.6706 -37.1435
  487 356.708 -0.394496 -2.05259
  488 356.805 -0.395643 2.05362
  489 21.7286 2.08054 -1.77832
  490 21.8022 2.07991 1.77731
  491 -21.4290 8.23618 19.2760
  492 -21.5335 8.25437 -19.3041
  493 -49.7583 2.97510 -6.80099
  494 -49.6496 2.97141 6.79412
  495 157.901 14.5324 -7.76165
  496 157.894 14.5310 7.79466
  497 -17.5786 7.27328 27.5194
  498 -17.6839 7.28988 -27.5725
  499 412.220 -11.9944 -24.0387
  500 412.925 -12.5587 23.7493
  501 272.217 2.61876 -44.8682
  502 271.795 2.44516 45.2412
  503 102.935 4.03277 -0.596481
  504 102.968 4.03231 0.597060
  505 1.22790 -48.0280 -27.7743
  506 484.073 -16.9798 36.6173
  507 7.00835 -30.8514 -24.5633
  508 139.571 21.8120 17.0299
  509 139.666 21.7447 -16.8903
  510 445.563 -48.3413 36.7460
  511 35.0812 -38.2005 57.9169
  512 529.035 -64.7326 -72.0663
  513 361.383 0.799655 21.8211
  514 361.218 0.932547 -21.8354
  515 1.19475 -40.9800 28.9057
  516 -7.08932 -2.10295 -5.49555
  517 -7.09220 -2.10174 5.49932
  518 46.8254 1.82669 -0.465138
  519 46.8862 1.82664 0.464905
  520 -1.20792 -28.0366 12.0864
  521 -1.09591 -27.9078 -12.1502
  522 297.914 2.25107 4.96298
  523 297.847 2.25432 -4.96129
  524 831.738 150.738 67.7019
  525 35.8224 -18.6546 -13.2549
  526 27.9494 -26.0975 7.41038
  527 -6.18232 6.10688 -9.22265
  528 -6.08929 6.09741 9.21414
  529 -71.9671 1.13180 9.32136
  530 -72.0389 1.13306 -9.33604
  531 0.739004 -88.7414 17.3003
  532 -98.9145 0.774645 0.792568
  533 -99.0481 0.774708 -0.793328
  534 93.9916 -2.18301 -79.9028
  535 91.9655 -0.717212 82.8691
  536 86.2436 16.1401 -28.8209
  537 85.5978 16.5118 28.9876
  538 -19.2125 -3.93416 26.4832
  539 -19.2448 -3.95198 -26.5245
  540 85.3404 6.88869 1.12323
  541 85.2959 6.89184 -1.12049
  542 -40.0625 1.74006 2.75831
  543 -40.1666 1.74105 -2.76081
  544 100.103 13.7924 0.724921
  545 100.054 13.8063 -0.708452
  546 -1.95325 -6.40105 4.70424
  547 -1.96011 -6.39565 -4.70343
  548 36.9654 15.9887 14.8843
  549 36.7208 16.2039 -14.9742
  550 29.8553 5.79737 12.8021
  551 29.4393 5.76053 -13.0550
  552 364.864 1.92087 9.16679
  553 364.763 1.93293 -9.16931
  554 323.816 3.53829 14.7646
  555 323.722 3.57746 -14.7668
  556 -0.330500 -75.7332 -11.1051
  557 228.285 10.6008 -14.8232
  558 228.334 10.5722 14.8534
  559 228.601 4.44616 -5.72974
  560 228.634 4.43921 5.73485
  561 -27.9468 0.808680 0.0906320
  562 -27.8489 0.808891 -0.0907516
  563 397.278 20.9125 -10.8560
  564 507.710 -62.4388 -28.1355
  565 424.007 20.0072 42.3881
  566 3.60712 -63.1662 -19.8258
  567 -20.2466 6.91355 -12.4405
  568 -20.1467 6.90183 12.4268
  569 3.87181 -36.3864 27.0014
  570 -21.9300 0.815392 30.1221
  571 -21.9956 0.811058 -30.1711
  572 649.470 62.2429 2.91041
  573 150.055 6.11286 -2.52105
  574 150.046 6.11156 2.52591
  575 969.845 83.2320 -87.0609
  576 -4.20621 -3.23143 34.8936
  577 -3.86033 -2.96969 -34.9168
  578 536.429 -45.7852 17.5949
  579 430.653 -0.0193748 -10.7458
  580 430.764 -0.0721309 10.6943
  581 201.290 1.46307 -97.1455
  582 203.604 0.834375 98.5838
  583 -10.8138 -10.3483 30.6035
  584 -10.8259 -10.4043 -30.6879
  585 106.590 10.8768 52.8002
  586 107.478 10.1085 -52.4003
  587 -83.8945 0.950868 -8.68506
  588 -83.7953 0.949285 8.67125
  589 632.010 57.5181 30.3214
  590 123.146 10.4712 1.51915
  591 123.172 10.4680 -1.50905
  592 145.028 18.1236 -36.5348
  593 144.820 18.3402 36.8943
  594 390.943 -1.43185 -21.2822
  595 391.156 -1.61740 21.2413
  596 -1.65077 -39.0886 -27.4730
  597 423.062 -0.785645 3.23808
  598 422.930 -0.783288 -3.23767
  599 -58.9324 1.01200 -1.00646
  600 -58.8190 1.01186 1.00541
  601 -106.181 -0.849405 -0.00816063
  602 -106.318 -0.850138 0.00803603
  603 9.49593 -56.9882 -8.08792
  604 -3.90235 -25.5108 23.6967
  605 -4.11603 -24.1171 -23.8545
  606 -47.4597 2.99969 21.5807
  607 -47.5393 3.00370 -21.6167
  608 298.546 6.48854 18.7320
  609 298.446 6.54889 -18.7204
  610 220.552 1.99251 1.33242
  611 220.525 1.99337 -1.33171
  612 51.0645 -10.5250 34.4466
  613 52.6305 -9.45429 -34.1525
  614 -1.51257 -19.5707 10.2260
  615 -1.56045 -19.5099 -10.2614
  616 506.723 43.3025 219.615
  617 -25.2172 -0.757540 9.45400
  618 -25.2205 -0.761229 -9.46247
  619 9.53264 -34.3175 -19.3281
  620 216.066 7.66742 -7.85262
  621 216.095 7.65727 7.86273
  622 107.371 22.4104 -13.2398
  623 107.156 22.5501 13.3735
  624 1.02802 -132.560 6.32455
  625 81.0715 21.5594 2.57647
  626 80.9688 21.6151 -2.55151
  627 -6.38935 8.73349 14.9833
  628 -6.48869 8.75053 -15.0004
  629 -0.604145 -66.6350 15.1516
  630 -106.596 0.0387783 -3.10917
  631 -106.461 0.0385836 3.10620
  632 143.296 2.98337 0.894126
  633 143.309 2.98425 -0.892638
  634 355.579 0.397392 6.12781
  635 355.484 0.403250 -6.12724
  636 315.791 -18.1283 167.926
  637 254.212 5.47167 -11.5896
  638 254.266 5.45004 11.6010
  639 4.79037 -4.46012 31.9052
  640 5.75975 -2.24258 -31.8015
  641 404.723 -37.3330 -136.389
  642 940.331 31.9256 -36.1677
  643 -98.8294 0.0433014 -5.95481
  644 -98.7111 0.0423327 5.94648
  645 26.7226 4.90111 -4.07585
  646 26.7958 4.89722 4.07396
  647 -1.82413 -41.6125 24.3395
  648 548.892 34.5068 -50.6129
  649 418.218 -0.983849 0.578042
  650 418.086 -0.983020 -0.577545
  651 -26.8111 -1.39808 -21.8643
  652 -26.7795 -1.39075 21.8346
  653 -0.0876548 -94.4377 -14.4312
  654 425.329 -0.966355 1.24908
  655 425.194 -0.965430 -1.24818
  656 41.6552 13.1902 9.84878
  657 41.5713 13.2119 -9.85090
  658 328.256 -27.2716 -90.0157
  659 334.001 -27.1367 90.9657
  660 474.895 -3.27994 7.53048
  661 474.927 -3.25129 -7.81799
  662 2.10842 -118.360 10.9759
  663 -23.1806 0.538143 -1.58047
  664 -23.0850 0.538338 1.57929
  665 157.416 25.1356 -160.570
  666 148.951 2.56654 1.28284
  667 148.961 2.56682 -1.28200
  668 74.8440 4.76779 0.317225
  669 74.7962 4.76933 -0.316286
  670 88.3966 8.84176 -0.484680
  671 88.4415 8.83658 0.490409
  672 280.413 7.19418 -28.9905
  673 280.572 7.07936 29.0666
  674 76.0154 21.8486 -1.06735
  675 75.7842 22.0007 1.09523
  676 -48.5362 3.61663 -11.9273
  677 -48.4290 3.60907 11.9124
  678 -57.0575 3.94900 -13.7138
  679 -56.9511 3.94150 13.6941
  680 488.852 -7.54977 -0.774958
  681 0.908689 -18.9893 -32.9090
  682 489.434 -7.91748 0.137401
  683 625.210 48.3968 -2.63023
  684 -61.1075 0.296362 10.6319
  685 -61.1631 0.296057 -10.6485
  686 66.1559 19.3704 -5.82485
  687 65.6855 19.5975 5.86535
  688 -114.373 0.0229287 -1.04992
  689 -114.232 0.0230380 1.04882
  690 1.32549 -17.0004 32.9209
  691 -37.9684 0.593178 22.8801
  692 -38.0254 0.590779 -22.9158
  693 537.324 -42.7600 -19.6016
  694 87.6011 1.54027 -0.731270
  695 87.5607 1.53997 0.731762
  696 22.0268 7.50851 7.05166
  697 21.9472 7.51723 -7.05516
  698 286.664 -12.4010 -75.5560
  699 288.738 -12.8905 76.9621
  700 979.608 70.0211 78.9240
  701 19.8084 -83.8799 -35.1956
  702 -6.88532 -14.6452 32.6514
  703 -6.89367 -14.7077 -32.7307
  704 62.3998 12.9101 -4.85704
  705 62.4668 12.8945 4.86174
  706 437.238 -0.837064 -3.28696
  707 437.375 -0.839844 3.28577
  708 211.007 2.75813 2.48364
  709 210.984 2.76049 -2.48179
  710 18.9435 15.6271 22.7452
  711 18.8199 15.6737 -22.7883
  712 13.4900 3.53774 2.85549
  713 13.4119 3.53962 -2.85720
  714 -11.6032 3.28862 32.9811
  715 -11.6979 3.28447 -33.0538
  716 360.549 -0.839471 2.60495
  717 360.450 -0.837316 -2.60397
  718 313.037 2.00418 7.02882
  719 312.963 2.01066 -7.02706
  720 43.4241 -23.2698 41.0007
  721 44.6306 -25.2289 -39.7142
  722 -23.3393 5.40564 28.7494
  723 -23.4318 5.41100 -28.8045
  724 13.6171 -27.9114 14.7242
  725 2.16283 9.72227 29.9570
  726 2.01251 9.74568 -30.0016
  727 -67.2691 1.86256 -7.86269
  728 -67.1541 1.85934 7.85326
  729 56.9035 17.3653 8.80289
  730 56.8080 17.4017 -8.79762
  731 484.826 -14.4578 -24.6302
  732 458.980 -39.5052 -13.5953
  733 -7.30724 -14.9742 23.3275
  734 -7.29923 -15.0475 -23.3006
  735 180.644 2.10771 -114.564
  736 176.042 5.85404 115.557
  737 110.798 21.1026 -19.4722
  738 110.513 21.3079 19.6695
  739 10.0323 -16.2213 25.7164
  740 -0.642580 -49.4924 -13.2366
  741 228.786 11.9299 -27.5236
  742 228.885 11.8661 27.6552
  743 0.569022 -96.9680 12.1751
  744 137.523 18.1982 -8.41480
  745 137.484 18.2146 8.47051
  746 459.759 -0.692726 -8.12378
  747 459.833 -0.746661 8.02655
  748 9.36994 -126.887 4.44896
  749 210.752 14.9308 20.9990
  750 210.702 14.9657 -20.9167
  751 58.2709 20.4713 -3.96052
  752 58.5715 20.2704 3.92973
  753 -82.8875 0.544678 -7.36451
  754 -82.8017 0.544035 7.35214
  755 232.879 3.18142 -4.94964
  756 232.913 3.17712 4.95291
  757 145.251 20.2615 -14.4366
  758 145.194 20.2964 14.5397
  759 2.61884 12.5246 22.8971
  760 2.50380 12.5577 -22.9318
  761 460.345 -33.8507 7.94057
  762 -69.2692 1.41520 5.95028
  763 -69.3867 1.41678 -5.95573
  764 978.377 197.856 -140.550
  765 -24.5574 2.51157 6.08985
  766 -24.6549 2.51430 -6.09476
  767 390.704 0.537663 15.0744
  768 390.584 0.601798 -15.1084
  769 725.806 44.4479 -0.180152
  770 440.733 -1.49873 -6.16090
  771 440.860 -1.50875 6.15043
  772 284.138 3.33635 8.90862
  773 284.076 3.34732 -8.90522
  774 424.207 -45.2063 124.406
  775 186.242 12.7631 -8.41063
  776 186.257 12.7535 8.43501
  777 4.39637 -71.5121 14.0151
  778 486.067 -59.2653 42.8146
  779 295.563 0.0471988 1.50739
  780 295.498 0.0485839 -1.50676
  781 385.345 -0.303522 0.799629
  782 385.232 -0.302857 -0.799119
  783 -1.68910 -38.8626 -22.8050
  784 2.46719 -65.3690 21.5673
  785 176.945 19.2354 29.1651
  786 176.960 19.2177 -28.9520
  787 967.120 8.90915 8.72489
  788 301.790 2.07601 -35.9660
  789 301.995 1.93854 36.0614
  790 -61.1098 2.02417 16.0469
  791 -61.2062 2.02916 -16.0719
  792 13.2705 -51.1110 2.88216
  793 8.52622 -117.793 -10.3629
  794 683.682 89.2741 -15.2161
  795 -0.587630 -49.3714 11.9522
  796 15.1223 10.5122 26.5423
  797 15.0703 10.5051 -26.6814
  798 94.0137 17.6762 1.23416
  799 93.9499 17.7033 -1.21188
  800 456.318 -21.0373 -8.47888
  801 457.329 -20.7531 7.04010
  802 532.713 89.9176 -208.292
  803 -71.1294 0.641700 -2.57996
  804 -71.0104 0.641274 2.57740
  805 -34.5766 -0.127570 8.88685
  806 -34.5884 -0.129176 -8.89739
  807 34.4144 3.96758 6.44575
  808 33.6954 3.93352 -6.52951
  809 347.300 -2.42493 32.3092
  810 347.047 -2.15032 -32.2259
  811 178.454 3.88760 -1.60283
  812 178.459 3.88602 1.60486
  813 558.651 -5.74883 46.0901
  814 61.4939 8.94835 -4.37926
  815 61.5551 8.94024 4.38146
  816 56.5412 8.91717 -11.5013
  817 56.0372 9.17003 11.6205
  818 -0.00102089 -37.8882 -30.2753
  819 782.065 129.625 118.088
  820 -112.368 0.0836836 -3.12681
  821 -112.232 0.0835168 3.12328
  822 -0.164963 -117.700 11.3287
  823 8.93612 -16.0600 -26.0650
  824 -17.2439 -1.04050 6.64539
  825 -17.2379 -1.04330 -6.64807
  826 629.591 40.4581 -29.2961
  827 166.649 15.6800 -10.6139
  828 166.646 15.6787 10.6653
  829 432.464 -6.75065 -16.3356
  830 432.878 -6.80874 16.1221
  831 -107.699 0.778005 4.22085
  832 -107.827 0.779056 -4.22644
  833 -0.789941 -0.816647 -0.679530
  834 -0.791544 -0.818103 0.682238
  835 0.332686 -120.324 -11.0178
  836 0.548827 -125.808 -9.70628
  837 -117.613 1.08166 0.587911
  838 -117.756 1.08195 -0.588357
  839 67.7711 -14.2089 -76.8531
  840 269.345 2.45198 -2.70024
  841 269.396 2.45018 2.70136
  842 -5.69166 1.79431 0.762404
  843 -5.77846 1.79450 -0.762866
  844 397.550 0.581152 -9.95680
  845 397.663 0.559761 9.94323
  846 -45.4003 0.307850 8.43517
  847 -45.4248 0.307856 -8.44631
  848 243.449 8.03237 -170.423
  849 417.345 -35.2284 35.9625
  850 326.655 0.774726 -3.23162
  851 326.736 0.772626 3.23266
  852 413.692 -38.2581 -39.9743
  853 131.412 13.7524 -3.85494
  854 131.385 13.7576 3.87971
  855 180.304 10.9035 -6.51630
  856 180.313 10.8972 6.53217
  857 484.536 -10.2379 18.8414
  858 31.4200 17.7972 18.3011
  859 31.2809 17.8628 -18.3564
  860 33.4498 1.62524 1.27549
  861 33.3822 1.62536 -1.27617
  862 229.754 2.09487 2.32424
  863 229.722 2.09659 -2.32294
  864 594.728 -50.1193 71.6728
  865 373.724 1.51531 -13.1288
  866 373.836 1.47552 13.1105
  867 8.13693 5.28660 5.55225
  868 8.05367 5.29170 -5.55579
  869 374.029 -0.918336 3.74613
  870 373.923 -0.915573 -3.74504
  871 -66.7650 0.215904 -1.78766
  872 -66.6476 0.216311 1.78665
  873 -0.316759 -37.8428 10.6788
  874 -0.419899 -38.4342 -10.7582
  875 453.355 -5.70254 45.9121
  876 -26.0144 6.98529 24.0588
  877 -26.1156 7.00106 -24.1004
  878 -0.146267 -62.2095 -11.7553
  879 180.199 5.79476 -3.42193
  880 180.206 5.79258 3.42609
  881 329.747 -16.3862 -57.8110
  882 332.222 -18.1127 58.3651
  883 -13.6677 -4.65118 -32.7545
  884 -13.6027 -4.64948 32.6809
  885 19.6798 15.6048 20.8043
  886 19.5594 15.6479 -20.8345
  887 1.55131 -140.557 7.60276
  888 5.92188 12.4217 27.2167
  889 5.79180 12.4532 -27.2621
  890 304.781 -5.52889 -51.4581
  891 304.100 -5.74605 51.8636
  892 526.160 30.7727 52.9915
  893 122.612 12.7498 2.17085
  894 122.642 12.7448 -2.15485
  895 383.090 1.77298 -9.79450
  896 383.198 1.75685 9.78768
  897 -14.7904 -6.35473 28.8979
  898 -14.8212 -6.38106 -28.9537
  899 1.36993 -143.951 -4.59267
  900 -22.7642 -1.40006 28.2749
  901 -22.8132 -1.40536 -28.3203
  902 16.6961 13.9056 -16.1806
  903 16.7994 13.8748 16.1632
  904 -1.17606 -9.56727 5.28424
  905 -1.18953 -9.55798 -5.29228
  906 34.8889 15.6804 -14.1915
  907 34.9957 15.6422 14.1810
  908 7.68159 -10.4671 29.3052
  909 6.73451 -9.73089 -30.9155
  910 373.665 -10.9884 33.0561
  911 372.795 -10.5000 -33.2102
  912 -120.202 0.282545 -0.864080
  913 -120.058 0.282565 0.863352
  914 -10.6272 -0.947565 5.01183
  915 -10.6181 -0.949301 -5.01067
  916 0.497239 -88.3357 -10.6817
  917 -11.3217 -4.83321 -14.2240
  918 -11.3165 -4.82066 14.2239
  919 -46.8701 4.04773 20.6200
  920 -46.9624 4.05577 -20.6547
  921 118.573 22.1624 -8.83926
  922 118.474 22.2323 8.92004
  923 501.456 38.8798 -7.41948
  924 -3.95099 11.0746 20.7968
  925 -4.05914 11.1006 -20.8262
  926 186.156 12.0723 -54.4807
  927 186.145 12.2416 55.0476
  928 -20.0702 7.63184 16.7207
  929 -20.1729 7.64878 -16.7436
  930 598.071 -25.6740 -5.52551
  931 370.926 14.7701 23.0484
  932 439.906 -5.00864 -41.5155
  933 326.986 3.62617 -21.8811
  934 327.121 3.53253 21.8870
  935 -32.3098 4.42533 -7.99536
  936 -32.2082 4.41912 7.98698
  937 -76.5002 1.34932 10.1875
  938 -76.6100 1.35263 -10.2029
  939 -4.65083 -15.1012 -16.4948
  940 -4.61694 -15.1121 16.5232
  941 117.893 6.82037 1.27745
  942 117.920 6.81916 -1.27314
  943 -35.6192 3.85095 25.7176
  944 -35.6992 3.85323 -25.7632
  945 389.865 -0.648447 4.87578
  946 389.751 -0.645171 -4.87490
  947 -2.88291 -33.0279 24.8222
  948 16.6211 12.6729 -13.8113
  949 16.7174 12.6488 13.7987
  950 22.4291 8.60567 8.85649
  951 22.3461 8.61792 -8.86174
  952 69.8549 5.73047 -1.79789
  953 69.9061 5.72768 1.79856
  954 731.302 98.3057 -26.1394
  955 -2.94366 -0.799928 -1.99990
  956 -2.94997 -0.799820 2.00350
  957 26.3924 8.04188 -17.0716
  958 26.8331 7.84183 16.9838
  959 264.944 9.81286 -23.3102
  960 265.051 9.73663 23.3645
  961 36.0229 10.9136 -8.30368
  962 36.1030 10.8981 8.30098
  963 73.0635 -8.06580 101.050
  964 493.526 -3.68921 -4.36848
  965 492.904 -3.55342 3.93196
  966 89.6214 -3.74594 88.7969
  967 94.5678 3.36540 -0.542681
  968 94.5308 3.36586 0.543347
  969 242.108 -5.08955 -147.516
  970 182.775 2.32557 1.24678
  971 182.767 2.32608 -1.24603
  972 23.7955 -21.7057 3.10692
  973 26.2926 -17.8983 -1.12814
  974 436.347 -0.616998 1.67253
  975 436.206 -0.616170 -1.67147
  976 -35.7865 0.159674 20.8611
  977 -35.8290 0.157202 -20.8905
  978 783.600 98.8062 47.7046
  979 -3.17082 -24.4295 -32.5211
  980 4.22005 -118.409 15.9852
  981 -0.452614 -38.9402 29.9284
  982 451.512 -0.569041 -6.28592
  983 451.630 -0.583735 6.26473
  984 -5.96041 -10.9317 14.2671
  985 -5.97745 -10.9334 -14.2542
  986 568.672 60.2296 -27.5037
  987 980.415 7.99740 -5.83121
  988 -1.47744 -2.25357 -2.17662
  989 -1.47577 -2.25833 2.17977
  990 264.635 2.25211 -5.10768
  991 264.685 2.24829 5.10999
  992 -3.23613 -23.4480 32.6683
  993 366.954 1.01386 19.4160
  994 366.820 1.10953 -19.4387
  995 482.408 -31.4970 -17.4039
  996 -16.7688 -3.46711 16.0560
  997 -16.7766 -3.48055 -16.0656
  998 8.34653 -30.0802 22.4084
  999 -0.720969 -59.0474 23.5014
  1000 -0.0720938 -61.7376 11.7439
  1001 499.756 31.9371 -2.99190
  1002 568.290 62.4481 14.6049
  1003 405.489 -45.4502 -69.4898
  1004 6.03713 -56.6454 17.9562
  1005 7.59455 -81.0210 2.85296
  1006 114.599 2.10142 0.231913
  1007 114.572 2.10124 -0.231901
  1008 -4.48315 -5.11385 -6.83835
  1009 -4.47899 -5.11454 6.84346
  1010 4.08411 -46.5608 -24.4798
  1011 326.123 -0.254285 -1.18719
  1012 326.204 -0.255529 1.18767
  1013 66.9648 1.82407 -34.3522
  1014 64.1085 1.97491 34.0254
  1015 -4.77346 10.2239 27.6340
  1016 -4.89746 10.2518 -27.6876
  1017 -36.9103 5.80817 -17.1155
  1018 -36.8067 5.79588 17.0908
  1019 251.011 4.01343 -52.9070
  1020 251.131 4.24216 53.4625
  1021 181.410 15.8122 -37.5609
  1022 181.375 15.8177 37.8919
  1023 196.348 13.3558 -12.9813
  1024 196.372 13.3369 13.0191
  1025 506.502 -12.7050 -52.8979
  1026 -12.3723 6.39125 30.5819
  1027 -12.4827 6.39986 -30.6528
  1028 358.206 -1.00421 26.6444
  1029 358.001 -0.797900 -26.6387
  1030 -2.03933 -18.1140 33.9663
  1031 -28.7873 -0.927683 15.4586
  1032 -28.8052 -0.932614 -15.4766
  1033 326.720 2.30169 -26.5447
  1034 326.890 2.16850 26.5643
  1035 409.290 10.3232 -38.1281
  1036 -0.401867 -58.6543 -24.6467
  1037 -4.67786 -23.0613 29.3945
  1038 -4.87807 -23.3487 -29.1532
  1039 231.519 12.7253 -19.4650
  1040 231.587 12.6782 19.5242
  1041 290.753 4.54488 11.0015
  1042 290.684 4.56208 -10.9977
  1043 481.420 -30.7692 15.0058
  1044 26.3976 1.91968 -0.342497
  1045 26.4684 1.91950 0.342276
  1046 409.868 -50.8115 74.1067
  1047 0.277205 1.25005 1.81125
  1048 0.193161 1.25021 -1.81246
  1049 90.3791 22.3892 -1.21065
  1050 90.2516 22.4665 1.25385
  1051 35.2726 17.6894 15.6052
  1052 35.1550 17.7360 -15.6221
  1053 4.63892 -70.6968 -14.6151
  1054 120.525 3.79067 0.636826
  1055 120.550 3.79096 -0.634542
  1056 362.544 11.6391 9.53334
  1057 329.405 1.77687 10.1552
  1058 329.320 1.79328 -10.1557
  1059 -1.69113 -18.8483 -34.0278
  1060 494.834 -6.40073 -9.37077
  1061 0.603772 -1.11942 33.4919
  1062 0.981592 -0.851683 -33.3242
  1063 448.678 -0.975341 -3.48147
  1064 448.818 -0.978777 3.47816
  1065 478.334 -1.83865 -6.13281
  1066 478.293 -1.89760 5.98333
  1067 -0.361059 -93.4694 8.80901
  1068 282.853 6.36835 -14.5267
  1069 282.924 6.33907 14.5344
  1070 343.088 2.42390 11.7771
  1071 342.994 2.44557 -11.7806
  1072 8.71973 8.54754 29.8095
  1073 8.67029 8.54840 -29.8497
  1074 743.637 48.4828 8.55772
  1075 -9.06140 -3.76929 34.7532
  1076 -9.21215 -3.68261 -34.8455
  1077 108.643 20.5201 -2.55675
  1078 108.578 20.5552 2.59624
  1079 -57.2801 0.900811 -2.87705
  1080 -57.1677 0.900488 2.87472
  1081 177.474 10.8085 -62.6312
  1082 177.216 11.2946 63.3422
  1083 52.1367 19.9865 11.5551
  1084 52.0090 20.0453 -11.5615
  1085 121.058 14.8029 -46.8416
  1086 120.438 15.3871 47.2118
  1087 -3.08536 -31.0305 -24.1980
  1088 424.538 6.30669 50.5642
  1089 295.369 5.59465 190.675
  1090 49.0389 20.6763 11.9040
  1091 48.8903 20.7533 -11.9234
  1092 179.642 8.68559 -5.02677
  1093 179.650 8.68001 5.03723
  1094 642.516 6.78517 10.2611
  1095 42.7419 11.4383 6.53342
  1096 42.2091 11.5649 -6.70115
  1097 -18.9915 -4.11217 21.3192
  1098 -19.0090 -4.13190 -21.3426
  1099 -0.622231 -14.2736 5.76113
  1100 -0.647199 -14.2653 -5.78449
  1101 422.823 -0.926717 15.5575
  1102 422.656 -0.775938 -15.6564
  1103 0.856112 -29.2956 31.7790
  1104 -28.4745 1.95619 -28.1643
  1105 -28.4081 1.96006 28.1180
  1106 0.138366 -112.653 -11.0830
  1107 -6.27158 -8.90626 34.7035
  1108 -6.25207 -8.70895 -34.7405
  1109 403.850 0.0159831 -6.55089
  1110 403.968 0.00866040 6.54841
  1111 417.454 -3.72298 18.8137
  1112 417.159 -3.47789 -18.9108
  1113 74.5502 17.1440 -16.9941
  1114 73.9868 17.4562 17.1243
  1115 -0.963525 -58.0407 -20.1416
  1116 548.540 -46.1460 -112.709
  1117 710.604 96.5973 10.7642
  1118 7.62588 -85.2069 0.00588967
  1119 26.8474 15.0377 -21.1249
  1120 27.0048 14.9577 21.0046
  1121 70.0189 22.2026 4.25139
  1122 69.8494 22.3034 -4.24053
  1123 146.401 7.87835 2.34912
  1124 146.413 7.87979 -2.34163
  1125 -9.09025 -12.9483 27.5606
  1126 -9.07828 -13.0749 -27.6067
  1127 -25.0030 8.14907 22.0582
  1128 -25.1065 8.16713 -22.0926
  1129 -8.07218 10.4311 25.5225
  1130 -8.18684 10.4569 -25.5674
  1131 399.589 -20.4935 -32.6365
  1132 402.095 -20.6310 32.4044
  1133 0.431933 -66.2378 -23.3316
  1134 215.229 0.311987 -77.9467
  1135 215.531 0.974420 79.1841
  1136 69.9905 20.0411 -5.37458
  1137 70.0859 19.9946 5.38810
  1138 212.778 112.918 212.697
  1139 55.2309 15.9498 8.45745
  1140 55.1452 15.9779 -8.45396
  1141 543.131 -57.2328 -29.6191
  1142 207.219 4.90748 3.98020
  1143 207.198 4.91187 -3.97599
  1144 -9.20729 -8.19237 16.9360
  1145 -9.21451 -8.21271 -16.9319
  1146 -10.9573 -9.80487 21.8640
  1147 -10.9586 -9.84476 -21.8685
  1148 358.506 -34.9782 -108.514
  1149 365.470 -38.6140 109.294
  1150 66.4411 1.94124 1.01019
  1151 66.4921 1.94122 -1.00952
  1152 226.426 10.2805 -43.2590
  1153 226.416 10.1573 43.6700
  1154 488.589 -63.1487 83.8397
  1155 432.975 -1.14311 0.964120
  1156 432.835 -1.14223 -0.963358
  1157 -37.5916 6.08536 19.7293
  1158 -37.6938 6.09789 -19.7595
  1159 -65.1188 1.95571 -10.2206
  1160 -65.0060 1.95164 10.2087
  1161 113.547 7.14570 129.823
  1162 350.509 23.0226 -19.3925
  1163 207.116 14.1132 -21.8086
  1164 207.170 14.0796 21.9172
  1165 631.470 -12.4861 121.871
  1166 210.555 13.7152 -31.8512
  1167 210.619 13.6548 32.0395
  1168 54.3637 6.21583 -2.93457
  1169 54.4238 6.21195 2.93463
  1170 18.7020 -63.0827 14.2124
  1171 18.8947 -61.2573 -19.2078
  1172 284.568 -18.5618 -109.603
  1173 288.370 -17.2727 109.479
  1174 112.639 19.0389 -33.2770
  1175 112.163 19.4099 33.5781
  1176 497.935 -32.3528 -33.7763
  1177 -17.6744 -1.30034 31.8110
  1178 -17.7405 -1.30081 -31.8676
  1179 -0.0991665 -26.1207 -32.6658
  1180 128.910 5.79981 -82.5022
  1181 129.184 6.14851 83.8434
  1182 -0.317430 -25.2669 6.41121
  1183 -0.271485 -25.3290 -6.49114
  1184 -117.804 0.966557 -2.96399
  1185 -117.668 0.965864 2.96034
  1186 394.214 -0.624408 -1.86848
  1187 394.331 -0.625831 1.86932
  1188 245.799 8.24071 -12.7193
  1189 245.855 8.21359 12.7378
  1190 -8.34781 0.297728 34.6428
  1191 -8.37372 0.441302 -34.7111
  1192 0.00952624 -100.846 -9.77713
  1193 -100.440 0.221695 4.87864
  1194 -100.552 0.222286 -4.88641
  1195 80.2253 1.12140 -58.6483
  1196 79.6441 1.61879 60.4246
  1197 462.009 -28.1651 -3.10364
  1198 134.114 10.0667 -74.2344
  1199 134.194 10.3885 74.9093
  1200 -56.1630 0.308958 7.65318
  1201 -56.2007 0.308581 -7.66429
  1202 1.53760 -86.8859 -16.0304
  1203 -14.2065 3.20833 -3.66432
  1204 -14.1147 3.20632 3.66161
  1205 71.7879 16.7359 5.76683
  1206 71.7074 16.7656 -5.75513
  1207 260.842 0.648231 -1.63549
  1208 260.890 0.646946 1.63625
  1209 350.266 1.01729 7.71777
  1210 350.173 1.02740 -7.71839
  1211 20.0861 -1.37543 17.7106
  1212 19.7885 -1.71287 -18.0744
  1213 3.48691 -49.6074 24.5375
  1214 629.026 88.3009 17.7770
  1215 -19.3403 -1.49049 12.1834
  1216 -19.3443 -1.49707 -12.1910
  1217 2.77735 -46.4672 -25.7944
  1218 -1.82055 -29.2993 17.8000
  1219 -1.73283 -29.0147 -18.4385
  1220 496.721 -5.48022 8.29001
  1221 0.430187 -115.223 9.97906
  1222 3.94339 -33.9132 -28.7933
  1223 61.7935 1.38873 0.542238
  1224 61.7402 1.38851 -0.542498
  1225 -4.71552 -20.5687 32.2281
  1226 -52.8047 2.96363 -8.54190
  1227 -52.6949 2.95957 8.53295
  1228 998.895 16.9185 28.8421
  1229 -28.0210 3.45910 28.3666
  1230 -28.0995 3.45820 -28.4175
  1231 241.627 9.30022 -39.0860
  1232 241.812 9.14098 39.3057
  1233 16.2350 -21.8475 -10.9531
  1234 229.720 10.9819 -16.1070
  1235 229.777 10.9453 16.1477
  1236 9.77077 -67.4441 -2.28000
  1237 -4.73489 -20.6193 -32.1870
  1238 -35.9467 1.30274 4.94941
  1239 -36.0491 1.30400 -4.95334
  1240 -16.7971 1.56111 -32.4248
  1241 -16.7164 1.56713 32.3709
  1242 491.932 39.8170 37.2881
  1243 278.911 2.76936 -41.1464
  1244 279.216 2.70304 41.2479
  1245 -122.816 0.248291 -1.02805
  1246 -122.672 0.248209 1.02691
  1247 251.007 5.28022 -8.59114
  1248 251.053 5.27051 8.59687
  1249 -125.605 -2.22793 -0.348388
  1250 -125.753 -2.22922 0.348511
  1251 373.815 -26.4299 -47.1590
  1252 -58.2226 1.01597 16.0682
  1253 -58.2946 1.01641 -16.0946
  1254 377.475 -27.8995 46.7355
  1255 255.538 8.53676 -17.2976
  1256 255.608 8.49375 17.3230
  1257 30.4832 -59.9155 -58.0469
  1258 0.560660 -80.1600 -19.9439
  1259 -1.55599 -33.6044 30.1919
  1260 791.084 142.316 -119.627
  1261 -0.174725 -75.4411 19.6167
  1262 826.572 78.2033 -53.1629
  1263 -0.494096 -139.946 -9.21803
  1264 42.5370 3.58232 -0.835641
  1265 42.6006 3.58086 0.835470
  1266 -0.343423 -32.4264 6.71613
  1267 -0.274945 -32.6011 -6.69973
  1268 143.832 2.87245 0.338492
  1269 143.844 2.87285 -0.337815
  1270 503.125 -37.1614 31.9473
  1271 12.5657 3.44292 -4.24369
  1272 12.6450 3.44051 4.24124
  1273 2.90024 -151.349 3.77959
  1274 1.84412 -161.438 -3.76300
  1275 462.672 -56.1907 -51.1851
  1276 -1.24439 -41.8242 19.6198
  1277 488.289 32.3817 -47.7049
  1278 -1.43997 -55.1091 19.2548
  1279 0.986505 -149.888 -6.83579
  1280 234.536 5.87934 -9.53388
  1281 234.577 5.86176 9.54550
  1282 -0.185011 -82.4146 8.69874
  1283 -0.196566 -68.1007 -19.5542
  1284 1079.53 195.036 167.222
  1285 434.906 0.0823961 0.728225
  1286 434.765 0.0825123 -0.727726
  1287 12.4359 1.72929 26.8423
  1288 12.0557 2.19910 -26.9765
  1289 -5.83848 6.67188 32.2647
  1290 -6.00738 6.67807 -32.3502
  1291 468.162 -8.43133 -29.5099
  1292 432.449 -18.3281 -19.0653
  1293 432.065 -20.8016 19.3095
  1294 66.9525 7.07915 2.85571
  1295 66.8969 7.08382 -2.85394
  1296 -69.7887 1.85207 -12.3734
  1297 -69.6846 1.84803 12.3538
  1298 482.029 -64.1040 -71.8843
  1299 -3.58588 -8.71039 8.91485
  1300 -3.60008 -8.70486 -8.91130
  1301 509.324 -20.6007 49.9469
  1302 -5.24877 -19.9215 23.8811
  1303 -5.19011 -19.9971 -23.7726
  1304 -42.9511 2.80173 5.94542
  1305 -43.0569 2.80474 -5.95101
  1306 78.6854 10.1985 -31.3081
  1307 77.8989 10.6357 31.2790
  1308 122.794 2.73638 0.174016
  1309 122.771 2.73606 -0.173497
  1310 -47.9582 4.87697 19.5902
  1311 -48.0560 4.88623 -19.6208
  1312 408.639 0.684301 1.13158
  1313 408.513 0.684205 -1.13087
  1314 228.317 0.807971 146.015
  1315 335.114 0.104489 2.73662
  1316 335.028 0.105959 -2.73548
  1317 225.221 4.88410 -59.6305
  1318 225.237 4.63257 60.1275
  1319 2.22076 -86.8367 -10.9572
  1320 88.3897 21.2030 -14.2378
  1321 88.0081 21.4498 14.3751
  1322 -0.867774 -0.765969 -1.12739
  1323 -0.872144 -0.766156 1.13067
  1324 288.330 7.97321 22.1939
  1325 288.220 8.05498 -22.1663
  1326 144.808 11.0025 4.08117
  1327 144.822 11.0029 -4.06590
  1328 211.974 11.0403 -11.1686
  1329 212.009 11.0204 11.1941
  1330 275.922 0.893435 -2.75629
  1331 275.977 0.891985 2.75753
  1332 -8.74855 -4.21753 -10.0581
  1333 -8.74615 -4.21201 10.0623
  1334 -81.4661 -0.00795459 3.52147
  1335 -81.5897 -0.00765180 -3.52496
  1336 -14.7714 -6.71578 -24.3991
  1337 -14.7571 -6.68070 24.3706
  1338 -44.9935 0.528092 1.45029
  1339 -45.1000 0.527827 -1.45130
  1340 -127.141 1.13386 0.582076
  1341 -127.289 1.13426 -0.582510
  1342 517.242 -61.9748 97.2601
  1343 382.354 -1.94940 -41.4360
</Section>

newXOutput 62

<Section columns = "stress_xx | stress_yy | stress_xy">
  1 454.581 -0.776002 0.478404
  2 454.732 -0.776574 -0.478644
  3 -139.703 0.636411 -1.91743
  4 0.222526 0.0528444 0.396941
  5 817.983 249.260 271.315
  6 925.050 280.835 -261.260
  7 0.221478 0.0518959 -0.395546
  8 -139.545 0.636279 1.91647
  9 453.246 -0.740608 -1.50859
  10 453.637 -1.47022 -2.42865
  11 457.895 -1.46855 -0.667683
  12 458.407 -1.43452 -2.88039
  13 459.653 -1.41659 -0.930837
  14 469.171 -1.32431 -1.27637
  15 472.551 -1.88320 -3.86734
  16 476.275 -0.951948 -2.67247
  17 478.731 0.00703502 -5.15299
  18 497.976 -2.86366 -4.40972
  19 506.465 -2.26938 -5.64760
  20 515.957 -3.35222 -2.35556
  21 520.727 -4.37933 -1.54260
  22 517.910 -4.97696 6.23662
  23 501.516 -5.49615 13.3832
  24 462.831 -5.96264 28.9564
  25 399.408 3.64948 33.8124
  26 347.632 4.54280 31.2882
  27 275.064 8.80228 18.9431
  28 291.919 8.55282 1.90815
  29 247.136 25.2325 -11.9484
  30 331.182 11.7126 -34.3659
  31 376.842 3.03971 -28.0445
  32 454.144 -1.18973 -24.3044
  33 496.257 -6.66605 -16.1069
  34 517.271 -5.79182 -6.18814
  35 519.851 -4.24924 1.58099
  36 515.370 -3.31057 2.22620
  37 506.263 -2.28260 5.49337
  38 497.948 -2.89791 4.32300
  39 478.823 -0.0121241 5.11353
  40 476.407 -0.959167 2.65850
  41 472.702 -1.88797 3.86369
  42 469.328 -1.32686 1.27488
  43 459.808 -1.41834 0.930760
  44 458.561 -1.43604 2.88225
  45 458.049 -1.46972 0.668332
  46 453.788 -1.47125 2.43033
  47 453.397 -0.741172 1.50963
  48 429.205 0.907508 -0.576761
  49 397.989 0.0657312 -1.26463
  50 358.883 -1.74222 -1.24889
  51 318.243 0.558414 -1.03875
  52 282.539 0.201859 -0.821990
  53 244.248 1.42174 -0.968926
  54 206.367 3.41128 -0.567159
  55 166.953 2.99604 -1.21529
  56 134.203 1.95478 -1.71603
  57 91.1423 1.07989 -1.80835
  58 47.3327 2.04205 -1.38214
  59 10.7200 1.70739 -1.33678
  60 -35.0223 0.940745 -1.21358
  61 -69.0376 -0.570767 -3.02658
  62 -101.999 -2.32484 -1.37664
  63 -135.466 0.252714 0.950702
  64 -142.753 2.44203 -0.326795
  65 -143.317 1.06316 0.462887
  66 -138.576 0.514348 -0.125102
  67 -140.263 1.56302 -1.68765
  68 -138.124 1.90903 -0.0898773
  69 -130.721 0.569272 -2.60772
  70 -132.477 1.18038 -2.81573
  71 -129.258 1.11447 -1.54988
  72 -119.742 0.686999 -2.37145
  73 -115.501 1.26640 -3.96672
  74 -108.563 1.42624 -3.23418
  75 -96.1771 0.723963 -5.68018
  76 -89.2480 0.225006 -4.74346
  77 -76.6554 0.322620 -5.49795
  78 -65.8406 0.259250 -6.11200
  79 -56.3704 0.0921924 -4.82504
  80 -43.1753 0.287968 -4.86839
  81 -31.7805 -0.113077 -5.21857
  82 -20.7505 -0.562291 -4.59673
  83 -11.9961 -0.494039 -3.53067
  84 -5.91152 -0.872467 -2.95674
  85 -1.01182 -0.504972 -1.06359
  86 0.0495735 -0.565943 -0.384922
  87 -0.304625 -0.312464 -0.0820996
  88 -0.791230 -0.822962 -0.932874
  89 -0.768969 -5.00517 -2.56999
  90 -0.651541 -11.1869 -3.65076
  91 -0.333534 -19.0403 -5.31631
  92 -0.168783 -29.2208 -4.58170
  93 -0.131570 -38.5540 -5.76324
  94 -0.700351 -49.9075 -6.49164
  95 -0.287221 -63.9519 -6.54003
  96 0.132257 -78.0939 -6.25505
  97 0.304688 -93.2296 -6.16371
  98 0.473777 -108.758 -6.04793
  99 0.0124989 -120.062 -8.17477
  100 0.790003 -136.250 -7.30607
  101 0.982151 -155.172 -5.77520
  102 -0.104556 -163.234 -7.65931
  103 1.39024 -176.722 -7.05620
  104 3.47578 -194.611 -3.07647
  105 6.81414 -198.685 -4.89442
  106 4.94792 -179.194 6.03639
  107 7.45824 -130.724 22.4578
  108 35.8555 -65.4077 62.3051
  109 110.419 181.057 201.653
  110 1254.89 69.0922 125.823
  111 1079.49 20.0021 45.4403
  112 1044.71 6.99930 10.5019
  113 1037.13 2.01283 -1.66560
  114 1044.34 10.9903 -23.9484
  115 1078.17 36.4900 -54.1331
  116 1222.48 135.244 -160.001
  117 266.430 141.848 -245.595
  118 60.7814 -64.9641 -74.9466
  119 17.9935 -143.260 -28.5914
  120 5.04009 -169.467 -6.40176
  121 5.51812 -191.015 2.31259
  122 1.54837 -186.848 2.20769
  123 0.525046 -172.268 5.91311
  124 0.588863 -162.439 4.66392
  125 0.853245 -146.568 8.22170
  126 -0.0418367 -137.525 8.05599
  127 0.337337 -124.319 5.78751
  128 0.670182 -107.471 7.40854
  129 0.137817 -95.4214 5.86822
  130 0.193497 -78.1665 7.41761
  131 -0.781085 -64.7291 6.38191
  132 -0.538377 -49.9470 6.28659
  133 -0.0901905 -38.3372 5.77689
  134 -0.220716 -29.0509 4.58892
  135 -0.325061 -18.9843 5.26401
  136 -0.641926 -11.1796 3.63250
  137 -0.764853 -5.01283 2.56817
  138 -0.790155 -0.831253 0.934750
  139 -0.304571 -0.316018 0.0844889
  140 0.0452436 -0.566463 0.387074
  141 -1.01991 -0.504657 1.06629
  142 -5.92349 -0.871569 2.95933
  143 -12.0120 -0.492448 3.53136
  144 -20.7625 -0.560329 4.59463
  145 -31.7824 -0.111454 5.21296
  146 -43.1652 0.288289 4.86183
  147 -56.3438 0.0930029 4.81812
  148 -65.7987 0.260226 6.10391
  149 -76.5930 0.322584 5.48933
  150 -89.1664 0.224934 4.73524
  151 -96.0824 0.723461 5.67194
  152 -108.450 1.42533 3.22765
  153 -115.378 1.26537 3.96122
  154 -119.608 0.686316 2.36781
  155 -129.115 1.11372 1.54742
  156 -132.330 1.17977 2.81309
  157 -130.572 0.569053 2.60551
  158 -137.969 1.90812 0.0891874
  159 -140.106 1.56231 1.68642
  160 -138.419 0.514233 0.124817
  161 -143.158 1.06275 -0.462763
  162 -142.594 2.44096 0.326554
  163 -135.311 0.252768 -0.950316
  164 -101.860 -2.32333 1.37591
  165 -68.9163 -0.569960 3.02507
  166 -34.9183 0.940901 1.21291
  167 10.8009 1.70724 1.33609
  168 47.3952 2.04183 1.38145
  169 91.1827 1.08032 1.80748
  170 134.222 1.95498 1.71524
  171 166.955 2.99596 1.21476
  172 206.349 3.41108 0.566885
  173 244.210 1.42248 0.968405
  174 282.481 0.203056 0.821492
  175 318.166 0.559116 1.03810
  176 358.785 -1.74056 1.24817
  177 397.869 0.0660691 1.26393
  178 429.068 0.907208 0.576444
  179 122.848 20.8542 -6.51681
  180 122.772 20.8967 6.58021
  181 -1.43778 3.99074 33.3479
  182 -1.57271 3.95902 -33.3707
  183 276.869 -3.64555 -63.5592
  184 276.651 -4.16452 64.2057
  185 56.3505 13.8804 -4.78835
  186 55.6843 14.1069 4.79903
  187 42.3283 6.59449 -4.57402
  188 42.3980 6.58846 4.57278
  189 261.243 4.28320 -9.64734
  190 261.295 4.26857 9.65511
  191 -2.83083 10.3659 17.7017
  192 -2.93638 10.3890 -17.7246
  193 303.368 7.08320 -24.2065
  194 303.509 6.98395 24.2422
  195 -11.5840 -10.0326 27.0231
  196 -11.5827 -10.0935 -27.0605
  197 3.06694 -23.4527 -31.5771
  198 96.0759 7.53776 -59.5548
  199 3.68691 -25.1228 30.7851
  200 94.5617 8.27641 60.4384
  201 428.954 -55.9174 -91.7681
  202 443.543 -58.1104 88.1969
  203 156.023 4.50706 -1.92066
  204 156.016 4.50594 1.92371
  205 -22.0384 1.47416 -3.33597
  206 -21.9407 1.47355 3.33358
  207 -33.1452 5.27488 25.6818
  208 -33.2389 5.28430 -25.7285
  209 156.904 13.6368 -5.47702
  210 156.896 13.6372 5.49879
  211 48.9163 20.1531 11.0315
  212 48.7231 20.2718 -11.0817
  213 -41.8239 4.53231 -10.2873
  214 -41.7156 4.52539 10.2755
  215 345.214 -0.0379254 4.50609
  216 345.124 -0.0341765 -4.50487
  217 11.5748 -43.8889 12.2253
  218 12.5754 -39.5511 -10.5867
  219 -3.10084 -28.4688 30.3569
  220 -3.18431 -29.6136 -29.4166
  221 145.409 20.7605 -26.7210
  222 145.265 20.8648 26.9649
  223 -30.4127 -0.00240791 26.1953
  224 -30.4659 -0.00726005 -26.2358
  225 369.267 1.57244 -13.0609
  226 369.373 1.54396 13.0519
  227 398.140 -6.26168 -25.9664
  228 398.460 -6.64830 25.8826
  229 637.905 47.7408 0.466469
  230 585.338 66.1915 29.9657
  231 574.740 -2.30610 -46.9092
  232 72.6661 15.3879 5.46466
  233 72.5933 15.4115 -5.45607
  234 6.32037 13.0650 25.1712
  235 6.19317 13.1031 -25.2133
  236 444.839 -26.8491 -18.4484
  237 442.294 -27.1653 19.9058
  238 247.105 1.46206 -3.59340
  239 247.145 1.45893 3.59546
  240 -53.3763 3.81435 16.9900
  241 -53.4805 3.82272 -17.0162
  242 -7.48835 -7.36199 -12.2473
  243 -7.48076 -7.35637 12.2538
  244 -58.2965 1.28073 5.10063
  245 -58.4118 1.28228 -5.10544
  246 204.364 14.5100 -16.7718
  247 204.396 14.4842 16.8313
  248 259.315 7.31878 -36.5599
  249 259.504 7.19769 36.7141
  250 64.6703 3.50888 -0.0258292
  251 64.7246 3.50790 0.0261152
  252 150.903 5.74633 -126.212
  253 178.128 9.68899 137.078
  254 21.1897 9.91553 23.5688
  255 21.0975 10.1182 -23.6801
  256 602.382 -42.6353 -16.2466
  257 54.6410 19.7798 9.60413
  258 54.5296 19.8295 -9.60337
  259 148.224 16.3652 -48.5352
  260 147.931 16.7510 49.0210
  261 675.027 97.1809 -0.772090
  262 400.443 -0.289260 17.6690
  263 400.291 -0.175277 -17.7169
  264 -3.57946 -22.2649 -19.1228
  265 -3.47073 -22.3516 19.1965
  266 -0.719368 -52.5828 -26.0673
  267 1.92378 -60.8412 -23.5979
  268 1.05073 -61.1185 24.8968
  269 -9.64425 -8.31415 34.4886
  270 -9.68866 -8.30410 -34.6329
  271 22.1757 -46.0030 -11.1781
  272 23.8855 -42.0824 14.9370
  273 -23.0044 -1.89941 16.7785
  274 -23.0194 -1.90842 -16.7954
  275 286.374 7.20457 -15.2036
  276 286.456 7.16585 15.2155
  277 499.379 -50.3842 -6.64901
  278 112.803 8.85598 0.509099
  279 112.835 8.85275 -0.503265
  280 -1.24739 -49.3819 24.9445
  281 12.7705 9.99674 11.0666
  282 12.6780 10.0135 -11.0760
  283 790.343 54.4766 -23.0775
  284 387.775 -0.201819 5.48173
  285 387.663 -0.195640 -5.48257
  286 263.358 -11.4774 -95.0692
  287 265.576 -11.2747 96.4525
  288 498.763 -47.8174 -1.45387
  289 -46.6908 1.49854 20.6323
  290 -46.7572 1.49847 -20.6659
  291 487.188 -35.1744 154.178
  292 -20.2533 3.72327 31.1149
  293 -20.3377 3.71720 -31.1734
  294 84.7162 23.1922 -8.38371
  295 84.3849 23.4080 8.47013
  296 -83.8010 0.555495 0.875657
  297 -83.9299 0.555349 -0.876418
  298 411.158 13.9117 -208.951
  299 -79.5052 1.56515 -9.07480
  300 -79.3869 1.56184 9.06216
  301 -1.85053 -9.56973 34.8856
  302 -0.596492 -9.28218 -34.4804
  303 183.515 18.1119 -24.1329
  304 183.517 18.1114 24.2759
  305 42.0707 4.25501 3.44540
  306 42.0037 4.25750 -3.44678
  307 190.521 6.54911 -5.26187
  308 190.533 6.54450 5.26895
  309 18.5598 -11.9096 16.9249
  310 16.9239 -14.5510 -17.1880
  311 184.950 2.53633 -1.37074
  312 184.957 2.53540 1.37188
  313 -65.7682 1.72272 15.0457
  314 -65.8557 1.72526 -15.0709
  315 47.1586 -2.32061 -13.6878
  316 45.7864 -2.39056 12.4499
  317 403.806 -0.725755 1.53545
  318 403.683 -0.724688 -1.53447
  319 877.678 49.5259 36.1131
  320 94.1712 11.7563 1.53296
  321 94.1233 11.7656 -1.52404
  322 -17.0269 4.18590 6.93541
  323 -17.1244 4.19132 -6.94185
  324 128.654 16.6274 -4.46444
  325 128.615 16.6407 4.50005
  326 16.1121 13.5578 25.9845
  327 16.0068 13.5863 -26.0568
  328 1.96892 -88.2103 17.1877
  329 -87.0521 0.0523218 -2.05351
  330 -86.9220 0.0525436 2.05173
  331 309.908 0.171085 -2.95168
  332 309.979 0.169138 2.95288
  333 326.271 1.52822 -7.82485
  334 326.353 1.51734 7.82573
  335 -81.4751 1.30941 -6.50258
  336 -81.3504 1.30746 6.49556
  337 1.22961 1.22982 0.679381
  338 1.14383 1.22984 -0.679955
  339 -1.83495 -36.7387 19.0483
  340 -1.45475 -38.2152 -19.0217
  341 368.724 -29.9920 -64.5384
  342 382.706 -35.8916 63.4019
  343 219.932 9.86741 -10.4575
  344 219.966 9.85127 10.4751
  345 98.3244 22.5886 -5.18881
  346 98.1545 22.6921 5.25719
  347 -31.8741 6.35960 14.7540
  348 -31.9797 6.37230 -14.7739
  349 679.447 18.6615 23.3867
  350 37.2428 -47.5500 -43.6807
  351 39.8245 -43.7353 45.5768
  352 -12.9643 10.4936 23.8873
  353 -13.0753 10.5173 -23.9267
  354 -18.5034 -3.59008 30.6327
  355 -18.5539 -3.60015 -30.6900
  356 770.858 132.171 -41.9082
  357 499.879 -5.68913 59.6186
  358 463.484 -11.2247 -12.1397
  359 463.141 -10.9624 11.4375
  360 327.047 -4.20676 -41.2183
  361 326.661 -4.51250 41.2447
  362 0.627079 -106.280 -13.7683
  363 423.465 0.574827 -9.85791
  364 423.582 0.543251 9.83175
  365 5.65669 -99.2972 10.2288
  366 497.644 39.1577 -30.9229
  367 122.770 3.44499 1.22472
  368 122.746 3.44539 -1.22505
  369 328.574 1.76179 -30.5881
  370 328.785 1.60873 30.6343
  371 352.873 2.17568 -18.4233
  372 352.992 2.10772 18.4118
  373 -3.97127 3.58187 4.54447
  374 -4.06132 3.58490 -4.54788
  375 205.010 11.3454 -49.4091
  376 205.047 11.4771 49.8304
  377 416.013 -0.575978 2.50787
  378 415.884 -0.574256 -2.50692
  379 239.005 12.3365 -25.1585
  380 239.092 12.2695 25.2492
  381 274.648 3.45869 6.49160
  382 274.593 3.46486 -6.48851
  383 -13.0673 -2.33334 10.3980
  384 -13.0674 -2.33967 -10.3989
  385 -3.12203 -2.21449 -3.05634
  386 -3.12338 -2.21547 3.06098
  387 555.980 -66.5126 43.4329
  388 -7.12581 -17.2588 28.1251
  389 -7.07635 -17.4110 -28.1310
  390 93.3520 5.29528 -1.13331
  391 93.3930 5.29364 1.13489
  392 -2.75166 -13.8744 10.4484
  393 -2.78345 -13.8532 -10.4504
  394 37.1064 15.5721 11.8787
  395 37.0089 15.6036 -11.8852
  396 454.347 -2.36066 13.0929
  397 454.183 -2.20195 -13.2962
  398 -0.867707 -26.3301 33.4533
  399 -37.2498 -0.642996 15.8278
  400 -37.2799 -0.646543 -15.8494
  401 -1.01205 -27.8513 -33.0808
  402 425.865 -0.252120 6.28606
  403 425.738 -0.242822 -6.29252
  404 -2.85723 9.76682 30.2060
  405 -3.00392 9.79519 -30.2700
  406 316.779 3.91568 -12.3913
  407 316.862 3.89194 12.3922
  408 485.997 -20.7340 -8.99957
  409 487.291 -16.8268 6.62262
  410 -0.951164 -49.9815 -20.8273
  411 45.2377 17.0539 -7.21057
  412 45.6080 16.8774 7.15337
  413 490.127 31.7808 19.1451
  414 277.483 -12.4667 -130.881
  415 284.654 -17.5392 136.802
  416 18.2356 14.9929 18.9358
  417 18.1209 15.0302 -18.9598
  418 204.612 4.73186 -3.60217
  419 204.630 4.72933 3.60539
  420 198.894 40.5452 207.417
  421 83.9275 18.8261 -3.35153
  422 84.0133 18.7877 3.37206
  423 5.35317 -46.1403 21.7965
  424 -0.600781 -81.0704 -17.9458
  425 34.1384 18.5735 17.2543
  426 34.0059 18.6288 -17.2843
  427 42.3730 10.2739 -6.98061
  428 42.4490 10.2611 6.97912
  429 -13.1432 -0.357148 -34.2792
  430 -13.0600 -0.376338 34.2169
  431 99.8599 19.9795 -21.2365
  432 99.4311 20.2700 21.4319
  433 489.953 -15.1412 -45.2795
  434 14.6086 -3.74132 25.4524
  435 14.1446 -3.63107 -25.6271
  436 356.983 -15.4316 -45.5256
  437 358.420 -16.4846 45.4759
  438 -87.5556 0.666421 -8.97202
  439 -87.4444 0.664222 8.95788
  440 -0.00150850 -79.7943 16.1966
  441 -0.557776 -50.7632 18.5589
  442 -35.4486 2.41669 26.3732
  443 -35.5186 2.41505 -26.4174
  444 255.915 1.32923 -1.33989
  445 255.959 1.32782 1.34051
  446 -7.57117 -11.9657 19.2186
  447 -7.58514 -11.9946 -19.2003
  448 161.478 9.67614 -71.5550
  449 161.141 10.3797 72.3153
  450 1.34374 -95.8575 -17.4830
  451 875.931 29.9717 0.451569
  452 2.53093 -112.018 -9.30589
  453 -102.479 -0.130893 -3.13059
  454 -102.342 -0.130887 3.12778
  455 -38.9301 5.67699 21.1989
  456 -39.0322 5.68905 -21.2346
  457 -46.7434 0.684068 15.8516
  458 -46.7885 0.683695 -15.8746
  459 176.138 17.3531 -16.7427
  460 176.138 17.3576 16.8296
  461 264.437 9.60463 -19.4465
  462 264.525 9.54744 19.4842
  463 -4.14619 -15.8484 34.6476
  464 -4.15263 -15.7441 -34.7954
  465 461.038 9.04014 -57.0464
  466 32.3386 -6.00000 -2.93313
  467 31.2096 -6.27487 3.51486
  468 7.52258 -99.2475 -3.03176
  469 4.88510 -115.929 -0.482151
  470 -13.8005 -6.12893 19.7678
  471 -13.8083 -6.15196 -19.7781
  472 98.9274 -0.528552 -109.874
  473 693.791 8.20466 -74.9848
  474 160.500 9.43266 5.20749
  475 160.505 9.43493 -5.19484
  476 232.568 2.91554 -68.4611
  477 233.049 2.84910 69.4395
  478 69.6757 23.5331 5.39767
  479 69.5376 23.6128 -5.38715
  480 210.160 15.2189 -36.6212
  481 210.232 15.1525 36.8728
  482 8.52509 4.82748 30.5889
  483 8.98897 5.06095 -30.5528
  484 -91.1540 1.27701 -6.48702
  485 -91.0276 1.27534 6.47897
  486 457.694 -52.4317 -37.9027
  487 362.352 -0.441866 -2.08974
  488 362.452 -0.443030 2.09083
  489 22.2674 2.08137 -1.77849
  490 22.3430 2.08066 1.77738
  491 -21.6586 8.36151 19.5213
  492 -21.7655 8.38004 -19.5502
  493 -50.3944 3.00848 -6.87011
  494 -50.2829 3.00469 6.86291
  495 160.589 14.7161 -7.97435
  496 160.581 14.7152 8.00776
  497 -17.7802 7.39729 27.8981
  498 -17.8879 7.41408 -27.9526
  499 418.827 -12.2135 -24.4956
  500 419.544 -12.7854 24.2047
  501 276.722 2.64075 -45.7112
  502 276.292 2.46580 46.0901
  503 104.757 4.04867 -0.575166
  504 104.791 4.04808 0.575712
  505 1.25895 -48.7240 -28.1705
  506 491.897 -17.2117 37.0419
  507 7.14954 -31.2439 -24.8723
  508 141.974 22.1511 17.4400
  509 142.072 22.0824 -17.2989
  510 452.723 -49.0529 37.5015
  511 35.7234 -38.3048 59.0771
  512 537.425 -65.5117 -73.4581
  513 367.186 0.765949 22.2187
  514 367.017 0.900106 -22.2322
  515 1.22727 -41.5663 29.3185
  516 -7.20425 -2.13613 -5.58520
  517 -7.20715 -2.13489 5.58901
  518 47.7656 1.81746 -0.459456
  519 47.8280 1.81735 0.459190
  520 -1.22628 -28.4832 12.2774
  521 -1.11257 -28.3525 -12.3423
  522 302.708 2.23263 5.05988
  523 302.640 2.23584 -5.05803
  524 844.617 153.359 69.1344
  525 36.4744 -18.7664 -13.6413
  526 28.4636 -26.3287 7.68946
  527 -6.12201 6.18438 -9.31142
  528 -6.02659 6.17465 9.30247
  529 -73.0809 1.14893 9.45945
  530 -73.1545 1.15021 -9.47449
  531 0.752083 -90.0859 17.5457
  532 -100.302 0.779152 0.795086
  533 -100.439 0.779214 -0.795895
  534 95.6382 -1.93341 -81.4352
  535 93.5810 -0.450875 84.4491
  536 87.7683 16.4912 -29.4706
  537 87.1116 16.8680 29.6388
  538 -19.5017 -3.98657 26.8899
  539 -19.5347 -4.00473 -26.9321
  540 86.8828 6.95530 1.08562
  541 86.8371 6.95869 -1.08297
  542 -40.5167 1.74965 2.77346
  543 -40.6237 1.75069 -2.77612
  544 101.874 13.9747 0.647148
  545 101.824 13.9892 -0.630710
  546 -1.98406 -6.50572 4.78144
  547 -1.99104 -6.50025 -4.78062
  548 37.6605 16.2914 14.9950
  549 37.4115 16.5100 -15.0872
  550 30.4164 5.97268 12.8731
  551 29.9933 5.93542 -13.1311
  552 370.653 1.90802 9.33194
  553 370.550 1.92012 -9.33417
  554 329.025 3.54153 15.0398
  555 328.929 3.58088 -15.0414
  556 -0.335620 -76.9272 -11.2752
  557 232.065 10.7129 -15.1329
  558 232.114 10.6845 15.1638
  559 232.365 4.45731 -5.86195
  560 232.399 4.45048 5.86726
  561 -28.1931 0.799561 0.0993959
  562 -28.0926 0.799764 -0.0995370
  563 404.316 21.2403 -10.9825
  564 515.804 -63.2909 -28.8006
  565 431.247 20.3835 42.8597
  566 3.67939 -64.0577 -20.0737
  567 -20.4279 7.00885 -12.5802
  568 -20.3255 6.99685 12.5659
  569 3.95444 -36.8814 27.3654
  570 -22.2428 0.840622 30.5697
  571 -22.3099 0.836117 -30.6198
  572 659.935 63.2389 3.17558
  573 152.613 6.15557 -2.60813
  574 152.603 6.15447 2.61306
  575 984.503 84.5553 -88.5374
  576 -4.23161 -3.24722 35.3939
  577 -3.87910 -2.98103 -35.4169
  578 544.974 -46.3654 17.6112
  579 437.427 -0.0470588 -10.9307
  580 437.542 -0.100388 10.8792
  581 204.690 1.60751 -98.9172
  582 207.037 0.966710 100.375
  583 -10.9683 -10.4937 31.0699
  584 -10.9807 -10.5507 -31.1559
  585 108.454 11.1756 53.8562
  586 109.357 10.3964 -53.4514
  587 -85.1700 0.964243 -8.80799
  588 -85.0684 0.962636 8.79379
  589 642.054 58.7071 30.3687
  590 125.283 10.5907 1.61228
  591 125.310 10.5871 -1.60213
  592 147.524 18.4427 -37.2891
  593 147.310 18.6627 37.6532
  594 397.189 -1.49669 -21.6642
  595 397.407 -1.68432 21.6240
  596 -1.67027 -39.6748 -27.8867
  597 429.668 -0.816589 3.29522
  598 429.533 -0.814199 -3.29470
  599 -59.6807 1.01281 -1.00601
  600 -59.5643 1.01266 1.00488
  601 -107.676 -0.869147 -0.0111880
  602 -107.818 -0.869906 0.0110509
  603 9.67535 -57.7217 -8.10374
  604 -3.95896 -25.9029 24.0649
  605 -4.17574 -24.4865 -24.2250
  606 -48.1613 3.04883 21.8936
  607 -48.2428 3.05286 -21.9304
  608 303.392 6.53593 19.0877
  609 303.291 6.59655 -19.0755
  610 224.185 1.96516 1.36180
  611 224.157 1.96594 -1.36105
  612 51.9878 -10.4802 35.2042
  613 53.5771 -9.39161 -34.9054
  614 -1.53565 -19.8840 10.3889
  615 -1.58436 -19.8224 -10.4249
  616 514.609 44.6079 223.394
  617 -25.6201 -0.768243 9.60293
  618 -25.6237 -0.771998 -9.61159
  619 9.71771 -34.7436 -19.5392
  620 219.644 7.73019 -8.03068
  621 219.674 7.72022 8.04108
  622 109.251 22.7806 -13.6011
  623 109.031 22.9227 13.7360
  624 1.04462 -134.480 6.37033
  625 82.5260 21.8915 2.50013
  626 82.4209 21.9484 -2.47538
  627 -6.35309 8.85908 15.1540
  628 -6.45485 8.87648 -15.1717
  629 -0.613487 -67.6754 15.3828
  630 -108.146 0.0342736 -3.14405
  631 -108.007 0.0340769 3.14094
  632 145.747 2.97677 0.937448
  633 145.760 2.97754 -0.935945
  634 361.221 0.359629 6.24200
  635 361.123 0.365503 -6.24122
  636 320.934 -18.1740 170.832
  637 258.375 5.49974 -11.8276
  638 258.430 5.47818 11.8394
  639 4.91437 -4.47528 32.3372
  640 5.90237 -2.22428 -32.2286
  641 411.234 -37.7042 -138.780
  642 954.509 32.3781 -36.7784
  643 -100.318 0.0413871 -6.03526
  644 -100.197 0.0404054 6.02667
  645 27.3316 4.94870 -4.09271
  646 27.4068 4.94464 4.09062
  647 -1.84908 -42.2489 24.7115
  648 557.800 35.2101 -51.0741
  649 424.739 -1.01721 0.589556
  650 424.605 -1.01635 -0.589033
  651 -27.2229 -1.41500 -22.2009
  652 -27.1905 -1.40751 22.1705
  653 -0.0895243 -95.8929 -14.6427
  654 431.955 -0.996196 1.27145
  655 431.816 -0.995244 -1.27050
  656 42.4800 13.3778 9.92026
  657 42.3940 13.4001 -9.92283
  658 333.639 -27.6378 -91.6299
  659 339.464 -27.4992 92.5932
  660 482.359 -3.34968 7.67140
  661 482.388 -3.32083 -7.96187
  662 2.14370 -120.135 11.1142
  663 -23.3550 0.524514 -1.58718
  664 -23.2568 0.524695 1.58592
  665 160.002 26.2683 -163.417
  666 151.489 2.55261 1.31341
  667 151.499 2.55280 -1.31255
  668 76.2229 4.80051 0.283355
  669 76.1739 4.80220 -0.282479
  670 89.9847 8.94027 -0.426268
  671 90.0309 8.93476 0.431921
  672 285.015 7.26256 -29.5426
  673 285.176 7.14700 29.6203
  674 77.3767 22.2185 -1.22606
  675 77.1410 22.3730 1.25351
  676 -49.1827 3.66448 -12.0728
  677 -49.0728 3.65676 12.0573
  678 -57.8603 4.00613 -13.8918
  679 -57.7512 3.99849 13.8714
  680 496.592 -7.67908 -0.738058
  681 0.949438 -19.2338 -33.3763
  682 497.172 -8.05296 0.0941828
  683 635.370 49.1396 -2.80098
  684 -62.0583 0.301687 10.7914
  685 -62.1153 0.301362 -10.8084
  686 67.3448 19.7393 -6.07608
  687 66.8660 19.9697 6.11627
  688 -116.025 0.0182236 -1.05630
  689 -115.881 0.0183375 1.05514
  690 1.37556 -17.2126 33.3849
  691 -38.5404 0.607048 23.2228
  692 -38.5987 0.604558 -23.2593
  693 545.886 -43.2903 -19.6456
  694 89.1843 1.51974 -0.754817
  695 89.1428 1.51950 0.755304
  696 22.5500 7.60069 7.10166
  697 22.4683 7.60970 -7.10548
  698 291.407 -12.5599 -76.9309
  699 293.509 -13.0559 78.3579
  700 994.371 71.1222 80.2380
  701 20.1712 -84.7226 -35.9395
  702 -6.97719 -14.8511 33.1433
  703 -6.98533 -14.9147 -33.2242
  704 63.5656 13.0842 -4.85331
  705 63.6344 13.0681 4.85776
  706 444.052 -0.864406 -3.34402
  707 444.194 -0.867227 3.34295
  708 214.498 2.74299 2.54914
  709 214.475 2.74526 -2.54720
  710 19.3528 15.8926 23.0099
  711 19.2266 15.9398 -23.0543
  712 13.8953 3.56425 2.86607
  713 13.8150 3.56623 -2.86792
  714 -11.7356 3.36349 33.4521
  715 -11.8322 3.35899 -33.5263
  716 366.253 -0.893280 2.65531
  717 366.151 -0.891099 -2.65423
  718 318.059 1.98320 7.16276
  719 317.982 1.98965 -7.16078
  720 44.2141 -23.3667 41.8743
  721 45.4379 -25.3577 -40.5660
  722 -23.6480 5.50052 29.1590
  723 -23.7424 5.50586 -29.2154
  724 13.8777 -28.2280 14.8478
  725 2.27129 9.90525 30.3538
  726 2.11795 9.92881 -30.3998
  727 -68.2030 1.88313 -7.95327
  728 -68.0850 1.87984 7.94347
  729 57.9670 17.6251 8.84099
  730 57.8693 17.6624 -8.83615
  731 492.619 -14.6715 -24.8988
  732 466.341 -40.1023 -13.9594
  733 -7.41698 -15.2011 23.6916
  734 -7.40894 -15.2756 -23.6644
  735 183.708 2.34621 -116.647
  736 179.036 6.14703 117.650
  737 112.735 21.4679 -19.9459
  738 112.444 21.6765 20.1453
  739 10.2341 -16.3929 26.0344
  740 -0.651444 -50.2765 -13.4428
  741 232.599 12.0817 -28.0747
  742 232.699 12.0178 28.2083
  743 0.576798 -98.4798 12.3585
  744 139.890 18.4528 -8.65874
  745 139.851 18.4700 8.71499
  746 466.959 -0.721916 -8.26244
  747 467.036 -0.776489 8.16454
  748 9.53884 -128.575 4.62735
  749 214.274 15.1232 21.4349
  750 214.224 15.1578 -21.3513
  751 59.3300 20.8398 -3.88209
  752 59.6361 20.6359 3.84986
  753 -84.1668 0.552869 -7.47128
  754 -84.0790 0.552222 7.45860
  755 236.703 3.17280 -5.05920
  756 236.738 3.16860 5.06263
  757 147.744 20.5613 -14.7937
  758 147.686 20.5974 14.8979
  759 2.77020 12.7263 23.1811
  760 2.65262 12.7599 -23.2169
  761 467.726 -34.3665 8.21009
  762 -70.2136 1.42646 6.01607
  763 -70.3342 1.42809 -6.02176
  764 993.125 201.365 -143.041
  765 -24.7750 2.53071 6.14547
  766 -24.8750 2.53355 -6.15065
  767 396.905 0.505664 15.3420
  768 396.781 0.570392 -15.3757
  769 737.320 45.0750 -0.224062
  770 447.616 -1.53957 -6.26451
  771 447.747 -1.54972 6.25416
  772 288.738 3.33262 9.08359
  773 288.674 3.34354 -9.07990
  774 431.012 -45.7337 126.594
  775 189.370 12.9124 -8.62182
  776 189.385 12.9032 8.64659
  777 4.48006 -72.5053 14.1582
  778 493.829 -60.0818 43.7042
  779 300.316 -0.00637658 1.53562
  780 300.250 -0.00500275 -1.53495
  781 391.400 -0.340560 0.814356
  782 391.284 -0.339873 -0.813815
  783 -1.71230 -39.4607 -23.1559
  784 2.51464 -66.3146 21.8543
  785 179.949 19.5295 29.7701
  786 179.965 19.5109 -29.5543
  787 981.548 8.99413 8.87664
  788 306.732 2.06975 -36.6356
  789 306.939 1.93144 36.7331
  790 -62.0084 2.05386 16.2722
  791 -62.1070 2.05892 -16.2979
  792 13.5203 -51.7388 2.80284
  793 8.68247 -119.322 -10.6442
  794 694.595 90.7504 -15.7452
  795 -0.596131 -50.1549 12.1388
  796 15.4448 10.7207 26.8672
  797 15.3915 10.7132 -27.0093
  798 95.6845 17.9285 1.15300
  799 95.6191 17.9565 -1.13076
  800 463.601 -21.3837 -8.70023
  801 464.638 -21.0919 7.24729
  802 540.915 92.1606 -211.892
  803 -72.0885 0.639597 -2.59791
  804 -71.9663 0.639154 2.59520
  805 -35.1271 -0.128558 9.02542
  806 -35.1393 -0.130195 -9.03619
  807 35.0504 4.13005 6.40495
  808 34.3188 4.09578 -6.49108
  809 352.929 -2.50218 32.9061
  810 352.672 -2.22459 -32.8203
  811 181.448 3.89206 -1.65967
  812 181.454 3.89062 1.66176
  813 567.594 -5.63675 46.4819
  814 62.6510 9.05519 -4.37972
  815 62.7139 9.04673 4.38171
  816 57.5588 9.16822 -11.8575
  817 57.0463 9.42444 11.9778
  818 0.0122775 -38.4344 -30.7152
  819 794.082 132.258 120.362
  820 -114.030 0.0822501 -3.16364
  821 -113.890 0.0820842 3.15997
  822 -0.167120 -119.505 11.4889
  823 9.11902 -16.2320 -26.3909
  824 -17.5230 -1.05624 6.75136
  825 -17.5169 -1.05909 -6.75412
  826 639.566 41.3791 -29.3485
  827 169.477 15.8859 -10.8825
  828 169.473 15.8852 10.9345
  829 439.340 -6.88991 -16.6411
  830 439.762 -6.94814 16.4261
  831 -109.312 0.786737 4.27490
  832 -109.443 0.787811 -4.28067
  833 -0.803407 -0.830463 -0.691708
  834 -0.805038 -0.831942 0.694464
  835 0.336103 -122.165 -11.1694
  836 0.557104 -127.677 -9.81969
  837 -119.295 1.09375 0.592219
  838 -119.442 1.09405 -0.592691
  839 68.9765 -14.0305 -78.3460
  840 273.712 2.43341 -2.75981
  841 273.765 2.43168 2.76102
  842 -5.58256 1.79547 0.768626
  843 -5.67171 1.79569 -0.769115
  844 403.823 0.555370 -10.1308
  845 403.939 0.533808 10.1175
  846 -46.1193 0.312793 8.56558
  847 -46.1444 0.312796 -8.57696
  848 247.470 8.52025 -173.416
  849 424.070 -35.7700 36.6741
  850 331.867 0.738569 -3.29509
  851 331.951 0.736479 3.29625
  852 420.369 -38.8419 -40.7533
  853 133.682 13.9269 -4.00493
  854 133.654 13.9326 4.02989
  855 183.335 11.0215 -6.68775
  856 183.344 11.0155 6.70388
  857 492.308 -10.3934 19.0494
  858 32.0351 18.1040 18.4812
  859 31.8932 18.1705 -18.5381
  860 34.1777 1.61600 1.27498
  861 34.1083 1.61616 -1.27572
  862 233.528 2.06898 2.37832
  863 233.495 2.07063 -2.37695
  864 604.037 -50.5704 73.1034
  865 379.666 1.49610 -13.3640
  866 379.781 1.45601 13.3460
  867 8.44401 5.34449 5.58948
  868 8.35855 5.34977 -5.59328
  869 379.932 -0.968385 3.81581
  870 379.823 -0.965590 -3.81458
  871 -67.6313 0.204777 -1.81099
  872 -67.5107 0.205194 1.80994
  873 -0.320897 -38.4471 10.8471
  874 -0.425648 -39.0479 -10.9276
  875 460.829 -5.74940 46.4783
  876 -26.3436 7.09968 24.3864
  877 -26.4471 7.11566 -24.4291
  878 -0.148108 -63.1935 -11.9374
  879 183.222 5.82947 -3.51661
  880 183.229 5.82747 3.52087
  881 335.147 -16.6387 -58.8746
  882 337.657 -18.3910 59.4379
  883 -13.8576 -4.70482 -33.2454
  884 -13.7914 -4.70293 33.1702
  885 20.1120 15.8587 21.0410
  886 19.9891 15.9025 -21.0724
  887 1.57504 -142.663 7.68951
  888 6.10635 12.6399 27.5653
  889 5.97357 12.6718 -27.6121
  890 309.792 -5.62693 -52.4095
  891 309.098 -5.84564 52.8221
  892 534.766 31.4004 53.5052
  893 124.740 12.9073 2.28515
  894 124.771 12.9018 -2.26907
  895 389.147 1.76116 -9.96769
  896 389.258 1.74494 9.96116
  897 -15.0085 -6.44153 29.3401
  898 -15.0400 -6.46835 -29.3970
  899 1.39491 -146.045 -4.61120
  900 -23.1013 -1.41160 28.7027
  901 -23.1513 -1.41705 -28.7491
  902 17.0979 14.1189 -16.3531
  903 17.2036 14.0875 16.3349
  904 -1.19440 -9.72438 5.37002
  905 -1.20809 -9.71498 -5.37820
  906 35.5867 15.9216 -14.3210
  907 35.6958 15.8827 14.3097
  908 7.84940 -10.5636 29.6889
  909 6.88510 -9.81973 -31.3288
  910 379.703 -11.1913 33.6756
  911 378.820 -10.6966 -33.8301
  912 -121.938 0.282324 -0.870451
  913 -121.790 0.282345 0.869681
  914 -10.8015 -0.962217 5.09291
  915 -10.7923 -0.963987 -5.09176
  916 0.504560 -89.7243 -10.8442
  917 -11.4992 -4.90695 -14.4505
  918 -11.4939 -4.89417 14.4503
  919 -47.5448 4.11215 20.9096
  920 -47.6392 4.12029 -20.9452
  921 120.637 22.5032 -9.11121
  922 120.535 22.5746 9.19265
  923 509.923 39.4907 -7.42389
  924 -3.89786 11.2475 21.0537
  925 -4.00848 11.2739 -21.0841
  926 189.317 12.2978 -55.5275
  927 189.303 12.4699 56.1020
  928 -20.2657 7.74428 16.9243
  929 -20.3710 7.76157 -16.9480
  930 607.506 -25.8053 -5.27402
  931 377.516 15.0341 23.2793
  932 447.219 -5.05053 -42.0267
  933 332.268 3.63155 -22.2851
  934 332.405 3.53721 22.2919
  935 -32.6685 4.48003 -8.07522
  936 -32.5643 4.47366 8.06646
  937 -77.6237 1.36677 10.3224
  938 -77.7362 1.37013 -10.3382
  939 -4.72186 -15.3374 -16.7565
  940 -4.68734 -15.3484 16.7852
  941 119.949 6.88008 1.34924
  942 119.976 6.87863 -1.34493
  943 -36.1316 3.91763 26.0901
  944 -36.2134 3.91988 -26.1367
  945 395.997 -0.690910 4.96345
  946 395.880 -0.687600 -4.96240
  947 -2.92359 -33.5335 25.2044
  948 17.0313 12.8604 -13.9515
  949 17.1300 12.8359 13.9382
  950 22.9528 8.71809 8.92870
  951 22.8676 8.73070 -8.93436
  952 71.1531 5.78133 -1.77943
  953 71.2057 5.77833 1.78000
  954 742.701 100.304 -27.0452
  955 -2.99378 -0.812694 -2.03360
  956 -3.00019 -0.812579 2.03726
  957 26.8969 8.23868 -17.2221
  958 27.3454 8.03598 17.1320
  959 269.299 9.91599 -23.7635
  960 269.407 9.83947 23.8190
  961 36.7625 11.0618 -8.35950
  962 36.8447 11.0459 8.35640
  963 74.3135 -7.49773 102.921
  964 501.274 -3.75921 -4.46089
  965 500.651 -3.62107 4.01933
  966 91.1930 -3.42198 90.4956
  967 96.2594 3.37213 -0.573213
  968 96.2214 3.37270 0.573863
  969 246.143 -4.94157 -150.121
  970 185.833 2.30458 1.27388
  971 185.825 2.30501 -1.27310
  972 24.2379 -21.9004 3.01231
  973 26.7811 -18.0327 -0.996991
  974 443.132 -0.637886 1.70203
  975 442.987 -0.637038 -1.70091
  976 -36.3351 0.165455 21.1793
  977 -36.3787 0.162911 -21.2093
  978 795.869 100.411 48.7101
  979 -3.20644 -24.7795 -33.0061
  980 4.31286 -119.842 16.3838
  981 -0.449688 -39.5100 30.3692
  982 458.560 -0.594971 -6.39155
  983 458.681 -0.609842 6.37040
  984 -6.05260 -11.1026 14.4948
  985 -6.06997 -11.1045 -14.4817
  986 577.960 61.2906 -27.6247
  987 994.985 8.07420 -5.93016
  988 -1.50110 -2.29202 -2.21331
  989 -1.49940 -2.29687 2.21651
  990 268.935 2.22994 -5.21232
  991 268.987 2.22619 5.21479
  992 -3.27101 -23.7814 33.1540
  993 372.820 0.983117 19.7660
  994 372.683 1.07966 -19.7882
  995 490.149 -31.9625 -17.5185
  996 -17.0314 -3.51828 16.3094
  997 -17.0395 -3.53195 -16.3192
  998 8.51350 -30.4550 22.6771
  999 -0.727763 -59.9392 23.8482
  1000 -0.0734247 -62.7154 11.9264
  1001 508.211 32.4221 -3.05011
  1002 577.628 63.4861 14.5798
  1003 412.048 -46.0976 -70.7720
  1004 6.15307 -57.4213 18.1601
  1005 7.73604 -82.0936 2.79052
  1006 116.604 2.08471 0.227489
  1007 116.577 2.08460 -0.227485
  1008 -4.55445 -5.19549 -6.94995
  1009 -4.55020 -5.19614 6.95512
  1010 4.16722 -47.2002 -24.7977
  1011 331.324 -0.306635 -1.21058
  1012 331.407 -0.307886 1.21110
  1013 68.1588 2.01674 -35.1052
  1014 65.2543 2.16989 34.7716
  1015 -4.76361 10.4009 28.0009
  1016 -4.89020 10.4291 -28.0560
  1017 -37.3888 5.89480 -17.3365
  1018 -37.2827 5.88228 17.3110
  1019 255.192 4.07536 -53.8970
  1020 255.312 4.30909 54.4611
  1021 184.489 16.0632 -38.3123
  1022 184.452 16.0693 38.6478
  1023 199.636 13.5153 -13.2719
  1024 199.660 13.4967 13.3103
  1025 514.724 -12.8074 -53.4801
  1026 -12.5018 6.50811 31.0090
  1027 -12.6144 6.51667 -31.0815
  1028 363.980 -1.06453 27.1323
  1029 363.772 -0.856064 -27.1252
  1030 -2.04853 -18.3545 34.4603
  1031 -29.2392 -0.939661 15.6994
  1032 -29.2576 -0.944687 -15.7178
  1033 332.014 2.28817 -27.0353
  1034 332.186 2.15392 27.0560
  1035 416.337 10.5422 -38.5591
  1036 -0.401858 -59.5344 -25.0091
  1037 -4.74261 -23.4043 29.8438
  1038 -4.94597 -23.6970 -29.5992
  1039 235.360 12.8764 -19.8639
  1040 235.429 12.8293 19.9242
  1041 295.459 4.56113 11.2149
  1042 295.388 4.57830 -11.2108
  1043 489.145 -31.2244 15.0944
  1044 27.0152 1.91595 -0.341471
  1045 27.0879 1.91573 0.341230
  1046 416.483 -51.5325 75.4705
  1047 0.477148 1.24141 1.81847
  1048 0.390834 1.24161 -1.81976
  1049 91.9830 22.7405 -1.35813
  1050 91.8528 22.8193 1.40133
  1051 35.9698 17.9710 15.7510
  1052 35.8496 18.0184 -15.7688
  1053 4.72566 -71.6792 -14.7664
  1054 122.622 3.80105 0.687239
  1055 122.647 3.80119 -0.684962
  1056 369.090 11.8281 9.63256
  1057 334.680 1.75369 10.3453
  1058 334.592 1.77014 -10.3454
  1059 -1.69401 -19.1019 -34.5229
  1060 502.707 -6.50786 -9.45995
  1061 0.661496 -1.09371 33.9569
  1062 1.04602 -0.823040 -33.7855
  1063 455.661 -1.00156 -3.54068
  1064 455.805 -1.00504 3.53748
  1065 485.808 -1.88068 -6.23870
  1066 485.771 -1.94035 6.08786
  1067 -0.366458 -94.9441 8.94354
  1068 287.448 6.41127 -14.8053
  1069 287.521 6.38198 14.8136
  1070 348.569 2.41376 11.9926
  1071 348.473 2.43552 -11.9957
  1072 8.93367 8.71912 30.1973
  1073 8.88301 8.71975 -30.2388
  1074 755.369 49.1707 8.76139
  1075 -9.17120 -3.80106 35.2628
  1076 -9.32495 -3.71307 -35.3568
  1077 110.548 20.8207 -2.70845
  1078 110.482 20.8568 2.74812
  1079 -58.0091 0.898702 -2.90037
  1080 -57.8937 0.898358 2.89791
  1081 180.497 11.0421 -63.8246
  1082 180.233 11.5353 64.5452
  1083 53.1109 20.3059 11.6252
  1084 52.9804 20.3658 -11.6324
  1085 123.162 15.1253 -47.7887
  1086 122.531 15.7183 48.1633
  1087 -3.12941 -31.5067 -24.5715
  1088 431.693 6.45764 51.1829
  1089 300.174 6.05663 193.973
  1090 49.9551 21.0184 11.9740
  1091 49.8035 21.0967 -11.9945
  1092 182.661 8.76683 -5.16586
  1093 182.669 8.76150 5.17652
  1094 652.618 7.24395 10.0114
  1095 43.5288 11.6951 6.49278
  1096 42.9867 11.8232 -6.66414
  1097 -19.2839 -4.17100 21.6513
  1098 -19.3019 -4.19108 -21.6752
  1099 -0.631707 -14.5071 5.85392
  1100 -0.657094 -14.4987 -5.87768
  1101 429.514 -0.977058 15.8308
  1102 429.343 -0.824513 -15.9300
  1103 0.887496 -29.7019 32.2349
  1104 -28.8882 1.99621 -28.5811
  1105 -28.8204 2.00023 28.5337
  1106 0.140028 -114.393 -11.2414
  1107 -6.34225 -9.01329 35.2128
  1108 -6.32222 -8.81267 -35.2503
  1109 410.193 -0.0145671 -6.66599
  1110 410.315 -0.0219447 6.66372
  1111 424.095 -3.81951 19.1542
  1112 423.793 -3.57140 -19.2512
  1113 75.8784 17.4954 -17.4401
  1114 75.3052 17.8119 17.5714
  1115 -0.976433 -58.9384 -20.4483
  1116 557.181 -46.4960 -114.760
  1117 721.750 98.5033 11.4009
  1118 7.77034 -86.3178 0.123609
  1119 27.3742 15.3134 -21.3508
  1120 27.5346 15.2324 21.2278
  1121 71.2839 22.5668 4.18860
  1122 71.1109 22.6694 -4.17835
  1123 148.903 7.95070 2.44459
  1124 148.914 7.95188 -2.43701
  1125 -9.22402 -13.1389 27.9865
  1126 -9.21195 -13.2677 -28.0335
  1127 -25.3041 8.27708 22.3506
  1128 -25.4100 8.29545 -22.3861
  1129 -8.10739 10.6037 25.8577
  1130 -8.22453 10.6299 -25.9038
  1131 406.035 -20.8301 -33.2646
  1132 408.577 -20.9672 33.0312
  1133 0.443861 -67.2253 -23.6667
  1134 218.857 0.381642 -79.3853
  1135 219.161 1.05409 80.6401
  1136 71.2662 20.3471 -5.35027
  1137 71.3639 20.2997 5.36344
  1138 216.112 115.769 216.326
  1139 56.2726 16.1823 8.49714
  1140 56.1848 16.2110 -8.49405
  1141 551.734 -57.9477 -30.3440
  1142 210.656 4.92654 4.08326
  1143 210.634 4.93078 -4.07891
  1144 -9.34975 -8.31782 17.2045
  1145 -9.35718 -8.33854 -17.2004
  1146 -11.1242 -9.95228 22.2066
  1147 -11.1257 -9.99287 -22.2112
  1148 364.346 -35.4210 -110.437
  1149 371.401 -39.1128 111.229
  1150 67.6904 1.93042 1.04537
  1151 67.7428 1.93033 -1.04472
  1152 230.220 10.4345 -44.0919
  1153 230.208 10.3101 44.5088
  1154 496.370 -63.9697 85.3869
  1155 439.704 -1.17323 0.980468
  1156 439.561 -1.17233 -0.979673
  1157 -38.0936 6.17887 19.9936
  1158 -38.1983 6.19162 -20.0247
  1159 -66.0297 1.97779 -10.3479
  1160 -65.9140 1.97363 10.3355
  1161 115.517 7.70533 132.197
  1162 356.850 23.4005 -19.5972
  1163 210.588 14.2975 -22.2671
  1164 210.642 14.2643 22.3773
  1165 641.268 -12.1708 124.123
  1166 214.089 13.9061 -32.4861
  1167 214.152 13.8457 32.6770
  1168 55.4132 6.27689 -2.92891
  1169 55.4749 6.27278 2.92881
  1170 19.0487 -63.7889 14.6047
  1171 19.2433 -61.9259 -19.6895
  1172 289.278 -18.7575 -111.551
  1173 293.134 -17.4479 111.421
  1174 114.604 19.4104 -33.9936
  1175 114.121 19.7867 34.2983
  1176 505.950 -32.7961 -34.1022
  1177 -17.9226 -1.30457 32.2849
  1178 -17.9900 -1.30513 -32.3428
  1179 -0.0832725 -26.4790 -33.1359
  1180 131.142 6.07579 -84.0633
  1181 131.419 6.42711 85.4239
  1182 -0.322315 -25.6766 6.51342
  1183 -0.275696 -25.7397 -6.59472
  1184 -119.569 0.979597 -3.00048
  1185 -119.429 0.978889 2.99669
  1186 400.400 -0.664335 -1.90504
  1187 400.520 -0.665785 1.90596
  1188 249.841 8.31419 -12.9851
  1189 249.899 8.28716 13.0042
  1190 -8.43689 0.330581 35.1424
  1191 -8.46305 0.476598 -35.2117
  1192 0.00812376 -102.427 -9.92414
  1193 -101.972 0.224019 4.94576
  1194 -102.087 0.224616 -4.95376
  1195 81.6458 1.36827 -59.8207
  1196 81.0561 1.87428 61.6260
  1197 469.405 -28.6064 -3.27231
  1198 136.434 10.3641 -75.6472
  1199 136.515 10.6878 76.3302
  1200 -57.0487 0.314331 7.77024
  1201 -57.0874 0.313942 -7.78159
  1202 1.56657 -88.1534 -16.2341
  1203 -14.2483 3.23537 -3.68781
  1204 -14.1541 3.23326 3.68491
  1205 73.0979 16.9775 5.75908
  1206 73.0154 17.0080 -5.74765
  1207 265.081 0.600831 -1.66629
  1208 265.129 0.599578 1.66709
  1209 355.840 0.987293 7.86162
  1210 355.744 0.997432 -7.86198
  1211 20.4726 -1.30791 17.8739
  1212 20.1695 -1.65139 -18.2445
  1213 3.55944 -50.3053 24.8628
  1214 639.118 89.8886 17.6611
  1215 -19.6473 -1.51227 12.3761
  1216 -19.6514 -1.51895 -12.3839
  1217 2.83662 -47.1219 -26.1459
  1218 -1.84731 -29.7589 18.0791
  1219 -1.75860 -29.4685 -18.7274
  1220 504.605 -5.57129 8.36673
  1221 0.436248 -117.016 10.1267
  1222 4.02935 -34.3749 -29.1876
  1223 62.9713 1.37008 0.544490
  1224 62.9166 1.36992 -0.544768
  1225 -4.77659 -20.8647 32.7131
  1226 -53.4994 2.99948 -8.63873
  1227 -53.3868 2.99533 8.62940
  1228 1013.75 17.1434 29.3081
  1229 -28.4162 3.52279 28.7789
  1230 -28.4965 3.52177 -28.8309
  1231 245.652 9.42352 -39.8365
  1232 245.838 9.26288 40.0595
  1233 16.5441 -22.0642 -11.0004
  1234 233.527 11.1021 -16.4441
  1235 233.584 11.0656 16.4857
  1236 9.95435 -68.3086 -2.19475
  1237 -4.79650 -20.9167 -32.6722
  1238 -36.3415 1.30415 4.99404
  1239 -36.4466 1.30547 -4.99819
  1240 -17.0223 1.60461 -32.8995
  1241 -16.9399 1.61086 32.8444
  1242 500.157 40.5169 37.6209
  1243 283.510 2.78206 -41.9160
  1244 283.819 2.71607 42.0191
  1245 -124.616 0.248989 -1.03577
  1246 -124.467 0.248905 1.03457
  1247 255.111 5.30466 -8.76787
  1248 255.158 5.29507 8.77387
  1249 -127.410 -2.26604 -0.354497
  1250 -127.562 -2.26737 0.354621
  1251 379.886 -26.8444 -48.0435
  1252 -59.1085 1.03342 16.3044
  1253 -59.1822 1.03384 -16.3315
  1254 383.597 -28.3376 47.6121
  1255 259.734 8.61493 -17.6404
  1256 259.805 8.57188 17.6665
  1257 31.0226 -60.1732 -59.1971
  1258 0.571187 -81.3607 -20.2261
  1259 -1.57076 -34.1002 30.6442
  1260 803.170 145.276 -122.020
  1261 -0.176109 -76.5907 19.9050
  1262 839.393 79.4378 -54.2054
  1263 -0.505146 -142.090 -9.34394
  1264 43.4051 3.60311 -0.814162
  1265 43.4704 3.60154 0.813899
  1266 -0.348263 -32.9505 6.82297
  1267 -0.278670 -33.1282 -6.80646
  1268 146.291 2.86370 0.363616
  1269 146.304 2.86401 -0.362933
  1270 511.198 -37.6748 32.2437
  1271 12.9517 3.46930 -4.27071
  1272 13.0330 3.46676 4.26806
  1273 2.94686 -153.513 3.78259
  1274 1.87407 -163.767 -3.76796
  1275 470.090 -56.9804 -52.1882
  1276 -1.26202 -42.4749 19.9235
  1277 496.423 33.0007 -48.1855
  1278 -1.46263 -55.9658 19.5506
  1279 1.00411 -152.136 -6.91054
  1280 238.398 5.91312 -9.74110
  1281 238.440 5.89566 9.75309
  1282 -0.188774 -83.7176 8.83226
  1283 -0.198537 -69.1525 -19.8500
  1284 1095.58 198.429 170.000
  1285 441.660 0.0709677 0.739686
  1286 441.516 0.0710965 -0.739171
  1287 12.6954 1.81884 27.1735
  1288 12.3082 2.29623 -27.3102
  1289 -5.86753 6.80159 32.7113
  1290 -6.03974 6.80754 -32.7990
  1291 475.776 -8.54840 -29.8719
  1292 439.377 -18.6354 -19.4588
  1293 438.990 -21.1467 19.7118
  1294 68.2009 7.15227 2.84005
  1295 68.1438 7.15721 -2.83844
  1296 -70.8149 1.87819 -12.5413
  1297 -70.7083 1.87407 12.5211
  1298 489.727 -64.9523 -73.2432
  1299 -3.64186 -8.84939 9.05907
  1300 -3.65631 -8.84384 -9.05550
  1301 517.532 -20.8382 50.4993
  1302 -5.32612 -20.2260 24.2533
  1303 -5.26650 -20.3028 -24.1431
  1304 -43.4685 2.82988 6.00209
  1305 -43.5771 2.83298 -6.00797
  1306 80.0807 10.4817 -32.0051
  1307 79.2812 10.9255 31.9744
  1308 124.927 2.72844 0.153053
  1309 124.903 2.72822 -0.152548
  1310 -48.6385 4.95175 19.8611
  1311 -48.7386 4.96116 -19.8925
  1312 415.025 0.670738 1.14937
  1313 414.895 0.670652 -1.14864
  1314 232.119 1.03379 148.588
  1315 340.447 0.0593004 2.78827
  1316 340.359 0.0607736 -2.78704
  1317 228.999 4.97654 -60.7449
  1318 229.013 4.72147 61.2488
  1319 2.26270 -88.0520 -11.0526
  1320 89.9548 21.5863 -14.6290
  1321 89.5663 21.8369 14.7674
  1322 -0.883682 -0.778319 -1.14699
  1323 -0.888132 -0.778505 1.15032
  1324 293.033 8.04444 22.6154
  1325 292.921 8.12664 -22.5868
  1326 147.286 11.1268 4.21856
  1327 147.301 11.1269 -4.20313
  1328 215.502 11.1597 -11.4198
  1329 215.536 11.1400 11.4458
  1330 280.385 0.851136 -2.80905
  1331 280.442 0.849715 2.81036
  1332 -8.88747 -4.28298 -10.2203
  1333 -8.88499 -4.27733 10.2245
  1334 -82.5994 -0.0173058 3.55429
  1335 -82.7263 -0.0169956 -3.55795
  1336 -14.9959 -6.81323 -24.7782
  1337 -14.9813 -6.77755 24.7491
  1338 -45.5132 0.516752 1.46126
  1339 -45.6225 0.516491 -1.46233
  1340 -128.980 1.14799 0.586042
  1341 -129.133 1.14840 -0.586502
  1342 525.423 -62.7106 99.0428
  1343 388.958 -1.95533 -41.9625
</Section>

newXOutput 63

<Section columns = "stress_xx | stress_yy | stress_xy">
  1 461.493 -0.796718 0.486999
  2 461.647 -0.797310 -0.487243
  3 -141.694 0.642731 -1.94598
  4 0.225595 0.0532458 0.402613
  5 829.822 254.061 275.696
  6 938.466 286.146 -265.531
  7 0.224526 0.0522794 -0.401191
  8 -141.531 0.642597 1.94499
  9 460.141 -0.760874 -1.53203
  10 460.540 -1.50029 -2.46502
  11 464.861 -1.49951 -0.679286
  12 465.385 -1.46695 -2.92613
  13 466.659 -1.44951 -0.948797
  14 476.316 -1.35308 -1.29973
  15 479.751 -1.92065 -3.92911
  16 483.544 -0.975221 -2.71717
  17 486.051 -0.00771611 -5.23873
  18 505.578 -2.91833 -4.48286
  19 514.205 -2.31645 -5.73884
  20 523.860 -3.41516 -2.40406
  21 528.726 -4.45600 -1.58297
  22 525.929 -5.05848 6.29885
  23 509.373 -5.58043 13.5353
  24 470.264 -6.03879 29.3103
  25 406.082 3.72135 34.2334
  26 353.732 4.64183 31.6602
  27 280.314 8.94385 19.1661
  28 297.442 8.68972 1.94846
  29 252.009 25.6091 -12.0792
  30 337.083 11.9003 -34.8002
  31 383.248 3.10290 -28.3931
  32 461.476 -1.19591 -24.6092
  33 504.069 -6.76812 -16.2949
  34 525.293 -5.88614 -6.24851
  35 527.847 -4.32426 1.62273
  36 523.271 -3.37294 2.27349
  37 514.006 -2.32985 5.58311
  38 505.554 -2.95303 4.39544
  39 486.148 -0.0270957 5.19910
  40 483.680 -0.982523 2.70320
  41 479.907 -1.92548 3.92556
  42 476.477 -1.35567 1.29830
  43 466.817 -1.45131 0.948778
  44 465.543 -1.46850 2.92806
  45 465.019 -1.50071 0.679968
  46 460.695 -1.50134 2.46675
  47 460.295 -0.761457 1.53310
  48 435.772 0.902674 -0.586603
  49 404.123 0.0360546 -1.28433
  50 364.469 -1.81131 -1.26563
  51 323.249 0.515547 -1.05266
  52 287.028 0.148370 -0.832542
  53 248.176 1.38479 -0.980990
  54 209.733 3.40544 -0.572182
  55 169.727 2.98541 -1.22981
  56 136.480 1.93316 -1.73800
  57 92.7587 1.05058 -1.83151
  58 48.2720 2.03521 -1.40026
  59 11.0899 1.70358 -1.35436
  60 -35.3686 0.933141 -1.22873
  61 -69.9169 -0.594247 -3.07060
  62 -103.396 -2.36849 -1.39595
  63 -137.393 0.253696 0.966685
  64 -144.799 2.47672 -0.328665
  65 -145.378 1.07686 0.473714
  66 -140.571 0.519311 -0.122578
  67 -142.299 1.58439 -1.70834
  68 -140.137 1.93597 -0.0843128
  69 -132.634 0.575871 -2.64138
  70 -134.436 1.19734 -2.85308
  71 -131.179 1.13005 -1.56727
  72 -121.529 0.695616 -2.40125
  73 -117.243 1.28493 -4.02140
  74 -110.208 1.44790 -3.27667
  75 -97.6439 0.734672 -5.76231
  76 -90.6173 0.228452 -4.81176
  77 -77.8385 0.327489 -5.57914
  78 -66.8662 0.264276 -6.20450
  79 -57.2542 0.0943382 -4.89816
  80 -43.8567 0.292773 -4.94271
  81 -32.2855 -0.114002 -5.29917
  82 -21.0844 -0.570398 -4.66909
  83 -12.1928 -0.501279 -3.58705
  84 -6.01014 -0.885888 -3.00458
  85 -1.03140 -0.512793 -1.08158
  86 0.0484414 -0.575133 -0.391977
  87 -0.309476 -0.319001 -0.0844497
  88 -0.803545 -0.839993 -0.948775
  89 -0.781007 -5.08916 -2.61179
  90 -0.661365 -11.3712 -3.70894
  91 -0.338275 -19.3484 -5.40027
  92 -0.170867 -29.6912 -4.65382
  93 -0.132344 -39.1705 -5.85369
  94 -0.710839 -50.6977 -6.59237
  95 -0.291586 -64.9596 -6.64014
  96 0.134177 -79.3202 -6.34998
  97 0.309262 -94.6880 -6.25655
  98 0.481355 -110.452 -6.13780
  99 0.0112765 -121.918 -8.29517
  100 0.800876 -138.347 -7.41270
  101 0.996762 -157.548 -5.85442
  102 -0.109908 -165.703 -7.76348
  103 1.41095 -179.363 -7.14809
  104 3.53182 -197.474 -3.09272
  105 6.92601 -201.541 -4.92138
  106 5.04139 -181.580 6.22035
  107 7.62063 -132.142 22.9872
  108 36.4350 -65.4159 63.5583
  109 112.040 185.478 205.012
  110 1272.77 70.2100 127.723
  111 1095.03 20.2810 46.1086
  112 1059.76 7.07244 10.6687
  113 1052.05 2.00737 -1.68854
  114 1059.39 11.1204 -24.2978
  115 1093.76 37.0159 -54.9496
  116 1239.99 137.417 -162.433
  117 270.501 145.374 -249.651
  118 61.8104 -65.0060 -76.3840
  119 18.3077 -144.827 -29.1915
  120 5.13335 -171.703 -6.58949
  121 5.61104 -193.745 2.29610
  122 1.57286 -189.587 2.20877
  123 0.531167 -174.842 5.98345
  124 0.597114 -164.890 4.71780
  125 0.866451 -148.804 8.33838
  126 -0.0423598 -139.646 8.17511
  127 0.342488 -126.245 5.87209
  128 0.681377 -109.147 7.52113
  129 0.140642 -96.9161 5.95711
  130 0.196503 -79.3921 7.53043
  131 -0.793357 -65.7496 6.47959
  132 -0.546235 -50.7377 6.38393
  133 -0.0904610 -38.9499 5.86747
  134 -0.223596 -29.5185 4.66104
  135 -0.329625 -19.2915 5.34711
  136 -0.651587 -11.3637 3.69038
  137 -0.776823 -5.09695 2.60995
  138 -0.802450 -0.848439 0.950686
  139 -0.309421 -0.322620 0.0868836
  140 0.0440310 -0.575660 0.394166
  141 -1.03964 -0.512469 1.08433
  142 -6.02231 -0.884970 3.00720
  143 -12.2088 -0.499659 3.58775
  144 -21.0965 -0.568402 4.66693
  145 -32.2873 -0.112349 5.29344
  146 -43.8463 0.293100 4.93602
  147 -57.2269 0.0951676 4.89109
  148 -66.8233 0.265278 6.19623
  149 -77.7746 0.327458 5.57032
  150 -90.5338 0.228385 4.80334
  151 -97.5470 0.734165 5.75387
  152 -110.092 1.44696 3.26995
  153 -117.117 1.28388 4.01574
  154 -121.392 0.694921 2.39750
  155 -131.033 1.12928 1.56473
  156 -134.285 1.19671 2.85033
  157 -132.480 0.575651 2.63909
  158 -139.978 1.93503 0.0835815
  159 -142.138 1.58366 1.70705
  160 -140.410 0.519194 0.122273
  161 -145.214 1.07644 -0.473595
  162 -144.635 2.47561 0.328410
  163 -137.232 0.253755 -0.966293
  164 -103.253 -2.36693 1.39519
  165 -69.7924 -0.593418 3.06905
  166 -35.2618 0.933289 1.22803
  167 11.1729 1.70340 1.35364
  168 48.3361 2.03494 1.39955
  169 92.8001 1.05097 1.83060
  170 136.499 1.93329 1.73718
  171 169.729 2.98524 1.22926
  172 209.714 3.40514 0.571905
  173 248.137 1.38548 0.980463
  174 286.969 0.149548 0.832042
  175 323.171 0.516239 1.05200
  176 364.368 -1.80961 1.26490
  177 404.001 0.0364107 1.28362
  178 435.632 0.902378 0.586282
  179 124.949 21.1574 -6.74151
  180 124.872 21.2011 6.80539
  181 -1.40149 4.08699 33.7998
  182 -1.53882 4.05409 -33.8234
  183 281.385 -3.69147 -64.7107
  184 281.160 -4.21772 65.3668
  185 57.3536 14.1881 -5.02771
  186 56.6760 14.4175 5.03773
  187 43.1738 6.66402 -4.58677
  188 43.2453 6.65773 4.58530
  189 265.439 4.29056 -9.84488
  190 265.493 4.27602 9.85299
  191 -2.74415 10.5184 17.9045
  192 -2.85215 10.5419 -17.9283
  193 308.228 7.14043 -24.6583
  194 308.371 7.04060 24.6952
  195 -11.7539 -10.1761 27.4340
  196 -11.7527 -10.2380 -27.4722
  197 3.14059 -23.7486 -32.0064
  198 97.7372 7.83459 -60.7210
  199 3.77064 -25.4430 31.2002
  200 96.1985 8.58348 61.6167
  201 435.753 -56.6604 -93.4002
  202 450.546 -58.8812 89.7771
  203 158.633 4.52136 -1.98926
  204 158.625 4.52039 1.99236
  205 -22.1909 1.47363 -3.36156
  206 -22.0906 1.47297 3.35904
  207 -33.5941 5.36168 26.0377
  208 -33.6899 5.37118 -26.0856
  209 159.535 13.8000 -5.64384
  210 159.525 13.8009 5.66584
  211 49.8107 20.4968 11.0749
  212 49.6138 20.6173 -11.1267
  213 -42.3342 4.58984 -10.4016
  214 -42.2233 4.58276 10.3894
  215 350.615 -0.0859666 4.59110
  216 350.522 -0.0822121 -4.58972
  217 11.7917 -44.4246 12.3034
  218 12.8105 -40.0179 -10.6339
  219 -3.14015 -28.8839 30.8092
  220 -3.22570 -30.0486 -29.8560
  221 147.872 21.0922 -27.2964
  222 147.725 21.1984 27.5433
  223 -30.8594 0.00553860 26.5827
  224 -30.9138 0.000543134 -26.6240
  225 375.041 1.55068 -13.2902
  226 375.150 1.52204 13.2816
  227 404.416 -6.39812 -26.4354
  228 404.741 -6.78969 26.3521
  229 648.101 48.4331 0.516628
  230 594.707 67.3281 30.0913
  231 583.772 -2.14248 -47.2987
  232 73.9766 15.6001 5.45597
  233 73.9019 15.6243 -5.44764
  234 6.52265 13.2796 25.4794
  235 6.39279 13.3183 -25.5227
  236 451.858 -27.2672 -18.8546
  237 449.275 -27.5876 20.3367
  238 251.079 1.42518 -3.67270
  239 251.120 1.42212 3.67488
  240 -54.1176 3.87042 17.2147
  241 -54.2242 3.87892 -17.2417
  242 -7.60378 -7.47496 -12.4405
  243 -7.59602 -7.46919 12.4471
  244 -59.0371 1.28517 5.14789
  245 -59.1555 1.28677 -5.15293
  246 207.730 14.6869 -17.1301
  247 207.763 14.6615 17.1905
  248 263.539 7.39679 -37.2460
  249 263.730 7.27497 37.4026
  250 65.8757 3.52245 0.00229279
  251 65.9314 3.52136 -0.00205777
  252 153.438 6.15436 -128.476
  253 181.085 10.1363 139.500
  254 21.6056 10.1238 23.8285
  255 21.5118 10.3297 -23.9420
  256 611.702 -43.0050 -16.8223
  257 55.6493 20.0818 9.64457
  258 55.5354 20.1325 -9.64440
  259 150.735 16.6770 -49.4871
  260 150.436 17.0684 49.9791
  261 685.603 98.8762 -0.397822
  262 406.702 -0.335251 17.9787
  263 406.547 -0.220103 -18.0262
  264 -3.63227 -22.6056 -19.4180
  265 -3.52150 -22.6935 19.4928
  266 -0.725838 -53.3638 -26.4513
  267 1.96440 -61.7006 -23.9119
  268 1.07505 -62.0013 25.2424
  269 -9.76915 -8.41789 34.9938
  270 -9.81439 -8.40798 -35.1408
  271 22.5767 -46.4809 -11.5174
  272 24.3197 -42.4959 15.3460
  273 -23.3577 -1.92594 17.0365
  274 -23.3731 -1.93511 -17.0539
  275 290.959 7.25913 -15.4979
  276 291.042 7.22036 15.5104
  277 507.233 -51.0882 -6.95135
  278 114.750 8.94729 0.578612
  279 114.784 8.94375 -0.572795
  280 -1.26241 -50.1186 25.3140
  281 13.1287 10.1330 11.1666
  282 13.0339 10.1502 -11.1766
  283 802.503 55.2647 -23.5646
  284 393.788 -0.241061 5.58191
  285 393.673 -0.234843 -5.58255
  286 267.672 -11.5816 -96.7560
  287 269.919 -11.3764 98.1579
  288 506.610 -48.4896 -1.27367
  289 -47.3823 1.52442 20.9322
  290 -47.4503 1.52430 -20.9666
  291 494.764 -35.3857 156.825
  292 -20.5182 3.79644 31.5563
  293 -20.6043 3.79012 -31.6161
  294 86.1985 23.5914 -8.67221
  295 85.8611 23.8105 8.75903
  296 -84.9152 0.553376 0.880457
  297 -85.0476 0.553225 -0.881263
  298 417.593 14.5594 -212.456
  299 -80.6386 1.58424 -9.18744
  300 -80.5174 1.58087 9.17437
  301 -1.84632 -9.67382 35.3746
  302 -0.569824 -9.37937 -34.9594
  303 186.571 18.3674 -24.6383
  304 186.572 18.3677 24.7831
  305 42.9200 4.28569 3.45601
  306 42.8513 4.28833 -3.45756
  307 193.656 6.59285 -5.39403
  308 193.668 6.58844 5.40127
  309 18.9090 -11.9876 17.0699
  310 17.2431 -14.6683 -17.3400
  311 187.995 2.51748 -1.41112
  312 188.003 2.51665 1.41230
  313 -66.7422 1.74895 15.2582
  314 -66.8318 1.75151 -15.2840
  315 47.9998 -2.21118 -14.0815
  316 46.6058 -2.28307 12.8222
  317 410.024 -0.766302 1.56389
  318 409.898 -0.765207 -1.56284
  319 890.906 50.2376 36.7649
  320 95.8264 11.8995 1.47871
  321 95.7771 11.9093 -1.46988
  322 -17.1230 4.23059 6.99401
  323 -17.2230 4.23618 -7.00079
  324 130.846 16.8483 -4.63532
  325 130.806 16.8622 4.67120
  326 16.4582 13.8003 26.2933
  327 16.3507 13.8290 -26.3674
  328 2.00521 -89.4836 17.4053
  329 -88.2307 0.0431258 -2.07005
  330 -88.0972 0.0433533 2.06818
  331 314.795 0.120249 -3.00817
  332 314.868 0.118312 3.00947
  333 331.410 1.49970 -7.97436
  334 331.494 1.48881 7.97552
  335 -82.6065 1.32074 -6.57615
  336 -82.4786 1.31875 6.56884
  337 1.45050 1.22103 0.676316
  338 1.36244 1.22107 -0.676937
  339 -1.86118 -37.3036 19.3395
  340 -1.47521 -38.8030 -19.3124
  341 374.629 -30.4263 -65.7073
  342 388.815 -36.4139 64.5540
  343 223.520 9.96266 -10.6866
  344 223.554 9.94674 10.7046
  345 100.032 22.9438 -5.40936
  346 99.8582 23.0492 5.47804
  347 -32.2448 6.44906 14.9285
  348 -32.3529 6.46202 -14.9491
  349 689.854 19.3780 24.1608
  350 37.9065 -47.9242 -44.5899
  351 40.5340 -44.0339 46.5141
  352 -13.0656 10.6595 24.1914
  353 -13.1790 10.6836 -24.2320
  354 -18.7677 -3.63100 31.0880
  355 -18.8192 -3.64134 -31.1465
  356 782.733 134.439 -42.9373
  357 507.919 -5.66989 60.2815
  358 470.716 -11.4230 -12.3858
  359 470.372 -11.1560 11.6763
  360 332.302 -4.30192 -41.9725
  361 331.908 -4.61091 42.0002
  362 0.638560 -107.815 -13.9330
  363 430.014 0.552573 -10.0271
  364 430.134 0.520713 10.0011
  365 5.75572 -100.684 10.3111
  366 505.869 39.8252 -31.1697
  367 124.872 3.44711 1.22723
  368 124.847 3.44761 -1.22757
  369 333.828 1.74311 -31.1465
  370 334.042 1.58894 31.1943
  371 358.432 2.15851 -18.7520
  372 358.554 2.09005 18.7411
  373 -3.84935 3.61238 4.57257
  374 -3.94175 3.61553 -4.57620
  375 208.415 11.5327 -50.3468
  376 208.451 11.6670 50.7737
  377 422.408 -0.611283 2.55381
  378 422.276 -0.609534 -2.55276
  379 242.908 12.4815 -25.6523
  380 242.995 12.4145 25.7445
  381 279.033 3.45401 6.62319
  382 278.976 3.46010 -6.61989
  383 -13.2722 -2.36810 10.5614
  384 -13.2724 -2.37455 -10.5624
  385 -3.17217 -2.24973 -3.10664
  386 -3.17354 -2.25072 3.11135
  387 564.613 -67.3276 44.3705
  388 -7.22678 -17.5106 28.5509
  389 -7.17647 -17.6654 -28.5571
  390 94.9992 5.33187 -1.10367
  391 95.0412 5.33003 1.10519
  392 -2.79353 -14.0924 10.6131
  393 -2.82585 -14.0710 -10.6152
  394 37.8415 15.8011 11.9716
  395 37.7417 15.8334 -11.9787
  396 461.391 -2.42760 13.3223
  397 461.222 -2.26705 -13.5272
  398 -0.864123 -26.6926 33.9340
  399 -37.8211 -0.650367 16.0671
  400 -37.8520 -0.653990 -16.0892
  401 -1.01071 -28.2378 -33.5563
  402 432.425 -0.282660 6.39450
  403 432.294 -0.273279 -6.40078
  404 -2.82380 9.94127 30.6046
  405 -2.97342 9.96992 -30.6703
  406 321.794 3.92099 -12.6222
  407 321.879 3.89723 12.6236
  408 493.637 -21.0521 -9.03078
  409 494.932 -17.0916 6.63301
  410 -0.963142 -50.7446 -21.1423
  411 46.0598 17.3813 -7.18156
  412 46.4365 17.2024 7.12256
  413 498.297 32.2925 19.2849
  414 282.001 -12.5039 -133.158
  415 289.272 -17.6521 139.167
  416 18.6499 15.2253 19.1407
  417 18.5327 15.2633 -19.1658
  418 207.956 4.74614 -3.69274
  419 207.975 4.74375 3.69607
  420 202.149 41.7615 210.966
  421 85.4115 19.0993 -3.29493
  422 85.4994 19.0600 3.31527
  423 5.45948 -46.7496 22.0580
  424 -0.609400 -82.2960 -18.2077
  425 34.8005 18.8744 17.4151
  426 34.6653 18.9305 -17.4463
  427 43.2102 10.4056 -7.01646
  428 43.2881 10.3924 7.01464
  429 -13.3089 -0.339771 -34.7719
  430 -13.2240 -0.359273 34.7083
  431 101.588 20.3451 -21.7438
  432 101.151 20.6399 21.9413
  433 497.771 -15.3378 -45.8018
  434 14.8966 -3.72457 25.7477
  435 14.4247 -3.61387 -25.9259
  436 362.697 -15.6871 -46.3572
  437 364.153 -16.7543 46.3082
  438 -88.8464 0.673840 -9.09240
  439 -88.7325 0.671609 9.07785
  440 -0.00184899 -81.0129 16.4364
  441 -0.565182 -51.5442 18.8407
  442 -35.9597 2.46029 26.7545
  443 -36.0311 2.45855 -26.7997
  444 260.016 1.29036 -1.37240
  445 260.061 1.28900 1.37307
  446 -7.68491 -12.1462 19.5167
  447 -7.69920 -12.1756 -19.4983
  448 164.200 9.92556 -72.8918
  449 163.856 10.6386 73.6618
  450 1.36659 -97.2693 -17.7178
  451 889.115 30.3448 0.443500
  452 2.57635 -113.582 -9.37729
  453 -103.919 -0.140914 -3.16306
  454 -103.779 -0.140907 3.16013
  455 -39.4501 5.76555 21.4818
  456 -39.5545 5.77780 -21.5184
  457 -47.4552 0.695750 16.0882
  458 -47.5013 0.695354 -16.1118
  459 179.075 17.5880 -17.1190
  460 179.073 17.5932 17.2069
  461 268.710 9.69801 -19.8267
  462 268.799 9.64071 19.8654
  463 -4.18909 -16.0585 35.1501
  464 -4.19563 -15.9528 -35.3001
  465 468.621 9.27106 -57.6965
  466 32.9275 -5.96529 -2.82815
  467 31.7775 -6.24549 3.42095
  468 7.66073 -100.524 -3.19697
  469 4.97975 -117.466 -0.384549
  470 -14.0100 -6.21877 20.0734
  471 -14.0181 -6.24220 -20.0840
  472 100.619 -0.00798037 -111.892
  473 704.353 8.87300 -76.5548
  474 163.182 9.52605 5.35518
  475 163.188 9.52799 -5.34235
  476 236.406 2.99649 -69.7132
  477 236.892 2.92921 70.7054
  478 70.9212 23.9052 5.35674
  479 70.7802 23.9864 -5.34676
  480 213.640 15.4406 -37.3361
  481 213.711 15.3740 37.5911
  482 8.72288 4.94970 30.9799
  483 9.19448 5.18704 -30.9433
  484 -92.4563 1.29089 -6.56467
  485 -92.3266 1.28918 6.55633
  486 464.921 -53.1895 -38.6659
  487 367.987 -0.490434 -2.12696
  488 368.089 -0.491617 2.12812
  489 22.8118 2.08121 -1.77773
  490 22.8894 2.08043 1.77652
  491 -21.8841 8.48648 19.7640
  492 -21.9935 8.50535 -19.7939
  493 -51.0243 3.04139 -6.93780
  494 -50.9098 3.03749 6.93027
  495 163.278 14.8981 -8.18959
  496 163.269 14.8977 8.22340
  497 -17.9790 7.52140 28.2743
  498 -18.0888 7.53838 -28.3301
  499 425.425 -12.4331 -24.9542
  500 426.153 -13.0126 24.6618
  501 281.226 2.66212 -46.5570
  502 280.788 2.48584 46.9418
  503 106.581 4.06306 -0.552880
  504 106.616 4.06233 0.553392
  505 1.29038 -49.4166 -28.5645
  506 499.712 -17.4418 37.4609
  507 7.29156 -31.6324 -25.1781
  508 144.379 22.4895 17.8540
  509 144.479 22.4192 -17.7113
  510 459.874 -49.7615 38.2612
  511 36.3673 -38.3921 60.2432
  512 545.800 -66.2809 -74.8554
  513 372.982 0.730846 22.6173
  514 372.809 0.866245 -22.6299
  515 1.26021 -42.1495 29.7290
  516 -7.31907 -2.16925 -5.67479
  517 -7.32199 -2.16798 5.67863
  518 48.7108 1.80708 -0.453351
  519 48.7748 1.80691 0.453053
  520 -1.24459 -28.9292 12.4680
  521 -1.12917 -28.7965 -12.5341
  522 307.497 2.21253 5.15721
  523 307.426 2.21570 -5.15520
  524 857.465 155.982 70.5745
  525 37.1282 -18.8719 -14.0330
  526 28.9795 -26.5534 7.97350
  527 -6.05648 6.26117 -9.39811
  528 -5.95866 6.25118 9.38872
  529 -74.1920 1.16601 9.59698
  530 -74.2672 1.16731 -9.61237
  531 0.765203 -91.4260 17.7897
  532 -101.681 0.783425 0.797260
  533 -101.822 0.783487 -0.798119
  534 97.2871 -1.67490 -82.9735
  535 95.1989 -0.175870 86.0350
  536 89.2957 16.8448 -30.1256
  537 88.6281 17.2267 30.2953
  538 -19.7899 -4.03856 27.2955
  539 -19.8236 -4.05706 -27.3386
  540 88.4288 7.02047 1.04625
  541 88.3819 7.02411 -1.04369
  542 -40.9641 1.75869 2.78762
  543 -41.0739 1.75977 -2.79044
  544 103.647 14.1555 0.566590
  545 103.596 14.1706 -0.550187
  546 -2.01482 -6.61031 4.85859
  547 -2.02191 -6.60479 -4.85777
  548 38.3581 16.5953 15.1014
  549 38.1046 16.8172 -15.1959
  550 30.9795 6.15047 12.9395
  551 30.5494 6.11280 -13.2028
  552 376.433 1.89384 9.49744
  553 376.327 1.90598 -9.49939
  554 334.228 3.54311 15.3158
  555 334.130 3.58264 -15.3169
  556 -0.340726 -78.1190 -11.4449
  557 235.843 10.8231 -15.4446
  558 235.893 10.7949 15.4761
  559 236.127 4.46658 -5.99526
  560 236.162 4.45988 6.00078
  561 -28.4325 0.789799 0.108391
  562 -28.3293 0.789995 -0.108553
  563 411.365 21.5677 -11.1073
  564 523.886 -64.1369 -29.4715
  565 438.491 20.7612 43.3240
  566 3.75209 -64.9440 -20.3190
  567 -20.6043 7.10355 -12.7177
  568 -20.4994 7.09127 12.7028
  569 4.03769 -37.3728 27.7266
  570 -22.5540 0.866232 31.0154
  571 -22.6224 0.861555 -31.0666
  572 670.387 64.2338 3.44675
  573 155.171 6.19652 -2.69660
  574 155.162 6.19562 2.70159
  575 999.113 85.8763 -90.0135
  576 -4.25555 -3.26177 35.8915
  577 -3.89637 -2.99114 -35.9143
  578 553.505 -46.9396 17.6192
  579 444.188 -0.0755483 -11.1158
  580 444.307 -0.129444 11.0643
  581 208.091 1.75567 -100.693
  582 210.472 1.10272 102.171
  583 -11.1221 -10.6382 31.5349
  584 -11.1348 -10.6962 -31.6225
  585 110.321 11.4780 54.9174
  586 111.239 10.6878 -54.5078
  587 -86.4415 0.977544 -8.93019
  588 -86.3375 0.975915 8.91562
  589 652.083 59.9033 30.4025
  590 127.423 10.7086 1.70750
  591 127.451 10.7046 -1.69732
  592 150.021 18.7623 -38.0479
  593 149.803 18.9858 38.4165
  594 403.427 -1.56272 -22.0471
  595 403.649 -1.75242 22.0076
  596 -1.68950 -40.2588 -28.2988
  597 436.261 -0.848058 3.35245
  598 436.121 -0.845636 -3.35181
  599 -60.4215 1.01316 -1.00500
  600 -60.3019 1.01300 1.00380
  601 -109.163 -0.889034 -0.0143104
  602 -109.308 -0.889819 0.0141606
  603 9.85552 -58.4481 -8.11569
  604 -4.01530 -26.2939 24.4321
  605 -4.23516 -24.8548 -24.5946
  606 -48.8601 3.09795 22.2049
  607 -48.9434 3.10201 -22.2427
  608 308.234 6.58149 19.4448
  609 308.131 6.64237 -19.4318
  610 227.816 1.93601 1.39139
  611 227.788 1.93673 -1.39061
  612 52.9133 -10.4285 35.9676
  613 54.5258 -9.32203 -35.6640
  614 -1.55866 -20.1969 10.5515
  615 -1.60821 -20.1344 -10.5882
  616 522.476 45.9317 227.175
  617 -26.0225 -0.778884 9.75157
  618 -26.0263 -0.782704 -9.76043
  619 9.90367 -35.1650 -19.7467
  620 223.221 7.79101 -8.21017
  621 223.251 7.78124 8.22086
  622 111.133 23.1507 -13.9666
  623 110.909 23.2952 14.1027
  624 1.06125 -136.389 6.41413
  625 83.9836 22.2229 2.42009
  626 83.8761 22.2809 -2.39555
  627 -6.31227 8.98406 15.3221
  628 -6.41647 9.00184 -15.3406
  629 -0.622800 -68.7134 15.6134
  630 -109.688 0.0296263 -3.17836
  631 -109.546 0.0294278 3.17512
  632 148.199 2.96851 0.981645
  633 148.212 2.96917 -0.980127
  634 366.854 0.320553 6.35653
  635 366.753 0.326443 -6.35554
  636 326.071 -18.2115 173.740
  637 262.535 5.52592 -12.0669
  638 262.591 5.50444 12.0792
  639 5.03983 -4.48853 32.7659
  640 6.04653 -2.20419 -32.6523
  641 417.737 -38.0673 -141.173
  642 968.640 32.8284 -37.3889
  643 -101.802 0.0393985 -6.11508
  644 -101.678 0.0384041 6.10623
  645 27.9458 4.99529 -4.10795
  646 28.0230 4.99105 4.10566
  647 -1.87386 -42.8834 25.0823
  648 566.699 35.9175 -51.5238
  649 431.246 -1.05106 0.601122
  650 431.109 -1.05017 -0.600574
  651 -27.6335 -1.43170 -22.5366
  652 -27.6004 -1.42407 22.5056
  653 -0.0913959 -97.3442 -14.8532
  654 438.566 -1.02644 1.29386
  655 438.424 -1.02546 -1.29286
  656 43.3088 13.5644 9.98881
  657 43.2207 13.5872 -9.99185
  658 339.018 -28.0011 -93.2473
  659 344.924 -27.8587 94.2237
  660 489.810 -3.41984 7.81274
  661 489.834 -3.39081 -8.10613
  662 2.17900 -121.903 11.2509
  663 -23.5227 0.510242 -1.59326
  664 -23.4219 0.510410 1.59192
  665 162.585 27.4234 -166.268
  666 154.028 2.53701 1.34426
  667 154.038 2.53712 -1.34339
  668 77.6059 4.83185 0.248263
  669 77.5555 4.83370 -0.247453
  670 91.5763 9.03732 -0.365787
  671 91.6238 9.03147 0.371361
  672 289.615 7.32939 -30.0966
  673 289.778 7.21313 30.1759
  674 78.7409 22.5886 -1.38915
  675 78.5007 22.7456 1.41614
  676 -49.8240 3.71195 -12.2165
  677 -49.7114 3.70407 12.2005
  678 -58.6583 4.06301 -14.0680
  679 -58.5466 4.05522 14.0471
  680 504.319 -7.80844 -0.699703
  681 0.991044 -19.4759 -33.8409
  682 504.896 -8.18851 0.0496301
  683 645.520 49.8807 -2.97518
  684 -63.0070 0.307026 10.9504
  685 -63.0652 0.306681 -10.9678
  686 68.5362 20.1096 -6.33211
  687 68.0491 20.3433 6.37198
  688 -117.670 0.0133787 -1.06232
  689 -117.521 0.0134975 1.06109
  690 1.42655 -17.4226 33.8462
  691 -39.1103 0.621052 23.5643
  692 -39.1699 0.618469 -23.6015
  693 554.435 -43.8146 -19.6811
  694 90.7712 1.49786 -0.778715
  695 90.7287 1.49769 0.779197
  696 23.0781 7.69189 7.14951
  697 22.9943 7.70120 -7.15366
  698 296.147 -12.7172 -78.3092
  699 298.277 -13.2197 79.7569
  700 1009.09 72.2212 81.5511
  701 20.5351 -85.5472 -36.6883
  702 -7.06829 -15.0557 33.6334
  703 -7.07623 -15.1204 -33.7159
  704 64.7354 13.2571 -4.84692
  705 64.8058 13.2405 4.85112
  706 450.852 -0.892141 -3.40115
  707 450.997 -0.895004 3.40020
  708 217.988 2.72605 2.61536
  709 217.964 2.72822 -2.61334
  710 19.7650 16.1582 23.2709
  711 19.6362 16.2061 -23.3167
  712 14.3062 3.58981 2.87548
  713 14.2239 3.59190 -2.87748
  714 -11.8661 3.43902 33.9204
  715 -11.9645 3.43416 -33.9962
  716 371.947 -0.948259 2.70588
  717 371.843 -0.946054 -2.70470
  718 323.074 1.96060 7.29719
  719 322.995 1.96703 -7.29498
  720 45.0062 -23.4543 42.7538
  721 46.2473 -25.4774 -41.4238
  722 -23.9541 5.59558 29.5664
  723 -24.0505 5.60088 -29.6241
  724 14.1394 -28.5398 14.9675
  725 2.38209 10.0889 30.7474
  726 2.22573 10.1126 -30.7947
  727 -69.1309 1.90339 -8.04254
  728 -69.0099 1.90003 8.03237
  729 59.0342 17.8840 8.87567
  730 58.9342 17.9221 -8.87129
  731 500.403 -14.8842 -25.1631
  732 473.693 -40.6974 -14.3275
  733 -7.52632 -15.4272 24.0549
  734 -7.51825 -15.5030 -24.0275
  735 186.774 2.59102 -118.735
  736 182.032 6.44608 119.747
  737 114.674 21.8336 -20.4242
  738 114.377 22.0455 20.6257
  739 10.4370 -16.5614 26.3488
  740 -0.660247 -51.0591 -13.6485
  741 236.412 12.2319 -28.6285
  742 236.513 12.1681 28.7641
  743 0.584526 -99.9881 12.5412
  744 142.260 18.7059 -8.90586
  745 142.219 18.7240 8.96263
  746 474.143 -0.751620 -8.40119
  747 474.225 -0.806825 8.30265
  748 9.70822 -130.249 4.80915
  749 217.797 15.3140 21.8733
  750 217.746 15.3482 -21.7884
  751 60.3919 21.2092 -3.79912
  752 60.7035 21.0021 3.76545
  753 -85.4428 0.561034 -7.57753
  754 -85.3528 0.560383 7.56453
  755 240.526 3.16236 -5.16958
  756 240.561 3.15825 5.17317
  757 150.240 20.8600 -15.1544
  758 150.180 20.8972 15.2597
  759 2.92501 12.9278 23.4620
  760 2.80489 12.9620 -23.4989
  761 475.097 -34.8807 8.48367
  762 -71.1512 1.43737 6.08078
  763 -71.2749 1.43905 -6.08672
  764 1007.82 204.880 -145.534
  765 -24.9864 2.54919 6.19963
  766 -25.0891 2.55213 -6.20508
  767 403.096 0.472450 15.6100
  768 402.968 0.537760 -15.6434
  769 748.814 45.6990 -0.269022
  770 454.484 -1.58088 -6.36814
  771 454.620 -1.59115 6.35792
  772 293.333 3.32713 9.25934
  773 293.267 3.33799 -9.25536
  774 437.809 -46.2536 128.785
  775 192.498 13.0598 -8.83517
  776 192.513 13.0510 8.86033
  777 4.56413 -73.4919 14.2983
  778 501.579 -60.8926 44.5989
  779 305.065 -0.0615530 1.56394
  780 304.996 -0.0601900 -1.56322
  781 397.444 -0.378537 0.829123
  782 397.325 -0.377827 -0.828552
  783 -1.73533 -40.0572 -23.5058
  784 2.56232 -67.2555 22.1389
  785 182.954 19.8228 30.3787
  786 182.972 19.8032 -30.1601
  787 995.926 9.07750 9.02849
  788 311.671 2.06228 -37.3073
  789 311.880 1.92315 37.4069
  790 -62.9030 2.08344 16.4962
  791 -63.0040 2.08857 -16.5226
  792 13.7711 -52.3594 2.71941
  793 8.83923 -120.836 -10.9289
  794 705.492 92.2263 -16.2818
  795 -0.604588 -50.9372 12.3250
  796 15.7695 10.9303 27.1883
  797 15.7150 10.9224 -27.3334
  798 97.3585 18.1796 1.06869
  799 97.2914 18.2084 -1.04650
  800 470.874 -21.7298 -8.92393
  801 471.936 -21.4303 7.45710
  802 549.094 94.4262 -215.494
  803 -73.0402 0.637133 -2.61506
  804 -72.9148 0.636672 2.61220
  805 -35.6768 -0.129508 9.16368
  806 -35.6893 -0.131177 -9.17467
  807 35.6884 4.29555 6.35946
  808 34.9441 4.26108 -6.44798
  809 358.552 -2.58051 33.5048
  810 358.292 -2.29999 -33.4164
  811 184.443 3.89475 -1.71744
  812 184.449 3.89343 1.71959
  813 576.525 -5.51791 46.8624
  814 63.8123 9.16076 -4.37791
  815 63.8767 9.15194 4.37968
  816 58.5787 9.42244 -12.2189
  817 58.0577 9.68201 12.3402
  818 0.0260320 -38.9777 -31.1529
  819 806.066 134.904 122.645
  820 -115.684 0.0807395 -3.19997
  821 -115.541 0.0805746 3.19616
  822 -0.169246 -121.305 11.6482
  823 9.30305 -16.4009 -26.7134
  824 -17.8018 -1.07192 6.85718
  825 -17.7957 -1.07483 -6.86001
  826 649.525 42.3080 -29.3881
  827 172.306 16.0901 -11.1538
  828 172.302 16.0900 11.2065
  829 446.204 -7.02993 -16.9476
  830 446.635 -7.08828 16.7312
  831 -110.918 0.795343 4.32841
  832 -111.053 0.796442 -4.33438
  833 -0.816883 -0.844285 -0.703913
  834 -0.818541 -0.845788 0.706717
  835 0.339468 -124.000 -11.3199
  836 0.565382 -129.539 -9.93148
  837 -120.968 1.10567 0.596350
  838 -121.120 1.10598 -0.596848
  839 70.1842 -13.8391 -79.8452
  840 278.075 2.41310 -2.81982
  841 278.130 2.41143 2.82113
  842 -5.46699 1.79581 0.774642
  843 -5.55851 1.79606 -0.775158
  844 410.085 0.528538 -10.3050
  845 410.205 0.506810 10.2919
  846 -46.8370 0.317729 8.69566
  847 -46.8628 0.317730 -8.70728
  848 251.488 9.01920 -176.413
  849 430.788 -36.3101 37.3890
  850 337.072 0.700965 -3.35884
  851 337.158 0.698885 3.36012
  852 427.038 -39.4238 -41.5356
  853 135.953 14.0998 -4.15756
  854 135.924 14.1060 4.18271
  855 186.367 11.1376 -6.86111
  856 186.377 11.1319 6.87751
  857 500.070 -10.5483 19.2543
  858 32.6531 18.4110 18.6573
  859 32.5084 18.4785 -18.7158
  860 34.9108 1.60570 1.27378
  861 34.8396 1.60592 -1.27459
  862 237.299 2.04129 2.43287
  863 237.266 2.04286 -2.43142
  864 613.326 -51.0090 74.5408
  865 385.598 1.47558 -13.5997
  866 385.716 1.43519 13.5821
  867 8.75651 5.40148 5.62495
  868 8.66883 5.40695 -5.62902
  869 385.824 -1.01946 3.88571
  870 385.712 -1.01663 -3.88434
  871 -68.4897 0.193241 -1.83411
  872 -68.3658 0.193668 1.83303
  873 -0.324997 -39.0505 11.0151
  874 -0.431356 -39.6607 -11.0966
  875 468.299 -5.79463 47.0384
  876 -26.6695 7.21402 24.7116
  877 -26.7752 7.23022 -24.7554
  878 -0.149927 -64.1757 -12.1190
  879 186.245 5.86234 -3.61244
  880 186.252 5.86052 3.61680
  881 340.544 -16.8904 -59.9411
  882 343.089 -18.6685 60.5137
  883 -14.0463 -4.75768 -33.7344
  884 -13.9788 -4.75560 33.6576
  885 20.5476 16.1125 21.2743
  886 20.4220 16.1570 -21.3068
  887 1.59873 -144.762 7.77491
  888 6.29356 12.8586 27.9106
  889 6.15809 12.8908 -27.9587
  890 314.801 -5.72508 -53.3637
  891 314.094 -5.94530 53.7833
  892 543.365 32.0319 54.0078
  893 126.872 13.0631 2.40187
  894 126.904 13.0571 -2.38571
  895 395.194 1.74811 -10.1412
  896 395.307 1.73181 10.1349
  897 -15.2257 -6.52771 29.7810
  898 -15.2578 -6.55502 -29.8390
  899 1.42000 -148.128 -4.62779
  900 -23.4369 -1.42275 29.1291
  901 -23.4880 -1.42836 -29.1765
  902 17.5035 14.3316 -16.5225
  903 17.6116 14.2996 16.5034
  904 -1.21270 -9.88142 5.45573
  905 -1.22662 -9.87189 -5.46405
  906 36.2880 16.1623 -14.4470
  907 36.3996 16.1226 14.4349
  908 8.01852 -10.6576 30.0692
  909 7.03695 -9.90620 -31.7387
  910 385.734 -11.3946 34.2969
  911 384.840 -10.8939 -34.4519
  912 -123.665 0.281965 -0.876563
  913 -123.513 0.281988 0.875751
  914 -10.9757 -0.976831 5.17391
  915 -10.9664 -0.978636 -5.17276
  916 0.511853 -91.1100 -11.0061
  917 -11.6764 -4.98048 -14.6767
  918 -11.6709 -4.96746 14.6765
  919 -48.2160 4.17648 21.1975
  920 -48.3126 4.18473 -21.2340
  921 122.703 22.8431 -9.38699
  922 122.599 22.9161 9.46907
  923 518.391 40.1008 -7.42479
  924 -3.84093 11.4199 21.3077
  925 -3.95403 11.4468 -21.3391
  926 192.479 12.5241 -56.5784
  927 192.463 12.6990 57.1605
  928 -20.4568 7.85629 17.1256
  929 -20.5646 7.87392 -17.1501
  930 616.924 -25.9271 -5.01226
  931 384.116 15.2989 23.5054
  932 454.531 -5.09100 -42.5324
  933 337.544 3.63529 -22.6903
  934 337.684 3.54028 22.6980
  935 -33.0214 4.53417 -8.15338
  936 -32.9145 4.52763 8.14421
  937 -78.7422 1.38407 10.4561
  938 -78.8575 1.38749 -10.4724
  939 -4.79268 -15.5732 -17.0177
  940 -4.75752 -15.5842 17.0468
  941 122.007 6.93818 1.42259
  942 122.035 6.93649 -1.41828
  943 -36.6414 3.98440 26.4607
  944 -36.7249 3.98661 -26.5084
  945 402.118 -0.734305 5.05130
  946 401.998 -0.730962 -5.05008
  947 -2.96402 -34.0377 25.5856
  948 17.4458 13.0473 -14.0888
  949 17.5468 13.0222 14.0748
  950 23.4812 8.82958 8.99851
  951 23.3938 8.84255 -9.00459
  952 72.4553 5.83086 -1.75946
  953 72.5094 5.82766 1.75992
  954 754.075 102.313 -27.9644
  955 -3.04394 -0.825443 -2.06732
  956 -3.05045 -0.825320 2.07103
  957 27.4035 8.43747 -17.3682
  958 27.8599 8.23212 17.2759
  959 273.651 10.0173 -24.2187
  960 273.761 9.94051 24.2755
  961 37.5066 11.2090 -8.41271
  962 37.5908 11.1926 8.40920
  963 75.5643 -6.90738 104.797
  964 509.007 -3.82944 -4.55387
  965 508.382 -3.68895 4.10732
  966 92.7668 -3.08593 92.2008
  967 97.9545 3.37741 -0.604411
  968 97.9155 3.37808 0.605046
  969 250.177 -4.78627 -152.730
  970 188.891 2.28183 1.30117
  971 188.883 2.28218 -1.30037
  972 24.6818 -22.0897 2.91302
  973 27.2712 -18.1619 -0.861051
  974 449.901 -0.659084 1.73157
  975 449.753 -0.658216 -1.73039
  976 -36.8822 0.171339 21.4965
  977 -36.9268 0.168723 -21.5271
  978 808.112 102.014 49.7208
  979 -3.24149 -25.1277 -33.4893
  980 4.40650 -121.257 16.7866
  981 -0.446404 -40.0772 30.8080
  982 465.592 -0.621386 -6.49720
  983 465.718 -0.636432 6.47609
  984 -6.14456 -11.2732 14.7221
  985 -6.16226 -11.2752 -14.7090
  986 587.240 62.3535 -27.7358
  987 1009.50 8.14958 -6.02905
  988 -1.52473 -2.33051 -2.25000
  989 -1.52300 -2.33543 2.25326
  990 273.232 2.20600 -5.31754
  991 273.285 2.20232 5.32017
  992 -3.30526 -24.1129 33.6378
  993 378.679 0.950961 20.1168
  994 378.538 1.04835 -20.1384
  995 497.879 -32.4261 -17.6278
  996 -17.2935 -3.56922 16.5622
  997 -17.3018 -3.58314 -16.5723
  998 8.68141 -30.8257 22.9424
  999 -0.734373 -60.8279 24.1936
  1000 -0.0747584 -63.6916 12.1084
  1001 516.668 32.9060 -3.10850
  1002 586.960 64.5241 14.5471
  1003 418.599 -46.7414 -72.0577
  1004 6.26954 -58.1917 18.3608
  1005 7.87809 -83.1572 2.72450
  1006 118.612 2.06649 0.222808
  1007 118.584 2.06646 -0.222812
  1008 -4.62564 -5.27700 -7.06147
  1009 -4.62130 -5.27763 7.06670
  1010 4.25086 -47.8353 -25.1126
  1011 336.517 -0.360401 -1.23408
  1012 336.602 -0.361659 1.23464
  1013 69.3552 2.21445 -35.8638
  1014 66.4025 2.36991 35.5234
  1015 -4.75087 10.5781 28.3648
  1016 -4.88007 10.6067 -28.4214
  1017 -37.8629 5.98112 -17.5555
  1018 -37.7543 5.96838 17.5292
  1019 259.373 4.13717 -54.8902
  1020 259.492 4.37592 55.4628
  1021 187.570 16.3138 -39.0675
  1022 187.531 16.3205 39.4074
  1023 202.924 13.6728 -13.5648
  1024 202.949 13.6546 13.6038
  1025 522.938 -12.9061 -54.0531
  1026 -12.6288 6.62530 31.4333
  1027 -12.7437 6.63381 -31.5075
  1028 369.749 -1.12614 27.6214
  1029 369.537 -0.915547 -27.6129
  1030 -2.05690 -18.5930 34.9519
  1031 -29.6903 -0.951526 15.9397
  1032 -29.7092 -0.956646 -15.9585
  1033 337.302 2.27310 -27.5272
  1034 337.477 2.13783 27.5491
  1035 423.391 10.7628 -38.9838
  1036 -0.401615 -60.4114 -25.3699
  1037 -4.80692 -23.7459 30.2917
  1038 -5.01342 -24.0440 -30.0439
  1039 239.201 13.0257 -20.2651
  1040 239.270 12.9786 20.3264
  1041 300.160 4.57561 11.4292
  1042 300.087 4.59274 -11.4247
  1043 496.859 -31.6776 15.1782
  1044 27.6384 1.91117 -0.340232
  1045 27.7130 1.91091 0.339971
  1046 423.089 -52.2494 76.8380
  1047 0.683270 1.23192 1.82496
  1048 0.594673 1.23215 -1.82634
  1049 93.5899 23.0912 -1.50955
  1050 93.4569 23.1714 1.55274
  1051 36.6705 18.2521 15.8932
  1052 36.5477 18.3004 -15.9119
  1053 4.81276 -72.6552 -14.9147
  1054 124.721 3.80987 0.738883
  1055 124.747 3.80986 -0.736614
  1056 375.650 12.0170 9.72999
  1057 339.947 1.72895 10.5360
  1058 339.857 1.74543 -10.5357
  1059 -1.69605 -19.3535 -35.0156
  1060 510.567 -6.61497 -9.54717
  1061 0.720781 -1.06657 34.4188
  1062 1.11203 -0.793015 -34.2436
  1063 462.629 -1.02807 -3.59993
  1064 462.777 -1.03160 3.59684
  1065 493.268 -1.92304 -6.34470
  1066 493.234 -1.98342 6.19253
  1067 -0.371834 -96.4159 9.07765
  1068 292.039 6.45229 -15.0851
  1069 292.113 6.42300 15.0938
  1070 354.043 2.40212 12.2086
  1071 353.944 2.42397 -12.2113
  1072 9.14984 8.89163 30.5815
  1073 9.09795 8.89204 -30.6244
  1074 767.079 49.8554 8.96667
  1075 -9.27966 -3.83183 35.7701
  1076 -9.43640 -3.74251 -35.8660
  1077 112.456 21.1200 -2.86352
  1078 112.388 21.1571 2.90336
  1079 -58.7309 0.896106 -2.92289
  1080 -58.6124 0.895743 2.92030
  1081 183.521 11.2772 -65.0224
  1082 183.251 11.7777 65.7526
  1083 54.0883 20.6250 11.6915
  1084 53.9551 20.6859 -11.6995
  1085 125.269 15.4501 -48.7408
  1086 124.627 16.0517 49.1198
  1087 -3.17321 -31.9815 -24.9441
  1088 438.849 6.61016 51.7947
  1089 304.974 6.53027 197.274
  1090 50.8744 21.3605 12.0400
  1091 50.7197 21.4400 -12.0616
  1092 185.681 8.84616 -5.30663
  1093 185.689 8.84110 5.31748
  1094 662.702 7.71378 9.74935
  1095 44.3179 11.9539 6.44742
  1096 43.7666 12.0836 -6.62242
  1097 -19.5755 -4.22952 21.9825
  1098 -19.5940 -4.24995 -22.0070
  1099 -0.641155 -14.7404 5.94661
  1100 -0.666961 -14.7320 -5.97076
  1101 436.194 -1.02843 16.1045
  1102 436.019 -0.874133 -16.2040
  1103 0.919460 -30.1056 32.6883
  1104 -29.2999 2.03647 -28.9961
  1105 -29.2307 2.04066 28.9476
  1106 0.141680 -116.129 -11.3988
  1107 -6.41180 -9.11898 35.7198
  1108 -6.39125 -8.91506 -35.7579
  1109 416.525 -0.0460276 -6.78127
  1110 416.650 -0.0534592 6.77921
  1111 430.726 -3.91705 19.4955
  1112 430.418 -3.66593 -19.5924
  1113 77.2092 17.8488 -17.8912
  1114 76.6262 18.1696 18.0236
  1115 -0.989233 -59.8338 -20.7541
  1116 565.804 -46.8324 -116.815
  1117 732.874 100.418 12.0506
  1118 7.91544 -87.4185 0.245175
  1119 27.9035 15.5900 -21.5727
  1120 28.0670 15.5078 21.4469
  1121 72.5519 22.9308 4.12164
  1122 72.3754 23.0352 -4.11203
  1123 151.405 8.02129 2.54178
  1124 151.418 8.02220 -2.53413
  1125 -9.35720 -13.3287 28.4112
  1126 -9.34503 -13.4597 -28.4592
  1127 -25.6014 8.40487 22.6406
  1128 -25.7098 8.42354 -22.6772
  1129 -8.13940 10.7762 26.1899
  1130 -8.25904 10.8028 -26.2373
  1131 412.475 -21.1663 -33.8951
  1132 415.051 -21.3030 33.6605
  1133 0.455967 -68.2089 -24.0001
  1134 222.485 0.453304 -80.8279
  1135 222.791 1.13572 82.1000
  1136 72.5453 20.6523 -5.32240
  1137 72.6452 20.6039 5.33521
  1138 219.438 118.649 219.956
  1139 57.3181 16.4136 8.53365
  1140 57.2281 16.4431 -8.53098
  1141 560.322 -58.6548 -31.0757
  1142 214.092 4.94373 4.18744
  1143 214.070 4.94782 -4.18294
  1144 -9.49185 -8.44290 17.4725
  1145 -9.49948 -8.46401 -17.4684
  1146 -11.2906 -10.0992 22.5484
  1147 -11.2922 -10.1405 -22.5533
  1148 370.181 -35.8594 -112.363
  1149 377.327 -39.6068 113.166
  1150 68.9441 1.91834 1.08112
  1151 68.9979 1.91818 -1.08049
  1152 234.014 10.5879 -44.9281
  1153 234.000 10.4624 45.3509
  1154 504.138 -64.7831 86.9384
  1155 446.417 -1.20368 0.996823
  1156 446.271 -1.20275 -0.995995
  1157 -38.5916 6.27214 20.2558
  1158 -38.6987 6.28511 -20.2878
  1159 -66.9349 1.99956 -10.4737
  1160 -66.8163 1.99531 10.4609
  1161 117.490 8.27873 134.577
  1162 363.204 23.7785 -19.7983
  1163 214.060 14.4803 -22.7284
  1164 214.114 14.4474 22.8402
  1165 651.041 -11.8386 126.380
  1166 217.623 14.0958 -33.1241
  1167 217.686 14.0354 33.3177
  1168 56.4672 6.33667 -2.92153
  1169 56.5306 6.33234 2.92127
  1170 19.3966 -64.4839 15.0019
  1171 19.5929 -62.5832 -20.1764
  1172 293.987 -18.9496 -113.503
  1173 297.896 -17.6195 113.367
  1174 116.573 19.7835 -34.7152
  1175 116.080 20.1652 35.0234
  1176 513.956 -33.2362 -34.4210
  1177 -18.1692 -1.30824 32.7571
  1178 -18.2380 -1.30888 -32.8162
  1179 -0.0667816 -26.8348 -33.6037
  1180 133.375 6.35731 -85.6299
  1181 133.656 6.71115 87.0099
  1182 -0.327186 -26.0858 6.61548
  1183 -0.279897 -26.1501 -6.69815
  1184 -121.327 0.992547 -3.03654
  1185 -121.184 0.991823 3.03262
  1186 406.573 -0.705129 -1.94174
  1187 406.697 -0.706608 1.94276
  1188 253.882 8.38576 -13.2525
  1189 253.940 8.35883 13.2721
  1190 -8.52434 0.364337 35.6394
  1191 -8.55073 0.512802 -35.7098
  1192 0.00667490 -104.005 -10.0706
  1193 -103.499 0.226303 5.01241
  1194 -103.617 0.226907 -5.02064
  1195 83.0687 1.62221 -60.9990
  1196 82.4707 2.13688 62.8333
  1197 476.792 -29.0468 -3.44444
  1198 138.756 10.6656 -77.0652
  1199 138.837 10.9910 77.7562
  1200 -57.9327 0.319711 7.88695
  1201 -57.9724 0.319310 -7.89854
  1202 1.59568 -89.4150 -16.4357
  1203 -14.2840 3.26163 -3.71009
  1204 -14.1872 3.25944 3.70702
  1205 74.4113 17.2180 5.74809
  1206 74.3269 17.2493 -5.73693
  1207 269.315 0.551717 -1.69720
  1208 269.365 0.550497 1.69804
  1209 361.404 0.955905 8.00591
  1210 361.306 0.966069 -8.00600
  1211 20.8608 -1.23752 18.0329
  1212 20.5522 -1.58703 -18.4104
  1213 3.63248 -50.9990 25.1854
  1214 649.196 91.4797 17.5334
  1215 -19.9537 -1.53394 12.5685
  1216 -19.9581 -1.54074 -12.5765
  1217 2.89635 -47.7727 -26.4948
  1218 -1.87395 -30.2177 18.3578
  1219 -1.78427 -29.9214 -19.0156
  1220 512.477 -5.66232 8.44163
  1221 0.442279 -118.805 10.2738
  1222 4.11599 -34.8333 -29.5791
  1223 64.1536 1.35022 0.546528
  1224 64.0976 1.35011 -0.546825
  1225 -4.83707 -21.1592 33.1964
  1226 -54.1882 3.03494 -8.73408
  1227 -54.0727 3.03068 8.72437
  1228 1028.55 17.3667 29.7734
  1229 -28.8091 3.58668 29.1892
  1230 -28.8911 3.58555 -29.2424
  1231 249.676 9.54586 -40.5900
  1232 249.863 9.38385 40.8163
  1233 16.8545 -22.2763 -11.0434
  1234 237.333 11.2204 -16.7833
  1235 237.391 11.1841 16.8257
  1236 10.1387 -69.1646 -2.10549
  1237 -4.85753 -21.2126 -33.1558
  1238 -36.7297 1.30497 5.03746
  1239 -36.8376 1.30635 -5.04183
  1240 -17.2457 1.64867 -33.3721
  1241 -17.1616 1.65516 33.3158
  1242 508.382 41.2180 37.9450
  1243 288.107 2.79378 -42.6880
  1244 288.420 2.72815 42.7929
  1245 -126.407 0.249589 -1.04317
  1246 -126.255 0.249505 1.04191
  1247 259.213 5.32721 -8.94560
  1248 259.261 5.31773 8.95189
  1249 -129.205 -2.30416 -0.360617
  1250 -129.361 -2.30553 0.360742
  1251 385.951 -27.2580 -48.9308
  1252 -59.9916 1.05089 16.5396
  1253 -60.0670 1.05129 -16.5673
  1254 389.714 -28.7747 48.4916
  1255 263.928 8.69116 -17.9847
  1256 263.999 8.64810 18.0116
  1257 31.5629 -60.4069 -60.3526
  1258 0.581776 -82.5570 -20.5067
  1259 -1.58516 -34.5939 31.0949
  1260 815.222 148.254 -124.423
  1261 -0.177430 -77.7367 20.1920
  1262 852.184 80.6702 -55.2516
  1263 -0.516271 -144.228 -9.46891
  1264 44.2781 3.62275 -0.791571
  1265 44.3451 3.62106 0.791214
  1266 -0.353075 -33.4741 6.92965
  1267 -0.282366 -33.6548 -6.91303
  1268 148.752 2.85329 0.389340
  1269 148.765 2.85349 -0.388651
  1270 519.260 -38.1846 32.5329
  1271 13.3432 3.49476 -4.29633
  1272 13.4267 3.49210 4.29350
  1273 2.99347 -155.664 3.78359
  1274 1.90403 -166.083 -3.77097
  1275 477.498 -57.7653 -53.1958
  1276 -1.27954 -43.1240 20.2263
  1277 504.555 33.6223 -48.6565
  1278 -1.48525 -56.8205 19.8455
  1279 1.02178 -154.375 -6.98396
  1280 242.258 5.94499 -9.94977
  1281 242.301 5.92765 9.96213
  1282 -0.192558 -85.0183 8.96539
  1283 -0.200457 -70.2016 -20.1448
  1284 1111.57 201.825 172.775
  1285 448.398 0.0591640 0.751125
  1286 448.250 0.0593059 -0.750594
  1287 12.9566 1.91033 27.5009
  1288 12.5625 2.39529 -27.6402
  1289 -5.89437 6.93191 33.1550
  1290 -6.06990 6.93760 -33.2448
  1291 483.382 -8.66466 -30.2300
  1292 446.294 -18.9426 -19.8545
  1293 445.905 -21.4916 20.1164
  1294 69.4533 7.22404 2.82242
  1295 69.3948 7.22926 -2.82096
  1296 -71.8367 1.90416 -12.7079
  1297 -71.7275 1.89998 12.6871
  1298 497.414 -65.7934 -74.6068
  1299 -3.69771 -8.98819 9.20315
  1300 -3.71241 -8.98261 -9.19957
  1301 525.730 -21.0722 51.0431
  1302 -5.40314 -20.5296 24.6246
  1303 -5.34256 -20.6076 -24.5127
  1304 -43.9795 2.85749 6.05741
  1305 -44.0909 2.86068 -6.06357
  1306 81.4784 10.7683 -32.7074
  1307 80.6660 11.2188 32.6751
  1308 127.062 2.71892 0.131352
  1309 127.038 2.71881 -0.130859
  1310 -49.3149 5.02634 20.1301
  1311 -49.4174 5.03590 -20.1623
  1312 421.397 0.656439 1.16713
  1313 421.264 0.656365 -1.16637
  1314 235.919 1.26628 151.164
  1315 345.773 0.0127288 2.84010
  1316 345.682 0.0142058 -2.83878
  1317 232.778 5.06933 -61.8628
  1318 232.790 4.81074 62.3736
  1319 2.30486 -89.2597 -11.1451
  1320 91.5227 21.9706 -15.0248
  1321 91.1272 22.2249 15.1645
  1322 -0.899637 -0.790655 -1.16661
  1323 -0.904165 -0.790839 1.16999
  1324 297.731 8.11382 23.0385
  1325 297.618 8.19642 -23.0089
  1326 149.767 11.2493 4.35809
  1327 149.782 11.2490 -4.34248
  1328 219.028 11.2772 -11.6729
  1329 219.063 11.2577 11.6994
  1330 284.844 0.807153 -2.86202
  1331 284.902 0.805761 2.86341
  1332 -9.02618 -4.34826 -10.3822
  1333 -9.02360 -4.34250 10.3864
  1334 -83.7255 -0.0269130 3.58627
  1335 -83.8557 -0.0265958 -3.59011
  1336 -15.2198 -6.91021 -25.1564
  1337 -15.2048 -6.87393 25.1266
  1338 -46.0254 0.504843 1.47180
  1339 -46.1377 0.504586 -1.47294
  1340 -130.811 1.16199 0.589826
  1341 -130.967 1.16241 -0.590311
  1342 533.589 -63.4368 100.830
  1343 395.567 -1.96033 -42.4839
</Section>

newXOutput 64

<Section columns = "stress_xx | stress_yy | stress_xy">
  1 468.388 -0.817662 0.495610
  2 468.547 -0.818274 -0.495859
  3 -143.675 0.648938 -1.97444
  4 0.228646 0.0536325 0.408259
  5 841.613 258.882 280.073
  6 951.830 291.476 -269.797
  7 0.227556 0.0526482 -0.406808
  8 -143.508 0.648803 1.97341
  9 467.019 -0.781371 -1.55544
  10 467.426 -1.53053 -2.50129
  11 471.810 -1.53066 -0.690908
  12 472.346 -1.49963 -2.97182
  13 473.648 -1.48272 -0.966836
  14 483.444 -1.38204 -1.32316
  15 486.935 -1.95828 -3.99083
  16 490.796 -0.998712 -2.76190
  17 493.355 -0.0228965 -5.32449
  18 513.163 -2.97321 -4.55603
  19 521.928 -2.36381 -5.83004
  20 531.746 -3.47832 -2.45283
  21 536.710 -4.53279 -1.62378
  22 533.934 -5.13997 6.35992
  23 517.217 -5.66450 13.6854
  24 477.692 -6.11421 29.6606
  25 412.758 3.79367 34.6503
  26 359.844 4.74173 32.0280
  27 285.585 9.08547 19.3864
  28 302.986 8.82665 1.98906
  29 256.907 25.9846 -12.2080
  30 342.997 12.0879 -35.2305
  31 389.661 3.16657 -28.7382
  32 468.804 -1.20164 -24.9113
  33 511.871 -6.86992 -16.4806
  34 533.300 -5.98040 -6.30769
  35 535.827 -4.39940 1.66491
  36 531.156 -3.43552 2.32109
  37 521.731 -2.37737 5.67283
  38 513.142 -3.00835 4.46793
  39 493.457 -0.0424946 5.28472
  40 490.936 -1.00610 2.74794
  41 487.096 -1.96319 3.98737
  42 483.609 -1.38468 1.32179
  43 473.810 -1.48455 0.966876
  44 472.508 -1.50121 2.97383
  45 471.972 -1.53189 0.691624
  46 467.585 -1.53161 2.50306
  47 467.177 -0.781976 1.55654
  48 442.325 0.897269 -0.596452
  49 410.246 0.00549046 -1.30400
  50 370.045 -1.88156 -1.28225
  51 328.249 0.471174 -1.06647
  52 291.513 0.0932381 -0.843005
  53 252.102 1.34609 -0.992938
  54 213.098 3.39779 -0.577075
  55 172.501 2.97304 -1.24416
  56 138.758 1.91000 -1.75979
  57 94.3787 1.01993 -1.85446
  58 49.2162 2.02723 -1.41825
  59 11.4658 1.69887 -1.37180
  60 -35.7077 0.924894 -1.24373
  61 -70.7882 -0.618109 -3.11446
  62 -104.784 -2.41227 -1.41515
  63 -139.309 0.254595 0.982681
  64 -146.836 2.51125 -0.330426
  65 -147.429 1.09045 0.484642
  66 -142.557 0.524178 -0.119908
  67 -144.326 1.60564 -1.72880
  68 -142.142 1.96278 -0.0785231
  69 -134.539 0.582396 -2.67475
  70 -136.388 1.21422 -2.89013
  71 -133.094 1.14555 -1.58441
  72 -123.310 0.704156 -2.43076
  73 -118.980 1.30339 -4.07575
  74 -111.849 1.46950 -3.31881
  75 -99.1072 0.745347 -5.84409
  76 -91.9835 0.231891 -4.87975
  77 -79.0193 0.332346 -5.66004
  78 -67.8901 0.269327 -6.29674
  79 -58.1367 0.0965041 -4.97109
  80 -44.5373 0.297580 -5.01686
  81 -32.7901 -0.114897 -5.37960
  82 -21.4181 -0.578470 -4.74135
  83 -12.3894 -0.508491 -3.64339
  84 -6.10882 -0.899281 -3.05239
  85 -1.05107 -0.520599 -1.09959
  86 0.0472474 -0.584319 -0.399055
  87 -0.314323 -0.325584 -0.0868317
  88 -0.815840 -0.857136 -0.964695
  89 -0.793026 -5.17321 -2.65359
  90 -0.671161 -11.5554 -3.76707
  91 -0.342992 -19.6564 -5.48414
  92 -0.172930 -30.1614 -4.72584
  93 -0.133074 -39.7864 -5.94401
  94 -0.721294 -51.4870 -6.69290
  95 -0.295939 -65.9660 -6.74001
  96 0.136089 -80.5447 -6.44467
  97 0.313824 -96.1441 -6.34911
  98 0.488928 -112.144 -6.22736
  99 0.0100132 -123.770 -8.41511
  100 0.811688 -140.440 -7.51889
  101 1.01133 -159.918 -5.93311
  102 -0.115361 -168.166 -7.86693
  103 1.43162 -181.996 -7.23916
  104 3.58785 -200.327 -3.10782
  105 7.03790 -204.383 -4.94655
  106 5.13529 -183.947 6.40707
  107 7.78442 -133.536 23.5217
  108 37.0143 -65.3902 64.8182
  109 113.654 189.940 208.370
  110 1290.56 71.3272 129.617
  111 1110.51 20.5586 46.7746
  112 1074.75 7.14457 10.8353
  113 1066.92 2.00100 -1.71132
  114 1074.37 11.2492 -24.6459
  115 1109.28 37.5396 -55.7636
  116 1257.43 139.587 -164.857
  117 274.561 148.936 -253.706
  118 62.8401 -65.0155 -77.8271
  119 18.6225 -146.370 -29.7956
  120 5.22701 -173.920 -6.77989
  121 5.70407 -196.462 2.27782
  122 1.59734 -192.315 2.20868
  123 0.537229 -177.407 6.05290
  124 0.605332 -167.334 4.77093
  125 0.879643 -151.034 8.45445
  126 -0.0428710 -141.763 8.29379
  127 0.347629 -128.167 5.95633
  128 0.692580 -110.820 7.63343
  129 0.143486 -98.4086 6.04576
  130 0.199503 -80.6159 7.64295
  131 -0.805612 -66.7688 6.57704
  132 -0.554061 -51.5275 6.48107
  133 -0.0906930 -39.5620 5.95791
  134 -0.226452 -29.9858 4.73306
  135 -0.334166 -19.5986 5.43010
  136 -0.661221 -11.5479 3.74821
  137 -0.788775 -5.18114 2.65172
  138 -0.814723 -0.865738 0.966641
  139 -0.314266 -0.329268 0.0893103
  140 0.0427565 -0.584853 0.401283
  141 -1.05945 -0.520266 1.10238
  142 -6.12117 -0.898342 3.05505
  143 -12.4057 -0.506842 3.64408
  144 -21.4303 -0.576439 4.73914
  145 -32.7918 -0.113215 5.37376
  146 -44.5265 0.297913 5.01004
  147 -58.1086 0.0973526 4.96388
  148 -67.8461 0.270356 6.28830
  149 -78.9538 0.332319 5.65102
  150 -91.8981 0.231830 4.87114
  151 -99.0080 0.744835 5.83543
  152 -111.730 1.46855 3.31191
  153 -118.851 1.30233 4.06993
  154 -123.170 0.703448 2.42688
  155 -132.944 1.14476 1.58178
  156 -136.233 1.21358 2.88729
  157 -134.382 0.582174 2.67236
  158 -141.979 1.96182 0.0777498
  159 -144.161 1.60489 1.72746
  160 -142.392 0.524060 0.119582
  161 -147.261 1.09002 -0.484528
  162 -146.667 2.51011 0.330157
  163 -139.144 0.254658 -0.982283
  164 -104.638 -2.41067 1.41436
  165 -70.6603 -0.617258 3.11286
  166 -35.5981 0.925036 1.24300
  167 11.5510 1.69866 1.37105
  168 49.2819 2.02691 1.41751
  169 94.4212 1.02026 1.85353
  170 138.778 1.91006 1.75894
  171 172.503 2.97279 1.24360
  172 213.079 3.39741 0.576796
  173 252.062 1.34673 0.992406
  174 291.453 0.0943969 0.842504
  175 328.169 0.471858 1.06581
  176 369.941 -1.87982 1.28153
  177 410.120 0.00586567 1.30327
  178 442.181 0.896978 0.596126
  179 127.053 21.4595 -6.96977
  180 126.974 21.5043 7.03412
  181 -1.36327 4.18422 34.2487
  182 -1.50302 4.15013 -34.2732
  183 285.899 -3.73693 -65.8653
  184 285.668 -4.27043 66.5310
  185 58.3591 14.4983 -5.27202
  186 57.6701 14.7305 5.28137
  187 44.0239 6.73242 -4.59760
  188 44.0973 6.72587 4.59590
  189 269.633 4.29608 -10.0436
  190 269.688 4.28163 10.0520
  191 -2.65329 10.6703 18.1046
  192 -2.76375 10.6943 -18.1292
  193 313.085 7.19592 -25.1117
  194 313.230 7.09553 25.1498
  195 -11.9231 -10.3189 27.8440
  196 -11.9220 -10.3818 -27.8829
  197 3.21502 -24.0416 -32.4328
  198 99.4009 8.13666 -61.8929
  199 3.85514 -25.7603 31.6125
  200 97.8378 8.89576 62.8006
  201 442.545 -57.3979 -95.0358
  202 457.539 -59.6462 91.3611
  203 161.245 4.53392 -2.05899
  204 161.237 4.53311 2.06213
  205 -22.3369 1.47240 -3.38625
  206 -22.2340 1.47171 3.38358
  207 -34.0400 5.44849 26.3916
  208 -34.1379 5.45808 -26.4407
  209 162.167 13.9614 -5.81296
  210 162.157 13.9628 5.83521
  211 50.7079 20.8409 11.1141
  212 50.5073 20.9632 -11.1675
  213 -42.8391 4.64689 -10.5142
  214 -42.7254 4.63964 10.5015
  215 356.007 -0.135382 4.67642
  216 355.912 -0.131622 -4.67488
  217 12.0096 -44.9545 12.3776
  218 13.0466 -40.4789 -10.6771
  219 -3.17908 -29.2973 31.2600
  220 -3.26674 -30.4820 -30.2940
  221 150.337 21.4235 -27.8760
  222 150.186 21.5318 28.1257
  223 -31.3044 0.0137425 26.9686
  224 -31.3599 0.00860259 -27.0109
  225 380.806 1.52754 -13.5200
  226 380.917 1.49873 13.5118
  227 410.683 -6.53552 -26.9055
  228 411.015 -6.93199 26.8227
  229 658.288 49.1230 0.567984
  230 604.068 68.4663 30.2064
  231 592.791 -1.97242 -47.6769
  232 75.2907 15.8111 5.44426
  233 75.2142 15.8360 -5.43621
  234 6.72803 13.4942 25.7843
  235 6.59552 13.5334 -25.8289
  236 458.867 -27.6846 -19.2638
  237 456.247 -28.0089 20.7707
  238 255.050 1.38655 -3.75261
  239 255.092 1.38355 3.75490
  240 -54.8546 3.92630 17.4377
  241 -54.9637 3.93494 -17.4655
  242 -7.71898 -7.58768 -12.6334
  243 -7.71104 -7.58176 12.6400
  244 -59.7710 1.28913 5.19400
  245 -59.8924 1.29079 -5.19927
  246 211.097 14.8621 -17.4908
  247 211.129 14.8370 17.5522
  248 267.761 7.47357 -37.9345
  249 267.954 7.35103 38.0936
  250 67.0854 3.53474 0.0312922
  251 67.1426 3.53355 -0.0311089
  252 155.974 6.57199 -130.746
  253 184.043 10.5924 141.926
  254 22.0237 10.3335 24.0842
  255 21.9283 10.5427 -24.2000
  256 621.004 -43.3642 -17.4070
  257 56.6610 20.3832 9.68141
  258 56.5446 20.4349 -9.68183
  259 153.248 16.9901 -50.4436
  260 152.944 17.3872 50.9417
  261 696.162 100.574 -0.0128442
  262 412.952 -0.382441 18.2888
  263 412.793 -0.266145 -18.3360
  264 -3.68489 -22.9455 -19.7127
  265 -3.57206 -23.0345 19.7885
  266 -0.732124 -54.1422 -26.8338
  267 2.00533 -62.5556 -24.2236
  268 1.09962 -62.8803 25.5859
  269 -9.89298 -8.52059 35.4970
  270 -9.93905 -8.51082 -35.6469
  271 22.9790 -46.9502 -11.8616
  272 24.7553 -42.9006 15.7601
  273 -23.7102 -1.95232 17.2941
  274 -23.7260 -1.96164 -17.3118
  275 295.540 7.31183 -15.7935
  276 295.625 7.27302 15.8066
  277 515.077 -51.7882 -7.25937
  278 116.701 9.03701 0.649987
  279 116.735 9.03316 -0.644188
  280 -1.27724 -50.8529 25.6823
  281 13.4915 10.2684 11.2641
  282 13.3945 10.2860 -11.2746
  283 814.638 56.0499 -24.0543
  284 399.791 -0.281344 5.68238
  285 399.673 -0.275089 -5.68281
  286 271.985 -11.6832 -98.4463
  287 274.262 -11.4756 99.8668
  288 514.447 -49.1583 -1.08748
  289 -48.0715 1.55034 21.2309
  290 -48.1409 1.55019 -21.2661
  291 502.327 -35.5852 159.475
  292 -20.7810 3.87000 31.9956
  293 -20.8688 3.86342 -32.0567
  294 87.6836 23.9911 -8.96531
  295 87.3402 24.2135 9.05250
  296 -86.0212 0.550954 0.884955
  297 -86.1571 0.550796 -0.885806
  298 424.018 15.2201 -215.963
  299 -81.7665 1.60315 -9.29891
  300 -81.6424 1.59972 9.28543
  301 -1.84099 -9.77622 35.8609
  302 -0.541971 -9.47481 -35.4357
  303 189.629 18.6216 -25.1469
  304 189.628 18.6227 25.2936
  305 43.7742 4.31523 3.46521
  306 43.7037 4.31803 -3.46691
  307 196.792 6.63473 -5.52756
  308 196.804 6.63053 5.53497
  309 19.2597 -12.0620 17.2107
  310 17.5637 -14.7818 -17.4879
  311 191.040 2.49689 -1.45203
  312 191.048 2.49614 1.45325
  313 -67.7129 1.77512 15.4696
  314 -67.8046 1.77771 -15.4960
  315 48.8431 -2.09720 -14.4804
  316 47.4275 -2.17104 13.1997
  317 416.230 -0.807676 1.59241
  318 416.101 -0.806552 -1.59130
  319 904.097 50.9466 37.4179
  320 97.4848 12.0413 1.42204
  321 97.4342 12.0515 -1.41330
  322 -17.2133 4.27460 7.05088
  323 -17.3158 4.28035 -7.05800
  324 133.042 17.0676 -4.80916
  325 133.000 17.0822 4.84530
  326 16.8069 14.0434 26.5983
  327 16.6973 14.0724 -26.6743
  328 2.04165 -90.7514 17.6207
  329 -89.4014 0.0336567 -2.08604
  330 -89.2643 0.0338902 2.08407
  331 319.675 0.0678616 -3.06490
  332 319.751 0.0659351 3.06629
  333 336.542 1.46961 -8.12449
  334 336.628 1.45873 8.12592
  335 -83.7313 1.33180 -6.64866
  336 -83.6002 1.32976 6.64106
  337 1.67762 1.21142 0.672807
  338 1.58728 1.21149 -0.673477
  339 -1.88729 -37.8673 19.6301
  340 -1.49555 -39.3895 -19.6025
  341 380.530 -30.8588 -66.8793
  342 394.917 -36.9340 65.7092
  343 227.107 10.0559 -10.9174
  344 227.142 10.0403 10.9358
  345 101.741 23.2986 -5.63402
  346 101.565 23.4058 5.70300
  347 -32.6107 6.53808 15.1008
  348 -32.7214 6.55130 -15.1222
  349 700.239 20.1074 24.9460
  350 38.5718 -48.2857 -45.5050
  351 41.2453 -44.3193 47.4571
  352 -13.1634 10.8253 24.4928
  353 -13.2792 10.8498 -24.5346
  354 -19.0306 -3.67135 31.5418
  355 -19.0832 -3.68196 -31.6014
  356 794.583 136.710 -43.9753
  357 515.953 -5.64696 60.9351
  358 477.936 -11.6217 -12.6334
  359 477.592 -11.3500 11.9166
  360 337.553 -4.39782 -42.7290
  361 337.152 -4.71001 42.7579
  362 0.650118 -109.343 -14.0957
  363 436.550 0.529402 -10.1965
  364 436.675 0.497261 10.1707
  365 5.85500 -102.062 10.3907
  366 514.095 40.4935 -31.4090
  367 126.977 3.44766 1.22919
  368 126.951 3.44826 -1.22957
  369 339.078 1.72303 -31.7065
  370 339.294 1.56780 31.7559
  371 363.984 2.13980 -19.0814
  372 364.108 2.07085 19.0711
  373 -3.72159 3.64209 4.59922
  374 -3.81636 3.64536 -4.60308
  375 211.821 11.7200 -51.2882
  376 211.856 11.8570 51.7206
  377 428.791 -0.647335 2.59990
  378 428.655 -0.645557 -2.59874
  379 246.809 12.6249 -26.1484
  380 246.897 12.5578 26.2421
  381 283.413 3.44754 6.75552
  382 283.355 3.45354 -6.75200
  383 -13.4769 -2.40275 10.7247
  384 -13.4771 -2.40932 -10.7258
  385 -3.22228 -2.28495 -3.15694
  386 -3.22366 -2.28593 3.16172
  387 573.232 -68.1337 45.3146
  388 -7.32724 -17.7614 28.9756
  389 -7.27607 -17.9188 -28.9822
  390 96.6498 5.36699 -1.07257
  391 96.6929 5.36495 1.07402
  392 -2.83530 -14.3102 10.7776
  393 -2.86815 -14.2886 -10.7798
  394 38.5804 16.0294 12.0612
  395 38.4783 16.0624 -12.0690
  396 468.422 -2.49536 13.5521
  397 468.247 -2.33299 -13.7585
  398 -0.859950 -27.0530 34.4125
  399 -38.3912 -0.657636 16.3058
  400 -38.4229 -0.661336 -16.3283
  401 -1.00878 -28.6221 -34.0296
  402 438.971 -0.313965 6.50310
  403 438.837 -0.304503 -6.50917
  404 -2.78781 10.1162 31.0002
  405 -2.94037 10.1451 -31.0676
  406 326.804 3.92459 -12.8539
  407 326.891 3.90079 12.8557
  408 501.265 -21.3693 -9.05861
  409 502.561 -17.3559 6.64055
  410 -0.974999 -51.5059 -21.4564
  411 46.8843 17.7101 -7.14798
  412 47.2675 17.5288 7.08718
  413 506.469 32.8041 19.4197
  414 286.517 -12.5358 -135.437
  415 293.888 -17.7596 141.536
  416 19.0679 15.4574 19.3424
  417 18.9482 15.4961 -19.3684
  418 211.300 4.75857 -3.78425
  419 211.319 4.75632 3.78770
  420 205.401 42.9946 214.518
  421 86.8988 19.3714 -3.23491
  422 86.9887 19.3312 3.25506
  423 5.56643 -47.3542 22.3165
  424 -0.617967 -83.5183 -18.4685
  425 35.4657 19.1751 17.5722
  426 35.3278 19.2322 -17.6044
  427 44.0517 10.5363 -7.04987
  428 44.1316 10.5227 7.04772
  429 -13.4730 -0.321650 -35.2623
  430 -13.3864 -0.341467 35.1974
  431 103.319 20.7118 -22.2560
  432 102.875 21.0109 22.4555
  433 505.582 -15.5326 -46.3174
  434 15.1861 -3.70536 26.0392
  435 14.7064 -3.59426 -26.2208
  436 368.405 -15.9426 -47.1913
  437 369.880 -17.0240 47.1430
  438 -90.1325 0.681160 -9.21191
  439 -90.0159 0.678897 9.19696
  440 -0.00219247 -82.2285 16.6753
  441 -0.572530 -52.3236 19.1218
  442 -36.4684 2.50402 27.1342
  443 -36.5414 2.50218 -27.1804
  444 264.113 1.24973 -1.40523
  445 264.159 1.24842 1.40595
  446 -7.79832 -12.3261 19.8142
  447 -7.81292 -12.3560 -19.7957
  448 166.924 10.1777 -74.2334
  449 166.573 10.9002 75.0130
  450 1.38950 -98.6758 -17.9509
  451 902.264 30.7149 0.435080
  452 2.62195 -115.137 -9.44603
  453 -105.352 -0.151150 -3.19494
  454 -105.208 -0.151142 3.19187
  455 -39.9663 5.85399 21.7625
  456 -40.0731 5.86642 -21.8002
  457 -48.1652 0.707448 16.3241
  458 -48.2124 0.707029 -16.3482
  459 182.012 17.8214 -17.4983
  460 182.010 17.8274 17.5873
  461 272.979 9.78949 -20.2088
  462 273.070 9.73211 20.2484
  463 -4.23118 -16.2670 35.6504
  464 -4.23782 -16.1599 -35.8027
  465 476.204 9.50472 -58.3380
  466 33.5183 -5.92645 -2.71836
  467 32.3472 -6.21199 3.32230
  468 7.79941 -101.790 -3.36587
  469 5.07496 -118.990 -0.283519
  470 -14.2189 -6.30828 20.3784
  471 -14.2273 -6.33211 -20.3892
  472 102.311 0.528899 -113.915
  473 714.890 9.55800 -78.1343
  474 165.866 9.61763 5.50473
  475 165.871 9.61924 -5.49174
  476 240.244 3.07846 -70.9689
  477 240.734 3.01033 71.9749
  478 72.1698 24.2769 5.31183
  479 72.0259 24.3594 -5.30242
  480 217.120 15.6615 -38.0544
  481 217.191 15.5947 38.3127
  482 8.92253 5.07327 31.3674
  483 9.40186 5.31449 -31.3304
  484 -93.7524 1.30457 -6.64140
  485 -93.6194 1.30283 6.63277
  486 472.140 -53.9439 -39.4333
  487 373.612 -0.540195 -2.16427
  488 373.717 -0.541397 2.16550
  489 23.3617 2.08007 -1.77604
  490 23.4413 2.07922 1.77473
  491 -22.1055 8.61109 20.0044
  492 -22.2174 8.63030 -20.0351
  493 -51.6479 3.07382 -7.00406
  494 -51.5306 3.06983 6.99621
  495 165.968 15.0783 -8.40737
  496 165.959 15.0784 8.44157
  497 -18.1747 7.64561 28.6479
  498 -18.2869 7.66277 -28.7051
  499 432.014 -12.6532 -25.4143
  500 432.755 -13.2402 25.1206
  501 285.728 2.68286 -47.4055
  502 285.281 2.50530 47.7963
  503 108.409 4.07594 -0.529624
  504 108.445 4.07508 0.530101
  505 1.32217 -50.1058 -28.9563
  506 507.518 -17.6703 37.8742
  507 7.43441 -32.0169 -25.4805
  508 146.787 22.8272 18.2718
  509 146.889 22.7553 -18.1277
  510 467.017 -50.4669 39.0250
  511 37.0131 -38.4624 61.4152
  512 554.160 -67.0404 -76.2582
  513 378.769 0.694354 23.0169
  514 378.593 0.830973 -23.0286
  515 1.29359 -42.7295 30.1372
  516 -7.43379 -2.20231 -5.76431
  517 -7.43672 -2.20100 5.76818
  518 49.6609 1.79554 -0.446826
  519 49.7265 1.79532 0.446494
  520 -1.26283 -29.3745 12.6583
  521 -1.14572 -29.2399 -12.7255
  522 312.280 2.19079 5.25495
  523 312.207 2.19391 -5.25277
  524 870.281 158.608 72.0222
  525 37.7838 -18.9711 -14.4298
  526 29.4969 -26.7716 8.26249
  527 -5.98576 6.33723 -9.48274
  528 -5.88552 6.32698 9.47289
  529 -75.3002 1.18304 9.73394
  530 -75.3772 1.18435 -9.74969
  531 0.778366 -92.7615 18.0322
  532 -103.051 0.787468 0.799090
  533 -103.196 0.787529 -0.799999
  534 98.9382 -1.40752 -84.5178
  535 96.8192 0.107783 87.6267
  536 90.8256 17.2010 -30.7857
  537 90.1472 17.5879 30.9568
  538 -20.0770 -4.09012 27.7000
  539 -20.1115 -4.10896 -27.7439
  540 89.9785 7.08422 1.00513
  541 89.9303 7.08811 -1.00266
  542 -41.4047 1.76717 2.80080
  543 -41.5173 1.76830 -2.80378
  544 105.424 14.3349 0.483253
  545 105.371 14.3505 -0.466893
  546 -2.04551 -6.71484 4.93570
  547 -2.05272 -6.70926 -4.93488
  548 39.0582 16.9003 15.2034
  549 38.8003 17.1256 -15.3002
  550 31.5446 6.33074 13.0014
  551 31.1074 6.29266 -13.2699
  552 382.204 1.87833 9.66330
  553 382.095 1.89051 -9.66494
  554 339.424 3.54303 15.5926
  555 339.324 3.58272 -15.5933
  556 -0.345815 -79.3085 -11.6141
  557 239.620 10.9314 -15.7580
  558 239.671 10.9034 15.7902
  559 239.888 4.47400 -6.12967
  560 239.924 4.46743 6.13540
  561 -28.6648 0.779400 0.117615
  562 -28.5589 0.779590 -0.117800
  563 418.424 21.8947 -11.2303
  564 531.955 -64.9767 -30.1483
  565 445.738 21.1405 43.7812
  566 3.82524 -65.8249 -20.5615
  567 -20.7756 7.19765 -12.8530
  568 -20.6681 7.18510 12.8375
  569 4.12156 -37.8606 28.0850
  570 -22.8634 0.892223 31.4594
  571 -22.9332 0.887371 -31.5117
  572 680.826 65.2276 3.72389
  573 157.732 6.23571 -2.78644
  574 157.722 6.23503 2.79150
  575 1013.68 87.1951 -91.4891
  576 -4.27802 -3.27509 36.3865
  577 -3.91215 -3.00001 -36.4091
  578 562.024 -47.5078 17.6188
  579 450.936 -0.104839 -11.3011
  580 451.059 -0.159294 11.2496
  581 211.493 1.90754 -102.474
  582 213.906 1.24240 103.971
  583 -11.2750 -10.7818 31.9984
  584 -11.2879 -10.8407 -32.0877
  585 112.191 11.7841 55.9840
  586 113.123 10.9830 -55.5695
  587 -87.7090 0.990774 -9.05168
  588 -87.6025 0.989120 9.03673
  589 662.095 61.1066 30.4229
  590 129.565 10.8248 1.80481
  591 129.594 10.8204 -1.79459
  592 152.521 19.0824 -38.8110
  593 152.298 19.3093 39.1842
  594 409.656 -1.62995 -22.4306
  595 409.883 -1.82169 22.3919
  596 -1.70845 -40.8406 -28.7096
  597 442.839 -0.880050 3.40977
  598 442.696 -0.877594 -3.40900
  599 -61.1547 1.01306 -1.00344
  600 -61.0320 1.01289 1.00217
  601 -110.640 -0.909065 -0.0175278
  602 -110.789 -0.909876 0.0173651
  603 10.0364 -59.1676 -8.12375
  604 -4.07135 -26.6838 24.7985
  605 -4.29428 -25.2220 -24.9634
  606 -49.5559 3.14705 22.5148
  607 -49.6411 3.15114 -22.5534
  608 313.072 6.62524 19.8031
  609 312.967 6.68635 -19.7894
  610 231.445 1.90509 1.42121
  611 231.417 1.90574 -1.42039
  612 53.8411 -10.3699 36.7366
  613 55.4767 -9.24556 -36.4282
  614 -1.58161 -20.5093 10.7138
  615 -1.63198 -20.4460 -10.7511
  616 530.324 47.2736 230.958
  617 -26.4244 -0.789462 9.89993
  618 -26.4283 -0.793348 -9.90898
  619 10.0905 -35.5816 -19.9506
  620 226.797 7.84990 -8.39107
  621 226.828 7.84033 8.40206
  622 113.018 23.5206 -14.3364
  623 112.789 23.6676 14.4738
  624 1.07790 -138.290 6.45593
  625 85.4443 22.5533 2.33634
  626 85.3345 22.6126 -2.31203
  627 -6.26691 9.10845 15.4877
  628 -6.37355 9.12661 -15.5069
  629 -0.632085 -69.7492 15.8433
  630 -111.223 0.0248374 -3.21213
  631 -111.077 0.0246375 3.20876
  632 150.653 2.95860 1.02672
  633 150.667 2.95913 -1.02518
  634 372.478 0.280171 6.47142
  635 372.374 0.286076 -6.47020
  636 331.204 -18.2408 176.651
  637 266.692 5.55023 -12.3075
  638 266.750 5.52883 12.3203
  639 5.16673 -4.49989 33.1914
  640 6.19222 -2.18232 -33.0727
  641 424.231 -38.4222 -143.570
  642 982.727 33.2765 -37.9992
  643 -103.281 0.0373361 -6.19429
  644 -103.153 0.0363291 6.18518
  645 28.5651 5.04087 -4.12158
  646 28.6443 5.03645 4.11908
  647 -1.89844 -43.5160 25.4521
  648 575.590 36.6291 -51.9621
  649 437.740 -1.08541 0.612741
  650 437.598 -1.08449 -0.612167
  651 -28.0430 -1.44820 -22.8714
  652 -28.0092 -1.44042 22.8398
  653 -0.0932694 -98.7916 -15.0627
  654 445.163 -1.05708 1.31632
  655 445.018 -1.05607 -1.31526
  656 44.1416 13.7500 10.0544
  657 44.0514 13.7735 -10.0580
  658 344.394 -28.3616 -94.8679
  659 350.379 -28.2154 95.8574
  660 497.246 -3.49044 7.95452
  661 497.266 -3.46123 -8.25078
  662 2.21433 -123.664 11.3861
  663 -23.6836 0.495331 -1.59872
  664 -23.5802 0.495487 1.59729
  665 165.167 28.6008 -169.123
  666 156.569 2.51974 1.37539
  667 156.579 2.51976 -1.37450
  668 78.9928 4.86182 0.211954
  669 78.9412 4.86383 -0.211210
  670 93.1714 9.13290 -0.303242
  671 93.2201 9.12671 0.308734
  672 294.212 7.39469 -30.6526
  673 294.377 7.27774 30.7336
  674 80.1079 22.9588 -1.55661
  675 79.8633 23.1183 1.58313
  676 -50.4600 3.75907 -12.3585
  677 -50.3447 3.75102 12.3419
  678 -59.4515 4.11962 -14.2427
  679 -59.3370 4.11170 14.2211
  680 512.033 -7.93786 -0.659899
  681 1.03351 -19.7157 -34.3029
  682 512.606 -8.32411 0.00374996
  683 655.660 50.6201 -3.15281
  684 -63.9533 0.312379 11.1088
  685 -64.0130 0.312014 -11.1265
  686 69.7304 20.4814 -6.59293
  687 69.2350 20.7183 6.63246
  688 -119.306 0.00839549 -1.06798
  689 -119.153 0.00851942 1.06669
  690 1.47847 -17.6302 34.3047
  691 -39.6783 0.635188 23.9044
  692 -39.7392 0.632512 -23.9425
  693 562.971 -44.3329 -19.7081
  694 92.3618 1.47465 -0.802965
  695 92.3182 1.47453 0.803442
  696 23.6110 7.78211 7.19523
  697 23.5251 7.79172 -7.19972
  698 300.886 -12.8730 -79.6907
  699 303.043 -13.3819 81.1591
  700 1023.75 73.3180 82.8631
  701 20.9000 -86.3537 -37.4420
  702 -7.15865 -15.2590 34.1219
  703 -7.16635 -15.3249 -34.2060
  704 65.9089 13.4288 -4.83788
  705 65.9812 13.4116 4.84183
  706 457.637 -0.920267 -3.45835
  707 457.786 -0.923173 3.45751
  708 221.476 2.70731 2.68231
  709 221.452 2.70938 -2.68020
  710 20.1802 16.4240 23.5283
  711 20.0488 16.4726 -23.5755
  712 14.7228 3.61443 2.88372
  713 14.6383 3.61662 -2.88587
  714 -11.9946 3.51520 34.3863
  715 -12.0948 3.50997 -34.4636
  716 377.632 -1.00440 2.75665
  717 377.524 -1.00217 -2.75536
  718 328.082 1.93640 7.43212
  719 328.002 1.94280 -7.42968
  720 45.8004 -23.5328 43.6392
  721 47.0586 -25.5878 -42.2874
  722 -24.2575 5.69079 29.9714
  723 -24.3559 5.69606 -30.0305
  724 14.4022 -28.8469 15.0833
  725 2.49523 10.2732 31.1376
  726 2.33583 10.2971 -31.1863
  727 -70.0526 1.92336 -8.13050
  728 -69.9286 1.91993 8.11995
  729 60.1048 18.1421 8.90696
  730 60.0026 18.1810 -8.90304
  731 508.177 -15.0960 -25.4232
  732 481.035 -41.2903 -14.6997
  733 -7.63527 -15.6526 24.4174
  734 -7.62718 -15.7297 -24.3897
  735 189.840 2.84212 -120.828
  736 185.029 6.75118 121.850
  737 116.616 22.1997 -20.9070
  738 116.313 22.4149 21.1106
  739 10.6410 -16.7268 26.6596
  740 -0.668987 -51.8404 -13.8538
  741 240.224 12.3808 -29.1851
  742 240.326 12.3169 29.3227
  743 0.592203 -101.493 12.7233
  744 144.632 18.9575 -9.15613
  745 144.589 18.9764 9.21342
  746 481.313 -0.781835 -8.54002
  747 481.399 -0.837665 8.44087
  748 9.87807 -131.909 4.99437
  749 221.319 15.5029 22.3143
  750 221.268 15.5369 -22.2281
  751 61.4565 21.5794 -3.71162
  752 61.7736 21.3692 3.67649
  753 -86.7153 0.569174 -7.68325
  754 -86.6232 0.568519 7.66993
  755 244.346 3.15010 -5.28077
  756 244.383 3.14610 5.28451
  757 152.738 21.1575 -15.5186
  758 152.676 21.1959 15.6250
  759 3.08325 13.1291 23.7397
  760 2.96058 13.1638 -23.7778
  761 482.458 -35.3932 8.76129
  762 -72.0820 1.44793 6.14441
  763 -72.2089 1.44965 -6.15060
  764 1022.48 208.399 -148.030
  765 -25.1917 2.56702 6.25232
  766 -25.2970 2.57006 -6.25804
  767 409.276 0.438027 15.8785
  768 409.145 0.503909 -15.9116
  769 760.288 46.3200 -0.315018
  770 461.338 -1.62265 -6.47178
  771 461.478 -1.63304 6.46171
  772 297.923 3.31988 9.43587
  773 297.856 3.33068 -9.43159
  774 444.596 -46.7662 130.979
  775 195.627 13.2053 -9.05066
  776 195.642 13.1969 9.07622
  777 4.64859 -74.4720 14.4355
  778 509.318 -61.6978 45.4988
  779 309.807 -0.118322 1.59235
  780 309.736 -0.116969 -1.59159
  781 403.476 -0.417449 0.843931
  782 403.354 -0.416714 -0.843329
  783 -1.75819 -40.6520 -23.8547
  784 2.61025 -68.1916 22.4212
  785 185.960 20.1152 30.9909
  786 185.980 20.0947 -30.7696
  787 1010.25 9.15928 9.18044
  788 316.606 2.05361 -37.9810
  789 316.818 1.91370 38.0826
  790 -63.7937 2.11290 16.7188
  791 -63.8971 2.11811 -16.7458
  792 14.0229 -52.9728 2.63187
  793 8.99648 -122.337 -11.2172
  794 716.373 93.7019 -16.8257
  795 -0.613003 -51.7181 12.5107
  796 16.0965 11.1409 27.5057
  797 16.0408 11.1326 -27.6538
  798 99.0356 18.4294 0.981232
  799 98.9668 18.4591 -0.959100
  800 478.136 -22.0757 -9.14996
  801 479.225 -21.7683 7.66954
  802 557.251 96.7141 -219.098
  803 -73.9846 0.634309 -2.63139
  804 -73.8559 0.633831 2.62839
  805 -36.2256 -0.130422 9.30163
  806 -36.2385 -0.132122 -9.31284
  807 36.3284 4.46407 6.30928
  808 35.5714 4.42942 -6.40020
  809 364.170 -2.65992 34.1051
  810 363.906 -2.37650 -34.0141
  811 187.437 3.89565 -1.77613
  812 187.444 3.89447 1.77833
  813 585.444 -5.39229 47.2316
  814 64.9776 9.26506 -4.37383
  815 65.0437 9.25589 4.37538
  816 59.6010 9.67983 -12.5854
  817 59.0715 9.94273 12.7077
  818 0.0402433 -39.5183 -31.5885
  819 818.018 137.565 124.935
  820 -117.332 0.0791525 -3.23581
  821 -117.186 0.0789888 3.23185
  822 -0.171340 -123.099 11.8064
  823 9.48822 -16.5667 -27.0323
  824 -18.0803 -1.08756 6.96284
  825 -18.0742 -1.09051 -6.96575
  826 659.466 43.2446 -29.4149
  827 175.137 16.2927 -11.4280
  828 175.132 16.2931 11.4812
  829 453.058 -7.17070 -17.2551
  830 453.497 -7.22916 17.0372
  831 -112.518 0.803825 4.38139
  832 -112.657 0.804947 -4.38755
  833 -0.830368 -0.858114 -0.716145
  834 -0.832054 -0.859639 0.718997
  835 0.342779 -125.830 -11.4693
  836 0.573661 -131.393 -10.0416
  837 -122.633 1.11743 0.600305
  838 -122.788 1.11775 -0.600829
  839 71.3940 -13.6347 -81.3506
  840 282.434 2.39103 -2.88026
  841 282.490 2.38942 2.88167
  842 -5.34496 1.79532 0.780452
  843 -5.43886 1.79560 -0.780995
  844 416.336 0.500663 -10.4794
  845 416.459 0.478772 10.4666
  846 -47.5535 0.322659 8.82541
  847 -47.5800 0.322659 -8.83726
  848 255.504 9.52919 -179.414
  849 437.497 -36.8487 38.1071
  850 342.270 0.661922 -3.42288
  851 342.358 0.659851 3.42428
  852 433.699 -40.0039 -42.3211
  853 138.227 14.2710 -4.31281
  854 138.197 14.2778 4.33814
  855 189.400 11.2517 -7.03637
  856 189.409 11.2464 7.05304
  857 507.822 -10.7028 19.4560
  858 33.2740 18.7184 18.8294
  859 33.1265 18.7869 -18.8896
  860 35.6493 1.59435 1.27190
  861 35.5762 1.59462 -1.27278
  862 241.069 2.01181 2.48788
  863 241.034 2.01331 -2.48635
  864 622.596 -51.4351 75.9849
  865 391.521 1.45374 -13.8359
  866 391.642 1.41307 13.8187
  867 9.07441 5.45758 5.65866
  868 8.98450 5.46325 -5.66302
  869 391.706 -1.07154 3.95581
  870 391.591 -1.06868 -3.95430
  871 -69.3401 0.181298 -1.85703
  872 -69.2130 0.181735 1.85590
  873 -0.329060 -39.6531 11.1827
  874 -0.437023 -40.2726 -11.2653
  875 475.766 -5.83823 47.5925
  876 -26.9919 7.32831 25.0345
  877 -27.1000 7.34473 -25.0794
  878 -0.151725 -65.1561 -12.3003
  879 189.268 5.89338 -3.70941
  880 189.275 5.89174 3.71388
  881 345.937 -17.1414 -61.0105
  882 348.516 -18.9452 61.5923
  883 -14.2337 -4.80976 -34.2216
  884 -14.1650 -4.80749 34.1433
  885 20.9864 16.3661 21.5041
  886 20.8583 16.4113 -21.5377
  887 1.62237 -146.852 7.85897
  888 6.48354 13.0776 28.2525
  889 6.34536 13.1102 -28.3020
  890 319.806 -5.82337 -54.3204
  891 319.087 -6.04503 54.7472
  892 551.958 32.6671 54.4994
  893 129.005 13.2172 2.52100
  894 129.038 13.2108 -2.50475
  895 401.229 1.73384 -10.3149
  896 401.346 1.71746 10.3090
  897 -15.4420 -6.61327 30.2206
  898 -15.4748 -6.64107 -30.2797
  899 1.44521 -150.202 -4.64243
  900 -23.7712 -1.43352 29.5541
  901 -23.8233 -1.43928 -29.6025
  902 17.9131 14.5438 -16.6888
  903 18.0236 14.5112 16.6689
  904 -1.23096 -10.0384 5.54136
  905 -1.24510 -10.0287 -5.54982
  906 36.9931 16.4024 -14.5696
  907 37.1071 16.3619 14.5568
  908 8.18896 -10.7491 30.4462
  909 7.19008 -9.99031 -32.1453
  910 391.759 -11.5986 34.9203
  911 390.852 -11.0918 -35.0755
  912 -125.383 0.281470 -0.882415
  913 -125.227 0.281495 0.881561
  914 -11.1498 -0.991409 5.25482
  915 -11.1404 -0.993248 -5.25368
  916 0.519118 -92.4930 -11.1675
  917 -11.8533 -5.05378 -14.9026
  918 -11.8476 -5.04052 14.9022
  919 -48.8837 4.24073 21.4836
  920 -48.9826 4.24909 -21.5210
  921 124.772 23.1821 -9.66659
  922 124.665 23.2567 9.74928
  923 526.860 40.7099 -7.42221
  924 -3.78019 11.5920 21.5589
  925 -3.89579 11.6194 -21.5913
  926 195.642 12.7512 -57.6334
  927 195.624 12.9287 58.2230
  928 -20.6435 7.96787 17.3244
  929 -20.7537 7.98583 -17.3497
  930 626.325 -26.0392 -4.74028
  931 390.728 15.5645 23.7269
  932 461.841 -5.13006 -43.0325
  933 342.814 3.63739 -23.0966
  934 342.956 3.54173 23.1052
  935 -33.3685 4.58776 -8.22981
  936 -33.2589 4.58105 8.22025
  937 -79.8558 1.40122 10.5887
  938 -79.9739 1.40470 -10.6054
  939 -4.86328 -15.8085 -17.2785
  940 -4.82749 -15.8195 17.3079
  941 124.068 6.99468 1.49750
  942 124.096 6.99274 -1.49319
  943 -37.1485 4.05127 26.8295
  944 -37.2339 4.05343 -26.8783
  945 408.227 -0.778629 5.13934
  946 408.104 -0.775252 -5.13794
  947 -3.00420 -34.5403 25.9657
  948 17.8644 13.2334 -14.2232
  949 17.9678 13.2077 14.2086
  950 24.0142 8.94014 9.06595
  951 23.9247 8.95348 -9.07245
  952 73.7617 5.87907 -1.73798
  953 73.8171 5.87568 1.73832
  954 765.424 104.333 -28.8968
  955 -3.09412 -0.838172 -2.10105
  956 -3.10074 -0.838042 2.10482
  957 27.9122 8.63824 -17.5101
  958 28.3764 8.43026 17.4156
  959 278.001 10.1168 -24.6758
  960 278.113 10.0398 24.7338
  961 38.2550 11.3552 -8.46331
  962 38.3412 11.3384 8.45940
  963 76.8158 -6.29478 106.679
  964 516.724 -3.89990 -4.64741
  965 516.098 -3.75706 4.19594
  966 94.3427 -2.73784 93.9123
  967 99.6531 3.38125 -0.636275
  968 99.6130 3.38202 0.636894
  969 254.211 -4.62369 -155.343
  970 191.949 2.25733 1.32865
  971 191.941 2.25760 -1.32783
  972 25.1272 -22.2737 2.80907
  973 27.7631 -18.2859 -0.720321
  974 456.655 -0.680591 1.76116
  975 456.503 -0.679702 -1.75991
  976 -37.4278 0.177326 21.8127
  977 -37.4733 0.174638 -21.8440
  978 820.329 103.616 50.7366
  979 -3.27596 -25.4740 -33.9705
  980 4.50097 -122.654 17.1937
  981 -0.442761 -40.6418 31.2450
  982 472.610 -0.648282 -6.60286
  983 472.740 -0.663503 6.58181
  984 -6.23628 -11.4434 14.9491
  985 -6.25431 -11.4455 -14.9358
  986 596.513 63.4183 -27.8371
  987 1023.97 8.22355 -6.12788
  988 -1.54833 -2.36902 -2.28671
  989 -1.54657 -2.37403 2.29002
  990 277.525 2.18031 -5.42335
  991 277.579 2.17670 5.42614
  992 -3.33888 -24.4426 34.1196
  993 384.529 0.917396 20.4683
  994 384.385 1.01562 -20.4893
  995 505.599 -32.8876 -17.7319
  996 -17.5550 -3.61996 16.8146
  997 -17.5636 -3.63411 -16.8249
  998 8.85026 -31.1924 23.2043
  999 -0.740800 -61.7136 24.5375
  1000 -0.0760947 -64.6661 12.2900
  1001 525.127 33.3887 -3.16709
  1002 596.285 65.5621 14.5067
  1003 425.144 -47.3815 -73.3470
  1004 6.38655 -58.9566 18.5584
  1005 8.02067 -84.2116 2.65489
  1006 120.623 2.04676 0.217871
  1007 120.594 2.04680 -0.217882
  1008 -4.69671 -5.35840 -7.17292
  1009 -4.69228 -5.35900 7.17820
  1010 4.33504 -48.4658 -25.4245
  1011 341.703 -0.415573 -1.25768
  1012 341.790 -0.416839 1.25829
  1013 70.5540 2.41719 -36.6279
  1014 67.5530 2.57498 36.2806
  1015 -4.73525 10.7555 28.7257
  1016 -4.86707 10.7844 -28.7838
  1017 -38.3325 6.06715 -17.7724
  1018 -38.2213 6.05418 17.7453
  1019 263.553 4.19884 -55.8865
  1020 263.672 4.44264 56.4676
  1021 190.651 16.5640 -39.8265
  1022 190.611 16.5714 40.1707
  1023 206.213 13.8284 -13.8598
  1024 206.237 13.8106 13.8995
  1025 531.144 -13.0012 -54.6171
  1026 -12.7534 6.74284 31.8550
  1027 -12.8706 6.75130 -31.9309
  1028 375.510 -1.18903 28.1117
  1029 375.295 -0.976344 -28.1018
  1030 -2.06446 -18.8296 35.4411
  1031 -30.1404 -0.963278 16.1795
  1032 -30.1598 -0.968492 -16.1986
  1033 342.585 2.25650 -28.0205
  1034 342.763 2.12023 28.0436
  1035 430.449 10.9850 -39.4023
  1036 -0.401135 -61.2850 -25.7292
  1037 -4.87079 -24.0862 30.7383
  1038 -5.08042 -24.3897 -30.4873
  1039 243.040 13.1731 -20.6684
  1040 243.110 13.1262 20.7308
  1041 304.856 4.58832 11.6444
  1042 304.782 4.60541 -11.6395
  1043 504.564 -32.1288 15.2571
  1044 28.2671 1.90538 -0.338781
  1045 28.3436 1.90507 0.338500
  1046 429.688 -52.9622 78.2092
  1047 0.895560 1.22158 1.83072
  1048 0.804666 1.22186 -1.83219
  1049 95.1998 23.4411 -1.66490
  1050 95.0639 23.5229 1.70808
  1051 37.3746 18.5329 16.0318
  1052 37.2492 18.5820 -16.0514
  1053 4.90022 -73.6247 -15.0599
  1054 126.823 3.81713 0.791755
  1055 126.849 3.81696 -0.789494
  1056 382.224 12.2061 9.82562
  1057 345.207 1.70265 10.7272
  1058 345.115 1.71916 -10.7267
  1059 -1.69725 -19.6032 -35.5059
  1060 518.415 -6.72204 -9.63242
  1061 0.781626 -1.03800 34.8776
  1062 1.17961 -0.761608 -34.6987
  1063 469.581 -1.05487 -3.65922
  1064 469.734 -1.05845 3.65624
  1065 500.711 -1.96573 -6.45080
  1066 500.681 -2.02681 6.29733
  1067 -0.377187 -97.8851 9.21135
  1068 296.625 6.49143 -15.3659
  1069 296.701 6.46215 15.3752
  1070 359.508 2.38899 12.4252
  1071 359.407 2.41091 -12.4275
  1072 9.36822 9.06508 30.9623
  1073 9.31510 9.06525 -31.0065
  1074 778.767 50.5369 9.17355
  1075 -9.38676 -3.86159 36.2751
  1076 -9.54652 -3.77095 -36.3728
  1077 114.366 21.4181 -3.02193
  1078 114.296 21.4562 3.06195
  1079 -59.4454 0.893028 -2.94463
  1080 -59.3238 0.892645 2.94190
  1081 186.547 11.5140 -66.2246
  1082 186.271 12.0216 66.9643
  1083 55.0690 20.9436 11.7539
  1084 54.9331 21.0056 -11.7627
  1085 127.377 15.7771 -49.6980
  1086 126.725 16.3874 50.0813
  1087 -3.21678 -32.4550 -25.3157
  1088 446.007 6.76427 52.3997
  1089 309.770 7.01557 200.577
  1090 51.7967 21.7024 12.1020
  1091 51.6390 21.7833 -12.1246
  1092 188.702 8.92361 -5.44908
  1093 188.709 8.91881 5.46013
  1094 672.765 8.19463 9.47485
  1095 45.1095 12.2148 6.39735
  1096 44.5489 12.3460 -6.57601
  1097 -19.8664 -4.28773 22.3131
  1098 -19.8853 -4.30850 -22.3380
  1099 -0.650573 -14.9736 6.03918
  1100 -0.676798 -14.9651 -6.06373
  1101 442.863 -1.08082 16.3786
  1102 442.683 -0.924794 -16.4783
  1103 0.952003 -30.5065 33.1394
  1104 -29.7097 2.07698 -29.4094
  1105 -29.6390 2.08133 29.3599
  1106 0.143322 -117.860 -11.5554
  1107 -6.48024 -9.22333 36.2246
  1108 -6.45916 -9.01610 -36.2632
  1109 422.844 -0.0783939 -6.89670
  1110 422.972 -0.0858785 6.89486
  1111 437.346 -4.01559 19.8374
  1112 437.032 -3.76150 -19.9342
  1113 78.5426 18.2042 -18.3473
  1114 77.9499 18.5293 18.4808
  1115 -1.00192 -60.7270 -21.0589
  1116 574.411 -47.1552 -118.875
  1117 743.976 102.342 12.7133
  1118 8.06119 -88.5092 0.370585
  1119 28.4354 15.8673 -21.7906
  1120 28.6019 15.7841 21.6620
  1121 73.8229 23.2947 4.05052
  1122 73.6430 23.4008 -4.04155
  1123 153.910 8.09012 2.64070
  1124 153.923 8.09076 -2.63297
  1125 -9.48980 -13.5177 28.8349
  1126 -9.47754 -13.6508 -28.8838
  1127 -25.8950 8.53243 22.9283
  1128 -26.0058 8.55141 -22.9658
  1129 -8.16821 10.9488 26.5193
  1130 -8.29035 10.9757 -26.5680
  1131 418.907 -21.5024 -34.5281
  1132 421.518 -21.6385 34.2923
  1133 0.468250 -69.1886 -24.3316
  1134 226.115 0.526968 -82.2745
  1135 226.422 1.21932 83.5639
  1136 73.8277 20.9567 -5.29097
  1137 73.9298 20.9072 5.30341
  1138 222.757 121.558 223.587
  1139 58.3673 16.6440 8.56699
  1140 58.2752 16.6742 -8.56475
  1141 568.896 -59.3540 -31.8143
  1142 217.528 4.95906 4.29272
  1143 217.505 4.96300 -4.28808
  1144 -9.63360 -8.56763 17.7400
  1145 -9.64144 -8.58912 -17.7360
  1146 -11.4565 -10.2455 22.8894
  1147 -11.4582 -10.2875 -22.8946
  1148 376.011 -36.2932 -114.292
  1149 383.246 -40.0961 115.107
  1150 70.2021 1.90500 1.11744
  1151 70.2573 1.90478 -1.11682
  1152 237.808 10.7408 -45.7676
  1153 237.792 10.6142 46.1963
  1154 511.894 -65.5890 88.4941
  1155 453.116 -1.23445 1.01318
  1156 452.965 -1.23349 -1.01232
  1157 -39.0856 6.36519 20.5160
  1158 -39.1951 6.37837 -20.5489
  1159 -67.8345 2.02103 -10.5981
  1160 -67.7129 2.01669 10.5849
  1161 119.464 8.86586 136.962
  1162 369.572 24.1564 -19.9957
  1163 217.533 14.6615 -23.1926
  1164 217.586 14.6290 23.3059
  1165 660.791 -11.4897 128.644
  1166 221.157 14.2844 -33.7651
  1167 221.220 14.2240 33.9614
  1168 57.5256 6.39521 -2.91244
  1169 57.5906 6.39064 2.91202
  1170 19.7458 -65.1677 15.4041
  1171 19.9437 -63.2291 -20.6683
  1172 298.693 -19.1380 -115.459
  1173 302.656 -17.7876 115.316
  1174 118.543 20.1583 -35.4416
  1175 118.043 20.5453 35.7534
  1176 521.951 -33.6731 -34.7327
  1177 -18.4143 -1.31134 33.2274
  1178 -18.4845 -1.31207 -33.2878
  1179 -0.0496929 -27.1881 -34.0689
  1180 135.611 6.64434 -87.2019
  1181 135.895 7.00061 88.6012
  1182 -0.332044 -26.4947 6.71739
  1183 -0.284087 -26.5600 -6.80142
  1184 -123.078 1.00541 -3.07219
  1185 -122.931 1.00467 3.06813
  1186 412.735 -0.746786 -1.97861
  1187 412.862 -0.748294 1.97972
  1188 257.920 8.45543 -13.5215
  1189 257.979 8.42861 13.5417
  1190 -8.61014 0.398996 36.1339
  1191 -8.63676 0.549913 -36.2054
  1192 0.00517987 -105.580 -10.2166
  1193 -105.022 0.228547 5.07860
  1194 -105.142 0.229158 -5.08705
  1195 84.4941 1.88322 -62.1832
  1196 83.8878 2.40655 64.0464
  1197 484.168 -29.4862 -3.62003
  1198 141.080 10.9709 -78.4883
  1199 141.162 11.2980 79.1874
  1200 -58.8151 0.325100 8.00332
  1201 -58.8557 0.324685 -8.01516
  1202 1.62494 -90.6705 -16.6352
  1203 -14.3134 3.28713 -3.73118
  1204 -14.2142 3.28485 3.72792
  1205 75.7283 17.4573 5.73385
  1206 75.6418 17.4894 -5.72298
  1207 273.546 0.500899 -1.72820
  1208 273.597 0.499711 1.72909
  1209 366.960 0.923132 8.15064
  1210 366.859 0.933319 -8.15046
  1211 21.2507 -1.16427 18.1878
  1212 20.9366 -1.51982 -18.5721
  1213 3.70603 -51.6885 25.5053
  1214 659.261 93.0742 17.3940
  1215 -20.2597 -1.55552 12.7606
  1216 -20.2643 -1.56243 -12.7688
  1217 2.95653 -48.4195 -26.8411
  1218 -1.90048 -30.6754 18.6358
  1219 -1.80984 -30.3732 -19.3032
  1220 520.335 -5.75330 8.51474
  1221 0.448279 -120.590 10.4202
  1222 4.20332 -35.2883 -29.9677
  1223 65.3405 1.32916 0.548353
  1224 65.2830 1.32909 -0.548670
  1225 -4.89698 -21.4522 33.6780
  1226 -54.8710 3.07000 -8.82796
  1227 -54.7526 3.06565 8.81787
  1228 1043.30 17.5886 30.2380
  1229 -29.1997 3.65078 29.5976
  1230 -29.2834 3.64952 -29.6520
  1231 253.700 9.66725 -41.3463
  1232 253.888 9.50390 41.5759
  1233 17.1662 -22.4836 -11.0820
  1234 241.138 11.3369 -17.1245
  1235 241.196 11.3007 17.1678
  1236 10.3237 -70.0122 -2.01221
  1237 -4.91798 -21.5069 -33.6377
  1238 -37.1114 1.30521 5.07967
  1239 -37.2220 1.30665 -5.08426
  1240 -17.4673 1.69331 -33.8426
  1241 -17.3815 1.70004 33.7851
  1242 516.605 41.9204 38.2605
  1243 292.702 2.80451 -43.4624
  1244 293.018 2.73928 43.5690
  1245 -128.191 0.250094 -1.05027
  1246 -128.034 0.250009 1.04895
  1247 263.311 5.34787 -9.12432
  1248 263.360 5.33852 9.13090
  1249 -130.990 -2.34228 -0.366749
  1250 -131.150 -2.34370 0.366874
  1251 392.011 -27.6706 -49.8210
  1252 -60.8720 1.06838 16.7738
  1253 -60.9491 1.06875 -16.8021
  1254 395.825 -29.2110 49.3739
  1255 268.119 8.76548 -18.3307
  1256 268.192 8.72242 18.3582
  1257 32.1040 -60.6166 -61.5135
  1258 0.592428 -83.7487 -20.7855
  1259 -1.59917 -35.0855 31.5438
  1260 827.240 151.248 -126.837
  1261 -0.178687 -78.8792 20.4778
  1262 864.943 81.9005 -56.3013
  1263 -0.527470 -146.359 -9.59294
  1264 45.1561 3.64126 -0.767869
  1265 45.2248 3.63946 0.767416
  1266 -0.357858 -33.9972 7.03616
  1267 -0.286035 -34.1808 -7.01944
  1268 151.214 2.84121 0.415662
  1269 151.228 2.84131 -0.414966
  1270 527.312 -38.6909 32.8150
  1271 13.7403 3.51932 -4.32057
  1272 13.8259 3.51654 4.31755
  1273 3.04006 -157.804 3.78259
  1274 1.93401 -168.387 -3.77204
  1275 484.896 -58.5455 -54.2077
  1276 -1.29696 -43.7716 20.5285
  1277 512.686 34.2465 -49.1181
  1278 -1.50781 -57.6731 20.1396
  1279 1.03952 -156.605 -7.05604
  1280 246.117 5.97495 -10.1599
  1281 246.161 5.95774 10.1726
  1282 -0.196362 -86.3166 9.09814
  1283 -0.202325 -71.2479 -20.4386
  1284 1127.50 205.223 175.548
  1285 455.120 0.0469871 0.762542
  1286 454.969 0.0471424 -0.761996
  1287 13.2195 2.00375 27.8246
  1288 12.8184 2.49628 -27.9664
  1289 -5.91899 7.06282 33.5958
  1290 -6.09784 7.06826 -33.6876
  1291 490.982 -8.78012 -30.5841
  1292 453.203 -19.2498 -20.2524
  1293 452.811 -21.8364 20.5233
  1294 70.7098 7.29449 2.80281
  1295 70.6498 7.29999 -2.80152
  1296 -72.8540 1.93000 -12.8733
  1297 -72.7422 1.92576 12.8519
  1298 505.089 -66.6273 -75.9750
  1299 -3.75344 -9.12678 9.34709
  1300 -3.76839 -9.12118 -9.34348
  1301 533.919 -21.3027 51.5784
  1302 -5.47982 -20.8323 24.9950
  1303 -5.41829 -20.9116 -24.8815
  1304 -44.4842 2.88456 6.11136
  1305 -44.5984 2.88785 -6.11781
  1306 82.8787 11.0585 -33.4150
  1307 82.0534 11.5155 33.3813
  1308 129.199 2.70784 0.108914
  1309 129.174 2.70783 -0.108434
  1310 -49.9875 5.10073 20.3973
  1311 -50.0922 5.11045 -20.4304
  1312 427.756 0.641410 1.18486
  1313 427.620 0.641347 -1.18407
  1314 239.719 1.50541 153.745
  1315 351.090 -0.0352181 2.89211
  1316 350.997 -0.0337367 -2.89069
  1317 236.557 5.16247 -62.9843
  1318 236.567 4.90036 63.5018
  1319 2.34725 -90.4596 -11.2347
  1320 93.0933 22.3557 -15.4254
  1321 92.6908 22.6138 15.5662
  1322 -0.915639 -0.802977 -1.18625
  1323 -0.920245 -0.803160 1.18969
  1324 302.426 8.18135 23.4630
  1325 302.311 8.26432 -23.4325
  1326 152.249 11.3701 4.49973
  1327 152.265 11.3694 -4.48396
  1328 222.555 11.3927 -11.9280
  1329 222.590 11.3734 11.9550
  1330 289.298 0.761493 -2.91518
  1331 289.357 0.760130 2.91665
  1332 -9.16465 -4.41339 -10.5439
  1333 -9.16198 -4.40750 10.5481
  1334 -84.8442 -0.0367743 3.61741
  1335 -84.9778 -0.0364502 -3.62143
  1336 -15.4429 -7.00672 -25.5337
  1337 -15.4275 -6.96983 25.5033
  1338 -46.5303 0.492370 1.48193
  1339 -46.6455 0.492116 -1.48313
  1340 -132.632 1.17585 0.593426
  1341 -132.792 1.17628 -0.593937
  1342 541.741 -64.1532 102.622
  1343 402.181 -1.96438 -43.0003
</Section>

newXOutput 65

<Section columns = "stress_xx | stress_yy | stress_xy">
  1 475.267 -0.838833 0.504237
  2 475.429 -0.839465 -0.504491
  3 -145.647 0.655034 -2.00281
  4 0.231678 0.0540044 0.413878
  5 853.356 263.721 284.445
  6 965.140 296.824 -274.060
  7 0.230567 0.0530022 -0.412400
  8 -145.475 0.654898 2.00175
  9 473.880 -0.802100 -1.57880
  10 474.296 -1.56093 -2.53746
  11 478.743 -1.56201 -0.702550
  12 479.291 -1.53256 -3.01746
  13 480.621 -1.51620 -0.984955
  14 490.556 -1.41121 -1.34666
  15 494.103 -1.99610 -4.05250
  16 498.031 -1.02242 -2.80665
  17 500.643 -0.0385039 -5.41028
  18 520.730 -3.02830 -4.62922
  19 529.633 -2.41144 -5.92120
  20 539.614 -3.54169 -2.50189
  21 544.676 -4.60970 -1.66501
  22 541.924 -5.22143 6.41984
  23 525.051 -5.74835 13.8336
  24 485.113 -6.18890 30.0074
  25 419.437 3.86643 35.0632
  26 365.966 4.84251 32.3915
  27 290.877 9.22716 19.6040
  28 308.550 8.96363 2.02995
  29 261.828 26.3591 -12.3347
  30 348.924 12.2756 -35.6569
  31 396.078 3.23072 -29.0801
  32 476.127 -1.20691 -25.2105
  33 519.661 -6.97145 -16.6642
  34 541.292 -6.07461 -6.36569
  35 543.790 -4.47469 1.70753
  36 539.024 -3.49833 2.36900
  37 529.439 -2.42517 5.76254
  38 520.714 -3.06388 4.54045
  39 500.749 -0.0583186 5.37038
  40 498.176 -1.02989 2.79271
  41 494.267 -2.00107 4.04913
  42 490.725 -1.41389 1.34536
  43 480.788 -1.51807 0.985054
  44 479.457 -1.53418 3.01955
  45 478.909 -1.56326 0.703300
  46 474.458 -1.56204 2.53928
  47 474.042 -0.802725 1.57993
  48 448.864 0.891297 -0.606305
  49 416.357 -0.0259565 -1.32363
  50 375.611 -1.95298 -1.29876
  51 333.242 0.425305 -1.08019
  52 295.994 0.0364726 -0.853380
  53 256.025 1.30565 -1.00477
  54 216.462 3.38837 -0.581840
  55 175.277 2.95896 -1.25835
  56 141.039 1.88530 -1.78138
  57 96.0023 0.987931 -1.87721
  58 50.1654 2.01810 -1.43609
  59 11.8478 1.69326 -1.38910
  60 -36.0397 0.916010 -1.25858
  61 -71.6514 -0.642350 -3.15814
  62 -106.163 -2.45618 -1.43424
  63 -141.216 0.255411 0.998692
  64 -148.863 2.54562 -0.332077
  65 -149.471 1.10393 0.495671
  66 -144.535 0.528951 -0.117092
  67 -146.345 1.62676 -1.74904
  68 -144.138 1.98946 -0.0725083
  69 -136.436 0.588848 -2.70782
  70 -138.333 1.23104 -2.92690
  71 -135.003 1.16097 -1.60129
  72 -125.086 0.712620 -2.45997
  73 -120.712 1.32180 -4.12977
  74 -113.485 1.49104 -3.36061
  75 -100.567 0.755988 -5.92550
  76 -93.3467 0.235324 -4.94744
  77 -80.1976 0.337191 -5.74065
  78 -68.9122 0.274404 -6.38873
  79 -59.0178 0.0986902 -5.04382
  80 -45.2171 0.302390 -5.09083
  81 -33.2941 -0.115763 -5.45988
  82 -21.7515 -0.586507 -4.81351
  83 -12.5861 -0.515676 -3.69969
  84 -6.20755 -0.912646 -3.10019
  85 -1.07084 -0.528390 -1.11762
  86 0.0459917 -0.593503 -0.406157
  87 -0.319165 -0.332211 -0.0892456
  88 -0.828113 -0.874390 -0.980634
  89 -0.805027 -5.25732 -2.69537
  90 -0.680930 -11.7397 -3.82514
  91 -0.347686 -19.9643 -5.56790
  92 -0.174972 -30.6312 -4.79777
  93 -0.133759 -40.4018 -6.03420
  94 -0.731717 -52.2754 -6.79325
  95 -0.300281 -66.9710 -6.83966
  96 0.137994 -81.7674 -6.53910
  97 0.318373 -97.5979 -6.44141
  98 0.496497 -113.832 -6.31661
  99 0.00870927 -125.619 -8.53460
  100 0.822438 -142.528 -7.62463
  101 1.02586 -162.282 -6.01128
  102 -0.120915 -170.622 -7.96965
  103 1.45224 -184.620 -7.32942
  104 3.64386 -203.168 -3.12177
  105 7.14982 -207.212 -4.96995
  106 5.22964 -186.295 6.59654
  107 7.94960 -134.906 24.0611
  108 37.5933 -65.3304 66.0848
  109 115.263 194.445 211.727
  110 1308.28 72.4439 131.505
  111 1125.93 20.8350 47.4383
  112 1089.68 7.21569 11.0017
  113 1081.73 1.99371 -1.73395
  114 1089.29 11.3768 -24.9927
  115 1124.75 38.0614 -56.5753
  116 1274.79 141.755 -167.275
  117 278.612 152.532 -257.758
  118 63.8704 -64.9927 -79.2759
  119 18.9378 -147.886 -30.4036
  120 5.32106 -176.119 -6.97294
  121 5.79720 -199.166 2.25773
  122 1.62182 -195.033 2.20742
  123 0.543232 -179.964 6.12144
  124 0.613520 -169.771 4.82330
  125 0.892819 -153.258 8.56991
  126 -0.0433699 -143.875 8.41203
  127 0.352761 -130.086 6.04022
  128 0.703791 -112.490 7.74543
  129 0.146348 -99.8987 6.13416
  130 0.202499 -81.8379 7.75519
  131 -0.817849 -67.7867 6.67427
  132 -0.561856 -52.3163 6.57803
  133 -0.0908867 -40.1736 6.04823
  134 -0.229284 -30.4528 4.80498
  135 -0.338682 -19.9056 5.51298
  136 -0.670827 -11.7321 3.80599
  137 -0.800709 -5.26538 2.69348
  138 -0.826975 -0.883150 0.982615
  139 -0.319106 -0.335960 0.0917689
  140 0.0414202 -0.594043 0.408422
  141 -1.07937 -0.528049 1.12045
  142 -6.22009 -0.911686 3.10287
  143 -12.6025 -0.513999 3.70037
  144 -21.7639 -0.584440 4.81124
  145 -33.2957 -0.114052 5.45391
  146 -45.2059 0.302729 5.08387
  147 -58.9891 0.0995578 5.03646
  148 -68.8672 0.275458 6.38011
  149 -80.1307 0.337169 5.73143
  150 -93.2593 0.235269 4.93863
  151 -100.465 0.755471 5.91663
  152 -113.364 1.49008 3.35353
  153 -120.580 1.32071 4.12378
  154 -124.942 0.711898 2.45598
  155 -134.849 1.16016 1.59857
  156 -138.173 1.23039 2.92396
  157 -136.275 0.588625 2.70535
  158 -143.971 1.98848 0.0716924
  159 -146.175 1.62600 1.74764
  160 -144.365 0.528833 0.116744
  161 -149.298 1.10349 -0.495562
  162 -148.690 2.54446 0.331794
  163 -141.047 0.255479 -0.998287
  164 -106.013 -2.45453 1.43343
  165 -71.5202 -0.641476 3.15649
  166 -35.9272 0.916145 1.25782
  167 11.9351 1.69303 1.38832
  168 50.2328 2.01773 1.43532
  169 96.0458 0.988213 1.87625
  170 141.059 1.88529 1.78051
  171 175.279 2.95862 1.25777
  172 216.443 3.38790 0.581559
  173 255.984 1.30625 1.00423
  174 295.931 0.0376129 0.852877
  175 333.159 0.425980 1.07953
  176 375.505 -1.95120 1.29804
  177 416.228 -0.0255612 1.32289
  178 448.717 0.891011 0.605974
  179 129.160 21.7604 -7.20158
  180 129.078 21.8064 7.26638
  181 -1.32314 4.28243 34.6947
  182 -1.46531 4.24712 -34.7200
  183 290.412 -3.78192 -67.0231
  184 290.175 -4.32266 67.6982
  185 59.3671 14.8110 -5.52126
  186 58.6667 15.0459 5.52993
  187 44.8786 6.79970 -4.60650
  188 44.9539 6.79289 4.60456
  189 273.823 4.29976 -10.2434
  190 273.880 4.28542 10.2522
  191 -2.55825 10.8217 18.3020
  192 -2.67119 10.8462 -18.3274
  193 317.937 7.24969 -25.5667
  194 318.084 7.14877 25.6060
  195 -12.0916 -10.4611 28.2528
  196 -12.0907 -10.5250 -28.2926
  197 3.29023 -24.3318 -32.8564
  198 101.067 8.44396 -63.0703
  199 3.94041 -26.0746 32.0219
  200 99.4796 9.21321 63.9901
  201 449.328 -58.1297 -96.6750
  202 464.524 -60.4053 92.9488
  203 163.857 4.54476 -2.12982
  204 163.849 4.54411 2.13301
  205 -22.4763 1.47049 -3.41001
  206 -22.3708 1.46975 3.40721
  207 -34.4829 5.53533 26.7434
  208 -34.5828 5.54501 -26.7936
  209 164.800 14.1211 -5.98439
  210 164.790 14.1229 6.00688
  211 51.6080 21.1854 11.1490
  212 51.4037 21.3095 -11.2041
  213 -43.3383 4.70346 -10.6251
  214 -43.2219 4.69604 10.6119
  215 361.391 -0.186165 4.76207
  216 361.293 -0.182400 -4.76036
  217 12.2284 -45.4785 12.4479
  218 13.2837 -40.9342 -10.7163
  219 -3.21764 -29.7091 31.7093
  220 -3.30741 -30.9137 -30.7307
  221 152.804 21.7546 -28.4596
  222 152.650 21.8648 28.7122
  223 -31.7477 0.0222037 27.3533
  224 -31.8045 0.0169183 -27.3964
  225 386.562 1.50302 -13.7503
  226 386.676 1.47406 13.7424
  227 416.943 -6.67387 -27.3768
  228 417.280 -7.07521 27.2946
  229 668.464 49.8105 0.620527
  230 613.421 69.6061 30.3111
  231 601.798 -1.79592 -48.0440
  232 76.6083 16.0209 5.42954
  233 76.5299 16.0465 -5.42177
  234 6.93652 13.7088 26.0859
  235 6.80134 13.7486 -26.1318
  236 465.867 -28.1012 -19.6760
  237 463.210 -28.4295 21.2076
  238 259.018 1.34616 -3.83311
  239 259.061 1.34322 3.83552
  240 -55.5873 3.98199 17.6590
  241 -55.6989 3.99077 -17.6875
  242 -7.83394 -7.70016 -12.8262
  243 -7.82583 -7.69408 12.8328
  244 -60.4980 1.29264 5.23896
  245 -60.6224 1.29435 -5.24447
  246 214.463 15.0355 -17.8540
  247 214.496 15.0108 17.9163
  248 271.983 7.54911 -38.6256
  249 272.177 7.42589 38.7871
  250 68.2995 3.54578 0.0611668
  251 68.3581 3.54448 -0.0610361
  252 158.512 6.99918 -133.021
  253 187.002 11.0573 144.357
  254 22.4440 10.5446 24.3359
  255 22.3470 10.7571 -24.4540
  256 630.288 -43.7129 -18.0008
  257 57.6762 20.6840 9.71464
  258 57.5573 20.7366 -9.71567
  259 155.763 17.3044 -51.4047
  260 155.453 17.7072 51.9089
  261 706.705 102.276 0.382763
  262 419.191 -0.430823 18.5995
  263 419.028 -0.313395 -18.6463
  264 -3.73731 -23.2846 -20.0068
  265 -3.62243 -23.3748 20.0836
  266 -0.738227 -54.9180 -27.2149
  267 2.04659 -63.4061 -24.5328
  268 1.12444 -63.7555 25.9273
  269 -10.0157 -8.62224 35.9983
  270 -10.0626 -8.61264 -36.1510
  271 23.3825 -47.4107 -12.2107
  272 25.1922 -43.2966 16.1793
  273 -24.0619 -1.97856 17.5510
  274 -24.0781 -1.98804 -17.5691
  275 300.117 7.36266 -16.0903
  276 300.204 7.32383 16.1040
  277 522.909 -52.4843 -7.57304
  278 118.654 9.12515 0.723219
  279 118.689 9.12099 -0.717439
  280 -1.29189 -51.5849 26.0492
  281 13.8590 10.4031 11.3590
  282 13.7596 10.4211 -11.3701
  283 826.747 56.8323 -24.5465
  284 405.783 -0.322665 5.78314
  285 405.662 -0.316372 -5.78335
  286 276.298 -11.7822 -100.140
  287 278.603 -11.5722 101.579
  288 522.272 -49.8232 -0.895323
  289 -48.7582 1.57631 21.5284
  290 -48.8292 1.57611 -21.5644
  291 509.875 -35.7731 162.127
  292 -21.0416 3.94395 32.4327
  293 -21.1311 3.93710 -32.4951
  294 89.1715 24.3914 -9.26299
  295 88.8220 24.6171 9.35054
  296 -87.1188 0.548229 0.889150
  297 -87.2582 0.548065 -0.890046
  298 430.432 15.8939 -219.471
  299 -82.8890 1.62187 -9.40923
  300 -82.7619 1.61838 9.39532
  301 -1.83453 -9.87695 36.3446
  302 -0.512931 -9.56849 -35.9092
  303 192.687 18.8746 -25.6587
  304 192.686 18.8764 25.8073
  305 44.6333 4.34366 3.47299
  306 44.5610 4.34660 -3.47485
  307 199.927 6.67475 -5.66246
  308 199.940 6.67076 5.67004
  309 19.6118 -12.1328 17.3473
  310 17.8856 -14.8915 -17.6316
  311 194.085 2.47455 -1.49348
  312 194.093 2.47390 1.49474
  313 -68.6802 1.80124 15.6798
  314 -68.7740 1.80385 -15.7069
  315 49.6885 -1.97870 -14.8845
  316 48.2512 -2.05450 13.5824
  317 422.423 -0.849872 1.62103
  318 422.291 -0.848717 -1.61986
  319 917.253 51.6530 38.0722
  320 99.1465 12.1816 1.36295
  321 99.0946 12.1923 -1.35431
  322 -17.2978 4.31792 7.10602
  323 -17.4029 4.32384 -7.11349
  324 135.239 17.2854 -4.98594
  325 135.197 17.3007 5.02232
  326 17.1582 14.2872 26.8997
  327 17.0464 14.3164 -26.9775
  328 2.07825 -92.0135 17.8341
  329 -90.5641 0.0239168 -2.10149
  330 -90.4235 0.0241568 2.09943
  331 324.550 0.0139318 -3.12186
  332 324.627 0.0120149 3.12335
  333 341.667 1.43798 -8.27523
  334 341.756 1.42710 8.27695
  335 -84.8495 1.34256 -6.72011
  336 -84.7151 1.34048 6.71223
  337 1.91098 1.20100 0.668858
  338 1.81833 1.20110 -0.669576
  339 -1.91327 -38.4298 19.9200
  340 -1.51579 -39.9747 -19.8919
  341 386.425 -31.2893 -68.0544
  342 401.014 -37.4519 66.8676
  343 230.693 10.1473 -11.1498
  344 230.728 10.1318 11.1686
  345 103.454 23.6528 -5.86278
  346 103.274 23.7620 5.93203
  347 -32.9717 6.62668 15.2711
  348 -33.0851 6.64015 -15.2931
  349 710.600 20.8495 25.7425
  350 39.2388 -48.6346 -46.4259
  351 41.9584 -44.5916 48.4059
  352 -13.2576 10.9909 24.7914
  353 -13.3759 11.0158 -24.8344
  354 -19.2923 -3.71113 31.9940
  355 -19.3459 -3.72201 -32.0549
  356 806.409 138.984 -45.0220
  357 523.982 -5.62034 61.5792
  358 485.144 -11.8207 -12.8822
  359 484.800 -11.5443 12.1584
  360 342.800 -4.49444 -43.4877
  361 342.391 -4.80980 43.5179
  362 0.661756 -110.865 -14.2563
  363 443.074 0.505316 -10.3661
  364 443.202 0.472901 10.3405
  365 5.95453 -103.433 10.4675
  366 522.321 41.1629 -31.6407
  367 129.084 3.44665 1.23063
  368 129.058 3.44735 -1.23103
  369 344.323 1.70159 -32.2681
  370 344.542 1.54532 32.3192
  371 369.529 2.11955 -19.4116
  372 369.656 2.05012 19.4018
  373 -3.58801 3.67098 4.62442
  374 -3.68515 3.67439 -4.62851
  375 215.228 11.9074 -52.2333
  376 215.262 12.0470 52.6712
  377 435.160 -0.684130 2.64612
  378 435.021 -0.682324 -2.64485
  379 250.709 12.7666 -26.6469
  380 250.798 12.6994 26.7421
  381 287.790 3.43928 6.88858
  382 287.730 3.44519 -6.88484
  383 -13.6812 -2.43729 10.8877
  384 -13.6815 -2.44397 -10.8888
  385 -3.27236 -2.32013 -3.20725
  386 -3.27376 -2.32112 3.21210
  387 581.835 -68.9309 46.2652
  388 -7.42718 -18.0112 29.3991
  389 -7.37516 -18.1713 -29.4061
  390 98.3038 5.40065 -1.03999
  391 98.3480 5.39842 1.04137
  392 -2.87697 -14.5277 10.9420
  393 -2.91035 -14.5058 -10.9442
  394 39.3232 16.2570 12.1478
  395 39.2188 16.2906 -12.1561
  396 475.440 -2.56392 13.7823
  397 475.260 -2.39974 -13.9902
  398 -0.855187 -27.4111 34.8888
  399 -38.9601 -0.664804 16.5439
  400 -38.9925 -0.668579 -16.5668
  401 -1.00625 -29.0041 -34.5008
  402 445.505 -0.346032 6.61185
  403 445.368 -0.336490 -6.61772
  404 -2.74928 10.2915 31.3928
  405 -2.90478 10.3207 -31.4618
  406 331.807 3.92647 -13.0865
  407 331.896 3.90265 13.0887
  408 508.883 -21.6859 -9.08307
  409 510.179 -17.6198 6.64524
  410 -0.986735 -52.2655 -21.7696
  411 47.7114 18.0403 -7.10984
  412 48.1010 17.8567 7.04722
  413 514.643 33.3157 19.5495
  414 291.031 -12.5626 -137.721
  415 298.502 -17.8617 143.908
  416 19.4894 15.6891 19.5407
  417 19.3672 15.7284 -19.5677
  418 214.642 4.76916 -3.87670
  419 214.662 4.76707 3.88027
  420 208.653 44.2445 218.073
  421 88.3892 19.6425 -3.17148
  422 88.4812 19.6014 3.19143
  423 5.67401 -47.9541 22.5719
  424 -0.626483 -84.7371 -18.7282
  425 36.1342 19.4758 17.7254
  426 35.9935 19.5337 -17.7589
  427 44.8976 10.6658 -7.08086
  428 44.9794 10.6518 7.07836
  429 -13.6354 -0.302785 -35.7505
  430 -13.5471 -0.322920 35.6843
  431 105.052 21.0796 -22.7730
  432 104.600 21.3830 22.9744
  433 513.385 -15.7257 -46.8265
  434 15.4772 -3.68371 26.3269
  435 14.9896 -3.57223 -26.5119
  436 374.108 -16.1980 -48.0277
  437 375.602 -17.2937 47.9802
  438 -91.4140 0.688381 -9.33057
  439 -91.2946 0.686086 9.31521
  440 -0.00253861 -83.4412 16.9134
  441 -0.579818 -53.1013 19.4022
  442 -36.9749 2.54788 27.5122
  443 -37.0495 2.54594 -27.5594
  444 268.207 1.20735 -1.43836
  445 268.254 1.20609 1.43914
  446 -7.91140 -12.5055 20.1112
  447 -7.92632 -12.5360 -20.0925
  448 169.650 10.4326 -75.5797
  449 169.292 11.1644 76.3688
  450 1.41245 -100.077 -18.1824
  451 915.376 31.0820 0.426316
  452 2.66774 -116.683 -9.51210
  453 -106.777 -0.161599 -3.22621
  454 -106.629 -0.161589 3.22301
  455 -40.4787 5.94231 22.0412
  456 -40.5879 5.95491 -22.0799
  457 -48.8735 0.719164 16.5593
  458 -48.9217 0.718720 -16.5838
  459 184.951 18.0533 -17.8806
  460 184.948 18.0601 17.9707
  461 277.247 9.87908 -20.5926
  462 277.338 9.82163 20.6331
  463 -4.27245 -16.4740 36.1487
  464 -4.27918 -16.3654 -36.3032
  465 483.786 9.74111 -58.9710
  466 34.1109 -5.88347 -2.60379
  467 32.9187 -6.17440 3.21892
  468 7.93863 -103.044 -3.53846
  469 5.17071 -120.503 -0.179063
  470 -14.4273 -6.39745 20.6828
  471 -14.4360 -6.42167 -20.6939
  472 104.006 1.08205 -115.945
  473 725.402 10.2596 -79.7232
  474 168.550 9.70740 5.65615
  475 168.556 9.70868 -5.64299
  476 244.082 3.16145 -72.2283
  477 244.577 3.09247 73.2480
  478 73.4215 24.6481 5.26296
  479 73.2747 24.7321 -5.25412
  480 220.600 15.8815 -38.7760
  481 220.671 15.8146 39.0376
  482 9.12404 5.19820 31.7514
  483 9.61110 5.44330 -31.7139
  484 -95.0422 1.31806 -6.71722
  485 -94.9060 1.31628 6.70829
  486 479.349 -54.6951 -40.2048
  487 379.227 -0.591141 -2.20167
  488 379.335 -0.592364 2.20296
  489 23.9171 2.07795 -1.77343
  490 23.9987 2.07703 1.77201
  491 -22.3229 8.73536 20.2423
  492 -22.4372 8.75490 -20.2739
  493 -52.2653 3.10580 -7.06891
  494 -52.1451 3.10170 7.06072
  495 168.660 15.2567 -8.62767
  496 168.650 15.2573 8.66226
  497 -18.3675 7.76993 29.0189
  498 -18.4820 7.78727 -29.0775
  499 438.594 -12.8737 -25.8761
  500 439.347 -13.4683 25.5811
  501 290.228 2.70298 -48.2568
  502 289.773 2.52416 48.6534
  503 110.240 4.08732 -0.505401
  504 110.277 4.08632 0.505844
  505 1.35434 -50.7915 -29.3459
  506 515.317 -17.8970 38.2820
  507 7.57809 -32.3975 -25.7797
  508 149.196 23.1641 18.6935
  509 149.302 23.0906 -18.5478
  510 474.150 -51.1693 39.7930
  511 37.6607 -38.5158 62.5930
  512 562.507 -67.7900 -77.6666
  513 384.550 0.656478 23.4174
  514 384.371 0.794295 -23.4282
  515 1.32740 -43.3063 30.5432
  516 -7.54840 -2.23531 -5.85376
  517 -7.55135 -2.23396 5.85768
  518 50.6159 1.78287 -0.439880
  519 50.6832 1.78259 0.439514
  520 -1.28102 -29.8191 12.8483
  521 -1.16222 -29.6826 -12.9166
  522 317.057 2.16741 5.35311
  523 316.983 2.17047 -5.35076
  524 883.065 161.237 73.4773
  525 38.4411 -19.0640 -14.8319
  526 30.0159 -26.9834 8.55642
  527 -5.90984 6.41257 -9.56529
  528 -5.80717 6.40206 9.55499
  529 -76.4056 1.20001 9.87034
  530 -76.4844 1.20134 -9.88645
  531 0.791571 -94.0927 18.2733
  532 -104.413 0.791282 0.800576
  533 -104.561 0.791342 -0.801537
  534 100.592 -1.13127 -86.0679
  535 98.4419 0.400058 89.2243
  536 92.3582 17.5596 -31.4509
  537 91.6689 17.9515 31.6235
  538 -20.3631 -4.14126 28.1034
  539 -20.3983 -4.16044 -28.1481
  540 91.5317 7.14655 0.962266
  541 91.4822 7.15070 -0.959891
  542 -41.8384 1.77511 2.81300
  543 -41.9539 1.77628 -2.81614
  544 107.204 14.5128 0.397147
  545 107.150 14.5291 -0.380833
  546 -2.07615 -6.81930 5.01277
  547 -2.08348 -6.81366 -5.01195
  548 39.7607 17.2065 15.3011
  549 39.4984 17.4351 -15.4002
  550 32.1118 6.51347 13.0588
  551 31.6676 6.47501 -13.3326
  552 387.965 1.86150 9.82950
  553 387.853 1.87371 -9.83084
  554 344.615 3.54129 15.8703
  555 344.511 3.58115 -15.8704
  556 -0.350889 -80.4957 -11.7828
  557 243.396 11.0377 -16.0734
  558 243.448 11.0099 16.1062
  559 243.647 4.47956 -6.26519
  560 243.683 4.47313 6.27113
  561 -28.8901 0.768369 0.127070
  562 -28.7815 0.768553 -0.127278
  563 425.495 22.2212 -11.3517
  564 540.012 -65.8102 -30.8308
  565 452.989 21.5213 44.2313
  566 3.89882 -66.7006 -20.8012
  567 -20.9419 7.29117 -12.9862
  568 -20.8319 7.27834 12.9701
  569 4.20605 -38.3447 28.4405
  570 -23.1711 0.918595 31.9016
  571 -23.2423 0.913566 -31.9551
  572 691.252 66.2204 4.00693
  573 160.293 6.27317 -2.87766
  574 160.283 6.27269 2.88278
  575 1028.20 88.5117 -92.9642
  576 -4.29903 -3.28718 36.8789
  577 -3.92642 -3.00764 -36.9012
  578 570.530 -48.0699 17.6102
  579 457.671 -0.134926 -11.4865
  580 457.799 -0.189933 11.4350
  581 214.896 2.06311 -104.258
  582 217.342 1.38573 105.775
  583 -11.4270 -10.9246 32.4605
  584 -11.4403 -10.9844 -32.5514
  585 114.062 12.0937 57.0558
  586 115.009 11.2817 -56.6366
  587 -88.9724 1.00393 -9.17245
  588 -88.8635 1.00225 9.15712
  589 672.092 62.3170 30.4300
  590 131.710 10.9393 1.90420
  591 131.739 10.9346 -1.89394
  592 155.022 19.4029 -39.5784
  593 154.795 19.6334 39.9561
  594 415.876 -1.69837 -22.8150
  595 416.107 -1.89213 22.7771
  596 -1.72714 -41.4203 -29.1189
  597 449.403 -0.912560 3.46718
  598 449.257 -0.910072 -3.46629
  599 -61.8804 1.01252 -1.00134
  600 -61.7545 1.01234 0.999983
  601 -112.108 -0.929237 -0.0208402
  602 -112.261 -0.930075 0.0206645
  603 10.2181 -59.8800 -8.12793
  604 -4.12713 -27.0727 25.1640
  605 -4.35310 -25.5882 -25.3312
  606 -50.2488 3.19614 22.8230
  607 -50.3359 3.20025 -22.8626
  608 317.904 6.66717 20.1627
  609 317.798 6.72851 -20.1482
  610 235.073 1.87240 1.45123
  611 235.043 1.87299 -1.45038
  612 54.7712 -10.3044 37.5113
  613 56.4298 -9.16223 -37.1981
  614 -1.60448 -20.8213 10.8759
  615 -1.65569 -20.7572 -10.9139
  616 538.153 48.6337 234.743
  617 -26.8256 -0.799979 10.0480
  618 -26.8297 -0.803929 -10.0573
  619 10.2783 -35.9936 -20.1508
  620 230.372 7.90686 -8.57338
  621 230.403 7.89749 8.58467
  622 114.905 23.8905 -14.7105
  623 114.672 24.0399 14.8491
  624 1.09457 -140.180 6.49575
  625 86.9082 22.8830 2.24891
  626 86.7959 22.9435 -2.22483
  627 -6.21700 9.23225 15.6509
  628 -6.32610 9.25078 -15.6707
  629 -0.641341 -70.7826 16.0724
  630 -112.750 0.0199084 -3.24534
  631 -112.600 0.0197072 3.24183
  632 153.109 2.94704 1.07266
  633 153.123 2.94745 -1.07111
  634 378.092 0.238489 6.58665
  635 377.986 0.244409 -6.58521
  636 336.332 -18.2618 179.564
  637 270.846 5.57267 -12.5495
  638 270.905 5.55136 12.5627
  639 5.29508 -4.50935 33.6137
  640 6.33945 -2.15865 -33.4898
  641 430.717 -38.7691 -145.969
  642 996.768 33.7225 -38.6092
  643 -104.754 0.0352006 -6.27288
  644 -104.623 0.0341812 6.26350
  645 29.1896 5.08546 -4.13360
  646 29.2707 5.08086 4.13089
  647 -1.92284 -44.1468 25.8207
  648 584.472 37.3449 -52.3891
  649 444.219 -1.12025 0.624412
  650 444.074 -1.11929 -0.623811
  651 -28.4513 -1.46449 -23.2053
  652 -28.4168 -1.45656 23.1730
  653 -0.0951441 -100.235 -15.2713
  654 451.746 -1.08812 1.33882
  655 451.597 -1.08708 -1.33771
  656 44.9785 13.9347 10.1172
  657 44.8862 13.9587 -10.1212
  658 349.766 -28.7192 -96.4916
  659 355.830 -28.5692 97.4941
  660 504.668 -3.56146 8.09672
  661 504.684 -3.53207 -8.39581
  662 2.24969 -125.418 11.5198
  663 -23.8378 0.479788 -1.60356
  664 -23.7317 0.479931 1.60204
  665 167.746 29.8005 -171.982
  666 159.110 2.50082 1.40680
  667 159.121 2.50076 -1.40589
  668 80.3837 4.89042 0.174431
  669 80.3308 4.89260 -0.173754
  670 94.7699 9.22703 -0.238638
  671 94.8199 9.22049 0.244045
  672 298.806 7.45845 -31.2107
  673 298.973 7.34084 31.2933
  674 81.4779 23.3291 -1.72843
  675 81.2287 23.4911 1.75446
  676 -51.0908 3.80582 -12.4988
  677 -50.9727 3.79761 12.4816
  678 -60.2398 4.17599 -14.4157
  679 -60.1227 4.16792 14.3934
  680 519.734 -8.06734 -0.618656
  681 1.07683 -19.9532 -34.7623
  682 520.303 -8.45978 -0.0434506
  683 665.790 51.3579 -3.33383
  684 -64.8975 0.317747 11.2666
  685 -64.9585 0.317360 -11.2847
  686 70.9271 20.8545 -6.85853
  687 70.4234 21.0948 6.89770
  688 -120.933 0.00327508 -1.07328
  689 -120.777 0.00340442 1.07192
  690 1.53133 -17.8356 34.7604
  691 -40.2443 0.649457 24.2433
  692 -40.3066 0.646686 -24.2822
  693 571.494 -44.8452 -19.7267
  694 93.9560 1.45010 -0.827565
  695 93.9113 1.45005 0.828037
  696 24.1488 7.87136 7.23883
  697 24.0608 7.88127 -7.24366
  698 305.623 -13.0273 -81.0754
  699 307.807 -13.5426 82.5645
  700 1038.37 74.4128 84.1741
  701 21.2659 -87.1421 -38.2005
  702 -7.24824 -15.4611 34.6086
  703 -7.25570 -15.5281 -34.6943
  704 67.0864 13.5992 -4.82620
  705 67.1604 13.5815 4.82988
  706 464.407 -0.948783 -3.51560
  707 464.560 -0.951730 3.51490
  708 224.964 2.68677 2.74998
  709 224.939 2.68875 -2.74778
  710 20.5984 16.6900 23.7820
  711 20.4643 16.7392 -23.8306
  712 15.1451 3.63811 2.89080
  713 15.0585 3.64041 -2.89309
  714 -12.1211 3.59203 34.8495
  715 -12.2231 3.58642 -34.9285
  716 383.306 -1.06171 2.80763
  717 383.196 -1.05945 -2.80623
  718 333.084 1.91061 7.56753
  719 333.002 1.91697 -7.56485
  720 46.5967 -23.6020 44.5305
  721 47.8719 -25.6891 -43.1569
  722 -24.5584 5.78617 30.3743
  723 -24.6588 5.79141 -30.4347
  724 14.6662 -29.1492 15.1951
  725 2.61071 10.4582 31.5246
  726 2.44827 10.4822 -31.5747
  727 -70.9682 1.94303 -8.21715
  728 -70.8412 1.93952 8.20622
  729 61.1790 18.3992 8.93486
  730 61.0745 18.4390 -8.93140
  731 515.941 -15.3068 -25.6791
  732 488.367 -41.8813 -15.0760
  733 -7.74382 -15.8773 24.7791
  734 -7.73570 -15.9556 -24.7511
  735 192.908 3.09950 -122.926
  736 188.028 7.06230 123.957
  737 118.560 22.5661 -21.3943
  738 118.252 22.7847 21.6000
  739 10.8462 -16.8889 26.9668
  740 -0.677666 -52.6204 -14.0586
  741 244.036 12.5283 -29.7443
  742 244.138 12.4644 29.8840
  743 0.599831 -102.994 12.9047
  744 147.005 19.2077 -9.40955
  745 146.962 19.2274 9.46736
  746 488.468 -0.812558 -8.67894
  747 488.558 -0.869007 8.57919
  748 10.0484 -133.554 5.18299
  749 224.841 15.6902 22.7578
  750 224.790 15.7238 -22.6704
  751 62.5239 21.9504 -3.61962
  752 62.8464 21.7371 3.58301
  753 -87.9845 0.577289 -7.78844
  754 -87.8903 0.576630 7.77481
  755 248.164 3.13604 -5.39276
  756 248.202 3.13213 5.39667
  757 155.238 21.4539 -15.8863
  758 155.174 21.4934 15.9938
  759 3.24494 13.3302 24.0144
  760 3.11971 13.3654 -24.0536
  761 489.809 -35.9042 9.04293
  762 -73.0059 1.45814 6.20696
  763 -73.1360 1.45990 -6.21341
  764 1037.08 211.923 -150.528
  765 -25.3909 2.58419 6.30355
  766 -25.4988 2.58734 -6.30955
  767 415.446 0.402402 16.1475
  768 415.312 0.468845 -16.1802
  769 771.742 46.9380 -0.362040
  770 468.178 -1.66488 -6.57545
  771 468.321 -1.67539 6.56552
  772 302.509 3.31088 9.61318
  773 302.440 3.32161 -9.60859
  774 451.373 -47.2714 133.176
  775 198.756 13.3489 -9.26829
  776 198.771 13.3409 9.29424
  777 4.73345 -75.4457 14.5698
  778 517.046 -62.4974 46.4038
  779 314.543 -0.176675 1.62085
  780 314.471 -0.175332 -1.62005
  781 409.496 -0.457290 0.858778
  782 409.371 -0.456530 -0.858145
  783 -1.78088 -41.2452 -24.2026
  784 2.65842 -69.1230 22.7011
  785 188.968 20.4069 31.6066
  786 188.989 20.3854 -31.3826
  787 1024.53 9.23950 9.33249
  788 321.538 2.04374 -38.6567
  789 321.752 1.90308 38.7604
  790 -64.6805 2.14224 16.9400
  791 -64.7862 2.14752 -16.9678
  792 14.2757 -53.5790 2.54022
  793 9.15424 -123.823 -11.5090
  794 727.237 95.1770 -17.3770
  795 -0.621374 -52.4977 12.6960
  796 16.4257 11.3525 27.8193
  797 16.3688 11.3439 -27.9705
  798 100.716 18.6780 0.890635
  799 100.645 18.7084 -0.868569
  800 485.387 -22.4213 -9.37833
  801 486.502 -22.1061 7.88458
  802 565.386 99.0244 -222.704
  803 -74.9216 0.631127 -2.64692
  804 -74.7896 0.630633 2.64377
  805 -36.7735 -0.131299 9.43926
  806 -36.7868 -0.133031 -9.45070
  807 36.9704 4.63560 6.25443
  808 36.2008 4.60079 -6.34776
  809 369.781 -2.74041 34.7071
  810 369.514 -2.45412 -34.6134
  811 190.433 3.89479 -1.83572
  812 190.439 3.89374 1.83799
  813 594.350 -5.25992 47.5896
  814 66.1469 9.36811 -4.36749
  815 66.2147 9.35857 4.36882
  816 60.6257 9.94039 -12.9571
  817 60.0876 10.2066 13.0803
  818 0.0549123 -40.0561 -32.0220
  819 829.937 140.238 127.233
  820 -118.973 0.0774897 -3.27114
  821 -118.823 0.0773274 3.26703
  822 -0.173401 -124.888 11.9638
  823 9.67452 -16.7295 -27.3477
  824 -18.3585 -1.10314 7.06834
  825 -18.3524 -1.10615 -7.07133
  826 669.391 44.1890 -29.4290
  827 177.969 16.4935 -11.7048
  828 177.963 16.4946 11.7587
  829 459.901 -7.31222 -17.5635
  830 460.348 -7.37077 17.3442
  831 -114.113 0.812182 4.43383
  832 -114.254 0.813328 -4.44019
  833 -0.843862 -0.871949 -0.728404
  834 -0.845576 -0.873497 0.731305
  835 0.346038 -127.654 -11.6177
  836 0.581944 -133.239 -10.1502
  837 -124.288 1.12903 0.604083
  838 -124.447 1.12935 -0.604634
  839 72.6060 -13.4173 -82.8623
  840 286.789 2.36723 -2.94113
  841 286.847 2.36568 2.94264
  842 -5.21649 1.79403 0.786057
  843 -5.31279 1.79433 -0.786628
  844 422.576 0.471749 -10.6541
  845 422.702 0.449699 10.6416
  846 -48.2688 0.327584 8.95482
  847 -48.2959 0.327581 -8.96691
  848 259.518 10.0502 -182.418
  849 444.198 -37.3857 38.8284
  850 347.460 0.621447 -3.48719
  851 347.550 0.619385 3.48872
  852 440.353 -40.5822 -43.1099
  853 140.503 14.4406 -4.47068
  854 140.472 14.4480 4.49619
  855 192.433 11.3640 -7.21353
  856 192.442 11.3590 7.23047
  857 515.563 -10.8566 19.6545
  858 33.8978 19.0261 18.9976
  859 33.7475 19.0955 -19.0595
  860 36.3930 1.58196 1.26933
  861 36.3181 1.58229 -1.27028
  862 244.836 1.98055 2.54334
  863 244.801 1.98198 -2.54174
  864 631.846 -51.8486 77.4358
  865 397.435 1.43060 -14.0726
  866 397.559 1.38965 14.0557
  867 9.39771 5.51280 5.69064
  868 9.30555 5.51866 -5.69527
  869 397.577 -1.12464 4.02613
  870 397.459 -1.12175 -4.02446
  871 -70.1825 0.168952 -1.87974
  872 -70.0521 0.169400 1.87857
  873 -0.333085 -40.2548 11.3501
  874 -0.442648 -40.8836 -11.4337
  875 483.229 -5.88019 48.1405
  876 -27.3110 7.44255 25.3549
  877 -27.4214 7.45919 -25.4011
  878 -0.153502 -66.1348 -12.4810
  879 192.291 5.92259 -3.80752
  880 192.299 5.92114 3.81210
  881 351.326 -17.3917 -62.0828
  882 353.940 -19.2212 62.6737
  883 -14.4199 -4.86106 -34.7071
  884 -14.3500 -4.85859 34.6272
  885 21.4286 16.6194 21.7304
  886 21.2978 16.6654 -21.7651
  887 1.64597 -148.935 7.94167
  888 6.67626 13.2969 28.5910
  889 6.53538 13.3299 -28.6419
  890 324.809 -5.92177 -55.2799
  891 324.077 -6.14483 55.7138
  892 560.544 33.3061 54.9799
  893 131.141 13.3697 2.64251
  894 131.175 13.3628 -2.62620
  895 407.255 1.71835 -10.4890
  896 407.375 1.70190 10.4833
  897 -15.6574 -6.69820 30.6589
  898 -15.6908 -6.72649 -30.7192
  899 1.47053 -152.265 -4.65512
  900 -24.1041 -1.44390 29.9777
  901 -24.1573 -1.44982 -30.0271
  902 18.3266 14.7554 -16.8521
  903 18.4395 14.7222 16.8313
  904 -1.24918 -10.1953 5.62691
  905 -1.26354 -10.1855 -5.63552
  906 37.7017 16.6418 -14.6889
  907 37.8183 16.6006 14.6753
  908 8.36070 -10.8382 30.8197
  909 7.34447 -10.0721 -32.5486
  910 397.777 -11.8030 35.5456
  911 396.858 -11.2902 -35.7011
  912 -127.093 0.280840 -0.888007
  913 -126.933 0.280867 0.887110
  914 -11.3238 -1.00595 5.33566
  915 -11.3143 -1.00782 -5.33453
  916 0.526355 -93.8732 -11.3284
  917 -12.0297 -5.12686 -15.1281
  918 -12.0239 -5.11337 15.1276
  919 -49.5480 4.30489 21.7679
  920 -49.6491 4.31336 -21.8063
  921 126.844 23.5202 -9.94998
  922 126.734 23.5964 10.0333
  923 535.331 41.3181 -7.41616
  924 -3.71566 11.7638 21.8072
  925 -3.83375 11.7917 -21.8406
  926 198.806 12.9790 -58.6924
  927 198.787 13.1592 59.2895
  928 -20.8257 8.07900 17.5208
  929 -20.9384 8.09730 -17.5469
  930 635.708 -26.1417 -4.45813
  931 397.350 15.8307 23.9438
  932 469.148 -5.16771 -43.5272
  933 348.078 3.63788 -23.5040
  934 348.224 3.54157 23.5135
  935 -33.7098 4.64078 -8.30454
  936 -33.5976 4.63391 8.29458
  937 -80.9644 1.41823 10.7201
  938 -81.0853 1.42177 -10.7374
  939 -4.93367 -16.0432 -17.5389
  940 -4.89725 -16.0542 17.5686
  941 126.131 7.04958 1.57396
  942 126.160 7.04740 -1.56965
  943 -37.6529 4.11822 27.1965
  944 -37.7402 4.12034 -27.2464
  945 414.325 -0.823875 5.22755
  946 414.199 -0.820465 -5.22597
  947 -3.04414 -35.0415 26.3448
  948 18.2873 13.4188 -14.3548
  949 18.3930 13.3926 14.3395
  950 24.5520 9.04979 9.13100
  951 24.4603 9.06349 -9.13793
  952 75.0721 5.92597 -1.71498
  953 75.1290 5.92237 1.71522
  954 776.748 106.364 -29.8424
  955 -3.14434 -0.850884 -2.13479
  956 -3.15106 -0.850746 2.13862
  957 28.4230 8.84098 -17.6477
  958 28.8950 8.63040 17.5509
  959 282.349 10.2145 -25.1348
  960 282.462 10.1372 25.1940
  961 39.0077 11.5004 -8.51131
  962 39.0960 11.4831 8.50698
  963 78.0681 -5.66000 108.565
  964 524.427 -3.97059 -4.74151
  965 523.800 -3.82539 4.28517
  966 95.9209 -2.37772 95.6302
  967 101.355 3.38366 -0.668802
  968 101.314 3.38453 0.669405
  969 258.243 -4.45383 -157.960
  970 195.008 2.23108 1.35632
  971 194.999 2.23127 -1.35547
  972 25.5741 -22.4525 2.70044
  973 28.2566 -18.4047 -0.574810
  974 463.394 -0.702405 1.79079
  975 463.239 -0.701495 -1.78947
  976 -37.9718 0.183417 22.1279
  977 -38.0183 0.180655 -22.1599
  978 832.521 105.217 51.7574
  979 -3.30985 -25.8184 -34.4499
  980 4.59630 -124.033 17.6050
  981 -0.438759 -41.2038 31.6800
  982 479.613 -0.675657 -6.70854
  983 479.747 -0.691051 6.68755
  984 -6.32778 -11.6132 15.1757
  985 -6.34614 -11.6155 -15.1624
  986 605.778 64.4849 -27.9287
  987 1038.38 8.29613 -6.22663
  988 -1.57190 -2.40756 -2.32344
  989 -1.57010 -2.41265 2.32679
  990 281.814 2.15287 -5.52973
  991 281.869 2.14932 5.53268
  992 -3.37185 -24.7704 34.5996
  993 390.371 0.882428 20.8206
  994 390.224 0.981463 -20.8410
  995 513.309 -33.3471 -17.8307
  996 -17.8160 -3.67047 17.0665
  997 -17.8248 -3.68486 -17.0771
  998 9.02004 -31.5550 23.4628
  999 -0.747043 -62.5962 24.8799
  1000 -0.0774335 -65.6388 12.4712
  1001 533.588 33.8702 -3.22585
  1002 605.605 66.6002 14.4588
  1003 431.681 -48.0180 -74.6398
  1004 6.50411 -59.7161 18.7529
  1005 8.16381 -85.2570 2.58169
  1006 122.636 2.02553 0.212678
  1007 122.606 2.02564 -0.212697
  1008 -4.76767 -5.43968 -7.28428
  1009 -4.76316 -5.44026 7.28962
  1010 4.41975 -49.0920 -25.7335
  1011 346.881 -0.472145 -1.28139
  1012 346.971 -0.473420 1.28204
  1013 71.7551 2.62495 -37.3975
  1014 68.7060 2.78506 37.0434
  1015 -4.71676 10.9331 29.0836
  1016 -4.85120 10.9624 -29.1432
  1017 -38.7977 6.15287 -17.9871
  1018 -38.6840 6.13967 17.9592
  1019 267.732 4.26040 -56.8860
  1020 267.851 4.50926 57.4755
  1021 193.735 16.8138 -40.5891
  1022 193.692 16.8218 40.9377
  1023 209.501 13.9822 -14.1571
  1024 209.525 13.9647 14.1974
  1025 539.342 -13.0926 -55.1721
  1026 -12.8755 6.86072 32.2740
  1027 -12.9949 6.86911 -32.3517
  1028 381.265 -1.25320 28.6032
  1029 381.046 -1.03845 -28.5919
  1030 -2.07118 -19.0641 35.9280
  1031 -30.5896 -0.974917 16.4187
  1032 -30.6094 -0.980225 -16.4382
  1033 347.863 2.23837 -28.5151
  1034 348.043 2.10112 28.5395
  1035 437.513 11.2088 -39.8145
  1036 -0.400419 -62.1555 -26.0868
  1037 -4.93423 -24.4251 31.1836
  1038 -5.14698 -24.7340 -30.9294
  1039 246.878 13.3186 -21.0739
  1040 246.948 13.2719 21.1374
  1041 309.547 4.59927 11.8604
  1042 309.471 4.61631 -11.8551
  1043 512.259 -32.5782 15.3313
  1044 28.9013 1.89855 -0.337118
  1045 28.9798 1.89821 0.336816
  1046 436.280 -53.6708 79.5840
  1047 1.11401 1.21041 1.83575
  1048 1.02080 1.21072 -1.83731
  1049 96.8125 23.7904 -1.82418
  1050 96.6738 23.8737 1.86731
  1051 38.0821 18.8132 16.1668
  1052 37.9541 18.8633 -16.1873
  1053 4.98805 -74.5878 -15.2021
  1054 128.927 3.82285 0.845850
  1055 128.954 3.82252 -0.843598
  1056 388.812 12.3951 9.91946
  1057 350.461 1.67479 10.9191
  1058 350.366 1.69133 -10.9182
  1059 -1.69760 -19.8508 -35.9939
  1060 526.250 -6.82908 -9.71572
  1061 0.844031 -1.00800 35.3335
  1062 1.24878 -0.728822 -35.1508
  1063 476.518 -1.08196 -3.71853
  1064 476.675 -1.08559 3.71566
  1065 508.139 -2.00873 -6.55700
  1066 508.113 -2.07051 6.40226
  1067 -0.382518 -99.3514 9.34463
  1068 301.208 6.52870 -15.6477
  1069 301.285 6.49943 15.6576
  1070 364.966 2.37437 12.6423
  1071 364.863 2.39636 -12.6442
  1072 9.58882 9.23946 31.3396
  1073 9.53446 9.23939 -31.3851
  1074 790.432 51.2152 9.38200
  1075 -9.49251 -3.89035 36.7779
  1076 -9.65530 -3.79839 -36.8774
  1077 116.280 21.7149 -3.18370
  1078 116.208 21.7540 3.22387
  1079 -60.1526 0.889471 -2.96557
  1080 -60.0278 0.889068 2.96270
  1081 189.575 11.7524 -67.4312
  1082 189.292 12.2672 68.1803
  1083 56.0530 21.2617 11.8125
  1084 55.9143 21.3248 -11.8222
  1085 129.488 16.1064 -50.6601
  1086 128.825 16.7253 51.0476
  1087 -3.26009 -32.9272 -25.6863
  1088 453.165 6.91996 52.9979
  1089 314.560 7.51249 203.883
  1090 52.7221 22.0443 12.1600
  1091 52.5614 22.1265 -12.1837
  1092 191.722 8.99917 -5.59320
  1093 191.730 8.99464 5.60445
  1094 682.810 8.68649 9.18802
  1095 45.9034 12.4777 6.34258
  1096 45.3336 12.6105 -6.52491
  1097 -20.1565 -4.34562 22.6428
  1098 -20.1759 -4.36674 -22.6683
  1099 -0.659963 -15.2067 6.13165
  1100 -0.686606 -15.1981 -6.15660
  1101 449.520 -1.13422 16.6531
  1102 449.335 -0.976489 -16.7529
  1103 0.985128 -30.9048 33.5880
  1104 -30.1175 2.11774 -29.8210
  1105 -30.0453 2.12224 29.7704
  1106 0.144954 -119.587 -11.7111
  1107 -6.54757 -9.32634 36.7271
  1108 -6.52594 -9.11579 -36.7662
  1109 429.151 -0.111661 -7.01231
  1110 429.283 -0.119198 7.01069
  1111 443.955 -4.11513 20.1802
  1112 443.635 -3.85808 -20.2768
  1113 79.8786 18.5616 -18.8084
  1114 79.2762 18.8909 18.9430
  1115 -1.01450 -61.6178 -21.3627
  1116 583.001 -47.4643 -120.940
  1117 755.055 104.274 13.3888
  1118 8.20757 -89.5896 0.499837
  1119 28.9698 16.1454 -22.0045
  1120 29.1393 16.0611 21.8731
  1121 75.0969 23.6584 3.97526
  1122 74.9135 23.7662 -3.96695
  1123 156.416 8.15720 2.74134
  1124 156.429 8.15756 -2.73354
  1125 -9.62181 -13.7059 29.2574
  1126 -9.60946 -13.8411 -29.3073
  1127 -26.1849 8.65976 23.2134
  1128 -26.2981 8.67904 -23.2520
  1129 -8.19384 11.1213 26.8457
  1130 -8.31848 11.1486 -26.8957
  1131 425.331 -21.8381 -35.1635
  1132 427.978 -21.9737 34.9265
  1133 0.480714 -70.1645 -24.6614
  1134 229.744 0.602629 -83.7250
  1135 230.054 1.30487 85.0317
  1136 75.1134 21.2601 -5.25600
  1137 75.2178 21.2096 5.26805
  1138 226.069 124.497 227.217
  1139 59.4202 16.8734 8.59717
  1140 59.3260 16.9043 -8.59537
  1141 577.454 -60.0454 -32.5596
  1142 220.962 4.97255 4.39911
  1143 220.939 4.97633 -4.39432
  1144 -9.77498 -8.69199 18.0071
  1145 -9.78303 -8.71387 -18.0032
  1146 -11.6219 -10.3914 23.2298
  1147 -11.6237 -10.4341 -23.2352
  1148 381.836 -36.7225 -116.224
  1149 389.159 -40.5808 117.051
  1150 71.4645 1.89042 1.15432
  1151 71.5210 1.89013 -1.15373
  1152 241.602 10.8931 -46.6103
  1153 241.584 10.7655 47.0449
  1154 519.638 -66.3872 90.0541
  1155 459.799 -1.26554 1.02955
  1156 459.645 -1.26455 -1.02866
  1157 -39.5755 6.45800 20.7740
  1158 -39.6875 6.47140 -20.8078
  1159 -68.7283 2.04220 -10.7211
  1160 -68.6038 2.03777 10.7075
  1161 121.440 9.46670 139.353
  1162 375.953 24.5344 -20.1895
  1163 221.005 14.8412 -23.6596
  1164 221.059 14.8090 23.7745
  1165 670.518 -11.1239 130.913
  1166 224.692 14.4718 -34.4092
  1167 224.754 14.4114 34.6081
  1168 58.5885 6.45249 -2.90165
  1169 58.6551 6.44769 2.90106
  1170 20.0961 -65.8404 15.8113
  1171 20.2957 -63.8637 -21.1654
  1172 303.397 -19.3229 -117.417
  1173 307.414 -17.9520 117.268
  1174 120.517 20.5347 -36.1730
  1175 120.007 20.9270 36.4883
  1176 529.937 -34.1068 -35.0372
  1177 -18.6579 -1.31387 33.6958
  1178 -18.7295 -1.31469 -33.7575
  1179 -0.0320054 -27.5388 -34.5318
  1180 137.849 6.93687 -88.7793
  1181 138.137 7.29549 90.1979
  1182 -0.336889 -26.9031 6.81914
  1183 -0.288268 -26.9695 -6.90454
  1184 -124.823 1.01818 -3.10741
  1185 -124.672 1.01742 3.10321
  1186 418.884 -0.789301 -2.01563
  1187 419.014 -0.790838 2.01683
  1188 261.956 8.52319 -13.7921
  1189 262.016 8.49650 13.8128
  1190 -8.69431 0.434556 36.6259
  1191 -8.72115 0.587930 -36.6985
  1192 0.00363893 -107.151 -10.3620
  1193 -106.540 0.230753 5.14432
  1194 -106.663 0.231371 -5.15300
  1195 85.9219 2.15126 -63.3733
  1196 85.3075 2.68329 65.2654
  1197 491.535 -29.9245 -3.79905
  1198 143.407 11.2802 -79.9165
  1199 143.489 11.6088 80.6235
  1200 -59.6958 0.330496 8.11935
  1201 -59.7374 0.330068 -8.13143
  1202 1.65435 -91.9201 -16.8326
  1203 -14.3366 3.31187 -3.75107
  1204 -14.2349 3.30950 3.74763
  1205 77.0486 17.6955 5.71639
  1206 76.9601 17.7284 -5.70581
  1207 277.772 0.448385 -1.75932
  1208 277.825 0.447229 1.76024
  1209 372.508 0.888981 8.29581
  1210 372.404 0.899189 -8.29535
  1211 21.6422 -1.08816 18.3384
  1212 21.3227 -1.44975 -18.7296
  1213 3.78008 -52.3738 25.8224
  1214 669.313 94.6722 17.2429
  1215 -20.5652 -1.57700 12.9523
  1216 -20.5699 -1.58403 -12.9607
  1217 3.01717 -49.0625 -27.1849
  1218 -1.92689 -31.1323 18.9133
  1219 -1.83530 -30.8240 -19.5901
  1220 528.180 -5.84423 8.58605
  1221 0.454250 -122.370 10.5660
  1222 4.29134 -35.7399 -30.3536
  1223 66.5319 1.30689 0.549966
  1224 66.4730 1.30687 -0.550302
  1225 -4.95630 -21.7436 34.1579
  1226 -55.5478 3.10468 -8.92037
  1227 -55.4264 3.10023 8.90989
  1228 1057.99 17.8091 30.7019
  1229 -29.5880 3.71508 30.0040
  1230 -29.6733 3.71369 -30.0596
  1231 257.723 9.78770 -42.1055
  1232 257.913 9.62304 42.3384
  1233 17.4792 -22.6862 -11.1163
  1234 244.941 11.4514 -17.4678
  1235 245.001 11.4154 17.5119
  1236 10.5095 -70.8513 -1.91493
  1237 -4.97785 -21.7998 -34.1179
  1238 -37.4865 1.30488 5.12067
  1239 -37.5999 1.30638 -5.12548
  1240 -17.6871 1.73852 -34.3109
  1241 -17.5996 1.74549 34.2522
  1242 524.828 42.6240 38.5675
  1243 297.295 2.81427 -44.2392
  1244 297.614 2.74946 44.3475
  1245 -129.966 0.250504 -1.05706
  1246 -129.805 0.250418 1.05568
  1247 267.406 5.36666 -9.30404
  1248 267.457 5.35744 9.31091
  1249 -132.766 -2.38042 -0.372891
  1250 -132.930 -2.38188 0.373017
  1251 398.065 -28.0824 -50.7140
  1252 -61.7496 1.08589 17.0069
  1253 -61.8284 1.08624 -17.0359
  1254 401.929 -29.6462 50.2589
  1255 272.307 8.83788 -18.6782
  1256 272.381 8.79484 18.7065
  1257 32.6460 -60.8025 -62.6798
  1258 0.603145 -84.9360 -21.0627
  1259 -1.61282 -35.5750 31.9911
  1260 839.222 154.260 -129.261
  1261 -0.179881 -80.0181 20.7622
  1262 877.672 83.1287 -57.3545
  1263 -0.538744 -148.484 -9.71601
  1264 46.0389 3.65865 -0.743059
  1265 46.1094 3.65672 0.742510
  1266 -0.362612 -34.5197 7.14250
  1267 -0.289676 -34.7063 -7.12568
  1268 153.679 2.82748 0.442580
  1269 153.692 2.82748 -0.441878
  1270 535.354 -39.1936 33.0900
  1271 14.1429 3.54299 -4.34343
  1272 14.2307 3.54009 4.34021
  1273 3.08663 -159.931 3.77958
  1274 1.96400 -170.679 -3.77117
  1275 492.284 -59.3207 -55.2240
  1276 -1.31428 -44.4177 20.8298
  1277 520.815 34.8734 -49.5703
  1278 -1.53032 -58.5237 20.4328
  1279 1.05731 -158.827 -7.12680
  1280 249.974 6.00300 -10.3714
  1281 250.018 5.98593 10.3846
  1282 -0.200186 -87.6125 9.23050
  1283 -0.204141 -72.2914 -20.7313
  1284 1143.37 208.625 178.319
  1285 461.828 0.0344388 0.773938
  1286 461.673 0.0346082 -0.773376
  1287 13.4841 2.09910 28.1446
  1288 13.0761 2.59920 -28.2889
  1289 -5.94140 7.19434 34.0337
  1290 -6.12358 7.19950 -34.1276
  1291 498.574 -8.89478 -30.9344
  1292 460.102 -19.5570 -20.6525
  1293 459.707 -22.1811 20.9325
  1294 71.9704 7.36362 2.78123
  1295 71.9088 7.36940 -2.78011
  1296 -73.8668 1.95570 -13.0374
  1297 -73.7524 1.95139 13.0154
  1298 512.753 -67.4539 -77.3478
  1299 -3.80905 -9.26517 9.49088
  1300 -3.82425 -9.25955 -9.48726
  1301 542.098 -21.5296 52.1054
  1302 -5.55617 -21.1341 25.3646
  1303 -5.49368 -21.2146 -25.2494
  1304 -44.9824 2.91109 6.16396
  1305 -45.0995 2.91448 -6.17069
  1306 84.2815 11.3520 -34.1280
  1307 83.4434 11.8157 34.0927
  1308 131.339 2.69519 0.0857417
  1309 131.314 2.69529 -0.0852748
  1310 -50.6561 5.17494 20.6626
  1311 -50.7633 5.18480 -20.6967
  1312 434.101 0.625652 1.20255
  1313 433.962 0.625602 -1.20174
  1314 243.518 1.75118 156.329
  1315 356.399 -0.0845331 2.94429
  1316 356.304 -0.0830467 -2.94278
  1317 240.336 5.25596 -64.1092
  1318 240.345 4.99035 64.6335
  1319 2.38985 -91.6520 -11.3214
  1320 94.6667 22.7418 -15.8307
  1321 94.2572 23.0036 15.9727
  1322 -0.931687 -0.815286 -1.20592
  1323 -0.936372 -0.815467 1.20942
  1324 307.118 8.24703 23.8890
  1325 307.001 8.33036 -23.8575
  1326 154.733 11.4891 4.64348
  1327 154.749 11.4880 -4.62756
  1328 226.080 11.5063 -12.1850
  1329 226.116 11.4873 12.2126
  1330 293.747 0.714166 -2.96854
  1331 293.808 0.712832 2.97009
  1332 -9.30290 -4.47836 -10.7055
  1333 -9.30014 -4.47235 10.7097
  1334 -85.9556 -0.0468874 3.64772
  1335 -86.0926 -0.0465569 -3.65192
  1336 -15.6653 -7.10275 -25.9101
  1337 -15.6495 -7.06526 25.8790
  1338 -47.0278 0.479336 1.49163
  1339 -47.1460 0.479085 -1.49290
  1340 -134.443 1.18958 0.596843
  1341 -134.608 1.19002 -0.597380
  1342 549.878 -64.8599 104.418
  1343 408.802 -1.96748 -43.5116
</Section>

newXOutput 66

<Section columns = "stress_xx | stress_yy | stress_xy">
  1 482.130 -0.860228 0.512880
  2 482.296 -0.860882 -0.513139
  3 -147.609 0.661019 -2.03108
  4 0.234692 0.0543616 0.419470
  5 865.052 268.580 288.812
  6 978.397 302.190 -278.320
  7 0.233560 0.0533414 -0.417964
  8 -147.433 0.660883 2.02999
  9 480.726 -0.823058 -1.60212
  10 481.150 -1.59150 -2.57352
  11 485.659 -1.59355 -0.714212
  12 486.220 -1.56574 -3.06306
  13 487.578 -1.54995 -1.00315
  14 497.650 -1.44057 -1.37022
  15 501.253 -2.03410 -4.11411
  16 505.250 -1.04635 -2.85142
  17 507.915 -0.0545361 -5.49611
  18 528.281 -3.08361 -4.70243
  19 537.322 -2.45934 -6.01231
  20 547.466 -3.60528 -2.55122
  21 552.626 -4.68673 -1.70667
  22 549.899 -5.30285 6.47861
  23 532.872 -5.83199 13.9798
  24 492.529 -6.26286 30.3505
  25 426.118 3.93964 35.4721
  26 372.099 4.94417 32.7507
  27 296.190 9.36890 19.8189
  28 314.135 9.10066 2.07111
  29 266.773 26.7325 -12.4595
  30 354.863 12.4632 -36.0793
  31 402.501 3.29535 -29.4185
  32 483.446 -1.21172 -25.5070
  33 527.442 -7.07270 -16.8455
  34 549.270 -6.16876 -6.42252
  35 551.737 -4.55010 1.75059
  36 546.874 -3.56135 2.41720
  37 537.130 -2.47325 5.85222
  38 528.268 -3.11962 4.61302
  39 508.025 -0.0745654 5.45608
  40 505.400 -1.05390 2.83751
  41 501.422 -2.03914 4.11084
  42 497.824 -1.44329 1.36899
  43 487.749 -1.55186 1.00331
  44 486.390 -1.56740 3.06523
  45 485.829 -1.59483 0.714996
  46 481.316 -1.59264 2.57539
  47 480.891 -0.823704 1.60327
  48 455.388 0.884761 -0.616164
  49 422.455 -0.0582816 -1.34322
  50 381.169 -2.02555 -1.31516
  51 338.228 0.377946 -1.09381
  52 300.469 -0.0219179 -0.863667
  53 259.945 1.26349 -1.01649
  54 219.826 3.37717 -0.586477
  55 178.053 2.94316 -1.27238
  56 143.322 1.85907 -1.80278
  57 97.6295 0.954605 -1.89976
  58 51.1196 2.00784 -1.45380
  59 12.2357 1.68677 -1.40627
  60 -36.3644 0.906493 -1.27328
  61 -72.5066 -0.666966 -3.20164
  62 -107.533 -2.50022 -1.45323
  63 -143.113 0.256145 1.01472
  64 -150.880 2.57984 -0.333620
  65 -151.504 1.11731 0.506800
  66 -146.503 0.533632 -0.114130
  67 -148.355 1.64777 -1.76905
  68 -146.127 2.01602 -0.0662687
  69 -138.326 0.595226 -2.74059
  70 -140.270 1.24779 -2.96338
  71 -136.905 1.17631 -1.61791
  72 -126.856 0.721007 -2.48889
  73 -122.439 1.34013 -4.18344
  74 -115.117 1.51254 -3.40207
  75 -102.023 0.766596 -6.00656
  76 -94.7069 0.238752 -5.01482
  77 -81.3736 0.342023 -5.82097
  78 -69.9326 0.279505 -6.48048
  79 -59.8977 0.100896 -5.11636
  80 -45.8959 0.307202 -5.16462
  81 -33.7976 -0.116599 -5.53999
  82 -22.0848 -0.594508 -4.88557
  83 -12.7827 -0.522834 -3.75593
  84 -6.30633 -0.925982 -3.14796
  85 -1.09070 -0.536166 -1.13567
  86 0.0446742 -0.602684 -0.413283
  87 -0.324003 -0.338884 -0.0916914
  88 -0.840366 -0.891757 -0.996593
  89 -0.817010 -5.34149 -2.73715
  90 -0.690671 -11.9241 -3.88316
  91 -0.352356 -20.2720 -5.65155
  92 -0.176991 -31.1008 -4.86960
  93 -0.134401 -41.0168 -6.12426
  94 -0.742109 -53.0629 -6.89342
  95 -0.304612 -67.9748 -6.93907
  96 0.139891 -82.9883 -6.63329
  97 0.322910 -99.0494 -6.53343
  98 0.504062 -115.517 -6.40555
  99 0.00736494 -127.463 -8.65363
  100 0.833128 -144.612 -7.72993
  101 1.04035 -164.641 -6.08893
  102 -0.126568 -173.070 -8.07164
  103 1.47281 -187.235 -7.41887
  104 3.69987 -205.999 -3.13458
  105 7.26178 -210.027 -4.99157
  106 5.32444 -188.625 6.78878
  107 8.11619 -136.252 24.6055
  108 38.1721 -65.2368 67.3579
  109 116.865 198.991 215.083
  110 1325.91 73.5600 133.387
  111 1141.29 21.1101 48.0996
  112 1104.55 7.28583 11.1679
  113 1096.48 1.98554 -1.75642
  114 1104.15 11.5031 -25.3381
  115 1140.16 38.5812 -57.3846
  116 1292.08 143.921 -169.684
  117 282.652 156.163 -261.809
  118 64.9013 -64.9375 -80.7303
  119 19.2538 -149.377 -31.0155
  120 5.41550 -178.301 -7.16864
  121 5.89045 -201.856 2.23585
  122 1.64630 -197.739 2.20498
  123 0.549177 -182.512 6.18909
  124 0.621677 -172.200 4.87491
  125 0.905982 -155.477 8.68476
  126 -0.0438562 -145.983 8.52983
  127 0.357884 -132.001 6.12377
  128 0.715011 -114.157 7.85713
  129 0.149229 -101.387 6.22233
  130 0.205491 -83.0580 7.86715
  131 -0.830068 -68.8033 6.77126
  132 -0.569621 -53.1042 6.67480
  133 -0.0910419 -40.7847 6.13840
  134 -0.232093 -30.9195 4.87679
  135 -0.343173 -20.2124 5.59576
  136 -0.680405 -11.9163 3.86371
  137 -0.812624 -5.34969 2.73522
  138 -0.839206 -0.900674 0.998608
  139 -0.323942 -0.342697 0.0942595
  140 0.0400221 -0.603230 0.415586
  141 -1.09938 -0.535817 1.13854
  142 -6.31905 -0.925002 3.15068
  143 -12.7994 -0.521128 3.75661
  144 -22.0972 -0.592407 4.88325
  145 -33.7991 -0.114860 5.53391
  146 -45.8845 0.307547 5.15753
  147 -59.8682 0.101783 5.10886
  148 -69.8865 0.280587 6.47167
  149 -81.3051 0.342006 5.81155
  150 -94.6175 0.238703 5.00580
  151 -101.919 0.766075 5.99747
  152 -114.993 1.51156 3.39481
  153 -122.303 1.33903 4.17730
  154 -126.709 0.720272 2.48478
  155 -136.747 1.17549 1.61510
  156 -140.107 1.24713 2.96034
  157 -138.161 0.595002 2.73803
  158 -145.955 2.01501 0.0654096
  159 -148.181 1.64698 1.76760
  160 -146.329 0.533513 0.113760
  161 -151.326 1.11686 -0.506696
  162 -150.703 2.57864 0.333322
  163 -142.940 0.256219 -1.01431
  164 -107.379 -2.49852 1.45240
  165 -72.3720 -0.666069 3.19995
  166 -36.2492 0.906622 1.27250
  167 12.3252 1.68651 1.40546
  168 51.1886 2.00742 1.45300
  169 97.6741 0.954835 1.89877
  170 143.342 1.85898 1.80189
  171 178.055 2.94274 1.27179
  172 219.805 3.37661 0.586194
  173 259.903 1.26404 1.01595
  174 300.405 -0.0207957 0.863161
  175 338.144 0.378614 1.09315
  176 381.060 -2.02373 1.31443
  177 422.323 -0.0578653 1.34247
  178 455.237 0.884480 0.615828
  179 131.269 22.0602 -7.43692
  180 131.185 22.1074 7.50217
  181 -1.28110 4.38161 35.1376
  182 -1.42568 4.34507 -35.1637
  183 294.923 -3.82645 -68.1838
  184 294.680 -4.37440 68.8684
  185 60.3775 15.1260 -5.77543
  186 59.6657 15.3638 5.78342
  187 45.7380 6.86587 -4.61348
  188 45.8151 6.85878 4.61130
  189 278.011 4.30163 -10.4444
  190 278.068 4.28740 10.4536
  191 -2.45906 10.9726 18.4966
  192 -2.57448 10.9976 -18.5229
  193 322.786 7.30175 -26.0233
  194 322.935 7.20031 26.0637
  195 -12.2595 -10.6025 28.6607
  196 -12.2587 -10.6675 -28.7013
  197 3.36621 -24.6192 -33.2772
  198 102.736 8.75647 -64.2533
  199 4.02646 -26.3861 32.4284
  200 101.124 9.53583 65.1851
  201 456.102 -58.8560 -98.3176
  202 471.499 -61.1586 94.5402
  203 166.471 4.55389 -2.20177
  204 166.463 4.55340 2.20501
  205 -22.6092 1.46788 -3.43287
  206 -22.5011 1.46710 3.42993
  207 -34.9227 5.62219 27.0932
  208 -35.0247 5.63195 -27.1446
  209 167.435 14.2789 -6.15812
  210 167.424 14.2812 6.18085
  211 52.5108 21.5303 11.1797
  212 52.3029 21.6562 -11.2365
  213 -43.8320 4.75954 -10.7342
  214 -43.7128 4.75196 10.7206
  215 366.766 -0.238307 4.84803
  216 366.666 -0.234537 -4.84615
  217 12.4481 -45.9967 12.5143
  218 13.5217 -41.3837 -10.7514
  219 -3.25581 -30.1192 32.1572
  220 -3.34773 -31.3439 -31.1660
  221 155.273 22.0854 -29.0472
  222 155.116 22.1976 29.3027
  223 -32.1894 0.0309222 27.7366
  224 -32.2473 0.0254902 -27.7805
  225 392.309 1.47713 -13.9809
  226 392.426 1.44802 13.9735
  227 423.194 -6.81316 -27.8494
  228 423.537 -7.21934 27.7678
  229 678.630 50.4958 0.674250
  230 622.765 70.7476 30.4056
  231 610.791 -1.61299 -48.4000
  232 77.9295 16.2295 5.41182
  233 77.8493 16.2558 -5.40434
  234 7.14811 13.9234 26.3843
  235 7.01025 13.9638 -26.4315
  236 472.858 -28.5170 -20.0912
  237 470.164 -28.8493 21.6475
  238 262.983 1.30402 -3.91421
  239 263.028 1.30115 3.91674
  240 -56.3158 4.03751 17.8786
  241 -56.4299 4.04642 -17.9079
  242 -7.94867 -7.81238 -13.0186
  243 -7.94038 -7.80615 13.0252
  244 -61.2182 1.29568 5.28277
  245 -61.3457 1.29745 -5.28852
  246 217.830 15.2071 -18.2196
  247 217.863 15.1827 18.2828
  248 276.202 7.62343 -39.3190
  249 276.398 7.49954 39.4831
  250 69.5180 3.55557 0.0919145
  251 69.5780 3.55416 -0.0918370
  252 161.050 7.43592 -135.301
  253 189.961 11.5310 146.792
  254 22.8664 10.7572 24.5837
  255 22.7679 10.9729 -24.7041
  256 639.555 -44.0510 -18.6035
  257 58.6947 20.9840 9.74427
  258 58.5733 21.0377 -9.74593
  259 158.280 17.6201 -52.3704
  260 157.964 18.0285 52.8806
  261 717.232 103.980 0.788919
  262 425.421 -0.480391 18.9108
  263 425.255 -0.361848 -18.9572
  264 -3.78955 -23.6229 -20.3003
  265 -3.67260 -23.7143 20.3781
  266 -0.744144 -55.6912 -27.5946
  267 2.08818 -64.2521 -24.8397
  268 1.14951 -64.6268 26.2668
  269 -10.1374 -8.72286 36.4977
  270 -10.1851 -8.71342 -36.6532
  271 23.7873 -47.8626 -12.5647
  272 25.6306 -43.6840 16.6037
  273 -24.4128 -2.00465 17.8075
  274 -24.4295 -2.01428 -17.8259
  275 304.690 7.41165 -16.3885
  276 304.779 7.37280 16.4028
  277 530.731 -53.1764 -7.89233
  278 120.610 9.21172 0.798302
  279 120.646 9.20724 -0.792542
  280 -1.30636 -52.3145 26.4149
  281 14.2310 10.5369 11.4515
  282 14.1294 10.5553 -11.4631
  283 838.830 57.6120 -25.0413
  284 411.763 -0.365017 5.88419
  285 411.640 -0.358687 -5.88419
  286 280.609 -11.8785 -101.837
  287 282.943 -11.6662 103.295
  288 530.087 -50.4846 -0.697229
  289 -49.4426 1.60233 21.8247
  290 -49.5152 1.60209 -21.8615
  291 517.410 -35.9494 164.783
  292 -21.3000 4.01830 32.8676
  293 -21.3913 4.01118 -32.9313
  294 90.6621 24.7922 -9.56524
  295 90.3066 25.0212 9.65312
  296 -88.2081 0.545205 0.893043
  297 -88.3511 0.545035 -0.893985
  298 436.834 16.5806 -222.980
  299 -84.0060 1.64041 -9.51839
  300 -83.8759 1.63686 9.50405
  301 -1.82696 -9.97601 36.8256
  302 -0.482703 -9.66043 -36.3800
  303 195.747 19.1263 -26.1738
  304 195.744 19.1289 26.3241
  305 45.4972 4.37097 3.47935
  306 45.4231 4.37407 -3.48137
  307 203.063 6.71292 -5.79871
  308 203.075 6.70915 5.80647
  309 19.9654 -12.1999 17.4798
  310 18.2089 -14.9974 -17.7712
  311 197.130 2.45048 -1.53546
  312 197.139 2.44992 1.53677
  313 -69.6442 1.82730 15.8890
  314 -69.7400 1.82994 -15.9167
  315 50.5360 -1.85567 -15.2938
  316 49.0772 -1.93344 13.9703
  317 428.604 -0.892885 1.64974
  318 428.468 -0.891700 -1.64850
  319 930.373 52.3567 38.7275
  320 100.811 12.3204 1.30145
  321 100.758 12.3316 -1.29291
  322 -17.3767 4.36055 7.15944
  323 -17.4843 4.36664 -7.16727
  324 137.439 17.5016 -5.16564
  325 137.395 17.5177 5.20228
  326 17.5121 14.5316 27.1974
  327 17.3981 14.5611 -27.2771
  328 2.11502 -93.2700 18.0453
  329 -91.7189 0.0139084 -2.11640
  330 -91.5747 0.0141554 2.11423
  331 329.418 -0.0415325 -3.17905
  332 329.497 -0.0434400 3.18064
  333 346.786 1.40480 -8.42658
  334 346.877 1.39393 8.42859
  335 -85.9612 1.35305 -6.79051
  336 -85.8235 1.35092 6.78234
  337 2.15054 1.18978 0.664468
  338 2.05559 1.18990 -0.665235
  339 -1.93912 -38.9911 20.2093
  340 -1.53591 -40.5587 -20.1807
  341 392.315 -31.7180 -69.2326
  342 407.105 -37.9677 68.0291
  343 234.278 10.2367 -11.3840
  344 234.313 10.2215 11.4032
  345 105.170 24.0067 -6.09564
  346 104.986 24.1177 6.16514
  347 -33.3280 6.71484 15.4392
  348 -33.4439 6.72858 -15.4619
  349 720.939 21.6043 26.5500
  350 39.9075 -48.9707 -47.3526
  351 42.6732 -44.8508 49.3604
  352 -13.3484 11.1563 25.0873
  353 -13.4691 11.1816 -25.1314
  354 -19.5527 -3.75033 32.4448
  355 -19.6074 -3.76149 -32.5068
  356 818.211 141.260 -46.0774
  357 532.005 -5.59003 62.2140
  358 492.340 -12.0201 -13.1324
  359 491.996 -11.7390 12.4015
  360 348.042 -4.59178 -44.2486
  361 347.627 -4.91027 44.2801
  362 0.673475 -112.380 -14.4150
  363 449.586 0.480322 -10.5360
  364 449.718 0.447637 10.5106
  365 6.05432 -104.796 10.5415
  366 530.547 41.8332 -31.8648
  367 131.194 3.44408 1.23153
  368 131.167 3.44489 -1.23195
  369 349.563 1.67877 -32.8313
  370 349.785 1.52150 32.8841
  371 375.066 2.09778 -19.7425
  372 375.195 2.02788 19.7333
  373 -3.44861 3.69908 4.64818
  374 -3.54815 3.70261 -4.65250
  375 218.636 12.0948 -53.1821
  376 218.668 12.2370 53.6254
  377 441.516 -0.721665 2.69247
  378 441.373 -0.719829 -2.69109
  379 254.609 12.9066 -27.1477
  380 254.698 12.8394 27.2444
  381 292.162 3.42925 7.02237
  382 292.101 3.43507 -7.01841
  383 -13.8852 -2.47172 11.0505
  384 -13.8856 -2.47852 -11.0517
  385 -3.32240 -2.35527 -3.25757
  386 -3.32381 -2.35627 3.26249
  387 590.422 -69.7192 47.2222
  388 -7.52660 -18.2600 29.8215
  389 -7.47372 -18.4227 -29.8288
  390 99.9612 5.43287 -1.00594
  391 100.007 5.43044 1.00725
  392 -2.91853 -14.7449 11.1061
  393 -2.95244 -14.7228 -11.1084
  394 40.0699 16.4837 12.2311
  395 39.9632 16.5180 -12.2401
  396 482.445 -2.63328 14.0129
  397 482.260 -2.46732 -14.2223
  398 -0.849834 -27.7671 35.3630
  399 -39.5277 -0.671870 16.7813
  400 -39.5608 -0.675722 -16.8047
  401 -1.00312 -29.3839 -34.9699
  402 452.026 -0.378857 6.72074
  403 451.884 -0.369236 -6.72640
  404 -2.70819 10.4674 31.7823
  405 -2.86665 10.4968 -31.8529
  406 336.805 3.92664 -13.3198
  407 336.896 3.90281 13.3224
  408 516.490 -22.0016 -9.10417
  409 517.786 -17.8833 6.64710
  410 -0.998350 -53.0231 -22.0820
  411 48.5410 18.3721 -7.06715
  412 48.9370 18.1860 7.00270
  413 522.820 33.8272 19.6743
  414 295.543 -12.5841 -140.007
  415 303.113 -17.9583 146.282
  416 19.9146 15.9203 19.7358
  417 19.7897 15.9603 -19.7638
  418 217.984 4.77793 -3.97009
  419 218.004 4.77598 3.97377
  420 211.903 45.5112 221.631
  421 89.8829 19.9126 -3.10465
  422 89.9770 19.8705 3.12439
  423 5.78223 -48.5493 22.8242
  424 -0.634946 -85.9526 -18.9869
  425 36.8058 19.7763 17.8748
  426 36.6623 19.8352 -17.9095
  427 45.7479 10.7944 -7.10941
  428 45.8317 10.7799 7.10656
  429 -13.7963 -0.283177 -36.2365
  430 -13.7062 -0.303631 36.1690
  431 106.788 21.4486 -23.2947
  432 106.329 21.7561 23.4981
  433 521.180 -15.9171 -47.3292
  434 15.7698 -3.65962 26.6107
  435 15.2744 -3.54779 -26.7991
  436 379.807 -16.4535 -48.8666
  437 381.319 -17.5632 48.8198
  438 -92.6908 0.695505 -9.44836
  439 -92.5687 0.693178 9.43259
  440 -0.00288708 -84.6509 17.1507
  441 -0.587046 -53.8774 19.6818
  442 -37.4792 2.59188 27.8886
  443 -37.5553 2.58983 -27.9369
  444 272.298 1.16324 -1.47181
  445 272.346 1.16203 1.47264
  446 -8.02415 -12.6844 20.4076
  447 -8.03938 -12.7155 -20.3889
  448 172.378 10.6901 -76.9307
  449 172.013 11.4313 77.7292
  450 1.43546 -101.473 -18.4121
  451 928.453 31.4461 0.417212
  452 2.71371 -118.220 -9.57552
  453 -108.194 -0.172259 -3.25688
  454 -108.042 -0.172248 3.25354
  455 -40.9874 6.03050 22.3179
  456 -41.0989 6.04328 -22.3575
  457 -49.5800 0.730896 16.7937
  458 -49.6293 0.730427 -16.8188
  459 187.890 18.2838 -18.2660
  460 187.887 18.2913 18.3571
  461 281.512 9.96680 -20.9782
  462 281.605 9.90930 21.0197
  463 -4.31291 -16.6793 36.6448
  464 -4.31972 -16.5694 -36.8016
  465 491.368 9.98024 -59.5955
  466 34.7054 -5.83636 -2.48444
  467 33.4919 -6.13272 3.11083
  468 8.07840 -104.287 -3.71474
  469 5.26702 -122.004 -0.0711806
  470 -14.6352 -6.48627 20.9865
  471 -14.6441 -6.51090 -20.9980
  472 105.702 1.65142 -117.980
  473 735.888 10.9779 -81.3215
  474 171.236 9.79538 5.80943
  475 171.243 9.79632 -5.79611
  476 247.921 3.24544 -73.4914
  477 248.419 3.17563 74.5247
  478 74.6763 25.0189 5.21014
  479 74.5266 25.1044 -5.20189
  480 224.082 16.1007 -39.5009
  481 224.152 16.0337 39.7658
  482 9.32741 5.32448 32.1320
  483 9.82221 5.57346 -32.0939
  484 -96.3259 1.33134 -6.79211
  485 -96.1864 1.32953 6.78288
  486 486.549 -55.4430 -40.9803
  487 384.833 -0.643268 -2.23914
  488 384.944 -0.644512 2.24050
  489 24.4780 2.07487 -1.76988
  490 24.5617 2.07388 1.76836
  491 -22.5361 8.85927 20.4777
  492 -22.6529 8.87916 -20.5103
  493 -52.8765 3.13730 -7.13233
  494 -52.7533 3.13310 7.12381
  495 171.353 15.4333 -8.85048
  496 171.342 15.4345 8.88546
  497 -18.5573 7.89435 29.3873
  498 -18.6741 7.91187 -29.4474
  499 445.165 -13.0948 -26.3394
  500 445.930 -13.6968 26.0432
  501 294.727 2.72249 -49.1108
  502 294.264 2.54245 49.5133
  503 112.074 4.09721 -0.480214
  504 112.112 4.09608 0.480622
  505 1.38688 -51.4739 -29.7333
  506 523.106 -18.1220 38.6842
  507 7.72261 -32.7742 -26.0756
  508 151.608 23.5002 19.1189
  509 151.716 23.4252 -18.9718
  510 481.273 -51.8685 40.5651
  511 38.3101 -38.5522 63.7766
  512 570.839 -68.5299 -79.0803
  513 390.323 0.617226 23.8188
  514 390.140 0.756220 -23.8287
  515 1.36165 -43.8800 30.9469
  516 -7.66290 -2.26825 -5.94315
  517 -7.66587 -2.26687 5.94710
  518 51.5758 1.76906 -0.432514
  519 51.6448 1.76873 0.432114
  520 -1.29915 -30.2630 13.0379
  521 -1.17867 -30.1247 -13.1074
  522 321.828 2.14239 5.45168
  523 321.752 2.14541 -5.44916
  524 895.819 163.868 74.9398
  525 39.1002 -19.1506 -15.2391
  526 30.5365 -27.1887 8.85528
  527 -5.82874 6.48721 -9.64578
  528 -5.72362 6.47643 9.63501
  529 -77.5082 1.21693 10.0062
  530 -77.5888 1.21828 -10.0226
  531 0.804821 -95.4193 18.5130
  532 -105.766 0.794870 0.801720
  533 -105.918 0.794927 -0.802732
  534 102.247 -0.846197 -87.6239
  535 100.067 0.700933 90.8277
  536 93.8934 17.9207 -32.1213
  537 93.1932 18.3176 32.2954
  538 -20.6483 -4.19196 28.5056
  539 -20.6842 -4.21148 -28.5512
  540 93.0885 7.20746 0.917663
  541 93.0378 7.21187 -0.915382
  542 -42.2653 1.78250 2.82422
  543 -42.3837 1.78371 -2.82752
  544 108.986 14.6893 0.308279
  545 108.931 14.7062 -0.292017
  546 -2.10673 -6.92369 5.08981
  547 -2.11418 -6.91799 -5.08898
  548 40.4658 17.5137 15.3945
  549 40.1990 17.7457 -15.4959
  550 32.6810 6.69867 13.1117
  551 32.2297 6.65983 -13.3907
  552 393.717 1.84335 9.99606
  553 393.602 1.85560 -9.99708
  554 349.798 3.53792 16.1488
  555 349.693 3.57793 -16.1484
  556 -0.355947 -81.6806 -11.9510
  557 247.171 11.1421 -16.3906
  558 247.223 11.1145 16.4241
  559 247.404 4.48327 -6.40179
  560 247.441 4.47698 6.40794
  561 -29.1084 0.756709 0.136755
  562 -28.9971 0.756888 -0.136985
  563 432.576 22.5473 -11.4714
  564 548.057 -66.6376 -31.5192
  565 460.244 21.9035 44.6743
  566 3.97285 -67.5710 -21.0383
  567 -21.1032 7.38410 -13.1172
  568 -20.9907 7.37099 13.1005
  569 4.29116 -38.8253 28.7933
  570 -23.4771 0.945347 32.3421
  571 -23.5497 0.940140 -32.3966
  572 701.665 67.2122 4.29583
  573 162.857 6.30889 -2.97024
  574 162.846 6.30862 2.97543
  575 1042.67 89.8260 -94.4387
  576 -4.31857 -3.29805 37.3687
  577 -3.93920 -3.01404 -37.3907
  578 579.023 -48.6261 17.5934
  579 464.394 -0.165807 -11.6721
  580 464.525 -0.221359 11.6206
  581 218.299 2.22237 -106.047
  582 220.778 1.53272 107.583
  583 -11.5782 -11.0664 32.9212
  584 -11.5918 -11.1273 -33.0137
  585 115.937 12.4068 58.1329
  586 116.899 11.5842 -57.7089
  587 -90.2318 1.01702 -9.29250
  588 -90.1203 1.01532 9.27679
  589 682.072 63.5346 30.4239
  590 133.857 11.0522 2.00567
  591 133.887 11.0471 -1.99537
  592 157.526 19.7240 -40.3502
  593 157.295 19.9579 40.7324
  594 422.086 -1.76796 -23.2001
  595 422.322 -1.96372 23.1630
  596 -1.74554 -41.9979 -29.5267
  597 455.953 -0.945588 3.52468
  598 455.804 -0.943066 -3.52365
  599 -62.5984 1.01154 -0.998679
  600 -62.4694 1.01135 0.997245
  601 -113.568 -0.949550 -0.0242476
  602 -113.725 -0.950414 0.0240586
  603 10.4005 -60.5854 -8.12824
  604 -4.18263 -27.4604 25.5286
  605 -4.41164 -25.9533 -25.6981
  606 -50.9388 3.24520 23.1298
  607 -51.0278 3.24933 -23.1702
  608 322.733 6.70730 20.5235
  609 322.624 6.76885 -20.5082
  610 238.699 1.83795 1.48147
  611 238.669 1.83847 -1.48058
  612 55.7035 -10.2320 38.2917
  613 57.3849 -9.07204 -37.9737
  614 -1.62728 -21.1330 11.0378
  615 -1.67933 -21.0680 -11.0764
  616 545.963 50.0119 238.530
  617 -27.2263 -0.810433 10.1958
  618 -27.2306 -0.814449 -10.2052
  619 10.4670 -36.4008 -20.3474
  620 233.946 7.96190 -8.75710
  621 233.977 7.95275 8.76869
  622 116.795 24.2602 -15.0889
  623 116.558 24.4120 15.2287
  624 1.11128 -142.061 6.53357
  625 88.3751 23.2118 2.15779
  626 88.2604 23.2735 -2.13396
  627 -6.16256 9.35546 15.8114
  628 -6.27413 9.37437 -15.8321
  629 -0.650568 -71.8137 16.3009
  630 -114.270 0.0148403 -3.27801
  631 -114.116 0.0146381 3.27436
  632 155.566 2.93384 1.11946
  633 155.581 2.93414 -1.11790
  634 383.697 0.195515 6.70222
  635 383.588 0.201448 -6.70056
  636 341.455 -18.2747 182.480
  637 274.998 5.59324 -12.7928
  638 275.058 5.57204 12.8064
  639 5.42487 -4.51692 34.0327
  640 6.48820 -2.13321 -33.9036
  641 437.194 -39.1078 -148.372
  642 1010.76 34.1663 -39.2189
  643 -106.222 0.0329924 -6.35086
  644 -106.088 0.0319609 6.34121
  645 29.8191 5.12906 -4.14402
  646 29.9023 5.12428 4.14109
  647 -1.94706 -44.7757 26.1882
  648 593.346 38.0648 -52.8049
  649 450.684 -1.15557 0.636135
  650 450.536 -1.15458 -0.635507
  651 -28.8585 -1.48057 -23.5383
  652 -28.8232 -1.47249 23.5053
  653 -0.0970195 -101.674 -15.4789
  654 458.314 -1.11955 1.36137
  655 458.161 -1.11849 -1.36020
  656 45.8194 14.1184 10.1770
  657 45.7250 14.1430 -10.1815
  658 355.135 -29.0739 -98.1185
  659 361.277 -28.9201 99.1338
  660 512.075 -3.63290 8.23935
  661 512.087 -3.60334 -8.54122
  662 2.28508 -127.166 11.6521
  663 -23.9852 0.463615 -1.60777
  664 -23.8764 0.463747 1.60617
  665 170.323 31.0223 -174.845
  666 161.654 2.48026 1.43849
  667 161.664 2.48011 -1.43755
  668 81.7786 4.91767 0.135696
  669 81.7243 4.92001 -0.135086
  670 96.3718 9.31972 -0.171982
  671 96.4230 9.31283 0.177302
  672 303.397 7.52068 -31.7707
  673 303.566 7.40245 31.8550
  674 82.8506 23.6997 -1.90459
  675 82.5969 23.8641 1.93012
  676 -51.7163 3.85221 -12.6374
  677 -51.5954 3.84384 12.6196
  678 -61.0233 4.23210 -14.5870
  679 -60.9035 4.22389 14.5641
  680 527.421 -8.19686 -0.575982
  681 1.12102 -20.1884 -35.2190
  682 527.987 -8.59549 -0.0919644
  683 675.909 52.0940 -3.51822
  684 -65.8395 0.323130 11.4238
  685 -65.9018 0.322722 -11.4423
  686 72.1266 21.2291 -7.12889
  687 71.6145 21.4726 7.16768
  688 -122.552 -0.00198124 -1.07822
  689 -122.392 -0.00184622 1.07679
  690 1.58512 -18.0386 35.2135
  691 -40.8083 0.663858 24.5810
  692 -40.8719 0.660992 -24.6206
  693 580.004 -45.3515 -19.7368
  694 95.5539 1.42422 -0.852514
  695 95.5082 1.42423 0.852981
  696 24.6915 7.95965 7.28030
  697 24.6014 7.96985 -7.28547
  698 310.358 -13.1800 -82.4634
  699 312.569 -13.7017 83.9730
  700 1052.94 75.5054 85.4841
  701 21.6329 -87.9125 -38.9637
  702 -7.33708 -15.6620 35.0937
  703 -7.34428 -15.7302 -35.1810
  704 68.2676 13.7684 -4.81189
  705 68.3435 13.7502 4.81530
  706 471.162 -0.977685 -3.57293
  707 471.319 -0.980675 3.57234
  708 228.450 2.66446 2.81838
  709 228.425 2.66633 -2.81609
  710 21.0195 16.9561 24.0322
  711 20.8829 17.0060 -24.0822
  712 15.5730 3.66086 2.89670
  713 15.4842 3.66327 -2.89915
  714 -12.2456 3.66951 35.3103
  715 -12.3494 3.66352 -35.3908
  716 388.971 -1.12016 2.85880
  717 388.858 -1.11788 -2.85729
  718 338.080 1.88322 7.70343
  719 337.995 1.88956 -7.70051
  720 47.3951 -23.6622 45.4277
  721 48.6872 -25.7812 -44.0322
  722 -24.8566 5.88172 30.7748
  723 -24.9590 5.88691 -30.8366
  724 14.9313 -29.4468 15.3030
  725 2.72853 10.6439 31.9083
  726 2.56304 10.6680 -31.9598
  727 -71.8778 1.96240 -8.30249
  728 -71.7477 1.95882 8.29117
  729 62.2568 18.6554 8.95938
  730 62.1499 18.6960 -8.95640
  731 523.695 -15.5167 -25.9308
  732 495.689 -42.4701 -15.4562
  733 -7.85197 -16.1012 25.1400
  734 -7.84384 -16.1808 -25.1117
  735 195.976 3.36313 -125.028
  736 191.028 7.37942 126.068
  737 120.507 22.9330 -21.8862
  738 120.193 23.1548 22.0940
  739 11.0525 -17.0479 27.2705
  740 -0.686282 -53.3990 -14.2629
  741 247.847 12.6743 -30.3063
  742 247.950 12.6105 30.4479
  743 0.607411 -104.492 13.0855
  744 149.381 19.4563 -9.66612
  745 149.336 19.4770 9.72443
  746 495.609 -0.843786 -8.81794
  747 495.703 -0.900847 8.71763
  748 10.2192 -135.185 5.37503
  749 228.363 15.8758 23.2038
  750 228.312 15.9091 -23.1151
  751 63.5939 22.3222 -3.52311
  752 63.9220 22.1059 3.48501
  753 -89.2503 0.585379 -7.89311
  754 -89.1540 0.584717 7.87916
  755 251.980 3.12018 -5.50556
  756 252.018 3.11637 5.50964
  757 157.740 21.7491 -16.2575
  758 157.674 21.7898 16.3661
  759 3.41006 13.5310 24.2859
  760 3.28226 13.5668 -24.3263
  761 497.151 -36.4134 9.32857
  762 -73.9231 1.46801 6.26844
  763 -74.0564 1.46981 -6.27515
  764 1051.63 215.452 -153.028
  765 -25.5840 2.60072 6.35331
  766 -25.6946 2.60397 -6.35960
  767 421.606 0.365580 16.4169
  768 421.469 0.432573 -16.4493
  769 783.177 47.5531 -0.410076
  770 475.003 -1.70757 -6.67913
  771 475.150 -1.71820 6.66936
  772 307.090 3.30014 9.79126
  773 307.019 3.31081 -9.78636
  774 458.142 -47.7693 135.377
  775 201.886 13.4906 -9.48805
  776 201.901 13.4830 9.51439
  777 4.81869 -76.4128 14.7010
  778 524.761 -63.2914 47.3139
  779 319.274 -0.236604 1.64944
  780 319.200 -0.235270 -1.64859
  781 415.505 -0.498055 0.873665
  782 415.377 -0.497269 -0.873000
  783 -1.80341 -41.8368 -24.5496
  784 2.70683 -70.0498 22.9785
  785 191.977 20.6977 32.2258
  786 191.999 20.6752 -31.9991
  787 1038.76 9.31816 9.48462
  788 326.467 2.03268 -39.3344
  789 326.683 1.89130 39.4402
  790 -65.5634 2.17147 17.1598
  791 -65.6715 2.17683 -17.1883
  792 14.5295 -54.1780 2.44448
  793 9.31251 -125.294 -11.8042
  794 738.084 96.6517 -17.9355
  795 -0.629702 -53.2760 12.8809
  796 16.7572 11.5653 28.1292
  797 16.6991 11.5563 -28.2834
  798 102.399 18.9252 0.796909
  799 102.327 18.9565 -0.774917
  800 492.628 -22.7667 -9.60901
  801 493.770 -22.4436 8.10221
  802 573.499 101.357 -226.312
  803 -75.8513 0.627592 -2.66165
  804 -75.7160 0.627080 2.65835
  805 -37.3206 -0.132139 9.57658
  806 -37.3343 -0.133903 -9.58825
  807 37.6144 4.81014 6.19490
  808 36.8321 4.77518 -6.29066
  809 375.388 -2.82196 35.3107
  810 375.117 -2.53284 -35.2143
  811 193.428 3.89217 -1.89623
  812 193.435 3.89125 1.89856
  813 603.244 -5.12080 47.9364
  814 67.3202 9.46991 -4.35889
  815 67.3897 9.46001 4.35999
  816 61.6526 10.2041 -13.3338
  817 61.1061 10.4736 13.4580
  818 0.0700396 -40.5911 -32.4534
  819 841.824 142.926 129.538
  820 -120.607 0.0757518 -3.30597
  821 -120.453 0.0755912 3.30172
  822 -0.175429 -126.672 12.1201
  823 9.86196 -16.8892 -27.6597
  824 -18.6365 -1.11867 7.17368
  825 -18.6304 -1.12173 -7.17676
  826 679.299 45.1412 -29.4304
  827 180.802 16.6928 -11.9845
  828 180.795 16.6945 12.0390
  829 466.733 -7.45448 -17.8728
  830 467.188 -7.51310 17.6522
  831 -115.701 0.820416 4.48575
  832 -115.846 0.821586 -4.49230
  833 -0.857366 -0.885790 -0.740691
  834 -0.859107 -0.887362 0.743640
  835 0.349246 -129.473 -11.7650
  836 0.590232 -135.077 -10.2570
  837 -125.934 1.14046 0.607685
  838 -126.097 1.14079 -0.608263
  839 73.8202 -13.1870 -84.3802
  840 291.140 2.34170 -3.00243
  841 291.199 2.34021 3.00405
  842 -5.08159 1.79192 0.791457
  843 -5.18030 1.79225 -0.792056
  844 428.804 0.441803 -10.8290
  845 428.933 0.419596 10.8168
  846 -48.9828 0.332503 9.08390
  847 -49.0107 0.332498 -9.09623
  848 263.529 10.5822 -185.427
  849 450.892 -37.9212 39.5529
  850 352.642 0.579548 -3.55179
  851 352.735 0.577495 3.55344
  852 447.000 -41.1586 -43.9020
  853 142.782 14.6086 -4.63116
  854 142.749 14.6165 4.65685
  855 195.467 11.4744 -7.39257
  856 195.476 11.4697 7.40979
  857 523.295 -11.0100 19.8500
  858 34.5245 19.3341 19.1619
  859 34.3713 19.4045 -19.2254
  860 37.1420 1.56853 1.26608
  861 37.0653 1.56892 -1.26710
  862 248.601 1.94752 2.59926
  863 248.565 1.94888 -2.59758
  864 641.077 -52.2497 78.8934
  865 403.340 1.40616 -14.3097
  866 403.467 1.36494 14.2932
  867 9.72638 5.56714 5.72086
  868 9.63198 5.57320 -5.72577
  869 403.437 -1.17874 4.09665
  870 403.317 -1.17582 -4.09484
  871 -71.0170 0.156206 -1.90224
  872 -70.8832 0.156666 1.90102
  873 -0.337072 -40.8556 11.5171
  874 -0.448233 -41.4937 -11.6018
  875 490.688 -5.92051 48.6825
  876 -27.6267 7.55674 25.6730
  877 -27.7394 7.57360 -25.7203
  878 -0.155257 -67.1118 -12.6613
  879 195.315 5.95000 -3.90677
  880 195.323 5.94873 3.91145
  881 356.711 -17.6412 -63.1578
  882 359.360 -19.4963 63.7580
  883 -14.6049 -4.91159 -35.1907
  884 -14.5337 -4.90892 35.1093
  885 21.8740 16.8727 21.9532
  886 21.7406 16.9194 -21.9891
  887 1.66952 -151.009 8.02302
  888 6.87174 13.5167 28.9262
  889 6.72813 13.5500 -28.9785
  890 329.809 -6.02028 -56.2420
  891 329.064 -6.24470 56.6831
  892 569.125 33.9488 55.4496
  893 133.280 13.5206 2.76642
  894 133.315 13.5131 -2.75003
  895 413.270 1.70166 -10.6633
  896 413.393 1.68513 10.6580
  897 -15.8718 -6.78252 31.0959
  898 -15.9059 -6.81130 -31.1573
  899 1.49596 -154.318 -4.66585
  900 -24.4356 -1.45390 30.3999
  901 -24.4899 -1.45998 -30.4503
  902 18.7439 14.9665 -17.0122
  903 18.8594 14.9326 16.9906
  904 -1.26735 -10.3521 5.71239
  905 -1.28194 -10.3422 -5.72114
  906 38.4140 16.8807 -14.8048
  907 38.5330 16.8387 14.7904
  908 8.53375 -10.9247 31.1899
  909 7.50014 -10.1515 -32.9486
  910 403.789 -12.0080 36.1728
  911 402.858 -11.4892 -36.3285
  912 -128.794 0.280076 -0.893341
  913 -128.630 0.280105 0.892400
  914 -11.4978 -1.02045 5.41642
  915 -11.4882 -1.02236 -5.41529
  916 0.533565 -95.2506 -11.4888
  917 -12.2058 -5.19972 -15.3533
  918 -12.1998 -5.18599 15.3527
  919 -50.2089 4.36897 22.0505
  920 -50.3121 4.37754 -22.0898
  921 128.917 23.8575 -10.2372
  922 128.806 23.9352 10.3211
  923 543.802 41.9255 -7.40667
  924 -3.64733 11.9352 22.0526
  925 -3.76793 11.9636 -22.0871
  926 201.972 13.2075 -59.7555
  927 201.950 13.3905 60.3600
  928 -21.0034 8.18970 17.7148
  929 -21.1187 8.20834 -17.7418
  930 645.075 -26.2346 -4.16586
  931 403.983 16.0976 24.1560
  932 476.454 -5.20394 -44.0165
  933 353.337 3.63674 -23.9126
  934 353.485 3.53981 23.9229
  935 -34.0454 4.69326 -8.37756
  936 -33.9304 4.68621 8.36718
  937 -82.0681 1.43510 10.8504
  938 -82.1917 1.43869 -10.8681
  939 -5.00385 -16.2775 -17.7988
  940 -4.96679 -16.2885 17.8288
  941 128.197 7.10290 1.65197
  942 128.227 7.10046 -1.64766
  943 -38.1548 4.18526 27.5616
  944 -38.2438 4.18733 -27.6126
  945 420.411 -0.870040 5.31594
  946 420.282 -0.866595 -5.31418
  947 -3.08383 -35.5412 26.7229
  948 18.7144 13.6035 -14.4835
  949 18.8225 13.5768 14.4675
  950 25.0944 9.15852 9.19368
  951 25.0006 9.17259 -9.20104
  952 76.3866 5.97157 -1.69049
  953 76.4449 5.96777 1.69060
  954 788.047 108.405 -30.8010
  955 -3.19460 -0.863576 -2.16855
  956 -3.20142 -0.863431 2.17242
  957 28.9358 9.04570 -17.7811
  958 29.4158 8.83252 17.6820
  959 286.694 10.3104 -25.5956
  960 286.808 10.2329 25.6561
  961 39.7648 11.6446 -8.55673
  962 39.8552 11.6269 8.55197
  963 79.3212 -5.00306 110.457
  964 532.114 -4.04149 -4.83616
  965 531.486 -3.89394 4.37501
  966 97.5012 -2.00561 97.3544
  967 103.060 3.38464 -0.701990
  968 103.018 3.38562 0.702578
  969 262.274 -4.27672 -160.580
  970 198.066 2.20310 1.38418
  971 198.057 2.20321 -1.38331
  972 26.0226 -22.6259 2.58716
  973 28.7517 -18.5183 -0.424524
  974 470.118 -0.724524 1.82046
  975 469.959 -0.723592 -1.81908
  976 -38.5142 0.189611 22.4422
  977 -38.5617 0.186775 -22.4749
  978 844.687 106.816 52.7833
  979 -3.34316 -26.1610 -34.9274
  980 4.69247 -125.394 18.0205
  981 -0.434398 -41.7633 32.1131
  982 486.601 -0.703510 -6.81424
  983 486.739 -0.719075 6.79332
  984 -6.41904 -11.7826 15.4021
  985 -6.43773 -11.7851 -15.3886
  986 615.036 65.5534 -28.0106
  987 1052.74 8.36733 -6.32532
  988 -1.59544 -2.44613 -2.36017
  989 -1.59361 -2.45129 2.36358
  990 286.099 2.12369 -5.63668
  991 286.156 2.12021 5.63980
  992 -3.40420 -25.0963 35.0776
  993 396.204 0.846064 21.1736
  994 396.054 0.945897 -21.1933
  995 521.008 -33.8047 -17.9244
  996 -18.0764 -3.72078 17.3179
  997 -18.0854 -3.73540 -17.3288
  998 9.19077 -31.9135 23.7179
  999 -0.753101 -63.4758 25.2208
  1000 -0.0787748 -66.6099 12.6519
  1001 542.050 34.3506 -3.28480
  1002 614.919 67.6383 14.4033
  1003 438.211 -48.6509 -75.9361
  1004 6.62221 -60.4701 18.9443
  1005 8.30750 -86.2933 2.50491
  1006 124.652 2.00281 0.207231
  1007 124.621 2.00300 -0.207258
  1008 -4.83852 -5.52084 -7.39557
  1009 -4.83392 -5.52139 7.40096
  1010 4.50500 -49.7136 -26.0396
  1011 352.051 -0.530108 -1.30520
  1012 352.143 -0.531393 1.30590
  1013 72.9586 2.83771 -38.1727
  1014 69.8613 3.00015 37.8117
  1015 -4.69538 11.1110 29.4385
  1016 -4.83246 11.1406 -29.4996
  1017 -39.2585 6.23830 -18.1999
  1018 -39.1422 6.22487 18.1712
  1019 271.910 4.32182 -57.8885
  1020 272.028 4.57578 58.4865
  1021 196.819 17.0632 -41.3554
  1022 196.775 17.0719 41.7084
  1023 212.789 14.1340 -14.4566
  1024 212.814 14.1169 14.4975
  1025 547.533 -13.1804 -55.7181
  1026 -12.9951 6.97894 32.6904
  1027 -13.1168 6.98727 -32.7697
  1028 387.013 -1.31863 29.0960
  1029 386.791 -1.10185 -29.0832
  1030 -2.07708 -19.2967 36.4125
  1031 -31.0379 -0.986444 16.6573
  1032 -31.0582 -0.991846 -16.6773
  1033 353.135 2.21872 -29.0112
  1034 353.318 2.08052 29.0368
  1035 444.582 11.4342 -40.2205
  1036 -0.399467 -63.0228 -26.4428
  1037 -4.99722 -24.7627 31.6275
  1038 -5.21309 -25.0770 -31.3701
  1039 250.715 13.4624 -21.4816
  1040 250.786 13.4157 21.5462
  1041 314.234 4.60847 12.0773
  1042 314.156 4.62545 -12.0716
  1043 519.943 -33.0255 15.4006
  1044 29.5411 1.89072 -0.335242
  1045 29.6215 1.89033 0.334919
  1046 442.863 -54.3753 80.9625
  1047 1.33859 1.19840 1.84006
  1048 1.24307 1.19876 -1.84171
  1049 98.4282 24.1390 -1.98737
  1050 98.2867 24.2238 2.03045
  1051 38.7930 19.0932 16.2982
  1052 38.6624 19.1441 -16.3197
  1053 5.07625 -75.5445 -15.3413
  1054 131.034 3.82702 0.901166
  1055 131.062 3.82653 -0.898922
  1056 395.413 12.5843 10.0115
  1057 355.707 1.64539 11.1116
  1058 355.610 1.66195 -11.1103
  1059 -1.69710 -20.0965 -36.4796
  1060 534.073 -6.93608 -9.79707
  1061 0.907996 -0.976589 35.7864
  1062 1.31952 -0.694658 -35.5998
  1063 483.440 -1.10933 -3.77787
  1064 483.601 -1.11301 3.77513
  1065 515.551 -2.05205 -6.66330
  1066 515.529 -2.11452 6.50732
  1067 -0.387825 -100.815 9.47750
  1068 305.786 6.56410 -15.9307
  1069 305.865 6.53486 15.9410
  1070 370.416 2.35826 12.8600
  1071 370.310 2.38032 -12.8615
  1072 9.81163 9.41477 31.7135
  1073 9.75603 9.41445 -31.7603
  1074 802.076 51.8903 9.59202
  1075 -9.59691 -3.91810 37.2784
  1076 -9.76273 -3.82482 -37.3797
  1077 118.196 22.0104 -3.34880
  1078 118.122 22.0505 3.38912
  1079 -60.8525 0.885438 -2.98572
  1080 -60.7246 0.885016 2.98271
  1081 192.603 11.9924 -68.6421
  1082 192.315 12.5143 69.4006
  1083 57.0402 21.5795 11.8673
  1084 56.8987 21.6437 -11.8778
  1085 131.602 16.4380 -51.6271
  1086 130.928 17.0655 52.0189
  1087 -3.30316 -33.3980 -26.0559
  1088 460.325 7.07723 53.5892
  1089 319.346 8.02103 207.191
  1090 53.6506 22.3861 12.2139
  1091 53.4868 22.4696 -12.2388
  1092 194.744 9.07285 -5.73899
  1093 194.752 9.06860 5.75043
  1094 692.835 9.18933 8.88891
  1095 46.6996 12.7427 6.28313
  1096 46.1206 12.8770 -6.46913
  1097 -20.4457 -4.40320 22.9718
  1098 -20.4656 -4.42466 -22.9978
  1099 -0.669323 -15.4396 6.22402
  1100 -0.696385 -15.4309 -6.24936
  1101 456.166 -1.18864 16.9279
  1102 455.976 -1.02921 -17.0279
  1103 1.01883 -31.3005 34.0343
  1104 -30.5232 2.15874 -30.2309
  1105 -30.4496 2.16341 30.1792
  1106 0.146578 -121.308 -11.8658
  1107 -6.61378 -9.42801 37.2273
  1108 -6.59159 -9.21414 -37.2670
  1109 435.445 -0.145825 -7.12808
  1110 435.580 -0.153413 7.12669
  1111 450.555 -4.21566 20.5236
  1112 450.228 -3.95568 -20.6201
  1113 81.2172 18.9210 -19.2745
  1114 80.6050 19.2545 19.4102
  1115 -1.02697 -62.5063 -21.6656
  1116 591.574 -47.7598 -123.010
  1117 766.111 106.216 14.0770
  1118 8.35461 -90.6600 0.632929
  1119 29.5068 16.4243 -22.2144
  1120 29.6793 16.3389 22.0802
  1121 76.3738 24.0219 3.89586
  1122 76.1870 24.1314 -3.88822
  1123 158.924 8.22254 2.84370
  1124 158.937 8.22262 -2.83581
  1125 -9.75325 -13.8932 29.6789
  1126 -9.74080 -14.0306 -29.7297
  1127 -26.4711 8.78687 23.4962
  1128 -26.5867 8.80645 -23.5358
  1129 -8.21627 11.2938 27.1693
  1130 -8.34344 11.3215 -27.2206
  1131 431.748 -22.1736 -35.8013
  1132 434.430 -22.3086 35.5633
  1133 0.493357 -71.1365 -24.9894
  1134 233.374 0.680281 -85.1796
  1135 233.686 1.39238 86.5033
  1136 76.4024 21.5627 -5.21749
  1137 76.5092 21.5112 5.22915
  1138 229.373 127.464 230.848
  1139 60.4768 17.1018 8.62420
  1140 60.3805 17.1334 -8.62283
  1141 585.998 -60.7290 -33.3118
  1142 224.396 4.98419 4.50659
  1143 224.372 4.98781 -4.50166
  1144 -9.91601 -8.81599 18.2737
  1145 -9.92426 -8.83826 -18.2699
  1146 -11.7867 -10.5367 23.5695
  1147 -11.7887 -10.5801 -23.5751
  1148 387.655 -37.1472 -118.159
  1149 395.066 -41.0607 118.998
  1150 72.7311 1.87460 1.19178
  1151 72.7890 1.87423 -1.19120
  1152 245.396 11.0450 -47.4563
  1153 245.376 10.9163 47.8967
  1154 527.370 -67.1779 91.6183
  1155 466.467 -1.29694 1.04593
  1156 466.309 -1.29592 -1.04500
  1157 -40.0614 6.55059 21.0300
  1158 -40.1758 6.56420 -21.0647
  1159 -69.6165 2.06307 -10.8428
  1160 -69.4890 2.05855 10.8286
  1161 123.418 10.0812 141.750
  1162 382.348 24.9123 -20.3797
  1163 224.478 15.0194 -24.1294
  1164 224.531 14.9876 24.2458
  1165 680.221 -10.7415 133.188
  1166 228.226 14.6581 -35.0564
  1167 228.289 14.5978 35.2579
  1168 59.6557 6.50852 -2.88915
  1169 59.7240 6.50349 2.88839
  1170 20.4476 -66.5020 16.2235
  1171 20.6487 -64.4869 -21.6676
  1172 308.099 -19.5041 -119.379
  1173 312.169 -18.1129 119.223
  1174 122.492 20.9127 -36.9092
  1175 121.975 21.3103 37.2280
  1176 537.913 -34.5373 -35.3347
  1177 -18.9000 -1.31583 34.1625
  1178 -18.9729 -1.31674 -34.2254
  1179 -0.0137185 -27.8871 -34.9922
  1180 140.090 7.23488 -90.3622
  1181 140.380 7.59576 91.7998
  1182 -0.341721 -27.3113 6.92075
  1183 -0.292438 -27.3787 -7.00751
  1184 -126.561 1.03086 -3.14220
  1185 -126.407 1.03009 3.13786
  1186 425.022 -0.832670 -2.05281
  1187 425.155 -0.834237 2.05411
  1188 265.990 8.58906 -14.0643
  1189 266.051 8.56251 14.0856
  1190 -8.77685 0.471017 37.1153
  1191 -8.80389 0.626852 -37.1890
  1192 0.00205231 -108.719 -10.5068
  1193 -108.053 0.232921 5.20957
  1194 -108.179 0.233544 -5.21849
  1195 87.3522 2.42632 -64.5692
  1196 86.7296 2.96706 66.4902
  1197 498.891 -30.3619 -3.98148
  1198 145.735 11.5935 -81.3499
  1199 145.819 11.9235 82.0647
  1200 -60.5749 0.335899 8.23503
  1201 -60.6174 0.335458 -8.24736
  1202 1.68390 -93.1637 -17.0278
  1203 -14.3537 3.33586 -3.76977
  1204 -14.2494 3.33339 3.76614
  1205 78.3725 17.9326 5.69571
  1206 78.2819 17.9663 -5.68543
  1207 281.995 0.394184 -1.79053
  1208 282.049 0.393060 1.79150
  1209 378.047 0.853459 8.44141
  1210 377.941 0.863685 -8.44067
  1211 22.0355 -1.00919 18.4848
  1212 21.7104 -1.37684 -18.8829
  1213 3.85464 -53.0549 26.1368
  1214 679.351 96.2735 17.0802
  1215 -20.8701 -1.59838 13.1437
  1216 -20.8751 -1.60552 -13.1523
  1217 3.07827 -49.7015 -27.5260
  1218 -1.95318 -31.5882 19.1901
  1219 -1.86065 -31.2739 -19.8765
  1220 536.013 -5.93511 8.65557
  1221 0.460192 -124.146 10.7112
  1222 4.38006 -36.1882 -30.7366
  1223 67.7278 1.28343 0.551367
  1224 67.6674 1.28346 -0.551722
  1225 -5.01504 -22.0336 34.6360
  1226 -56.2185 3.13897 -9.01132
  1227 -56.0943 3.13442 9.00044
  1228 1072.63 18.0281 31.1652
  1229 -29.9739 3.77958 30.4084
  1230 -30.0610 3.77807 -30.4652
  1231 261.745 9.90721 -42.8676
  1232 261.936 9.74125 43.1037
  1233 17.7935 -22.8841 -11.1462
  1234 248.744 11.5641 -17.8131
  1235 248.804 11.5282 17.8580
  1236 10.6961 -71.6820 -1.81364
  1237 -5.03715 -22.0911 -34.5965
  1238 -37.8551 1.30398 5.16046
  1239 -37.9713 1.30553 -5.16550
  1240 -17.9051 1.78429 -34.7771
  1241 -17.8159 1.79152 34.7172
  1242 533.050 43.3289 38.8661
  1243 301.885 2.82304 -45.0183
  1244 302.208 2.75870 45.1285
  1245 -131.733 0.250819 -1.06355
  1246 -131.568 0.250733 1.06210
  1247 271.499 5.38358 -9.48475
  1248 271.550 5.37449 9.49191
  1249 -134.532 -2.41856 -0.379045
  1250 -134.701 -2.42006 0.379171
  1251 404.113 -28.4932 -51.6098
  1252 -62.6244 1.10342 17.2390
  1253 -62.7050 1.10375 -17.2687
  1254 408.028 -30.0806 51.1467
  1255 276.493 8.90839 -19.0273
  1256 276.568 8.86537 19.0564
  1257 33.1889 -60.9644 -63.8513
  1258 0.613926 -86.1188 -21.3383
  1259 -1.62608 -36.0624 32.4368
  1260 851.170 157.289 -131.695
  1261 -0.181009 -81.1534 21.0454
  1262 890.371 84.3548 -58.4110
  1263 -0.550090 -150.603 -9.83814
  1264 46.9267 3.67490 -0.717144
  1265 46.9989 3.67286 0.716497
  1266 -0.367338 -35.0416 7.24867
  1267 -0.293289 -35.2312 -7.23176
  1268 156.144 2.81210 0.470093
  1269 156.158 2.81200 -0.469385
  1270 543.384 -39.6929 33.3580
  1271 14.5511 3.56576 -4.36490
  1272 14.6411 3.56274 4.36148
  1273 3.13319 -162.046 3.77458
  1274 1.99400 -172.959 -3.76835
  1275 499.662 -60.0912 -56.2446
  1276 -1.33149 -45.0623 21.1304
  1277 528.942 35.5029 -50.0132
  1278 -1.55278 -59.3723 20.7252
  1279 1.07517 -161.041 -7.19622
  1280 253.829 6.02916 -10.5844
  1281 253.874 6.01224 10.5979
  1282 -0.204030 -88.9061 9.36248
  1283 -0.205905 -73.3322 -21.0231
  1284 1159.18 212.029 181.087
  1285 468.520 0.0215213 0.785313
  1286 468.361 0.0217052 -0.784734
  1287 13.7504 2.19638 28.4609
  1288 13.3354 2.70404 -28.6076
  1289 -5.96159 7.32646 34.4686
  1290 -6.14712 7.33133 -34.5646
  1291 506.160 -9.00863 -31.2808
  1292 466.992 -19.8641 -21.0547
  1293 466.594 -22.5256 21.3440
  1294 73.2349 7.43142 2.75769
  1295 73.1718 7.43749 -2.75674
  1296 -74.8751 1.98127 -13.2003
  1297 -74.7581 1.97689 13.1777
  1298 520.405 -68.2734 -78.7253
  1299 -3.86454 -9.40336 9.63453
  1300 -3.87999 -9.39773 -9.63089
  1301 550.267 -21.7530 52.6239
  1302 -5.63219 -21.4350 25.7334
  1303 -5.56874 -21.5167 -25.6165
  1304 -45.4743 2.93710 6.21520
  1305 -45.5943 2.94058 -6.22223
  1306 85.6868 11.6491 -34.8464
  1307 84.8359 12.1194 34.8095
  1308 133.481 2.68100 0.0618367
  1309 133.455 2.68121 -0.0613828
  1310 -51.3209 5.24895 20.9262
  1311 -51.4304 5.25897 -20.9611
  1312 440.433 0.609172 1.22022
  1313 440.291 0.609135 -1.21938
  1314 247.316 2.00357 158.916
  1315 361.700 -0.135209 2.99664
  1316 361.602 -0.133717 -2.99504
  1317 244.115 5.34981 -65.2375
  1318 244.122 5.08070 65.7685
  1319 2.43269 -92.8367 -11.4052
  1320 96.2429 23.1287 -16.2408
  1321 95.8263 23.3943 16.3838
  1322 -0.947781 -0.827581 -1.22562
  1323 -0.952544 -0.827760 1.22917
  1324 311.805 8.31088 24.3165
  1325 311.686 8.39455 -24.2840
  1326 157.218 11.6063 4.78934
  1327 157.235 11.6049 -4.77326
  1328 229.605 11.6179 -12.4440
  1329 229.641 11.5992 12.4721
  1330 298.192 0.665181 -3.02211
  1331 298.255 0.663875 3.02374
  1332 -9.44093 -4.54318 -10.8668
  1333 -9.43807 -4.53703 10.8711
  1334 -87.0597 -0.0572502 3.67719
  1335 -87.2001 -0.0569136 -3.68157
  1336 -15.8870 -7.19832 -26.2856
  1337 -15.8708 -7.16022 26.2539
  1338 -47.5179 0.465747 1.50092
  1339 -47.6391 0.465498 -1.50224
  1340 -136.246 1.20317 0.600077
  1341 -136.415 1.20362 -0.600641
  1342 558.001 -65.5569 106.219
  1343 415.428 -1.96962 -44.0178
</Section>

newXOutput 67

<Section columns = "stress_xx | stress_yy | stress_xy">
  1 488.976 -0.881847 0.521538
  2 489.146 -0.882522 -0.521801
  3 -149.561 0.666895 -2.05926
  4 0.237687 0.0547040 0.425036
  5 876.701 273.457 293.174
  6 991.602 307.574 -282.575
  7 0.236534 0.0536658 -0.423502
  8 -149.380 0.666758 2.05814
  9 487.555 -0.844244 -1.62539
  10 487.987 -1.62224 -2.60948
  11 492.559 -1.62528 -0.725894
  12 493.132 -1.59918 -3.10860
  13 494.519 -1.58398 -1.02143
  14 504.728 -1.47014 -1.39386
  15 508.387 -2.07229 -4.17567
  16 512.453 -1.07049 -2.89623
  17 515.171 -0.0709907 -5.58196
  18 535.814 -3.13913 -4.77566
  19 544.993 -2.50751 -6.10338
  20 555.300 -3.66907 -2.60083
  21 560.559 -4.76387 -1.74874
  22 557.859 -5.38423 6.53624
  23 540.681 -5.91540 14.1241
  24 499.939 -6.33608 30.6901
  25 432.802 4.01330 35.8769
  26 378.243 5.04672 33.1056
  27 301.524 9.51071 20.0311
  28 319.741 9.23775 2.11256
  29 271.741 27.1049 -12.5822
  30 360.816 12.6508 -36.4977
  31 408.930 3.36046 -29.7536
  32 490.759 -1.21607 -25.8007
  33 535.211 -7.17368 -17.0246
  34 557.233 -6.26285 -6.47818
  35 559.668 -4.62564 1.79409
  36 554.708 -3.62458 2.46570
  37 544.804 -2.52159 5.94189
  38 535.805 -3.17557 4.68563
  39 515.286 -0.0912328 5.54182
  40 512.607 -1.07812 2.88235
  41 508.561 -2.07740 4.17251
  42 504.906 -1.47290 1.39270
  43 494.693 -1.58594 1.02165
  44 493.306 -1.60087 3.11085
  45 492.733 -1.62659 0.726713
  46 488.157 -1.62341 2.61139
  47 487.724 -0.844912 1.62658
  48 461.898 0.877663 -0.626027
  49 428.542 -0.0914800 -1.36277
  50 386.716 -2.09926 -1.33145
  51 343.207 0.329107 -1.10734
  52 304.940 -0.0819249 -0.873866
  53 263.862 1.21961 -1.02809
  54 223.188 3.36421 -0.590986
  55 180.830 2.92566 -1.28625
  56 145.607 1.83132 -1.82400
  57 99.2602 0.919954 -1.92211
  58 52.0786 1.99644 -1.47136
  59 12.6296 1.67940 -1.42330
  60 -36.6820 0.896348 -1.28783
  61 -73.3537 -0.691954 -3.24498
  62 -108.895 -2.54440 -1.47212
  63 -145.001 0.256799 1.03076
  64 -152.888 2.61390 -0.335054
  65 -153.527 1.13058 0.518029
  66 -148.462 0.538219 -0.111022
  67 -150.356 1.66865 -1.78883
  68 -148.107 2.04245 -0.0598042
  69 -140.209 0.601533 -2.77307
  70 -142.201 1.26448 -2.99957
  71 -138.801 1.19157 -1.63427
  72 -128.620 0.729319 -2.51752
  73 -124.161 1.35840 -4.23678
  74 -116.745 1.53399 -3.44319
  75 -103.475 0.777170 -6.08726
  76 -96.0640 0.242174 -5.08189
  77 -82.5471 0.346844 -5.90100
  78 -70.9512 0.284632 -6.57197
  79 -60.7762 0.103123 -5.18871
  80 -46.5740 0.312017 -5.23823
  81 -34.3006 -0.117406 -5.61995
  82 -22.4178 -0.602474 -4.95754
  83 -12.9793 -0.529964 -3.81212
  84 -6.40516 -0.939291 -3.19572
  85 -1.11066 -0.543928 -1.15373
  86 0.0432951 -0.611861 -0.420432
  87 -0.328835 -0.345601 -0.0941689
  88 -0.852597 -0.909236 -1.01257
  89 -0.828974 -5.42572 -2.77891
  90 -0.700384 -12.1084 -3.94112
  91 -0.357004 -20.5796 -5.73510
  92 -0.178989 -31.5701 -4.94133
  93 -0.134998 -41.6312 -6.21418
  94 -0.752468 -53.8494 -6.99340
  95 -0.308931 -68.9771 -7.03824
  96 0.141781 -84.2075 -6.72722
  97 0.327435 -100.499 -6.62518
  98 0.511622 -117.199 -6.49418
  99 0.00598047 -129.304 -8.77221
  100 0.843757 -146.690 -7.83479
  101 1.05480 -166.994 -6.16605
  102 -0.132321 -175.512 -8.17291
  103 1.49333 -189.842 -7.50749
  104 3.75586 -208.818 -3.14623
  105 7.37376 -212.828 -5.01140
  106 5.41967 -190.937 6.98377
  107 8.28418 -137.575 25.1549
  108 38.7506 -65.1093 68.6377
  109 118.461 203.578 218.438
  110 1343.47 74.6756 135.263
  111 1156.59 21.3841 48.7587
  112 1119.36 7.35499 11.3339
  113 1111.17 1.97648 -1.77873
  114 1118.96 11.6282 -25.6822
  115 1155.51 39.0990 -58.1914
  116 1309.30 146.084 -172.086
  117 286.682 159.828 -265.857
  118 65.9329 -64.8502 -82.1903
  119 19.5703 -150.843 -31.6313
  120 5.51035 -180.464 -7.36699
  121 5.98382 -204.533 2.21217
  122 1.67077 -200.435 2.20138
  123 0.555066 -185.052 6.25584
  124 0.629804 -174.623 4.92577
  125 0.919131 -157.690 8.79900
  126 -0.0443295 -148.086 8.64720
  127 0.362998 -133.912 6.20697
  128 0.726239 -115.822 7.96853
  129 0.152130 -102.872 6.31025
  130 0.208477 -84.2763 7.97881
  131 -0.842270 -69.8185 6.86804
  132 -0.577354 -53.8912 6.77139
  133 -0.0911588 -41.3953 6.22845
  134 -0.234879 -31.3859 4.94851
  135 -0.347641 -20.5190 5.67844
  136 -0.689956 -12.1005 3.92137
  137 -0.824521 -5.43405 2.77696
  138 -0.851416 -0.918309 1.01462
  139 -0.328773 -0.349479 0.0967819
  140 0.0385622 -0.612414 0.422772
  141 -1.11948 -0.543570 1.15665
  142 -6.41807 -0.938289 3.19846
  143 -12.9962 -0.528230 3.81280
  144 -22.4304 -0.600338 4.95516
  145 -34.3019 -0.115638 5.61375
  146 -46.5621 0.312367 5.23101
  147 -60.7460 0.104029 5.18106
  148 -70.9041 0.285740 6.56299
  149 -82.4771 0.346832 5.89138
  150 -95.9726 0.242131 5.07267
  151 -103.369 0.776645 6.07796
  152 -116.618 1.53299 3.43575
  153 -124.022 1.35728 4.23047
  154 -128.469 0.728570 2.51328
  155 -138.639 1.19073 1.63137
  156 -142.034 1.26380 2.99644
  157 -140.040 0.601308 2.77042
  158 -147.931 2.04142 0.0589016
  159 -150.178 1.66784 1.78733
  160 -148.284 0.538100 0.110629
  161 -153.345 1.13012 -0.517930
  162 -152.706 2.61268 0.334742
  163 -144.823 0.256878 -1.03034
  164 -108.737 -2.54265 1.47126
  165 -73.2158 -0.691033 3.24323
  166 -36.5639 0.896471 1.28702
  167 12.7213 1.67910 1.42247
  168 52.1493 1.99597 1.47054
  169 99.3059 0.920134 1.92109
  170 145.628 1.83116 1.82308
  171 180.832 2.92515 1.28563
  172 223.167 3.36356 0.590701
  173 263.819 1.22011 1.02754
  174 304.874 -0.0808201 0.873358
  175 343.121 0.329768 1.10667
  176 386.605 -2.09740 1.33072
  177 428.407 -0.0910416 1.36202
  178 461.744 0.877388 0.625686
  179 133.380 22.3588 -7.67578
  180 133.295 22.4072 7.74147
  181 -1.23714 4.48176 35.5776
  182 -1.38413 4.44397 -35.6045
  183 299.433 -3.87052 -69.3477
  184 299.183 -4.42565 70.0416
  185 61.3903 15.4435 -6.03451
  186 60.6671 15.6840 6.04180
  187 46.6020 6.93092 -4.61854
  188 46.6809 6.92357 4.61612
  189 282.195 4.30169 -10.6465
  190 282.254 4.28757 10.6561
  191 -2.35570 11.1230 18.6885
  192 -2.47361 11.1484 -18.7157
  193 327.630 7.35209 -26.4814
  194 327.782 7.25016 26.5230
  195 -12.4268 -10.7433 29.0675
  196 -12.4261 -10.8093 -29.1089
  197 3.44298 -24.9038 -33.6952
  198 104.407 9.07418 -65.4419
  199 4.11327 -26.6946 32.8321
  200 102.771 9.86359 66.3855
  201 462.869 -59.5766 -99.9638
  202 478.465 -61.9060 96.1353
  203 169.087 4.56131 -2.27483
  204 169.078 4.56098 2.27811
  205 -22.7356 1.46460 -3.45482
  206 -22.6247 1.46377 3.45173
  207 -35.3595 5.70908 27.4408
  208 -35.4637 5.71892 -27.4934
  209 170.071 14.4350 -6.33413
  210 170.060 14.4378 6.35710
  211 53.4165 21.8756 11.2062
  212 53.2049 22.0033 -11.2647
  213 -44.3201 4.81515 -10.8416
  214 -44.1981 4.80740 10.8275
  215 372.134 -0.291803 4.93431
  216 372.031 -0.288028 -4.93226
  217 12.6687 -46.5091 12.5768
  218 13.7607 -41.8275 -10.7825
  219 -3.29361 -30.5276 32.6035
  220 -3.38770 -31.7724 -31.5999
  221 157.744 22.4160 -29.6389
  222 157.584 22.5301 29.8973
  223 -32.6294 0.0398978 28.1185
  224 -32.6885 0.0343182 -28.1634
  225 398.047 1.44987 -14.2120
  226 398.167 1.42062 14.2049
  227 429.437 -6.95338 -28.3231
  228 429.785 -7.36437 28.2422
  229 688.786 51.1787 0.729145
  230 632.101 71.8907 30.4897
  231 619.772 -1.42363 -48.7448
  232 79.2543 16.4369 5.39110
  233 79.1722 16.4639 -5.38392
  234 7.36280 14.1381 26.6793
  235 7.22225 14.1791 -26.7278
  236 479.840 -28.9320 -20.5093
  237 477.109 -29.2683 22.0904
  238 266.946 1.26014 -3.99590
  239 266.991 1.25734 3.99856
  240 -57.0400 4.09284 18.0965
  241 -57.1566 4.10189 -18.1265
  242 -8.06316 -7.92436 -13.2108
  243 -8.05469 -7.91797 13.2175
  244 -61.9316 1.29827 5.32543
  245 -62.0622 1.30009 -5.33143
  246 221.196 15.3768 -18.5877
  247 221.229 15.3529 18.6518
  248 280.421 7.69652 -40.0150
  249 280.618 7.57200 40.1815
  250 70.7408 3.56411 0.123533
  251 70.8023 3.56259 -0.123509
  252 163.590 7.88217 -137.586
  253 192.920 12.0134 149.232
  254 23.2910 10.9711 24.8275
  255 23.1909 11.1901 -24.9501
  256 648.804 -44.3787 -19.2151
  257 59.7167 21.2834 9.77033
  258 59.5928 21.3381 -9.77261
  259 160.800 17.9370 -53.3406
  260 160.478 18.3510 53.8568
  261 727.743 105.687 1.20555
  262 431.641 -0.531139 19.2226
  263 431.471 -0.411496 -19.2685
  264 -3.84159 -23.9605 -20.5931
  265 -3.72257 -24.0530 20.6720
  266 -0.749877 -56.4618 -27.9729
  267 2.13009 -65.0937 -25.1443
  268 1.17484 -65.4942 26.6041
  269 -10.2580 -8.82244 36.9952
  270 -10.3066 -8.81316 -37.1535
  271 24.1933 -48.3058 -12.9235
  272 26.0705 -44.0626 17.0332
  273 -24.7630 -2.03059 18.0633
  274 -24.7801 -2.04038 -18.0822
  275 309.260 7.45879 -16.6879
  276 309.350 7.41994 16.7029
  277 538.541 -53.8646 -8.21722
  278 122.569 9.29673 0.875231
  279 122.606 9.29193 -0.869493
  280 -1.32064 -53.0417 26.7792
  281 14.6077 10.6699 11.5413
  282 14.5037 10.6888 -11.5535
  283 850.888 58.3888 -25.5385
  284 417.734 -0.408395 5.98553
  285 417.607 -0.402029 -5.98531
  286 284.920 -11.9723 -103.538
  287 287.282 -11.7576 105.014
  288 537.891 -51.1423 -0.493225
  289 -50.1246 1.62840 22.1197
  290 -50.1987 1.62811 -22.1573
  291 524.931 -36.1140 167.441
  292 -21.5563 4.09303 33.3003
  293 -21.6493 4.08564 -33.3653
  294 92.1555 25.1935 -9.87205
  295 91.7939 25.4259 9.96024
  296 -89.2892 0.541884 0.896634
  297 -89.4358 0.541707 -0.897623
  298 443.226 17.2803 -226.490
  299 -85.1175 1.65876 -9.62639
  300 -84.9844 1.65515 9.61162
  301 -1.81826 -10.0734 37.3040
  302 -0.451289 -9.75062 -36.8480
  303 198.807 19.3769 -26.6920
  304 198.804 19.3803 26.8442
  305 46.3659 4.39717 3.48431
  306 46.2900 4.40042 -3.48649
  307 206.198 6.74926 -5.93632
  308 206.211 6.74571 5.94425
  309 20.3204 -12.2633 17.6081
  310 18.5335 -15.0995 -17.9068
  311 200.175 2.42469 -1.57798
  312 200.184 2.42423 1.57932
  313 -70.6048 1.85331 16.0970
  314 -70.7027 1.85597 -16.1254
  315 51.3856 -1.72814 -15.7083
  316 49.9052 -1.80789 14.3634
  317 434.772 -0.936712 1.67854
  318 434.633 -0.935494 -1.67724
  319 943.458 53.0578 39.3840
  320 102.480 12.4578 1.23755
  321 102.425 12.4694 -1.22911
  322 -17.4498 4.40251 7.21114
  323 -17.5600 4.40877 -7.21932
  324 139.641 17.7163 -5.34827
  325 139.596 17.7331 5.38514
  326 17.8685 14.7766 27.4914
  327 17.7523 14.8063 -27.5730
  328 2.15195 -94.5209 18.2545
  329 -92.8656 0.00363391 -2.13076
  330 -92.7178 0.00388821 2.12850
  331 334.280 -0.0985230 -3.23648
  332 334.361 -0.100422 3.23817
  333 351.898 1.37009 -8.57854
  334 351.991 1.35923 8.58084
  335 -87.0663 1.36326 -6.85986
  336 -86.9253 1.36108 6.85139
  337 2.39631 1.17776 0.659638
  338 2.29904 1.17790 -0.660455
  339 -1.96484 -39.5511 20.4978
  340 -1.55592 -41.1415 -20.4687
  341 398.200 -32.1449 -70.4139
  342 413.190 -38.4814 69.1937
  343 237.862 10.3241 -11.6198
  344 237.898 10.3092 11.6394
  345 106.888 24.3600 -6.33257
  346 106.701 24.4730 6.40231
  347 -33.6795 6.80258 15.6052
  348 -33.7980 6.81658 -15.6287
  349 731.255 22.3718 27.3685
  350 40.5777 -49.2941 -48.2852
  351 43.3898 -45.0968 50.3207
  352 -13.4356 11.3216 25.3804
  353 -13.5588 11.3472 -25.4257
  354 -19.8119 -3.78897 32.8940
  355 -19.8676 -3.80039 -32.9572
  356 829.988 143.538 -47.1413
  357 540.021 -5.55603 62.8396
  358 499.525 -12.2198 -13.3838
  359 499.181 -11.9340 12.6461
  360 353.281 -4.68984 -45.0117
  361 352.858 -5.01142 45.0445
  362 0.685276 -113.888 -14.5716
  363 456.086 0.454424 -10.7060
  364 456.221 0.421473 10.6808
  365 6.15436 -106.151 10.6128
  366 538.773 42.5044 -32.0815
  367 133.306 3.43997 1.23189
  368 133.278 3.44088 -1.23234
  369 354.799 1.65458 -33.3961
  370 355.023 1.49634 33.4505
  371 380.595 2.07448 -20.0741
  372 380.728 2.00414 20.0656
  373 -3.30342 3.72638 4.67049
  374 -3.40536 3.73004 -4.67505
  375 222.044 12.2822 -54.1345
  376 222.075 12.4271 54.5832
  377 447.858 -0.759935 2.73897
  378 447.713 -0.758070 -2.73747
  379 258.507 13.0449 -27.6509
  380 258.598 12.9777 27.7491
  381 296.531 3.41746 7.15689
  382 296.468 3.42319 -7.15270
  383 -14.0890 -2.50604 11.2130
  384 -14.0894 -2.51295 -11.2143
  385 -3.37241 -2.39038 -3.30789
  386 -3.37383 -2.39138 3.31288
  387 598.994 -70.4987 48.1857
  388 -7.62552 -18.5078 30.2428
  389 -7.57178 -18.6731 -30.2505
  390 101.622 5.46364 -0.970434
  391 101.669 5.46101 0.971668
  392 -2.95999 -14.9618 11.2700
  393 -2.99443 -14.9394 -11.2724
  394 40.8205 16.7097 12.3114
  395 40.7115 16.7447 -12.3210
  396 489.438 -2.70343 14.2438
  397 489.247 -2.53571 -14.4547
  398 -0.843891 -28.1208 35.8349
  399 -40.0940 -0.678835 17.0180
  400 -40.1278 -0.682763 -17.0419
  401 -0.999398 -29.7614 -35.4367
  402 458.533 -0.412436 6.82977
  403 458.388 -0.402737 -6.83522
  404 -2.66456 10.6436 32.1687
  405 -2.82598 10.6734 -32.2410
  406 341.797 3.92512 -13.5539
  407 341.890 3.90128 13.5569
  408 524.086 -22.3166 -9.12193
  409 525.382 -18.1463 6.64614
  410 -1.00984 -53.7790 -22.3936
  411 49.3730 18.7052 -7.01992
  412 49.7754 18.5168 6.95362
  413 530.998 34.3387 19.7942
  414 300.054 -12.6005 -142.297
  415 307.721 -18.0495 148.660
  416 20.3433 16.1512 19.9276
  417 20.2159 16.1919 -19.9566
  418 221.326 4.78488 -4.06440
  419 221.346 4.78309 4.06820
  420 215.152 46.7945 225.192
  421 91.3797 20.1815 -3.03443
  422 91.4759 20.1385 3.05395
  423 5.89108 -49.1398 23.0734
  424 -0.643357 -87.1647 -19.2444
  425 37.4805 20.0768 18.0205
  426 37.3343 20.1365 -18.0564
  427 46.6025 10.9218 -7.13554
  428 46.6882 10.9069 7.13234
  429 -13.9556 -0.262825 -36.7203
  430 -13.8638 -0.283601 36.6514
  431 108.527 21.8186 -23.8212
  432 108.060 22.1304 24.0266
  433 528.968 -16.1067 -47.8253
  434 16.0640 -3.63308 26.8907
  435 15.5608 -3.52095 -27.0825
  436 385.500 -16.7089 -49.7078
  437 387.031 -17.8326 49.6619
  438 -93.9628 0.702530 -9.56529
  439 -93.8380 0.700173 9.54911
  440 -0.00323755 -85.8577 17.3871
  441 -0.594216 -54.6518 19.9607
  442 -37.9812 2.63600 28.2634
  443 -38.0589 2.63386 -28.3127
  444 276.385 1.11740 -1.50556
  445 276.435 1.11623 1.50646
  446 -8.13656 -12.8628 20.7035
  447 -8.15211 -12.8944 -20.6846
  448 175.107 10.9504 -78.2864
  449 174.735 11.7008 79.0942
  450 1.45853 -102.864 -18.6401
  451 941.493 31.8072 0.407774
  452 2.75987 -119.748 -9.63627
  453 -109.603 -0.183128 -3.28694
  454 -109.448 -0.183115 3.28348
  455 -41.4923 6.11857 22.5925
  456 -41.6062 6.13153 -22.6331
  457 -50.2847 0.742645 17.0273
  458 -50.3352 0.742151 -17.0529
  459 190.831 18.5128 -18.6543
  460 190.827 18.5211 18.7465
  461 285.775 10.0526 -21.3656
  462 285.869 9.99511 21.4080
  463 -4.35254 -16.8830 37.1389
  464 -4.35944 -16.7717 -37.2979
  465 498.949 10.2221 -60.2115
  466 35.3017 -5.78514 -2.36032
  467 34.0670 -6.08696 2.99803
  468 8.21871 -105.518 -3.89470
  469 5.36389 -123.493 0.0401271
  470 -14.8425 -6.57476 21.2897
  471 -14.8517 -6.59978 -21.3015
  472 107.400 2.23699 -120.021
  473 746.348 11.7127 -82.9290
  474 173.923 9.88157 5.96456
  475 173.930 9.88216 -5.95107
  476 251.759 3.33045 -74.7580
  477 252.262 3.25979 75.8049
  478 75.9342 25.3893 5.15338
  479 75.7815 25.4762 -5.14573
  480 227.563 16.3191 -40.2291
  481 227.633 16.2519 40.4973
  482 9.53263 5.45211 32.5091
  483 10.0352 5.70497 -32.4705
  484 -97.6034 1.34443 -6.86608
  485 -97.4605 1.34258 6.85655
  486 493.740 -56.1875 -41.7598
  487 390.429 -0.696567 -2.27670
  488 390.542 -0.697833 2.27813
  489 25.0445 2.07083 -1.76542
  490 25.1302 2.06977 1.76379
  491 -22.7452 8.98283 20.7107
  492 -22.8646 9.00306 -20.7443
  493 -53.4814 3.16835 -7.19434
  494 -53.3552 3.16404 7.18548
  495 174.047 15.6083 -9.07580
  496 174.036 15.6100 9.11116
  497 -18.7442 8.01888 29.7532
  498 -18.8633 8.03657 -29.8146
  499 451.728 -13.3164 -26.8044
  500 452.505 -13.9258 26.5070
  501 299.224 2.74138 -49.9675
  502 298.753 2.56015 50.3759
  503 113.912 4.10561 -0.454065
  504 113.950 4.10435 0.454437
  505 1.41979 -52.1528 -30.1185
  506 530.887 -18.3452 39.0809
  507 7.86796 -33.1470 -26.3683
  508 154.022 23.8356 19.5482
  509 154.132 23.7590 -19.3996
  510 488.388 -52.5647 41.3414
  511 38.9614 -38.5718 64.9660
  512 579.157 -69.2600 -80.4995
  513 396.089 0.576605 24.2212
  514 395.903 0.716755 -24.2301
  515 1.39633 -44.4505 31.3484
  516 -7.77730 -2.30113 -6.03248
  517 -7.78028 -2.29971 6.03646
  518 52.5407 1.75412 -0.424730
  519 52.6113 1.75374 0.424295
  520 -1.31723 -30.7063 13.2272
  521 -1.19506 -30.5660 -13.2978
  522 326.594 2.11575 5.55066
  523 326.516 2.11872 -5.54797
  524 908.541 166.502 76.4096
  525 39.7610 -19.2310 -15.6515
  526 31.0588 -27.3875 9.15907
  527 -5.74246 6.56114 -9.72420
  528 -5.63489 6.55010 9.71297
  529 -78.6080 1.23380 10.1414
  530 -78.6903 1.23517 -10.1583
  531 0.818115 -96.7415 18.7512
  532 -107.111 0.798232 0.802521
  533 -107.267 0.798287 -0.803586
  534 103.905 -0.552312 -89.1857
  535 101.694 1.01038 92.4368
  536 95.4311 18.2842 -32.7969
  537 94.7201 18.6862 32.9723
  538 -20.9324 -4.24224 28.9067
  539 -20.9690 -4.26210 -28.9532
  540 94.6489 7.26697 0.871323
  541 94.5969 7.27164 -0.869139
  542 -42.6853 1.78935 2.83445
  543 -42.8066 1.79060 -2.83792
  544 110.772 14.8644 0.216657
  545 110.715 14.8820 -0.200452
  546 -2.13726 -7.02802 5.16680
  547 -2.14483 -7.02226 -5.16596
  548 41.1734 17.8221 15.4835
  549 40.9022 18.0574 -15.5873
  550 33.2523 6.88633 13.1601
  551 32.7939 6.84712 -13.4444
  552 399.459 1.82390 10.1630
  553 399.342 1.83618 -10.1637
  554 354.976 3.53292 16.4281
  555 354.868 3.57306 -16.4272
  556 -0.360989 -82.8632 -12.1187
  557 250.945 11.2446 -16.7096
  558 250.997 11.2172 16.7438
  559 251.159 4.48515 -6.53948
  560 251.197 4.47900 6.54585
  561 -29.3198 0.744426 0.146668
  562 -29.2056 0.744601 -0.146921
  563 439.667 22.8730 -11.5894
  564 556.090 -67.4589 -32.2132
  565 467.502 22.2872 45.1102
  566 4.04732 -68.4361 -21.2726
  567 -21.2596 7.47645 -13.2460
  568 -21.1444 7.46305 13.2287
  569 4.37689 -39.3023 29.1432
  570 -23.7814 0.972479 32.7808
  571 -23.8554 0.967092 -32.8364
  572 712.065 68.2030 4.59055
  573 165.421 6.34288 -3.06419
  574 165.410 6.34283 3.06945
  575 1057.09 91.1381 -95.9127
  576 -4.33665 -3.30768 37.8558
  577 -3.95049 -3.01920 -37.8775
  578 587.503 -49.1762 17.5684
  579 471.104 -0.197475 -11.8579
  580 471.239 -0.253567 11.8064
  581 221.703 2.38531 -107.841
  582 224.215 1.68333 109.395
  583 -11.7286 -11.2074 33.3804
  584 -11.7424 -11.2692 -33.4746
  585 117.814 12.7236 59.2152
  586 118.790 11.8902 -58.7866
  587 -91.4871 1.03003 -9.41184
  588 -91.3732 1.02831 9.39574
  589 692.037 64.7593 30.4046
  590 136.006 11.1635 2.10920
  591 136.038 11.1580 -2.09887
  592 160.032 20.0456 -41.1263
  593 159.796 20.2829 41.5129
  594 428.288 -1.83874 -23.5860
  595 428.529 -2.03646 23.5498
  596 -1.76367 -42.5733 -29.9330
  597 462.490 -0.979129 3.58226
  598 462.336 -0.976573 -3.58111
  599 -63.3090 1.01011 -0.995472
  600 -63.1767 1.00991 0.993958
  601 -115.018 -0.970000 -0.0277500
  602 -115.179 -0.970892 0.0275475
  603 10.5837 -61.2837 -8.12468
  604 -4.23785 -27.8471 25.8923
  605 -4.46988 -26.3173 -26.0642
  606 -51.6259 3.29425 23.4350
  607 -51.7167 3.29841 -23.4764
  608 327.557 6.74564 20.8855
  609 327.446 6.80738 -20.8695
  610 242.323 1.80175 1.51192
  611 242.292 1.80220 -1.51099
  612 56.6381 -10.1527 39.0777
  613 58.3423 -8.97502 -38.7549
  614 -1.65002 -21.4441 11.1994
  615 -1.70290 -21.3783 -11.2386
  616 553.755 51.4081 242.318
  617 -27.6264 -0.820825 10.3433
  618 -27.6309 -0.824906 -10.3529
  619 10.6565 -36.8034 -20.5405
  620 237.518 8.01503 -8.94221
  621 237.550 8.00610 8.95411
  622 118.688 24.6298 -15.4716
  623 118.446 24.7840 15.6125
  624 1.12801 -143.932 6.56941
  625 89.8451 23.5398 2.06301
  626 89.7281 23.6027 -2.03944
  627 -6.10359 9.47808 15.9695
  628 -6.21764 9.49737 -15.9909
  629 -0.659766 -72.8424 16.5286
  630 -115.782 0.00963431 -3.31012
  631 -115.625 0.00943137 3.30633
  632 158.025 2.91901 1.16713
  633 158.040 2.91919 -1.16555
  634 389.293 0.151254 6.81814
  635 389.182 0.157201 -6.81624
  636 346.573 -18.2795 185.398
  637 279.147 5.61197 -13.0374
  638 279.208 5.59088 13.0515
  639 5.55612 -4.52260 34.4486
  640 6.63850 -2.10598 -34.3140
  641 443.663 -39.4385 -150.777
  642 1024.71 34.6080 -39.8283
  643 -107.685 0.0307122 -6.42821
  644 -107.548 0.0296687 6.41830
  645 30.4537 5.17168 -4.15283
  646 30.5389 5.16670 4.14969
  647 -1.97109 -45.4027 26.5546
  648 602.211 38.7889 -53.2094
  649 457.135 -1.19138 0.647909
  650 456.984 -1.19036 -0.647253
  651 -29.2645 -1.49644 -23.8703
  652 -29.2285 -1.48821 23.8368
  653 -0.0988952 -103.110 -15.6855
  654 464.868 -1.15138 1.38396
  655 464.711 -1.15028 -1.38274
  656 46.6644 14.3012 10.2339
  657 46.5678 14.3263 -10.2389
  658 360.499 -29.4258 -99.7484
  659 366.720 -29.2681 100.777
  660 519.468 -3.70476 8.38240
  661 519.476 -3.67504 -8.68700
  662 2.32050 -128.908 11.7828
  663 -24.1258 0.446818 -1.61136
  664 -24.0144 0.446939 1.60967
  665 172.898 32.2663 -177.712
  666 164.198 2.45807 1.47045
  667 164.209 2.45783 -1.46950
  668 83.1774 4.94356 0.0957521
  669 83.1218 4.94606 -0.0952121
  670 97.9771 9.41096 -0.103278
  671 98.0296 9.40372 0.108508
  672 307.986 7.58140 -32.3327
  673 308.156 7.46256 32.4186
  674 84.2262 24.0704 -2.08509
  675 83.9680 24.2373 2.11010
  676 -52.3365 3.89824 -12.7742
  677 -52.2129 3.88971 12.7559
  678 -61.8020 4.28797 -14.7567
  679 -61.6795 4.27961 14.7332
  680 535.096 -8.32644 -0.531884
  681 1.16606 -20.4212 -35.6731
  682 535.657 -8.73126 -0.141784
  683 686.019 52.8285 -3.70594
  684 -66.7792 0.328527 11.5804
  685 -66.8429 0.328097 -11.5994
  686 73.3286 21.6050 -7.40400
  687 72.8082 21.8517 7.44240
  688 -124.163 -0.00737225 -1.08280
  689 -123.999 -0.00723127 1.08130
  690 1.63984 -18.2394 35.6637
  691 -41.3704 0.678393 24.9173
  692 -41.4352 0.675431 -24.9578
  693 588.501 -45.8518 -19.7386
  694 97.1555 1.39703 -0.877811
  695 97.1086 1.39710 0.878273
  696 25.2391 8.04697 7.31964
  697 25.1468 8.05747 -7.32517
  698 315.091 -13.3312 -83.8546
  699 317.328 -13.8591 85.3847
  700 1067.47 76.5959 86.7929
  701 22.0009 -88.6648 -39.7318
  702 -7.42517 -15.8616 35.5770
  703 -7.43210 -15.9309 -35.6659
  704 69.4527 13.9363 -4.79494
  705 69.5304 13.9176 4.79808
  706 477.903 -1.00697 -3.63031
  707 478.064 -1.01000 3.62985
  708 231.935 2.64037 2.88750
  709 231.909 2.64214 -2.88512
  710 21.4436 17.2224 24.2787
  711 21.3044 17.2730 -24.3301
  712 16.0065 3.68269 2.90145
  713 15.9156 3.68521 -2.90405
  714 -12.3681 3.74764 35.7684
  715 -12.4738 3.74126 -35.8506
  716 394.626 -1.17976 2.91018
  717 394.511 -1.17745 -2.90856
  718 343.069 1.85426 7.83981
  719 342.982 1.86055 -7.83664
  720 48.1956 -23.7132 46.3307
  721 49.5044 -25.8641 -44.9133
  722 -25.1523 5.97744 31.1732
  723 -25.2567 5.98258 -31.2363
  724 15.1975 -29.7396 15.4070
  725 2.84868 10.8302 32.2887
  726 2.68013 10.8545 -32.3416
  727 -72.7813 1.98148 -8.38652
  728 -72.6481 1.97783 8.37481
  729 63.3380 18.9107 8.98052
  730 63.2289 18.9522 -8.97803
  731 531.439 -15.7256 -26.1783
  732 503.002 -43.0569 -15.8405
  733 -7.95973 -16.3243 25.5000
  734 -7.95158 -16.4053 -25.4716
  735 199.046 3.63301 -127.135
  736 194.029 7.70254 128.185
  737 122.456 23.3003 -22.3825
  738 122.137 23.5253 22.5924
  739 11.2600 -17.2038 27.5706
  740 -0.694837 -54.1763 -14.4667
  741 251.657 12.8189 -30.8709
  742 251.761 12.7552 31.0146
  743 0.614942 -105.986 13.2656
  744 151.759 19.7035 -9.92581
  745 151.713 19.7251 9.98462
  746 502.735 -0.875516 -8.95702
  747 502.834 -0.933184 8.85617
  748 10.3905 -136.802 5.57047
  749 231.885 16.0597 23.6524
  750 231.834 16.0926 -23.5625
  751 64.6667 22.6949 -3.42211
  752 65.0003 22.4755 3.38250
  753 -90.5127 0.593444 -7.99725
  754 -90.4143 0.592778 7.98298
  755 255.793 3.10252 -5.61916
  756 255.833 3.09882 5.62340
  757 160.244 22.0431 -16.6322
  758 160.176 22.0850 16.7419
  759 3.57860 13.7317 24.5543
  760 3.44822 13.7681 -24.5959
  761 504.482 -36.9211 9.61818
  762 -74.8334 1.47753 6.32885
  763 -74.9699 1.47938 -6.33582
  764 1066.14 218.986 -155.530
  765 -25.7710 2.61660 6.40162
  766 -25.8842 2.61995 -6.40820
  767 427.757 0.327567 16.6868
  768 427.615 0.395101 -16.7187
  769 794.591 48.1651 -0.459112
  770 481.813 -1.75071 -6.78283
  771 481.965 -1.76146 6.77322
  772 311.666 3.28766 9.97010
  773 311.594 3.29826 -9.96488
  774 464.901 -48.2598 137.580
  775 205.016 13.6305 -9.70993
  776 205.031 13.6232 9.73666
  777 4.90433 -77.3735 14.8293
  778 532.466 -64.0797 48.2291
  779 323.999 -0.298100 1.67813
  780 323.923 -0.296775 -1.67723
  781 421.503 -0.539740 0.888592
  782 421.371 -0.538927 -0.887894
  783 -1.82577 -42.4267 -24.8956
  784 2.75548 -70.9718 23.2536
  785 194.987 20.9877 32.8485
  786 195.011 20.9642 -32.6192
  787 1052.93 9.39530 9.63684
  788 331.392 2.02044 -40.0141
  789 331.610 1.87837 40.1220
  790 -66.4424 2.20059 17.3783
  791 -66.5528 2.20601 -17.4075
  792 14.7842 -54.7697 2.34464
  793 9.47128 -126.751 -12.1030
  794 748.915 98.1260 -18.5012
  795 -0.637986 -54.0531 13.0654
  796 17.0910 11.7790 28.4354
  797 17.0316 11.7696 -28.5926
  798 104.085 19.1712 0.700063
  799 104.011 19.2033 -0.678151
  800 499.858 -23.1119 -9.84199
  801 501.026 -22.7807 8.32241
  802 581.590 103.711 -229.921
  803 -76.7736 0.623705 -2.67557
  804 -76.6350 0.623177 2.67211
  805 -37.8669 -0.132943 9.71359
  806 -37.8810 -0.134738 -9.72549
  807 38.2604 4.98767 6.13072
  808 37.4654 4.95259 -6.22892
  809 380.988 -2.90457 35.9159
  810 380.714 -2.61266 -35.8169
  811 196.424 3.88780 -1.95765
  812 196.431 3.88702 1.96004
  813 612.126 -4.97493 48.2720
  814 68.4976 9.57046 -4.34803
  815 68.5688 9.56019 4.34890
  816 62.6819 10.4710 -13.7156
  817 62.1269 10.7437 13.8407
  818 0.0856261 -41.1234 -32.8826
  819 853.679 145.626 131.850
  820 -122.234 0.0739397 -3.34030
  821 -122.076 0.0737809 3.33590
  822 -0.177424 -128.451 12.2755
  823 10.0505 -17.0458 -27.9681
  824 -18.9142 -1.13414 7.27887
  825 -18.9081 -1.13726 -7.28202
  826 689.191 46.1010 -29.4192
  827 183.636 16.8903 -12.2669
  828 183.629 16.8926 12.3220
  829 473.554 -7.59748 -18.1831
  830 474.017 -7.65614 17.9612
  831 -117.284 0.828528 4.53713
  832 -117.432 0.829722 -4.54388
  833 -0.870880 -0.899638 -0.753005
  834 -0.872648 -0.901232 0.756002
  835 0.352403 -131.286 -11.9112
  836 0.598526 -136.908 -10.3623
  837 -127.571 1.15173 0.611112
  838 -127.738 1.15206 -0.611717
  839 75.0365 -12.9437 -85.9042
  840 295.486 2.31445 -3.06416
  841 295.547 2.31303 3.06588
  842 -4.94027 1.78901 0.796652
  843 -5.04140 1.78937 -0.797279
  844 435.021 0.410828 -11.0041
  845 435.154 0.388468 10.9922
  846 -49.6956 0.337415 9.21265
  847 -49.7241 0.337408 -9.22522
  848 267.538 11.1252 -188.438
  849 457.577 -38.4552 40.2807
  850 357.817 0.536232 -3.61666
  851 357.912 0.534188 3.61844
  852 453.638 -41.7332 -44.6972
  853 145.062 14.7749 -4.79424
  854 145.029 14.7834 4.82010
  855 198.501 11.5829 -7.57350
  856 198.510 11.5786 7.59099
  857 531.016 -11.1628 20.0423
  858 35.1540 19.6425 19.3222
  859 34.9980 19.7138 -19.3875
  860 37.8963 1.55408 1.26215
  861 37.8177 1.55452 -1.26324
  862 252.364 1.91273 2.65564
  863 252.327 1.91402 -2.65388
  864 650.288 -52.6382 80.3576
  865 409.235 1.38042 -14.5473
  866 409.365 1.33894 14.5312
  867 10.0604 5.62061 5.74934
  868 9.96376 5.62687 -5.75454
  869 409.287 -1.23385 4.16738
  870 409.164 -1.23089 -4.16541
  871 -71.8434 0.143064 -1.92453
  872 -71.7063 0.143536 1.92327
  873 -0.341022 -41.4556 11.6838
  874 -0.453776 -42.1030 -11.7695
  875 498.143 -5.95919 49.2185
  876 -27.9391 7.67088 25.9888
  877 -28.0541 7.68796 -26.0372
  878 -0.156991 -68.0869 -12.8411
  879 198.339 5.97560 -4.00714
  880 198.347 5.97452 4.01193
  881 362.093 -17.8900 -64.2357
  882 364.775 -19.7705 64.8450
  883 -14.7886 -4.96134 -35.6725
  884 -14.7162 -4.95847 35.5896
  885 22.3228 17.1257 22.1725
  886 22.1867 17.1731 -22.2096
  887 1.69302 -153.076 8.10303
  888 7.06996 13.7368 29.2580
  889 6.92363 13.7705 -29.3117
  890 334.806 -6.11891 -57.2068
  891 334.048 -6.34463 57.6550
  892 577.699 34.5952 55.9083
  893 135.421 13.6698 2.89271
  894 135.457 13.6619 -2.87625
  895 419.274 1.68376 -10.8379
  896 419.400 1.66716 10.8329
  897 -16.0853 -6.86622 31.5316
  898 -16.1200 -6.89548 -31.5942
  899 1.52152 -156.360 -4.67464
  900 -24.7657 -1.46351 30.8206
  901 -24.8211 -1.46975 -30.8720
  902 19.1652 15.1770 -17.1693
  903 19.2831 15.1425 17.1469
  904 -1.28549 -10.5088 5.79779
  905 -1.30030 -10.4988 -5.80668
  906 39.1300 17.1189 -14.9173
  907 39.2514 17.0761 14.9022
  908 8.70812 -11.0087 31.5567
  909 7.65708 -10.2285 -33.3453
  910 409.794 -12.2134 36.8019
  911 408.851 -11.6888 -36.9578
  912 -130.486 0.279179 -0.898416
  913 -130.317 0.279210 0.897431
  914 -11.6716 -1.03492 5.49709
  915 -11.6619 -1.03686 -5.49598
  916 0.540747 -96.6251 -11.6486
  917 -12.3816 -5.27235 -15.5781
  918 -12.3753 -5.25839 15.5774
  919 -50.8662 4.43297 22.3314
  920 -50.9716 4.44164 -22.3716
  921 130.994 24.1938 -10.5281
  922 130.880 24.2731 10.6126
  923 552.275 42.5321 -7.39374
  924 -3.57521 12.1063 22.2952
  925 -3.69833 12.1351 -22.3307
  926 205.139 13.4367 -60.8226
  927 205.115 13.6224 61.4344
  928 -21.1767 8.29998 17.9065
  929 -21.2945 8.31895 -17.9342
  930 654.424 -26.3179 -3.86350
  931 410.627 16.3653 24.3636
  932 483.758 -5.23875 -44.5002
  933 358.590 3.63400 -24.3222
  934 358.740 3.53647 24.3335
  935 -34.3752 4.74518 -8.44887
  936 -34.2575 4.73797 8.43808
  937 -83.1668 1.45182 10.9796
  938 -83.2933 1.45547 -10.9978
  939 -5.07382 -16.5112 -18.0583
  940 -5.03612 -16.5222 18.0886
  941 130.265 7.15463 1.73152
  942 130.296 7.15195 -1.72721
  943 -38.6540 4.25239 27.9250
  944 -38.7448 4.25441 -27.9771
  945 426.486 -0.917118 5.40451
  946 426.354 -0.913639 -5.40257
  947 -3.12328 -36.0394 27.0999
  948 19.1457 13.7875 -14.6094
  949 19.2561 13.7602 14.5927
  950 25.6415 9.26634 9.25399
  951 25.5455 9.28078 -9.26179
  952 77.7052 6.01587 -1.66449
  953 77.7648 6.01186 1.66449
  954 799.321 110.457 -31.7726
  955 -3.24488 -0.876251 -2.20231
  956 -3.25181 -0.876098 2.20624
  957 29.4507 9.25238 -17.9102
  958 29.9385 9.03663 17.8088
  959 291.037 10.4045 -26.0584
  960 291.152 10.3268 26.1201
  961 40.5261 11.7878 -8.59955
  962 40.6187 11.7696 8.59437
  963 80.5749 -4.32402 112.353
  964 539.787 -4.11262 -4.93136
  965 539.158 -3.96271 4.46546
  966 99.0836 -1.62154 99.0849
  967 104.769 3.38420 -0.735838
  968 104.726 3.38529 0.736409
  969 266.304 -4.09236 -163.204
  970 201.124 2.17339 1.41223
  971 201.115 2.17343 -1.41133
  972 26.4725 -22.7940 2.46923
  973 29.2485 -18.6267 -0.269471
  974 476.827 -0.746947 1.85018
  975 476.664 -0.745993 -1.84872
  976 -39.0550 0.195908 22.7556
  977 -39.1036 0.192998 -22.7889
  978 856.827 108.414 53.8140
  979 -3.37589 -26.5017 -35.4031
  980 4.78948 -126.737 18.4403
  981 -0.429676 -42.3201 32.5443
  982 493.573 -0.731836 -6.91995
  983 493.716 -0.747571 6.89911
  984 -6.51006 -11.9517 15.6280
  985 -6.52909 -11.9543 -15.6145
  986 624.287 66.6237 -28.0829
  987 1067.05 8.43718 -6.42392
  988 -1.61894 -2.48473 -2.39692
  989 -1.61708 -2.48997 2.40038
  990 290.380 2.09278 -5.74420
  991 290.438 2.08937 5.74750
  992 -3.43591 -25.4204 35.5537
  993 402.030 0.808310 21.5273
  994 401.876 0.908927 -21.5464
  995 528.698 -34.2602 -18.0130
  996 -18.3362 -3.77086 17.5689
  997 -18.3456 -3.78572 -17.5800
  998 9.36243 -32.2679 23.9696
  999 -0.758973 -64.3524 25.5603
  1000 -0.0801184 -67.5793 12.8322
  1001 550.514 34.8299 -3.34393
  1002 624.227 68.6764 14.3403
  1003 444.734 -49.2802 -77.2359
  1004 6.74085 -61.2187 19.1326
  1005 8.45174 -87.3205 2.42454
  1006 126.671 1.97860 0.201529
  1007 126.639 1.97887 -0.201564
  1008 -4.90926 -5.60189 -7.50678
  1009 -4.90456 -5.60241 7.51221
  1010 4.59079 -50.3309 -26.3427
  1011 357.214 -0.589456 -1.32912
  1012 357.308 -0.590752 1.32986
  1013 74.1644 3.05545 -38.9534
  1014 71.0190 3.22024 38.5855
  1015 -4.67114 11.2890 29.7904
  1016 -4.81085 11.3190 -29.8530
  1017 -39.7148 6.32344 -18.4105
  1018 -39.5961 6.30978 18.3810
  1019 276.088 4.38313 -58.8941
  1020 276.205 4.64220 59.5005
  1021 199.905 17.3122 -42.1255
  1022 199.858 17.3216 42.4827
  1023 216.078 14.2840 -14.7583
  1024 216.102 14.2672 14.7999
  1025 555.715 -13.2646 -56.2552
  1026 -13.1122 7.09751 33.1040
  1027 -13.2362 7.10576 -33.1852
  1028 392.755 -1.38534 29.5900
  1029 392.529 -1.16654 -29.5757
  1030 -2.08216 -19.5273 36.8947
  1031 -31.4852 -0.997857 16.8954
  1032 -31.5061 -1.00335 -16.9158
  1033 358.402 2.19756 -29.5086
  1034 358.588 2.05844 29.5354
  1035 451.656 11.6612 -40.6204
  1036 -0.398277 -63.8868 -26.7972
  1037 -5.05978 -25.0990 32.0701
  1038 -5.27875 -25.4187 -31.8096
  1039 254.551 13.6043 -21.8915
  1040 254.623 13.5578 21.9572
  1041 318.915 4.61593 12.2951
  1042 318.836 4.63285 -12.2890
  1043 527.618 -33.4710 15.4652
  1044 30.1863 1.88187 -0.333156
  1045 30.2687 1.88144 0.332812
  1046 449.439 -55.0757 82.3445
  1047 1.56932 1.18557 1.84364
  1048 1.47145 1.18597 -1.84539
  1049 100.047 24.4869 -2.15445
  1050 99.9023 24.5733 2.19747
  1051 39.5073 19.3728 16.4260
  1052 39.3741 19.4245 -16.4485
  1053 5.16481 -76.4947 -15.4774
  1054 133.143 3.82967 0.957698
  1055 133.172 3.82902 -0.955464
  1056 402.027 12.7734 10.1018
  1057 360.946 1.61444 11.3046
  1058 360.847 1.63102 -11.3030
  1059 -1.69576 -20.3403 -36.9628
  1060 541.884 -7.04304 -9.87650
  1061 0.973520 -0.943752 36.2363
  1062 1.39184 -0.659117 -36.0458
  1063 490.346 -1.13699 -3.83724
  1064 490.511 -1.14071 3.83462
  1065 522.948 -2.09569 -6.76970
  1066 522.930 -2.15884 6.61251
  1067 -0.393109 -102.276 9.60996
  1068 310.360 6.59765 -16.2147
  1069 310.441 6.56844 16.2255
  1070 375.859 2.34068 13.0782
  1071 375.750 2.36280 -13.0793
  1072 10.0366 9.59101 32.0838
  1073 9.97981 9.59044 -32.1320
  1074 813.697 52.5623 9.80357
  1075 -9.69996 -3.94485 37.7767
  1076 -9.86883 -3.85025 -37.8798
  1077 120.114 22.3047 -3.51722
  1078 120.039 22.3459 3.55768
  1079 -61.5451 0.880933 -3.00508
  1080 -61.4141 0.880492 3.00193
  1081 195.634 12.2339 -69.8573
  1082 195.339 12.7630 70.6251
  1083 58.0307 21.8969 11.9183
  1084 57.8864 21.9621 -11.9296
  1085 133.718 16.7719 -52.5991
  1086 133.033 17.4080 52.9951
  1087 -3.34598 -33.8675 -26.4246
  1088 467.485 7.23609 54.1738
  1089 324.126 8.54115 210.502
  1090 54.5822 22.7279 12.2639
  1091 54.4152 22.8126 -12.2898
  1092 197.765 9.14466 -5.88643
  1093 197.773 9.14069 5.89808
  1094 702.841 9.70314 8.57758
  1095 47.4982 13.0097 6.21900
  1096 46.9099 13.1456 -6.40869
  1097 -20.7342 -4.46046 23.3001
  1098 -20.7546 -4.48227 -23.3266
  1099 -0.678655 -15.6723 6.31628
  1100 -0.706135 -15.6636 -6.34202
  1101 462.801 -1.24406 17.2032
  1102 462.606 -1.08296 -17.3033
  1103 1.05312 -31.6935 34.4781
  1104 -30.9270 2.19999 -30.6391
  1105 -30.8519 2.20483 30.5863
  1106 0.148193 -123.025 -12.0197
  1107 -6.67887 -9.52834 37.7253
  1108 -6.65612 -9.31115 -37.7655
  1109 441.727 -0.180881 -7.24401
  1110 441.866 -0.188520 7.24286
  1111 457.144 -4.31716 20.8678
  1112 456.811 -4.05428 -20.9641
  1113 82.5584 19.2824 -19.7456
  1114 81.9365 19.6201 19.8824
  1115 -1.03933 -63.3925 -21.9675
  1116 600.130 -48.0417 -125.084
  1117 777.146 108.165 14.7779
  1118 8.50229 -91.7202 0.769859
  1119 30.0462 16.7041 -22.4203
  1120 30.2218 16.6176 22.2833
  1121 77.6537 24.3852 3.81233
  1122 77.4634 24.4965 -3.80538
  1123 161.433 8.28615 2.94776
  1124 161.447 8.28594 -2.93980
  1125 -9.88410 -14.0797 30.0992
  1126 -9.87156 -14.2193 -30.1511
  1127 -26.7535 8.91375 23.7766
  1128 -26.8715 8.93364 -23.8172
  1129 -8.23552 11.4662 27.4900
  1130 -8.36521 11.4943 -27.5426
  1131 438.158 -22.5088 -36.4414
  1132 440.874 -22.6431 36.2024
  1133 0.506182 -72.1047 -25.3156
  1134 237.005 0.759920 -86.6380
  1135 237.318 1.48183 87.9787
  1136 77.6948 21.8645 -5.17545
  1137 77.8038 21.8119 5.18672
  1138 232.669 130.460 234.480
  1139 61.5371 17.3292 8.64807
  1140 61.4387 17.3615 -8.64716
  1141 594.527 -61.4048 -34.0706
  1142 227.829 4.99400 4.61518
  1143 227.804 4.99746 -4.61010
  1144 -10.0567 -8.93963 18.5399
  1145 -10.0651 -8.96228 -18.5361
  1146 -11.9510 -10.6815 23.9084
  1147 -11.9532 -10.7256 -23.9143
  1148 393.469 -37.5674 -120.098
  1149 400.967 -41.5360 120.947
  1150 74.0020 1.85754 1.22979
  1151 74.0614 1.85711 -1.22924
  1152 249.190 11.1963 -48.3055
  1153 249.168 11.0666 48.7517
  1154 535.090 -67.9610 93.1867
  1155 473.120 -1.32866 1.06231
  1156 472.959 -1.32761 -1.06135
  1157 -40.5433 6.64294 21.2839
  1158 -40.6602 6.65677 -21.3195
  1159 -70.4989 2.08364 -10.9630
  1160 -70.3685 2.07903 10.9484
  1161 125.398 10.7093 144.152
  1162 388.756 25.2902 -20.5663
  1163 227.951 15.1961 -24.6019
  1164 228.004 15.1647 24.7199
  1165 689.900 -10.3423 135.469
  1166 231.761 14.8432 -35.7065
  1167 231.823 14.7830 35.9107
  1168 60.7273 6.56332 -2.87495
  1169 60.7972 6.55805 2.87402
  1170 20.8003 -67.1524 16.6405
  1171 21.0029 -65.0989 -22.1749
  1172 312.799 -19.6817 -121.344
  1173 316.922 -18.2702 121.182
  1174 124.471 21.2923 -37.6503
  1175 123.945 21.6952 37.9725
  1176 545.879 -34.9647 -35.6252
  1177 -19.1405 -1.31723 34.6273
  1178 -19.2149 -1.31823 -34.6915
  1179 0.00516882 -28.2329 -35.4502
  1180 142.332 7.53836 -91.9503
  1181 142.626 7.90142 93.4071
  1182 -0.346540 -27.7190 7.02220
  1183 -0.296599 -27.7875 -7.11032
  1184 -128.293 1.04345 -3.17658
  1185 -128.135 1.04267 3.17210
  1186 431.147 -0.876888 -2.09015
  1187 431.283 -0.878486 2.09153
  1188 270.022 8.65306 -14.3381
  1189 270.084 8.62664 14.3599
  1190 -8.85775 0.508379 37.6023
  1191 -8.88498 0.666679 -37.6770
  1192 0.000420237 -110.284 -10.6512
  1193 -109.561 0.235050 5.27436
  1194 -109.690 0.235679 -5.28351
  1195 88.7849 2.70838 -65.7709
  1196 88.1543 3.25786 67.7208
  1197 506.237 -30.7983 -4.16732
  1198 148.067 11.9106 -82.7883
  1199 148.150 12.2420 83.5109
  1200 -61.4523 0.341310 8.35036
  1201 -61.4958 0.340856 -8.36294
  1202 1.71361 -94.4013 -17.2210
  1203 -14.3645 3.35909 -3.78728
  1204 -14.2577 3.35653 3.78345
  1205 79.6997 18.1686 5.67182
  1206 79.6071 18.2031 -5.66185
  1207 286.215 0.338305 -1.82185
  1208 286.270 0.337212 1.82287
  1209 383.577 0.816572 8.58744
  1210 383.468 0.826816 -8.58641
  1211 22.4304 -0.927385 18.6270
  1212 22.0998 -1.30108 -19.0321
  1213 3.92970 -53.7318 26.4485
  1214 689.376 97.8782 16.9061
  1215 -21.1746 -1.61966 13.3347
  1216 -21.1797 -1.62691 -13.3435
  1217 3.13983 -50.3366 -27.8646
  1218 -1.97935 -32.0431 19.4665
  1219 -1.88591 -31.7228 -20.1623
  1220 543.833 -6.02593 8.72333
  1221 0.466105 -125.918 10.8557
  1222 4.46947 -36.6331 -31.1168
  1223 68.9281 1.25879 0.552556
  1224 68.8663 1.25886 -0.552932
  1225 -5.07320 -22.3220 35.1125
  1226 -56.8833 3.17288 -9.10080
  1227 -56.7561 3.16822 9.08952
  1228 1087.22 18.2456 31.6277
  1229 -30.3575 3.84428 30.8108
  1230 -30.4463 3.84264 -30.8689
  1231 265.767 10.0258 -43.6326
  1232 265.959 9.85856 43.8719
  1233 18.1091 -23.0773 -11.1718
  1234 252.545 11.6749 -18.1604
  1235 252.606 11.6392 18.2061
  1236 10.8834 -72.5043 -1.70835
  1237 -5.09586 -22.3809 -35.0733
  1238 -38.2172 1.30250 5.19904
  1239 -38.3362 1.30411 -5.20431
  1240 -18.1213 1.83064 -35.2411
  1241 -18.0304 1.83811 35.1800
  1242 541.271 44.0351 39.1562
  1243 306.474 2.83085 -45.7999
  1244 306.799 2.76699 45.9118
  1245 -133.491 0.251041 -1.06973
  1246 -133.323 0.250954 1.06822
  1247 275.589 5.39864 -9.66644
  1248 275.641 5.38969 9.67390
  1249 -136.289 -2.45671 -0.385210
  1250 -136.462 -2.45826 0.385337
  1251 410.155 -28.9031 -52.5084
  1252 -63.4965 1.12098 17.4700
  1253 -63.5788 1.12128 -17.5004
  1254 414.120 -30.5140 52.0373
  1255 280.677 8.97700 -19.3781
  1256 280.753 8.93403 19.4079
  1257 33.7326 -61.1026 -65.0281
  1258 0.624774 -87.2971 -21.6121
  1259 -1.63897 -36.5477 32.8807
  1260 863.083 160.335 -134.140
  1261 -0.182073 -82.2852 21.3272
  1262 903.039 85.5788 -59.4709
  1263 -0.561509 -152.715 -9.95932
  1264 47.8194 3.69004 -0.690127
  1265 47.8933 3.68788 0.689380
  1266 -0.372035 -35.5631 7.35468
  1267 -0.296874 -35.7556 -7.33768
  1268 158.612 2.79509 0.498199
  1269 158.626 2.79490 -0.497483
  1270 551.405 -40.1886 33.6189
  1271 14.9648 3.58765 -4.38500
  1272 15.0570 3.58450 4.38138
  1273 3.17973 -164.149 3.76757
  1274 2.02403 -175.226 -3.76358
  1275 507.030 -60.8569 -57.2695
  1276 -1.34859 -45.7054 21.4302
  1277 537.068 36.1350 -50.4466
  1278 -1.57519 -60.2188 21.0167
  1279 1.09310 -163.246 -7.26431
  1280 257.682 6.05344 -10.7988
  1281 257.727 6.03668 10.8127
  1282 -0.207893 -90.1973 9.49407
  1283 -0.207616 -74.3702 -21.3139
  1284 1174.94 215.436 183.853
  1285 475.196 0.00823665 0.796666
  1286 475.034 0.00843561 -0.796071
  1287 14.0184 2.29557 28.7734
  1288 13.5964 2.81080 -28.9227
  1289 -5.97958 7.45917 34.9006
  1290 -6.16845 7.46375 -34.9987
  1291 513.738 -9.12167 -31.6233
  1292 473.872 -20.1712 -21.4591
  1293 473.472 -22.8699 21.7577
  1294 74.5034 7.49792 2.73219
  1295 74.4388 7.50428 -2.73141
  1296 -75.8790 2.00670 -13.3619
  1297 -75.7593 2.00226 13.3387
  1298 528.046 -69.0856 -80.1072
  1299 -3.91990 -9.54135 9.77803
  1300 -3.93560 -9.53570 -9.77438
  1301 558.427 -21.9728 53.1340
  1302 -5.70787 -21.7350 26.1012
  1303 -5.64347 -21.8180 -25.9828
  1304 -45.9598 2.96258 6.26508
  1305 -46.0827 2.96616 -6.27241
  1306 87.0946 11.9496 -35.5700
  1307 86.2309 12.4265 35.5316
  1308 135.626 2.66527 0.0372014
  1309 135.599 2.66558 -0.0367606
  1310 -51.9819 5.32278 21.1880
  1311 -52.0938 5.33295 -21.2238
  1312 446.752 0.591971 1.23784
  1313 446.606 0.591949 -1.23698
  1314 251.113 2.26256 161.507
  1315 366.992 -0.187238 3.04917
  1316 366.893 -0.185740 -3.04747
  1317 247.895 5.44400 -66.3693
  1318 247.900 5.17140 66.9070
  1319 2.47575 -94.0137 -11.4862
  1320 97.8217 23.5165 -16.6555
  1321 97.3982 23.7859 16.7996
  1322 -0.963921 -0.839863 -1.24534
  1323 -0.968763 -0.840040 1.24894
  1324 316.489 8.37290 24.7455
  1325 316.369 8.45689 -24.7119
  1326 159.705 11.7218 4.93730
  1327 159.723 11.7200 -4.92106
  1328 233.129 11.7277 -12.7049
  1329 233.166 11.7093 12.7335
  1330 302.632 0.614546 -3.07587
  1331 302.697 0.613268 3.07758
  1332 -9.57873 -4.60783 -11.0280
  1333 -9.57577 -4.60156 11.0323
  1334 -88.1565 -0.0678606 3.70583
  1335 -88.3004 -0.0675183 -3.71039
  1336 -16.1080 -7.29341 -26.6602
  1337 -16.0914 -7.25471 26.6278
  1338 -48.0006 0.451605 1.50978
  1339 -48.1248 0.451357 -1.51117
  1340 -138.039 1.21663 0.603129
  1341 -138.213 1.21709 -0.603720
  1342 566.108 -66.2442 108.024
  1343 422.059 -1.97082 -44.5191
</Section>

newXOutput 68

<Section columns = "stress_xx | stress_yy | stress_xy">
  1 495.806 -0.903689 0.530211
  2 495.979 -0.904386 -0.530479
  3 -151.503 0.672663 -2.08735
  4 0.240664 0.0550316 0.430576
  5 888.303 278.353 297.530
  6 1004.75 312.976 -286.826
  7 0.239490 0.0539755 -0.429013
  8 -151.318 0.672525 2.08620
  9 494.368 -0.865656 -1.64862
  10 494.809 -1.65314 -2.64534
  11 499.443 -1.65720 -0.737595
  12 500.028 -1.63287 -3.15410
  13 501.444 -1.61828 -1.03978
  14 511.790 -1.49990 -1.41757
  15 515.505 -2.11066 -4.23718
  16 519.639 -1.09484 -2.94105
  17 522.411 -0.0878655 -5.66784
  18 543.331 -3.19485 -4.84892
  19 552.647 -2.55596 -6.19441
  20 563.118 -3.73307 -2.65071
  21 568.476 -4.84113 -1.79124
  22 565.805 -5.46557 6.59274
  23 548.479 -5.99860 14.2664
  24 507.343 -6.40856 31.0261
  25 439.488 4.08741 36.2778
  26 384.397 5.15015 33.4562
  27 306.878 9.65260 20.2407
  28 325.367 9.37491 2.15428
  29 276.733 27.4762 -12.7030
  30 366.780 12.8384 -36.9123
  31 415.363 3.42606 -30.0853
  32 498.068 -1.21996 -26.0917
  33 542.970 -7.27438 -17.2016
  34 565.182 -6.35689 -6.53268
  35 567.583 -4.70132 1.83802
  36 562.525 -3.68802 2.51450
  37 552.460 -2.57020 6.03154
  38 543.326 -3.23172 4.75828
  39 522.530 -0.108319 5.62760
  40 519.798 -1.10255 2.92721
  41 515.683 -2.11583 4.23412
  42 511.972 -1.50270 1.41647
  43 501.622 -1.62028 1.04007
  44 500.206 -1.63460 3.15643
  45 499.620 -1.65854 0.738449
  46 494.982 -1.65434 2.64730
  47 494.541 -0.866347 1.64984
  48 468.394 0.870006 -0.635895
  49 434.616 -0.125547 -1.38229
  50 392.255 -2.17412 -1.34762
  51 348.180 0.278794 -1.12077
  52 309.406 -0.143540 -0.883977
  53 267.777 1.17402 -1.03958
  54 226.550 3.34949 -0.595368
  55 183.607 2.90647 -1.29995
  56 147.894 1.80205 -1.84503
  57 100.894 0.883988 -1.94426
  58 53.0426 1.98393 -1.48878
  59 13.0295 1.67115 -1.44020
  60 -36.9925 0.885579 -1.30224
  61 -74.1928 -0.717311 -3.28814
  62 -110.247 -2.58869 -1.49091
  63 -146.879 0.257373 1.04681
  64 -154.886 2.64781 -0.336379
  65 -155.540 1.14376 0.529358
  66 -150.412 0.542715 -0.107767
  67 -152.349 1.68941 -1.80839
  68 -150.079 2.06876 -0.0531153
  69 -142.084 0.607768 -2.80526
  70 -144.125 1.28109 -3.03548
  71 -140.690 1.20676 -1.65037
  72 -130.378 0.737555 -2.54585
  73 -125.878 1.37661 -4.28979
  74 -118.368 1.55538 -3.48396
  75 -104.924 0.787712 -6.16761
  76 -97.4180 0.245590 -5.14865
  77 -83.7183 0.351653 -5.98074
  78 -71.9681 0.289784 -6.66321
  79 -61.6534 0.105369 -5.26086
  80 -47.2511 0.316834 -5.31167
  81 -34.8030 -0.118184 -5.69974
  82 -22.7506 -0.610405 -5.02941
  83 -13.1759 -0.537068 -3.86827
  84 -6.50405 -0.952571 -3.24345
  85 -1.13071 -0.551676 -1.17181
  86 0.0418543 -0.621036 -0.427604
  87 -0.333664 -0.352362 -0.0966783
  88 -0.864807 -0.926827 -1.02857
  89 -0.840920 -5.51001 -2.82066
  90 -0.710070 -12.2928 -3.99903
  91 -0.361629 -20.8871 -5.81855
  92 -0.180965 -32.0392 -5.01296
  93 -0.135552 -42.2450 -6.30397
  94 -0.762795 -54.6351 -7.09319
  95 -0.313240 -69.9782 -7.13719
  96 0.143664 -85.4249 -6.82090
  97 0.331948 -101.945 -6.71665
  98 0.519178 -118.879 -6.58251
  99 0.00455610 -131.141 -8.89032
  100 0.854325 -148.765 -7.93920
  101 1.06920 -169.341 -6.24264
  102 -0.138172 -177.947 -8.27344
  103 1.51381 -192.440 -7.59530
  104 3.81184 -211.626 -3.15672
  105 7.48579 -215.616 -5.02945
  106 5.51536 -193.229 7.18152
  107 8.45357 -138.874 25.7093
  108 39.3289 -64.9479 69.9239
  109 120.051 208.207 221.792
  110 1360.95 75.7906 137.133
  111 1171.82 21.6568 49.4155
  112 1134.11 7.42319 11.4997
  113 1125.80 1.96655 -1.80088
  114 1133.71 11.7521 -26.0250
  115 1170.80 39.6149 -58.9959
  116 1326.44 148.246 -174.481
  117 290.702 163.528 -269.903
  118 66.9650 -64.7306 -83.6558
  119 19.8875 -152.283 -32.2511
  120 5.60559 -182.609 -7.56798
  121 6.07729 -207.195 2.18668
  122 1.69525 -203.119 2.19660
  123 0.560899 -187.583 6.32168
  124 0.637903 -177.038 4.97586
  125 0.932267 -159.898 8.91262
  126 -0.0447896 -150.185 8.76412
  127 0.368103 -135.820 6.28983
  128 0.737475 -117.483 8.07964
  129 0.155049 -104.355 6.39792
  130 0.211459 -85.4927 8.09018
  131 -0.854454 -70.8324 6.96458
  132 -0.585056 -54.6773 6.86778
  133 -0.0912374 -42.0054 6.31836
  134 -0.237641 -31.8521 5.02013
  135 -0.352084 -20.8256 5.76102
  136 -0.699480 -12.2848 3.97899
  137 -0.836400 -5.51847 2.81868
  138 -0.863605 -0.936057 1.03065
  139 -0.333600 -0.356305 0.0993361
  140 0.0370406 -0.621595 0.429982
  141 -1.13967 -0.551308 1.17477
  142 -6.51715 -0.951548 3.24622
  143 -13.1931 -0.535304 3.86894
  144 -22.7633 -0.608234 5.02698
  145 -34.8043 -0.116387 5.69342
  146 -47.2389 0.317190 5.30431
  147 -61.6225 0.106295 5.25307
  148 -71.9199 0.290919 6.65405
  149 -83.6468 0.351646 5.97092
  150 -97.3247 0.245554 5.13923
  151 -104.816 0.787182 6.15809
  152 -118.238 1.55437 3.47634
  153 -125.736 1.37546 4.28331
  154 -130.224 0.736793 2.54149
  155 -140.525 1.20590 1.64738
  156 -143.954 1.28041 3.03224
  157 -141.910 0.607541 2.80252
  158 -149.898 2.06771 0.0521685
  159 -152.167 1.68859 1.80683
  160 -150.230 0.542596 0.107353
  161 -155.354 1.14328 -0.529264
  162 -154.700 2.64656 0.336053
  163 -146.697 0.257457 -1.04638
  164 -110.086 -2.58689 1.49002
  165 -74.0515 -0.716365 3.28634
  166 -36.8715 0.885697 1.30140
  167 13.1234 1.67082 1.43934
  168 53.1150 1.98341 1.48794
  169 100.941 0.884117 1.94321
  170 147.915 1.80182 1.84409
  171 183.609 2.90587 1.29932
  172 226.528 3.34875 0.595081
  173 267.733 1.17447 1.03903
  174 309.339 -0.142452 0.883467
  175 348.091 0.279449 1.12010
  176 392.141 -2.17221 1.34689
  177 434.478 -0.125086 1.38152
  178 468.236 0.869739 0.635549
  179 135.494 22.6563 -7.91816
  180 135.406 22.7058 7.98427
  181 -1.19128 4.58289 36.0145
  182 -1.34068 4.54383 -36.0422
  183 303.941 -3.91412 -70.5145
  184 303.685 -4.47640 71.2179
  185 62.4055 15.7634 -6.29849
  186 61.6709 16.0066 6.30508
  187 47.4705 6.99486 -4.62169
  188 47.5513 6.98725 4.61903
  189 286.376 4.29994 -10.8498
  190 286.436 4.28593 10.8597
  191 -2.24819 11.2729 18.8776
  192 -2.36860 11.2988 -18.9057
  193 332.470 7.40073 -26.9410
  194 332.624 7.29833 26.9839
  195 -12.5934 -10.8835 29.4733
  196 -12.5928 -10.9505 -29.5155
  197 3.52053 -25.1856 -34.1103
  198 106.080 9.39707 -66.6360
  199 4.20087 -27.0002 33.2329
  200 104.420 10.1965 67.5915
  201 469.627 -60.2917 -101.613
  202 485.421 -62.6475 97.7339
  203 171.703 4.56703 -2.34898
  204 171.694 4.56686 2.35232
  205 -22.8554 1.46063 -3.47586
  206 -22.7419 1.45976 3.47262
  207 -35.7934 5.79598 27.7864
  208 -35.8996 5.80591 -27.8402
  209 172.709 14.5893 -6.51243
  210 172.697 14.5926 6.53563
  211 54.3251 22.2213 11.2284
  212 54.1098 22.3508 -11.2886
  213 -44.8027 4.87028 -10.9473
  214 -44.6779 4.86236 10.9327
  215 377.493 -0.346645 5.02090
  216 377.388 -0.342865 -5.01868
  217 12.8902 -47.0156 12.6354
  218 14.0007 -42.2655 -10.8096
  219 -3.33102 -30.9344 33.0485
  220 -3.42730 -32.1992 -32.0324
  221 160.218 22.7462 -30.2347
  222 160.054 22.8624 30.4958
  223 -33.0677 0.0491305 28.4991
  224 -33.1280 0.0434024 -28.5448
  225 403.776 1.42125 -14.4435
  226 403.899 1.39186 14.4369
  227 435.672 -7.09453 -28.7980
  228 436.026 -7.51030 28.7178
  229 698.931 51.8594 0.785203
  230 641.429 73.0354 30.5637
  231 628.740 -1.22784 -49.0787
  232 80.5826 16.6432 5.36740
  233 80.4985 16.6708 -5.36052
  234 7.58058 14.3528 26.9711
  235 7.43733 14.3943 -27.0210
  236 486.813 -29.3462 -20.9303
  237 484.045 -29.6864 22.5362
  238 270.906 1.21454 -4.07819
  239 270.952 1.21180 4.08097
  240 -57.7599 4.14799 18.3127
  241 -57.8790 4.15718 -18.3435
  242 -8.17741 -8.03609 -13.4028
  243 -8.16877 -8.02955 13.4095
  244 -62.6381 1.30041 5.36695
  245 -62.7718 1.30227 -5.37319
  246 224.563 15.5448 -18.9582
  247 224.596 15.5213 19.0232
  248 284.638 7.76840 -40.7134
  249 284.837 7.64326 40.8824
  250 71.9679 3.57141 0.156020
  251 72.0309 3.56979 -0.156051
  252 166.131 8.33792 -139.876
  253 195.880 12.5046 151.677
  254 23.7178 11.1865 25.0673
  255 23.6161 11.4088 -25.1923
  256 658.036 -44.6959 -19.8355
  257 60.7420 21.5822 9.79280
  258 60.6156 21.6378 -9.79572
  259 163.321 18.2552 -54.3153
  260 162.993 18.6748 54.8374
  261 738.237 107.397 1.63257
  262 437.852 -0.583062 19.5349
  263 437.677 -0.462335 -19.5804
  264 -3.89344 -24.2972 -20.8855
  265 -3.77235 -24.3909 20.9653
  266 -0.755424 -57.2297 -28.3498
  267 2.17233 -65.9308 -25.4464
  268 1.20043 -66.3578 26.9395
  269 -10.3776 -8.92099 37.4907
  270 -10.4269 -8.91188 -37.6519
  271 24.6005 -48.7404 -13.2872
  272 26.5117 -44.4326 17.4678
  273 -25.1124 -2.05638 18.3187
  274 -25.1299 -2.06632 -18.3379
  275 313.825 7.50409 -16.9886
  276 313.917 7.46525 17.0042
  277 546.341 -54.5487 -8.54768
  278 124.530 9.38018 0.954000
  279 124.568 9.37505 -0.948286
  280 -1.33474 -53.7666 27.1423
  281 14.9889 10.8021 11.6287
  282 14.8826 10.8214 -11.6414
  283 862.920 59.1628 -26.0382
  284 423.693 -0.452793 6.08716
  285 423.563 -0.446392 -6.08671
  286 289.229 -12.0635 -105.242
  287 291.620 -11.8465 106.736
  288 545.684 -51.7964 -0.283341
  289 -50.8043 1.65451 22.4135
  290 -50.8799 1.65417 -22.4519
  291 532.438 -36.2669 170.102
  292 -21.8104 4.16816 33.7308
  293 -21.9052 4.16049 -33.7972
  294 93.6516 25.5954 -10.1834
  295 93.2839 25.8311 10.2719
  296 -90.3619 0.538269 0.899924
  297 -90.5121 0.538084 -0.900960
  298 449.607 17.9929 -230.001
  299 -86.2236 1.67694 -9.73323
  300 -86.0874 1.67327 9.71803
  301 -1.80843 -10.1691 37.7798
  302 -0.418688 -9.83907 -37.3132
  303 201.869 19.6261 -27.2135
  304 201.864 19.6303 27.3674
  305 47.2395 4.42227 3.48785
  306 47.1618 4.42568 -3.49020
  307 209.334 6.78377 -6.07529
  308 209.347 6.78044 6.08339
  309 20.6769 -12.3231 17.7322
  310 18.8595 -15.1978 -18.0382
  311 203.221 2.39719 -1.62102
  312 203.229 2.39682 1.62240
  313 -71.5621 1.87927 16.3040
  314 -71.6621 1.88195 -16.3330
  315 52.2373 -1.59610 -16.1280
  316 50.7354 -1.67784 14.7616
  317 440.928 -0.981347 1.70743
  318 440.786 -0.980097 -1.70606
  319 956.507 53.7563 40.0416
  320 104.151 12.5938 1.17125
  321 104.095 12.6059 -1.16291
  322 -17.5172 4.44379 7.26112
  323 -17.6299 4.45022 -7.26966
  324 141.846 17.9295 -5.53381
  325 141.799 17.9471 5.57092
  326 18.2276 15.0223 27.7818
  327 18.1092 15.0522 -27.8653
  328 2.18904 -95.7662 18.4615
  329 -94.0044 -0.00690444 -2.14458
  330 -93.8530 -0.00664236 2.14222
  331 339.135 -0.157032 -3.29413
  332 339.219 -0.158922 3.29592
  333 357.003 1.33385 -8.73109
  334 357.098 1.32300 8.73370
  335 -88.1649 1.37319 -6.92815
  336 -88.0206 1.37097 6.91939
  337 2.64827 1.16494 0.654369
  338 2.54866 1.16511 -0.655236
  339 -1.99044 -40.1100 20.7857
  340 -1.57583 -41.7230 -20.7561
  341 404.079 -32.5698 -71.5982
  342 419.269 -38.9929 70.3614
  343 241.444 10.4096 -11.8573
  344 241.481 10.3950 11.8774
  345 108.609 24.7129 -6.57356
  346 108.418 24.8278 6.64353
  347 -34.0262 6.88989 15.7691
  348 -34.1473 6.90415 -15.7932
  349 741.548 23.1520 28.1981
  350 41.2496 -49.6048 -49.2235
  351 44.1081 -45.3298 51.2867
  352 -13.5193 11.4867 25.6708
  353 -13.6450 11.5127 -25.7173
  354 -20.0698 -3.82703 33.3418
  355 -20.1265 -3.83873 -33.4062
  356 841.741 145.819 -48.2138
  357 548.032 -5.51835 63.4559
  358 506.698 -12.4199 -13.6366
  359 506.354 -12.1293 12.8922
  360 358.516 -4.78861 -45.7769
  361 358.085 -5.11324 45.8111
  362 0.697161 -115.390 -14.7263
  363 462.573 0.427627 -10.8762
  364 462.712 0.394415 10.8513
  365 6.25466 -107.498 10.6812
  366 546.999 43.1767 -32.2907
  367 135.421 3.43433 1.23173
  368 135.392 3.43534 -1.23221
  369 360.029 1.62905 -33.9624
  370 360.257 1.46986 34.0186
  371 386.118 2.04967 -20.4065
  372 386.253 1.97889 20.3986
  373 -3.15243 3.75290 4.69137
  374 -3.25679 3.75668 -4.69616
  375 225.454 12.4697 -55.0905
  376 225.483 12.6173 55.5447
  377 454.188 -0.798936 2.78559
  378 454.039 -0.797041 -2.78398
  379 262.405 13.1815 -28.1563
  380 262.496 13.1143 28.2561
  381 300.895 3.40391 7.29213
  382 300.831 3.40954 -7.28770
  383 -14.2924 -2.54024 11.3754
  384 -14.2930 -2.54728 -11.3767
  385 -3.42239 -2.42546 -3.35822
  386 -3.42382 -2.42646 3.36327
  387 607.550 -71.2692 49.1556
  388 -7.72392 -18.7546 30.6629
  389 -7.66931 -18.9225 -30.6710
  390 103.286 5.49299 -0.933463
  391 103.334 5.49015 0.934624
  392 -3.00135 -15.1783 11.4337
  393 -3.03632 -15.1558 -11.4361
  394 41.5749 16.9349 12.3885
  395 41.4636 16.9706 -12.3987
  396 496.418 -2.77438 14.4752
  397 496.221 -2.60490 -14.6875
  398 -0.837357 -28.4723 36.3047
  399 -40.6590 -0.685698 17.2541
  400 -40.6936 -0.689703 -17.2784
  401 -0.995077 -30.1366 -35.9014
  402 465.027 -0.446765 6.93895
  403 464.879 -0.436989 -6.94417
  404 -2.61839 10.8204 32.5522
  405 -2.78277 10.8504 -32.6261
  406 346.782 3.92191 -13.7887
  407 346.878 3.89807 13.7923
  408 531.671 -22.6307 -9.13636
  409 532.966 -18.4089 6.64238
  410 -1.02122 -54.5330 -22.7042
  411 50.2075 19.0398 -6.96816
  412 50.6164 18.8491 6.90001
  413 539.179 34.8502 19.9091
  414 304.562 -12.6117 -144.591
  415 312.327 -18.1352 151.041
  416 20.7756 16.3817 20.1162
  417 20.6456 16.4231 -20.1461
  418 224.666 4.79003 -4.15963
  419 224.687 4.78838 4.16356
  420 218.399 48.0945 228.756
  421 92.8798 20.4494 -2.96082
  422 92.9781 20.4054 2.98012
  423 6.00057 -49.7257 23.3196
  424 -0.651715 -88.3734 -19.5010
  425 38.1584 20.3771 18.1624
  426 38.0094 20.4378 -18.1995
  427 47.4614 11.0482 -7.15926
  428 47.5491 11.0329 7.15570
  429 -14.1132 -0.241731 -37.2018
  430 -14.0197 -0.262832 37.1317
  431 110.268 22.1898 -24.3525
  432 109.793 22.5058 24.5597
  433 536.748 -16.2946 -48.3151
  434 16.3598 -3.60411 27.1668
  435 15.8487 -3.49171 -27.3621
  436 391.188 -16.9643 -50.5513
  437 392.738 -18.1019 50.5063
  438 -95.2303 0.709460 -9.68136
  439 -95.1026 0.707071 9.66476
  440 -0.00358969 -87.0616 17.6227
  441 -0.601326 -55.4245 20.2389
  442 -38.4810 2.68027 28.6365
  443 -38.5602 2.67802 -28.6869
  444 280.469 1.06983 -1.53962
  445 280.520 1.06872 1.54057
  446 -8.24864 -13.0407 20.9989
  447 -8.26451 -13.0729 -20.9798
  448 177.839 11.2134 -79.6467
  449 177.459 11.9729 80.4638
  450 1.48165 -104.250 -18.8664
  451 954.498 32.1653 0.398008
  452 2.80621 -121.267 -9.69435
  453 -111.005 -0.194205 -3.31641
  454 -110.846 -0.194189 3.31281
  455 -41.9934 6.20652 22.8650
  456 -42.1097 6.21965 -22.9066
  457 -50.9877 0.754411 17.2603
  458 -51.0392 0.753891 -17.2863
  459 193.773 18.7403 -19.0456
  460 193.768 18.7494 19.1388
  461 290.035 10.1366 -21.7547
  462 290.130 10.0791 21.7981
  463 -4.39136 -17.0852 37.6308
  464 -4.39834 -16.9725 -37.7921
  465 506.529 10.4667 -60.8191
  466 35.9000 -5.72980 -2.23144
  467 34.6438 -6.03712 2.88053
  468 8.35957 -106.738 -4.07835
  469 5.46133 -124.970 0.154859
  470 -15.0493 -6.66291 21.5923
  471 -15.0587 -6.68833 -21.6044
  472 109.100 2.83870 -122.068
  473 756.784 12.4641 -84.5457
  474 176.612 9.96598 6.12154
  475 176.619 9.96623 -6.10788
  476 255.598 3.41647 -76.0283
  477 256.105 3.34496 77.0887
  478 77.1951 25.7593 5.09269
  479 77.0395 25.8476 -5.08565
  480 231.045 16.5367 -40.9605
  481 231.115 16.4694 41.2321
  482 9.73970 5.58108 32.8826
  483 10.2500 5.83784 -32.8436
  484 -98.8746 1.35732 -6.93914
  485 -98.7285 1.35543 6.92931
  486 500.921 -56.9287 -42.5434
  487 396.016 -0.751032 -2.31434
  488 396.132 -0.752322 2.31584
  489 25.6164 2.06584 -1.76003
  490 25.7041 2.06470 1.75830
  491 -22.9502 9.10605 20.9413
  492 -23.0721 9.12661 -20.9758
  493 -54.0801 3.19894 -7.25492
  494 -53.9510 3.19453 7.24572
  495 176.743 15.7815 -9.30361
  496 176.731 15.7837 9.33936
  497 -18.9282 8.14351 30.1165
  498 -19.0496 8.16137 -30.1793
  499 458.281 -13.5385 -27.2709
  500 459.070 -14.1552 26.9725
  501 303.719 2.75966 -50.8268
  502 303.239 2.57727 51.2411
  503 115.752 4.11254 -0.426957
  504 115.791 4.11114 0.427294
  505 1.45308 -52.8283 -30.5014
  506 538.660 -18.5667 39.4721
  507 8.01416 -33.5158 -26.6576
  508 156.438 24.1702 19.9812
  509 156.551 24.0920 -19.8312
  510 495.493 -53.2577 42.1217
  511 39.6144 -38.5745 66.1611
  512 587.460 -69.9803 -81.9241
  513 401.847 0.534621 24.6245
  514 401.658 0.675906 -24.6325
  515 1.43145 -45.0179 31.7475
  516 -7.89159 -2.33394 -6.12174
  517 -7.89458 -2.33248 6.12575
  518 53.5104 1.73807 -0.416529
  519 53.5827 1.73763 0.416059
  520 -1.33524 -31.1488 13.4161
  521 -1.21139 -31.0067 -13.4878
  522 331.354 2.08749 5.65005
  523 331.274 2.09042 -5.64718
  524 921.232 169.138 77.8864
  525 40.4236 -19.3052 -16.0691
  526 31.5826 -27.5799 9.46778
  527 -5.65101 6.63436 -9.80057
  528 -5.54097 6.62305 9.78887
  529 -79.7050 1.25061 10.2761
  530 -79.7891 1.25200 -10.2933
  531 0.831454 -98.0592 18.9880
  532 -108.447 0.801371 0.802981
  533 -108.607 0.801424 -0.804098
  534 105.565 -0.249644 -90.7533
  535 103.324 1.32839 94.0517
  536 96.9714 18.6503 -33.4775
  537 96.2496 19.0572 33.6544
  538 -21.2154 -4.29210 29.3066
  539 -21.2528 -4.31229 -29.3540
  540 96.2128 7.32508 0.823252
  541 96.1595 7.33001 -0.821166
  542 -43.0986 1.79566 2.84371
  543 -43.2228 1.79695 -2.84735
  544 112.561 15.0381 0.122289
  545 112.502 15.0563 -0.106146
  546 -2.16773 -7.13228 5.24375
  547 -2.17541 -7.12647 -5.24291
  548 41.8834 18.1317 15.5683
  549 41.6078 18.3702 -15.6744
  550 33.8256 7.07644 13.2041
  551 33.3602 7.03688 -13.4937
  552 405.192 1.80315 10.3302
  553 405.072 1.81545 -10.3306
  554 360.147 3.52628 16.7083
  555 360.037 3.56656 -16.7068
  556 -0.366015 -84.0436 -12.2858
  557 254.717 11.3452 -17.0305
  558 254.770 11.3181 17.0653
  559 254.912 4.48520 -6.67826
  560 254.951 4.47920 6.68485
  561 -29.5241 0.731525 0.156810
  562 -29.4072 0.731695 -0.157087
  563 446.769 23.1984 -11.7057
  564 564.110 -68.2739 -32.9130
  565 474.765 22.6724 45.5391
  566 4.12223 -69.2959 -21.5042
  567 -21.4109 7.56821 -13.3727
  568 -21.2932 7.55453 13.3548
  569 4.46324 -39.7756 29.4904
  570 -24.0839 0.999991 33.2177
  571 -24.1594 0.994422 -33.2744
  572 722.452 69.1927 4.89102
  573 167.987 6.37516 -3.15949
  574 167.976 6.37532 3.16482
  575 1071.47 92.4479 -97.3860
  576 -4.35327 -3.31609 38.3403
  577 -3.96027 -3.02314 -38.3617
  578 595.969 -49.7203 17.5352
  579 477.801 -0.229929 -12.0437
  580 477.940 -0.286552 11.9923
  581 225.108 2.55192 -109.638
  582 227.652 1.83758 111.212
  583 -11.8781 -11.3475 33.8382
  584 -11.8922 -11.4102 -33.9341
  585 119.693 13.0439 60.3028
  586 120.684 12.1998 -59.8695
  587 -92.7384 1.04297 -9.53046
  588 -92.6219 1.04123 9.51397
  589 701.985 65.9910 30.3723
  590 138.158 11.2732 2.21479
  591 138.190 11.2673 -2.20443
  592 162.540 20.3676 -41.9067
  593 162.299 20.6084 42.2977
  594 434.482 -1.91068 -23.9726
  595 434.726 -2.11035 23.9373
  596 -1.78153 -43.1465 -30.3379
  597 469.012 -1.01318 3.63993
  598 468.855 -1.01059 -3.63864
  599 -64.0120 1.00825 -0.991715
  600 -63.8765 1.00804 0.990121
  601 -116.460 -0.990587 -0.0313472
  602 -116.625 -0.991508 0.0311311
  603 10.7677 -61.9751 -8.11724
  604 -4.29279 -28.2327 26.2552
  605 -4.52782 -26.6803 -26.4293
  606 -52.3101 3.34328 23.7388
  607 -52.4028 3.34746 -23.7810
  608 332.376 6.78219 21.2488
  609 332.263 6.84411 -21.2320
  610 245.946 1.76380 1.54259
  611 245.914 1.76419 -1.54162
  612 57.5749 -10.0667 39.8693
  613 59.3017 -8.87117 -39.5416
  614 -1.67268 -21.7549 11.3607
  615 -1.72640 -21.6882 -11.4006
  616 561.527 52.8224 246.109
  617 -28.0260 -0.831156 10.4906
  618 -28.0307 -0.835301 -10.5004
  619 10.8470 -37.2013 -20.7299
  620 241.089 8.06626 -9.12872
  621 241.122 8.05755 9.14092
  622 120.583 24.9992 -15.8585
  623 120.337 25.1559 16.0005
  624 1.14478 -145.793 6.60325
  625 91.3182 23.8670 1.96457
  626 91.1987 23.9311 -1.94126
  627 -6.04010 9.60011 16.1251
  628 -6.15664 9.61978 -16.1472
  629 -0.668935 -73.8688 16.7556
  630 -117.287 0.00429171 -3.34168
  631 -117.126 0.00408828 3.33775
  632 160.486 2.90256 1.21567
  633 160.501 2.90262 -1.21407
  634 394.880 0.105714 6.93439
  635 394.766 0.111673 -6.93226
  636 351.686 -18.2760 188.318
  637 283.293 5.62885 -13.2833
  638 283.355 5.60788 13.2978
  639 5.68881 -4.52639 34.8612
  640 6.79032 -2.07697 -34.7211
  641 450.123 -39.7610 -153.186
  642 1038.62 35.0476 -40.4374
  643 -109.142 0.0283604 -6.50495
  644 -109.002 0.0273052 6.49476
  645 31.0934 5.21331 -4.16004
  646 31.1806 5.20815 4.15668
  647 -1.99494 -46.0279 26.9199
  648 611.067 39.5171 -53.6027
  649 463.573 -1.22767 0.659733
  650 463.417 -1.22661 -0.659050
  651 -29.6694 -1.51211 -24.2015
  652 -29.6326 -1.50372 24.1673
  653 -0.100771 -104.541 -15.8911
  654 471.407 -1.18360 1.40659
  655 471.247 -1.18247 -1.40532
  656 47.5133 14.4830 10.2880
  657 47.4146 14.5087 -10.2935
  658 365.860 -29.7749 -101.381
  659 372.158 -29.6132 102.422
  660 526.847 -3.77703 8.52586
  661 526.850 -3.74716 -8.83315
  662 2.35595 -130.642 11.9120
  663 -24.2598 0.429400 -1.61433
  664 -24.1457 0.429511 1.61256
  665 175.471 33.5324 -180.583
  666 166.744 2.43424 1.50269
  667 166.756 2.43392 -1.50172
  668 84.5801 4.96811 0.0546036
  669 84.5232 4.97078 -0.0541337
  670 99.5858 9.50077 -0.0325330
  671 99.6396 9.49317 0.0376707
  672 312.572 7.64060 -32.8966
  673 312.744 7.52119 32.9842
  674 85.6046 24.4412 -2.26991
  675 85.3420 24.6106 2.29438
  676 -52.9515 3.94392 -12.9093
  677 -52.8251 3.93522 12.8905
  678 -62.5758 4.34358 -14.9248
  679 -62.4506 4.33509 14.9006
  680 542.757 -8.45607 -0.486370
  681 1.21196 -20.6517 -36.1245
  682 543.313 -8.86708 -0.192903
  683 696.117 53.5613 -3.89696
  684 -67.7167 0.333939 11.7365
  685 -67.7818 0.333487 -11.7558
  686 74.5332 21.9823 -7.68385
  687 74.0046 22.2323 7.72184
  688 -125.766 -0.0128967 -1.08701
  689 -125.597 -0.0127495 1.08545
  690 1.69549 -18.4378 36.1112
  691 -41.9304 0.693061 25.2525
  692 -41.9966 0.690001 -25.2938
  693 596.985 -46.3462 -19.7321
  694 98.7607 1.36852 -0.903456
  695 98.7127 1.36866 0.903913
  696 25.7915 8.13333 7.35688
  697 25.6971 8.14414 -7.36275
  698 319.822 -13.4808 -85.2490
  699 322.086 -14.0150 86.7994
  700 1081.94 77.6843 88.1006
  701 22.3699 -89.3992 -40.5047
  702 -7.51250 -16.0600 36.0586
  703 -7.51914 -16.1304 -36.1492
  704 70.6416 14.1031 -4.77537
  705 70.7211 14.0838 4.77822
  706 484.629 -1.03664 -3.68775
  707 484.794 -1.03972 3.68743
  708 235.419 2.61452 2.95733
  709 235.392 2.61619 -2.95485
  710 21.8707 17.4888 24.5216
  711 21.7288 17.5401 -24.5744
  712 16.4456 3.70359 2.90503
  713 16.3526 3.70622 -2.90779
  714 -12.4887 3.82641 36.2241
  715 -12.5962 3.81964 -36.3078
  716 400.271 -1.24051 2.96175
  717 400.153 -1.23817 -2.96002
  718 348.052 1.82372 7.97667
  719 347.962 1.82998 -7.97325
  720 48.9982 -23.7550 47.2395
  721 50.3237 -25.9380 -45.8002
  722 -25.4453 6.07331 31.5692
  723 -25.5517 6.07841 -31.6337
  724 15.4649 -30.0277 15.5071
  725 2.97117 11.0173 32.6658
  726 2.79955 11.0416 -32.7201
  727 -73.6786 2.00026 -8.46924
  728 -73.5423 1.99654 8.45714
  729 64.4228 19.1652 8.99829
  730 64.3114 19.2075 -8.99630
  731 539.174 -15.9336 -26.4217
  732 510.304 -43.6417 -16.2287
  733 -8.06709 -16.5468 25.8593
  734 -8.05893 -16.6290 -25.8306
  735 202.116 3.90912 -129.247
  736 197.031 8.03164 130.305
  737 124.408 23.6679 -22.8834
  738 124.083 23.8963 23.0952
  739 11.4687 -17.3565 27.8671
  740 -0.703330 -54.9521 -14.6701
  741 255.468 12.9622 -31.4383
  742 255.572 12.8985 31.5839
  743 0.622424 -107.477 13.4450
  744 154.139 19.9493 -10.1886
  745 154.091 19.9717 10.2479
  746 509.846 -0.907745 -9.09619
  747 509.950 -0.966015 8.99481
  748 10.5623 -138.404 5.76932
  749 235.406 16.2418 24.1035
  750 235.355 16.2744 -24.0123
  751 65.7422 23.0684 -3.31663
  752 66.0813 22.8460 3.27550
  753 -91.7718 0.601485 -8.10087
  754 -91.6712 0.600815 8.08627
  755 259.605 3.08309 -5.73356
  756 259.645 3.07950 5.73797
  757 162.750 22.3360 -17.0104
  758 162.680 22.3790 17.1211
  759 3.75057 13.9322 24.8197
  760 3.61761 13.9691 -24.8624
  761 511.804 -37.4271 9.91176
  762 -75.7370 1.48670 6.38818
  763 -75.8767 1.48860 -6.39541
  764 1080.60 222.524 -158.034
  765 -25.9519 2.63184 6.44848
  766 -26.0678 2.63530 -6.45534
  767 433.897 0.288369 16.9570
  768 433.752 0.356434 -16.9886
  769 805.985 48.7743 -0.509137
  770 488.609 -1.79431 -6.88655
  771 488.765 -1.80518 6.87711
  772 316.238 3.27347 10.1497
  773 316.164 3.28399 -10.1442
  774 471.650 -48.7430 139.786
  775 208.146 13.7684 -9.93392
  776 208.161 13.7616 9.96105
  777 4.99036 -78.3276 14.9546
  778 540.159 -64.8625 49.1493
  779 328.718 -0.361156 1.70690
  780 328.641 -0.359838 -1.70595
  781 427.488 -0.582338 0.903558
  782 427.354 -0.581498 -0.902827
  783 -1.84796 -43.0150 -25.2407
  784 2.80438 -71.8890 23.5263
  785 197.999 21.2768 33.4747
  786 198.024 21.2524 -33.2428
  787 1067.06 9.47092 9.78915
  788 336.314 2.00701 -40.6957
  789 336.534 1.86429 40.8058
  790 -67.3175 2.22959 17.5954
  791 -67.4303 2.23509 -17.6253
  792 15.0399 -55.3543 2.24070
  793 9.63056 -128.194 -12.4052
  794 759.729 99.5999 -19.0739
  795 -0.646227 -54.8288 13.2495
  796 17.4270 11.9939 28.7378
  797 17.3664 11.9841 -28.8981
  798 105.775 19.4159 0.600106
  799 105.699 19.4489 -0.578282
  800 507.077 -23.4568 -10.0773
  801 508.273 -23.1175 8.54518
  802 589.658 106.088 -233.532
  803 -77.6886 0.619468 -2.68869
  804 -77.5466 0.618925 2.68508
  805 -38.4123 -0.133710 9.85029
  806 -38.4268 -0.135536 -9.86241
  807 38.9084 5.16820 6.06188
  808 38.1006 5.13301 -6.16253
  809 386.583 -2.98823 36.5228
  810 386.306 -2.69357 -36.4210
  811 199.420 3.88169 -2.01997
  812 199.427 3.88105 2.02242
  813 620.996 -4.82231 48.5965
  814 69.6790 9.66977 -4.33493
  815 69.7519 9.65913 4.33556
  816 63.7135 10.7410 -14.1025
  817 63.1500 11.0170 14.2286
  818 0.101673 -41.6528 -33.3096
  819 865.501 148.340 134.170
  820 -123.853 0.0720539 -3.37413
  821 -123.692 0.0718972 3.36958
  822 -0.179385 -130.224 12.4299
  823 10.2402 -17.1994 -28.2730
  824 -19.1916 -1.14957 7.38390
  825 -19.1855 -1.15274 -7.38714
  826 699.065 47.0686 -29.3955
  827 186.471 17.0862 -12.5520
  828 186.464 17.0892 12.6077
  829 480.364 -7.74121 -18.4943
  830 480.836 -7.79991 18.2711
  831 -118.860 0.836517 4.58798
  832 -119.012 0.837735 -4.59493
  833 -0.884402 -0.913492 -0.765346
  834 -0.886198 -0.915109 0.768391
  835 0.355510 -133.093 -12.0563
  836 0.606827 -138.731 -10.4659
  837 -129.198 1.16285 0.614362
  838 -129.370 1.16318 -0.614995
  839 76.2550 -12.6876 -87.4344
  840 299.828 2.28548 -3.12632
  841 299.890 2.28413 3.12814
  842 -4.79255 1.78530 0.801643
  843 -4.89611 1.78569 -0.802299
  844 441.227 0.378830 -11.1794
  845 441.363 0.356321 11.1678
  846 -50.4072 0.342322 9.34106
  847 -50.4364 0.342313 -9.35387
  848 271.545 11.6791 -191.453
  849 464.254 -38.9876 41.0116
  850 362.985 0.491507 -3.68181
  851 363.081 0.489472 3.68372
  852 460.269 -42.3060 -45.4957
  853 147.344 14.9396 -4.95991
  854 147.310 14.9486 4.98594
  855 201.535 11.6895 -7.75630
  856 201.544 11.6856 7.77406
  857 538.726 -11.3150 20.2316
  858 35.7864 19.9511 19.4786
  859 35.6275 20.0234 -19.5456
  860 38.6558 1.53860 1.25755
  861 38.5753 1.53910 -1.25871
  862 256.125 1.87620 2.71247
  863 256.087 1.87741 -2.71063
  864 659.480 -53.0143 81.8284
  865 415.121 1.35340 -14.7853
  866 415.254 1.31167 14.7697
  867 10.3998 5.67321 5.77609
  868 10.3009 5.67967 -5.78158
  869 415.127 -1.28995 4.23831
  870 415.000 -1.28695 -4.23619
  871 -72.6619 0.129528 -1.94661
  872 -72.5214 0.130013 1.94531
  873 -0.344934 -42.0547 11.8502
  874 -0.459278 -42.7113 -11.9369
  875 505.594 -5.99624 49.7485
  876 -28.2481 7.78498 26.3022
  877 -28.3654 7.80227 -26.3518
  878 -0.158703 -69.0603 -13.0205
  879 201.364 5.99940 -4.10864
  880 201.371 5.99852 4.11354
  881 367.470 -18.1381 -65.3163
  882 370.187 -20.0440 65.9348
  883 -14.9711 -5.01031 -36.1526
  884 -14.8974 -5.00724 36.0680
  885 22.7748 17.3786 22.3884
  886 22.6361 17.4267 -22.4266
  887 1.71649 -155.134 8.18168
  888 7.27092 13.9572 29.5866
  889 7.12186 13.9913 -29.6416
  890 339.800 -6.21765 -58.1742
  891 339.030 -6.44462 58.6295
  892 586.266 35.2453 56.3562
  893 137.564 13.8174 3.02137
  894 137.601 13.8089 -3.00484
  895 425.268 1.66467 -11.0127
  896 425.397 1.64800 11.0081
  897 -16.2978 -6.94930 31.9661
  898 -16.3333 -6.97905 -32.0297
  899 1.54720 -158.392 -4.68147
  900 -25.0944 -1.47274 31.2400
  901 -25.1509 -1.47914 -31.2924
  902 19.5904 15.3870 -17.3233
  903 19.7107 15.3519 17.3000
  904 -1.30358 -10.6654 5.88312
  905 -1.31862 -10.6553 -5.89215
  906 39.8495 17.3565 -15.0264
  907 39.9735 17.3130 15.0105
  908 8.88379 -11.0903 31.9201
  909 7.81529 -10.3032 -33.7387
  910 415.792 -12.4194 37.4329
  911 414.837 -11.8889 -37.5890
  912 -132.169 0.278151 -0.903232
  913 -131.996 0.278184 0.902203
  914 -11.8454 -1.04935 5.57769
  915 -11.8355 -1.05133 -5.57658
  916 0.547902 -97.9969 -11.8080
  917 -12.5569 -5.34477 -15.8026
  918 -12.5505 -5.33057 15.8018
  919 -51.5201 4.49689 22.6104
  920 -51.6278 4.50566 -22.6516
  921 133.073 24.5293 -10.8229
  922 132.956 24.6102 10.9079
  923 560.748 43.1377 -7.37741
  924 -3.49931 12.2771 22.5349
  925 -3.62496 12.3063 -22.5715
  926 208.307 13.6666 -61.8937
  927 208.281 13.8550 62.5128
  928 -21.3456 8.40982 18.0957
  929 -21.4660 8.42913 -18.1243
  930 663.755 -26.3917 -3.55112
  931 417.282 16.6336 24.5667
  932 491.060 -5.27214 -44.9786
  933 363.837 3.62965 -24.7330
  934 363.990 3.53153 24.7452
  935 -34.6993 4.79656 -8.51848
  936 -34.5788 4.78918 8.50727
  937 -84.2605 1.46841 11.1076
  938 -84.3898 1.47211 -11.1263
  939 -5.14357 -16.7444 -18.3173
  940 -5.10523 -16.7554 18.3480
  941 132.336 7.20480 1.81261
  942 132.368 7.20186 -1.80831
  943 -39.1505 4.31961 28.2865
  944 -39.2432 4.32158 -28.3397
  945 432.549 -0.965104 5.49326
  946 432.413 -0.961590 -5.49113
  947 -3.16248 -36.5362 27.4759
  948 19.5811 13.9708 -14.7324
  949 19.6939 13.9430 14.7150
  950 26.1933 9.37325 9.31193
  951 26.0950 9.38806 -9.32018
  952 79.0277 6.05888 -1.63699
  953 79.0888 6.05466 1.63688
  954 810.570 112.519 -32.7571
  955 -3.29520 -0.888906 -2.23609
  956 -3.30223 -0.888746 2.24007
  957 29.9677 9.46103 -18.0350
  958 30.4634 9.24272 17.9314
  959 295.377 10.4968 -26.5230
  960 295.494 10.4190 26.5860
  961 41.2918 11.9300 -8.63979
  962 41.3864 11.9113 8.63417
  963 81.8293 -3.62292 114.255
  964 547.444 -4.18397 -5.02710
  965 546.815 -4.03170 4.55652
  966 100.668 -1.22554 100.822
  967 106.481 3.38235 -0.770344
  968 106.437 3.38355 0.770898
  969 270.333 -3.90077 -165.832
  970 204.183 2.14197 1.44047
  971 204.174 2.14192 -1.43954
  972 26.9239 -22.9569 2.34666
  973 29.7469 -18.7299 -0.109658
  974 483.521 -0.769672 1.87994
  975 483.354 -0.768696 -1.87841
  976 -39.5943 0.202308 23.0680
  977 -39.6439 0.199323 -23.1019
  978 868.941 110.010 54.8496
  979 -3.40805 -26.8406 -35.8768
  980 4.88736 -128.062 18.8643
  981 -0.424594 -42.8744 32.9736
  982 500.532 -0.760634 -7.02567
  983 500.678 -0.776538 7.00493
  984 -6.60086 -12.1204 15.8537
  985 -6.62021 -12.1232 -15.8401
  986 633.530 67.6960 -28.1455
  987 1081.31 8.50568 -6.52245
  988 -1.64242 -2.52336 -2.43368
  989 -1.64052 -2.52868 2.43719
  990 294.657 2.06014 -5.85229
  991 294.717 2.05681 5.85576
  992 -3.46698 -25.7426 36.0278
  993 407.847 0.769175 21.8817
  994 407.690 0.870557 -21.9001
  995 536.377 -34.7137 -18.0964
  996 -18.5955 -3.82074 17.8194
  997 -18.6051 -3.83583 -17.8308
  998 9.53503 -32.6183 24.2179
  999 -0.764660 -65.2259 25.8982
  1000 -0.0814644 -68.5470 13.0120
  1001 558.979 35.3081 -3.40323
  1002 633.528 69.7146 14.2698
  1003 451.250 -49.9059 -78.5391
  1004 6.86005 -61.9617 19.3178
  1005 8.59654 -88.3387 2.34060
  1006 128.692 1.95293 0.195574
  1007 128.660 1.95327 -0.195616
  1008 -4.97989 -5.68281 -7.61790
  1009 -4.97510 -5.68330 7.62339
  1010 4.67713 -50.9437 -26.6428
  1011 362.369 -0.650181 -1.35314
  1012 362.466 -0.651489 1.35393
  1013 75.3726 3.27817 -39.7395
  1014 72.1790 3.44531 39.3647
  1015 -4.64403 11.4673 30.1393
  1016 -4.78638 11.4976 -30.2034
  1017 -40.1668 6.40828 -18.6191
  1018 -40.0454 6.39439 18.5888
  1019 280.265 4.44432 -59.9028
  1020 280.382 4.70853 60.5176
  1021 202.992 17.5609 -42.8991
  1022 202.943 17.5709 43.2606
  1023 219.366 14.4321 -15.0622
  1024 219.391 14.4157 15.1044
  1025 563.889 -13.3451 -56.7833
  1026 -13.2268 7.21641 33.5151
  1027 -13.3531 7.22458 -33.5979
  1028 398.490 -1.45329 30.0852
  1029 398.260 -1.23252 -30.0694
  1030 -2.08641 -19.7559 37.3745
  1031 -31.9317 -1.00916 17.1330
  1032 -31.9531 -1.01475 -17.1537
  1033 363.664 2.17489 -30.0073
  1034 363.852 2.03487 30.0354
  1035 458.735 11.8899 -41.0141
  1036 -0.396848 -64.7477 -27.1500
  1037 -5.12190 -25.4339 32.5114
  1038 -5.34397 -25.7590 -32.2477
  1039 258.386 13.7445 -22.3035
  1040 258.458 13.6981 22.3704
  1041 323.592 4.62166 12.5138
  1042 323.511 4.63851 -12.5073
  1043 535.282 -33.9145 15.5251
  1044 30.8371 1.87202 -0.330859
  1045 30.9215 1.87154 0.330493
  1046 456.007 -55.7720 83.7301
  1047 1.80616 1.17192 1.84650
  1048 1.70595 1.17235 -1.84834
  1049 101.668 24.8341 -2.32542
  1050 101.521 24.9221 2.36836
  1051 40.2251 19.6519 16.5503
  1052 40.0892 19.7045 -16.5737
  1053 5.25375 -77.4386 -15.6105
  1054 135.255 3.83079 1.01544
  1055 135.284 3.82997 -1.01322
  1056 408.655 12.9627 10.1903
  1057 366.177 1.58197 11.4983
  1058 366.076 1.59856 -11.4963
  1059 -1.69358 -20.5820 -37.4438
  1060 549.683 -7.14997 -9.95401
  1061 1.04060 -0.909496 36.6831
  1062 1.46574 -0.622201 -36.4887
  1063 497.237 -1.16493 -3.89664
  1064 497.406 -1.16870 3.89414
  1065 530.329 -2.13964 -6.87620
  1066 530.315 -2.20347 6.71782
  1067 -0.398370 -103.734 9.74199
  1068 314.930 6.62934 -16.4997
  1069 315.012 6.60018 16.5111
  1070 381.293 2.32163 13.2969
  1071 381.182 2.34381 -13.2976
  1072 10.2639 9.76818 32.4507
  1073 10.2058 9.76735 -32.5002
  1074 825.296 53.2312 10.0166
  1075 -9.80166 -3.97059 38.2727
  1076 -9.97358 -3.87468 -38.3776
  1077 122.036 22.5977 -3.68895
  1078 121.959 22.6399 3.72955
  1079 -62.2304 0.875960 -3.02365
  1080 -62.0963 0.875499 3.02037
  1081 198.666 12.4771 -71.0769
  1082 198.365 13.0132 71.8539
  1083 59.0243 22.2138 11.9654
  1084 58.8773 22.2801 -11.9776
  1085 135.836 17.1080 -53.5760
  1086 135.141 17.7526 53.9762
  1087 -3.38855 -34.3356 -26.7922
  1088 474.647 7.39655 54.7516
  1089 328.902 9.07284 213.815
  1090 55.5168 23.0696 12.3099
  1091 55.3468 23.1555 -12.3369
  1092 200.787 9.21462 -6.03552
  1093 200.795 9.21094 6.04737
  1094 712.827 10.2279 8.25412
  1095 48.2991 13.2788 6.15020
  1096 47.7016 13.4162 -6.34359
  1097 -21.0219 -4.51740 23.6276
  1098 -21.0427 -4.53956 -23.6546
  1099 -0.687957 -15.9049 6.40843
  1100 -0.715856 -15.8961 -6.43457
  1101 469.423 -1.30049 17.4788
  1102 469.224 -1.13773 -17.5790
  1103 1.08799 -32.0838 34.9195
  1104 -31.3288 2.24149 -31.0455
  1105 -31.2522 2.24649 30.9917
  1106 0.149800 -124.738 -12.1727
  1107 -6.74286 -9.62733 38.2211
  1108 -6.71953 -9.40682 -38.2618
  1109 447.997 -0.216824 -7.36011
  1110 448.140 -0.224513 7.35920
  1111 463.722 -4.41965 21.2128
  1112 463.383 -4.15389 -21.3087
  1113 83.9021 19.6457 -20.2217
  1114 83.2705 19.9876 20.3595
  1115 -1.05158 -64.2764 -22.2684
  1116 608.670 -48.3100 -127.163
  1117 788.158 110.124 15.4914
  1118 8.65062 -92.7703 0.910624
  1119 30.5882 16.9846 -22.6222
  1120 30.7669 16.8970 22.4824
  1121 78.9366 24.7483 3.72469
  1122 78.7428 24.8613 -3.71844
  1123 163.944 8.34803 3.05353
  1124 163.958 8.34753 -3.04548
  1125 -10.0144 -14.2655 30.5185
  1126 -10.0017 -14.4072 -30.5713
  1127 -27.0322 9.04041 24.0545
  1128 -27.1527 9.06060 -24.0962
  1129 -8.25159 11.6387 27.8078
  1130 -8.38381 11.6671 -27.8617
  1131 444.560 -22.8438 -37.0840
  1132 447.310 -22.9772 36.8440
  1133 0.519189 -73.0690 -25.6400
  1134 240.637 0.841540 -88.1004
  1135 240.951 1.57323 89.4580
  1136 78.9904 22.1654 -5.12989
  1137 79.1018 22.1118 5.14075
  1138 235.957 133.484 238.111
  1139 62.6012 17.5555 8.66881
  1140 62.5005 17.5886 -8.66835
  1141 603.041 -62.0728 -34.8362
  1142 231.261 5.00198 4.72485
  1143 231.236 5.00528 -4.71962
  1144 -10.1970 -9.06291 18.8056
  1145 -10.2057 -9.08595 -18.8019
  1146 -12.1149 -10.8258 24.2466
  1147 -12.1172 -10.8706 -24.2527
  1148 399.277 -37.9831 -122.039
  1149 406.862 -42.0066 122.900
  1150 75.2772 1.83926 1.26837
  1151 75.3380 1.83876 -1.26784
  1152 252.984 11.3471 -49.1579
  1153 252.960 11.2164 49.6099
  1154 542.797 -68.7366 94.7592
  1155 479.757 -1.36069 1.07870
  1156 479.593 -1.35962 -1.07770
  1157 -41.0212 6.73507 21.5357
  1158 -41.1406 6.74911 -21.5723
  1159 -71.3758 2.10391 -11.0818
  1160 -71.2423 2.09922 11.0668
  1161 127.380 11.3511 146.560
  1162 395.178 25.6680 -20.7493
  1163 231.423 15.3712 -25.0773
  1164 231.477 15.3402 25.1968
  1165 699.556 -9.92638 137.756
  1166 235.297 15.0272 -36.3598
  1167 235.358 14.9671 36.5665
  1168 61.8033 6.61688 -2.85906
  1169 61.8749 6.61138 2.85795
  1170 21.1543 -67.7917 17.0626
  1171 21.3581 -65.6995 -22.6872
  1172 317.498 -19.8558 -123.312
  1173 321.673 -18.4240 123.143
  1174 126.451 21.6736 -38.3962
  1175 125.917 22.0816 38.7218
  1176 553.836 -35.3888 -35.9086
  1177 -19.3796 -1.31806 35.0903
  1178 -19.4553 -1.31915 -35.1557
  1179 0.0246572 -28.5762 -35.9057
  1180 144.576 7.84728 -93.5439
  1181 144.874 8.21243 95.0195
  1182 -0.351346 -28.1263 7.12349
  1183 -0.300749 -28.1959 -7.21299
  1184 -130.018 1.05596 -3.21053
  1185 -129.856 1.05516 3.20590
  1186 437.260 -0.921950 -2.12764
  1187 437.400 -0.923580 2.12912
  1188 274.051 8.71518 -14.6134
  1189 274.114 8.68892 14.6358
  1190 -8.93702 0.546639 38.0867
  1191 -8.96443 0.707409 -38.1624
  1192 -0.00125704 -111.845 -10.7949
  1193 -111.065 0.237141 5.33868
  1194 -111.197 0.237776 -5.34807
  1195 90.2200 2.99741 -66.9783
  1196 89.5814 3.55565 68.9572
  1197 513.573 -31.2337 -4.35654
  1198 150.400 12.2317 -84.2318
  1199 150.484 12.5643 84.9621
  1200 -62.3280 0.346729 8.46536
  1201 -62.3725 0.346261 -8.47818
  1202 1.74346 -95.6329 -17.4120
  1203 -14.3692 3.38158 -3.80359
  1204 -14.2598 3.37893 3.79958
  1205 81.0303 18.4034 5.64472
  1206 80.9357 18.4388 -5.63507
  1207 290.430 0.280758 -1.85328
  1208 290.486 0.279696 1.85433
  1209 389.099 0.778329 8.73390
  1210 388.987 0.788587 -8.73258
  1211 22.8269 -0.842733 18.7651
  1212 22.4909 -1.22248 -19.1770
  1213 4.00527 -54.4045 26.7574
  1214 699.388 99.4862 16.7204
  1215 -21.4785 -1.64084 13.5254
  1216 -21.4839 -1.64820 -13.5344
  1217 3.20185 -50.9678 -28.2005
  1218 -2.00540 -32.4972 19.7422
  1219 -1.91106 -32.1707 -20.4474
  1220 551.640 -6.11670 8.78931
  1221 0.471988 -127.685 10.9996
  1222 4.55957 -37.0747 -31.4943
  1223 70.1329 1.23297 0.553535
  1224 70.0697 1.23309 -0.553930
  1225 -5.13077 -22.6089 35.5872
  1226 -57.5421 3.20640 -9.18881
  1227 -57.4120 3.20165 9.17714
  1228 1101.76 18.4618 32.0895
  1229 -30.7387 3.90919 31.2113
  1230 -30.8293 3.90742 -31.2706
  1231 269.788 10.1434 -44.4004
  1232 269.981 9.97495 44.6429
  1233 18.4259 -23.2658 -11.1930
  1234 256.345 11.7839 -18.5097
  1235 256.407 11.7484 18.5563
  1236 11.0714 -73.3181 -1.59906
  1237 -5.15400 -22.6692 -35.5485
  1238 -38.5727 1.30046 5.23642
  1239 -38.6946 1.30213 -5.24192
  1240 -18.3358 1.87755 -35.7030
  1241 -18.2431 1.88527 35.6407
  1242 549.491 44.7426 39.4379
  1243 311.060 2.83770 -46.5838
  1244 311.389 2.77436 46.6974
  1245 -135.242 0.251170 -1.07561
  1246 -135.069 0.251083 1.07403
  1247 279.675 5.41185 -9.84911
  1248 279.729 5.40304 9.85688
  1249 -138.037 -2.49487 -0.391386
  1250 -138.214 -2.49646 0.391514
  1251 416.191 -29.3120 -53.4097
  1252 -64.3658 1.13856 17.7001
  1253 -64.4498 1.13884 -17.7311
  1254 420.206 -30.9464 52.9306
  1255 284.858 9.04372 -19.7303
  1256 284.935 9.00081 19.7610
  1257 34.2772 -61.2169 -66.2101
  1258 0.635688 -88.4709 -21.8843
  1259 -1.65148 -37.0309 33.3230
  1260 874.962 163.397 -136.594
  1261 -0.183071 -83.4134 21.6078
  1262 915.676 86.8008 -60.5341
  1263 -0.572999 -154.821 -10.0796
  1264 48.7169 3.70408 -0.662009
  1265 48.7926 3.70178 0.661162
  1266 -0.376703 -36.0840 7.46051
  1267 -0.300431 -36.2795 -7.44343
  1268 161.081 2.77646 0.526895
  1269 161.095 2.77616 -0.526172
  1270 559.414 -40.6808 33.8729
  1271 15.3840 3.60866 -4.40372
  1272 15.4784 3.60538 4.39990
  1273 3.22626 -166.240 3.75855
  1274 2.05408 -177.480 -3.75687
  1275 514.388 -61.6178 -58.2987
  1276 -1.36559 -46.3469 21.7292
  1277 545.192 36.7698 -50.8708
  1278 -1.59756 -61.0633 21.3075
  1279 1.11109 -165.442 -7.33106
  1280 261.533 6.07585 -11.0146
  1281 261.579 6.05924 11.0289
  1282 -0.211777 -91.4862 9.62528
  1283 -0.209274 -75.4055 -21.6036
  1284 1190.63 218.846 186.615
  1285 481.858 -0.00541320 0.807998
  1286 481.692 -0.00519866 -0.807387
  1287 14.2881 2.39669 29.0823
  1288 13.8591 2.91947 -29.2340
  1289 -5.99535 7.59248 35.3296
  1290 -6.18758 7.59677 -35.4299
  1291 521.310 -9.23391 -31.9620
  1292 480.743 -20.4782 -21.8657
  1293 480.340 -23.2142 22.1738
  1294 75.7760 7.56311 2.70474
  1295 75.7098 7.56977 -2.70413
  1296 -76.8783 2.03199 -13.5222
  1297 -76.7560 2.02749 13.4985
  1298 535.675 -69.8907 -81.4937
  1299 -3.97514 -9.67913 9.92139
  1300 -3.99109 -9.67347 -9.91773
  1301 566.577 -22.1891 53.6359
  1302 -5.78322 -22.0341 26.4683
  1303 -5.71787 -22.1183 -26.3481
  1304 -46.4390 2.98753 6.31362
  1305 -46.5648 2.99121 -6.32124
  1306 88.5049 12.2536 -36.2990
  1307 87.6284 12.7370 36.2589
  1308 137.773 2.64800 0.0118380
  1309 137.746 2.64842 -0.0114103
  1310 -52.6390 5.39642 21.4480
  1311 -52.7532 5.40674 -21.4846
  1312 453.058 0.574055 1.25544
  1313 452.909 0.574048 -1.25455
  1314 254.908 2.52814 164.102
  1315 372.277 -0.240614 3.10187
  1316 372.175 -0.239109 -3.10007
  1317 251.674 5.53854 -67.5045
  1318 251.677 5.26246 68.0488
  1319 2.51904 -95.1831 -11.5642
  1320 99.4033 23.9053 -17.0749
  1321 98.9727 24.1783 17.2200
  1322 -0.980107 -0.852131 -1.26508
  1323 -0.985029 -0.852306 1.26874
  1324 321.169 8.43310 25.1760
  1325 321.047 8.51738 -25.1414
  1326 162.194 11.8356 5.08735
  1327 162.213 11.8333 -5.07095
  1328 236.653 11.8355 -12.9677
  1329 236.690 11.8174 12.9968
  1330 307.068 0.562270 -3.12983
  1331 307.134 0.561019 3.13162
  1332 -9.71630 -4.67233 -11.1890
  1333 -9.71325 -4.66593 11.1933
  1334 -89.2460 -0.0787166 3.73364
  1335 -89.3933 -0.0783688 -3.73838
  1336 -16.3283 -7.38803 -27.0339
  1337 -16.3113 -7.34873 27.0009
  1338 -48.4760 0.436915 1.51823
  1339 -48.6032 0.436669 -1.51968
  1340 -139.824 1.22996 0.605999
  1341 -140.001 1.23043 -0.606617
  1342 574.201 -66.9217 109.833
  1343 428.695 -1.97105 -45.0153
</Section>

newXOutput 69

<Section columns = "stress_xx | stress_yy | stress_xy">
  1 502.619 -0.925752 0.538899
  2 502.797 -0.926470 -0.539172
  3 -153.435 0.678322 -2.11535
  4 0.243623 0.0553446 0.436089
  5 899.857 283.267 301.880
  6 1017.85 318.395 -291.073
  7 0.242427 0.0542705 -0.434497
  8 -153.246 0.678185 2.11417
  9 501.165 -0.887294 -1.67182
  10 501.614 -1.68420 -2.68109
  11 506.310 -1.68931 -0.749315
  12 506.908 -1.66680 -3.19955
  13 508.353 -1.65285 -1.05821
  14 518.835 -1.52985 -1.44134
  15 522.606 -2.14920 -4.29863
  16 526.809 -1.11941 -2.98591
  17 529.634 -0.105158 -5.75375
  18 550.830 -3.25078 -4.92220
  19 560.284 -2.60467 -6.28539
  20 570.919 -3.79728 -2.70087
  21 576.377 -4.91850 -1.83414
  22 573.736 -5.54688 6.64812
  23 556.265 -6.08158 14.4069
  24 514.742 -6.48031 31.3586
  25 446.176 4.16198 36.6747
  26 390.561 5.25447 33.8027
  27 312.253 9.79456 20.4476
  28 331.013 9.51213 2.19629
  29 281.747 27.8465 -12.8218
  30 372.757 13.0260 -37.3229
  31 421.802 3.49215 -30.4138
  32 505.373 -1.22338 -26.3799
  33 550.718 -7.37481 -17.3764
  34 573.117 -6.45086 -6.58603
  35 575.481 -4.77711 1.88238
  36 570.326 -3.75168 2.56359
  37 560.100 -2.61908 6.12117
  38 550.829 -3.28808 4.83096
  39 529.758 -0.125821 5.71342
  40 526.973 -1.12720 2.97210
  41 522.788 -2.15445 4.29568
  42 519.021 -1.53270 1.44032
  43 508.535 -1.65489 1.05856
  44 507.090 -1.66857 3.20196
  45 506.491 -1.69068 0.750206
  46 501.791 -1.68543 2.68310
  47 501.342 -0.888007 1.67306
  48 474.875 0.861794 -0.645767
  49 440.678 -0.160478 -1.40177
  50 397.784 -2.25010 -1.36368
  51 353.146 0.227015 -1.13411
  52 313.867 -0.206754 -0.894000
  53 271.689 1.12674 -1.05096
  54 229.910 3.33303 -0.599624
  55 186.386 2.88560 -1.31349
  56 150.183 1.77128 -1.86587
  57 102.532 0.846713 -1.96622
  58 54.0116 1.97030 -1.50607
  59 13.4354 1.66203 -1.45696
  60 -37.2958 0.874190 -1.31650
  61 -75.0238 -0.743033 -3.33112
  62 -111.591 -2.63311 -1.50959
  63 -148.747 0.257868 1.06287
  64 -156.875 2.68157 -0.337596
  65 -157.544 1.15683 0.540787
  66 -152.353 0.547121 -0.104367
  67 -154.334 1.71005 -1.82772
  68 -152.042 2.09495 -0.0462019
  69 -143.951 0.613931 -2.83715
  70 -146.042 1.29765 -3.07110
  71 -142.573 1.22187 -1.66622
  72 -132.131 0.745716 -2.57389
  73 -127.590 1.39475 -4.34246
  74 -119.986 1.57672 -3.52440
  75 -106.370 0.798221 -6.24759
  76 -98.7689 0.249000 -5.21511
  77 -84.8870 0.356450 -6.06019
  78 -72.9832 0.294961 -6.75420
  79 -62.5293 0.107636 -5.33282
  80 -47.9275 0.321653 -5.38493
  81 -35.3050 -0.118932 -5.77938
  82 -23.0832 -0.618300 -5.10118
  83 -13.3726 -0.544143 -3.92436
  84 -6.60299 -0.965823 -3.29116
  85 -1.15086 -0.559408 -1.18991
  86 0.0403520 -0.630207 -0.434800
  87 -0.338487 -0.359169 -0.0992194
  88 -0.876996 -0.944530 -1.04458
  89 -0.852848 -5.59436 -2.86240
  90 -0.719729 -12.4772 -4.05689
  91 -0.366230 -21.1944 -5.90190
  92 -0.182919 -32.5079 -5.08450
  93 -0.136061 -42.8584 -6.39363
  94 -0.773091 -55.4198 -7.19279
  95 -0.317536 -70.9778 -7.23590
  96 0.145540 -86.6404 -6.91433
  97 0.336449 -103.390 -6.80785
  98 0.526730 -120.555 -6.67051
  99 0.00309210 -132.975 -9.00798
  100 0.864833 -150.835 -8.04316
  101 1.08357 -171.683 -6.31871
  102 -0.144121 -180.374 -8.37324
  103 1.53424 -195.029 -7.68229
  104 3.86782 -214.422 -3.16606
  105 7.59785 -218.390 -5.04572
  106 5.61149 -195.504 7.38202
  107 8.62437 -140.149 26.2687
  108 39.9069 -64.7528 71.2166
  109 121.634 212.877 225.144
  110 1378.36 76.9051 138.997
  111 1187.00 21.9283 50.0700
  112 1148.80 7.49044 11.6652
  113 1140.38 1.95577 -1.82288
  114 1148.39 11.8747 -26.3665
  115 1186.03 40.1288 -59.7980
  116 1343.51 150.405 -176.868
  117 294.712 167.262 -273.947
  118 67.9978 -64.5789 -85.1267
  119 20.2052 -153.697 -32.8747
  120 5.70123 -184.736 -7.77162
  121 6.17089 -209.845 2.15939
  122 1.71972 -205.793 2.19065
  123 0.566677 -190.106 6.38662
  124 0.645973 -179.446 5.02520
  125 0.945391 -162.099 9.02563
  126 -0.0452361 -152.279 8.88060
  127 0.373200 -137.723 6.37234
  128 0.748720 -119.142 8.19044
  129 0.157987 -105.836 6.48536
  130 0.214436 -86.7073 8.20126
  131 -0.866620 -71.8449 7.06089
  132 -0.592727 -55.4625 6.96399
  133 -0.0912778 -42.6149 6.40813
  134 -0.240380 -32.3179 5.09164
  135 -0.356504 -21.1320 5.84349
  136 -0.708976 -12.4691 4.03654
  137 -0.848261 -5.60296 2.86039
  138 -0.875773 -0.953917 1.04670
  139 -0.338421 -0.363176 0.101922
  140 0.0354575 -0.630773 0.437216
  141 -1.15996 -0.559031 1.19291
  142 -6.61627 -0.964779 3.29396
  143 -13.3899 -0.542351 3.92503
  144 -23.0960 -0.616094 5.09870
  145 -35.3061 -0.117107 5.77294
  146 -47.9149 0.322015 5.37743
  147 -62.4977 0.108581 5.32488
  148 -72.9340 0.296124 6.74486
  149 -84.8140 0.356448 6.05016
  150 -98.6736 0.248971 5.20549
  151 -106.259 0.797687 6.23786
  152 -119.854 1.57570 3.51659
  153 -127.445 1.39359 4.33581
  154 -131.973 0.744941 2.56941
  155 -142.404 1.22100 1.66313
  156 -145.867 1.29695 3.06776
  157 -143.774 0.613705 2.83432
  158 -151.858 2.09387 0.0452104
  159 -154.146 1.70921 1.82611
  160 -152.166 0.547001 0.103930
  161 -157.353 1.15634 -0.540698
  162 -156.684 2.68028 0.337255
  163 -148.561 0.257958 -1.06244
  164 -111.425 -2.63126 1.50868
  165 -74.8791 -0.742062 3.32928
  166 -37.1719 0.874305 1.31563
  167 13.5315 1.66168 1.45607
  168 54.0856 1.96972 1.50520
  169 102.580 0.846791 1.96513
  170 150.205 1.77098 1.86490
  171 186.388 2.88491 1.31284
  172 229.888 3.33220 0.599335
  173 271.644 1.12714 1.05040
  174 313.798 -0.205682 0.893489
  175 353.055 0.227666 1.13344
  176 397.667 -2.24816 1.36295
  177 440.537 -0.159993 1.40099
  178 474.714 0.861534 0.645416
  179 137.610 22.9526 -8.16404
  180 137.521 23.0033 8.23057
  181 -1.14350 4.68499 36.4484
  182 -1.29531 4.64464 -36.4770
  183 308.448 -3.95726 -71.6843
  184 308.185 -4.52668 72.3971
  185 63.4231 16.0857 -6.56736
  186 62.6771 16.3316 6.57323
  187 48.3436 7.05771 -4.62293
  188 48.4263 7.04982 4.62002
  189 290.554 4.29639 -11.0542
  190 290.615 4.28251 11.0644
  191 -2.13654 11.4223 19.0641
  192 -2.25946 11.4486 -19.0930
  193 337.307 7.44768 -27.4022
  194 337.462 7.34483 27.4462
  195 -12.7593 -11.0229 29.8781
  196 -12.7589 -11.0909 -29.9211
  197 3.59886 -25.4645 -34.5225
  198 107.756 9.72512 -67.8356
  199 4.28924 -27.3030 33.6308
  200 106.071 10.5345 68.8029
  201 476.378 -61.0012 -103.266
  202 492.369 -63.3832 99.3363
  203 174.321 4.57106 -2.42424
  204 174.312 4.57106 2.42763
  205 -22.9687 1.45599 -3.49599
  206 -22.8525 1.45508 3.49260
  207 -36.2242 5.88292 28.1300
  208 -36.3325 5.89292 -28.1849
  209 175.348 14.7419 -6.69300
  210 175.336 14.7457 6.71644
  211 55.2364 22.5673 11.2465
  212 55.0174 22.6987 -11.3084
  213 -45.2797 4.92494 -11.0513
  214 -45.1521 4.91685 11.0362
  215 382.843 -0.402825 5.10781
  216 382.736 -0.399040 -5.10541
  217 13.1127 -47.5164 12.6902
  218 14.2416 -42.6978 -10.8327
  219 -3.36805 -31.3396 33.4919
  220 -3.46655 -32.6245 -32.4635
  221 162.693 23.0762 -30.8344
  222 162.526 23.1943 31.0983
  223 -33.5044 0.0586202 28.8783
  224 -33.5659 0.0527426 -28.9250
  225 409.496 1.39129 -14.6754
  226 409.622 1.36176 14.6692
  227 441.898 -7.23660 -29.2741
  228 442.257 -7.65711 29.1946
  229 709.066 52.5377 0.842416
  230 650.748 74.1817 30.6276
  231 637.696 -1.02564 -49.4015
  232 81.9143 16.8482 5.34071
  233 81.8284 16.8766 -5.33414
  234 7.80145 14.5675 27.2597
  235 7.65550 14.6096 -27.3108
  236 493.777 -29.7597 -21.3543
  237 490.971 -30.1037 22.9849
  238 274.863 1.16722 -4.16106
  239 274.910 1.16455 4.16397
  240 -58.4755 4.20296 18.5271
  241 -58.5972 4.21228 -18.5587
  242 -8.29143 -8.14757 -13.5945
  243 -8.28261 -8.14087 13.6012
  244 -63.3379 1.30209 5.40732
  245 -63.4747 1.30401 -5.41381
  246 227.930 15.7111 -19.3311
  247 227.963 15.6879 19.3970
  248 288.853 7.83906 -41.4142
  249 289.054 7.71333 41.5857
  250 73.1994 3.57748 0.189374
  251 73.2638 3.57575 -0.189460
  252 168.674 8.80313 -142.172
  253 198.840 13.0046 154.126
  254 24.1467 11.4033 25.3032
  255 24.0435 11.6288 -25.4305
  256 667.250 -45.0026 -20.4648
  257 61.7707 21.8802 9.81171
  258 61.6418 21.9369 -9.81528
  259 165.845 18.5747 -55.2945
  260 165.511 18.9998 55.8225
  261 748.715 109.109 2.06990
  262 444.052 -0.636153 19.8478
  263 443.874 -0.514357 -19.8927
  264 -3.94511 -24.6332 -21.1772
  265 -3.82193 -24.7280 21.2580
  266 -0.760784 -57.9950 -28.7252
  267 2.21490 -66.7635 -25.7462
  268 1.22627 -67.2176 27.2728
  269 -10.4961 -9.01850 37.9844
  270 -10.5462 -9.00957 -38.1483
  271 25.0089 -49.1662 -13.6557
  272 26.9543 -44.7939 17.9075
  273 -25.4610 -2.08203 18.5735
  274 -25.4790 -2.09213 -18.5930
  275 318.387 7.54757 -17.2906
  276 318.480 7.50875 17.3069
  277 554.129 -55.2290 -8.88369
  278 126.494 9.46208 1.03460
  279 126.533 9.45662 -1.02891
  280 -1.34865 -54.4891 27.5041
  281 15.3748 10.9336 11.7136
  282 15.2661 10.9533 -11.7268
  283 874.926 59.9341 -26.5403
  284 429.642 -0.498207 6.18907
  285 429.509 -0.491770 -6.18839
  286 293.538 -12.1521 -106.950
  287 295.957 -11.9328 108.462
  288 553.465 -52.4469 -0.0676017
  289 -51.4815 1.68067 22.7061
  290 -51.5587 1.68029 -22.7452
  291 539.931 -36.4082 172.765
  292 -22.0624 4.24367 34.1591
  293 -22.1590 4.23572 -34.2268
  294 95.1504 25.9979 -10.4993
  295 94.7767 26.2368 10.5880
  296 -91.4264 0.534363 0.902913
  297 -91.5802 0.534169 -0.903997
  298 455.977 18.7184 -233.513
  299 -87.3242 1.69494 -9.83892
  300 -87.1849 1.69121 9.82328
  301 -1.79749 -10.2631 38.2529
  302 -0.384899 -9.92577 -37.7757
  303 204.931 19.8742 -27.7381
  304 204.926 19.8792 27.8938
  305 48.1178 4.44627 3.48999
  306 48.0383 4.44983 -3.49250
  307 212.469 6.81646 -6.21559
  308 212.482 6.81335 6.22387
  309 21.0348 -12.3792 17.8522
  310 19.1869 -15.2923 -18.1656
  311 206.266 2.36798 -1.66459
  312 206.275 2.36771 1.66602
  313 -72.5160 1.90517 16.5099
  314 -72.6181 1.90787 -16.5395
  315 53.0911 -1.45958 -16.5529
  316 51.5678 -1.54332 15.1650
  317 447.071 -1.02679 1.73641
  318 446.926 -1.02550 -1.73497
  319 969.520 54.4522 40.7002
  320 105.825 12.7283 1.10256
  321 105.768 12.7409 -1.09433
  322 -17.5789 4.48440 7.30939
  323 -17.6942 4.49099 -7.31829
  324 144.052 18.1412 -5.72225
  325 144.005 18.1595 5.75959
  326 18.5891 15.2686 28.0685
  327 18.4686 15.2987 -28.1539
  328 2.22630 -97.0058 18.6665
  329 -95.1352 -0.0177043 -2.15786
  330 -94.9802 -0.0174340 2.15539
  331 343.984 -0.217050 -3.35202
  332 344.070 -0.218932 3.35391
  333 362.101 1.29609 -8.88425
  334 362.198 1.28526 8.88716
  335 -89.2569 1.38284 -6.99539
  336 -89.1092 1.38058 6.98633
  337 2.90641 1.15133 0.648662
  338 2.80445 1.15153 -0.649580
  339 -2.01592 -40.6676 21.0728
  340 -1.59561 -42.3032 -21.0427
  341 409.954 -32.9929 -72.7855
  342 425.342 -39.5023 71.5322
  343 245.026 10.4932 -12.0964
  344 245.064 10.4788 12.1170
  345 110.333 25.0653 -6.81860
  346 110.138 25.1821 6.88879
  347 -34.3681 6.97678 15.9308
  348 -34.4919 6.99130 -15.9557
  349 751.819 23.9448 29.0385
  350 41.9231 -49.9029 -50.1677
  351 44.8282 -45.5497 52.2583
  352 -13.5995 11.6516 25.9584
  353 -13.7278 11.6780 -26.0061
  354 -20.3265 -3.86451 33.7880
  355 -20.3842 -3.87649 -33.8536
  356 853.469 148.102 -49.2946
  357 556.037 -5.47697 64.0629
  358 513.859 -12.6203 -13.8907
  359 513.516 -12.3250 13.1396
  360 363.747 -4.88809 -46.5444
  361 363.309 -5.21573 46.5798
  362 0.709133 -116.884 -14.8789
  363 469.048 0.399934 -11.0467
  364 469.191 0.366466 11.0219
  365 6.35521 -108.838 10.7469
  366 555.226 43.8499 -32.4925
  367 137.538 3.42716 1.23104
  368 137.509 3.42827 -1.23154
  369 365.256 1.60216 -34.5304
  370 365.485 1.44206 34.5882
  371 391.632 2.02336 -20.7396
  372 391.771 1.95215 20.7324
  373 -2.99566 3.77862 4.71080
  374 -3.10245 3.78253 -4.71584
  375 228.864 12.6572 -56.0502
  376 228.892 12.8074 56.5097
  377 460.505 -0.838665 2.83235
  378 460.352 -0.836739 -2.83062
  379 266.301 13.3165 -28.6641
  380 266.393 13.2493 28.7654
  381 305.255 3.38861 7.42809
  382 305.190 3.39414 -7.42343
  383 -14.4956 -2.57434 11.5375
  384 -14.4962 -2.58149 -11.5389
  385 -3.47233 -2.46050 -3.40855
  386 -3.47378 -2.46150 3.41367
  387 616.090 -72.0310 50.1319
  388 -7.82181 -19.0004 31.0819
  389 -7.76633 -19.1710 -31.0904
  390 104.954 5.52090 -0.895037
  391 105.003 5.51786 0.896122
  392 -3.04260 -15.3946 11.5971
  393 -3.07810 -15.3718 -11.5997
  394 42.3332 17.1593 12.4625
  395 42.2195 17.1957 -12.4733
  396 503.385 -2.84611 14.7069
  397 503.183 -2.67490 -14.9206
  398 -0.830231 -28.8216 36.7723
  399 -41.2228 -0.692460 17.4896
  400 -41.2582 -0.696542 -17.5143
  401 -0.990157 -30.5097 -36.3640
  402 471.509 -0.481841 7.04828
  403 471.357 -0.471988 -7.05327
  404 -2.56968 10.9976 32.9325
  405 -2.73703 11.0278 -33.0082
  406 351.762 3.91702 -14.0244
  407 351.860 3.89318 14.0284
  408 539.246 -22.9442 -9.14750
  409 540.539 -18.6710 6.63583
  410 -1.03247 -55.2852 -23.0140
  411 51.0445 19.3759 -6.91187
  412 51.4598 19.1828 6.84186
  413 547.361 35.3617 20.0192
  414 309.068 -12.6178 -146.887
  415 316.931 -18.2156 153.425
  416 21.2114 16.6118 20.3014
  417 21.0789 16.6538 -20.3324
  418 228.006 4.79337 -4.25579
  419 228.027 4.79188 4.25984
  420 221.644 49.4111 232.322
  421 94.3830 20.7163 -2.88385
  422 94.4834 20.6713 2.90292
  423 6.11069 -50.3069 23.5626
  424 -0.660019 -89.5787 -19.7564
  425 38.8395 20.6774 18.3006
  426 38.6877 20.7389 -18.3389
  427 48.3246 11.1735 -7.18057
  428 48.4143 11.1578 7.17664
  429 -14.2693 -0.219895 -37.6812
  430 -14.1740 -0.241323 37.6097
  431 112.012 22.5621 -24.8884
  432 111.529 22.8823 25.0976
  433 544.520 -16.4807 -48.7984
  434 16.6571 -3.57271 27.4391
  435 16.1382 -3.46006 -27.6379
  436 396.871 -17.2196 -51.3972
  437 398.439 -18.3711 51.3530
  438 -96.4930 0.716293 -9.79657
  439 -96.3625 0.713874 9.77955
  440 -0.00394317 -88.2626 17.8574
  441 -0.608377 -56.1956 20.5163
  442 -38.9785 2.72466 29.0081
  443 -39.0593 2.72231 -29.0594
  444 284.550 1.02056 -1.57399
  445 284.602 1.01949 1.57500
  446 -8.36038 -13.2181 21.2937
  447 -8.37658 -13.2508 -21.2745
  448 180.572 11.4790 -81.0116
  449 180.185 12.2476 81.8380
  450 1.50483 -105.630 -19.0910
  451 967.467 32.5206 0.387920
  452 2.85275 -122.777 -9.74977
  453 -112.399 -0.205488 -3.34528
  454 -112.236 -0.205470 3.34153
  455 -42.4908 6.29435 23.1355
  456 -42.6095 6.30765 -23.1781
  457 -51.6890 0.766194 17.4924
  458 -51.7416 0.765648 -17.5190
  459 196.716 18.9663 -19.4398
  460 196.710 18.9763 19.5341
  461 294.293 10.2188 -22.1455
  462 294.389 10.1612 22.1899
  463 -4.42936 -17.2858 38.1207
  464 -4.43642 -17.1717 -38.2842
  465 514.108 10.7141 -61.4183
  466 36.5000 -5.67037 -2.09780
  467 35.2224 -5.98323 2.75834
  468 8.50098 -107.947 -4.26567
  469 5.55933 -126.435 0.273016
  470 -15.2556 -6.75072 21.8943
  471 -15.2653 -6.77653 -21.9067
  472 110.801 3.45651 -124.120
  473 767.194 13.2319 -86.1716
  474 179.301 10.0486 6.28035
  475 179.309 10.0485 -6.26652
  476 259.436 3.50349 -77.3022
  477 259.947 3.43113 78.3761
  478 78.4591 26.1289 5.02808
  479 78.3006 26.2186 -5.02167
  480 234.528 16.7534 -41.6953
  481 234.597 16.6860 41.9700
  482 9.94862 5.71141 33.2528
  483 10.4667 5.97206 -33.2131
  484 -100.140 1.37001 -7.01128
  485 -99.9902 1.36810 7.00114
  486 508.093 -57.6667 -43.3309
  487 401.593 -0.806659 -2.35206
  488 401.711 -0.807973 2.35363
  489 26.1938 2.05989 -1.75372
  490 26.2836 2.05868 1.75188
  491 -23.1512 9.22892 21.1695
  492 -23.2756 9.24982 -21.2049
  493 -54.6725 3.22907 -7.31410
  494 -54.5405 3.22456 7.30455
  495 179.440 15.9529 -9.53391
  496 179.428 15.9558 9.57004
  497 -19.1092 8.26824 30.4773
  498 -19.2329 8.28627 -30.5415
  499 464.826 -13.7610 -27.7390
  500 465.627 -14.3851 27.4396
  501 308.212 2.77734 -51.6889
  502 307.725 2.59382 52.1090
  503 117.595 4.11801 -0.398894
  504 117.636 4.11646 0.399194
  505 1.48675 -53.5003 -30.8822
  506 546.424 -18.7865 39.8578
  507 8.16119 -33.8807 -26.9437
  508 158.856 24.5040 20.4180
  509 158.971 24.4243 -20.2666
  510 502.590 -53.9476 42.9061
  511 40.2692 -38.5603 67.3620
  512 595.749 -70.6908 -83.3540
  513 407.598 0.491280 25.0287
  514 407.405 0.633680 -25.0357
  515 1.46701 -45.5822 32.1445
  516 -8.00577 -2.36670 -6.21093
  517 -8.00878 -2.36520 6.21498
  518 54.4850 1.72090 -0.407911
  519 54.5589 1.72041 0.407405
  520 -1.35320 -31.5907 13.6046
  521 -1.22768 -31.4467 -13.6775
  522 336.108 2.05763 5.74985
  523 336.027 2.06050 -5.74680
  524 933.892 171.777 79.3704
  525 41.0879 -19.3731 -16.4919
  526 32.1079 -27.7658 9.78139
  527 -5.55440 6.70688 -9.87488
  528 -5.44189 6.69531 9.86270
  529 -80.7992 1.26738 10.4103
  530 -80.8850 1.26878 -10.4278
  531 0.844840 -99.3725 19.2233
  532 -109.775 0.804290 0.803098
  533 -109.938 0.804340 -0.804269
  534 107.227 0.0617858 -92.3267
  535 104.956 1.65492 95.6723
  536 98.5143 19.0188 -34.1633
  537 97.7817 19.4306 34.3415
  538 -21.4975 -4.34152 29.7055
  539 -21.5356 -4.36205 -29.7537
  540 97.7802 7.38179 0.773454
  541 97.7257 7.38699 -0.771468
  542 -43.5050 1.80143 2.85199
  543 -43.6321 1.80277 -2.85580
  544 114.352 15.2104 0.0251833
  545 114.292 15.2292 -0.00910646
  546 -2.19814 -7.23647 5.32065
  547 -2.20594 -7.23060 -5.31982
  548 42.5960 18.4423 15.6487
  549 42.3158 18.6841 -15.7572
  550 34.4009 7.26900 13.2435
  551 33.9284 7.22910 -13.5384
  552 410.916 1.78111 10.4978
  553 410.793 1.79343 -10.4978
  554 365.312 3.51803 16.9892
  555 365.199 3.55843 -16.9872
  556 -0.371025 -85.2216 -12.4525
  557 258.488 11.4439 -17.3532
  558 258.542 11.4170 17.3887
  559 258.663 4.48344 -6.81811
  560 258.703 4.47759 6.82492
  561 -29.7215 0.718009 0.167180
  562 -29.6018 0.718175 -0.167480
  563 453.882 23.5233 -11.8204
  564 572.118 -69.0827 -33.6184
  565 482.030 23.0591 45.9610
  566 4.19760 -70.1505 -21.7331
  567 -21.5573 7.65939 -13.4972
  568 -21.4370 7.64543 13.4787
  569 4.55022 -40.2454 29.8347
  570 -24.3848 1.02788 33.6528
  571 -24.4616 1.02213 -33.7107
  572 732.825 70.1815 5.19721
  573 170.555 6.40573 -3.25615
  574 170.543 6.40611 3.26155
  575 1085.81 93.7554 -98.8586
  576 -4.36843 -3.32328 38.8222
  577 -3.96856 -3.02584 -38.8432
  578 604.423 -50.2584 17.4938
  579 484.485 -0.263162 -12.2298
  580 484.629 -0.320311 12.1784
  581 228.513 2.72218 -111.439
  582 231.089 1.99544 113.032
  583 -12.0268 -11.4867 34.2946
  584 -12.0412 -11.5504 -34.3921
  585 121.575 13.3677 61.3955
  586 122.581 12.5130 -60.9576
  587 -93.9856 1.05584 -9.64836
  588 -93.8667 1.05408 9.63148
  589 711.918 67.2299 30.3269
  590 140.312 11.3813 2.32244
  591 140.345 11.3750 -2.31205
  592 165.050 20.6901 -42.6914
  593 164.804 20.9343 43.0867
  594 440.666 -1.98378 -24.3599
  595 440.915 -2.18538 24.3255
  596 -1.79911 -43.7177 -30.7413
  597 475.521 -1.04774 3.69768
  598 475.360 -1.04512 -3.69627
  599 -64.7075 1.00595 -0.987411
  600 -64.5688 1.00574 0.985734
  601 -117.892 -1.01131 -0.0350394
  602 -118.061 -1.01226 0.0348094
  603 10.9524 -62.6595 -8.10594
  604 -4.34745 -28.6172 26.6172
  605 -4.58547 -27.0421 -26.7936
  606 -52.9914 3.39230 24.0410
  607 -53.0860 3.39650 -24.0841
  608 337.191 6.81697 21.6134
  609 337.076 6.87905 -21.5958
  610 249.567 1.72413 1.57346
  611 249.534 1.72445 -1.57245
  612 58.5140 -9.97377 40.6666
  613 60.2633 -8.76053 -40.3340
  614 -1.69528 -22.0652 11.5218
  615 -1.74984 -21.9977 -11.5623
  616 569.281 54.2547 249.901
  617 -28.4250 -0.841424 10.6375
  618 -28.4299 -0.845634 -10.6475
  619 11.0383 -37.5944 -20.9157
  620 244.659 8.11559 -9.31661
  621 244.693 8.10712 9.32913
  622 122.480 25.3686 -16.2496
  623 122.230 25.5277 16.3927
  624 1.16158 -147.644 6.63509
  625 92.7944 24.1933 1.86248
  626 92.6724 24.2586 -1.83945
  627 -5.97210 9.72157 16.2782
  628 -6.09114 9.74161 -16.3010
  629 -0.678075 -74.8929 16.9819
  630 -118.785 -0.00118635 -3.37269
  631 -118.620 -0.00139000 3.36861
  632 162.948 2.88450 1.26506
  633 162.963 2.88443 -1.26344
  634 400.458 0.0589007 7.05099
  635 400.341 0.0648707 -7.04862
  636 356.794 -18.2644 191.241
  637 287.436 5.64390 -13.5305
  638 287.500 5.62305 13.5455
  639 5.82295 -4.52829 35.2707
  640 6.94367 -2.04618 -35.1249
  641 456.574 -40.0755 -155.597
  642 1052.48 35.4851 -41.0462
  643 -110.594 0.0259377 -6.58107
  644 -110.452 0.0248709 6.57061
  645 31.7382 5.25397 -4.16565
  646 31.8274 5.24862 4.16208
  647 -2.01860 -46.6512 27.2841
  648 619.915 40.2495 -53.9850
  649 469.996 -1.26444 0.671609
  650 469.837 -1.26335 -0.670898
  651 -30.0732 -1.52756 -24.5317
  652 -30.0355 -1.51902 24.4969
  653 -0.102645 -105.969 -16.0957
  654 477.932 -1.21620 1.42927
  655 477.768 -1.21504 -1.42794
  656 48.3663 14.6638 10.3392
  657 48.2654 14.6901 -10.3451
  658 371.217 -30.1211 -103.018
  659 377.592 -29.9554 104.071
  660 534.212 -3.84971 8.66974
  661 534.210 -3.81969 -8.97968
  662 2.39143 -132.370 12.0398
  663 -24.3870 0.411368 -1.61668
  664 -24.2702 0.411468 1.61482
  665 178.042 34.8204 -183.458
  666 169.292 2.40880 1.53521
  667 169.303 2.40839 -1.53421
  668 85.9868 4.99133 0.0122533
  669 85.9285 4.99416 -0.0118542
  670 101.198 9.58916 0.0402482
  671 101.253 9.58119 -0.0352050
  672 317.154 7.69830 -33.4625
  673 317.329 7.57833 33.5518
  674 86.9858 24.8122 -2.45904
  675 86.7187 24.9841 2.48296
  676 -53.5613 3.98924 -13.0427
  677 -53.4320 3.98038 13.0233
  678 -63.3449 4.39895 -15.0912
  679 -63.2169 4.39031 15.0664
  680 550.405 -8.58575 -0.439448
  681 1.25873 -20.8799 -36.5732
  682 550.956 -9.00294 -0.245314
  683 706.206 54.2926 -4.09125
  684 -68.6520 0.339365 11.8920
  685 -68.7185 0.338891 -11.9117
  686 75.7405 22.3610 -7.96842
  687 75.2035 22.6142 8.00599
  688 -127.360 -0.0185534 -1.09087
  689 -127.187 -0.0183996 1.08924
  690 1.75208 -18.6340 36.5560
  691 -42.4884 0.707862 25.5863
  692 -42.5560 0.704704 -25.6285
  693 605.456 -46.8345 -19.7172
  694 100.369 1.33872 -0.929447
  695 100.320 1.33892 0.929898
  696 26.3487 8.21874 7.39200
  697 26.2522 8.22985 -7.39823
  698 324.551 -13.6289 -86.6465
  699 326.841 -14.1694 88.2173
  700 1096.37 78.7706 89.4071
  701 22.7400 -90.1155 -41.2823
  702 -7.59907 -16.2572 36.5385
  703 -7.60542 -16.3287 -36.6307
  704 71.8344 14.2686 -4.75318
  705 71.9156 14.2488 4.75575
  706 491.340 -1.06669 -3.74526
  707 491.509 -1.06981 3.74507
  708 238.902 2.58691 3.02788
  709 238.874 2.58848 -3.02531
  710 22.3007 17.7554 24.7609
  711 22.1562 17.8074 -24.8151
  712 16.8904 3.72359 2.90746
  713 16.7951 3.72633 -2.91037
  714 -12.6073 3.90584 36.6772
  715 -12.7166 3.89867 -36.7625
  716 405.907 -1.30238 3.01352
  717 405.786 -1.30002 -3.01167
  718 353.028 1.79161 8.11401
  719 352.936 1.79784 -8.11033
  720 49.8029 -23.7878 48.1541
  721 51.1448 -26.0027 -46.6929
  722 -25.7357 6.16936 31.9631
  723 -25.8442 6.17440 -32.0289
  724 15.7333 -30.3111 15.6033
  725 3.09598 11.2049 33.0396
  726 2.92130 11.2294 -33.0954
  727 -74.5699 2.01876 -8.55065
  728 -74.4305 2.01497 8.53816
  729 65.5111 19.4188 9.01271
  730 65.3973 19.4620 -9.01122
  731 546.898 -16.1406 -26.6609
  732 517.597 -44.2243 -16.6209
  733 -8.17406 -16.7685 26.2177
  734 -8.16588 -16.8519 -26.1888
  735 205.188 4.19143 -131.363
  736 200.034 8.36669 132.431
  737 126.363 24.0360 -23.3887
  738 126.032 24.2675 23.6025
  739 11.6785 -17.5061 28.1601
  740 -0.711761 -55.7267 -14.8730
  741 259.277 13.1040 -32.0083
  742 259.382 13.0404 32.1559
  743 0.629859 -108.964 13.6238
  744 156.521 20.1936 -10.4545
  745 156.472 20.2169 10.5143
  746 516.943 -0.940470 -9.23544
  747 517.052 -0.999335 9.13356
  748 10.7345 -139.993 5.97156
  749 238.928 16.4223 24.5570
  750 238.877 16.4544 -24.4646
  751 66.8204 23.4427 -3.20668
  752 67.1650 23.2172 3.16401
  753 -93.0274 0.609500 -8.20396
  754 -92.9247 0.608828 8.18903
  755 263.414 3.06188 -5.84875
  756 263.455 3.05840 5.85333
  757 165.257 22.6277 -17.3921
  758 165.186 22.6720 17.5038
  759 3.92596 14.1324 25.0819
  760 3.79040 14.1699 -25.1258
  761 519.115 -37.9314 10.2093
  762 -76.6337 1.49554 6.44643
  763 -76.7767 1.49748 -6.45393
  764 1095.01 226.067 -160.540
  765 -26.1267 2.64644 6.49387
  766 -26.2453 2.65000 -6.50103
  767 440.027 0.247992 17.2278
  768 439.878 0.316578 -17.2589
  769 817.360 49.3805 -0.560140
  770 495.391 -1.83835 -6.99029
  771 495.551 -1.84934 6.98102
  772 320.805 3.25755 10.3301
  773 320.730 3.26800 -10.3242
  774 478.390 -49.2188 141.994
  775 211.276 13.9045 -10.1600
  776 211.291 13.8981 10.1875
  777 5.07678 -79.2753 15.0769
  778 547.840 -65.6396 50.0745
  779 333.432 -0.425761 1.73576
  780 333.352 -0.424450 -1.73477
  781 433.462 -0.625847 0.918563
  782 433.325 -0.624977 -0.917799
  783 -1.86999 -43.6017 -25.5847
  784 2.85352 -72.8016 23.7966
  785 201.012 21.5651 34.1044
  786 201.039 21.5397 -33.8699
  787 1081.14 9.54505 9.94153
  788 341.232 1.99241 -41.3793
  789 341.455 1.84906 41.4915
  790 -68.1886 2.25849 17.8111
  791 -68.3039 2.26405 -17.8417
  792 15.2966 -55.9317 2.13268
  793 9.79034 -129.623 -12.7108
  794 770.527 101.073 -19.6537
  795 -0.654425 -55.6032 13.4331
  796 17.7652 12.2097 29.0364
  797 17.7034 12.1995 -29.1998
  798 107.467 19.6594 0.497047
  799 107.390 19.6932 -0.475317
  800 514.286 -23.8015 -10.3148
  801 515.508 -23.4540 8.77049
  802 597.705 108.486 -237.144
  803 -78.5962 0.614886 -2.70100
  804 -78.4509 0.614326 2.69724
  805 -38.9569 -0.134440 9.98668
  806 -38.9718 -0.136298 -9.99902
  807 39.5584 5.35171 5.98840
  808 38.7379 5.31644 -6.09152
  809 392.172 -3.07295 37.1312
  810 391.892 -2.77556 -37.0267
  811 202.416 3.87386 -2.08320
  812 202.423 3.87335 2.08571
  813 629.854 -4.66296 48.9100
  814 70.8644 9.76784 -4.31958
  815 70.9389 9.75683 4.31997
  816 64.7474 11.0141 -14.4944
  817 64.1755 11.2933 14.6214
  818 0.118180 -42.1794 -33.7346
  819 877.291 151.068 136.498
  820 -125.466 0.0700952 -3.40746
  821 -125.301 0.0699408 3.40276
  822 -0.181311 -131.992 12.5833
  823 10.4311 -17.3499 -28.5743
  824 -19.4687 -1.16494 7.48877
  825 -19.4626 -1.16816 -7.49209
  826 708.923 48.0439 -29.3594
  827 189.308 17.2805 -12.8398
  828 189.300 17.2841 12.8961
  829 487.164 -7.88567 -18.8064
  830 487.644 -7.94438 18.5820
  831 -120.430 0.844385 4.63829
  832 -120.586 0.845626 -4.64545
  833 -0.897934 -0.927352 -0.777714
  834 -0.899758 -0.928992 0.780808
  835 0.358568 -134.896 -12.2003
  836 0.615137 -140.547 -10.5679
  837 -130.817 1.17380 0.617437
  838 -130.993 1.17414 -0.618097
  839 77.4755 -12.4186 -88.9706
  840 304.166 2.25482 -3.18890
  841 304.230 2.25352 3.19083
  842 -4.63843 1.78080 0.806431
  843 -4.74443 1.78121 -0.807115
  844 447.422 0.345814 -11.3549
  845 447.561 0.323159 11.3437
  846 -51.1175 0.347224 9.46914
  847 -51.1474 0.347212 -9.48219
  848 275.549 12.2439 -194.472
  849 470.924 -39.5185 41.7456
  850 368.144 0.445380 -3.74724
  851 368.243 0.443353 3.74928
  852 466.893 -42.8770 -46.2973
  853 149.629 15.1027 -5.12816
  854 149.594 15.1123 5.15436
  855 204.570 11.7943 -7.94097
  856 204.579 11.7907 7.95900
  857 546.427 -11.4667 20.4177
  858 36.4217 20.2601 19.6311
  859 36.2600 20.3333 -19.6998
  860 39.4205 1.52211 1.25226
  861 39.3382 1.52267 -1.25349
  862 259.884 1.83791 2.76975
  863 259.845 1.83905 -2.76783
  864 668.652 -53.3779 83.3058
  865 420.997 1.32511 -15.0238
  866 421.134 1.28313 15.0086
  867 10.7446 5.72495 5.80110
  868 10.6434 5.73160 -5.80688
  869 420.955 -1.34704 4.30944
  870 420.826 -1.34401 -4.30716
  871 -73.4725 0.115602 -1.96849
  872 -73.3286 0.116101 1.96715
  873 -0.348809 -42.6529 12.0163
  874 -0.464739 -43.3187 -12.1039
  875 513.042 -6.03164 50.2726
  876 -28.5537 7.89904 26.6132
  877 -28.6734 7.91653 -26.6640
  878 -0.160394 -70.0320 -13.1994
  879 204.388 6.02142 -4.21127
  880 204.396 6.02074 4.21628
  881 372.844 -18.3854 -66.3997
  882 375.594 -20.3167 67.0274
  883 -15.1523 -5.05851 -36.6308
  884 -15.0774 -5.05523 36.5447
  885 23.2301 17.6312 22.6008
  886 23.0887 17.6801 -22.6402
  887 1.73991 -157.185 8.25898
  888 7.47462 14.1781 29.9117
  889 7.32283 14.2125 -29.9682
  890 344.791 -6.31650 -59.1441
  891 344.008 -6.54468 59.6066
  892 594.828 35.8991 56.7934
  893 139.710 13.9633 3.15240
  894 139.748 13.9544 -3.13581
  895 431.251 1.64438 -11.1879
  896 431.384 1.62765 11.1836
  897 -16.5095 -7.03176 32.3992
  898 -16.5456 -7.06199 -32.4640
  899 1.57300 -160.414 -4.68635
  900 -25.4218 -1.48159 31.6579
  901 -25.4793 -1.48815 -31.7113
  902 20.0194 15.5964 -17.4742
  903 20.1422 15.5607 17.4501
  904 -1.32163 -10.8220 5.96837
  905 -1.33690 -10.8117 -5.97755
  906 40.5727 17.5936 -15.1322
  907 40.6991 17.5493 15.1155
  908 9.06078 -11.1693 32.2801
  909 7.97477 -10.3755 -34.1288
  910 421.784 -12.6259 38.0658
  911 420.817 -12.0896 -38.2220
  912 -133.843 0.276991 -0.907791
  913 -133.667 0.277027 0.906717
  914 -12.0190 -1.06374 5.65820
  915 -12.0091 -1.06575 -5.65710
  916 0.555031 -99.3658 -11.9667
  917 -12.7319 -5.41696 -16.0267
  918 -12.7254 -5.40253 16.0258
  919 -52.1706 4.56073 22.8878
  920 -52.2804 4.56960 -22.9299
  921 135.154 24.8639 -11.1213
  922 135.035 24.9464 11.2069
  923 569.223 43.7426 -7.35768
  924 -3.41963 12.4475 22.7718
  925 -3.54782 12.4772 -22.8094
  926 211.477 13.8973 -62.9688
  927 211.449 14.0884 63.5952
  928 -21.5100 8.51923 18.2825
  929 -21.6330 8.53888 -18.3120
  930 673.070 -26.4559 -3.22876
  931 423.947 16.9027 24.7651
  932 498.359 -5.30410 -45.4515
  933 369.078 3.62371 -25.1448
  934 369.234 3.52503 25.1580
  935 -35.0176 4.84739 -8.58639
  936 -34.8944 4.83985 8.57476
  937 -85.3493 1.48485 11.2345
  938 -85.4815 1.48861 -11.2537
  939 -5.21312 -16.9772 -18.5759
  940 -5.17413 -16.9882 18.6069
  941 134.409 7.25340 1.89523
  942 134.442 7.25020 -1.89094
  943 -39.6444 4.38692 28.6462
  944 -39.7389 4.38884 -28.7005
  945 438.601 -1.01399 5.58218
  946 438.462 -1.01045 -5.57986
  947 -3.20143 -37.0315 27.8509
  948 20.0207 14.1534 -14.8526
  949 20.1359 14.1251 14.8345
  950 26.7496 9.47926 9.36752
  951 26.6492 9.49444 -9.37621
  952 80.3543 6.10060 -1.60801
  953 80.4168 6.09618 1.60777
  954 821.793 114.592 -33.7544
  955 -3.34555 -0.901544 -2.26988
  956 -3.35269 -0.901375 2.27391
  957 30.4867 9.67165 -18.1556
  958 30.9903 9.45079 18.0497
  959 299.715 10.5873 -26.9894
  960 299.833 10.5094 27.0537
  961 42.0618 12.0712 -8.67745
  962 42.1585 12.0520 8.67139
  963 83.0845 -2.89980 116.161
  964 555.086 -4.25554 -5.12339
  965 554.457 -4.10090 4.64817
  966 102.255 -0.817636 102.564
  967 108.197 3.37910 -0.805505
  968 108.152 3.38040 0.806043
  969 274.361 -3.70197 -168.463
  970 207.241 2.10884 1.46889
  971 207.232 2.10872 -1.46793
  972 27.3768 -23.1145 2.21944
  973 30.2469 -18.8280 0.0549070
  974 490.199 -0.792697 1.90974
  975 490.029 -0.791698 -1.90815
  976 -40.1321 0.208811 23.3794
  977 -40.1827 0.205752 -23.4139
  978 881.029 111.606 55.8899
  979 -3.43962 -27.1775 -36.3487
  980 4.98609 -129.370 19.2925
  981 -0.419151 -43.4261 33.4010
  982 507.475 -0.789901 -7.13141
  983 507.626 -0.805974 7.11077
  984 -6.69142 -12.2888 16.0790
  985 -6.71111 -12.2917 -16.0653
  986 642.765 68.7700 -28.1987
  987 1095.51 8.57286 -6.62089
  988 -1.66586 -2.56201 -2.47045
  989 -1.66393 -2.56741 2.47402
  990 298.931 2.02580 -5.96095
  991 298.992 2.02254 5.96460
  992 -3.49742 -26.0629 36.5001
  993 413.656 0.728663 22.2369
  994 413.496 0.830797 -22.2546
  995 544.046 -35.1653 -18.1747
  996 -18.8543 -3.87040 18.0694
  997 -18.8641 -3.88573 -18.0811
  998 9.70858 -32.9646 24.4628
  999 -0.770161 -66.0964 26.2347
  1000 -0.0828126 -69.5129 13.1914
  1001 567.445 35.7852 -3.46269
  1002 642.823 70.7528 14.1920
  1003 457.758 -50.5279 -79.8458
  1004 6.97979 -62.6994 19.4998
  1005 8.74189 -89.3478 2.25308
  1006 130.716 1.92578 0.189366
  1007 130.683 1.92620 -0.189416
  1008 -5.05040 -5.76362 -7.72895
  1009 -5.04552 -5.76408 7.73449
  1010 4.76400 -51.5520 -26.9399
  1011 367.516 -0.712276 -1.37726
  1012 367.615 -0.713596 1.37811
  1013 76.5831 3.50585 -40.5311
  1014 73.3414 3.67534 40.1494
  1015 -4.61405 11.6459 30.4852
  1016 -4.75905 11.6765 -30.5508
  1017 -40.6144 6.49282 -18.8256
  1018 -40.4904 6.47871 18.7944
  1019 284.441 4.50538 -60.9145
  1020 284.557 4.77475 61.5377
  1021 206.080 17.8091 -43.6765
  1022 206.029 17.8198 44.0422
  1023 222.655 14.5783 -15.3683
  1024 222.679 14.5624 15.4111
  1025 572.056 -13.4220 -57.3026
  1026 -13.3390 7.33566 33.9234
  1027 -13.4675 7.34375 -34.0080
  1028 404.218 -1.52250 30.5816
  1029 403.985 -1.29978 -30.5643
  1030 -2.08984 -19.9825 37.8520
  1031 -32.3772 -1.02035 17.3700
  1032 -32.3991 -1.02603 -17.3911
  1033 368.920 2.15072 -30.5074
  1034 369.111 2.00982 30.5368
  1035 465.819 12.1201 -41.4016
  1036 -0.395181 -65.6053 -27.5012
  1037 -5.18358 -25.7674 32.9513
  1038 -5.40874 -26.0980 -32.6845
  1039 262.220 13.8828 -22.7177
  1040 262.293 13.8367 22.7857
  1041 328.264 4.62565 12.7333
  1042 328.181 4.64244 -12.7263
  1043 542.936 -34.3560 15.5802
  1044 31.4934 1.86117 -0.328351
  1045 31.5797 1.86065 0.327964
  1046 462.568 -56.4641 85.1192
  1047 2.04910 1.15745 1.84864
  1048 1.94654 1.15792 -1.85058
  1049 103.292 25.1807 -2.50027
  1050 103.142 25.2702 2.54312
  1051 40.9462 19.9307 16.6710
  1052 40.8077 19.9841 -16.6953
  1053 5.34306 -78.3760 -15.7405
  1054 137.369 3.83039 1.07440
  1055 137.399 3.82941 -1.07218
  1056 415.296 13.1520 10.2771
  1057 371.402 1.54797 11.6925
  1058 371.298 1.56457 -11.6901
  1059 -1.69054 -20.8218 -37.9223
  1060 557.469 -7.25685 -10.0296
  1061 1.10924 -0.873822 37.1270
  1062 1.54122 -0.583911 -36.9286
  1063 504.113 -1.19315 -3.95606
  1064 504.286 -1.19697 3.95370
  1065 537.695 -2.18390 -6.98280
  1066 537.684 -2.24840 6.82326
  1067 -0.403608 -105.189 9.87362
  1068 319.495 6.65920 -16.7858
  1069 319.579 6.63009 16.7978
  1070 386.720 2.30112 13.5162
  1071 386.606 2.32336 -13.5165
  1072 10.4933 9.94627 32.8140
  1073 10.4340 9.94519 -32.8649
  1074 836.873 53.8969 10.2312
  1075 -9.90201 -3.99533 38.7664
  1076 -10.0770 -3.89810 -38.8732
  1077 123.960 22.8895 -3.86399
  1078 123.881 22.9327 3.90472
  1079 -62.9085 0.870521 -3.04144
  1080 -62.7712 0.870042 3.03801
  1081 201.699 12.7219 -72.3007
  1082 201.392 13.2650 73.0869
  1083 60.0212 22.5303 12.0088
  1084 59.8713 22.5977 -12.0218
  1085 137.957 17.4464 -54.5578
  1086 137.251 18.0995 54.9621
  1087 -3.43088 -34.8024 -27.1589
  1088 481.809 7.55859 55.3226
  1089 333.672 9.61606 217.131
  1090 56.4544 23.4112 12.3518
  1091 56.2813 23.4984 -12.3801
  1092 203.810 9.28273 -6.18627
  1093 203.818 9.27934 6.19832
  1094 722.794 10.7636 7.91856
  1095 49.1023 13.5499 6.07675
  1096 48.4956 13.6888 -6.27384
  1097 -21.3088 -4.57404 23.9543
  1098 -21.3301 -4.59653 -23.9819
  1099 -0.697231 -16.1374 6.50047
  1100 -0.725548 -16.1285 -6.52701
  1101 476.035 -1.35790 17.7547
  1102 475.831 -1.19350 -17.8550
  1103 1.12345 -32.4715 35.3585
  1104 -31.7286 2.28323 -31.4502
  1105 -31.6506 2.28840 31.3953
  1106 0.151399 -126.446 -12.3248
  1107 -6.80572 -9.72499 38.7146
  1108 -6.78181 -9.50114 -38.7558
  1109 454.255 -0.253650 -7.47636
  1110 454.401 -0.261388 7.47570
  1111 470.291 -4.52311 21.5584
  1112 469.946 -4.25449 -21.6541
  1113 85.2484 20.0111 -20.7027
  1114 84.6071 20.3571 20.8415
  1115 -1.06372 -65.1580 -22.5684
  1116 617.192 -48.5647 -129.246
  1117 799.148 112.091 16.2174
  1118 8.79961 -93.8102 1.05522
  1119 31.1328 17.2658 -22.8201
  1120 31.3144 17.1772 22.6775
  1121 80.2225 25.1113 3.63294
  1122 80.0252 25.2260 -3.62740
  1123 166.456 8.40820 3.16099
  1124 166.471 8.40740 -3.15287
  1125 -10.1441 -14.4504 30.9367
  1126 -10.1313 -14.5942 -30.9905
  1127 -27.3073 9.16685 24.3300
  1128 -27.4302 9.18734 -24.3729
  1129 -8.26447 11.8111 28.1227
  1130 -8.39924 11.8399 -28.1780
  1131 450.955 -23.1785 -37.7289
  1132 453.739 -23.3110 37.4880
  1133 0.532380 -74.0295 -25.9626
  1134 244.268 0.925136 -89.5667
  1135 244.585 1.66656 90.9411
  1136 80.2894 22.4655 -5.08083
  1137 80.4030 22.4108 5.09127
  1138 239.239 136.537 241.742
  1139 63.6689 17.7809 8.68641
  1140 63.5661 17.8147 -8.68642
  1141 611.541 -62.7330 -35.6084
  1142 234.691 5.00816 4.83562
  1143 234.666 5.01129 -4.83023
  1144 -10.3369 -9.18583 19.0709
  1145 -10.3458 -9.20926 -19.0672
  1146 -12.2782 -10.9696 24.5841
  1147 -12.2806 -11.0150 -24.5905
  1148 405.080 -38.3943 -123.983
  1149 412.751 -42.4724 124.856
  1150 76.5567 1.81976 1.30752
  1151 76.6188 1.81919 -1.30700
  1152 256.779 11.4974 -50.0136
  1153 256.751 11.3657 50.4713
  1154 550.492 -69.5045 96.3358
  1155 486.380 -1.39304 1.09509
  1156 486.212 -1.39193 -1.09406
  1157 -41.4951 6.82698 21.7855
  1158 -41.6169 6.84122 -21.8230
  1159 -72.2469 2.12389 -11.1993
  1160 -72.1104 2.11911 11.1838
  1161 129.363 12.0064 148.973
  1162 401.613 26.0459 -20.9287
  1163 234.896 15.5448 -25.5554
  1164 234.950 15.5143 25.6765
  1165 709.189 -9.49381 140.048
  1166 238.832 15.2101 -37.0160
  1167 238.893 15.1502 37.2253
  1168 62.8836 6.66921 -2.84147
  1169 62.9568 6.66347 2.84019
  1170 21.5094 -68.4198 17.4896
  1171 21.7146 -66.2889 -23.2047
  1172 322.194 -20.0263 -125.284
  1173 326.422 -18.5742 125.108
  1174 128.435 22.0564 -39.1469
  1175 127.892 22.4696 39.4760
  1176 561.783 -35.8097 -36.1851
  1177 -19.6171 -1.31833 35.5514
  1178 -19.6942 -1.31950 -35.6182
  1179 0.0447476 -28.9170 -36.3588
  1180 146.823 8.16164 -95.1426
  1181 147.124 8.52879 96.6372
  1182 -0.356138 -28.5333 7.22464
  1183 -0.304889 -28.6040 -7.31550
  1184 -131.736 1.06838 -3.24406
  1185 -131.571 1.06756 3.23929
  1186 443.361 -0.967852 -2.16528
  1187 443.504 -0.969515 2.16686
  1188 278.079 8.77543 -14.8903
  1189 278.143 8.74933 14.9133
  1190 -9.01465 0.585798 38.5686
  1191 -9.04223 0.749043 -38.6454
  1192 -0.00297930 -113.403 -10.9382
  1193 -112.564 0.239194 5.40254
  1194 -112.699 0.239836 -5.41216
  1195 91.6575 3.29341 -68.1915
  1196 91.0110 3.86042 70.1993
  1197 520.898 -31.6680 -4.54913
  1198 152.735 12.5567 -85.6803
  1199 152.820 12.8904 86.4182
  1200 -63.2021 0.352155 8.58000
  1201 -63.2476 0.351674 -8.59307
  1202 1.77347 -96.8585 -17.6009
  1203 -14.3677 3.40333 -3.81872
  1204 -14.2558 3.40058 3.81451
  1205 82.3644 18.6372 5.61443
  1206 82.2677 18.6733 -5.60510
  1207 294.641 0.221551 -1.88480
  1208 294.699 0.220519 1.88590
  1209 394.612 0.738734 8.88079
  1210 394.498 0.749006 -8.87917
  1211 23.2252 -0.755245 18.8989
  1212 22.8836 -1.14104 -19.3178
  1213 4.08136 -55.0730 27.0635
  1214 709.386 101.098 16.5235
  1215 -21.7820 -1.66192 13.7158
  1216 -21.7875 -1.66940 -13.7250
  1217 3.26433 -51.5951 -28.5339
  1218 -2.03134 -32.9502 20.0173
  1219 -1.93610 -32.6177 -20.7320
  1220 559.434 -6.20741 8.85354
  1221 0.477844 -129.448 11.1429
  1222 4.65037 -37.5129 -31.8689
  1223 71.3422 1.20597 0.554303
  1224 71.2775 1.20614 -0.554719
  1225 -5.18776 -22.8943 36.0603
  1226 -58.1949 3.23955 -9.27536
  1227 -58.0618 3.23469 9.26328
  1228 1116.24 18.6765 32.5506
  1229 -31.1176 3.97430 31.6099
  1230 -31.2099 3.97240 -31.6704
  1231 273.808 10.2601 -45.1710
  1232 274.002 10.0904 45.4167
  1233 18.7441 -23.4497 -11.2100
  1234 260.144 11.8910 -18.8611
  1235 260.206 11.8557 18.9084
  1236 11.2603 -74.1235 -1.48578
  1237 -5.21156 -22.9560 -36.0220
  1238 -38.9217 1.29786 5.27260
  1239 -39.0465 1.29959 -5.27834
  1240 -18.5484 1.92503 -36.1628
  1241 -18.4540 1.93301 36.0992
  1242 557.710 45.4514 39.7113
  1243 315.644 2.84359 -47.3701
  1244 315.976 2.78079 47.4854
  1245 -136.984 0.251207 -1.08117
  1246 -136.808 0.251120 1.07953
  1247 283.759 5.42323 -10.0328
  1248 283.814 5.41456 10.0408
  1249 -139.775 -2.53303 -0.397573
  1250 -139.956 -2.53466 0.397702
  1251 422.222 -29.7200 -54.3138
  1252 -65.2323 1.15616 17.9291
  1253 -65.3181 1.15641 -17.9607
  1254 426.286 -31.3779 53.8266
  1255 289.037 9.10857 -20.0842
  1256 289.115 9.06572 20.1156
  1257 34.8226 -61.3074 -67.3974
  1258 0.646672 -89.6402 -22.1547
  1259 -1.66361 -37.5120 33.7636
  1260 886.806 166.476 -139.058
  1261 -0.184002 -84.5380 21.8871
  1262 928.283 88.0207 -61.6005
  1263 -0.584559 -156.920 -10.1988
  1264 49.6193 3.71700 -0.632793
  1265 49.6968 3.71459 0.631844
  1266 -0.381343 -36.6043 7.56618
  1267 -0.303961 -36.8028 -7.54902
  1268 163.551 2.75621 0.556180
  1269 163.566 2.75581 -0.555450
  1270 567.414 -41.1694 34.1198
  1271 15.8087 3.62879 -4.42106
  1272 15.9053 3.62538 4.41704
  1273 3.27279 -168.319 3.74753
  1274 2.08414 -179.723 -3.74820
  1275 521.736 -62.3738 -59.3321
  1276 -1.38249 -46.9869 22.0275
  1277 553.314 37.4071 -51.2858
  1278 -1.61987 -61.9057 21.5973
  1279 1.12915 -167.630 -7.39647
  1280 265.382 6.09639 -11.2319
  1281 265.429 6.07995 11.2466
  1282 -0.215680 -92.7727 9.75611
  1283 -0.210878 -76.4380 -21.8924
  1284 1206.27 222.258 189.375
  1285 488.504 -0.0194262 0.819309
  1286 488.334 -0.0191956 -0.818681
  1287 14.5595 2.49973 29.3874
  1288 14.1234 3.03006 -29.5416
  1289 -6.00892 7.72640 35.7558
  1290 -6.20450 7.73037 -35.8582
  1291 528.874 -9.34534 -32.2969
  1292 487.604 -20.7851 -22.2744
  1293 487.199 -23.5582 22.5920
  1294 77.0525 7.62700 2.67533
  1295 76.9847 7.63395 -2.67490
  1296 -77.8732 2.05715 -13.6813
  1297 -77.7482 2.05259 13.6570
  1298 543.293 -70.6885 -82.8847
  1299 -4.03026 -9.81671 10.0646
  1300 -4.04645 -9.81104 -10.0609
  1301 574.717 -22.4019 54.1294
  1302 -5.85824 -22.3323 26.8345
  1303 -5.79193 -22.4177 -26.7127
  1304 -46.9118 3.01196 6.36080
  1305 -47.0405 3.01574 -6.36872
  1306 89.9176 12.5609 -37.0332
  1307 89.0284 13.0509 36.9915
  1308 139.922 2.62920 -0.0142513
  1309 139.894 2.62974 0.0146659
  1310 -53.2922 5.46987 21.7062
  1311 -53.4088 5.48034 -21.7437
  1312 459.350 0.555426 1.27301
  1313 459.198 0.555435 -1.27209
  1314 258.703 2.80030 166.700
  1315 377.553 -0.295330 3.15474
  1316 377.449 -0.293816 -3.15284
  1317 255.454 5.63343 -68.6431
  1318 255.455 5.35388 69.1940
  1319 2.56256 -96.3449 -11.6394
  1320 100.987 24.2949 -17.4989
  1321 100.550 24.5716 17.6451
  1322 -0.996340 -0.864385 -1.28486
  1323 -1.00134 -0.864557 1.28857
  1324 325.845 8.49148 25.6079
  1325 325.721 8.57605 -25.5722
  1326 164.685 11.9476 5.23949
  1327 164.704 11.9449 -5.22293
  1328 240.176 11.9415 -13.2324
  1329 240.213 11.9237 13.2620
  1330 311.499 0.508362 -3.18398
  1331 311.566 0.507138 3.18586
  1332 -9.85365 -4.73667 -11.3498
  1333 -9.85050 -4.73015 11.3541
  1334 -90.3283 -0.0898160 3.76061
  1335 -90.4790 -0.0894632 -3.76554
  1336 -16.5479 -7.48217 -27.4067
  1337 -16.5305 -7.44228 27.3730
  1338 -48.9440 0.421682 1.52625
  1339 -49.0742 0.421436 -1.52777
  1340 -141.598 1.24316 0.608688
  1341 -141.780 1.24364 -0.609332
  1342 582.280 -67.5896 111.647
  1343 435.337 -1.97033 -45.5065
</Section>

newXOutput 70

<Section columns = "stress_xx | stress_yy | stress_xy">
  1 509.416 -0.948034 0.547601
  2 509.598 -0.948775 -0.547879
  3 -155.358 0.683876 -2.14326
  4 0.246563 0.0556428 0.441575
  5 911.365 288.199 306.226
  6 1030.90 323.832 -295.315
  7 0.245346 0.0545507 -0.439955
  8 -155.164 0.683738 2.14204
  9 507.945 -0.909156 -1.69496
  10 508.403 -1.71542 -2.71675
  11 513.161 -1.72160 -0.761055
  12 513.772 -1.70098 -3.24495
  13 515.246 -1.68770 -1.07672
  14 525.863 -1.56000 -1.46518
  15 529.690 -2.18793 -4.36003
  16 533.963 -1.14419 -3.03079
  17 536.842 -0.122867 -5.83969
  18 558.312 -3.30691 -4.99551
  19 567.904 -2.65364 -6.37633
  20 578.702 -3.86170 -2.75129
  21 584.261 -4.99597 -1.87747
  22 581.652 -5.62814 6.70237
  23 564.039 -6.16434 14.5454
  24 522.134 -6.55132 31.6876
  25 452.867 4.23700 37.0676
  26 396.736 5.35968 34.1449
  27 317.649 9.93661 20.6518
  28 336.680 9.64942 2.23857
  29 286.785 28.2158 -12.9385
  30 378.746 13.2136 -37.7296
  31 428.245 3.55873 -30.7388
  32 512.672 -1.22634 -26.6654
  33 558.455 -7.47495 -17.5490
  34 581.037 -6.54477 -6.63822
  35 583.363 -4.85304 1.92717
  36 578.109 -3.81554 2.61297
  37 567.723 -2.66822 6.21077
  38 558.316 -3.34464 4.90369
  39 536.970 -0.143737 5.79927
  40 534.131 -1.15205 3.01702
  41 529.877 -2.19325 4.35719
  42 526.054 -1.56289 1.46423
  43 515.432 -1.68978 1.07713
  44 513.958 -1.70278 3.24744
  45 513.346 -1.72301 0.761982
  46 508.584 -1.71669 2.71881
  47 508.126 -0.909892 1.69624
  48 481.342 0.853030 -0.655642
  49 446.728 -0.196268 -1.42121
  50 403.303 -2.32722 -1.37964
  51 358.104 0.173779 -1.14735
  52 318.323 -0.271558 -0.903936
  53 275.598 1.07776 -1.06222
  54 233.270 3.31483 -0.603752
  55 189.165 2.86304 -1.32687
  56 152.474 1.73901 -1.88653
  57 104.174 0.808137 -1.98797
  58 54.9854 1.95555 -1.52322
  59 13.8472 1.65204 -1.47359
  60 -37.5919 0.862187 -1.33061
  61 -75.8469 -0.769118 -3.37394
  62 -112.926 -2.67766 -1.52817
  63 -150.606 0.258284 1.07896
  64 -158.853 2.71517 -0.338705
  65 -159.539 1.16979 0.552315
  66 -154.286 0.551436 -0.100822
  67 -156.309 1.73058 -1.84683
  68 -153.998 2.12101 -0.0390643
  69 -145.811 0.620025 -2.86874
  70 -147.952 1.31413 -3.10643
  71 -144.449 1.23690 -1.68180
  72 -133.878 0.753802 -2.60163
  73 -129.297 1.41282 -4.39479
  74 -121.601 1.59802 -3.56449
  75 -107.811 0.808697 -6.32722
  76 -100.117 0.252406 -5.28126
  77 -86.0534 0.361235 -6.13934
  78 -73.9966 0.300164 -6.84494
  79 -63.4039 0.109923 -5.40458
  80 -48.6029 0.326475 -5.45801
  81 -35.8064 -0.119652 -5.85885
  82 -23.4156 -0.626160 -5.17286
  83 -13.5692 -0.551192 -3.98041
  84 -6.70198 -0.979046 -3.33885
  85 -1.17110 -0.567126 -1.20802
  86 0.0387882 -0.639376 -0.442019
  87 -0.343306 -0.366020 -0.101792
  88 -0.889165 -0.962344 -1.06062
  89 -0.864757 -5.67877 -2.90412
  90 -0.729360 -12.6616 -4.11469
  91 -0.370809 -21.5016 -5.98514
  92 -0.184852 -32.9763 -5.15594
  93 -0.136526 -43.4713 -6.48316
  94 -0.783354 -56.2036 -7.29221
  95 -0.321822 -71.9762 -7.33437
  96 0.147409 -87.8542 -7.00750
  97 0.340938 -104.832 -6.89878
  98 0.534278 -122.229 -6.75821
  99 0.00158870 -134.804 -9.12518
  100 0.875281 -152.900 -8.14667
  101 1.09790 -174.018 -6.39425
  102 -0.150167 -182.795 -8.47231
  103 1.55463 -197.610 -7.76846
  104 3.92379 -217.208 -3.17425
  105 7.70994 -221.150 -5.06019
  106 5.70808 -197.759 7.58528
  107 8.79659 -141.401 26.8329
  108 40.4848 -64.5239 72.5158
  109 123.212 217.588 228.495
  110 1395.69 78.0191 140.855
  111 1202.12 22.1987 50.7222
  112 1163.44 7.55674 11.8305
  113 1154.90 1.94414 -1.84471
  114 1163.02 11.9962 -26.7066
  115 1201.20 40.6407 -60.5976
  116 1360.51 152.562 -179.248
  117 298.712 171.030 -277.988
  118 69.0310 -64.3951 -86.6030
  119 20.5234 -155.086 -33.5022
  120 5.79728 -186.844 -7.97790
  121 6.26460 -212.480 2.13030
  122 1.74419 -208.455 2.18352
  123 0.572401 -192.620 6.45066
  124 0.654014 -181.847 5.07378
  125 0.958502 -164.296 9.13803
  126 -0.0456688 -154.369 8.99664
  127 0.378288 -139.623 6.45451
  128 0.759974 -120.797 8.30095
  129 0.160944 -107.315 6.57255
  130 0.217408 -87.9201 8.31205
  131 -0.878769 -72.8561 7.15698
  132 -0.600368 -56.2467 7.06002
  133 -0.0912798 -43.2239 6.49777
  134 -0.243095 -32.7835 5.16306
  135 -0.360899 -21.4383 5.92585
  136 -0.718444 -12.6534 4.09405
  137 -0.860103 -5.68750 2.90209
  138 -0.887920 -0.971889 1.06277
  139 -0.343239 -0.370092 0.104540
  140 0.0338128 -0.639948 0.444473
  141 -1.18035 -0.566740 1.21107
  142 -6.71544 -0.977981 3.34168
  143 -13.5867 -0.549371 3.98107
  144 -23.4285 -0.623920 5.17032
  145 -35.8074 -0.117797 5.85229
  146 -48.5899 0.326843 5.45038
  147 -63.3715 0.110887 5.39650
  148 -73.9463 0.301353 6.83542
  149 -85.9788 0.361239 6.12912
  150 -100.020 0.252383 5.27143
  151 -107.698 0.808159 6.31727
  152 -121.465 1.59698 3.55650
  153 -129.149 1.41164 4.38797
  154 -133.717 0.753014 2.59703
  155 -144.276 1.23601 1.67863
  156 -147.773 1.31343 3.10299
  157 -145.630 0.619797 2.86582
  158 -153.809 2.11991 0.0380277
  159 -156.118 1.72971 1.84516
  160 -154.094 0.551316 0.100362
  161 -159.343 1.16930 -0.552231
  162 -158.658 2.71386 0.338349
  163 -150.415 0.258381 -1.07852
  164 -112.756 -2.67576 1.52723
  165 -75.6988 -0.768120 3.37204
  166 -37.4652 0.862298 1.32972
  167 13.9455 1.65166 1.47267
  168 55.0611 1.95493 1.52232
  169 104.222 0.808166 1.98685
  170 152.496 1.73864 1.88553
  171 189.167 2.86227 1.32621
  172 233.247 3.31391 0.603462
  173 275.552 1.07812 1.06165
  174 318.253 -0.270502 0.903424
  175 358.011 0.174426 1.14669
  176 403.184 -2.32523 1.37891
  177 446.584 -0.195758 1.42042
  178 481.177 0.852778 0.655287
  179 139.729 23.2478 -8.41341
  180 139.637 23.2997 8.48034
  181 -1.09381 4.78805 36.8794
  182 -1.24803 4.74641 -36.9088
  183 312.954 -3.99993 -72.8572
  184 312.684 -4.57646 73.5792
  185 64.4431 16.4104 -6.84111
  186 63.6857 16.6590 6.84626
  187 49.2213 7.11946 -4.62227
  188 49.3059 7.11130 4.61911
  189 294.729 4.29106 -11.2597
  190 294.792 4.27731 11.2703
  191 -2.02075 11.5712 19.2478
  192 -2.14619 11.5979 -19.2777
  193 342.139 7.49294 -27.8649
  194 342.297 7.38967 27.9102
  195 -12.9247 -11.1617 30.2818
  196 -12.9243 -11.2307 -30.3257
  197 3.67797 -25.7406 -34.9319
  198 109.434 10.0583 -69.0408
  199 4.37838 -27.6028 34.0259
  200 107.726 10.8776 70.0197
  201 483.119 -61.7051 -104.923
  202 499.307 -64.1130 100.942
  203 176.940 4.57341 -2.50060
  204 176.931 4.57358 2.50404
  205 -23.0755 1.45068 -3.51521
  206 -22.9566 1.44973 3.51168
  207 -36.6520 5.96988 28.4714
  208 -36.7625 5.97995 -28.5276
  209 177.989 14.8927 -6.87583
  210 177.976 14.8970 6.89951
  211 56.1505 22.9138 11.2603
  212 55.9279 23.0469 -11.3240
  213 -45.7512 4.97913 -11.1536
  214 -45.6208 4.97087 11.1380
  215 388.186 -0.460338 5.19503
  216 388.076 -0.456548 -5.19244
  217 13.3361 -48.0114 12.7410
  218 14.4836 -43.1244 -10.8517
  219 -3.40471 -31.7430 33.9339
  220 -3.50543 -33.0481 -32.8932
  221 165.171 23.4059 -31.4381
  222 165.000 23.5260 31.7048
  223 -33.9394 0.0683668 29.2562
  224 -34.0021 0.0623389 -29.3038
  225 415.208 1.35997 -14.9077
  226 415.336 1.33032 14.9020
  227 448.116 -7.37959 -29.7513
  228 448.481 -7.80482 29.6726
  229 719.191 53.2139 0.900776
  230 660.059 75.3296 30.6814
  231 646.638 -0.817026 -49.7134
  232 83.2496 17.0521 5.31106
  233 83.1618 17.0812 -5.30480
  234 8.02540 14.7823 27.5449
  235 7.87674 14.8249 -27.5974
  236 500.731 -30.1723 -21.7812
  237 497.889 -30.5202 23.4365
  238 278.817 1.11819 -4.24452
  239 278.866 1.11559 4.24756
  240 -59.1869 4.25775 18.7398
  241 -59.3112 4.26721 -18.7722
  242 -8.40521 -8.25881 -13.7860
  243 -8.39622 -8.25194 13.7927
  244 -64.0308 1.30332 5.44655
  245 -64.1708 1.30530 -5.45330
  246 231.296 15.8755 -19.7063
  247 231.329 15.8528 19.7732
  248 293.067 7.90852 -42.1174
  249 293.270 7.78223 42.2913
  250 74.4351 3.58232 0.223592
  251 74.5009 3.58048 -0.223733
  252 171.217 9.27778 -144.473
  253 201.801 13.5132 156.579
  254 24.5777 11.6215 25.5351
  255 24.4730 11.8503 -25.6647
  256 676.446 -45.2988 -21.1029
  257 62.8028 22.1777 9.82706
  258 62.6714 22.2353 -9.83128
  259 168.370 18.8954 -56.2782
  260 168.031 19.3260 56.8121
  261 759.177 110.825 2.51747
  262 450.243 -0.690407 20.1611
  263 450.061 -0.567557 -20.2056
  264 -3.99658 -24.9684 -21.4683
  265 -3.87131 -25.0643 21.5501
  266 -0.765959 -58.7576 -29.0992
  267 2.25780 -67.5918 -26.0436
  268 1.25236 -68.0735 27.6041
  269 -10.6135 -9.11497 38.4760
  270 -10.6645 -9.10622 -38.6428
  271 25.4186 -49.5835 -14.0291
  272 27.3983 -45.1466 18.3523
  273 -25.8089 -2.10753 18.8277
  274 -25.8273 -2.11778 -18.8477
  275 322.945 7.58923 -17.5939
  276 323.040 7.55043 17.6108
  277 561.907 -55.9053 -9.22521
  278 128.461 9.54243 1.11704
  279 128.501 9.53664 -1.11137
  280 -1.36237 -55.2093 27.8647
  281 15.7652 11.0642 11.7959
  282 15.6542 11.0843 -11.8098
  283 886.907 60.7027 -27.0448
  284 435.580 -0.544631 6.29127
  285 435.444 -0.538159 -6.29035
  286 297.845 -12.2381 -108.661
  287 300.293 -12.0165 110.190
  288 561.236 -53.0937 0.153964
  289 -52.1564 1.70688 22.9975
  290 -52.2352 1.70644 -23.0374
  291 547.410 -36.5379 175.432
  292 -22.3123 4.31958 34.5853
  293 -22.4106 4.31134 -34.6543
  294 96.6520 26.4009 -10.8196
  295 96.2722 26.6431 10.9087
  296 -92.4826 0.530167 0.905601
  297 -92.6401 0.529965 -0.906733
  298 462.336 19.4567 -237.026
  299 -88.4193 1.71275 -9.94345
  300 -88.2770 1.70896 9.92737
  301 -1.78542 -10.3555 38.7233
  302 -0.349923 -10.0107 -38.2354
  303 207.995 20.1210 -28.2659
  304 207.988 20.1269 28.4233
  305 49.0010 4.46917 3.49073
  306 48.9197 4.47290 -3.49341
  307 215.605 6.84733 -6.35724
  308 215.618 6.84446 6.36570
  309 21.3942 -12.4317 17.9681
  310 19.5156 -15.3830 -18.2888
  311 209.311 2.33708 -1.70868
  312 209.320 2.33690 1.71015
  313 -73.4665 1.93101 16.7147
  314 -73.5708 1.93374 -16.7450
  315 53.9469 -1.31858 -16.9828
  316 52.4023 -1.40433 15.5735
  317 453.202 -1.07302 1.76547
  318 453.054 -1.07171 -1.76397
  319 982.499 55.1456 41.3599
  320 107.503 12.8614 1.03149
  321 107.445 12.8745 -1.02337
  322 -17.6350 4.52434 7.35595
  323 -17.7529 4.53111 -7.36521
  324 146.261 18.3514 -5.91358
  325 146.212 18.3704 5.95114
  326 18.9533 15.5155 28.3516
  327 18.8305 15.5459 -28.4389
  328 2.26373 -98.2399 18.8694
  329 -96.2581 -0.0287635 -2.17059
  330 -96.0994 -0.0284845 2.16803
  331 348.827 -0.278571 -3.41013
  332 348.915 -0.280446 3.41213
  333 367.192 1.25681 -9.03800
  334 367.292 1.24600 9.04122
  335 -90.3423 1.39222 -7.06158
  336 -90.1913 1.38991 7.05223
  337 3.17072 1.13695 0.642518
  338 3.06640 1.13717 -0.643487
  339 -2.04127 -41.2240 21.3593
  340 -1.61529 -42.8822 -21.3287
  341 415.823 -33.4141 -73.9759
  342 431.408 -40.0095 72.7060
  343 248.607 10.5749 -12.3373
  344 248.645 10.5608 12.3582
  345 112.059 25.4173 -7.06769
  346 111.861 25.5360 7.13807
  347 -34.7053 7.06326 16.0905
  348 -34.8317 7.07804 -16.1161
  349 762.066 24.7503 29.8898
  350 42.5982 -50.1884 -51.1175
  351 45.5501 -45.7566 53.2356
  352 -13.6763 11.8164 26.2433
  353 -13.8070 11.8431 -26.2922
  354 -20.5819 -3.90143 34.2328
  355 -20.6407 -3.91369 -34.2996
  356 865.173 150.387 -50.3837
  357 564.036 -5.43190 64.6608
  358 521.008 -12.8211 -14.1461
  359 520.666 -12.5210 13.3884
  360 368.973 -4.98827 -47.3139
  361 368.528 -5.31888 47.3507
  362 0.721192 -118.372 -15.0295
  363 475.511 0.371351 -11.2173
  364 475.658 0.337631 11.1928
  365 6.45603 -110.169 10.8099
  366 563.452 44.5241 -32.6869
  367 139.657 3.41846 1.22982
  368 139.628 3.41968 -1.23035
  369 370.477 1.57393 -35.0998
  370 370.710 1.41295 35.1594
  371 397.140 1.99555 -21.0734
  372 397.281 1.92392 21.0669
  373 -2.83313 3.80357 4.72880
  374 -2.94235 3.80761 -4.73408
  375 232.275 12.8447 -57.0134
  376 232.302 12.9976 57.4782
  377 466.808 -0.879117 2.87924
  378 466.653 -0.877160 -2.87739
  379 270.196 13.4498 -29.1742
  380 270.288 13.3826 29.2770
  381 309.612 3.37157 7.56476
  382 309.545 3.37700 -7.55986
  383 -14.6984 -2.60832 11.6993
  384 -14.6991 -2.61559 -11.7009
  385 -3.52224 -2.49551 -3.45888
  386 -3.52370 -2.49651 3.46407
  387 624.616 -72.7838 51.1145
  388 -7.91918 -19.2452 31.4997
  389 -7.86284 -19.4184 -31.5086
  390 106.625 5.54740 -0.855158
  391 106.675 5.54415 0.856167
  392 -3.08375 -15.6106 11.7604
  393 -3.11978 -15.5876 -11.7630
  394 43.0954 17.3830 12.5333
  395 42.9793 17.4201 -12.5448
  396 510.340 -2.91862 14.9390
  397 510.132 -2.74570 -15.1540
  398 -0.822513 -29.1688 37.2377
  399 -41.7853 -0.699120 17.7244
  400 -41.8215 -0.703279 -17.7496
  401 -0.984639 -30.8805 -36.8244
  402 477.977 -0.517659 7.15774
  403 477.821 -0.507731 -7.16250
  404 -2.51842 11.1752 33.3099
  405 -2.68876 11.2057 -33.3873
  406 356.736 3.91045 -14.2608
  407 356.836 3.88663 14.2653
  408 546.809 -23.2568 -9.15534
  409 548.101 -18.9327 6.62650
  410 -1.04360 -56.0355 -23.3230
  411 51.8840 19.7134 -6.85108
  412 52.3058 19.5180 6.77918
  413 555.545 35.8732 20.1244
  414 313.572 -12.6187 -149.187
  415 321.531 -18.2905 155.812
  416 21.6508 16.8415 20.4834
  417 21.5157 16.8842 -20.5154
  418 231.345 4.79492 -4.35286
  419 231.367 4.79359 4.35704
  420 224.888 50.7443 235.891
  421 95.8893 20.9821 -2.80351
  422 95.9918 20.9362 2.82234
  423 6.22146 -50.8833 23.8026
  424 -0.668268 -90.7806 -20.0108
  425 39.5237 20.9775 18.4350
  426 39.3691 21.0399 -18.4745
  427 49.1921 11.2977 -7.19946
  428 49.2838 11.2816 7.19518
  429 -14.4237 -0.197318 -38.1583
  430 -14.3267 -0.219075 38.0855
  431 113.758 22.9355 -25.4291
  432 113.268 23.2599 25.6401
  433 552.284 -16.6651 -49.2753
  434 16.9559 -3.53887 27.7076
  435 16.4293 -3.42603 -27.9098
  436 402.549 -17.4749 -52.2454
  437 404.136 -18.6402 52.2022
  438 -97.7510 0.723031 -9.91092
  439 -97.6178 0.720582 9.89348
  440 -0.00429765 -89.4606 18.0913
  441 -0.615368 -56.9650 20.7930
  442 -39.4738 2.76919 29.3780
  443 -39.5562 2.76673 -29.4303
  444 288.627 0.969583 -1.60866
  445 288.681 0.968567 1.60973
  446 -8.47180 -13.3950 21.5879
  447 -8.48831 -13.4282 -21.5687
  448 183.307 11.7474 -82.3811
  449 182.913 12.5250 83.2166
  450 1.52806 -107.005 -19.3139
  451 980.400 32.8730 0.377513
  452 2.89949 -124.279 -9.80253
  453 -113.785 -0.216974 -3.37354
  454 -113.618 -0.216953 3.36966
  455 -42.9844 6.38206 23.4039
  456 -43.1056 6.39554 -23.4476
  457 -52.3884 0.777994 17.7238
  458 -52.4421 0.777422 -17.7510
  459 199.660 19.1909 -19.8370
  460 199.653 19.2017 19.9323
  461 298.548 10.2990 -22.5381
  462 298.645 10.2415 22.5834
  463 -4.46654 -17.4848 38.6084
  464 -4.47368 -17.3694 -38.7741
  465 521.687 10.9641 -62.0090
  466 37.1020 -5.60684 -1.95941
  467 35.8028 -5.92527 2.63147
  468 8.64295 -109.145 -4.45667
  469 5.65789 -127.888 0.394595
  470 -15.4613 -6.83819 22.1957
  471 -15.4713 -6.86440 -22.2084
  472 112.503 4.09039 -126.179
  473 777.578 14.0163 -87.8065
  474 181.992 10.1295 6.44100
  475 182.000 10.1290 -6.42700
  476 263.275 3.59152 -78.5797
  477 263.790 3.51830 79.6669
  478 79.7262 26.4981 4.95957
  479 79.5647 26.5892 -4.95378
  480 238.011 16.9693 -42.4332
  481 238.080 16.9018 42.7112
  482 10.1594 5.84307 33.6194
  483 10.6853 6.10763 -33.5792
  484 -101.399 1.38252 -7.08250
  485 -101.246 1.38056 7.07206
  486 515.255 -58.4013 -44.1225
  487 407.160 -0.863439 -2.38987
  488 407.281 -0.864778 2.39151
  489 26.7767 2.05301 -1.74649
  490 26.8685 2.05172 1.74454
  491 -23.3481 9.35145 21.3952
  492 -23.4751 9.37269 -21.4316
  493 -55.2588 3.25875 -7.37186
  494 -55.1237 3.25413 7.36196
  495 182.138 16.1226 -9.76668
  496 182.126 16.1261 9.80319
  497 -19.2873 8.39308 30.8354
  498 -19.4133 8.41127 -30.9011
  499 471.362 -13.9840 -28.2086
  500 472.175 -14.6154 27.9083
  501 312.704 2.79441 -52.5536
  502 312.208 2.60980 52.9796
  503 119.442 4.12201 -0.369876
  504 119.483 4.12033 0.370140
  505 1.52079 -54.1690 -31.2608
  506 554.179 -19.0046 40.2380
  507 8.30905 -34.2417 -27.2265
  508 161.276 24.8371 20.8586
  509 161.394 24.7558 -20.7058
  510 509.677 -54.6345 43.6945
  511 40.9258 -38.5293 68.5686
  512 604.023 -71.3916 -84.7892
  513 413.341 0.446590 25.4339
  514 413.145 0.590085 -25.4398
  515 1.50301 -46.1433 32.5391
  516 -8.11985 -2.39939 -6.30006
  517 -8.12287 -2.39786 6.30414
  518 55.4644 1.70262 -0.398877
  519 55.5401 1.70208 0.398336
  520 -1.37110 -32.0319 13.7929
  521 -1.24391 -31.8861 -13.8669
  522 340.856 2.02616 5.85005
  523 340.773 2.02899 -5.84682
  524 946.521 174.418 80.8613
  525 41.7540 -19.4348 -16.9198
  526 32.6349 -27.9453 10.0999
  527 -5.45263 6.77870 -9.94714
  528 -5.33764 6.76686 9.93447
  529 -81.8905 1.28409 10.5438
  530 -81.9782 1.28551 -10.5618
  531 0.858273 -100.681 19.4572
  532 -111.094 0.806989 0.802875
  533 -111.261 0.807036 -0.804099
  534 108.891 0.381951 -93.9058
  535 106.590 1.98997 97.2986
  536 100.060 19.3897 -34.8541
  537 99.3164 19.8064 35.0337
  538 -21.7786 -4.39052 30.1032
  539 -21.8174 -4.41139 -30.1523
  540 99.3512 7.43712 0.721935
  541 99.2954 7.44258 -0.720050
  542 -43.9047 1.80667 2.85929
  543 -44.0347 1.80806 -2.86327
  544 116.147 15.3813 -0.0746526
  545 116.085 15.4007 0.0906583
  546 -2.22850 -7.34059 5.39752
  547 -2.23642 -7.33467 -5.39668
  548 43.3109 18.7540 15.7249
  549 43.0264 18.9992 -15.8357
  550 34.9782 7.46400 13.2785
  551 34.4987 7.42377 -13.5787
  552 416.630 1.75778 10.6657
  553 416.504 1.77012 -10.6654
  554 370.470 3.50817 17.2710
  555 370.356 3.54868 -17.2684
  556 -0.376018 -86.3974 -12.6187
  557 262.257 11.5408 -17.6777
  558 262.312 11.5141 17.7139
  559 262.412 4.47986 -6.95904
  560 262.453 4.47416 6.96608
  561 -29.9119 0.703883 0.177778
  562 -29.7895 0.704046 -0.178102
  563 461.004 23.8478 -11.9333
  564 580.114 -69.8854 -34.3295
  565 489.299 23.4473 46.3758
  566 4.27341 -70.9997 -21.9593
  567 -21.6987 7.75000 -13.6195
  568 -21.5758 7.73576 13.6004
  569 4.63782 -40.7116 30.1762
  570 -24.6839 1.05615 34.0862
  571 -24.7622 1.05022 -34.1452
  572 743.186 71.1693 5.50906
  573 173.124 6.43459 -3.35416
  574 173.112 6.43520 3.35963
  575 1100.10 95.0607 -100.330
  576 -4.38212 -3.32924 39.3014
  577 -3.97535 -3.02731 -39.3220
  578 612.863 -50.7905 17.4444
  579 491.157 -0.297172 -12.4160
  580 491.305 -0.354840 12.3647
  581 231.919 2.89609 -113.245
  582 234.527 2.15691 114.856
  583 -12.1747 -11.6251 34.7496
  584 -12.1893 -11.6897 -34.8487
  585 123.459 13.6950 62.4934
  586 124.480 12.8298 -62.0509
  587 -95.2288 1.06864 -9.76555
  588 -95.1073 1.06685 9.74827
  589 721.834 68.4757 30.2687
  590 142.469 11.4877 2.43213
  591 142.502 11.4810 -2.42172
  592 167.562 21.0132 -43.4803
  593 167.311 21.2607 43.8800
  594 446.841 -2.05804 -24.7480
  595 447.095 -2.26154 24.7146
  596 -1.81642 -44.2866 -31.1433
  597 482.016 -1.08281 3.75552
  598 481.852 -1.08015 -3.75397
  599 -65.3954 1.00323 -0.982559
  600 -65.2535 1.00301 0.980800
  601 -119.316 -1.03216 -0.0388264
  602 -119.489 -1.03314 0.0385824
  603 11.1379 -63.3368 -8.09077
  604 -4.40184 -29.0006 26.9783
  605 -4.64282 -27.4030 -27.1569
  606 -53.6697 3.44130 24.3416
  607 -53.7663 3.44552 -24.3857
  608 342.001 6.84997 21.9791
  609 341.884 6.91220 -21.9607
  610 253.186 1.68273 1.60455
  611 253.152 1.68298 -1.60350
  612 59.4553 -9.87406 41.4694
  613 61.2270 -8.64309 -41.1319
  614 -1.71781 -22.3751 11.6827
  615 -1.77320 -22.3068 -11.7238
  616 577.016 55.7048 253.694
  617 -28.8234 -0.851630 10.7842
  618 -28.8285 -0.855905 -10.7944
  619 11.2306 -37.9829 -21.0979
  620 248.228 8.16304 -9.50589
  621 248.262 8.15481 9.51871
  622 124.381 25.7378 -16.6450
  623 124.126 25.8994 16.7892
  624 1.17842 -149.486 6.66494
  625 94.2736 24.5188 1.75675
  626 94.1492 24.5853 -1.73401
  627 -5.89958 9.84244 16.4287
  628 -6.02114 9.86287 -16.4523
  629 -0.687184 -75.9147 17.2075
  630 -120.274 -0.00679866 -3.40314
  631 -120.106 -0.00700228 3.39893
  632 165.412 2.86484 1.31531
  633 165.427 2.86465 -1.31368
  634 406.026 0.0108205 7.16791
  635 405.907 0.0168017 -7.16530
  636 361.897 -18.2447 194.166
  637 291.577 5.65712 -13.7790
  638 291.642 5.63640 13.7945
  639 5.95854 -4.52831 35.6769
  640 7.09856 -2.01361 -35.5254
  641 463.017 -40.3819 -158.011
  642 1066.30 35.9205 -41.6546
  643 -112.042 0.0234446 -6.65658
  644 -111.896 0.0223665 6.64584
  645 32.3880 5.29366 -4.16967
  646 32.4792 5.28813 4.16588
  647 -2.04207 -47.2726 27.6471
  648 628.754 40.9860 -54.3561
  649 476.405 -1.30168 0.683534
  650 476.243 -1.30056 -0.682795
  651 -30.4757 -1.54281 -24.8611
  652 -30.4374 -1.53412 24.8256
  653 -0.104518 -107.392 -16.2994
  654 484.442 -1.24919 1.45199
  655 484.275 -1.24800 -1.45060
  656 49.2232 14.8437 10.3874
  657 49.1202 14.8706 -10.3939
  658 376.570 -30.4644 -104.657
  659 383.022 -30.2947 105.723
  660 541.562 -3.92281 8.81404
  661 541.556 -3.89264 -9.12657
  662 2.42695 -134.092 12.1660
  663 -24.5075 0.392724 -1.61841
  664 -24.3880 0.392814 1.61646
  665 180.610 36.1305 -186.336
  666 171.841 2.38176 1.56800
  667 171.852 2.38125 -1.56698
  668 87.3973 5.01321 -0.0312956
  669 87.3377 5.01622 0.0316230
  670 102.813 9.67612 0.115060
  671 102.870 9.66779 -0.110113
  672 321.734 7.75450 -34.0303
  673 321.910 7.63400 34.1212
  674 88.3699 25.1834 -2.65247
  675 88.0982 25.3577 2.67582
  676 -54.1658 4.03421 -13.1744
  677 -54.0337 4.02519 13.1544
  678 -64.1091 4.45406 -15.2560
  679 -63.9784 4.44529 15.2305
  680 558.039 -8.71546 -0.391127
  681 1.30636 -21.1057 -37.0193
  682 558.586 -9.13885 -0.299010
  683 716.284 55.0223 -4.28878
  684 -69.5850 0.344807 12.0469
  685 -69.6529 0.344310 -12.0670
  686 76.9504 22.7411 -8.25770
  687 76.4050 22.9975 8.29484
  688 -128.945 -0.0243410 -1.09437
  689 -128.769 -0.0241805 1.09268
  690 1.80960 -18.8279 36.9980
  691 -43.0445 0.722796 25.9189
  692 -43.1134 0.719538 -25.9619
  693 613.913 -47.3169 -19.6942
  694 101.982 1.30762 -0.955782
  695 101.932 1.30788 0.956228
  696 26.9108 8.30320 7.42501
  697 26.8121 8.31462 -7.43160
  698 329.279 -13.7755 -88.0472
  699 331.595 -14.3221 89.6382
  700 1110.76 79.8547 90.7124
  701 23.1111 -90.8139 -42.0646
  702 -7.68488 -16.4531 37.0167
  703 -7.69092 -16.5257 -37.1105
  704 73.0308 14.4329 -4.72838
  705 73.1139 14.4126 4.73066
  706 498.037 -1.09712 -3.80283
  707 498.209 -1.10028 3.80278
  708 242.383 2.55756 3.09913
  709 242.355 2.55902 -3.09647
  710 22.7337 18.0222 24.9966
  711 22.5865 18.0749 -25.0523
  712 17.3407 3.74267 2.90872
  713 17.2433 3.74552 -2.91179
  714 -12.7239 3.98591 37.1278
  715 -12.8350 3.97833 -37.2146
  716 411.532 -1.36539 3.06548
  717 411.409 -1.36299 -3.06352
  718 357.997 1.75795 8.25182
  719 357.904 1.76414 -8.24789
  720 50.6096 -23.8115 49.0745
  721 51.9680 -26.0583 -47.5913
  722 -26.0236 6.26557 32.3547
  723 -26.1341 6.27056 -32.4219
  724 16.0029 -30.5897 15.6956
  725 3.22313 11.3933 33.4102
  726 3.04536 11.4179 -33.4674
  727 -75.4552 2.03696 -8.63076
  728 -75.3126 2.03310 8.61787
  729 66.6028 19.6715 9.02377
  730 66.4868 19.7155 -9.02280
  731 554.613 -16.3466 -26.8960
  732 524.880 -44.8050 -17.0171
  733 -8.28064 -16.9894 26.5754
  734 -8.27244 -17.0741 -26.5462
  735 208.260 4.47993 -133.485
  736 203.039 8.70769 134.560
  737 128.320 24.4044 -23.8985
  738 127.984 24.6392 24.1143
  739 11.8894 -17.6525 28.4495
  740 -0.720130 -56.4998 -15.0754
  741 263.086 13.2445 -32.5809
  742 263.191 13.1810 32.7305
  743 0.637245 -110.448 13.8019
  744 158.905 20.4364 -10.7235
  745 158.855 20.4606 10.7838
  746 524.026 -0.973689 -9.37477
  747 524.139 -1.03314 9.27241
  748 10.9073 -141.566 6.17721
  749 242.449 16.6011 25.0131
  750 242.398 16.6328 -24.9194
  751 67.9013 23.8178 -3.09227
  752 68.2514 23.5893 3.04805
  753 -94.2797 0.617492 -8.30652
  754 -94.1748 0.616817 8.29127
  755 267.221 3.03891 -5.96473
  756 267.263 3.03554 5.96949
  757 167.767 22.9183 -17.7772
  758 167.693 22.9638 17.8900
  759 4.10476 14.3325 25.3410
  760 3.96660 14.3705 -25.3862
  761 526.417 -38.4341 10.5107
  762 -77.5237 1.50405 6.50362
  763 -77.6700 1.50603 -6.51139
  764 1109.37 229.614 -163.047
  765 -26.2955 2.66040 6.53782
  766 -26.4168 2.66408 -6.54528
  767 446.147 0.206442 17.4989
  768 445.995 0.275539 -17.5297
  769 828.714 49.9839 -0.612109
  770 502.158 -1.88285 -7.09404
  771 502.322 -1.89395 7.08495
  772 325.367 3.23994 10.5112
  773 325.290 3.25030 -10.5050
  774 485.120 -49.6873 144.206
  775 214.407 14.0387 -10.3882
  776 214.422 14.0328 10.4161
  777 5.16361 -80.2165 15.1963
  778 555.510 -66.4111 51.0048
  779 338.140 -0.491909 1.76471
  780 338.058 -0.490605 -1.76367
  781 439.425 -0.670259 0.933606
  782 439.285 -0.669359 -0.932809
  783 -1.89184 -44.1868 -25.9278
  784 2.90291 -73.7095 24.0645
  785 204.026 21.8527 34.7376
  786 204.055 21.8262 -34.5005
  787 1095.17 9.61770 10.0940
  788 346.147 1.97665 -42.0649
  789 346.371 1.83270 42.1792
  790 -69.0559 2.28727 18.0254
  791 -69.1735 2.29290 -18.0568
  792 15.5542 -56.5019 2.02058
  793 9.95064 -131.037 -13.0200
  794 781.308 102.546 -20.2405
  795 -0.662579 -56.3763 13.6164
  796 18.1058 12.4267 29.3314
  797 18.0427 12.4160 -29.4979
  798 109.163 19.9016 0.390895
  799 109.083 19.9362 -0.369265
  800 521.484 -24.1460 -10.5546
  801 522.734 -23.7901 8.99834
  802 605.729 110.907 -240.758
  803 -79.4965 0.609959 -2.71252
  804 -79.3479 0.609384 2.70860
  805 -39.5006 -0.135134 10.1227
  806 -39.5159 -0.137024 -10.1353
  807 40.2103 5.53820 5.91029
  808 39.3771 5.50286 -6.01589
  809 397.756 -3.15870 37.7413
  810 397.472 -2.85863 -37.6340
  811 205.413 3.86429 -2.14732
  812 205.420 3.86393 2.14990
  813 638.699 -4.49687 49.2125
  814 72.0538 9.86468 -4.30199
  815 72.1300 9.85330 4.30214
  816 65.7835 11.2903 -14.8914
  817 65.2033 11.5728 15.0194
  818 0.135148 -42.7033 -34.1574
  819 889.048 153.808 138.832
  820 -127.072 0.0680643 -3.44030
  821 -126.903 0.0679124 3.43544
  822 -0.183202 -133.755 12.7358
  823 10.6231 -17.4974 -28.8722
  824 -19.7456 -1.18027 7.59349
  825 -19.7395 -1.18354 -7.59689
  826 718.764 49.0268 -29.3108
  827 192.145 17.4731 -13.1303
  828 192.137 17.4774 13.1872
  829 493.953 -8.03084 -19.1194
  830 494.441 -8.08956 18.8939
  831 -121.995 0.852132 4.68808
  832 -122.153 0.853397 -4.69544
  833 -0.911476 -0.941219 -0.790109
  834 -0.913327 -0.942881 0.793251
  835 0.361578 -136.692 -12.3432
  836 0.623457 -142.355 -10.6683
  837 -132.426 1.18459 0.620337
  838 -132.607 1.18494 -0.621025
  839 78.6982 -12.1367 -90.5129
  840 308.500 2.22246 -3.25190
  841 308.565 2.22123 3.25395
  842 -4.47792 1.77552 0.811015
  843 -4.58638 1.77595 -0.811728
  844 453.605 0.311786 -11.5307
  845 453.748 0.288988 11.5197
  846 -51.8266 0.352119 9.59689
  847 -51.8571 0.352105 -9.61018
  848 279.551 12.8196 -197.494
  849 477.585 -40.0478 42.4828
  850 373.296 0.397859 -3.81294
  851 373.398 0.395839 3.81512
  852 473.508 -43.4462 -47.1021
  853 151.916 15.2642 -5.29899
  854 151.880 15.2744 5.32535
  855 207.605 11.8972 -8.12750
  856 207.614 11.8939 8.14581
  857 554.117 -11.6179 20.6008
  858 37.0598 20.5694 19.7797
  859 36.8952 20.6436 -19.8501
  860 40.1905 1.50461 1.24630
  861 40.1062 1.50522 -1.24761
  862 263.640 1.79790 2.82748
  863 263.601 1.79896 -2.82548
  864 677.804 -53.7290 84.7897
  865 426.864 1.29554 -15.2628
  866 427.004 1.25331 15.2480
  867 11.0947 5.77583 5.82438
  868 10.9912 5.78268 -5.83045
  869 426.774 -1.40511 4.38078
  870 426.642 -1.40204 -4.37834
  871 -74.2751 0.101290 -1.99016
  872 -74.1278 0.101803 1.98877
  873 -0.352647 -43.2503 12.1820
  874 -0.470158 -43.9253 -12.2707
  875 520.485 -6.06539 50.7907
  876 -28.8560 8.01305 26.9219
  877 -28.9780 8.03075 -26.9739
  878 -0.162062 -71.0019 -13.3778
  879 207.413 6.04166 -4.31501
  880 207.421 6.04117 4.32013
  881 378.214 -18.6320 -67.4858
  882 380.998 -20.5885 68.1227
  883 -15.3323 -5.10593 -37.1073
  884 -15.2561 -5.10244 37.0196
  885 23.6887 17.8838 22.8097
  886 23.5446 17.9333 -22.8503
  887 1.76330 -159.227 8.33492
  888 7.68106 14.3992 30.2336
  889 7.52652 14.4340 -30.2915
  890 349.779 -6.41545 -60.1167
  891 348.983 -6.64479 60.5863
  892 603.382 36.5567 57.2198
  893 141.858 14.1077 3.28579
  894 141.897 14.0982 -3.26913
  895 437.224 1.62291 -11.3633
  896 437.360 1.60612 11.3593
  897 -16.7202 -7.11360 32.8311
  898 -16.7570 -7.14432 -32.8970
  899 1.59892 -162.425 -4.68928
  900 -25.7478 -1.49006 32.0744
  901 -25.8063 -1.49678 -32.1288
  902 20.4523 15.8053 -17.6221
  903 20.5776 15.7689 17.5971
  904 -1.33965 -10.9785 6.05354
  905 -1.35513 -10.9681 -6.06286
  906 41.2994 17.8300 -15.2347
  907 41.4284 17.7849 15.2172
  908 9.23907 -11.2459 32.6368
  909 8.13552 -10.4455 -34.5156
  910 427.769 -12.8330 38.7005
  911 426.790 -12.2909 -38.8568
  912 -135.509 0.275702 -0.912091
  913 -135.328 0.275741 0.910972
  914 -12.1926 -1.07810 5.73864
  915 -12.1825 -1.08015 -5.73755
  916 0.562132 -100.732 -12.1250
  917 -12.9066 -5.48893 -16.2504
  918 -12.8998 -5.47426 16.2494
  919 -52.8176 4.62448 23.1634
  920 -52.9297 4.63346 -23.2065
  921 137.238 25.1977 -11.4236
  922 137.116 25.2817 11.5097
  923 577.698 44.3466 -7.33459
  924 -3.33618 12.6175 23.0059
  925 -3.46691 12.6477 -23.0445
  926 214.647 14.1287 -64.0478
  927 214.617 14.3225 64.6814
  928 -21.6700 8.62822 18.4670
  929 -21.7955 8.64821 -18.4973
  930 682.368 -26.5106 -2.89647
  931 430.622 17.1725 24.9591
  932 505.656 -5.33465 -45.9191
  933 374.314 3.61618 -25.5578
  934 374.472 3.51695 25.5720
  935 -35.3301 4.89768 -8.65259
  936 -35.2042 4.88997 8.64054
  937 -86.4332 1.50115 11.3603
  938 -86.5682 1.50496 -11.3800
  939 -5.28245 -17.2094 -18.8341
  940 -5.24282 -17.2204 18.8654
  941 136.485 7.30044 1.97939
  942 136.519 7.29698 -1.97509
  943 -40.1357 4.45432 29.0040
  944 -40.2320 4.45619 -29.0595
  945 444.641 -1.06378 5.67128
  946 444.499 -1.06020 -5.66876
  947 -3.24013 -37.5253 28.2248
  948 20.4645 14.3353 -14.9700
  949 20.5821 14.3064 14.9512
  950 27.3107 9.58437 9.42074
  951 27.2081 9.59992 -9.42989
  952 81.6848 6.14105 -1.57753
  953 81.7488 6.13641 1.57717
  954 832.992 116.676 -34.7643
  955 -3.39594 -0.914163 -2.30367
  956 -3.40317 -0.913986 2.30777
  957 31.0078 9.88421 -18.2720
  958 31.5193 9.66083 18.1638
  959 304.050 10.6761 -27.4577
  960 304.170 10.5980 27.5232
  961 42.8360 12.2114 -8.71254
  962 42.9349 12.1918 8.70603
  963 84.3403 -2.15472 118.072
  964 562.714 -4.32731 -5.22022
  965 562.084 -4.17032 4.74042
  966 103.844 -0.397868 104.314
  967 109.915 3.37445 -0.841320
  968 109.869 3.37586 0.841841
  969 278.387 -3.49598 -171.098
  970 210.299 2.07401 1.49750
  971 210.289 2.07381 -1.49652
  972 27.8312 -23.2668 2.08760
  973 30.7487 -18.9209 0.224217
  974 496.863 -0.816020 1.93958
  975 496.688 -0.814998 -1.93792
  976 -40.6682 0.215418 23.6898
  977 -40.7199 0.212283 -23.7250
  978 893.092 113.199 56.9350
  979 -3.47062 -27.5127 -36.8188
  980 5.08568 -130.659 19.7249
  981 -0.413345 -43.9752 33.8265
  982 514.403 -0.819635 -7.23716
  983 514.559 -0.835874 7.21663
  984 -6.78175 -12.4568 16.3040
  985 -6.80177 -12.4598 -16.2902
  986 651.992 69.8459 -28.2424
  987 1109.67 8.63873 -6.71924
  988 -1.68927 -2.60069 -2.50724
  989 -1.68731 -2.60617 2.51085
  990 303.201 1.98975 -6.07017
  991 303.263 1.98656 6.07400
  992 -3.52722 -26.3814 36.9704
  993 419.456 0.686782 22.5928
  994 419.293 0.789652 -22.6097
  995 551.705 -35.6148 -18.2479
  996 -19.1125 -3.91984 18.3190
  997 -19.1226 -3.93541 -18.3309
  998 9.88306 -33.3069 24.7043
  999 -0.775475 -66.9638 26.5697
  1000 -0.0841629 -70.4772 13.3704
  1001 575.912 36.2612 -3.52233
  1002 652.112 71.7911 14.1068
  1003 464.259 -51.1464 -81.1558
  1004 7.10008 -63.4315 19.6787
  1005 8.88781 -90.3479 2.16199
  1006 132.743 1.89718 0.182906
  1007 132.709 1.89767 -0.182964
  1008 -5.12080 -5.84431 -7.83992
  1009 -5.11584 -5.84474 7.84551
  1010 4.85143 -52.1559 -27.2341
  1011 372.656 -0.775733 -1.40149
  1012 372.758 -0.777066 1.40238
  1013 77.7959 3.73847 -41.3281
  1014 74.5061 3.91033 40.9395
  1015 -4.58121 11.8246 30.8282
  1016 -4.72887 11.8555 -30.8953
  1017 -41.0575 6.57707 -19.0301
  1018 -40.9309 6.56273 18.9981
  1019 288.616 4.56633 -61.9292
  1020 288.731 4.84088 62.5608
  1021 209.170 18.0570 -44.4574
  1022 209.117 18.0684 44.8274
  1023 225.943 14.7227 -15.6765
  1024 225.968 14.7072 15.7200
  1025 580.214 -13.4952 -57.8131
  1026 -13.4486 7.45525 34.3292
  1027 -13.5795 7.46324 -34.4155
  1028 409.939 -1.59295 31.0791
  1029 409.703 -1.36831 -31.0603
  1030 -2.09244 -20.2071 38.3272
  1031 -32.8219 -1.03142 17.6064
  1032 -32.8443 -1.03720 -17.6280
  1033 374.171 2.12506 -31.0088
  1034 374.365 1.98331 31.0395
  1035 472.909 12.3520 -41.7831
  1036 -0.393274 -66.4597 -27.8508
  1037 -5.24482 -26.0996 33.3899
  1038 -5.47307 -26.4357 -33.1201
  1039 266.053 14.0193 -23.1341
  1040 266.126 13.9734 23.2031
  1041 332.931 4.62793 12.9536
  1042 332.847 4.64464 -12.9463
  1043 550.580 -34.7956 15.6307
  1044 32.1551 1.84933 -0.325633
  1045 32.2434 1.84877 0.325225
  1046 469.120 -57.1522 86.5118
  1047 2.29815 1.14217 1.85006
  1048 2.19322 1.14268 -1.85209
  1049 104.920 25.5266 -2.67898
  1050 104.767 25.6177 2.72172
  1051 41.6707 20.2091 16.7881
  1052 41.5295 20.2633 -16.8134
  1053 5.43274 -79.3070 -15.8675
  1054 139.486 3.82849 1.13456
  1055 139.516 3.82734 -1.13235
  1056 421.950 13.3414 10.3621
  1057 376.620 1.51245 11.8873
  1058 376.514 1.52906 -11.8846
  1059 -1.68666 -21.0597 -38.3985
  1060 565.243 -7.36369 -10.1033
  1061 1.17944 -0.836732 37.5678
  1062 1.61827 -0.544249 -37.3655
  1063 510.973 -1.22165 -4.01552
  1064 511.151 -1.22552 4.01329
  1065 545.045 -2.22847 -7.08950
  1066 545.039 -2.29364 6.92882
  1067 -0.408822 -106.641 10.0048
  1068 324.057 6.68723 -17.0729
  1069 324.142 6.65817 17.0854
  1070 392.139 2.27916 13.7360
  1071 392.023 2.30144 -13.7358
  1072 10.7250 10.1253 33.1740
  1073 10.6644 10.1239 -33.2262
  1074 848.428 54.5597 10.4473
  1075 -10.0010 -4.01908 39.2579
  1076 -10.1791 -3.92053 -39.3665
  1077 125.887 23.1800 -4.04233
  1078 125.806 23.2243 4.08316
  1079 -63.5793 0.864620 -3.05844
  1080 -63.4388 0.864123 3.05486
  1081 204.733 12.9683 -73.5287
  1082 204.420 13.5184 74.3241
  1083 61.0213 22.8465 12.0484
  1084 60.8687 22.9149 -12.0623
  1085 140.080 17.7870 -55.5445
  1086 139.363 18.4486 55.9528
  1087 -3.47296 -35.2678 -27.5246
  1088 488.972 7.72223 55.8869
  1089 338.437 10.1708 220.448
  1090 57.3951 23.7527 12.3899
  1091 57.2189 23.8412 -12.4192
  1092 206.833 9.34899 -6.33865
  1093 206.841 9.34590 6.35090
  1094 732.742 11.3102 7.57099
  1095 49.9079 13.8231 5.99865
  1096 49.2919 13.9634 -6.19945
  1097 -21.5949 -4.63036 24.2802
  1098 -21.6167 -4.65319 -24.3083
  1099 -0.706476 -16.3697 6.59241
  1100 -0.735211 -16.3607 -6.61935
  1101 482.635 -1.41631 18.0310
  1102 482.426 -1.25029 -18.1314
  1103 1.15949 -32.8565 35.7951
  1104 -32.1264 2.32522 -31.8532
  1105 -32.0469 2.33056 31.7973
  1106 0.152992 -128.149 -12.4760
  1107 -6.86748 -9.82132 39.2059
  1108 -6.84297 -9.59413 -39.2475
  1109 460.501 -0.291354 -7.59278
  1110 460.650 -0.299140 7.59237
  1111 476.849 -4.62753 21.9048
  1112 476.497 -4.35608 -22.0001
  1113 86.5972 20.3784 -21.1886
  1114 85.9462 20.7285 21.3284
  1115 -1.07575 -66.0373 -22.8674
  1116 625.698 -48.8058 -131.333
  1117 810.115 114.067 16.9557
  1118 8.94926 -94.8401 1.20365
  1119 31.6798 17.5479 -23.0140
  1120 31.8645 17.4582 22.8686
  1121 81.5112 25.4740 3.53710
  1122 81.3105 25.5905 -3.53229
  1123 168.970 8.46665 3.27014
  1124 168.986 8.46556 -3.26194
  1125 -10.2732 -14.6344 31.3537
  1126 -10.2604 -14.7805 -31.4085
  1127 -27.5786 9.29307 24.6032
  1128 -27.7039 9.31386 -24.6471
  1129 -8.27419 11.9835 28.4347
  1130 -8.41150 12.0127 -28.4914
  1131 457.343 -23.5129 -38.3761
  1132 460.161 -23.6445 38.1344
  1133 0.545755 -74.9861 -26.2835
  1134 247.901 1.01070 -91.0368
  1135 248.219 1.76182 92.4279
  1136 81.5916 22.7647 -5.02826
  1137 81.7075 22.7090 5.03827
  1138 242.512 139.618 245.373
  1139 64.7402 18.0053 8.70089
  1140 64.6353 18.0398 -8.70136
  1141 620.026 -63.3854 -36.3873
  1142 238.121 5.01253 4.94746
  1143 238.095 5.01548 -4.94192
  1144 -10.4765 -9.30839 19.3357
  1145 -10.4856 -9.33221 -19.3321
  1146 -12.4409 -11.1128 24.9209
  1147 -12.4436 -11.1590 -24.9275
  1148 410.878 -38.8009 -125.930
  1149 418.634 -42.9337 126.814
  1150 77.8404 1.79905 1.34722
  1151 77.9040 1.79841 -1.34672
  1152 260.573 11.6473 -50.8724
  1153 260.543 11.5145 51.3358
  1154 558.174 -70.2649 97.9165
  1155 492.988 -1.42569 1.11149
  1156 492.816 -1.42455 -1.11042
  1157 -41.9649 6.91866 22.0331
  1158 -42.0893 6.93311 -22.0716
  1159 -73.1124 2.14357 -11.3153
  1160 -72.9729 2.13870 11.2993
  1161 131.349 12.6752 151.392
  1162 408.061 26.4238 -21.1046
  1163 238.369 15.7169 -26.0363
  1164 238.423 15.6869 26.1589
  1165 718.798 -9.04459 142.346
  1166 242.368 15.3919 -37.6752
  1167 242.429 15.3321 37.8871
  1168 63.9683 6.72033 -2.82220
  1169 64.0432 6.71435 2.82074
  1170 21.8657 -69.0369 17.9215
  1171 22.0721 -66.8670 -23.7271
  1172 326.888 -20.1932 -127.258
  1173 331.168 -18.7209 127.075
  1174 130.420 22.4408 -39.9024
  1175 129.869 22.8592 40.2349
  1176 569.720 -36.2274 -36.4546
  1177 -19.8531 -1.31803 36.0108
  1178 -19.9316 -1.31930 -36.0788
  1179 0.0654407 -29.2553 -36.8095
  1180 149.072 8.48141 -96.7467
  1181 149.376 8.85047 98.2601
  1182 -0.360918 -28.9398 7.32563
  1183 -0.309019 -29.0116 -7.41786
  1184 -133.448 1.08071 -3.27716
  1185 -133.279 1.07988 3.27225
  1186 449.451 -1.01459 -2.20307
  1187 449.596 -1.01629 2.20475
  1188 282.104 8.83383 -15.1688
  1189 282.169 8.80790 15.1923
  1190 -9.09065 0.625855 39.0480
  1191 -9.11838 0.791579 -39.1258
  1192 -0.00474629 -114.957 -11.0809
  1193 -114.058 0.241210 5.46593
  1194 -114.196 0.241857 -5.47579
  1195 93.0973 3.59633 -69.4104
  1196 92.4430 4.17216 71.4472
  1197 528.214 -32.1014 -4.74506
  1198 155.073 12.8855 -87.1339
  1199 155.159 13.2203 87.8792
  1200 -64.0746 0.357589 8.69431
  1201 -64.1210 0.357095 -8.70762
  1202 1.80363 -98.0782 -17.7877
  1203 -14.3601 3.42433 -3.83266
  1204 -14.2456 3.42149 3.82825
  1205 83.7018 18.8698 5.58095
  1206 83.6031 18.9068 -5.57195
  1207 298.849 0.160693 -1.91642
  1208 298.908 0.159691 1.91757
  1209 400.116 0.697796 9.02810
  1210 400.000 0.708080 -9.02617
  1211 23.6251 -0.664925 19.0286
  1212 23.2780 -1.05677 -19.4544
  1213 4.15796 -55.7373 27.3669
  1214 719.371 102.712 16.3152
  1215 -22.0849 -1.68290 13.9058
  1216 -22.0907 -1.69049 -13.9152
  1217 3.32727 -52.2185 -28.8647
  1218 -2.05715 -33.4024 20.2919
  1219 -1.96104 -33.0636 -21.0159
  1220 567.216 -6.29807 8.91603
  1221 0.483671 -131.207 11.2855
  1222 4.74187 -37.9477 -32.2407
  1223 72.5559 1.17782 0.554862
  1224 72.4897 1.17803 -0.555297
  1225 -5.24417 -23.1781 36.5316
  1226 -58.8418 3.27231 -9.36045
  1227 -58.7057 3.26736 9.34796
  1228 1130.68 18.8899 33.0110
  1229 -31.4942 4.03962 32.0065
  1230 -31.5882 4.03758 -32.0682
  1231 277.827 10.3759 -45.9444
  1232 278.023 10.2050 46.1933
  1233 19.0636 -23.6288 -11.2226
  1234 263.942 11.9963 -19.2144
  1235 264.004 11.9612 19.2626
  1236 11.4498 -74.9205 -1.36850
  1237 -5.26854 -23.2413 -36.4938
  1238 -39.2643 1.29471 5.30758
  1239 -39.3919 1.29649 -5.31355
  1240 -18.7593 1.97308 -36.6204
  1241 -18.6632 1.98131 36.5557
  1242 565.928 46.1614 39.9763
  1243 320.225 2.84852 -48.1587
  1244 320.560 2.78629 48.2758
  1245 -138.718 0.251153 -1.08644
  1246 -138.538 0.251066 1.08473
  1247 287.840 5.43276 -10.2174
  1248 287.896 5.42425 10.2257
  1249 -141.503 -2.57119 -0.403772
  1250 -141.689 -2.57287 0.403901
  1251 428.246 -30.1271 -55.2206
  1252 -66.0961 1.17378 18.1571
  1253 -66.1836 1.17401 -18.1893
  1254 432.360 -31.8085 54.7253
  1255 293.213 9.17154 -20.4396
  1256 293.292 9.12878 20.4718
  1257 35.3689 -61.3741 -68.5897
  1258 0.657724 -90.8050 -22.4235
  1259 -1.67536 -37.9911 34.2025
  1260 898.616 169.571 -141.532
  1261 -0.184867 -85.6591 22.1651
  1262 940.860 89.2385 -62.6700
  1263 -0.596189 -159.013 -10.3172
  1264 50.5266 3.72883 -0.602482
  1265 50.6058 3.72629 0.601431
  1266 -0.385954 -37.1241 7.67168
  1267 -0.307463 -37.3256 -7.65445
  1268 166.023 2.73435 0.586052
  1269 166.038 2.73384 -0.585314
  1270 575.402 -41.6545 34.3599
  1271 16.2389 3.64804 -4.43704
  1272 16.3377 3.64451 4.43281
  1273 3.31930 -170.386 3.73451
  1274 2.11423 -181.953 -3.73758
  1275 529.073 -63.1251 -60.3698
  1276 -1.39927 -47.6254 22.3250
  1277 561.434 38.0471 -51.6915
  1278 -1.64213 -62.7461 21.8864
  1279 1.14728 -169.809 -7.46054
  1280 269.229 6.11507 -11.4505
  1281 269.277 6.09880 11.4656
  1282 -0.219603 -94.0568 9.88654
  1283 -0.212428 -77.4677 -22.1801
  1284 1221.84 225.672 192.132
  1285 495.134 -0.0338003 0.830598
  1286 494.962 -0.0335531 -0.829954
  1287 14.8326 2.60468 29.6888
  1288 14.3895 3.14256 -29.8456
  1289 -6.02028 7.86091 36.1790
  1290 -6.21923 7.86456 -36.2836
  1291 536.431 -9.45596 -32.6279
  1292 494.456 -21.0920 -22.6852
  1293 494.049 -23.9021 23.0126
  1294 78.3329 7.68961 2.64398
  1295 78.2636 7.69685 -2.64373
  1296 -78.8636 2.08218 -13.8392
  1297 -78.7360 2.07756 13.8142
  1298 550.900 -71.4791 -84.2801
  1299 -4.08525 -9.95409 10.2077
  1300 -4.10170 -9.94841 -10.2040
  1301 582.848 -22.6111 54.6146
  1302 -5.93293 -22.6296 27.1998
  1303 -5.86565 -22.7162 -27.0764
  1304 -47.3783 3.03588 6.40663
  1305 -47.5099 3.03975 -6.41486
  1306 91.3328 12.8717 -37.7727
  1307 90.4310 13.3683 37.7294
  1308 142.074 2.60889 -0.0410644
  1309 142.045 2.60954 0.0414660
  1310 -53.9415 5.54314 21.9626
  1311 -54.0606 5.55376 -22.0010
  1312 465.629 0.536090 1.29054
  1313 465.473 0.536115 -1.28960
  1314 262.497 3.07902 169.301
  1315 382.822 -0.351377 3.20778
  1316 382.715 -0.349855 -3.20577
  1317 259.233 5.72866 -69.7851
  1318 259.232 5.44565 70.3426
  1319 2.60632 -97.4990 -11.7117
  1320 102.574 24.6853 -17.9276
  1321 102.130 24.9657 18.0748
  1322 -1.01262 -0.876625 -1.30465
  1323 -1.01770 -0.876796 1.30842
  1324 330.518 8.54806 26.0412
  1325 330.392 8.63289 -26.0045
  1326 167.177 12.0579 5.39370
  1327 167.197 12.0547 -5.37699
  1328 243.698 12.0455 -13.4990
  1329 243.736 12.0280 13.5292
  1330 315.925 0.452830 -3.23833
  1331 315.994 0.451633 3.24030
  1332 -9.99077 -4.80085 -11.5105
  1333 -9.98752 -4.79420 11.5147
  1334 -91.4032 -0.101157 3.78675
  1335 -91.5575 -0.100799 -3.79187
  1336 -16.7667 -7.57585 -27.7785
  1337 -16.7489 -7.53536 27.7442
  1338 -49.4047 0.405909 1.53386
  1339 -49.5380 0.405663 -1.53545
  1340 -143.364 1.25623 0.611194
  1341 -143.551 1.25672 -0.611866
  1342 590.343 -68.2477 113.465
  1343 441.984 -1.96865 -45.9928
</Section>

newXOutput 71

<Section columns = "stress_xx | stress_yy | stress_xy">
  1 516.197 -0.970535 0.556317
  2 516.382 -0.971299 -0.556600
  3 -157.271 0.689323 -2.17107
  4 0.249485 0.0559264 0.447035
  5 922.826 293.150 310.565
  6 1043.90 329.286 -299.554
  7 0.248247 0.0548162 -0.445387
  8 -157.072 0.689186 2.16982
  9 514.710 -0.931241 -1.71807
  10 515.176 -1.74681 -2.75230
  11 519.996 -1.75409 -0.772815
  12 520.619 -1.73541 -3.29030
  13 522.122 -1.72281 -1.09530
  14 532.875 -1.59034 -1.48909
  15 536.758 -2.22683 -4.42137
  16 541.100 -1.16918 -3.07569
  17 544.034 -0.140989 -5.92566
  18 565.778 -3.36325 -5.06883
  19 575.507 -2.70288 -6.46722
  20 586.469 -3.92631 -2.80199
  21 592.128 -5.07356 -1.92120
  22 589.554 -5.70936 6.75551
  23 571.801 -6.24687 14.6820
  24 529.521 -6.62159 32.0131
  25 459.559 4.31248 37.4566
  26 402.921 5.46578 34.4828
  27 323.064 10.0787 20.8534
  28 342.367 9.78680 2.28113
  29 291.845 28.5840 -13.0533
  30 384.748 13.4012 -38.1324
  31 434.694 3.62579 -31.0606
  32 519.966 -1.22884 -26.9482
  33 566.181 -7.57481 -17.7194
  34 588.942 -6.63862 -6.68927
  35 591.229 -4.92909 1.97238
  36 585.876 -3.87961 2.66265
  37 575.329 -2.71763 6.30036
  38 565.785 -3.40139 4.97645
  39 544.166 -0.162064 5.88517
  40 541.273 -1.17712 3.06198
  41 536.950 -2.23222 4.41865
  42 533.071 -1.59327 1.48821
  43 522.313 -1.72493 1.09578
  44 520.809 -1.73724 3.29287
  45 520.185 -1.75553 0.773778
  46 515.361 -1.74811 2.75441
  47 514.894 -0.932000 1.71938
  48 487.795 0.843715 -0.665522
  49 452.767 -0.232913 -1.44061
  50 408.814 -2.40546 -1.39548
  51 363.056 0.119093 -1.16051
  52 322.775 -0.337945 -0.913785
  53 279.504 1.02710 -1.07336
  54 236.628 3.29490 -0.607755
  55 191.945 2.83883 -1.34008
  56 154.767 1.70526 -1.90700
  57 105.818 0.768268 -2.00952
  58 55.9640 1.93971 -1.54022
  59 14.2650 1.64120 -1.49008
  60 -37.8809 0.849573 -1.34458
  61 -76.6619 -0.795561 -3.41658
  62 -114.252 -2.72232 -1.54665
  63 -152.455 0.258623 1.09505
  64 -160.823 2.74862 -0.339705
  65 -161.524 1.18266 0.563943
  66 -156.209 0.555662 -0.0971306
  67 -158.276 1.75098 -1.86572
  68 -155.945 2.14695 -0.0317026
  69 -147.663 0.626049 -2.90005
  70 -149.855 1.33056 -3.14147
  71 -146.319 1.25186 -1.69713
  72 -135.619 0.761813 -2.62908
  73 -130.999 1.43084 -4.44678
  74 -123.211 1.61926 -3.60425
  75 -109.250 0.819141 -6.40649
  76 -101.462 0.255805 -5.34710
  77 -87.2173 0.366008 -6.21821
  78 -75.0082 0.305391 -6.93543
  79 -64.2772 0.112229 -5.47615
  80 -49.2775 0.331299 -5.53092
  81 -36.3073 -0.120342 -5.93816
  82 -23.7478 -0.633986 -5.24444
  83 -13.7658 -0.558213 -4.03641
  84 -6.80102 -0.992242 -3.38652
  85 -1.19144 -0.574830 -1.22616
  86 0.0371630 -0.648542 -0.449262
  87 -0.348121 -0.372915 -0.104397
  88 -0.901312 -0.980270 -1.07667
  89 -0.876649 -5.76324 -2.94584
  90 -0.738964 -12.8460 -4.17244
  91 -0.375364 -21.8087 -6.06827
  92 -0.186763 -33.4445 -5.22728
  93 -0.136948 -44.0836 -6.57256
  94 -0.793585 -56.9865 -7.39144
  95 -0.326096 -72.9732 -7.43262
  96 0.149270 -89.0662 -7.10043
  97 0.345415 -106.272 -6.98943
  98 0.541821 -123.899 -6.84560
  99 4.61562e-05 -136.630 -9.24191
  100 0.885669 -154.960 -8.24974
  101 1.11219 -176.348 -6.46926
  102 -0.156308 -185.209 -8.57065
  103 1.57497 -200.182 -7.85381
  104 3.97975 -219.982 -3.18128
  105 7.82207 -223.896 -5.07288
  106 5.80511 -199.996 7.79129
  107 8.97022 -142.628 27.4021
  108 41.0623 -64.2613 73.8213
  109 124.783 222.339 231.844
  110 1412.94 79.1325 142.707
  111 1217.17 22.4678 51.3722
  112 1178.02 7.62213 11.9956
  113 1169.36 1.93168 -1.86640
  114 1177.60 12.1165 -27.0455
  115 1216.31 41.1507 -61.3949
  116 1377.43 154.716 -181.620
  117 302.701 174.832 -282.027
  118 70.0648 -64.1793 -88.0847
  119 20.8423 -156.449 -34.1336
  120 5.89372 -188.935 -8.18682
  121 6.35843 -215.102 2.09941
  122 1.76867 -211.106 2.17521
  123 0.578073 -195.126 6.51378
  124 0.662029 -184.241 5.12160
  125 0.971601 -166.486 9.24981
  126 -0.0460873 -156.455 9.11223
  127 0.383367 -141.520 6.53632
  128 0.771236 -122.450 8.41116
  129 0.163919 -108.791 6.65949
  130 0.220376 -89.1310 8.42255
  131 -0.890899 -73.8660 7.25284
  132 -0.607977 -57.0300 7.15585
  133 -0.0912437 -43.8324 6.58727
  134 -0.245787 -33.2488 5.23437
  135 -0.365270 -21.7444 6.00812
  136 -0.727885 -12.8377 4.15150
  137 -0.871928 -5.77210 2.94378
  138 -0.900045 -0.989972 1.07886
  139 -0.348051 -0.377052 0.107190
  140 0.0321066 -0.649120 0.451753
  141 -1.20083 -0.574434 1.22924
  142 -6.81467 -0.991156 3.38937
  143 -13.7836 -0.556364 4.03706
  144 -23.7608 -0.631710 5.24184
  145 -36.3082 -0.118459 5.93149
  146 -49.2642 0.331672 5.52315
  147 -64.2441 0.113213 5.46792
  148 -74.9569 0.306608 6.92573
  149 -87.1413 0.366018 6.20778
  150 -101.362 0.255790 5.33707
  151 -109.134 0.818599 6.39632
  152 -123.072 1.61820 3.59606
  153 -130.848 1.42964 4.43980
  154 -135.454 0.761013 2.62436
  155 -146.142 1.25095 1.69386
  156 -149.672 1.32984 3.13793
  157 -147.478 0.625821 2.89703
  158 -155.752 2.14583 0.0306205
  159 -158.080 1.75010 1.86399
  160 -156.013 0.555542 0.0966475
  161 -161.324 1.18216 -0.563864
  162 -160.622 2.74728 0.339335
  163 -152.260 0.258726 -1.09461
  164 -114.078 -2.72037 1.54568
  165 -76.5103 -0.794536 3.41463
  166 -37.7513 0.849681 1.34365
  167 14.3655 1.64079 1.48914
  168 56.0415 1.93904 1.53930
  169 105.868 0.768247 2.00837
  170 154.790 1.70481 1.90598
  171 191.947 2.83796 1.33941
  172 236.605 3.29389 0.607464
  173 279.457 1.02741 1.07280
  174 322.703 -0.336903 0.913272
  175 362.961 0.119737 1.15984
  176 408.692 -2.40343 1.39475
  177 452.619 -0.232376 1.43982
  178 487.626 0.843472 0.665162
  179 141.850 23.5418 -8.66625
  180 141.756 23.5949 8.73357
  181 -1.04221 4.89209 37.3074
  182 -1.19884 4.84913 -37.3376
  183 317.458 -4.04214 -74.0329
  184 317.181 -4.62575 74.7643
  185 65.4656 16.7375 -7.11972
  186 64.6967 16.9887 7.12414
  187 50.1036 7.18012 -4.61971
  188 50.1900 7.17169 4.61629
  189 298.901 4.28395 -11.4663
  190 298.965 4.27033 11.4773
  191 -1.90082 11.7196 19.4288
  192 -2.02879 11.7468 -19.4595
  193 346.967 7.53652 -28.3291
  194 347.127 7.43284 28.3756
  195 -13.0893 -11.2998 30.6845
  196 -13.0891 -11.3699 -30.7292
  197 3.75786 -26.0140 -35.3385
  198 111.115 10.3967 -70.2513
  199 4.46830 -27.8997 34.4181
  200 109.382 11.2258 71.2420
  201 489.853 -62.4034 -106.582
  202 506.235 -64.8371 102.552
  203 179.560 4.57409 -2.57805
  204 179.551 4.57442 2.58153
  205 -23.1757 1.44471 -3.53353
  206 -23.0542 1.44371 3.52985
  207 -37.0768 6.05686 28.8109
  208 -37.1894 6.06701 -28.8682
  209 180.631 15.0418 -7.06092
  210 180.617 15.0466 7.08483
  211 57.0674 23.2607 11.2700
  212 56.8411 23.3956 -11.3354
  213 -46.2172 5.03285 -11.2542
  214 -46.0840 5.02442 11.2381
  215 393.520 -0.519175 5.28255
  216 393.408 -0.515380 -5.27979
  217 13.5604 -48.5006 12.7880
  218 14.7265 -43.5453 -10.8668
  219 -3.44098 -32.1449 34.3744
  220 -3.54396 -33.4701 -33.3215
  221 167.650 23.7353 -32.0458
  222 167.476 23.8574 32.3153
  223 -34.3727 0.0783703 29.6328
  224 -34.4366 0.0721911 -29.6812
  225 420.910 1.32732 -15.1404
  226 421.042 1.29755 15.1351
  227 454.326 -7.52349 -30.2297
  228 454.696 -7.95340 30.1519
  229 729.305 53.8878 0.960275
  230 669.361 76.4792 30.7252
  231 655.568 -0.602010 -50.0144
  232 84.5884 17.2549 5.27844
  233 84.4987 17.2847 -5.27250
  234 8.25242 14.9971 27.8270
  235 8.10106 15.0403 -27.8808
  236 507.677 -30.5841 -22.2109
  237 504.798 -30.9358 23.8910
  238 282.769 1.06746 -4.32857
  239 282.818 1.06493 4.33174
  240 -59.8940 4.31236 18.9509
  241 -60.0208 4.32196 -18.9841
  242 -8.51875 -8.36979 -13.9772
  243 -8.50958 -8.36277 13.9839
  244 -64.7170 1.30411 5.48464
  245 -64.8601 1.30614 -5.49164
  246 234.663 16.0382 -20.0840
  247 234.696 16.0159 20.1517
  248 297.279 7.97677 -42.8231
  249 297.483 7.84994 42.9994
  250 75.6751 3.58595 0.258671
  251 75.7424 3.58400 -0.258869
  252 173.761 9.76184 -146.779
  253 204.761 14.0305 159.037
  254 25.0110 11.8411 25.7632
  255 24.9047 12.0731 -25.8950
  256 685.624 -45.5846 -21.7496
  257 63.8383 22.4744 9.83885
  258 63.7043 22.5330 -9.84374
  259 170.898 19.2174 -57.2664
  260 170.552 19.6535 57.8060
  261 769.623 112.544 2.97519
  262 456.424 -0.745817 20.4750
  263 456.238 -0.621928 -20.5190
  264 -4.04786 -25.3028 -21.7588
  265 -3.92049 -25.3998 21.8416
  266 -0.770946 -59.5177 -29.4718
  267 2.30103 -68.4155 -26.3386
  268 1.27872 -68.9256 27.9333
  269 -10.7298 -9.21040 38.9658
  270 -10.7816 -9.20184 -39.1354
  271 25.8295 -49.9921 -14.4073
  272 27.8438 -45.4907 18.8022
  273 -26.1560 -2.13288 19.0814
  274 -26.1748 -2.14329 -19.1017
  275 327.499 7.62907 -17.8984
  276 327.595 7.59032 17.9159
  277 569.674 -56.5776 -9.57223
  278 130.431 9.62125 1.20129
  279 130.472 9.61513 -1.19566
  280 -1.37591 -55.9271 28.2239
  281 16.1601 11.1940 11.8757
  282 16.0468 11.2146 -11.8902
  283 898.862 61.4686 -27.5516
  284 441.507 -0.592060 6.39374
  285 441.368 -0.585554 -6.39259
  286 302.152 -12.3215 -110.376
  287 304.627 -12.0977 111.923
  288 568.996 -53.7369 0.381329
  289 -52.8290 1.73313 23.2876
  290 -52.9092 1.73265 -23.3283
  291 554.875 -36.6560 178.101
  292 -22.5600 4.39588 35.0092
  293 -22.6600 4.38735 -35.0796
  294 98.1563 26.8044 -11.1445
  295 97.7704 27.0499 11.2338
  296 -93.5305 0.525685 0.907989
  297 -93.6917 0.525473 -0.909170
  298 468.684 20.2080 -240.540
  299 -89.5089 1.73039 -10.0468
  300 -89.3635 1.72654 10.0303
  301 -1.77223 -10.4462 39.1912
  302 -0.313760 -10.0939 -38.6924
  303 211.059 20.3666 -28.7968
  304 211.052 20.3733 28.9560
  305 49.8890 4.49100 3.49007
  306 49.8058 4.49488 -3.49292
  307 218.740 6.87641 -6.50022
  308 218.753 6.87377 6.50886
  309 21.7551 -12.4806 18.0798
  310 19.8457 -15.4700 -18.4080
  311 212.356 2.30449 -1.75330
  312 212.366 2.30441 1.75482
  313 -74.4137 1.95681 16.9183
  314 -74.5201 1.95955 -16.9493
  315 54.8049 -1.17311 -17.4179
  316 53.2389 -1.26089 15.9872
  317 459.321 -1.12006 1.79463
  318 459.170 -1.11871 -1.79306
  319 995.441 55.8364 42.0206
  320 109.184 12.9931 0.958039
  321 109.124 13.0066 -0.950032
  322 -17.6853 4.56361 7.40079
  323 -17.8058 4.57055 -7.41043
  324 148.472 18.5601 -6.10780
  325 148.422 18.5798 6.14557
  326 19.3200 15.7631 28.6310
  327 19.1950 15.7937 -28.7202
  328 2.30133 -99.4683 19.0701
  329 -97.3730 -0.0400797 -2.18279
  330 -97.2107 -0.0397916 2.18012
  331 353.664 -0.341585 -3.46847
  332 353.753 -0.343453 3.47058
  333 372.277 1.21604 -9.19234
  334 372.379 1.20524 9.19588
  335 -91.4212 1.40133 -7.12673
  336 -91.2669 1.39898 7.11706
  337 3.44118 1.12178 0.635938
  338 3.33449 1.12202 -0.636959
  339 -2.06649 -41.7792 21.6451
  340 -1.63486 -43.4599 -21.6140
  341 421.687 -33.8334 -75.1692
  342 437.469 -40.5145 73.8829
  343 252.187 10.6547 -12.5798
  344 252.225 10.6409 12.6011
  345 113.788 25.7688 -7.32080
  346 113.587 25.8894 7.39136
  347 -35.0376 7.14931 16.2480
  348 -35.1667 7.16435 -16.2744
  349 772.291 25.5684 30.7518
  350 43.2749 -50.4613 -52.0731
  351 46.2737 -45.9505 54.2186
  352 -13.7495 11.9810 26.5254
  353 -13.8827 12.0081 -26.5755
  354 -20.8360 -3.93778 34.6760
  355 -20.8959 -3.95031 -34.7440
  356 876.853 152.674 -51.4810
  357 572.029 -5.38314 65.2496
  358 528.146 -13.0222 -14.4028
  359 527.804 -12.7173 13.6386
  360 374.196 -5.08915 -48.0856
  361 373.743 -5.42270 48.1238
  362 0.733341 -119.853 -15.1780
  363 481.961 0.341883 -11.3881
  364 482.112 0.307915 11.3639
  365 6.55711 -111.493 10.8700
  366 571.678 45.1993 -32.8739
  367 141.779 3.40826 1.22808
  368 141.749 3.40958 -1.22863
  369 375.694 1.54436 -35.6708
  370 375.929 1.38253 35.7322
  371 402.640 1.96624 -21.4080
  372 402.784 1.89421 21.4021
  373 -2.66483 3.82773 4.74537
  374 -2.77650 3.83190 -4.75089
  375 235.686 13.0323 -57.9803
  376 235.712 13.1879 58.4503
  377 473.099 -0.920289 2.92627
  378 472.940 -0.918300 -2.92430
  379 274.090 13.5814 -29.6866
  380 274.183 13.5144 29.7909
  381 313.964 3.35279 7.70215
  382 313.896 3.35813 -7.69700
  383 -14.9009 -2.64220 11.8610
  384 -14.9017 -2.64958 -11.8626
  385 -3.57211 -2.53049 -3.50922
  386 -3.57358 -2.53149 3.51448
  387 633.125 -73.5278 52.1034
  388 -8.01605 -19.4890 31.9164
  389 -7.95882 -19.6648 -31.9257
  390 108.299 5.57248 -0.813831
  391 108.350 5.56903 0.814763
  392 -3.12479 -15.8262 11.9234
  393 -3.16135 -15.8030 -11.9262
  394 43.8613 17.6059 12.6010
  395 43.7429 17.6437 -12.6132
  396 517.281 -2.99190 15.1715
  397 517.068 -2.81729 -15.3878
  398 -0.814203 -29.5137 37.7010
  399 -42.3466 -0.705680 17.9586
  400 -42.3835 -0.709915 -17.9842
  401 -0.978521 -31.2490 -37.2826
  402 484.433 -0.554216 7.26735
  403 484.273 -0.544213 -7.27187
  404 -2.46463 11.3533 33.6842
  405 -2.63796 11.3841 -33.7633
  406 361.705 3.90222 -14.4980
  407 361.806 3.87841 14.5030
  408 554.362 -23.5686 -9.15991
  409 555.651 -19.1940 6.61442
  410 -1.05461 -56.7841 -23.6310
  411 52.7260 20.0523 -6.78578
  412 53.1541 19.8546 6.71200
  413 563.730 36.3847 20.2248
  414 318.074 -12.6145 -151.490
  415 326.130 -18.3600 158.202
  416 22.0938 17.0709 20.6622
  417 21.9561 17.1143 -20.6952
  418 234.684 4.79469 -4.45085
  419 234.706 4.79352 4.45515
  420 228.131 52.0940 239.462
  421 97.3988 21.2469 -2.71982
  422 97.5035 21.2000 2.73839
  423 6.33286 -51.4552 24.0396
  424 -0.676463 -91.9791 -20.2641
  425 40.2110 21.2776 18.5656
  426 40.0536 21.3409 -18.6064
  427 50.0639 11.4209 -7.21596
  428 50.1577 11.4044 7.21130
  429 -14.5765 -0.173999 -38.6332
  430 -14.4778 -0.196088 38.5591
  431 115.507 23.3100 -25.9745
  432 115.009 23.6385 26.1874
  433 560.041 -16.8477 -49.7458
  434 17.2564 -3.50262 27.9722
  435 16.7219 -3.38960 -28.1779
  436 408.222 -17.7302 -53.0959
  437 409.826 -18.9092 53.0536
  438 -99.0044 0.729673 -10.0244
  439 -98.8683 0.727195 10.0065
  440 -0.00465281 -90.6557 18.3243
  441 -0.622299 -57.7327 21.0689
  442 -39.9668 2.81385 29.7462
  443 -40.0508 2.81128 -29.7996
  444 292.701 0.916914 -1.64363
  445 292.756 0.915948 1.64477
  446 -8.58288 -13.5714 21.8816
  447 -8.59972 -13.6052 -21.8622
  448 186.043 12.0183 -83.7551
  449 185.642 12.8049 84.5998
  450 1.55136 -108.375 -19.5351
  451 993.298 33.2225 0.366795
  452 2.94642 -125.771 -9.85261
  453 -115.163 -0.228664 -3.40121
  454 -114.993 -0.228639 3.39719
  455 -43.4743 6.46965 23.6703
  456 -43.5979 6.48330 -23.7150
  457 -53.0862 0.789811 17.9545
  458 -53.1410 0.789213 -17.9821
  459 202.605 19.4140 -20.2372
  460 202.597 19.4256 20.3335
  461 302.800 10.3775 -22.9324
  462 302.899 10.3200 22.9787
  463 -4.50290 -17.6822 39.0941
  464 -4.51011 -17.5654 -39.2620
  465 529.264 11.2170 -62.5915
  466 37.7058 -5.53923 -1.81629
  467 36.3849 -5.86327 2.49992
  468 8.78547 -110.331 -4.65134
  469 5.75703 -129.330 0.519596
  470 -15.6665 -6.92532 22.4965
  471 -15.6767 -6.95192 -22.5095
  472 114.207 4.74030 -128.243
  473 787.938 14.8170 -89.4504
  474 184.684 10.2086 6.60347
  475 184.692 10.2078 -6.58931
  476 267.113 3.68055 -79.8606
  477 267.632 3.60648 80.9612
  478 80.9963 26.8668 4.88715
  479 80.8319 26.9593 -4.88201
  480 241.495 17.1844 -43.1745
  481 241.563 17.1168 43.4557
  482 10.3720 5.97608 33.9826
  483 10.9057 6.24455 -33.9419
  484 -102.651 1.39483 -7.15281
  485 -102.495 1.39284 7.14205
  486 522.408 -59.1326 -44.9179
  487 412.718 -0.921367 -2.42775
  488 412.842 -0.922732 2.42946
  489 27.3650 2.04518 -1.73834
  490 27.4589 2.04382 1.73629
  491 -23.5409 9.47363 21.6186
  492 -23.6704 9.49521 -21.6559
  493 -55.8388 3.28797 -7.42820
  494 -55.7008 3.28325 7.41796
  495 184.838 16.2907 -10.0019
  496 184.825 16.2947 10.0388
  497 -19.4624 8.51802 31.1911
  498 -19.5908 8.53638 -31.2582
  499 477.889 -14.2075 -28.6797
  500 478.714 -14.8461 28.3787
  501 317.194 2.81089 -53.4210
  502 316.690 2.62521 53.8527
  503 121.291 4.12457 -0.339908
  504 121.333 4.12274 0.340135
  505 1.55522 -54.8342 -31.6371
  506 561.926 -19.2209 40.6128
  507 8.45776 -34.5988 -27.5061
  508 163.698 25.1695 21.3029
  509 163.819 25.0865 -21.1487
  510 516.755 -55.3182 44.4869
  511 41.5841 -38.4816 69.7808
  512 612.284 -72.0825 -86.2297
  513 419.077 0.400557 25.8399
  514 418.878 0.545127 -25.8449
  515 1.53945 -46.7012 32.9315
  516 -8.23382 -2.43203 -6.38913
  517 -8.23685 -2.43046 6.39324
  518 56.4487 1.68324 -0.389429
  519 56.5260 1.68265 0.388852
  520 -1.38894 -32.4725 13.9807
  521 -1.26009 -32.3247 -14.0559
  522 345.599 1.99311 5.95065
  523 345.514 1.99588 -5.94724
  524 959.119 177.062 82.3590
  525 42.4218 -19.4903 -17.3528
  526 33.1635 -28.1184 10.4233
  527 -5.34573 6.84983 -10.0173
  528 -5.22823 6.83772 10.0042
  529 -82.9790 1.30075 10.6768
  530 -83.0685 1.30219 -10.6951
  531 0.871753 -101.986 19.6897
  532 -112.404 0.809471 0.802310
  533 -112.576 0.809514 -0.803589
  534 110.557 0.710829 -95.4906
  535 108.226 2.33349 98.9305
  536 101.608 19.7631 -35.5500
  537 100.854 20.1847 35.7309
  538 -22.0586 -4.43910 30.4997
  539 -22.0982 -4.46030 -30.5497
  540 100.926 7.49107 0.668698
  541 100.869 7.49680 -0.666916
  542 -44.2975 1.81139 2.86562
  543 -44.4305 1.81282 -2.86977
  544 117.944 15.5507 -0.177210
  545 117.881 15.5708 0.193141
  546 -2.25880 -7.44465 5.47435
  547 -2.26684 -7.43867 -5.47350
  548 44.0284 19.0669 15.7968
  549 43.7394 19.3153 -15.9100
  550 35.5576 7.66144 13.3090
  551 35.0711 7.62090 -13.6146
  552 422.335 1.73316 10.8340
  553 422.206 1.74553 -10.8333
  554 375.622 3.49670 17.5536
  555 375.505 3.53732 -17.5504
  556 -0.380995 -87.5709 -12.7844
  557 266.026 11.6357 -18.0040
  558 266.081 11.6093 18.0409
  559 266.160 4.47448 -7.10104
  560 266.201 4.46894 7.10830
  561 -30.0954 0.689152 0.188604
  562 -29.9701 0.689313 -0.188952
  563 468.136 24.1720 -12.0447
  564 588.097 -70.6819 -35.0462
  565 496.571 23.8370 46.7838
  566 4.34967 -71.8437 -22.1827
  567 -21.8351 7.84003 -13.7397
  568 -21.7096 7.82551 13.7200
  569 4.72605 -41.1741 30.5149
  570 -24.9813 1.08481 34.5178
  571 -25.0610 1.07868 -34.5779
  572 753.533 72.1561 5.82654
  573 175.694 6.46177 -3.45352
  574 175.682 6.46260 3.45905
  575 1114.34 96.3637 -101.802
  576 -4.39435 -3.33399 39.7781
  577 -3.98065 -3.02755 -39.7982
  578 621.291 -51.3166 17.3870
  579 497.816 -0.331953 -12.6023
  580 497.968 -0.390134 12.5512
  581 235.325 3.07364 -115.055
  582 237.966 2.32198 116.685
  583 -12.3217 -11.7626 35.2032
  584 -12.3366 -11.8281 -35.3039
  585 125.346 14.0259 63.5965
  586 126.381 13.1502 -63.1494
  587 -96.4679 1.08137 -9.88202
  588 -96.3439 1.07956 9.86435
  589 731.735 69.7286 30.1975
  590 144.627 11.5926 2.54387
  591 144.662 11.5855 -2.53343
  592 170.075 21.3367 -44.2735
  593 169.821 21.5876 44.6774
  594 453.007 -2.13344 -25.1368
  595 453.266 -2.33883 25.1043
  596 -1.83345 -44.8535 -31.5438
  597 488.497 -1.11838 3.81345
  598 488.329 -1.11568 -3.81176
  599 -66.0759 1.00008 -0.977161
  600 -65.9306 0.999848 0.975319
  601 -120.730 -1.05315 -0.0427082
  602 -120.907 -1.05416 0.0424501
  603 11.3241 -64.0072 -8.07174
  604 -4.45594 -29.3829 27.3385
  605 -4.69989 -27.7627 -27.5194
  606 -54.3452 3.49029 24.6408
  607 -54.4436 3.49452 -24.6858
  608 346.806 6.88120 22.3461
  609 346.688 6.94358 -22.3269
  610 256.803 1.63962 1.63584
  611 256.768 1.63980 -1.63475
  612 60.3988 -9.76755 42.2778
  613 62.1928 -8.51889 -41.9354
  614 -1.74026 -22.6846 11.8433
  615 -1.79650 -22.6155 -11.8850
  616 584.731 57.1729 257.489
  617 -29.2212 -0.861775 10.9306
  618 -29.2266 -0.866114 -10.9410
  619 11.4238 -38.3667 -21.2765
  620 251.796 8.20862 -9.69654
  621 251.830 8.20063 9.70968
  622 126.283 26.1069 -17.0445
  623 126.025 26.2709 17.1898
  624 1.19529 -151.318 6.69280
  625 95.7558 24.8435 1.64739
  626 95.6290 24.9112 -1.62495
  627 -5.82257 9.96274 16.5768
  628 -5.94665 9.98354 -16.6012
  629 -0.696264 -76.9342 17.4324
  630 -121.757 -0.0125441 -3.43305
  631 -121.584 -0.0127474 3.42869
  632 167.877 2.84358 1.36641
  633 167.893 2.84326 -1.36476
  634 411.586 -0.0385197 7.28518
  635 411.463 -0.0325279 -7.28232
  636 366.995 -18.2168 197.094
  637 295.714 5.66852 -14.0288
  638 295.780 5.64795 14.0447
  639 6.09557 -4.52645 36.0799
  640 7.25498 -1.97927 -35.9225
  641 469.451 -40.6802 -160.427
  642 1080.07 36.3539 -42.2626
  643 -113.483 0.0208816 -6.73147
  644 -113.334 0.0197924 6.72045
  645 33.0428 5.33238 -4.17211
  646 33.1361 5.32666 4.16809
  647 -2.06535 -47.8921 28.0091
  648 637.584 41.7267 -54.7163
  649 482.801 -1.33940 0.695509
  650 482.635 -1.33824 -0.694741
  651 -30.8772 -1.55785 -25.1895
  652 -30.8380 -1.54901 25.1533
  653 -0.106390 -108.812 -16.5020
  654 490.939 -1.28257 1.47475
  655 490.768 -1.28134 -1.47330
  656 50.0842 15.0227 10.4329
  657 49.9790 15.0502 -10.4399
  658 381.920 -30.8049 -106.299
  659 388.448 -30.6311 107.377
  660 548.898 -3.99631 8.95874
  661 548.887 -3.96600 -9.27382
  662 2.46250 -135.806 12.2907
  663 -24.6213 0.373474 -1.61952
  664 -24.4991 0.373555 1.61748
  665 183.176 37.4624 -189.217
  666 174.391 2.35311 1.60106
  667 174.403 2.35251 -1.60002
  668 88.8117 5.03377 -0.0760399
  669 88.7508 5.03695 0.0762948
  670 104.432 9.76166 0.191896
  671 104.490 9.75297 -0.187048
  672 326.311 7.80921 -34.6001
  673 326.489 7.68819 34.6927
  674 89.7567 25.5548 -2.85018
  675 89.4806 25.7315 2.87295
  676 -54.7650 4.07883 -13.3044
  677 -54.6302 4.06965 13.2838
  678 -64.8686 4.50894 -15.4192
  679 -64.7351 4.50002 15.3930
  680 565.661 -8.84522 -0.341413
  681 1.35485 -21.3292 -37.4628
  682 566.202 -9.27480 -0.353983
  683 726.352 55.7504 -4.48953
  684 -70.5159 0.350263 12.2012
  685 -70.5851 0.349743 -12.2217
  686 78.1628 23.1226 -8.55168
  687 77.6092 23.3822 8.58837
  688 -130.523 -0.0302584 -1.09752
  689 -130.342 -0.0300908 1.09575
  690 1.86806 -19.0196 37.4373
  691 -43.5986 0.737864 26.2503
  692 -43.6688 0.734505 -26.2941
  693 622.358 -47.7933 -19.6628
  694 103.598 1.27523 -0.982462
  695 103.547 1.27555 0.982903
  696 27.4776 8.38671 7.45592
  697 27.3767 8.39844 -7.46288
  698 334.003 -13.9205 -89.4511
  699 336.345 -14.4733 91.0622
  700 1125.09 80.9368 92.0165
  701 23.4832 -91.4943 -42.8517
  702 -7.76994 -16.6477 37.4932
  703 -7.77566 -16.7215 -37.5886
  704 74.2311 14.5961 -4.70098
  705 74.3160 14.5751 4.70296
  706 504.719 -1.12793 -3.86046
  707 504.896 -1.13113 3.86054
  708 245.863 2.52648 3.17110
  709 245.835 2.52783 -3.16834
  710 23.1696 18.2892 25.2287
  711 23.0198 18.3425 -25.2858
  712 17.7966 3.76085 2.90884
  713 17.6970 3.76381 -2.91207
  714 -12.8385 4.06663 37.5758
  715 -12.9514 4.05864 -37.6643
  716 417.148 -1.42951 3.11765
  717 417.022 -1.42709 -3.11556
  718 362.960 1.72274 8.39011
  719 362.865 1.72888 -8.38591
  720 51.4184 -23.8262 50.0007
  721 52.7931 -26.1048 -48.4955
  722 -26.3088 6.36195 32.7440
  723 -26.4213 6.36687 -32.8126
  724 16.2737 -30.8637 15.7840
  725 3.35260 11.5823 33.7776
  726 3.17174 11.6070 -33.8362
  727 -76.3343 2.05488 -8.70957
  728 -76.1886 2.05095 8.69627
  729 67.6981 19.9233 9.03150
  730 67.5797 19.9682 -9.03104
  731 562.318 -16.5518 -27.1269
  732 532.154 -45.3835 -17.4171
  733 -8.38682 -17.2096 26.9322
  734 -8.37861 -17.2956 -26.9028
  735 211.332 4.77461 -135.610
  736 206.044 9.05461 136.694
  737 130.279 24.7732 -24.4127
  738 129.938 25.0112 24.6304
  739 12.1015 -17.7958 28.7354
  740 -0.728437 -57.2716 -15.2773
  741 266.894 13.3835 -33.1562
  742 267.000 13.3202 33.3078
  743 0.644585 -111.929 13.9793
  744 161.291 20.6778 -10.9956
  745 161.239 20.7029 11.0564
  746 531.094 -1.00740 -9.51418
  747 531.212 -1.06744 9.41136
  748 11.0805 -143.126 6.38626
  749 245.970 16.7783 25.4716
  750 245.918 16.8095 -25.3767
  751 68.9848 24.1937 -2.97341
  752 69.3405 23.9623 2.92763
  753 -95.5286 0.625459 -8.40856
  754 -95.4215 0.624781 8.39298
  755 271.026 3.01419 -6.08150
  756 271.069 3.01093 6.08643
  757 170.278 23.2078 -18.1658
  758 170.203 23.2545 18.2795
  759 4.28696 14.5324 25.5971
  760 4.14620 14.5710 -25.6434
  761 533.709 -38.9352 10.8160
  762 -78.4069 1.51221 6.55974
  763 -78.5565 1.51424 -6.56777
  764 1123.69 233.165 -165.557
  765 -26.4582 2.67374 6.58032
  766 -26.5822 2.67752 -6.58807
  767 452.256 0.163725 17.7705
  768 452.101 0.233323 -17.8008
  769 840.049 50.5844 -0.665031
  770 508.912 -1.92778 -7.19781
  771 509.080 -1.93901 7.18891
  772 329.925 3.22062 10.6931
  773 329.846 3.23090 -10.6865
  774 491.841 -50.1484 146.421
  775 217.538 14.1711 -10.6185
  776 217.553 14.1656 10.6468
  777 5.25083 -81.1512 15.3127
  778 563.169 -67.1770 51.9399
  779 342.842 -0.559592 1.79374
  780 342.758 -0.558292 -1.79265
  781 445.376 -0.715571 0.948688
  782 445.232 -0.714640 -0.947857
  783 -1.91353 -44.7702 -26.2700
  784 2.95255 -74.6126 24.3301
  785 207.041 22.1394 35.3742
  786 207.071 22.1119 -35.1345
  787 1109.15 9.68890 10.2465
  788 351.059 1.95972 -42.7524
  789 351.285 1.81520 42.8688
  790 -69.9193 2.31594 18.2384
  791 -70.0393 2.32164 -18.2705
  792 15.8129 -57.0650 1.90439
  793 10.1114 -132.436 -13.3326
  794 792.072 104.019 -20.8342
  795 -0.670690 -57.1482 13.7992
  796 18.4485 12.6446 29.6227
  797 18.3842 12.6336 -29.7922
  798 110.861 20.1425 0.281659
  799 110.780 20.1780 -0.260137
  800 528.671 -24.4901 -10.7967
  801 529.949 -24.1259 9.22871
  802 613.731 113.349 -244.373
  803 -80.3895 0.604691 -2.72323
  804 -80.2374 0.604101 2.71915
  805 -40.0435 -0.135792 10.2585
  806 -40.0592 -0.137712 -10.2713
  807 40.8642 5.72766 5.82756
  808 40.0183 5.69227 -5.93564
  809 403.333 -3.24549 38.3529
  810 403.047 -2.94278 -38.2428
  811 208.409 3.85302 -2.21234
  812 208.416 3.85279 2.21498
  813 647.532 -4.32406 49.5040
  814 73.2471 9.96030 -4.28218
  815 73.3250 9.94854 4.28208
  816 66.8220 11.5697 -15.2934
  817 66.2333 11.8554 15.4223
  818 0.152579 -43.2244 -34.5781
  819 900.774 156.562 141.173
  820 -128.671 0.0659620 -3.47263
  821 -128.498 0.0658127 3.46762
  822 -0.185057 -135.512 12.8873
  823 10.8162 -17.6418 -29.1666
  824 -20.0222 -1.19554 7.69805
  825 -20.0160 -1.19886 -7.70154
  826 728.588 50.0174 -29.2500
  827 194.984 17.6641 -13.4236
  828 194.975 17.6690 13.4811
  829 500.730 -8.17674 -19.4333
  830 501.227 -8.23543 19.2067
  831 -123.553 0.859759 4.73734
  832 -123.715 0.861047 -4.74490
  833 -0.925027 -0.955092 -0.802531
  834 -0.926905 -0.956776 0.805721
  835 0.364540 -138.483 -12.4850
  836 0.631789 -144.155 -10.7670
  837 -134.027 1.19523 0.623061
  838 -134.211 1.19558 -0.623778
  839 79.9229 -11.8421 -92.0613
  840 312.830 2.18841 -3.31532
  841 312.896 2.18725 3.31748
  842 -4.31105 1.76945 0.815395
  843 -4.42197 1.76990 -0.816138
  844 459.777 0.276751 -11.7067
  845 459.924 0.253813 11.6961
  846 -52.5344 0.357009 9.72430
  847 -52.5656 0.356992 -9.73784
  848 283.550 13.4062 -200.519
  849 484.238 -40.5756 43.2232
  850 378.441 0.348950 -3.87891
  851 378.545 0.346938 3.88123
  852 480.116 -44.0135 -47.9101
  853 154.205 15.4241 -5.47238
  854 154.168 15.4348 5.49891
  855 210.641 11.9982 -8.31588
  856 210.650 11.9954 8.33446
  857 561.797 -11.7685 20.7808
  858 37.7008 20.8790 19.9244
  859 37.5334 20.9541 -19.9965
  860 40.9656 1.48611 1.23967
  861 40.8795 1.48677 -1.24104
  862 267.394 1.75616 2.88566
  863 267.354 1.75715 -2.88357
  864 686.938 -54.0676 86.2800
  865 432.722 1.26470 -15.5022
  866 432.865 1.22224 15.4878
  867 11.4501 5.82585 5.84593
  868 11.3443 5.83290 -5.85230
  869 432.582 -1.46416 4.45232
  870 432.447 -1.46106 -4.44972
  871 -75.0697 0.0865942 -2.01163
  872 -74.9191 0.0871224 2.01019
  873 -0.356447 -43.8467 12.3475
  874 -0.475537 -44.5310 -12.4371
  875 527.925 -6.09751 51.3030
  876 -29.1549 8.12701 27.2282
  877 -29.2792 8.14492 -27.2814
  878 -0.163709 -71.9700 -13.5558
  879 210.437 6.06013 -4.41986
  880 210.446 6.05984 4.42510
  881 383.579 -18.8779 -68.5747
  882 386.397 -20.8596 69.2207
  883 -15.5110 -5.15257 -37.5819
  884 -15.4336 -5.14888 37.4927
  885 24.1505 18.1361 23.0152
  886 24.0038 18.1864 -23.0570
  887 1.78664 -161.261 8.40950
  888 7.89022 14.6208 30.5521
  889 7.73294 14.6559 -30.6114
  890 354.764 -6.51451 -61.0918
  891 353.956 -6.74496 61.5686
  892 611.930 37.2179 57.6355
  893 144.008 14.2504 3.42153
  894 144.048 14.2404 -3.40481
  895 443.186 1.60026 -11.5390
  896 443.325 1.58341 11.5354
  897 -16.9300 -7.19482 33.2616
  898 -16.9674 -7.22602 -33.3287
  899 1.62497 -164.426 -4.69024
  900 -26.0723 -1.49814 32.4896
  901 -26.1320 -1.50502 -32.5449
  902 20.8891 16.0136 -17.7669
  903 21.0168 15.9766 17.7410
  904 -1.35762 -11.1349 6.13864
  905 -1.37333 -11.1244 -6.14811
  906 42.0298 18.0659 -15.3338
  907 42.1613 18.0200 15.3155
  908 9.41867 -11.3200 32.9901
  909 8.29755 -10.5132 -34.8992
  910 433.747 -13.0405 39.3372
  911 432.757 -12.4927 -39.4934
  912 -137.166 0.274285 -0.916134
  913 -136.980 0.274326 0.914969
  914 -12.3660 -1.09242 5.81899
  915 -12.3559 -1.09450 -5.81791
  916 0.569207 -102.095 -12.2828
  917 -13.0808 -5.56068 -16.4739
  918 -13.0739 -5.54578 16.4728
  919 -53.4611 4.68816 23.4372
  920 -53.5754 4.69724 -23.4813
  921 139.324 25.5306 -11.7295
  922 139.200 25.6162 11.8162
  923 586.173 44.9499 -7.30815
  924 -3.24897 12.7872 23.2371
  925 -3.38225 12.8179 -23.2767
  926 217.819 14.3608 -65.1307
  927 217.787 14.5572 65.7715
  928 -21.8256 8.73678 18.6491
  929 -21.9537 8.75711 -18.6802
  930 691.648 -26.5557 -2.55429
  931 437.307 17.4431 25.1485
  932 512.951 -5.36377 -46.3813
  933 379.544 3.60707 -25.9718
  934 379.704 3.50731 25.9870
  935 -35.6369 4.94744 -8.71710
  936 -35.5082 4.93956 8.70462
  937 -87.5121 1.51731 11.4849
  938 -87.6500 1.52118 -11.5051
  939 -5.35156 -17.4411 -19.0918
  940 -5.31129 -17.4521 19.1234
  941 138.564 7.34593 2.06506
  942 138.598 7.34221 -2.06078
  943 -40.6243 4.52181 29.3601
  944 -40.7225 4.52363 -29.4167
  945 450.669 -1.11447 5.76055
  946 450.524 -1.11085 -5.75784
  947 -3.27859 -38.0177 28.5977
  948 20.9125 14.5165 -15.0845
  949 21.0325 14.4871 15.0650
  950 27.8763 9.68859 9.47162
  951 27.7715 9.70452 -9.48122
  952 83.0193 6.18022 -1.54556
  953 83.0848 6.17537 1.54508
  954 844.166 118.769 -35.7869
  955 -3.44636 -0.926763 -2.33748
  956 -3.45369 -0.926578 2.34163
  957 31.5310 10.0987 -18.3841
  958 32.0504 9.87284 18.2737
  959 308.383 10.7631 -27.9278
  960 308.504 10.6849 27.9946
  961 43.6146 12.3506 -8.74506
  962 43.7156 12.3305 8.73810
  963 85.5967 -1.38772 119.988
  964 570.326 -4.39931 -5.31758
  965 569.696 -4.23995 4.83326
  966 105.434 0.0337360 106.069
  967 111.638 3.36842 -0.877787
  968 111.590 3.36994 0.878291
  969 282.413 -3.28281 -173.736
  970 213.357 2.03749 1.52629
  971 213.347 2.03722 -1.52528
  972 28.2872 -23.4139 1.95114
  973 31.2520 -19.0086 0.398265
  974 503.512 -0.839640 1.96947
  975 503.333 -0.838595 -1.96773
  976 -41.2029 0.222128 23.9993
  977 -41.2555 0.218917 -24.0352
  978 905.129 114.792 57.9847
  979 -3.50103 -27.8459 -37.2869
  980 5.18613 -131.930 20.1615
  981 -0.407177 -44.5218 34.2500
  982 521.317 -0.849834 -7.34293
  983 521.477 -0.866238 7.32251
  984 -6.87184 -12.6244 16.5287
  985 -6.89220 -12.6276 -16.5147
  986 661.212 70.9237 -28.2768
  987 1123.77 8.70331 -6.81750
  988 -1.71265 -2.63940 -2.54403
  989 -1.71066 -2.64496 2.54770
  990 307.466 1.95200 -6.17995
  991 307.530 1.94889 6.18396
  992 -3.55639 -26.6980 37.4388
  993 425.249 0.643538 22.9493
  994 425.082 0.747130 -22.9655
  995 559.354 -36.0623 -18.3160
  996 -19.3701 -3.96908 18.5681
  997 -19.3805 -3.98488 -18.5803
  998 10.0585 -33.6451 24.9425
  999 -0.780602 -67.8282 26.9032
  1000 -0.0855154 -71.4398 13.5489
  1001 584.380 36.7362 -3.58213
  1002 661.395 72.8294 14.0144
  1003 470.753 -51.7612 -82.4692
  1004 7.22092 -64.1582 19.8545
  1005 9.03428 -91.3389 2.06733
  1006 134.772 1.86713 0.176195
  1007 134.738 1.86769 -0.176261
  1008 -5.19109 -5.92488 -7.95081
  1009 -5.18604 -5.92528 7.95645
  1010 4.93940 -52.7554 -27.5253
  1011 377.789 -0.840544 -1.42582
  1012 377.892 -0.841892 1.42676
  1013 79.0110 3.97602 -42.1306
  1014 75.6731 4.15025 41.7350
  1015 -4.54551 12.0036 31.1681
  1016 -4.69583 12.0348 -31.2368
  1017 -41.4962 6.66104 -19.2325
  1018 -41.3671 6.64647 19.1996
  1019 292.790 4.62717 -62.9469
  1020 292.905 4.90691 63.5868
  1021 212.261 18.3045 -45.2420
  1022 212.205 18.3165 45.6161
  1023 229.232 14.8652 -15.9870
  1024 229.256 14.8501 16.0310
  1025 588.364 -13.5647 -58.3148
  1026 -13.5559 7.57518 34.7322
  1027 -13.6890 7.58308 -34.8203
  1028 415.654 -1.66464 31.5779
  1029 415.414 -1.43810 -31.5574
  1030 -2.09421 -20.4298 38.7999
  1031 -33.2656 -1.04239 17.8423
  1032 -33.2885 -1.04826 -17.8643
  1033 379.417 2.09791 -31.5115
  1034 379.613 1.95533 31.5436
  1035 480.002 12.5855 -42.1584
  1036 -0.391128 -67.3109 -28.1988
  1037 -5.30562 -26.4305 33.8272
  1038 -5.53694 -26.7720 -33.5543
  1039 269.884 14.1541 -23.5526
  1040 269.958 14.1084 23.6227
  1041 337.593 4.62850 13.1748
  1042 337.507 4.64513 -13.1671
  1043 558.214 -35.2332 15.6765
  1044 32.8223 1.83651 -0.322706
  1045 32.9126 1.83591 0.322275
  1046 475.665 -57.8361 87.9079
  1047 2.55328 1.12608 1.85076
  1048 2.44597 1.12664 -1.85289
  1049 106.550 25.8719 -2.86154
  1050 106.394 25.9645 2.90417
  1051 42.3985 20.4870 16.9017
  1052 42.2547 20.5422 -16.9280
  1053 5.52280 -80.2316 -15.9915
  1054 141.605 3.82509 1.19592
  1055 141.636 3.82377 -1.19372
  1056 428.617 13.5309 10.4454
  1057 381.830 1.47543 12.0827
  1058 381.722 1.49204 -12.0796
  1059 -1.68194 -21.2956 -38.8724
  1060 573.004 -7.47048 -10.1751
  1061 1.25120 -0.798228 38.0057
  1062 1.69690 -0.503216 -37.7993
  1063 517.819 -1.25043 -4.07501
  1064 518.000 -1.25435 4.07291
  1065 552.380 -2.27335 -7.19630
  1066 552.378 -2.33918 7.03450
  1067 -0.414013 -108.091 10.1356
  1068 328.614 6.71343 -17.3610
  1069 328.701 6.68444 17.3741
  1070 397.550 2.25575 13.9563
  1071 397.431 2.27808 -13.9557
  1072 10.9588 10.3052 33.5304
  1073 10.8970 10.3036 -33.5840
  1074 859.960 55.2194 10.6649
  1075 -10.0987 -4.04182 39.7471
  1076 -10.2798 -3.94195 -39.8576
  1077 127.816 23.4693 -4.22394
  1078 127.733 23.5147 4.26489
  1079 -64.2429 0.858261 -3.07465
  1080 -64.0991 0.857747 3.07093
  1081 207.769 13.2162 -74.7610
  1082 207.450 13.7733 75.5654
  1083 62.0246 23.1622 12.0842
  1084 61.8691 23.2317 -12.0990
  1085 142.205 18.1299 -56.5360
  1086 141.478 18.7999 56.9484
  1087 -3.51479 -35.7319 -27.8893
  1088 496.136 7.88747 56.4446
  1089 343.197 10.7371 223.768
  1090 58.3388 24.0941 12.4239
  1091 58.1595 24.1839 -12.4544
  1092 209.856 9.41342 -6.49266
  1093 209.864 9.41063 6.50512
  1094 742.671 11.8677 7.21146
  1095 50.7158 14.0982 5.91591
  1096 50.0906 14.2400 -6.12043
  1097 -21.8803 -4.68636 24.6054
  1098 -21.9025 -4.70954 -24.6341
  1099 -0.715692 -16.6019 6.68425
  1100 -0.744846 -16.5928 -6.71158
  1101 489.224 -1.47570 18.3077
  1102 489.010 -1.30807 -18.4080
  1103 1.19611 -33.2389 36.2293
  1104 -32.5223 2.36745 -32.2546
  1105 -32.4412 2.37296 32.1975
  1106 0.154578 -129.847 -12.6263
  1107 -6.92812 -9.91631 39.6950
  1108 -6.90300 -9.68578 -39.7370
  1109 466.735 -0.329931 -7.70936
  1110 466.887 -0.337766 7.70920
  1111 483.396 -4.73291 22.2518
  1112 483.039 -4.45866 -22.3468
  1113 87.9486 20.7476 -21.6795
  1114 87.2879 21.1018 21.8203
  1115 -1.08766 -66.9143 -23.1654
  1116 634.187 -49.0334 -133.425
  1117 821.060 116.051 17.7064
  1118 9.09956 -95.8598 1.35591
  1119 32.2293 17.8308 -23.2040
  1120 32.4171 17.7400 23.0558
  1121 82.8029 25.8366 3.43718
  1122 82.5987 25.9548 -3.43310
  1123 171.486 8.52340 3.38097
  1124 171.501 8.52201 -3.37270
  1125 -10.4017 -14.8177 31.7697
  1126 -10.3888 -14.9659 -31.8255
  1127 -27.8461 9.41907 24.8739
  1128 -27.9740 9.44015 -24.9189
  1129 -8.28074 12.1559 28.7439
  1130 -8.42060 12.1854 -28.8019
  1131 463.722 -23.8470 -39.0257
  1132 466.574 -23.9776 38.7832
  1133 0.559315 -75.9389 -26.6025
  1134 251.534 1.09824 -92.5107
  1135 251.853 1.85901 93.9185
  1136 82.8970 23.0630 -4.97220
  1137 83.0153 23.0063 4.98178
  1138 245.778 142.727 249.004
  1139 65.8153 18.2287 8.71224
  1140 65.7081 18.2640 -8.71320
  1141 628.495 -64.0300 -37.1728
  1142 241.550 5.01510 5.06038
  1143 241.524 5.01788 -5.05469
  1144 -10.6158 -9.43059 19.6000
  1145 -10.6251 -9.45479 -19.5966
  1146 -12.6032 -11.2555 25.2569
  1147 -12.6060 -11.3024 -25.2638
  1148 416.670 -39.2031 -127.880
  1149 424.511 -43.3902 128.775
  1150 79.1284 1.77714 1.38748
  1151 79.1933 1.77643 -1.38701
  1152 264.366 11.7965 -51.7343
  1153 264.335 11.6629 52.2034
  1154 565.844 -71.0177 99.5012
  1155 499.581 -1.45865 1.12790
  1156 499.405 -1.45748 -1.12679
  1157 -42.4308 7.01011 22.2787
  1158 -42.5576 7.02478 -22.3181
  1159 -73.9722 2.16296 -11.4300
  1160 -73.8297 2.15801 11.4135
  1161 133.335 13.3575 153.816
  1162 414.521 26.8018 -21.2770
  1163 241.842 15.8876 -26.5199
  1164 241.896 15.8579 26.6441
  1165 728.384 -8.57875 144.650
  1166 245.903 15.5725 -38.3373
  1167 245.964 15.5129 38.5518
  1168 65.0572 6.77023 -2.80124
  1169 65.1339 6.76401 2.79961
  1170 22.2233 -69.6429 18.3583
  1171 22.4308 -67.4338 -24.2547
  1172 331.579 -20.3565 -129.236
  1173 335.911 -18.8641 129.046
  1174 132.409 22.8268 -40.6627
  1175 131.849 23.2504 40.9985
  1176 577.647 -36.6419 -36.7172
  1177 -20.0876 -1.31716 36.4683
  1178 -20.1675 -1.31852 -36.5376
  1179 0.0867372 -29.5911 -37.2577
  1180 151.323 8.80658 -98.3560
  1181 151.630 9.17747 99.8882
  1182 -0.365684 -29.3460 7.42647
  1183 -0.313139 -29.4189 -7.52006
  1184 -135.153 1.09296 -3.30985
  1185 -134.981 1.09211 3.30479
  1186 455.528 -1.06216 -2.24102
  1187 455.677 -1.06389 2.24280
  1188 286.127 8.89038 -15.4487
  1189 286.193 8.86463 15.4729
  1190 -9.16502 0.666808 39.5249
  1191 -9.19290 0.835018 -39.6037
  1192 -0.00655778 -116.509 -11.2230
  1193 -115.548 0.243189 5.52886
  1194 -115.689 0.243841 -5.53895
  1195 94.5396 3.90618 -70.6351
  1196 93.8775 4.49083 72.7007
  1197 535.519 -32.5337 -4.94433
  1198 157.413 13.2182 -88.5924
  1199 157.499 13.5539 89.3451
  1200 -64.9453 0.363031 8.80827
  1201 -64.9927 0.362522 -8.82183
  1202 1.83395 -99.2918 -17.9724
  1203 -14.3463 3.44461 -3.84542
  1204 -14.2292 3.44167 3.84081
  1205 85.0426 19.1013 5.54429
  1206 84.9418 19.1391 -5.53563
  1207 303.053 0.0981926 -1.94815
  1208 303.114 0.0972205 1.94934
  1209 405.612 0.655521 9.17584
  1210 405.493 0.665814 -9.17360
  1211 24.0268 -0.571780 19.1541
  1212 23.6741 -0.969685 -19.5868
  1213 4.23507 -56.3975 27.6676
  1214 729.342 104.330 16.0957
  1215 -22.3874 -1.70379 14.0955
  1216 -22.3933 -1.71149 -14.1051
  1217 3.39068 -52.8380 -29.1929
  1218 -2.08285 -33.8536 20.5659
  1219 -1.98588 -33.5086 -21.2992
  1220 574.984 -6.38866 8.97677
  1221 0.489470 -132.962 11.4275
  1222 4.83406 -38.3792 -32.6097
  1223 73.7740 1.14850 0.555211
  1224 73.7063 1.14876 -0.555667
  1225 -5.29999 -23.4605 37.0013
  1226 -59.4827 3.30470 -9.44408
  1227 -59.3436 3.29965 9.43118
  1228 1145.06 19.1019 33.4706
  1229 -31.8684 4.10514 32.4011
  1230 -31.9642 4.10295 -32.4640
  1231 281.846 10.4908 -46.7206
  1232 282.042 10.3187 46.9727
  1233 19.3843 -23.8033 -11.2308
  1234 267.739 12.0998 -19.5696
  1235 267.801 12.0649 19.6187
  1236 11.6402 -75.7091 -1.24723
  1237 -5.32495 -23.5251 -36.9639
  1238 -39.6003 1.29100 5.34136
  1239 -39.7308 1.29284 -5.34757
  1240 -18.9683 2.02170 -37.0760
  1241 -18.8705 2.03019 37.0100
  1242 574.144 46.8727 40.2331
  1243 324.804 2.85250 -48.9497
  1244 325.143 2.79088 49.0684
  1245 -140.444 0.251008 -1.09139
  1246 -140.259 0.250921 1.08962
  1247 291.917 5.44048 -10.4029
  1248 291.975 5.43212 10.4116
  1249 -143.222 -2.60936 -0.409982
  1250 -143.412 -2.61109 0.410112
  1251 434.265 -30.5332 -56.1302
  1252 -66.9571 1.19143 18.3840
  1253 -67.0464 1.19163 -18.4169
  1254 438.428 -32.2381 55.6266
  1255 297.386 9.23266 -20.7966
  1256 297.467 9.18998 20.8295
  1257 35.9159 -61.4171 -69.7872
  1258 0.668847 -91.9654 -22.6906
  1259 -1.68673 -38.4680 34.6398
  1260 910.392 172.683 -144.016
  1261 -0.185664 -86.7765 22.4418
  1262 953.406 90.4542 -63.7426
  1263 -0.607889 -161.099 -10.4345
  1264 51.4387 3.73956 -0.571079
  1265 51.5197 3.73690 0.569924
  1266 -0.390537 -37.6434 7.77701
  1267 -0.310937 -37.8479 -7.75971
  1268 168.497 2.71089 0.616509
  1269 168.512 2.71028 -0.615763
  1270 583.380 -42.1361 34.5930
  1271 16.6746 3.66643 -4.45164
  1272 16.7756 3.66277 4.44721
  1273 3.36581 -172.440 3.71947
  1274 2.14435 -184.170 -3.72501
  1275 536.401 -63.8716 -61.4117
  1276 -1.41596 -48.2623 22.6217
  1277 569.552 38.6898 -52.0881
  1278 -1.66434 -63.5845 22.1746
  1279 1.16547 -171.980 -7.52327
  1280 273.074 6.13190 -11.6706
  1281 273.123 6.11582 11.6860
  1282 -0.223545 -95.3386 10.0166
  1283 -0.213924 -78.4946 -22.4668
  1284 1237.36 229.089 194.886
  1285 501.750 -0.0485336 0.841867
  1286 501.574 -0.0482692 -0.841206
  1287 15.1074 2.71154 29.9865
  1288 14.6572 3.25697 -30.1458
  1289 -6.02943 7.99602 36.5993
  1290 -6.23176 7.99934 -36.7061
  1291 543.981 -9.56577 -32.9552
  1292 501.298 -21.3988 -23.0980
  1293 500.889 -24.2458 23.4353
  1294 79.6173 7.75092 2.61069
  1295 79.5464 7.75847 -2.61063
  1296 -79.8495 2.10708 -13.9958
  1297 -79.7192 2.10239 13.9702
  1298 558.494 -72.2626 -85.6800
  1299 -4.14012 -10.0913 10.3506
  1300 -4.15681 -10.0856 -10.3469
  1301 590.969 -22.8168 55.0916
  1302 -6.00728 -22.9260 27.5643
  1303 -5.93905 -23.0139 -27.4392
  1304 -47.8385 3.05928 6.45112
  1305 -47.9730 3.06325 -6.45965
  1306 92.7505 13.1859 -38.5174
  1307 91.8359 13.6890 38.4725
  1308 144.228 2.58707 -0.0685990
  1309 144.199 2.58783 0.0689876
  1310 -54.5871 5.61623 22.2171
  1311 -54.7085 5.62699 -22.2565
  1312 471.895 0.516049 1.30804
  1313 471.736 0.516092 -1.30707
  1314 266.289 3.36429 171.906
  1315 388.082 -0.408749 3.26098
  1316 387.972 -0.407217 -3.25888
  1317 263.013 5.82425 -70.9304
  1318 263.010 5.53778 71.4944
  1319 2.65032 -98.6455 -11.7811
  1320 104.164 25.0767 -18.3609
  1321 103.712 25.3607 18.5092
  1322 -1.02894 -0.888852 -1.32447
  1323 -1.03410 -0.889020 1.32830
  1324 335.186 8.60285 26.4760
  1325 335.059 8.68792 -26.4382
  1326 169.671 12.1664 5.54998
  1327 169.691 12.1629 -5.53311
  1328 247.220 12.1477 -13.7675
  1329 247.258 12.1305 13.7982
  1330 320.347 0.395684 -3.29288
  1331 320.418 0.394512 3.29493
  1332 -10.1277 -4.86488 -11.6709
  1333 -10.1243 -4.85810 11.6752
  1334 -92.4709 -0.112737 3.81206
  1335 -92.6287 -0.112375 -3.81737
  1336 -16.9849 -7.66905 -28.1495
  1337 -16.9667 -7.62797 28.1146
  1338 -49.8580 0.389600 1.54105
  1339 -49.9944 0.389354 -1.54270
  1340 -145.121 1.26917 0.613520
  1341 -145.311 1.26967 -0.614219
  1342 598.392 -68.8961 115.288
  1343 448.636 -1.96600 -46.4740
</Section>

newXOutput 72

<Section columns = "stress_xx | stress_yy | stress_xy">
  1 522.962 -0.993253 0.565047
  2 523.151 -0.994040 -0.565335
  3 -159.174 0.694665 -2.19879
  4 0.252388 0.0561952 0.452468
  5 934.240 298.118 314.899
  6 1056.84 334.756 -303.787
  7 0.251129 0.0550670 -0.450792
  8 -158.971 0.694528 2.19752
  9 521.458 -0.953547 -1.74114
  10 521.933 -1.77836 -2.78776
  11 526.815 -1.78676 -0.784593
  12 527.451 -1.77008 -3.33560
  13 528.983 -1.75818 -1.11396
  14 539.871 -1.62087 -1.51306
  15 543.810 -2.26591 -4.48267
  16 548.221 -1.19437 -3.12062
  17 551.209 -0.159523 -6.01166
  18 573.226 -3.41979 -5.14218
  19 583.093 -2.75238 -6.55807
  20 594.219 -3.99113 -2.85295
  21 599.979 -5.15126 -1.96533
  22 597.440 -5.79053 6.80753
  23 579.551 -6.32919 14.8168
  24 536.901 -6.69112 32.3350
  25 466.254 4.38841 37.8416
  26 409.116 5.57277 34.8166
  27 328.500 10.2210 21.0524
  28 348.073 9.92426 2.32397
  29 296.928 28.9512 -13.1662
  30 390.761 13.5888 -38.5313
  31 441.148 3.69335 -31.3791
  32 527.256 -1.23086 -27.2283
  33 573.897 -7.67439 -17.8877
  34 596.833 -6.73241 -6.73919
  35 599.079 -5.00526 2.01802
  36 593.626 -3.94388 2.71261
  37 582.918 -2.76730 6.38993
  38 573.238 -3.45835 5.04925
  39 551.347 -0.180802 5.97111
  40 548.399 -1.20240 3.10696
  41 544.006 -2.27137 4.48006
  42 540.071 -1.62385 1.51226
  43 529.178 -1.76035 1.11451
  44 527.645 -1.77195 3.33826
  45 527.007 -1.78823 0.785594
  46 522.122 -1.77969 2.78991
  47 521.647 -0.954330 1.74247
  48 494.233 0.833854 -0.675405
  49 458.793 -0.270407 -1.45998
  50 414.314 -2.48482 -1.41120
  51 368.002 0.0629647 -1.17356
  52 327.221 -0.405905 -0.923547
  53 283.408 0.974772 -1.08440
  54 239.986 3.27326 -0.611633
  55 194.725 2.81295 -1.35314
  56 157.062 1.67002 -1.92728
  57 107.467 0.727113 -2.03088
  58 56.9476 1.92277 -1.55709
  59 14.6886 1.62950 -1.50644
  60 -38.1628 0.836353 -1.35839
  61 -77.4689 -0.822360 -3.45905
  62 -115.569 -2.76711 -1.56502
  63 -154.295 0.258886 1.11116
  64 -162.782 2.78193 -0.340598
  65 -163.500 1.19543 0.575669
  66 -158.123 0.559799 -0.0932940
  67 -160.235 1.77127 -1.88437
  68 -157.884 2.17277 -0.0241171
  69 -149.508 0.632003 -2.93106
  70 -151.751 1.34691 -3.17623
  71 -148.182 1.26673 -1.71220
  72 -137.354 0.769751 -2.65624
  73 -132.696 1.44878 -4.49844
  74 -124.816 1.64045 -3.64366
  75 -110.684 0.829552 -6.48541
  76 -102.803 0.259200 -5.41264
  77 -88.3789 0.370770 -6.29679
  78 -76.0181 0.310644 -7.02567
  79 -65.1491 0.114556 -5.54753
  80 -49.9512 0.336125 -5.60364
  81 -36.8077 -0.121003 -6.01732
  82 -24.0798 -0.641776 -5.31592
  83 -13.9624 -0.565207 -4.09236
  84 -6.90011 -1.00541 -3.43416
  85 -1.21187 -0.582518 -1.24430
  86 0.0354764 -0.657704 -0.456527
  87 -0.352930 -0.379855 -0.107033
  88 -0.913438 -0.998307 -1.09274
  89 -0.888521 -5.84776 -2.98755
  90 -0.748541 -13.0305 -4.23013
  91 -0.379896 -22.1156 -6.15131
  92 -0.188653 -33.9124 -5.29852
  93 -0.137325 -44.6954 -6.66182
  94 -0.803784 -57.7685 -7.49048
  95 -0.330359 -73.9689 -7.53063
  96 0.151125 -90.2765 -7.19310
  97 0.349880 -107.709 -7.07981
  98 0.549361 -125.566 -6.93267
  99 -0.00153528 -138.452 -9.35819
  100 0.895998 -157.016 -8.35235
  101 1.12644 -178.673 -6.54375
  102 -0.162545 -187.615 -8.66824
  103 1.59527 -202.745 -7.93833
  104 4.03570 -222.745 -3.18715
  105 7.93424 -226.628 -5.08377
  106 5.90260 -202.214 8.00004
  107 9.14526 -143.832 27.9762
  108 41.6397 -63.9651 75.1332
  109 126.348 227.130 235.191
  110 1430.12 80.2453 144.553
  111 1232.17 22.7359 52.0199
  112 1192.55 7.68660 12.1605
  113 1183.76 1.91840 -1.88792
  114 1192.11 12.2357 -27.3830
  115 1231.36 41.6589 -62.1898
  116 1394.28 156.869 -183.985
  117 306.680 178.668 -286.062
  118 71.0991 -63.9315 -89.5716
  119 21.1617 -157.787 -34.7687
  120 5.99058 -191.007 -8.39837
  121 6.45238 -217.711 2.06671
  122 1.79315 -213.747 2.16573
  123 0.583693 -197.623 6.57600
  124 0.670017 -186.628 5.16865
  125 0.984690 -168.671 9.36097
  126 -0.0464914 -158.535 9.22738
  127 0.388438 -143.412 6.61779
  128 0.782507 -124.100 8.52107
  129 0.166914 -110.265 6.74619
  130 0.223339 -90.3400 8.53277
  131 -0.903012 -74.8745 7.34847
  132 -0.615555 -57.8124 7.25150
  133 -0.0911694 -44.4404 6.67664
  134 -0.248455 -33.7138 5.30558
  135 -0.369616 -22.0504 6.09028
  136 -0.737299 -13.0221 4.20890
  137 -0.883734 -5.85676 2.98546
  138 -0.912150 -1.00817 1.09496
  139 -0.352859 -0.384057 0.109871
  140 0.0303390 -0.658288 0.459057
  141 -1.22140 -0.582114 1.24744
  142 -6.91395 -1.00430 3.43705
  143 -13.9804 -0.563329 4.09301
  144 -24.0929 -0.639466 5.31326
  145 -36.8085 -0.119091 6.01052
  146 -49.9375 0.336504 5.59574
  147 -65.1153 0.115560 5.53915
  148 -75.9657 0.311889 7.01578
  149 -88.3013 0.370786 6.28616
  150 -102.702 0.259191 5.40240
  151 -110.566 0.829007 6.47501
  152 -124.675 1.63938 3.63529
  153 -132.541 1.44757 4.49129
  154 -137.186 0.768937 2.65139
  155 -148.001 1.26581 1.70884
  156 -151.564 1.34618 3.17259
  157 -149.318 0.631775 2.92795
  158 -157.686 2.17162 0.0229889
  159 -160.034 1.77037 1.88259
  160 -157.922 0.559679 0.0927876
  161 -163.295 1.19492 -0.575596
  162 -162.578 2.78055 0.340213
  163 -154.095 0.258995 -1.11071
  164 -115.392 -2.76510 1.56403
  165 -77.3139 -0.821307 3.45705
  166 -38.0303 0.836459 1.35744
  167 14.7914 1.62907 1.50547
  168 57.0267 1.92205 1.55614
  169 107.518 0.727043 2.02970
  170 157.085 1.66951 1.92624
  171 194.727 2.81200 1.35245
  172 239.962 3.27215 0.611340
  173 283.360 0.975034 1.08383
  174 327.148 -0.404877 0.923033
  175 367.904 0.0636066 1.17289
  176 414.190 -2.48273 1.41048
  177 458.642 -0.269844 1.45917
  178 494.061 0.833621 0.675040
  179 143.973 23.8347 -8.92256
  180 143.877 23.8890 8.99027
  181 -0.988709 4.99709 37.7324
  182 -1.14774 4.95280 -37.7634
  183 321.960 -4.08388 -75.2117
  184 321.677 -4.67455 75.9522
  185 66.4903 17.0670 -7.40318
  186 65.7101 17.3209 7.40687
  187 50.9904 7.23969 -4.61525
  188 51.0787 7.23099 4.61157
  189 303.070 4.27507 -11.6740
  190 303.135 4.26158 11.6854
  191 -1.77677 11.8674 19.6071
  192 -1.90727 11.8951 -19.6387
  193 351.791 7.57843 -28.7948
  194 351.953 7.47436 28.8425
  195 -13.2533 -11.4373 31.0862
  196 -13.2533 -11.5083 -31.1317
  197 3.83854 -26.2845 -35.7423
  198 112.798 10.7401 -71.4673
  199 4.55900 -28.1937 34.8075
  200 111.041 11.5791 72.4696
  201 496.578 -63.0962 -108.245
  202 513.154 -65.5552 104.165
  203 182.182 4.57310 -2.65658
  204 182.172 4.57360 2.66012
  205 -23.2695 1.43807 -3.55095
  206 -23.1453 1.43704 3.54712
  207 -37.4986 6.14387 29.1482
  208 -37.6133 6.15409 -29.2067
  209 183.274 15.1892 -7.24826
  210 183.260 15.1944 7.27240
  211 57.9871 23.6080 11.2755
  212 57.7571 23.7447 -11.3427
  213 -46.6776 5.08610 -11.3531
  214 -46.5415 5.07750 11.3365
  215 398.846 -0.579330 5.37039
  216 398.731 -0.575529 -5.36743
  217 13.7856 -48.9839 12.8311
  218 14.9704 -43.9604 -10.8778
  219 -3.47687 -32.5450 34.8135
  220 -3.58213 -33.8905 -33.7485
  221 170.132 24.0644 -32.6575
  222 169.954 24.1885 32.9296
  223 -34.8044 0.0886305 30.0080
  224 -34.8695 0.0822993 -30.0573
  225 426.604 1.29334 -15.3735
  226 426.738 1.26345 15.3687
  227 460.527 -7.66830 -30.7093
  228 460.903 -8.10285 30.6323
  229 739.409 54.5595 1.02090
  230 678.654 77.6303 30.7590
  231 664.485 -0.380595 -50.3046
  232 85.9307 17.4565 5.24286
  233 85.8390 17.4870 -5.23724
  234 8.48253 15.2119 28.1057
  235 8.32844 15.2556 -28.1610
  236 514.613 -30.9951 -22.6435
  237 511.697 -31.3507 24.3484
  238 286.717 1.01504 -4.41319
  239 286.768 1.01257 4.41650
  240 -60.5969 4.36680 19.1602
  241 -60.7263 4.37653 -19.1942
  242 -8.63206 -8.48053 -14.1682
  243 -8.62271 -8.47335 14.1749
  244 -65.3963 1.30446 5.52159
  245 -65.5427 1.30654 -5.52884
  246 238.030 16.1991 -20.4641
  247 238.062 16.1773 20.5327
  248 301.490 8.04383 -43.5311
  249 301.696 7.91648 43.7099
  250 76.9194 3.58836 0.294611
  251 76.9882 3.58630 -0.294865
  252 176.307 10.2553 -149.089
  253 207.722 14.5564 161.499
  254 25.4463 12.0621 25.9873
  255 25.3386 12.2974 -26.1214
  256 694.786 -45.8599 -22.4050
  257 64.8771 22.7705 9.84710
  258 64.7406 22.8301 -9.85267
  259 173.427 19.5406 -58.2589
  260 173.076 19.9821 58.8044
  261 780.052 114.265 3.44300
  262 462.595 -0.802377 20.7894
  263 462.405 -0.677464 -20.8328
  264 -4.09896 -25.6364 -22.0488
  265 -3.96947 -25.7346 22.1325
  266 -0.775745 -60.2751 -29.8430
  267 2.34460 -69.2349 -26.6312
  268 1.30533 -69.7738 28.2605
  269 -10.8450 -9.30480 39.4536
  270 -10.8977 -9.29644 -39.6261
  271 26.2417 -50.3921 -14.7904
  272 28.2906 -45.8261 19.2571
  273 -26.5024 -2.15809 19.3345
  274 -26.5216 -2.16865 -19.3553
  275 332.049 7.66712 -18.2042
  276 332.147 7.62842 18.2224
  277 577.429 -57.2459 -9.92471
  278 132.404 9.69853 1.28737
  279 132.445 9.69208 -1.28176
  280 -1.38926 -56.6426 28.5819
  281 16.5596 11.3231 11.9530
  282 16.4439 11.3441 -11.9681
  283 910.792 62.2318 -28.0607
  284 447.423 -0.640489 6.49650
  285 447.281 -0.633948 -6.49510
  286 306.457 -12.4023 -112.093
  287 308.960 -12.1764 113.658
  288 576.745 -54.3765 0.614465
  289 -53.4991 1.75944 23.5765
  290 -53.5809 1.75890 -23.6180
  291 562.327 -36.7624 180.772
  292 -22.8056 4.47256 35.4310
  293 -22.9074 4.46374 -35.5028
  294 99.6632 27.2085 -11.4739
  295 99.2712 27.4572 11.5634
  296 -94.5702 0.520919 0.910077
  297 -94.7350 0.520698 -0.911307
  298 475.021 20.9720 -244.055
  299 -90.5931 1.74785 -10.1491
  300 -90.4446 1.74395 10.1321
  301 -1.75791 -10.5353 39.6564
  302 -0.276409 -10.1754 -39.1466
  303 214.125 20.6110 -29.3308
  304 214.116 20.6186 29.4918
  305 50.7817 4.51174 3.48802
  306 50.6967 4.51578 -3.49104
  307 221.875 6.90369 -6.64453
  308 221.889 6.90129 6.65335
  309 22.1173 -12.5258 18.1873
  310 20.1772 -15.5532 -18.5231
  311 215.401 2.27023 -1.79844
  312 215.411 2.27024 1.80000
  313 -75.3576 1.98255 17.1209
  314 -75.4661 1.98532 -17.1525
  315 55.6649 -1.02319 -17.8582
  316 54.0776 -1.11300 16.4059
  317 465.428 -1.16788 1.82387
  318 465.273 -1.16650 -1.82223
  319 1008.35 56.5248 42.6823
  320 110.868 13.1233 0.882219
  321 110.807 13.1374 -0.874329
  322 -17.7300 4.60223 7.44393
  323 -17.8531 4.60934 -7.45394
  324 150.686 18.7672 -6.30489
  325 150.635 18.7877 6.34287
  326 19.6893 16.0112 28.9068
  327 19.5621 16.0420 -28.9979
  328 2.33909 -100.691 19.2688
  329 -98.4800 -0.0516506 -2.19445
  330 -98.3140 -0.0513528 2.19168
  331 358.494 -0.406086 -3.52704
  332 358.586 -0.407947 3.52925
  333 377.354 1.17376 -9.34728
  334 377.458 1.16299 9.35113
  335 -92.4935 1.41017 -7.19082
  336 -92.3358 1.40777 7.18085
  337 3.71777 1.10584 0.628923
  338 3.60872 1.10611 -0.629995
  339 -2.09158 -42.3333 21.9303
  340 -1.65431 -44.0363 -21.8986
  341 427.546 -34.2508 -76.3654
  342 443.524 -41.0175 75.0627
  343 255.766 10.7326 -12.8239
  344 255.804 10.7191 12.8457
  345 115.520 26.1198 -7.57792
  346 115.315 26.2423 7.64865
  347 -35.3652 7.23494 16.4034
  348 -35.4969 7.25025 -16.4305
  349 782.494 26.3990 31.6245
  350 43.9532 -50.7216 -53.0345
  351 46.9990 -46.1314 55.2071
  352 -13.8192 12.1454 26.8049
  353 -13.9550 12.1729 -26.8562
  354 -21.0889 -3.97355 35.1177
  355 -21.1498 -3.98637 -35.1869
  356 888.508 154.964 -52.5865
  357 580.016 -5.33069 65.8292
  358 535.272 -13.2236 -14.6607
  359 534.931 -12.9140 13.8902
  360 379.415 -5.19072 -48.8594
  361 378.954 -5.52717 48.8989
  362 0.745580 -121.327 -15.3246
  363 488.400 0.311533 -11.5592
  364 488.554 0.277322 11.5352
  365 6.65846 -112.809 10.9274
  366 579.904 45.8755 -33.0537
  367 143.903 3.39656 1.22581
  368 143.872 3.39798 -1.22639
  369 380.905 1.51346 -36.2434
  370 381.143 1.35080 36.3065
  371 408.133 1.93545 -21.7432
  372 408.279 1.86303 21.7381
  373 -2.49079 3.85112 4.76051
  374 -2.60491 3.85542 -4.76627
  375 239.098 13.2199 -58.9506
  376 239.123 13.3782 59.4259
  377 479.377 -0.962177 2.97342
  378 479.214 -0.960155 -2.97133
  379 277.984 13.7114 -30.2012
  380 278.077 13.6444 30.3071
  381 318.312 3.33230 7.84024
  382 318.242 3.33753 -7.83485
  383 -15.1032 -2.67596 12.0224
  384 -15.1041 -2.68346 -12.0241
  385 -3.62195 -2.56543 -3.55957
  386 -3.62343 -2.56643 3.56489
  387 641.619 -74.2630 53.0985
  388 -8.11240 -19.7318 32.3320
  389 -8.05429 -19.9103 -32.3417
  390 109.977 5.59616 -0.771060
  391 110.029 5.59250 0.771914
  392 -3.16574 -16.0416 12.0863
  393 -3.20282 -16.0182 -12.0891
  394 44.6311 17.8281 12.6657
  395 44.5104 17.8665 -12.6785
  396 524.211 -3.06596 15.4044
  397 523.992 -2.88967 -15.6219
  398 -0.805299 -29.8564 38.1621
  399 -42.9065 -0.712138 18.1921
  400 -42.9442 -0.716450 -18.2182
  401 -0.971803 -31.6153 -37.7387
  402 490.875 -0.591507 7.37709
  403 490.712 -0.581431 -7.38137
  404 -2.40831 11.5319 34.0555
  405 -2.58463 11.5629 -34.1363
  406 366.667 3.89233 -14.7360
  407 366.770 3.86854 14.7414
  408 561.904 -23.8797 -9.16122
  409 563.190 -19.4548 6.59958
  410 -1.06549 -57.5308 -23.9382
  411 53.5704 20.3926 -6.71598
  412 54.0049 20.1927 6.64031
  413 571.917 36.8962 20.3203
  414 322.573 -12.6052 -153.796
  415 330.725 -18.4242 160.594
  416 22.5403 17.2998 20.8377
  417 22.4000 17.3439 -20.8717
  418 238.021 4.79269 -4.54975
  419 238.044 4.79168 4.55418
  420 231.371 53.4601 243.036
  421 98.9114 21.5106 -2.63279
  422 99.0182 21.4627 2.65110
  423 6.44491 -52.0223 24.2734
  424 -0.684603 -93.1742 -20.5164
  425 40.9014 21.5776 18.6925
  426 40.7413 21.6417 -18.7346
  427 50.9400 11.5431 -7.23006
  428 51.0358 11.5261 7.22503
  429 -14.7278 -0.149939 -39.1059
  430 -14.6272 -0.172364 39.0305
  431 117.258 23.6856 -26.5245
  432 116.753 24.0182 26.7393
  433 567.790 -17.0286 -50.2100
  434 17.5583 -3.46394 28.2330
  435 17.0160 -3.35079 -28.4422
  436 413.890 -17.9855 -53.9487
  437 415.512 -19.1781 53.9074
  438 -100.253 0.736222 -10.1370
  439 -100.114 0.733714 10.1188
  440 -0.00500832 -91.8478 18.5565
  441 -0.629170 -58.4988 21.3442
  442 -40.4576 2.85865 30.1129
  443 -40.5431 2.85596 -30.1673
  444 296.772 0.862563 -1.67891
  445 296.828 0.861645 1.68010
  446 -8.69362 -13.7473 22.1747
  447 -8.71079 -13.7816 -22.1553
  448 188.782 12.2920 -85.1338
  449 188.373 13.0875 85.9874
  450 1.57472 -109.740 -19.7545
  451 1006.16 33.5693 0.355769
  452 2.99355 -127.254 -9.90003
  453 -116.534 -0.240553 -3.42828
  454 -116.360 -0.240525 3.42411
  455 -43.9605 6.55712 23.9346
  456 -44.0864 6.57094 -23.9803
  457 -53.7821 0.801645 18.1844
  458 -53.8380 0.801020 -18.2126
  459 205.551 19.6357 -20.6402
  460 205.543 19.6481 20.7376
  461 307.051 10.4541 -23.3284
  462 307.151 10.3966 23.3757
  463 -4.53845 -17.8781 39.5776
  464 -4.54572 -17.7599 -39.7477
  465 536.841 11.4725 -63.1656
  466 38.3115 -5.46754 -1.66843
  467 36.9688 -5.79723 2.36370
  468 8.92855 -111.506 -4.84968
  469 5.85675 -130.759 0.648018
  470 -15.8712 -7.01212 22.7967
  471 -15.8816 -7.03911 -22.8100
  472 115.913 5.40619 -130.312
  473 798.272 15.6342 -91.1032
  474 187.377 10.2860 6.76776
  475 187.386 10.2848 -6.75343
  476 270.952 3.77058 -81.1451
  477 271.475 3.69564 82.2590
  478 82.2694 27.2351 4.81084
  479 82.1021 27.3291 -4.80636
  480 244.979 17.3987 -43.9189
  481 245.046 17.3311 44.2033
  482 10.5865 6.11042 34.3423
  483 11.1280 6.38281 -34.3011
  484 -103.898 1.40695 -7.22220
  485 -103.738 1.40492 7.21113
  486 529.552 -59.8606 -45.7174
  487 418.266 -0.980436 -2.46571
  488 418.393 -0.981829 2.46750
  489 27.9587 2.03642 -1.72929
  490 28.0547 2.03499 1.72712
  491 -23.7297 9.59548 21.8395
  492 -23.8618 9.61739 -21.8778
  493 -56.4127 3.31675 -7.48314
  494 -56.2716 3.31193 7.47254
  495 187.539 16.4570 -10.2396
  496 187.525 16.4616 10.2769
  497 -19.6347 8.64308 31.5441
  498 -19.7653 8.66159 -31.6127
  499 484.407 -14.4314 -29.1524
  500 485.244 -15.0773 28.8507
  501 321.682 2.82677 -54.2910
  502 321.169 2.64006 54.7285
  503 123.143 4.12568 -0.308991
  504 123.186 4.12371 0.309182
  505 1.59002 -55.4960 -32.0113
  506 569.664 -19.4355 40.9821
  507 8.60731 -34.9519 -27.7824
  508 166.122 25.5011 21.7509
  509 166.245 25.4165 -21.5953
  510 523.823 -55.9988 45.2834
  511 42.2443 -38.4171 70.9987
  512 620.529 -72.7637 -87.6754
  513 424.806 0.353188 26.2469
  514 424.603 0.498813 -26.2508
  515 1.57632 -47.2561 33.3216
  516 -8.34768 -2.46460 -6.47813
  517 -8.35072 -2.46299 6.48227
  518 57.4378 1.66277 -0.379568
  519 57.5169 1.66212 0.378954
  520 -1.40672 -32.9123 14.1683
  521 -1.27622 -32.7627 -14.2446
  522 350.336 1.95847 6.05165
  523 350.249 1.96120 -6.04805
  524 971.686 179.708 83.8635
  525 43.0914 -19.5396 -17.7909
  526 33.6936 -28.2851 10.7516
  527 -5.23369 6.92026 -10.0855
  528 -5.11369 6.90789 10.0719
  529 -84.0648 1.31736 10.8093
  530 -84.1560 1.31881 -10.8279
  531 0.885282 -103.285 19.9207
  532 -113.707 0.811737 0.801406
  533 -113.882 0.811777 -0.802739
  534 112.226 1.04839 -97.0811
  535 109.865 2.68548 100.568
  536 103.158 20.1389 -36.2509
  537 102.393 20.5653 36.4331
  538 -22.3376 -4.48724 30.8952
  539 -22.3780 -4.50879 -30.9461
  540 102.504 7.54365 0.613749
  541 102.445 7.54965 -0.612071
  542 -44.6836 1.81558 2.87098
  543 -44.8196 1.81706 -2.87530
  544 119.744 15.7188 -0.282482
  545 119.680 15.7395 0.298332
  546 -2.28904 -7.54863 5.55113
  547 -2.29720 -7.54260 -5.55029
  548 44.7483 19.3809 15.8644
  549 44.4549 19.6326 -15.9800
  550 36.1389 7.86130 13.3351
  551 35.6454 7.82047 -13.6460
  552 428.030 1.70727 11.0026
  553 427.898 1.71966 -11.0016
  554 380.768 3.48364 17.8370
  555 380.649 3.52436 -17.8332
  556 -0.385955 -88.7421 -12.9496
  557 269.793 11.7288 -18.3321
  558 269.849 11.7026 18.3697
  559 269.905 4.46732 -7.24410
  560 269.947 4.46194 7.25159
  561 -30.2719 0.673820 0.199656
  562 -30.1438 0.673979 -0.200029
  563 475.279 24.4958 -12.1543
  564 596.068 -71.4723 -35.7685
  565 503.846 24.2282 47.1848
  566 4.42638 -72.6824 -22.4035
  567 -21.9666 7.92950 -13.8578
  568 -21.8385 7.91468 13.8374
  569 4.81490 -41.6331 30.8508
  570 -25.2770 1.11384 34.9477
  571 -25.3581 1.10752 -35.0089
  572 763.867 73.1419 6.14958
  573 178.265 6.48725 -3.55421
  574 178.253 6.48831 3.55981
  575 1128.54 97.6645 -103.272
  576 -4.40512 -3.33751 40.2521
  577 -3.98446 -3.02657 -40.2717
  578 629.705 -51.8367 17.3215
  579 504.462 -0.367503 -12.7888
  580 504.618 -0.426191 12.7378
  581 238.732 3.25482 -116.869
  582 241.405 2.49063 118.517
  583 -12.4678 -11.8992 35.6553
  584 -12.4830 -11.9657 -35.7577
  585 127.235 14.3603 64.7047
  586 128.285 13.4741 -64.2531
  587 -97.7030 1.09404 -9.99778
  588 -97.5764 1.09220 9.97971
  589 741.620 70.9884 30.1136
  590 146.789 11.6958 2.65764
  591 146.824 11.6883 -2.64717
  592 172.591 21.6606 -45.0708
  593 172.332 21.9150 45.4791
  594 459.165 -2.20999 -25.5264
  595 459.428 -2.41724 25.4949
  596 -1.85021 -45.4182 -31.9428
  597 494.964 -1.15445 3.87145
  598 494.793 -1.15172 -3.86963
  599 -66.7488 0.996505 -0.971217
  600 -66.6003 0.996268 0.969291
  601 -122.136 -1.07427 -0.0466848
  602 -122.317 -1.07530 0.0464123
  603 11.5112 -64.6706 -8.04885
  604 -4.50977 -29.7642 27.6978
  605 -4.75665 -28.1214 -27.8810
  606 -55.0177 3.53926 24.9384
  607 -55.1181 3.54350 -24.9844
  608 351.607 6.91069 22.7143
  609 351.487 6.97319 -22.6942
  610 260.418 1.59480 1.66734
  611 260.383 1.59492 -1.66621
  612 61.3446 -9.65427 43.0918
  613 63.1607 -8.38794 -42.7444
  614 -1.76265 -22.9937 12.0036
  615 -1.81973 -22.9237 -12.0460
  616 592.428 58.6587 261.285
  617 -29.6185 -0.871858 11.0767
  618 -29.6240 -0.876260 -11.0873
  619 11.6179 -38.7459 -21.4515
  620 255.362 8.25233 -9.88856
  621 255.397 8.24458 9.90201
  622 128.189 26.4759 -17.4482
  623 127.925 26.6423 17.5946
  624 1.21221 -153.140 6.71866
  625 97.2411 25.1674 1.53441
  626 97.1118 25.2363 -1.51228
  627 -5.74107 10.0825 16.7224
  628 -5.86768 10.1036 -16.7475
  629 -0.705313 -77.9513 17.6566
  630 -123.232 -0.0184213 -3.46241
  631 -123.055 -0.0186241 3.45790
  632 170.344 2.82074 1.41836
  633 170.360 2.82029 -1.41669
  634 417.136 -0.0891135 7.40277
  635 417.011 -0.0831116 -7.39967
  636 372.088 -18.1808 200.023
  637 299.849 5.67812 -14.2799
  638 299.916 5.65768 14.2963
  639 6.23405 -4.52271 36.4797
  640 7.41293 -1.94316 -36.3164
  641 475.876 -40.9704 -162.847
  642 1093.80 36.7853 -42.8703
  643 -114.920 0.0182494 -6.80574
  644 -114.768 0.0171493 6.79445
  645 33.7027 5.37015 -4.17295
  646 33.7980 5.36424 4.16870
  647 -2.08845 -48.5098 28.3699
  648 646.405 42.4715 -55.0655
  649 489.182 -1.37759 0.707534
  650 489.013 -1.37639 -0.706736
  651 -31.2774 -1.57268 -25.5170
  652 -31.2375 -1.56369 25.4802
  653 -0.108259 -110.227 -16.7037
  654 497.421 -1.31632 1.49756
  655 497.247 -1.31507 -1.49605
  656 50.9491 15.2007 10.4754
  657 50.8417 15.2288 -10.4829
  658 387.265 -31.1426 -107.944
  659 393.870 -30.9647 109.035
  660 556.220 -4.07021 9.10384
  661 556.204 -4.03977 -9.42144
  662 2.49809 -137.514 12.4140
  663 -24.7285 0.353621 -1.62002
  664 -24.6035 0.353694 1.61789
  665 185.739 38.8162 -192.103
  666 176.942 2.32287 1.63439
  667 176.954 2.32219 -1.63333
  668 90.2300 5.05302 -0.121976
  669 90.1677 5.05636 0.122158
  670 106.054 9.84580 0.270751
  671 106.113 9.83674 -0.266005
  672 330.885 7.86244 -35.1717
  673 331.065 7.74093 35.2660
  674 91.1463 25.9262 -3.05217
  675 90.8657 26.1055 3.07435
  676 -55.3591 4.12310 -13.4327
  677 -55.2214 4.11376 13.4115
  678 -65.6232 4.56356 -15.5807
  679 -65.4870 4.55450 15.5539
  680 573.269 -8.97502 -0.290315
  681 1.40420 -21.5504 -37.9036
  682 573.805 -9.41079 -0.410228
  683 736.409 56.4770 -4.69345
  684 -71.4445 0.355734 12.3549
  685 -71.5152 0.355191 -12.3759
  686 79.3778 23.5055 -8.85034
  687 78.8159 23.7682 8.88657
  688 -132.092 -0.0363044 -1.10030
  689 -131.907 -0.0361294 1.09846
  690 1.92744 -19.2089 37.8739
  691 -44.1507 0.753064 26.5804
  692 -44.2222 0.749604 -26.6250
  693 630.790 -48.2637 -19.6233
  694 105.217 1.24157 -1.00949
  695 105.165 1.24195 1.00992
  696 28.0493 8.46928 7.48473
  697 27.9462 8.48132 -7.49205
  698 338.726 -14.0640 -90.8580
  699 341.094 -14.6229 92.4892
  700 1139.38 82.0167 93.3193
  701 23.8563 -92.1567 -43.6434
  702 -7.85425 -16.8412 37.9679
  703 -7.85962 -16.9161 -38.0650
  704 75.4351 14.7580 -4.67098
  705 75.5219 14.7365 4.67266
  706 511.386 -1.15911 -3.91814
  707 511.567 -1.16235 3.91837
  708 249.342 2.49366 3.24377
  709 249.313 2.49491 -3.24091
  710 23.6085 18.5563 25.4572
  711 23.4560 18.6103 -25.5158
  712 18.2581 3.77813 2.90780
  713 18.1563 3.78120 -2.91119
  714 -12.9511 4.14800 38.0213
  715 -13.0659 4.13958 -38.1114
  716 422.755 -1.49476 3.17000
  717 422.626 -1.49230 -3.16780
  718 367.917 1.68599 8.52887
  719 367.819 1.69209 -8.52440
  720 52.2293 -23.8318 50.9326
  721 53.6201 -26.1423 -49.4054
  722 -26.5915 6.45849 33.1312
  723 -26.7060 6.46336 -33.2011
  724 16.5455 -31.1329 15.8684
  725 3.48439 11.7720 34.1417
  726 3.30044 11.7968 -34.2017
  727 -77.2074 2.07252 -8.78707
  728 -77.0586 2.06852 8.77337
  729 68.7968 20.1742 9.03589
  730 68.6760 20.2200 -9.03596
  731 570.012 -16.7559 -27.3538
  732 539.417 -45.9600 -17.8211
  733 -8.49260 -17.4291 27.2882
  734 -8.48438 -17.5164 -27.2586
  735 214.406 5.07544 -137.741
  736 209.051 9.40744 138.833
  737 132.242 25.1424 -24.9314
  738 131.894 25.3836 25.1510
  739 12.3147 -17.9360 29.0177
  740 -0.736682 -58.0421 -15.4787
  741 270.702 13.5212 -33.7341
  742 270.808 13.4580 33.8876
  743 0.651877 -113.405 14.1561
  744 163.679 20.9178 -11.2708
  745 163.626 20.9437 11.3320
  746 538.148 -1.04160 -9.65367
  747 538.270 -1.10221 9.55041
  748 11.2542 -144.671 6.59870
  749 249.491 16.9537 25.9326
  750 249.439 16.9845 -25.8364
  751 70.0710 24.5705 -2.85011
  752 70.4322 24.3360 2.80276
  753 -96.7741 0.633402 -8.51007
  754 -96.6649 0.632722 8.49416
  755 274.828 2.98772 -6.19905
  756 274.873 2.98458 6.20416
  757 172.791 23.4961 -18.5578
  758 172.714 23.5440 18.6725
  759 4.47257 14.7321 25.8501
  760 4.32920 14.7712 -25.8976
  761 540.991 -39.4346 11.1252
  762 -79.2833 1.52005 6.61478
  763 -79.4362 1.52212 -6.62309
  764 1137.96 236.721 -168.067
  765 -26.6149 2.68645 6.62137
  766 -26.7416 2.69034 -6.62943
  767 458.356 0.119847 18.0425
  768 458.197 0.189937 -18.0724
  769 851.363 51.1821 -0.718897
  770 515.650 -1.97316 -7.30159
  771 515.823 -1.98450 7.29288
  772 334.478 3.19961 10.8757
  773 334.397 3.20980 -10.8688
  774 498.553 -50.6022 148.638
  775 220.669 14.3017 -10.8508
  776 220.684 14.2966 10.8795
  777 5.33846 -82.0795 15.4262
  778 570.816 -67.9373 52.8800
  779 347.538 -0.628799 1.82287
  780 347.453 -0.627505 -1.82173
  781 451.315 -0.761778 0.963809
  782 451.169 -0.760814 -0.962943
  783 -1.93505 -45.3519 -26.6111
  784 3.00244 -75.5111 24.5932
  785 210.058 22.4252 36.0143
  786 210.089 22.3968 -35.7720
  787 1123.08 9.75866 10.3991
  788 355.967 1.94163 -43.4418
  789 356.195 1.79658 43.5604
  790 -70.7787 2.34450 18.4501
  791 -70.9012 2.35027 -18.4828
  792 16.0725 -57.6209 1.78414
  793 10.2728 -133.822 -13.6487
  794 802.819 105.491 -21.4347
  795 -0.678758 -57.9187 13.9815
  796 18.7935 12.8637 29.9102
  797 18.7280 12.8522 -30.0828
  798 112.562 20.3822 0.169348
  799 112.480 20.4185 -0.147939
  800 535.847 -24.8340 -11.0410
  801 537.153 -24.4614 9.46158
  802 621.711 115.812 -247.989
  803 -81.2752 0.599085 -2.73315
  804 -81.1197 0.598480 2.72891
  805 -40.5855 -0.136412 10.3940
  806 -40.6016 -0.138364 -10.4070
  807 41.5201 5.92009 5.74021
  808 40.6614 5.88467 -5.85079
  809 408.905 -3.33332 38.9661
  810 408.616 -3.02798 -38.8532
  811 211.406 3.84004 -2.27825
  812 211.413 3.83995 2.28095
  813 656.353 -4.14453 49.7846
  814 74.4444 10.0547 -4.26013
  815 74.5240 10.0426 4.25978
  816 67.8628 11.8522 -15.7005
  817 67.2657 12.1410 15.8302
  818 0.170472 -43.7427 -34.9966
  819 912.467 159.329 143.521
  820 -130.263 0.0637888 -3.50447
  821 -130.086 0.0636425 3.49930
  822 -0.186876 -137.265 13.0378
  823 11.0105 -17.7831 -29.4575
  824 -20.2985 -1.21076 7.80245
  825 -20.2924 -1.21413 -7.80602
  826 738.396 51.0157 -29.1768
  827 197.824 17.8534 -13.7195
  828 197.814 17.8590 13.7776
  829 507.497 -8.32334 -19.7481
  830 508.002 -8.38200 19.5205
  831 -125.105 0.867267 4.78606
  832 -125.271 0.868578 -4.79383
  833 -0.938587 -0.968971 -0.814980
  834 -0.940492 -0.970677 0.818219
  835 0.367455 -140.268 -12.6258
  836 0.640133 -145.947 -10.8640
  837 -135.618 1.20571 0.625611
  838 -135.807 1.20607 -0.626356
  839 81.1497 -11.5348 -93.6156
  840 317.155 2.15269 -3.37916
  841 317.223 2.15159 3.38144
  842 -4.13781 1.76260 0.819573
  843 -4.25121 1.76308 -0.820345
  844 465.938 0.240714 -11.8828
  845 466.088 0.217639 11.8726
  846 -53.2411 0.361892 9.85138
  847 -53.2729 0.361873 -9.86516
  848 287.547 14.0036 -203.548
  849 490.883 -41.1018 43.9666
  850 383.578 0.298662 -3.94515
  851 383.684 0.296657 3.94761
  852 486.716 -44.5790 -48.7211
  853 156.496 15.5824 -5.64833
  854 156.458 15.5937 5.67501
  855 213.677 12.0974 -8.50611
  856 213.685 12.0950 8.52496
  857 569.467 -11.9185 20.9578
  858 38.3446 21.1889 20.0652
  859 38.1743 21.2649 -20.1390
  860 41.7460 1.46661 1.23236
  861 41.6579 1.46733 -1.23381
  862 271.147 1.71271 2.94429
  863 271.105 1.71362 -2.94211
  864 696.051 -54.3938 87.7768
  865 438.571 1.23260 -15.7420
  866 438.717 1.18992 15.7281
  867 11.8109 5.87502 5.86575
  868 11.7027 5.88228 -5.87242
  869 438.379 -1.52419 4.52406
  870 438.241 -1.52105 -4.52129
  871 -75.8564 0.0715184 -2.03289
  872 -75.7023 0.0720622 2.03141
  873 -0.360209 -44.4423 12.5126
  874 -0.480874 -45.1357 -12.6031
  875 535.361 -6.12798 51.8093
  876 -29.4504 8.24093 27.5321
  877 -29.5772 8.25905 -27.5865
  878 -0.165335 -72.9364 -13.7333
  879 213.462 6.07684 -4.52582
  880 213.471 6.07675 4.53117
  881 388.941 -19.1230 -69.6663
  882 391.792 -21.1298 70.3214
  883 -15.6885 -5.19844 -38.0548
  884 -15.6099 -5.19454 37.9640
  885 24.6156 18.3883 23.2173
  886 24.4662 18.4393 -23.2603
  887 1.80995 -163.288 8.48273
  888 8.10212 14.8427 30.8673
  889 7.94209 14.8782 -30.9281
  890 359.746 -6.61366 -62.0695
  891 358.925 -6.84518 62.5534
  892 620.472 37.8829 58.0406
  893 146.161 14.3915 3.55961
  894 146.202 14.3810 -3.54283
  895 449.139 1.57644 -11.7149
  896 449.281 1.55953 11.7117
  897 -17.1388 -7.27542 33.6909
  898 -17.1769 -7.30710 -33.7591
  899 1.65115 -166.417 -4.68926
  900 -26.3955 -1.50584 32.9033
  901 -26.4563 -1.51288 -32.9596
  902 21.3297 16.2214 -17.9087
  903 21.4599 16.1838 17.8819
  904 -1.37555 -11.2912 6.22366
  905 -1.39148 -11.2806 -6.23327
  906 42.7637 18.3011 -15.4296
  907 42.8977 18.2545 15.4105
  908 9.59958 -11.3916 33.3401
  909 8.46085 -10.5785 -35.2794
  910 439.719 -13.2485 39.9757
  911 438.717 -12.6950 -40.1319
  912 -138.814 0.272740 -0.919919
  913 -138.624 0.272785 0.918708
  914 -12.5394 -1.10670 5.89926
  915 -12.5292 -1.10882 -5.89819
  916 0.576255 -103.456 -12.4400
  917 -13.2548 -5.63221 -16.6970
  918 -13.2476 -5.61707 16.6957
  919 -54.1012 4.75176 23.7093
  920 -54.2177 4.76093 -23.7544
  921 141.412 25.8626 -12.0392
  922 141.286 25.9498 12.1263
  923 594.649 45.5523 -7.27837
  924 -3.15799 12.9566 23.4654
  925 -3.29383 12.9878 -23.5062
  926 220.992 14.5936 -66.2176
  927 220.957 14.7927 66.8655
  928 -21.9768 8.84492 18.8287
  929 -22.1075 8.86559 -18.8608
  930 700.911 -26.5912 -2.20228
  931 444.003 17.7144 25.3334
  932 520.244 -5.39147 -46.8382
  933 384.768 3.59639 -26.3869
  934 384.931 3.49611 26.4031
  935 -35.9380 4.99666 -8.77991
  936 -35.8066 4.98861 8.76700
  937 -88.5861 1.53333 11.6084
  938 -88.7269 1.53726 -11.6291
  939 -5.42047 -17.6723 -19.3491
  940 -5.37955 -17.6833 19.3810
  941 140.645 7.38988 2.15226
  942 140.680 7.38589 -2.14798
  943 -41.1103 4.58940 29.7143
  944 -41.2103 4.59116 -29.7720
  945 456.686 -1.16604 5.84999
  946 456.538 -1.16238 -5.84708
  947 -3.31680 -38.5086 28.9695
  948 21.3646 14.6970 -15.1962
  949 21.4870 14.6670 15.1760
  950 28.4466 9.79192 9.52015
  951 28.3395 9.80822 -9.53021
  952 84.3578 6.21813 -1.51212
  953 84.4247 6.21306 1.51151
  954 855.315 120.873 -36.8219
  955 -3.49681 -0.939345 -2.37130
  956 -3.50425 -0.939152 2.37550
  957 32.0562 10.3152 -18.4921
  958 32.5835 10.0868 18.3793
  959 312.713 10.8484 -28.3998
  960 312.835 10.7701 28.4678
  961 44.3974 12.4889 -8.77502
  962 44.5005 12.4683 8.76761
  963 86.8539 -0.598847 121.909
  964 577.923 -4.47151 -5.41548
  965 577.294 -4.30979 4.92669
  966 107.027 0.477146 107.830
  967 113.363 3.36100 -0.914904
  968 113.315 3.36263 0.915391
  969 286.437 -3.06247 -176.378
  970 216.415 1.99930 1.55527
  971 216.405 1.99894 -1.55423
  972 28.7446 -23.5558 1.81006
  973 31.7570 -19.0913 0.577043
  974 510.145 -0.863555 1.99939
  975 509.963 -0.862486 -1.99758
  976 -41.7359 0.228941 24.3078
  977 -41.7896 0.225654 -24.3443
  978 917.140 116.383 59.0389
  979 -3.53087 -28.1773 -37.7532
  980 5.28745 -133.183 20.6023
  981 -0.400646 -45.0657 34.6717
  982 528.216 -0.880494 -7.44871
  983 528.380 -0.897063 7.42841
  984 -6.96170 -12.7916 16.7530
  985 -6.98240 -12.7950 -16.7390
  986 670.424 72.0033 -28.3017
  987 1137.82 8.76661 -6.91566
  988 -1.73600 -2.67814 -2.58084
  989 -1.73397 -2.68377 2.58456
  990 311.728 1.91257 -6.29029
  991 311.793 1.90953 6.29448
  992 -3.58492 -27.0128 37.9052
  993 431.033 0.598939 23.3066
  994 430.863 0.703238 -23.3221
  995 566.992 -36.5078 -18.3791
  996 -19.6272 -4.01810 18.8167
  997 -19.6379 -4.03413 -18.8292
  998 10.2349 -33.9793 25.1772
  999 -0.785540 -68.6896 27.2352
  1000 -0.0868699 -72.4007 13.7269
  1001 592.850 37.2101 -3.64209
  1002 670.671 73.8678 13.9147
  1003 477.239 -52.3724 -83.7860
  1004 7.34232 -64.8795 20.0272
  1005 9.18132 -92.3209 1.96910
  1006 136.804 1.83564 0.169234
  1007 136.769 1.83627 -0.169308
  1008 -5.26127 -6.00534 -8.06162
  1009 -5.25612 -6.00570 8.06731
  1010 5.02791 -53.3505 -27.8136
  1011 382.913 -0.906702 -1.45025
  1012 383.019 -0.908066 1.45125
  1013 80.2285 4.21850 -42.9384
  1014 76.8425 4.39510 42.5358
  1015 -4.50695 12.1827 31.5051
  1016 -4.65993 12.2143 -31.5753
  1017 -41.9306 6.74471 -19.4328
  1018 -41.7988 6.72992 19.3991
  1019 296.963 4.68789 -63.9677
  1020 297.078 4.97284 64.6159
  1021 215.352 18.5516 -46.0301
  1022 215.295 18.5643 46.4084
  1023 232.520 15.0059 -16.2995
  1024 232.545 14.9913 16.3442
  1025 596.507 -13.6306 -58.8077
  1026 -13.6606 7.69545 35.1327
  1027 -13.7961 7.70325 -35.2225
  1028 421.362 -1.73757 32.0778
  1029 421.119 -1.50916 -32.0557
  1030 -2.09516 -20.6505 39.2704
  1031 -33.7084 -1.05324 18.0777
  1032 -33.7318 -1.05920 -18.1000
  1033 384.657 2.06929 -32.0155
  1034 384.856 1.92591 32.0489
  1035 487.101 12.8207 -42.5277
  1036 -0.388741 -68.1588 -28.5451
  1037 -5.36598 -26.7600 34.2631
  1038 -5.60037 -27.1070 -33.9871
  1039 273.715 14.2870 -23.9732
  1040 273.789 14.2416 24.0444
  1041 342.251 4.62736 13.3969
  1042 342.163 4.64391 -13.3887
  1043 565.838 -35.6689 15.7176
  1044 33.4950 1.82271 -0.319569
  1045 33.5872 1.82207 0.319117
  1046 482.202 -58.5158 89.3075
  1047 2.81447 1.10920 1.85074
  1048 2.70478 1.10980 -1.85297
  1049 108.182 26.2165 -3.04794
  1050 108.024 26.3106 3.09045
  1051 43.1298 20.7646 17.0117
  1052 42.9833 20.8206 -17.0390
  1053 5.61325 -81.1497 -16.1124
  1054 143.726 3.82019 1.25848
  1055 143.758 3.81870 -1.25629
  1056 435.297 13.7205 10.5270
  1057 387.033 1.43690 12.2787
  1058 386.923 1.45351 -12.2751
  1059 -1.67636 -21.5295 -39.3439
  1060 580.753 -7.57722 -10.2450
  1061 1.32451 -0.758311 38.4406
  1062 1.77711 -0.460814 -38.2301
  1063 524.649 -1.27948 -4.13452
  1064 524.834 -1.28345 4.13256
  1065 559.699 -2.31854 -7.30319
  1066 559.702 -2.38501 7.14031
  1067 -0.419179 -109.537 10.2660
  1068 333.167 6.73781 -17.6502
  1069 333.255 6.70890 17.6639
  1070 402.953 2.23090 14.1772
  1071 402.832 2.25327 -14.1761
  1072 11.1949 10.4861 33.8834
  1073 11.1318 10.4842 -33.9384
  1074 871.471 55.8761 10.8839
  1075 -10.1950 -4.06356 40.2341
  1076 -10.3792 -3.96237 -40.3464
  1077 129.748 23.7574 -4.40883
  1078 129.664 23.8038 4.44988
  1079 -64.8992 0.851447 -3.09008
  1080 -64.7522 0.850915 3.08622
  1081 210.807 13.4658 -75.9974
  1082 210.481 14.0298 76.8109
  1083 63.0311 23.4775 12.1162
  1084 62.8728 23.5481 -12.1319
  1085 144.333 18.4750 -57.5323
  1086 143.595 19.1535 57.9488
  1087 -3.55638 -36.1946 -28.2530
  1088 503.300 8.05431 56.9955
  1089 347.952 11.3148 227.091
  1090 59.2855 24.4355 12.4540
  1091 59.1031 24.5265 -12.4857
  1092 212.879 9.47602 -6.64830
  1093 212.887 9.47354 6.66097
  1094 752.580 12.4360 6.84004
  1095 51.5260 14.3754 5.82854
  1096 50.8916 14.5187 -6.03679
  1097 -22.1648 -4.74205 24.9299
  1098 -22.1876 -4.76557 -24.9590
  1099 -0.724879 -16.8339 6.77597
  1100 -0.754451 -16.8247 -6.80370
  1101 495.801 -1.53608 18.5847
  1102 495.582 -1.36685 -18.6850
  1103 1.23332 -33.6186 36.6611
  1104 -32.9161 2.40994 -32.6541
  1105 -32.8336 2.41562 32.5960
  1106 0.156158 -131.541 -12.7757
  1107 -6.98765 -10.0100 40.1818
  1108 -6.96191 -9.77609 -40.2243
  1109 472.956 -0.369378 -7.82609
  1110 473.112 -0.377260 7.82620
  1111 489.933 -4.83925 22.5996
  1112 489.569 -4.56221 -22.6941
  1113 89.3025 21.1188 -22.1752
  1114 88.6322 21.4771 22.3170
  1115 -1.09947 -67.7889 -23.4625
  1116 642.659 -49.2474 -135.522
  1117 831.984 118.044 18.4692
  1118 9.25053 -96.8694 1.51199
  1119 32.7814 18.1144 -23.3900
  1120 32.9721 18.0226 23.2389
  1121 84.0975 26.1990 3.33319
  1122 83.8898 26.3189 -3.32986
  1123 174.003 8.57846 3.49349
  1124 174.019 8.57677 -3.48514
  1125 -10.5296 -15.0001 32.1846
  1126 -10.5166 -15.1504 -32.2413
  1127 -28.1100 9.54485 25.1422
  1128 -28.2403 9.56623 -25.1883
  1129 -8.28411 12.3283 29.0502
  1130 -8.42654 12.3581 -29.1096
  1131 470.095 -24.1808 -39.6775
  1132 472.980 -24.3104 39.4344
  1133 0.573061 -76.8878 -26.9197
  1134 255.167 1.18773 -93.9885
  1135 255.488 1.95812 95.4127
  1136 84.2058 23.3605 -4.91266
  1137 84.3264 23.3028 4.92179
  1138 249.036 145.864 252.634
  1139 66.8940 18.4512 8.72049
  1140 66.7846 18.4871 -8.72193
  1141 636.951 -64.6668 -37.9648
  1142 244.978 5.01588 5.17438
  1143 244.951 5.01849 -5.16852
  1144 -10.7546 -9.55243 19.8639
  1145 -10.7642 -9.57702 -19.8606
  1146 -12.7650 -11.3977 25.5923
  1147 -12.7679 -11.4453 -25.5994
  1148 422.457 -39.6007 -129.832
  1149 430.381 -43.8421 130.739
  1150 80.4205 1.75403 1.42830
  1151 80.4869 1.75325 -1.42785
  1152 268.160 11.9453 -52.5994
  1153 268.126 11.8107 53.0742
  1154 573.502 -71.7630 101.090
  1155 506.159 -1.49192 1.14431
  1156 505.979 -1.49072 -1.14317
  1157 -42.8926 7.10135 22.5223
  1158 -43.0220 7.11622 -22.5626
  1159 -74.8264 2.18207 -11.5432
  1160 -74.6808 2.17702 11.5263
  1161 135.324 14.0532 156.245
  1162 420.995 27.1797 -21.4458
  1163 245.316 16.0567 -27.0063
  1164 245.369 16.0275 27.1319
  1165 737.947 -8.09632 146.958
  1166 249.439 15.7521 -39.0025
  1167 249.499 15.6926 39.2195
  1168 66.1505 6.81892 -2.77860
  1169 66.2289 6.81245 2.77679
  1170 22.5820 -70.2378 18.8000
  1171 22.7905 -67.9894 -24.7872
  1172 336.269 -20.5163 -131.217
  1173 340.653 -19.0037 131.020
  1174 134.399 23.2144 -41.4278
  1175 133.831 23.6431 41.7669
  1176 585.564 -37.0532 -36.9729
  1177 -20.3206 -1.31573 36.9240
  1178 -20.4019 -1.31718 -36.9945
  1179 0.108638 -29.9244 -37.7035
  1180 153.576 9.13713 -99.9705
  1181 153.887 9.50977 101.521
  1182 -0.370438 -29.7519 7.52715
  1183 -0.317249 -29.8258 -7.62212
  1184 -136.852 1.10512 -3.34211
  1185 -136.675 1.10426 3.33690
  1186 461.593 -1.11055 -2.27911
  1187 461.745 -1.11232 2.28100
  1188 290.147 8.94509 -15.7303
  1189 290.215 8.91953 15.7550
  1190 -9.23776 0.708658 39.9993
  1191 -9.26576 0.879357 -40.0791
  1192 -0.00841354 -118.056 -11.3646
  1193 -117.033 0.245130 5.59132
  1194 -117.177 0.245788 -5.60166
  1195 95.9841 4.22292 -71.8654
  1196 95.3144 4.81642 73.9599
  1197 542.814 -32.9651 -5.14691
  1198 159.754 13.5548 -90.0558
  1199 159.841 13.8913 90.8159
  1200 -65.8145 0.368480 8.92188
  1201 -65.8629 0.367958 -8.93569
  1202 1.86442 -100.500 -18.1550
  1203 -14.3264 3.46415 -3.85699
  1204 -14.2067 3.46112 3.85219
  1205 86.3867 19.3317 5.50446
  1206 86.2839 19.3704 -5.49614
  1207 307.253 0.0340594 -1.97997
  1208 307.315 0.0331160 1.98121
  1209 411.100 0.611915 9.32399
  1210 410.978 0.622217 -9.32144
  1211 24.4300 -0.475814 19.2755
  1212 24.0718 -0.879776 -19.7151
  1213 4.31269 -57.0534 27.9656
  1214 739.299 105.951 15.8652
  1215 -22.6893 -1.72457 14.2849
  1216 -22.6954 -1.73238 -14.2947
  1217 3.45456 -53.4536 -29.5186
  1218 -2.10843 -34.3038 20.8394
  1219 -2.01062 -33.9526 -21.5819
  1220 582.740 -6.47920 9.03579
  1221 0.495242 -134.712 11.5688
  1222 4.92695 -38.8073 -32.9759
  1223 74.9965 1.11804 0.555351
  1224 74.9273 1.11834 -0.555827
  1225 -5.35523 -23.7413 37.4692
  1226 -60.1176 3.33672 -9.52625
  1227 -59.9755 3.33156 9.51294
  1228 1159.38 19.3126 33.9295
  1229 -32.2404 4.17086 32.7938
  1230 -32.3379 4.16854 -32.8579
  1231 285.864 10.6047 -47.4996
  1232 286.061 10.4315 47.7548
  1233 19.7064 -23.9731 -11.2348
  1234 271.534 12.2014 -19.9269
  1235 271.597 12.1668 19.9768
  1236 11.8313 -76.4892 -1.12198
  1237 -5.38077 -23.8074 -37.4323
  1238 -39.9299 1.28674 5.37394
  1239 -40.0632 1.28863 -5.38039
  1240 -19.1756 2.07088 -37.5293
  1241 -19.0761 2.07963 37.4621
  1242 582.360 47.5853 40.4816
  1243 329.381 2.85553 -49.7429
  1244 329.723 2.79455 49.8633
  1245 -142.162 0.250773 -1.09605
  1246 -141.973 0.250687 1.09420
  1247 295.992 5.44638 -10.5895
  1248 296.051 5.43817 10.5985
  1249 -144.931 -2.64753 -0.416204
  1250 -145.126 -2.64930 0.416334
  1251 440.278 -30.9384 -57.0424
  1252 -67.8153 1.20910 18.6099
  1253 -67.9064 1.20927 -18.6435
  1254 444.490 -32.6668 56.5306
  1255 301.557 9.29192 -21.1551
  1256 301.639 9.24935 21.1888
  1257 36.4638 -61.4365 -70.9899
  1258 0.680041 -93.1212 -22.9561
  1259 -1.69773 -38.9428 35.0754
  1260 922.133 175.811 -146.509
  1261 -0.186393 -87.8905 22.7172
  1262 965.922 91.6679 -64.8183
  1263 -0.619656 -163.179 -10.5509
  1264 52.3556 3.74921 -0.538586
  1265 52.4384 3.74643 0.537326
  1266 -0.395091 -38.1621 7.88217
  1267 -0.314383 -38.3696 -7.86481
  1268 170.972 2.68584 0.647549
  1269 170.988 2.68513 -0.646795
  1270 591.348 -42.6142 34.8192
  1271 17.1158 3.68396 -4.46488
  1272 17.2190 3.68017 4.46023
  1273 3.41232 -174.482 3.70244
  1274 2.17449 -186.375 -3.71049
  1275 543.718 -64.6132 -62.4577
  1276 -1.43254 -48.8978 22.9176
  1277 577.667 39.3350 -52.4755
  1278 -1.68649 -64.4208 22.4620
  1279 1.18374 -174.142 -7.58466
  1280 276.917 6.14689 -11.8920
  1281 276.967 6.13099 11.9079
  1282 -0.227507 -96.6180 10.1463
  1283 -0.215365 -79.5188 -22.7525
  1284 1252.82 232.508 197.637
  1285 508.351 -0.0636240 0.853114
  1286 508.170 -0.0633420 -0.852436
  1287 15.3839 2.82030 30.2806
  1288 14.9267 3.37328 -30.4423
  1289 -6.03638 8.13172 37.0167
  1290 -6.24210 8.13470 -37.1256
  1291 551.524 -9.67476 -33.2786
  1292 508.131 -21.7055 -23.5130
  1293 507.720 -24.5894 23.8603
  1294 80.9056 7.81096 2.57547
  1295 80.8331 7.81881 -2.57559
  1296 -80.8310 2.13185 -14.1511
  1297 -80.6980 2.12710 14.1250
  1298 566.077 -73.0388 -87.0843
  1299 -4.19487 -10.2282 10.4934
  1300 -4.21181 -10.2225 -10.4897
  1301 599.081 -23.0189 55.5604
  1302 -6.08130 -23.2215 27.9280
  1303 -6.01211 -23.3106 -27.8012
  1304 -48.2923 3.08217 6.49426
  1305 -48.4298 3.08623 -6.50310
  1306 94.1706 13.5035 -39.2674
  1307 93.2434 14.0131 39.2209
  1308 146.384 2.56376 -0.0968531
  1309 146.355 2.56462 0.0972287
  1310 -55.2287 5.68913 22.4699
  1311 -55.3526 5.70004 -22.5101
  1312 478.147 0.495307 1.32551
  1313 477.985 0.495369 -1.32451
  1314 270.080 3.65609 174.514
  1315 393.333 -0.467439 3.31436
  1316 393.222 -0.465897 -3.31215
  1317 266.793 5.92018 -72.0791
  1318 266.787 5.63026 72.6495
  1319 2.69456 -99.7843 -11.8476
  1320 105.756 25.4689 -18.7988
  1321 105.298 25.7566 18.9481
  1322 -1.04531 -0.901065 -1.34432
  1323 -1.05055 -0.901231 1.34820
  1324 339.851 8.65584 26.9122
  1325 339.722 8.74113 -26.8734
  1326 172.167 12.2733 5.70833
  1327 172.187 12.2693 -5.69130
  1328 250.741 12.2480 -14.0379
  1329 250.779 12.2312 14.0691
  1330 324.764 0.336931 -3.34761
  1331 324.836 0.335784 3.34975
  1332 -10.2643 -4.92874 -11.8312
  1333 -10.2609 -4.92184 11.8355
  1334 -93.5313 -0.124554 3.83654
  1335 -93.6926 -0.124188 -3.84205
  1336 -17.2024 -7.76179 -28.5196
  1337 -17.1837 -7.72011 28.4840
  1338 -50.3041 0.372761 1.54783
  1339 -50.4435 0.372513 -1.54955
  1340 -146.868 1.28198 0.615664
  1341 -147.063 1.28249 -0.616392
  1342 606.426 -69.5349 117.115
  1343 455.293 -1.96239 -46.9504
</Section>

newXOutput 73

<Section columns = "stress_xx | stress_yy | stress_xy">
  1 529.711 -1.01619 0.573790
  2 529.904 -1.01700 -0.574083
  3 -161.068 0.699904 -2.22642
  4 0.255273 0.0564494 0.457874
  5 945.608 303.104 319.227
  6 1069.73 340.244 -308.016
  7 0.253993 0.0553032 -0.456170
  8 -160.860 0.699767 2.22512
  9 528.191 -0.976073 -1.76416
  10 528.674 -1.81007 -2.82311
  11 533.617 -1.81961 -0.796391
  12 534.266 -1.80499 -3.38085
  13 535.828 -1.79383 -1.13269
  14 546.850 -1.65160 -1.53710
  15 550.845 -2.30517 -4.54390
  16 555.326 -1.21978 -3.16557
  17 558.369 -0.178465 -6.09768
  18 580.658 -3.47652 -5.21555
  19 590.662 -2.80215 -6.64887
  20 601.952 -4.05614 -2.90418
  21 607.814 -5.22906 -2.00988
  22 605.313 -5.87166 6.85845
  23 587.290 -6.41128 14.9496
  24 544.276 -6.75990 32.6535
  25 472.951 4.46482 38.2227
  26 415.322 5.68067 35.1462
  27 333.956 10.3633 21.2487
  28 353.799 10.0618 2.36709
  29 302.033 29.3174 -13.2770
  30 396.787 13.7765 -38.9263
  31 447.606 3.76141 -31.6943
  32 534.541 -1.23242 -27.5057
  33 581.602 -7.77369 -18.0539
  34 604.710 -6.82613 -6.78798
  35 606.912 -5.08155 2.06407
  36 601.360 -4.00836 2.76286
  37 590.490 -2.81723 6.47948
  38 580.674 -3.51550 5.12209
  39 558.511 -0.199946 6.05708
  40 555.508 -1.22788 3.15197
  41 551.046 -2.31070 4.54142
  42 547.054 -1.65461 1.53638
  43 536.027 -1.79604 1.13332
  44 534.464 -1.80690 3.38359
  45 533.814 -1.82111 0.797429
  46 528.867 -1.81142 2.82531
  47 528.383 -0.976880 1.76553
  48 500.658 0.823449 -0.685290
  49 464.807 -0.308747 -1.47930
  50 419.806 -2.56528 -1.42682
  51 372.940 0.00540230 -1.18653
  52 331.663 -0.475430 -0.933223
  53 287.309 0.920778 -1.09532
  54 243.342 3.24990 -0.615385
  55 197.507 2.78543 -1.36604
  56 159.359 1.63332 -1.94739
  57 109.119 0.684681 -2.05204
  58 57.9360 1.90474 -1.57382
  59 15.1182 1.61695 -1.52267
  60 -38.4376 0.822533 -1.37206
  61 -78.2679 -0.849511 -3.50135
  62 -116.877 -2.81200 -1.58329
  63 -156.125 0.259072 1.12728
  64 -164.732 2.81508 -0.341384
  65 -165.466 1.20809 0.587495
  66 -160.028 0.563848 -0.0893121
  67 -162.184 1.79144 -1.90281
  68 -159.815 2.19847 -0.0163079
  69 -151.345 0.637889 -2.96177
  70 -153.640 1.36321 -3.21070
  71 -150.039 1.28154 -1.72701
  72 -139.084 0.777615 -2.68311
  73 -134.388 1.46667 -4.54976
  74 -126.417 1.66159 -3.68273
  75 -112.115 0.839931 -6.56396
  76 -104.142 0.262589 -5.47786
  77 -89.5380 0.375520 -6.37508
  78 -77.0262 0.315922 -7.11566
  79 -66.0197 0.116903 -5.61871
  80 -50.6241 0.340954 -5.67619
  81 -37.3076 -0.121634 -6.09631
  82 -24.4116 -0.649530 -5.38731
  83 -14.1590 -0.572174 -4.14827
  84 -6.99926 -1.01855 -3.48179
  85 -1.23239 -0.590192 -1.26247
  86 0.0337284 -0.666864 -0.463817
  87 -0.357736 -0.386840 -0.109701
  88 -0.925543 -1.01645 -1.10883
  89 -0.900376 -5.93235 -3.02924
  90 -0.758090 -13.2150 -4.28777
  91 -0.384405 -22.4224 -6.23424
  92 -0.190521 -34.3800 -5.36967
  93 -0.137659 -45.3067 -6.75096
  94 -0.813952 -58.5495 -7.58934
  95 -0.334610 -74.9632 -7.62840
  96 0.152972 -91.4849 -7.28552
  97 0.354333 -109.145 -7.16992
  98 0.556897 -127.231 -7.01943
  99 -0.00315535 -140.271 -9.47401
  100 0.906268 -159.067 -8.45452
  101 1.14065 -180.991 -6.61770
  102 -0.168877 -190.015 -8.76511
  103 1.61553 -205.299 -8.02202
  104 4.09165 -225.496 -3.19186
  105 8.04645 -229.347 -5.09287
  106 6.00054 -204.414 8.21154
  107 9.32172 -145.012 28.5552
  108 42.2168 -63.6352 76.4514
  109 127.907 231.961 238.537
  110 1447.22 81.3576 146.393
  111 1247.11 23.0027 52.6653
  112 1207.01 7.75016 12.3252
  113 1198.11 1.90431 -1.90928
  114 1206.57 12.3537 -27.7193
  115 1246.35 42.1651 -62.9822
  116 1411.06 159.018 -186.342
  117 310.649 182.536 -290.095
  118 72.1340 -63.6517 -91.0639
  119 21.4817 -159.099 -35.4077
  120 6.08784 -193.062 -8.61256
  121 6.54645 -220.305 2.03220
  122 1.81764 -216.376 2.15506
  123 0.589262 -200.112 6.63731
  124 0.677980 -189.007 5.21494
  125 0.997767 -170.851 9.47152
  126 -0.0468806 -160.612 9.34208
  127 0.393501 -145.301 6.69891
  128 0.793786 -125.747 8.63068
  129 0.169928 -111.737 6.83265
  130 0.226297 -91.5473 8.64269
  131 -0.915108 -75.8817 7.44388
  132 -0.623102 -58.5939 7.34696
  133 -0.0910569 -45.0478 6.76588
  134 -0.251100 -34.1785 5.37670
  135 -0.373939 -22.3563 6.17233
  136 -0.746685 -13.2065 4.26624
  137 -0.895521 -5.94148 3.02713
  138 -0.924234 -1.02647 1.11109
  139 -0.357662 -0.391107 0.112584
  140 0.0285101 -0.667454 0.466384
  141 -1.24207 -0.589779 1.26564
  142 -7.01327 -1.01742 3.48470
  143 -14.1772 -0.570268 4.14891
  144 -24.4248 -0.647186 5.38459
  145 -37.3082 -0.119694 6.08940
  146 -50.6100 0.341339 5.66816
  147 -65.9852 0.117926 5.61019
  148 -76.9727 0.317195 7.10559
  149 -89.4589 0.375542 6.36424
  150 -104.039 0.262588 5.46742
  151 -111.995 0.839383 6.55334
  152 -126.273 1.66050 3.67417
  153 -134.230 1.46543 4.54244
  154 -138.912 0.776789 2.67813
  155 -149.854 1.28060 1.72355
  156 -153.449 1.36246 3.20695
  157 -151.151 0.637661 2.95857
  158 -159.613 2.19730 0.0151333
  159 -161.979 1.79052 1.90096
  160 -159.823 0.563729 0.0887822
  161 -165.257 1.20757 -0.587427
  162 -164.523 2.81367 0.340983
  163 -155.920 0.259188 -1.12683
  164 -116.696 -2.80995 1.58227
  165 -78.1095 -0.848430 3.49930
  166 -38.3021 0.822637 1.37109
  167 15.2232 1.61650 1.52167
  168 58.0168 1.90397 1.57285
  169 109.171 0.684562 2.05083
  170 159.383 1.63273 1.94631
  171 197.509 2.78439 1.36533
  172 243.318 3.24871 0.615091
  173 287.259 0.920994 1.09474
  174 331.588 -0.474415 0.932708
  175 372.841 0.00604328 1.18586
  176 419.679 -2.56315 1.42610
  177 464.653 -0.308155 1.47849
  178 500.482 0.823226 0.684921
  179 146.099 24.1264 -9.18232
  180 146.001 24.1820 9.25040
  181 -0.933300 5.10307 38.1544
  182 -1.09473 5.05742 -38.1863
  183 326.460 -4.12515 -76.3933
  184 326.171 -4.72287 77.1431
  185 67.5175 17.3989 -7.69148
  186 66.7259 17.6553 7.69443
  187 51.8817 7.29819 -4.60890
  188 51.9719 7.28921 4.60496
  189 307.235 4.26443 -11.8829
  190 307.301 4.25108 11.8947
  191 -1.64859 12.0148 19.7826
  192 -1.78163 12.0430 -19.8152
  193 356.611 7.61867 -29.2620
  194 356.775 7.51423 29.3110
  195 -13.4167 -11.5741 31.4868
  196 -13.4168 -11.6461 -31.5331
  197 3.92001 -26.5522 -36.1432
  198 114.483 11.0886 -72.6887
  199 4.65047 -28.4849 35.1940
  200 112.702 11.9374 73.7026
  201 503.294 -63.7834 -109.912
  202 520.064 -66.2675 105.781
  203 184.804 4.57046 -2.73621
  204 184.794 4.57113 2.73980
  205 -23.3569 1.43078 -3.56746
  206 -23.2299 1.42970 3.56348
  207 -37.9174 6.23090 29.4835
  208 -38.0342 6.24120 -29.5432
  209 185.919 15.3348 -7.43784
  210 185.904 15.3406 7.46221
  211 58.9096 23.9557 11.2769
  212 58.6759 24.0941 -11.3458
  213 -47.1325 5.13889 -11.4502
  214 -46.9936 5.13012 11.4331
  215 404.164 -0.640796 5.45853
  216 404.047 -0.636990 -5.45538
  217 14.0117 -49.4616 12.8704
  218 15.2153 -44.3698 -10.8849
  219 -3.51239 -32.9436 35.2511
  220 -3.61994 -34.3093 -34.1740
  221 172.615 24.3933 -33.2731
  222 172.434 24.5193 33.5479
  223 -35.2344 0.0991473 30.3818
  224 -35.3007 0.0926633 -30.4320
  225 432.288 1.25803 -15.6071
  226 432.426 1.22803 15.6028
  227 466.720 -7.81400 -31.1900
  228 467.102 -8.25318 31.1138
  229 749.502 55.2290 1.08266
  230 687.939 78.7830 30.7830
  231 673.389 -0.152789 -50.5840
  232 87.2764 17.6569 5.20433
  233 87.1828 17.6881 -5.19905
  234 8.71570 15.4267 28.3813
  235 8.55889 15.4710 -28.4378
  236 521.540 -31.4053 -23.0790
  237 518.588 -31.7646 24.8086
  238 290.663 0.960940 -4.49840
  239 290.715 0.958537 4.50184
  240 -61.2955 4.42106 19.3678
  241 -61.4275 4.43093 -19.4026
  242 -8.74514 -8.59102 -14.3589
  243 -8.73561 -8.58368 14.3657
  244 -66.0689 1.30437 5.55740
  245 -66.2184 1.30650 -5.56491
  246 241.396 16.3583 -20.8465
  247 241.429 16.3369 20.9160
  248 305.699 8.10970 -44.2415
  249 305.907 7.98185 44.4227
  250 78.1679 3.58957 0.331408
  251 78.2382 3.58740 -0.331720
  252 178.853 10.7581 -151.405
  253 210.684 15.0910 163.966
  254 25.8838 12.2845 26.2074
  255 25.7746 12.5231 -26.3439
  256 703.929 -46.1247 -23.0691
  257 65.9192 23.0660 9.85182
  258 65.7802 23.1266 -9.85807
  259 175.959 19.8651 -59.2559
  260 175.602 20.3120 59.8071
  261 790.465 115.989 3.92080
  262 468.757 -0.860082 21.1043
  263 468.563 -0.734159 -21.1471
  264 -4.14986 -25.9692 -22.3381
  265 -4.01826 -26.0685 22.4228
  266 -0.780357 -61.0299 -30.2127
  267 2.38850 -70.0498 -26.9215
  268 1.33221 -70.6182 28.5857
  269 -10.9592 -9.39817 39.9396
  270 -11.0127 -9.39001 -40.1149
  271 26.6551 -50.7835 -15.1782
  272 28.7389 -46.1529 19.7172
  273 -26.8479 -2.18315 19.5871
  274 -26.8676 -2.19387 -19.6082
  275 336.595 7.70337 -18.5112
  276 336.694 7.66473 18.5301
  277 585.173 -57.9103 -10.2826
  278 134.379 9.77430 1.37526
  279 134.422 9.76750 -1.36968
  280 -1.40242 -57.3557 28.9385
  281 16.9637 11.4513 12.0278
  282 16.8456 11.4728 -12.0435
  283 922.696 62.9923 -28.5720
  284 453.329 -0.689912 6.59954
  285 453.184 -0.683337 -6.59789
  286 310.761 -12.4806 -113.814
  287 313.292 -12.2525 115.397
  288 584.483 -55.0124 0.853347
  289 -54.1669 1.78579 23.8642
  290 -54.2503 1.78520 -23.9065
  291 569.764 -36.8573 183.446
  292 -23.0490 4.54964 35.8507
  293 -23.1526 4.54053 -35.9238
  294 101.173 27.6131 -11.8077
  295 100.775 27.8651 11.8975
  296 -95.6016 0.515872 0.911865
  297 -95.7701 0.515640 -0.913145
  298 481.347 21.7488 -247.570
  299 -91.6718 1.76514 -10.2501
  300 -91.5202 1.76117 10.2327
  301 -1.74247 -10.6226 40.1189
  302 -0.237871 -10.2552 -39.5981
  303 217.191 20.8541 -29.8680
  304 217.181 20.8626 30.0307
  305 51.6791 4.53141 3.48457
  306 51.5923 4.53561 -3.48776
  307 225.010 6.92918 -6.79016
  308 225.024 6.92702 6.79916
  309 22.4811 -12.5675 18.2908
  310 20.5100 -15.6326 -18.6341
  311 218.446 2.23429 -1.84410
  312 218.456 2.23440 1.84570
  313 -76.2981 2.00824 17.3224
  314 -76.4087 2.01102 -17.3547
  315 56.5270 -0.868821 -18.3035
  316 54.9185 -0.960670 16.8298
  317 471.522 -1.21650 1.85320
  318 471.364 -1.21507 -1.85149
  319 1021.22 57.2106 43.3450
  320 112.555 13.2522 0.804035
  321 112.493 13.2667 -0.796266
  322 -17.7690 4.64018 7.48536
  323 -17.8947 4.64747 -7.49575
  324 152.902 18.9729 -6.50484
  325 152.849 18.9942 6.54303
  326 20.0611 16.2600 29.1790
  327 19.9317 16.2911 -29.2720
  328 2.37703 -101.908 19.4653
  329 -99.5790 -0.0634739 -2.20556
  330 -99.4093 -0.0631661 2.20269
  331 363.318 -0.472064 -3.58583
  332 363.412 -0.473920 3.58815
  333 382.425 1.13000 -9.50279
  334 382.532 1.11925 9.50698
  335 -93.5593 1.41874 -7.25386
  336 -93.3982 1.41629 7.24359
  337 4.00050 1.08913 0.621473
  338 3.88906 1.08943 -0.622597
  339 -2.11655 -42.8861 22.2147
  340 -1.67365 -44.6115 -22.1825
  341 433.399 -34.6663 -77.5646
  342 449.572 -41.5182 76.2455
  343 259.343 10.8085 -13.0697
  344 259.383 10.7954 13.0919
  345 117.255 26.4704 -7.83905
  346 117.046 26.5948 7.90993
  347 -35.6881 7.32016 16.5567
  348 -35.8224 7.33573 -16.5846
  349 792.673 27.2421 32.5079
  350 44.6331 -50.9694 -54.0015
  351 47.7261 -46.2993 56.2013
  352 -13.8855 12.3097 27.0815
  353 -14.0237 12.3375 -27.1341
  354 -21.3405 -4.00876 35.5580
  355 -21.4025 -4.02185 -35.6284
  356 900.140 157.256 -53.7000
  357 587.997 -5.27455 66.3997
  358 542.386 -13.4253 -14.9200
  359 542.046 -13.1109 14.1432
  360 384.629 -5.29297 -49.6353
  361 384.161 -5.63228 49.6762
  362 0.757913 -122.794 -15.4691
  363 494.826 0.280307 -11.7304
  364 494.984 0.245856 11.7067
  365 6.76007 -114.117 10.9820
  366 588.129 46.5527 -33.2262
  367 146.030 3.38336 1.22302
  368 145.999 3.38489 -1.22362
  369 386.113 1.48124 -36.8175
  370 386.353 1.31779 36.8824
  371 413.618 1.90319 -22.0792
  372 413.768 1.83038 22.0747
  373 -2.31101 3.87375 4.77422
  374 -2.42760 3.87818 -4.78023
  375 242.511 13.4075 -59.9246
  376 242.534 13.5685 60.4050
  377 485.641 -1.00478 3.02071
  378 485.475 -1.00272 -3.01849
  379 281.876 13.8398 -30.7181
  380 281.969 13.7729 30.8255
  381 322.656 3.31009 7.97904
  382 322.585 3.31522 -7.97340
  383 -15.3051 -2.70962 12.1836
  384 -15.3061 -2.71722 -12.1854
  385 -3.67176 -2.60033 -3.60992
  386 -3.67325 -2.60133 3.61531
  387 650.098 -74.9893 54.0999
  388 -8.20823 -19.9737 32.7465
  389 -8.14925 -20.1547 -32.7565
  390 111.657 5.61844 -0.726849
  391 111.711 5.61457 0.727624
  392 -3.20657 -16.2566 12.2489
  393 -3.24419 -16.2330 -12.2518
  394 45.4047 18.0495 12.7272
  395 45.2816 18.0886 -12.7407
  396 531.127 -3.14079 15.6377
  397 530.902 -2.96283 -15.8563
  398 -0.795803 -30.1969 38.6210
  399 -43.4653 -0.718495 18.4250
  400 -43.5037 -0.722884 -18.4516
  401 -0.964485 -31.9793 -38.1926
  402 497.305 -0.629529 7.48698
  403 497.138 -0.619380 -7.49101
  404 -2.34945 11.7109 34.4237
  405 -2.52877 11.7421 -34.5063
  406 371.623 3.88080 -14.9748
  407 371.729 3.85703 14.9807
  408 569.435 -24.1900 -9.15930
  409 570.717 -19.7152 6.58201
  410 -1.07626 -58.2756 -24.2446
  411 54.4172 20.7344 -6.64171
  412 54.8582 20.5322 6.56413
  413 580.106 37.4077 20.4111
  414 327.071 -12.5908 -156.106
  415 335.318 -18.4830 162.990
  416 22.9903 17.5284 21.0099
  417 22.8474 17.5731 -21.0450
  418 241.358 4.78892 -4.64956
  419 241.381 4.78807 4.65411
  420 234.610 54.8427 246.613
  421 100.427 21.7733 -2.54241
  422 100.536 21.7244 2.56046
  423 6.55760 -52.5848 24.5042
  424 -0.692686 -94.3659 -20.7675
  425 41.5950 21.8774 18.8157
  426 41.4320 21.9424 -18.8590
  427 51.8203 11.6642 -7.24177
  428 51.9181 11.6468 7.23636
  429 -14.8774 -0.125140 -39.5764
  430 -14.7751 -0.147903 39.4997
  431 119.012 24.0623 -27.0792
  432 118.500 24.3990 27.2958
  433 575.532 -17.2078 -50.6679
  434 17.8619 -3.42284 28.4900
  435 17.3117 -3.30959 -28.7026
  436 419.553 -18.2407 -54.8038
  437 421.193 -19.4469 54.7635
  438 -101.497 0.742677 -10.2488
  439 -101.355 0.740140 10.2301
  440 -0.00536385 -93.0370 18.7878
  441 -0.635981 -59.2632 21.6187
  442 -40.9461 2.90358 30.4779
  443 -41.0333 2.90078 -30.5333
  444 300.840 0.806537 -1.71449
  445 300.897 0.805667 1.71574
  446 -8.80404 -13.9226 22.4673
  447 -8.82153 -13.9575 -22.4478
  448 191.522 12.5683 -86.5169
  449 191.106 13.3726 87.3795
  450 1.59814 -111.099 -19.9723
  451 1018.99 33.9132 0.344442
  452 3.04089 -128.729 -9.94478
  453 -117.897 -0.252642 -3.45475
  454 -117.719 -0.252609 3.45044
  455 -44.4428 6.64447 24.1969
  456 -44.5712 6.65846 -24.2436
  457 -54.4763 0.813496 18.4136
  458 -54.5333 0.812844 -18.4423
  459 208.498 19.8560 -21.0462
  460 208.489 19.8692 21.1445
  461 311.298 10.5289 -23.7262
  462 311.399 10.4715 23.7744
  463 -4.57317 -18.0723 40.0591
  464 -4.58050 -17.9528 -40.2313
  465 544.416 11.7308 -63.7314
  466 38.9190 -5.39179 -1.51586
  467 37.5545 -5.72716 2.22283
  468 9.07219 -112.669 -5.05168
  469 5.95704 -132.176 0.779860
  470 -16.0753 -7.09857 23.0963
  471 -16.0860 -7.12596 -23.1099
  472 117.620 6.08802 -132.388
  473 808.581 16.4677 -92.7649
  474 190.071 10.3616 6.93386
  475 190.080 10.3600 -6.91937
  476 274.790 3.86160 -82.4331
  477 275.317 3.78580 83.5601
  478 83.5456 27.6031 4.73065
  479 83.3753 27.6984 -4.72683
  480 248.463 17.6122 -44.6665
  481 248.530 17.5445 44.9540
  482 10.8028 6.24611 34.6986
  483 11.3521 6.52241 -34.6568
  484 -105.138 1.41888 -7.29067
  485 -104.975 1.41682 7.27929
  486 536.686 -60.5853 -46.5207
  487 423.805 -1.04064 -2.50375
  488 423.934 -1.04206 2.50561
  489 28.5579 2.02674 -1.71931
  490 28.6560 2.02523 1.71704
  491 -23.9144 9.71698 22.0579
  492 -24.0490 9.73923 -22.0972
  493 -56.9803 3.34509 -7.53667
  494 -56.8362 3.34016 7.52571
  495 190.242 16.6216 -10.4798
  496 190.227 16.6267 10.5174
  497 -19.8039 8.76823 31.8946
  498 -19.9369 8.78691 -31.9646
  499 490.916 -14.6559 -29.6266
  500 491.765 -15.3088 29.3242
  501 326.168 2.84206 -55.1635
  502 325.647 2.65434 55.6069
  503 124.999 4.12535 -0.277129
  504 125.043 4.12324 0.277283
  505 1.62521 -56.1544 -32.3832
  506 577.393 -19.6484 41.3461
  507 8.75770 -35.3012 -28.0554
  508 168.548 25.8319 22.2026
  509 168.674 25.7458 -22.0457
  510 530.883 -56.6763 46.0838
  511 42.9062 -38.3359 72.2223
  512 628.761 -73.4352 -89.1263
  513 430.527 0.304490 26.6547
  514 430.321 0.451151 -26.6576
  515 1.61364 -47.8078 33.7095
  516 -8.46143 -2.49711 -6.56706
  517 -8.46449 -2.49546 6.57124
  518 58.4318 1.64121 -0.369294
  519 58.5125 1.64051 0.368644
  520 -1.42445 -33.3515 14.3555
  521 -1.29229 -33.2000 -14.4329
  522 355.067 1.92226 6.15305
  523 354.978 1.92493 -6.14926
  524 984.222 182.356 85.3747
  525 43.7627 -19.5827 -18.2342
  526 34.2254 -28.4454 11.0848
  527 -5.11652 6.99001 -10.1516
  528 -4.99401 6.97737 10.1375
  529 -85.1477 1.33392 10.9411
  530 -85.2407 1.33539 -10.9602
  531 0.898859 -104.581 20.1503
  532 -115.000 0.813791 0.800161
  533 -115.180 0.813826 -0.801550
  534 113.896 1.39462 -98.6772
  535 111.506 3.04590 102.211
  536 104.711 20.5172 -36.9569
  537 103.936 20.9483 37.1404
  538 -22.6157 -4.53497 31.2895
  539 -22.6568 -4.55684 -31.3413
  540 104.085 7.59486 0.557092
  541 104.025 7.60113 -0.555520
  542 -45.0629 1.81926 2.87537
  543 -45.2018 1.82077 -2.87986
  544 121.548 15.8855 -0.390459
  545 121.482 15.9068 0.406226
  546 -2.31923 -7.65255 5.62788
  547 -2.32750 -7.64647 -5.62703
  548 45.4707 19.6960 15.9278
  549 45.1728 19.9510 -16.0458
  550 36.7223 8.06360 13.3567
  551 36.2218 8.02248 -13.6729
  552 433.716 1.68012 11.1715
  553 433.581 1.69251 -11.1701
  554 385.907 3.46899 18.1211
  555 385.786 3.50979 -18.1168
  556 -0.390899 -89.9111 -13.1142
  557 273.558 11.8199 -18.6620
  558 273.615 11.7941 18.7003
  559 273.649 4.45837 -7.38823
  560 273.692 4.45315 7.39595
  561 -30.4415 0.657892 0.210935
  562 -30.3106 0.658050 -0.211332
  563 482.431 24.8193 -12.2623
  564 604.026 -72.2564 -36.4964
  565 511.125 24.6209 47.5789
  566 4.50354 -73.5158 -22.6215
  567 -22.0931 8.01839 -13.9737
  568 -21.9623 8.00329 13.9527
  569 4.90438 -42.0885 31.1839
  570 -25.5710 1.14325 35.3758
  571 -25.6535 1.13674 -35.4381
  572 774.188 74.1268 6.47814
  573 180.838 6.51107 -3.65624
  574 180.825 6.51236 3.66191
  575 1142.69 98.9630 -104.741
  576 -4.41442 -3.33981 40.7235
  577 -3.98676 -3.02436 -40.7426
  578 638.106 -52.3507 17.2480
  579 511.095 -0.403816 -12.9754
  580 511.256 -0.463005 12.9245
  581 242.140 3.43961 -118.687
  582 244.844 2.66287 120.354
  583 -12.6131 -12.0349 36.1060
  584 -12.6286 -12.1023 -36.2101
  585 129.127 14.6981 65.8180
  586 130.191 13.8016 -65.3619
  587 -98.9340 1.10663 -10.1128
  588 -98.8049 1.10477 10.0943
  589 751.488 72.2552 30.0170
  590 148.952 11.7975 2.77344
  591 148.988 11.7895 -2.76295
  592 175.109 21.9851 -45.8724
  593 174.845 22.2428 46.2849
  594 465.313 -2.28768 -25.9166
  595 465.581 -2.49677 25.8862
  596 -1.86668 -45.9807 -32.3404
  597 501.418 -1.19101 3.92955
  598 501.243 -1.18825 -3.92758
  599 -67.4142 0.992511 -0.964729
  600 -67.2624 0.992269 0.962717
  601 -123.533 -1.09551 -0.0507561
  602 -123.718 -1.09658 0.0504692
  603 11.6990 -65.3270 -8.02210
  604 -4.56332 -30.1444 28.0562
  605 -4.81312 -28.4790 -28.2416
  606 -55.6874 3.58821 25.2346
  607 -55.7896 3.59247 -25.2814
  608 356.403 6.93842 23.0837
  609 356.281 7.00103 -23.0628
  610 264.031 1.54829 1.69905
  611 263.995 1.54834 -1.69788
  612 62.2926 -9.53423 43.9113
  613 64.1307 -8.25025 -43.5590
  614 -1.78497 -23.3023 12.1638
  615 -1.84289 -23.2315 -12.2068
  616 600.106 60.1624 265.083
  617 -30.0152 -0.881879 11.2225
  618 -30.0210 -0.886345 -11.2333
  619 11.8129 -39.1203 -21.6229
  620 258.928 8.29418 -10.0819
  621 258.963 8.28668 10.0957
  622 130.097 26.8448 -17.8562
  623 129.829 27.0136 18.0036
  624 1.22916 -154.953 6.74252
  625 98.7293 25.4905 1.41783
  626 98.5976 25.5606 -1.39601
  627 -5.65508 10.2016 16.8655
  628 -5.78422 10.2232 -16.8914
  629 -0.714332 -78.9661 17.8801
  630 -124.699 -0.0244293 -3.49122
  631 -124.519 -0.0246312 3.48656
  632 172.813 2.79631 1.47116
  633 172.829 2.79574 -1.46948
  634 422.677 -0.140954 7.52070
  635 422.549 -0.134943 -7.51734
  636 377.175 -18.1367 202.955
  637 303.981 5.68591 -14.5322
  638 304.049 5.66563 14.5491
  639 6.37397 -4.51709 36.8763
  640 7.57241 -1.90528 -36.7069
  641 482.292 -41.2526 -165.269
  642 1107.48 37.2146 -43.4776
  643 -116.351 0.0155484 -6.87940
  644 -116.196 0.0144376 6.86782
  645 34.3675 5.40695 -4.17221
  646 34.4650 5.40086 4.16773
  647 -2.11137 -49.1256 28.7296
  648 655.218 43.2204 -55.4038
  649 495.550 -1.41625 0.719607
  650 495.378 -1.41501 -0.718781
  651 -31.6766 -1.58730 -25.8436
  652 -31.6359 -1.57816 25.8061
  653 -0.110125 -111.639 -16.9044
  654 503.889 -1.35046 1.52040
  655 503.711 -1.34917 -1.51884
  656 51.8179 15.3778 10.5151
  657 51.7084 15.4064 -10.5232
  658 392.607 -31.4774 -109.592
  659 399.287 -31.2954 110.695
  660 563.528 -4.14452 9.24935
  661 563.507 -4.11394 -9.56942
  662 2.53371 -139.216 12.5357
  663 -24.8289 0.333171 -1.61990
  664 -24.7012 0.333236 1.61768
  665 188.301 40.1917 -194.992
  666 179.495 2.29104 1.66800
  667 179.507 2.29027 -1.66691
  668 91.6521 5.07096 -0.169102
  669 91.5885 5.07447 0.169209
  670 107.680 9.92853 0.351620
  671 107.740 9.91910 -0.346976
  672 335.457 7.91418 -35.7453
  673 335.638 7.79220 35.8413
  674 92.5387 26.2979 -3.25842
  675 92.2536 26.4796 3.27999
  676 -55.9479 4.16702 -13.5592
  677 -55.8074 4.15752 13.5374
  678 -66.3730 4.61795 -15.7406
  679 -66.2340 4.60875 15.7131
  680 580.865 -9.10485 -0.237841
  681 1.45441 -21.7693 -38.3418
  682 581.394 -9.54682 -0.467736
  683 746.455 57.2021 -4.90053
  684 -72.3709 0.361221 12.5081
  685 -72.4430 0.360654 -12.5294
  686 80.5954 23.8897 -9.15368
  687 80.0252 24.1556 9.18943
  688 -133.652 -0.0424777 -1.10273
  689 -133.464 -0.0422951 1.10081
  690 1.98777 -19.3960 38.3077
  691 -44.7008 0.768398 26.9092
  692 -44.7737 0.764836 -26.9547
  693 639.209 -48.7281 -19.5757
  694 106.840 1.20663 -1.03685
  695 106.787 1.20707 1.03728
  696 28.6257 8.55092 7.51144
  697 28.5205 8.56327 -7.51914
  698 343.447 -14.2060 -92.2680
  699 345.840 -14.7709 93.9192
  700 1153.62 83.0946 94.6208
  701 24.2305 -92.8012 -44.4399
  702 -7.93780 -17.0334 38.4410
  703 -7.94281 -17.1094 -38.5397
  704 76.6429 14.9187 -4.63838
  705 76.7315 14.8967 4.63976
  706 518.040 -1.19066 -3.97589
  707 518.224 -1.19395 3.97626
  708 252.819 2.45913 3.31714
  709 252.790 2.46027 -3.31418
  710 24.0502 18.8236 25.6821
  711 23.8951 18.8782 -25.7422
  712 18.7252 3.79451 2.90561
  713 18.6211 3.79769 -2.90916
  714 -13.0618 4.23001 38.4643
  715 -13.1784 4.22117 -38.5559
  716 428.351 -1.56111 3.22255
  717 428.219 -1.55862 -3.22022
  718 372.867 1.64770 8.66809
  719 372.767 1.65376 -8.66335
  720 53.0423 -23.8283 51.8702
  721 54.4491 -26.1707 -50.3210
  722 -26.8715 6.55521 33.5161
  723 -26.9881 6.56000 -33.5874
  724 16.8185 -31.3974 15.9490
  725 3.61850 11.9623 34.5025
  726 3.43146 11.9873 -34.5640
  727 -78.0744 2.08987 -8.86327
  728 -77.9224 2.08580 8.84916
  729 69.8989 20.4243 9.03695
  730 69.7758 20.4709 -9.03755
  731 577.697 -16.9591 -27.5767
  732 546.671 -46.5344 -18.2289
  733 -8.59799 -17.6478 27.6434
  734 -8.58976 -17.7364 -27.6136
  735 217.481 5.38241 -139.876
  736 212.059 9.76616 140.975
  737 134.206 25.5119 -25.4544
  738 133.853 25.7564 25.6760
  739 12.5291 -18.0730 29.2964
  740 -0.744864 -58.8112 -15.6797
  741 274.509 13.6575 -34.3146
  742 274.615 13.5945 34.4701
  743 0.659123 -114.879 14.3323
  744 166.068 21.1563 -11.5490
  745 166.014 21.1832 11.6107
  746 545.187 -1.07628 -9.79324
  747 545.314 -1.13747 9.68956
  748 11.4284 -146.202 6.81453
  749 253.011 17.1275 26.3960
  750 252.959 17.1579 -26.2986
  751 71.1600 24.9481 -2.72239
  752 71.5266 24.7106 2.67345
  753 -98.0163 0.641321 -8.61106
  754 -97.9049 0.640639 8.59482
  755 278.629 2.95952 -6.31738
  756 278.674 2.95649 6.32267
  757 175.306 23.7833 -18.9532
  758 175.228 23.8324 19.0689
  759 4.66158 14.9316 26.1000
  760 4.51559 14.9712 -26.1487
  761 548.263 -39.9323 11.4383
  762 -80.1529 1.52756 6.66876
  763 -80.3091 1.52967 -6.67735
  764 1152.18 240.280 -170.579
  765 -26.7655 2.69854 6.66098
  766 -26.8949 2.70253 -6.66934
  767 464.446 0.0748123 18.3150
  768 464.284 0.145385 -18.3443
  769 862.657 51.7771 -0.773694
  770 522.375 -2.01898 -7.40539
  771 522.551 -2.03044 7.39688
  772 339.026 3.17692 11.0591
  773 338.944 3.18702 -11.0519
  774 505.254 -51.0487 150.858
  775 223.801 14.4304 -11.0853
  776 223.815 14.4258 11.1144
  777 5.42649 -83.0012 15.5367
  778 578.451 -68.6920 53.8251
  779 352.228 -0.699525 1.85208
  780 352.141 -0.698233 -1.85089
  781 457.243 -0.808874 0.978967
  782 457.094 -0.807877 -0.978066
  783 -1.95640 -45.9321 -26.9513
  784 3.05258 -76.4048 24.8539
  785 213.075 22.7103 36.6578
  786 213.109 22.6808 -36.4129
  787 1136.96 9.82699 10.5517
  788 360.871 1.92240 -44.1332
  789 361.101 1.77683 44.2538
  790 -71.6343 2.37295 18.6603
  791 -71.7591 2.37879 -18.6938
  792 16.3331 -58.1696 1.65981
  793 10.4346 -135.193 -13.9682
  794 813.550 106.963 -22.0419
  795 -0.686782 -58.6879 14.1635
  796 19.1408 13.0837 30.1940
  797 19.0740 13.0718 -30.3698
  798 114.267 20.6206 0.0539712
  799 114.182 20.6579 -0.0326812
  800 543.013 -25.1777 -11.2875
  801 544.347 -24.7965 9.69695
  802 629.669 118.298 -251.607
  803 -82.1535 0.593143 -2.74227
  804 -81.9946 0.592523 2.73787
  805 -41.1267 -0.136997 10.5291
  806 -41.1432 -0.138980 -10.5424
  807 42.1779 6.11547 5.64826
  808 41.3066 6.08004 -5.76134
  809 414.472 -3.42217 39.5809
  810 414.179 -3.11425 -39.4652
  811 214.403 3.82536 -2.34505
  812 214.411 3.82542 2.34782
  813 665.161 -3.95829 50.0543
  814 75.6456 10.1479 -4.23587
  815 75.7270 10.1354 4.23527
  816 68.9059 12.1377 -16.1125
  817 68.3004 12.4297 16.2432
  818 0.188829 -44.2582 -35.4130
  819 924.128 162.109 145.876
  820 -131.848 0.0615455 -3.53581
  821 -131.668 0.0614023 3.53049
  822 -0.188657 -139.011 13.1873
  823 11.2059 -17.9214 -29.7449
  824 -20.5746 -1.22592 7.90670
  825 -20.5684 -1.22935 -7.91036
  826 748.187 52.0215 -29.0915
  827 200.665 18.0411 -14.0181
  828 200.654 18.0474 14.0768
  829 514.254 -8.47065 -20.0639
  830 514.767 -8.52926 19.8352
  831 -126.652 0.874655 4.83425
  832 -126.821 0.875989 -4.84224
  833 -0.952156 -0.982856 -0.827457
  834 -0.954089 -0.984585 0.830743
  835 0.370324 -142.048 -12.7654
  836 0.648491 -147.732 -10.9595
  837 -137.200 1.21604 0.627986
  838 -137.393 1.21640 -0.628760
  839 82.3785 -11.2146 -95.1759
  840 321.476 2.11530 -3.44342
  841 321.545 2.11427 3.44581
  842 -3.95823 1.75498 0.823549
  843 -4.07411 1.75549 -0.824350
  844 472.088 0.203679 -12.0592
  845 472.242 0.180471 12.0493
  846 -53.9464 0.366770 9.97813
  847 -53.9790 0.366749 -9.99215
  848 291.541 14.6118 -206.580
  849 497.520 -41.6265 44.7131
  850 388.708 0.247001 -4.01166
  851 388.816 0.245002 4.01426
  852 493.309 -45.1426 -49.5353
  853 158.789 15.7390 -5.82683
  854 158.750 15.7510 5.85367
  855 216.713 12.1948 -8.69817
  856 216.722 12.1927 8.71730
  857 577.126 -12.0680 21.1318
  858 38.9913 21.4991 20.2021
  859 38.8181 21.5761 -20.2777
  860 42.5315 1.44612 1.22439
  861 42.4415 1.44689 -1.22591
  862 274.896 1.66755 3.00335
  863 274.854 1.66839 -3.00110
  864 705.145 -54.7075 89.2800
  865 444.410 1.19925 -15.9823
  866 444.559 1.15634 15.9689
  867 12.1769 5.92335 5.88385
  868 12.0664 5.93080 -5.89083
  869 444.166 -1.58518 4.59600
  870 444.025 -1.58200 -4.59306
  871 -76.6352 0.0560658 -2.05394
  872 -76.4777 0.0566259 2.05241
  873 -0.363934 -45.0371 12.6774
  874 -0.486170 -45.7396 -12.7689
  875 542.792 -6.15680 52.3098
  876 -29.7427 8.35481 27.8338
  877 -29.8717 8.37314 -27.8894
  878 -0.166938 -73.9009 -13.9104
  879 216.487 6.09180 -4.63289
  880 216.496 6.09192 4.63836
  881 394.299 -19.3674 -70.7606
  882 397.183 -21.3992 71.4248
  883 -15.8648 -5.24354 -38.5258
  884 -15.7849 -5.23943 38.4334
  885 25.0839 18.6403 23.4159
  886 24.9319 18.6920 -23.4601
  887 1.83321 -165.306 8.55461
  888 8.31674 15.0650 31.1791
  889 8.15395 15.1008 -31.2414
  890 364.725 -6.71291 -63.0497
  891 363.891 -6.94546 63.5408
  892 629.007 38.5515 58.4351
  893 148.316 14.5310 3.70002
  894 148.358 14.5199 -3.68319
  895 455.080 1.55145 -11.8911
  896 455.226 1.53449 11.8883
  897 -17.3467 -7.35540 34.1189
  898 -17.3855 -7.38757 -34.1883
  899 1.67746 -168.397 -4.68631
  900 -26.7174 -1.51315 33.3155
  901 -26.7792 -1.52036 -33.3729
  902 21.7741 16.4286 -18.0474
  903 21.9069 16.3904 18.0198
  904 -1.39344 -11.4474 6.30861
  905 -1.40960 -11.4368 -6.31836
  906 43.5012 18.5358 -15.5221
  907 43.6377 18.4884 15.5021
  908 9.78180 -11.4608 33.6867
  909 8.62542 -10.6414 -35.6563
  910 445.684 -13.4570 40.6160
  911 444.670 -12.8979 -40.7721
  912 -140.453 0.271068 -0.923447
  913 -140.259 0.271117 0.922190
  914 -12.7127 -1.12095 5.97945
  915 -12.7023 -1.12310 -5.97839
  916 0.583277 -104.813 -12.5966
  917 -13.4283 -5.70352 -16.9197
  918 -13.4210 -5.68815 16.9184
  919 -54.7378 4.81528 23.9797
  920 -54.8566 4.82455 -24.0257
  921 143.503 26.1937 -12.3525
  922 143.374 26.2825 12.4402
  923 603.126 46.1539 -7.24529
  924 -3.06326 13.1257 23.6910
  925 -3.20166 13.1573 -23.7328
  926 224.166 14.8271 -67.3084
  927 224.129 15.0288 67.9634
  928 -22.1236 8.95264 19.0060
  929 -22.2569 8.97365 -19.0389
  930 710.157 -26.6173 -1.84048
  931 450.708 17.9864 25.5138
  932 527.534 -5.41775 -47.2897
  933 389.986 3.58415 -26.8031
  934 390.151 3.48337 26.8203
  935 -36.2334 5.04535 -8.84103
  936 -36.0991 5.03713 8.82768
  937 -89.6552 1.54922 11.7307
  938 -89.7988 1.55320 -11.7520
  939 -5.48916 -17.9030 -19.6060
  940 -5.44759 -17.9140 19.6382
  941 142.728 7.43230 2.24097
  942 142.764 7.42804 -2.23670
  943 -41.5936 4.65707 30.0667
  944 -41.6955 4.65877 -30.1256
  945 462.692 -1.21849 5.93961
  946 462.540 -1.21480 -5.93649
  947 -3.35477 -38.9980 29.3403
  948 21.8208 14.8769 -15.3051
  949 21.9457 14.8463 15.2841
  950 29.0215 9.89436 9.56633
  951 28.9122 9.91103 -9.57686
  952 85.7003 6.25478 -1.47719
  953 85.7687 6.24950 1.47646
  954 866.440 122.987 -37.8694
  955 -3.54729 -0.951908 -2.40514
  956 -3.55483 -0.951707 2.40939
  957 32.5835 10.5336 -18.5958
  958 33.1187 10.3027 18.4807
  959 317.041 10.9319 -28.8735
  960 317.164 10.8536 28.9428
  961 45.1844 12.6261 -8.80242
  962 45.2897 12.6051 8.79455
  963 88.1116 0.211850 123.834
  964 585.506 -4.54392 -5.51390
  965 584.876 -4.37984 5.02071
  966 108.622 0.932329 109.597
  967 115.092 3.35222 -0.952670
  968 115.043 3.35396 0.953139
  969 290.459 -2.83499 -179.023
  970 219.473 1.95943 1.58443
  971 219.463 1.95900 -1.58336
  972 29.2035 -23.6924 1.66438
  973 32.2637 -19.1688 0.760542
  974 516.764 -0.887764 2.02936
  975 516.578 -0.886670 -2.02747
  976 -42.2674 0.235858 24.6154
  977 -42.3221 0.232494 -24.6526
  978 929.126 117.972 60.0976
  979 -3.56012 -28.5069 -38.2176
  980 5.38964 -134.418 21.0472
  981 -0.393752 -45.6071 35.0914
  982 535.100 -0.911613 -7.55450
  983 535.268 -0.928345 7.53434
  984 -7.05133 -12.9585 16.9770
  985 -7.07236 -12.9620 -16.9629
  986 679.628 73.0848 -28.3174
  987 1151.83 8.82866 -7.01373
  988 -1.75932 -2.71691 -2.61766
  989 -1.75726 -2.72261 2.62143
  990 315.986 1.87145 -6.40119
  991 316.053 1.86850 6.40556
  992 -3.61281 -27.3257 38.3698
  993 436.808 0.552991 23.6646
  994 436.636 0.657981 -23.6793
  995 574.620 -36.9513 -18.4372
  996 -19.8838 -4.06690 19.0649
  997 -19.8947 -4.08317 -19.0776
  998 10.4122 -34.3095 25.4086
  999 -0.790291 -69.5479 27.5657
  1000 -0.0882263 -73.3598 13.9046
  1001 601.320 37.6829 -3.70221
  1002 679.940 74.9062 13.8078
  1003 483.718 -52.9800 -85.1061
  1004 7.46427 -65.5953 20.1968
  1005 9.32892 -93.2939 1.86730
  1006 138.838 1.80272 0.162023
  1007 138.803 1.80342 -0.162105
  1008 -5.33134 -6.08567 -8.17235
  1009 -5.32610 -6.08600 8.17809
  1010 5.11698 -53.9411 -28.0989
  1011 388.030 -0.974201 -1.47478
  1012 388.138 -0.975581 1.47583
  1013 81.4482 4.46587 -43.7517
  1014 78.0141 4.64487 43.3421
  1015 -4.46554 12.3621 31.8391
  1016 -4.62119 12.3940 -31.9109
  1017 -42.3605 6.82810 -19.6310
  1018 -42.2261 6.81308 19.5965
  1019 301.136 4.74850 -64.9914
  1020 301.249 5.03868 65.6479
  1021 218.445 18.7983 -46.8218
  1022 218.385 18.8117 47.2043
  1023 235.809 15.1447 -16.6143
  1024 235.833 15.1306 16.6596
  1025 604.641 -13.6929 -59.2919
  1026 -13.7629 7.81606 35.5304
  1027 -13.9006 7.82376 -35.6221
  1028 427.063 -1.81171 32.5789
  1029 426.816 -1.58146 -32.5552
  1030 -2.09528 -20.8692 39.7385
  1031 -34.1503 -1.06398 18.3125
  1032 -34.1742 -1.07003 -18.3352
  1033 389.892 2.03920 -32.5208
  1034 390.094 1.89503 32.5556
  1035 494.204 13.0574 -42.8909
  1036 -0.386112 -69.0036 -28.8899
  1037 -5.42591 -27.0882 34.6977
  1038 -5.66335 -27.4406 -34.4187
  1039 277.544 14.4182 -24.3959
  1040 277.619 14.3730 24.4683
  1041 346.903 4.62454 13.6198
  1042 346.813 4.64099 -13.6111
  1043 573.451 -36.1026 15.7541
  1044 34.1731 1.80793 -0.316224
  1045 34.2673 1.80725 0.315750
  1046 488.731 -59.1915 90.7105
  1047 3.08173 1.09153 1.85000
  1048 2.96964 1.09216 -1.85233
  1049 109.818 26.5604 -3.23818
  1050 109.656 26.6561 3.28054
  1051 43.8644 21.0419 17.1182
  1052 43.7153 21.0987 -17.1465
  1053 5.70407 -82.0615 -16.2303
  1054 145.850 3.81381 1.32223
  1055 145.882 3.81215 -1.32005
  1056 441.989 13.9102 10.6068
  1057 392.229 1.39688 12.4753
  1058 392.116 1.41349 -12.4713
  1059 -1.66994 -21.7614 -39.8131
  1060 588.490 -7.68391 -10.3131
  1061 1.39937 -0.716983 38.8724
  1062 1.85889 -0.417044 -38.6579
  1063 531.464 -1.30881 -4.19406
  1064 531.653 -1.31283 4.19224
  1065 567.003 -2.36403 -7.41018
  1066 567.010 -2.43115 7.24624
  1067 -0.424323 -110.981 10.3959
  1068 337.715 6.76039 -17.9404
  1069 337.806 6.73157 17.9547
  1070 408.349 2.20462 14.3986
  1071 408.225 2.22702 -14.3970
  1072 11.4331 10.6679 34.2329
  1073 11.3687 10.6657 -34.2893
  1074 882.959 56.5298 11.1043
  1075 -10.2899 -4.08430 40.7188
  1076 -10.4773 -3.98180 -40.8329
  1077 131.683 24.0442 -4.59698
  1078 131.597 24.0917 4.63812
  1079 -65.5483 0.844181 -3.10473
  1080 -65.3981 0.843633 3.10071
  1081 213.845 13.7169 -77.2381
  1082 213.513 14.2877 78.0605
  1083 64.0408 23.7924 12.1445
  1084 63.8797 23.8640 -12.1611
  1085 146.463 18.8223 -58.5335
  1086 145.714 19.5092 58.9539
  1087 -3.59772 -36.6560 -28.6157
  1088 510.466 8.22274 57.5399
  1089 352.702 11.9040 230.415
  1090 60.2352 24.7768 12.4801
  1091 60.0497 24.8691 -12.5130
  1092 215.903 9.53681 -6.80556
  1093 215.911 9.53463 6.81843
  1094 762.470 13.0152 6.45679
  1095 52.3385 14.6546 5.73655
  1096 51.6949 14.7993 -5.94854
  1097 -22.4486 -4.79743 25.2535
  1098 -22.4718 -4.82129 -25.2833
  1099 -0.734037 -17.0658 6.86759
  1100 -0.764027 -17.0565 -6.89572
  1101 502.367 -1.59742 18.8621
  1102 502.143 -1.42662 -18.9624
  1103 1.27112 -33.9957 37.0904
  1104 -33.3080 2.45266 -33.0520
  1105 -33.2240 2.45852 32.9928
  1106 0.157732 -133.231 -12.9243
  1107 -7.04606 -10.1023 40.6663
  1108 -7.01969 -9.86506 -40.7093
  1109 479.166 -0.409690 -7.94299
  1110 479.325 -0.417618 7.94336
  1111 496.460 -4.94654 22.9481
  1112 496.090 -4.66674 -23.0421
  1113 90.6590 21.4920 -22.6759
  1114 89.9790 21.8542 22.8186
  1115 -1.11116 -68.6613 -23.7586
  1116 651.114 -49.4478 -137.622
  1117 842.884 120.045 19.2442
  1118 9.40216 -97.8689 1.67189
  1119 33.3359 18.3988 -23.5721
  1120 33.5297 18.3060 23.4181
  1121 85.3950 26.5612 3.22513
  1122 85.1838 26.6828 -3.22256
  1123 176.521 8.63183 3.60768
  1124 176.538 8.62983 -3.59925
  1125 -10.6570 -15.1818 32.5983
  1126 -10.6439 -15.3342 -32.6561
  1127 -28.3702 9.67042 25.4082
  1128 -28.5030 9.69210 -25.4553
  1129 -8.28433 12.5006 29.3537
  1130 -8.42932 12.5308 -29.4144
  1131 476.460 -24.5143 -40.3317
  1132 479.378 -24.6428 40.0879
  1133 0.586994 -77.8329 -27.2352
  1134 258.800 1.27918 -95.4700
  1135 259.123 2.05915 96.9107
  1136 85.5177 23.6572 -4.84965
  1137 85.6407 23.5985 4.85832
  1138 252.286 149.029 256.264
  1139 67.9763 18.6726 8.72563
  1140 67.8648 18.7093 -8.72756
  1141 645.391 -65.2958 -38.7633
  1142 248.405 5.01488 5.28945
  1143 248.377 5.01732 -5.28343
  1144 -10.8931 -9.67391 20.1274
  1145 -10.9029 -9.69889 -20.1241
  1146 -12.9262 -11.5394 25.9269
  1147 -12.9293 -11.5877 -25.9343
  1148 428.238 -39.9939 -131.788
  1149 436.246 -44.2893 132.706
  1150 81.7169 1.72973 1.46967
  1151 81.7847 1.72888 -1.46924
  1152 271.954 12.0936 -53.4677
  1153 271.917 11.9580 53.9480
  1154 581.147 -72.5007 102.683
  1155 512.721 -1.52549 1.16073
  1156 512.539 -1.52425 -1.15955
  1157 -43.3504 7.19236 22.7637
  1158 -43.4823 7.20745 -22.8050
  1159 -75.6749 2.20088 -11.6551
  1160 -75.5263 2.19575 11.6377
  1161 137.314 14.7624 158.680
  1162 427.481 27.5576 -21.6110
  1163 248.789 16.2243 -27.4954
  1164 248.842 16.1957 27.6225
  1165 747.486 -7.59731 149.273
  1166 252.975 15.9305 -39.6705
  1167 253.035 15.8712 39.8902
  1168 67.2481 6.86641 -2.75429
  1169 67.3282 6.85970 2.75230
  1170 22.9420 -70.8217 19.2466
  1171 23.1515 -68.5338 -25.3248
  1172 340.956 -20.6725 -133.201
  1173 345.391 -19.1398 132.996
  1174 136.392 23.6036 -42.1976
  1175 135.815 24.0373 42.5400
  1176 593.471 -37.4614 -37.2217
  1177 -20.5521 -1.31374 37.3779
  1178 -20.6347 -1.31528 -37.4497
  1179 0.131144 -30.2552 -38.1468
  1180 155.830 9.47304 -101.590
  1181 156.145 9.84735 103.160
  1182 -0.375178 -30.1573 7.62768
  1183 -0.321349 -30.2323 -7.72402
  1184 -138.544 1.11719 -3.37395
  1185 -138.364 1.11631 3.36859
  1186 467.646 -1.15977 -2.31736
  1187 467.801 -1.16157 2.31935
  1188 294.166 8.99796 -16.0133
  1189 294.234 8.97261 16.0387
  1190 -9.30886 0.751402 40.4712
  1191 -9.33699 0.924596 -40.5519
  1192 -0.0103133 -119.601 -11.5057
  1193 -118.513 0.247035 5.65332
  1194 -118.660 0.247698 -5.66389
  1195 97.4311 4.54654 -73.1013
  1196 96.7538 5.14891 75.2248
  1197 550.098 -33.3954 -5.35279
  1198 162.098 13.8952 -91.5242
  1199 162.186 14.2325 92.2916
  1200 -66.6819 0.373937 9.03516
  1201 -66.7313 0.373401 -9.04922
  1202 1.89505 -101.701 -18.3354
  1203 -14.3004 3.48297 -3.86739
  1204 -14.1781 3.47985 3.86238
  1205 87.7342 19.5611 5.46147
  1206 87.6293 19.6005 -5.45350
  1207 311.449 -0.0316981 -2.01190
  1208 311.512 -0.0326134 2.01318
  1209 416.579 0.566986 9.47256
  1210 416.454 0.577294 -9.46969
  1211 24.8350 -0.377033 19.3926
  1212 24.4713 -0.787052 -19.8392
  1213 4.39083 -57.7052 28.2608
  1214 749.244 107.576 15.6235
  1215 -22.9908 -1.74526 14.4739
  1216 -22.9971 -1.75318 -14.4839
  1217 3.51889 -54.0653 -29.8416
  1218 -2.13390 -34.7531 21.1122
  1219 -2.03525 -34.3956 -21.8640
  1220 590.483 -6.56967 9.09309
  1221 0.500986 -136.458 11.7095
  1222 5.02054 -39.2321 -33.3393
  1223 76.2234 1.08643 0.555283
  1224 76.1527 1.08678 -0.555780
  1225 -5.40989 -24.0206 37.9355
  1226 -60.7465 3.36837 -9.60696
  1227 -60.6015 3.36311 9.59323
  1228 1173.66 19.5219 34.3877
  1229 -32.6100 4.23679 33.1845
  1230 -32.7092 4.23432 -33.2499
  1231 289.881 10.7178 -48.2813
  1232 290.079 10.5434 48.5397
  1233 20.0298 -24.1383 -11.2344
  1234 275.328 12.3012 -20.2861
  1235 275.392 12.2669 20.3368
  1236 12.0231 -77.2610 -0.992743
  1237 -5.43601 -24.0882 -37.8991
  1238 -40.2530 1.28193 5.40533
  1239 -40.3892 1.28388 -5.41202
  1240 -19.3811 2.12063 -37.9806
  1241 -19.2798 2.12965 37.9121
  1242 590.574 48.2991 40.7219
  1243 333.956 2.85763 -50.5384
  1244 334.300 2.79730 50.6606
  1245 -143.872 0.250449 -1.10040
  1246 -143.679 0.250363 1.09848
  1247 300.064 5.45048 -10.7770
  1248 300.123 5.44243 10.7863
  1249 -146.631 -2.68570 -0.422437
  1250 -146.830 -2.68752 0.422567
  1251 446.284 -31.3426 -57.9573
  1252 -68.6708 1.22679 18.8348
  1253 -68.7637 1.22693 -18.8691
  1254 450.545 -33.0945 57.4373
  1255 305.726 9.34934 -21.5151
  1256 305.809 9.30688 21.5496
  1257 37.0124 -61.4321 -72.1975
  1258 0.691307 -94.2726 -23.2198
  1259 -1.70834 -39.4156 35.5093
  1260 933.840 178.956 -149.011
  1261 -0.187053 -89.0008 22.9913
  1262 978.408 92.8796 -65.8969
  1263 -0.631491 -165.253 -10.6664
  1264 53.2773 3.75778 -0.505005
  1265 53.3619 3.75487 0.503640
  1266 -0.399617 -38.6803 7.98716
  1267 -0.317802 -38.8907 -7.96975
  1268 173.449 2.65921 0.679170
  1269 173.465 2.65839 -0.678408
  1270 599.304 -43.0887 35.0386
  1271 17.5624 3.70063 -4.47676
  1272 17.6678 3.69672 4.47190
  1273 3.45882 -176.512 3.68339
  1274 2.20467 -188.568 -3.69401
  1275 551.025 -65.3501 -63.5079
  1276 -1.44901 -49.5317 23.2128
  1277 585.781 39.9829 -52.8538
  1278 -1.70860 -65.2551 22.7485
  1279 1.20208 -176.295 -7.64471
  1280 280.758 6.16005 -12.1148
  1281 280.809 6.14435 12.1311
  1282 -0.231488 -97.8950 10.2755
  1283 -0.216751 -80.5402 -23.0372
  1284 1268.23 235.929 200.384
  1285 514.936 -0.0790696 0.864340
  1286 514.752 -0.0787694 -0.863646
  1287 15.6620 2.93097 30.5709
  1288 15.1978 3.49150 -30.7351
  1289 -6.04113 8.26802 37.4312
  1290 -6.25023 8.27066 -37.5423
  1291 559.059 -9.78295 -33.5983
  1292 514.955 -22.0122 -23.9301
  1293 514.541 -24.9328 24.2874
  1294 82.1978 7.86972 2.53831
  1295 82.1238 7.87787 -2.53862
  1296 -81.8080 2.15648 -14.3053
  1297 -81.6723 2.15167 14.2785
  1298 573.649 -73.8078 -88.4929
  1299 -4.24949 -10.3650 10.6360
  1300 -4.26668 -10.3593 -10.6323
  1301 607.182 -23.2174 56.0211
  1302 -6.15498 -23.5162 28.2907
  1303 -6.08483 -23.6064 -28.1623
  1304 -48.7399 3.10454 6.53605
  1305 -48.8803 3.10871 -6.54521
  1306 95.5931 13.8245 -40.0226
  1307 94.6533 14.3406 39.9744
  1308 148.543 2.53894 -0.125824
  1309 148.513 2.53992 0.126187
  1310 -55.8665 5.76185 22.7209
  1311 -55.9928 5.77290 -22.7620
  1312 484.387 0.473868 1.34294
  1313 484.221 0.473950 -1.34192
  1314 273.870 3.95441 177.126
  1315 398.577 -0.527440 3.36790
  1316 398.463 -0.525887 -3.36558
  1317 270.572 6.01645 -73.2310
  1318 270.565 5.72309 73.8080
  1319 2.73904 -100.915 -11.9112
  1320 107.351 25.8620 -19.2413
  1321 106.886 26.1533 19.3916
  1322 -1.06173 -0.913264 -1.36420
  1323 -1.06704 -0.913427 1.36813
  1324 344.512 8.70705 27.3499
  1325 344.381 8.79255 -27.3100
  1326 174.664 12.3784 5.86873
  1327 174.685 12.3740 -5.85155
  1328 254.261 12.3465 -14.3101
  1329 254.299 12.3300 14.3419
  1330 329.176 0.276580 -3.40254
  1331 329.250 0.275459 3.40477
  1332 -10.4008 -4.99245 -11.9913
  1333 -10.3972 -4.98542 11.9956
  1334 -94.5845 -0.136606 3.86019
  1335 -94.7493 -0.136237 -3.86589
  1336 -17.4191 -7.85405 -28.8887
  1337 -17.4000 -7.81178 28.8525
  1338 -50.7428 0.355394 1.55419
  1339 -50.8853 0.355144 -1.55597
  1340 -148.606 1.29466 0.617628
  1341 -148.806 1.29518 -0.618383
  1342 614.445 -70.1639 118.946
  1343 461.955 -1.95782 -47.4218
</Section>

newXOutput 74

<Section columns = "stress_xx | stress_yy | stress_xy">
  1 536.444 -1.03933 0.582546
  2 536.640 -1.04017 -0.582844
  3 -162.951 0.705039 -2.25396
  4 0.258140 0.0566890 0.463255
  5 956.930 308.108 323.548
  6 1082.57 345.748 -312.240
  7 0.256838 0.0555247 -0.461522
  8 -162.739 0.704904 2.25262
  9 534.907 -0.998817 -1.78714
  10 535.399 -1.84193 -2.85836
  11 540.403 -1.85265 -0.808208
  12 541.065 -1.84015 -3.42606
  13 542.657 -1.82973 -1.15151
  14 553.813 -1.68251 -1.56120
  15 557.864 -2.34460 -4.60509
  16 562.415 -1.24539 -3.21055
  17 565.513 -0.197815 -6.18373
  18 588.073 -3.53346 -5.28894
  19 598.214 -2.85217 -6.73963
  20 609.669 -4.12136 -2.95567
  21 615.633 -5.30697 -2.05482
  22 613.170 -5.95274 6.90828
  23 595.017 -6.49314 15.0806
  24 551.644 -6.82795 32.9686
  25 479.650 4.54168 38.5999
  26 421.537 5.78946 35.4716
  27 339.432 10.5057 21.4425
  28 359.545 10.1994 2.41048
  29 307.161 29.6826 -13.3859
  30 402.824 13.9641 -39.3175
  31 454.069 3.82995 -32.0062
  32 541.820 -1.23352 -27.7804
  33 589.296 -7.87269 -18.2180
  34 612.572 -6.91978 -6.83564
  35 614.730 -5.15796 2.11055
  36 609.076 -4.07303 2.81340
  37 598.046 -2.86742 6.56900
  38 588.093 -3.57285 5.19497
  39 565.660 -0.219497 6.14309
  40 562.602 -1.25356 3.19701
  41 558.069 -2.35020 4.60272
  42 554.022 -1.68557 1.56056
  43 542.860 -1.83199 1.15220
  44 541.267 -1.84209 3.42888
  45 540.604 -1.85418 0.809284
  46 535.596 -1.84332 2.86062
  47 535.103 -0.999649 1.78854
  48 507.068 0.812503 -0.695179
  49 470.810 -0.347927 -1.49859
  50 425.288 -2.64685 -1.44233
  51 377.872 -0.0535867 -1.19940
  52 336.100 -0.546512 -0.942812
  53 291.207 0.865130 -1.10613
  54 246.698 3.22484 -0.619013
  55 200.288 2.75626 -1.37878
  56 161.658 1.59515 -1.96730
  57 110.774 0.640978 -2.07300
  58 58.9292 1.88563 -1.59042
  59 15.5537 1.60357 -1.53876
  60 -38.7053 0.808115 -1.38559
  61 -79.0590 -0.877011 -3.54347
  62 -118.177 -2.85702 -1.60146
  63 -157.945 0.259184 1.14342
  64 -166.673 2.84808 -0.342062
  65 -167.423 1.22066 0.599419
  66 -161.924 0.567810 -0.0851851
  67 -164.125 1.81150 -1.92102
  68 -161.737 2.22405 -0.00827524
  69 -153.175 0.643707 -2.99219
  70 -155.522 1.37943 -3.24488
  71 -151.889 1.29627 -1.74156
  72 -140.808 0.785405 -2.70968
  73 -136.075 1.48449 -4.60075
  74 -128.014 1.68268 -3.72146
  75 -113.542 0.850279 -6.64216
  76 -105.478 0.265973 -5.54278
  77 -90.6948 0.380259 -6.45307
  78 -78.0326 0.321226 -7.20539
  79 -66.8891 0.119270 -5.68970
  80 -51.2961 0.345785 -5.74857
  81 -37.8069 -0.122237 -6.17515
  82 -24.7432 -0.657250 -5.45859
  83 -14.3556 -0.579114 -4.20412
  84 -7.09846 -1.03166 -3.52939
  85 -1.25301 -0.597851 -1.28066
  86 0.0319192 -0.676020 -0.471129
  87 -0.362536 -0.393869 -0.112400
  88 -0.937627 -1.03471 -1.12494
  89 -0.912213 -6.01700 -3.07092
  90 -0.767611 -13.3995 -4.34535
  91 -0.388892 -22.7290 -6.31707
  92 -0.192367 -34.8473 -5.44072
  93 -0.137949 -45.9175 -6.83996
  94 -0.824087 -59.3296 -7.68801
  95 -0.338850 -75.9561 -7.72594
  96 0.154812 -92.6915 -7.37769
  97 0.358775 -110.578 -7.25975
  98 0.564429 -128.892 -7.10588
  99 -0.00481381 -142.085 -9.58936
  100 0.916479 -161.114 -8.55624
  101 1.15483 -183.304 -6.69112
  102 -0.175302 -192.407 -8.86123
  103 1.63575 -207.844 -8.10488
  104 4.14759 -228.236 -3.19541
  105 8.15870 -232.051 -5.10018
  106 6.09893 -206.594 8.42579
  107 9.49960 -146.168 29.1391
  108 42.7936 -63.2718 77.7758
  109 129.460 236.833 241.880
  110 1464.24 82.4693 148.227
  111 1261.99 23.2685 53.3085
  112 1221.42 7.81284 12.4896
  113 1212.40 1.88943 -1.93049
  114 1220.98 12.4705 -28.0543
  115 1261.29 42.6694 -63.7723
  116 1427.77 161.166 -188.691
  117 314.607 186.438 -294.125
  118 73.1693 -63.3401 -92.5613
  119 21.8022 -160.386 -36.0505
  120 6.18551 -195.098 -8.82937
  121 6.64064 -222.886 1.99588
  122 1.84213 -218.994 2.14322
  123 0.594781 -202.592 6.69771
  124 0.685917 -191.379 5.26047
  125 1.01083 -173.024 9.58145
  126 -0.0472548 -162.684 9.45634
  127 0.398556 -147.186 6.77969
  128 0.805075 -127.391 8.73999
  129 0.172961 -113.206 6.91886
  130 0.229251 -92.7527 8.75232
  131 -0.927185 -76.8876 7.53905
  132 -0.630619 -59.3744 7.44224
  133 -0.0909064 -45.6548 6.85498
  134 -0.253722 -34.6429 5.44771
  135 -0.378238 -22.6620 6.25428
  136 -0.756044 -13.3909 4.32353
  137 -0.907291 -6.02625 3.06878
  138 -0.936296 -1.04489 1.12723
  139 -0.362461 -0.398200 0.115328
  140 0.0266199 -0.676616 0.473734
  141 -1.26283 -0.597429 1.28387
  142 -7.11265 -1.03051 3.53233
  143 -14.3740 -0.577179 4.20475
  144 -24.7565 -0.654871 5.45582
  145 -37.8074 -0.120269 6.16812
  146 -51.2817 0.346175 5.74040
  147 -66.8538 0.120313 5.68103
  148 -77.9780 0.322526 7.19515
  149 -90.6141 0.380286 6.44203
  150 -105.372 0.265980 5.53213
  151 -113.420 0.849726 6.63132
  152 -127.867 1.68158 3.71271
  153 -135.914 1.48323 4.59326
  154 -140.633 0.784567 2.70458
  155 -151.701 1.29531 1.73801
  156 -155.327 1.37868 3.24103
  157 -152.977 0.643479 2.98889
  158 -161.531 2.22285 0.00705373
  159 -163.916 1.81056 1.91911
  160 -161.714 0.567692 0.0846315
  161 -167.209 1.22013 -0.599356
  162 -166.459 2.84664 0.341646
  163 -157.736 0.259307 -1.14296
  164 -117.991 -2.85491 1.60041
  165 -78.8970 -0.875901 3.54138
  166 -38.5669 0.808218 1.38458
  167 15.6609 1.60308 1.53774
  168 59.0118 1.88481 1.58941
  169 110.827 0.640811 2.07176
  170 161.682 1.59449 1.96620
  171 200.291 2.75514 1.37806
  172 246.673 3.22356 0.618717
  173 291.156 0.865301 1.10555
  174 336.024 -0.545508 0.942297
  175 377.770 -0.0529456 1.19873
  176 425.159 -2.64467 1.44161
  177 470.653 -0.347307 1.49777
  178 506.889 0.812291 0.694804
  179 148.227 24.4171 -9.44553
  180 148.127 24.4738 9.51397
  181 -0.875987 5.21000 38.5734
  182 -1.03982 5.16298 -38.6062
  183 330.959 -4.16596 -77.5779
  184 330.663 -4.77070 78.3369
  185 68.5471 17.7331 -7.98460
  186 67.7440 17.9921 7.98681
  187 52.7775 7.35561 -4.60066
  188 52.8696 7.34635 4.59646
  189 311.398 4.25203 -12.0928
  190 311.465 4.23883 12.1050
  191 -1.51631 12.1617 19.9555
  192 -1.65190 12.1903 -19.9890
  193 361.427 7.65726 -29.7307
  194 361.593 7.55247 29.7809
  195 -13.5795 -11.7102 31.8865
  196 -13.5796 -11.7832 -31.9336
  197 4.00226 -26.8171 -36.5413
  198 116.171 11.4422 -73.9155
  199 4.74273 -28.7731 35.5776
  200 114.366 12.3007 74.9409
  201 510.003 -64.4650 -111.581
  202 526.964 -66.9740 107.401
  203 187.428 4.56617 -2.81691
  204 187.418 4.56701 2.82055
  205 -23.4377 1.42284 -3.58308
  206 -23.3080 1.42172 3.57894
  207 -38.3332 6.31797 29.8167
  208 -38.4521 6.32833 -29.8777
  209 188.565 15.4787 -7.62965
  210 188.549 15.4850 7.65425
  211 59.8349 24.3038 11.2741
  212 59.5975 24.4439 -11.3448
  213 -47.5819 5.19121 -11.5457
  214 -47.4401 5.18228 11.5280
  215 409.473 -0.703566 5.54697
  216 409.354 -0.699754 -5.54364
  217 14.2388 -49.9334 12.9057
  218 15.4612 -44.7735 -10.8879
  219 -3.54752 -33.3404 35.6872
  220 -3.65740 -34.7264 -34.5982
  221 175.101 24.7219 -33.8926
  222 174.916 24.8498 34.1701
  223 -35.6627 0.109921 30.7543
  224 -35.7302 0.103283 -30.8054
  225 437.964 1.22141 -15.8410
  226 438.104 1.19130 15.8372
  227 472.905 -7.96060 -31.6718
  228 473.292 -8.40437 31.5966
  229 759.584 55.8964 1.14552
  230 697.216 79.9374 30.7971
  231 682.281 0.0814011 -50.8526
  232 88.6255 17.8562 5.16286
  233 88.5301 17.8881 -5.15791
  234 8.95194 15.6416 28.6536
  235 8.79240 15.6864 -28.7115
  236 528.457 -31.8147 -23.5173
  237 525.469 -32.1778 25.2717
  238 294.606 0.905162 -4.58418
  239 294.659 0.902828 4.58776
  240 -61.9898 4.47515 19.5737
  241 -62.1244 4.48515 -19.6093
  242 -8.85798 -8.70127 -14.5494
  243 -8.84827 -8.69376 14.5562
  244 -66.7348 1.30385 5.59207
  245 -66.8875 1.30603 -5.59984
  246 244.763 16.5157 -21.2312
  247 244.795 16.4948 21.3017
  248 309.907 8.17438 -44.9542
  249 310.116 8.04606 45.1379
  250 79.4206 3.58958 0.369060
  251 79.4924 3.58730 -0.369429
  252 181.401 11.2703 -153.726
  253 213.645 15.6342 166.436
  254 26.3235 12.5083 26.4237
  255 26.2127 12.7502 -26.5624
  256 713.055 -46.3791 -23.7418
  257 66.9647 23.3608 9.85301
  258 66.8231 23.4224 -9.85995
  259 178.492 20.1908 -60.2573
  260 178.129 20.6431 60.8142
  261 800.862 117.716 4.40854
  262 474.909 -0.918926 21.4197
  263 474.710 -0.792007 -21.4620
  264 -4.20057 -26.3012 -22.6269
  265 -4.06684 -26.4017 22.7126
  266 -0.784780 -61.7820 -30.5811
  267 2.43273 -70.8602 -27.2094
  268 1.35934 -71.4588 28.9088
  269 -11.0723 -9.49050 40.4235
  270 -11.1266 -9.48255 -40.6017
  271 27.0697 -51.1663 -15.5708
  272 29.1885 -46.4712 20.1822
  273 -27.1927 -2.20807 19.8392
  274 -27.2128 -2.21893 -19.8607
  275 341.137 7.73783 -18.8194
  276 341.238 7.69926 18.8390
  277 592.907 -58.5708 -10.6460
  278 136.357 9.84855 1.46495
  279 136.400 9.84141 -1.45940
  280 -1.41540 -58.0665 29.2939
  281 17.3722 11.5788 12.1002
  282 17.2518 11.6007 -12.1164
  283 934.574 63.7502 -29.0856
  284 459.224 -0.740324 6.70285
  285 459.076 -0.733716 -6.70095
  286 315.064 -12.5563 -115.539
  287 317.622 -12.3260 117.138
  288 592.210 -55.6447 1.09795
  289 -54.8323 1.81219 24.1506
  290 -54.9173 1.81155 -24.1937
  291 577.188 -36.9405 186.123
  292 -23.2903 4.62710 36.2681
  293 -23.3956 4.61769 -36.3426
  294 102.685 28.0182 -12.1460
  295 102.281 28.2735 12.2360
  296 -96.6248 0.510546 0.913355
  297 -96.7970 0.510303 -0.914684
  298 487.661 22.5384 -251.087
  299 -92.7450 1.78225 -10.3500
  300 -92.5904 1.77823 10.3322
  301 -1.72591 -10.7083 40.5788
  302 -0.198146 -10.3332 -40.0468
  303 220.258 21.0961 -30.4083
  304 220.248 21.1054 30.5727
  305 52.5813 4.55001 3.47973
  306 52.4926 4.55437 -3.48310
  307 228.145 6.95290 -6.93712
  308 228.159 6.95098 6.94630
  309 22.8462 -12.6055 18.3901
  310 20.8442 -15.7083 -18.7410
  311 221.491 2.19670 -1.89028
  312 221.501 2.19690 1.89193
  313 -77.2352 2.03388 17.5228
  314 -77.3480 2.03668 -17.5557
  315 57.3912 -0.710023 -18.7539
  316 55.7615 -0.803918 17.2587
  317 477.603 -1.26589 1.88261
  318 477.442 -1.26443 -1.88084
  319 1034.06 57.8940 44.0085
  320 114.246 13.3796 0.723496
  321 114.182 13.3946 -0.715849
  322 -17.8023 4.67749 7.52509
  323 -17.9307 4.68494 -7.53586
  324 155.119 19.1771 -6.70764
  325 155.065 19.1991 6.74604
  326 20.4355 16.5095 29.4475
  327 20.3039 16.5407 -29.5424
  328 2.41514 -103.120 19.6598
  329 -100.670 -0.0755474 -2.21614
  330 -100.497 -0.0752291 2.21316
  331 368.136 -0.539511 -3.64484
  332 368.231 -0.541362 3.64728
  333 387.489 1.08475 -9.65889
  334 387.598 1.07403 9.66341
  335 -94.6185 1.42704 -7.31586
  336 -94.4540 1.42455 7.30528
  337 4.28934 1.07167 0.613589
  338 4.17551 1.07198 -0.614766
  339 -2.14140 -43.4377 22.4985
  340 -1.69288 -45.1855 -22.4657
  341 439.247 -35.0800 -78.7668
  342 455.615 -42.0168 77.4313
  343 262.920 10.8827 -13.3171
  344 262.960 10.8698 13.3398
  345 118.992 26.8205 -8.10416
  346 118.780 26.9468 8.17519
  347 -36.0061 7.40497 16.7079
  348 -36.1432 7.42080 -16.7365
  349 802.830 28.0978 33.4019
  350 45.3146 -51.2046 -54.9742
  351 48.4549 -46.4543 57.2011
  352 -13.9482 12.4738 27.3555
  353 -14.0890 12.5020 -27.4092
  354 -21.5909 -4.04339 35.9967
  355 -21.6539 -4.05677 -36.0683
  356 911.746 159.550 -54.8214
  357 595.972 -5.21472 66.9612
  358 549.489 -13.6274 -15.1804
  359 549.149 -13.3082 14.3975
  360 389.839 -5.39591 -50.4133
  361 389.364 -5.73805 50.4556
  362 0.770340 -124.254 -15.6117
  363 501.240 0.248210 -11.9018
  364 501.402 0.213523 11.8785
  365 6.86195 -115.417 11.0339
  366 596.354 47.2309 -33.3914
  367 148.159 3.36868 1.21971
  368 148.127 3.37031 -1.22034
  369 391.315 1.44771 -37.3930
  370 391.558 1.28348 37.4597
  371 419.096 1.86945 -22.4158
  372 419.248 1.79627 22.4121
  373 -2.12550 3.89561 4.78650
  374 -2.24456 3.90017 -4.79276
  375 245.925 13.5952 -60.9020
  376 245.946 13.7589 61.3876
  377 491.893 -1.04809 3.06812
  378 491.723 -1.04600 -3.06578
  379 285.766 13.9665 -31.2373
  380 285.861 13.8998 31.3462
  381 326.996 3.28618 8.11854
  382 326.923 3.29120 -8.11265
  383 -15.5068 -2.74316 12.3446
  384 -15.5078 -2.75088 -12.3465
  385 -3.72153 -2.63520 -3.66027
  386 -3.72304 -2.63621 3.66573
  387 658.561 -75.7067 55.1074
  388 -8.30355 -20.2145 33.1598
  389 -8.24369 -20.3982 -33.1703
  390 113.342 5.63932 -0.681201
  391 113.396 5.63524 0.681897
  392 -3.24731 -16.4714 12.4113
  393 -3.28546 -16.4476 -12.4143
  394 46.1821 18.2701 12.7856
  395 46.0566 18.3100 -12.7998
  396 538.031 -3.21638 15.8713
  397 537.800 -3.03678 -16.0911
  398 -0.785712 -30.5352 39.0777
  399 -44.0227 -0.724750 18.6572
  400 -44.0619 -0.729216 -18.6842
  401 -0.956566 -32.3412 -38.6444
  402 503.722 -0.668278 7.59700
  403 503.551 -0.658057 -7.60078
  404 -2.28807 11.8904 34.7890
  405 -2.47039 11.9218 -34.8732
  406 376.573 3.86762 -15.2142
  407 376.681 3.84389 15.2207
  408 576.956 -24.4995 -9.15415
  409 578.234 -19.9751 6.56173
  410 -1.08690 -59.0187 -24.5500
  411 55.2665 21.0776 -6.56295
  412 55.7139 20.8731 6.48346
  413 588.296 37.9192 20.4972
  414 331.566 -12.5712 -158.418
  415 339.908 -18.5364 165.388
  416 23.4439 17.7566 21.1789
  417 23.2984 17.8020 -21.2151
  418 244.694 4.78340 -4.75027
  419 244.718 4.78271 4.75496
  420 237.847 56.2416 250.191
  421 101.946 22.0349 -2.44872
  422 102.057 21.9851 2.46649
  423 6.67094 -53.1426 24.7319
  424 -0.700714 -95.5542 -21.0176
  425 42.2916 22.1772 18.9352
  426 42.1259 22.2431 -18.9798
  427 52.7049 11.7842 -7.25109
  428 52.8048 11.7664 7.24530
  429 -15.0255 -0.0996006 -40.0446
  430 -14.9214 -0.122705 39.9666
  431 120.769 24.4400 -27.6386
  432 120.249 24.7809 27.8569
  433 583.265 -17.3852 -51.1195
  434 18.1669 -3.37933 28.7432
  435 17.6090 -3.26601 -28.9593
  436 425.210 -18.4958 -55.6611
  437 426.868 -19.7155 55.6219
  438 -102.736 0.749040 -10.3597
  439 -102.592 0.746473 10.3406
  440 -0.00571908 -94.2233 19.0183
  441 -0.642732 -60.0260 21.8924
  442 -41.4324 2.94864 30.8412
  443 -41.5211 2.94573 -30.8978
  444 304.903 0.748845 -1.75036
  445 304.962 0.748023 1.75168
  446 -8.91412 -14.0975 22.7594
  447 -8.93194 -14.1330 -22.7397
  448 194.263 12.8472 -87.9045
  449 193.841 13.6603 88.7760
  450 1.62162 -112.453 -20.1883
  451 1031.78 34.2544 0.332817
  452 3.08842 -130.194 -9.98686
  453 -119.252 -0.264928 -3.48062
  454 -119.070 -0.264891 3.47617
  455 -44.9215 6.73171 24.4572
  456 -45.0523 6.74586 -24.5049
  457 -55.1688 0.825365 18.6421
  458 -55.2269 0.824685 -18.6712
  459 211.446 20.0748 -21.4551
  460 211.436 20.0889 21.5544
  461 315.543 10.6019 -24.1256
  462 315.646 10.5445 24.1748
  463 -4.60708 -18.2650 40.5384
  464 -4.61447 -18.1441 -40.7128
  465 551.990 11.9919 -64.2889
  466 39.5283 -5.31198 -1.35856
  467 38.1419 -5.65307 2.07731
  468 9.21640 -113.822 -5.25735
  469 6.05792 -133.582 0.915120
  470 -16.2788 -7.18469 23.3953
  471 -16.2898 -7.21247 -23.4093
  472 119.329 6.78574 -134.468
  473 818.864 17.3175 -94.4353
  474 192.767 10.4355 7.10177
  475 192.776 10.4335 -7.08711
  476 278.629 3.95361 -83.7246
  477 279.159 3.87695 84.8648
  478 84.8247 27.9706 4.64659
  479 84.6515 28.0673 -4.64345
  480 251.948 17.8249 -45.4173
  481 252.014 17.7571 45.7080
  482 11.0210 6.38312 35.0514
  483 11.5781 6.66335 -35.0090
  484 -106.372 1.43062 -7.35823
  485 -106.206 1.42853 7.34653
  486 543.811 -61.3067 -47.3279
  487 429.334 -1.10197 -2.54187
  488 429.466 -1.10343 2.54381
  489 29.1625 2.01613 -1.70843
  490 29.2627 2.01455 1.70604
  491 -24.0951 9.83815 22.2740
  492 -24.2322 9.86073 -22.3142
  493 -57.5417 3.37298 -7.58879
  494 -57.3946 3.36795 7.57748
  495 192.945 16.7845 -10.7224
  496 192.930 16.7903 10.7604
  497 -19.9703 8.89350 32.2426
  498 -20.1056 8.91233 -32.3140
  499 497.416 -14.8807 -30.1024
  500 498.277 -15.5408 29.7994
  501 330.653 2.85676 -56.0387
  502 330.123 2.66807 56.4879
  503 126.857 4.12359 -0.244324
  504 126.902 4.12135 0.244441
  505 1.66077 -56.8094 -32.7529
  506 585.114 -19.8595 41.7047
  507 8.90894 -35.6465 -28.3252
  508 170.976 26.1620 22.6580
  509 171.105 26.0743 -22.4998
  510 537.933 -57.3508 46.8881
  511 43.5699 -38.2380 73.4514
  512 636.978 -74.0969 -90.5824
  513 436.241 0.254468 27.0635
  514 436.031 0.402147 -27.0652
  515 1.65140 -48.3563 34.0951
  516 -8.57508 -2.52956 -6.65593
  517 -8.57815 -2.52788 6.66014
  518 59.4305 1.61857 -0.358608
  519 59.5129 1.61782 0.357921
  520 -1.44211 -33.7900 14.5423
  521 -1.30831 -33.6367 -14.6209
  522 359.793 1.88448 6.25485
  523 359.702 1.88710 -6.25087
  524 996.727 185.007 86.8924
  525 44.4358 -19.6197 -18.6826
  526 34.7587 -28.5993 11.4228
  527 -4.99423 7.05907 -10.2157
  528 -4.86920 7.04616 10.2011
  529 -86.2277 1.35043 11.0724
  530 -86.3226 1.35191 -11.0919
  531 0.912487 -105.872 20.3784
  532 -116.285 0.815633 0.798577
  533 -116.469 0.815663 -0.800022
  534 115.569 1.74949 -100.279
  535 113.149 3.41473 103.860
  536 106.266 20.8978 -37.6679
  537 105.480 21.3338 37.8526
  538 -22.8927 -4.58227 31.6827
  539 -22.9345 -4.60448 -31.7353
  540 105.670 7.64471 0.498732
  541 105.609 7.65126 -0.497267
  542 -45.4354 1.82241 2.87878
  543 -45.5774 1.82397 -2.88345
  544 123.354 16.0508 -0.501135
  545 123.287 16.0728 0.516813
  546 -2.34935 -7.75641 5.70458
  547 -2.35775 -7.75027 -5.70373
  548 46.1955 20.0121 15.9869
  549 45.8932 20.2704 -16.1073
  550 37.3077 8.26831 13.3739
  551 36.8002 8.22692 -13.6955
  552 439.393 1.65170 11.3407
  553 439.255 1.66411 -11.3390
  554 391.040 3.45275 18.4061
  555 390.917 3.49364 -18.4011
  556 -0.395825 -91.0777 -13.2784
  557 277.322 11.9093 -18.9937
  558 277.380 11.8838 19.0327
  559 277.390 4.44764 -7.53341
  560 277.434 4.44259 7.54136
  561 -30.6042 0.641372 0.222441
  562 -30.4705 0.641530 -0.222862
  563 489.593 25.1424 -12.3687
  564 611.973 -73.0344 -37.2297
  565 518.407 25.0151 47.9661
  566 4.58116 -74.3440 -22.8367
  567 -22.2147 8.10672 -14.0875
  568 -22.0813 8.09134 14.0659
  569 4.99449 -42.5403 31.5142
  570 -25.8633 1.17303 35.8021
  571 -25.9472 1.16634 -35.8655
  572 784.495 75.1107 6.81218
  573 183.412 6.53321 -3.75960
  574 183.399 6.53473 3.76534
  575 1156.80 100.259 -106.210
  576 -4.42227 -3.34089 41.1923
  577 -3.98758 -3.02092 -41.2109
  578 646.495 -52.8588 17.1666
  579 517.716 -0.440889 -13.1622
  580 517.881 -0.500572 13.1114
  581 245.548 3.62800 -120.509
  582 248.284 2.83866 122.194
  583 -12.7576 -12.1697 36.5553
  584 -12.7733 -12.2381 -36.6610
  585 131.021 15.0395 66.9364
  586 132.099 14.1326 -66.4759
  587 -100.161 1.11915 -10.2271
  588 -100.029 1.11728 10.2083
  589 761.341 73.5290 29.9078
  590 151.118 11.8976 2.89127
  591 151.155 11.8892 -2.88075
  592 177.629 22.3100 -46.6782
  593 177.360 22.5711 47.0948
  594 471.453 -2.36649 -26.3076
  595 471.725 -2.57740 26.2782
  596 -1.88288 -46.5411 -32.7365
  597 507.858 -1.22807 3.98772
  598 507.679 -1.22527 -3.98561
  599 -68.0721 0.988101 -0.957696
  600 -67.9170 0.987853 0.955599
  601 -124.920 -1.11688 -0.0549222
  602 -125.110 -1.11798 0.0546206
  603 11.8875 -65.9764 -7.99149
  604 -4.61659 -30.5235 28.4138
  605 -4.86930 -28.8356 -28.6014
  606 -56.3541 3.63716 25.5292
  607 -56.4583 3.64143 -25.5769
  608 361.195 6.96441 23.4542
  609 361.071 7.02712 -23.4325
  610 267.643 1.50009 1.73097
  611 267.606 1.50008 -1.72975
  612 63.2428 -9.40745 44.7363
  613 65.1028 -8.10584 -44.3790
  614 -1.80722 -23.6106 12.3236
  615 -1.86598 -23.5389 -12.3673
  616 607.765 61.6837 268.881
  617 -30.4114 -0.891838 11.3680
  618 -30.4173 -0.896368 -11.3790
  619 12.0088 -39.4901 -21.7907
  620 262.492 8.33419 -10.2767
  621 262.528 8.32694 10.2908
  622 132.007 27.2136 -18.2682
  623 131.735 27.3847 18.4166
  624 1.24616 -156.755 6.76439
  625 100.221 25.8128 1.29765
  626 100.086 25.8841 -1.27616
  627 -5.56462 10.3202 17.0061
  628 -5.69630 10.3421 -17.0327
  629 -0.723321 -79.9785 18.1029
  630 -126.159 -0.0305669 -3.51948
  631 -125.975 -0.0307677 3.51468
  632 175.282 2.77032 1.52481
  633 175.299 2.76962 -1.52310
  634 428.209 -0.194036 7.63895
  635 428.078 -0.188015 -7.63533
  636 382.257 -18.0845 205.888
  637 308.110 5.69191 -14.7858
  638 308.180 5.67179 14.8032
  639 6.51534 -4.50960 37.2698
  640 7.73342 -1.86563 -37.0942
  641 488.700 -41.5267 -167.694
  642 1121.12 37.6419 -44.0844
  643 -117.778 0.0127793 -6.95244
  644 -117.619 0.0116579 6.94058
  645 35.0374 5.44281 -4.16989
  646 35.1369 5.43653 4.16518
  647 -2.13409 -49.7395 29.0882
  648 664.022 43.9734 -55.7313
  649 501.904 -1.45537 0.731729
  650 501.728 -1.45409 -0.730873
  651 -32.0746 -1.60171 -26.1693
  652 -32.0331 -1.59242 26.1312
  653 -0.111987 -113.046 -17.1041
  654 510.342 -1.38497 1.54329
  655 510.161 -1.38365 -1.54166
  656 52.6907 15.5539 10.5520
  657 52.5790 15.5832 -10.5605
  658 397.944 -31.8094 -111.243
  659 404.700 -31.6232 112.358
  660 570.822 -4.21922 9.39525
  661 570.796 -4.18852 -9.71775
  662 2.56937 -140.910 12.6559
  663 -24.9227 0.312128 -1.61917
  664 -24.7923 0.312185 1.61686
  665 190.859 41.5889 -197.884
  666 182.049 2.25764 1.70187
  667 182.061 2.25679 -1.70076
  668 93.0780 5.08759 -0.217413
  669 93.0131 5.09128 0.217446
  670 109.308 10.0099 0.434497
  671 109.370 10.0001 -0.429957
  672 340.025 7.96445 -36.3207
  673 340.208 7.84203 36.4184
  674 93.9339 26.6697 -3.46892
  675 93.6442 26.8538 3.48986
  676 -56.5315 4.21060 -13.6841
  677 -56.3881 4.20093 13.6617
  678 -67.1180 4.67209 -15.8989
  679 -66.9763 4.66275 15.8706
  680 588.447 -9.23472 -0.183998
  681 1.50549 -21.9859 -38.7773
  682 588.970 -9.68289 -0.526502
  683 756.491 57.9256 -5.11072
  684 -73.2950 0.366722 12.6607
  685 -73.3685 0.366131 -12.6824
  686 81.8156 24.2752 -9.46167
  687 81.2371 24.5443 9.49694
  688 -135.205 -0.0487771 -1.10479
  689 -135.012 -0.0485866 1.10281
  690 2.04902 -19.5808 38.7387
  691 -45.2489 0.783866 27.2368
  692 -45.3232 0.780200 -27.2831
  693 647.614 -49.1865 -19.5199
  694 108.467 1.17042 -1.06456
  695 108.412 1.17092 1.06498
  696 29.2070 8.63163 7.53607
  697 29.0995 8.64429 -7.54414
  698 348.166 -14.3465 -93.6810
  699 350.584 -14.9174 95.3521
  700 1167.82 84.1703 95.9210
  701 24.6057 -93.4278 -45.2410
  702 -8.02059 -17.2243 38.9124
  703 -8.02524 -17.3015 -39.0127
  704 77.8544 15.0782 -4.60320
  705 77.9448 15.0557 4.60427
  706 524.678 -1.22258 -4.03370
  707 524.867 -1.22592 4.03422
  708 256.296 2.42288 3.39122
  709 256.265 2.42392 -3.38815
  710 24.4949 19.0911 25.9035
  711 24.3371 19.1463 -25.9650
  712 19.1977 3.81001 2.90228
  713 19.0915 3.81330 -2.90599
  714 -13.1705 4.31267 38.9047
  715 -13.2889 4.30339 -38.9980
  716 433.938 -1.62856 3.27529
  717 433.804 -1.62604 -3.27284
  718 377.810 1.60789 8.80777
  719 377.708 1.61390 -8.80276
  720 53.8573 -23.8159 52.8136
  721 55.2800 -26.1902 -51.2422
  722 -27.1490 6.65209 33.8987
  723 -27.2676 6.65682 -33.9714
  724 17.0926 -31.6572 16.0257
  725 3.75493 12.1534 34.8601
  726 3.56479 12.1784 -34.9230
  727 -78.9353 2.10695 -8.93817
  728 -78.7802 2.10280 8.92365
  729 71.0045 20.6735 9.03469
  730 70.8791 20.7209 -9.03584
  731 585.372 -17.1613 -27.7954
  732 553.915 -47.1068 -18.6406
  733 -8.70298 -17.8658 27.9978
  734 -8.69475 -17.9557 -27.9677
  735 220.556 5.69550 -142.015
  736 215.067 10.1308 143.122
  737 136.173 25.8818 -25.9819
  738 135.815 26.1295 26.2053
  739 12.7446 -18.2069 29.5717
  740 -0.752985 -59.5789 -15.8802
  741 278.315 13.7925 -34.8977
  742 278.422 13.7297 35.0552
  743 0.666322 -116.348 14.5077
  744 168.460 21.3934 -11.8303
  745 168.404 21.4212 11.8924
  746 552.212 -1.11144 -9.93289
  747 552.344 -1.17320 9.82881
  748 11.6032 -147.719 7.03374
  749 256.531 17.2997 26.8619
  750 256.479 17.3295 -26.7632
  751 72.2515 25.3264 -2.59024
  752 72.6237 25.0859 2.53971
  753 -99.2551 0.649217 -8.71152
  754 -99.1414 0.648533 8.69495
  755 282.427 2.92959 -6.43649
  756 282.473 2.92667 6.44197
  757 177.823 24.0694 -19.3520
  758 177.743 24.1197 19.4687
  759 4.85398 15.1309 26.3468
  760 4.70537 15.1711 -26.3968
  761 555.525 -40.4284 11.7552
  762 -81.0158 1.53474 6.72168
  763 -81.1753 1.53689 -6.73053
  764 1166.35 243.844 -173.093
  765 -26.9100 2.71001 6.69914
  766 -27.0422 2.71411 -6.70780
  767 470.526 0.0286283 18.5878
  768 470.360 0.0996754 -18.6167
  769 873.932 52.3692 -0.829410
  770 529.085 -2.06524 -7.50920
  771 529.266 -2.07681 7.50090
  772 343.569 3.15255 11.2432
  773 343.486 3.16257 -11.2356
  774 511.947 -51.4879 153.081
  775 226.933 14.5572 -11.3218
  776 226.947 14.5531 11.3513
  777 5.51493 -83.9165 15.6442
  778 586.075 -69.4411 54.7750
  779 356.913 -0.771759 1.88137
  780 356.824 -0.770471 -1.88013
  781 463.160 -0.856854 0.994163
  782 463.007 -0.855823 -0.993227
  783 -1.97758 -46.5106 -27.2906
  784 3.10297 -77.2938 25.1123
  785 216.094 22.9946 37.3046
  786 216.129 22.9640 -37.0573
  787 1150.80 9.89392 10.7044
  788 365.772 1.90202 -44.8264
  789 366.004 1.75597 44.9492
  790 -72.4859 2.40130 18.8692
  791 -72.6132 2.40721 -18.9034
  792 16.5947 -58.7112 1.53142
  793 10.5969 -136.549 -14.2911
  794 824.264 108.434 -22.6559
  795 -0.694762 -59.4558 14.3451
  796 19.4903 13.3048 30.4741
  797 19.4223 13.2925 -30.6530
  798 115.974 20.8578 -0.0644626
  799 115.888 20.8959 0.0856277
  800 550.168 -25.5211 -11.5363
  801 551.530 -25.1313 9.93479
  802 637.605 120.804 -255.225
  803 -83.0246 0.586867 -2.75059
  804 -82.8622 0.586234 2.74602
  805 -41.6671 -0.137545 10.6639
  806 -41.6840 -0.139559 -10.6774
  807 42.8378 6.31380 5.55171
  808 41.9536 6.27838 -5.66731
  809 420.032 -3.51204 40.1972
  810 419.736 -3.20157 -40.0786
  811 217.400 3.80900 -2.41273
  812 217.408 3.80920 2.41557
  813 673.957 -3.76535 50.3132
  814 76.8507 10.2399 -4.20939
  815 76.9338 10.2270 4.20853
  816 69.9512 12.4263 -16.5296
  817 69.3373 12.7215 16.6611
  818 0.207650 -44.7709 -35.8273
  819 935.757 164.901 148.238
  820 -133.426 0.0592328 -3.56665
  821 -133.242 0.0590930 3.56117
  822 -0.190402 -140.753 13.3359
  823 11.4024 -18.0567 -30.0288
  824 -20.8503 -1.24104 8.01079
  825 -20.8442 -1.24451 -8.01453
  826 757.961 53.0349 -28.9941
  827 203.507 18.2272 -14.3194
  828 203.496 18.2342 14.3787
  829 520.999 -8.61866 -20.3805
  830 521.520 -8.67721 20.1508
  831 -128.192 0.881925 4.88192
  832 -128.365 0.883283 -4.89011
  833 -0.965734 -0.996747 -0.839960
  834 -0.967694 -0.998498 0.843294
  835 0.373148 -143.822 -12.9040
  836 0.656865 -149.509 -11.0533
  837 -138.773 1.22622 0.630187
  838 -138.971 1.22658 -0.630990
  839 83.6094 -10.8818 -96.7421
  840 325.793 2.07626 -3.50810
  841 325.864 2.07528 3.51060
  842 -3.77231 1.74660 0.827323
  843 -3.89069 1.74712 -0.828154
  844 478.227 0.165653 -12.2358
  845 478.384 0.142314 12.2263
  846 -54.6505 0.371643 10.1045
  847 -54.6838 0.371619 -10.1188
  848 295.532 15.2307 -209.615
  849 504.149 -42.1497 45.4626
  850 393.830 0.193975 -4.07845
  851 393.940 0.191982 4.08119
  852 499.893 -45.7045 -50.3526
  853 161.084 15.8942 -6.00787
  854 161.044 15.9067 6.03486
  855 219.750 12.2903 -8.89207
  856 219.758 12.2886 8.91147
  857 584.775 -12.2170 21.3027
  858 39.6408 21.8097 20.3351
  859 39.4647 21.8876 -20.4125
  860 43.3221 1.42464 1.21574
  861 43.2302 1.42547 -1.21734
  862 278.644 1.62069 3.06286
  863 278.601 1.62146 -3.06052
  864 714.220 -55.0088 90.7894
  865 450.240 1.16465 -16.2230
  866 450.393 1.12153 16.2101
  867 12.5482 5.97083 5.90024
  868 12.4355 5.97849 -5.90752
  869 449.942 -1.64714 4.66813
  870 449.799 -1.64392 -4.66503
  871 -77.4061 0.0402397 -2.07478
  872 -77.2451 0.0408166 2.07321
  873 -0.367622 -45.6309 12.8418
  874 -0.491425 -46.3426 -12.9343
  875 550.219 -6.18397 52.8045
  876 -30.0315 8.46865 28.1330
  877 -30.1630 8.48717 -28.1898
  878 -0.168519 -74.8638 -14.0869
  879 219.513 6.10501 -4.74106
  880 219.521 6.10534 4.74664
  881 399.653 -19.6110 -71.8575
  882 402.570 -21.6678 72.5309
  883 -16.0398 -5.28787 -38.9951
  884 -15.9586 -5.28354 38.9011
  885 25.5555 18.8921 23.6111
  886 25.4008 18.9445 -23.6565
  887 1.85645 -167.316 8.62512
  888 8.53408 15.2876 31.4877
  889 8.36854 15.3238 -31.5514
  890 369.701 -6.81225 -64.0325
  891 368.854 -7.04578 64.5306
  892 637.536 39.2238 58.8191
  893 150.473 14.6690 3.84277
  894 150.516 14.6573 -3.82589
  895 461.011 1.52530 -12.0676
  896 461.160 1.50829 12.0651
  897 -17.5537 -7.43477 34.5457
  898 -17.5932 -7.46742 -34.6161
  899 1.70390 -170.367 -4.68140
  900 -27.0378 -1.52009 33.7264
  901 -27.1007 -1.52746 -33.7848
  902 22.2224 16.6354 -18.1831
  903 22.3577 16.5965 18.1546
  904 -1.41129 -11.6036 6.39348
  905 -1.42767 -11.5928 -6.40338
  906 44.2423 18.7699 -15.6112
  907 44.3814 18.7217 15.5904
  908 9.96533 -11.5275 34.0299
  909 8.79126 -10.7021 -36.0300
  910 451.642 -13.6660 41.2581
  911 450.617 -13.1013 -41.4141
  912 -142.083 0.269272 -0.926718
  913 -141.885 0.269324 0.925414
  914 -12.8858 -1.13516 6.05956
  915 -12.8754 -1.13734 -6.05852
  916 0.590272 -106.168 -12.7528
  917 -13.6015 -5.77461 -17.1421
  918 -13.5940 -5.75900 17.1406
  919 -55.3710 4.87872 24.2483
  920 -55.4921 4.88809 -24.2953
  921 145.597 26.5240 -12.6696
  922 145.465 26.6144 12.7577
  923 611.603 46.7548 -7.20891
  924 -2.96477 13.2944 23.9137
  925 -3.10575 13.3265 -23.9566
  926 227.341 15.0613 -68.4030
  927 227.302 15.2657 69.0650
  928 -22.2660 9.05994 19.1810
  929 -22.4019 9.08129 -19.2147
  930 719.386 -26.6338 -1.46894
  931 457.424 18.2592 25.6897
  932 534.822 -5.44259 -47.7359
  933 395.198 3.57035 -27.2203
  934 395.366 3.46909 27.2385
  935 -36.5231 5.09351 -8.90046
  936 -36.3860 5.08512 8.88667
  937 -90.7193 1.56497 11.8520
  938 -90.8658 1.56900 -11.8737
  939 -5.55764 -18.1333 -19.8624
  940 -5.51543 -18.1441 19.8949
  941 144.814 7.47318 2.33119
  942 144.851 7.46865 -2.32692
  943 -42.0743 4.72484 30.4173
  944 -42.1781 4.72648 -30.4773
  945 468.686 -1.27183 6.02939
  946 468.531 -1.26810 -6.02607
  947 -3.39249 -39.4860 29.7101
  948 22.2812 15.0560 -15.4112
  949 22.4085 15.0249 15.3895
  950 29.6009 9.99591 9.61018
  951 29.4894 10.0130 -9.62118
  952 87.0467 6.29018 -1.44079
  953 87.1165 6.28468 1.43994
  954 877.539 125.112 -38.9292
  955 -3.59780 -0.964454 -2.43898
  956 -3.60545 -0.964244 2.44328
  957 33.1129 10.7540 -18.6953
  958 33.6560 10.5206 18.5779
  959 321.366 11.0136 -29.3490
  960 321.490 10.9353 29.4196
  961 45.9757 12.7625 -8.82727
  962 46.0831 12.7410 8.81894
  963 89.3700 1.04432 125.764
  964 593.073 -4.61653 -5.61285
  965 592.444 -4.45009 5.11530
  966 110.219 1.39925 111.371
  967 116.824 3.34207 -0.991081
  968 116.774 3.34392 0.991534
  969 294.480 -2.60038 -181.671
  970 222.531 1.91790 1.61377
  971 222.521 1.91739 -1.61268
  972 29.6639 -23.8238 1.51410
  973 32.7720 -19.2411 0.948756
  974 523.368 -0.912264 2.05936
  975 523.178 -0.911146 -2.05740
  976 -42.7973 0.242878 24.9219
  977 -42.8531 0.239436 -24.9598
  978 941.086 119.561 61.1608
  979 -3.58879 -28.8346 -38.6801
  980 5.49270 -135.636 21.4964
  981 -0.386493 -46.1459 35.5093
  982 541.969 -0.943189 -7.66031
  983 542.142 -0.960084 7.64028
  984 -7.14073 -13.1250 17.2006
  985 -7.16209 -13.1287 -17.1864
  986 688.824 74.1680 -28.3239
  987 1165.78 8.88946 -7.11169
  988 -1.78260 -2.75570 -2.65449
  989 -1.78051 -2.76149 2.65832
  990 320.240 1.82867 -6.51263
  991 320.308 1.82579 6.51720
  992 -3.64007 -27.6367 38.8324
  993 442.576 0.505699 24.0232
  994 442.400 0.611368 -24.0371
  995 582.238 -37.3928 -18.4902
  996 -20.1397 -4.11549 19.3126
  997 -20.1510 -4.13199 -19.3256
  998 10.5904 -34.6356 25.6366
  999 -0.794853 -70.4032 27.8947
  1000 -0.0895845 -74.3173 14.0817
  1001 609.791 38.1548 -3.76248
  1002 689.203 75.9446 13.6938
  1003 490.190 -53.5839 -86.4296
  1004 7.58678 -66.3057 20.3633
  1005 9.47710 -94.2578 1.76193
  1006 140.876 1.76837 0.154563
  1007 140.840 1.76915 -0.154652
  1008 -5.40129 -6.16589 -8.28300
  1009 -5.39596 -6.16619 8.28878
  1010 5.20660 -54.5273 -28.3813
  1011 393.140 -1.04303 -1.49942
  1012 393.250 -1.04443 1.50052
  1013 82.6702 4.71813 -44.5703
  1014 79.1881 4.89953 44.1537
  1015 -4.42128 12.5418 32.1702
  1016 -4.57961 12.5740 -32.2434
  1017 -42.7861 6.91120 -19.8273
  1018 -42.6491 6.89595 19.7919
  1019 305.307 4.80899 -66.0180
  1020 305.420 5.10443 66.6828
  1021 221.539 19.0446 -47.6171
  1022 221.477 19.0587 48.0037
  1023 239.097 15.2817 -16.9311
  1024 239.122 15.2680 16.9771
  1025 612.767 -13.7515 -59.7674
  1026 -13.8627 7.93702 35.9256
  1027 -14.0027 7.94461 -36.0190
  1028 432.757 -1.88708 33.0811
  1029 432.507 -1.65501 -33.0557
  1030 -2.09457 -21.0859 40.2042
  1031 -34.5913 -1.07460 18.5468
  1032 -34.6157 -1.08075 -18.5699
  1033 395.121 2.00764 -33.0275
  1034 395.326 1.86271 33.0636
  1035 501.312 13.2958 -43.2481
  1036 -0.383242 -69.8451 -29.2330
  1037 -5.48539 -27.4150 35.1310
  1038 -5.72589 -27.7730 -34.8490
  1039 281.372 14.5477 -24.8207
  1040 281.448 14.5027 24.8942
  1041 351.551 4.62002 13.8435
  1042 351.459 4.63638 -13.8344
  1043 581.054 -36.5344 15.7860
  1044 34.8566 1.79219 -0.312671
  1045 34.9528 1.79147 0.312174
  1046 495.253 -59.8631 92.1169
  1047 3.35503 1.07306 1.84855
  1048 3.24054 1.07373 -1.85098
  1049 111.456 26.9037 -3.43222
  1050 111.292 27.0009 3.47444
  1051 44.6023 21.3187 17.2211
  1052 44.4505 21.3763 -17.2505
  1053 5.79528 -82.9669 -16.3452
  1054 147.976 3.80595 1.38717
  1055 148.009 3.80412 -1.38501
  1056 448.694 14.1000 10.6849
  1057 397.418 1.35537 12.6724
  1058 397.303 1.37197 -12.6680
  1059 -1.66267 -21.9914 -40.2799
  1060 596.214 -7.79056 -10.3793
  1061 1.47579 -0.674246 39.3013
  1062 1.94225 -0.371908 -39.0826
  1063 538.263 -1.33841 -4.25362
  1064 538.457 -1.34248 4.25195
  1065 574.292 -2.40981 -7.51726
  1066 574.303 -2.47758 7.35228
  1067 -0.429442 -112.422 10.5255
  1068 342.260 6.78117 -18.2316
  1069 342.352 6.75244 18.2465
  1070 413.737 2.17691 14.6205
  1071 413.610 2.19935 -14.6185
  1072 11.6735 10.8506 34.5790
  1073 11.6079 10.8481 -34.6368
  1074 894.425 57.1805 11.3262
  1075 -10.3835 -4.10404 41.2013
  1076 -10.5740 -4.00022 -41.3172
  1077 133.620 24.3299 -4.78837
  1078 133.532 24.3783 4.82960
  1079 -66.1902 0.836467 -3.11859
  1080 -66.0367 0.835903 3.11443
  1081 216.885 13.9695 -78.4829
  1082 216.547 14.5473 79.3143
  1083 65.0537 24.1069 12.1690
  1084 64.8897 24.1796 -12.1865
  1085 148.595 19.1718 -59.5394
  1086 147.836 19.8670 59.9638
  1087 -3.63881 -37.1160 -28.9775
  1088 517.631 8.39278 58.0776
  1089 357.446 12.5046 233.741
  1090 61.1879 25.1180 12.5023
  1091 60.9993 25.2116 -12.5364
  1092 218.927 9.59578 -6.96444
  1093 218.935 9.59392 6.97752
  1094 772.341 13.6052 6.06178
  1095 53.1533 14.9359 5.63996
  1096 52.5005 15.0820 -5.85568
  1097 -22.7315 -4.85250 25.5765
  1098 -22.7553 -4.87669 -25.6067
  1099 -0.743167 -17.2975 6.95911
  1100 -0.773575 -17.2882 -6.98763
  1101 508.921 -1.65974 19.1398
  1102 508.693 -1.48738 -19.2400
  1103 1.30950 -34.3702 37.5174
  1104 -33.6978 2.49564 -33.4482
  1105 -33.6123 2.50167 33.3879
  1106 0.159301 -134.915 -13.0719
  1107 -7.10336 -10.1933 41.1487
  1108 -7.07635 -9.95270 -41.1920
  1109 485.363 -0.450861 -8.06003
  1110 485.526 -0.458836 8.06067
  1111 502.977 -5.05477 23.2972
  1112 502.600 -4.77223 -23.3908
  1113 92.0179 21.8671 -23.1814
  1114 91.3282 22.2333 23.3251
  1115 -1.12274 -69.5313 -24.0537
  1116 659.553 -49.6347 -139.727
  1117 853.763 122.054 20.0312
  1118 9.55446 -98.8583 1.83561
  1119 33.8930 18.6840 -23.7502
  1120 34.0898 18.5901 23.5934
  1121 86.6954 26.9233 3.11303
  1122 86.4807 27.0466 -3.11123
  1123 179.041 8.68352 3.72354
  1124 179.058 8.68121 -3.71503
  1125 -10.7838 -15.3626 33.0110
  1126 -10.7706 -15.5171 -33.0698
  1127 -28.6267 9.79577 25.6717
  1128 -28.7620 9.81774 -25.7199
  1129 -8.28138 12.6729 29.6543
  1130 -8.42894 12.7035 -29.7163
  1131 482.817 -24.8476 -40.9882
  1132 485.769 -24.9749 40.7437
  1133 0.601115 -78.7742 -27.5488
  1134 262.434 1.37258 -96.9553
  1135 262.758 2.16208 98.4124
  1136 86.8329 23.9531 -4.78317
  1137 86.9582 23.8933 4.79137
  1138 255.529 152.221 259.894
  1139 69.0622 18.8931 8.72768
  1140 68.9485 18.9305 -8.73010
  1141 653.817 -65.9170 -39.5684
  1142 251.831 5.01212 5.40558
  1143 251.803 5.01437 -5.39940
  1144 -11.0313 -9.79503 20.3904
  1145 -11.0413 -9.82040 -20.3872
  1146 -13.0870 -11.6806 26.2608
  1147 -13.0903 -11.7295 -26.2685
  1148 434.013 -40.3825 -133.746
  1149 442.104 -44.7318 134.676
  1150 83.0174 1.70425 1.51160
  1151 83.0866 1.70333 -1.51119
  1152 275.748 12.2414 -54.3390
  1153 275.708 12.1049 54.8250
  1154 588.780 -73.2308 104.279
  1155 519.270 -1.55936 1.17716
  1156 519.083 -1.55809 -1.17594
  1157 -43.8043 7.28315 23.0031
  1158 -43.9387 7.29845 -23.0453
  1159 -76.5177 2.21941 -11.7656
  1160 -76.3661 2.21419 11.7477
  1161 139.306 15.4850 161.120
  1162 433.980 27.9356 -21.7728
  1163 252.262 16.3905 -27.9871
  1164 252.315 16.3623 28.1158
  1165 757.001 -7.08177 151.592
  1166 256.511 16.1078 -40.3416
  1167 256.570 16.0487 40.5637
  1168 68.3500 6.91270 -2.72831
  1169 68.4318 6.90574 2.72613
  1170 23.3032 -71.3945 19.6981
  1171 23.5135 -69.0669 -25.8674
  1172 345.641 -20.8251 -135.188
  1173 350.128 -19.2723 134.976
  1174 138.388 23.9944 -42.9722
  1175 137.802 24.4331 43.3178
  1176 601.369 -37.8663 -37.4637
  1177 -20.7820 -1.31118 37.8299
  1178 -20.8661 -1.31281 -37.9030
  1179 0.154255 -30.5835 -38.5878
  1180 158.087 9.81430 -103.215
  1181 158.405 10.1902 104.803
  1182 -0.379905 -30.5623 7.72806
  1183 -0.325439 -30.6384 -7.82577
  1184 -140.229 1.12918 -3.40537
  1185 -140.045 1.12829 3.39986
  1186 473.687 -1.20980 -2.35575
  1187 473.846 -1.21164 2.35785
  1188 298.182 9.04901 -16.2979
  1189 298.251 9.02386 16.3238
  1190 -9.37834 0.795042 40.9406
  1191 -9.40657 0.970735 -41.0223
  1192 -0.0122569 -121.142 -11.6462
  1193 -119.989 0.248903 5.71485
  1194 -120.139 0.249571 -5.72567
  1195 98.8803 4.87701 -74.3429
  1196 98.1955 5.48827 76.4952
  1197 557.373 -33.8247 -5.56195
  1198 164.444 14.2394 -92.9974
  1199 164.533 14.5773 93.7720
  1200 -67.5477 0.379402 9.14808
  1201 -67.5981 0.378851 -9.16239
  1202 1.92584 -102.897 -18.5137
  1203 -14.2683 3.50107 -3.87660
  1204 -14.1434 3.49786 3.87139
  1205 89.0851 19.7893 5.41533
  1206 88.9781 19.8296 -5.40771
  1207 315.641 -0.0990710 -2.04392
  1208 315.706 -0.0999590 2.04526
  1209 422.049 0.520740 9.62154
  1210 421.921 0.531053 -9.61834
  1211 25.2416 -0.275443 19.5057
  1212 24.8723 -0.691519 -19.9592
  1213 4.46949 -58.3528 28.5532
  1214 759.174 109.203 15.3709
  1215 -23.2917 -1.76585 14.6626
  1216 -23.2982 -1.77388 -14.6728
  1217 3.58370 -54.6730 -30.1621
  1218 -2.15924 -35.2015 21.3845
  1219 -2.05977 -34.8376 -22.1455
  1220 598.213 -6.66007 9.14867
  1221 0.506703 -138.199 11.8496
  1222 5.11483 -39.6535 -33.7000
  1223 77.4546 1.05369 0.555007
  1224 77.3825 1.05408 -0.555524
  1225 -5.46396 -24.2984 38.4000
  1226 -61.3695 3.39965 -9.68621
  1227 -61.2214 3.39429 9.67207
  1228 1187.89 19.7299 34.8452
  1229 -32.9772 4.30292 33.5733
  1230 -33.0782 4.30030 -33.6399
  1231 293.897 10.8299 -49.0658
  1232 294.096 10.6544 49.3273
  1233 20.3544 -24.2988 -11.2298
  1234 279.120 12.3992 -20.6472
  1235 279.185 12.3651 20.6988
  1236 12.2157 -78.0243 -0.859529
  1237 -5.49068 -24.3675 -38.3642
  1238 -40.5696 1.27658 5.43553
  1239 -40.7088 1.27859 -5.44246
  1240 -19.5848 2.17095 -38.4297
  1241 -19.4818 2.18023 38.3600
  1242 598.786 49.0142 40.9541
  1243 338.528 2.85879 -51.3362
  1244 338.875 2.79915 51.4601
  1245 -145.573 0.250036 -1.10444
  1246 -145.376 0.249951 1.10246
  1247 304.133 5.45277 -10.9654
  1248 304.193 5.44489 10.9751
  1249 -148.321 -2.72387 -0.428681
  1250 -148.525 -2.72574 0.428812
  1251 452.285 -31.7459 -58.8748
  1252 -69.5235 1.24451 19.0586
  1253 -69.6182 1.24462 -19.0936
  1254 456.594 -33.5212 58.3466
  1255 309.892 9.40491 -21.8767
  1256 309.976 9.36258 21.9120
  1257 37.5619 -61.4041 -73.4102
  1258 0.702647 -95.4195 -23.4819
  1259 -1.71857 -39.8862 35.9415
  1260 945.513 182.116 -151.523
  1261 -0.187644 -90.1076 23.2641
  1262 990.863 94.0892 -66.9784
  1263 -0.643392 -167.320 -10.7809
  1264 54.2038 3.76527 -0.470340
  1265 54.2903 3.76224 0.468868
  1266 -0.404114 -39.1979 8.09199
  1267 -0.321193 -39.4113 -8.07452
  1268 175.927 2.63100 0.711371
  1269 175.944 2.63008 -0.710599
  1270 607.251 -43.5597 35.2511
  1271 18.0144 3.71645 -4.48727
  1272 18.1221 3.71241 4.48220
  1273 3.50532 -178.530 3.66234
  1274 2.23487 -190.748 -3.67558
  1275 558.322 -66.0821 -64.5622
  1276 -1.46537 -50.1640 23.5072
  1277 593.893 40.6334 -53.2231
  1278 -1.73065 -66.0873 23.0342
  1279 1.22049 -178.440 -7.70340
  1280 284.597 6.17139 -12.3390
  1281 284.649 6.15588 12.3557
  1282 -0.235488 -99.1697 10.4044
  1283 -0.218082 -81.5589 -23.3209
  1284 1283.57 239.353 203.129
  1285 521.506 -0.0948683 0.875545
  1286 521.319 -0.0945494 -0.874834
  1287 15.9419 3.04355 30.8576
  1288 15.4706 3.61161 -31.0242
  1289 -6.04368 8.40491 37.8428
  1290 -6.25618 8.40720 -37.9561
  1291 566.588 -9.89032 -33.9142
  1292 521.769 -22.3188 -24.3492
  1293 521.353 -25.2760 24.7167
  1294 83.4939 7.92722 2.49924
  1295 83.4183 7.93567 -2.49973
  1296 -82.7805 2.18099 -14.4581
  1297 -82.6421 2.17612 14.4307
  1298 581.209 -74.5697 -89.9060
  1299 -4.30399 -10.5016 10.7785
  1300 -4.32144 -10.4959 -10.7748
  1301 615.274 -23.4124 56.4736
  1302 -6.22834 -23.8099 28.6527
  1303 -6.15723 -23.9013 -28.5226
  1304 -49.1811 3.12642 6.57651
  1305 -49.3245 3.13068 -6.58598
  1306 97.0180 14.1488 -40.7829
  1307 96.0657 14.6714 40.7331
  1308 150.704 2.51265 -0.155511
  1309 150.673 2.51373 0.155861
  1310 -56.5005 5.83439 22.9701
  1311 -56.6292 5.84559 -23.0122
  1312 490.613 0.451736 1.36035
  1313 490.444 0.451838 -1.35930
  1314 277.659 4.25923 179.740
  1315 403.813 -0.588745 3.42161
  1316 403.696 -0.587179 -3.41919
  1317 274.352 6.11307 -74.3863
  1318 274.342 5.81628 74.9696
  1319 2.78377 -102.039 -11.9719
  1320 108.949 26.2559 -19.6884
  1321 108.476 26.5509 19.8397
  1322 -1.07819 -0.925450 -1.38409
  1323 -1.08359 -0.925610 1.38808
  1324 349.169 8.75648 27.7889
  1325 349.036 8.84218 -27.7479
  1326 177.163 12.4818 6.03118
  1327 177.185 12.4770 -6.01385
  1328 257.780 12.4431 -14.5843
  1329 257.819 12.4269 14.6166
  1330 333.584 0.214641 -3.45766
  1331 333.659 0.213543 3.45997
  1332 -10.5370 -5.05601 -12.1512
  1333 -10.5334 -5.04885 12.1555
  1334 -95.6303 -0.148892 3.88301
  1335 -95.7987 -0.148520 -3.88891
  1336 -17.6351 -7.94584 -29.2570
  1337 -17.6156 -7.90299 29.2201
  1338 -51.1742 0.337504 1.56013
  1339 -51.3198 0.337252 -1.56199
  1340 -150.335 1.30722 0.619412
  1341 -150.539 1.30775 -0.620195
  1342 622.450 -70.7833 120.781
  1343 468.621 -1.95227 -47.8883
</Section>

newXOutput 75

<Section columns = "stress_xx | stress_yy | stress_xy">
  1 543.160 -1.06270 0.591315
  2 543.361 -1.06355 -0.591619
  3 -164.825 0.710073 -2.28141
  4 0.260988 0.0569139 0.468608
  5 968.206 313.128 327.864
  6 1095.36 351.268 -316.459
  7 0.259665 0.0557316 -0.466847
  8 -164.608 0.709938 2.28004
  9 541.608 -1.02178 -1.81007
  10 542.109 -1.87395 -2.89352
  11 547.173 -1.88587 -0.820044
  12 547.849 -1.87554 -3.47121
  13 549.471 -1.86590 -1.17039
  14 560.760 -1.71361 -1.58537
  15 564.867 -2.38421 -4.66622
  16 569.488 -1.27121 -3.25556
  17 572.641 -0.217569 -6.26981
  18 595.471 -3.59059 -5.36235
  19 605.749 -2.90244 -6.83035
  20 617.368 -4.18676 -3.00743
  21 623.435 -5.38498 -2.10017
  22 621.013 -6.03378 6.95701
  23 602.732 -6.57478 15.2097
  24 559.007 -6.89525 33.2802
  25 486.351 4.61901 38.9733
  26 427.762 5.89916 35.7929
  27 344.928 10.6483 21.6336
  28 365.310 10.3372 2.45414
  29 312.312 30.0468 -13.4929
  30 408.873 14.1518 -39.7048
  31 460.537 3.89900 -32.3148
  32 549.095 -1.23414 -28.0524
  33 596.979 -7.97141 -18.3799
  34 620.420 -7.01337 -6.88218
  35 622.531 -5.23448 2.15743
  36 616.777 -4.13791 2.86422
  37 605.585 -2.91786 6.65851
  38 595.496 -3.63039 5.26788
  39 572.793 -0.239450 6.22913
  40 569.679 -1.27946 3.24208
  41 565.076 -2.38987 4.66398
  42 560.973 -1.71671 1.58481
  43 549.678 -1.86820 1.17116
  44 548.055 -1.87752 3.47412
  45 547.378 -1.88744 0.821158
  46 542.309 -1.87538 2.89582
  47 541.808 -1.02264 1.81151
  48 513.464 0.801019 -0.705070
  49 476.800 -0.387943 -1.51784
  50 430.761 -2.72951 -1.45773
  51 382.796 -0.113994 -1.21218
  52 340.533 -0.619141 -0.952315
  53 295.102 0.807837 -1.11683
  54 250.053 3.19810 -0.622516
  55 203.071 2.72547 -1.39135
  56 163.959 1.55552 -1.98703
  57 112.433 0.596013 -2.09377
  58 59.9273 1.86544 -1.60687
  59 15.9950 1.58934 -1.55472
  60 -38.9659 0.793105 -1.39897
  61 -79.8420 -0.904857 -3.58543
  62 -119.467 -2.90215 -1.61953
  63 -159.756 0.259221 1.15957
  64 -168.604 2.88093 -0.342632
  65 -169.370 1.23313 0.611441
  66 -163.811 0.571686 -0.0809131
  67 -166.058 1.83144 -1.93900
  68 -163.651 2.24950 -1.92851e-05
  69 -154.997 0.649458 -3.02231
  70 -157.397 1.39560 -3.27878
  71 -153.733 1.31092 -1.75585
  72 -142.526 0.793123 -2.73596
  73 -137.757 1.50225 -4.65140
  74 -129.606 1.70372 -3.75985
  75 -114.966 0.860594 -6.72000
  76 -106.810 0.269352 -5.60739
  77 -91.8492 0.384986 -6.53078
  78 -79.0372 0.326554 -7.29488
  79 -67.7571 0.121657 -5.76049
  80 -51.9673 0.350618 -5.82077
  81 -38.3057 -0.122811 -6.25382
  82 -25.0745 -0.664935 -5.52978
  83 -14.5521 -0.586026 -4.25993
  84 -7.19770 -1.04474 -3.57697
  85 -1.27372 -0.605496 -1.29886
  86 0.0300488 -0.685174 -0.478465
  87 -0.367332 -0.400942 -0.115131
  88 -0.949690 -1.05308 -1.14107
  89 -0.924031 -6.10170 -3.11259
  90 -0.777106 -13.5840 -4.40288
  91 -0.393355 -23.0355 -6.39979
  92 -0.194192 -35.3143 -5.51167
  93 -0.138195 -46.5278 -6.92882
  94 -0.834190 -60.1088 -7.78649
  95 -0.343079 -76.9478 -7.82325
  96 0.156646 -93.8964 -7.46961
  97 0.363204 -112.008 -7.34931
  98 0.571957 -130.551 -7.19202
  99 -0.00651042 -143.896 -9.70425
  100 0.926632 -163.156 -8.65750
  101 1.16896 -185.611 -6.76401
  102 -0.181819 -194.792 -8.95661
  103 1.65593 -210.381 -8.18692
  104 4.20353 -230.965 -3.19779
  105 8.27099 -234.742 -5.10570
  106 6.19779 -208.756 8.64278
  107 9.67890 -147.301 29.7279
  108 43.3702 -62.8749 79.1065
  109 131.007 241.743 245.222
  110 1481.20 83.5805 150.055
  111 1276.81 23.5331 53.9494
  112 1235.78 7.87464 12.6538
  113 1226.63 1.87375 -1.95154
  114 1235.32 12.5862 -28.3879
  115 1276.17 43.1718 -64.5599
  116 1444.40 163.311 -191.032
  117 318.556 190.373 -298.151
  118 74.2050 -62.9967 -94.0638
  119 22.1233 -161.647 -36.6971
  120 6.28359 -197.115 -9.04881
  121 6.73495 -225.453 1.95776
  122 1.86662 -221.601 2.13020
  123 0.600251 -205.064 6.75719
  124 0.693829 -193.744 5.30523
  125 1.02389 -175.192 9.69076
  126 -0.0476135 -164.751 9.57014
  127 0.403603 -149.067 6.86011
  128 0.816372 -129.033 8.84900
  129 0.176013 -114.673 7.00483
  130 0.232200 -93.9562 8.86166
  131 -0.939245 -77.8921 7.63400
  132 -0.638104 -60.1541 7.53733
  133 -0.0907177 -46.2612 6.94394
  134 -0.256320 -35.1070 5.51862
  135 -0.382512 -22.9676 6.33613
  136 -0.765376 -13.5753 4.38076
  137 -0.919043 -6.11109 3.11043
  138 -0.948338 -1.06342 1.14340
  139 -0.367255 -0.405338 0.118104
  140 0.0246685 -0.685776 0.481107
  141 -1.28368 -0.605064 1.30211
  142 -7.21208 -1.04357 3.57994
  143 -14.5708 -0.584063 4.26055
  144 -25.0879 -0.662522 5.52696
  145 -38.3061 -0.120814 6.24667
  146 -51.9524 0.351014 5.81246
  147 -67.7210 0.122719 5.75168
  148 -78.9816 0.327883 7.28445
  149 -91.7669 0.385020 6.51953
  150 -106.703 0.269366 5.59653
  151 -114.841 0.860039 6.70893
  152 -129.456 1.70261 3.75091
  153 -137.593 1.50097 4.64373
  154 -142.347 0.792272 2.73073
  155 -153.541 1.30995 1.75221
  156 -157.198 1.39484 3.27482
  157 -154.795 0.649231 3.01892
  158 -163.440 2.24829 -0.00124950
  159 -165.844 1.83048 1.93704
  160 -163.596 0.571569 0.0803355
  161 -169.152 1.23259 -0.611384
  162 -168.385 2.87946 0.342202
  163 -159.542 0.259351 -1.15910
  164 -119.278 -2.89998 1.61845
  165 -79.6766 -0.903718 3.58328
  166 -38.8245 0.793208 1.39793
  167 16.1045 1.58883 1.55367
  168 60.0115 1.86458 1.60584
  169 112.487 0.595798 2.09249
  170 163.983 1.55480 1.98591
  171 203.073 2.72426 1.39062
  172 250.027 3.19673 0.622220
  173 295.050 0.807964 1.11624
  174 340.454 -0.618149 0.951800
  175 382.693 -0.113352 1.21151
  176 430.629 -2.72728 1.45701
  177 476.640 -0.387293 1.51701
  178 513.281 0.800818 0.704691
  179 150.358 24.7066 -9.71216
  180 150.255 24.7646 9.78096
  181 -0.816771 5.31790 38.9895
  182 -0.983003 5.26950 -39.0231
  183 335.456 -4.20629 -78.7653
  184 335.153 -4.81803 79.5335
  185 69.5790 18.0697 -8.28254
  186 68.7645 18.3313 8.28400
  187 53.6778 7.41196 -4.59054
  188 53.7719 7.40243 4.58608
  189 315.557 4.23789 -12.3039
  190 315.625 4.22484 12.3164
  191 -1.37992 12.3081 20.1257
  192 -1.51806 12.3372 -20.1601
  193 366.239 7.69420 -30.2009
  194 366.407 7.58908 30.2524
  195 -13.7415 -11.8457 32.2850
  196 -13.7419 -11.9197 -32.3330
  197 4.08529 -27.0792 -36.9366
  198 117.860 11.8009 -75.1476
  199 4.83576 -29.0585 35.9584
  200 116.032 12.6691 76.1846
  201 516.703 -65.1410 -113.254
  202 533.855 -67.6747 109.024
  203 190.053 4.56024 -2.89869
  204 190.043 4.56126 2.90238
  205 -23.5121 1.41425 -3.59779
  206 -23.3797 1.41309 3.59350
  207 -38.7460 6.40506 30.1479
  208 -38.8671 6.41548 -30.2100
  209 191.212 15.6209 -7.82369
  210 191.196 15.6278 7.84851
  211 60.7629 24.6522 11.2671
  212 60.5219 24.7941 -11.3396
  213 -48.0258 5.24308 -11.6394
  214 -47.8811 5.23398 11.6213
  215 414.775 -0.767633 5.63572
  216 414.653 -0.763815 -5.63219
  217 14.4668 -50.3995 12.9372
  218 15.7081 -45.1715 -10.8870
  219 -3.58226 -33.7357 36.1219
  220 -3.69449 -35.1419 -35.0209
  221 177.588 25.0502 -34.5160
  222 177.400 25.1801 34.7962
  223 -36.0894 0.120950 31.1255
  224 -36.1581 0.114158 -31.1775
  225 443.631 1.18347 -16.0753
  226 443.774 1.15326 16.0720
  227 479.081 -8.10808 -32.1547
  228 479.474 -8.55641 32.0805
  229 769.656 56.5617 1.20950
  230 706.483 81.0933 30.8015
  231 691.159 0.321969 -51.1105
  232 89.9781 18.0543 5.11846
  233 89.8807 18.0869 -5.11385
  234 9.19124 15.8565 28.9227
  235 9.02897 15.9019 -28.9819
  236 535.366 -32.2232 -23.9584
  237 532.341 -32.5901 25.7376
  238 298.546 0.847720 -4.67054
  239 298.600 0.845455 4.67425
  240 -62.6799 4.52907 19.7779
  241 -62.8171 4.53919 -19.8143
  242 -8.97058 -8.81127 -14.7397
  243 -8.96069 -8.80359 14.7464
  244 -67.3938 1.30289 5.62561
  245 -67.5497 1.30512 -5.63364
  246 248.129 16.6714 -21.6183
  247 248.162 16.6510 21.6897
  248 314.113 8.23788 -45.6693
  249 314.323 8.10911 45.8554
  250 80.6776 3.58840 0.407565
  251 80.7508 3.58601 -0.407992
  252 183.949 11.7917 -156.051
  253 216.607 16.1860 168.911
  254 26.7653 12.7335 26.6360
  255 26.6530 12.9786 -26.7771
  256 722.163 -46.6231 -24.4230
  257 68.0135 23.6550 9.85069
  258 67.8694 23.7175 -9.85832
  259 181.028 20.5177 -61.2631
  260 180.659 20.9755 61.8256
  261 811.242 119.445 4.90612
  262 481.051 -0.978902 21.7356
  263 480.848 -0.851002 -21.7773
  264 -4.25109 -26.6325 -22.9150
  265 -4.11523 -26.7340 23.0017
  266 -0.789014 -62.5316 -30.9480
  267 2.47730 -71.6662 -27.4949
  268 1.38674 -72.2955 29.2299
  269 -11.1844 -9.58181 40.9056
  270 -11.2394 -9.57406 -41.0867
  271 27.4855 -51.5405 -15.9683
  272 29.6396 -46.7808 20.6523
  273 -27.5368 -2.23284 20.0907
  274 -27.5573 -2.24385 -20.1126
  275 345.675 7.77052 -19.1289
  276 345.778 7.73202 19.1492
  277 600.629 -59.2272 -11.0147
  278 138.337 9.92129 1.55645
  279 138.382 9.91381 -1.55093
  280 -1.42819 -58.7749 29.6480
  281 17.7854 11.7055 12.1700
  282 17.6625 11.7278 -12.1868
  283 946.427 64.5055 -29.6014
  284 465.109 -0.791720 6.80643
  285 464.957 -0.785079 -6.80428
  286 319.366 -12.6294 -117.267
  287 321.951 -12.3970 118.883
  288 599.926 -56.2734 1.34823
  289 -55.4953 1.83864 24.4359
  290 -55.5819 1.83795 -24.4797
  291 584.597 -37.0122 188.802
  292 -23.5295 4.70496 36.6834
  293 -23.6365 4.69525 -36.7592
  294 104.200 28.4239 -12.4888
  295 103.790 28.6824 12.5789
  296 -97.6397 0.504943 0.914545
  297 -97.8157 0.504689 -0.915925
  298 493.965 23.3408 -254.603
  299 -93.8128 1.79919 -10.4488
  300 -93.6551 1.79511 10.4305
  301 -1.70823 -10.7924 41.0361
  302 -0.157233 -10.4095 -40.4928
  303 223.326 21.3368 -30.9516
  304 223.315 21.3471 31.1178
  305 53.4882 4.56755 3.47351
  306 53.3977 4.57207 -3.47705
  307 231.280 6.97484 -7.08538
  308 231.294 6.97317 7.09475
  309 23.2129 -12.6399 18.4853
  310 21.1798 -15.7802 -18.8439
  311 224.536 2.15746 -1.93697
  312 224.547 2.15776 1.93866
  313 -78.1691 2.05946 17.7221
  314 -78.2840 2.06229 -17.7557
  315 58.2574 -0.546803 -19.2094
  316 56.6065 -0.642753 17.6928
  317 483.673 -1.31606 1.91211
  318 483.509 -1.31456 -1.91027
  319 1046.86 58.5749 44.6730
  320 115.939 13.5057 0.640606
  321 115.874 13.5212 -0.633085
  322 -17.8300 4.71414 7.56312
  323 -17.9610 4.72177 -7.57427
  324 157.339 19.3798 -6.91328
  325 157.284 19.4026 6.95188
  326 20.8124 16.7595 29.7124
  327 20.6786 16.7909 -29.8093
  328 2.45342 -104.326 19.8522
  329 -101.753 -0.0878689 -2.22618
  330 -101.576 -0.0875396 2.22310
  331 372.947 -0.608421 -3.70408
  332 373.045 -0.610268 3.70663
  333 392.547 1.03803 -9.81558
  334 392.657 1.02734 9.82043
  335 -95.6712 1.43508 -7.37681
  336 -95.5033 1.43254 7.36592
  337 4.58429 1.05344 0.605272
  338 4.46805 1.05378 -0.606503
  339 -2.16611 -43.9880 22.7816
  340 -1.71200 -45.7581 -22.7483
  341 445.089 -35.4918 -79.9718
  342 461.651 -42.5133 78.6200
  343 266.495 10.9549 -13.5661
  344 266.536 10.9424 13.5892
  345 120.732 27.1702 -8.37325
  346 120.516 27.2984 8.44440
  347 -36.3195 7.48937 16.8570
  348 -36.4592 7.50546 -16.8864
  349 812.964 28.9659 34.3064
  350 45.9977 -51.4273 -55.9525
  351 49.1854 -46.5963 58.2064
  352 -14.0075 12.6378 27.6267
  353 -14.1509 12.6663 -27.6817
  354 -21.8400 -4.07746 36.4340
  355 -21.9041 -4.09111 -36.5068
  356 923.329 161.847 -55.9506
  357 603.940 -5.15120 67.5137
  358 556.580 -13.8298 -15.4422
  359 556.241 -13.5058 14.6532
  360 395.045 -5.49953 -51.1933
  361 394.563 -5.84446 51.2371
  362 0.782863 -125.708 -15.7522
  363 507.642 0.215244 -12.0734
  364 507.808 0.180327 12.0504
  365 6.96411 -116.709 11.0830
  366 604.579 47.9100 -33.5494
  367 150.290 3.35252 1.21587
  368 150.258 3.35425 -1.21653
  369 396.512 1.41286 -37.9701
  370 396.758 1.24790 38.0386
  371 424.567 1.83425 -22.7532
  372 424.722 1.76071 22.7502
  373 -1.93428 3.91671 4.79736
  374 -2.05582 3.92140 -4.80388
  375 249.339 13.7829 -61.8829
  376 249.359 13.9492 62.3736
  377 498.132 -1.09210 3.11566
  378 497.959 -1.08997 -3.11319
  379 289.656 14.0916 -31.7587
  380 289.751 14.0250 31.8691
  381 331.332 3.26057 8.25874
  382 331.257 3.26548 -8.25259
  383 -15.7081 -2.77659 12.5054
  384 -15.7093 -2.78443 -12.5073
  385 -3.77127 -2.67004 -3.71063
  386 -3.77278 -2.67104 3.71615
  387 667.009 -76.4153 56.1211
  388 -8.39836 -20.4544 33.5719
  389 -8.33761 -20.6406 -33.5828
  390 115.029 5.65883 -0.634122
  391 115.085 5.65454 0.634738
  392 -3.28794 -16.6859 12.5735
  393 -3.32662 -16.6618 -12.5766
  394 46.9633 18.4900 12.8409
  395 46.8354 18.5306 -12.8559
  396 544.922 -3.29273 16.1052
  397 544.686 -3.11150 -16.3262
  398 -0.775027 -30.8714 39.5322
  399 -44.5789 -0.730905 18.8888
  400 -44.6189 -0.735448 -18.9163
  401 -0.948045 -32.7007 -39.0940
  402 510.125 -0.707751 7.70716
  403 509.951 -0.697458 -7.71067
  404 -2.22416 12.0703 35.1512
  405 -2.40949 12.1020 -35.2372
  406 381.518 3.85280 -15.4545
  407 381.628 3.82911 15.4614
  408 584.465 -24.8082 -9.14579
  409 585.739 -20.2345 6.53873
  410 -1.09742 -59.7599 -24.8546
  411 56.1183 21.4222 -6.47974
  412 56.5721 21.2154 6.39833
  413 596.487 38.4308 20.5785
  414 336.059 -12.5466 -160.733
  415 344.496 -18.5844 167.790
  416 23.9010 17.9845 21.3447
  417 23.7529 18.0305 -21.3819
  418 248.029 4.77613 -4.85188
  419 248.053 4.77561 4.85670
  420 241.082 57.6568 253.772
  421 103.468 22.2955 -2.35170
  422 103.581 22.2447 2.36919
  423 6.78492 -53.6958 24.9566
  424 -0.708685 -96.7391 -21.2667
  425 42.9914 22.4768 19.0510
  426 42.8228 22.5436 -19.0968
  427 53.5938 11.9033 -7.25804
  428 53.6956 11.8850 7.25185
  429 -15.1719 -0.0733223 -40.5107
  430 -15.0660 -0.0967710 40.4314
  431 122.528 24.8189 -28.2025
  432 122.000 25.1638 28.4227
  433 590.991 -17.5608 -51.5648
  434 18.4736 -3.33342 28.9926
  435 17.9078 -3.22005 -29.2122
  436 430.862 -18.7510 -56.5207
  437 432.538 -19.9841 56.4825
  438 -103.971 0.755310 -10.4698
  439 -103.824 0.752714 10.4502
  440 -0.00607368 -95.4066 19.2479
  441 -0.649423 -60.7871 22.1655
  442 -41.9165 2.99384 31.2030
  443 -42.0068 2.99082 -31.2606
  444 308.964 0.689497 -1.78654
  445 309.024 0.688723 1.78792
  446 -9.02387 -14.2719 23.0509
  447 -9.04202 -14.3079 -23.0312
  448 197.007 13.1287 -89.2965
  449 196.577 13.9505 90.1768
  450 1.64517 -113.802 -20.4026
  451 1044.53 34.5928 0.320901
  452 3.13617 -131.651 -10.0263
  453 -120.599 -0.277408 -3.50589
  454 -120.414 -0.277367 3.50129
  455 -45.3964 6.81883 24.7154
  456 -45.5296 6.83315 -24.7642
  457 -55.8595 0.837251 18.8698
  458 -55.9187 0.836543 -18.8994
  459 214.395 20.2921 -21.8669
  460 214.384 20.3071 21.9672
  461 319.786 10.6730 -24.5267
  462 319.889 10.6158 24.5769
  463 -4.64017 -18.4561 41.0157
  464 -4.64760 -18.3339 -41.1922
  465 559.563 12.2557 -64.8383
  466 40.1396 -5.22811 -1.19657
  467 38.7311 -5.57497 1.92716
  468 9.36116 -114.963 -5.46667
  469 6.15937 -134.975 1.05380
  470 -16.4819 -7.27047 23.6937
  471 -16.4931 -7.29864 -23.7080
  472 121.039 7.49933 -136.555
  473 829.123 18.1836 -96.1145
  474 195.463 10.5077 7.27148
  475 195.473 10.5053 -7.25665
  476 282.467 4.04662 -85.0195
  477 283.001 3.96909 86.1728
  478 86.1069 28.3376 4.55868
  479 85.9306 28.4358 -4.55623
  480 255.433 18.0367 -46.1712
  481 255.498 17.9689 46.4651
  482 11.2410 6.52147 35.4008
  483 11.8060 6.80563 -35.3578
  484 -107.600 1.44217 -7.42488
  485 -107.430 1.44005 7.41286
  486 550.927 -62.0248 -48.1389
  487 434.853 -1.16443 -2.58007
  488 434.988 -1.16591 2.58208
  489 29.7725 2.00461 -1.69664
  490 29.8747 2.00296 1.69414
  491 -24.2717 9.95898 22.4876
  492 -24.4114 9.98189 -22.5289
  493 -58.0970 3.40043 -7.63951
  494 -57.9469 3.39530 7.62783
  495 195.650 16.9457 -10.9674
  496 195.634 16.9521 11.0057
  497 -20.1337 9.01887 32.5880
  498 -20.2714 9.03785 -32.6609
  499 503.908 -15.1060 -30.5796
  500 504.780 -15.7732 30.2761
  501 335.135 2.87087 -56.9165
  502 334.597 2.68124 57.3715
  503 128.718 4.12042 -0.210580
  504 128.764 4.11803 0.210659
  505 1.69672 -57.4609 -33.1205
  506 592.826 -20.0688 42.0579
  507 9.06102 -35.9880 -28.5917
  508 173.406 26.4913 23.1171
  509 173.537 26.4020 -22.9576
  510 544.973 -58.0221 47.6964
  511 44.2353 -38.1235 74.6860
  512 645.180 -74.7488 -92.0437
  513 441.947 0.203131 27.4731
  514 441.734 0.351808 -27.4737
  515 1.68960 -48.9017 34.4784
  516 -8.68862 -2.56195 -6.74474
  517 -8.69170 -2.56023 6.74897
  518 60.4340 1.59486 -0.347511
  519 60.5181 1.59406 0.346788
  520 -1.45972 -34.2278 14.7288
  521 -1.32428 -34.0726 -14.8086
  522 364.512 1.84514 6.35704
  523 364.420 1.84771 -6.35286
  524 1009.20 187.659 88.4167
  525 45.1106 -19.6505 -19.1360
  526 35.2936 -28.7469 11.7657
  527 -4.86684 7.12745 -10.2777
  528 -4.73927 7.11428 10.2626
  529 -87.3050 1.36688 11.2032
  530 -87.4017 1.36838 -11.2230
  531 0.926165 -107.158 20.6051
  532 -117.562 0.817265 0.796654
  533 -117.749 0.817290 -0.798155
  534 117.243 2.11298 -101.886
  535 114.794 3.79195 105.514
  536 107.824 21.2809 -38.3838
  537 107.028 21.7216 38.5698
  538 -23.1687 -4.62914 32.0747
  539 -23.2113 -4.65168 -32.1283
  540 107.258 7.69321 0.438674
  541 107.196 7.70004 -0.437317
  542 -45.8012 1.82506 2.88123
  543 -45.9461 1.82666 -2.88608
  544 125.163 16.2147 -0.614500
  545 125.094 16.2374 0.630087
  546 -2.37943 -7.86019 5.78124
  547 -2.38794 -7.85401 -5.78039
  548 46.9228 20.3294 16.0417
  549 46.6161 20.5910 -16.1645
  550 37.8951 8.47544 13.3866
  551 37.3807 8.43379 -13.7136
  552 445.060 1.62202 11.5103
  553 444.919 1.63444 -11.5082
  554 396.167 3.43495 18.6919
  555 396.041 3.47591 -18.6863
  556 -0.400735 -92.2420 -13.4421
  557 281.085 11.9968 -19.3272
  558 281.143 11.9716 19.3668
  559 281.130 4.43515 -7.67964
  560 281.175 4.43026 7.68783
  561 -30.7599 0.624264 0.234171
  562 -30.6234 0.624423 -0.234618
  563 496.764 25.4652 -12.4734
  564 619.906 -73.8062 -37.9687
  565 525.691 25.4107 48.3465
  566 4.65924 -75.1669 -23.0493
  567 -22.3313 8.19448 -14.1991
  568 -22.1953 8.17882 14.1769
  569 5.08523 -42.9885 31.8417
  570 -26.1538 1.20320 36.2267
  571 -26.2392 1.19632 -36.2912
  572 794.789 76.0937 7.15165
  573 185.988 6.55370 -3.86428
  574 185.974 6.55545 3.87010
  575 1170.86 101.553 -107.677
  576 -4.42866 -3.34075 41.6584
  577 -3.98690 -3.01626 -41.6765
  578 654.870 -53.3609 17.0772
  579 524.324 -0.478717 -13.3491
  580 524.494 -0.538889 13.2985
  581 248.956 3.82000 -122.335
  582 251.724 3.01802 124.038
  583 -12.9013 -12.3037 37.0031
  584 -12.9173 -12.3730 -37.1105
  585 132.917 15.3843 68.0598
  586 134.010 14.4671 -67.5949
  587 -101.384 1.13161 -10.3407
  588 -101.250 1.12971 10.3215
  589 771.178 74.8097 29.7859
  590 153.285 11.9961 3.01110
  591 153.324 11.9873 -3.00056
  592 180.151 22.6354 -47.4881
  593 179.877 22.8998 47.9089
  594 477.584 -2.44643 -26.6993
  595 477.860 -2.65914 26.6710
  596 -1.89880 -47.0994 -33.1311
  597 514.284 -1.26563 4.04598
  598 514.101 -1.26279 -4.04372
  599 -68.7225 0.983278 -0.950120
  600 -68.5641 0.983025 0.947936
  601 -126.299 -1.13837 -0.0591829
  602 -126.493 -1.13951 0.0588665
  603 12.0769 -66.6189 -7.95704
  604 -4.66959 -30.9015 28.7705
  605 -4.92518 -29.1911 -28.9603
  606 -57.0179 3.68608 25.8223
  607 -57.1241 3.69037 -25.8710
  608 365.982 6.98867 23.8260
  609 365.856 7.05147 -23.8034
  610 271.253 1.45021 1.76309
  611 271.215 1.45014 -1.76183
  612 64.1952 -9.27394 45.5668
  613 66.0770 -7.95473 -45.2045
  614 -1.82940 -23.9184 12.4832
  615 -1.88900 -23.8459 -12.5275
  616 615.405 63.2228 272.681
  617 -30.8069 -0.901736 11.5133
  618 -30.8131 -0.906329 -11.5245
  619 12.2056 -39.8553 -21.9549
  620 266.054 8.37235 -10.4728
  621 266.091 8.36536 10.4872
  622 133.920 27.5822 -18.6844
  623 133.643 27.7557 18.8339
  624 1.26321 -158.548 6.78426
  625 101.715 26.1342 1.17387
  626 101.578 26.2068 -1.15272
  627 -5.46968 10.4382 17.1442
  628 -5.60391 10.4605 -17.1716
  629 -0.732279 -80.9886 18.3249
  630 -127.612 -0.0368328 -3.54719
  631 -127.424 -0.0370322 3.54224
  632 177.754 2.74276 1.57929
  633 177.771 2.74193 -1.57757
  634 433.732 -0.248352 7.75753
  635 433.599 -0.242321 -7.75365
  636 387.334 -18.0242 208.824
  637 312.237 5.69613 -15.0407
  638 312.307 5.67617 15.0586
  639 6.65815 -4.50024 37.6600
  640 7.89597 -1.82422 -37.4781
  641 495.099 -41.7928 -170.121
  642 1134.72 38.0672 -44.6908
  643 -119.199 0.00994246 -7.02486
  644 -119.037 0.00881088 7.01272
  645 35.7123 5.47773 -4.16599
  646 35.8138 5.47125 4.16105
  647 -2.15663 -50.3515 29.4457
  648 672.817 44.7306 -56.0479
  649 508.244 -1.49495 0.743900
  650 508.065 -1.49364 -0.743014
  651 -32.4714 -1.61592 -26.4941
  652 -32.4291 -1.60648 26.4553
  653 -0.113846 -114.450 -17.3029
  654 516.782 -1.41986 1.56622
  655 516.597 -1.41850 -1.56453
  656 53.5675 15.7292 10.5860
  657 53.4535 15.7590 -10.5951
  658 403.278 -32.1385 -112.897
  659 410.108 -31.9482 114.024
  660 578.101 -4.29432 9.54156
  661 578.070 -4.26350 -9.86644
  662 2.60507 -142.598 12.7746
  663 -25.0099 0.290496 -1.61782
  664 -24.8766 0.290547 1.61542
  665 193.416 43.0078 -200.779
  666 184.604 2.22268 1.73601
  667 184.617 2.22174 -1.73488
  668 94.5078 5.10294 -0.266906
  669 94.4415 5.10680 0.266864
  670 110.940 10.0898 0.519375
  671 111.003 10.0796 -0.514942
  672 344.590 8.01325 -36.8981
  673 344.775 7.89041 36.9974
  674 95.3318 27.0416 -3.68365
  675 95.0376 27.2282 3.70396
  676 -57.1098 4.25384 -13.8072
  677 -56.9636 4.24401 13.7842
  678 -67.8583 4.72599 -16.0555
  679 -67.7137 4.71652 16.0266
  680 596.016 -9.36462 -0.128795
  681 1.55743 -22.2001 -39.2102
  682 596.532 -9.81898 -0.586517
  683 766.516 58.6476 -5.32401
  684 -74.2170 0.372239 12.8127
  685 -74.2919 0.371624 -12.8348
  686 83.0383 24.6622 -9.77431
  687 82.4515 24.9344 9.80909
  688 -136.749 -0.0552015 -1.10650
  689 -136.552 -0.0550027 1.10445
  690 2.11121 -19.7633 39.1670
  691 -45.7950 0.799466 27.5631
  692 -45.8707 0.795697 -27.6102
  693 656.007 -49.6390 -19.4561
  694 110.097 1.13296 -1.09260
  695 110.041 1.13352 1.09302
  696 29.7930 8.71141 7.55860
  697 29.6833 8.72438 -7.56705
  698 352.882 -14.4854 -95.0971
  699 355.326 -15.0623 96.7880
  700 1181.97 85.2440 97.2198
  701 24.9819 -94.0364 -46.0468
  702 -8.10263 -17.4140 39.3821
  703 -8.10689 -17.4923 -39.4840
  704 79.0697 15.2366 -4.56543
  705 79.1619 15.2134 4.56619
  706 531.302 -1.25487 -4.09156
  707 531.495 -1.25825 4.09223
  708 259.771 2.38494 3.46598
  709 259.740 2.38587 -3.46282
  710 24.9426 19.3587 26.1213
  711 24.7821 19.4146 -26.1842
  712 19.6759 3.82463 2.89780
  713 19.5673 3.82803 -2.90168
  714 -13.2772 4.39597 39.3427
  715 -13.3975 4.38626 -39.4375
  716 439.515 -1.69711 3.32822
  717 439.378 -1.69456 -3.32565
  718 382.747 1.56656 8.94792
  719 382.643 1.57253 -8.94263
  720 54.6744 -23.7945 53.7626
  721 56.1128 -26.2006 -52.1692
  722 -27.4239 6.74913 34.2791
  723 -27.5445 6.75379 -34.3532
  724 17.3678 -31.9123 16.0985
  725 3.89368 12.3450 35.2144
  726 3.70043 12.3701 -35.2788
  727 -79.7902 2.12374 -9.01177
  728 -79.6319 2.11953 8.99684
  729 72.1135 20.9218 9.02913
  730 71.9858 20.9701 -9.03082
  731 593.037 -17.3626 -28.0102
  732 561.149 -47.6770 -19.0561
  733 -8.80758 -18.0831 28.3514
  734 -8.79935 -18.1742 -28.3211
  735 223.631 6.01469 -144.159
  736 218.077 10.5012 145.274
  737 138.143 26.2521 -26.5137
  738 137.778 26.5030 26.7390
  739 12.9613 -18.3377 29.8434
  740 -0.761043 -60.3453 -16.0802
  741 282.121 13.9261 -35.4834
  742 282.228 13.8634 35.6428
  743 0.673474 -117.815 14.6825
  744 170.854 21.6290 -12.1146
  745 170.797 21.6577 12.1771
  746 559.223 -1.14708 -10.0726
  747 559.359 -1.20940 9.96815
  748 11.7784 -149.222 7.25635
  749 260.051 17.4701 27.3302
  750 259.999 17.4995 -27.2303
  751 73.3457 25.7056 -2.45369
  752 73.7234 25.4621 2.40155
  753 -100.490 0.657089 -8.81145
  754 -100.375 0.656403 8.79455
  755 286.222 2.89794 -6.55637
  756 286.269 2.89514 6.56203
  757 180.342 24.3544 -19.7542
  758 180.259 24.4059 19.8719
  759 5.04977 15.3300 26.5905
  760 4.89853 15.3707 -26.6418
  761 562.777 -40.9229 12.0759
  762 -81.8719 1.54159 6.77352
  763 -82.0348 1.54379 -6.78266
  764 1180.48 247.411 -175.607
  765 -27.0486 2.72087 6.73587
  766 -27.1835 2.72507 -6.74484
  767 476.596 -0.0186997 18.8611
  768 476.426 0.0528125 -18.8894
  769 885.186 52.9586 -0.886036
  770 535.781 -2.11193 -7.61303
  771 535.966 -2.12362 7.60493
  772 348.108 3.12652 11.4280
  773 348.023 3.13644 -11.4201
  774 518.629 -51.9197 155.306
  775 230.065 14.6823 -11.5603
  776 230.079 14.6786 11.5902
  777 5.60377 -84.8254 15.7488
  778 593.687 -70.1846 55.7297
  779 361.592 -0.845495 1.91076
  780 361.501 -0.844208 -1.90946
  781 469.065 -0.905715 1.00940
  782 468.909 -0.904648 -1.00843
  783 -1.99859 -47.0874 -27.6288
  784 3.15362 -78.1782 25.3683
  785 219.114 23.2780 37.9549
  786 219.151 23.2464 -37.7050
  787 1164.58 9.95947 10.8572
  788 370.669 1.88050 -45.5215
  789 370.903 1.73400 45.6465
  790 -73.3337 2.42953 19.0767
  791 -73.4634 2.43551 -19.1117
  792 16.8573 -59.2456 1.39898
  793 10.7598 -137.892 -14.6175
  794 834.962 109.905 -23.2765
  795 -0.702699 -60.2224 14.5262
  796 19.8420 13.5269 30.7506
  797 19.7728 13.5142 -30.9326
  798 117.684 21.0938 -0.185944
  799 117.596 21.1328 0.206979
  800 557.313 -25.8642 -11.7872
  801 558.703 -25.4657 10.1751
  802 645.519 123.332 -258.844
  803 -83.8883 0.580260 -2.75811
  804 -83.7225 0.579613 2.75338
  805 -42.2066 -0.138056 10.7984
  806 -42.2239 -0.140102 -10.8122
  807 43.4995 6.51507 5.45057
  808 42.6027 6.47969 -5.56869
  809 425.587 -3.60292 40.8151
  810 425.288 -3.28993 -40.6936
  811 220.397 3.79095 -2.48129
  812 220.405 3.79130 2.48420
  813 682.741 -3.56571 50.5614
  814 78.0598 10.3306 -4.18070
  815 78.1446 10.3173 4.17958
  816 70.9988 12.7180 -16.9516
  817 70.3766 13.0163 17.0840
  818 0.226936 -45.2809 -36.2394
  819 947.354 167.707 150.606
  820 -134.997 0.0568514 -3.59699
  821 -134.809 0.0567152 3.59135
  822 -0.192109 -142.489 13.4835
  823 11.6001 -18.1889 -30.3092
  824 -21.1258 -1.25610 8.11473
  825 -21.1196 -1.25963 -8.11855
  826 767.718 54.0559 -28.8846
  827 206.350 18.4117 -14.6233
  828 206.338 18.4194 14.6832
  829 527.734 -8.76736 -20.6980
  830 528.263 -8.82583 20.4674
  831 -129.726 0.889077 4.92905
  832 -129.902 0.890458 -4.93745
  833 -0.979322 -1.01064 -0.852490
  834 -0.981309 -1.01242 0.855873
  835 0.375927 -145.590 -13.0415
  836 0.665255 -151.278 -11.1454
  837 -140.337 1.23625 0.632214
  838 -140.539 1.23661 -0.633046
  839 84.8423 -10.5364 -98.3142
  840 330.105 2.03556 -3.57318
  841 330.178 2.03465 3.57580
  842 -3.58007 1.73745 0.830895
  843 -3.70095 1.73800 -0.831756
  844 484.355 0.126640 -12.4126
  845 484.515 0.103172 12.4035
  846 -55.3534 0.376509 10.2306
  847 -55.3874 0.376483 -10.2451
  848 299.521 15.8605 -212.653
  849 510.770 -42.6713 46.2152
  850 398.944 0.139592 -4.14549
  851 399.057 0.137604 4.14838
  852 506.470 -46.2645 -51.1729
  853 163.382 16.0477 -6.19144
  854 163.340 16.0609 6.21857
  855 222.787 12.3840 -9.08779
  856 222.795 12.3828 9.10747
  857 592.414 -12.3653 21.4706
  858 40.2931 22.1206 20.4643
  859 40.1142 22.1993 -20.5434
  860 44.1179 1.40219 1.20643
  861 44.0241 1.40307 -1.20810
  862 282.389 1.57215 3.12281
  863 282.345 1.57284 -3.12038
  864 723.276 -55.2977 92.3052
  865 456.061 1.12881 -16.4641
  866 456.217 1.08548 16.4517
  867 12.9249 6.01748 5.91490
  868 12.8097 6.02534 -5.92249
  869 455.709 -1.71005 4.74046
  870 455.562 -1.70679 -4.73719
  871 -78.1690 0.0240432 -2.09542
  872 -78.0046 0.0246377 2.09381
  873 -0.371272 -46.2239 13.0060
  874 -0.496639 -46.9447 -13.0994
  875 557.643 -6.20949 53.2933
  876 -30.3170 8.58245 28.4300
  877 -30.4509 8.60117 -28.4880
  878 -0.170078 -75.8248 -14.2631
  879 222.538 6.11649 -4.85033
  880 222.547 6.11702 4.85603
  881 405.003 -19.8539 -72.9571
  882 407.953 -21.9356 73.6396
  883 -16.2136 -5.33142 -39.4626
  884 -16.1312 -5.32687 39.3670
  885 26.0304 19.1438 23.8029
  886 25.8730 19.1969 -23.8495
  887 1.87964 -169.319 8.69427
  888 8.75414 15.5106 31.7930
  889 8.58583 15.5471 -31.8581
  890 374.673 -6.91168 -65.0177
  891 373.814 -7.14615 65.5230
  892 646.057 39.8998 59.1925
  893 152.633 14.8053 3.98784
  894 152.677 14.7931 -3.97090
  895 466.932 1.49799 -12.2443
  896 467.084 1.48093 12.2422
  897 -17.7598 -7.51352 34.9711
  898 -17.7999 -7.54664 -35.0427
  899 1.73047 -172.326 -4.67454
  900 -27.3568 -1.52664 34.1359
  901 -27.4208 -1.53417 -34.1953
  902 22.6746 16.8415 -18.3158
  903 22.8124 16.8021 18.2863
  904 -1.42910 -11.7597 6.47827
  905 -1.44570 -11.7488 -6.48831
  906 44.9870 19.0034 -15.6971
  907 45.1285 18.9544 15.6754
  908 10.1502 -11.5917 34.3698
  909 8.95837 -10.7604 -36.4003
  910 457.594 -13.8755 41.9021
  911 456.557 -13.3052 -42.0579
  912 -143.704 0.267351 -0.929733
  913 -143.502 0.267408 0.928382
  914 -13.0589 -1.14933 6.13959
  915 -13.0484 -1.15155 -6.13856
  916 0.597242 -107.520 -12.9084
  917 -13.7743 -5.84547 -17.3641
  918 -13.7666 -5.82963 17.3626
  919 -56.0007 4.94209 24.5152
  920 -56.1241 4.95155 -24.5631
  921 147.692 26.8534 -12.9903
  922 147.558 26.9454 13.0789
  923 620.080 47.3549 -7.16926
  924 -2.86255 13.4628 24.1335
  925 -3.00610 13.4954 -24.1775
  926 230.518 15.2963 -69.5014
  927 230.476 15.5032 70.1705
  928 -22.4040 9.16683 19.3535
  929 -22.5425 9.18852 -19.3882
  930 728.598 -26.6409 -1.08771
  931 464.149 18.5327 25.8612
  932 542.108 -5.46601 -48.1769
  933 400.404 3.55500 -27.6386
  934 400.575 3.45327 27.6578
  935 -36.8070 5.14114 -8.95820
  936 -36.6671 5.13258 8.94397
  937 -91.7785 1.58059 11.9721
  938 -91.9279 1.58467 -11.9943
  939 -5.62591 -18.3630 -20.1184
  940 -5.58304 -18.3738 20.1511
  941 146.903 7.51255 2.42292
  942 146.940 7.50775 -2.41866
  943 -42.5524 4.79270 30.7661
  944 -42.6581 4.79428 -30.8273
  945 474.669 -1.32604 6.11934
  946 474.511 -1.32228 -6.11581
  947 -3.42996 -39.9725 30.0789
  948 22.7457 15.2344 -15.5145
  949 22.8754 15.2028 15.4920
  950 30.1850 10.0966 9.65169
  951 30.0712 10.1140 -9.66317
  952 88.3970 6.32433 -1.40292
  953 88.4683 6.31861 1.40194
  954 888.614 127.247 -40.0011
  955 -3.64835 -0.976980 -2.47283
  956 -3.65610 -0.976762 2.47719
  957 33.6443 10.9763 -18.7906
  958 34.1953 10.7405 18.6709
  959 325.688 11.0937 -29.8264
  960 325.814 11.0153 29.8982
  961 46.7712 12.8978 -8.84957
  962 46.8808 12.8758 8.84077
  963 90.6290 1.89852 127.698
  964 600.626 -4.68935 -5.71233
  965 599.998 -4.52054 5.21047
  966 111.818 1.87789 113.150
  967 118.559 3.33057 -1.03014
  968 118.508 3.33252 1.03057
  969 298.500 -2.35865 -184.323
  970 225.589 1.87472 1.64330
  971 225.578 1.87413 -1.64218
  972 30.1259 -23.9500 1.35922
  973 33.2819 -19.3084 1.14168
  974 529.957 -0.937055 2.08941
  975 529.763 -0.935912 -2.08737
  976 -43.3257 0.250001 25.2276
  977 -43.3825 0.246482 -25.2661
  978 953.020 121.147 62.2283
  979 -3.61689 -29.1604 -39.1408
  980 5.59663 -136.835 21.9497
  981 -0.378870 -46.6822 35.9252
  982 548.824 -0.975220 -7.76612
  983 549.002 -0.992276 7.74624
  984 -7.22990 -13.2912 17.4239
  985 -7.25159 -13.2950 -17.4097
  986 698.013 75.2531 -28.3211
  987 1179.68 8.94903 -7.20954
  988 -1.80585 -2.79452 -2.69134
  989 -1.80373 -2.80038 2.69521
  990 324.490 1.78423 -6.62463
  991 324.560 1.78143 6.62938
  992 -3.66669 -27.9459 39.2931
  993 448.335 0.457072 24.3826
  994 448.156 0.563405 -24.3956
  995 589.846 -37.8323 -18.5383
  996 -20.3952 -4.16387 19.5598
  997 -20.4067 -4.18060 -19.5731
  998 10.7696 -34.9577 25.8612
  999 -0.799226 -71.2555 28.2223
  1000 -0.0909446 -75.2731 14.2585
  1001 618.262 38.6256 -3.82290
  1002 698.459 76.9832 13.5727
  1003 496.654 -54.1843 -87.7563
  1004 7.70984 -67.0106 20.5267
  1005 9.62584 -95.2127 1.65301
  1006 142.915 1.73260 0.146855
  1007 142.879 1.73345 -0.146952
  1008 -5.47114 -6.24599 -8.39357
  1009 -5.46571 -6.24625 8.39940
  1010 5.29677 -55.1090 -28.6606
  1011 398.242 -1.11319 -1.52415
  1012 398.354 -1.11461 1.52530
  1013 83.8945 4.97527 -45.3942
  1014 80.3644 5.15907 44.9707
  1015 -4.37417 12.7216 32.4982
  1016 -4.53518 12.7541 -32.5731
  1017 -43.2073 6.99402 -20.0214
  1018 -43.0676 6.97855 19.9852
  1019 309.478 4.86938 -67.0476
  1020 309.589 5.17009 67.7206
  1021 224.634 19.2905 -48.4159
  1022 224.570 19.3053 48.8066
  1023 242.386 15.4169 -17.2501
  1024 242.410 15.4037 17.2967
  1025 620.884 -13.8065 -60.2342
  1026 -13.9600 8.05831 36.3181
  1027 -14.1024 8.06579 -36.4133
  1028 438.445 -1.96365 33.5844
  1029 438.191 -1.72979 -33.5574
  1030 -2.09304 -21.3007 40.6677
  1031 -35.0314 -1.08512 18.7805
  1032 -35.0563 -1.09136 -18.8040
  1033 400.345 1.97462 -33.5354
  1034 400.552 1.82896 33.5729
  1035 508.424 13.5358 -43.5992
  1036 -0.380129 -70.6834 -29.5745
  1037 -5.54443 -27.7405 35.5629
  1038 -5.78797 -28.1040 -35.2779
  1039 285.199 14.6753 -25.2476
  1040 285.275 14.6307 25.3222
  1041 356.193 4.61383 14.0681
  1042 356.100 4.63009 -14.0585
  1043 588.648 -36.9642 15.8133
  1044 35.5455 1.77549 -0.308910
  1045 35.6437 1.77473 0.308390
  1046 501.766 -60.5305 93.5267
  1047 3.63437 1.05381 1.84639
  1048 3.51747 1.05452 -1.84892
  1049 113.097 27.2463 -3.63008
  1050 112.930 27.3450 3.67214
  1051 45.3436 21.5951 17.3206
  1052 45.1892 21.6536 -17.3509
  1053 5.88687 -83.8658 -16.4570
  1054 150.104 3.79662 1.45330
  1055 150.138 3.79462 -1.45115
  1056 455.412 14.2899 10.7613
  1057 402.600 1.31238 12.8701
  1058 402.482 1.32897 -12.8653
  1059 -1.65455 -22.2195 -40.7443
  1060 603.927 -7.89714 -10.4436
  1061 1.55377 -0.630102 39.7272
  1062 2.02718 -0.325407 -39.5043
  1063 545.048 -1.36829 -4.31322
  1064 545.246 -1.37240 4.31169
  1065 581.566 -2.45590 -7.62443
  1066 581.581 -2.52430 7.45845
  1067 -0.434537 -113.861 10.6546
  1068 346.800 6.80016 -18.5239
  1069 346.893 6.77152 18.5393
  1070 419.117 2.14779 14.8429
  1071 418.988 2.17025 -14.8404
  1072 11.9162 11.0342 34.9217
  1073 11.8493 11.0315 -34.9808
  1074 905.869 57.8284 11.5495
  1075 -10.4758 -4.12279 41.6816
  1076 -10.6694 -4.01765 -41.7993
  1077 135.560 24.6142 -4.98301
  1078 135.470 24.6638 5.02432
  1079 -66.8248 0.828308 -3.13167
  1080 -66.6681 0.827728 3.12736
  1081 219.927 14.2237 -79.7318
  1082 219.582 14.8083 80.5720
  1083 66.0697 24.4210 12.1898
  1084 65.9029 24.4948 -12.2082
  1085 150.730 19.5236 -60.5501
  1086 149.960 20.2271 60.9784
  1087 -3.67966 -37.5747 -29.3383
  1088 524.797 8.56442 58.6086
  1089 362.185 13.1166 237.069
  1090 62.1436 25.4592 12.5206
  1091 61.9519 25.5540 -12.5559
  1092 221.951 9.65296 -7.12492
  1093 221.960 9.65142 7.13821
  1094 782.192 14.2060 5.65506
  1095 53.9704 15.2191 5.53877
  1096 53.3084 15.3666 -5.75824
  1097 -23.0137 -4.90725 25.8986
  1098 -23.0379 -4.93178 -25.9294
  1099 -0.752267 -17.5291 7.05051
  1100 -0.783094 -17.5196 -7.07943
  1101 515.464 -1.72301 19.4179
  1102 515.231 -1.54911 -19.5180
  1103 1.34847 -34.7420 37.9420
  1104 -34.0857 2.53886 -33.8427
  1105 -33.9987 2.54507 33.7812
  1106 0.160866 -136.595 -13.2186
  1107 -7.15955 -10.2830 41.6287
  1108 -7.13188 -10.0390 -41.6725
  1109 491.549 -0.492888 -8.17724
  1110 491.715 -0.500909 8.17815
  1111 509.483 -5.16394 23.6471
  1112 509.100 -4.87869 -23.7402
  1113 93.3794 22.2441 -23.6918
  1114 92.6801 22.6143 23.8365
  1115 -1.13421 -70.3991 -24.3479
  1116 667.974 -49.8081 -141.837
  1117 864.620 124.072 20.8302
  1118 9.70743 -99.8376 2.00315
  1119 34.4525 18.9699 -23.9243
  1120 34.6524 18.8751 23.7647
  1121 87.9987 27.2851 2.99688
  1122 87.7805 27.4101 -2.99587
  1123 181.563 8.73355 3.84106
  1124 181.580 8.73092 -3.83247
  1125 -10.9100 -15.5426 33.4226
  1126 -10.8967 -15.6993 -33.4823
  1127 -28.8795 9.92091 25.9328
  1128 -29.0173 9.94317 -25.9822
  1129 -8.27528 12.8452 29.9520
  1130 -8.42541 12.8762 -30.0155
  1131 489.167 -25.1805 -41.6469
  1132 492.152 -25.3066 41.4019
  1133 0.615426 -79.7115 -27.8607
  1134 266.068 1.46792 -98.4443
  1135 266.393 2.26692 99.9177
  1136 88.1513 24.2481 -4.71323
  1137 88.2789 24.1873 4.72097
  1138 258.764 155.441 263.523
  1139 70.1518 19.1126 8.72663
  1140 70.0359 19.1507 -8.72956
  1141 662.227 -66.5305 -40.3799
  1142 255.255 5.00759 5.52278
  1143 255.227 5.00967 -5.51643
  1144 -11.1691 -9.91579 20.6529
  1145 -11.1793 -9.94155 -20.6498
  1146 -13.2472 -11.8213 26.5940
  1147 -13.2506 -11.8709 -26.6020
  1148 439.783 -40.7666 -135.707
  1149 447.956 -45.1697 136.649
  1150 84.3221 1.67759 1.55408
  1151 84.3928 1.67660 -1.55369
  1152 279.541 12.3887 -55.2134
  1153 279.499 12.2513 55.7050
  1154 596.401 -73.9534 105.880
  1155 525.803 -1.59353 1.19359
  1156 525.613 -1.59223 -1.19233
  1157 -44.2541 7.37372 23.2404
  1158 -44.3911 7.38923 -23.2836
  1159 -77.3549 2.23766 -11.8747
  1160 -77.2002 2.23235 11.8563
  1161 141.299 16.2209 163.565
  1162 440.491 28.3137 -21.9311
  1163 255.735 16.5551 -28.4816
  1164 255.787 16.5275 28.6118
  1165 766.494 -6.54971 153.917
  1166 260.047 16.2840 -41.0155
  1167 260.106 16.2252 41.2401
  1168 69.4562 6.95780 -2.70065
  1169 69.5396 6.95060 2.69829
  1170 23.6656 -71.9562 20.1546
  1171 23.8766 -69.5889 -26.4150
  1172 350.324 -20.9742 -137.178
  1173 354.862 -19.4014 136.958
  1174 140.385 24.3866 -43.7514
  1175 139.792 24.8304 44.1003
  1176 609.256 -38.2680 -37.6989
  1177 -21.0105 -1.30806 38.2802
  1178 -21.0959 -1.30978 -38.3546
  1179 0.177973 -30.9093 -39.0263
  1180 160.346 10.1609 -104.845
  1181 160.667 10.5383 106.451
  1182 -0.384620 -30.9670 7.82829
  1183 -0.329519 -31.0441 -7.92737
  1184 -141.908 1.14108 -3.43636
  1185 -141.720 1.14018 3.43071
  1186 479.716 -1.26064 -2.39430
  1187 479.878 -1.26252 2.39650
  1188 302.196 9.09825 -16.5840
  1189 302.266 9.07332 16.6106
  1190 -9.44619 0.839574 41.4074
  1191 -9.47450 1.01777 -41.4901
  1192 -0.0142440 -122.679 -11.7862
  1193 -121.460 0.250734 5.77592
  1194 -121.612 0.251408 -5.78698
  1195 100.332 5.21432 -75.5901
  1196 99.6396 5.83450 77.7713
  1197 564.637 -34.2530 -5.77438
  1198 166.792 14.5874 -94.4755
  1199 166.881 14.9259 95.2573
  1200 -68.4119 0.384874 9.26067
  1201 -68.4633 0.384309 -9.27522
  1202 1.95680 -104.087 -18.6899
  1203 -14.2300 3.51846 -3.88464
  1204 -14.1025 3.51515 3.87922
  1205 90.4392 20.0164 5.36603
  1206 90.3301 20.0576 -5.35878
  1207 319.830 -0.168051 -2.07604
  1208 319.896 -0.168912 2.07743
  1209 427.511 0.473183 9.77094
  1210 427.380 0.483501 -9.76741
  1211 25.6499 -0.171048 19.6146
  1212 25.2751 -0.593182 -20.0750
  1213 4.54866 -58.9962 28.8429
  1214 769.091 110.834 15.1074
  1215 -23.5921 -1.78634 14.8509
  1216 -23.5989 -1.79448 -14.8614
  1217 3.64898 -55.2769 -30.4800
  1218 -2.18447 -35.6489 21.6562
  1219 -2.08420 -35.2787 -22.4264
  1220 605.931 -6.75041 9.20255
  1221 0.512394 -139.937 11.9890
  1222 5.20982 -40.0716 -34.0578
  1223 78.6902 1.01982 0.554523
  1224 78.6166 1.02025 -0.555061
  1225 -5.51745 -24.5747 38.8628
  1226 -61.9866 3.43056 -9.76401
  1227 -61.8354 3.42510 9.74945
  1228 1202.06 19.9366 35.3018
  1229 -33.3422 4.36926 33.9601
  1230 -33.4449 4.36649 -34.0280
  1231 297.912 10.9411 -49.8530
  1232 298.112 10.7646 50.1177
  1233 20.6804 -24.4547 -11.2208
  1234 282.912 12.4954 -21.0103
  1235 282.977 12.4616 21.0627
  1236 12.4091 -78.7793 -0.722339
  1237 -5.54476 -24.6452 -38.8276
  1238 -40.8798 1.27069 5.46453
  1239 -41.0219 1.27276 -5.47170
  1240 -19.7867 2.22184 -38.8767
  1241 -19.6819 2.23138 38.8058
  1242 606.997 49.7307 41.1782
  1243 343.098 2.85902 -52.1363
  1244 343.448 2.80009 52.2619
  1245 -147.267 0.249536 -1.10818
  1246 -147.065 0.249452 1.10613
  1247 308.199 5.45328 -11.1548
  1248 308.260 5.44556 11.1648
  1249 -150.002 -2.76205 -0.434937
  1250 -150.210 -2.76396 0.435069
  1251 458.280 -32.1483 -59.7950
  1252 -70.3735 1.26225 19.2815
  1253 -70.4699 1.26233 -19.3171
  1254 462.637 -33.9470 59.2585
  1255 314.055 9.45866 -22.2398
  1256 314.140 9.41647 22.2759
  1257 38.1121 -61.3525 -74.6279
  1258 0.714061 -96.5618 -23.7422
  1259 -1.72843 -40.3548 36.3721
  1260 957.151 185.293 -154.044
  1261 -0.188166 -91.2108 23.5356
  1262 1003.29 95.2968 -68.0627
  1263 -0.655359 -169.381 -10.8944
  1264 55.1351 3.77170 -0.434592
  1265 55.2234 3.76855 0.433013
  1266 -0.408583 -39.7150 8.19665
  1267 -0.324556 -39.9314 -8.17913
  1268 178.407 2.60123 0.744149
  1269 178.424 2.60021 -0.743368
  1270 615.186 -44.0271 35.4569
  1271 18.4719 3.73142 -4.49643
  1272 18.5819 3.72726 4.49114
  1273 3.55182 -180.536 3.63929
  1274 2.26510 -192.916 -3.65519
  1275 565.609 -66.8094 -65.6207
  1276 -1.48163 -50.7949 23.8008
  1277 602.002 41.2865 -53.5834
  1278 -1.75266 -66.9175 23.3191
  1279 1.23897 -180.576 -7.76075
  1280 288.435 6.18091 -12.5646
  1281 288.487 6.16560 12.5817
  1282 -0.239507 -100.442 10.5329
  1283 -0.219356 -82.5747 -23.6036
  1284 1298.86 242.778 205.870
  1285 528.062 -0.111018 0.886729
  1286 527.870 -0.110680 -0.886000
  1287 16.2235 3.15801 31.1406
  1288 15.7450 3.73362 -31.3097
  1289 -6.04404 8.54241 38.2514
  1290 -6.25993 8.54432 -38.3670
  1291 574.109 -9.99688 -34.2264
  1292 528.573 -22.6253 -24.7704
  1293 528.156 -25.6190 25.1482
  1294 84.7939 7.98345 2.45824
  1295 84.7167 7.99221 -2.45892
  1296 -83.7485 2.20537 -14.6097
  1297 -83.6074 2.20043 14.5817
  1298 588.757 -75.3244 -91.3233
  1299 -4.35837 -10.6380 10.9209
  1300 -4.37606 -10.6322 -10.9171
  1301 623.356 -23.6039 56.9179
  1302 -6.30136 -24.1027 29.0138
  1303 -6.22929 -24.1953 -28.8821
  1304 -49.6160 3.14779 6.61562
  1305 -49.7624 3.15214 -6.62541
  1306 98.4454 14.4765 -41.5484
  1307 97.4805 15.0056 41.4969
  1308 152.867 2.48488 -0.185910
  1309 152.836 2.48607 0.186247
  1310 -57.1306 5.90675 23.2175
  1311 -57.2618 5.91809 -23.2605
  1312 496.827 0.428915 1.37772
  1313 496.654 0.429038 -1.37665
  1314 281.446 4.57054 182.358
  1315 409.040 -0.651346 3.47548
  1316 408.921 -0.649768 -3.47295
  1317 278.131 6.21004 -75.5448
  1318 278.119 5.90981 76.1345
  1319 2.82875 -103.155 -12.0298
  1320 110.549 26.6507 -20.1401
  1321 110.069 26.9493 20.2923
  1322 -1.09470 -0.937622 -1.40402
  1323 -1.10017 -0.937780 1.40806
  1324 353.822 8.80415 28.2294
  1325 353.688 8.89002 -28.1873
  1326 179.663 12.5836 6.19567
  1327 179.686 12.5782 -6.17819
  1328 261.299 12.5378 -14.8603
  1329 261.338 12.5220 14.8931
  1330 337.987 0.151121 -3.51297
  1331 338.064 0.150047 3.51537
  1332 -10.6730 -5.11940 -12.3109
  1333 -10.6692 -5.11211 12.3152
  1334 -96.6689 -0.161408 3.90501
  1335 -96.8408 -0.161033 -3.91110
  1336 -17.8504 -8.03717 -29.6244
  1337 -17.8305 -7.99372 29.5868
  1338 -51.5983 0.319096 1.56567
  1339 -51.7470 0.318840 -1.56758
  1340 -152.055 1.31965 0.621015
  1341 -152.263 1.32019 -0.621827
  1342 630.440 -71.3929 122.620
  1343 475.293 -1.94576 -48.3498
</Section>

newXOutput 76

<Section columns = "stress_xx | stress_yy | stress_xy">
  1 549.861 -1.08627 0.600097
  2 550.065 -1.08715 -0.600405
  3 -166.689 0.715004 -2.30877
  4 0.263818 0.0571242 0.473936
  5 979.435 318.166 332.174
  6 1108.10 356.805 -320.673
  7 0.262474 0.0559238 -0.472146
  8 -166.467 0.714871 2.30736
  9 548.293 -1.04496 -1.83297
  10 548.802 -1.90613 -2.92857
  11 553.928 -1.91927 -0.831899
  12 554.616 -1.91117 -3.51632
  13 556.268 -1.90233 -1.18935
  14 567.691 -1.74490 -1.60961
  15 571.854 -2.42399 -4.72730
  16 576.544 -1.29723 -3.30059
  17 579.754 -0.237726 -6.35591
  18 602.852 -3.64792 -5.43578
  19 613.268 -2.95297 -6.92102
  20 625.051 -4.25236 -3.05944
  21 631.221 -5.46309 -2.14591
  22 628.842 -6.11476 7.00465
  23 610.435 -6.65619 15.3370
  24 566.363 -6.96180 33.5883
  25 493.053 4.69680 39.3427
  26 433.996 6.00976 36.1100
  27 350.443 10.7909 21.8221
  28 371.095 10.4750 2.49808
  29 317.484 30.4100 -13.5979
  30 414.933 14.3395 -40.0883
  31 467.009 3.96854 -32.6202
  32 556.364 -1.23429 -28.3217
  33 604.652 -8.06985 -18.5397
  34 628.254 -7.10688 -6.92761
  35 630.317 -5.31112 2.20473
  36 624.461 -4.20299 2.91532
  37 613.106 -2.96856 6.74799
  38 602.881 -3.68813 5.34083
  39 579.910 -0.259804 6.31522
  40 576.740 -1.30555 3.28718
  41 572.067 -2.42972 4.72518
  42 567.908 -1.74804 1.60913
  43 556.479 -1.90468 1.19019
  44 554.826 -1.91319 3.51932
  45 554.136 -1.92087 0.833051
  46 549.006 -1.90759 2.93092
  47 548.496 -1.04584 1.83443
  48 519.846 0.789000 -0.714964
  49 482.779 -0.428791 -1.53705
  50 436.225 -2.81326 -1.47302
  51 387.714 -0.175813 -1.22487
  52 344.960 -0.693310 -0.961733
  53 298.994 0.748907 -1.12742
  54 253.406 3.16967 -0.625895
  55 205.854 2.69305 -1.40378
  56 166.262 1.51445 -2.00658
  57 114.095 0.549793 -2.11434
  58 60.9301 1.84418 -1.62319
  59 16.4423 1.57429 -1.57055
  60 -39.2194 0.777506 -1.41220
  61 -80.6171 -0.933046 -3.62721
  62 -120.749 -2.94738 -1.63749
  63 -161.557 0.259185 1.17574
  64 -170.525 2.91364 -0.343096
  65 -171.308 1.24550 0.623562
  66 -165.689 0.575476 -0.0764963
  67 -167.982 1.85126 -1.95676
  68 -165.557 2.27484 0.00845975
  69 -156.812 0.655142 -3.05215
  70 -159.265 1.41170 -3.31239
  71 -155.570 1.32550 -1.76989
  72 -144.238 0.800768 -2.76195
  73 -139.434 1.51994 -4.70171
  74 -131.194 1.72471 -3.79790
  75 -116.386 0.870878 -6.79748
  76 -108.140 0.272726 -5.67170
  77 -93.0011 0.389702 -6.60820
  78 -80.0400 0.331908 -7.38412
  79 -68.6238 0.124063 -5.83110
  80 -52.6376 0.355454 -5.89279
  81 -38.8041 -0.123355 -6.33234
  82 -25.4057 -0.672585 -5.60088
  83 -14.7487 -0.592911 -4.31568
  84 -7.29700 -1.05780 -3.62454
  85 -1.29452 -0.613126 -1.31707
  86 0.0281173 -0.694324 -0.485824
  87 -0.372123 -0.408059 -0.117894
  88 -0.961732 -1.07157 -1.15721
  89 -0.935831 -6.18646 -3.15425
  90 -0.786573 -13.7685 -4.46036
  91 -0.397795 -23.3419 -6.48241
  92 -0.195995 -35.7810 -5.58252
  93 -0.138397 -47.1376 -7.01756
  94 -0.844261 -60.8871 -7.88479
  95 -0.347296 -77.9381 -7.92032
  96 0.158472 -95.0994 -7.56127
  97 0.367623 -113.436 -7.43859
  98 0.579481 -132.206 -7.27784
  99 -0.00824491 -145.703 -9.81868
  100 0.936726 -165.194 -8.75831
  101 1.18306 -187.912 -6.83636
  102 -0.188430 -197.171 -9.05125
  103 1.67607 -212.909 -8.26812
  104 4.25947 -233.683 -3.19901
  105 8.38333 -237.419 -5.10942
  106 6.29710 -210.900 8.86251
  107 9.85963 -148.409 30.3215
  108 43.9466 -62.4446 80.4433
  109 132.547 246.693 248.561
  110 1498.07 84.6911 151.877
  111 1291.57 23.7966 54.5882
  112 1250.07 7.93557 12.8178
  113 1240.81 1.85731 -1.97244
  114 1249.61 12.7009 -28.7203
  115 1290.99 43.6724 -65.3452
  116 1460.97 165.454 -193.366
  117 322.494 194.341 -302.175
  118 75.2413 -62.6216 -95.5714
  119 22.4450 -162.883 -37.3475
  120 6.38209 -199.115 -9.27088
  121 6.82939 -228.006 1.91783
  122 1.89113 -224.196 2.11599
  123 0.605673 -207.527 6.81577
  124 0.701717 -196.102 5.34923
  125 1.03694 -177.355 9.79945
  126 -0.0479566 -166.814 9.68351
  127 0.408642 -150.945 6.94019
  128 0.827678 -130.671 8.95770
  129 0.179084 -116.138 7.09055
  130 0.235144 -95.1579 8.97070
  131 -0.951287 -78.8953 7.72872
  132 -0.645558 -60.9328 7.63223
  133 -0.0904910 -46.8671 7.03277
  134 -0.258896 -35.5708 5.58943
  135 -0.386763 -23.2730 6.41788
  136 -0.774680 -13.7598 4.43794
  137 -0.930776 -6.19598 3.15206
  138 -0.960358 -1.08206 1.15958
  139 -0.372044 -0.412521 0.120912
  140 0.0226559 -0.694932 0.488504
  141 -1.30463 -0.612685 1.32037
  142 -7.31156 -1.05660 3.62753
  143 -14.7676 -0.590920 4.31630
  144 -25.4192 -0.670137 5.59799
  145 -38.8043 -0.121330 6.32507
  146 -52.6223 0.355855 5.88434
  147 -68.5870 0.125146 5.82213
  148 -79.9833 0.333265 7.37350
  149 -92.9173 0.389742 6.59674
  150 -108.030 0.272748 5.66063
  151 -116.259 0.870319 6.78619
  152 -131.041 1.72358 3.78877
  153 -139.267 1.51865 4.69387
  154 -144.056 0.799905 2.75659
  155 -155.374 1.32451 1.76615
  156 -159.062 1.41093 3.30832
  157 -156.605 0.654915 3.04866
  158 -165.342 2.27360 -0.00977622
  159 -167.763 1.85029 1.95474
  160 -165.470 0.575360 0.0758945
  161 -171.085 1.24495 -0.623510
  162 -170.301 2.91214 0.342650
  163 -161.339 0.259323 -1.17526
  164 -120.556 -2.94516 1.63639
  165 -80.4482 -0.931876 3.62502
  166 -39.0751 0.777610 1.41114
  167 16.5540 1.57375 1.56947
  168 61.0161 1.84328 1.62213
  169 114.150 0.549530 2.11303
  170 166.287 1.51365 2.00543
  171 205.856 2.69176 1.40303
  172 253.380 3.16821 0.625598
  173 298.942 0.748990 1.12683
  174 344.880 -0.692328 0.961217
  175 387.609 -0.175169 1.22420
  176 436.090 -2.81098 1.47230
  177 482.615 -0.428109 1.53622
  178 519.660 0.788811 0.714579
  179 152.490 24.9950 -9.98221
  180 152.386 25.0542 10.0514
  181 -0.755654 5.42677 39.4025
  182 -0.924281 5.37697 -39.4370
  183 339.952 -4.24616 -79.9556
  184 339.642 -4.86488 80.7329
  185 70.6132 18.4087 -8.58528
  186 69.7874 18.6728 8.58598
  187 54.5826 7.46725 -4.57854
  188 54.6786 7.45744 4.57381
  189 319.713 4.22201 -12.5160
  190 319.783 4.20911 12.5290
  191 -1.23942 12.4541 20.2932
  192 -1.38013 12.4836 -20.3285
  193 371.047 7.72949 -30.6725
  194 371.216 7.62406 30.7253
  195 -13.9030 -11.9804 32.6826
  196 -13.9034 -12.0554 -32.7314
  197 4.16911 -27.3385 -37.3291
  198 119.553 12.1646 -76.3851
  199 4.92957 -29.3409 36.3364
  200 117.700 13.0424 77.4335
  201 523.394 -65.8114 -114.930
  202 540.737 -68.3695 110.651
  203 192.679 4.55268 -2.98154
  204 192.669 4.55388 2.98529
  205 -23.5801 1.40502 -3.61161
  206 -23.4449 1.40382 3.60716
  207 -39.1558 6.49217 30.4770
  208 -39.2790 6.50266 -30.5404
  209 193.861 15.7614 -8.01994
  210 193.844 15.7688 8.04499
  211 61.6937 25.0011 11.2560
  212 61.4490 25.1447 -11.3303
  213 -48.4641 5.29450 -11.7315
  214 -48.3166 5.28523 11.7128
  215 420.068 -0.832990 5.72476
  216 419.943 -0.829166 -5.72104
  217 14.6957 -50.8598 12.9649
  218 15.9560 -45.5639 -10.8821
  219 -3.61663 -34.1292 36.5551
  220 -3.73122 -35.5558 -35.4423
  221 180.077 25.3782 -35.1434
  222 179.886 25.5101 35.4262
  223 -36.5144 0.132237 31.4953
  224 -36.5843 0.125290 -31.5482
  225 449.288 1.14423 -16.3101
  226 449.435 1.11392 16.3072
  227 485.249 -8.25644 -32.6388
  228 485.648 -8.70931 32.5656
  229 779.717 57.2248 1.27457
  230 715.742 82.2508 30.7962
  231 700.025 0.568909 -51.3577
  232 91.3341 18.2513 5.07113
  233 91.2348 18.2846 -5.06687
  234 9.43359 16.0714 29.1885
  235 9.26859 16.1174 -29.2492
  236 542.265 -32.6310 -24.4024
  237 539.204 -33.0016 26.2063
  238 302.483 0.788622 -4.75746
  239 302.538 0.786426 4.76132
  240 -63.3658 4.58281 19.9804
  241 -63.5056 4.59307 -20.0177
  242 -9.08295 -8.92102 -14.9296
  243 -9.07287 -8.91318 14.9364
  244 -68.0461 1.30150 5.65802
  245 -68.2052 1.30378 -5.66631
  246 251.496 16.8253 -22.0078
  247 251.528 16.8055 22.0800
  248 318.317 8.30020 -46.3867
  249 318.529 8.17100 46.5753
  250 81.9387 3.58604 0.446921
  251 82.0135 3.58354 -0.447407
  252 186.499 12.3225 -158.381
  253 219.568 16.7463 171.390
  254 27.2092 12.9600 26.8444
  255 27.0955 13.2085 -26.9878
  256 731.254 -46.8567 -25.1127
  257 69.0656 23.9485 9.84485
  258 68.9189 24.0120 -9.85319
  259 183.565 20.8459 -62.2732
  260 183.190 21.3090 62.8413
  261 821.606 121.178 5.41347
  262 487.183 -1.04001 22.0520
  263 486.976 -0.911138 -22.0930
  264 -4.30142 -26.9630 -23.2026
  265 -4.16343 -27.0656 23.2902
  266 -0.793059 -63.2785 -31.3135
  267 2.52221 -72.4677 -27.7781
  268 1.41439 -73.1284 29.5490
  269 -11.2953 -9.67208 41.3858
  270 -11.3512 -9.66454 -41.5697
  271 27.9026 -51.9062 -16.3705
  272 30.0921 -47.0819 21.1274
  273 -27.8801 -2.25746 20.3417
  274 -27.9010 -2.26863 -20.3639
  275 350.210 7.80143 -19.4397
  276 350.314 7.76303 19.4606
  277 608.340 -59.8798 -11.3888
  278 140.320 9.99253 1.64974
  279 140.366 9.98470 -1.64426
  280 -1.44079 -59.4810 30.0008
  281 18.2030 11.8315 12.2373
  282 18.0777 11.8542 -12.2548
  283 958.255 65.2582 -30.1193
  284 470.982 -0.844095 6.91029
  285 470.828 -0.837420 -6.90788
  286 323.666 -12.6999 -118.997
  287 326.279 -12.4655 120.631
  288 607.631 -56.8984 1.60419
  289 -56.1560 1.86513 24.7199
  290 -56.2441 1.86439 -24.7646
  291 591.993 -37.0723 191.484
  292 -23.7665 4.78320 37.0965
  293 -23.8753 4.77319 -37.1736
  294 105.718 28.8300 -12.8360
  295 105.301 29.0918 12.9262
  296 -98.6464 0.499067 0.915438
  297 -98.8261 0.498800 -0.916868
  298 500.257 24.1558 -258.121
  299 -94.8751 1.81596 -10.5464
  300 -94.7143 1.81182 10.5276
  301 -1.68943 -10.8748 41.4908
  302 -0.115132 -10.4840 -40.9360
  303 226.395 21.5764 -31.4981
  304 226.382 21.5875 31.6659
  305 54.3999 4.58404 3.46590
  306 54.3075 4.58872 -3.46962
  307 234.415 6.99503 -7.23496
  308 234.429 6.99361 7.24452
  309 23.5809 -12.6707 18.5763
  310 21.5167 -15.8483 -18.9427
  311 227.581 2.11658 -1.98417
  312 227.592 2.11697 1.98592
  313 -79.0995 2.08499 17.9203
  314 -79.2166 2.08784 -17.9545
  315 59.1257 -0.379174 -19.6700
  316 57.4537 -0.477184 18.1319
  317 489.730 -1.36701 1.94170
  318 489.563 -1.36547 -1.93978
  319 1059.63 59.2534 45.3384
  320 117.636 13.6303 0.555373
  321 117.569 13.6463 -0.547980
  322 -17.8521 4.75015 7.59946
  323 -17.9858 4.75795 -7.61099
  324 159.562 19.5810 -7.12176
  325 159.505 19.6046 7.16055
  326 21.1919 17.0102 29.9737
  327 21.0559 17.0418 -30.0725
  328 2.49188 -105.526 20.0424
  329 -102.828 -0.100436 -2.23568
  330 -102.648 -0.100095 2.23249
  331 377.752 -0.678784 -3.76353
  332 377.852 -0.680628 3.76620
  333 397.597 0.989848 -9.97283
  334 397.710 0.979183 9.97803
  335 -96.7174 1.44285 -7.43672
  336 -96.5461 1.44028 7.42551
  337 4.88532 1.03446 0.596524
  338 4.76668 1.03482 -0.597808
  339 -2.19071 -44.5372 23.0640
  340 -1.73101 -46.3296 -23.0301
  341 450.926 -35.9017 -81.1797
  342 467.682 -43.0076 79.8117
  343 270.070 11.0253 -13.8167
  344 270.111 11.0131 13.8403
  345 122.474 27.5194 -8.64630
  346 122.255 27.6495 8.71757
  347 -36.6281 7.57336 17.0040
  348 -36.7705 7.58971 -17.0341
  349 823.076 29.8465 35.2213
  350 46.6824 -51.6375 -56.9365
  351 49.9176 -46.7254 59.2173
  352 -14.0634 12.8016 27.8952
  353 -14.2092 12.8305 -27.9514
  354 -22.0879 -4.11095 36.8697
  355 -22.1530 -4.12489 -36.9437
  356 934.887 164.145 -57.0877
  357 611.902 -5.08398 68.0573
  358 563.659 -14.0324 -15.7052
  359 563.322 -13.7037 14.9103
  360 400.247 -5.60382 -51.9755
  361 399.757 -5.95150 52.0207
  362 0.795485 -127.155 -15.8907
  363 514.032 0.181417 -12.2452
  364 514.202 0.146272 12.2225
  365 7.06653 -117.993 11.1293
  366 612.803 48.5902 -33.7003
  367 152.424 3.33489 1.21152
  368 152.391 3.33673 -1.21221
  369 401.705 1.37672 -38.5487
  370 401.953 1.21103 38.6190
  371 430.030 1.79759 -23.0913
  372 430.188 1.72371 23.0891
  373 -1.73735 3.93706 4.80681
  374 -1.86139 3.94188 -4.81357
  375 252.754 13.9707 -62.8673
  376 252.772 14.1397 63.3631
  377 504.358 -1.13681 3.16333
  378 504.181 -1.13465 -3.16074
  379 293.544 14.2151 -32.2823
  380 293.640 14.1486 32.3942
  381 335.663 3.23327 8.39964
  382 335.588 3.23807 -8.39323
  383 -15.9092 -2.80991 12.6659
  384 -15.9104 -2.81787 -12.6679
  385 -3.82097 -2.70484 -3.76100
  386 -3.82250 -2.70584 3.76658
  387 675.441 -77.1151 57.1410
  388 -8.49266 -20.6932 33.9830
  389 -8.43102 -20.8821 -33.9943
  390 116.720 5.67696 -0.585614
  391 116.777 5.67245 0.586149
  392 -3.32847 -16.9000 12.7355
  393 -3.36767 -16.8758 -12.7387
  394 47.7482 18.7091 12.8932
  395 47.6180 18.7504 -12.9088
  396 551.801 -3.36983 16.3396
  397 551.559 -3.18699 -16.5616
  398 -0.763747 -31.2053 39.9846
  399 -45.1338 -0.736959 19.1197
  400 -45.1746 -0.741579 -19.1477
  401 -0.938922 -33.0581 -39.5415
  402 516.516 -0.747943 7.81746
  403 516.338 -0.737579 -7.82070
  404 -2.15772 12.2507 35.5104
  405 -2.34607 12.2826 -35.5982
  406 386.456 3.83637 -15.6955
  407 386.568 3.81271 15.7029
  408 591.963 -25.1161 -9.13423
  409 593.232 -20.4935 6.51304
  410 -1.10781 -60.4992 -25.1583
  411 56.9725 21.7682 -6.39207
  412 57.4327 21.5592 6.30873
  413 604.680 38.9424 20.6551
  414 340.550 -12.5168 -163.052
  415 349.081 -18.6271 170.194
  416 24.3616 18.2119 21.5072
  417 24.2109 18.2586 -21.5455
  418 251.364 4.76712 -4.95439
  419 251.388 4.76677 4.95934
  420 244.316 59.0883 257.355
  421 104.993 22.5551 -2.25138
  422 105.108 22.5033 2.26858
  423 6.89955 -54.2443 25.1782
  424 -0.716598 -97.9206 -21.5146
  425 43.6942 22.7764 19.1630
  426 43.5229 22.8440 -19.2101
  427 54.4868 12.0213 -7.26260
  428 54.5907 12.0026 7.25603
  429 -15.3167 -0.0463054 -40.9746
  430 -15.2091 -0.0701015 40.8939
  431 124.289 25.1988 -28.7711
  432 123.754 25.5478 28.9930
  433 598.709 -17.7347 -52.0039
  434 18.7818 -3.28509 29.2382
  435 18.2082 -3.17172 -29.4612
  436 436.510 -19.0060 -57.3825
  437 438.202 -20.2525 57.3454
  438 -105.201 0.761488 -10.5790
  439 -105.051 0.758864 10.5590
  440 -0.00642732 -96.5870 19.4767
  441 -0.656053 -61.5465 22.4377
  442 -42.3983 3.03917 31.5631
  443 -42.4902 3.03603 -31.6217
  444 313.021 0.628501 -1.82301
  445 313.082 0.627774 1.82446
  446 -9.13328 -14.4458 23.3419
  447 -9.15177 -14.4823 -23.3220
  448 199.751 13.4129 -90.6930
  449 199.314 14.2434 91.5821
  450 1.66878 -115.145 -20.6152
  451 1057.26 34.9286 0.308698
  452 3.18412 -133.098 -10.0630
  453 -121.939 -0.290083 -3.53057
  454 -121.750 -0.290036 3.52582
  455 -45.8675 6.90583 24.9716
  456 -46.0032 6.92032 -25.0214
  457 -56.5484 0.849154 19.0967
  458 -56.6088 0.848418 -19.1269
  459 217.345 20.5081 -22.2815
  460 217.333 20.5239 22.3828
  461 324.026 10.7424 -24.9295
  462 324.130 10.6852 24.9807
  463 -4.67244 -18.6457 41.4908
  464 -4.67992 -18.5221 -41.6695
  465 567.135 12.5222 -65.3794
  466 40.7526 -5.14020 -1.02988
  467 39.3221 -5.49286 1.77237
  468 9.50650 -116.093 -5.67964
  469 6.26142 -136.357 1.19589
  470 -16.6844 -7.35591 23.9916
  471 -16.6959 -7.38447 -24.0061
  472 122.750 8.22873 -138.646
  473 839.357 19.0660 -97.8022
  474 198.161 10.5781 7.44298
  475 198.170 10.5754 -7.42798
  476 286.305 4.14062 -86.3179
  477 286.843 4.06221 87.4841
  478 87.3920 28.7043 4.46692
  479 87.2128 28.8039 -4.46516
  480 258.919 18.2478 -46.9283
  481 258.983 18.1800 47.2253
  482 11.4628 6.66116 35.7467
  483 12.0357 6.94925 -35.7031
  484 -108.822 1.45354 -7.49061
  485 -108.648 1.45138 7.47827
  486 558.033 -62.7396 -48.9538
  487 440.363 -1.22800 -2.61834
  488 440.501 -1.22952 2.62043
  489 30.3879 1.99218 -1.68394
  490 30.4922 1.99046 1.68133
  491 -24.4442 10.0795 22.6989
  492 -24.5866 10.1027 -22.7411
  493 -58.6461 3.42745 -7.68882
  494 -58.4929 3.42221 7.67678
  495 198.356 17.1052 -11.2148
  496 198.340 17.1122 11.2536
  497 -20.2942 9.14435 32.9309
  498 -20.4343 9.16348 -33.0052
  499 510.390 -15.3318 -31.0583
  500 511.274 -16.0060 30.7544
  501 339.616 2.88441 -57.7968
  502 339.070 2.69385 58.2575
  503 130.582 4.11583 -0.175897
  504 130.629 4.11330 0.175939
  505 1.73305 -58.1091 -33.4858
  506 600.529 -20.2765 42.4058
  507 9.21394 -36.3255 -28.8550
  508 175.838 26.8199 23.5799
  509 175.972 26.7290 -23.4191
  510 552.005 -58.6903 48.5086
  511 44.9025 -37.9923 75.9262
  512 653.368 -75.3910 -93.5100
  513 447.645 0.150483 27.8836
  514 447.429 0.300141 -27.8831
  515 1.72824 -49.4440 34.8595
  516 -8.80206 -2.59428 -6.83348
  517 -8.80514 -2.59252 6.83774
  518 61.4423 1.57009 -0.336005
  519 61.5281 1.56923 0.335245
  520 -1.47727 -34.6649 14.9150
  521 -1.34020 -34.5079 -14.9959
  522 369.226 1.80425 6.45962
  523 369.132 1.80677 -6.45525
  524 1021.65 190.314 89.9473
  525 45.7871 -19.6752 -19.5945
  526 35.8301 -28.8881 12.1134
  527 -4.73434 7.19516 -10.3377
  528 -4.60424 7.18171 10.3221
  529 -88.3795 1.38329 11.3334
  530 -88.4780 1.38480 -11.3535
  531 0.939895 -108.440 20.8304
  532 -118.830 0.818689 0.794393
  533 -119.021 0.818709 -0.795950
  534 118.920 2.48505 -103.499
  535 116.442 4.17754 107.174
  536 109.385 21.6664 -39.1047
  537 108.577 22.1117 39.2920
  538 -23.4436 -4.67559 32.4657
  539 -23.4870 -4.69846 -32.5201
  540 108.850 7.74036 0.376923
  541 108.786 7.74747 -0.375675
  542 -46.1603 1.82719 2.88271
  543 -46.3082 1.82883 -2.88774
  544 126.974 16.3773 -0.730547
  545 126.904 16.4006 0.746038
  546 -2.40944 -7.96391 5.85787
  547 -2.41807 -7.95767 -5.85701
  548 47.6525 20.6478 16.0924
  549 47.3414 20.9126 -16.2176
  550 38.4845 8.68498 13.3950
  551 37.9631 8.64309 -13.7274
  552 450.718 1.59109 11.6802
  553 450.575 1.60353 -11.6777
  554 401.287 3.41557 18.9784
  555 401.159 3.45661 -18.9722
  556 -0.405627 -93.4041 -13.6052
  557 284.847 12.0824 -19.6624
  558 284.905 12.0575 19.7028
  559 284.868 4.42091 -7.82692
  560 284.913 4.41619 7.83535
  561 -30.9088 0.606574 0.246128
  562 -30.7694 0.606733 -0.246599
  563 503.945 25.7877 -12.5765
  564 627.828 -74.5719 -38.7130
  565 532.979 25.8079 48.7201
  566 4.73777 -75.9845 -23.2591
  567 -22.4430 8.28168 -14.3086
  568 -22.3043 8.26573 14.2857
  569 5.17660 -43.4331 32.1664
  570 -26.4427 1.23375 36.6495
  571 -26.5295 1.22667 -36.7151
  572 805.069 77.0758 7.49649
  573 188.565 6.57253 -3.97029
  574 188.551 6.57452 3.97618
  575 1184.88 102.845 -109.144
  576 -4.43359 -3.33940 42.1220
  577 -3.98473 -3.01037 -42.1395
  578 663.232 -53.8570 16.9800
  579 530.920 -0.517298 -13.5361
  580 531.094 -0.577952 13.4858
  581 252.365 4.01558 -124.165
  582 255.164 3.20093 125.886
  583 -13.0441 -12.4368 37.4496
  584 -13.0603 -12.5070 -37.5586
  585 134.816 15.7325 69.1883
  586 135.923 14.8051 -68.7190
  587 -102.603 1.14399 -10.4536
  588 -102.466 1.14207 10.4340
  589 780.999 76.0973 29.6516
  590 155.456 12.0930 3.13295
  591 155.495 12.0838 -3.12239
  592 182.674 22.9612 -48.3021
  593 182.396 23.2290 48.7271
  594 483.706 -2.52749 -27.0917
  595 483.987 -2.74197 27.0644
  596 -1.91445 -47.6555 -33.5243
  597 520.697 -1.30367 4.10431
  598 520.510 -1.30080 -4.10191
  599 -69.3655 0.978046 -0.942002
  600 -69.2037 0.977788 0.939731
  601 -127.669 -1.15999 -0.0635382
  602 -127.867 -1.16116 0.0632069
  603 12.2670 -67.2544 -7.91873
  604 -4.72230 -31.2785 29.1263
  605 -4.98077 -29.5455 -29.3183
  606 -57.6789 3.73500 26.1138
  607 -57.7869 3.73930 -26.1635
  608 370.764 7.01121 24.1989
  609 370.637 7.07408 -24.1755
  610 274.861 1.39867 1.79542
  611 274.822 1.39853 -1.79411
  612 65.1498 -9.13371 46.4028
  613 67.0533 -7.79694 -46.0355
  614 -1.85151 -24.2257 12.6426
  615 -1.91196 -24.1525 -12.6875
  616 623.026 64.7794 276.482
  617 -31.2019 -0.911572 11.6583
  618 -31.2083 -0.916229 -11.6696
  619 12.4033 -40.2157 -22.1156
  620 269.616 8.40868 -10.6702
  621 269.653 8.40196 10.6850
  622 135.835 27.9507 -19.1048
  623 135.554 28.1266 19.2552
  624 1.28030 -160.331 6.80213
  625 103.212 26.4549 1.04652
  626 103.073 26.5286 -1.02571
  627 -5.37028 10.5557 17.2799
  628 -5.50707 10.5784 -17.3081
  629 -0.741206 -81.9964 18.5463
  630 -129.057 -0.0432259 -3.57436
  631 -128.865 -0.0434236 3.56925
  632 180.227 2.71365 1.63462
  633 180.245 2.71269 -1.63288
  634 439.246 -0.303895 7.87643
  635 439.110 -0.297856 -7.87229
  636 392.406 -17.9558 211.762
  637 316.360 5.69856 -15.2968
  638 316.431 5.67877 15.3152
  639 6.80240 -4.48901 38.0470
  640 8.06004 -1.78104 -37.8588
  641 501.489 -42.0509 -172.551
  642 1148.27 38.4905 -45.2968
  643 -120.614 0.00703855 -7.09667
  644 -120.449 0.00589693 7.08424
  645 36.3921 5.51171 -4.16052
  646 36.4958 5.50504 4.15535
  647 -2.17898 -50.9617 29.8021
  648 681.603 45.4918 -56.3538
  649 514.571 -1.53500 0.756118
  650 514.388 -1.53364 -0.755202
  651 -32.8671 -1.62992 -26.8180
  652 -32.8240 -1.62033 26.7786
  653 -0.115701 -115.849 -17.5006
  654 523.207 -1.45512 1.58920
  655 523.018 -1.45373 -1.58744
  656 54.4481 15.9034 10.6171
  657 54.3320 15.9338 -10.6268
  658 408.608 -32.4648 -114.553
  659 415.512 -32.2703 115.693
  660 585.366 -4.36981 9.68825
  661 585.331 -4.33887 -10.0155
  662 2.64081 -144.280 12.8918
  663 -25.0903 0.268280 -1.61586
  664 -24.9543 0.268324 1.61337
  665 195.970 44.4483 -203.678
  666 187.161 2.18616 1.77042
  667 187.174 2.18513 -1.76927
  668 95.9414 5.11699 -0.317579
  669 95.8737 5.12102 0.317461
  670 112.575 10.1684 0.606250
  671 112.640 10.1578 -0.601925
  672 349.152 8.06060 -37.4772
  673 349.339 7.93735 37.5783
  674 96.7324 27.4137 -3.90261
  675 96.4337 27.6027 3.92227
  676 -57.6830 4.29673 -13.9286
  677 -57.5339 4.28674 13.9050
  678 -68.5937 4.77966 -16.2105
  679 -68.4463 4.77004 16.1809
  680 603.572 -9.49454 -0.0722378
  681 1.61024 -22.4120 -39.6404
  682 604.081 -9.95511 -0.647776
  683 776.530 59.3682 -5.54036
  684 -75.1367 0.377771 12.9642
  685 -75.2131 0.377131 -12.9867
  686 84.2636 25.0504 -10.0916
  687 83.6685 25.3258 10.1259
  688 -138.284 -0.0617495 -1.10786
  689 -138.083 -0.0615422 1.10573
  690 2.17434 -19.9435 39.5926
  691 -46.3392 0.815200 27.8882
  692 -46.4162 0.811326 -27.9361
  693 664.387 -50.0855 -19.3842
  694 111.731 1.09425 -1.12099
  695 111.674 1.09487 1.12140
  696 30.3837 8.79026 7.57906
  697 30.2719 8.80356 -7.58789
  698 357.596 -14.6228 -96.5162
  699 360.065 -15.2056 98.2269
  700 1196.07 86.3155 98.5173
  701 25.3591 -94.6272 -46.8572
  702 -8.18391 -17.6025 39.8500
  703 -8.18777 -17.6819 -39.9536
  704 80.2886 15.3937 -4.52510
  705 80.3827 15.3700 4.52554
  706 537.912 -1.28753 -4.14949
  707 538.109 -1.29095 4.15031
  708 263.244 2.34531 3.54145
  709 263.213 2.34612 -3.53817
  710 25.3931 19.6265 26.3355
  711 25.2300 19.6830 -26.3999
  712 20.1595 3.83837 2.89218
  713 20.0487 3.84188 -2.89622
  714 -13.3820 4.47992 39.7781
  715 -13.5040 4.46976 -39.8745
  716 445.083 -1.76676 3.38134
  717 444.943 -1.76417 -3.37864
  718 387.677 1.52371 9.08853
  719 387.572 1.52964 -9.08296
  720 55.4936 -23.7641 54.7173
  721 56.9476 -26.2021 -53.1018
  722 -27.6962 6.84635 34.6573
  723 -27.8189 6.85093 -34.7328
  724 17.6441 -32.1628 16.1675
  725 4.03474 12.5374 35.5655
  726 3.83838 12.5625 -35.6314
  727 -80.6391 2.14026 -9.08408
  728 -80.4775 2.13597 9.06873
  729 73.2260 21.1692 9.02026
  730 73.0959 21.2185 -9.02251
  731 600.692 -17.5629 -28.2209
  732 568.373 -48.2453 -19.4755
  733 -8.91178 -18.2996 28.7042
  734 -8.90355 -18.3920 -28.6737
  735 226.708 6.33997 -146.307
  736 221.087 10.8775 147.429
  737 140.114 26.6228 -27.0499
  738 139.745 26.8768 27.2770
  739 13.1791 -18.4654 30.1115
  740 -0.769039 -61.1103 -16.2797
  741 285.926 14.0583 -36.0717
  742 286.033 13.9959 36.2330
  743 0.680581 -119.277 14.8566
  744 173.249 21.8633 -12.4019
  745 173.191 21.8929 12.4649
  746 566.219 -1.18320 -10.2124
  747 566.361 -1.24608 10.1076
  748 11.9541 -150.710 7.48233
  749 263.570 17.6390 27.8010
  750 263.518 17.6679 -27.6998
  751 74.4426 26.0856 -2.31275
  752 74.8258 25.8391 2.25899
  753 -101.722 0.664937 -8.91086
  754 -101.604 0.664250 8.89363
  755 290.016 2.86458 -6.67702
  756 290.064 2.86190 6.68287
  757 182.863 24.6382 -20.1598
  758 182.778 24.6910 20.2784
  759 5.24894 15.5289 26.8312
  760 5.09507 15.5702 -26.8837
  761 570.019 -41.4156 12.4004
  762 -82.7213 1.54812 6.82430
  763 -82.8875 1.55036 -6.83372
  764 1194.55 250.983 -178.123
  765 -27.1811 2.73111 6.77116
  766 -27.3188 2.73542 -6.78043
  767 482.655 -0.0671660 19.1348
  768 482.482 0.00480269 -19.1626
  769 896.420 53.5453 -0.943559
  770 542.463 -2.15905 -7.71688
  771 542.652 -2.17085 7.70899
  772 352.642 3.09883 11.6136
  773 352.555 3.10866 -11.6053
  774 525.302 -52.3442 157.534
  775 233.197 14.8055 -11.8009
  776 233.211 14.8024 11.8312
  777 5.69302 -85.7277 15.8504
  778 601.288 -70.9225 56.6893
  779 366.265 -0.920723 1.94023
  780 366.172 -0.919437 -1.93888
  781 474.958 -0.955450 1.02467
  782 474.800 -0.954347 -1.02366
  783 -2.01944 -47.6627 -27.9661
  784 3.20452 -79.0578 25.6219
  785 222.135 23.5607 38.6085
  786 222.173 23.5280 -38.3562
  787 1178.32 10.0236 11.0100
  788 375.563 1.85785 -46.2185
  789 375.798 1.71092 46.3456
  790 -74.1775 2.45766 19.2829
  791 -74.3097 2.46370 -19.3186
  792 17.1208 -59.7729 1.26247
  793 10.9232 -139.220 -14.9474
  794 845.642 111.376 -23.9037
  795 -0.710593 -60.9877 14.7069
  796 20.1960 13.7501 31.0233
  797 20.1255 13.7369 -31.2084
  798 119.397 21.3285 -0.310465
  799 119.308 21.3684 0.331363
  800 564.447 -26.2071 -12.0404
  801 565.865 -25.7998 10.4179
  802 653.411 125.881 -262.464
  803 -84.7447 0.573325 -2.76484
  804 -84.5755 0.572665 2.75995
  805 -42.7452 -0.138531 10.9326
  806 -42.7630 -0.140608 -10.9466
  807 44.1633 6.71928 5.34485
  808 43.2537 6.68395 -5.46551
  809 431.136 -3.69481 41.4345
  810 430.834 -3.37934 -41.3101
  811 223.395 3.77124 -2.55074
  812 223.403 3.77174 2.55372
  813 691.513 -3.35937 50.7989
  814 79.2727 10.4202 -4.14980
  815 79.3593 10.4065 4.14842
  816 72.0486 13.0128 -17.3785
  817 71.4181 13.3142 17.5118
  818 0.246688 -45.7881 -36.6494
  819 958.919 170.525 152.981
  820 -136.561 0.0544020 -3.62684
  821 -136.369 0.0542696 3.62104
  822 -0.193777 -144.220 13.6301
  823 11.7989 -18.3181 -30.5862
  824 -21.4010 -1.27112 8.21850
  825 -21.3949 -1.27469 -8.22241
  826 777.459 55.0845 -28.7631
  827 209.195 18.5946 -14.9299
  828 209.182 18.6030 14.9903
  829 534.457 -8.91675 -21.0163
  830 534.995 -8.97513 20.7848
  831 -131.254 0.896113 4.97565
  832 -131.434 0.897516 -4.98427
  833 -0.992919 -1.02455 -0.865047
  834 -0.994933 -1.02634 0.868477
  835 0.378663 -147.353 -13.1779
  836 0.673664 -153.040 -11.2359
  837 -141.892 1.24612 0.634066
  838 -142.098 1.24649 -0.634928
  839 86.0772 -10.1783 -99.8922
  840 334.413 1.99322 -3.63868
  841 334.487 1.99238 3.64142
  842 -3.38152 1.72755 0.834266
  843 -3.50491 1.72812 -0.835157
  844 490.472 0.0866450 -12.5896
  845 490.636 0.0630522 12.5809
  846 -56.0551 0.381370 10.3564
  847 -56.0898 0.381341 -10.3711
  848 303.507 16.5009 -215.695
  849 517.382 -43.1913 46.9709
  850 404.051 0.0838577 -4.21281
  851 404.166 0.0818747 4.21584
  852 513.039 -46.8226 -51.9963
  853 165.681 16.1996 -6.37753
  854 165.639 16.2134 6.40481
  855 225.824 12.4759 -9.28532
  856 225.832 12.4751 9.30528
  857 600.042 -12.5132 21.6356
  858 40.9482 22.4317 20.5896
  859 40.7665 22.5114 -20.6705
  860 44.9188 1.37876 1.19645
  861 44.8231 1.37969 -1.19819
  862 286.133 1.52193 3.18320
  863 286.087 1.52254 -3.18068
  864 732.312 -55.5741 93.8273
  865 461.873 1.09173 -16.7057
  866 462.032 1.04820 16.6938
  867 13.3068 6.06330 5.92786
  868 13.1893 6.07136 -5.93576
  869 461.464 -1.77392 4.81299
  870 461.314 -1.77062 -4.80954
  871 -78.9241 0.00747963 -2.11586
  872 -78.7561 0.00809237 2.11420
  873 -0.374885 -46.8160 13.1698
  874 -0.501812 -47.5458 -13.2641
  875 565.062 -6.23336 53.7764
  876 -30.5992 8.69620 28.7246
  877 -30.7354 8.71512 -28.7838
  878 -0.171616 -76.7841 -14.4387
  879 225.563 6.12624 -4.96069
  880 225.572 6.12698 4.96651
  881 410.349 -20.0960 -74.0594
  882 413.331 -22.2025 74.7509
  883 -16.3861 -5.37419 -39.9283
  884 -16.3025 -5.36943 39.8311
  885 26.5084 19.3953 23.9912
  886 26.3483 19.4491 -24.0391
  887 1.90281 -171.313 8.76206
  888 8.97692 15.7340 32.0949
  889 8.80584 15.7708 -32.1615
  890 379.643 -7.01120 -66.0054
  891 378.771 -7.24656 66.5179
  892 654.573 40.5795 59.5556
  893 154.794 14.9400 4.13522
  894 154.840 14.9273 -4.11823
  895 472.843 1.46954 -12.4213
  896 472.998 1.45243 12.4196
  897 -17.9650 -7.59166 35.3953
  898 -18.0057 -7.62525 -35.4680
  899 1.75718 -174.275 -4.66571
  900 -27.6745 -1.53281 34.5440
  901 -27.7396 -1.54050 -34.6043
  902 23.1305 17.0472 -18.4454
  903 23.2708 17.0071 18.4151
  904 -1.44686 -11.9157 6.56299
  905 -1.46369 -11.9047 -6.57318
  906 45.7352 19.2363 -15.7796
  907 45.8793 19.1865 15.7571
  908 10.3363 -11.6535 34.7064
  909 9.12676 -10.8163 -36.7674
  910 463.538 -14.0854 42.5478
  911 462.490 -13.5097 -42.7034
  912 -145.317 0.265307 -0.932492
  913 -145.110 0.265368 0.931093
  914 -13.2319 -1.16347 6.21954
  915 -13.2213 -1.16572 -6.21852
  916 0.604186 -108.869 -13.0635
  917 -13.9468 -5.91612 -17.5858
  918 -13.9389 -5.90005 17.5841
  919 -56.6270 5.00538 24.7803
  920 -56.7526 5.01493 -24.8292
  921 149.790 27.1820 -13.3147
  922 149.653 27.2756 13.4038
  923 628.557 47.9542 -7.12636
  924 -2.75658 13.6309 24.3506
  925 -2.90272 13.6639 -24.3957
  926 233.695 15.5319 -70.6037
  927 233.651 15.7415 71.2797
  928 -22.5376 9.27330 19.5237
  929 -22.6787 9.29533 -19.5592
  930 737.793 -26.6384 -0.696831
  931 470.884 18.8070 26.0283
  932 549.391 -5.48800 -48.6125
  933 405.605 3.53811 -28.0579
  934 405.778 3.43593 28.0782
  935 -37.0853 5.18825 -9.01425
  936 -36.9426 5.17952 8.99958
  937 -92.8327 1.59607 12.0910
  938 -92.9851 1.60020 -12.1138
  939 -5.69397 -18.5922 -20.3739
  940 -5.65045 -18.6030 20.4070
  941 148.993 7.55040 2.51615
  942 149.031 7.54532 -2.51189
  943 -43.0279 4.86065 31.1131
  944 -43.1354 4.86216 -31.1754
  945 480.640 -1.38112 6.20946
  946 480.479 -1.37732 -6.20572
  947 -3.46718 -40.4575 30.4465
  948 23.2143 15.4122 -15.6150
  949 23.3464 15.3800 15.5917
  950 30.7736 10.1964 9.69087
  951 30.6575 10.2142 -9.70283
  952 89.7512 6.35724 -1.36358
  953 89.8240 6.35131 1.36247
  954 899.664 129.391 -41.0852
  955 -3.69893 -0.989488 -2.50670
  956 -3.70678 -0.989261 2.51111
  957 34.1778 11.2005 -18.8817
  958 34.7366 10.9623 18.7597
  959 330.008 11.1720 -30.3055
  960 330.135 11.0936 30.3786
  961 47.5710 13.0322 -8.86933
  962 47.6827 13.0097 8.86006
  963 91.8885 2.77440 129.637
  964 608.164 -4.76237 -5.81232
  965 607.536 -4.59120 5.30622
  966 113.419 2.36821 114.935
  967 120.297 3.31771 -1.06984
  968 120.245 3.31978 1.07025
  969 302.519 -2.10982 -186.979
  970 228.647 1.82990 1.67301
  971 228.635 1.82923 -1.67185
  972 30.5893 -24.0709 1.19976
  973 33.7935 -19.3706 1.33929
  974 536.531 -0.962134 2.11949
  975 536.333 -0.960965 -2.11738
  976 -43.8525 0.257227 25.5322
  977 -43.9104 0.253631 -25.5714
  978 964.928 122.733 63.3001
  979 -3.64440 -29.4844 -39.5996
  980 5.70145 -138.017 22.4071
  981 -0.370882 -47.2158 36.3392
  982 555.665 -1.00770 -7.87195
  983 555.847 -1.02492 7.85222
  984 -7.31883 -13.4569 17.6469
  985 -7.34086 -13.4609 -17.6326
  986 707.193 76.3401 -28.3093
  987 1193.54 9.00739 -7.30729
  988 -1.82908 -2.83337 -2.72820
  989 -1.82692 -2.83931 2.73212
  990 328.736 1.73814 -6.73717
  991 328.807 1.73541 6.74212
  992 -3.69267 -28.2533 39.7519
  993 454.086 0.407116 24.7426
  994 453.904 0.514099 -24.7548
  995 597.443 -38.2697 -18.5815
  996 -20.6501 -4.21204 19.8066
  997 -20.6619 -4.22900 -19.8201
  998 10.9498 -35.2757 26.0824
  999 -0.803409 -72.1047 28.5483
  1000 -0.0923064 -76.2271 14.4348
  1001 626.735 39.0955 -3.88347
  1002 707.709 78.0217 13.4446
  1003 503.111 -54.7810 -89.0863
  1004 7.83346 -67.7102 20.6870
  1005 9.77515 -96.1586 1.54053
  1006 144.958 1.69542 0.138899
  1007 144.920 1.69635 -0.139004
  1008 -5.54087 -6.32598 -8.50406
  1009 -5.53535 -6.32620 8.50994
  1010 5.38749 -55.6864 -28.9371
  1011 403.336 -1.18466 -1.54899
  1012 403.451 -1.18610 1.55019
  1013 85.1210 5.23726 -46.2235
  1014 81.5429 5.42349 45.7929
  1015 -4.32422 12.9017 32.8233
  1016 -4.48791 12.9345 -32.8997
  1017 -43.6241 7.07655 -20.2135
  1018 -43.4818 7.06086 20.1764
  1019 313.647 4.92965 -68.0801
  1020 313.758 5.23566 68.7613
  1021 227.731 19.5361 -49.2183
  1022 227.664 19.5515 49.6130
  1023 245.674 15.5503 -17.5712
  1024 245.698 15.5376 17.6184
  1025 628.994 -13.8578 -60.6924
  1026 -14.0549 8.17995 36.7079
  1027 -14.1996 8.18730 -36.8049
  1028 444.125 -2.04143 34.0889
  1029 443.869 -1.80581 -34.0602
  1030 -2.09068 -21.5134 41.1287
  1031 -35.4706 -1.09552 19.0137
  1032 -35.4960 -1.10185 -19.0376
  1033 405.564 1.94016 -34.0446
  1034 405.774 1.79378 34.0835
  1035 515.541 13.7774 -43.9444
  1036 -0.376773 -71.5186 -29.9144
  1037 -5.60303 -28.0646 35.9935
  1038 -5.84961 -28.4336 -35.7056
  1039 289.025 14.8013 -25.6766
  1040 289.102 14.7569 25.7523
  1041 360.831 4.60597 14.2934
  1042 360.736 4.62213 -14.2834
  1043 596.230 -37.3921 15.8360
  1044 36.2397 1.75784 -0.304941
  1045 36.3401 1.75704 0.304399
  1046 508.271 -61.1938 94.9398
  1047 3.91973 1.03378 1.84351
  1048 3.80041 1.03452 -1.84614
  1049 114.741 27.5882 -3.83173
  1050 114.571 27.6885 3.87362
  1051 46.0882 21.8712 17.4165
  1052 45.9311 21.9305 -17.4478
  1053 5.97885 -84.7584 -16.5658
  1054 152.235 3.78583 1.52062
  1055 152.270 3.78366 -1.51847
  1056 462.141 14.4800 10.8360
  1057 407.775 1.26792 13.0683
  1058 407.655 1.28450 -13.0631
  1059 -1.64558 -22.4456 -41.2064
  1060 611.626 -8.00368 -10.5061
  1061 1.63330 -0.584552 40.1502
  1062 2.11368 -0.277544 -39.9230
  1063 551.818 -1.39843 -4.37283
  1064 552.020 -1.40259 4.37146
  1065 588.824 -2.50228 -7.73170
  1066 588.844 -2.57131 7.56473
  1067 -0.439608 -115.296 10.7833
  1068 351.336 6.81737 -18.8171
  1069 351.431 6.78884 18.8331
  1070 424.489 2.11725 15.0658
  1071 424.357 2.13974 -15.0628
  1072 12.1610 11.2188 35.2608
  1073 12.0929 11.2157 -35.3214
  1074 917.290 58.4733 11.7742
  1075 -10.5667 -4.14054 42.1595
  1076 -10.7634 -4.03409 -42.2791
  1077 137.503 24.8974 -5.18088
  1078 137.411 24.9480 5.22226
  1079 -67.4522 0.819708 -3.14397
  1080 -67.2922 0.819112 3.13951
  1081 222.969 14.4795 -80.9848
  1082 222.618 15.0708 81.8339
  1083 67.0889 24.7346 12.2069
  1084 66.9193 24.8095 -12.2262
  1085 152.866 19.8775 -61.5656
  1086 152.086 20.5893 61.9977
  1087 -3.72025 -38.0321 -29.6981
  1088 531.964 8.73766 59.1332
  1089 366.918 13.7400 240.400
  1090 63.1022 25.8003 12.5350
  1091 62.9074 25.8963 -12.5715
  1092 224.976 9.70834 -7.28701
  1093 224.984 9.70713 7.30051
  1094 792.025 14.8177 5.23670
  1095 54.7898 15.5043 5.43299
  1096 54.1186 15.6533 -5.65621
  1097 -23.2951 -4.96169 26.2200
  1098 -23.3198 -4.98656 -26.2514
  1099 -0.761339 -17.7605 7.14181
  1100 -0.792584 -17.7510 -7.17113
  1101 521.996 -1.78725 19.6963
  1102 521.758 -1.61182 -19.7963
  1103 1.38803 -35.1111 38.3641
  1104 -34.4716 2.58232 -34.2354
  1105 -34.3831 2.58872 34.1729
  1106 0.162427 -138.270 -13.3644
  1107 -7.21463 -10.3713 42.1066
  1108 -7.18629 -10.1240 -42.1508
  1109 497.722 -0.535767 -8.29459
  1110 497.892 -0.543832 8.29578
  1111 515.979 -5.27404 23.9976
  1112 515.590 -4.98609 -24.0902
  1113 94.7433 22.6231 -24.2070
  1114 94.0344 22.9972 24.3526
  1115 -1.14556 -71.2645 -24.6411
  1116 676.379 -49.9680 -143.950
  1117 875.454 126.098 21.6410
  1118 9.86108 -100.807 2.17450
  1119 35.0145 19.2567 -24.0946
  1120 35.2175 19.1608 23.9320
  1121 89.3049 27.6468 2.87671
  1122 89.0831 27.7735 -2.87649
  1123 184.085 8.78190 3.96024
  1124 184.103 8.77896 -3.95157
  1125 -11.0356 -15.7218 33.8331
  1126 -11.0223 -15.8806 -33.8938
  1127 -29.1286 10.0458 26.1916
  1128 -29.2689 10.0684 -26.2420
  1129 -8.26603 13.0175 30.2469
  1130 -8.41874 13.0488 -30.3117
  1131 495.510 -25.5132 -42.3079
  1132 498.527 -25.6379 42.0624
  1133 0.629926 -80.6451 -28.1707
  1134 269.703 1.56521 -99.9371
  1135 270.029 2.37366 101.427
  1136 89.4729 24.5422 -4.63984
  1137 89.6029 24.4804 4.64711
  1138 261.992 158.689 267.151
  1139 71.2449 19.3311 8.72251
  1140 71.1268 19.3700 -8.72594
  1141 670.623 -67.1362 -41.1978
  1142 258.679 5.00131 5.64103
  1143 258.650 5.00320 -5.63452
  1144 -11.3065 -10.0362 20.9150
  1145 -11.3170 -10.0623 -20.9120
  1146 -13.4069 -11.9614 26.9265
  1147 -13.4105 -12.0117 -26.9347
  1148 445.548 -41.1463 -137.671
  1149 453.801 -45.6029 138.624
  1150 85.6310 1.64976 1.59711
  1151 85.7031 1.64870 -1.59674
  1152 283.334 12.5355 -56.0909
  1153 283.290 12.3971 56.5880
  1154 604.009 -74.6685 107.485
  1155 532.321 -1.62800 1.21003
  1156 532.127 -1.62667 -1.20873
  1157 -44.7000 7.46408 23.4757
  1158 -44.8395 7.47979 -23.5198
  1159 -78.1865 2.25562 -11.9824
  1160 -78.0287 2.25023 11.9635
  1161 143.294 16.9701 166.015
  1162 447.014 28.6917 -22.0859
  1163 259.208 16.7183 -28.9787
  1164 259.260 16.6912 29.1104
  1165 775.963 -6.00116 156.247
  1166 263.583 16.4591 -41.6923
  1167 263.641 16.4005 41.9195
  1168 70.5666 7.00171 -2.67134
  1169 70.6518 6.99426 2.66879
  1170 24.0292 -72.5070 20.6158
  1171 24.2409 -70.0996 -26.9676
  1172 355.005 -21.1198 -139.171
  1173 359.593 -19.5269 138.943
  1174 142.385 24.7805 -44.5353
  1175 141.783 25.2292 44.8875
  1176 617.134 -38.6664 -37.9273
  1177 -21.2374 -1.30437 38.7286
  1178 -21.3243 -1.30619 -38.8043
  1179 0.202298 -31.2327 -39.4624
  1180 162.607 10.5128 -106.480
  1181 162.931 10.8916 108.105
  1182 -0.389321 -31.3713 7.92837
  1183 -0.333589 -31.4495 -8.02881
  1184 -143.580 1.15290 -3.46694
  1185 -143.389 1.15199 3.46113
  1186 485.734 -1.31230 -2.43299
  1187 485.899 -1.31421 2.43530
  1188 306.207 9.14568 -16.8717
  1189 306.278 9.12097 16.8988
  1190 -9.51240 0.884999 41.8718
  1191 -9.54080 1.06571 -41.9555
  1192 -0.0162745 -124.214 -11.9257
  1193 -122.926 0.252530 5.83652
  1194 -123.082 0.253208 -5.84782
  1195 101.786 5.55844 -76.8428
  1196 101.086 6.18756 79.0529
  1197 571.891 -34.6802 -5.99006
  1198 169.142 14.9392 -95.9585
  1199 169.232 15.2782 96.7473
  1200 -69.2744 0.390354 9.37291
  1201 -69.3268 0.389775 -9.38771
  1202 1.98791 -105.270 -18.8640
  1203 -14.1857 3.53513 -3.89150
  1204 -14.0556 3.53173 3.88588
  1205 91.7967 20.2425 5.31360
  1206 91.6855 20.2845 -5.30672
  1207 324.014 -0.238628 -2.10827
  1208 324.082 -0.239464 2.10969
  1209 432.964 0.424323 9.92075
  1210 432.831 0.434643 -9.91688
  1211 26.0599 -0.0638555 19.7193
  1212 25.6795 -0.492046 -20.1867
  1213 4.62835 -59.6354 29.1299
  1214 778.995 112.468 14.8331
  1215 -23.8921 -1.80673 15.0389
  1216 -23.8990 -1.81498 -15.0496
  1217 3.71472 -55.8769 -30.7953
  1218 -2.20958 -36.0954 21.9273
  1219 -2.10851 -35.7188 -22.7066
  1220 613.636 -6.84068 9.25474
  1221 0.518058 -141.670 12.1278
  1222 5.30552 -40.4863 -34.4128
  1223 79.9302 0.984825 0.553833
  1224 79.8551 0.985304 -0.554392
  1225 -5.57035 -24.8494 39.3239
  1226 -62.5977 3.46111 -9.84036
  1227 -62.4435 3.45555 9.82537
  1228 1216.19 20.1419 35.7578
  1229 -33.7048 4.43579 34.3450
  1230 -33.8093 4.43288 -34.4141
  1231 301.926 11.0514 -50.6429
  1232 302.127 10.8738 50.9107
  1233 21.0076 -24.6059 -11.2076
  1234 286.702 12.5898 -21.3753
  1235 286.768 12.5563 21.4286
  1236 12.6033 -79.5259 -0.581177
  1237 -5.59827 -24.9215 -39.2893
  1238 -41.1835 1.26427 5.49234
  1239 -41.3285 1.26639 -5.49976
  1240 -19.9869 2.27329 -39.3216
  1241 -19.8803 2.28310 39.2495
  1242 615.207 50.4483 41.3942
  1243 347.665 2.85833 -52.9386
  1244 348.019 2.80013 53.0659
  1245 -148.952 0.248949 -1.11161
  1246 -148.746 0.248866 1.10949
  1247 312.262 5.45201 -11.3452
  1248 312.324 5.44446 11.3555
  1249 -151.673 -2.80022 -0.441205
  1250 -151.886 -2.80218 0.441337
  1251 464.269 -32.5497 -60.7179
  1252 -71.2207 1.28002 19.5033
  1253 -71.3189 1.28006 -19.5395
  1254 468.673 -34.3718 60.1729
  1255 318.216 9.51059 -22.6044
  1256 318.302 9.46855 22.6413
  1257 38.6631 -61.2774 -75.8506
  1258 0.725551 -97.6997 -24.0009
  1259 -1.73790 -40.8212 36.8010
  1260 968.756 188.485 -156.574
  1261 -0.188617 -92.3104 23.8059
  1262 1015.68 96.5023 -69.1499
  1263 -0.667390 -171.435 -11.0070
  1264 56.0712 3.77707 -0.397765
  1265 56.1613 3.77379 0.396078
  1266 -0.413023 -40.2315 8.30114
  1267 -0.327891 -40.4509 -8.28357
  1268 180.888 2.56990 0.777502
  1269 180.905 2.56878 -0.776712
  1270 623.111 -44.4911 35.6559
  1271 18.9348 3.74555 -4.50423
  1272 19.0470 3.74126 4.49873
  1273 3.59832 -182.529 3.61422
  1274 2.29537 -195.071 -3.63285
  1275 572.885 -67.5319 -66.6832
  1276 -1.49779 -51.4242 24.0937
  1277 610.109 41.9422 -53.9347
  1278 -1.77461 -67.7457 23.6031
  1279 1.25753 -182.703 -7.81676
  1280 292.270 6.18862 -12.7915
  1281 292.323 6.17353 12.8091
  1282 -0.243545 -101.712 10.6610
  1283 -0.220575 -83.5878 -23.8853
  1284 1314.09 246.206 208.608
  1285 534.602 -0.127517 0.897892
  1286 534.407 -0.127159 -0.897146
  1287 16.5067 3.27438 31.4199
  1288 16.0212 3.85751 -31.5914
  1289 -6.04219 8.68049 38.6572
  1290 -6.26149 8.68203 -38.7750
  1291 581.622 -10.1026 -34.5349
  1292 535.368 -22.9317 -25.1937
  1293 534.949 -25.9618 25.5819
  1294 86.0978 8.03843 2.41532
  1295 86.0190 8.04750 -2.41620
  1296 -84.7121 2.22962 -14.7601
  1297 -84.5683 2.22462 14.7315
  1298 596.294 -76.0718 -92.7449
  1299 -4.41263 -10.7741 11.0631
  1300 -4.43057 -10.7684 -11.0593
  1301 631.429 -23.7918 57.3543
  1302 -6.37405 -24.3946 29.3740
  1303 -6.30101 -24.4884 -29.2407
  1304 -50.0446 3.16866 6.65340
  1305 -50.1940 3.17311 -6.66351
  1306 99.8751 14.8076 -42.3191
  1307 98.8978 15.3432 42.2659
  1308 155.033 2.45564 -0.217020
  1309 155.001 2.45694 0.217345
  1310 -57.7569 5.97893 23.4631
  1311 -57.8905 5.99042 -23.5070
  1312 503.027 0.405408 1.39506
  1313 502.851 0.405553 -1.39396
  1314 285.233 4.88832 184.979
  1315 414.260 -0.715237 3.52952
  1316 414.138 -0.713645 -3.52688
  1317 281.911 6.30735 -76.7066
  1318 281.896 6.00370 77.3027
  1319 2.87397 -104.263 -12.0847
  1320 112.152 27.0463 -20.5963
  1321 111.665 27.3486 20.7494
  1322 -1.11126 -0.949780 -1.42396
  1323 -1.11680 -0.949935 1.42806
  1324 358.472 8.85005 28.6713
  1325 358.335 8.93608 -28.6281
  1326 182.165 12.6836 6.36220
  1327 182.188 12.6778 -6.34456
  1328 264.817 12.6307 -15.1381
  1329 264.856 12.6153 15.1715
  1330 342.386 0.0860296 -3.56847
  1331 342.464 0.0849778 3.57096
  1332 -10.8088 -5.18264 -12.4705
  1333 -10.8049 -5.17522 12.4747
  1334 -97.7003 -0.174154 3.92618
  1335 -97.8758 -0.173776 -3.93247
  1336 -18.0650 -8.12802 -29.9908
  1337 -18.0447 -8.08399 29.9526
  1338 -52.0151 0.300172 1.57078
  1339 -52.1670 0.299912 -1.57277
  1340 -153.765 1.33196 0.622439
  1341 -153.978 1.33251 -0.623279
  1342 638.415 -71.9929 124.464
  1343 481.969 -1.93827 -48.8065
</Section>

newXOutput 77

<Section columns = "stress_xx | stress_yy | stress_xy">
  1 556.546 -1.11005 0.608891
  2 556.753 -1.11096 -0.609204
  3 -168.543 0.719836 -2.33603
  4 0.266630 0.0573198 0.479237
  5 990.619 323.221 336.477
  6 1120.78 362.357 -324.882
  7 0.265264 0.0561014 -0.477418
  8 -168.317 0.719704 2.33460
  9 554.962 -1.06835 -1.85582
  10 555.480 -1.93846 -2.96353
  11 560.666 -1.95285 -0.843774
  12 561.368 -1.94704 -3.56138
  13 563.050 -1.93902 -1.20839
  14 574.605 -1.77637 -1.63391
  15 578.824 -2.46394 -4.78832
  16 583.585 -1.32345 -3.34564
  17 586.850 -0.258283 -6.44204
  18 610.216 -3.70544 -5.50924
  19 620.769 -3.00376 -7.01165
  20 632.718 -4.31816 -3.11172
  21 638.991 -5.54130 -2.19205
  22 636.656 -6.19570 7.05122
  23 618.127 -6.73737 15.4624
  24 573.713 -7.02761 33.8931
  25 499.757 4.77507 39.7082
  26 440.241 6.12127 36.4229
  27 355.978 10.9337 22.0080
  28 376.899 10.6130 2.54229
  29 322.678 30.7722 -13.7009
  30 421.005 14.5272 -40.4680
  31 473.486 4.03859 -32.9223
  32 563.629 -1.23398 -28.5884
  33 612.314 -8.16799 -18.6974
  34 636.073 -7.20033 -6.97193
  35 638.086 -5.38788 2.25244
  36 632.128 -4.26826 2.96670
  37 620.612 -3.01951 6.83745
  38 610.251 -3.74606 5.41381
  39 587.011 -0.280557 6.40133
  40 583.786 -1.33185 3.33231
  41 579.042 -2.46974 4.78634
  42 574.826 -1.77956 1.63351
  43 563.265 -1.94141 1.20930
  44 561.582 -1.94910 3.56446
  45 560.878 -1.95448 0.844964
  46 555.688 -1.93996 2.96593
  47 555.169 -1.06926 1.85731
  48 526.214 0.776448 -0.724859
  49 488.745 -0.470465 -1.55623
  50 441.679 -2.89810 -1.48820
  51 392.625 -0.239036 -1.23747
  52 349.383 -0.769010 -0.971065
  53 302.884 0.688349 -1.13789
  54 256.759 3.13956 -0.629151
  55 208.638 2.65902 -1.41604
  56 168.566 1.47194 -2.02595
  57 115.760 0.502325 -2.13471
  58 61.9378 1.82186 -1.63938
  59 16.8954 1.55841 -1.58624
  60 -39.4659 0.761325 -1.42529
  61 -81.3842 -0.961575 -3.66883
  62 -122.022 -2.99273 -1.65536
  63 -163.349 0.259077 1.19192
  64 -172.436 2.94619 -0.343453
  65 -173.237 1.25778 0.635780
  66 -167.557 0.579182 -0.0719347
  67 -169.897 1.87097 -1.97429
  68 -167.455 2.30006 0.0171617
  69 -158.619 0.660760 -3.08168
  70 -161.126 1.42774 -3.34571
  71 -157.401 1.34000 -1.78367
  72 -145.944 0.808342 -2.78764
  73 -141.106 1.53758 -4.75169
  74 -132.777 1.74566 -3.83561
  75 -117.803 0.881130 -6.87461
  76 -109.466 0.276096 -5.73570
  77 -94.1507 0.394407 -6.68532
  78 -81.0411 0.337287 -7.47310
  79 -69.4891 0.126490 -5.90150
  80 -53.3071 0.360291 -5.96463
  81 -39.3018 -0.123871 -6.41070
  82 -25.7366 -0.680199 -5.67187
  83 -14.9453 -0.599770 -4.37139
  84 -7.39635 -1.07082 -3.67208
  85 -1.31542 -0.620742 -1.33531
  86 0.0261246 -0.703471 -0.493206
  87 -0.376910 -0.415221 -0.120688
  88 -0.973753 -1.09016 -1.17338
  89 -0.947612 -6.27128 -3.19590
  90 -0.796012 -13.9531 -4.51778
  91 -0.402213 -23.6481 -6.56492
  92 -0.197776 -36.2474 -5.65328
  93 -0.138556 -47.7468 -7.10616
  94 -0.854301 -61.6645 -7.98289
  95 -0.351502 -78.9270 -8.01716
  96 0.160291 -96.3007 -7.65269
  97 0.372029 -114.862 -7.52759
  98 0.587002 -133.859 -7.36335
  99 -0.0100170 -147.506 -9.93265
  100 0.946762 -167.226 -8.85867
  101 1.19712 -190.208 -6.90819
  102 -0.195131 -199.542 -9.14515
  103 1.69617 -215.427 -8.34849
  104 4.31540 -236.389 -3.19907
  105 8.49570 -240.082 -5.11134
  106 6.39686 -213.024 9.08498
  107 10.0418 -149.494 30.9199
  108 44.5228 -61.9808 81.7863
  109 134.082 251.681 251.898
  110 1514.87 85.8011 153.693
  111 1306.27 24.0590 55.2247
  112 1264.32 7.99564 12.9816
  113 1254.94 1.84010 -1.99317
  114 1263.85 12.8144 -29.0514
  115 1305.75 44.1711 -66.1280
  116 1477.46 167.594 -195.692
  117 326.421 198.342 -306.195
  118 76.2779 -62.2147 -97.0841
  119 22.7672 -164.093 -38.0015
  120 6.48100 -201.096 -9.49556
  121 6.92396 -230.546 1.87610
  122 1.91564 -226.781 2.10060
  123 0.611048 -209.981 6.87342
  124 0.709582 -198.453 5.39246
  125 1.04998 -179.511 9.90751
  126 -0.0482836 -168.872 9.79642
  127 0.413674 -152.818 7.01991
  128 0.838993 -132.307 9.06611
  129 0.182174 -117.600 7.17602
  130 0.238084 -96.3577 9.07946
  131 -0.963311 -79.8972 7.82321
  132 -0.652982 -61.7105 7.72694
  133 -0.0902264 -47.4724 7.12147
  134 -0.261447 -36.0344 5.66013
  135 -0.390990 -23.5784 6.49952
  136 -0.783956 -13.9442 4.49506
  137 -0.942491 -6.28094 3.19368
  138 -0.972357 -1.10081 1.17578
  139 -0.376829 -0.419748 0.123751
  140 0.0205823 -0.704085 0.495923
  141 -1.32567 -0.620291 1.33865
  142 -7.41109 -1.06961 3.67509
  143 -14.9643 -0.597750 4.37200
  144 -25.7502 -0.677718 5.66893
  145 -39.3020 -0.121818 6.40331
  146 -53.2914 0.360698 5.95605
  147 -69.4516 0.127592 5.89239
  148 -80.9833 0.338672 7.46231
  149 -94.0653 0.394453 6.67366
  150 -109.355 0.276125 5.72441
  151 -117.673 0.880569 6.86309
  152 -132.622 1.74451 3.82628
  153 -140.936 1.53626 4.74368
  154 -145.759 0.807466 2.78215
  155 -157.201 1.33900 1.77983
  156 -160.919 1.42696 3.34153
  157 -158.408 0.660534 3.07810
  158 -167.235 2.29880 -0.0185262
  159 -169.674 1.86998 1.97221
  160 -167.334 0.579067 0.0713086
  161 -173.009 1.25722 -0.635734
  162 -172.208 2.94466 0.342992
  163 -163.125 0.259222 -1.19144
  164 -121.825 -2.99045 1.65422
  165 -81.2118 -0.960373 3.66658
  166 -39.3186 0.761429 1.42419
  167 17.0094 1.55785 1.58513
  168 62.0255 1.82091 1.63829
  169 115.817 0.502016 2.13337
  170 168.592 1.47108 2.02477
  171 208.640 2.65764 1.41527
  172 256.732 3.13802 0.628854
  173 302.830 0.688390 1.13730
  174 349.301 -0.768037 0.970549
  175 392.517 -0.238388 1.23680
  176 441.541 -2.89576 1.48748
  177 488.579 -0.469751 1.55538
  178 526.024 0.776273 0.724470
  179 154.625 25.2822 -10.2557
  180 154.519 25.3427 10.3252
  181 -0.692637 5.53660 39.8127
  182 -0.863656 5.48537 -39.8479
  183 344.446 -4.28556 -81.1487
  184 344.129 -4.91124 81.9351
  185 71.6498 18.7500 -8.89281
  186 70.8126 19.0166 8.89275
  187 55.4919 7.52148 -4.56466
  188 55.5898 7.51139 4.55966
  189 323.866 4.20441 -12.7292
  190 323.937 4.19167 12.7426
  191 -1.09484 12.5995 20.4579
  192 -1.23811 12.6295 -20.4942
  193 375.850 7.76315 -31.1456
  194 376.022 7.65743 31.1997
  195 -14.0638 -12.1146 33.0791
  196 -14.0644 -12.1906 -33.1287
  197 4.25372 -27.5950 -37.7187
  198 121.247 12.5334 -77.6279
  199 5.02416 -29.6205 36.7115
  200 119.370 13.4208 78.6876
  201 530.077 -66.4763 -116.610
  202 547.609 -69.0585 112.282
  203 195.307 4.54350 -3.06547
  204 195.296 4.54487 3.06927
  205 -23.6416 1.39515 -3.62453
  206 -23.5036 1.39391 3.61993
  207 -39.5626 6.57932 30.8041
  208 -39.6880 6.58987 -30.8687
  209 196.511 15.9002 -8.21840
  210 196.493 15.9081 8.24367
  211 62.6272 25.3503 11.2408
  212 62.3788 25.4957 -11.3169
  213 -48.8970 5.34546 -11.8218
  214 -48.7466 5.33602 11.8026
  215 425.353 -0.899630 5.81411
  216 425.225 -0.895800 -5.81019
  217 14.9256 -51.3144 12.9887
  218 16.2049 -45.9505 -10.8731
  219 -3.65062 -34.5212 36.9868
  220 -3.76759 -35.9681 -35.8623
  221 182.569 25.7059 -35.7746
  222 182.373 25.8398 36.0600
  223 -36.9378 0.143779 31.8638
  224 -37.0089 0.136676 -31.9176
  225 454.937 1.10369 -16.5452
  226 455.087 1.07328 16.5429
  227 491.409 -8.40568 -33.1240
  228 491.813 -8.86305 33.0518
  229 789.767 57.8858 1.34073
  230 724.992 83.4098 30.7812
  231 708.878 0.822212 -51.5944
  232 92.6936 18.4472 5.02088
  233 92.5923 18.4812 -5.01697
  234 9.67900 16.2864 29.4511
  235 9.51126 16.3329 -29.5132
  236 549.155 -33.0379 -24.8491
  237 546.058 -33.4122 26.6778
  238 306.417 0.727877 -4.84496
  239 306.473 0.725750 4.84895
  240 -64.0474 4.63638 20.1812
  241 -64.1898 4.64677 -20.2193
  242 -9.19508 -9.03052 -15.1194
  243 -9.18482 -9.02251 15.1262
  244 -68.6917 1.29968 5.68929
  245 -68.8540 1.30202 -5.69785
  246 254.862 16.9775 -22.3996
  247 254.894 16.9582 22.4727
  248 322.520 8.36135 -47.1065
  249 322.734 8.23174 47.2975
  250 83.2041 3.58250 0.487125
  251 83.2804 3.57989 -0.487670
  252 189.049 12.8625 -160.717
  253 222.530 17.3151 173.873
  254 27.6553 13.1880 27.0490
  255 27.5401 13.4397 -27.1946
  256 740.327 -47.0798 -25.8109
  257 70.1210 24.2414 9.83552
  258 69.9718 24.3059 -9.84456
  259 186.104 21.1752 -63.2876
  260 185.724 21.6437 63.8613
  261 831.954 122.913 5.93052
  262 493.305 -1.10223 22.3689
  263 493.095 -0.972409 -22.4093
  264 -4.35156 -27.2927 -23.4896
  265 -4.21142 -27.3964 23.5782
  266 -0.796914 -64.0228 -31.6775
  267 2.56746 -73.2648 -28.0588
  268 1.44232 -73.9574 29.8660
  269 -11.4052 -9.76132 41.8640
  270 -11.4619 -9.75400 -42.0508
  271 28.3209 -52.2633 -16.7775
  272 30.5460 -47.3744 21.6076
  273 -28.2226 -2.28194 20.5921
  274 -28.2439 -2.29326 -20.6147
  275 354.740 7.83059 -19.7516
  276 354.846 7.79227 19.7732
  277 616.040 -60.5283 -11.7682
  278 142.306 10.0623 1.74483
  279 142.353 10.0541 -1.73937
  280 -1.45320 -60.1847 30.3524
  281 18.6251 11.9566 12.3022
  282 18.4975 11.9798 -12.3202
  283 970.056 66.0083 -30.6394
  284 476.846 -0.897443 7.01442
  285 476.688 -0.890736 -7.01175
  286 327.966 -12.7679 -120.731
  287 330.605 -12.5315 122.382
  288 615.325 -57.5198 1.86577
  289 -56.8143 1.89168 25.0027
  290 -56.9040 1.89088 -25.0481
  291 599.375 -37.1209 194.168
  292 -24.0014 4.86184 37.5074
  293 -24.1120 4.85151 -37.5859
  294 107.238 29.2368 -13.1876
  295 106.815 29.5017 13.2780
  296 -99.6449 0.492919 0.916032
  297 -99.8283 0.492640 -0.917513
  298 506.538 24.9836 -261.639
  299 -95.9320 1.83255 -10.6429
  300 -95.7680 1.82836 10.6236
  301 -1.66950 -10.9555 41.9428
  302 -0.0718441 -10.5568 -41.3765
  303 229.465 21.8147 -32.0476
  304 229.451 21.8268 32.2171
  305 55.3162 4.59947 3.45692
  306 55.2219 4.60431 -3.46081
  307 237.549 7.01346 -7.38584
  308 237.564 7.01230 7.39558
  309 23.9504 -12.6980 18.6633
  310 21.8549 -15.9128 -19.0375
  311 230.626 2.07406 -2.03189
  312 230.637 2.07455 2.03368
  313 -80.0267 2.11048 18.1174
  314 -80.1459 2.11334 -18.1523
  315 59.9960 -0.207145 -20.1356
  316 58.3030 -0.307223 18.5760
  317 495.775 -1.41873 1.97137
  318 495.605 -1.41714 -1.96938
  319 1072.36 59.9294 46.0046
  320 119.336 13.7536 0.467805
  321 119.267 13.7701 -0.460542
  322 -17.8685 4.78551 7.63410
  323 -18.0049 4.79348 -7.64602
  324 161.786 19.7807 -7.33307
  325 161.728 19.8051 7.37205
  326 21.5739 17.2615 30.2314
  327 21.4357 17.2933 -30.3322
  328 2.53052 -106.721 20.2306
  329 -103.896 -0.113247 -2.24465
  330 -103.711 -0.112894 2.24135
  331 382.551 -0.750593 -3.82321
  332 382.652 -0.752435 3.82599
  333 402.641 0.940202 -10.1307
  334 402.756 0.929568 10.1362
  335 -97.7570 1.45037 -7.49558
  336 -97.5823 1.44775 7.48406
  337 5.19244 1.01474 0.587345
  338 5.07138 1.01512 -0.588683
  339 -2.21517 -45.0852 23.3457
  340 -1.74990 -46.8997 -23.3113
  341 456.758 -36.3097 -82.3904
  342 473.706 -43.4998 81.0062
  343 273.643 11.0938 -14.0690
  344 273.684 11.0819 14.0930
  345 124.219 27.8682 -8.92331
  346 123.997 28.0002 8.99468
  347 -36.9319 7.65695 17.1489
  348 -37.0770 7.67355 -17.1798
  349 833.166 30.7394 36.1467
  350 47.3686 -51.8352 -57.9261
  351 50.6515 -46.8416 60.2336
  352 -14.1157 12.9652 28.1610
  353 -14.2641 12.9945 -28.2184
  354 -22.3345 -4.14388 37.3039
  355 -22.4006 -4.15810 -37.3792
  356 946.422 166.446 -58.2323
  357 619.859 -5.01308 68.5919
  358 570.726 -14.2354 -15.9694
  359 570.391 -13.9019 15.1687
  360 405.445 -5.70878 -52.7596
  361 404.948 -6.05918 52.8063
  362 0.808205 -128.595 -16.0271
  363 520.410 0.146730 -12.4172
  364 520.584 0.111362 12.3948
  365 7.16923 -119.270 11.1728
  366 621.026 49.2714 -33.8441
  367 154.560 3.31580 1.20666
  368 154.526 3.31774 -1.20736
  369 406.893 1.33927 -39.1288
  370 407.144 1.17290 39.2009
  371 435.486 1.75949 -23.4300
  372 435.646 1.68527 23.4286
  373 -1.53473 3.95666 4.81483
  374 -1.66126 3.96160 -4.82185
  375 256.169 14.1585 -63.8552
  376 256.186 14.3301 64.3561
  377 510.571 -1.18222 3.21113
  378 510.391 -1.18002 -3.20841
  379 297.432 14.3370 -32.8081
  380 297.528 14.2706 32.9216
  381 339.991 3.20429 8.54122
  382 339.914 3.20898 -8.53455
  383 -16.1099 -2.84312 12.8262
  384 -16.1112 -2.85119 -12.8283
  385 -3.87064 -2.73961 -3.81136
  386 -3.87218 -2.74061 3.81702
  387 683.858 -77.8061 58.1669
  388 -8.58645 -20.9311 34.3929
  389 -8.52390 -21.1226 -34.4046
  390 118.414 5.69371 -0.535683
  391 118.472 5.68899 0.536136
  392 -3.36890 -17.1139 12.8972
  393 -3.40863 -17.0894 -12.9005
  394 48.5370 18.9275 12.9424
  395 48.4044 18.9695 -12.9587
  396 558.667 -3.44769 16.5742
  397 558.419 -3.26325 -16.7973
  398 -0.751873 -31.5370 40.4348
  399 -45.6875 -0.742912 19.3500
  400 -45.7290 -0.747609 -19.3784
  401 -0.929197 -33.4132 -39.9868
  402 522.894 -0.788851 7.92789
  403 522.712 -0.778417 -7.93086
  404 -2.08877 12.4315 35.8666
  405 -2.28013 12.4636 -35.9561
  406 391.389 3.81831 -15.9372
  407 391.503 3.79470 15.9452
  408 599.451 -25.4232 -9.11951
  409 600.715 -20.7521 6.48467
  410 -1.11809 -61.2368 -25.4612
  411 57.8291 22.1156 -6.29995
  412 58.2957 21.9044 6.21468
  413 612.873 39.4541 20.7270
  414 345.038 -12.4820 -165.374
  415 353.662 -18.6644 172.600
  416 24.8257 18.4390 21.6666
  417 24.6724 18.4864 -21.7059
  418 254.697 4.75639 -5.05779
  419 254.722 4.75620 5.06287
  420 247.547 60.5360 260.940
  421 106.521 22.8137 -2.14775
  422 106.638 22.7609 2.16466
  423 7.01483 -54.7881 25.3967
  424 -0.724454 -99.0987 -21.7615
  425 44.4002 23.0758 19.2714
  426 44.2260 23.1444 -19.3198
  427 55.3841 12.1382 -7.26480
  428 55.4901 12.1192 7.25784
  429 -15.4599 -0.0185505 -41.4362
  430 -15.3506 -0.0426972 41.3543
  431 126.053 25.5798 -29.3443
  432 125.510 25.9328 29.5680
  433 606.419 -17.9068 -52.4368
  434 19.0915 -3.23437 29.4801
  435 18.5101 -3.12102 -29.7065
  436 442.151 -19.2610 -58.2465
  437 443.861 -20.5207 58.2106
  438 -106.426 0.767575 -10.6873
  439 -106.273 0.764923 10.6668
  440 -0.00677968 -97.7644 19.7046
  441 -0.662623 -62.3043 22.7093
  442 -42.8779 3.08464 31.9217
  443 -42.9714 3.08138 -31.9813
  444 317.075 0.565866 -1.85977
  445 317.137 0.565185 1.86129
  446 -9.24236 -14.6192 23.6323
  447 -9.26118 -14.6562 -23.6123
  448 202.498 13.6997 -92.0939
  449 202.053 14.5387 92.9917
  450 1.69246 -116.484 -20.8261
  451 1069.94 35.2616 0.296213
  452 3.23228 -134.537 -10.0971
  453 -123.271 -0.302950 -3.55465
  454 -123.078 -0.302897 3.54976
  455 -46.3350 6.99272 25.2257
  456 -46.4731 7.00738 -25.2765
  457 -57.2356 0.861075 19.3229
  458 -57.2971 0.860310 -19.3536
  459 220.296 20.7226 -22.6990
  460 220.283 20.7393 22.8013
  461 328.263 10.8100 -25.3339
  462 328.369 10.7529 25.3862
  463 -4.70389 -18.8336 41.9639
  464 -4.71141 -18.7087 -42.1447
  465 574.705 12.7915 -65.9123
  466 41.3675 -5.04826 -0.858499
  467 39.9148 -5.40676 1.61296
  468 9.65240 -117.211 -5.89627
  469 6.36405 -137.727 1.34140
  470 -16.8863 -7.44101 24.2888
  471 -16.8982 -7.46996 -24.3037
  472 124.463 8.97391 -140.743
  473 849.565 19.9646 -99.4986
  474 200.859 10.6469 7.61626
  475 200.869 10.6437 -7.60109
  476 290.143 4.23560 -87.6196
  477 290.684 4.15631 88.7989
  478 88.6801 29.0706 4.37132
  479 88.4980 29.1716 -4.37026
  480 262.404 18.4580 -47.6885
  481 262.468 18.3902 47.9886
  482 11.6865 6.80217 36.0892
  483 12.2673 7.09421 -36.0450
  484 -110.037 1.46472 -7.55544
  485 -109.860 1.46253 7.54277
  486 565.130 -63.4511 -49.7726
  487 445.864 -1.29269 -2.65669
  488 446.004 -1.29423 2.65886
  489 31.0086 1.97885 -1.67034
  490 31.1151 1.97706 1.66761
  491 -24.6127 10.1996 22.9077
  492 -24.7577 10.2232 -22.9509
  493 -59.1890 3.45403 -7.73674
  494 -59.0328 3.44869 7.72433
  495 201.064 17.2630 -11.4647
  496 201.046 17.2707 11.5038
  497 -20.4518 9.26994 33.2712
  498 -20.5942 9.28922 -33.3470
  499 516.864 -15.5580 -31.5385
  500 517.760 -16.2392 31.2343
  501 344.095 2.89737 -58.6797
  502 343.540 2.70592 59.1462
  503 132.449 4.10983 -0.140280
  504 132.497 4.10716 0.140285
  505 1.76977 -58.7538 -33.8489
  506 608.223 -20.4824 42.7484
  507 9.36771 -36.6592 -29.1150
  508 178.272 27.1478 24.0463
  509 178.409 27.0552 -23.8842
  510 559.027 -59.3554 49.3246
  511 45.5715 -37.8445 77.1719
  512 661.542 -76.0235 -94.9814
  513 453.337 0.0965322 28.2950
  514 453.117 0.247153 -28.2934
  515 1.76733 -49.9831 35.2383
  516 -8.91538 -2.62655 -6.92215
  517 -8.91848 -2.62475 6.92644
  518 62.4553 1.54425 -0.324091
  519 62.5429 1.54334 0.323293
  520 -1.49477 -35.1014 15.1008
  521 -1.35606 -34.9425 -15.1829
  522 373.935 1.76182 6.56259
  523 373.838 1.76429 -6.55802
  524 1034.06 192.971 91.4842
  525 46.4654 -19.6938 -20.0581
  526 36.3682 -29.0229 12.4659
  527 -4.59675 7.26218 -10.3957
  528 -4.46410 7.24847 10.3796
  529 -89.4511 1.39964 11.4630
  530 -89.5515 1.40117 -11.4835
  531 0.953677 -109.717 21.0542
  532 -120.090 0.819908 0.791794
  533 -120.285 0.819921 -0.793408
  534 120.599 2.86569 -105.117
  535 118.091 4.57147 108.839
  536 110.948 22.0542 -39.8306
  537 110.130 22.5043 40.0191
  538 -23.7176 -4.72161 32.8555
  539 -23.7617 -4.74482 -32.9108
  540 110.445 7.78618 0.313483
  541 110.380 7.79356 -0.312345
  542 -46.5126 1.82882 2.88323
  543 -46.6635 1.83050 -2.88844
  544 128.789 16.5385 -0.849267
  545 128.718 16.5625 0.864659
  546 -2.43940 -8.06756 5.93445
  547 -2.44815 -8.06127 -5.93359
  548 48.3847 20.9673 16.1388
  549 48.0691 21.2354 -16.2664
  550 39.0759 8.89693 13.3989
  551 38.5476 8.85480 -13.7367
  552 456.367 1.55892 11.8504
  553 456.220 1.57136 -11.8476
  554 406.401 3.39464 19.2657
  555 406.270 3.43573 -19.2588
  556 -0.410503 -94.5638 -13.7679
  557 288.607 12.1662 -19.9994
  558 288.666 12.1417 20.0404
  559 288.603 4.40491 -7.97524
  560 288.650 4.40036 7.98391
  561 -31.0508 0.588305 0.258308
  562 -30.9085 0.588466 -0.258806
  563 511.135 26.1098 -12.6779
  564 635.737 -75.3314 -39.4629
  565 540.269 26.2066 49.0869
  566 4.81677 -76.7969 -23.4663
  567 -22.5498 8.36833 -14.4160
  568 -22.4085 8.35209 14.3925
  569 5.26860 -43.8742 32.4883
  570 -26.7298 1.26467 37.0705
  571 -26.8181 1.25740 -37.1373
  572 815.336 78.0569 7.84667
  573 191.143 6.58972 -4.07762
  574 191.128 6.59195 4.08358
  575 1198.85 104.134 -110.609
  576 -4.43706 -3.33683 42.5829
  577 -3.98106 -3.00326 -42.5998
  578 671.581 -54.3471 16.8749
  579 537.503 -0.556625 -13.7233
  580 537.681 -0.617757 13.6731
  581 255.775 4.21473 -125.999
  582 258.605 3.38737 127.738
  583 -13.1860 -12.5691 37.8946
  584 -13.2025 -12.6401 -38.0052
  585 136.717 16.0843 70.3218
  586 137.839 15.1466 -69.8481
  587 -103.818 1.15631 -10.5658
  588 -103.678 1.15437 10.5457
  589 790.804 77.3917 29.5049
  590 157.628 12.1884 3.25680
  591 157.668 12.1788 -3.24622
  592 185.200 23.2876 -49.1203
  593 184.917 23.5586 49.5494
  594 489.819 -2.60965 -27.4847
  595 490.104 -2.82590 27.4587
  596 -1.92981 -48.2095 -33.9160
  597 527.096 -1.34220 4.16273
  598 526.905 -1.33929 -4.16018
  599 -70.0009 0.972406 -0.933342
  600 -69.8359 0.972145 0.930984
  601 -129.030 -1.18173 -0.0679880
  602 -129.232 -1.18293 0.0676417
  603 12.4579 -67.8829 -7.87658
  604 -4.77474 -31.6543 29.4812
  605 -5.03606 -29.8988 -29.6754
  606 -58.3369 3.78390 26.4039
  607 -58.4469 3.78821 -26.4545
  608 375.542 7.03202 24.5731
  609 375.412 7.09496 -24.5487
  610 278.467 1.34546 1.82795
  611 278.427 1.34526 -1.82660
  612 66.1066 -8.98679 47.2443
  613 68.0316 -7.63247 -46.8720
  614 -1.87356 -24.5327 12.8017
  615 -1.93485 -24.4586 -12.8472
  616 630.628 66.3536 280.284
  617 -31.5964 -0.921346 11.8029
  618 -31.6030 -0.926066 -11.8145
  619 12.6020 -40.5716 -22.2726
  620 273.176 8.44318 -10.8690
  621 273.214 8.43673 10.8841
  622 137.753 28.3190 -19.5292
  623 137.467 28.4974 19.6806
  624 1.29744 -162.105 6.81801
  625 104.712 26.7747 0.915608
  626 104.571 26.8497 -0.895146
  627 -5.26643 10.6725 17.4131
  628 -5.40578 10.6956 -17.4420
  629 -0.750102 -83.0019 18.7669
  630 -130.495 -0.0497451 -3.60097
  631 -130.299 -0.0499408 3.59571
  632 182.701 2.68299 1.69078
  633 182.719 2.68191 -1.68902
  634 444.751 -0.360660 7.99566
  635 444.612 -0.354612 -7.99125
  636 397.472 -17.8794 214.701
  637 320.480 5.69924 -15.5542
  638 320.553 5.67962 15.5731
  639 6.94810 -4.47592 38.4309
  640 8.22563 -1.73611 -38.2361
  641 507.870 -42.3009 -174.983
  642 1161.78 38.9119 -45.9023
  643 -122.025 0.00406809 -7.16786
  644 -121.857 0.00291665 7.15515
  645 37.0769 5.54475 -4.15348
  646 37.1827 5.53789 4.14807
  647 -2.20114 -51.5700 30.1574
  648 690.380 46.2572 -56.6490
  649 520.884 -1.57550 0.768384
  650 520.697 -1.57410 -0.767437
  651 -33.2616 -1.64371 -27.1409
  652 -33.2178 -1.63397 27.1009
  653 -0.117550 -117.244 -17.6974
  654 529.618 -1.49075 1.61221
  655 529.426 -1.48932 -1.61040
  656 55.3327 16.0768 10.6455
  657 55.2144 16.1078 -10.6557
  658 413.933 -32.7883 -116.213
  659 420.911 -32.5895 117.365
  660 592.618 -4.44569 9.83534
  661 592.577 -4.41464 -10.1649
  662 2.67659 -145.954 13.0075
  663 -25.1642 0.245483 -1.61330
  664 -25.0254 0.245522 1.61070
  665 198.521 45.9103 -206.580
  666 189.718 2.14809 1.80510
  667 189.732 2.14698 -1.80392
  668 97.3787 5.12976 -0.369427
  669 97.3097 5.13397 0.369233
  670 114.214 10.2456 0.695115
  671 114.280 10.2346 -0.690900
  672 353.712 8.10649 -38.0583
  673 353.900 7.98286 38.1611
  674 98.1358 27.7860 -4.12578
  675 97.8326 27.9774 4.14479
  676 -58.2509 4.33929 -14.0484
  677 -58.0989 4.32914 14.0242
  678 -69.3243 4.83308 -16.3639
  679 -69.1742 4.82333 16.3336
  680 611.114 -9.62450 -0.0143352
  681 1.66392 -22.6217 -40.0681
  682 611.617 -10.0913 -0.710271
  683 786.533 60.0872 -5.75974
  684 -76.0543 0.383318 13.1150
  685 -76.1320 0.382653 -13.1379
  686 85.4914 25.4401 -10.4135
  687 84.8880 25.7185 10.4472
  688 -139.812 -0.0684201 -1.10885
  689 -139.606 -0.0682040 1.10665
  690 2.23840 -20.1215 40.0155
  691 -46.8814 0.831068 28.2120
  692 -46.9598 0.827087 -28.2608
  693 672.753 -50.5261 -19.3043
  694 113.368 1.05430 -1.14971
  695 113.310 1.05498 1.15012
  696 30.9792 8.86820 7.59744
  697 30.8652 8.88181 -7.60665
  698 362.308 -14.7587 -97.9383
  699 364.802 -15.3474 99.6686
  700 1210.13 87.3849 99.8133
  701 25.7373 -95.2001 -47.6722
  702 -8.26443 -17.7898 40.3163
  703 -8.26789 -17.8703 -40.4215
  704 81.5113 15.5497 -4.48220
  705 81.6073 15.5255 4.48232
  706 544.507 -1.32055 -4.20747
  707 544.708 -1.32402 4.20844
  708 266.716 2.30399 3.61760
  709 266.684 2.30470 -3.61422
  710 25.8466 19.8944 26.5461
  711 25.6808 19.9516 -26.6121
  712 20.6486 3.85123 2.88541
  713 20.5356 3.85486 -2.88963
  714 -13.4847 4.56451 40.2109
  715 -13.6086 4.55390 -40.3089
  716 450.641 -1.83749 3.43465
  717 450.498 -1.83486 -3.43182
  718 392.601 1.47937 9.22959
  719 392.493 1.48525 -9.22374
  720 56.3147 -23.7248 55.6776
  721 57.7842 -26.1945 -54.0400
  722 -27.9659 6.94373 35.0333
  723 -28.0906 6.94824 -35.1101
  724 17.9216 -32.4086 16.2325
  725 4.17812 12.7304 35.9134
  726 3.97864 12.7556 -35.9807
  727 -81.4818 2.15650 -9.15508
  728 -81.3171 2.15215 9.13931
  729 74.3418 21.4159 9.00810
  730 74.2093 21.4659 -9.01091
  731 608.337 -17.7622 -28.4277
  732 575.587 -48.8114 -19.8986
  733 -9.01559 -18.5154 29.0561
  734 -9.00736 -18.6090 -29.0254
  735 229.785 6.67132 -148.459
  736 224.099 11.2596 149.589
  737 142.089 26.9938 -27.5904
  738 141.713 27.2510 27.8194
  739 13.3981 -18.5900 30.3761
  740 -0.776973 -61.8740 -16.4787
  741 289.730 14.1892 -36.6625
  742 289.837 14.1270 36.8258
  743 0.687643 -120.737 15.0301
  744 175.647 22.0961 -12.6923
  745 175.587 22.1267 12.7557
  746 573.202 -1.21979 -10.3523
  747 573.348 -1.28322 10.2471
  748 12.1303 -152.184 7.71170
  749 267.089 17.8062 28.2741
  750 267.037 17.8346 -28.1717
  751 75.5421 26.4663 -2.16742
  752 75.9308 26.2169 2.11203
  753 -102.951 0.672762 -9.00975
  754 -102.831 0.672073 8.99218
  755 293.807 2.82952 -6.79844
  756 293.856 2.82696 6.80448
  757 185.385 24.9209 -20.5687
  758 185.298 24.9749 20.6883
  759 5.45148 15.7276 27.0689
  760 5.29498 15.7694 -27.1226
  761 577.251 -41.9068 12.7287
  762 -83.5639 1.55433 6.87402
  763 -83.7335 1.55662 -6.88372
  764 1208.59 254.558 -180.640
  765 -27.3077 2.74075 6.80501
  766 -27.4481 2.74517 -6.81460
  767 488.705 -0.116765 19.4089
  768 488.528 -0.0443482 -19.4361
  769 907.634 54.1293 -1.00197
  770 549.131 -2.20661 -7.82073
  771 549.324 -2.21852 7.81306
  772 357.171 3.06950 11.7999
  773 357.082 3.07922 -11.7913
  774 531.965 -52.7615 159.765
  775 236.329 14.9270 -12.0435
  776 236.343 14.9243 12.0742
  777 5.78269 -86.6236 15.9490
  778 608.877 -71.6548 57.6536
  779 370.932 -0.997436 1.96978
  780 370.837 -0.996149 -1.96838
  781 480.841 -1.00605 1.03998
  782 480.679 -1.00491 -1.03893
  783 -2.04011 -48.2363 -28.3024
  784 3.25568 -79.9327 25.8731
  785 225.157 23.8425 39.2655
  786 225.197 23.8088 -39.0107
  787 1192.01 10.0865 11.1629
  788 380.453 1.83408 -46.9173
  789 380.690 1.68674 47.0466
  790 -75.0175 2.48569 19.4877
  791 -75.1522 2.49179 -19.5241
  792 17.3854 -60.2931 1.12192
  793 11.0870 -140.533 -15.2806
  794 856.306 112.846 -24.5373
  795 -0.718443 -61.7517 14.8872
  796 20.5522 13.9743 31.2924
  797 20.4805 13.9606 -31.4806
  798 121.114 21.5621 -0.438015
  799 121.022 21.6028 0.458772
  800 571.570 -26.5496 -12.2957
  801 573.017 -26.1335 10.6630
  802 661.282 128.451 -266.085
  803 -85.5938 0.566064 -2.77077
  804 -85.4211 0.565391 2.76572
  805 -43.2830 -0.138970 11.0665
  806 -43.3012 -0.141078 -11.0807
  807 44.8290 6.92641 5.23457
  808 43.9066 6.89116 -5.35777
  809 436.679 -3.78771 42.0554
  810 436.374 -3.46978 -41.9281
  811 226.392 3.74987 -2.62106
  812 226.400 3.75051 2.62411
  813 700.272 -3.14635 51.0256
  814 80.4895 10.5086 -4.11671
  815 80.5779 10.4945 4.11507
  816 73.1007 13.3106 -17.8105
  817 72.4619 13.6151 17.9446
  818 0.266906 -46.2925 -37.0573
  819 970.453 173.355 155.363
  820 -138.118 0.0518852 -3.65619
  821 -137.922 0.0517568 3.65023
  822 -0.195407 -145.946 13.7757
  823 11.9989 -18.4442 -30.8596
  824 -21.6760 -1.28608 8.32212
  825 -21.6698 -1.28971 -8.32612
  826 787.184 56.1206 -28.6297
  827 212.040 18.7759 -15.2391
  828 212.026 18.7850 15.3001
  829 541.170 -9.06683 -21.3355
  830 541.717 -9.12510 21.1032
  831 -132.776 0.903031 5.02172
  832 -132.960 0.904458 -5.03055
  833 -1.00653 -1.03846 -0.877631
  834 -1.00857 -1.04028 0.881109
  835 0.381355 -149.110 -13.3131
  836 0.682092 -154.793 -11.3248
  837 -143.438 1.25585 0.635745
  838 -143.648 1.25622 -0.636636
  839 87.3141 -9.80754 -101.476
  840 338.717 1.94925 -3.70458
  841 338.793 1.94847 3.70745
  842 -3.17668 1.71690 0.837436
  843 -3.30258 1.71749 -0.838358
  844 496.577 0.0456734 -12.7669
  845 496.745 0.0219579 12.7585
  846 -56.7555 0.386225 10.4818
  847 -56.7909 0.386193 -10.4968
  848 307.490 17.1521 -218.739
  849 523.987 -43.7098 47.7295
  850 409.151 0.0267803 -4.28039
  851 409.268 0.0248013 4.28357
  852 519.600 -47.3789 -52.8228
  853 167.982 16.3500 -6.56613
  854 167.939 16.3645 6.59356
  855 228.861 12.5660 -9.48467
  856 228.870 12.5656 9.50491
  857 607.660 -12.6604 21.7976
  858 41.6062 22.7432 20.7110
  859 41.4216 22.8238 -20.7937
  860 45.7249 1.35437 1.18580
  861 45.6272 1.35535 -1.18762
  862 289.873 1.47003 3.24403
  863 289.827 1.47057 -3.24141
  864 741.328 -55.8382 95.3555
  865 467.675 1.05343 -16.9477
  866 467.837 1.00970 16.9364
  867 13.6939 6.10828 5.93910
  868 13.5741 6.11655 -5.94732
  869 467.209 -1.83873 4.88571
  870 467.056 -1.83540 -4.88209
  871 -79.6712 -0.00944781 -2.13609
  872 -79.4998 -0.00881615 2.13438
  873 -0.378460 -47.4072 13.3333
  874 -0.506943 -48.1461 -13.4286
  875 572.477 -6.25558 54.2536
  876 -30.8781 8.80992 29.0168
  877 -31.0166 8.82904 -29.0773
  878 -0.173131 -77.7416 -14.6139
  879 228.589 6.13428 -5.07213
  880 228.598 6.13523 5.07807
  881 415.691 -20.3374 -75.1642
  882 418.706 -22.4686 75.8649
  883 -16.5574 -5.41620 -40.3922
  884 -16.4725 -5.41122 40.2934
  885 26.9897 19.6466 24.1761
  886 26.8269 19.7011 -24.2252
  887 1.92593 -173.299 8.82849
  888 9.20240 15.9577 32.3936
  889 9.02856 15.9949 -32.4616
  890 384.609 -7.11081 -66.9956
  891 383.724 -7.34701 67.5152
  892 663.081 41.2629 59.9082
  893 156.958 15.0732 4.28491
  894 157.005 15.0600 -4.26787
  895 478.743 1.43994 -12.5986
  896 478.901 1.42279 12.5973
  897 -18.1692 -7.66918 35.8181
  898 -18.2106 -7.70325 -35.8920
  899 1.78402 -176.214 -4.65492
  900 -27.9908 -1.53860 34.9506
  901 -28.0570 -1.54646 -35.0120
  902 23.5903 17.2523 -18.5720
  903 23.7331 17.2116 18.5408
  904 -1.46459 -12.0716 6.64763
  905 -1.48164 -12.0605 -6.65796
  906 46.4869 19.4686 -15.8588
  907 46.6335 19.4181 15.8354
  908 10.5238 -11.7128 35.0395
  909 9.29642 -10.8700 -37.1312
  910 469.476 -14.2959 43.1954
  911 468.417 -13.7147 -43.3507
  912 -146.921 0.263142 -0.934995
  913 -146.710 0.263207 0.933548
  914 -13.4048 -1.17757 6.29941
  915 -13.3941 -1.17985 -6.29840
  916 0.611104 -110.216 -13.2181
  917 -14.1189 -5.98654 -17.8072
  918 -14.1108 -5.97024 17.8054
  919 -57.2499 5.06859 25.0437
  920 -57.3778 5.07824 -25.0936
  921 151.891 27.5097 -13.6427
  922 151.751 27.6049 13.7323
  923 637.034 48.5528 -7.08023
  924 -2.64688 13.7986 24.5648
  925 -2.79560 13.8321 -24.6110
  926 236.873 15.7682 -71.7098
  927 236.827 15.9804 72.3928
  928 -22.6668 9.37937 19.6915
  929 -22.8105 9.40173 -19.7279
  930 746.971 -26.6265 -0.296356
  931 477.628 19.0820 26.1909
  932 556.671 -5.50856 -49.0430
  933 410.800 3.51968 -28.4783
  934 410.976 3.41706 28.4997
  935 -37.3578 5.23484 -9.06862
  936 -37.2123 5.22594 9.05350
  937 -93.8820 1.61141 12.2089
  938 -94.0373 1.61560 -12.2322
  939 -5.76181 -18.8209 -20.6290
  940 -5.71764 -18.8316 20.6624
  941 151.086 7.58675 2.61087
  942 151.125 7.58139 -2.60662
  943 -43.5007 4.92869 31.4583
  944 -43.6101 4.93014 -31.5217
  945 486.600 -1.43707 6.29975
  946 486.435 -1.43323 -6.29579
  947 -3.50416 -40.9410 30.8132
  948 23.6870 15.5893 -15.7127
  949 23.8216 15.5566 15.6887
  950 31.3668 10.2953 9.72773
  951 31.2484 10.3135 -9.74017
  952 91.1093 6.38891 -1.32278
  953 91.1835 6.38276 1.32154
  954 910.690 131.546 -42.1813
  955 -3.74954 -1.00198 -2.54057
  956 -3.75749 -1.00174 2.54504
  957 34.7133 11.4266 -18.9687
  958 35.2801 11.1860 18.8443
  959 334.325 11.2486 -30.7863
  960 334.454 11.1702 30.8608
  961 48.3749 13.1656 -8.88656
  962 48.4888 13.1426 8.87681
  963 93.1487 3.67192 131.581
  964 615.687 -4.83559 -5.91282
  965 615.060 -4.66205 5.40253
  966 115.022 2.87017 116.726
  967 122.039 3.30352 -1.11017
  968 121.986 3.30569 1.11057
  969 306.536 -1.85391 -189.637
  970 231.704 1.78344 1.70289
  971 231.693 1.78270 -1.70171
  972 31.0542 -24.1867 1.03573
  973 34.3067 -19.4276 1.54160
  974 543.090 -0.987499 2.14962
  975 542.889 -0.986305 -2.14743
  976 -44.3778 0.264557 25.8360
  977 -44.4367 0.260882 -25.8758
  978 976.811 124.317 64.3761
  979 -3.67132 -29.8065 -40.0565
  980 5.80714 -139.180 22.8687
  981 -0.362528 -47.7469 36.7513
  982 562.490 -1.04064 -7.97779
  983 562.677 -1.05801 7.95822
  984 -7.40753 -13.6224 17.8696
  985 -7.42990 -13.6265 -17.8552
  986 716.366 77.4288 -28.2884
  987 1207.34 9.06456 -7.40492
  988 -1.85227 -2.87224 -2.76506
  989 -1.85008 -2.87826 2.76904
  990 332.979 1.69040 -6.85026
  991 333.051 1.68775 6.85540
  992 -3.71802 -28.5588 40.2088
  993 459.829 0.355836 25.1033
  994 459.643 0.463457 -25.1147
  995 605.030 -38.7052 -18.6197
  996 -20.9044 -4.25999 20.0529
  997 -20.9165 -4.27718 -20.0667
  998 11.1309 -35.5898 26.3003
  999 -0.807402 -72.9509 28.8729
  1000 -0.0936699 -77.1795 14.6106
  1001 635.207 39.5644 -3.94419
  1002 716.952 79.0604 13.3094
  1003 509.561 -55.3742 -90.4195
  1004 7.95765 -68.4042 20.8442
  1005 9.92504 -97.0955 1.42449
  1006 147.002 1.65685 0.130697
  1007 146.964 1.65785 -0.130809
  1008 -5.61049 -6.40584 -8.61447
  1009 -5.60488 -6.40603 8.62039
  1010 5.47877 -56.2593 -29.2106
  1011 408.422 -1.25745 -1.57392
  1012 408.540 -1.25891 1.57518
  1013 86.3498 5.50410 -47.0581
  1014 82.7237 5.69276 46.6205
  1015 -4.27142 13.0820 33.1455
  1016 -4.43780 13.1151 -33.2235
  1017 -44.0365 7.15880 -20.4036
  1018 -43.8915 7.14288 20.3656
  1019 317.816 4.98982 -69.1154
  1020 317.926 5.30113 69.8049
  1021 230.828 19.7813 -50.0241
  1022 230.759 19.7974 50.4228
  1023 248.962 15.6819 -17.8944
  1024 248.986 15.6696 17.9423
  1025 637.095 -13.9055 -61.1421
  1026 -14.1473 8.30192 37.0952
  1027 -14.2943 8.30916 -37.1939
  1028 449.799 -2.12042 34.5946
  1029 449.539 -1.88305 -34.5641
  1030 -2.08749 -21.7243 41.5875
  1031 -35.9088 -1.10581 19.2463
  1032 -35.9348 -1.11224 -19.2706
  1033 410.777 1.90425 -34.5550
  1034 410.989 1.75718 34.5954
  1035 522.662 14.0207 -44.2837
  1036 -0.373174 -72.3505 -30.2527
  1037 -5.66120 -28.3874 36.4228
  1038 -5.91080 -28.7619 -36.1319
  1039 292.849 14.9254 -26.1077
  1040 292.927 14.8814 26.1845
  1041 365.464 4.59644 14.5196
  1042 365.367 4.61250 -14.5092
  1043 603.803 -37.8180 15.8542
  1044 36.9394 1.73923 -0.300766
  1045 37.0418 1.73840 0.300201
  1046 514.769 -61.8530 96.3563
  1047 4.21110 1.01298 1.83993
  1048 4.08935 1.01376 -1.84265
  1049 116.388 27.9295 -4.03716
  1050 116.215 28.0313 4.07887
  1051 46.8362 22.1468 17.5089
  1052 46.6764 22.2070 -17.5413
  1053 6.07122 -85.6445 -16.6715
  1054 154.368 3.77359 1.58911
  1055 154.404 3.77124 -1.58698
  1056 468.883 14.6701 10.9090
  1057 412.943 1.22199 13.2671
  1058 412.820 1.23856 -13.2615
  1059 -1.63577 -22.6697 -41.6662
  1060 619.314 -8.11015 -10.5668
  1061 1.71438 -0.537599 40.5701
  1062 2.20176 -0.228318 -40.3386
  1063 558.573 -1.42884 -4.43248
  1064 558.779 -1.43305 4.43126
  1065 596.067 -2.54896 -7.83906
  1066 596.091 -2.61861 7.67113
  1067 -0.444655 -116.729 10.9116
  1068 355.867 6.83281 -19.1113
  1069 355.964 6.80438 19.1279
  1070 429.854 2.08531 15.2892
  1071 429.719 2.10781 -15.2857
  1072 12.4080 11.4042 35.5966
  1073 12.3386 11.4009 -35.6586
  1074 928.690 59.1154 12.0003
  1075 -10.6563 -4.15730 42.6353
  1076 -10.8561 -4.04952 -42.7566
  1077 139.448 25.1794 -5.38197
  1078 139.354 25.2311 5.42342
  1079 -68.0724 0.810669 -3.15550
  1080 -67.9091 0.810059 3.15088
  1081 226.013 14.7368 -82.2419
  1082 225.655 15.3349 83.0998
  1083 68.1112 25.0479 12.2202
  1084 67.9387 25.1239 -12.2404
  1085 155.005 20.2336 -62.5858
  1086 154.214 20.9537 63.0217
  1087 -3.76060 -38.4881 -30.0569
  1088 539.131 8.91251 59.6511
  1089 371.646 14.3747 243.732
  1090 64.0639 26.1413 12.5454
  1091 63.8660 26.2385 -12.5832
  1092 228.001 9.76194 -7.45069
  1093 228.009 9.76105 7.46440
  1094 801.838 15.4400 4.80677
  1095 55.6115 15.7915 5.32263
  1096 54.9311 15.9419 -5.54961
  1097 -23.5757 -5.01581 26.5407
  1098 -23.6009 -5.04102 -26.5725
  1099 -0.770382 -17.9918 7.23301
  1100 -0.802045 -17.9822 -7.26272
  1101 528.516 -1.85244 19.9751
  1102 528.273 -1.67550 -20.0748
  1103 1.42817 -35.4777 38.7839
  1104 -34.8555 2.62603 -34.6265
  1105 -34.7655 2.63261 34.5628
  1106 0.163985 -139.941 -13.5093
  1107 -7.26859 -10.4583 42.5822
  1108 -7.23957 -10.2076 -42.6268
  1109 503.883 -0.579492 -8.41210
  1110 504.057 -0.587602 8.41357
  1111 522.464 -5.38507 24.3488
  1112 522.069 -5.09445 -24.4408
  1113 96.1097 23.0039 -24.7270
  1114 95.3912 23.3820 24.8736
  1115 -1.15681 -72.1276 -24.9333
  1116 684.766 -50.1144 -146.068
  1117 886.267 128.133 22.4635
  1118 10.0154 -101.766 2.34967
  1119 35.5791 19.5442 -24.2609
  1120 35.7850 19.4473 24.0955
  1121 90.6139 28.0083 2.75252
  1122 90.3886 28.1367 -2.75310
  1123 186.610 8.82861 4.08106
  1124 186.628 8.82534 -4.07232
  1125 -11.1606 -15.9001 34.2425
  1126 -11.1472 -16.0611 -34.3042
  1127 -29.3741 10.1705 26.4480
  1128 -29.5168 10.1934 -26.4995
  1129 -8.25363 13.1898 30.5389
  1130 -8.40892 13.2215 -30.6051
  1131 501.844 -25.8455 -42.9711
  1132 504.894 -25.9688 42.7251
  1133 0.644617 -81.5748 -28.4790
  1134 273.338 1.66443 -101.433
  1135 273.665 2.48230 102.939
  1136 90.7977 24.8356 -4.56302
  1137 90.9300 24.7727 4.56980
  1138 265.211 161.964 270.778
  1139 72.3417 19.5487 8.71531
  1140 72.2213 19.5883 -8.71925
  1141 679.005 -67.7341 -42.0221
  1142 262.102 4.99328 5.76033
  1143 262.072 4.99499 -5.75365
  1144 -11.4436 -10.1562 21.1767
  1145 -11.4543 -10.1828 -21.1737
  1146 -13.5661 -12.1010 27.2583
  1147 -13.5699 -12.1520 -27.2668
  1148 451.306 -41.5215 -139.638
  1149 459.640 -46.0314 140.602
  1150 86.9440 1.62077 1.64069
  1151 87.0175 1.61965 -1.64035
  1152 287.127 12.6818 -56.9715
  1153 287.080 12.5425 57.4741
  1154 611.605 -75.3760 109.093
  1155 538.825 -1.66277 1.22647
  1156 538.627 -1.66140 -1.22514
  1157 -45.1419 7.55422 23.7089
  1158 -45.2839 7.57014 -23.7540
  1159 -79.0124 2.27330 -12.0887
  1160 -78.8515 2.26782 12.0693
  1161 145.291 17.7326 168.470
  1162 453.550 29.0698 -22.2372
  1163 262.681 16.8801 -29.4785
  1164 262.733 16.8535 29.6117
  1165 785.409 -5.43616 158.582
  1166 267.119 16.6332 -42.3720
  1167 267.177 16.5748 42.6017
  1168 71.6813 7.04445 -2.64036
  1169 71.7681 7.03675 2.63762
  1170 24.3940 -73.0467 21.0820
  1171 24.6063 -70.5992 -27.5252
  1172 359.683 -21.2618 -141.166
  1173 364.321 -19.6489 140.932
  1174 144.388 25.1759 -45.3239
  1175 143.778 25.6296 45.6793
  1176 625.001 -39.0617 -38.1490
  1177 -21.4629 -1.30012 39.1752
  1178 -21.5511 -1.30203 -39.2521
  1179 0.227231 -31.5535 -39.8960
  1180 164.870 10.8700 -108.120
  1181 165.197 11.2501 109.763
  1182 -0.394009 -31.7752 8.02829
  1183 -0.337649 -31.8544 -8.13010
  1184 -145.246 1.16464 -3.49709
  1185 -145.051 1.16371 3.49113
  1186 491.739 -1.36476 -2.47183
  1187 491.907 -1.36671 2.47424
  1188 310.217 9.19131 -17.1608
  1189 310.289 9.16683 17.1885
  1190 -9.57700 0.931316 42.3337
  1191 -9.60545 1.11454 -42.4183
  1192 -0.0183480 -125.745 -12.0645
  1193 -124.387 0.254290 5.89666
  1194 -124.546 0.254973 -5.90820
  1195 103.242 5.90936 -78.1011
  1196 102.535 6.54744 80.3401
  1197 579.135 -35.1065 -6.20897
  1198 171.494 15.2949 -97.4462
  1199 171.585 15.6341 98.2420
  1200 -70.1352 0.395842 9.48480
  1201 -70.1886 0.395248 -9.49986
  1202 2.01919 -106.448 -19.0360
  1203 -14.1353 3.55110 -3.89719
  1204 -14.0025 3.54761 3.89136
  1205 93.1575 20.4675 5.25804
  1206 93.0441 20.5103 -5.25154
  1207 328.195 -0.310795 -2.14058
  1208 328.264 -0.311606 2.14206
  1209 438.408 0.374166 10.0710
  1210 438.273 0.384488 -10.0668
  1211 26.4715 0.0461303 19.8199
  1212 26.0856 -0.388117 -20.2943
  1213 4.70856 -60.2705 29.4142
  1214 788.885 114.106 14.5480
  1215 -24.1915 -1.82702 15.2266
  1216 -24.1987 -1.83539 -15.2375
  1217 3.78093 -56.4731 -31.1080
  1218 -2.23457 -36.5410 22.1979
  1219 -2.13273 -36.1579 -22.9863
  1220 621.328 -6.93088 9.30525
  1221 0.523696 -143.398 12.2660
  1222 5.40191 -40.8977 -34.7650
  1223 81.1744 0.948717 0.552936
  1224 81.0978 0.949239 -0.553516
  1225 -5.62267 -25.1227 39.7834
  1226 -63.2029 3.49129 -9.91526
  1227 -63.0456 3.48564 9.89984
  1228 1230.26 20.3460 36.2129
  1229 -34.0651 4.50254 34.7280
  1230 -34.1714 4.49946 -34.7983
  1231 305.940 11.1608 -51.4355
  1232 306.142 10.9822 51.7064
  1233 21.3361 -24.7525 -11.1901
  1234 290.490 12.6824 -21.7423
  1235 290.557 12.6492 21.7964
  1236 12.7982 -80.2641 -0.436047
  1237 -5.65119 -25.1963 -39.7493
  1238 -41.4808 1.25731 5.51896
  1239 -41.6287 1.25949 -5.52664
  1240 -20.1852 2.32530 -39.7644
  1241 -20.0769 2.33538 39.6910
  1242 623.414 51.1673 41.6022
  1243 352.230 2.85671 -53.7432
  1244 352.586 2.79928 53.8721
  1245 -150.629 0.248275 -1.11474
  1246 -150.418 0.248194 1.11255
  1247 316.321 5.44897 -11.5364
  1248 316.385 5.44159 11.5471
  1249 -153.335 -2.83838 -0.447485
  1250 -153.552 -2.84039 0.447617
  1251 470.252 -32.9501 -61.6433
  1252 -72.0651 1.29780 19.7240
  1253 -72.1652 1.29782 -19.7610
  1254 474.704 -34.7957 61.0900
  1255 322.374 9.56070 -22.9705
  1256 322.461 9.51882 23.0082
  1257 39.2149 -61.1787 -77.0782
  1258 0.737118 -98.8331 -24.2579
  1259 -1.74699 -41.2856 37.2283
  1260 980.327 191.693 -159.113
  1261 -0.188997 -93.4065 24.0748
  1262 1028.05 97.7058 -70.2398
  1263 -0.679486 -173.482 -11.1186
  1264 57.0120 3.78137 -0.359861
  1265 57.1039 3.77797 0.358065
  1266 -0.417435 -40.7475 8.40546
  1267 -0.331199 -40.9699 -8.38785
  1268 183.371 2.53702 0.811428
  1269 183.388 2.53580 -0.810629
  1270 631.025 -44.9514 35.8481
  1271 19.4031 3.75885 -4.51067
  1272 19.5176 3.75443 4.50495
  1273 3.64483 -184.510 3.58715
  1274 2.32567 -197.214 -3.60855
  1275 580.151 -68.2495 -67.7498
  1276 -1.51384 -52.0520 24.3857
  1277 618.214 42.6006 -54.2771
  1278 -1.79650 -68.5718 23.8863
  1279 1.27617 -184.822 -7.87141
  1280 296.103 6.19454 -13.0198
  1281 296.157 6.17966 13.0378
  1282 -0.247602 -102.979 10.7888
  1283 -0.221737 -84.5982 -24.1659
  1284 1329.27 249.635 211.342
  1285 541.127 -0.144364 0.909033
  1286 540.929 -0.143985 -0.908271
  1287 16.7916 3.39263 31.6955
  1288 16.2990 3.98330 -31.8695
  1289 -6.03816 8.81917 39.0601
  1290 -6.26086 8.82033 -39.1801
  1291 589.129 -10.2075 -34.8397
  1292 542.154 -23.2380 -25.6189
  1293 541.733 -26.3045 26.0177
  1294 87.4055 8.09217 2.37050
  1295 87.3251 8.10154 -2.37157
  1296 -85.6712 2.25374 -14.9092
  1297 -85.5246 2.24868 14.8800
  1298 603.819 -76.8121 -94.1708
  1299 -4.46676 -10.9101 11.2051
  1300 -4.48495 -10.9044 -11.2014
  1301 639.492 -23.9762 57.7825
  1302 -6.44640 -24.6857 29.7334
  1303 -6.37241 -24.7806 -29.5984
  1304 -50.4670 3.18903 6.68984
  1305 -50.6194 3.19358 -6.70027
  1306 101.307 15.1420 -43.0949
  1307 100.317 15.6840 43.0401
  1308 157.200 2.42494 -0.248838
  1309 157.168 2.42636 0.249151
  1310 -58.3794 6.05093 23.7069
  1311 -58.5154 6.06256 -23.7517
  1312 509.214 0.381219 1.41237
  1313 509.035 0.381387 -1.41125
  1314 289.017 5.21256 187.603
  1315 419.471 -0.780411 3.58372
  1316 419.347 -0.778803 -3.58097
  1317 285.690 6.40501 -77.8717
  1318 285.673 6.09793 78.4740
  1319 2.91945 -105.364 -12.1368
  1320 113.757 27.4428 -21.0571
  1321 113.263 27.7487 21.2111
  1322 -1.12786 -0.961925 -1.44394
  1323 -1.13348 -0.962077 1.44809
  1324 363.117 8.89420 29.1145
  1325 362.979 8.98038 -29.0702
  1326 184.669 12.7820 6.53075
  1327 184.692 12.7758 -6.51296
  1328 268.334 12.7218 -15.4178
  1329 268.374 12.7067 15.4517
  1330 346.779 0.0193746 -3.62415
  1331 346.859 0.0183446 3.62674
  1332 -10.9443 -5.24572 -12.6298
  1333 -10.9404 -5.23817 12.6341
  1334 -98.7244 -0.187126 3.94652
  1335 -98.9035 -0.186747 -3.95301
  1336 -18.2789 -8.21840 -30.3564
  1337 -18.2582 -8.17378 30.3175
  1338 -52.4247 0.280737 1.57549
  1339 -52.5797 0.280473 -1.57754
  1340 -155.466 1.34415 0.623683
  1341 -155.684 1.34470 -0.624552
  1342 646.375 -72.5833 126.311
  1343 488.649 -1.92980 -49.2584
</Section>

newXOutput 78

<Section columns = "stress_xx | stress_yy | stress_xy">
  1 563.214 -1.13404 0.617696
  2 563.426 -1.13498 -0.618015
  3 -170.388 0.724568 -2.36321
  4 0.269424 0.0575009 0.484511
  5 1001.76 328.293 340.774
  6 1133.42 367.925 -329.086
  7 0.268036 0.0562644 -0.482664
  8 -170.157 0.724437 2.36174
  9 561.615 -1.09196 -1.87863
  10 562.142 -1.97095 -2.99839
  11 567.388 -1.98661 -0.855667
  12 568.103 -1.98314 -3.60639
  13 569.816 -1.97596 -1.22750
  14 581.503 -1.80803 -1.65827
  15 585.778 -2.50405 -4.84929
  16 590.610 -1.34987 -3.39072
  17 593.931 -0.279238 -6.52820
  18 617.564 -3.76316 -5.58271
  19 628.254 -3.05479 -7.10224
  20 640.367 -4.38414 -3.16425
  21 646.745 -5.61960 -2.23858
  22 644.455 -6.27658 7.09670
  23 625.807 -6.81832 15.5860
  24 581.057 -7.09267 34.1944
  25 506.463 4.85380 40.0699
  26 446.494 6.23369 36.7318
  27 361.532 11.0766 22.1913
  28 382.721 10.7511 2.58677
  29 327.894 31.1333 -13.8020
  30 427.089 14.7150 -40.8438
  31 479.967 4.10913 -33.2212
  32 570.888 -1.23319 -28.8525
  33 619.965 -8.26584 -18.8531
  34 643.878 -7.29370 -7.01515
  35 645.839 -5.46475 2.30055
  36 639.779 -4.33372 3.01835
  37 628.100 -3.07071 6.92689
  38 617.603 -3.80417 5.48683
  39 594.097 -0.301706 6.48748
  40 590.815 -1.35835 3.37747
  41 586.001 -2.50992 4.84744
  42 581.729 -1.81126 1.65796
  43 570.036 -1.97840 1.22848
  44 568.321 -1.98524 3.60956
  45 567.605 -1.98828 0.856896
  46 562.354 -1.97248 3.00084
  47 561.826 -1.09289 1.88016
  48 532.567 0.763367 -0.734756
  49 494.700 -0.512961 -1.57536
  50 447.124 -2.98401 -1.50328
  51 397.530 -0.303654 -1.24997
  52 353.801 -0.846233 -0.980312
  53 306.771 0.626173 -1.14826
  54 260.110 3.10780 -0.632284
  55 211.423 2.62339 -1.42814
  56 170.873 1.42800 -2.04513
  57 117.429 0.453617 -2.15489
  58 62.9502 1.79849 -1.65542
  59 17.3543 1.54171 -1.60180
  60 -39.7053 0.744564 -1.43823
  61 -82.1433 -0.990439 -3.71027
  62 -123.286 -3.03818 -1.67312
  63 -165.131 0.258897 1.20811
  64 -174.338 2.97860 -0.343703
  65 -175.156 1.26996 0.648096
  66 -169.417 0.582803 -0.0672285
  67 -171.803 1.89057 -1.99160
  68 -169.344 2.32517 0.0260863
  69 -160.418 0.666313 -3.11093
  70 -162.980 1.44372 -3.37874
  71 -159.225 1.35443 -1.79719
  72 -147.645 0.815843 -2.81304
  73 -142.774 1.55515 -4.80133
  74 -134.356 1.76655 -3.87298
  75 -119.216 0.891351 -6.95138
  76 -110.790 0.279460 -5.79939
  77 -95.2979 0.399100 -6.76216
  78 -82.0405 0.342691 -7.56184
  79 -70.3532 0.128937 -5.97172
  80 -53.9756 0.365131 -6.03629
  81 -39.7991 -0.124357 -6.48889
  82 -26.0674 -0.687779 -5.74277
  83 -15.1418 -0.606601 -4.42705
  84 -7.49575 -1.08382 -3.71959
  85 -1.33641 -0.628343 -1.35356
  86 0.0240710 -0.712616 -0.500611
  87 -0.381692 -0.422427 -0.123513
  88 -0.985753 -1.10886 -1.18956
  89 -0.959376 -6.35616 -3.23754
  90 -0.805424 -14.1377 -4.57515
  91 -0.406607 -23.9542 -6.64734
  92 -0.199536 -36.7136 -5.72394
  93 -0.138671 -48.3556 -7.19464
  94 -0.864308 -62.4409 -8.08082
  95 -0.355696 -79.9146 -8.11376
  96 0.162104 -97.5001 -7.74384
  97 0.376424 -116.286 -7.61632
  98 0.594519 -135.509 -7.44854
  99 -0.0118266 -149.305 -10.0461
  100 0.956741 -169.254 -8.95857
  101 1.21115 -192.498 -6.97948
  102 -0.201923 -201.906 -9.23831
  103 1.71623 -217.937 -8.42802
  104 4.37133 -239.084 -3.19796
  105 8.60812 -242.731 -5.11146
  106 6.49709 -215.130 9.31018
  107 10.2254 -150.556 31.5232
  108 45.0986 -61.4837 83.1353
  109 135.610 256.709 255.233
  110 1531.60 86.9106 155.502
  111 1320.92 24.3203 55.8589
  112 1278.50 8.05488 13.1451
  113 1269.01 1.82214 -2.01375
  114 1278.03 12.9268 -29.3812
  115 1320.46 44.6679 -66.9085
  116 1493.89 169.732 -198.010
  117 330.339 202.375 -310.212
  118 77.3150 -61.7762 -98.6017
  119 23.0900 -165.277 -38.6594
  120 6.58032 -203.059 -9.72286
  121 7.01865 -233.072 1.83255
  122 1.94016 -229.354 2.08403
  123 0.616378 -212.427 6.93016
  124 0.717424 -200.796 5.43492
  125 1.06301 -181.662 10.0150
  126 -0.0485943 -170.925 9.90888
  127 0.418698 -154.688 7.09928
  128 0.850317 -133.939 9.17421
  129 0.185283 -119.060 7.26125
  130 0.241020 -97.5557 9.18793
  131 -0.975317 -80.8977 7.91747
  132 -0.660375 -62.4874 7.82146
  133 -0.0899237 -48.0773 7.21003
  134 -0.263976 -36.4977 5.73074
  135 -0.395192 -23.8835 6.58105
  136 -0.793206 -14.1287 4.55214
  137 -0.954188 -6.36595 3.23529
  138 -0.984336 -1.11967 1.19200
  139 -0.381609 -0.427018 0.126622
  140 0.0184476 -0.713235 0.503366
  141 -1.34681 -0.627882 1.35694
  142 -7.51067 -1.08259 3.72264
  143 -15.1611 -0.604552 4.42765
  144 -26.0810 -0.685263 5.73977
  145 -39.7991 -0.122276 6.48138
  146 -53.9596 0.365543 6.02758
  147 -70.3149 0.130059 5.96246
  148 -81.9816 0.344105 7.55086
  149 -95.2109 0.399153 6.75029
  150 -110.676 0.279498 5.78789
  151 -119.084 0.890787 6.93963
  152 -134.198 1.76539 3.86346
  153 -142.600 1.55382 4.79314
  154 -147.456 0.814955 2.80742
  155 -159.021 1.35342 1.79325
  156 -162.768 1.44292 3.37446
  157 -160.204 0.666088 3.10725
  158 -169.120 2.32388 -0.0274992
  159 -171.576 1.88956 1.98946
  160 -169.189 0.582690 0.0665779
  161 -174.923 1.26939 -0.648056
  162 -174.105 2.97704 0.343226
  163 -164.903 0.259049 -1.20763
  164 -123.085 -3.03585 1.67195
  165 -81.9674 -0.989206 3.70797
  166 -39.5550 0.744671 1.43711
  167 17.4706 1.54113 1.60066
  168 63.0396 1.79750 1.65431
  169 117.486 0.453262 2.15352
  170 170.899 1.42707 2.04393
  171 211.425 2.62192 1.42736
  172 260.083 3.10616 0.631986
  173 306.716 0.626172 1.14766
  174 353.718 -0.845268 0.979796
  175 397.420 -0.303001 1.24930
  176 446.983 -2.98162 1.50256
  177 494.530 -0.512214 1.57451
  178 532.374 0.763205 0.734362
  179 156.762 25.5683 -10.5325
  180 156.654 25.6300 10.6023
  181 -0.627721 5.64738 40.2198
  182 -0.801130 5.59473 -40.2559
  183 348.938 -4.32449 -82.3447
  184 348.614 -4.95711 83.1401
  185 72.6888 19.0937 -9.20511
  186 71.8402 19.3628 9.20430
  187 56.4056 7.57466 -4.54891
  188 56.5055 7.56429 4.54365
  189 328.015 4.18508 -12.9435
  190 328.088 4.17250 12.9573
  191 -0.946166 12.7444 20.6200
  192 -1.09201 12.7749 -20.6572
  193 380.649 7.79519 -31.6202
  194 380.823 7.68919 31.6755
  195 -14.2239 -12.2480 33.4746
  196 -14.2247 -12.3250 -33.5250
  197 4.33912 -27.8487 -38.1055
  198 122.944 12.9072 -78.8760
  199 5.11953 -29.8972 37.0837
  200 121.043 13.8041 79.9471
  201 536.751 -67.1357 -118.292
  202 554.471 -69.7416 113.915
  203 197.935 4.53270 -3.15046
  204 197.924 4.53425 3.15431
  205 -23.6967 1.38465 -3.63656
  206 -23.5560 1.38337 3.63180
  207 -39.9664 6.66649 31.1291
  208 -40.0939 6.67710 -31.1949
  209 199.162 16.0373 -8.41906
  210 199.144 16.0458 8.44456
  211 63.5635 25.7000 11.2215
  212 63.3114 25.8471 -11.2994
  213 -49.3244 5.39596 -11.9105
  214 -49.1711 5.38636 11.8908
  215 430.629 -0.967547 5.90375
  216 430.499 -0.963709 -5.89963
  217 15.1564 -51.7632 13.0086
  218 16.4547 -46.3315 -10.8603
  219 -3.68422 -34.9114 37.4171
  220 -3.80360 -36.3787 -36.2809
  221 185.062 26.0334 -36.4096
  222 184.863 26.1692 36.6977
  223 -37.3595 0.155577 32.2309
  224 -37.4318 0.148318 -32.2856
  225 460.578 1.06185 -16.7807
  226 460.730 1.03136 16.7789
  227 497.561 -8.55578 -33.6102
  228 497.970 -9.01763 33.5391
  229 799.806 58.5448 1.40797
  230 734.234 84.5705 30.7567
  231 717.719 1.08187 -51.8205
  232 94.0564 18.6419 4.96772
  233 93.9531 18.6766 -4.96417
  234 9.92745 16.5014 29.7105
  235 9.75697 16.5484 -29.7739
  236 556.036 -33.4440 -25.2986
  237 552.903 -33.8220 27.1521
  238 310.349 0.665493 -4.93302
  239 310.406 0.663436 4.93716
  240 -64.7248 4.68978 20.3803
  241 -64.8698 4.70030 -20.4192
  242 -9.30698 -9.13977 -15.3089
  243 -9.29654 -9.13160 15.3157
  244 -69.3305 1.29744 5.71943
  245 -69.4960 1.29983 -5.72826
  246 258.228 17.1280 -22.7936
  247 258.260 17.1092 22.8677
  248 326.721 8.42134 -47.8286
  249 326.936 8.29134 48.0219
  250 84.4736 3.57779 0.528175
  251 84.5514 3.57506 -0.528779
  252 191.600 13.4117 -163.056
  253 225.492 17.8925 176.360
  254 28.1035 13.4174 27.2496
  255 27.9868 13.6724 -27.3975
  256 749.383 -47.2926 -26.5174
  257 71.1797 24.5336 9.82269
  258 71.0279 24.5991 -9.83245
  259 188.646 21.5058 -64.3063
  260 188.259 21.9796 64.8856
  261 842.285 124.651 6.45718
  262 499.418 -1.16557 22.6863
  263 499.204 -1.03481 -22.7260
  264 -4.40151 -27.6216 -23.7760
  265 -4.25922 -27.7264 23.8655
  266 -0.800578 -64.7644 -32.0402
  267 2.61305 -74.0575 -28.3372
  268 1.47050 -74.7826 30.1810
  269 -11.5141 -9.84953 42.3403
  270 -11.5715 -9.84243 -42.5300
  271 28.7405 -52.6119 -17.1893
  272 31.0013 -47.6584 22.0927
  273 -28.5643 -2.30627 20.8420
  274 -28.5861 -2.31774 -20.8650
  275 359.266 7.85798 -20.0647
  276 359.373 7.81978 20.0871
  277 623.729 -61.1730 -12.1530
  278 144.294 10.1305 1.84170
  279 144.342 10.1220 -1.83628
  280 -1.46542 -60.8861 30.7026
  281 19.0517 12.0810 12.3646
  282 18.9217 12.1046 -12.3832
  283 981.833 66.7558 -31.1615
  284 482.698 -0.951760 7.11882
  285 482.537 -0.945020 -7.11588
  286 332.264 -12.8334 -122.469
  287 334.929 -12.5949 124.137
  288 623.008 -58.1375 2.13297
  289 -57.4702 1.91827 25.2842
  290 -57.5615 1.91742 -25.3305
  291 606.742 -37.1579 196.854
  292 -24.2341 4.94086 37.9162
  293 -24.3465 4.93022 -37.9961
  294 108.761 29.6440 -13.5436
  295 108.332 29.9121 13.6341
  296 -100.635 0.486502 0.916330
  297 -100.822 0.486210 -0.917861
  298 512.807 25.8240 -265.157
  299 -96.9834 1.84898 -10.7382
  300 -96.8163 1.84473 10.7185
  301 -1.64845 -11.0346 42.3922
  302 -0.0273688 -10.6279 -41.8143
  303 232.536 22.0519 -32.6001
  304 232.521 22.0649 32.7713
  305 56.2372 4.61387 3.44655
  306 56.1411 4.61887 -3.45063
  307 240.684 7.03016 -7.53801
  308 240.698 7.02924 7.54795
  309 24.3214 -12.7216 18.7461
  310 22.1946 -15.9735 -19.1282
  311 233.670 2.02992 -2.08012
  312 233.681 2.03050 2.08196
  313 -80.9504 2.13591 18.3134
  314 -81.0719 2.13879 -18.3490
  315 60.8683 -0.0307285 -20.6063
  316 59.1544 -0.132880 19.0252
  317 501.808 -1.47121 2.00113
  318 501.634 -1.46958 -1.99906
  319 1085.06 60.6031 46.6716
  320 121.038 13.8755 0.377907
  321 120.968 13.8925 -0.370778
  322 -17.8793 4.82024 7.66706
  323 -18.0183 4.82838 -7.67937
  324 164.012 19.9790 -7.54718
  325 163.953 20.0042 7.58635
  326 21.9584 17.5134 30.4855
  327 21.8180 17.5454 -30.5882
  328 2.56933 -107.910 20.4167
  329 -104.955 -0.126299 -2.25308
  330 -104.767 -0.125934 2.24967
  331 387.343 -0.823841 -3.88311
  332 387.447 -0.825680 3.88600
  333 407.677 0.889105 -10.2891
  334 407.795 0.878504 10.2950
  335 -98.7901 1.45762 -7.55340
  336 -98.6119 1.45496 7.54156
  337 5.50562 0.994277 0.577736
  338 5.38213 0.994674 -0.579128
  339 -2.23951 -45.6320 23.6268
  340 -1.76868 -47.4686 -23.5918
  341 462.584 -36.7158 -83.6040
  342 479.723 -43.9898 82.2036
  343 277.215 11.1605 -14.3228
  344 277.257 11.1489 14.3473
  345 125.967 28.2165 -9.20425
  346 125.741 28.3504 9.27572
  347 -37.2310 7.74012 17.2917
  348 -37.3789 7.75699 -17.3234
  349 843.232 31.6448 37.0823
  350 48.0565 -52.0205 -58.9212
  351 51.3872 -46.9450 61.2555
  352 -14.1646 13.1287 28.4240
  353 -14.3156 13.1583 -28.4828
  354 -22.5798 -4.17624 37.7367
  355 -22.6471 -4.19074 -37.8131
  356 957.931 168.748 -59.3846
  357 627.809 -4.93849 69.1176
  358 577.782 -14.4387 -16.2348
  359 577.448 -14.1004 15.4284
  360 410.639 -5.81440 -53.5458
  361 410.134 -6.16749 53.5940
  362 0.821027 -130.028 -16.1616
  363 526.775 0.111190 -12.5894
  364 526.953 0.0756025 12.5673
  365 7.27221 -120.539 11.2136
  366 629.249 49.9535 -33.9808
  367 156.699 3.29525 1.20128
  368 156.664 3.29730 -1.20201
  369 412.076 1.30054 -39.7103
  370 412.329 1.13350 39.7843
  371 440.934 1.71994 -23.7694
  372 441.098 1.64539 23.7688
  373 -1.32643 3.97551 4.82144
  374 -1.45547 3.98058 -4.82872
  375 259.585 14.3463 -64.8465
  376 259.600 14.5206 65.3524
  377 516.771 -1.22832 3.25906
  378 516.587 -1.22609 -3.25620
  379 301.318 14.4572 -33.3362
  380 301.414 14.3911 33.4511
  381 344.314 3.17364 8.68350
  382 344.236 3.17822 -8.67656
  383 -16.3104 -2.87623 12.9863
  384 -16.3118 -2.88441 -12.9885
  385 -3.92027 -2.77435 -3.86174
  386 -3.92182 -2.77535 3.86746
  387 692.259 -78.4882 59.1989
  388 -8.67972 -21.1679 34.8016
  389 -8.61628 -21.3620 -34.8138
  390 120.111 5.70911 -0.484331
  391 120.170 5.70417 0.484703
  392 -3.40922 -17.3274 13.0588
  393 -3.44948 -17.3028 -13.0622
  394 49.3295 19.1452 12.9885
  395 49.1945 19.1879 -13.0055
  396 565.520 -3.52628 16.8093
  397 565.266 -3.34026 -17.0334
  398 -0.739402 -31.8666 40.8828
  399 -46.2399 -0.748764 19.5796
  400 -46.2822 -0.753538 -19.6085
  401 -0.918869 -33.7661 -40.4299
  402 529.259 -0.830470 8.03845
  403 529.073 -0.819967 -8.04115
  404 -2.01729 12.6128 36.2198
  405 -2.21168 12.6451 -36.3111
  406 396.315 3.79864 -16.1797
  407 396.431 3.77509 16.1882
  408 606.928 -25.7295 -9.10162
  409 608.186 -21.0101 6.45364
  410 -1.12824 -61.9725 -25.7632
  411 58.6882 22.4645 -6.20340
  412 59.1612 22.2510 6.11619
  413 621.068 39.9658 20.7943
  414 349.524 -12.4421 -167.698
  415 358.241 -18.6965 175.010
  416 25.2933 18.6657 21.8227
  417 25.1374 18.7137 -21.8631
  418 258.030 4.74393 -5.16207
  419 258.055 4.74392 5.16730
  420 250.777 61.9999 264.527
  421 108.052 23.0712 -2.04084
  422 108.172 23.0175 2.05745
  423 7.13075 -55.3274 25.6122
  424 -0.732251 -100.273 -22.0073
  425 45.1092 23.3752 19.3760
  426 44.9322 23.4446 -19.4257
  427 56.2856 12.2542 -7.26463
  428 56.3936 12.2347 7.25727
  429 -15.6016 0.00994183 -41.8957
  430 -15.4904 -0.0145587 41.8124
  431 127.820 25.9618 -29.9221
  432 127.269 26.3189 30.1475
  433 614.121 -18.0771 -52.8635
  434 19.4028 -3.18125 29.7181
  435 18.8136 -3.06796 -29.9480
  436 447.788 -19.5159 -59.1127
  437 449.515 -20.7889 59.0780
  438 -107.647 0.773572 -10.7948
  439 -107.491 0.770892 10.7739
  440 -0.00713044 -98.9389 19.9317
  441 -0.669133 -63.0604 22.9801
  442 -43.3552 3.13024 32.2785
  443 -43.4503 3.12686 -32.3392
  444 321.125 0.501602 -1.89684
  445 321.189 0.500966 1.89842
  446 -9.35112 -14.7920 23.9221
  447 -9.37027 -14.8297 -23.9021
  448 205.246 13.9890 -93.4992
  449 204.794 14.8366 94.4056
  450 1.71621 -117.817 -21.0353
  451 1082.59 35.5920 0.283450
  452 3.28065 -135.967 -10.1285
  453 -124.596 -0.316006 -3.57813
  454 -124.398 -0.315948 3.57309
  455 -46.7987 7.07950 25.4778
  456 -46.9393 7.09432 -25.5297
  457 -57.9211 0.873014 19.5484
  458 -57.9837 0.872219 -19.5796
  459 223.248 20.9357 -23.1194
  460 223.234 20.9533 23.2227
  461 332.498 10.8758 -25.7401
  462 332.605 10.8188 25.7933
  463 -4.73452 -19.0200 42.4349
  464 -4.74208 -18.8937 -42.6177
  465 582.274 13.0635 -66.4372
  466 41.9843 -4.95229 -0.682441
  467 40.5093 -5.31667 1.44894
  468 9.79887 -118.318 -6.11654
  469 6.46728 -139.084 1.49032
  470 -17.0877 -7.52578 24.5854
  471 -17.0999 -7.55512 -24.6006
  472 126.177 9.73482 -142.846
  473 859.749 20.8794 -101.203
  474 203.559 10.7139 7.79133
  475 203.569 10.7104 -7.77599
  476 293.980 4.33157 -88.9248
  477 294.525 4.25139 90.1169
  478 89.9712 29.4364 4.27189
  479 89.7861 29.5388 -4.27155
  480 265.890 18.6675 -48.4519
  481 265.953 18.5997 48.7550
  482 11.9120 6.94451 36.4283
  483 12.5007 7.24049 -36.3834
  484 -111.246 1.47572 -7.61935
  485 -111.066 1.47349 7.60636
  486 572.217 -64.1592 -50.5951
  487 451.355 -1.35847 -2.69512
  488 451.498 -1.36005 2.69736
  489 31.6347 1.96462 -1.65583
  490 31.7433 1.96275 1.65299
  491 -24.7772 10.3195 23.1142
  492 -24.9247 10.3434 -23.1584
  493 -59.7258 3.48018 -7.78325
  494 -59.5664 3.47473 7.77047
  495 203.772 17.4192 -11.7169
  496 203.754 17.4275 11.7564
  497 -20.6065 9.39563 33.6090
  498 -20.7512 9.41506 -33.6862
  499 523.329 -15.7846 -32.0202
  500 524.236 -16.4728 31.7157
  501 348.571 2.90975 -59.5651
  502 348.008 2.71744 60.0373
  503 134.319 4.10244 -0.103731
  504 134.368 4.09962 0.103698
  505 1.80687 -59.3951 -34.2098
  506 615.909 -20.6865 43.0856
  507 9.52233 -36.9889 -29.3717
  508 180.708 27.4749 24.5164
  509 180.847 27.3807 -24.3530
  510 566.040 -60.0174 50.1446
  511 46.2422 -37.6802 78.4231
  512 669.701 -76.6463 -96.4579
  513 459.020 0.0412848 28.7073
  514 458.797 0.192850 -28.7044
  515 1.80686 -50.5192 35.6149
  516 -9.02860 -2.65876 -7.01076
  517 -9.03171 -2.65692 7.01508
  518 63.4731 1.51735 -0.311769
  519 63.5624 1.51640 0.310933
  520 -1.51220 -35.5371 15.2863
  521 -1.37187 -35.3765 -15.3695
  522 378.637 1.71785 6.66595
  523 378.539 1.72027 -6.66118
  524 1046.44 195.630 93.0273
  525 47.1453 -19.7062 -20.5267
  526 36.9078 -29.1514 12.8233
  527 -4.45408 7.32854 -10.4517
  528 -4.31888 7.31456 10.4350
  529 -90.5200 1.41594 11.5920
  530 -90.6221 1.41749 -11.6129
  531 0.967512 -110.990 21.2766
  532 -121.341 0.820923 0.788857
  533 -121.540 0.820930 -0.790528
  534 122.279 3.25487 -106.741
  535 119.743 4.97372 110.509
  536 112.513 22.4444 -40.5614
  537 111.684 22.8992 40.7511
  538 -23.9906 -4.76721 33.2442
  539 -24.0354 -4.79075 -33.3003
  540 112.043 7.83066 0.248358
  541 111.977 7.83832 -0.247332
  542 -46.8582 1.82995 2.88278
  543 -47.0121 1.83167 -2.88817
  544 130.607 16.6984 -0.970653
  545 130.533 16.7230 0.985942
  546 -2.46931 -8.17114 6.01098
  547 -2.47817 -8.16480 -6.01013
  548 49.1193 21.2879 16.1810
  549 48.7993 21.5592 -16.3110
  550 39.6693 9.11127 13.3984
  551 39.1341 9.06892 -13.7416
  552 462.006 1.52551 12.0210
  553 461.857 1.53796 -12.0178
  554 411.509 3.37215 19.5538
  555 411.376 3.41330 -19.5463
  556 -0.415361 -95.7213 -13.9300
  557 292.365 12.2482 -20.3381
  558 292.425 12.2240 20.3799
  559 292.337 4.38718 -8.12459
  560 292.384 4.38280 8.13352
  561 -31.1859 0.569462 0.270714
  562 -31.0408 0.569626 -0.271236
  563 518.334 26.4316 -12.7778
  564 643.633 -76.0847 -40.2181
  565 547.562 26.6068 49.4469
  566 4.89622 -77.6040 -23.6707
  567 -22.6517 8.45442 -14.5213
  568 -22.5076 8.43790 14.4970
  569 5.36123 -44.3117 32.8075
  570 -27.0153 1.29598 37.4898
  571 -27.1049 1.28851 -37.5577
  572 825.589 79.0372 8.20214
  573 193.722 6.60527 -4.18625
  574 193.707 6.60774 4.19228
  575 1212.78 105.421 -112.074
  576 -4.43907 -3.33305 43.0412
  577 -3.97590 -2.99493 -43.0575
  578 679.917 -54.8312 16.7621
  579 544.074 -0.596697 -13.9106
  580 544.256 -0.658300 13.8607
  581 259.184 4.41745 -127.837
  582 262.046 3.57734 129.593
  583 -13.3271 -12.7004 38.3382
  584 -13.3439 -12.7724 -38.4505
  585 138.620 16.4394 71.4603
  586 139.756 15.4916 -70.9823
  587 -105.029 1.16856 -10.6773
  588 -104.887 1.16660 10.6568
  589 800.593 78.6931 29.3459
  590 159.802 12.2822 3.38265
  591 159.843 12.2722 -3.37205
  592 187.727 23.6143 -49.9426
  593 187.439 23.8887 50.3758
  594 495.923 -2.69293 -27.8785
  595 496.213 -2.91091 27.8536
  596 -1.94490 -48.7613 -34.3063
  597 533.481 -1.38121 4.22123
  598 533.287 -1.37826 -4.21853
  599 -70.6289 0.966364 -0.924141
  600 -70.4605 0.966099 0.921695
  601 -130.382 -1.20359 -0.0725324
  602 -130.588 -1.20482 0.0721709
  603 12.6495 -68.5045 -7.83058
  604 -4.82690 -32.0291 29.8352
  605 -5.09106 -30.2511 -30.0317
  606 -58.9920 3.83279 26.6924
  607 -59.1040 3.83710 -26.7440
  608 380.315 7.05113 24.9483
  609 380.184 7.11412 -24.9231
  610 282.071 1.29061 1.86068
  611 282.031 1.29034 -1.85929
  612 67.0656 -8.83320 48.0913
  613 69.0120 -7.46136 -47.7138
  614 -1.89553 -24.8392 12.9605
  615 -1.95766 -24.7643 -13.0067
  616 638.211 67.9453 284.087
  617 -31.9902 -0.931059 11.9474
  618 -31.9971 -0.935842 -11.9591
  619 12.8015 -40.9228 -22.4261
  620 276.735 8.47587 -11.0691
  621 276.773 8.46969 11.0845
  622 139.673 28.6873 -19.9578
  623 139.383 28.8680 20.1102
  624 1.31464 -163.868 6.83189
  625 106.215 27.0937 0.781134
  626 106.071 27.1699 -0.761031
  627 -5.15812 10.7889 17.5438
  628 -5.30004 10.8123 -17.5735
  629 -0.758967 -84.0050 18.9868
  630 -131.925 -0.0563892 -3.62704
  631 -131.725 -0.0565826 3.62163
  632 185.177 2.65080 1.74778
  633 185.196 2.64959 -1.74600
  634 450.246 -0.418640 8.11520
  635 450.105 -0.412584 -8.11052
  636 402.533 -17.7949 217.643
  637 324.598 5.69815 -15.8128
  638 324.672 5.67871 15.8322
  639 7.09524 -4.46096 38.8116
  640 8.39276 -1.68941 -38.6102
  641 514.242 -42.5429 -177.418
  642 1175.25 39.3313 -46.5073
  643 -123.430 0.00103162 -7.23844
  644 -123.259 -0.000129425 7.22544
  645 37.7667 5.57686 -4.14487
  646 37.8745 5.56981 4.13923
  647 -2.22312 -52.1764 30.5115
  648 699.148 47.0266 -56.9336
  649 527.183 -1.61645 0.780697
  650 526.993 -1.61501 -0.779719
  651 -33.6550 -1.65729 -27.4630
  652 -33.6104 -1.64740 27.4223
  653 -0.119394 -118.636 -17.8932
  654 536.015 -1.52675 1.63526
  655 535.819 -1.52529 -1.63339
  656 56.2212 16.2493 10.6710
  657 56.1006 16.2808 -10.6817
  658 419.255 -33.1090 -117.875
  659 426.306 -32.9058 119.039
  660 599.855 -4.52196 9.98281
  661 599.809 -4.49081 -10.3146
  662 2.71240 -147.622 13.1217
  663 -25.2314 0.222111 -1.61012
  664 -25.0899 0.222145 1.60743
  665 201.070 47.3938 -209.485
  666 192.277 2.10849 1.84004
  667 192.291 2.10728 -1.83884
  668 98.8198 5.14126 -0.422448
  669 98.7494 5.14565 0.422177
  670 115.856 10.3214 0.785966
  671 115.923 10.3101 -0.781862
  672 358.268 8.15094 -38.6412
  673 358.458 8.02695 38.7457
  674 99.5419 28.1584 -4.35315
  675 99.2342 28.3522 4.37149
  676 -58.8136 4.38151 -14.1664
  677 -58.6588 4.37119 14.1416
  678 -70.0502 4.88627 -16.5156
  679 -69.8972 4.87638 16.4846
  680 618.644 -9.75448 0.0449053
  681 1.71845 -22.8290 -40.4930
  682 619.140 -10.2275 -0.773996
  683 796.526 60.8048 -5.98213
  684 -76.9696 0.388880 13.2653
  685 -77.0487 0.388191 -13.2886
  686 86.7217 25.8310 -10.7400
  687 86.1101 26.1126 10.7732
  688 -141.330 -0.0752121 -1.10950
  689 -141.121 -0.0749868 1.10722
  690 2.30340 -20.2972 40.4356
  691 -47.4216 0.847069 28.5346
  692 -47.5013 0.842982 -28.5842
  693 681.107 -50.9606 -19.2164
  694 115.008 1.01312 -1.17877
  695 114.949 1.01385 1.17917
  696 31.5795 8.94523 7.61374
  697 31.4632 8.95915 -7.62334
  698 367.018 -14.8930 -99.3633
  699 369.537 -15.4876 101.113
  700 1224.14 88.4523 101.108
  701 26.1165 -95.7551 -48.4918
  702 -8.34420 -17.9758 40.7808
  703 -8.34723 -18.0574 -40.8877
  704 82.7376 15.7046 -4.43673
  705 82.8355 15.6797 4.43653
  706 551.088 -1.35393 -4.26551
  707 551.293 -1.35745 4.26664
  708 270.187 2.26099 3.69445
  709 270.154 2.26160 -3.69096
  710 26.3029 20.1626 26.7532
  711 26.1345 20.2204 -26.8206
  712 21.1432 3.86323 2.87751
  713 21.0280 3.86697 -2.88190
  714 -13.5856 4.64975 40.6413
  715 -13.7113 4.63868 -40.7409
  716 456.189 -1.90930 3.48814
  717 456.043 -1.90663 -3.48519
  718 397.519 1.43353 9.37111
  719 397.409 1.43936 -9.36497
  720 57.1380 -23.6766 56.6436
  721 58.6228 -26.1781 -54.9838
  722 -28.2330 7.04128 35.4070
  723 -28.3598 7.04570 -35.4853
  724 18.2002 -32.6497 16.2937
  725 4.32380 12.9240 36.2580
  726 4.12120 12.9494 -36.3269
  727 -82.3186 2.17247 -9.22479
  728 -82.1506 2.16805 9.20860
  729 75.4611 21.6616 8.99265
  730 75.3262 21.7125 -8.99603
  731 615.972 -17.9606 -28.6304
  732 582.791 -49.3755 -20.3256
  733 -9.11901 -18.7305 29.4073
  734 -9.11077 -18.8253 -29.3764
  735 232.863 7.00872 -150.616
  736 227.111 11.6475 151.753
  737 144.065 27.3652 -28.1353
  738 143.684 27.6256 28.3660
  739 13.6183 -18.7114 30.6372
  740 -0.784844 -62.6363 -16.6773
  741 293.533 14.3187 -37.2558
  742 293.641 14.2568 37.4211
  743 0.694659 -122.192 15.2029
  744 178.046 22.3275 -12.9857
  745 177.985 22.3590 13.0495
  746 580.170 -1.25686 -10.4922
  747 580.320 -1.32083 10.3868
  748 12.3070 -153.643 7.94444
  749 270.608 17.9717 28.7496
  750 270.556 17.9996 -28.6460
  751 76.6442 26.8479 -2.01772
  752 77.0384 26.5955 1.96069
  753 -104.176 0.680564 -9.10811
  754 -104.054 0.679874 9.09020
  755 297.596 2.79277 -6.92062
  756 297.645 2.79033 6.92685
  757 187.909 25.2025 -20.9810
  758 187.820 25.2577 21.1015
  759 5.65740 15.9262 27.3035
  760 5.49826 15.9685 -27.3584
  761 584.473 -42.3962 13.0608
  762 -84.3998 1.56022 6.92268
  763 -84.5727 1.56255 -6.93267
  764 1222.57 258.137 -183.158
  765 -27.4282 2.74978 6.83742
  766 -27.5714 2.75431 -6.84733
  767 494.745 -0.167490 19.6834
  768 494.565 -0.0946343 -19.7101
  769 918.827 54.7107 -1.06125
  770 555.785 -2.25459 -7.92460
  771 555.982 -2.26662 7.91716
  772 361.695 3.03852 11.9869
  773 361.605 3.04814 -11.9779
  774 538.619 -53.1714 161.998
  775 239.461 15.0466 -12.2882
  776 239.476 15.0444 12.3193
  777 5.87276 -87.5131 16.0447
  778 616.454 -72.3815 58.6227
  779 375.593 -1.07562 1.99942
  780 375.497 -1.07434 -1.99796
  781 486.711 -1.05753 1.05532
  782 486.547 -1.05635 -1.05424
  783 -2.06062 -48.8083 -28.6378
  784 3.30709 -80.8029 26.1219
  785 228.180 24.1235 39.9258
  786 228.222 24.0888 -39.6686
  787 1205.66 10.1480 11.3158
  788 385.340 1.80918 -47.6180
  789 385.579 1.66147 47.7495
  790 -75.8536 2.51361 19.6911
  791 -75.9907 2.51978 -19.7283
  792 17.6509 -60.8062 0.977329
  793 11.2515 -141.832 -15.6173
  794 866.953 114.315 -25.1774
  795 -0.726249 -62.5144 15.0670
  796 20.9106 14.1995 31.5578
  797 20.8377 14.1854 -31.7491
  798 122.833 21.7943 -0.568586
  799 122.739 21.8359 0.589197
  800 578.682 -26.8919 -12.5532
  801 580.158 -26.4668 10.9107
  802 669.130 131.042 -269.707
  803 -86.4357 0.558480 -2.77592
  804 -86.2595 0.557795 2.77069
  805 -43.8200 -0.139373 11.2001
  806 -43.8386 -0.141512 -11.2145
  807 45.4966 7.13647 5.11973
  808 44.5615 7.10131 -5.24547
  809 442.216 -3.88160 42.6778
  810 441.909 -3.56125 -42.5476
  811 229.390 3.72685 -2.69225
  812 229.398 3.72764 2.69537
  813 709.019 -2.92665 51.2418
  814 81.7102 10.5958 -4.08142
  815 81.8004 10.5813 4.07951
  816 74.1550 13.6115 -18.2473
  817 73.5080 13.9190 18.3823
  818 0.287590 -46.7941 -37.4631
  819 981.954 176.199 157.750
  820 -139.668 0.0493018 -3.68504
  821 -139.468 0.0491777 3.67892
  822 -0.196996 -147.666 13.9204
  823 12.2000 -18.5674 -31.1296
  824 -21.9506 -1.30099 8.42559
  825 -21.9445 -1.30467 -8.42967
  826 796.891 57.1642 -28.4845
  827 214.886 18.9556 -15.5510
  828 214.872 18.9655 15.6125
  829 547.873 -9.21758 -21.6556
  830 548.427 -9.27573 21.4225
  831 -134.293 0.909834 5.06727
  832 -134.480 0.911284 -5.07631
  833 -1.02014 -1.05237 -0.890241
  834 -1.02221 -1.05421 0.893768
  835 0.384005 -150.862 -13.4473
  836 0.690540 -156.540 -11.4120
  837 -144.974 1.26543 0.637251
  838 -145.189 1.26580 -0.638172
  839 88.5529 -9.42426 -103.066
  840 343.017 1.90366 -3.77090
  841 343.094 1.90294 3.77388
  842 -2.96555 1.70551 0.840406
  843 -3.09398 1.70611 -0.841358
  844 502.672 0.00373010 -12.9443
  845 502.843 -0.0201055 12.9363
  846 -57.4547 0.391074 10.6069
  847 -57.4908 0.391040 -10.6221
  848 311.470 17.8139 -221.786
  849 530.583 -44.2268 48.4911
  850 414.243 -0.0316331 -4.34823
  851 414.362 -0.0336087 4.35156
  852 526.153 -47.9334 -53.6522
  853 170.285 16.4989 -6.75724
  854 170.241 16.5139 6.78481
  855 231.899 12.6543 -9.68581
  856 231.907 12.6543 9.70634
  857 615.268 -12.8071 21.9566
  858 42.2670 23.0550 20.8286
  859 42.0795 23.1365 -20.9131
  860 46.5360 1.32902 1.17449
  861 46.4364 1.33005 -1.17639
  862 293.612 1.41648 3.30528
  863 293.565 1.41694 -3.30258
  864 750.325 -56.0899 96.8900
  865 473.468 1.01390 -17.1901
  866 473.634 0.969983 17.1793
  867 14.0863 6.15245 5.94865
  868 13.9641 6.16092 -5.95717
  869 472.944 -1.90449 4.95862
  870 472.788 -1.90111 -4.95482
  871 -80.4105 -0.0267359 -2.15612
  872 -80.2355 -0.0260846 2.15436
  873 -0.381998 -47.9976 13.4965
  874 -0.512034 -48.7456 -13.5926
  875 579.887 -6.27615 54.7252
  876 -31.1536 8.92359 29.3067
  877 -31.2945 8.94291 -29.3684
  878 -0.174623 -78.6974 -14.7887
  879 231.614 6.14060 -5.18466
  880 231.624 6.14177 5.19072
  881 421.029 -20.5780 -76.2717
  882 424.076 -22.7339 76.9814
  883 -16.7274 -5.45743 -40.8543
  884 -16.6413 -5.45223 40.7540
  885 27.4742 19.8978 24.3576
  886 27.3088 19.9530 -24.4080
  887 1.94903 -175.277 8.89356
  888 9.43060 16.1818 32.6889
  889 9.25398 16.2193 -32.7584
  890 389.573 -7.21049 -67.9882
  891 388.675 -7.44751 68.5150
  892 671.583 41.9499 60.2506
  893 159.125 15.2048 4.43689
  894 159.172 15.1910 -4.41981
  895 484.633 1.40920 -12.7761
  896 484.794 1.39201 12.7752
  897 -18.3725 -7.74608 36.2397
  898 -18.4146 -7.78062 -36.3147
  899 1.81101 -178.142 -4.64217
  900 -28.3057 -1.54401 35.3559
  901 -28.3730 -1.55203 -35.4183
  902 24.0539 17.4569 -18.6956
  903 24.1993 17.4156 18.6634
  904 -1.48228 -12.2275 6.73220
  905 -1.49955 -12.2162 -6.74267
  906 47.2422 19.7003 -15.9348
  907 47.3914 19.6490 15.9105
  908 10.7125 -11.7696 35.3694
  909 9.46735 -10.9213 -37.4918
  910 475.407 -14.5068 43.8447
  911 474.337 -13.9202 -43.9997
  912 -148.516 0.260855 -0.937242
  913 -148.300 0.260925 0.935747
  914 -13.5776 -1.19163 6.37920
  915 -13.5668 -1.19395 -6.37820
  916 0.617997 -111.559 -13.3721
  917 -14.2906 -6.05675 -18.0282
  918 -14.2823 -6.04021 18.0263
  919 -57.8693 5.13173 25.3054
  920 -57.9994 5.14147 -25.3562
  921 153.993 27.8365 -13.9744
  922 153.851 27.9333 14.0644
  923 645.511 49.1507 -7.03088
  924 -2.53345 13.9660 24.7763
  925 -2.68477 14.0000 -24.8236
  926 240.053 16.0052 -72.8197
  927 240.004 16.2200 73.5095
  928 -22.7917 9.48502 19.8570
  929 -22.9380 9.50772 -19.8943
  930 756.131 -26.6051 0.113669
  931 484.382 19.3578 26.3491
  932 563.949 -5.52768 -49.4682
  933 415.989 3.49972 -28.8997
  934 416.167 3.39669 28.9222
  935 -37.6247 5.28091 -9.12131
  936 -37.4764 5.27184 9.10574
  937 -94.9264 1.62662 12.3256
  938 -95.0847 1.63087 -12.3494
  939 -5.82944 -19.0490 -20.8837
  940 -5.78462 -19.0598 20.9173
  941 153.182 7.62160 2.70709
  942 153.222 7.61596 -2.70285
  943 -43.9709 4.99683 31.8017
  944 -44.0821 4.99821 -31.8662
  945 492.548 -1.49388 6.39020
  946 492.381 -1.49000 -6.38602
  947 -3.54089 -41.4231 31.1788
  948 24.1638 15.7657 -15.8076
  949 24.3009 15.7324 15.7828
  950 31.9645 10.3934 9.76228
  951 31.8439 10.4120 -9.77520
  952 92.4713 6.41936 -1.28052
  953 92.5470 6.41300 1.27915
  954 921.690 133.711 -43.2894
  955 -3.80019 -1.01445 -2.57446
  956 -3.80824 -1.01421 2.57898
  957 35.2508 11.6547 -19.0514
  958 35.8255 11.4116 18.9247
  959 338.640 11.3235 -31.2690
  960 338.769 11.2451 31.3447
  961 49.1831 13.2980 -8.90126
  962 49.2992 13.2746 8.89103
  963 94.4094 4.59101 133.529
  964 623.195 -4.90900 -6.01384
  965 622.570 -4.73311 5.49941
  966 116.626 3.38375 118.523
  967 123.784 3.28799 -1.15115
  968 123.730 3.29028 1.15153
  969 310.551 -1.59094 -192.299
  970 234.761 1.73536 1.73296
  971 234.750 1.73454 -1.73175
  972 31.5206 -24.2973 0.867126
  973 34.8216 -19.4796 1.74859
  974 549.634 -1.01315 2.17978
  975 549.430 -1.01193 -2.17752
  976 -44.9015 0.271990 26.1387
  977 -44.9614 0.268237 -26.1792
  978 988.668 125.900 65.4563
  979 -3.69767 -30.1268 -40.5116
  980 5.91372 -140.326 23.3344
  981 -0.353808 -48.2754 37.1615
  982 569.301 -1.07401 -8.08364
  983 569.492 -1.09155 8.06423
  984 -7.49600 -13.7874 18.0919
  985 -7.51871 -13.7917 -18.0774
  986 725.530 78.5194 -28.2584
  987 1221.10 9.12054 -7.50244
  988 -1.87543 -2.91115 -2.80195
  989 -1.87321 -2.91724 2.80597
  990 337.217 1.64103 -6.96389
  991 337.290 1.63846 6.96923
  992 -3.74273 -28.8624 40.6638
  993 465.564 0.303241 25.4646
  994 465.375 0.411484 -25.4752
  995 612.607 -39.1386 -18.6530
  996 -21.1582 -4.30773 20.2987
  997 -21.1706 -4.32515 -20.3128
  998 11.3129 -35.8998 26.5148
  999 -0.811205 -73.7940 29.1959
  1000 -0.0950349 -78.1301 14.7860
  1001 643.680 40.0323 -4.00504
  1002 726.188 80.0991 13.1674
  1003 516.003 -55.9637 -91.7559
  1004 8.08239 -69.0929 20.9982
  1005 10.0755 -98.0233 1.30490
  1006 149.050 1.61688 0.122248
  1007 149.011 1.61795 -0.122368
  1008 -5.67999 -6.48559 -8.72480
  1009 -5.67429 -6.48574 8.73077
  1010 5.57061 -56.8278 -29.4811
  1011 413.501 -1.33154 -1.59895
  1012 413.621 -1.33302 1.60027
  1013 87.5809 5.77578 -47.8980
  1014 83.9068 5.96687 47.4534
  1015 -4.21579 13.2625 33.4647
  1016 -4.38486 13.2959 -33.5442
  1017 -44.4445 7.24078 -20.5915
  1018 -44.2969 7.22463 20.5527
  1019 321.983 5.04989 -70.1537
  1020 322.092 5.36652 70.8513
  1021 233.926 20.0261 -50.8334
  1022 233.855 20.0429 51.2362
  1023 252.250 15.8116 -18.2197
  1024 252.274 15.7999 18.2682
  1025 645.189 -13.9495 -61.5831
  1026 -14.2373 8.42424 37.4797
  1027 -14.3866 8.43135 -37.5803
  1028 455.467 -2.20059 35.1013
  1029 455.203 -1.96151 -35.0691
  1030 -2.08347 -21.9331 42.0438
  1031 -36.3462 -1.11599 19.4784
  1032 -36.3727 -1.12251 -19.5031
  1033 415.985 1.86691 -35.0668
  1034 416.200 1.71917 35.1085
  1035 529.787 14.2656 -44.6170
  1036 -0.369330 -73.1791 -30.5894
  1037 -5.71892 -28.7088 36.8507
  1038 -5.97154 -29.0889 -36.5569
  1039 296.673 15.0479 -26.5409
  1040 296.750 15.0041 26.6188
  1041 370.092 4.58526 14.7467
  1042 369.994 4.60121 -14.7357
  1043 611.366 -38.2419 15.8679
  1044 37.6445 1.71969 -0.296384
  1045 37.7488 1.71882 0.295796
  1046 521.258 -62.5081 97.7761
  1047 4.50847 0.991415 1.83563
  1048 4.38428 0.992228 -1.83846
  1049 118.037 28.2702 -4.24637
  1050 117.861 28.3735 4.28789
  1051 47.5875 22.4221 17.5978
  1052 47.4250 22.4832 -17.6312
  1053 6.16398 -86.5243 -16.7743
  1054 156.504 3.75990 1.65878
  1055 156.540 3.75737 -1.65666
  1056 475.637 14.8604 10.9804
  1057 418.103 1.17460 13.4665
  1058 417.978 1.19115 -13.4604
  1059 -1.62510 -22.8919 -42.1236
  1060 626.989 -8.21657 -10.6256
  1061 1.79701 -0.489243 40.9871
  1062 2.29141 -0.177733 -40.7513
  1063 565.312 -1.45952 -4.49215
  1064 565.523 -1.46378 4.49108
  1065 603.295 -2.59593 -7.94652
  1066 603.323 -2.66620 7.77765
  1067 -0.449677 -118.159 11.0394
  1068 360.394 6.84647 -19.4065
  1069 360.493 6.81817 19.4238
  1070 435.211 2.05197 15.5131
  1071 435.073 2.07449 -15.5092
  1072 12.6572 11.5906 35.9289
  1073 12.5865 11.5870 -35.9923
  1074 940.067 59.7546 12.2277
  1075 -10.7445 -4.17306 43.1088
  1076 -10.9475 -4.06396 -43.2319
  1077 141.395 25.4601 -5.58627
  1078 141.300 25.5129 5.62778
  1079 -68.6854 0.801196 -3.16624
  1080 -68.5188 0.800571 3.16148
  1081 229.058 14.9956 -83.5031
  1082 228.694 15.6005 84.3697
  1083 69.1366 25.3608 12.2298
  1084 68.9613 25.4378 -12.2510
  1085 157.146 20.5919 -63.6106
  1086 156.344 21.3202 64.0504
  1087 -3.80070 -38.9428 -30.4147
  1088 546.298 9.08896 60.1626
  1089 376.369 15.0209 247.066
  1090 65.0285 26.4822 12.5520
  1091 64.8275 26.5807 -12.5909
  1092 231.026 9.81376 -7.61596
  1093 231.034 9.81320 7.62989
  1094 811.633 16.0731 4.36532
  1095 56.4355 16.0807 5.20771
  1096 55.7459 16.2325 -5.43845
  1097 -23.8556 -5.06963 26.8605
  1098 -23.8813 -5.09517 -26.8930
  1099 -0.779396 -18.2229 7.32410
  1100 -0.811477 -18.2133 -7.35420
  1101 535.025 -1.91857 20.2541
  1102 534.777 -1.74014 -20.3537
  1103 1.46891 -35.8416 39.2012
  1104 -35.2375 2.66999 -35.0158
  1105 -35.1460 2.67675 34.9511
  1106 0.165539 -141.607 -13.6533
  1107 -7.32144 -10.5440 43.0556
  1108 -7.29173 -10.2899 -43.1006
  1109 510.033 -0.624059 -8.52976
  1110 510.210 -0.632214 8.53152
  1111 528.940 -5.49702 24.7007
  1112 528.538 -5.20375 -24.7920
  1113 97.4786 23.3867 -25.2519
  1114 96.7505 23.7687 25.3994
  1115 -1.16794 -72.9884 -25.2245
  1116 693.137 -50.2474 -148.189
  1117 897.057 130.175 23.2978
  1118 10.1704 -102.715 2.52864
  1119 36.1461 19.8325 -24.4232
  1120 36.3551 19.7346 24.2549
  1121 91.9258 28.3696 2.62432
  1122 91.6970 28.4997 -2.62572
  1123 189.135 8.87366 4.20354
  1124 189.154 8.87008 -4.19471
  1125 -11.2850 -16.0777 34.6508
  1126 -11.2716 -16.2408 -34.7135
  1127 -29.6158 10.2950 26.7019
  1128 -29.7611 10.3182 -26.7546
  1129 -8.23809 13.3621 30.8281
  1130 -8.39597 13.3941 -30.8957
  1131 508.172 -26.1776 -43.6365
  1132 511.254 -26.2994 43.3902
  1133 0.659499 -82.5006 -28.7855
  1134 276.973 1.76558 -102.934
  1135 277.301 2.59282 104.455
  1136 92.1256 25.1281 -4.48277
  1137 92.2604 25.0642 4.48905
  1138 268.423 165.265 274.405
  1139 73.4420 19.7653 8.70504
  1140 73.3194 19.8057 -8.70951
  1141 687.371 -68.3243 -42.8528
  1142 265.523 4.98352 5.88069
  1143 265.493 4.98505 -5.87384
  1144 -11.5804 -10.2759 21.4379
  1145 -11.5912 -10.3028 -21.4350
  1146 -13.7248 -12.2401 27.5893
  1147 -13.7287 -12.2918 -27.5981
  1148 457.059 -41.8921 -141.607
  1149 465.473 -46.4553 142.582
  1150 88.2611 1.59062 1.68482
  1151 88.3361 1.58943 -1.68450
  1152 290.920 12.8276 -57.8550
  1153 290.870 12.6875 58.3632
  1154 619.188 -76.0759 110.705
  1155 545.314 -1.69783 1.24292
  1156 545.112 -1.69643 -1.24155
  1157 -45.5798 7.64414 23.9401
  1158 -45.7244 7.66027 -23.9861
  1159 -79.8327 2.29070 -12.1936
  1160 -79.6687 2.28514 12.1738
  1161 147.289 18.5084 170.931
  1162 460.098 29.4480 -22.3851
  1163 266.154 17.0403 -29.9810
  1164 266.206 17.0143 30.1156
  1165 794.832 -4.85473 160.923
  1166 270.655 16.8061 -43.0546
  1167 270.713 16.7480 43.2867
  1168 72.8002 7.08602 -2.60773
  1169 72.8887 7.07807 2.60480
  1170 24.7600 -73.5754 21.5530
  1171 24.9728 -71.0877 -28.0878
  1172 364.358 -21.4003 -143.165
  1173 369.047 -19.7674 142.923
  1174 146.393 25.5728 -46.1172
  1175 145.774 26.0315 46.4757
  1176 632.859 -39.4538 -38.3640
  1177 -21.6868 -1.29531 39.6200
  1178 -21.7764 -1.29731 -39.6982
  1179 0.252773 -31.8719 -40.3272
  1180 167.134 11.2325 -109.765
  1181 167.465 11.6139 111.426
  1182 -0.398685 -32.1787 8.12806
  1183 -0.341699 -32.2590 -8.23124
  1184 -146.905 1.17629 -3.52683
  1185 -146.706 1.17535 3.52071
  1186 497.733 -1.41801 -2.51081
  1187 497.904 -1.42000 2.51334
  1188 314.224 9.23514 -17.4514
  1189 314.297 9.21090 17.4798
  1190 -9.63996 0.978524 42.7931
  1191 -9.66847 1.16427 -42.8786
  1192 -0.0204644 -127.272 -12.2029
  1193 -125.844 0.256015 5.95633
  1194 -126.006 0.256702 -5.96812
  1195 104.700 6.26705 -79.3650
  1196 103.986 6.91412 81.6328
  1197 586.368 -35.5317 -6.43109
  1198 173.848 15.6542 -98.9388
  1199 173.940 15.9938 99.7415
  1200 -70.9944 0.401338 9.59636
  1201 -71.0488 0.400729 -9.61166
  1202 2.05064 -107.620 -19.2058
  1203 -14.0788 3.56637 -3.90172
  1204 -13.9434 3.56278 3.89568
  1205 94.5215 20.6914 5.19936
  1206 94.4061 20.7351 -5.19324
  1207 332.371 -0.384542 -2.17300
  1208 332.442 -0.385329 2.17453
  1209 443.844 0.322719 10.2216
  1210 443.706 0.333041 -10.2170
  1211 26.8848 0.158904 19.9164
  1212 26.4933 -0.281399 -20.3977
  1213 4.78929 -60.9014 29.6957
  1214 798.761 115.746 14.2522
  1215 -24.4904 -1.84722 15.4140
  1216 -24.4978 -1.85569 -15.4250
  1217 3.84762 -57.0653 -31.4182
  1218 -2.25944 -36.9856 22.4678
  1219 -2.15684 -36.5960 -23.2653
  1220 629.007 -7.02101 9.35408
  1221 0.529308 -145.122 12.4035
  1222 5.49901 -41.3058 -35.1144
  1223 82.4230 0.911502 0.551833
  1224 82.3449 0.912066 -0.552434
  1225 -5.67440 -25.3944 40.2411
  1226 -63.8021 3.52112 -9.98871
  1227 -63.6418 3.51537 9.97286
  1228 1244.29 20.5489 36.6674
  1229 -34.4231 4.56949 35.1089
  1230 -34.5311 4.56626 -35.1805
  1231 309.952 11.2693 -52.2308
  1232 310.155 11.0897 52.5048
  1233 21.6660 -24.8945 -11.1683
  1234 294.278 12.7732 -22.1111
  1235 294.345 12.7404 22.1661
  1236 12.9940 -80.9939 -0.286954
  1237 -5.70353 -25.4695 -40.2077
  1238 -41.7716 1.24983 5.54440
  1239 -41.9225 1.25206 -5.55232
  1240 -20.3818 2.37789 -40.2050
  1241 -20.2717 2.38823 40.1304
  1242 631.621 51.8876 41.8022
  1243 356.793 2.85418 -54.5499
  1244 357.152 2.79754 54.6806
  1245 -152.297 0.247516 -1.11757
  1246 -152.083 0.247436 1.11531
  1247 320.378 5.44416 -11.7286
  1248 320.443 5.43696 11.7396
  1249 -154.988 -2.87655 -0.453776
  1250 -155.209 -2.87861 0.453908
  1251 476.229 -33.3496 -62.5713
  1252 -72.9068 1.31562 19.9438
  1253 -73.0086 1.31560 -19.9814
  1254 480.728 -35.2186 62.0096
  1255 326.529 9.60901 -23.3381
  1256 326.617 9.56730 23.3766
  1257 39.7674 -61.0565 -78.3107
  1258 0.748761 -99.9620 -24.5132
  1259 -1.75570 -41.7479 37.6538
  1260 991.864 194.917 -161.660
  1261 -0.189305 -94.4990 24.3424
  1262 1040.38 98.9073 -71.3323
  1263 -0.691645 -175.523 -11.2293
  1264 57.9576 3.78463 -0.320883
  1265 58.0513 3.78111 0.318978
  1266 -0.421818 -41.2630 8.50961
  1267 -0.334480 -41.4884 -8.49197
  1268 185.855 2.50261 0.845927
  1269 185.872 2.50128 -0.845117
  1270 638.929 -45.4083 36.0337
  1271 19.8768 3.77131 -4.51577
  1272 19.9936 3.76676 4.50983
  1273 3.69134 -186.479 3.55807
  1274 2.35600 -199.345 -3.58229
  1275 587.407 -68.9624 -68.8204
  1276 -1.52978 -52.6783 24.6771
  1277 626.316 43.2615 -54.6106
  1278 -1.81835 -69.3959 24.1686
  1279 1.29488 -186.932 -7.92471
  1280 299.934 6.19866 -13.2495
  1281 299.989 6.18400 13.2679
  1282 -0.251677 -104.245 10.9161
  1283 -0.222842 -85.6057 -24.4455
  1284 1344.38 253.066 214.073
  1285 547.637 -0.161555 0.920154
  1286 547.435 -0.161156 -0.919375
  1287 17.0782 3.51277 31.9675
  1288 16.5785 4.11098 -32.1439
  1289 -6.03193 8.95844 39.4601
  1290 -6.25804 8.95921 -39.5823
  1291 596.628 -10.3116 -35.1408
  1292 548.930 -23.5442 -26.0462
  1293 548.507 -26.6470 26.4556
  1294 88.7171 8.14465 2.32377
  1295 88.6350 8.15434 -2.32504
  1296 -86.6258 2.27774 -15.0571
  1297 -86.4765 2.27262 15.0273
  1298 611.333 -77.5452 -95.6010
  1299 -4.52077 -11.0459 11.3471
  1300 -4.53921 -11.0401 -11.3433
  1301 647.545 -24.1570 58.2028
  1302 -6.51843 -24.9758 30.0920
  1303 -6.44347 -25.0720 -29.9553
  1304 -50.8830 3.20891 6.72495
  1305 -51.0385 3.21356 -6.73570
  1306 102.742 15.4797 -43.8758
  1307 101.739 16.0282 43.8193
  1308 159.370 2.39279 -0.281363
  1309 159.337 2.39432 0.281663
  1310 -58.9980 6.12276 23.9490
  1311 -59.1365 6.13453 -23.9947
  1312 515.388 0.356352 1.42965
  1313 515.206 0.356544 -1.42850
  1314 292.801 5.54325 190.230
  1315 424.674 -0.846860 3.63808
  1316 424.548 -0.845236 -3.63522
  1317 289.469 6.50300 -79.0399
  1318 289.450 6.19252 79.6485
  1319 2.96518 -106.457 -12.1859
  1320 115.365 27.8402 -21.5224
  1321 114.864 28.1496 21.6773
  1322 -1.14450 -0.974056 -1.46394
  1323 -1.15021 -0.974205 1.46814
  1324 367.759 8.93661 29.5591
  1325 367.619 9.02291 -29.5137
  1326 187.174 12.8787 6.70132
  1327 187.198 12.8720 -6.68338
  1328 271.850 12.8110 -15.6993
  1329 271.890 12.7963 15.7338
  1330 351.168 -0.0488351 -3.68003
  1331 351.250 -0.0498442 3.68271
  1332 -11.0796 -5.30865 -12.7890
  1333 -11.0756 -5.30097 12.7932
  1334 -99.7413 -0.200324 3.96604
  1335 -99.9239 -0.199943 -3.97273
  1336 -18.4921 -8.30832 -30.7210
  1337 -18.4710 -8.26311 30.6815
  1338 -52.8270 0.260796 1.57978
  1339 -52.9851 0.260526 -1.58190
  1340 -157.158 1.35621 0.624748
  1341 -157.380 1.35677 -0.625647
  1342 654.321 -73.1639 128.163
  1343 495.335 -1.92036 -49.7053
</Section>

newXOutput 79

<Section columns = "stress_xx | stress_yy | stress_xy">
  1 569.867 -1.15824 0.626513
  2 570.083 -1.15920 -0.626837
  3 -172.223 0.729201 -2.39029
  4 0.272199 0.0576674 0.489760
  5 1012.85 333.381 345.064
  6 1146.00 373.509 -333.284
  7 0.270790 0.0564129 -0.487883
  8 -171.987 0.729073 2.38879
  9 568.252 -1.11578 -1.90140
  10 568.788 -2.00359 -3.03315
  11 574.094 -2.02055 -0.867579
  12 574.823 -2.01948 -3.65135
  13 576.567 -2.01316 -1.24668
  14 588.385 -1.83987 -1.68270
  15 592.716 -2.54434 -4.91021
  16 597.618 -1.37650 -3.43582
  17 600.996 -0.300589 -6.61438
  18 624.896 -3.82106 -5.65621
  19 635.723 -3.10608 -7.19278
  20 648.001 -4.45031 -3.21704
  21 654.482 -5.69801 -2.28550
  22 652.240 -6.35741 7.14112
  23 633.475 -6.89904 15.7078
  24 588.395 -7.15698 34.4924
  25 513.171 4.93301 40.4278
  26 452.758 6.34702 37.0365
  27 367.105 11.2196 22.3720
  28 388.563 10.8893 2.63151
  29 333.132 31.4936 -13.9012
  30 433.184 14.9028 -41.2158
  31 486.453 4.18018 -33.5168
  32 578.142 -1.23193 -29.1139
  33 627.605 -8.36339 -19.0067
  34 651.669 -7.38700 -7.05728
  35 653.577 -5.54173 2.34906
  36 647.413 -4.39938 3.07029
  37 635.572 -3.12216 7.01631
  38 624.939 -3.86248 5.55989
  39 601.167 -0.323250 6.57367
  40 597.828 -1.38505 3.42265
  41 592.944 -2.55028 4.90849
  42 588.615 -1.84315 1.68248
  43 576.790 -2.01565 1.24774
  44 575.045 -2.02162 3.65461
  45 574.315 -2.02225 0.868848
  46 569.004 -2.00515 3.03565
  47 568.467 -1.11674 1.90296
  48 538.907 0.749759 -0.744655
  49 500.643 -0.556275 -1.59446
  50 452.559 -3.07100 -1.51824
  51 402.427 -0.369660 -1.26238
  52 358.214 -0.924970 -0.989474
  53 310.655 0.562387 -1.15851
  54 263.460 3.07437 -0.635295
  55 214.208 2.58616 -1.44009
  56 173.181 1.38264 -2.06413
  57 119.101 0.403677 -2.17488
  58 63.9674 1.77407 -1.67133
  59 17.8191 1.52419 -1.61723
  60 -39.9376 0.727228 -1.45103
  61 -82.8945 -1.01964 -3.75155
  62 -124.542 -3.08374 -1.69078
  63 -166.903 0.258645 1.22432
  64 -176.231 3.01087 -0.343847
  65 -177.066 1.28204 0.660510
  66 -171.268 0.586341 -0.0623779
  67 -173.701 1.91006 -2.00868
  68 -171.226 2.35015 0.0352333
  69 -162.210 0.671801 -3.13988
  70 -164.827 1.45964 -3.41149
  71 -161.043 1.36879 -1.81045
  72 -149.340 0.823273 -2.83815
  73 -144.436 1.57265 -4.85064
  74 -135.931 1.78739 -3.91000
  75 -120.625 0.901541 -7.02778
  76 -112.110 0.282820 -5.86277
  77 -96.4426 0.403782 -6.83870
  78 -83.0381 0.348120 -7.65032
  79 -71.2159 0.131403 -6.04174
  80 -54.6434 0.369973 -6.10778
  81 -40.2958 -0.124815 -6.56693
  82 -26.3979 -0.695324 -5.81358
  83 -15.3384 -0.613405 -4.48266
  84 -7.59520 -1.09679 -3.76709
  85 -1.35750 -0.635929 -1.37183
  86 0.0219563 -0.721757 -0.508040
  87 -0.386469 -0.429678 -0.126370
  88 -0.997732 -1.12767 -1.20577
  89 -0.971121 -6.44110 -3.27916
  90 -0.814809 -14.3223 -4.63246
  91 -0.410979 -24.2602 -6.72964
  92 -0.201275 -37.1795 -5.79450
  93 -0.138742 -48.9638 -7.28297
  94 -0.874284 -63.2165 -8.17855
  95 -0.359879 -80.9008 -8.21013
  96 0.163910 -98.6978 -7.83475
  97 0.380808 -117.707 -7.70477
  98 0.602033 -137.155 -7.53342
  99 -0.0136732 -151.100 -10.1592
  100 0.966661 -171.278 -9.05802
  101 1.22514 -194.782 -7.05023
  102 -0.208805 -204.263 -9.33072
  103 1.73625 -220.439 -8.50672
  104 4.42726 -241.767 -3.19568
  105 8.72059 -245.366 -5.10978
  106 6.59778 -217.217 9.53812
  107 10.4104 -151.593 32.1313
  108 45.6743 -60.9533 84.4904
  109 137.132 261.775 258.565
  110 1548.26 88.0195 157.306
  111 1335.51 24.5805 56.4910
  112 1292.63 8.11327 13.3084
  113 1283.02 1.80344 -2.03417
  114 1292.15 13.0382 -29.7098
  115 1335.11 45.1630 -67.6865
  116 1510.24 171.868 -200.321
  117 334.246 206.440 -314.225
  118 78.3524 -61.3062 -100.124
  119 23.4133 -166.436 -39.3209
  120 6.68006 -205.004 -9.95277
  121 7.11347 -235.584 1.78720
  122 1.96470 -231.916 2.06627
  123 0.621662 -214.864 6.98598
  124 0.725244 -203.132 5.47662
  125 1.07603 -183.807 10.1218
  126 -0.0488884 -172.975 10.0209
  127 0.423715 -156.554 7.17831
  128 0.861651 -135.569 9.28201
  129 0.188411 -120.518 7.34624
  130 0.243951 -98.7519 9.29610
  131 -0.987305 -81.8968 8.01151
  132 -0.667736 -63.2633 7.91580
  133 -0.0895831 -48.6816 7.29846
  134 -0.266481 -36.9606 5.80125
  135 -0.399371 -24.1886 6.66249
  136 -0.802428 -14.3132 4.60915
  137 -0.965867 -6.45102 3.27689
  138 -0.996293 -1.13864 1.20824
  139 -0.386384 -0.434333 0.129524
  140 0.0162520 -0.722382 0.510832
  141 -1.36803 -0.635459 1.37525
  142 -7.61030 -1.09553 3.77016
  143 -15.3579 -0.611328 4.48326
  144 -26.4117 -0.692774 5.81052
  145 -40.2957 -0.122706 6.55930
  146 -54.6269 0.370391 6.09893
  147 -71.1769 0.132545 6.03233
  148 -82.9781 0.349563 7.63916
  149 -96.3541 0.403841 6.82663
  150 -111.994 0.282866 5.85107
  151 -120.491 0.900974 7.01582
  152 -135.770 1.78622 3.90029
  153 -144.259 1.57131 4.84227
  154 -149.147 0.822373 2.83240
  155 -160.835 1.36776 1.80641
  156 -164.611 1.45883 3.40710
  157 -161.991 0.671576 3.13610
  158 -170.997 2.34884 -0.0366950
  159 -173.469 1.90903 2.00648
  160 -171.035 0.586229 0.0617026
  161 -176.828 1.28146 -0.660476
  162 -175.993 3.00928 0.343355
  163 -166.670 0.258806 -1.22383
  164 -124.336 -3.08135 1.68958
  165 -82.7150 -1.01837 3.74920
  166 -39.7843 0.727338 1.44988
  167 17.9377 1.52359 1.61606
  168 64.0585 1.77303 1.67019
  169 119.160 0.403277 2.17347
  170 173.208 1.38164 2.06290
  171 214.210 2.58461 1.43930
  172 263.433 3.07265 0.634996
  173 310.598 0.562345 1.15791
  174 358.129 -0.924012 0.988958
  175 402.315 -0.369002 1.26172
  176 452.416 -3.06856 1.51752
  177 500.470 -0.555494 1.59359
  178 538.711 0.749612 0.744256
  179 158.902 25.8534 -10.8128
  180 158.791 25.9163 10.8829
  181 -0.560908 5.75913 40.6240
  182 -0.736702 5.70503 -40.6610
  183 353.428 -4.36295 -83.5435
  184 353.097 -5.00249 84.3479
  185 73.7300 19.4397 -9.52218
  186 72.8701 19.7112 9.52060
  187 57.3238 7.62679 -4.53130
  188 57.4256 7.61614 4.52576
  189 332.162 4.16405 -13.1589
  190 332.235 4.15163 13.1731
  191 -0.793414 12.8889 20.7794
  192 -0.941830 12.9198 -20.8176
  193 385.444 7.82560 -32.0961
  194 385.620 7.71934 32.1528
  195 -14.3834 -12.3808 33.8691
  196 -14.3843 -12.4588 -33.9203
  197 4.42531 -28.0996 -38.4894
  198 124.643 13.2859 -80.1293
  199 5.21568 -30.1710 37.4531
  200 122.719 14.1924 81.2117
  201 543.417 -67.7894 -119.978
  202 561.325 -70.4189 115.552
  203 200.564 4.52031 -3.23651
  204 200.553 4.52203 3.24042
  205 -23.7453 1.37352 -3.64770
  206 -23.6019 1.37220 3.64278
  207 -40.3672 6.75369 31.4520
  208 -40.4969 6.76436 -31.5191
  209 201.814 16.1727 -8.62190
  210 201.796 16.1817 8.64763
  211 64.5025 26.0500 11.1981
  212 64.2468 26.1988 -11.2778
  213 -49.7463 5.44602 -11.9975
  214 -49.5901 5.43625 11.9772
  215 435.898 -1.03673 5.99369
  216 435.765 -1.03289 -5.98937
  217 15.3881 -52.2063 13.0247
  218 16.7056 -46.7068 -10.8434
  219 -3.71744 -35.3001 37.8459
  220 -3.83925 -36.7878 -36.6982
  221 187.557 26.3605 -37.0486
  222 187.354 26.4983 37.3392
  223 -37.7795 0.167632 32.5967
  224 -37.8531 0.160216 -32.6523
  225 466.209 1.01873 -17.0166
  226 466.364 0.988156 17.0153
  227 503.704 -8.70675 -34.0976
  228 504.119 -9.17305 34.0276
  229 809.834 59.2017 1.47629
  230 743.466 85.7327 30.7227
  231 726.546 1.34788 -52.0361
  232 95.4226 18.8355 4.91166
  233 95.3174 18.8710 -4.90847
  234 10.1789 16.7165 29.9667
  235 10.0057 16.7640 -30.0315
  236 562.907 -33.8493 -25.7508
  237 559.739 -34.2310 27.6291
  238 314.277 0.601480 -5.02165
  239 314.335 0.599492 5.02593
  240 -65.3980 4.74302 20.5778
  241 -65.5455 4.75366 -20.6174
  242 -9.41864 -9.24878 -15.4982
  243 -9.40802 -9.24044 15.5049
  244 -69.9625 1.29478 5.74844
  245 -70.1314 1.29722 -5.75754
  246 261.594 17.2768 -23.1900
  247 261.626 17.2586 23.2650
  248 330.921 8.48016 -48.5529
  249 331.137 8.34979 48.7487
  250 85.7473 3.57191 0.570069
  251 85.8266 3.56908 -0.570733
  252 194.152 13.9701 -165.401
  253 228.454 18.4784 178.851
  254 28.5538 13.6481 27.4464
  255 28.4357 13.9064 -27.5966
  256 758.422 -47.4950 -27.2324
  257 72.2417 24.8252 9.80637
  258 72.0873 24.8917 -9.81687
  259 191.188 21.8376 -65.3294
  260 190.796 22.3166 65.9141
  261 852.600 126.391 6.99339
  262 505.521 -1.23002 23.0042
  263 505.303 -1.09833 -23.0432
  264 -4.45127 -27.9497 -24.0617
  265 -4.30682 -28.0556 24.1523
  266 -0.804052 -65.5035 -32.4014
  267 2.65897 -74.8457 -28.6133
  268 1.49895 -75.6040 30.4939
  269 -11.6218 -9.93671 42.8147
  270 -11.6801 -9.92984 -43.0073
  271 29.1612 -52.9519 -17.6058
  272 31.4580 -47.9339 22.5829
  273 -28.9053 -2.33045 21.0913
  274 -28.9275 -2.34207 -21.1147
  275 363.788 7.88364 -20.3791
  276 363.897 7.84555 20.4021
  277 631.407 -61.8136 -12.5430
  278 146.285 10.1973 1.94035
  279 146.334 10.1884 -1.93496
  280 -1.47746 -61.5851 31.0516
  281 19.4828 12.2047 12.4245
  282 19.3504 12.2287 -12.4438
  283 993.584 67.5008 -31.6857
  284 488.540 -1.00704 7.22349
  285 488.376 -1.00027 -7.22028
  286 336.560 -12.8963 -124.209
  287 339.253 -12.6558 125.894
  288 630.680 -58.7517 2.40575
  289 -58.1238 1.94492 25.5646
  290 -58.2167 1.94400 -25.6117
  291 614.096 -37.1834 199.543
  292 -24.4648 5.02027 38.3228
  293 -24.5789 5.00932 -38.4040
  294 110.286 30.0517 -13.9039
  295 109.852 30.3230 13.9946
  296 -101.617 0.479819 0.916329
  297 -101.808 0.479513 -0.917913
  298 519.065 26.6770 -268.676
  299 -98.0294 1.86524 -10.8324
  300 -97.8591 1.86093 10.8122
  301 -1.62628 -11.1120 42.8390
  302 0.0182936 -10.6972 -42.2493
  303 235.607 22.2879 -33.1557
  304 235.591 22.3018 33.3285
  305 57.1629 4.62722 3.43482
  306 57.0649 4.63238 -3.43907
  307 243.818 7.04511 -7.69149
  308 243.833 7.04446 7.70161
  309 24.6938 -12.7417 18.8249
  310 22.5356 -16.0304 -19.2149
  311 236.715 1.98416 -2.12885
  312 236.726 1.98485 2.13074
  313 -81.8709 2.16129 18.5083
  314 -81.9945 2.16419 -18.5446
  315 61.7427 0.150064 -21.0820
  316 60.0079 0.0458328 19.4794
  317 507.829 -1.52445 2.03097
  318 507.652 -1.52278 -2.02883
  319 1097.72 61.2745 47.3394
  320 122.744 13.9960 0.285687
  321 122.673 14.0135 -0.278693
  322 -17.8845 4.85432 7.69833
  323 -18.0262 4.86264 -7.71103
  324 166.241 20.1758 -7.76410
  325 166.180 20.2018 7.80345
  326 22.3455 17.7660 30.7360
  327 22.2029 17.7981 -30.8407
  328 2.60832 -109.093 20.6006
  329 -106.006 -0.139590 -2.26097
  330 -105.814 -0.139212 2.25746
  331 392.129 -0.898518 -3.94322
  332 392.235 -0.900357 3.94623
  333 412.707 0.836563 -10.4480
  334 412.827 0.825996 10.4543
  335 -99.8167 1.46462 -7.61018
  336 -99.6350 1.46191 7.59801
  337 5.82484 0.973076 0.567697
  338 5.69894 0.973493 -0.569144
  339 -2.26372 -46.1775 23.9071
  340 -1.78735 -48.0363 -23.8716
  341 468.405 -37.1201 -84.8204
  342 485.735 -44.4777 83.4039
  343 280.786 11.2253 -14.5783
  344 280.828 11.2141 14.6033
  345 127.717 28.5644 -9.48912
  346 127.487 28.7002 9.56067
  347 -37.5254 7.82290 17.4324
  348 -37.6760 7.84002 -17.4648
  349 853.277 32.5625 38.0282
  350 48.7458 -52.1933 -59.9220
  351 52.1246 -47.0356 62.2829
  352 -14.2100 13.2920 28.6844
  353 -14.3635 13.3220 -28.7444
  354 -22.8239 -4.20803 38.1680
  355 -22.8922 -4.22282 -38.2456
  356 969.417 171.053 -60.5444
  357 635.752 -4.86021 69.6344
  358 584.827 -14.6423 -16.5015
  359 584.494 -14.2992 15.6894
  360 415.828 -5.92068 -54.3341
  361 415.316 -6.27642 54.3837
  362 0.833952 -131.454 -16.2940
  363 533.129 0.0748012 -12.7617
  364 533.311 0.0389973 12.7401
  365 7.37546 -121.800 11.2516
  366 637.471 50.6367 -34.1104
  367 158.839 3.27326 1.19538
  368 158.804 3.27541 -1.19614
  369 417.254 1.26053 -40.2933
  370 417.510 1.09285 40.3692
  371 446.375 1.67896 -24.1096
  372 446.541 1.60410 24.1097
  373 -1.11245 3.99362 4.82664
  374 -1.24400 3.99882 -4.83418
  375 263.002 14.5342 -65.8412
  376 263.015 14.7112 66.3521
  377 522.958 -1.27511 3.30711
  378 522.771 -1.27284 -3.30412
  379 305.203 14.5759 -33.8664
  380 305.300 14.5099 33.9829
  381 348.633 3.14133 8.82646
  382 348.553 3.14579 -8.81925
  383 -16.5105 -2.90922 13.1461
  384 -16.5120 -2.91752 -13.1484
  385 -3.96988 -2.80905 -3.91211
  386 -3.97144 -2.81004 3.91790
  387 700.645 -79.1615 60.2369
  388 -8.77248 -21.4038 35.2093
  389 -8.70814 -21.6005 -35.2219
  390 121.811 5.72315 -0.431563
  391 121.872 5.71800 0.431853
  392 -3.44944 -17.5406 13.2202
  393 -3.49023 -17.5158 -13.2236
  394 50.1258 19.3621 13.0315
  395 49.9884 19.4055 -13.0493
  396 572.361 -3.60562 17.0447
  397 572.101 -3.41804 -17.2697
  398 -0.726336 -32.1939 41.3287
  399 -46.7910 -0.754515 19.8086
  400 -46.8341 -0.759366 -19.8380
  401 -0.907937 -34.1167 -40.8709
  402 535.612 -0.872798 8.14915
  403 535.422 -0.862226 -8.15157
  404 -1.94330 12.7945 36.5700
  405 -2.14072 12.8270 -36.6630
  406 401.236 3.77738 -16.4229
  407 401.354 3.75388 16.4319
  408 614.394 -26.0350 -9.08059
  409 615.645 -21.2677 6.41995
  410 -1.13827 -62.7064 -26.0643
  411 59.5497 22.8147 -6.10243
  412 60.0290 22.5991 6.01327
  413 629.263 40.4776 20.8570
  414 354.007 -12.3972 -170.025
  415 362.818 -18.7231 177.422
  416 25.7644 18.8920 21.9756
  417 25.6059 18.9407 -22.0171
  418 261.362 4.72977 -5.26725
  419 261.387 4.72992 5.27261
  420 254.004 63.4799 268.116
  421 109.586 23.3277 -1.93065
  422 109.708 23.2730 1.94695
  423 7.24732 -55.8619 25.8246
  424 -0.739990 -101.445 -22.2520
  425 45.8213 23.6745 19.4770
  426 45.6415 23.7447 -19.5280
  427 57.1913 12.3691 -7.26211
  428 57.3014 12.3492 7.25435
  429 -15.7416 0.0391711 -42.3529
  430 -15.6287 0.0143133 42.2683
  431 129.589 26.3449 -30.5044
  432 129.031 26.7060 30.7315
  433 621.815 -18.2457 -53.2840
  434 19.7156 -3.12573 29.9523
  435 19.1186 -3.01253 -30.1856
  436 453.419 -19.7708 -59.9811
  437 455.163 -21.0569 59.9475
  438 -108.863 0.779479 -10.9014
  439 -108.704 0.776772 10.8801
  440 -0.00747927 -100.111 20.1579
  441 -0.675581 -63.8149 23.2502
  442 -43.8303 3.17598 32.6338
  443 -43.9270 3.17248 -32.6956
  444 325.172 0.435716 -1.93419
  445 325.237 0.435126 1.93584
  446 -9.45954 -14.9644 24.2114
  447 -9.47902 -15.0026 -24.1914
  448 207.995 14.2810 -94.9089
  449 207.537 15.1370 95.8238
  450 1.74003 -119.145 -21.2427
  451 1095.21 35.9198 0.270415
  452 3.32924 -137.387 -10.1572
  453 -125.912 -0.329251 -3.60102
  454 -125.711 -0.329186 3.59583
  455 -47.2586 7.16616 25.7278
  456 -47.4017 7.18115 -25.7808
  457 -58.6048 0.884969 19.7731
  458 -58.6685 0.884146 -19.8048
  459 226.200 21.1474 -23.5426
  460 226.186 21.1659 23.6469
  461 336.730 10.9398 -26.1478
  462 336.838 10.8830 26.2021
  463 -4.76433 -19.2049 42.9038
  464 -4.77192 -19.0772 -43.0887
  465 589.842 13.3382 -66.9539
  466 42.6029 -4.85231 -0.501713
  467 41.1055 -5.22260 1.28031
  468 9.94592 -119.414 -6.34045
  469 6.57110 -140.430 1.64265
  470 -17.2886 -7.61021 24.8815
  471 -17.3010 -7.63993 -24.8970
  472 127.893 10.5114 -144.953
  473 869.908 21.8102 -102.917
  474 206.259 10.7792 7.96816
  475 206.270 10.7753 -7.95266
  476 297.818 4.42851 -90.2333
  477 298.366 4.34745 91.4382
  478 91.2652 29.8019 4.16864
  479 91.0771 29.9057 -4.16902
  480 269.376 18.8761 -49.2183
  481 269.438 18.8083 49.5245
  482 12.1394 7.08817 36.7639
  483 12.7359 7.38811 -36.7184
  484 -112.450 1.48653 -7.68234
  485 -112.266 1.48428 7.66903
  486 579.294 -64.8641 -51.4214
  487 456.836 -1.42536 -2.73362
  488 456.982 -1.42697 2.73594
  489 32.2661 1.94949 -1.64042
  490 32.3768 1.94756 1.63747
  491 -24.9377 10.4390 23.3182
  492 -25.0878 10.4632 -23.3634
  493 -60.2564 3.50590 -7.82837
  494 -60.0939 3.50035 7.81522
  495 206.482 17.5737 -11.9716
  496 206.463 17.5826 12.0114
  497 -20.7582 9.52143 33.9442
  498 -20.9053 9.54100 -34.0230
  499 529.784 -16.0117 -32.5033
  500 530.704 -16.7067 32.1986
  501 353.046 2.92157 -60.4530
  502 352.474 2.72841 60.9309
  503 136.192 4.09366 -0.0662530
  504 136.242 4.09070 0.0661828
  505 1.84435 -60.0331 -34.5685
  506 623.586 -20.8889 43.4177
  507 9.67780 -37.3148 -29.6252
  508 183.145 27.8012 24.9901
  509 183.287 27.7055 -24.8255
  510 573.043 -60.6763 50.9683
  511 46.9146 -37.4993 79.6797
  512 677.846 -77.2593 -97.9394
  513 464.697 -0.0152527 29.1204
  514 464.470 0.137240 -29.1164
  515 1.84684 -51.0521 35.9892
  516 -9.14172 -2.69091 -7.09931
  517 -9.14483 -2.68903 7.10365
  518 64.4956 1.48942 -0.299040
  519 64.5866 1.48841 0.298167
  520 -1.52958 -35.9722 15.4714
  521 -1.38762 -35.8097 -15.5558
  522 383.334 1.67236 6.76969
  523 383.233 1.67472 -6.76472
  524 1058.79 198.291 94.5765
  525 47.8270 -19.7125 -21.0004
  526 37.4490 -29.2736 13.1855
  527 -4.30633 7.39423 -10.5056
  528 -4.16858 7.37998 10.4884
  529 -91.5860 1.43220 11.7205
  530 -91.6900 1.43376 -11.7418
  531 0.981400 -112.259 21.4976
  532 -122.584 0.821735 0.785584
  533 -122.787 0.821735 -0.787312
  534 123.962 3.65257 -108.370
  535 121.397 5.38426 112.185
  536 114.081 22.8370 -41.2972
  537 113.241 23.2964 41.4880
  538 -24.2625 -4.81239 33.6317
  539 -24.3081 -4.83626 -33.6888
  540 113.645 7.87382 0.181555
  541 113.578 7.88176 -0.180641
  542 -47.1970 1.83057 2.88137
  543 -47.3540 1.83234 -2.88694
  544 132.427 16.8568 -1.09470
  545 132.352 16.8821 1.10988
  546 -2.49915 -8.27465 6.08748
  547 -2.50813 -8.26827 -6.08663
  548 49.8563 21.6095 16.2189
  549 49.5319 21.8841 -16.3514
  550 40.2648 9.32800 13.3935
  551 39.7225 9.28546 -13.7422
  552 467.636 1.49087 12.1918
  553 467.484 1.50333 -12.1882
  554 416.610 3.34813 19.8426
  555 416.474 3.38932 -19.8345
  556 -0.420201 -96.8765 -14.0917
  557 296.122 12.3284 -20.6785
  558 296.182 12.3045 20.7210
  559 296.069 4.36771 -8.27499
  560 296.117 4.36351 8.28415
  561 -31.3142 0.550049 0.283343
  562 -31.1662 0.550216 -0.283891
  563 525.543 26.7531 -12.8760
  564 651.518 -76.8319 -40.9788
  565 554.858 27.0085 49.8001
  566 4.97614 -78.4058 -23.8723
  567 -22.7486 8.53995 -14.6244
  568 -22.6019 8.52315 14.5995
  569 5.45449 -44.7456 33.1238
  570 -27.2990 1.32766 37.9073
  571 -27.3901 1.31999 -37.9763
  572 835.829 80.0165 8.56284
  573 196.303 6.61920 -4.29620
  574 196.288 6.62191 4.30230
  575 1226.67 106.706 -113.537
  576 -4.43963 -3.32806 43.4970
  577 -3.96925 -2.98538 -43.5126
  578 688.239 -55.3093 16.6414
  579 550.632 -0.637507 -14.0981
  580 550.818 -0.699577 14.0484
  581 262.594 4.62372 -129.678
  582 265.487 3.77083 131.453
  583 -13.4674 -12.8309 38.7803
  584 -13.4845 -12.9038 -38.8943
  585 140.526 16.7980 72.6038
  586 141.676 15.8401 -72.1215
  587 -106.235 1.18074 -10.7880
  588 -106.091 1.17877 10.7671
  589 810.366 80.0012 29.1745
  590 161.979 12.3745 3.51048
  591 162.021 12.3640 -3.49987
  592 190.256 23.9416 -50.7690
  593 189.964 24.2192 51.2063
  594 502.018 -2.77730 -28.2730
  595 502.312 -2.99700 28.2492
  596 -1.95971 -49.3110 -34.6951
  597 539.853 -1.42070 4.27981
  598 539.655 -1.41772 -4.27695
  599 -71.2495 0.959921 -0.914401
  600 -71.0777 0.959654 0.911866
  601 -131.725 -1.22557 -0.0771712
  602 -131.935 -1.22683 0.0767944
  603 12.8420 -69.1191 -7.78075
  604 -4.87878 -32.4028 30.1884
  605 -5.14576 -30.6023 -30.3870
  606 -59.6443 3.88166 26.9795
  607 -59.7582 3.88599 -27.0319
  608 385.083 7.06854 25.3248
  609 384.950 7.13156 -25.2987
  610 285.673 1.23411 1.89362
  611 285.632 1.23378 -1.89218
  612 68.0268 -8.67294 48.9437
  613 69.9945 -7.28362 -48.5611
  614 -1.91744 -25.1453 13.1191
  615 -1.98041 -25.0696 -13.1660
  616 645.775 69.5545 287.890
  617 -32.3835 -0.940711 12.0915
  618 -32.3906 -0.945556 -12.1035
  619 13.0020 -41.2693 -22.5760
  620 280.292 8.50675 -11.2705
  621 280.331 8.50085 11.2863
  622 141.595 29.0554 -20.3904
  623 141.301 29.2385 20.5438
  624 1.33188 -165.622 6.84376
  625 107.721 27.4120 0.643113
  626 107.575 27.4894 -0.623376
  627 -5.04538 10.9046 17.6720
  628 -5.18987 10.9285 -17.7026
  629 -0.767800 -85.0058 19.2060
  630 -133.347 -0.0631569 -3.65256
  631 -133.144 -0.0633478 3.64700
  632 187.654 2.61708 1.80561
  633 187.673 2.61574 -1.80381
  634 455.733 -0.477829 8.23507
  635 455.588 -0.471764 -8.23011
  636 407.588 -17.7024 220.587
  637 328.712 5.69531 -16.0727
  638 328.787 5.67606 16.0926
  639 7.24382 -4.44413 39.1891
  640 8.56142 -1.64096 -38.9810
  641 520.606 -42.7769 -179.856
  642 1188.67 39.7488 -47.1119
  643 -124.830 -0.00207031 -7.30840
  644 -124.656 -0.00324074 7.29512
  645 38.4614 5.60805 -4.13470
  646 38.5713 5.60080 4.12882
  647 -2.24491 -52.7810 30.8646
  648 707.908 47.8002 -57.2076
  649 533.468 -1.65786 0.793056
  650 533.275 -1.65638 -0.792048
  651 -34.0472 -1.67067 -27.7842
  652 -34.0019 -1.66063 27.7428
  653 -0.121233 -120.023 -18.0879
  654 542.398 -1.56312 1.65836
  655 542.199 -1.56162 -1.65642
  656 57.1135 16.4208 10.6937
  657 56.9908 16.4530 -10.7050
  658 424.572 -33.4268 -119.541
  659 431.697 -33.2193 120.716
  660 607.078 -4.59861 10.1307
  661 607.027 -4.56735 -10.4647
  662 2.74827 -149.283 13.2344
  663 -25.2920 0.198168 -1.60633
  664 -25.1477 0.198198 1.60355
  665 203.617 48.8987 -212.393
  666 194.837 2.06735 1.87525
  667 194.851 2.06606 -1.87402
  668 100.265 5.15150 -0.476638
  669 100.193 5.15605 0.476290
  670 117.501 10.3958 0.878796
  671 117.569 10.3841 -0.874804
  672 362.821 8.19394 -39.2259
  673 363.012 8.06961 39.3321
  674 100.951 28.5309 -4.58472
  675 100.638 28.7271 4.60237
  676 -59.3712 4.42339 -14.2827
  677 -59.2134 4.41291 14.2573
  678 -70.7712 4.93922 -16.6657
  679 -70.6155 4.92919 16.6340
  680 626.161 -9.88448 0.105476
  681 1.77386 -23.0340 -40.9154
  682 626.649 -10.3637 -0.838944
  683 806.507 61.5209 -6.20749
  684 -77.8827 0.394458 13.4150
  685 -77.9632 0.393743 -13.4387
  686 87.9545 26.2233 -11.0711
  687 87.3347 26.5079 11.1038
  688 -142.841 -0.0821241 -1.10978
  689 -142.627 -0.0818894 1.10743
  690 2.36933 -20.4706 40.8530
  691 -47.9598 0.863203 28.8559
  692 -48.0409 0.859009 -28.9063
  693 689.447 -51.3892 -19.1206
  694 116.652 0.970703 -1.20817
  695 116.592 0.971498 1.20856
  696 32.1844 9.02135 7.62797
  697 32.0659 9.03559 -7.63797
  698 371.725 -15.0259 -100.791
  699 374.268 -15.6263 102.561
  700 1238.11 89.5175 102.401
  701 26.4967 -96.2923 -49.3160
  702 -8.42321 -18.1606 41.2437
  703 -8.42580 -18.2433 -41.3522
  704 83.9676 15.8582 -4.38872
  705 84.0673 15.8328 4.38819
  706 557.655 -1.38768 -4.32360
  707 557.864 -1.39124 4.32489
  708 273.657 2.21634 3.77197
  709 273.623 2.21683 -3.76838
  710 26.7622 20.4309 26.9568
  711 26.5911 20.4893 -27.0257
  712 21.6433 3.87437 2.86848
  713 21.5258 3.87821 -2.87303
  714 -13.6844 4.73563 41.0692
  715 -13.8119 4.72409 -41.1703
  716 461.727 -1.98218 3.54182
  717 461.579 -1.97948 -3.53874
  718 402.430 1.38620 9.51308
  719 402.317 1.39199 -9.50665
  720 57.9632 -23.6194 57.6152
  721 59.4633 -26.1527 -55.9332
  722 -28.4975 7.13900 35.7785
  723 -28.6264 7.14334 -35.8582
  724 18.4800 -32.8861 16.3511
  725 4.47179 13.1184 36.5994
  726 4.26606 13.1437 -36.6697
  727 -83.1493 2.18817 -9.29321
  728 -82.9781 2.18367 9.27659
  729 76.5837 21.9065 8.97393
  730 76.4465 21.9583 -8.97788
  731 623.597 -18.1580 -28.8292
  732 589.986 -49.9375 -20.7563
  733 -9.22203 -18.9448 29.7577
  734 -9.21379 -19.0409 -29.7265
  735 235.941 7.35216 -152.777
  736 230.124 12.0413 153.921
  737 146.045 27.7370 -28.6845
  738 145.658 28.0005 28.9170
  739 13.8395 -18.8298 30.8948
  740 -0.792653 -63.3972 -16.8754
  741 297.335 14.4469 -37.8517
  742 297.444 14.3852 38.0189
  743 0.701630 -123.645 15.3750
  744 180.447 22.5575 -13.2820
  745 180.384 22.5899 13.3463
  746 587.123 -1.29439 -10.6323
  747 587.279 -1.35890 10.5265
  748 12.4842 -155.088 8.18055
  749 274.126 18.1357 29.2275
  750 274.074 18.1630 -29.1226
  751 77.7490 27.2303 -1.86366
  752 78.1486 26.9749 1.80498
  753 -105.398 0.688343 -9.20594
  754 -105.274 0.687652 9.18770
  755 301.382 2.75433 -7.04356
  756 301.433 2.75202 7.04999
  757 190.435 25.4830 -21.3966
  758 190.344 25.5395 21.5181
  759 5.86669 16.1245 27.5350
  760 5.70490 16.1674 -27.5912
  761 591.685 -42.8841 13.3966
  762 -85.2289 1.56579 6.97028
  763 -85.4052 1.56816 -6.98055
  764 1236.51 261.720 -185.677
  765 -27.5428 2.75822 6.86841
  766 -27.6888 2.76285 -6.87863
  767 500.775 -0.219336 19.9583
  768 500.591 -0.146050 -19.9844
  769 930.001 55.2894 -1.12141
  770 562.424 -2.30299 -8.02848
  771 562.626 -2.31514 8.02127
  772 366.215 3.00590 12.1747
  773 366.123 3.01542 -12.1653
  774 545.263 -53.5740 164.234
  775 242.594 15.1644 -12.5349
  776 242.608 15.1628 12.5663
  777 5.96325 -88.3961 16.1374
  778 624.020 -73.1026 59.5966
  779 380.249 -1.15528 2.02914
  780 380.151 -1.15399 -2.02763
  781 492.571 -1.10986 1.07070
  782 492.403 -1.10864 -1.06959
  783 -2.08095 -49.3786 -28.9722
  784 3.35876 -81.6684 26.3683
  785 231.204 24.4037 40.5894
  786 231.248 24.3679 -40.3298
  787 1219.25 10.2081 11.4687
  788 390.223 1.78317 -48.3206
  789 390.463 1.63510 48.4542
  790 -76.6858 2.54142 19.8932
  791 -76.8254 2.54765 -19.9311
  792 17.9174 -61.3122 0.828695
  793 11.4164 -143.117 -15.9574
  794 877.583 115.784 -25.8239
  795 -0.734012 -63.2758 15.2465
  796 21.2713 14.4258 31.8195
  797 21.1971 14.4112 -32.0140
  798 124.554 22.0254 -0.702169
  799 124.459 22.0679 0.722628
  800 585.784 -27.2339 -12.8128
  801 587.289 -26.7998 11.1607
  802 676.956 133.654 -273.329
  803 -87.2703 0.550575 -2.78026
  804 -87.0906 0.549878 2.77487
  805 -44.3561 -0.139739 11.3334
  806 -44.3751 -0.141909 -11.3480
  807 46.1662 7.34944 5.00034
  808 45.2184 7.31439 -5.12863
  809 447.748 -3.97649 43.3018
  810 447.437 -3.65374 -43.1686
  811 232.387 3.70218 -2.76431
  812 232.396 3.70311 2.76750
  813 717.754 -2.70029 51.4474
  814 82.9348 10.6818 -4.04394
  815 83.0267 10.6670 4.04177
  816 75.2116 13.9154 -18.6891
  817 74.5563 14.2260 18.8250
  818 0.308743 -47.2930 -37.8667
  819 993.423 179.054 160.144
  820 -141.211 0.0466524 -3.71339
  821 -141.008 0.0465328 3.70711
  822 -0.198546 -149.381 14.0641
  823 12.4022 -18.6875 -31.3961
  824 -22.2250 -1.31585 8.52890
  825 -22.2189 -1.31958 -8.53307
  826 806.582 58.2153 -28.3274
  827 217.733 19.1338 -15.8654
  828 217.718 19.1443 15.9276
  829 554.564 -9.36901 -21.9766
  830 555.127 -9.42702 21.7427
  831 -135.803 0.916522 5.11228
  832 -135.993 0.917994 -5.12154
  833 -1.03376 -1.06630 -0.902879
  834 -1.03586 -1.06816 0.906453
  835 0.386613 -152.608 -13.5804
  836 0.699011 -158.278 -11.4975
  837 -146.502 1.27486 0.638583
  838 -146.721 1.27524 -0.639534
  839 89.7938 -9.02844 -104.661
  840 347.313 1.85645 -3.83761
  841 347.391 1.85579 3.84072
  842 -2.74815 1.69337 0.843176
  843 -2.87910 1.69400 -0.844158
  844 508.755 -0.0391798 -13.1219
  845 508.930 -0.0631329 13.1143
  846 -58.1526 0.395917 10.7316
  847 -58.1894 0.395881 -10.7471
  848 315.448 18.4863 -224.837
  849 537.171 -44.7422 49.2557
  850 419.327 -0.0913753 -4.41633
  851 419.449 -0.0933483 4.41981
  852 532.699 -48.4860 -54.4847
  853 172.591 16.6462 -6.95085
  854 172.545 16.6618 6.97856
  855 234.937 12.7408 -9.88876
  856 234.945 12.7412 9.90956
  857 622.866 -12.9533 22.1127
  858 42.9305 23.3671 20.9424
  859 42.7401 23.4495 -21.0286
  860 47.3522 1.30271 1.16252
  861 47.2507 1.30380 -1.16449
  862 297.348 1.36127 3.36698
  863 297.300 1.36166 -3.36418
  864 759.303 -56.3291 98.4305
  865 479.252 0.973159 -17.4330
  866 479.421 0.929054 17.4227
  867 14.4839 6.19579 5.95649
  868 14.3594 6.20447 -5.96533
  869 478.668 -1.97118 5.03173
  870 478.510 -1.96776 -5.02775
  871 -81.1418 -0.0443815 -2.17594
  872 -80.9633 -0.0437099 2.17413
  873 -0.385498 -48.5871 13.6594
  874 -0.517083 -49.3441 -13.7564
  875 587.294 -6.29506 55.1909
  876 -31.4258 9.03723 29.5943
  877 -31.5691 9.05674 -29.6572
  878 -0.176094 -79.6514 -14.9629
  879 234.640 6.14523 -5.29828
  880 234.649 6.14661 5.30446
  881 426.362 -20.8179 -77.3817
  882 429.442 -22.9984 78.1005
  883 -16.8962 -5.49790 -41.3146
  884 -16.8089 -5.49247 41.2127
  885 27.9620 20.1488 24.5358
  886 27.7938 20.2047 -24.5874
  887 1.97210 -177.247 8.95726
  888 9.66149 16.4063 32.9810
  889 9.48210 16.4441 -33.0520
  890 394.533 -7.31026 -68.9833
  891 393.622 -7.54804 69.5173
  892 680.078 42.6406 60.5826
  893 161.293 15.3349 4.59117
  894 161.341 15.3205 -4.57405
  895 490.512 1.37733 -12.9538
  896 490.677 1.36010 12.9534
  897 -18.5748 -7.82236 36.6600
  898 -18.6176 -7.85738 -36.7361
  899 1.83813 -180.059 -4.62746
  900 -28.6193 -1.54903 35.7597
  901 -28.6876 -1.55722 -35.8231
  902 24.5213 17.6609 -18.8162
  903 24.6692 17.6190 18.7831
  904 -1.49992 -12.3832 6.81669
  905 -1.51742 -12.3719 -6.82731
  906 48.0010 19.9315 -16.0074
  907 48.1527 19.8794 15.9823
  908 10.9026 -11.8240 35.6959
  909 9.63955 -10.9703 -37.8490
  910 481.332 -14.7181 44.4958
  911 480.250 -14.1262 -44.6504
  912 -150.102 0.258448 -0.939234
  913 -149.882 0.258523 0.937690
  914 -13.7503 -1.20565 6.45890
  915 -13.7394 -1.20801 -6.45792
  916 0.624864 -112.900 -13.5256
  917 -14.4619 -6.12674 -18.2488
  918 -14.4535 -6.10996 18.2468
  919 -58.4853 5.19480 25.5653
  920 -58.6177 5.20463 -25.6171
  921 156.098 28.1625 -14.3097
  922 155.953 28.2609 14.4001
  923 653.988 49.7478 -6.97833
  924 -2.41631 14.1331 24.9849
  925 -2.57021 14.1675 -25.0333
  926 243.233 16.2429 -73.9334
  927 243.182 16.4602 74.6300
  928 -22.9121 9.59026 20.0201
  929 -23.0611 9.61329 -20.0583
  930 765.275 -26.5742 0.533195
  931 491.145 19.6343 26.5030
  932 571.224 -5.54538 -49.8882
  933 421.172 3.47825 -29.3221
  934 421.352 3.37481 29.3457
  935 -37.8859 5.32647 -9.17232
  936 -37.7347 5.31723 9.15630
  937 -95.9659 1.64170 12.4412
  938 -96.1271 1.64600 -12.4655
  939 -5.89686 -19.2767 -21.1379
  940 -5.85139 -19.2874 21.1719
  941 155.280 7.65495 2.80479
  942 155.321 7.64904 -2.80056
  943 -44.4385 5.06506 32.1432
  944 -44.5516 5.06637 -32.2089
  945 498.486 -1.55154 6.48081
  946 498.315 -1.54762 -6.47642
  947 -3.57737 -41.9038 31.5434
  948 24.6447 15.9415 -15.8997
  949 24.7842 15.9076 15.8741
  950 32.5667 10.4906 9.79450
  951 32.4438 10.5096 -9.80791
  952 93.8371 6.44859 -1.23680
  953 93.9143 6.44201 1.23530
  954 932.666 135.886 -44.4093
  955 -3.85086 -1.02690 -2.60836
  956 -3.85901 -1.02665 2.61293
  957 35.7904 11.8847 -19.1300
  958 36.3730 11.6392 19.0009
  959 342.952 11.3967 -31.7534
  960 343.083 11.3183 31.8304
  961 49.9954 13.4295 -8.91344
  962 50.1137 13.4056 8.90272
  963 95.6706 5.53162 135.481
  964 630.689 -4.98262 -6.11537
  965 630.064 -4.80435 5.59685
  966 118.233 3.90891 120.326
  967 125.532 3.27114 -1.19276
  968 125.477 3.27353 1.19313
  969 314.565 -1.32091 -194.964
  970 237.819 1.68566 1.76321
  971 237.806 1.68476 -1.76196
  972 31.9885 -24.4027 0.693962
  973 35.3380 -19.5265 1.96026
  974 556.164 -1.03908 2.20998
  975 555.956 -1.03784 -2.20764
  976 -45.4236 0.279526 26.4405
  977 -45.4846 0.275694 -26.4817
  978 1000.50 127.481 66.5406
  979 -3.72343 -30.4452 -40.9648
  980 6.02118 -141.453 23.8043
  981 -0.344722 -48.8014 37.5699
  982 576.098 -1.10784 -8.18949
  983 576.294 -1.12553 8.17026
  984 -7.58423 -13.9521 18.3139
  985 -7.60728 -13.9566 -18.2993
  986 734.686 79.6118 -28.2196
  987 1234.80 9.17536 -7.59984
  988 -1.89855 -2.95008 -2.83884
  989 -1.89630 -2.95625 2.84292
  990 341.451 1.59003 -7.07806
  991 341.526 1.58754 7.08360
  992 -3.76680 -29.1642 41.1168
  993 471.290 0.249335 25.8267
  994 471.098 0.358189 -25.8363
  995 620.174 -39.5700 -18.6815
  996 -21.4115 -4.35525 20.5440
  997 -21.4241 -4.37290 -20.5584
  998 11.4959 -36.2059 26.7259
  999 -0.814816 -74.6341 29.5175
  1000 -0.0964015 -79.0791 14.9610
  1001 652.153 40.4992 -4.06604
  1002 735.417 81.1378 13.0184
  1003 522.437 -56.5496 -93.0955
  1004 8.20770 -69.7761 21.1492
  1005 10.2265 -98.9422 1.18176
  1006 151.100 1.57553 0.113555
  1007 151.060 1.57667 -0.113682
  1008 -5.74939 -6.56522 -8.83505
  1009 -5.74360 -6.56534 8.84106
  1010 5.66301 -57.3919 -29.7487
  1011 418.573 -1.40692 -1.62409
  1012 418.695 -1.40842 1.62545
  1013 88.8141 6.05226 -48.7431
  1014 85.0922 6.24581 48.2915
  1015 -4.15733 13.4432 33.7809
  1016 -4.32909 13.4770 -33.8620
  1017 -44.8482 7.32247 -20.7775
  1018 -44.6979 7.30610 20.7378
  1019 326.150 5.10985 -71.1948
  1020 326.257 5.43181 71.9006
  1021 237.025 20.2705 -51.6462
  1022 236.952 20.2880 52.0529
  1023 255.537 15.9396 -18.5471
  1024 255.562 15.9284 18.5962
  1025 653.274 -13.9899 -62.0157
  1026 -14.3248 8.54690 37.8617
  1027 -14.4764 8.55387 -37.9641
  1028 461.127 -2.28195 35.6092
  1029 460.860 -2.04118 -35.5752
  1030 -2.07863 -22.1400 42.4979
  1031 -36.7826 -1.12606 19.7099
  1032 -36.8097 -1.13266 -19.7350
  1033 421.187 1.82814 -35.5797
  1034 421.405 1.67975 35.6230
  1035 536.916 14.5121 -44.9444
  1036 -0.365242 -74.0046 -30.9245
  1037 -5.77621 -29.0289 37.2773
  1038 -6.03184 -29.4146 -36.9806
  1039 300.494 15.1686 -26.9761
  1040 300.573 15.1252 27.0551
  1041 374.715 4.57244 14.9745
  1042 374.615 4.58827 -14.9631
  1043 618.918 -38.6639 15.8770
  1044 38.3548 1.69921 -0.291796
  1045 38.4612 1.69831 0.291185
  1046 527.740 -63.1591 99.1992
  1047 4.81181 0.969085 1.83063
  1048 4.68519 0.969933 -1.83356
  1049 119.690 28.6101 -4.45933
  1050 119.510 28.7150 4.50065
  1051 48.3420 22.6970 17.6832
  1052 48.1768 22.7589 -17.7177
  1053 6.25714 -87.3976 -16.8740
  1054 158.641 3.74477 1.72962
  1055 158.678 3.74207 -1.72751
  1056 482.403 15.0509 11.0500
  1057 423.256 1.12577 13.6664
  1058 423.129 1.14230 -13.6599
  1059 -1.61359 -23.1121 -42.5786
  1060 634.652 -8.32292 -10.6826
  1061 1.88119 -0.439488 41.4011
  1062 2.38263 -0.125790 -41.1609
  1063 572.037 -1.49046 -4.55185
  1064 572.252 -1.49477 4.55094
  1065 610.507 -2.64319 -8.05406
  1066 610.541 -2.71407 7.88428
  1067 -0.454676 -119.586 11.1669
  1068 364.917 6.85838 -19.7027
  1069 365.017 6.83020 19.7206
  1070 440.559 2.01723 15.7376
  1071 440.420 2.03977 -15.7331
  1072 12.9086 11.7779 36.2578
  1073 12.8367 11.7739 -36.3226
  1074 951.422 60.3910 12.4564
  1075 -10.8313 -4.18782 43.5800
  1076 -11.0375 -4.07741 -43.7050
  1077 143.345 25.7397 -5.79377
  1078 143.248 25.7935 5.83533
  1079 -69.2912 0.791291 -3.17621
  1080 -69.1213 0.790653 3.17129
  1081 232.104 15.2560 -84.7684
  1082 231.734 15.8675 85.6435
  1083 70.1652 25.6733 12.2357
  1084 69.9871 25.7514 -12.2578
  1085 159.289 20.9524 -64.6402
  1086 158.477 21.6889 65.0837
  1087 -3.84056 -39.3961 -30.7715
  1088 553.466 9.26703 60.6675
  1089 381.086 15.6783 250.402
  1090 65.9960 26.8231 12.5546
  1091 65.7919 26.9228 -12.5948
  1092 234.051 9.86381 -7.78282
  1093 234.059 9.86359 7.79696
  1094 821.408 16.7170 3.91242
  1095 57.2617 16.3719 5.08823
  1096 56.5630 16.5250 -5.32274
  1097 -24.1346 -5.12313 27.1797
  1098 -24.1608 -5.14901 -27.2126
  1099 -0.788382 -18.4539 7.41508
  1100 -0.820880 -18.4442 -7.44558
  1101 541.523 -1.98565 20.5336
  1102 541.270 -1.80574 -20.6329
  1103 1.51023 -36.2028 39.6162
  1104 -35.6174 2.71420 -35.4034
  1105 -35.5244 2.72114 35.3376
  1106 0.167091 -143.268 -13.7964
  1107 -7.37318 -10.6284 43.5267
  1108 -7.34277 -10.3709 -43.5721
  1109 516.170 -0.669464 -8.64757
  1110 516.350 -0.677663 8.64962
  1111 535.405 -5.60989 25.0532
  1112 534.997 -5.31398 -25.1439
  1113 98.8499 23.7714 -25.7815
  1114 98.1122 24.1572 25.9299
  1115 -1.17896 -73.8469 -25.5148
  1116 701.491 -50.3668 -150.315
  1117 907.825 132.226 24.1436
  1118 10.3261 -103.654 2.71141
  1119 36.7155 20.1215 -24.5817
  1120 36.9276 20.0226 24.4105
  1121 93.2405 28.7307 2.49213
  1122 93.0082 28.8625 -2.49435
  1123 191.663 8.91708 4.32765
  1124 191.682 8.91317 -4.31875
  1125 -11.4089 -16.2544 35.0581
  1126 -11.3954 -16.4196 -35.1217
  1127 -29.8539 10.4193 26.9535
  1128 -30.0017 10.4428 -27.0073
  1129 -8.21941 13.5343 31.1144
  1130 -8.37987 13.5667 -31.1834
  1131 514.491 -26.5093 -44.3041
  1132 517.606 -26.6296 44.0575
  1133 0.674575 -83.4226 -29.0902
  1134 280.608 1.86865 -104.437
  1135 280.938 2.70523 105.975
  1136 93.4567 25.4198 -4.39909
  1137 93.5939 25.3548 4.40488
  1138 271.628 168.594 278.030
  1139 74.5459 19.9810 8.69172
  1140 74.4211 20.0221 -8.69671
  1141 695.723 -68.9067 -43.6898
  1142 268.944 4.97203 6.00208
  1143 268.913 4.97337 -5.99506
  1144 -11.7167 -10.3953 21.6986
  1145 -11.7278 -10.4226 -21.6959
  1146 -13.8830 -12.3787 27.9197
  1147 -13.8871 -12.4310 -27.9287
  1148 462.807 -42.2583 -143.579
  1149 471.300 -46.8746 144.566
  1150 89.5823 1.55933 1.72949
  1151 89.6587 1.55807 -1.72919
  1152 294.712 12.9729 -58.7417
  1153 294.660 12.8319 59.2553
  1154 626.759 -76.7683 112.321
  1155 551.788 -1.73318 1.25937
  1156 551.583 -1.73174 -1.25796
  1157 -46.0137 7.73385 24.1692
  1158 -46.1608 7.75018 -24.2162
  1159 -80.6473 2.30783 -12.2972
  1160 -80.4802 2.30218 12.2768
  1161 149.288 19.2973 173.396
  1162 466.657 29.8262 -22.5295
  1163 269.626 17.1992 -30.4861
  1164 269.678 17.1737 30.6222
  1165 804.231 -4.25689 163.268
  1166 274.192 16.9780 -43.7400
  1167 274.248 16.9202 43.9746
  1168 73.9233 7.12641 -2.57345
  1169 74.0136 7.11821 2.57033
  1170 25.1272 -74.0931 22.0288
  1171 25.3405 -71.5649 -28.6553
  1172 369.032 -21.5352 -145.167
  1173 373.771 -19.8825 144.916
  1174 148.400 25.9713 -46.9151
  1175 147.773 26.4349 47.2767
  1176 640.707 -39.8427 -38.5723
  1177 -21.9092 -1.28994 40.0630
  1178 -22.0002 -1.29203 -40.1425
  1179 0.278923 -32.1878 -40.7560
  1180 169.401 11.6002 -111.415
  1181 169.735 11.9828 113.095
  1182 -0.403347 -32.5818 8.22767
  1183 -0.345739 -32.6632 -8.33223
  1184 -148.557 1.18787 -3.55614
  1185 -148.354 1.18690 3.54987
  1186 503.714 -1.47206 -2.54994
  1187 503.889 -1.47410 2.55257
  1188 318.228 9.27719 -17.7435
  1189 318.302 9.25320 17.7725
  1190 -9.70130 1.02662 43.2500
  1191 -9.72984 1.21490 -43.3364
  1192 -0.0226233 -128.796 -12.3407
  1193 -127.296 0.257704 6.01554
  1194 -127.461 0.258396 -6.02758
  1195 106.161 6.63149 -80.6343
  1196 105.440 7.28758 82.9310
  1197 593.592 -35.9558 -6.65642
  1198 176.204 16.0174 -100.436
  1199 176.296 16.3571 101.246
  1200 -71.8519 0.406841 9.70757
  1201 -71.9073 0.406217 -9.72312
  1202 2.08225 -108.786 -19.3735
  1203 -14.0163 3.58094 -3.90507
  1204 -13.8782 3.57726 3.89882
  1205 95.8888 20.9142 5.13757
  1206 95.7713 20.9587 -5.13183
  1207 336.544 -0.459861 -2.20551
  1208 336.616 -0.460625 2.20709
  1209 449.272 0.269988 10.3726
  1210 449.131 0.280309 -10.3677
  1211 27.2997 0.274459 20.0088
  1212 26.9027 -0.171897 -20.4970
  1213 4.87055 -61.5281 29.9745
  1214 808.624 117.389 13.9459
  1215 -24.7888 -1.86732 15.6010
  1216 -24.7964 -1.87590 -15.6122
  1217 3.91478 -57.6536 -31.7258
  1218 -2.28420 -37.4293 22.7372
  1219 -2.18085 -37.0331 -23.5437
  1220 636.673 -7.11107 9.40124
  1221 0.534894 -146.842 12.5403
  1222 5.59681 -41.7105 -35.4611
  1223 83.6759 0.873186 0.550525
  1224 83.5963 0.873791 -0.551147
  1225 -5.72554 -25.6647 40.6971
  1226 -64.3954 3.55059 -10.0607
  1227 -64.2320 3.54474 10.0444
  1228 1258.26 20.7505 37.1210
  1229 -34.7787 4.63664 35.4880
  1230 -34.8886 4.63325 -35.5608
  1231 313.964 11.3770 -53.0287
  1232 314.167 11.1963 53.3058
  1233 21.9971 -25.0319 -11.1422
  1234 298.064 12.8623 -22.4819
  1235 298.131 12.8298 22.5377
  1236 13.1905 -81.7154 -0.133900
  1237 -5.75529 -25.7413 -40.6644
  1238 -42.0560 1.24182 5.56866
  1239 -42.2099 1.24411 -5.57683
  1240 -20.5766 2.43103 -40.6435
  1241 -20.4648 2.44165 40.5677
  1242 639.825 52.6091 41.9943
  1243 361.353 2.85074 -55.3589
  1244 361.715 2.79490 55.4912
  1245 -153.958 0.246672 -1.12009
  1246 -153.739 0.246594 1.11776
  1247 324.432 5.43760 -11.9218
  1248 324.498 5.43058 11.9331
  1249 -156.630 -2.91471 -0.460079
  1250 -156.857 -2.91682 0.460212
  1251 482.199 -33.7481 -63.5019
  1252 -73.7457 1.33345 20.1625
  1253 -73.8494 1.33340 -20.2008
  1254 486.746 -35.6406 62.9317
  1255 330.682 9.65552 -23.7071
  1256 330.771 9.61398 23.7465
  1257 40.3207 -60.9108 -79.5481
  1258 0.760484 -101.086 -24.7668
  1259 -1.76403 -42.2081 38.0777
  1260 1003.37 198.156 -164.217
  1261 -0.189542 -95.5879 24.6088
  1262 1052.69 100.107 -72.4275
  1263 -0.703866 -177.558 -11.3390
  1264 58.9079 3.78685 -0.280834
  1265 59.0034 3.78320 0.278818
  1266 -0.426173 -41.7779 8.61359
  1267 -0.337732 -42.0063 -8.59592
  1268 188.340 2.46666 0.880995
  1269 188.358 2.46522 -0.880175
  1270 646.822 -45.8616 36.2125
  1271 20.3559 3.78295 -4.51952
  1272 20.4749 3.77827 4.51336
  1273 3.73785 -188.436 3.52698
  1274 2.38638 -201.462 -3.55408
  1275 594.653 -69.6705 -69.8951
  1276 -1.54562 -53.3031 24.9676
  1277 634.416 43.9251 -54.9352
  1278 -1.84014 -70.2179 24.4501
  1279 1.31366 -189.034 -7.97666
  1280 303.763 6.20101 -13.4805
  1281 303.819 6.18657 13.4993
  1282 -0.255772 -105.507 11.0431
  1283 -0.223890 -86.6105 -24.7242
  1284 1359.44 256.499 216.801
  1285 554.133 -0.179090 0.931255
  1286 553.927 -0.178670 -0.930458
  1287 17.3665 3.63480 32.2358
  1288 16.8597 4.24053 -32.4147
  1289 -6.02350 9.09830 39.8572
  1290 -6.25304 9.09868 -39.9816
  1291 604.120 -10.4149 -35.4382
  1292 555.697 -23.8503 -26.4755
  1293 555.272 -26.9892 26.8956
  1294 90.0325 8.19591 2.27515
  1295 89.9488 8.20591 -2.27661
  1296 -87.5760 2.30161 -15.2038
  1297 -87.4240 2.29643 15.1733
  1298 618.835 -78.2712 -97.0353
  1299 -4.57466 -11.1814 11.4888
  1300 -4.59335 -11.1757 -11.4851
  1301 655.588 -24.3342 58.6151
  1302 -6.59012 -25.2650 30.4497
  1303 -6.51419 -25.3624 -30.3114
  1304 -51.2928 3.22830 6.75872
  1305 -51.4513 3.23305 -6.76981
  1306 104.178 15.8207 -44.6618
  1307 103.164 16.3757 44.6036
  1308 161.543 2.35920 -0.314592
  1309 161.509 2.36084 0.314880
  1310 -59.6128 6.19440 24.1892
  1311 -59.7537 6.20631 -24.2359
  1312 521.550 0.330810 1.44690
  1313 521.364 0.331027 -1.44572
  1314 296.583 5.88037 192.860
  1315 429.869 -0.914578 3.69261
  1316 429.740 -0.912937 -3.68963
  1317 293.248 6.60134 -80.2114
  1318 293.227 6.28745 80.8261
  1319 3.01117 -107.542 -12.2322
  1320 116.975 28.2384 -21.9922
  1321 116.468 28.5513 22.1480
  1322 -1.16119 -0.986173 -1.48396
  1323 -1.16698 -0.986319 1.48822
  1324 372.396 8.97728 30.0051
  1325 372.255 9.06369 -29.9586
  1326 189.680 12.9737 6.87391
  1327 189.705 12.9666 -6.85581
  1328 275.366 12.8984 -15.9826
  1329 275.406 12.8841 16.0177
  1330 355.553 -0.118591 -3.73609
  1331 355.636 -0.119580 3.73886
  1332 -11.2147 -5.37141 -12.9480
  1333 -11.2106 -5.36360 12.9522
  1334 -100.751 -0.213744 3.98473
  1335 -100.937 -0.213362 -3.99163
  1336 -18.7046 -8.39776 -31.0848
  1337 -18.6830 -8.35198 31.0446
  1338 -53.2220 0.240352 1.58366
  1339 -53.3833 0.240076 -1.58585
  1340 -158.841 1.36815 0.625635
  1341 -159.068 1.36872 -0.626562
  1342 662.252 -73.7349 130.019
  1343 502.024 -1.90994 -50.1475
</Section>

newXOutput 80

<Section columns = "stress_xx | stress_yy | stress_xy">
  1 576.504 -1.18265 0.635342
  2 576.724 -1.18364 -0.635670
  3 -174.048 0.733737 -2.41729
  4 0.274956 0.0578193 0.494981
  5 1023.90 338.486 349.348
  6 1158.54 379.108 -337.477
  7 0.273525 0.0565467 -0.493077
  8 -173.807 0.733610 2.41575
  9 574.874 -1.13981 -1.92412
  10 575.418 -2.03638 -3.06781
  11 580.785 -2.05466 -0.879509
  12 581.527 -2.05605 -3.69627
  13 583.302 -2.05062 -1.26594
  14 595.251 -1.87190 -1.70719
  15 599.638 -2.58480 -4.97107
  16 604.611 -1.40332 -3.48094
  17 608.046 -0.322334 -6.70058
  18 632.211 -3.87916 -5.72972
  19 643.174 -3.15761 -7.28327
  20 655.617 -4.51667 -3.27009
  21 662.204 -5.77651 -2.33281
  22 660.010 -6.43818 7.18447
  23 641.131 -6.97954 15.8277
  24 595.727 -7.22055 34.7869
  25 519.880 5.01269 40.7818
  26 459.030 6.46126 37.3372
  27 372.698 11.3628 22.5502
  28 394.424 11.0276 2.67653
  29 338.391 31.8528 -13.9985
  30 439.290 15.0907 -41.5841
  31 492.942 4.25173 -33.8093
  32 585.391 -1.23019 -29.3727
  33 635.234 -8.46065 -19.1582
  34 659.445 -7.48022 -7.09831
  35 661.298 -5.61882 2.39798
  36 655.031 -4.46522 3.12249
  37 643.028 -3.17386 7.10570
  38 632.259 -3.92097 5.63298
  39 608.221 -0.345187 6.65989
  40 604.826 -1.41194 3.46787
  41 599.870 -2.59081 4.96949
  42 595.486 -1.87522 1.70706
  43 583.529 -2.05315 1.26707
  44 581.753 -2.05823 3.69961
  45 581.009 -2.05639 0.880818
  46 575.638 -2.03798 3.07036
  47 575.092 -1.14079 1.92571
  48 545.233 0.735628 -0.754555
  49 506.574 -0.600402 -1.61352
  50 457.986 -3.15905 -1.53310
  51 407.318 -0.437047 -1.27471
  52 362.622 -1.00521 -0.998551
  53 314.535 0.497000 -1.16866
  54 266.810 3.03930 -0.638183
  55 216.994 2.54734 -1.45188
  56 175.492 1.33587 -2.08295
  57 120.777 0.352512 -2.19467
  58 64.9893 1.74860 -1.68710
  59 18.2897 1.50587 -1.63253
  60 -40.1629 0.709322 -1.46369
  61 -83.6378 -1.04917 -3.79265
  62 -125.788 -3.12941 -1.70833
  63 -168.666 0.258324 1.24055
  64 -178.113 3.04299 -0.343885
  65 -178.966 1.29403 0.673021
  66 -173.110 0.589797 -0.0573830
  67 -175.591 1.92943 -2.02555
  68 -173.099 2.37502 0.0446026
  69 -163.995 0.677224 -3.16854
  70 -166.667 1.47549 -3.44395
  71 -162.855 1.38307 -1.82346
  72 -151.029 0.830632 -2.86296
  73 -146.093 1.59010 -4.89961
  74 -137.501 1.80819 -3.94669
  75 -122.031 0.911700 -7.10384
  76 -113.427 0.286175 -5.92584
  77 -97.5850 0.408453 -6.91496
  78 -84.0339 0.353575 -7.73855
  79 -72.0774 0.133889 -6.11156
  80 -55.3102 0.374817 -6.17910
  81 -40.7921 -0.125244 -6.64481
  82 -26.7282 -0.702834 -5.88428
  83 -15.5350 -0.620182 -4.53823
  84 -7.69470 -1.10974 -3.81457
  85 -1.37868 -0.643500 -1.39011
  86 0.0197808 -0.730895 -0.515491
  87 -0.391242 -0.436972 -0.129259
  88 -1.00969 -1.14660 -1.22199
  89 -0.982848 -6.52609 -3.32077
  90 -0.824167 -14.5069 -4.68972
  91 -0.415328 -24.5660 -6.81185
  92 -0.202992 -37.6450 -5.86496
  93 -0.138770 -49.5715 -7.37118
  94 -0.884227 -63.9911 -8.27609
  95 -0.364051 -81.8857 -8.30627
  96 0.165708 -99.8937 -7.92540
  97 0.385180 -119.126 -7.79295
  98 0.609543 -138.799 -7.61798
  99 -0.0155568 -152.892 -10.2718
  100 0.976525 -173.297 -9.15702
  101 1.23909 -197.060 -7.12044
  102 -0.215776 -206.612 -9.42239
  103 1.75624 -222.931 -8.58458
  104 4.48319 -244.439 -3.19224
  105 8.83310 -247.987 -5.10631
  106 6.69893 -219.285 9.76879
  107 10.5968 -152.607 32.7442
  108 46.2497 -60.3897 85.8515
  109 138.648 266.879 261.895
  110 1564.84 89.1279 159.103
  111 1350.04 24.8397 57.1209
  112 1306.71 8.17085 13.4715
  113 1296.98 1.78401 -2.05444
  114 1306.22 13.1485 -30.0370
  115 1349.71 45.6562 -68.4622
  116 1526.52 174.001 -202.624
  117 338.143 210.537 -318.235
  118 79.3902 -60.8046 -101.652
  119 23.7372 -167.570 -39.9861
  120 6.78022 -206.931 -10.1853
  121 7.20842 -238.082 1.74003
  122 1.98924 -234.467 2.04732
  123 0.626902 -217.293 7.04088
  124 0.733043 -205.461 5.51754
  125 1.08905 -185.947 10.2280
  126 -0.0491656 -175.019 10.1325
  127 0.428724 -158.416 7.25698
  128 0.872993 -137.196 9.38951
  129 0.191558 -121.973 7.43097
  130 0.246877 -99.9461 9.40398
  131 -0.999276 -82.8947 8.10531
  132 -0.675067 -64.0383 8.00995
  133 -0.0892046 -49.2854 7.38675
  134 -0.268963 -37.4233 5.87165
  135 -0.403526 -24.4935 6.74382
  136 -0.811622 -14.4978 4.66612
  137 -0.977527 -6.53614 3.31848
  138 -1.00823 -1.15772 1.22449
  139 -0.391155 -0.441692 0.132457
  140 0.0139956 -0.731526 0.518321
  141 -1.38935 -0.643021 1.39358
  142 -7.70998 -1.10846 3.81766
  143 -15.5546 -0.618077 4.53881
  144 -26.7421 -0.700250 5.88117
  145 -40.7918 -0.123107 6.63706
  146 -55.2934 0.375241 6.17011
  147 -72.0376 0.135052 6.10201
  148 -83.9729 0.355046 7.72721
  149 -97.4949 0.408519 6.90268
  150 -113.309 0.286229 5.91393
  151 -121.894 0.911130 7.09164
  152 -137.337 1.80700 3.93678
  153 -145.913 1.58874 4.89107
  154 -150.833 0.829720 2.85708
  155 -162.643 1.38203 1.81932
  156 -166.447 1.47467 3.43945
  157 -163.772 0.677001 3.16466
  158 -172.865 2.37369 -0.0461134
  159 -175.354 1.92838 2.02328
  160 -172.872 0.589686 0.0566828
  161 -178.723 1.29344 -0.672992
  162 -177.871 3.04137 0.343377
  163 -168.428 0.258493 -1.24005
  164 -125.579 -3.12695 1.70711
  165 -83.4547 -1.04787 3.79025
  166 -40.0066 0.709435 1.46250
  167 18.4105 1.50525 1.63133
  168 65.0822 1.74752 1.68593
  169 120.837 0.352067 2.19323
  170 175.519 1.33480 2.08170
  171 216.996 2.54571 1.45107
  172 266.782 3.03750 0.637885
  173 314.478 0.496917 1.16805
  174 362.536 -1.00426 0.998036
  175 407.203 -0.436382 1.27404
  176 457.840 -3.15655 1.53238
  177 506.398 -0.599585 1.61264
  178 545.033 0.735496 0.754151
  179 161.044 26.1373 -11.0964
  180 160.931 26.2014 11.1668
  181 -0.492199 5.87183 41.0252
  182 -0.670376 5.81627 -41.0631
  183 357.917 -4.40094 -84.7450
  184 357.579 -5.04738 85.5585
  185 74.7737 19.7880 -9.84399
  186 73.9024 20.0620 9.84165
  187 58.2465 7.67788 -4.51182
  188 58.3502 7.66695 4.50601
  189 336.305 4.14131 -13.3753
  190 336.380 4.12906 13.3900
  191 -0.636590 13.0329 20.9362
  192 -0.787586 13.0642 -20.9753
  193 390.235 7.85440 -32.5736
  194 390.413 7.74790 32.6316
  195 -14.5423 -12.5129 34.2625
  196 -14.5433 -12.5919 -34.3146
  197 4.51229 -28.3477 -38.8706
  198 126.344 13.6697 -81.3879
  199 5.31262 -30.4420 37.8197
  200 124.396 14.5856 82.4815
  201 550.074 -68.4376 -121.667
  202 568.168 -71.0905 117.192
  203 203.195 4.50631 -3.32362
  204 203.183 4.50821 3.32759
  205 -23.7876 1.36176 -3.65794
  206 -23.6413 1.36040 3.65286
  207 -40.7651 6.84093 31.7729
  208 -40.8969 6.85165 -31.8412
  209 204.468 16.3065 -8.82694
  210 204.449 16.3160 8.85289
  211 65.4443 26.4004 11.1705
  212 65.1848 26.5510 -11.2520
  213 -50.1627 5.49564 -12.0827
  214 -50.0035 5.48569 12.0619
  215 441.158 -1.10718 6.08393
  216 441.023 -1.10333 -6.07940
  217 15.6208 -52.6436 13.0370
  218 16.9574 -47.0764 -10.8226
  219 -3.75028 -35.6870 38.2732
  220 -3.87454 -37.1952 -37.1140
  221 190.054 26.6874 -37.6913
  222 189.848 26.8271 37.9845
  223 -38.1979 0.179942 32.9612
  224 -38.2726 0.172369 -33.0177
  225 471.831 0.974336 -17.2529
  226 471.990 0.943676 17.2521
  227 509.838 -8.85858 -34.5860
  228 510.259 -9.32930 34.5172
  229 819.852 59.8565 1.54568
  230 752.690 86.8964 30.6792
  231 735.361 1.62023 -52.2412
  232 96.7921 19.0279 4.85270
  233 96.6850 19.0641 -4.84988
  234 10.4335 16.9315 30.2197
  235 10.2575 16.9796 -30.2859
  236 569.769 -34.2537 -26.2058
  237 566.565 -34.6391 28.1088
  238 318.203 0.535846 -5.11083
  239 318.262 0.533928 5.11526
  240 -66.0669 4.79608 20.7735
  241 -66.2171 4.80686 -20.8140
  242 -9.53006 -9.35755 -15.6872
  243 -9.51926 -9.34904 15.6940
  244 -70.5878 1.29171 5.77632
  245 -70.7599 1.29419 -5.78569
  246 264.959 17.4239 -23.5887
  247 264.991 17.4062 23.6645
  248 335.119 8.53784 -49.2795
  249 335.336 8.40711 49.4777
  250 87.0251 3.56488 0.612805
  251 87.1059 3.56193 -0.613528
  252 196.705 14.5378 -167.750
  253 231.416 19.0727 181.346
  254 29.0063 13.8802 27.6392
  255 28.8867 14.1418 -27.7917
  256 767.442 -47.6870 -27.9557
  257 73.3070 25.1161 9.78659
  258 73.1500 25.1837 -9.79781
  259 193.733 22.1706 -66.3567
  260 193.335 22.6549 66.9469
  261 862.899 128.134 7.53907
  262 511.614 -1.29557 23.3226
  263 511.392 -1.16297 -23.3608
  264 -4.50084 -28.2770 -24.3470
  265 -4.35423 -28.3840 24.4384
  266 -0.807335 -66.2399 -32.7612
  267 2.70524 -75.6295 -28.8869
  268 1.52767 -76.4215 30.8048
  269 -11.7285 -10.0229 43.2872
  270 -11.7876 -10.0162 -43.4826
  271 29.5832 -53.2835 -18.0270
  272 31.9161 -48.2008 23.0780
  273 -29.2455 -2.35449 21.3401
  274 -29.2682 -2.36626 -21.3639
  275 368.307 7.90755 -20.6946
  276 368.417 7.86958 20.7184
  277 639.074 -62.4503 -12.9383
  278 148.279 10.2626 2.04077
  279 148.329 10.2534 -2.03542
  280 -1.48930 -62.2818 31.3992
  281 19.9184 12.3275 12.4820
  282 19.7835 12.3520 -12.5018
  283 1005.31 68.2432 -32.2120
  284 494.371 -1.06328 7.32843
  285 494.204 -1.05647 -7.32494
  286 340.856 -12.9566 -125.953
  287 343.574 -12.7142 127.654
  288 638.341 -59.3622 2.68408
  289 -58.7750 1.97161 25.8437
  290 -58.8695 1.97064 -25.8916
  291 621.435 -37.1973 202.233
  292 -24.6932 5.10007 38.7273
  293 -24.8091 5.08880 -38.8098
  294 111.814 30.4600 -14.2687
  295 111.374 30.7345 14.3595
  296 -102.591 0.472872 0.916033
  297 -102.786 0.472552 -0.917668
  298 525.312 27.5427 -272.195
  299 -99.0699 1.88133 -10.9254
  300 -98.8965 1.87696 10.9047
  301 -1.60298 -11.1878 43.2832
  302 0.0651432 -10.7649 -42.6816
  303 238.680 22.5226 -33.7143
  304 238.662 22.5375 33.8888
  305 58.0932 4.63954 3.42171
  306 57.9933 4.64486 -3.42615
  307 246.952 7.05834 -7.84624
  308 246.967 7.05795 7.85657
  309 25.0676 -12.7582 18.8995
  310 22.8779 -16.0837 -19.2975
  311 239.759 1.93680 -2.17809
  312 239.771 1.93758 2.18003
  313 -82.7880 2.18663 18.7022
  314 -82.9137 2.18954 -18.7391
  315 62.6192 0.335222 -21.5627
  316 60.8634 0.228906 19.9386
  317 513.838 -1.57845 2.06089
  318 513.657 -1.57673 -2.05868
  319 1110.35 61.9434 48.0080
  320 124.453 14.1151 0.191152
  321 124.380 14.1332 -0.184294
  322 -17.8841 4.88778 7.72791
  323 -18.0285 4.89627 -7.74101
  324 168.471 20.3712 -7.98382
  325 168.410 20.3979 8.02334
  326 22.7351 18.0191 30.9829
  327 22.5902 18.0514 -31.0895
  328 2.64749 -110.271 20.7825
  329 -107.050 -0.153118 -2.26833
  330 -106.854 -0.152726 2.26471
  331 396.909 -0.974618 -4.00355
  332 397.017 -0.976456 4.00668
  333 417.730 0.782584 -10.6076
  334 417.852 0.772053 10.6142
  335 -100.837 1.47136 -7.66592
  336 -100.652 1.46861 7.65343
  337 6.15011 0.951146 0.557231
  338 6.02177 0.951581 -0.558733
  339 -2.28781 -46.7219 24.1868
  340 -1.80591 -48.6027 -24.1507
  341 474.220 -37.5225 -86.0396
  342 491.741 -44.9635 84.6070
  343 284.356 11.2883 -14.8353
  344 284.398 11.2775 14.8608
  345 129.470 28.9118 -9.77790
  346 129.237 29.0495 9.84952
  347 -37.8151 7.90528 17.5710
  348 -37.9683 7.92266 -17.6042
  349 863.299 33.4926 38.9843
  350 49.4368 -52.3537 -60.9283
  351 52.8636 -47.1133 63.3157
  352 -14.2520 13.4552 28.9420
  353 -14.4081 13.4855 -29.0033
  354 -23.0668 -4.23925 38.5977
  355 -23.1361 -4.25432 -38.6765
  356 980.879 173.359 -61.7115
  357 643.690 -4.77825 70.1425
  358 591.859 -14.8462 -16.7694
  359 591.528 -14.4983 15.9518
  360 421.013 -6.02761 -55.1243
  361 420.493 -6.38597 55.1754
  362 0.846981 -132.874 -16.4244
  363 539.471 0.0375672 -12.9343
  364 539.657 0.00155096 12.9130
  365 7.47900 -123.053 11.2868
  366 645.692 51.3209 -34.2330
  367 160.982 3.24984 1.18897
  368 160.946 3.25209 -1.18976
  369 422.427 1.21923 -40.8778
  370 422.685 1.05095 40.9556
  371 451.809 1.63656 -24.4504
  372 451.978 1.56138 24.4513
  373 -0.892821 4.01099 4.83043
  374 -1.02689 4.01632 -4.83823
  375 266.419 14.7220 -66.8393
  376 266.430 14.9017 67.3552
  377 529.133 -1.32259 3.35528
  378 528.942 -1.32028 -3.35216
  379 309.086 14.6930 -34.3989
  380 309.184 14.6272 34.5168
  381 352.949 3.10736 8.97010
  382 352.867 3.11171 -8.96262
  383 -16.7104 -2.94210 13.3057
  384 -16.7120 -2.95051 -13.3082
  385 -4.01944 -2.84371 -3.96250
  386 -4.02101 -2.84471 3.96835
  387 709.015 -79.8260 61.2808
  388 -8.86472 -21.6387 35.6158
  389 -8.79948 -21.8380 -35.6288
  390 123.515 5.73584 -0.377384
  391 123.576 5.73047 0.377590
  392 -3.48955 -17.7536 13.3813
  393 -3.53087 -17.7286 -13.3849
  394 50.9258 19.5783 13.0715
  395 50.7860 19.6224 -13.0900
  396 579.189 -3.68569 17.2804
  397 578.924 -3.49656 -17.5064
  398 -0.712673 -32.5191 41.7723
  399 -47.3409 -0.760166 20.0370
  400 -47.3848 -0.765093 -20.0668
  401 -0.896401 -34.4651 -41.3098
  402 541.952 -0.915830 8.25998
  403 541.758 -0.905189 -8.26211
  404 -1.86680 12.9767 36.9172
  405 -2.06724 13.0094 -37.0120
  406 406.151 3.75451 -16.6668
  407 406.271 3.73108 16.6764
  408 621.849 -26.3397 -9.05642
  409 623.094 -21.5249 6.38363
  410 -1.14817 -63.4384 -26.3646
  411 60.4136 23.1663 -5.99704
  412 60.8993 22.9485 5.90592
  413 637.460 40.9894 20.9151
  414 358.488 -12.3472 -172.356
  415 367.391 -18.7445 179.837
  416 26.2391 19.1180 22.1253
  417 26.0779 19.1674 -22.1679
  418 264.692 4.71390 -5.37330
  419 264.719 4.71422 5.37880
  420 257.230 64.9759 271.707
  421 111.123 23.5832 -1.81718
  422 111.247 23.5275 1.83317
  423 7.36455 -56.3919 26.0340
  424 -0.747670 -102.613 -22.4957
  425 46.5364 23.9737 19.5743
  426 46.3538 24.0448 -19.6266
  427 58.1011 12.4830 -7.25723
  428 58.2133 12.4627 7.24906
  429 -15.8800 0.0691368 -42.8080
  430 -15.7653 0.0439183 42.7221
  431 131.360 26.7291 -31.0913
  432 130.794 27.0942 31.3201
  433 629.501 -18.4125 -53.6984
  434 20.0300 -3.06783 30.1828
  435 19.4252 -2.95475 -30.4196
  436 459.045 -20.0256 -60.8517
  437 460.806 -21.3247 60.8193
  438 -110.074 0.785296 -11.0072
  439 -109.912 0.782562 10.9854
  440 -0.00782585 -101.279 20.3833
  441 -0.681969 -64.5677 23.5196
  442 -44.3032 3.22185 32.9875
  443 -44.4015 3.21823 -33.0503
  444 329.216 0.368218 -1.97183
  445 329.282 0.367673 1.97356
  446 -9.56762 -15.1363 24.5002
  447 -9.58744 -15.1750 -24.4800
  448 210.746 14.5755 -96.3229
  449 210.280 15.4400 97.2463
  450 1.76391 -120.467 -21.4484
  451 1107.79 36.2451 0.257112
  452 3.37805 -138.799 -10.1833
  453 -127.221 -0.342683 -3.62331
  454 -127.016 -0.342612 3.61798
  455 -47.7149 7.25271 25.9759
  456 -47.8604 7.26786 -26.0299
  457 -59.2867 0.896943 19.9971
  458 -59.3515 0.896090 -20.0293
  459 229.154 21.3577 -23.9687
  460 229.138 21.3771 24.0739
  461 340.959 11.0020 -26.5573
  462 341.069 10.9453 26.6125
  463 -4.79332 -19.3881 43.3706
  464 -4.80094 -19.2591 -43.5576
  465 597.408 13.6157 -67.4625
  466 43.2233 -4.74832 -0.316324
  467 41.7035 -5.12456 1.10709
  468 10.0935 -120.499 -6.56800
  469 6.67552 -141.764 1.79838
  470 -17.4890 -7.69430 25.1769
  471 -17.5017 -7.72441 -25.1928
  472 129.609 11.3037 -147.066
  473 880.041 22.7572 -104.638
  474 208.961 10.8429 8.14677
  475 208.972 10.8385 -8.13109
  476 301.655 4.52644 -91.5451
  477 302.206 4.44448 92.7629
  478 92.5622 30.1669 4.06159
  479 92.3711 30.2721 -4.06270
  480 272.863 19.0840 -49.9879
  481 272.924 19.0162 50.2971
  482 12.3686 7.23315 37.0961
  483 12.9731 7.53706 -37.0500
  484 -113.647 1.49716 -7.74443
  485 -113.460 1.49488 7.73079
  486 586.363 -65.5656 -52.2515
  487 462.308 -1.49334 -2.77220
  488 462.457 -1.49499 2.77460
  489 32.9029 1.93348 -1.62412
  490 33.0157 1.93148 1.62104
  491 -25.0941 10.5581 23.5199
  492 -25.2468 10.5827 -23.5661
  493 -60.7808 3.53119 -7.87209
  494 -60.6153 3.52554 7.85857
  495 209.193 17.7266 -12.2286
  496 209.173 17.7361 12.2688
  497 -20.9071 9.64735 34.2769
  498 -21.0565 9.66705 -34.3571
  499 536.231 -16.2392 -32.9879
  500 537.162 -16.9411 32.6830
  501 357.519 2.93281 -61.3435
  502 356.939 2.73885 61.8271
  503 138.068 4.08349 -0.0278483
  504 138.119 4.08039 0.0277406
  505 1.88223 -60.6676 -34.9250
  506 631.254 -21.0896 43.7444
  507 9.83411 -37.6368 -29.8755
  508 185.585 28.1269 25.4674
  509 185.730 28.0295 -25.3015
  510 580.037 -61.3321 51.7959
  511 47.5887 -37.3019 80.9417
  512 685.976 -77.8626 -99.4258
  513 470.366 -0.0730739 29.5343
  514 470.136 0.0803289 -29.5291
  515 1.88726 -51.5818 36.3612
  516 -9.25472 -2.72299 -7.18778
  517 -9.25784 -2.72108 7.19215
  518 65.5228 1.46044 -0.285905
  519 65.6155 1.45939 0.284994
  520 -1.54690 -36.4067 15.6562
  521 -1.40333 -36.2423 -15.7417
  522 388.024 1.62534 6.87382
  523 387.922 1.62766 -6.86864
  524 1071.11 200.954 96.1318
  525 48.5105 -19.7128 -21.4791
  526 37.9918 -29.3895 13.5525
  527 -4.15352 7.45926 -10.5575
  528 -4.01320 7.44473 10.5398
  529 -92.6492 1.44840 11.8484
  530 -92.7551 1.44997 -11.8701
  531 0.995342 -113.523 21.7171
  532 -123.818 0.822348 0.781973
  533 -124.025 0.822340 -0.783760
  534 125.647 4.05877 -110.005
  535 123.053 5.80308 113.866
  536 115.651 23.2320 -42.0378
  537 114.801 23.6959 42.2298
  538 -24.5334 -4.85714 34.0182
  539 -24.5798 -4.88134 -34.0761
  540 115.250 7.91565 0.113077
  541 115.182 7.92388 -0.112276
  542 -47.5292 1.83071 2.87900
  543 -47.6892 1.83251 -2.88476
  544 134.250 17.0140 -1.22139
  545 134.174 17.0399 1.23646
  546 -2.52895 -8.37809 6.16394
  547 -2.53804 -8.37167 -6.16308
  548 50.5957 21.9323 16.2527
  549 50.2669 22.2101 -16.3876
  550 40.8622 9.54712 13.3843
  551 40.3130 9.50439 -13.7383
  552 473.257 1.45501 12.3630
  553 473.101 1.46747 -12.3590
  554 421.705 3.32256 20.1322
  555 421.567 3.36379 -20.1234
  556 -0.425024 -98.0293 -14.2528
  557 299.878 12.4067 -21.0207
  558 299.939 12.3832 21.0639
  559 299.798 4.34653 -8.42641
  560 299.847 4.34251 8.43582
  561 -31.4356 0.530070 0.296195
  562 -31.2847 0.530242 -0.296770
  563 532.760 27.0744 -12.9726
  564 659.390 -77.5729 -41.7448
  565 562.157 27.4116 50.1467
  566 5.05651 -79.2024 -24.0713
  567 -22.8407 8.62494 -14.7254
  568 -22.6913 8.60785 14.6998
  569 5.54839 -45.1759 33.4373
  570 -27.5810 1.35971 38.3231
  571 -27.6736 1.35185 -38.3932
  572 846.055 80.9949 8.92874
  573 198.884 6.63151 -4.40744
  574 198.869 6.63446 4.41362
  575 1240.51 107.988 -114.999
  576 -4.43873 -3.32185 43.9501
  577 -3.96111 -2.97461 -43.9650
  578 696.549 -55.7814 16.5131
  579 557.177 -0.679054 -14.2857
  580 557.368 -0.741583 14.2362
  581 266.004 4.83354 -131.524
  582 268.928 3.96783 133.316
  583 -13.6069 -12.9605 39.2211
  584 -13.6242 -13.0343 -39.3367
  585 142.434 17.1599 73.7522
  586 143.598 16.1920 -73.2656
  587 -107.438 1.19286 -10.8981
  588 -107.291 1.19086 10.8768
  589 820.123 81.3162 28.9910
  590 164.158 12.4653 3.64030
  591 164.201 12.4543 -3.62967
  592 192.787 24.2693 -51.5994
  593 192.490 24.5502 52.0408
  594 508.104 -2.86276 -28.6681
  595 508.403 -3.08416 28.6456
  596 -1.97424 -49.8586 -35.0824
  597 546.211 -1.46067 4.33847
  598 546.010 -1.45765 -4.33546
  599 -71.8626 0.953081 -0.904121
  600 -71.6874 0.952812 0.901497
  601 -133.059 -1.24766 -0.0819044
  602 -133.273 -1.24896 0.0815122
  603 13.0352 -69.7268 -7.72708
  604 -4.93038 -32.7755 30.5407
  605 -5.20017 -30.9525 -30.7414
  606 -60.2936 3.93053 27.2650
  607 -60.4095 3.93486 -27.3184
  608 389.847 7.08425 25.7024
  609 389.712 7.14730 -25.6754
  610 289.274 1.17598 1.92675
  611 289.232 1.17559 -1.92527
  612 68.9902 -8.50604 49.8015
  613 70.9790 -7.09926 -49.4137
  614 -1.93927 -25.4510 13.2775
  615 -2.00310 -25.3745 -13.3250
  616 653.321 71.1811 291.695
  617 -32.7762 -0.950301 12.2353
  618 -32.7835 -0.955209 -12.2475
  619 13.2034 -41.6112 -22.7223
  620 283.849 8.53583 -11.4733
  621 283.888 8.53021 11.4894
  622 143.520 29.4234 -20.8272
  623 143.221 29.6089 20.9814
  624 1.34918 -167.366 6.85364
  625 109.230 27.7294 0.501555
  626 109.081 27.8080 -0.482192
  627 -4.92820 11.0199 17.7978
  628 -5.07528 11.0441 -17.8291
  629 -0.776601 -86.0042 19.4245
  630 -134.763 -0.0700473 -3.67754
  631 -134.555 -0.0702354 3.67182
  632 190.133 2.58184 1.86426
  633 190.152 2.58037 -1.86244
  634 461.210 -0.538219 8.35525
  635 461.063 -0.532146 -8.35001
  636 412.638 -17.6018 223.532
  637 332.824 5.69072 -16.3338
  638 332.900 5.67167 16.3542
  639 7.39384 -4.42545 39.5634
  640 8.73160 -1.59076 -39.3485
  641 526.960 -43.0029 -182.295
  642 1202.05 40.1644 -47.7159
  643 -126.225 -0.00523718 -7.37775
  644 -126.047 -0.00641677 7.36417
  645 39.1610 5.63832 -4.12297
  646 39.2730 5.63088 4.11684
  647 -2.26650 -53.3836 31.2165
  648 716.658 48.5778 -57.4710
  649 539.740 -1.69971 0.805463
  650 539.543 -1.69819 -0.804423
  651 -34.4383 -1.68383 -28.1044
  652 -34.3922 -1.67365 28.0624
  653 -0.123065 -121.407 -18.2817
  654 548.768 -1.59985 1.68149
  655 548.564 -1.59831 -1.67949
  656 58.0098 16.5914 10.7135
  657 57.8848 16.6242 -10.7254
  658 429.886 -33.7418 -121.209
  659 437.083 -33.5300 122.396
  660 614.287 -4.67564 10.2789
  661 614.231 -4.64429 -10.6151
  662 2.78417 -150.938 13.3456
  663 -25.3460 0.173658 -1.60193
  664 -25.1989 0.173684 1.59906
  665 206.160 50.4249 -215.304
  666 197.399 2.02468 1.91072
  667 197.413 2.02331 -1.90947
  668 101.713 5.16047 -0.531994
  669 101.640 5.16520 0.531569
  670 119.149 10.4689 0.973599
  671 119.219 10.4568 -0.969721
  672 367.372 8.23551 -39.8125
  673 367.564 8.11086 39.9204
  674 102.362 28.9036 -4.82045
  675 102.045 29.1022 4.83741
  676 -59.9235 4.46494 -14.3973
  677 -59.7628 4.45430 14.3713
  678 -71.4875 4.99194 -16.8142
  679 -71.3289 4.98178 16.7818
  680 633.664 -10.0145 0.167370
  681 1.83013 -23.2367 -41.3351
  682 634.145 -10.4999 -0.905107
  683 816.477 62.2357 -6.43580
  684 -78.7935 0.400052 13.5641
  685 -78.8755 0.399311 -13.5882
  686 89.1899 26.6170 -11.4067
  687 88.5617 26.9046 11.4389
  688 -144.343 -0.0891551 -1.10971
  689 -144.125 -0.0889108 1.10729
  690 2.43620 -20.6418 41.2677
  691 -48.4961 0.879471 29.1759
  692 -48.5785 0.875168 -29.2272
  693 697.774 -51.8119 -19.0169
  694 118.299 0.927071 -1.23790
  695 118.238 0.927923 1.23829
  696 32.7941 9.09656 7.64014
  697 32.6733 9.11112 -7.65053
  698 376.430 -15.1572 -102.222
  699 378.998 -15.7634 104.011
  700 1252.03 90.5807 103.692
  701 26.8779 -96.8117 -50.1447
  702 -8.50147 -18.3442 41.7049
  703 -8.50360 -18.4280 -41.8150
  704 85.2013 16.0107 -4.33815
  705 85.3029 15.9847 4.33730
  706 564.207 -1.42178 -4.38175
  707 564.420 -1.42538 4.38320
  708 277.125 2.17002 3.85018
  709 277.091 2.17040 -3.84648
  710 27.2244 20.6993 27.1568
  711 27.0506 20.7584 -27.2272
  712 22.1489 3.88465 2.85831
  713 22.0291 3.88861 -2.86303
  714 -13.7813 4.82215 41.4945
  715 -13.9106 4.81014 -41.5972
  716 467.256 -2.05613 3.59569
  717 467.105 -2.05339 -3.59248
  718 407.334 1.33739 9.65550
  719 407.220 1.34313 -9.64877
  720 58.7905 -23.5534 58.5924
  721 60.3056 -26.1185 -56.8881
  722 -28.7595 7.23688 36.1478
  723 -28.8904 7.24114 -36.2289
  724 18.7608 -33.1179 16.4045
  725 4.62209 13.3133 36.9376
  726 4.41323 13.3388 -37.0094
  727 -83.9739 2.20359 -9.36033
  728 -83.7995 2.19903 9.34329
  729 77.7097 22.1505 8.95193
  730 77.5701 22.2032 -8.95646
  731 631.213 -18.3544 -29.0241
  732 597.170 -50.4974 -21.1907
  733 -9.32465 -19.1584 30.1072
  734 -9.31642 -19.2558 -30.0759
  735 239.019 7.70161 -154.943
  736 233.138 12.4407 156.093
  737 148.026 28.1091 -29.2379
  738 147.634 28.3758 29.4722
  739 14.0620 -18.9450 31.1488
  740 -0.800400 -64.1567 -17.0730
  741 301.137 14.5737 -38.4501
  742 301.246 14.5124 38.6192
  743 0.708556 -125.093 15.5465
  744 182.850 22.7861 -13.5814
  745 182.786 22.8195 13.6460
  746 594.063 -1.33238 -10.7723
  747 594.223 -1.39743 10.6663
  748 12.6619 -156.519 8.42003
  749 277.644 18.2980 29.7078
  750 277.592 18.3247 -29.6017
  751 78.8563 27.6134 -1.70524
  752 79.2615 27.3552 1.64491
  753 -106.617 0.696100 -9.30325
  754 -106.490 0.695408 9.28467
  755 305.166 2.71423 -7.16726
  756 305.218 2.71203 7.17388
  757 192.962 25.7624 -21.8155
  758 192.870 25.8201 21.9379
  759 6.07933 16.3227 27.7635
  760 5.91490 16.3661 -27.8210
  761 598.887 -43.3702 13.7361
  762 -86.0513 1.57105 7.01681
  763 -86.2310 1.57347 -7.02737
  764 1250.41 265.306 -188.196
  765 -27.6513 2.76606 6.89797
  766 -27.8001 2.77079 -6.90851
  767 506.795 -0.272298 20.2336
  768 506.607 -0.198588 -20.2591
  769 941.154 55.8655 -1.18241
  770 569.050 -2.35182 -8.13238
  771 569.256 -2.36408 8.12540
  772 370.730 2.97167 12.3631
  773 370.636 2.98107 -12.3534
  774 551.897 -53.9693 166.472
  775 245.727 15.2805 -12.7836
  776 245.741 15.2793 12.8154
  777 6.05415 -89.2726 16.2272
  778 631.575 -73.8181 60.5752
  779 384.899 -1.23640 2.05894
  780 384.799 -1.23511 -2.05738
  781 498.419 -1.16304 1.08612
  782 498.248 -1.16178 -1.08497
  783 -2.10112 -49.9473 -29.3056
  784 3.41069 -82.5293 26.6123
  785 234.229 24.6832 41.2564
  786 234.274 24.6463 -40.9943
  787 1232.80 10.2670 11.6217
  788 395.102 1.75605 -49.0250
  789 395.344 1.60765 49.1607
  790 -77.5141 2.56913 20.0939
  791 -77.6561 2.57543 -20.1326
  792 18.1849 -61.8111 0.676028
  793 11.5818 -144.388 -16.3009
  794 888.196 117.253 -26.4766
  795 -0.741731 -64.0358 15.4255
  796 21.6342 14.6531 32.0775
  797 21.5588 14.6380 -32.2752
  798 126.279 22.2553 -0.838755
  799 126.182 22.2986 0.859058
  800 592.875 -27.5757 -13.0746
  801 594.410 -27.1325 11.4131
  802 684.760 136.287 -276.952
  803 -88.0975 0.542352 -2.78382
  804 -87.9144 0.541644 2.77826
  805 -44.8914 -0.140069 11.4663
  806 -44.9108 -0.142270 -11.4812
  807 46.8378 7.56532 4.87641
  808 45.8772 7.53041 -5.00726
  809 453.274 -4.07236 43.9272
  810 452.960 -3.74725 -43.7911
  811 235.385 3.67588 -2.83724
  812 235.394 3.67696 2.84050
  813 726.476 -2.46726 51.6424
  814 84.1632 10.7667 -4.00428
  815 84.2568 10.7514 4.00184
  816 76.2704 14.2224 -19.1358
  817 75.6068 14.5360 19.2725
  818 0.330363 -47.7890 -38.2682
  819 1004.86 181.922 162.545
  820 -142.747 0.0439377 -3.74125
  821 -142.540 0.0438228 3.73481
  822 -0.200056 -151.091 14.2068
  823 12.6056 -18.8046 -31.6591
  824 -22.4991 -1.33065 8.63205
  825 -22.4930 -1.33443 -8.63631
  826 816.256 59.2739 -28.1587
  827 220.581 19.3103 -16.1825
  828 220.565 19.3216 16.2452
  829 561.245 -9.52111 -22.2984
  830 561.816 -9.57897 22.0637
  831 -137.307 0.923095 5.15677
  832 -137.501 0.924590 -5.16624
  833 -1.04740 -1.08022 -0.915543
  834 -1.04952 -1.08211 0.919164
  835 0.389181 -154.349 -13.7124
  836 0.707504 -160.008 -11.5814
  837 -148.020 1.28415 0.639743
  838 -148.244 1.28452 -0.640724
  839 91.0365 -8.62011 -106.262
  840 351.604 1.80763 -3.90473
  841 351.684 1.80704 3.90797
  842 -2.52448 1.68050 0.845746
  843 -2.65798 1.68114 -0.846759
  844 514.828 -0.0830512 -13.2997
  845 515.006 -0.107119 13.2925
  846 -58.8493 0.400755 10.8561
  847 -58.8868 0.400716 -10.8718
  848 319.422 19.1694 -227.890
  849 543.751 -45.2560 50.0233
  850 424.404 -0.152439 -4.48469
  851 424.528 -0.154410 4.48833
  852 539.236 -49.0368 -55.3201
  853 174.898 16.7919 -7.14695
  854 174.852 16.8082 7.17479
  855 237.975 12.8256 -10.0935
  856 237.983 12.8264 10.1146
  857 630.453 -13.0988 22.2658
  858 43.5969 23.6795 21.0523
  859 43.4036 23.7628 -21.1404
  860 48.1735 1.27546 1.14989
  861 48.0701 1.27660 -1.15194
  862 301.082 1.30442 3.42910
  863 301.033 1.30474 -3.42621
  864 768.262 -56.5561 99.9771
  865 485.027 0.931205 -17.6762
  866 485.199 0.886921 17.6666
  867 14.8868 6.23832 5.96263
  868 14.7599 6.24720 -5.97179
  869 484.383 -2.03880 5.10503
  870 484.221 -2.03534 -5.10086
  871 -81.8653 -0.0623814 -2.19555
  872 -81.6833 -0.0616888 2.19370
  873 -0.388961 -49.1757 13.8219
  874 -0.522091 -49.9417 -13.9198
  875 594.696 -6.31232 55.6510
  876 -31.6946 9.15083 29.8796
  877 -31.8404 9.17053 -29.9437
  878 -0.177542 -80.6036 -15.1367
  879 237.665 6.14816 -5.41296
  880 237.675 6.14976 5.41927
  881 431.692 -21.0570 -78.4944
  882 434.803 -23.2620 79.2222
  883 -17.0638 -5.53759 -41.7731
  884 -16.9752 -5.53194 41.6696
  885 28.4529 20.3996 24.7105
  886 28.2820 20.4562 -24.7633
  887 1.99513 -179.209 9.01960
  888 9.89509 16.6311 33.2698
  889 9.71292 16.6692 -33.3422
  890 399.490 -7.41010 -69.9808
  891 398.566 -7.64861 70.5219
  892 688.566 43.3349 60.9044
  893 163.464 15.4634 4.74773
  894 163.513 15.4484 -4.73056
  895 496.381 1.34433 -13.1318
  896 496.549 1.32706 13.1318
  897 -18.7763 -7.89804 37.0791
  898 -18.8198 -7.93352 -37.1563
  899 1.86540 -181.966 -4.61079
  900 -28.9314 -1.55368 36.1621
  901 -29.0009 -1.56203 -36.2266
  902 24.9925 17.8645 -18.9338
  903 25.1429 17.8219 18.8997
  904 -1.51753 -12.5389 6.90111
  905 -1.53524 -12.5275 -6.91187
  906 48.7633 20.1621 -16.0768
  907 48.9176 20.1092 16.0508
  908 11.0940 -11.8759 36.0191
  909 9.81302 -11.0170 -38.2030
  910 487.249 -14.9299 45.1486
  911 486.157 -14.3327 -45.3028
  912 -151.679 0.255923 -0.940971
  913 -151.455 0.256003 0.939379
  914 -13.9229 -1.21964 6.53853
  915 -13.9119 -1.22203 -6.53756
  916 0.631707 -114.238 -13.6786
  917 -14.6329 -6.19650 -18.4692
  918 -14.6243 -6.17950 18.4670
  919 -59.0978 5.25779 25.8235
  920 -59.2325 5.26771 -25.8763
  921 158.205 28.4876 -14.6486
  922 158.058 28.5877 14.7395
  923 662.465 50.3442 -6.92262
  924 -2.29544 14.2999 25.1907
  925 -2.45195 14.3348 -25.2403
  926 246.414 16.4813 -75.0508
  927 246.360 16.7012 75.7541
  928 -23.0282 9.69509 20.1808
  929 -23.1798 9.71847 -20.2199
  930 774.401 -26.5339 0.962174
  931 497.918 19.9116 26.6525
  932 578.496 -5.56164 -50.3030
  933 426.349 3.45526 -29.7456
  934 426.532 3.35143 29.7702
  935 -38.1414 5.37151 -9.22165
  936 -37.9874 5.36210 9.20517
  937 -97.0004 1.65665 12.5556
  938 -97.1646 1.66100 -12.5805
  939 -5.96407 -19.5039 -21.3917
  940 -5.91794 -19.5146 21.4259
  941 157.380 7.68682 2.90397
  942 157.422 7.68063 -2.89975
  943 -44.9034 5.13338 32.4830
  944 -45.0184 5.13462 -32.5498
  945 504.411 -1.61006 6.57159
  946 504.237 -1.60610 -6.56698
  947 -3.61360 -42.3829 31.9070
  948 25.1297 16.1165 -15.9890
  949 25.2717 16.0821 15.9627
  950 33.1735 10.5869 9.82442
  951 33.0483 10.6063 -9.83832
  952 95.2068 6.47661 -1.19163
  953 95.2855 6.46980 1.19000
  954 943.618 138.070 -45.5409
  955 -3.90157 -1.03934 -2.64227
  956 -3.90982 -1.03907 2.64689
  957 36.3321 12.1166 -19.2044
  958 36.9225 11.8688 19.0730
  959 347.261 11.4682 -32.2395
  960 347.393 11.3898 32.3178
  961 50.8119 13.5601 -8.92309
  962 50.9324 13.5357 8.91189
  963 96.9324 6.49372 137.438
  964 638.167 -5.05642 -6.21740
  965 637.544 -4.87579 5.69484
  966 119.842 4.44562 122.135
  967 127.283 3.25297 -1.23501
  968 127.227 3.25547 1.23536
  969 318.577 -1.04385 -197.632
  970 240.876 1.63435 1.79363
  971 240.863 1.63338 -1.79236
  972 32.4578 -24.5030 0.516246
  973 35.8562 -19.5684 2.17659
  974 562.679 -1.06530 2.24022
  975 562.467 -1.06403 -2.23780
  976 -45.9442 0.287165 26.7413
  977 -46.0062 0.283255 -26.7831
  978 1012.31 129.061 67.6289
  979 -3.74861 -30.7618 -41.4161
  980 6.12953 -142.563 24.2783
  981 -0.335268 -49.3247 37.9762
  982 582.880 -1.14211 -8.29536
  983 583.080 -1.15995 8.27631
  984 -7.67224 -14.1164 18.5355
  985 -7.69562 -14.1211 -18.5209
  986 743.834 80.7060 -28.1718
  987 1248.46 9.22902 -7.69711
  988 -1.92165 -2.98903 -2.87574
  989 -1.91937 -2.99528 2.87987
  990 345.682 1.53741 -7.19276
  991 345.758 1.53500 7.19850
  992 -3.79023 -29.4641 41.5679
  993 477.008 0.194127 26.1894
  994 476.812 0.303578 -26.1981
  995 627.730 -39.9994 -18.7051
  996 -21.6642 -4.40257 20.7889
  997 -21.6771 -4.42045 -20.8036
  998 11.6798 -36.5079 26.9337
  999 -0.818236 -75.4712 29.8376
  1000 -0.0977695 -80.0263 15.1355
  1001 660.627 40.9652 -4.12717
  1002 744.640 82.1766 12.8626
  1003 528.864 -57.1319 -94.4383
  1004 8.33357 -70.4539 21.2971
  1005 10.3782 -99.8520 1.05508
  1006 153.152 1.53280 0.104617
  1007 153.112 1.53401 -0.104751
  1008 -5.81867 -6.64473 -8.94522
  1009 -5.81279 -6.64481 8.95128
  1010 5.75596 -57.9516 -30.0133
  1011 423.637 -1.48359 -1.64931
  1012 423.761 -1.48512 1.65074
  1013 90.0496 6.33356 -49.5935
  1014 86.2798 6.52957 49.1349
  1015 -4.09603 13.6242 34.0942
  1016 -4.27049 13.6582 -34.1769
  1017 -45.2475 7.40389 -20.9614
  1018 -45.0946 7.38730 20.9208
  1019 330.315 5.16971 -72.2388
  1020 330.421 5.49702 72.9527
  1021 240.126 20.5145 -52.4625
  1022 240.050 20.5327 52.8732
  1023 258.825 16.0658 -18.8766
  1024 258.849 16.0551 18.9264
  1025 661.350 -14.0266 -62.4398
  1026 -14.4098 8.66990 38.2410
  1027 -14.5637 8.67674 -38.3452
  1028 466.780 -2.36449 36.1181
  1029 466.510 -2.12206 -36.0824
  1030 -2.07296 -22.3449 42.9496
  1031 -37.2181 -1.13601 19.9409
  1032 -37.2457 -1.14271 -19.9664
  1033 426.384 1.78795 -36.0940
  1034 426.604 1.63892 36.1386
  1035 544.050 14.7602 -45.2659
  1036 -0.360909 -74.8269 -31.2580
  1037 -5.83305 -29.3477 37.7026
  1038 -6.09168 -29.7389 -37.4030
  1039 304.315 15.2876 -27.4133
  1040 304.394 15.2445 27.4934
  1041 379.333 4.55798 15.2031
  1042 379.231 4.57369 -15.1912
  1043 626.460 -39.0839 15.8817
  1044 39.0706 1.67780 -0.287003
  1045 39.1790 1.67687 0.286369
  1046 534.214 -63.8060 100.626
  1047 5.12114 0.945997 1.82492
  1048 4.99207 0.946880 -1.82795
  1049 121.344 28.9495 -4.67604
  1050 121.162 29.0559 4.71715
  1051 49.0999 22.9715 17.7651
  1052 48.9320 23.0343 -17.8006
  1053 6.35069 -88.2646 -16.9706
  1054 160.781 3.72821 1.80163
  1055 160.819 3.72533 -1.79953
  1056 489.181 15.2415 11.1180
  1057 428.402 1.07549 13.8669
  1058 428.273 1.09199 -13.8599
  1059 -1.60122 -23.3304 -43.0313
  1060 642.302 -8.42921 -10.7379
  1061 1.96693 -0.388334 41.8121
  1062 2.47543 -0.0724903 -41.5675
  1063 578.747 -1.52167 -4.61157
  1064 578.967 -1.52602 4.61082
  1065 617.705 -2.69074 -8.16169
  1066 617.743 -2.76223 7.99102
  1067 -0.459649 -121.010 11.2939
  1068 369.436 6.86855 -19.9999
  1069 369.538 6.84050 20.0184
  1070 445.901 1.98112 15.9625
  1071 445.758 2.00367 -15.9575
  1072 13.1622 11.9661 36.5833
  1073 13.0890 11.9618 -36.6495
  1074 962.754 61.0247 12.6865
  1075 -10.9169 -4.20160 44.0491
  1076 -11.1262 -4.08986 -44.1758
  1077 145.298 26.0180 -6.00446
  1078 145.199 26.0729 6.04606
  1079 -69.8898 0.780958 -3.18540
  1080 -69.7166 0.780307 3.18033
  1081 235.152 15.5179 -86.0376
  1082 234.775 16.1361 86.9214
  1083 71.1969 25.9854 12.2379
  1084 71.0159 26.0645 -12.2609
  1085 161.434 21.3151 -65.6744
  1086 160.612 22.0596 66.1217
  1087 -3.88016 -39.8481 -31.1274
  1088 560.634 9.44670 61.1659
  1089 385.798 16.3470 253.739
  1090 66.9665 27.1638 12.5534
  1091 66.7593 27.2648 -12.5948
  1092 237.077 9.91210 -7.95125
  1093 237.085 9.91222 7.96561
  1094 831.164 17.3715 3.44814
  1095 58.0903 16.6651 4.96421
  1096 57.3824 16.8196 -5.20248
  1097 -24.4129 -5.17632 27.4980
  1098 -24.4396 -5.20253 -27.5315
  1099 -0.797339 -18.6848 7.50595
  1100 -0.830255 -18.6749 -7.53685
  1101 548.010 -2.05367 20.8133
  1102 547.752 -1.87229 -20.9125
  1103 1.55214 -36.5614 40.0287
  1104 -35.9954 2.75865 -35.7894
  1105 -35.9009 2.76578 35.7224
  1106 0.168640 -144.924 -13.9386
  1107 -7.42381 -10.7114 43.9957
  1108 -7.39268 -10.4506 -44.0414
  1109 522.295 -0.715702 -8.76553
  1110 522.479 -0.723945 8.76787
  1111 541.859 -5.72367 25.4064
  1112 541.445 -5.42515 -25.4965
  1113 100.224 24.1580 -26.3160
  1114 99.4764 24.5476 26.4653
  1115 -1.18986 -74.7031 -25.8041
  1116 709.828 -50.4728 -152.445
  1117 918.571 134.285 25.0010
  1118 10.4824 -104.583 2.89798
  1119 37.2875 20.4113 -24.7362
  1120 37.5026 20.3114 24.5622
  1121 94.5581 29.0916 2.35596
  1122 94.3223 29.2252 -2.35901
  1123 194.191 8.95886 4.45340
  1124 194.211 8.95462 -4.44442
  1125 -11.5322 -16.4304 35.4642
  1126 -11.5186 -16.5977 -35.5289
  1127 -30.0883 10.5434 27.2028
  1128 -30.2386 10.5671 -27.2576
  1129 -8.19759 13.7066 31.3979
  1130 -8.36064 13.7392 -31.4684
  1131 520.803 -26.8407 -44.9740
  1132 523.950 -26.9595 44.7270
  1133 0.689843 -84.3407 -29.3930
  1134 284.244 1.97364 -105.945
  1135 284.574 2.81951 107.498
  1136 94.7910 25.7107 -4.31201
  1137 94.9305 25.6447 4.31729
  1138 274.824 171.950 281.655
  1139 75.6533 20.1957 8.67534
  1140 75.5263 20.2375 -8.68086
  1141 704.060 -69.4814 -44.5331
  1142 272.363 4.95883 6.12452
  1143 272.332 4.95997 -6.11733
  1144 -11.8527 -10.5142 21.9589
  1145 -11.8641 -10.5419 -21.9562
  1146 -14.0406 -12.5168 28.2493
  1147 -14.0449 -12.5698 -28.2586
  1148 468.548 -42.6200 -145.554
  1149 477.120 -47.2892 146.552
  1150 90.9076 1.52690 1.77471
  1151 90.9855 1.52557 -1.77443
  1152 298.504 13.1178 -59.6313
  1153 298.449 12.9759 60.1504
  1154 634.318 -77.4532 113.941
  1155 558.247 -1.76883 1.27583
  1156 558.039 -1.76735 -1.27438
  1157 -46.4436 7.82335 24.3962
  1158 -46.5933 7.83988 -24.4442
  1159 -81.4563 2.32468 -12.3993
  1160 -81.2861 2.31894 12.3785
  1161 151.289 20.0994 175.866
  1162 473.229 30.2044 -22.6705
  1163 273.099 17.3565 -30.9938
  1164 273.151 17.3317 31.1314
  1165 813.608 -3.64269 165.618
  1166 277.728 17.1487 -44.4283
  1167 277.784 17.0912 44.6654
  1168 75.0506 7.16565 -2.53752
  1169 75.1426 7.15720 2.53421
  1170 25.4957 -74.5999 22.5095
  1171 25.7093 -72.0311 -29.2278
  1172 373.702 -21.6667 -147.171
  1173 378.492 -19.9940 146.913
  1174 150.409 26.3713 -47.7176
  1175 149.774 26.8397 48.0823
  1176 648.545 -40.2283 -38.7739
  1177 -22.1301 -1.28401 40.5041
  1178 -22.2225 -1.28618 -40.5849
  1179 0.305684 -32.5012 -41.1824
  1180 171.669 11.9732 -113.070
  1181 172.007 12.3569 114.768
  1182 -0.407996 -32.9846 8.32714
  1183 -0.349769 -33.0670 -8.43306
  1184 -150.203 1.19935 -3.58503
  1185 -149.996 1.19838 3.57861
  1186 509.684 -1.52690 -2.58921
  1187 509.862 -1.52898 2.59196
  1188 322.231 9.31747 -18.0371
  1189 322.305 9.29373 18.0667
  1190 -9.76101 1.07561 43.7044
  1191 -9.78958 1.26642 -43.7917
  1192 -0.0248247 -130.317 -12.4779
  1193 -128.744 0.259358 6.07428
  1194 -128.912 0.260054 -6.08657
  1195 107.624 7.00266 -81.9091
  1196 106.896 7.66779 84.2346
  1197 600.805 -36.3790 -6.88493
  1198 178.562 16.3843 -101.938
  1199 178.655 16.7240 102.754
  1200 -72.7078 0.412351 9.81843
  1201 -72.7642 0.411713 -9.83424
  1202 2.11403 -109.945 -19.5391
  1203 -13.9477 3.59481 -3.90726
  1204 -13.8070 3.59104 3.90080
  1205 97.2594 21.1360 5.07267
  1206 97.1397 21.1814 -5.06732
  1207 340.713 -0.536743 -2.23812
  1208 340.786 -0.537485 2.23975
  1209 454.691 0.215980 10.5240
  1210 454.547 0.226299 -10.5188
  1211 27.7163 0.392790 20.0971
  1212 27.3137 -0.0596181 -20.5923
  1213 4.95232 -62.1506 30.2505
  1214 818.473 119.036 13.6290
  1215 -25.0867 -1.88732 15.7876
  1216 -25.0946 -1.89601 -15.7991
  1217 3.98241 -58.2381 -32.0308
  1218 -2.30883 -37.8720 23.0060
  1219 -2.20475 -37.4693 -23.8215
  1220 644.327 -7.20106 9.44675
  1221 0.540455 -148.558 12.6765
  1222 5.69531 -42.1119 -35.8049
  1223 84.9330 0.833776 0.549012
  1224 84.8519 0.834421 -0.549655
  1225 -5.77611 -25.9334 41.1514
  1226 -64.9828 3.57970 -10.1313
  1227 -64.8164 3.57376 10.1145
  1228 1272.19 20.9508 37.5739
  1229 -35.1321 4.70399 35.8651
  1230 -35.2437 4.70045 -35.9391
  1231 317.974 11.4837 -53.8293
  1232 318.179 11.3021 54.1095
  1233 22.3296 -25.1647 -11.1118
  1234 301.848 12.9496 -22.8546
  1235 301.916 12.9174 22.9112
  1236 13.3877 -82.4285 0.0231105
  1237 -5.80648 -26.0116 -41.1194
  1238 -42.3341 1.23329 5.59173
  1239 -42.4909 1.23563 -5.60015
  1240 -20.7696 2.48474 -41.0799
  1241 -20.6560 2.49563 41.0029
  1242 648.027 53.3319 42.1785
  1243 365.910 2.84638 -56.1701
  1244 366.275 2.79139 56.3041
  1245 -155.610 0.245745 -1.12231
  1246 -155.387 0.245668 1.11991
  1247 328.483 5.42930 -12.1158
  1248 328.550 5.42245 12.1275
  1249 -158.264 -2.95286 -0.466393
  1250 -158.495 -2.95502 0.466526
  1251 488.164 -34.1457 -64.4351
  1252 -74.5819 1.35132 20.3802
  1253 -74.6873 1.35123 -20.4192
  1254 492.757 -36.0615 63.8564
  1255 334.832 9.70024 -24.0777
  1256 334.923 9.65889 24.1179
  1257 40.8747 -60.7417 -80.7902
  1258 0.772285 -102.206 -25.0188
  1259 -1.77198 -42.6663 38.4999
  1260 1014.84 201.411 -166.782
  1261 -0.189706 -96.6732 24.8738
  1262 1064.96 101.304 -73.5252
  1263 -0.716149 -179.586 -11.4477
  1264 59.8629 3.78803 -0.239715
  1265 59.9603 3.78425 0.237588
  1266 -0.430500 -42.2923 8.71741
  1267 -0.340957 -42.5236 -8.69971
  1268 190.827 2.42919 0.916631
  1269 190.846 2.42765 -0.915800
  1270 654.704 -46.3114 36.3847
  1271 20.8404 3.79376 -4.52192
  1272 20.9617 3.78895 4.51554
  1273 3.78438 -190.380 3.49389
  1274 2.41679 -203.568 -3.52390
  1275 601.888 -70.3739 -70.9737
  1276 -1.56135 -53.9263 25.2573
  1277 642.513 44.5912 -55.2510
  1278 -1.86188 -71.0379 24.7307
  1279 1.33253 -191.127 -8.02726
  1280 307.590 6.20158 -13.7128
  1281 307.646 6.18737 13.7321
  1282 -0.259884 -106.768 11.1696
  1283 -0.224880 -87.6125 -25.0018
  1284 1374.45 259.934 219.524
  1285 560.614 -0.196966 0.942334
  1286 560.404 -0.196524 -0.941520
  1287 17.6565 3.75870 32.5005
  1288 17.1426 4.37197 -32.6818
  1289 -6.01290 9.23876 40.2514
  1290 -6.24585 9.23873 -40.3780
  1291 611.604 -10.5174 -35.7319
  1292 562.454 -24.1563 -26.9068
  1293 562.028 -27.3313 27.3378
  1294 91.3517 8.24593 2.22462
  1295 91.2664 8.25624 -2.22629
  1296 -88.5217 2.32535 -15.3492
  1297 -88.3669 2.32012 15.3180
  1298 626.325 -78.9900 -98.4739
  1299 -4.62843 -11.3168 11.6305
  1300 -4.64736 -11.3111 -11.6267
  1301 663.621 -24.5080 59.0194
  1302 -6.66147 -25.5534 30.8065
  1303 -6.58459 -25.6519 -30.6666
  1304 -51.6964 3.24721 6.79117
  1305 -51.8579 3.25204 -6.80258
  1306 105.618 16.1651 -45.4529
  1307 104.591 16.7265 45.3930
  1308 163.717 2.32417 -0.348523
  1309 163.682 2.32592 0.348798
  1310 -60.2237 6.26587 24.4277
  1311 -60.3671 6.27793 -24.4753
  1312 527.698 0.304598 1.46412
  1313 527.508 0.304840 -1.46291
  1314 300.363 6.22390 195.493
  1315 435.056 -0.983558 3.74729
  1316 434.925 -0.981899 -3.74420
  1317 297.027 6.70003 -81.3860
  1318 297.003 6.38272 82.0069
  1319 3.05742 -108.620 -12.2756
  1320 118.588 28.6374 -22.4664
  1321 118.074 28.9539 22.6231
  1322 -1.17793 -0.998277 -1.50401
  1323 -1.18379 -0.998419 1.50832
  1324 377.030 9.01621 30.4525
  1325 376.887 9.10272 -30.4048
  1326 192.188 13.0671 7.04849
  1327 192.214 13.0595 -7.03025
  1328 278.880 12.9840 -16.2678
  1329 278.921 12.9701 16.3034
  1330 359.932 -0.189885 -3.79233
  1331 360.017 -0.190855 3.79520
  1332 -11.3496 -5.43402 -13.1068
  1333 -11.3453 -5.42608 13.1110
  1334 -101.753 -0.227385 4.00261
  1335 -101.943 -0.227003 -4.00970
  1336 -18.9164 -8.48674 -31.4477
  1337 -18.8944 -8.44037 31.4068
  1338 -53.6098 0.219408 1.58713
  1339 -53.7743 0.219126 -1.58939
  1340 -160.515 1.37997 0.626343
  1341 -160.746 1.38055 -0.627299
  1342 670.168 -74.2962 131.878
  1343 508.718 -1.89855 -50.5848
</Section>

newXOutput 81

<Section columns = "stress_xx | stress_yy | stress_xy">
  1 583.125 -1.20726 0.644181
  2 583.349 -1.20828 -0.644515
  3 -175.863 0.738176 -2.44419
  4 0.277695 0.0579567 0.500177
  5 1034.90 343.606 353.625
  6 1171.02 384.723 -341.664
  7 0.276243 0.0566661 -0.498243
  8 -175.617 0.738051 2.44262
  9 581.479 -1.16404 -1.94681
  10 582.033 -2.06933 -3.10237
  11 587.460 -2.08895 -0.891459
  12 588.216 -2.09285 -3.74113
  13 590.021 -2.08833 -1.28527
  14 602.101 -1.90410 -1.73175
  15 606.544 -2.62542 -5.03188
  16 611.588 -1.43034 -3.52609
  17 615.080 -0.344471 -6.78681
  18 639.509 -3.93744 -5.80326
  19 650.609 -3.20939 -7.37373
  20 663.217 -4.58321 -3.32338
  21 669.909 -5.85510 -2.38051
  22 667.766 -6.51890 7.22676
  23 648.775 -7.05980 15.9458
  24 603.052 -7.28336 35.0781
  25 526.591 5.09285 41.1320
  26 465.312 6.57642 37.6337
  27 378.309 11.5061 22.7258
  28 400.303 11.1660 2.72181
  29 343.672 32.2110 -14.0938
  30 445.407 15.2785 -41.9485
  31 499.436 4.32378 -34.0985
  32 592.635 -1.22798 -29.6289
  33 642.852 -8.55762 -19.3076
  34 667.207 -7.57337 -7.13827
  35 669.004 -5.69601 2.44729
  36 662.632 -4.53126 3.17497
  37 650.467 -3.22581 7.19507
  38 639.562 -3.97965 5.70610
  39 615.260 -0.367513 6.74614
  40 611.807 -1.43904 3.51311
  41 606.781 -2.63150 5.03044
  42 602.340 -1.90747 1.73170
  43 590.253 -2.09091 1.28648
  44 588.446 -2.09507 3.74456
  45 587.688 -2.09072 0.892807
  46 582.257 -2.07096 3.10497
  47 581.702 -1.16506 1.94843
  48 551.545 0.720976 -0.764456
  49 512.493 -0.645337 -1.63253
  50 463.403 -3.24816 -1.54785
  51 412.201 -0.505807 -1.28694
  52 367.026 -1.08695 -1.00754
  53 318.414 0.430020 -1.17869
  54 270.158 3.00260 -0.640950
  55 219.780 2.50695 -1.46352
  56 177.804 1.28769 -2.10158
  57 122.456 0.300129 -2.21426
  58 66.0159 1.72210 -1.70274
  59 18.7661 1.48675 -1.64770
  60 -40.3812 0.690850 -1.47620
  61 -84.3731 -1.07902 -3.83359
  62 -127.026 -3.17517 -1.72579
  63 -170.419 0.257933 1.25678
  64 -179.986 3.07496 -0.343817
  65 -180.856 1.30592 0.685629
  66 -174.942 0.593170 -0.0522439
  67 -177.471 1.94869 -2.04218
  68 -174.963 2.39977 0.0541939
  69 -165.772 0.682584 -3.19690
  70 -168.500 1.49129 -3.47612
  71 -164.660 1.39729 -1.83620
  72 -152.713 0.837920 -2.88749
  73 -147.745 1.60749 -4.94824
  74 -139.067 1.82893 -3.98304
  75 -123.433 0.921828 -7.17953
  76 -114.741 0.289525 -5.98861
  77 -98.7249 0.413113 -6.99093
  78 -85.0280 0.359054 -7.82653
  79 -72.9375 0.136396 -6.18120
  80 -55.9762 0.379664 -6.25023
  81 -41.2878 -0.125644 -6.72252
  82 -27.0583 -0.710309 -5.95489
  83 -15.7315 -0.626932 -4.59374
  84 -7.79426 -1.12265 -3.86202
  85 -1.39995 -0.651058 -1.40842
  86 0.0175445 -0.740030 -0.522966
  87 -0.396010 -0.444311 -0.132178
  88 -1.02163 -1.16563 -1.23823
  89 -0.994556 -6.61114 -3.36238
  90 -0.833498 -14.6916 -4.74692
  91 -0.419653 -24.8717 -6.89395
  92 -0.204688 -38.1103 -5.93533
  93 -0.138754 -50.1786 -7.45925
  94 -0.894139 -64.7647 -8.37345
  95 -0.368211 -82.8692 -8.40216
  96 0.167500 -101.088 -8.01580
  97 0.389541 -120.542 -7.88085
  98 0.617050 -140.439 -7.70223
  99 -0.0174769 -154.680 -10.3839
  100 0.986332 -175.311 -9.25556
  101 1.25301 -199.332 -7.19012
  102 -0.222835 -208.955 -9.51331
  103 1.77620 -225.414 -8.66160
  104 4.53912 -247.099 -3.18762
  105 8.94566 -250.593 -5.10103
  106 6.80054 -221.334 10.0022
  107 10.7846 -153.597 33.3619
  108 46.8249 -59.7929 87.2185
  109 140.158 272.021 265.222
  110 1581.35 90.2356 160.895
  111 1364.52 25.0978 57.7486
  112 1320.74 8.22762 13.6343
  113 1310.89 1.76386 -2.07454
  114 1320.24 13.2578 -30.3630
  115 1364.24 46.1476 -69.2354
  116 1542.74 176.131 -204.919
  117 342.029 214.666 -322.240
  118 80.4284 -60.2716 -103.184
  119 24.0616 -168.678 -40.6550
  120 6.88080 -208.839 -10.4204
  121 7.30350 -240.566 1.69106
  122 2.01380 -237.007 2.02719
  123 0.632099 -219.713 7.09486
  124 0.740821 -207.782 5.55770
  125 1.10206 -188.081 10.3336
  126 -0.0494256 -177.059 10.2436
  127 0.433726 -160.275 7.33530
  128 0.884345 -138.820 9.49670
  129 0.194725 -123.426 7.51547
  130 0.249799 -101.139 9.51157
  131 -1.01123 -83.8911 8.19889
  132 -0.682367 -64.8124 8.10391
  133 -0.0887883 -49.8887 7.47490
  134 -0.271422 -37.8857 5.94196
  135 -0.407657 -24.7983 6.82504
  136 -0.820790 -14.6823 4.72303
  137 -0.989170 -6.62133 3.36005
  138 -1.02015 -1.17692 1.24077
  139 -0.395921 -0.449095 0.135422
  140 0.0116783 -0.740666 0.525832
  141 -1.41077 -0.650568 1.41192
  142 -7.80971 -1.12135 3.86514
  143 -15.7514 -0.624799 4.59431
  144 -27.0723 -0.707691 5.95172
  145 -41.2873 -0.123479 6.71466
  146 -55.9590 0.380093 6.24111
  147 -72.8969 0.137578 6.17150
  148 -84.9659 0.360555 7.81501
  149 -98.6333 0.413185 6.97843
  150 -114.622 0.289588 5.97648
  151 -123.294 0.921256 7.16711
  152 -138.900 1.82773 3.97293
  153 -147.562 1.60610 4.93952
  154 -152.513 0.836996 2.88148
  155 -164.444 1.39622 1.83197
  156 -168.276 1.49046 3.47151
  157 -165.544 0.682363 3.19292
  158 -174.726 2.39842 -0.0557541
  159 -177.230 1.94762 2.03986
  160 -174.700 0.593062 0.0515188
  161 -180.609 1.30532 -0.685606
  162 -179.739 3.07331 0.343293
  163 -170.177 0.258111 -1.25628
  164 -126.812 -3.17266 1.72454
  165 -84.1864 -1.07769 3.83113
  166 -40.2218 0.690968 1.47498
  167 18.8892 1.48610 1.64647
  168 66.1106 1.72098 1.70154
  169 122.517 0.299641 2.21279
  170 177.831 1.28655 2.10031
  171 219.782 2.50523 1.46269
  172 270.129 3.00071 0.640651
  173 318.355 0.429899 1.17808
  174 366.937 -1.08601 1.00703
  175 412.085 -0.505133 1.28627
  176 463.254 -3.24560 1.54713
  177 512.314 -0.644484 1.63165
  178 551.342 0.720859 0.764047
  179 163.188 26.4201 -11.3833
  180 163.073 26.4855 11.4541
  181 -0.421596 5.98550 41.4235
  182 -0.602152 5.92845 -41.4622
  183 362.403 -4.43846 -85.9494
  184 362.058 -5.09178 86.7718
  185 75.8196 20.1386 -10.1705
  186 74.9370 20.4151 10.1674
  187 59.1735 7.72794 -4.49049
  188 59.2792 7.71671 4.48440
  189 340.445 4.11688 -13.5928
  190 340.521 4.10480 13.6079
  191 -0.475700 13.1764 21.0902
  192 -0.629280 13.2082 -21.1303
  193 395.022 7.88159 -33.0524
  194 395.201 7.77487 33.1117
  195 -14.7005 -12.6444 34.6549
  196 -14.7017 -12.7243 -34.7079
  197 4.60005 -28.5931 -39.2489
  198 128.047 14.0584 -82.6517
  199 5.41033 -30.7101 38.1834
  200 126.076 14.9837 83.7565
  201 556.723 -69.0803 -123.359
  202 575.002 -71.7561 118.836
  203 205.826 4.49073 -3.41179
  204 205.814 4.49281 3.41581
  205 -23.8235 1.34938 -3.66730
  206 -23.6744 1.34799 3.66206
  207 -41.1599 6.92819 32.0918
  208 -41.2939 6.93897 -32.1613
  209 207.123 16.4386 -9.03415
  210 207.103 16.4487 9.06032
  211 66.3887 26.7511 11.1389
  212 66.1256 26.9035 -11.2223
  213 -50.5736 5.54481 -12.1663
  214 -50.4116 5.53470 12.1450
  215 446.410 -1.17889 6.17445
  216 446.272 -1.17503 -6.16971
  217 15.8543 -53.0753 13.0454
  218 17.2102 -47.4404 -10.7978
  219 -3.78274 -36.0724 38.6991
  220 -3.90947 -37.6010 -37.5284
  221 192.552 27.0140 -38.3379
  222 192.343 27.1557 38.6335
  223 -38.6146 0.192508 33.3243
  224 -38.6906 0.184777 -33.3817
  225 477.445 0.928664 -17.4895
  226 477.606 0.897928 17.4893
  227 515.965 -9.01125 -35.0755
  228 516.391 -9.48637 35.0079
  229 829.858 60.5093 1.61612
  230 761.905 88.0617 30.6263
  231 744.163 1.89891 -52.4359
  232 98.1651 19.2193 4.79086
  233 98.0560 19.2562 -4.78840
  234 10.6911 17.1466 30.4694
  235 10.5123 17.1952 -30.5371
  236 576.622 -34.6573 -26.6636
  237 573.382 -35.0463 28.5913
  238 322.125 0.468600 -5.20058
  239 322.186 0.466751 5.20515
  240 -66.7315 4.84898 20.9675
  241 -66.8844 4.85988 -21.0088
  242 -9.64126 -9.46606 -15.8759
  243 -9.63027 -9.45738 15.8827
  244 -71.2065 1.28821 5.80308
  245 -71.3818 1.29075 -5.81272
  246 268.325 17.5693 -23.9897
  247 268.357 17.5521 24.0664
  248 339.315 8.59435 -50.0084
  249 339.533 8.46330 50.2090
  250 88.3070 3.55669 0.656380
  251 88.3893 3.55364 -0.657163
  252 199.259 15.1145 -170.104
  253 234.378 19.6755 183.845
  254 29.4609 14.1137 27.8282
  255 29.3398 14.3786 -27.9830
  256 776.446 -47.8687 -28.6872
  257 74.3755 25.4065 9.76333
  258 74.2159 25.4750 -9.77529
  259 196.280 22.5048 -67.3882
  260 195.876 22.9943 67.9838
  261 873.181 129.880 8.09415
  262 517.697 -1.36222 23.6414
  263 517.471 -1.22872 -23.6789
  264 -4.55022 -28.6036 -24.6316
  265 -4.40143 -28.7117 24.7240
  266 -0.810426 -66.9736 -33.1195
  267 2.75186 -76.4088 -29.1582
  268 1.55665 -77.2353 31.1137
  269 -11.8341 -10.1080 43.7578
  270 -11.8940 -10.1016 -43.9561
  271 30.0065 -53.6065 -18.4531
  272 32.3756 -48.4593 23.5781
  273 -29.5849 -2.37839 21.5883
  274 -29.6081 -2.39031 -21.6125
  275 372.821 7.92974 -21.0114
  276 372.933 7.89190 21.0359
  277 646.730 -63.0831 -13.3388
  278 150.275 10.3264 2.14296
  279 150.326 10.3168 -2.13764
  280 -1.50095 -62.9761 31.7456
  281 20.3584 12.4497 12.5370
  282 20.2211 12.4745 -12.5575
  283 1017.01 68.9832 -32.7402
  284 500.192 -1.12047 7.43363
  285 500.021 -1.11363 -7.42987
  286 345.150 -13.0144 -127.699
  287 347.894 -12.7701 129.417
  288 645.991 -59.9690 2.96794
  289 -59.4239 1.99835 26.1216
  290 -59.5199 1.99732 -26.1703
  291 628.761 -37.1997 204.927
  292 -24.9196 5.18025 39.1296
  293 -25.0373 5.16867 -39.2135
  294 113.345 30.8687 -14.6378
  295 112.898 31.1464 14.7288
  296 -103.557 0.465663 0.915440
  297 -103.755 0.465328 -0.917127
  298 531.548 28.4209 -275.715
  299 -100.105 1.89725 -11.0173
  300 -99.9284 1.89283 10.9961
  301 -1.57857 -11.2619 43.7247
  302 0.113180 -10.8308 -43.1111
  303 241.753 22.7562 -34.2759
  304 241.734 22.7720 34.4520
  305 59.0282 4.65084 3.40724
  306 58.9264 4.65632 -3.41186
  307 250.085 7.06985 -8.00228
  308 250.101 7.06972 8.01280
  309 25.4429 -12.7711 18.9701
  310 23.2216 -16.1332 -19.3761
  311 242.803 1.88785 -2.22783
  312 242.815 1.88872 2.22982
  313 -83.7017 2.21191 18.8949
  314 -83.8297 2.21484 -18.9325
  315 63.4976 0.524733 -22.0484
  316 61.7211 0.416327 20.4029
  317 519.834 -1.63320 2.09089
  318 519.650 -1.63144 -2.08861
  319 1122.94 62.6101 48.6774
  320 126.165 14.2329 0.0943078
  321 126.091 14.2515 -0.0875896
  322 -17.8781 4.92061 7.75581
  323 -18.0252 4.92927 -7.76930
  324 170.704 20.5651 -8.20632
  325 170.641 20.5926 8.24602
  326 23.1272 18.2729 31.2262
  327 22.9802 18.3054 -31.3348
  328 2.68684 -111.444 20.9622
  329 -108.086 -0.166880 -2.27516
  330 -107.886 -0.166475 2.27142
  331 401.683 -1.05213 -4.06409
  332 401.792 -1.05397 4.06735
  333 422.747 0.727176 -10.7677
  334 422.871 0.716682 10.7746
  335 -101.850 1.47785 -7.72061
  336 -101.662 1.47505 7.70780
  337 6.48141 0.928489 0.546337
  338 6.35063 0.928942 -0.547894
  339 -2.31176 -47.2650 24.4658
  340 -1.82436 -49.1678 -24.4291
  341 480.030 -37.9229 -87.2616
  342 497.740 -45.4471 85.8129
  343 287.924 11.3495 -15.0940
  344 287.967 11.3390 15.1198
  345 131.226 29.2587 -10.0706
  346 130.989 29.3983 10.1423
  347 -38.1000 7.98725 17.7076
  348 -38.2560 8.00489 -17.7416
  349 873.298 34.4349 39.9506
  350 50.1293 -52.5018 -61.9401
  351 53.6044 -47.1782 64.3540
  352 -14.2905 13.6182 29.1970
  353 -14.4491 13.6489 -29.2595
  354 -23.3083 -4.26991 39.0260
  355 -23.3788 -4.28526 -39.1060
  356 992.316 175.667 -62.8860
  357 651.621 -4.69260 70.6417
  358 598.880 -15.0504 -17.0385
  359 598.550 -14.6977 16.2154
  360 426.194 -6.13519 -55.9165
  361 425.666 -6.49614 55.9691
  362 0.860116 -134.287 -16.5527
  363 545.800 -0.000507039 -13.1070
  364 545.990 -0.0367321 13.0861
  365 7.58282 -124.298 11.3193
  366 653.912 52.0061 -34.3487
  367 163.127 3.22498 1.18205
  368 163.091 3.22734 -1.18286
  369 427.596 1.17667 -41.4637
  370 427.856 1.00780 41.5434
  371 457.235 1.59273 -24.7918
  372 457.407 1.51725 24.7936
  373 -0.667539 4.02763 4.83281
  374 -0.804128 4.03309 -4.84088
  375 269.836 14.9100 -67.8408
  376 269.846 15.0923 68.3616
  377 535.294 -1.37074 3.40358
  378 535.101 -1.36840 -3.40032
  379 312.969 14.8084 -34.9335
  380 313.067 14.7429 35.0529
  381 357.259 3.07174 9.11442
  382 357.176 3.07597 -9.10667
  383 -16.9099 -2.97487 13.4651
  384 -16.9116 -2.98340 -13.4676
  385 -4.06897 -2.87834 -4.01288
  386 -4.07056 -2.87934 4.01880
  387 717.370 -80.4816 62.3308
  388 -8.95646 -21.8726 36.0211
  389 -8.89030 -22.0745 -36.0346
  390 125.222 5.74719 -0.321796
  391 125.284 5.74160 0.321919
  392 -3.52957 -17.9662 13.5422
  393 -3.57141 -17.9410 -13.5459
  394 51.7295 19.7937 13.1084
  395 51.5873 19.8385 -13.1276
  396 586.005 -3.76650 17.5165
  397 585.734 -3.57583 -17.7434
  398 -0.698414 -32.8421 42.2139
  399 -47.8895 -0.765716 20.2647
  400 -47.9342 -0.770720 -20.2950
  401 -0.884261 -34.8113 -41.7464
  402 548.278 -0.959562 8.37093
  403 548.081 -0.948854 -8.37278
  404 -1.78779 13.1594 37.2614
  405 -1.99126 13.1923 -37.3580
  406 411.059 3.73007 -16.9115
  407 411.182 3.70669 16.9216
  408 629.293 -26.6436 -9.02915
  409 630.531 -21.7815 6.34467
  410 -1.15795 -64.1686 -26.6639
  411 61.2799 23.5193 -5.88725
  412 61.7720 23.2993 5.79417
  413 645.657 41.5013 20.9687
  414 362.967 -12.2922 -174.689
  415 371.961 -18.7606 182.254
  416 26.7171 19.3436 22.2718
  417 26.5534 19.3936 -22.3154
  418 268.022 4.69634 -5.48023
  419 268.049 4.69683 5.48588
  420 260.453 66.4880 275.300
  421 112.663 23.8377 -1.70045
  422 112.790 23.7810 1.71613
  423 7.48243 -56.9172 26.2403
  424 -0.755290 -103.777 -22.7382
  425 47.2546 24.2727 19.6679
  426 47.0692 24.3447 -19.7216
  427 59.0152 12.5960 -7.25000
  428 59.1294 12.5752 7.24143
  429 -16.0169 0.0998382 -43.2608
  430 -15.9004 0.0742555 43.1736
  431 133.134 27.1143 -31.6827
  432 132.561 27.4834 31.9132
  433 637.179 -18.5776 -54.1066
  434 20.3459 -3.00754 30.4094
  435 19.7333 -2.89461 -30.6497
  436 464.666 -20.2804 -61.7244
  437 466.444 -21.5925 61.6933
  438 -111.281 0.791025 -11.1121
  439 -111.116 0.788265 11.0899
  440 -0.00816986 -102.445 20.6078
  441 -0.688296 -65.3188 23.7882
  442 -44.7739 3.26785 33.3395
  443 -44.8737 3.26411 -33.4033
  444 333.256 0.299117 -2.00977
  445 333.323 0.298615 2.01156
  446 -9.67538 -15.3076 24.7884
  447 -9.69553 -15.3469 -24.7682
  448 213.499 14.8726 -97.7412
  449 213.026 15.7454 98.6730
  450 1.78787 -121.784 -21.6524
  451 1120.34 36.5677 0.243546
  452 3.42708 -140.202 -10.2067
  453 -128.522 -0.356300 -3.64501
  454 -128.313 -0.356221 3.63953
  455 -48.1674 7.33916 26.2219
  456 -48.3154 7.35446 -26.2769
  457 -59.9669 0.908934 20.2203
  458 -60.0329 0.908051 -20.2531
  459 232.108 21.5666 -24.3975
  460 232.091 21.5869 24.5037
  461 345.186 11.0625 -26.9683
  462 345.296 11.0060 27.0246
  463 -4.82149 -19.5698 43.8353
  464 -4.82913 -19.4395 -44.0243
  465 604.973 13.8959 -67.9632
  466 43.8456 -4.64032 -0.126282
  467 42.3032 -5.02257 0.929291
  468 10.2417 -121.572 -6.79918
  469 6.78054 -143.086 1.95753
  470 -17.6888 -7.77806 25.4718
  471 -17.7017 -7.80855 -25.4880
  472 131.327 12.1115 -149.184
  473 890.150 23.7203 -106.368
  474 211.664 10.9048 8.32713
  475 211.675 10.9001 -8.31129
  476 305.492 4.62534 -92.8603
  477 306.047 4.54249 94.0908
  478 93.8621 30.5316 3.95074
  479 93.6681 30.6381 -3.95259
  480 276.350 19.2910 -50.7604
  481 276.410 19.2233 51.0727
  482 12.5996 7.37946 37.4249
  483 13.2120 7.68733 -37.3781
  484 -114.837 1.50762 -7.80561
  485 -114.647 1.50530 7.79164
  486 593.421 -66.2639 -53.0852
  487 467.771 -1.56240 -2.81086
  488 467.922 -1.56409 2.81334
  489 33.5450 1.91659 -1.60691
  490 33.6600 1.91452 1.60372
  491 -25.2465 10.6770 23.7191
  492 -25.4018 10.7019 -23.7663
  493 -61.2991 3.55606 -7.91442
  494 -61.1305 3.55031 7.90052
  495 211.905 17.8778 -12.4880
  496 211.884 17.8880 12.5286
  497 -21.0530 9.77337 34.6071
  498 -21.2048 9.79321 -34.6888
  499 542.669 -16.4671 -33.4739
  500 543.612 -17.1759 33.1690
  501 361.990 2.94350 -62.2364
  502 361.401 2.74874 62.7257
  503 139.947 4.07195 0.0114803
  504 139.998 4.06871 -0.0116254
  505 1.92049 -61.2987 -35.2793
  506 638.914 -21.2885 44.0660
  507 9.99127 -37.9550 -30.1224
  508 188.026 28.4517 25.9483
  509 188.174 28.3528 -25.7812
  510 587.022 -61.9848 52.6272
  511 48.2646 -37.0881 82.2092
  512 694.092 -78.4562 -100.917
  513 476.027 -0.132172 29.9492
  514 475.794 0.0221240 -29.9427
  515 1.92812 -52.1085 36.7310
  516 -9.36762 -2.75502 -7.27620
  517 -9.37075 -2.75306 7.28059
  518 66.5547 1.43042 -0.272366
  519 66.6492 1.42932 0.271417
  520 -1.56416 -36.8404 15.8406
  521 -1.41898 -36.6742 -15.9273
  522 392.709 1.57682 6.97833
  523 392.605 1.57908 -6.97294
  524 1083.40 203.619 97.6929
  525 49.1956 -19.7070 -21.9628
  526 38.5362 -29.4991 13.9244
  527 -3.99566 7.52362 -10.6074
  528 -3.85277 7.50882 10.5892
  529 -93.7096 1.46455 11.9758
  530 -93.8173 1.46614 -11.9978
  531 1.00934 -114.782 21.9351
  532 -125.043 0.822762 0.778027
  533 -125.255 0.822747 -0.779872
  534 127.333 4.47343 -111.645
  535 124.711 6.23014 115.553
  536 117.223 23.6293 -42.7833
  537 116.363 24.0978 42.9765
  538 -24.8034 -4.90147 34.4035
  539 -24.8505 -4.92600 -34.4622
  540 116.859 7.95618 0.0429301
  541 116.789 7.96469 -0.0422430
  542 -47.8547 1.83035 2.87567
  543 -48.0178 1.83219 -2.88162
  544 136.076 17.1698 -1.35072
  545 135.998 17.1964 1.36568
  546 -2.55868 -8.48147 6.24035
  547 -2.56789 -8.47500 -6.23950
  548 51.3376 22.2561 16.2823
  549 51.0044 22.5371 -16.4197
  550 41.4616 9.76862 13.3706
  551 40.9055 9.72572 -13.7301
  552 478.868 1.41793 12.5345
  553 478.710 1.43039 -12.5301
  554 426.793 3.29546 20.4226
  555 426.653 3.33673 -20.4131
  556 -0.429829 -99.1799 -14.4135
  557 303.632 12.4833 -21.3646
  558 303.693 12.4601 21.4086
  559 303.526 4.32363 -8.57885
  560 303.576 4.31979 8.58852
  561 -31.5501 0.509531 0.309271
  562 -31.3963 0.509708 -0.309871
  563 539.986 27.3953 -13.0675
  564 667.249 -78.3078 -42.5162
  565 569.458 27.8163 50.4866
  566 5.13736 -79.9937 -24.2675
  567 -22.9278 8.70938 -14.8242
  568 -22.7758 8.69200 14.7980
  569 5.64292 -45.6027 33.7480
  570 -27.8613 1.39215 38.7371
  571 -27.9553 1.38409 -38.8084
  572 856.268 81.9725 9.29979
  573 201.467 6.64221 -4.51999
  574 201.452 6.64540 4.52624
  575 1254.30 109.268 -116.460
  576 -4.43637 -3.31444 44.4006
  577 -3.95148 -2.96263 -44.4148
  578 704.846 -56.2476 16.3770
  579 563.710 -0.721332 -14.4734
  580 563.905 -0.784316 14.4242
  581 269.415 5.04689 -133.373
  582 272.369 4.16832 135.183
  583 -13.7455 -13.0892 39.6604
  584 -13.7630 -13.1639 -39.7777
  585 144.344 17.5253 74.9055
  586 145.523 16.5474 -74.4148
  587 -108.637 1.20491 -11.0074
  588 -108.487 1.20289 10.9857
  589 829.864 82.6379 28.7953
  590 166.339 12.5545 3.77210
  591 166.383 12.5431 -3.76145
  592 195.320 24.5974 -52.4339
  593 195.018 24.8816 52.8793
  594 514.181 -2.94931 -29.0639
  595 514.485 -3.17239 29.0426
  596 -1.98849 -50.4040 -35.4683
  597 552.556 -1.50112 4.39720
  598 552.351 -1.49806 -4.39404
  599 -72.4682 0.945848 -0.893304
  600 -72.2897 0.945577 0.890590
  601 -134.384 -1.26987 -0.0867319
  602 -134.603 -1.27120 0.0863242
  603 13.2293 -70.3276 -7.66957
  604 -4.98170 -33.1470 30.8921
  605 -5.25428 -31.3016 -31.0950
  606 -60.9401 3.97938 27.5490
  607 -61.0579 3.98372 -27.6034
  608 394.606 7.09827 26.0811
  609 394.469 7.16134 -26.0532
  610 292.872 1.11622 1.96009
  611 292.829 1.11577 -1.95856
  612 69.9557 -8.33251 50.6647
  613 71.9655 -6.90830 -50.2718
  614 -1.96104 -25.7562 13.4356
  615 -2.02571 -25.6790 -13.4837
  616 660.847 72.8250 295.500
  617 -33.1684 -0.959829 12.3789
  618 -33.1759 -0.964800 -12.3913
  619 13.4057 -41.9485 -22.8650
  620 287.403 8.56313 -11.6774
  621 287.443 8.55779 11.6938
  622 145.448 29.7913 -21.2679
  623 145.144 29.9791 21.4231
  624 1.36654 -169.100 6.86152
  625 110.742 28.0461 0.356471
  626 110.591 28.1259 -0.337489
  627 -4.80660 11.1345 17.9211
  628 -4.95626 11.1591 -17.9533
  629 -0.785371 -87.0003 19.6423
  630 -136.171 -0.0770591 -3.70197
  631 -135.959 -0.0772440 3.69610
  632 192.613 2.54509 1.92374
  633 192.633 2.54349 -1.92190
  634 466.679 -0.599806 8.47574
  635 466.529 -0.593725 -8.47023
  636 417.683 -17.4932 226.479
  637 336.933 5.68441 -16.5961
  638 337.010 5.66555 16.6170
  639 7.54530 -4.40492 39.9345
  640 8.90330 -1.53881 -39.7127
  641 533.306 -43.2208 -184.738
  642 1215.38 40.5781 -48.3194
  643 -127.614 -0.00846844 -7.44648
  644 -127.433 -0.00965697 7.43262
  645 39.8655 5.66768 -4.10968
  646 39.9797 5.66005 4.10331
  647 -2.28791 -53.9845 31.5673
  648 725.399 49.3595 -57.7240
  649 545.998 -1.74202 0.817915
  650 545.798 -1.74045 -0.816843
  651 -34.8283 -1.69680 -28.4237
  652 -34.7813 -1.68646 28.3811
  653 -0.124890 -122.786 -18.4745
  654 555.123 -1.63694 1.70467
  655 554.916 -1.63536 -1.70260
  656 58.9099 16.7611 10.7306
  657 58.7827 16.7945 -10.7431
  658 435.195 -34.0540 -122.879
  659 442.464 -33.8377 124.078
  660 621.483 -4.75305 10.4275
  661 621.421 -4.72161 -10.7659
  662 2.82012 -152.586 13.4552
  663 -25.3935 0.148585 -1.59693
  664 -25.2435 0.148609 1.59396
  665 208.701 51.9723 -218.218
  666 199.961 1.98051 1.94645
  667 199.975 1.97905 -1.94518
  668 103.166 5.16819 -0.588513
  669 103.091 5.17310 0.588010
  670 120.800 10.5407 1.07037
  671 120.871 10.5282 -1.06661
  672 371.919 8.27566 -40.4009
  673 372.113 8.15070 40.5105
  674 103.776 29.2764 -5.06035
  675 103.455 29.4774 5.07661
  676 -60.4707 4.50616 -14.5103
  677 -60.3071 4.49536 14.4836
  678 -72.1990 5.04443 -16.9611
  679 -72.0376 5.03413 16.9280
  680 641.155 -10.1446 0.230579
  681 1.88726 -23.4371 -41.7522
  682 641.627 -10.6361 -0.972480
  683 826.437 62.9489 -6.66702
  684 -79.7022 0.405661 13.7127
  685 -79.7856 0.404894 -13.7372
  686 90.4277 27.0119 -11.7470
  687 89.7914 27.3026 11.7786
  688 -145.837 -0.0963040 -1.10929
  689 -145.615 -0.0960496 1.10679
  690 2.50400 -20.8107 41.6796
  691 -49.0304 0.895873 29.4948
  692 -49.1142 0.891461 -29.5469
  693 706.089 -52.2286 -18.9054
  694 119.950 0.882226 -1.26796
  695 119.888 0.883134 1.26835
  696 33.4084 9.17087 7.65025
  697 33.2855 9.18575 -7.66103
  698 381.133 -15.2870 -103.656
  699 383.725 -15.8990 105.464
  700 1265.91 91.6417 104.982
  701 27.2601 -97.3133 -50.9780
  702 -8.57897 -18.5265 42.1643
  703 -8.58063 -18.6114 -42.2761
  704 86.4386 16.1620 -4.28505
  705 86.5421 16.1355 4.28386
  706 570.746 -1.45624 -4.43996
  707 570.962 -1.45989 4.44157
  708 280.591 2.12206 3.92908
  709 280.557 2.12233 -3.92526
  710 27.6894 20.9680 27.3533
  711 27.5129 21.0276 -27.4252
  712 22.6599 3.89408 2.84701
  713 22.5378 3.89815 -2.85190
  714 -13.8762 4.90931 41.9173
  715 -14.0073 4.89683 -42.0216
  716 472.776 -2.13114 3.64974
  717 472.621 -2.12836 -3.64640
  718 412.232 1.28711 9.79837
  719 412.115 1.29280 -9.79134
  720 59.6198 -23.4785 59.5752
  721 61.1499 -26.0753 -57.8486
  722 -29.0189 7.33494 36.5149
  723 -29.1519 7.33911 -36.5973
  724 19.0428 -33.3450 16.4541
  725 4.77468 13.5090 37.2725
  726 4.56269 13.5345 -37.3459
  727 -84.7925 2.21875 -9.42616
  728 -84.6149 2.21412 9.40869
  729 78.8391 22.3937 8.92668
  730 78.6971 22.4473 -8.93179
  731 638.818 -18.5499 -29.2151
  732 604.345 -51.0552 -21.6289
  733 -9.42689 -19.3712 30.4560
  734 -9.41866 -19.4699 -30.4244
  735 242.099 8.05707 -157.113
  736 236.153 12.8460 158.269
  737 150.010 28.4816 -29.7957
  738 149.612 28.7514 30.0317
  739 14.2856 -19.0572 31.3993
  740 -0.808084 -64.9149 -17.2701
  741 304.938 14.6992 -39.0511
  742 305.047 14.6382 39.2220
  743 0.715438 -126.538 15.7173
  744 185.255 23.0133 -13.8837
  745 185.189 23.0476 13.9488
  746 600.988 -1.37084 -10.9125
  747 601.154 -1.43642 10.8062
  748 12.8402 -157.936 8.66288
  749 281.161 18.4587 30.1904
  750 281.109 18.4849 -30.0831
  751 79.9663 27.9973 -1.54249
  752 80.3769 27.7361 1.48049
  753 -107.832 0.703833 -9.40004
  754 -107.703 0.703141 9.38112
  755 308.948 2.67245 -7.29171
  756 309.000 2.67038 7.29853
  757 195.491 26.0406 -22.2378
  758 195.397 26.0996 22.3611
  759 6.29534 16.5207 27.9889
  760 6.12826 16.5646 -28.0477
  761 606.079 -43.8547 14.0793
  762 -86.8670 1.57600 7.06229
  763 -87.0501 1.57846 -7.07314
  764 1264.25 268.896 -190.717
  765 -27.7539 2.77330 6.92610
  766 -27.9055 2.77815 -6.93696
  767 512.805 -0.326369 20.5093
  768 512.613 -0.252245 -20.5342
  769 952.287 56.4390 -1.24426
  770 575.662 -2.40107 -8.23628
  771 575.872 -2.41344 8.22954
  772 375.240 2.93581 12.5523
  773 375.145 2.94511 -12.5422
  774 558.522 -54.3574 168.713
  775 248.860 15.3948 -13.0342
  776 248.873 15.3941 13.0665
  777 6.14547 -90.1427 16.3140
  778 639.118 -74.5281 61.5585
  779 389.543 -1.31897 2.08883
  780 389.441 -1.31767 -2.08722
  781 504.256 -1.21708 1.10157
  782 504.082 -1.21578 -1.10038
  783 -2.12112 -50.5144 -29.6380
  784 3.46289 -83.3854 26.8540
  785 237.255 24.9618 41.9266
  786 237.302 24.9238 -41.6622
  787 1246.31 10.3246 11.7747
  788 399.978 1.72782 -49.7311
  789 400.221 1.57913 49.8691
  790 -78.3385 2.59673 20.2933
  791 -78.4830 2.60310 -20.3327
  792 18.4534 -62.3029 0.519333
  793 11.7478 -145.644 -16.6478
  794 898.793 118.721 -27.1356
  795 -0.749406 -64.7946 15.6041
  796 21.9993 14.8814 32.3319
  797 21.9226 14.8659 -32.5327
  798 128.007 22.4839 -0.978334
  799 127.908 22.5281 0.998476
  800 599.955 -27.9171 -13.3386
  801 601.519 -27.4647 11.6679
  802 692.543 138.940 -280.575
  803 -88.9176 0.533813 -2.78659
  804 -88.7309 0.533094 2.78086
  805 -45.4258 -0.140363 11.5990
  806 -45.4456 -0.142595 -11.6141
  807 47.5112 7.78409 4.74795
  808 46.5379 7.74934 -4.88136
  809 458.794 -4.16921 44.5541
  810 458.477 -3.84176 -44.4150
  811 238.383 3.64795 -2.91103
  812 238.391 3.64918 2.91437
  813 735.186 -2.22758 51.8270
  814 85.3954 10.8503 -3.96245
  815 85.4908 10.8347 3.95973
  816 77.3315 14.5323 -19.5874
  817 76.6597 14.8490 19.7250
  818 0.352452 -48.2823 -38.6675
  819 1016.27 184.803 164.951
  820 -144.276 0.0411584 -3.76862
  821 -144.065 0.0410484 3.76200
  822 -0.201524 -152.795 14.3485
  823 12.8101 -18.9187 -31.9187
  824 -22.7730 -1.34541 8.73505
  825 -22.7668 -1.34924 -8.73939
  826 825.914 60.3399 -27.9782
  827 223.431 19.4853 -16.5022
  828 223.414 19.4973 16.5654
  829 567.915 -9.67388 -22.6210
  830 568.494 -9.73157 22.3857
  831 -138.805 0.929554 5.20073
  832 -139.003 0.931072 -5.21042
  833 -1.06104 -1.09416 -0.928233
  834 -1.06319 -1.09606 0.931903
  835 0.391709 -156.083 -13.8433
  836 0.716023 -161.731 -11.6637
  837 -149.529 1.29329 0.640730
  838 -149.757 1.29367 -0.641741
  839 92.2812 -8.19931 -107.869
  840 355.890 1.75722 -3.97226
  841 355.972 1.75669 3.97562
  842 -2.29457 1.66690 0.848117
  843 -2.43061 1.66756 -0.849161
  844 520.889 -0.127879 -13.4777
  845 521.071 -0.152060 13.4710
  846 -59.5448 0.405588 10.9801
  847 -59.5830 0.405546 -10.9961
  848 323.394 19.8631 -230.946
  849 550.322 -45.7683 50.7937
  850 429.473 -0.214817 -4.55331
  851 429.600 -0.216787 4.55710
  852 545.766 -49.5858 -56.1585
  853 177.207 16.9361 -7.34552
  854 177.160 16.9530 7.37349
  855 241.014 12.9085 -10.3000
  856 241.022 12.9098 10.3214
  857 638.029 -13.2438 22.4161
  858 44.2660 23.9923 21.1584
  859 44.0699 24.0764 -21.2483
  860 48.9999 1.24726 1.13660
  861 48.8945 1.24845 -1.13872
  862 304.814 1.24594 3.49165
  863 304.764 1.24618 -3.48866
  864 777.201 -56.7706 101.530
  865 490.793 0.888048 -17.9199
  866 490.967 0.843589 17.9108
  867 15.2949 6.28004 5.96707
  868 15.1656 6.28913 -5.97656
  869 490.086 -2.10735 5.17851
  870 489.921 -2.10385 -5.17417
  871 -82.5809 -0.0807323 -2.21497
  872 -82.3954 -0.0800181 2.21307
  873 -0.392386 -49.7634 13.9842
  874 -0.527058 -50.5384 -14.0829
  875 602.093 -6.32793 56.1054
  876 -31.9601 9.26439 30.1625
  877 -32.1083 9.28428 -30.2279
  878 -0.178968 -81.5540 -15.3101
  879 240.691 6.14941 -5.52872
  880 240.701 6.15122 5.53515
  881 437.017 -21.2953 -79.6095
  882 440.160 -23.5249 80.3463
  883 -17.2301 -5.57651 -42.2299
  884 -17.1403 -5.57064 42.1248
  885 28.9470 20.6503 24.8818
  886 28.7735 20.7076 -24.9359
  887 2.01814 -181.163 9.08057
  888 10.1314 16.8563 33.5553
  889 9.94643 16.8947 -33.6292
  890 404.443 -7.51001 -70.9807
  891 403.507 -7.74921 71.5290
  892 697.047 44.0329 61.2160
  893 165.637 15.5903 4.90657
  894 165.687 15.5748 -4.88936
  895 502.240 1.31021 -13.3101
  896 502.411 1.29291 13.3105
  897 -18.9768 -7.97309 37.4968
  898 -19.0209 -8.00905 -37.5752
  899 1.89280 -183.863 -4.59215
  900 -29.2422 -1.55794 36.5632
  901 -29.3128 -1.56645 -36.6286
  902 25.4675 18.0675 -19.0484
  903 25.6204 18.0243 19.0134
  904 -1.53509 -12.6945 6.98545
  905 -1.55303 -12.6830 -6.99635
  906 49.5291 20.3921 -16.1429
  907 49.6859 20.3385 16.1160
  908 11.2866 -11.9254 36.3390
  909 9.98777 -11.0613 -38.5538
  910 493.160 -15.1422 45.8032
  911 492.056 -14.5397 -45.9570
  912 -153.248 0.253279 -0.942453
  913 -153.019 0.253365 0.940812
  914 -14.0954 -1.23360 6.61807
  915 -14.0843 -1.23602 -6.61712
  916 0.638524 -115.573 -13.8310
  917 -14.8036 -6.26605 -18.6891
  918 -14.7947 -6.24881 18.6868
  919 -59.7069 5.32071 26.0799
  920 -59.8439 5.33071 -26.1337
  921 160.315 28.8119 -14.9911
  922 160.165 28.9136 15.0824
  923 670.941 50.9400 -6.86374
  924 -2.17087 14.4663 25.3938
  925 -2.32998 14.5017 -25.4444
  926 249.596 16.7204 -76.1719
  927 249.540 16.9428 76.8820
  928 -23.1400 9.79952 20.3392
  929 -23.2942 9.82323 -20.3792
  930 783.511 -26.4842 1.40056
  931 504.700 20.1896 26.7976
  932 585.766 -5.57647 -50.7126
  933 431.520 3.43077 -30.1700
  934 431.706 3.32656 30.1958
  935 -38.3913 5.41605 -9.26931
  936 -38.2344 5.40647 9.25237
  937 -98.0301 1.67147 12.6690
  938 -98.1971 1.67587 -12.6944
  939 -6.03107 -19.7306 -21.6451
  940 -5.98428 -19.7412 21.6796
  941 159.483 7.71722 3.00463
  942 159.525 7.71075 -3.00042
  943 -45.3658 5.20180 32.8209
  944 -45.4826 5.20296 -32.8889
  945 510.326 -1.66942 6.66253
  946 510.149 -1.66542 -6.65769
  947 -3.64959 -42.8606 32.2695
  948 25.6188 16.2909 -16.0756
  949 25.7632 16.2560 16.0485
  950 33.7848 10.6824 9.85203
  951 33.6574 10.7022 -9.86643
  952 96.5803 6.50342 -1.14501
  953 96.6605 6.49639 1.14325
  954 954.545 140.265 -46.6842
  955 -3.95231 -1.05175 -2.67618
  956 -3.96066 -1.05148 2.68086
  957 36.8757 12.3504 -19.2747
  958 37.4741 12.1002 19.1409
  959 351.568 11.5380 -32.7273
  960 351.701 11.4597 32.8070
  961 51.6326 13.6897 -8.93023
  962 51.7552 13.6649 8.91855
  963 98.1947 7.47725 139.399
  964 645.631 -5.13042 -6.31994
  965 645.010 -4.94743 5.79339
  966 121.452 4.99386 123.949
  967 129.038 3.23349 -1.27789
  968 128.980 3.23610 1.27823
  969 322.587 -0.759771 -200.303
  970 243.932 1.58144 1.82423
  971 243.920 1.58040 -1.82293
  972 32.9287 -24.5981 0.333986
  973 36.3759 -19.6052 2.39758
  974 569.180 -1.09180 2.27050
  975 568.964 -1.09050 -2.26800
  976 -46.4633 0.294908 27.0412
  977 -46.5263 0.290918 -27.0837
  978 1024.09 130.639 68.7212
  979 -3.77320 -31.0765 -41.8655
  980 6.23878 -143.654 24.7564
  981 -0.325447 -49.8456 38.3807
  982 589.648 -1.17681 -8.40124
  983 589.853 -1.19482 8.38237
  984 -7.76001 -14.2804 18.7569
  985 -7.78373 -14.2852 -18.7422
  986 752.974 81.8020 -28.1151
  987 1262.07 9.28155 -7.79426
  988 -1.94471 -3.02802 -2.91266
  989 -1.94240 -3.03434 2.91684
  990 349.908 1.48318 -7.30800
  991 349.986 1.48085 7.31394
  992 -3.81303 -29.7622 42.0171
  993 482.718 0.137621 26.5527
  994 482.519 0.247658 -26.5606
  995 635.275 -40.4268 -18.7238
  996 -21.9163 -4.44967 21.0334
  997 -21.9295 -4.46778 -21.0483
  998 11.8647 -36.8059 27.1381
  999 -0.821464 -76.3053 30.1562
  1000 -0.0991388 -80.9719 15.3095
  1001 669.100 41.4303 -4.18843
  1002 753.855 83.2155 12.7000
  1003 535.284 -57.7106 -95.7843
  1004 8.46000 -71.1263 21.4419
  1005 10.5304 -100.753 0.924852
  1006 155.207 1.48870 0.0954349
  1007 155.166 1.48998 -0.0955770
  1008 -5.88785 -6.72413 -9.05531
  1009 -5.88187 -6.72417 9.06141
  1010 5.84948 -58.5068 -30.2749
  1011 428.693 -1.56155 -1.67464
  1012 428.820 -1.56310 1.67612
  1013 91.2874 6.61963 -50.4492
  1014 87.4697 6.81812 49.9835
  1015 -4.03191 13.8054 34.4046
  1016 -4.20907 13.8397 -34.4889
  1017 -45.6424 7.48503 -21.1433
  1018 -45.4869 7.46822 21.1018
  1019 334.479 5.22946 -73.2856
  1020 334.584 5.56215 74.0076
  1021 243.227 20.7582 -53.2822
  1022 243.148 20.7771 53.6968
  1023 262.112 16.1902 -19.2082
  1024 262.136 16.1800 19.2586
  1025 669.419 -14.0597 -62.8555
  1026 -14.4924 8.79324 38.6178
  1027 -14.6486 8.79993 -38.7237
  1028 472.427 -2.44821 36.6282
  1029 472.154 -2.20413 -36.5906
  1030 -2.06646 -22.5479 43.3990
  1031 -37.6528 -1.14586 20.1713
  1032 -37.6809 -1.15265 -20.1972
  1033 431.575 1.74634 -36.6094
  1034 431.798 1.59671 36.6555
  1035 551.187 15.0100 -45.5815
  1036 -0.356329 -75.6459 -31.5898
  1037 -5.88945 -29.6651 38.1266
  1038 -6.15108 -30.0620 -37.8241
  1039 308.134 15.4049 -27.8526
  1040 308.214 15.3621 27.9338
  1041 383.947 4.54188 15.4326
  1042 383.843 4.55748 -15.4202
  1043 633.992 -39.5019 15.8819
  1044 39.7916 1.65547 -0.282004
  1045 39.9021 1.65450 0.281347
  1046 540.679 -64.4487 102.055
  1047 5.43641 0.922158 1.81850
  1048 5.30490 0.923074 -1.82164
  1049 123.002 29.2882 -4.89649
  1050 122.817 29.3961 4.93739
  1051 49.8611 23.2457 17.8435
  1052 49.6905 23.3092 -17.8801
  1053 6.44464 -89.1251 -17.0643
  1054 162.923 3.71023 1.87480
  1055 162.962 3.70717 -1.87271
  1056 495.970 15.4322 11.1843
  1057 433.542 1.02377 14.0679
  1058 433.409 1.04025 -14.0604
  1059 -1.58801 -23.5467 -43.4817
  1060 649.941 -8.53544 -10.7913
  1061 2.05421 -0.335784 42.2201
  1062 2.56979 -0.0178356 -41.9711
  1063 585.442 -1.55314 -4.67131
  1064 585.666 -1.55754 4.67073
  1065 624.887 -2.73858 -8.26942
  1066 624.930 -2.81067 8.09788
  1067 -0.464598 -122.432 11.4205
  1068 373.950 6.87697 -20.2981
  1069 374.053 6.84905 20.3172
  1070 451.234 1.94363 16.1879
  1071 451.089 1.96618 -16.1824
  1072 13.4179 12.1552 36.9054
  1073 13.3434 12.1506 -36.9730
  1074 974.065 61.6555 12.9180
  1075 -11.0011 -4.21438 44.5158
  1076 -11.2135 -4.10132 -44.6444
  1077 147.253 26.2952 -6.21832
  1078 147.152 26.3511 6.25996
  1079 -70.4813 0.770201 -3.19382
  1080 -70.3047 0.769537 3.18859
  1081 238.200 15.7813 -87.3108
  1082 237.817 16.4062 88.2031
  1083 72.2317 26.2971 12.2364
  1084 72.0479 26.3773 -12.2604
  1085 163.582 21.6798 -66.7133
  1086 162.749 22.4325 67.1643
  1087 -3.91952 -40.2987 -31.4823
  1088 567.801 9.62799 61.6579
  1089 390.504 17.0270 257.078
  1090 67.9400 27.5046 12.5483
  1091 67.7297 27.6067 -12.5910
  1092 240.103 9.95865 -8.12125
  1093 240.111 9.95910 8.13583
  1094 840.901 18.0367 2.97253
  1095 58.9211 16.9602 4.83565
  1096 58.2041 17.1161 -5.07769
  1097 -24.6904 -5.22920 27.8156
  1098 -24.7175 -5.25574 -27.8497
  1099 -0.806267 -18.9154 7.59672
  1100 -0.839601 -18.9055 -7.62801
  1101 554.485 -2.12262 21.0934
  1102 554.222 -1.93979 -21.1923
  1103 1.59465 -36.9174 40.4389
  1104 -36.3714 2.80335 -36.1736
  1105 -36.2754 2.81067 36.1056
  1106 0.170188 -146.576 -14.0799
  1107 -7.47332 -10.7931 44.4624
  1108 -7.44147 -10.5289 -44.5084
  1109 528.409 -0.762770 -8.88364
  1110 528.596 -0.771056 8.88628
  1111 548.303 -5.83835 25.7603
  1112 547.883 -5.53724 -25.8496
  1113 101.600 24.5464 -26.8552
  1114 100.843 24.9399 27.0053
  1115 -1.20065 -75.5570 -26.0924
  1116 718.148 -50.5654 -154.579
  1117 929.295 136.352 25.8697
  1118 10.6394 -105.502 3.08835
  1119 37.8619 20.7019 -24.8869
  1120 38.0800 20.6010 24.7099
  1121 95.8784 29.4524 2.21581
  1122 95.6391 29.5876 -2.21970
  1123 196.721 8.99901 4.58077
  1124 196.741 8.99445 -4.57171
  1125 -11.6549 -16.6055 35.8692
  1126 -11.6412 -16.7749 -35.9349
  1127 -30.3191 10.6673 27.4496
  1128 -30.4718 10.6913 -27.5056
  1129 -8.17264 13.8788 31.6786
  1130 -8.33829 13.9118 -31.7504
  1131 527.108 -27.1718 -45.6460
  1132 530.286 -27.2889 45.3988
  1133 0.705307 -85.2550 -29.6941
  1134 287.879 2.08055 -107.455
  1135 288.211 2.93567 109.025
  1136 96.1285 26.0007 -4.22152
  1137 96.2703 25.9337 4.22630
  1138 278.013 175.332 285.278
  1139 76.7643 20.4094 8.65593
  1140 76.6351 20.4520 -8.66197
  1141 712.382 -70.0483 -45.3826
  1142 275.782 4.94391 6.24799
  1143 275.750 4.94487 -6.24062
  1144 -11.9884 -10.6328 22.2187
  1145 -12.0000 -10.6609 -22.2162
  1146 -14.1978 -12.6543 28.5782
  1147 -14.2023 -12.7080 -28.5878
  1148 474.284 -42.9773 -147.531
  1149 482.934 -47.6992 148.540
  1150 92.2370 1.49333 1.82047
  1151 92.3164 1.49194 -1.82021
  1152 302.296 13.2621 -60.5239
  1153 302.238 13.1194 61.0484
  1154 641.864 -78.1305 115.565
  1155 564.692 -1.80476 1.29229
  1156 564.480 -1.80325 -1.29081
  1157 -46.8696 7.91264 24.6212
  1158 -47.0219 7.92937 -24.6702
  1159 -82.2597 2.34126 -12.5001
  1160 -82.0864 2.33544 12.4788
  1161 153.291 20.9146 178.341
  1162 479.812 30.5828 -22.8081
  1163 276.571 17.5124 -31.5042
  1164 276.623 17.4882 31.6432
  1165 822.961 -3.01215 167.974
  1166 281.264 17.3184 -45.1194
  1167 281.319 17.2612 45.3589
  1168 76.1821 7.20373 -2.49995
  1169 76.2758 7.19503 2.49644
  1170 25.8653 -75.0957 22.9951
  1171 26.0792 -72.4861 -29.8051
  1172 378.371 -21.7946 -149.179
  1173 383.209 -20.1021 148.912
  1174 152.421 26.7728 -48.5247
  1175 151.777 27.2461 48.8925
  1176 656.373 -40.6108 -38.9689
  1177 -22.3495 -1.27751 40.9435
  1178 -22.4433 -1.27978 -41.0256
  1179 0.333055 -32.8122 -41.6063
  1180 173.939 12.3514 -114.730
  1181 174.281 12.7361 116.446
  1182 -0.412633 -33.3869 8.42645
  1183 -0.353789 -33.4705 -8.53375
  1184 -151.842 1.21076 -3.61350
  1185 -151.631 1.20977 3.60692
  1186 515.642 -1.58253 -2.62863
  1187 515.824 -1.58465 2.63149
  1188 326.230 9.35598 -18.3322
  1189 326.306 9.33250 18.3624
  1190 -9.81910 1.12548 44.1563
  1191 -9.84768 1.31883 -44.2445
  1192 -0.0270682 -131.834 -12.6146
  1193 -130.187 0.260978 6.13256
  1194 -130.357 0.261678 -6.14510
  1195 109.089 7.38054 -83.1893
  1196 108.354 8.05473 85.5437
  1197 608.007 -36.8011 -7.11660
  1198 180.922 16.7549 -103.445
  1199 181.016 17.0946 104.268
  1200 -73.5620 0.417870 9.92896
  1201 -73.6194 0.417217 -9.94501
  1202 2.14599 -111.099 -19.7026
  1203 -13.8731 3.60799 -3.90828
  1204 -13.7297 3.60413 3.90161
  1205 98.6332 21.3567 5.00468
  1206 98.5114 21.4029 -4.99972
  1207 344.878 -0.615180 -2.27082
  1208 344.953 -0.615900 2.27250
  1209 460.101 0.160702 10.6758
  1210 459.955 0.171017 -10.6702
  1211 28.1346 0.513891 20.1812
  1212 27.7264 0.0554334 -20.6834
  1213 5.03462 -62.7690 30.5239
  1214 828.308 120.686 13.3017
  1215 -25.3842 -1.90722 15.9739
  1216 -25.3922 -1.91602 -15.9856
  1217 4.05052 -58.8187 -32.3332
  1218 -2.33335 -38.3138 23.2743
  1219 -2.22855 -37.9045 -24.0987
  1220 651.968 -7.29097 9.49061
  1221 0.545992 -150.269 12.8121
  1222 5.79452 -42.5100 -36.1459
  1223 86.1944 0.793280 0.547294
  1224 86.1118 0.793964 -0.547958
  1225 -5.82608 -26.2006 41.6041
  1226 -65.5643 3.60847 -10.2004
  1227 -65.3948 3.60242 10.1832
  1228 1286.06 21.1499 38.0260
  1229 -35.4831 4.77155 36.2402
  1230 -35.5965 4.76785 -36.3155
  1231 321.984 11.5896 -54.6326
  1232 322.189 11.4070 54.9158
  1233 22.6633 -25.2929 -11.0772
  1234 305.632 13.0351 -23.2291
  1235 305.700 13.0033 23.2866
  1236 13.5858 -83.1333 0.184073
  1237 -5.85708 -26.2803 -41.5727
  1238 -42.6057 1.22424 5.61362
  1239 -42.7655 1.22664 -5.62230
  1240 -20.9608 2.53902 -41.5142
  1241 -20.8455 2.55018 41.4359
  1242 656.228 54.0560 42.3548
  1243 370.465 2.84113 -56.9834
  1244 370.833 2.78700 57.1191
  1245 -157.254 0.244733 -1.12423
  1246 -157.027 0.244659 1.12176
  1247 332.530 5.41925 -12.3108
  1248 332.599 5.41259 12.3229
  1249 -159.888 -2.99101 -0.472719
  1250 -160.123 -2.99322 0.472853
  1251 494.123 -34.5423 -65.3707
  1252 -75.4153 1.36920 20.5969
  1253 -75.5226 1.36908 -20.6365
  1254 498.762 -36.4816 64.7835
  1255 338.979 9.74318 -24.4497
  1256 339.071 9.70203 24.4908
  1257 41.4295 -60.5492 -82.0372
  1258 0.784167 -103.322 -25.2690
  1259 -1.77954 -43.1223 38.9205
  1260 1026.27 204.681 -169.355
  1261 -0.189797 -97.7550 25.1375
  1262 1077.21 102.500 -74.6255
  1263 -0.728493 -181.607 -11.5554
  1264 60.8226 3.78818 -0.197531
  1265 60.9218 3.78428 0.195292
  1266 -0.434798 -42.8061 8.82105
  1267 -0.344155 -43.0404 -8.80333
  1268 193.316 2.39020 0.952832
  1269 193.334 2.38856 -0.951991
  1270 662.576 -46.7577 36.5503
  1271 21.3302 3.80375 -4.52298
  1272 21.4538 3.79882 4.51638
  1273 3.83091 -192.313 3.45879
  1274 2.44725 -205.660 -3.49177
  1275 609.114 -71.0724 -72.0563
  1276 -1.57697 -54.5480 25.5463
  1277 650.608 45.2600 -55.5581
  1278 -1.88356 -71.8559 25.0106
  1279 1.35148 -193.211 -8.07651
  1280 311.414 6.20039 -13.9465
  1281 311.472 6.18641 13.9663
  1282 -0.264016 -108.026 11.2958
  1283 -0.225812 -88.6117 -25.2783
  1284 1389.40 263.371 222.244
  1285 567.079 -0.215182 0.953392
  1286 566.866 -0.214718 -0.952561
  1287 17.9481 3.88449 32.7615
  1288 17.4271 4.50528 -32.9452
  1289 -6.00010 9.37981 40.6427
  1290 -6.23648 9.37936 -40.7716
  1291 619.081 -10.6191 -36.0220
  1292 569.202 -24.4622 -27.3401
  1293 568.774 -27.6732 27.7820
  1294 92.6746 8.29472 2.17221
  1295 92.5878 8.30535 -2.17408
  1296 -89.4629 2.34897 -15.4933
  1297 -89.3054 2.34368 15.4616
  1298 633.803 -79.7016 -99.9166
  1299 -4.68207 -11.4519 11.7719
  1300 -4.70125 -11.4462 -11.7682
  1301 671.644 -24.6781 59.4159
  1302 -6.73250 -25.8408 31.1625
  1303 -6.65465 -25.9405 -31.0209
  1304 -52.0937 3.26562 6.82229
  1305 -52.2582 3.27056 -6.83402
  1306 107.059 16.5127 -46.2490
  1307 106.020 17.0806 46.1875
  1308 165.893 2.28772 -0.383153
  1309 165.858 2.28958 0.383417
  1310 -60.8308 6.33717 24.6644
  1311 -60.9767 6.34936 -24.7129
  1312 533.833 0.277718 1.48130
  1313 533.640 0.277987 -1.48007
  1314 304.142 6.57384 198.129
  1315 440.235 -1.05379 3.80214
  1316 440.101 -1.05211 -3.79893
  1317 300.805 6.79905 -82.5638
  1318 300.779 6.47834 83.1909
  1319 3.10394 -109.690 -12.3161
  1320 120.204 29.0372 -22.9452
  1321 119.682 29.3573 23.1028
  1322 -1.19471 -1.01037 -1.52408
  1323 -1.20065 -1.01051 1.52844
  1324 381.660 9.05343 30.9012
  1325 381.515 9.14002 -30.8524
  1326 194.698 13.1588 7.22508
  1327 194.724 13.1507 -7.20669
  1328 282.394 13.0678 -16.5547
  1329 282.435 13.0543 16.5909
  1330 364.307 -0.262709 -3.84876
  1331 364.394 -0.263660 3.85173
  1332 -11.4842 -5.49648 -13.2654
  1333 -11.4798 -5.48841 13.2696
  1334 -102.748 -0.241246 4.01966
  1335 -102.942 -0.240863 -4.02696
  1336 -19.1274 -8.57525 -31.8096
  1337 -19.1050 -8.52830 31.7681
  1338 -53.9904 0.197971 1.59018
  1339 -54.1580 0.197681 -1.59252
  1340 -162.179 1.39166 0.626872
  1341 -162.415 1.39225 -0.627858
  1342 678.069 -74.8479 133.742
  1343 515.416 -1.88617 -51.0173
</Section>

newXOutput 82

<Section columns = "stress_xx | stress_yy | stress_xy">
  1 589.731 -1.23208 0.653031
  2 589.958 -1.23312 -0.653370
  3 -177.669 0.742518 -2.47100
  4 0.280415 0.0580796 0.505346
  5 1045.86 348.743 357.896
  6 1183.45 390.352 -345.845
  7 0.278942 0.0567709 -0.503384
  8 -177.418 0.742396 2.46940
  9 588.070 -1.18849 -1.96945
  10 588.632 -2.10242 -3.13684
  11 594.118 -2.12341 -0.903427
  12 594.888 -2.12988 -3.78595
  13 596.725 -2.12629 -1.30467
  14 608.935 -1.93649 -1.75637
  15 613.434 -2.66621 -5.09264
  16 618.549 -1.45756 -3.57126
  17 622.098 -0.366998 -6.87306
  18 646.791 -3.99591 -5.87682
  19 658.028 -3.26141 -7.46413
  20 670.801 -4.64993 -3.37693
  21 677.599 -5.93379 -2.42858
  22 675.507 -6.59957 7.26801
  23 656.408 -7.13982 16.0622
  24 610.372 -7.34542 35.3659
  25 533.303 5.17348 41.4783
  26 471.604 6.69249 37.9262
  27 383.939 11.6495 22.8988
  28 406.200 11.3046 2.76737
  29 348.974 32.5683 -14.1872
  30 451.535 15.4665 -42.3092
  31 505.935 4.39634 -34.3846
  32 599.873 -1.22530 -29.8825
  33 650.460 -8.65429 -19.4550
  34 674.955 -7.66644 -7.17714
  35 676.694 -5.77331 2.49700
  36 670.218 -4.59748 3.22772
  37 657.889 -3.27800 7.28442
  38 646.848 -4.03851 5.77926
  39 622.283 -0.390228 6.83242
  40 618.773 -1.46632 3.55838
  41 613.675 -2.67236 5.09134
  42 609.179 -1.93990 1.75641
  43 596.961 -2.12891 1.30596
  44 595.122 -2.13214 3.78947
  45 594.351 -2.12521 0.904815
  46 588.860 -2.10408 3.13949
  47 588.296 -1.18953 1.97110
  48 557.843 0.705805 -0.774358
  49 518.401 -0.691076 -1.65151
  50 468.811 -3.33833 -1.56249
  51 417.078 -0.575932 -1.29908
  52 371.424 -1.17018 -1.01645
  53 322.289 0.361457 -1.18862
  54 273.505 2.96426 -0.643595
  55 222.567 2.46498 -1.47500
  56 180.118 1.23811 -2.12004
  57 124.138 0.246537 -2.23367
  58 67.0473 1.69457 -1.71824
  59 19.2483 1.46682 -1.66273
  60 -40.5924 0.671817 -1.48856
  61 -85.1004 -1.10920 -3.87436
  62 -128.255 -3.22103 -1.74314
  63 -172.162 0.257474 1.27304
  64 -181.850 3.10680 -0.343643
  65 -182.738 1.31772 0.698334
  66 -176.766 0.596463 -0.0469609
  67 -179.343 1.96784 -2.05859
  68 -176.820 2.42441 0.0640070
  69 -167.541 0.687881 -3.22497
  70 -170.326 1.50702 -3.50801
  71 -166.458 1.41142 -1.84869
  72 -154.391 0.845139 -2.91172
  73 -149.392 1.62481 -4.99654
  74 -140.628 1.84963 -4.01904
  75 -124.832 0.931926 -7.25487
  76 -116.052 0.292871 -6.05107
  77 -99.8625 0.417761 -7.06660
  78 -86.0203 0.364559 -7.91426
  79 -73.7962 0.138922 -6.25063
  80 -56.6414 0.384513 -6.32119
  81 -41.7829 -0.126015 -6.80008
  82 -27.3882 -0.717749 -6.02540
  83 -15.9280 -0.633655 -4.64920
  84 -7.89386 -1.13554 -3.90945
  85 -1.42131 -0.658600 -1.42674
  86 0.0152474 -0.749162 -0.530464
  87 -0.400773 -0.451693 -0.135130
  88 -1.03354 -1.18478 -1.25449
  89 -1.00625 -6.69626 -3.40397
  90 -0.842801 -14.8763 -4.80407
  91 -0.423956 -25.1773 -6.97595
  92 -0.206362 -38.5753 -6.00560
  93 -0.138694 -50.7853 -7.54720
  94 -0.904019 -65.5375 -8.47062
  95 -0.372360 -83.8514 -8.49783
  96 0.169286 -102.280 -8.10595
  97 0.393891 -121.956 -7.96847
  98 0.624554 -142.077 -7.78616
  99 -0.0194335 -156.464 -10.4955
  100 0.996082 -177.320 -9.35364
  101 1.26689 -201.598 -7.25926
  102 -0.229982 -211.290 -9.60348
  103 1.79612 -227.889 -8.73779
  104 4.59505 -249.748 -3.18184
  105 9.05827 -253.186 -5.09395
  106 6.90262 -223.364 10.2383
  107 10.9739 -154.563 33.9843
  108 47.3998 -59.1629 88.5914
  109 141.662 277.201 268.546
  110 1597.78 91.3428 162.680
  111 1378.94 25.3549 58.3741
  112 1334.70 8.28359 13.7969
  113 1324.74 1.74300 -2.09449
  114 1334.20 13.3660 -30.6878
  115 1378.73 46.6373 -70.0063
  116 1558.88 178.259 -207.206
  117 345.905 218.826 -326.242
  118 81.4669 -59.7072 -104.721
  119 24.3866 -169.761 -41.3276
  120 6.98180 -210.729 -10.6581
  121 7.39871 -243.036 1.64028
  122 2.03837 -239.535 2.00588
  123 0.637254 -222.124 7.14792
  124 0.748578 -210.096 5.59708
  125 1.11506 -190.209 10.4385
  126 -0.0496680 -179.095 10.3542
  127 0.438722 -162.130 7.41327
  128 0.895706 -140.441 9.60360
  129 0.197910 -124.877 7.59971
  130 0.252717 -102.329 9.61887
  131 -1.02316 -84.8863 8.29224
  132 -0.689636 -65.5855 8.19769
  133 -0.0883341 -50.4914 7.56292
  134 -0.273858 -38.3478 6.01216
  135 -0.411764 -25.1029 6.90617
  136 -0.829930 -14.8669 4.77988
  137 -1.00079 -6.70657 3.40162
  138 -1.03204 -1.19622 1.25706
  139 -0.400682 -0.456543 0.138418
  140 0.00930037 -0.749804 0.533367
  141 -1.43227 -0.658101 1.43028
  142 -7.90948 -1.13421 3.91260
  143 -15.9481 -0.631494 4.64977
  144 -27.4022 -0.715098 6.02217
  145 -41.7824 -0.123822 6.79209
  146 -56.6238 0.384947 6.31194
  147 -73.7550 0.140124 6.24079
  148 -85.9571 0.366089 7.90255
  149 -99.7693 0.417841 7.05390
  150 -115.931 0.292943 6.03873
  151 -124.690 0.931351 7.24222
  152 -140.458 1.84841 4.00874
  153 -149.206 1.62341 4.98764
  154 -154.187 0.844202 2.90557
  155 -166.238 1.41034 1.84436
  156 -170.098 1.50618 3.50329
  157 -167.309 0.687661 3.22089
  158 -176.577 2.42303 -0.0656170
  159 -179.097 1.96676 2.05621
  160 -176.519 0.596357 0.0462106
  161 -182.485 1.31711 -0.698317
  162 -181.597 3.10512 0.343103
  163 -171.916 0.257660 -1.27252
  164 -128.037 -3.21846 1.74186
  165 -84.9102 -1.10783 3.87185
  166 -40.4301 0.671939 1.48731
  167 19.3737 1.46616 1.66147
  168 67.1437 1.69341 1.71702
  169 124.200 0.246005 2.23216
  170 180.146 1.23691 2.11874
  171 222.569 2.46319 1.47416
  172 273.476 2.96229 0.643296
  173 322.229 0.361297 1.18800
  174 371.334 -1.16924 1.01594
  175 416.960 -0.575249 1.29841
  176 468.659 -3.33571 1.56178
  177 518.218 -0.690186 1.65062
  178 557.636 0.705705 0.773944
  179 165.334 26.7018 -11.6736
  180 165.217 26.7685 11.7447
  181 -0.349101 6.10011 41.8188
  182 -0.532030 6.04157 -41.8583
  183 366.888 -4.47551 -87.1565
  184 366.536 -5.13570 87.9878
  185 76.8678 20.4916 -10.5018
  186 75.9739 20.7705 10.4980
  187 60.1050 7.77695 -4.46730
  188 60.2126 7.76545 4.46094
  189 344.582 4.09076 -13.8114
  190 344.659 4.07886 13.8269
  191 -0.310750 13.3194 21.2416
  192 -0.466918 13.3517 -21.2826
  193 399.804 7.90719 -33.5327
  194 399.986 7.80026 33.5933
  195 -14.8581 -12.7752 35.0463
  196 -14.8594 -12.8561 -35.1001
  197 4.68861 -28.8356 -39.6245
  198 129.752 14.4520 -83.9207
  199 5.50883 -30.9753 38.5443
  200 127.758 15.3867 85.0366
  201 563.363 -69.7174 -125.054
  202 581.827 -72.4160 120.483
  203 208.459 4.47356 -3.50101
  204 208.447 4.47583 3.50509
  205 -23.8529 1.33639 -3.67576
  206 -23.7011 1.33495 3.67036
  207 -41.5518 7.01548 32.4086
  208 -41.6879 7.02631 -32.4794
  209 209.779 16.5690 -9.24352
  210 209.759 16.5797 9.26991
  211 67.3359 27.1023 11.1032
  212 67.0691 27.2563 -11.1884
  213 -50.9790 5.59353 -12.2482
  214 -50.8141 5.58326 12.2263
  215 451.654 -1.25184 6.26527
  216 451.514 -1.24797 -6.26032
  217 16.0889 -53.5012 13.0500
  218 17.4640 -47.7987 -10.7690
  219 -3.81481 -36.4560 39.1235
  220 -3.94404 -38.0051 -37.9415
  221 195.053 27.3404 -38.9882
  222 194.840 27.4840 39.2864
  223 -39.0297 0.205330 33.6861
  224 -39.1069 0.197440 -33.7444
  225 483.050 0.881726 -17.7266
  226 483.214 0.850916 17.7269
  227 522.083 -9.16478 -35.5661
  228 522.514 -9.64426 35.4997
  229 839.853 61.1602 1.68761
  230 771.111 89.2286 30.5640
  231 752.952 2.18392 -52.6202
  232 99.5413 19.4095 4.72613
  233 99.4303 19.4472 -4.72405
  234 10.9516 17.3618 30.7160
  235 10.7702 17.4109 -30.7850
  236 583.466 -35.0601 -27.1240
  237 580.190 -35.4527 29.0765
  238 326.045 0.399750 -5.29088
  239 326.107 0.397971 5.29560
  240 -67.3920 4.90171 21.1598
  241 -67.5475 4.91274 -21.2020
  242 -9.75221 -9.57433 -16.0644
  243 -9.74104 -9.56548 16.0712
  244 -71.8183 1.28431 5.82871
  245 -71.9970 1.28689 -5.83862
  246 271.690 17.7130 -24.3929
  247 271.722 17.6964 24.4705
  248 343.509 8.64973 -50.7396
  249 343.729 8.51836 50.9425
  250 89.5931 3.54736 0.700792
  251 89.6769 3.54420 -0.701635
  252 201.813 15.7004 -172.462
  253 237.340 20.2867 186.347
  254 29.9176 14.3485 28.0134
  255 29.7951 14.6167 -28.1704
  256 785.432 -48.0400 -29.4270
  257 75.4472 25.6961 9.73662
  258 75.2851 25.7656 -9.74932
  259 198.828 22.8402 -68.4240
  260 198.418 23.3349 69.0250
  261 883.447 131.628 8.65854
  262 523.771 -1.42997 23.9607
  263 523.541 -1.29557 -23.9975
  264 -4.59941 -28.9293 -24.9156
  265 -4.44844 -29.0385 25.0090
  266 -0.813324 -67.7048 -33.4765
  267 2.79882 -77.1837 -29.4271
  268 1.58590 -78.0451 31.4205
  269 -11.9387 -10.1921 44.2264
  270 -11.9994 -10.1859 -44.4276
  271 30.4309 -53.9211 -18.8838
  272 32.8366 -48.7092 24.0832
  273 -29.9236 -2.40213 21.8360
  274 -29.9472 -2.41420 -21.8606
  275 377.331 7.95020 -21.3293
  276 377.445 7.91250 21.3546
  277 654.375 -63.7119 -13.7445
  278 152.274 10.3888 2.24692
  279 152.325 10.3788 -2.24163
  280 -1.51242 -63.6681 32.0907
  281 20.8029 12.5710 12.5895
  282 20.6632 12.5963 -12.6106
  283 1028.68 69.7207 -33.2704
  284 506.002 -1.17861 7.53909
  285 505.828 -1.17174 -7.53505
  286 349.442 -13.0697 -129.449
  287 352.213 -12.8235 131.184
  288 653.630 -60.5723 3.25730
  289 -60.0704 2.02514 26.3983
  290 -60.1680 2.02406 -26.4478
  291 636.073 -37.1907 207.622
  292 -25.1438 5.26083 39.5297
  293 -25.2633 5.24892 -39.6150
  294 114.878 31.2780 -15.0113
  295 114.425 31.5589 15.1023
  296 -104.514 0.458196 0.914551
  297 -104.716 0.457845 -0.916291
  298 537.772 29.3117 -279.235
  299 -101.135 1.91301 -11.1080
  300 -100.955 1.90854 11.0864
  301 -1.55303 -11.3344 44.1636
  302 0.162403 -10.8950 -43.5380
  303 244.827 22.9887 -34.8405
  304 244.806 23.0054 35.0182
  305 59.9677 4.66111 3.39141
  306 59.8641 4.66676 -3.39621
  307 253.219 7.07965 -8.15960
  308 253.234 7.07979 8.17032
  309 25.8196 -12.7805 19.0366
  310 23.5667 -16.1791 -19.4506
  311 245.847 1.83730 -2.27808
  312 245.859 1.83826 2.28012
  313 -84.6122 2.23715 19.0866
  314 -84.7423 2.24009 -19.1249
  315 64.3781 0.718586 -22.5391
  316 62.5808 0.608086 20.8721
  317 525.819 -1.68870 2.12098
  318 525.631 -1.68689 -2.11862
  319 1135.50 63.2744 49.3474
  320 127.879 14.3493 -0.00483814
  321 127.804 14.3684 0.0114152
  322 -17.8666 4.95281 7.78204
  323 -18.0164 4.96165 -7.79593
  324 172.939 20.7575 -8.43160
  325 172.874 20.7859 8.47146
  326 23.5219 18.5273 31.4659
  327 23.3726 18.5599 -31.5765
  328 2.72638 -112.610 21.1399
  329 -109.113 -0.180875 -2.28145
  330 -108.910 -0.180455 2.27761
  331 406.450 -1.13105 -4.12485
  332 406.562 -1.13289 4.12823
  333 427.756 0.670346 -10.9283
  334 427.883 0.659891 10.9356
  335 -102.857 1.48408 -7.77427
  336 -102.665 1.48125 7.76113
  337 6.81871 0.905112 0.535017
  338 6.68549 0.905582 -0.536629
  339 -2.33560 -47.8069 24.7441
  340 -1.84269 -49.7317 -24.7068
  341 485.834 -38.3215 -88.4864
  342 503.733 -45.9285 87.0216
  343 291.492 11.4089 -15.3542
  344 291.535 11.3988 15.3805
  345 132.984 29.6052 -10.3671
  346 132.743 29.7467 10.4389
  347 -38.3803 8.06883 17.8420
  348 -38.5390 8.08673 -17.8768
  349 883.275 35.3895 40.9269
  350 50.8233 -52.6375 -62.9574
  351 54.3468 -47.2304 65.3977
  352 -14.3256 13.7811 29.4492
  353 -14.4868 13.8121 -29.5130
  354 -23.5487 -4.30000 39.4528
  355 -23.6202 -4.31564 -39.5340
  356 1003.73 177.978 -64.0678
  357 659.545 -4.60326 71.1322
  358 605.890 -15.2548 -17.3088
  359 605.561 -14.8973 16.4804
  360 431.371 -6.24342 -56.7107
  361 430.835 -6.60692 56.7649
  362 0.873358 -135.692 -16.6791
  363 552.118 -0.0394172 -13.2799
  364 552.312 -0.0758476 13.2594
  365 7.68691 -125.535 11.3490
  366 662.131 52.6922 -34.4574
  367 165.275 3.19871 1.17463
  368 165.238 3.20116 -1.17546
  369 432.759 1.13285 -42.0511
  370 433.022 0.963407 42.1326
  371 462.654 1.54749 -25.1339
  372 462.829 1.47173 25.1365
  373 -0.436620 4.04354 4.83379
  374 -0.575737 4.04913 -4.84212
  375 273.254 15.0979 -68.8457
  376 273.262 15.2829 69.3713
  377 541.443 -1.41958 3.45200
  378 541.246 -1.41719 -3.44861
  379 316.850 14.9223 -35.4702
  380 316.948 14.8570 35.5911
  381 361.566 3.03449 9.25941
  382 361.482 3.03860 -9.25139
  383 -17.1092 -3.00753 13.6243
  384 -17.1110 -3.01617 -13.6269
  385 -4.11847 -2.91294 -4.06327
  386 -4.12006 -2.91393 4.06925
  387 725.709 -81.1285 63.3866
  388 -9.04768 -22.1055 36.4253
  389 -8.98061 -22.3100 -36.4393
  390 126.932 5.75721 -0.264805
  391 126.995 5.75140 0.264844
  392 -3.56948 -18.1786 13.7029
  393 -3.61185 -18.1532 -13.7067
  394 52.5369 20.0084 13.1423
  395 52.3924 20.0539 -13.1622
  396 592.808 -3.84803 17.7529
  397 592.531 -3.65585 -17.9807
  398 -0.683558 -33.1629 42.6532
  399 -48.4369 -0.771165 20.4917
  400 -48.4824 -0.776246 -20.5225
  401 -0.871516 -35.1552 -42.1810
  402 554.593 -1.00399 8.48202
  403 554.391 -0.993217 -8.48357
  404 -1.70627 13.3424 37.6027
  405 -1.91278 13.3756 -37.7010
  406 415.962 3.70404 -17.1569
  407 416.087 3.68073 17.1676
  408 636.726 -26.9467 -8.99878
  409 637.957 -22.0377 6.30311
  410 -1.16761 -64.8970 -26.9625
  411 62.1486 23.8737 -5.77306
  412 62.6470 23.6516 5.67802
  413 653.854 42.0134 21.0177
  414 367.443 -12.2321 -177.025
  415 376.528 -18.7713 184.674
  416 27.1987 19.5688 22.4151
  417 27.0323 19.6195 -22.4598
  418 271.351 4.67709 -5.58804
  419 271.379 4.67776 5.59383
  420 263.674 68.0161 278.894
  421 114.207 24.0911 -1.58047
  422 114.335 24.0335 1.59582
  423 7.60096 -57.4378 26.4435
  424 -0.762849 -104.938 -22.9797
  425 47.9759 24.5717 19.7579
  426 47.7877 24.6445 -19.8129
  427 59.9334 12.7079 -7.24043
  428 60.0497 12.6866 7.23145
  429 -16.1521 0.131275 -43.7115
  430 -16.0338 0.105324 43.6230
  431 134.910 27.5006 -32.2786
  432 134.329 27.8736 32.5108
  433 644.849 -18.7409 -54.5088
  434 20.6634 -2.94487 30.6323
  435 20.0430 -2.83212 -30.8761
  436 470.281 -20.5350 -62.5993
  437 472.076 -21.8600 62.5694
  438 -112.483 0.796667 -11.2161
  439 -112.315 0.793879 11.1935
  440 -0.00851097 -103.608 20.8315
  441 -0.694562 -66.0683 24.0561
  442 -45.2423 3.31399 33.6899
  443 -45.3437 3.31012 -33.7548
  444 337.293 0.228422 -2.04799
  445 337.361 0.227962 2.04986
  446 -9.78280 -15.4785 25.0761
  447 -9.80330 -15.5183 -25.0558
  448 216.253 15.1723 -99.1638
  449 215.772 16.0533 100.104
  450 1.81189 -123.096 -21.8547
  451 1132.85 36.8878 0.229721
  452 3.47632 -141.596 -10.2274
  453 -129.816 -0.370101 -3.66612
  454 -129.603 -0.370014 3.66048
  455 -48.6162 7.42549 26.4659
  456 -48.7667 7.44095 -26.5220
  457 -60.6453 0.920943 20.4428
  458 -60.7124 0.920029 -20.4761
  459 235.063 21.7740 -24.8292
  460 235.046 21.7953 24.9363
  461 349.410 11.1212 -27.3810
  462 349.522 11.0649 27.4383
  463 -4.84885 -19.7499 44.2979
  464 -4.85650 -19.6183 -44.4890
  465 612.535 14.1789 -68.4558
  466 44.4697 -4.52834 0.0684024
  467 42.9046 -4.91662 0.746912
  468 10.3905 -122.635 -7.03399
  469 6.88617 -144.396 2.12008
  470 -17.8881 -7.86148 25.7660
  471 -17.9013 -7.89236 -25.7825
  472 133.047 12.9349 -151.307
  473 900.234 24.6993 -108.106
  474 214.367 10.9651 8.50924
  475 214.379 10.9600 -8.49323
  476 309.329 4.72522 -94.1788
  477 309.886 4.64146 95.4219
  478 95.1649 30.8958 3.83611
  479 94.9679 31.0038 -3.83870
  480 279.837 19.4973 -51.5361
  481 279.896 19.4297 51.8513
  482 12.8325 7.52708 37.7502
  483 13.4528 7.83893 -37.7028
  484 -116.022 1.51789 -7.86588
  485 -115.828 1.51554 7.85158
  486 600.470 -66.9588 -53.9227
  487 473.224 -1.63254 -2.84958
  488 473.378 -1.63427 2.85215
  489 34.1924 1.89883 -1.58881
  490 34.3095 1.89668 1.58551
  491 -25.3949 10.7955 23.9160
  492 -25.5528 10.8207 -23.9642
  493 -61.8112 3.58051 -7.95535
  494 -61.6395 3.57465 7.94108
  495 214.618 18.0273 -12.7498
  496 214.597 18.0382 12.7907
  497 -21.1960 9.89950 34.9347
  498 -21.3502 9.91948 -35.0179
  499 549.098 -16.6954 -33.9614
  500 550.052 -17.4110 33.6565
  501 366.458 2.95362 -63.1317
  502 365.861 2.75811 63.6267
  503 141.828 4.05905 0.0517299
  504 141.881 4.05566 -0.0519124
  505 1.95913 -61.9264 -35.6314
  506 646.565 -21.4857 44.3823
  507 10.1493 -38.2692 -30.3662
  508 190.469 28.7759 26.4328
  509 190.620 28.6753 -26.2645
  510 593.998 -62.6345 53.4623
  511 48.9422 -36.8578 83.4819
  512 702.194 -79.0401 -102.414
  513 481.681 -0.192541 30.3648
  514 481.444 -0.0373683 -30.3571
  515 1.96944 -52.6320 37.0985
  516 -9.48041 -2.78699 -7.36454
  517 -9.48354 -2.78499 7.36896
  518 67.5912 1.39938 -0.258424
  519 67.6875 1.39824 0.257437
  520 -1.58136 -37.2734 16.0247
  521 -1.43457 -37.1055 -16.1125
  522 397.389 1.52679 7.08322
  523 397.283 1.52901 -7.07762
  524 1095.66 206.286 99.2599
  525 49.8824 -19.6951 -22.4515
  526 39.0822 -29.6024 14.3010
  527 -3.83274 7.58733 -10.6553
  528 -3.68728 7.57226 10.6366
  529 -94.7672 1.48066 12.1026
  530 -94.8767 1.48226 -12.1250
  531 1.02339 -116.037 22.1517
  532 -126.261 0.822979 0.773746
  533 -126.476 0.822956 -0.775649
  534 129.021 4.89653 -113.290
  535 126.371 6.66542 117.245
  536 118.798 24.0290 -43.5337
  537 117.927 24.5020 43.7280
  538 -25.0723 -4.94537 34.7876
  539 -25.1201 -4.97023 -34.8473
  540 118.471 7.99540 -0.0288820
  541 118.399 8.00419 0.0294543
  542 -48.1734 1.82950 2.87139
  543 -48.3396 1.83138 -2.87752
  544 137.904 17.3242 -1.48269
  545 137.825 17.3515 1.49754
  546 -2.58836 -8.58478 6.31673
  547 -2.59768 -8.57826 -6.31587
  548 52.0818 22.5810 16.3077
  549 51.7442 22.8653 -16.4475
  550 42.0629 9.99250 13.3526
  551 41.5000 9.94944 -13.7175
  552 484.470 1.37963 12.7063
  553 484.309 1.39209 -12.7015
  554 431.875 3.26685 20.7137
  555 431.733 3.30814 -20.7035
  556 -0.434617 -100.328 -14.5736
  557 307.385 12.5580 -21.7103
  558 307.447 12.5352 21.7549
  559 307.251 4.29902 -8.73231
  560 307.302 4.29536 8.74224
  561 -31.6578 0.488435 0.322569
  562 -31.5011 0.488618 -0.323195
  563 547.221 27.7160 -13.1609
  564 675.096 -79.0365 -43.2929
  565 576.761 28.2225 50.8198
  566 5.21867 -80.7798 -24.4611
  567 -23.0101 8.79327 -14.9210
  568 -22.8553 8.77561 14.8941
  569 5.73808 -46.0259 34.0560
  570 -28.1400 1.42496 39.1494
  571 -28.2354 1.41670 -39.2218
  572 866.467 82.9492 9.67594
  573 204.051 6.65130 -4.63383
  574 204.035 6.65474 4.64015
  575 1268.05 110.546 -117.920
  576 -4.43255 -3.30581 44.8486
  577 -3.94035 -2.94942 -44.8620
  578 713.130 -56.7077 16.2332
  579 570.230 -0.764337 -14.6613
  580 570.430 -0.827771 14.6123
  581 272.826 5.26377 -135.226
  582 275.811 4.37231 137.053
  583 -13.8832 -13.2171 40.0983
  584 -13.9011 -13.2927 -40.2173
  585 146.257 17.8940 76.0638
  586 147.450 16.9062 -75.5688
  587 -109.831 1.21690 -11.1160
  588 -109.679 1.21486 11.0939
  589 839.589 83.9664 28.5876
  590 168.523 12.6422 3.90586
  591 168.567 12.6303 -3.89520
  592 197.854 24.9260 -53.2725
  593 197.548 25.2135 53.7218
  594 520.250 -3.03693 -29.4604
  595 520.558 -3.26168 29.4403
  596 -2.00245 -50.9473 -35.8527
  597 558.887 -1.54204 4.45602
  598 558.678 -1.53895 -4.45269
  599 -73.0664 0.938224 -0.881949
  600 -72.8845 0.937952 0.879146
  601 -135.701 -1.29219 -0.0916538
  602 -135.923 -1.29356 0.0912304
  603 13.4241 -70.9215 -7.60824
  604 -5.03275 -33.5175 31.2426
  605 -5.30810 -31.6496 -31.4476
  606 -61.5836 4.02822 27.8315
  607 -61.7034 4.03256 -27.8868
  608 399.360 7.11061 26.4610
  609 399.221 7.17368 -26.4322
  610 296.468 1.05486 1.99363
  611 296.425 1.05434 -1.99205
  612 70.9234 -8.15236 51.5332
  613 72.9541 -6.71076 -51.1351
  614 -1.98274 -26.0611 13.5935
  615 -2.04826 -25.9830 -13.6422
  616 668.354 74.4862 299.305
  617 -33.5600 -0.969297 12.5222
  618 -33.5677 -0.974329 -12.5347
  619 13.6089 -42.2812 -23.0042
  620 290.957 8.58864 -11.8828
  621 290.997 8.58359 11.8995
  622 147.377 30.1590 -21.7128
  623 147.070 30.3492 21.8688
  624 1.38395 -170.825 6.86741
  625 112.257 28.3619 0.207870
  626 112.103 28.4429 -0.189276
  627 -4.68058 11.2486 18.0420
  628 -4.83282 11.2736 -18.0749
  629 -0.794108 -87.9941 19.8594
  630 -137.571 -0.0841912 -3.72585
  631 -137.355 -0.0843727 3.71982
  632 195.095 2.50683 1.98405
  633 195.115 2.50511 -1.98218
  634 472.138 -0.662582 8.59655
  635 471.985 -0.656493 -8.59075
  636 422.722 -17.3766 229.428
  637 341.038 5.67636 -16.8596
  638 341.117 5.65771 16.8811
  639 7.69820 -4.38253 40.3025
  640 9.07654 -1.48511 -40.0736
  641 539.642 -43.4308 -187.182
  642 1228.68 40.9899 -48.9223
  643 -128.999 -0.0117635 -7.51460
  644 -128.815 -0.0129608 7.50044
  645 40.5750 5.69613 -4.09483
  646 40.6912 5.68830 4.08823
  647 -2.30913 -54.5834 31.9170
  648 734.131 50.1452 -57.9665
  649 552.243 -1.78476 0.830413
  650 552.039 -1.78315 -0.829310
  651 -35.2171 -1.70955 -28.7422
  652 -35.1693 -1.69907 28.6988
  653 -0.126707 -124.162 -18.6664
  654 561.464 -1.67439 1.72788
  655 561.254 -1.67278 -1.72575
  656 59.8139 16.9300 10.7449
  657 59.6844 16.9639 -10.7579
  658 440.500 -34.3634 -124.553
  659 447.841 -34.1427 125.763
  660 628.664 -4.83083 10.5765
  661 628.597 -4.79930 -10.9170
  662 2.85611 -154.227 13.5634
  663 -25.4343 0.122954 -1.59132
  664 -25.2815 0.122975 1.58826
  665 211.240 53.5410 -221.135
  666 202.525 1.93483 1.98245
  667 202.539 1.93328 -1.98115
  668 104.622 5.17467 -0.646192
  669 104.546 5.17975 0.645610
  670 122.455 10.6111 1.16910
  671 122.527 10.5982 -1.16546
  672 376.463 8.31438 -40.9911
  673 376.659 8.18914 41.1024
  674 105.193 29.6494 -5.30440
  675 104.867 29.8528 5.31994
  676 -61.0126 4.54704 -14.6215
  677 -60.8461 4.53609 14.5942
  678 -72.9058 5.09669 -17.1063
  679 -72.7415 5.08624 17.0725
  680 648.632 -10.2746 0.295095
  681 1.94527 -23.6352 -42.1666
  682 649.097 -10.7724 -1.04106
  683 836.385 63.6608 -6.90113
  684 -80.6086 0.411285 13.8607
  685 -80.6934 0.410492 -13.8856
  686 91.6680 27.4082 -12.0918
  687 91.0235 27.7020 12.1228
  688 -147.323 -0.103569 -1.10851
  689 -147.096 -0.103305 1.10593
  690 2.57274 -20.9774 42.0889
  691 -49.5627 0.912408 29.8123
  692 -49.6478 0.907887 -29.8652
  693 714.390 -52.6393 -18.7860
  694 121.605 0.836177 -1.29836
  695 121.541 0.837140 1.29874
  696 34.0275 9.24429 7.65831
  697 33.9023 9.25948 -7.66948
  698 385.833 -15.4152 -105.093
  699 388.449 -16.0330 106.920
  700 1279.74 92.7007 106.271
  701 27.6433 -97.7971 -51.8158
  702 -8.65571 -18.7076 42.6221
  703 -8.65689 -18.7936 -42.7355
  704 87.6795 16.3122 -4.22941
  705 87.7849 16.2851 4.22788
  706 577.269 -1.49105 -4.49823
  707 577.490 -1.49475 4.49999
  708 284.057 2.07246 4.00864
  709 284.021 2.07262 -4.00472
  710 28.1573 21.2367 27.5462
  711 27.9782 21.2971 -27.6197
  712 23.1763 3.90267 2.83459
  713 23.0520 3.90684 -2.83965
  714 -13.9691 4.99711 42.3376
  715 -14.1021 4.98415 -42.4435
  716 478.285 -2.20721 3.70398
  717 478.128 -2.20439 -3.70050
  718 417.123 1.23537 9.94168
  719 417.005 1.24101 -9.93435
  720 60.4511 -23.3947 60.5635
  721 61.9960 -26.0233 -58.8146
  722 -29.2757 7.43316 36.8797
  723 -29.4107 7.43724 -36.9636
  724 19.3259 -33.5675 16.4999
  725 4.92958 13.7053 37.6043
  726 4.71445 13.7308 -37.6791
  727 -85.6051 2.23365 -9.49070
  728 -85.4243 2.22895 9.47280
  729 79.9718 22.6361 8.89817
  730 79.8275 22.6905 -8.90387
  731 646.413 -18.7444 -29.4021
  732 611.509 -51.6110 -22.0707
  733 -9.52872 -19.5834 30.8039
  734 -9.52051 -19.6833 -30.7722
  735 245.178 8.41850 -159.286
  736 239.169 13.2570 160.450
  737 151.996 28.8544 -30.3577
  738 151.592 29.1273 30.5955
  739 14.5103 -19.1663 31.6463
  740 -0.815706 -65.6718 -17.4667
  741 308.738 14.8234 -39.6545
  742 308.847 14.7627 39.8273
  743 0.722276 -127.980 15.8874
  744 187.661 23.2391 -14.1890
  745 187.594 23.2744 14.2545
  746 607.899 -1.40976 -11.0528
  747 608.070 -1.47586 10.9462
  748 13.0189 -159.338 8.90909
  749 284.678 18.6177 30.6754
  750 284.626 18.6434 -30.5668
  751 81.0789 28.3820 -1.37541
  752 81.4950 28.1179 1.31173
  753 -109.043 0.711544 -9.49630
  754 -108.912 0.710852 9.47704
  755 312.727 2.62902 -7.41691
  756 312.781 2.62707 7.42392
  757 198.022 26.3178 -22.6633
  758 197.926 26.3781 22.7875
  759 6.51469 16.7185 28.2113
  760 6.34496 16.7629 -28.2714
  761 613.261 -44.3375 14.4262
  762 -87.6759 1.58064 7.10672
  763 -87.8624 1.58314 -7.11785
  764 1278.05 272.489 -193.237
  765 -27.8506 2.77996 6.95281
  766 -28.0050 2.78491 -6.96399
  767 518.804 -0.381545 20.7854
  768 518.609 -0.307013 -20.8097
  769 963.400 57.0099 -1.30694
  770 582.259 -2.45074 -8.34020
  771 582.474 -2.46322 8.33370
  772 379.746 2.89835 12.7422
  773 379.649 2.90753 -12.7317
  774 565.137 -54.7381 170.957
  775 251.992 15.5073 -13.2869
  776 252.006 15.5071 13.3196
  777 6.23721 -91.0064 16.3979
  778 646.649 -75.2324 62.5464
  779 394.181 -1.40298 2.11881
  780 394.077 -1.40168 -2.11713
  781 510.081 -1.27196 1.11706
  782 509.904 -1.27062 -1.11583
  783 -2.14095 -51.0799 -29.9695
  784 3.51534 -84.2368 27.0932
  785 240.282 25.2396 42.6002
  786 240.331 25.2006 -42.3333
  787 1259.76 10.3809 11.9277
  788 404.850 1.69850 -50.4391
  789 405.095 1.54952 50.5792
  790 -79.1591 2.62424 20.4913
  791 -79.3061 2.63066 -20.5314
  792 18.7229 -62.7877 0.358616
  793 11.9143 -146.886 -16.9981
  794 909.372 120.188 -27.8008
  795 -0.757038 -65.5521 15.7823
  796 22.3666 15.1107 32.5827
  797 22.2887 15.0948 -32.7866
  798 129.737 22.7113 -1.12090
  799 129.636 22.7565 1.14087
  800 607.025 -28.2582 -13.6046
  801 608.618 -27.7966 11.9251
  802 700.303 141.614 -284.198
  803 -89.7303 0.524962 -2.78857
  804 -89.5401 0.524231 2.78267
  805 -45.9594 -0.140621 11.7313
  806 -45.9796 -0.142883 -11.7466
  807 48.1867 8.00576 4.61497
  808 47.2006 7.97119 -4.75095
  809 464.308 -4.26703 45.1825
  810 463.988 -3.93729 -45.0403
  811 241.381 3.61840 -2.98567
  812 241.389 3.61978 2.98909
  813 743.884 -1.98125 52.0011
  814 86.6315 10.9329 -3.91844
  815 86.7287 10.9168 3.91544
  816 78.3947 14.8453 -20.0439
  817 77.7147 15.1649 20.1823
  818 0.375011 -48.7729 -39.0647
  819 1027.64 187.695 167.363
  820 -145.799 0.0383151 -3.79548
  821 -145.583 0.0382103 3.78871
  822 -0.202950 -154.494 14.4892
  823 13.0158 -19.0297 -32.1748
  824 -23.0465 -1.36011 8.83789
  825 -23.0404 -1.36399 -8.84232
  826 835.555 61.4134 -27.7862
  827 226.281 19.6587 -16.8244
  828 226.263 19.6714 16.8882
  829 574.574 -9.82730 -22.9445
  830 575.161 -9.88481 22.7085
  831 -140.297 0.935900 5.24415
  832 -140.499 0.937440 -5.25407
  833 -1.07469 -1.10810 -0.940951
  834 -1.07687 -1.11002 0.944668
  835 0.394197 -157.812 -13.9731
  836 0.724567 -163.446 -11.7443
  837 -151.030 1.30229 0.641544
  838 -151.262 1.30267 -0.642586
  839 93.5278 -7.76607 -109.481
  840 360.173 1.70522 -4.04018
  841 360.256 1.70474 4.04367
  842 -2.05843 1.65257 0.850290
  843 -2.19701 1.65325 -0.851365
  844 526.939 -0.173659 -13.6559
  845 527.125 -0.197950 13.6496
  846 -60.2390 0.410414 11.1039
  847 -60.2779 0.410369 -11.1201
  848 327.363 20.5673 -234.005
  849 556.886 -46.2790 51.5671
  850 434.535 -0.278503 -4.62219
  851 434.664 -0.280473 4.62614
  852 552.288 -50.1329 -56.9998
  853 179.518 17.0788 -7.54656
  854 179.470 17.0963 7.57467
  855 244.052 12.9897 -10.5083
  856 244.060 12.9914 10.5299
  857 645.596 -13.3883 22.5634
  858 44.9380 24.3053 21.2607
  859 44.7390 24.3904 -21.3524
  860 49.8313 1.21813 1.12265
  861 49.7239 1.21937 -1.12485
  862 308.543 1.18583 3.55463
  863 308.492 1.18600 -3.55154
  864 786.121 -56.9728 103.088
  865 496.549 0.843692 -18.1640
  866 496.727 0.799064 18.1555
  867 15.7082 6.32096 5.96983
  868 15.5765 6.33025 -5.97964
  869 495.780 -2.17682 5.25218
  870 495.612 -2.17328 -5.24766
  871 -83.2886 -0.0994313 -2.23417
  872 -83.0996 -0.0986946 2.23223
  873 -0.395774 -50.3503 14.1461
  874 -0.531984 -51.1342 -14.2457
  875 609.487 -6.34188 56.5541
  876 -32.2224 9.37791 30.4431
  877 -32.3729 9.39799 -30.5097
  878 -0.180371 -82.5027 -15.4829
  879 243.717 6.14899 -5.64555
  880 243.726 6.15101 5.65210
  881 442.338 -21.5329 -80.7272
  882 445.513 -23.7869 81.4730
  883 -17.3952 -5.61466 -42.6848
  884 -17.3041 -5.60857 42.5781
  885 29.4444 20.9008 25.0498
  886 29.2681 20.9588 -25.1052
  887 2.04112 -183.109 9.14017
  888 10.3704 17.0818 33.8375
  889 10.1826 17.1205 -33.9129
  890 409.394 -7.60999 -71.9830
  891 408.444 -7.84984 72.5384
  892 705.521 44.7345 61.5174
  893 167.812 15.7157 5.06768
  894 167.863 15.6996 -5.05043
  895 508.088 1.27498 -13.4886
  896 508.263 1.25764 13.4894
  897 -19.1764 -8.04754 37.9133
  898 -19.2212 -8.08396 -37.9928
  899 1.92036 -185.749 -4.57155
  900 -29.5516 -1.56183 36.9628
  901 -29.6233 -1.57050 -37.0292
  902 25.9462 18.2700 -19.1599
  903 26.1017 18.2262 19.1240
  904 -1.55262 -12.8500 7.06971
  905 -1.57078 -12.8384 -7.08075
  906 50.2984 20.6216 -16.2057
  907 50.4578 20.5671 16.1780
  908 11.4806 -11.9725 36.6555
  909 10.1638 -11.1034 -38.9012
  910 499.064 -15.3549 46.4595
  911 497.949 -14.7471 -46.6128
  912 -154.808 0.250520 -0.943681
  913 -154.575 0.250611 0.941991
  914 -14.2678 -1.24751 6.69754
  915 -14.2566 -1.24997 -6.69660
  916 0.645317 -116.905 -13.9829
  917 -14.9738 -6.33537 -18.9087
  918 -14.9648 -6.31790 18.9063
  919 -60.3126 5.38355 26.3347
  920 -60.4519 5.39365 -26.3894
  921 162.426 29.1354 -15.3372
  922 162.274 29.2386 15.4289
  923 679.417 51.5350 -6.80173
  924 -2.04259 14.6324 25.5940
  925 -2.20430 14.6682 -25.6458
  926 252.779 16.9601 -77.2967
  927 252.721 17.1850 78.0135
  928 -23.2474 9.90355 20.4953
  929 -23.4042 9.92760 -20.5361
  930 792.604 -26.4250 1.84831
  931 511.490 20.4685 26.9385
  932 593.033 -5.58987 -51.1171
  933 436.685 3.40477 -30.5955
  934 436.874 3.30020 30.6224
  935 -38.6355 5.46008 -9.31530
  936 -38.4758 5.45033 9.29790
  937 -99.0548 1.68616 12.7812
  938 -99.2248 1.69061 -12.8071
  939 -6.09785 -19.9568 -21.8980
  940 -6.05041 -19.9673 21.9328
  941 161.588 7.74615 3.10677
  942 161.631 7.73939 -3.10256
  943 -45.8255 5.27031 33.1571
  944 -45.9442 5.27139 -33.2262
  945 516.229 -1.72963 6.75362
  946 516.049 -1.72559 -6.74856
  947 -3.68533 -43.3368 32.6310
  948 26.1119 16.4647 -16.1593
  949 26.2588 16.4292 16.1315
  950 34.4006 10.7771 9.87734
  951 34.2709 10.7972 -9.89224
  952 97.9576 6.52902 -1.09695
  953 98.0393 6.52177 1.09506
  954 965.447 142.469 -47.8390
  955 -4.00308 -1.06415 -2.71011
  956 -4.01153 -1.06387 2.71484
  957 37.4214 12.5861 -19.3408
  958 38.0277 12.3336 19.2047
  959 355.872 11.6061 -33.2169
  960 356.006 11.5279 33.2979
  961 52.4574 13.8184 -8.93487
  962 52.5822 13.7931 8.92269
  963 99.4575 8.48216 141.364
  964 653.081 -5.20460 -6.42297
  965 652.461 -5.01925 5.89249
  966 123.065 5.55358 125.769
  967 130.795 3.21271 -1.32141
  968 130.737 3.21542 1.32172
  969 326.596 -0.468689 -202.977
  970 246.989 1.52695 1.85501
  971 246.976 1.52583 -1.85368
  972 33.4011 -24.6880 0.147189
  973 36.8973 -19.6370 2.62322
  974 575.666 -1.11857 2.30081
  975 575.446 -1.11724 -2.29823
  976 -46.9807 0.302754 27.3401
  977 -47.0449 0.298685 -27.3833
  978 1035.84 132.217 69.8173
  979 -3.79722 -31.3894 -42.3131
  980 6.34891 -144.728 25.2386
  981 -0.315257 -50.3638 38.7833
  982 596.401 -1.21196 -8.50712
  983 596.610 -1.23011 8.48845
  984 -7.84755 -14.4439 18.9778
  985 -7.87161 -14.4490 -18.9631
  986 762.106 82.8997 -28.0497
  987 1275.63 9.33295 -7.89129
  988 -1.96775 -3.06703 -2.94958
  989 -1.96540 -3.07343 2.95381
  990 354.130 1.42735 -7.42377
  991 354.210 1.42511 7.42992
  992 -3.83518 -30.0585 42.4644
  993 488.420 0.0798253 26.9167
  994 488.217 0.190434 -26.9236
  995 642.811 -40.8521 -18.7378
  996 -22.1679 -4.49656 21.2773
  997 -22.1814 -4.51489 -21.2926
  998 12.0505 -37.0999 27.3392
  999 -0.824500 -77.1363 30.4733
  1000 -0.100509 -81.9157 15.4832
  1001 677.574 41.8945 -4.24982
  1002 763.063 84.2545 12.5307
  1003 541.695 -58.2857 -97.1334
  1004 8.58700 -71.7933 21.5836
  1005 10.6832 -101.645 0.791085
  1006 157.264 1.44325 0.0860101
  1007 157.222 1.44459 -0.0861595
  1008 -5.95691 -6.80341 -9.16532
  1009 -5.95084 -6.80341 9.17146
  1010 5.94356 -59.0577 -30.5336
  1011 433.742 -1.64078 -1.70006
  1012 433.871 -1.64236 1.70160
  1013 92.5273 6.91049 -51.3101
  1014 88.6618 7.11146 50.8373
  1015 -3.96497 13.9868 34.7120
  1016 -4.14483 14.0214 -34.7979
  1017 -46.0330 7.56589 -21.3231
  1018 -45.8748 7.54886 21.2807
  1019 338.642 5.28912 -74.3352
  1020 338.746 5.62719 75.0653
  1021 246.329 21.0014 -54.1053
  1022 246.248 21.0211 54.5238
  1023 265.399 16.3128 -19.5418
  1024 265.424 16.3032 19.5928
  1025 677.479 -14.0892 -63.2627
  1026 -14.5726 8.91692 38.9918
  1027 -14.7311 8.92347 -39.0996
  1028 478.067 -2.53309 37.1393
  1029 477.790 -2.28739 -37.0999
  1030 -2.05913 -22.7489 43.8461
  1031 -38.0865 -1.15559 20.4012
  1032 -38.1151 -1.16247 -20.4275
  1033 436.761 1.70333 -37.1261
  1034 436.986 1.55310 37.1737
  1035 558.328 15.2614 -45.8913
  1036 -0.351504 -76.4617 -31.9200
  1037 -5.94542 -29.9812 38.5492
  1038 -6.21003 -30.3836 -38.2439
  1039 311.953 15.5204 -28.2938
  1040 312.032 15.4781 28.3762
  1041 388.555 4.52416 15.6628
  1042 388.449 4.53964 -15.6500
  1043 641.513 -39.9180 15.8776
  1044 40.5180 1.63222 -0.276801
  1045 40.6305 1.63122 0.276121
  1046 547.137 -65.0874 103.488
  1047 5.75764 0.897572 1.81138
  1048 5.62367 0.898521 -1.81463
  1049 124.662 29.6262 -5.12066
  1050 124.474 29.7357 5.16133
  1051 50.6255 23.5194 17.9185
  1052 50.4523 23.5838 -17.9561
  1053 6.53899 -89.9793 -17.1549
  1054 165.068 3.69083 1.94914
  1055 165.107 3.68759 -1.94705
  1056 502.771 15.6231 11.2489
  1057 438.673 0.970626 14.2694
  1058 438.539 0.987080 -14.2615
  1059 -1.57394 -23.7611 -43.9297
  1060 657.567 -8.64160 -10.8430
  1061 2.14305 -0.281839 42.6252
  1062 2.66573 0.0381723 -42.3717
  1063 592.122 -1.58487 -4.73108
  1064 592.350 -1.58932 4.73066
  1065 632.055 -2.78670 -8.37723
  1066 632.102 -2.85938 8.20485
  1067 -0.469522 -123.850 11.5466
  1068 378.460 6.88365 -20.5972
  1069 378.565 6.85588 20.6170
  1070 456.560 1.90476 16.4138
  1071 456.412 1.92732 -16.4078
  1072 13.6759 12.3452 37.2240
  1073 13.6001 12.3403 -37.2930
  1074 985.353 62.2836 13.1507
  1075 -11.0839 -4.22617 44.9804
  1076 -11.2995 -4.11179 -45.1108
  1077 149.211 26.5711 -6.43535
  1078 149.108 26.6282 6.47703
  1079 -71.0655 0.759022 -3.20146
  1080 -70.8857 0.758345 3.19608
  1081 241.250 16.0463 -88.5880
  1082 240.860 16.6777 89.4888
  1083 73.2696 26.6084 12.2313
  1084 73.0829 26.6896 -12.2562
  1085 165.731 22.0468 -67.7567
  1086 164.888 22.8076 68.2114
  1087 -3.95863 -40.7480 -31.8362
  1088 574.969 9.81088 62.1435
  1089 395.204 17.7182 260.419
  1090 68.9164 27.8452 12.5393
  1091 68.7029 27.9486 -12.5833
  1092 243.128 10.0034 -8.29282
  1093 243.136 10.0042 8.30761
  1094 850.619 18.7125 2.48566
  1095 59.7542 17.2573 4.70257
  1096 59.0280 17.4145 -4.94838
  1097 -24.9670 -5.28176 28.1325
  1098 -24.9947 -5.30863 -28.1671
  1099 -0.815167 -19.1460 7.68738
  1100 -0.848918 -19.1360 -7.71907
  1101 560.949 -2.19249 21.3738
  1102 560.681 -2.00823 -21.4724
  1103 1.63775 -37.2708 40.8467
  1104 -36.7454 2.84829 -36.5561
  1105 -36.6479 2.85580 36.4870
  1106 0.171735 -148.223 -14.2203
  1107 -7.52173 -10.8735 44.9268
  1108 -7.48914 -10.6059 -44.9732
  1109 534.510 -0.810662 -9.00190
  1110 534.701 -0.818991 9.00484
  1111 554.737 -5.95393 26.1148
  1112 554.311 -5.65025 -26.2034
  1113 102.979 24.9368 -27.3991
  1114 102.212 25.3340 27.5502
  1115 -1.21133 -76.4085 -26.3798
  1116 726.451 -50.6445 -156.717
  1117 939.998 138.427 26.7498
  1118 10.7972 -106.411 3.28251
  1119 38.4388 20.9932 -25.0336
  1120 38.6599 20.8914 24.8538
  1121 97.2016 29.8130 2.07169
  1122 96.9588 29.9499 -2.07643
  1123 199.252 9.03755 4.70977
  1124 199.273 9.03265 -4.70063
  1125 -11.7770 -16.7798 36.2731
  1126 -11.7632 -16.9513 -36.3398
  1127 -30.5461 10.7910 27.6941
  1128 -30.7014 10.8153 -27.7512
  1129 -8.14456 14.0510 31.9564
  1130 -8.31280 14.0844 -32.0297
  1131 533.405 -27.5025 -46.3202
  1132 536.614 -27.6180 46.0728
  1133 0.720965 -86.1654 -29.9934
  1134 291.515 2.18937 -108.970
  1135 291.847 3.05370 110.555
  1136 97.4690 26.2899 -4.12764
  1137 97.6132 26.2219 4.13190
  1138 281.194 178.741 288.900
  1139 77.8788 20.6223 8.63347
  1140 77.7473 20.6656 -8.64006
  1141 720.690 -70.6075 -46.2384
  1142 279.199 4.92729 6.37250
  1143 279.166 4.92806 -6.36495
  1144 -12.1237 -10.7511 22.4781
  1145 -12.1355 -10.7796 -22.4757
  1146 -14.3544 -12.7913 28.9064
  1147 -14.3591 -12.8457 -28.9162
  1148 480.014 -43.3301 -149.511
  1149 488.741 -48.1045 150.531
  1150 93.5705 1.45864 1.86677
  1151 93.6513 1.45718 -1.86654
  1152 306.088 13.4060 -61.4195
  1153 306.027 13.2624 61.9494
  1154 649.397 -78.8003 117.192
  1155 571.123 -1.84099 1.30876
  1156 570.907 -1.83944 -1.30724
  1157 -47.2916 8.00171 24.8441
  1158 -47.4465 8.01865 -24.8941
  1159 -83.0575 2.35756 -12.5995
  1160 -82.8810 2.35166 12.5777
  1161 155.295 21.7430 180.821
  1162 486.407 30.9612 -22.9423
  1163 280.044 17.6669 -32.0171
  1164 280.095 17.6433 32.1576
  1165 832.291 -2.36529 170.334
  1166 284.800 17.4871 -45.8133
  1167 284.854 17.4301 46.0553
  1168 77.3177 7.24066 -2.46074
  1169 77.4133 7.23171 2.45703
  1170 26.2362 -75.5805 23.4854
  1171 26.4502 -72.9301 -30.3875
  1172 383.036 -21.9190 -151.189
  1173 387.925 -20.2067 150.914
  1174 154.435 27.1758 -49.3363
  1175 153.783 27.6540 49.7073
  1176 664.191 -40.9900 -39.1573
  1177 -22.5674 -1.27046 41.3810
  1178 -22.6626 -1.27281 -41.4644
  1179 0.361037 -33.1206 -42.0278
  1180 176.211 12.7348 -116.395
  1181 176.556 13.1205 118.128
  1182 -0.417257 -33.7889 8.52560
  1183 -0.357799 -33.8735 -8.63428
  1184 -153.475 1.22209 -3.64155
  1185 -153.260 1.22109 3.63482
  1186 521.589 -1.63894 -2.66818
  1187 521.773 -1.64110 2.67116
  1188 330.228 9.39273 -18.6287
  1189 330.305 9.36951 18.6596
  1190 -9.87556 1.17624 44.6057
  1191 -9.90413 1.37214 -44.6948
  1192 -0.0293535 -133.348 -12.7508
  1193 -131.625 0.262563 6.19038
  1194 -131.798 0.263267 -6.20317
  1195 110.556 7.76511 -84.4750
  1196 109.814 8.44839 86.8582
  1197 615.200 -37.2221 -7.35142
  1198 183.284 17.1292 -104.956
  1199 183.378 17.4688 105.786
  1200 -74.4146 0.423396 10.0391
  1201 -74.4730 0.422728 -10.0554
  1202 2.17811 -112.247 -19.8639
  1203 -13.7925 3.62049 -3.90814
  1204 -13.6464 3.61654 3.90125
  1205 100.010 21.5763 4.93360
  1206 99.8864 21.6234 -4.92904
  1207 349.039 -0.695162 -2.30362
  1208 349.115 -0.695862 2.30535
  1209 465.503 0.104160 10.8280
  1210 465.354 0.114471 -10.8221
  1211 28.5545 0.637758 20.2613
  1212 28.1408 0.173252 -20.7704
  1213 5.11745 -63.3833 30.7945
  1214 838.130 122.338 12.9640
  1215 -25.6811 -1.92702 16.1599
  1216 -25.6893 -1.93593 -16.1718
  1217 4.11910 -59.3954 -32.6330
  1218 -2.35775 -38.7546 23.5419
  1219 -2.25224 -38.3387 -24.3753
  1220 659.597 -7.38080 9.53282
  1221 0.551503 -151.976 12.9471
  1222 5.89444 -42.9047 -36.4842
  1223 87.4600 0.751703 0.545373
  1224 87.3759 0.752427 -0.546058
  1225 -5.87548 -26.4663 42.0550
  1226 -66.1399 3.63688 -10.2680
  1227 -65.9672 3.63073 10.2505
  1228 1299.89 21.3478 38.4773
  1229 -35.8318 4.83932 36.6135
  1230 -35.9469 4.83545 -36.6900
  1231 325.992 11.6946 -55.4385
  1232 326.198 11.5110 55.7247
  1233 22.9983 -25.4164 -11.0383
  1234 309.413 13.1189 -23.6055
  1235 309.482 13.0875 23.6639
  1236 13.7846 -83.8297 0.348983
  1237 -5.90710 -26.5476 -42.0244
  1238 -42.8709 1.21468 5.63433
  1239 -43.0337 1.21714 -5.64327
  1240 -21.1503 2.59385 -41.9463
  1241 -21.0331 2.60529 41.8669
  1242 664.427 54.7813 42.5233
  1243 375.018 2.83498 -57.7990
  1244 375.388 2.78173 57.9363
  1245 -158.890 0.243640 -1.12585
  1246 -158.658 0.243567 1.12330
  1247 336.575 5.40748 -12.5067
  1248 336.644 5.40101 12.5191
  1249 -161.502 -3.02915 -0.479058
  1250 -161.742 -3.03141 0.479191
  1251 500.075 -34.9379 -66.3090
  1252 -76.2460 1.38711 20.8125
  1253 -76.3551 1.38696 -20.8528
  1254 504.760 -36.9006 65.7131
  1255 343.124 9.78434 -24.8232
  1256 343.217 9.74340 24.8651
  1257 41.9850 -60.3333 -83.2890
  1258 0.796131 -104.433 -25.5175
  1259 -1.78673 -43.5763 39.3394
  1260 1037.67 207.967 -171.937
  1261 -0.189814 -98.8332 25.4000
  1262 1089.42 103.693 -75.7282
  1263 -0.740897 -183.622 -11.6622
  1264 61.7870 3.78730 -0.154282
  1265 61.8880 3.78327 0.151932
  1266 -0.439068 -43.3194 8.92453
  1267 -0.347325 -43.5567 -8.90680
  1268 195.805 2.34971 0.989598
  1269 195.824 2.34797 -0.988745
  1270 670.437 -47.2004 36.7093
  1271 21.8254 3.81294 -4.52270
  1272 21.9512 3.80788 4.51588
  1273 3.87746 -194.233 3.42168
  1274 2.47775 -207.740 -3.45767
  1275 616.328 -71.7662 -73.1428
  1276 -1.59249 -55.1682 25.8346
  1277 658.699 45.9313 -55.8565
  1278 -1.90519 -72.6718 25.2895
  1279 1.37050 -195.286 -8.12439
  1280 315.237 6.19744 -14.1816
  1281 315.296 6.18370 14.2017
  1282 -0.268165 -109.282 11.4216
  1283 -0.226686 -89.6082 -25.5539
  1284 1404.29 266.809 224.961
  1285 573.530 -0.233735 0.964430
  1286 573.313 -0.233248 -0.963581
  1287 18.2415 4.01215 33.0188
  1288 17.7133 4.64046 -33.2050
  1289 -5.98512 9.52145 41.0312
  1290 -6.22493 9.52057 -41.1623
  1291 626.550 -10.7199 -36.3085
  1292 575.940 -24.7680 -27.7753
  1293 575.510 -28.0149 28.2283
  1294 94.0014 8.34230 2.11791
  1295 93.9129 8.35325 -2.11998
  1296 -90.3997 2.37247 -15.6362
  1297 -90.2395 2.36712 15.6038
  1298 641.270 -80.4060 -101.363
  1299 -4.73559 -11.5869 11.9133
  1300 -4.75502 -11.5812 -11.9095
  1301 679.658 -24.8447 59.8045
  1302 -6.80319 -26.1274 31.5177
  1303 -6.72438 -26.2282 -31.3745
  1304 -52.4847 3.28356 6.85208
  1305 -52.6523 3.28859 -6.86415
  1306 108.503 16.8636 -47.0502
  1307 107.452 17.4379 46.9870
  1308 168.072 2.24984 -0.418481
  1309 168.036 2.25181 0.418734
  1310 -61.4341 6.40830 24.8993
  1311 -61.5825 6.42063 -24.9487
  1312 539.955 0.250175 1.49846
  1313 539.759 0.250472 -1.49719
  1314 307.920 6.93016 200.768
  1315 445.406 -1.12527 3.85714
  1316 445.269 -1.12358 -3.85381
  1317 304.583 6.89841 -83.7447
  1318 304.555 6.57431 84.3779
  1319 3.15071 -110.752 -12.3538
  1320 121.822 29.4379 -23.4284
  1321 121.293 29.7615 23.5868
  1322 -1.21154 -1.02244 -1.54418
  1323 -1.21755 -1.02258 1.54860
  1324 386.285 9.08893 31.3513
  1325 386.139 9.17559 -31.3013
  1326 197.209 13.2489 7.40366
  1327 197.236 13.2403 -7.38512
  1328 285.907 13.1498 -16.8435
  1329 285.948 13.1367 16.8802
  1330 368.677 -0.337053 -3.90537
  1331 368.766 -0.337987 3.90844
  1332 -11.6186 -5.55877 -13.4239
  1333 -11.6142 -5.55057 13.4281
  1334 -103.736 -0.255323 4.03589
  1335 -103.934 -0.254940 -4.04339
  1336 -19.3378 -8.66328 -32.1707
  1337 -19.3149 -8.61577 32.1285
  1338 -54.3638 0.176042 1.59283
  1339 -54.5345 0.175744 -1.59524
  1340 -163.834 1.40324 0.627224
  1341 -164.074 1.40384 -0.628239
  1342 685.955 -75.3900 135.609
  1343 522.118 -1.87281 -51.4450
</Section>

newXOutput 83

<Section columns = "stress_xx | stress_yy | stress_xy">
  1 596.321 -1.25710 0.661891
  2 596.551 -1.25817 -0.662235
  3 -179.464 0.746766 -2.49772
  4 0.283118 0.0581879 0.510489
  5 1056.77 353.896 362.160
  6 1195.83 395.996 -350.021
  7 0.281622 0.0568612 -0.508498
  8 -179.209 0.746646 2.49608
  9 594.644 -1.21315 -1.99205
  10 595.216 -2.13566 -3.17121
  11 600.762 -2.15804 -0.915413
  12 601.545 -2.16714 -3.83071
  13 603.413 -2.16450 -1.32415
  14 615.753 -1.96905 -1.78105
  15 620.308 -2.70717 -5.15334
  16 625.494 -1.48497 -3.61646
  17 629.101 -0.389912 -6.95933
  18 654.056 -4.05456 -5.95039
  19 665.430 -3.31367 -7.55450
  20 678.368 -4.71684 -3.43073
  21 685.272 -6.01256 -2.47704
  22 683.234 -6.68017 7.30820
  23 664.029 -7.21962 16.1767
  24 617.684 -7.40673 35.6504
  25 540.017 5.25459 41.8209
  26 477.904 6.80948 38.2146
  27 389.588 11.7931 23.0693
  28 412.116 11.4434 2.81318
  29 354.298 32.9247 -14.2787
  30 457.673 15.6545 -42.6660
  31 512.437 4.46941 -34.6674
  32 607.106 -1.22214 -30.1335
  33 658.057 -8.75065 -19.6004
  34 682.688 -7.75943 -7.21495
  35 684.368 -5.85072 2.54711
  36 677.787 -4.66389 3.28074
  37 665.295 -3.33043 7.37374
  38 654.118 -4.09756 5.85245
  39 629.291 -0.413329 6.91874
  40 625.723 -1.49381 3.60367
  41 620.554 -2.71338 5.15219
  42 616.001 -1.97251 1.78118
  43 603.653 -2.16717 1.32552
  44 601.783 -2.16944 3.83432
  45 600.998 -2.15988 0.916843
  46 595.447 -2.13736 3.17391
  47 594.875 -1.21422 1.99373
  48 564.127 0.690120 -0.784260
  49 524.297 -0.737615 -1.67045
  50 474.209 -3.42954 -1.57702
  51 421.949 -0.647415 -1.31113
  52 375.818 -1.25489 -1.02528
  53 326.161 0.291320 -1.19843
  54 276.851 2.92430 -0.646120
  55 225.354 2.42146 -1.48632
  56 182.433 1.18714 -2.13832
  57 125.824 0.191742 -2.25287
  58 68.0834 1.66602 -1.73361
  59 19.7362 1.44611 -1.67763
  60 -40.7966 0.652226 -1.50078
  61 -85.8199 -1.13970 -3.91496
  62 -129.475 -3.26699 -1.76039
  63 -173.896 0.256947 1.28930
  64 -183.704 3.13848 -0.343363
  65 -184.609 1.32942 0.711135
  66 -178.581 0.599675 -0.0415341
  67 -181.207 1.98688 -2.07478
  68 -178.668 2.44893 0.0740417
  69 -169.303 0.693116 -3.25275
  70 -172.145 1.52269 -3.53961
  71 -168.250 1.42549 -1.86093
  72 -156.062 0.852287 -2.93565
  73 -151.035 1.64207 -5.04450
  74 -142.185 1.87028 -4.05471
  75 -126.227 0.941993 -7.32985
  76 -117.360 0.296212 -6.11322
  77 -100.998 0.422399 -7.14199
  78 -87.0109 0.370089 -8.00174
  79 -74.6537 0.141468 -6.31988
  80 -57.3057 0.389363 -6.39197
  81 -42.2776 -0.126357 -6.87748
  82 -27.7179 -0.725155 -6.09582
  83 -16.1246 -0.640351 -4.70462
  84 -7.99351 -1.14840 -3.95687
  85 -1.44277 -0.666128 -1.44507
  86 0.0128895 -0.758291 -0.537985
  87 -0.405532 -0.459120 -0.138112
  88 -1.04544 -1.20403 -1.27076
  89 -1.01792 -6.78142 -3.44554
  90 -0.852077 -15.0609 -4.86116
  91 -0.428237 -25.4827 -7.05784
  92 -0.208014 -39.0400 -6.07577
  93 -0.138591 -51.3914 -7.63500
  94 -0.913866 -66.3093 -8.56760
  95 -0.376497 -84.8323 -8.59326
  96 0.171064 -103.470 -8.19584
  97 0.398230 -123.368 -8.05582
  98 0.632055 -143.711 -7.86978
  99 -0.0214262 -158.244 -10.6067
  100 1.00578 -179.325 -9.45126
  101 1.28074 -203.859 -7.32787
  102 -0.237215 -213.619 -9.69290
  103 1.81600 -230.354 -8.81312
  104 4.65098 -252.385 -3.17488
  105 9.17092 -255.765 -5.08507
  106 7.00516 -225.376 10.4772
  107 11.1647 -155.505 34.6114
  108 47.9744 -58.4999 89.9702
  109 143.160 282.418 271.868
  110 1614.15 92.4495 164.459
  111 1393.30 25.6110 58.9975
  112 1348.62 8.33876 13.9593
  113 1338.54 1.72145 -2.11428
  114 1348.10 13.4732 -31.0113
  115 1393.15 47.1251 -70.7747
  116 1574.96 180.384 -209.485
  117 349.771 223.018 -330.240
  118 82.5058 -59.1115 -106.263
  119 24.7121 -170.818 -42.0037
  120 7.08322 -212.601 -10.8985
  121 7.49405 -245.492 1.58768
  122 2.06296 -242.053 1.98337
  123 0.642368 -224.527 7.20006
  124 0.756316 -212.403 5.63570
  125 1.12805 -192.331 10.5428
  126 -0.0498926 -181.126 10.4644
  127 0.443711 -163.980 7.49088
  128 0.907076 -142.059 9.71018
  129 0.201115 -126.325 7.68371
  130 0.255631 -103.518 9.72588
  131 -1.03508 -85.8801 8.38536
  132 -0.696875 -66.3578 8.29128
  133 -0.0878422 -51.0936 7.65081
  134 -0.276270 -38.8096 6.08226
  135 -0.415847 -25.4074 6.98718
  136 -0.839043 -15.0515 4.83668
  137 -1.01240 -6.79187 3.44317
  138 -1.04391 -1.21563 1.27337
  139 -0.405439 -0.464033 0.141446
  140 0.00686174 -0.758938 0.540925
  141 -1.45387 -0.665619 1.44866
  142 -8.00931 -1.14705 3.96003
  143 -16.1449 -0.638162 4.70518
  144 -27.7320 -0.722469 6.09253
  145 -42.2769 -0.124137 6.86937
  146 -57.2876 0.389803 6.38258
  147 -74.6117 0.142690 6.30989
  148 -86.9466 0.371648 7.98985
  149 -100.903 0.422486 7.12908
  150 -117.237 0.296293 6.10067
  151 -126.083 0.941416 7.31697
  152 -142.012 1.86905 4.04421
  153 -150.845 1.64065 5.03543
  154 -155.855 0.851339 2.92938
  155 -168.026 1.42439 1.85649
  156 -171.912 1.52184 3.53478
  157 -169.067 0.692897 3.24857
  158 -178.421 2.44753 -0.0757017
  159 -180.956 1.98578 2.07234
  160 -178.329 0.599571 0.0407585
  161 -184.352 1.32881 -0.711124
  162 -183.446 3.13677 0.342808
  163 -173.645 0.257142 -1.28879
  164 -129.253 -3.26437 1.75909
  165 -85.6261 -1.13829 3.91240
  166 -40.6313 0.652354 1.49950
  167 19.8640 1.44543 1.67635
  168 68.1815 1.66481 1.73236
  169 125.887 0.191168 2.25133
  170 182.462 1.18587 2.13699
  171 225.356 2.41958 1.48547
  172 276.821 2.92225 0.645821
  173 326.100 0.291122 1.19781
  174 375.726 -1.25395 1.02476
  175 421.828 -0.646721 1.31047
  176 474.055 -3.42686 1.57632
  177 524.111 -0.736686 1.66955
  178 563.917 0.690037 0.783841
  179 167.482 26.9824 -11.9673
  180 167.363 27.0503 12.0386
  181 -0.274714 6.21569 42.2112
  182 -0.460014 6.15563 -42.2516
  183 371.371 -4.51208 -88.3663
  184 371.011 -5.17912 89.2065
  185 77.9184 20.8468 -10.8378
  186 77.0131 21.1281 10.8332
  187 61.0408 7.82495 -4.44227
  188 61.1504 7.81316 4.43562
  189 348.715 4.06296 -14.0310
  190 348.793 4.05124 14.0469
  191 -0.141749 13.4620 21.3903
  192 -0.300508 13.4947 -21.4323
  193 404.582 7.93120 -34.0143
  194 404.766 7.82407 34.0763
  195 -15.0150 -12.9053 35.4367
  196 -15.0164 -12.9872 -35.4913
  197 4.77796 -29.0754 -39.9972
  198 131.460 14.8506 -85.1948
  199 5.60811 -31.2376 38.9023
  200 129.442 15.7946 86.3219
  201 569.995 -70.3489 -126.752
  202 588.641 -73.0701 122.133
  203 211.093 4.45483 -3.59127
  204 211.080 4.45727 3.59541
  205 -23.8760 1.32278 -3.68334
  206 -23.7214 1.32131 3.67778
  207 -41.9407 7.10280 32.7234
  208 -42.0790 7.11369 -32.7954
  209 212.436 16.6977 -9.45505
  210 212.415 16.7090 9.48167
  211 68.2858 27.4538 11.0634
  212 68.0153 27.6096 -11.1505
  213 -51.3790 5.64182 -12.3284
  214 -51.2112 5.63138 12.3060
  215 456.889 -1.32604 6.35638
  216 456.747 -1.32216 -6.35122
  217 16.3243 -53.9214 13.0507
  218 17.7189 -48.1514 -10.7363
  219 -3.84650 -36.8381 39.5464
  220 -3.97824 -38.4077 -38.3532
  221 197.555 27.6664 -39.6423
  222 197.338 27.8120 39.9430
  223 -39.4431 0.218407 34.0465
  224 -39.5215 0.210358 -34.1057
  225 488.645 0.833528 -17.9640
  226 488.813 0.802649 17.9649
  227 528.192 -9.31914 -36.0578
  228 528.629 -9.80296 35.9926
  229 849.837 61.8090 1.76015
  230 780.307 90.3970 30.4925
  231 761.728 2.47525 -52.7943
  232 100.921 19.5986 4.65854
  233 100.808 19.6370 -4.65683
  234 11.2153 17.5769 30.9594
  235 11.0310 17.6266 -31.0298
  236 590.300 -35.4621 -27.5871
  237 586.989 -35.8582 29.5644
  238 329.962 0.329306 -5.38173
  239 330.025 0.327595 5.38661
  240 -68.0482 4.95427 21.3504
  241 -68.2063 4.96543 -21.3934
  242 -9.86293 -9.68235 -16.2527
  243 -9.85158 -9.67334 16.2595
  244 -72.4235 1.27999 5.85322
  245 -72.6054 1.28263 -5.86341
  246 275.055 17.8550 -24.7984
  247 275.087 17.8390 24.8769
  248 347.702 8.70396 -51.4729
  249 347.923 8.57230 51.6783
  250 90.8833 3.53690 0.746039
  251 90.9686 3.53363 -0.746942
  252 204.368 16.2954 -174.825
  253 240.301 20.9063 188.854
  254 30.3764 14.5848 28.1947
  255 30.2525 14.8562 -28.3540
  256 794.400 -48.2010 -30.1750
  257 76.5222 25.9852 9.70646
  258 76.3575 26.0557 -9.71991
  259 201.378 23.1768 -69.4640
  260 200.963 23.6767 70.0703
  261 893.696 133.379 9.23218
  262 529.835 -1.49880 24.2805
  263 529.601 -1.36353 -24.3165
  264 -4.64841 -29.2543 -25.1990
  265 -4.49525 -29.3646 25.2933
  266 -0.816031 -68.4333 -33.8320
  267 2.84612 -77.9542 -29.6936
  268 1.61542 -78.8512 31.7253
  269 -12.0421 -10.2752 44.6932
  270 -12.1036 -10.2693 -44.8973
  271 30.8566 -54.2271 -19.3192
  272 33.2989 -48.9507 24.5933
  273 -30.2615 -2.42574 22.0832
  274 -30.2856 -2.43795 -22.1081
  275 381.837 7.96895 -21.6484
  276 381.952 7.93139 21.6744
  277 662.008 -64.3367 -14.1555
  278 154.275 10.4497 2.35263
  279 154.327 10.4394 -2.34738
  280 -1.52369 -64.3577 32.4346
  281 21.2518 12.6916 12.6396
  282 21.1097 12.7174 -12.6613
  283 1040.33 70.4557 -33.8025
  284 511.802 -1.23769 7.64482
  285 511.625 -1.23079 -7.64049
  286 353.733 -13.1225 -131.202
  287 356.530 -12.8744 132.953
  288 661.257 -61.1719 3.55213
  289 -60.7145 2.05199 26.6737
  290 -60.8137 2.05084 -26.7241
  291 643.370 -37.1701 210.319
  292 -25.3659 5.34179 39.9276
  293 -25.4871 5.32955 -40.0143
  294 116.414 31.6878 -15.3891
  295 115.955 31.9718 15.4802
  296 -105.463 0.450471 0.913367
  297 -105.669 0.450105 -0.915159
  298 543.985 30.2150 -282.755
  299 -102.159 1.92861 -11.1976
  300 -101.976 1.92408 11.1755
  301 -1.52637 -11.4052 44.5999
  302 0.212813 -10.9574 -43.9621
  303 247.901 23.2199 -35.4081
  304 247.880 23.2376 35.5874
  305 60.9119 4.67037 3.37421
  306 60.8064 4.67618 -3.37919
  307 256.352 7.08775 -8.31820
  308 256.368 7.08815 8.32911
  309 26.1978 -12.7863 19.0990
  310 23.9132 -16.2212 -19.5212
  311 248.891 1.78517 -2.32883
  312 248.903 1.78623 2.33092
  313 -85.5193 2.26233 19.2771
  314 -85.6515 2.26529 -19.3161
  315 65.2606 0.916770 -23.0348
  316 63.4426 0.804172 21.3463
  317 531.791 -1.74494 2.15115
  318 531.600 -1.74309 -2.14871
  319 1148.03 63.9364 50.0182
  320 129.597 14.4644 -0.106279
  321 129.520 14.4840 0.112713
  322 -17.8495 4.98439 7.80659
  323 -18.0019 4.99340 -7.82088
  324 175.176 20.9486 -8.65964
  325 175.110 20.9777 8.69967
  326 23.9190 18.7823 31.7021
  327 23.7675 18.8151 -31.8146
  328 2.76610 -113.771 21.3154
  329 -110.133 -0.195101 -2.28721
  330 -109.926 -0.194666 2.28325
  331 411.211 -1.21137 -4.18583
  332 411.325 -1.21322 4.18933
  333 432.759 0.612101 -11.0895
  334 432.888 0.601686 11.0972
  335 -103.858 1.49007 -7.82688
  336 -103.662 1.48719 7.81342
  337 7.16202 0.881019 0.523272
  338 7.02635 0.881505 -0.524939
  339 -2.35930 -48.3477 25.0217
  340 -1.86091 -50.2943 -24.9839
  341 491.633 -38.7183 -89.7139
  342 509.719 -46.4078 88.2331
  343 295.058 11.4665 -15.6159
  344 295.102 11.4567 15.6427
  345 134.744 29.9513 -10.6676
  346 134.500 30.0947 10.7394
  347 -38.6558 8.15002 17.9744
  348 -38.8172 8.16818 -18.0099
  349 893.230 36.3563 41.9132
  350 51.5189 -52.7608 -63.9802
  351 55.0909 -47.2698 66.4467
  352 -14.3572 13.9438 29.6988
  353 -14.5210 13.9752 -29.7638
  354 -23.7878 -4.32953 39.8780
  355 -23.8603 -4.34545 -39.9605
  356 1015.12 180.290 -65.2567
  357 667.463 -4.51024 71.6139
  358 612.887 -15.4596 -17.5803
  359 612.561 -15.0973 16.7466
  360 436.543 -6.35228 -57.5069
  361 436.000 -6.71831 57.5626
  362 0.886710 -137.091 -16.8034
  363 558.424 -0.0791588 -13.4530
  364 558.622 -0.115791 13.4328
  365 7.79130 -126.765 11.3759
  366 670.349 53.3795 -34.5592
  367 167.424 3.17102 1.16669
  368 167.387 3.17358 -1.16755
  369 437.918 1.08777 -42.6398
  370 438.183 0.917785 42.7233
  371 468.065 1.50084 -25.4767
  372 468.243 1.42480 25.4802
  373 -0.200075 4.05872 4.83337
  374 -0.341724 4.06445 -4.84196
  375 276.672 15.2859 -69.8539
  376 276.679 15.4736 70.3844
  377 547.580 -1.46908 3.50055
  378 547.379 -1.46666 -3.49701
  379 320.729 15.0346 -36.0091
  380 320.828 14.9696 36.1315
  381 365.869 2.99560 9.40507
  382 365.783 2.99960 -9.39677
  383 -17.3081 -3.04009 13.7833
  384 -17.3100 -3.04884 -13.7859
  385 -4.16794 -2.94750 -4.11367
  386 -4.16954 -2.94849 4.11971
  387 734.033 -81.7666 64.4483
  388 -9.13839 -22.3374 36.8284
  389 -9.07040 -22.5445 -36.8428
  390 128.645 5.76589 -0.206414
  391 128.710 5.75987 0.206369
  392 -3.60929 -18.3906 13.8634
  393 -3.65218 -18.3650 -13.8673
  394 53.3481 20.2224 13.1732
  395 53.2011 20.2686 -13.1938
  396 599.599 -3.93029 17.9896
  397 599.316 -3.73660 -18.2183
  398 -0.668104 -33.4815 43.0904
  399 -48.9830 -0.776514 20.7182
  400 -49.0292 -0.781671 -20.7494
  401 -0.858166 -35.4970 -42.6134
  402 560.894 -1.04911 8.59324
  403 560.689 -1.03827 -8.59449
  404 -1.62224 13.5260 37.9409
  405 -1.83179 13.5593 -38.0410
  406 420.859 3.67644 -17.4030
  407 420.986 3.65321 17.4142
  408 644.148 -27.2489 -8.96533
  409 645.371 -22.2934 6.25895
  410 -1.17715 -65.6236 -27.2601
  411 63.0197 24.2295 -5.65448
  412 63.5245 24.0052 5.55748
  413 662.053 42.5255 21.0622
  414 371.916 -12.1670 -179.364
  415 381.092 -18.7768 187.097
  416 27.6837 19.7937 22.5552
  417 27.5147 19.8451 -22.6011
  418 274.680 4.65616 -5.69672
  419 274.707 4.65701 5.70265
  420 266.893 69.5600 282.490
  421 115.753 24.3436 -1.45725
  422 115.883 24.2850 1.47227
  423 7.72014 -57.9539 26.6437
  424 -0.770348 -106.096 -23.2201
  425 48.7002 24.8706 19.8442
  426 48.5092 24.9443 -19.9005
  427 60.8557 12.8188 -7.22852
  428 60.9741 12.7971 7.21913
  429 -16.2858 0.163446 -44.1599
  430 -16.1657 0.137124 44.0701
  431 136.689 27.8879 -32.8790
  432 136.100 28.2648 33.1129
  433 652.512 -18.9024 -54.9050
  434 20.9824 -2.87983 30.8515
  435 20.3543 -2.76728 -31.0986
  436 475.891 -20.7896 -63.4762
  437 477.702 -22.1275 63.4477
  438 -113.680 0.802220 -11.3193
  439 -113.509 0.799407 11.2962
  440 -0.00884887 -104.767 21.0543
  441 -0.700767 -66.8161 24.3233
  442 -45.7084 3.36027 34.0387
  443 -45.8115 3.35627 -34.1047
  444 341.326 0.156140 -2.08651
  445 341.396 0.155722 2.08844
  446 -9.88989 -15.6489 25.3632
  447 -9.91073 -15.6892 -25.3428
  448 219.008 15.4745 -100.591
  449 218.520 16.3638 101.539
  450 1.83600 -124.403 -22.0553
  451 1145.33 37.2054 0.215642
  452 3.52579 -142.981 -10.2454
  453 -131.102 -0.384083 -3.68663
  454 -130.884 -0.383989 3.68084
  455 -49.0613 7.51171 26.7078
  456 -49.2142 7.52733 -26.7650
  457 -61.3220 0.932969 20.6645
  458 -61.3902 0.932025 -20.6983
  459 238.019 21.9801 -25.2637
  460 238.001 22.0023 25.3717
  461 353.632 11.1782 -27.7953
  462 353.744 11.1220 27.8536
  463 -4.87538 -19.9285 44.7584
  464 -4.88305 -19.7955 -44.9516
  465 620.097 14.4646 -68.9404
  466 45.0956 -4.41237 0.267721
  467 43.5078 -4.80673 0.559967
  468 10.5399 -123.686 -7.27242
  469 6.99240 -145.694 2.28603
  470 -18.0868 -7.94456 26.0597
  471 -18.1003 -7.97582 -26.0765
  472 134.767 13.7738 -153.436
  473 910.293 25.6944 -109.853
  474 217.072 11.0238 8.69310
  475 217.084 11.0182 -8.67692
  476 313.165 4.82607 -95.5005
  477 313.726 4.74139 96.7563
  478 96.4707 31.2596 3.71770
  479 96.2707 31.3690 -3.72105
  480 283.324 19.7028 -52.3148
  481 283.382 19.6352 52.6330
  482 13.0672 7.67602 38.0722
  483 13.6955 7.99184 -38.0241
  484 -117.200 1.52799 -7.92524
  485 -117.003 1.52561 7.91061
  486 607.510 -67.6504 -54.7639
  487 478.668 -1.70376 -2.88839
  488 478.825 -1.70552 2.89103
  489 34.8451 1.88019 -1.56982
  490 34.9643 1.87797 1.56640
  491 -25.5393 10.9137 24.1105
  492 -25.6998 10.9393 -24.1597
  493 -62.3172 3.60454 -7.99490
  494 -62.1424 3.59858 7.98024
  495 217.332 18.1752 -13.0139
  496 217.310 18.1868 13.0552
  497 -21.3362 10.0257 35.2599
  498 -21.4927 10.0459 -35.3445
  499 555.518 -16.9242 -34.4503
  500 556.484 -17.6465 34.1454
  501 370.925 2.96319 -64.0296
  502 370.319 2.76694 64.5302
  503 143.713 4.04478 0.0928978
  504 143.766 4.04124 -0.0931177
  505 1.99817 -62.5506 -35.9813
  506 654.206 -21.6811 44.6935
  507 10.3082 -38.5796 -30.6067
  508 192.914 29.0993 26.9209
  509 193.067 28.9971 -26.7513
  510 600.964 -63.2810 54.3012
  511 49.6215 -36.6111 84.7600
  512 710.281 -79.6143 -103.915
  513 487.327 -0.254174 30.7813
  514 487.087 -0.0981412 -30.7724
  515 2.01120 -53.1524 37.4638
  516 -9.59310 -2.81889 -7.45283
  517 -9.59623 -2.81685 7.45727
  518 68.6325 1.36732 -0.244079
  519 68.7305 1.36613 0.243053
  520 -1.59851 -37.7058 16.2085
  521 -1.45012 -37.5360 -16.2974
  522 402.062 1.47527 7.18848
  523 401.954 1.47743 -7.18268
  524 1107.89 208.955 100.833
  525 50.5710 -19.6772 -22.9452
  526 39.6297 -29.6994 14.6823
  527 -3.66479 7.65038 -10.7011
  528 -3.51675 7.63504 10.6819
  529 -95.8220 1.49671 12.2288
  530 -95.9334 1.49833 -12.2516
  531 1.03750 -117.288 22.3669
  532 -127.470 0.823002 0.769129
  533 -127.689 0.822970 -0.771091
  534 130.712 5.32806 -114.941
  535 128.033 7.10890 118.942
  536 120.375 24.4310 -44.2889
  537 119.494 24.9085 44.4844
  538 -25.3402 -4.98886 35.1707
  539 -25.3888 -5.01404 -35.2312
  540 120.086 8.03332 -0.102354
  541 120.013 8.04240 0.102811
  542 -48.4855 1.82817 2.86615
  543 -48.6547 1.83009 -2.87247
  544 139.735 17.4773 -1.61728
  545 139.655 17.5053 1.63201
  546 -2.61798 -8.68802 6.39306
  547 -2.62742 -8.68145 -6.39220
  548 52.8285 22.9070 16.3289
  549 52.4865 23.1945 -16.4712
  550 42.6663 10.2187 13.3303
  551 42.0965 10.1756 -13.7006
  552 490.063 1.34013 12.8785
  553 489.899 1.35259 -12.8732
  554 436.951 3.23671 21.0055
  555 436.806 3.27802 -20.9947
  556 -0.439386 -101.474 -14.7332
  557 311.136 12.6310 -22.0576
  558 311.198 12.6086 22.1030
  559 310.975 4.27272 -8.88679
  560 311.026 4.26924 8.89697
  561 -31.7587 0.466787 0.336089
  562 -31.5991 0.466976 -0.336742
  563 554.464 28.0364 -13.2527
  564 682.931 -79.7591 -44.0749
  565 584.067 28.6302 51.1464
  566 5.30044 -81.5606 -24.6519
  567 -23.0874 8.87662 -15.0157
  568 -22.9300 8.85868 14.9881
  569 5.83388 -46.4456 34.3611
  570 -28.4169 1.45815 39.5599
  571 -28.5137 1.44969 -39.6334
  572 876.652 83.9250 10.0572
  573 206.637 6.65880 -4.74895
  574 206.620 6.66249 4.75536
  575 1281.76 111.821 -119.378
  576 -4.42729 -3.29598 45.2939
  577 -3.92774 -2.93501 -45.3066
  578 721.400 -57.1619 16.0819
  579 576.738 -0.808066 -14.8493
  580 576.943 -0.871944 14.8006
  581 276.237 5.48416 -137.083
  582 279.252 4.57977 138.927
  583 -14.0201 -13.3441 40.5348
  584 -14.0382 -13.4206 -40.6554
  585 148.172 18.2661 77.2269
  586 149.379 17.2684 -76.7278
  587 -111.022 1.22882 -11.2239
  588 -110.867 1.22676 11.2013
  589 849.299 85.3016 28.3679
  590 170.708 12.7283 4.04159
  591 170.753 12.7160 -4.03091
  592 200.391 25.2551 -54.1150
  593 200.080 25.5457 54.5683
  594 526.309 -3.12563 -29.8575
  595 526.622 -3.35203 29.8388
  596 -2.01614 -51.4885 -36.2356
  597 565.205 -1.58344 4.51491
  598 564.992 -1.58030 -4.51142
  599 -73.6572 0.930213 -0.870058
  600 -73.4719 0.929941 0.867164
  601 -137.008 -1.31463 -0.0966699
  602 -137.235 -1.31603 0.0962307
  603 13.6197 -71.5084 -7.54308
  604 -5.08352 -33.8869 31.5922
  605 -5.36163 -31.9966 -31.7994
  606 -62.2243 4.07705 28.1125
  607 -62.3460 4.08139 -28.1688
  608 404.110 7.12128 26.8420
  609 403.969 7.18435 -26.8122
  610 300.063 0.991880 2.02736
  611 300.019 0.991309 -2.02574
  612 71.8933 -7.96563 52.4072
  613 73.9447 -6.50666 -52.0039
  614 -2.00436 -26.3655 13.7511
  615 -2.07073 -26.2866 -13.8005
  616 675.843 76.1647 303.111
  617 -33.9510 -0.978703 12.6652
  618 -33.9590 -0.983797 -12.6779
  619 13.8130 -42.6092 -23.1398
  620 294.509 8.61237 -12.0894
  621 294.550 8.60761 12.1066
  622 149.309 30.5266 -22.1616
  623 148.997 30.7192 22.3186
  624 1.40142 -172.539 6.87129
  625 113.775 28.6770 0.0557636
  626 113.618 28.7592 -0.0375642
  627 -4.55015 11.3622 18.1604
  628 -4.70498 11.3876 -18.1942
  629 -0.802814 -88.9856 20.0757
  630 -138.964 -0.0914424 -3.74919
  631 -138.744 -0.0916202 3.74301
  632 197.578 2.46708 2.04517
  633 197.598 2.46523 -2.04329
  634 477.588 -0.726541 8.71766
  635 477.433 -0.720444 -8.71158
  636 427.755 -17.2520 232.379
  637 345.141 5.66660 -17.1244
  638 345.221 5.64815 17.1464
  639 7.85254 -4.35829 40.6673
  640 9.25130 -1.42966 -40.4313
  641 545.970 -43.6328 -189.629
  642 1241.93 41.3998 -49.5248
  643 -130.378 -0.0151220 -7.58211
  644 -130.190 -0.0163277 7.56766
  645 41.2893 5.72367 -4.07844
  646 41.4076 5.71565 4.07159
  647 -2.33017 -55.1805 32.2656
  648 742.855 50.9351 -58.1987
  649 558.474 -1.82795 0.842956
  650 558.267 -1.82629 -0.841821
  651 -35.6047 -1.72210 -29.0597
  652 -35.5562 -1.71147 29.0157
  653 -0.128517 -125.533 -18.8572
  654 567.791 -1.71220 1.75114
  655 567.577 -1.71055 -1.74894
  656 60.7217 17.0979 10.7564
  657 60.5900 17.1324 -10.7700
  658 445.801 -34.6699 -126.229
  659 453.214 -34.4447 127.451
  660 635.831 -4.90899 10.7259
  661 635.758 -4.87738 -11.0684
  662 2.89215 -155.861 13.6700
  663 -25.4685 0.0967690 -1.58511
  664 -25.3129 0.0967891 1.58195
  665 213.776 55.1309 -224.055
  666 205.090 1.88765 2.01870
  667 205.104 1.88602 -2.01738
  668 106.081 5.17990 -0.705026
  669 106.004 5.18516 0.704366
  670 124.112 10.6801 1.26979
  671 124.186 10.6668 -1.26626
  672 381.004 8.35169 -41.5830
  673 381.201 8.22618 41.6961
  674 106.613 30.0225 -5.55260
  675 106.283 30.2283 5.56741
  676 -61.5494 4.58760 -14.7311
  677 -61.3800 4.57649 14.7032
  678 -73.6077 5.14871 -17.2500
  679 -73.4406 5.13813 17.2155
  680 656.097 -10.4047 0.360912
  681 2.00414 -23.8310 -42.5784
  682 656.553 -10.9087 -1.11083
  683 846.322 64.3713 -7.13811
  684 -81.5128 0.416926 14.0081
  685 -81.5991 0.416106 -14.0334
  686 92.9109 27.8058 -12.4411
  687 92.2580 28.1026 12.4716
  688 -148.800 -0.110950 -1.10737
  689 -148.569 -0.110675 1.10472
  690 2.64242 -21.1418 42.4954
  691 -50.0930 0.929077 30.1286
  692 -50.1795 0.924445 -30.1824
  693 722.678 -53.0441 -18.6588
  694 123.262 0.788930 -1.32909
  695 123.197 0.789948 1.32946
  696 34.6512 9.31682 7.66431
  697 34.5237 9.33233 -7.67588
  698 390.531 -15.5420 -106.532
  699 393.171 -16.1654 108.379
  700 1293.52 93.7575 107.558
  701 28.0275 -98.2631 -52.6581
  702 -8.73170 -18.8875 43.0781
  703 -8.73238 -18.9746 -43.1932
  704 88.9241 16.4612 -4.17124
  705 89.0313 16.4335 4.16938
  706 583.779 -1.52621 -4.55654
  707 584.004 -1.52996 4.55848
  708 287.521 2.02123 4.08889
  709 287.484 2.02128 -4.08485
  710 28.6282 21.5057 27.7357
  711 28.4464 21.5666 -27.8106
  712 23.6982 3.91041 2.82103
  713 23.5716 3.91469 -2.82627
  714 -14.0601 5.08555 42.7554
  715 -14.1949 5.07210 -42.8629
  716 483.785 -2.28433 3.75840
  717 483.626 -2.28147 -3.75478
  718 422.008 1.18216 10.0854
  719 421.887 1.18775 -10.0778
  720 61.2845 -23.3021 61.5574
  721 62.8440 -25.9625 -59.7862
  722 -29.5299 7.53156 37.2423
  723 -29.6670 7.53554 -37.3276
  724 19.6102 -33.7853 16.5418
  725 5.08677 13.9022 37.9328
  726 4.86850 13.9278 -38.0091
  727 -86.4117 2.24828 -9.55395
  728 -86.2276 2.24351 9.53562
  729 81.1079 22.8776 8.86642
  730 80.9612 22.9328 -8.87271
  731 653.998 -18.9379 -29.5852
  732 618.664 -52.1647 -22.5163
  733 -9.63017 -19.7947 31.1510
  734 -9.62196 -19.8959 -31.1191
  735 248.258 8.78591 -161.464
  736 242.185 13.6737 162.634
  737 153.984 29.2276 -30.9240
  738 153.575 29.5036 31.1635
  739 14.7362 -19.2722 31.8898
  740 -0.823266 -66.4273 -17.6629
  741 312.537 14.9463 -40.2603
  742 312.647 14.8859 40.4351
  743 0.729070 -129.418 16.0568
  744 190.070 23.4635 -14.4972
  745 190.001 23.4998 14.5631
  746 614.796 -1.44913 -11.1931
  747 614.972 -1.51576 11.0863
  748 13.1981 -160.726 9.15865
  749 288.194 18.7752 31.1627
  750 288.143 18.8003 -31.0529
  751 82.1940 28.7675 -1.20400
  752 82.6156 28.5005 1.13864
  753 -110.252 0.719233 -9.59203
  754 -110.118 0.718541 9.57243
  755 316.504 2.58394 -7.54286
  756 316.559 2.58211 7.55007
  757 200.555 26.5939 -23.0922
  758 200.456 26.6554 23.2173
  759 6.73739 16.9161 28.4307
  760 6.56500 16.9611 -28.4920
  761 620.433 -44.8187 14.7767
  762 -88.4782 1.58497 7.15008
  763 -88.6681 1.58751 -7.16151
  764 1291.81 276.085 -195.759
  765 -27.9413 2.78604 6.97810
  766 -28.0985 2.79109 -6.98960
  767 524.794 -0.437818 21.0619
  768 524.596 -0.362887 -21.0855
  769 974.492 57.5783 -1.37044
  770 588.843 -2.50082 -8.44413
  771 589.062 -2.51341 8.43787
  772 384.246 2.85928 12.9328
  773 384.147 2.86836 -12.9219
  774 571.742 -55.1116 173.202
  775 255.125 15.6180 -13.5416
  776 255.139 15.6184 13.5747
  777 6.32937 -91.8636 16.4788
  778 654.168 -75.9312 63.5389
  779 398.814 -1.48843 2.14886
  780 398.708 -1.48712 -2.14713
  781 515.895 -1.32768 1.13259
  782 515.715 -1.32630 -1.13132
  783 -2.16060 -51.6437 -30.3000
  784 3.56806 -85.0836 27.3301
  785 243.310 25.5167 43.2770
  786 243.361 25.4765 -43.0077
  787 1273.17 10.4360 12.0808
  788 409.718 1.66808 -51.1489
  789 409.965 1.51885 51.2912
  790 -79.9757 2.65164 20.6879
  791 -80.1252 2.65812 -20.7288
  792 18.9934 -63.2653 0.193880
  793 12.0813 -148.113 -17.3518
  794 919.935 121.656 -28.4721
  795 -0.764626 -66.3082 15.9601
  796 22.7361 15.3411 32.8298
  797 22.6570 15.3246 -33.0369
  798 131.471 22.9376 -1.26644
  799 131.368 22.9836 1.28624
  800 614.084 -28.5991 -13.8728
  801 615.707 -28.1282 12.1846
  802 708.042 144.309 -287.821
  803 -90.5358 0.515799 -2.78976
  804 -90.3421 0.515059 2.78369
  805 -46.4921 -0.140843 11.8634
  806 -46.5128 -0.143135 -11.8789
  807 48.8640 8.23031 4.47747
  808 47.8652 8.19594 -4.61603
  809 469.816 -4.36583 45.8123
  810 469.494 -4.03381 -45.6671
  811 244.378 3.58724 -3.06118
  812 244.387 3.58877 3.06467
  813 752.569 -1.72828 52.1649
  814 87.8714 11.0142 -3.87226
  815 87.9703 10.9978 3.86899
  816 79.4602 15.1613 -20.5052
  817 78.7720 15.4839 20.6445
  818 0.398040 -49.2607 -39.4598
  819 1038.98 190.600 169.781
  820 -147.314 0.0354086 -3.82186
  821 -147.094 0.0353091 3.81491
  822 -0.204335 -156.188 14.6290
  823 13.2226 -19.1378 -32.4275
  824 -23.3198 -1.37477 8.94057
  825 -23.3137 -1.37870 -8.94509
  826 845.179 62.4942 -27.5827
  827 229.132 19.8305 -17.1492
  828 229.113 19.8440 17.2136
  829 581.222 -9.98138 -23.2689
  830 581.818 -10.0387 23.0322
  831 -141.784 0.942133 5.28706
  832 -141.988 0.943695 -5.29719
  833 -1.08835 -1.12204 -0.953695
  834 -1.09056 -1.12399 0.957459
  835 0.396647 -159.536 -14.1018
  836 0.733138 -165.154 -11.8233
  837 -152.521 1.31115 0.642187
  838 -152.758 1.31153 -0.643258
  839 94.7762 -7.32041 -111.099
  840 364.451 1.65163 -4.10850
  841 364.536 1.65122 4.11212
  842 -1.81606 1.63753 0.852264
  843 -1.95720 1.63822 -0.853370
  844 532.979 -0.220385 -13.8343
  845 533.168 -0.244784 13.8284
  846 -60.9320 0.415235 11.2273
  847 -60.9716 0.415188 -11.2438
  848 331.328 21.2820 -237.066
  849 563.441 -46.7882 52.3434
  850 439.589 -0.343489 -4.69132
  851 439.721 -0.345459 4.69543
  852 558.802 -50.6781 -57.8441
  853 181.831 17.2199 -7.75007
  854 181.782 17.2381 7.77830
  855 247.091 13.0692 -10.7183
  856 247.099 13.0713 10.7403
  857 653.152 -13.5322 22.7079
  858 45.6127 24.6186 21.3592
  859 45.4108 24.7046 -21.4527
  860 50.6677 1.18807 1.10805
  861 50.5584 1.18936 -1.11033
  862 312.270 1.12410 3.61803
  863 312.219 1.12420 -3.61485
  864 795.022 -57.1627 104.653
  865 502.296 0.798144 -18.4085
  866 502.477 0.753352 18.4006
  867 16.1266 6.36107 5.97090
  868 15.9926 6.37057 -5.98103
  869 501.463 -2.24721 5.32604
  870 501.292 -2.24362 -5.32133
  871 -83.9885 -0.118475 -2.25318
  872 -83.7959 -0.117715 2.25119
  873 -0.399125 -50.9362 14.3077
  874 -0.536869 -51.7291 -14.4081
  875 616.875 -6.35417 56.9972
  876 -32.4812 9.49140 30.7214
  877 -32.6342 9.51167 -30.7892
  878 -0.181751 -83.4496 -15.6553
  879 246.742 6.14689 -5.76344
  880 246.752 6.14914 5.77012
  881 447.655 -21.7698 -81.8474
  882 450.861 -24.0480 82.6022
  883 -17.5590 -5.65205 -43.1380
  884 -17.4667 -5.64573 43.0297
  885 29.9449 21.1512 25.2144
  886 29.7659 21.2099 -25.2710
  887 2.06407 -185.046 9.19841
  888 10.6120 17.3077 34.1165
  889 10.4215 17.3467 -34.1934
  890 414.341 -7.71004 -72.9876
  891 413.378 -7.95050 73.5502
  892 713.988 45.4398 61.8088
  893 169.989 15.8396 5.23104
  894 170.041 15.8229 -5.21375
  895 513.927 1.23863 -13.6674
  896 514.105 1.22127 13.6686
  897 -19.3750 -8.12137 38.3285
  898 -19.4205 -8.15825 -38.4091
  899 1.94806 -187.625 -4.54898
  900 -29.8596 -1.56533 37.3610
  901 -29.9324 -1.57417 -37.4285
  902 26.4288 18.4719 -19.2685
  903 26.5868 18.4275 19.2317
  904 -1.57010 -13.0055 7.15389
  905 -1.58848 -12.9937 -7.16508
  906 51.0712 20.8504 -16.2653
  907 51.2332 20.7952 16.2366
  908 11.6759 -12.0171 36.9687
  909 10.3411 -11.1431 -39.2454
  910 504.961 -15.5681 47.1175
  911 503.836 -14.9551 -47.2703
  912 -156.359 0.247644 -0.944655
  913 -156.121 0.247742 0.942916
  914 -14.4401 -1.26139 6.77692
  915 -14.4289 -1.26389 -6.77600
  916 0.652085 -118.234 -14.1343
  917 -15.1438 -6.40448 -19.1280
  918 -15.1345 -6.38678 19.1255
  919 -60.9149 5.44633 26.5876
  920 -61.0564 5.45650 -26.6434
  921 164.540 29.4580 -15.6868
  922 164.385 29.5629 15.7789
  923 687.893 52.1293 -6.73661
  924 -1.91061 14.7982 25.7915
  925 -2.07493 14.8345 -25.8443
  926 255.963 17.2005 -78.4252
  927 255.902 17.4280 79.1486
  928 -23.3504 10.0072 20.6490
  929 -23.5099 10.0316 -20.6907
  930 801.679 -26.3565 2.30536
  931 518.290 20.7480 27.0750
  932 600.297 -5.60183 -51.5165
  933 441.845 3.37729 -31.0220
  934 442.036 3.27237 31.0500
  935 -38.8741 5.50360 -9.35962
  936 -38.7115 5.49369 9.34176
  937 -100.075 1.70072 12.8923
  938 -100.248 1.70522 -12.9187
  939 -6.16443 -20.1824 -22.1505
  940 -6.11632 -20.1929 22.1855
  941 163.695 7.77361 3.21037
  942 163.739 7.76657 -3.20617
  943 -46.2826 5.33891 33.4914
  944 -46.4032 5.33992 -33.5617
  945 522.121 -1.79067 6.84488
  946 521.937 -1.78659 -6.83959
  947 -3.72082 -43.8116 32.9914
  948 26.6091 16.6377 -16.2404
  949 26.7585 16.6017 16.2117
  950 35.0209 10.8709 9.90036
  951 34.8889 10.8914 -9.91575
  952 99.3388 6.55343 -1.04745
  953 99.4219 6.54596 1.04543
  954 976.325 144.683 -49.0054
  955 -4.05389 -1.07653 -2.74406
  956 -4.06244 -1.07624 2.74883
  957 37.9692 12.8238 -19.4028
  958 38.5833 12.5689 19.2643
  959 360.173 11.6726 -33.7082
  960 360.308 11.5945 33.7905
  961 53.2863 13.9461 -8.93700
  962 53.4134 13.9203 8.92432
  963 100.721 9.50839 143.333
  964 660.515 -5.27898 -6.52650
  965 659.897 -5.09125 5.99213
  966 124.679 6.12475 127.595
  967 132.556 3.19063 -1.36555
  968 132.497 3.19345 1.36585
  969 330.603 -0.170620 -205.654
  970 250.045 1.47087 1.88596
  971 250.032 1.46968 -1.88460
  972 33.8749 -24.7729 -0.0441367
  973 37.4203 -19.6637 2.85350
  974 582.137 -1.14562 2.33116
  975 581.913 -1.14427 -2.32850
  976 -47.4967 0.310703 27.6381
  977 -47.5618 0.306554 -27.6819
  978 1047.57 133.792 70.9173
  979 -3.82065 -31.7004 -42.7588
  980 6.45995 -145.784 25.7249
  981 -0.304699 -50.8795 39.1840
  982 603.140 -1.24754 -8.61301
  983 603.354 -1.26585 8.59454
  984 -7.93486 -14.6072 19.1985
  985 -7.95926 -14.6124 -19.1837
  986 771.229 83.9993 -27.9756
  987 1289.14 9.38325 -7.98818
  988 -1.99075 -3.10607 -2.98652
  989 -1.98837 -3.11254 2.99080
  990 358.349 1.36993 -7.54007
  991 358.430 1.36777 7.54643
  992 -3.85670 -30.3529 42.9098
  993 494.113 0.0207456 27.2813
  994 493.907 0.131915 -27.2873
  995 650.336 -41.2755 -18.7469
  996 -22.4189 -4.54324 21.5208
  997 -22.4328 -4.56180 -21.5363
  998 12.2373 -37.3900 27.5369
  999 -0.827343 -77.9643 30.7889
  1000 -0.101881 -82.8578 15.6563
  1001 686.047 42.3577 -4.31134
  1002 772.264 85.2935 12.3547
  1003 548.100 -58.8572 -98.4856
  1004 8.71457 -72.4549 21.7222
  1005 10.8365 -102.528 0.653781
  1006 159.324 1.39644 0.0763430
  1007 159.281 1.39785 -0.0764996
  1008 -6.02585 -6.88257 -9.27525
  1009 -6.01969 -6.88253 9.28144
  1010 6.03821 -59.6042 -30.7894
  1011 438.783 -1.72128 -1.72558
  1012 438.914 -1.72288 1.72718
  1013 93.7694 7.20610 -52.1761
  1014 89.8561 7.40957 51.6963
  1015 -3.89520 14.1684 35.0165
  1016 -4.07776 14.2033 -35.1039
  1017 -46.4193 7.64648 -21.5009
  1018 -46.2583 7.62923 21.4576
  1019 342.804 5.34868 -75.3876
  1020 342.907 5.69214 76.1257
  1021 249.432 21.2443 -54.9318
  1022 249.349 21.2646 55.3542
  1023 268.686 16.4337 -19.8775
  1024 268.710 16.4246 19.9291
  1025 685.530 -14.1150 -63.6616
  1026 -14.6503 9.04094 39.3633
  1027 -14.8111 9.04734 -39.4729
  1028 483.700 -2.61914 37.6515
  1029 483.420 -2.37184 -37.6103
  1030 -2.05097 -22.9479 44.2908
  1031 -38.5193 -1.16521 20.6305
  1032 -38.5484 -1.17218 -20.6572
  1033 441.941 1.65891 -37.6440
  1034 442.169 1.50812 37.6931
  1035 565.473 15.5144 -46.1953
  1036 -0.346431 -77.2744 -32.2486
  1037 -6.00094 -30.2960 38.9705
  1038 -6.26853 -30.7040 -38.6624
  1039 315.769 15.6343 -28.7371
  1040 315.849 15.5923 28.8206
  1041 393.158 4.50483 15.8938
  1042 393.051 4.52018 -15.8805
  1043 649.025 -40.3322 15.8690
  1044 41.2496 1.60807 -0.271394
  1045 41.3642 1.60703 0.270690
  1046 553.586 -65.7220 104.924
  1047 6.08480 0.872244 1.80356
  1048 5.94837 0.873226 -1.80691
  1049 126.325 29.9636 -5.34855
  1050 126.134 30.0747 5.38898
  1051 51.3933 23.7928 17.9900
  1052 51.2173 23.8581 -18.0287
  1053 6.63374 -90.8271 -17.2425
  1054 167.215 3.67002 2.02463
  1055 167.255 3.66661 -2.02256
  1056 509.584 15.8142 11.3120
  1057 443.798 0.916059 14.4715
  1058 443.661 0.932483 -14.4631
  1059 -1.55903 -23.9735 -44.3754
  1060 665.180 -8.74769 -10.8928
  1061 2.23343 -0.226502 43.0274
  1062 2.76323 0.0955317 -42.7693
  1063 598.788 -1.61686 -4.79087
  1064 599.020 -1.62136 4.79062
  1065 639.207 -2.83510 -8.48513
  1066 639.259 -2.90838 8.31192
  1067 -0.474422 -125.266 11.6724
  1068 382.966 6.88862 -20.8973
  1069 383.072 6.86100 20.9177
  1070 461.878 1.86454 16.6402
  1071 461.727 1.88710 -16.6336
  1072 13.9360 12.5361 37.5392
  1073 13.8589 12.5309 -37.6097
  1074 996.619 62.9090 13.3847
  1075 -11.1654 -4.23697 45.4427
  1076 -11.3842 -4.12127 -45.5749
  1077 151.171 26.8459 -6.65554
  1078 151.066 26.9040 6.69725
  1079 -71.6426 0.747424 -3.20833
  1080 -71.4595 0.746736 3.20279
  1081 244.300 16.3127 -89.8692
  1082 243.904 16.9507 90.7784
  1083 74.3106 26.9193 12.2224
  1084 74.1211 27.0016 -12.2483
  1085 167.883 22.4158 -68.8048
  1086 167.029 23.1847 69.2631
  1087 -3.99749 -41.1959 -32.1891
  1088 582.137 9.99539 62.6226
  1089 399.899 18.4207 263.762
  1090 69.8957 28.1858 12.5265
  1091 69.6791 28.2904 -12.5717
  1092 246.154 10.0465 -8.46595
  1093 246.162 10.0477 8.48096
  1094 860.318 19.3990 1.98759
  1095 60.5895 17.5564 4.56497
  1096 59.8542 17.7149 -4.81455
  1097 -25.2429 -5.33402 28.4486
  1098 -25.2711 -5.36122 -28.4837
  1099 -0.824038 -19.3764 7.77794
  1100 -0.858206 -19.3663 -7.81002
  1101 567.401 -2.26329 21.6545
  1102 567.128 -2.07760 -21.7528
  1103 1.68143 -37.6215 41.2520
  1104 -37.1174 2.89348 -36.9369
  1105 -37.0184 2.90118 36.8667
  1106 0.173282 -149.866 -14.3597
  1107 -7.56902 -10.9526 45.3891
  1108 -7.53568 -10.6815 -45.4358
  1109 540.600 -0.859374 -9.12030
  1110 540.795 -0.867747 9.12354
  1111 561.161 -6.07040 26.4699
  1112 560.728 -5.76418 -26.5578
  1113 104.360 25.3290 -27.9478
  1114 103.584 25.7300 28.0997
  1115 -1.22189 -77.2578 -26.6662
  1116 734.738 -50.7102 -158.858
  1117 950.678 140.510 27.6411
  1118 10.9556 -107.309 3.48046
  1119 39.0182 21.2853 -25.1765
  1120 39.2423 21.1825 24.9937
  1121 98.5276 30.1734 1.92363
  1122 98.2813 30.3119 -1.92923
  1123 201.785 9.07448 4.84038
  1124 201.806 9.06925 -4.83116
  1125 -11.8986 -16.9533 36.6760
  1126 -11.8847 -17.1269 -36.7437
  1127 -30.7696 10.9144 27.9362
  1128 -30.9274 10.9390 -27.9944
  1129 -8.11335 14.2232 32.2315
  1130 -8.28420 14.2569 -32.3061
  1131 539.694 -27.8330 -46.9966
  1132 542.935 -27.9467 46.7490
  1133 0.736820 -87.0720 -30.2909
  1134 295.151 2.30009 -110.488
  1135 295.484 3.17358 112.088
  1136 98.8127 26.5783 -4.03038
  1137 98.9593 26.5092 4.03412
  1138 284.367 182.177 292.521
  1139 78.9968 20.8341 8.60799
  1140 78.8631 20.8782 -8.61511
  1141 728.982 -71.1589 -47.1003
  1142 282.615 4.90898 6.49803
  1143 282.582 4.90955 -6.49030
  1144 -12.2586 -10.8690 22.7370
  1145 -12.2707 -10.8978 -22.7347
  1146 -14.5105 -12.9279 29.2339
  1147 -14.5154 -12.9829 -29.2440
  1148 485.738 -43.6784 -151.494
  1149 494.542 -48.5052 152.524
  1150 94.9080 1.42282 1.91361
  1151 94.9902 1.42130 -1.91340
  1152 309.879 13.5494 -62.3180
  1153 309.815 13.4049 62.8533
  1154 656.919 -79.4626 118.823
  1155 577.538 -1.87749 1.32524
  1156 577.319 -1.87591 -1.32367
  1157 -47.7097 8.09058 25.0650
  1158 -47.8671 8.10772 -25.1160
  1159 -83.8497 2.37359 -12.6975
  1160 -83.6701 2.36761 12.6752
  1161 157.300 22.5844 183.305
  1162 493.014 31.3396 -23.0731
  1163 283.516 17.8200 -32.5326
  1164 283.567 17.7969 32.6746
  1165 841.598 -1.70216 172.699
  1166 288.335 17.6546 -46.5101
  1167 288.389 17.5980 46.7544
  1168 78.4576 7.27645 -2.41989
  1169 78.5548 7.26724 2.41599
  1170 26.6083 -76.0544 23.9805
  1171 26.8223 -73.3630 -30.9747
  1172 387.699 -22.0400 -153.202
  1173 392.637 -20.3078 152.919
  1174 156.451 27.5804 -50.1525
  1175 155.791 28.0633 50.5266
  1176 671.999 -41.3661 -39.3391
  1177 -22.7838 -1.26284 41.8168
  1178 -22.8804 -1.26528 -41.9014
  1179 0.389631 -33.4266 -42.4469
  1180 178.485 13.1234 -118.065
  1181 178.833 13.5099 119.816
  1182 -0.421867 -34.1905 8.62461
  1183 -0.361799 -34.2762 -8.73465
  1184 -155.101 1.23333 -3.66919
  1185 -154.882 1.23232 3.66230
  1186 527.523 -1.69613 -2.70788
  1187 527.711 -1.69833 2.71098
  1188 334.223 9.42773 -18.9267
  1189 334.301 9.40478 18.9582
  1190 -9.93041 1.22789 45.0527
  1191 -9.95896 1.42634 -45.1426
  1192 -0.0316805 -134.859 -12.8864
  1193 -133.058 0.264114 6.24773
  1194 -133.235 0.264821 -6.26077
  1195 112.026 8.15636 -85.7661
  1196 111.277 8.84875 88.1782
  1197 622.382 -37.6421 -7.58938
  1198 185.647 17.5073 -106.472
  1199 185.743 17.8466 107.308
  1200 -75.2655 0.428930 10.1490
  1201 -75.3249 0.428247 -10.1655
  1202 2.21040 -113.389 -20.0231
  1203 -13.7058 3.63231 -3.90684
  1204 -13.5571 3.62827 3.89974
  1205 101.391 21.7949 4.85943
  1206 101.265 21.8428 -4.85528
  1207 353.196 -0.776682 -2.33651
  1208 353.274 -0.777363 2.33830
  1209 470.897 0.0463601 10.9806
  1210 470.745 0.0566660 -10.9743
  1211 28.9761 0.764384 20.3372
  1212 28.5568 0.293833 -20.8533
  1213 5.20080 -63.9933 31.0623
  1214 847.938 123.994 12.6160
  1215 -25.9775 -1.94673 16.3456
  1216 -25.9860 -1.95574 -16.3577
  1217 4.18816 -59.9682 -32.9303
  1218 -2.38204 -39.1946 23.8090
  1219 -2.27583 -38.7719 -24.6513
  1220 667.212 -7.47055 9.57341
  1221 0.556990 -153.679 13.0813
  1222 5.99507 -43.2962 -36.8197
  1223 88.7299 0.709054 0.543248
  1224 88.6443 0.709815 -0.543955
  1225 -5.92428 -26.7306 42.5042
  1226 -66.7095 3.66494 -10.3343
  1227 -66.5338 3.65870 10.3162
  1228 1313.66 21.5445 38.9278
  1229 -36.1782 4.90729 36.9848
  1230 -36.2951 4.90325 -37.0625
  1231 330.000 11.7987 -56.2469
  1232 330.206 11.6142 56.5362
  1233 23.3347 -25.5354 -10.9952
  1234 313.194 13.2009 -23.9838
  1235 313.263 13.1699 24.0430
  1236 13.9842 -84.5178 0.517837
  1237 -5.95653 -26.8134 -42.4744
  1238 -43.1297 1.20461 5.65387
  1239 -43.2955 1.20712 -5.66306
  1240 -21.3379 2.64925 -42.3764
  1241 -21.2190 2.66097 42.2957
  1242 672.623 55.5080 42.6840
  1243 379.568 2.82794 -58.6166
  1244 379.941 2.77559 58.7556
  1245 -160.518 0.242464 -1.12716
  1246 -160.282 0.242394 1.12454
  1247 340.616 5.39399 -12.7035
  1248 340.687 5.38770 12.7163
  1249 -163.107 -3.06729 -0.485408
  1250 -163.351 -3.06960 0.485542
  1251 506.021 -35.3326 -67.2497
  1252 -77.0739 1.40505 21.0271
  1253 -77.1848 1.40486 -21.0681
  1254 510.753 -37.3187 66.6453
  1255 347.266 9.82374 -25.1982
  1256 347.360 9.78302 25.2409
  1257 42.5412 -60.0942 -84.5455
  1258 0.808177 -105.539 -25.7644
  1259 -1.79353 -44.0281 39.7566
  1260 1049.04 211.267 -174.527
  1261 -0.189758 -99.9078 25.6611
  1262 1101.61 104.884 -76.8333
  1263 -0.753360 -185.631 -11.7680
  1264 62.7560 3.78540 -0.109973
  1265 62.8589 3.78125 0.107510
  1266 -0.443309 -43.8321 9.02784
  1267 -0.350468 -44.0724 -9.01009
  1268 198.297 2.30772 1.02693
  1269 198.316 2.30588 -1.02606
  1270 678.287 -47.6396 36.8617
  1271 22.3259 3.82131 -4.52109
  1272 22.4540 3.81613 4.51404
  1273 3.92402 -196.140 3.38256
  1274 2.50829 -209.808 -3.42162
  1275 623.533 -72.4551 -74.2332
  1276 -1.60790 -55.7869 26.1220
  1277 666.789 46.6053 -56.1461
  1278 -1.92677 -73.4856 25.5677
  1279 1.38961 -197.353 -8.17093
  1280 319.058 6.19274 -14.4179
  1281 319.117 6.17925 14.4385
  1282 -0.272333 -110.535 11.5470
  1283 -0.227501 -90.6019 -25.8285
  1284 1419.13 270.248 227.673
  1285 579.966 -0.252624 0.975447
  1286 579.746 -0.252114 -0.974580
  1287 18.5365 4.14167 33.2726
  1288 18.0012 4.77751 -33.4611
  1289 -5.96795 9.66368 41.4167
  1290 -6.21120 9.66237 -41.5501
  1291 634.012 -10.8199 -36.5913
  1292 582.669 -25.0737 -28.2125
  1293 582.237 -28.3563 28.6767
  1294 95.3319 8.38867 2.06174
  1295 95.2418 8.39993 -2.06401
  1296 -91.3320 2.39585 -15.7779
  1297 -91.1691 2.39044 15.7449
  1298 648.725 -81.1033 -102.814
  1299 -4.78899 -11.7217 12.0545
  1300 -4.80867 -11.7160 -12.0507
  1301 687.662 -25.0077 60.1852
  1302 -6.87355 -26.4131 31.8720
  1303 -6.79377 -26.5150 -31.7271
  1304 -52.8695 3.30102 6.88055
  1305 -53.0401 3.30614 -6.89295
  1306 109.949 17.2178 -47.8564
  1307 108.885 17.7985 47.7915
  1308 170.253 2.21056 -0.454505
  1309 170.216 2.21264 0.454746
  1310 -62.0336 6.47925 25.1324
  1311 -62.1845 6.49171 -25.1828
  1312 546.065 0.221972 1.51558
  1313 545.865 0.222297 -1.51429
  1314 311.696 7.29285 203.410
  1315 450.568 -1.19800 3.91230
  1316 450.430 -1.19628 -3.90885
  1317 308.361 6.99812 -84.9287
  1318 308.330 6.67062 85.5680
  1319 3.19775 -111.807 -12.3885
  1320 123.442 29.8394 -23.9161
  1321 122.907 30.1665 24.0754
  1322 -1.22841 -1.03451 -1.56430
  1323 -1.23450 -1.03464 1.56877
  1324 390.907 9.12271 31.8027
  1325 390.759 9.20943 -31.7516
  1326 199.721 13.3373 7.58422
  1327 199.749 13.3283 -7.56554
  1328 289.419 13.2301 -17.1341
  1329 289.461 13.2174 17.1713
  1330 373.043 -0.412910 -3.96216
  1331 373.133 -0.413828 3.96533
  1332 -11.7528 -5.62091 -13.5821
  1333 -11.7482 -5.61258 13.5863
  1334 -104.717 -0.269615 4.05130
  1335 -104.918 -0.269233 -4.05901
  1336 -19.5474 -8.75086 -32.5308
  1337 -19.5241 -8.70276 32.4879
  1338 -54.7299 0.153626 1.59507
  1339 -54.9038 0.153319 -1.59755
  1340 -165.480 1.41470 0.627398
  1341 -165.725 1.41531 -0.628443
  1342 693.827 -75.9224 137.481
  1343 528.824 -1.85846 -51.8679
</Section>

newXOutput 84

<Section columns = "stress_xx | stress_yy | stress_xy">
  1 602.895 -1.28232 0.670761
  2 603.129 -1.28341 -0.671111
  3 -181.250 0.750919 -2.52435
  4 0.285802 0.0582817 0.515606
  5 1067.64 359.065 366.416
  6 1208.17 401.655 -354.191
  7 0.284285 0.0569369 -0.513586
  8 -180.990 0.750803 2.52268
  9 601.204 -1.23801 -2.01460
  10 601.784 -2.16905 -3.20548
  11 607.389 -2.19285 -0.927418
  12 608.187 -2.20463 -3.87543
  13 610.086 -2.20296 -1.34370
  14 622.555 -2.00180 -1.80579
  15 627.167 -2.74828 -5.21399
  16 632.423 -1.51258 -3.66168
  17 636.088 -0.413211 -7.04563
  18 661.305 -4.11340 -6.02399
  19 672.815 -3.36618 -7.64481
  20 685.919 -4.78392 -3.48478
  21 692.929 -6.09143 -2.52588
  22 690.947 -6.76072 7.34735
  23 671.638 -7.29917 16.2895
  24 624.991 -7.46729 35.9316
  25 546.732 5.33618 42.1597
  26 484.213 6.92739 38.4990
  27 395.256 11.9368 23.2373
  28 418.051 11.5822 2.85926
  29 359.642 33.2800 -14.3683
  30 463.823 15.8425 -43.0192
  31 518.943 4.54299 -34.9471
  32 614.334 -1.21850 -30.3819
  33 665.643 -8.84672 -19.7437
  34 690.408 -7.85234 -7.25168
  35 692.026 -5.92823 2.59760
  36 685.339 -4.73048 3.33402
  37 672.685 -3.38310 7.46304
  38 661.372 -4.15678 5.92568
  39 636.283 -0.436814 7.00508
  40 632.657 -1.52149 3.64900
  41 627.417 -2.75457 5.21298
  42 622.808 -2.00530 1.80601
  43 610.331 -2.20568 1.34514
  44 608.429 -2.20697 3.87913
  45 607.629 -2.19472 0.928888
  46 602.019 -2.17079 3.20823
  47 601.437 -1.23910 2.01632
  48 570.398 0.673922 -0.794162
  49 530.181 -0.784948 -1.68935
  50 479.598 -3.52179 -1.59145
  51 426.812 -0.720248 -1.32309
  52 380.207 -1.34108 -1.03402
  53 330.030 0.219616 -1.20814
  54 280.196 2.88274 -0.648523
  55 228.142 2.37639 -1.49749
  56 184.751 1.13479 -2.15642
  57 127.513 0.135751 -2.27189
  58 69.1242 1.63645 -1.74884
  59 20.2300 1.42461 -1.69241
  60 -40.9939 0.632082 -1.51286
  61 -86.5314 -1.17051 -3.95539
  62 -130.687 -3.31305 -1.77754
  63 -175.621 0.256352 1.30558
  64 -185.548 3.17003 -0.342978
  65 -186.472 1.34103 0.724032
  66 -180.386 0.602807 -0.0359636
  67 -183.061 2.00581 -2.09075
  68 -180.508 2.47334 0.0842978
  69 -171.057 0.698288 -3.28023
  70 -173.957 1.53831 -3.57092
  71 -170.035 1.43948 -1.87290
  72 -157.729 0.859366 -2.95930
  73 -152.672 1.65928 -5.09212
  74 -143.738 1.89088 -4.09003
  75 -127.618 0.952029 -7.40447
  76 -118.665 0.299550 -6.17507
  77 -102.130 0.427026 -7.21708
  78 -87.9997 0.375645 -8.08897
  79 -75.5099 0.144033 -6.38893
  80 -57.9691 0.394216 -6.46258
  81 -42.7717 -0.126671 -6.95472
  82 -28.0474 -0.732525 -6.16613
  83 -16.3211 -0.647020 -4.75999
  84 -8.09321 -1.16123 -4.00425
  85 -1.46432 -0.673641 -1.46343
  86 0.0104711 -0.767416 -0.545528
  87 -0.410286 -0.466590 -0.141126
  88 -1.05731 -1.22340 -1.28706
  89 -1.02957 -6.86665 -3.48711
  90 -0.861325 -15.2457 -4.91820
  91 -0.432494 -25.7880 -7.13963
  92 -0.209646 -39.5044 -6.14584
  93 -0.138445 -51.9970 -7.72268
  94 -0.923682 -67.0802 -8.66440
  95 -0.380623 -85.8118 -8.68845
  96 0.172836 -104.659 -8.28548
  97 0.402557 -124.777 -8.14289
  98 0.639552 -145.343 -7.95308
  99 -0.0234548 -160.021 -10.7174
  100 1.01541 -181.325 -9.54843
  101 1.29455 -206.114 -7.39593
  102 -0.244535 -215.940 -9.78157
  103 1.83585 -232.811 -8.88762
  104 4.70692 -255.011 -3.16675
  105 9.28363 -258.329 -5.07439
  106 7.10817 -227.369 10.7187
  107 11.3568 -156.424 35.2433
  108 48.5489 -57.8040 91.3547
  109 144.652 287.672 275.186
  110 1630.44 93.5555 166.232
  111 1407.60 25.8660 59.6186
  112 1362.48 8.39316 14.1215
  113 1352.28 1.69921 -2.13392
  114 1361.96 13.5794 -31.3335
  115 1407.53 47.6112 -71.5408
  116 1590.97 182.507 -211.756
  117 353.627 227.241 -334.234
  118 83.5449 -58.4846 -107.809
  119 25.0381 -171.850 -42.6836
  120 7.18507 -214.454 -11.1414
  121 7.58953 -247.935 1.53328
  122 2.08756 -244.559 1.95968
  123 0.647441 -226.921 7.25127
  124 0.764035 -214.702 5.67354
  125 1.14104 -194.448 10.6465
  126 -0.0500990 -183.152 10.5742
  127 0.448693 -165.827 7.56815
  128 0.918456 -143.674 9.81647
  129 0.204339 -127.771 7.76746
  130 0.258540 -104.705 9.83259
  131 -1.04698 -86.8725 8.47825
  132 -0.704082 -67.1291 8.38468
  133 -0.0873125 -51.6953 7.73856
  134 -0.278659 -39.2711 6.15226
  135 -0.419906 -25.7118 7.06810
  136 -0.848129 -15.2361 4.89343
  137 -1.02399 -6.87722 3.48471
  138 -1.05577 -1.23515 1.28970
  139 -0.410191 -0.471568 0.144505
  140 0.00436252 -0.768069 0.548506
  141 -1.47556 -0.673122 1.46706
  142 -8.10919 -1.15986 4.00745
  143 -16.3416 -0.644803 4.76053
  144 -28.0616 -0.729806 6.16278
  145 -42.7709 -0.124423 6.94649
  146 -57.9507 0.394661 6.45305
  147 -75.4671 0.145276 6.37879
  148 -87.9343 0.377232 8.07690
  149 -102.034 0.427120 7.20397
  150 -118.539 0.299640 6.16231
  151 -127.472 0.951451 7.39136
  152 -143.562 1.88963 4.07934
  153 -152.479 1.65784 5.08287
  154 -157.518 0.858406 2.95289
  155 -169.807 1.43837 1.86837
  156 -173.720 1.53745 3.56598
  157 -170.817 0.698072 3.27595
  158 -180.257 2.47192 -0.0860081
  159 -182.806 2.00469 2.08824
  160 -180.130 0.602706 0.0351626
  161 -186.210 1.34041 -0.724027
  162 -185.286 3.16829 0.342407
  163 -175.364 0.256557 -1.30506
  164 -130.460 -3.31036 1.77621
  165 -86.3341 -1.16907 3.95278
  166 -40.8255 0.632217 1.51155
  167 20.3600 1.42391 1.69109
  168 69.2240 1.63520 1.74756
  169 127.577 0.135136 2.27032
  170 184.780 1.13346 2.15506
  171 228.144 2.37442 1.49663
  172 280.165 2.88060 0.648225
  173 329.969 0.219382 1.20752
  174 380.113 -1.34014 1.03351
  175 426.689 -0.719542 1.32243
  176 479.442 -3.51905 1.59075
  177 529.992 -0.783980 1.68844
  178 570.183 0.673857 0.793738
  179 169.633 27.2620 -12.2643
  180 169.512 27.3311 12.3359
  181 -0.198438 6.33221 42.6006
  182 -0.386104 6.27063 -42.6418
  183 375.852 -4.54819 -89.5788
  184 375.485 -5.22205 90.4279
  185 78.9712 21.2044 -11.1785
  186 78.0546 21.4880 11.1731
  187 61.9811 7.87192 -4.41539
  188 62.0926 7.85984 4.40846
  189 352.845 4.03349 -14.2517
  190 352.925 4.02195 14.2680
  191 0.0312974 13.6041 21.5364
  192 -0.130056 13.6372 -21.5793
  193 409.356 7.95362 -34.4974
  194 409.542 7.84632 34.5607
  195 -15.1713 -13.0348 35.8260
  196 -15.1729 -13.1176 -35.8814
  197 4.86810 -29.3124 -40.3671
  198 133.170 15.2541 -86.4741
  199 5.70818 -31.4971 39.2575
  200 131.128 16.2074 87.6122
  201 576.618 -70.9749 -128.453
  202 595.447 -73.7183 123.786
  203 213.727 4.43453 -3.68258
  204 213.715 4.43715 3.68678
  205 -23.8928 1.30857 -3.69004
  206 -23.7354 1.30706 3.68432
  207 -42.3266 7.19016 33.0362
  208 -42.4671 7.20109 -33.1094
  209 215.095 16.8248 -9.66874
  210 215.073 16.8367 9.69557
  211 69.2383 27.8058 11.0196
  212 68.9642 27.9632 -11.1085
  213 -51.7736 5.68967 -12.4069
  214 -51.6028 5.67906 12.3840
  215 462.117 -1.40147 6.44777
  216 461.972 -1.39758 -6.44240
  217 16.5607 -54.3359 13.0476
  218 17.9747 -48.4984 -10.6996
  219 -3.87781 -37.2185 39.9679
  220 -4.01209 -38.8086 -38.7635
  221 200.059 27.9922 -40.3002
  222 199.839 28.1397 40.6034
  223 -39.8548 0.231739 34.4056
  224 -39.9344 0.223531 -34.4657
  225 494.232 0.784077 -18.2018
  226 494.403 0.753131 18.2033
  227 534.294 -9.47433 -36.5505
  228 534.736 -9.96247 36.4865
  229 859.809 62.4559 1.83372
  230 789.495 91.5669 30.4118
  231 770.491 2.77289 -52.9580
  232 102.304 19.7866 4.58808
  233 102.189 19.8257 -4.58675
  234 11.4819 17.7921 31.1996
  235 11.2949 17.8423 -31.2714
  236 597.125 -35.8632 -28.0530
  237 593.779 -36.2629 30.0549
  238 333.875 0.257276 -5.47314
  239 333.939 0.255634 5.47817
  240 -68.7002 5.00668 21.5394
  241 -68.8610 5.01796 -21.5832
  242 -9.97342 -9.79013 -16.4407
  243 -9.96188 -9.78094 16.4475
  244 -73.0220 1.27527 5.87661
  245 -73.2072 1.27796 -5.88707
  246 278.420 17.9954 -25.2061
  247 278.451 17.9799 25.2855
  248 351.892 8.75706 -52.2085
  249 352.115 8.62512 52.4163
  250 92.1775 3.52530 0.792118
  251 92.2644 3.52192 -0.793082
  252 206.924 16.8995 -177.192
  253 243.263 21.5343 191.364
  254 30.8373 14.8224 28.3721
  255 30.7121 15.0971 -28.5337
  256 803.352 -48.3516 -30.9311
  257 77.6004 26.2736 9.67285
  258 77.4332 26.3451 -9.68706
  259 203.930 23.5146 -70.5081
  260 203.509 24.0196 71.1198
  261 903.929 135.133 9.81499
  262 535.890 -1.56871 24.6007
  263 535.651 -1.43257 -24.6359
  264 -4.69722 -29.5785 -25.4819
  265 -4.54187 -29.6898 25.5771
  266 -0.818544 -69.1593 -34.1861
  267 2.89377 -78.7202 -29.9577
  268 1.64521 -79.6534 32.0280
  269 -12.1445 -10.3572 45.1580
  270 -12.2068 -10.3515 -45.3650
  271 31.2835 -54.5247 -19.7594
  272 33.7626 -49.1837 25.1083
  273 -30.5987 -2.44920 22.3298
  274 -30.6232 -2.46156 -22.3551
  275 386.339 7.98599 -21.9687
  276 386.456 7.94859 21.9954
  277 669.631 -64.9577 -14.5715
  278 156.278 10.5092 2.46010
  279 156.332 10.4985 -2.45488
  280 -1.53478 -65.0450 32.7771
  281 21.7052 12.8115 12.6872
  282 21.5606 12.8377 -12.7096
  283 1051.96 71.1882 -34.3365
  284 517.591 -1.29771 7.75080
  285 517.410 -1.29077 -7.74619
  286 358.023 -13.1727 -132.958
  287 360.845 -12.9228 134.725
  288 668.874 -61.7679 3.85241
  289 -61.3563 2.07888 26.9480
  290 -61.4571 2.07767 -26.9991
  291 650.653 -37.1381 213.019
  292 -25.5859 5.42314 40.3235
  293 -25.7089 5.41057 -40.4115
  294 117.952 32.0980 -15.7712
  295 117.487 32.3852 15.8624
  296 -106.404 0.442493 0.911888
  297 -106.614 0.442110 -0.913733
  298 550.186 31.1308 -286.275
  299 -103.178 1.94404 -11.2860
  300 -102.991 1.93945 11.2635
  301 -1.49859 -11.4744 45.0336
  302 0.264410 -11.0182 -44.3834
  303 250.976 23.4500 -35.9786
  304 250.954 23.4686 36.1596
  305 61.8607 4.67863 3.35566
  306 61.7533 4.68459 -3.36082
  307 259.485 7.09416 -8.47806
  308 259.501 7.09482 8.48916
  309 26.5774 -12.7886 19.1574
  310 24.2610 -16.2596 -19.5877
  311 251.935 1.73148 -2.38007
  312 251.947 1.73263 2.38222
  313 -86.4230 2.28747 19.4666
  314 -86.5575 2.29044 -19.5062
  315 66.1451 1.11927 -23.5354
  316 64.3065 1.00457 21.8254
  317 537.751 -1.80192 2.18140
  318 537.557 -1.80002 -2.17888
  319 1160.52 64.5962 50.6897
  320 131.318 14.5781 -0.210008
  321 131.240 14.5983 0.216297
  322 -17.8268 5.01535 7.82946
  323 -17.9819 5.02454 -7.84416
  324 177.415 21.1382 -8.89044
  325 177.347 21.1681 8.93063
  326 24.3187 19.0379 31.9347
  327 24.1650 19.0709 -32.0492
  328 2.80600 -114.927 21.4889
  329 -111.145 -0.209554 -2.29243
  330 -110.934 -0.209104 2.28837
  331 415.965 -1.29308 -4.24701
  332 416.081 -1.29493 4.25063
  333 437.755 0.552448 -11.2513
  334 437.886 0.542075 11.2594
  335 -104.852 1.49580 -7.87847
  336 -104.653 1.49289 7.86468
  337 7.51131 0.856216 0.511102
  338 7.37319 0.856718 -0.512825
  339 -2.38288 -48.8872 25.2987
  340 -1.87902 -50.8557 -25.2602
  341 497.426 -39.1131 -90.9441
  342 515.699 -46.8849 89.4474
  343 298.623 11.5222 -15.8793
  344 298.667 11.5129 15.9065
  345 136.508 30.2969 -10.9719
  346 136.260 30.4422 11.0437
  347 -38.9267 8.23081 18.1047
  348 -39.0908 8.24923 -18.1410
  349 903.163 37.3353 42.9094
  350 52.2161 -52.8718 -65.0085
  351 55.8367 -47.2965 67.5012
  352 -14.3854 14.1063 29.9456
  353 -14.5517 14.1381 -30.0119
  354 -24.0256 -4.35849 40.3018
  355 -24.0992 -4.37469 -40.3855
  356 1026.48 182.604 -66.4526
  357 675.375 -4.41353 72.0870
  358 619.873 -15.6646 -17.8530
  359 619.549 -15.2975 17.0141
  360 441.711 -6.46178 -58.3050
  361 441.160 -6.83030 58.3622
  362 0.900173 -138.483 -16.9257
  363 564.717 -0.119727 -13.6263
  364 564.919 -0.156558 13.6065
  365 7.89597 -127.986 11.4001
  366 678.566 54.0677 -34.6542
  367 169.576 3.14193 1.15825
  368 169.538 3.14459 -1.15913
  369 443.071 1.04143 -43.2300
  370 443.339 0.870937 43.3154
  371 473.469 1.45279 -25.8202
  372 473.650 1.37648 25.8244
  373 0.0420840 4.07319 4.83155
  374 -0.102101 4.07904 -4.84041
  375 280.091 15.4739 -70.8654
  376 280.096 15.6643 71.4008
  377 553.704 -1.51926 3.54921
  378 553.499 -1.51680 -3.54554
  379 324.608 15.1454 -36.5502
  380 324.707 15.0806 36.6741
  381 370.167 2.95510 9.55141
  382 370.080 2.95898 -9.54283
  383 -17.5068 -3.07253 13.9420
  384 -17.5088 -3.08139 -13.9448
  385 -4.21737 -2.98203 -4.16406
  386 -4.21898 -2.98302 4.17017
  387 742.342 -82.3958 65.5159
  388 -9.22859 -22.5684 37.2304
  389 -9.15968 -22.7781 -37.2452
  390 130.361 5.77326 -0.146628
  391 130.427 5.76701 0.146498
  392 -3.64899 -18.6023 14.0237
  393 -3.69241 -18.5766 -14.0277
  394 54.1630 20.4357 13.2010
  395 54.0136 20.4826 -13.2224
  396 606.377 -4.01326 18.2267
  397 606.088 -3.81809 -18.4562
  398 -0.652052 -33.7979 43.5254
  399 -49.5278 -0.781762 20.9439
  400 -49.5749 -0.786996 -20.9756
  401 -0.844210 -35.8365 -43.0436
  402 567.183 -1.09493 8.70458
  403 566.974 -1.08402 -8.70553
  404 -1.53571 13.7100 38.2762
  405 -1.74830 13.7435 -38.3780
  406 425.750 3.64728 -17.6499
  407 425.879 3.62412 17.6616
  408 651.560 -27.5504 -8.92882
  409 652.774 -22.5487 6.21220
  410 -1.18656 -66.3483 -27.5569
  411 63.8932 24.5866 -5.53154
  412 64.4043 24.3602 5.43256
  413 670.252 43.0377 21.1022
  414 376.387 -12.0969 -181.705
  415 385.654 -18.7770 189.522
  416 28.1722 20.0182 22.6921
  417 28.0006 20.0702 -22.7391
  418 278.007 4.63357 -5.80627
  419 278.035 4.63459 5.81234
  420 270.110 71.1199 286.088
  421 117.302 24.5951 -1.33079
  422 117.435 24.5354 1.34547
  423 7.83998 -58.4653 26.8408
  424 -0.777786 -107.250 -23.4595
  425 49.4276 25.1694 19.9269
  426 49.2337 25.2439 -19.9845
  427 61.7822 12.9287 -7.21427
  428 61.9026 12.9066 7.20447
  429 -16.4178 0.196351 -44.6062
  430 -16.2959 0.169654 44.5151
  431 138.470 28.2762 -33.4840
  432 137.874 28.6571 33.7194
  433 660.166 -19.0621 -55.2951
  434 21.3029 -2.81241 31.0669
  435 20.6670 -2.70010 -31.3175
  436 481.496 -21.0441 -64.3553
  437 483.323 -22.3947 64.3281
  438 -114.872 0.807687 -11.4217
  439 -114.699 0.804848 11.3981
  440 -0.00918324 -105.924 21.2762
  441 -0.706910 -67.5622 24.5897
  442 -46.1724 3.40668 34.3859
  443 -46.2770 3.40256 -34.4529
  444 345.356 0.0822811 -2.12531
  445 345.427 0.0819046 2.12732
  446 -9.99666 -15.8187 25.6498
  447 -10.0178 -15.8596 -25.6294
  448 221.765 15.7792 -102.022
  449 221.270 16.6767 102.978
  450 1.86017 -125.705 -22.2541
  451 1157.77 37.5205 0.201313
  452 3.57549 -144.357 -10.2608
  453 -132.380 -0.398245 -3.70655
  454 -132.158 -0.398142 3.70061
  455 -49.5027 7.59782 26.9477
  456 -49.6581 7.61361 -27.0060
  457 -61.9970 0.945014 20.8856
  458 -62.0663 0.944039 -20.9199
  459 240.976 22.1848 -25.7009
  460 240.956 22.2079 25.8099
  461 357.850 11.2335 -28.2112
  462 357.964 11.1775 28.2706
  463 -4.90110 -20.1055 45.2169
  464 -4.90877 -19.9711 -45.4120
  465 627.656 14.7530 -69.4171
  466 45.7234 -4.29244 0.471666
  467 44.1128 -4.69291 0.368464
  468 10.6898 -124.725 -7.51447
  469 7.09924 -146.981 2.45539
  470 -18.2850 -8.02731 26.3528
  471 -18.2988 -8.05895 -26.3699
  472 136.489 14.6282 -155.569
  473 920.328 26.7053 -111.607
  474 219.778 11.0807 8.87870
  475 219.790 11.0747 -8.86236
  476 317.001 4.92788 -96.8255
  477 317.565 4.84229 98.0938
  478 97.7793 31.6230 3.59553
  479 97.5763 31.7338 -3.59963
  480 286.811 19.9075 -53.0965
  481 286.868 19.8400 53.4176
  482 13.3037 7.82628 38.3907
  483 13.9400 8.14608 -38.3420
  484 -118.373 1.53791 -7.98370
  485 -118.172 1.53549 7.96873
  486 614.540 -68.3388 -55.6088
  487 484.102 -1.77604 -2.92726
  488 484.262 -1.77785 2.92999
  489 35.5030 1.86069 -1.54994
  490 35.6244 1.85840 1.54640
  491 -25.6797 11.0316 24.3026
  492 -25.8428 11.0575 -24.3528
  493 -62.8171 3.62815 -8.03306
  494 -62.6392 3.62209 8.01802
  495 220.047 18.3215 -13.2804
  496 220.025 18.3337 13.3220
  497 -21.4734 10.1521 35.5825
  498 -21.6323 10.1723 -35.6686
  499 561.929 -17.1533 -34.9406
  500 562.907 -17.8823 34.6359
  501 375.390 2.97221 -64.9298
  502 374.775 2.77524 65.4361
  503 145.600 4.02916 0.134981
  504 145.654 4.02548 -0.135238
  505 2.03760 -63.1715 -36.3290
  506 661.839 -21.8748 44.9995
  507 10.4679 -38.8861 -30.8440
  508 195.361 29.4220 27.4125
  509 195.517 29.3182 -27.2417
  510 607.920 -63.9244 55.1438
  511 50.3025 -36.3481 86.0435
  512 718.353 -80.1789 -105.421
  513 492.966 -0.317065 31.1986
  514 492.723 -0.160188 -31.1884
  515 2.05341 -53.6697 37.8268
  516 -9.70567 -2.85074 -7.54104
  517 -9.70882 -2.84866 7.54551
  518 69.6784 1.33424 -0.229332
  519 69.7781 1.33301 0.228268
  520 -1.61560 -38.1375 16.3919
  521 -1.46561 -37.9659 -16.4820
  522 406.730 1.42226 7.29413
  523 406.620 1.42437 -7.28811
  524 1120.09 211.625 102.411
  525 51.2612 -19.6532 -23.4439
  526 40.1788 -29.7901 15.0685
  527 -3.49181 7.71278 -10.7450
  528 -3.34118 7.69717 10.7252
  529 -96.8740 1.51272 12.3545
  530 -96.9872 1.51435 -12.3776
  531 1.05167 -118.534 22.5806
  532 -128.670 0.822831 0.764178
  533 -128.894 0.822790 -0.766199
  534 132.404 5.76797 -116.597
  535 129.697 7.56056 120.645
  536 121.955 24.8353 -45.0489
  537 121.064 25.3173 45.2456
  538 -25.6071 -5.03192 35.5526
  539 -25.6564 -5.05743 -35.6141
  540 121.705 8.06994 -0.177481
  541 121.630 8.07931 0.177822
  542 -48.7910 1.82635 2.85996
  543 -48.9632 1.82831 -2.86646
  544 141.569 17.6291 -1.75449
  545 141.487 17.6578 1.76910
  546 -2.64754 -8.79119 6.46935
  547 -2.65710 -8.78458 -6.46849
  548 53.5776 23.2340 16.3460
  549 53.2312 23.5248 -16.4907
  550 43.2717 10.4474 13.3036
  551 42.6950 10.4040 -13.6794
  552 495.646 1.29942 13.0509
  553 495.479 1.31189 -13.0452
  554 442.020 3.20507 21.2981
  555 441.873 3.24640 -21.2866
  556 -0.444138 -102.618 -14.8924
  557 314.885 12.7022 -22.4066
  558 314.948 12.6802 22.4527
  559 314.696 4.24473 -9.04228
  560 314.748 4.24144 9.05272
  561 -31.8528 0.444591 0.349831
  562 -31.6903 0.444787 -0.350510
  563 561.716 28.3565 -13.3429
  564 690.753 -80.4755 -44.8621
  565 591.375 29.0394 51.4664
  566 5.38269 -82.3362 -24.8400
  567 -23.1599 8.95943 -15.1082
  568 -22.9998 8.94121 15.0800
  569 5.93031 -46.8617 34.6635
  570 -28.6921 1.49172 39.9687
  571 -28.7904 1.48306 -40.0433
  572 886.823 84.9000 10.4434
  573 209.223 6.66472 -4.86537
  574 209.207 6.66865 4.87184
  575 1295.43 113.095 -120.835
  576 -4.42056 -3.28495 45.7366
  577 -3.91364 -2.91937 -45.7485
  578 729.658 -57.6102 15.9229
  579 583.234 -0.852514 -15.0374
  580 583.443 -0.916832 14.9890
  581 279.648 5.70805 -138.944
  582 282.694 4.79070 140.805
  583 -14.1562 -13.4702 40.9699
  584 -14.1746 -13.5476 -41.0922
  585 150.089 18.6416 78.3949
  586 151.310 17.6341 -77.8916
  587 -112.208 1.24067 -11.3311
  588 -112.051 1.23859 11.3081
  589 858.992 86.6436 28.1363
  590 172.895 12.8130 4.17928
  591 172.942 12.8002 -4.16858
  592 202.929 25.5846 -54.9616
  593 202.613 25.8785 55.4188
  594 532.360 -3.21540 -30.2553
  595 532.677 -3.44342 30.2379
  596 -2.02955 -52.0275 -36.6171
  597 571.509 -1.62529 4.57387
  598 571.293 -1.62212 -4.57023
  599 -74.2405 0.921817 -0.857632
  600 -74.0518 0.921546 0.854647
  601 -138.306 -1.33717 -0.101780
  602 -138.538 -1.33861 0.101325
  603 13.8161 -72.0884 -7.47410
  604 -5.13400 -34.2552 31.9410
  605 -5.41486 -32.3425 -32.1502
  606 -62.8621 4.12587 28.3920
  607 -62.9857 4.13022 -28.4492
  608 408.855 7.13029 27.2241
  609 408.712 7.19334 -27.1935
  610 303.656 0.927308 2.06130
  611 303.611 0.926678 -2.05963
  612 72.8653 -7.77231 53.2865
  613 74.9373 -6.29601 -52.8779
  614 -2.02592 -26.6694 13.9084
  615 -2.09314 -26.5898 -13.9585
  616 683.312 77.8604 306.918
  617 -34.3415 -0.988048 12.8079
  618 -34.3497 -0.993204 -12.8209
  619 14.0181 -42.9326 -23.2718
  620 298.060 8.63435 -12.2974
  621 298.101 8.62988 12.3149
  622 151.244 30.8941 -22.6145
  623 150.927 31.0890 22.7723
  624 1.41895 -174.244 6.87317
  625 115.295 28.9912 -0.0998384
  626 115.136 29.0747 0.117637
  627 -4.41531 11.4752 18.2764
  628 -4.57274 11.5010 -18.3110
  629 -0.811487 -89.9747 20.2914
  630 -140.349 -0.0988117 -3.77199
  631 -140.126 -0.0989855 3.76564
  632 200.062 2.42584 2.10711
  633 200.082 2.42386 -2.10520
  634 483.030 -0.791678 8.83909
  635 482.872 -0.785572 -8.83271
  636 432.783 -17.1195 235.331
  637 349.241 5.65513 -17.3903
  638 349.322 5.63689 17.4129
  639 8.00831 -4.33221 41.0290
  640 9.42758 -1.37247 -40.7857
  641 552.288 -43.8269 -192.078
  642 1255.14 41.8079 -50.1266
  643 -131.752 -0.0185432 -7.64900
  644 -131.561 -0.0197572 7.63425
  645 42.0085 5.75031 -4.06050
  646 42.1289 5.74210 4.05341
  647 -2.35101 -55.7757 32.6130
  648 751.569 51.7290 -58.4205
  649 564.692 -1.87157 0.855545
  650 564.481 -1.86987 -0.854377
  651 -35.9912 -1.73444 -29.3763
  652 -35.9419 -1.72366 29.3317
  653 -0.130318 -126.901 -19.0470
  654 574.105 -1.75037 1.77443
  655 573.887 -1.74868 -1.77217
  656 61.6333 17.2649 10.7651
  657 61.4994 17.3001 -10.7792
  658 451.097 -34.9737 -127.908
  659 458.581 -34.7440 129.141
  660 642.984 -4.98752 10.8756
  661 642.906 -4.95583 -11.2202
  662 2.92824 -157.489 13.7752
  663 -25.4963 0.0700342 -1.57830
  664 -25.3378 0.0700537 1.57504
  665 216.309 56.7418 -226.977
  666 207.656 1.83898 2.05522
  667 207.671 1.83727 -2.05388
  668 107.545 5.18391 -0.765014
  669 107.466 5.18934 0.764274
  670 125.773 10.7478 1.37243
  671 125.848 10.7342 -1.36902
  672 385.542 8.38759 -42.1768
  673 385.740 8.26183 42.2916
  674 108.035 30.3958 -5.80491
  675 107.700 30.6039 5.81900
  676 -62.0810 4.62784 -14.8389
  677 -61.9087 4.61656 14.8104
  678 -74.3049 5.20051 -17.3920
  679 -74.1350 5.18979 17.3568
  680 663.548 -10.5348 0.428022
  681 2.06387 -24.0245 -42.9876
  682 663.995 -11.0450 -1.18179
  683 856.248 65.0804 -7.37791
  684 -82.4148 0.422582 14.1549
  685 -82.5025 0.421735 -14.1806
  686 94.1561 28.2047 -12.7950
  687 93.4951 28.5045 12.8248
  688 -150.269 -0.118445 -1.10588
  689 -150.034 -0.118159 1.10316
  690 2.71303 -21.3040 42.8992
  691 -50.6213 0.945879 30.4437
  692 -50.7093 0.941136 -30.4983
  693 730.953 -53.4429 -18.5239
  694 124.923 0.740493 -1.36015
  695 124.857 0.741566 1.36052
  696 35.2796 9.38846 7.66827
  697 35.1499 9.40429 -7.68024
  698 395.226 -15.6673 -107.975
  699 397.890 -16.2963 109.841
  700 1307.26 94.8123 108.843
  701 28.4126 -98.7114 -53.5049
  702 -8.80694 -19.0661 43.5325
  703 -8.80710 -19.1543 -43.6492
  704 90.1722 16.6091 -4.11055
  705 90.2814 16.5808 4.10835
  706 590.275 -1.56173 -4.61492
  707 590.503 -1.56552 4.61702
  708 290.983 1.96837 4.16980
  709 290.946 1.96831 -4.16565
  710 29.1019 21.7748 27.9216
  711 28.9174 21.8364 -27.9980
  712 24.2254 3.91732 2.80636
  713 24.0966 3.92171 -2.81177
  714 -14.1492 5.17463 43.1707
  715 -14.2857 5.16069 -43.2798
  716 489.276 -2.36249 3.81300
  717 489.113 -2.35958 -3.80925
  718 426.887 1.12751 10.2296
  719 426.763 1.13305 -10.2217
  720 62.1198 -23.2008 62.5568
  721 63.6939 -25.8928 -60.7632
  722 -29.7816 7.63012 37.6028
  723 -29.9207 7.63400 -37.6895
  724 19.8956 -33.9985 16.5799
  725 5.24626 14.0999 38.2581
  726 5.02485 14.1255 -38.3360
  727 -87.2123 2.26264 -9.61591
  728 -87.0249 2.25781 9.59715
  729 82.2473 23.1182 8.83143
  730 82.0982 23.1744 -8.83832
  731 661.573 -19.1304 -29.7645
  732 625.809 -52.7163 -22.9655
  733 -9.73122 -20.0054 31.4973
  734 -9.72302 -20.1078 -31.4652
  735 251.339 9.15926 -163.647
  736 245.202 14.0961 164.822
  737 155.975 29.6011 -31.4945
  738 155.561 29.8802 31.7357
  739 14.9632 -19.3751 32.1298
  740 -0.830763 -67.1814 -17.8585
  741 316.335 15.0679 -40.8687
  742 316.445 15.0077 41.0454
  743 0.735820 -130.853 16.2256
  744 192.480 23.6865 -14.8084
  745 192.410 23.7238 14.8747
  746 621.679 -1.48896 -11.3334
  747 621.860 -1.55610 11.2264
  748 13.3779 -162.099 9.41157
  749 291.710 18.9311 31.6523
  750 291.659 18.9556 -31.5414
  751 83.3118 29.1538 -1.02829
  752 83.7388 28.8839 0.961246
  753 -111.457 0.726900 -9.68724
  754 -111.321 0.726207 9.66730
  755 320.279 2.53722 -7.66955
  756 320.334 2.53551 7.67696
  757 203.089 26.8688 -23.5243
  758 202.988 26.9316 23.6502
  759 6.96343 17.1135 28.6471
  760 6.78838 17.1590 -28.7097
  761 627.595 -45.2982 15.1309
  762 -89.2737 1.58900 7.19240
  763 -89.4670 1.59157 -7.20412
  764 1305.51 279.685 -198.281
  765 -28.0261 2.79153 7.00197
  766 -28.1861 2.79669 -7.01379
  767 530.774 -0.495184 21.3388
  768 530.572 -0.419861 -21.3617
  769 985.565 58.1442 -1.43476
  770 595.413 -2.55132 -8.54806
  771 595.636 -2.56402 8.54206
  772 388.742 2.81862 13.1241
  773 388.641 2.82758 -13.1128
  774 578.337 -55.4778 175.450
  775 258.258 15.7270 -13.7983
  776 258.272 15.7279 13.8317
  777 6.42195 -92.7144 16.5568
  778 661.676 -76.6244 64.5361
  779 403.440 -1.57531 2.17899
  780 403.332 -1.57399 -2.17721
  781 521.698 -1.38424 1.14815
  782 521.515 -1.38281 -1.14685
  783 -2.18009 -52.2059 -30.6295
  784 3.62104 -85.9256 27.5646
  785 246.339 25.7929 43.9570
  786 246.392 25.7517 -43.6854
  787 1286.53 10.4898 12.2339
  788 414.583 1.63658 -51.8605
  789 414.831 1.48712 52.0049
  790 -80.7885 2.67894 20.8832
  791 -80.9405 2.68549 -20.9249
  792 19.2648 -63.7359 0.0251327
  793 12.2488 -149.326 -17.7089
  794 930.480 123.122 -29.1495
  795 -0.772171 -67.0631 16.1374
  796 23.1079 15.5725 33.0732
  797 23.0276 15.5555 -33.2835
  798 133.207 23.1626 -1.41494
  799 133.102 23.2095 1.43457
  800 621.132 -28.9396 -14.1430
  801 622.785 -28.4593 12.4464
  802 715.759 147.024 -291.445
  803 -91.3341 0.506329 -2.79017
  804 -91.1368 0.505579 2.78392
  805 -47.0240 -0.141029 11.9951
  806 -47.0451 -0.143351 -12.0108
  807 49.5433 8.45774 4.33548
  808 48.5317 8.42359 -4.47661
  809 475.318 -4.46559 46.4435
  810 474.993 -4.13132 -46.2953
  811 247.376 3.55449 -3.13754
  812 247.385 3.55617 3.14111
  813 761.243 -1.46868 52.3183
  814 89.1150 11.0944 -3.82393
  815 89.2157 11.0776 3.82038
  816 80.5278 15.4802 -20.9714
  817 79.8315 15.8058 21.1115
  818 0.421539 -49.7457 -39.8528
  819 1050.30 193.517 172.205
  820 -148.822 0.0324395 -3.84774
  821 -148.599 0.0323456 3.84062
  822 -0.205677 -157.876 14.7677
  823 13.4305 -19.2428 -32.6766
  824 -23.5928 -1.38937 9.04310
  825 -23.5867 -1.39335 -9.04771
  826 854.787 63.5825 -27.3677
  827 231.983 20.0008 -17.4766
  828 231.964 20.0151 17.5415
  829 587.860 -10.1361 -23.5940
  830 588.463 -10.1932 23.3568
  831 -143.264 0.948254 5.32943
  832 -143.472 0.949838 -5.33978
  833 -1.10202 -1.13600 -0.966465
  834 -1.10425 -1.13796 0.970277
  835 0.399058 -161.254 -14.2294
  836 0.741738 -166.853 -11.9006
  837 -154.003 1.31986 0.642657
  838 -154.244 1.32025 -0.643760
  839 96.0266 -6.86238 -112.723
  840 368.725 1.59647 -4.17721
  841 368.811 1.59612 4.18096
  842 -1.56749 1.62177 0.854040
  843 -1.71118 1.62248 -0.855177
  844 539.007 -0.268053 -14.0129
  845 539.200 -0.292558 14.0075
  846 -61.6238 0.420050 11.3504
  847 -61.6641 0.420000 -11.3671
  848 335.291 22.0073 -240.130
  849 569.988 -47.2958 53.1226
  850 444.636 -0.409768 -4.76071
  851 444.770 -0.411739 4.76498
  852 565.308 -51.2215 -58.6912
  853 184.146 17.3595 -7.95603
  854 184.095 17.3784 7.98439
  855 250.130 13.1468 -10.9301
  856 250.138 13.1494 10.9524
  857 660.697 -13.6755 22.8494
  858 46.2902 24.9323 21.4539
  859 46.0855 25.0191 -21.5492
  860 51.5092 1.15709 1.09279
  861 51.3979 1.15843 -1.09515
  862 315.995 1.06076 3.68185
  863 315.942 1.06079 -3.67858
  864 803.903 -57.3403 106.224
  865 508.034 0.751410 -18.6534
  866 508.218 0.706460 18.6461
  867 16.5503 6.40039 5.97028
  868 16.4139 6.41009 -5.98073
  869 507.135 -2.31851 5.40009
  870 506.961 -2.31487 -5.39519
  871 -84.6806 -0.137860 -2.27198
  872 -84.4844 -0.137077 2.26994
  873 -0.402438 -51.5214 14.4689
  874 -0.541713 -52.3232 -14.5702
  875 624.260 -6.36481 57.4347
  876 -32.7368 9.60485 30.9973
  877 -32.8922 9.62531 -31.0664
  878 -0.183109 -84.3947 -15.8273
  879 249.768 6.14314 -5.88238
  880 249.778 6.14561 5.88919
  881 452.968 -22.0058 -82.9701
  882 456.205 -24.3083 83.7339
  883 -17.7216 -5.68866 -43.5894
  884 -17.6281 -5.68212 43.4795
  885 30.4486 21.4014 25.3756
  886 30.2669 21.4607 -25.4335
  887 2.08699 -186.976 9.25528
  888 10.8564 17.5339 34.3922
  889 10.6631 17.5732 -34.4706
  890 419.285 -7.81016 -73.9946
  891 418.309 -8.05118 74.5644
  892 722.449 46.1487 62.0901
  893 172.168 15.9619 5.39666
  894 172.221 15.9447 -5.37934
  895 519.755 1.20119 -13.8464
  896 519.936 1.18379 13.8481
  897 -19.5728 -8.19459 38.7424
  898 -19.6190 -8.23193 -38.8241
  899 1.97591 -189.490 -4.52445
  900 -30.1663 -1.56846 37.7579
  901 -30.2401 -1.57746 -37.8263
  902 26.9151 18.6734 -19.3742
  903 27.0756 18.6283 19.3364
  904 -1.58754 -13.1608 7.23801
  905 -1.60614 -13.1490 -7.24934
  906 51.8475 21.0787 -16.3216
  907 52.0120 21.0228 16.2921
  908 11.8725 -12.0593 37.2786
  909 10.5196 -11.1805 -39.5864
  910 510.851 -15.7817 47.7772
  911 509.715 -15.1636 -47.9294
  912 -157.901 0.244654 -0.945376
  913 -157.659 0.244758 0.943587
  914 -14.6124 -1.27524 6.85622
  915 -14.6010 -1.27776 -6.85532
  916 0.658828 -119.561 -14.2851
  917 -15.3133 -6.47336 -19.3469
  918 -15.3039 -6.45543 19.3443
  919 -61.5137 5.50903 26.8389
  920 -61.6575 5.51929 -26.8957
  921 166.656 29.7798 -16.0401
  922 166.499 29.8862 16.1325
  923 696.368 52.7230 -6.66838
  924 -1.77494 14.9637 25.9861
  925 -1.94187 15.0004 -26.0401
  926 259.148 17.4417 -79.5574
  927 259.084 17.6716 80.2874
  928 -23.4491 10.1104 20.8003
  929 -23.6113 10.1351 -20.8430
  930 810.738 -26.2785 2.77168
  931 525.099 21.0284 27.2073
  932 607.558 -5.61236 -51.9107
  933 446.998 3.34832 -31.4494
  934 447.192 3.24306 31.4787
  935 -39.1070 5.54663 -9.40227
  936 -38.9415 5.53654 9.38395
  937 -101.089 1.71515 13.0022
  938 -101.265 1.71971 -13.0292
  939 -6.23079 -20.4076 -22.4026
  940 -6.18202 -20.4180 22.4378
  941 165.805 7.79962 3.31543
  942 165.849 7.79229 -3.31124
  943 -46.7370 5.40761 33.8239
  944 -46.8595 5.40854 -33.8954
  945 528.002 -1.85255 6.93630
  946 527.815 -1.84842 -6.93078
  947 -3.75606 -44.2849 33.3508
  948 27.1103 16.8102 -16.3186
  949 27.2622 16.7736 16.2892
  950 35.6457 10.9638 9.92109
  951 35.5113 10.9847 -9.93698
  952 100.724 6.57666 -0.996514
  953 100.808 6.56896 0.994355
  954 987.178 146.907 -50.1830
  955 -4.10472 -1.08889 -2.77801
  956 -4.11337 -1.08859 2.78283
  957 38.5189 13.0633 -19.4606
  958 39.1410 12.8061 19.3198
  959 364.471 11.7374 -34.2012
  960 364.608 11.6593 34.2848
  961 54.1194 14.0730 -8.93664
  962 54.2487 14.0466 8.92346
  963 101.985 10.5559 145.307
  964 667.935 -5.35353 -6.63052
  965 667.319 -5.16345 6.09232
  966 126.295 6.70735 129.426
  967 134.320 3.16726 -1.41032
  968 134.260 3.17018 1.41060
  969 334.608 0.134418 -208.335
  970 253.101 1.41322 1.91709
  971 253.087 1.41195 -1.91570
  972 34.3503 -24.8525 -0.239982
  973 37.9450 -19.6854 3.08841
  974 588.594 -1.17295 2.36155
  975 588.366 -1.17156 -2.35881
  976 -48.0110 0.318756 27.9351
  977 -48.0773 0.314527 -27.9795
  978 1059.27 135.367 72.0211
  979 -3.84349 -32.0096 -43.2027
  980 6.57188 -146.822 26.2153
  981 -0.293772 -51.3926 39.5828
  982 609.865 -1.28355 -8.71891
  983 610.083 -1.30201 8.70065
  984 -8.02194 -14.7700 19.4188
  985 -8.04668 -14.7754 -19.4039
  986 780.344 85.1007 -27.8927
  987 1302.60 9.43246 -8.08494
  988 -2.01372 -3.14514 -3.02347
  989 -2.01131 -3.15168 3.02780
  990 362.563 1.31093 -7.65690
  991 362.645 1.30884 7.66346
  992 -3.87758 -30.6454 43.3533
  993 499.798 -0.0396115 27.6466
  994 499.589 0.0721059 -27.6517
  995 657.851 -41.6968 -18.7513
  996 -22.6694 -4.58971 21.7639
  997 -22.6835 -4.60849 -21.7797
  998 12.4250 -37.6761 27.7313
  999 -0.829992 -78.7892 31.1031
  1000 -0.103254 -83.7983 15.8291
  1001 694.521 42.8201 -4.37298
  1002 781.458 86.3326 12.1720
  1003 554.497 -59.4251 -99.8408
  1004 8.84271 -73.1111 21.8577
  1005 10.9905 -103.402 0.512944
  1006 161.386 1.34828 0.0664344
  1007 161.343 1.34977 -0.0665982
  1008 -6.09469 -6.96161 -9.38511
  1009 -6.08844 -6.96153 9.39133
  1010 6.13342 -60.1462 -31.0422
  1011 443.817 -1.80303 -1.75120
  1012 443.950 -1.80467 1.75285
  1013 95.0137 7.50646 -53.0474
  1014 91.0526 7.71244 52.5605
  1015 -3.82262 14.3502 35.3180
  1016 -4.00788 14.3854 -35.4071
  1017 -46.8011 7.72680 -21.6766
  1018 -46.6375 7.70933 21.6325
  1019 346.965 5.40814 -76.4427
  1020 347.066 5.75701 77.1889
  1021 252.536 21.4868 -55.7617
  1022 252.450 21.5079 56.1879
  1023 271.973 16.5528 -20.2152
  1024 271.997 16.5443 20.2675
  1025 693.573 -14.1371 -64.0521
  1026 -14.7255 9.16530 39.7322
  1027 -14.8887 9.17154 -39.8436
  1028 489.326 -2.70634 38.1648
  1029 489.043 -2.45747 -38.1217
  1030 -2.04199 -23.1450 44.7332
  1031 -38.9512 -1.17472 20.8593
  1032 -38.9809 -1.18178 -20.8864
  1033 447.116 1.61310 -38.1631
  1034 447.346 1.46176 38.2137
  1035 572.621 15.7690 -46.4934
  1036 -0.341111 -78.0838 -32.5756
  1037 -6.05602 -30.6094 39.3905
  1038 -6.32658 -31.0230 -39.0795
  1039 319.585 15.7465 -29.1824
  1040 319.665 15.7049 29.2670
  1041 397.757 4.48389 16.1257
  1042 397.648 4.49911 -16.1118
  1043 656.526 -40.7443 15.8559
  1044 41.9866 1.58300 -0.265783
  1045 42.1032 1.58193 0.265056
  1046 560.028 -66.3525 106.363
  1047 6.41788 0.846180 1.79504
  1048 6.27898 0.847194 -1.79849
  1049 127.991 30.3004 -5.58014
  1050 127.797 30.4129 5.62033
  1051 52.1643 24.0659 18.0580
  1052 51.9856 24.1319 -18.0978
  1053 6.72890 -91.6686 -17.3270
  1054 169.364 3.64781 2.10127
  1055 169.404 3.64422 -2.09921
  1056 516.408 16.0054 11.3733
  1057 448.916 0.860077 14.6741
  1058 448.777 0.876469 -14.6653
  1059 -1.54326 -24.1840 -44.8187
  1060 672.782 -8.85371 -10.9409
  1061 2.32535 -0.169773 43.4265
  1062 2.86231 0.154241 -43.1639
  1063 605.439 -1.64910 -4.85069
  1064 605.675 -1.65365 4.85061
  1065 646.344 -2.88378 -8.59311
  1066 646.401 -2.95765 8.41911
  1067 -0.479296 -126.679 11.7977
  1068 387.467 6.89186 -21.1984
  1069 387.575 6.86440 21.2194
  1070 467.188 1.82295 16.8671
  1071 467.035 1.84551 -16.8600
  1072 14.1982 12.7280 37.8511
  1073 14.1199 12.7224 -37.9229
  1074 1007.86 63.5317 13.6199
  1075 -11.2455 -4.24678 45.9027
  1076 -11.4676 -4.12975 -46.0367
  1077 153.133 27.1194 -6.87887
  1078 153.026 27.1787 6.92061
  1079 -72.2126 0.735412 -3.21443
  1080 -72.0261 0.734713 3.20873
  1081 247.352 16.5807 -91.1543
  1082 246.949 17.2252 92.0719
  1083 75.3546 27.2298 12.2099
  1084 75.1623 27.3131 -12.2368
  1085 170.037 22.7870 -69.8575
  1086 169.173 23.5639 70.3194
  1087 -4.03610 -41.6425 -32.5410
  1088 589.305 10.1815 63.0954
  1089 404.588 19.1344 267.105
  1090 70.8779 28.5262 12.5099
  1091 70.6582 28.6321 -12.5563
  1092 249.181 10.0878 -8.64063
  1093 249.189 10.0893 8.65586
  1094 869.998 20.0960 1.47838
  1095 61.4271 17.8574 4.42287
  1096 60.6827 18.0173 -4.67623
  1097 -25.5181 -5.38596 28.7639
  1098 -25.5467 -5.41349 -28.7996
  1099 -0.832880 -19.6066 7.86839
  1100 -0.867466 -19.5965 -7.90086
  1101 573.843 -2.33500 21.9355
  1102 573.565 -2.14791 -22.0335
  1103 1.72571 -37.9696 41.6550
  1104 -37.4875 2.93892 -37.3160
  1105 -37.3870 2.94681 37.2447
  1106 0.174828 -151.503 -14.4983
  1107 -7.61521 -11.0304 45.8491
  1108 -7.58109 -10.7559 -45.8961
  1109 546.678 -0.908903 -9.23885
  1110 546.876 -0.917317 9.24240
  1111 567.574 -6.18777 26.8257
  1112 567.136 -5.87901 -26.9128
  1113 105.743 25.7231 -28.5012
  1114 104.958 26.1278 28.6540
  1115 -1.23234 -78.1047 -26.9516
  1116 743.007 -50.7625 -161.004
  1117 961.336 142.601 28.5436
  1118 11.1147 -108.198 3.68220
  1119 39.6000 21.5782 -25.3155
  1120 39.8271 21.4744 25.1298
  1121 99.8564 30.5336 1.77163
  1122 99.6065 30.6738 -1.77809
  1123 204.318 9.10981 4.97261
  1124 204.340 9.10424 -4.96331
  1125 -12.0195 -17.1260 37.0778
  1126 -12.0056 -17.3017 -37.1464
  1127 -30.9893 11.0377 28.1759
  1128 -31.1497 11.0625 -28.2353
  1129 -8.07903 14.3954 32.5037
  1130 -8.25247 14.4294 -32.5797
  1131 545.975 -28.1631 -47.6750
  1132 549.248 -28.2750 47.4273
  1133 0.752872 -87.9748 -30.5866
  1134 298.787 2.41272 -112.009
  1135 299.121 3.29533 113.625
  1136 100.159 26.8659 -3.92974
  1137 100.308 26.7958 3.93295
  1138 287.532 185.639 296.140
  1139 80.1184 21.0450 8.57948
  1140 79.9824 21.0899 -8.58716
  1141 737.260 -71.7027 -47.9685
  1142 286.030 4.88899 6.62458
  1143 285.996 4.88936 -6.61668
  1144 -12.3932 -10.9865 22.9955
  1145 -12.4055 -11.0158 -22.9933
  1146 -14.6661 -13.0639 29.5607
  1147 -14.6712 -13.1196 -29.5710
  1148 491.457 -44.0222 -153.479
  1149 500.337 -48.9013 154.521
  1150 96.2495 1.38589 1.96099
  1151 96.3332 1.38431 -1.96080
  1152 313.669 13.6923 -63.2195
  1153 313.603 13.5470 63.7601
  1154 664.427 -80.1174 120.458
  1155 583.940 -1.91429 1.34171
  1156 583.716 -1.91266 -1.34011
  1157 -48.1237 8.17923 25.2839
  1158 -48.2837 8.19657 -25.3359
  1159 -84.6362 2.38936 -12.7942
  1160 -84.4535 2.38329 12.7713
  1161 159.306 23.4388 185.794
  1162 499.632 31.7182 -23.2006
  1163 286.988 17.9716 -33.0508
  1164 287.038 17.9492 33.1942
  1165 850.882 -1.02278 175.069
  1166 291.871 17.8211 -47.2096
  1167 291.924 17.7648 47.4563
  1168 79.6015 7.31110 -2.37741
  1169 79.7005 7.30164 2.37331
  1170 26.9816 -76.5174 24.4805
  1171 27.1955 -73.7847 -31.5668
  1172 392.360 -22.1574 -155.218
  1173 397.347 -20.4055 154.926
  1174 158.469 27.9864 -50.9733
  1175 157.801 28.4741 51.3504
  1176 679.796 -41.7389 -39.5144
  1177 -22.9987 -1.25467 42.2507
  1178 -23.0967 -1.25719 -42.3366
  1179 0.418837 -33.7301 -42.8636
  1180 180.760 13.5172 -119.739
  1181 181.112 13.9045 121.508
  1182 -0.426465 -34.5917 8.72346
  1183 -0.365789 -34.6785 -8.83488
  1184 -156.720 1.24450 -3.69640
  1185 -156.498 1.24347 3.68935
  1186 533.446 -1.75408 -2.74772
  1187 533.637 -1.75634 2.75093
  1188 338.216 9.46098 -19.2262
  1189 338.294 9.43832 19.2583
  1190 -9.98363 1.28043 45.4971
  1191 -10.0121 1.48143 -45.5879
  1192 -0.0340490 -136.366 -13.0215
  1193 -134.487 0.265630 6.30462
  1194 -134.666 0.266342 -6.31791
  1195 113.497 8.55425 -87.0625
  1196 112.742 9.25577 89.5034
  1197 629.554 -38.0611 -7.83045
  1198 188.013 17.8890 -107.993
  1199 188.109 18.2280 108.836
  1200 -76.1148 0.434472 10.2585
  1201 -76.1752 0.433774 -10.2753
  1202 2.24287 -114.525 -20.1802
  1203 -13.6131 3.64345 -3.90439
  1204 -13.4617 3.63932 3.89707
  1205 102.774 22.0124 4.78220
  1206 102.646 22.0612 -4.77846
  1207 357.349 -0.859730 -2.36950
  1208 357.428 -0.860393 2.37133
  1209 476.282 -0.0126905 11.1336
  1210 476.127 -0.00239042 -11.1269
  1211 29.3993 0.893763 20.4091
  1212 28.9745 0.417169 -20.9321
  1213 5.28468 -64.5993 31.3275
  1214 857.732 125.653 12.2577
  1215 -26.2734 -1.96634 16.5309
  1216 -26.2821 -1.97546 -16.5432
  1217 4.25769 -60.5371 -33.2249
  1218 -2.40620 -39.6335 24.0756
  1219 -2.29932 -39.2041 -24.9266
  1220 674.815 -7.56023 9.61237
  1221 0.562453 -155.377 13.2150
  1222 6.09640 -43.6843 -37.1523
  1223 90.0040 0.665338 0.540920
  1224 89.9168 0.666136 -0.541648
  1225 -5.97250 -26.9933 42.9518
  1226 -67.2733 3.69266 -10.3991
  1227 -67.0945 3.68632 10.3806
  1228 1327.39 21.7400 39.3775
  1229 -36.5223 4.97546 37.3541
  1230 -36.6410 4.97126 -37.4331
  1231 334.006 11.9019 -57.0580
  1232 334.213 11.7165 57.3503
  1233 23.6723 -25.6498 -10.9478
  1234 316.973 13.2812 -24.3639
  1235 317.043 13.2506 24.4240
  1236 14.1846 -85.1976 0.690631
  1237 -6.00539 -27.0776 -42.9227
  1238 -43.3822 1.19404 5.67223
  1239 -43.5509 1.19660 -5.68168
  1240 -21.5238 2.70522 -42.8043
  1241 -21.4031 2.71721 42.7224
  1242 680.818 56.2359 42.8370
  1243 384.115 2.82001 -59.4364
  1244 384.491 2.76859 59.5771
  1245 -162.138 0.241207 -1.12817
  1246 -161.897 0.241139 1.12548
  1247 344.654 5.37879 -12.9012
  1248 344.727 5.37269 12.9143
  1249 -164.702 -3.10541 -0.491770
  1250 -164.952 -3.10778 0.491904
  1251 511.961 -35.7263 -68.1929
  1252 -77.8991 1.42301 21.2407
  1253 -78.0118 1.42279 -21.2824
  1254 516.739 -37.7358 67.5798
  1255 351.406 9.86138 -25.5746
  1256 351.500 9.82088 25.6182
  1257 43.0981 -59.8317 -85.8066
  1258 0.820307 -106.641 -26.0095
  1259 -1.79994 -44.4779 40.1721
  1260 1060.38 214.583 -177.126
  1261 -0.189626 -100.979 25.9210
  1262 1113.76 106.074 -77.9407
  1263 -0.765882 -187.633 -11.8729
  1264 63.7297 3.78249 -0.0646055
  1265 63.8345 3.77822 0.0620298
  1266 -0.447523 -44.3443 9.13098
  1267 -0.353583 -44.5876 -9.11323
  1268 200.789 2.26424 1.06481
  1269 200.808 2.26230 -1.06394
  1270 686.127 -48.0752 37.0075
  1271 22.8317 3.82889 -4.51813
  1272 22.9622 3.82357 4.51086
  1273 3.97059 -198.036 3.34144
  1274 2.53888 -211.863 -3.38361
  1275 630.727 -73.1393 -75.3275
  1276 -1.62320 -56.4040 26.4087
  1277 674.875 47.2818 -56.4271
  1278 -1.94829 -74.2975 25.8450
  1279 1.40880 -199.411 -8.21610
  1280 322.876 6.18631 -14.6556
  1281 322.936 6.17306 14.6766
  1282 -0.276519 -111.786 11.6720
  1283 -0.228257 -91.5928 -26.1020
  1284 1433.91 273.689 230.382
  1285 586.388 -0.271847 0.986443
  1286 586.164 -0.271312 -0.985559
  1287 18.8332 4.27307 33.5227
  1288 18.2907 4.91643 -33.7136
  1289 -5.94861 9.80649 41.7994
  1290 -6.19529 9.80475 -41.9351
  1291 641.467 -10.9191 -36.8706
  1292 589.388 -25.3792 -28.6517
  1293 588.955 -28.6976 29.1271
  1294 96.6662 8.43383 2.00369
  1295 96.5745 8.44541 -2.00616
  1296 -92.2599 2.41910 -15.9183
  1297 -92.0942 2.41364 15.8847
  1298 656.169 -81.7934 -104.269
  1299 -4.84227 -11.8562 12.1955
  1300 -4.86220 -11.8505 -12.1917
  1301 695.656 -25.1672 60.5581
  1302 -6.94358 -26.6979 32.2255
  1303 -6.86283 -26.8010 -32.0789
  1304 -53.2481 3.31800 6.90769
  1305 -53.4217 3.32322 -6.92043
  1306 111.398 17.5753 -48.6676
  1307 110.322 18.1624 48.6010
  1308 172.436 2.16987 -0.491221
  1309 172.399 2.17206 0.491451
  1310 -62.6293 6.55003 25.3637
  1311 -62.7826 6.56263 -25.4150
  1312 552.162 0.193112 1.53268
  1313 551.959 0.193467 -1.53135
  1314 315.470 7.66190 206.055
  1315 455.723 -1.27195 3.96761
  1316 455.582 -1.27021 -3.96405
  1317 312.139 7.09816 -86.1158
  1318 312.105 6.76727 86.7611
  1319 3.24506 -112.854 -12.4204
  1320 125.066 30.2418 -24.4082
  1321 124.523 30.5723 24.5683
  1322 -1.24533 -1.04656 -1.58445
  1323 -1.25150 -1.04668 1.58897
  1324 395.525 9.15480 32.2555
  1325 395.375 9.24156 -32.2031
  1326 202.235 13.4242 7.76676
  1327 202.263 13.4146 -7.74793
  1328 292.930 13.3085 -17.4264
  1329 292.972 13.2963 17.4642
  1330 377.404 -0.490271 -4.01914
  1331 377.495 -0.491174 4.02240
  1332 -11.8868 -5.68290 -13.7402
  1333 -11.8821 -5.67444 13.7444
  1334 -105.691 -0.284119 4.06589
  1335 -105.895 -0.283739 -4.07381
  1336 -19.7564 -8.83796 -32.8901
  1337 -19.7326 -8.78929 32.8465
  1338 -55.0888 0.130728 1.59691
  1339 -55.2659 0.130411 -1.59945
  1340 -167.117 1.42605 0.627395
  1341 -167.366 1.42666 -0.628470
  1342 701.684 -76.4451 139.356
  1343 535.535 -1.84313 -52.2861
</Section>

newXOutput 85

<Section columns = "stress_xx | stress_yy | stress_xy">
  1 609.453 -1.30774 0.679641
  2 609.692 -1.30886 -0.679996
  3 -183.026 0.754979 -2.55089
  4 0.288468 0.0583610 0.520696
  5 1078.46 364.249 370.666
  6 1220.45 407.328 -358.355
  7 0.286930 0.0569982 -0.518648
  8 -182.761 0.754866 2.54919
  9 607.747 -1.26307 -2.03712
  10 608.337 -2.20259 -3.23966
  11 614.001 -2.22783 -0.939442
  12 614.813 -2.24234 -3.92010
  13 616.744 -2.24166 -1.36331
  14 629.342 -2.03472 -1.83059
  15 634.009 -2.78956 -5.27459
  16 639.337 -1.54038 -3.70692
  17 643.060 -0.436893 -7.13195
  18 668.537 -4.17242 -6.09760
  19 680.184 -3.41892 -7.73509
  20 693.454 -4.85119 -3.53907
  21 700.571 -6.17038 -2.57509
  22 698.645 -6.84121 7.38546
  23 679.235 -7.37850 16.4004
  24 632.291 -7.52709 36.2095
  25 553.448 5.41826 42.4948
  26 490.531 7.04623 38.7794
  27 400.942 12.0807 23.4027
  28 424.003 11.7212 2.90560
  29 365.007 33.6344 -14.4560
  30 469.983 16.0306 -43.3686
  31 525.452 4.61708 -35.2236
  32 621.556 -1.21438 -30.6277
  33 673.218 -8.94249 -19.8850
  34 698.113 -7.94517 -7.28736
  35 699.668 -6.00584 2.64848
  36 692.876 -4.79725 3.38758
  37 680.058 -3.43601 7.55232
  38 668.609 -4.21619 5.99894
  39 643.260 -0.460680 7.09146
  40 639.576 -1.54936 3.69435
  41 634.264 -2.79591 5.27372
  42 629.598 -2.03826 1.83091
  43 616.992 -2.24444 1.36484
  44 615.058 -2.24472 3.92389
  45 614.245 -2.22974 0.940953
  46 608.576 -2.20436 3.24246
  47 607.985 -1.26420 2.03886
  48 576.654 0.657214 -0.804064
  49 536.053 -0.833072 -1.70821
  50 484.979 -3.61508 -1.60577
  51 431.669 -0.794424 -1.33496
  52 384.591 -1.42872 -1.04267
  53 333.897 0.146354 -1.21774
  54 283.539 2.83957 -0.650807
  55 230.930 2.32977 -1.50851
  56 187.070 1.08107 -2.17433
  57 129.205 0.0785734 -2.29071
  58 70.1696 1.60587 -1.76394
  59 20.7295 1.40233 -1.70705
  60 -41.1841 0.611389 -1.52479
  61 -87.2350 -1.20164 -3.99565
  62 -131.889 -3.35920 -1.79459
  63 -177.335 0.255692 1.32188
  64 -187.382 3.20143 -0.342488
  65 -188.324 1.35255 0.737026
  66 -182.183 0.605861 -0.0302497
  67 -184.907 2.02463 -2.10649
  68 -182.340 2.49763 0.0947749
  69 -172.804 0.703400 -3.30742
  70 -175.762 1.55386 -3.60194
  71 -171.814 1.45341 -1.88462
  72 -159.389 0.866375 -2.98265
  73 -154.304 1.67642 -5.13941
  74 -145.286 1.91143 -4.12502
  75 -129.006 0.962036 -7.47873
  76 -119.967 0.302882 -6.23661
  77 -103.261 0.431642 -7.29189
  78 -88.9868 0.381225 -8.17595
  79 -76.3647 0.146619 -6.45779
  80 -58.6317 0.399071 -6.53301
  81 -43.2654 -0.126956 -7.03180
  82 -28.3766 -0.739861 -6.23635
  83 -16.5176 -0.653662 -4.81531
  84 -8.19296 -1.17403 -4.05162
  85 -1.48596 -0.681140 -1.48180
  86 0.00799203 -0.776539 -0.553095
  87 -0.415036 -0.474104 -0.144170
  88 -1.06917 -1.24287 -1.30337
  89 -1.04121 -6.95193 -3.52867
  90 -0.870547 -15.4304 -4.97519
  91 -0.436729 -26.0931 -7.22132
  92 -0.211256 -39.9686 -6.21582
  93 -0.138255 -52.6021 -7.81022
  94 -0.933466 -67.8502 -8.76101
  95 -0.384738 -86.7899 -8.78341
  96 0.174601 -105.846 -8.37486
  97 0.406873 -126.184 -8.22968
  98 0.647046 -146.971 -8.03606
  99 -0.0255190 -161.793 -10.8276
  100 1.02499 -183.321 -9.64514
  101 1.30832 -208.362 -7.46345
  102 -0.251939 -218.254 -9.86949
  103 1.85567 -235.259 -8.96127
  104 4.76285 -257.625 -3.15744
  105 9.39638 -260.880 -5.06190
  106 7.21165 -229.342 10.9630
  107 11.5504 -157.319 35.8800
  108 49.1230 -57.0750 92.7451
  109 146.138 292.963 278.502
  110 1646.66 94.6610 167.999
  111 1421.86 26.1200 60.2377
  112 1376.29 8.44680 14.2834
  113 1365.98 1.67629 -2.15340
  114 1375.76 13.6845 -31.6545
  115 1421.84 48.0955 -72.3044
  116 1606.90 184.627 -214.019
  117 357.472 231.496 -338.224
  118 84.5844 -57.8264 -109.360
  119 25.3647 -172.856 -43.3670
  120 7.28734 -216.290 -11.3869
  121 7.68514 -250.363 1.47706
  122 2.11218 -247.053 1.93479
  123 0.652476 -229.306 7.30156
  124 0.771735 -216.995 5.71061
  125 1.15403 -196.559 10.7496
  126 -0.0502871 -185.174 10.6835
  127 0.453668 -167.671 7.64506
  128 0.929845 -145.287 9.92244
  129 0.207583 -129.215 7.85097
  130 0.261444 -105.890 9.93901
  131 -1.05886 -87.8636 8.57091
  132 -0.711259 -67.8994 8.47789
  133 -0.0867451 -52.2965 7.82618
  134 -0.281026 -39.7323 6.22216
  135 -0.423942 -26.0160 7.14891
  136 -0.857187 -15.4207 4.95012
  137 -1.03556 -6.96264 3.52624
  138 -1.06760 -1.25479 1.30605
  139 -0.414939 -0.479147 0.147595
  140 0.00180279 -0.777197 0.556109
  141 -1.49734 -0.680611 1.48547
  142 -8.20912 -1.17264 4.05484
  143 -16.5383 -0.651417 4.81584
  144 -28.3909 -0.737109 6.23295
  145 -43.2643 -0.124681 7.02345
  146 -58.6128 0.399521 6.52335
  147 -76.3212 0.147882 6.44750
  148 -88.9203 0.382842 8.16369
  149 -103.163 0.431744 7.27856
  150 -119.839 0.302982 6.22363
  151 -128.857 0.961455 7.46540
  152 -145.107 1.91017 4.11413
  153 -154.108 1.67496 5.12998
  154 -159.174 0.865404 2.97611
  155 -171.582 1.45228 1.87999
  156 -175.521 1.55299 3.59689
  157 -172.559 0.703185 3.30304
  158 -182.084 2.49619 -0.0965358
  159 -184.647 2.02349 2.10392
  160 -181.922 0.605762 0.0294231
  161 -188.058 1.35193 -0.737027
  162 -187.115 3.19966 0.341902
  163 -177.074 0.255905 -1.32135
  164 -131.659 -3.35645 1.79323
  165 -87.0341 -1.20017 3.99299
  166 -41.0127 0.611532 1.52346
  167 20.8618 1.40161 1.70570
  168 70.2712 1.60459 1.76263
  169 129.270 0.0779179 2.28911
  170 187.100 1.07967 2.17295
  171 230.932 2.32773 1.50763
  172 283.508 2.83734 0.650509
  173 333.834 0.146086 1.21711
  174 384.496 -1.42778 1.04216
  175 431.544 -0.793705 1.33430
  176 484.819 -3.61228 1.60507
  177 535.861 -0.832063 1.70729
  178 576.436 0.657168 0.803636
  179 171.785 27.5404 -12.5645
  180 171.662 27.6108 12.6364
  181 -0.120275 6.44969 42.9871
  182 -0.310301 6.38656 -43.0291
  183 380.331 -4.58382 -90.7940
  184 379.957 -5.26450 91.6520
  185 80.0264 21.5642 -11.5239
  186 79.0985 21.8502 11.5177
  187 62.9257 7.91787 -4.38666
  188 63.0392 7.90551 4.37946
  189 356.972 4.00236 -14.4734
  190 357.053 3.99101 14.4902
  191 0.208382 13.7457 21.6798
  192 0.0444316 13.7793 -21.7237
  193 414.126 7.97447 -34.9819
  194 414.313 7.86700 35.0465
  195 -15.3269 -13.1636 36.2143
  196 -15.3286 -13.2474 -36.2706
  197 4.95903 -29.5466 -40.7341
  198 134.882 15.6625 -87.7585
  199 5.80903 -31.7538 39.6099
  200 132.817 16.6250 88.9076
  201 583.232 -71.5954 -130.157
  202 602.242 -74.3608 125.443
  203 216.363 4.41267 -3.77493
  204 216.350 4.41548 3.77918
  205 -23.9032 1.29375 -3.69585
  206 -23.7429 1.29221 3.68996
  207 -42.7096 7.27754 33.3469
  208 -42.8522 7.28852 -33.4213
  209 217.754 16.9503 -9.88457
  210 217.732 16.9627 9.91162
  211 70.1936 28.1581 10.9717
  212 69.9158 28.3172 -11.0625
  213 -52.1626 5.73709 -12.4838
  214 -51.9889 5.72631 12.4603
  215 467.336 -1.47813 6.53945
  216 467.188 -1.47423 -6.53386
  217 16.7980 -54.7447 13.0407
  218 18.2315 -48.8398 -10.6590
  219 -3.90873 -37.5972 40.3879
  220 -4.04557 -39.2079 -39.1723
  221 202.565 28.3177 -40.9619
  222 202.341 28.4671 41.2675
  223 -40.2649 0.245327 34.7634
  224 -40.3458 0.236959 -34.8244
  225 499.811 0.733378 -18.4399
  226 499.984 0.702370 18.4420
  227 540.387 -9.63036 -37.0442
  228 540.834 -10.1228 36.9816
  229 869.770 63.1009 1.90831
  230 798.674 92.7384 30.3219
  231 779.242 3.07683 -53.1115
  232 103.690 19.9735 4.51476
  233 103.573 20.0134 -4.51382
  234 11.7516 18.0074 31.4366
  235 11.5618 18.0581 -31.5098
  236 603.941 -36.2634 -28.5215
  237 600.560 -36.6667 30.5482
  238 337.786 0.183668 -5.56510
  239 337.851 0.182095 5.57028
  240 -69.3480 5.05891 21.7266
  241 -69.5114 5.07032 -21.7713
  242 -10.0837 -9.89766 -16.6285
  243 -10.0719 -9.88830 16.6353
  244 -73.6138 1.27015 5.89888
  245 -73.8023 1.27288 -5.90962
  246 281.784 18.1340 -25.6161
  247 281.816 18.1192 25.6964
  248 356.081 8.80903 -52.9464
  249 356.305 8.67682 53.1565
  250 93.4758 3.51258 0.839027
  251 93.5642 3.50910 -0.840051
  252 209.480 17.5127 -179.564
  253 246.225 22.1706 193.879
  254 31.3003 15.0613 28.5457
  255 31.1737 15.3394 -28.7095
  256 812.285 -48.4919 -31.6953
  257 78.6819 26.5614 9.63582
  258 78.5120 26.6339 -9.65078
  259 206.484 23.8535 -71.5565
  260 206.056 24.3637 72.1734
  261 914.145 136.889 10.4069
  262 541.934 -1.63969 24.9214
  263 541.692 -1.50271 -24.9558
  264 -4.74584 -29.9019 -25.7641
  265 -4.58829 -30.0143 25.8603
  266 -0.820864 -69.8826 -34.5387
  267 2.94177 -79.4819 -30.2195
  268 1.67527 -80.4518 32.3287
  269 -12.2459 -10.4382 45.6209
  270 -12.3090 -10.4328 -45.8308
  271 31.7117 -54.8139 -20.2042
  272 34.2278 -49.4083 25.6282
  273 -30.9350 -2.47251 22.5758
  274 -30.9600 -2.48502 -22.6015
  275 390.837 8.00134 -22.2902
  276 390.956 7.96409 22.3177
  277 677.242 -65.5746 -14.9927
  278 158.285 10.5672 2.56931
  279 158.339 10.5562 -2.56413
  280 -1.54567 -65.7300 33.1183
  281 22.1630 12.9306 12.7324
  282 22.0160 12.9572 -12.7554
  283 1063.55 71.9184 -34.8723
  284 523.369 -1.35866 7.85705
  285 523.186 -1.35169 -7.85215
  286 362.311 -13.2204 -134.717
  287 365.159 -12.9687 136.500
  288 676.480 -62.3602 4.15812
  289 -61.9957 2.10582 27.2210
  290 -62.0981 2.10455 -27.2730
  291 657.923 -37.0946 215.721
  292 -25.8038 5.50488 40.7171
  293 -25.9285 5.49198 -40.8065
  294 119.493 32.5088 -16.1576
  295 119.022 32.7991 16.2489
  296 -107.337 0.434262 0.910114
  297 -107.551 0.433862 -0.912012
  298 556.376 32.0590 -289.795
  299 -104.191 1.95931 -11.3733
  300 -104.002 1.95467 11.3503
  301 -1.46969 -11.5420 45.4647
  302 0.317193 -11.0772 -44.8021
  303 254.052 23.6789 -36.5521
  304 254.028 23.6985 36.7347
  305 62.8141 4.68587 3.33575
  306 62.7048 4.69200 -3.34110
  307 262.618 7.09888 -8.63918
  308 262.634 7.09981 8.65049
  309 26.9584 -12.7874 19.2117
  310 24.6101 -16.2943 -19.6502
  311 254.978 1.67622 -2.43181
  312 254.991 1.67746 2.43401
  313 -87.3234 2.31256 19.6550
  314 -87.4601 2.31554 -19.6953
  315 67.0316 1.32608 -24.0410
  316 65.1724 1.20928 22.3096
  317 543.699 -1.85964 2.21173
  318 543.502 -1.85769 -2.20914
  319 1172.98 65.2536 51.3618
  320 133.042 14.6905 -0.316018
  321 132.962 14.7112 0.322161
  322 -17.7985 5.04570 7.85067
  323 -17.9564 5.05506 -7.86577
  324 179.655 21.3263 -9.12398
  325 179.587 21.3571 9.16433
  326 24.7209 19.2942 32.1637
  327 24.5650 19.3273 -32.2802
  328 2.84609 -116.076 21.6602
  329 -112.149 -0.224233 -2.29713
  330 -111.934 -0.223767 2.29295
  331 420.714 -1.37618 -4.30841
  332 420.832 -1.37803 4.31215
  333 442.744 0.491396 -11.4136
  334 442.877 0.481065 11.4220
  335 -105.839 1.50129 -7.92901
  336 -105.637 1.49833 7.91489
  337 7.86658 0.830708 0.498508
  338 7.72600 0.831225 -0.500287
  339 -2.40634 -49.4255 25.5750
  340 -1.89702 -51.4158 -25.5359
  341 503.213 -39.5060 -92.1770
  342 521.673 -47.3599 90.6643
  343 302.186 11.5762 -16.1441
  344 302.231 11.5672 16.1719
  345 138.273 30.6421 -11.2801
  346 138.022 30.7892 11.3519
  347 -39.1928 8.31121 18.2329
  348 -39.3597 8.32988 -18.2700
  349 913.073 38.3265 43.9155
  350 52.9147 -52.9705 -66.0422
  351 56.5842 -47.3104 68.5610
  352 -14.4102 14.2687 30.1898
  353 -14.5790 14.3008 -30.2574
  354 -24.2622 -4.38688 40.7241
  355 -24.3368 -4.40337 -40.8090
  356 1037.82 184.919 -67.6555
  357 683.281 -4.31314 72.5514
  358 626.848 -15.8699 -18.1269
  359 626.525 -15.4980 17.2829
  360 446.875 -6.57190 -59.1051
  361 446.316 -6.94289 59.1638
  362 0.913749 -139.869 -17.0460
  363 570.999 -0.161119 -13.7997
  364 571.205 -0.198145 13.7804
  365 8.00093 -129.200 11.4215
  366 686.781 54.7569 -34.7423
  367 171.730 3.11144 1.14931
  368 171.691 3.11420 -1.15021
  369 448.220 0.993859 -43.8216
  370 448.490 0.822868 43.9089
  371 478.866 1.40335 -26.1643
  372 479.049 1.32678 26.1694
  373 0.289846 4.08694 4.82834
  374 0.143122 4.09293 -4.83746
  375 283.510 15.6620 -71.8803
  376 283.513 15.8550 72.4204
  377 559.815 -1.57011 3.59800
  378 559.607 -1.56760 -3.59419
  379 328.485 15.2545 -37.0933
  380 328.584 15.1900 37.2187
  381 374.462 2.91298 9.69840
  382 374.373 2.91674 -9.68954
  383 -17.7051 -3.10486 14.1005
  384 -17.7073 -3.11384 -14.1034
  385 -4.26676 -3.01653 -4.21447
  386 -4.26838 -3.01751 4.22064
  387 750.635 -83.0163 66.5893
  388 -9.31827 -22.7983 37.6312
  389 -9.24844 -23.0106 -37.6465
  390 132.080 5.77931 -0.0854495
  391 132.148 5.77285 0.0852354
  392 -3.68859 -18.8138 14.1838
  393 -3.73254 -18.7878 -14.1879
  394 54.9815 20.6482 13.2258
  395 54.8297 20.6958 -13.2479
  396 613.143 -4.09695 18.4642
  397 612.848 -3.90030 -18.6944
  398 -0.635402 -34.1122 43.9582
  399 -50.0714 -0.786910 21.1691
  400 -50.1192 -0.792220 -21.2012
  401 -0.829648 -36.1737 -43.4717
  402 573.459 -1.14142 8.81605
  403 573.246 -1.13045 -8.81669
  404 -1.44668 13.8944 38.6084
  405 -1.66232 13.9281 -38.7121
  406 430.635 3.61656 -17.8974
  407 430.766 3.59349 17.9098
  408 658.960 -27.8511 -8.88925
  409 660.166 -22.8034 6.16288
  410 -1.19585 -67.0712 -27.8528
  411 64.7691 24.9452 -5.40422
  412 65.2866 24.7166 5.30327
  413 678.451 43.5500 21.1377
  414 380.856 -12.0219 -184.050
  415 390.212 -18.7719 191.949
  416 28.6642 20.2424 22.8259
  417 28.4899 20.2950 -22.8740
  418 281.333 4.60932 -5.91668
  419 281.362 4.61051 5.92290
  420 273.324 72.6956 289.687
  421 118.854 24.8455 -1.20110
  422 118.989 24.7849 1.21545
  423 7.96047 -58.9721 27.0349
  424 -0.785162 -108.401 -23.6977
  425 50.1579 25.4681 20.0059
  426 49.9613 25.5435 -20.0649
  427 62.7128 13.0376 -7.19770
  428 62.8353 13.0151 7.18749
  429 -16.5483 0.229989 -45.0503
  430 -16.4246 0.202914 44.9579
  431 140.253 28.6656 -34.0933
  432 139.650 29.0504 34.3304
  433 667.812 -19.2201 -55.6792
  434 21.6250 -2.74262 31.2785
  435 20.9814 -2.63058 -31.5326
  436 487.095 -21.2985 -65.2365
  437 488.939 -22.6619 65.2106
  438 -116.060 0.813068 -11.5231
  439 -115.884 0.810203 11.4991
  440 -0.00951376 -107.078 21.4973
  441 -0.712993 -68.3067 24.8554
  442 -46.6341 3.45322 34.7315
  443 -46.7403 3.44897 -34.7995
  444 349.382 0.00685386 -2.16439
  445 349.454 0.00651758 2.16647
  446 -10.1031 -15.9881 25.9358
  447 -10.1246 -16.0296 -25.9153
  448 224.523 16.0865 -103.457
  449 224.021 16.9921 104.422
  450 1.88442 -127.001 -22.4512
  451 1170.18 37.8331 0.186739
  452 3.62542 -145.724 -10.2735
  453 -133.650 -0.412586 -3.72588
  454 -133.425 -0.412474 3.71979
  455 -49.9403 7.68383 27.1856
  456 -50.0982 7.69977 -27.2450
  457 -62.6702 0.957076 21.1058
  458 -62.7406 0.956070 -21.1406
  459 243.933 22.3881 -26.1409
  460 243.913 22.4122 26.2508
  461 362.067 11.2870 -28.6287
  462 362.181 11.2312 28.6891
  463 -4.92599 -20.2809 45.6732
  464 -4.93366 -20.1452 -45.8704
  465 635.214 15.0442 -69.8858
  466 46.3529 -4.16853 0.680226
  467 44.7195 -4.57517 0.172414
  468 10.8403 -125.754 -7.76014
  469 7.20669 -148.255 2.62814
  470 -18.4827 -8.10973 26.6452
  471 -18.4968 -8.14175 -26.6627
  472 138.212 15.4981 -157.707
  473 930.337 27.7322 -113.369
  474 222.484 11.1360 9.06604
  475 222.497 11.1296 -9.04952
  476 320.837 5.03067 -98.1538
  477 321.403 4.94415 99.4345
  478 99.0908 31.9860 3.46960
  479 98.8848 32.0982 -3.47447
  480 290.298 20.1115 -53.8812
  481 290.355 20.0440 54.2053
  482 13.5421 7.97784 38.7059
  483 14.1863 8.30164 -38.6564
  484 -119.539 1.54765 -8.04124
  485 -119.334 1.54521 8.02594
  486 621.561 -69.0238 -56.4573
  487 489.527 -1.84938 -2.96621
  488 489.689 -1.85123 2.96902
  489 36.1663 1.84033 -1.52917
  490 36.2898 1.83798 1.52551
  491 -25.8161 11.1491 24.4923
  492 -25.9819 11.1754 -24.5436
  493 -63.3109 3.65135 -8.06983
  494 -63.1299 3.64519 8.05441
  495 222.763 18.4662 -13.5492
  496 222.741 18.4790 13.5912
  497 -21.6077 10.2786 35.9025
  498 -21.7690 10.2989 -35.9902
  499 568.331 -17.3829 -35.4323
  500 569.321 -18.1186 35.1278
  501 379.852 2.98068 -65.8325
  502 379.229 2.78301 66.3445
  503 147.490 4.01219 0.177978
  504 147.545 4.00837 -0.178272
  505 2.07742 -63.7890 -36.6744
  506 669.463 -22.0667 45.3004
  507 10.6284 -39.1888 -31.0780
  508 197.810 29.7439 27.9077
  509 197.968 29.6385 -27.7357
  510 614.868 -64.5647 55.9901
  511 50.9852 -36.0687 87.3321
  512 726.411 -80.7337 -106.932
  513 498.597 -0.381208 31.6167
  514 498.351 -0.223502 -31.6052
  515 2.09607 -54.1838 38.1876
  516 -9.81814 -2.88252 -7.62919
  517 -9.82129 -2.88040 7.63369
  518 70.7289 1.30016 -0.214185
  519 70.8304 1.29888 0.213083
  520 -1.63263 -38.5685 16.5749
  521 -1.48105 -38.3951 -16.6662
  522 411.392 1.36777 7.40014
  523 411.280 1.36983 -7.39391
  524 1132.26 214.298 103.995
  525 51.9532 -19.6232 -23.9475
  526 40.7294 -29.8746 15.4594
  527 -3.31380 7.77453 -10.7869
  528 -3.16060 7.75865 10.7666
  529 -97.9232 1.52867 12.4796
  530 -98.0382 1.53032 -12.5031
  531 1.06589 -119.775 22.7929
  532 -129.862 0.822470 0.758893
  533 -130.090 0.822420 -0.760974
  534 134.098 6.21626 -118.258
  535 131.363 8.02037 122.352
  536 123.537 25.2419 -45.8138
  537 122.635 25.7284 46.0115
  538 -25.8729 -5.07456 35.9335
  539 -25.9231 -5.10039 -35.9957
  540 123.326 8.10528 -0.254259
  541 123.251 8.11494 0.254483
  542 -49.0897 1.82406 2.85281
  543 -49.2651 1.82606 -2.85950
  544 143.406 17.7796 -1.89431
  545 143.322 17.8090 1.90879
  546 -2.67705 -8.89429 6.54560
  547 -2.68673 -8.88764 -6.54474
  548 54.3290 23.5622 16.3589
  549 53.9783 23.8561 -16.5061
  550 43.8790 10.6783 13.2725
  551 43.2955 10.6349 -13.6537
  552 501.221 1.25753 13.2236
  553 501.051 1.26998 -13.2175
  554 447.083 3.17193 21.5915
  555 446.934 3.21326 -21.5793
  556 -0.448871 -103.759 -15.0510
  557 318.633 12.7716 -22.7574
  558 318.697 12.7500 22.8042
  559 318.415 4.21507 -9.19878
  560 318.469 4.21196 9.20948
  561 -31.9401 0.421851 0.363794
  562 -31.7747 0.422056 -0.364500
  563 568.977 28.6764 -13.4315
  564 698.563 -81.1858 -45.6545
  565 598.685 29.4501 51.7798
  566 5.46541 -83.1065 -25.0253
  567 -23.2276 9.04170 -15.1986
  568 -23.0647 9.02319 15.1697
  569 6.02738 -47.2743 34.9631
  570 -28.9656 1.52567 40.3757
  571 -29.0653 1.51680 -40.4514
  572 896.981 85.8741 10.8346
  573 211.811 6.66905 -4.98306
  574 211.794 6.67323 4.98961
  575 1309.05 114.365 -122.291
  576 -4.41239 -3.27271 46.1768
  577 -3.89805 -2.90253 -46.1878
  578 737.902 -58.0524 15.7563
  579 589.717 -0.897679 -15.2256
  580 589.930 -0.962431 15.1776
  581 283.059 5.93544 -140.808
  582 286.136 5.00510 142.686
  583 -14.2915 -13.5955 41.4036
  584 -14.3101 -13.6738 -41.5275
  585 152.008 19.0205 79.5677
  586 153.243 18.0031 -79.0603
  587 -113.391 1.25246 -11.4375
  588 -113.231 1.25036 11.4142
  589 868.670 87.9922 27.8929
  590 175.085 12.8961 4.31892
  591 175.132 12.8829 -4.30820
  592 205.468 25.9145 -55.8121
  593 205.148 26.2116 56.2732
  594 538.402 -3.30623 -30.6538
  595 538.723 -3.53586 30.6377
  596 -2.04268 -52.5644 -36.9971
  597 577.800 -1.66762 4.63292
  598 577.580 -1.66440 -4.62911
  599 -74.8165 0.913041 -0.844671
  600 -74.6244 0.912771 0.841594
  601 -139.596 -1.35982 -0.106984
  602 -139.832 -1.36130 0.106513
  603 14.0133 -72.6615 -7.40130
  604 -5.18422 -34.6224 32.2889
  605 -5.46779 -32.6873 -32.5002
  606 -63.4970 4.17468 28.6700
  607 -63.6226 4.17903 -28.7281
  608 413.595 7.13764 27.6074
  609 413.450 7.20066 -27.5758
  610 307.246 0.861147 2.09543
  611 307.200 0.860460 -2.09371
  612 73.8394 -7.57244 54.1711
  613 75.9319 -6.07884 -53.7572
  614 -2.04742 -26.9730 14.0655
  615 -2.11548 -26.8926 -14.1162
  616 690.762 79.5732 310.725
  617 -34.7313 -0.997332 12.9503
  618 -34.7398 -1.00255 -12.9635
  619 14.2240 -43.2514 -23.4003
  620 301.609 8.65456 -12.5067
  621 301.651 8.65039 12.5245
  622 153.180 31.2615 -23.0713
  623 152.859 31.4587 23.2300
  624 1.43655 -175.939 6.87305
  625 116.818 29.3047 -0.258926
  626 116.657 29.3894 0.276317
  627 -4.27608 11.5877 18.3899
  628 -4.43611 11.6139 -18.4253
  629 -0.820127 -90.9615 20.5063
  630 -141.727 -0.106298 -3.79424
  631 -141.500 -0.106467 3.78774
  632 202.548 2.38313 2.16987
  633 202.568 2.38101 -2.16794
  634 488.462 -0.857985 8.96082
  635 488.301 -0.851871 -8.95415
  636 437.806 -16.9789 238.285
  637 353.338 5.64195 -17.6575
  638 353.419 5.62393 17.6806
  639 8.16552 -4.30427 41.3875
  640 9.60538 -1.31353 -41.1368
  641 558.597 -44.0129 -194.530
  642 1268.30 42.2141 -50.7279
  643 -133.120 -0.0220267 -7.71528
  644 -132.926 -0.0232487 7.70024
  645 42.7326 5.77606 -4.04102
  646 42.8551 5.76766 4.03368
  647 -2.37166 -56.3690 32.9594
  648 760.274 52.5269 -58.6320
  649 570.896 -1.91564 0.868178
  650 570.682 -1.91388 -0.866978
  651 -36.3766 -1.74657 -29.6920
  652 -36.3265 -1.73565 29.6468
  653 -0.132111 -128.264 -19.2359
  654 580.404 -1.78889 1.79777
  655 580.183 -1.78716 -1.79544
  656 62.5488 17.4310 10.7710
  657 62.4127 17.4668 -10.7857
  658 456.389 -35.2746 -129.589
  659 463.944 -35.0404 130.834
  660 650.124 -5.06641 11.0257
  661 650.040 -5.03465 -11.3722
  662 2.96437 -159.110 13.8788
  663 -25.5174 0.0427540 -1.57088
  664 -25.3561 0.0427737 1.56752
  665 218.839 58.3737 -229.902
  666 210.223 1.78883 2.09199
  667 210.238 1.78703 -2.09062
  668 109.012 5.18668 -0.826150
  669 108.932 5.19229 0.825332
  670 127.437 10.8142 1.47702
  671 127.514 10.8002 -1.47373
  672 390.076 8.42209 -42.7723
  673 390.277 8.29609 42.8888
  674 109.460 30.7692 -6.06134
  675 109.120 30.9797 6.07468
  676 -62.6074 4.66775 -14.9451
  677 -62.4322 4.65631 14.9159
  678 -74.9973 5.25207 -17.5324
  679 -74.8245 5.24123 17.4964
  680 670.986 -10.6649 0.496417
  681 2.12448 -24.2157 -43.3942
  682 671.425 -11.1813 -1.25393
  683 866.162 65.7882 -7.62052
  684 -83.3146 0.428254 14.3012
  685 -83.4037 0.427380 -14.3273
  686 95.4039 28.6050 -13.1533
  687 94.7347 28.9077 13.1826
  688 -151.729 -0.126054 -1.10404
  689 -151.490 -0.125756 1.10124
  690 2.78458 -21.4639 43.3002
  691 -51.1477 0.962815 30.7575
  692 -51.2370 0.957960 -30.8129
  693 739.215 -53.8358 -18.3812
  694 126.587 0.690873 -1.39154
  695 126.520 0.691999 1.39190
  696 35.9126 9.45921 7.67018
  697 35.7807 9.47536 -7.68255
  698 399.919 -15.7910 -109.420
  699 402.607 -16.4257 111.305
  700 1320.96 95.8650 110.127
  701 28.7988 -99.1420 -54.3561
  702 -8.88142 -19.2435 43.9852
  703 -8.88105 -19.3328 -44.1035
  704 91.4240 16.7559 -4.04734
  705 91.5350 16.7270 4.04480
  706 596.756 -1.59759 -4.67334
  707 596.989 -1.60143 4.67561
  708 294.444 1.91390 4.25138
  709 294.407 1.91374 -4.24711
  710 29.5784 22.0441 28.1040
  711 29.3913 22.1063 -28.1820
  712 24.7581 3.92340 2.79056
  713 24.6270 3.92790 -2.79614
  714 -14.2362 5.26435 43.5835
  715 -14.3746 5.24992 -43.6942
  716 494.757 -2.44169 3.86778
  717 494.591 -2.43874 -3.86389
  718 431.758 1.07142 10.3742
  719 431.633 1.07691 -10.3660
  720 62.9572 -23.0906 63.5617
  721 64.5457 -25.8143 -61.7457
  722 -30.0307 7.72885 37.9610
  723 -30.1719 7.73263 -38.0491
  724 20.1821 -34.2071 16.6141
  725 5.40804 14.2981 38.5802
  726 5.18348 14.3238 -38.6596
  727 -88.0068 2.27675 -9.67659
  728 -87.8162 2.27185 9.65740
  729 83.3900 23.3581 8.79321
  730 83.2385 23.4151 -8.80071
  731 669.137 -19.3220 -29.9400
  732 632.944 -53.2658 -23.4183
  733 -9.83187 -20.2153 31.8429
  734 -9.82368 -20.3190 -31.8106
  735 254.420 9.53854 -165.833
  736 248.220 14.5242 167.014
  737 157.968 29.9750 -32.0692
  738 157.548 30.2572 32.3121
  739 15.1914 -19.4750 32.3663
  740 -0.838197 -67.9341 -18.0537
  741 320.133 15.1881 -41.4795
  742 320.243 15.1283 41.6581
  743 0.742528 -132.284 16.3937
  744 194.892 23.9082 -15.1225
  745 194.820 23.9464 15.1891
  746 628.548 -1.52924 -11.4739
  747 628.734 -1.59690 11.3667
  748 13.5582 -163.459 9.66784
  749 295.226 19.0854 32.1442
  750 295.174 19.1092 -32.0321
  751 84.4321 29.5408 -0.848289
  752 84.8646 29.2680 0.779545
  753 -112.658 0.734544 -9.78193
  754 -112.520 0.733852 9.76165
  755 324.051 2.48887 -7.79698
  756 324.107 2.48729 7.80460
  757 205.625 27.1427 -23.9596
  758 205.522 27.2068 24.0865
  759 7.19280 17.3108 28.8604
  760 7.01510 17.3568 -28.9243
  761 634.747 -45.7760 15.4887
  762 -90.0625 1.59272 7.23366
  763 -90.2593 1.59534 -7.24567
  764 1319.18 283.288 -200.803
  765 -28.1049 2.79645 7.02443
  766 -28.2677 2.80171 -7.03657
  767 536.745 -0.553637 21.6160
  768 536.538 -0.477930 -21.6383
  769 996.617 58.7075 -1.49988
  770 601.968 -2.60223 -8.65201
  771 602.196 -2.61504 8.64627
  772 393.233 2.77638 13.3161
  773 393.131 2.78522 -13.3044
  774 584.922 -55.8368 177.701
  775 261.392 15.8343 -14.0569
  776 261.405 15.8357 14.0908
  777 6.51496 -93.5587 16.6318
  778 669.173 -77.3120 65.5378
  779 408.061 -1.66361 2.20921
  780 407.951 -1.66228 -2.20737
  781 527.490 -1.44163 1.16375
  782 527.303 -1.44016 -1.16240
  783 -2.19941 -52.7664 -30.9580
  784 3.67429 -86.7630 27.7967
  785 249.369 26.0684 44.6403
  786 249.424 26.0261 -44.3663
  787 1299.85 10.5424 12.3869
  788 419.443 1.60399 -52.5738
  789 419.693 1.45433 52.7204
  790 -81.5974 2.70614 21.0771
  791 -81.7519 2.71275 -21.1195
  792 19.5373 -64.1995 -0.147621
  793 12.4169 -150.525 -18.0694
  794 941.009 124.589 -29.8328
  795 -0.779671 -67.8167 16.3143
  796 23.4818 15.8049 33.3130
  797 23.4003 15.7875 -33.5264
  798 134.946 23.3864 -1.56640
  799 134.839 23.4342 1.58586
  800 628.170 -29.2799 -14.4153
  801 629.853 -28.7901 12.7106
  802 723.455 149.759 -295.069
  803 -92.1251 0.496553 -2.78979
  804 -91.9243 0.495793 2.78337
  805 -47.5550 -0.141178 12.1265
  806 -47.5766 -0.143531 -12.1425
  807 50.2245 8.68804 4.18899
  808 49.2002 8.65413 -4.33270
  809 480.814 -4.56631 47.0762
  810 480.487 -4.22982 -46.9250
  811 250.374 3.52014 -3.21475
  812 250.383 3.52197 3.21839
  813 769.903 -1.20247 52.4614
  814 90.3624 11.1734 -3.77344
  815 90.4649 11.1562 3.76961
  816 81.5976 15.8022 -21.4424
  817 80.8932 16.1307 21.5833
  818 0.445509 -50.2279 -40.2436
  819 1061.58 196.445 174.634
  820 -150.323 0.0294084 -3.87312
  821 -150.096 0.0293203 3.86584
  822 -0.206976 -159.559 14.9055
  823 13.6396 -19.3449 -32.9224
  824 -23.8655 -1.40392 9.14547
  825 -23.8595 -1.40795 -9.15017
  826 864.379 64.6781 -27.1412
  827 234.836 20.1695 -17.8065
  828 234.816 20.1845 17.8720
  829 594.487 -10.2915 -23.9200
  830 595.098 -10.3484 23.6822
  831 -144.738 0.954264 5.37128
  832 -144.950 0.955869 -5.38185
  833 -1.11570 -1.14995 -0.979262
  834 -1.11796 -1.15194 0.983121
  835 0.401433 -162.966 -14.3558
  836 0.750368 -168.545 -11.9763
  837 -155.476 1.32844 0.642956
  838 -155.722 1.32883 -0.644089
  839 97.2788 -6.39201 -114.352
  840 372.995 1.53975 -4.24632
  841 373.082 1.53946 4.25021
  842 -1.31272 1.60530 0.855618
  843 -1.45897 1.60602 -0.856786
  844 545.025 -0.316658 -14.1917
  845 545.221 -0.341266 14.1867
  846 -62.3143 0.424860 11.4732
  847 -62.3553 0.424807 -11.4901
  848 339.251 22.7430 -243.197
  849 576.527 -47.8018 53.9046
  850 449.676 -0.477333 -4.83035
  851 449.812 -0.479306 4.83478
  852 571.806 -51.7631 -59.5413
  853 186.463 17.4976 -8.16443
  854 186.411 17.5171 8.19292
  855 253.169 13.2228 -11.1437
  856 253.177 13.2258 11.1662
  857 668.233 -13.8182 22.9881
  858 46.9704 25.2462 21.5448
  859 46.7629 25.3339 -21.6419
  860 52.3556 1.12519 1.07688
  861 52.2424 1.12658 -1.07932
  862 319.717 0.995826 3.74610
  863 319.664 0.995782 -3.74273
  864 812.766 -57.5055 107.800
  865 513.762 0.703497 -18.8988
  866 513.950 0.658393 18.8921
  867 16.9791 6.43891 5.96798
  868 16.8403 6.44882 -5.97876
  869 512.798 -2.39072 5.47432
  870 512.621 -2.38703 -5.46923
  871 -85.3648 -0.157584 -2.29058
  872 -85.1650 -0.156776 2.28849
  873 -0.405714 -52.1056 14.6299
  874 -0.546515 -52.9163 -14.7320
  875 631.640 -6.37379 57.8665
  876 -32.9891 9.71827 31.2710
  877 -33.1468 9.73891 -31.3413
  878 -0.184445 -85.3381 -15.9988
  879 252.793 6.13774 -6.00239
  880 252.803 6.14043 6.00933
  881 458.276 -22.2411 -84.0952
  882 461.545 -24.5678 84.8680
  883 -17.8830 -5.72451 -44.0390
  884 -17.7882 -5.71774 43.9275
  885 30.9555 21.6514 25.5334
  886 30.7711 21.7114 -25.5926
  887 2.10989 -188.897 9.31078
  888 11.1034 17.7606 34.6646
  889 10.9074 17.8001 -34.7445
  890 424.225 -7.91034 -75.0040
  891 423.237 -8.15189 75.5809
  892 730.902 46.8612 62.3615
  893 174.349 16.0827 5.56453
  894 174.404 16.0649 -5.54717
  895 525.572 1.16264 -14.0256
  896 525.757 1.14522 14.0278
  897 -19.7696 -8.26719 39.1550
  898 -19.8164 -8.30500 -39.2379
  899 2.00391 -191.345 -4.49795
  900 -30.4716 -1.57120 38.1533
  901 -30.5465 -1.58037 -38.2227
  902 27.4051 18.8743 -19.4768
  903 27.5682 18.8287 19.4380
  904 -1.60495 -13.3161 7.32204
  905 -1.62377 -13.3042 -7.33352
  906 52.6273 21.3065 -16.3747
  907 52.7944 21.2497 16.3443
  908 12.0704 -12.0990 37.5851
  909 10.6995 -11.2157 -39.9241
  910 516.735 -15.9958 48.4386
  911 515.588 -15.3725 -48.5902
  912 -159.434 0.241550 -0.945843
  913 -159.188 0.241661 0.944004
  914 -14.7845 -1.28904 6.93544
  915 -14.7730 -1.29161 -6.93455
  916 0.665548 -120.884 -14.4354
  917 -15.4825 -6.54203 -19.5655
  918 -15.4729 -6.52387 19.5627
  919 -62.1091 5.57166 27.0884
  920 -62.2552 5.58201 -27.1462
  921 168.775 30.1007 -16.3968
  922 168.614 30.2088 16.4897
  923 704.842 53.3160 -6.59708
  924 -1.63558 15.1289 26.1780
  925 -1.80513 15.1661 -26.2331
  926 262.334 17.6834 -80.6932
  927 262.268 17.9158 81.4298
  928 -23.5435 10.2132 20.9493
  929 -23.7083 10.2383 -20.9929
  930 819.779 -26.1911 3.24722
  931 531.916 21.3095 27.3352
  932 614.816 -5.62145 -52.2999
  933 452.146 3.31788 -31.8779
  934 452.342 3.21230 31.9083
  935 -39.3343 5.58916 -9.44326
  936 -39.1659 5.57890 9.42447
  937 -102.099 1.72946 13.1110
  938 -102.278 1.73406 -13.1386
  939 -6.29694 -20.6323 -22.6542
  940 -6.24751 -20.6426 22.6897
  941 167.916 7.82418 3.42195
  942 167.962 7.81657 -3.41777
  943 -47.1889 5.47640 34.1547
  944 -47.3133 5.47725 -34.2273
  945 533.871 -1.91525 7.02787
  946 533.681 -1.91109 -7.02212
  947 -3.79105 -44.7568 33.7092
  948 27.6156 16.9819 -16.3941
  949 27.7699 16.9448 16.3639
  950 36.2749 11.0559 9.93953
  951 36.1383 11.0772 -9.95593
  952 102.112 6.59869 -0.944144
  953 102.199 6.59078 0.941850
  954 998.008 149.140 -51.3720
  955 -4.15559 -1.10123 -2.81197
  956 -4.16434 -1.10093 2.81684
  957 39.0707 13.3047 -19.5144
  958 39.7007 13.0452 19.3712
  959 368.767 11.8005 -34.6959
  960 368.905 11.7226 34.7808
  961 54.9566 14.1988 -8.93378
  962 55.0881 14.1720 8.92011
  963 103.249 11.6246 147.284
  964 675.340 -5.42827 -6.73504
  965 674.726 -5.23582 6.19304
  966 127.913 7.30134 131.263
  967 136.087 3.14261 -1.45571
  968 136.025 3.14564 1.45597
  969 338.612 0.446411 -211.018
  970 256.157 1.35400 1.94840
  971 256.143 1.35267 -1.94697
  972 34.8271 -24.9271 -0.440340
  973 38.4712 -19.7021 3.32795
  974 595.036 -1.20055 2.39197
  975 594.804 -1.19914 -2.38915
  976 -48.5239 0.326911 28.2311
  977 -48.5911 0.322602 -28.2762
  978 1070.95 136.940 73.1286
  979 -3.86575 -32.3170 -43.6446
  980 6.68471 -147.841 26.7097
  981 -0.282475 -51.9032 39.9796
  982 616.575 -1.31999 -8.82482
  983 616.798 -1.33861 8.80676
  984 -8.10879 -14.9325 19.6388
  985 -8.13386 -14.9381 -19.6239
  986 789.451 86.2038 -27.8012
  987 1316.02 9.48058 -8.18156
  988 -2.03666 -3.18423 -3.06043
  989 -2.03422 -3.19085 3.06482
  990 366.774 1.25035 -7.77425
  991 366.857 1.24834 7.78102
  992 -3.89783 -30.9362 43.7949
  993 505.475 -0.101240 28.0125
  994 505.263 0.0110141 -28.0166
  995 665.355 -42.1161 -18.7510
  996 -22.9194 -4.63596 22.0064
  997 -22.9338 -4.65497 -22.0225
  998 12.6136 -37.9581 27.9223
  999 -0.832448 -79.6111 31.4157
  1000 -0.104629 -84.7370 16.0014
  1001 702.993 43.2816 -4.43475
  1002 790.645 87.3717 11.9827
  1003 560.886 -59.9894 -101.199
  1004 8.97141 -73.7619 21.9901
  1005 11.1450 -104.267 0.368577
  1006 163.450 1.29879 0.0562851
  1007 163.406 1.30034 -0.0564559
  1008 -6.16342 -7.04053 -9.49488
  1009 -6.15707 -7.04041 9.50114
  1010 6.22919 -60.6839 -31.2921
  1011 448.843 -1.88604 -1.77691
  1012 448.979 -1.88771 1.77862
  1013 96.2602 7.81154 -53.9238
  1014 92.2513 8.02006 53.4299
  1015 -3.74722 14.5323 35.6166
  1016 -3.93519 14.5677 -35.7073
  1017 -47.1787 7.80685 -21.8503
  1018 -47.0124 7.78916 21.8053
  1019 351.124 5.46750 -77.5006
  1020 351.224 5.82180 78.2549
  1021 255.641 21.7290 -56.5949
  1022 255.553 21.7507 57.0250
  1023 275.260 16.6702 -20.5550
  1024 275.284 16.6622 20.6079
  1025 701.608 -14.1556 -64.4344
  1026 -14.7983 9.28999 40.0984
  1027 -14.9638 9.29608 -40.2116
  1028 494.946 -2.79469 38.6792
  1029 494.659 -2.54427 -38.6342
  1030 -2.03217 -23.3402 45.1732
  1031 -39.3822 -1.18412 21.0876
  1032 -39.4124 -1.19127 -21.1150
  1033 452.285 1.56591 -38.6834
  1034 452.518 1.41403 38.7356
  1035 579.774 16.0253 -46.7858
  1036 -0.335543 -78.8900 -32.9010
  1037 -6.11067 -30.9215 39.8091
  1038 -6.38418 -31.3407 -39.4953
  1039 323.399 15.8570 -29.6297
  1040 323.479 15.8157 29.7155
  1041 402.350 4.46136 16.3583
  1042 402.239 4.47644 -16.3439
  1043 664.017 -41.1545 15.8384
  1044 42.7288 1.55704 -0.259969
  1045 42.8474 1.55594 0.259218
  1046 566.461 -66.9788 107.806
  1047 6.75687 0.819385 1.78582
  1048 6.61550 0.820429 -1.78938
  1049 129.659 30.6365 -5.81542
  1050 129.462 30.7506 5.85536
  1051 52.9385 24.3385 18.1226
  1052 52.7572 24.4054 -18.1635
  1053 6.82446 -92.5036 -17.4086
  1054 171.515 3.62421 2.17907
  1055 171.556 3.62044 -2.17701
  1056 523.242 16.1969 11.4331
  1057 454.027 0.802687 14.8773
  1058 453.885 0.819045 -14.8680
  1059 -1.52665 -24.3926 -45.2597
  1060 680.371 -8.95966 -10.9873
  1061 2.41883 -0.111656 43.8228
  1062 2.96295 0.214298 -43.5555
  1063 612.074 -1.68160 -4.91053
  1064 612.315 -1.68620 4.91062
  1065 653.466 -2.93274 -8.70119
  1066 653.528 -3.00719 8.52640
  1067 -0.484146 -128.089 11.9226
  1068 391.964 6.89340 -21.5004
  1069 392.074 6.86609 21.5221
  1070 472.490 1.78002 17.0944
  1071 472.335 1.80257 -17.0868
  1072 14.4627 12.9207 38.1595
  1073 14.3831 12.9148 -38.2328
  1074 1019.08 64.1517 13.8564
  1075 -11.3244 -4.25560 46.3606
  1076 -11.5496 -4.13725 -46.4964
  1077 155.098 27.3918 -7.10534
  1078 154.989 27.4521 7.14710
  1079 -72.7754 0.722988 -3.21976
  1080 -72.5855 0.722279 3.21391
  1081 250.405 16.8502 -92.4432
  1082 249.996 17.5011 93.3692
  1083 76.4017 27.5399 12.1938
  1084 76.2066 27.6243 -12.2216
  1085 172.193 23.1604 -70.9147
  1086 171.318 23.9452 71.3802
  1087 -4.07446 -42.0878 -32.8920
  1088 596.473 10.3693 63.5618
  1089 409.272 19.8592 270.451
  1090 71.8630 28.8667 12.4894
  1091 71.6403 28.9737 -12.5371
  1092 252.207 10.1275 -8.81686
  1093 252.215 10.1293 8.83231
  1094 879.659 20.8037 0.958104
  1095 62.2669 18.1604 4.27627
  1096 61.5134 18.3216 -4.53341
  1097 -25.7924 -5.43760 29.0785
  1098 -25.8216 -5.46545 -29.1147
  1099 -0.841694 -19.8367 7.95873
  1100 -0.876697 -19.8265 -7.99160
  1101 580.273 -2.40763 22.2168
  1102 579.990 -2.21914 -22.3145
  1103 1.77059 -38.3151 42.0556
  1104 -37.8556 2.98460 -37.6935
  1105 -37.7536 2.99269 37.6210
  1106 0.176374 -153.136 -14.6360
  1107 -7.66028 -11.1068 46.3069
  1108 -7.62539 -10.8289 -46.3542
  1109 552.744 -0.959242 -9.35754
  1110 552.945 -0.967700 9.36140
  1111 573.977 -6.30601 27.1821
  1112 573.533 -5.99475 -27.2684
  1113 107.129 26.1190 -29.0593
  1114 106.334 26.5275 29.2130
  1115 -1.24267 -78.9493 -27.2361
  1116 751.260 -50.8015 -163.154
  1117 971.972 144.699 29.4571
  1118 11.2745 -109.077 3.88771
  1119 40.1842 21.8718 -25.4506
  1120 40.4144 21.7670 25.2620
  1121 101.188 30.8936 1.61570
  1122 100.935 31.0355 -1.62303
  1123 206.854 9.14354 5.10644
  1124 206.876 9.13764 -5.09706
  1125 -12.1399 -17.2978 37.4784
  1126 -12.1259 -17.4757 -37.5481
  1127 -31.2054 11.1608 28.4133
  1128 -31.3683 11.1859 -28.4738
  1129 -8.04159 14.5675 32.7730
  1130 -8.21764 14.6019 -32.8505
  1131 552.249 -28.4929 -48.3557
  1132 555.553 -28.6029 48.1079
  1133 0.769121 -88.8737 -30.8804
  1134 302.423 2.52723 -113.534
  1135 302.758 3.41893 115.166
  1136 101.509 27.1527 -3.82573
  1137 101.661 27.0816 3.82841
  1138 290.690 189.126 299.758
  1139 81.2434 21.2550 8.54796
  1140 81.1052 21.3006 -8.55619
  1141 745.524 -72.2386 -48.8427
  1142 289.443 4.86731 6.75216
  1143 289.409 4.86750 -6.74407
  1144 -12.5275 -11.1037 23.2535
  1145 -12.5399 -11.1333 -23.2514
  1146 -14.8213 -13.1993 29.8867
  1147 -14.8265 -13.2557 -29.8974
  1148 497.169 -44.3616 -155.466
  1149 506.125 -49.2928 156.519
  1150 97.5951 1.34786 2.00890
  1151 97.6802 1.34621 -2.00874
  1152 317.460 13.8347 -64.1238
  1153 317.391 13.6886 64.6698
  1154 671.924 -80.7647 122.097
  1155 590.326 -1.95136 1.35820
  1156 590.099 -1.94970 -1.35656
  1157 -48.5339 8.26768 25.5007
  1158 -48.6964 8.28522 -25.5537
  1159 -85.4171 2.40486 -12.8894
  1160 -85.2313 2.39870 12.8661
  1161 161.314 24.3062 188.288
  1162 506.261 32.0968 -23.3247
  1163 290.460 18.1218 -33.5714
  1164 290.510 18.1000 33.7163
  1165 860.142 -0.327180 177.443
  1166 295.407 17.9865 -47.9118
  1167 295.459 17.9306 48.1610
  1168 80.7496 7.34462 -2.33331
  1169 80.8504 7.33491 2.32901
  1170 27.3561 -76.9695 24.9852
  1171 27.5699 -74.1955 -32.1638
  1172 397.018 -22.2713 -157.236
  1173 402.053 -20.4997 156.936
  1174 160.490 28.3939 -51.7986
  1175 159.813 28.8864 52.1787
  1176 687.584 -42.1085 -39.6832
  1177 -23.2120 -1.24593 42.6828
  1178 -23.3114 -1.24855 -42.7700
  1179 0.448656 -34.0312 -43.2778
  1180 183.037 13.9162 -121.419
  1181 183.393 14.3042 123.205
  1182 -0.431050 -34.9926 8.82216
  1183 -0.369769 -35.0804 -8.93495
  1184 -158.333 1.25559 -3.72319
  1185 -158.107 1.25454 3.71599
  1186 539.357 -1.81281 -2.78771
  1187 539.552 -1.81511 2.79103
  1188 342.206 9.49250 -19.5271
  1189 342.285 9.47012 19.5598
  1190 -10.0352 1.33384 45.9391
  1191 -10.0637 1.53741 -46.0307
  1192 -0.0364586 -137.870 -13.1560
  1193 -135.911 0.267113 6.36104
  1194 -136.093 0.267828 -6.37459
  1195 114.971 8.95877 -88.3643
  1196 114.209 9.66946 90.8341
  1197 636.716 -38.4791 -8.07463
  1198 190.380 18.2745 -109.518
  1199 190.477 18.6130 110.367
  1200 -76.9624 0.440021 10.3676
  1201 -77.0238 0.439308 -10.3847
  1202 2.27552 -115.655 -20.3352
  1203 -13.5145 3.65393 -3.90077
  1204 -13.3604 3.64970 3.89324
  1205 104.161 22.2289 4.70191
  1206 104.030 22.2785 -4.69857
  1207 361.499 -0.944298 -2.40258
  1208 361.579 -0.944944 2.40447
  1209 481.658 -0.0729853 11.2870
  1210 481.501 -0.0626921 -11.2799
  1211 29.8242 1.02589 20.4769
  1212 29.3938 0.543257 -21.0069
  1213 5.36908 -65.2010 31.5899
  1214 867.513 127.315 11.8894
  1215 -26.5688 -1.98585 16.7159
  1216 -26.5777 -1.99508 -16.7284
  1217 4.32771 -61.1022 -33.5170
  1218 -2.43025 -40.0716 24.3415
  1219 -2.32270 -39.6354 -25.2014
  1220 682.406 -7.64982 9.64972
  1221 0.567893 -157.071 13.3480
  1222 6.19844 -44.0690 -37.4822
  1223 91.2823 0.620563 0.538390
  1224 91.1936 0.621398 -0.539140
  1225 -6.02014 -27.2545 43.3976
  1226 -67.8312 3.72003 -10.4624
  1227 -67.6492 3.71360 10.4435
  1228 1341.07 21.9343 39.8264
  1229 -36.8641 5.04384 37.7215
  1230 -36.9845 5.03947 -37.8018
  1231 338.011 12.0043 -57.8716
  1232 338.219 11.8180 58.1670
  1233 24.0112 -25.7597 -10.8962
  1234 320.750 13.3598 -24.7459
  1235 320.820 13.3295 24.8069
  1236 14.3858 -85.8690 0.867359
  1237 -6.05367 -27.3404 -43.3693
  1238 -43.6283 1.18296 5.68942
  1239 -43.8000 1.18557 -5.69913
  1240 -21.7079 2.76174 -43.2301
  1241 -21.5855 2.77402 43.1470
  1242 689.010 56.9651 42.9823
  1243 388.660 2.81120 -60.2584
  1244 389.038 2.76072 60.4006
  1245 -163.749 0.239869 -1.12888
  1246 -163.504 0.239805 1.12612
  1247 348.690 5.36188 -13.0999
  1248 348.763 5.35597 13.1133
  1249 -166.288 -3.14353 -0.498144
  1250 -166.542 -3.14595 0.498278
  1251 517.895 -36.1190 -69.1386
  1252 -78.7215 1.44100 21.4533
  1253 -78.8360 1.44074 -21.4956
  1254 522.718 -38.1519 68.5168
  1255 355.542 9.89726 -25.9524
  1256 355.638 9.85700 25.9969
  1257 43.6557 -59.5460 -87.0725
  1258 0.832520 -107.738 -26.2530
  1259 -1.80598 -44.9257 40.5860
  1260 1071.68 217.914 -179.732
  1261 -0.189419 -102.046 26.1795
  1262 1125.89 107.261 -79.0504
  1263 -0.778461 -189.628 -11.9768
  1264 64.7081 3.77857 -0.0181826
  1265 64.8146 3.77418 0.0154935
  1266 -0.451708 -44.8560 9.23396
  1267 -0.356670 -45.1022 -9.21619
  1268 203.283 2.21928 1.10326
  1269 203.302 2.21723 -1.10237
  1270 693.956 -48.5073 37.1469
  1271 23.3428 3.83566 -4.51385
  1272 23.4756 3.83022 4.50635
  1273 4.01718 -199.919 3.29831
  1274 2.56951 -213.905 -3.34363
  1275 637.911 -73.8188 -76.4257
  1276 -1.63840 -57.0196 26.6946
  1277 682.959 47.9609 -56.6995
  1278 -1.96976 -75.1072 26.1214
  1279 1.42807 -201.460 -8.25992
  1280 326.692 6.17814 -14.8945
  1281 326.753 6.16514 14.9160
  1282 -0.280723 -113.034 11.7966
  1283 -0.228954 -92.5809 -26.3745
  1284 1448.63 277.132 233.086
  1285 592.795 -0.291401 0.997419
  1286 592.567 -0.290842 -0.996517
  1287 19.1315 4.40633 33.7691
  1288 18.5819 5.05721 -33.9624
  1289 -5.92709 9.94990 42.1793
  1290 -6.17721 9.94771 -42.3172
  1291 648.914 -11.0174 -37.1463
  1292 596.097 -25.6846 -29.0927
  1293 595.663 -29.0386 29.5796
  1294 98.0043 8.47779 1.94376
  1295 97.9109 8.48969 -1.94645
  1296 -93.1834 2.44224 -16.0575
  1297 -93.0149 2.43671 16.0232
  1298 663.601 -82.4764 -105.728
  1299 -4.89542 -11.9906 12.3364
  1300 -4.91560 -11.9849 -12.3326
  1301 703.640 -25.3232 60.9232
  1302 -7.01328 -26.9817 32.5781
  1303 -6.93156 -27.0860 -32.4299
  1304 -53.6204 3.33451 6.93352
  1305 -53.7972 3.33983 -6.94659
  1306 112.848 17.9360 -49.4838
  1307 111.760 18.5295 49.4155
  1308 174.621 2.12779 -0.528629
  1309 174.583 2.13009 0.528848
  1310 -63.2211 6.62063 25.5933
  1311 -63.3769 6.63337 -25.6455
  1312 558.245 0.163601 1.54974
  1313 558.039 0.163986 -1.54839
  1314 319.243 8.03729 208.702
  1315 460.869 -1.34714 4.02308
  1316 460.726 -1.34537 -4.01940
  1317 315.916 7.19855 -87.3060
  1318 315.880 6.86426 87.9573
  1319 3.29265 -113.894 -12.4493
  1320 126.691 30.6449 -24.9048
  1321 126.142 30.9790 25.0656
  1322 -1.26229 -1.05859 -1.60462
  1323 -1.26854 -1.05872 1.60920
  1324 400.139 9.18520 32.7095
  1325 399.987 9.27198 -32.6560
  1326 204.750 13.5093 7.95127
  1327 204.779 13.4993 -7.93229
  1328 296.440 13.3852 -17.7206
  1329 296.483 13.3734 17.7589
  1330 381.760 -0.569129 -4.07629
  1331 381.853 -0.570017 4.07966
  1332 -12.0205 -5.74473 -13.8981
  1333 -12.0157 -5.73613 13.9022
  1334 -106.657 -0.298835 4.07966
  1335 -106.865 -0.298456 -4.08779
  1336 -19.9646 -8.92459 -33.2484
  1337 -19.9404 -8.87536 33.2042
  1338 -55.4405 0.107350 1.59833
  1339 -55.6208 0.107023 -1.60095
  1340 -168.745 1.43727 0.627216
  1341 -168.999 1.43790 -0.628320
  1342 709.526 -76.9583 141.235
  1343 542.249 -1.82681 -52.6996
</Section>

newXOutput 86

<Section columns = "stress_xx | stress_yy | stress_xy">
  1 615.996 -1.33336 0.688531
  2 616.238 -1.33451 -0.688891
  3 -184.793 0.758946 -2.57734
  4 0.291116 0.0584258 0.525760
  5 1089.24 369.449 374.908
  6 1232.68 413.015 -362.512
  7 0.289556 0.0570451 -0.523683
  8 -184.523 0.758836 2.57560
  9 614.275 -1.28834 -2.05959
  10 614.874 -2.23628 -3.27374
  11 620.597 -2.26297 -0.951484
  12 621.423 -2.28028 -3.96472
  13 623.386 -2.28062 -1.38301
  14 636.112 -2.06781 -1.85545
  15 640.835 -2.83101 -5.33513
  16 646.235 -1.56837 -3.75219
  17 650.017 -0.460957 -7.21829
  18 675.754 -4.23162 -6.17124
  19 687.537 -3.47190 -7.82532
  20 700.972 -4.91863 -3.59361
  21 708.196 -6.24942 -2.62468
  22 706.328 -6.92163 7.42255
  23 686.821 -7.45758 16.5097
  24 639.585 -7.58614 36.4840
  25 560.165 5.50082 42.8261
  26 496.858 7.16598 39.0558
  27 406.646 12.2247 23.5656
  28 429.973 11.8604 2.95221
  29 370.393 33.9879 -14.5418
  30 476.154 16.2188 -43.7143
  31 531.966 4.69168 -35.4970
  32 628.773 -1.20979 -30.8710
  33 680.782 -9.03795 -20.0243
  34 705.803 -8.03792 -7.32198
  35 707.295 -6.08355 2.69975
  36 700.396 -4.86420 3.44139
  37 687.415 -3.48916 7.64157
  38 675.831 -4.27577 6.07223
  39 650.222 -0.484927 7.17787
  40 646.479 -1.57742 3.73972
  41 641.095 -2.83742 5.33441
  42 636.373 -2.07140 1.85587
  43 623.638 -2.28344 1.38461
  44 621.673 -2.28270 3.96860
  45 620.845 -2.26492 0.953036
  46 615.117 -2.23808 3.27659
  47 614.517 -1.28950 2.06137
  48 582.897 0.640000 -0.813966
  49 541.914 -0.881982 -1.72703
  50 490.349 -3.70940 -1.61998
  51 436.519 -0.869935 -1.34674
  52 388.970 -1.51783 -1.05125
  53 337.760 0.0715443 -1.22723
  54 286.882 2.79480 -0.652972
  55 233.719 2.28161 -1.51937
  56 189.392 1.02598 -2.19207
  57 130.900 0.0202149 -2.30935
  58 71.2197 1.57429 -1.77890
  59 21.2347 1.37927 -1.72156
  60 -41.3674 0.590152 -1.53659
  61 -87.9307 -1.23309 -4.03575
  62 -133.083 -3.40545 -1.81154
  63 -179.041 0.254966 1.33819
  64 -189.207 3.23270 -0.341893
  65 -190.168 1.36398 0.750115
  66 -183.970 0.608836 -0.0243924
  67 -186.745 2.04334 -2.12200
  68 -184.163 2.52181 0.105473
  69 -174.543 0.708450 -3.33432
  70 -177.559 1.56935 -3.63268
  71 -173.586 1.46726 -1.89609
  72 -161.044 0.873316 -3.00572
  73 -155.932 1.69350 -5.18637
  74 -146.829 1.93193 -4.15967
  75 -130.390 0.972012 -7.55264
  76 -121.266 0.306211 -6.29784
  77 -104.389 0.436247 -7.36640
  78 -89.9721 0.386831 -8.26268
  79 -77.2182 0.149224 -6.52645
  80 -59.2934 0.403928 -6.60326
  81 -43.7584 -0.127212 -7.10872
  82 -28.7057 -0.747163 -6.30648
  83 -16.7141 -0.660277 -4.87058
  84 -8.29277 -1.18681 -4.09897
  85 -1.50769 -0.688624 -1.50018
  86 0.00545249 -0.785658 -0.560684
  87 -0.419781 -0.481662 -0.147247
  88 -1.08100 -1.26245 -1.31970
  89 -1.05283 -7.03727 -3.57021
  90 -0.879741 -15.6151 -5.03212
  91 -0.440940 -26.3981 -7.30290
  92 -0.212844 -40.4324 -6.28569
  93 -0.138021 -53.2067 -7.89763
  94 -0.943219 -68.6192 -8.85743
  95 -0.388841 -87.7667 -8.87814
  96 0.176359 -107.031 -8.46399
  97 0.411178 -127.589 -8.31620
  98 0.654537 -148.597 -8.11873
  99 -0.0276186 -163.562 -10.9374
  100 1.03452 -185.311 -9.74139
  101 1.32207 -210.606 -7.53044
  102 -0.259428 -220.561 -9.95666
  103 1.87546 -237.697 -9.03407
  104 4.81880 -260.228 -3.14696
  105 9.50919 -263.416 -5.04761
  106 7.31559 -231.297 11.2100
  107 11.7454 -158.190 36.5213
  108 49.6970 -56.3132 94.1412
  109 147.618 298.291 281.814
  110 1662.81 95.7659 169.760
  111 1436.05 26.3730 60.8545
  112 1390.04 8.49967 14.4451
  113 1379.61 1.65270 -2.17272
  114 1389.50 13.7887 -31.9742
  115 1436.10 48.5781 -73.0657
  116 1622.78 186.745 -216.275
  117 361.307 235.781 -342.210
  118 85.6241 -57.1372 -110.916
  119 25.6918 -173.837 -44.0540
  120 7.39003 -218.106 -11.6350
  121 7.78088 -252.778 1.41904
  122 2.13682 -249.536 1.90872
  123 0.657471 -231.682 7.35092
  124 0.779418 -219.280 5.74690
  125 1.16701 -198.664 10.8520
  126 -0.0504564 -187.191 10.7923
  127 0.458637 -169.510 7.72161
  128 0.941244 -146.896 10.0281
  129 0.210845 -130.657 7.93422
  130 0.264345 -107.073 10.0451
  131 -1.07072 -88.8533 8.66334
  132 -0.718405 -68.6689 8.57091
  133 -0.0861400 -52.8972 7.91366
  134 -0.283369 -40.1933 6.29196
  135 -0.427954 -26.3201 7.22962
  136 -0.866219 -15.6054 5.00676
  137 -1.04711 -7.04811 3.56776
  138 -1.07941 -1.27453 1.32242
  139 -0.419681 -0.486769 0.150716
  140 -0.000817382 -0.786322 0.563736
  141 -1.51922 -0.688086 1.50389
  142 -8.30909 -1.18539 4.10221
  143 -16.7350 -0.658005 4.87110
  144 -28.7200 -0.744377 6.30301
  145 -43.7573 -0.124910 7.10026
  146 -59.2741 0.404384 6.59347
  147 -77.1739 0.150507 6.51602
  148 -89.9045 0.388477 8.25024
  149 -104.289 0.436356 7.35287
  150 -121.136 0.306320 6.28465
  151 -130.239 0.971430 7.53907
  152 -146.647 1.93066 4.14858
  153 -155.732 1.69203 5.17676
  154 -160.825 0.872334 2.99904
  155 -173.350 1.46612 1.89135
  156 -177.315 1.56848 3.62752
  157 -174.294 0.708238 3.32984
  158 -183.903 2.52035 -0.107285
  159 -186.480 2.04219 2.11937
  160 -183.704 0.608740 0.0235401
  161 -189.896 1.36335 -0.750122
  162 -188.935 3.23090 0.341291
  163 -178.775 0.255189 -1.33766
  164 -132.848 -3.40264 1.81015
  165 -87.7262 -1.23157 4.03303
  166 -41.1929 0.590304 1.53522
  167 21.3693 1.37854 1.72018
  168 71.3231 1.57297 1.77757
  169 130.966 0.0195199 2.30771
  170 189.421 1.02452 2.19067
  171 233.721 2.27949 1.51848
  172 286.850 2.79250 0.652674
  173 337.697 0.0712414 1.22660
  174 388.873 -1.51689 1.05074
  175 436.391 -0.869202 1.34608
  176 490.187 -3.70653 1.61929
  177 541.718 -0.880931 1.72611
  178 582.676 0.639972 0.813533
  179 173.940 27.8177 -12.8681
  180 173.815 27.8893 12.9403
  181 -0.0402249 6.56812 43.3707
  182 -0.232608 6.50344 -43.4135
  183 384.808 -4.61898 -92.0119
  184 384.427 -5.30645 92.8787
  185 81.0838 21.9264 -11.8739
  186 80.1446 22.2147 11.8670
  187 63.8747 7.96282 -4.35611
  188 63.9901 7.95017 4.34862
  189 361.096 3.96958 -14.6962
  190 361.178 3.95841 14.7134
  191 0.389497 13.8868 21.8205
  192 0.222948 13.9209 -21.8654
  193 418.891 7.99374 -35.4677
  194 419.080 7.88613 35.5337
  195 -15.4819 -13.2917 36.6016
  196 -15.4838 -13.3765 -36.6587
  197 5.05075 -29.7781 -41.0984
  198 136.596 16.0758 -89.0480
  199 5.91066 -32.0075 39.9594
  200 134.508 17.0475 90.2081
  201 589.838 -72.2103 -131.864
  202 609.028 -74.9974 127.102
  203 218.999 4.38927 -3.86831
  204 218.986 4.39226 3.87263
  205 -23.9072 1.27833 -3.70078
  206 -23.7442 1.27676 3.69473
  207 -43.0895 7.36496 33.6555
  208 -43.2343 7.37599 -33.7312
  209 220.415 17.0741 -10.1025
  210 220.392 17.0871 10.1298
  211 71.1515 28.5107 10.9198
  212 70.8701 28.6715 -11.0124
  213 -52.5463 5.78408 -12.5589
  214 -52.3696 5.77313 12.5349
  215 472.547 -1.55601 6.63141
  216 472.397 -1.55210 -6.62561
  217 17.0363 -55.1478 13.0300
  218 18.4893 -49.1756 -10.6144
  219 -3.93927 -37.9744 40.8065
  220 -4.07869 -39.6056 -39.5799
  221 205.073 28.6429 -41.6273
  222 204.845 28.7942 41.9353
  223 -40.6734 0.259170 35.1198
  224 -40.7554 0.250642 -35.1817
  225 505.380 0.681438 -18.6785
  226 505.556 0.650372 18.6811
  227 546.471 -9.78720 -37.5390
  228 546.924 -10.2839 37.4777
  229 879.720 63.7439 1.98393
  230 807.844 93.9114 30.2229
  231 787.980 3.38706 -53.2548
  232 105.080 20.1593 4.43860
  233 104.961 20.1999 -4.43804
  234 12.0242 18.2227 31.6704
  235 11.8317 18.2739 -31.7451
  236 610.747 -36.6628 -28.9926
  237 607.331 -37.0696 31.0440
  238 341.694 0.108492 -5.65760
  239 341.760 0.106986 5.66293
  240 -69.9916 5.11099 21.9122
  241 -70.1576 5.12253 -21.9577
  242 -10.1937 -10.0049 -16.8160
  243 -10.1818 -9.99541 16.8228
  244 -74.1989 1.26463 5.92003
  245 -74.3907 1.26741 -5.93104
  246 285.148 18.2710 -26.0283
  247 285.180 18.2568 26.1095
  248 360.268 8.85987 -53.6864
  249 360.493 8.72742 53.8989
  250 94.7782 3.49874 0.886764
  251 94.8681 3.49515 -0.887849
  252 212.037 18.1348 -181.940
  253 249.186 22.8152 196.397
  254 31.7655 15.3016 28.7154
  255 31.6375 15.5830 -28.8815
  256 821.202 -48.6220 -32.4676
  257 79.7665 26.8486 9.59536
  258 79.5941 26.9220 -9.61109
  259 209.039 24.1936 -72.6089
  260 208.606 24.7089 73.2311
  261 924.345 138.648 11.0078
  262 547.969 -1.71175 25.2426
  263 547.723 -1.57392 -25.2761
  264 -4.79427 -30.2246 -26.0458
  265 -4.63451 -30.3380 26.1429
  266 -0.822990 -70.6032 -34.8900
  267 2.99012 -80.2390 -30.4789
  268 1.70560 -81.2464 32.6274
  269 -12.3462 -10.5182 46.0819
  270 -12.4100 -10.5131 -46.2947
  271 32.1411 -55.0946 -20.6538
  272 34.6943 -49.6245 26.1531
  273 -31.2707 -2.49568 22.8214
  274 -31.2961 -2.50833 -22.8474
  275 395.331 8.01499 -22.6128
  276 395.451 7.97791 22.6410
  277 684.842 -66.1876 -15.4190
  278 160.293 10.6238 2.68026
  279 160.349 10.6124 -2.67512
  280 -1.55637 -66.4125 33.4583
  281 22.6252 13.0490 12.7751
  282 22.4758 13.0761 -12.7988
  283 1075.13 72.6461 -35.4100
  284 529.137 -1.42054 7.96355
  285 528.950 -1.41354 -7.95836
  286 366.597 -13.2656 -136.479
  287 369.471 -13.0122 138.278
  288 684.074 -62.9490 4.46921
  289 -62.6327 2.13281 27.4928
  290 -62.7367 2.13147 -27.5456
  291 665.178 -37.0396 218.425
  292 -26.0195 5.58700 41.1086
  293 -26.1460 5.57377 -41.1993
  294 121.036 32.9201 -16.5484
  295 120.559 33.2135 16.6396
  296 -108.262 0.425783 0.908046
  297 -108.479 0.425365 -0.909998
  298 562.554 32.9997 -293.316
  299 -105.199 1.97442 -11.4594
  300 -105.006 1.96973 11.4359
  301 -1.43967 -11.6079 45.8932
  302 0.371162 -11.1345 -45.2180
  303 257.129 23.9066 -37.1285
  304 257.103 23.9272 37.3127
  305 63.7721 4.69213 3.31449
  306 63.6609 4.69842 -3.32003
  307 265.750 7.10192 -8.80156
  308 265.766 7.10313 8.81307
  309 27.3409 -12.7826 19.2619
  310 24.9606 -16.3254 -19.7087
  311 258.021 1.61941 -2.48404
  312 258.034 1.62074 2.48630
  313 -88.2205 2.33761 19.8423
  314 -88.3594 2.34060 -19.8833
  315 67.9201 1.53719 -24.5515
  316 66.0404 1.41828 22.7986
  317 549.635 -1.91809 2.24214
  318 549.435 -1.91609 -2.23947
  319 1185.40 65.9089 52.0345
  320 134.768 14.8016 -0.424303
  321 134.687 14.8228 0.430297
  322 -17.7648 5.07544 7.87021
  323 -17.9253 5.08497 -7.88572
  324 181.898 21.5130 -9.36026
  325 181.828 21.5447 9.40077
  326 25.1256 19.5510 32.3892
  327 24.9674 19.5843 -32.5076
  328 2.88637 -117.220 21.8295
  329 -113.145 -0.239137 -2.30129
  330 -112.926 -0.238654 2.29701
  331 425.456 -1.46065 -4.37001
  332 425.576 -1.46250 4.37389
  333 447.726 0.428951 -11.5765
  334 447.862 0.418663 11.5853
  335 -106.820 1.50654 -7.97852
  336 -106.614 1.50354 7.96407
  337 8.22780 0.804500 0.485492
  338 8.08477 0.805030 -0.487328
  339 -2.42966 -49.9626 25.8505
  340 -1.91490 -51.9746 -25.8109
  341 508.995 -39.8971 -93.4126
  342 527.641 -47.8328 91.8840
  343 305.749 11.6284 -16.4106
  344 305.794 11.6198 16.4388
  345 140.041 30.9868 -11.5920
  346 139.786 31.1358 11.6639
  347 -39.4543 8.39122 18.3591
  348 -39.6239 8.41015 -18.3970
  349 922.961 39.3299 44.9315
  350 53.6149 -53.0570 -67.0814
  351 57.3333 -47.3118 69.6261
  352 -14.4315 14.4310 30.4313
  353 -14.6029 14.4634 -30.5001
  354 -24.4975 -4.41471 41.1449
  355 -24.5732 -4.43148 -41.2310
  356 1049.14 187.237 -68.8654
  357 691.179 -4.20907 73.0072
  358 633.811 -16.0754 -18.4019
  359 633.490 -15.6987 17.5530
  360 452.034 -6.68266 -59.9071
  361 451.468 -7.05607 59.9674
  362 0.927438 -141.247 -17.1642
  363 577.269 -0.203328 -13.9733
  364 577.479 -0.240546 13.9544
  365 8.10618 -130.406 11.4402
  366 694.996 55.4472 -34.8237
  367 173.886 3.07957 1.13986
  368 173.847 3.08242 -1.14079
  369 453.364 0.945046 -44.4146
  370 453.636 0.773584 44.5039
  371 484.255 1.35253 -26.5090
  372 484.441 1.27570 26.5150
  373 0.543200 4.09998 4.82373
  374 0.393932 4.10609 -4.83312
  375 286.930 15.8500 -72.8984
  376 286.931 16.0457 73.4433
  377 565.913 -1.62161 3.64691
  378 565.702 -1.61906 -3.64295
  379 332.360 15.3622 -37.6386
  380 332.461 15.2979 37.7655
  381 378.752 2.86925 9.84606
  382 378.661 2.87289 -9.83691
  383 -17.9032 -3.13709 14.2588
  384 -17.9054 -3.14618 -14.2617
  385 -4.31612 -3.05099 -4.26487
  386 -4.31775 -3.05197 4.27111
  387 758.913 -83.6280 67.6684
  388 -9.40745 -23.0273 38.0310
  389 -9.33669 -23.2422 -38.0466
  390 133.803 5.78406 -0.0228838
  391 133.871 5.77737 0.0225849
  392 -3.72809 -19.0249 14.3437
  393 -3.77257 -18.9988 -14.3478
  394 55.8038 20.8600 13.2476
  395 55.6496 20.9083 -13.2705
  396 619.896 -4.18135 18.7019
  397 619.595 -3.98324 -18.9329
  398 -0.618154 -34.4243 44.3889
  399 -50.6137 -0.791958 21.3936
  400 -50.6623 -0.797344 -21.4262
  401 -0.814479 -36.5088 -43.8976
  402 579.723 -1.18860 8.92764
  403 579.506 -1.17757 -8.92797
  404 -1.35516 14.0793 38.9377
  405 -1.57384 14.1132 -39.0432
  406 435.514 3.58430 -18.1457
  407 435.647 3.56131 18.1586
  408 666.350 -28.1509 -8.84665
  409 667.547 -23.0577 6.11099
  410 -1.20501 -67.7922 -28.1478
  411 65.6473 25.3051 -5.27256
  412 66.1712 25.0744 5.16962
  413 686.650 44.0624 21.1689
  414 385.321 -11.9418 -186.397
  415 394.767 -18.7616 194.379
  416 29.1596 20.4662 22.9565
  417 28.9827 20.5195 -23.0057
  418 284.658 4.58342 -6.02795
  419 284.687 4.58478 6.03432
  420 276.537 74.2870 293.288
  421 120.409 25.0950 -1.06820
  422 120.546 25.0334 1.08221
  423 8.08162 -59.4743 27.2260
  424 -0.792476 -109.548 -23.9349
  425 50.8913 25.7667 20.0814
  426 50.6919 25.8429 -20.1416
  427 63.6475 13.1456 -7.17881
  428 63.7721 13.1226 7.16818
  429 -16.6771 0.264361 -45.4921
  430 -16.5516 0.236902 45.3985
  431 142.039 29.0560 -34.7071
  432 141.428 29.4447 34.9458
  433 675.450 -19.3763 -56.0573
  434 21.9487 -2.67047 31.4864
  435 21.2972 -2.55873 -31.7439
  436 492.689 -21.5528 -66.1198
  437 494.549 -22.9288 66.0953
  438 -117.243 0.818363 -11.6238
  439 -117.064 0.815473 11.5993
  440 -0.00984011 -108.229 21.7176
  441 -0.719013 -69.0495 25.1203
  442 -47.0936 3.49990 35.0754
  443 -47.2014 3.49552 -35.1445
  444 353.405 -0.0701332 -2.20376
  445 353.479 -0.0704302 2.20592
  446 -10.2092 -16.1570 26.2213
  447 -10.2310 -16.1990 -26.2008
  448 227.283 16.3964 -104.897
  449 226.773 17.3099 105.869
  450 1.90875 -128.292 -22.6466
  451 1182.55 38.1433 0.171924
  452 3.67557 -147.082 -10.2836
  453 -134.913 -0.427103 -3.74462
  454 -134.684 -0.426982 3.73837
  455 -50.3743 7.76973 27.4215
  456 -50.5347 7.78582 -27.4819
  457 -63.3416 0.969156 21.3253
  458 -63.4132 0.968119 -21.3607
  459 246.891 22.5901 -26.5837
  460 246.870 22.6150 26.6945
  461 366.280 11.3388 -29.0478
  462 366.396 11.2832 29.1092
  463 -4.95007 -20.4548 46.1275
  464 -4.95773 -20.3178 -46.3267
  465 642.770 15.3381 -70.3467
  466 46.9843 -4.04067 0.893393
  467 45.3279 -4.45351 -0.0281742
  468 10.9915 -126.771 -8.00942
  469 7.31475 -149.517 2.80428
  470 -18.6798 -8.19180 26.9371
  471 -18.6942 -8.22420 -26.9550
  472 139.936 16.3833 -159.850
  473 940.322 28.7749 -115.140
  474 225.192 11.1897 9.25510
  475 225.205 11.1829 -9.23841
  476 324.672 5.13441 -99.4852
  477 325.242 5.04696 100.778
  478 100.405 32.3486 3.33993
  479 100.196 32.4621 -3.34557
  480 293.786 20.3146 -54.6688
  481 293.841 20.2472 54.9959
  482 13.7822 8.13072 39.0176
  483 14.4345 8.45852 -38.9674
  484 -120.699 1.55722 -8.09788
  485 -120.491 1.55474 8.08224
  486 628.572 -69.7055 -57.3095
  487 494.942 -1.92378 -3.00523
  488 495.107 -1.92568 3.00812
  489 36.8347 1.81911 -1.50751
  490 36.9604 1.81670 1.50374
  491 -25.9485 11.2664 24.6796
  492 -26.1169 11.2929 -24.7319
  493 -63.7986 3.67414 -8.10522
  494 -63.6144 3.66788 8.08942
  495 225.481 18.6092 -13.8204
  496 225.457 18.6227 13.8627
  497 -21.7392 10.4051 36.2201
  498 -21.9028 10.4256 -36.3092
  499 574.724 -17.6128 -35.9254
  500 575.725 -18.3552 35.6212
  501 384.313 2.98860 -66.7376
  502 383.681 2.79027 67.2552
  503 149.382 3.99389 0.221884
  504 149.439 3.98993 -0.222216
  505 2.11763 -64.4031 -37.0177
  506 677.079 -22.2569 45.5961
  507 10.7899 -39.4876 -31.3088
  508 200.260 30.0652 28.4064
  509 200.421 29.9582 -28.2333
  510 621.806 -65.2019 56.8401
  511 51.6696 -35.7730 88.6261
  512 734.455 -81.2789 -108.447
  513 504.221 -0.446595 32.0357
  514 503.972 -0.288077 -32.0229
  515 2.13918 -54.6949 38.5461
  516 -9.93050 -2.91424 -7.71728
  517 -9.93366 -2.91209 7.72179
  518 71.7841 1.26507 -0.198638
  519 71.8873 1.26375 0.197498
  520 -1.64960 -38.9989 16.7576
  521 -1.49644 -38.8237 -16.8501
  522 416.048 1.31181 7.50653
  523 415.934 1.31382 -7.50008
  524 1144.40 216.972 105.585
  525 52.6469 -19.5872 -24.4561
  526 41.2817 -29.9528 15.8550
  527 -3.13079 7.83563 -10.8267
  528 -2.97499 7.81948 10.8059
  529 -98.9696 1.54458 12.6041
  530 -99.0864 1.54624 -12.6281
  531 1.08018 -121.012 23.0037
  532 -131.045 0.821919 0.753274
  533 -131.277 0.821859 -0.755415
  534 135.794 6.67289 -119.925
  535 133.031 8.48830 124.065
  536 125.121 25.6509 -46.5835
  537 124.209 26.1418 46.7823
  538 -26.1378 -5.11678 36.3132
  539 -26.1887 -5.14293 -36.3763
  540 124.952 8.13934 -0.332682
  541 124.875 8.14928 0.332789
  542 -49.3819 1.82130 2.84472
  543 -49.5603 1.82333 -2.85160
  544 145.245 17.9287 -2.03673
  545 145.160 17.9588 2.05109
  546 -2.70651 -8.99733 6.62180
  547 -2.71630 -8.99064 -6.62095
  548 55.0829 23.8914 16.3677
  549 54.7278 24.1885 -16.5173
  550 44.4883 10.9117 13.2371
  551 43.8980 10.8681 -13.6238
  552 506.786 1.21444 13.3966
  553 506.613 1.22689 -13.3901
  554 452.139 3.13729 21.8856
  555 451.988 3.17863 -21.8726
  556 -0.453586 -104.898 -15.2091
  557 322.380 12.8393 -23.1098
  558 322.444 12.8180 23.1573
  559 322.133 4.18373 -9.35628
  560 322.187 4.18081 9.36724
  561 -32.0206 0.398572 0.377978
  562 -31.8522 0.398785 -0.378710
  563 576.245 28.9960 -13.5185
  564 706.361 -81.8900 -46.4522
  565 605.998 29.8623 52.0867
  566 5.54859 -83.8716 -25.2080
  567 -23.2903 9.12344 -15.2869
  568 -23.1248 9.10465 15.2574
  569 6.12509 -47.6833 35.2599
  570 -29.2374 1.55999 40.7810
  571 -29.3385 1.55092 -40.8578
  572 907.125 86.8473 11.2307
  573 214.399 6.67181 -5.10202
  574 214.382 6.67624 5.10866
  575 1322.62 115.634 -123.745
  576 -4.40276 -3.25926 46.6143
  577 -3.88097 -2.88447 -46.6245
  578 746.133 -58.4887 15.5823
  579 596.188 -0.943555 -15.4140
  580 596.406 -1.00874 15.3663
  581 286.471 6.16630 -142.676
  582 289.578 5.22294 144.571
  583 -14.4259 -13.7199 41.8358
  584 -14.4447 -13.7990 -41.9614
  585 153.929 19.4026 80.7454
  586 155.178 18.3755 -80.2339
  587 -114.569 1.26418 -11.5433
  588 -114.407 1.26207 11.5195
  589 878.331 89.3475 27.6376
  590 177.277 12.9778 4.46050
  591 177.325 12.9641 -4.44977
  592 208.010 26.2449 -56.6666
  593 207.685 26.5452 57.1316
  594 544.434 -3.39812 -31.0529
  595 544.760 -3.62934 31.0381
  596 -2.05552 -53.0991 -37.3756
  597 584.078 -1.71041 4.69204
  598 583.854 -1.70715 -4.68807
  599 -75.3850 0.903887 -0.831176
  600 -75.1895 0.903618 0.828008
  601 -140.877 -1.38258 -0.112283
  602 -141.117 -1.38409 0.111796
  603 14.2113 -73.2277 -7.32468
  604 -5.23415 -34.9886 32.6359
  605 -5.52043 -33.0311 -32.8493
  606 -64.1290 4.22348 28.9465
  607 -64.2565 4.22783 -29.0056
  608 418.330 7.14334 27.9918
  609 418.184 7.20633 -27.9592
  610 310.835 0.793406 2.12975
  611 310.788 0.792662 -2.12799
  612 74.8157 -7.36602 55.0610
  613 76.9286 -5.85515 -54.6419
  614 -2.06884 -27.2761 14.2224
  615 -2.13776 -27.1950 -14.2737
  616 698.194 81.3031 314.532
  617 -35.1207 -1.00656 13.0925
  618 -35.1293 -1.01183 -13.1058
  619 14.4309 -43.5656 -23.5252
  620 305.157 8.67303 -12.7173
  621 305.200 8.66916 12.7355
  622 155.119 31.6287 -23.5322
  623 154.794 31.8283 23.6917
  624 1.45421 -177.624 6.87094
  625 118.345 29.6174 -0.421488
  626 118.181 29.7033 0.438466
  627 -4.13246 11.6997 18.5010
  628 -4.29509 11.7262 -18.5372
  629 -0.828734 -91.9459 20.7205
  630 -143.098 -0.113900 -3.81594
  631 -142.866 -0.114065 3.80928
  632 205.035 2.33894 2.23343
  633 205.056 2.33670 -2.23148
  634 493.885 -0.925456 9.08286
  635 493.722 -0.919334 -9.07590
  636 442.822 -16.8304 241.241
  637 357.431 5.62708 -17.9259
  638 357.514 5.60928 17.9495
  639 8.32417 -4.27450 41.7428
  640 9.78471 -1.25286 -41.4847
  641 564.898 -44.1910 -196.984
  642 1281.43 42.6186 -51.3286
  643 -134.484 -0.0255719 -7.78095
  644 -134.287 -0.0268018 7.76561
  645 43.4615 5.80092 -4.02000
  646 43.5861 5.79232 4.01241
  647 -2.39213 -56.9605 33.3046
  648 768.970 53.3288 -58.8334
  649 577.087 -1.96013 0.880856
  650 576.869 -1.95833 -0.879623
  651 -36.7608 -1.75850 -30.0069
  652 -36.7099 -1.74743 29.9609
  653 -0.133894 -129.624 -19.4237
  654 586.690 -1.82776 1.82114
  655 586.465 -1.82599 -1.81874
  656 63.4681 17.5963 10.7741
  657 63.3297 17.6326 -10.7894
  658 461.678 -35.5727 -131.274
  659 469.303 -35.3339 132.529
  660 657.249 -5.14567 11.1762
  661 657.160 -5.11384 -11.5247
  662 3.00055 -160.724 13.9809
  663 -25.5320 0.0149326 -1.56286
  664 -25.3679 0.0149532 1.55941
  665 221.367 60.0266 -232.830
  666 212.791 1.73721 2.12903
  667 212.806 1.73533 -2.12763
  668 110.483 5.18824 -0.888433
  669 110.401 5.19402 0.887535
  670 129.104 10.8793 1.58354
  671 129.182 10.8648 -1.58037
  672 394.608 8.45519 -43.3696
  673 394.810 8.32898 43.4878
  674 110.887 31.1428 -6.32188
  675 110.543 31.3556 6.33447
  676 -63.1287 4.70733 -15.0496
  677 -62.9505 4.69574 15.0198
  678 -75.6850 5.30341 -17.6711
  679 -75.5094 5.29243 17.6345
  680 678.412 -10.7950 0.566090
  681 2.18595 -24.4046 -43.7981
  682 678.841 -11.3176 -1.32725
  683 876.066 66.4945 -7.86591
  684 -84.2122 0.433942 14.4468
  685 -84.3027 0.433041 -14.4733
  686 96.6541 29.0065 -13.5162
  687 95.9767 29.3122 13.5449
  688 -153.182 -0.133774 -1.10185
  689 -152.938 -0.133465 1.09897
  690 2.85707 -21.6215 43.6986
  691 -51.6721 0.979884 31.0701
  692 -51.7628 0.974917 -31.1263
  693 747.464 -54.2228 -18.2309
  694 128.255 0.640078 -1.42325
  695 128.187 0.641256 1.42361
  696 36.5503 9.52909 7.67005
  697 36.4161 9.54556 -7.68283
  698 404.610 -15.9132 -110.868
  699 407.321 -16.5535 112.772
  700 1334.61 96.9156 111.409
  701 29.1859 -99.5548 -55.2118
  702 -8.95514 -19.4197 44.4362
  703 -8.95423 -19.5101 -44.5562
  704 92.6793 16.9015 -3.98163
  705 92.7923 16.8720 3.97874
  706 603.223 -1.63380 -4.73182
  707 603.460 -1.63768 4.73426
  708 297.904 1.85783 4.33363
  709 297.865 1.85756 -4.32925
  710 30.0578 22.3136 28.2829
  711 29.8680 22.3763 -28.3624
  712 25.2962 3.92865 2.77365
  713 25.1628 3.93326 -2.77940
  714 -14.3214 5.35471 43.9938
  715 -14.4615 5.33977 -44.1060
  716 500.228 -2.52192 3.92274
  717 500.060 -2.51893 -3.91871
  718 436.624 1.01389 10.5193
  719 436.496 1.01933 -10.5108
  720 63.7965 -22.9717 64.5720
  721 65.3993 -25.7271 -62.7336
  722 -30.2772 7.82775 38.3170
  723 -30.4205 7.83143 -38.4065
  724 20.4697 -34.4111 16.6445
  725 5.57210 14.4970 38.8992
  726 5.34440 14.5227 -38.9800
  727 -88.7953 2.29060 -9.73598
  728 -88.6014 2.28563 9.71635
  729 84.5360 23.5971 8.75177
  730 84.3822 23.6549 -8.75988
  731 676.692 -19.5126 -30.1116
  732 640.069 -53.8133 -23.8748
  733 -9.93213 -20.4245 32.1876
  734 -9.92396 -20.5294 -32.1551
  735 257.501 9.92374 -168.023
  736 251.238 14.9580 169.210
  737 159.964 30.3492 -32.6481
  738 159.538 30.6345 32.8927
  739 15.4207 -19.5717 32.5993
  740 -0.845569 -68.6855 -18.2484
  741 323.929 15.3071 -42.0927
  742 324.039 15.2476 42.2732
  743 0.749192 -133.711 16.5612
  744 197.305 24.1285 -15.4395
  745 197.232 24.1677 15.5065
  746 635.403 -1.56997 -11.6144
  747 635.594 -1.63813 11.5070
  748 13.7390 -164.803 9.92745
  749 298.741 19.2380 32.6385
  750 298.689 19.2613 -32.5251
  751 85.5550 29.9286 -0.663999
  752 85.9929 29.6529 0.593553
  753 -113.857 0.742167 -9.87609
  754 -113.716 0.741475 9.85547
  755 327.821 2.43889 -7.92514
  756 327.878 2.43744 7.93297
  757 208.162 27.4155 -24.3983
  758 208.058 27.4809 24.5259
  759 7.42550 17.5078 29.0708
  760 7.24514 17.5544 -29.1359
  761 641.889 -46.2522 15.8502
  762 -90.8447 1.59615 7.27386
  763 -91.0449 1.59880 -7.28617
  764 1332.79 286.894 -203.325
  765 -28.1778 2.80079 7.04547
  766 -28.3435 2.80615 -7.05794
  767 542.705 -0.613171 21.8937
  768 542.495 -0.537088 -21.9153
  769 1007.65 59.2684 -1.56579
  770 608.510 -2.65354 -8.75597
  771 608.742 -2.66646 8.75049
  772 397.719 2.73256 13.5088
  773 397.615 2.74129 -13.4967
  774 591.498 -56.1885 179.954
  775 264.525 15.9398 -14.3175
  776 264.538 15.9418 14.3518
  777 6.60839 -94.3966 16.7039
  778 676.657 -77.9941 66.5441
  779 412.676 -1.75332 2.23951
  780 412.564 -1.75198 -2.23761
  781 533.270 -1.49985 1.17938
  782 533.080 -1.49833 -1.17800
  783 -2.21855 -53.3254 -31.2856
  784 3.72781 -87.5957 28.0265
  785 252.400 26.3430 45.3267
  786 252.456 26.2996 -45.0505
  787 1313.12 10.5938 12.5401
  788 424.301 1.57033 -53.2889
  789 424.552 1.42048 53.4377
  790 -82.4025 2.73324 21.2697
  791 -82.5594 2.73991 -21.3129
  792 19.8107 -64.6560 -0.324376
  793 12.5854 -151.709 -18.4333
  794 951.520 126.054 -30.5221
  795 -0.787128 -68.5689 16.4908
  796 23.8580 16.0383 33.5492
  797 23.7753 16.0204 -33.7657
  798 136.687 23.6091 -1.72081
  799 136.579 23.6578 1.74009
  800 635.197 -29.6198 -14.6897
  801 636.910 -29.1205 12.9771
  802 731.128 152.514 -298.693
  803 -92.9088 0.486473 -2.78862
  804 -92.7045 0.485705 2.78203
  805 -48.0852 -0.141292 12.2576
  806 -48.1072 -0.143675 -12.2738
  807 50.9076 8.92120 4.03802
  808 49.8706 8.88756 -4.18432
  809 486.305 -4.66798 47.7104
  810 485.975 -4.32929 -47.5560
  811 253.371 3.48421 -3.29280
  812 253.381 3.48618 3.29653
  813 778.552 -0.929634 52.5943
  814 91.6136 11.2513 -3.72080
  815 91.7179 11.2337 3.71669
  816 82.6697 16.1271 -21.9183
  817 81.9571 16.4586 22.0600
  818 0.469952 -50.7074 -40.6323
  819 1072.82 199.386 177.069
  820 -151.818 0.0263161 -3.89801
  821 -151.586 0.0262340 3.89056
  822 -0.208231 -161.237 15.0423
  823 13.8498 -19.4439 -33.1646
  824 -24.1380 -1.41842 9.24768
  825 -24.1320 -1.42250 -9.25247
  826 873.953 65.7811 -26.9035
  827 237.690 20.3367 -18.1390
  828 237.669 20.3525 18.2050
  829 601.103 -10.4475 -24.2468
  830 601.723 -10.5041 24.0085
  831 -146.206 0.960162 5.41260
  832 -146.422 0.961790 -5.42339
  833 -1.12939 -1.16392 -0.992086
  834 -1.13167 -1.16593 0.995992
  835 0.403772 -164.673 -14.4812
  836 0.759028 -170.229 -12.0503
  837 -156.940 1.33688 0.643084
  838 -157.190 1.33727 -0.644248
  839 98.5328 -5.90933 -115.986
  840 377.260 1.48147 -4.31582
  841 377.349 1.48124 4.31984
  842 -1.05177 1.58813 0.856999
  843 -1.20058 1.58886 -0.858199
  844 551.031 -0.366195 -14.3707
  845 551.231 -0.390904 14.3661
  846 -63.0036 0.429664 11.5956
  847 -63.0454 0.429608 -11.6128
  848 343.207 23.4892 -246.267
  849 583.057 -48.3063 54.6895
  850 454.708 -0.546177 -4.90025
  851 454.846 -0.548153 4.90484
  852 578.296 -52.3028 -60.3942
  853 188.781 17.6342 -8.37527
  854 188.729 17.6544 8.40388
  855 256.208 13.2970 -11.3590
  856 256.216 13.3005 11.3818
  857 675.757 -13.9603 23.1240
  858 47.6534 25.5605 21.6319
  859 47.4430 25.6490 -21.7308
  860 53.2070 1.09238 1.06032
  861 53.0918 1.09381 -1.06284
  862 323.437 0.929299 3.81077
  863 323.383 0.929185 -3.80729
  864 821.609 -57.6585 109.382
  865 519.482 0.654410 -19.1445
  866 519.673 0.609158 19.1384
  867 17.4131 6.47664 5.96400
  868 17.2719 6.48676 -5.97512
  869 518.450 -2.46382 5.54874
  870 518.270 -2.46009 -5.54345
  871 -86.0411 -0.177644 -2.30898
  872 -85.8378 -0.176810 2.30684
  873 -0.408953 -52.6890 14.7905
  874 -0.551277 -53.5086 -14.8935
  875 639.015 -6.38111 58.2928
  876 -33.2381 9.83166 31.5423
  877 -33.3982 9.85247 -31.6139
  878 -0.185757 -86.2797 -16.1698
  879 255.819 6.13070 -6.12344
  880 255.829 6.13361 6.13051
  881 463.581 -22.4757 -85.2228
  882 466.880 -24.8265 86.0046
  883 -18.0431 -5.75959 -44.4868
  884 -17.9471 -5.75260 44.3737
  885 31.4655 21.9013 25.6879
  886 31.2784 21.9620 -25.7484
  887 2.13277 -190.810 9.36491
  888 11.3532 17.9875 34.9338
  889 11.1543 18.0274 -35.0152
  890 429.162 -8.01058 -76.0156
  891 428.161 -8.25262 76.5997
  892 739.348 47.5773 62.6229
  893 176.533 16.2020 5.73463
  894 176.588 16.1836 -5.71724
  895 531.380 1.12300 -14.2051
  896 531.568 1.10555 14.2077
  897 -19.9655 -8.33919 39.5664
  898 -20.0130 -8.37745 -39.6504
  899 2.03207 -193.189 -4.46949
  900 -30.7755 -1.57357 38.5473
  901 -30.8515 -1.58290 -38.6178
  902 27.8989 19.0747 -19.5764
  903 28.0646 19.0285 19.5367
  904 -1.62231 -13.4713 7.40600
  905 -1.64135 -13.4593 -7.41762
  906 53.4105 21.5336 -16.4245
  907 53.5802 21.4761 16.3932
  908 12.2696 -12.1364 37.8884
  909 10.8806 -11.2485 -40.2585
  910 522.611 -16.2103 49.1016
  911 521.453 -15.5819 -49.2526
  912 -160.959 0.238334 -0.946057
  913 -160.708 0.238451 0.944169
  914 -14.9565 -1.30282 7.01459
  915 -14.9450 -1.30541 -7.01371
  916 0.672243 -122.205 -14.5852
  917 -15.6513 -6.61048 -19.7838
  918 -15.6415 -6.59208 19.7808
  919 -62.7011 5.63422 27.3362
  920 -62.8495 5.64465 -27.3950
  921 170.895 30.4208 -16.7571
  922 170.732 30.5305 16.8504
  923 713.315 53.9084 -6.52272
  924 -1.49254 15.2938 26.3671
  925 -1.66471 15.3314 -26.4234
  926 265.520 17.9259 -81.8326
  927 265.452 18.1607 82.5757
  928 -23.6335 10.3157 21.0960
  929 -23.8010 10.3411 -21.1405
  930 828.804 -26.0944 3.73192
  931 538.742 21.5914 27.4590
  932 622.071 -5.62910 -52.6840
  933 457.288 3.28597 -32.3073
  934 457.486 3.18008 32.3389
  935 -39.5559 5.63119 -9.48258
  936 -39.3847 5.62077 9.46333
  937 -103.105 1.74363 13.2188
  938 -103.286 1.74829 -13.2468
  939 -6.36288 -20.8564 -22.9054
  940 -6.31279 -20.8667 22.9411
  941 170.030 7.84730 3.52993
  942 170.077 7.83940 -3.52575
  943 -47.6381 5.54529 34.4836
  944 -47.7644 5.54605 -34.5574
  945 539.730 -1.97878 7.11960
  946 539.536 -1.97457 -7.11362
  947 -3.82580 -45.2271 34.0665
  948 28.1249 17.1530 -16.4669
  949 28.2817 17.1153 16.4358
  950 36.9086 11.1472 9.95569
  951 36.7697 11.1688 -9.97259
  952 103.505 6.61956 -0.890345
  953 103.593 6.61142 0.887917
  954 1008.81 151.383 -52.5722
  955 -4.20649 -1.11356 -2.84594
  956 -4.21534 -1.11324 2.85087
  957 39.6245 13.5480 -19.5639
  958 40.2624 13.2862 19.4184
  959 373.060 11.8620 -35.1922
  960 373.199 11.7842 35.2785
  961 55.7980 14.3238 -8.92844
  962 55.9316 14.2965 8.91426
  963 104.514 12.7145 149.266
  964 682.731 -5.50319 -6.84003
  965 682.119 -5.30838 6.29431
  966 129.532 7.90668 133.106
  967 137.857 3.11669 -1.50173
  968 137.794 3.11982 1.50197
  969 342.613 0.765341 -213.704
  970 259.212 1.29323 1.97987
  971 259.198 1.29183 -1.97841
  972 35.3054 -24.9966 -0.645202
  973 38.9991 -19.7137 3.57210
  974 601.464 -1.22842 2.42243
  975 601.228 -1.22698 -2.41953
  976 -49.0351 0.335170 28.5262
  977 -49.1035 0.330781 -28.5720
  978 1082.60 138.511 74.2398
  979 -3.88743 -32.6225 -44.0848
  980 6.79844 -148.843 27.2082
  981 -0.270809 -52.4112 40.3746
  982 623.271 -1.35686 -8.93073
  983 623.498 -1.37563 8.91289
  984 -8.19540 -15.0946 19.8585
  985 -8.22082 -15.1004 -19.8435
  986 798.549 87.3087 -27.7012
  987 1329.39 9.52764 -8.27805
  988 -2.05957 -3.22335 -3.09741
  989 -2.05709 -3.23005 3.10184
  990 370.980 1.18820 -7.89212
  991 371.065 1.18627 7.89911
  992 -3.91743 -31.2250 44.2345
  993 511.144 -0.164132 28.3791
  994 510.928 -0.0513539 -28.3822
  995 672.849 -42.5333 -18.7459
  996 -23.1688 -4.68200 22.2485
  997 -23.1835 -4.70124 -22.2649
  998 12.8033 -38.2362 28.1100
  999 -0.834709 -80.4300 31.7269
  1000 -0.106004 -85.6740 16.1732
  1001 711.466 43.7422 -4.49663
  1002 799.825 88.4109 11.7869
  1003 567.267 -60.5501 -102.561
  1004 9.10069 -74.4073 22.1194
  1005 11.3002 -105.123 0.220684
  1006 165.517 1.24798 0.0458957
  1007 165.473 1.24959 -0.0460735
  1008 -6.23203 -7.11934 -9.60457
  1009 -6.22559 -7.11918 9.61087
  1010 6.32554 -61.2172 -31.5390
  1011 453.861 -1.97030 -1.80272
  1012 453.999 -1.97200 1.80448
  1013 97.5088 8.12135 -54.8053
  1014 93.4523 8.33240 54.3044
  1015 -3.66902 14.7146 35.9123
  1016 -3.85969 14.7503 -36.0046
  1017 -47.5519 7.88664 -22.0220
  1018 -47.3829 7.86873 21.9761
  1019 355.283 5.52677 -78.5613
  1020 355.381 5.88651 79.3235
  1021 258.747 21.9708 -57.4316
  1022 258.656 21.9932 57.8655
  1023 278.546 16.7858 -20.8967
  1024 278.570 16.7784 20.9503
  1025 709.635 -14.1705 -64.8083
  1026 -14.8687 9.41503 40.4621
  1027 -15.0365 9.42096 -40.5771
  1028 500.558 -2.88419 39.1946
  1029 500.268 -2.63223 -39.1477
  1030 -2.02153 -23.5333 45.6110
  1031 -39.8122 -1.19340 21.3153
  1032 -39.8430 -1.20064 -21.3431
  1033 457.449 1.51734 -39.2050
  1034 457.684 1.36494 39.2586
  1035 586.929 16.2832 -47.0725
  1036 -0.329726 -79.6929 -33.2248
  1037 -6.16487 -31.2322 40.2264
  1038 -6.44133 -31.6571 -39.9099
  1039 327.211 15.9658 -30.0790
  1040 327.292 15.9250 30.1658
  1041 406.939 4.43723 16.5917
  1042 406.826 4.45217 -16.5768
  1043 671.497 -41.5627 15.8166
  1044 43.4762 1.53018 -0.253952
  1045 43.5969 1.52905 0.253178
  1046 572.887 -67.6011 109.251
  1047 7.10175 0.791864 1.77590
  1048 6.95791 0.792938 -1.77956
  1049 131.330 30.9719 -6.05437
  1050 131.130 31.0876 6.09405
  1051 53.7160 24.6108 18.1838
  1052 53.5320 24.6785 -18.2257
  1053 6.92042 -93.3323 -17.4871
  1054 173.668 3.59922 2.25801
  1055 173.710 3.59527 -2.25596
  1056 530.089 16.3885 11.4912
  1057 459.130 0.743897 15.0810
  1058 458.986 0.760218 -15.0712
  1059 -1.50918 -24.5992 -45.6984
  1060 687.947 -9.06553 -11.0319
  1061 2.51384 -0.0521524 44.2160
  1062 3.06515 0.275702 -43.9441
  1063 618.696 -1.71436 -4.97039
  1064 618.941 -1.71901 4.97065
  1065 660.574 -2.98198 -8.80935
  1066 660.640 -3.05700 8.63381
  1067 -0.488970 -129.497 12.0471
  1068 396.457 6.89323 -21.8034
  1069 396.568 6.86609 21.8257
  1070 477.785 1.73574 17.3222
  1071 477.627 1.75829 -17.3141
  1072 14.7293 13.1143 38.4645
  1073 14.6485 13.1082 -38.5393
  1074 1030.28 64.7690 14.0942
  1075 -11.4018 -4.26344 46.8162
  1076 -11.6303 -4.14376 -46.9538
  1077 157.066 27.6630 -7.33494
  1078 156.955 27.7244 7.37670
  1079 -73.3311 0.710155 -3.22432
  1080 -73.1378 0.709436 3.21831
  1081 253.458 17.1211 -93.7361
  1082 253.043 17.7785 94.6703
  1083 77.4519 27.8496 12.1740
  1084 77.2539 27.9350 -12.2028
  1085 174.350 23.5358 -71.9764
  1086 173.466 24.3286 72.4455
  1087 -4.11257 -42.5317 -33.2419
  1088 603.641 10.5586 64.0219
  1089 413.950 20.5952 273.798
  1090 72.8510 29.2070 12.4650
  1091 72.6252 29.3153 -12.5140
  1092 255.233 10.1654 -8.99463
  1093 255.241 10.1676 9.01030
  1094 889.301 21.5219 0.426816
  1095 63.1090 18.4653 4.12519
  1096 62.3464 18.6278 -4.38610
  1097 -26.0660 -5.48892 29.3923
  1098 -26.0956 -5.51710 -29.4291
  1099 -0.850479 -20.0666 8.04897
  1100 -0.885899 -20.0564 -8.08223
  1101 586.692 -2.48116 22.4985
  1102 586.404 -2.29130 -22.5957
  1103 1.81605 -38.6580 42.4537
  1104 -38.2217 3.03053 -38.0692
  1105 -38.1182 3.03881 37.9957
  1106 0.177922 -154.765 -14.7727
  1107 -7.70424 -11.1820 46.7625
  1108 -7.66856 -10.9006 -46.8100
  1109 558.798 -1.01039 -9.47637
  1110 559.003 -1.01889 9.48055
  1111 580.370 -6.42514 27.5391
  1112 579.919 -6.11138 -27.6246
  1113 108.517 26.5168 -29.6221
  1114 107.713 26.9290 29.7766
  1115 -1.25289 -79.7916 -27.5195
  1116 759.495 -50.8271 -165.307
  1117 982.587 146.806 30.3816
  1118 11.4350 -109.945 4.09701
  1119 40.7709 22.1662 -25.5818
  1120 41.0041 22.0604 25.3903
  1121 102.522 31.2535 1.45585
  1122 102.265 31.3970 -1.46407
  1123 209.390 9.17569 5.24187
  1124 209.413 9.16944 -5.23241
  1125 -12.2597 -17.4689 37.8780
  1126 -12.2456 -17.6488 -37.9487
  1127 -31.4179 11.2836 28.6483
  1128 -31.5833 11.3090 -28.7100
  1129 -8.00104 14.7397 33.0396
  1130 -8.17969 14.7744 -33.1185
  1131 558.516 -28.8223 -49.0384
  1132 561.850 -28.9304 48.7906
  1133 0.785570 -89.7687 -31.1725
  1134 306.059 2.64364 -115.063
  1135 306.394 3.54438 116.709
  1136 102.862 27.4387 -3.71837
  1137 103.016 27.3665 3.72051
  1138 293.840 192.640 303.374
  1139 82.3719 21.4641 8.51344
  1140 82.2315 21.5104 -8.52222
  1141 753.772 -72.7669 -49.7230
  1142 292.856 4.84397 6.88074
  1143 292.821 4.84396 -6.87247
  1144 -12.6613 -11.2205 23.5111
  1145 -12.6740 -11.2505 -23.5091
  1146 -14.9758 -13.3343 30.2121
  1147 -14.9813 -13.3913 -30.2230
  1148 502.876 -44.6966 -157.456
  1149 511.906 -49.6796 158.520
  1150 98.9446 1.30872 2.05735
  1151 99.0312 1.30701 -2.05721
  1152 321.250 13.9766 -65.0311
  1153 321.178 13.8297 65.5824
  1154 679.407 -81.4044 123.739
  1155 596.699 -1.98872 1.37469
  1156 596.468 -1.98702 -1.37301
  1157 -48.9401 8.35593 25.7155
  1158 -49.1052 8.37366 -25.7694
  1159 -86.1925 2.42009 -12.9833
  1160 -86.0034 2.41385 12.9595
  1161 163.323 25.1865 190.786
  1162 512.901 32.4755 -23.4454
  1163 293.931 18.2705 -34.0947
  1164 293.981 18.2494 34.2410
  1165 869.380 0.384606 179.822
  1166 298.942 18.1509 -48.6169
  1167 298.994 18.0953 48.8684
  1168 81.9019 7.37702 -2.28758
  1169 82.0044 7.36705 2.28308
  1170 27.7319 -77.4107 25.4948
  1171 27.9454 -74.5952 -32.7657
  1172 401.673 -22.3818 -159.257
  1173 406.757 -20.5904 158.948
  1174 162.513 28.8029 -52.6283
  1175 161.828 29.3001 53.0114
  1176 695.362 -42.4749 -39.8454
  1177 -23.4239 -1.23664 43.1131
  1178 -23.5247 -1.23934 -43.2016
  1179 0.479089 -34.3298 -43.6897
  1180 185.316 14.3203 -123.103
  1181 185.675 14.7089 124.907
  1182 -0.435622 -35.3930 8.92071
  1183 -0.373740 -35.4819 -9.03487
  1184 -159.939 1.26659 -3.74957
  1185 -159.709 1.26554 3.74220
  1186 545.257 -1.87230 -2.82783
  1187 545.454 -1.87465 2.83127
  1188 346.194 9.52229 -19.8294
  1189 346.274 9.50020 19.8628
  1190 -10.0852 1.38814 46.3786
  1191 -10.1136 1.59428 -46.4710
  1192 -0.0389092 -139.370 -13.2899
  1193 -137.330 0.268563 6.41701
  1194 -137.516 0.269281 -6.43081
  1195 116.447 9.36989 -89.6714
  1196 115.679 10.0898 92.1700
  1197 643.867 -38.8959 -8.32189
  1198 192.749 18.6635 -111.048
  1199 192.847 19.0016 111.903
  1200 -77.8083 0.445578 10.4764
  1201 -77.8708 0.444850 -10.4937
  1202 2.30834 -116.778 -20.4880
  1203 -13.4098 3.66373 -3.89601
  1204 -13.2530 3.65941 3.88826
  1205 105.551 22.4443 4.61856
  1206 105.418 22.4948 -4.61564
  1207 365.644 -1.03038 -2.43576
  1208 365.726 -1.03101 2.43769
  1209 487.026 -0.134518 11.4408
  1210 486.866 -0.124232 -11.4333
  1211 30.2507 1.16076 20.5406
  1212 29.8148 0.672090 -21.0776
  1213 5.45402 -65.7986 31.8495
  1214 877.280 128.979 11.5109
  1215 -26.8637 -2.00527 16.9005
  1216 -26.8729 -2.01460 -16.9132
  1217 4.39820 -61.6634 -33.8066
  1218 -2.45418 -40.5087 24.6069
  1219 -2.34598 -40.0657 -25.4755
  1220 689.983 -7.73933 9.68546
  1221 0.573308 -158.760 13.4803
  1222 6.30118 -44.4505 -37.8093
  1223 92.5647 0.574735 0.535658
  1224 92.4745 0.575605 -0.536429
  1225 -6.06719 -27.5142 43.8417
  1226 -68.3832 3.74706 -10.5243
  1227 -68.1981 3.74053 10.5050
  1228 1354.70 22.1275 40.2746
  1229 -37.2036 5.11243 38.0870
  1230 -37.3258 5.10788 -38.1685
  1231 342.015 12.1058 -58.6878
  1232 342.224 11.9187 58.9862
  1233 24.3514 -25.8650 -10.8403
  1234 324.526 13.4367 -25.1297
  1235 324.597 13.4068 25.1916
  1236 14.5878 -86.5322 1.04802
  1237 -6.10136 -27.6017 -43.8142
  1238 -43.8681 1.17138 5.70544
  1239 -44.0428 1.17404 -5.71541
  1240 -21.8902 2.81883 -43.6539
  1241 -21.7660 2.83139 43.5695
  1242 697.201 57.6956 43.1199
  1243 393.202 2.80150 -61.0824
  1244 393.583 2.75200 61.2263
  1245 -165.353 0.238452 -1.12929
  1246 -165.103 0.238390 1.12646
  1247 352.722 5.34328 -13.2994
  1248 352.796 5.33756 13.3132
  1249 -167.865 -3.18164 -0.504530
  1250 -168.123 -3.18410 0.504664
  1251 523.823 -36.5107 -70.0867
  1252 -79.5412 1.45901 21.6648
  1253 -79.6575 1.45871 -21.7078
  1254 528.691 -38.5670 69.4562
  1255 359.676 9.93141 -26.3317
  1256 359.773 9.89139 26.3770
  1257 44.2140 -59.2371 -88.3429
  1258 0.844820 -108.831 -26.4948
  1259 -1.81163 -45.3713 40.9982
  1260 1082.95 221.259 -182.346
  1261 -0.189137 -103.110 26.4368
  1262 1137.98 108.447 -80.1624
  1263 -0.791097 -191.617 -12.0797
  1264 65.6911 3.77365 0.0292931
  1265 65.7995 3.76913 -0.0320958
  1266 -0.455865 -45.3671 9.33676
  1267 -0.359730 -45.6163 -9.31900
  1268 205.778 2.17284 1.14226
  1269 205.798 2.17070 -1.14136
  1270 701.774 -48.9359 37.2798
  1271 23.8593 3.84165 -4.50824
  1272 23.9943 3.83608 4.50051
  1273 4.06379 -201.790 3.25318
  1274 2.60020 -215.935 -3.30170
  1275 645.085 -74.4934 -77.5278
  1276 -1.65349 -57.6337 26.9797
  1277 691.039 48.6426 -56.9634
  1278 -1.99117 -75.9150 26.3971
  1279 1.44743 -203.501 -8.30237
  1280 330.507 6.16825 -15.1348
  1281 330.568 6.15551 15.1568
  1282 -0.284945 -114.280 11.9208
  1283 -0.229591 -93.5662 -26.6460
  1284 1463.30 280.575 235.787
  1285 599.187 -0.311285 1.00837
  1286 598.955 -0.310701 -1.00745
  1287 19.4316 4.54145 34.0120
  1288 18.8748 5.19985 -34.2076
  1289 -5.90339 10.0939 42.5562
  1290 -6.15695 10.0912 -42.6964
  1291 656.353 -11.1150 -37.4184
  1292 602.798 -25.9899 -29.5357
  1293 602.362 -29.3794 30.0340
  1294 99.3460 8.52056 1.88198
  1295 99.2510 8.53277 -1.88487
  1296 -94.1023 2.46525 -16.1955
  1297 -93.9311 2.45967 16.1606
  1298 671.021 -83.1522 -107.191
  1299 -4.94846 -12.1247 12.4772
  1300 -4.96888 -12.1191 -12.4734
  1301 711.614 -25.4756 61.2806
  1302 -7.08264 -27.2647 32.9298
  1303 -6.99995 -27.3701 -32.7800
  1304 -53.9866 3.35055 6.95803
  1305 -54.1664 3.35596 -6.97143
  1306 114.301 18.3000 -50.3050
  1307 113.201 18.8998 50.2350
  1308 176.808 2.08432 -0.566725
  1309 176.770 2.08673 0.566933
  1310 -63.8092 6.69107 25.8211
  1311 -63.9674 6.70395 -25.8743
  1312 564.316 0.133440 1.56677
  1313 564.107 0.133856 -1.56539
  1314 323.014 8.41901 211.352
  1315 466.008 -1.42354 4.07871
  1316 465.862 -1.42175 -4.07491
  1317 319.693 7.29927 -88.4992
  1318 319.654 6.96159 89.1565
  1319 3.34050 -114.926 -12.4754
  1320 128.319 31.0489 -25.4057
  1321 127.763 31.3864 25.5674
  1322 -1.27930 -1.07061 -1.62482
  1323 -1.28562 -1.07073 1.62945
  1324 404.749 9.21391 33.1649
  1325 404.596 9.30070 -33.1102
  1326 207.267 13.5929 8.13774
  1327 207.296 13.5824 -8.11861
  1328 299.949 13.4601 -18.0165
  1329 299.992 13.4487 18.0554
  1330 386.111 -0.649474 -4.13363
  1331 386.206 -0.650349 4.13709
  1332 -12.1541 -5.80640 -14.0558
  1333 -12.1491 -5.79768 14.0599
  1334 -107.616 -0.313760 4.09262
  1335 -107.828 -0.313383 -4.10095
  1336 -20.1721 -9.01076 -33.6059
  1337 -20.1475 -8.96096 33.5610
  1338 -55.7851 0.0834974 1.59935
  1339 -55.9686 0.0831591 -1.60204
  1340 -170.363 1.44839 0.626859
  1341 -170.622 1.44901 -0.627993
  1342 717.354 -77.4618 143.118
  1343 548.967 -1.80951 -53.1083
</Section>

newXOutput 87

<Section columns = "stress_xx | stress_yy | stress_xy">
  1 622.523 -1.35918 0.697430
  2 622.769 -1.36036 -0.697795
  3 -186.549 0.762822 -2.60369
  4 0.293746 0.0584762 0.530798
  5 1099.97 374.664 379.144
  6 1244.87 418.716 -366.664
  7 0.292164 0.0570775 -0.528692
  8 -186.275 0.762715 2.60193
  9 620.788 -1.31381 -2.08202
  10 621.396 -2.27010 -3.30773
  11 627.178 -2.29829 -0.963544
  12 628.018 -2.31844 -4.00929
  13 630.013 -2.31981 -1.40277
  14 642.867 -2.10108 -1.88038
  15 647.646 -2.87261 -5.39562
  16 653.118 -1.59655 -3.79748
  17 656.958 -0.485399 -7.30466
  18 682.954 -4.29100 -6.24489
  19 694.873 -3.52512 -7.91550
  20 708.474 -4.98624 -3.64840
  21 715.806 -6.32854 -2.67464
  22 713.998 -7.00199 7.45860
  23 694.395 -7.53643 16.6171
  24 646.873 -7.64444 36.7553
  25 566.884 5.58386 43.1536
  26 503.193 7.28666 39.3281
  27 412.369 12.3689 23.7260
  28 435.961 11.9997 2.99907
  29 375.800 34.3404 -14.6257
  30 482.335 16.4071 -44.0562
  31 538.484 4.76679 -35.7672
  32 635.984 -1.20472 -31.1117
  33 688.336 -9.13311 -20.1617
  34 713.480 -8.13058 -7.35555
  35 714.906 -6.16136 2.75140
  36 707.900 -4.93134 3.49547
  37 694.755 -3.54255 7.73079
  38 683.036 -4.33553 6.14555
  39 657.168 -0.509551 7.26430
  40 653.366 -1.60567 3.78513
  41 647.910 -2.87910 5.39505
  42 643.132 -2.10472 1.88089
  43 630.269 -2.32269 1.40446
  44 628.272 -2.32090 4.01327
  45 627.430 -2.30027 0.965138
  46 621.643 -2.27195 3.31063
  47 621.033 -1.31499 2.08383
  48 589.126 0.622281 -0.823868
  49 547.763 -0.931673 -1.74581
  50 495.711 -3.80474 -1.63409
  51 441.362 -0.946774 -1.35843
  52 393.344 -1.60838 -1.05974
  53 341.621 -0.00480590 -1.23661
  54 290.223 2.74846 -0.655017
  55 236.509 2.23194 -1.53008
  56 191.714 0.969536 -2.20963
  57 132.599 -0.0393167 -2.32779
  58 72.2745 1.54172 -1.79374
  59 21.7456 1.35544 -1.73594
  60 -41.5437 0.568375 -1.54824
  61 -88.6186 -1.26484 -4.07568
  62 -134.268 -3.45178 -1.82839
  63 -180.736 0.254175 1.35452
  64 -191.023 3.26382 -0.341194
  65 -192.002 1.37532 0.763301
  66 -185.748 0.611733 -0.0183919
  67 -188.574 2.06195 -2.13730
  68 -185.978 2.54588 0.116392
  69 -176.275 0.713441 -3.36092
  70 -179.350 1.58479 -3.66313
  71 -175.352 1.48104 -1.90730
  72 -162.692 0.880189 -3.02849
  73 -157.554 1.71052 -5.23299
  74 -148.369 1.95239 -4.19397
  75 -131.771 0.981959 -7.62619
  76 -122.562 0.309536 -6.35876
  77 -105.514 0.440842 -7.44063
  78 -90.9556 0.392461 -8.34916
  79 -78.0704 0.151849 -6.59492
  80 -59.9542 0.408788 -6.67333
  81 -44.2510 -0.127439 -7.18548
  82 -29.0345 -0.754429 -6.37651
  83 -16.9106 -0.666865 -4.92580
  84 -8.39262 -1.19955 -4.14629
  85 -1.52952 -0.696094 -1.51858
  86 0.00285251 -0.794775 -0.568297
  87 -0.424521 -0.489264 -0.150354
  88 -1.09281 -1.28215 -1.33605
  89 -1.06443 -7.12267 -3.61174
  90 -0.888908 -15.7999 -5.08899
  91 -0.445130 -26.7030 -7.38438
  92 -0.214411 -40.8959 -6.35547
  93 -0.137745 -53.8108 -7.98491
  94 -0.952939 -69.3874 -8.95366
  95 -0.392932 -88.7421 -8.97263
  96 0.178111 -108.214 -8.55287
  97 0.415473 -128.991 -8.40243
  98 0.662026 -150.219 -8.20107
  99 -0.0297533 -165.327 -11.0467
  100 1.04399 -187.297 -9.83718
  101 1.33578 -212.843 -7.59688
  102 -0.267001 -222.860 -10.0431
  103 1.89522 -240.127 -9.10603
  104 4.87474 -262.819 -3.13531
  105 9.62205 -265.938 -5.03151
  106 7.42000 -233.233 11.4597
  107 11.9419 -159.038 37.1673
  108 50.2706 -55.5186 95.5429
  109 149.091 303.655 285.123
  110 1678.89 96.8702 171.514
  111 1450.19 26.6250 61.4692
  112 1403.75 8.55180 14.6065
  113 1393.20 1.62846 -2.19189
  114 1403.20 13.8919 -32.2927
  115 1450.31 49.0590 -73.8246
  116 1638.58 188.860 -218.522
  117 365.132 240.097 -346.191
  118 86.6640 -56.4169 -112.476
  119 26.0194 -174.792 -44.7445
  120 7.49316 -219.905 -11.8856
  121 7.87677 -255.179 1.35920
  122 2.16148 -252.008 1.88146
  123 0.662430 -234.050 7.39935
  124 0.787084 -221.557 5.78242
  125 1.17999 -200.764 10.9538
  126 -0.0506066 -189.204 10.9007
  127 0.463600 -171.346 7.79782
  128 0.952653 -148.503 10.1335
  129 0.214127 -132.096 8.01723
  130 0.267241 -108.254 10.1510
  131 -1.08257 -89.8418 8.75554
  132 -0.725521 -69.4374 8.66375
  133 -0.0854973 -53.4973 8.00100
  134 -0.285689 -40.6539 6.36166
  135 -0.431942 -26.6240 7.31022
  136 -0.875223 -15.7900 5.06334
  137 -1.05864 -7.13363 3.60926
  138 -1.09120 -1.29438 1.33880
  139 -0.424420 -0.494435 0.153868
  140 -0.00349792 -0.795444 0.571385
  141 -1.54119 -0.695546 1.52234
  142 -8.40911 -1.19812 4.14955
  143 -16.9317 -0.664565 4.92632
  144 -29.0489 -0.751610 6.37298
  145 -44.2497 -0.125110 7.17690
  146 -59.9346 0.409248 6.66341
  147 -78.0254 0.153152 6.58435
  148 -90.8870 0.394137 8.33653
  149 -105.413 0.440958 7.42689
  150 -122.430 0.309654 6.34536
  151 -131.617 0.981375 7.61239
  152 -148.184 1.95110 4.18268
  153 -157.351 1.70903 5.22319
  154 -162.471 0.879195 3.02168
  155 -175.112 1.47988 1.90246
  156 -179.101 1.58390 3.65785
  157 -176.021 0.713231 3.35634
  158 -185.713 2.54440 -0.118254
  159 -188.304 2.06077 2.13460
  160 -185.478 0.611641 0.0175138
  161 -191.725 1.37468 -0.763313
  162 -190.746 3.26199 0.340575
  163 -180.466 0.254408 -1.35398
  164 -134.029 -3.44891 1.82697
  165 -88.4104 -1.26328 4.07291
  166 -41.3662 0.568536 1.54683
  167 21.8826 1.35469 1.73453
  168 72.3796 1.54035 1.79237
  169 132.666 -0.0400502 2.32612
  170 191.745 0.968018 2.20820
  171 236.511 2.22974 1.52917
  172 290.191 2.74607 0.654720
  173 341.556 -0.00514160 1.23598
  174 393.246 -1.60744 1.05923
  175 441.232 -0.946025 1.35777
  176 495.546 -3.80180 1.63340
  177 547.564 -0.930580 1.74488
  178 588.901 0.622274 0.823430
  179 176.097 28.0940 -13.1750
  180 175.970 28.1669 13.2474
  181 0.0417096 6.68750 43.7513
  182 -0.153025 6.62124 -43.7950
  183 389.283 -4.65366 -93.2324
  184 388.895 -5.34792 94.1080
  185 82.1435 22.2908 -12.2287
  186 81.1930 22.5814 12.2209
  187 64.8280 8.00675 -4.32372
  188 64.9454 7.99382 4.31594
  189 365.216 3.93515 -14.9200
  190 365.299 3.92417 14.9376
  191 0.574636 14.0275 21.9586
  192 0.405486 14.0621 -22.0045
  193 423.653 8.01146 -35.9549
  194 423.843 7.90372 36.0223
  195 -15.6362 -13.4192 36.9879
  196 -15.6383 -13.5049 -37.0458
  197 5.14327 -30.0067 -41.4599
  198 138.312 16.4939 -90.3425
  199 6.01308 -32.2584 40.3061
  200 136.201 17.4748 91.5136
  201 596.435 -72.8197 -133.574
  202 615.805 -75.6283 128.765
  203 221.637 4.36433 -3.96273
  204 221.624 4.36750 3.96711
  205 -23.9049 1.26232 -3.70483
  206 -23.7391 1.26071 3.69862
  207 -43.4665 7.45241 33.9622
  208 -43.6135 7.46348 -34.0391
  209 223.077 17.1963 -10.3226
  210 223.053 17.2099 10.3501
  211 72.1121 28.8638 10.8639
  212 71.8271 29.0263 -10.9584
  213 -52.9245 5.83063 -12.6324
  214 -52.7449 5.81952 12.6078
  215 477.750 -1.63511 6.72366
  216 477.597 -1.63119 -6.71764
  217 17.2755 -55.5452 13.0155
  218 18.7481 -49.5058 -10.5659
  219 -3.96943 -38.3498 41.2236
  220 -4.11145 -40.0017 -39.9860
  221 207.582 28.9678 -42.2963
  222 207.351 29.1211 42.6068
  223 -41.0802 0.273267 35.4749
  224 -41.1634 0.264579 -35.5377
  225 510.941 0.628264 -18.9174
  226 511.120 0.597143 18.9206
  227 552.547 -9.94487 -38.0348
  228 553.006 -10.4458 37.9749
  229 889.659 64.3850 2.06055
  230 817.004 95.0859 30.1149
  231 796.705 3.70357 -53.3881
  232 106.472 20.3441 4.35959
  233 106.351 20.3854 -4.35942
  234 12.2999 18.4380 31.9011
  235 12.1046 18.4897 -31.9772
  236 617.545 -37.0614 -29.4664
  237 614.093 -37.4717 31.5425
  238 345.599 0.0317553 -5.75064
  239 345.666 0.0303169 5.75613
  240 -70.6310 5.16291 22.0961
  241 -70.7996 5.17456 -22.1424
  242 -10.3035 -10.1120 -17.0033
  243 -10.2914 -10.1023 17.0101
  244 -74.7773 1.25870 5.94007
  245 -74.9724 1.26153 -5.95136
  246 288.512 18.4064 -26.4428
  247 288.543 18.3927 26.5248
  248 364.454 8.90959 -54.4286
  249 364.680 8.77692 54.6434
  250 96.0846 3.48379 0.935326
  251 96.1760 3.48009 -0.936472
  252 214.595 18.7660 -184.320
  253 252.147 23.4682 198.918
  254 32.2327 15.5433 28.8813
  255 32.1034 15.8280 -29.0496
  256 830.101 -48.7417 -33.2479
  257 80.8544 27.1351 9.55149
  258 80.6793 27.2096 -9.56798
  259 211.596 24.5349 -73.6655
  260 211.157 25.0552 74.2929
  261 934.529 140.409 11.6177
  262 553.995 -1.78487 25.5642
  263 553.744 -1.64621 -25.5969
  264 -4.84251 -30.5464 -26.3268
  265 -4.68053 -30.6609 26.4249
  266 -0.824922 -71.3213 -35.2398
  267 3.03881 -80.9918 -30.7359
  268 1.73620 -82.0372 32.9240
  269 -12.4454 -10.5972 46.5410
  270 -12.5100 -10.5923 -46.7567
  271 32.5717 -55.3670 -21.1080
  272 35.1623 -49.8322 26.6829
  273 -31.6055 -2.51870 23.0663
  274 -31.6314 -2.53150 -23.0928
  275 399.821 8.02696 -22.9366
  276 399.943 7.99005 22.9656
  277 692.431 -66.7967 -15.8504
  278 162.305 10.6790 2.79295
  279 162.361 10.6672 -2.78785
  280 -1.56688 -67.0928 33.7970
  281 23.0918 13.1667 12.8155
  282 22.9400 13.1941 -12.8398
  283 1086.68 73.3714 -35.9495
  284 534.895 -1.48334 8.07030
  285 534.705 -1.47631 -8.06482
  286 370.882 -13.3082 -138.243
  287 373.781 -13.0531 140.059
  288 691.658 -63.5341 4.78567
  289 -63.2674 2.15985 27.7634
  290 -63.3730 2.15845 -27.8170
  291 672.419 -36.9732 221.130
  292 -26.2331 5.66951 41.4980
  293 -26.3614 5.65594 -41.5901
  294 122.582 33.3319 -16.9434
  295 122.099 33.6284 17.0347
  296 -109.178 0.417056 0.905685
  297 -109.400 0.416620 -0.907690
  298 568.721 33.9529 -296.836
  299 -106.201 1.98937 -11.5444
  300 -106.006 1.98462 11.5205
  301 -1.40852 -11.6721 46.3191
  302 0.426317 -11.1901 -45.6312
  303 260.206 24.1332 -37.7079
  304 260.179 24.1548 37.8936
  305 64.7346 4.69739 3.29189
  306 64.6215 4.70384 -3.29761
  307 268.882 7.10330 -8.96519
  308 268.899 7.10478 8.97690
  309 27.7248 -12.7743 19.3081
  310 25.3125 -16.3528 -19.7632
  311 261.064 1.56105 -2.53677
  312 261.077 1.56248 2.53908
  313 -89.1143 2.36260 20.0285
  314 -89.2553 2.36561 -20.0702
  315 68.8106 1.75258 -25.0669
  316 66.9104 1.63156 23.2926
  317 555.560 -1.97726 2.27263
  318 555.356 -1.97521 -2.26988
  319 1197.79 66.5619 52.7078
  320 136.498 14.9113 -0.534854
  321 136.416 14.9330 0.540700
  322 -17.7254 5.10457 7.88809
  323 -17.8887 5.11427 -7.90400
  324 184.143 21.6984 -9.59927
  325 184.072 21.7308 9.63992
  326 25.5327 19.8085 32.6111
  327 25.3724 19.8418 -32.7315
  328 2.92683 -118.359 21.9966
  329 -114.134 -0.254261 -2.30493
  330 -113.911 -0.253762 2.30053
  331 430.191 -1.54648 -4.43183
  332 430.313 -1.54835 4.43583
  333 452.701 0.365121 -11.7399
  334 452.839 0.354877 11.7491
  335 -107.795 1.51154 -8.02700
  336 -107.585 1.50850 8.01222
  337 8.59498 0.777597 0.472054
  338 8.44948 0.778140 -0.473946
  339 -2.45286 -50.4985 26.1255
  340 -1.93267 -52.5322 -26.0852
  341 514.772 -40.2863 -94.6508
  342 533.602 -48.3035 93.1064
  343 309.310 11.6788 -16.6785
  344 309.356 11.6706 16.7072
  345 141.812 31.3311 -11.9079
  346 141.553 31.4819 11.9797
  347 -39.7110 8.47085 18.4832
  348 -39.8834 8.49003 -18.5219
  349 932.827 40.3453 45.9572
  350 54.3167 -53.1311 -68.1259
  351 58.0841 -47.3004 70.6966
  352 -14.4494 14.5931 30.6701
  353 -14.6234 14.6259 -30.7402
  354 -24.7316 -4.44197 41.5643
  355 -24.8084 -4.45903 -41.6515
  356 1060.43 189.556 -70.0820
  357 699.072 -4.10133 73.4545
  358 640.762 -16.2813 -18.6781
  359 640.444 -15.8997 17.8243
  360 457.189 -6.79403 -60.7110
  361 456.615 -7.16985 60.7729
  362 0.941244 -142.619 -17.2804
  363 583.527 -0.246351 -14.1471
  364 583.741 -0.283758 14.1286
  365 8.21173 -131.604 11.4561
  366 703.208 56.1384 -34.8983
  367 176.045 3.04631 1.12991
  368 176.004 3.04926 -1.13087
  369 458.502 0.895002 -45.0090
  370 458.777 0.723091 45.1002
  371 489.637 1.30032 -26.8544
  372 489.826 1.22326 26.8613
  373 0.802134 4.11232 4.81774
  374 0.650320 4.11856 -4.82740
  375 290.350 16.0382 -73.9198
  376 290.349 16.2365 74.4695
  377 571.999 -1.67378 3.69593
  378 571.784 -1.67119 -3.69184
  379 336.235 15.4682 -38.1860
  380 336.335 15.4043 38.3144
  381 383.037 2.82393 9.99438
  382 382.945 2.82745 -9.98494
  383 -18.1010 -3.16920 14.4168
  384 -18.1033 -3.17840 -14.4199
  385 -4.36545 -3.08541 -4.31528
  386 -4.36709 -3.08639 4.32158
  387 767.175 -84.2309 68.7533
  388 -9.49611 -23.2553 38.4295
  389 -9.42442 -23.4727 -38.4457
  390 135.528 5.78750 0.0410652
  391 135.598 5.78060 -0.0414491
  392 -3.76749 -19.2357 14.5033
  393 -3.81249 -19.2094 -14.5076
  394 56.6297 21.0711 13.2664
  395 56.4731 21.1201 -13.2900
  396 626.637 -4.26646 18.9400
  397 626.330 -4.06690 -19.1717
  398 -0.600307 -34.7342 44.8175
  399 -51.1548 -0.796905 21.6174
  400 -51.2042 -0.802368 -21.6505
  401 -0.798704 -36.8416 -44.3214
  402 585.974 -1.23646 9.03936
  403 585.753 -1.22536 -9.03937
  404 -1.26114 14.2646 39.2641
  405 -1.48287 14.2987 -39.3713
  406 440.387 3.55049 -18.3946
  407 440.522 3.52759 18.4081
  408 673.729 -28.4499 -8.80103
  409 674.916 -23.3115 6.05657
  410 -1.21405 -68.5115 -28.4420
  411 66.5280 25.6663 -5.13654
  412 67.0581 25.4336 5.03163
  413 694.850 44.5750 21.1956
  414 389.784 -11.8567 -188.747
  415 399.319 -18.7460 196.812
  416 29.6584 20.6896 23.0839
  417 29.4789 20.7435 -23.1342
  418 287.982 4.55588 -6.14008
  419 288.012 4.55741 6.14659
  420 279.746 75.8941 296.890
  421 121.967 25.3435 -0.932099
  422 122.106 25.2808 0.945753
  423 8.20343 -59.9719 27.4140
  424 -0.799728 -110.692 -24.1710
  425 51.6277 26.0653 20.1531
  426 51.4255 26.1423 -20.2147
  427 64.5862 13.2525 -7.15761
  428 64.7129 13.2291 7.14655
  429 -16.8044 0.299464 -45.9318
  430 -16.6771 0.271619 45.8368
  431 143.827 29.4474 -35.3254
  432 143.209 29.8399 35.5657
  433 683.080 -19.5307 -56.4294
  434 22.2738 -2.59596 31.6905
  435 21.6146 -2.48455 -31.9514
  436 498.278 -21.8070 -67.0052
  437 500.154 -23.1957 66.9820
  438 -118.422 0.823573 -11.7235
  439 -118.240 0.820658 11.6986
  440 -0.0101620 -109.377 21.9370
  441 -0.724973 -69.7906 25.3846
  442 -47.5508 3.54672 35.4178
  443 -47.6603 3.54221 -35.4879
  444 357.424 -0.148671 -2.24341
  445 357.499 -0.148930 2.24564
  446 -10.3150 -16.3253 26.5063
  447 -10.3371 -16.3679 -26.4856
  448 230.044 16.7087 -106.340
  449 229.527 17.6302 107.321
  450 1.93315 -129.577 -22.8403
  451 1194.89 38.4511 0.156872
  452 3.72596 -148.431 -10.2909
  453 -136.168 -0.441795 -3.76277
  454 -135.935 -0.441665 3.75637
  455 -50.8046 7.85552 27.6554
  456 -50.9674 7.87177 -27.7169
  457 -64.0113 0.981254 21.5441
  458 -64.0840 0.980186 -21.5800
  459 249.850 22.7906 -27.0292
  460 249.828 22.8165 27.1409
  461 370.490 11.3888 -29.4685
  462 370.607 11.3335 29.5310
  463 -4.97332 -20.6271 46.5797
  464 -4.98097 -20.4887 -46.7808
  465 650.324 15.6348 -70.7998
  466 47.6175 -3.90887 1.11116
  467 45.9380 -4.32794 -0.233292
  468 11.1432 -127.777 -8.26231
  469 7.42343 -150.768 2.98383
  470 -18.8764 -8.27355 27.2284
  471 -18.8911 -8.30632 -27.2466
  472 141.661 17.2838 -161.999
  473 950.283 29.8335 -116.918
  474 227.900 11.2417 9.44588
  475 227.914 11.2345 -9.42902
  476 328.506 5.23912 -100.820
  477 329.079 5.15073 102.125
  478 101.722 32.7108 3.20652
  479 101.511 32.8257 -3.21294
  480 297.273 20.5170 -55.4595
  481 297.328 20.4497 55.7895
  482 14.0243 8.28490 39.3260
  483 14.6845 8.61670 -39.2751
  484 -121.853 1.56661 -8.15362
  485 -121.641 1.56411 8.13764
  486 635.573 -70.3840 -58.1652
  487 500.349 -1.99923 -3.04432
  488 500.516 -2.00117 3.04730
  489 37.5084 1.79705 -1.48497
  490 37.6363 1.79457 1.48107
  491 -26.0769 11.3833 24.8646
  492 -26.2479 11.4102 -24.9179
  493 -64.2801 3.69652 -8.13922
  494 -64.0928 3.69016 8.12304
  495 228.199 18.7507 -14.0939
  496 228.175 18.7649 14.1365
  497 -21.8677 10.5318 36.5351
  498 -22.0337 10.5524 -36.6258
  499 581.109 -17.8431 -36.4199
  500 582.121 -18.5921 36.1160
  501 388.771 2.99598 -67.6451
  502 388.130 2.79700 68.1683
  503 151.278 3.97426 0.266698
  504 151.335 3.97016 -0.267066
  505 2.15823 -65.0138 -37.3588
  506 684.685 -22.4453 45.8868
  507 10.9521 -39.7825 -31.5364
  508 202.712 30.3856 28.9086
  509 202.876 30.2770 -28.7343
  510 628.734 -65.8361 57.6937
  511 52.3557 -35.4610 89.9252
  512 742.484 -81.8144 -109.968
  513 509.838 -0.513221 32.4554
  514 509.585 -0.353905 -32.4413
  515 2.18273 -55.2028 38.9023
  516 -10.0428 -2.94591 -7.80530
  517 -10.0459 -2.94371 7.80984
  518 72.8438 1.22899 -0.182693
  519 72.9488 1.22762 0.181515
  520 -1.66652 -39.4285 16.9400
  521 -1.51177 -39.2515 -17.0336
  522 420.698 1.25439 7.61328
  523 420.583 1.25635 -7.60661
  524 1156.50 219.648 107.179
  525 53.3422 -19.5452 -24.9696
  526 41.8355 -30.0248 16.2554
  527 -2.94278 7.89610 -10.8646
  528 -2.78439 7.87968 10.8432
  529 -100.013 1.56044 12.7281
  530 -100.132 1.56211 -12.7524
  531 1.09452 -122.245 23.2131
  532 -132.220 0.821181 0.747323
  533 -132.457 0.821110 -0.749523
  534 137.491 7.13784 -121.597
  535 134.701 8.96434 125.783
  536 126.708 26.0621 -47.3579
  537 125.785 26.5574 47.5578
  538 -26.4017 -5.15857 36.6917
  539 -26.4533 -5.18505 -36.7558
  540 126.580 8.17213 -0.412746
  541 126.502 8.18236 0.412735
  542 -49.6673 1.81806 2.83568
  543 -49.8488 1.82013 -2.84274
  544 147.087 18.0766 -2.18174
  545 147.001 18.1073 2.19597
  546 -2.73590 -9.10030 6.69797
  547 -2.74581 -9.09356 -6.69712
  548 55.8391 24.2216 16.3723
  549 55.4797 24.5220 -16.5244
  550 45.0995 11.1473 13.1974
  551 44.5024 11.1037 -13.5896
  552 512.341 1.17017 13.5700
  553 512.165 1.18262 -13.5630
  554 457.189 3.10117 22.1804
  555 457.035 3.14250 -22.1667
  556 -0.458283 -106.035 -15.3667
  557 326.125 12.9052 -23.4639
  558 326.190 12.8843 23.5121
  559 325.848 4.15073 -9.51477
  560 325.903 4.14799 9.52600
  561 -32.0943 0.374757 0.392382
  562 -31.9230 0.374981 -0.393141
  563 583.522 29.3153 -13.6039
  564 714.146 -82.5881 -47.2550
  565 613.312 30.2760 52.3871
  566 5.63225 -84.6314 -25.3880
  567 -23.3483 9.20465 -15.3732
  568 -23.1800 9.18557 15.3429
  569 6.22344 -48.0887 35.5539
  570 -29.5075 1.59468 41.1845
  571 -29.6101 1.58541 -41.2625
  572 917.254 87.8198 11.6317
  573 216.989 6.67302 -5.22226
  574 216.972 6.67769 5.22897
  575 1336.16 116.900 -125.198
  576 -4.39168 -3.24462 47.0493
  577 -3.86241 -2.86520 -47.0585
  578 754.352 -58.9190 15.4007
  579 602.646 -0.990139 -15.6025
  580 602.868 -1.05574 15.5551
  581 289.882 6.40065 -144.548
  582 293.019 5.44422 146.459
  583 -14.5595 -13.8434 42.2667
  584 -14.5785 -13.9234 -42.3939
  585 155.853 19.7881 81.9278
  586 157.116 18.7514 -81.4123
  587 -115.744 1.27584 -11.6483
  588 -115.578 1.27371 11.6241
  589 887.977 90.7094 27.3707
  590 179.470 13.0579 4.60402
  591 179.519 13.0438 -4.59328
  592 210.553 26.5757 -57.5250
  593 210.223 26.8791 57.9939
  594 550.458 -3.49106 -31.4527
  595 550.789 -3.72385 31.4392
  596 -2.06809 -53.6317 -37.7527
  597 590.342 -1.75365 4.75123
  598 590.115 -1.75036 -4.74710
  599 -75.9462 0.894358 -0.817149
  600 -75.7473 0.894092 0.813889
  601 -142.149 -1.40545 -0.117675
  602 -142.393 -1.40700 0.117172
  603 14.4100 -73.7870 -7.24425
  604 -5.28380 -35.3537 32.9820
  605 -5.57278 -33.3738 -33.1975
  606 -64.7581 4.27227 29.2215
  607 -64.8876 4.27662 -29.2815
  608 423.061 7.14739 28.3773
  609 422.912 7.21034 -28.3437
  610 314.422 0.724095 2.16427
  611 314.374 0.723294 -2.16246
  612 75.7941 -7.15308 55.9563
  613 77.9272 -5.62497 -55.5317
  614 -2.09019 -27.5788 14.3790
  615 -2.15996 -27.4969 -14.4310
  616 705.606 83.0501 318.339
  617 -35.5094 -1.01572 13.2344
  618 -35.5183 -1.02106 -13.2479
  619 14.6388 -43.8753 -23.6466
  620 308.703 8.68975 -12.9291
  621 308.747 8.68618 12.9477
  622 157.061 31.9958 -23.9970
  623 156.731 32.1977 24.1574
  624 1.47194 -179.299 6.86682
  625 119.874 29.9293 -0.587515
  626 119.707 30.0164 0.604074
  627 -3.98447 11.8111 18.6097
  628 -4.14970 11.8380 -18.6467
  629 -0.837308 -92.9280 20.9340
  630 -144.461 -0.121616 -3.83711
  631 -144.225 -0.121776 3.83029
  632 207.523 2.29328 2.29781
  633 207.544 2.29091 -2.29583
  634 499.300 -0.994086 9.20519
  635 499.133 -0.987955 -9.19794
  636 447.834 -16.6739 244.198
  637 361.522 5.61053 -18.1954
  638 361.606 5.59295 18.2196
  639 8.48426 -4.24289 42.0950
  640 9.96556 -1.19045 -41.8293
  641 571.189 -44.3612 -199.439
  642 1294.51 43.0212 -51.9286
  643 -135.842 -0.0291783 -7.84600
  644 -135.642 -0.0304158 7.83036
  645 44.1952 5.82490 -3.99744
  646 44.3220 5.81611 3.98960
  647 -2.41240 -57.5501 33.6488
  648 777.656 54.1348 -59.0245
  649 583.264 -2.00505 0.893577
  650 583.043 -2.00321 -0.892312
  651 -37.1439 -1.77022 -30.3208
  652 -37.0922 -1.75900 30.2742
  653 -0.135667 -130.979 -19.6106
  654 592.962 -1.86698 1.84455
  655 592.733 -1.86516 -1.84209
  656 64.3912 17.7606 10.7745
  657 64.2506 17.7976 -10.7904
  658 466.961 -35.8680 -132.960
  659 474.656 -35.6246 134.227
  660 664.361 -5.22529 11.3270
  661 664.266 -5.19339 -11.6774
  662 3.03679 -162.332 14.0815
  663 -25.5401 -0.0134257 -1.55425
  664 -25.3732 -0.0134034 1.55069
  665 223.892 61.7003 -235.760
  666 215.360 1.68412 2.16632
  667 215.376 1.68217 -2.16490
  668 111.957 5.18859 -0.951859
  669 111.874 5.19454 0.950882
  670 130.774 10.9430 1.69200
  671 130.854 10.9282 -1.68895
  672 399.137 8.48691 -43.9686
  673 399.340 8.36050 44.0886
  674 112.317 31.5164 -6.58650
  675 111.969 31.7316 6.59833
  676 -63.6448 4.74660 -15.1524
  677 -63.4637 4.73485 15.1219
  678 -76.3679 5.35453 -17.8083
  679 -76.1894 5.34342 17.7710
  680 685.824 -10.9251 0.637034
  681 2.24830 -24.5912 -44.1994
  682 686.244 -11.4539 -1.40174
  683 885.957 67.1996 -8.11404
  684 -85.1075 0.439645 14.5919
  685 -85.1995 0.438717 -14.6188
  686 97.9067 29.4093 -13.8836
  687 97.2211 29.7180 13.9117
  688 -154.626 -0.141605 -1.09930
  689 -154.378 -0.141284 1.09635
  690 2.93049 -21.7769 44.0942
  691 -52.1945 0.997088 31.3814
  692 -52.2866 0.992007 -31.4385
  693 755.700 -54.6038 -18.0729
  694 129.926 0.588114 -1.45530
  695 129.857 0.589344 1.45565
  696 37.1925 9.59810 7.66789
  697 37.0561 9.61489 -7.68108
  698 409.298 -16.0339 -112.319
  699 412.032 -16.6797 114.241
  700 1348.21 97.9642 112.689
  701 29.5740 -99.9500 -56.0719
  702 -9.02811 -19.5947 44.8854
  703 -9.02664 -19.6861 -45.0071
  704 93.9382 17.0459 -3.91342
  705 94.0531 17.0159 3.91018
  706 609.677 -1.67035 -4.79036
  707 609.917 -1.67428 4.79297
  708 301.362 1.80017 4.41655
  709 301.323 1.79978 -4.41204
  710 30.5401 22.5832 28.4583
  711 30.3476 22.6465 -28.5393
  712 25.8396 3.93308 2.75562
  713 25.7039 3.93780 -2.76155
  714 -14.4045 5.44570 44.4016
  715 -14.5464 5.43026 -44.5154
  716 505.690 -2.60317 3.97787
  717 505.519 -2.60014 -3.97371
  718 441.482 0.954931 10.6648
  719 441.353 0.960319 -10.6559
  720 64.6378 -22.8440 65.5878
  721 66.2547 -25.6311 -63.7270
  722 -30.5212 7.92682 38.6707
  723 -30.6665 7.93039 -38.7617
  724 20.7584 -34.6105 16.6711
  725 5.73846 14.6966 39.2149
  726 5.50760 14.7223 -39.2973
  727 -89.5778 2.30419 -9.79409
  728 -89.3807 2.29916 9.77402
  729 85.6854 23.8352 8.70713
  730 85.5291 23.8940 -8.71585
  731 684.237 -19.7022 -30.2794
  732 647.184 -54.3587 -24.3349
  733 -10.0320 -20.6329 32.5315
  734 -10.0238 -20.7391 -32.4988
  735 260.582 10.3148 -170.217
  736 254.257 15.3974 171.410
  737 161.961 30.7238 -33.2312
  738 161.530 31.0121 33.4774
  739 15.6512 -19.6654 32.8288
  740 -0.852878 -69.4356 -18.4427
  741 327.725 15.4247 -42.7084
  742 327.835 15.3657 42.8907
  743 0.755814 -135.135 16.7280
  744 199.721 24.3474 -15.7594
  745 199.646 24.3876 15.8269
  746 642.244 -1.61114 -11.7550
  747 642.440 -1.67981 11.6474
  748 13.9203 -166.134 10.1904
  749 302.255 19.3892 33.1350
  750 302.204 19.4118 -33.0205
  751 86.6804 30.3172 -0.475435
  752 87.1237 30.0386 0.403281
  753 -115.051 0.749768 -9.96973
  754 -114.909 0.749077 9.94876
  755 331.588 2.38731 -8.05404
  756 331.647 2.38598 8.06207
  757 210.701 27.6872 -24.8401
  758 210.595 27.7538 24.9686
  759 7.66153 17.7047 29.2781
  760 7.47851 17.7518 -29.3445
  761 649.021 -46.7267 16.2151
  762 -91.6201 1.59927 7.31302
  763 -91.8238 1.60196 -7.32563
  764 1346.36 290.503 -205.848
  765 -28.2448 2.80456 7.06510
  766 -28.4133 2.81003 -7.07790
  767 548.655 -0.673782 22.1717
  768 548.441 -0.597328 -22.1926
  769 1018.66 59.8269 -1.63248
  770 615.038 -2.70526 -8.85994
  771 615.274 -2.71829 8.85472
  772 402.200 2.68717 13.7022
  773 402.095 2.69578 -13.6897
  774 598.063 -56.5329 182.209
  775 267.658 16.0436 -14.5801
  776 267.671 16.0461 14.6147
  777 6.70225 -95.2281 16.7730
  778 684.130 -78.6706 67.5549
  779 417.285 -1.84444 2.26989
  780 417.172 -1.84309 -2.26793
  781 539.039 -1.55889 1.19504
  782 538.846 -1.55732 -1.19362
  783 -2.23753 -53.8827 -31.6122
  784 3.78159 -88.4237 28.2538
  785 255.431 26.6169 46.0164
  786 255.490 26.5724 -45.7379
  787 1326.35 10.6440 12.6932
  788 429.154 1.53560 -54.0057
  789 429.406 1.38559 54.1567
  790 -83.2036 2.76024 21.4609
  791 -83.3631 2.76697 -21.5048
  792 20.0852 -65.1055 -0.505126
  793 12.7545 -152.880 -18.8005
  794 962.015 127.520 -31.2172
  795 -0.794541 -69.3198 16.6669
  796 24.2364 16.2727 33.7817
  797 24.1524 16.2543 -34.0015
  798 138.432 23.8306 -1.87816
  799 138.322 23.8802 1.89725
  800 642.213 -29.9594 -14.9662
  801 643.956 -29.4505 13.2459
  802 738.780 155.290 -302.316
  803 -93.6854 0.476093 -2.78668
  804 -93.4775 0.475317 2.77991
  805 -48.6146 -0.141370 12.3884
  806 -48.6370 -0.143783 -12.4048
  807 51.5927 9.15722 3.88258
  808 50.5429 9.12386 -4.03146
  809 491.789 -4.77060 48.3459
  810 491.456 -4.42975 -48.1885
  811 256.369 3.44670 -3.37170
  812 256.379 3.44883 3.37551
  813 787.188 -0.650198 52.7170
  814 92.8685 11.3281 -3.66602
  815 92.9746 11.3101 3.66162
  816 83.7439 16.4550 -22.3989
  817 83.0232 16.7894 22.5415
  818 0.494866 -51.1841 -41.0189
  819 1084.04 202.338 179.510
  820 -153.305 0.0231632 -3.92240
  821 -153.070 0.0230874 3.91479
  822 -0.209441 -162.909 15.1781
  823 14.0612 -19.5400 -33.4035
  824 -24.4102 -1.43287 9.34974
  825 -24.4042 -1.43700 -9.35462
  826 883.511 66.8914 -26.6545
  827 240.544 20.5023 -18.4740
  828 240.523 20.5189 18.5405
  829 607.708 -10.6041 -24.5744
  830 608.336 -10.6605 24.3357
  831 -147.668 0.965950 5.45340
  832 -147.887 0.967599 -5.46441
  833 -1.14309 -1.17789 -1.00494
  834 -1.14540 -1.17992 1.00889
  835 0.406074 -166.374 -14.6055
  836 0.767721 -171.905 -12.1226
  837 -158.395 1.34519 0.643040
  838 -158.649 1.34558 -0.644235
  839 99.7887 -5.41437 -117.627
  840 381.521 1.42165 -4.38572
  841 381.611 1.42147 4.38987
  842 -0.784645 1.57026 0.858183
  843 -0.936020 1.57100 -0.859415
  844 557.027 -0.416658 -14.5498
  845 557.230 -0.441467 14.5458
  846 -63.6917 0.434462 11.7177
  847 -63.7341 0.434404 -11.7351
  848 347.160 24.2458 -249.339
  849 589.579 -48.8092 55.4771
  850 459.732 -0.616293 -4.97039
  851 459.873 -0.618272 4.97514
  852 584.778 -52.8407 -61.2500
  853 191.102 17.7693 -8.58854
  854 191.048 17.7901 8.61727
  855 259.248 13.3695 -11.5761
  856 259.255 13.3734 11.5991
  857 683.272 -14.1019 23.2570
  858 48.3392 25.8751 21.7152
  859 48.1259 25.9644 -21.8160
  860 54.0634 1.05867 1.04312
  861 53.9462 1.06014 -1.04571
  862 327.155 0.861190 3.87585
  863 327.099 0.861007 -3.87228
  864 830.433 -57.7992 110.970
  865 525.192 0.604156 -19.3906
  866 525.386 0.558760 19.3852
  867 17.8522 6.51359 5.95835
  868 17.7086 6.52391 -5.96980
  869 524.092 -2.53782 5.62333
  870 523.909 -2.53404 -5.61786
  871 -86.7097 -0.198035 -2.32717
  872 -86.5028 -0.197176 2.32499
  873 -0.412154 -53.2714 14.9508
  874 -0.555998 -54.0999 -15.0546
  875 646.385 -6.38677 58.7136
  876 -33.4837 9.94500 31.8113
  877 -33.6463 9.96600 -31.8842
  878 -0.187047 -87.2195 -16.3403
  879 258.844 6.12203 -6.24554
  880 258.855 6.12516 6.25274
  881 468.881 -22.7095 -86.3529
  882 472.211 -25.0844 87.1436
  883 -18.2020 -5.79391 -44.9328
  884 -18.1048 -5.78668 44.8182
  885 31.9787 22.1510 25.8390
  886 31.7889 22.2124 -25.9008
  887 2.15562 -192.715 9.41768
  888 11.6055 18.2148 35.1997
  889 11.4039 18.2550 -35.2826
  890 434.096 -8.11087 -77.0296
  891 433.082 -8.35338 77.6208
  892 747.788 48.2971 62.8744
  893 178.718 16.3198 5.90697
  894 178.775 16.3008 -5.88954
  895 537.177 1.08228 -14.3848
  896 537.368 1.06480 14.3879
  897 -20.1605 -8.41057 39.9764
  898 -20.2086 -8.44929 -40.0616
  899 2.06037 -195.023 -4.43906
  900 -31.0780 -1.57556 38.9400
  901 -31.1551 -1.58505 -39.0114
  902 28.3965 19.2746 -19.6731
  903 28.5647 19.2278 19.6325
  904 -1.63963 -13.6264 7.48988
  905 -1.65889 -13.6143 -7.50164
  906 54.1972 21.7602 -16.4711
  907 54.3694 21.7020 16.4389
  908 12.4701 -12.1713 38.1883
  909 11.0629 -11.2790 -40.5898
  910 528.481 -16.4252 49.7664
  911 527.313 -15.7917 -49.9167
  912 -162.475 0.235006 -0.946019
  913 -162.219 0.235130 0.944080
  914 -15.1284 -1.31655 7.09365
  915 -15.1168 -1.31918 -7.09279
  916 0.678915 -123.523 -14.7345
  917 -15.8197 -6.67870 -20.0016
  918 -15.8097 -6.66008 19.9986
  919 -63.2896 5.69672 27.5823
  920 -63.4404 5.70723 -27.6421
  921 173.018 30.7400 -17.1210
  922 172.852 30.8513 17.2146
  923 721.788 54.5001 -6.44532
  924 -1.34583 15.4583 26.5534
  925 -1.52061 15.4964 -26.6108
  926 268.708 18.1690 -82.9757
  927 268.636 18.4063 83.7252
  928 -23.7193 10.4177 21.2403
  929 -23.8894 10.4434 -21.2858
  930 837.812 -25.9883 4.22575
  931 545.576 21.8741 27.5785
  932 629.323 -5.63531 -53.0631
  933 462.423 3.25259 -32.7378
  934 462.624 3.14640 32.7705
  935 -39.7720 5.67273 -9.52025
  936 -39.5979 5.66214 9.50052
  937 -104.105 1.75769 13.3254
  938 -104.290 1.76239 -13.3539
  939 -6.42861 -21.0801 -23.1561
  940 -6.37786 -21.0903 23.1921
  941 172.147 7.86898 3.63935
  942 172.194 7.86080 -3.63518
  943 -48.0848 5.61427 34.8108
  944 -48.2129 5.61495 -34.8857
  945 545.577 -2.04313 7.21148
  946 545.380 -2.03888 -7.20527
  947 -3.86029 -45.6961 34.4228
  948 28.6382 17.3235 -16.5369
  949 28.7975 17.2852 16.5050
  950 37.5468 11.2376 9.96958
  951 37.4055 11.2597 -9.98699
  952 104.901 6.63925 -0.835122
  953 104.990 6.63089 0.832558
  954 1019.59 153.635 -53.7835
  955 -4.25742 -1.12586 -2.87992
  956 -4.26636 -1.12554 2.88490
  957 40.1803 13.7932 -19.6094
  958 40.8261 13.5291 19.4615
  959 377.350 11.9218 -35.6903
  960 377.490 11.8442 35.7778
  961 56.6434 14.4478 -8.92062
  962 56.7792 14.4201 8.90594
  963 105.779 13.8255 151.251
  964 690.107 -5.57830 -6.94551
  965 689.498 -5.38111 6.39610
  966 131.154 8.52335 134.954
  967 139.630 3.08950 -1.54836
  968 139.566 3.09274 1.54860
  969 346.613 1.09119 -216.393
  970 262.267 1.23091 2.01152
  971 262.253 1.22944 -2.01003
  972 35.7852 -25.0609 -0.854559
  973 39.5286 -19.7204 3.82086
  974 607.877 -1.25657 2.45293
  975 607.638 -1.25509 -2.44994
  976 -49.5448 0.343532 28.8203
  977 -49.6142 0.339062 -28.8668
  978 1094.23 140.081 75.3545
  979 -3.90852 -32.9261 -44.5230
  980 6.91308 -149.828 27.7108
  981 -0.258772 -52.9166 40.7677
  982 629.952 -1.39416 -9.03665
  983 630.184 -1.41308 9.01904
  984 -8.28179 -15.2564 20.0778
  985 -8.30754 -15.2623 -20.0627
  986 807.639 88.4154 -27.5926
  987 1342.71 9.57365 -8.37439
  988 -2.08244 -3.26249 -3.13439
  989 -2.07994 -3.26927 3.13887
  990 375.183 1.12450 -8.01051
  991 375.269 1.12265 8.01771
  992 -3.93639 -31.5121 44.6723
  993 516.804 -0.228283 28.7462
  994 516.585 -0.114992 -28.7483
  995 680.333 -42.9486 -18.7361
  996 -23.4176 -4.72784 22.4902
  997 -23.4326 -4.74729 -22.5068
  998 12.9938 -38.5104 28.2943
  999 -0.836776 -81.2459 32.0365
  1000 -0.107380 -86.6093 16.3446
  1001 719.938 44.2020 -4.55862
  1002 808.997 89.4502 11.5846
  1003 573.641 -61.1072 -103.925
  1004 9.23054 -75.0473 22.2457
  1005 11.4559 -105.970 0.0692687
  1006 167.587 1.19584 0.0352671
  1007 167.541 1.19752 -0.0354518
  1008 -6.30053 -7.19803 -9.71418
  1009 -6.29400 -7.19783 9.72051
  1010 6.42245 -61.7461 -31.7830
  1011 458.872 -2.05580 -1.82861
  1012 459.013 -2.05753 1.83044
  1013 98.7596 8.43585 -55.6920
  1014 94.6554 8.64946 55.1840
  1015 -3.58801 14.8971 36.2051
  1016 -3.78139 14.9331 -36.2990
  1017 -47.9208 7.96615 -22.1917
  1018 -47.7491 7.94802 22.1449
  1019 359.440 5.58595 -79.6247
  1020 359.537 5.95113 80.3948
  1021 261.853 22.2121 -58.2715
  1022 261.760 22.2352 58.7092
  1023 281.832 16.8997 -21.2406
  1024 281.855 16.8929 21.2947
  1025 717.653 -14.1818 -65.1741
  1026 -14.9366 9.54041 40.8231
  1027 -15.1068 9.54617 -40.9400
  1028 506.164 -2.97482 39.7110
  1029 505.871 -2.72135 -39.6622
  1030 -2.01006 -23.7246 46.0464
  1031 -40.2414 -1.20258 21.5424
  1032 -40.2727 -1.20991 -21.5707
  1033 462.607 1.46739 -39.7277
  1034 462.845 1.31450 39.7828
  1035 594.089 16.5427 -47.3534
  1036 -0.323661 -80.4927 -33.5469
  1037 -6.21863 -31.5416 40.6424
  1038 -6.49804 -31.9721 -40.3231
  1039 331.022 16.0729 -30.5303
  1040 331.104 16.0325 30.6182
  1041 411.522 4.41151 16.8258
  1042 411.408 4.42632 -16.8105
  1043 678.967 -41.9690 15.7905
  1044 44.2289 1.50244 -0.247733
  1045 44.3517 1.50128 0.246935
  1046 579.304 -68.2193 110.700
  1047 7.45251 0.763622 1.76529
  1048 7.30621 0.764726 -1.76905
  1049 133.004 31.3068 -6.29700
  1050 132.801 31.4239 6.33641
  1051 54.4968 24.8827 18.2415
  1052 54.3100 24.9512 -18.2845
  1053 7.01680 -94.1546 -17.5626
  1054 175.823 3.57285 2.33809
  1055 175.866 3.56873 -2.33605
  1056 536.946 16.5803 11.5477
  1057 464.226 0.683713 15.2852
  1058 464.080 0.699997 -15.2749
  1059 -1.49086 -24.8038 -46.1347
  1060 695.512 -9.17133 -11.0748
  1061 2.61041 0.00873640 44.6063
  1062 3.16893 0.338450 -44.3297
  1063 625.302 -1.74737 -5.03028
  1064 625.552 -1.75207 5.03072
  1065 667.666 -3.03149 -8.91759
  1066 667.738 -3.10708 8.74131
  1067 -0.493769 -130.901 12.1712
  1068 400.945 6.89137 -22.1073
  1069 401.058 6.86440 22.1303
  1070 483.072 1.69013 17.5506
  1071 482.911 1.71266 -17.5418
  1072 14.9981 13.3089 38.7662
  1073 14.9160 13.3024 -38.8424
  1074 1041.46 65.3838 14.3332
  1075 -11.4780 -4.27029 47.2696
  1076 -11.7096 -4.14928 -47.4090
  1077 159.036 27.9330 -7.56765
  1078 158.923 27.9955 7.60942
  1079 -73.8796 0.696918 -3.22812
  1080 -73.6830 0.696189 3.22194
  1081 256.513 17.3935 -95.0328
  1082 256.091 18.0574 95.9753
  1083 78.5052 28.1589 12.1505
  1084 78.3043 28.2454 -12.1804
  1085 176.510 23.9133 -73.0426
  1086 175.615 24.7141 73.5153
  1087 -4.15044 -42.9743 -33.5909
  1088 610.808 10.7496 64.4756
  1089 418.622 21.3423 277.146
  1090 73.8419 29.5473 12.4369
  1091 73.6130 29.6567 -12.4872
  1092 258.260 10.2016 -9.17393
  1093 258.268 10.2041 9.18982
  1094 898.924 22.2506 -0.115421
  1095 63.9533 18.7722 3.96964
  1096 63.1816 18.9360 -4.23433
  1097 -26.3387 -5.53993 29.7054
  1098 -26.3689 -5.56844 -29.7427
  1099 -0.859236 -20.2964 8.13910
  1100 -0.895073 -20.2861 -8.17276
  1101 593.099 -2.55560 22.7805
  1102 592.806 -2.36437 -22.8773
  1103 1.86211 -38.9982 42.8495
  1104 -38.5858 3.07670 -38.4432
  1105 -38.4808 3.08518 38.3686
  1106 0.179470 -156.388 -14.9086
  1107 -7.74710 -11.2558 47.2158
  1108 -7.71061 -10.9710 -47.2637
  1109 564.840 -1.06234 -9.59534
  1110 565.049 -1.07088 9.59984
  1111 586.753 -6.54513 27.8968
  1112 586.295 -6.22890 -27.9814
  1113 109.908 26.9164 -30.1896
  1114 109.094 27.3323 30.3450
  1115 -1.26300 -80.6316 -27.8020
  1116 767.714 -50.8393 -167.464
  1117 993.179 148.920 31.3170
  1118 11.5961 -110.804 4.31008
  1119 41.3601 22.4613 -25.7092
  1120 41.5962 22.3546 25.5148
  1121 103.859 31.6131 1.29209
  1122 103.599 31.7584 -1.30120
  1123 211.928 9.20625 5.37890
  1124 211.951 9.19967 -5.36935
  1125 -12.3790 -17.6391 38.2765
  1126 -12.3648 -17.8212 -38.3481
  1127 -31.6267 11.4063 28.8810
  1128 -31.7946 11.4320 -28.9438
  1129 -7.95738 14.9119 33.3034
  1130 -8.13863 14.9469 -33.3837
  1131 564.774 -29.1514 -49.7232
  1132 568.139 -29.2576 49.4755
  1133 0.802218 -90.6599 -31.4628
  1134 309.695 2.76192 -116.595
  1135 310.031 3.67167 118.256
  1136 104.218 27.7239 -3.60766
  1137 104.375 27.6506 3.60926
  1138 296.982 196.180 306.989
  1139 83.5039 21.6722 8.47592
  1140 83.3612 21.7193 -8.48525
  1141 762.006 -73.2875 -50.6094
  1142 296.267 4.81898 7.01034
  1143 296.232 4.81877 -7.00189
  1144 -12.7948 -11.3370 23.7682
  1145 -12.8078 -11.3674 -23.7663
  1146 -15.1299 -13.4688 30.5367
  1147 -15.1355 -13.5265 -30.5479
  1148 508.576 -45.0271 -159.449
  1149 517.681 -50.0618 160.523
  1150 100.298 1.26850 2.10634
  1151 100.386 1.26672 -2.10622
  1152 325.039 14.1181 -65.9413
  1153 324.964 13.9704 66.4979
  1154 686.879 -82.0366 125.384
  1155 603.057 -2.02635 1.39118
  1156 602.822 -2.02461 -1.38946
  1157 -49.3423 8.44396 25.9282
  1158 -49.5100 8.46190 -25.9832
  1159 -86.9622 2.43506 -13.0759
  1160 -86.7700 2.42874 13.0515
  1161 165.333 26.0798 193.289
  1162 519.553 32.8543 -23.5628
  1163 297.402 18.4179 -34.6204
  1164 297.452 18.3974 34.7682
  1165 878.595 1.11255 182.206
  1166 302.477 18.3142 -49.3246
  1167 302.528 18.2590 49.5786
  1168 83.0582 7.40829 -2.24023
  1169 83.1625 7.39807 2.23554
  1170 28.1088 -77.8410 26.0091
  1171 28.3220 -74.9839 -33.3725
  1172 406.326 -22.4887 -161.281
  1173 411.458 -20.6777 160.964
  1174 164.538 29.2134 -53.4626
  1175 163.844 29.7153 53.8487
  1176 703.130 -42.8381 -40.0013
  1177 -23.6343 -1.22679 43.5416
  1178 -23.7365 -1.22957 -43.6314
  1179 0.510136 -34.6259 -44.0991
  1180 187.597 14.7295 -124.792
  1181 187.960 15.1187 126.614
  1182 -0.440181 -35.7931 9.01910
  1183 -0.377700 -35.8830 -9.13464
  1184 -161.539 1.27752 -3.77552
  1185 -161.304 1.27645 3.76800
  1186 551.145 -1.93255 -2.86808
  1187 551.346 -1.93495 2.87165
  1188 350.179 9.55037 -20.1332
  1189 350.260 9.52857 20.1672
  1190 -10.1336 1.44333 46.8156
  1191 -10.1619 1.65203 -46.9088
  1192 -0.0414004 -140.867 -13.4233
  1193 -138.745 0.269979 6.47251
  1194 -138.933 0.270701 -6.48656
  1195 117.925 9.78761 -90.9838
  1196 117.151 10.5167 93.5112
  1197 651.008 -39.3118 -8.57222
  1198 195.120 19.0563 -112.582
  1199 195.219 19.3937 113.444
  1200 -78.6526 0.451143 10.5849
  1201 -78.7161 0.450399 -10.6024
  1202 2.34134 -117.896 -20.6387
  1203 -13.2992 3.67287 -3.89009
  1204 -13.1397 3.66846 3.88212
  1205 106.944 22.6587 4.53217
  1206 106.809 22.7100 -4.52967
  1207 369.785 -1.11796 -2.46902
  1208 369.868 -1.11858 2.47101
  1209 492.386 -0.197282 11.5949
  1210 492.223 -0.187005 -11.5871
  1211 30.6789 1.29836 20.6003
  1212 30.2374 0.803662 -21.1442
  1213 5.53948 -66.3921 32.1065
  1214 887.033 130.647 11.1224
  1215 -27.1581 -2.02458 17.0848
  1216 -27.1675 -2.03402 -17.0978
  1217 4.46918 -62.2207 -34.0935
  1218 -2.47799 -40.9449 24.8716
  1219 -2.36915 -40.4950 -25.7490
  1220 697.548 -7.82875 9.71960
  1221 0.578701 -160.445 13.6120
  1222 6.40464 -44.8286 -38.1337
  1223 93.8513 0.527862 0.532725
  1224 93.7596 0.528766 -0.533517
  1225 -6.11365 -27.7723 44.2842
  1226 -68.9293 3.77375 -10.5848
  1227 -68.7411 3.76713 10.5650
  1228 1368.28 22.3195 40.7219
  1229 -37.5408 5.18122 38.4505
  1230 -37.6647 5.17649 -38.5333
  1231 346.018 12.2064 -59.5066
  1232 346.227 12.0184 59.8079
  1233 24.6930 -25.9657 -10.7802
  1234 328.300 13.5118 -25.5154
  1235 328.372 13.4823 25.5781
  1236 14.7906 -87.1870 1.23260
  1237 -6.14847 -27.8615 -44.2575
  1238 -44.1015 1.15930 5.72029
  1239 -44.2792 1.16202 -5.73052
  1240 -22.0708 2.87648 -44.0755
  1241 -21.9448 2.88932 43.9899
  1242 705.389 58.4273 43.2499
  1243 397.742 2.79094 -61.9085
  1244 398.125 2.74243 62.0541
  1245 -166.948 0.236955 -1.12940
  1246 -166.694 0.236897 1.12649
  1247 356.751 5.32299 -13.4998
  1248 356.826 5.31747 13.5140
  1249 -169.432 -3.21973 -0.510927
  1250 -169.695 -3.22225 0.511062
  1251 529.745 -36.9015 -71.0373
  1252 -80.3581 1.47705 21.8753
  1253 -80.4762 1.47671 -21.9190
  1254 534.657 -38.9812 70.3980
  1255 363.807 9.96382 -26.7124
  1256 363.905 9.92405 26.7585
  1257 44.7730 -58.9050 -89.6180
  1258 0.857205 -109.920 -26.7349
  1259 -1.81689 -45.8149 41.4088
  1260 1094.18 224.619 -184.969
  1261 -0.188778 -104.171 26.6927
  1262 1150.05 109.630 -81.2766
  1263 -0.803789 -193.599 -12.1816
  1264 66.6787 3.76773 0.0778189
  1265 66.7889 3.76309 -0.0807356
  1266 -0.459993 -45.8776 9.43940
  1267 -0.362763 -46.1298 -9.42164
  1268 208.274 2.12494 1.18182
  1269 208.294 2.12270 -1.18090
  1270 709.582 -49.3610 37.4062
  1271 24.3810 3.84684 -4.50130
  1272 24.5184 3.84115 4.49335
  1273 4.11042 -203.648 3.20604
  1274 2.63093 -217.952 -3.25781
  1275 652.248 -75.1633 -78.6336
  1276 -1.66847 -58.2463 27.2640
  1277 699.117 49.3269 -57.2187
  1278 -2.01253 -76.7207 26.6718
  1279 1.46687 -205.533 -8.34347
  1280 334.318 6.15664 -15.3764
  1281 334.381 6.14416 15.3988
  1282 -0.289185 -115.524 12.0447
  1283 -0.230168 -94.5488 -26.9165
  1284 1477.92 284.020 238.484
  1285 605.565 -0.331497 1.01931
  1286 605.329 -0.330888 -1.01837
  1287 19.7333 4.67842 34.2512
  1288 19.1694 5.34435 -34.4492
  1289 -5.87751 10.2385 42.9303
  1290 -6.13452 10.2354 -43.0728
  1291 663.785 -11.2117 -37.6869
  1292 609.488 -26.2951 -29.9807
  1293 609.052 -29.7200 30.4905
  1294 100.691 8.56213 1.81833
  1295 100.595 8.57467 -1.82143
  1296 -95.0169 2.48814 -16.3322
  1297 -94.8429 2.48251 16.2966
  1298 678.429 -83.8209 -108.658
  1299 -5.00137 -12.2587 12.6178
  1300 -5.02204 -12.2530 -12.6140
  1301 719.579 -25.6244 61.6303
  1302 -7.15168 -27.5468 33.2808
  1303 -7.06802 -27.6533 -33.1293
  1304 -54.3465 3.36613 6.98122
  1305 -54.5294 3.37163 -6.99496
  1306 115.756 18.6671 -51.1311
  1307 114.644 19.2734 51.0594
  1308 178.997 2.03947 -0.605508
  1309 178.958 2.04199 0.605705
  1310 -64.3934 6.76134 26.0471
  1311 -64.5542 6.77435 -26.1012
  1312 570.375 0.102634 1.58377
  1313 570.162 0.103082 -1.58237
  1314 326.783 8.80705 214.005
  1315 471.138 -1.50116 4.13449
  1316 470.990 -1.49935 -4.13057
  1317 323.470 7.40033 -89.6955
  1318 323.428 7.05926 90.3587
  1319 3.38863 -115.950 -12.4987
  1320 129.950 31.4536 -25.9110
  1321 129.387 31.7946 26.0735
  1322 -1.29635 -1.08262 -1.64504
  1323 -1.30276 -1.08274 1.64972
  1324 409.354 9.24093 33.6216
  1325 409.200 9.32773 -33.5657
  1326 209.785 13.6749 8.32617
  1327 209.815 13.6639 -8.30689
  1328 303.458 13.5332 -18.3141
  1329 303.501 13.5223 18.3536
  1330 390.458 -0.731298 -4.19114
  1331 390.554 -0.732162 4.19471
  1332 -12.2874 -5.86791 -14.2133
  1333 -12.2823 -5.85906 14.2174
  1334 -108.568 -0.328892 4.10476
  1335 -108.783 -0.328517 -4.11330
  1336 -20.3789 -9.09646 -33.9624
  1337 -20.3539 -9.04610 33.9169
  1338 -56.1224 0.0591736 1.59996
  1339 -56.3092 0.0588233 -1.60273
  1340 -171.972 1.45938 0.626326
  1341 -172.236 1.46002 -0.627490
  1342 725.166 -77.9557 145.005
  1343 555.689 -1.79121 -53.5123
</Section>

newXOutput 88

<Section columns = "stress_xx | stress_yy | stress_xy">
  1 629.035 -1.38519 0.706338
  2 629.285 -1.38640 -0.706708
  3 -188.296 0.766607 -2.62996
  4 0.296358 0.0585122 0.535810
  5 1110.66 379.894 383.372
  6 1257.00 424.431 -370.809
  7 0.294754 0.0570955 -0.533675
  8 -188.017 0.766504 2.62816
  9 627.285 -1.33948 -2.10440
  10 627.903 -2.30408 -3.34162
  11 633.743 -2.33377 -0.975622
  12 634.597 -2.35682 -4.05382
  13 636.624 -2.35925 -1.42260
  14 649.606 -2.13453 -1.90536
  15 654.441 -2.91437 -5.45605
  16 659.984 -1.62492 -3.84279
  17 663.883 -0.510219 -7.39104
  18 690.137 -4.35055 -6.31856
  19 702.193 -3.57857 -8.00564
  20 715.960 -5.05403 -3.70342
  21 723.400 -6.40775 -2.72497
  22 721.653 -7.08229 7.49364
  23 701.957 -7.61504 16.7228
  24 654.154 -7.70197 37.0233
  25 573.603 5.66739 43.4775
  26 509.537 7.40827 39.5965
  27 418.109 12.5133 23.8839
  28 441.967 12.1392 3.04619
  29 381.227 34.6920 -14.7078
  30 488.527 16.5954 -44.3945
  31 545.005 4.84242 -36.0343
  32 643.190 -1.19917 -31.3499
  33 695.878 -9.22796 -20.2970
  34 721.143 -8.22315 -7.38808
  35 722.501 -6.23926 2.80343
  36 715.388 -4.99864 3.54980
  37 702.079 -3.59617 7.82000
  38 690.224 -4.39547 6.21890
  39 664.099 -0.534551 7.35077
  40 660.238 -1.63411 3.83056
  41 654.710 -2.92092 5.45564
  42 649.876 -2.13821 1.90598
  43 636.885 -2.36218 1.42437
  44 634.855 -2.35933 4.05788
  45 633.998 -2.33579 0.977258
  46 628.153 -2.30596 3.34457
  47 627.534 -1.34070 2.10625
  48 595.341 0.604062 -0.833769
  49 553.600 -0.982141 -1.76456
  50 501.064 -3.90109 -1.64810
  51 446.198 -1.02493 -1.37003
  52 397.714 -1.70037 -1.06815
  53 345.479 -0.0826875 -1.24589
  54 293.563 2.70053 -0.656943
  55 239.299 2.18074 -1.54064
  56 194.039 0.911742 -2.22702
  57 134.301 -0.100014 -2.34604
  58 73.3338 1.50815 -1.80843
  59 22.2623 1.33085 -1.75019
  60 -41.7130 0.546062 -1.55974
  61 -89.2985 -1.29689 -4.11544
  62 -135.444 -3.49820 -1.84514
  63 -182.422 0.253320 1.37086
  64 -192.828 3.29480 -0.340390
  65 -193.826 1.38657 0.776581
  66 -187.518 0.614554 -0.0122485
  67 -190.394 2.08044 -2.15237
  68 -187.785 2.56984 0.127531
  69 -177.999 0.718372 -3.38723
  70 -181.134 1.60017 -3.69330
  71 -177.112 1.49475 -1.91825
  72 -164.335 0.886993 -3.05096
  73 -159.171 1.72749 -5.27927
  74 -149.903 1.97279 -4.22794
  75 -133.148 0.991876 -7.69938
  76 -123.854 0.312856 -6.41938
  77 -106.637 0.445426 -7.51456
  78 -91.9374 0.398117 -8.43538
  79 -78.9213 0.154493 -6.66320
  80 -60.6142 0.413649 -6.74323
  81 -44.7431 -0.127638 -7.26208
  82 -29.3632 -0.761661 -6.44644
  83 -17.1071 -0.673427 -4.98097
  84 -8.49252 -1.21227 -4.19360
  85 -1.55144 -0.703549 -1.53700
  86 0.000192150 -0.803888 -0.575932
  87 -0.429257 -0.496909 -0.153492
  88 -1.10460 -1.30195 -1.35242
  89 -1.07601 -7.20812 -3.65326
  90 -0.898048 -15.9847 -5.14582
  91 -0.449296 -27.0077 -7.46575
  92 -0.215957 -41.3592 -6.42516
  93 -0.137425 -54.4143 -8.07206
  94 -0.962628 -70.1546 -9.04970
  95 -0.397013 -89.7162 -9.06688
  96 0.179856 -109.396 -8.64149
  97 0.419756 -130.391 -8.48839
  98 0.669511 -151.838 -8.28311
  99 -0.0319229 -167.088 -11.1555
  100 1.05341 -189.279 -9.93251
  101 1.34945 -215.074 -7.66278
  102 -0.274656 -225.152 -10.1287
  103 1.91495 -242.548 -9.17714
  104 4.93069 -265.398 -3.12248
  105 9.73496 -268.446 -5.01361
  106 7.52488 -235.150 11.7121
  107 12.1398 -159.862 37.8179
  108 50.8441 -54.6913 96.9503
  109 150.559 309.056 288.429
  110 1694.90 97.9740 173.262
  111 1464.28 26.8761 62.0818
  112 1417.40 8.60319 14.7678
  113 1406.74 1.60357 -2.21090
  114 1416.84 13.9942 -32.6099
  115 1464.46 49.5381 -74.5811
  116 1654.31 190.972 -220.762
  117 368.946 244.443 -350.167
  118 87.7042 -55.6656 -114.041
  119 26.3476 -175.722 -45.4387
  120 7.59671 -221.685 -12.1389
  121 7.97279 -257.565 1.29756
  122 2.18616 -254.469 1.85300
  123 0.667352 -236.409 7.44686
  124 0.794733 -223.827 5.81717
  125 1.19296 -202.857 11.0550
  126 -0.0507376 -191.212 11.0086
  127 0.468556 -173.178 7.87367
  128 0.964071 -150.106 10.2385
  129 0.217428 -133.532 8.09999
  130 0.270132 -109.434 10.2565
  131 -1.09439 -90.8288 8.84752
  132 -0.732605 -70.2050 8.75640
  133 -0.0848171 -54.0969 8.08821
  134 -0.287986 -41.1142 6.43126
  135 -0.435906 -26.9278 7.39072
  136 -0.884200 -15.9747 5.11987
  137 -1.07016 -7.21922 3.65075
  138 -1.10297 -1.31434 1.35521
  139 -0.429153 -0.502145 0.157051
  140 -0.00623875 -0.804562 0.579057
  141 -1.56325 -0.702991 1.54080
  142 -8.50918 -1.21081 4.19688
  143 -17.1284 -0.671099 4.98148
  144 -29.3776 -0.758809 6.44285
  145 -44.7416 -0.125282 7.25338
  146 -60.5942 0.414115 6.73317
  147 -78.8755 0.155817 6.65248
  148 -91.8677 0.399823 8.42258
  149 -106.535 0.445550 7.50061
  150 -123.720 0.312984 6.40576
  151 -132.992 0.991291 7.68535
  152 -149.715 1.97150 4.21645
  153 -158.965 1.72598 5.26929
  154 -164.110 0.885988 3.04402
  155 -176.868 1.49358 1.91330
  156 -180.881 1.59927 3.68791
  157 -177.741 0.718165 3.38255
  158 -187.516 2.56833 -0.129445
  159 -190.119 2.07925 2.14961
  160 -187.243 0.614465 0.0113445
  161 -193.545 1.38592 -0.776599
  162 -192.547 3.29294 0.339755
  163 -182.147 0.253563 -1.37031
  164 -135.201 -3.49527 1.84369
  165 -89.0868 -1.29530 4.11262
  166 -41.5325 0.546233 1.55831
  167 22.4016 1.33009 1.74875
  168 73.4407 1.50675 1.80704
  169 134.369 -0.100785 2.34433
  170 194.070 0.910164 2.22556
  171 239.301 2.17846 1.53971
  172 293.530 2.69807 0.656647
  173 345.413 -0.0830550 1.24525
  174 397.614 -1.69942 1.06764
  175 446.066 -1.02417 1.36938
  176 500.896 -3.89809 1.64741
  177 553.398 -0.981004 1.76361
  178 595.113 0.604075 0.833326
  179 178.256 28.3691 -13.4851
  180 178.126 28.4433 13.5578
  181 0.125527 6.80782 44.1290
  182 -0.0715533 6.73998 -44.1735
  183 393.756 -4.68787 -94.4556
  184 393.360 -5.38890 95.3399
  185 83.2055 22.6574 -12.5880
  186 82.2437 22.9504 12.5795
  187 65.7856 8.04969 -4.28950
  188 65.9050 8.03647 4.28144
  189 369.333 3.89909 -15.1448
  190 369.417 3.88830 15.1629
  191 0.763792 14.1677 22.0941
  192 0.592039 14.2027 -22.1409
  193 428.409 8.02762 -36.4435
  194 428.602 7.91976 36.5123
  195 -15.7900 -13.5460 37.3731
  196 -15.7921 -13.6327 -37.4319
  197 5.23658 -30.2326 -41.8185
  198 140.030 16.9169 -91.6421
  199 6.11628 -32.5065 40.6500
  200 137.896 17.9069 92.8240
  201 603.023 -73.4236 -135.287
  202 622.572 -76.2533 130.431
  203 224.275 4.33787 -4.05817
  204 224.262 4.34121 4.06261
  205 -23.8963 1.24572 -3.70800
  206 -23.7276 1.24408 3.70162
  207 -43.8406 7.53989 34.2668
  208 -43.9897 7.55100 -34.3449
  209 225.740 17.3169 -10.5448
  210 225.716 17.3311 10.5725
  211 73.0754 29.2172 10.8039
  212 72.7867 29.3814 -10.9003
  213 -53.2972 5.87676 -12.7042
  214 -53.1147 5.86548 12.6791
  215 482.944 -1.71541 6.81619
  216 482.789 -1.71148 -6.80995
  217 17.5156 -55.9369 12.9971
  218 19.0080 -49.8304 -10.5134
  219 -3.99920 -38.7237 41.6392
  220 -4.14385 -40.3962 -40.3907
  221 210.093 29.2925 -42.9691
  222 209.858 29.4476 43.2820
  223 -41.4853 0.287620 35.8286
  224 -41.5698 0.278771 -35.8923
  225 516.492 0.573861 -19.1566
  226 516.675 0.542688 19.1605
  227 558.615 -10.1033 -38.5317
  228 559.079 -10.6085 38.4731
  229 899.586 65.0242 2.13818
  230 826.156 96.2619 29.9979
  231 805.417 4.02637 -53.5112
  232 107.868 20.5277 4.27776
  233 107.746 20.5697 -4.27798
  234 12.5786 18.6533 32.1286
  235 12.3805 18.7056 -32.2061
  236 624.332 -37.4591 -29.9428
  237 620.846 -37.8729 32.0436
  238 349.501 -0.0465331 -5.84423
  239 349.570 -0.0479043 5.84988
  240 -71.2662 5.21466 22.2783
  241 -71.4375 5.22644 -22.3254
  242 -10.4130 -10.2188 -17.1904
  243 -10.4007 -10.2089 17.1971
  244 -75.3491 1.25239 5.95898
  245 -75.5475 1.25526 -5.97056
  246 291.876 18.5401 -26.8594
  247 291.907 18.5270 26.9423
  248 368.637 8.95820 -55.1730
  249 368.864 8.82531 55.3902
  250 97.3950 3.46774 0.984711
  251 97.4879 3.46394 -0.985918
  252 217.153 19.4061 -186.705
  253 255.108 24.1294 201.443
  254 32.7021 15.7863 29.0434
  255 32.5714 16.0743 -29.2140
  256 838.983 -48.8512 -34.0361
  257 81.9454 27.4211 9.50421
  258 81.7678 27.4965 -9.52147
  259 214.155 24.8774 -74.7262
  260 213.710 25.4027 75.3588
  261 944.696 142.172 12.2365
  262 560.010 -1.85904 25.8862
  263 559.756 -1.71957 -25.9181
  264 -4.89056 -30.8675 -26.6073
  265 -4.72636 -30.9831 26.7063
  266 -0.826660 -72.0367 -35.5882
  267 3.08786 -81.7401 -30.9905
  268 1.76707 -82.8241 33.2186
  269 -12.5435 -10.6752 46.9982
  270 -12.6089 -10.6705 -47.2168
  271 33.0035 -55.6309 -21.5669
  272 35.6316 -50.0315 27.2175
  273 -31.9396 -2.54158 23.3108
  274 -31.9659 -2.55452 -23.3376
  275 404.307 8.03726 -23.2615
  276 404.430 8.00053 23.2913
  277 700.009 -67.4018 -16.2869
  278 164.318 10.7327 2.90736
  279 164.376 10.7206 -2.90230
  280 -1.57720 -67.7707 34.1344
  281 23.5628 13.2836 12.8533
  282 23.4085 13.3115 -12.8783
  283 1098.20 74.0944 -36.4908
  284 540.641 -1.54706 8.17731
  285 540.449 -1.54000 -8.17153
  286 375.166 -13.3484 -140.011
  287 378.090 -13.0916 141.842
  288 699.230 -64.1156 5.10747
  289 -63.8998 2.18694 28.0328
  290 -64.0070 2.18548 -28.0872
  291 679.646 -36.8954 223.838
  292 -26.4446 5.75241 41.8852
  293 -26.5747 5.73850 -41.9786
  294 124.130 33.7441 -17.3426
  295 123.641 34.0438 17.4340
  296 -110.087 0.408084 0.903031
  297 -110.312 0.407630 -0.905089
  298 574.877 34.9184 -300.356
  299 -107.198 2.00416 -11.6283
  300 -106.999 1.99936 11.6039
  301 -1.37626 -11.7347 46.7424
  302 0.482657 -11.2440 -46.0417
  303 263.284 24.3587 -38.2901
  304 263.256 24.3812 38.4774
  305 65.7017 4.70166 3.26794
  306 65.5866 4.70827 -3.27385
  307 272.014 7.10301 -9.13007
  308 272.031 7.10477 9.14198
  309 28.1101 -12.7624 19.3502
  310 25.6658 -16.3765 -19.8137
  311 264.106 1.50115 -2.58999
  312 264.120 1.50267 2.59235
  313 -90.0047 2.38755 20.2137
  314 -90.1479 2.39057 -20.2560
  315 69.7031 1.97225 -25.5873
  316 67.7825 1.84911 23.7915
  317 561.472 -2.03716 2.30320
  318 561.265 -2.03506 -2.30037
  319 1210.14 67.2128 53.3817
  320 138.231 15.0197 -0.647667
  321 138.147 15.0420 0.653361
  322 -17.6806 5.13310 7.90431
  323 -17.8466 5.14297 -7.92063
  324 186.390 21.8823 -9.84099
  325 186.317 21.9155 9.88180
  326 25.9424 20.0666 32.8295
  327 25.7799 20.1000 -32.9519
  328 2.96749 -119.492 22.1617
  329 -115.114 -0.269606 -2.30803
  330 -114.887 -0.269088 2.30352
  331 434.921 -1.63368 -4.49385
  332 435.045 -1.63555 4.49798
  333 457.670 0.299912 -11.9038
  334 457.810 0.289714 11.9134
  335 -108.763 1.51630 -8.07444
  336 -108.550 1.51322 8.05933
  337 8.96809 0.750004 0.458196
  338 8.82012 0.750559 -0.460144
  339 -2.47593 -51.0332 26.3997
  340 -1.95033 -53.0886 -26.3588
  341 520.542 -40.6736 -95.8917
  342 539.557 -48.7721 94.3315
  343 312.869 11.7275 -16.9481
  344 312.916 11.7196 16.9772
  345 143.585 31.6749 -12.2275
  346 143.323 31.8276 12.2993
  347 -39.9632 8.55009 18.6052
  348 -40.1383 8.56953 -18.6447
  349 942.671 41.3728 46.9926
  350 55.0199 -53.1931 -69.1758
  351 58.8366 -47.2765 71.7723
  352 -14.4639 14.7551 30.9062
  353 -14.6405 14.7882 -30.9776
  354 -24.9645 -4.46867 41.9821
  355 -25.0423 -4.48601 -42.0705
  356 1071.70 191.877 -71.3054
  357 706.957 -3.98991 73.8932
  358 647.702 -16.4873 -18.9555
  359 647.386 -16.1010 18.0968
  360 462.340 -6.90602 -61.5168
  361 461.758 -7.28421 61.5803
  362 0.955166 -143.984 -17.3946
  363 589.773 -0.290184 -14.3211
  364 589.991 -0.327777 14.3030
  365 8.31756 -132.794 11.4692
  366 711.420 56.8307 -34.9661
  367 178.205 3.01169 1.11946
  368 178.164 3.01473 -1.12044
  369 463.636 0.843734 -45.6048
  370 463.913 0.671396 45.6979
  371 495.012 1.24675 -27.2004
  372 495.203 1.16945 27.2082
  373 1.06664 4.12395 4.81036
  374 0.912274 4.13032 -4.82028
  375 293.770 16.2263 -74.9445
  376 293.767 16.4273 75.4988
  377 578.072 -1.72660 3.74508
  378 577.854 -1.72396 -3.74084
  379 340.108 15.5728 -38.7355
  380 340.209 15.5091 38.8654
  381 387.319 2.77702 10.1434
  382 387.226 2.78042 -10.1336
  383 -18.2984 -3.20120 14.5746
  384 -18.3009 -3.21052 -14.5778
  385 -4.41474 -3.11981 -4.36570
  386 -4.41639 -3.12078 4.37206
  387 775.422 -84.8251 69.8440
  388 -9.58426 -23.4823 38.8270
  389 -9.51163 -23.7023 -38.8436
  390 137.257 5.78966 0.106394
  391 137.328 5.78253 -0.106863
  392 -3.80678 -19.4463 14.6628
  393 -3.85231 -19.4198 -14.6671
  394 57.4593 21.2815 13.2822
  395 57.3002 21.3312 -13.3065
  396 633.365 -4.35226 19.1784
  397 633.053 -4.15128 -19.4108
  398 -0.581861 -35.0419 45.2438
  399 -51.6946 -0.801753 21.8406
  400 -51.7448 -0.807291 -21.8741
  401 -0.782321 -37.1722 -44.7431
  402 592.212 -1.28500 9.15120
  403 591.987 -1.27383 -9.15090
  404 -1.16464 14.4504 39.5874
  405 -1.38941 14.4846 -39.6964
  406 445.254 3.51515 -18.6443
  407 445.391 3.49234 18.6583
  408 681.096 -28.7481 -8.75241
  409 682.274 -23.5648 5.99961
  410 -1.22297 -69.2289 -28.7353
  411 67.4110 26.0290 -4.99620
  412 67.9474 25.7941 4.88930
  413 703.050 45.0876 21.2180
  414 394.244 -11.7667 -191.099
  415 403.867 -18.7252 199.246
  416 30.1607 20.9126 23.2082
  417 29.9785 20.9673 -23.2596
  418 291.306 4.52670 -6.25306
  419 291.336 4.52841 6.25972
  420 282.954 77.5170 300.493
  421 123.528 25.5909 -0.792795
  422 123.669 25.5273 0.806097
  423 8.32590 -60.4649 27.5990
  424 -0.806916 -111.833 -24.4060
  425 52.3671 26.3637 20.2213
  426 52.1621 26.4415 -20.2843
  427 65.5291 13.3585 -7.13409
  428 65.6579 13.3347 7.12261
  429 -16.9301 0.335299 -46.3693
  430 -16.8010 0.307063 46.2731
  431 145.618 29.8399 -35.9481
  432 144.992 30.2362 36.1899
  433 690.701 -19.6834 -56.7956
  434 22.6005 -2.51909 31.8909
  435 21.9336 -2.40803 -32.1553
  436 503.861 -22.0612 -67.8926
  437 505.753 -23.4623 67.8708
  438 -119.596 0.828699 -11.8225
  439 -119.411 0.825760 11.7971
  440 -0.0104790 -110.522 22.1555
  441 -0.730870 -70.5301 25.6480
  442 -48.0059 3.59367 35.7585
  443 -48.1169 3.58903 -35.8297
  444 361.440 -0.228752 -2.28335
  445 361.516 -0.228973 2.28565
  446 -10.4204 -16.4932 26.7907
  447 -10.4429 -16.5363 -26.7700
  448 232.806 17.0235 -107.788
  449 232.282 17.9529 108.777
  450 1.95763 -130.858 -23.0322
  451 1207.20 38.7566 0.141588
  452 3.77658 -149.771 -10.2956
  453 -137.415 -0.456661 -3.78032
  454 -137.178 -0.456521 3.77377
  455 -51.2312 7.94120 27.8872
  456 -51.3965 7.95761 -27.9498
  457 -64.6792 0.993370 21.7622
  458 -64.7531 0.992270 -21.7985
  459 252.810 22.9898 -27.4775
  460 252.787 23.0167 27.5901
  461 374.698 11.4372 -29.8907
  462 374.816 11.3821 29.9543
  463 -4.99576 -20.7978 47.0299
  464 -5.00339 -20.6581 -47.2329
  465 657.876 15.9341 -71.2450
  466 48.2526 -3.77312 1.33351
  467 46.5499 -4.19848 -0.442928
  468 11.2954 -128.772 -8.51879
  469 7.53273 -152.006 3.16676
  470 -19.0725 -8.35495 27.5191
  471 -19.0875 -8.38811 -27.5376
  472 143.388 18.1997 -164.152
  473 960.219 30.9078 -118.704
  474 230.609 11.2921 9.63837
  475 230.623 11.2845 -9.62134
  476 332.341 5.34479 -102.158
  477 332.916 5.25545 103.476
  478 103.043 33.0726 3.06939
  479 102.828 33.1889 -3.07659
  480 300.761 20.7186 -56.2531
  481 300.814 20.6514 56.5860
  482 14.2681 8.44038 39.6310
  483 14.9364 8.77620 -39.5793
  484 -123.000 1.57583 -8.20845
  485 -122.785 1.57330 8.19214
  486 642.565 -71.0591 -59.0246
  487 505.745 -2.07573 -3.08349
  488 505.916 -2.07771 3.08655
  489 38.1874 1.77415 -1.46155
  490 38.3174 1.77160 1.45753
  491 -26.2013 11.4999 25.0472
  492 -26.3750 11.5271 -25.1016
  493 -64.7556 3.71849 -8.17185
  494 -64.5651 3.71203 8.15528
  495 230.919 18.8905 -14.3697
  496 230.894 18.9054 14.4126
  497 -21.9934 10.6586 36.8477
  498 -22.1617 10.6793 -36.9398
  499 587.484 -18.0739 -36.9157
  500 588.508 -18.8294 36.6123
  501 393.227 3.00282 -68.5550
  502 392.578 2.80322 69.0837
  503 153.176 3.95331 0.312417
  504 153.234 3.94906 -0.312821
  505 2.19923 -65.6211 -37.6977
  506 692.282 -22.6320 46.1724
  507 11.1153 -40.0736 -31.7607
  508 205.166 30.7054 29.4143
  509 205.333 30.5952 -29.2389
  510 635.653 -66.4671 58.5510
  511 53.0434 -35.1327 91.2295
  512 750.499 -82.3402 -111.493
  513 515.447 -0.581079 32.8760
  514 515.190 -0.420981 -32.8606
  515 2.22674 -55.7077 39.2563
  516 -10.1549 -2.97751 -7.89325
  517 -10.1581 -2.97527 7.89781
  518 73.9082 1.19192 -0.166351
  519 74.0149 1.19051 0.165134
  520 -1.68337 -39.8575 17.1220
  521 -1.52705 -39.6787 -17.2168
  522 425.343 1.19551 7.72041
  523 425.225 1.19742 -7.71352
  524 1168.58 222.326 108.780
  525 54.0393 -19.4973 -25.4881
  526 42.3908 -30.0906 16.6605
  527 -2.74977 7.95593 -10.9005
  528 -2.58879 7.93924 10.8786
  529 -101.054 1.57625 12.8515
  530 -101.174 1.57793 -12.8762
  531 1.10892 -123.473 23.4210
  532 -133.387 0.820257 0.741039
  533 -133.627 0.820176 -0.743299
  534 139.191 7.61109 -123.273
  535 136.373 9.44846 127.506
  536 128.297 26.4757 -48.1371
  537 127.364 26.9753 48.3381
  538 -26.6645 -5.19995 37.0692
  539 -26.7169 -5.22674 -37.1341
  540 128.211 8.20365 -0.494446
  541 128.132 8.21417 0.494316
  542 -49.9462 1.81436 2.82569
  543 -50.1308 1.81646 -2.83294
  544 148.932 18.2231 -2.32934
  545 148.844 18.2546 2.34343
  546 -2.76524 -9.20319 6.77409
  547 -2.77527 -9.19642 -6.77324
  548 56.5977 24.5529 16.3728
  549 56.2339 24.8565 -16.5273
  550 45.7128 11.3853 13.1533
  551 45.1089 11.3417 -13.5510
  552 517.888 1.12473 13.7436
  553 517.709 1.13717 -13.7362
  554 462.233 3.06357 22.4759
  555 462.077 3.10489 -22.4615
  556 -0.462961 -107.169 -15.5238
  557 329.868 12.9693 -23.8196
  558 329.933 12.9489 23.8686
  559 329.561 4.11607 -9.67426
  560 329.616 4.11353 9.68575
  561 -32.1612 0.350412 0.407006
  562 -31.9870 0.350646 -0.407791
  563 590.807 29.6345 -13.6878
  564 721.918 -83.2800 -48.0630
  565 620.629 30.6912 52.6809
  566 5.71639 -85.3860 -25.5652
  567 -23.4013 9.28532 -15.4573
  568 -23.2304 9.26597 15.4264
  569 6.32242 -48.4906 35.8452
  570 -29.7759 1.62975 41.5862
  571 -29.8799 1.62028 -41.6654
  572 927.370 88.7914 12.0375
  573 219.580 6.67266 -5.34376
  574 219.562 6.67759 5.35055
  575 1349.65 118.164 -126.649
  576 -4.37915 -3.22877 47.4817
  577 -3.84236 -2.84473 -47.4900
  578 762.557 -59.3434 15.2117
  579 609.092 -1.03743 -15.7911
  580 609.319 -1.10345 15.7441
  581 293.294 6.63845 -146.423
  582 296.461 5.66893 148.351
  583 -14.6922 -13.9661 42.6961
  584 -14.7115 -14.0470 -42.8249
  585 157.779 20.1769 83.1151
  586 159.055 19.1305 -82.5955
  587 -116.914 1.28744 -11.7527
  588 -116.746 1.28529 11.7280
  589 897.607 92.0780 27.0922
  590 181.666 13.1366 4.74947
  591 181.716 13.1220 -4.73872
  592 213.098 26.9069 -58.3874
  593 212.763 27.2135 58.8600
  594 556.473 -3.58503 -31.8531
  595 556.808 -3.81938 31.8410
  596 -2.08037 -54.1622 -38.1283
  597 596.593 -1.79736 4.81050
  598 596.362 -1.79402 -4.80620
  599 -76.5000 0.884458 -0.802590
  600 -76.2976 0.884195 0.799238
  601 -143.412 -1.42841 -0.123161
  602 -143.660 -1.43000 0.122642
  603 14.6096 -74.3394 -7.16002
  604 -5.33318 -35.7177 33.3272
  605 -5.62483 -33.7154 -33.5448
  606 -65.3843 4.32105 29.4949
  607 -65.5158 4.32540 -29.5559
  608 427.787 7.14981 28.7638
  609 427.636 7.21271 -28.7293
  610 318.006 0.653221 2.19899
  611 317.958 0.652365 -2.19713
  612 76.7746 -6.93362 56.8568
  613 78.9278 -5.38832 -56.4269
  614 -2.11148 -27.8811 14.5354
  615 -2.18210 -27.7984 -14.5880
  616 713.000 84.8140 322.147
  617 -35.8976 -1.02482 13.3760
  618 -35.9067 -1.03022 -13.3897
  619 14.8475 -44.1803 -23.7644
  620 312.248 8.70475 -13.1423
  621 312.292 8.70148 13.1612
  622 159.004 32.3627 -24.4658
  623 158.670 32.5670 24.6270
  624 1.48974 -180.965 6.86070
  625 121.406 30.2404 -0.756996
  626 121.236 30.3287 0.773130
  627 -3.83210 11.9220 18.7159
  628 -3.99994 11.9492 -18.7538
  629 -0.845849 -93.9078 21.1468
  630 -145.817 -0.129447 -3.85773
  631 -145.577 -0.129601 3.85075
  632 210.012 2.24618 2.36299
  633 210.034 2.24368 -2.36099
  634 504.705 -1.06387 9.32783
  635 504.536 -1.05773 -9.32028
  636 452.839 -16.5095 247.157
  637 365.610 5.59229 -18.4661
  638 365.695 5.57494 18.4908
  639 8.64578 -4.20944 42.4441
  640 10.1479 -1.12631 -42.1706
  641 577.471 -44.5234 -201.898
  642 1307.55 43.4220 -52.5281
  643 -137.195 -0.0328453 -7.91044
  644 -136.991 -0.0340902 7.89450
  645 44.9338 5.84800 -3.97335
  646 45.0627 5.83901 3.96526
  647 -2.43248 -58.1379 33.9918
  648 786.334 54.9448 -59.2055
  649 589.428 -2.05041 0.906343
  650 589.204 -2.04851 -0.905044
  651 -37.5258 -1.78173 -30.6338
  652 -37.4733 -1.77037 30.5865
  653 -0.137430 -132.330 -19.7965
  654 599.220 -1.90654 1.86800
  655 598.988 -1.90469 -1.86547
  656 65.3180 17.9241 10.7721
  657 65.1752 17.9616 -10.7886
  658 472.241 -36.1605 -134.650
  659 480.005 -35.9125 135.927
  660 671.459 -5.30527 11.4782
  661 671.358 -5.27331 -11.8305
  662 3.07307 -163.933 14.1806
  663 -25.5417 -0.0423167 -1.54503
  664 -25.3719 -0.0422920 1.54138
  665 226.414 63.3949 -238.693
  666 217.931 1.62958 2.20386
  667 217.946 1.62755 -2.20242
  668 113.435 5.18773 -1.01642
  669 113.351 5.19386 1.01537
  670 132.448 11.0055 1.80238
  671 132.528 10.9902 -1.79946
  672 403.662 8.51724 -44.5694
  673 403.866 8.39064 44.6911
  674 113.750 31.8902 -6.85520
  675 113.397 32.1078 6.86627
  676 -64.1557 4.78555 -15.2535
  677 -63.9717 4.77364 15.2224
  678 -77.0461 5.40542 -17.9439
  679 -76.8647 5.39417 17.9058
  680 693.223 -11.0552 0.709241
  681 2.31151 -24.7756 -44.5981
  682 693.634 -11.5902 -1.47739
  683 895.838 67.9033 -8.36490
  684 -86.0007 0.445365 14.7365
  685 -86.0941 0.444408 -14.7638
  686 99.1618 29.8134 -14.2554
  687 98.4680 30.1251 14.2829
  688 -156.061 -0.149545 -1.09640
  689 -155.809 -0.149213 1.09337
  690 3.00485 -21.9301 44.4872
  691 -52.7150 1.01442 31.6914
  692 -52.8084 1.00923 -31.7494
  693 763.923 -54.9789 -17.9073
  694 131.600 0.534990 -1.48767
  695 131.530 0.536271 1.48802
  696 37.8395 9.66623 7.66371
  697 37.7008 9.68334 -7.67730
  698 413.983 -16.1532 -113.772
  699 416.740 -16.8044 115.714
  700 1361.78 99.0106 113.968
  701 29.9631 -100.328 -56.9364
  702 -9.10032 -19.7684 45.3330
  703 -9.09827 -19.8609 -45.4563
  704 95.2007 17.1893 -3.84271
  705 95.3174 17.1587 3.83912
  706 616.116 -1.70725 -4.84894
  707 616.361 -1.71123 4.85173
  708 304.818 1.74091 4.50012
  709 304.779 1.74042 -4.49550
  710 31.0253 22.8530 28.6303
  711 30.8301 22.9169 -28.7128
  712 26.3884 3.93670 2.73647
  713 26.2505 3.94152 -2.74258
  714 -14.4857 5.53733 44.8069
  715 -14.6294 5.52138 -44.9223
  716 511.142 -2.68545 4.03319
  717 510.969 -2.68237 -4.02888
  718 446.335 0.894555 10.8107
  719 446.203 0.899891 -10.8015
  720 65.4811 -22.7076 66.6091
  721 67.1120 -25.5263 -64.7258
  722 -30.7626 8.02606 39.0223
  723 -30.9100 8.02953 -39.1147
  724 21.0483 -34.8053 16.6938
  725 5.90709 14.8968 39.5275
  726 5.67309 14.9226 -39.6114
  727 -90.3544 2.31753 -9.85092
  728 -90.1539 2.31243 9.83041
  729 86.8380 24.0726 8.65927
  730 86.6794 24.1322 -8.66861
  731 691.771 -19.8908 -30.4433
  732 654.289 -54.9020 -24.7985
  733 -10.1315 -20.8407 32.8746
  734 -10.1233 -20.9480 -32.8417
  735 263.664 10.7118 -172.416
  736 257.276 15.8425 173.613
  737 163.961 31.0987 -33.8185
  738 163.524 31.3900 34.0664
  739 15.8828 -19.7560 33.0548
  740 -0.860125 -70.1842 -18.6364
  741 331.519 15.5411 -43.3265
  742 331.629 15.4824 43.5107
  743 0.762394 -136.555 16.8941
  744 202.137 24.5649 -16.0823
  745 202.061 24.6061 16.1501
  746 649.071 -1.65276 -11.8956
  747 649.272 -1.72192 11.7879
  748 14.1021 -167.450 10.4567
  749 305.769 19.5387 33.6338
  750 305.718 19.5607 -33.5181
  751 87.8084 30.7065 -0.282609
  752 88.2572 30.4251 0.208740
  753 -116.243 0.757348 -10.0628
  754 -116.098 0.756657 10.0415
  755 335.353 2.33411 -8.18367
  756 335.412 2.33291 8.19191
  757 213.242 27.9579 -25.2852
  758 213.133 28.0258 25.4145
  759 7.90087 17.9014 29.4824
  760 7.71519 17.9490 -29.5501
  761 656.142 -47.1995 16.5837
  762 -92.3889 1.60210 7.35113
  763 -92.5960 1.60483 -7.36404
  764 1359.89 294.114 -208.371
  765 -28.3059 2.80776 7.08332
  766 -28.4772 2.81334 -7.09645
  767 554.595 -0.735462 22.4501
  768 554.378 -0.658646 -22.4703
  769 1029.65 60.3829 -1.69994
  770 621.553 -2.75739 -8.96391
  771 621.793 -2.77053 8.95897
  772 406.677 2.64022 13.8962
  773 406.570 2.64871 -13.8834
  774 604.619 -56.8701 184.467
  775 270.791 16.1456 -14.8446
  776 270.804 16.1487 14.8796
  777 6.79653 -96.0532 16.8392
  778 691.592 -79.3415 68.5702
  779 421.889 -1.93695 2.30035
  780 421.773 -1.93558 -2.29833
  781 544.797 -1.61875 1.21074
  782 544.601 -1.61713 -1.20928
  783 -2.25634 -54.4383 -31.9379
  784 3.83564 -89.2470 28.4788
  785 258.464 26.8900 46.7093
  786 258.524 26.8444 -46.4285
  787 1339.53 10.6931 12.8463
  788 434.003 1.49981 -54.7242
  789 434.257 1.34965 54.8774
  790 -84.0009 2.78714 21.6507
  791 -84.1628 2.79393 -21.6955
  792 20.3606 -65.5480 -0.689866
  793 12.9242 -154.035 -19.1710
  794 972.492 128.984 -31.9181
  795 -0.801911 -70.0695 16.8426
  796 24.6169 16.5081 34.0107
  797 24.5318 16.4893 -34.2336
  798 140.179 24.0509 -2.03844
  799 140.067 24.1013 2.05734
  800 649.219 -30.2987 -15.2447
  801 650.992 -29.7801 13.5170
  802 746.410 158.085 -305.940
  803 -94.4547 0.465415 -2.78395
  804 -94.2432 0.464631 2.77700
  805 -49.1431 -0.141412 12.5188
  806 -49.1659 -0.143855 -12.5355
  807 52.2797 9.39608 3.72268
  808 51.2171 9.36304 -3.87415
  809 497.268 -4.87416 48.9829
  810 496.932 -4.53117 -48.8223
  811 259.367 3.40763 -3.45144
  812 259.377 3.40990 3.45533
  813 795.811 -0.364166 52.8296
  814 94.1272 11.4037 -3.60910
  815 94.2350 11.3853 3.60442
  816 84.8203 16.7858 -22.8844
  817 84.0916 17.1231 23.0278
  818 0.520254 -51.6581 -41.4034
  819 1095.23 205.302 181.956
  820 -154.785 0.0199503 -3.94631
  821 -154.546 0.0198810 3.93852
  822 -0.210608 -164.576 15.3130
  823 14.2737 -19.6331 -33.6389
  824 -24.6821 -1.44726 9.45165
  825 -24.6761 -1.45145 -9.45661
  826 893.053 68.0090 -26.3943
  827 243.400 20.6664 -18.8116
  828 243.377 20.6838 18.8786
  829 614.303 -10.7614 -24.9028
  830 614.939 -10.8176 24.6636
  831 -149.124 0.971629 5.49367
  832 -149.347 0.973299 -5.50491
  833 -1.15679 -1.19186 -1.01781
  834 -1.15913 -1.19392 1.02181
  835 0.408342 -168.069 -14.7287
  836 0.776447 -173.574 -12.1933
  837 -159.841 1.35336 0.642826
  838 -160.100 1.35375 -0.644052
  839 101.046 -4.90716 -119.272
  840 385.777 1.36028 -4.45599
  841 385.869 1.36016 4.46028
  842 -0.511364 1.55169 0.859171
  843 -0.665308 1.55245 -0.860434
  844 563.012 -0.468044 -14.7292
  845 563.218 -0.492949 14.7256
  846 -64.3785 0.439255 11.8395
  847 -64.4217 0.439194 -11.8571
  848 351.110 25.0128 -252.413
  849 596.093 -49.3106 56.2676
  850 464.749 -0.687674 -5.04079
  851 464.892 -0.689658 5.04570
  852 591.252 -53.3767 -62.1086
  853 193.424 17.9029 -8.80423
  854 193.369 17.9244 8.83308
  855 262.287 13.4403 -11.7949
  856 262.295 13.4447 11.8182
  857 690.776 -14.2429 23.3872
  858 49.0277 26.1899 21.7948
  859 48.8116 26.2801 -21.8974
  860 54.9248 1.02405 1.02526
  861 54.8056 1.02557 -1.02793
  862 330.870 0.791508 3.94135
  863 330.813 0.791255 -3.93767
  864 839.237 -57.9276 112.564
  865 530.893 0.552740 -19.6372
  866 531.091 0.507205 19.6323
  867 18.2964 6.54977 5.95103
  868 18.1505 6.56029 -5.96281
  869 529.723 -2.61271 5.69811
  870 529.537 -2.60888 -5.69244
  871 -87.3704 -0.218756 -2.34516
  872 -87.1599 -0.217870 2.34293
  873 -0.415318 -53.8531 15.1108
  874 -0.560677 -54.6904 -15.2154
  875 653.751 -6.39077 59.1287
  876 -33.7261 10.0583 32.0780
  877 -33.8910 10.0795 -32.1521
  878 -0.188314 -88.1575 -16.5104
  879 261.869 6.11173 -6.36869
  880 261.880 6.11508 6.37602
  881 474.176 -22.9425 -87.4854
  882 477.537 -25.3414 88.2850
  883 -18.3597 -5.82745 -45.3771
  884 -18.2612 -5.82000 45.2608
  885 32.4951 22.4005 25.9868
  886 32.3026 22.4626 -26.0499
  887 2.17845 -194.612 9.46907
  888 11.8606 18.4425 35.4624
  889 11.6562 18.4830 -35.5468
  890 439.027 -8.21122 -78.0459
  891 437.999 -8.45414 78.6443
  892 756.220 49.0204 63.1160
  893 180.906 16.4361 6.08153
  894 180.964 16.4165 -6.06407
  895 542.964 1.04047 -14.5648
  896 543.158 1.02297 14.5683
  897 -20.3545 -8.48134 40.3852
  898 -20.4034 -8.52051 -40.4715
  899 2.08883 -196.846 -4.40667
  900 -31.3792 -1.57716 39.3312
  901 -31.4574 -1.58682 -39.4036
  902 28.8977 19.4740 -19.7669
  903 29.0685 19.4266 19.7252
  904 -1.65691 -13.7815 7.57369
  905 -1.67639 -13.7692 -7.58559
  906 54.9873 21.9863 -16.5145
  907 55.1621 21.9273 16.4814
  908 12.6719 -12.2038 38.4850
  909 11.2466 -11.3072 -40.9177
  910 534.344 -16.6405 50.4328
  911 533.165 -16.0021 -50.5824
  912 -163.982 0.231568 -0.945729
  913 -163.722 0.231699 0.943739
  914 -15.3003 -1.33025 7.17262
  915 -15.2886 -1.33291 -7.17179
  916 0.685562 -124.838 -14.8832
  917 -15.9878 -6.74671 -20.2192
  918 -15.9776 -6.72786 20.2160
  919 -63.8748 5.75914 27.8267
  920 -64.0278 5.76973 -27.8874
  921 175.143 31.0584 -17.4883
  922 174.975 31.1713 17.5822
  923 730.259 55.0912 -6.36489
  924 -1.19545 15.6225 26.7370
  925 -1.37284 15.6611 -26.7955
  926 271.896 18.4128 -84.1223
  927 271.822 18.6525 84.8783
  928 -23.8007 10.5194 21.3824
  929 -23.9735 10.5454 -21.4287
  930 846.803 -25.8729 4.72865
  931 552.419 22.1575 27.6938
  932 636.572 -5.64009 -53.4371
  933 467.553 3.21776 -33.1691
  934 467.756 3.11129 33.2031
  935 -39.9824 5.71378 -9.55626
  936 -39.8055 5.70302 9.53606
  937 -105.100 1.77162 13.4308
  938 -105.288 1.77637 -13.4600
  939 -6.49412 -21.3033 -23.4064
  940 -6.44271 -21.3134 23.4427
  941 174.265 7.88924 3.75022
  942 174.313 7.88077 -3.74606
  943 -48.5288 5.68334 35.1361
  944 -48.6588 5.68394 -35.2122
  945 551.413 -2.10829 7.30352
  946 551.212 -2.10399 -7.29707
  947 -3.89454 -46.1635 34.7781
  948 29.1555 17.4933 -16.6041
  949 29.3173 17.4545 16.5715
  950 38.1893 11.3273 9.98119
  951 38.0458 11.3497 -9.99911
  952 106.301 6.65778 -0.778478
  953 106.392 6.64919 0.775778
  954 1030.35 155.897 -55.0057
  955 -4.30838 -1.13815 -2.91392
  956 -4.31742 -1.13781 2.91894
  957 40.7382 14.0403 -19.6508
  958 41.3918 13.7739 19.5006
  959 381.638 11.9800 -36.1900
  960 381.779 11.9025 36.2788
  961 57.4929 14.5710 -8.91033
  962 57.6309 14.5427 8.89513
  963 107.044 14.9576 153.241
  964 697.469 -5.65357 -7.05147
  965 696.862 -5.45402 6.49842
  966 132.777 9.15131 136.807
  967 141.406 3.06106 -1.59562
  968 141.342 3.06440 1.59584
  969 350.611 1.42395 -219.084
  970 265.322 1.16706 2.04335
  971 265.308 1.16552 -2.04182
  972 36.2664 -25.1202 -1.06840
  973 40.0598 -19.7221 4.07422
  974 614.276 -1.28498 2.48346
  975 614.033 -1.28348 -2.48039
  976 -50.0530 0.351997 29.1135
  977 -50.1235 0.347447 -29.1606
  978 1105.83 141.650 76.4727
  979 -3.92902 -33.2279 -44.9594
  980 7.02862 -150.794 28.2174
  981 -0.246364 -53.4195 41.1588
  982 636.620 -1.43188 -9.14257
  983 636.857 -1.45095 9.12519
  984 -8.36794 -15.4178 20.2968
  985 -8.39403 -15.4239 -20.2817
  986 816.720 89.5238 -27.4756
  987 1355.98 9.61862 -8.47059
  988 -2.10529 -3.30167 -3.17139
  989 -2.10275 -3.30852 3.17592
  990 379.381 1.05924 -8.12941
  991 379.469 1.05747 8.13683
  992 -3.95472 -31.7973 45.1081
  993 522.456 -0.293686 29.1140
  994 522.234 -0.179892 -29.1151
  995 687.806 -43.3618 -18.7216
  996 -23.6659 -4.77346 22.7313
  997 -23.6812 -4.79313 -22.7483
  998 13.1853 -38.7805 28.4753
  999 -0.838648 -82.0587 32.3447
  1000 -0.108757 -87.5429 16.5156
  1001 728.410 44.6609 -4.62073
  1002 818.161 90.4896 11.3758
  1003 580.008 -61.6607 -105.292
  1004 9.36097 -75.6819 22.3688
  1005 11.6122 -106.808 -0.0856659
  1006 169.658 1.14239 0.0244000
  1007 169.612 1.14413 -0.0245915
  1008 -6.36893 -7.27660 -9.82370
  1009 -6.36230 -7.27636 9.83008
  1010 6.51994 -62.2706 -32.0240
  1011 463.875 -2.14252 -1.85461
  1012 464.018 -2.14429 1.85650
  1013 100.013 8.75504 -56.5838
  1014 95.8607 8.97122 56.0687
  1015 -3.50419 15.0798 36.4949
  1016 -3.70028 15.1161 -36.5904
  1017 -48.2853 8.04540 -22.3593
  1018 -48.1110 8.02705 22.3116
  1019 363.595 5.64504 -80.6907
  1020 363.691 6.01568 81.4689
  1021 264.960 22.4532 -59.1148
  1022 264.865 22.4770 59.5562
  1023 285.117 17.0119 -21.5864
  1024 285.141 17.0056 21.6412
  1025 725.662 -14.1894 -65.5316
  1026 -15.0021 9.66613 41.1815
  1027 -15.1746 9.67172 -41.3002
  1028 511.763 -3.06658 40.2285
  1029 511.466 -2.81163 -40.1778
  1030 -1.99776 -23.9138 46.4794
  1031 -40.6697 -1.21165 21.7690
  1032 -40.7015 -1.21906 -21.7977
  1033 467.760 1.41608 -40.2515
  1034 468.000 1.26271 40.3083
  1035 601.251 16.8039 -47.6286
  1036 -0.317345 -81.2893 -33.8675
  1037 -6.27195 -31.8497 41.0571
  1038 -6.55429 -32.2858 -40.7350
  1039 334.832 16.1784 -30.9835
  1040 334.914 16.1384 31.0725
  1041 416.101 4.38423 17.0608
  1042 415.985 4.39889 -17.0449
  1043 686.427 -42.3732 15.7600
  1044 44.9868 1.47381 -0.241311
  1045 45.1117 1.47262 0.240490
  1046 585.713 -68.8334 112.151
  1047 7.80914 0.734664 1.75398
  1048 7.66036 0.735796 -1.75785
  1049 134.680 31.6409 -6.54327
  1050 134.474 31.7596 6.58242
  1051 55.2807 25.1542 18.2958
  1052 55.0913 25.2236 -18.3399
  1053 7.11358 -94.9705 -17.6350
  1054 177.981 3.54511 2.41931
  1055 178.024 3.54081 -2.41728
  1056 543.814 16.7722 11.6026
  1057 469.315 0.622144 15.4899
  1058 469.166 0.638387 -15.4792
  1059 -1.47170 -25.0065 -46.5687
  1060 703.064 -9.27705 -11.1159
  1061 2.70851 0.0710082 44.9937
  1062 3.27427 0.402540 -44.7124
  1063 631.894 -1.78063 -5.09018
  1064 632.148 -1.78538 5.09080
  1065 674.744 -3.08127 -9.02592
  1066 674.820 -3.15743 8.84893
  1067 -0.498543 -132.303 12.2948
  1068 405.429 6.88783 -22.4121
  1069 405.543 6.86104 22.4358
  1070 488.351 1.64318 17.7793
  1071 488.187 1.66571 -17.7700
  1072 15.2690 13.5043 39.0644
  1073 15.1857 13.4975 -39.1421
  1074 1052.62 65.9959 14.5733
  1075 -11.5527 -4.27616 47.7207
  1076 -11.7876 -4.15382 -47.8619
  1077 161.008 28.2019 -7.80346
  1078 160.893 28.2655 7.84524
  1079 -74.4210 0.683278 -3.23114
  1080 -74.2211 0.682541 3.22481
  1081 259.569 17.6674 -96.3334
  1082 259.141 18.3377 97.2840
  1083 79.5614 28.4679 12.1235
  1084 79.3577 28.5554 -12.1543
  1085 178.672 24.2929 -74.1134
  1086 177.767 25.1016 74.5895
  1087 -4.18806 -43.4155 -33.9389
  1088 617.975 10.9422 64.9231
  1089 423.288 22.1006 280.495
  1090 74.8357 29.8875 12.4049
  1091 74.6036 29.9981 -12.4565
  1092 261.286 10.2361 -9.35476
  1093 261.294 10.2390 9.37088
  1094 908.528 22.9899 -0.668543
  1095 64.7998 19.0810 3.80962
  1096 64.0191 19.2461 -4.07809
  1097 -26.6107 -5.59064 30.0177
  1098 -26.6414 -5.61946 -30.0556
  1099 -0.867964 -20.5260 8.22912
  1100 -0.904218 -20.5157 -8.26317
  1101 599.496 -2.63093 23.0627
  1102 599.198 -2.43835 -23.1591
  1103 1.90876 -39.3359 43.2429
  1104 -38.9480 3.12313 -38.8155
  1105 -38.8414 3.13180 38.7398
  1106 0.181020 -158.007 -15.0435
  1107 -7.78884 -11.3283 47.6670
  1108 -7.75154 -11.0401 -47.7150
  1109 570.871 -1.11509 -9.71446
  1110 571.083 -1.12367 9.71927
  1111 593.125 -6.66600 28.2551
  1112 592.662 -6.34731 -28.3388
  1113 111.301 27.3179 -30.7617
  1114 110.478 27.7374 30.9179
  1115 -1.27299 -81.4693 -28.0836
  1116 775.916 -50.8382 -169.624
  1117 1003.75 151.042 32.2632
  1118 11.7580 -111.652 4.52691
  1119 41.9517 22.7572 -25.8328
  1120 42.1908 22.6495 25.6354
  1121 105.199 31.9726 1.12444
  1122 104.935 32.1195 -1.13444
  1123 214.467 9.23525 5.51751
  1124 214.490 9.22832 -5.50788
  1125 -12.4976 -17.8086 38.6739
  1126 -12.4833 -17.9927 -38.7465
  1127 -31.8319 11.5287 29.1113
  1128 -32.0024 11.5547 -29.1752
  1129 -7.91062 15.0840 33.5643
  1130 -8.09448 15.1193 -33.6461
  1131 571.025 -29.4802 -50.4101
  1132 574.420 -29.5843 50.1624
  1133 0.819067 -91.5473 -31.7513
  1134 313.331 2.88209 -118.130
  1135 313.668 3.80079 119.807
  1136 105.577 28.0082 -3.49361
  1137 105.736 27.9340 3.49467
  1138 300.116 199.745 310.601
  1139 84.6393 21.8794 8.43541
  1140 84.4944 21.9272 -8.44530
  1141 770.225 -73.8003 -51.5018
  1142 299.677 4.79233 7.14094
  1143 299.641 4.79192 -7.13230
  1144 -12.9280 -11.4531 24.0248
  1145 -12.9412 -11.4839 -24.0231
  1146 -15.2835 -13.6027 30.8606
  1147 -15.2893 -13.6611 -30.8721
  1148 514.271 -45.3531 -161.444
  1149 523.449 -50.4394 162.529
  1150 101.656 1.22718 2.15585
  1151 101.745 1.22535 -2.15576
  1152 328.828 14.2591 -66.8544
  1153 328.750 14.1106 67.4162
  1154 694.337 -82.6614 127.034
  1155 609.400 -2.06426 1.40768
  1156 609.162 -2.06248 -1.40592
  1157 -49.7406 8.53180 26.1389
  1158 -49.9109 8.54993 -26.1948
  1159 -87.7263 2.44977 -13.1670
  1160 -87.5310 2.44336 13.1421
  1161 167.344 26.9859 195.797
  1162 526.215 33.2332 -23.6769
  1163 300.873 18.5639 -35.1487
  1164 300.922 18.5440 35.2979
  1165 887.787 1.85661 184.594
  1166 306.012 18.4764 -50.0351
  1167 306.063 18.4217 50.2914
  1168 84.2186 7.43845 -2.19127
  1169 84.3246 7.42797 2.18637
  1170 28.4870 -78.2605 26.5281
  1171 28.6997 -75.3616 -33.9841
  1172 410.976 -22.5922 -163.307
  1173 416.156 -20.7616 162.981
  1174 166.565 29.6254 -54.3013
  1175 165.863 30.1319 54.6904
  1176 710.888 -43.1981 -40.1507
  1177 -23.8431 -1.21638 43.9683
  1178 -23.9467 -1.21924 -44.0594
  1179 0.541798 -34.9196 -44.5060
  1180 189.879 15.1439 -126.485
  1181 190.246 15.5335 128.325
  1182 -0.444727 -36.1928 9.11734
  1183 -0.381651 -36.2838 -9.23425
  1184 -163.132 1.28837 -3.80106
  1185 -162.893 1.28729 3.79338
  1186 557.021 -1.99356 -2.90848
  1187 557.225 -1.99600 2.91216
  1188 354.162 9.57672 -20.4384
  1189 354.244 9.55523 20.4730
  1190 -10.1803 1.49939 47.2502
  1191 -10.2085 1.71068 -47.3441
  1192 -0.0439322 -142.361 -13.5562
  1193 -140.155 0.271362 6.52755
  1194 -140.346 0.272087 -6.54185
  1195 119.406 10.2119 -92.3015
  1196 118.625 10.9502 94.8577
  1197 658.139 -39.7266 -8.82560
  1198 197.492 19.4527 -114.121
  1199 197.592 19.7894 114.989
  1200 -79.4952 0.456716 10.6930
  1201 -79.5598 0.455956 -10.7108
  1202 2.37452 -119.008 -20.7873
  1203 -13.1826 3.68135 -3.88303
  1204 -13.0204 3.67685 3.87484
  1205 108.340 22.8720 4.44273
  1206 108.203 22.9243 -4.44066
  1207 373.923 -1.20704 -2.50238
  1208 374.007 -1.20764 2.50443
  1209 497.737 -0.261271 11.7494
  1210 497.572 -0.251003 -11.7412
  1211 31.1087 1.43870 20.6559
  1212 30.6617 0.937969 -21.2068
  1213 5.62548 -66.9815 32.3607
  1214 896.772 132.318 10.7240
  1215 -27.4520 -2.04380 17.2688
  1216 -27.4616 -2.05334 -17.2820
  1217 4.54063 -62.7742 -34.3779
  1218 -2.50168 -41.3801 25.1359
  1219 -2.39222 -40.9233 -26.0219
  1220 705.101 -7.91810 9.75216
  1221 0.584070 -162.126 13.7431
  1222 6.50881 -45.2035 -38.4552
  1223 95.1421 0.479949 0.529591
  1224 95.0489 0.480887 -0.530404
  1225 -6.15953 -28.0290 44.7249
  1226 -69.4695 3.80011 -10.6439
  1227 -69.2782 3.79339 10.6236
  1228 1381.81 22.5104 41.1684
  1229 -37.8756 5.25021 38.8122
  1230 -38.0013 5.24531 -38.8962
  1231 350.020 12.3062 -60.3278
  1232 350.230 12.1174 60.6321
  1233 25.0358 -26.0619 -10.7159
  1234 332.073 13.5853 -25.9029
  1235 332.145 13.5562 25.9665
  1236 14.9941 -87.8335 1.42111
  1237 -6.19500 -28.1198 -44.6991
  1238 -44.3285 1.14674 5.73398
  1239 -44.5093 1.14951 -5.74447
  1240 -22.2496 2.93469 -44.4950
  1241 -22.1218 2.94781 44.4082
  1242 713.574 59.1603 43.3724
  1243 402.279 2.77950 -62.7367
  1244 402.664 2.73200 62.8839
  1245 -168.535 0.235380 -1.12921
  1246 -168.276 0.235325 1.12622
  1247 360.776 5.30102 -13.7011
  1248 360.853 5.29570 13.7156
  1249 -170.989 -3.25781 -0.517337
  1250 -171.257 -3.26039 0.517472
  1251 535.660 -37.2913 -71.9903
  1252 -81.1723 1.49511 22.0848
  1253 -81.2922 1.49474 -22.1292
  1254 540.617 -39.3944 71.3422
  1255 367.936 9.99450 -27.0945
  1256 368.035 9.95499 27.1415
  1257 45.3326 -58.5498 -90.8976
  1258 0.869678 -111.004 -26.9732
  1259 -1.82178 -46.2564 41.8177
  1260 1105.38 227.994 -187.598
  1261 -0.188342 -105.227 26.9474
  1262 1162.08 110.812 -82.3928
  1263 -0.816536 -195.575 -12.2826
  1264 67.6708 3.76083 0.127392
  1265 67.7829 3.75606 -0.130423
  1266 -0.464093 -46.3877 9.54186
  1267 -0.365768 -46.6428 -9.52412
  1268 210.772 2.07559 1.22193
  1269 210.792 2.07325 -1.22100
  1270 717.378 -49.7825 37.5261
  1271 24.9080 3.85125 -4.49304
  1272 25.0477 3.84543 4.48486
  1273 4.15706 -205.494 3.15689
  1274 2.66172 -219.957 -3.21195
  1275 659.401 -75.8285 -79.7433
  1276 -1.68335 -58.8574 27.5476
  1277 707.192 50.0138 -57.4655
  1278 -2.03384 -77.5244 26.9458
  1279 1.48639 -207.556 -8.38320
  1280 338.128 6.14333 -15.6193
  1281 338.192 6.13111 15.6422
  1282 -0.293443 -116.766 12.1681
  1283 -0.230684 -95.5286 -27.1860
  1284 1492.48 287.466 241.176
  1285 611.928 -0.352035 1.03022
  1286 611.689 -0.351400 -1.02927
  1287 20.0367 4.81725 34.4868
  1288 19.4656 5.49070 -34.6871
  1289 -5.84946 10.3836 43.3015
  1290 -6.10992 10.3801 -43.4463
  1291 671.209 -11.3076 -37.9520
  1292 616.169 -26.6002 -30.4275
  1293 615.731 -30.0604 30.9490
  1294 102.041 8.60253 1.75283
  1295 101.942 8.61538 -1.75614
  1296 -95.9270 2.51092 -16.4677
  1297 -95.7502 2.50523 16.4315
  1298 685.825 -84.4824 -110.129
  1299 -5.05416 -12.3924 12.7583
  1300 -5.07507 -12.3868 -12.7545
  1301 727.533 -25.7697 61.9722
  1302 -7.22038 -27.8280 33.6308
  1303 -7.13575 -27.9357 -33.4778
  1304 -54.7003 3.38124 7.00310
  1305 -54.8862 3.38684 -7.01718
  1306 117.214 19.0375 -51.9622
  1307 116.090 19.6502 51.8887
  1308 181.189 1.99325 -0.644975
  1309 181.149 1.99588 0.645162
  1310 -64.9738 6.83144 26.2713
  1311 -65.1371 6.84459 -26.3264
  1312 576.420 0.0711858 1.60075
  1313 576.204 0.0716668 -1.59931
  1314 330.551 9.20138 216.661
  1315 476.261 -1.57999 4.19042
  1316 476.110 -1.57815 -4.18638
  1317 327.246 7.50172 -90.8948
  1318 327.202 7.15727 91.5639
  1319 3.43703 -116.967 -12.5190
  1320 131.583 31.8592 -26.4207
  1321 131.013 32.2036 26.5839
  1322 -1.31345 -1.09461 -1.66529
  1323 -1.31993 -1.09473 1.67002
  1324 413.956 9.26629 34.0796
  1325 413.800 9.35307 -34.0225
  1326 212.304 13.7552 8.51654
  1327 212.335 13.7437 -8.49711
  1328 306.965 13.6046 -18.6135
  1329 307.008 13.5941 18.6536
  1330 394.800 -0.814594 -4.24883
  1331 394.898 -0.815446 4.25250
  1332 -12.4204 -5.92927 -14.3707
  1333 -12.4153 -5.92029 14.3748
  1334 -109.513 -0.344229 4.11608
  1335 -109.732 -0.343857 -4.12484
  1336 -20.5850 -9.18170 -34.3181
  1337 -20.5596 -9.13077 34.2719
  1338 -56.4527 0.0343825 1.60017
  1339 -56.6426 0.0340194 -1.60301
  1340 -173.573 1.47026 0.625618
  1341 -173.840 1.47091 -0.626812
  1342 732.964 -78.4401 146.895
  1343 562.414 -1.77193 -53.9116
</Section>

newXOutput 89

<Section columns = "stress_xx | stress_yy | stress_xy">
  1 635.532 -1.41140 0.715254
  2 635.785 -1.41264 -0.715630
  3 -190.033 0.770302 -2.65614
  4 0.298951 0.0585337 0.540796
  5 1121.31 385.138 387.592
  6 1269.09 430.160 -374.947
  7 0.297326 0.0570990 -0.538632
  8 -189.749 0.770203 2.65430
  9 633.767 -1.36535 -2.12675
  10 634.394 -2.33819 -3.37542
  11 640.292 -2.36942 -0.987719
  12 641.161 -2.39542 -4.09829
  13 643.220 -2.39893 -1.44250
  14 656.329 -2.16814 -1.93041
  15 661.220 -2.95629 -5.51643
  16 666.836 -1.65348 -3.88812
  17 670.794 -0.535413 -7.47745
  18 697.305 -4.41029 -6.39225
  19 709.497 -3.63225 -8.09574
  20 723.429 -5.12198 -3.75869
  21 730.978 -6.48703 -2.77566
  22 729.294 -7.16252 7.52766
  23 709.508 -7.69341 16.8268
  24 661.429 -7.75875 37.2880
  25 580.324 5.75140 43.7976
  26 515.890 7.53081 39.8609
  27 423.868 12.6578 24.0393
  28 447.990 12.2789 3.09357
  29 386.674 35.0426 -14.7879
  30 494.729 16.7837 -44.7291
  31 551.529 4.91856 -36.2982
  32 650.390 -1.19313 -31.5855
  33 703.410 -9.32250 -20.4303
  34 728.791 -8.31564 -7.41957
  35 730.081 -6.31726 2.85583
  36 722.860 -5.06613 3.60440
  37 709.388 -3.65002 7.90917
  38 697.397 -4.45558 6.29229
  39 671.014 -0.559924 7.43727
  40 667.094 -1.66274 3.87601
  41 661.494 -2.96291 5.51618
  42 656.603 -2.17187 1.93112
  43 643.485 -2.40191 1.44436
  44 641.423 -2.39797 4.10245
  45 640.552 -2.37147 0.989397
  46 634.648 -2.34011 3.37842
  47 634.020 -1.36660 2.12862
  48 601.543 0.585344 -0.843669
  49 559.426 -1.03338 -1.78326
  50 506.407 -3.99846 -1.66200
  51 451.027 -1.10441 -1.38154
  52 402.078 -1.79379 -1.07647
  53 349.333 -0.162092 -1.25506
  54 296.902 2.65104 -0.658751
  55 242.089 2.12804 -1.55105
  56 196.365 0.852607 -2.24422
  57 136.006 -0.161870 -2.36410
  58 74.3978 1.47360 -1.82300
  59 22.7847 1.30550 -1.76431
  60 -41.8754 0.523218 -1.57111
  61 -89.9706 -1.32925 -4.15504
  62 -136.612 -3.54471 -1.86179
  63 -184.098 0.252402 1.38721
  64 -194.624 3.32564 -0.339481
  65 -195.641 1.39773 0.789957
  66 -189.278 0.617299 -0.00596228
  67 -192.205 2.09883 -2.16721
  68 -189.584 2.59369 0.138890
  69 -179.715 0.723244 -3.41325
  70 -182.911 1.61549 -3.72318
  71 -178.864 1.50839 -1.92894
  72 -165.973 0.893730 -3.07315
  73 -160.783 1.74439 -5.32522
  74 -151.434 1.99315 -4.26157
  75 -134.521 1.00176 -7.77222
  76 -125.144 0.316173 -6.47969
  77 -107.758 0.449999 -7.58821
  78 -92.9175 0.403798 -8.52136
  79 -79.7709 0.157158 -6.73128
  80 -61.2734 0.418512 -6.81296
  81 -45.2346 -0.127809 -7.33853
  82 -29.6916 -0.768858 -6.51627
  83 -17.3036 -0.679962 -5.03610
  84 -8.59247 -1.22496 -4.24088
  85 -1.57345 -0.710990 -1.55544
  86 -0.00252851 -0.812998 -0.583590
  87 -0.433988 -0.504598 -0.156662
  88 -1.11637 -1.32186 -1.36881
  89 -1.08757 -7.29363 -3.69477
  90 -0.907161 -16.1695 -5.20258
  91 -0.453440 -27.3123 -7.54702
  92 -0.217482 -41.8222 -6.49474
  93 -0.137062 -55.0173 -8.15907
  94 -0.972284 -70.9208 -9.14556
  95 -0.401081 -90.6889 -9.16090
  96 0.181595 -110.575 -8.72986
  97 0.424028 -131.789 -8.57408
  98 0.676994 -153.455 -8.36482
  99 -0.0341271 -168.845 -11.2639
  100 1.06277 -191.255 -10.0274
  101 1.36309 -217.299 -7.72813
  102 -0.282394 -227.437 -10.2136
  103 1.93465 -244.959 -9.24740
  104 4.98665 -267.966 -3.10847
  105 9.84793 -270.940 -4.99390
  106 7.63023 -237.048 11.9672
  107 12.3391 -160.662 38.4732
  108 51.4172 -53.8313 98.3632
  109 152.021 314.492 291.731
  110 1710.84 99.0771 175.005
  111 1478.31 27.1261 62.6923
  112 1430.99 8.65386 14.9287
  113 1420.22 1.57805 -2.22976
  114 1430.43 14.0955 -32.9260
  115 1478.56 50.0155 -75.3352
  116 1669.98 193.082 -222.993
  117 372.750 248.819 -354.140
  118 88.7446 -54.8835 -115.610
  119 26.6763 -176.627 -46.1363
  120 7.70070 -223.447 -12.3947
  121 8.06895 -259.938 1.23410
  122 2.21086 -256.918 1.82336
  123 0.672239 -238.759 7.49343
  124 0.802366 -226.090 5.85114
  125 1.20593 -204.945 11.1556
  126 -0.0508489 -193.215 11.1161
  127 0.473507 -175.006 7.94916
  128 0.975499 -151.707 10.3433
  129 0.220748 -134.967 8.18251
  130 0.273020 -110.611 10.3618
  131 -1.10620 -91.8145 8.93926
  132 -0.739659 -70.9716 8.84886
  133 -0.0840992 -54.6959 8.17529
  134 -0.290259 -41.5743 6.50076
  135 -0.439847 -27.2315 7.47112
  136 -0.893150 -16.1594 5.17634
  137 -1.08166 -7.30486 3.69224
  138 -1.11471 -1.33441 1.37163
  139 -0.433882 -0.509898 0.160266
  140 -0.00903981 -0.813677 0.586752
  141 -1.58540 -0.710421 1.55927
  142 -8.60930 -1.22348 4.24418
  143 -17.3250 -0.677606 5.03659
  144 -29.7061 -0.765974 6.51262
  145 -45.2330 -0.125426 7.32970
  146 -61.2529 0.418983 6.80276
  147 -79.7243 0.158501 6.72042
  148 -92.8466 0.405534 8.50837
  149 -107.654 0.450131 7.57405
  150 -125.008 0.316310 6.46586
  151 -134.363 1.00118 7.75796
  152 -151.243 1.99184 4.24988
  153 -160.574 1.74287 5.31506
  154 -165.744 0.892714 3.06607
  155 -178.616 1.50720 1.92390
  156 -182.654 1.61458 3.71767
  157 -179.453 0.723040 3.40847
  158 -189.310 2.59216 -0.140855
  159 -191.926 2.09763 2.16439
  160 -188.998 0.617213 0.00503222
  161 -195.355 1.39707 -0.789981
  162 -194.338 3.32376 0.338831
  163 -183.818 0.252656 -1.38666
  164 -136.364 -3.54172 1.86031
  165 -89.7553 -1.32761 4.15217
  166 -41.6918 0.523400 1.56964
  167 22.9263 1.30472 1.76284
  168 74.5064 1.47216 1.82157
  169 136.075 -0.162677 2.36236
  170 196.396 0.850969 2.24274
  171 242.091 2.12568 1.55010
  172 296.869 2.64850 0.658456
  173 349.266 -0.162490 1.25442
  174 401.977 -1.79284 1.07597
  175 450.893 -1.10362 1.38089
  176 506.237 -3.99539 1.66132
  177 559.221 -1.03220 1.78231
  178 601.311 0.585378 0.843221
  179 180.417 28.6432 -13.7986
  180 180.285 28.7186 13.8715
  181 0.211226 6.92909 44.5037
  182 0.0118046 6.85965 -44.5491
  183 398.227 -4.72161 -95.6814
  184 397.824 -5.42938 96.5744
  185 84.2697 23.0264 -12.9520
  186 83.2967 23.3216 12.9428
  187 66.7476 8.09163 -4.25346
  188 66.8689 8.07813 4.24512
  189 373.447 3.86140 -15.3706
  190 373.532 3.85080 15.3892
  191 0.956957 14.3075 22.2269
  192 0.782601 14.3429 -22.2747
  193 433.162 8.04223 -36.9335
  194 433.356 7.93427 37.0036
  195 -15.9430 -13.6721 37.7573
  196 -15.9453 -13.7598 -37.8169
  197 5.33069 -30.4558 -42.1744
  198 141.751 17.3447 -92.9467
  199 6.22026 -32.7517 40.9910
  200 139.593 18.3438 94.1395
  201 609.603 -74.0219 -137.003
  202 629.329 -76.8726 132.100
  203 226.915 4.30987 -4.15464
  204 226.901 4.31340 4.15914
  205 -23.8814 1.22853 -3.71030
  206 -23.7099 1.22686 3.70375
  207 -44.2116 7.62741 34.5693
  208 -44.3629 7.63856 -34.6488
  209 228.404 17.4359 -10.7691
  210 228.379 17.4506 10.7971
  211 74.0414 29.5710 10.7400
  212 73.7490 29.7368 -10.8382
  213 -53.6646 5.92246 -12.7743
  214 -53.4791 5.91102 12.7487
  215 488.131 -1.79692 6.90900
  216 487.973 -1.79298 -6.90253
  217 17.7567 -56.3230 12.9750
  218 19.2688 -50.1494 -10.4571
  219 -4.02859 -39.0959 42.0534
  220 -4.17588 -40.7890 -40.7941
  221 212.606 29.6168 -43.6456
  222 212.368 29.7739 43.9609
  223 -41.8888 0.302227 36.1811
  224 -41.9745 0.293217 -36.2457
  225 522.035 0.518236 -19.3962
  226 522.221 0.487015 19.4007
  227 564.675 -10.2626 -39.0295
  228 565.143 -10.7720 38.9724
  229 909.501 65.6616 2.21681
  230 835.298 97.4394 29.8719
  231 814.116 4.35542 -53.6243
  232 109.268 20.7102 4.19309
  233 109.143 20.7530 -4.19371
  234 12.8602 18.8687 32.3529
  235 12.6594 18.9215 -32.4318
  236 631.111 -37.8560 -30.4218
  237 627.589 -38.2733 32.5473
  238 353.400 -0.126365 -5.93835
  239 353.470 -0.127669 5.94416
  240 -71.8971 5.26626 22.4588
  241 -72.0711 5.27816 -22.5068
  242 -10.5223 -10.3253 -17.3771
  243 -10.5099 -10.3153 17.3839
  244 -75.9142 1.24568 5.97679
  245 -76.1159 1.24860 -5.98864
  246 295.239 18.6721 -27.2783
  247 295.270 18.6597 27.3621
  248 372.819 9.00569 -55.9195
  249 373.047 8.87261 56.1391
  250 98.7094 3.45059 1.03492
  251 98.8039 3.44668 -1.03619
  252 219.712 20.0552 -189.094
  253 258.068 24.7989 203.972
  254 33.1735 16.0307 29.2016
  255 33.0415 16.3220 -29.3745
  256 847.847 -48.9504 -34.8323
  257 83.0396 27.7064 9.45353
  258 82.8594 27.7827 -9.47157
  259 216.715 25.2210 -75.7910
  260 216.265 25.7513 76.4287
  261 954.846 143.939 12.8640
  262 566.016 -1.93427 26.2087
  263 565.758 -1.79400 -26.2397
  264 -4.93842 -31.1878 -26.8872
  265 -4.77199 -31.3044 26.9871
  266 -0.828202 -72.7495 -35.9352
  267 3.13726 -82.4841 -31.2428
  268 1.79822 -83.6072 33.5112
  269 -12.6406 -10.7521 47.4535
  270 -12.7068 -10.7478 -47.6751
  271 33.4366 -55.8864 -22.0304
  272 36.1024 -50.2225 27.7571
  273 -32.2729 -2.56431 23.5547
  274 -32.2997 -2.57740 -23.5819
  275 408.789 8.04589 -23.5876
  276 408.914 8.00935 23.6181
  277 707.576 -68.0030 -16.7283
  278 166.334 10.7850 3.02350
  279 166.393 10.7725 -3.01848
  280 -1.58733 -68.4463 34.4705
  281 24.0382 13.3998 12.8888
  282 23.8815 13.4281 -12.9144
  283 1109.69 74.8149 -37.0337
  284 546.378 -1.61170 8.28457
  285 546.182 -1.60460 -8.27849
  286 379.447 -13.3861 -141.782
  287 382.396 -13.1276 143.628
  288 706.792 -64.6934 5.43459
  289 -64.5297 2.21408 28.3010
  290 -64.6386 2.21256 -28.3562
  291 686.859 -36.8061 226.548
  292 -26.6540 5.83569 42.2702
  293 -26.7858 5.82144 -42.3650
  294 125.681 34.1569 -17.7461
  295 125.186 34.4596 17.8375
  296 -110.987 0.398871 0.900083
  297 -111.216 0.398397 -0.902195
  298 581.020 35.8962 -303.877
  299 -108.190 2.01880 -11.7110
  300 -107.988 2.01394 11.6861
  301 -1.34288 -11.7957 47.1630
  302 0.540183 -11.2962 -46.4494
  303 266.362 24.5830 -38.8753
  304 266.333 24.6065 39.0642
  305 66.6732 4.70495 3.24265
  306 66.5563 4.71173 -3.24875
  307 275.145 7.10107 -9.29619
  308 275.162 7.10311 9.30831
  309 28.4969 -12.7471 19.3883
  310 26.0203 -16.3965 -19.8602
  311 267.149 1.43973 -2.64370
  312 267.162 1.44134 2.64611
  313 -90.8918 2.41246 20.3977
  314 -91.0372 2.41549 -20.4407
  315 70.5976 2.19617 -26.1125
  316 68.6566 2.07092 24.2953
  317 567.372 -2.09778 2.33384
  318 567.162 -2.09562 -2.33093
  319 1222.46 67.8614 54.0562
  320 139.966 15.1268 -0.762733
  321 139.881 15.1496 0.768275
  322 -17.6303 5.16102 7.91887
  323 -17.7990 5.17107 -7.93560
  324 188.639 22.0648 -10.0854
  325 188.565 22.0989 10.1264
  326 26.3546 20.3252 33.0443
  327 26.1899 20.3589 -33.1687
  328 3.00833 -120.619 22.3246
  329 -116.087 -0.285167 -2.31061
  330 -115.856 -0.284632 2.30598
  331 439.644 -1.72223 -4.55608
  332 439.770 -1.72411 4.56033
  333 462.632 0.233333 -12.0683
  334 462.774 0.223181 12.0783
  335 -109.724 1.52082 -8.12085
  336 -109.508 1.51770 8.10541
  337 9.34711 0.721725 0.443918
  338 9.19669 0.722292 -0.445923
  339 -2.49888 -51.5667 26.6732
  340 -1.96788 -53.6437 -26.6317
  341 526.307 -41.0590 -97.1352
  342 545.505 -49.2385 95.5592
  343 316.428 11.7744 -17.2191
  344 316.475 11.7669 17.2487
  345 145.360 32.0183 -12.5509
  346 145.095 32.1729 12.6227
  347 -40.2106 8.62894 18.7251
  348 -40.3885 8.64864 -18.7654
  349 952.493 42.4123 48.0376
  350 55.7246 -53.2429 -70.2311
  351 59.5907 -47.2399 72.8533
  352 -14.4750 14.9169 31.1397
  353 -14.6541 14.9503 -31.2123
  354 -25.1961 -4.49481 42.3984
  355 -25.2749 -4.51243 -42.4881
  356 1082.95 194.199 -72.5355
  357 714.837 -3.87481 74.3234
  358 654.630 -16.6937 -19.2340
  359 654.316 -16.3025 18.3706
  360 467.486 -7.01862 -62.3245
  361 466.897 -7.39915 62.3895
  362 0.969208 -145.342 -17.5068
  363 596.007 -0.334822 -14.4952
  364 596.229 -0.372597 14.4776
  365 8.42370 -133.977 11.4796
  366 719.630 57.5240 -35.0273
  367 180.368 2.97569 1.10851
  368 180.326 2.97884 -1.10952
  369 468.765 0.791247 -46.2019
  370 469.044 0.618504 46.2971
  371 500.379 1.19181 -27.5471
  372 500.573 1.11428 27.5558
  373 1.33670 4.13488 4.80159
  374 1.17978 4.14138 -4.81179
  375 297.190 16.4145 -75.9724
  376 297.186 16.6181 76.5314
  377 584.132 -1.78007 3.79434
  378 583.911 -1.77739 -3.78996
  379 343.979 15.6757 -39.2870
  380 344.080 15.6124 39.4184
  381 391.597 2.72853 10.2930
  382 391.502 2.73181 -10.2830
  383 -18.4956 -3.23310 14.7322
  384 -18.4981 -3.24253 -14.7355
  385 -4.46400 -3.15416 -4.41612
  386 -4.46566 -3.15513 4.42254
  387 783.653 -85.4105 70.9402
  388 -9.67190 -23.7083 39.2233
  389 -9.59833 -23.9309 -39.2403
  390 138.988 5.79052 0.173097
  391 139.060 5.78318 -0.173651
  392 -3.84597 -19.6565 14.8220
  393 -3.89203 -19.6299 -14.8265
  394 58.2925 21.4911 13.2950
  395 58.1310 21.5415 -13.3201
  396 640.081 -4.43877 19.4171
  397 639.763 -4.23637 -19.6502
  398 -0.562816 -35.3475 45.6680
  399 -52.2331 -0.806500 22.0632
  400 -52.2841 -0.812114 -22.0972
  401 -0.765331 -37.5006 -45.1626
  402 598.438 -1.33420 9.26317
  403 598.209 -1.32297 -9.26254
  404 -1.06564 14.6367 39.9078
  405 -1.29347 14.6710 -40.0186
  406 450.115 3.47829 -18.8946
  407 450.254 3.45557 18.9093
  408 688.453 -29.0455 -8.70081
  409 689.621 -23.8176 5.94013
  410 -1.23176 -69.9444 -29.0277
  411 68.2964 26.3930 -4.85153
  412 68.8391 26.1560 4.74264
  413 711.250 45.6004 21.2360
  414 398.702 -11.6717 -193.454
  415 408.413 -18.6991 201.684
  416 30.6664 21.1354 23.3293
  417 30.4815 21.1906 -23.3819
  418 294.628 4.49590 -6.36689
  419 294.659 4.49778 6.37371
  420 286.159 79.1554 304.097
  421 125.091 25.8374 -0.650304
  422 125.235 25.7728 0.663248
  423 8.44903 -60.9533 27.7809
  424 -0.814041 -112.970 -24.6400
  425 53.1096 26.6620 20.2859
  426 52.9017 26.7407 -20.3502
  427 66.4761 13.4635 -7.10826
  428 66.6070 13.4392 7.09637
  429 -17.0541 0.371864 -46.8046
  430 -16.9232 0.343234 46.7071
  431 147.410 30.2333 -36.5751
  432 146.777 30.6335 36.8186
  433 698.315 -19.8343 -57.1559
  434 22.9288 -2.43987 32.0876
  435 22.2541 -2.32920 -32.3554
  436 509.438 -22.3152 -68.7820
  437 511.346 -23.7288 68.7617
  438 -120.765 0.833741 -11.9205
  439 -120.577 0.830777 11.8947
  440 -0.0107910 -111.664 22.3732
  441 -0.736706 -71.2679 25.9108
  442 -48.4587 3.64076 36.0976
  443 -48.5714 3.63598 -36.1699
  444 365.452 -0.310367 -2.32356
  445 365.530 -0.310552 2.32594
  446 -10.5255 -16.6606 27.0745
  447 -10.5484 -16.7042 -27.0538
  448 235.570 17.3408 -109.240
  449 235.038 18.2781 110.237
  450 1.98219 -132.133 -23.2224
  451 1219.47 39.0596 0.126075
  452 3.82743 -151.102 -10.2976
  453 -138.655 -0.471698 -3.79729
  454 -138.414 -0.471548 3.79058
  455 -51.6540 8.02679 28.1171
  456 -51.8219 8.04334 -28.1807
  457 -65.3454 1.00550 21.9795
  458 -65.4204 1.00437 -22.0163
  459 255.771 23.1876 -27.9284
  460 255.746 23.2155 28.0420
  461 378.903 11.4839 -30.3146
  462 379.022 11.4290 30.3791
  463 -5.01738 -20.9670 47.4779
  464 -5.02498 -20.8260 -47.6829
  465 665.426 16.2362 -71.6824
  466 48.8894 -3.63345 1.56044
  467 47.1634 -4.06513 -0.657075
  468 11.4483 -129.756 -8.77887
  469 7.64265 -153.233 3.35308
  470 -19.2680 -8.43603 27.8092
  471 -19.2833 -8.46955 -27.8281
  472 145.115 19.1308 -166.309
  473 970.130 31.9978 -120.498
  474 233.319 11.3409 9.83257
  475 233.334 11.3328 -9.81537
  476 336.174 5.45141 -103.499
  477 336.753 5.36112 104.829
  478 104.366 33.4340 2.92855
  479 104.148 33.5517 -2.93654
  480 304.249 20.9194 -57.0497
  481 304.301 20.8523 57.3854
  482 14.5137 8.59717 39.9325
  483 15.1901 8.93701 -39.8801
  484 -124.142 1.58489 -8.26238
  485 -123.923 1.58232 8.24573
  486 649.547 -71.7309 -59.8875
  487 511.133 -2.15326 -3.12272
  488 511.306 -2.15529 3.12586
  489 38.8715 1.75041 -1.43724
  490 39.0037 1.74779 1.43311
  491 -26.3218 11.6162 25.2274
  492 -26.4980 11.6437 -25.2828
  493 -65.2249 3.74006 -8.20310
  494 -65.0314 3.73350 8.18614
  495 233.639 19.0287 -14.6477
  496 233.614 19.0443 14.6911
  497 -22.1162 10.7855 37.1577
  498 -22.2869 10.8064 -37.2513
  499 593.850 -18.3050 -37.4130
  500 594.886 -19.0670 37.1100
  501 397.681 3.00913 -69.4672
  502 397.023 2.80892 70.0015
  503 155.077 3.93104 0.359037
  504 155.136 3.92665 -0.359478
  505 2.24062 -66.2250 -38.0343
  506 699.871 -22.8169 46.4529
  507 11.2793 -40.3609 -31.9818
  508 207.622 31.0244 29.9235
  509 207.791 30.9126 -29.7469
  510 642.563 -67.0950 59.4119
  511 53.7328 -34.7883 92.5390
  512 758.499 -82.8564 -113.022
  513 521.048 -0.650163 33.2974
  514 520.788 -0.489297 -33.2806
  515 2.27120 -56.2094 39.6081
  516 -10.2669 -3.00905 -7.98114
  517 -10.2701 -3.00677 7.98572
  518 74.9771 1.15387 -0.149612
  519 75.0856 1.15242 0.148356
  520 -1.70017 -40.2858 17.3037
  521 -1.54228 -40.1052 -17.3996
  522 429.982 1.13518 7.82789
  523 429.862 1.13704 -7.82078
  524 1180.63 225.005 110.385
  525 54.7380 -19.4433 -26.0114
  526 42.9477 -30.1502 17.0704
  527 -2.55178 8.01512 -10.9343
  528 -2.38820 7.99816 10.9119
  529 -102.092 1.59201 12.9744
  530 -102.214 1.59370 -12.9994
  531 1.12339 -124.697 23.6275
  532 -134.545 0.819149 0.734423
  533 -134.790 0.819057 -0.736744
  534 140.892 8.09261 -124.955
  535 138.047 9.94063 129.234
  536 129.888 26.8915 -48.9210
  537 128.945 27.3955 49.1231
  538 -26.9264 -5.24091 37.4455
  539 -26.9796 -5.26802 -37.5113
  540 129.846 8.23390 -0.577776
  541 129.765 8.24471 0.577528
  542 -50.2184 1.81019 2.81475
  543 -50.4061 1.81233 -2.82220
  544 150.779 18.3683 -2.47951
  545 150.690 18.4005 2.49347
  546 -2.79453 -9.30602 6.85018
  547 -2.80467 -9.29921 -6.84932
  548 57.3587 24.8853 16.3692
  549 56.9906 25.1921 -16.5262
  550 46.3280 11.6257 13.1050
  551 45.7173 11.5820 -13.5081
  552 523.425 1.07811 13.9175
  553 523.243 1.09055 -13.9097
  554 467.270 3.02450 22.7721
  555 467.112 3.06581 -22.7570
  556 -0.467620 -108.302 -15.6804
  557 333.610 13.0317 -24.1770
  558 333.676 13.0117 24.2267
  559 333.272 4.07978 -9.83474
  560 333.328 4.07742 9.84650
  561 -32.2214 0.325540 0.421849
  562 -32.0443 0.325786 -0.422661
  563 598.099 29.9534 -13.7701
  564 729.679 -83.9658 -48.8761
  565 627.947 31.1079 52.9683
  566 5.80100 -86.1354 -25.7397
  567 -23.4496 9.36547 -15.5393
  568 -23.2759 9.34583 15.5077
  569 6.42204 -48.8890 36.1336
  570 -30.0426 1.66520 41.9863
  571 -30.1481 1.65552 -42.0665
  572 937.473 89.7621 12.4481
  573 222.172 6.67076 -5.46652
  574 222.154 6.67594 5.47339
  575 1363.09 119.425 -128.099
  576 -4.36517 -3.21173 47.9115
  577 -3.82082 -2.82305 -47.9188
  578 770.749 -59.7618 15.0153
  579 615.526 -1.08542 -15.9798
  580 615.757 -1.15185 15.9332
  581 296.705 6.87971 -148.302
  582 299.902 5.89707 150.247
  583 -14.8241 -14.0879 43.1241
  584 -14.8437 -14.1696 -43.2546
  585 159.707 20.5690 84.3070
  586 160.997 19.5130 -83.7834
  587 -118.080 1.29897 -11.8563
  588 -117.910 1.29681 11.8312
  589 907.221 93.4531 26.8021
  590 183.864 13.2138 4.89684
  591 183.915 13.1988 -4.88608
  592 215.644 27.2386 -59.2536
  593 215.305 27.5484 59.7301
  594 562.479 -3.68005 -32.2541
  595 562.819 -3.91594 32.2434
  596 -2.09237 -54.6906 -38.5025
  597 602.831 -1.84152 4.86984
  598 602.596 -1.83814 -4.86538
  599 -77.0464 0.874190 -0.787501
  600 -76.8406 0.873930 0.784055
  601 -144.666 -1.45148 -0.128742
  602 -144.918 -1.45311 0.128206
  603 14.8100 -74.8850 -7.07198
  604 -5.38228 -36.0807 33.6716
  605 -5.67658 -34.0560 -33.8912
  606 -66.0077 4.36982 29.7669
  607 -66.1411 4.37416 -29.8289
  608 432.508 7.15061 29.1515
  609 432.356 7.21343 -29.1160
  610 321.589 0.580793 2.23390
  611 321.540 0.579884 -2.23199
  612 77.7573 -6.70767 57.7625
  613 79.9304 -5.14520 -57.3272
  614 -2.13269 -28.1830 14.6915
  615 -2.20417 -28.0995 -14.7447
  616 720.375 86.5949 325.955
  617 -36.2852 -1.03386 13.5173
  618 -36.2946 -1.03932 -13.5312
  619 15.0572 -44.4807 -23.8787
  620 315.792 8.71801 -13.3567
  621 315.836 8.71506 13.3759
  622 160.950 32.7296 -24.9385
  623 160.612 32.9361 25.1005
  624 1.50760 -182.620 6.85259
  625 122.940 30.5508 -0.929921
  626 122.769 30.6403 0.945626
  627 -3.67537 12.0323 18.8198
  628 -3.84581 12.0600 -18.8584
  629 -0.854357 -94.8852 21.3589
  630 -147.165 -0.137389 -3.87781
  631 -146.921 -0.137538 3.87067
  632 212.503 2.19762 2.42897
  633 212.525 2.19500 -2.42695
  634 510.101 -1.13480 9.45077
  635 509.929 -1.12865 -9.44291
  636 457.839 -16.3371 250.117
  637 369.694 5.57239 -18.7380
  638 369.781 5.55527 18.7633
  639 8.80873 -4.17415 42.7900
  640 10.3318 -1.06044 -42.5087
  641 583.744 -44.6777 -204.358
  642 1320.55 43.8210 -53.1269
  643 -138.543 -0.0365726 -7.97427
  644 -138.336 -0.0378246 7.95803
  645 45.6771 5.87022 -3.94773
  646 45.8082 5.86104 3.93939
  647 -2.45238 -58.7238 34.3337
  648 795.002 55.7589 -59.3765
  649 595.579 -2.09619 0.919151
  650 595.351 -2.09424 -0.917819
  651 -37.9066 -1.79304 -30.9459
  652 -37.8533 -1.78154 30.8980
  653 -0.139182 -133.678 -19.9813
  654 605.465 -1.94646 1.89149
  655 605.229 -1.94456 -1.88889
  656 66.2487 18.0867 10.7670
  657 66.1036 18.1248 -10.7841
  658 477.516 -36.4503 -136.342
  659 485.349 -36.1976 137.630
  660 678.543 -5.38561 11.6297
  661 678.437 -5.35359 -11.9839
  662 3.10940 -165.527 14.2782
  663 -25.5368 -0.0717362 -1.53522
  664 -25.3641 -0.0717083 1.53147
  665 228.933 65.1102 -241.628
  666 220.502 1.57360 2.24166
  667 220.518 1.57148 -2.24019
  668 114.917 5.18567 -1.08213
  669 114.831 5.19197 1.08099
  670 134.124 11.0666 1.91469
  671 134.206 11.0510 -1.91188
  672 408.184 8.54619 -45.1719
  673 408.390 8.41943 45.2953
  674 115.185 32.2642 -7.12797
  675 114.828 32.4841 7.13826
  676 -64.6615 4.82418 -15.3529
  677 -64.4745 4.81211 15.3212
  678 -77.7195 5.45609 -18.0778
  679 -77.5353 5.44471 18.0390
  680 700.610 -11.1853 0.782704
  681 2.37558 -24.9576 -44.9942
  682 701.011 -11.7266 -1.55420
  683 905.707 68.6057 -8.61845
  684 -86.8916 0.451101 14.8804
  685 -86.9865 0.450116 -14.9081
  686 100.419 30.2188 -14.6317
  687 99.7174 30.5334 14.6586
  688 -157.488 -0.157595 -1.09315
  689 -157.232 -0.157249 1.09004
  690 3.08014 -22.0811 44.8774
  691 -53.2335 1.03190 32.0003
  692 -53.3283 1.02659 -32.0590
  693 772.133 -55.3481 -17.7342
  694 133.278 0.480711 -1.52037
  695 133.206 0.482042 1.52071
  696 38.4910 9.73350 7.65749
  697 38.3500 9.75093 -7.67149
  698 418.666 -16.2709 -115.228
  699 421.446 -16.9276 117.189
  700 1375.29 100.055 115.244
  701 30.3531 -100.687 -57.8053
  702 -9.17178 -19.9410 45.7789
  703 -9.16914 -20.0345 -45.9038
  704 96.4667 17.3315 -3.76951
  705 96.5853 17.3003 3.76557
  706 622.541 -1.74449 -4.90758
  707 622.790 -1.74851 4.91054
  708 308.273 1.68008 4.58435
  709 308.233 1.67948 -4.57961
  710 31.5133 23.1229 28.7987
  711 31.3154 23.1875 -28.8828
  712 26.9425 3.93950 2.71622
  713 26.8023 3.94443 -2.72250
  714 -14.5650 5.62960 45.2097
  715 -14.7105 5.61313 -45.3267
  716 516.585 -2.76875 4.08868
  717 516.409 -2.76562 -4.08423
  718 451.180 0.832766 10.9571
  719 451.047 0.838052 -10.9476
  720 66.3264 -22.5625 67.6357
  721 67.9711 -25.4129 -65.7299
  722 -31.0014 8.12547 39.3717
  723 -31.1509 8.12882 -39.4655
  724 21.3393 -34.9955 16.7128
  725 6.07801 15.0977 39.8368
  726 5.84085 15.1235 -39.9222
  727 -91.1249 2.33061 -9.90646
  728 -90.9212 2.32545 9.88551
  729 87.9939 24.3091 8.60823
  730 87.8329 24.3696 -8.61818
  731 699.296 -20.0784 -30.6036
  732 661.384 -55.4432 -25.2658
  733 -10.2306 -21.0477 33.2169
  734 -10.2224 -21.1563 -33.1838
  735 266.746 11.1146 -174.618
  736 260.296 16.2932 175.821
  737 165.963 31.4739 -34.4099
  738 165.521 31.7683 34.6594
  739 16.1156 -19.8436 33.2773
  740 -0.867309 -70.9315 -18.8297
  741 335.313 15.6561 -43.9470
  742 335.423 15.5978 44.1330
  743 0.768932 -137.972 17.0595
  744 204.556 24.7811 -16.4080
  745 204.479 24.8233 16.4761
  746 655.884 -1.69482 -12.0363
  747 656.090 -1.76447 11.9285
  748 14.2844 -168.752 10.7263
  749 309.282 19.6866 34.1349
  750 309.231 19.7080 -34.0180
  751 88.9389 31.0966 -0.0855325
  752 89.3931 30.8123 0.00994375
  753 -117.431 0.764906 -10.1554
  754 -117.284 0.764217 10.1338
  755 339.116 2.27932 -8.31402
  756 339.176 2.27824 8.32248
  757 215.784 28.2274 -25.7334
  758 215.673 28.2966 25.8636
  759 8.14353 18.0980 29.6837
  760 7.95518 18.1461 -29.7527
  761 663.254 -47.6706 16.9558
  762 -93.1510 1.60463 7.38819
  763 -93.3615 1.60740 -7.40140
  764 1373.37 297.729 -210.894
  765 -28.3612 2.81041 7.10013
  766 -28.5353 2.81608 -7.11359
  767 560.526 -0.798207 22.7288
  768 560.305 -0.721036 -22.7483
  769 1040.62 60.9365 -1.76817
  770 628.053 -2.80991 -9.06789
  771 628.298 -2.82316 9.06322
  772 411.149 2.59172 14.0910
  773 411.040 2.60008 -14.0777
  774 611.165 -57.2000 186.726
  775 273.924 16.2460 -15.1110
  776 273.937 16.2496 15.1465
  777 6.89124 -96.8719 16.9025
  778 699.041 -80.0068 69.5899
  779 426.486 -2.03085 2.33089
  780 426.369 -2.02947 -2.32881
  781 550.544 -1.67942 1.22648
  782 550.345 -1.67775 -1.22498
  783 -2.27497 -54.9924 -32.2626
  784 3.88996 -90.0657 28.7013
  785 261.497 27.1623 47.4053
  786 261.559 27.1156 -47.1223
  787 1352.66 10.7409 12.9994
  788 438.849 1.46295 -55.4445
  789 439.105 1.31268 55.5999
  790 -84.7944 2.81395 21.8393
  791 -84.9588 2.82079 -21.8847
  792 20.6370 -65.9834 -0.878589
  793 13.0943 -155.177 -19.5450
  794 982.953 130.449 -32.6248
  795 -0.809236 -70.8178 17.0178
  796 24.9997 16.7446 34.2360
  797 24.9134 16.7252 -34.4620
  798 141.929 24.2700 -2.20164
  799 141.815 24.3213 2.22035
  800 656.214 -30.6377 -15.5253
  801 658.018 -30.1093 13.7904
  802 754.019 160.900 -309.563
  803 -95.2168 0.454441 -2.78044
  804 -95.0018 0.453649 2.77332
  805 -49.6707 -0.141418 12.6490
  806 -49.6940 -0.143891 -12.6659
  807 52.9685 9.63778 3.55833
  808 51.8932 9.60507 -3.71238
  809 502.740 -4.97865 49.6212
  810 502.403 -4.63355 -49.4576
  811 262.364 3.36700 -3.53201
  812 262.374 3.36942 3.53598
  813 804.423 -0.0715477 52.9321
  814 95.3896 11.4782 -3.55005
  815 95.4992 11.4594 3.54508
  816 85.8988 17.1196 -23.3746
  817 85.1621 17.4598 23.5189
  818 0.546115 -52.1293 -41.7857
  819 1106.38 208.278 184.407
  820 -156.259 0.0166782 -3.96972
  821 -156.015 0.0166155 3.96176
  822 -0.211728 -166.238 15.4468
  823 14.4873 -19.7232 -33.8708
  824 -24.9537 -1.46161 9.55339
  825 -24.9477 -1.46584 -9.55845
  826 902.578 69.1339 -26.1230
  827 246.256 20.8290 -19.1516
  828 246.233 20.8472 19.2192
  829 620.887 -10.9193 -25.2320
  830 621.531 -10.9752 24.9924
  831 -150.574 0.977198 5.53341
  832 -150.801 0.978890 -5.54487
  833 -1.17051 -1.20584 -1.03071
  834 -1.17287 -1.20792 1.03476
  835 0.410576 -169.759 -14.8507
  836 0.785208 -175.235 -12.2623
  837 -161.277 1.36139 0.642441
  838 -161.541 1.36178 -0.643698
  839 102.306 -4.38774 -120.923
  840 390.030 1.29739 -4.52666
  841 390.123 1.29733 4.53108
  842 -0.231940 1.53244 0.859964
  843 -0.388454 1.53321 -0.861258
  844 568.986 -0.520346 -14.9087
  845 569.196 -0.545347 14.9056
  846 -65.0641 0.444042 11.9609
  847 -65.1080 0.443978 -11.9788
  848 355.057 25.7902 -255.490
  849 602.598 -49.8104 57.0609
  850 469.758 -0.760312 -5.11143
  851 469.904 -0.762302 5.11651
  852 597.718 -53.9108 -62.9700
  853 195.748 18.0350 -9.02232
  854 195.692 18.0571 9.05129
  855 265.327 13.5093 -12.0154
  856 265.334 13.5142 12.0390
  857 698.270 -14.3833 23.5146
  858 49.7189 26.5051 21.8706
  859 49.5000 26.5961 -21.9750
  860 55.7910 0.988541 1.00676
  861 55.6699 0.990108 -1.00950
  862 334.583 0.720260 4.00727
  863 334.525 0.719939 -4.00349
  864 848.023 -58.0437 114.163
  865 536.585 0.500169 -19.8841
  866 536.786 0.454499 19.8799
  867 18.7458 6.58516 5.94205
  868 18.5974 6.59589 -5.95415
  869 535.344 -2.68849 5.77307
  870 535.156 -2.68461 -5.76720
  871 -88.0233 -0.239804 -2.36295
  872 -87.8093 -0.238890 2.36067
  873 -0.418444 -54.4338 15.2705
  874 -0.565315 -55.2799 -15.3758
  875 661.113 -6.39311 59.5384
  876 -33.9651 10.1716 32.3424
  877 -34.1325 10.1930 -32.4178
  878 -0.189558 -89.0938 -16.6800
  879 264.894 6.09981 -6.49287
  880 264.905 6.10338 6.50034
  881 479.467 -23.1747 -88.6202
  882 482.859 -25.5975 89.4288
  883 -18.5161 -5.86024 -45.8195
  884 -18.4164 -5.85256 45.7017
  885 33.0146 22.6499 26.1313
  886 32.8194 22.7127 -26.1956
  887 2.20126 -196.501 9.51908
  888 12.1183 18.6706 35.7218
  889 11.9111 18.7113 -35.8078
  890 443.954 -8.31162 -79.0644
  891 442.913 -8.55493 79.6699
  892 764.645 49.7474 63.3479
  893 183.096 16.5508 6.25830
  894 183.154 16.5307 -6.24081
  895 548.741 0.997588 -14.7450
  896 548.938 0.980068 14.7490
  897 -20.5476 -8.55150 40.7928
  898 -20.5972 -8.59112 -40.8801
  899 2.11745 -198.659 -4.37231
  900 -31.6789 -1.57839 39.7210
  901 -31.7583 -1.58821 -39.7945
  902 29.4027 19.6729 -19.8576
  903 29.5760 19.6248 19.8151
  904 -1.67415 -13.9364 7.65742
  905 -1.69385 -13.9241 -7.66947
  906 55.7809 22.2118 -16.5547
  907 55.9583 22.1520 16.5206
  908 12.8750 -12.2338 38.7783
  909 11.4315 -11.3332 -41.2424
  910 540.199 -16.8562 51.1008
  911 539.010 -16.2129 -51.2497
  912 -165.480 0.228020 -0.945187
  913 -165.215 0.228159 0.943146
  914 -15.4720 -1.34391 7.25152
  915 -15.4602 -1.34661 -7.25070
  916 0.692186 -126.151 -15.0313
  917 -16.1556 -6.81450 -20.4364
  918 -16.1451 -6.79542 20.4331
  919 -64.4565 5.82149 28.0693
  920 -64.6119 5.83216 -28.1311
  921 177.270 31.3760 -17.8591
  922 177.099 31.4905 17.9534
  923 738.730 55.6816 -6.28147
  924 -1.04140 15.7865 26.9178
  925 -1.22142 15.8254 -26.9775
  926 275.085 18.6572 -85.2725
  927 275.008 18.8994 86.0348
  928 -23.8778 10.6206 21.5220
  929 -24.0532 10.6470 -21.5693
  930 855.777 -25.7481 5.24058
  931 559.270 22.4418 27.8049
  932 643.817 -5.64343 -53.8061
  933 472.677 3.18149 -33.6015
  934 472.883 3.07474 33.6366
  935 -40.1873 5.75434 -9.59062
  936 -40.0074 5.74342 9.56995
  937 -106.090 1.78542 13.5352
  938 -106.281 1.79022 -13.5649
  939 -6.55943 -21.5259 -23.6563
  940 -6.50735 -21.5360 23.6928
  941 176.386 7.90808 3.86252
  942 176.435 7.89932 -3.85837
  943 -48.9702 5.75251 35.4597
  944 -49.1021 5.75302 -35.5370
  945 557.237 -2.17427 7.39571
  946 557.034 -2.16992 -7.38902
  947 -3.92854 -46.6295 35.1323
  948 29.6768 17.6624 -16.6687
  949 29.8411 17.6231 16.6352
  950 38.8364 11.4161 9.99054
  951 38.6905 11.4389 -10.0090
  952 107.705 6.67515 -0.720417
  953 107.797 6.66634 0.717581
  954 1041.08 158.169 -56.2389
  955 -4.35938 -1.15042 -2.94792
  956 -4.36851 -1.15007 2.95299
  957 41.2980 14.2892 -19.6881
  958 41.9596 14.0206 19.5355
  959 385.922 12.0366 -36.6913
  960 386.065 11.9592 36.7815
  961 58.3464 14.6932 -8.89757
  962 58.4867 14.6644 8.88186
  963 108.310 16.1107 155.234
  964 704.816 -5.72902 -7.15791
  965 704.211 -5.52711 6.60126
  966 134.402 9.79054 138.666
  967 143.185 3.03136 -1.64350
  968 143.120 3.03481 1.64369
  969 354.607 1.76360 -221.779
  970 268.377 1.10168 2.07534
  971 268.362 1.10007 -2.07378
  972 36.7492 -25.1744 -1.28673
  973 40.5925 -19.7188 4.33216
  974 620.660 -1.31366 2.51402
  975 620.414 -1.31212 -2.51087
  976 -50.5596 0.360565 29.4057
  977 -50.6311 0.355934 -29.4535
  978 1117.41 143.217 77.5945
  979 -3.94894 -33.5279 -45.3939
  980 7.14507 -151.742 28.7281
  981 -0.233585 -53.9198 41.5481
  982 643.273 -1.47002 -9.24850
  983 643.514 -1.48924 9.23136
  984 -8.45386 -15.5788 20.5154
  985 -8.48030 -15.5851 -20.5003
  986 825.793 90.6340 -27.3502
  987 1369.21 9.66257 -8.56664
  988 -2.12810 -3.34087 -3.20839
  989 -2.12553 -3.34779 3.21297
  990 383.575 0.992441 -8.24883
  991 383.665 0.990752 8.25647
  992 -3.97241 -32.0807 45.5420
  993 528.100 -0.360334 29.4824
  994 527.875 -0.246050 -29.4825
  995 695.269 -43.7730 -18.7025
  996 -23.9137 -4.81887 22.9720
  997 -23.9293 -4.83876 -22.9892
  998 13.3778 -39.0468 28.6529
  999 -0.840324 -82.8685 32.6514
  1000 -0.110134 -88.4748 16.6861
  1001 736.880 45.1190 -4.68294
  1002 827.319 91.5290 11.1606
  1003 586.366 -62.2107 -106.663
  1004 9.49196 -76.3111 22.4889
  1005 11.7691 -107.637 -0.244116
  1006 171.732 1.08763 0.0132952
  1007 171.685 1.08944 -0.0134933
  1008 -6.43721 -7.35506 -9.93315
  1009 -6.43049 -7.35477 9.93957
  1010 6.61800 -62.7908 -32.2621
  1011 468.871 -2.23048 -1.88070
  1012 469.017 -2.23228 1.88264
  1013 101.268 9.07890 -57.4807
  1014 97.0682 9.29766 56.9585
  1015 -3.41758 15.2628 36.7819
  1016 -3.61638 15.2993 -36.8790
  1017 -48.6455 8.12438 -22.5249
  1018 -48.4685 8.10582 22.4763
  1019 367.750 5.70403 -81.7595
  1020 367.844 6.08014 82.5455
  1021 268.068 22.6938 -59.9614
  1022 267.970 22.7183 60.4065
  1023 288.403 17.1224 -21.9342
  1024 288.426 17.1166 21.9896
  1025 733.664 -14.1933 -65.8810
  1026 -15.0652 9.79219 41.5374
  1027 -15.2400 9.79760 -41.6579
  1028 517.354 -3.15947 40.7470
  1029 517.055 -2.90305 -40.6943
  1030 -1.98463 -24.1012 46.9102
  1031 -41.0970 -1.22060 21.9951
  1032 -41.1294 -1.22811 -22.0242
  1033 472.907 1.36341 -40.7766
  1034 473.150 1.20957 40.8349
  1035 608.417 17.0667 -47.8981
  1036 -0.310780 -82.0827 -34.1864
  1037 -6.32483 -32.1565 41.4704
  1038 -6.61010 -32.5982 -41.1456
  1039 338.640 16.2822 -31.4386
  1040 338.723 16.2426 31.5288
  1041 420.674 4.35537 17.2965
  1042 420.556 4.36989 -17.2801
  1043 693.877 -42.7755 15.7252
  1044 45.7499 1.44431 -0.234689
  1045 45.8769 1.44310 0.233844
  1046 592.114 -69.4434 113.606
  1047 8.17163 0.704995 1.74197
  1048 8.02037 0.706155 -1.74595
  1049 136.358 31.9745 -6.79320
  1050 136.150 32.0947 6.83206
  1051 56.0680 25.4254 18.3466
  1052 55.8758 25.4956 -18.3918
  1053 7.21078 -95.7801 -17.7045
  1054 180.140 3.51601 2.50167
  1055 180.185 3.51153 -2.49965
  1056 550.692 16.9644 11.6559
  1057 474.397 0.559194 15.6952
  1058 474.246 0.575396 -15.6840
  1059 -1.45168 -25.2073 -47.0004
  1060 710.604 -9.38269 -11.1554
  1061 2.80816 0.134661 45.3781
  1062 3.38117 0.467972 -45.0920
  1063 638.472 -1.81414 -5.15011
  1064 638.730 -1.81894 5.15091
  1065 681.806 -3.13132 -9.13433
  1066 681.888 -3.20804 8.95664
  1067 -0.503291 -133.702 12.4181
  1068 409.908 6.88261 -22.7179
  1069 410.024 6.85600 22.7423
  1070 493.622 1.59492 18.0086
  1071 493.456 1.61742 -17.9987
  1072 15.5421 13.7006 39.3593
  1073 15.4575 13.6935 -39.4384
  1074 1063.75 66.6055 14.8147
  1075 -11.6262 -4.28104 48.1697
  1076 -11.8643 -4.15737 -48.3126
  1077 162.982 28.4696 -8.04237
  1078 162.866 28.5343 8.08415
  1079 -74.9553 0.669240 -3.23340
  1080 -74.7520 0.668495 3.22691
  1081 262.626 17.9428 -97.6377
  1082 262.191 18.6194 98.5965
  1083 80.6207 28.7764 12.0928
  1084 80.4142 28.8650 -12.1247
  1085 180.836 24.6746 -75.1886
  1086 179.921 25.4912 75.6682
  1087 -4.22543 -43.8554 -34.2859
  1088 625.142 11.1364 65.3643
  1089 427.948 22.8699 283.846
  1090 75.8323 30.2276 12.3692
  1091 75.5972 30.3394 -12.4221
  1092 264.313 10.2689 -9.53712
  1093 264.321 10.2722 9.55346
  1094 918.113 23.7396 -1.23249
  1095 65.6486 19.3917 3.64516
  1096 64.8588 19.5581 -3.91740
  1097 -26.8819 -5.64103 30.3293
  1098 -26.9131 -5.67017 -30.3677
  1099 -0.876664 -20.7555 8.31904
  1100 -0.913334 -20.7451 -8.35348
  1101 605.881 -2.70715 23.3453
  1102 605.578 -2.51323 -23.4413
  1103 1.95601 -39.6709 43.6339
  1104 -39.3081 3.16979 -39.1862
  1105 -39.2001 3.17866 39.1093
  1106 0.182573 -159.621 -15.1775
  1107 -7.82948 -11.3995 48.1159
  1108 -7.79134 -11.1078 -48.1642
  1109 576.890 -1.16863 -9.83371
  1110 577.105 -1.17726 9.83885
  1111 599.487 -6.78772 28.6140
  1112 599.017 -6.46660 -28.6968
  1113 112.696 27.7213 -31.3385
  1114 111.864 28.1444 31.4955
  1115 -1.28286 -82.3047 -28.3641
  1116 784.101 -50.8238 -171.789
  1117 1014.30 153.172 33.2202
  1118 11.9206 -112.491 4.74752
  1119 42.5457 23.0538 -25.9525
  1120 42.7878 22.9452 25.7522
  1121 106.542 32.3319 0.952905
  1122 106.274 32.4805 -0.963803
  1123 217.007 9.26268 5.65771
  1124 217.031 9.25540 -5.64800
  1125 -12.6157 -17.9772 39.0702
  1126 -12.6013 -18.1634 -39.1438
  1127 -32.0334 11.6510 29.3392
  1128 -32.2064 11.6772 -29.4043
  1129 -7.86076 15.2561 33.8225
  1130 -8.04722 15.2918 -33.9056
  1131 577.269 -29.8086 -51.0991
  1132 580.694 -29.9106 50.8516
  1133 0.836117 -92.4308 -32.0380
  1134 316.966 3.00413 -119.669
  1135 317.304 3.93175 121.361
  1136 106.940 28.2918 -3.37624
  1137 107.101 28.2165 3.37674
  1138 303.243 203.336 314.212
  1139 85.7782 22.0857 8.39192
  1140 85.6311 22.1343 -8.40237
  1141 778.430 -74.3055 -52.4003
  1142 303.086 4.76404 7.27255
  1143 303.050 4.76343 -7.26372
  1144 -13.0608 -11.5689 24.2811
  1145 -13.0742 -11.6000 -24.2794
  1146 -15.4366 -13.7361 31.1838
  1147 -15.4425 -13.7952 -31.1956
  1148 519.959 -45.6747 -163.441
  1149 529.211 -50.8124 164.537
  1150 103.017 1.18479 2.20589
  1151 103.108 1.18290 -2.20582
  1152 332.616 14.3997 -67.7703
  1153 332.536 14.2504 68.3373
  1154 701.784 -83.2786 128.686
  1155 615.729 -2.10245 1.42419
  1156 615.488 -2.10063 -1.42238
  1157 -50.1349 8.61943 26.3475
  1158 -50.3078 8.63775 -26.4045
  1159 -88.4849 2.46422 -13.2568
  1160 -88.2864 2.45773 13.2314
  1161 169.356 27.9048 198.309
  1162 532.888 33.6121 -23.7877
  1163 304.344 18.7084 -35.6796
  1164 304.392 18.6893 35.8301
  1165 896.956 2.61676 186.987
  1166 309.547 18.6377 -50.7483
  1167 309.597 18.5833 51.0070
  1168 85.3831 7.46751 -2.14070
  1169 85.4909 7.45677 2.13560
  1170 28.8663 -78.6691 27.0519
  1171 29.0785 -75.7283 -34.6005
  1172 415.623 -22.6922 -165.337
  1173 420.852 -20.8420 165.001
  1174 168.594 30.0388 -55.1445
  1175 167.884 30.5500 55.5365
  1176 718.635 -43.5549 -40.2937
  1177 -24.0505 -1.20541 44.3932
  1178 -24.1555 -1.20836 -44.4856
  1179 0.574075 -35.2108 -44.9106
  1180 192.163 15.5633 -128.184
  1181 192.533 15.9534 130.041
  1182 -0.449260 -36.5921 9.21543
  1183 -0.385591 -36.6841 -9.33372
  1184 -164.718 1.29914 -3.82618
  1185 -164.476 1.29804 3.81833
  1186 562.885 -2.05532 -2.94901
  1187 563.093 -2.05781 2.95282
  1188 358.143 9.60138 -20.7450
  1189 358.226 9.58020 20.7803
  1190 -10.2254 1.55634 47.6822
  1191 -10.2536 1.77021 -47.7770
  1192 -0.0465041 -143.851 -13.6885
  1193 -141.560 0.272712 6.58212
  1194 -141.755 0.273440 -6.59669
  1195 120.888 10.6427 -93.6244
  1196 120.101 11.3903 96.2095
  1197 665.260 -40.1403 -9.08201
  1198 199.866 19.8527 -115.665
  1199 199.967 20.1886 116.539
  1200 -80.3362 0.462296 10.8008
  1201 -80.4018 0.461521 -10.8188
  1202 2.40788 -120.114 -20.9338
  1203 -13.0601 3.68917 -3.87482
  1204 -12.8952 3.68459 3.86641
  1205 109.739 23.0844 4.35027
  1206 109.600 23.1374 -4.34863
  1207 378.056 -1.29760 -2.53583
  1208 378.142 -1.29819 2.53793
  1209 503.079 -0.326479 11.9043
  1210 502.911 -0.316220 -11.8957
  1211 31.5402 1.58176 20.7074
  1212 31.0876 1.07501 -21.2653
  1213 5.71201 -67.5666 32.6123
  1214 906.498 133.991 10.3157
  1215 -27.7454 -2.06292 17.4524
  1216 -27.7553 -2.07257 -17.4658
  1217 4.61257 -63.3238 -34.6597
  1218 -2.52526 -41.8144 25.3995
  1219 -2.41518 -41.3507 -26.2942
  1220 712.640 -8.00735 9.78313
  1221 0.589417 -163.802 13.8735
  1222 6.61369 -45.5750 -38.7740
  1223 96.4370 0.431004 0.526257
  1224 96.3423 0.431975 -0.527091
  1225 -6.20482 -28.2842 45.1640
  1226 -70.0039 3.82613 -10.7015
  1227 -69.8095 3.81931 10.6808
  1228 1395.30 22.7002 41.6141
  1229 -38.2082 5.31941 39.1719
  1230 -38.3357 5.31433 -39.2571
  1231 354.021 12.4051 -61.1516
  1232 354.231 12.2155 61.4589
  1233 25.3799 -26.1535 -10.6474
  1234 335.845 13.6570 -26.2922
  1235 335.917 13.6284 26.3566
  1236 15.1985 -88.4718 1.61353
  1237 -6.24095 -28.3766 -45.1390
  1238 -44.5493 1.13368 5.74649
  1239 -44.7330 1.13650 -5.75725
  1240 -22.4266 2.99346 -44.9124
  1241 -22.2971 3.00686 44.8244
  1242 721.758 59.8946 43.4873
  1243 406.813 2.76720 -63.5670
  1244 407.201 2.72073 63.7158
  1245 -170.113 0.233727 -1.12871
  1246 -169.851 0.233676 1.12565
  1247 364.799 5.27738 -13.9033
  1248 364.877 5.27226 13.9182
  1249 -172.537 -3.29588 -0.523759
  1250 -172.810 -3.29851 0.523894
  1251 541.569 -37.6801 -72.9457
  1252 -81.9837 1.51320 22.2933
  1253 -82.1055 1.51279 -22.3384
  1254 546.571 -39.8066 72.2887
  1255 372.061 10.0235 -27.4781
  1256 372.161 9.98422 27.5259
  1257 45.8930 -58.1715 -92.1817
  1258 0.882239 -112.083 -27.2099
  1259 -1.82627 -46.6958 42.2249
  1260 1116.55 231.383 -190.236
  1261 -0.187829 -106.280 27.2007
  1262 1174.09 111.991 -83.5112
  1263 -0.829337 -197.544 -12.3825
  1264 68.6676 3.75293 0.178010
  1265 68.7816 3.74805 -0.181155
  1266 -0.468166 -46.8971 9.64416
  1267 -0.368746 -47.1553 -9.62643
  1268 213.271 2.02479 1.26259
  1269 213.292 2.02235 -1.26165
  1270 725.164 -50.2005 37.6397
  1271 25.4402 3.85488 -4.48346
  1272 25.5822 3.84894 4.47505
  1273 4.20373 -207.328 3.10574
  1274 2.69256 -221.949 -3.16414
  1275 666.543 -76.4888 -80.8567
  1276 -1.69812 -59.4669 27.8304
  1277 715.264 50.7032 -57.7039
  1278 -2.05509 -78.3260 27.2189
  1279 1.50601 -209.570 -8.42158
  1280 341.936 6.12832 -15.8634
  1281 342.000 6.11637 15.8868
  1282 -0.297718 -118.005 12.2912
  1283 -0.231140 -96.5056 -27.4544
  1284 1506.98 290.914 243.865
  1285 618.276 -0.372897 1.04112
  1286 618.033 -0.372236 -1.04014
  1287 20.3417 4.95793 34.7188
  1288 19.7635 5.63890 -34.9215
  1289 -5.81924 10.5294 43.6699
  1290 -6.08315 10.5253 -43.8170
  1291 678.625 -11.4026 -38.2135
  1292 622.841 -26.9051 -30.8762
  1293 622.402 -30.4006 31.4095
  1294 103.393 8.64175 1.68549
  1295 103.294 8.65492 -1.68900
  1296 -96.8326 2.53357 -16.6020
  1297 -96.6531 2.52783 16.5651
  1298 693.210 -85.1368 -111.604
  1299 -5.10682 -12.5260 12.8986
  1300 -5.12799 -12.5203 -12.8948
  1301 735.478 -25.9114 62.3066
  1302 -7.28874 -28.1084 33.9801
  1303 -7.20314 -28.2171 -33.8253
  1304 -55.0479 3.39589 7.02367
  1305 -55.2369 3.40158 -7.03809
  1306 118.674 19.4112 -52.7981
  1307 117.538 20.0301 52.7230
  1308 183.382 1.94567 -0.685124
  1309 183.342 1.94840 0.685302
  1310 -65.5505 6.90137 26.4938
  1311 -65.7162 6.91465 -26.5498
  1312 582.453 0.0390997 1.61769
  1313 582.233 0.0396147 -1.61622
  1314 334.317 9.60200 219.319
  1315 481.375 -1.66001 4.24651
  1316 481.221 -1.65814 -4.24234
  1317 331.022 7.60346 -92.0971
  1318 330.975 7.25562 92.7721
  1319 3.48572 -117.976 -12.5365
  1320 133.218 32.2656 -26.9347
  1321 132.641 32.6134 27.0988
  1322 -1.33059 -1.10660 -1.68556
  1323 -1.33715 -1.10670 1.69034
  1324 418.554 9.28998 34.5389
  1325 418.396 9.37674 -34.4806
  1326 214.825 13.8340 8.70886
  1327 214.857 13.8220 -8.68928
  1328 310.471 13.6743 -18.9147
  1329 310.515 13.6643 18.9553
  1330 399.137 -0.899352 -4.30670
  1331 399.236 -0.900195 4.31047
  1332 -12.5533 -5.99048 -14.5278
  1333 -12.5480 -5.98136 14.5319
  1334 -110.450 -0.359769 4.12660
  1335 -110.673 -0.359401 -4.13557
  1336 -20.7904 -9.26647 -34.6728
  1337 -20.7645 -9.21498 34.6260
  1338 -56.7757 0.00912802 1.59997
  1339 -56.9688 0.00875132 -1.60288
  1340 -175.163 1.48103 0.624734
  1341 -175.436 1.48168 -0.625958
  1342 740.747 -78.9148 148.789
  1343 569.144 -1.75165 -54.3063
</Section>

newXOutput 90

<Section columns = "stress_xx | stress_yy | stress_xy">
  1 642.012 -1.43780 0.724179
  2 642.270 -1.43907 -0.724560
  3 -191.761 0.773907 -2.68223
  4 0.301527 0.0585408 0.545756
  5 1131.91 390.398 391.806
  6 1281.13 435.902 -379.080
  7 0.299880 0.0570882 -0.543563
  8 -191.471 0.773813 2.68036
  9 640.234 -1.39142 -2.14905
  10 640.870 -2.37245 -3.40912
  11 646.826 -2.40523 -0.999834
  12 647.709 -2.43425 -4.14272
  13 649.801 -2.43886 -1.46247
  14 663.037 -2.20193 -1.95552
  15 667.984 -2.99836 -5.57676
  16 673.671 -1.68223 -3.93348
  17 677.689 -0.560980 -7.56387
  18 704.456 -4.47019 -6.46596
  19 716.784 -3.68616 -8.18579
  20 730.883 -5.19011 -3.81420
  21 738.540 -6.56640 -2.82672
  22 736.920 -7.24269 7.56067
  23 717.046 -7.77154 16.9290
  24 668.697 -7.81477 37.5495
  25 587.046 5.83591 44.1140
  26 522.251 7.65427 40.1213
  27 429.644 12.8025 24.1922
  28 454.031 12.4187 3.14121
  29 392.142 35.3923 -14.8662
  30 500.941 16.9722 -45.0599
  31 558.057 4.99521 -36.5591
  32 657.585 -1.18662 -31.8186
  33 710.931 -9.41674 -20.5617
  34 736.425 -8.40805 -7.45003
  35 737.645 -6.39535 2.90862
  36 730.316 -5.13378 3.65925
  37 716.679 -3.70410 7.99832
  38 704.553 -4.51586 6.36571
  39 677.914 -0.585669 7.52379
  40 673.934 -1.69156 3.92150
  41 668.262 -3.00506 5.57666
  42 663.316 -2.20570 1.95632
  43 650.071 -2.44188 1.46441
  44 647.975 -2.43684 4.14697
  45 647.090 -2.40732 1.00155
  46 641.128 -2.37440 3.41217
  47 640.490 -1.39269 2.15096
  48 607.731 0.566130 -0.853567
  49 565.240 -1.08539 -1.80192
  50 511.741 -4.09683 -1.67579
  51 455.850 -1.18518 -1.39297
  52 406.438 -1.88864 -1.08472
  53 353.185 -0.243011 -1.26412
  54 300.240 2.59999 -0.660441
  55 244.880 2.07383 -1.56130
  56 198.693 0.792139 -2.26125
  57 137.714 -0.224876 -2.38197
  58 75.4664 1.43807 -1.83743
  59 23.3127 1.27939 -1.77830
  60 -42.0309 0.499846 -1.58233
  61 -90.6348 -1.36190 -4.19447
  62 -137.770 -3.59131 -1.87833
  63 -185.765 0.251422 1.40358
  64 -196.411 3.35635 -0.338469
  65 -197.447 1.40880 0.803427
  66 -191.029 0.619969 0.000466591
  67 -194.008 2.11712 -2.18184
  68 -191.375 2.61742 0.150469
  69 -181.424 0.728058 -3.43898
  70 -184.681 1.63075 -3.75277
  71 -180.611 1.52196 -1.93938
  72 -167.604 0.900399 -3.09505
  73 -162.391 1.76123 -5.37083
  74 -152.960 2.01347 -4.29486
  75 -135.891 1.01162 -7.84470
  76 -126.430 0.319486 -6.53969
  77 -108.877 0.454561 -7.66156
  78 -93.8958 0.409504 -8.60708
  79 -80.6191 0.159842 -6.79917
  80 -61.9316 0.423378 -6.88250
  81 -45.7256 -0.127951 -7.41481
  82 -30.0198 -0.776021 -6.58601
  83 -17.5000 -0.686469 -5.09117
  84 -8.69246 -1.23763 -4.28814
  85 -1.59555 -0.718416 -1.57389
  86 -0.00530941 -0.822105 -0.591271
  87 -0.438714 -0.512331 -0.159862
  88 -1.12812 -1.34188 -1.38521
  89 -1.09912 -7.37920 -3.73626
  90 -0.916247 -16.3543 -5.25930
  91 -0.457561 -27.6167 -7.62819
  92 -0.218985 -42.2848 -6.56423
  93 -0.136655 -55.6198 -8.24595
  94 -0.981909 -71.6862 -9.24123
  95 -0.405139 -91.6603 -9.25469
  96 0.183327 -111.753 -8.81797
  97 0.428290 -133.184 -8.65948
  98 0.684474 -155.068 -8.44622
  99 -0.0363657 -170.598 -11.3718
  100 1.07208 -193.227 -10.1218
  101 1.37670 -219.519 -7.79294
  102 -0.290213 -229.715 -10.2978
  103 1.95432 -247.362 -9.31680
  104 5.04261 -270.522 -3.09329
  105 9.96095 -273.419 -4.97238
  106 7.73605 -238.927 12.2250
  107 12.5399 -161.439 39.1331
  108 51.9902 -52.9386 99.7817
  109 153.476 319.964 295.030
  110 1726.71 100.180 176.741
  111 1492.29 27.3753 63.3006
  112 1444.54 8.70380 15.0895
  113 1433.65 1.55189 -2.24846
  114 1443.96 14.1958 -33.2408
  115 1492.61 50.4912 -76.0869
  116 1685.58 195.189 -225.217
  117 376.544 253.226 -358.107
  118 89.7853 -54.0705 -117.183
  119 27.0055 -177.506 -46.8374
  120 7.80511 -225.190 -12.6531
  121 8.16525 -262.297 1.16884
  122 2.23558 -259.356 1.79252
  123 0.677091 -241.101 7.53907
  124 0.809984 -228.346 5.88433
  125 1.21889 -207.027 11.2555
  126 -0.0509403 -195.214 11.2231
  127 0.478452 -176.830 8.02430
  128 0.986937 -153.305 10.4478
  129 0.224088 -136.399 8.26477
  130 0.275903 -111.787 10.4667
  131 -1.11799 -92.7989 9.03078
  132 -0.746682 -71.7374 8.94113
  133 -0.0833439 -55.2945 8.26223
  134 -0.292510 -42.0341 6.57015
  135 -0.443764 -27.5350 7.55141
  136 -0.902073 -16.3442 5.23276
  137 -1.09314 -7.39055 3.73371
  138 -1.12644 -1.35459 1.38807
  139 -0.438606 -0.517694 0.163511
  140 -0.0119010 -0.822789 0.594470
  141 -1.60764 -0.717837 1.57776
  142 -8.70947 -1.23612 4.29146
  143 -17.5217 -0.684087 5.09165
  144 -30.0344 -0.773104 6.58230
  145 -45.7238 -0.125541 7.40587
  146 -61.9108 0.423854 6.87218
  147 -80.5718 0.161205 6.78816
  148 -93.8238 0.411269 8.59391
  149 -108.771 0.454702 7.64720
  150 -126.292 0.319633 6.52565
  151 -135.730 1.01103 7.83020
  152 -152.766 2.01214 4.28297
  153 -162.178 1.75969 5.36049
  154 -167.371 0.899373 3.08783
  155 -180.359 1.52076 1.93423
  156 -184.419 1.62984 3.74715
  157 -181.158 0.727857 3.43410
  158 -191.096 2.61587 -0.152486
  159 -193.724 2.11590 2.17895
  160 -190.745 0.619886 -0.00142277
  161 -197.155 1.40813 -0.803457
  162 -196.119 3.35443 0.337802
  163 -185.480 0.251686 -1.40302
  164 -137.519 -3.58825 1.87682
  165 -90.4159 -1.36023 4.19154
  166 -41.8442 0.500040 1.58084
  167 23.4566 1.27860 1.77681
  168 75.5767 1.43660 1.83598
  169 137.785 -0.225720 2.38020
  170 198.725 0.790442 2.25974
  171 244.882 2.07140 1.56034
  172 300.206 2.59737 0.660147
  173 353.117 -0.243438 1.26348
  174 406.335 -1.88768 1.08421
  175 455.714 -1.18438 1.39232
  176 511.568 -4.09370 1.67511
  177 565.032 -1.08416 1.80096
  178 607.496 0.566186 0.853114
  179 182.580 28.9163 -14.1152
  180 182.447 28.9929 14.1884
  181 0.298804 7.05131 44.8755
  182 0.0970475 6.98025 -44.9217
  183 402.696 -4.75487 -96.9098
  184 402.286 -5.46938 97.8115
  185 85.3362 23.3976 -13.3206
  186 84.3519 23.6950 13.3106
  187 67.7139 8.13258 -4.21560
  188 67.8372 8.11879 4.20697
  189 377.557 3.82208 -15.5975
  190 377.644 3.81169 15.6165
  191 1.15412 14.4468 22.3571
  192 0.977164 14.4827 -22.4058
  193 437.910 8.05530 -37.4247
  194 438.106 7.94726 37.4962
  195 -16.0954 -13.7976 38.1405
  196 -16.0979 -13.8862 -38.2009
  197 5.42559 -30.6762 -42.5274
  198 143.473 17.7773 -94.2563
  199 6.32504 -32.9941 41.3293
  200 141.293 18.7854 95.4599
  201 616.173 -74.6147 -138.721
  202 636.076 -77.4860 133.772
  203 229.555 4.28037 -4.25213
  204 229.541 4.28408 4.25670
  205 -23.8602 1.21076 -3.71172
  206 -23.6859 1.20906 3.70501
  207 -44.5797 7.71495 34.8699
  208 -44.7332 7.72614 -34.9505
  209 231.069 17.5532 -10.9956
  210 231.044 17.5685 11.0237
  211 75.0099 29.9251 10.6720
  212 74.7140 30.0926 -10.7721
  213 -54.0265 5.96775 -12.8428
  214 -53.8380 5.95614 12.8166
  215 493.309 -1.87963 7.00209
  216 493.149 -1.87567 -6.99539
  217 17.9987 -56.7035 12.9490
  218 19.5306 -50.4628 -10.3968
  219 -4.05760 -39.4664 42.4661
  220 -4.20755 -41.1803 -41.1960
  221 215.120 29.9409 -44.3258
  222 214.878 30.0999 44.6434
  223 -42.2906 0.317088 36.5322
  224 -42.3775 0.307917 -36.5977
  225 527.569 0.461396 -19.6362
  226 527.758 0.430130 19.6413
  227 570.726 -10.4227 -39.5284
  228 571.200 -10.9362 39.4727
  229 919.405 66.2971 2.29642
  230 844.431 98.6184 29.7371
  231 822.802 4.69074 -53.7274
  232 110.670 20.8916 4.10561
  233 110.543 20.9352 -4.10663
  234 13.1449 19.0842 32.5741
  235 12.9413 19.1374 -32.6544
  236 637.880 -38.2520 -30.9034
  237 634.324 -38.6727 33.0536
  238 357.296 -0.207731 -6.03301
  239 357.367 -0.208969 6.03898
  240 -72.5239 5.31769 22.6376
  241 -72.7005 5.32972 -22.6865
  242 -10.6314 -10.4316 -17.5637
  243 -10.6187 -10.4214 17.5704
  244 -76.4727 1.23858 5.99349
  245 -76.6776 1.24155 -6.00562
  246 298.602 18.8025 -27.6993
  247 298.632 18.7907 27.7840
  248 376.998 9.05208 -56.6682
  249 377.228 8.91882 56.8901
  250 100.028 3.43235 1.08594
  251 100.124 3.42833 -1.08727
  252 222.272 20.7132 -191.487
  253 261.029 25.4767 206.504
  254 33.6471 16.2764 29.3561
  255 33.5137 16.5711 -29.5311
  256 856.694 -49.0393 -35.6364
  257 84.1370 27.9910 9.39946
  258 83.9542 28.0684 -9.41829
  259 219.277 25.5657 -76.8598
  260 218.821 26.1010 77.5027
  261 964.980 145.707 13.5003
  262 572.012 -2.01055 26.5317
  263 571.750 -1.86948 -26.5618
  264 -4.98608 -31.5073 -27.1665
  265 -4.81742 -31.6250 27.2673
  266 -0.829549 -73.4597 -36.2807
  267 3.18701 -83.2235 -31.4927
  268 1.82964 -84.3865 33.8017
  269 -12.7366 -10.8280 47.9069
  270 -12.8035 -10.8239 -48.1314
  271 33.8708 -56.1335 -22.4986
  272 36.5745 -50.4051 28.3016
  273 -32.6055 -2.58690 23.7980
  274 -32.6327 -2.60013 -23.8256
  275 413.267 8.05286 -23.9148
  276 413.393 8.01651 23.9461
  277 715.131 -68.6002 -17.1748
  278 168.353 10.8360 3.14136
  279 168.412 10.8231 -3.13638
  280 -1.59726 -69.1195 34.8053
  281 24.5180 13.5152 12.9219
  282 24.3588 13.5440 -12.9481
  283 1121.17 75.5332 -37.5784
  284 552.104 -1.67724 8.39208
  285 551.905 -1.67011 -8.38569
  286 383.728 -13.4212 -143.555
  287 386.701 -13.1611 145.418
  288 714.342 -65.2676 5.76699
  289 -65.1574 2.24127 28.5680
  290 -65.2678 2.23968 -28.6239
  291 694.058 -36.7054 229.259
  292 -26.8613 5.91936 42.6532
  293 -26.9948 5.90476 -42.7493
  294 127.234 34.5701 -18.1539
  295 126.733 34.8759 18.2452
  296 -111.879 0.389417 0.896844
  297 -112.112 0.388923 -0.899010
  298 587.153 36.8864 -307.397
  299 -109.176 2.03328 -11.7926
  300 -108.971 2.02837 11.7672
  301 -1.30837 -11.8551 47.5811
  302 0.598894 -11.3467 -46.8545
  303 269.441 24.8061 -39.4633
  304 269.411 24.8307 39.6537
  305 67.6493 4.70727 3.21603
  306 67.5305 4.71421 -3.22231
  307 278.277 7.09749 -9.46355
  308 278.294 7.09980 9.47588
  309 28.8851 -12.7282 19.4224
  310 26.3763 -16.4129 -19.9027
  311 270.190 1.37679 -2.69789
  312 270.205 1.37849 2.70036
  313 -91.7756 2.43732 20.5807
  314 -91.9232 2.44036 -20.6244
  315 71.4940 2.42435 -26.6426
  316 69.5328 2.29698 24.8040
  317 573.260 -2.15911 2.36456
  318 573.047 -2.15690 -2.36158
  319 1234.75 68.5079 54.7312
  320 141.704 15.2326 -0.880046
  321 141.618 15.2559 0.885435
  322 -17.5744 5.18835 7.93178
  323 -17.7459 5.19856 -7.94892
  324 190.889 22.2459 -10.3325
  325 190.814 22.2808 10.3736
  326 26.7692 20.5845 33.2556
  327 26.6023 20.6183 -33.3820
  328 3.04937 -121.741 22.4855
  329 -117.051 -0.300944 -2.31266
  330 -116.817 -0.300390 2.30792
  331 444.360 -1.81213 -4.61851
  332 444.489 -1.81402 4.62290
  333 467.587 0.165390 -12.2333
  334 467.731 0.155285 12.2437
  335 -110.679 1.52510 -8.16623
  336 -110.459 1.52194 8.15045
  337 9.73205 0.692767 0.429221
  338 9.57916 0.693343 -0.431282
  339 -2.52170 -52.0990 26.9461
  340 -1.98531 -54.1975 -26.9039
  341 532.066 -41.4425 -98.3813
  342 551.447 -49.7028 96.7896
  343 319.985 11.8195 -17.4916
  344 320.032 11.8125 17.5218
  345 147.138 32.3612 -12.8781
  346 146.869 32.5177 12.9499
  347 -40.4534 8.70742 18.8430
  348 -40.6340 8.72737 -18.8841
  349 962.293 43.4638 49.0921
  350 56.4309 -53.2804 -71.2917
  351 60.3464 -47.1908 73.9395
  352 -14.4827 15.0785 31.3704
  353 -14.6643 15.1123 -31.4444
  354 -25.4264 -4.52039 42.8133
  355 -25.5063 -4.53829 -42.9042
  356 1094.17 196.523 -73.7721
  357 722.709 -3.75603 74.7451
  358 661.547 -16.9003 -19.5136
  359 661.235 -16.5043 18.6457
  360 472.627 -7.13182 -63.1341
  361 472.031 -7.51467 63.2007
  362 0.983369 -146.693 -17.6169
  363 602.230 -0.380260 -14.6695
  364 602.456 -0.418216 14.6523
  365 8.53013 -135.151 11.4872
  366 727.838 58.2183 -35.0819
  367 182.533 2.93834 1.09707
  368 182.490 2.94159 -1.09810
  369 473.889 0.737549 -46.8004
  370 474.170 0.564422 46.8975
  371 505.738 1.13551 -27.8944
  372 505.936 1.05776 27.9040
  373 1.61230 4.14512 4.79144
  374 1.45283 4.15175 -4.80191
  375 300.611 16.6027 -77.0035
  376 300.605 16.8090 77.5671
  377 590.180 -1.83419 3.84372
  378 589.955 -1.83146 -3.83919
  379 347.849 15.7772 -39.8406
  380 347.951 15.7142 39.9735
  381 395.870 2.67846 10.4432
  382 395.773 2.68162 -10.4329
  383 -18.6924 -3.26489 14.8896
  384 -18.6951 -3.27443 -14.8929
  385 -4.51323 -3.18849 -4.46654
  386 -4.51489 -3.18945 4.47302
  387 791.869 -85.9871 72.0422
  388 -9.75903 -23.9333 39.6185
  389 -9.68451 -24.1585 -39.6360
  390 140.723 5.79011 0.241172
  391 140.796 5.78255 -0.241811
  392 -3.88506 -19.8664 14.9810
  393 -3.93164 -19.8396 -14.9856
  394 59.1294 21.7001 13.3048
  395 58.9655 21.7512 -13.3306
  396 646.785 -4.52596 19.6561
  397 646.460 -4.32216 -19.8898
  398 -0.543171 -35.6509 46.0900
  399 -52.7704 -0.811147 22.2851
  400 -52.8222 -0.816836 -22.3195
  401 -0.747733 -37.8268 -45.5799
  402 604.651 -1.38407 9.37525
  403 604.419 -1.37277 -9.37429
  404 -0.964162 14.8233 40.2253
  405 -1.19504 14.8579 -40.3379
  406 454.970 3.43991 -19.1456
  407 455.111 3.41729 19.1609
  408 695.799 -29.3420 -8.64623
  409 696.956 -24.0699 5.87814
  410 -1.24043 -70.6582 -29.3193
  411 69.1841 26.7583 -4.70255
  412 69.7331 26.5193 4.59167
  413 719.450 46.1134 21.2497
  414 403.157 -11.5718 -195.811
  415 412.955 -18.6678 204.123
  416 31.1755 21.3577 23.4473
  417 30.9880 21.4136 -23.5010
  418 297.949 4.46348 -6.48156
  419 297.980 4.46554 6.48854
  420 289.361 80.8095 307.703
  421 126.658 26.0829 -0.504635
  422 126.804 26.0173 0.517218
  423 8.57282 -61.4371 27.9598
  424 -0.821102 -114.104 -24.8728
  425 53.8550 26.9603 20.3469
  426 53.6443 27.0398 -20.4125
  427 67.4271 13.5676 -7.08014
  428 67.5601 13.5428 7.06782
  429 -17.1766 0.409160 -47.2378
  430 -17.0439 0.380132 47.1389
  431 149.205 30.6278 -37.2066
  432 148.564 31.0318 37.4516
  433 705.920 -19.9834 -57.5103
  434 23.2586 -2.35830 32.2806
  435 22.5761 -2.24804 -32.5517
  436 515.011 -22.5691 -69.6735
  437 516.934 -23.9951 69.6546
  438 -121.930 0.838700 -12.0178
  439 -121.739 0.835712 11.9915
  440 -0.0110975 -112.803 22.5900
  441 -0.742480 -72.0041 26.1728
  442 -48.9093 3.68798 36.4352
  443 -49.0235 3.68307 -36.5085
  444 369.461 -0.393507 -2.36405
  445 369.540 -0.393657 2.36651
  446 -10.6303 -16.8275 27.3578
  447 -10.6535 -16.8716 -27.3370
  448 238.334 17.6607 -110.696
  449 237.796 18.6057 111.701
  450 2.00683 -133.403 -23.4109
  451 1231.71 39.3603 0.110337
  452 3.87853 -152.424 -10.2970
  453 -139.887 -0.486906 -3.81367
  454 -139.642 -0.486745 3.80681
  455 -52.0732 8.11226 28.3449
  456 -52.2435 8.12897 -28.4096
  457 -66.0099 1.01766 22.1960
  458 -66.0860 1.01649 -22.2334
  459 258.732 23.3841 -28.3821
  460 258.706 23.4129 28.4965
  461 383.105 11.5288 -30.7399
  462 383.225 11.4742 30.8056
  463 -5.03818 -21.1347 47.9239
  464 -5.04575 -20.9923 -48.1307
  465 672.974 16.5411 -72.1121
  466 49.5281 -3.48986 1.79195
  467 47.7788 -3.92790 -0.875722
  468 11.6018 -130.728 -9.04255
  469 7.75320 -154.448 3.54278
  470 -19.4630 -8.51677 28.0987
  471 -19.4786 -8.55066 -28.1179
  472 146.844 20.0772 -168.472
  473 980.017 33.1036 -122.299
  474 236.030 11.3881 10.0285
  475 236.045 11.3796 -10.0111
  476 340.007 5.55899 -104.843
  477 340.589 5.46773 106.185
  478 105.691 33.7950 2.78400
  479 105.470 33.9140 -2.79279
  480 307.736 21.1195 -57.8491
  481 307.787 21.0525 58.1877
  482 14.7612 8.75526 40.2307
  483 15.4456 9.09913 -40.1775
  484 -125.277 1.59377 -8.31541
  485 -125.055 1.59117 8.29841
  486 656.520 -72.3994 -60.7539
  487 516.511 -2.23182 -3.16203
  488 516.686 -2.23390 3.16526
  489 39.5609 1.72584 -1.41206
  490 39.6952 1.72315 1.40780
  491 -26.4383 11.7322 25.4053
  492 -26.6171 11.7600 -25.4617
  493 -65.6882 3.76123 -8.23297
  494 -65.4915 3.75457 8.21562
  495 236.361 19.1654 -14.9281
  496 236.334 19.1816 14.9718
  497 -22.2361 10.9125 37.4652
  498 -22.4092 10.9335 -37.5604
  499 600.208 -18.5364 -37.9116
  500 601.255 -19.3050 37.6091
  501 402.132 3.01490 -70.3818
  502 401.466 2.81412 70.9217
  503 156.980 3.90746 0.406557
  504 157.041 3.90293 -0.407034
  505 2.28240 -66.8255 -38.3688
  506 707.450 -23.0001 46.7284
  507 11.4441 -40.6443 -32.1997
  508 210.079 31.3427 30.4361
  509 210.251 31.2293 -30.2585
  510 649.463 -67.7199 60.2763
  511 54.4239 -34.4277 93.8536
  512 766.485 -83.3630 -114.557
  513 526.642 -0.720467 33.7195
  514 526.379 -0.558848 -33.7014
  515 2.31611 -56.7080 39.9576
  516 -10.3789 -3.04054 -8.06896
  517 -10.3820 -3.03821 8.07356
  518 76.0506 1.11484 -0.132478
  519 76.1608 1.11335 0.131184
  520 -1.71691 -40.7134 17.4851
  521 -1.55746 -40.5310 -17.5821
  522 434.615 1.07341 7.93575
  523 434.493 1.07523 -7.92841
  524 1192.64 227.686 111.996
  525 55.4384 -19.3834 -26.5397
  526 43.5062 -30.2036 17.4849
  527 -2.34881 8.07368 -10.9662
  528 -2.18264 8.05645 10.9433
  529 -103.127 1.60772 13.0967
  530 -103.251 1.60942 -13.1221
  531 1.13791 -125.916 23.8325
  532 -135.695 0.817859 0.727476
  533 -135.944 0.817755 -0.729858
  534 142.595 8.58237 -126.642
  535 139.723 10.4408 130.967
  536 131.482 27.3096 -49.7096
  537 130.529 27.8179 49.9128
  538 -27.1872 -5.28144 37.8207
  539 -27.2412 -5.30887 -37.8874
  540 131.484 8.26291 -0.662733
  541 131.402 8.27401 0.662366
  542 -50.4841 1.80556 2.80287
  543 -50.6748 1.80774 -2.81051
  544 152.629 18.5123 -2.63225
  545 152.538 18.5451 2.64608
  546 -2.82376 -9.40879 6.92622
  547 -2.83401 -9.40193 -6.92537
  548 58.1220 25.2188 16.3614
  549 57.7496 25.5287 -16.5209
  550 46.9452 11.8684 13.0523
  551 46.3277 11.8246 -13.4609
  552 528.953 1.03033 14.0918
  553 528.768 1.04276 -14.0835
  554 472.301 2.98396 23.0691
  555 472.140 3.02525 -23.0533
  556 -0.472261 -109.431 -15.8364
  557 337.350 13.0924 -24.5360
  558 337.416 13.0728 24.5865
  559 336.980 4.04184 -9.99620
  560 337.038 4.03967 10.0082
  561 -32.2749 0.300146 0.436911
  562 -32.0948 0.300404 -0.437750
  563 605.400 30.2721 -13.8508
  564 737.426 -84.6454 -49.6943
  565 635.268 31.5261 53.2493
  566 5.88608 -86.8796 -25.9115
  567 -23.4929 9.44509 -15.6193
  568 -23.3166 9.42517 15.5870
  569 6.52230 -49.2839 36.4193
  570 -30.3076 1.70103 42.3846
  571 -30.4145 1.69113 -42.4659
  572 947.561 90.7321 12.8634
  573 224.765 6.66732 -5.59054
  574 224.747 6.67275 5.59749
  575 1376.50 120.685 -129.548
  576 -4.34975 -3.19348 48.3388
  577 -3.79780 -2.80016 -48.3450
  578 778.928 -60.1742 14.8115
  579 621.947 -1.13410 -16.1687
  580 622.183 -1.20095 16.1224
  581 300.117 7.12441 -150.184
  582 303.344 6.12861 152.145
  583 -14.9551 -14.2088 43.5507
  584 -14.9750 -14.2914 -43.6828
  585 161.637 20.9644 85.5037
  586 162.941 19.8989 -84.9761
  587 -119.243 1.31044 -11.9592
  588 -119.070 1.30826 11.9337
  589 916.819 94.8348 26.5005
  590 186.064 13.2895 5.04613
  591 186.116 13.2740 -5.03536
  592 218.192 27.5707 -60.1238
  593 217.848 27.8836 60.6040
  594 568.477 -3.77610 -32.6558
  595 568.820 -4.01351 32.6465
  596 -2.10409 -55.2168 -38.8752
  597 609.055 -1.88613 4.92925
  598 608.817 -1.88271 -4.92462
  599 -77.5854 0.863556 -0.771881
  600 -77.3762 0.863300 0.768343
  601 -145.911 -1.47466 -0.134415
  602 -146.168 -1.47632 0.133863
  603 15.0112 -75.4237 -6.98014
  604 -5.43110 -36.4425 34.0151
  605 -5.72804 -34.3955 -34.2367
  606 -66.6282 4.41859 30.0374
  607 -66.7636 4.42292 -30.1003
  608 437.224 7.14978 29.5402
  609 437.070 7.21254 -29.5038
  610 325.170 0.506821 2.26900
  611 325.120 0.505859 -2.26704
  612 78.7420 -6.47525 58.6735
  613 80.9350 -4.89565 -58.2328
  614 -2.15384 -28.4844 14.8474
  615 -2.22617 -28.4002 -14.9012
  616 727.731 88.3926 329.763
  617 -36.6723 -1.04284 13.6583
  618 -36.6819 -1.04836 -13.6725
  619 15.2678 -44.7766 -23.9894
  620 319.334 8.72957 -13.5723
  621 319.379 8.72692 13.5920
  622 162.898 33.0963 -25.4152
  623 162.555 33.3051 25.5780
  624 1.52554 -184.266 6.84248
  625 124.478 30.8604 -1.10628
  626 124.303 30.9511 1.12155
  627 -3.51428 12.1421 18.9212
  628 -3.68733 12.1701 -18.9606
  629 -0.862831 -95.8603 21.5702
  630 -148.506 -0.145443 -3.89735
  631 -148.258 -0.145586 3.89005
  632 214.995 2.14763 2.49576
  633 215.018 2.14488 -2.49370
  634 515.489 -1.20686 9.57401
  635 515.314 -1.20071 -9.56584
  636 462.833 -16.1569 253.079
  637 373.776 5.55082 -19.0111
  638 373.863 5.53394 19.0369
  639 8.97311 -4.13704 43.1327
  640 10.5172 -0.992843 -42.8436
  641 590.008 -44.8241 -206.820
  642 1333.51 44.2183 -53.7251
  643 -139.885 -0.0403594 -8.03749
  644 -139.675 -0.0416184 8.02095
  645 46.4253 5.89157 -3.92058
  646 46.5585 5.88220 3.91200
  647 -2.47208 -59.3078 34.6745
  648 803.661 56.5769 -59.5374
  649 601.716 -2.14239 0.932003
  650 601.485 -2.14039 -0.930637
  651 -38.2862 -1.80414 -31.2571
  652 -38.2321 -1.79249 31.2085
  653 -0.140923 -135.021 -20.1652
  654 611.695 -1.98671 1.91501
  655 611.456 -1.98477 -1.91235
  656 67.1831 18.2484 10.7591
  657 67.0358 18.2871 -10.7768
  658 482.786 -36.7372 -138.036
  659 490.689 -36.4798 139.336
  660 685.613 -5.46630 11.7816
  661 685.501 -5.43422 -12.1376
  662 3.14579 -167.115 14.3743
  663 -25.5254 -0.101680 -1.52481
  664 -25.3499 -0.101648 1.52096
  665 231.449 66.8462 -244.566
  666 223.074 1.51617 2.27971
  667 223.090 1.51398 -2.27822
  668 116.402 5.18242 -1.14896
  669 116.315 5.18890 1.14774
  670 135.803 11.1265 2.02891
  671 135.887 11.1104 -2.02623
  672 412.703 8.57377 -45.7761
  673 412.910 8.44686 45.9013
  674 116.623 32.6383 -7.40479
  675 116.261 32.8605 7.41429
  676 -65.1621 4.86249 -15.4506
  677 -64.9722 4.85027 15.4183
  678 -78.3881 5.50654 -18.2101
  679 -78.2011 5.49503 18.1706
  680 707.983 -11.3154 0.857417
  681 2.44053 -25.1374 -45.3876
  682 708.375 -11.8629 -1.63215
  683 915.564 69.3068 -8.87466
  684 -87.7803 0.456853 15.0238
  685 -87.8766 0.455840 -15.0519
  686 101.679 30.6255 -15.0124
  687 100.969 30.9430 15.0387
  688 -158.907 -0.165751 -1.08955
  689 -158.646 -0.165393 1.08636
  690 3.15637 -22.2297 45.2649
  691 -53.7500 1.04950 32.3078
  692 -53.8462 1.04408 -32.3675
  693 780.330 -55.7113 -17.5535
  694 134.959 0.425286 -1.55339
  695 134.886 0.426666 1.55373
  696 39.1471 9.79991 7.64926
  697 39.0038 9.81766 -7.66367
  698 423.347 -16.3871 -116.687
  699 426.149 -17.0493 118.666
  700 1388.77 101.097 116.519
  701 30.7441 -101.030 -58.6785
  702 -9.24248 -20.1123 46.2231
  703 -9.23924 -20.2069 -46.3497
  704 97.7362 17.4726 -3.69383
  705 97.8568 17.4409 3.68954
  706 628.952 -1.78206 -4.96627
  707 629.205 -1.78613 4.96941
  708 311.727 1.61767 4.66924
  709 311.686 1.61696 -4.66437
  710 32.0041 23.3930 28.9637
  711 31.8036 23.4582 -29.0493
  712 27.5020 3.94151 2.69486
  713 27.3595 3.94654 -2.70132
  714 -14.6423 5.72250 45.6100
  715 -14.7895 5.70551 -45.7286
  716 522.018 -2.85305 4.14435
  717 521.839 -2.84987 -4.13976
  718 456.020 0.769573 11.1038
  719 455.884 0.774807 -11.0940
  720 67.1737 -22.4087 68.6678
  721 68.8321 -25.2907 -66.7394
  722 -31.2377 8.22505 39.7189
  723 -31.3892 8.22829 -39.8141
  724 21.6315 -35.1811 16.7279
  725 6.25121 15.2992 40.1430
  726 6.01090 15.3250 -40.2299
  727 -91.8894 2.34344 -9.96073
  728 -91.6825 2.33821 9.93934
  729 89.1530 24.5448 8.55399
  730 88.9896 24.6061 -8.56457
  731 706.810 -20.2651 -30.7600
  732 668.469 -55.9823 -25.7366
  733 -10.3292 -21.2539 33.5584
  734 -10.3211 -21.3638 -33.5251
  735 269.828 11.5233 -176.824
  736 263.317 16.7495 178.032
  737 167.968 31.8495 -35.0055
  738 167.519 32.1469 35.2566
  739 16.3495 -19.9281 33.4964
  740 -0.874431 -71.6775 -19.0224
  741 339.105 15.7699 -44.5699
  742 339.216 15.7120 44.7578
  743 0.775428 -139.386 17.2243
  744 206.976 24.9960 -16.7366
  745 206.897 25.0391 16.8051
  746 662.683 -1.73731 -12.1771
  747 662.895 -1.80746 12.0692
  748 14.4672 -170.040 10.9993
  749 312.795 19.8330 34.6383
  750 312.744 19.8537 -34.5201
  751 90.0719 31.4875 0.115784
  752 90.5316 31.2003 -0.193098
  753 -118.616 0.772443 -10.2475
  754 -118.466 0.771755 10.2255
  755 342.876 2.22294 -8.44510
  756 342.937 2.22199 8.45377
  757 218.328 28.4959 -26.1849
  758 218.215 28.5663 26.3159
  759 8.38949 18.2943 29.8820
  760 8.19848 18.3430 -29.9523
  761 670.356 -48.1401 17.3314
  762 -93.9065 1.60688 7.42421
  763 -94.1204 1.60968 -7.43771
  764 1386.81 301.346 -213.417
  765 -28.4105 2.81249 7.11555
  766 -28.5875 2.81827 -7.12933
  767 566.446 -0.862011 23.0080
  768 566.222 -0.784491 -23.0267
  769 1051.57 61.4877 -1.83714
  770 634.540 -2.86284 -9.17189
  771 634.789 -2.87620 9.16749
  772 415.616 2.54167 14.2864
  773 415.505 2.54991 -14.2728
  774 617.701 -57.5227 188.988
  775 277.057 16.3446 -15.3794
  776 277.070 16.3488 15.4152
  777 6.98639 -97.6842 16.9628
  778 706.480 -80.6666 70.6142
  779 431.078 -2.12613 2.36150
  780 430.959 -2.12473 -2.35937
  781 556.279 -1.74090 1.24225
  782 556.077 -1.73917 -1.24071
  783 -2.29344 -55.5448 -32.5863
  784 3.94456 -90.8796 28.9215
  785 264.531 27.4338 48.1045
  786 264.596 27.3860 -47.8192
  787 1365.75 10.7877 13.1526
  788 443.691 1.42505 -56.1665
  789 443.948 1.27467 56.3241
  790 -85.5840 2.84066 22.0264
  791 -85.7508 2.84756 -22.0727
  792 20.9144 -66.4119 -1.07129
  793 13.2650 -156.304 -19.9222
  794 993.396 131.912 -33.3371
  795 -0.816518 -71.5648 17.1926
  796 25.3846 16.9820 34.4577
  797 25.2971 16.9622 -34.6869
  798 143.681 24.4879 -2.36775
  799 143.566 24.5402 2.38626
  800 663.198 -30.9764 -15.8078
  801 665.033 -30.4381 14.0660
  802 761.606 163.735 -313.186
  803 -95.9717 0.443173 -2.77615
  804 -95.7531 0.442375 2.76885
  805 -50.1976 -0.141388 12.7789
  806 -50.2213 -0.143891 -12.7960
  807 53.6593 9.88232 3.38953
  808 52.5713 9.84996 -3.54617
  809 508.207 -5.08408 50.2609
  810 507.867 -4.73690 -50.0942
  811 265.362 3.32482 -3.61342
  812 265.372 3.32739 3.61747
  813 813.022 0.227648 53.0245
  814 96.6557 11.5516 -3.48887
  815 96.7671 11.5324 3.48361
  816 86.9795 17.4563 -23.8696
  817 86.2347 17.7994 24.0147
  818 0.572450 -52.5977 -42.1659
  819 1117.50 211.265 186.864
  820 -157.725 0.0133474 -3.99263
  821 -157.478 0.0132916 3.98451
  822 -0.212804 -167.894 15.5797
  823 14.7021 -19.8103 -34.0993
  824 -25.2251 -1.47591 9.65498
  825 -25.2191 -1.48019 -9.66013
  826 912.087 70.2660 -25.8405
  827 249.113 20.9901 -19.4941
  828 249.089 21.0090 19.5623
  829 627.460 -11.0778 -25.5620
  830 628.112 -11.1334 25.3221
  831 -152.018 0.982659 5.57263
  832 -152.249 0.984372 -5.58432
  833 -1.18423 -1.21983 -1.04364
  834 -1.18662 -1.22193 1.04774
  835 0.412777 -171.443 -14.9717
  836 0.794005 -176.887 -12.3297
  837 -162.705 1.36929 0.641886
  838 -162.973 1.36968 -0.643174
  839 103.567 -3.85615 -122.579
  840 394.277 1.23297 -4.59771
  841 394.373 1.23297 4.60227
  842 0.0536148 1.51250 0.860560
  843 -0.105471 1.51328 -0.861886
  844 574.949 -0.573561 -15.0884
  845 575.162 -0.598656 15.0858
  846 -65.7484 0.448824 12.0820
  847 -65.7930 0.448757 -12.1002
  848 359.001 26.5779 -258.569
  849 609.096 -50.3086 57.8570
  850 474.760 -0.834202 -5.18232
  851 474.909 -0.836199 5.18756
  852 604.176 -54.4432 -63.8343
  853 198.074 18.1656 -9.24282
  854 198.017 18.1884 9.27191
  855 268.366 13.5767 -12.2376
  856 268.374 13.5820 12.2615
  857 705.753 -14.5232 23.6392
  858 50.4129 26.8205 21.9427
  859 50.1911 26.9124 -22.0489
  860 56.6623 0.952145 0.987611
  861 56.5392 0.953755 -0.990436
  862 338.293 0.647456 4.07359
  863 338.235 0.647068 -4.06971
  864 856.789 -58.1477 115.768
  865 542.268 0.446447 -20.1314
  866 542.472 0.400647 20.1279
  867 19.2003 6.61979 5.93140
  868 19.0495 6.63072 -5.94383
  869 540.956 -2.76515 5.84821
  870 540.764 -2.76122 -5.84214
  871 -88.6685 -0.261174 -2.38054
  872 -88.4508 -0.260232 2.37821
  873 -0.421534 -55.0137 15.4298
  874 -0.569913 -55.8686 -15.5359
  875 668.469 -6.39379 59.9426
  876 -34.2009 10.2849 32.6045
  877 -34.3707 10.3064 -32.6811
  878 -0.190779 -90.0283 -16.8492
  879 267.919 6.08628 -6.61809
  880 267.931 6.09008 6.62569
  881 484.754 -23.4062 -89.7575
  882 488.176 -25.8528 90.5750
  883 -18.6713 -5.89226 -46.2602
  884 -18.5704 -5.88435 46.1408
  885 33.5373 22.8992 26.2724
  886 33.3394 22.9626 -26.3380
  887 2.22404 -198.382 9.56773
  888 12.3787 18.8989 35.9780
  889 12.1687 18.9399 -36.0655
  890 448.877 -8.41207 -80.0852
  891 447.824 -8.65573 80.6979
  892 773.063 50.4779 63.5700
  893 185.287 16.6641 6.43729
  894 185.347 16.6434 -6.41976
  895 554.507 0.953635 -14.9254
  896 554.708 0.936095 14.9299
  897 -20.7398 -8.62105 41.1990
  898 -20.7900 -8.66112 -41.2875
  899 2.14623 -200.461 -4.33599
  900 -31.9774 -1.57925 40.1095
  901 -32.0578 -1.58922 -40.1839
  902 29.9114 19.8713 -19.9455
  903 30.0873 19.8226 19.9019
  904 -1.69135 -14.0913 7.74107
  905 -1.71127 -14.0789 -7.75326
  906 56.5779 22.4367 -16.5916
  907 56.7578 22.3761 16.5567
  908 13.0794 -12.2615 39.0684
  909 11.6177 -11.3568 -41.5639
  910 546.048 -17.0724 51.7705
  911 544.849 -16.4241 -51.9186
  912 -166.969 0.224364 -0.944393
  913 -166.700 0.224511 0.942302
  914 -15.6437 -1.35754 7.33034
  915 -15.6318 -1.36027 -7.32954
  916 0.698787 -127.460 -15.1790
  917 -16.3229 -6.88207 -20.6532
  918 -16.3123 -6.86277 20.6498
  919 -65.0349 5.88378 28.3102
  920 -65.1925 5.89453 -28.3730
  921 179.399 31.6928 -18.2335
  922 179.226 31.8089 18.3281
  923 747.199 56.2715 -6.19506
  924 -0.883700 15.9501 27.0959
  925 -1.06634 15.9895 -27.1567
  926 278.274 18.9023 -86.4262
  927 278.195 19.1469 87.1949
  928 -23.9506 10.7215 21.6594
  929 -24.1287 10.7482 -21.7076
  930 864.734 -25.6141 5.76149
  931 566.130 22.7268 27.9119
  932 651.060 -5.64534 -54.1702
  933 477.795 3.14377 -34.0348
  934 478.003 3.03676 34.0711
  935 -40.3865 5.79442 -9.62332
  936 -40.2038 5.78333 9.60218
  937 -107.076 1.79910 13.6384
  938 -107.270 1.80395 -13.6686
  939 -6.62452 -21.7481 -23.9057
  940 -6.57178 -21.7581 23.9425
  941 178.509 7.92550 3.97626
  942 178.559 7.91645 -3.97212
  943 -49.4090 5.82178 35.7815
  944 -49.5428 5.82220 -35.8599
  945 563.051 -2.24104 7.48805
  946 562.844 -2.23666 -7.48112
  947 -3.96229 -47.0941 35.4855
  948 30.2022 17.8309 -16.7305
  949 30.3689 17.7910 16.6962
  950 39.4878 11.5040 9.99763
  951 39.3396 11.5272 -10.0166
  952 109.112 6.69136 -0.660943
  953 109.206 6.68233 0.657971
  954 1051.79 160.449 -57.4829
  955 -4.41040 -1.16267 -2.98194
  956 -4.41964 -1.16232 2.98706
  957 41.8599 14.5400 -19.7213
  958 42.5293 14.2692 19.5663
  959 390.204 12.0915 -37.1943
  960 390.348 12.0144 37.2858
  961 59.2040 14.8145 -8.88235
  962 59.3465 14.7853 8.86613
  963 109.577 17.2847 157.232
  964 712.148 -5.80465 -7.26482
  965 711.547 -5.60037 6.70462
  966 136.028 10.4410 140.531
  967 144.968 3.00042 -1.69198
  968 144.901 3.00397 1.69217
  969 358.601 2.11012 -224.476
  970 271.431 1.03477 2.10750
  971 271.416 1.03310 -2.10591
  972 37.2334 -25.2235 -1.50952
  973 41.1269 -19.7106 4.59469
  974 627.031 -1.34260 2.54462
  975 626.780 -1.34104 -2.54139
  976 -51.0647 0.369236 29.6970
  977 -51.1373 0.364525 -29.7454
  978 1128.96 144.783 78.7196
  979 -3.96828 -33.8260 -45.8266
  980 7.26243 -152.672 29.2427
  981 -0.220434 -54.4176 41.9354
  982 649.912 -1.50858 -9.35443
  983 650.158 -1.52795 9.33753
  984 -8.53955 -15.7395 20.7338
  985 -8.56633 -15.7460 -20.7185
  986 834.857 91.7459 -27.2164
  987 1382.39 9.70551 -8.66255
  988 -2.15089 -3.38009 -3.24541
  989 -2.14828 -3.38709 3.25004
  990 387.766 0.924109 -8.36876
  991 387.857 0.922499 8.37662
  992 -3.98946 -32.3622 45.9741
  993 533.736 -0.428222 29.8514
  994 533.507 -0.313457 -29.8505
  995 702.722 -44.1821 -18.6788
  996 -24.1609 -4.86407 23.2123
  997 -24.1768 -4.88418 -23.2298
  998 13.5712 -39.3090 28.8273
  999 -0.841805 -83.6752 32.9566
  1000 -0.111513 -89.4049 16.8561
  1001 745.350 45.5763 -4.74527
  1002 836.469 92.5685 10.9390
  1003 592.717 -62.7570 -108.036
  1004 9.62354 -76.9350 22.6059
  1005 11.9267 -108.457 -0.406077
  1006 173.809 1.03158 0.00195334
  1007 173.761 1.03344 -0.00215806
  1008 -6.50538 -7.43340 -10.0425
  1009 -6.49856 -7.43306 10.0490
  1010 6.71663 -63.3065 -32.4972
  1011 473.859 -2.31965 -1.90688
  1012 474.007 -2.32149 1.90888
  1013 102.525 9.40743 -58.3826
  1014 98.2778 9.62878 57.8534
  1015 -3.32817 15.4460 37.0659
  1016 -3.52968 15.4828 -37.1646
  1017 -49.0014 8.20310 -22.6885
  1018 -48.8217 8.18432 22.6390
  1019 371.903 5.76294 -82.8309
  1020 371.996 6.14453 83.6248
  1021 271.177 22.9341 -60.8112
  1022 271.077 22.9593 61.2601
  1023 291.688 17.2311 -22.2840
  1024 291.711 17.2259 22.3401
  1025 741.656 -14.1937 -66.2223
  1026 -15.1259 9.91858 41.8906
  1027 -15.3029 9.92381 -42.0129
  1028 522.939 -3.25348 41.2666
  1029 522.637 -2.99560 -41.2119
  1030 -1.97068 -24.2866 47.3386
  1031 -41.5235 -1.22944 22.2206
  1032 -41.5564 -1.23704 -22.2501
  1033 478.049 1.30938 -41.3028
  1034 478.294 1.15510 41.3627
  1035 615.586 17.3311 -48.1620
  1036 -0.303964 -82.8728 -34.5037
  1037 -6.37727 -32.4619 41.8824
  1038 -6.66546 -32.9093 -41.5549
  1039 342.447 16.3843 -31.8957
  1040 342.530 16.3452 31.9870
  1041 425.243 4.32495 17.5330
  1042 425.123 4.33933 -17.5160
  1043 701.317 -43.1759 15.6861
  1044 46.5183 1.41394 -0.227866
  1045 46.6472 1.41270 0.226998
  1046 598.507 -70.0493 115.064
  1047 8.53996 0.674620 1.72928
  1048 8.38623 0.675808 -1.73336
  1049 138.040 32.3074 -7.04675
  1050 137.828 32.4291 7.08532
  1051 56.8584 25.6962 18.3941
  1052 56.6636 25.7672 -18.4404
  1053 7.30839 -96.5833 -17.7709
  1054 182.302 3.48555 2.58515
  1055 182.347 3.48089 -2.58314
  1056 557.581 17.1568 11.7076
  1057 479.472 0.494873 15.9010
  1058 479.319 0.511031 -15.8892
  1059 -1.43080 -25.4062 -47.4297
  1060 718.132 -9.48825 -11.1931
  1061 2.90935 0.199693 45.7596
  1062 3.48964 0.534743 -45.4687
  1063 645.035 -1.84790 -5.21006
  1064 645.297 -1.85274 5.21104
  1065 688.854 -3.18164 -9.24282
  1066 688.941 -3.25892 9.06446
  1067 -0.508014 -135.098 12.5409
  1068 414.383 6.87572 -23.0247
  1069 414.501 6.84929 23.0497
  1070 498.886 1.54534 18.2383
  1071 498.717 1.56782 -18.2278
  1072 15.8173 13.8979 39.6508
  1073 15.7315 13.8903 -39.7313
  1074 1074.86 67.2125 15.0573
  1075 -11.6983 -4.28494 48.6164
  1076 -11.9396 -4.15993 -48.7611
  1077 164.959 28.7361 -8.28436
  1078 164.841 28.8019 8.32614
  1079 -75.4825 0.654806 -3.23490
  1080 -75.2758 0.654054 3.22824
  1081 265.683 18.2197 -98.9459
  1082 265.242 18.9026 99.9127
  1083 81.6831 29.0846 12.0585
  1084 81.4737 29.1742 -12.0914
  1085 183.002 25.0584 -76.2682
  1086 182.076 25.8828 76.7513
  1087 -4.26255 -44.2940 -34.6319
  1088 632.309 11.3322 65.7992
  1089 432.603 23.6503 287.198
  1090 76.8318 30.5676 12.3297
  1091 76.5936 30.6807 -12.3838
  1092 267.339 10.3000 -9.72099
  1093 267.347 10.3037 9.73755
  1094 927.680 24.4998 -1.80720
  1095 66.4995 19.7044 3.47625
  1096 65.7007 19.8720 -3.75227
  1097 -27.1524 -5.69111 30.6401
  1098 -27.1841 -5.72058 -30.6790
  1099 -0.885335 -20.9849 8.40885
  1100 -0.922422 -20.9744 -8.44369
  1101 612.255 -2.78426 23.6282
  1102 611.947 -2.58902 -23.7237
  1103 2.00385 -40.0033 44.0226
  1104 -39.6664 3.21671 -39.5551
  1105 -39.5568 3.22578 39.4772
  1106 0.184128 -161.231 -15.3107
  1107 -7.86900 -11.4694 48.5626
  1108 -7.83003 -11.1742 -48.6111
  1109 582.897 -1.22296 -9.95310
  1110 583.116 -1.23163 9.95857
  1111 605.839 -6.91030 28.9734
  1112 605.363 -6.58677 -29.0553
  1113 114.094 28.1264 -31.9199
  1114 113.252 28.5531 32.0778
  1115 -1.29262 -83.1378 -28.6437
  1116 792.269 -50.7960 -173.957
  1117 1024.83 155.310 34.1877
  1118 12.0839 -113.320 4.97188
  1119 43.1422 23.3512 -26.0683
  1120 43.3873 23.2416 25.8651
  1121 107.887 32.6911 0.777495
  1122 107.616 32.8413 -0.789300
  1123 219.548 9.28855 5.79948
  1124 219.573 9.28093 -5.78969
  1125 -12.7331 -18.1451 39.4654
  1126 -12.7187 -18.3333 -39.5401
  1127 -32.2314 11.7730 29.5648
  1128 -32.4069 11.7996 -29.6310
  1129 -7.80780 15.4283 34.0778
  1130 -7.99687 15.4642 -34.1624
  1131 583.504 -30.1367 -51.7902
  1132 586.960 -30.2365 51.5428
  1133 0.853369 -93.3105 -32.3229
  1134 320.602 3.12804 -121.211
  1135 320.941 4.06453 122.918
  1136 108.305 28.5746 -3.25554
  1137 108.468 28.4982 3.25549
  1138 306.361 206.952 317.821
  1139 86.9206 22.2911 8.34545
  1140 86.7712 22.3404 -8.35647
  1141 786.619 -74.8030 -53.3046
  1142 306.493 4.73411 7.40515
  1143 306.457 4.73331 -7.39613
  1144 -13.1933 -11.6843 24.5368
  1145 -13.2069 -11.7158 -24.5353
  1146 -15.5891 -13.8691 31.5063
  1147 -15.5953 -13.9287 -31.5184
  1148 525.642 -45.9919 -165.441
  1149 534.966 -51.1808 166.548
  1150 104.383 1.14132 2.25647
  1151 104.475 1.13937 -2.25642
  1152 336.404 14.5397 -68.6890
  1153 336.321 14.3897 69.2612
  1154 709.218 -83.8884 130.342
  1155 622.044 -2.14091 1.44069
  1156 621.799 -2.13905 -1.43885
  1157 -50.5254 8.70686 26.5542
  1158 -50.7008 8.72538 -26.6121
  1159 -89.2378 2.47841 -13.3452
  1160 -89.0362 2.47184 13.3193
  1161 171.370 28.8366 200.825
  1162 539.572 33.9912 -23.8951
  1163 307.814 18.8516 -36.2129
  1164 307.862 18.8331 36.3649
  1165 906.102 3.39296 189.384
  1166 313.081 18.7978 -51.4643
  1167 313.130 18.7438 51.7252
  1168 86.5517 7.49546 -2.08852
  1169 86.6612 7.48447 2.08322
  1170 29.2469 -79.0668 27.5805
  1171 29.4585 -76.0840 -35.2218
  1172 420.267 -22.7888 -167.368
  1173 425.544 -20.9190 167.024
  1174 170.625 30.4537 -55.9920
  1175 169.908 30.9695 56.3870
  1176 726.373 -43.9085 -40.4303
  1177 -24.2564 -1.19388 44.8163
  1178 -24.3628 -1.19692 -44.9100
  1179 0.606968 -35.4995 -45.3128
  1180 194.449 15.9878 -129.887
  1181 194.822 16.3782 131.761
  1182 -0.453781 -36.9910 9.31337
  1183 -0.389522 -37.0841 -9.43303
  1184 -166.298 1.30983 -3.85088
  1185 -166.052 1.30872 3.84287
  1186 568.738 -2.11782 -2.98968
  1187 568.949 -2.12036 2.99361
  1188 362.121 9.62434 -21.0530
  1189 362.205 9.60347 21.0890
  1190 -10.2690 1.61416 48.1119
  1191 -10.2970 1.83063 -48.2074
  1192 -0.0491161 -145.338 -13.8203
  1193 -142.960 0.274030 6.63623
  1194 -143.158 0.274761 -6.65105
  1195 122.372 11.0801 -94.9525
  1196 121.579 11.8369 97.5664
  1197 672.370 -40.5530 -9.34145
  1198 202.242 20.2563 -117.212
  1199 202.345 20.5914 118.093
  1200 -81.1756 0.467884 10.9082
  1201 -81.2421 0.467094 -10.9265
  1202 2.44142 -121.214 -21.0781
  1203 -12.9316 3.69635 -3.86546
  1204 -12.7640 3.69168 3.85683
  1205 111.142 23.2956 4.25480
  1206 111.001 23.3496 -4.25358
  1207 382.185 -1.38965 -2.56937
  1208 382.273 -1.39022 2.57153
  1209 508.414 -0.392899 12.0596
  1210 508.243 -0.382650 -12.0506
  1211 31.9733 1.72754 20.7550
  1212 31.5151 1.21476 -21.3197
  1213 5.79907 -68.1477 32.8610
  1214 916.209 135.668 9.89767
  1215 -28.0383 -2.08195 17.6357
  1216 -28.0484 -2.09170 -17.6493
  1217 4.68499 -63.8695 -34.9389
  1218 -2.54872 -42.2477 25.6625
  1219 -2.43804 -41.7771 -26.5659
  1220 720.167 -8.09651 9.81253
  1221 0.594742 -165.474 14.0033
  1222 6.71928 -45.9432 -39.0899
  1223 97.7360 0.381034 0.522722
  1224 97.6398 0.382036 -0.523579
  1225 -6.24953 -28.5379 45.6014
  1226 -70.5324 3.85181 -10.7577
  1227 -70.3349 3.84490 10.7365
  1228 1408.73 22.8888 42.0590
  1229 -38.5385 5.38881 39.5296
  1230 -38.6677 5.38356 -39.6162
  1231 358.020 12.5032 -61.9779
  1232 358.231 12.3128 62.2881
  1233 25.7253 -26.2406 -10.5746
  1234 339.615 13.7271 -26.6833
  1235 339.687 13.6988 26.7486
  1236 15.4036 -89.1018 1.80987
  1237 -6.28631 -28.6319 -45.5773
  1238 -44.7637 1.12014 5.75785
  1239 -44.9504 1.12301 -5.76887
  1240 -22.6018 3.05279 -45.3277
  1241 -22.4705 3.06647 45.2385
  1242 729.938 60.6302 43.5947
  1243 411.345 2.75404 -64.3994
  1244 411.735 2.70863 64.5498
  1245 -171.684 0.231998 -1.12792
  1246 -171.417 0.231950 1.12479
  1247 368.819 5.25208 -14.1063
  1248 368.898 5.24716 14.1216
  1249 -174.076 -3.33394 -0.530193
  1250 -174.353 -3.33662 0.530328
  1251 547.472 -38.0679 -73.9035
  1252 -82.7924 1.53132 22.5008
  1253 -82.9160 1.53087 -22.5465
  1254 552.518 -40.2178 73.2376
  1255 376.184 10.0507 -27.8630
  1256 376.285 10.0117 27.9117
  1257 46.4539 -57.7701 -93.4703
  1258 0.894889 -113.158 -27.4449
  1259 -1.83039 -47.1331 42.6304
  1260 1127.69 234.787 -192.881
  1261 -0.187238 -107.330 27.4528
  1262 1186.07 113.169 -84.6316
  1263 -0.842192 -199.506 -12.4815
  1264 69.6690 3.74407 0.229669
  1265 69.7847 3.73906 -0.232930
  1266 -0.472210 -47.4061 9.74629
  1267 -0.371697 -47.6672 -9.72858
  1268 215.771 1.97255 1.30380
  1269 215.792 1.97001 -1.30284
  1270 732.940 -50.6149 37.7469
  1271 25.9777 3.85774 -4.47257
  1272 26.1220 3.85167 4.46392
  1273 4.25043 -209.150 3.05259
  1274 2.72345 -223.928 -3.11436
  1275 673.676 -77.1444 -81.9739
  1276 -1.71279 -60.0749 28.1125
  1277 723.332 51.3952 -57.9339
  1278 -2.07628 -79.1256 27.4911
  1279 1.52571 -211.576 -8.45858
  1280 345.741 6.11162 -16.1089
  1281 345.806 6.09993 16.1327
  1282 -0.302011 -119.241 12.4138
  1283 -0.231534 -97.4799 -27.7218
  1284 1521.43 294.362 246.549
  1285 624.610 -0.394081 1.05199
  1286 624.364 -0.393393 -1.05100
  1287 20.6484 5.10045 34.9472
  1288 20.0630 5.78894 -35.1522
  1289 -5.78686 10.6757 44.0354
  1290 -6.05421 10.6712 -44.1848
  1291 686.034 -11.4968 -38.4715
  1292 629.503 -27.2098 -31.3267
  1293 629.063 -30.7405 31.8719
  1294 104.750 8.67979 1.61629
  1295 104.648 8.69329 -1.62002
  1296 -97.7339 2.55611 -16.7350
  1297 -97.5515 2.55031 16.6975
  1298 700.583 -85.7841 -113.083
  1299 -5.15937 -12.6593 13.0388
  1300 -5.18078 -12.6537 -13.0350
  1301 743.412 -26.0496 62.6333
  1302 -7.35678 -28.3878 34.3284
  1303 -7.27021 -28.4977 -34.1721
  1304 -55.3893 3.41008 7.04293
  1305 -55.5813 3.41586 -7.05769
  1306 120.136 19.7880 -53.6390
  1307 118.988 20.4133 53.5621
  1308 185.577 1.89673 -0.725953
  1309 185.536 1.89957 0.726121
  1310 -66.1233 6.97114 26.7145
  1311 -66.2915 6.98455 -26.7715
  1312 588.473 0.00637910 1.63460
  1313 588.250 0.00692877 -1.63311
  1314 338.081 10.0089 221.980
  1315 486.481 -1.74123 4.30274
  1316 486.325 -1.73933 -4.29845
  1317 334.797 7.70552 -93.3024
  1318 334.747 7.35431 93.9832
  1319 3.53469 -118.978 -12.5510
  1320 134.856 32.6728 -27.4531
  1321 134.272 33.0240 27.6179
  1322 -1.34778 -1.11856 -1.70585
  1323 -1.35441 -1.11867 1.71069
  1324 423.148 9.31202 34.9994
  1325 422.988 9.39874 -34.9400
  1326 217.347 13.9112 8.90311
  1327 217.380 13.8987 -8.88338
  1328 313.977 13.7422 -19.2176
  1329 314.021 13.7326 19.2588
  1330 403.469 -0.985565 -4.36474
  1331 403.570 -0.986400 4.36861
  1332 -12.6859 -6.05152 -14.6848
  1333 -12.6805 -6.04227 14.6889
  1334 -111.381 -0.375510 4.13630
  1335 -111.607 -0.375146 -4.14548
  1336 -20.9951 -9.35077 -35.0267
  1337 -20.9688 -9.29872 34.9792
  1338 -57.0916 -0.0165860 1.59937
  1339 -57.2880 -0.0169771 -1.60235
  1340 -176.745 1.49169 0.623674
  1341 -177.022 1.49234 -0.624928
  1342 748.516 -79.3799 150.687
  1343 575.876 -1.73038 -54.6962
</Section>

newXOutput 91

<Section columns = "stress_xx | stress_yy | stress_xy">
  1 648.478 -1.46440 0.733112
  2 648.739 -1.46569 -0.733498
  3 -193.478 0.777425 -2.70823
  4 0.304084 0.0585335 0.550689
  5 1142.47 395.672 396.011
  6 1293.12 441.657 -383.205
  7 0.302416 0.0570630 -0.548467
  8 -193.184 0.777335 2.70632
  9 646.685 -1.41769 -2.17131
  10 647.331 -2.40685 -3.44273
  11 653.345 -2.44121 -1.01197
  12 654.243 -2.47328 -4.18709
  13 656.367 -2.47902 -1.48251
  14 669.729 -2.23589 -1.98068
  15 674.732 -3.04060 -5.63703
  16 680.492 -1.71116 -3.97886
  17 684.569 -0.586917 -7.65032
  18 711.591 -4.53027 -6.53969
  19 724.055 -3.74031 -8.27580
  20 738.320 -5.25840 -3.86994
  21 746.086 -6.64585 -2.87815
  22 744.532 -7.32279 7.59268
  23 724.573 -7.84943 17.0296
  24 675.959 -7.87004 37.8078
  25 593.768 5.92091 44.4267
  26 528.620 7.77867 40.3778
  27 435.438 12.9474 24.3426
  28 460.089 12.5587 3.18910
  29 397.630 35.7411 -14.9427
  30 507.163 17.1607 -45.3871
  31 564.589 5.07239 -36.8169
  32 664.774 -1.17962 -32.0493
  33 718.441 -9.51066 -20.6911
  34 744.046 -8.50036 -7.47946
  35 745.193 -6.47354 2.96177
  36 737.755 -5.20161 3.71435
  37 723.955 -3.75841 8.08745
  38 711.693 -4.57632 6.43915
  39 684.799 -0.611783 7.61034
  40 680.759 -1.72056 3.96700
  41 675.014 -3.04736 5.63709
  42 670.012 -2.23970 1.98159
  43 656.641 -2.48209 1.48454
  44 654.512 -2.47592 4.19144
  45 653.613 -2.44334 1.01373
  46 647.592 -2.40884 3.44583
  47 646.946 -1.41899 2.17325
  48 613.905 0.546423 -0.863464
  49 571.042 -1.13816 -1.82054
  50 517.066 -4.19621 -1.68948
  51 460.666 -1.26726 -1.40430
  52 410.793 -1.98490 -1.09288
  53 357.034 -0.325436 -1.27307
  54 303.576 2.54739 -0.662013
  55 247.671 2.01813 -1.57140
  56 201.023 0.730345 -2.27810
  57 139.426 -0.289027 -2.39965
  58 76.5396 1.40157 -1.85172
  59 23.8465 1.25254 -1.79216
  60 -42.1794 0.475951 -1.59341
  61 -91.2911 -1.39486 -4.23374
  62 -138.920 -3.63799 -1.89478
  63 -187.422 0.250380 1.41996
  64 -198.188 3.38692 -0.337352
  65 -199.243 1.41978 0.816992
  66 -192.772 0.622563 0.00703791
  67 -195.802 2.13530 -2.19624
  68 -193.157 2.64105 0.162267
  69 -183.126 0.732814 -3.46442
  70 -186.444 1.64596 -3.78207
  71 -182.351 1.53546 -1.94956
  72 -169.230 0.907002 -3.11665
  73 -163.993 1.77802 -5.41610
  74 -154.481 2.03373 -4.32780
  75 -137.257 1.02145 -7.91682
  76 -127.714 0.322794 -6.59939
  77 -109.992 0.459114 -7.73463
  78 -94.8723 0.415236 -8.69256
  79 -81.4661 0.162545 -6.86687
  80 -62.5891 0.428245 -6.95187
  81 -46.2161 -0.128064 -7.49094
  82 -30.3478 -0.783149 -6.65564
  83 -17.6965 -0.692950 -5.14620
  84 -8.79251 -1.25026 -4.33537
  85 -1.61775 -0.725827 -1.59236
  86 -0.00815048 -0.831209 -0.598975
  87 -0.443436 -0.520107 -0.163094
  88 -1.13985 -1.36201 -1.40164
  89 -1.11064 -7.46482 -3.77775
  90 -0.925305 -16.5392 -5.31596
  91 -0.461659 -27.9210 -7.70925
  92 -0.220467 -42.7472 -6.63362
  93 -0.136206 -56.2218 -8.33270
  94 -0.991502 -72.4506 -9.33671
  95 -0.409185 -92.6303 -9.34823
  96 0.185052 -112.929 -8.90583
  97 0.432541 -134.577 -8.74460
  98 0.691951 -156.679 -8.52729
  99 -0.0386384 -172.348 -11.4792
  100 1.08133 -195.194 -10.2157
  101 1.39028 -221.732 -7.85721
  102 -0.298112 -231.986 -10.3812
  103 1.97396 -249.756 -9.38535
  104 5.09859 -273.067 -3.07693
  105 10.0740 -275.885 -4.94906
  106 7.84234 -240.787 12.4855
  107 12.7421 -162.192 39.7977
  108 52.5628 -52.0135 101.206
  109 154.926 325.471 298.326
  110 1742.51 101.282 178.470
  111 1506.21 27.6234 63.9069
  112 1458.03 8.75304 15.2500
  113 1447.03 1.52513 -2.26700
  114 1457.45 14.2952 -33.5543
  115 1506.60 50.9652 -76.8363
  116 1701.12 197.293 -227.432
  117 380.327 257.662 -362.070
  118 90.8261 -53.2267 -118.761
  119 27.3352 -178.360 -47.5421
  120 7.90996 -226.915 -12.9140
  121 8.26169 -264.641 1.10177
  122 2.26032 -261.783 1.76049
  123 0.681910 -243.434 7.58378
  124 0.817588 -230.594 5.91675
  125 1.23186 -209.104 11.3547
  126 -0.0510115 -197.208 11.3297
  127 0.483391 -178.650 8.09908
  128 0.998384 -154.900 10.5519
  129 0.227447 -137.828 8.34679
  130 0.278782 -112.961 10.5714
  131 -1.12977 -93.7819 9.12206
  132 -0.753675 -72.5022 9.03321
  133 -0.0825510 -55.8925 8.34903
  134 -0.294738 -42.4935 6.63945
  135 -0.447657 -27.8384 7.63160
  136 -0.910968 -16.5289 5.28913
  137 -1.10460 -7.47630 3.77516
  138 -1.13815 -1.37487 1.40453
  139 -0.443326 -0.525534 0.166788
  140 -0.0148223 -0.831898 0.602210
  141 -1.62998 -0.725239 1.59627
  142 -8.80969 -1.24874 4.33872
  143 -17.7183 -0.690540 5.14667
  144 -30.3625 -0.780199 6.65188
  145 -46.2141 -0.125628 7.48188
  146 -62.5678 0.428726 6.94141
  147 -81.4180 0.163929 6.85571
  148 -94.7992 0.417031 8.67921
  149 -109.885 0.459262 7.72006
  150 -127.573 0.322951 6.58513
  151 -137.094 1.02086 7.90209
  152 -154.284 2.03240 4.31572
  153 -163.777 1.77646 5.40558
  154 -168.993 0.905964 3.10930
  155 -182.095 1.53425 1.94431
  156 -186.178 1.64503 3.77634
  157 -182.855 0.732617 3.45943
  158 -192.873 2.63948 -0.164337
  159 -195.513 2.13406 2.19329
  160 -192.482 0.622485 -0.00802031
  161 -198.947 1.41911 -0.817028
  162 -197.891 3.38497 0.336670
  163 -187.133 0.250654 -1.41940
  164 -138.665 -3.63486 1.89324
  165 -91.0686 -1.39314 4.23076
  166 -41.9897 0.476157 1.59189
  167 23.9927 1.25174 1.79064
  168 76.6517 1.40007 1.85024
  169 139.498 -0.289905 2.39784
  170 201.055 0.728592 2.27657
  171 247.673 2.01563 1.57043
  172 303.542 2.54470 0.661720
  173 356.964 -0.325891 1.27243
  174 410.688 -1.98394 1.09238
  175 460.528 -1.26643 1.40366
  176 516.891 -4.19300 1.68881
  177 570.831 -1.13689 1.81957
  178 613.666 0.546502 0.863007
  179 184.746 29.1882 -14.4351
  180 184.610 29.2661 14.5086
  181 0.388260 7.17447 45.2444
  182 0.184174 7.10178 -45.2915
  183 407.163 -4.78766 -98.1407
  184 406.745 -5.50889 99.0511
  185 86.4049 23.7710 -13.6939
  186 85.4094 24.0707 13.6831
  187 68.6844 8.17254 -4.17593
  188 68.8097 8.15847 4.16701
  189 381.664 3.78116 -15.8254
  190 381.752 3.77096 15.8448
  191 1.35529 14.5856 22.4847
  192 1.17572 14.6220 -22.5344
  193 442.654 8.06684 -37.9174
  194 442.852 7.95872 37.9902
  195 -16.2472 -13.9225 38.5227
  196 -16.2498 -14.0120 -38.5839
  197 5.52128 -30.8938 -42.8777
  198 145.198 18.2147 -95.5709
  199 6.43060 -33.2337 41.6647
  200 142.994 19.2319 96.7852
  201 622.735 -75.2019 -140.443
  202 642.814 -78.0937 135.447
  203 232.197 4.24935 -4.35064
  204 232.182 4.25325 4.35527
  205 -23.8327 1.19242 -3.71226
  206 -23.6555 1.19068 3.70539
  207 -44.9449 7.80254 35.1684
  208 -45.1005 7.81376 -35.2503
  209 233.735 17.6690 -11.2241
  210 233.709 17.6849 11.2524
  211 75.9812 30.2797 10.6001
  212 75.6816 30.4488 -10.7020
  213 -54.3830 6.01261 -12.9096
  214 -54.1916 6.00083 12.8829
  215 498.480 -1.96352 7.09545
  216 498.317 -1.95955 -7.08853
  217 18.2416 -57.0782 12.9193
  218 19.7934 -50.7706 -10.3325
  219 -4.08622 -39.8353 42.8774
  220 -4.23886 -41.5699 -41.5966
  221 217.636 30.2647 -45.0096
  222 217.391 30.4256 45.3295
  223 -42.6908 0.332204 36.8819
  224 -42.7789 0.322872 -36.9483
  225 533.095 0.403346 -19.8765
  226 533.286 0.372038 19.8822
  227 576.768 -10.5836 -40.0283
  228 577.248 -11.1012 39.9741
  229 929.298 66.9307 2.37701
  230 853.554 99.7989 29.5935
  231 831.476 5.03231 -53.8205
  232 112.076 21.0720 4.01533
  233 111.947 21.1163 -4.01675
  234 13.4325 19.2996 32.7921
  235 13.2262 19.3534 -32.8739
  236 644.640 -38.6472 -31.3875
  237 641.049 -39.0713 33.5624
  238 361.189 -0.290623 -6.12821
  239 361.261 -0.291796 6.13434
  240 -73.1465 5.36897 22.8147
  241 -73.3257 5.38112 -22.8645
  242 -10.7403 -10.5377 -17.7500
  243 -10.7274 -10.5273 17.7567
  244 -77.0245 1.23110 6.00907
  245 -77.2328 1.23411 -6.02148
  246 301.965 18.9313 -28.1225
  247 301.995 18.9201 28.2081
  248 381.176 9.09737 -57.4190
  249 381.406 8.96394 57.6432
  250 101.350 3.41302 1.13778
  251 101.448 3.40890 -1.13917
  252 224.831 21.3801 -193.884
  253 263.989 26.1626 209.040
  254 34.1227 16.5235 29.5067
  255 33.9881 16.8215 -29.6840
  256 865.524 -49.1180 -36.4483
  257 85.2375 28.2751 9.34202
  258 85.0521 28.3534 -9.36163
  259 221.841 25.9116 -77.9327
  260 221.379 26.4519 78.5806
  261 975.098 147.478 14.1453
  262 577.999 -2.08786 26.8551
  263 577.733 -1.94602 -26.8842
  264 -5.03356 -31.8260 -27.4452
  265 -4.86266 -31.9448 27.5469
  266 -0.830700 -74.1673 -36.6248
  267 3.23712 -83.9586 -31.7402
  268 1.86134 -85.1620 34.0902
  269 -12.8315 -10.9029 48.3584
  270 -12.8992 -10.8991 -48.5858
  271 34.3063 -56.3723 -22.9715
  272 37.0481 -50.5793 28.8509
  273 -32.9373 -2.60935 24.0408
  274 -32.9650 -2.62272 -24.0688
  275 417.740 8.05818 -24.2431
  276 417.868 8.02203 24.2752
  277 722.676 -69.1935 -17.6263
  278 170.374 10.8855 3.26094
  279 170.434 10.8722 -3.25599
  280 -1.60700 -69.7904 35.1388
  281 25.0021 13.6299 12.9525
  282 24.8405 13.6592 -12.9794
  283 1132.61 76.2491 -38.1248
  284 557.820 -1.74368 8.49984
  285 557.617 -1.73652 -8.49315
  286 388.006 -13.4539 -145.332
  287 391.004 -13.1921 147.210
  288 721.881 -65.8383 6.10465
  289 -65.7827 2.26852 28.8337
  290 -65.8947 2.26686 -28.8905
  291 701.243 -36.5934 231.973
  292 -27.0665 6.00341 43.0339
  293 -27.2017 5.98847 -43.1315
  294 128.790 34.9838 -18.5658
  295 128.283 35.2927 18.6572
  296 -112.763 0.379726 0.893313
  297 -113.000 0.379211 -0.895533
  298 593.273 37.8889 -310.917
  299 -110.157 2.04760 -11.8731
  300 -109.948 2.04264 11.8472
  301 -1.27275 -11.9128 47.9966
  302 0.658790 -11.3954 -47.2568
  303 272.521 25.0281 -40.0542
  304 272.489 25.0536 40.2462
  305 68.6299 4.70862 3.18807
  306 68.5092 4.71572 -3.19454
  307 281.407 7.09227 -9.63214
  308 281.424 7.09486 9.64467
  309 29.2747 -12.7058 19.4525
  310 26.7336 -16.4256 -19.9413
  311 273.232 1.31234 -2.75257
  312 273.246 1.31413 2.75509
  313 -92.6560 2.46213 20.7625
  314 -92.8058 2.46518 -20.8069
  315 72.3924 2.65676 -27.1775
  316 70.4110 2.52728 25.3175
  317 579.137 -2.22115 2.39537
  318 578.920 -2.21889 -2.39230
  319 1247.00 69.1522 55.4067
  320 143.446 15.3371 -0.999598
  321 143.357 15.3609 1.00483
  322 -17.5131 5.21508 7.94304
  323 -17.6873 5.22547 -7.96059
  324 193.142 22.4256 -10.5824
  325 193.065 22.4613 10.6236
  326 27.1864 20.8444 33.4634
  327 27.0173 20.8783 -33.5917
  328 3.09060 -122.857 22.6442
  329 -118.008 -0.316934 -2.31418
  330 -117.770 -0.316361 2.30933
  331 449.071 -1.90336 -4.68115
  332 449.201 -1.90526 4.68566
  333 472.535 0.0960899 -12.3988
  334 472.682 0.0860332 12.4096
  335 -111.628 1.52915 -8.21059
  336 -111.404 1.52595 8.19447
  337 10.1229 0.663133 0.414107
  338 9.96752 0.663720 -0.416224
  339 -2.54440 -52.6301 27.2183
  340 -2.00264 -54.7501 -27.1754
  341 537.819 -41.8242 -99.6300
  342 557.383 -50.1649 98.0226
  343 323.541 11.8629 -17.7657
  344 323.589 11.8563 17.7963
  345 148.919 32.7037 -13.2091
  346 148.646 32.8621 13.2808
  347 -40.6915 8.78551 18.9588
  348 -40.8749 8.80571 -19.0007
  349 972.070 44.5273 50.1562
  350 57.1386 -53.3058 -72.3577
  351 61.1038 -47.1291 75.0310
  352 -14.4869 15.2401 31.5985
  353 -14.6712 15.2742 -31.6738
  354 -25.6555 -4.54540 43.2267
  355 -25.7365 -4.56358 -43.3187
  356 1105.36 198.849 -75.0152
  357 730.575 -3.63359 75.1584
  358 668.452 -17.1071 -19.7944
  359 668.142 -16.7063 18.9219
  360 477.765 -7.24563 -63.9456
  361 477.160 -7.63077 64.0138
  362 0.997653 -148.037 -17.7250
  363 608.440 -0.426495 -14.8440
  364 608.670 -0.464627 14.8273
  365 8.63686 -136.318 11.4921
  366 736.045 58.9136 -35.1299
  367 184.700 2.89965 1.08513
  368 184.657 2.90298 -1.08618
  369 479.007 0.682645 -47.4003
  370 479.291 0.509155 47.4994
  371 511.091 1.07786 -28.2423
  372 511.291 0.999905 28.2528
  373 1.89344 4.15467 4.77992
  374 1.73142 4.16142 -4.79066
  375 304.032 16.7909 -78.0378
  376 304.024 16.9999 78.6061
  377 596.216 -1.88895 3.89322
  378 595.987 -1.88618 -3.88854
  379 351.718 15.8771 -40.3963
  380 351.820 15.8145 40.5307
  381 400.139 2.62684 10.5942
  382 400.041 2.62987 -10.5835
  383 -18.8890 -3.29657 15.0468
  384 -18.8918 -3.30622 -15.0502
  385 -4.56242 -3.22278 -4.51697
  386 -4.56409 -3.22374 4.52351
  387 800.070 -86.5550 73.1497
  388 -9.84564 -24.1573 40.0125
  389 -9.77018 -24.3851 -40.0305
  390 142.461 5.78843 0.310613
  391 142.535 5.78064 -0.311338
  392 -3.92405 -20.0760 15.1398
  393 -3.97115 -20.0491 -15.1445
  394 59.9699 21.9083 13.3116
  395 59.8036 21.9601 -13.3382
  396 653.476 -4.61385 19.8955
  397 653.146 -4.40866 -20.1298
  398 -0.522926 -35.9521 46.5099
  399 -53.3064 -0.815694 22.5064
  400 -53.3590 -0.821459 -22.5413
  401 -0.729526 -38.1507 -45.9951
  402 610.852 -1.43461 9.48746
  403 610.616 -1.42325 -9.48617
  404 -0.860200 15.0105 40.5398
  405 -1.09413 15.0452 -40.6542
  406 459.819 3.40002 -19.3974
  407 459.963 3.37750 19.4132
  408 703.134 -29.6378 -8.58869
  409 704.280 -24.3217 5.81366
  410 -1.24897 -71.3701 -29.6099
  411 70.0742 27.1250 -4.54926
  412 70.6295 26.8839 4.43640
  413 727.650 46.6264 21.2591
  414 407.608 -11.4669 -198.172
  415 417.494 -18.6313 206.565
  416 31.6880 21.5797 23.5622
  417 31.4979 21.6363 -23.6170
  418 301.269 4.42945 -6.59708
  419 301.301 4.43169 6.60421
  420 292.561 82.4790 311.309
  421 128.228 26.3274 -0.355796
  422 128.376 26.2609 0.368014
  423 8.69727 -61.9163 28.1356
  424 -0.828099 -115.234 -25.1046
  425 54.6034 27.2584 20.4042
  426 54.3899 27.3387 -20.4712
  427 68.3821 13.6707 -7.04972
  428 68.5172 13.6455 7.03698
  429 -17.2975 0.447185 -47.6687
  430 -17.1630 0.417754 47.5686
  431 151.003 31.0233 -37.8424
  432 150.354 31.4311 38.0890
  433 713.518 -20.1307 -57.8589
  434 23.5899 -2.27439 32.4698
  435 22.8997 -2.16457 -32.7444
  436 520.577 -22.8229 -70.5669
  437 522.516 -24.2613 70.5495
  438 -123.090 0.843576 -12.1141
  439 -122.896 0.840565 12.0874
  440 -0.0113982 -113.939 22.8059
  441 -0.748192 -72.7386 26.4341
  442 -49.3576 3.73534 36.7711
  443 -49.4735 3.73029 -36.8454
  444 373.466 -0.478163 -2.40483
  445 373.547 -0.478279 2.40736
  446 -10.7347 -16.9938 27.6406
  447 -10.7583 -17.0385 -27.6197
  448 241.100 17.9829 -112.156
  449 240.555 18.9357 113.168
  450 2.03156 -134.667 -23.5976
  451 1243.91 39.6587 0.0943799
  452 3.92986 -153.737 -10.2937
  453 -141.111 -0.502281 -3.82947
  454 -140.862 -0.502109 3.82244
  455 -52.4887 8.19764 28.5707
  456 -52.6615 8.21449 -28.6365
  457 -66.6726 1.02983 22.4118
  458 -66.7499 1.02863 -22.4497
  459 261.693 23.5792 -28.8385
  460 261.667 23.6090 28.9538
  461 387.305 11.5721 -31.1669
  462 387.426 11.5178 31.2336
  463 -5.05816 -21.3008 48.3677
  464 -5.06569 -21.1571 -48.5765
  465 680.520 16.8486 -72.5340
  466 50.1685 -3.34235 2.02801
  467 48.3958 -3.78680 -1.09886
  468 11.7559 -131.689 -9.30981
  469 7.86437 -155.650 3.73587
  470 -19.6574 -8.59717 28.3876
  471 -19.6733 -8.63144 -28.4072
  472 148.573 21.0386 -170.639
  473 989.879 34.2249 -124.108
  474 238.742 11.4336 10.2261
  475 238.757 11.4247 -10.2085
  476 343.840 5.66752 -106.190
  477 344.424 5.57529 107.544
  478 107.020 34.1556 2.63577
  479 106.796 34.2760 -2.64536
  480 311.224 21.3188 -58.6515
  481 311.274 21.2519 58.9929
  482 15.0105 8.91464 40.5256
  483 15.7030 9.26255 -40.4716
  484 -126.406 1.60248 -8.36753
  485 -126.181 1.59986 8.35020
  486 663.483 -73.0646 -61.6239
  487 521.879 -2.31141 -3.20140
  488 522.058 -2.31354 3.20472
  489 40.2554 1.70044 -1.38600
  490 40.3919 1.69769 1.38162
  491 -26.5508 11.8478 25.5808
  492 -26.7323 11.8760 -25.6383
  493 -66.1454 3.78201 -8.26147
  494 -65.9456 3.77525 8.24373
  495 239.083 19.3004 -15.2108
  496 239.056 19.3173 15.2548
  497 -22.3531 11.0397 37.7703
  498 -22.5285 11.0607 -37.8669
  499 606.556 -18.7683 -38.4115
  500 607.615 -19.5433 38.1096
  501 406.581 3.02015 -71.2987
  502 405.907 2.81880 71.8441
  503 158.887 3.88258 0.454973
  504 158.948 3.87791 -0.455486
  505 2.32458 -67.4226 -38.7010
  506 715.021 -23.1815 46.9989
  507 11.6098 -40.9239 -32.4144
  508 212.538 31.6603 30.9523
  509 212.713 31.5453 -30.7735
  510 656.353 -68.3416 61.1444
  511 55.1166 -34.0510 95.1733
  512 774.456 -83.8600 -116.096
  513 532.228 -0.791983 34.1424
  514 531.962 -0.629627 -34.1229
  515 2.36148 -57.2036 40.3048
  516 -10.4907 -3.07196 -8.15672
  517 -10.4939 -3.06960 8.16134
  518 77.1286 1.07484 -0.114950
  519 77.2406 1.07331 0.113617
  520 -1.73360 -41.1403 17.6660
  521 -1.57258 -40.9562 -17.7643
  522 439.242 1.01021 8.04396
  523 439.118 1.01198 -8.03640
  524 1204.63 230.369 113.611
  525 56.1405 -19.3176 -27.0729
  526 44.0663 -30.2508 17.9042
  527 -2.14089 8.13161 -10.9962
  528 -1.97211 8.11411 10.9726
  529 -104.159 1.62338 13.2184
  530 -104.285 1.62510 -13.2442
  531 1.15250 -127.130 24.0361
  532 -136.837 0.816389 0.720199
  533 -137.089 0.816272 -0.722641
  534 144.300 9.08036 -128.335
  535 141.401 10.9490 132.705
  536 133.078 27.7299 -50.5030
  537 132.114 28.2425 50.7072
  538 -27.4471 -5.32156 38.1948
  539 -27.5017 -5.34930 -38.2623
  540 133.125 8.29066 -0.749311
  541 133.042 8.30205 0.748825
  542 -50.7431 1.80048 2.79005
  543 -50.9369 1.80268 -2.79788
  544 154.482 18.6549 -2.78755
  545 154.389 18.6884 2.80124
  546 -2.85293 -9.51148 7.00221
  547 -2.86330 -9.50458 -7.00137
  548 58.8877 25.5532 16.3496
  549 58.5110 25.8663 -16.5115
  550 47.5643 12.1134 12.9954
  551 46.9401 12.0696 -13.4095
  552 534.472 0.981392 14.2663
  553 534.284 0.993812 -14.2576
  554 477.326 2.94196 23.3668
  555 477.162 2.98323 -23.3502
  556 -0.476883 -110.559 -15.9920
  557 341.088 13.1514 -24.8967
  558 341.155 13.1322 24.9479
  559 340.687 4.00227 -10.1586
  560 340.745 4.00030 10.1709
  561 -32.3216 0.274233 0.452191
  562 -32.1386 0.274505 -0.453057
  563 612.708 30.5905 -13.9300
  564 745.162 -85.3190 -50.5176
  565 642.590 31.9458 53.5239
  566 5.97165 -87.6185 -26.0806
  567 -23.5315 9.52420 -15.6971
  568 -23.3524 9.50399 15.6641
  569 6.62321 -49.6752 36.7022
  570 -30.5709 1.73722 42.7811
  571 -30.6793 1.72713 -42.8636
  572 957.635 91.7012 13.2835
  573 227.359 6.66235 -5.71581
  574 227.340 6.66803 5.72284
  575 1389.86 121.941 -130.995
  576 -4.33287 -3.17405 48.7634
  577 -3.77330 -2.77606 -48.7687
  578 787.094 -60.5807 14.6003
  579 628.356 -1.18348 -16.3577
  580 628.596 -1.25073 16.3118
  581 303.529 7.37254 -152.070
  582 306.785 6.36355 154.048
  583 -15.0854 -14.3288 43.9759
  584 -15.1054 -14.4123 -44.1097
  585 163.569 21.3630 86.7052
  586 164.887 20.2881 -86.1736
  587 -120.401 1.32185 -12.0614
  588 -120.225 1.31965 12.0355
  589 926.401 96.2230 26.1876
  590 188.266 13.3637 5.19734
  591 188.318 13.3478 -5.18655
  592 220.742 27.9032 -60.9978
  593 220.393 28.2192 61.4818
  594 574.465 -3.87317 -33.0580
  595 574.813 -4.11209 33.0503
  596 -2.11552 -55.7409 -39.2464
  597 615.267 -1.93119 4.98874
  598 615.024 -1.92773 -4.98394
  599 -78.1171 0.852560 -0.755733
  600 -77.9044 0.852309 0.752101
  601 -147.147 -1.49793 -0.140183
  602 -147.408 -1.49963 0.139614
  603 15.2132 -75.9555 -6.88450
  604 -5.47964 -36.8033 34.3577
  605 -5.77921 -34.7340 -34.5813
  606 -67.2458 4.46734 30.3063
  607 -67.3831 4.47168 -30.3702
  608 441.935 7.14734 29.9301
  609 441.780 7.21001 -29.8927
  610 328.748 0.431312 2.30429
  611 328.697 0.430298 -2.30228
  612 79.7289 -6.23637 59.5898
  613 81.9416 -4.63967 -59.1435
  614 -2.17492 -28.7855 15.0030
  615 -2.24810 -28.7004 -15.0575
  616 735.067 90.2071 333.570
  617 -37.0587 -1.05176 13.7991
  618 -37.0686 -1.05733 -13.8134
  619 15.4793 -45.0679 -24.0966
  620 322.875 8.73941 -13.7893
  621 322.920 8.73708 13.8092
  622 164.849 33.4628 -25.8957
  623 164.501 33.6740 26.0593
  624 1.54355 -185.902 6.83036
  625 126.018 31.1692 -1.28606
  626 125.841 31.2611 1.30089
  627 -3.34884 12.2514 19.0201
  628 -3.52450 12.2798 -19.0605
  629 -0.871272 -96.8331 21.7809
  630 -149.839 -0.153607 -3.91635
  631 -149.587 -0.153744 3.90889
  632 217.489 2.09621 2.56334
  633 217.512 2.09333 -2.56126
  634 520.867 -1.28006 9.69754
  635 520.689 -1.27390 -9.68907
  636 467.821 -15.9687 256.042
  637 377.854 5.52760 -19.2854
  638 377.943 5.51096 19.3117
  639 9.13893 -4.09809 43.4724
  640 10.7042 -0.923518 -43.1752
  641 596.262 -44.9626 -209.284
  642 1346.42 44.6138 -54.3226
  643 -141.223 -0.0442054 -8.10010
  644 -141.009 -0.0454710 8.08326
  645 47.1783 5.91206 -3.89191
  646 47.3136 5.90250 3.88308
  647 -2.49159 -59.8899 35.0141
  648 812.311 57.3989 -59.6884
  649 607.840 -2.18901 0.944897
  650 607.605 -2.18696 -0.943497
  651 -38.6647 -1.81503 -31.5673
  652 -38.6098 -1.80325 31.5182
  653 -0.142652 -136.360 -20.3481
  654 617.913 -2.02731 1.93857
  655 617.670 -2.02533 -1.93584
  656 68.1213 18.4093 10.7484
  657 67.9717 18.4486 -10.7667
  658 488.052 -37.0213 -139.733
  659 496.023 -36.7592 141.044
  660 692.670 -5.54734 11.9338
  661 692.552 -5.51521 -12.2916
  662 3.18223 -168.695 14.4688
  663 -25.5075 -0.132144 -1.51381
  664 -25.3291 -0.132107 1.50986
  665 233.962 68.6029 -247.505
  666 225.648 1.45732 2.31802
  667 225.664 1.45504 -2.31650
  668 117.891 5.17798 -1.21692
  669 117.802 5.18464 1.21563
  670 137.486 11.1850 2.14504
  671 137.570 11.1685 -2.14249
  672 417.218 8.59999 -46.3820
  673 417.427 8.47295 46.5089
  674 118.063 33.0125 -7.68565
  675 117.697 33.2370 7.69436
  676 -65.6577 4.90049 -15.5467
  677 -65.4648 4.88812 15.5137
  678 -79.0521 5.55677 -18.3409
  679 -78.8621 5.54512 18.3006
  680 715.343 -11.4455 0.933370
  681 2.50635 -25.3149 -45.7785
  682 715.725 -11.9992 -1.71125
  683 925.410 70.0066 -9.13352
  684 -88.6669 0.462620 15.1666
  685 -88.7646 0.461579 -15.1951
  686 102.942 31.0334 -15.3976
  687 102.223 31.3539 15.4232
  688 -160.318 -0.174014 -1.08560
  689 -160.053 -0.173643 1.08233
  690 3.23354 -22.3762 45.6497
  691 -54.2646 1.06724 32.6142
  692 -54.3622 1.06170 -32.6746
  693 788.514 -56.0687 -17.3653
  694 136.643 0.368722 -1.58674
  695 136.569 0.370150 1.58707
  696 39.8077 9.86547 7.63901
  697 39.6623 9.88354 -7.65383
  698 428.024 -16.5018 -118.149
  699 430.850 -17.1694 120.146
  700 1402.20 102.137 117.793
  701 31.1361 -101.354 -59.5561
  702 -9.31243 -20.2824 46.6656
  703 -9.30857 -20.3780 -46.7938
  704 99.0093 17.6126 -3.61568
  705 99.1317 17.5803 3.61103
  706 635.350 -1.81997 -5.02501
  707 635.607 -1.82409 5.02833
  708 315.179 1.55371 4.75477
  709 315.138 1.55289 -4.74979
  710 32.4978 23.6633 29.1252
  711 32.2946 23.7290 -29.2123
  712 28.0668 3.94271 2.67239
  713 27.9220 3.94785 -2.67902
  714 -14.7176 5.81604 46.0079
  715 -14.8667 5.79852 -46.1280
  716 527.442 -2.93835 4.20019
  717 527.260 -2.93513 -4.19545
  718 460.852 0.704983 11.2510
  719 460.714 0.710165 -11.2409
  720 68.0229 -22.2462 69.7053
  721 69.6948 -25.1599 -67.7543
  722 -31.4715 8.32480 40.0639
  723 -31.6250 8.32792 -40.1605
  724 21.9247 -35.3621 16.7392
  725 6.42668 15.5014 40.4460
  726 6.18321 15.5272 -40.5345
  727 -92.6480 2.35602 -10.0137
  728 -92.4377 2.35073 9.99188
  729 90.3154 24.7797 8.49658
  730 90.1496 24.8418 -8.50779
  731 714.315 -20.4508 -30.9127
  732 675.545 -56.5194 -26.2109
  733 -10.4275 -21.4595 33.8990
  734 -10.4194 -21.5705 -33.8656
  735 272.910 11.9378 -179.034
  736 266.338 17.2114 180.246
  737 169.974 32.2254 -35.6052
  738 169.520 32.5258 35.8579
  739 16.5845 -20.0096 33.7119
  740 -0.881490 -72.4220 -19.2147
  741 342.897 15.8824 -45.1951
  742 343.007 15.8249 45.3849
  743 0.781882 -140.795 17.3883
  744 209.398 25.2095 -17.0680
  745 209.318 25.2536 17.1369
  746 669.469 -1.78025 -12.3179
  747 669.685 -1.85087 12.2099
  748 14.6506 -171.313 11.2755
  749 316.307 19.9779 35.1438
  750 316.256 19.9979 -35.0245
  751 91.2075 31.8791 0.321330
  752 91.6725 31.5891 -0.400373
  753 -119.797 0.779959 -10.3390
  754 -119.646 0.779272 10.3167
  755 346.633 2.16498 -8.57689
  756 346.695 2.16415 8.58578
  757 220.873 28.7633 -26.6395
  758 220.758 28.8350 26.7713
  759 8.63875 18.4905 30.0774
  760 8.44508 18.5397 -30.1489
  761 677.447 -48.6079 17.7105
  762 -94.6552 1.60883 7.45918
  763 -94.8726 1.61167 -7.47298
  764 1400.20 304.966 -215.939
  765 -28.4540 2.81402 7.12956
  766 -28.6338 2.81990 -7.14368
  767 572.357 -0.926869 23.2874
  768 572.129 -0.849007 -23.3055
  769 1062.50 62.0366 -1.90686
  770 641.013 -2.91616 -9.27588
  771 641.266 -2.92963 9.27177
  772 420.078 2.49008 14.4825
  773 419.965 2.49820 -14.4685
  774 624.227 -57.8382 191.253
  775 280.190 16.4415 -15.6497
  776 280.203 16.4463 15.6859
  777 7.08197 -98.4900 17.0202
  778 713.906 -81.3209 71.6428
  779 435.664 -2.22278 2.39220
  780 435.543 -2.22137 -2.39001
  781 562.004 -1.80318 1.25805
  782 561.799 -1.80140 -1.25647
  783 -2.31173 -56.0956 -32.9090
  784 3.99942 -91.6889 29.1394
  785 267.566 27.7045 48.8069
  786 267.632 27.6557 -48.5193
  787 1378.79 10.8333 13.3057
  788 448.529 1.38610 -56.8902
  789 448.787 1.23564 57.0500
  790 -86.3697 2.86727 22.2122
  791 -86.5391 2.87422 -22.2592
  792 21.1928 -66.8333 -1.26796
  793 13.4362 -157.417 -20.3028
  794 1003.82 133.376 -34.0551
  795 -0.823756 -72.3105 17.3670
  796 25.7718 17.2205 34.6758
  797 25.6831 17.2001 -34.9082
  798 145.437 24.7047 -2.53676
  799 145.319 24.7579 2.55508
  800 670.172 -31.3148 -16.0924
  801 672.037 -30.7666 14.3439
  802 769.171 166.589 -316.808
  803 -96.7194 0.431615 -2.77108
  804 -96.4972 0.430811 2.76360
  805 -50.7235 -0.141322 12.9084
  806 -50.7477 -0.143855 -12.9258
  807 54.3520 10.1297 3.21630
  808 53.2513 10.0977 -3.37553
  809 513.668 -5.19043 50.9020
  810 513.325 -4.84119 -50.7321
  811 268.359 3.28110 -3.69566
  812 268.369 3.28382 3.69980
  813 821.609 0.533412 53.1069
  814 97.9255 11.6239 -3.42557
  815 98.0387 11.6042 3.42002
  816 88.0623 17.7959 -24.3694
  817 87.3096 18.1419 24.5153
  818 0.599260 -53.0634 -42.5440
  819 1128.60 214.263 189.325
  820 -159.185 0.00995862 -4.01506
  821 -158.933 0.00990995 4.00676
  822 -0.213833 -169.545 15.7115
  823 14.9180 -19.8945 -34.3244
  824 -25.4961 -1.49015 9.75642
  825 -25.4902 -1.49448 -9.76166
  826 921.579 71.4054 -25.5471
  827 251.970 21.1496 -19.8392
  828 251.946 21.1694 19.9078
  829 634.023 -11.2369 -25.8928
  830 634.683 -11.2923 25.6525
  831 -153.457 0.988012 5.61132
  832 -153.691 0.989746 -5.62324
  833 -1.19796 -1.23383 -1.05660
  834 -1.20038 -1.23594 1.06074
  835 0.414944 -173.121 -15.0916
  836 0.802840 -178.533 -12.3955
  837 -164.124 1.37706 0.641160
  838 -164.396 1.37745 -0.642480
  839 104.830 -3.31241 -124.241
  840 398.521 1.16704 -4.66915
  841 398.618 1.16709 4.67385
  842 0.345288 1.49188 0.860962
  843 0.183629 1.49267 -0.862319
  844 580.901 -0.627684 -15.2683
  845 581.118 -0.652870 15.2662
  846 -66.4315 0.453600 12.2028
  847 -66.4769 0.453530 -12.2212
  848 362.941 27.3760 -261.650
  849 615.585 -50.8052 58.6558
  850 479.755 -0.909336 -5.25345
  851 479.905 -0.911340 5.25887
  852 610.627 -54.9736 -64.7013
  853 200.402 18.2947 -9.46571
  854 200.344 18.3182 9.49491
  855 271.406 13.6423 -12.4615
  856 271.413 13.6481 12.4857
  857 713.226 -14.6625 23.7610
  858 51.1096 27.1363 22.0110
  859 50.8850 27.2290 -22.1190
  860 57.5384 0.914867 0.967821
  861 57.4134 0.916520 -0.970725
  862 342.001 0.573105 4.14033
  863 341.942 0.572650 -4.13634
  864 865.536 -58.2394 117.379
  865 547.942 0.391583 -20.3791
  866 548.149 0.345657 20.3762
  867 19.6599 6.65365 5.91909
  868 19.5067 6.66478 -5.93186
  869 546.556 -2.84268 5.92352
  870 546.362 -2.83870 -5.91726
  871 -89.3058 -0.282864 -2.39793
  872 -89.0846 -0.281894 2.39555
  873 -0.424585 -55.5927 15.5889
  874 -0.574469 -56.4563 -15.6957
  875 675.821 -6.39281 60.3413
  876 -34.4334 10.3981 32.8643
  877 -34.6056 10.4198 -32.9422
  878 -0.191977 -90.9610 -17.0179
  879 270.944 6.07116 -6.74433
  880 270.956 6.07518 6.75207
  881 490.037 -23.6369 -90.8971
  882 493.489 -26.1073 91.7235
  883 -18.8252 -5.92351 -46.6992
  884 -18.7231 -5.91537 46.5781
  885 34.0631 23.1483 26.4102
  886 33.8625 23.2124 -26.4771
  887 2.24681 -200.255 9.61500
  888 12.6418 19.1277 36.2310
  889 12.4290 19.1689 -36.3200
  890 453.797 -8.51257 -81.1082
  891 452.731 -8.75654 81.7281
  892 781.474 51.2120 63.7824
  893 187.481 16.7759 6.61847
  894 187.542 16.7546 -6.60092
  895 560.264 0.908618 -15.1061
  896 560.468 0.891059 15.1111
  897 -20.9311 -8.68999 41.6040
  898 -20.9820 -8.73051 -41.6936
  899 2.17516 -202.253 -4.29769
  900 -32.2744 -1.57972 40.4965
  901 -32.3559 -1.58986 -40.5720
  902 30.4239 20.0692 -20.0303
  903 30.6023 20.0199 19.9858
  904 -1.70851 -14.2461 7.82465
  905 -1.72865 -14.2336 -7.83698
  906 57.3783 22.6611 -16.6254
  907 57.5608 22.5998 16.5895
  908 13.2851 -12.2867 39.3551
  909 11.8051 -11.3782 -41.8822
  910 551.890 -17.2890 52.4418
  911 550.680 -16.6358 -52.5890
  912 -168.450 0.220600 -0.943348
  913 -168.177 0.220756 0.941206
  914 -15.8152 -1.37112 7.40908
  915 -15.8032 -1.37389 -7.40829
  916 0.705365 -128.767 -15.3261
  917 -16.4899 -6.94943 -20.8697
  918 -16.4791 -6.92989 20.8662
  919 -65.6098 5.94600 28.5494
  920 -65.7697 5.95683 -28.6132
  921 181.530 32.0087 -18.6113
  922 181.354 32.1264 18.7062
  923 755.668 56.8607 -6.10569
  924 -0.722348 16.1134 27.2712
  925 -0.907602 16.1533 -27.3331
  926 281.464 19.1481 -87.5834
  927 281.382 19.3950 88.3584
  928 -24.0191 10.8220 21.7945
  929 -24.1999 10.8490 -21.8436
  930 873.674 -25.4707 6.29134
  931 572.997 23.0126 28.0147
  932 658.299 -5.64580 -54.5292
  933 482.907 3.10462 -34.4690
  934 483.118 2.99736 34.5066
  935 -40.5802 5.83402 -9.65438
  936 -40.3946 5.82276 9.63276
  937 -108.056 1.81266 13.7405
  938 -108.253 1.81756 -13.7713
  939 -6.68941 -21.9697 -24.1547
  940 -6.63600 -21.9797 24.1918
  941 180.634 7.94152 4.09143
  942 180.685 7.93218 -4.08730
  943 -49.8452 5.89114 36.1014
  944 -49.9809 5.89147 -36.1810
  945 568.853 -2.30862 7.58054
  946 568.643 -2.30419 -7.57336
  947 -3.99580 -47.5571 35.8376
  948 30.7315 17.9988 -16.7896
  949 30.9007 17.9583 16.7545
  950 40.1436 11.5912 10.0025
  951 39.9931 11.6148 -10.0219
  952 110.523 6.70644 -0.600060
  953 110.618 6.69718 0.596952
  954 1062.47 162.739 -58.7377
  955 -4.46145 -1.17491 -3.01596
  956 -4.47079 -1.17454 3.02113
  957 42.4237 14.7927 -19.7504
  958 43.1010 14.5196 19.5931
  959 394.483 12.1448 -37.6989
  960 394.628 12.0679 37.7918
  961 60.0657 14.9349 -8.86467
  962 60.2104 14.9052 8.84793
  963 110.843 18.4797 159.233
  964 719.467 -5.88045 -7.37219
  965 718.867 -5.67380 6.80850
  966 137.656 11.1026 142.400
  967 146.753 2.96824 -1.74109
  968 146.685 2.97189 1.74125
  969 362.592 2.46350 -227.176
  970 274.485 0.966358 2.13984
  971 274.469 0.964616 -2.13821
  972 37.7191 -25.2676 -1.73678
  973 41.6629 -19.6974 4.86179
  974 633.386 -1.37181 2.57525
  975 633.132 -1.37022 -2.57194
  976 -51.5682 0.378010 29.9873
  977 -51.6418 0.373218 -30.0363
  978 1140.49 146.347 79.8481
  979 -3.98703 -34.1223 -46.2574
  980 7.38071 -153.585 29.7614
  981 -0.206911 -54.9128 42.3209
  982 656.537 -1.54756 -9.46037
  983 656.788 -1.56707 9.44371
  984 -8.62501 -15.8998 20.9517
  985 -8.65213 -15.9065 -20.9365
  986 843.913 92.8596 -27.0743
  987 1395.52 9.74745 -8.75830
  988 -2.17364 -3.41935 -3.28244
  989 -2.17100 -3.42642 3.28712
  990 391.952 0.854251 -8.48920
  991 392.044 0.852720 8.49727
  992 -4.00587 -32.6419 46.4042
  993 539.363 -0.497342 30.2210
  994 539.131 -0.382108 -30.2190
  995 710.164 -44.5893 -18.6504
  996 -24.4076 -4.90906 23.4521
  997 -24.4237 -4.92939 -23.4698
  998 13.7656 -39.5673 28.9982
  999 -0.843089 -84.4790 33.2603
  1000 -0.112892 -90.3334 17.0257
  1001 753.820 46.0328 -4.80769
  1002 845.611 93.6081 10.7112
  1003 599.060 -63.2997 -109.412
  1004 9.75569 -77.5535 22.7199
  1005 12.0848 -109.269 -0.571546
  1006 175.887 0.974237 -0.00962476
  1007 175.839 0.976163 0.00941358
  1008 -6.57343 -7.51162 -10.1518
  1009 -6.56653 -7.51124 10.1583
  1010 6.81583 -63.8179 -32.7294
  1011 478.840 -2.41003 -1.93315
  1012 478.990 -2.41191 1.93522
  1013 103.784 9.74059 -59.2896
  1014 99.4896 9.96456 58.7533
  1015 -3.23597 15.6294 37.3470
  1016 -3.44019 15.6664 -37.4474
  1017 -49.3530 8.28155 -22.8500
  1018 -49.1706 8.26256 22.7996
  1019 376.054 5.82176 -83.9050
  1020 376.146 6.20884 84.7068
  1021 274.287 23.1740 -61.6643
  1022 274.184 23.1998 62.1169
  1023 294.972 17.3381 -22.6358
  1024 294.996 17.3336 22.6925
  1025 749.640 -14.1904 -66.5555
  1026 -15.1841 10.0453 42.2412
  1027 -15.3634 10.0504 -42.3654
  1028 528.518 -3.34860 41.7871
  1029 528.212 -3.08930 -41.7305
  1030 -1.95589 -24.4700 47.7647
  1031 -41.9490 -1.23818 22.4456
  1032 -41.9825 -1.24586 -22.4754
  1033 483.185 1.25401 -41.8302
  1034 483.432 1.09931 41.8916
  1035 622.759 17.5971 -48.4203
  1036 -0.296897 -83.6598 -34.8194
  1037 -6.42927 -32.7660 42.2931
  1038 -6.72036 -33.2190 -41.9629
  1039 346.253 16.4848 -32.3548
  1040 346.336 16.4462 32.4472
  1041 429.807 4.29298 17.7702
  1042 429.685 4.30721 -17.7528
  1043 708.746 -43.5742 15.6428
  1044 47.2918 1.38271 -0.220842
  1045 47.4228 1.38144 0.219950
  1046 604.892 -70.6511 116.524
  1047 8.91412 0.643545 1.71589
  1048 8.75791 0.644759 -1.72008
  1049 139.724 32.6397 -7.30392
  1050 139.509 32.7629 7.34220
  1051 57.6520 25.9666 18.4381
  1052 57.4545 26.0384 -18.4855
  1053 7.40642 -97.3802 -17.8344
  1054 184.466 3.45374 2.66977
  1055 184.512 3.44891 -2.66776
  1056 564.481 17.3494 11.7577
  1057 484.540 0.429187 16.1072
  1058 484.384 0.445299 -16.0950
  1059 -1.40908 -25.6031 -47.8567
  1060 725.647 -9.59373 -11.2291
  1061 3.01208 0.266102 46.1382
  1062 3.59967 0.602852 -45.8424
  1063 651.583 -1.88190 -5.27003
  1064 651.850 -1.88680 5.27120
  1065 695.887 -3.23223 -9.35139
  1066 695.979 -3.31005 9.17239
  1067 -0.512711 -136.491 12.6632
  1068 418.854 6.86717 -23.3323
  1069 418.973 6.84093 23.3580
  1070 504.142 1.49444 18.4685
  1071 503.970 1.51691 -18.4574
  1072 16.0947 14.0960 39.9390
  1073 16.0076 14.0881 -40.0209
  1074 1085.95 67.8170 15.3010
  1075 -11.7691 -4.28785 49.0609
  1076 -12.0136 -4.16151 -49.2074
  1077 166.939 29.0015 -8.52943
  1078 166.818 29.0684 8.57119
  1079 -76.0026 0.639980 -3.23563
  1080 -75.7925 0.639221 3.22882
  1081 268.742 18.4980 -100.258
  1082 268.294 19.1872 101.233
  1083 82.7484 29.3924 12.0206
  1084 82.5362 29.4830 -12.0545
  1085 185.169 25.4443 -77.3523
  1086 184.234 26.2764 77.8388
  1087 -4.29942 -44.7312 -34.9770
  1088 639.474 11.5296 66.2279
  1089 437.251 24.4417 290.551
  1090 77.8342 30.9076 12.2863
  1091 77.5929 31.0218 -12.3418
  1092 270.366 10.3295 -9.90636
  1093 270.374 10.3335 9.92316
  1094 937.227 25.2704 -2.39260
  1095 67.3527 20.0189 3.30291
  1096 66.5449 20.1878 -3.58270
  1097 -27.4220 -5.74089 30.9501
  1098 -27.4542 -5.77067 -30.9896
  1099 -0.893978 -21.2141 8.49855
  1100 -0.931481 -21.2035 -8.53379
  1101 618.618 -2.86226 23.9113
  1102 618.305 -2.66570 -24.0063
  1103 2.05229 -40.3332 44.4088
  1104 -40.0226 3.26386 -39.9224
  1105 -39.9116 3.27314 39.8433
  1106 0.185687 -162.836 -15.4429
  1107 -7.90742 -11.5379 49.0071
  1108 -7.86759 -11.2393 -49.0558
  1109 588.892 -1.27808 -10.0726
  1110 589.115 -1.28679 10.0784
  1111 612.180 -7.03374 29.3335
  1112 611.698 -6.70780 -29.4144
  1113 115.494 28.5334 -32.5059
  1114 114.643 28.9636 32.6646
  1115 -1.30227 -83.9685 -28.9223
  1116 800.420 -50.7550 -176.129
  1117 1035.33 157.455 35.1659
  1118 12.2479 -114.138 5.20000
  1119 43.7410 23.6493 -26.1803
  1120 43.9891 23.5388 25.9742
  1121 109.235 33.0500 0.598223
  1122 108.961 33.2018 -0.610941
  1123 222.091 9.31287 5.94282
  1124 222.116 9.30491 -5.93295
  1125 -12.8500 -18.3121 39.8595
  1126 -12.8355 -18.5024 -39.9352
  1127 -32.4257 11.8949 29.7881
  1128 -32.6037 11.9217 -29.8554
  1129 -7.75176 15.6004 34.3304
  1130 -7.94343 15.6367 -34.4164
  1131 589.732 -30.4644 -52.4833
  1132 593.217 -30.5620 52.2360
  1133 0.870825 -94.1864 -32.6060
  1134 324.238 3.25381 -122.756
  1135 324.577 4.19914 124.478
  1136 109.673 28.8565 -3.13154
  1137 109.839 28.7792 3.13092
  1138 309.472 210.594 321.428
  1139 88.0663 22.4956 8.29601
  1140 87.9147 22.5456 -8.30760
  1141 794.794 -75.2928 -54.2149
  1142 309.900 4.70256 7.53875
  1143 309.863 4.70156 -7.52954
  1144 -13.3254 -11.7993 24.7921
  1145 -13.3393 -11.8312 -24.7907
  1146 -15.7412 -14.0015 31.8280
  1147 -15.7475 -14.0618 -31.8404
  1148 531.319 -46.3047 -167.443
  1149 540.715 -51.5446 168.561
  1150 105.752 1.09679 2.30757
  1151 105.846 1.09478 -2.30754
  1152 340.192 14.6793 -69.6106
  1153 340.105 14.5285 70.1880
  1154 716.639 -84.4907 132.002
  1155 628.345 -2.17964 1.45721
  1156 628.096 -2.17774 -1.45532
  1157 -50.9118 8.79408 26.7588
  1158 -51.0899 8.81280 -26.8178
  1159 -89.9852 2.49234 -13.4323
  1160 -89.7804 2.48569 13.4058
  1161 173.385 29.7811 203.346
  1162 546.266 34.3704 -23.9994
  1163 311.284 18.9933 -36.7487
  1164 311.332 18.9755 36.9021
  1165 915.225 4.18519 191.786
  1166 316.616 18.9570 -52.1828
  1167 316.664 18.9034 52.4461
  1168 87.7243 7.52231 -2.03474
  1169 87.8356 7.51107 2.02924
  1170 29.6287 -79.4538 28.1137
  1171 29.8395 -76.4288 -35.8479
  1172 424.909 -22.8819 -169.402
  1173 430.233 -20.9926 169.049
  1174 172.659 30.8701 -56.8440
  1175 171.933 31.3904 57.2419
  1176 734.100 -44.2589 -40.5606
  1177 -24.4607 -1.18180 45.2376
  1178 -24.5685 -1.18492 -45.3326
  1179 0.640477 -35.7858 -45.7125
  1180 196.736 16.4174 -131.594
  1181 197.113 16.8080 133.486
  1182 -0.458288 -37.3895 9.41115
  1183 -0.393443 -37.4837 -9.53218
  1184 -167.871 1.32045 -3.87517
  1185 -167.621 1.31933 3.86700
  1186 574.579 -2.18107 -3.03049
  1187 574.793 -2.18366 3.03454
  1188 366.096 9.64561 -21.3624
  1189 366.181 9.62505 21.3991
  1190 -10.3109 1.67286 48.5390
  1191 -10.3387 1.89194 -48.6353
  1192 -0.0517678 -146.821 -13.9515
  1193 -144.356 0.275316 6.68989
  1194 -144.557 0.276049 -6.70496
  1195 123.859 11.5239 -96.2858
  1196 123.060 12.2901 98.9286
  1197 679.470 -40.9646 -9.60390
  1198 204.620 20.6635 -118.765
  1199 204.723 20.9976 119.651
  1200 -82.0132 0.473480 11.0153
  1201 -82.0808 0.472674 -11.0339
  1202 2.47514 -122.308 -21.2203
  1203 -12.7972 3.70288 -3.85496
  1204 -12.6269 3.69812 3.84611
  1205 112.547 23.5059 4.15630
  1206 112.404 23.5607 -4.15552
  1207 386.311 -1.48316 -2.60300
  1208 386.400 -1.48373 2.60521
  1209 513.739 -0.460524 12.2153
  1210 513.566 -0.450286 -12.2059
  1211 32.4080 1.87603 20.7984
  1212 31.9443 1.35724 -21.3701
  1213 5.88666 -68.7246 33.1071
  1214 925.907 137.347 9.46988
  1215 -28.3307 -2.10088 17.8187
  1216 -28.3410 -2.11073 -17.8325
  1217 4.75789 -64.4114 -35.2156
  1218 -2.57206 -42.6802 25.9250
  1219 -2.46080 -42.2025 -26.8370
  1220 727.682 -8.18559 9.84037
  1221 0.600044 -167.142 14.1324
  1222 6.82558 -46.3081 -39.4031
  1223 99.0392 0.330045 0.518989
  1224 98.9414 0.331078 -0.519867
  1225 -6.29365 -28.7901 46.0370
  1226 -71.0551 3.87717 -10.8125
  1227 -70.8544 3.87016 10.7908
  1228 1422.12 23.0763 42.5030
  1229 -38.8664 5.45842 39.8855
  1230 -38.9974 5.45299 -39.9732
  1231 362.019 12.6005 -62.8067
  1232 362.230 12.4092 63.1198
  1233 26.0720 -26.3232 -10.4977
  1234 343.383 13.7955 -27.0762
  1235 343.456 13.7676 27.1424
  1236 15.6096 -89.7235 2.01011
  1237 -6.33110 -28.8857 -46.0139
  1238 -44.9718 1.10612 5.76805
  1239 -45.1616 1.10904 -5.77933
  1240 -22.7753 3.11267 -45.7408
  1241 -22.6422 3.12665 45.6505
  1242 738.116 61.3670 43.6947
  1243 415.873 2.74002 -65.2338
  1244 416.266 2.69568 65.3858
  1245 -173.246 0.230191 -1.12683
  1246 -172.975 0.230147 1.12362
  1247 372.835 5.22513 -14.3103
  1248 372.915 5.22041 14.3259
  1249 -175.605 -3.37198 -0.536640
  1250 -175.887 -3.37472 0.536774
  1251 553.369 -38.4547 -74.8637
  1252 -83.5983 1.54946 22.7072
  1253 -83.7237 1.54897 -22.7536
  1254 558.459 -40.6280 74.1888
  1255 380.304 10.0763 -28.2493
  1256 380.406 10.0376 28.2989
  1257 47.0155 -57.3458 -94.7634
  1258 0.907630 -114.228 -27.6782
  1259 -1.83412 -47.5684 43.0343
  1260 1138.79 238.205 -195.533
  1261 -0.186568 -108.376 27.7035
  1262 1198.01 114.344 -85.7539
  1263 -0.855100 -201.462 -12.5796
  1264 70.6749 3.73423 0.282368
  1265 70.7925 3.72910 -0.285743
  1266 -0.476226 -47.9145 9.84825
  1267 -0.374620 -48.1786 -9.83057
  1268 218.272 1.91887 1.34555
  1269 218.294 1.91624 -1.34458
  1270 740.704 -51.0258 37.8478
  1271 26.5205 3.85983 -4.46035
  1272 26.6671 3.85364 4.45147
  1273 4.29714 -210.959 2.99743
  1274 2.75440 -225.895 -3.06262
  1275 680.797 -77.7953 -83.0948
  1276 -1.72734 -60.6814 28.3937
  1277 731.398 52.0898 -58.1556
  1278 -2.09742 -79.9231 27.7625
  1279 1.54550 -213.573 -8.49423
  1280 349.544 6.09323 -16.3556
  1281 349.610 6.08182 16.3799
  1282 -0.306321 -120.475 12.5361
  1283 -0.231867 -98.4513 -27.9883
  1284 1535.83 297.811 249.228
  1285 630.929 -0.415586 1.06284
  1286 630.679 -0.414870 -1.06183
  1287 20.9568 5.24482 35.1720
  1288 20.3642 5.94083 -35.3793
  1289 -5.75230 10.8227 44.3981
  1290 -6.02311 10.8176 -44.5498
  1291 693.435 -11.5903 -38.7260
  1292 636.155 -27.5144 -31.7792
  1293 635.714 -31.0802 32.3363
  1294 106.110 8.71668 1.54526
  1295 106.007 8.73049 -1.54920
  1296 -98.6306 2.57854 -16.8668
  1297 -98.4455 2.57268 16.8286
  1298 707.944 -86.4243 -114.566
  1299 -5.21179 -12.7925 13.1788
  1300 -5.23345 -12.7869 -13.1750
  1301 751.337 -26.1842 62.9524
  1302 -7.42449 -28.6663 34.6760
  1303 -7.33694 -28.7773 -34.5180
  1304 -55.7245 3.42382 7.06088
  1305 -55.9196 3.42969 -7.07598
  1306 121.600 20.1679 -54.4847
  1307 120.440 20.7996 54.4061
  1308 187.775 1.84645 -0.767460
  1309 187.733 1.84939 0.767619
  1310 -66.6923 7.04074 26.9334
  1311 -66.8630 7.05428 -26.9914
  1312 594.480 -0.0269725 1.65148
  1313 594.254 -0.0263872 -1.64996
  1314 341.843 10.4220 224.643
  1315 491.579 -1.82364 4.35913
  1316 491.421 -1.82171 -4.35471
  1317 338.572 7.80793 -94.5107
  1318 338.519 7.45333 95.1972
  1319 3.58394 -119.972 -12.5627
  1320 136.496 33.0807 -27.9759
  1321 135.906 33.4354 28.1414
  1322 -1.36501 -1.13052 -1.72617
  1323 -1.37172 -1.13062 1.73106
  1324 427.737 9.33240 35.4613
  1325 427.576 9.41907 -35.4006
  1326 219.871 13.9868 9.09928
  1327 219.904 13.9738 -9.07941
  1328 317.481 13.8084 -19.5222
  1329 317.525 13.7993 19.5640
  1330 407.797 -1.07322 -4.42296
  1331 407.900 -1.07405 4.42693
  1332 -12.8183 -6.11241 -14.8416
  1333 -12.8128 -6.10303 14.8456
  1334 -112.304 -0.391451 4.14519
  1335 -112.534 -0.391091 -4.15458
  1336 -21.1991 -9.43461 -35.3796
  1337 -21.1723 -9.38200 35.3314
  1338 -57.4004 -0.0427557 1.59837
  1339 -57.6000 -0.0431619 -1.60142
  1340 -178.318 1.50223 0.622440
  1341 -178.600 1.50290 -0.623724
  1342 756.269 -79.8355 152.588
  1343 582.612 -1.70812 -55.0816
</Section>

newXOutput 92

<Section columns = "stress_xx | stress_yy | stress_xy">
  1 654.928 -1.49118 0.742052
  2 655.193 -1.49251 -0.742444
  3 -195.186 0.780855 -2.73413
  4 0.306624 0.0585118 0.555597
  5 1152.98 400.960 400.209
  6 1305.06 447.426 -387.324
  7 0.304933 0.0570234 -0.553346
  8 -194.887 0.780769 2.73220
  9 653.121 -1.44415 -2.19353
  10 653.776 -2.44139 -3.47624
  11 659.848 -2.47735 -1.02412
  12 660.761 -2.51254 -4.23142
  13 662.918 -2.51941 -1.50263
  14 676.405 -2.27002 -2.00590
  15 681.464 -3.08298 -5.69725
  16 687.296 -1.74028 -4.02426
  17 691.434 -0.613223 -7.73679
  18 718.710 -4.59053 -6.61343
  19 731.310 -3.79467 -8.36576
  20 745.741 -5.32686 -3.92592
  21 753.617 -6.72537 -2.92993
  22 752.130 -7.40282 7.62369
  23 732.089 -7.92708 17.1284
  24 683.214 -7.92454 38.0628
  25 600.491 6.00639 44.7358
  26 534.998 7.90400 40.6304
  27 441.249 13.0925 24.4905
  28 466.164 12.6988 3.23724
  29 403.137 36.0889 -15.0173
  30 513.395 17.3494 -45.7107
  31 571.123 5.15008 -37.0716
  32 671.958 -1.17215 -32.2774
  33 725.940 -9.60428 -20.8186
  34 751.652 -8.59258 -7.50787
  35 752.726 -6.55182 3.01530
  36 745.179 -5.26961 3.76971
  37 731.215 -3.81295 8.17655
  38 718.818 -4.63694 6.51263
  39 691.669 -0.638265 7.69692
  40 687.569 -1.74974 4.01254
  41 681.751 -3.08982 5.69747
  42 676.693 -2.27388 2.00692
  43 663.196 -2.52254 1.50473
  44 661.034 -2.51522 4.23586
  45 660.120 -2.47951 1.02592
  46 654.042 -2.44342 3.47939
  47 653.385 -1.44548 2.19550
  48 620.066 0.526226 -0.873360
  49 576.833 -1.19170 -1.83912
  50 522.382 -4.29657 -1.70307
  51 465.475 -1.35063 -1.41555
  52 415.143 -2.08257 -1.10096
  53 360.880 -0.409357 -1.28192
  54 306.911 2.49325 -0.663468
  55 250.463 1.96095 -1.58135
  56 203.354 0.667234 -2.29478
  57 141.140 -0.354314 -2.41714
  58 77.6173 1.36411 -1.86589
  59 24.3858 1.22494 -1.80590
  60 -42.3210 0.451537 -1.60435
  61 -91.9396 -1.42810 -4.27284
  62 -140.062 -3.68474 -1.91113
  63 -189.070 0.249277 1.43636
  64 -199.955 3.41735 -0.336132
  65 -201.029 1.43068 0.830651
  66 -194.505 0.625084 0.0137515
  67 -197.588 2.15337 -2.21042
  68 -194.931 2.66457 0.174285
  69 -184.820 0.737513 -3.48956
  70 -188.200 1.66111 -3.81109
  71 -184.084 1.54889 -1.95949
  72 -170.850 0.913538 -3.13797
  73 -165.590 1.79475 -5.46105
  74 -155.998 2.05395 -4.36041
  75 -138.620 1.03125 -7.98858
  76 -128.994 0.326100 -6.65878
  77 -111.106 0.463655 -7.80741
  78 -95.8471 0.420992 -8.77778
  79 -82.3117 0.165268 -6.93438
  80 -63.2456 0.433115 -7.02107
  81 -46.7061 -0.128149 -7.56690
  82 -30.6756 -0.790243 -6.72519
  83 -17.8930 -0.699405 -5.20118
  84 -8.89261 -1.26287 -4.38259
  85 -1.64004 -0.733224 -1.61085
  86 -0.0110517 -0.840310 -0.606701
  87 -0.448153 -0.527927 -0.166356
  88 -1.15156 -1.38225 -1.41808
  89 -1.12215 -7.55050 -3.81922
  90 -0.934337 -16.7240 -5.37256
  91 -0.465735 -28.2252 -7.79021
  92 -0.221928 -43.2093 -6.70291
  93 -0.135713 -56.8232 -8.41931
  94 -1.00106 -73.2141 -9.43200
  95 -0.413219 -93.5989 -9.44155
  96 0.186771 -114.103 -8.99343
  97 0.436781 -135.967 -8.82945
  98 0.699426 -158.286 -8.60805
  99 -0.0409450 -174.094 -11.5861
  100 1.09053 -197.157 -10.3092
  101 1.40382 -223.940 -7.92093
  102 -0.306091 -234.249 -10.4638
  103 1.99358 -252.140 -9.45305
  104 5.15457 -275.600 -3.05938
  105 10.1872 -278.335 -4.92394
  106 7.94911 -242.628 12.7487
  107 12.9457 -162.921 40.4668
  108 53.1352 -51.0558 102.635
  109 156.370 331.013 301.617
  110 1758.24 102.383 180.194
  111 1520.08 27.8706 64.5110
  112 1471.48 8.80159 15.4102
  113 1460.36 1.49775 -2.28539
  114 1470.88 14.3937 -33.8667
  115 1520.54 51.4376 -77.5833
  116 1716.59 199.395 -229.640
  117 384.101 262.128 -366.028
  118 91.8670 -52.3523 -120.343
  119 27.6655 -179.188 -48.2502
  120 8.01524 -228.622 -13.1775
  121 8.35827 -266.972 1.03288
  122 2.28509 -264.198 1.72726
  123 0.686696 -245.758 7.62756
  124 0.825177 -232.834 5.94838
  125 1.24482 -211.174 11.4534
  126 -0.0510621 -199.198 11.4358
  127 0.488324 -180.467 8.17351
  128 1.00984 -156.492 10.6557
  129 0.230825 -139.256 8.42856
  130 0.281657 -114.133 10.6758
  131 -1.14152 -94.7636 9.21312
  132 -0.760637 -73.2660 9.12511
  133 -0.0817208 -56.4900 8.43570
  134 -0.296943 -42.9527 6.70864
  135 -0.451527 -28.1417 7.71169
  136 -0.919837 -16.7137 5.34544
  137 -1.11604 -7.56211 3.81661
  138 -1.14983 -1.39527 1.42100
  139 -0.448041 -0.533418 0.170095
  140 -0.0178035 -0.841004 0.609972
  141 -1.65240 -0.732626 1.61480
  142 -8.90995 -1.26132 4.38596
  143 -17.9150 -0.696967 5.20164
  144 -30.6903 -0.787261 6.72136
  145 -46.7039 -0.125686 7.55772
  146 -63.2239 0.433601 7.01047
  147 -82.2628 0.166672 6.92307
  148 -95.7729 0.422817 8.76425
  149 -110.997 0.463812 7.79262
  150 -128.852 0.326267 6.64430
  151 -138.454 1.03066 7.97362
  152 -155.798 2.05260 4.34813
  153 -165.371 1.79317 5.45034
  154 -170.610 0.912490 3.13048
  155 -183.824 1.54766 1.95413
  156 -187.930 1.66017 3.80525
  157 -184.544 0.737319 3.48447
  158 -194.642 2.66297 -0.176407
  159 -197.294 2.15212 2.20741
  160 -194.211 0.625010 -0.0147602
  161 -200.728 1.42999 -0.830694
  162 -199.653 3.41537 0.335434
  163 -188.775 0.249562 -1.43579
  164 -139.802 -3.68156 1.90956
  165 -91.7135 -1.42634 4.26980
  166 -42.1283 0.451757 1.60279
  167 24.5344 1.22413 1.80434
  168 77.7311 1.36257 1.86438
  169 141.213 -0.355225 2.41530
  170 203.387 0.665424 2.29322
  171 250.464 1.95838 1.58037
  172 306.876 2.49048 0.663177
  173 360.809 -0.409840 1.28128
  174 415.036 -2.08160 1.10046
  175 465.334 -1.34978 1.41491
  176 522.204 -4.29329 1.70240
  177 576.619 -1.19037 1.83815
  178 619.824 0.526328 0.872897
  179 186.913 29.4591 -14.7583
  180 186.775 29.5382 14.8319
  181 0.479591 7.29857 45.6104
  182 0.273182 7.22424 -45.6583
  183 411.628 -4.81997 -99.3743
  184 411.202 -5.54791 100.293
  185 87.4759 24.1467 -14.0717
  186 86.4692 24.4485 14.0602
  187 69.6593 8.21153 -4.13445
  188 69.7865 8.19716 4.12524
  189 385.768 3.73862 -16.0543
  190 385.857 3.72863 16.0741
  191 1.56044 14.7240 22.6096
  192 1.37827 14.7608 -22.6603
  193 447.394 8.07686 -38.4113
  194 447.593 7.96868 38.4856
  195 -16.3984 -14.0466 38.9038
  196 -16.4011 -14.1371 -38.9659
  197 5.61777 -31.1087 -43.2251
  198 146.924 18.6569 -96.8904
  199 6.53694 -33.4704 41.9973
  200 144.698 19.6830 98.1155
  201 629.289 -75.7837 -142.167
  202 649.542 -78.6956 137.125
  203 234.839 4.21684 -4.45016
  204 234.824 4.22092 4.45485
  205 -23.7989 1.17350 -3.71194
  206 -23.6189 1.17173 3.70490
  207 -45.3071 7.89015 35.4649
  208 -45.4649 7.90141 -35.5480
  209 236.402 17.7832 -11.4547
  210 236.376 17.7997 11.4832
  211 76.9550 30.6345 10.5241
  212 76.6518 30.8054 -10.6280
  213 -54.7341 6.05705 -12.9747
  214 -54.5397 6.04511 12.9474
  215 503.642 -2.04859 7.18909
  216 503.477 -2.04461 -7.18194
  217 18.4855 -57.4474 12.8857
  218 20.0572 -51.0728 -10.2644
  219 -4.11445 -40.2026 43.2872
  220 -4.26980 -41.9579 -41.9958
  221 220.154 30.5882 -45.6970
  222 219.905 30.7510 46.0193
  223 -43.0893 0.347574 37.2303
  224 -43.1787 0.338080 -37.2976
  225 538.611 0.344094 -20.1172
  226 538.806 0.312746 20.1235
  227 582.803 -10.7452 -40.5291
  228 583.287 -11.2670 40.4764
  229 939.179 67.5626 2.45857
  230 862.669 100.981 29.4412
  231 840.137 5.38011 -53.9038
  232 113.485 21.2513 3.92224
  233 113.354 21.2963 -3.92406
  234 13.7231 19.5151 33.0070
  235 13.5141 19.5694 -33.0902
  236 651.390 -39.0415 -31.8743
  237 647.765 -39.4690 34.0738
  238 365.078 -0.375033 -6.22393
  239 365.152 -0.376141 6.23022
  240 -73.7648 5.42010 22.9902
  241 -73.9467 5.43237 -23.0408
  242 -10.8489 -10.6435 -17.9360
  243 -10.8358 -10.6329 17.9427
  244 -77.5696 1.22323 6.02355
  245 -77.7812 1.22629 -6.03624
  246 305.327 19.0584 -28.5479
  247 305.357 19.0479 28.6343
  248 385.352 9.14156 -58.1720
  249 385.583 9.00799 58.3985
  250 102.677 3.39262 1.19044
  251 102.776 3.38839 -1.19189
  252 227.392 22.0558 -196.286
  253 266.948 26.8568 211.579
  254 34.6004 16.7719 29.6535
  255 34.4645 17.0732 -29.8330
  256 874.336 -49.1865 -37.2680
  257 86.3411 28.5586 9.28120
  258 86.1532 28.6379 -9.30160
  259 224.406 26.2587 -79.0096
  260 223.938 26.8039 79.6626
  261 985.199 149.252 14.7988
  262 583.976 -2.16621 27.1789
  263 583.705 -2.02360 -27.2071
  264 -5.08085 -32.1440 -27.7233
  265 -4.90770 -32.2637 27.8259
  266 -0.831655 -74.8722 -36.9675
  267 3.28758 -84.6893 -31.9854
  268 1.89331 -85.9336 34.3767
  269 -12.9254 -10.9768 48.8080
  270 -12.9939 -10.9733 -49.0383
  271 34.7431 -56.6028 -23.4489
  272 37.5231 -50.7451 29.4051
  273 -33.2684 -2.63165 24.2831
  274 -33.2965 -2.64516 -24.3115
  275 422.210 8.06185 -24.5726
  276 422.339 8.02591 24.6054
  277 730.209 -69.7829 -18.0827
  278 172.397 10.9336 3.38222
  279 172.459 10.9200 -3.37731
  280 -1.61655 -70.4589 35.4711
  281 25.4906 13.7440 12.9807
  282 25.3265 13.7736 -13.0083
  283 1144.03 76.9627 -38.6728
  284 563.525 -1.81102 8.60785
  285 563.319 -1.80382 -8.60085
  286 392.283 -13.4841 -147.111
  287 395.306 -13.2207 149.004
  288 729.409 -66.4053 6.44755
  289 -66.4056 2.29581 29.0982
  290 -66.5192 2.29409 -29.1558
  291 708.414 -36.4700 234.688
  292 -27.2695 6.08785 43.4126
  293 -27.4065 6.07256 -43.5114
  294 130.348 35.3980 -18.9820
  295 129.835 35.7099 19.0734
  296 -113.639 0.369800 0.889490
  297 -113.880 0.369264 -0.891764
  298 599.382 38.9037 -314.436
  299 -111.132 2.06177 -11.9524
  300 -110.921 2.05676 11.9260
  301 -1.23601 -11.9689 48.4094
  302 0.719870 -11.4425 -47.6564
  303 275.601 25.2489 -40.6480
  304 275.568 25.2755 40.8415
  305 69.6150 4.70901 3.15878
  306 69.4924 4.71627 -3.16544
  307 284.538 7.08543 -9.80195
  308 284.555 7.08829 9.81470
  309 29.6658 -12.6800 19.4785
  310 27.0922 -16.4347 -19.9758
  311 276.274 1.24639 -2.80773
  312 276.288 1.24826 2.81031
  313 -93.5332 2.48690 20.9433
  314 -93.6851 2.48995 -20.9884
  315 73.2928 2.89341 -27.7174
  316 71.2912 2.76180 25.8359
  317 585.002 -2.28390 2.42624
  318 584.782 -2.28158 -2.42309
  319 1259.22 69.7944 56.0827
  320 145.190 15.4402 -1.12138
  321 145.100 15.4646 1.12646
  322 -17.4463 5.24123 7.95265
  323 -17.6232 5.25178 -7.97062
  324 195.396 22.6039 -10.8349
  325 195.318 22.6405 10.8762
  326 27.6060 21.1049 33.6676
  327 27.4347 21.1389 -33.7980
  328 3.13203 -123.968 22.8008
  329 -118.957 -0.333135 -2.31518
  330 -118.715 -0.332543 2.31021
  331 453.775 -1.99592 -4.74399
  332 453.907 -1.99784 4.74864
  333 477.476 0.0254410 -12.5649
  334 477.625 0.0154330 12.5761
  335 -112.570 1.53296 -8.25391
  336 -112.343 1.52973 8.23746
  337 10.5196 0.632830 0.398575
  338 10.3618 0.633425 -0.400750
  339 -2.56696 -53.1600 27.4898
  340 -2.01984 -55.3014 -27.4463
  341 543.567 -42.2039 -100.881
  342 563.312 -50.6249 99.2581
  343 327.095 11.9046 -18.0413
  344 327.144 11.8984 18.0724
  345 150.702 33.0458 -13.5439
  346 150.425 33.2060 13.6155
  347 -40.9250 8.86323 19.0726
  348 -41.1111 8.88368 -19.1153
  349 981.826 45.6028 51.2297
  350 57.8478 -53.3191 -73.4289
  351 61.8628 -47.0549 76.1277
  352 -14.4878 15.4014 31.8240
  353 -14.6746 15.4359 -31.9006
  354 -25.8834 -4.56985 43.6386
  355 -25.9654 -4.58832 -43.7318
  356 1116.54 201.176 -76.2647
  357 738.434 -3.50748 75.5633
  358 675.345 -17.3142 -20.0763
  359 675.038 -16.9086 19.1994
  360 482.898 -7.36003 -64.7589
  361 482.285 -7.74743 64.8287
  362 1.01206 -149.375 -17.8311
  363 614.639 -0.473523 -15.0186
  364 614.873 -0.511829 15.0024
  365 8.74388 -137.477 11.4942
  366 744.249 59.6100 -35.1713
  367 186.869 2.85961 1.07270
  368 186.825 2.86304 -1.07377
  369 484.121 0.626543 -48.0015
  370 484.406 0.452710 48.1026
  371 516.436 1.01886 -28.5908
  372 516.638 0.940708 28.6023
  373 2.18010 4.16354 4.76702
  374 2.01552 4.17041 -4.77803
  375 307.453 16.9792 -79.0753
  376 307.443 17.1908 79.6481
  377 602.239 -1.94435 3.94283
  378 602.007 -1.94154 -3.93801
  379 355.585 15.9755 -40.9541
  380 355.687 15.9133 41.0899
  381 404.404 2.57365 10.7457
  382 404.304 2.57657 -10.7348
  383 -19.0853 -3.32814 15.2037
  384 -19.0882 -3.33790 -15.2072
  385 -4.61157 -3.25703 -4.56740
  386 -4.61326 -3.25799 4.57400
  387 808.255 -87.1141 74.2629
  388 -9.93175 -24.3804 40.4054
  389 -9.85533 -24.6107 -40.4239
  390 144.202 5.78548 0.381417
  391 144.277 5.77747 -0.382227
  392 -3.96293 -20.2854 15.2984
  393 -4.01056 -20.2582 -15.3032
  394 60.8140 22.1158 13.3155
  395 60.6453 22.1684 -13.3428
  396 660.155 -4.70241 20.1351
  397 659.819 -4.49585 -20.3700
  398 -0.502080 -36.2512 46.9277
  399 -53.8412 -0.820142 22.7270
  400 -53.8946 -0.825982 -22.7624
  401 -0.710711 -38.4725 -46.4082
  402 617.040 -1.48580 9.59978
  403 616.800 -1.47438 -9.59816
  404 -0.753760 15.1980 40.8513
  405 -0.990745 15.2329 -40.9675
  406 464.662 3.35863 -19.6498
  407 464.808 3.33621 19.6663
  408 710.458 -29.9327 -8.52821
  409 711.593 -24.5730 5.74669
  410 -1.25739 -72.0801 -29.8998
  411 70.9666 27.4930 -4.39168
  412 71.5282 27.2499 4.27683
  413 735.850 47.1396 21.2642
  414 412.057 -11.3570 -200.534
  415 422.030 -18.5896 209.009
  416 32.2039 21.8014 23.6739
  417 32.0112 21.8586 -23.7298
  418 304.589 4.39382 -6.71344
  419 304.621 4.39623 6.72072
  420 295.759 84.1640 314.917
  421 129.800 26.5710 -0.203798
  422 129.950 26.5034 0.215646
  423 8.82238 -62.3909 28.3084
  424 -0.835031 -116.361 -25.3353
  425 55.3547 27.5565 20.4580
  426 55.1384 27.6376 -20.5264
  427 69.3412 13.7728 -7.01702
  428 69.4784 13.7472 7.00384
  429 -17.4168 0.485939 -48.0975
  430 -17.2805 0.456101 47.9961
  431 152.802 31.4197 -38.4826
  432 152.147 31.8313 38.7307
  433 721.107 -20.2762 -58.2016
  434 23.9227 -2.18814 32.6553
  435 23.2249 -2.07879 -32.9333
  436 526.138 -23.0766 -71.4624
  437 528.093 -24.5272 71.4465
  438 -124.245 0.848370 -12.2096
  439 -124.048 0.845336 12.1824
  440 -0.0116929 -115.073 23.0211
  441 -0.753842 -73.4715 26.6946
  442 -49.8038 3.78283 37.1054
  443 -49.9213 3.77765 -37.1808
  444 377.468 -0.564329 -2.44587
  445 377.550 -0.564411 2.44849
  446 -10.8388 -17.1597 27.9228
  447 -10.8628 -17.2050 -27.9019
  448 243.868 18.3077 -113.620
  449 243.315 19.2682 114.640
  450 2.05636 -135.926 -23.7827
  451 1256.08 39.9549 0.0782061
  452 3.98144 -155.041 -10.2877
  453 -142.328 -0.517824 -3.84467
  454 -142.075 -0.517641 3.83749
  455 -52.9005 8.28291 28.7946
  456 -53.0758 8.29991 -28.8614
  457 -67.3336 1.04202 22.6269
  458 -67.4120 1.04079 -22.6653
  459 264.656 23.7730 -29.2975
  460 264.629 23.8037 29.4138
  461 391.501 11.6137 -31.5953
  462 391.623 11.5596 31.6631
  463 -5.07732 -21.4653 48.8096
  464 -5.08481 -21.3203 -49.0202
  465 688.064 17.1589 -72.9483
  466 50.8108 -3.19095 2.26862
  467 49.0145 -3.64184 -1.32648
  468 11.9106 -132.639 -9.58065
  469 7.97616 -156.841 3.93234
  470 -19.8514 -8.67724 28.6760
  471 -19.8676 -8.71188 -28.6958
  472 150.304 22.0153 -172.811
  473 999.717 35.3619 -125.925
  474 241.455 11.4776 10.4254
  475 241.471 11.4682 -10.4076
  476 347.672 5.77700 -107.540
  477 348.259 5.68379 108.907
  478 108.351 34.5158 2.48385
  479 108.125 34.6375 -2.49425
  480 314.712 21.5173 -59.4568
  481 314.761 21.4505 59.8010
  482 15.2616 9.07533 40.8170
  483 15.9622 9.42727 -40.7622
  484 -127.529 1.61103 -8.41876
  485 -127.300 1.60837 8.40108
  486 670.436 -73.7266 -62.4974
  487 527.238 -2.39201 -3.24085
  488 527.420 -2.39419 3.24425
  489 40.9551 1.67422 -1.35906
  490 41.0937 1.67141 1.35457
  491 -26.6593 11.9632 25.7540
  492 -26.8435 11.9917 -25.8125
  493 -66.5965 3.80238 -8.28860
  494 -66.3936 3.79552 8.27047
  495 241.807 19.4339 -15.4957
  496 241.779 19.4515 15.5401
  497 -22.4672 11.1669 38.0728
  498 -22.6451 11.1881 -38.1709
  499 612.896 -19.0005 -38.9128
  500 613.965 -19.7820 38.6115
  501 411.029 3.02487 -72.2179
  502 410.345 2.82298 72.7689
  503 160.796 3.85641 0.504282
  504 160.858 3.85160 -0.504831
  505 2.36716 -68.0164 -39.0311
  506 722.583 -23.3611 47.2644
  507 11.7764 -41.1997 -32.6258
  508 214.999 31.9772 31.4718
  509 215.176 31.8605 -31.2919
  510 663.234 -68.9603 62.0160
  511 55.8110 -33.6582 96.4980
  512 782.413 -84.3473 -117.639
  513 537.807 -0.864707 34.5662
  514 537.538 -0.701626 -34.5452
  515 2.40730 -57.6960 40.6498
  516 -10.6024 -3.10332 -8.24441
  517 -10.6056 -3.10092 8.24905
  518 78.2112 1.03388 -0.0970282
  519 78.3249 1.03231 0.0956566
  520 -1.75022 -41.5666 17.8467
  521 -1.58765 -41.3807 -17.9461
  522 443.863 0.945581 8.15253
  523 443.738 0.947304 -8.14474
  524 1216.59 233.053 115.232
  525 56.8443 -19.2459 -27.6109
  526 44.6279 -30.2919 18.3281
  527 -1.92800 8.18892 -11.0241
  528 -1.75663 8.17115 11.0001
  529 -105.189 1.63900 13.3396
  530 -105.317 1.64073 -13.3658
  531 1.16715 -128.341 24.2382
  532 -137.969 0.814740 0.712591
  533 -138.226 0.814611 -0.715094
  534 146.007 9.58654 -130.032
  535 143.081 11.4652 134.449
  536 134.676 28.1525 -51.3010
  537 133.702 28.6694 51.5063
  538 -27.7059 -5.36125 38.5678
  539 -27.7613 -5.38931 -38.6362
  540 134.770 8.31718 -0.837506
  541 134.685 8.32886 0.836901
  542 -50.9955 1.79494 2.77629
  543 -51.1925 1.79718 -2.78432
  544 156.337 18.7963 -2.94540
  545 156.243 18.8305 2.95896
  546 -2.88204 -9.61410 7.07817
  547 -2.89253 -9.60717 -7.07733
  548 59.6558 25.8888 16.3337
  549 59.2747 26.2051 -16.4981
  550 48.1853 12.3607 12.9342
  551 47.5544 12.3169 -13.3537
  552 539.982 0.931302 14.4411
  553 539.791 0.943711 -14.4319
  554 482.344 2.89852 23.6651
  555 482.178 2.93975 -23.6478
  556 -0.481486 -111.684 -16.1471
  557 344.825 13.2086 -25.2591
  558 344.893 13.1899 25.3109
  559 344.391 3.96109 -10.3221
  560 344.450 3.95931 10.3346
  561 -32.3616 0.247807 0.467689
  562 -32.1757 0.248092 -0.468582
  563 620.023 30.9088 -14.0077
  564 752.885 -85.9864 -51.3459
  565 649.914 32.3670 53.7921
  566 6.05769 -88.3522 -26.2470
  567 -23.5653 9.60278 -15.7729
  568 -23.3835 9.58230 15.7392
  569 6.72475 -50.0630 36.9824
  570 -30.8326 1.77380 43.1759
  571 -30.9423 1.76349 -43.2595
  572 967.695 92.6696 13.7082
  573 229.955 6.65586 -5.84233
  574 229.935 6.66179 5.84944
  575 1403.18 123.196 -132.440
  576 -4.31454 -3.15341 49.1855
  577 -3.74731 -2.75077 -49.1897
  578 795.248 -60.9813 14.3818
  579 634.753 -1.23354 -16.5468
  580 634.998 -1.30120 16.5013
  581 306.940 7.62409 -153.959
  582 310.227 6.60189 155.953
  583 -15.2147 -14.4480 44.3997
  584 -15.2350 -14.5324 -44.5351
  585 165.503 21.7650 87.9112
  586 166.835 20.6805 -87.3757
  587 -121.555 1.33319 -12.1629
  588 -121.377 1.33098 12.1366
  589 935.967 97.6177 25.8632
  590 190.469 13.4365 5.35045
  591 190.523 13.4201 -5.33965
  592 223.293 28.2362 -61.8757
  593 222.940 28.5553 62.3634
  594 580.444 -3.97126 -33.4609
  595 580.797 -4.21167 33.4546
  596 -2.12667 -56.2629 -39.6161
  597 621.465 -1.97670 5.04830
  598 621.219 -1.97320 -5.04333
  599 -78.6414 0.841205 -0.739056
  600 -78.4253 0.840960 0.735332
  601 -148.375 -1.52129 -0.146044
  602 -148.640 -1.52304 0.145459
  603 15.4159 -76.4805 -6.78508
  604 -5.52790 -37.1631 34.6994
  605 -5.83008 -35.0714 -34.9250
  606 -67.8605 4.51609 30.5738
  607 -67.9998 4.52042 -30.6386
  608 446.642 7.14330 30.3210
  609 446.485 7.20588 -30.2826
  610 332.325 0.354276 2.33977
  611 332.273 0.353211 -2.33772
  612 80.7178 -5.99105 60.5112
  613 82.9501 -4.37729 -60.0594
  614 -2.19593 -29.0861 15.1583
  615 -2.26996 -29.0003 -15.2135
  616 742.385 92.0384 337.378
  617 -37.4446 -1.06061 13.9396
  618 -37.4548 -1.06625 -13.9541
  619 15.6917 -45.3546 -24.2002
  620 326.414 8.74756 -14.0075
  621 326.460 8.74554 14.0278
  622 166.801 33.8292 -26.3802
  623 166.449 34.0427 26.5446
  624 1.56164 -187.528 6.81625
  625 127.561 31.4772 -1.46926
  626 127.382 31.5703 1.48364
  627 -3.17906 12.3602 19.1167
  628 -3.35733 12.3889 -19.1579
  629 -0.879678 -97.8035 21.9908
  630 -151.165 -0.161880 -3.93481
  631 -150.909 -0.162011 3.92718
  632 219.983 2.04336 2.63172
  633 220.007 2.04036 -2.62961
  634 526.236 -1.35439 9.82136
  635 526.056 -1.34822 -9.81258
  636 472.803 -15.7726 259.007
  637 381.930 5.50274 -19.5608
  638 382.020 5.48634 19.5877
  639 9.30618 -4.05733 43.8089
  640 10.8926 -0.852469 -43.5036
  641 602.508 -45.0931 -211.751
  642 1359.30 45.0075 -54.9195
  643 -142.555 -0.0481099 -8.16209
  644 -142.338 -0.0493820 8.14495
  645 47.9360 5.93169 -3.86173
  646 48.0734 5.92193 3.85264
  647 -2.51092 -60.4702 35.3527
  648 820.951 58.2249 -59.8295
  649 613.951 -2.23605 0.957834
  650 613.712 -2.23395 -0.956400
  651 -39.0420 -1.82572 -31.8767
  652 -38.9864 -1.81379 31.8269
  653 -0.144368 -137.696 -20.5300
  654 624.116 -2.06825 1.96217
  655 623.870 -2.06622 -1.95937
  656 69.0632 18.5692 10.7351
  657 68.9114 18.6092 -10.7540
  658 493.314 -37.3026 -141.433
  659 501.353 -37.0357 142.754
  660 699.712 -5.62873 12.0864
  661 699.589 -5.59655 -12.4459
  662 3.21873 -170.270 14.5618
  663 -25.4831 -0.163124 -1.50222
  664 -25.3019 -0.163081 1.49817
  665 236.473 70.3800 -250.447
  666 228.222 1.39704 2.35658
  667 228.239 1.39469 -2.35503
  668 119.383 5.17236 -1.28601
  669 119.293 5.17919 1.28464
  670 139.171 11.2423 2.26307
  671 139.257 11.2254 -2.26065
  672 421.731 8.62485 -46.9896
  673 421.941 8.49769 47.1183
  674 119.506 33.3868 -7.97054
  675 119.136 33.6137 7.97845
  676 -66.1480 4.93818 -15.6411
  677 -65.9522 4.92565 15.6075
  678 -79.7112 5.60677 -18.4700
  679 -79.5185 5.59500 18.4290
  680 722.691 -11.5756 1.01056
  681 2.57304 -25.4901 -46.1667
  682 723.062 -12.1355 -1.79149
  683 935.244 70.7051 -9.39498
  684 -89.5512 0.468405 15.3088
  685 -89.6503 0.467334 -15.3377
  686 104.206 31.4427 -15.7872
  687 103.480 31.7660 15.8122
  688 -161.720 -0.182382 -1.08130
  689 -161.451 -0.181998 1.07795
  690 3.31164 -22.5204 46.0318
  691 -54.7772 1.08511 32.9193
  692 -54.8761 1.07945 -32.9806
  693 796.685 -56.4201 -17.1696
  694 138.330 0.311026 -1.62040
  695 138.255 0.312501 1.62073
  696 40.4730 9.93017 7.62675
  697 40.3252 9.94856 -7.64199
  698 432.699 -16.6150 -119.613
  699 435.547 -17.2880 121.629
  700 1415.58 103.176 119.064
  701 31.5290 -101.661 -60.4381
  702 -9.38163 -20.4512 47.1065
  703 -9.37713 -20.5479 -47.2363
  704 100.286 17.7515 -3.53505
  705 100.410 17.7186 3.53005
  706 641.733 -1.85822 -5.08381
  707 641.994 -1.86239 5.08731
  708 318.629 1.48819 4.84096
  709 318.587 1.48727 -4.83585
  710 32.9943 23.9338 29.2832
  711 32.7884 24.0001 -29.3719
  712 28.6369 3.94311 2.64882
  713 28.4898 3.94836 -2.65563
  714 -14.7910 5.91021 46.4032
  715 -14.9418 5.89216 -46.5249
  716 532.856 -3.02465 4.25620
  717 532.671 -3.02138 -4.25132
  718 465.679 0.639002 11.3986
  719 465.538 0.644133 -11.3882
  720 68.8741 -22.0751 70.7481
  721 70.5594 -25.0204 -68.7745
  722 -31.7027 8.42472 40.4067
  723 -31.8583 8.42772 -40.5047
  724 22.2191 -35.5385 16.7467
  725 6.60442 15.7042 40.7459
  726 6.35780 15.7300 -40.8358
  727 -93.4006 2.36836 -10.0654
  728 -93.1870 2.36300 10.0432
  729 91.4811 25.0137 8.43600
  730 91.3129 25.0768 -8.44784
  731 721.809 -20.6354 -31.0617
  732 682.610 -57.0544 -26.6887
  733 -10.5254 -21.6643 34.2389
  734 -10.5174 -21.7766 -34.2053
  735 275.993 12.3582 -181.248
  736 269.360 17.6789 182.465
  737 171.983 32.6016 -36.2090
  738 171.523 32.9051 36.4633
  739 16.8208 -20.0880 33.9240
  740 -0.888486 -73.1652 -19.4066
  741 346.687 15.9936 -45.8227
  742 346.798 15.9366 46.0143
  743 0.788296 -142.202 17.5518
  744 211.822 25.4216 -17.4023
  745 211.740 25.4667 17.4715
  746 676.240 -1.82361 -12.4588
  747 676.462 -1.89471 12.3507
  748 14.8345 -172.572 11.5551
  749 319.818 20.1211 35.6516
  750 319.768 20.1405 -35.5311
  751 92.3456 32.2714 0.531093
  752 92.8160 31.9786 -0.611870
  753 -120.975 0.787453 -10.4301
  754 -120.821 0.786768 10.4074
  755 350.389 2.10545 -8.70941
  756 350.452 2.10475 8.71851
  757 223.419 29.0297 -27.0973
  758 223.303 29.1027 27.2300
  759 8.89131 18.6865 30.2697
  760 8.69498 18.7362 -30.3426
  761 684.529 -49.0740 18.0932
  762 -95.3974 1.61049 7.49311
  763 -95.6182 1.61337 -7.50721
  764 1413.54 308.589 -218.462
  765 -28.4916 2.81499 7.14217
  766 -28.6743 2.82097 -7.15662
  767 578.258 -0.992775 23.5673
  768 578.026 -0.914577 -23.5846
  769 1073.41 62.5832 -1.97731
  770 647.472 -2.96988 -9.37989
  771 647.730 -2.98345 9.37606
  772 424.535 2.43696 14.6793
  773 424.421 2.44496 -14.6648
  774 630.743 -58.1465 193.519
  775 283.323 16.5368 -15.9219
  776 283.335 16.5421 15.9585
  777 7.17798 -99.2895 17.0746
  778 721.321 -81.9696 72.6758
  779 440.244 -2.32080 2.42297
  780 440.121 -2.31937 -2.42072
  781 567.717 -1.86626 1.27389
  782 567.509 -1.86443 -1.27227
  783 -2.32985 -56.6448 -33.2308
  784 4.05456 -92.4936 29.3548
  785 270.602 27.9745 49.5124
  786 270.670 27.9245 -49.2226
  787 1391.79 10.8778 13.4588
  788 453.363 1.34610 -57.6156
  789 453.623 1.19559 57.7775
  790 -87.1515 2.89378 22.3967
  791 -87.3234 2.90080 -22.4445
  792 21.4722 -67.2478 -1.46860
  793 13.6079 -158.516 -20.6868
  794 1014.23 134.838 -34.7786
  795 -0.830950 -73.0550 17.5410
  796 26.1611 17.4600 34.8903
  797 26.0712 17.4391 -35.1259
  798 147.195 24.9203 -2.70867
  799 147.076 24.9744 2.72678
  800 677.134 -31.6528 -16.3790
  801 679.031 -31.0946 14.6240
  802 776.715 169.463 -320.430
  803 -97.4599 0.419768 -2.76523
  804 -97.2341 0.418958 2.75758
  805 -51.2487 -0.141221 13.0376
  806 -51.2733 -0.143783 -13.0552
  807 55.0466 10.3799 3.03864
  808 53.9331 10.3483 -3.20046
  809 519.123 -5.29771 51.5445
  810 518.777 -4.94643 -51.3714
  811 271.356 3.23584 -3.77873
  812 271.367 3.23871 3.78295
  813 830.183 0.845735 53.1793
  814 99.1990 11.6950 -3.36016
  815 99.3139 11.6750 3.35432
  816 89.1473 18.1385 -24.8739
  817 88.3866 18.4873 25.0207
  818 0.626545 -53.5263 -42.9199
  819 1139.66 217.273 191.792
  820 -160.637 0.00651252 -4.03699
  821 -160.382 0.00647119 4.02852
  822 -0.214815 -171.190 15.8424
  823 15.1351 -19.9757 -34.5460
  824 -25.7669 -1.50435 9.85770
  825 -25.7610 -1.50873 -9.86303
  826 931.054 72.5520 -25.2428
  827 254.829 21.3076 -20.1867
  828 254.803 21.3282 20.2559
  829 640.574 -11.3967 -26.2244
  830 641.243 -11.4517 25.9838
  831 -154.889 0.993258 5.64950
  832 -155.126 0.995013 -5.66163
  833 -1.21170 -1.24782 -1.06958
  834 -1.21414 -1.24996 1.07377
  835 0.417080 -174.793 -15.2103
  836 0.811713 -180.170 -12.4595
  837 -165.533 1.38470 0.640266
  838 -165.811 1.38508 -0.641616
  839 106.095 -2.75656 -125.908
  840 402.760 1.09961 -4.74096
  841 402.858 1.09971 4.74580
  842 0.643065 1.47059 0.861169
  843 0.478833 1.47139 -0.862558
  844 586.842 -0.682709 -15.4484
  845 587.063 -0.707984 15.4468
  846 -67.1134 0.458370 12.3233
  847 -67.1595 0.458298 -12.3419
  848 366.878 28.1843 -264.734
  849 622.065 -51.3003 59.4573
  850 484.742 -0.985706 -5.32483
  851 484.895 -0.987719 5.33041
  852 617.069 -55.5022 -65.5711
  853 202.732 18.4224 -9.69099
  854 202.672 18.4465 9.72030
  855 274.446 13.7063 -12.6871
  856 274.453 13.7126 12.7117
  857 720.688 -14.8012 23.8800
  858 51.8090 27.4524 22.0755
  859 51.5816 27.5459 -22.1855
  860 58.4194 0.876714 0.947391
  861 58.2924 0.878409 -0.950373
  862 345.707 0.497214 4.20747
  863 345.646 0.496694 -4.20338
  864 874.265 -58.3188 118.995
  865 553.606 0.335580 -20.6272
  866 553.817 0.289533 20.6250
  867 20.1245 6.68674 5.90512
  868 19.9689 6.69808 -5.91823
  869 552.147 -2.92108 5.99902
  870 551.949 -2.91705 -5.99256
  871 -89.9354 -0.304871 -2.41512
  872 -89.7106 -0.303872 2.41269
  873 -0.427600 -56.1708 15.7476
  874 -0.578985 -57.0432 -15.8552
  875 683.168 -6.39017 60.7346
  876 -34.6626 10.5113 33.1218
  877 -34.8372 10.5331 -33.2010
  878 -0.193152 -91.8919 -17.1861
  879 273.969 6.05444 -6.87161
  880 273.980 6.05869 6.87948
  881 495.315 -23.8668 -92.0391
  882 498.797 -26.3610 92.8743
  883 -18.9780 -5.95400 -47.1363
  884 -18.8746 -5.94563 47.0137
  885 34.5921 23.3972 26.5447
  886 34.3887 23.4620 -26.6129
  887 2.26956 -202.119 9.66090
  888 12.9075 19.3568 36.4808
  889 12.6919 19.3983 -36.5712
  890 458.714 -8.61311 -82.1334
  891 457.634 -8.85735 82.7605
  892 789.877 51.9497 63.9852
  893 189.677 16.8862 6.80185
  894 189.739 16.8643 -6.78427
  895 566.010 0.862541 -15.2870
  896 566.218 0.844966 15.2924
  897 -21.1215 -8.75832 42.0077
  898 -21.1730 -8.79929 -42.0984
  899 2.20426 -204.034 -4.25744
  900 -32.5701 -1.57982 40.8821
  901 -32.6527 -1.59012 -40.9586
  902 30.9400 20.2666 -20.1123
  903 31.1210 20.2167 20.0668
  904 -1.72563 -14.4008 7.90815
  905 -1.74599 -14.3882 -7.92063
  906 58.1821 22.8849 -16.6559
  907 58.3672 22.8228 16.6191
  908 13.4921 -12.3095 39.6385
  909 11.9938 -11.3973 -42.1972
  910 557.725 -17.5060 53.1146
  911 556.505 -16.8479 -53.2611
  912 -169.922 0.216730 -0.942052
  913 -169.644 0.216894 0.939860
  914 -15.9867 -1.38468 7.48773
  915 -15.9746 -1.38748 -7.48697
  916 0.711919 -130.070 -15.4726
  917 -16.6566 -7.01656 -21.0859
  918 -16.6455 -6.99680 21.0822
  919 -66.1813 6.00816 28.7869
  920 -66.3435 6.01906 -28.8517
  921 183.663 32.3238 -18.9925
  922 183.485 32.4431 19.0878
  923 764.134 57.4493 -6.01338
  924 -0.557352 16.2764 27.4437
  925 -0.745225 16.3167 -27.5068
  926 284.655 19.3945 -88.7441
  927 284.571 19.6438 89.5254
  928 -24.0833 10.9221 21.9272
  929 -24.2667 10.9495 -21.9773
  930 882.597 -25.3180 6.83006
  931 579.873 23.2991 28.1133
  932 665.535 -5.64482 -54.8834
  933 488.013 3.06404 -34.9042
  934 488.226 2.95655 34.9430
  935 -40.7683 5.87314 -9.68380
  936 -40.5798 5.86172 9.66170
  937 -109.032 1.82610 13.8415
  938 -109.232 1.83104 -13.8728
  939 -6.75408 -22.1909 -24.4033
  940 -6.70000 -22.2007 24.4406
  941 182.761 7.95615 4.20803
  942 182.813 7.94652 -4.20390
  943 -50.2788 5.96059 36.4196
  944 -50.4164 5.96083 -36.5004
  945 574.645 -2.37700 7.67318
  946 574.431 -2.37252 -7.66576
  947 -4.02905 -48.0188 36.1887
  948 31.2648 18.1660 -16.8459
  949 31.4365 18.1250 16.8101
  950 40.8038 11.6775 10.0050
  951 40.6510 11.7015 -10.0250
  952 111.938 6.72037 -0.537773
  953 112.034 6.71090 0.534527
  954 1073.13 165.038 -60.0031
  955 -4.51254 -1.18712 -3.04999
  956 -4.52197 -1.18674 3.05521
  957 42.9896 15.0472 -19.7754
  958 43.6748 14.7719 19.6158
  959 398.759 12.1965 -38.2052
  960 398.905 12.1198 38.2994
  961 60.9314 15.0544 -8.84454
  962 61.0783 15.0242 8.82728
  963 112.111 19.6954 161.237
  964 726.770 -5.95641 -7.48004
  965 726.174 -5.74740 6.91290
  966 139.286 11.7754 144.275
  967 148.541 2.93484 -1.79080
  968 148.472 2.93859 1.79095
  969 366.582 2.82372 -229.878
  970 277.538 0.896440 2.17234
  971 277.523 0.894634 -2.17068
  972 38.2063 -25.3066 -1.96848
  973 42.2005 -19.6792 5.13345
  974 639.728 -1.40128 2.60592
  975 639.470 -1.39966 -2.60252
  976 -52.0702 0.386888 30.2766
  977 -52.1449 0.382015 -30.3264
  978 1151.99 147.910 80.9798
  979 -4.00519 -34.4168 -46.6863
  980 7.49989 -154.480 30.2841
  981 -0.193016 -55.4055 42.7045
  982 663.148 -1.58695 -9.56631
  983 663.403 -1.60661 9.54991
  984 -8.71024 -16.0597 21.1694
  985 -8.73770 -16.0666 -21.1541
  986 852.960 93.9750 -26.9239
  987 1408.61 9.78841 -8.85390
  988 -2.19636 -3.45863 -3.31948
  989 -2.19369 -3.46577 3.32421
  990 396.134 0.782875 -8.61014
  991 396.228 0.781423 8.61844
  992 -4.02164 -32.9198 46.8324
  993 544.982 -0.567689 30.5913
  994 544.747 -0.451996 -30.5882
  995 717.596 -44.9944 -18.6175
  996 -24.6537 -4.95383 23.6914
  997 -24.6701 -4.97439 -23.7094
  998 13.9609 -39.8217 29.1659
  999 -0.844177 -85.2797 33.5625
  1000 -0.114272 -91.2601 17.1949
  1001 762.288 46.4885 -4.87022
  1002 854.746 94.6477 10.4771
  1003 605.396 -63.8388 -110.791
  1004 9.88842 -78.1666 22.8307
  1005 12.2435 -110.071 -0.740519
  1006 177.968 0.915613 -0.0214384
  1007 177.919 0.917599 0.0212208
  1008 -6.64138 -7.58972 -10.2610
  1009 -6.63438 -7.58930 10.2675
  1010 6.91562 -64.3249 -32.9587
  1011 483.813 -2.50161 -1.95951
  1012 483.966 -2.50354 1.96164
  1013 105.046 10.0784 -60.2016
  1014 100.704 10.3050 59.6583
  1015 -3.14099 15.8130 37.6253
  1016 -3.34791 15.8503 -37.7272
  1017 -49.7003 8.35975 -23.0096
  1018 -49.5152 8.34055 22.9583
  1019 380.205 5.88049 -84.9817
  1020 380.295 6.27308 85.7913
  1021 277.397 23.4135 -62.5207
  1022 277.292 23.4401 62.9770
  1023 298.256 17.4434 -22.9896
  1024 298.280 17.4395 23.0469
  1025 757.616 -14.1834 -66.8806
  1026 -15.2399 10.1724 42.5893
  1027 -15.4215 10.1772 -42.7153
  1028 534.089 -3.44482 42.3087
  1029 533.780 -3.18412 -42.2500
  1030 -1.94028 -24.6515 48.1885
  1031 -42.3737 -1.24680 22.6700
  1032 -42.4077 -1.25457 -22.7003
  1033 488.315 1.19730 -42.3587
  1034 488.565 1.04219 42.4217
  1035 629.934 17.8648 -48.6729
  1036 -0.289578 -84.4435 -35.1335
  1037 -6.48083 -33.0687 42.7024
  1038 -6.77482 -33.5275 -42.3696
  1039 350.057 16.5837 -32.8157
  1040 350.140 16.5455 32.9093
  1041 434.365 4.25947 18.0082
  1042 434.242 4.27354 -17.9902
  1043 716.164 -43.9706 15.5953
  1044 48.0704 1.35062 -0.213619
  1045 48.2036 1.34933 0.212703
  1046 611.268 -71.2488 117.988
  1047 9.29410 0.611773 1.70182
  1048 9.13540 0.613013 -1.70612
  1049 141.410 32.9713 -7.56470
  1050 141.193 33.0961 7.60269
  1051 58.4489 26.2367 18.4788
  1052 58.2487 26.3093 -18.5273
  1053 7.50487 -98.1707 -17.8948
  1054 186.632 3.42059 2.75550
  1055 186.678 3.41558 -2.75351
  1056 571.391 17.5422 11.8063
  1057 489.601 0.362142 16.3140
  1058 489.442 0.378207 -16.3013
  1059 -1.38651 -25.7981 -48.2814
  1060 733.150 -9.69912 -11.2635
  1061 3.11635 0.333886 46.5138
  1062 3.71126 0.672296 -46.2131
  1063 658.117 -1.91615 -5.33002
  1064 658.388 -1.92110 5.33137
  1065 702.905 -3.28308 -9.46005
  1066 703.002 -3.36145 9.28041
  1067 -0.517382 -137.882 12.7852
  1068 423.320 6.85697 -23.6409
  1069 423.441 6.83092 23.6672
  1070 509.390 1.44225 18.6991
  1071 509.216 1.46469 -18.6875
  1072 16.3743 14.2950 40.2238
  1073 16.2859 14.2868 -40.3071
  1074 1097.01 68.4189 15.5458
  1075 -11.8385 -4.28979 49.5031
  1076 -12.0863 -4.16211 -49.6514
  1077 168.920 29.2657 -8.77756
  1078 168.798 29.3337 8.81931
  1079 -76.5156 0.624765 -3.23561
  1080 -76.3022 0.623999 3.22863
  1081 271.801 18.7778 -101.573
  1082 271.347 19.4732 102.556
  1083 83.8167 29.6998 11.9792
  1084 83.6017 29.7914 -12.0140
  1085 187.339 25.8322 -78.4408
  1086 186.393 26.6721 78.9306
  1087 -4.33604 -45.1671 -35.3211
  1088 646.640 11.7287 66.6505
  1089 441.894 25.2442 293.905
  1090 78.8394 31.2475 12.2393
  1091 78.5950 31.3629 -12.2960
  1092 273.393 10.3573 -10.0932
  1093 273.401 10.3617 10.1103
  1094 946.756 26.0515 -2.98865
  1095 68.2081 20.3354 3.12516
  1096 67.3913 20.5055 -3.40872
  1097 -27.6909 -5.79035 31.2594
  1098 -27.7236 -5.82045 -31.2995
  1099 -0.902592 -21.4431 8.58815
  1100 -0.940512 -21.4325 -8.62378
  1101 624.969 -2.94112 24.1948
  1102 624.651 -2.74327 -24.2893
  1103 2.10133 -40.6604 44.7927
  1104 -40.3769 3.31127 -40.2879
  1105 -40.2644 3.32074 40.2078
  1106 0.187249 -164.436 -15.5742
  1107 -7.94474 -11.6052 49.4494
  1108 -7.90403 -11.3031 -49.4983
  1109 594.876 -1.33398 -10.1923
  1110 595.102 -1.34273 10.1984
  1111 618.511 -7.15801 29.6942
  1112 618.023 -6.82970 -29.7742
  1113 116.896 28.9421 -33.0965
  1114 116.036 29.3759 33.2560
  1115 -1.31179 -84.7969 -29.2000
  1116 808.555 -50.7007 -178.304
  1117 1045.81 159.607 36.1545
  1118 12.4126 -114.947 5.43188
  1119 44.3424 23.9482 -26.2885
  1120 44.5934 23.8367 26.0794
  1121 110.586 33.4088 0.415101
  1122 110.308 33.5622 -0.428736
  1123 224.635 9.33565 6.08773
  1124 224.660 9.32734 -6.07777
  1125 -12.9664 -18.4783 40.2526
  1126 -12.9518 -18.6707 -40.3292
  1127 -32.6163 12.0166 30.0090
  1128 -32.7969 12.0436 -30.0775
  1129 -7.69262 15.7725 34.5801
  1130 -7.88690 15.8091 -34.6676
  1131 595.952 -30.7918 -53.1784
  1132 599.467 -30.8871 52.9314
  1133 0.888484 -95.0584 -32.8873
  1134 327.873 3.38145 -124.305
  1135 328.213 4.33556 126.041
  1136 111.044 29.1377 -3.00423
  1137 111.212 29.0593 3.00305
  1138 312.575 214.260 325.033
  1139 89.2155 22.6991 8.24362
  1140 89.0616 22.7499 -8.25578
  1141 802.955 -75.7749 -55.1311
  1142 313.305 4.66939 7.67333
  1143 313.267 4.66819 -7.66393
  1144 -13.4571 -11.9140 25.0470
  1145 -13.4712 -11.9463 -25.0457
  1146 -15.8927 -14.1334 32.1491
  1147 -15.8992 -14.1943 -32.1618
  1148 536.989 -46.6130 -169.447
  1149 546.456 -51.9038 170.576
  1150 107.125 1.05120 2.35919
  1151 107.220 1.04913 -2.35919
  1152 343.978 14.8185 -70.5349
  1153 343.889 14.6669 71.1175
  1154 724.048 -85.0854 133.665
  1155 634.631 -2.21864 1.47372
  1156 634.378 -2.21670 -1.47180
  1157 -51.2944 8.88111 26.9613
  1158 -51.4751 8.90002 -27.0213
  1159 -90.7270 2.50602 -13.5179
  1160 -90.5190 2.49929 13.4910
  1161 175.400 30.7384 205.871
  1162 552.971 34.7497 -24.1003
  1163 314.754 19.1337 -37.2870
  1164 314.801 19.1166 37.4418
  1165 924.326 4.99341 194.192
  1166 320.150 19.1150 -52.9041
  1167 320.197 19.0619 53.1697
  1168 88.9009 7.54808 -1.97936
  1169 89.0140 7.53658 1.97366
  1170 30.0118 -79.8299 28.6517
  1171 30.2217 -76.7627 -36.4788
  1172 429.548 -22.9716 -171.439
  1173 434.919 -21.0628 171.077
  1174 174.695 31.2879 -57.7004
  1175 173.961 31.8128 58.1011
  1176 741.818 -44.6061 -40.6845
  1177 -24.6636 -1.16917 45.6571
  1178 -24.7728 -1.17236 -45.7534
  1179 0.674604 -36.0696 -46.1098
  1180 199.025 16.8520 -133.306
  1181 199.406 17.2428 135.215
  1182 -0.462783 -37.7877 9.50879
  1183 -0.397354 -37.8829 -9.63119
  1184 -169.438 1.33099 -3.89903
  1185 -169.184 1.32986 3.89070
  1186 580.409 -2.24505 -3.07143
  1187 580.626 -2.24770 3.07560
  1188 370.069 9.66519 -21.6732
  1189 370.155 9.64497 21.7106
  1190 -10.3511 1.73244 48.9637
  1191 -10.3788 1.95412 -49.0607
  1192 -0.0544590 -148.301 -14.0821
  1193 -145.747 0.276569 6.74307
  1194 -145.951 0.277305 -6.75841
  1195 125.348 11.9742 -97.6243
  1196 124.542 12.7498 100.296
  1197 686.559 -41.3751 -9.86933
  1198 206.999 21.0743 -120.321
  1199 207.104 21.4073 121.214
  1200 -82.8493 0.479083 11.1221
  1201 -82.9179 0.478262 -11.1409
  1202 2.50905 -123.396 -21.3604
  1203 -12.6569 3.70876 -3.84332
  1204 -12.4839 3.70392 3.83425
  1205 113.956 23.7151 4.05481
  1206 113.811 23.7708 -4.05446
  1207 390.432 -1.57813 -2.63673
  1208 390.522 -1.57869 2.63899
  1209 519.056 -0.529349 12.3713
  1210 518.880 -0.519122 -12.3615
  1211 32.8444 2.02722 20.8379
  1212 32.3751 1.50243 -21.4165
  1213 5.97479 -69.2974 33.3505
  1214 935.591 139.029 9.03245
  1215 -28.6226 -2.11971 18.0013
  1216 -28.6332 -2.12967 -18.0153
  1217 4.83128 -64.9495 -35.4897
  1218 -2.59528 -43.1116 26.1869
  1219 -2.48345 -42.6269 -27.1075
  1220 735.184 -8.27457 9.86666
  1221 0.605325 -168.805 14.2608
  1222 6.93259 -46.6698 -39.7136
  1223 100.346 0.278044 0.515057
  1224 100.247 0.279106 -0.515956
  1225 -6.33718 -29.0408 46.4710
  1226 -71.5719 3.90220 -10.8658
  1227 -71.3681 3.89510 10.8437
  1228 1435.47 23.2628 42.9463
  1229 -39.1921 5.52824 40.2394
  1230 -39.3249 5.52262 -40.3284
  1231 366.016 12.6969 -63.6380
  1232 366.227 12.5048 63.9540
  1233 26.4200 -26.4013 -10.4165
  1234 347.150 13.8622 -27.4708
  1235 347.223 13.8348 27.5379
  1236 15.8163 -90.3369 2.21426
  1237 -6.37530 -29.1380 -46.4488
  1238 -45.1736 1.09162 5.77709
  1239 -45.3664 1.09459 -5.78864
  1240 -22.9470 3.17312 -46.1519
  1241 -22.8121 3.18738 46.0604
  1242 746.292 62.1051 43.7873
  1243 420.400 2.72516 -66.0702
  1244 420.795 2.68190 66.2238
  1245 -174.801 0.228310 -1.12544
  1246 -174.525 0.228269 1.12215
  1247 376.848 5.19653 -14.5151
  1248 376.930 5.19201 14.5311
  1249 -177.125 -3.41001 -0.543098
  1250 -177.411 -3.41280 0.543232
  1251 559.259 -38.8406 -75.8262
  1252 -84.4015 1.56763 22.9126
  1253 -84.5287 1.56710 -22.9597
  1254 564.393 -41.0373 75.1424
  1255 384.421 10.1001 -28.6370
  1256 384.524 10.0617 28.6875
  1257 47.5778 -56.8984 -96.0609
  1258 0.920461 -115.294 -27.9098
  1259 -1.83746 -48.0016 43.4365
  1260 1149.86 241.637 -198.193
  1261 -0.185820 -109.419 27.9530
  1262 1209.93 115.518 -86.8782
  1263 -0.868060 -203.411 -12.6766
  1264 71.6853 3.72342 0.336103
  1265 71.8048 3.71817 -0.339594
  1266 -0.480213 -48.4223 9.95005
  1267 -0.377516 -48.6894 -9.93239
  1268 220.775 1.86377 1.38785
  1269 220.797 1.86105 -1.38687
  1270 748.458 -51.4332 37.9423
  1271 27.0684 3.86116 -4.44683
  1272 27.2174 3.85484 4.43772
  1273 4.34389 -212.756 2.94027
  1274 2.78541 -227.849 -3.00893
  1275 687.909 -78.4414 -84.2194
  1276 -1.74179 -61.2864 28.6742
  1277 739.460 52.7869 -58.3689
  1278 -2.11850 -80.7186 28.0331
  1279 1.56538 -215.561 -8.52851
  1280 353.345 6.07318 -16.6036
  1281 353.412 6.06204 16.6283
  1282 -0.310649 -121.707 12.6580
  1283 -0.232138 -99.4200 -28.2536
  1284 1550.17 301.261 251.904
  1285 637.234 -0.437409 1.07367
  1286 636.981 -0.436666 -1.07265
  1287 21.2668 5.39103 35.3932
  1288 20.6671 6.09455 -35.6028
  1289 -5.71558 10.9702 44.7579
  1290 -5.98985 10.9646 -44.9119
  1291 700.829 -11.6828 -38.9770
  1292 642.798 -27.8189 -32.2335
  1293 642.356 -31.4196 32.8027
  1294 107.474 8.75240 1.47240
  1295 107.369 8.76654 -1.47655
  1296 -99.5230 2.60084 -16.9973
  1297 -99.3351 2.59494 16.9585
  1298 715.294 -87.0573 -116.052
  1299 -5.26410 -12.9254 13.3187
  1300 -5.28600 -12.9198 -13.3149
  1301 759.252 -26.3153 63.2640
  1302 -7.49186 -28.9440 35.0227
  1303 -7.40334 -29.0561 -34.8630
  1304 -56.0535 3.43710 7.07753
  1305 -56.2518 3.44307 -7.09297
  1306 123.066 20.5511 -55.3353
  1307 121.895 21.1891 55.2550
  1308 189.974 1.79482 -0.809643
  1309 189.932 1.79787 0.809792
  1310 -67.2575 7.11018 27.1506
  1311 -67.4307 7.12385 -27.2095
  1312 600.475 -0.0609517 1.66833
  1313 600.245 -0.0603298 -1.66678
  1314 345.604 10.8414 227.309
  1315 496.670 -1.90722 4.41566
  1316 496.509 -1.90526 -4.41112
  1317 342.346 7.91067 -95.7219
  1318 342.291 7.55269 96.4141
  1319 3.63348 -120.958 -12.5716
  1320 138.139 33.4895 -28.5029
  1321 137.541 33.8475 28.6691
  1322 -1.38229 -1.14246 -1.74651
  1323 -1.38908 -1.14255 1.75145
  1324 432.323 9.35114 35.9244
  1325 432.160 9.43775 -35.8625
  1326 222.396 14.0608 9.29737
  1327 222.429 14.0473 -9.27736
  1328 320.984 13.8729 -19.8286
  1329 321.029 13.8643 19.8709
  1330 412.120 -1.16232 -4.48135
  1331 412.224 -1.16314 4.48543
  1332 -12.9504 -6.17315 -14.9982
  1333 -12.9449 -6.16364 15.0022
  1334 -113.220 -0.407589 4.15326
  1335 -113.454 -0.407234 -4.16287
  1336 -21.4024 -9.51798 -35.7317
  1337 -21.3752 -9.46482 35.6828
  1338 -57.7021 -0.0693773 1.59697
  1339 -57.9048 -0.0697994 -1.60009
  1340 -179.881 1.51267 0.621031
  1341 -180.168 1.51334 -0.622346
  1342 764.008 -80.2814 154.493
  1343 589.352 -1.68486 -55.4623
</Section>

newXOutput 93

<Section columns = "stress_xx | stress_yy | stress_xy">
  1 7.92078e-07 4.00178e-11 -3.15823e-12
  2 3.63798e-12 9.09495e-13 1.73490e-13
  3 0.00000 0.00000 1.20849e-13
  4 -4.54747e-12 -3.18323e-12 1.68112e-12
  5 -2.18279e-12 -2.00089e-12 1.83556e-12
  6 -1.10608e-05 -6.20939e-06 3.43259e-06
  7 4.94128e-09 4.70163e-09 -2.77265e-09
  8 -8.27716e-07 3.01770e-09 6.74683e-09
  9 7.90614e-07 2.50111e-12 -5.30732e-09
  10 7.95014e-07 -1.61102e-09 -9.09272e-09
  11 8.15951e-07 -4.27766e-10 -7.38471e-09
  12 8.28665e-07 9.79526e-10 -1.63290e-08
  13 8.57265e-07 7.03343e-10 -1.64365e-08
  14 9.17607e-07 2.36923e-09 -2.27241e-08
  15 9.68213e-07 3.77349e-09 -4.06395e-08
  16 1.06031e-06 1.05495e-08 -5.51084e-08
  17 1.18165e-06 2.13308e-08 -1.05088e-07
  18 1.45199e-06 1.79522e-08 -1.32084e-07
  19 1.70486e-06 2.03281e-08 -1.76656e-07
  20 2.19894e-06 4.06817e-08 -2.34274e-07
  21 2.71645e-06 5.52882e-08 -3.70205e-07
  22 3.78582e-06 4.99540e-08 -4.60165e-07
  23 4.87241e-06 -1.76160e-08 -7.18282e-07
  24 6.06592e-06 2.16012e-07 -9.90442e-07
  25 8.25980e-06 9.78747e-08 -9.40978e-07
  26 8.93848e-06 7.48657e-07 -7.97871e-07
  27 9.85855e-06 1.18299e-06 -5.73398e-07
  28 6.86337e-06 1.75302e-06 2.29975e-07
  29 3.39289e-06 3.62120e-07 -7.27537e-08
  30 0.00000 0.00000 0.00000
  31 -4.30494e-11 -6.09361e-11 -6.72691e-12
  32 9.09495e-12 -2.03120e-11 -6.50036e-12
  33 1.18234e-11 2.50111e-12 3.35885e-12
  34 6.06330e-12 1.21266e-12 6.71703e-13
  35 3.63798e-12 9.09495e-13 2.46220e-12
  36 2.12215e-12 -9.08768e-28 2.22167e-12
  37 1.21266e-12 3.03165e-13 -5.76311e-14
  38 3.63798e-12 9.09495e-13 6.01750e-13
  39 9.09495e-13 2.27374e-13 6.80117e-13
  40 4.85064e-12 1.21266e-12 -4.39059e-14
  41 -3.03165e-13 -6.06330e-13 3.57108e-13
  42 9.09495e-13 -3.03165e-13 5.86373e-13
  43 2.42532e-12 6.06330e-13 -2.82430e-13
  44 1.21266e-12 3.03165e-13 3.23413e-13
  45 9.09495e-13 -3.03165e-13 8.03132e-13
  46 1.21266e-12 3.03165e-13 1.03852e-12
  47 0.00000 0.00000 1.03076e-12
  48 2.42532e-12 6.06330e-13 4.56024e-13
  49 -2.72848e-12 -1.21266e-12 2.22864e-14
  50 0.00000 0.00000 1.63333e-13
  51 0.00000 0.00000 -4.07002e-14
  52 -1.21266e-12 -3.03165e-13 -6.60104e-13
  53 -1.21266e-12 -3.03165e-13 -1.91058e-14
  54 3.63798e-12 9.09495e-13 7.04749e-14
  55 1.21266e-12 3.03165e-13 -1.16111e-12
  56 0.00000 0.00000 6.93491e-14
  57 -4.54747e-13 -9.09495e-13 -6.99257e-13
  58 1.21266e-12 3.03165e-13 5.67244e-13
  59 2.72848e-12 1.81899e-12 6.85748e-13
  60 1.81899e-12 4.54747e-13 9.22813e-13
  61 3.63798e-12 9.09495e-13 3.47337e-13
  62 -9.09495e-13 -2.27374e-13 1.06486e-13
  63 -2.72848e-12 -6.82121e-13 2.38859e-13
  64 -1.21266e-12 -3.03165e-13 -1.95134e-13
  65 0.00000 0.00000 -2.15855e-12
  66 -2.42532e-12 -6.06330e-13 -1.85479e-12
  67 1.21266e-12 3.03165e-13 -2.07638e-12
  68 -2.42532e-12 -6.06330e-13 3.80735e-13
  69 1.21266e-12 3.03165e-13 1.36445e-12
  70 -7.27014e-27 -1.81754e-27 -2.28359e-12
  71 0.00000 0.00000 -4.38726e-12
  72 -2.42532e-12 -6.06330e-13 -1.31602e-12
  73 -3.03165e-13 -6.06330e-13 -1.11575e-12
  74 -2.42532e-12 -6.06330e-13 4.19807e-13
  75 -4.85064e-12 -1.21266e-12 1.09410e-12
  76 -6.06330e-13 -1.81899e-12 1.93777e-12
  77 -3.03165e-13 -6.06330e-13 2.16898e-12
  78 -3.03165e-13 -6.06330e-13 -1.35822e-12
  79 2.72848e-12 1.81899e-12 4.89501e-13
  80 1.81899e-12 -1.21266e-12 -4.78161e-13
  81 3.94114e-12 -6.06330e-13 -7.99430e-13
  82 -3.03165e-13 -6.06330e-13 -2.53809e-12
  83 0.00000 0.00000 -3.51827e-12
  84 5.45261e-27 1.36315e-27 6.39282e-13
  85 -2.42532e-12 -6.06330e-13 1.50270e-12
  86 -2.42532e-12 -6.06330e-13 2.18963e-12
  87 -5.76013e-12 -3.33481e-12 1.15399e-13
  88 -4.54747e-13 -9.09495e-13 1.57560e-13
  89 3.18323e-12 0.00000 -1.08339e-12
  90 -2.72848e-12 -1.21266e-12 1.62588e-12
  91 7.04858e-12 2.95586e-12 1.01616e-12
  92 7.57912e-12 2.72848e-12 1.68943e-12
  93 -1.81899e-12 -6.06330e-13 -4.83585e-13
  94 -1.51582e-12 -9.09495e-13 -1.32247e-12
  95 4.85064e-12 9.09495e-13 9.88022e-13
  96 7.57912e-12 2.12215e-12 1.22863e-12
  97 -5.15380e-12 -1.81899e-12 -3.08660e-13
  98 -8.48862e-12 -1.51582e-12 3.15727e-13
  99 -4.54747e-13 -1.81899e-12 -1.29730e-13
  100 -2.72848e-12 -1.81899e-12 -2.42412e-12
  101 -6.06330e-13 -1.21266e-12 3.49352e-13
  102 2.50111e-12 1.36315e-27 -6.87417e-13
  103 -2.72848e-12 -1.51582e-12 1.22983e-12
  104 -8.18545e-12 -3.63798e-12 -1.51493e-12
  105 -9.09495e-13 -1.81899e-12 2.15854e-13
  106 3.94114e-12 -1.21266e-12 -2.46521e-13
  107 1.81899e-12 -1.59162e-12 7.84143e-13
  108 -1.21266e-12 -3.03165e-12 -1.87622e-12
  109 -8.64020e-12 -5.00222e-12 -1.01243e-12
  110 -3.83672e-07 2.15406e-06 -2.47916e-07
  111 -2.92923e-06 2.36745e-06 -1.07618e-06
  112 -4.75581e-06 1.73875e-06 -1.13907e-06
  113 -6.65100e-06 1.48548e-06 -8.69650e-07
  114 -7.80294e-06 1.13624e-06 -8.11303e-08
  115 -9.46561e-06 5.27893e-07 4.96442e-07
  116 -1.33065e-05 -1.62528e-06 2.45806e-06
  117 -3.33782e-06 -6.21352e-06 3.23216e-06
  118 -7.02982e-07 -3.66673e-06 1.10676e-06
  119 -2.06957e-07 -2.54985e-06 4.68827e-07
  120 -8.23284e-08 -1.78535e-06 2.35947e-07
  121 -4.68208e-08 -1.35128e-06 1.45333e-07
  122 -1.94498e-08 -1.12774e-06 9.89252e-08
  123 -8.03690e-09 -9.03211e-07 7.79845e-08
  124 -7.89593e-09 -7.76912e-07 7.10421e-08
  125 -8.70053e-09 -6.23112e-07 5.85783e-08
  126 -8.01750e-09 -5.08626e-07 4.44753e-08
  127 -3.32875e-09 -4.26329e-07 3.64658e-08
  128 -3.83716e-09 -3.27483e-07 3.20785e-08
  129 -2.83459e-09 -2.63086e-07 2.64710e-08
  130 -5.93673e-10 -2.05781e-07 3.13712e-08
  131 -1.49278e-09 -1.47756e-07 2.48977e-08
  132 -2.19067e-09 -9.93999e-08 2.02802e-08
  133 -2.51597e-09 -5.45560e-08 1.45205e-08
  134 -4.46259e-10 -2.82556e-08 1.08026e-08
  135 -2.04636e-10 -1.10899e-08 1.08586e-08
  136 -2.19491e-10 5.96143e-09 5.59568e-09
  137 1.01272e-09 9.72977e-09 1.04077e-09
  138 8.24002e-10 1.51094e-08 -2.01527e-09
  139 2.55720e-09 7.93110e-09 -3.32474e-09
  140 9.45147e-09 2.87673e-09 -2.55660e-09
  141 1.29967e-08 1.68166e-09 -1.96022e-09
  142 8.80186e-09 3.39924e-10 2.14543e-09
  143 2.72090e-09 6.22094e-10 5.30566e-09
  144 -1.95035e-08 -6.60899e-11 1.08499e-08
  145 -5.44772e-08 6.79089e-10 1.79031e-08
  146 -9.36458e-08 3.49125e-09 2.00784e-08
  147 -1.47127e-07 1.81050e-09 2.22176e-08
  148 -1.96325e-07 1.03804e-09 2.86008e-08
  149 -2.65400e-07 4.04907e-09 3.18033e-08
  150 -3.38040e-07 3.41485e-09 3.24512e-08
  151 -3.91007e-07 5.32145e-09 3.66383e-08
  152 -4.73477e-07 7.11134e-09 3.19920e-08
  153 -5.26044e-07 7.58094e-09 3.10521e-08
  154 -5.87189e-07 6.72208e-09 2.46950e-08
  155 -6.49926e-07 7.09618e-09 1.99813e-08
  156 -6.86259e-07 5.91808e-09 2.23621e-08
  157 -7.13210e-07 4.17610e-09 2.10197e-08
  158 -7.62364e-07 8.34856e-09 1.23320e-08
  159 -7.84783e-07 7.11225e-09 1.38737e-08
  160 -7.98116e-07 3.38514e-09 6.88262e-09
  161 -8.23680e-07 4.58840e-09 3.27277e-09
  162 -8.28701e-07 8.52136e-09 4.71631e-09
  163 -8.13255e-07 1.53705e-09 -8.47897e-10
  164 -7.19359e-07 -2.80534e-09 6.21869e-09
  165 -6.26381e-07 7.88123e-09 1.14325e-08
  166 -5.34504e-07 1.95946e-08 7.24747e-09
  167 -4.14620e-07 3.03492e-08 6.82912e-09
  168 -3.19471e-07 4.02785e-08 6.66369e-09
  169 -2.07038e-07 4.58335e-08 8.08789e-09
  170 -9.40548e-08 5.37954e-08 6.56443e-09
  171 -6.16213e-09 5.95495e-08 4.41979e-09
  172 1.02915e-07 6.02225e-08 9.73415e-10
  173 2.10254e-07 4.98421e-08 1.00504e-09
  174 3.20446e-07 4.01836e-08 -2.79706e-10
  175 4.23303e-07 3.22289e-08 -7.43086e-10
  176 5.39531e-07 1.60612e-08 -8.23865e-10
  177 6.47334e-07 1.11277e-08 4.74317e-10
  178 7.27447e-07 7.25231e-09 -9.12196e-11
  179 -3.44621e-07 2.65544e-07 1.89326e-07
  180 6.49639e-13 2.59856e-13 -7.23600e-13
  181 -1.99877e-07 -8.38991e-08 2.92861e-07
  182 -9.09495e-13 -9.09495e-13 -1.06300e-12
  183 -8.36931e-07 6.52414e-07 1.46083e-08
  184 -1.81899e-12 -4.54747e-13 2.20314e-13
  185 -3.96634e-07 -1.73956e-07 5.48868e-07
  186 2.18279e-12 5.45697e-13 1.29082e-12
  187 -1.81899e-12 -4.54747e-13 -8.47759e-13
  188 -3.42009e-07 8.73512e-08 8.81957e-08
  189 2.06778e-07 1.33253e-07 -6.78719e-08
  190 0.00000 0.00000 9.70560e-14
  191 -3.72270e-07 6.88257e-08 2.09332e-07
  192 -7.57912e-13 -4.54747e-13 -1.87677e-12
  193 1.72153e-07 3.45332e-07 -2.31842e-07
  194 3.63798e-12 9.09495e-13 -4.43157e-13
  195 -6.51818e-08 -6.98157e-08 1.07112e-07
  196 -2.27374e-12 -9.09495e-13 1.34433e-12
  197 -3.78956e-12 -1.81899e-12 -1.52365e-13
  198 -7.41078e-07 -5.70696e-07 8.97591e-07
  199 -9.52238e-08 -3.01512e-07 2.96142e-07
  200 -4.39589e-12 -2.12215e-12 -1.49482e-12
  201 -2.15574e-06 7.38193e-07 -1.20632e-07
  202 3.45608e-12 -1.09139e-12 -1.93476e-12
  203 -5.61060e-08 8.97715e-08 8.78834e-09
  204 1.45519e-12 3.63798e-13 1.40831e-13
  205 -1.47793e-12 -5.68434e-13 -8.84028e-13
  206 -4.91726e-07 2.97158e-08 4.12495e-08
  207 -2.89773e-07 3.37635e-09 1.94274e-07
  208 -2.12215e-12 -9.09495e-13 -1.82746e-13
  209 -1.46039e-07 1.99943e-07 3.96631e-08
  210 -3.03165e-13 -1.51582e-13 -1.09834e-13
  211 -3.49835e-07 5.12272e-08 3.83159e-07
  212 -1.55913e-12 -3.89783e-13 -1.38788e-12
  213 -7.79567e-13 -2.59856e-13 -1.54972e-13
  214 -4.75667e-07 3.97632e-08 1.15908e-07
  215 1.21266e-12 3.03165e-13 -7.96201e-13
  216 5.03460e-07 3.88479e-08 -4.08663e-08
  217 -1.38481e-07 -6.36485e-07 4.22873e-07
  218 -3.89783e-13 -7.79567e-13 -7.25073e-13
  219 -4.24096e-08 -1.74162e-07 1.52068e-07
  220 -1.81899e-12 -4.54747e-13 -8.19738e-14
  221 -5.28415e-07 3.10532e-07 3.03807e-07
  222 -2.72848e-12 -7.57912e-13 -6.03121e-13
  223 -1.66715e-07 -2.55739e-08 1.38331e-07
  224 -3.78956e-12 -1.06108e-12 3.03483e-13
  225 6.00530e-07 9.89952e-08 -1.51325e-07
  226 0.00000 0.00000 5.93730e-13
  227 6.36201e-07 4.08704e-07 -5.80875e-07
  228 1.29928e-12 2.59856e-13 7.39340e-13
  229 2.24010e-06 5.03458e-07 2.80968e-06
  230 1.67325e-06 -4.59994e-07 -3.99433e-08
  231 -8.00355e-12 -8.73115e-12 -3.67826e-12
  232 -3.21110e-07 1.60773e-07 1.66933e-07
  233 -4.24431e-12 -7.57912e-13 -2.64717e-13
  234 -3.06691e-07 3.17924e-08 2.88095e-07
  235 4.54747e-13 -1.51582e-13 -4.58176e-13
  236 5.38913e-07 6.87007e-07 -1.04622e-06
  237 -3.81988e-12 1.09139e-12 -5.52622e-14
  238 2.08328e-07 6.56650e-08 -2.19236e-08
  239 2.72848e-12 3.63798e-13 -4.94579e-13
  240 -3.98889e-07 1.89571e-08 1.46645e-07
  241 4.54747e-13 -1.51582e-13 5.60018e-13
  242 -1.36424e-12 -6.06330e-13 -5.40379e-14
  243 -2.14782e-08 -2.36182e-08 2.58856e-08
  244 -5.58365e-07 2.48086e-08 6.34950e-08
  245 1.66741e-12 1.66741e-12 -6.02714e-13
  246 -1.32068e-07 3.12632e-07 -1.64535e-08
  247 3.03165e-13 1.81899e-12 6.88856e-13
  248 -2.51339e-07 5.00570e-07 -1.37941e-07
  249 -1.51582e-12 7.57912e-13 5.04551e-13
  250 -5.19711e-13 -1.29928e-13 -5.97164e-13
  251 -2.79470e-07 5.76231e-08 2.52218e-08
  252 -1.38605e-06 -1.39624e-06 1.44714e-06
  253 -4.67740e-12 -3.24820e-12 -7.53904e-13
  254 -2.55387e-07 -1.02645e-07 3.91442e-07
  255 -1.81899e-12 -4.54747e-13 -2.65955e-13
  256 -2.42783e-06 4.11429e-08 -1.10518e-06
  257 -3.48906e-07 1.41715e-07 2.58230e-07
  258 -4.69906e-12 -1.51582e-13 3.27833e-13
  259 -7.60431e-07 1.91241e-07 5.36389e-07
  260 -7.27596e-13 -9.09495e-13 -5.16007e-13
  261 7.71136e-07 1.87883e-06 9.81993e-07
  262 -1.21266e-12 -3.03165e-13 4.42769e-13
  263 7.80946e-07 1.69476e-07 -3.17888e-07
  264 2.72848e-12 1.03942e-12 -5.67650e-13
  265 -1.91446e-08 -8.20055e-08 6.23098e-08
  266 -5.45697e-12 -1.81899e-12 1.04802e-12
  267 4.00178e-12 3.63798e-13 -1.25350e-12
  268 -4.02354e-08 -4.09499e-07 2.11006e-07
  269 -1.10706e-07 -1.06206e-07 1.96057e-07
  270 -2.72848e-12 -1.09139e-12 -6.26076e-13
  271 -2.21751e-07 -1.02221e-06 5.77044e-07
  272 -1.81899e-12 -3.03165e-12 -2.41194e-12
  273 -7.66543e-08 -1.35310e-08 5.85429e-08
  274 2.27374e-12 0.00000 -2.71385e-12
  275 2.35028e-07 2.07576e-07 -1.35970e-07
  276 3.63798e-12 9.09495e-13 5.81857e-14
  277 1.92039e-08 8.05197e-07 -1.36689e-06
  278 0.00000 0.00000 -1.55476e-13
  279 -1.93218e-07 1.24319e-07 4.93440e-08
  280 -2.44481e-08 -2.49440e-07 1.34149e-07
  281 -3.84629e-07 8.90115e-08 1.62690e-07
  282 -1.29928e-12 -1.29928e-13 -5.85025e-13
  283 -1.41127e-06 -2.47231e-07 1.55603e-06
  284 3.63798e-12 9.09495e-13 6.40122e-13
  285 6.46266e-07 3.35062e-08 -6.21350e-08
  286 -1.39000e-06 4.50593e-07 4.79398e-07
  287 -1.81899e-13 -7.27596e-13 -1.99235e-12
  288 -3.48640e-12 1.97057e-12 -5.12322e-13
  289 -2.37614e-07 -3.93175e-09 1.24025e-07
  290 -1.03942e-12 -2.59856e-13 -5.75962e-13
  291 -4.80733e-12 -4.67740e-12 -2.10258e-12
  292 -2.12581e-07 -3.34272e-08 2.13305e-07
  293 -1.42921e-12 -6.49639e-13 -2.33808e-13
  294 -4.54276e-07 1.01673e-07 4.37378e-07
  295 -2.72848e-12 -7.57912e-13 -4.69684e-15
  296 -6.63043e-07 8.44936e-09 1.29535e-08
  297 -1.81899e-12 -4.54747e-13 1.46492e-13
  298 -3.97515e-06 -1.73648e-06 1.90111e-06
  299 -3.37812e-12 -9.09495e-13 -4.29305e-15
  300 -5.10171e-07 1.40740e-08 8.95817e-08
  301 -1.22314e-07 -1.66901e-07 2.67722e-07
  302 1.70530e-12 2.27374e-13 -2.00504e-12
  303 -3.51076e-07 3.82766e-07 8.98743e-08
  304 1.03942e-12 2.59856e-13 -6.49947e-14
  305 -3.38638e-07 6.49000e-08 5.67884e-08
  306 9.09495e-13 2.59856e-13 -4.86859e-13
  307 1.51583e-08 1.26211e-07 -1.04624e-08
  308 -2.98834e-12 -1.03942e-12 -3.37769e-13
  309 -1.99749e-07 -3.75277e-07 4.52113e-07
  310 1.29928e-13 -6.49639e-13 -1.95593e-12
  311 3.81432e-08 6.60478e-08 -2.21384e-09
  312 -1.36424e-12 -7.95808e-13 -9.11489e-13
  313 -3.35941e-07 5.62509e-09 1.05995e-07
  314 3.37812e-12 3.89783e-13 -8.52248e-14
  315 -3.84021e-07 -4.73057e-07 6.42818e-07
  316 1.66741e-12 0.00000 8.57900e-13
  317 2.59856e-12 6.49639e-13 -1.31723e-13
  318 6.65608e-07 1.01223e-08 -1.31804e-08
  319 -1.84711e-07 1.61231e-06 1.39434e-06
  320 -2.57029e-07 1.49301e-07 9.47621e-08
  321 0.00000 0.00000 8.40702e-13
  322 -4.55830e-07 5.05553e-08 9.82838e-08
  323 -7.79567e-13 -2.59856e-13 1.11290e-12
  324 -2.53092e-07 2.31493e-07 1.10743e-07
  325 2.59856e-13 0.00000 -1.10753e-12
  326 -2.78308e-07 -2.20755e-08 3.42854e-07
  327 3.24820e-12 9.09495e-13 -1.83946e-13
  328 -3.56561e-08 -6.04305e-07 2.13795e-07
  329 -2.12215e-12 -1.06108e-12 -1.34780e-14
  330 -6.56905e-07 8.26140e-09 2.63179e-08
  331 3.99442e-07 3.89816e-08 -2.19191e-08
  332 6.49639e-13 -5.19711e-13 -1.82871e-12
  333 4.40618e-07 7.66033e-08 -7.59804e-08
  334 3.33481e-12 3.03165e-13 -9.97878e-13
  335 -2.07885e-12 -5.19711e-13 -3.16068e-13
  336 -5.79658e-07 1.69336e-08 6.88968e-08
  337 -4.38934e-07 2.85742e-08 1.60611e-08
  338 -1.93268e-12 -4.54747e-13 5.66138e-13
  339 -1.31765e-08 -1.27356e-07 7.19303e-08
  340 1.81899e-12 -1.81899e-13 -1.61578e-12
  341 -1.05106e-06 8.45004e-07 -3.36336e-07
  342 -5.45697e-12 8.65493e-29 -1.09969e-12
  343 4.21877e-08 1.97468e-07 -4.38936e-08
  344 9.09495e-13 0.00000 -2.11732e-13
  345 -4.12174e-07 2.14437e-07 3.06341e-07
  346 -2.42532e-12 -6.06330e-13 2.63733e-13
  347 -4.21167e-07 4.46545e-08 1.60082e-07
  348 2.88007e-12 4.54747e-13 9.33685e-14
  349 7.57912e-13 -4.85064e-12 1.11809e-12
  350 -3.81463e-07 -1.59987e-06 8.07921e-07
  351 -7.79567e-13 -2.33870e-12 1.44735e-12
  352 -3.29126e-07 3.45219e-08 2.36812e-07
  353 -1.63709e-12 -7.27596e-13 -1.71332e-13
  354 -1.26672e-07 -5.85203e-08 1.54095e-07
  355 3.63798e-12 7.27596e-13 4.58309e-13
  356 -3.37219e-06 -2.08892e-06 5.73195e-07
  357 3.43280e-06 3.68362e-07 -1.56438e-06
  358 1.53897e-06 3.00972e-07 -7.48477e-07
  359 -5.19711e-13 -2.59856e-13 1.62873e-12
  360 -1.62066e-07 6.28046e-07 -3.85957e-07
  361 -3.11827e-12 -7.79567e-13 5.68969e-13
  362 -7.27596e-12 -2.72848e-12 -1.41119e-12
  363 8.65413e-07 6.48159e-08 -1.53901e-07
  364 3.18323e-12 0.00000 -3.86325e-13
  365 -5.61498e-08 -8.50972e-07 2.81501e-07
  366 1.51119e-06 5.28398e-07 1.30179e-06
  367 -1.26843e-07 6.15814e-08 1.17937e-08
  368 1.36424e-12 2.52435e-29 1.23978e-12
  369 1.45986e-07 4.50295e-07 -3.60054e-07
  370 -1.45519e-12 -3.63798e-13 8.18405e-13
  371 5.11427e-07 1.78945e-07 -2.31237e-07
  372 -1.51582e-12 -4.54747e-13 1.35166e-12
  373 -4.39666e-07 4.89081e-08 6.98902e-08
  374 -9.09495e-13 -3.03165e-13 6.67349e-13
  375 -6.98435e-07 4.65435e-07 2.28454e-07
  376 -4.39589e-12 -6.06330e-13 -1.20914e-12
  377 -2.42532e-12 -6.06330e-13 7.40537e-13
  378 7.13498e-07 1.21311e-08 -2.65084e-08
  379 -1.27913e-07 3.92604e-07 -8.84532e-08
  380 6.06330e-13 1.51582e-13 -2.16209e-14
  381 -6.49639e-13 -3.89783e-13 3.22640e-13
  382 2.78332e-07 8.76140e-08 -4.81721e-08
  383 -2.78086e-08 -8.90226e-09 2.40288e-08
  384 -9.09495e-13 -9.09495e-13 -1.01350e-12
  385 4.03897e-28 1.00974e-28 -9.69104e-13
  386 -2.95283e-10 -3.82443e-10 -7.00931e-10
  387 -2.27374e-12 -2.27374e-12 -2.95106e-12
  388 -5.27415e-08 -1.04280e-07 1.17896e-07
  389 2.59856e-13 -5.19711e-13 4.01409e-13
  390 5.45697e-13 -1.81899e-13 5.72430e-13
  391 -2.20873e-07 8.83234e-08 4.30705e-08
  392 -8.09587e-09 -2.90997e-08 2.19884e-08
  393 1.00974e-28 4.54747e-13 -3.06339e-13
  394 -3.53324e-07 1.18850e-07 2.14404e-07
  395 -1.06108e-12 3.03165e-13 -6.22828e-13
  396 4.85064e-12 1.21266e-12 1.05230e-12
  397 1.26052e-06 1.41848e-07 -3.89203e-07
  398 -6.87993e-08 -2.29948e-07 2.24302e-07
  399 -1.29747e-07 -8.61943e-09 6.97079e-08
  400 -1.51582e-13 -3.03165e-13 -1.02839e-13
  401 7.57912e-13 7.57912e-13 -1.44366e-14
  402 1.21266e-12 3.03165e-13 1.79791e-12
  403 8.05530e-07 2.86474e-08 -8.14395e-08
  404 -2.56738e-07 -2.45400e-08 2.85023e-07
  405 9.09495e-13 9.09495e-13 -1.30565e-13
  406 3.92576e-07 1.29540e-07 -1.22243e-07
  407 -3.27418e-12 -1.45519e-12 5.21523e-14
  408 3.33481e-12 1.51582e-12 3.49802e-12
  409 2.37315e-06 3.65675e-07 -1.10534e-06
  410 -2.36469e-12 -5.45697e-13 -1.31945e-13
  411 -3.63798e-13 -7.27596e-13 -2.03344e-12
  412 -3.43886e-07 -7.00826e-08 4.62430e-07
  413 4.13279e-06 1.08000e-06 1.05632e-06
  414 -1.99556e-06 -7.79763e-08 9.81584e-07
  415 -4.54747e-12 -1.81899e-12 -2.74275e-12
  416 -3.42193e-07 7.93655e-08 2.61162e-07
  417 -1.21266e-12 -3.03165e-13 -1.25149e-12
  418 7.80017e-08 9.28145e-08 -1.32819e-08
  419 -7.27596e-13 -9.09495e-13 -1.07581e-12
  420 -7.27596e-13 -2.18279e-12 1.77950e-12
  421 2.42532e-12 6.06330e-13 -1.67349e-14
  422 -3.34897e-07 1.89081e-07 2.05341e-07
  423 -9.03203e-08 -5.00268e-07 3.22621e-07
  424 -1.97057e-12 -6.06330e-13 8.68510e-13
  425 -3.33855e-07 7.49375e-08 3.17442e-07
  426 -2.42532e-12 -7.57912e-13 1.74395e-12
  427 0.00000 0.00000 -8.81226e-13
  428 -3.48271e-07 1.07459e-07 1.29720e-07
  429 1.21266e-12 1.51582e-13 -1.20901e-12
  430 -1.63064e-07 -7.16611e-08 2.21377e-07
  431 -5.44286e-07 8.02540e-08 5.07125e-07
  432 -9.09495e-13 -3.03165e-13 5.96657e-13
  433 -5.09317e-12 -1.09139e-12 5.03389e-12
  434 -1.92741e-07 -2.31952e-07 3.97807e-07
  435 3.63798e-13 -5.45261e-28 -1.03751e-12
  436 -2.48197e-07 7.56454e-07 -5.20946e-07
  437 -1.51582e-13 4.54747e-13 8.33456e-13
  438 7.27596e-13 1.81899e-13 1.07026e-12
  439 -4.63208e-07 7.65594e-09 7.59989e-08
  440 -6.12620e-09 -3.18494e-07 8.90280e-08
  441 -8.11251e-09 -1.77441e-07 7.77627e-08
  442 -2.22356e-07 -1.23277e-08 1.62395e-07
  443 2.72848e-12 1.81899e-13 -1.55957e-12
  444 2.41447e-07 5.30410e-08 -1.07853e-08
  445 1.45519e-12 3.63798e-13 -4.58075e-13
  446 -3.21246e-08 -5.14621e-08 5.72518e-08
  447 -1.63709e-12 -5.45697e-13 -1.85964e-12
  448 -9.87910e-07 9.26805e-09 7.29370e-07
  449 -2.12215e-12 -3.03165e-13 -1.04595e-12
  450 -1.27329e-12 -1.27329e-12 -4.23852e-13
  451 -1.97896e-06 5.68313e-07 1.13020e-06
  452 1.97057e-12 -1.06108e-12 -8.01961e-13
  453 -2.54659e-12 -7.27596e-13 -6.94608e-13
  454 -6.72933e-07 7.69869e-09 3.40113e-08
  455 -3.52674e-07 1.80877e-08 1.81608e-07
  456 -1.45519e-12 -3.63798e-13 1.40127e-12
  457 -1.81013e-07 -5.75580e-10 7.92451e-08
  458 -1.55913e-12 -3.89783e-13 7.97792e-13
  459 -2.59633e-07 3.18177e-07 7.32089e-08
  460 1.59162e-12 1.25056e-12 5.15410e-13
  461 7.63741e-08 2.98391e-07 -1.34897e-07
  462 -3.03165e-13 -1.51582e-13 5.01402e-13
  463 -8.84567e-08 -1.63162e-07 2.15034e-07
  464 -1.97057e-12 -7.57912e-13 1.03012e-12
  465 -2.92554e-11 -2.68301e-11 -4.54327e-12
  466 -3.63798e-12 -9.09495e-13 -1.40922e-12
  467 -2.76667e-07 -4.22070e-07 5.39155e-07
  468 -1.01537e-07 -1.25486e-06 3.83261e-07
  469 5.27507e-12 1.81899e-13 -1.12033e-12
  470 -5.29905e-08 -3.42546e-08 6.27410e-08
  471 1.21266e-12 1.51582e-13 -1.74822e-12
  472 -1.04825e-06 -2.42273e-06 1.36617e-06
  473 -4.99357e-06 -1.37894e-06 -7.82026e-08
  474 -1.81899e-12 -5.45697e-13 -1.55519e-13
  475 -9.18897e-08 1.60842e-07 1.86731e-08
  476 -9.78174e-07 4.72553e-07 3.22890e-07
  477 -3.94114e-12 -1.06108e-12 -3.44262e-14
  478 -3.66158e-07 1.49143e-07 3.03507e-07
  479 3.63798e-13 -6.05845e-29 -4.91549e-13
  480 -5.00739e-07 4.79657e-07 9.33448e-08
  481 -2.91038e-12 -7.27596e-13 -4.85972e-13
  482 -2.06908e-07 -1.14034e-07 3.43608e-07
  483 -5.32704e-12 -1.42921e-12 -4.36731e-13
  484 -2.33870e-12 -6.49639e-13 5.06000e-13
  485 -5.71825e-07 1.24554e-08 6.60700e-08
  486 -5.93439e-07 9.14902e-07 -9.93091e-07
  487 5.50328e-07 1.99720e-08 -1.44256e-08
  488 1.81754e-27 4.54384e-28 8.84595e-14
  489 -1.51582e-12 -9.09495e-13 -1.44475e-12
  490 -3.84081e-07 4.33324e-08 3.50637e-08
  491 -3.72198e-07 4.49941e-08 1.97891e-07
  492 -1.36424e-12 -6.06330e-13 -1.75790e-12
  493 6.06330e-13 1.51582e-13 1.11117e-12
  494 -5.20531e-07 3.18223e-08 8.59613e-08
  495 -1.69093e-07 2.35307e-07 4.53900e-08
  496 -1.21266e-12 -3.03165e-13 -4.21798e-13
  497 -2.84314e-07 2.35559e-09 2.36568e-07
  498 3.63507e-27 9.08768e-28 -4.66280e-13
  499 7.25941e-07 4.93017e-07 -7.64073e-07
  500 -4.54747e-13 3.03165e-13 3.94924e-13
  501 -4.84294e-07 6.09138e-07 -1.37077e-07
  502 -2.12215e-12 1.51582e-13 -6.61520e-13
  503 -7.57912e-13 -4.54747e-13 9.76179e-14
  504 -1.80316e-07 7.14742e-08 2.22431e-08
  505 -3.63798e-13 -7.27596e-13 -9.74025e-13
  506 3.51028e-06 4.18957e-07 -1.50355e-06
  507 -7.57912e-13 -1.51582e-12 -1.59544e-13
  508 -2.33870e-12 -6.49639e-13 -8.43199e-13
  509 -4.35417e-07 3.04395e-07 2.37106e-07
  510 -1.21266e-12 1.97057e-12 -4.43282e-13
  511 4.24431e-12 -1.06108e-12 6.21398e-13
  512 -2.97411e-06 3.35702e-07 -4.52938e-07
  513 -6.06330e-13 -1.51582e-13 -3.08864e-13
  514 5.36559e-07 2.68902e-07 -3.50960e-07
  515 -5.72779e-08 -3.31746e-07 2.34408e-07
  516 2.72848e-12 7.79567e-13 -3.75409e-13
  517 -7.74045e-09 -3.27470e-09 6.78418e-09
  518 -3.63798e-12 -9.09495e-13 -4.25335e-13
  519 -3.19134e-07 4.19729e-08 1.29931e-08
  520 -4.43849e-09 -6.99820e-08 3.63342e-08
  521 -3.03165e-13 -6.06330e-13 1.84405e-12
  522 2.59856e-13 -3.89783e-13 -5.65244e-13
  523 3.73082e-07 5.77372e-08 -3.85556e-08
  524 5.04396e-07 2.58915e-06 8.72496e-07
  525 -3.19768e-07 -7.18654e-07 6.43828e-07
  526 -4.54384e-28 -7.95808e-13 -6.71145e-13
  527 -1.03942e-12 -3.89783e-13 4.16574e-13
  528 -4.23505e-07 6.40328e-08 1.27437e-07
  529 -2.97068e-07 7.00023e-09 5.83610e-08
  530 -2.82728e-27 -9.09495e-13 1.57052e-12
  531 -1.70064e-08 -4.81832e-07 1.47186e-07
  532 -7.02784e-07 7.12180e-09 1.48833e-08
  533 -2.42532e-12 -6.06330e-13 -1.21070e-12
  534 -8.57398e-07 -1.20785e-06 1.09488e-06
  535 -1.94892e-12 -1.68906e-12 -6.74246e-13
  536 -5.66306e-07 -1.29196e-07 6.40082e-07
  537 -1.45519e-12 -3.63798e-13 -1.20604e-12
  538 -1.02032e-07 -4.40473e-08 1.17473e-07
  539 2.12215e-12 0.00000 7.18658e-13
  540 -2.45981e-07 1.00764e-07 5.75359e-08
  541 -3.89783e-13 3.89783e-13 -1.05604e-12
  542 -5.31586e-07 2.56492e-08 4.67034e-08
  543 -1.09139e-12 -3.63798e-13 7.89109e-13
  544 -2.68866e-07 1.81355e-07 1.19190e-07
  545 -2.33870e-12 -6.49639e-13 -1.40501e-12
  546 -2.86855e-09 -3.75967e-09 4.02858e-09
  547 9.09495e-12 1.45519e-12 1.98192e-12
  548 -3.14926e-07 -4.53641e-08 4.21365e-07
  549 -1.81899e-12 -4.54747e-13 -7.76785e-13
  550 -2.80778e-07 -2.13893e-07 4.77260e-07
  551 0.00000 0.00000 -1.98656e-12
  552 3.63798e-12 9.09495e-13 -6.03070e-13
  553 5.95584e-07 6.48708e-08 -9.62280e-08
  554 3.41061e-13 -1.13687e-13 3.77669e-13
  555 4.22305e-07 1.55222e-07 -1.61597e-07
  556 2.42532e-12 6.06330e-13 3.02005e-13
  557 2.62538e-08 2.47965e-07 -6.94344e-08
  558 -1.09139e-12 -9.09495e-13 7.63227e-13
  559 1.40001e-07 1.09369e-07 -3.25217e-08
  560 -9.09495e-13 -3.03165e-13 7.16670e-14
  561 -2.54659e-12 -1.27329e-12 7.78890e-13
  562 -5.15926e-07 1.97089e-08 7.86866e-09
  563 4.36390e-06 1.58234e-06 2.05788e-06
  564 -1.31633e-06 8.01737e-07 -1.14572e-06
  565 5.92268e-06 3.70710e-07 -7.16163e-07
  566 1.13687e-12 -9.09495e-13 -6.49572e-13
  567 -9.09495e-13 -3.03165e-13 3.50700e-13
  568 -4.25804e-07 5.75934e-08 1.49355e-07
  569 -8.25809e-08 -3.80273e-07 2.92159e-07
  570 -1.71444e-07 -3.67578e-08 1.77817e-07
  571 -9.09495e-13 4.54747e-13 3.82307e-13
  572 2.30698e-06 1.97315e-06 2.65778e-06
  573 -7.56674e-08 1.08135e-07 1.30850e-08
  574 6.06330e-13 1.51582e-13 2.42161e-13
  575 -7.42309e-06 -6.45144e-07 1.32384e-06
  576 -1.54390e-07 -1.19134e-07 2.62641e-07
  577 3.78956e-12 1.51582e-13 -2.44735e-12
  578 -3.34879e-07 5.31175e-07 -1.64307e-06
  579 9.87963e-07 7.05196e-08 -1.98810e-07
  580 1.42921e-12 1.29928e-13 -3.36778e-13
  581 -1.34221e-06 -3.37675e-08 8.52623e-07
  582 2.84217e-12 1.02318e-12 -1.70875e-12
  583 -8.60191e-08 -9.13307e-08 1.46775e-07
  584 -4.28762e-12 -1.29928e-12 8.72698e-13
  585 1.21266e-12 -6.06330e-13 -1.26497e-12
  586 -7.57079e-07 -2.55764e-07 7.85196e-07
  587 -2.72630e-27 -6.81576e-28 2.09257e-13
  588 -4.12825e-07 7.16045e-09 6.73183e-08
  589 -1.13866e-06 -1.12572e-06 -9.82920e-07
  590 -1.29928e-12 -3.89783e-13 4.70738e-13
  591 -1.79714e-07 1.49940e-07 5.31153e-08
  592 -6.43058e-07 2.69031e-07 4.11271e-07
  593 -1.13687e-12 -1.13687e-13 -1.93962e-13
  594 7.24910e-07 2.63690e-07 -4.36564e-07
  595 0.00000 0.00000 7.05889e-13
  596 -4.77485e-12 -1.47793e-12 -5.93888e-13
  597 1.81899e-12 4.54747e-13 6.00560e-13
  598 7.65496e-07 9.70101e-09 -3.29702e-08
  599 9.09495e-13 0.00000 3.13869e-13
  600 -5.92179e-07 1.59351e-08 2.33561e-08
  601 -7.33680e-07 5.25082e-10 3.71710e-09
  602 -1.81899e-12 -4.54747e-13 7.21346e-13
  603 7.27596e-13 -1.45519e-12 -5.09007e-13
  604 -2.87300e-08 -1.13473e-07 9.21373e-08
  605 3.78956e-12 1.36424e-12 -1.48372e-12
  606 -2.86026e-07 2.93479e-09 1.47681e-07
  607 -9.09495e-13 -6.06330e-13 -1.18255e-12
  608 2.59856e-12 6.49639e-13 1.04822e-13
  609 2.74446e-07 2.46246e-07 -1.85969e-07
  610 1.03942e-12 2.59856e-13 8.56190e-14
  611 1.51868e-07 5.65309e-08 -6.18026e-09
  612 1.51582e-13 -1.21266e-12 -1.42872e-12
  613 -4.65777e-07 -8.31520e-07 7.85583e-07
  614 -5.00040e-09 -4.20893e-08 2.60703e-08
  615 2.20877e-12 9.09495e-13 6.53895e-13
  616 2.72848e-12 -2.98834e-12 2.92409e-13
  617 -5.71491e-08 -3.44906e-09 3.09059e-08
  618 1.42921e-12 3.89783e-13 -1.02620e-12
  619 4.54747e-13 -1.21266e-12 -1.44439e-12
  620 7.78739e-08 1.51336e-07 -3.71575e-08
  621 -2.04636e-12 -5.68434e-13 1.33596e-14
  622 -4.62377e-07 2.15722e-07 3.52454e-07
  623 -3.03165e-12 -7.57912e-13 -1.44060e-12
  624 -2.12081e-08 -1.03667e-06 1.87873e-07
  625 -3.52256e-07 1.88781e-07 2.46494e-07
  626 -3.06954e-12 -9.09495e-13 -1.71127e-12
  627 -3.93103e-07 6.71280e-08 1.81639e-07
  628 1.51582e-12 -1.51582e-13 6.59832e-15
  629 -6.54693e-09 -2.51289e-07 7.50458e-08
  630 -6.82121e-13 -2.27374e-13 3.19402e-13
  631 -6.70049e-07 5.99846e-09 3.40226e-08
  632 -6.49639e-13 -3.89783e-13 -4.20216e-13
  633 -7.41125e-08 7.39009e-08 9.83529e-09
  634 -1.16935e-12 -5.19711e-13 -6.23184e-13
  635 5.56652e-07 4.38744e-08 -5.87074e-08
  636 -3.63798e-12 -3.48640e-12 -1.75245e-12
  637 1.75204e-07 1.65771e-07 -8.02281e-08
  638 -6.06330e-13 -1.51582e-13 -3.66865e-13
  639 -1.62957e-07 -1.81432e-07 3.24813e-07
  640 4.54747e-12 1.27329e-12 -2.18407e-12
  641 -3.02141e-06 -3.59375e-08 7.66546e-07
  642 -5.43992e-06 4.09625e-07 7.01199e-07
  643 -2.20877e-12 -7.79567e-13 5.48173e-13
  644 -5.20665e-07 5.67512e-09 5.24317e-08
  645 -1.81899e-12 -4.54747e-13 -1.00652e-12
  646 -3.72034e-07 6.63285e-08 7.17325e-08
  647 -2.23857e-08 -1.98419e-07 1.16660e-07
  648 -5.32704e-12 -7.27596e-12 -3.15974e-12
  649 -3.63507e-27 -9.08768e-28 2.63373e-13
  650 7.17769e-07 2.58039e-09 -4.91623e-09
  651 1.70530e-12 2.27374e-13 -4.25637e-13
  652 -1.16122e-07 -2.08004e-08 9.59577e-08
  653 3.03165e-13 -7.57912e-13 8.77647e-13
  654 -1.29928e-13 -2.59856e-13 7.68528e-13
  655 7.45069e-07 2.47850e-09 -1.16309e-08
  656 -3.49152e-07 1.21091e-07 1.79347e-07
  657 -1.42921e-12 3.89783e-13 -2.48655e-13
  658 -1.53959e-06 6.65615e-07 1.57818e-07
  659 -3.78956e-12 -1.06108e-12 -2.72541e-14
  660 1.94892e-12 2.59856e-13 7.56070e-13
  661 1.65755e-06 8.47220e-08 -3.67430e-07
  662 -1.93647e-08 -7.18084e-07 1.47710e-07
  663 2.91038e-12 7.27596e-13 3.05597e-13
  664 -4.99874e-07 2.19494e-08 2.57128e-08
  665 -1.71626e-06 -3.27990e-06 1.89050e-06
  666 -3.89783e-13 -3.89783e-13 -5.05281e-14
  667 -4.86713e-08 6.01584e-08 -1.06384e-10
  668 -2.54689e-07 7.46876e-08 3.58005e-08
  669 2.72848e-12 4.32747e-29 1.41853e-13
  670 -1.66741e-12 1.51582e-13 4.25219e-15
  671 -2.48194e-07 1.24500e-07 7.21748e-08
  672 -1.74405e-08 4.24746e-07 -2.11675e-07
  673 -1.81899e-12 -4.54747e-13 1.90108e-13
  674 -4.08400e-07 1.23824e-07 3.80760e-07
  675 -1.81899e-12 -4.54747e-13 -7.06290e-13
  676 -9.09495e-13 -3.03165e-13 -6.25152e-13
  677 -4.64112e-07 3.22590e-08 1.26429e-07
  678 1.55913e-12 3.89783e-13 -3.09647e-13
  679 -4.42728e-07 2.40039e-08 1.32100e-07
  680 1.16935e-12 0.00000 2.12720e-12
  681 -7.12438e-12 -1.66741e-12 -9.45073e-13
  682 2.50424e-06 1.55674e-07 -6.77557e-07
  683 1.53910e-06 2.99492e-07 1.99678e-06
  684 -2.34416e-07 8.40113e-10 6.11556e-08
  685 -1.94892e-12 -7.79567e-13 4.81217e-13
  686 -4.30022e-07 -2.29684e-08 4.97793e-07
  687 -1.36424e-12 -7.95808e-13 8.10546e-13
  688 -3.11827e-12 -7.79567e-13 -1.72853e-12
  689 -7.25861e-07 4.32932e-09 1.82002e-08
  690 -1.07102e-07 -2.33859e-07 2.81401e-07
  691 -1.98650e-07 -1.27675e-08 1.28922e-07
  692 -2.42532e-12 -6.06330e-13 -4.62940e-13
  693 -7.27596e-12 -3.37812e-12 -2.71701e-12
  694 -2.13331e-07 4.84454e-08 6.57230e-09
  695 1.29928e-13 -6.49639e-13 2.10398e-14
  696 -3.78889e-07 8.46073e-08 1.13250e-07
  697 -2.33870e-12 -6.49639e-13 -6.88815e-13
  698 -1.15507e-06 6.27086e-07 1.33899e-07
  699 -7.40589e-12 -1.94892e-12 -8.52404e-13
  700 -7.67407e-08 3.20754e-06 4.08272e-07
  701 -2.41609e-07 -2.10252e-06 6.24225e-07
  702 -7.94901e-08 -1.28983e-07 1.75336e-07
  703 -1.81899e-12 -5.19711e-13 4.28630e-13
  704 -2.07885e-12 -5.19711e-13 -8.50452e-14
  705 -3.16797e-07 1.40608e-07 1.34980e-07
  706 8.33674e-07 6.84940e-09 -3.84611e-08
  707 2.42532e-12 6.06330e-13 4.56522e-13
  708 6.06330e-13 1.51582e-13 -4.47141e-13
  709 1.13919e-07 7.47750e-08 -1.19985e-08
  710 -3.08384e-07 3.21038e-08 3.20845e-07
  711 2.57690e-12 7.57912e-13 6.28643e-13
  712 -4.04040e-07 4.92212e-08 4.88408e-08
  713 -4.54747e-13 4.54747e-13 -5.31093e-13
  714 -1.99667e-07 -5.67792e-08 2.48334e-07
  715 -3.50805e-12 -1.16935e-12 -5.50710e-13
  716 4.15769e-12 1.03942e-12 -2.36269e-13
  717 5.63906e-07 2.20394e-08 -2.48824e-08
  718 0.00000 0.00000 -3.89832e-13
  719 4.17704e-07 6.64019e-08 -5.89575e-08
  720 3.03165e-13 -2.42532e-12 7.40421e-13
  721 -4.32926e-07 -1.16376e-06 8.19331e-07
  722 -2.53847e-07 -9.78995e-09 2.14494e-07
  723 -2.88007e-12 -1.36424e-12 1.47648e-12
  724 -1.61851e-07 -5.09809e-07 4.26210e-07
  725 -2.41559e-07 -4.20905e-08 3.10671e-07
  726 -4.54747e-13 4.54747e-13 5.66308e-14
  727 -7.27596e-13 -1.81899e-13 -1.22931e-12
  728 -5.34366e-07 2.05979e-08 8.93147e-08
  729 -3.43924e-07 1.52005e-07 2.23207e-07
  730 1.03942e-12 2.59856e-13 3.31384e-13
  731 4.80733e-12 3.11827e-12 4.01700e-12
  732 3.33764e-07 7.80085e-07 -1.23847e-06
  733 -3.94100e-08 -7.68555e-08 8.43037e-08
  734 2.61480e-12 3.41061e-13 1.53510e-12
  735 -1.46018e-06 -6.39462e-07 1.20258e-06
  736 -7.57912e-12 -3.03165e-12 -1.52871e-12
  737 -5.33775e-07 1.82996e-07 4.30949e-07
  738 -2.72848e-12 -7.57912e-13 -8.28225e-13
  739 -1.46155e-07 -3.21769e-07 3.73604e-07
  740 -1.03942e-12 2.16373e-29 -4.49250e-13
  741 -2.47878e-07 4.32691e-07 -4.56482e-08
  742 -1.06108e-12 3.03165e-13 -3.47800e-13
  743 -8.64800e-10 -3.85277e-07 6.89187e-08
  744 -2.79393e-07 2.72239e-07 1.22690e-07
  745 1.45519e-12 3.63798e-13 -9.98617e-13
  746 1.23907e-06 4.85444e-08 -2.05665e-07
  747 3.03165e-12 7.57912e-13 3.08202e-13
  748 1.81899e-12 -1.68906e-12 -4.74557e-13
  749 -9.09495e-13 3.63798e-13 9.09466e-13
  750 -1.57982e-07 3.62044e-07 -2.65704e-08
  751 -1.51582e-13 -3.03165e-13 -1.54426e-12
  752 -3.81527e-07 2.02064e-08 4.35952e-07
  753 -9.09495e-13 -9.09495e-13 9.46823e-13
  754 -3.57473e-07 4.52401e-09 5.27686e-08
  755 1.69084e-07 8.43473e-08 -2.78828e-08
  756 -2.59856e-13 -6.49639e-13 -1.53137e-13
  757 -3.63623e-07 3.11336e-07 1.69662e-07
  758 3.45608e-12 9.09495e-13 6.45479e-14
  759 -3.27076e-07 5.02973e-08 2.62690e-07
  760 -1.97057e-12 -7.57912e-13 -4.23191e-13
  761 -5.19711e-13 1.81899e-12 1.02805e-12
  762 -5.75312e-07 1.91832e-08 6.45302e-08
  763 9.09495e-13 9.09495e-13 -9.31147e-13
  764 -9.20299e-06 -3.43116e-06 1.85992e-06
  765 -4.80154e-07 3.99715e-08 7.88186e-08
  766 0.00000 0.00000 4.86045e-13
  767 0.00000 -6.06330e-13 1.96196e-13
  768 7.51230e-07 1.27110e-07 -2.38296e-07
  769 3.76367e-07 1.60063e-07 2.11218e-06
  770 9.14751e-07 1.53907e-08 -7.97883e-08
  771 5.19711e-13 1.29928e-13 7.64740e-13
  772 2.42532e-12 6.06330e-13 -7.73391e-13
  773 3.13222e-07 1.00432e-07 -7.13209e-08
  774 -2.20877e-12 -2.85841e-12 -2.73891e-12
  775 -7.09858e-08 2.21674e-07 2.03981e-10
  776 -1.97057e-12 -7.57912e-13 8.21182e-13
  777 -6.71078e-08 -7.06244e-07 3.08884e-07
  778 -3.11827e-12 -1.03942e-12 -1.85761e-12
  779 0.00000 0.00000 -4.91371e-13
  780 3.71696e-07 3.71892e-08 -1.00884e-08
  781 -1.97057e-12 -7.57912e-13 5.56411e-14
  782 6.29359e-07 1.19262e-08 -6.59381e-09
  783 -2.88007e-12 -1.51582e-13 -1.64257e-13
  784 -4.30969e-08 -5.03793e-07 2.47127e-07
  785 -6.06330e-13 -1.51582e-13 1.36817e-13
  786 -4.68773e-07 4.00114e-07 1.63254e-07
  787 -3.63474e-06 1.38366e-06 -3.24728e-07
  788 -7.44274e-08 5.14825e-07 -3.08974e-07
  789 -2.42532e-12 -6.06330e-13 4.89695e-13
  790 -3.77502e-07 1.06916e-08 1.24784e-07
  791 -3.94114e-12 -1.36424e-12 5.64932e-15
  792 -1.56864e-07 -8.09962e-07 4.56002e-07
  793 -1.05846e-07 -1.56513e-06 3.64218e-07
  794 -4.81867e-07 -1.00930e-06 1.05200e-06
  795 -4.44769e-09 -1.39406e-07 4.48596e-08
  796 -2.52566e-07 -6.88384e-08 3.60909e-07
  797 4.36209e-27 1.09052e-27 -1.31001e-12
  798 -3.06115e-07 1.97261e-07 1.59968e-07
  799 -4.54747e-13 4.54747e-13 -5.32690e-13
  800 1.47744e-06 4.58514e-07 -1.02778e-06
  801 -4.54747e-13 1.06108e-12 1.50630e-12
  802 -5.74579e-06 -3.65348e-06 2.18288e-06
  803 -2.95586e-12 -5.68434e-13 7.78345e-13
  804 -6.04445e-07 1.52562e-08 4.09209e-08
  805 -8.79669e-08 -6.64386e-10 3.44816e-08
  806 1.97057e-12 -6.06330e-13 -7.82163e-13
  807 -2.93468e-07 -2.74451e-07 5.14595e-07
  808 -2.33870e-12 -7.79567e-13 -2.91655e-12
  809 -3.63798e-12 -9.09495e-13 7.31938e-13
  810 2.00410e-07 5.11527e-07 -4.70261e-07
  811 1.73412e-08 8.26061e-08 -5.37138e-10
  812 4.54747e-13 -1.51582e-13 -1.46892e-13
  813 3.93343e-07 -6.31139e-08 -1.63277e-06
  814 -1.03942e-12 -2.59856e-13 -2.70135e-13
  815 -3.08985e-07 1.13861e-07 1.04170e-07
  816 -4.17414e-07 -2.71914e-07 6.06910e-07
  817 -2.20877e-12 -6.49639e-13 5.82780e-14
  818 -1.13687e-12 -6.82121e-13 5.33838e-13
  819 3.24820e-12 -1.81899e-12 1.09074e-12
  820 -6.06330e-13 -1.51582e-13 9.40513e-13
  821 -6.52995e-07 3.98222e-09 3.42910e-08
  822 -1.29133e-08 -5.76245e-07 9.68713e-08
  823 2.33870e-12 -3.89783e-13 2.63389e-13
  824 -2.55865e-08 -2.12958e-09 1.70024e-08
  825 7.57912e-13 7.57912e-13 -3.44203e-13
  826 -3.03165e-12 -6.21488e-12 -1.40950e-12
  827 -2.01506e-07 2.70575e-07 5.66028e-08
  828 1.66741e-12 1.66741e-12 2.25447e-13
  829 1.12877e-06 2.83766e-07 -5.89401e-07
  830 2.42532e-12 4.54747e-13 1.64625e-12
  831 -5.86219e-07 9.05963e-09 4.16409e-08
  832 -1.51582e-12 -4.54747e-13 -1.49398e-12
  833 -3.94114e-12 -1.66741e-12 1.03514e-12
  834 4.07863e-09 3.87793e-09 -2.92483e-09
  835 -4.54747e-12 -1.81899e-12 -1.50563e-12
  836 -1.97057e-12 -7.57912e-13 -1.75648e-13
  837 -7.62387e-07 5.64129e-09 7.75142e-09
  838 -3.63798e-12 -9.09495e-13 2.89738e-13
  839 -7.19459e-07 -1.83919e-06 1.10211e-06
  840 2.90397e-07 5.81806e-08 -2.10355e-08
  841 1.42921e-12 1.29928e-13 -7.99770e-13
  842 -4.56830e-07 2.77627e-08 8.19299e-09
  843 -2.00089e-12 5.45697e-13 1.26949e-12
  844 7.45317e-07 6.01203e-08 -1.31415e-07
  845 1.66741e-12 1.51582e-13 1.21794e-12
  846 -1.31643e-07 3.56340e-09 3.70055e-08
  847 2.42532e-12 6.06330e-13 5.63508e-13
  848 -2.32334e-06 -1.57457e-06 1.79455e-06
  849 -6.21488e-12 6.06330e-13 6.08758e-13
  850 4.63386e-07 3.73246e-08 -2.91799e-08
  851 2.54659e-12 0.00000 -7.71023e-13
  852 -4.08814e-07 8.95566e-07 -8.43068e-07
  853 -2.12140e-07 2.05363e-07 7.92593e-08
  854 1.81899e-12 3.63798e-13 -1.51059e-12
  855 -4.83103e-08 1.83083e-07 6.58280e-10
  856 3.89783e-13 -1.29928e-13 3.39051e-13
  857 3.87630e-06 1.95610e-07 -1.07913e-06
  858 -3.18982e-07 3.36901e-08 3.52463e-07
  859 -3.03165e-13 -1.51582e-13 2.12300e-13
  860 -3.54640e-07 4.09498e-08 2.38899e-08
  861 -3.18323e-12 -1.06108e-12 -8.60205e-13
  862 0.00000 0.00000 -1.96295e-13
  863 1.74129e-07 6.23747e-08 -1.29514e-08
  864 -4.39589e-12 -4.69906e-12 -3.30930e-14
  865 6.47050e-07 1.09781e-07 -1.82474e-07
  866 2.12215e-12 0.00000 3.71664e-13
  867 -4.10076e-07 6.35840e-08 8.80406e-08
  868 -6.06330e-13 -1.51582e-13 -9.24295e-14
  869 -1.81899e-12 -4.54747e-13 -1.14430e-12
  870 6.07669e-07 2.00330e-08 -3.59178e-08
  871 0.00000 0.00000 2.98048e-14
  872 -6.22132e-07 1.04070e-08 1.07276e-08
  873 -2.91961e-09 -9.17535e-08 3.40382e-08
  874 9.09495e-13 -5.19711e-13 -8.33117e-13
  875 5.44625e-06 3.18671e-07 -1.37031e-06
  876 -3.18060e-07 1.51857e-08 2.11268e-07
  877 1.03942e-12 2.59856e-13 1.66516e-13
  878 4.85064e-12 1.06108e-12 1.69712e-12
  879 1.24211e-08 1.03796e-07 -4.05840e-09
  880 7.57912e-13 -6.06330e-13 -6.24495e-13
  881 -7.42986e-07 7.86109e-07 -2.76941e-07
  882 -2.27374e-12 2.52435e-29 -1.18114e-12
  883 9.09495e-13 -1.29928e-13 8.32204e-14
  884 -1.26307e-07 -7.90447e-08 1.82875e-07
  885 -3.27916e-07 6.44151e-08 2.91515e-07
  886 -1.51582e-12 -4.54747e-13 3.10929e-13
  887 -1.00497e-08 -8.56488e-07 1.27648e-07
  888 -2.80207e-07 -3.90234e-09 3.06455e-07
  889 3.78956e-12 1.36424e-12 7.62896e-13
  890 -5.29641e-07 7.09033e-07 -2.40965e-07
  891 -1.21266e-12 -3.03165e-13 -2.99529e-13
  892 2.47634e-06 -1.58624e-07 -9.79000e-07
  893 -3.03165e-13 -1.51582e-13 -8.82629e-13
  894 -2.04936e-07 1.81609e-07 7.07330e-08
  895 6.75269e-07 6.68103e-08 -1.14658e-07
  896 6.06330e-13 1.51582e-13 1.06610e-12
  897 -9.38621e-08 -6.42675e-08 1.32941e-07
  898 -4.69906e-12 -1.51582e-12 -4.48640e-13
  899 -1.29928e-13 -1.68906e-12 -4.48793e-13
  900 -1.38845e-07 -3.88377e-08 1.45029e-07
  901 6.51805e-12 2.42532e-12 9.76607e-13
  902 -3.03165e-12 -7.57912e-13 -1.16705e-12
  903 -3.56709e-07 8.97021e-08 2.31198e-07
  904 -1.45186e-09 -4.97706e-09 7.72357e-09
  905 1.06108e-12 0.00000 1.03860e-12
  906 -1.06108e-12 3.03165e-13 -5.01152e-13
  907 -3.49899e-07 1.12228e-07 2.49180e-07
  908 -1.54888e-07 -2.48216e-07 3.47324e-07
  909 2.20877e-12 2.59856e-13 -2.95889e-12
  910 0.00000 0.00000 2.21390e-13
  911 2.30701e-07 5.97382e-07 -6.15862e-07
  912 -3.03165e-12 -7.57912e-13 -2.04400e-12
  913 -7.56414e-07 4.10591e-09 1.23465e-08
  914 -6.36210e-09 -5.94810e-10 8.59404e-09
  915 0.00000 0.00000 -7.63396e-13
  916 -2.88007e-12 2.52435e-29 8.32977e-13
  917 4.54747e-13 -3.03165e-13 -1.97518e-12
  918 -3.48643e-08 -2.10448e-08 3.66975e-08
  919 -3.32119e-07 1.09525e-08 1.61477e-07
  920 1.29928e-13 -5.19711e-13 2.14586e-13
  921 -3.86029e-07 2.68784e-07 2.37238e-07
  922 -9.09495e-13 -1.81899e-13 -3.93153e-13
  923 3.43685e-06 6.79153e-07 2.83963e-06
  924 -3.50113e-07 5.63754e-08 2.32780e-07
  925 -3.76791e-12 -1.16935e-12 -1.52125e-12
  926 -8.13474e-07 3.67389e-07 3.96716e-07
  927 -5.45697e-12 -1.51582e-12 2.66250e-13
  928 -3.94051e-07 5.14103e-08 1.85585e-07
  929 4.00178e-12 3.63798e-13 -1.09408e-12
  930 -3.33481e-12 -4.54747e-12 -2.34123e-12
  931 7.21915e-06 9.39587e-07 -1.23777e-07
  932 -3.92382e-11 -4.61244e-11 -2.48079e-12
  933 3.65387e-07 2.65707e-07 -2.64172e-07
  934 2.07885e-12 5.19711e-13 3.93234e-13
  935 2.18279e-12 5.45697e-13 1.54171e-12
  936 -4.76040e-07 4.36441e-08 1.05933e-07
  937 -4.69813e-07 1.15850e-08 9.45162e-08
  938 -1.45519e-12 -3.63798e-13 1.06229e-12
  939 -1.51582e-12 -7.57912e-13 4.14204e-13
  940 -1.99619e-08 -5.17302e-08 4.59142e-08
  941 1.81899e-12 4.54747e-13 6.02898e-13
  942 -1.62551e-07 1.08683e-07 3.36205e-08
  943 -2.57983e-07 -6.23625e-09 1.77063e-07
  944 -6.66963e-12 -2.42532e-12 -1.20262e-12
  945 0.00000 0.00000 1.15961e-13
  946 6.62439e-07 2.04707e-08 -4.60506e-08
  947 -2.69356e-08 -1.54916e-07 1.08574e-07
  948 -6.06330e-13 4.54747e-13 -9.53436e-13
  949 -3.68737e-07 9.46914e-08 1.99128e-07
  950 -3.77556e-07 9.03965e-08 1.37838e-07
  951 -3.63798e-13 -1.81899e-13 -4.54022e-13
  952 2.54659e-12 0.00000 -4.55599e-13
  953 -2.73722e-07 8.24957e-08 5.20767e-08
  954 -4.58415e-06 -2.36249e-06 -3.12527e-07
  955 -1.81899e-13 -1.81899e-13 3.04599e-13
  956 6.76027e-09 1.28930e-09 -1.35110e-09
  957 1.13687e-13 1.13687e-13 -1.10861e-12
  958 -2.67527e-07 -1.60679e-07 4.38679e-07
  959 3.40160e-08 3.55796e-07 -1.59405e-07
  960 9.09495e-13 1.51582e-13 -4.62226e-13
  961 -7.27596e-13 -1.81899e-13 -4.51119e-13
  962 -3.57638e-07 1.09777e-07 1.50220e-07
  963 6.06330e-13 -1.66741e-12 -2.80276e-13
  964 2.19533e-06 9.21182e-08 -4.35212e-07
  965 2.00089e-12 1.81899e-13 3.14360e-12
  966 2.54659e-12 -5.45697e-13 5.04416e-13
  967 -1.97494e-07 6.08734e-08 1.35963e-08
  968 1.21266e-12 3.03165e-13 5.34150e-13
  969 -2.05875e-06 -6.67853e-07 1.38712e-06
  970 1.09139e-12 1.81899e-13 -1.34084e-12
  971 4.49189e-08 5.90278e-08 -2.94021e-09
  972 -2.37928e-07 -5.79846e-07 5.35234e-07
  973 1.81899e-13 1.81899e-13 4.49756e-13
  974 -9.09495e-13 -5.45697e-13 9.38564e-13
  975 7.84519e-07 2.82744e-09 -1.45407e-08
  976 -1.57930e-07 -1.01230e-08 1.01426e-07
  977 -1.81899e-13 -3.63798e-13 3.68351e-13
  978 1.39104e-06 3.51728e-06 2.06986e-06
  979 4.54747e-13 -1.51582e-13 7.29080e-13
  980 -1.81899e-13 -2.36469e-12 -7.99442e-13
  981 -4.54130e-08 -2.72129e-07 1.97756e-07
  982 1.01472e-06 1.85250e-08 -9.46183e-08
  983 2.18279e-12 5.45697e-13 2.47655e-13
  984 -2.14137e-08 -3.64142e-08 3.47774e-08
  985 -2.57690e-12 -7.57912e-13 -6.62985e-13
  986 9.64150e-07 1.22897e-06 1.07742e-06
  987 -5.50418e-06 1.22956e-06 -1.86083e-07
  988 -3.89783e-13 -7.79567e-13 -4.71936e-13
  989 -1.83978e-10 6.24524e-09 -1.41136e-09
  990 2.70344e-07 6.97728e-08 -3.45221e-08
  991 9.09495e-13 -7.27596e-13 -1.68160e-13
  992 -6.99562e-08 -1.94112e-07 1.98006e-07
  993 -3.27418e-12 -9.09495e-13 5.64819e-13
  994 6.11285e-07 1.99670e-07 -2.89978e-07
  995 1.81899e-12 4.00178e-12 2.11438e-12
  996 -5.41954e-08 -2.05578e-08 4.97287e-08
  997 7.57912e-13 -9.09495e-13 -3.75225e-12
  998 -1.25942e-07 -4.29817e-07 3.58741e-07
  999 -2.70506e-08 -3.23696e-07 1.54927e-07
  1000 -8.83271e-10 -1.84812e-07 4.74732e-08
  1001 3.52033e-06 1.14480e-06 2.54745e-06
  1002 2.29883e-06 -3.18962e-08 8.47039e-07
  1003 -1.40640e-06 8.75118e-07 -4.05315e-07
  1004 -8.37810e-08 -5.89598e-07 3.28095e-07
  1005 -9.69327e-08 -1.00812e-06 3.76159e-07
  1006 -1.40841e-07 5.37682e-08 4.88193e-09
  1007 -3.63798e-13 -7.27596e-13 1.71427e-13
  1008 2.33870e-12 2.16373e-29 1.99035e-12
  1009 -8.46116e-09 -9.37039e-09 8.16364e-09
  1010 -1.45519e-12 -1.63709e-12 -1.43109e-12
  1011 4.61702e-07 2.75944e-08 -1.02223e-08
  1012 -1.51582e-13 -3.03165e-13 -7.21035e-13
  1013 -5.30472e-07 -5.36442e-07 7.63928e-07
  1014 3.03165e-13 -4.54747e-13 -1.23118e-12
  1015 -2.83014e-07 8.88273e-10 2.73138e-07
  1016 2.27374e-12 3.03165e-13 -2.77794e-13
  1017 3.33481e-12 3.03165e-13 -4.52017e-13
  1018 -4.01060e-07 3.28140e-08 1.67959e-07
  1019 -6.84244e-07 6.04706e-07 1.69522e-08
  1020 -3.03165e-12 -7.57912e-13 -2.18015e-12
  1021 -5.75262e-07 4.26376e-07 2.12499e-07
  1022 -1.36424e-12 1.51582e-13 6.43376e-13
  1023 -8.15350e-08 2.65912e-07 -1.82612e-08
  1024 -9.09495e-13 1.29928e-13 6.03022e-13
  1025 -2.22177e-11 -1.10439e-11 -1.39273e-13
  1026 -2.45719e-07 -2.14671e-08 2.52198e-07
  1027 -1.16935e-12 -5.19711e-13 -1.38035e-12
  1028 -1.21266e-12 -3.03165e-13 -1.59995e-15
  1029 4.22326e-07 3.81658e-07 -4.35295e-07
  1030 -9.13213e-08 -2.04304e-07 2.40435e-07
  1031 -9.25053e-08 -9.70849e-09 5.93439e-08
  1032 0.00000 0.00000 -1.52428e-12
  1033 2.86250e-07 3.65411e-07 -3.21625e-07
  1034 0.00000 0.00000 -4.08056e-13
  1035 0.00000 0.00000 0.00000
  1036 -1.66741e-12 -1.21266e-12 -7.59572e-13
  1037 -4.68600e-08 -1.41533e-07 1.38167e-07
  1038 0.00000 0.00000 8.84073e-13
  1039 -6.55264e-08 3.32725e-07 -8.24668e-08
  1040 9.09495e-13 1.51582e-13 7.21750e-13
  1041 -1.03942e-12 -2.59856e-13 -3.16147e-13
  1042 3.20894e-07 1.24730e-07 -9.64893e-08
  1043 1.95092e-06 6.16236e-07 -1.46124e-06
  1044 -1.51582e-12 7.57912e-13 2.09457e-13
  1045 -3.72143e-07 3.61095e-08 7.08065e-09
  1046 -9.09495e-13 -7.57912e-13 -4.10822e-13
  1047 -4.38912e-07 3.29084e-08 2.87300e-08
  1048 1.09139e-12 -3.63798e-13 -5.25692e-13
  1049 -3.80185e-07 2.03398e-07 2.76693e-07
  1050 -1.21266e-12 -3.03165e-13 2.57120e-13
  1051 -3.44533e-07 9.91236e-08 2.83002e-07
  1052 -1.21266e-12 7.57912e-13 3.73116e-13
  1053 -3.03165e-12 -1.66741e-12 -1.92209e-12
  1054 2.59856e-13 -3.89783e-13 3.70008e-13
  1055 -1.43123e-07 8.39782e-08 2.38864e-08
  1056 6.48632e-06 1.72069e-06 7.10529e-07
  1057 9.09495e-13 -3.03165e-13 -7.22212e-13
  1058 4.66562e-07 9.13442e-08 -1.01197e-07
  1059 -4.54747e-12 -9.09495e-13 1.24843e-12
  1060 6.73026e-12 1.63709e-12 3.73093e-12
  1061 -1.68889e-07 -1.32948e-07 2.99761e-07
  1062 4.91127e-12 7.27596e-13 -1.93164e-12
  1063 8.99399e-07 6.25932e-09 -4.42629e-08
  1064 -1.63709e-12 -7.27596e-13 7.86830e-13
  1065 1.49393e-06 4.71291e-08 -2.15998e-07
  1066 2.91038e-12 7.27596e-13 5.90584e-13
  1067 -4.83051e-09 -3.11503e-07 4.44001e-08
  1068 2.72001e-07 1.73231e-07 -1.21449e-07
  1069 6.06330e-13 1.51582e-13 1.21894e-13
  1070 -1.51582e-12 -9.09495e-13 -2.92061e-13
  1071 5.14077e-07 9.83156e-08 -1.27060e-07
  1072 -2.38957e-07 -6.78257e-08 3.35660e-07
  1073 -2.36469e-12 -7.27596e-13 -1.09344e-12
  1074 9.53949e-07 7.33231e-07 2.32288e-06
  1075 -1.39268e-07 -9.97028e-08 2.26863e-07
  1076 3.78956e-12 1.06108e-12 -2.25669e-12
  1077 -3.16249e-07 2.31913e-07 1.70908e-07
  1078 -6.06330e-13 -1.51582e-13 -8.25880e-13
  1079 -2.18279e-12 -1.27329e-12 1.82625e-12
  1080 -5.78326e-07 1.91763e-08 3.79684e-08
  1081 -9.34455e-07 2.35558e-07 5.54337e-07
  1082 -4.85064e-12 -1.36424e-12 5.83236e-14
  1083 -3.54460e-07 1.22718e-07 2.98230e-07
  1084 -7.57912e-13 3.03165e-13 -8.40098e-13
  1085 -7.46182e-07 -1.92605e-08 6.60735e-07
  1086 -9.09495e-13 -6.49639e-13 -9.71655e-13
  1087 -1.51582e-13 -3.03165e-13 1.75424e-14
  1088 6.31281e-06 3.40049e-07 -1.24307e-06
  1089 1.51582e-13 -2.88007e-12 -3.66437e-13
  1090 -3.50989e-07 9.61457e-08 3.35379e-07
  1091 -9.09495e-13 -3.03165e-13 4.27004e-13
  1092 -2.88332e-08 1.52260e-07 -1.66423e-09
  1093 -3.27418e-12 -9.09495e-13 1.48344e-13
  1094 -2.48214e-06 -7.24834e-07 -1.05026e-06
  1095 -3.44959e-07 -1.45105e-07 4.99259e-07
  1096 1.81899e-12 3.03165e-13 -2.03876e-12
  1097 -7.86745e-08 -3.18208e-08 8.02150e-08
  1098 -3.03165e-13 -6.06330e-13 -1.57449e-12
  1099 -4.67844e-10 -1.22705e-08 1.10061e-08
  1100 3.27418e-12 1.63709e-12 1.96516e-12
  1101 1.81899e-12 4.54747e-13 4.66068e-13
  1102 9.97596e-07 1.54079e-07 -3.50125e-07
  1103 -7.06214e-08 -2.76958e-07 2.48584e-07
  1104 -1.51582e-13 -3.03165e-13 -1.30526e-13
  1105 -1.97828e-07 -2.32687e-08 1.71546e-07
  1106 -3.94114e-12 -1.81899e-12 -4.48576e-13
  1107 -1.17025e-07 -1.35170e-07 2.27484e-07
  1108 3.03165e-13 0.00000 -1.21269e-12
  1109 7.30708e-07 3.16401e-08 -7.22645e-08
  1110 3.63798e-12 9.09495e-13 1.45944e-12
  1111 2.91038e-12 7.27596e-13 2.35895e-12
  1112 9.73232e-07 2.70793e-07 -4.95757e-07
  1113 -4.85791e-07 -6.98145e-08 5.69936e-07
  1114 -1.81899e-12 -4.54747e-13 1.42025e-12
  1115 -2.88007e-12 -1.36424e-12 1.26715e-12
  1116 -4.35182e-06 -3.63128e-07 2.62602e-07
  1117 7.27596e-13 -2.18279e-12 1.01192e-12
  1118 5.15380e-12 -1.06108e-12 -2.36954e-12
  1119 2.42532e-12 6.06330e-13 -9.33767e-13
  1120 -2.93619e-07 -2.21974e-08 3.80105e-07
  1121 -3.83306e-07 1.37401e-07 3.37036e-07
  1122 -6.06330e-13 -1.51582e-13 5.52116e-13
  1123 -7.79567e-13 -2.59856e-13 -2.91731e-13
  1124 -1.04649e-07 1.33620e-07 2.43120e-08
  1125 -5.91688e-08 -8.56230e-08 1.13798e-07
  1126 -2.95586e-12 -1.13687e-12 2.76466e-12
  1127 -3.45557e-07 3.32449e-08 2.06401e-07
  1128 -3.63798e-12 -9.09495e-13 -5.13585e-13
  1129 -3.06174e-07 2.28517e-08 2.55360e-07
  1130 -6.06330e-13 -1.51582e-13 -4.52221e-13
  1131 1.53097e-07 7.08668e-07 -7.88250e-07
  1132 -3.89783e-12 9.09495e-13 1.55206e-13
  1133 0.00000 0.00000 -1.00898e-12
  1134 -1.17132e-06 3.42357e-07 5.31244e-07
  1135 -3.18323e-12 -1.36424e-12 -2.27675e-12
  1136 -5.68434e-12 -1.59162e-12 6.90043e-13
  1137 -3.45603e-07 1.68001e-07 2.36836e-07
  1138 -7.27596e-12 -4.24431e-12 6.15112e-13
  1139 -3.42078e-07 1.44767e-07 1.96257e-07
  1140 -1.81899e-13 -3.63798e-13 -3.28058e-13
  1141 -2.07571e-06 5.24728e-07 -1.05667e-06
  1142 -1.09139e-12 -1.09139e-12 -8.44381e-13
  1143 8.53273e-08 1.04021e-07 -1.63267e-08
  1144 -3.43424e-08 -3.60272e-08 4.75210e-08
  1145 3.18323e-12 9.09495e-13 -2.32452e-12
  1146 -5.07716e-08 -5.35742e-08 7.50096e-08
  1147 1.66741e-12 1.51582e-13 -1.01445e-12
  1148 -2.15294e-06 5.06648e-07 4.03433e-07
  1149 2.72848e-12 1.51582e-13 -1.69929e-12
  1150 -2.91038e-12 -7.27596e-13 -3.14907e-13
  1151 -2.69322e-07 4.87400e-08 1.35530e-08
  1152 -5.95824e-07 5.23694e-07 6.94214e-08
  1153 -3.03165e-12 -7.57912e-13 -7.01491e-13
  1154 -1.09139e-12 -2.36469e-12 -3.07885e-12
  1155 2.18279e-12 5.45697e-13 1.08341e-12
  1156 7.58848e-07 8.48922e-10 -6.89667e-09
  1157 -3.72449e-07 2.72354e-08 1.77173e-07
  1158 -7.57912e-13 -4.54747e-13 3.65752e-13
  1159 -1.45519e-12 -3.63798e-13 -2.92894e-13
  1160 -5.07552e-07 2.19175e-08 1.01240e-07
  1161 1.66741e-12 -1.81899e-12 4.19740e-13
  1162 2.50450e-06 3.65915e-07 9.40038e-07
  1163 -2.39856e-07 3.82318e-07 3.54258e-09
  1164 -7.27596e-13 -1.81899e-13 -2.99852e-14
  1165 2.54659e-12 -4.18368e-12 5.07295e-13
  1166 -3.83907e-07 4.68492e-07 2.50824e-08
  1167 -3.03165e-13 1.06108e-12 -4.31596e-13
  1168 -2.57690e-12 -9.09495e-13 -8.61152e-13
  1169 -3.11173e-07 8.68442e-08 6.81264e-08
  1170 -4.03897e-28 -2.72848e-12 1.99437e-13
  1171 -2.18309e-07 -1.35265e-06 6.08903e-07
  1172 -1.74499e-06 3.35116e-07 6.47532e-07
  1173 3.63798e-12 9.09495e-13 -1.48720e-12
  1174 -6.38818e-07 3.70255e-08 5.74562e-07
  1175 3.03165e-13 -4.54747e-13 -1.34664e-12
  1176 -1.00044e-11 1.06108e-12 6.52299e-13
  1177 -1.52165e-07 -5.61830e-08 1.84417e-07
  1178 5.15380e-12 1.81899e-12 -1.51469e-13
  1179 -7.50333e-12 -2.27374e-12 1.29999e-12
  1180 -1.02347e-06 -5.78446e-07 1.03085e-06
  1181 -3.03165e-12 -1.06108e-12 -1.47178e-12
  1182 6.92853e-10 -3.76902e-08 1.61148e-08
  1183 4.54747e-12 1.63709e-12 1.53188e-12
  1184 -1.45519e-12 -3.63798e-13 -1.05462e-12
  1185 -6.39940e-07 6.96746e-09 3.13374e-08
  1186 6.62800e-07 1.26827e-08 -2.10931e-08
  1187 7.27596e-13 1.81899e-13 -3.20160e-13
  1188 1.11508e-07 2.07256e-07 -8.50110e-08
  1189 1.94892e-12 2.59856e-13 -3.26898e-14
  1190 -1.68305e-07 -8.47864e-08 2.49270e-07
  1191 -3.63798e-13 -7.27596e-13 -1.90284e-12
  1192 -2.91038e-12 -3.63798e-13 8.32431e-13
  1193 -4.83594e-07 4.70900e-09 4.23056e-08
  1194 -1.81899e-13 -3.63798e-13 -5.15633e-13
  1195 -7.01564e-07 -9.04281e-07 9.45440e-07
  1196 5.45697e-13 -1.09139e-12 -1.71427e-12
  1197 1.28712e-06 6.24437e-07 -1.24012e-06
  1198 -9.56135e-07 -2.65108e-07 8.82363e-07
  1199 0.00000 3.63798e-13 -1.40167e-12
  1200 -1.78781e-07 2.50802e-09 3.80694e-08
  1201 -7.27596e-13 1.81899e-13 -6.01979e-13
  1202 -1.27329e-12 -1.09139e-12 -2.84145e-12
  1203 1.51582e-12 3.03165e-13 -1.20567e-13
  1204 -4.67620e-07 4.07748e-08 5.58451e-08
  1205 -3.29398e-07 1.74584e-07 1.88931e-07
  1206 2.36469e-12 1.27329e-12 -2.09548e-13
  1207 2.69612e-07 4.57976e-08 -8.64285e-09
  1208 0.00000 0.00000 -3.42784e-13
  1209 4.72937e-12 5.45697e-13 -3.89316e-13
  1210 5.42067e-07 6.14284e-08 -7.90416e-08
  1211 -2.19836e-07 -2.71392e-07 4.44071e-07
  1212 -2.42532e-12 -1.06108e-12 -8.24141e-13
  1213 -7.24009e-08 -4.45936e-07 2.85746e-07
  1214 -1.18795e-07 -1.20939e-06 -1.91997e-07
  1215 -4.93881e-08 -7.80783e-09 3.63560e-08
  1216 5.45697e-13 -1.81899e-13 -5.40132e-13
  1217 -3.03165e-13 -6.06330e-13 -2.98180e-13
  1218 -1.15164e-08 -9.82260e-08 6.06239e-08
  1219 2.12215e-12 3.03165e-13 -1.14343e-12
  1220 3.54157e-06 3.78379e-08 -7.78436e-07
  1221 -3.37313e-09 -4.76014e-07 6.49699e-08
  1222 1.51582e-13 -7.57912e-13 6.58154e-13
  1223 -2.80080e-07 4.17382e-08 6.70535e-09
  1224 -1.63709e-12 -7.27596e-13 5.18031e-14
  1225 -6.29241e-08 -1.58738e-07 1.75865e-07
  1226 -1.45519e-12 -3.63798e-13 8.36618e-14
  1227 -5.11712e-07 2.79068e-08 9.54415e-08
  1228 -2.44642e-06 1.69865e-06 -4.77642e-07
  1229 -2.29463e-07 -1.71194e-08 1.91541e-07
  1230 -5.45697e-13 -9.09495e-13 8.90036e-13
  1231 -4.29988e-07 5.40222e-07 -4.52538e-08
  1232 -1.36424e-12 9.09495e-13 -2.79268e-13
  1233 -2.36469e-12 -9.09495e-13 -1.43958e-12
  1234 -1.27619e-08 2.79809e-07 -7.38122e-08
  1235 -6.06330e-13 -1.51582e-13 1.70168e-12
  1236 -9.09495e-13 -2.42532e-12 -1.36686e-12
  1237 2.18279e-12 5.45697e-13 5.69986e-14
  1238 -5.13633e-07 2.95125e-08 6.23763e-08
  1239 -3.03165e-13 -1.51582e-13 6.83163e-13
  1240 -2.54659e-12 -7.27596e-13 -4.17248e-13
  1241 -1.79751e-07 -5.33062e-08 2.12144e-07
  1242 3.89585e-06 2.82516e-07 -7.07092e-08
  1243 -2.80208e-07 5.66943e-07 -2.10099e-07
  1244 3.63798e-13 9.09495e-13 -3.04695e-13
  1245 7.27596e-13 1.81899e-13 -7.98853e-13
  1246 -7.34137e-07 3.98359e-09 1.69862e-08
  1247 2.03233e-07 1.19137e-07 -5.60855e-08
  1248 7.27596e-13 1.81899e-13 4.06941e-14
  1249 -7.92713e-07 -5.87352e-09 3.59958e-12
  1250 0.00000 0.00000 1.69350e-13
  1251 -4.92977e-07 8.59367e-07 -5.79778e-07
  1252 -2.80063e-07 -1.14251e-09 1.03782e-07
  1253 -1.09139e-12 -3.63798e-13 7.20936e-13
  1254 -5.45697e-12 1.27329e-12 -6.88121e-13
  1255 1.12901e-07 2.50830e-07 -1.19844e-07
  1256 6.06330e-13 1.51582e-13 6.08303e-13
  1257 -3.57177e-07 -2.84883e-06 8.39917e-07
  1258 1.36424e-12 -4.54747e-13 5.80833e-13
  1259 -4.44340e-08 -2.20559e-07 1.73180e-07
  1260 -7.61980e-06 -3.62405e-06 8.77026e-07
  1261 -1.61073e-08 -3.82960e-07 1.33997e-07
  1262 -3.58366e-06 -8.46013e-07 1.33610e-06
  1263 -5.82077e-12 -2.72848e-12 -1.44707e-13
  1264 2.18279e-12 5.45697e-13 -2.13579e-13
  1265 -3.32911e-07 5.77053e-08 3.87214e-08
  1266 -1.26747e-09 -5.56369e-08 1.79440e-08
  1267 1.45519e-12 -3.63798e-13 2.96178e-12
  1268 -6.05845e-29 -7.27596e-13 3.90982e-13
  1269 -6.65919e-08 6.51056e-08 6.67311e-09
  1270 1.53948e-06 6.10875e-07 -1.78162e-06
  1271 1.63709e-12 1.09139e-12 -2.15099e-13
  1272 -4.04822e-07 5.17122e-08 6.19343e-08
  1273 -2.45345e-08 -1.26756e-06 1.75003e-07
  1274 -3.81988e-12 -2.54659e-12 -1.23939e-12
  1275 -1.49795e-06 8.41081e-07 -7.94854e-07
  1276 -1.21354e-08 -1.61339e-07 8.14775e-08
  1277 0.00000 0.00000 0.00000
  1278 -8.30241e-09 -2.18369e-07 8.86293e-08
  1279 2.00089e-12 3.02923e-29 1.19918e-12
  1280 1.20838e-07 1.62812e-07 -5.72027e-08
  1281 -1.81899e-12 -4.54747e-13 -5.63700e-13
  1282 -7.00311e-11 -2.61143e-07 4.11091e-08
  1283 -3.03165e-13 -7.57912e-13 6.92565e-13
  1284 1.91545e-07 1.82671e-06 1.40038e-07
  1285 7.27596e-13 1.81899e-13 6.45540e-13
  1286 7.59389e-07 2.81889e-09 -3.08987e-09
  1287 -1.99127e-07 -1.72383e-07 3.76323e-07
  1288 1.81754e-27 4.54384e-28 -1.26701e-12
  1289 -2.24257e-07 -4.40250e-08 2.80421e-07
  1290 -1.45519e-12 -3.63798e-13 -2.01087e-12
  1291 9.09495e-12 9.09495e-13 2.97375e-12
  1292 8.97866e-07 5.46275e-07 -9.10462e-07
  1293 1.45519e-12 2.54659e-12 -1.99512e-13
  1294 -2.90051e-07 1.03208e-07 7.94827e-08
  1295 -2.72848e-12 0.00000 -1.02863e-12
  1296 -6.06330e-13 -1.51582e-13 -2.63124e-14
  1297 -4.29799e-07 1.16158e-08 1.08906e-07
  1298 -2.23959e-06 6.49861e-07 -5.12552e-07
  1299 -9.79526e-09 -1.83286e-08 1.48259e-08
  1300 2.72848e-12 1.51582e-13 9.14131e-13
  1301 2.20170e-06 4.18526e-07 -1.83502e-06
  1302 -3.36256e-08 -9.39533e-08 8.86627e-08
  1303 1.00044e-11 2.04636e-12 -2.17209e-12
  1304 -5.17046e-07 3.35642e-08 7.73766e-08
  1305 -7.27596e-13 -1.81899e-13 -5.01167e-13
  1306 -5.67105e-07 -2.85961e-07 7.05171e-07
  1307 1.51582e-13 -3.03165e-13 -4.70510e-13
  1308 -1.24241e-07 6.59609e-08 1.31472e-08
  1309 -1.09139e-12 -3.63798e-13 -7.31825e-14
  1310 -3.64595e-07 2.02375e-08 1.60034e-07
  1311 -5.45697e-12 -1.81899e-12 1.53574e-12
  1312 -3.09228e-12 -1.09139e-12 4.47746e-13
  1313 6.91535e-07 8.79645e-09 -5.15195e-09
  1314 -9.09495e-12 -4.32010e-12 -1.24262e-12
  1315 1.81899e-12 -1.81899e-13 -8.77159e-13
  1316 4.88776e-07 2.91440e-08 -2.11878e-08
  1317 -7.88371e-07 5.38722e-07 1.97984e-07
  1318 -4.36557e-12 -1.27329e-12 -1.42280e-12
  1319 -1.81899e-12 -1.81899e-12 -6.48871e-13
  1320 -5.01630e-07 7.61238e-08 4.79153e-07
  1321 -1.81899e-12 -6.82121e-13 1.38149e-12
  1322 -4.54747e-12 -1.27329e-12 -3.39106e-14
  1323 7.94880e-09 1.76879e-09 -2.81697e-09
  1324 3.27418e-12 7.27596e-13 -6.15464e-13
  1325 1.80870e-07 3.16276e-07 -2.01868e-07
  1326 -4.00178e-12 -1.09139e-12 -4.44407e-14
  1327 -1.42770e-07 1.74137e-07 3.60723e-08
  1328 -7.69505e-09 2.26841e-07 -3.94980e-08
  1329 -3.63798e-13 -7.27596e-13 3.78809e-13
  1330 3.12636e-07 4.47457e-08 -1.66123e-08
  1331 7.27596e-13 1.81899e-13 -1.25105e-12
  1332 -3.09228e-12 -1.09139e-12 6.18257e-13
  1333 -2.02634e-08 -1.38371e-08 1.92872e-08
  1334 -6.17802e-07 1.05672e-08 4.66302e-08
  1335 9.09495e-13 1.63709e-12 -6.86452e-13
  1336 -2.57690e-12 -1.51582e-12 -4.93657e-13
  1337 -7.13159e-08 -4.86610e-08 9.46087e-08
  1338 -5.59825e-07 1.76049e-08 1.79739e-08
  1339 -1.51582e-13 -3.03165e-13 3.07369e-13
  1340 -7.85122e-07 5.38730e-09 8.08905e-09
  1341 -7.27596e-13 -1.81899e-13 -1.05203e-12
  1342 -7.09406e-12 -4.72937e-12 -2.49716e-12
  1343 -4.36557e-11 -4.52928e-11 -3.14922e-12
</Section>

