newXOutput 1

<Section columns = "stress_xx | stress_yy | stress_xy">
  1 0.00000 0.00000 0.00000
  2 0.00000 0.00000 0.00000
  3 0.00000 0.00000 0.00000
  4 0.00000 0.00000 0.00000
  5 0.00000 0.00000 0.00000
  6 0.00000 0.00000 0.00000
  7 0.00000 0.00000 0.00000
  8 0.00000 0.00000 0.00000
  9 0.00000 0.00000 0.00000
  10 0.00000 0.00000 0.00000
  11 0.00000 0.00000 0.00000
  12 0.00000 0.00000 0.00000
  13 0.00000 0.00000 0.00000
  14 0.00000 0.00000 0.00000
  15 0.00000 0.00000 0.00000
  16 0.00000 0.00000 0.00000
</Section>

newXOutput 2

<Section columns = "stress_xx | stress_yy | stress_xy">
  1 30.9481 -0.00878629 -2.26826e-14
  2 30.9481 -0.00878629 -1.71682e-14
  3 30.9481 -0.00878629 -1.43827e-14
  4 30.9481 -0.00878629 -1.16992e-14
  5 30.9481 -0.00878629 -1.01734e-14
  6 30.9481 -0.00878629 -1.09315e-14
  7 30.9481 -0.00878629 -1.09924e-14
  8 30.9481 -0.00878629 -9.92817e-15
  9 30.9481 -0.00878629 -1.66034e-14
  10 30.9481 -0.00878629 -1.52014e-14
  11 30.9481 -0.00878629 -1.11054e-14
  12 30.9481 -0.00878629 -1.23125e-14
  13 30.9481 -0.00878629 -1.71262e-14
  14 30.9481 -0.00878629 -1.47593e-14
  15 30.9481 -0.00878629 -1.61362e-14
  16 30.9481 -0.00878629 -1.21703e-14
</Section>

newXOutput 3

<Section columns = "stress_xx | stress_yy | stress_xy">
  1 61.6836 -0.00875895 2.98243e-14
  2 61.6836 -0.00875895 2.78864e-14
  3 61.6836 -0.00875895 1.41890e-14
  4 61.6836 -0.00875895 1.32981e-14
  5 61.6836 -0.00875895 1.08735e-14
  6 61.6836 -0.00875895 1.17899e-14
  7 61.6836 -0.00875895 1.57910e-14
  8 61.6836 -0.00875895 1.64582e-14
  9 61.6836 -0.00875895 1.97452e-14
  10 61.6836 -0.00875895 2.24125e-14
  11 61.6836 -0.00875895 2.95054e-14
  12 61.6836 -0.00875895 2.47565e-14
  13 61.6836 -0.00875895 2.19919e-14
  14 61.6836 -0.00875895 1.23177e-14
  15 61.6836 -0.00875895 4.26826e-14
  16 61.6836 -0.00875895 4.47720e-14
</Section>

newXOutput 4

<Section columns = "stress_xx | stress_yy | stress_xy">
  1 92.2059 -0.00873479 1.03812e-14
  2 92.2059 -0.00873479 8.52889e-15
  3 92.2059 -0.00873479 -7.03082e-16
  4 92.2059 -0.00873479 -1.55033e-15
  5 92.2059 -0.00873479 -1.68903e-15
  6 92.2059 -0.00873479 -2.49346e-15
  7 92.2059 -0.00873479 -2.94862e-15
  8 92.2059 -0.00873479 -2.04361e-15
  9 92.2059 -0.00873479 -7.24944e-15
  10 92.2059 -0.00873479 -8.43873e-15
  11 92.2059 -0.00873479 5.70783e-15
  12 92.2059 -0.00873479 -2.42440e-15
  13 92.2059 -0.00873479 -2.28298e-15
  14 92.2059 -0.00873479 -6.23919e-15
  15 92.2059 -0.00873479 4.01318e-15
  16 92.2059 -0.00873479 1.15831e-14
</Section>

newXOutput 5

<Section columns = "stress_xx | stress_yy | stress_xy">
  1 122.517 -0.00871075 -3.46970e-15
  2 122.517 -0.00871075 -1.84477e-15
  3 122.517 -0.00871075 2.31419e-15
  4 122.517 -0.00871075 3.52616e-15
  5 122.517 -0.00871075 2.84479e-15
  6 122.517 -0.00871075 2.66041e-15
  7 122.517 -0.00871075 4.65972e-16
  8 122.517 -0.00871075 1.38791e-15
  9 122.517 -0.00871075 -1.62922e-14
  10 122.517 -0.00871075 -1.36569e-14
  11 122.517 -0.00871075 1.42937e-16
  12 122.517 -0.00871075 -8.41568e-15
  13 122.517 -0.00871075 -1.68266e-14
  14 122.517 -0.00871075 -9.10555e-15
  15 122.517 -0.00871075 -1.24868e-14
  16 122.517 -0.00871075 -8.21561e-15
</Section>

newXOutput 6

<Section columns = "stress_xx | stress_yy | stress_xy">
  1 152.618 -0.00868684 -7.69305e-14
  2 152.618 -0.00868684 -6.16178e-14
  3 152.618 -0.00868684 -3.27931e-14
  4 152.618 -0.00868684 -2.46720e-14
  5 152.618 -0.00868684 -3.15914e-14
  6 152.618 -0.00868684 -2.78769e-14
  7 152.618 -0.00868684 -1.40756e-14
  8 152.618 -0.00868684 -1.01852e-14
  9 152.618 -0.00868684 -4.48569e-15
  10 152.618 -0.00868684 7.54917e-15
  11 152.618 -0.00868684 7.72716e-15
  12 152.618 -0.00868684 4.84892e-15
  13 152.618 -0.00868684 -1.06472e-14
  14 152.618 -0.00868684 -1.26034e-14
  15 152.618 -0.00868684 -2.99797e-14
  16 152.618 -0.00868684 -8.35307e-15
</Section>

newXOutput 7

<Section columns = "stress_xx | stress_yy | stress_xy">
  1 182.512 -0.00866305 -5.01907e-14
  2 182.512 -0.00866305 -3.48423e-14
  3 182.512 -0.00866305 1.42122e-15
  4 182.512 -0.00866305 8.07751e-15
  5 182.512 -0.00866305 6.53384e-15
  6 182.512 -0.00866305 1.11522e-14
  7 182.512 -0.00866305 2.32156e-15
  8 182.512 -0.00866305 8.65050e-15
  9 182.512 -0.00866305 -1.12524e-14
  10 182.512 -0.00866305 -5.35372e-15
  11 182.512 -0.00866305 2.69086e-14
  12 182.512 -0.00866305 1.15973e-14
  13 182.512 -0.00866305 1.51244e-14
  14 182.512 -0.00866305 -9.01225e-15
  15 182.512 -0.00866305 -1.16086e-14
  16 182.512 -0.00866305 -4.41311e-14
</Section>

newXOutput 8

<Section columns = "stress_xx | stress_yy | stress_xy">
  1 212.200 -0.00863939 -1.21921e-14
  2 212.200 -0.00863939 -4.18888e-15
  3 212.200 -0.00863939 9.80222e-15
  4 212.200 -0.00863939 1.36428e-14
  5 212.200 -0.00863939 1.25365e-14
  6 212.200 -0.00863939 1.39916e-14
  7 212.200 -0.00863939 2.14470e-14
  8 212.200 -0.00863939 2.56096e-14
  9 212.200 -0.00863939 1.64670e-14
  10 212.200 -0.00863939 1.32618e-14
  11 212.200 -0.00863939 -2.15260e-15
  12 212.200 -0.00863939 4.95275e-16
  13 212.200 -0.00863939 -1.27727e-14
  14 212.200 -0.00863939 -4.93284e-15
  15 212.200 -0.00863939 -2.25432e-14
  16 212.200 -0.00863939 -9.97654e-15
</Section>

newXOutput 9

<Section columns = "stress_xx | stress_yy | stress_xy">
  1 241.684 -0.00861585 4.26638e-15
  2 241.684 -0.00861585 4.26638e-15
  3 241.684 -0.00861585 1.69281e-14
  4 241.684 -0.00861585 1.96194e-14
  5 241.684 -0.00861585 1.24974e-14
  6 241.684 -0.00861585 1.74262e-14
  7 241.684 -0.00861585 9.05325e-15
  8 241.684 -0.00861585 1.15883e-14
  9 241.684 -0.00861585 -2.30267e-14
  10 241.684 -0.00861585 -1.89438e-14
  11 241.684 -0.00861585 -2.20334e-14
  12 241.684 -0.00861585 -2.26833e-14
  13 241.684 -0.00861585 -4.80509e-14
  14 241.684 -0.00861585 -6.72275e-14
  15 241.684 -0.00861585 -1.71555e-14
  16 241.684 -0.00861585 -9.92851e-15
</Section>

newXOutput 10

<Section columns = "stress_xx | stress_yy | stress_xy">
  1 270.966 -0.00859243 -3.31193e-14
  2 270.966 -0.00859243 -2.63520e-14
  3 270.966 -0.00859243 1.41716e-15
  4 270.966 -0.00859243 3.97940e-15
  5 270.966 -0.00859243 -7.64602e-15
  6 270.966 -0.00859243 -1.01872e-14
  7 270.966 -0.00859243 -1.40119e-14
  8 270.966 -0.00859243 -9.24289e-15
  9 270.966 -0.00859243 5.12818e-14
  10 270.966 -0.00859243 5.49842e-14
  11 270.966 -0.00859243 6.68147e-14
  12 270.966 -0.00859243 6.50707e-14
  13 270.966 -0.00859243 2.98084e-14
  14 270.966 -0.00859243 7.66464e-15
  15 270.966 -0.00859243 5.70190e-14
  16 270.966 -0.00859243 -1.74699e-14
</Section>

newXOutput 11

<Section columns = "stress_xx | stress_yy | stress_xy">
  1 300.047 -0.00856913 -4.82110e-14
  2 300.047 -0.00856913 -3.93444e-14
  3 300.047 -0.00856913 -5.71805e-15
  4 300.047 -0.00856913 -2.12465e-16
  5 300.047 -0.00856913 8.91025e-15
  6 300.047 -0.00856913 1.05201e-14
  7 300.047 -0.00856913 1.85306e-15
  8 300.047 -0.00856913 7.32134e-15
  9 300.047 -0.00856913 1.94591e-14
  10 300.047 -0.00856913 2.35243e-14
  11 300.047 -0.00856913 2.12901e-14
  12 300.047 -0.00856913 2.56683e-14
  13 300.047 -0.00856913 -1.18948e-15
  14 300.047 -0.00856913 3.13562e-14
  15 300.047 -0.00856913 -2.14266e-14
  16 300.047 -0.00856913 -3.14496e-14
</Section>

newXOutput 12

<Section columns = "stress_xx | stress_yy | stress_xy">
  1 328.929 -0.00854595 -4.85666e-14
  2 328.929 -0.00854595 -3.92773e-14
  3 328.929 -0.00854595 -6.94782e-15
  4 328.929 -0.00854595 -2.50515e-15
  5 328.929 -0.00854595 2.99747e-15
  6 328.929 -0.00854595 3.88778e-15
  7 328.929 -0.00854595 -2.66021e-14
  8 328.929 -0.00854595 -2.36564e-14
  9 328.929 -0.00854595 6.51028e-15
  10 328.929 -0.00854595 4.45864e-15
  11 328.929 -0.00854595 4.00100e-14
  12 328.929 -0.00854595 2.68326e-14
  13 328.929 -0.00854595 5.39285e-14
  14 328.929 -0.00854595 4.11370e-14
  15 328.929 -0.00854595 3.20089e-14
  16 328.929 -0.00854595 2.05575e-15
</Section>

newXOutput 13

<Section columns = "stress_xx | stress_yy | stress_xy">
  1 357.615 -0.00852289 5.33156e-16
  2 357.615 -0.00852289 3.37858e-15
  3 357.615 -0.00852289 2.24203e-14
  4 357.615 -0.00852289 2.68435e-14
  5 357.615 -0.00852289 1.57031e-14
  6 357.615 -0.00852289 1.94371e-14
  7 357.615 -0.00852289 6.17537e-15
  8 357.615 -0.00852289 8.75515e-15
  9 357.615 -0.00852289 -1.01739e-14
  10 357.615 -0.00852289 -8.53872e-16
  11 357.615 -0.00852289 1.06534e-14
  12 357.615 -0.00852289 5.14026e-14
  13 357.615 -0.00852289 -5.28520e-14
  14 357.615 -0.00852289 -1.85861e-16
  15 357.615 -0.00852289 -5.81984e-14
  16 357.615 -0.00852289 -3.55107e-14
</Section>

newXOutput 14

<Section columns = "stress_xx | stress_yy | stress_xy">
  1 386.105 -0.00849994 -2.84715e-14
  2 386.105 -0.00849994 -3.57319e-14
  3 386.105 -0.00849994 1.18302e-15
  4 386.105 -0.00849994 -5.40419e-15
  5 386.105 -0.00849994 -1.21383e-14
  6 386.105 -0.00849994 -1.27378e-14
  7 386.105 -0.00849994 -2.18276e-14
  8 386.105 -0.00849994 -1.56327e-14
  9 386.105 -0.00849994 -1.71257e-14
  10 386.105 -0.00849994 -2.21537e-14
  11 386.105 -0.00849994 -2.40190e-15
  12 386.105 -0.00849994 1.90865e-14
  13 386.105 -0.00849994 -2.60532e-14
  14 386.105 -0.00849994 -1.22017e-14
  15 386.105 -0.00849994 -9.60182e-14
  16 386.105 -0.00849994 -7.32276e-14
</Section>

newXOutput 15

<Section columns = "stress_xx | stress_yy | stress_xy">
  1 414.401 -0.00847712 -4.21910e-15
  2 414.401 -0.00847712 -1.44387e-14
  3 414.401 -0.00847712 -5.69508e-16
  4 414.401 -0.00847712 -4.45998e-15
  5 414.401 -0.00847712 -3.26800e-14
  6 414.401 -0.00847712 -1.59064e-14
  7 414.401 -0.00847712 -4.78316e-14
  8 414.401 -0.00847712 -4.04258e-14
  9 414.401 -0.00847712 -1.79778e-14
  10 414.401 -0.00847712 -2.91940e-14
  11 414.401 -0.00847712 1.71034e-14
  12 414.401 -0.00847712 2.42273e-14
  13 414.401 -0.00847712 1.97784e-14
  14 414.401 -0.00847712 -9.81116e-15
  15 414.401 -0.00847712 -1.86466e-14
  16 414.401 -0.00847712 -1.21477e-14
</Section>

newXOutput 16

<Section columns = "stress_xx | stress_yy | stress_xy">
  1 442.506 -0.00845441 3.53452e-14
  2 442.506 -0.00845441 2.32184e-14
  3 442.506 -0.00845441 -8.34543e-14
  4 442.506 -0.00845441 7.79763e-14
  5 442.506 -0.00845441 -5.27942e-14
  6 442.506 -0.00845441 3.03897e-14
  7 442.506 -0.00845441 1.00880e-13
  8 442.506 -0.00845441 -7.50944e-14
  9 442.506 -0.00845441 7.03286e-14
  10 442.506 -0.00845441 -1.66707e-14
  11 442.506 -0.00845441 5.71572e-15
  12 442.506 -0.00845441 2.47559e-14
  13 442.506 -0.00845441 -2.70017e-14
  14 442.506 -0.00845441 -2.18209e-14
  15 442.506 -0.00845441 1.73407e-14
  16 442.506 -0.00845441 5.62157e-14
</Section>

newXOutput 17

<Section columns = "stress_xx | stress_yy | stress_xy">
  1 470.420 -0.00843181 2.17855e-14
  2 470.420 -0.00843181 6.79030e-14
  3 470.420 -0.00843181 8.45841e-14
  4 470.420 -0.00843181 -3.63569e-14
  5 470.420 -0.00843181 2.36977e-14
  6 470.420 -0.00843181 -4.45150e-14
  7 470.420 -0.00843181 -9.41898e-14
  8 470.420 -0.00843181 2.89902e-14
  9 470.420 -0.00843181 1.68636e-14
  10 470.420 -0.00843181 4.49805e-14
  11 470.420 -0.00843181 5.39676e-14
  12 470.420 -0.00843181 4.20537e-14
  13 470.420 -0.00843181 -4.11599e-14
  14 470.420 -0.00843181 -5.50381e-14
  15 470.420 -0.00843181 -4.98423e-14
  16 470.420 -0.00843181 -5.02996e-14
</Section>

newXOutput 18

<Section columns = "stress_xx | stress_yy | stress_xy">
  1 498.145 -0.00840933 1.53101e-15
  2 498.145 -0.00840933 -3.54335e-15
  3 498.145 -0.00840933 -4.03645e-14
  4 498.145 -0.00840933 2.92003e-14
  5 498.145 -0.00840933 8.14266e-15
  6 498.145 -0.00840933 -1.87426e-14
  7 498.145 -0.00840933 1.12361e-13
  8 498.145 -0.00840933 2.80233e-14
  9 498.145 -0.00840933 6.24374e-14
  10 498.145 -0.00840933 3.70628e-14
  11 498.145 -0.00840933 -4.39823e-14
  12 498.145 -0.00840933 -8.33984e-14
  13 498.145 -0.00840933 4.23976e-14
  14 498.145 -0.00840933 1.16675e-14
  15 498.145 -0.00840933 2.62216e-14
  16 498.145 -0.00840933 1.14537e-13
</Section>

newXOutput 19

<Section columns = "stress_xx | stress_yy | stress_xy">
  1 525.683 -0.00838697 -2.02399e-14
  2 525.683 -0.00838697 -9.64179e-15
  3 525.683 -0.00838697 -1.89126e-14
  4 525.683 -0.00838697 3.60943e-14
  5 525.683 -0.00838697 -3.71489e-15
  6 525.683 -0.00838697 -9.43056e-15
  7 525.683 -0.00838697 5.38096e-14
  8 525.683 -0.00838697 -1.66225e-14
  9 525.683 -0.00838697 2.02213e-14
  10 525.683 -0.00838697 2.02213e-14
  11 525.683 -0.00838697 7.48198e-14
  12 525.683 -0.00838697 7.43908e-14
  13 525.683 -0.00838697 1.33792e-13
  14 525.683 -0.00838697 1.00985e-13
  15 525.683 -0.00838697 1.45719e-13
  16 525.683 -0.00838697 5.73978e-14
</Section>

newXOutput 20

<Section columns = "stress_xx | stress_yy | stress_xy">
  1 553.036 -0.00836471 -5.87104e-14
  2 553.036 -0.00836471 -3.38883e-14
  3 553.036 -0.00836471 -3.46001e-14
  4 553.036 -0.00836471 1.25919e-14
  5 553.036 -0.00836471 -7.67933e-15
  6 553.036 -0.00836471 -3.16731e-14
  7 553.036 -0.00836471 -3.04451e-14
  8 553.036 -0.00836471 -1.06101e-13
  9 553.036 -0.00836471 -5.81642e-15
  10 553.036 -0.00836471 -1.74495e-14
  11 553.036 -0.00836471 1.86135e-14
  12 553.036 -0.00836471 -1.16235e-14
  13 553.036 -0.00836471 3.11289e-14
  14 553.036 -0.00836471 -6.59816e-14
  15 553.036 -0.00836471 -1.03632e-14
  16 553.036 -0.00836471 -9.85182e-14
</Section>

newXOutput 21

<Section columns = "stress_xx | stress_yy | stress_xy">
  1 580.205 -0.00834257 1.70803e-14
  2 580.205 -0.00834257 -1.55440e-13
  3 580.205 -0.00834257 2.00583e-13
  4 580.205 -0.00834257 5.84860e-14
  5 580.205 -0.00834257 -1.58346e-13
  6 580.205 -0.00834257 -9.63782e-14
  7 580.205 -0.00834257 -1.29433e-13
  8 580.205 -0.00834257 -2.25088e-14
  9 580.205 -0.00834257 -5.89336e-15
  10 580.205 -0.00834257 8.96073e-16
  11 580.205 -0.00834257 -2.99852e-14
  12 580.205 -0.00834257 4.14995e-14
  13 580.205 -0.00834257 -2.13375e-14
  14 580.205 -0.00834257 -4.96109e-15
  15 580.205 -0.00834257 -4.18859e-14
  16 580.205 -0.00834257 5.33744e-14
</Section>

newXOutput 22

<Section columns = "stress_xx | stress_yy | stress_xy">
  1 607.192 -0.00832054 1.27862e-14
  2 607.192 -0.00832054 -1.14332e-13
  3 607.192 -0.00832054 1.12337e-13
  4 607.192 -0.00832054 9.76061e-14
  5 607.192 -0.00832054 -1.31165e-13
  6 607.192 -0.00832054 -9.54595e-14
  7 607.192 -0.00832054 -6.49962e-14
  8 607.192 -0.00832054 -6.24257e-14
  9 607.192 -0.00832054 3.16919e-14
  10 607.192 -0.00832054 4.92591e-14
  11 607.192 -0.00832054 -1.79556e-15
  12 607.192 -0.00832054 -7.32360e-15
  13 607.192 -0.00832054 3.01072e-14
  14 607.192 -0.00832054 6.69415e-14
  15 607.192 -0.00832054 -3.23281e-14
  16 607.192 -0.00832054 6.44694e-14
</Section>

newXOutput 23

<Section columns = "stress_xx | stress_yy | stress_xy">
  1 633.998 -0.00829862 -2.43633e-13
  2 633.998 -0.00829862 2.10891e-13
  3 633.998 -0.00829862 -1.30136e-14
  4 633.998 -0.00829862 1.06365e-13
  5 633.998 -0.00829862 1.81844e-13
  6 633.998 -0.00829862 -5.47956e-14
  7 633.998 -0.00829862 1.13703e-13
  8 633.998 -0.00829862 1.35174e-14
  9 633.998 -0.00829862 4.86319e-14
  10 633.998 -0.00829862 4.27630e-14
  11 633.998 -0.00829862 -6.33490e-14
  12 633.998 -0.00829862 -1.10823e-13
  13 633.998 -0.00829862 -5.49760e-14
  14 633.998 -0.00829862 -9.56625e-14
  15 633.998 -0.00829862 -1.16251e-14
  16 633.998 -0.00829862 -1.25085e-13
</Section>

newXOutput 24

<Section columns = "stress_xx | stress_yy | stress_xy">
  1 660.624 -0.00827682 6.87511e-14
  2 660.624 -0.00827682 -3.42194e-14
  3 660.624 -0.00827682 -5.54169e-14
  4 660.624 -0.00827682 2.21145e-14
  5 660.624 -0.00827682 -6.57502e-14
  6 660.624 -0.00827682 2.54112e-14
  7 660.624 -0.00827682 -3.77175e-16
  8 660.624 -0.00827682 -3.60482e-14
  9 660.624 -0.00827682 -8.54441e-14
  10 660.624 -0.00827682 -4.22814e-14
  11 660.624 -0.00827682 -6.22723e-14
  12 660.624 -0.00827682 -1.06552e-13
  13 660.624 -0.00827682 -2.00361e-14
  14 660.624 -0.00827682 -1.32561e-13
  15 660.624 -0.00827682 6.22345e-14
  16 660.624 -0.00827682 2.92608e-14
</Section>

newXOutput 25

<Section columns = "stress_xx | stress_yy | stress_xy">
  1 687.073 -0.00825512 -2.51325e-14
  2 687.073 -0.00825512 -3.05282e-14
  3 687.073 -0.00825512 -3.39837e-14
  4 687.073 -0.00825512 6.04703e-14
  5 687.073 -0.00825512 -1.44519e-14
  6 687.073 -0.00825512 5.06845e-14
  7 687.073 -0.00825512 -2.80078e-14
  8 687.073 -0.00825512 -5.64978e-14
  9 687.073 -0.00825512 -5.01973e-14
  10 687.073 -0.00825512 -4.57117e-14
  11 687.073 -0.00825512 -1.51943e-13
  12 687.073 -0.00825512 -1.97216e-13
  13 687.073 -0.00825512 5.64264e-14
  14 687.073 -0.00825512 5.80777e-15
  15 687.073 -0.00825512 -7.90968e-14
  16 687.073 -0.00825512 -1.06075e-13
</Section>

newXOutput 26

<Section columns = "stress_xx | stress_yy | stress_xy">
  1 713.346 -0.00823353 -3.24638e-14
  2 713.346 -0.00823353 -2.17195e-14
  3 713.346 -0.00823353 8.97243e-15
  4 713.346 -0.00823353 -4.03823e-14
  5 713.346 -0.00823353 -5.53366e-15
  6 713.346 -0.00823353 -5.52638e-14
  7 713.346 -0.00823353 -4.40186e-14
  8 713.346 -0.00823353 -6.94849e-14
  9 713.346 -0.00823353 -8.82947e-16
  10 713.346 -0.00823353 4.89704e-15
  11 713.346 -0.00823353 -2.66686e-14
  12 713.346 -0.00823353 7.88043e-15
  13 713.346 -0.00823353 7.16434e-14
  14 713.346 -0.00823353 5.91284e-14
  15 713.346 -0.00823353 -6.78351e-14
  16 713.346 -0.00823353 -4.32177e-14
</Section>

newXOutput 27

<Section columns = "stress_xx | stress_yy | stress_xy">
  1 739.444 -0.00821204 -1.30188e-13
  2 739.444 -0.00821204 -3.65868e-14
  3 739.444 -0.00821204 1.13594e-13
  4 739.444 -0.00821204 1.09843e-13
  5 739.444 -0.00821204 -1.18547e-13
  6 739.444 -0.00821204 -2.19951e-13
  7 739.444 -0.00821204 -7.53544e-14
  8 739.444 -0.00821204 2.27524e-14
  9 739.444 -0.00821204 -7.86122e-14
  10 739.444 -0.00821204 8.71337e-14
  11 739.444 -0.00821204 -1.22019e-14
  12 739.444 -0.00821204 -1.10335e-13
  13 739.444 -0.00821204 -3.31743e-14
  14 739.444 -0.00821204 -7.89155e-14
  15 739.444 -0.00821204 -1.84012e-13
  16 739.444 -0.00821204 5.32848e-14
</Section>

newXOutput 28

<Section columns = "stress_xx | stress_yy | stress_xy">
  1 765.368 -0.00819067 -8.28887e-14
  2 765.368 -0.00819067 -4.29486e-14
  3 765.368 -0.00819067 1.39414e-13
  4 765.368 -0.00819067 1.18968e-13
  5 765.368 -0.00819067 -3.26863e-14
  6 765.368 -0.00819067 -1.04114e-13
  7 765.368 -0.00819067 -1.17677e-14
  8 765.368 -0.00819067 -7.30127e-14
  9 765.368 -0.00819067 -6.89498e-14
  10 765.368 -0.00819067 -7.56065e-14
  11 765.368 -0.00819067 -1.01441e-13
  12 765.368 -0.00819067 2.82974e-14
  13 765.368 -0.00819067 -2.89107e-14
  14 765.368 -0.00819067 7.72300e-14
  15 765.368 -0.00819067 -1.17175e-13
  16 765.368 -0.00819067 -8.59128e-15
</Section>

newXOutput 29

<Section columns = "stress_xx | stress_yy | stress_xy">
  1 791.121 -0.00816940 -9.59429e-14
  2 791.121 -0.00816940 -6.46218e-14
  3 791.121 -0.00816940 1.26223e-13
  4 791.121 -0.00816940 1.18076e-13
  5 791.121 -0.00816940 -1.34720e-14
  6 791.121 -0.00816940 -5.63048e-14
  7 791.121 -0.00816940 1.17594e-13
  8 791.121 -0.00816940 9.24285e-14
  9 791.121 -0.00816940 -7.19096e-14
  10 791.121 -0.00816940 -7.17782e-14
  11 791.121 -0.00816940 -5.79207e-14
  12 791.121 -0.00816940 -5.98917e-14
  13 791.121 -0.00816940 4.05558e-14
  14 791.121 -0.00816940 -5.50157e-14
  15 791.121 -0.00816940 4.83072e-14
  16 791.121 -0.00816940 -5.73558e-14
</Section>

newXOutput 30

<Section columns = "stress_xx | stress_yy | stress_xy">
  1 816.703 -0.00814823 -9.44939e-14
  2 816.703 -0.00814823 -7.07378e-14
  3 816.703 -0.00814823 6.87450e-14
  4 816.703 -0.00814823 4.73868e-14
  5 816.703 -0.00814823 -2.59079e-14
  6 816.703 -0.00814823 -1.30773e-13
  7 816.703 -0.00814823 -1.33452e-13
  8 816.703 -0.00814823 -1.79167e-13
  9 816.703 -0.00814823 -5.83229e-14
  10 816.703 -0.00814823 1.86657e-14
  11 816.703 -0.00814823 -2.47260e-14
  12 816.703 -0.00814823 -1.55245e-14
  13 816.703 -0.00814823 1.17686e-13
  14 816.703 -0.00814823 3.24046e-13
  15 816.703 -0.00814823 6.19037e-14
  16 816.703 -0.00814823 3.45220e-13
</Section>

newXOutput 31

<Section columns = "stress_xx | stress_yy | stress_xy">
  1 842.117 -0.00812717 -3.11511e-14
  2 842.117 -0.00812717 -4.46127e-14
  3 842.117 -0.00812717 3.08637e-15
  4 842.117 -0.00812717 1.42517e-13
  5 842.117 -0.00812717 -1.83041e-13
  6 842.117 -0.00812717 1.09313e-14
  7 842.117 -0.00812717 -9.85108e-14
  8 842.117 -0.00812717 -4.93617e-14
  9 842.117 -0.00812717 1.66074e-13
  10 842.117 -0.00812717 2.46521e-13
  11 842.117 -0.00812717 3.02198e-14
  12 842.117 -0.00812717 -4.25177e-14
  13 842.117 -0.00812717 -8.37642e-14
  14 842.117 -0.00812717 -2.71569e-13
  15 842.117 -0.00812717 -8.73583e-14
  16 842.117 -0.00812717 -2.11646e-13
</Section>

newXOutput 32

<Section columns = "stress_xx | stress_yy | stress_xy">
  1 867.363 -0.00810622 -8.56925e-14
  2 867.363 -0.00810622 -4.12079e-14
  3 867.363 -0.00810622 8.45547e-14
  4 867.363 -0.00810622 1.11770e-13
  5 867.363 -0.00810622 -3.69113e-14
  6 867.363 -0.00810622 -1.28129e-14
  7 867.363 -0.00810622 1.65896e-14
  8 867.363 -0.00810622 6.80665e-14
  9 867.363 -0.00810622 -2.58351e-14
  10 867.363 -0.00810622 -4.16857e-14
  11 867.363 -0.00810622 -1.48104e-13
  12 867.363 -0.00810622 -1.77513e-13
  13 867.363 -0.00810622 -4.10879e-14
  14 867.363 -0.00810622 -9.56159e-14
  15 867.363 -0.00810622 6.91550e-14
  16 867.363 -0.00810622 1.15259e-13
</Section>

newXOutput 33

<Section columns = "stress_xx | stress_yy | stress_xy">
  1 892.443 -0.00808536 -5.64555e-14
  2 892.443 -0.00808536 -2.25848e-14
  3 892.443 -0.00808536 4.96866e-14
  4 892.443 -0.00808536 8.41541e-14
  5 892.443 -0.00808536 -8.32837e-14
  6 892.443 -0.00808536 -1.34244e-14
  7 892.443 -0.00808536 1.70933e-13
  8 892.443 -0.00808536 2.35313e-13
  9 892.443 -0.00808536 -1.80540e-13
  10 892.443 -0.00808536 -1.91205e-13
  11 892.443 -0.00808536 2.41994e-13
  12 892.443 -0.00808536 2.52003e-13
  13 892.443 -0.00808536 -3.72719e-14
  14 892.443 -0.00808536 -4.95883e-14
  15 892.443 -0.00808536 8.43575e-14
  16 892.443 -0.00808536 -1.85068e-13
</Section>

newXOutput 34

<Section columns = "stress_xx | stress_yy | stress_xy">
  1 917.358 -0.00806461 -5.23650e-14
  2 917.358 -0.00806461 -3.16114e-14
  3 917.358 -0.00806461 6.15941e-14
  4 917.358 -0.00806461 7.60073e-14
  5 917.358 -0.00806461 -7.08744e-14
  6 917.358 -0.00806461 -5.98476e-14
  7 917.358 -0.00806461 8.41958e-14
  8 917.358 -0.00806461 1.37058e-13
  9 917.358 -0.00806461 -1.14161e-13
  10 917.358 -0.00806461 -9.18986e-14
  11 917.358 -0.00806461 1.16971e-13
  12 917.358 -0.00806461 9.83649e-14
  13 917.358 -0.00806461 -4.23918e-14
  14 917.358 -0.00806461 8.48407e-15
  15 917.358 -0.00806461 8.85728e-14
  16 917.358 -0.00806461 4.03695e-14
</Section>

newXOutput 35

<Section columns = "stress_xx | stress_yy | stress_xy">
  1 942.110 -0.00804396 -4.61411e-14
  2 942.110 -0.00804396 -3.83921e-14
  3 942.110 -0.00804396 5.16921e-14
  4 942.110 -0.00804396 1.16268e-13
  5 942.110 -0.00804396 2.40286e-14
  6 942.110 -0.00804396 1.20892e-13
  7 942.110 -0.00804396 -2.59452e-13
  8 942.110 -0.00804396 -2.55578e-13
  9 942.110 -0.00804396 -4.43276e-13
  10 942.110 -0.00804396 -4.56617e-13
  11 942.110 -0.00804396 -9.42424e-14
  12 942.110 -0.00804396 -8.20436e-14
  13 942.110 -0.00804396 1.14863e-13
  14 942.110 -0.00804396 8.50470e-14
  15 942.110 -0.00804396 -7.81689e-14
  16 942.110 -0.00804396 -1.37296e-13
</Section>

newXOutput 36

<Section columns = "stress_xx | stress_yy | stress_xy">
  1 966.700 -0.00802342 -2.45812e-14
  2 966.700 -0.00802342 -9.54622e-15
  3 966.700 -0.00802342 -1.00502e-13
  4 966.700 -0.00802342 -6.44415e-14
  5 966.700 -0.00802342 4.47043e-14
  6 966.700 -0.00802342 8.46195e-14
  7 966.700 -0.00802342 7.90720e-14
  8 966.700 -0.00802342 3.39213e-14
  9 966.700 -0.00802342 -3.55821e-14
  10 966.700 -0.00802342 -1.62926e-14
  11 966.700 -0.00802342 -9.39268e-15
  12 966.700 -0.00802342 4.23628e-14
  13 966.700 -0.00802342 6.44541e-14
  14 966.700 -0.00802342 7.19801e-14
  15 966.700 -0.00802342 -1.11382e-13
  16 966.700 -0.00802342 -5.79445e-14
</Section>

newXOutput 37

<Section columns = "stress_xx | stress_yy | stress_xy">
  1 991.129 -0.00800297 5.53001e-14
  2 991.129 -0.00800297 -6.53790e-14
  3 991.129 -0.00800297 -5.44849e-14
  4 991.129 -0.00800297 -1.04397e-13
  5 991.129 -0.00800297 -6.71041e-14
  6 991.129 -0.00800297 -4.37357e-14
  7 991.129 -0.00800297 3.40449e-15
  8 991.129 -0.00800297 -4.41886e-14
  9 991.129 -0.00800297 -1.31067e-13
  10 991.129 -0.00800297 -1.19352e-13
  11 991.129 -0.00800297 -4.04673e-14
  12 991.129 -0.00800297 1.12846e-14
  13 991.129 -0.00800297 4.94191e-14
  14 991.129 -0.00800297 3.80148e-14
  15 991.129 -0.00800297 -4.53586e-14
  16 991.129 -0.00800297 1.02286e-13
</Section>

newXOutput 38

<Section columns = "stress_xx | stress_yy | stress_xy">
  1 1015.40 -0.00798262 5.20102e-14
  2 1015.40 -0.00798262 -2.70373e-14
  3 1015.40 -0.00798262 -2.47355e-14
  4 1015.40 -0.00798262 -5.81980e-14
  5 1015.40 -0.00798262 1.35252e-14
  6 1015.40 -0.00798262 -9.26557e-15
  7 1015.40 -0.00798262 2.48315e-14
  8 1015.40 -0.00798262 2.23350e-14
  9 1015.40 -0.00798262 -4.94279e-14
  10 1015.40 -0.00798262 5.71865e-15
  11 1015.40 -0.00798262 -4.07966e-14
  12 1015.40 -0.00798262 1.46134e-14
  13 1015.40 -0.00798262 3.38854e-14
  14 1015.40 -0.00798262 1.32743e-13
  15 1015.40 -0.00798262 -1.11766e-13
  16 1015.40 -0.00798262 6.17843e-14
</Section>

newXOutput 39

<Section columns = "stress_xx | stress_yy | stress_xy">
  1 1039.51 -0.00796238 -2.39686e-14
  2 1039.51 -0.00796238 -7.98270e-14
  3 1039.51 -0.00796238 -6.46379e-15
  4 1039.51 -0.00796238 -3.31235e-14
  5 1039.51 -0.00796238 1.08785e-13
  6 1039.51 -0.00796238 8.36146e-14
  7 1039.51 -0.00796238 1.07817e-13
  8 1039.51 -0.00796238 9.77018e-14
  9 1039.51 -0.00796238 -1.77142e-13
  10 1039.51 -0.00796238 -1.24846e-13
  11 1039.51 -0.00796238 -1.04149e-13
  12 1039.51 -0.00796238 -6.78497e-14
  13 1039.51 -0.00796238 -1.16174e-14
  14 1039.51 -0.00796238 -1.37029e-15
  15 1039.51 -0.00796238 -7.71662e-14
  16 1039.51 -0.00796238 -2.50843e-14
</Section>

newXOutput 40

<Section columns = "stress_xx | stress_yy | stress_xy">
  1 1063.47 -0.00794223 -6.56745e-15
  2 1063.47 -0.00794223 -5.96592e-14
  3 1063.47 -0.00794223 -3.19452e-14
  4 1063.47 -0.00794223 -5.59629e-14
  5 1063.47 -0.00794223 1.67570e-15
  6 1063.47 -0.00794223 -8.41157e-15
  7 1063.47 -0.00794223 2.70561e-14
  8 1063.47 -0.00794223 2.42122e-14
  9 1063.47 -0.00794223 7.20281e-14
  10 1063.47 -0.00794223 1.04155e-13
  11 1063.47 -0.00794223 2.43331e-13
  12 1063.47 -0.00794223 2.51778e-13
  13 1063.47 -0.00794223 -1.51322e-13
  14 1063.47 -0.00794223 -9.39710e-14
  15 1063.47 -0.00794223 7.51366e-14
  16 1063.47 -0.00794223 5.23965e-15
</Section>

newXOutput 41

<Section columns = "stress_xx | stress_yy | stress_xy">
  1 1087.26 -0.00792218 -4.57118e-14
  2 1087.26 -0.00792218 -8.78612e-14
  3 1087.26 -0.00792218 -1.98135e-14
  4 1087.26 -0.00792218 -3.96134e-14
  5 1087.26 -0.00792218 -7.79176e-14
  6 1087.26 -0.00792218 -4.53429e-14
  7 1087.26 -0.00792218 -4.62196e-14
  8 1087.26 -0.00792218 -2.42095e-14
  9 1087.26 -0.00792218 -9.97226e-14
  10 1087.26 -0.00792218 -9.77024e-14
  11 1087.26 -0.00792218 6.46887e-14
  12 1087.26 -0.00792218 7.01879e-14
  13 1087.26 -0.00792218 -1.92059e-13
  14 1087.26 -0.00792218 -1.39894e-13
  15 1087.26 -0.00792218 3.61139e-14
  16 1087.26 -0.00792218 -4.38938e-14
</Section>

newXOutput 42

<Section columns = "stress_xx | stress_yy | stress_xy">
  1 1110.91 -0.00790222 1.90932e-14
  2 1110.91 -0.00790222 -2.85341e-14
  3 1110.91 -0.00790222 3.19780e-14
  4 1110.91 -0.00790222 6.24447e-15
  5 1110.91 -0.00790222 -6.10528e-14
  6 1110.91 -0.00790222 -4.64089e-14
  7 1110.91 -0.00790222 -1.03724e-13
  8 1110.91 -0.00790222 -8.05440e-14
  9 1110.91 -0.00790222 2.45335e-14
  10 1110.91 -0.00790222 1.65569e-14
  11 1110.91 -0.00790222 4.00450e-14
  12 1110.91 -0.00790222 -4.83470e-14
  13 1110.91 -0.00790222 4.02536e-14
  14 1110.91 -0.00790222 -1.10918e-13
  15 1110.91 -0.00790222 1.16791e-13
  16 1110.91 -0.00790222 -8.60519e-14
</Section>

newXOutput 43

<Section columns = "stress_xx | stress_yy | stress_xy">
  1 1134.40 -0.00788237 -9.37574e-14
  2 1134.40 -0.00788237 -1.11230e-13
  3 1134.40 -0.00788237 1.55426e-13
  4 1134.40 -0.00788237 1.39788e-13
  5 1134.40 -0.00788237 -4.19265e-15
  6 1134.40 -0.00788237 3.91338e-14
  7 1134.40 -0.00788237 -6.50036e-14
  8 1134.40 -0.00788237 -3.25391e-14
  9 1134.40 -0.00788237 2.61194e-14
  10 1134.40 -0.00788237 -6.92860e-14
  11 1134.40 -0.00788237 -9.98335e-15
  12 1134.40 -0.00788237 -3.02811e-14
  13 1134.40 -0.00788237 -1.62693e-13
  14 1134.40 -0.00788237 -1.96405e-13
  15 1134.40 -0.00788237 -3.05896e-14
  16 1134.40 -0.00788237 -4.30699e-14
</Section>

newXOutput 44

<Section columns = "stress_xx | stress_yy | stress_xy">
  1 1157.74 -0.00786260 -2.85748e-14
  2 1157.74 -0.00786260 -4.34877e-14
  3 1157.74 -0.00786260 1.02955e-13
  4 1157.74 -0.00786260 9.11126e-14
  5 1157.74 -0.00786260 -4.66918e-14
  6 1157.74 -0.00786260 -2.21560e-14
  7 1157.74 -0.00786260 -5.32639e-14
  8 1157.74 -0.00786260 -2.68241e-14
  9 1157.74 -0.00786260 -1.65809e-15
  10 1157.74 -0.00786260 -1.96125e-14
  11 1157.74 -0.00786260 6.66012e-14
  12 1157.74 -0.00786260 4.88593e-14
  13 1157.74 -0.00786260 9.69080e-14
  14 1157.74 -0.00786260 -1.27423e-14
  15 1157.74 -0.00786260 7.88214e-14
  16 1157.74 -0.00786260 5.89376e-14
</Section>

newXOutput 45

<Section columns = "stress_xx | stress_yy | stress_xy">
  1 1180.93 -0.00784294 -7.49920e-14
  2 1180.93 -0.00784294 -9.23168e-14
  3 1180.93 -0.00784294 2.96724e-14
  4 1180.93 -0.00784294 1.91187e-14
  5 1180.93 -0.00784294 -5.77700e-14
  6 1180.93 -0.00784294 -7.24247e-14
  7 1180.93 -0.00784294 1.73352e-13
  8 1180.93 -0.00784294 1.47810e-13
  9 1180.93 -0.00784294 -3.11051e-13
  10 1180.93 -0.00784294 -3.32146e-13
  11 1180.93 -0.00784294 -4.56574e-14
  12 1180.93 -0.00784294 -7.70381e-14
  13 1180.93 -0.00784294 -6.72536e-14
  14 1180.93 -0.00784294 -3.01122e-14
  15 1180.93 -0.00784294 -3.02796e-14
  16 1180.93 -0.00784294 2.95441e-14
</Section>

newXOutput 46

<Section columns = "stress_xx | stress_yy | stress_xy">
  1 1203.98 -0.00782337 -2.18216e-14
  2 1203.98 -0.00782337 -4.61978e-14
  3 1203.98 -0.00782337 1.00193e-13
  4 1203.98 -0.00782337 7.75617e-14
  5 1203.98 -0.00782337 1.45278e-14
  6 1203.98 -0.00782337 6.63602e-15
  7 1203.98 -0.00782337 8.42087e-14
  8 1203.98 -0.00782337 1.03344e-13
  9 1203.98 -0.00782337 -1.31825e-13
  10 1203.98 -0.00782337 -8.45837e-14
  11 1203.98 -0.00782337 -1.65831e-13
  12 1203.98 -0.00782337 -3.66218e-14
  13 1203.98 -0.00782337 -3.37693e-13
  14 1203.98 -0.00782337 -2.82722e-13
  15 1203.98 -0.00782337 -2.37159e-13
  16 1203.98 -0.00782337 -1.17424e-13
</Section>

newXOutput 47

<Section columns = "stress_xx | stress_yy | stress_xy">
  1 1226.87 -0.00780389 -6.79720e-14
  2 1226.87 -0.00780389 -7.53343e-14
  3 1226.87 -0.00780389 4.37501e-14
  4 1226.87 -0.00780389 3.94233e-14
  5 1226.87 -0.00780389 -1.31840e-14
  6 1226.87 -0.00780389 4.83651e-14
  7 1226.87 -0.00780389 -5.80890e-14
  8 1226.87 -0.00780389 -2.62963e-14
  9 1226.87 -0.00780389 3.31272e-14
  10 1226.87 -0.00780389 4.32002e-14
  11 1226.87 -0.00780389 2.96364e-14
  12 1226.87 -0.00780389 9.10206e-14
  13 1226.87 -0.00780389 1.41766e-13
  14 1226.87 -0.00780389 2.41421e-13
  15 1226.87 -0.00780389 -7.87488e-14
  16 1226.87 -0.00780389 3.10858e-14
</Section>

newXOutput 48

<Section columns = "stress_xx | stress_yy | stress_xy">
  1 1249.62 -0.00778450 -1.20726e-13
  2 1249.62 -0.00778450 1.13877e-13
  3 1249.62 -0.00778450 4.22419e-14
  4 1249.62 -0.00778450 1.72343e-13
  5 1249.62 -0.00778450 1.32766e-13
  6 1249.62 -0.00778450 9.72145e-14
  7 1249.62 -0.00778450 2.83106e-13
  8 1249.62 -0.00778450 1.62561e-13
  9 1249.62 -0.00778450 9.22469e-14
  10 1249.62 -0.00778450 1.43111e-13
  11 1249.62 -0.00778450 7.90782e-14
  12 1249.62 -0.00778450 1.35019e-13
  13 1249.62 -0.00778450 7.63973e-14
  14 1249.62 -0.00778450 1.36470e-13
  15 1249.62 -0.00778450 1.12715e-13
  16 1249.62 -0.00778450 -2.29809e-14
</Section>

newXOutput 49

<Section columns = "stress_xx | stress_yy | stress_xy">
  1 1272.22 -0.00776521 -6.84118e-15
  2 1272.22 -0.00776521 -3.60433e-14
  3 1272.22 -0.00776521 -1.44304e-13
  4 1272.22 -0.00776521 -1.43725e-13
  5 1272.22 -0.00776521 -9.41060e-14
  6 1272.22 -0.00776521 -1.32155e-13
  7 1272.22 -0.00776521 -2.75948e-13
  8 1272.22 -0.00776521 -2.03485e-13
  9 1272.22 -0.00776521 8.40684e-14
  10 1272.22 -0.00776521 1.25150e-13
  11 1272.22 -0.00776521 1.30504e-13
  12 1272.22 -0.00776521 1.10505e-13
  13 1272.22 -0.00776521 -6.72714e-14
  14 1272.22 -0.00776521 -1.07519e-13
  15 1272.22 -0.00776521 7.91940e-14
  16 1272.22 -0.00776521 3.72494e-14
</Section>

newXOutput 50

<Section columns = "stress_xx | stress_yy | stress_xy">
  1 1294.67 -0.00774601 5.01292e-15
  2 1294.67 -0.00774601 -1.43735e-14
  3 1294.67 -0.00774601 -6.81779e-14
  4 1294.67 -0.00774601 -7.22259e-14
  5 1294.67 -0.00774601 2.52796e-14
  6 1294.67 -0.00774601 -7.61679e-15
  7 1294.67 -0.00774601 1.74748e-13
  8 1294.67 -0.00774601 3.30617e-14
  9 1294.67 -0.00774601 8.53460e-14
  10 1294.67 -0.00774601 -7.83859e-15
  11 1294.67 -0.00774601 1.45770e-13
  12 1294.67 -0.00774601 2.13361e-13
  13 1294.67 -0.00774601 -8.67169e-15
  14 1294.67 -0.00774601 8.18975e-14
  15 1294.67 -0.00774601 1.00294e-13
  16 1294.67 -0.00774601 1.56691e-13
</Section>

newXOutput 51

<Section columns = "stress_xx | stress_yy | stress_xy">
  1 1316.99 -0.00772690 -3.94711e-14
  2 1316.99 -0.00772690 -8.29080e-14
  3 1316.99 -0.00772690 3.87037e-14
  4 1316.99 -0.00772690 5.91363e-15
  5 1316.99 -0.00772690 -1.77409e-13
  6 1316.99 -0.00772690 -1.56737e-13
  7 1316.99 -0.00772690 -1.28999e-13
  8 1316.99 -0.00772690 -6.72930e-14
  9 1316.99 -0.00772690 4.39827e-14
  10 1316.99 -0.00772690 2.54655e-14
  11 1316.99 -0.00772690 -2.00262e-13
  12 1316.99 -0.00772690 -2.54192e-13
  13 1316.99 -0.00772690 -1.58424e-13
  14 1316.99 -0.00772690 3.11499e-14
  15 1316.99 -0.00772690 -5.19333e-14
  16 1316.99 -0.00772690 5.74041e-14
</Section>

newXOutput 52

<Section columns = "stress_xx | stress_yy | stress_xy">
  1 1339.16 -0.00770789 1.04241e-14
  2 1339.16 -0.00770789 -4.24434e-14
  3 1339.16 -0.00770789 -5.89305e-14
  4 1339.16 -0.00770789 -8.16121e-14
  5 1339.16 -0.00770789 3.88059e-14
  6 1339.16 -0.00770789 6.07113e-14
  7 1339.16 -0.00770789 4.69376e-14
  8 1339.16 -0.00770789 7.23000e-14
  9 1339.16 -0.00770789 1.15191e-13
  10 1339.16 -0.00770789 1.48055e-13
  11 1339.16 -0.00770789 2.28324e-13
  12 1339.16 -0.00770789 1.98335e-13
  13 1339.16 -0.00770789 -1.18115e-13
  14 1339.16 -0.00770789 5.90998e-14
  15 1339.16 -0.00770789 -1.38919e-13
  16 1339.16 -0.00770789 -6.35939e-14
</Section>

newXOutput 53

<Section columns = "stress_xx | stress_yy | stress_xy">
  1 1361.19 -0.00768896 -5.54016e-15
  2 1361.19 -0.00768896 -1.25192e-13
  3 1361.19 -0.00768896 -9.19685e-14
  4 1361.19 -0.00768896 -1.75540e-13
  5 1361.19 -0.00768896 1.44633e-13
  6 1361.19 -0.00768896 5.41688e-15
  7 1361.19 -0.00768896 -5.16929e-14
  8 1361.19 -0.00768896 -1.56987e-13
  9 1361.19 -0.00768896 -9.76037e-14
  10 1361.19 -0.00768896 -2.51007e-14
  11 1361.19 -0.00768896 -2.70213e-13
  12 1361.19 -0.00768896 -1.37434e-14
  13 1361.19 -0.00768896 -6.57155e-14
  14 1361.19 -0.00768896 5.48441e-14
  15 1361.19 -0.00768896 -2.10091e-13
  16 1361.19 -0.00768896 -1.30992e-13
</Section>

newXOutput 54

<Section columns = "stress_xx | stress_yy | stress_xy">
  1 1383.08 -0.00767012 -1.38015e-13
  2 1383.08 -0.00767012 7.53260e-14
  3 1383.08 -0.00767012 -2.29784e-13
  4 1383.08 -0.00767012 -4.33715e-14
  5 1383.08 -0.00767012 -1.46807e-14
  6 1383.08 -0.00767012 -1.01848e-13
  7 1383.08 -0.00767012 3.00420e-13
  8 1383.08 -0.00767012 2.05271e-13
  9 1383.08 -0.00767012 -1.59772e-14
  10 1383.08 -0.00767012 6.61386e-14
  11 1383.08 -0.00767012 -1.29191e-13
  12 1383.08 -0.00767012 6.98311e-16
  13 1383.08 -0.00767012 2.71607e-14
  14 1383.08 -0.00767012 6.48308e-14
  15 1383.08 -0.00767012 2.33516e-13
  16 1383.08 -0.00767012 1.01158e-13
</Section>

newXOutput 55

<Section columns = "stress_xx | stress_yy | stress_xy">
  1 1404.83 -0.00765137 -1.13792e-13
  2 1404.83 -0.00765137 2.47889e-14
  3 1404.83 -0.00765137 -5.94792e-14
  4 1404.83 -0.00765137 7.80021e-14
  5 1404.83 -0.00765137 -1.26059e-13
  6 1404.83 -0.00765137 -1.33729e-13
  7 1404.83 -0.00765137 -3.44741e-13
  8 1404.83 -0.00765137 -4.00100e-13
  9 1404.83 -0.00765137 -1.83315e-13
  10 1404.83 -0.00765137 -1.20456e-13
  11 1404.83 -0.00765137 -7.21041e-15
  12 1404.83 -0.00765137 3.24739e-14
  13 1404.83 -0.00765137 -5.28665e-14
  14 1404.83 -0.00765137 -2.66120e-14
  15 1404.83 -0.00765137 1.61946e-13
  16 1404.83 -0.00765137 8.20250e-14
</Section>

newXOutput 56

<Section columns = "stress_xx | stress_yy | stress_xy">
  1 1426.45 -0.00763271 -1.28513e-13
  2 1426.45 -0.00763271 3.83200e-15
  3 1426.45 -0.00763271 -3.82612e-14
  4 1426.45 -0.00763271 9.78918e-14
  5 1426.45 -0.00763271 -4.35780e-14
  6 1426.45 -0.00763271 -6.93501e-14
  7 1426.45 -0.00763271 -8.84880e-14
  8 1426.45 -0.00763271 -1.34154e-13
  9 1426.45 -0.00763271 2.88847e-13
  10 1426.45 -0.00763271 3.10958e-13
  11 1426.45 -0.00763271 5.52177e-14
  12 1426.45 -0.00763271 1.51738e-13
  13 1426.45 -0.00763271 1.43809e-13
  14 1426.45 -0.00763271 5.17291e-14
  15 1426.45 -0.00763271 -1.44667e-13
  16 1426.45 -0.00763271 -1.21475e-13
</Section>

newXOutput 57

<Section columns = "stress_xx | stress_yy | stress_xy">
  1 1447.92 -0.00761414 1.40625e-13
  2 1447.92 -0.00761414 -2.91252e-13
  3 1447.92 -0.00761414 1.41673e-13
  4 1447.92 -0.00761414 -1.30208e-14
  5 1447.92 -0.00761414 -1.32130e-14
  6 1447.92 -0.00761414 6.31767e-14
  7 1447.92 -0.00761414 -1.57170e-13
  8 1447.92 -0.00761414 -1.44217e-13
  9 1447.92 -0.00761414 -3.24499e-13
  10 1447.92 -0.00761414 -3.00825e-13
  11 1447.92 -0.00761414 3.06179e-13
  12 1447.92 -0.00761414 3.05129e-13
  13 1447.92 -0.00761414 -1.92062e-13
  14 1447.92 -0.00761414 4.38974e-14
  15 1447.92 -0.00761414 -3.92688e-13
  16 1447.92 -0.00761414 1.76742e-13
</Section>

newXOutput 58

<Section columns = "stress_xx | stress_yy | stress_xy">
  1 1469.27 -0.00759566 1.42624e-13
  2 1469.27 -0.00759566 -1.79950e-13
  3 1469.27 -0.00759566 9.66311e-14
  4 1469.27 -0.00759566 -1.37814e-14
  5 1469.27 -0.00759566 -9.14922e-14
  6 1469.27 -0.00759566 -1.10790e-14
  7 1469.27 -0.00759566 2.30310e-13
  8 1469.27 -0.00759566 2.17724e-13
  9 1469.27 -0.00759566 9.77878e-14
  10 1469.27 -0.00759566 5.10402e-14
  11 1469.27 -0.00759566 -1.55367e-13
  12 1469.27 -0.00759566 -1.18249e-13
  13 1469.27 -0.00759566 2.55507e-15
  14 1469.27 -0.00759566 1.13450e-13
  15 1469.27 -0.00759566 -1.28552e-13
  16 1469.27 -0.00759566 2.46451e-13
</Section>

newXOutput 59

<Section columns = "stress_xx | stress_yy | stress_xy">
  1 1490.48 -0.00757726 1.49140e-14
  2 1490.48 -0.00757726 -6.06196e-14
  3 1490.48 -0.00757726 7.20856e-14
  4 1490.48 -0.00757726 2.32446e-14
  5 1490.48 -0.00757726 6.57871e-14
  6 1490.48 -0.00757726 4.53963e-14
  7 1490.48 -0.00757726 -1.81374e-13
  8 1490.48 -0.00757726 -1.76706e-13
  9 1490.48 -0.00757726 -7.73199e-14
  10 1490.48 -0.00757726 -1.90581e-14
  11 1490.48 -0.00757726 -2.62338e-14
  12 1490.48 -0.00757726 3.60478e-14
  13 1490.48 -0.00757726 -1.83088e-13
  14 1490.48 -0.00757726 -2.00684e-13
  15 1490.48 -0.00757726 -2.41291e-13
  16 1490.48 -0.00757726 -1.01092e-13
</Section>

newXOutput 60

<Section columns = "stress_xx | stress_yy | stress_xy">
  1 1511.55 -0.00755895 -1.28275e-13
  2 1511.55 -0.00755895 2.10987e-14
  3 1511.55 -0.00755895 -5.98520e-14
  4 1511.55 -0.00755895 1.98649e-14
  5 1511.55 -0.00755895 -8.87683e-14
  6 1511.55 -0.00755895 -8.22575e-14
  7 1511.55 -0.00755895 -2.58380e-13
  8 1511.55 -0.00755895 -2.42929e-13
  9 1511.55 -0.00755895 5.17916e-14
  10 1511.55 -0.00755895 1.14547e-13
  11 1511.55 -0.00755895 -2.93696e-14
  12 1511.55 -0.00755895 1.15370e-13
  13 1511.55 -0.00755895 -2.32501e-13
  14 1511.55 -0.00755895 -3.40049e-13
  15 1511.55 -0.00755895 -1.04918e-13
  16 1511.55 -0.00755895 -5.26397e-14
</Section>

newXOutput 61

<Section columns = "stress_xx | stress_yy | stress_xy">
  1 1532.49 -0.00754072 -1.16737e-13
  2 1532.49 -0.00754072 -4.66823e-14
  3 1532.49 -0.00754072 -3.58395e-14
  4 1532.49 -0.00754072 4.35888e-14
  5 1532.49 -0.00754072 -9.88195e-14
  6 1532.49 -0.00754072 -4.60224e-14
  7 1532.49 -0.00754072 2.23774e-13
  8 1532.49 -0.00754072 2.66960e-13
  9 1532.49 -0.00754072 6.70513e-14
  10 1532.49 -0.00754072 2.22119e-14
  11 1532.49 -0.00754072 -1.18691e-14
  12 1532.49 -0.00754072 -5.87001e-14
  13 1532.49 -0.00754072 -8.22228e-14
  14 1532.49 -0.00754072 -4.80800e-14
  15 1532.49 -0.00754072 -4.60334e-14
  16 1532.49 -0.00754072 9.29541e-14
</Section>

newXOutput 62

<Section columns = "stress_xx | stress_yy | stress_xy">
  1 1553.31 -0.00752258 -7.03597e-14
  2 1553.31 -0.00752258 1.28006e-14
  3 1553.31 -0.00752258 1.83251e-14
  4 1553.31 -0.00752258 1.40877e-14
  5 1553.31 -0.00752258 -1.01348e-14
  6 1553.31 -0.00752258 -9.80005e-14
  7 1553.31 -0.00752258 -4.94641e-14
  8 1553.31 -0.00752258 -1.14000e-13
  9 1553.31 -0.00752258 -3.40893e-13
  10 1553.31 -0.00752258 -2.75614e-13
  11 1553.31 -0.00752258 5.91774e-14
  12 1553.31 -0.00752258 1.73945e-13
  13 1553.31 -0.00752258 -8.97411e-14
  14 1553.31 -0.00752258 1.42792e-13
  15 1553.31 -0.00752258 7.13192e-14
  16 1553.31 -0.00752258 2.41189e-13
</Section>

newXOutput 63

<Section columns = "stress_xx | stress_yy | stress_xy">
  1 1573.99 -0.00750453 -7.10827e-14
  2 1573.99 -0.00750453 -2.51645e-14
  3 1573.99 -0.00750453 7.63980e-14
  4 1573.99 -0.00750453 3.86425e-14
  5 1573.99 -0.00750453 2.45565e-13
  6 1573.99 -0.00750453 5.45619e-14
  7 1573.99 -0.00750453 -1.54147e-13
  8 1573.99 -0.00750453 -1.99819e-13
  9 1573.99 -0.00750453 1.53894e-13
  10 1573.99 -0.00750453 1.26706e-13
  11 1573.99 -0.00750453 1.28396e-13
  12 1573.99 -0.00750453 -2.95486e-14
  13 1573.99 -0.00750453 -2.60018e-13
  14 1573.99 -0.00750453 -2.36520e-13
  15 1573.99 -0.00750453 -1.81470e-13
  16 1573.99 -0.00750453 -3.32344e-13
</Section>

newXOutput 64

<Section columns = "stress_xx | stress_yy | stress_xy">
  1 1594.54 -0.00748655 -9.89298e-14
  2 1594.54 -0.00748655 -8.97837e-14
  3 1594.54 -0.00748655 3.36555e-14
  4 1594.54 -0.00748655 1.09140e-14
  5 1594.54 -0.00748655 3.10839e-13
  6 1594.54 -0.00748655 2.27458e-13
  7 1594.54 -0.00748655 -2.00170e-14
  8 1594.54 -0.00748655 -1.37618e-14
  9 1594.54 -0.00748655 -4.32229e-13
  10 1594.54 -0.00748655 -2.84006e-13
  11 1594.54 -0.00748655 6.83320e-15
  12 1594.54 -0.00748655 1.26354e-13
  13 1594.54 -0.00748655 -8.73699e-14
  14 1594.54 -0.00748655 -3.88813e-14
  15 1594.54 -0.00748655 1.53588e-14
  16 1594.54 -0.00748655 -1.39777e-13
</Section>

newXOutput 65

<Section columns = "stress_xx | stress_yy | stress_xy">
  1 1614.97 -0.00746866 -5.16653e-14
  2 1614.97 -0.00746866 -6.53282e-14
  3 1614.97 -0.00746866 5.03887e-14
  4 1614.97 -0.00746866 3.77494e-14
  5 1614.97 -0.00746866 1.67214e-13
  6 1614.97 -0.00746866 1.64558e-13
  7 1614.97 -0.00746866 3.12445e-13
  8 1614.97 -0.00746866 3.34613e-13
  9 1614.97 -0.00746866 8.29332e-14
  10 1614.97 -0.00746866 1.32267e-14
  11 1614.97 -0.00746866 -2.13537e-13
  12 1614.97 -0.00746866 -2.95412e-13
  13 1614.97 -0.00746866 2.84915e-13
  14 1614.97 -0.00746866 2.35056e-13
  15 1614.97 -0.00746866 8.84249e-14
  16 1614.97 -0.00746866 3.74861e-13
</Section>

newXOutput 66

<Section columns = "stress_xx | stress_yy | stress_xy">
  1 1635.26 -0.00745086 -2.06343e-14
  2 1635.26 -0.00745086 -2.06343e-14
  3 1635.26 -0.00745086 -3.33887e-15
  4 1635.26 -0.00745086 -1.92139e-14
  5 1635.26 -0.00745086 1.90930e-14
  6 1635.26 -0.00745086 3.66262e-15
  7 1635.26 -0.00745086 4.68242e-14
  8 1635.26 -0.00745086 8.70435e-14
  9 1635.26 -0.00745086 9.26981e-14
  10 1635.26 -0.00745086 2.04110e-13
  11 1635.26 -0.00745086 4.43528e-14
  12 1635.26 -0.00745086 6.02192e-14
  13 1635.26 -0.00745086 -2.35371e-13
  14 1635.26 -0.00745086 1.24989e-15
  15 1635.26 -0.00745086 -3.55416e-13
  16 1635.26 -0.00745086 -5.31006e-14
</Section>

newXOutput 67

<Section columns = "stress_xx | stress_yy | stress_xy">
  1 1655.44 -0.00743314 -7.24854e-14
  2 1655.44 -0.00743314 -1.03445e-13
  3 1655.44 -0.00743314 -3.50589e-14
  4 1655.44 -0.00743314 -7.89571e-15
  5 1655.44 -0.00743314 -3.10107e-14
  6 1655.44 -0.00743314 4.79659e-15
  7 1655.44 -0.00743314 -1.93684e-13
  8 1655.44 -0.00743314 -1.82451e-13
  9 1655.44 -0.00743314 2.17164e-13
  10 1655.44 -0.00743314 1.90090e-13
  11 1655.44 -0.00743314 1.51743e-13
  12 1655.44 -0.00743314 2.01923e-13
  13 1655.44 -0.00743314 -2.06204e-13
  14 1655.44 -0.00743314 -1.48367e-13
  15 1655.44 -0.00743314 2.90652e-13
  16 1655.44 -0.00743314 -1.76626e-13
</Section>

newXOutput 68

<Section columns = "stress_xx | stress_yy | stress_xy">
  1 1675.48 -0.00741549 -5.36230e-14
  2 1675.48 -0.00741549 -7.54782e-14
  3 1675.48 -0.00741549 -3.55483e-14
  4 1675.48 -0.00741549 -1.53034e-14
  5 1675.48 -0.00741549 1.85081e-13
  6 1675.48 -0.00741549 1.93749e-13
  7 1675.48 -0.00741549 2.69893e-13
  8 1675.48 -0.00741549 2.60256e-13
  9 1675.48 -0.00741549 -2.11151e-13
  10 1675.48 -0.00741549 -1.66776e-13
  11 1675.48 -0.00741549 -1.69835e-13
  12 1675.48 -0.00741549 -2.45819e-13
  13 1675.48 -0.00741549 -4.11848e-13
  14 1675.48 -0.00741549 -4.18270e-13
  15 1675.48 -0.00741549 -3.38991e-13
  16 1675.48 -0.00741549 -1.98042e-13
</Section>

newXOutput 69

<Section columns = "stress_xx | stress_yy | stress_xy">
  1 1695.41 -0.00739793 -3.16904e-14
  2 1695.41 -0.00739793 -7.20156e-14
  3 1695.41 -0.00739793 1.55267e-13
  4 1695.41 -0.00739793 1.47424e-13
  5 1695.41 -0.00739793 1.41040e-14
  6 1695.41 -0.00739793 4.83422e-15
  7 1695.41 -0.00739793 -3.95024e-15
  8 1695.41 -0.00739793 -1.51517e-14
  9 1695.41 -0.00739793 9.07258e-14
  10 1695.41 -0.00739793 1.26570e-13
  11 1695.41 -0.00739793 2.29675e-13
  12 1695.41 -0.00739793 2.69982e-13
  13 1695.41 -0.00739793 2.15839e-13
  14 1695.41 -0.00739793 1.10901e-13
  15 1695.41 -0.00739793 4.46952e-13
  16 1695.41 -0.00739793 -9.19254e-14
</Section>

newXOutput 70

<Section columns = "stress_xx | stress_yy | stress_xy">
  1 1715.21 -0.00738046 -5.04149e-14
  2 1715.21 -0.00738046 -9.95013e-14
  3 1715.21 -0.00738046 7.75031e-14
  4 1715.21 -0.00738046 4.29198e-14
  5 1715.21 -0.00738046 -4.40375e-14
  6 1715.21 -0.00738046 6.68116e-15
  7 1715.21 -0.00738046 -1.36285e-13
  8 1715.21 -0.00738046 -1.12333e-13
  9 1715.21 -0.00738046 -2.40961e-13
  10 1715.21 -0.00738046 -2.32042e-13
  11 1715.21 -0.00738046 -6.25620e-14
  12 1715.21 -0.00738046 -9.89971e-14
  13 1715.21 -0.00738046 -4.20624e-13
  14 1715.21 -0.00738046 -1.97944e-13
  15 1715.21 -0.00738046 -6.06587e-13
  16 1715.21 -0.00738046 -1.12759e-13
</Section>

newXOutput 71

<Section columns = "stress_xx | stress_yy | stress_xy">
  1 1734.88 -0.00736306 -2.72307e-14
  2 1734.88 -0.00736306 -6.28083e-14
  3 1734.88 -0.00736306 -2.01076e-13
  4 1734.88 -0.00736306 -2.32146e-13
  5 1734.88 -0.00736306 -3.05339e-13
  6 1734.88 -0.00736306 -3.56656e-13
  7 1734.88 -0.00736306 -1.32889e-13
  8 1734.88 -0.00736306 -1.42374e-13
  9 1734.88 -0.00736306 2.01858e-13
  10 1734.88 -0.00736306 2.35179e-13
  11 1734.88 -0.00736306 8.69418e-14
  12 1734.88 -0.00736306 7.91322e-14
  13 1734.88 -0.00736306 3.51829e-13
  14 1734.88 -0.00736306 2.23004e-13
  15 1734.88 -0.00736306 3.14603e-13
  16 1734.88 -0.00736306 -1.06575e-13
</Section>

newXOutput 72

<Section columns = "stress_xx | stress_yy | stress_xy">
  1 1754.44 -0.00734574 -6.75321e-14
  2 1754.44 -0.00734574 -5.48057e-14
  3 1754.44 -0.00734574 -9.80368e-14
  4 1754.44 -0.00734574 -9.80260e-14
  5 1754.44 -0.00734574 -1.48438e-13
  6 1754.44 -0.00734574 -1.55343e-13
  7 1754.44 -0.00734574 -8.60687e-14
  8 1754.44 -0.00734574 -6.89158e-14
  9 1754.44 -0.00734574 -1.14194e-13
  10 1754.44 -0.00734574 -8.54443e-14
  11 1754.44 -0.00734574 1.44305e-13
  12 1754.44 -0.00734574 1.87591e-13
  13 1754.44 -0.00734574 2.72758e-13
  14 1754.44 -0.00734574 3.94702e-13
  15 1754.44 -0.00734574 -3.15847e-13
  16 1754.44 -0.00734574 3.36892e-14
</Section>

newXOutput 73

<Section columns = "stress_xx | stress_yy | stress_xy">
  1 1773.88 -0.00732850 -1.92975e-14
  2 1773.88 -0.00732850 -4.56850e-14
  3 1773.88 -0.00732850 1.25993e-13
  4 1773.88 -0.00732850 1.10547e-13
  5 1773.88 -0.00732850 -1.19748e-13
  6 1773.88 -0.00732850 -1.22202e-13
  7 1773.88 -0.00732850 -1.92432e-13
  8 1773.88 -0.00732850 -1.92900e-13
  9 1773.88 -0.00732850 5.25115e-14
  10 1773.88 -0.00732850 1.12152e-13
  11 1773.88 -0.00732850 3.26691e-13
  12 1773.88 -0.00732850 4.49335e-13
  13 1773.88 -0.00732850 -3.22752e-14
  14 1773.88 -0.00732850 1.13378e-13
  15 1773.88 -0.00732850 -2.65356e-13
  16 1773.88 -0.00732850 -3.84604e-13
</Section>

newXOutput 74

<Section columns = "stress_xx | stress_yy | stress_xy">
  1 1793.19 -0.00731134 -9.92182e-15
  2 1793.19 -0.00731134 -1.37253e-13
  3 1793.19 -0.00731134 -1.66578e-13
  4 1793.19 -0.00731134 -2.70931e-13
  5 1793.19 -0.00731134 -6.34198e-14
  6 1793.19 -0.00731134 -9.01525e-14
  7 1793.19 -0.00731134 3.56872e-13
  8 1793.19 -0.00731134 3.95879e-13
  9 1793.19 -0.00731134 -5.10487e-13
  10 1793.19 -0.00731134 -5.06138e-13
  11 1793.19 -0.00731134 -6.14124e-13
  12 1793.19 -0.00731134 -5.64597e-13
  13 1793.19 -0.00731134 1.99414e-13
  14 1793.19 -0.00731134 2.17901e-13
  15 1793.19 -0.00731134 2.78989e-13
  16 1793.19 -0.00731134 3.62408e-14
</Section>

newXOutput 75

<Section columns = "stress_xx | stress_yy | stress_xy">
  1 1812.39 -0.00729425 3.31686e-14
  2 1812.39 -0.00729425 -9.75341e-14
  3 1812.39 -0.00729425 1.08251e-13
  4 1812.39 -0.00729425 7.31630e-14
  5 1812.39 -0.00729425 -1.23244e-13
  6 1812.39 -0.00729425 -1.80541e-13
  7 1812.39 -0.00729425 -2.41488e-13
  8 1812.39 -0.00729425 -2.96641e-13
  9 1812.39 -0.00729425 -1.06213e-13
  10 1812.39 -0.00729425 -9.33527e-14
  11 1812.39 -0.00729425 1.44755e-13
  12 1812.39 -0.00729425 1.01803e-13
  13 1812.39 -0.00729425 -2.21702e-13
  14 1812.39 -0.00729425 -3.64264e-16
  15 1812.39 -0.00729425 -2.16001e-13
  16 1812.39 -0.00729425 -5.29129e-14
</Section>

newXOutput 76

<Section columns = "stress_xx | stress_yy | stress_xy">
  1 1831.47 -0.00727725 -2.92087e-13
  2 1831.47 -0.00727725 1.13098e-13
  3 1831.47 -0.00727725 -2.77229e-14
  4 1831.47 -0.00727725 1.81508e-13
  5 1831.47 -0.00727725 -5.73802e-14
  6 1831.47 -0.00727725 -1.67021e-13
  7 1831.47 -0.00727725 -1.33503e-13
  8 1831.47 -0.00727725 -2.52300e-13
  9 1831.47 -0.00727725 -1.14097e-13
  10 1831.47 -0.00727725 -8.82720e-14
  11 1831.47 -0.00727725 4.02013e-14
  12 1831.47 -0.00727725 -1.83902e-14
  13 1831.47 -0.00727725 -2.38171e-13
  14 1831.47 -0.00727725 -3.23776e-13
  15 1831.47 -0.00727725 -5.66899e-14
  16 1831.47 -0.00727725 -2.89351e-13
</Section>

newXOutput 77

<Section columns = "stress_xx | stress_yy | stress_xy">
  1 1850.44 -0.00726032 2.81324e-14
  2 1850.44 -0.00726032 -1.28037e-13
  3 1850.44 -0.00726032 -5.92677e-14
  4 1850.44 -0.00726032 -1.60109e-13
  5 1850.44 -0.00726032 1.16801e-13
  6 1850.44 -0.00726032 1.92152e-13
  7 1850.44 -0.00726032 -1.35203e-14
  8 1850.44 -0.00726032 1.09523e-13
  9 1850.44 -0.00726032 -1.60999e-13
  10 1850.44 -0.00726032 -2.71976e-13
  11 1850.44 -0.00726032 -2.35998e-14
  12 1850.44 -0.00726032 -1.55157e-13
  13 1850.44 -0.00726032 2.97879e-13
  14 1850.44 -0.00726032 2.86149e-13
  15 1850.44 -0.00726032 -1.69336e-13
  16 1850.44 -0.00726032 3.10476e-13
</Section>

newXOutput 78

<Section columns = "stress_xx | stress_yy | stress_xy">
  1 1869.29 -0.00724347 1.05395e-14
  2 1869.29 -0.00724347 -1.32043e-13
  3 1869.29 -0.00724347 -1.14548e-13
  4 1869.29 -0.00724347 -1.89060e-13
  5 1869.29 -0.00724347 -1.14254e-13
  6 1869.29 -0.00724347 -9.06635e-14
  7 1869.29 -0.00724347 -1.14050e-13
  8 1869.29 -0.00724347 -1.10157e-13
  9 1869.29 -0.00724347 2.20714e-14
  10 1869.29 -0.00724347 1.16109e-13
  11 1869.29 -0.00724347 -3.50495e-13
  12 1869.29 -0.00724347 -3.14661e-13
  13 1869.29 -0.00724347 -1.23006e-13
  14 1869.29 -0.00724347 -3.76342e-13
  15 1869.29 -0.00724347 -9.74586e-14
  16 1869.29 -0.00724347 -3.63721e-13
</Section>

newXOutput 79

<Section columns = "stress_xx | stress_yy | stress_xy">
  1 1888.02 -0.00722670 -1.81123e-14
  2 1888.02 -0.00722670 -1.21394e-13
  3 1888.02 -0.00722670 1.46977e-13
  4 1888.02 -0.00722670 9.66164e-14
  5 1888.02 -0.00722670 9.81869e-14
  6 1888.02 -0.00722670 1.21697e-13
  7 1888.02 -0.00722670 -3.94942e-14
  8 1888.02 -0.00722670 -1.42624e-14
  9 1888.02 -0.00722670 -3.33477e-13
  10 1888.02 -0.00722670 -3.44689e-13
  11 1888.02 -0.00722670 1.74445e-13
  12 1888.02 -0.00722670 4.23683e-14
  13 1888.02 -0.00722670 2.25331e-13
  14 1888.02 -0.00722670 3.27236e-13
  15 1888.02 -0.00722670 7.21283e-14
  16 1888.02 -0.00722670 4.21629e-13
</Section>

newXOutput 80

<Section columns = "stress_xx | stress_yy | stress_xy">
  1 1906.64 -0.00721000 -1.03434e-13
  2 1906.64 -0.00721000 -9.91481e-14
  3 1906.64 -0.00721000 -3.29666e-14
  4 1906.64 -0.00721000 -4.02418e-14
  5 1906.64 -0.00721000 -1.99364e-13
  6 1906.64 -0.00721000 -1.82362e-13
  7 1906.64 -0.00721000 1.41879e-13
  8 1906.64 -0.00721000 1.60580e-13
  9 1906.64 -0.00721000 1.71881e-14
  10 1906.64 -0.00721000 1.19807e-13
  11 1906.64 -0.00721000 -8.83293e-14
  12 1906.64 -0.00721000 1.43773e-13
  13 1906.64 -0.00721000 1.58708e-13
  14 1906.64 -0.00721000 -1.59341e-13
  15 1906.64 -0.00721000 -1.86988e-14
  16 1906.64 -0.00721000 -3.41055e-13
</Section>

newXOutput 81

<Section columns = "stress_xx | stress_yy | stress_xy">
  1 1925.15 -0.00719337 -6.64450e-14
  2 1925.15 -0.00719337 -6.68120e-14
  3 1925.15 -0.00719337 -1.33659e-13
  4 1925.15 -0.00719337 -1.72246e-13
  5 1925.15 -0.00719337 -4.99554e-14
  6 1925.15 -0.00719337 -1.32531e-13
  7 1925.15 -0.00719337 -2.40500e-13
  8 1925.15 -0.00719337 -2.24010e-13
  9 1925.15 -0.00719337 -4.27693e-14
  10 1925.15 -0.00719337 -7.36570e-14
  11 1925.15 -0.00719337 7.13032e-14
  12 1925.15 -0.00719337 8.96781e-14
  13 1925.15 -0.00719337 1.48536e-13
  14 1925.15 -0.00719337 -2.60487e-15
  15 1925.15 -0.00719337 7.44035e-14
  16 1925.15 -0.00719337 2.70091e-13
</Section>

newXOutput 82

<Section columns = "stress_xx | stress_yy | stress_xy">
  1 1943.55 -0.00717683 -7.65096e-14
  2 1943.55 -0.00717683 -1.01676e-13
  3 1943.55 -0.00717683 -1.09412e-13
  4 1943.55 -0.00717683 -1.38145e-13
  5 1943.55 -0.00717683 2.53974e-15
  6 1943.55 -0.00717683 -3.18952e-14
  7 1943.55 -0.00717683 1.43916e-13
  8 1943.55 -0.00717683 9.31933e-14
  9 1943.55 -0.00717683 1.28878e-14
  10 1943.55 -0.00717683 -4.87143e-14
  11 1943.55 -0.00717683 -9.29676e-14
  12 1943.55 -0.00717683 -3.59997e-13
  13 1943.55 -0.00717683 3.46116e-13
  14 1943.55 -0.00717683 1.18929e-13
  15 1943.55 -0.00717683 3.49203e-13
  16 1943.55 -0.00717683 3.40698e-13
</Section>

newXOutput 83

<Section columns = "stress_xx | stress_yy | stress_xy">
  1 1961.83 -0.00716035 -8.58537e-14
  2 1961.83 -0.00716035 -7.31478e-14
  3 1961.83 -0.00716035 8.05170e-14
  4 1961.83 -0.00716035 8.18652e-14
  5 1961.83 -0.00716035 -8.77929e-14
  6 1961.83 -0.00716035 -7.86135e-14
  7 1961.83 -0.00716035 -3.14124e-13
  8 1961.83 -0.00716035 -3.03863e-13
  9 1961.83 -0.00716035 6.79204e-14
  10 1961.83 -0.00716035 8.63361e-14
  11 1961.83 -0.00716035 7.07435e-13
  12 1961.83 -0.00716035 6.83951e-13
  13 1961.83 -0.00716035 4.98276e-13
  14 1961.83 -0.00716035 4.28674e-13
  15 1961.83 -0.00716035 1.11449e-13
  16 1961.83 -0.00716035 -2.40134e-13
</Section>

newXOutput 84

<Section columns = "stress_xx | stress_yy | stress_xy">
  1 1980.00 -0.00714395 -6.88757e-14
  2 1980.00 -0.00714395 -1.11061e-13
  3 1980.00 -0.00714395 -1.20768e-13
  4 1980.00 -0.00714395 -1.79014e-13
  5 1980.00 -0.00714395 -1.97137e-13
  6 1980.00 -0.00714395 -3.30304e-13
  7 1980.00 -0.00714395 1.88970e-13
  8 1980.00 -0.00714395 9.80408e-14
  9 1980.00 -0.00714395 -8.35214e-14
  10 1980.00 -0.00714395 -4.20259e-14
  11 1980.00 -0.00714395 4.66681e-13
  12 1980.00 -0.00714395 3.25302e-13
  13 1980.00 -0.00714395 2.90240e-13
  14 1980.00 -0.00714395 1.37649e-13
  15 1980.00 -0.00714395 1.69542e-13
  16 1980.00 -0.00714395 2.49694e-13
</Section>

newXOutput 85

<Section columns = "stress_xx | stress_yy | stress_xy">
  1 1998.07 -0.00712763 -8.11321e-14
  2 1998.07 -0.00712763 -3.94022e-14
  3 1998.07 -0.00712763 2.87058e-14
  4 1998.07 -0.00712763 5.57969e-14
  5 1998.07 -0.00712763 2.42781e-14
  6 1998.07 -0.00712763 -1.76052e-14
  7 1998.07 -0.00712763 -6.50990e-14
  8 1998.07 -0.00712763 -4.46726e-14
  9 1998.07 -0.00712763 2.61414e-13
  10 1998.07 -0.00712763 2.29680e-14
  11 1998.07 -0.00712763 -1.00787e-13
  12 1998.07 -0.00712763 -1.78110e-13
  13 1998.07 -0.00712763 -1.24260e-14
  14 1998.07 -0.00712763 -1.86415e-13
  15 1998.07 -0.00712763 -3.66659e-15
  16 1998.07 -0.00712763 -3.11932e-13
</Section>

newXOutput 86

<Section columns = "stress_xx | stress_yy | stress_xy">
  1 2016.02 -0.00711137 2.31194e-14
  2 2016.02 -0.00711137 -2.02882e-13
  3 2016.02 -0.00711137 -6.01875e-14
  4 2016.02 -0.00711137 -1.44899e-13
  5 2016.02 -0.00711137 2.09954e-15
  6 2016.02 -0.00711137 1.25448e-13
  7 2016.02 -0.00711137 -1.01045e-13
  8 2016.02 -0.00711137 -6.92991e-14
  9 2016.02 -0.00711137 1.64782e-13
  10 2016.02 -0.00711137 1.92455e-13
  11 2016.02 -0.00711137 -5.19435e-13
  12 2016.02 -0.00711137 -4.04547e-13
  13 2016.02 -0.00711137 -3.13641e-13
  14 2016.02 -0.00711137 -2.26027e-13
  15 2016.02 -0.00711137 -6.85105e-14
  16 2016.02 -0.00711137 2.30905e-13
</Section>

newXOutput 87

<Section columns = "stress_xx | stress_yy | stress_xy">
  1 2033.87 -0.00709519 -2.22102e-13
  2 2033.87 -0.00709519 2.80205e-14
  3 2033.87 -0.00709519 -4.77450e-14
  4 2033.87 -0.00709519 -1.33118e-14
  5 2033.87 -0.00709519 -1.01231e-13
  6 2033.87 -0.00709519 -2.70106e-13
  7 2033.87 -0.00709519 -2.30127e-13
  8 2033.87 -0.00709519 -2.88739e-13
  9 2033.87 -0.00709519 -7.02138e-14
  10 2033.87 -0.00709519 -1.23236e-13
  11 2033.87 -0.00709519 -2.40289e-13
  12 2033.87 -0.00709519 -3.19598e-13
  13 2033.87 -0.00709519 4.53089e-14
  14 2033.87 -0.00709519 9.37587e-14
  15 2033.87 -0.00709519 2.22652e-13
  16 2033.87 -0.00709519 7.82686e-14
</Section>

newXOutput 88

<Section columns = "stress_xx | stress_yy | stress_xy">
  1 2051.61 -0.00707908 8.96607e-14
  2 2051.61 -0.00707908 -2.46674e-13
  3 2051.61 -0.00707908 6.71087e-14
  4 2051.61 -0.00707908 5.74607e-14
  5 2051.61 -0.00707908 -1.43493e-13
  6 2051.61 -0.00707908 -3.25631e-14
  7 2051.61 -0.00707908 -7.53229e-14
  8 2051.61 -0.00707908 -1.17076e-13
  9 2051.61 -0.00707908 2.48416e-15
  10 2051.61 -0.00707908 6.41442e-14
  11 2051.61 -0.00707908 -6.28570e-14
  12 2051.61 -0.00707908 2.17309e-13
  13 2051.61 -0.00707908 -1.37458e-13
  14 2051.61 -0.00707908 -5.83043e-14
  15 2051.61 -0.00707908 -4.06677e-13
  16 2051.61 -0.00707908 -5.28107e-14
</Section>

newXOutput 89

<Section columns = "stress_xx | stress_yy | stress_xy">
  1 2069.25 -0.00706305 -1.68746e-13
  2 2069.25 -0.00706305 2.97802e-14
  3 2069.25 -0.00706305 -1.44367e-13
  4 2069.25 -0.00706305 -1.18838e-13
  5 2069.25 -0.00706305 1.05667e-13
  6 2069.25 -0.00706305 -2.70713e-14
  7 2069.25 -0.00706305 2.85091e-16
  8 2069.25 -0.00706305 -3.95852e-14
  9 2069.25 -0.00706305 -1.48102e-13
  10 2069.25 -0.00706305 7.33622e-14
  11 2069.25 -0.00706305 -2.63787e-13
  12 2069.25 -0.00706305 -8.72181e-14
  13 2069.25 -0.00706305 1.63250e-13
  14 2069.25 -0.00706305 -1.91975e-13
  15 2069.25 -0.00706305 3.31740e-13
  16 2069.25 -0.00706305 -6.16694e-14
</Section>

newXOutput 90

<Section columns = "stress_xx | stress_yy | stress_xy">
  1 2086.78 -0.00704708 2.55676e-14
  2 2086.78 -0.00704708 -2.42407e-13
  3 2086.78 -0.00704708 -5.01354e-14
  4 2086.78 -0.00704708 -1.77750e-13
  5 2086.78 -0.00704708 -1.83464e-13
  6 2086.78 -0.00704708 -7.01717e-14
  7 2086.78 -0.00704708 -1.96287e-13
  8 2086.78 -0.00704708 -1.80001e-13
  9 2086.78 -0.00704708 -3.54931e-14
  10 2086.78 -0.00704708 -1.74212e-13
  11 2086.78 -0.00704708 -1.46032e-13
  12 2086.78 -0.00704708 -4.20765e-13
  13 2086.78 -0.00704708 -3.90486e-13
  14 2086.78 -0.00704708 -3.12579e-13
  15 2086.78 -0.00704708 -2.20660e-14
  16 2086.78 -0.00704708 -1.99739e-15
</Section>

newXOutput 91

<Section columns = "stress_xx | stress_yy | stress_xy">
  1 2104.20 -0.00703119 -8.62822e-14
  2 2104.20 -0.00703119 -4.11430e-14
  3 2104.20 -0.00703119 9.03377e-14
  4 2104.20 -0.00703119 9.96211e-14
  5 2104.20 -0.00703119 -2.03978e-13
  6 2104.20 -0.00703119 -2.22431e-13
  7 2104.20 -0.00703119 1.41538e-13
  8 2104.20 -0.00703119 1.68037e-13
  9 2104.20 -0.00703119 6.24684e-13
  10 2104.20 -0.00703119 5.84400e-13
  11 2104.20 -0.00703119 6.44033e-13
  12 2104.20 -0.00703119 6.69552e-13
  13 2104.20 -0.00703119 2.14247e-14
  14 2104.20 -0.00703119 -1.45387e-13
  15 2104.20 -0.00703119 -1.59773e-13
  16 2104.20 -0.00703119 -1.88498e-13
</Section>

newXOutput 92

<Section columns = "stress_xx | stress_yy | stress_xy">
  1 2121.52 -0.00701536 -2.79126e-14
  2 2121.52 -0.00701536 -1.91413e-13
  3 2121.52 -0.00701536 8.65133e-14
  4 2121.52 -0.00701536 3.79378e-15
  5 2121.52 -0.00701536 -2.46835e-13
  6 2121.52 -0.00701536 -2.21660e-13
  7 2121.52 -0.00701536 -3.78898e-14
  8 2121.52 -0.00701536 -2.21155e-14
  9 2121.52 -0.00701536 2.04882e-14
  10 2121.52 -0.00701536 1.04234e-14
  11 2121.52 -0.00701536 6.32045e-13
  12 2121.52 -0.00701536 3.87220e-13
  13 2121.52 -0.00701536 5.73796e-13
  14 2121.52 -0.00701536 5.91048e-13
  15 2121.52 -0.00701536 1.87186e-13
  16 2121.52 -0.00701536 3.68458e-14
</Section>

