newXOutput 1

<Section columns = "stress_xx | stress_yy | stress_xy">
  1 0.00000 0.00000 0.00000
  2 0.00000 0.00000 0.00000
  3 0.00000 0.00000 0.00000
  4 0.00000 0.00000 0.00000
  5 0.00000 0.00000 0.00000
  6 0.00000 0.00000 0.00000
  7 0.00000 0.00000 0.00000
  8 0.00000 0.00000 0.00000
  9 0.00000 0.00000 0.00000
  10 0.00000 0.00000 0.00000
  11 0.00000 0.00000 0.00000
  12 0.00000 0.00000 0.00000
  13 0.00000 0.00000 0.00000
  14 0.00000 0.00000 0.00000
  15 0.00000 0.00000 0.00000
  16 0.00000 0.00000 0.00000
</Section>

newXOutput 2

<Section columns = "stress_xx | stress_yy | stress_xy">
  1 26.5404 -0.00645551 3.90956e-14
  2 26.5404 -0.00645551 3.43258e-14
  3 26.5404 -0.00645551 1.40181e-14
  4 26.5404 -0.00645551 1.21927e-14
  5 26.5404 -0.00645551 1.05302e-14
  6 26.5404 -0.00645551 1.07204e-14
  7 26.5404 -0.00645551 9.32252e-15
  8 26.5404 -0.00645551 9.46281e-15
  9 26.5404 -0.00645551 1.32212e-14
  10 26.5404 -0.00645551 1.28796e-14
  11 26.5404 -0.00645551 1.43315e-14
  12 26.5404 -0.00645551 1.48467e-14
  13 26.5404 -0.00645551 1.55131e-14
  14 26.5404 -0.00645551 1.90162e-14
  15 26.5404 -0.00645551 2.94874e-14
  16 26.5404 -0.00645551 2.95393e-14
</Section>

newXOutput 3

<Section columns = "stress_xx | stress_yy | stress_xy">
  1 52.9245 -0.00643828 -1.24132e-14
  2 52.9245 -0.00643828 -1.40338e-14
  3 52.9245 -0.00643828 -7.24312e-15
  4 52.9245 -0.00643828 -8.80466e-15
  5 52.9245 -0.00643828 -5.08619e-15
  6 52.9245 -0.00643828 -5.60643e-15
  7 52.9245 -0.00643828 -1.65034e-15
  8 52.9245 -0.00643828 -1.83666e-15
  9 52.9245 -0.00643828 8.94581e-16
  10 52.9245 -0.00643828 4.48118e-16
  11 52.9245 -0.00643828 -1.04686e-14
  12 52.9245 -0.00643828 -1.27265e-14
  13 52.9245 -0.00643828 -1.81950e-15
  14 52.9245 -0.00643828 -6.32491e-15
  15 52.9245 -0.00643828 -1.19486e-14
  16 52.9245 -0.00643828 -1.45571e-14
</Section>

newXOutput 4

<Section columns = "stress_xx | stress_yy | stress_xy">
  1 79.1516 -0.00642305 8.36817e-15
  2 79.1516 -0.00642305 5.95548e-15
  3 79.1516 -0.00642305 3.02334e-15
  4 79.1516 -0.00642305 1.68471e-15
  5 79.1516 -0.00642305 -1.17069e-15
  6 79.1516 -0.00642305 -1.87482e-15
  7 79.1516 -0.00642305 -1.15730e-14
  8 79.1516 -0.00642305 -1.25938e-14
  9 79.1516 -0.00642305 -1.44867e-15
  10 79.1516 -0.00642305 -1.47634e-15
  11 79.1516 -0.00642305 1.43658e-14
  12 79.1516 -0.00642305 1.73125e-14
  13 79.1516 -0.00642305 6.99769e-15
  14 79.1516 -0.00642305 4.66771e-15
  15 79.1516 -0.00642305 -1.65051e-14
  16 79.1516 -0.00642305 -1.99599e-14
</Section>

newXOutput 5

<Section columns = "stress_xx | stress_yy | stress_xy">
  1 105.223 -0.00640788 -1.12406e-14
  2 105.223 -0.00640788 -1.23498e-14
  3 105.223 -0.00640788 7.18182e-16
  4 105.223 -0.00640788 -1.00118e-16
  5 105.223 -0.00640788 1.52857e-14
  6 105.223 -0.00640788 1.40672e-14
  7 105.223 -0.00640788 2.44449e-14
  8 105.223 -0.00640788 2.38903e-14
  9 105.223 -0.00640788 8.19188e-15
  10 105.223 -0.00640788 7.67009e-15
  11 105.223 -0.00640788 -1.21665e-15
  12 105.223 -0.00640788 -4.44479e-15
  13 105.223 -0.00640788 6.82547e-15
  14 105.223 -0.00640788 8.30441e-15
  15 105.223 -0.00640788 -1.65592e-14
  16 105.223 -0.00640788 -1.54500e-14
</Section>

newXOutput 6

<Section columns = "stress_xx | stress_yy | stress_xy">
  1 131.139 -0.00639278 -1.76850e-14
  2 131.139 -0.00639278 -1.55823e-14
  3 131.139 -0.00639278 -2.65066e-15
  4 131.139 -0.00639278 -8.17998e-16
  5 131.139 -0.00639278 -2.24807e-15
  6 131.139 -0.00639278 -1.98932e-15
  7 131.139 -0.00639278 7.59760e-15
  8 131.139 -0.00639278 7.22931e-15
  9 131.139 -0.00639278 -5.31230e-15
  10 131.139 -0.00639278 -4.62923e-15
  11 131.139 -0.00639278 3.46006e-14
  12 131.139 -0.00639278 3.59124e-14
  13 131.139 -0.00639278 6.63815e-15
  14 131.139 -0.00639278 -2.43609e-15
  15 131.139 -0.00639278 -3.53384e-14
  16 131.139 -0.00639278 -4.08628e-14
</Section>

newXOutput 7

<Section columns = "stress_xx | stress_yy | stress_xy">
  1 156.902 -0.00637775 -3.63721e-14
  2 156.902 -0.00637775 -3.38040e-14
  3 156.902 -0.00637775 -5.38675e-15
  4 156.902 -0.00637775 -4.83682e-15
  5 156.902 -0.00637775 -1.52501e-14
  6 156.902 -0.00637775 -1.26474e-14
  7 156.902 -0.00637775 -4.59863e-15
  8 156.902 -0.00637775 -3.49804e-15
  9 156.902 -0.00637775 -1.04243e-14
  10 156.902 -0.00637775 -1.02935e-14
  11 156.902 -0.00637775 5.89229e-15
  12 156.902 -0.00637775 9.44967e-15
  13 156.902 -0.00637775 5.85105e-15
  14 156.902 -0.00637775 4.93389e-15
  15 156.902 -0.00637775 -5.26902e-14
  16 156.902 -0.00637775 -5.81931e-14
</Section>

newXOutput 8

<Section columns = "stress_xx | stress_yy | stress_xy">
  1 182.513 -0.00636278 -2.80751e-14
  2 182.513 -0.00636278 -2.33244e-14
  3 182.513 -0.00636278 -2.69854e-15
  4 182.513 -0.00636278 -2.12452e-15
  5 182.513 -0.00636278 1.44814e-14
  6 182.513 -0.00636278 1.31651e-14
  7 182.513 -0.00636278 -1.88490e-14
  8 182.513 -0.00636278 -1.83008e-14
  9 182.513 -0.00636278 -1.82389e-14
  10 182.513 -0.00636278 -2.06693e-14
  11 182.513 -0.00636278 3.23148e-14
  12 182.513 -0.00636278 2.65691e-14
  13 182.513 -0.00636278 4.03399e-15
  14 182.513 -0.00636278 9.76139e-16
  15 182.513 -0.00636278 -2.93215e-14
  16 182.513 -0.00636278 -5.20739e-14
</Section>

newXOutput 9

<Section columns = "stress_xx | stress_yy | stress_xy">
  1 207.972 -0.00634788 -3.55362e-14
  2 207.972 -0.00634788 -2.60716e-14
  3 207.972 -0.00634788 -1.79486e-14
  4 207.972 -0.00634788 -1.50364e-14
  5 207.972 -0.00634788 -1.61335e-14
  6 207.972 -0.00634788 -1.79536e-14
  7 207.972 -0.00634788 -1.02961e-15
  8 207.972 -0.00634788 -3.21373e-15
  9 207.972 -0.00634788 9.25662e-15
  10 207.972 -0.00634788 9.51896e-15
  11 207.972 -0.00634788 -3.52866e-14
  12 207.972 -0.00634788 -3.19586e-14
  13 207.972 -0.00634788 -2.54207e-14
  14 207.972 -0.00634788 -2.34471e-14
  15 207.972 -0.00634788 -1.08677e-14
  16 207.972 -0.00634788 -8.68355e-15
</Section>

newXOutput 10

<Section columns = "stress_xx | stress_yy | stress_xy">
  1 233.281 -0.00633305 -2.45279e-14
  2 233.281 -0.00633305 -1.87261e-14
  3 233.281 -0.00633305 6.61862e-15
  4 233.281 -0.00633305 8.27535e-15
  5 233.281 -0.00633305 2.11031e-14
  6 233.281 -0.00633305 2.12449e-14
  7 233.281 -0.00633305 2.65457e-14
  8 233.281 -0.00633305 2.76335e-14
  9 233.281 -0.00633305 2.55112e-14
  10 233.281 -0.00633305 2.73243e-14
  11 233.281 -0.00633305 9.97642e-14
  12 233.281 -0.00633305 1.03653e-13
  13 233.281 -0.00633305 1.77838e-14
  14 233.281 -0.00633305 3.66302e-14
  15 233.281 -0.00633305 -6.57959e-14
  16 233.281 -0.00633305 -2.05538e-14
</Section>

newXOutput 11

<Section columns = "stress_xx | stress_yy | stress_xy">
  1 258.442 -0.00631828 -1.50254e-14
  2 258.442 -0.00631828 -4.18916e-15
  3 258.442 -0.00631828 -3.57099e-15
  4 258.442 -0.00631828 4.10939e-17
  5 258.442 -0.00631828 -3.82945e-15
  6 258.442 -0.00631828 -6.35791e-15
  7 258.442 -0.00631828 -2.70230e-14
  8 258.442 -0.00631828 -2.84678e-14
  9 258.442 -0.00631828 -2.77819e-14
  10 258.442 -0.00631828 -3.51042e-14
  11 258.442 -0.00631828 -1.47700e-13
  12 258.442 -0.00631828 -1.50525e-13
  13 258.442 -0.00631828 1.29712e-13
  14 258.442 -0.00631828 1.38182e-13
  15 258.442 -0.00631828 -5.74657e-14
  16 258.442 -0.00631828 -4.80743e-14
</Section>

newXOutput 12

<Section columns = "stress_xx | stress_yy | stress_xy">
  1 283.454 -0.00630358 9.41423e-16
  2 283.454 -0.00630358 5.97883e-15
  3 283.454 -0.00630358 2.01881e-14
  4 283.454 -0.00630358 2.36304e-14
  5 283.454 -0.00630358 1.46758e-14
  6 283.454 -0.00630358 1.48140e-14
  7 283.454 -0.00630358 1.44830e-14
  8 283.454 -0.00630358 1.01652e-14
  9 283.454 -0.00630358 -2.60100e-14
  10 283.454 -0.00630358 1.12422e-13
  11 283.454 -0.00630358 -1.33702e-14
  12 283.454 -0.00630358 5.46089e-14
  13 283.454 -0.00630358 3.03405e-14
  14 283.454 -0.00630358 -1.06519e-13
  15 283.454 -0.00630358 3.26306e-14
  16 283.454 -0.00630358 -1.22913e-13
</Section>

newXOutput 13

<Section columns = "stress_xx | stress_yy | stress_xy">
  1 308.320 -0.00628894 1.04680e-14
  2 308.320 -0.00628894 1.04680e-14
  3 308.320 -0.00628894 4.05901e-15
  4 308.320 -0.00628894 2.82818e-15
  5 308.320 -0.00628894 1.98993e-14
  6 308.320 -0.00628894 2.07525e-14
  7 308.320 -0.00628894 3.56361e-14
  8 308.320 -0.00628894 8.75394e-15
  9 308.320 -0.00628894 -9.74619e-15
  10 308.320 -0.00628894 3.14191e-14
  11 308.320 -0.00628894 6.59358e-14
  12 308.320 -0.00628894 6.33434e-14
  13 308.320 -0.00628894 8.14263e-14
  14 308.320 -0.00628894 1.72676e-14
  15 308.320 -0.00628894 2.99033e-14
  16 308.320 -0.00628894 2.40869e-14
</Section>

newXOutput 14

<Section columns = "stress_xx | stress_yy | stress_xy">
  1 333.040 -0.00627437 2.48687e-14
  2 333.040 -0.00627437 1.91559e-14
  3 333.040 -0.00627437 1.78858e-14
  4 333.040 -0.00627437 1.57900e-14
  5 333.040 -0.00627437 2.23480e-14
  6 333.040 -0.00627437 2.04748e-14
  7 333.040 -0.00627437 -1.79766e-14
  8 333.040 -0.00627437 -3.83284e-14
  9 333.040 -0.00627437 -3.46519e-14
  10 333.040 -0.00627437 3.36645e-15
  11 333.040 -0.00627437 2.48702e-14
  12 333.040 -0.00627437 4.07757e-14
  13 333.040 -0.00627437 -1.88342e-14
  14 333.040 -0.00627437 -9.62673e-14
  15 333.040 -0.00627437 5.47331e-14
  16 333.040 -0.00627437 -1.87743e-14
</Section>

newXOutput 15

<Section columns = "stress_xx | stress_yy | stress_xy">
  1 357.615 -0.00625986 -2.35727e-14
  2 357.615 -0.00625986 -2.64181e-14
  3 357.615 -0.00625986 -1.53799e-14
  4 357.615 -0.00625986 -1.46686e-14
  5 357.615 -0.00625986 4.74320e-15
  6 357.615 -0.00625986 5.81023e-15
  7 357.615 -0.00625986 -8.39245e-15
  8 357.615 -0.00625986 -2.15525e-14
  9 357.615 -0.00625986 -7.55248e-14
  10 357.615 -0.00625986 -4.60036e-14
  11 357.615 -0.00625986 5.51244e-14
  12 357.615 -0.00625986 6.81020e-14
  13 357.615 -0.00625986 -1.74399e-15
  14 357.615 -0.00625986 -3.73262e-14
  15 357.615 -0.00625986 1.96523e-14
  16 357.615 -0.00625986 2.60903e-14
</Section>

newXOutput 16

<Section columns = "stress_xx | stress_yy | stress_xy">
  1 382.047 -0.00624541 -1.24143e-15
  2 382.047 -0.00624541 -1.24143e-15
  3 382.047 -0.00624541 2.16780e-14
  4 382.047 -0.00624541 1.84892e-14
  5 382.047 -0.00624541 4.48092e-14
  6 382.047 -0.00624541 7.10284e-14
  7 382.047 -0.00624541 1.86965e-14
  8 382.047 -0.00624541 4.24355e-14
  9 382.047 -0.00624541 -2.16515e-14
  10 382.047 -0.00624541 -2.62575e-14
  11 382.047 -0.00624541 3.20828e-14
  12 382.047 -0.00624541 1.17159e-14
  13 382.047 -0.00624541 9.65486e-15
  14 382.047 -0.00624541 -4.21184e-14
  15 382.047 -0.00624541 7.62922e-14
  16 382.047 -0.00624541 3.59004e-14
</Section>

newXOutput 17

<Section columns = "stress_xx | stress_yy | stress_xy">
  1 406.337 -0.00623103 9.97758e-15
  2 406.337 -0.00623103 1.50660e-15
  3 406.337 -0.00623103 -2.46897e-15
  4 406.337 -0.00623103 -5.60163e-15
  5 406.337 -0.00623103 -3.93019e-14
  6 406.337 -0.00623103 -3.19841e-14
  7 406.337 -0.00623103 -1.42887e-14
  8 406.337 -0.00623103 -7.93552e-15
  9 406.337 -0.00623103 8.12021e-15
  10 406.337 -0.00623103 2.55922e-14
  11 406.337 -0.00623103 3.00609e-14
  12 406.337 -0.00623103 3.37920e-14
  13 406.337 -0.00623103 5.39294e-14
  14 406.337 -0.00623103 2.04229e-14
  15 406.337 -0.00623103 3.16485e-15
  16 406.337 -0.00623103 -3.49545e-14
</Section>

newXOutput 18

<Section columns = "stress_xx | stress_yy | stress_xy">
  1 430.485 -0.00621671 -2.02432e-14
  2 430.485 -0.00621671 -2.16497e-14
  3 430.485 -0.00621671 -7.65425e-16
  4 430.485 -0.00621671 -3.70696e-16
  5 430.485 -0.00621671 -4.15105e-14
  6 430.485 -0.00621671 -3.91457e-14
  7 430.485 -0.00621671 -5.07386e-14
  8 430.485 -0.00621671 -4.58160e-14
  9 430.485 -0.00621671 -3.36783e-15
  10 430.485 -0.00621671 -1.20274e-13
  11 430.485 -0.00621671 -4.28016e-14
  12 430.485 -0.00621671 -3.90722e-14
  13 430.485 -0.00621671 -9.64406e-14
  14 430.485 -0.00621671 9.42759e-15
  15 430.485 -0.00621671 4.98417e-14
  16 430.485 -0.00621671 1.46809e-14
</Section>

newXOutput 19

<Section columns = "stress_xx | stress_yy | stress_xy">
  1 454.493 -0.00620245 -2.15978e-14
  2 454.493 -0.00620245 -1.77330e-14
  3 454.493 -0.00620245 -8.76434e-15
  4 454.493 -0.00620245 2.13793e-15
  5 454.493 -0.00620245 -1.00260e-14
  6 454.493 -0.00620245 -1.07266e-14
  7 454.493 -0.00620245 6.92730e-14
  8 454.493 -0.00620245 4.61554e-14
  9 454.493 -0.00620245 -5.96976e-15
  10 454.493 -0.00620245 2.39839e-14
  11 454.493 -0.00620245 -4.38035e-14
  12 454.493 -0.00620245 -3.37709e-14
  13 454.493 -0.00620245 1.38671e-14
  14 454.493 -0.00620245 -1.44604e-14
  15 454.493 -0.00620245 1.89803e-14
  16 454.493 -0.00620245 3.57931e-14
</Section>

newXOutput 20

<Section columns = "stress_xx | stress_yy | stress_xy">
  1 478.361 -0.00618826 -3.62323e-14
  2 478.361 -0.00618826 -2.78579e-14
  3 478.361 -0.00618826 6.38793e-15
  4 478.361 -0.00618826 1.51527e-14
  5 478.361 -0.00618826 4.52833e-14
  6 478.361 -0.00618826 1.20342e-14
  7 478.361 -0.00618826 1.22046e-14
  8 478.361 -0.00618826 -3.45521e-14
  9 478.361 -0.00618826 -3.00521e-14
  10 478.361 -0.00618826 2.56110e-14
  11 478.361 -0.00618826 -1.17497e-13
  12 478.361 -0.00618826 -7.88779e-14
  13 478.361 -0.00618826 -4.79619e-14
  14 478.361 -0.00618826 -2.89847e-14
  15 478.361 -0.00618826 1.01262e-14
  16 478.361 -0.00618826 4.79482e-14
</Section>

newXOutput 21

<Section columns = "stress_xx | stress_yy | stress_xy">
  1 502.091 -0.00617413 -4.20271e-14
  2 502.091 -0.00617413 -3.92463e-14
  3 502.091 -0.00617413 -2.09712e-15
  4 502.091 -0.00617413 3.85278e-15
  5 502.091 -0.00617413 2.53941e-14
  6 502.091 -0.00617413 -3.55971e-15
  7 502.091 -0.00617413 2.50836e-15
  8 502.091 -0.00617413 -3.71184e-14
  9 502.091 -0.00617413 3.16632e-14
  10 502.091 -0.00617413 7.66890e-14
  11 502.091 -0.00617413 -2.98121e-15
  12 502.091 -0.00617413 3.20275e-14
  13 502.091 -0.00617413 9.89588e-14
  14 502.091 -0.00617413 7.78184e-14
  15 502.091 -0.00617413 3.75463e-14
  16 502.091 -0.00617413 2.92039e-14
</Section>

newXOutput 22

<Section columns = "stress_xx | stress_yy | stress_xy">
  1 525.684 -0.00616005 5.50315e-14
  2 525.684 -0.00616005 5.22613e-14
  3 525.684 -0.00616005 3.11072e-14
  4 525.684 -0.00616005 2.94157e-14
  5 525.684 -0.00616005 1.15626e-14
  6 525.684 -0.00616005 -1.65911e-14
  7 525.684 -0.00616005 2.43113e-14
  8 525.684 -0.00616005 -6.85409e-15
  9 525.684 -0.00616005 1.11314e-13
  10 525.684 -0.00616005 1.47860e-13
  11 525.684 -0.00616005 1.79768e-13
  12 525.684 -0.00616005 2.09275e-13
  13 525.684 -0.00616005 4.31785e-14
  14 525.684 -0.00616005 2.37866e-14
  15 525.684 -0.00616005 2.71398e-14
  16 525.684 -0.00616005 1.74439e-14
</Section>

newXOutput 23

<Section columns = "stress_xx | stress_yy | stress_xy">
  1 549.141 -0.00614604 8.24234e-15
  2 549.141 -0.00614604 9.62222e-15
  3 549.141 -0.00614604 -1.32410e-14
  4 549.141 -0.00614604 -3.63149e-14
  5 549.141 -0.00614604 -6.82541e-14
  6 549.141 -0.00614604 -4.73178e-14
  7 549.141 -0.00614604 -1.22120e-13
  8 549.141 -0.00614604 -7.79642e-14
  9 549.141 -0.00614604 5.74716e-14
  10 549.141 -0.00614604 5.57007e-15
  11 549.141 -0.00614604 1.01482e-13
  12 549.141 -0.00614604 6.36510e-14
  13 549.141 -0.00614604 3.98521e-14
  14 549.141 -0.00614604 8.62132e-14
  15 549.141 -0.00614604 3.16515e-14
  16 549.141 -0.00614604 3.88127e-14
</Section>

newXOutput 24

<Section columns = "stress_xx | stress_yy | stress_xy">
  1 572.462 -0.00613209 1.50661e-14
  2 572.462 -0.00613209 1.23168e-14
  3 572.462 -0.00613209 -1.44304e-14
  4 572.462 -0.00613209 -2.16091e-14
  5 572.462 -0.00613209 -4.69342e-14
  6 572.462 -0.00613209 -2.71060e-15
  7 572.462 -0.00613209 1.24707e-14
  8 572.462 -0.00613209 6.47074e-14
  9 572.462 -0.00613209 4.07181e-14
  10 572.462 -0.00613209 -4.11091e-15
  11 572.462 -0.00613209 2.04102e-13
  12 572.462 -0.00613209 1.50775e-13
  13 572.462 -0.00613209 1.48334e-13
  14 572.462 -0.00613209 1.04297e-13
  15 572.462 -0.00613209 3.61367e-14
  16 572.462 -0.00613209 2.23902e-14
</Section>

newXOutput 25

<Section columns = "stress_xx | stress_yy | stress_xy">
  1 595.649 -0.00611820 -1.81853e-14
  2 595.649 -0.00611820 -1.75191e-15
  3 595.649 -0.00611820 -1.28747e-15
  4 595.649 -0.00611820 -6.45872e-14
  5 595.649 -0.00611820 -2.86021e-15
  6 595.649 -0.00611820 -1.03968e-13
  7 595.649 -0.00611820 -8.01036e-14
  8 595.649 -0.00611820 -9.72218e-14
  9 595.649 -0.00611820 -7.70646e-15
  10 595.649 -0.00611820 -4.84267e-14
  11 595.649 -0.00611820 1.19042e-14
  12 595.649 -0.00611820 -5.79197e-14
  13 595.649 -0.00611820 4.19712e-15
  14 595.649 -0.00611820 5.76928e-15
  15 595.649 -0.00611820 1.27131e-16
  16 595.649 -0.00611820 -2.17841e-14
</Section>

newXOutput 26

<Section columns = "stress_xx | stress_yy | stress_xy">
  1 618.703 -0.00610437 2.55587e-14
  2 618.703 -0.00610437 2.58519e-14
  3 618.703 -0.00610437 -3.26676e-14
  4 618.703 -0.00610437 6.00296e-14
  5 618.703 -0.00610437 -4.98494e-14
  6 618.703 -0.00610437 4.04214e-14
  7 618.703 -0.00610437 -3.52010e-14
  8 618.703 -0.00610437 -3.65653e-14
  9 618.703 -0.00610437 -1.04329e-14
  10 618.703 -0.00610437 -6.24221e-14
  11 618.703 -0.00610437 -1.56337e-14
  12 618.703 -0.00610437 -7.45282e-14
  13 618.703 -0.00610437 -2.36548e-14
  14 618.703 -0.00610437 1.97990e-14
  15 618.703 -0.00610437 -9.35138e-14
  16 618.703 -0.00610437 6.02665e-14
</Section>

newXOutput 27

<Section columns = "stress_xx | stress_yy | stress_xy">
  1 641.624 -0.00609060 -2.73215e-14
  2 641.624 -0.00609060 5.01100e-15
  3 641.624 -0.00609060 7.17467e-14
  4 641.624 -0.00609060 -2.89778e-14
  5 641.624 -0.00609060 4.98986e-14
  6 641.624 -0.00609060 -2.16861e-14
  7 641.624 -0.00609060 6.60997e-14
  8 641.624 -0.00609060 9.12438e-14
  9 641.624 -0.00609060 4.13436e-14
  10 641.624 -0.00609060 7.53220e-14
  11 641.624 -0.00609060 1.27652e-13
  12 641.624 -0.00609060 1.84056e-13
  13 641.624 -0.00609060 -1.45813e-13
  14 641.624 -0.00609060 -2.16020e-13
  15 641.624 -0.00609060 2.08429e-13
  16 641.624 -0.00609060 2.03077e-14
</Section>

newXOutput 28

<Section columns = "stress_xx | stress_yy | stress_xy">
  1 664.414 -0.00607689 -3.89068e-16
  2 664.414 -0.00607689 -8.51321e-15
  3 664.414 -0.00607689 -6.74175e-15
  4 664.414 -0.00607689 1.83778e-14
  5 664.414 -0.00607689 1.86536e-15
  6 664.414 -0.00607689 5.44385e-14
  7 664.414 -0.00607689 -5.31349e-14
  8 664.414 -0.00607689 -2.80855e-14
  9 664.414 -0.00607689 -6.52333e-14
  10 664.414 -0.00607689 -9.59794e-14
  11 664.414 -0.00607689 -3.58985e-15
  12 664.414 -0.00607689 -3.13697e-14
  13 664.414 -0.00607689 9.84921e-14
  14 664.414 -0.00607689 1.50649e-13
  15 664.414 -0.00607689 -4.54072e-14
  16 664.414 -0.00607689 -8.23161e-17
</Section>

newXOutput 29

<Section columns = "stress_xx | stress_yy | stress_xy">
  1 687.074 -0.00606324 -9.00356e-14
  2 687.074 -0.00606324 -5.68610e-14
  3 687.074 -0.00606324 7.87669e-14
  4 687.074 -0.00606324 1.28348e-13
  5 687.074 -0.00606324 -2.31491e-13
  6 687.074 -0.00606324 -1.93284e-13
  7 687.074 -0.00606324 -9.21725e-14
  8 687.074 -0.00606324 -7.93576e-14
  9 687.074 -0.00606324 -3.47896e-14
  10 687.074 -0.00606324 -6.74385e-14
  11 687.074 -0.00606324 -1.18535e-13
  12 687.074 -0.00606324 -1.36069e-13
  13 687.074 -0.00606324 -2.14236e-13
  14 687.074 -0.00606324 -1.28051e-13
  15 687.074 -0.00606324 1.23512e-14
  16 687.074 -0.00606324 2.08810e-13
</Section>

newXOutput 30

<Section columns = "stress_xx | stress_yy | stress_xy">
  1 709.604 -0.00604964 1.89025e-14
  2 709.604 -0.00604964 2.37415e-14
  3 709.604 -0.00604964 -3.46138e-14
  4 709.604 -0.00604964 3.37635e-15
  5 709.604 -0.00604964 5.95056e-14
  6 709.604 -0.00604964 1.15035e-13
  7 709.604 -0.00604964 -3.50221e-16
  8 709.604 -0.00604964 2.45114e-14
  9 709.604 -0.00604964 7.50670e-14
  10 709.604 -0.00604964 4.34859e-14
  11 709.604 -0.00604964 6.55823e-14
  12 709.604 -0.00604964 3.46732e-14
  13 709.604 -0.00604964 1.81974e-13
  14 709.604 -0.00604964 7.71519e-14
  15 709.604 -0.00604964 -3.86299e-14
  16 709.604 -0.00604964 -2.42899e-13
</Section>

newXOutput 31

<Section columns = "stress_xx | stress_yy | stress_xy">
  1 732.005 -0.00603611 6.14303e-14
  2 732.005 -0.00603611 -4.29991e-14
  3 732.005 -0.00603611 -3.88634e-14
  4 732.005 -0.00603611 -4.48226e-14
  5 732.005 -0.00603611 1.37970e-13
  6 732.005 -0.00603611 -3.96712e-14
  7 732.005 -0.00603611 2.11736e-13
  8 732.005 -0.00603611 -1.78749e-14
  9 732.005 -0.00603611 -5.34137e-14
  10 732.005 -0.00603611 1.70580e-13
  11 732.005 -0.00603611 -1.92428e-14
  12 732.005 -0.00603611 1.74939e-13
  13 732.005 -0.00603611 3.21701e-14
  14 732.005 -0.00603611 -6.42041e-14
  15 732.005 -0.00603611 1.75260e-13
  16 732.005 -0.00603611 4.06476e-15
</Section>

newXOutput 32

<Section columns = "stress_xx | stress_yy | stress_xy">
  1 754.279 -0.00602263 5.03778e-14
  2 754.279 -0.00602263 -3.23197e-14
  3 754.279 -0.00602263 -5.30336e-14
  4 754.279 -0.00602263 -2.22915e-14
  5 754.279 -0.00602263 -4.87568e-14
  6 754.279 -0.00602263 6.50364e-14
  7 754.279 -0.00602263 4.72456e-15
  8 754.279 -0.00602263 4.67402e-14
  9 754.279 -0.00602263 5.12120e-14
  10 754.279 -0.00602263 7.60652e-15
  11 754.279 -0.00602263 7.86226e-15
  12 754.279 -0.00602263 -5.07518e-14
  13 754.279 -0.00602263 8.59567e-14
  14 754.279 -0.00602263 9.19797e-14
  15 754.279 -0.00602263 1.53063e-13
  16 754.279 -0.00602263 1.45084e-13
</Section>

newXOutput 33

<Section columns = "stress_xx | stress_yy | stress_xy">
  1 776.427 -0.00600921 5.84151e-14
  2 776.427 -0.00600921 -1.14335e-13
  3 776.427 -0.00600921 3.90433e-15
  4 776.427 -0.00600921 -8.91151e-14
  5 776.427 -0.00600921 -7.93032e-14
  6 776.427 -0.00600921 -4.20954e-14
  7 776.427 -0.00600921 -8.88059e-14
  8 776.427 -0.00600921 -5.02693e-14
  9 776.427 -0.00600921 5.01764e-14
  10 776.427 -0.00600921 1.53764e-14
  11 776.427 -0.00600921 -2.73688e-14
  12 776.427 -0.00600921 -5.84985e-14
  13 776.427 -0.00600921 4.95418e-15
  14 776.427 -0.00600921 2.58996e-14
  15 776.427 -0.00600921 1.49159e-13
  16 776.427 -0.00600921 1.94340e-13
</Section>

newXOutput 34

<Section columns = "stress_xx | stress_yy | stress_xy">
  1 798.448 -0.00599584 1.17184e-14
  2 798.448 -0.00599584 -1.52059e-15
  3 798.448 -0.00599584 1.28167e-14
  4 798.448 -0.00599584 -7.64270e-15
  5 798.448 -0.00599584 6.76055e-14
  6 798.448 -0.00599584 9.58122e-14
  7 798.448 -0.00599584 6.17585e-14
  8 798.448 -0.00599584 1.02799e-13
  9 798.448 -0.00599584 -4.03740e-14
  10 798.448 -0.00599584 -7.63631e-14
  11 798.448 -0.00599584 1.02880e-13
  12 798.448 -0.00599584 6.65952e-14
  13 798.448 -0.00599584 1.89178e-14
  14 798.448 -0.00599584 3.18607e-14
  15 798.448 -0.00599584 -1.08168e-14
  16 798.448 -0.00599584 2.09567e-14
</Section>

newXOutput 35

<Section columns = "stress_xx | stress_yy | stress_xy">
  1 820.345 -0.00598254 -1.32678e-14
  2 820.345 -0.00598254 -2.38195e-14
  3 820.345 -0.00598254 3.49357e-16
  4 820.345 -0.00598254 -3.60753e-15
  5 820.345 -0.00598254 -4.57714e-14
  6 820.345 -0.00598254 -9.32541e-14
  7 820.345 -0.00598254 6.67281e-14
  8 820.345 -0.00598254 1.79264e-14
  9 820.345 -0.00598254 -6.22291e-15
  10 820.345 -0.00598254 4.46117e-14
  11 820.345 -0.00598254 -5.13941e-14
  12 820.345 -0.00598254 -5.60797e-14
  13 820.345 -0.00598254 -6.89777e-14
  14 820.345 -0.00598254 -1.43330e-13
  15 820.345 -0.00598254 1.43714e-14
  16 820.345 -0.00598254 -2.32936e-14
</Section>

newXOutput 36

<Section columns = "stress_xx | stress_yy | stress_xy">
  1 842.118 -0.00596929 -1.40621e-14
  2 842.118 -0.00596929 -1.66902e-14
  3 842.118 -0.00596929 -8.75871e-15
  4 842.118 -0.00596929 -2.24983e-14
  5 842.118 -0.00596929 -1.59730e-13
  6 842.118 -0.00596929 -4.63279e-14
  7 842.118 -0.00596929 -9.09493e-14
  8 842.118 -0.00596929 3.78286e-14
  9 842.118 -0.00596929 2.63964e-13
  10 842.118 -0.00596929 1.41524e-13
  11 842.118 -0.00596929 -2.81603e-14
  12 842.118 -0.00596929 -8.77813e-14
  13 842.118 -0.00596929 -1.23483e-13
  14 842.118 -0.00596929 6.70884e-14
  15 842.118 -0.00596929 -7.54392e-15
  16 842.118 -0.00596929 1.92965e-13
</Section>

newXOutput 37

<Section columns = "stress_xx | stress_yy | stress_xy">
  1 863.767 -0.00595609 -2.39121e-14
  2 863.767 -0.00595609 -2.96012e-14
  3 863.767 -0.00595609 2.43767e-14
  4 863.767 -0.00595609 3.27064e-14
  5 863.767 -0.00595609 -3.41730e-14
  6 863.767 -0.00595609 3.95277e-14
  7 863.767 -0.00595609 2.39915e-13
  8 863.767 -0.00595609 3.10611e-13
  9 863.767 -0.00595609 -1.46788e-13
  10 863.767 -0.00595609 -2.15092e-13
  11 863.767 -0.00595609 -8.45739e-14
  12 863.767 -0.00595609 -1.03365e-13
  13 863.767 -0.00595609 -1.77938e-13
  14 863.767 -0.00595609 -9.21318e-14
  15 863.767 -0.00595609 1.06831e-14
  16 863.767 -0.00595609 1.35556e-13
</Section>

newXOutput 38

<Section columns = "stress_xx | stress_yy | stress_xy">
  1 885.295 -0.00594295 5.69621e-16
  2 885.295 -0.00594295 -1.24646e-13
  3 885.295 -0.00594295 1.78120e-13
  4 885.295 -0.00594295 1.34480e-13
  5 885.295 -0.00594295 -2.37832e-13
  6 885.295 -0.00594295 -1.52670e-13
  7 885.295 -0.00594295 -3.63624e-14
  8 885.295 -0.00594295 1.58108e-14
  9 885.295 -0.00594295 4.39286e-14
  10 885.295 -0.00594295 3.32736e-14
  11 885.295 -0.00594295 -7.66086e-14
  12 885.295 -0.00594295 -1.40720e-13
  13 885.295 -0.00594295 -1.91024e-14
  14 885.295 -0.00594295 -1.63886e-13
  15 885.295 -0.00594295 -2.94858e-14
  16 885.295 -0.00594295 -8.94850e-14
</Section>

newXOutput 39

<Section columns = "stress_xx | stress_yy | stress_xy">
  1 906.701 -0.00592987 -2.17872e-14
  2 906.701 -0.00592987 -3.47822e-14
  3 906.701 -0.00592987 1.41193e-14
  4 906.701 -0.00592987 1.41193e-14
  5 906.701 -0.00592987 1.70358e-14
  6 906.701 -0.00592987 8.46100e-14
  7 906.701 -0.00592987 1.52415e-13
  8 906.701 -0.00592987 2.14791e-13
  9 906.701 -0.00592987 9.86725e-14
  10 906.701 -0.00592987 3.64985e-14
  11 906.701 -0.00592987 1.44949e-13
  12 906.701 -0.00592987 2.39635e-14
  13 906.701 -0.00592987 1.66062e-13
  14 906.701 -0.00592987 1.64565e-13
  15 906.701 -0.00592987 -4.60211e-14
  16 906.701 -0.00592987 -3.82241e-14
</Section>

newXOutput 40

<Section columns = "stress_xx | stress_yy | stress_xy">
  1 927.986 -0.00591684 -6.75747e-17
  2 927.986 -0.00591684 -5.24638e-15
  3 927.986 -0.00591684 6.30615e-15
  4 927.986 -0.00591684 1.60686e-14
  5 927.986 -0.00591684 -8.52402e-14
  6 927.986 -0.00591684 -2.40210e-14
  7 927.986 -0.00591684 -7.27681e-14
  8 927.986 -0.00591684 -1.96854e-14
  9 927.986 -0.00591684 5.80518e-15
  10 927.986 -0.00591684 -3.06552e-14
  11 927.986 -0.00591684 -2.17232e-14
  12 927.986 -0.00591684 -6.87194e-14
  13 927.986 -0.00591684 3.89902e-13
  14 927.986 -0.00591684 3.84545e-13
  15 927.986 -0.00591684 2.29526e-13
  16 927.986 -0.00591684 2.34705e-13
</Section>

newXOutput 41

<Section columns = "stress_xx | stress_yy | stress_xy">
  1 949.152 -0.00590387 -3.59799e-14
  2 949.152 -0.00590387 -4.11396e-14
  3 949.152 -0.00590387 3.45407e-14
  4 949.152 -0.00590387 8.55435e-14
  5 949.152 -0.00590387 1.49694e-13
  6 949.152 -0.00590387 2.01653e-13
  7 949.152 -0.00590387 -3.09332e-13
  8 949.152 -0.00590387 -2.74504e-13
  9 949.152 -0.00590387 -1.84366e-13
  10 949.152 -0.00590387 -1.09753e-13
  11 949.152 -0.00590387 5.27440e-14
  12 949.152 -0.00590387 4.46424e-14
  13 949.152 -0.00590387 -1.99825e-13
  14 949.152 -0.00590387 -2.42552e-13
  15 949.152 -0.00590387 8.65243e-14
  16 949.152 -0.00590387 9.68437e-14
</Section>

newXOutput 42

<Section columns = "stress_xx | stress_yy | stress_xy">
  1 970.200 -0.00589095 8.59986e-15
  2 970.200 -0.00589095 -8.39325e-14
  3 970.200 -0.00589095 -8.55419e-15
  4 970.200 -0.00589095 -5.66988e-14
  5 970.200 -0.00589095 1.37980e-13
  6 970.200 -0.00589095 1.53758e-13
  7 970.200 -0.00589095 -1.66207e-13
  8 970.200 -0.00589095 -1.14800e-13
  9 970.200 -0.00589095 -1.18028e-14
  10 970.200 -0.00589095 4.32623e-14
  11 970.200 -0.00589095 2.00054e-13
  12 970.200 -0.00589095 1.81724e-13
  13 970.200 -0.00589095 -9.89803e-14
  14 970.200 -0.00589095 -2.11096e-13
  15 970.200 -0.00589095 9.64788e-14
  16 970.200 -0.00589095 5.85104e-14
</Section>

newXOutput 43

<Section columns = "stress_xx | stress_yy | stress_xy">
  1 991.129 -0.00587809 4.09672e-14
  2 991.129 -0.00587809 -3.32985e-14
  3 991.129 -0.00587809 -1.66940e-14
  4 991.129 -0.00587809 -7.49063e-14
  5 991.129 -0.00587809 -1.18526e-13
  6 991.129 -0.00587809 -1.56589e-13
  7 991.129 -0.00587809 -1.10254e-13
  8 991.129 -0.00587809 -1.08973e-13
  9 991.129 -0.00587809 7.52167e-14
  10 991.129 -0.00587809 9.67926e-14
  11 991.129 -0.00587809 -4.63881e-14
  12 991.129 -0.00587809 -5.52194e-14
  13 991.129 -0.00587809 4.29054e-13
  14 991.129 -0.00587809 3.55756e-13
  15 991.129 -0.00587809 2.05151e-13
  16 991.129 -0.00587809 2.02590e-13
</Section>

newXOutput 44

<Section columns = "stress_xx | stress_yy | stress_xy">
  1 1011.94 -0.00586527 1.12275e-14
  2 1011.94 -0.00586527 -4.23536e-14
  3 1011.94 -0.00586527 3.82434e-14
  4 1011.94 -0.00586527 -1.21019e-14
  5 1011.94 -0.00586527 9.15707e-14
  6 1011.94 -0.00586527 6.64004e-14
  7 1011.94 -0.00586527 1.45612e-13
  8 1011.94 -0.00586527 1.59645e-13
  9 1011.94 -0.00586527 4.65579e-14
  10 1011.94 -0.00586527 6.42322e-14
  11 1011.94 -0.00586527 8.56452e-14
  12 1011.94 -0.00586527 1.11961e-13
  13 1011.94 -0.00586527 -2.46462e-13
  14 1011.94 -0.00586527 -1.27777e-13
  15 1011.94 -0.00586527 -1.82722e-13
  16 1011.94 -0.00586527 -3.62690e-15
</Section>

newXOutput 45

<Section columns = "stress_xx | stress_yy | stress_xy">
  1 1032.64 -0.00585252 7.73014e-15
  2 1032.64 -0.00585252 -5.07387e-14
  3 1032.64 -0.00585252 -3.03970e-14
  4 1032.64 -0.00585252 -7.03903e-14
  5 1032.64 -0.00585252 2.10474e-14
  6 1032.64 -0.00585252 -3.96250e-14
  7 1032.64 -0.00585252 2.66748e-14
  8 1032.64 -0.00585252 -8.91494e-15
  9 1032.64 -0.00585252 1.19332e-13
  10 1032.64 -0.00585252 1.83975e-13
  11 1032.64 -0.00585252 2.08182e-14
  12 1032.64 -0.00585252 8.64690e-14
  13 1032.64 -0.00585252 1.25677e-13
  14 1032.64 -0.00585252 1.48217e-13
  15 1032.64 -0.00585252 1.31986e-13
  16 1032.64 -0.00585252 2.39961e-13
</Section>

newXOutput 46

<Section columns = "stress_xx | stress_yy | stress_xy">
  1 1053.22 -0.00583981 -8.14227e-14
  2 1053.22 -0.00583981 -1.42210e-13
  3 1053.22 -0.00583981 7.76818e-14
  4 1053.22 -0.00583981 1.12552e-13
  5 1053.22 -0.00583981 -1.33336e-13
  6 1053.22 -0.00583981 -5.32196e-14
  7 1053.22 -0.00583981 7.59938e-14
  8 1053.22 -0.00583981 1.06388e-13
  9 1053.22 -0.00583981 -1.56066e-13
  10 1053.22 -0.00583981 -2.28427e-13
  11 1053.22 -0.00583981 6.98064e-14
  12 1053.22 -0.00583981 1.27531e-14
  13 1053.22 -0.00583981 -1.06152e-13
  14 1053.22 -0.00583981 -3.57535e-14
  15 1053.22 -0.00583981 3.22367e-14
  16 1053.22 -0.00583981 2.43727e-14
</Section>

newXOutput 47

<Section columns = "stress_xx | stress_yy | stress_xy">
  1 1073.68 -0.00582716 3.65677e-14
  2 1073.68 -0.00582716 -1.27463e-13
  3 1073.68 -0.00582716 1.13786e-13
  4 1073.68 -0.00582716 1.82257e-13
  5 1073.68 -0.00582716 -3.56097e-14
  6 1073.68 -0.00582716 1.77865e-13
  7 1073.68 -0.00582716 -3.61785e-16
  8 1073.68 -0.00582716 4.25386e-14
  9 1073.68 -0.00582716 -1.22688e-13
  10 1073.68 -0.00582716 -1.88470e-13
  11 1073.68 -0.00582716 5.83731e-14
  12 1073.68 -0.00582716 -7.92072e-14
  13 1073.68 -0.00582716 -8.07573e-14
  14 1073.68 -0.00582716 -1.68709e-13
  15 1073.68 -0.00582716 1.62482e-13
  16 1073.68 -0.00582716 2.63611e-13
</Section>

newXOutput 48

<Section columns = "stress_xx | stress_yy | stress_xy">
  1 1094.04 -0.00581456 3.73515e-14
  2 1094.04 -0.00581456 -1.18538e-13
  3 1094.04 -0.00581456 6.28688e-14
  4 1094.04 -0.00581456 3.71378e-14
  5 1094.04 -0.00581456 4.75197e-14
  6 1094.04 -0.00581456 1.28300e-13
  7 1094.04 -0.00581456 -2.85533e-13
  8 1094.04 -0.00581456 -2.67933e-13
  9 1094.04 -0.00581456 6.84083e-14
  10 1094.04 -0.00581456 3.93836e-14
  11 1094.04 -0.00581456 2.82876e-13
  12 1094.04 -0.00581456 1.82226e-13
  13 1094.04 -0.00581456 -2.64309e-13
  14 1094.04 -0.00581456 -3.88373e-13
  15 1094.04 -0.00581456 2.04807e-13
  16 1094.04 -0.00581456 2.14972e-13
</Section>

newXOutput 49

<Section columns = "stress_xx | stress_yy | stress_xy">
  1 1114.28 -0.00580202 -1.23975e-13
  2 1114.28 -0.00580202 9.89858e-14
  3 1114.28 -0.00580202 5.55420e-14
  4 1114.28 -0.00580202 1.21342e-13
  5 1114.28 -0.00580202 9.84401e-14
  6 1114.28 -0.00580202 6.24307e-14
  7 1114.28 -0.00580202 2.73810e-13
  8 1114.28 -0.00580202 2.46253e-13
  9 1114.28 -0.00580202 -3.46572e-13
  10 1114.28 -0.00580202 -3.63014e-13
  11 1114.28 -0.00580202 -2.16063e-13
  12 1114.28 -0.00580202 -2.10127e-13
  13 1114.28 -0.00580202 1.89561e-13
  14 1114.28 -0.00580202 1.46953e-13
  15 1114.28 -0.00580202 2.45043e-13
  16 1114.28 -0.00580202 1.79909e-13
</Section>

newXOutput 50

<Section columns = "stress_xx | stress_yy | stress_xy">
  1 1134.40 -0.00578952 4.54808e-14
  2 1134.40 -0.00578952 -1.24251e-13
  3 1134.40 -0.00578952 7.06761e-14
  4 1134.40 -0.00578952 -3.72400e-14
  5 1134.40 -0.00578952 -2.22167e-13
  6 1134.40 -0.00578952 -2.43074e-13
  7 1134.40 -0.00578952 1.42346e-14
  8 1134.40 -0.00578952 -1.32221e-14
  9 1134.40 -0.00578952 -1.63207e-13
  10 1134.40 -0.00578952 -2.13304e-13
  11 1134.40 -0.00578952 -9.12034e-14
  12 1134.40 -0.00578952 -1.05294e-13
  13 1134.40 -0.00578952 -1.44361e-13
  14 1134.40 -0.00578952 -1.03225e-13
  15 1134.40 -0.00578952 -5.14200e-14
  16 1134.40 -0.00578952 8.43815e-15
</Section>

newXOutput 51

<Section columns = "stress_xx | stress_yy | stress_xy">
  1 1154.42 -0.00577708 8.34238e-15
  2 1154.42 -0.00577708 4.31601e-14
  3 1154.42 -0.00577708 -1.78380e-13
  4 1154.42 -0.00577708 -1.11816e-13
  5 1154.42 -0.00577708 -1.06609e-13
  6 1154.42 -0.00577708 -7.27301e-14
  7 1154.42 -0.00577708 -6.70081e-15
  8 1154.42 -0.00577708 -5.02230e-14
  9 1154.42 -0.00577708 -1.70184e-13
  10 1154.42 -0.00577708 -1.87740e-13
  11 1154.42 -0.00577708 1.22970e-13
  12 1154.42 -0.00577708 1.66161e-13
  13 1154.42 -0.00577708 2.30454e-13
  14 1154.42 -0.00577708 1.75646e-13
  15 1154.42 -0.00577708 1.49979e-13
  16 1154.42 -0.00577708 1.70290e-13
</Section>

newXOutput 52

<Section columns = "stress_xx | stress_yy | stress_xy">
  1 1174.32 -0.00576469 1.20345e-14
  2 1174.32 -0.00576469 5.88310e-14
  3 1174.32 -0.00576469 -1.34712e-13
  4 1174.32 -0.00576469 -5.90051e-14
  5 1174.32 -0.00576469 -1.67854e-13
  6 1174.32 -0.00576469 -1.11626e-13
  7 1174.32 -0.00576469 -2.29024e-13
  8 1174.32 -0.00576469 -2.68672e-13
  9 1174.32 -0.00576469 -1.00688e-14
  10 1174.32 -0.00576469 -2.63179e-14
  11 1174.32 -0.00576469 2.70612e-13
  12 1174.32 -0.00576469 3.29842e-13
  13 1174.32 -0.00576469 4.62295e-15
  14 1174.32 -0.00576469 8.18774e-14
  15 1174.32 -0.00576469 1.78430e-14
  16 1174.32 -0.00576469 -4.14275e-14
</Section>

newXOutput 53

<Section columns = "stress_xx | stress_yy | stress_xy">
  1 1194.12 -0.00575235 -1.46122e-13
  2 1194.12 -0.00575235 -3.00805e-14
  3 1194.12 -0.00575235 1.54643e-13
  4 1194.12 -0.00575235 1.60816e-13
  5 1194.12 -0.00575235 4.09787e-14
  6 1194.12 -0.00575235 3.60407e-14
  7 1194.12 -0.00575235 3.67564e-14
  8 1194.12 -0.00575235 8.24325e-14
  9 1194.12 -0.00575235 3.19704e-13
  10 1194.12 -0.00575235 2.97071e-13
  11 1194.12 -0.00575235 3.84826e-13
  12 1194.12 -0.00575235 2.73079e-13
  13 1194.12 -0.00575235 3.72540e-14
  14 1194.12 -0.00575235 2.39358e-14
  15 1194.12 -0.00575235 2.14564e-13
  16 1194.12 -0.00575235 3.68624e-13
</Section>

newXOutput 54

<Section columns = "stress_xx | stress_yy | stress_xy">
  1 1213.81 -0.00574006 -1.40907e-14
  2 1213.81 -0.00574006 5.50540e-14
  3 1213.81 -0.00574006 -2.38608e-13
  4 1213.81 -0.00574006 -2.44772e-13
  5 1213.81 -0.00574006 1.38596e-13
  6 1213.81 -0.00574006 5.67602e-14
  7 1213.81 -0.00574006 1.52226e-13
  8 1213.81 -0.00574006 1.33775e-13
  9 1213.81 -0.00574006 -1.50141e-13
  10 1213.81 -0.00574006 -7.28259e-14
  11 1213.81 -0.00574006 -1.37084e-13
  12 1213.81 -0.00574006 -2.17668e-13
  13 1213.81 -0.00574006 1.54470e-13
  14 1213.81 -0.00574006 -1.22158e-14
  15 1213.81 -0.00574006 -1.09950e-13
  16 1213.81 -0.00574006 -1.79183e-13
</Section>

newXOutput 55

<Section columns = "stress_xx | stress_yy | stress_xy">
  1 1233.38 -0.00572782 -2.04284e-14
  2 1233.38 -0.00572782 2.36923e-14
  3 1233.38 -0.00572782 -1.60040e-13
  4 1233.38 -0.00572782 -1.62491e-13
  5 1233.38 -0.00572782 2.62243e-13
  6 1233.38 -0.00572782 1.99739e-13
  7 1233.38 -0.00572782 7.68801e-14
  8 1233.38 -0.00572782 6.70754e-14
  9 1233.38 -0.00572782 -8.87391e-14
  10 1233.38 -0.00572782 -8.53154e-14
  11 1233.38 -0.00572782 -1.70686e-13
  12 1233.38 -0.00572782 -1.69267e-13
  13 1233.38 -0.00572782 1.08686e-13
  14 1233.38 -0.00572782 1.17479e-13
  15 1233.38 -0.00572782 8.61155e-14
  16 1233.38 -0.00572782 1.78353e-13
</Section>

newXOutput 56

<Section columns = "stress_xx | stress_yy | stress_xy">
  1 1252.85 -0.00571563 1.37002e-13
  2 1252.85 -0.00571563 -1.48749e-13
  3 1252.85 -0.00571563 -9.11438e-15
  4 1252.85 -0.00571563 -1.88230e-14
  5 1252.85 -0.00571563 -1.73179e-13
  6 1252.85 -0.00571563 -7.85961e-14
  7 1252.85 -0.00571563 2.13249e-13
  8 1252.85 -0.00571563 2.01037e-13
  9 1252.85 -0.00571563 3.26543e-13
  10 1252.85 -0.00571563 3.27764e-13
  11 1252.85 -0.00571563 6.13279e-13
  12 1252.85 -0.00571563 5.95690e-13
  13 1252.85 -0.00571563 5.48046e-14
  14 1252.85 -0.00571563 -2.42833e-14
  15 1252.85 -0.00571563 5.37810e-14
  16 1252.85 -0.00571563 -1.38542e-13
</Section>

newXOutput 57

<Section columns = "stress_xx | stress_yy | stress_xy">
  1 1272.22 -0.00570350 8.56879e-14
  2 1272.22 -0.00570350 -5.78894e-14
  3 1272.22 -0.00570350 -2.28462e-13
  4 1272.22 -0.00570350 -2.41789e-13
  5 1272.22 -0.00570350 1.16994e-13
  6 1272.22 -0.00570350 1.73508e-13
  7 1272.22 -0.00570350 -3.63093e-14
  8 1272.22 -0.00570350 -2.17082e-14
  9 1272.22 -0.00570350 1.15698e-13
  10 1272.22 -0.00570350 1.20332e-13
  11 1272.22 -0.00570350 -1.00266e-13
  12 1272.22 -0.00570350 -8.78363e-14
  13 1272.22 -0.00570350 -1.96348e-14
  14 1272.22 -0.00570350 -4.91244e-14
  15 1272.22 -0.00570350 3.93951e-13
  16 1272.22 -0.00570350 2.16639e-13
</Section>

newXOutput 58

<Section columns = "stress_xx | stress_yy | stress_xy">
  1 1291.47 -0.00569141 9.39663e-14
  2 1291.47 -0.00569141 3.80605e-15
  3 1291.47 -0.00569141 -1.89571e-13
  4 1291.47 -0.00569141 -1.75883e-13
  5 1291.47 -0.00569141 -6.95148e-14
  6 1291.47 -0.00569141 -1.56381e-14
  7 1291.47 -0.00569141 -1.00708e-13
  8 1291.47 -0.00569141 -8.49473e-14
  9 1291.47 -0.00569141 -1.00377e-13
  10 1291.47 -0.00569141 -1.23958e-13
  11 1291.47 -0.00569141 2.21576e-13
  12 1291.47 -0.00569141 1.52571e-13
  13 1291.47 -0.00569141 -3.07980e-13
  14 1291.47 -0.00569141 -3.23768e-13
  15 1291.47 -0.00569141 -2.04324e-14
  16 1291.47 -0.00569141 -1.73140e-13
</Section>

newXOutput 59

<Section columns = "stress_xx | stress_yy | stress_xy">
  1 1310.63 -0.00567937 1.31104e-14
  2 1310.63 -0.00567937 -6.17871e-14
  3 1310.63 -0.00567937 -9.52448e-14
  4 1310.63 -0.00567937 -9.88159e-14
  5 1310.63 -0.00567937 -2.13844e-13
  6 1310.63 -0.00567937 -1.62586e-13
  7 1310.63 -0.00567937 4.92393e-14
  8 1310.63 -0.00567937 6.49436e-14
  9 1310.63 -0.00567937 1.05560e-14
  10 1310.63 -0.00567937 -2.02170e-14
  11 1310.63 -0.00567937 -1.08085e-13
  12 1310.63 -0.00567937 -2.01459e-13
  13 1310.63 -0.00567937 8.75140e-14
  14 1310.63 -0.00567937 1.00559e-14
  15 1310.63 -0.00567937 4.04903e-13
  16 1310.63 -0.00567937 2.83871e-13
</Section>

newXOutput 60

<Section columns = "stress_xx | stress_yy | stress_xy">
  1 1329.67 -0.00566738 1.89288e-14
  2 1329.67 -0.00566738 -4.84779e-14
  3 1329.67 -0.00566738 -5.83863e-14
  4 1329.67 -0.00566738 -5.39245e-14
  5 1329.67 -0.00566738 -1.64960e-13
  6 1329.67 -0.00566738 -7.94620e-14
  7 1329.67 -0.00566738 9.82028e-14
  8 1329.67 -0.00566738 8.61659e-14
  9 1329.67 -0.00566738 1.35202e-13
  10 1329.67 -0.00566738 9.74911e-14
  11 1329.67 -0.00566738 5.21322e-13
  12 1329.67 -0.00566738 4.64495e-13
  13 1329.67 -0.00566738 2.18222e-13
  14 1329.67 -0.00566738 2.31860e-13
  15 1329.67 -0.00566738 5.42007e-14
  16 1329.67 -0.00566738 1.94337e-13
</Section>

newXOutput 61

<Section columns = "stress_xx | stress_yy | stress_xy">
  1 1348.62 -0.00565544 -1.18550e-14
  2 1348.62 -0.00565544 -5.98303e-14
  3 1348.62 -0.00565544 1.42942e-13
  4 1348.62 -0.00565544 1.41791e-13
  5 1348.62 -0.00565544 6.06898e-14
  6 1348.62 -0.00565544 3.00060e-14
  7 1348.62 -0.00565544 9.85513e-15
  8 1348.62 -0.00565544 2.60083e-16
  9 1348.62 -0.00565544 -7.61048e-15
  10 1348.62 -0.00565544 3.51344e-14
  11 1348.62 -0.00565544 -2.34147e-13
  12 1348.62 -0.00565544 -2.87504e-13
  13 1348.62 -0.00565544 -1.64252e-14
  14 1348.62 -0.00565544 5.99450e-15
  15 1348.62 -0.00565544 8.64718e-14
  16 1348.62 -0.00565544 2.16791e-13
</Section>

newXOutput 62

<Section columns = "stress_xx | stress_yy | stress_xy">
  1 1367.46 -0.00564354 -2.17650e-13
  2 1367.46 -0.00564354 8.11226e-14
  3 1367.46 -0.00564354 1.28431e-13
  4 1367.46 -0.00564354 1.24845e-13
  5 1367.46 -0.00564354 1.41270e-13
  6 1367.46 -0.00564354 1.25734e-13
  7 1367.46 -0.00564354 -7.06098e-14
  8 1367.46 -0.00564354 5.87612e-15
  9 1367.46 -0.00564354 -8.38134e-15
  10 1367.46 -0.00564354 -1.14926e-13
  11 1367.46 -0.00564354 -5.74510e-14
  12 1367.46 -0.00564354 -8.22982e-14
  13 1367.46 -0.00564354 -5.21664e-14
  14 1367.46 -0.00564354 -4.81497e-14
  15 1367.46 -0.00564354 2.36834e-13
  16 1367.46 -0.00564354 2.03371e-13
</Section>

newXOutput 63

<Section columns = "stress_xx | stress_yy | stress_xy">
  1 1386.20 -0.00563170 8.99178e-14
  2 1386.20 -0.00563170 -4.85612e-14
  3 1386.20 -0.00563170 -2.10230e-13
  4 1386.20 -0.00563170 -2.09723e-13
  5 1386.20 -0.00563170 -1.44349e-13
  6 1386.20 -0.00563170 -1.42679e-13
  7 1386.20 -0.00563170 -1.74862e-13
  8 1386.20 -0.00563170 -2.76082e-13
  9 1386.20 -0.00563170 1.09979e-14
  10 1386.20 -0.00563170 3.55011e-14
  11 1386.20 -0.00563170 1.80857e-13
  12 1386.20 -0.00563170 1.55193e-13
  13 1386.20 -0.00563170 -7.01909e-14
  14 1386.20 -0.00563170 -2.13960e-13
  15 1386.20 -0.00563170 2.16956e-14
  16 1386.20 -0.00563170 7.40570e-15
</Section>

newXOutput 64

<Section columns = "stress_xx | stress_yy | stress_xy">
  1 1404.83 -0.00561990 -1.62697e-13
  2 1404.83 -0.00561990 6.95486e-14
  3 1404.83 -0.00561990 1.37482e-13
  4 1404.83 -0.00561990 1.34460e-13
  5 1404.83 -0.00561990 4.22611e-14
  6 1404.83 -0.00561990 2.84911e-14
  7 1404.83 -0.00561990 -5.98759e-14
  8 1404.83 -0.00561990 1.84383e-14
  9 1404.83 -0.00561990 2.38434e-13
  10 1404.83 -0.00561990 1.11308e-13
  11 1404.83 -0.00561990 -2.20225e-13
  12 1404.83 -0.00561990 -2.78031e-13
  13 1404.83 -0.00561990 5.58677e-13
  14 1404.83 -0.00561990 5.57449e-13
  15 1404.83 -0.00561990 4.09342e-13
  16 1404.83 -0.00561990 2.53480e-13
</Section>

newXOutput 65

<Section columns = "stress_xx | stress_yy | stress_xy">
  1 1423.37 -0.00560815 1.92782e-14
  2 1423.37 -0.00560815 -7.02767e-14
  3 1423.37 -0.00560815 8.27462e-14
  4 1423.37 -0.00560815 4.32363e-14
  5 1423.37 -0.00560815 -1.06650e-13
  6 1423.37 -0.00560815 -1.13285e-13
  7 1423.37 -0.00560815 -1.41740e-13
  8 1423.37 -0.00560815 -8.26226e-14
  9 1423.37 -0.00560815 9.42356e-14
  10 1423.37 -0.00560815 9.64483e-14
  11 1423.37 -0.00560815 7.54902e-15
  12 1423.37 -0.00560815 -5.82845e-14
  13 1423.37 -0.00560815 -6.61023e-14
  14 1423.37 -0.00560815 -5.13838e-14
  15 1423.37 -0.00560815 -4.42451e-13
  16 1423.37 -0.00560815 -4.37722e-13
</Section>

newXOutput 66

<Section columns = "stress_xx | stress_yy | stress_xy">
  1 1441.80 -0.00559645 1.43588e-15
  2 1441.80 -0.00559645 -3.65494e-14
  3 1441.80 -0.00559645 7.10950e-14
  4 1441.80 -0.00559645 8.70092e-14
  5 1441.80 -0.00559645 1.08377e-13
  6 1441.80 -0.00559645 4.75615e-14
  7 1441.80 -0.00559645 2.08081e-13
  8 1441.80 -0.00559645 1.79805e-13
  9 1441.80 -0.00559645 -1.09319e-13
  10 1441.80 -0.00559645 -2.64217e-14
  11 1441.80 -0.00559645 -8.04372e-14
  12 1441.80 -0.00559645 -1.56531e-13
  13 1441.80 -0.00559645 3.10126e-13
  14 1441.80 -0.00559645 3.06054e-14
  15 1441.80 -0.00559645 2.52810e-13
  16 1441.80 -0.00559645 1.07857e-13
</Section>

newXOutput 67

<Section columns = "stress_xx | stress_yy | stress_xy">
  1 1460.14 -0.00558480 -5.74171e-14
  2 1460.14 -0.00558480 -9.94148e-14
  3 1460.14 -0.00558480 7.03188e-14
  4 1460.14 -0.00558480 -4.88138e-14
  5 1460.14 -0.00558480 -4.18873e-14
  6 1460.14 -0.00558480 -8.84077e-14
  7 1460.14 -0.00558480 -3.21266e-14
  8 1460.14 -0.00558480 5.00511e-14
  9 1460.14 -0.00558480 4.20024e-14
  10 1460.14 -0.00558480 -1.00824e-13
  11 1460.14 -0.00558480 -9.87146e-15
  12 1460.14 -0.00558480 -5.17039e-14
  13 1460.14 -0.00558480 3.76959e-13
  14 1460.14 -0.00558480 6.01732e-13
  15 1460.14 -0.00558480 4.50712e-13
  16 1460.14 -0.00558480 1.19752e-13
</Section>

newXOutput 68

<Section columns = "stress_xx | stress_yy | stress_xy">
  1 1478.37 -0.00557319 2.82813e-14
  2 1478.37 -0.00557319 -4.19070e-14
  3 1478.37 -0.00557319 3.02023e-14
  4 1478.37 -0.00557319 1.10950e-13
  5 1478.37 -0.00557319 1.95649e-13
  6 1478.37 -0.00557319 1.46945e-13
  7 1478.37 -0.00557319 7.31709e-14
  8 1478.37 -0.00557319 -4.84888e-14
  9 1478.37 -0.00557319 -7.03330e-14
  10 1478.37 -0.00557319 1.37701e-14
  11 1478.37 -0.00557319 -2.27079e-13
  12 1478.37 -0.00557319 -2.00839e-13
  13 1478.37 -0.00557319 -1.31784e-13
  14 1478.37 -0.00557319 -2.50646e-13
  15 1478.37 -0.00557319 3.19773e-14
  16 1478.37 -0.00557319 -6.99822e-14
</Section>

newXOutput 69

<Section columns = "stress_xx | stress_yy | stress_xy">
  1 1496.51 -0.00556163 -2.44061e-15
  2 1496.51 -0.00556163 -1.19926e-14
  3 1496.51 -0.00556163 -4.16793e-14
  4 1496.51 -0.00556163 9.43519e-16
  5 1496.51 -0.00556163 -8.95955e-15
  6 1496.51 -0.00556163 -5.32548e-14
  7 1496.51 -0.00556163 8.52989e-14
  8 1496.51 -0.00556163 2.70157e-14
  9 1496.51 -0.00556163 8.30095e-14
  10 1496.51 -0.00556163 1.48173e-13
  11 1496.51 -0.00556163 1.37855e-13
  12 1496.51 -0.00556163 1.59383e-13
  13 1496.51 -0.00556163 2.83520e-13
  14 1496.51 -0.00556163 2.46878e-13
  15 1496.51 -0.00556163 3.15793e-13
  16 1496.51 -0.00556163 2.87817e-13
</Section>

newXOutput 70

<Section columns = "stress_xx | stress_yy | stress_xy">
  1 1514.55 -0.00555012 -2.52445e-14
  2 1514.55 -0.00555012 -5.31215e-14
  3 1514.55 -0.00555012 7.84140e-14
  4 1514.55 -0.00555012 4.47552e-14
  5 1514.55 -0.00555012 5.50431e-14
  6 1514.55 -0.00555012 2.52511e-14
  7 1514.55 -0.00555012 -1.86703e-13
  8 1514.55 -0.00555012 -1.68118e-13
  9 1514.55 -0.00555012 -1.52806e-13
  10 1514.55 -0.00555012 -1.24929e-13
  11 1514.55 -0.00555012 4.05633e-13
  12 1514.55 -0.00555012 3.68359e-13
  13 1514.55 -0.00555012 4.00703e-13
  14 1514.55 -0.00555012 3.19646e-13
  15 1514.55 -0.00555012 -1.56483e-13
  16 1514.55 -0.00555012 -1.64945e-13
</Section>

newXOutput 71

<Section columns = "stress_xx | stress_yy | stress_xy">
  1 1532.49 -0.00553865 4.54739e-14
  2 1532.49 -0.00553865 2.69548e-14
  3 1532.49 -0.00553865 -3.22438e-15
  4 1532.49 -0.00553865 -2.98220e-14
  5 1532.49 -0.00553865 -9.21456e-16
  6 1532.49 -0.00553865 -2.59870e-14
  7 1532.49 -0.00553865 6.76791e-14
  8 1532.49 -0.00553865 8.61982e-14
  9 1532.49 -0.00553865 -2.09349e-13
  10 1532.49 -0.00553865 -1.90547e-13
  11 1532.49 -0.00553865 -6.81871e-15
  12 1532.49 -0.00553865 -8.31557e-14
  13 1532.49 -0.00553865 -5.47315e-15
  14 1532.49 -0.00553865 -9.09753e-14
  15 1532.49 -0.00553865 4.02372e-13
  16 1532.49 -0.00553865 3.75349e-13
</Section>

newXOutput 72

<Section columns = "stress_xx | stress_yy | stress_xy">
  1 1550.34 -0.00552723 -3.17568e-14
  2 1550.34 -0.00552723 -6.40510e-14
  3 1550.34 -0.00552723 -6.51477e-15
  4 1550.34 -0.00552723 -4.34224e-14
  5 1550.34 -0.00552723 -1.87525e-13
  6 1550.34 -0.00552723 -2.15206e-13
  7 1550.34 -0.00552723 -6.69786e-14
  8 1550.34 -0.00552723 -6.92854e-14
  9 1550.34 -0.00552723 -6.05048e-14
  10 1550.34 -0.00552723 -4.17960e-14
  11 1550.34 -0.00552723 6.40315e-14
  12 1550.34 -0.00552723 8.63184e-15
  13 1550.34 -0.00552723 -1.90332e-14
  14 1550.34 -0.00552723 9.15493e-14
  15 1550.34 -0.00552723 -6.63488e-14
  16 1550.34 -0.00552723 -3.12052e-15
</Section>

newXOutput 73

<Section columns = "stress_xx | stress_yy | stress_xy">
  1 1568.09 -0.00551585 -3.05945e-14
  2 1568.09 -0.00551585 -3.07458e-14
  3 1568.09 -0.00551585 -1.98432e-15
  4 1568.09 -0.00551585 -2.31692e-14
  5 1568.09 -0.00551585 2.13829e-15
  6 1568.09 -0.00551585 -1.20047e-14
  7 1568.09 -0.00551585 3.20019e-14
  8 1568.09 -0.00551585 6.64810e-14
  9 1568.09 -0.00551585 -3.19166e-13
  10 1568.09 -0.00551585 -2.77867e-13
  11 1568.09 -0.00551585 -3.95971e-13
  12 1568.09 -0.00551585 -4.34339e-13
  13 1568.09 -0.00551585 -2.47624e-13
  14 1568.09 -0.00551585 -2.59792e-13
  15 1568.09 -0.00551585 -2.35588e-13
  16 1568.09 -0.00551585 -2.72971e-13
</Section>

newXOutput 74

<Section columns = "stress_xx | stress_yy | stress_xy">
  1 1585.75 -0.00550452 -1.81752e-14
  2 1585.75 -0.00550452 -2.73373e-14
  3 1585.75 -0.00550452 4.78633e-14
  4 1585.75 -0.00550452 -5.94762e-15
  5 1585.75 -0.00550452 9.02523e-14
  6 1585.75 -0.00550452 3.10673e-14
  7 1585.75 -0.00550452 -2.72023e-14
  8 1585.75 -0.00550452 3.23515e-14
  9 1585.75 -0.00550452 4.40545e-14
  10 1585.75 -0.00550452 9.89609e-14
  11 1585.75 -0.00550452 4.01047e-14
  12 1585.75 -0.00550452 1.79481e-14
  13 1585.75 -0.00550452 2.80013e-13
  14 1585.75 -0.00550452 3.42672e-13
  15 1585.75 -0.00550452 2.85282e-13
  16 1585.75 -0.00550452 4.31876e-13
</Section>

newXOutput 75

<Section columns = "stress_xx | stress_yy | stress_xy">
  1 1603.31 -0.00549323 -1.38148e-14
  2 1603.31 -0.00549323 -3.67541e-14
  3 1603.31 -0.00549323 -2.84260e-14
  4 1603.31 -0.00549323 -5.60971e-14
  5 1603.31 -0.00549323 -1.51454e-13
  6 1603.31 -0.00549323 -1.85332e-13
  7 1603.31 -0.00549323 -2.76652e-14
  8 1603.31 -0.00549323 -7.12274e-15
  9 1603.31 -0.00549323 -7.88752e-14
  10 1603.31 -0.00549323 -6.98024e-14
  11 1603.31 -0.00549323 -1.55657e-14
  12 1603.31 -0.00549323 -3.36463e-15
  13 1603.31 -0.00549323 3.77496e-13
  14 1603.31 -0.00549323 3.41903e-13
  15 1603.31 -0.00549323 -2.60501e-14
  16 1603.31 -0.00549323 4.79050e-14
</Section>

newXOutput 76

<Section columns = "stress_xx | stress_yy | stress_xy">
  1 1620.78 -0.00548199 -8.18107e-15
  2 1620.78 -0.00548199 -5.82199e-14
  3 1620.78 -0.00548199 3.10179e-14
  4 1620.78 -0.00548199 -1.55972e-14
  5 1620.78 -0.00548199 -5.14086e-14
  6 1620.78 -0.00548199 -6.92550e-14
  7 1620.78 -0.00548199 7.63759e-14
  8 1620.78 -0.00548199 8.09249e-14
  9 1620.78 -0.00548199 1.41556e-13
  10 1620.78 -0.00548199 1.41508e-13
  11 1620.78 -0.00548199 1.03378e-13
  12 1620.78 -0.00548199 1.58794e-13
  13 1620.78 -0.00548199 8.34450e-14
  14 1620.78 -0.00548199 2.77455e-13
  15 1620.78 -0.00548199 7.94508e-14
  16 1620.78 -0.00548199 3.61092e-13
</Section>

newXOutput 77

<Section columns = "stress_xx | stress_yy | stress_xy">
  1 1638.15 -0.00547080 -6.42184e-15
  2 1638.15 -0.00547080 -3.36203e-14
  3 1638.15 -0.00547080 -1.22657e-14
  4 1638.15 -0.00547080 -4.51207e-14
  5 1638.15 -0.00547080 6.16983e-14
  6 1638.15 -0.00547080 3.48399e-14
  7 1638.15 -0.00547080 -2.56212e-14
  8 1638.15 -0.00547080 -7.48892e-15
  9 1638.15 -0.00547080 -5.54573e-14
  10 1638.15 -0.00547080 -4.41246e-14
  11 1638.15 -0.00547080 -2.31403e-13
  12 1638.15 -0.00547080 -2.67395e-13
  13 1638.15 -0.00547080 3.03649e-14
  14 1638.15 -0.00547080 -1.30105e-13
  15 1638.15 -0.00547080 1.70775e-13
  16 1638.15 -0.00547080 7.10471e-14
</Section>

newXOutput 78

<Section columns = "stress_xx | stress_yy | stress_xy">
  1 1655.44 -0.00545965 -4.59975e-14
  2 1655.44 -0.00545965 -5.05745e-14
  3 1655.44 -0.00545965 1.58981e-13
  4 1655.44 -0.00545965 1.49761e-13
  5 1655.44 -0.00545965 6.47399e-14
  6 1655.44 -0.00545965 3.11912e-14
  7 1655.44 -0.00545965 1.42342e-13
  8 1655.44 -0.00545965 1.53635e-13
  9 1655.44 -0.00545965 4.20219e-13
  10 1655.44 -0.00545965 4.49551e-13
  11 1655.44 -0.00545965 2.26546e-13
  12 1655.44 -0.00545965 2.54556e-13
  13 1655.44 -0.00545965 1.27398e-13
  14 1655.44 -0.00545965 1.17042e-13
  15 1655.44 -0.00545965 -1.41844e-13
  16 1655.44 -0.00545965 -2.05086e-13
</Section>

newXOutput 79

<Section columns = "stress_xx | stress_yy | stress_xy">
  1 1672.63 -0.00544854 1.45128e-15
  2 1672.63 -0.00544854 -1.20531e-14
  3 1672.63 -0.00544854 8.52410e-14
  4 1672.63 -0.00544854 1.02127e-13
  5 1672.63 -0.00544854 -2.74963e-13
  6 1672.63 -0.00544854 -2.43132e-13
  7 1672.63 -0.00544854 -3.28340e-13
  8 1672.63 -0.00544854 -3.10334e-13
  9 1672.63 -0.00544854 -2.69818e-13
  10 1672.63 -0.00544854 -3.10352e-13
  11 1672.63 -0.00544854 -4.36664e-14
  12 1672.63 -0.00544854 -7.19805e-14
  13 1672.63 -0.00544854 3.85296e-14
  14 1672.63 -0.00544854 8.67613e-14
  15 1672.63 -0.00544854 5.08210e-13
  16 1672.63 -0.00544854 5.66729e-13
</Section>

newXOutput 80

<Section columns = "stress_xx | stress_yy | stress_xy">
  1 1689.73 -0.00543747 2.04636e-14
  2 1689.73 -0.00543747 -9.61667e-14
  3 1689.73 -0.00543747 1.10495e-13
  4 1689.73 -0.00543747 5.77658e-14
  5 1689.73 -0.00543747 -6.04726e-14
  6 1689.73 -0.00543747 3.60326e-14
  7 1689.73 -0.00543747 -9.95956e-14
  8 1689.73 -0.00543747 -4.80091e-14
  9 1689.73 -0.00543747 3.78244e-13
  10 1689.73 -0.00543747 4.09632e-13
  11 1689.73 -0.00543747 -1.26253e-13
  12 1689.73 -0.00543747 -1.11812e-13
  13 1689.73 -0.00543747 -1.86652e-13
  14 1689.73 -0.00543747 -2.77614e-13
  15 1689.73 -0.00543747 1.27277e-13
  16 1689.73 -0.00543747 1.51325e-14
</Section>

newXOutput 81

<Section columns = "stress_xx | stress_yy | stress_xy">
  1 1706.74 -0.00542645 -3.95051e-14
  2 1706.74 -0.00542645 7.26491e-16
  3 1706.74 -0.00542645 2.39284e-14
  4 1706.74 -0.00542645 4.73976e-14
  5 1706.74 -0.00542645 5.80044e-14
  6 1706.74 -0.00542645 4.48963e-14
  7 1706.74 -0.00542645 9.55821e-14
  8 1706.74 -0.00542645 7.32312e-14
  9 1706.74 -0.00542645 1.13708e-13
  10 1706.74 -0.00542645 1.11498e-13
  11 1706.74 -0.00542645 -4.99524e-14
  12 1706.74 -0.00542645 -1.78854e-13
  13 1706.74 -0.00542645 2.29931e-13
  14 1706.74 -0.00542645 2.01900e-13
  15 1706.74 -0.00542645 2.86087e-14
  16 1706.74 -0.00542645 2.41386e-14
</Section>

newXOutput 82

<Section columns = "stress_xx | stress_yy | stress_xy">
  1 1723.65 -0.00541548 -5.69728e-14
  2 1723.65 -0.00541548 -2.57903e-14
  3 1723.65 -0.00541548 1.47043e-14
  4 1723.65 -0.00541548 4.47830e-14
  5 1723.65 -0.00541548 -2.00537e-13
  6 1723.65 -0.00541548 -1.71407e-13
  7 1723.65 -0.00541548 -1.25540e-13
  8 1723.65 -0.00541548 -1.47813e-13
  9 1723.65 -0.00541548 -6.30890e-14
  10 1723.65 -0.00541548 -2.96736e-14
  11 1723.65 -0.00541548 4.12400e-14
  12 1723.65 -0.00541548 6.45737e-14
  13 1723.65 -0.00541548 5.19311e-14
  14 1723.65 -0.00541548 -1.16516e-14
  15 1723.65 -0.00541548 2.15594e-13
  16 1723.65 -0.00541548 -5.51969e-14
</Section>

newXOutput 83

<Section columns = "stress_xx | stress_yy | stress_xy">
  1 1740.48 -0.00540454 8.00549e-14
  2 1740.48 -0.00540454 -7.97557e-14
  3 1740.48 -0.00540454 1.32774e-13
  4 1740.48 -0.00540454 4.95360e-14
  5 1740.48 -0.00540454 2.91310e-14
  6 1740.48 -0.00540454 1.16582e-14
  7 1740.48 -0.00540454 -2.04286e-13
  8 1740.48 -0.00540454 -1.31039e-13
  9 1740.48 -0.00540454 -2.27808e-14
  10 1740.48 -0.00540454 1.49667e-14
  11 1740.48 -0.00540454 1.73176e-13
  12 1740.48 -0.00540454 1.43200e-13
  13 1740.48 -0.00540454 3.22604e-13
  14 1740.48 -0.00540454 5.38781e-13
  15 1740.48 -0.00540454 4.41115e-14
  16 1740.48 -0.00540454 2.48544e-13
</Section>

newXOutput 84

<Section columns = "stress_xx | stress_yy | stress_xy">
  1 1757.22 -0.00539365 -2.28672e-14
  2 1757.22 -0.00539365 -6.26814e-14
  3 1757.22 -0.00539365 1.05532e-13
  4 1757.22 -0.00539365 6.90757e-14
  5 1757.22 -0.00539365 5.50180e-14
  6 1757.22 -0.00539365 4.20350e-14
  7 1757.22 -0.00539365 -2.82282e-13
  8 1757.22 -0.00539365 -2.49103e-13
  9 1757.22 -0.00539365 -2.07646e-13
  10 1757.22 -0.00539365 -1.87715e-13
  11 1757.22 -0.00539365 5.29489e-14
  12 1757.22 -0.00539365 5.62735e-14
  13 1757.22 -0.00539365 1.74299e-13
  14 1757.22 -0.00539365 2.20749e-13
  15 1757.22 -0.00539365 -1.21505e-14
  16 1757.22 -0.00539365 3.65113e-14
</Section>

newXOutput 85

<Section columns = "stress_xx | stress_yy | stress_xy">
  1 1773.88 -0.00538281 -3.43051e-14
  2 1773.88 -0.00538281 -8.72071e-14
  3 1773.88 -0.00538281 2.38898e-14
  4 1773.88 -0.00538281 2.05755e-14
  5 1773.88 -0.00538281 1.00906e-13
  6 1773.88 -0.00538281 1.65095e-13
  7 1773.88 -0.00538281 1.97997e-14
  8 1773.88 -0.00538281 6.57422e-15
  9 1773.88 -0.00538281 8.74496e-14
  10 1773.88 -0.00538281 1.91496e-14
  11 1773.88 -0.00538281 -1.75180e-13
  12 1773.88 -0.00538281 -1.51997e-13
  13 1773.88 -0.00538281 -3.91046e-13
  14 1773.88 -0.00538281 -5.19461e-13
  15 1773.88 -0.00538281 -1.02569e-13
  16 1773.88 -0.00538281 -4.03484e-13
</Section>

newXOutput 86

<Section columns = "stress_xx | stress_yy | stress_xy">
  1 1790.44 -0.00537200 -4.00954e-14
  2 1790.44 -0.00537200 -4.44080e-14
  3 1790.44 -0.00537200 8.89617e-14
  4 1790.44 -0.00537200 7.58435e-14
  5 1790.44 -0.00537200 2.50107e-14
  6 1790.44 -0.00537200 -1.86652e-14
  7 1790.44 -0.00537200 -1.10718e-13
  8 1790.44 -0.00537200 -7.33747e-14
  9 1790.44 -0.00537200 1.98671e-13
  10 1790.44 -0.00537200 2.38250e-13
  11 1790.44 -0.00537200 -7.07155e-14
  12 1790.44 -0.00537200 -7.17422e-14
  13 1790.44 -0.00537200 -1.76544e-13
  14 1790.44 -0.00537200 -2.39956e-16
  15 1790.44 -0.00537200 1.77646e-13
  16 1790.44 -0.00537200 3.32056e-13
</Section>

newXOutput 87

<Section columns = "stress_xx | stress_yy | stress_xy">
  1 1806.92 -0.00536124 5.09031e-15
  2 1806.92 -0.00536124 1.38465e-14
  3 1806.92 -0.00536124 -2.14435e-15
  4 1806.92 -0.00536124 5.50513e-15
  5 1806.92 -0.00536124 -1.00329e-13
  6 1806.92 -0.00536124 -8.91364e-14
  7 1806.92 -0.00536124 -2.20312e-13
  8 1806.92 -0.00536124 -1.91854e-13
  9 1806.92 -0.00536124 1.83050e-13
  10 1806.92 -0.00536124 1.80910e-13
  11 1806.92 -0.00536124 -2.75154e-14
  12 1806.92 -0.00536124 -7.25803e-14
  13 1806.92 -0.00536124 6.63878e-13
  14 1806.92 -0.00536124 5.58181e-13
  15 1806.92 -0.00536124 2.29417e-13
  16 1806.92 -0.00536124 2.38174e-13
</Section>

newXOutput 88

<Section columns = "stress_xx | stress_yy | stress_xy">
  1 1823.31 -0.00535052 -4.81920e-14
  2 1823.31 -0.00535052 -4.38290e-14
  3 1823.31 -0.00535052 -1.39983e-13
  4 1823.31 -0.00535052 -1.21455e-13
  5 1823.31 -0.00535052 -3.56773e-13
  6 1823.31 -0.00535052 -3.17267e-13
  7 1823.31 -0.00535052 -8.31131e-14
  8 1823.31 -0.00535052 -6.34795e-14
  9 1823.31 -0.00535052 5.06888e-14
  10 1823.31 -0.00535052 2.67495e-14
  11 1823.31 -0.00535052 3.06541e-13
  12 1823.31 -0.00535052 3.14312e-13
  13 1823.31 -0.00535052 1.16159e-13
  14 1823.31 -0.00535052 1.31429e-13
  15 1823.31 -0.00535052 3.05107e-13
  16 1823.31 -0.00535052 3.09470e-13
</Section>

newXOutput 89

<Section columns = "stress_xx | stress_yy | stress_xy">
  1 1839.62 -0.00533984 1.57454e-14
  2 1839.62 -0.00533984 1.57454e-14
  3 1839.62 -0.00533984 8.96244e-14
  4 1839.62 -0.00533984 1.02568e-14
  5 1839.62 -0.00533984 4.55702e-14
  6 1839.62 -0.00533984 -1.28980e-14
  7 1839.62 -0.00533984 7.23400e-14
  8 1839.62 -0.00533984 7.45140e-14
  9 1839.62 -0.00533984 1.74048e-14
  10 1839.62 -0.00533984 -1.07915e-14
  11 1839.62 -0.00533984 3.60646e-13
  12 1839.62 -0.00533984 3.33112e-13
  13 1839.62 -0.00533984 2.53025e-13
  14 1839.62 -0.00533984 2.22063e-13
  15 1839.62 -0.00533984 2.53071e-13
  16 1839.62 -0.00533984 6.44803e-14
</Section>

newXOutput 90

<Section columns = "stress_xx | stress_yy | stress_xy">
  1 1855.84 -0.00532920 -4.12059e-14
  2 1855.84 -0.00532920 -4.12059e-14
  3 1855.84 -0.00532920 -1.22615e-13
  4 1855.84 -0.00532920 -1.47549e-13
  5 1855.84 -0.00532920 9.31900e-14
  6 1855.84 -0.00532920 9.12446e-14
  7 1855.84 -0.00532920 1.14823e-13
  8 1855.84 -0.00532920 9.96573e-14
  9 1855.84 -0.00532920 5.29948e-13
  10 1855.84 -0.00532920 4.52026e-13
  11 1855.84 -0.00532920 1.28991e-13
  12 1855.84 -0.00532920 9.99420e-14
  13 1855.84 -0.00532920 3.77496e-13
  14 1855.84 -0.00532920 3.11907e-13
  15 1855.84 -0.00532920 3.96429e-13
  16 1855.84 -0.00532920 8.12652e-14
</Section>

newXOutput 91

<Section columns = "stress_xx | stress_yy | stress_xy">
  1 1871.97 -0.00531860 -1.74106e-13
  2 1871.97 -0.00531860 1.41123e-13
  3 1871.97 -0.00531860 -1.27433e-13
  4 1871.97 -0.00531860 1.61267e-14
  5 1871.97 -0.00531860 -7.07678e-14
  6 1871.97 -0.00531860 -2.36806e-13
  7 1871.97 -0.00531860 -1.54129e-13
  8 1871.97 -0.00531860 -1.32538e-13
  9 1871.97 -0.00531860 -1.63660e-13
  10 1871.97 -0.00531860 -1.36169e-13
  11 1871.97 -0.00531860 4.01643e-14
  12 1871.97 -0.00531860 -2.04182e-13
  13 1871.97 -0.00531860 2.26149e-13
  14 1871.97 -0.00531860 2.84905e-13
  15 1871.97 -0.00531860 1.42236e-13
  16 1871.97 -0.00531860 2.45873e-13
</Section>

newXOutput 92

<Section columns = "stress_xx | stress_yy | stress_xy">
  1 1888.02 -0.00530805 -8.91818e-14
  2 1888.02 -0.00530805 -1.17204e-14
  3 1888.02 -0.00530805 -6.88598e-14
  4 1888.02 -0.00530805 -3.98345e-14
  5 1888.02 -0.00530805 9.71823e-14
  6 1888.02 -0.00530805 5.00484e-14
  7 1888.02 -0.00530805 1.08692e-13
  8 1888.02 -0.00530805 1.81850e-13
  9 1888.02 -0.00530805 2.15735e-13
  10 1888.02 -0.00530805 2.52405e-13
  11 1888.02 -0.00530805 3.62993e-13
  12 1888.02 -0.00530805 2.91172e-13
  13 1888.02 -0.00530805 8.61180e-14
  14 1888.02 -0.00530805 -6.22890e-14
  15 1888.02 -0.00530805 2.13257e-13
  16 1888.02 -0.00530805 1.34344e-13
</Section>

newXOutput 93

<Section columns = "stress_xx | stress_yy | stress_xy">
  1 1903.99 -0.00529754 -2.11529e-14
  2 1903.99 -0.00529754 -2.54416e-14
  3 1903.99 -0.00529754 3.39099e-14
  4 1903.99 -0.00529754 7.99885e-14
  5 1903.99 -0.00529754 6.22903e-14
  6 1903.99 -0.00529754 8.60731e-14
  7 1903.99 -0.00529754 -2.08856e-13
  8 1903.99 -0.00529754 -2.32444e-13
  9 1903.99 -0.00529754 -4.05933e-13
  10 1903.99 -0.00529754 -4.27278e-13
  11 1903.99 -0.00529754 -8.15542e-13
  12 1903.99 -0.00529754 -7.88247e-13
  13 1903.99 -0.00529754 3.15721e-13
  14 1903.99 -0.00529754 4.07160e-13
  15 1903.99 -0.00529754 1.61263e-13
  16 1903.99 -0.00529754 4.18972e-13
</Section>

newXOutput 94

<Section columns = "stress_xx | stress_yy | stress_xy">
  1 1919.87 -0.00528706 -5.41572e-14
  2 1919.87 -0.00528706 -4.56091e-14
  3 1919.87 -0.00528706 -1.35665e-13
  4 1919.87 -0.00528706 -6.19646e-14
  5 1919.87 -0.00528706 -1.64523e-13
  6 1919.87 -0.00528706 -1.15185e-13
  7 1919.87 -0.00528706 -5.04825e-14
  8 1919.87 -0.00528706 -9.10859e-14
  9 1919.87 -0.00528706 -1.65544e-14
  10 1919.87 -0.00528706 -5.06396e-14
  11 1919.87 -0.00528706 3.28156e-13
  12 1919.87 -0.00528706 3.66091e-13
  13 1919.87 -0.00528706 9.89185e-14
  14 1919.87 -0.00528706 1.67949e-13
  15 1919.87 -0.00528706 8.17938e-14
  16 1919.87 -0.00528706 9.88899e-14
</Section>

newXOutput 95

<Section columns = "stress_xx | stress_yy | stress_xy">
  1 1935.68 -0.00527663 -3.05796e-14
  2 1935.68 -0.00527663 -1.78012e-14
  3 1935.68 -0.00527663 -6.70045e-14
  4 1935.68 -0.00527663 1.92207e-14
  5 1935.68 -0.00527663 -9.66747e-14
  6 1935.68 -0.00527663 -1.98267e-14
  7 1935.68 -0.00527663 4.14575e-14
  8 1935.68 -0.00527663 -5.39653e-15
  9 1935.68 -0.00527663 -2.66442e-13
  10 1935.68 -0.00527663 -3.17440e-13
  11 1935.68 -0.00527663 -4.81721e-13
  12 1935.68 -0.00527663 -4.41737e-13
  13 1935.68 -0.00527663 -4.88183e-14
  14 1935.68 -0.00527663 3.06887e-14
  15 1935.68 -0.00527663 1.94927e-13
  16 1935.68 -0.00527663 2.41781e-13
</Section>

newXOutput 96

<Section columns = "stress_xx | stress_yy | stress_xy">
  1 1951.40 -0.00526624 -7.38598e-15
  2 1951.40 -0.00526624 9.84036e-15
  3 1951.40 -0.00526624 -6.43534e-14
  4 1951.40 -0.00526624 8.34806e-14
  5 1951.40 -0.00526624 -2.23218e-14
  6 1951.40 -0.00526624 1.01120e-13
  7 1951.40 -0.00526624 1.31262e-13
  8 1951.40 -0.00526624 6.12208e-14
  9 1951.40 -0.00526624 1.43051e-13
  10 1951.40 -0.00526624 7.10106e-14
  11 1951.40 -0.00526624 -1.65876e-13
  12 1951.40 -0.00526624 -1.42960e-13
  13 1951.40 -0.00526624 -4.02314e-13
  14 1951.40 -0.00526624 -2.22310e-13
  15 1951.40 -0.00526624 -2.83114e-13
  16 1951.40 -0.00526624 -1.83508e-13
</Section>

newXOutput 97

<Section columns = "stress_xx | stress_yy | stress_xy">
  1 1967.03 -0.00525589 -3.64062e-14
  2 1967.03 -0.00525589 -1.94842e-14
  3 1967.03 -0.00525589 6.80575e-14
  4 1967.03 -0.00525589 8.81196e-14
  5 1967.03 -0.00525589 -1.16550e-14
  6 1967.03 -0.00525589 -9.37882e-15
  7 1967.03 -0.00525589 -1.06246e-14
  8 1967.03 -0.00525589 4.64871e-14
  9 1967.03 -0.00525589 -2.13088e-14
  10 1967.03 -0.00525589 2.95885e-14
  11 1967.03 -0.00525589 2.73474e-13
  12 1967.03 -0.00525589 2.54056e-13
  13 1967.03 -0.00525589 5.88176e-13
  14 1967.03 -0.00525589 4.69353e-13
  15 1967.03 -0.00525589 3.82569e-13
  16 1967.03 -0.00525589 3.25472e-13
</Section>

newXOutput 98

<Section columns = "stress_xx | stress_yy | stress_xy">
  1 1982.59 -0.00524557 -3.04358e-14
  2 1982.59 -0.00524557 -1.77874e-14
  3 1982.59 -0.00524557 1.36312e-14
  4 1982.59 -0.00524557 2.51907e-14
  5 1982.59 -0.00524557 -9.55193e-14
  6 1982.59 -0.00524557 -8.06104e-14
  7 1982.59 -0.00524557 5.60349e-13
  8 1982.59 -0.00524557 4.94999e-13
  9 1982.59 -0.00524557 -7.49468e-15
  10 1982.59 -0.00524557 -8.73225e-14
  11 1982.59 -0.00524557 -6.26663e-13
  12 1982.59 -0.00524557 -6.27604e-13
  13 1982.59 -0.00524557 -6.32403e-13
  14 1982.59 -0.00524557 -6.14651e-13
  15 1982.59 -0.00524557 1.21101e-13
  16 1982.59 -0.00524557 1.54830e-13
</Section>

newXOutput 99

<Section columns = "stress_xx | stress_yy | stress_xy">
  1 1998.07 -0.00523530 -3.85408e-14
  2 1998.07 -0.00523530 -3.01372e-14
  3 1998.07 -0.00523530 1.63911e-13
  4 1998.07 -0.00523530 1.81732e-13
  5 1998.07 -0.00523530 -7.58876e-14
  6 1998.07 -0.00523530 -8.20462e-14
  7 1998.07 -0.00523530 -1.45973e-14
  8 1998.07 -0.00523530 3.58245e-14
  9 1998.07 -0.00523530 1.36708e-13
  10 1998.07 -0.00523530 1.99883e-13
  11 1998.07 -0.00523530 6.10665e-13
  12 1998.07 -0.00523530 5.91474e-13
  13 1998.07 -0.00523530 8.29210e-13
  14 1998.07 -0.00523530 7.39306e-13
  15 1998.07 -0.00523530 1.38120e-13
  16 1998.07 -0.00523530 3.45035e-13
</Section>

newXOutput 100

<Section columns = "stress_xx | stress_yy | stress_xy">
  1 2013.47 -0.00522507 -2.95124e-14
  2 2013.47 -0.00522507 3.98822e-15
  3 2013.47 -0.00522507 1.21797e-13
  4 2013.47 -0.00522507 1.64681e-13
  5 2013.47 -0.00522507 2.29573e-13
  6 2013.47 -0.00522507 2.69490e-13
  7 2013.47 -0.00522507 -5.63131e-14
  8 2013.47 -0.00522507 -1.35877e-13
  9 2013.47 -0.00522507 -1.99055e-13
  10 2013.47 -0.00522507 -2.24025e-13
  11 2013.47 -0.00522507 -2.13501e-13
  12 2013.47 -0.00522507 -8.60132e-14
  13 2013.47 -0.00522507 -2.67091e-13
  14 2013.47 -0.00522507 -2.13739e-13
  15 2013.47 -0.00522507 1.36204e-13
  16 2013.47 -0.00522507 1.06891e-13
</Section>

newXOutput 101

<Section columns = "stress_xx | stress_yy | stress_xy">
  1 2028.78 -0.00521487 -2.98320e-14
  2 2028.78 -0.00521487 -3.85046e-14
  3 2028.78 -0.00521487 7.90979e-15
  4 2028.78 -0.00521487 4.07235e-14
  5 2028.78 -0.00521487 -7.50248e-15
  6 2028.78 -0.00521487 2.39257e-14
  7 2028.78 -0.00521487 4.35409e-13
  8 2028.78 -0.00521487 4.89663e-13
  9 2028.78 -0.00521487 9.25994e-15
  10 2028.78 -0.00521487 7.82841e-14
  11 2028.78 -0.00521487 2.77917e-13
  12 2028.78 -0.00521487 2.77732e-13
  13 2028.78 -0.00521487 6.18217e-13
  14 2028.78 -0.00521487 4.79384e-13
  15 2028.78 -0.00521487 2.93796e-13
  16 2028.78 -0.00521487 1.82682e-13
</Section>

newXOutput 102

<Section columns = "stress_xx | stress_yy | stress_xy">
  1 2044.02 -0.00520472 -3.49541e-14
  2 2044.02 -0.00520472 2.47969e-15
  3 2044.02 -0.00520472 1.86147e-14
  4 2044.02 -0.00520472 7.99219e-14
  5 2044.02 -0.00520472 -9.62824e-14
  6 2044.02 -0.00520472 -6.28884e-14
  7 2044.02 -0.00520472 -1.49524e-13
  8 2044.02 -0.00520472 -1.26647e-13
  9 2044.02 -0.00520472 3.69878e-13
  10 2044.02 -0.00520472 3.90845e-13
  11 2044.02 -0.00520472 2.22667e-14
  12 2044.02 -0.00520472 6.37233e-14
  13 2044.02 -0.00520472 4.40667e-13
  14 2044.02 -0.00520472 6.18900e-13
  15 2044.02 -0.00520472 4.79876e-13
  16 2044.02 -0.00520472 5.24199e-13
</Section>

newXOutput 103

<Section columns = "stress_xx | stress_yy | stress_xy">
  1 2059.18 -0.00519460 -7.39813e-14
  2 2059.18 -0.00519460 1.30695e-14
  3 2059.18 -0.00519460 1.14333e-13
  4 2059.18 -0.00519460 2.62010e-14
  5 2059.18 -0.00519460 3.13967e-14
  6 2059.18 -0.00519460 -2.44532e-14
  7 2059.18 -0.00519460 2.38780e-15
  8 2059.18 -0.00519460 2.10415e-14
  9 2059.18 -0.00519460 -3.19359e-14
  10 2059.18 -0.00519460 -7.32103e-14
  11 2059.18 -0.00519460 -2.01344e-13
  12 2059.18 -0.00519460 -1.35108e-13
  13 2059.18 -0.00519460 -1.08213e-13
  14 2059.18 -0.00519460 -6.14326e-14
  15 2059.18 -0.00519460 2.47228e-14
  16 2059.18 -0.00519460 -1.48849e-16
</Section>

newXOutput 104

<Section columns = "stress_xx | stress_yy | stress_xy">
  1 2074.27 -0.00518452 1.08093e-14
  2 2074.27 -0.00518452 -8.00794e-14
  3 2074.27 -0.00518452 -7.42136e-14
  4 2074.27 -0.00518452 -1.00081e-13
  5 2074.27 -0.00518452 -1.17182e-13
  6 2074.27 -0.00518452 -6.33716e-14
  7 2074.27 -0.00518452 -2.14159e-13
  8 2074.27 -0.00518452 -2.05896e-13
  9 2074.27 -0.00518452 5.23970e-13
  10 2074.27 -0.00518452 5.20024e-13
  11 2074.27 -0.00518452 5.32281e-13
  12 2074.27 -0.00518452 5.53474e-13
  13 2074.27 -0.00518452 7.72510e-14
  14 2074.27 -0.00518452 -1.94236e-14
  15 2074.27 -0.00518452 2.24975e-14
  16 2074.27 -0.00518452 1.84092e-15
</Section>

newXOutput 105

<Section columns = "stress_xx | stress_yy | stress_xy">
  1 2089.27 -0.00517448 -1.14623e-13
  2 2089.27 -0.00517448 7.51647e-14
  3 2089.27 -0.00517448 1.57318e-14
  4 2089.27 -0.00517448 -9.45011e-15
  5 2089.27 -0.00517448 -4.23992e-14
  6 2089.27 -0.00517448 -1.30733e-13
  7 2089.27 -0.00517448 -2.39297e-13
  8 2089.27 -0.00517448 -2.22827e-13
  9 2089.27 -0.00517448 -4.32987e-13
  10 2089.27 -0.00517448 -4.38776e-13
  11 2089.27 -0.00517448 -6.00818e-13
  12 2089.27 -0.00517448 -5.29138e-13
  13 2089.27 -0.00517448 4.54325e-13
  14 2089.27 -0.00517448 5.76609e-13
  15 2089.27 -0.00517448 5.10198e-13
  16 2089.27 -0.00517448 2.88811e-13
</Section>

newXOutput 106

<Section columns = "stress_xx | stress_yy | stress_xy">
  1 2104.20 -0.00516448 -8.97343e-14
  2 2104.20 -0.00516448 5.44242e-16
  3 2104.20 -0.00516448 2.17702e-13
  4 2104.20 -0.00516448 2.61493e-13
  5 2104.20 -0.00516448 1.98466e-13
  6 2104.20 -0.00516448 1.89039e-13
  7 2104.20 -0.00516448 -1.61006e-15
  8 2104.20 -0.00516448 -9.81720e-15
  9 2104.20 -0.00516448 -1.23646e-14
  10 2104.20 -0.00516448 5.16431e-14
  11 2104.20 -0.00516448 5.07738e-13
  12 2104.20 -0.00516448 4.82821e-13
  13 2104.20 -0.00516448 2.72127e-13
  14 2104.20 -0.00516448 2.87844e-13
  15 2104.20 -0.00516448 2.11531e-14
  16 2104.20 -0.00516448 1.48364e-13
</Section>

newXOutput 107

<Section columns = "stress_xx | stress_yy | stress_xy">
  1 2119.05 -0.00515452 -1.14376e-13
  2 2119.05 -0.00515452 -4.03422e-14
  3 2119.05 -0.00515452 -1.04485e-13
  4 2119.05 -0.00515452 -8.24125e-14
  5 2119.05 -0.00515452 -1.35161e-13
  6 2119.05 -0.00515452 -2.08619e-13
  7 2119.05 -0.00515452 7.20481e-14
  8 2119.05 -0.00515452 6.38685e-14
  9 2119.05 -0.00515452 -4.15685e-13
  10 2119.05 -0.00515452 -3.51876e-13
  11 2119.05 -0.00515452 1.16265e-13
  12 2119.05 -0.00515452 2.51012e-13
  13 2119.05 -0.00515452 2.03680e-13
  14 2119.05 -0.00515452 1.97287e-13
  15 2119.05 -0.00515452 5.54340e-13
  16 2119.05 -0.00515452 1.46341e-13
</Section>

