newXOutput 1

<Section columns = "stress_xx | stress_yy | stress_zz | stress_xy | stress_yz | stress_xz">
  1 0.00000 0.00000 0.00000 0.00000 0.00000 0.00000
  2 0.00000 0.00000 0.00000 0.00000 0.00000 0.00000
  3 0.00000 0.00000 0.00000 0.00000 0.00000 0.00000
  4 0.00000 0.00000 0.00000 0.00000 0.00000 0.00000
  5 0.00000 0.00000 0.00000 0.00000 0.00000 0.00000
  6 0.00000 0.00000 0.00000 0.00000 0.00000 0.00000
  7 0.00000 0.00000 0.00000 0.00000 0.00000 0.00000
  8 0.00000 0.00000 0.00000 0.00000 0.00000 0.00000
</Section>

newXOutput 2

<Section columns = "stress_xx | stress_yy | stress_zz | stress_xy | stress_yz | stress_xz">
  1 98.2102 -1.04897e-07 18.9948 5.83051e-16 -6.53462e-16 4.52698e-16
  2 98.2102 -1.04897e-07 18.9948 5.60936e-16 -7.63524e-16 1.68949e-15
  3 98.2102 -1.04897e-07 18.9948 1.01259e-15 -1.04004e-15 -2.98896e-16
  4 98.2102 -1.04897e-07 18.9948 9.30050e-16 -1.26677e-15 -1.11549e-15
  5 98.2102 -1.04897e-07 18.9948 5.17374e-16 -6.10285e-16 5.41496e-16
  6 98.2102 -1.04897e-07 18.9948 4.34838e-16 -6.02383e-16 2.02089e-15
  7 98.2102 -1.04897e-07 18.9948 1.19027e-15 -9.51090e-16 3.25023e-17
  8 98.2102 -1.04897e-07 18.9948 8.82242e-16 -9.34812e-16 1.21300e-16
</Section>

newXOutput 3

<Section columns = "stress_xx | stress_yy | stress_zz | stress_xy | stress_yz | stress_xz">
  1 194.770 -1.03314e-07 37.8846 1.14270e-34 -5.24405e-17 8.98782e-16
  2 194.770 -1.03314e-07 37.8846 4.26463e-34 3.88288e-18 3.35430e-15
  3 194.770 -1.03314e-07 37.8846 2.11948e-34 7.53259e-16 -5.93424e-16
  4 194.770 -1.03314e-07 37.8846 7.91001e-34 1.13407e-15 -2.21469e-15
  5 194.770 -1.03314e-07 37.8846 7.59510e-35 -5.24405e-17 1.07508e-15
  6 194.770 -1.03314e-07 37.8846 2.83453e-34 3.88288e-18 4.01225e-15
  7 194.770 -1.03314e-07 37.8846 6.89381e-35 7.53259e-16 6.45296e-17
  8 194.770 -1.03314e-07 37.8846 2.57280e-34 1.13407e-15 2.40828e-16
</Section>

newXOutput 4

<Section columns = "stress_xx | stress_yy | stress_zz | stress_xy | stress_yz | stress_xz">
  1 289.714 -1.01765e-07 56.6705 4.41094e-16 2.67303e-16 -6.93781e-16
  2 289.714 -1.01765e-07 56.6705 5.27616e-16 -3.38263e-17 -2.58922e-15
  3 289.714 -1.01765e-07 56.6705 1.64619e-15 1.56861e-15 -6.29720e-16
  4 289.714 -1.01765e-07 56.6705 1.96909e-15 3.92052e-16 -2.35015e-15
  5 289.714 -1.01765e-07 56.6705 -2.91234e-16 1.84137e-16 -1.04381e-15
  6 289.714 -1.01765e-07 56.6705 3.16691e-17 -3.44205e-16 -3.89556e-15
  7 289.714 -1.01765e-07 56.6705 -1.08690e-15 1.54632e-15 -1.93606e-15
  8 289.714 -1.01765e-07 56.6705 1.18191e-16 3.08886e-16 -7.22546e-15
</Section>

newXOutput 5

<Section columns = "stress_xx | stress_yy | stress_zz | stress_xy | stress_yz | stress_xz">
  1 383.077 -1.00250e-07 75.3535 -1.09067e-16 -3.70132e-16 1.77156e-15
  2 383.077 -1.00250e-07 75.3535 -2.92243e-17 -4.84696e-16 6.61157e-15
  3 383.077 -1.00250e-07 75.3535 -2.92243e-17 5.12119e-16 -1.16968e-15
  4 383.077 -1.00250e-07 75.3535 -7.83063e-18 4.24978e-16 -4.36531e-15
  5 383.077 -1.00250e-07 75.3535 -4.07042e-16 -2.81100e-16 2.11906e-15
  6 383.077 -1.00250e-07 75.3535 -1.09067e-16 -1.52424e-16 7.90844e-15
  7 383.077 -1.00250e-07 75.3535 -1.09067e-16 8.44391e-16 1.27193e-16
  8 383.077 -1.00250e-07 75.3535 -2.92243e-17 1.66503e-15 4.74689e-16
</Section>

newXOutput 6

<Section columns = "stress_xx | stress_yy | stress_zz | stress_xy | stress_yz | stress_xz">
  1 474.893 -9.87611e-08 93.9348 1.15624e-16 6.90357e-16 1.88506e-15
  2 474.893 -9.87611e-08 93.9348 3.09813e-17 -2.77100e-16 7.03516e-15
  3 474.893 -9.87611e-08 93.9348 4.31514e-16 1.29338e-15 -6.89981e-16
  4 474.893 -9.87611e-08 93.9348 1.15624e-16 6.13343e-16 -2.57505e-15
  5 474.893 -9.87611e-08 93.9348 4.31514e-16 1.11117e-15 2.57505e-15
  6 474.893 -9.87611e-08 93.9348 1.15624e-16 1.29338e-15 9.61020e-15
  7 474.893 -9.87611e-08 93.9348 1.61043e-15 1.71419e-15 1.88506e-15
  8 474.893 -9.87611e-08 93.9348 4.31514e-16 2.18383e-15 7.03516e-15
</Section>

newXOutput 7

<Section columns = "stress_xx | stress_yy | stress_zz | stress_xy | stress_yz | stress_xz">
  1 565.195 -9.72977e-08 112.415 1.06989e-15 1.70921e-15 -1.18650e-15
  2 565.195 -9.72977e-08 112.415 1.23734e-15 -1.37713e-15 -4.42808e-15
  3 565.195 -9.72977e-08 112.415 2.30648e-15 4.58975e-15 -4.42808e-15
  4 565.195 -9.72977e-08 112.415 2.93141e-15 -2.17394e-15 -1.65258e-14
  5 565.195 -9.72977e-08 112.415 -1.44310e-15 1.88686e-15 -1.18650e-15
  6 565.195 -9.72977e-08 112.415 -8.18167e-16 -7.14147e-16 -4.42808e-15
  7 565.195 -9.72977e-08 112.415 -2.59035e-15 5.25274e-15 -4.42808e-15
  8 565.195 -9.72977e-08 112.415 -2.58084e-16 3.00363e-16 -1.65258e-14
</Section>

newXOutput 8

<Section columns = "stress_xx | stress_yy | stress_zz | stress_xy | stress_yz | stress_xz">
  1 654.014 -9.58735e-08 130.796 -4.91145e-34 2.64567e-16 -1.42168e-15
  2 654.014 -9.58735e-08 130.796 -1.44464e-33 1.27137e-16 -8.85813e-15
  3 654.014 -9.58735e-08 130.796 -1.31602e-34 -8.27768e-17 -1.24331e-15
  4 654.014 -9.58735e-08 130.796 -3.87091e-34 2.90154e-15 -5.59193e-15
  5 654.014 -9.58735e-08 130.796 -2.13667e-34 2.52681e-16 -2.10181e-15
  6 654.014 -9.58735e-08 130.796 -4.09080e-34 8.27768e-17 -1.13964e-14
  7 654.014 -9.58735e-08 130.796 -5.72519e-35 -7.00632e-16 -3.78158e-15
  8 654.014 -9.58735e-08 130.796 -1.09613e-34 5.95675e-16 -1.50649e-14
</Section>

newXOutput 9

<Section columns = "stress_xx | stress_yy | stress_zz | stress_xy | stress_yz | stress_xz">
  1 741.381 -9.44774e-08 149.077 5.99778e-17 4.56859e-17 3.44266e-15
  2 741.381 -9.44774e-08 149.077 2.23840e-16 2.36965e-16 1.28482e-14
  3 741.381 -9.44774e-08 149.077 2.23840e-16 -7.55203e-16 -2.27303e-15
  4 741.381 -9.44774e-08 149.077 8.35383e-16 6.36323e-16 -8.48307e-15
  5 741.381 -9.44774e-08 149.077 2.23840e-16 2.22920e-16 4.11795e-15
  6 741.381 -9.44774e-08 149.077 8.35383e-16 8.98410e-16 1.53684e-14
  7 741.381 -9.44774e-08 149.077 8.35383e-16 -9.37577e-17 2.47172e-16
  8 741.381 -9.44774e-08 149.077 3.11769e-15 3.10487e-15 9.22459e-16
</Section>

newXOutput 10

<Section columns = "stress_xx | stress_yy | stress_zz | stress_xy | stress_yz | stress_xz">
  1 827.326 -9.31050e-08 167.261 5.93364e-17 -6.63145e-15 -5.19314e-16
  2 827.326 -9.31050e-08 167.261 2.21447e-16 -6.64982e-15 -2.73132e-15
  3 827.326 -9.31050e-08 167.261 2.21447e-16 -1.16049e-14 -5.69161e-15
  4 827.326 -9.31050e-08 167.261 8.26450e-16 -1.09966e-14 -2.42017e-14
  5 827.326 -9.31050e-08 167.261 2.21447e-16 -6.45442e-15 1.44727e-15
  6 827.326 -9.31050e-08 167.261 8.26450e-16 -5.98914e-15 2.44098e-15
  7 827.326 -9.31050e-08 167.261 8.26450e-16 -1.09442e-14 1.64777e-15
  8 827.326 -9.31050e-08 167.261 3.08435e-15 -8.53090e-15 -4.89840e-15
</Section>

newXOutput 11

<Section columns = "stress_xx | stress_yy | stress_zz | stress_xy | stress_yz | stress_xz">
  1 911.880 -9.17571e-08 185.348 -2.00480e-16 2.12971e-15 -3.06124e-15
  2 911.880 -9.17571e-08 185.348 -4.00961e-17 1.28430e-15 -1.14247e-14
  3 911.880 -9.17571e-08 185.348 1.49641e-16 4.82542e-15 -3.97069e-15
  4 911.880 -9.17571e-08 185.348 7.48203e-16 5.93606e-15 -1.48188e-14
  5 911.880 -9.17571e-08 185.348 -7.48203e-16 2.63649e-15 -2.39547e-15
  6 911.880 -9.17571e-08 185.348 -1.49641e-16 3.17563e-15 -8.94003e-15
  7 911.880 -9.17571e-08 185.348 5.58467e-16 5.57375e-15 -1.48602e-15
  8 911.880 -9.17571e-08 185.348 2.79233e-15 8.72886e-15 -5.54591e-15
</Section>

newXOutput 12

<Section columns = "stress_xx | stress_yy | stress_zz | stress_xy | stress_yz | stress_xz">
  1 995.071 -9.04420e-08 203.339 -1.16165e-16 1.13577e-15 -2.76374e-15
  2 995.071 -9.04420e-08 203.339 -4.33535e-16 4.16303e-16 -1.72202e-14
  3 995.071 -9.04420e-08 203.339 -4.33535e-16 3.95335e-15 -2.41698e-15
  4 995.071 -9.04420e-08 203.339 -1.61797e-15 6.87972e-15 -1.08707e-14
  5 995.071 -9.04420e-08 203.339 -4.33535e-16 1.11211e-15 -4.08590e-15
  6 995.071 -9.04420e-08 203.339 -1.61797e-15 3.27993e-16 -2.21546e-14
  7 995.071 -9.04420e-08 203.339 -1.61797e-15 2.72335e-15 -7.35139e-15
  8 995.071 -9.04420e-08 203.339 -6.03836e-15 2.28930e-15 -2.92861e-14
</Section>

newXOutput 13

<Section columns = "stress_xx | stress_yy | stress_zz | stress_xy | stress_yz | stress_xz">
  1 1076.93 -8.91469e-08 221.235 -3.05381e-34 4.68466e-17 -2.90850e-15
  2 1076.93 -8.91469e-08 221.235 2.16365e-33 4.25211e-17 -9.79382e-15
  3 1076.93 -8.91469e-08 221.235 2.97388e-34 2.43512e-15 3.35255e-15
  4 1076.93 -8.91469e-08 221.235 1.08263e-32 2.21028e-15 -7.28382e-15
  5 1076.93 -8.91469e-08 221.235 2.00432e-33 7.04821e-17 -5.44637e-15
  6 1076.93 -8.91469e-08 221.235 8.91730e-33 1.30730e-16 -1.50219e-14
  7 1076.93 -8.91469e-08 221.235 1.07836e-32 3.66371e-15 -6.11893e-15
  8 1076.93 -8.91469e-08 221.235 4.29962e-32 6.79543e-15 -2.67953e-14
</Section>

newXOutput 14

<Section columns = "stress_xx | stress_yy | stress_zz | stress_xy | stress_yz | stress_xz">
  1 1157.47 -8.78854e-08 239.036 1.47278e-15 -1.68226e-15 -1.73103e-16
  2 1157.47 -8.78854e-08 239.036 1.47278e-15 1.21696e-15 -8.99802e-15
  3 1157.47 -8.78854e-08 239.036 2.13408e-15 -7.55975e-16 -1.57119e-16
  4 1157.47 -8.78854e-08 239.036 2.13408e-15 6.02145e-15 -8.16718e-15
  5 1157.47 -8.78854e-08 239.036 2.13408e-15 -2.03469e-15 -2.60438e-16
  6 1157.47 -8.78854e-08 239.036 2.13408e-15 -9.83304e-17 -1.35378e-14
  7 1157.47 -8.78854e-08 239.036 1.03791e-15 -2.07126e-15 -4.83059e-16
  8 1157.47 -8.78854e-08 239.036 1.03791e-15 1.11273e-15 -2.51098e-14
</Section>

newXOutput 15

<Section columns = "stress_xx | stress_yy | stress_zz | stress_xy | stress_yz | stress_xz">
  1 1236.74 -8.66430e-08 256.745 3.61052e-33 -1.71845e-15 -2.10234e-15
  2 1236.74 -8.66430e-08 256.745 1.49651e-32 -7.65323e-16 -1.08369e-15
  3 1236.74 -8.66430e-08 256.745 1.17702e-32 -7.65323e-16 -8.33155e-15
  4 1236.74 -8.66430e-08 256.745 4.43262e-32 5.48380e-15 -2.92818e-14
  5 1236.74 -8.66430e-08 256.745 1.32764e-33 -2.07048e-15 -2.10234e-15
  6 1236.74 -8.66430e-08 256.745 6.44526e-33 -2.07911e-15 -1.08369e-15
  7 1236.74 -8.66430e-08 256.745 3.25032e-33 -2.07911e-15 -8.33155e-15
  8 1236.74 -8.66430e-08 256.745 1.25297e-32 5.80677e-16 -2.92818e-14
</Section>

newXOutput 16

<Section columns = "stress_xx | stress_yy | stress_zz | stress_xy | stress_yz | stress_xz">
  1 1314.75 -8.54216e-08 274.361 8.55540e-34 4.04203e-16 2.78373e-16
  2 1314.75 -8.54216e-08 274.361 2.29241e-34 1.77223e-15 1.44701e-14
  3 1314.75 -8.54216e-08 274.361 2.29241e-34 -2.16465e-15 7.45899e-17
  4 1314.75 -8.54216e-08 274.361 6.14250e-35 5.62982e-15 3.87724e-15
  5 1314.75 -8.54216e-08 274.361 8.55540e-34 5.25750e-17 2.78373e-16
  6 1314.75 -8.54216e-08 274.361 2.29241e-34 4.59933e-16 1.44701e-14
  7 1314.75 -8.54216e-08 274.361 2.29241e-34 -3.47694e-15 7.45899e-17
  8 1314.75 -8.54216e-08 274.361 6.14250e-35 7.32276e-16 3.87724e-15
</Section>

newXOutput 17

<Section columns = "stress_xx | stress_yy | stress_zz | stress_xy | stress_yz | stress_xz">
  1 1391.53 -8.42228e-08 291.885 -3.83786e-16 6.96153e-16 6.50971e-15
  2 1391.53 -8.42228e-08 291.885 -1.02835e-16 6.31874e-16 2.42946e-14
  3 1391.53 -8.42228e-08 291.885 -1.02835e-16 2.59808e-15 -4.29806e-15
  4 1391.53 -8.42228e-08 291.885 -2.75546e-17 2.35818e-15 -1.60406e-14
  5 1391.53 -8.42228e-08 291.885 -1.43231e-15 1.04738e-15 7.78660e-15
  6 1391.53 -8.42228e-08 291.885 -3.83786e-16 1.94268e-15 2.90600e-14
  7 1391.53 -8.42228e-08 291.885 -3.83786e-16 3.90888e-15 4.67376e-16
  8 1391.53 -8.42228e-08 291.885 -1.02835e-16 7.25017e-15 1.74427e-15
</Section>

newXOutput 18

<Section columns = "stress_xx | stress_yy | stress_zz | stress_xy | stress_yz | stress_xz">
  1 1467.11 -8.30541e-08 309.319 3.05322e-16 2.31439e-15 -1.02566e-14
  2 1467.11 -8.30541e-08 309.319 -2.70745e-16 1.17618e-15 -3.16544e-14
  3 1467.11 -8.30541e-08 309.319 1.49204e-15 4.68911e-15 -1.03571e-14
  4 1467.11 -8.30541e-08 309.319 3.05322e-16 8.69732e-15 -3.68783e-14
  5 1467.11 -8.30541e-08 309.319 1.13948e-15 2.64172e-15 -1.02566e-14
  6 1467.11 -8.30541e-08 309.319 -1.01043e-15 2.39780e-15 -3.16544e-14
  7 1467.11 -8.30541e-08 309.319 5.56835e-15 4.77681e-15 -1.03571e-14
  8 1467.11 -8.30541e-08 309.319 1.13948e-15 9.02465e-15 -3.68783e-14
</Section>

newXOutput 19

<Section columns = "stress_xx | stress_yy | stress_zz | stress_xy | stress_yz | stress_xz">
  1 1541.51 -8.19027e-08 326.663 4.49134e-15 -1.20850e-15 -1.00501e-14
  2 1541.51 -8.19027e-08 326.663 3.90143e-15 -4.24734e-15 -2.43510e-14
  3 1541.51 -8.19027e-08 326.663 1.05996e-14 -4.24734e-15 -1.02498e-14
  4 1541.51 -8.19027e-08 326.663 8.39807e-15 -2.18938e-15 -3.47273e-14
  5 1541.51 -8.19027e-08 326.663 3.99493e-15 -1.20850e-15 -1.00501e-14
  6 1541.51 -8.19027e-08 326.663 1.79336e-15 -4.24734e-15 -2.43510e-14
  7 1541.51 -8.19027e-08 326.663 1.32581e-14 -4.24734e-15 -1.02498e-14
  8 1541.51 -8.19027e-08 326.663 5.04174e-15 -2.18938e-15 -3.47273e-14
</Section>

newXOutput 20

<Section columns = "stress_xx | stress_yy | stress_zz | stress_xy | stress_yz | stress_xz">
  1 1614.74 -8.07759e-08 343.919 -1.20805e-32 -6.62753e-15 -1.11683e-14
  2 1614.74 -8.07759e-08 343.919 -4.50851e-32 -7.49206e-15 -4.16807e-14
  3 1614.74 -8.07759e-08 343.919 -3.26676e-32 -1.72898e-14 -1.36701e-14
  4 1614.74 -8.07759e-08 343.919 -1.21917e-31 -1.91779e-14 -5.10175e-14
  5 1614.74 -8.07759e-08 343.919 -1.42987e-32 -6.27749e-15 -1.36701e-14
  6 1614.74 -8.07759e-08 343.919 -5.33634e-32 -6.18569e-15 -5.10175e-14
  7 1614.74 -8.07759e-08 343.919 -4.09459e-32 -1.59835e-14 -2.30070e-14
  8 1614.74 -8.07759e-08 343.919 -1.52812e-31 -1.43025e-14 -8.58632e-14
</Section>

newXOutput 21

<Section columns = "stress_xx | stress_yy | stress_zz | stress_xy | stress_yz | stress_xz">
  1 1686.85 -7.96690e-08 361.086 4.00542e-15 -1.81453e-15 -3.29919e-16
  2 1686.85 -7.96690e-08 361.086 3.71645e-15 -4.81456e-15 -1.71494e-14
  3 1686.85 -7.96690e-08 361.086 8.91126e-15 -2.44356e-15 -2.99456e-16
  4 1686.85 -7.96690e-08 361.086 7.83282e-15 -1.81453e-15 -1.55659e-14
  5 1686.85 -7.96690e-08 361.086 2.44065e-15 -2.14076e-15 -4.96372e-16
  6 1686.85 -7.96690e-08 361.086 1.36221e-15 -6.03205e-15 -2.58018e-14
  7 1686.85 -7.96690e-08 361.086 7.49097e-15 -2.53097e-15 -9.20668e-16
  8 1686.85 -7.96690e-08 361.086 3.46620e-15 -2.14076e-15 -4.78570e-14
</Section>

newXOutput 22

<Section columns = "stress_xx | stress_yy | stress_zz | stress_xy | stress_yz | stress_xz">
  1 1757.84 -7.85794e-08 378.166 3.80263e-15 -2.67624e-15 1.29514e-14
  2 1757.84 -7.85794e-08 378.166 4.08867e-15 -2.42913e-15 8.73714e-15
  3 1757.84 -7.85794e-08 378.166 1.41916e-14 -5.51312e-15 8.73714e-15
  4 1757.84 -7.85794e-08 378.166 1.52591e-14 -5.00406e-15 -2.58645e-14
  5 1757.84 -7.85794e-08 378.166 1.38159e-15 -4.02648e-15 1.78876e-14
  6 1757.84 -7.85794e-08 378.166 2.44909e-15 -7.46829e-15 2.71591e-14
  7 1757.84 -7.85794e-08 378.166 5.15617e-15 -8.29464e-15 2.71591e-14
  8 1757.84 -7.85794e-08 378.166 9.14014e-15 -1.53848e-14 4.28871e-14
</Section>

newXOutput 23

<Section columns = "stress_xx | stress_yy | stress_zz | stress_xy | stress_yz | stress_xz">
  1 1827.74 -7.75171e-08 395.159 -3.07094e-15 -6.67813e-15 -4.59357e-15
  2 1827.74 -7.75171e-08 395.159 -2.78779e-15 -9.82253e-15 -4.33919e-15
  3 1827.74 -7.75171e-08 395.159 -5.33291e-15 -1.29031e-14 -4.33919e-15
  4 1827.74 -7.75171e-08 395.159 -4.27618e-15 -1.70473e-14 -1.27632e-14
  5 1827.74 -7.75171e-08 395.159 -5.33291e-15 -6.63139e-15 -7.04505e-15
  6 1827.74 -7.75171e-08 395.159 -4.27618e-15 -9.64809e-15 -1.34882e-14
  7 1827.74 -7.75171e-08 395.159 -7.27888e-15 -1.04735e-14 -1.34882e-14
  8 1827.74 -7.75171e-08 395.159 -3.33512e-15 -7.98013e-15 -4.69079e-14
</Section>

newXOutput 24

<Section columns = "stress_xx | stress_yy | stress_zz | stress_xy | stress_yz | stress_xz">
  1 1896.57 -7.64740e-08 412.066 3.99261e-33 -7.95751e-16 -3.23308e-16
  2 1896.57 -7.64740e-08 412.066 1.20689e-32 6.70488e-16 -1.68058e-14
  3 1896.57 -7.64740e-08 412.066 1.20689e-32 6.70488e-16 -2.93456e-16
  4 1896.57 -7.64740e-08 412.066 4.42828e-32 3.47770e-15 -1.52540e-14
  5 1896.57 -7.64740e-08 412.066 1.26673e-32 -9.87918e-17 -4.86426e-16
  6 1896.57 -7.64740e-08 412.066 4.44432e-32 3.27158e-15 -2.52848e-14
  7 1896.57 -7.64740e-08 412.066 4.44432e-32 3.27158e-15 -9.02220e-16
  8 1896.57 -7.64740e-08 412.066 1.65105e-31 1.31851e-14 -4.68981e-14
</Section>

newXOutput 25

<Section columns = "stress_xx | stress_yy | stress_zz | stress_xy | stress_yz | stress_xz">
  1 1964.36 -7.54444e-08 428.889 -2.74862e-33 1.12506e-15 -3.60651e-15
  2 1964.36 -7.54444e-08 428.889 -7.36490e-34 3.01458e-16 1.12839e-15
  3 1964.36 -7.54444e-08 428.889 -1.02580e-32 4.19876e-15 -1.73310e-15
  4 1964.36 -7.54444e-08 428.889 -2.74862e-33 1.12506e-15 -3.95530e-14
  5 1964.36 -7.54444e-08 428.889 -7.36490e-34 1.12506e-15 -3.44448e-15
  6 1964.36 -7.54444e-08 428.889 -1.97342e-34 3.01458e-16 9.55082e-15
  7 1964.36 -7.54444e-08 428.889 -2.74862e-33 4.19876e-15 -1.12839e-15
  8 1964.36 -7.54444e-08 428.889 -7.36490e-34 1.12506e-15 -8.12008e-15
</Section>

newXOutput 26

<Section columns = "stress_xx | stress_yy | stress_zz | stress_xy | stress_yz | stress_xz">
  1 2031.11 -7.44385e-08 445.628 -7.09981e-34 1.54056e-15 -8.94558e-15
  2 2031.11 -7.44385e-08 445.628 1.21821e-33 -1.77576e-15 -1.88942e-14
  3 2031.11 -7.44385e-08 445.628 1.21821e-33 5.18754e-15 5.16473e-15
  4 2031.11 -7.44385e-08 445.628 3.83833e-32 3.85806e-15 -1.35901e-14
  5 2031.11 -7.44385e-08 445.628 1.18705e-32 2.88481e-15 -1.35901e-14
  6 2031.11 -7.44385e-08 445.628 4.12376e-32 3.24104e-15 -2.84621e-14
  7 2031.11 -7.44385e-08 445.628 4.12376e-32 7.95672e-15 -1.21689e-14
  8 2031.11 -7.44385e-08 445.628 1.61869e-31 1.41928e-14 -4.92977e-14
</Section>

newXOutput 27

<Section columns = "stress_xx | stress_yy | stress_zz | stress_xy | stress_yz | stress_xz">
  1 2096.86 -7.34481e-08 462.283 0.00000 1.37683e-15 7.71437e-15
  2 2096.86 -7.34481e-08 462.283 0.00000 1.24970e-15 2.87904e-14
  3 2096.86 -7.34481e-08 462.283 0.00000 5.13840e-15 2.06706e-15
  4 2096.86 -7.34481e-08 462.283 0.00000 4.66395e-15 7.71437e-15
  5 2096.86 -7.34481e-08 462.283 0.00000 2.07148e-15 7.71437e-15
  6 2096.86 -7.34481e-08 462.283 0.00000 3.84217e-15 2.87904e-14
  7 2096.86 -7.34481e-08 462.283 0.00000 7.73087e-15 2.06706e-15
  8 2096.86 -7.34481e-08 462.283 0.00000 1.43392e-14 7.71437e-15
</Section>

newXOutput 28

<Section columns = "stress_xx | stress_yy | stress_zz | stress_xy | stress_yz | stress_xz">
  1 2161.62 -7.24767e-08 478.855 -2.91611e-13 -6.03413e-15 1.73861e-15
  2 2161.62 -7.24767e-08 478.855 -2.92150e-13 -3.09758e-15 -8.70085e-15
  3 2161.62 -7.24767e-08 478.855 -5.80262e-13 -1.86353e-14 -1.91694e-14
  4 2161.62 -7.24767e-08 478.855 -5.82272e-13 2.93656e-15 -8.53280e-14
  5 2161.62 -7.24767e-08 478.855 -2.90790e-13 -7.42190e-15 8.69306e-15
  6 2161.62 -7.24767e-08 478.855 -2.92800e-13 -8.27681e-15 9.59001e-15
  7 2161.62 -7.24767e-08 478.855 -5.73078e-13 -2.38145e-14 6.78498e-15
  8 2161.62 -7.24767e-08 478.855 -5.80580e-13 -1.63926e-14 -1.70656e-14
</Section>

newXOutput 29

<Section columns = "stress_xx | stress_yy | stress_zz | stress_xy | stress_yz | stress_xz">
  1 2225.41 -7.15254e-08 495.346 -4.57007e-14 -3.68905e-15 7.10317e-15
  2 2225.41 -7.15254e-08 495.346 -4.57007e-14 -9.62765e-15 -1.12831e-14
  3 2225.41 -7.15254e-08 495.346 -9.41444e-14 -9.62765e-15 1.50897e-14
  4 2225.41 -7.15254e-08 495.346 -9.41444e-14 -7.93899e-15 5.09985e-16
  5 2225.41 -7.15254e-08 495.346 -4.93595e-14 -4.38218e-15 7.10317e-15
  6 2225.41 -7.15254e-08 495.346 -4.93595e-14 -1.22144e-14 -1.12831e-14
  7 2225.41 -7.15254e-08 495.346 -1.01682e-13 -1.22144e-14 1.50897e-14
  8 2225.41 -7.15254e-08 495.346 -1.01682e-13 -1.75930e-14 5.09985e-16
</Section>

newXOutput 30

<Section columns = "stress_xx | stress_yy | stress_zz | stress_xy | stress_yz | stress_xz">
  1 2288.25 -7.05859e-08 511.755 9.23958e-33 -1.45347e-15 -1.60014e-14
  2 2288.25 -7.05859e-08 511.755 3.72220e-32 2.06778e-15 -4.74955e-14
  3 2288.25 -7.05859e-08 511.755 4.21857e-32 -9.89063e-16 -2.12953e-14
  4 2288.25 -7.05859e-08 511.755 1.58173e-31 1.17429e-14 -7.62002e-14
  5 2288.25 -7.05859e-08 511.755 -3.06692e-33 -2.79182e-15 -1.83415e-14
  6 2288.25 -7.05859e-08 511.755 -8.70648e-33 -2.92702e-15 -5.62289e-14
  7 2288.25 -7.05859e-08 511.755 9.81849e-33 -3.74610e-15 -3.00287e-14
  8 2288.25 -7.05859e-08 511.755 3.73771e-32 1.45347e-15 -1.08794e-13
</Section>

newXOutput 31

<Section columns = "stress_xx | stress_yy | stress_zz | stress_xy | stress_yz | stress_xz">
  1 2350.16 -6.96655e-08 528.084 3.07581e-15 5.51343e-15 -7.76571e-15
  2 2350.16 -6.96655e-08 528.084 2.55285e-15 -2.39437e-15 -6.74354e-17
  3 2350.16 -6.96655e-08 528.084 8.94374e-15 2.08358e-14 -5.56809e-15
  4 2350.16 -6.96655e-08 528.084 6.99204e-15 4.54551e-15 -3.90621e-14
  5 2350.16 -6.96655e-08 528.084 -2.76648e-15 5.51343e-15 -9.77908e-15
  6 2350.16 -6.96655e-08 528.084 -4.71818e-15 -2.39437e-15 7.44660e-15
  7 2350.16 -6.96655e-08 528.084 -8.62628e-16 2.08358e-14 -1.30821e-14
  8 2350.16 -6.96655e-08 528.084 -8.14648e-15 4.54551e-15 -1.10194e-14
</Section>

newXOutput 32

<Section columns = "stress_xx | stress_yy | stress_zz | stress_xy | stress_yz | stress_xz">
  1 2411.15 -6.87642e-08 544.334 -3.72536e-33 -1.19123e-15 -1.44870e-14
  2 2411.15 -6.87642e-08 544.334 -9.98208e-34 -3.19190e-16 -1.97406e-14
  3 2411.15 -6.87642e-08 544.334 -1.93228e-32 -8.05415e-15 -1.70081e-14
  4 2411.15 -6.87642e-08 544.334 -5.17753e-33 -2.15810e-15 -1.89518e-14
  5 2411.15 -6.87642e-08 544.334 1.47079e-34 -1.19123e-15 -1.46418e-14
  6 2411.15 -6.87642e-08 544.334 3.94097e-35 -3.19190e-16 -2.77833e-14
  7 2411.15 -6.87642e-08 544.334 -4.87065e-33 -8.05415e-15 -1.75856e-14
  8 2411.15 -6.87642e-08 544.334 -1.30509e-33 -2.15810e-15 -4.89675e-14
</Section>

newXOutput 33

<Section columns = "stress_xx | stress_yy | stress_zz | stress_xy | stress_yz | stress_xz">
  1 2471.24 -6.78801e-08 560.504 -1.75146e-16 8.79557e-16 2.69695e-15
  2 2471.24 -6.78801e-08 560.504 -6.53654e-16 -5.80731e-16 -3.87392e-14
  3 2471.24 -6.78801e-08 560.504 -4.69302e-17 4.09896e-15 -1.99692e-16
  4 2471.24 -6.78801e-08 560.504 -1.75146e-16 8.79557e-16 -5.83240e-14
  5 2471.24 -6.78801e-08 560.504 -6.53654e-16 2.35677e-16 2.69695e-15
  6 2471.24 -6.78801e-08 560.504 -2.43947e-15 -2.98372e-15 -3.87392e-14
  7 2471.24 -6.78801e-08 560.504 -1.75146e-16 3.92643e-15 -1.99692e-16
  8 2471.24 -6.78801e-08 560.504 -6.53654e-16 2.35677e-16 -5.83240e-14
</Section>

newXOutput 34

<Section columns = "stress_xx | stress_yy | stress_zz | stress_xy | stress_yz | stress_xz">
  1 2530.45 -6.70061e-08 576.596 -3.28720e-15 -3.35362e-15 4.46320e-15
  2 2530.45 -6.70061e-08 576.596 -3.28720e-15 -5.57323e-15 1.39596e-14
  3 2530.45 -6.70061e-08 576.596 -6.77170e-15 2.96050e-15 3.89320e-15
  4 2530.45 -6.70061e-08 576.596 -6.77170e-15 -4.59298e-16 4.46320e-15
  5 2530.45 -6.70061e-08 576.596 -6.77170e-15 -3.99681e-15 6.59049e-15
  6 2530.45 -6.70061e-08 576.596 -6.77170e-15 -7.97362e-15 1.45296e-14
  7 2530.45 -6.70061e-08 576.596 -1.39499e-14 2.78816e-15 1.18323e-14
  8 2530.45 -6.70061e-08 576.596 -1.39499e-14 -1.10248e-15 6.59049e-15
</Section>

newXOutput 35

<Section columns = "stress_xx | stress_yy | stress_zz | stress_xy | stress_yz | stress_xz">
  1 2588.80 -6.61521e-08 592.610 3.56279e-14 4.34306e-14 3.36013e-15
  2 2588.80 -6.61521e-08 592.610 3.51249e-14 9.47622e-14 3.80351e-14
  3 2588.80 -6.61521e-08 592.610 7.30865e-14 9.47622e-14 -2.69013e-15
  4 2588.80 -6.61520e-08 592.610 7.12091e-14 2.02079e-13 -3.78555e-14
  5 2588.80 -6.61521e-08 592.610 7.30865e-14 4.27420e-14 1.24650e-15
  6 2588.80 -6.61520e-08 592.610 7.12091e-14 9.21923e-14 3.74687e-14
  7 2588.80 -6.61520e-08 592.610 1.49411e-13 9.21923e-14 -1.05783e-14
  8 2588.80 -6.61517e-08 592.610 1.42404e-13 1.92488e-13 -3.99692e-14
</Section>

newXOutput 36

<Section columns = "stress_xx | stress_yy | stress_zz | stress_xy | stress_yz | stress_xz">
  1 2646.30 -6.53117e-08 608.548 4.55917e-17 -3.20899e-15 -5.66219e-15
  2 2646.30 -6.53117e-08 608.548 1.22163e-17 -1.45556e-15 2.38146e-15
  3 2646.30 -6.53117e-08 608.548 2.36989e-15 6.24601e-15 -2.28198e-14
  4 2646.30 -6.53117e-08 608.548 6.35011e-16 1.27899e-14 -7.88642e-14
  5 2646.30 -6.53117e-08 608.548 1.70151e-16 -3.89687e-15 -1.16043e-15
  6 2646.30 -6.53117e-08 608.548 4.55917e-17 -4.02276e-15 1.91823e-14
  7 2646.30 -6.53117e-08 608.548 8.84456e-15 3.67882e-15 -6.01894e-15
  8 2646.30 -6.53117e-08 608.548 2.36989e-15 3.20899e-15 -1.61627e-14
</Section>

newXOutput 37

<Section columns = "stress_xx | stress_yy | stress_zz | stress_xy | stress_yz | stress_xz">
  1 2702.97 -6.44832e-08 624.409 -2.02794e-32 -7.71015e-15 -2.69373e-14
  2 2702.97 -6.44832e-08 624.409 -4.65340e-32 -6.72548e-15 -6.10337e-14
  3 2702.97 -6.44832e-08 624.409 7.62578e-33 -9.75924e-15 -1.62443e-14
  4 2702.97 -6.44832e-08 624.409 -8.96943e-33 -3.86350e-15 -7.50816e-14
  5 2702.97 -6.44832e-08 624.409 -3.34744e-32 -8.35126e-15 -3.33473e-14
  6 2702.97 -6.44832e-08 624.409 -6.96590e-32 -9.11813e-15 -7.04989e-14
  7 2702.97 -6.44832e-08 624.409 -2.20290e-32 -9.93102e-15 -4.01666e-14
  8 2702.97 -6.44832e-08 624.409 -2.21644e-32 -4.50461e-15 -1.10406e-13
</Section>

newXOutput 38

<Section columns = "stress_xx | stress_yy | stress_zz | stress_xy | stress_yz | stress_xz">
  1 2758.81 -6.36728e-08 640.194 1.78918e-16 4.76786e-15 -1.15130e-14
  2 2758.81 -6.36728e-08 640.194 6.67730e-16 6.26628e-15 -6.61820e-14
  3 2758.81 -6.36728e-08 640.194 6.67730e-16 1.77939e-14 -1.64189e-14
  4 2758.81 -6.36728e-08 640.194 2.49200e-15 2.33861e-14 -6.74965e-14
  5 2758.81 -6.36728e-08 640.194 6.67730e-16 5.45426e-15 -1.15130e-14
  6 2758.81 -6.36728e-08 640.194 2.49200e-15 8.82797e-15 -6.61820e-14
  7 2758.81 -6.36728e-08 640.194 2.49200e-15 2.03556e-14 -1.64189e-14
  8 2758.81 -6.36728e-08 640.194 9.30028e-15 3.29464e-14 -6.74965e-14
</Section>

newXOutput 39

<Section columns = "stress_xx | stress_yy | stress_zz | stress_xy | stress_yz | stress_xz">
  1 2813.86 -6.28752e-08 655.904 6.05012e-15 -3.96392e-15 -8.01949e-15
  2 2813.86 -6.28752e-08 655.904 6.05012e-15 -7.11668e-15 -5.82219e-14
  3 2813.86 -6.28752e-08 655.904 1.24634e-14 -8.73899e-15 -2.82729e-14
  4 2813.86 -6.28752e-08 655.904 1.24634e-14 -3.96392e-15 -1.31196e-13
  5 2813.86 -6.28752e-08 655.904 1.62112e-15 -2.68444e-15 2.72601e-15
  6 2813.86 -6.28752e-08 655.904 1.62112e-15 -2.34161e-15 -3.23936e-14
  7 2813.86 -6.28752e-08 655.904 3.33955e-15 -8.39616e-15 1.18298e-14
  8 2813.86 -6.28752e-08 655.904 3.33955e-15 -2.68444e-15 -3.48040e-14
</Section>

newXOutput 40

<Section columns = "stress_xx | stress_yy | stress_zz | stress_xy | stress_yz | stress_xz">
  1 2868.12 -6.20912e-08 671.540 2.16584e-15 6.64742e-15 2.96132e-14
  2 2868.12 -6.20912e-08 671.540 2.16584e-15 -9.18686e-15 4.01045e-14
  3 2868.12 -6.20912e-08 671.540 5.75769e-15 2.45119e-14 4.01045e-14
  4 2868.12 -6.20912e-08 671.540 5.75769e-15 -1.06071e-14 4.56980e-14
  5 2868.12 -6.20912e-08 671.540 -4.98258e-15 7.28648e-15 2.52245e-14
  6 2868.12 -6.20912e-08 671.540 -4.98258e-15 -6.80186e-15 2.37257e-14
  7 2868.12 -6.20912e-08 671.540 -9.91696e-15 2.46832e-14 2.37257e-14
  8 2868.12 -6.20912e-08 671.540 -9.91696e-15 -9.96806e-15 -1.54287e-14
</Section>

newXOutput 41

<Section columns = "stress_xx | stress_yy | stress_zz | stress_xy | stress_yz | stress_xz">
  1 2921.60 -6.13200e-08 687.103 -3.95142e-32 -1.55028e-14 -1.99067e-14
  2 2921.60 -6.13200e-08 687.103 -8.54752e-32 -2.10939e-14 -2.87359e-14
  3 2921.60 -6.13200e-08 687.103 -8.54752e-32 -2.27128e-14 -2.87359e-14
  4 2921.60 -6.13200e-08 687.103 -3.02387e-31 -2.18407e-14 -9.50370e-14
  5 2921.60 -6.13200e-08 687.103 -2.36886e-32 -1.35418e-14 -1.77262e-14
  6 2921.60 -6.13200e-08 687.103 -2.64134e-32 -1.37755e-14 -2.05979e-14
  7 2921.60 -6.13200e-08 687.103 -2.64134e-32 -1.98171e-14 -2.05979e-14
  8 2921.60 -6.13200e-08 687.103 -8.19649e-32 -1.10341e-14 -6.46656e-14
</Section>

newXOutput 42

<Section columns = "stress_xx | stress_yy | stress_zz | stress_xy | stress_yz | stress_xz">
  1 2974.32 -6.05614e-08 702.592 6.43006e-16 -2.18511e-14 7.25780e-17
  2 2974.32 -6.05614e-08 702.592 1.72293e-16 -1.52407e-14 3.77266e-15
  3 2974.32 -6.05614e-08 702.592 2.39973e-15 -3.81979e-14 -1.35432e-15
  4 2974.32 -6.05614e-08 702.592 6.43006e-16 -1.87542e-14 -7.03988e-14
  5 2974.32 -6.05614e-08 702.592 2.39973e-15 -2.32181e-14 3.62890e-16
  6 2974.32 -6.05614e-08 702.592 6.43006e-16 -2.03423e-14 1.88633e-14
  7 2974.32 -6.05614e-08 702.592 8.95591e-15 -4.32995e-14 -2.70865e-16
  8 2974.32 -6.05614e-08 702.592 2.39973e-15 -3.77936e-14 -1.40798e-14
</Section>

newXOutput 43

<Section columns = "stress_xx | stress_yy | stress_zz | stress_xy | stress_yz | stress_xz">
  1 3026.30 -5.98220e-08 718.009 -3.08418e-15 -7.12001e-15 -8.53631e-15
  2 3026.30 -5.98220e-08 718.009 -3.55052e-15 -7.46139e-15 -3.18580e-14
  3 3026.30 -5.98220e-08 718.009 -4.02829e-15 -2.27501e-14 -7.74811e-15
  4 3026.30 -5.98220e-08 718.009 -5.76868e-15 -1.35818e-14 -2.89164e-14
  5 3026.30 -5.98220e-08 718.009 -4.02829e-15 -8.48554e-15 -1.28431e-14
  6 3026.30 -5.98220e-08 718.009 -5.76868e-15 -1.25576e-14 -4.79312e-14
  7 3026.30 -5.98220e-08 718.009 -3.98561e-15 -2.78463e-14 -2.38213e-14
  8 3026.30 -5.98220e-08 718.009 -1.04809e-14 -3.26011e-14 -8.89025e-14
</Section>

newXOutput 44

<Section columns = "stress_xx | stress_yy | stress_zz | stress_xy | stress_yz | stress_xz">
  1 3077.55 -5.90881e-08 733.354 -8.00241e-16 1.27271e-15 4.28005e-15
  2 3077.55 -5.90881e-08 733.354 -8.00241e-16 -2.88645e-15 1.59734e-14
  3 3077.55 -5.90881e-08 733.354 -2.98654e-15 4.74983e-15 1.59734e-14
  4 3077.55 -5.90881e-08 733.354 -2.98654e-15 -1.07724e-14 5.96134e-14
  5 3077.55 -5.90881e-08 733.354 -2.98654e-15 1.95476e-15 -4.28005e-15
  6 3077.55 -5.90881e-08 733.354 -2.98654e-15 -3.41022e-16 -1.59734e-14
  7 3077.55 -5.90881e-08 733.354 -1.11459e-14 7.29525e-15 -1.59734e-14
  8 3077.55 -5.90881e-08 733.354 -1.11459e-14 -1.27271e-15 -5.96134e-14
</Section>

newXOutput 45

<Section columns = "stress_xx | stress_yy | stress_zz | stress_xy | stress_yz | stress_xz">
  1 3128.08 -5.83677e-08 748.627 1.67551e-16 -8.14983e-15 8.92938e-15
  2 3128.08 -5.83677e-08 748.627 6.25310e-16 -1.46481e-14 6.07630e-15
  3 3128.08 -5.83677e-08 748.627 6.25310e-16 -3.15166e-14 -1.27034e-14
  4 3128.08 -5.83677e-08 748.627 2.33369e-15 -3.41217e-14 -7.21423e-14
  5 3128.08 -5.83677e-08 748.627 6.25310e-16 -5.51580e-15 1.71515e-14
  6 3128.08 -5.83677e-08 748.627 2.33369e-15 -4.81777e-15 2.30141e-14
  7 3128.08 -5.83677e-08 748.627 2.33369e-15 -2.60905e-14 1.79821e-14
  8 3128.08 -5.83677e-08 748.627 8.70944e-15 -1.38710e-14 -8.92938e-15
</Section>

newXOutput 46

<Section columns = "stress_xx | stress_yy | stress_zz | stress_xy | stress_yz | stress_xz">
  1 3177.90 -5.76611e-08 763.830 -2.15329e-15 -1.39460e-15 -1.71822e-14
  2 3177.90 -5.76611e-08 763.830 -2.15329e-15 -1.28250e-14 -3.36287e-14
  3 3177.90 -5.76611e-08 763.830 -3.29829e-15 8.05174e-16 3.69889e-15
  4 3177.90 -5.76611e-08 763.830 -3.29829e-15 -2.54342e-14 -2.53537e-14
  5 3177.90 -5.76611e-08 763.830 -3.29829e-15 1.23667e-15 -2.92978e-14
  6 3177.90 -5.76611e-08 763.830 -3.29829e-15 -3.00495e-15 -5.15189e-14
  7 3177.90 -5.76611e-08 763.830 -1.10399e-14 6.22564e-15 -4.15170e-14
  8 3177.90 -5.76611e-08 763.830 -1.10399e-14 -5.20472e-15 -9.21207e-14
</Section>

newXOutput 47

<Section columns = "stress_xx | stress_yy | stress_zz | stress_xy | stress_yz | stress_xz">
  1 3227.02 -5.69671e-08 778.963 1.64493e-16 6.44925e-16 1.41040e-14
  2 3227.02 -5.69671e-08 778.963 6.13895e-16 1.89697e-15 3.77916e-15
  3 3227.02 -5.69671e-08 778.963 6.13895e-16 9.50924e-15 8.74937e-15
  4 3227.02 -5.69671e-08 778.963 2.29109e-15 8.98264e-15 2.34439e-15
  5 3227.02 -5.69671e-08 778.963 6.13895e-16 2.00473e-15 1.80239e-14
  6 3227.02 -5.69671e-08 778.963 2.29109e-15 6.97182e-15 4.82949e-15
  7 3227.02 -5.69671e-08 778.963 2.29109e-15 1.45841e-14 2.33786e-14
  8 3227.02 -5.69671e-08 778.963 8.55046e-15 2.79222e-14 6.26427e-15
</Section>

newXOutput 48

<Section columns = "stress_xx | stress_yy | stress_zz | stress_xy | stress_yz | stress_xz">
  1 3275.47 -5.62849e-08 794.027 4.62376e-14 6.64265e-14 -5.25192e-15
  2 3275.47 -5.62845e-08 794.027 4.71282e-14 1.29804e-13 2.20891e-15
  3 3275.47 -5.62849e-08 794.027 9.08099e-14 1.45012e-13 -2.11663e-14
  4 3275.47 -5.62845e-08 794.027 9.41338e-14 2.72468e-13 -7.31499e-14
  5 3275.47 -5.62845e-08 794.027 9.08099e-14 6.77849e-14 -1.07635e-15
  6 3275.47 -5.62833e-08 794.027 9.41338e-14 1.34873e-13 1.77924e-14
  7 3275.47 -5.62845e-08 794.027 1.78834e-13 1.50082e-13 -5.58283e-15
  8 3275.47 -5.62833e-08 794.027 1.91239e-13 2.91388e-13 -1.49916e-14
</Section>

newXOutput 49

<Section columns = "stress_xx | stress_yy | stress_zz | stress_xy | stress_yz | stress_xz">
  1 3323.24 -5.56083e-08 809.021 -1.45986e-14 -1.97799e-14 -8.81394e-15
  2 3323.24 -5.56083e-08 809.021 -1.54811e-14 -4.39427e-14 -1.12179e-14
  3 3323.24 -5.56083e-08 809.021 -3.04423e-14 -3.79516e-14 1.20146e-14
  4 3323.24 -5.56083e-08 809.021 -3.37359e-14 -5.46877e-14 5.06473e-14
  5 3323.24 -5.56083e-08 809.021 -3.04423e-14 -1.98708e-14 -1.71141e-14
  6 3323.24 -5.56083e-08 809.021 -3.37359e-14 -4.42820e-14 -4.21945e-14
  7 3323.24 -5.56083e-08 809.021 -5.58280e-14 -4.26767e-14 -1.89620e-14
  8 3323.24 -5.56083e-08 809.021 -6.81199e-14 -7.23217e-14 -6.49592e-14
</Section>

newXOutput 50

<Section columns = "stress_xx | stress_yy | stress_zz | stress_xy | stress_yz | stress_xz">
  1 3370.36 -5.49480e-08 823.947 3.20104e-16 3.19512e-15 -7.14443e-15
  2 3370.36 -5.49480e-08 823.947 1.19464e-15 -9.82455e-15 -2.66634e-14
  3 3370.36 -5.49480e-08 823.947 1.19464e-15 3.74886e-15 -2.66634e-14
  4 3370.36 -5.49480e-08 823.947 4.45847e-15 -1.81241e-14 -9.95091e-14
  5 3370.36 -5.49480e-08 823.947 1.19464e-15 7.17100e-15 -7.14443e-15
  6 3370.36 -5.49480e-08 823.947 4.45847e-15 5.01361e-15 -2.66634e-14
  7 3370.36 -5.49480e-08 823.947 4.45847e-15 1.42058e-14 -2.66634e-14
  8 3370.36 -5.49480e-08 823.947 1.66393e-14 2.09017e-14 -9.95091e-14
</Section>

newXOutput 51

<Section columns = "stress_xx | stress_yy | stress_zz | stress_xy | stress_yz | stress_xz">
  1 3416.84 -5.43005e-08 838.806 -4.42503e-15 -2.38030e-15 1.02496e-15
  2 3416.84 -5.43005e-08 838.806 -5.29169e-15 -1.81053e-15 3.82520e-15
  3 3416.84 -5.43005e-08 838.806 -7.13619e-15 5.77013e-15 -1.91260e-14
  4 3416.84 -5.43005e-08 838.806 -1.03706e-14 2.34296e-14 -7.13791e-14
  5 3416.84 -5.43005e-08 838.806 -7.13619e-15 -3.73445e-15 5.12479e-15
  6 3416.84 -5.43005e-08 838.806 -1.03706e-14 -6.86431e-15 1.91260e-14
  7 3416.84 -5.43005e-08 838.806 -7.31320e-15 7.16357e-16 -3.82520e-15
  8 3416.84 -5.43005e-08 838.806 -1.93842e-14 4.56865e-15 -1.42758e-14
</Section>

newXOutput 52

<Section columns = "stress_xx | stress_yy | stress_zz | stress_xy | stress_yz | stress_xz">
  1 3462.67 -5.36584e-08 853.597 5.10852e-33 1.79608e-16 7.60418e-15
  2 3462.67 -5.36584e-08 853.597 1.90652e-32 1.63024e-16 2.83792e-14
  3 3462.67 -5.36584e-08 853.597 1.36882e-33 9.33619e-15 -1.72459e-14
  4 3462.67 -5.36584e-08 853.597 5.10852e-33 8.47413e-15 -6.43625e-14
  5 3462.67 -5.36584e-08 853.597 1.90652e-32 2.70226e-16 1.16792e-14
  6 3462.67 -5.36584e-08 853.597 7.11525e-32 5.01213e-16 4.35875e-14
  7 3462.67 -5.36584e-08 853.597 5.10852e-33 1.40466e-14 -2.03753e-15
  8 3462.67 -5.36584e-08 853.597 1.90652e-32 2.60535e-14 -7.60418e-15
</Section>

newXOutput 53

<Section columns = "stress_xx | stress_yy | stress_zz | stress_xy | stress_yz | stress_xz">
  1 3507.89 -5.30281e-08 868.321 -3.11560e-16 -1.28331e-14 -5.37798e-16
  2 3507.89 -5.30281e-08 868.321 -1.16276e-15 -1.26023e-14 -2.79552e-14
  3 3507.89 -5.30281e-08 868.321 -1.16276e-15 -3.43861e-15 -4.88141e-16
  4 3507.89 -5.30281e-08 868.321 -4.33947e-15 -3.37678e-15 -2.53739e-14
  5 3507.89 -5.30281e-08 868.321 -1.16276e-15 -1.40939e-14 -8.09132e-16
  6 3507.89 -5.30281e-08 868.321 -4.33947e-15 -1.73078e-14 -4.20593e-14
  7 3507.89 -5.30281e-08 868.321 -4.33947e-15 -3.77645e-15 -1.50077e-15
  8 3507.89 -5.30281e-08 868.321 -1.61951e-14 -4.63762e-15 -7.80113e-14
</Section>

newXOutput 54

<Section columns = "stress_xx | stress_yy | stress_zz | stress_xy | stress_yz | stress_xz">
  1 3552.49 -5.24087e-08 882.980 5.24283e-32 -3.37493e-16 1.96543e-14
  2 3552.49 -5.24087e-08 882.980 1.54211e-31 6.29771e-15 8.75318e-15
  3 3552.49 -5.24087e-08 882.980 1.95665e-31 -1.25954e-15 8.75318e-15
  4 3552.49 -5.24087e-08 882.980 5.75525e-31 2.35034e-14 -6.27195e-14
  5 3552.49 -5.24087e-08 882.980 2.28083e-32 -1.68747e-15 2.36805e-14
  6 3552.49 -5.24087e-08 882.980 4.36681e-32 1.25954e-15 2.37793e-14
  7 3552.49 -5.24087e-08 882.980 8.51218e-32 -6.29771e-15 2.37793e-14
  8 3552.49 -5.24087e-08 882.980 1.62972e-31 4.70067e-15 -6.64134e-15
</Section>

newXOutput 55

<Section columns = "stress_xx | stress_yy | stress_zz | stress_xy | stress_yz | stress_xz">
  1 3596.49 -5.18007e-08 897.572 3.06043e-16 -2.10515e-14 -4.60055e-15
  2 3596.49 -5.18007e-08 897.572 1.14217e-15 -2.72359e-14 2.46376e-14
  3 3596.49 -5.18008e-08 897.572 1.14217e-15 -4.39302e-14 -2.01711e-14
  4 3596.49 -5.18008e-08 897.572 4.26263e-15 -4.55873e-14 -6.40774e-14
  5 3596.49 -5.18019e-08 897.572 1.14217e-15 -1.97932e-14 -5.98398e-16
  6 3596.49 -5.18019e-08 897.572 4.26263e-15 -2.25400e-14 3.95739e-14
  7 3596.49 -5.18023e-08 897.572 4.26263e-15 -4.35931e-14 -5.23487e-15
  8 3596.49 -5.18023e-08 897.572 1.59084e-14 -4.43291e-14 -8.33462e-15
</Section>

newXOutput 56

<Section columns = "stress_xx | stress_yy | stress_zz | stress_xy | stress_yz | stress_xz">
  1 3639.89 -5.12027e-08 912.100 1.42385e-31 6.40204e-14 -1.42476e-14
  2 3639.89 -5.12027e-08 912.100 8.56471e-31 7.05188e-14 -4.99583e-14
  3 3639.89 -5.12027e-08 912.100 3.21193e-31 1.47530e-13 -1.01230e-14
  4 3639.89 -5.12027e-08 912.100 2.74357e-30 1.65834e-13 -9.77634e-14
  5 3639.89 -5.12027e-08 912.100 2.24474e-31 6.27635e-14 -1.79594e-14
  6 3639.89 -5.12027e-08 912.100 8.54769e-31 6.58277e-14 -5.09529e-14
  7 3639.89 -5.12027e-08 912.100 6.51249e-31 1.47193e-13 -2.39757e-14
  8 3639.89 -5.12027e-08 912.100 2.82566e-30 1.64577e-13 -1.01475e-13
</Section>

newXOutput 57

<Section columns = "stress_xx | stress_yy | stress_zz | stress_xy | stress_yz | stress_xz">
  1 3682.72 -5.06116e-08 926.563 2.14465e-32 2.94271e-14 6.02898e-15
  2 3682.72 -5.06116e-08 926.563 2.08885e-31 3.75110e-14 5.04031e-15
  3 3682.72 -5.06116e-08 926.563 1.53093e-31 5.41713e-14 3.61878e-16
  4 3682.72 -5.06116e-08 926.563 1.05221e-30 7.83986e-14 -6.38117e-14
  5 3682.72 -5.06116e-08 926.563 -2.88441e-33 2.81715e-14 6.29390e-15
  6 3682.72 -5.06116e-08 926.563 2.37592e-32 3.28247e-14 1.88107e-14
  7 3682.72 -5.06116e-08 926.563 3.87085e-32 5.38348e-14 1.35055e-15
  8 3682.72 -5.06116e-08 926.563 2.73307e-31 7.71429e-14 -1.24198e-14
</Section>

newXOutput 58

<Section columns = "stress_xx | stress_yy | stress_zz | stress_xy | stress_yz | stress_xz">
  1 3724.97 -5.00277e-08 940.962 6.02289e-15 -6.67566e-15 -1.41450e-14
  2 3724.97 -5.00277e-08 940.962 5.20867e-15 -2.83888e-15 -5.27899e-14
  3 3724.97 -5.00277e-08 940.962 5.46676e-15 -8.77477e-15 -8.77480e-15
  4 3724.97 -5.00277e-08 940.962 2.42805e-15 2.53115e-14 -3.27480e-14
  5 3724.97 -5.00277e-08 940.962 5.46676e-15 -7.93006e-15 -1.80763e-14
  6 3724.97 -5.00277e-08 940.962 2.42805e-15 -7.52037e-15 -6.74616e-14
  7 3724.97 -5.00277e-08 940.962 1.58442e-14 -9.11088e-15 -2.34465e-14
  8 3724.97 -5.00277e-08 940.962 4.50353e-15 2.40571e-14 -8.75036e-14
</Section>

newXOutput 59

<Section columns = "stress_xx | stress_yy | stress_zz | stress_xy | stress_yz | stress_xz">
  1 3766.66 -4.94605e-08 955.297 9.60081e-33 2.65703e-14 -5.18885e-16
  2 3766.66 -4.94605e-08 955.297 1.24845e-31 2.59887e-14 -2.69720e-14
  3 3766.66 -4.94601e-08 955.297 2.45749e-32 6.19936e-14 -4.70974e-16
  4 3766.66 -4.94601e-08 955.297 2.93205e-31 5.54821e-14 -2.44816e-14
  5 3766.66 -4.94596e-08 955.297 3.36941e-32 2.91665e-14 -7.80677e-16
  6 3766.66 -4.94596e-08 955.297 3.54862e-31 3.56779e-14 -4.05802e-14
  7 3766.66 -4.94595e-08 955.297 9.11421e-32 6.73418e-14 -1.44799e-15
  8 3766.66 -4.94595e-08 955.297 1.06450e-30 7.54422e-14 -7.52679e-14
</Section>

newXOutput 60

<Section columns = "stress_xx | stress_yy | stress_zz | stress_xy | stress_yz | stress_xz">
  1 3807.80 -4.88944e-08 969.569 1.01492e-31 -6.82542e-14 1.34631e-14
  2 3807.80 -4.88944e-08 969.569 1.47934e-31 -6.49733e-14 2.53565e-14
  3 3807.80 -4.88944e-08 969.569 1.54770e-31 -1.55107e-13 8.20355e-15
  4 3807.80 -4.88944e-08 969.569 7.38225e-32 -1.37732e-13 8.02580e-15
  5 3807.80 -4.88944e-08 969.569 2.02108e-31 -6.82542e-14 1.70879e-14
  6 3807.80 -4.88944e-08 969.569 1.74893e-31 -6.49733e-14 2.63278e-14
  7 3807.80 -4.88944e-08 969.569 5.30274e-31 -1.55107e-13 2.17317e-14
  8 3807.80 -4.88944e-08 969.569 1.74438e-31 -1.37732e-13 1.16506e-14
</Section>

newXOutput 61

<Section columns = "stress_xx | stress_yy | stress_zz | stress_xy | stress_yz | stress_xz">
  1 3848.39 -4.83442e-08 983.779 5.00637e-33 4.99033e-15 2.01733e-14
  2 3848.39 -4.83442e-08 983.779 6.45159e-32 -2.88117e-15 3.03720e-14
  3 3848.39 -4.83442e-08 983.779 -7.12231e-33 1.05402e-14 -8.30218e-15
  4 3848.39 -4.83442e-08 983.779 1.50191e-32 7.58130e-15 -5.88475e-14
  5 3848.39 -4.83442e-08 983.779 -1.50191e-32 7.58130e-15 2.76393e-14
  6 3848.39 -4.83442e-08 983.779 1.29032e-32 6.78846e-15 4.57520e-14
  7 3848.39 -4.83442e-08 983.779 -3.56116e-32 1.58777e-14 1.95611e-14
  8 3848.39 -4.83442e-08 983.779 -5.00637e-33 2.75010e-14 -1.44838e-15
</Section>

newXOutput 62

<Section columns = "stress_xx | stress_yy | stress_zz | stress_xy | stress_yz | stress_xz">
  1 3888.45 -4.78021e-08 997.927 3.51966e-32 1.99652e-15 -1.72400e-14
  2 3888.45 -4.78021e-08 997.927 1.12762e-31 9.59421e-16 -4.42849e-14
  3 3888.45 -4.78021e-08 997.927 1.44196e-31 -6.24664e-16 -2.27895e-14
  4 3888.45 -4.78021e-08 997.927 5.33166e-31 2.18961e-14 -7.96777e-14
  5 3888.45 -4.78021e-08 997.927 1.33602e-32 1.90682e-15 -1.34002e-14
  6 3888.45 -4.78021e-08 997.927 3.12673e-32 6.24664e-16 -2.99546e-14
  7 3888.45 -4.78021e-08 997.927 3.96901e-32 -5.28722e-15 -8.45922e-15
  8 3888.45 -4.78021e-08 997.927 1.43143e-31 4.49518e-15 -2.61964e-14
</Section>

newXOutput 63

<Section columns = "stress_xx | stress_yy | stress_zz | stress_xy | stress_yz | stress_xz">
  1 3927.98 -4.72625e-08 1012.01 2.00699e-15 3.90006e-14 -4.80146e-15
  2 3927.98 -4.72623e-08 1012.01 2.00699e-15 9.29172e-15 2.01945e-15
  3 3927.98 -4.72634e-08 1012.01 2.24478e-16 6.91991e-14 -1.93508e-14
  4 3927.98 -4.72633e-08 1012.01 2.24478e-16 4.01591e-14 -6.68758e-14
  5 3927.98 -4.72632e-08 1012.01 -1.72300e-14 3.76629e-14 -9.84029e-16
  6 3927.98 -4.72625e-08 1012.01 -1.72300e-14 4.29944e-15 1.62663e-14
  7 3927.98 -4.72636e-08 1012.01 -2.09021e-14 6.42069e-14 -5.10398e-15
  8 3927.98 -4.72634e-08 1012.01 -2.09021e-14 2.15276e-14 -1.37058e-14
</Section>

newXOutput 64

<Section columns = "stress_xx | stress_yy | stress_zz | stress_xy | stress_yz | stress_xz">
  1 3967.00 -4.67380e-08 1026.04 -9.64928e-15 2.28975e-14 3.61051e-14
  2 3967.00 -4.67380e-08 1026.04 -8.92825e-15 1.41534e-14 3.42075e-14
  3 3967.00 -4.67380e-08 1026.04 -1.58746e-14 3.65961e-14 1.29611e-14
  4 3967.00 -4.67380e-08 1026.04 -1.56814e-14 3.97295e-14 -5.21669e-14
  5 3967.00 -4.67380e-08 1026.04 -1.92865e-14 2.28975e-14 3.99004e-14
  6 3967.00 -4.67380e-08 1026.04 -1.65956e-14 1.41534e-14 4.83717e-14
  7 3967.00 -4.67380e-08 1026.04 -2.47909e-14 3.65961e-14 2.71254e-14
  8 3967.00 -4.67380e-08 1026.04 -2.40698e-14 3.97295e-14 6.94586e-16
</Section>

newXOutput 65

<Section columns = "stress_xx | stress_yy | stress_zz | stress_xy | stress_yz | stress_xz">
  1 4005.51 -4.62160e-08 1040.00 -6.39431e-15 3.39505e-14 2.87626e-14
  2 4005.51 -4.62160e-08 1040.00 -7.16049e-15 2.45804e-14 2.92252e-15
  3 4005.51 -4.62160e-08 1040.00 -1.15711e-14 8.43677e-14 2.85099e-14
  4 4005.51 -4.62160e-08 1040.00 -1.44305e-14 5.45024e-14 -1.02164e-14
  5 4005.51 -4.62160e-08 1040.00 -1.15711e-14 3.39505e-14 2.85099e-14
  6 4005.51 -4.62160e-08 1040.00 -1.44305e-14 2.45804e-14 -1.02164e-14
  7 4005.51 -4.62160e-08 1040.00 -2.50320e-14 8.43677e-14 2.75665e-14
  8 4005.51 -4.62160e-08 1040.00 -3.57035e-14 5.45024e-14 -5.92517e-14
</Section>

newXOutput 66

<Section columns = "stress_xx | stress_yy | stress_zz | stress_xy | stress_yz | stress_xz">
  1 4043.52 -4.57048e-08 1053.91 1.03770e-15 -6.96582e-15 2.75087e-15
  2 4043.52 -4.57048e-08 1053.91 2.78052e-16 2.86673e-15 -1.37667e-14
  3 4043.52 -4.57048e-08 1053.91 3.87276e-15 -1.04874e-14 -3.03302e-14
  4 4043.52 -4.57048e-08 1053.91 1.03770e-15 2.03200e-14 -1.35008e-13
  5 4043.52 -4.57048e-08 1053.91 3.87276e-15 -9.54381e-15 1.37543e-14
  6 4043.52 -4.57048e-08 1053.91 1.03770e-15 -6.75445e-15 1.51735e-14
  7 4043.52 -4.57048e-08 1053.91 1.44533e-14 -1.57981e-14 1.07353e-14
  8 4043.52 -4.57048e-08 1053.91 3.87276e-15 5.00124e-16 -2.70015e-14
</Section>

newXOutput 67

<Section columns = "stress_xx | stress_yy | stress_zz | stress_xy | stress_yz | stress_xz">
  1 4081.04 -4.51985e-08 1067.75 1.04344e-14 4.89767e-14 -2.46691e-14
  2 4081.04 -4.51976e-08 1067.75 9.68120e-15 2.26934e-14 -5.31016e-14
  3 4081.04 -4.51985e-08 1067.75 3.13561e-14 1.25536e-13 -1.13396e-14
  4 4081.04 -4.51976e-08 1067.75 2.85451e-14 6.38937e-14 -3.18793e-14
  5 4081.04 -4.51976e-08 1067.75 -2.37559e-15 5.02198e-14 -2.83991e-14
  6 4081.04 -4.51974e-08 1067.75 -5.18657e-15 2.73327e-14 -6.70223e-14
  7 4081.04 -4.51976e-08 1067.75 3.70787e-15 1.25869e-13 -2.52602e-14
  8 4081.04 -4.51974e-08 1067.75 -6.78283e-15 6.51368e-14 -8.38320e-14
</Section>

newXOutput 68

<Section columns = "stress_xx | stress_yy | stress_zz | stress_xy | stress_yz | stress_xz">
  1 4118.08 -4.47044e-08 1081.54 -2.47036e-14 -4.81853e-14 -4.15806e-14
  2 4118.08 -4.47044e-08 1081.54 -2.47036e-14 -3.57994e-14 -1.16439e-13
  3 4118.08 -4.47044e-08 1081.54 -4.87272e-14 -9.54081e-14 -3.33936e-14
  4 4118.08 -4.47044e-08 1081.54 -4.87272e-14 -5.93619e-14 -1.14246e-13
  5 4118.08 -4.47044e-08 1081.54 -1.94618e-14 -4.81853e-14 -4.15806e-14
  6 4118.08 -4.47044e-08 1081.54 -1.94618e-14 -3.57994e-14 -1.16439e-13
  7 4118.08 -4.47044e-08 1081.54 -3.20200e-14 -9.54081e-14 -3.33936e-14
  8 4118.08 -4.47044e-08 1081.54 -3.20200e-14 -5.93619e-14 -1.14246e-13
</Section>

newXOutput 69

<Section columns = "stress_xx | stress_yy | stress_zz | stress_xy | stress_yz | stress_xz">
  1 4154.64 -4.42178e-08 1095.26 6.80423e-15 1.43665e-14 2.85980e-14
  2 4154.64 -4.42178e-08 1095.26 7.54475e-15 -1.73300e-14 2.83058e-14
  3 4154.64 -4.42178e-08 1095.26 6.61002e-15 1.98884e-14 2.83058e-14
  4 4154.64 -4.42178e-08 1095.26 9.37369e-15 -2.21426e-14 1.31158e-14
  5 4154.64 -4.42178e-08 1095.26 -9.97205e-15 1.56962e-14 2.85980e-14
  6 4154.64 -4.42178e-08 1095.26 -7.20837e-15 -1.23676e-14 2.83058e-14
  7 4154.64 -4.42178e-08 1095.26 -1.35283e-14 2.48509e-14 2.83058e-14
  8 4154.64 -4.42178e-08 1095.26 -3.21410e-15 -3.62244e-15 1.31158e-14
</Section>

newXOutput 70

<Section columns = "stress_xx | stress_yy | stress_zz | stress_xy | stress_yz | stress_xz">
  1 4190.73 -4.37376e-08 1108.93 0.00000 1.52699e-15 -1.45345e-14
  2 4190.73 -4.37376e-08 1108.93 0.00000 6.69507e-15 -5.42435e-14
  3 4190.73 -4.37376e-08 1108.93 0.00000 -8.17756e-15 -1.31924e-14
  4 4190.73 -4.37376e-08 1108.93 0.00000 2.12682e-14 -4.92349e-14
  5 4190.73 -4.37376e-08 1108.93 0.00000 1.98617e-16 -2.18675e-14
  6 4190.73 -4.37376e-08 1108.93 0.00000 1.73752e-15 -8.16108e-14
  7 4190.73 -4.37376e-08 1108.93 0.00000 -1.31351e-14 -4.05598e-14
  8 4190.73 -4.37376e-08 1108.93 0.00000 2.76637e-15 -1.51371e-13
</Section>

newXOutput 71

<Section columns = "stress_xx | stress_yy | stress_zz | stress_xy | stress_yz | stress_xz">
  1 4226.36 -4.32601e-08 1122.54 -7.99398e-15 -1.63937e-14 -9.96033e-15
  2 4226.36 -4.32601e-08 1122.54 -7.31460e-15 -3.29593e-14 -3.71725e-14
  3 4226.36 -4.32601e-08 1122.54 -1.46634e-14 -1.81014e-14 -3.71725e-14
  4 4226.36 -4.32601e-08 1122.54 -1.44814e-14 -3.42582e-14 -1.38730e-13
  5 4226.36 -4.32601e-08 1122.54 -1.78782e-14 -1.50667e-14 -2.66886e-15
  6 4226.36 -4.32601e-08 1122.54 -1.53428e-14 -2.80067e-14 -9.96033e-15
  7 4226.36 -4.32601e-08 1122.54 -2.32799e-14 -1.31487e-14 -9.96033e-15
  8 4226.36 -4.32601e-08 1122.54 -2.26006e-14 -1.57747e-14 -3.71725e-14
</Section>

newXOutput 72

<Section columns = "stress_xx | stress_yy | stress_zz | stress_xy | stress_yz | stress_xz">
  1 4261.54 -4.27972e-08 1136.09 3.54600e-32 -8.73550e-15 3.86796e-15
  2 4261.54 -4.27972e-08 1136.09 -1.45933e-32 -3.90905e-15 -8.15955e-14
  3 4261.54 -4.27972e-08 1136.09 8.55133e-32 -1.71840e-14 -4.20606e-16
  4 4261.54 -4.27972e-08 1136.09 1.64570e-32 -5.02467e-15 -9.76006e-14
  5 4261.54 -4.27972e-08 1136.09 1.64570e-32 -9.97244e-15 3.86796e-15
  6 4261.54 -4.27972e-08 1136.09 -8.55133e-32 -8.52537e-15 -8.15955e-14
  7 4261.54 -4.27972e-08 1136.09 8.04215e-32 -1.75154e-14 -4.20606e-16
  8 4261.54 -4.27972e-08 1136.09 -2.54591e-33 -6.26162e-15 -9.76006e-14
</Section>

newXOutput 73

<Section columns = "stress_xx | stress_yy | stress_zz | stress_xy | stress_yz | stress_xz">
  1 4296.28 -4.23415e-08 1149.59 9.70983e-33 -4.58961e-15 1.75966e-14
  2 4296.28 -4.23415e-08 1149.59 1.85901e-32 -2.79662e-15 2.80161e-14
  3 4296.28 -4.23415e-08 1149.59 2.60174e-33 -8.64413e-15 -1.23426e-14
  4 4296.28 -4.23415e-08 1149.59 4.98121e-33 -2.73602e-15 -5.61529e-14
  5 4296.28 -4.23415e-08 1149.59 2.23195e-32 -5.82533e-15 2.12013e-14
  6 4296.28 -4.23415e-08 1149.59 6.56500e-32 -7.40840e-15 4.14690e-14
  7 4296.28 -4.23415e-08 1149.59 5.98049e-33 -8.97524e-15 1.11029e-15
  8 4296.28 -4.23415e-08 1149.59 1.75909e-32 -3.97174e-15 -5.94601e-15
</Section>

newXOutput 74

<Section columns = "stress_xx | stress_yy | stress_zz | stress_xy | stress_yz | stress_xz">
  1 4330.57 -4.18822e-08 1163.03 7.27549e-16 8.24432e-15 1.07212e-14
  2 4330.57 -4.18822e-08 1163.03 -6.45155e-16 2.62848e-15 -1.67217e-15
  3 4330.57 -4.18822e-08 1163.03 3.55535e-15 1.58773e-14 2.56828e-15
  4 4330.57 -4.18822e-08 1163.03 7.27549e-16 2.60561e-14 -1.62736e-14
  5 4330.57 -4.18822e-08 1163.03 2.71525e-15 8.15569e-15 1.04811e-14
  6 4330.57 -4.18822e-08 1163.03 -2.40775e-15 2.29769e-15 -1.41534e-14
  7 4330.57 -4.18822e-08 1163.03 1.32688e-14 1.12701e-14 1.67217e-15
  8 4330.57 -4.18822e-08 1163.03 2.71525e-15 8.86158e-15 -6.28541e-14
</Section>

newXOutput 75

<Section columns = "stress_xx | stress_yy | stress_zz | stress_xy | stress_yz | stress_xz">
  1 4364.44 -4.14384e-08 1176.41 4.47524e-31 6.42258e-14 -4.00500e-14
  2 4364.44 -4.14384e-08 1176.41 1.12981e-30 6.90381e-14 -9.64979e-14
  3 4364.44 -4.14384e-08 1176.41 9.99412e-31 1.15001e-13 -5.23740e-14
  4 4364.44 -4.14384e-08 1176.41 2.56111e-30 1.27124e-13 -1.26755e-13
  5 4364.44 -4.14384e-08 1176.41 4.46659e-31 6.29925e-14 -4.02888e-14
  6 4364.44 -4.14384e-08 1176.41 1.34297e-30 6.44353e-14 -1.08909e-13
  7 4364.44 -4.14384e-08 1176.41 1.06110e-30 1.14670e-13 -5.32651e-14
  8 4364.44 -4.14384e-08 1176.41 3.59890e-30 1.25891e-13 -1.73074e-13
</Section>

newXOutput 76

<Section columns = "stress_xx | stress_yy | stress_zz | stress_xy | stress_yz | stress_xz">
  1 4397.88 -4.10000e-08 1189.74 1.71260e-17 3.40403e-16 -2.75162e-14
  2 4397.88 -4.10000e-08 1189.74 6.39151e-17 1.76561e-15 -5.15516e-14
  3 4397.88 -4.10000e-08 1189.74 8.90223e-16 -5.62698e-15 1.10447e-14
  4 4397.88 -4.10000e-08 1189.74 3.32236e-15 4.74121e-15 -2.44466e-14
  5 4397.88 -4.10000e-08 1189.74 6.39151e-17 1.66096e-15 -4.42889e-14
  6 4397.88 -4.10000e-08 1189.74 2.38534e-16 6.69400e-15 -6.83243e-14
  7 4397.88 -4.10000e-08 1189.74 3.32236e-15 -6.98584e-16 -5.15516e-14
  8 4397.88 -4.10000e-08 1189.74 1.23992e-14 2.31342e-14 -8.70430e-14
</Section>

newXOutput 77

<Section columns = "stress_xx | stress_yy | stress_zz | stress_xy | stress_yz | stress_xz">
  1 4430.90 -4.05626e-08 1203.01 2.53564e-16 -3.78106e-15 -5.01475e-14
  2 4430.90 -4.05626e-08 1203.01 9.46313e-16 6.59636e-16 -1.13513e-13
  3 4430.90 -4.05626e-08 1203.01 9.46313e-16 -1.41111e-14 -3.45855e-14
  4 4430.90 -4.05626e-08 1203.01 3.53169e-15 2.46179e-15 -1.09343e-13
  5 4430.90 -4.05626e-08 1203.01 9.46313e-16 -2.46179e-15 -5.01475e-14
  6 4430.90 -4.05626e-08 1203.01 3.53169e-15 5.58322e-15 -1.13513e-13
  7 4430.90 -4.05626e-08 1203.01 3.53169e-15 -9.18754e-15 -3.45855e-14
  8 4430.90 -4.05626e-08 1203.01 1.31804e-14 2.08369e-14 -1.09343e-13
</Section>

newXOutput 78

<Section columns = "stress_xx | stress_yy | stress_zz | stress_xy | stress_yz | stress_xz">
  1 4463.52 -4.01415e-08 1216.23 9.38579e-16 -1.54895e-15 -1.04527e-14
  2 4463.52 -4.01415e-08 1216.23 2.51491e-16 1.14690e-16 3.27039e-15
  3 4463.52 -4.01415e-08 1216.23 3.50282e-15 2.22493e-14 -5.02299e-15
  4 4463.52 -4.01415e-08 1216.23 9.38579e-16 3.34975e-14 -1.14636e-13
  5 4463.52 -4.01415e-08 1216.23 3.50282e-15 -1.54895e-15 -9.98306e-15
  6 4463.52 -4.01415e-08 1216.23 9.38579e-16 1.14690e-16 2.76809e-14
  7 4463.52 -4.01415e-08 1216.23 1.30727e-14 2.22493e-14 -3.27039e-15
  8 4463.52 -4.01415e-08 1216.23 3.50282e-15 3.34975e-14 -2.35342e-14
</Section>

newXOutput 79

<Section columns = "stress_xx | stress_yy | stress_zz | stress_xy | stress_yz | stress_xz">
  1 4495.73 -3.97204e-08 1229.39 1.27494e-14 2.95133e-14 -1.54443e-14
  2 4495.73 -3.97203e-08 1229.39 1.14321e-14 5.21642e-14 -5.20056e-14
  3 4495.73 -3.97203e-08 1229.39 2.62640e-14 7.58350e-14 1.78022e-14
  4 4495.73 -3.97202e-08 1229.39 2.35503e-14 1.14280e-13 -3.86774e-14
  5 4495.73 -3.97203e-08 1229.39 2.54578e-14 2.82848e-14 -2.89205e-14
  6 4495.73 -3.97202e-08 1229.39 2.05415e-14 4.75794e-14 -7.97669e-14
  7 4495.73 -3.97202e-08 1229.39 5.24437e-14 7.55058e-14 -3.24918e-14
  8 4495.73 -3.97199e-08 1229.39 4.23159e-14 1.13052e-13 -1.42284e-13
</Section>

newXOutput 80

<Section columns = "stress_xx | stress_yy | stress_zz | stress_xy | stress_yz | stress_xz">
  1 4527.54 -3.93074e-08 1242.50 -1.22008e-14 -1.09561e-14 2.55267e-14
  2 4527.54 -3.93071e-08 1242.50 -1.28767e-14 -4.03956e-14 1.00869e-13
  3 4527.54 -3.93074e-08 1242.50 -2.35900e-14 -1.98601e-14 5.38544e-14
  4 4527.54 -3.93074e-08 1242.50 -2.61127e-14 -4.84774e-14 9.64507e-14
  5 4527.54 -3.93071e-08 1242.50 -2.35900e-14 -1.10443e-14 1.55913e-14
  6 4527.54 -3.93061e-08 1242.50 -2.61127e-14 -4.07245e-14 8.61981e-14
  7 4527.54 -3.93074e-08 1242.50 -4.28340e-14 -2.44405e-14 1.67752e-14
  8 4527.54 -3.93071e-08 1242.50 -5.22489e-14 -6.55717e-14 4.16985e-14
</Section>

newXOutput 81

<Section columns = "stress_xx | stress_yy | stress_zz | stress_xy | stress_yz | stress_xz">
  1 4558.96 -3.88982e-08 1255.56 -9.59457e-15 -1.68239e-14 -1.87222e-14
  2 4558.96 -3.88982e-08 1255.56 -8.92408e-15 -4.12101e-14 -6.43010e-14
  3 4558.96 -3.88982e-08 1255.56 -2.12965e-14 -4.12101e-14 4.74036e-15
  4 4558.96 -3.88982e-08 1255.56 -1.87942e-14 -9.70474e-14 -8.62707e-14
  5 4558.96 -3.88982e-08 1255.56 -2.12965e-14 -1.55097e-14 -2.51554e-14
  6 4558.96 -3.88982e-08 1255.56 -1.87942e-14 -3.63056e-14 -6.60248e-14
  7 4558.96 -3.88982e-08 1255.56 -4.95866e-14 -3.63056e-14 -1.92686e-14
  8 4558.96 -3.88982e-08 1255.56 -4.02478e-14 -7.87435e-14 -9.27039e-14
</Section>

newXOutput 82

<Section columns = "stress_xx | stress_yy | stress_zz | stress_xy | stress_yz | stress_xz">
  1 4589.99 -3.84953e-08 1268.56 -1.74521e-14 -3.36963e-14 -2.39307e-14
  2 4589.99 -3.84953e-08 1268.56 -1.67870e-14 -1.89572e-14 -5.34946e-14
  3 4589.99 -3.84953e-08 1268.56 -3.36186e-14 -6.61617e-14 -1.51069e-14
  4 4589.99 -3.84953e-08 1268.56 -3.11364e-14 -1.46216e-14 -4.67829e-14
  5 4589.99 -3.84953e-08 1268.56 -7.55618e-15 -2.99335e-14 -3.07880e-14
  6 4589.99 -3.84953e-08 1268.56 -5.07404e-15 -4.91431e-15 -7.90863e-14
  7 4589.99 -3.84953e-08 1268.56 -6.85848e-15 -6.06054e-14 -4.06987e-14
  8 4589.99 -3.84953e-08 1268.56 2.40496e-15 6.11453e-15 -1.42293e-13
</Section>

newXOutput 83

<Section columns = "stress_xx | stress_yy | stress_zz | stress_xy | stress_yz | stress_xz">
  1 4620.65 -3.81015e-08 1281.51 8.14495e-15 4.67079e-14 -1.52222e-14
  2 4620.65 -3.81015e-08 1281.51 7.48521e-15 2.50402e-14 -5.68101e-14
  3 4620.65 -3.81015e-08 1281.51 2.71989e-14 1.07361e-13 1.95458e-14
  4 4620.65 -3.81015e-08 1281.51 2.47367e-14 8.08856e-14 7.29460e-14
  5 4620.65 -3.81015e-08 1281.51 -2.34737e-15 4.41725e-14 -2.88619e-14
  6 4620.65 -3.81015e-08 1281.51 -4.80956e-15 1.55779e-14 -1.07714e-13
  7 4620.65 -3.81015e-08 1281.51 3.17638e-15 1.02138e-13 -3.13581e-14
  8 4620.65 -3.81015e-08 1281.51 -6.01263e-15 6.13932e-14 -1.17030e-13
</Section>

newXOutput 84

<Section columns = "stress_xx | stress_yy | stress_zz | stress_xy | stress_yz | stress_xz">
  1 4650.93 -3.77122e-08 1294.40 2.39548e-16 -1.47252e-14 1.69567e-15
  2 4650.93 -3.77122e-08 1294.40 8.94006e-16 -5.08042e-15 6.32834e-15
  3 4650.93 -3.77122e-08 1294.40 8.94006e-16 -2.70871e-14 -3.16417e-14
  4 4650.93 -3.77122e-08 1294.40 3.33648e-15 1.39180e-14 -1.18088e-13
  5 4650.93 -3.77122e-08 1294.40 8.94006e-16 -1.60356e-14 8.47836e-15
  6 4650.93 -3.77122e-08 1294.40 3.33648e-15 -9.97080e-15 3.16417e-14
  7 4650.93 -3.77122e-08 1294.40 3.33648e-15 -3.19775e-14 -6.32834e-15
  8 4650.93 -3.77122e-08 1294.40 1.24519e-14 -4.33315e-15 -2.36177e-14
</Section>

newXOutput 85

<Section columns = "stress_xx | stress_yy | stress_zz | stress_xy | stress_yz | stress_xz">
  1 4680.84 -3.73229e-08 1307.24 -1.87319e-32 -9.12699e-15 -1.33706e-14
  2 4680.84 -3.73229e-08 1307.24 -6.99083e-32 2.08934e-15 -4.98999e-14
  3 4680.84 -3.73229e-08 1307.24 -6.99083e-32 -2.72248e-14 -1.21361e-14
  4 4680.84 -3.73229e-08 1307.24 -2.60901e-31 9.62966e-15 -4.52924e-14
  5 4680.84 -3.73229e-08 1307.24 -6.99083e-32 -1.17452e-14 -2.01165e-14
  6 4680.84 -3.73229e-08 1307.24 -2.60901e-31 -7.68204e-15 -7.50758e-14
  7 4680.84 -3.73229e-08 1307.24 -2.60901e-31 -3.69962e-14 -3.73120e-14
  8 4680.84 -3.73229e-08 1307.24 -9.73697e-31 -2.68376e-14 -1.39250e-13
</Section>

newXOutput 86

<Section columns = "stress_xx | stress_yy | stress_zz | stress_xy | stress_yz | stress_xz">
  1 4710.39 -3.69446e-08 1320.04 -3.93259e-15 5.18451e-15 -1.40246e-14
  2 4710.39 -3.69446e-08 1320.04 -3.28852e-15 -2.61573e-15 -8.73838e-14
  3 4710.39 -3.69446e-08 1320.04 -7.70706e-15 2.66704e-14 -1.22650e-14
  4 4710.39 -3.69446e-08 1320.04 -5.30336e-15 1.75623e-14 -5.51634e-14
  5 4710.39 -3.69446e-08 1320.04 -7.70706e-15 7.80024e-15 -2.07339e-14
  6 4710.39 -3.69446e-08 1320.04 -5.30336e-15 7.14631e-15 -1.12423e-13
  7 4710.39 -3.69446e-08 1320.04 -1.44056e-14 3.64324e-14 -3.73046e-14
  8 4710.39 -3.69446e-08 1320.04 -5.43491e-15 5.39947e-14 -1.48612e-13
</Section>

newXOutput 87

<Section columns = "stress_xx | stress_yy | stress_zz | stress_xy | stress_yz | stress_xz">
  1 4739.58 -3.65690e-08 1332.78 -5.09870e-15 -5.42448e-14 1.15662e-14
  2 4739.58 -3.65690e-08 1332.78 -5.09870e-15 -5.95834e-14 4.17071e-16
  3 4739.58 -3.65690e-08 1332.78 -8.77694e-15 -1.26960e-13 -2.90452e-14
  4 4739.58 -3.65690e-08 1332.78 -8.77694e-15 -1.06144e-13 -1.47200e-13
  5 4739.58 -3.65690e-08 1332.78 -8.77694e-15 -5.43323e-14 1.77923e-14
  6 4739.58 -3.65690e-08 1332.78 -8.77694e-15 -5.99101e-14 2.08535e-15
  7 4739.58 -3.65690e-08 1332.78 -1.76181e-14 -1.31510e-13 -5.80905e-15
  8 4739.58 -3.65690e-08 1332.78 -1.76181e-14 -1.23123e-13 -1.40974e-13
</Section>

newXOutput 88

<Section columns = "stress_xx | stress_yy | stress_zz | stress_xy | stress_yz | stress_xz">
  1 4768.43 -3.62012e-08 1345.47 2.17009e-14 8.88447e-16 -9.94786e-15
  2 4768.43 -3.62008e-08 1345.47 2.23348e-14 5.34897e-14 -7.96446e-14
  3 4768.43 -3.62012e-08 1345.47 4.33795e-14 -4.97088e-15 -3.46369e-14
  4 4768.43 -3.62008e-08 1345.47 4.57453e-14 1.21463e-13 -1.67860e-13
  5 4768.43 -3.62029e-08 1345.47 4.33795e-14 8.88447e-16 -3.75524e-15
  6 4768.43 -3.62012e-08 1345.47 4.57453e-14 5.34897e-14 -7.79853e-14
  7 4768.43 -3.62029e-08 1345.47 9.03516e-14 -4.97088e-15 -1.15258e-14
  8 4768.43 -3.62012e-08 1345.47 9.91809e-14 1.21463e-13 -1.61667e-13
</Section>

newXOutput 89

<Section columns = "stress_xx | stress_yy | stress_zz | stress_xy | stress_yz | stress_xz">
  1 4796.93 -3.58414e-08 1358.10 -1.64384e-14 7.87376e-14 4.12442e-14
  2 4796.93 -3.58414e-08 1358.10 -1.70674e-14 3.25323e-14 8.49641e-14
  3 4796.93 -3.58414e-08 1358.10 -3.06057e-14 1.75459e-13 1.10514e-14
  4 4796.93 -3.58414e-08 1358.10 -3.29529e-14 1.04290e-13 2.27661e-14
  5 4796.93 -3.58414e-08 1358.10 -3.41265e-14 8.11712e-14 4.12442e-14
  6 4796.93 -3.58414e-08 1358.10 -3.64736e-14 4.16144e-14 8.49641e-14
  7 4796.93 -3.58414e-08 1358.10 -5.81428e-14 1.76111e-13 1.10514e-14
  8 4796.93 -3.58414e-08 1358.10 -6.69026e-14 1.06723e-13 2.27661e-14
</Section>

newXOutput 90

<Section columns = "stress_xx | stress_yy | stress_zz | stress_xy | stress_yz | stress_xz">
  1 4825.08 -3.54803e-08 1370.69 -1.46367e-14 -4.22272e-15 2.96504e-14
  2 4825.08 -3.54803e-08 1370.69 -1.40128e-14 1.24383e-14 5.30566e-15
  3 4825.08 -3.54803e-08 1370.69 -2.80841e-14 -7.90152e-15 5.30566e-15
  4 4825.08 -3.54803e-08 1370.69 -2.57554e-14 2.85990e-14 -1.35764e-13
  5 4825.08 -3.54803e-08 1370.69 -1.76048e-14 -5.43834e-15 2.96504e-14
  6 4825.08 -3.54803e-08 1370.69 -1.52760e-14 7.90152e-15 5.30566e-15
  7 4825.08 -3.54803e-08 1370.69 -3.43893e-14 -8.22725e-15 5.30566e-15
  8 4825.08 -3.54803e-08 1370.69 -2.56983e-14 2.73834e-14 -1.35764e-13
</Section>

newXOutput 91

<Section columns = "stress_xx | stress_yy | stress_zz | stress_xy | stress_yz | stress_xz">
  1 4852.90 -3.51241e-08 1383.23 1.00863e-14 5.58274e-14 -2.43165e-14
  2 4852.90 -3.51250e-08 1383.23 1.00863e-14 8.30455e-14 -5.13596e-14
  3 4852.90 -3.51242e-08 1383.23 2.42438e-14 9.60792e-14 1.40391e-14
  4 4852.90 -3.51253e-08 1383.23 2.42438e-14 1.73544e-13 -3.69415e-14
  5 4852.90 -3.51240e-08 1383.23 2.07780e-14 5.57402e-14 -3.69415e-14
  6 4852.90 -3.51244e-08 1383.23 2.07780e-14 8.27201e-14 -7.73675e-14
  7 4852.90 -3.51242e-08 1383.23 4.99428e-14 9.15468e-14 -3.30782e-14
  8 4852.90 -3.51254e-08 1383.23 4.99428e-14 1.56628e-13 -1.34004e-13
</Section>

newXOutput 92

<Section columns = "stress_xx | stress_yy | stress_zz | stress_xy | stress_yz | stress_xz">
  1 4880.40 -3.47800e-08 1395.72 -3.89917e-14 -8.50920e-14 -3.31704e-14
  2 4880.40 -3.47800e-08 1395.72 -3.77631e-14 -2.88436e-14 -8.98617e-14
  3 4880.40 -3.47801e-08 1395.72 -7.79121e-14 -1.80184e-13 -1.71253e-14
  4 4880.40 -3.47801e-08 1395.72 -7.33271e-14 -6.55046e-14 -5.48204e-14
  5 4880.40 -3.47801e-08 1395.72 -1.60145e-14 -8.37044e-14 -3.96670e-14
  6 4880.40 -3.47801e-08 1395.72 -1.14294e-14 -2.36652e-14 -1.14107e-13
  7 4880.40 -3.47806e-08 1395.72 -2.97394e-14 -1.70802e-13 -4.13708e-14
  8 4880.40 -3.47806e-08 1395.72 -1.26279e-14 -3.04925e-14 -1.45306e-13
</Section>

newXOutput 93

<Section columns = "stress_xx | stress_yy | stress_zz | stress_xy | stress_yz | stress_xz">
  1 4907.56 -3.44335e-08 1408.16 -8.60078e-15 -8.11693e-15 -1.66575e-15
  2 4907.56 -3.44335e-08 1408.16 -8.60078e-15 -9.44800e-15 2.75354e-14
  3 4907.56 -3.44335e-08 1408.16 -1.59527e-14 -9.44800e-15 -8.63997e-15
  4 4907.56 -3.44335e-08 1408.16 -1.59527e-14 -4.48040e-15 -2.32010e-14
  5 4907.56 -3.44335e-08 1408.16 -5.71660e-15 -8.11693e-15 -8.12787e-15
  6 4907.56 -3.44335e-08 1408.16 -5.71660e-15 -9.44800e-15 3.41850e-15
  7 4907.56 -3.44335e-08 1408.16 -5.18876e-15 -9.44800e-15 -3.27569e-14
  8 4907.56 -3.44335e-08 1408.16 -5.18876e-15 -4.48040e-15 -1.13207e-13
</Section>

newXOutput 94

<Section columns = "stress_xx | stress_yy | stress_zz | stress_xy | stress_yz | stress_xz">
  1 4934.41 -3.40960e-08 1420.55 -5.80324e-15 4.80068e-15 -1.18871e-14
  2 4934.41 -3.40960e-08 1420.55 -5.80324e-15 -1.01751e-14 -3.91693e-14
  3 4934.41 -3.40960e-08 1420.55 -8.56923e-15 1.58188e-14 2.51947e-14
  4 4934.41 -3.40960e-08 1420.55 -8.56923e-15 1.16756e-15 -2.89103e-15
  5 4934.41 -3.40960e-08 1420.55 -1.19548e-14 7.22276e-15 -1.78844e-14
  6 4934.41 -3.40960e-08 1420.55 -1.19548e-14 -1.13574e-15 -4.07763e-14
  7 4934.41 -3.40960e-08 1420.55 -1.76528e-14 1.64678e-14 2.81223e-15
  8 4934.41 -3.40960e-08 1420.55 -1.76528e-14 3.58964e-15 -8.88840e-15
</Section>

newXOutput 95

<Section columns = "stress_xx | stress_yy | stress_zz | stress_xy | stress_yz | stress_xz">
  1 4960.94 -3.37586e-08 1432.89 2.19654e-16 -5.57486e-15 -4.13816e-14
  2 4960.94 -3.37586e-08 1432.89 8.19761e-16 -8.23199e-15 -1.21042e-13
  3 4960.94 -3.37586e-08 1432.89 8.19761e-16 2.08057e-14 -4.94526e-14
  4 4960.94 -3.37586e-08 1432.89 3.05939e-15 3.07222e-14 -1.75611e-13
  5 4960.94 -3.37586e-08 1432.89 8.19761e-16 -5.57486e-15 -4.13816e-14
  6 4960.94 -3.37586e-08 1432.89 3.05939e-15 -8.23199e-15 -1.21042e-13
  7 4960.94 -3.37586e-08 1432.89 3.05939e-15 2.08057e-14 -4.94526e-14
  8 4960.94 -3.37586e-08 1432.89 1.14178e-14 3.07222e-14 -1.75611e-13
</Section>

newXOutput 96

<Section columns = "stress_xx | stress_yy | stress_zz | stress_xy | stress_yz | stress_xz">
  1 4987.16 -3.34285e-08 1445.19 8.13450e-16 -3.47506e-14 1.59012e-15
  2 4987.16 -3.34285e-08 1445.19 2.17963e-16 -3.30126e-14 5.93440e-15
  3 4987.16 -3.34285e-08 1445.19 3.03584e-15 -4.44525e-14 -2.96720e-14
  4 4987.16 -3.34285e-08 1445.19 8.13450e-16 -3.94989e-14 -1.10737e-13
  5 4987.16 -3.34285e-08 1445.19 3.03584e-15 -3.58726e-14 7.95059e-15
  6 4987.16 -3.34285e-08 1445.19 8.13450e-16 -3.71999e-14 2.96720e-14
  7 4987.16 -3.34285e-08 1445.19 1.13299e-14 -4.02652e-14 -5.93440e-15
  8 4987.16 -3.34285e-08 1445.19 3.03584e-15 -2.38716e-14 -2.21475e-14
</Section>

newXOutput 97

<Section columns = "stress_xx | stress_yy | stress_zz | stress_xy | stress_yz | stress_xz">
  1 5013.07 -3.31065e-08 1457.43 -5.81798e-15 -1.69271e-14 -1.25407e-14
  2 5013.07 -3.31065e-08 1457.43 -6.40889e-15 -2.06684e-14 -4.68026e-14
  3 5013.07 -3.31065e-08 1457.43 -8.92417e-15 -3.51601e-14 -1.13828e-14
  4 5013.07 -3.31065e-08 1457.43 -1.11295e-14 -1.94291e-14 -4.24811e-14
  5 5013.07 -3.31065e-08 1457.43 -8.92417e-15 -1.82214e-14 -1.88679e-14
  6 5013.07 -3.31065e-08 1457.43 -1.11295e-14 -2.54990e-14 -7.04158e-14
  7 5013.07 -3.31065e-08 1457.43 -6.96023e-15 -3.99907e-14 -3.49960e-14
  8 5013.07 -3.31065e-08 1457.43 -1.51906e-14 -3.74570e-14 -1.30607e-13
</Section>

newXOutput 98

<Section columns = "stress_xx | stress_yy | stress_zz | stress_xy | stress_yz | stress_xz">
  1 5038.68 -3.27882e-08 1469.63 8.07978e-15 1.75378e-14 1.17449e-14
  2 5038.68 -3.27882e-08 1469.63 8.07978e-15 -1.75378e-14 4.38326e-14
  3 5038.68 -3.27882e-08 1469.63 1.83428e-14 2.58967e-14 -2.66369e-14
  4 5038.68 -3.27882e-08 1469.63 1.83428e-14 -2.58967e-14 -9.94101e-14
  5 5038.68 -3.27882e-08 1469.63 -7.91880e-15 1.75378e-14 1.80390e-14
  6 5038.68 -3.27882e-08 1469.63 -7.91880e-15 -1.75378e-14 6.73224e-14
  7 5038.68 -3.27882e-08 1469.63 -9.97505e-15 2.58967e-14 -3.14704e-15
  8 5038.68 -3.27882e-08 1469.63 -9.97505e-15 -2.58967e-14 -1.17449e-14
</Section>

newXOutput 99

<Section columns = "stress_xx | stress_yy | stress_zz | stress_xy | stress_yz | stress_xz">
  1 5064.00 -3.24686e-08 1481.78 4.98255e-15 -7.32228e-14 1.31442e-14
  2 5064.00 -3.24686e-08 1481.78 5.56448e-15 -4.95879e-14 8.94441e-15
  3 5064.00 -3.24686e-08 1481.78 1.20798e-14 -1.50841e-13 -1.86996e-14
  4 5064.00 -3.24688e-08 1481.78 1.42516e-14 -1.02152e-13 -1.06195e-13
  5 5064.00 -3.24676e-08 1481.78 1.20798e-14 -7.32228e-14 2.52473e-14
  6 5064.00 -3.24678e-08 1481.78 1.42516e-14 -4.95879e-14 3.38772e-14
  7 5064.00 -3.24678e-08 1481.78 2.07669e-14 -1.50841e-13 2.64700e-14
  8 5064.00 -3.24684e-08 1481.78 2.88721e-14 -1.02152e-13 -1.31442e-14
</Section>

newXOutput 100

<Section columns = "stress_xx | stress_yy | stress_zz | stress_xy | stress_yz | stress_xz">
  1 5089.02 -3.21575e-08 1493.88 -3.45948e-14 1.27454e-13 -8.27006e-16
  2 5089.02 -3.21578e-08 1493.88 -3.51723e-14 4.02589e-14 -4.29884e-14
  3 5089.02 -3.21575e-08 1493.88 -6.05845e-14 3.00381e-13 -7.50644e-16
  4 5089.02 -3.21578e-08 1493.88 -6.27398e-14 1.03282e-13 -3.90191e-14
  5 5089.02 -3.21562e-08 1493.88 -7.35161e-14 1.26163e-13 -1.24425e-15
  6 5089.02 -3.21575e-08 1493.88 -7.56714e-14 3.54418e-14 -6.46773e-14
  7 5089.02 -3.21562e-08 1493.88 -1.44014e-13 2.95564e-13 -2.30783e-15
  8 5089.02 -3.21575e-08 1493.88 -1.52057e-13 8.53041e-14 -1.19963e-13
</Section>

newXOutput 101

<Section columns = "stress_xx | stress_yy | stress_zz | stress_xy | stress_yz | stress_xz">
  1 5113.75 -3.18505e-08 1505.94 7.82907e-16 -1.78746e-14 -2.14171e-14
  2 5113.75 -3.18505e-08 1505.94 2.09779e-16 -2.53295e-14 -1.12294e-13
  3 5113.75 -3.18505e-08 1505.94 2.92185e-15 -2.53295e-14 -4.29176e-14
  4 5113.75 -3.18505e-08 1505.94 7.82907e-16 -3.34292e-14 -1.68843e-13
  5 5113.75 -3.18505e-08 1505.94 2.92185e-15 -1.65850e-14 -2.14171e-14
  6 5113.75 -3.18505e-08 1505.94 7.82907e-16 -2.05169e-14 -1.12294e-13
  7 5113.75 -3.18505e-08 1505.94 1.09045e-14 -2.05169e-14 -4.29176e-14
  8 5113.75 -3.18505e-08 1505.94 2.92185e-15 -1.54682e-14 -1.68843e-13
</Section>

newXOutput 102

<Section columns = "stress_xx | stress_yy | stress_zz | stress_xy | stress_yz | stress_xz">
  1 5138.20 -3.15476e-08 1517.95 2.08195e-16 -5.22857e-14 -9.19140e-15
  2 5138.20 -3.15476e-08 1517.95 7.76994e-16 -5.66855e-14 2.87577e-15
  3 5138.20 -3.15476e-08 1517.95 7.76994e-16 -8.55345e-14 -4.41689e-15
  4 5138.20 -3.15476e-08 1517.95 2.89978e-15 -8.22504e-14 -1.00803e-13
  5 5138.20 -3.15476e-08 1517.95 7.76994e-16 -5.09974e-14 -8.77846e-15
  6 5138.20 -3.15476e-08 1517.95 2.89978e-15 -5.18773e-14 2.43408e-14
  7 5138.20 -3.15476e-08 1517.95 2.89978e-15 -8.07263e-14 -2.87577e-15
  8 5138.20 -3.15476e-08 1517.95 1.08221e-14 -6.43061e-14 -2.06945e-14
</Section>

newXOutput 103

<Section columns = "stress_xx | stress_yy | stress_zz | stress_xy | stress_yz | stress_xz">
  1 5162.37 -3.12459e-08 1529.92 -1.54229e-15 9.62746e-15 1.62488e-14
  2 5162.37 -3.12456e-08 1529.92 -4.13255e-16 -6.33800e-15 -3.77536e-14
  3 5162.37 -3.12473e-08 1529.92 -5.75590e-15 2.24844e-14 3.09093e-14
  4 5162.37 -3.12476e-08 1529.92 -1.54229e-15 -2.72565e-14 -2.99373e-14
  5 5162.37 -3.12469e-08 1529.92 -5.75590e-15 1.47761e-14 1.01161e-14
  6 5162.37 -3.12459e-08 1529.92 -1.54229e-15 1.28769e-14 -6.06413e-14
  7 5162.37 -3.12463e-08 1529.92 -2.14813e-14 4.16993e-14 8.02169e-15
  8 5162.37 -3.12473e-08 1529.92 -5.75590e-15 4.44545e-14 -1.15355e-13
</Section>

newXOutput 104

<Section columns = "stress_xx | stress_yy | stress_zz | stress_xy | stress_yz | stress_xz">
  1 5186.26 -3.09519e-08 1541.84 4.10153e-16 4.45473e-15 -1.47055e-15
  2 5186.26 -3.09519e-08 1541.84 1.53071e-15 1.66253e-14 -7.64404e-14
  3 5186.26 -3.09519e-08 1541.84 1.53071e-15 1.66253e-14 -9.12250e-16
  4 5186.26 -3.09519e-08 1541.84 5.71270e-15 6.20463e-14 -4.74194e-14
  5 5186.26 -3.09519e-08 1541.84 1.53071e-15 4.45473e-15 -1.87926e-15
  6 5186.26 -3.09519e-08 1541.84 5.71270e-15 1.66253e-14 -9.76851e-14
  7 5186.26 -3.09519e-08 1541.84 5.71270e-15 1.66253e-14 -2.43756e-15
  8 5186.26 -3.09519e-08 1541.84 2.13201e-14 6.20463e-14 -1.26706e-13
</Section>

newXOutput 105

<Section columns = "stress_xx | stress_yy | stress_zz | stress_xy | stress_yz | stress_xz">
  1 5209.88 -3.06582e-08 1553.71 8.84328e-33 3.87433e-15 1.01653e-16
  2 5209.88 -3.06582e-08 1553.71 2.36955e-33 1.03812e-15 5.28399e-15
  3 5209.88 -3.06582e-08 1553.71 2.36955e-33 1.03812e-15 -1.89687e-15
  4 5209.88 -3.06582e-08 1553.71 6.34919e-34 2.78164e-16 -9.86006e-14
  5 5209.88 -3.06582e-08 1553.71 8.84328e-33 3.87433e-15 5.08264e-16
  6 5209.88 -3.06582e-08 1553.71 2.36955e-33 1.03812e-15 2.64200e-14
  7 5209.88 -3.06582e-08 1553.71 2.36955e-33 1.03812e-15 -3.79374e-16
  8 5209.88 -3.06582e-08 1553.71 6.34919e-34 2.78164e-16 -1.97201e-14
</Section>

newXOutput 106

<Section columns = "stress_xx | stress_yy | stress_zz | stress_xy | stress_yz | stress_xz">
  1 5233.23 -3.03726e-08 1565.54 -1.50793e-15 -4.14868e-15 -2.10750e-14
  2 5233.23 -3.03726e-08 1565.54 -4.04048e-16 -1.11164e-15 -4.71108e-14
  3 5233.23 -3.03726e-08 1565.54 -5.62767e-15 -1.54831e-14 -1.33041e-14
  4 5233.23 -3.03726e-08 1565.54 -1.50793e-15 -4.14868e-15 -4.12000e-14
  5 5233.23 -3.03726e-08 1565.54 -5.62767e-15 -4.14868e-15 -2.71139e-14
  6 5233.23 -3.03726e-08 1565.54 -1.50793e-15 -1.11164e-15 -6.96485e-14
  7 5233.23 -3.03726e-08 1565.54 -2.10027e-14 -1.54831e-14 -3.58419e-14
  8 5233.23 -3.03726e-08 1565.54 -5.62767e-15 -4.14868e-15 -1.25312e-13
</Section>

newXOutput 107

<Section columns = "stress_xx | stress_yy | stress_zz | stress_xy | stress_yz | stress_xz">
  1 5256.32 -3.00879e-08 1577.32 1.51874e-14 -1.12381e-14 1.03598e-14
  2 5256.32 -3.00879e-08 1577.32 1.40917e-14 -2.95066e-14 7.00448e-14
  3 5256.32 -3.00879e-08 1577.32 3.37889e-14 -7.90010e-16 2.77591e-15
  4 5256.32 -3.00879e-08 1577.32 2.96998e-14 -4.93551e-14 1.87684e-14
  5 5256.32 -3.00879e-08 1577.32 9.25422e-15 -8.67326e-15 1.03598e-14
  6 5256.32 -3.00879e-08 1577.32 5.16511e-15 -1.99344e-14 7.00448e-14
  7 5256.32 -3.00879e-08 1577.32 2.84036e-14 8.78218e-15 2.77591e-15
  8 5256.32 -3.00879e-08 1577.32 1.31428e-14 -1.36312e-14 1.87684e-14
</Section>

newXOutput 108

<Section columns = "stress_xx | stress_yy | stress_zz | stress_xy | stress_yz | stress_xz">
  1 5279.15 -2.98069e-08 1589.06 -1.61148e-14 -3.76499e-14 -7.51858e-15
  2 5279.15 -2.98079e-08 1589.06 -1.72024e-14 -8.40916e-14 3.16224e-15
  3 5279.15 -2.98070e-08 1589.06 -3.09239e-14 -8.71231e-14 -3.03014e-14
  4 5279.15 -2.98081e-08 1589.06 -3.49827e-14 -1.60951e-13 -1.04720e-13
  5 5279.15 -2.98079e-08 1589.06 -3.09239e-14 -3.78215e-14 -1.54088e-15
  6 5279.15 -2.98072e-08 1589.06 -3.49827e-14 -8.47322e-14 2.54713e-14
  7 5279.15 -2.98081e-08 1589.06 -6.54006e-14 -9.60459e-14 -7.99230e-15
  8 5279.15 -2.98082e-08 1589.06 -8.05483e-14 -1.94251e-13 -2.14618e-14
</Section>

newXOutput 109

<Section columns = "stress_xx | stress_yy | stress_zz | stress_xy | stress_yz | stress_xz">
  1 5301.72 -2.95331e-08 1600.76 1.38555e-15 2.96595e-15 -1.17881e-14
  2 5301.72 -2.95331e-08 1600.76 1.38555e-15 -3.19271e-14 -4.39938e-14
  3 5301.72 -2.95331e-08 1600.76 5.98058e-15 2.84299e-14 -1.06996e-14
  4 5301.72 -2.95331e-08 1600.76 5.98058e-15 -5.43623e-14 -3.99316e-14
  5 5301.72 -2.95331e-08 1600.76 -1.81922e-14 5.77271e-16 -1.77355e-14
  6 5301.72 -2.95331e-08 1600.76 -1.81922e-14 -4.08418e-14 -6.61898e-14
  7 5301.72 -2.95331e-08 1600.76 -2.58089e-14 2.77898e-14 -3.28957e-14
  8 5301.72 -2.95331e-08 1600.76 -2.58089e-14 -5.67510e-14 -1.22768e-13
</Section>

newXOutput 110

<Section columns = "stress_xx | stress_yy | stress_zz | stress_xy | stress_yz | stress_xz">
  1 5324.04 -2.92575e-08 1612.41 3.92219e-16 8.92643e-15 -2.12912e-14
  2 5324.04 -2.92575e-08 1612.41 1.46378e-15 5.63505e-15 -7.94598e-14
  3 5324.04 -2.92575e-08 1612.41 1.46378e-15 1.99541e-14 -1.32079e-14
  4 5324.04 -2.92575e-08 1612.41 5.46291e-15 1.74505e-14 -4.92925e-14
  5 5324.04 -2.92575e-08 1612.41 1.46378e-15 1.14843e-14 -2.72086e-14
  6 5324.04 -2.92575e-08 1612.41 5.46291e-15 1.51811e-14 -1.01544e-13
  7 5324.04 -2.92575e-08 1612.41 5.46291e-15 2.95001e-14 -3.52919e-14
  8 5324.04 -2.92575e-08 1612.41 2.03878e-14 5.30767e-14 -1.31711e-13
</Section>

newXOutput 111

<Section columns = "stress_xx | stress_yy | stress_zz | stress_xy | stress_yz | stress_xz">
  1 5346.10 -2.89881e-08 1624.02 -6.88408e-15 4.84707e-14 1.47189e-15
  2 5346.10 -2.89880e-08 1624.02 -6.88408e-15 2.83208e-14 5.49318e-15
  3 5346.10 -2.89889e-08 1624.02 -1.41814e-14 1.14157e-13 -2.74659e-14
  4 5346.10 -2.89887e-08 1624.02 -1.41814e-14 8.78122e-14 -1.02504e-13
  5 5346.10 -2.89889e-08 1624.02 -1.41814e-14 4.84707e-14 7.35947e-15
  6 5346.10 -2.89887e-08 1624.02 -1.41814e-14 2.83208e-14 2.74659e-14
  7 5346.10 -2.89889e-08 1624.02 -2.92139e-14 1.14157e-13 -5.49318e-15
  8 5346.10 -2.89883e-08 1624.02 -2.92139e-14 8.78122e-14 -2.05008e-14
</Section>

newXOutput 112

<Section columns = "stress_xx | stress_yy | stress_zz | stress_xy | stress_yz | stress_xz">
  1 5367.93 -2.87237e-08 1635.58 6.74653e-15 2.45654e-14 -7.77779e-16
  2 5367.93 -2.87237e-08 1635.58 7.80244e-15 -1.97926e-14 -4.04296e-14
  3 5367.93 -2.87237e-08 1635.58 1.45442e-14 6.59655e-14 -7.05963e-16
  4 5367.93 -2.87237e-08 1635.58 1.84849e-14 -3.12446e-14 -3.66965e-14
  5 5367.93 -2.87237e-08 1635.58 -9.09989e-15 2.71186e-14 -1.17019e-15
  6 5367.93 -2.87237e-08 1635.58 -5.15921e-15 -1.02640e-14 -6.08274e-14
  7 5367.93 -2.87237e-08 1635.58 -1.63343e-14 7.54942e-14 -2.17046e-15
  8 5367.93 -2.87237e-08 1635.58 -1.62743e-15 4.31692e-15 -1.12822e-13
</Section>

newXOutput 113

<Section columns = "stress_xx | stress_yy | stress_zz | stress_xy | stress_yz | stress_xz">
  1 5389.51 -2.84599e-08 1647.10 -5.32245e-16 8.71145e-16 2.54933e-14
  2 5389.51 -2.84599e-08 1647.10 -2.62864e-15 -1.10289e-14 6.46990e-14
  3 5389.51 -2.84599e-08 1647.10 3.48844e-15 1.45135e-14 -5.59513e-16
  4 5389.51 -2.84599e-08 1647.10 -4.33540e-15 8.71145e-16 -1.02454e-14
  5 5389.51 -2.84599e-08 1647.10 3.48844e-15 3.25116e-15 1.96647e-14
  6 5389.51 -2.84599e-08 1647.10 -4.33540e-15 -2.14659e-15 4.29461e-14
  7 5389.51 -2.84599e-08 1647.10 1.44860e-14 1.51512e-14 -2.23123e-14
  8 5389.51 -2.84599e-08 1647.10 -1.47130e-14 3.25116e-15 -9.14281e-14
</Section>

newXOutput 114

<Section columns = "stress_xx | stress_yy | stress_zz | stress_xy | stress_yz | stress_xz">
  1 5410.85 -2.82034e-08 1658.58 4.58416e-32 -6.75252e-15 1.21748e-14
  2 5410.85 -2.82034e-08 1658.58 1.38799e-31 -1.28450e-14 8.28478e-15
  3 5410.85 -2.82034e-08 1658.58 -1.44527e-32 1.56893e-14 -1.73205e-14
  4 5410.85 -2.82034e-08 1658.58 3.00271e-32 1.24411e-14 -9.83629e-14
  5 5410.85 -2.82034e-08 1658.58 2.47557e-32 -4.20394e-15 2.33854e-14
  6 5410.85 -2.82034e-08 1658.58 1.33149e-31 -3.33358e-15 3.13788e-14
  7 5410.85 -2.82034e-08 1658.58 -9.31464e-32 2.52008e-14 2.45179e-14
  8 5410.85 -2.82034e-08 1658.58 8.94123e-33 4.79383e-14 -1.21748e-14
</Section>

newXOutput 115

<Section columns = "stress_xx | stress_yy | stress_zz | stress_xy | stress_yz | stress_xz">
  1 5431.95 -2.79479e-08 1670.02 -5.12800e-15 -1.26827e-14 -1.93723e-14
  2 5431.95 -2.79479e-08 1670.02 -5.12800e-15 -3.21232e-14 -3.74953e-14
  3 5431.95 -2.79479e-08 1670.02 -1.33551e-14 -3.51355e-14 2.02869e-14
  4 5431.95 -2.79479e-08 1670.02 -1.33551e-14 -2.82954e-14 -3.22009e-15
  5 5431.95 -2.79479e-08 1670.02 -1.33551e-14 -1.28532e-14 -2.47564e-14
  6 5431.95 -2.79479e-08 1670.02 -1.33551e-14 -3.27598e-14 -3.89379e-14
  7 5431.95 -2.79479e-08 1670.02 -2.82597e-14 -4.40018e-14 1.93280e-16
  8 5431.95 -2.79479e-08 1670.02 -2.82597e-14 -6.13848e-14 -8.60416e-15
</Section>

newXOutput 116

<Section columns = "stress_xx | stress_yy | stress_zz | stress_xy | stress_yz | stress_xz">
  1 5452.82 -2.76941e-08 1681.41 -5.09091e-15 -1.71004e-14 -6.60049e-15
  2 5452.82 -2.76941e-08 1681.41 -5.09091e-15 -2.20492e-14 3.53480e-14
  3 5452.82 -2.76941e-08 1681.41 -1.32585e-14 -3.62906e-14 -2.89399e-14
  4 5452.82 -2.76941e-08 1681.41 -1.32585e-14 -2.55783e-14 -9.19330e-14
  5 5452.82 -2.76941e-08 1681.41 -1.32585e-14 -1.96444e-14 -8.58533e-16
  6 5452.82 -2.76941e-08 1681.41 -1.32585e-14 -3.15435e-14 5.67773e-14
  7 5452.82 -2.76941e-08 1681.41 -2.80552e-14 -4.57849e-14 -7.51056e-15
  8 5452.82 -2.76941e-08 1681.41 -2.80552e-14 -6.10116e-14 -1.19578e-14
</Section>

newXOutput 117

<Section columns = "stress_xx | stress_yy | stress_zz | stress_xy | stress_yz | stress_xz">
  1 5473.47 -2.74432e-08 1692.76 -5.21136e-14 -1.28953e-13 -7.14188e-16
  2 5473.47 -2.74445e-08 1692.76 -5.10955e-14 -2.48904e-13 3.17933e-14
  3 5473.47 -2.74432e-08 1692.76 -1.01032e-13 -2.37682e-13 2.50341e-14
  4 5473.47 -2.74445e-08 1692.76 -9.72327e-14 -4.79757e-13 1.52781e-14
  5 5473.47 -2.74445e-08 1692.76 -1.01032e-13 -1.24040e-13 -6.04496e-15
  6 5473.47 -2.74448e-08 1692.76 -9.72327e-14 -2.30568e-13 3.03649e-14
  7 5473.47 -2.74445e-08 1692.76 -1.94062e-13 -2.27561e-13 5.13941e-15
  8 5473.47 -2.74448e-08 1692.76 -1.79881e-13 -4.41984e-13 9.94736e-15
</Section>

newXOutput 118

<Section columns = "stress_xx | stress_yy | stress_zz | stress_xy | stress_yz | stress_xz">
  1 5493.88 -2.71984e-08 1704.07 8.77460e-15 3.70418e-14 -1.05136e-14
  2 5493.88 -2.71984e-08 1704.07 7.76377e-15 -1.05146e-14 -3.46437e-14
  3 5493.88 -2.71984e-08 1704.07 1.23868e-14 4.93532e-14 2.22837e-14
  4 5493.88 -2.71984e-08 1704.07 8.61439e-15 -3.40666e-15 -2.55700e-15
  5 5493.88 -2.71984e-08 1704.07 -1.02479e-14 3.21331e-14 -1.58181e-14
  6 5493.88 -2.71984e-08 1704.07 -1.40204e-14 -2.88343e-14 -3.60650e-14
  7 5493.88 -2.71984e-08 1704.07 -4.49672e-15 3.92410e-14 2.48731e-15
  8 5493.88 -2.71984e-08 1704.07 -1.85757e-14 -4.11456e-14 -7.86143e-15
</Section>

newXOutput 119

<Section columns = "stress_xx | stress_yy | stress_zz | stress_xy | stress_yz | stress_xz">
  1 5514.08 -2.69543e-08 1715.34 -7.80006e-18 3.17144e-16 -2.94027e-14
  2 5514.08 -2.69531e-08 1715.34 -7.80006e-18 -2.91256e-14 -1.05161e-13
  3 5514.08 -2.69542e-08 1715.34 1.08308e-14 4.48917e-14 -1.68448e-14
  4 5514.08 -2.69527e-08 1715.34 1.08308e-14 -3.73880e-14 -1.48164e-13
  5 5514.08 -2.69531e-08 1715.34 -1.16417e-14 4.87101e-16 -3.46810e-14
  6 5514.08 -2.69543e-08 1715.34 -1.16417e-14 -2.84913e-14 -1.06576e-13
  7 5514.08 -2.69527e-08 1715.34 -2.10758e-14 5.37262e-14 -3.65436e-14
  8 5514.08 -2.69542e-08 1715.34 -2.10758e-14 -4.41725e-15 -1.53442e-13
</Section>

newXOutput 120

<Section columns = "stress_xx | stress_yy | stress_zz | stress_xy | stress_yz | stress_xz">
  1 5534.05 -2.67158e-08 1726.57 1.28150e-14 -4.91345e-14 3.59684e-14
  2 5534.05 -2.67157e-08 1726.57 1.38114e-14 -5.75593e-14 1.45129e-14
  3 5534.05 -2.67162e-08 1726.57 2.70090e-14 -1.39703e-13 1.45129e-14
  4 5534.05 -2.67162e-08 1726.57 3.07277e-14 -1.43568e-13 -8.70844e-14
  5 5534.05 -2.67161e-08 1726.57 4.69717e-15 -4.89647e-14 4.15978e-14
  6 5534.05 -2.67158e-08 1726.57 8.41581e-15 -5.69256e-14 3.55223e-14
  7 5534.05 -2.67163e-08 1726.57 1.19521e-14 -1.30877e-13 3.55223e-14
  8 5534.05 -2.67162e-08 1726.57 2.58303e-14 -1.10627e-13 -8.67646e-15
</Section>

newXOutput 121

<Section columns = "stress_xx | stress_yy | stress_zz | stress_xy | stress_yz | stress_xz">
  1 5553.81 -2.64772e-08 1737.76 -5.96659e-15 -6.49817e-15 -1.74990e-14
  2 5553.81 -2.64772e-08 1737.76 -5.96659e-15 -1.29229e-14 -3.60484e-14
  3 5553.81 -2.64772e-08 1737.76 -1.59874e-15 2.66145e-14 -4.68885e-15
  4 5553.81 -2.64772e-08 1737.76 -1.59874e-15 4.13520e-15 -9.65913e-15
  5 5553.81 -2.64772e-08 1737.76 -1.59874e-15 -4.13520e-15 -1.74990e-14
  6 5553.81 -2.64772e-08 1737.76 -1.59874e-15 -4.10415e-15 -3.60484e-14
  7 5553.81 -2.64772e-08 1737.76 -4.28382e-16 2.72476e-14 -4.68885e-15
  8 5553.81 -2.64772e-08 1737.76 -4.28382e-16 6.49817e-15 -9.65913e-15
</Section>

newXOutput 122

<Section columns = "stress_xx | stress_yy | stress_zz | stress_xy | stress_yz | stress_xz">
  1 5573.36 -2.62453e-08 1748.91 1.19550e-31 3.18263e-15 8.36167e-15
  2 5573.36 -2.62453e-08 1748.91 4.46165e-31 1.28266e-14 3.12062e-14
  3 5573.36 -2.62453e-08 1748.91 4.46165e-31 -1.33858e-15 -3.12062e-14
  4 5573.36 -2.62453e-08 1748.91 1.66511e-30 4.43283e-14 -1.16463e-13
  5 5573.36 -2.62453e-08 1748.91 3.20332e-32 6.52259e-16 8.36167e-15
  6 5573.36 -2.62453e-08 1748.91 1.19550e-31 3.38315e-15 3.12062e-14
  7 5573.36 -2.62453e-08 1748.91 1.19550e-31 -1.07820e-14 -3.12062e-14
  8 5573.36 -2.62453e-08 1748.91 4.46165e-31 9.08479e-15 -1.16463e-13
</Section>

newXOutput 123

<Section columns = "stress_xx | stress_yy | stress_zz | stress_xy | stress_yz | stress_xz">
  1 5592.69 -2.60131e-08 1760.01 3.14469e-15 2.84413e-15 6.93408e-15
  2 5592.69 -2.60118e-08 1760.01 3.14469e-15 -5.43424e-15 2.58783e-14
  3 5592.69 -2.60130e-08 1760.01 1.68303e-14 4.00144e-14 -5.17567e-15
  4 5592.69 -2.60117e-08 1760.01 1.68303e-14 -2.04275e-15 -1.93158e-14
  5 5592.69 -2.60118e-08 1760.01 -5.00929e-15 -2.04275e-15 1.38682e-15
  6 5592.69 -2.60129e-08 1760.01 -5.00929e-15 -2.36724e-14 5.17567e-15
  7 5592.69 -2.60117e-08 1760.01 -1.73299e-14 2.99473e-14 -2.58783e-14
  8 5592.69 -2.60126e-08 1760.01 -1.73299e-14 -3.96137e-14 -9.65792e-14
</Section>

newXOutput 124

<Section columns = "stress_xx | stress_yy | stress_zz | stress_xy | stress_yz | stress_xz">
  1 5611.82 -2.57814e-08 1771.08 -1.46915e-14 -3.80452e-14 2.37319e-14
  2 5611.82 -2.57814e-08 1771.08 -1.46915e-14 3.42564e-14 -5.76657e-14
  3 5611.82 -2.57814e-08 1771.08 -2.48434e-14 -5.05839e-14 4.14021e-15
  4 5611.82 -2.57814e-08 1771.08 -2.48434e-14 1.03355e-13 -1.30783e-13
  5 5611.82 -2.57814e-08 1771.08 1.31059e-14 -3.80452e-14 2.37319e-14
  6 5611.82 -2.57814e-08 1771.08 1.31059e-14 3.42564e-14 -5.76657e-14
  7 5611.82 -2.57814e-08 1771.08 3.81665e-14 -5.05839e-14 4.14021e-15
  8 5611.82 -2.57814e-08 1771.08 3.81665e-14 1.03355e-13 -1.30783e-13
</Section>

newXOutput 125

<Section columns = "stress_xx | stress_yy | stress_zz | stress_xy | stress_yz | stress_xz">
  1 5630.74 -2.55632e-08 1782.11 6.22340e-15 2.00955e-14 -1.51005e-14
  2 5630.74 -2.55632e-08 1782.11 6.22340e-15 3.54539e-14 5.46885e-15
  3 5630.74 -2.55632e-08 1782.11 1.28203e-14 3.24684e-14 -3.17831e-14
  4 5630.74 -2.55632e-08 1782.11 1.28203e-14 1.10578e-13 -1.86069e-13
  5 5630.74 -2.55632e-08 1782.11 1.28203e-14 1.99264e-14 -9.23903e-15
  6 5630.74 -2.55632e-08 1782.11 1.28203e-14 3.48230e-14 4.50995e-14
  7 5630.74 -2.55632e-08 1782.11 2.64102e-14 2.36810e-14 -9.90767e-15
  8 5630.74 -2.55632e-08 1782.11 2.64102e-14 7.77829e-14 -3.81653e-14
</Section>

newXOutput 126

<Section columns = "stress_xx | stress_yy | stress_zz | stress_xy | stress_yz | stress_xz">
  1 5649.46 -2.53367e-08 1793.09 -1.30435e-15 -2.87881e-15 -1.07932e-14
  2 5649.46 -2.53367e-08 1793.09 -3.49501e-16 2.42564e-15 2.77122e-14
  3 5649.46 -2.53367e-08 1793.09 -4.86792e-15 2.42564e-15 1.47773e-14
  4 5649.46 -2.53367e-08 1793.09 -1.30435e-15 1.25814e-14 1.21600e-14
  5 5649.46 -2.53367e-08 1793.09 -4.86792e-15 -3.57402e-16 -2.09946e-14
  6 5649.46 -2.53367e-08 1793.09 -1.30435e-15 1.18357e-14 2.49787e-14
  7 5649.46 -2.53367e-08 1793.09 -1.81673e-14 1.18357e-14 -2.32949e-14
  8 5649.46 -2.53367e-08 1793.09 -4.86792e-15 4.77001e-14 1.95854e-15
</Section>

newXOutput 127

<Section columns = "stress_xx | stress_yy | stress_zz | stress_xy | stress_yz | stress_xz">
  1 5667.97 -2.51202e-08 1804.04 -1.64964e-15 4.97779e-14 -3.35347e-14
  2 5667.97 -2.51202e-08 1804.04 -1.64964e-15 2.12661e-14 -1.58839e-14
  3 5667.97 -2.51201e-08 1804.04 4.10371e-15 1.08862e-13 -3.99042e-14
  4 5667.97 -2.51202e-08 1804.04 4.10371e-15 2.02288e-14 -3.64372e-14
  5 5667.97 -2.51201e-08 1804.04 -1.71279e-14 4.49083e-14 -3.38992e-14
  6 5667.97 -2.51202e-08 1804.04 -1.71279e-14 3.09246e-15 -3.48282e-14
  7 5667.97 -2.51198e-08 1804.04 -4.27860e-14 9.88304e-14 -4.12644e-14
  8 5667.97 -2.51201e-08 1804.04 -4.27860e-14 -1.72094e-14 -1.07138e-13
</Section>

newXOutput 128

<Section columns = "stress_xx | stress_yy | stress_zz | stress_xy | stress_yz | stress_xz">
  1 5686.30 -2.49006e-08 1814.95 4.32930e-15 -3.67112e-14 -1.30500e-15
  2 5686.30 -2.49004e-08 1814.95 3.38776e-15 -2.71183e-14 -6.78347e-14
  3 5686.30 -2.49007e-08 1814.95 1.08863e-14 -8.34790e-14 -8.09549e-16
  4 5686.30 -2.49006e-08 1814.95 7.37243e-15 -3.80540e-14 -4.20810e-14
  5 5686.30 -2.49019e-08 1814.95 1.08863e-14 -3.92282e-14 -1.66769e-15
  6 5686.30 -2.49010e-08 1814.95 7.37243e-15 -3.65117e-14 -8.66877e-14
  7 5686.30 -2.49022e-08 1814.95 2.09573e-14 -9.28724e-14 -2.16314e-15
  8 5686.30 -2.49019e-08 1814.95 7.84321e-15 -7.31108e-14 -1.12441e-13
</Section>

newXOutput 129

<Section columns = "stress_xx | stress_yy | stress_zz | stress_xy | stress_yz | stress_xz">
  1 5704.42 -2.46872e-08 1825.82 -4.64139e-15 -1.16048e-13 -1.04995e-14
  2 5704.42 -2.46872e-08 1825.82 -4.64139e-15 -1.35647e-13 -1.25637e-13
  3 5704.42 -2.46872e-08 1825.82 -1.20878e-14 -2.03061e-13 -4.97905e-15
  4 5704.42 -2.46872e-08 1825.82 -1.20878e-14 -2.39229e-13 -1.46239e-13
  5 5704.42 -2.46893e-08 1825.82 -1.20878e-14 -1.18395e-13 -1.04995e-14
  6 5704.42 -2.46893e-08 1825.82 -1.20878e-14 -1.44403e-13 -1.25637e-13
  7 5704.42 -2.46893e-08 1825.82 -2.55780e-14 -2.03689e-13 -4.97905e-15
  8 5704.42 -2.46893e-08 1825.82 -2.55780e-14 -2.41575e-13 -1.46239e-13
</Section>

newXOutput 130

<Section columns = "stress_xx | stress_yy | stress_zz | stress_xy | stress_yz | stress_xz">
  1 5722.36 -2.44763e-08 1836.65 -1.66277e-31 -6.04227e-14 -2.59499e-14
  2 5722.36 -2.44763e-08 1836.65 -1.12822e-30 -4.83033e-14 -1.59209e-13
  3 5722.36 -2.44763e-08 1836.65 -3.77743e-31 -1.29724e-13 -3.27846e-14
  4 5722.36 -2.44763e-08 1836.65 -2.15385e-30 -9.55863e-14 -1.61040e-13
  5 5722.36 -2.44763e-08 1836.65 -1.06947e-31 -6.27670e-14 -2.09466e-14
  6 5722.36 -2.44763e-08 1836.65 -1.38636e-30 -5.70521e-14 -1.57868e-13
  7 5722.36 -2.44763e-08 1836.65 1.17717e-31 -1.30352e-13 -1.41119e-14
  8 5722.36 -2.44763e-08 1836.65 -2.09452e-30 -9.79305e-14 -1.56037e-13
</Section>

newXOutput 131

<Section columns = "stress_xx | stress_yy | stress_zz | stress_xy | stress_yz | stress_xz">
  1 5740.11 -2.42662e-08 1847.44 -4.04627e-31 -8.65287e-14 -7.33188e-15
  2 5740.11 -2.42662e-08 1847.44 -1.26196e-30 -9.24990e-14 5.12313e-16
  3 5740.11 -2.42662e-08 1847.44 -1.92119e-30 -1.65734e-13 -5.92409e-14
  4 5740.11 -2.42662e-08 1847.44 -7.10349e-30 -1.67334e-13 -2.13621e-13
  5 5740.11 -2.42662e-08 1847.44 -2.75115e-31 -8.41865e-14 -1.99494e-15
  6 5740.11 -2.42662e-08 1847.44 -7.78612e-31 -8.37579e-14 2.04301e-14
  7 5740.11 -2.42662e-08 1847.44 -1.30136e-30 -1.65107e-13 -3.93232e-14
  8 5740.11 -2.42662e-08 1847.44 -4.79025e-30 -1.64992e-13 -1.39287e-13
</Section>

newXOutput 132

<Section columns = "stress_xx | stress_yy | stress_zz | stress_xy | stress_yz | stress_xz">
  1 5757.67 -2.40591e-08 1858.20 -8.89220e-32 -1.76940e-13 -1.36916e-15
  2 5757.67 -2.40591e-08 1858.20 2.44854e-31 -1.74630e-13 2.26327e-14
  3 5757.67 -2.40594e-08 1858.20 -3.43833e-31 -3.15039e-13 -7.10160e-15
  4 5757.67 -2.40594e-08 1858.20 -1.12867e-30 -3.16010e-13 -1.90700e-14
  5 5757.67 -2.40599e-08 1858.20 -3.41303e-31 -1.74432e-13 -6.68068e-15
  6 5757.67 -2.40599e-08 1858.20 -6.97046e-31 -1.65270e-13 2.80983e-15
  7 5757.67 -2.40607e-08 1858.20 -1.28573e-30 -3.05678e-13 -2.69245e-14
  8 5757.67 -2.40607e-08 1858.20 -4.64389e-30 -2.81076e-13 -9.30499e-14
</Section>

newXOutput 133

<Section columns = "stress_xx | stress_yy | stress_zz | stress_xy | stress_yz | stress_xz">
  1 5775.04 -2.38570e-08 1868.91 -8.36408e-31 -3.53900e-13 -1.18403e-14
  2 5775.04 -2.38570e-08 1868.91 -2.13670e-30 -3.44548e-13 -1.65781e-14
  3 5775.04 -2.38570e-08 1868.91 -2.13670e-30 -7.23319e-13 -1.65781e-14
  4 5775.04 -2.38570e-08 1868.91 -7.71040e-30 -6.88416e-13 -5.44720e-14
  5 5775.04 -2.38570e-08 1868.91 -2.34482e-30 -3.56406e-13 -2.24129e-14
  6 5775.04 -2.38570e-08 1868.91 -7.76616e-30 -3.53900e-13 -5.60354e-14
  7 5775.04 -2.38570e-08 1868.91 -7.76616e-30 -7.32672e-13 -5.60354e-14
  8 5775.04 -2.38570e-08 1868.91 -2.87198e-29 -7.23319e-13 -2.01729e-13
</Section>

newXOutput 134

<Section columns = "stress_xx | stress_yy | stress_zz | stress_xy | stress_yz | stress_xz">
  1 5792.24 -2.36541e-08 1879.59 1.72590e-31 -3.84805e-14 4.21180e-14
  2 5792.24 -2.36541e-08 1879.59 -1.15115e-31 -3.61752e-14 4.52946e-14
  3 5792.24 -2.36541e-08 1879.59 1.71149e-33 -6.42079e-14 1.58418e-14
  4 5792.24 -2.36541e-08 1879.59 -1.41114e-30 -6.51775e-14 -7.28861e-14
  5 5792.24 -2.36541e-08 1879.59 2.56066e-31 -3.59768e-14 4.73793e-14
  6 5792.24 -2.36541e-08 1879.59 1.96422e-31 -2.68310e-14 6.49297e-14
  7 5792.24 -2.36541e-08 1879.59 3.13248e-31 -5.48636e-14 3.54770e-14
  8 5792.24 -2.36541e-08 1879.59 -2.48471e-31 -3.03043e-14 3.93327e-16
</Section>

newXOutput 135

<Section columns = "stress_xx | stress_yy | stress_zz | stress_xy | stress_yz | stress_xz">
  1 5809.26 -2.34532e-08 1890.24 2.99219e-31 -5.25156e-15 3.41991e-14
  2 5809.26 -2.34532e-08 1890.24 8.91744e-31 7.47113e-15 -1.10803e-14
  3 5809.26 -2.34532e-08 1890.24 9.83526e-31 -3.57360e-15 -1.10803e-14
  4 5809.26 -2.34534e-08 1890.24 3.20716e-30 4.24284e-14 -1.80065e-13
  5 5809.26 -2.34532e-08 1890.24 1.52307e-31 -1.00872e-14 4.46718e-14
  6 5809.26 -2.34534e-08 1890.24 3.43462e-31 -1.05757e-14 2.80044e-14
  7 5809.26 -2.34534e-08 1890.24 3.68055e-31 -1.35351e-14 2.80044e-14
  8 5809.26 -2.34540e-08 1890.24 9.10189e-31 5.25156e-15 -3.41991e-14
</Section>

newXOutput 136

<Section columns = "stress_xx | stress_yy | stress_zz | stress_xy | stress_yz | stress_xz">
  1 5826.10 -2.32576e-08 1900.84 1.19023e-32 8.72257e-15 -4.08080e-14
  2 5826.10 -2.32576e-08 1900.84 3.18922e-33 5.50635e-15 -6.02581e-14
  3 5826.10 -2.32576e-08 1900.84 -6.37413e-32 1.94983e-14 -4.34138e-14
  4 5826.10 -2.32576e-08 1900.84 -1.70794e-32 1.70520e-14 -1.95711e-13
  5 5826.10 -2.32576e-08 1900.84 5.05447e-32 1.12220e-14 -4.01097e-14
  6 5826.10 -2.32576e-08 1900.84 1.35434e-32 1.48344e-14 -2.39636e-14
  7 5826.10 -2.32576e-08 1900.84 8.04740e-32 2.88263e-14 -4.08080e-14
  8 5826.10 -2.32576e-08 1900.84 2.15629e-32 5.18646e-14 -6.02581e-14
</Section>

newXOutput 137

<Section columns = "stress_xx | stress_yy | stress_zz | stress_xy | stress_yz | stress_xz">
  1 5842.76 -2.30621e-08 1911.41 -3.64708e-32 -6.61655e-15 -2.57495e-14
  2 5842.76 -2.30621e-08 1911.41 -1.36111e-31 -1.25864e-14 -9.60985e-14
  3 5842.76 -2.30621e-08 1911.41 9.48531e-32 1.53734e-14 -3.80224e-14
  4 5842.76 -2.30621e-08 1911.41 3.53996e-31 1.21906e-14 -1.41902e-13
  5 5842.76 -2.30621e-08 1911.41 4.60447e-32 -4.11928e-15 -2.57495e-14
  6 5842.76 -2.30621e-08 1911.41 1.71841e-31 -3.26645e-15 -9.60985e-14
  7 5842.76 -2.30621e-08 1911.41 4.02805e-31 2.46933e-14 -3.80224e-14
  8 5842.76 -2.30621e-08 1911.41 1.50329e-30 4.69729e-14 -1.41902e-13
</Section>

newXOutput 138

<Section columns = "stress_xx | stress_yy | stress_zz | stress_xy | stress_yz | stress_xz">
  1 5859.25 -2.28732e-08 1921.94 -9.85281e-15 3.55589e-13 -2.44245e-14
  2 5859.25 -2.28732e-08 1921.94 -9.85281e-15 3.29950e-13 -1.24227e-13
  3 5859.25 -2.28732e-08 1921.94 -1.77520e-14 7.07080e-13 -3.14137e-14
  4 5859.25 -2.28732e-08 1921.94 -1.77520e-14 6.78179e-13 -1.47257e-13
  5 5859.25 -2.28716e-08 1921.94 -1.77520e-14 3.58084e-13 -1.96075e-14
  6 5859.25 -2.28716e-08 1921.94 -1.77520e-14 3.39262e-13 -1.22936e-13
  7 5859.25 -2.28716e-08 1921.94 -2.70713e-14 7.16392e-13 -1.34365e-14
  8 5859.25 -2.28716e-08 1921.94 -2.70713e-14 7.12931e-13 -1.42440e-13
</Section>

newXOutput 139

<Section columns = "stress_xx | stress_yy | stress_zz | stress_xy | stress_yz | stress_xz">
  1 5875.58 -2.26828e-08 1932.43 -6.96504e-15 -2.51262e-14 -3.62501e-14
  2 5875.58 -2.26828e-08 1932.43 -6.96504e-15 -2.67984e-14 -1.62127e-13
  3 5875.58 -2.26828e-08 1932.43 -1.19897e-14 -3.78049e-14 -4.70606e-14
  4 5875.58 -2.26828e-08 1932.43 -1.19897e-14 -2.64562e-14 -1.82824e-13
  5 5875.58 -2.26828e-08 1932.43 -1.19897e-14 -2.99451e-14 -4.13887e-14
  6 5875.58 -2.26828e-08 1932.43 -1.19897e-14 -4.47828e-14 -1.81304e-13
  7 5875.58 -2.26828e-08 1932.43 -2.40670e-14 -4.77319e-14 -6.62383e-14
  8 5875.58 -2.26828e-08 1932.43 -2.40670e-14 -6.35044e-14 -2.54396e-13
</Section>

newXOutput 140

<Section columns = "stress_xx | stress_yy | stress_zz | stress_xy | stress_yz | stress_xz">
  1 5891.73 -2.24923e-08 1942.89 1.04507e-14 -9.51060e-14 5.02900e-15
  2 5891.73 -2.24923e-08 1942.89 1.04507e-14 -1.40248e-13 7.63297e-14
  3 5891.73 -2.24926e-08 1942.89 1.21584e-14 -1.71082e-13 4.16467e-14
  4 5891.73 -2.24926e-08 1942.89 1.21584e-14 -2.42843e-13 9.26265e-14
  5 5891.73 -2.24937e-08 1942.89 -7.25482e-15 -9.52728e-14 -9.97235e-15
  6 5891.73 -2.24937e-08 1942.89 -7.25482e-15 -1.40871e-13 3.68747e-14
  7 5891.73 -2.24949e-08 1942.89 -1.74558e-14 -1.79755e-13 -1.43391e-14
  8 5891.73 -2.24949e-08 1942.89 -1.74558e-14 -2.75212e-13 -5.46215e-14
</Section>

newXOutput 141

<Section columns = "stress_xx | stress_yy | stress_zz | stress_xy | stress_yz | stress_xz">
  1 5907.72 -2.23064e-08 1953.31 -1.22196e-30 -2.67978e-13 -1.72150e-14
  2 5907.72 -2.23056e-08 1953.31 -1.25509e-31 -2.61862e-13 1.74312e-14
  3 5907.72 -2.23064e-08 1953.31 -3.78890e-30 -5.09688e-13 -3.95666e-14
  4 5907.72 -2.23056e-08 1953.31 -3.10274e-30 -4.97850e-13 -2.70557e-14
  5 5907.72 -2.23093e-08 1953.31 -1.69059e-30 -2.70300e-13 -2.23059e-14
  6 5907.72 -2.23064e-08 1953.31 -1.87445e-30 -2.70527e-13 -1.56804e-15
  7 5907.72 -2.23093e-08 1953.31 -5.60350e-30 -5.10310e-13 -5.85658e-14
  8 5907.72 -2.23064e-08 1953.31 -9.87491e-30 -5.00172e-13 -9.79619e-14
</Section>

newXOutput 142

<Section columns = "stress_xx | stress_yy | stress_zz | stress_xy | stress_yz | stress_xz">
  1 5923.55 -2.21261e-08 1963.70 2.06777e-15 6.93487e-14 -4.21860e-15
  2 5923.55 -2.21240e-08 1963.70 1.21243e-15 -1.02569e-14 -7.55531e-15
  3 5923.55 -2.21262e-08 1963.70 1.31469e-14 1.42860e-13 3.71886e-14
  4 5923.55 -2.21243e-08 1963.70 9.95465e-15 -2.11294e-14 -1.40135e-14
  5 5923.55 -2.21240e-08 1963.70 -2.51595e-14 6.93487e-14 -1.87413e-14
  6 5923.55 -2.21248e-08 1963.70 -2.83517e-14 -1.02569e-14 -2.89999e-14
  7 5923.55 -2.21243e-08 1963.70 -4.26803e-14 1.42860e-13 -1.70108e-14
  8 5923.55 -2.21258e-08 1963.70 -5.45938e-14 -2.11294e-14 -9.40459e-14
</Section>

newXOutput 143

<Section columns = "stress_xx | stress_yy | stress_zz | stress_xy | stress_yz | stress_xz">
  1 5939.21 -2.19443e-08 1974.05 -6.49056e-15 3.58199e-14 -9.95163e-15
  2 5939.21 -2.19443e-08 1974.05 -6.49056e-15 7.89823e-14 -9.57941e-14
  3 5939.21 -2.19443e-08 1974.05 -1.09102e-14 9.28900e-14 -3.33572e-14
  4 5939.21 -2.19443e-08 1974.05 -1.09102e-14 1.87480e-13 -1.60877e-13
  5 5939.21 -2.19443e-08 1974.05 3.35860e-15 3.33355e-14 -1.02895e-14
  6 5939.21 -2.19443e-08 1974.05 3.35860e-15 6.97104e-14 -1.13357e-13
  7 5939.21 -2.19443e-08 1974.05 1.61016e-14 8.36182e-14 -3.46181e-14
  8 5939.21 -2.19443e-08 1974.05 1.61016e-14 1.52877e-13 -2.26421e-13
</Section>

newXOutput 144

<Section columns = "stress_xx | stress_yy | stress_zz | stress_xy | stress_yz | stress_xz">
  1 5954.72 -2.17651e-08 1984.37 -6.73445e-15 -1.66854e-14 1.76494e-14
  2 5954.72 -2.17651e-08 1984.37 -6.73445e-15 -2.15141e-14 -1.46798e-14
  3 5954.72 -2.17651e-08 1984.37 -1.15927e-14 -3.54099e-14 -1.46798e-14
  4 5954.72 -2.17651e-08 1984.37 -1.15927e-14 -2.49576e-14 -1.73726e-13
  5 5954.72 -2.17651e-08 1984.37 -1.15927e-14 -1.91677e-14 2.76902e-14
  6 5954.72 -2.17651e-08 1984.37 -1.15927e-14 -3.07780e-14 2.27929e-14
  7 5954.72 -2.17651e-08 1984.37 -2.32702e-14 -4.46738e-14 2.27929e-14
  8 5954.72 -2.17651e-08 1984.37 -2.32702e-14 -5.95310e-14 -3.38756e-14
</Section>

newXOutput 145

<Section columns = "stress_xx | stress_yy | stress_zz | stress_xy | stress_yz | stress_xz">
  1 5970.07 -2.15887e-08 1994.65 -7.83481e-15 -2.32201e-14 3.12328e-15
  2 5970.07 -2.15887e-08 1994.65 -6.99648e-15 -4.59365e-14 -4.64576e-14
  3 5970.07 -2.15887e-08 1994.65 -1.57895e-14 -4.88706e-14 -4.05458e-14
  4 5970.07 -2.15887e-08 1994.65 -1.26608e-14 -7.52850e-14 -1.87370e-13
  5 5970.07 -2.15887e-08 1994.65 -1.57895e-14 -2.09061e-14 1.77803e-14
  6 5970.07 -2.15887e-08 1994.65 -1.26608e-14 -3.73006e-14 -7.90830e-15
  7 5970.07 -2.15887e-08 1994.65 -3.90658e-14 -4.82505e-14 1.41549e-14
  8 5970.07 -2.15887e-08 1994.65 -2.73893e-14 -7.29710e-14 -4.35017e-14
</Section>

newXOutput 146

<Section columns = "stress_xx | stress_yy | stress_zz | stress_xy | stress_yz | stress_xz">
  1 5985.26 -2.14122e-08 2004.89 1.00258e-13 -1.23234e-14 -1.78978e-14
  2 5985.26 -2.14122e-08 2004.89 1.00258e-13 -6.23356e-15 -6.67954e-14
  3 5985.26 -2.14122e-08 2004.89 2.06695e-13 -1.71742e-14 -1.11028e-14
  4 5985.26 -2.14122e-08 2004.89 2.06695e-13 -5.38730e-15 -4.14362e-14
  5 5985.26 -2.14122e-08 2004.89 9.94705e-14 -1.46354e-14 -2.28720e-14
  6 5985.26 -2.14122e-08 2004.89 9.94705e-14 -1.48621e-14 -8.53596e-14
  7 5985.26 -2.14122e-08 2004.89 2.13309e-13 -1.77937e-14 -2.96670e-14
  8 5985.26 -2.14122e-08 2004.89 2.13309e-13 -7.69933e-15 -1.10719e-13
</Section>

newXOutput 147

<Section columns = "stress_xx | stress_yy | stress_zz | stress_xy | stress_yz | stress_xz">
  1 6000.30 -2.12407e-08 2015.10 -4.15113e-14 2.84610e-15 -3.25811e-14
  2 6000.30 -2.12418e-08 2015.10 -4.06841e-14 1.24787e-14 -1.21594e-13
  3 6000.30 -2.12407e-08 2015.10 -7.59064e-14 -1.52419e-14 -3.84387e-14
  4 6000.30 -2.12418e-08 2015.10 -7.28190e-14 3.96411e-14 -1.43455e-13
  5 6000.30 -2.12407e-08 2015.10 -4.34889e-14 3.70195e-16 -3.25811e-14
  6 6000.30 -2.12418e-08 2015.10 -4.04016e-14 3.23852e-15 -1.21594e-13
  7 6000.30 -2.12407e-08 2015.10 -7.69608e-14 -2.44821e-14 -3.84387e-14
  8 6000.30 -2.12418e-08 2015.10 -6.54385e-14 5.15615e-15 -1.43455e-13
</Section>

newXOutput 148

<Section columns = "stress_xx | stress_yy | stress_zz | stress_xy | stress_yz | stress_xz">
  1 5974.40 -2.09265e-08 2011.54 1.92750e-33 3.26224e-16 -4.01230e-14
  2 5974.40 -2.09265e-08 2011.54 7.19352e-33 2.96103e-16 -1.49741e-13
  3 5974.40 -2.09267e-08 2011.54 1.00193e-31 1.69574e-14 -4.01230e-14
  4 5974.40 -2.09265e-08 2011.54 3.73924e-31 1.53916e-14 -1.49741e-13
  5 5974.40 -2.09267e-08 2011.54 7.19352e-33 4.90814e-16 -4.01230e-14
  6 5974.40 -2.09265e-08 2011.54 2.68466e-32 9.10358e-16 -1.49741e-13
  7 5974.40 -2.09273e-08 2011.54 3.73924e-31 2.55129e-14 -4.01230e-14
  8 5974.40 -2.09267e-08 2011.54 1.39551e-30 4.73211e-14 -1.49741e-13
</Section>

newXOutput 149

<Section columns = "stress_xx | stress_yy | stress_zz | stress_xy | stress_yz | stress_xz">
  1 5920.49 -2.05200e-08 1998.48 2.52255e-14 4.14391e-15 5.22893e-14
  2 5920.49 -2.05200e-08 1998.48 2.52255e-14 1.87963e-15 6.18372e-14
  3 5920.49 -2.05200e-08 1998.48 4.33016e-14 2.61799e-14 4.05689e-14
  4 5920.49 -2.05202e-08 1998.48 4.33016e-14 4.70025e-14 2.52673e-15
  5 5920.49 -2.05200e-08 1998.48 2.53525e-14 3.98134e-15 5.19666e-14
  6 5920.49 -2.05202e-08 1998.48 2.53525e-14 1.27292e-15 4.50634e-14
  7 5920.49 -2.05202e-08 1998.48 4.99054e-14 1.77295e-14 3.93646e-14
  8 5920.49 -2.05208e-08 1998.48 4.99054e-14 1.54653e-14 -6.00740e-14
</Section>

newXOutput 150

<Section columns = "stress_xx | stress_yy | stress_zz | stress_xy | stress_yz | stress_xz">
  1 5867.08 -2.01266e-08 1985.48 1.85571e-14 -2.77703e-15 -1.82420e-14
  2 5867.08 -2.01280e-08 1985.48 1.77699e-14 3.05516e-15 1.56393e-14
  3 5867.08 -2.01266e-08 1985.48 4.01788e-14 2.19351e-16 4.42299e-15
  4 5867.08 -2.01280e-08 1985.48 3.72409e-14 5.08997e-14 -1.41366e-14
  5 5867.08 -2.01280e-08 1985.48 2.25511e-14 -5.40502e-16 -3.18285e-14
  6 5867.08 -2.01266e-08 1985.48 1.96132e-14 1.14020e-14 -4.42299e-15
  7 5867.08 -2.01280e-08 1985.48 6.11046e-14 8.18628e-16 -4.62827e-14
  8 5867.08 -2.01266e-08 1985.48 5.01400e-14 5.31363e-14 -8.90099e-14
</Section>

newXOutput 151

<Section columns = "stress_xx | stress_yy | stress_zz | stress_xy | stress_yz | stress_xz">
  1 5814.16 -1.97387e-08 1972.54 1.29010e-14 4.38881e-14 2.79080e-14
  2 5814.16 -1.97388e-08 1972.54 1.29010e-14 -3.94116e-14 -4.35278e-15
  3 5814.16 -1.97388e-08 1972.54 2.04590e-14 7.70842e-14 6.68543e-15
  4 5814.16 -1.97387e-08 1972.54 2.04590e-14 -4.22709e-14 -4.23615e-14
  5 5814.16 -1.97380e-08 1972.54 -9.83865e-15 4.60973e-14 2.72830e-14
  6 5814.16 -1.97385e-08 1972.54 -9.83865e-15 -3.11668e-14 -3.68424e-14
  7 5814.16 -1.97385e-08 1972.54 -1.41505e-14 7.76762e-14 4.35278e-15
  8 5814.16 -1.97380e-08 1972.54 -1.41505e-14 -4.00616e-14 -1.63614e-13
</Section>

newXOutput 152

<Section columns = "stress_xx | stress_yy | stress_zz | stress_xy | stress_yz | stress_xz">
  1 5761.73 -1.93587e-08 1959.68 -3.15549e-14 -1.05295e-13 -1.82009e-14
  2 5761.73 -1.93587e-08 1959.68 -3.15549e-14 5.04016e-14 -6.79266e-14
  3 5761.73 -1.93587e-08 1959.68 -6.28045e-14 -2.21799e-13 -1.65203e-14
  4 5761.73 -1.93588e-08 1959.68 -6.28045e-14 1.07477e-13 -6.16546e-14
  5 5761.73 -1.93587e-08 1959.68 1.37164e-14 -1.07477e-13 -2.73837e-14
  6 5761.73 -1.93588e-08 1959.68 1.37164e-14 4.22572e-14 -1.02198e-13
  7 5761.73 -1.93588e-08 1959.68 3.64637e-14 -2.22383e-13 -5.07912e-14
  8 5761.73 -1.93591e-08 1959.68 3.64637e-14 1.05295e-13 -1.89555e-13
</Section>

newXOutput 153

<Section columns = "stress_xx | stress_yy | stress_zz | stress_xy | stress_yz | stress_xz">
  1 5709.78 -1.89880e-08 1946.87 -1.92424e-14 7.73582e-15 -2.00215e-14
  2 5709.78 -1.89890e-08 1946.87 -1.99883e-14 1.59360e-14 -6.74187e-14
  3 5709.78 -1.89880e-08 1946.87 -4.81581e-14 2.88705e-14 2.30783e-14
  4 5709.78 -1.89890e-08 1946.87 -5.09419e-14 5.94738e-14 -5.01404e-14
  5 5709.78 -1.89880e-08 1946.87 -1.47529e-14 7.73582e-15 -3.74918e-14
  6 5709.78 -1.89890e-08 1946.87 -1.75366e-14 1.59360e-14 -1.03408e-13
  7 5709.78 -1.89880e-08 1946.87 -3.42551e-14 2.88705e-14 -4.21215e-14
  8 5709.78 -1.89890e-08 1946.87 -4.46442e-14 5.94738e-14 -1.84453e-13
</Section>

newXOutput 154

<Section columns = "stress_xx | stress_yy | stress_zz | stress_xy | stress_yz | stress_xz">
  1 5658.30 -1.86239e-08 1934.13 1.01560e-14 -1.41837e-14 1.34123e-14
  2 5658.30 -1.86239e-08 1934.13 9.42335e-15 -2.73791e-14 3.59382e-15
  3 5658.30 -1.86239e-08 1934.13 2.25952e-14 -4.01568e-14 3.59382e-15
  4 5658.30 -1.86239e-08 1934.13 1.98607e-14 -5.44934e-14 9.62960e-16
  5 5658.30 -1.86239e-08 1934.13 6.18845e-15 -1.19012e-14 1.34123e-14
  6 5658.30 -1.86239e-08 1934.13 3.45400e-15 -1.88607e-14 3.59382e-15
  7 5658.30 -1.86239e-08 1934.13 1.89939e-14 -3.16384e-14 3.59382e-15
  8 5658.30 -1.86239e-08 1934.13 8.78881e-15 -2.27022e-14 9.62960e-16
</Section>

newXOutput 155

<Section columns = "stress_xx | stress_yy | stress_zz | stress_xy | stress_yz | stress_xz">
  1 5607.28 -1.82715e-08 1921.46 6.73858e-15 7.92436e-14 -3.33311e-14
  2 5607.28 -1.82715e-08 1921.46 6.06705e-15 9.96907e-14 -7.86619e-14
  3 5607.28 -1.82715e-08 1921.46 1.41825e-14 1.75429e-13 -2.96471e-14
  4 5607.28 -1.82715e-08 1921.46 1.40026e-14 2.08630e-13 -9.83909e-14
  5 5607.28 -1.82715e-08 1921.46 1.33310e-14 7.92436e-14 -2.89533e-14
  6 5607.28 -1.82715e-08 1921.46 1.08248e-14 9.96907e-14 -6.23236e-14
  7 5607.28 -1.82715e-08 1921.46 2.18481e-14 1.75429e-13 -1.33089e-14
  8 5607.28 -1.82715e-08 1921.46 2.11766e-14 2.08630e-13 -3.74157e-14
</Section>

newXOutput 156

<Section columns = "stress_xx | stress_yy | stress_zz | stress_xy | stress_yz | stress_xz">
  1 5556.73 -1.79268e-08 1908.85 9.27000e-32 2.56077e-15 -5.45347e-15
  2 5556.73 -1.79268e-08 1908.85 3.54513e-31 1.12277e-14 -7.55627e-14
  3 5556.73 -1.79268e-08 1908.85 4.36932e-31 -1.37138e-14 -1.71207e-14
  4 5556.73 -1.79268e-08 1908.85 1.34744e-30 3.56669e-14 -1.14008e-13
  5 5556.73 -1.79268e-08 1908.85 8.80331e-32 3.33082e-16 2.58759e-15
  6 5556.73 -1.79268e-08 1908.85 1.11924e-31 2.91384e-15 -7.34081e-14
  7 5556.73 -1.79268e-08 1908.85 4.19515e-31 -2.20277e-14 1.28889e-14
  8 5556.73 -1.79268e-08 1908.85 4.42083e-31 4.63923e-15 -1.05967e-13
</Section>

newXOutput 157

<Section columns = "stress_xx | stress_yy | stress_zz | stress_xy | stress_yz | stress_xz">
  1 5506.64 -1.75895e-08 1896.30 -2.23719e-14 -6.62826e-14 -4.91103e-14
  2 5506.64 -1.75889e-08 1896.30 -2.30665e-14 9.75481e-14 -1.38972e-13
  3 5506.64 -1.75895e-08 1896.30 -4.43653e-14 -1.24223e-13 -4.39882e-14
  4 5506.64 -1.75889e-08 1896.30 -4.69577e-14 2.26332e-13 -1.52293e-13
  5 5506.64 -1.75889e-08 1896.30 2.56294e-14 -6.62826e-14 -5.33521e-14
  6 5506.64 -1.75866e-08 1896.30 2.30370e-14 9.75481e-14 -1.54802e-13
  7 5506.64 -1.75889e-08 1896.30 6.57230e-14 -1.24223e-13 -5.98188e-14
  8 5506.64 -1.75866e-08 1896.30 5.60481e-14 2.26332e-13 -2.11374e-13
</Section>

newXOutput 158

<Section columns = "stress_xx | stress_yy | stress_zz | stress_xy | stress_yz | stress_xz">
  1 5456.99 -1.72519e-08 1883.81 -1.81628e-14 -5.81060e-14 2.17071e-14
  2 5456.99 -1.72519e-08 1883.81 -1.81628e-14 -5.29613e-14 2.75135e-14
  3 5456.99 -1.72519e-08 1883.81 -2.80633e-14 -1.01652e-13 -9.35764e-15
  4 5456.99 -1.72519e-08 1883.81 -2.80633e-14 -8.24513e-14 -8.34820e-14
  5 5456.99 -1.72519e-08 1883.81 -1.66022e-14 -5.81060e-14 2.94989e-14
  6 5456.99 -1.72519e-08 1883.81 -1.66022e-14 -5.29613e-14 2.96013e-14
  7 5456.99 -1.72519e-08 1883.81 -2.48484e-14 -1.01652e-13 1.97217e-14
  8 5456.99 -1.72519e-08 1883.81 -2.48484e-14 -8.24513e-14 -7.56902e-14
</Section>

newXOutput 159

<Section columns = "stress_xx | stress_yy | stress_zz | stress_xy | stress_yz | stress_xz">
  1 5407.80 -1.69310e-08 1871.39 5.25536e-15 -1.53739e-14 1.73963e-14
  2 5407.80 -1.69310e-08 1871.39 4.58485e-15 -1.08806e-14 6.49237e-14
  3 5407.80 -1.69310e-08 1871.39 1.23576e-14 -2.54489e-14 1.89008e-14
  4 5407.80 -1.69311e-08 1871.39 9.85525e-15 8.05638e-16 7.05389e-14
  5 5407.80 -1.69310e-08 1871.39 1.23576e-14 -1.12211e-14 9.17507e-15
  6 5407.80 -1.69311e-08 1871.39 9.85525e-15 4.61796e-15 3.42418e-14
  7 5407.80 -1.69311e-08 1871.39 3.11724e-14 -1.68940e-14 -1.17811e-14
  8 5407.80 -1.69314e-08 1871.39 2.18335e-14 3.27330e-14 -4.39676e-14
</Section>

newXOutput 160

<Section columns = "stress_xx | stress_yy | stress_zz | stress_xy | stress_yz | stress_xz">
  1 5359.04 -1.66129e-08 1859.02 1.67048e-14 -2.35690e-14 2.29251e-14
  2 5359.04 -1.66130e-08 1859.02 1.73636e-14 -4.28171e-14 1.01169e-15
  3 5359.04 -1.66135e-08 1859.02 3.48155e-14 -3.09342e-14 1.01169e-15
  4 5359.04 -1.66136e-08 1859.02 3.72742e-14 -6.21884e-14 -1.88783e-14
  5 5359.04 -1.66135e-08 1859.02 5.31138e-15 -2.35690e-14 1.88783e-14
  6 5359.04 -1.66136e-08 1859.02 7.77006e-15 -4.28171e-14 -1.40910e-14
  7 5359.04 -1.66131e-08 1859.02 1.24463e-14 -3.09342e-14 -1.40910e-14
  8 5359.04 -1.66137e-08 1859.02 2.16222e-14 -6.21884e-14 -7.52423e-14
</Section>

newXOutput 161

<Section columns = "stress_xx | stress_yy | stress_zz | stress_xy | stress_yz | stress_xz">
  1 5310.72 -1.62984e-08 1846.72 2.36939e-16 7.30054e-15 -1.97771e-14
  2 5310.72 -1.62984e-08 1846.72 8.84267e-16 1.47184e-14 -7.38093e-14
  3 5310.72 -1.62984e-08 1846.72 8.84267e-16 4.06817e-14 -2.92035e-14
  4 5310.72 -1.62984e-08 1846.72 3.30013e-15 6.71249e-14 -1.08989e-13
  5 5310.72 -1.62984e-08 1846.72 8.84267e-16 7.44103e-15 -1.97771e-14
  6 5310.72 -1.62984e-08 1846.72 3.30013e-15 1.52427e-14 -7.38093e-14
  7 5310.72 -1.62984e-08 1846.72 3.30013e-15 4.79848e-14 -2.92035e-14
  8 5310.72 -1.62984e-08 1846.72 1.23162e-14 9.43803e-14 -1.08989e-13
</Section>

newXOutput 162

<Section columns = "stress_xx | stress_yy | stress_zz | stress_xy | stress_yz | stress_xz">
  1 5262.82 -1.59990e-08 1834.48 4.65266e-15 2.06307e-14 3.82951e-14
  2 5262.82 -1.59990e-08 1834.48 4.65266e-15 -2.27539e-14 1.70550e-14
  3 5262.82 -1.59990e-08 1834.48 4.55185e-15 3.77041e-14 1.70550e-14
  4 5262.82 -1.59990e-08 1834.48 4.55185e-15 -6.57777e-15 -1.22205e-13
  5 5262.82 -1.59990e-08 1834.48 -9.69146e-15 1.66248e-14 4.61400e-14
  6 5262.82 -1.59990e-08 1834.48 -9.69146e-15 -3.77041e-14 4.63323e-14
  7 5262.82 -1.59990e-08 1834.48 -1.49319e-14 2.94518e-14 4.63323e-14
  8 5262.82 -1.59990e-08 1834.48 -1.49319e-14 -3.73757e-14 -1.29402e-14
</Section>

newXOutput 163

<Section columns = "stress_xx | stress_yy | stress_zz | stress_xy | stress_yz | stress_xz">
  1 5215.36 -1.56991e-08 1822.30 0.00000 6.87436e-15 -2.82710e-15
  2 5215.36 -1.56992e-08 1822.30 0.00000 -7.19891e-15 -1.05509e-14
  3 5215.36 -1.56989e-08 1822.30 0.00000 1.33054e-14 -1.05509e-14
  4 5215.36 -1.56991e-08 1822.30 0.00000 1.14266e-15 -3.93764e-14
  5 5215.36 -1.56989e-08 1822.30 0.00000 8.78492e-15 -1.05509e-14
  6 5215.36 -1.56991e-08 1822.30 0.00000 -6.85862e-17 -3.93764e-14
  7 5215.36 -1.56981e-08 1822.30 0.00000 1.38173e-14 -3.93764e-14
  8 5215.36 -1.56989e-08 1822.30 0.00000 3.05323e-15 -1.46955e-13
</Section>

newXOutput 164

<Section columns = "stress_xx | stress_yy | stress_zz | stress_xy | stress_yz | stress_xz">
  1 5168.31 -1.54084e-08 1810.17 5.74050e-15 1.87240e-13 -4.76984e-14
  2 5168.31 -1.54081e-08 1810.17 5.12626e-15 1.84611e-13 -6.49957e-14
  3 5168.31 -1.54084e-08 1810.17 1.15688e-14 3.86111e-13 -5.59991e-14
  4 5168.31 -1.54081e-08 1810.17 9.27642e-15 4.00709e-13 -6.23986e-14
  5 5168.31 -1.54089e-08 1810.17 1.15688e-14 1.91151e-13 -4.82078e-14
  6 5168.31 -1.54076e-08 1810.17 9.27642e-15 1.99209e-13 -9.14761e-14
  7 5168.31 -1.54089e-08 1810.17 2.86231e-14 3.94169e-13 -5.79003e-14
  8 5168.31 -1.54076e-08 1810.17 2.00679e-14 4.30780e-13 -1.61225e-13
</Section>

newXOutput 165

<Section columns = "stress_xx | stress_yy | stress_zz | stress_xy | stress_yz | stress_xz">
  1 5121.68 -1.51221e-08 1798.11 -3.90668e-15 3.82080e-14 -1.48415e-14
  2 5121.68 -1.51221e-08 1798.11 -3.90668e-15 2.39664e-14 -5.53893e-14
  3 5121.68 -1.51221e-08 1798.11 -8.04785e-15 6.87397e-14 -1.34711e-14
  4 5121.68 -1.51221e-08 1798.11 -8.04785e-15 3.08797e-14 -5.02749e-14
  5 5121.68 -1.51221e-08 1798.11 -8.04785e-15 4.02075e-14 -2.23295e-14
  6 5121.68 -1.51221e-08 1798.11 -8.04785e-15 3.14286e-14 -8.33348e-14
  7 5121.68 -1.51221e-08 1798.11 -1.65787e-14 7.62019e-14 -4.14166e-14
  8 5121.68 -1.51221e-08 1798.11 -1.65787e-14 5.87291e-14 -1.54569e-13
</Section>

newXOutput 166

<Section columns = "stress_xx | stress_yy | stress_zz | stress_xy | stress_yz | stress_xz">
  1 5075.46 -1.48430e-08 1786.11 2.17142e-16 -4.51189e-15 -3.76460e-14
  2 5075.46 -1.48430e-08 1786.11 8.10385e-16 -7.25942e-15 -1.01987e-13
  3 5075.46 -1.48430e-08 1786.11 8.10385e-16 1.48627e-14 -1.94360e-14
  4 5075.46 -1.48430e-08 1786.11 3.02440e-15 1.97185e-14 -6.22172e-14
  5 5075.46 -1.48430e-08 1786.11 8.10385e-16 -5.60146e-16 -4.50191e-14
  6 5075.46 -1.48430e-08 1786.11 3.02440e-15 7.48867e-15 -1.29503e-13
  7 5075.46 -1.48430e-08 1786.11 3.02440e-15 2.96108e-14 -4.69528e-14
  8 5075.46 -1.48430e-08 1786.11 1.12872e-14 7.47591e-14 -1.64911e-13
</Section>

newXOutput 167

<Section columns = "stress_xx | stress_yy | stress_zz | stress_xy | stress_yz | stress_xz">
  1 5029.64 -1.45668e-08 1774.16 -5.29694e-16 -1.20570e-13 1.52413e-14
  2 5029.64 -1.45669e-08 1774.16 5.97343e-16 -1.11175e-13 1.03715e-14
  3 5029.64 -1.45669e-08 1774.16 5.97343e-16 -2.53273e-13 -2.16830e-14
  4 5029.64 -1.45668e-08 1774.16 2.91907e-15 -2.10747e-13 -1.23138e-13
  5 5029.64 -1.45683e-08 1774.16 -1.97685e-15 -1.20570e-13 2.92755e-14
  6 5029.64 -1.45687e-08 1774.16 2.22931e-15 -1.11175e-13 3.92822e-14
  7 5029.64 -1.45687e-08 1774.16 2.22931e-15 -2.53273e-13 3.06932e-14
  8 5029.64 -1.45683e-08 1774.16 1.08941e-14 -2.10747e-13 -1.52413e-14
</Section>

newXOutput 168

<Section columns = "stress_xx | stress_yy | stress_zz | stress_xy | stress_yz | stress_xz">
  1 4984.22 -1.43006e-08 1762.27 -1.99480e-14 1.83067e-14 -1.16091e-14
  2 4984.22 -1.43006e-08 1762.27 -1.99480e-14 1.64827e-14 -5.98414e-15
  3 4984.22 -1.43006e-08 1762.27 -4.10933e-14 3.80866e-14 -4.60067e-14
  4 4984.22 -1.43006e-08 1762.27 -4.10933e-14 5.34130e-14 -1.61694e-13
  5 4984.22 -1.43006e-08 1762.27 -1.86375e-14 1.83067e-14 -1.16091e-14
  6 4984.22 -1.43006e-08 1762.27 -1.86375e-14 1.64827e-14 -5.98414e-15
  7 4984.22 -1.43006e-08 1762.27 -3.83937e-14 3.80866e-14 -4.60067e-14
  8 4984.22 -1.43006e-08 1762.27 -3.83937e-14 5.34130e-14 -1.61694e-13
</Section>

newXOutput 169

<Section columns = "stress_xx | stress_yy | stress_zz | stress_xy | stress_yz | stress_xz">
  1 4939.21 -1.40400e-08 1750.44 7.69398e-16 -9.57897e-15 9.97945e-16
  2 4939.21 -1.40400e-08 1750.44 2.06160e-16 4.80545e-15 -3.30478e-14
  3 4939.21 -1.40400e-08 1750.44 2.87143e-15 4.80545e-15 -3.30478e-14
  4 4939.21 -1.40400e-08 1750.44 7.69398e-16 6.57800e-14 -1.33189e-13
  5 4939.21 -1.40400e-08 1750.44 2.87143e-15 -1.33928e-14 8.03828e-15
  6 4939.21 -1.40400e-08 1750.44 7.69398e-16 -9.42785e-15 -6.77294e-15
  7 4939.21 -1.40400e-08 1750.44 1.07163e-14 -9.42785e-15 -6.77294e-15
  8 4939.21 -1.40400e-08 1750.44 2.87143e-15 1.26606e-14 -3.51300e-14
</Section>

newXOutput 170

<Section columns = "stress_xx | stress_yy | stress_zz | stress_xy | stress_yz | stress_xz">
  1 4894.58 -1.37815e-08 1738.67 7.56256e-16 3.59540e-16 -2.48300e-14
  2 4894.58 -1.37815e-08 1738.67 2.02638e-16 9.77146e-15 -8.70648e-14
  3 4894.58 -1.37815e-08 1738.67 2.82239e-15 4.14207e-14 -1.76418e-14
  4 4894.58 -1.37815e-08 1738.67 7.56256e-16 8.37520e-14 -1.70377e-13
  5 4894.58 -1.37815e-08 1738.67 2.82239e-15 -1.52499e-15 -3.12988e-14
  6 4894.58 -1.37815e-08 1738.67 7.56256e-16 2.73830e-15 -8.87981e-14
  7 4894.58 -1.37815e-08 1738.67 1.05333e-14 3.43875e-14 -4.17835e-14
  8 4894.58 -1.37815e-08 1738.67 2.82239e-15 5.75039e-14 -1.76846e-13
</Section>

newXOutput 171

<Section columns = "stress_xx | stress_yy | stress_zz | stress_xy | stress_yz | stress_xz">
  1 4850.34 -1.35279e-08 1726.95 -6.10118e-15 -2.64976e-14 -9.06550e-16
  2 4850.34 -1.35279e-08 1726.95 -6.10118e-15 -4.95532e-14 -4.71231e-14
  3 4850.34 -1.35279e-08 1726.95 -1.09926e-14 -2.87009e-14 -8.22843e-16
  4 4850.34 -1.35279e-08 1726.95 -1.09926e-14 -5.77761e-14 -4.27720e-14
  5 4850.34 -1.35279e-08 1726.95 -1.09926e-14 -2.64976e-14 -1.36393e-15
  6 4850.34 -1.35279e-08 1726.95 -1.09926e-14 -4.95532e-14 -7.08981e-14
  7 4850.34 -1.35279e-08 1726.95 -1.67634e-14 -2.87009e-14 -2.52981e-15
  8 4850.34 -1.35279e-08 1726.95 -1.67634e-14 -5.77761e-14 -1.31501e-13
</Section>

newXOutput 172

<Section columns = "stress_xx | stress_yy | stress_zz | stress_xy | stress_yz | stress_xz">
  1 4806.48 -1.32837e-08 1715.29 -6.18004e-15 -2.89630e-14 2.17333e-14
  2 4806.48 -1.32849e-08 1715.29 -6.67913e-15 -4.97174e-14 8.11099e-14
  3 4806.48 -1.32834e-08 1715.29 -1.08545e-14 -2.91089e-14 5.82343e-15
  4 4806.48 -1.32848e-08 1715.29 -1.09882e-14 -5.72997e-14 2.17333e-14
  5 4806.48 -1.32846e-08 1715.29 -1.14873e-14 -2.89630e-14 2.17333e-14
  6 4806.48 -1.32837e-08 1715.29 -1.33499e-14 -4.97174e-14 8.11099e-14
  7 4806.48 -1.32836e-08 1715.29 -1.66609e-14 -2.91089e-14 5.82343e-15
  8 4806.48 -1.32834e-08 1715.29 -1.71600e-14 -5.72997e-14 2.17333e-14
</Section>

newXOutput 173

<Section columns = "stress_xx | stress_yy | stress_zz | stress_xy | stress_yz | stress_xz">
  1 4763.00 -1.30413e-08 1703.69 -1.16404e-14 -9.94597e-14 -9.87435e-15
  2 4763.00 -1.30420e-08 1703.69 -1.16404e-14 6.18956e-14 3.08945e-15
  3 4763.00 -1.30413e-08 1703.69 -2.24567e-14 -2.00734e-13 -4.74508e-15
  4 4763.00 -1.30420e-08 1703.69 -2.24567e-14 1.43013e-13 -1.08293e-13
  5 4763.00 -1.30420e-08 1703.69 3.05294e-14 -1.04795e-13 -9.43072e-15
  6 4763.00 -1.30413e-08 1703.69 3.05294e-14 4.19826e-14 2.61494e-14
  7 4763.00 -1.30420e-08 1703.69 6.85746e-14 -2.14768e-13 -3.08945e-15
  8 4763.00 -1.30413e-08 1703.69 6.85746e-14 9.06402e-14 -2.22321e-14
</Section>

newXOutput 174

<Section columns = "stress_xx | stress_yy | stress_zz | stress_xy | stress_yz | stress_xz">
  1 4719.90 -1.28064e-08 1692.14 4.56048e-15 1.54430e-14 -7.56769e-16
  2 4719.90 -1.28060e-08 1692.14 4.56048e-15 -2.89073e-14 -2.82430e-15
  3 4719.90 -1.28064e-08 1692.14 3.90799e-15 2.35457e-14 -3.93374e-14
  4 4719.90 -1.28060e-08 1692.14 3.90799e-15 -3.99156e-14 -1.46809e-13
  5 4719.90 -1.28060e-08 1692.14 -7.66711e-15 1.37654e-14 -7.56769e-16
  6 4719.90 -1.28045e-08 1692.14 -7.66711e-15 -3.51680e-14 -2.82430e-15
  7 4719.90 -1.28060e-08 1692.14 -1.20787e-14 2.30962e-14 -3.93374e-14
  8 4719.90 -1.28045e-08 1692.14 -1.20787e-14 -4.15931e-14 -1.46809e-13
</Section>

newXOutput 175

<Section columns = "stress_xx | stress_yy | stress_zz | stress_xy | stress_yz | stress_xz">
  1 4677.17 -1.25742e-08 1680.65 -8.98638e-15 -9.10488e-14 -1.93720e-14
  2 4677.17 -1.25742e-08 1680.65 -8.98638e-15 -1.08377e-13 -5.19071e-15
  3 4677.17 -1.25742e-08 1680.65 -1.70404e-14 -1.87961e-13 -5.19071e-15
  4 4677.17 -1.25742e-08 1680.65 -1.70404e-14 -1.91477e-13 -1.39085e-15
  5 4677.17 -1.25742e-08 1680.65 -1.70404e-14 -9.28258e-14 -1.93720e-14
  6 4677.17 -1.25742e-08 1680.65 -1.70404e-14 -1.15009e-13 -5.19071e-15
  7 4677.17 -1.25742e-08 1680.65 -2.96113e-14 -1.94593e-13 -5.19071e-15
  8 4677.17 -1.25742e-08 1680.65 -2.96113e-14 -2.16228e-13 -1.39085e-15
</Section>

newXOutput 176

<Section columns = "stress_xx | stress_yy | stress_zz | stress_xy | stress_yz | stress_xz">
  1 4634.80 -1.23437e-08 1669.21 2.91872e-32 2.33199e-16 -3.89777e-15
  2 4634.80 -1.23437e-08 1669.21 1.08928e-31 2.11667e-16 -1.45467e-14
  3 4634.80 -1.23437e-08 1669.21 1.39686e-31 1.21219e-14 2.08739e-14
  4 4634.80 -1.23439e-08 1669.21 5.21315e-31 1.10026e-14 7.79026e-14
  5 4634.80 -1.23437e-08 1669.21 1.08928e-31 3.50855e-16 -1.65523e-14
  6 4634.80 -1.23439e-08 1669.21 4.06525e-31 6.50763e-16 -6.17741e-14
  7 4634.80 -1.23439e-08 1669.21 5.21315e-31 1.82377e-14 -2.63535e-14
  8 4634.80 -1.23446e-08 1669.21 1.94557e-30 3.38271e-14 -9.83527e-14
</Section>

newXOutput 177

<Section columns = "stress_xx | stress_yy | stress_zz | stress_xy | stress_yz | stress_xz">
  1 4592.79 -1.21233e-08 1657.82 -6.26007e-16 -6.01575e-15 -1.46895e-14
  2 4592.79 -1.21233e-08 1657.82 -1.67738e-16 -3.66562e-15 -1.72352e-14
  3 4592.79 -1.21233e-08 1657.82 -1.67738e-16 -1.13301e-14 4.51680e-14
  4 4592.79 -1.21233e-08 1657.82 -4.49453e-17 -3.58619e-15 8.33248e-14
  5 4592.79 -1.21233e-08 1657.82 -2.33629e-15 -7.63545e-15 -3.29684e-14
  6 4592.79 -1.21233e-08 1657.82 -6.26007e-16 -9.71044e-15 -6.53105e-14
  7 4592.79 -1.21233e-08 1657.82 -6.26007e-16 -1.17641e-14 -2.30499e-14
  8 4592.79 -1.21233e-08 1657.82 -1.67738e-16 -5.20590e-15 -9.60947e-14
</Section>

newXOutput 178

<Section columns = "stress_xx | stress_yy | stress_zz | stress_xy | stress_yz | stress_xz">
  1 4551.14 -1.19066e-08 1646.49 -3.12530e-15 2.79433e-14 -2.20870e-14
  2 4551.14 -1.19066e-08 1646.49 -3.12530e-15 3.13022e-14 -8.24298e-14
  3 4551.14 -1.19068e-08 1646.49 -6.43818e-15 4.29377e-14 -1.37016e-14
  4 4551.14 -1.19068e-08 1646.49 -6.43818e-15 7.41403e-14 -5.11350e-14
  5 4551.14 -1.19068e-08 1646.49 -6.43818e-15 2.29107e-14 -2.82256e-14
  6 4551.14 -1.19068e-08 1646.49 -6.43818e-15 1.25201e-14 -1.05339e-13
  7 4551.14 -1.19077e-08 1646.49 -1.32628e-14 2.97013e-14 -3.66110e-14
  8 4551.14 -1.19077e-08 1646.49 -1.32628e-14 2.47415e-14 -1.36634e-13
</Section>

newXOutput 179

<Section columns = "stress_xx | stress_yy | stress_zz | stress_xy | stress_yz | stress_xz">
  1 4509.84 -1.16918e-08 1635.22 3.08613e-32 -5.87716e-15 2.31445e-15
  2 4509.84 -1.16918e-08 1635.22 3.77341e-32 -3.58117e-15 1.35233e-14
  3 4509.84 -1.16918e-08 1635.22 1.18233e-31 -1.10691e-14 6.37018e-15
  4 4509.84 -1.16918e-08 1635.22 3.95756e-32 -3.50357e-15 -6.73941e-14
  5 4509.84 -1.16918e-08 1635.22 3.08613e-32 -7.45955e-15 8.76602e-15
  6 4509.84 -1.16918e-08 1635.22 1.18233e-31 -9.48673e-15 5.71436e-14
  7 4509.84 -1.16918e-08 1635.22 3.77341e-32 -1.14931e-14 3.04478e-14
  8 4509.84 -1.16918e-08 1635.22 3.95756e-32 -5.08596e-15 9.53991e-14
</Section>

newXOutput 180

<Section columns = "stress_xx | stress_yy | stress_zz | stress_xy | stress_yz | stress_xz">
  1 4468.90 -1.14830e-08 1623.99 -3.02124e-15 -1.35584e-14 1.46834e-14
  2 4468.90 -1.14830e-08 1623.99 -3.02124e-15 -2.30758e-14 1.66444e-14
  3 4468.90 -1.14830e-08 1623.99 -6.22383e-15 -3.24604e-14 -9.65181e-15
  4 4468.90 -1.14830e-08 1623.99 -6.22383e-15 -4.87505e-14 -7.06528e-14
  5 4468.90 -1.14830e-08 1623.99 -6.22383e-15 -1.35584e-14 3.21525e-14
  6 4468.90 -1.14830e-08 1623.99 -6.22383e-15 -2.30758e-14 6.25898e-14
  7 4468.90 -1.14830e-08 1623.99 -1.28212e-14 -3.24604e-14 5.55437e-14
  8 4468.90 -1.14830e-08 1623.99 -1.28212e-14 -4.87505e-14 1.00818e-13
</Section>

newXOutput 181

<Section columns = "stress_xx | stress_yy | stress_zz | stress_xy | stress_yz | stress_xz">
  1 4428.30 -1.12790e-08 1612.82 -1.64019e-14 -4.59882e-14 -3.51596e-15
  2 4428.30 -1.12793e-08 1612.82 -1.68609e-14 -9.99068e-14 -8.38115e-15
  3 4428.30 -1.12790e-08 1612.82 -3.14105e-14 -8.13545e-14 1.75220e-14
  4 4428.30 -1.12793e-08 1612.82 -3.31235e-14 -1.55867e-13 -2.30679e-14
  5 4428.30 -1.12778e-08 1612.82 -3.14105e-14 -4.76452e-14 -1.48569e-14
  6 4428.30 -1.12790e-08 1612.82 -3.31235e-14 -1.06091e-13 -3.17438e-14
  7 4428.30 -1.12778e-08 1612.82 -5.58326e-14 -8.75386e-14 -2.48031e-14
  8 4428.30 -1.12790e-08 1612.82 -6.22258e-14 -1.78946e-13 -1.10259e-13
</Section>

newXOutput 182

<Section columns = "stress_xx | stress_yy | stress_zz | stress_xy | stress_yz | stress_xz">
  1 4388.04 -1.10790e-08 1601.70 1.65200e-16 -6.13557e-14 -7.67347e-16
  2 4388.04 -1.10790e-08 1601.70 6.16535e-16 -6.15256e-14 -3.98873e-14
  3 4388.04 -1.10790e-08 1601.70 6.16535e-16 -1.07371e-13 -6.96494e-16
  4 4388.04 -1.10790e-08 1601.70 2.30094e-15 -1.01743e-13 -3.62043e-14
  5 4388.04 -1.10790e-08 1601.70 6.16535e-16 -5.97178e-14 -1.15449e-15
  6 4388.04 -1.10790e-08 1601.70 2.30094e-15 -5.54129e-14 -6.00115e-14
  7 4388.04 -1.10790e-08 1601.70 2.30094e-15 -1.01258e-13 -2.14135e-15
  8 4388.04 -1.10790e-08 1601.70 8.58722e-15 -7.89298e-14 -1.11309e-13
</Section>

newXOutput 183

<Section columns = "stress_xx | stress_yy | stress_zz | stress_xy | stress_yz | stress_xz">
  1 4348.12 -1.08792e-08 1590.64 3.03466e-15 2.43677e-14 -1.26123e-14
  2 4348.12 -1.08792e-08 1590.64 3.47846e-15 2.99258e-14 -4.24697e-14
  3 4348.12 -1.08792e-08 1590.64 6.52308e-15 5.52008e-14 1.45379e-14
  4 4348.12 -1.08792e-08 1590.64 8.17937e-15 9.54731e-14 -3.15854e-14
  5 4348.12 -1.08792e-08 1590.64 6.52308e-15 2.74973e-14 -2.36175e-14
  6 4348.12 -1.08792e-08 1590.64 8.17937e-15 4.16056e-14 -6.51406e-14
  7 4348.12 -1.08792e-08 1590.64 1.44514e-14 6.16479e-14 -2.65340e-14
  8 4348.12 -1.08792e-08 1590.64 2.06327e-14 1.19534e-13 -1.16194e-13
</Section>

newXOutput 184

<Section columns = "stress_xx | stress_yy | stress_zz | stress_xy | stress_yz | stress_xz">
  1 4308.53 -1.06850e-08 1579.62 7.87690e-15 3.31659e-14 -1.93849e-14
  2 4308.53 -1.06850e-08 1579.62 8.31330e-15 6.40638e-14 -1.01639e-13
  3 4308.53 -1.06850e-08 1579.62 1.52298e-14 4.80388e-14 -3.88454e-14
  4 4308.53 -1.06850e-08 1579.62 1.68585e-14 1.01213e-13 -1.52822e-13
  5 4308.53 -1.06850e-08 1579.62 1.52298e-14 3.32731e-14 -1.93849e-14
  6 4308.53 -1.06850e-08 1579.62 1.68585e-14 6.44639e-14 -1.01639e-13
  7 4308.53 -1.06850e-08 1579.62 2.76539e-14 5.36115e-14 -3.88454e-14
  8 4308.53 -1.06850e-08 1579.62 3.37322e-14 1.22010e-13 -1.52822e-13
</Section>

newXOutput 185

<Section columns = "stress_xx | stress_yy | stress_zz | stress_xy | stress_yz | stress_xz">
  1 4269.28 -0.0140728 1568.66 -5.46948e-16 1.31639e-14 1.38129e-15
  2 4269.28 -0.0140728 1568.66 -1.46554e-16 6.03461e-15 5.15504e-15
  3 4269.28 -0.0140728 1568.66 -1.46554e-16 3.95874e-14 -2.57752e-14
  4 4269.28 -0.0140728 1568.66 -3.92691e-17 4.41602e-14 -9.61944e-14
  5 4269.28 -0.0140728 1568.66 -2.04124e-15 1.46400e-14 6.90645e-15
  6 4269.28 -0.0140728 1568.66 -5.46948e-16 1.15432e-14 2.57752e-14
  7 4269.28 -0.0140728 1568.66 -5.46948e-16 3.99829e-14 -5.15504e-15
  8 4269.28 -0.0140728 1568.66 -1.46554e-16 4.56362e-14 -1.92389e-14
</Section>

newXOutput 186

<Section columns = "stress_xx | stress_yy | stress_zz | stress_xy | stress_yz | stress_xz">
  1 4230.35 -0.0138665 1557.74 3.86165e-17 -2.65735e-14 -8.11584e-15
  2 4230.35 -0.0138665 1557.74 1.03473e-17 -3.90661e-14 2.53925e-15
  3 4230.35 -0.0138665 1557.74 2.00732e-15 -6.02748e-14 -3.90003e-15
  4 4230.35 -0.0138665 1557.74 5.37859e-16 -5.72136e-14 -8.90073e-14
  5 4230.35 -0.0138665 1557.74 1.44119e-16 -2.36553e-14 -7.75122e-15
  6 4230.35 -0.0138665 1557.74 3.86165e-17 -2.81756e-14 2.14925e-14
  7 4230.35 -0.0138665 1557.74 7.49141e-15 -5.94929e-14 -2.53925e-15
  8 4230.35 -0.0138665 1557.74 2.00732e-15 -5.42954e-14 -1.82728e-14
</Section>

newXOutput 187

<Section columns = "stress_xx | stress_yy | stress_zz | stress_xy | stress_yz | stress_xz">
  1 4191.74 -0.0136702 1546.88 -7.71110e-15 1.28346e-13 -9.28796e-15
  2 4191.74 -0.0136702 1546.88 -7.71110e-15 5.09803e-14 -3.46632e-14
  3 4191.74 -0.0136702 1546.88 -1.46832e-14 2.93287e-13 -3.46632e-14
  4 4191.74 -0.0136702 1546.88 -1.46832e-14 1.40502e-13 -1.29365e-13
  5 4191.74 -0.0136702 1546.88 -3.32690e-14 1.26800e-13 -9.28796e-15
  6 4191.74 -0.0136702 1546.88 -3.32690e-14 4.52111e-14 -3.46632e-14
  7 4191.74 -0.0136702 1546.88 -6.40496e-14 2.87518e-13 -3.46632e-14
  8 4191.74 -0.0136702 1546.88 -6.40496e-14 1.18971e-13 -1.29365e-13
</Section>

newXOutput 188

<Section columns = "stress_xx | stress_yy | stress_zz | stress_xy | stress_yz | stress_xz">
  1 4153.46 -0.0134771 1536.07 -4.24245e-14 -7.49886e-14 1.39974e-14
  2 4153.46 -0.0134771 1536.07 -4.20164e-14 -3.23931e-14 -3.25225e-14
  3 4153.46 -0.0134771 1536.07 -9.16361e-14 -1.41795e-13 2.66266e-14
  4 4153.46 -0.0134771 1536.07 -9.01129e-14 -4.80015e-14 -2.57893e-14
  5 4153.46 -0.0134771 1536.07 -3.22329e-14 -7.79425e-14 8.71438e-15
  6 4153.46 -0.0134771 1536.07 -3.07098e-14 -4.34171e-14 -5.22389e-14
  7 4153.46 -0.0134771 1536.07 -7.07660e-14 -1.47880e-13 6.91021e-15
  8 4153.46 -0.0134771 1536.07 -6.50815e-14 -7.07113e-14 -9.93717e-14
</Section>

newXOutput 189

<Section columns = "stress_xx | stress_yy | stress_zz | stress_xy | stress_yz | stress_xz">
  1 4115.49 -0.0132869 1525.31 1.82020e-14 6.97745e-14 -1.03162e-14
  2 4115.49 -0.0132869 1525.31 1.82020e-14 3.09833e-14 -3.85007e-14
  3 4115.49 -0.0132869 1525.31 3.85811e-14 1.49375e-13 -9.36369e-15
  4 4115.49 -0.0132869 1525.31 3.85811e-14 5.65873e-14 -3.49457e-14
  5 4115.49 -0.0132869 1525.31 4.87721e-15 7.27957e-14 -1.55211e-14
  6 4115.49 -0.0132869 1525.31 4.87721e-15 4.22587e-14 -5.79254e-14
  7 4115.49 -0.0132869 1525.31 1.03378e-14 1.60650e-13 -2.87884e-14
  8 4115.49 -0.0132869 1525.31 1.03378e-14 9.86676e-14 -1.07440e-13
</Section>

newXOutput 190

<Section columns = "stress_xx | stress_yy | stress_zz | stress_xy | stress_yz | stress_xz">
  1 4077.83 -0.0130996 1514.60 7.31308e-15 1.62576e-14 2.67835e-14
  2 4077.83 -0.0130996 1514.60 7.31308e-15 4.95642e-15 4.03240e-14
  3 4077.83 -0.0130996 1514.60 1.07987e-14 3.00355e-14 -1.10226e-14
  4 4077.83 -0.0130996 1514.60 1.07987e-14 3.92468e-14 -7.81300e-14
  5 4077.83 -0.0130996 1514.60 1.95953e-15 1.62576e-14 3.66958e-14
  6 4077.83 -0.0130996 1514.60 1.95953e-15 4.95642e-15 6.07436e-14
  7 4077.83 -0.0130996 1514.60 2.89350e-15 3.00355e-14 2.59708e-14
  8 4077.83 -0.0130996 1514.60 2.89350e-15 3.92468e-14 -1.92297e-15
</Section>

newXOutput 191

<Section columns = "stress_xx | stress_yy | stress_zz | stress_xy | stress_yz | stress_xz">
  1 4040.48 -0.0129153 1503.94 4.85095e-15 4.45163e-15 1.26306e-15
  2 4040.48 -0.0129153 1503.94 4.85095e-15 1.19281e-15 4.71379e-15
  3 4040.48 -0.0129153 1503.94 9.99307e-15 1.19281e-15 -2.35689e-14
  4 4040.48 -0.0129153 1503.94 9.99307e-15 3.19613e-16 -8.79605e-14
  5 4040.48 -0.0129153 1503.94 1.29981e-15 4.45163e-15 6.31528e-15
  6 4040.48 -0.0129153 1503.94 1.29981e-15 1.19281e-15 2.35689e-14
  7 4040.48 -0.0129153 1503.94 2.67764e-15 1.19281e-15 -4.71379e-15
  8 4040.48 -0.0129153 1503.94 2.67764e-15 3.19613e-16 -1.75921e-14
</Section>

newXOutput 192

<Section columns = "stress_xx | stress_yy | stress_zz | stress_xy | stress_yz | stress_xz">
  1 4003.44 -0.0127337 1493.33 5.29257e-15 1.85621e-14 8.33611e-17
  2 4003.44 -0.0127337 1493.33 4.91074e-15 2.18993e-14 4.33317e-15
  3 4003.44 -0.0127337 1493.33 1.17749e-14 3.82384e-14 -1.55554e-15
  4 4003.44 -0.0127337 1493.33 1.03499e-14 4.51131e-14 -8.08581e-14
  5 4003.44 -0.0127337 1493.33 3.22496e-15 1.85621e-14 4.16805e-16
  6 4003.44 -0.0127337 1493.33 1.79997e-15 2.18993e-14 2.16659e-14
  7 4003.44 -0.0127337 1493.33 9.89822e-15 3.82384e-14 -3.11108e-16
  8 4003.44 -0.0127337 1493.33 4.58007e-15 4.51131e-14 -1.61716e-14
</Section>

newXOutput 193

<Section columns = "stress_xx | stress_yy | stress_zz | stress_xy | stress_yz | stress_xz">
  1 3966.71 -0.0125550 1482.76 9.52232e-15 -1.37839e-14 5.59958e-15
  2 3966.71 -0.0125550 1482.76 9.89786e-15 -2.66725e-14 -4.71813e-15
  3 3966.71 -0.0125550 1482.76 1.98460e-14 -4.28249e-14 -4.71813e-15
  4 3966.71 -0.0125550 1482.76 2.12476e-14 -4.12808e-14 -2.44721e-14
  5 3966.71 -0.0125550 1482.76 3.02766e-15 -1.23412e-14 6.95183e-16
  6 3966.71 -0.0125550 1482.76 4.42919e-15 -2.12884e-14 -2.30216e-14
  7 3966.71 -0.0125550 1482.76 7.09480e-15 -3.74408e-14 -2.30216e-14
  8 3966.71 -0.0125550 1482.76 1.23254e-14 -2.11870e-14 -9.27815e-14
</Section>

newXOutput 194

<Section columns = "stress_xx | stress_yy | stress_zz | stress_xy | stress_yz | stress_xz">
  1 3930.27 -0.0123789 1472.24 -3.58427e-15 -9.91937e-15 -1.68636e-14
  2 3930.27 -0.0123789 1472.24 -3.58427e-15 -1.99820e-14 -3.76968e-14
  3 3930.27 -0.0123789 1472.24 -7.31203e-15 -2.96532e-14 -1.06456e-14
  4 3930.27 -0.0123789 1472.24 -7.31203e-15 4.52680e-15 -3.29672e-14
  5 3930.27 -0.0123789 1472.24 -7.31203e-15 -1.14411e-14 -2.16958e-14
  6 3930.27 -0.0123789 1472.24 -7.31203e-15 -2.56612e-14 -5.57309e-14
  7 3930.27 -0.0123789 1472.24 -1.13382e-14 -3.99419e-14 -2.86797e-14
  8 3930.27 -0.0123789 1472.24 -1.13382e-14 -3.38712e-14 -1.00271e-13
</Section>

newXOutput 195

<Section columns = "stress_xx | stress_yy | stress_zz | stress_xy | stress_yz | stress_xz">
  1 3894.13 -0.0122055 1461.78 -2.81424e-15 5.21466e-15 -6.32153e-16
  2 3894.13 -0.0122055 1461.78 -2.47528e-15 -1.10525e-14 -3.28598e-14
  3 3894.13 -0.0122055 1461.78 -4.96761e-15 1.71829e-14 -5.73783e-16
  4 3894.13 -0.0122055 1461.78 -4.87679e-15 1.26825e-15 -2.98257e-14
  5 3894.13 -0.0122055 1461.78 -6.57159e-15 7.84560e-15 -9.51091e-16
  6 3894.13 -0.0122055 1461.78 -5.30657e-15 -1.23368e-15 -4.94384e-14
  7 3894.13 -0.0122055 1461.78 -1.04408e-14 1.78879e-14 -1.76408e-15
  8 3894.13 -0.0122055 1461.78 -1.01019e-14 3.89919e-15 -9.16981e-14
</Section>

newXOutput 196

<Section columns = "stress_xx | stress_yy | stress_zz | stress_xy | stress_yz | stress_xz">
  1 3858.28 -0.0120348 1451.36 -4.00634e-15 4.08570e-14 -3.03611e-14
  2 3858.28 -0.0120348 1451.36 -4.00634e-15 9.97729e-15 -8.88066e-14
  3 3858.28 -0.0120348 1451.36 -7.21829e-15 7.69045e-14 -3.62827e-14
  4 3858.28 -0.0120348 1451.36 -7.21829e-15 3.25908e-14 -1.28843e-13
  5 3858.28 -0.0120348 1451.36 -7.21829e-15 4.62456e-14 -3.03611e-14
  6 3858.28 -0.0120348 1451.36 -7.21829e-15 3.00878e-14 -8.88066e-14
  7 3858.28 -0.0120348 1451.36 -1.10077e-14 8.80051e-14 -3.62827e-14
  8 3858.28 -0.0120348 1451.36 -1.10077e-14 7.40189e-14 -1.28843e-13
</Section>

newXOutput 197

<Section columns = "stress_xx | stress_yy | stress_zz | stress_xy | stress_yz | stress_xz">
  1 3822.72 -0.0118666 1440.98 -3.41073e-15 5.72750e-14 9.70370e-15
  2 3822.72 -0.0118666 1440.98 -3.41073e-15 3.48225e-14 6.60321e-15
  3 3822.72 -0.0118666 1440.98 -6.95799e-15 1.19674e-13 -1.38050e-14
  4 3822.72 -0.0118666 1440.98 -6.95799e-15 7.80298e-14 -7.83981e-14
  5 3822.72 -0.0118666 1440.98 -6.95799e-15 6.00309e-14 1.86388e-14
  6 3822.72 -0.0118666 1440.98 -6.95799e-15 4.51076e-14 2.50098e-14
  7 3822.72 -0.0118666 1440.98 -1.07893e-14 1.29960e-13 1.95415e-14
  8 3822.72 -0.0118666 1440.98 -1.07893e-14 1.16414e-13 -9.70370e-15
</Section>

newXOutput 198

<Section columns = "stress_xx | stress_yy | stress_zz | stress_xy | stress_yz | stress_xz">
  1 3787.45 -0.0117009 1430.66 -4.87860e-15 1.94933e-14 7.36037e-15
  2 3787.45 -0.0117009 1430.66 -4.87860e-15 2.80162e-14 2.74693e-14
  3 3787.45 -0.0117009 1430.66 -9.04879e-15 5.85197e-14 1.97221e-15
  4 3787.45 -0.0117009 1430.66 -9.04879e-15 1.00745e-13 7.36037e-15
  5 3787.45 -0.0117009 1430.66 -3.24261e-15 1.81310e-14 7.36037e-15
  6 3787.45 -0.0117009 1430.66 -3.24261e-15 2.29322e-14 2.74693e-14
  7 3787.45 -0.0117009 1430.66 -2.94320e-15 5.34358e-14 1.97221e-15
  8 3787.45 -0.0117009 1430.66 -2.94320e-15 8.17714e-14 7.36037e-15
</Section>

newXOutput 199

<Section columns = "stress_xx | stress_yy | stress_zz | stress_xy | stress_yz | stress_xz">
  1 3752.46 -0.0115378 1420.38 1.24474e-16 1.23233e-15 1.50660e-14
  2 3752.46 -0.0115378 1420.38 4.64545e-16 2.57904e-15 4.03693e-15
  3 3752.46 -0.0115378 1420.38 4.64545e-16 4.02741e-14 9.34615e-15
  4 3752.46 -0.0115378 1420.38 1.73371e-15 4.53001e-14 2.50429e-15
  5 3752.46 -0.0115378 1420.38 4.64545e-16 2.57904e-15 1.92533e-14
  6 3752.46 -0.0115378 1420.38 1.73371e-15 7.60505e-15 5.15890e-15
  7 3752.46 -0.0115378 1420.38 1.73371e-15 4.53001e-14 2.49732e-14
  8 3752.46 -0.0115378 1420.38 6.47028e-15 6.40574e-14 6.69154e-15
</Section>

newXOutput 200

<Section columns = "stress_xx | stress_yy | stress_zz | stress_xy | stress_yz | stress_xz">
  1 3717.75 -0.0113770 1410.14 -2.78915e-15 -1.18321e-13 -8.76497e-15
  2 3717.75 -0.0113770 1410.14 -3.12366e-15 -1.18670e-13 -3.27113e-14
  3 3717.75 -0.0113770 1410.14 -4.91677e-15 -2.08108e-13 -7.95566e-15
  4 3717.75 -0.0113770 1410.14 -6.16519e-15 -1.73777e-13 -2.96909e-14
  5 3717.75 -0.0113770 1410.14 -4.91677e-15 -1.20984e-13 -1.31871e-14
  6 3717.75 -0.0113770 1410.14 -6.16519e-15 -1.28608e-13 -4.92151e-14
  7 3717.75 -0.0113770 1410.14 -3.90393e-15 -2.18045e-13 -2.44594e-14
  8 3717.75 -0.0113770 1410.14 -8.56311e-15 -2.10864e-13 -9.12838e-14
</Section>

newXOutput 201

<Section columns = "stress_xx | stress_yy | stress_zz | stress_xy | stress_yz | stress_xz">
  1 3683.32 -0.0112186 1399.96 6.09359e-15 -3.87008e-14 -1.50609e-14
  2 3683.32 -0.0112186 1399.96 6.09359e-15 -5.89753e-14 -7.89674e-14
  3 3683.32 -0.0112186 1399.96 1.25529e-14 -7.37119e-14 -3.01804e-14
  4 3683.32 -0.0112186 1399.96 1.25529e-14 -9.90514e-14 -1.18733e-13
  5 3683.32 -0.0112186 1399.96 -2.18362e-15 -4.13332e-14 -1.50609e-14
  6 3683.32 -0.0112186 1399.96 -2.18362e-15 -6.87997e-14 -7.89674e-14
  7 3683.32 -0.0112186 1399.96 -4.49831e-15 -8.35363e-14 -3.01804e-14
  8 3683.32 -0.0112186 1399.96 -4.49831e-15 -1.35716e-13 -1.18733e-13
</Section>

