newXOutput 1

<Section columns = "stress_xx | stress_yy | stress_xy">
  1 0.00000 0.00000 0.00000
  2 0.00000 0.00000 0.00000
  3 0.00000 0.00000 0.00000
  4 0.00000 0.00000 0.00000
</Section>

newXOutput 2

<Section columns = "stress_xx | stress_yy | stress_xy">
  1 76.9738 -1.40728e-07 -5.25420e-16
  2 76.9738 -1.40728e-07 -5.25420e-16
  3 76.9738 -1.40728e-07 -1.08238e-15
  4 76.9738 -1.40728e-07 -1.08238e-15
</Section>

newXOutput 3

<Section columns = "stress_xx | stress_yy | stress_xy">
  1 152.621 -1.38782e-07 0.00000
  2 152.621 -1.38782e-07 0.00000
  3 152.621 -1.38782e-07 0.00000
  4 152.621 -1.38782e-07 0.00000
</Section>

newXOutput 4

<Section columns = "stress_xx | stress_yy | stress_xy">
  1 226.970 -1.36876e-07 0.00000
  2 226.970 -1.36876e-07 0.00000
  3 226.970 -1.36876e-07 0.00000
  4 226.970 -1.36876e-07 0.00000
</Section>

newXOutput 5

<Section columns = "stress_xx | stress_yy | stress_xy">
  1 300.049 -1.35011e-07 2.03141e-15
  2 300.049 -1.35011e-07 2.03141e-15
  3 300.049 -1.35011e-07 4.18474e-15
  4 300.049 -1.35011e-07 4.18474e-15
</Section>

newXOutput 6

<Section columns = "stress_xx | stress_yy | stress_xy">
  1 371.886 -1.33178e-07 0.00000
  2 371.886 -1.33178e-07 0.00000
  3 371.886 -1.33178e-07 0.00000
  4 371.886 -1.33178e-07 0.00000
</Section>

newXOutput 7

<Section columns = "stress_xx | stress_yy | stress_xy">
  1 442.508 -1.31383e-07 0.00000
  2 442.508 -1.31383e-07 0.00000
  3 442.508 -1.31383e-07 0.00000
  4 442.508 -1.31383e-07 0.00000
</Section>

newXOutput 8

<Section columns = "stress_xx | stress_yy | stress_xy">
  1 511.940 -1.29619e-07 0.00000
  2 511.940 -1.29619e-07 0.00000
  3 511.940 -1.29619e-07 0.00000
  4 511.940 -1.29619e-07 0.00000
</Section>

newXOutput 9

<Section columns = "stress_xx | stress_yy | stress_xy">
  1 580.207 -1.27890e-07 0.00000
  2 580.207 -1.27890e-07 0.00000
  3 580.207 -1.27890e-07 0.00000
  4 580.207 -1.27890e-07 0.00000
</Section>

newXOutput 10

<Section columns = "stress_xx | stress_yy | stress_xy">
  1 647.335 -1.26198e-07 0.00000
  2 647.335 -1.26198e-07 0.00000
  3 647.335 -1.26198e-07 0.00000
  4 647.335 -1.26198e-07 0.00000
</Section>

newXOutput 11

<Section columns = "stress_xx | stress_yy | stress_xy">
  1 713.348 -1.24537e-07 0.00000
  2 713.348 -1.24537e-07 0.00000
  3 713.348 -1.24537e-07 0.00000
  4 713.348 -1.24537e-07 0.00000
</Section>

newXOutput 12

<Section columns = "stress_xx | stress_yy | stress_xy">
  1 778.268 -1.22905e-07 0.00000
  2 778.268 -1.22905e-07 0.00000
  3 778.268 -1.22905e-07 0.00000
  4 778.268 -1.22905e-07 0.00000
</Section>

newXOutput 13

<Section columns = "stress_xx | stress_yy | stress_xy">
  1 842.119 -1.21306e-07 0.00000
  2 842.119 -1.21306e-07 0.00000
  3 842.119 -1.21306e-07 0.00000
  4 842.119 -1.21306e-07 0.00000
</Section>

newXOutput 14

<Section columns = "stress_xx | stress_yy | stress_xy">
  1 904.923 -1.19732e-07 0.00000
  2 904.923 -1.19732e-07 0.00000
  3 904.923 -1.19732e-07 0.00000
  4 904.923 -1.19732e-07 0.00000
</Section>

newXOutput 15

<Section columns = "stress_xx | stress_yy | stress_xy">
  1 966.702 -1.18195e-07 0.00000
  2 966.702 -1.18195e-07 0.00000
  3 966.702 -1.18195e-07 0.00000
  4 966.702 -1.18195e-07 0.00000
</Section>

newXOutput 16

<Section columns = "stress_xx | stress_yy | stress_xy">
  1 1027.48 -1.16681e-07 0.00000
  2 1027.48 -1.16681e-07 0.00000
  3 1027.48 -1.16681e-07 0.00000
  4 1027.48 -1.16681e-07 0.00000
</Section>

newXOutput 17

<Section columns = "stress_xx | stress_yy | stress_xy">
  1 1087.27 -1.15198e-07 3.43884e-15
  2 1087.27 -1.15198e-07 3.43884e-15
  3 1087.27 -1.15198e-07 9.21434e-16
  4 1087.27 -1.15198e-07 9.21434e-16
</Section>

newXOutput 18

<Section columns = "stress_xx | stress_yy | stress_xy">
  1 1146.09 -1.13739e-07 7.04916e-15
  2 1146.09 -1.13739e-07 7.04916e-15
  3 1146.09 -1.13739e-07 1.45214e-14
  4 1146.09 -1.13739e-07 1.45214e-14
</Section>

newXOutput 19

<Section columns = "stress_xx | stress_yy | stress_xy">
  1 1203.98 -1.12306e-07 3.60828e-15
  2 1203.98 -1.12306e-07 3.60828e-15
  3 1203.98 -1.12306e-07 1.34663e-14
  4 1203.98 -1.12306e-07 1.34663e-14
</Section>

newXOutput 20

<Section columns = "stress_xx | stress_yy | stress_xy">
  1 1260.94 -1.10899e-07 0.00000
  2 1260.94 -1.10899e-07 0.00000
  3 1260.94 -1.10899e-07 0.00000
  4 1260.94 -1.10899e-07 0.00000
</Section>

newXOutput 21

<Section columns = "stress_xx | stress_yy | stress_xy">
  1 1316.99 -1.09520e-07 0.00000
  2 1316.99 -1.09520e-07 0.00000
  3 1316.99 -1.09520e-07 0.00000
  4 1316.99 -1.09520e-07 0.00000
</Section>

newXOutput 22

<Section columns = "stress_xx | stress_yy | stress_xy">
  1 1372.15 -1.08165e-07 0.00000
  2 1372.15 -1.08165e-07 0.00000
  3 1372.15 -1.08165e-07 0.00000
  4 1372.15 -1.08165e-07 0.00000
</Section>

newXOutput 23

<Section columns = "stress_xx | stress_yy | stress_xy">
  1 1426.45 -1.06836e-07 0.00000
  2 1426.45 -1.06836e-07 0.00000
  3 1426.45 -1.06836e-07 0.00000
  4 1426.45 -1.06836e-07 0.00000
</Section>

newXOutput 24

<Section columns = "stress_xx | stress_yy | stress_xy">
  1 1479.89 -1.05524e-07 0.00000
  2 1479.89 -1.05524e-07 0.00000
  3 1479.89 -1.05524e-07 0.00000
  4 1479.89 -1.05524e-07 0.00000
</Section>

newXOutput 25

<Section columns = "stress_xx | stress_yy | stress_xy">
  1 1532.50 -1.04244e-07 0.00000
  2 1532.50 -1.04244e-07 0.00000
  3 1532.50 -1.04244e-07 0.00000
  4 1532.50 -1.04244e-07 0.00000
</Section>

newXOutput 26

<Section columns = "stress_xx | stress_yy | stress_xy">
  1 1584.28 -1.02983e-07 0.00000
  2 1584.28 -1.02983e-07 0.00000
  3 1584.28 -1.02983e-07 0.00000
  4 1584.28 -1.02983e-07 0.00000
</Section>

newXOutput 27

<Section columns = "stress_xx | stress_yy | stress_xy">
  1 1635.27 -1.01741e-07 0.00000
  2 1635.27 -1.01741e-07 0.00000
  3 1635.27 -1.01741e-07 0.00000
  4 1635.27 -1.01741e-07 0.00000
</Section>

newXOutput 28

<Section columns = "stress_xx | stress_yy | stress_xy">
  1 1685.46 -1.00526e-07 0.00000
  2 1685.46 -1.00526e-07 0.00000
  3 1685.46 -1.00526e-07 0.00000
  4 1685.46 -1.00526e-07 0.00000
</Section>

newXOutput 29

<Section columns = "stress_xx | stress_yy | stress_xy">
  1 1734.89 -9.93268e-08 0.00000
  2 1734.89 -9.93268e-08 0.00000
  3 1734.89 -9.93268e-08 0.00000
  4 1734.89 -9.93268e-08 0.00000
</Section>

newXOutput 30

<Section columns = "stress_xx | stress_yy | stress_xy">
  1 1783.55 -9.81518e-08 0.00000
  2 1783.55 -9.81518e-08 0.00000
  3 1783.55 -9.81518e-08 0.00000
  4 1783.55 -9.81518e-08 0.00000
</Section>

newXOutput 31

<Section columns = "stress_xx | stress_yy | stress_xy">
  1 1831.48 -9.69958e-08 0.00000
  2 1831.48 -9.69958e-08 0.00000
  3 1831.48 -9.69958e-08 0.00000
  4 1831.48 -9.69958e-08 0.00000
</Section>

newXOutput 32

<Section columns = "stress_xx | stress_yy | stress_xy">
  1 1878.67 -9.58598e-08 0.00000
  2 1878.67 -9.58598e-08 0.00000
  3 1878.67 -9.58598e-08 0.00000
  4 1878.67 -9.58598e-08 0.00000
</Section>

newXOutput 33

<Section columns = "stress_xx | stress_yy | stress_xy">
  1 1925.15 -9.47421e-08 0.00000
  2 1925.15 -9.47421e-08 0.00000
  3 1925.15 -9.47421e-08 0.00000
  4 1925.15 -9.47421e-08 0.00000
</Section>

newXOutput 34

<Section columns = "stress_xx | stress_yy | stress_xy">
  1 1970.93 -9.36452e-08 0.00000
  2 1970.93 -9.36452e-08 0.00000
  3 1970.93 -9.36452e-08 0.00000
  4 1970.93 -9.36452e-08 0.00000
</Section>

newXOutput 35

<Section columns = "stress_xx | stress_yy | stress_xy">
  1 2016.03 -9.25647e-08 0.00000
  2 2016.03 -9.25647e-08 0.00000
  3 2016.03 -9.25647e-08 0.00000
  4 2016.03 -9.25647e-08 0.00000
</Section>

newXOutput 36

<Section columns = "stress_xx | stress_yy | stress_xy">
  1 2060.45 -9.15034e-08 0.00000
  2 2060.45 -9.15034e-08 0.00000
  3 2060.45 -9.15034e-08 0.00000
  4 2060.45 -9.15034e-08 0.00000
</Section>

newXOutput 37

<Section columns = "stress_xx | stress_yy | stress_xy">
  1 2104.20 -9.04611e-08 0.00000
  2 2104.20 -9.04611e-08 0.00000
  3 2104.20 -9.04611e-08 0.00000
  4 2104.20 -9.04611e-08 0.00000
</Section>

newXOutput 38

<Section columns = "stress_xx | stress_yy | stress_xy">
  1 2122.37 -8.83938e-08 0.00000
  2 2122.37 -8.83938e-08 0.00000
  3 2122.37 -8.83938e-08 0.00000
  4 2122.37 -8.83938e-08 0.00000
</Section>

newXOutput 39

<Section columns = "stress_xx | stress_yy | stress_xy">
  1 2095.64 -8.46197e-08 0.00000
  2 2095.64 -8.46197e-08 0.00000
  3 2095.64 -8.46197e-08 0.00000
  4 2095.64 -8.46197e-08 0.00000
</Section>

newXOutput 40

<Section columns = "stress_xx | stress_yy | stress_xy">
  1 2069.28 -8.10700e-08 0.00000
  2 2069.28 -8.10700e-08 0.00000
  3 2069.28 -8.10700e-08 0.00000
  4 2069.28 -8.10700e-08 0.00000
</Section>

newXOutput 41

<Section columns = "stress_xx | stress_yy | stress_xy">
  1 2043.28 -7.77211e-08 0.00000
  2 2043.28 -7.77211e-08 0.00000
  3 2043.28 -7.77211e-08 0.00000
  4 2043.28 -7.77211e-08 0.00000
</Section>

newXOutput 42

<Section columns = "stress_xx | stress_yy | stress_xy">
  1 2017.64 -7.45604e-08 0.00000
  2 2017.64 -7.45604e-08 0.00000
  3 2017.64 -7.45604e-08 0.00000
  4 2017.64 -7.45604e-08 0.00000
</Section>

newXOutput 43

<Section columns = "stress_xx | stress_yy | stress_xy">
  1 1992.35 -7.15734e-08 0.00000
  2 1992.35 -7.15734e-08 0.00000
  3 1992.35 -7.15734e-08 0.00000
  4 1992.35 -7.15734e-08 0.00000
</Section>

newXOutput 44

<Section columns = "stress_xx | stress_yy | stress_xy">
  1 1967.41 -6.87492e-08 0.00000
  2 1967.41 -6.87492e-08 0.00000
  3 1967.41 -6.87492e-08 0.00000
  4 1967.41 -6.87492e-08 0.00000
</Section>

newXOutput 45

<Section columns = "stress_xx | stress_yy | stress_xy">
  1 1942.80 -6.60721e-08 0.00000
  2 1942.80 -6.60721e-08 0.00000
  3 1942.80 -6.60721e-08 0.00000
  4 1942.80 -6.60721e-08 0.00000
</Section>

newXOutput 46

<Section columns = "stress_xx | stress_yy | stress_xy">
  1 1918.53 -6.35328e-08 0.00000
  2 1918.53 -6.35328e-08 0.00000
  3 1918.53 -6.35328e-08 0.00000
  4 1918.53 -6.35328e-08 0.00000
</Section>

newXOutput 47

<Section columns = "stress_xx | stress_yy | stress_xy">
  1 1894.59 -6.11284e-08 0.00000
  2 1894.59 -6.11284e-08 0.00000
  3 1894.59 -6.11284e-08 0.00000
  4 1894.59 -6.11284e-08 0.00000
</Section>

newXOutput 48

<Section columns = "stress_xx | stress_yy | stress_xy">
  1 1870.97 -5.88391e-08 0.00000
  2 1870.97 -5.88391e-08 0.00000
  3 1870.97 -5.88391e-08 0.00000
  4 1870.97 -5.88391e-08 0.00000
</Section>

newXOutput 49

<Section columns = "stress_xx | stress_yy | stress_xy">
  1 1847.66 -5.66682e-08 0.00000
  2 1847.66 -5.66682e-08 0.00000
  3 1847.66 -5.66682e-08 0.00000
  4 1847.66 -5.66682e-08 0.00000
</Section>

newXOutput 50

<Section columns = "stress_xx | stress_yy | stress_xy">
  1 1824.66 -5.45992e-08 0.00000
  2 1824.66 -5.45992e-08 0.00000
  3 1824.66 -5.45992e-08 0.00000
  4 1824.66 -5.45992e-08 0.00000
</Section>

newXOutput 51

<Section columns = "stress_xx | stress_yy | stress_xy">
  1 1801.97 -5.26332e-08 0.00000
  2 1801.97 -5.26332e-08 0.00000
  3 1801.97 -5.26332e-08 0.00000
  4 1801.97 -5.26332e-08 0.00000
</Section>

newXOutput 52

<Section columns = "stress_xx | stress_yy | stress_xy">
  1 1779.58 -5.07581e-08 0.00000
  2 1779.58 -5.07581e-08 0.00000
  3 1779.58 -5.07581e-08 0.00000
  4 1779.58 -5.07581e-08 0.00000
</Section>

newXOutput 53

<Section columns = "stress_xx | stress_yy | stress_xy">
  1 1757.49 -4.89689e-08 0.00000
  2 1757.49 -4.89689e-08 0.00000
  3 1757.49 -4.89689e-08 0.00000
  4 1757.49 -4.89689e-08 0.00000
</Section>

newXOutput 54

<Section columns = "stress_xx | stress_yy | stress_xy">
  1 1735.68 -4.72624e-08 0.00000
  2 1735.68 -4.72624e-08 0.00000
  3 1735.68 -4.72624e-08 0.00000
  4 1735.68 -4.72624e-08 0.00000
</Section>

newXOutput 55

<Section columns = "stress_xx | stress_yy | stress_xy">
  1 1714.16 -4.56322e-08 0.00000
  2 1714.16 -4.56322e-08 0.00000
  3 1714.16 -4.56322e-08 0.00000
  4 1714.16 -4.56322e-08 0.00000
</Section>

newXOutput 56

<Section columns = "stress_xx | stress_yy | stress_xy">
  1 1692.92 -4.40755e-08 0.00000
  2 1692.92 -4.40755e-08 0.00000
  3 1692.92 -4.40755e-08 0.00000
  4 1692.92 -4.40755e-08 0.00000
</Section>

newXOutput 57

<Section columns = "stress_xx | stress_yy | stress_xy">
  1 1671.95 -4.25873e-08 0.00000
  2 1671.95 -4.25873e-08 0.00000
  3 1671.95 -4.25873e-08 0.00000
  4 1671.95 -4.25873e-08 0.00000
</Section>

newXOutput 58

<Section columns = "stress_xx | stress_yy | stress_xy">
  1 1651.25 -4.11627e-08 0.00000
  2 1651.25 -4.11627e-08 0.00000
  3 1651.25 -4.11627e-08 0.00000
  4 1651.25 -4.11627e-08 0.00000
</Section>

newXOutput 59

<Section columns = "stress_xx | stress_yy | stress_xy">
  1 1630.82 -3.98013e-08 0.00000
  2 1630.82 -3.98013e-08 0.00000
  3 1630.82 -3.98013e-08 0.00000
  4 1630.82 -3.98013e-08 0.00000
</Section>

newXOutput 60

<Section columns = "stress_xx | stress_yy | stress_xy">
  1 1610.65 -3.84939e-08 0.00000
  2 1610.65 -3.84939e-08 0.00000
  3 1610.65 -3.84939e-08 0.00000
  4 1610.65 -3.84939e-08 0.00000
</Section>

newXOutput 61

<Section columns = "stress_xx | stress_yy | stress_xy">
  1 1590.74 -3.72435e-08 0.00000
  2 1590.74 -3.72435e-08 0.00000
  3 1590.74 -3.72435e-08 0.00000
  4 1590.74 -3.72435e-08 0.00000
</Section>

newXOutput 62

<Section columns = "stress_xx | stress_yy | stress_xy">
  1 1571.08 -3.60447e-08 0.00000
  2 1571.08 -3.60447e-08 0.00000
  3 1571.08 -3.60447e-08 0.00000
  4 1571.08 -3.60447e-08 0.00000
</Section>

newXOutput 63

<Section columns = "stress_xx | stress_yy | stress_xy">
  1 1551.67 -3.48936e-08 0.00000
  2 1551.67 -3.48936e-08 0.00000
  3 1551.67 -3.48936e-08 0.00000
  4 1551.67 -3.48936e-08 0.00000
</Section>

newXOutput 64

<Section columns = "stress_xx | stress_yy | stress_xy">
  1 1532.51 -3.37891e-08 0.00000
  2 1532.51 -3.37891e-08 0.00000
  3 1532.51 -3.37891e-08 0.00000
  4 1532.51 -3.37891e-08 0.00000
</Section>

newXOutput 65

<Section columns = "stress_xx | stress_yy | stress_xy">
  1 1513.58 -3.27286e-08 0.00000
  2 1513.58 -3.27286e-08 0.00000
  3 1513.58 -3.27286e-08 0.00000
  4 1513.58 -3.27286e-08 0.00000
</Section>

newXOutput 66

<Section columns = "stress_xx | stress_yy | stress_xy">
  1 1494.89 -3.17102e-08 0.00000
  2 1494.89 -3.17102e-08 0.00000
  3 1494.89 -3.17102e-08 0.00000
  4 1494.89 -3.17102e-08 0.00000
</Section>

newXOutput 67

<Section columns = "stress_xx | stress_yy | stress_xy">
  1 1476.43 -3.07294e-08 0.00000
  2 1476.43 -3.07294e-08 0.00000
  3 1476.43 -3.07294e-08 0.00000
  4 1476.43 -3.07294e-08 0.00000
</Section>

newXOutput 68

<Section columns = "stress_xx | stress_yy | stress_xy">
  1 1458.21 -2.97883e-08 0.00000
  2 1458.21 -2.97883e-08 0.00000
  3 1458.21 -2.97883e-08 0.00000
  4 1458.21 -2.97883e-08 0.00000
</Section>

newXOutput 69

<Section columns = "stress_xx | stress_yy | stress_xy">
  1 1440.21 -2.88838e-08 0.00000
  2 1440.21 -2.88838e-08 0.00000
  3 1440.21 -2.88838e-08 0.00000
  4 1440.21 -2.88838e-08 0.00000
</Section>

newXOutput 70

<Section columns = "stress_xx | stress_yy | stress_xy">
  1 1422.43 -2.80108e-08 0.00000
  2 1422.43 -2.80108e-08 0.00000
  3 1422.43 -2.80108e-08 0.00000
  4 1422.43 -2.80108e-08 0.00000
</Section>

newXOutput 71

<Section columns = "stress_xx | stress_yy | stress_xy">
  1 1404.86 -2.71721e-08 0.00000
  2 1404.86 -2.71721e-08 0.00000
  3 1404.86 -2.71721e-08 0.00000
  4 1404.86 -2.71721e-08 0.00000
</Section>

newXOutput 72

<Section columns = "stress_xx | stress_yy | stress_xy">
  1 1387.52 -2.63640e-08 0.00000
  2 1387.52 -2.63640e-08 0.00000
  3 1387.52 -2.63640e-08 0.00000
  4 1387.52 -2.63640e-08 0.00000
</Section>

newXOutput 73

<Section columns = "stress_xx | stress_yy | stress_xy">
  1 1370.38 -2.55849e-08 0.00000
  2 1370.38 -2.55849e-08 0.00000
  3 1370.38 -2.55849e-08 0.00000
  4 1370.38 -2.55849e-08 0.00000
</Section>

newXOutput 74

<Section columns = "stress_xx | stress_yy | stress_xy">
  1 1353.45 -2.48353e-08 0.00000
  2 1353.45 -2.48353e-08 0.00000
  3 1353.45 -2.48353e-08 0.00000
  4 1353.45 -2.48353e-08 0.00000
</Section>

newXOutput 75

<Section columns = "stress_xx | stress_yy | stress_xy">
  1 1336.73 -2.41103e-08 0.00000
  2 1336.73 -2.41103e-08 0.00000
  3 1336.73 -2.41103e-08 0.00000
  4 1336.73 -2.41103e-08 0.00000
</Section>

newXOutput 76

<Section columns = "stress_xx | stress_yy | stress_xy">
  1 1320.21 -2.34136e-08 0.00000
  2 1320.21 -2.34136e-08 0.00000
  3 1320.21 -2.34136e-08 0.00000
  4 1320.21 -2.34136e-08 0.00000
</Section>

newXOutput 77

<Section columns = "stress_xx | stress_yy | stress_xy">
  1 1303.88 -2.27414e-08 0.00000
  2 1303.88 -2.27414e-08 0.00000
  3 1303.88 -2.27414e-08 0.00000
  4 1303.88 -2.27414e-08 0.00000
</Section>

newXOutput 78

<Section columns = "stress_xx | stress_yy | stress_xy">
  1 1287.75 -2.20908e-08 0.00000
  2 1287.75 -2.20908e-08 0.00000
  3 1287.75 -2.20908e-08 0.00000
  4 1287.75 -2.20908e-08 0.00000
</Section>

newXOutput 79

<Section columns = "stress_xx | stress_yy | stress_xy">
  1 1271.82 -2.14634e-08 0.00000
  2 1271.82 -2.14634e-08 0.00000
  3 1271.82 -2.14634e-08 0.00000
  4 1271.82 -2.14634e-08 0.00000
</Section>

newXOutput 80

<Section columns = "stress_xx | stress_yy | stress_xy">
  1 1256.07 -2.08580e-08 0.00000
  2 1256.07 -2.08580e-08 0.00000
  3 1256.07 -2.08580e-08 0.00000
  4 1256.07 -2.08580e-08 0.00000
</Section>

newXOutput 81

<Section columns = "stress_xx | stress_yy | stress_xy">
  1 1240.51 -2.02718e-08 0.00000
  2 1240.51 -2.02718e-08 0.00000
  3 1240.51 -2.02718e-08 0.00000
  4 1240.51 -2.02718e-08 0.00000
</Section>

newXOutput 82

<Section columns = "stress_xx | stress_yy | stress_xy">
  1 1225.13 -1.97066e-08 0.00000
  2 1225.13 -1.97066e-08 0.00000
  3 1225.13 -1.97066e-08 0.00000
  4 1225.13 -1.97066e-08 0.00000
</Section>

newXOutput 83

<Section columns = "stress_xx | stress_yy | stress_xy">
  1 1209.93 -1.91593e-08 0.00000
  2 1209.93 -1.91593e-08 0.00000
  3 1209.93 -1.91593e-08 0.00000
  4 1209.93 -1.91593e-08 0.00000
</Section>

newXOutput 84

<Section columns = "stress_xx | stress_yy | stress_xy">
  1 1194.91 -1.86303e-08 0.00000
  2 1194.91 -1.86303e-08 0.00000
  3 1194.91 -1.86303e-08 0.00000
  4 1194.91 -1.86303e-08 0.00000
</Section>

newXOutput 85

<Section columns = "stress_xx | stress_yy | stress_xy">
  1 1180.06 -1.81189e-08 0.00000
  2 1180.06 -1.81189e-08 0.00000
  3 1180.06 -1.81189e-08 0.00000
  4 1180.06 -1.81189e-08 0.00000
</Section>

newXOutput 86

<Section columns = "stress_xx | stress_yy | stress_xy">
  1 1165.39 -1.76235e-08 0.00000
  2 1165.39 -1.76235e-08 0.00000
  3 1165.39 -1.76235e-08 0.00000
  4 1165.39 -1.76235e-08 0.00000
</Section>

newXOutput 87

<Section columns = "stress_xx | stress_yy | stress_xy">
  1 1150.89 -1.71463e-08 0.00000
  2 1150.89 -1.71463e-08 0.00000
  3 1150.89 -1.71463e-08 0.00000
  4 1150.89 -1.71463e-08 0.00000
</Section>

newXOutput 88

<Section columns = "stress_xx | stress_yy | stress_xy">
  1 1136.55 -1.66817e-08 0.00000
  2 1136.55 -1.66817e-08 0.00000
  3 1136.55 -1.66817e-08 0.00000
  4 1136.55 -1.66817e-08 0.00000
</Section>

newXOutput 89

<Section columns = "stress_xx | stress_yy | stress_xy">
  1 1122.38 -1.62339e-08 0.00000
  2 1122.38 -1.62339e-08 0.00000
  3 1122.38 -1.62339e-08 0.00000
  4 1122.38 -1.62339e-08 0.00000
</Section>

newXOutput 90

<Section columns = "stress_xx | stress_yy | stress_xy">
  1 1108.37 -1.57990e-08 0.00000
  2 1108.37 -1.57990e-08 0.00000
  3 1108.37 -1.57990e-08 0.00000
  4 1108.37 -1.57990e-08 0.00000
</Section>

newXOutput 91

<Section columns = "stress_xx | stress_yy | stress_xy">
  1 1094.52 -1.53781e-08 0.00000
  2 1094.52 -1.53781e-08 0.00000
  3 1094.52 -1.53781e-08 0.00000
  4 1094.52 -1.53781e-08 0.00000
</Section>

newXOutput 92

<Section columns = "stress_xx | stress_yy | stress_xy">
  1 1080.83 -1.49704e-08 0.00000
  2 1080.83 -1.49704e-08 0.00000
  3 1080.83 -1.49704e-08 0.00000
  4 1080.83 -1.49704e-08 0.00000
</Section>

newXOutput 93

<Section columns = "stress_xx | stress_yy | stress_xy">
  1 1067.29 -1.45753e-08 0.00000
  2 1067.29 -1.45753e-08 0.00000
  3 1067.29 -1.45753e-08 0.00000
  4 1067.29 -1.45753e-08 0.00000
</Section>

newXOutput 94

<Section columns = "stress_xx | stress_yy | stress_xy">
  1 1053.91 -1.41911e-08 0.00000
  2 1053.91 -1.41911e-08 0.00000
  3 1053.91 -1.41911e-08 0.00000
  4 1053.91 -1.41911e-08 0.00000
</Section>

newXOutput 95

<Section columns = "stress_xx | stress_yy | stress_xy">
  1 1040.67 -1.38198e-08 0.00000
  2 1040.67 -1.38198e-08 0.00000
  3 1040.67 -1.38198e-08 0.00000
  4 1040.67 -1.38198e-08 0.00000
</Section>

newXOutput 96

<Section columns = "stress_xx | stress_yy | stress_xy">
  1 1027.59 -1.34606e-08 0.00000
  2 1027.59 -1.34606e-08 0.00000
  3 1027.59 -1.34606e-08 0.00000
  4 1027.59 -1.34606e-08 0.00000
</Section>

newXOutput 97

<Section columns = "stress_xx | stress_yy | stress_xy">
  1 1014.65 -1.31107e-08 0.00000
  2 1014.65 -1.31107e-08 0.00000
  3 1014.65 -1.31107e-08 0.00000
  4 1014.65 -1.31107e-08 0.00000
</Section>

newXOutput 98

<Section columns = "stress_xx | stress_yy | stress_xy">
  1 1001.85 -1.27729e-08 0.00000
  2 1001.85 -1.27729e-08 0.00000
  3 1001.85 -1.27729e-08 0.00000
  4 1001.85 -1.27729e-08 0.00000
</Section>

newXOutput 99

<Section columns = "stress_xx | stress_yy | stress_xy">
  1 989.201 -1.24432e-08 0.00000
  2 989.201 -1.24432e-08 0.00000
  3 989.201 -1.24432e-08 0.00000
  4 989.201 -1.24432e-08 0.00000
</Section>

newXOutput 100

<Section columns = "stress_xx | stress_yy | stress_xy">
  1 976.687 -1.21239e-08 0.00000
  2 976.687 -1.21239e-08 0.00000
  3 976.687 -1.21239e-08 0.00000
  4 976.687 -1.21239e-08 0.00000
</Section>

newXOutput 101

<Section columns = "stress_xx | stress_yy | stress_xy">
  1 964.312 -1.18139e-08 0.00000
  2 964.312 -1.18139e-08 0.00000
  3 964.312 -1.18139e-08 0.00000
  4 964.312 -1.18139e-08 0.00000
</Section>

newXOutput 102

<Section columns = "stress_xx | stress_yy | stress_xy">
  1 952.072 -1.15132e-08 0.00000
  2 952.072 -1.15132e-08 0.00000
  3 952.072 -1.15132e-08 0.00000
  4 952.072 -1.15132e-08 0.00000
</Section>

newXOutput 103

<Section columns = "stress_xx | stress_yy | stress_xy">
  1 939.966 -1.12207e-08 0.00000
  2 939.966 -1.12207e-08 0.00000
  3 939.966 -1.12207e-08 0.00000
  4 939.966 -1.12207e-08 0.00000
</Section>

newXOutput 104

<Section columns = "stress_xx | stress_yy | stress_xy">
  1 927.992 -1.09362e-08 0.00000
  2 927.992 -1.09362e-08 0.00000
  3 927.992 -1.09362e-08 0.00000
  4 927.992 -1.09362e-08 0.00000
</Section>

newXOutput 105

<Section columns = "stress_xx | stress_yy | stress_xy">
  1 916.149 -1.06614e-08 0.00000
  2 916.149 -1.06614e-08 0.00000
  3 916.149 -1.06614e-08 0.00000
  4 916.149 -1.06614e-08 0.00000
</Section>

newXOutput 106

<Section columns = "stress_xx | stress_yy | stress_xy">
  1 904.433 -1.03928e-08 0.00000
  2 904.433 -1.03928e-08 0.00000
  3 904.433 -1.03928e-08 0.00000
  4 904.433 -1.03928e-08 0.00000
</Section>

newXOutput 107

<Section columns = "stress_xx | stress_yy | stress_xy">
  1 892.845 -1.01326e-08 0.00000
  2 892.845 -1.01326e-08 0.00000
  3 892.845 -1.01326e-08 0.00000
  4 892.845 -1.01326e-08 0.00000
</Section>

newXOutput 108

<Section columns = "stress_xx | stress_yy | stress_xy">
  1 881.380 -9.87998e-09 0.00000
  2 881.380 -9.87998e-09 0.00000
  3 881.380 -9.87998e-09 0.00000
  4 881.380 -9.87998e-09 0.00000
</Section>

newXOutput 109

<Section columns = "stress_xx | stress_yy | stress_xy">
  1 870.039 -9.63263e-09 0.00000
  2 870.039 -9.63263e-09 0.00000
  3 870.039 -9.63263e-09 0.00000
  4 870.039 -9.63263e-09 0.00000
</Section>

newXOutput 110

<Section columns = "stress_xx | stress_yy | stress_xy">
  1 858.819 -9.39365e-09 0.00000
  2 858.819 -9.39365e-09 0.00000
  3 858.819 -9.39365e-09 0.00000
  4 858.819 -9.39365e-09 0.00000
</Section>

newXOutput 111

<Section columns = "stress_xx | stress_yy | stress_xy">
  1 847.719 -9.16086e-09 0.00000
  2 847.719 -9.16086e-09 0.00000
  3 847.719 -9.16086e-09 0.00000
  4 847.719 -9.16086e-09 0.00000
</Section>

newXOutput 112

<Section columns = "stress_xx | stress_yy | stress_xy">
  1 836.736 -8.93447e-09 0.00000
  2 836.736 -8.93447e-09 0.00000
  3 836.736 -8.93447e-09 0.00000
  4 836.736 -8.93447e-09 0.00000
</Section>

newXOutput 113

<Section columns = "stress_xx | stress_yy | stress_xy">
  1 825.870 -8.71390e-09 0.00000
  2 825.870 -8.71390e-09 0.00000
  3 825.870 -8.71390e-09 0.00000
  4 825.870 -8.71390e-09 0.00000
</Section>

newXOutput 114

<Section columns = "stress_xx | stress_yy | stress_xy">
  1 815.118 -8.49970e-09 0.00000
  2 815.118 -8.49970e-09 0.00000
  3 815.118 -8.49970e-09 0.00000
  4 815.118 -8.49970e-09 0.00000
</Section>

newXOutput 115

<Section columns = "stress_xx | stress_yy | stress_xy">
  1 804.479 -8.29115e-09 0.00000
  2 804.479 -8.29115e-09 0.00000
  3 804.479 -8.29115e-09 0.00000
  4 804.479 -8.29115e-09 0.00000
</Section>

newXOutput 116

<Section columns = "stress_xx | stress_yy | stress_xy">
  1 793.952 -8.08893e-09 0.00000
  2 793.952 -8.08893e-09 0.00000
  3 793.952 -8.08893e-09 0.00000
  4 793.952 -8.08893e-09 0.00000
</Section>

newXOutput 117

<Section columns = "stress_xx | stress_yy | stress_xy">
  1 783.535 -7.89116e-09 0.00000
  2 783.535 -7.89116e-09 0.00000
  3 783.535 -7.89116e-09 0.00000
  4 783.535 -7.89116e-09 0.00000
</Section>

newXOutput 118

<Section columns = "stress_xx | stress_yy | stress_xy">
  1 773.226 -7.69837e-09 0.00000
  2 773.226 -7.69837e-09 0.00000
  3 773.226 -7.69837e-09 0.00000
  4 773.226 -7.69837e-09 0.00000
</Section>

newXOutput 119

<Section columns = "stress_xx | stress_yy | stress_xy">
  1 763.024 -7.51126e-09 0.00000
  2 763.024 -7.51126e-09 0.00000
  3 763.024 -7.51126e-09 0.00000
  4 763.024 -7.51126e-09 0.00000
</Section>

newXOutput 120

<Section columns = "stress_xx | stress_yy | stress_xy">
  1 752.928 -7.32900e-09 0.00000
  2 752.928 -7.32900e-09 0.00000
  3 752.928 -7.32900e-09 0.00000
  4 752.928 -7.32900e-09 0.00000
</Section>

newXOutput 121

<Section columns = "stress_xx | stress_yy | stress_xy">
  1 742.936 -7.15144e-09 0.00000
  2 742.936 -7.15144e-09 0.00000
  3 742.936 -7.15144e-09 0.00000
  4 742.936 -7.15144e-09 0.00000
</Section>

newXOutput 122

<Section columns = "stress_xx | stress_yy | stress_xy">
  1 733.047 -6.97830e-09 0.00000
  2 733.047 -6.97830e-09 0.00000
  3 733.047 -6.97830e-09 0.00000
  4 733.047 -6.97830e-09 0.00000
</Section>

newXOutput 123

<Section columns = "stress_xx | stress_yy | stress_xy">
  1 723.258 -6.80961e-09 0.00000
  2 723.258 -6.80961e-09 0.00000
  3 723.258 -6.80961e-09 0.00000
  4 723.258 -6.80961e-09 0.00000
</Section>

newXOutput 124

<Section columns = "stress_xx | stress_yy | stress_xy">
  1 713.570 -6.64554e-09 0.00000
  2 713.570 -6.64554e-09 0.00000
  3 713.570 -6.64554e-09 0.00000
  4 713.570 -6.64554e-09 0.00000
</Section>

newXOutput 125

<Section columns = "stress_xx | stress_yy | stress_xy">
  1 703.981 -6.48536e-09 0.00000
  2 703.981 -6.48536e-09 0.00000
  3 703.981 -6.48536e-09 0.00000
  4 703.981 -6.48536e-09 0.00000
</Section>

newXOutput 126

<Section columns = "stress_xx | stress_yy | stress_xy">
  1 694.489 -6.32912e-09 0.00000
  2 694.489 -6.32912e-09 0.00000
  3 694.489 -6.32912e-09 0.00000
  4 694.489 -6.32912e-09 0.00000
</Section>

newXOutput 127

<Section columns = "stress_xx | stress_yy | stress_xy">
  1 685.093 -6.17685e-09 0.00000
  2 685.093 -6.17685e-09 0.00000
  3 685.093 -6.17685e-09 0.00000
  4 685.093 -6.17685e-09 0.00000
</Section>

newXOutput 128

<Section columns = "stress_xx | stress_yy | stress_xy">
  1 675.792 -6.02914e-09 0.00000
  2 675.792 -6.02914e-09 0.00000
  3 675.792 -6.02914e-09 0.00000
  4 675.792 -6.02914e-09 0.00000
</Section>

newXOutput 129

<Section columns = "stress_xx | stress_yy | stress_xy">
  1 666.584 -5.88433e-09 0.00000
  2 666.584 -5.88433e-09 0.00000
  3 666.584 -5.88433e-09 0.00000
  4 666.584 -5.88433e-09 0.00000
</Section>

newXOutput 130

<Section columns = "stress_xx | stress_yy | stress_xy">
  1 657.468 -5.74345e-09 0.00000
  2 657.468 -5.74345e-09 0.00000
  3 657.468 -5.74345e-09 0.00000
  4 657.468 -5.74345e-09 0.00000
</Section>

newXOutput 131

<Section columns = "stress_xx | stress_yy | stress_xy">
  1 648.444 -5.60584e-09 0.00000
  2 648.444 -5.60584e-09 0.00000
  3 648.444 -5.60584e-09 0.00000
  4 648.444 -5.60584e-09 0.00000
</Section>

newXOutput 132

<Section columns = "stress_xx | stress_yy | stress_xy">
  1 639.509 -5.47221e-09 0.00000
  2 639.509 -5.47221e-09 0.00000
  3 639.509 -5.47221e-09 0.00000
  4 639.509 -5.47221e-09 0.00000
</Section>

newXOutput 133

<Section columns = "stress_xx | stress_yy | stress_xy">
  1 630.664 -5.34114e-09 0.00000
  2 630.664 -5.34114e-09 0.00000
  3 630.664 -5.34114e-09 0.00000
  4 630.664 -5.34114e-09 0.00000
</Section>

newXOutput 134

<Section columns = "stress_xx | stress_yy | stress_xy">
  1 621.905 -5.21387e-09 0.00000
  2 621.905 -5.21387e-09 0.00000
  3 621.905 -5.21387e-09 0.00000
  4 621.905 -5.21387e-09 0.00000
</Section>

newXOutput 135

<Section columns = "stress_xx | stress_yy | stress_xy">
  1 613.234 -5.08913e-09 0.00000
  2 613.234 -5.08913e-09 0.00000
  3 613.234 -5.08913e-09 0.00000
  4 613.234 -5.08913e-09 0.00000
</Section>

newXOutput 136

<Section columns = "stress_xx | stress_yy | stress_xy">
  1 604.647 -4.96787e-09 0.00000
  2 604.647 -4.96787e-09 0.00000
  3 604.647 -4.96787e-09 0.00000
  4 604.647 -4.96787e-09 0.00000
</Section>

newXOutput 137

<Section columns = "stress_xx | stress_yy | stress_xy">
  1 596.145 -4.84913e-09 0.00000
  2 596.145 -4.84913e-09 0.00000
  3 596.145 -4.84913e-09 0.00000
  4 596.145 -4.84913e-09 0.00000
</Section>

newXOutput 138

<Section columns = "stress_xx | stress_yy | stress_xy">
  1 587.726 -4.73417e-09 0.00000
  2 587.726 -4.73417e-09 0.00000
  3 587.726 -4.73417e-09 0.00000
  4 587.726 -4.73417e-09 0.00000
</Section>

newXOutput 139

<Section columns = "stress_xx | stress_yy | stress_xy">
  1 579.389 -4.62076e-09 0.00000
  2 579.389 -4.62076e-09 0.00000
  3 579.389 -4.62076e-09 0.00000
  4 579.389 -4.62076e-09 0.00000
</Section>

newXOutput 140

<Section columns = "stress_xx | stress_yy | stress_xy">
  1 571.133 -4.51107e-09 0.00000
  2 571.133 -4.51107e-09 0.00000
  3 571.133 -4.51107e-09 0.00000
  4 571.133 -4.51107e-09 0.00000
</Section>

newXOutput 141

<Section columns = "stress_xx | stress_yy | stress_xy">
  1 562.957 -4.40306e-09 0.00000
  2 562.957 -4.40306e-09 0.00000
  3 562.957 -4.40306e-09 0.00000
  4 562.957 -4.40306e-09 0.00000
</Section>

newXOutput 142

<Section columns = "stress_xx | stress_yy | stress_xy">
  1 554.860 -4.29826e-09 0.00000
  2 554.860 -4.29826e-09 0.00000
  3 554.860 -4.29826e-09 0.00000
  4 554.860 -4.29826e-09 0.00000
</Section>

newXOutput 143

<Section columns = "stress_xx | stress_yy | stress_xy">
  1 546.841 -4.19538e-09 0.00000
  2 546.841 -4.19538e-09 0.00000
  3 546.841 -4.19538e-09 0.00000
  4 546.841 -4.19538e-09 0.00000
</Section>

newXOutput 144

<Section columns = "stress_xx | stress_yy | stress_xy">
  1 538.900 -4.09567e-09 0.00000
  2 538.900 -4.09567e-09 0.00000
  3 538.900 -4.09567e-09 0.00000
  4 538.900 -4.09567e-09 0.00000
</Section>

newXOutput 145

<Section columns = "stress_xx | stress_yy | stress_xy">
  1 531.034 -3.99775e-09 0.00000
  2 531.034 -3.99775e-09 0.00000
  3 531.034 -3.99775e-09 0.00000
  4 531.034 -3.99775e-09 0.00000
</Section>

newXOutput 146

<Section columns = "stress_xx | stress_yy | stress_xy">
  1 523.243 -3.90192e-09 0.00000
  2 523.243 -3.90192e-09 0.00000
  3 523.243 -3.90192e-09 0.00000
  4 523.243 -3.90192e-09 0.00000
</Section>

newXOutput 147

<Section columns = "stress_xx | stress_yy | stress_xy">
  1 515.526 -3.80873e-09 0.00000
  2 515.526 -3.80873e-09 0.00000
  3 515.526 -3.80873e-09 0.00000
  4 515.526 -3.80873e-09 0.00000
</Section>

newXOutput 148

<Section columns = "stress_xx | stress_yy | stress_xy">
  1 507.883 -3.71740e-09 0.00000
  2 507.883 -3.71740e-09 0.00000
  3 507.883 -3.71740e-09 0.00000
  4 507.883 -3.71740e-09 0.00000
</Section>

newXOutput 149

<Section columns = "stress_xx | stress_yy | stress_xy">
  1 500.312 -3.62839e-09 0.00000
  2 500.312 -3.62839e-09 0.00000
  3 500.312 -3.62839e-09 0.00000
  4 500.312 -3.62839e-09 0.00000
</Section>

newXOutput 150

<Section columns = "stress_xx | stress_yy | stress_xy">
  1 492.812 -3.54125e-09 0.00000
  2 492.812 -3.54125e-09 0.00000
  3 492.812 -3.54125e-09 0.00000
  4 492.812 -3.54125e-09 0.00000
</Section>

newXOutput 151

<Section columns = "stress_xx | stress_yy | stress_xy">
  1 485.383 -3.45651e-09 0.00000
  2 485.383 -3.45651e-09 0.00000
  3 485.383 -3.45651e-09 0.00000
  4 485.383 -3.45651e-09 0.00000
</Section>

newXOutput 152

<Section columns = "stress_xx | stress_yy | stress_xy">
  1 478.024 -3.37316e-09 0.00000
  2 478.024 -3.37316e-09 0.00000
  3 478.024 -3.37316e-09 0.00000
  4 478.024 -3.37316e-09 0.00000
</Section>

newXOutput 153

<Section columns = "stress_xx | stress_yy | stress_xy">
  1 470.733 -3.29164e-09 0.00000
  2 470.733 -3.29164e-09 0.00000
  3 470.733 -3.29164e-09 0.00000
  4 470.733 -3.29164e-09 0.00000
</Section>

newXOutput 154

<Section columns = "stress_xx | stress_yy | stress_xy">
  1 463.511 -3.21227e-09 0.00000
  2 463.511 -3.21227e-09 0.00000
  3 463.511 -3.21227e-09 0.00000
  4 463.511 -3.21227e-09 0.00000
</Section>

newXOutput 155

<Section columns = "stress_xx | stress_yy | stress_xy">
  1 456.355 -3.13455e-09 0.00000
  2 456.355 -3.13455e-09 0.00000
  3 456.355 -3.13455e-09 0.00000
  4 456.355 -3.13455e-09 0.00000
</Section>

newXOutput 156

<Section columns = "stress_xx | stress_yy | stress_xy">
  1 449.266 -3.05887e-09 0.00000
  2 449.266 -3.05887e-09 0.00000
  3 449.266 -3.05887e-09 0.00000
  4 449.266 -3.05887e-09 0.00000
</Section>

newXOutput 157

<Section columns = "stress_xx | stress_yy | stress_xy">
  1 442.243 -2.98500e-09 0.00000
  2 442.243 -2.98500e-09 0.00000
  3 442.243 -2.98500e-09 0.00000
  4 442.243 -2.98500e-09 0.00000
</Section>

newXOutput 158

<Section columns = "stress_xx | stress_yy | stress_xy">
  1 435.284 -2.91240e-09 0.00000
  2 435.284 -2.91240e-09 0.00000
  3 435.284 -2.91240e-09 0.00000
  4 435.284 -2.91240e-09 0.00000
</Section>

newXOutput 159

<Section columns = "stress_xx | stress_yy | stress_xy">
  1 428.389 -2.84121e-09 0.00000
  2 428.389 -2.84121e-09 0.00000
  3 428.389 -2.84121e-09 0.00000
  4 428.389 -2.84121e-09 0.00000
</Section>

newXOutput 160

<Section columns = "stress_xx | stress_yy | stress_xy">
  1 421.557 -2.77188e-09 0.00000
  2 421.557 -2.77188e-09 0.00000
  3 421.557 -2.77188e-09 0.00000
  4 421.557 -2.77188e-09 0.00000
</Section>

newXOutput 161

<Section columns = "stress_xx | stress_yy | stress_xy">
  1 414.788 -2.70406e-09 0.00000
  2 414.788 -2.70406e-09 0.00000
  3 414.788 -2.70406e-09 0.00000
  4 414.788 -2.70406e-09 0.00000
</Section>

newXOutput 162

<Section columns = "stress_xx | stress_yy | stress_xy">
  1 408.080 -2.63769e-09 0.00000
  2 408.080 -2.63769e-09 0.00000
  3 408.080 -2.63769e-09 0.00000
  4 408.080 -2.63769e-09 0.00000
</Section>

newXOutput 163

<Section columns = "stress_xx | stress_yy | stress_xy">
  1 401.434 -2.57253e-09 0.00000
  2 401.434 -2.57253e-09 0.00000
  3 401.434 -2.57253e-09 0.00000
  4 401.434 -2.57253e-09 0.00000
</Section>

newXOutput 164

<Section columns = "stress_xx | stress_yy | stress_xy">
  1 394.847 -2.50891e-09 0.00000
  2 394.847 -2.50891e-09 0.00000
  3 394.847 -2.50891e-09 0.00000
  4 394.847 -2.50891e-09 0.00000
</Section>

newXOutput 165

<Section columns = "stress_xx | stress_yy | stress_xy">
  1 388.320 -2.44704e-09 0.00000
  2 388.320 -2.44704e-09 0.00000
  3 388.320 -2.44704e-09 0.00000
  4 388.320 -2.44704e-09 0.00000
</Section>

newXOutput 166

<Section columns = "stress_xx | stress_yy | stress_xy">
  1 381.852 -2.38648e-09 0.00000
  2 381.852 -2.38648e-09 0.00000
  3 381.852 -2.38648e-09 0.00000
  4 381.852 -2.38648e-09 0.00000
</Section>

newXOutput 167

<Section columns = "stress_xx | stress_yy | stress_xy">
  1 375.442 -2.32686e-09 0.00000
  2 375.442 -2.32686e-09 0.00000
  3 375.442 -2.32686e-09 0.00000
  4 375.442 -2.32686e-09 0.00000
</Section>

newXOutput 168

<Section columns = "stress_xx | stress_yy | stress_xy">
  1 369.090 -2.26866e-09 0.00000
  2 369.090 -2.26866e-09 0.00000
  3 369.090 -2.26866e-09 0.00000
  4 369.090 -2.26866e-09 0.00000
</Section>

newXOutput 169

<Section columns = "stress_xx | stress_yy | stress_xy">
  1 362.794 -2.21169e-09 0.00000
  2 362.794 -2.21169e-09 0.00000
  3 362.794 -2.21169e-09 0.00000
  4 362.794 -2.21169e-09 0.00000
</Section>

newXOutput 170

<Section columns = "stress_xx | stress_yy | stress_xy">
  1 356.554 -2.15601e-09 0.00000
  2 356.554 -2.15601e-09 0.00000
  3 356.554 -2.15601e-09 0.00000
  4 356.554 -2.15601e-09 0.00000
</Section>

newXOutput 171

<Section columns = "stress_xx | stress_yy | stress_xy">
  1 350.370 -2.10164e-09 0.00000
  2 350.370 -2.10164e-09 0.00000
  3 350.370 -2.10164e-09 0.00000
  4 350.370 -2.10164e-09 0.00000
</Section>

newXOutput 172

<Section columns = "stress_xx | stress_yy | stress_xy">
  1 344.241 -2.04816e-09 0.00000
  2 344.241 -2.04816e-09 0.00000
  3 344.241 -2.04816e-09 0.00000
  4 344.241 -2.04816e-09 0.00000
</Section>

newXOutput 173

<Section columns = "stress_xx | stress_yy | stress_xy">
  1 338.165 -1.99587e-09 0.00000
  2 338.165 -1.99587e-09 0.00000
  3 338.165 -1.99587e-09 0.00000
  4 338.165 -1.99587e-09 0.00000
</Section>

newXOutput 174

<Section columns = "stress_xx | stress_yy | stress_xy">
  1 332.144 -1.94495e-09 0.00000
  2 332.144 -1.94495e-09 0.00000
  3 332.144 -1.94495e-09 0.00000
  4 332.144 -1.94495e-09 0.00000
</Section>

newXOutput 175

<Section columns = "stress_xx | stress_yy | stress_xy">
  1 326.175 -1.89485e-09 0.00000
  2 326.175 -1.89485e-09 0.00000
  3 326.175 -1.89485e-09 0.00000
  4 326.175 -1.89485e-09 0.00000
</Section>

newXOutput 176

<Section columns = "stress_xx | stress_yy | stress_xy">
  1 320.258 -1.84599e-09 0.00000
  2 320.258 -1.84599e-09 0.00000
  3 320.258 -1.84599e-09 0.00000
  4 320.258 -1.84599e-09 0.00000
</Section>

newXOutput 177

<Section columns = "stress_xx | stress_yy | stress_xy">
  1 314.393 -1.79791e-09 0.00000
  2 314.393 -1.79791e-09 0.00000
  3 314.393 -1.79791e-09 0.00000
  4 314.393 -1.79791e-09 0.00000
</Section>

newXOutput 178

<Section columns = "stress_xx | stress_yy | stress_xy">
  1 308.580 -1.75097e-09 0.00000
  2 308.580 -1.75097e-09 0.00000
  3 308.580 -1.75097e-09 0.00000
  4 308.580 -1.75097e-09 0.00000
</Section>

newXOutput 179

<Section columns = "stress_xx | stress_yy | stress_xy">
  1 302.817 -1.70484e-09 0.00000
  2 302.817 -1.70484e-09 0.00000
  3 302.817 -1.70484e-09 0.00000
  4 302.817 -1.70484e-09 0.00000
</Section>

newXOutput 180

<Section columns = "stress_xx | stress_yy | stress_xy">
  1 297.103 -1.65985e-09 0.00000
  2 297.103 -1.65985e-09 0.00000
  3 297.103 -1.65985e-09 0.00000
  4 297.103 -1.65985e-09 0.00000
</Section>

newXOutput 181

<Section columns = "stress_xx | stress_yy | stress_xy">
  1 291.439 -1.61596e-09 0.00000
  2 291.439 -1.61596e-09 0.00000
  3 291.439 -1.61596e-09 0.00000
  4 291.439 -1.61596e-09 0.00000
</Section>

newXOutput 182

<Section columns = "stress_xx | stress_yy | stress_xy">
  1 285.824 -1.57271e-09 0.00000
  2 285.824 -1.57271e-09 0.00000
  3 285.824 -1.57271e-09 0.00000
  4 285.824 -1.57271e-09 0.00000
</Section>

newXOutput 183

<Section columns = "stress_xx | stress_yy | stress_xy">
  1 280.258 -1.53037e-09 0.00000
  2 280.258 -1.53037e-09 0.00000
  3 280.258 -1.53037e-09 0.00000
  4 280.258 -1.53037e-09 0.00000
</Section>

newXOutput 184

<Section columns = "stress_xx | stress_yy | stress_xy">
  1 274.739 -1.48856e-09 0.00000
  2 274.739 -1.48856e-09 0.00000
  3 274.739 -1.48856e-09 0.00000
  4 274.739 -1.48856e-09 0.00000
</Section>

newXOutput 185

<Section columns = "stress_xx | stress_yy | stress_xy">
  1 269.267 -1.44818e-09 0.00000
  2 269.267 -1.44818e-09 0.00000
  3 269.267 -1.44818e-09 0.00000
  4 269.267 -1.44818e-09 0.00000
</Section>

newXOutput 186

<Section columns = "stress_xx | stress_yy | stress_xy">
  1 263.842 -1.40833e-09 0.00000
  2 263.842 -1.40833e-09 0.00000
  3 263.842 -1.40833e-09 0.00000
  4 263.842 -1.40833e-09 0.00000
</Section>

newXOutput 187

<Section columns = "stress_xx | stress_yy | stress_xy">
  1 258.463 -1.36941e-09 0.00000
  2 258.463 -1.36941e-09 0.00000
  3 258.463 -1.36941e-09 0.00000
  4 258.463 -1.36941e-09 0.00000
</Section>

newXOutput 188

<Section columns = "stress_xx | stress_yy | stress_xy">
  1 253.129 -1.33130e-09 0.00000
  2 253.129 -1.33130e-09 0.00000
  3 253.129 -1.33130e-09 0.00000
  4 253.129 -1.33130e-09 0.00000
</Section>

newXOutput 189

<Section columns = "stress_xx | stress_yy | stress_xy">
  1 247.841 -1.29402e-09 0.00000
  2 247.841 -1.29402e-09 0.00000
  3 247.841 -1.29402e-09 0.00000
  4 247.841 -1.29402e-09 0.00000
</Section>

newXOutput 190

<Section columns = "stress_xx | stress_yy | stress_xy">
  1 242.597 -1.25738e-09 0.00000
  2 242.597 -1.25738e-09 0.00000
  3 242.597 -1.25738e-09 0.00000
  4 242.597 -1.25738e-09 0.00000
</Section>

newXOutput 191

<Section columns = "stress_xx | stress_yy | stress_xy">
  1 237.398 -1.22145e-09 0.00000
  2 237.398 -1.22145e-09 0.00000
  3 237.398 -1.22145e-09 0.00000
  4 237.398 -1.22145e-09 0.00000
</Section>

newXOutput 192

<Section columns = "stress_xx | stress_yy | stress_xy">
  1 232.242 -1.18634e-09 0.00000
  2 232.242 -1.18634e-09 0.00000
  3 232.242 -1.18634e-09 0.00000
  4 232.242 -1.18634e-09 0.00000
</Section>

newXOutput 193

<Section columns = "stress_xx | stress_yy | stress_xy">
  1 227.129 -1.15175e-09 0.00000
  2 227.129 -1.15175e-09 0.00000
  3 227.129 -1.15175e-09 0.00000
  4 227.129 -1.15175e-09 0.00000
</Section>

newXOutput 194

<Section columns = "stress_xx | stress_yy | stress_xy">
  1 222.059 -1.11816e-09 0.00000
  2 222.059 -1.11816e-09 0.00000
  3 222.059 -1.11816e-09 0.00000
  4 222.059 -1.11816e-09 0.00000
</Section>

newXOutput 195

<Section columns = "stress_xx | stress_yy | stress_xy">
  1 217.031 -1.08490e-09 0.00000
  2 217.031 -1.08490e-09 0.00000
  3 217.031 -1.08490e-09 0.00000
  4 217.031 -1.08490e-09 0.00000
</Section>

newXOutput 196

<Section columns = "stress_xx | stress_yy | stress_xy">
  1 212.045 -1.05255e-09 0.00000
  2 212.045 -1.05255e-09 0.00000
  3 212.045 -1.05255e-09 0.00000
  4 212.045 -1.05255e-09 0.00000
</Section>

newXOutput 197

<Section columns = "stress_xx | stress_yy | stress_xy">
  1 207.101 -1.02065e-09 0.00000
  2 207.101 -1.02065e-09 0.00000
  3 207.101 -1.02065e-09 0.00000
  4 207.101 -1.02065e-09 0.00000
</Section>

newXOutput 198

<Section columns = "stress_xx | stress_yy | stress_xy">
  1 202.197 -9.89502e-10 0.00000
  2 202.197 -9.89502e-10 0.00000
  3 202.197 -9.89502e-10 0.00000
  4 202.197 -9.89502e-10 0.00000
</Section>

newXOutput 199

<Section columns = "stress_xx | stress_yy | stress_xy">
  1 197.333 -9.58994e-10 0.00000
  2 197.333 -9.58994e-10 0.00000
  3 197.333 -9.58994e-10 0.00000
  4 197.333 -9.58994e-10 0.00000
</Section>

newXOutput 200

<Section columns = "stress_xx | stress_yy | stress_xy">
  1 192.510 -9.29003e-10 0.00000
  2 192.510 -9.29003e-10 0.00000
  3 192.510 -9.29003e-10 0.00000
  4 192.510 -9.29003e-10 0.00000
</Section>

newXOutput 201

<Section columns = "stress_xx | stress_yy | stress_xy">
  1 187.726 -8.99692e-10 0.00000
  2 187.726 -8.99692e-10 0.00000
  3 187.726 -8.99692e-10 0.00000
  4 187.726 -8.99692e-10 0.00000
</Section>

newXOutput 202

<Section columns = "stress_xx | stress_yy | stress_xy">
  1 182.981 -8.70911e-10 0.00000
  2 182.981 -8.70911e-10 0.00000
  3 182.981 -8.70911e-10 0.00000
  4 182.981 -8.70911e-10 0.00000
</Section>

newXOutput 203

<Section columns = "stress_xx | stress_yy | stress_xy">
  1 178.275 -8.42779e-10 0.00000
  2 178.275 -8.42779e-10 0.00000
  3 178.275 -8.42779e-10 0.00000
  4 178.275 -8.42779e-10 0.00000
</Section>

newXOutput 204

<Section columns = "stress_xx | stress_yy | stress_xy">
  1 173.607 -8.14966e-10 0.00000
  2 173.607 -8.14966e-10 0.00000
  3 173.607 -8.14966e-10 0.00000
  4 173.607 -8.14966e-10 0.00000
</Section>

newXOutput 205

<Section columns = "stress_xx | stress_yy | stress_xy">
  1 168.977 -7.87813e-10 0.00000
  2 168.977 -7.87813e-10 0.00000
  3 168.977 -7.87813e-10 0.00000
  4 168.977 -7.87813e-10 0.00000
</Section>

newXOutput 206

<Section columns = "stress_xx | stress_yy | stress_xy">
  1 164.385 -7.61357e-10 0.00000
  2 164.385 -7.61357e-10 0.00000
  3 164.385 -7.61357e-10 0.00000
  4 164.385 -7.61357e-10 0.00000
</Section>

newXOutput 207

<Section columns = "stress_xx | stress_yy | stress_xy">
  1 159.830 -7.35288e-10 0.00000
  2 159.830 -7.35288e-10 0.00000
  3 159.830 -7.35288e-10 0.00000
  4 159.830 -7.35288e-10 0.00000
</Section>

newXOutput 208

<Section columns = "stress_xx | stress_yy | stress_xy">
  1 155.311 -7.09689e-10 0.00000
  2 155.311 -7.09689e-10 0.00000
  3 155.311 -7.09689e-10 0.00000
  4 155.311 -7.09689e-10 0.00000
</Section>

newXOutput 209

<Section columns = "stress_xx | stress_yy | stress_xy">
  1 150.829 -6.84635e-10 0.00000
  2 150.829 -6.84635e-10 0.00000
  3 150.829 -6.84635e-10 0.00000
  4 150.829 -6.84635e-10 0.00000
</Section>

newXOutput 210

<Section columns = "stress_xx | stress_yy | stress_xy">
  1 146.382 -6.60083e-10 0.00000
  2 146.382 -6.60083e-10 0.00000
  3 146.382 -6.60083e-10 0.00000
  4 146.382 -6.60083e-10 0.00000
</Section>

newXOutput 211

<Section columns = "stress_xx | stress_yy | stress_xy">
  1 141.971 -6.35873e-10 0.00000
  2 141.971 -6.35873e-10 0.00000
  3 141.971 -6.35873e-10 0.00000
  4 141.971 -6.35873e-10 0.00000
</Section>

newXOutput 212

<Section columns = "stress_xx | stress_yy | stress_xy">
  1 137.596 -6.12298e-10 0.00000
  2 137.596 -6.12298e-10 0.00000
  3 137.596 -6.12298e-10 0.00000
  4 137.596 -6.12298e-10 0.00000
</Section>

newXOutput 213

<Section columns = "stress_xx | stress_yy | stress_xy">
  1 133.255 -5.89050e-10 0.00000
  2 133.255 -5.89050e-10 0.00000
  3 133.255 -5.89050e-10 0.00000
  4 133.255 -5.89050e-10 0.00000
</Section>

newXOutput 214

<Section columns = "stress_xx | stress_yy | stress_xy">
  1 128.948 -5.66316e-10 0.00000
  2 128.948 -5.66316e-10 0.00000
  3 128.948 -5.66316e-10 0.00000
  4 128.948 -5.66316e-10 0.00000
</Section>

newXOutput 215

<Section columns = "stress_xx | stress_yy | stress_xy">
  1 124.676 -5.44078e-10 0.00000
  2 124.676 -5.44078e-10 0.00000
  3 124.676 -5.44078e-10 0.00000
  4 124.676 -5.44078e-10 0.00000
</Section>

newXOutput 216

<Section columns = "stress_xx | stress_yy | stress_xy">
  1 120.437 -5.22217e-10 0.00000
  2 120.437 -5.22217e-10 0.00000
  3 120.437 -5.22217e-10 0.00000
  4 120.437 -5.22217e-10 0.00000
</Section>

newXOutput 217

<Section columns = "stress_xx | stress_yy | stress_xy">
  1 116.232 -5.00768e-10 0.00000
  2 116.232 -5.00768e-10 0.00000
  3 116.232 -5.00768e-10 0.00000
  4 116.232 -5.00768e-10 0.00000
</Section>

newXOutput 218

<Section columns = "stress_xx | stress_yy | stress_xy">
  1 112.059 -4.79725e-10 0.00000
  2 112.059 -4.79725e-10 0.00000
  3 112.059 -4.79725e-10 0.00000
  4 112.059 -4.79725e-10 0.00000
</Section>

newXOutput 219

<Section columns = "stress_xx | stress_yy | stress_xy">
  1 107.920 -4.59060e-10 0.00000
  2 107.920 -4.59060e-10 0.00000
  3 107.920 -4.59060e-10 0.00000
  4 107.920 -4.59060e-10 0.00000
</Section>

newXOutput 220

<Section columns = "stress_xx | stress_yy | stress_xy">
  1 103.813 -4.38786e-10 0.00000
  2 103.813 -4.38786e-10 0.00000
  3 103.813 -4.38786e-10 0.00000
  4 103.813 -4.38786e-10 0.00000
</Section>

newXOutput 221

<Section columns = "stress_xx | stress_yy | stress_xy">
  1 99.7374 -4.18861e-10 0.00000
  2 99.7374 -4.18861e-10 0.00000
  3 99.7374 -4.18861e-10 0.00000
  4 99.7374 -4.18861e-10 0.00000
</Section>

newXOutput 222

<Section columns = "stress_xx | stress_yy | stress_xy">
  1 95.6939 -3.99314e-10 0.00000
  2 95.6939 -3.99314e-10 0.00000
  3 95.6939 -3.99314e-10 0.00000
  4 95.6939 -3.99314e-10 0.00000
</Section>

newXOutput 223

<Section columns = "stress_xx | stress_yy | stress_xy">
  1 91.6817 -3.80235e-10 0.00000
  2 91.6817 -3.80235e-10 0.00000
  3 91.6817 -3.80235e-10 0.00000
  4 91.6817 -3.80235e-10 0.00000
</Section>

newXOutput 224

<Section columns = "stress_xx | stress_yy | stress_xy">
  1 87.7007 -3.61435e-10 0.00000
  2 87.7007 -3.61435e-10 0.00000
  3 87.7007 -3.61435e-10 0.00000
  4 87.7007 -3.61435e-10 0.00000
</Section>

newXOutput 225

<Section columns = "stress_xx | stress_yy | stress_xy">
  1 83.7503 -3.43035e-10 0.00000
  2 83.7503 -3.43035e-10 0.00000
  3 83.7503 -3.43035e-10 0.00000
  4 83.7503 -3.43035e-10 0.00000
</Section>

newXOutput 226

<Section columns = "stress_xx | stress_yy | stress_xy">
  1 79.8304 -3.24938e-10 0.00000
  2 79.8304 -3.24938e-10 0.00000
  3 79.8304 -3.24938e-10 0.00000
  4 79.8304 -3.24938e-10 0.00000
</Section>

newXOutput 227

<Section columns = "stress_xx | stress_yy | stress_xy">
  1 75.9406 -3.07223e-10 0.00000
  2 75.9406 -3.07223e-10 0.00000
  3 75.9406 -3.07223e-10 0.00000
  4 75.9406 -3.07223e-10 0.00000
</Section>

newXOutput 228

<Section columns = "stress_xx | stress_yy | stress_xy">
  1 72.0806 -2.89813e-10 0.00000
  2 72.0806 -2.89813e-10 0.00000
  3 72.0806 -2.89813e-10 0.00000
  4 72.0806 -2.89813e-10 0.00000
</Section>

newXOutput 229

<Section columns = "stress_xx | stress_yy | stress_xy">
  1 68.2502 -0.000282483 0.00000
  2 68.2502 -0.000282483 0.00000
  3 68.2502 -0.000282483 0.00000
  4 68.2502 -0.000282483 0.00000
</Section>

newXOutput 230

<Section columns = "stress_xx | stress_yy | stress_xy">
  1 64.4489 -0.000265637 0.00000
  2 64.4489 -0.000265637 0.00000
  3 64.4489 -0.000265637 0.00000
  4 64.4489 -0.000265637 0.00000
</Section>

newXOutput 231

<Section columns = "stress_xx | stress_yy | stress_xy">
  1 60.6766 -0.000249252 0.00000
  2 60.6766 -0.000249252 0.00000
  3 60.6766 -0.000249252 0.00000
  4 60.6766 -0.000249252 0.00000
</Section>

newXOutput 232

<Section columns = "stress_xx | stress_yy | stress_xy">
  1 56.9329 -0.000233095 0.00000
  2 56.9329 -0.000233095 0.00000
  3 56.9329 -0.000233095 0.00000
  4 56.9329 -0.000233095 0.00000
</Section>

newXOutput 233

<Section columns = "stress_xx | stress_yy | stress_xy">
  1 53.2176 -0.000217163 0.00000
  2 53.2176 -0.000217163 0.00000
  3 53.2176 -0.000217163 0.00000
  4 53.2176 -0.000217163 0.00000
</Section>

newXOutput 234

<Section columns = "stress_xx | stress_yy | stress_xy">
  1 49.5303 -0.000201451 0.00000
  2 49.5303 -0.000201451 0.00000
  3 49.5303 -0.000201451 0.00000
  4 49.5303 -0.000201451 0.00000
</Section>

newXOutput 235

<Section columns = "stress_xx | stress_yy | stress_xy">
  1 45.8709 -0.000185956 0.00000
  2 45.8709 -0.000185956 0.00000
  3 45.8709 -0.000185956 0.00000
  4 45.8709 -0.000185956 0.00000
</Section>

newXOutput 236

<Section columns = "stress_xx | stress_yy | stress_xy">
  1 42.2389 -0.000170675 0.00000
  2 42.2389 -0.000170675 0.00000
  3 42.2389 -0.000170675 0.00000
  4 42.2389 -0.000170675 0.00000
</Section>

newXOutput 237

<Section columns = "stress_xx | stress_yy | stress_xy">
  1 38.6343 -0.000155603 0.00000
  2 38.6343 -0.000155603 0.00000
  3 38.6343 -0.000155603 0.00000
  4 38.6343 -0.000155603 0.00000
</Section>

newXOutput 238

<Section columns = "stress_xx | stress_yy | stress_xy">
  1 35.0565 -0.000140739 0.00000
  2 35.0565 -0.000140739 0.00000
  3 35.0565 -0.000140739 0.00000
  4 35.0565 -0.000140739 0.00000
</Section>

newXOutput 239

<Section columns = "stress_xx | stress_yy | stress_xy">
  1 31.5055 -0.000126077 0.00000
  2 31.5055 -0.000126077 0.00000
  3 31.5055 -0.000126077 0.00000
  4 31.5055 -0.000126077 0.00000
</Section>

newXOutput 240

<Section columns = "stress_xx | stress_yy | stress_xy">
  1 27.9810 -0.000111616 0.00000
  2 27.9810 -0.000111616 0.00000
  3 27.9810 -0.000111616 0.00000
  4 27.9810 -0.000111616 0.00000
</Section>

newXOutput 241

<Section columns = "stress_xx | stress_yy | stress_xy">
  1 24.4826 -9.73510e-05 0.00000
  2 24.4826 -9.73510e-05 0.00000
  3 24.4826 -9.73510e-05 0.00000
  4 24.4826 -9.73510e-05 0.00000
</Section>

newXOutput 242

<Section columns = "stress_xx | stress_yy | stress_xy">
  1 21.0102 -8.32799e-05 0.00000
  2 21.0102 -8.32799e-05 0.00000
  3 21.0102 -8.32799e-05 0.00000
  4 21.0102 -8.32799e-05 0.00000
</Section>

newXOutput 243

<Section columns = "stress_xx | stress_yy | stress_xy">
  1 17.5635 -6.93993e-05 0.00000
  2 17.5635 -6.93993e-05 0.00000
  3 17.5635 -6.93993e-05 0.00000
  4 17.5635 -6.93993e-05 0.00000
</Section>

newXOutput 244

<Section columns = "stress_xx | stress_yy | stress_xy">
  1 14.1422 -5.57061e-05 0.00000
  2 14.1422 -5.57061e-05 0.00000
  3 14.1422 -5.57061e-05 0.00000
  4 14.1422 -5.57061e-05 0.00000
</Section>

newXOutput 245

<Section columns = "stress_xx | stress_yy | stress_xy">
  1 10.7460 -4.21973e-05 0.00000
  2 10.7460 -4.21973e-05 0.00000
  3 10.7460 -4.21973e-05 0.00000
  4 10.7460 -4.21973e-05 0.00000
</Section>

newXOutput 246

<Section columns = "stress_xx | stress_yy | stress_xy">
  1 7.37488 -2.88700e-05 0.00000
  2 7.37488 -2.88700e-05 0.00000
  3 7.37488 -2.88700e-05 0.00000
  4 7.37488 -2.88700e-05 0.00000
</Section>

newXOutput 247

<Section columns = "stress_xx | stress_yy | stress_xy">
  1 4.02841 -1.57214e-05 0.00000
  2 4.02841 -1.57214e-05 0.00000
  3 4.02841 -1.57214e-05 0.00000
  4 4.02841 -1.57214e-05 0.00000
</Section>

newXOutput 248

<Section columns = "stress_xx | stress_yy | stress_xy">
  1 0.706415 -2.74846e-06 0.00000
  2 0.706415 -2.74846e-06 0.00000
  3 0.706415 -2.74846e-06 0.00000
  4 0.706415 -2.74846e-06 0.00000
</Section>

newXOutput 249

<Section columns = "stress_xx | stress_yy | stress_xy">
  1 0.00000 0.00000 0.00000
  2 0.00000 0.00000 0.00000
  3 0.00000 0.00000 0.00000
  4 0.00000 0.00000 0.00000
</Section>

newXOutput 250

<Section columns = "stress_xx | stress_yy | stress_xy">
  1 0.00000 0.00000 0.00000
  2 0.00000 0.00000 0.00000
  3 0.00000 0.00000 0.00000
  4 0.00000 0.00000 0.00000
</Section>

newXOutput 251

<Section columns = "stress_xx | stress_yy | stress_xy">
  1 0.00000 0.00000 0.00000
  2 0.00000 0.00000 0.00000
  3 0.00000 0.00000 0.00000
  4 0.00000 0.00000 0.00000
</Section>

newXOutput 252

<Section columns = "stress_xx | stress_yy | stress_xy">
  1 0.00000 0.00000 0.00000
  2 0.00000 0.00000 0.00000
  3 0.00000 0.00000 0.00000
  4 0.00000 0.00000 0.00000
</Section>

newXOutput 253

<Section columns = "stress_xx | stress_yy | stress_xy">
  1 0.00000 0.00000 0.00000
  2 0.00000 0.00000 0.00000
  3 0.00000 0.00000 0.00000
  4 0.00000 0.00000 0.00000
</Section>

newXOutput 254

<Section columns = "stress_xx | stress_yy | stress_xy">
  1 0.00000 0.00000 0.00000
  2 0.00000 0.00000 0.00000
  3 0.00000 0.00000 0.00000
  4 0.00000 0.00000 0.00000
</Section>

newXOutput 255

<Section columns = "stress_xx | stress_yy | stress_xy">
  1 0.00000 0.00000 0.00000
  2 0.00000 0.00000 0.00000
  3 0.00000 0.00000 0.00000
  4 0.00000 0.00000 0.00000
</Section>

newXOutput 256

<Section columns = "stress_xx | stress_yy | stress_xy">
  1 0.00000 0.00000 0.00000
  2 0.00000 0.00000 0.00000
  3 0.00000 0.00000 0.00000
  4 0.00000 0.00000 0.00000
</Section>

newXOutput 257

<Section columns = "stress_xx | stress_yy | stress_xy">
  1 0.00000 0.00000 0.00000
  2 0.00000 0.00000 0.00000
  3 0.00000 0.00000 0.00000
  4 0.00000 0.00000 0.00000
</Section>

newXOutput 258

<Section columns = "stress_xx | stress_yy | stress_xy">
  1 0.00000 0.00000 0.00000
  2 0.00000 0.00000 0.00000
  3 0.00000 0.00000 0.00000
  4 0.00000 0.00000 0.00000
</Section>

newXOutput 259

<Section columns = "stress_xx | stress_yy | stress_xy">
  1 0.00000 0.00000 0.00000
  2 0.00000 0.00000 0.00000
  3 0.00000 0.00000 0.00000
  4 0.00000 0.00000 0.00000
</Section>

newXOutput 260

<Section columns = "stress_xx | stress_yy | stress_xy">
  1 0.00000 0.00000 0.00000
  2 0.00000 0.00000 0.00000
  3 0.00000 0.00000 0.00000
  4 0.00000 0.00000 0.00000
</Section>

newXOutput 261

<Section columns = "stress_xx | stress_yy | stress_xy">
  1 0.00000 0.00000 0.00000
  2 0.00000 0.00000 0.00000
  3 0.00000 0.00000 0.00000
  4 0.00000 0.00000 0.00000
</Section>

newXOutput 262

<Section columns = "stress_xx | stress_yy | stress_xy">
  1 0.00000 0.00000 0.00000
  2 0.00000 0.00000 0.00000
  3 0.00000 0.00000 0.00000
  4 0.00000 0.00000 0.00000
</Section>

newXOutput 263

<Section columns = "stress_xx | stress_yy | stress_xy">
  1 0.00000 0.00000 0.00000
  2 0.00000 0.00000 0.00000
  3 0.00000 0.00000 0.00000
  4 0.00000 0.00000 0.00000
</Section>

newXOutput 264

<Section columns = "stress_xx | stress_yy | stress_xy">
  1 0.00000 0.00000 0.00000
  2 0.00000 0.00000 0.00000
  3 0.00000 0.00000 0.00000
  4 0.00000 0.00000 0.00000
</Section>

newXOutput 265

<Section columns = "stress_xx | stress_yy | stress_xy">
  1 0.00000 0.00000 0.00000
  2 0.00000 0.00000 0.00000
  3 0.00000 0.00000 0.00000
  4 0.00000 0.00000 0.00000
</Section>

newXOutput 266

<Section columns = "stress_xx | stress_yy | stress_xy">
  1 0.00000 0.00000 0.00000
  2 0.00000 0.00000 0.00000
  3 0.00000 0.00000 0.00000
  4 0.00000 0.00000 0.00000
</Section>

newXOutput 267

<Section columns = "stress_xx | stress_yy | stress_xy">
  1 0.00000 0.00000 0.00000
  2 0.00000 0.00000 0.00000
  3 0.00000 0.00000 0.00000
  4 0.00000 0.00000 0.00000
</Section>

newXOutput 268

<Section columns = "stress_xx | stress_yy | stress_xy">
  1 0.00000 0.00000 0.00000
  2 0.00000 0.00000 0.00000
  3 0.00000 0.00000 0.00000
  4 0.00000 0.00000 0.00000
</Section>

newXOutput 269

<Section columns = "stress_xx | stress_yy | stress_xy">
  1 0.00000 0.00000 0.00000
  2 0.00000 0.00000 0.00000
  3 0.00000 0.00000 0.00000
  4 0.00000 0.00000 0.00000
</Section>

newXOutput 270

<Section columns = "stress_xx | stress_yy | stress_xy">
  1 0.00000 0.00000 0.00000
  2 0.00000 0.00000 0.00000
  3 0.00000 0.00000 0.00000
  4 0.00000 0.00000 0.00000
</Section>

newXOutput 271

<Section columns = "stress_xx | stress_yy | stress_xy">
  1 0.00000 0.00000 0.00000
  2 0.00000 0.00000 0.00000
  3 0.00000 0.00000 0.00000
  4 0.00000 0.00000 0.00000
</Section>

newXOutput 272

<Section columns = "stress_xx | stress_yy | stress_xy">
  1 0.00000 0.00000 0.00000
  2 0.00000 0.00000 0.00000
  3 0.00000 0.00000 0.00000
  4 0.00000 0.00000 0.00000
</Section>

newXOutput 273

<Section columns = "stress_xx | stress_yy | stress_xy">
  1 0.00000 0.00000 0.00000
  2 0.00000 0.00000 0.00000
  3 0.00000 0.00000 0.00000
  4 0.00000 0.00000 0.00000
</Section>

newXOutput 274

<Section columns = "stress_xx | stress_yy | stress_xy">
  1 0.00000 0.00000 0.00000
  2 0.00000 0.00000 0.00000
  3 0.00000 0.00000 0.00000
  4 0.00000 0.00000 0.00000
</Section>

newXOutput 275

<Section columns = "stress_xx | stress_yy | stress_xy">
  1 0.00000 0.00000 0.00000
  2 0.00000 0.00000 0.00000
  3 0.00000 0.00000 0.00000
  4 0.00000 0.00000 0.00000
</Section>

newXOutput 276

<Section columns = "stress_xx | stress_yy | stress_xy">
  1 0.00000 0.00000 0.00000
  2 0.00000 0.00000 0.00000
  3 0.00000 0.00000 0.00000
  4 0.00000 0.00000 0.00000
</Section>

newXOutput 277

<Section columns = "stress_xx | stress_yy | stress_xy">
  1 0.00000 0.00000 0.00000
  2 0.00000 0.00000 0.00000
  3 0.00000 0.00000 0.00000
  4 0.00000 0.00000 0.00000
</Section>

newXOutput 278

<Section columns = "stress_xx | stress_yy | stress_xy">
  1 0.00000 0.00000 0.00000
  2 0.00000 0.00000 0.00000
  3 0.00000 0.00000 0.00000
  4 0.00000 0.00000 0.00000
</Section>

newXOutput 279

<Section columns = "stress_xx | stress_yy | stress_xy">
  1 0.00000 0.00000 0.00000
  2 0.00000 0.00000 0.00000
  3 0.00000 0.00000 0.00000
  4 0.00000 0.00000 0.00000
</Section>

newXOutput 280

<Section columns = "stress_xx | stress_yy | stress_xy">
  1 0.00000 0.00000 0.00000
  2 0.00000 0.00000 0.00000
  3 0.00000 0.00000 0.00000
  4 0.00000 0.00000 0.00000
</Section>

newXOutput 281

<Section columns = "stress_xx | stress_yy | stress_xy">
  1 0.00000 0.00000 0.00000
  2 0.00000 0.00000 0.00000
  3 0.00000 0.00000 0.00000
  4 0.00000 0.00000 0.00000
</Section>

newXOutput 282

<Section columns = "stress_xx | stress_yy | stress_xy">
  1 0.00000 0.00000 0.00000
  2 0.00000 0.00000 0.00000
  3 0.00000 0.00000 0.00000
  4 0.00000 0.00000 0.00000
</Section>

newXOutput 283

<Section columns = "stress_xx | stress_yy | stress_xy">
  1 0.00000 0.00000 0.00000
  2 0.00000 0.00000 0.00000
  3 0.00000 0.00000 0.00000
  4 0.00000 0.00000 0.00000
</Section>

newXOutput 284

<Section columns = "stress_xx | stress_yy | stress_xy">
  1 0.00000 0.00000 0.00000
  2 0.00000 0.00000 0.00000
  3 0.00000 0.00000 0.00000
  4 0.00000 0.00000 0.00000
</Section>

newXOutput 285

<Section columns = "stress_xx | stress_yy | stress_xy">
  1 0.00000 0.00000 0.00000
  2 0.00000 0.00000 0.00000
  3 0.00000 0.00000 0.00000
  4 0.00000 0.00000 0.00000
</Section>

newXOutput 286

<Section columns = "stress_xx | stress_yy | stress_xy">
  1 0.00000 0.00000 0.00000
  2 0.00000 0.00000 0.00000
  3 0.00000 0.00000 0.00000
  4 0.00000 0.00000 0.00000
</Section>

newXOutput 287

<Section columns = "stress_xx | stress_yy | stress_xy">
  1 0.00000 0.00000 0.00000
  2 0.00000 0.00000 0.00000
  3 0.00000 0.00000 0.00000
  4 0.00000 0.00000 0.00000
</Section>

newXOutput 288

<Section columns = "stress_xx | stress_yy | stress_xy">
  1 0.00000 0.00000 0.00000
  2 0.00000 0.00000 0.00000
  3 0.00000 0.00000 0.00000
  4 0.00000 0.00000 0.00000
</Section>

newXOutput 289

<Section columns = "stress_xx | stress_yy | stress_xy">
  1 0.00000 0.00000 0.00000
  2 0.00000 0.00000 0.00000
  3 0.00000 0.00000 0.00000
  4 0.00000 0.00000 0.00000
</Section>

newXOutput 290

<Section columns = "stress_xx | stress_yy | stress_xy">
  1 0.00000 0.00000 0.00000
  2 0.00000 0.00000 0.00000
  3 0.00000 0.00000 0.00000
  4 0.00000 0.00000 0.00000
</Section>

newXOutput 291

<Section columns = "stress_xx | stress_yy | stress_xy">
  1 0.00000 0.00000 0.00000
  2 0.00000 0.00000 0.00000
  3 0.00000 0.00000 0.00000
  4 0.00000 0.00000 0.00000
</Section>

newXOutput 292

<Section columns = "stress_xx | stress_yy | stress_xy">
  1 0.00000 0.00000 0.00000
  2 0.00000 0.00000 0.00000
  3 0.00000 0.00000 0.00000
  4 0.00000 0.00000 0.00000
</Section>

newXOutput 293

<Section columns = "stress_xx | stress_yy | stress_xy">
  1 0.00000 0.00000 0.00000
  2 0.00000 0.00000 0.00000
  3 0.00000 0.00000 0.00000
  4 0.00000 0.00000 0.00000
</Section>

newXOutput 294

<Section columns = "stress_xx | stress_yy | stress_xy">
  1 0.00000 0.00000 0.00000
  2 0.00000 0.00000 0.00000
  3 0.00000 0.00000 0.00000
  4 0.00000 0.00000 0.00000
</Section>

newXOutput 295

<Section columns = "stress_xx | stress_yy | stress_xy">
  1 0.00000 0.00000 0.00000
  2 0.00000 0.00000 0.00000
  3 0.00000 0.00000 0.00000
  4 0.00000 0.00000 0.00000
</Section>

newXOutput 296

<Section columns = "stress_xx | stress_yy | stress_xy">
  1 0.00000 0.00000 0.00000
  2 0.00000 0.00000 0.00000
  3 0.00000 0.00000 0.00000
  4 0.00000 0.00000 0.00000
</Section>

newXOutput 297

<Section columns = "stress_xx | stress_yy | stress_xy">
  1 0.00000 0.00000 0.00000
  2 0.00000 0.00000 0.00000
  3 0.00000 0.00000 0.00000
  4 0.00000 0.00000 0.00000
</Section>

newXOutput 298

<Section columns = "stress_xx | stress_yy | stress_xy">
  1 0.00000 0.00000 0.00000
  2 0.00000 0.00000 0.00000
  3 0.00000 0.00000 0.00000
  4 0.00000 0.00000 0.00000
</Section>

newXOutput 299

<Section columns = "stress_xx | stress_yy | stress_xy">
  1 0.00000 0.00000 0.00000
  2 0.00000 0.00000 0.00000
  3 0.00000 0.00000 0.00000
  4 0.00000 0.00000 0.00000
</Section>

newXOutput 300

<Section columns = "stress_xx | stress_yy | stress_xy">
  1 0.00000 0.00000 0.00000
  2 0.00000 0.00000 0.00000
  3 0.00000 0.00000 0.00000
  4 0.00000 0.00000 0.00000
</Section>

newXOutput 301

<Section columns = "stress_xx | stress_yy | stress_xy">
  1 0.00000 0.00000 0.00000
  2 0.00000 0.00000 0.00000
  3 0.00000 0.00000 0.00000
  4 0.00000 0.00000 0.00000
</Section>

newXOutput 302

<Section columns = "stress_xx | stress_yy | stress_xy">
  1 0.00000 0.00000 0.00000
  2 0.00000 0.00000 0.00000
  3 0.00000 0.00000 0.00000
  4 0.00000 0.00000 0.00000
</Section>

