newXOutput 1

<Section columns = "stress_xx | stress_yy | stress_xy">
  1 0.00000 0.00000 0.00000
  2 0.00000 0.00000 0.00000
  3 0.00000 0.00000 0.00000
  4 0.00000 0.00000 0.00000
  5 0.00000 0.00000 0.00000
  6 0.00000 0.00000 0.00000
  7 0.00000 0.00000 0.00000
  8 0.00000 0.00000 0.00000
  9 0.00000 0.00000 0.00000
  10 0.00000 0.00000 0.00000
  11 0.00000 0.00000 0.00000
  12 0.00000 0.00000 0.00000
  13 0.00000 0.00000 0.00000
  14 0.00000 0.00000 0.00000
  15 0.00000 0.00000 0.00000
  16 0.00000 0.00000 0.00000
  17 0.00000 0.00000 0.00000
  18 0.00000 0.00000 0.00000
  19 0.00000 0.00000 0.00000
  20 0.00000 0.00000 0.00000
  21 0.00000 0.00000 0.00000
  22 0.00000 0.00000 0.00000
  23 0.00000 0.00000 0.00000
  24 0.00000 0.00000 0.00000
  25 0.00000 0.00000 0.00000
  26 0.00000 0.00000 0.00000
  27 0.00000 0.00000 0.00000
  28 0.00000 0.00000 0.00000
  29 0.00000 0.00000 0.00000
  30 0.00000 0.00000 0.00000
  31 0.00000 0.00000 0.00000
  32 0.00000 0.00000 0.00000
  33 0.00000 0.00000 0.00000
  34 0.00000 0.00000 0.00000
  35 0.00000 0.00000 0.00000
  36 0.00000 0.00000 0.00000
  37 0.00000 0.00000 0.00000
  38 0.00000 0.00000 0.00000
  39 0.00000 0.00000 0.00000
  40 0.00000 0.00000 0.00000
  41 0.00000 0.00000 0.00000
  42 0.00000 0.00000 0.00000
  43 0.00000 0.00000 0.00000
  44 0.00000 0.00000 0.00000
  45 0.00000 0.00000 0.00000
  46 0.00000 0.00000 0.00000
  47 0.00000 0.00000 0.00000
  48 0.00000 0.00000 0.00000
  49 0.00000 0.00000 0.00000
  50 0.00000 0.00000 0.00000
  51 0.00000 0.00000 0.00000
  52 0.00000 0.00000 0.00000
  53 0.00000 0.00000 0.00000
  54 0.00000 0.00000 0.00000
  55 0.00000 0.00000 0.00000
  56 0.00000 0.00000 0.00000
  57 0.00000 0.00000 0.00000
  58 0.00000 0.00000 0.00000
  59 0.00000 0.00000 0.00000
  60 0.00000 0.00000 0.00000
  61 0.00000 0.00000 0.00000
  62 0.00000 0.00000 0.00000
  63 0.00000 0.00000 0.00000
  64 0.00000 0.00000 0.00000
  65 0.00000 0.00000 0.00000
  66 0.00000 0.00000 0.00000
  67 0.00000 0.00000 0.00000
  68 0.00000 0.00000 0.00000
  69 0.00000 0.00000 0.00000
  70 0.00000 0.00000 0.00000
  71 0.00000 0.00000 0.00000
  72 0.00000 0.00000 0.00000
  73 0.00000 0.00000 0.00000
  74 0.00000 0.00000 0.00000
  75 0.00000 0.00000 0.00000
  76 0.00000 0.00000 0.00000
  77 0.00000 0.00000 0.00000
  78 0.00000 0.00000 0.00000
  79 0.00000 0.00000 0.00000
  80 0.00000 0.00000 0.00000
  81 0.00000 0.00000 0.00000
  82 0.00000 0.00000 0.00000
  83 0.00000 0.00000 0.00000
  84 0.00000 0.00000 0.00000
  85 0.00000 0.00000 0.00000
  86 0.00000 0.00000 0.00000
  87 0.00000 0.00000 0.00000
  88 0.00000 0.00000 0.00000
  89 0.00000 0.00000 0.00000
  90 0.00000 0.00000 0.00000
  91 0.00000 0.00000 0.00000
  92 0.00000 0.00000 0.00000
  93 0.00000 0.00000 0.00000
  94 0.00000 0.00000 0.00000
  95 0.00000 0.00000 0.00000
  96 0.00000 0.00000 0.00000
  97 0.00000 0.00000 0.00000
  98 0.00000 0.00000 0.00000
  99 0.00000 0.00000 0.00000
  100 0.00000 0.00000 0.00000
  101 0.00000 0.00000 0.00000
  102 0.00000 0.00000 0.00000
  103 0.00000 0.00000 0.00000
  104 0.00000 0.00000 0.00000
  105 0.00000 0.00000 0.00000
  106 0.00000 0.00000 0.00000
  107 0.00000 0.00000 0.00000
  108 0.00000 0.00000 0.00000
  109 0.00000 0.00000 0.00000
  110 0.00000 0.00000 0.00000
  111 0.00000 0.00000 0.00000
  112 0.00000 0.00000 0.00000
  113 0.00000 0.00000 0.00000
  114 0.00000 0.00000 0.00000
  115 0.00000 0.00000 0.00000
  116 0.00000 0.00000 0.00000
  117 0.00000 0.00000 0.00000
  118 0.00000 0.00000 0.00000
  119 0.00000 0.00000 0.00000
  120 0.00000 0.00000 0.00000
  121 0.00000 0.00000 0.00000
  122 0.00000 0.00000 0.00000
  123 0.00000 0.00000 0.00000
  124 0.00000 0.00000 0.00000
  125 0.00000 0.00000 0.00000
  126 0.00000 0.00000 0.00000
  127 0.00000 0.00000 0.00000
  128 0.00000 0.00000 0.00000
  129 0.00000 0.00000 0.00000
  130 0.00000 0.00000 0.00000
  131 0.00000 0.00000 0.00000
  132 0.00000 0.00000 0.00000
  133 0.00000 0.00000 0.00000
  134 0.00000 0.00000 0.00000
  135 0.00000 0.00000 0.00000
  136 0.00000 0.00000 0.00000
  137 0.00000 0.00000 0.00000
  138 0.00000 0.00000 0.00000
  139 0.00000 0.00000 0.00000
  140 0.00000 0.00000 0.00000
  141 0.00000 0.00000 0.00000
  142 0.00000 0.00000 0.00000
  143 0.00000 0.00000 0.00000
  144 0.00000 0.00000 0.00000
  145 0.00000 0.00000 0.00000
  146 0.00000 0.00000 0.00000
  147 0.00000 0.00000 0.00000
  148 0.00000 0.00000 0.00000
  149 0.00000 0.00000 0.00000
  150 0.00000 0.00000 0.00000
  151 0.00000 0.00000 0.00000
  152 0.00000 0.00000 0.00000
  153 0.00000 0.00000 0.00000
  154 0.00000 0.00000 0.00000
  155 0.00000 0.00000 0.00000
  156 0.00000 0.00000 0.00000
  157 0.00000 0.00000 0.00000
  158 0.00000 0.00000 0.00000
  159 0.00000 0.00000 0.00000
  160 0.00000 0.00000 0.00000
  161 0.00000 0.00000 0.00000
  162 0.00000 0.00000 0.00000
  163 0.00000 0.00000 0.00000
  164 0.00000 0.00000 0.00000
  165 0.00000 0.00000 0.00000
  166 0.00000 0.00000 0.00000
  167 0.00000 0.00000 0.00000
  168 0.00000 0.00000 0.00000
  169 0.00000 0.00000 0.00000
  170 0.00000 0.00000 0.00000
  171 0.00000 0.00000 0.00000
  172 0.00000 0.00000 0.00000
  173 0.00000 0.00000 0.00000
  174 0.00000 0.00000 0.00000
  175 0.00000 0.00000 0.00000
  176 0.00000 0.00000 0.00000
  177 0.00000 0.00000 0.00000
  178 0.00000 0.00000 0.00000
  179 0.00000 0.00000 0.00000
  180 0.00000 0.00000 0.00000
  181 0.00000 0.00000 0.00000
  182 0.00000 0.00000 0.00000
  183 0.00000 0.00000 0.00000
  184 0.00000 0.00000 0.00000
  185 0.00000 0.00000 0.00000
  186 0.00000 0.00000 0.00000
  187 0.00000 0.00000 0.00000
  188 0.00000 0.00000 0.00000
  189 0.00000 0.00000 0.00000
  190 0.00000 0.00000 0.00000
  191 0.00000 0.00000 0.00000
  192 0.00000 0.00000 0.00000
  193 0.00000 0.00000 0.00000
  194 0.00000 0.00000 0.00000
  195 0.00000 0.00000 0.00000
  196 0.00000 0.00000 0.00000
  197 0.00000 0.00000 0.00000
  198 0.00000 0.00000 0.00000
  199 0.00000 0.00000 0.00000
  200 0.00000 0.00000 0.00000
  201 0.00000 0.00000 0.00000
  202 0.00000 0.00000 0.00000
  203 0.00000 0.00000 0.00000
  204 0.00000 0.00000 0.00000
  205 0.00000 0.00000 0.00000
  206 0.00000 0.00000 0.00000
  207 0.00000 0.00000 0.00000
  208 0.00000 0.00000 0.00000
  209 0.00000 0.00000 0.00000
  210 0.00000 0.00000 0.00000
  211 0.00000 0.00000 0.00000
  212 0.00000 0.00000 0.00000
  213 0.00000 0.00000 0.00000
  214 0.00000 0.00000 0.00000
  215 0.00000 0.00000 0.00000
  216 0.00000 0.00000 0.00000
  217 0.00000 0.00000 0.00000
  218 0.00000 0.00000 0.00000
  219 0.00000 0.00000 0.00000
  220 0.00000 0.00000 0.00000
  221 0.00000 0.00000 0.00000
  222 0.00000 0.00000 0.00000
  223 0.00000 0.00000 0.00000
  224 0.00000 0.00000 0.00000
  225 0.00000 0.00000 0.00000
  226 0.00000 0.00000 0.00000
  227 0.00000 0.00000 0.00000
  228 0.00000 0.00000 0.00000
  229 0.00000 0.00000 0.00000
  230 0.00000 0.00000 0.00000
  231 0.00000 0.00000 0.00000
  232 0.00000 0.00000 0.00000
  233 0.00000 0.00000 0.00000
  234 0.00000 0.00000 0.00000
  235 0.00000 0.00000 0.00000
  236 0.00000 0.00000 0.00000
  237 0.00000 0.00000 0.00000
  238 0.00000 0.00000 0.00000
  239 0.00000 0.00000 0.00000
  240 0.00000 0.00000 0.00000
  241 0.00000 0.00000 0.00000
  242 0.00000 0.00000 0.00000
  243 0.00000 0.00000 0.00000
  244 0.00000 0.00000 0.00000
  245 0.00000 0.00000 0.00000
  246 0.00000 0.00000 0.00000
  247 0.00000 0.00000 0.00000
  248 0.00000 0.00000 0.00000
  249 0.00000 0.00000 0.00000
  250 0.00000 0.00000 0.00000
  251 0.00000 0.00000 0.00000
  252 0.00000 0.00000 0.00000
  253 0.00000 0.00000 0.00000
  254 0.00000 0.00000 0.00000
  255 0.00000 0.00000 0.00000
  256 0.00000 0.00000 0.00000
  257 0.00000 0.00000 0.00000
  258 0.00000 0.00000 0.00000
  259 0.00000 0.00000 0.00000
  260 0.00000 0.00000 0.00000
  261 0.00000 0.00000 0.00000
  262 0.00000 0.00000 0.00000
  263 0.00000 0.00000 0.00000
  264 0.00000 0.00000 0.00000
  265 0.00000 0.00000 0.00000
  266 0.00000 0.00000 0.00000
  267 0.00000 0.00000 0.00000
  268 0.00000 0.00000 0.00000
  269 0.00000 0.00000 0.00000
  270 0.00000 0.00000 0.00000
  271 0.00000 0.00000 0.00000
  272 0.00000 0.00000 0.00000
  273 0.00000 0.00000 0.00000
  274 0.00000 0.00000 0.00000
  275 0.00000 0.00000 0.00000
  276 0.00000 0.00000 0.00000
  277 0.00000 0.00000 0.00000
  278 0.00000 0.00000 0.00000
  279 0.00000 0.00000 0.00000
  280 0.00000 0.00000 0.00000
  281 0.00000 0.00000 0.00000
  282 0.00000 0.00000 0.00000
  283 0.00000 0.00000 0.00000
  284 0.00000 0.00000 0.00000
  285 0.00000 0.00000 0.00000
  286 0.00000 0.00000 0.00000
  287 0.00000 0.00000 0.00000
  288 0.00000 0.00000 0.00000
  289 0.00000 0.00000 0.00000
  290 0.00000 0.00000 0.00000
  291 0.00000 0.00000 0.00000
  292 0.00000 0.00000 0.00000
  293 0.00000 0.00000 0.00000
  294 0.00000 0.00000 0.00000
  295 0.00000 0.00000 0.00000
  296 0.00000 0.00000 0.00000
  297 0.00000 0.00000 0.00000
  298 0.00000 0.00000 0.00000
  299 0.00000 0.00000 0.00000
  300 0.00000 0.00000 0.00000
  301 0.00000 0.00000 0.00000
  302 0.00000 0.00000 0.00000
  303 0.00000 0.00000 0.00000
  304 0.00000 0.00000 0.00000
  305 0.00000 0.00000 0.00000
  306 0.00000 0.00000 0.00000
  307 0.00000 0.00000 0.00000
  308 0.00000 0.00000 0.00000
  309 0.00000 0.00000 0.00000
  310 0.00000 0.00000 0.00000
  311 0.00000 0.00000 0.00000
  312 0.00000 0.00000 0.00000
  313 0.00000 0.00000 0.00000
  314 0.00000 0.00000 0.00000
  315 0.00000 0.00000 0.00000
  316 0.00000 0.00000 0.00000
  317 0.00000 0.00000 0.00000
  318 0.00000 0.00000 0.00000
  319 0.00000 0.00000 0.00000
  320 0.00000 0.00000 0.00000
  321 0.00000 0.00000 0.00000
  322 0.00000 0.00000 0.00000
  323 0.00000 0.00000 0.00000
  324 0.00000 0.00000 0.00000
  325 0.00000 0.00000 0.00000
  326 0.00000 0.00000 0.00000
  327 0.00000 0.00000 0.00000
  328 0.00000 0.00000 0.00000
  329 0.00000 0.00000 0.00000
  330 0.00000 0.00000 0.00000
  331 0.00000 0.00000 0.00000
  332 0.00000 0.00000 0.00000
  333 0.00000 0.00000 0.00000
  334 0.00000 0.00000 0.00000
  335 0.00000 0.00000 0.00000
  336 0.00000 0.00000 0.00000
  337 0.00000 0.00000 0.00000
  338 0.00000 0.00000 0.00000
  339 0.00000 0.00000 0.00000
  340 0.00000 0.00000 0.00000
  341 0.00000 0.00000 0.00000
  342 0.00000 0.00000 0.00000
  343 0.00000 0.00000 0.00000
  344 0.00000 0.00000 0.00000
  345 0.00000 0.00000 0.00000
  346 0.00000 0.00000 0.00000
  347 0.00000 0.00000 0.00000
  348 0.00000 0.00000 0.00000
  349 0.00000 0.00000 0.00000
  350 0.00000 0.00000 0.00000
  351 0.00000 0.00000 0.00000
  352 0.00000 0.00000 0.00000
  353 0.00000 0.00000 0.00000
  354 0.00000 0.00000 0.00000
  355 0.00000 0.00000 0.00000
  356 0.00000 0.00000 0.00000
  357 0.00000 0.00000 0.00000
  358 0.00000 0.00000 0.00000
  359 0.00000 0.00000 0.00000
  360 0.00000 0.00000 0.00000
  361 0.00000 0.00000 0.00000
  362 0.00000 0.00000 0.00000
  363 0.00000 0.00000 0.00000
  364 0.00000 0.00000 0.00000
  365 0.00000 0.00000 0.00000
  366 0.00000 0.00000 0.00000
  367 0.00000 0.00000 0.00000
  368 0.00000 0.00000 0.00000
  369 0.00000 0.00000 0.00000
  370 0.00000 0.00000 0.00000
  371 0.00000 0.00000 0.00000
  372 0.00000 0.00000 0.00000
  373 0.00000 0.00000 0.00000
  374 0.00000 0.00000 0.00000
  375 0.00000 0.00000 0.00000
  376 0.00000 0.00000 0.00000
  377 0.00000 0.00000 0.00000
  378 0.00000 0.00000 0.00000
  379 0.00000 0.00000 0.00000
  380 0.00000 0.00000 0.00000
  381 0.00000 0.00000 0.00000
  382 0.00000 0.00000 0.00000
  383 0.00000 0.00000 0.00000
  384 0.00000 0.00000 0.00000
  385 0.00000 0.00000 0.00000
  386 0.00000 0.00000 0.00000
  387 0.00000 0.00000 0.00000
  388 0.00000 0.00000 0.00000
  389 0.00000 0.00000 0.00000
  390 0.00000 0.00000 0.00000
  391 0.00000 0.00000 0.00000
  392 0.00000 0.00000 0.00000
  393 0.00000 0.00000 0.00000
  394 0.00000 0.00000 0.00000
  395 0.00000 0.00000 0.00000
  396 0.00000 0.00000 0.00000
  397 0.00000 0.00000 0.00000
  398 0.00000 0.00000 0.00000
  399 0.00000 0.00000 0.00000
  400 0.00000 0.00000 0.00000
  401 0.00000 0.00000 0.00000
  402 0.00000 0.00000 0.00000
  403 0.00000 0.00000 0.00000
  404 0.00000 0.00000 0.00000
  405 0.00000 0.00000 0.00000
  406 0.00000 0.00000 0.00000
  407 0.00000 0.00000 0.00000
  408 0.00000 0.00000 0.00000
  409 0.00000 0.00000 0.00000
  410 0.00000 0.00000 0.00000
  411 0.00000 0.00000 0.00000
  412 0.00000 0.00000 0.00000
  413 0.00000 0.00000 0.00000
  414 0.00000 0.00000 0.00000
  415 0.00000 0.00000 0.00000
  416 0.00000 0.00000 0.00000
  417 0.00000 0.00000 0.00000
  418 0.00000 0.00000 0.00000
  419 0.00000 0.00000 0.00000
  420 0.00000 0.00000 0.00000
  421 0.00000 0.00000 0.00000
  422 0.00000 0.00000 0.00000
  423 0.00000 0.00000 0.00000
  424 0.00000 0.00000 0.00000
  425 0.00000 0.00000 0.00000
  426 0.00000 0.00000 0.00000
  427 0.00000 0.00000 0.00000
  428 0.00000 0.00000 0.00000
  429 0.00000 0.00000 0.00000
  430 0.00000 0.00000 0.00000
  431 0.00000 0.00000 0.00000
  432 0.00000 0.00000 0.00000
  433 0.00000 0.00000 0.00000
  434 0.00000 0.00000 0.00000
  435 0.00000 0.00000 0.00000
  436 0.00000 0.00000 0.00000
  437 0.00000 0.00000 0.00000
  438 0.00000 0.00000 0.00000
  439 0.00000 0.00000 0.00000
  440 0.00000 0.00000 0.00000
  441 0.00000 0.00000 0.00000
  442 0.00000 0.00000 0.00000
  443 0.00000 0.00000 0.00000
  444 0.00000 0.00000 0.00000
  445 0.00000 0.00000 0.00000
  446 0.00000 0.00000 0.00000
  447 0.00000 0.00000 0.00000
  448 0.00000 0.00000 0.00000
  449 0.00000 0.00000 0.00000
  450 0.00000 0.00000 0.00000
  451 0.00000 0.00000 0.00000
  452 0.00000 0.00000 0.00000
  453 0.00000 0.00000 0.00000
  454 0.00000 0.00000 0.00000
  455 0.00000 0.00000 0.00000
  456 0.00000 0.00000 0.00000
  457 0.00000 0.00000 0.00000
  458 0.00000 0.00000 0.00000
  459 0.00000 0.00000 0.00000
  460 0.00000 0.00000 0.00000
  461 0.00000 0.00000 0.00000
  462 0.00000 0.00000 0.00000
  463 0.00000 0.00000 0.00000
  464 0.00000 0.00000 0.00000
  465 0.00000 0.00000 0.00000
  466 0.00000 0.00000 0.00000
  467 0.00000 0.00000 0.00000
  468 0.00000 0.00000 0.00000
  469 0.00000 0.00000 0.00000
  470 0.00000 0.00000 0.00000
  471 0.00000 0.00000 0.00000
  472 0.00000 0.00000 0.00000
  473 0.00000 0.00000 0.00000
  474 0.00000 0.00000 0.00000
  475 0.00000 0.00000 0.00000
  476 0.00000 0.00000 0.00000
  477 0.00000 0.00000 0.00000
  478 0.00000 0.00000 0.00000
  479 0.00000 0.00000 0.00000
  480 0.00000 0.00000 0.00000
  481 0.00000 0.00000 0.00000
  482 0.00000 0.00000 0.00000
  483 0.00000 0.00000 0.00000
  484 0.00000 0.00000 0.00000
  485 0.00000 0.00000 0.00000
  486 0.00000 0.00000 0.00000
  487 0.00000 0.00000 0.00000
  488 0.00000 0.00000 0.00000
  489 0.00000 0.00000 0.00000
  490 0.00000 0.00000 0.00000
  491 0.00000 0.00000 0.00000
  492 0.00000 0.00000 0.00000
  493 0.00000 0.00000 0.00000
  494 0.00000 0.00000 0.00000
  495 0.00000 0.00000 0.00000
  496 0.00000 0.00000 0.00000
  497 0.00000 0.00000 0.00000
  498 0.00000 0.00000 0.00000
  499 0.00000 0.00000 0.00000
  500 0.00000 0.00000 0.00000
  501 0.00000 0.00000 0.00000
  502 0.00000 0.00000 0.00000
  503 0.00000 0.00000 0.00000
  504 0.00000 0.00000 0.00000
  505 0.00000 0.00000 0.00000
  506 0.00000 0.00000 0.00000
  507 0.00000 0.00000 0.00000
  508 0.00000 0.00000 0.00000
  509 0.00000 0.00000 0.00000
  510 0.00000 0.00000 0.00000
  511 0.00000 0.00000 0.00000
  512 0.00000 0.00000 0.00000
  513 0.00000 0.00000 0.00000
  514 0.00000 0.00000 0.00000
  515 0.00000 0.00000 0.00000
  516 0.00000 0.00000 0.00000
  517 0.00000 0.00000 0.00000
  518 0.00000 0.00000 0.00000
  519 0.00000 0.00000 0.00000
  520 0.00000 0.00000 0.00000
  521 0.00000 0.00000 0.00000
  522 0.00000 0.00000 0.00000
  523 0.00000 0.00000 0.00000
  524 0.00000 0.00000 0.00000
  525 0.00000 0.00000 0.00000
  526 0.00000 0.00000 0.00000
  527 0.00000 0.00000 0.00000
  528 0.00000 0.00000 0.00000
  529 0.00000 0.00000 0.00000
  530 0.00000 0.00000 0.00000
  531 0.00000 0.00000 0.00000
  532 0.00000 0.00000 0.00000
  533 0.00000 0.00000 0.00000
  534 0.00000 0.00000 0.00000
  535 0.00000 0.00000 0.00000
  536 0.00000 0.00000 0.00000
  537 0.00000 0.00000 0.00000
  538 0.00000 0.00000 0.00000
  539 0.00000 0.00000 0.00000
  540 0.00000 0.00000 0.00000
  541 0.00000 0.00000 0.00000
  542 0.00000 0.00000 0.00000
  543 0.00000 0.00000 0.00000
  544 0.00000 0.00000 0.00000
  545 0.00000 0.00000 0.00000
  546 0.00000 0.00000 0.00000
  547 0.00000 0.00000 0.00000
  548 0.00000 0.00000 0.00000
  549 0.00000 0.00000 0.00000
  550 0.00000 0.00000 0.00000
  551 0.00000 0.00000 0.00000
  552 0.00000 0.00000 0.00000
  553 0.00000 0.00000 0.00000
  554 0.00000 0.00000 0.00000
  555 0.00000 0.00000 0.00000
  556 0.00000 0.00000 0.00000
  557 0.00000 0.00000 0.00000
  558 0.00000 0.00000 0.00000
  559 0.00000 0.00000 0.00000
  560 0.00000 0.00000 0.00000
  561 0.00000 0.00000 0.00000
  562 0.00000 0.00000 0.00000
  563 0.00000 0.00000 0.00000
  564 0.00000 0.00000 0.00000
  565 0.00000 0.00000 0.00000
  566 0.00000 0.00000 0.00000
  567 0.00000 0.00000 0.00000
  568 0.00000 0.00000 0.00000
  569 0.00000 0.00000 0.00000
  570 0.00000 0.00000 0.00000
  571 0.00000 0.00000 0.00000
  572 0.00000 0.00000 0.00000
  573 0.00000 0.00000 0.00000
  574 0.00000 0.00000 0.00000
  575 0.00000 0.00000 0.00000
  576 0.00000 0.00000 0.00000
  577 0.00000 0.00000 0.00000
  578 0.00000 0.00000 0.00000
  579 0.00000 0.00000 0.00000
  580 0.00000 0.00000 0.00000
  581 0.00000 0.00000 0.00000
  582 0.00000 0.00000 0.00000
  583 0.00000 0.00000 0.00000
  584 0.00000 0.00000 0.00000
  585 0.00000 0.00000 0.00000
  586 0.00000 0.00000 0.00000
  587 0.00000 0.00000 0.00000
  588 0.00000 0.00000 0.00000
  589 0.00000 0.00000 0.00000
  590 0.00000 0.00000 0.00000
  591 0.00000 0.00000 0.00000
  592 0.00000 0.00000 0.00000
  593 0.00000 0.00000 0.00000
  594 0.00000 0.00000 0.00000
  595 0.00000 0.00000 0.00000
  596 0.00000 0.00000 0.00000
  597 0.00000 0.00000 0.00000
  598 0.00000 0.00000 0.00000
  599 0.00000 0.00000 0.00000
  600 0.00000 0.00000 0.00000
  601 0.00000 0.00000 0.00000
  602 0.00000 0.00000 0.00000
  603 0.00000 0.00000 0.00000
  604 0.00000 0.00000 0.00000
  605 0.00000 0.00000 0.00000
  606 0.00000 0.00000 0.00000
  607 0.00000 0.00000 0.00000
  608 0.00000 0.00000 0.00000
  609 0.00000 0.00000 0.00000
  610 0.00000 0.00000 0.00000
  611 0.00000 0.00000 0.00000
  612 0.00000 0.00000 0.00000
  613 0.00000 0.00000 0.00000
  614 0.00000 0.00000 0.00000
  615 0.00000 0.00000 0.00000
  616 0.00000 0.00000 0.00000
  617 0.00000 0.00000 0.00000
  618 0.00000 0.00000 0.00000
  619 0.00000 0.00000 0.00000
  620 0.00000 0.00000 0.00000
  621 0.00000 0.00000 0.00000
  622 0.00000 0.00000 0.00000
  623 0.00000 0.00000 0.00000
  624 0.00000 0.00000 0.00000
  625 0.00000 0.00000 0.00000
  626 0.00000 0.00000 0.00000
  627 0.00000 0.00000 0.00000
  628 0.00000 0.00000 0.00000
  629 0.00000 0.00000 0.00000
  630 0.00000 0.00000 0.00000
  631 0.00000 0.00000 0.00000
  632 0.00000 0.00000 0.00000
  633 0.00000 0.00000 0.00000
  634 0.00000 0.00000 0.00000
  635 0.00000 0.00000 0.00000
  636 0.00000 0.00000 0.00000
  637 0.00000 0.00000 0.00000
  638 0.00000 0.00000 0.00000
  639 0.00000 0.00000 0.00000
  640 0.00000 0.00000 0.00000
  641 0.00000 0.00000 0.00000
  642 0.00000 0.00000 0.00000
  643 0.00000 0.00000 0.00000
  644 0.00000 0.00000 0.00000
  645 0.00000 0.00000 0.00000
  646 0.00000 0.00000 0.00000
  647 0.00000 0.00000 0.00000
  648 0.00000 0.00000 0.00000
  649 0.00000 0.00000 0.00000
  650 0.00000 0.00000 0.00000
  651 0.00000 0.00000 0.00000
  652 0.00000 0.00000 0.00000
  653 0.00000 0.00000 0.00000
  654 0.00000 0.00000 0.00000
  655 0.00000 0.00000 0.00000
  656 0.00000 0.00000 0.00000
  657 0.00000 0.00000 0.00000
  658 0.00000 0.00000 0.00000
  659 0.00000 0.00000 0.00000
  660 0.00000 0.00000 0.00000
  661 0.00000 0.00000 0.00000
  662 0.00000 0.00000 0.00000
  663 0.00000 0.00000 0.00000
  664 0.00000 0.00000 0.00000
  665 0.00000 0.00000 0.00000
  666 0.00000 0.00000 0.00000
  667 0.00000 0.00000 0.00000
  668 0.00000 0.00000 0.00000
  669 0.00000 0.00000 0.00000
  670 0.00000 0.00000 0.00000
  671 0.00000 0.00000 0.00000
  672 0.00000 0.00000 0.00000
  673 0.00000 0.00000 0.00000
  674 0.00000 0.00000 0.00000
  675 0.00000 0.00000 0.00000
  676 0.00000 0.00000 0.00000
  677 0.00000 0.00000 0.00000
  678 0.00000 0.00000 0.00000
  679 0.00000 0.00000 0.00000
  680 0.00000 0.00000 0.00000
  681 0.00000 0.00000 0.00000
  682 0.00000 0.00000 0.00000
  683 0.00000 0.00000 0.00000
  684 0.00000 0.00000 0.00000
  685 0.00000 0.00000 0.00000
  686 0.00000 0.00000 0.00000
  687 0.00000 0.00000 0.00000
  688 0.00000 0.00000 0.00000
  689 0.00000 0.00000 0.00000
  690 0.00000 0.00000 0.00000
  691 0.00000 0.00000 0.00000
  692 0.00000 0.00000 0.00000
  693 0.00000 0.00000 0.00000
  694 0.00000 0.00000 0.00000
  695 0.00000 0.00000 0.00000
  696 0.00000 0.00000 0.00000
  697 0.00000 0.00000 0.00000
  698 0.00000 0.00000 0.00000
  699 0.00000 0.00000 0.00000
  700 0.00000 0.00000 0.00000
  701 0.00000 0.00000 0.00000
  702 0.00000 0.00000 0.00000
  703 0.00000 0.00000 0.00000
  704 0.00000 0.00000 0.00000
  705 0.00000 0.00000 0.00000
  706 0.00000 0.00000 0.00000
  707 0.00000 0.00000 0.00000
  708 0.00000 0.00000 0.00000
  709 0.00000 0.00000 0.00000
  710 0.00000 0.00000 0.00000
  711 0.00000 0.00000 0.00000
  712 0.00000 0.00000 0.00000
  713 0.00000 0.00000 0.00000
  714 0.00000 0.00000 0.00000
  715 0.00000 0.00000 0.00000
  716 0.00000 0.00000 0.00000
  717 0.00000 0.00000 0.00000
  718 0.00000 0.00000 0.00000
  719 0.00000 0.00000 0.00000
  720 0.00000 0.00000 0.00000
  721 0.00000 0.00000 0.00000
  722 0.00000 0.00000 0.00000
  723 0.00000 0.00000 0.00000
  724 0.00000 0.00000 0.00000
  725 0.00000 0.00000 0.00000
  726 0.00000 0.00000 0.00000
  727 0.00000 0.00000 0.00000
  728 0.00000 0.00000 0.00000
  729 0.00000 0.00000 0.00000
  730 0.00000 0.00000 0.00000
  731 0.00000 0.00000 0.00000
  732 0.00000 0.00000 0.00000
  733 0.00000 0.00000 0.00000
  734 0.00000 0.00000 0.00000
  735 0.00000 0.00000 0.00000
  736 0.00000 0.00000 0.00000
  737 0.00000 0.00000 0.00000
  738 0.00000 0.00000 0.00000
  739 0.00000 0.00000 0.00000
  740 0.00000 0.00000 0.00000
  741 0.00000 0.00000 0.00000
  742 0.00000 0.00000 0.00000
  743 0.00000 0.00000 0.00000
  744 0.00000 0.00000 0.00000
  745 0.00000 0.00000 0.00000
  746 0.00000 0.00000 0.00000
  747 0.00000 0.00000 0.00000
  748 0.00000 0.00000 0.00000
  749 0.00000 0.00000 0.00000
  750 0.00000 0.00000 0.00000
  751 0.00000 0.00000 0.00000
  752 0.00000 0.00000 0.00000
  753 0.00000 0.00000 0.00000
  754 0.00000 0.00000 0.00000
  755 0.00000 0.00000 0.00000
  756 0.00000 0.00000 0.00000
  757 0.00000 0.00000 0.00000
  758 0.00000 0.00000 0.00000
  759 0.00000 0.00000 0.00000
  760 0.00000 0.00000 0.00000
  761 0.00000 0.00000 0.00000
  762 0.00000 0.00000 0.00000
  763 0.00000 0.00000 0.00000
  764 0.00000 0.00000 0.00000
  765 0.00000 0.00000 0.00000
  766 0.00000 0.00000 0.00000
  767 0.00000 0.00000 0.00000
  768 0.00000 0.00000 0.00000
  769 0.00000 0.00000 0.00000
  770 0.00000 0.00000 0.00000
  771 0.00000 0.00000 0.00000
  772 0.00000 0.00000 0.00000
  773 0.00000 0.00000 0.00000
  774 0.00000 0.00000 0.00000
  775 0.00000 0.00000 0.00000
  776 0.00000 0.00000 0.00000
  777 0.00000 0.00000 0.00000
  778 0.00000 0.00000 0.00000
  779 0.00000 0.00000 0.00000
  780 0.00000 0.00000 0.00000
  781 0.00000 0.00000 0.00000
</Section>

newXOutput 2

<Section columns = "stress_xx | stress_yy | stress_xy">
  1 22.3261 0.0330100 0.0321709
  2 22.3373 0.0295939 -0.0305361
  3 11.5637 -0.00921988 -0.0249362
  4 -0.146270 -0.166981 -0.193599
  5 42.4571 15.7717 13.4559
  6 39.7560 14.1580 -11.1512
  7 -0.194548 -0.167369 0.221140
  8 11.5645 -0.00946150 0.0246061
  9 22.4071 -0.0113065 0.00248451
  10 22.4011 -0.0724604 0.0706764
  11 22.2893 -0.0566184 0.0542989
  12 21.8185 -0.0589665 0.169635
  13 21.5705 -0.0735183 0.192165
  14 21.0607 -0.101164 0.309330
  15 20.2169 -0.0680728 0.457729
  16 19.2521 -0.0287854 0.523089
  17 18.1610 0.0281144 0.601909
  18 16.5974 0.0734163 0.488304
  19 15.6254 0.167709 0.569612
  20 14.8950 0.115645 0.427752
  21 13.9694 0.161830 0.119583
  22 14.2153 0.233661 -0.159643
  23 14.5465 0.114940 -0.297674
  24 15.5718 0.112510 -0.499029
  25 16.5309 0.0488240 -0.550256
  26 18.1515 0.0302853 -0.625452
  27 19.2265 -0.0511692 -0.562134
  28 20.3058 -0.0784770 -0.464765
  29 21.0514 -0.0627842 -0.338798
  30 21.4490 -0.0618521 -0.286489
  31 21.8767 -0.0951170 -0.125183
  32 22.2916 -0.0466000 -0.0311467
  33 22.4085 -0.0590805 -0.0628084
  34 22.4207 -0.0178340 0.00214273
  35 21.5341 -0.0219311 -0.0459355
  36 20.5248 -0.0847709 -0.0537939
  37 19.6027 -0.183084 -0.0757138
  38 18.5338 -0.244351 -0.0894055
  39 17.4649 -0.287111 -0.0685668
  40 16.2595 -0.274517 -0.0350875
  41 15.0920 -0.232756 -0.0212406
  42 14.0367 -0.183852 0.00410380
  43 13.0938 -0.0919951 0.0244035
  44 12.1912 -0.0346832 -0.00506374
  45 11.2968 0.0356803 -0.00360713
  46 11.2556 0.0297227 0.0512388
  47 11.1769 0.00514174 0.0280870
  48 10.9875 -0.0252192 0.0928523
  49 10.5609 -0.00198072 0.135853
  50 10.2001 -0.0335136 0.205174
  51 9.74923 -0.0267025 0.297131
  52 8.94969 -0.00247785 0.316321
  53 8.02768 0.00613264 0.367322
  54 7.15770 -0.0166981 0.576835
  55 5.46029 0.0401176 0.532694
  56 4.31355 0.0461418 0.625539
  57 2.74782 0.0647292 0.550415
  58 1.34460 0.0289674 0.593788
  59 -0.0470467 0.179023 0.588991
  60 -0.955216 0.209876 0.283875
  61 -1.21958 0.197946 -0.0512413
  62 -0.966366 0.143333 -0.364606
  63 -0.554299 -0.0565025 -0.304691
  64 -0.0652724 -0.558403 -0.285442
  65 0.0236838 -1.08903 -0.394770
  66 0.127931 -1.80061 -0.259244
  67 0.444673 -1.91153 -0.0517112
  68 0.764469 -0.475130 0.824935
  69 2.36500 2.90399 3.23672
  70 11.0203 10.7759 10.8343
  71 54.8817 5.78980 8.86492
  72 43.6704 1.84327 2.92174
  73 41.5668 1.01548 1.18737
  74 40.9282 0.644873 -0.0681935
  75 41.3855 0.849010 -1.02647
  76 44.3501 1.61635 -2.81794
  77 51.8954 4.74599 -7.58880
  78 8.85774 12.4089 -10.3641
  79 1.91443 1.37835 -2.38141
  80 0.705284 -0.511707 -0.853447
  81 0.218277 -1.91411 -0.0605684
  82 0.124216 -1.41622 0.214563
  83 0.145683 -1.36835 0.333062
  84 0.00964455 -0.511272 0.359683
  85 -0.593334 -0.0484494 0.301385
  86 -1.01164 0.138416 0.355526
  87 -1.24446 0.195796 0.0438794
  88 -0.975510 0.197035 -0.279062
  89 -0.0818368 0.198648 -0.578684
  90 1.31869 0.0350021 -0.602840
  91 2.73618 0.0609348 -0.560221
  92 4.32884 0.0455500 -0.630259
  93 5.48283 0.0390164 -0.537375
  94 7.18166 -0.0220439 -0.571157
  95 8.03836 0.00598811 -0.359723
  96 8.94728 0.00147570 -0.312206
  97 9.75001 -0.0257358 -0.299240
  98 10.1977 -0.0339356 -0.204828
  99 10.5597 -0.00223326 -0.136220
  100 10.9833 -0.0245606 -0.0922773
  101 11.1736 0.00533045 -0.0292201
  102 11.2546 0.0295274 -0.0522860
  103 11.2972 0.0354127 0.00300118
  104 12.1914 -0.0355504 0.00464684
  105 13.0936 -0.0936748 -0.0249624
  106 14.0361 -0.186366 -0.00359391
  107 15.1045 -0.238964 0.0244613
  108 16.2709 -0.276882 0.0318459
  109 17.4280 -0.287908 0.0661278
  110 18.5185 -0.232207 0.0826058
  111 19.6070 -0.192079 0.0757985
  112 20.5239 -0.0927911 0.0534325
  113 21.5265 -0.0299360 0.0494343
  114 18.8075 -1.98300 -0.351233
  115 19.0264 -1.97716 0.184923
  116 19.8905 2.85139 -1.10282
  117 16.0095 -1.31490 -3.75839
  118 15.5095 -1.21502 3.84282
  119 21.6429 2.05965 2.22957
  120 22.8537 0.612572 -1.91099
  121 15.8573 -0.718246 -0.337786
  122 15.7686 -0.759752 0.350927
  123 24.8107 5.57731 0.104834
  124 19.1088 -0.866350 0.711292
  125 19.2698 -0.816629 -0.791929
  126 19.6630 -0.425870 -2.13277
  127 13.1604 -1.12089 2.06749
  128 13.1475 -1.12729 -2.17068
  129 19.7887 -0.682154 1.94713
  130 27.0796 6.08993 -0.0892114
  131 6.88437 1.68265 -4.04227
  132 6.65758 1.70486 3.97275
  133 24.1815 -0.00555115 0.184330
  134 28.0911 6.38658 -0.516394
  135 18.1423 1.22950 1.18987
  136 18.2214 -0.492746 0.169904
  137 18.3292 -0.456157 -0.181740
  138 24.1695 -0.390043 2.29864
  139 13.0509 -0.579944 -0.926534
  140 13.0507 -0.577606 0.884659
  141 18.4406 1.12525 -6.65291
  142 32.3810 4.53544 0.595396
  143 18.3570 0.639016 -1.79190
  144 13.5022 -0.207018 -0.241781
  145 13.4993 -0.206211 0.243562
  146 15.9809 -1.35183 0.860389
  147 16.3209 -1.41370 -0.841806
  148 9.33198 -0.571407 -3.00661
  149 9.29119 -0.449890 3.04898
  150 20.5400 3.17333 1.22153
  151 20.7213 -1.97247 0.663922
  152 20.7755 -1.13789 -1.62969
  153 21.4477 -1.25122 1.17808
  154 19.5924 -1.32991 -1.16983
  155 20.3694 0.975371 -2.38376
  156 18.6583 1.42312 7.29588
  157 1.20502 1.07325 0.547434
  158 1.03106 0.899231 -0.402086
  159 17.6251 1.09583 -0.475443
  160 19.3473 0.432264 2.19813
  161 20.2213 -0.246675 0.435314
  162 20.0375 -0.291536 -0.442332
  163 18.5273 -1.38882 0.356285
  164 19.6963 -0.449331 -1.29748
  165 22.5125 3.76117 -1.70040
  166 17.8646 -1.17535 -0.136767
  167 17.0730 -1.93977 1.89531
  168 15.8349 -0.386824 -0.0825483
  169 15.8564 -0.383154 0.0870581
  170 19.8020 -0.413578 1.21277
  171 17.1995 -1.92828 -1.81081
  172 20.5139 -1.90275 -1.18662
  173 22.9628 4.11950 1.54226
  174 17.9305 -0.963478 0.206088
  175 27.7308 3.03387 -1.56122
  176 4.47648 0.342806 -2.28463
  177 4.34575 0.317924 2.22223
  178 34.2303 6.51472 3.34002
  179 28.7779 5.07979 0.473229
  180 35.5071 4.10343 -2.21501
  181 19.8177 -0.228384 0.178854
  182 19.7922 -0.222374 -0.179937
  183 11.4877 -0.391154 -1.18069
  184 11.4887 -0.396140 1.18472
  185 9.17689 -0.354394 -1.87104
  186 9.24945 -0.356301 1.90192
  187 5.66898 4.00426 -5.06833
  188 18.7501 -0.103894 1.70100
  189 20.0170 -1.45617 1.21773
  190 12.5005 -0.179038 -0.401845
  191 12.4737 -0.189097 0.407437
  192 2.73889 2.72905 2.80988
  193 18.3162 0.0277784 -1.62835
  194 19.6257 -1.01256 1.35506
  195 17.4537 0.263593 1.41173
  196 20.4955 -1.24872 -3.41522
  197 20.2591 -0.300743 -0.756566
  198 18.2667 -1.62310 -0.00830295
  199 21.8444 4.44926 -0.770075
  200 20.5050 -0.609444 2.12622
  201 13.5949 -1.25516 -3.05240
  202 9.95834 0.00677878 -4.02648
  203 9.71905 0.0691688 4.02512
  204 19.6250 1.66307 1.82989
  205 14.4360 0.0522486 5.33837
  206 18.9167 2.13027 0.348116
  207 24.7559 2.79817 -1.46101
  208 20.3271 -0.293649 0.681143
  209 13.5979 -1.23558 3.07762
  210 17.3439 -0.762692 -0.0417573
  211 33.7910 8.39040 -4.05122
  212 24.7135 3.19703 1.54722
  213 13.9636 -1.03861 -1.30657
  214 13.8818 -0.972059 1.29217
  215 1.89752 0.720953 -1.16859
  216 2.20699 0.736724 1.35029
  217 16.0383 -1.65416 1.43527
  218 16.9585 -0.625468 -0.0422909
  219 17.1117 -0.346060 0.0249774
  220 17.3135 -0.343368 -0.0325844
  221 16.0869 -1.60257 -1.44322
  222 16.8827 -1.16554 -0.255174
  223 20.3801 -1.76318 2.44118
  224 24.4736 5.42606 -0.550642
  225 28.6953 5.76406 -0.376935
  226 22.8365 0.655946 1.81838
  227 18.8854 -0.617190 0.462824
  228 13.9786 0.179287 -5.43662
  229 15.1846 -0.981241 0.717139
  230 18.6885 -0.713946 -0.409826
  231 22.9578 -1.02676 -0.00824811
  232 19.1770 1.52463 -1.75156
  233 21.7551 -1.11798 -1.16768
  234 16.3002 0.618715 0.337321
  235 14.0807 -0.502615 -0.554959
  236 21.3805 0.0670303 -2.21839
  237 11.4225 -0.189212 -0.598453
  238 11.4100 -0.185362 0.579067
  239 12.3111 -0.0300830 -0.0700710
  240 12.3112 -0.0291001 0.0687918
  241 19.3909 0.213776 -2.25240
  242 13.9590 -0.499367 0.589401
  243 15.0591 -0.957659 -0.769666
  244 6.89662 4.96197 6.67860
  245 1.05569 1.24009 -0.795008
  246 37.7690 2.84453 0.845689
  247 16.2777 0.262707 -0.749835
  248 18.9198 -1.27776 -0.641905
  249 20.0062 4.05780 -9.34964
  250 19.9038 -1.61200 -0.972687
  251 9.54663 -0.327745 -1.23945
  252 9.56185 -0.337294 1.25003
  253 19.6896 -0.799683 -1.65350
  254 20.3343 -0.271312 -2.28296
  255 14.3966 -0.234142 -0.0957709
  256 14.3963 -0.235534 0.0917564
  257 21.1200 -0.102423 -0.179175
  258 21.1411 -0.0789732 0.176316
  259 19.1354 -0.162988 -1.25188
  260 28.3076 2.66743 5.40224
  261 17.9105 -1.73635 -0.282704
  262 14.8726 -0.439762 -0.271096
  263 14.7946 -0.448186 0.287245
  264 -0.0526597 -0.0683696 -0.448498
  265 -0.125138 0.00482976 0.468908
  266 5.02714 -0.129872 -1.87053
  267 4.99625 -0.108532 1.85593
  268 12.0443 -0.0954093 0.171250
  269 12.0429 -0.0964744 -0.174021
  270 19.1297 -0.212831 1.18881
  271 22.1796 4.67522 0.558523
  272 20.3874 -1.88016 -0.408746
  273 20.6449 2.46499 -1.98642
  274 20.0788 -1.03651 -1.78622
  275 22.1013 -1.27531 0.502166
  276 7.22744 -0.166913 1.77153
  277 7.17011 -0.177632 -1.74578
  278 20.3075 -1.90834 -0.0359657
  279 17.5805 -1.97573 2.39371
  280 18.6208 -0.269294 0.0699098
  281 18.6426 -0.255865 -0.0667948
  282 21.0973 -0.0658801 -0.0878988
  283 21.1006 -0.0806117 0.0921294
  284 9.42615 2.60850 6.03207
  285 21.6221 1.74724 -2.32559
  286 19.3670 -1.63738 0.640843
  287 24.6586 5.14771 0.874060
  288 17.3652 0.167181 -1.30672
  289 17.0253 -0.510674 -0.00648787
  290 23.8010 3.80839 -1.68096
  291 19.6178 -0.388367 4.93486
  292 20.5140 3.67845 0.00978473
  293 17.5739 -1.87503 -2.50562
  294 18.7306 -2.12466 0.944374
  295 17.7522 -1.76379 0.468043
  296 27.8512 5.75336 0.312413
  297 16.7067 -1.15929 0.374428
  298 20.8942 -0.135260 -0.387331
  299 19.4807 -0.980092 -1.15187
  300 33.7951 9.21884 3.76373
  301 21.4986 0.0330297 2.15346
  302 20.3738 -0.139534 -0.608986
  303 21.1165 2.88109 1.81863
  304 23.4030 -0.160777 -3.75870
  305 20.3182 0.602828 2.39005
  306 0.594354 0.631861 0.237254
  307 11.8495 -0.899588 2.50851
  308 19.4480 -0.321043 0.277368
  309 19.3702 -0.363171 -0.302280
  310 18.9120 1.97704 -1.02143
  311 11.3560 -0.776550 -2.42742
  312 12.2815 -0.962317 -3.45280
  313 19.8761 -0.436325 0.618524
  314 18.6613 -1.07293 0.527329
  315 19.3407 -0.0949983 2.17241
  316 29.8926 5.19592 -6.24683
  317 19.6358 -0.677777 1.54991
  318 19.6640 -0.498534 -0.633401
  319 20.8808 -0.110357 0.387774
  320 11.5945 -0.139259 0.399620
  321 11.6065 -0.153545 -0.406054
  322 3.17936 2.02953 -2.44575
  323 16.0387 0.475535 -0.278198
  324 19.7839 -0.581327 1.07181
  325 27.2010 4.80454 0.393933
  326 19.5232 2.45641 1.21952
  327 10.5036 2.02724 -6.06189
  328 11.9899 -0.719499 3.48014
  329 18.1270 1.06617 -1.32651
  330 20.3117 -0.164485 0.665171
  331 19.5035 -0.514758 -1.78653
  332 0.438614 0.182447 0.0576358
  333 3.47836 1.75331 2.25918
  334 14.5117 -1.54393 2.44233
  335 -0.204093 0.332698 0.164052
  336 -0.161361 0.363974 -0.154679
  337 22.1393 7.93479 10.1857
  338 19.4122 -0.449483 1.78846
  339 42.1859 4.48054 -5.40779
  340 18.8691 1.10645 1.84863
  341 22.8927 2.36148 1.95567
  342 16.1622 -0.537008 0.143709
  343 16.3822 0.274132 0.806741
  344 14.8391 -1.65109 -2.30040
  345 18.8100 -0.903454 -0.557756
  346 16.9891 -0.953893 0.109721
  347 19.7686 -0.545999 -1.09755
  348 19.1471 -2.09437 -1.35069
  349 22.5778 -1.23832 -0.540191
  350 17.7572 1.33266 0.365338
  351 20.2345 -1.71792 0.884151
  352 25.9719 1.78041 -0.156491
  353 10.8826 -0.565294 1.81930
  354 18.0579 -0.688618 0.224326
  355 17.5284 -1.93668 -1.16865
  356 29.5170 7.09392 1.14809
  357 21.3889 3.60820 -1.48848
  358 13.4675 -0.307418 0.419507
  359 13.4963 -0.332316 -0.428141
  360 10.7986 -0.545846 -1.84978
  361 7.13803 5.82854 -6.99866
  362 16.3916 -0.312014 -0.0443945
  363 16.4469 -0.329959 0.0294624
  364 10.0605 -0.115589 -0.642138
  365 10.0584 -0.118209 0.649345
  366 39.2158 1.49216 -0.796185
  367 39.7186 2.69903 2.56059
  368 17.6392 -1.43530 -0.153166
  369 24.3661 0.616746 5.11848
  370 8.29858 -0.0100869 3.20569
  371 8.30575 -0.0661672 -3.22477
  372 17.8182 -1.11865 3.98456
  373 17.5822 0.132214 1.34770
  374 18.5513 0.202775 1.90870
  375 17.1655 -1.98916 1.42581
  376 4.79470 1.05884 -2.71394
  377 4.72630 0.861749 2.61048
  378 2.06470 0.176120 -1.11222
  379 2.07884 0.149901 1.12413
  380 18.9786 -1.68970 -2.90684
  381 13.4458 -0.129792 -0.106862
  382 13.4458 -0.128041 0.106274
  383 28.1502 5.47159 -0.0307442
  384 16.9138 -0.927297 -0.124791
  385 18.2141 -0.481648 -5.07194
  386 19.1806 -1.76169 -0.371260
  387 26.7020 4.78894 -0.610309
  388 23.2623 2.00764 -2.00422
  389 19.8177 -1.10019 1.59015
  390 12.5241 -0.336724 -0.679492
  391 12.4773 -0.305065 0.645804
  392 17.0122 -0.436297 0.00271103
  393 15.8311 -0.550360 -0.219289
  394 12.1516 -0.754505 1.65058
  395 12.1373 -0.751337 -1.68191
  396 1.46160 2.09225 -1.72387
  397 19.5077 0.910784 -2.17566
  398 14.8877 -1.06586 0.995018
  399 25.0509 1.53205 -5.48356
  400 19.2048 -1.26148 0.847812
  401 2.48826 2.86358 3.02365
  402 19.1705 -0.170788 -2.05701
  403 11.7306 -0.0849540 0.231716
  404 11.7264 -0.0812200 -0.232867
  405 20.1390 -0.137566 0.0759326
  406 20.1312 -0.126969 -0.0698512
  407 20.6650 -1.26251 1.49570
  408 9.28493 -0.534043 -2.47538
  409 20.9136 -0.0972523 -0.405440
  410 9.43793 -0.552735 2.49268
  411 24.1787 0.469727 -0.830624
  412 20.1657 -0.956787 1.87093
  413 17.7315 -1.17781 0.0849351
  414 32.2062 6.97193 -2.62052
  415 19.6574 -0.730418 1.30349
  416 32.1115 5.92548 1.83686
  417 23.5828 5.06513 0.705605
  418 8.52033 -0.196551 -1.13132
  419 8.52844 -0.188360 1.15118
  420 3.25635 -0.0207774 -1.31325
  421 3.21091 -0.0199137 1.28484
  422 19.6910 -0.156208 -0.903964
  423 41.7639 5.83792 5.44180
  424 10.2312 0.741875 4.77730
  425 12.6295 -0.624980 -1.12631
  426 12.6076 -0.623494 1.13950
  427 14.0300 -1.22552 1.66750
  428 11.8717 3.42685 -7.97802
  429 23.3630 5.17851 -0.373214
  430 14.1076 -1.20841 -1.68908
  431 21.4996 -0.0697616 -0.174103
  432 21.8203 4.00159 1.31385
  433 22.7269 4.58835 -1.07334
  434 15.1449 -1.13014 -0.991272
  435 29.6145 6.73306 -0.903474
  436 15.7041 -1.64671 3.12446
  437 25.3376 0.342475 -0.851348
  438 16.7660 -1.13089 -4.34947
  439 18.3912 0.248105 -1.87190
  440 17.3194 -1.75284 -0.768785
  441 35.4966 3.33982 -0.637775
  442 34.9171 4.18038 2.09967
  443 19.5676 -1.37320 1.08568
  444 -0.141741 0.312110 -0.225416
  445 -0.0927270 0.333230 0.223663
  446 25.6886 5.16758 0.811692
  447 18.6161 -0.0791617 1.08200
  448 16.9892 -1.48293 0.500287
  449 13.4277 -0.480380 4.57733
  450 0.0595346 -0.476645 -0.394702
  451 14.8458 -1.34462 -3.32802
  452 19.0645 -1.50278 -0.632134
  453 18.9081 -0.321247 0.201291
  454 18.9064 -0.303711 -0.165373
  455 7.76310 0.794042 -3.94463
  456 19.6725 -0.128451 0.851333
  457 2.53753 1.25388 -1.52908
  458 0.853034 0.747150 0.791324
  459 6.98248 -0.0584961 -1.02512
  460 6.95970 -0.0473895 1.02727
  461 44.8430 10.1047 -8.28637
  462 18.4357 -0.0539410 -1.11651
  463 19.2648 -0.516054 -0.469915
  464 18.6529 -0.802547 0.449387
  465 17.6947 0.702008 1.37802
  466 20.0407 -0.0589417 2.33385
  467 17.7617 -0.301732 0.0375586
  468 17.8394 -0.295288 -0.0482190
  469 6.60882 0.525394 3.13594
  470 14.6632 -0.513053 0.411459
  471 23.8658 1.20605 1.46715
  472 22.5634 -1.33455 1.40303
  473 25.8581 5.63034 -0.0968608
  474 21.5521 -0.0439225 0.171956
  475 18.0569 -0.922729 -0.240698
  476 15.4034 -0.273106 -0.0577736
  477 15.3931 -0.263635 0.0518976
  478 5.44890 2.54233 4.00594
  479 18.1398 -0.664594 -0.220916
  480 2.30089 1.33031 1.36929
  481 5.40751 2.63141 -3.94828
  482 19.5692 2.80225 -0.337163
  483 15.9933 -0.934138 -0.424878
  484 14.4085 -0.317163 -0.218216
  485 14.4204 -0.307545 0.222806
  486 21.0100 -1.79115 0.0945282
  487 20.9473 -0.127373 0.398898
  488 27.5049 1.74238 2.04646
  489 20.2679 2.45604 1.73948
  490 16.2577 -1.28007 -0.609866
  491 19.9274 3.18044 0.484821
  492 0.240594 -0.780992 0.0158103
  493 5.84661 5.81899 6.66060
  494 20.5411 1.70492 2.18561
  495 14.7732 -0.513501 -0.371290
  496 17.4570 0.0296654 -0.931814
  497 14.2905 1.12300 6.26499
  498 18.3765 -1.39923 -0.283843
  499 21.5580 -1.77264 0.952374
  500 20.0784 -0.356003 -0.631002
  501 32.0800 4.94454 -0.720237
  502 4.89627 -0.00547833 -1.19841
  503 4.90620 0.00443523 1.21782
  504 20.2778 -0.170042 -0.272519
  505 20.1919 -0.186282 0.283020
  506 11.2202 -0.758841 3.03281
  507 13.9345 -0.629101 -0.746584
  508 13.4838 -0.349565 -4.58523
  509 11.5986 -0.913648 -2.91183
  510 10.4521 -0.0928646 -0.441329
  511 10.4485 -0.0958204 0.437399
  512 19.5780 -1.82554 0.475174
  513 14.2086 -0.732191 0.816363
  514 20.6994 0.247925 -2.38358
  515 14.9687 -0.757811 0.577035
  516 16.0502 -1.69346 1.84163
  517 25.3623 1.88629 0.615097
  518 9.16319 -0.0403018 -0.641393
  519 9.16691 -0.0429272 0.651053
  520 25.0839 5.33949 -0.807850
  521 22.0468 -0.186371 -1.82467
  522 22.0713 -0.352612 1.65139
  523 19.8157 -1.07348 -1.58076
  524 15.2761 -1.33789 1.25085
  525 40.6266 2.31130 -2.71542
  526 21.9025 -1.48001 -0.241804
  527 16.0057 0.156089 -0.730397
  528 16.4721 -0.694728 0.127875
  529 19.8473 2.31902 -1.60744
  530 34.3227 9.37728 5.99240
  531 19.4981 -0.429773 0.466449
  532 17.8967 -0.380145 0.0742924
  533 18.0923 -0.336191 -0.0923508
  534 20.4201 -1.59289 -1.03642
  535 15.9068 -0.963879 0.455254
  536 11.7464 -0.00139063 -0.102529
  537 11.7475 -0.00100957 0.100804
  538 16.1292 -1.75282 -1.77884
  539 20.7456 3.60959 -0.800318
  540 19.6718 -0.572094 -0.820311
  541 16.2794 0.132135 0.856147
  542 19.6452 -0.750579 -1.35553
  543 11.8515 -0.00368022 -0.0196470
  544 11.8512 -0.00321125 0.0190226
  545 23.1093 -0.985700 -1.63106
  546 15.4860 -1.42277 -1.26619
  547 22.8350 -0.358225 -1.20382
  548 21.1566 -1.35568 3.03515
  549 20.2745 -0.301520 0.566934
  550 21.6925 -0.0556606 0.0933194
  551 21.6897 -0.0475397 -0.0838878
  552 19.1392 -2.07889 -0.747299
  553 19.7869 -2.00959 1.84055
  554 10.7943 -0.0653366 -0.286199
  555 10.7876 -0.0647204 0.283391
  556 17.9349 -1.75988 2.96098
  557 20.0265 1.62086 -2.09126
  558 15.3984 -1.61250 -2.68341
  559 19.7764 1.12996 2.25389
  560 19.1511 -2.11200 1.42289
  561 14.9718 0.161179 0.308453
  562 16.7626 -0.429686 0.0276237
  563 20.8580 -0.500737 -2.10497
  564 26.1235 5.66194 0.146461
  565 21.3534 -0.787202 -1.75277
  566 15.9712 -1.20213 0.693597
  567 12.6737 -0.165855 0.302045
  568 12.6763 -0.168261 -0.307063
  569 18.8614 -0.501024 0.278293
  570 14.9417 -0.727875 -0.561234
  571 19.4515 -0.327918 1.42812
  572 21.0224 -1.45604 -1.10271
  573 17.6158 -0.523003 0.0804924
  574 32.8920 9.59922 -4.06673
  575 17.4241 0.394587 -1.31248
  576 26.9819 5.88282 -0.0363099
  577 15.1643 0.132252 -0.478678
  578 19.2702 -0.663140 0.602355
  579 5.49972 3.52818 5.12814
  580 18.6220 1.75461 0.962563
  581 10.2778 0.837030 -4.85102
  582 21.0304 -1.75741 -0.353776
  583 19.1139 -0.215469 -1.69181
  584 21.5337 2.67100 -2.08447
  585 -0.166729 -0.193246 -0.345210
  586 -0.213345 -0.177291 0.354947
  587 12.8161 -0.113914 -0.171243
  588 12.8160 -0.112397 0.169406
  589 20.2869 -1.30909 -1.49646
  590 20.4253 -0.856832 -1.95537
  591 1.83851 1.73648 1.46546
  592 18.9233 1.63655 1.47340
  593 17.2615 -0.818003 0.0263727
  594 17.0491 -0.293789 -0.0229799
  595 17.0015 -0.290470 0.00698044
  596 17.2610 0.775119 0.907680
  597 40.3914 0.919104 0.605981
  598 14.0169 -0.846618 -1.02675
  599 14.7957 0.201537 0.0686628
  600 20.0190 0.341741 -2.38863
  601 15.6500 -1.78257 2.72968
  602 0.265508 0.212463 0.600379
  603 0.205955 0.177599 -0.561302
  604 21.1657 0.961031 -2.39534
  605 18.4480 1.92186 -0.260730
  606 19.8866 -1.37672 -1.34885
  607 11.2679 -0.261368 -0.857026
  608 11.2459 -0.280461 0.856969
  609 20.6302 -0.0919442 0.154843
  610 20.6217 -0.0923967 -0.160624
  611 19.8242 -0.186318 -2.28950
  612 19.4233 -0.900641 1.01400
  613 13.7532 -0.809667 1.08570
  614 1.03069 0.878510 -0.554305
  615 20.8599 10.8317 -11.8551
  616 20.0414 -0.343011 0.951507
  617 19.9384 -0.321951 -1.00540
  618 15.8673 0.783324 -6.27282
  619 18.7737 -0.532855 -0.331666
  620 16.7482 -1.59857 0.881321
  621 21.7308 4.50233 -0.0274571
  622 7.14357 -0.287166 -2.25365
  623 7.21299 -0.285482 2.27129
  624 23.9503 4.02367 1.51709
  625 19.3096 -1.24085 -0.975511
  626 16.8792 0.912489 -0.000346987
  627 18.7590 -1.79912 0.0274347
  628 10.1628 -0.292805 1.07384
  629 10.1547 -0.290776 -1.05960
  630 13.3117 -0.364710 -0.566262
  631 12.5795 -0.0499917 -0.0839090
  632 12.5795 -0.0488030 0.0832463
  633 19.2006 -0.697579 -0.607319
  634 21.8312 -0.0153036 -0.0438703
  635 21.8228 -0.0207024 0.0546899
  636 25.3021 4.78202 -1.16708
  637 11.9548 3.62068 7.47931
  638 23.2294 -0.302557 1.00686
  639 10.0778 1.65580 5.37406
  640 4.29122 1.27842 2.51049
  641 23.6817 1.04153 -1.64579
  642 19.8228 -1.85743 -0.439691
  643 13.6977 -0.204545 -0.186069
  644 13.7023 -0.201710 0.186594
  645 19.1817 -0.175774 -0.0458987
  646 19.1985 -0.181383 0.0498198
  647 14.8392 -1.53158 -1.96576
  648 6.67417 0.386015 -3.17420
  649 11.0148 -0.0670693 0.177142
  650 11.0113 -0.0705490 -0.174093
  651 46.8812 12.1795 9.44905
  652 22.4290 2.56113 -2.15647
  653 20.0194 -0.629323 -2.10939
  654 19.7788 -0.711012 -1.91938
  655 20.8706 1.73074 -2.31026
  656 12.2175 -0.343209 -0.860892
  657 12.1657 -0.364881 0.840385
  658 18.5934 -1.62546 0.216649
  659 0.112256 -0.555627 0.413235
  660 20.8558 -0.0228995 2.30818
  661 1.14110 0.827145 0.580162
  662 18.3740 0.507417 1.80127
  663 2.92715 2.80821 -2.61471
  664 17.0702 0.693509 -0.927801
  665 20.7815 -0.121316 0.313886
  666 17.1127 -1.54560 -0.542726
  667 19.4405 -0.349787 -1.49365
  668 5.55023 -0.0367517 0.884217
  669 5.57172 -0.0309189 -0.888291
  670 23.6514 4.71752 -1.21433
  671 10.5354 -0.509408 -3.70602
  672 19.1441 -1.03990 -0.811826
  673 16.5861 -0.712367 -0.151143
  674 20.7477 -0.154349 -0.306029
  675 21.9956 3.16030 1.87659
  676 3.43834 0.749544 -1.89824
  677 3.34579 0.507659 1.87767
  678 19.9014 -0.476609 2.17968
  679 17.5097 -1.33711 0.117022
  680 19.6180 -1.02940 -1.35628
  681 29.3062 7.24919 -1.34166
  682 23.0843 5.07165 0.233179
  683 16.8104 -0.599163 0.0410327
  684 22.0905 0.846252 2.23146
  685 19.9915 -2.07846 0.402264
  686 13.1217 -0.348632 0.570921
  687 17.8382 -1.93037 0.822893
  688 21.0453 -0.0657552 -0.00227810
  689 21.0425 -0.0746005 0.00458626
  690 29.4510 6.54132 1.31773
  691 10.8939 -0.464728 1.45223
  692 1.47547 1.55596 -1.01407
  693 -0.490904 0.00311915 0.415084
  694 -0.437054 0.0111655 -0.427635
  695 9.45507 -0.386687 1.59609
  696 4.64392 1.84885 -2.91748
  697 0.343614 -0.358841 -0.377804
  698 19.0822 -1.52676 0.627401
  699 13.0730 -0.756369 -4.04936
  700 14.7423 -1.52380 1.93691
  701 18.4861 -1.15961 -0.413106
  702 0.237937 -0.736460 -0.223077
  703 22.1195 1.06442 -2.23763
  704 19.8750 -1.93769 0.195830
  705 19.5537 -1.59468 -0.902222
  706 18.8944 0.561320 -2.04866
  707 10.8706 -0.466450 -1.45437
  708 1.85962 2.71783 -2.78990
  709 18.7978 1.03258 -1.89833
  710 -0.0421409 -0.524036 -0.411467
  711 17.5892 0.00784515 0.887291
  712 9.41835 -0.371694 -1.57813
  713 12.4906 -0.675143 4.01894
  714 17.5471 -0.589958 -0.0752476
  715 14.2150 -0.341123 -0.291804
  716 10.3097 -0.388674 3.64363
  717 5.84283 0.0776072 -2.47527
  718 5.75120 0.0611874 2.42031
  719 14.1631 -0.324663 0.303539
  720 3.14377 0.0730504 -1.00427
  721 3.16417 0.0792704 0.997904
  722 15.5217 -0.600488 0.300178
  723 18.9282 -0.0243685 -0.767085
  724 22.9799 2.13917 7.94759
  725 15.1005 -0.301707 -0.147478
  726 15.0907 -0.309587 0.141305
  727 19.6136 -0.562211 -1.59168
  728 14.5771 -0.206778 -0.0891777
  729 14.5729 -0.199684 0.0862044
  730 19.0977 -0.204099 1.51582
  731 19.6875 -2.06242 0.113777
  732 15.4716 -0.420729 0.173678
  733 1.16565 -0.0373247 -0.653021
  734 1.17810 -0.0565891 0.642926
  735 15.4403 -0.377136 -0.162933
  736 0.295687 0.340036 -0.227126
  737 21.3219 -1.58378 -1.99412
  738 24.1769 -0.381091 0.389933
  739 7.03963 1.08708 3.69249
  740 11.4590 -0.00562559 0.114271
  741 11.4561 -0.00438910 -0.116099
  742 18.4516 -1.88514 0.238674
  743 36.7610 5.20554 -4.18948
  744 16.4590 0.0316084 -0.713340
  745 16.5127 -0.396469 -0.0454948
  746 15.2401 5.18405 9.23426
  747 21.1537 0.838872 2.39056
  748 18.9923 -0.0345911 0.743638
  749 21.8926 -0.0341190 -0.103625
  750 21.9183 -0.0473105 0.103415
  751 30.3239 5.89117 -1.15626
  752 21.0573 3.85599 0.611630
  753 16.2774 -0.492937 -0.0983814
  754 21.2657 -0.0779188 0.300588
  755 12.9179 -0.788266 -1.43165
  756 19.3547 -0.198107 0.139136
  757 19.3457 -0.196432 -0.125803
  758 14.0589 -1.14173 3.60624
  759 19.9948 -2.11479 -0.635962
  760 19.7022 -0.793092 1.71585
  761 12.8927 -0.775204 1.41990
  762 20.4713 2.97459 -1.45278
  763 16.5866 0.127068 0.748583
  764 13.3627 -1.25303 -2.70479
  765 16.3833 -0.479101 0.0828782
  766 19.4734 -0.361199 2.05533
  767 11.6019 0.0160604 -0.0352005
  768 11.6021 0.0163589 0.0341853
  769 0.301996 0.462018 0.176041
  770 13.3900 -0.483260 0.721099
  771 17.5368 -0.436817 -0.0585043
  772 19.5263 -0.826777 -1.03811
  773 8.30707 -0.0467758 0.658075
  774 8.31118 -0.0482726 -0.647200
  775 21.2300 -0.631433 1.90965
  776 19.4371 -0.432089 -1.96855
  777 7.03215 -0.277665 -2.59243
  778 7.05835 -0.242861 2.57195
  779 20.6311 -1.68685 0.715321
  780 19.5932 -0.617867 0.831728
  781 30.7988 5.33141 2.20163
</Section>

newXOutput 3

<Section columns = "stress_xx | stress_yy | stress_xy">
  1 44.4988 0.0637936 0.0636650
  2 44.5208 0.0570315 -0.0604533
  3 23.1506 -0.0178778 -0.0492610
  4 -0.292369 -0.333707 -0.387142
  5 84.3846 31.5048 26.8034
  6 79.0646 28.2930 -22.2270
  7 -0.388775 -0.334441 0.442247
  8 23.1522 -0.0183592 0.0486062
  9 44.6595 -0.0238645 0.00420815
  10 44.6492 -0.145187 0.139147
  11 44.4302 -0.113588 0.106215
  12 43.5022 -0.118867 0.334159
  13 43.0149 -0.147021 0.379124
  14 42.0086 -0.202342 0.611263
  15 40.3414 -0.136627 0.906431
  16 38.4330 -0.0580742 1.03687
  17 36.2715 0.0556675 1.19413
  18 33.1717 0.146415 0.969673
  19 31.2428 0.334547 1.13177
  20 29.7918 0.232174 0.850032
  21 27.9541 0.323491 0.237774
  22 28.4425 0.467792 -0.317504
  23 29.1005 0.230360 -0.591759
  24 31.1364 0.224906 -0.991373
  25 33.0399 0.0974320 -1.09257
  26 36.2523 0.0601240 -1.24101
  27 38.3821 -0.102681 -1.11434
  28 40.5170 -0.157204 -0.920210
  29 41.9903 -0.126227 -0.669929
  30 42.7744 -0.124618 -0.566024
  31 43.6167 -0.190617 -0.246024
  32 44.4347 -0.0937873 -0.0602431
  33 44.6637 -0.118751 -0.123578
  34 44.6862 -0.0368756 0.00490376
  35 42.9320 -0.0463729 -0.0910462
  36 40.9330 -0.172506 -0.106336
  37 39.1054 -0.368731 -0.149453
  38 36.9850 -0.490346 -0.176127
  39 34.8634 -0.574558 -0.135045
  40 32.4703 -0.548422 -0.0681825
  41 30.1521 -0.464041 -0.0411862
  42 28.0570 -0.365966 0.00909648
  43 26.1855 -0.182507 0.0491169
  44 24.3948 -0.0684114 -0.00970688
  45 22.6210 0.0711010 -0.00663671
  46 22.5377 0.0593008 0.102660
  47 22.3787 0.0104368 0.0570867
  48 21.9992 -0.0499140 0.186495
  49 21.1478 -0.00366741 0.271884
  50 20.4256 -0.0666023 0.410168
  51 19.5237 -0.0529856 0.593813
  52 17.9274 -0.00466530 0.632500
  53 16.0866 0.0124332 0.734399
  54 14.3474 -0.0329267 1.15303
  55 10.9584 0.0800526 1.06525
  56 8.66590 0.0919554 1.25067
  57 5.53408 0.128890 1.10195
  58 2.72436 0.0572463 1.19009
  59 -0.0642558 0.357316 1.18157
  60 -1.88786 0.419153 0.571551
  61 -2.42522 0.395841 -0.0983430
  62 -1.92719 0.287398 -0.726071
  63 -1.10679 -0.112067 -0.608070
  64 -0.129622 -1.11512 -0.569712
  65 0.0483989 -2.17262 -0.786532
  66 0.256888 -3.58510 -0.512923
  67 0.890647 -3.79414 -0.0931324
  68 1.53230 -0.902737 1.66567
  69 4.72852 5.88537 6.48928
  70 21.9373 21.6177 21.6140
  71 109.085 11.5265 17.5965
  72 86.9049 3.66778 5.80473
  73 82.7314 2.02252 2.35691
  74 81.4656 1.28520 -0.135650
  75 82.3753 1.69157 -2.04088
  76 88.2537 3.21931 -5.59993
  77 103.195 9.45066 -15.0690
  78 17.6329 24.8797 -20.6777
  79 3.83072 2.83866 -4.78777
  80 1.41370 -0.971327 -1.72388
  81 0.437279 -3.79701 -0.130530
  82 0.249912 -2.81763 0.422312
  83 0.292446 -2.73033 0.662994
  84 0.0197269 -1.02057 0.718114
  85 -1.18488 -0.0959763 0.601433
  86 -2.01776 0.277544 0.708003
  87 -2.47488 0.391579 0.0836204
  88 -1.92824 0.393487 -0.561935
  89 -0.133544 0.396518 -1.16099
  90 2.67280 0.0692866 -1.20817
  91 5.51098 0.121303 -1.12153
  92 8.69656 0.0907628 -1.26007
  93 11.0035 0.0778444 -1.07456
  94 14.3952 -0.0435876 -1.14167
  95 16.1079 0.0121524 -0.719260
  96 17.9227 0.00320680 -0.624315
  97 19.5254 -0.0510626 -0.597988
  98 20.4209 -0.0674326 -0.409464
  99 21.1455 -0.00416387 -0.272606
  100 21.9907 -0.0486032 -0.185349
  101 22.3720 0.0108138 -0.0593360
  102 22.5357 0.0589129 -0.104740
  103 22.6216 0.0705689 0.00543377
  104 24.3952 -0.0701373 0.00887970
  105 26.1852 -0.185849 -0.0502254
  106 28.0557 -0.370965 -0.00808381
  107 30.1768 -0.476392 0.0475614
  108 32.4928 -0.553124 0.0617178
  109 34.7903 -0.576136 0.130155
  110 36.9547 -0.466138 0.162600
  111 39.1138 -0.386603 0.149643
  112 40.9312 -0.188411 0.105625
  113 42.9170 -0.0622643 0.0979809
  114 37.5286 -3.95711 -0.725920
  115 37.9643 -3.94539 0.394959
  116 39.7136 5.69060 -2.18809
  117 31.9496 -2.62640 -7.51773
  118 30.9546 -2.42734 7.68579
  119 43.1891 4.10836 4.41599
  120 45.5863 1.22182 -3.77164
  121 31.6691 -1.43208 -0.684919
  122 31.4927 -1.51480 0.711233
  123 49.5090 11.1178 0.205377
  124 38.1315 -1.73006 1.39847
  125 38.4515 -1.63105 -1.55889
  126 39.2449 -0.851097 -4.22684
  127 26.2939 -2.23647 4.13617
  128 26.2673 -2.24952 -4.34231
  129 39.4925 -1.36252 3.85616
  130 54.0121 12.1457 -0.142393
  131 13.7650 3.35735 -8.08960
  132 13.3117 3.40245 7.95126
  133 48.2146 -0.00729693 0.325408
  134 56.0239 12.7364 -1.06347
  135 36.2366 2.45674 2.36295
  136 36.3659 -0.985049 0.328390
  137 36.5798 -0.912109 -0.352019
  138 48.1781 -0.768756 4.62240
  139 26.0879 -1.15567 -1.85580
  140 26.0880 -1.15100 1.77235
  141 36.7671 2.25294 -13.2929
  142 64.5451 9.03550 1.18943
  143 36.6604 1.27690 -3.55784
  144 26.9935 -0.411865 -0.486530
  145 26.9879 -0.410253 0.490075
  146 31.9102 -2.69606 1.73203
  147 32.5859 -2.81966 -1.69582
  148 18.6583 -1.14299 -6.01285
  149 18.5771 -0.900581 6.09755
  150 41.0057 6.33193 2.42203
  151 41.3312 -3.93607 1.35485
  152 41.4497 -2.27218 -3.21746
  153 42.7835 -2.49781 2.31462
  154 39.0951 -2.65479 -2.30580
  155 40.6556 1.94563 -4.72689
  156 37.2010 2.85118 14.5748
  157 2.42008 2.14872 1.10900
  158 2.07330 1.80033 -0.817066
  159 35.2101 2.19083 -0.944414
  160 38.6244 0.862761 4.36121
  161 40.3368 -0.495066 0.856544
  162 39.9720 -0.584560 -0.870159
  163 36.9749 -2.77139 0.688114
  164 39.3059 -0.898064 -2.56774
  165 44.9265 7.50249 -3.36330
  166 35.6573 -2.34501 -0.253929
  167 34.0740 -3.87128 3.80147
  168 31.6267 -0.771543 -0.170007
  169 31.6693 -0.764374 0.179026
  170 39.5149 -0.826901 2.39958
  171 34.3258 -3.84836 -3.63307
  172 40.9168 -3.79683 -2.39705
  173 45.8229 8.21647 3.04765
  174 35.7886 -1.92261 0.394123
  175 55.2666 6.07020 -3.16682
  176 8.96876 0.682486 -4.57478
  177 8.70756 0.632910 4.45034
  178 68.2155 12.9848 6.66859
  179 57.3643 10.1463 1.00202
  180 70.7416 8.17609 -4.41630
  181 39.5329 -0.458981 0.349974
  182 39.4824 -0.447059 -0.352186
  183 22.9742 -0.779377 -2.36135
  184 22.9761 -0.789316 2.36938
  185 18.3620 -0.707362 -3.74009
  186 18.5064 -0.711196 3.80184
  187 11.3301 8.00965 -10.1432
  188 37.4365 -0.207327 3.37430
  189 39.9395 -2.90693 2.39890
  190 25.0007 -0.356000 -0.806116
  191 24.9476 -0.376022 0.817148
  192 5.48417 5.46651 5.63690
  193 36.5773 0.0557372 -3.23144
  194 39.1627 -2.02185 2.67671
  195 34.8680 0.528400 2.80381
  196 40.8704 -2.48943 -6.83993
  197 40.4172 -0.602350 -1.49429
  198 36.4554 -3.23840 0.00614330
  199 43.6045 8.87396 -1.52457
  200 40.9162 -1.21785 4.20914
  201 27.1499 -2.50678 -6.10565
  202 19.8984 0.00938783 -8.05240
  203 19.4217 0.134143 8.05003
  204 39.1815 3.31963 3.63080
  205 28.8096 0.102599 10.6711
  206 37.7775 4.25410 0.691179
  207 49.3737 5.58462 -2.86894
  208 40.5513 -0.588258 1.34473
  209 27.1561 -2.46773 6.15555
  210 34.6230 -1.52203 -0.0698264
  211 67.3413 16.7303 -8.09806
  212 49.2922 6.38029 3.04272
  213 27.8982 -2.07104 -2.61746
  214 27.7357 -1.93836 2.58838
  215 3.81301 1.43980 -2.34681
  216 4.43077 1.47109 2.71025
  217 32.0206 -3.30015 2.88016
  218 33.8576 -1.24810 -0.0950773
  219 34.1622 -0.691637 0.0446062
  220 34.5630 -0.686483 -0.0596081
  221 32.1168 -3.19718 -2.89607
  222 33.7053 -2.32465 -0.525411
  223 40.6460 -3.51723 4.89733
  224 48.8360 10.8186 -1.07958
  225 57.2304 11.4874 -0.764786
  226 45.5524 1.30846 3.58782
  227 37.6858 -1.23336 0.907320
  228 27.8983 0.355621 -10.8668
  229 30.3298 -1.95620 1.44238
  230 37.2946 -1.42604 -0.801241
  231 45.7802 -2.04656 0.0218795
  232 38.2910 3.04410 -3.47662
  233 43.3947 -2.23173 -2.29312
  234 32.5799 1.23836 0.670282
  235 28.1389 -1.00147 -1.11464
  236 42.6587 0.132109 -4.39020
  237 22.8534 -0.376459 -1.19759
  238 22.8284 -0.368812 1.15900
  239 24.6317 -0.0591702 -0.141127
  240 24.6320 -0.0572129 0.138587
  241 38.7096 0.426687 -4.46863
  242 27.8968 -0.994919 1.18331
  243 30.0803 -1.90914 -1.54704
  244 13.7790 9.92236 13.3569
  245 2.11831 2.49524 -1.60721
  246 75.2192 5.66605 1.68306
  247 32.5351 0.527739 -1.48999
  248 37.7558 -2.55022 -1.25692
  249 39.8645 8.12349 -18.6650
  250 39.7129 -3.21761 -1.91043
  251 19.1065 -0.653440 -2.47743
  252 19.1367 -0.672553 2.49852
  253 39.2924 -1.59729 -3.27173
  254 40.5793 -0.543008 -4.52296
  255 28.7708 -0.466231 -0.194246
  256 28.7703 -0.469004 0.186259
  257 42.1149 -0.207300 -0.351718
  258 42.1567 -0.160552 0.346181
  259 38.1991 -0.325998 -2.48170
  260 56.3792 5.36318 10.8197
  261 35.7469 -3.46412 -0.585680
  262 29.7144 -0.876403 -0.547653
  263 29.5595 -0.893147 0.579794
  264 -0.100759 -0.132755 -0.890895
  265 -0.245359 0.0127152 0.931627
  266 10.0762 -0.260648 -3.74266
  267 10.0144 -0.218009 3.71366
  268 24.0991 -0.189302 0.344017
  269 24.0963 -0.191414 -0.349528
  270 38.1881 -0.424993 2.35648
  271 44.2719 9.32386 1.10455
  272 40.6718 -3.75248 -0.784415
  273 41.2098 4.91819 -3.93899
  274 40.0659 -2.06985 -3.53257
  275 44.0797 -2.54477 0.965174
  276 14.4735 -0.333569 3.54183
  277 14.3592 -0.354981 -3.49029
  278 40.5114 -3.80871 -0.101933
  279 35.0808 -3.94350 4.79719
  280 37.1578 -0.540128 0.135094
  281 37.2011 -0.513444 -0.129008
  282 42.0677 -0.134599 -0.172532
  283 42.0742 -0.163864 0.180902
  284 18.8258 5.20761 12.0601
  285 43.1469 3.48506 -4.60635
  286 38.6445 -3.26783 1.25111
  287 49.2001 10.2656 1.71558
  288 34.6921 0.334861 -2.59488
  289 33.9905 -1.01951 -0.00376724
  290 47.4858 7.59707 -3.31633
  291 39.1192 -0.769810 9.86935
  292 40.9566 7.33945 0.0194763
  293 35.0669 -3.74273 -5.02070
  294 37.3735 -4.23983 1.90843
  295 35.4310 -3.51893 0.954974
  296 55.5515 11.4683 0.639513
  297 33.3553 -2.31213 0.762948
  298 41.6726 -0.271800 -0.763808
  299 38.8729 -1.95708 -2.27294
  300 67.3477 18.3915 7.54418
  301 42.8929 0.0641391 4.26039
  302 40.6489 -0.279378 -1.20468
  303 42.1483 5.74776 3.60411
  304 46.6474 -0.310467 -7.53046
  305 40.5524 1.20205 4.73890
  306 1.19459 1.27505 0.488026
  307 23.6804 -1.79603 5.01623
  308 38.8006 -0.643551 0.543165
  309 38.6465 -0.727417 -0.592121
  310 37.7671 3.94781 -2.02777
  311 22.6983 -1.55038 -4.85377
  312 24.5324 -1.92346 -6.90464
  313 39.6536 -0.872967 1.21826
  314 37.2416 -2.14161 1.03083
  315 38.6085 -0.190016 4.30849
  316 59.5132 10.4116 -12.5067
  317 39.1863 -1.35369 3.06738
  318 39.2327 -0.996964 -1.24727
  319 41.6456 -0.222587 0.764643
  320 23.1996 -0.276715 0.800130
  321 23.2233 -0.305159 -0.812954
  322 6.36758 4.05694 -4.90608
  323 32.0608 0.952124 -0.552898
  324 39.4759 -1.16201 2.11748
  325 54.2397 9.59016 0.736973
  326 38.9821 4.90304 2.42029
  327 20.9732 4.04618 -12.1177
  328 23.9516 -1.43910 6.95894
  329 36.2057 2.13057 -2.63418
  330 40.5251 -0.329346 1.31566
  331 38.9264 -1.02828 -3.53921
  332 0.881394 0.376173 0.103520
  333 6.96497 3.50460 4.53215
  334 28.9790 -3.08170 4.88768
  335 -0.398355 0.666793 0.320886
  336 -0.313268 0.729343 -0.301840
  337 44.0673 15.8927 20.3359
  338 38.7461 -0.898003 3.54378
  339 83.9793 8.92287 -10.7584
  340 37.6778 2.20937 3.66972
  341 45.6735 4.71130 3.86469
  342 32.2758 -1.07108 0.296148
  343 32.7424 0.549775 1.60286
  344 29.6310 -3.29526 -4.60503
  345 37.5369 -1.80378 -1.09298
  346 33.9174 -1.90274 0.234161
  347 39.4460 -1.09129 -2.16899
  348 38.1990 -4.17974 -2.71996
  349 45.0223 -2.46918 -1.11397
  350 35.4728 2.66332 0.725710
  351 40.3704 -3.42897 1.73264
  352 51.7770 3.56099 -0.262634
  353 21.7618 -1.12773 3.63773
  354 36.0416 -1.37503 0.433561
  355 34.9831 -3.86441 -2.35274
  356 58.8545 14.1515 2.33025
  357 42.6937 7.19773 -2.94872
  358 26.9228 -0.611913 0.842282
  359 26.9800 -0.661513 -0.859520
  360 21.5945 -1.08898 -3.69844
  361 14.2371 11.6807 -13.9900
  362 32.7324 -0.623119 -0.0920527
  363 32.8423 -0.658874 0.0624560
  364 20.1384 -0.230138 -1.28358
  365 20.1343 -0.235336 1.29796
  366 78.0806 2.97232 -1.58393
  367 79.0823 5.37550 5.09259
  368 35.2083 -2.86329 -0.325230
  369 48.5544 1.24829 10.2398
  370 16.5951 -0.0231757 6.41242
  371 16.6095 -0.135194 -6.45015
  372 35.5452 -2.23292 7.97151
  373 35.1225 0.264928 2.67589
  374 37.0438 0.405418 3.78837
  375 34.2607 -3.96918 2.86465
  376 9.59865 2.11237 -5.43581
  377 9.46311 1.71868 5.22863
  378 4.15295 0.351102 -2.23004
  379 4.18105 0.298747 2.25381
  380 37.8571 -3.37201 -5.82355
  381 26.8837 -0.257851 -0.214539
  382 26.8838 -0.254365 0.213374
  383 56.1469 10.9038 -0.0626796
  384 33.7681 -1.84961 -0.263539
  385 36.3263 -0.958510 -10.1406
  386 38.2732 -3.51562 -0.713811
  387 53.2492 9.55799 -1.16865
  388 46.4052 4.00562 -3.95749
  389 39.5458 -2.19684 3.14299
  390 25.0442 -0.670365 -1.36104
  391 24.9515 -0.607129 1.29355
  392 33.9644 -0.871360 -0.00254600
  393 31.6179 -1.09752 -0.446578
  394 24.2909 -1.50455 3.30168
  395 24.2621 -1.49834 -3.36418
  396 2.92900 4.20710 -3.46578
  397 38.9446 1.81787 -4.31698
  398 29.7378 -2.12525 1.99711
  399 49.9093 3.07909 -10.9704
  400 38.3231 -2.51804 1.66621
  401 4.97840 5.75454 6.06375
  402 38.2702 -0.341106 -4.07982
  403 23.4736 -0.168640 0.464449
  404 23.4651 -0.161208 -0.466742
  405 40.1688 -0.278086 0.148573
  406 40.1534 -0.257035 -0.136488
  407 41.2294 -2.52081 2.95063
  408 18.5703 -1.06717 -4.94950
  409 41.7151 -0.195328 -0.800786
  410 18.8750 -1.10448 4.98422
  411 48.2138 0.940673 -1.61306
  412 40.2394 -1.91082 3.70110
  413 35.3928 -2.34992 0.150740
  414 64.1994 13.8998 -5.24228
  415 39.2260 -1.45913 2.57662
  416 64.0128 11.8088 3.67225
  417 47.0637 10.1003 1.39127
  418 17.0598 -0.391860 -2.26084
  419 17.0758 -0.375544 2.30048
  420 6.53853 -0.0426202 -2.62978
  421 6.44766 -0.0408161 2.57307
  422 39.2986 -0.312929 -1.79031
  423 83.1483 11.6267 10.8296
  424 20.4375 1.47704 9.55266
  425 25.2474 -1.24551 -2.25453
  426 25.2040 -1.24258 2.28070
  427 28.0273 -2.44448 3.33852
  428 23.6883 6.84928 -15.9401
  429 46.6283 10.3257 -0.737031
  430 28.1810 -2.41040 -3.38181
  431 42.8685 -0.140715 -0.342425
  432 43.5533 7.98173 2.60138
  433 45.3588 9.15082 -2.12143
  434 30.2484 -2.25358 -1.99062
  435 59.0376 13.4400 -1.85618
  436 31.3455 -3.28795 6.25220
  437 50.5069 0.691549 -1.74171
  438 33.4509 -2.25779 -8.69872
  439 36.7267 0.496174 -3.71561
  440 34.5699 -3.49703 -1.55390
  441 70.7202 6.65263 -1.27093
  442 69.5750 8.32756 4.18591
  443 39.0454 -2.74117 2.13797
  444 -0.266515 0.623381 -0.457582
  445 -0.168688 0.665611 0.454128
  446 51.2432 10.3083 1.58120
  447 37.1715 -0.157992 2.14605
  448 33.9154 -2.95806 1.01631
  449 26.8074 -0.962208 9.15165
  450 0.121026 -0.944586 -0.782482
  451 29.6375 -2.68569 -6.65745
  452 38.0433 -2.99914 -1.23555
  453 37.7288 -0.643739 0.393136
  454 37.7252 -0.608854 -0.322335
  455 15.5207 1.58137 -7.89188
  456 39.2627 -0.257365 1.68627
  457 5.08691 2.50600 -3.07142
  458 1.70972 1.51619 1.59796
  459 13.9919 -0.116568 -2.04915
  460 13.9464 -0.0943805 2.05350
  461 89.2427 20.1408 -16.4952
  462 36.8143 -0.107615 -2.21495
  463 38.4388 -1.03207 -0.922586
  464 37.2245 -1.60257 0.878467
  465 35.3469 1.40356 2.73701
  466 39.9978 -0.118721 4.62638
  467 35.4528 -0.604062 0.0715572
  468 35.6070 -0.591304 -0.0928177
  469 13.2221 1.04600 6.27598
  470 29.2974 -1.02228 0.828680
  471 47.5980 2.40805 2.88397
  472 44.9891 -2.65955 2.83329
  473 51.5918 11.2237 -0.185445
  474 42.9724 -0.0894142 0.338300
  475 36.0399 -1.84156 -0.463082
  476 30.7702 -0.544579 -0.117837
  477 30.7499 -0.525741 0.106111
  478 10.8970 5.08031 8.02098
  479 36.2041 -1.32722 -0.426890
  480 4.61412 2.65839 2.75166
  481 10.8159 5.25697 -7.90619
  482 39.0758 5.59346 -0.668965
  483 31.9380 -1.86264 -0.860835
  484 28.7938 -0.631624 -0.440071
  485 28.8174 -0.612489 0.449221
  486 41.9088 -3.57481 0.155735
  487 41.7823 -0.254852 0.788118
  488 54.8089 3.49875 4.13245
  489 40.4611 4.90109 3.45029
  490 32.4621 -2.55280 -1.23213
  491 39.7884 6.34699 0.961779
  492 0.483392 -1.54193 0.0204360
  493 11.6698 11.6708 13.3199
  494 40.9998 3.40134 4.33359
  495 29.5158 -1.02326 -0.748739
  496 34.8748 0.0595234 -1.84983
  497 28.5148 2.24367 12.5208
  498 36.6749 -2.79193 -0.544309
  499 42.9929 -3.53612 1.93209
  500 40.0557 -0.712867 -1.24405
  501 63.9480 9.85227 -1.44065
  502 9.82225 -0.0112333 -2.39679
  503 9.84194 0.00853833 2.43561
  504 40.4465 -0.342494 -0.535215
  505 40.2764 -0.374992 0.555720
  506 22.4228 -1.51651 6.06451
  507 27.8461 -1.25364 -1.49770
  508 26.9185 -0.701318 -9.16711
  509 23.1764 -1.82519 -5.82306
  510 20.9229 -0.184802 -0.882358
  511 20.9155 -0.190697 0.874558
  512 39.0634 -3.64335 0.919440
  513 28.3902 -1.45927 1.63782
  514 41.3073 0.493272 -4.72295
  515 29.9025 -1.51043 1.16122
  516 32.0418 -3.37919 3.69130
  517 50.5708 3.77016 1.17951
  518 18.3486 -0.0799665 -1.28177
  519 18.3559 -0.0852092 1.30100
  520 50.0452 10.6479 -1.58087
  521 43.9802 -0.373076 -3.60217
  522 44.0274 -0.704817 3.25648
  523 39.5416 -2.14351 -3.12456
  524 30.5076 -2.66845 2.50959
  525 80.8808 4.60420 -5.40182
  526 43.6831 -2.95311 -0.447114
  527 31.9958 0.313083 -1.45114
  528 32.8910 -1.38572 0.266928
  529 39.6252 4.62833 -3.18915
  530 68.3394 18.7426 12.0125
  531 38.9016 -0.860159 0.916661
  532 35.7208 -0.760337 0.140975
  533 36.1093 -0.673003 -0.177405
  534 40.7397 -3.17967 -2.03569
  535 31.7659 -1.92198 0.921401
  536 23.5100 -0.00227842 -0.205726
  537 23.5121 -0.00152102 0.202298
  538 32.1991 -3.49755 -3.56656
  539 41.4166 7.20175 -1.58682
  540 39.2502 -1.14361 -1.61765
  541 32.5388 0.264972 1.70092
  542 39.2020 -1.49930 -2.67981
  543 23.7209 -0.00678661 -0.0397350
  544 23.7202 -0.00585288 0.0384955
  545 46.0733 -1.96216 -3.28979
  546 30.9244 -2.83789 -2.54085
  547 45.5427 -0.714583 -2.36165
  548 42.1866 -2.70129 6.08398
  549 40.4448 -0.604085 1.11758
  550 43.2466 -0.112804 0.183318
  551 43.2410 -0.0967373 -0.164613
  552 38.1863 -4.14877 -1.51668
  553 39.4689 -4.01018 3.69817
  554 21.6080 -0.129848 -0.572509
  555 21.5946 -0.128638 0.566943
  556 35.7823 -3.51284 5.92953
  557 39.9779 3.23472 -4.14846
  558 30.7401 -3.21919 -5.37073
  559 39.4788 2.25474 4.47170
  560 38.2071 -4.21484 2.86400
  561 29.9435 0.323687 0.613041
  562 33.4689 -0.857882 0.0617612
  563 41.6180 -1.00097 -4.16549
  564 52.1187 11.2867 0.277067
  565 42.5997 -1.57241 -3.46109
  566 31.8927 -2.39715 1.39806
  567 25.3477 -0.329599 0.605935
  568 25.3529 -0.334379 -0.615921
  569 37.6370 -1.00195 0.542822
  570 29.8488 -1.45081 -1.12962
  571 38.8238 -0.655516 2.82907
  572 41.9374 -2.90663 -2.16592
  573 35.1633 -1.04456 0.150397
  574 65.5385 19.1616 -8.16632
  575 34.8092 0.790162 -2.60683
  576 53.8231 11.7285 -0.0976959
  577 30.3257 0.265808 -0.951690
  578 38.4512 -1.32506 1.18394
  579 10.9959 7.05338 10.2632
  580 37.1908 3.50451 1.91135
  581 20.5306 1.66694 -9.69985
  582 41.9500 -3.50738 -0.672765
  583 38.1565 -0.430626 -3.35460
  584 42.9759 5.32829 -4.12944
  585 -0.332124 -0.385191 -0.688761
  586 -0.424888 -0.352890 0.707703
  587 25.6324 -0.226142 -0.344066
  588 25.6322 -0.223118 0.340414
  589 40.4773 -2.61370 -2.95347
  590 40.7561 -1.71148 -3.86841
  591 3.68529 3.47841 2.94819
  592 37.7880 3.26796 2.92488
  593 34.4593 -1.63216 0.0388317
  594 34.0381 -0.587538 -0.0431844
  595 33.9435 -0.580932 0.0113890
  596 34.4868 1.55042 1.80327
  597 80.4053 1.83103 1.20404
  598 28.0071 -1.68761 -2.05805
  599 29.5938 0.404244 0.136636
  600 39.9566 0.680961 -4.73651
  601 31.2408 -3.55863 5.46365
  602 0.554248 0.423852 1.20622
  603 0.435388 0.354215 -1.12814
  604 42.2365 1.91629 -4.74559
  605 36.8457 3.83857 -0.517688
  606 39.6809 -2.74841 -2.66089
  607 22.5419 -0.520397 -1.71428
  608 22.4980 -0.558459 1.71416
  609 41.1434 -0.186844 0.303810
  610 41.1265 -0.187730 -0.315298
  611 39.5673 -0.372825 -4.53900
  612 38.7582 -1.79854 1.99962
  613 27.4828 -1.61396 2.17525
  614 2.07524 1.75658 -1.11983
  615 41.5068 21.6921 -23.6477
  616 39.9874 -0.686355 1.88093
  617 39.7851 -0.644239 -1.98868
  618 31.6524 1.56258 -12.5335
  619 37.4632 -1.06522 -0.648071
  620 33.4345 -3.18889 1.77639
  621 43.3794 8.97988 -0.0541206
  622 14.3000 -0.574651 -4.50698
  623 14.4383 -0.571309 4.54233
  624 47.7833 8.02682 2.99027
  625 38.5320 -2.47706 -1.92044
  626 33.7295 1.82508 -0.000653227
  627 37.4338 -3.58992 0.0297534
  628 20.3368 -0.583594 2.14653
  629 20.3208 -0.579545 -2.11816
  630 26.6111 -0.726158 -1.13585
  631 25.1649 -0.0987551 -0.167692
  632 25.1649 -0.0963893 0.166376
  633 38.3128 -1.39379 -1.19340
  634 43.5200 -0.0326259 -0.0863621
  635 43.5034 -0.0433595 0.107795
  636 50.4719 9.53937 -2.28671
  637 23.8583 7.23047 14.9435
  638 46.3261 -0.602807 1.96818
  639 20.1273 3.30344 10.7453
  640 8.59065 2.55232 5.03155
  641 47.2317 2.07881 -3.24003
  642 39.5495 -3.70701 -0.847895
  643 27.3830 -0.406815 -0.374224
  644 27.3920 -0.401165 0.375280
  645 38.2704 -0.354283 -0.0891433
  646 38.3038 -0.365415 0.0969423
  647 29.6334 -3.05611 -3.93637
  648 13.3526 0.767332 -6.35223
  649 22.0499 -0.133202 0.354795
  650 22.0430 -0.140123 -0.348718
  651 93.2653 24.2810 18.8132
  652 44.7532 5.10888 -4.26706
  653 39.9515 -1.25733 -4.17768
  654 39.4721 -1.42025 -3.80061
  655 41.6542 3.45263 -4.57987
  656 24.4316 -0.683384 -1.72322
  657 24.3288 -0.726564 1.68226
  658 37.1054 -3.24341 0.408261
  659 0.226797 -1.10506 0.821046
  660 41.6164 -0.0473068 4.57166
  661 2.29603 1.65397 1.17159
  662 36.6937 1.01426 3.57621
  663 5.86074 5.61873 -5.24554
  664 34.1079 1.38769 -1.84351
  665 41.4466 -0.245072 0.617831
  666 34.1604 -3.08322 -1.10145
  667 38.8018 -0.699032 -2.95918
  668 11.1331 -0.0734740 1.76786
  669 11.1761 -0.0618325 -1.77596
  670 47.1957 9.40874 -2.39464
  671 21.0524 -1.02045 -7.41061
  672 38.2021 -2.07610 -1.59661
  673 33.1175 -1.42099 -0.313408
  674 41.3793 -0.310855 -0.601992
  675 43.8958 6.30411 3.71487
  676 6.89323 1.49548 -3.80422
  677 6.70818 1.01215 3.76336
  678 39.7182 -0.952511 4.31888
  679 34.9513 -2.66733 0.252306
  680 39.1473 -2.05551 -2.67875
  681 58.4354 14.4610 -2.71498
  682 46.0738 10.1129 0.460513
  683 33.5634 -1.19566 0.0925328
  684 44.0723 1.68717 4.41473
  685 39.8816 -4.14785 0.831329
  686 26.2336 -0.694108 1.14475
  687 35.6007 -3.85159 1.66327
  688 41.9641 -0.134336 -0.00366884
  689 41.9587 -0.151874 0.00824147
  690 58.7293 13.0405 2.65255
  691 21.7892 -0.926389 2.90348
  692 2.95997 3.11581 -2.04386
  693 -0.977722 0.00716107 0.826892
  694 -0.869954 0.0235242 -0.852039
  695 18.9199 -0.771576 3.19040
  696 9.29484 3.69258 -5.84620
  697 0.690650 -0.687393 -0.769537
  698 38.0786 -3.04704 1.22600
  699 26.1047 -1.51335 -8.09631
  700 29.4408 -3.04052 3.87852
  701 36.8931 -2.31434 -0.803360
  702 0.477037 -1.45536 -0.436774
  703 44.1311 2.12270 -4.42686
  704 39.6527 -3.86720 0.361343
  705 39.0168 -3.18287 -1.77161
  706 37.7264 1.12112 -4.06636
  707 21.7428 -0.929865 -2.90772
  708 3.72080 5.47507 -5.59691
  709 37.5363 2.06193 -3.76863
  710 -0.0827923 -1.04419 -0.819733
  711 35.1372 0.0160069 1.76115
  712 18.8469 -0.741529 -3.15452
  713 24.9452 -1.35111 8.03616
  714 35.0269 -1.17801 -0.138975
  715 28.4085 -0.679268 -0.587914
  716 20.6028 -0.779399 7.28648
  717 11.6990 0.152744 -4.95325
  718 11.5160 0.120058 4.84383
  719 28.3054 -0.646492 0.611275
  720 6.32048 0.145489 -2.00997
  721 6.36107 0.157926 1.99729
  722 31.0033 -1.19711 0.607676
  723 37.7905 -0.0491003 -1.52088
  724 45.7846 4.29391 15.8735
  725 30.1684 -0.601270 -0.298661
  726 30.1489 -0.616974 0.286370
  727 39.1426 -1.12318 -3.15113
  728 29.1298 -0.411767 -0.179114
  729 29.1213 -0.397642 0.173187
  730 38.1243 -0.408062 3.00522
  731 39.2782 -4.11586 0.255045
  732 30.9045 -0.838814 0.353390
  733 2.36272 -0.0748925 -1.30910
  734 2.38741 -0.113359 1.28893
  735 30.8424 -0.751863 -0.331694
  736 0.597517 0.685703 -0.443456
  737 42.5198 -3.15858 -4.00857
  738 48.2023 -0.754925 0.819432
  739 14.0770 2.16738 7.38917
  740 22.9373 -0.0107089 0.229259
  741 22.9315 -0.00824392 -0.232891
  742 36.8221 -3.76141 0.500054
  743 73.2303 10.3729 -8.34905
  744 32.8960 0.0636830 -1.41672
  745 32.9726 -0.791486 -0.0966776
  746 30.3813 10.3607 18.4369
  747 42.2122 1.67230 4.73584
  748 37.9174 -0.0694768 1.47419
  749 43.6442 -0.0693918 -0.203674
  750 43.6951 -0.0955202 0.203300
  751 60.4631 11.7419 -2.32194
  752 42.0378 7.69282 1.21208
  753 32.5050 -0.983356 -0.204050
  754 42.4101 -0.156898 0.593115
  755 25.8177 -1.57145 -2.86481
  756 38.6140 -0.398722 0.272409
  757 38.5961 -0.395441 -0.245971
  758 28.0698 -2.28134 7.21192
  759 39.8873 -4.22050 -1.29786
  760 39.3181 -1.58397 3.39589
  761 25.7679 -1.54545 2.84131
  762 40.8681 5.93543 -2.88082
  763 33.1492 0.253691 1.48682
  764 26.6913 -2.50157 -5.41005
  765 32.7155 -0.955880 0.173424
  766 38.8692 -0.721747 4.07434
  767 23.2250 0.0322348 -0.0709641
  768 23.2254 0.0328290 0.0689479
  769 0.610272 0.929069 0.341261
  770 26.7649 -0.962687 1.44543
  771 35.0064 -0.872903 -0.108276
  772 38.9630 -1.65127 -2.04828
  773 16.6400 -0.0927820 1.31521
  774 16.6483 -0.0957511 -1.29353
  775 42.3555 -1.26183 3.77443
  776 38.7970 -0.863113 -3.90184
  777 14.0735 -0.556541 -5.18581
  778 14.1258 -0.487015 5.14513
  779 41.1579 -3.36693 1.39452
  780 39.0943 -1.23492 1.63994
  781 61.3601 10.6640 4.45741
</Section>

newXOutput 4

<Section columns = "stress_xx | stress_yy | stress_xy">
  1 66.5199 0.0924001 0.0944951
  2 66.5524 0.0823613 -0.0897630
  3 34.7597 -0.0259803 -0.0729846
  4 -0.438299 -0.500177 -0.580628
  5 125.790 47.1989 40.0430
  6 117.932 42.4045 -33.2273
  7 -0.582680 -0.501217 0.663320
  8 34.7621 -0.0266996 0.0720104
  9 66.7590 -0.0376434 0.00519198
  10 66.7461 -0.218166 0.205460
  11 66.4243 -0.170895 0.155802
  12 65.0524 -0.179677 0.493678
  13 64.3343 -0.220502 0.560981
  14 62.8444 -0.303531 0.905939
  15 60.3741 -0.205652 1.34626
  16 57.5425 -0.0878567 1.54149
  17 54.3314 0.0826674 1.77679
  18 49.7225 0.219003 1.44419
  19 46.8516 0.500528 1.68654
  20 44.6897 0.349581 1.26689
  21 41.9530 0.484986 0.354584
  22 42.6806 0.702392 -0.473599
  23 43.6613 0.346257 -0.882286
  24 46.6931 0.337194 -1.47710
  25 49.5264 0.145831 -1.62705
  26 54.3024 0.0895216 -1.84681
  27 57.4670 -0.154527 -1.65677
  28 60.6342 -0.236172 -1.36649
  29 62.8177 -0.190313 -0.993533
  30 63.9774 -0.188276 -0.838735
  31 65.2213 -0.286486 -0.362617
  32 66.4308 -0.141545 -0.0873396
  33 66.7673 -0.178992 -0.182352
  34 66.7984 -0.0570944 0.00826539
  35 64.1950 -0.0732624 -0.135345
  36 61.2256 -0.263126 -0.157648
  37 58.5086 -0.556861 -0.221256
  38 55.3541 -0.737916 -0.260214
  39 52.1959 -0.862294 -0.199473
  40 48.6323 -0.821687 -0.0993243
  41 45.1801 -0.693850 -0.0598633
  42 42.0603 -0.546346 0.0149581
  43 39.2745 -0.271546 0.0741299
  44 36.6101 -0.101193 -0.0139382
  45 33.9713 0.106267 -0.00910062
  46 33.8455 0.0887373 0.154253
  47 33.6043 0.0158841 0.0869769
  48 33.0340 -0.0740897 0.280903
  49 31.7597 -0.00506296 0.408076
  50 30.6757 -0.0992684 0.614963
  51 29.3227 -0.0788513 0.890029
  52 26.9324 -0.00656358 0.948511
  53 24.1760 0.0189018 1.10121
  54 21.5684 -0.0486872 1.72855
  55 16.4938 0.119809 1.59764
  56 13.0566 0.137448 1.87536
  57 8.35833 0.192492 1.65458
  58 4.13894 0.0848483 1.78887
  59 -0.0518572 0.534888 1.77770
  60 -2.79807 0.627834 0.862993
  61 -3.61701 0.593685 -0.141334
  62 -2.88249 0.432191 -1.08441
  63 -1.65747 -0.166701 -0.910144
  64 -0.193053 -1.67017 -0.852817
  65 0.0741379 -3.25079 -1.17530
  66 0.386860 -5.35356 -0.761071
  67 1.33790 -5.64801 -0.124348
  68 2.30342 -1.28321 2.52201
  69 7.09041 8.94314 9.75721
  70 32.7522 32.5235 32.3387
  71 162.619 17.2110 26.1968
  72 129.709 5.47379 8.64955
  73 123.499 3.02124 3.50895
  74 121.617 1.92105 -0.202369
  75 122.974 2.52775 -3.04339
  76 131.717 4.80902 -8.34650
  77 153.907 14.1146 -22.4423
  78 26.3263 37.4103 -30.9400
  79 5.74867 4.38002 -7.21855
  80 2.12518 -1.37929 -2.61108
  81 0.656998 -5.64888 -0.209807
  82 0.377075 -4.20432 0.623293
  83 0.440278 -4.08598 0.989816
  84 0.0302437 -1.52790 1.07530
  85 -1.77464 -0.142587 0.900151
  86 -3.01839 0.417375 1.05745
  87 -3.69136 0.587346 0.119252
  88 -2.85833 0.589361 -0.848586
  89 -0.155351 0.593618 -1.74687
  90 4.06200 0.102865 -1.81594
  91 8.32399 0.181115 -1.68390
  92 13.1026 0.135646 -1.88942
  93 16.5614 0.116488 -1.61151
  94 21.6400 -0.0646326 -1.71152
  95 24.2080 0.0184926 -1.07858
  96 26.9255 0.00519242 -0.936300
  97 29.3252 -0.0759820 -0.896225
  98 30.6687 -0.100494 -0.613892
  99 31.7563 -0.00579486 -0.409142
  100 33.0214 -0.0721327 -0.279189
  101 33.5943 0.0164490 -0.0903258
  102 33.8423 0.0881596 -0.157352
  103 33.9723 0.105473 0.00730955
  104 36.6106 -0.103770 0.0127072
  105 39.2740 -0.276533 -0.0757791
  106 42.0584 -0.553803 -0.0134497
  107 45.2168 -0.712281 0.0693277
  108 48.6657 -0.828700 0.0896547
  109 52.0869 -0.864640 0.192122
  110 55.3089 -0.701724 0.240032
  111 58.5212 -0.583492 0.221572
  112 61.2229 -0.286783 0.156599
  113 64.1728 -0.0969242 0.145654
  114 56.1637 -5.92238 -1.12363
  115 56.8143 -5.90475 0.629660
  116 59.4695 8.51774 -3.25601
  117 47.8206 -3.93450 -11.2779
  118 46.3354 -3.63694 11.5287
  119 64.6391 6.14630 6.55983
  120 68.1988 1.82787 -5.58269
  121 47.4354 -2.14152 -1.04118
  122 47.1723 -2.26516 1.08070
  123 74.0952 16.6218 0.301698
  124 57.0684 -2.59111 2.06196
  125 57.5457 -2.44324 -2.30132
  126 58.7462 -1.27565 -6.28277
  127 39.4001 -3.34677 6.20588
  128 39.3592 -3.36672 -6.51474
  129 59.1116 -2.04106 5.72763
  130 80.7982 18.1676 -0.160214
  131 20.6417 5.02414 -12.1418
  132 19.9620 5.09281 11.9353
  133 72.1006 -0.00517700 0.423958
  134 83.7995 19.0497 -1.64059
  135 54.2828 3.68175 3.51945
  136 54.4337 -1.47687 0.475687
  137 54.7524 -1.36781 -0.511064
  138 72.0272 -1.13618 6.97071
  139 39.1107 -1.72720 -2.78768
  140 39.1113 -1.72022 2.66292
  141 54.9805 3.38309 -19.9199
  142 96.4941 13.5006 1.78205
  143 54.9101 1.91366 -5.29813
  144 40.4736 -0.614554 -0.734161
  145 40.4651 -0.612139 0.739456
  146 47.7882 -4.03276 2.61465
  147 48.7952 -4.21794 -2.56176
  148 27.9786 -1.71474 -9.01862
  149 27.8575 -1.35205 9.14556
  150 61.3972 9.47592 3.60176
  151 61.8304 -5.89083 2.07230
  152 62.0233 -3.40285 -4.76396
  153 64.0083 -3.73974 3.41025
  154 58.5086 -3.97465 -3.40846
  155 60.8587 2.91088 -7.02993
  156 55.6288 4.28417 21.8366
  157 3.64507 3.22637 1.68456
  158 3.12661 2.70326 -1.24482
  159 52.7550 3.28500 -1.40698
  160 57.8312 1.29154 6.48968
  161 60.3474 -0.745116 1.26397
  162 59.8043 -0.879018 -1.28376
  163 55.3432 -4.14772 0.995926
  164 58.8294 -1.34618 -3.81122
  165 67.2424 11.2242 -4.98923
  166 53.3786 -3.50902 -0.351859
  167 51.0033 -5.79457 5.71817
  168 47.3753 -1.15415 -0.262266
  169 47.4387 -1.14365 0.275793
  170 59.1392 -1.23995 3.56085
  171 51.3794 -5.76028 -5.46648
  172 61.2096 -5.68226 -3.63086
  173 68.5808 12.2912 4.51667
  174 53.5746 -2.87741 0.564448
  175 82.6092 9.10906 -4.81587
  176 13.4766 1.01907 -6.87033
  177 13.0852 0.944985 6.68419
  178 101.958 19.4107 9.98558
  179 85.7608 15.1999 1.58527
  180 105.706 12.2183 -6.60388
  181 59.1464 -0.691716 0.513519
  182 59.0713 -0.673979 -0.516905
  183 34.4588 -1.16469 -3.54188
  184 34.4618 -1.17954 3.55388
  185 27.5549 -1.05890 -5.60706
  186 27.7705 -1.06468 5.69967
  187 16.9833 12.0160 -15.2242
  188 56.0592 -0.310288 5.02027
  189 59.7680 -4.35228 3.54408
  190 37.5002 -0.530903 -1.21273
  191 37.4211 -0.560790 1.22905
  192 8.23565 8.21220 8.48076
  193 54.7831 0.0838860 -4.80962
  194 58.6115 -3.02786 3.96551
  195 52.2424 0.794411 4.17646
  196 61.1254 -3.72217 -10.2738
  197 60.4747 -0.904788 -2.21350
  198 54.5667 -4.84595 0.0429205
  199 65.2804 13.2743 -2.26369
  200 61.2342 -1.82516 6.24938
  201 40.6649 -3.75488 -9.15959
  202 29.8201 0.00787731 -12.0776
  203 29.1078 0.194970 12.0746
  204 58.6695 4.96977 5.40309
  205 43.1211 0.151088 15.9980
  206 56.5823 6.37152 1.02925
  207 73.8543 8.35959 -4.22462
  208 60.6733 -0.883791 1.99107
  209 40.6744 -3.69646 9.23363
  210 51.8376 -2.27801 -0.0844825
  211 100.653 25.0202 -12.1402
  212 73.7370 9.55002 4.48730
  213 41.8035 -3.09732 -3.93249
  214 41.5615 -2.89893 3.88846
  215 5.74626 2.15656 -3.53454
  216 6.67114 2.20312 4.07975
  217 47.9470 -4.93802 4.33442
  218 50.6976 -1.86788 -0.158139
  219 51.1517 -1.03670 0.0589980
  220 51.7486 -1.02931 -0.0811872
  221 48.0898 -4.78386 -4.35827
  222 50.4680 -3.47736 -0.810400
  223 60.7985 -5.26221 7.36811
  224 73.0876 16.1780 -1.58716
  225 85.6060 17.1704 -1.16330
  226 68.1486 1.95766 5.30905
  227 56.4017 -1.84848 1.33383
  228 41.7592 0.529051 -16.2905
  229 45.4356 -2.92491 2.17551
  230 55.8188 -2.13627 -1.17459
  231 68.4683 -3.05940 0.0897403
  232 57.3419 4.55845 -5.17551
  233 64.9197 -3.34120 -3.37696
  234 48.8387 1.85893 0.998928
  235 42.1743 -1.49658 -1.67890
  236 63.8351 0.195332 -6.51610
  237 34.2918 -0.561757 -1.79734
  238 34.2546 -0.550365 1.73971
  239 36.9609 -0.0872706 -0.213139
  240 36.9614 -0.0843473 0.209358
  241 57.9564 0.638774 -6.64917
  242 41.8132 -1.48668 1.78159
  243 45.0634 -2.85447 -2.33191
  244 20.6468 14.8811 20.0345
  245 3.18776 3.76527 -2.43641
  246 112.354 8.46486 2.51220
  247 48.7715 0.795070 -2.22056
  248 56.5083 -3.81741 -1.84551
  249 59.5763 12.1970 -27.9462
  250 59.4280 -4.81685 -2.81380
  251 28.6790 -0.977092 -3.71387
  252 28.7240 -1.00578 3.74539
  253 58.8088 -2.39281 -4.85522
  254 60.7355 -0.815024 -6.72060
  255 43.1223 -0.696273 -0.295359
  256 43.1215 -0.700418 0.283442
  257 62.9858 -0.314569 -0.517771
  258 63.0479 -0.244672 0.509733
  259 57.1913 -0.489020 -3.68979
  260 84.2175 8.08698 16.2516
  261 53.5095 -5.18334 -0.908541
  262 44.5252 -1.30994 -0.829534
  263 44.2943 -1.33490 0.877513
  264 -0.144332 -0.193186 -1.32723
  265 -0.360697 0.0236350 1.38820
  266 15.1469 -0.392305 -5.61632
  267 15.0542 -0.328408 5.57307
  268 36.1635 -0.281693 0.518251
  269 36.1593 -0.284833 -0.526473
  270 57.1753 -0.636484 3.50332
  271 66.2772 13.9462 1.63825
  272 60.8539 -5.61699 -1.12755
  273 61.6949 7.35975 -5.85815
  274 59.9618 -3.10001 -5.23966
  275 65.9362 -3.80835 1.38966
  276 21.7378 -0.499958 5.31082
  277 21.5668 -0.532037 -5.23347
  278 60.6122 -5.70112 -0.197388
  279 52.5014 -5.90335 7.21016
  280 55.6117 -0.812435 0.195649
  281 55.6760 -0.772667 -0.186735
  282 62.9122 -0.206083 -0.253969
  283 62.9220 -0.249687 0.266390
  284 28.1990 7.79740 18.0838
  285 64.5748 5.21364 -6.84289
  286 57.8331 -4.89140 1.83132
  287 73.6250 15.3540 2.52506
  288 51.9804 0.503039 -3.86472
  289 50.8958 -1.52649 0.00797034
  290 71.0550 11.3663 -4.90679
  291 58.5051 -1.14436 14.8033
  292 61.3280 10.9831 0.0290750
  293 52.4793 -5.60315 -7.54498
  294 55.9291 -6.34556 2.89178
  295 53.0369 -5.26545 1.46042
  296 83.1016 17.1451 0.980986
  297 49.9458 -3.45854 1.16526
  298 62.3362 -0.409586 -1.12964
  299 58.1772 -2.93094 -3.36371
  300 100.660 27.5182 11.3406
  301 64.1837 0.0934266 6.32144
  302 60.8259 -0.419517 -1.78731
  303 63.0958 8.60019 5.35687
  304 69.7345 -0.449123 -11.3149
  305 60.7028 1.79775 7.04712
  306 1.80064 1.92946 0.752193
  307 35.4923 -2.68934 7.52305
  308 58.0586 -0.967464 0.797622
  309 57.8297 -1.09268 -0.869769
  310 56.5653 5.91235 -3.01921
  311 34.0268 -2.32148 -7.27893
  312 36.7529 -2.88341 -10.3554
  313 59.3334 -1.30989 1.79957
  314 55.7413 -3.20605 1.51092
  315 57.8036 -0.285018 6.40872
  316 88.8651 15.6469 -18.7787
  317 58.6519 -2.02773 4.55291
  318 58.7066 -1.49525 -1.84197
  319 62.2954 -0.336640 1.13082
  320 34.8146 -0.412383 1.20147
  321 34.8498 -0.454863 -1.22064
  322 9.56446 6.08221 -7.38076
  323 48.0658 1.42975 -0.824135
  324 59.0765 -1.74202 3.13744
  325 81.1174 14.3572 1.03002
  326 58.3766 7.33997 3.60253
  327 31.4088 6.05690 -18.1672
  328 35.8848 -2.15879 10.4363
  329 54.2360 3.19321 -3.92323
  330 60.6409 -0.494567 1.95172
  331 58.2692 -1.54054 -5.25855
  332 1.32830 0.581083 0.137751
  333 10.4596 5.25386 6.81868
  334 43.4020 -4.61336 7.33585
  335 -0.582859 1.00227 0.470555
  336 -0.455792 1.09609 -0.441543
  337 65.7865 23.8728 30.4502
  338 58.0020 -1.34554 5.26647
  339 125.384 13.3274 -16.0523
  340 56.4262 3.30879 5.46360
  341 68.3430 7.04965 5.72774
  342 48.3410 -1.60222 0.457127
  343 49.0801 0.826912 2.38845
  344 44.3757 -4.93255 -6.91369
  345 56.1813 -2.70096 -1.60609
  346 50.7852 -2.84656 0.373019
  347 59.0326 -1.63586 -3.21476
  348 57.1565 -6.25615 -4.10743
  349 67.3345 -3.69259 -1.72076
  350 53.1464 3.99196 1.08117
  351 60.4083 -5.13316 2.54605
  352 77.4167 5.34183 -0.319309
  353 32.6372 -1.68732 5.45520
  354 53.9515 -2.05923 0.627997
  355 52.3642 -5.78322 -3.55193
  356 88.0137 21.1731 3.54570
  357 63.9146 10.7688 -4.38110
  358 40.3655 -0.913508 1.26822
  359 40.4508 -0.987614 -1.29403
  360 32.3874 -1.62942 -5.54587
  361 21.2974 17.5561 -20.9735
  362 49.0225 -0.933292 -0.142902
  363 49.1861 -0.986723 0.0989033
  364 30.2330 -0.343653 -1.92430
  365 30.2269 -0.351384 1.94580
  366 116.598 4.44062 -2.36333
  367 118.095 8.02965 7.59635
  368 52.7078 -4.28399 -0.515826
  369 72.5667 1.89454 15.3636
  370 24.8893 -0.0392295 9.62004
  371 24.9110 -0.207042 -9.67603
  372 53.1817 -3.34284 11.9606
  373 52.6205 0.398142 3.98478
  374 55.4776 0.607949 5.63940
  375 51.2860 -5.94012 4.31622
  376 14.4116 3.16063 -8.16547
  377 14.2102 2.57083 7.85431
  378 6.26450 0.524961 -3.35337
  379 6.30639 0.446553 3.38895
  380 56.6361 -5.04697 -8.74986
  381 40.3131 -0.384187 -0.323004
  382 40.3133 -0.378984 0.321272
  383 83.9909 16.2970 -0.0957822
  384 50.5629 -2.76697 -0.415956
  385 54.3375 -1.43060 -15.2058
  386 57.2782 -5.26182 -1.02815
  387 79.6429 14.3075 -1.67591
  388 69.4294 5.99413 -5.86055
  389 59.1850 -3.28993 4.65910
  390 37.5596 -1.00095 -2.04455
  391 37.4220 -0.906216 1.94314
  392 50.8569 -1.30516 -0.0156039
  393 47.3606 -1.64149 -0.681686
  394 36.4175 -2.25016 4.95317
  395 36.3741 -2.24104 -5.04670
  396 4.40210 6.34430 -5.22547
  397 58.3110 2.72132 -6.42438
  398 44.5503 -3.17821 3.00608
  399 74.5771 4.64103 -16.4600
  400 57.3554 -3.76969 2.45568
  401 7.47025 8.67254 9.11997
  402 57.2993 -0.510929 -6.06891
  403 35.2283 -0.251072 0.698156
  404 35.2155 -0.239976 -0.701579
  405 60.0903 -0.421476 0.217990
  406 60.0673 -0.390111 -0.199977
  407 61.6937 -3.77486 4.36541
  408 27.8557 -1.59938 -7.42226
  409 62.4053 -0.294206 -1.18623
  410 28.3110 -1.65521 7.47452
  411 72.1064 1.41293 -2.34809
  412 60.2216 -2.86208 5.49111
  413 52.9842 -3.51638 0.197780
  414 95.9814 20.7840 -7.86495
  415 58.7063 -2.18612 3.81988
  416 95.7052 17.6505 5.50599
  417 70.4431 15.1057 2.05728
  418 25.6178 -0.585931 -3.38852
  419 25.6416 -0.561553 3.44784
  420 9.84623 -0.0655095 -3.94950
  421 9.70991 -0.0626900 3.86464
  422 58.8233 -0.470147 -2.65932
  423 124.157 17.3669 16.1640
  424 30.6189 2.20555 14.3259
  425 37.8534 -1.86164 -3.38452
  426 37.7889 -1.85729 3.42346
  427 41.9918 -3.65692 5.01288
  428 35.4498 10.2673 -23.8859
  429 69.7962 15.4417 -1.09159
  430 42.2203 -3.60601 -5.07799
  431 64.1082 -0.212828 -0.505087
  432 65.1992 11.9407 3.86296
  433 67.8960 13.6877 -3.14462
  434 45.3105 -3.37038 -2.99783
  435 88.2709 20.1210 -2.85707
  436 46.9244 -4.92375 9.38301
  437 75.5093 1.04725 -2.67036
  438 50.0552 -3.38072 -13.0476
  439 55.0066 0.744222 -5.53147
  440 51.7519 -5.23262 -2.35501
  441 105.673 9.93874 -1.89947
  442 103.976 12.4419 6.25874
  443 58.4339 -4.10393 3.15742
  444 -0.374454 0.933818 -0.696438
  445 -0.228016 0.997150 0.691334
  446 76.6644 15.4224 2.30922
  447 55.6663 -0.236491 3.19241
  448 50.7787 -4.42542 1.54774
  449 40.1393 -1.44545 13.7228
  450 0.184462 -1.40388 -1.16339
  451 44.3752 -4.02322 -9.98812
  452 56.9370 -4.48909 -1.81073
  453 56.4624 -0.967415 0.575725
  454 56.4568 -0.915365 -0.471058
  455 23.2726 2.36206 -11.8416
  456 58.7708 -0.386726 2.50508
  457 7.64796 3.75638 -4.62685
  458 2.57001 2.30690 2.41972
  459 21.0278 -0.174215 -3.07205
  460 20.9596 -0.140971 3.07864
  461 133.204 30.1090 -24.6273
  462 55.1356 -0.161020 -3.29556
  463 57.5228 -1.54801 -1.35834
  464 55.7151 -2.40005 1.28762
  465 52.9562 2.10467 4.07718
  466 59.8718 -0.179278 6.87817
  467 53.0733 -0.906938 0.102070
  468 53.3030 -0.887995 -0.133870
  469 19.8395 1.56187 9.41997
  470 43.9023 -1.52771 1.25151
  471 71.1978 3.60617 4.25123
  472 67.2781 -3.97502 4.29027
  473 77.2018 16.7804 -0.265898
  474 64.2622 -0.136437 0.499150
  475 53.9492 -2.75650 -0.667501
  476 46.1003 -0.814414 -0.180137
  477 46.0700 -0.786311 0.162586
  478 16.3441 7.61394 12.0449
  479 54.1934 -1.98786 -0.618215
  480 6.93951 3.98426 4.14695
  481 16.2248 7.87670 -11.8735
  482 58.5196 8.37372 -0.995471
  483 47.8340 -2.78554 -1.30762
  484 43.1555 -0.943397 -0.665469
  485 43.1907 -0.914847 0.679148
  486 62.6971 -5.35102 0.184175
  487 62.5059 -0.382427 1.16784
  488 81.9139 5.26905 6.25711
  489 60.5798 7.33527 5.13280
  490 48.6131 -3.81825 -1.86652
  491 59.5828 9.49977 1.43097
  492 0.728374 -2.28296 0.0139675
  493 17.4695 17.5550 19.9776
  494 61.3766 5.08938 6.44444
  495 44.2276 -1.52930 -1.13219
  496 52.2532 0.0895752 -2.75422
  497 42.6731 3.36203 18.7672
  498 54.8955 -4.17812 -0.781822
  499 64.3056 -5.29046 2.93864
  500 59.9328 -1.07055 -1.83947
  501 95.6054 14.7236 -2.16114
  502 14.7775 -0.0172556 -3.59509
  503 14.8068 0.0123190 3.65332
  504 60.5070 -0.517288 -0.788288
  505 60.2544 -0.566060 0.818310
  506 33.6075 -2.27299 9.09498
  507 41.7345 -1.87365 -2.25318
  508 40.3040 -1.05522 -13.7455
  509 34.7332 -2.73462 -8.73356
  510 31.4116 -0.275817 -1.32305
  511 31.4005 -0.284637 1.31144
  512 58.4567 -5.45347 1.33331
  513 42.5447 -2.18127 2.46420
  514 61.8241 0.736129 -7.01871
  515 44.8012 -2.25790 1.75237
  516 47.9751 -5.05722 5.54878
  517 75.6267 5.65176 1.69409
  518 27.5555 -0.118997 -1.92110
  519 27.5663 -0.126849 1.94982
  520 74.8844 15.9256 -2.31963
  521 65.8008 -0.560023 -5.33322
  522 65.8690 -1.05653 4.81595
  523 59.1785 -3.21008 -4.63199
  524 45.6944 -3.99172 3.77600
  525 120.767 6.87891 -8.05954
  526 65.3428 -4.41928 -0.616529
  527 47.9696 0.470973 -2.16233
  528 49.2566 -2.07299 0.416921
  529 59.3337 6.92802 -4.74546
  530 102.053 28.0958 18.0590
  531 58.2113 -1.29111 1.35095
  532 53.4727 -1.14053 0.200205
  533 54.0512 -1.01038 -0.255313
  534 60.9594 -4.76033 -2.99840
  535 47.5773 -2.87433 1.39819
  536 35.2900 -0.00266810 -0.309566
  537 35.2932 -0.00153905 0.304455
  538 48.2099 -5.23424 -5.36292
  539 62.0131 10.7766 -2.35969
  540 58.7359 -1.71452 -2.39243
  541 48.7777 0.398504 2.53443
  542 58.6709 -2.24615 -3.97334
  543 35.6072 -0.00932517 -0.0602526
  544 35.6063 -0.00793087 0.0584073
  545 68.8931 -2.92939 -4.97568
  546 46.3153 -4.24541 -3.82375
  547 68.1241 -1.06900 -3.47420
  548 63.0911 -4.03689 9.14611
  549 60.5114 -0.907651 1.65225
  550 64.6637 -0.171391 0.270066
  551 64.6554 -0.147549 -0.242246
  552 57.1418 -6.20969 -2.30772
  553 59.0469 -6.00182 5.57251
  554 32.4402 -0.193541 -0.858900
  555 32.4203 -0.191758 0.850624
  556 53.5425 -5.25892 8.90542
  557 59.8546 4.84167 -6.17201
  558 46.0254 -4.82011 -8.06177
  559 59.1073 3.37443 6.65390
  560 57.1688 -6.30857 4.32295
  561 44.9144 0.487511 0.913801
  562 50.1190 -1.28457 0.102273
  563 62.2805 -1.50063 -6.18218
  564 77.9862 16.8746 0.392102
  565 63.7398 -2.35557 -5.12561
  566 47.7645 -3.58509 2.11313
  567 38.0213 -0.491250 0.911601
  568 38.0291 -0.498373 -0.926505
  569 56.3271 -1.50275 0.793856
  570 44.7212 -2.16884 -1.70497
  571 58.1172 -0.982780 4.20326
  572 62.7459 -4.35177 -3.19023
  573 52.6427 -1.56463 0.209929
  574 97.9415 28.6874 -12.2976
  575 52.1552 1.18672 -3.88325
  576 80.5243 17.5373 -0.183679
  577 45.4834 0.400653 -1.41909
  578 57.5434 -1.98575 1.74513
  579 16.4882 10.5756 15.4050
  580 55.7062 5.24973 2.84653
  581 30.7583 2.48980 -14.5463
  582 62.7595 -5.24994 -0.957537
  583 57.1282 -0.645457 -4.98879
  584 64.3272 7.97205 -6.13544
  585 -0.496193 -0.575843 -1.03066
  586 -0.634639 -0.526807 1.05828
  587 38.4482 -0.336698 -0.518417
  588 38.4479 -0.332178 0.512975
  589 60.5720 -3.91380 -4.37163
  590 60.9929 -2.56391 -5.73975
  591 5.54020 5.22573 4.44798
  592 56.5940 4.89428 4.35468
  593 51.5936 -2.44249 0.0376568
  594 50.9669 -0.881208 -0.0606707
  595 50.8261 -0.871347 0.0132803
  596 51.6772 2.32590 2.68689
  597 120.046 2.73586 1.79432
  598 41.9703 -2.52301 -3.09375
  599 44.3935 0.608112 0.203925
  600 59.8131 1.01773 -7.04419
  601 46.7728 -5.32822 8.20170
  602 0.866026 0.634175 1.81748
  603 0.688108 0.529856 -1.70046
  604 63.2129 2.86591 -7.05138
  605 55.1928 5.75014 -0.770917
  606 59.3835 -4.11507 -3.93670
  607 33.8214 -0.777104 -2.57168
  608 33.7558 -0.834010 2.57149
  609 61.5405 -0.284622 0.447023
  610 61.5154 -0.285923 -0.464146
  611 59.2296 -0.559472 -6.74905
  612 58.0050 -2.69368 2.95736
  613 41.1885 -2.41292 3.26850
  614 3.13349 2.63421 -1.69646
  615 61.9434 32.5799 -35.3776
  616 59.8387 -1.03001 2.78866
  617 59.5407 -0.966840 -2.95023
  618 47.3557 2.33783 -18.7820
  619 56.0691 -1.59707 -0.949510
  620 50.0591 -4.77099 2.68490
  621 64.9457 13.4329 -0.0800022
  622 21.4689 -0.862437 -6.75992
  623 21.6755 -0.857463 6.81302
  624 71.4998 12.0097 4.42019
  625 57.6678 -3.70864 -2.83530
  626 50.5503 2.73778 -0.000919765
  627 56.0248 -5.37244 0.00740544
  628 30.5215 -0.872376 3.21802
  629 30.4977 -0.866317 -3.17561
  630 39.8978 -1.08437 -1.70864
  631 37.7555 -0.146301 -0.251342
  632 37.7556 -0.142770 0.249383
  633 57.3368 -2.08860 -1.75862
  634 65.0680 -0.0519165 -0.127504
  635 65.0434 -0.0679219 0.159349
  636 75.5102 14.2724 -3.35967
  637 35.7108 10.8294 22.3924
  638 69.2911 -0.900679 2.88466
  639 30.1483 4.94299 16.1135
  640 12.8981 3.82171 7.56300
  641 70.6511 3.11200 -4.78349
  642 59.1808 -5.54878 -1.22514
  643 41.0553 -0.606827 -0.564402
  644 41.0688 -0.598381 0.565996
  645 57.2668 -0.535443 -0.129790
  646 57.3166 -0.552014 0.141424
  647 44.3825 -4.57362 -5.91163
  648 20.0350 1.14400 -9.53393
  649 33.1046 -0.198407 0.532928
  650 33.0943 -0.208733 -0.523846
  651 139.158 36.3052 28.0931
  652 66.9733 7.64345 -6.33241
  653 59.7968 -1.88399 -6.20546
  654 59.0803 -2.12770 -5.64426
  655 62.3510 5.16581 -6.80935
  656 36.6417 -1.02055 -2.58688
  657 36.4886 -1.08507 2.52552
  658 55.5364 -4.85389 0.575284
  659 0.343604 -1.64835 1.22347
  660 62.2825 -0.0731399 6.79106
  661 3.46466 2.48047 1.77417
  662 54.9590 1.52055 5.32511
  663 8.80059 8.43145 -7.89221
  664 51.1129 2.08254 -2.74725
  665 61.9961 -0.371205 0.912036
  666 51.1435 -4.61290 -1.67585
  667 58.0843 -1.04772 -4.39702
  668 16.7480 -0.110162 2.65090
  669 16.8126 -0.0927357 -2.66296
  670 70.6332 14.0740 -3.54144
  671 31.5508 -1.53310 -11.1136
  672 57.1744 -3.10859 -2.35481
  673 49.5943 -2.12587 -0.486557
  674 61.8958 -0.469456 -0.888095
  675 65.7012 9.43163 5.51537
  676 10.3644 2.23784 -5.71780
  677 10.0869 1.51351 5.65694
  678 59.4508 -1.42766 6.41818
  679 52.3252 -3.99071 0.405497
  680 58.5884 -3.07832 -3.96797
  681 87.3888 21.6358 -4.11922
  682 68.9690 15.1241 0.682084
  683 50.2591 -1.78947 0.154282
  684 65.9459 2.52289 6.55049
  685 59.6711 -6.20821 1.28672
  686 39.3353 -1.03645 1.72138
  687 53.2877 -5.76370 2.52078
  688 62.7577 -0.205667 -0.00419280
  689 62.7497 -0.231748 0.0109869
  690 87.8360 19.4979 4.00398
  691 32.6856 -1.38500 4.35365
  692 4.45338 4.67948 -3.08920
  693 -1.46048 0.0121198 1.23544
  694 -1.29872 0.0370676 -1.27323
  695 28.3939 -1.15467 4.78284
  696 13.9525 5.53118 -8.78593
  697 1.04107 -0.985889 -1.17506
  698 56.9896 -4.56085 1.79629
  699 39.0951 -2.27090 -12.1407
  700 44.0955 -4.55020 5.82464
  701 55.2214 -3.46421 -1.17118
  702 0.717291 -2.15683 -0.641162
  703 66.0355 3.17500 -6.56840
  704 59.3338 -5.78856 0.497053
  705 58.3900 -4.76458 -2.60869
  706 56.4961 1.67943 -6.05348
  707 32.6163 -1.39026 -4.35997
  708 5.58343 8.27126 -8.42066
  709 56.2155 3.08809 -5.61125
  710 -0.121965 -1.56047 -1.22482
  711 52.6436 0.0244835 2.62174
  712 28.2851 -1.10951 -4.72909
  713 37.3638 -2.02788 12.0516
  714 52.4395 -1.76415 -0.191416
  715 42.5802 -1.01445 -0.888214
  716 30.8790 -1.17214 10.9284
  717 17.5682 0.225442 -7.43383
  718 17.2940 0.176639 7.27042
  719 42.4266 -0.965503 0.923092
  720 9.52975 0.217327 -3.01703
  721 9.59030 0.235978 2.99809
  722 46.4446 -1.78988 0.922321
  723 56.5868 -0.0741889 -2.26157
  724 68.4156 6.46411 23.7775
  725 45.2033 -0.898689 -0.453460
  726 45.1743 -0.922165 0.435101
  727 58.5874 -1.68288 -4.67887
  728 43.6576 -0.614970 -0.269783
  729 43.6450 -0.593878 0.260924
  730 57.0799 -0.611874 4.46856
  731 58.7727 -6.16036 0.423325
  732 46.2987 -1.25426 0.538995
  733 3.59093 -0.112695 -1.96819
  734 3.62763 -0.170299 1.93798
  735 46.2064 -1.12418 -0.506147
  736 0.905436 1.03695 -0.649074
  737 63.5947 -4.72445 -6.04293
  738 72.0775 -1.12148 1.28780
  739 21.1118 3.24094 11.0899
  740 34.4342 -0.0152560 0.344939
  741 34.4254 -0.0115704 -0.350349
  742 55.1121 -5.62887 0.783724
  743 109.411 15.5023 -12.4789
  744 49.3103 0.0962219 -2.11026
  745 49.3798 -1.18503 -0.153425
  746 45.4241 15.5300 27.6079
  747 63.1758 2.50042 7.03645
  748 56.7754 -0.104651 2.19185
  749 65.2564 -0.105788 -0.300225
  750 65.3319 -0.144604 0.299731
  751 90.4187 17.5526 -3.49671
  752 62.9419 11.5106 1.80151
  753 48.6829 -1.47125 -0.316846
  754 63.4342 -0.236912 0.877737
  755 38.6992 -2.34958 -4.29936
  756 57.7787 -0.601765 0.399939
  757 57.7520 -0.596946 -0.360619
  758 42.0328 -3.41882 10.8169
  759 59.6781 -6.31717 -1.98524
  760 58.8481 -2.37262 5.04068
  761 38.6253 -2.31078 4.26410
  762 61.1903 8.88268 -4.28445
  763 49.6873 0.379876 2.21483
  764 39.9856 -3.74561 -8.11563
  765 48.9966 -1.43033 0.271472
  766 58.1876 -1.08162 6.05756
  767 34.8684 0.0485231 -0.107275
  768 34.8691 0.0494101 0.104272
  769 0.924778 1.40111 0.495746
  770 40.1241 -1.43831 2.17285
  771 52.4090 -1.30823 -0.149495
  772 58.3105 -2.47348 -3.03098
  773 24.9982 -0.138023 1.97136
  774 25.0106 -0.142440 -1.93897
  775 63.3772 -1.89113 5.59501
  776 58.0798 -1.29305 -5.80036
  777 21.1237 -0.836602 -7.78003
  778 21.2020 -0.732435 7.71943
  779 61.5810 -5.04025 2.03816
  780 58.5038 -1.85113 2.42505
  781 91.6861 15.9979 6.76605
</Section>

newXOutput 5

<Section columns = "stress_xx | stress_yy | stress_xy">
  1 88.3912 0.118878 0.124674
  2 88.4337 0.105631 -0.118476
  3 46.3902 -0.0335340 -0.0961169
  4 -0.584058 -0.666390 -0.774054
  5 166.682 62.8535 53.1751
  6 156.363 56.4919 -44.1522
  7 -0.776264 -0.667697 0.884356
  8 46.3932 -0.0344895 0.0948284
  9 88.7073 -0.0526134 0.00545651
  10 88.6933 -0.291383 0.269661
  11 88.2732 -0.228529 0.203114
  12 86.4704 -0.241375 0.648297
  13 85.5298 -0.293959 0.737840
  14 83.5691 -0.404726 1.19349
  15 80.3153 -0.275138 1.77735
  16 76.5810 -0.118124 2.03708
  17 72.3403 0.109122 2.35002
  18 66.2491 0.291186 1.91192
  19 62.4508 0.665664 2.23402
  20 59.5877 0.467859 1.67838
  21 55.9653 0.646320 0.470023
  22 56.9287 0.937457 -0.627942
  23 58.2278 0.462630 -1.16928
  24 62.2411 0.449376 -1.95628
  25 65.9898 0.194026 -2.15376
  26 72.3015 0.118483 -2.44299
  27 76.4811 -0.206700 -2.18957
  28 80.6578 -0.315377 -1.80376
  29 83.5342 -0.255027 -1.30975
  30 85.0590 -0.252804 -1.10475
  31 86.6918 -0.382710 -0.475054
  32 88.2815 -0.189857 -0.112486
  33 88.7211 -0.239784 -0.239174
  34 88.7590 -0.0784605 0.0122104
  35 85.3245 -0.102538 -0.178844
  36 81.4037 -0.356551 -0.207754
  37 77.8133 -0.747392 -0.291158
  38 73.6415 -0.986994 -0.341718
  39 69.4625 -1.15028 -0.261889
  40 64.7454 -1.09429 -0.128551
  41 60.1756 -0.922176 -0.0772976
  42 56.0462 -0.724999 0.0216692
  43 52.3603 -0.359123 0.0994323
  44 48.8362 -0.133038 -0.0177663
  45 45.3469 0.141182 -0.0110106
  46 45.1778 0.118035 0.206009
  47 44.8528 0.0214827 0.117736
  48 44.0912 -0.0977515 0.376049
  49 42.3958 -0.00617030 0.544410
  50 40.9495 -0.131514 0.819544
  51 39.1454 -0.104301 1.18576
  52 35.9639 -0.00817403 1.26433
  53 32.2953 0.0255381 1.46772
  54 28.8201 -0.0639809 2.30337
  55 22.0659 0.159390 2.12983
  56 17.4850 0.182626 2.49960
  57 11.2202 0.255543 2.20827
  58 5.58802 0.111785 2.39007
  59 -0.0100785 0.711746 2.37734
  60 -3.68602 0.835925 1.15817
  61 -4.79503 0.791476 -0.180243
  62 -3.83230 0.577703 -1.43965
  63 -2.20636 -0.220410 -1.21092
  64 -0.255575 -2.22354 -1.13476
  65 0.100893 -4.32358 -1.56110
  66 0.517841 -7.10607 -1.00372
  67 1.78642 -7.47331 -0.145443
  68 3.07778 -1.61694 3.39375
  69 9.45050 12.0763 13.0400
  70 43.4659 43.4913 43.0080
  71 215.495 22.8439 34.6681
  72 172.088 7.26152 11.4568
  73 163.874 4.01175 4.64382
  74 161.387 2.55247 -0.268352
  75 163.187 3.35764 -4.03416
  76 174.744 6.38566 -11.0582
  77 204.038 18.7384 -29.7104
  78 34.9386 49.9986 -41.1507
  79 7.66814 6.00153 -9.67320
  80 2.83969 -1.73602 -3.51483
  81 0.877425 -7.46992 -0.298325
  82 0.505694 -5.57637 0.817554
  83 0.589170 -5.43531 1.31354
  84 0.0411913 -2.03328 1.43124
  85 -2.36263 -0.188287 1.19754
  86 -4.01356 0.557904 1.40388
  87 -4.89398 0.783097 0.150802
  88 -3.76594 0.784659 -1.13898
  89 -0.147486 0.789955 -2.33628
  90 5.48595 0.135750 -2.42611
  91 11.1748 0.240378 -2.24729
  92 17.5466 0.180206 -2.51827
  93 22.1560 0.154951 -2.14822
  94 28.9154 -0.0851808 -2.28066
  95 32.3379 0.0250085 -1.43767
  96 35.9549 0.00743152 -1.24814
  97 39.1489 -0.100496 -1.19393
  98 40.9402 -0.133121 -0.818094
  99 42.3912 -0.00712928 -0.545808
  100 44.0743 -0.0951544 -0.373772
  101 44.8394 0.0222350 -0.122168
  102 45.1735 0.117270 -0.210114
  103 45.3480 0.140130 0.00864006
  104 48.8367 -0.136457 0.0161380
  105 52.3595 -0.365739 -0.101613
  106 56.0437 -0.734886 -0.0196720
  107 60.2242 -0.946625 0.0897869
  108 64.7897 -1.10358 0.115695
  109 69.3182 -1.15337 0.252066
  110 73.5817 -0.938898 0.314951
  111 77.8299 -0.782669 0.291619
  112 81.4002 -0.387831 0.206377
  113 85.2953 -0.133856 0.192466
  114 74.7134 -7.87887 -1.54395
  115 75.5768 -7.85528 0.888582
  116 79.1582 11.3329 -4.30679
  117 63.6227 -5.23921 -15.0386
  118 61.6523 -4.84384 15.3715
  119 85.9935 8.17364 8.66168
  120 90.6919 2.43086 -7.34486
  121 63.1561 -2.84660 -1.40637
  122 62.8073 -3.01087 1.45912
  123 98.5698 22.0898 0.393861
  124 75.9201 -3.44950 2.70219
  125 76.5528 -3.25319 -3.01967
  126 78.1672 -1.69948 -8.30109
  127 52.4789 -4.45181 8.27647
  128 52.4230 -4.47891 -8.68783
  129 78.6466 -2.71776 7.56211
  130 107.439 24.1561 -0.143334
  131 27.5143 6.68309 -16.1987
  132 26.6084 6.77597 15.9248
  133 95.8407 0.000866251 0.480691
  134 111.419 25.3270 -2.24712
  135 72.2808 4.90453 4.65954
  136 72.4254 -1.96818 0.612019
  137 72.8473 -1.82323 -0.659103
  138 95.7183 -1.49237 9.34306
  139 52.1189 -2.29456 -3.72202
  140 52.1205 -2.28529 3.55626
  141 73.0815 4.51570 -26.5337
  142 128.229 17.9311 2.37324
  143 73.1059 2.54933 -7.01308
  144 53.9418 -0.815098 -0.984591
  145 53.9307 -0.811884 0.991620
  146 63.6148 -5.36196 3.50800
  147 64.9487 -5.60858 -3.43935
  148 37.2926 -2.28663 -12.0238
  149 37.1321 -1.80427 12.1929
  150 81.7149 12.6054 4.76099
  151 82.2198 -7.83681 2.81579
  152 82.4969 -4.52986 -6.26980
  153 85.1229 -4.97699 4.46560
  154 77.8333 -5.28949 -4.47836
  155 80.9793 3.87121 -9.29341
  156 73.9425 5.72208 29.0812
  157 4.87989 4.30619 2.27397
  158 4.19086 3.60801 -1.68522
  159 70.2593 4.37832 -1.86322
  160 76.9681 1.71865 8.58398
  161 80.2539 -0.996772 1.65785
  162 79.5351 -1.17486 -1.68342
  163 73.6326 -5.51785 1.28015
  164 78.2672 -1.79367 -5.02836
  165 89.4608 14.9265 -6.57870
  166 71.0286 -4.66739 -0.430921
  167 67.8613 -7.70969 7.64517
  168 63.0805 -1.53465 -0.359216
  169 63.1644 -1.52099 0.377251
  170 78.6754 -1.65270 4.69702
  171 68.3604 -7.66410 -7.31077
  172 81.3930 -7.55908 -4.88759
  173 91.2369 16.3439 5.94985
  174 71.2888 -3.82787 0.717404
  175 109.760 12.1505 -6.50743
  176 17.9996 1.35258 -9.17115
  177 17.4783 1.25417 8.92367
  178 135.459 25.7928 13.2908
  179 113.969 20.2406 2.22193
  180 140.403 16.2304 -8.77778
  181 78.6591 -0.926519 0.669645
  182 78.5597 -0.903060 -0.674250
  183 45.9412 -1.54710 -4.72218
  184 45.9453 -1.56685 4.73815
  185 36.7551 -1.40901 -7.47188
  186 37.0413 -1.41676 7.59534
  187 22.6281 16.0233 -20.3110
  188 74.6183 -0.412766 6.63928
  189 79.5031 -5.79222 4.65386
  190 49.9982 -0.703764 -1.62159
  191 49.8937 -0.743422 1.64305
  192 10.9931 10.9660 11.3412
  193 72.9336 0.112234 -6.36321
  194 77.9726 -4.03059 5.22197
  195 69.5767 1.06162 5.52990
  196 81.2617 -4.94697 -13.7166
  197 80.4326 -1.20802 -2.91453
  198 72.6009 -6.44579 0.101617
  199 86.8723 17.6506 -2.98765
  200 81.4593 -2.43133 8.24756
  201 54.1400 -4.99945 -12.2141
  202 39.7232 0.00229641 -16.1020
  203 38.7772 0.251695 16.0986
  204 78.0892 6.61356 7.14711
  205 57.3707 0.197750 21.3190
  206 75.3311 8.48258 1.36237
  207 98.1988 11.1233 -5.52886
  208 80.6939 -1.18021 2.62048
  209 54.1528 -4.92177 12.3117
  210 68.9878 -3.03064 -0.0859962
  211 133.728 33.2604 -16.1772
  212 98.0489 12.7064 5.88175
  213 55.6794 -4.11750 -5.25151
  214 55.3591 -3.85381 5.19223
  215 7.69705 2.87123 -4.73167
  216 8.92788 2.93283 5.45866
  217 63.8177 -6.56782 5.79780
  218 67.4784 -2.48482 -0.231262
  219 68.0804 -1.38121 0.0682621
  220 68.8705 -1.37180 -0.0974353
  221 64.0061 -6.36268 -5.82958
  222 67.1709 -4.62371 -1.10984
  223 80.8384 -6.99817 9.85317
  224 97.2288 21.5045 -2.07371
  225 113.823 22.8136 -1.57221
  226 90.6258 2.60369 6.98278
  227 75.0334 -2.46253 1.74270
  228 55.5616 0.699625 -21.7075
  229 60.5018 -3.88742 2.91632
  230 74.2616 -2.84461 -1.53022
  231 91.0233 -4.06526 0.194702
  232 76.3299 6.06775 -6.84854
  233 86.3309 -4.44639 -4.41985
  234 65.0760 2.48041 1.32330
  235 56.1866 -1.98798 -2.24760
  236 84.9105 0.256794 -8.59675
  237 45.7372 -0.745122 -2.39764
  238 45.6879 -0.730037 2.32115
  239 49.2981 -0.114393 -0.286080
  240 49.2987 -0.110512 0.281075
  241 77.1315 0.850078 -8.79447
  242 55.7078 -1.97467 2.38409
  243 60.0083 -3.79371 -3.12406
  244 27.4998 19.8380 26.7111
  245 4.26395 5.05004 -3.28243
  246 149.176 11.2412 3.33322
  247 64.9865 1.06467 -2.94165
  248 75.1779 -5.07933 -2.40814
  249 79.1427 16.2782 -37.1931
  250 79.0496 -6.40974 -3.68335
  251 38.2637 -1.29871 -4.94870
  252 38.3233 -1.33699 4.99059
  253 78.2394 -3.18621 -6.40453
  254 80.8032 -1.08730 -8.87648
  255 57.4507 -0.924275 -0.399046
  256 57.4497 -0.929782 0.383240
  257 83.7338 -0.424167 -0.677470
  258 83.8159 -0.331268 0.667103
  259 76.1120 -0.652043 -4.87647
  260 111.825 10.8386 21.6972
  261 71.1986 -6.89407 -1.25091
  262 59.3048 -1.74037 -1.11661
  263 58.9989 -1.77345 1.18027
  264 -0.183411 -0.249690 -1.75755
  265 -0.471186 0.0375679 1.83866
  266 20.2388 -0.524825 -7.49141
  267 20.1152 -0.439711 7.43410
  268 48.2369 -0.372597 0.693904
  269 48.2312 -0.376747 -0.704807
  270 76.0915 -0.847304 4.62964
  271 88.1957 18.5424 2.15980
  272 80.9345 -7.47371 -1.43869
  273 82.1005 9.78981 -7.74433
  274 79.7671 -4.12697 -6.90806
  275 87.6717 -5.06605 1.77624
  276 29.0198 -0.666070 7.07843
  277 28.7924 -0.708790 -6.97524
  278 80.6107 -7.58561 -0.321828
  279 69.8427 -7.85533 9.63236
  280 73.9827 -1.08615 0.251672
  281 74.0679 -1.03347 -0.240070
  282 83.6322 -0.280258 -0.332278
  283 83.6452 -0.338011 0.348661
  284 37.5455 10.3779 24.1031
  285 85.9062 6.93311 -9.03583
  286 76.9332 -6.50810 2.38197
  287 97.9340 20.4131 3.30302
  288 69.2297 0.671714 -5.11644
  289 67.7414 -2.03160 0.0285368
  290 94.5092 15.1163 -6.45300
  291 77.7763 -1.51204 19.7364
  292 81.6281 14.6097 0.0385815
  293 69.8117 -7.45632 -10.0782
  294 74.3980 -8.44190 3.89406
  295 70.5701 -7.00342 1.98403
  296 110.502 22.7843 1.33652
  297 66.4783 -4.59858 1.58107
  298 82.8861 -0.548581 -1.48504
  299 77.3940 -3.90169 -4.42469
  300 133.733 36.5996 15.1521
  301 85.3716 0.120988 8.33728
  302 80.9055 -0.559937 -2.35710
  303 83.9593 11.4385 7.07734
  304 92.6658 -0.576796 -15.1115
  305 80.7700 2.39002 9.31523
  306 2.41245 2.59499 1.02963
  307 47.2851 -3.57951 10.0288
  308 77.2225 -1.29272 1.04097
  309 76.9202 -1.45890 -1.13547
  310 75.3065 7.87071 -3.99593
  311 45.3411 -3.08986 -9.70279
  312 48.9427 -3.84217 -13.8049
  313 78.9161 -1.74705 2.36278
  314 74.1610 -4.26624 1.96804
  315 76.9261 -0.379973 8.47360
  316 117.951 20.9015 -25.0621
  317 78.0331 -2.69988 6.00700
  318 78.0864 -1.99337 -2.41786
  319 82.8312 -0.452470 1.48651
  320 46.4388 -0.546281 1.60359
  321 46.4853 -0.602672 -1.62906
  322 12.7698 8.10533 -9.86956
  323 64.0531 1.90841 -1.09194
  324 78.5864 -2.32134 4.13213
  325 107.835 19.1058 1.27396
  326 77.7068 9.76729 4.76647
  327 41.8101 8.05946 -24.2103
  328 47.7895 -2.87853 13.9120
  329 72.2178 4.25410 -5.19387
  330 80.6596 -0.660132 2.57360
  331 77.5321 -2.05153 -6.94504
  332 1.77929 0.797086 0.160427
  333 13.9621 7.00108 9.11857
  334 57.7806 -6.13892 9.78668
  335 -0.757678 1.33912 0.613114
  336 -0.589006 1.46421 -0.573845
  337 87.2996 31.8746 40.5281
  338 77.1801 -1.79208 6.95699
  339 166.406 17.6945 -21.2903
  340 75.1143 4.40477 7.23061
  341 90.9018 9.37673 7.54546
  342 64.3576 -2.13044 0.626457
  343 65.3947 1.10553 3.16365
  344 59.0731 -6.56300 -9.22618
  345 74.7435 -3.59500 -2.09748
  346 67.5927 -3.78538 0.526002
  347 78.5290 -2.17967 -4.23529
  348 76.0201 -8.32365 -5.51272
  349 89.5156 -4.90854 -2.35998
  350 70.7779 5.31860 1.43177
  351 80.3490 -6.83050 3.32492
  352 102.892 7.12305 -0.327384
  353 43.5083 -2.24406 7.27160
  354 71.7877 -2.74120 0.807923
  355 69.6723 -7.69319 -4.76590
  356 116.996 28.1590 4.79365
  357 85.0519 14.3215 -5.78599
  358 53.7952 -1.21222 1.69721
  359 53.9081 -1.31064 -1.73157
  360 43.1769 -2.16717 -7.39199
  361 28.3189 23.4542 -27.9489
  362 65.2618 -1.24251 -0.196870
  363 65.4784 -1.31349 0.138728
  364 40.3438 -0.456140 -2.56424
  365 40.3356 -0.466362 2.59283
  366 154.773 5.89721 -3.13446
  367 156.761 10.6618 10.0722
  368 70.1378 -5.69746 -0.724594
  369 96.4047 2.55539 20.4895
  370 33.1810 -0.0582116 12.8284
  371 33.2099 -0.281675 -12.9023
  372 70.7282 -4.44842 15.9518
  373 70.0759 0.531855 5.27463
  374 73.8527 0.810383 7.46213
  375 68.2415 -7.90203 5.78023
  376 19.2333 4.20365 -10.9027
  377 18.9672 3.41823 10.4873
  378 8.39910 0.697708 -4.48212
  379 8.45459 0.593329 4.52946
  380 75.3163 -6.71462 -11.6855
  381 53.7335 -0.508812 -0.432230
  382 53.7338 -0.501909 0.429940
  383 111.683 21.6517 -0.130028
  384 67.2985 -3.67939 -0.581761
  385 72.2483 -1.89794 -20.2674
  386 76.1961 -7.00033 -1.31475
  387 105.884 19.0376 -2.13298
  388 92.3357 7.97337 -7.71412
  389 78.7357 -4.37945 6.13905
  390 50.0700 -1.32850 -2.72992
  391 49.8882 -1.20235 2.59447
  392 67.6898 -1.73769 -0.0362987
  393 63.0589 -2.18228 -0.924432
  394 48.5311 -2.99137 6.60493
  395 48.4730 -2.97945 -6.72933
  396 5.88078 8.50359 -7.00269
  397 77.6070 3.62120 -8.49829
  398 59.3249 -4.22478 4.02170
  399 99.0564 6.21777 -21.9522
  400 76.3023 -5.01645 3.21673
  401 9.96365 11.6172 12.1919
  402 76.2579 -0.680235 -8.02472
  403 46.9939 -0.332259 0.932791
  404 46.9769 -0.317536 -0.937335
  405 79.9044 -0.567654 0.284251
  406 79.8740 -0.526114 -0.260386
  407 82.0586 -5.02465 5.74066
  408 37.1409 -2.13066 -9.89357
  409 82.9850 -0.393866 -1.56195
  410 37.7455 -2.20493 9.96346
  411 95.8577 1.88660 -3.03648
  412 80.1130 -3.81052 7.24157
  413 70.5059 -4.67719 0.226412
  414 127.554 27.6249 -10.4882
  415 78.0988 -2.91137 5.03376
  416 127.190 23.4509 7.33790
  417 93.7214 20.0817 2.70392
  418 34.1938 -0.778764 -4.51430
  419 34.2253 -0.746389 4.59322
  420 13.1791 -0.0894271 -5.27234
  421 12.9973 -0.0855182 5.15945
  422 78.2654 -0.627845 -3.51127
  423 164.795 23.0589 21.4454
  424 40.7752 2.92748 19.0970
  425 50.4471 -2.47337 -4.51616
  426 50.3618 -2.46764 4.56768
  427 55.9233 -4.86288 6.69042
  428 47.1564 13.6810 -31.8155
  429 92.8670 20.5270 -1.43702
  430 56.2253 -4.79528 -6.77747
  431 85.2197 -0.286068 -0.662211
  432 86.7584 15.8786 5.09891
  433 90.3390 18.1992 -4.14327
  434 60.3312 -4.48058 -4.01266
  435 117.316 26.7765 -3.90513
  436 62.4410 -6.55412 12.5167
  437 100.347 1.40962 -3.63659
  438 66.5793 -4.49969 -17.3959
  439 73.2307 0.992264 -7.31983
  440 68.8654 -6.95967 -3.17178
  441 140.358 13.1985 -2.52343
  442 138.122 16.5238 8.31820
  443 77.7335 -5.46147 4.14456
  444 -0.465685 1.24343 -0.941927
  445 -0.270842 1.32785 0.935224
  446 101.953 20.5103 2.99643
  447 74.1003 -0.314657 4.22132
  448 67.5795 -5.88506 2.09425
  449 53.4234 -1.93008 18.2908
  450 0.249829 -1.85459 -1.53747
  451 59.0591 -5.35721 -13.3199
  452 75.7458 -5.97267 -2.35817
  453 75.1096 -1.29222 0.749244
  454 75.1019 -1.22318 -0.611709
  455 31.0185 3.13615 -15.7936
  456 78.1971 -0.516521 3.30800
  457 10.2205 5.00500 -6.19520
  458 3.43383 3.11909 3.25645
  459 28.0896 -0.231434 -4.09377
  460 27.9987 -0.187159 4.10264
  461 176.733 40.0100 -32.6833
  462 73.3996 -0.214154 -4.35858
  463 76.5172 -2.06382 -1.77750
  464 74.1252 -3.19498 1.67721
  465 70.5225 2.80534 5.39875
  466 79.6629 -0.240555 9.08977
  467 70.6237 -1.21031 0.129168
  468 70.9278 -1.18531 -0.171450
  469 26.4609 2.07304 12.5677
  470 58.4778 -2.02936 1.67980
  471 94.6660 4.80053 5.56969
  472 89.4318 -5.28100 5.77345
  473 102.689 22.3009 -0.338363
  474 85.4227 -0.184954 0.654622
  475 71.7852 -3.66755 -0.854298
  476 61.3934 -1.08260 -0.244619
  477 61.3534 -1.04534 0.221270
  478 21.7900 10.1432 16.0774
  479 72.1080 -2.64649 -0.795178
  480 9.27688 5.30790 5.55501
  481 21.6342 10.4906 -15.8498
  482 77.9008 11.1431 -1.31675
  483 63.6814 -3.70286 -1.76499
  484 57.4933 -1.25250 -0.894317
  485 57.5399 -1.21463 0.912493
  486 83.3756 -7.11977 0.180396
  487 83.1190 -0.510088 1.53825
  488 108.822 7.05325 8.41958
  489 80.6243 9.75869 6.78736
  490 64.7109 -5.07646 -2.51276
  491 79.3110 12.6389 1.89248
  492 0.975521 -3.00421 -0.00350611
  493 23.2455 23.4708 26.6331
  494 81.6716 6.76916 8.51863
  495 58.9083 -2.03163 -1.52149
  496 69.5918 0.119821 -3.64515
  497 56.7657 4.47813 25.0041
  498 73.0388 -5.55784 -0.996801
  499 85.4972 -7.03569 3.97156
  500 79.7102 -1.42902 -2.41761
  501 127.054 19.5589 -2.88164
  502 19.7616 -0.0235361 -4.79326
  503 19.8003 0.0157865 4.87090
  504 80.4602 -0.694353 -1.03193
  505 80.1266 -0.759416 1.07099
  506 44.7743 -3.02827 12.1241
  507 55.5995 -2.48916 -3.01290
  508 53.6406 -1.41123 -18.3204
  509 46.2689 -3.64193 -11.6432
  510 41.9175 -0.365918 -1.76337
  511 41.9025 -0.377645 1.74801
  512 77.7587 -7.25591 1.71730
  513 56.6718 -2.89822 3.29533
  514 82.2504 0.976585 -9.27147
  515 59.6647 -3.00025 2.35029
  516 63.8502 -6.72761 7.41383
  517 100.531 7.53122 2.15965
  518 36.7832 -0.157397 -2.55935
  519 36.7974 -0.167849 2.59746
  520 99.6021 21.1729 -3.02467
  521 87.5095 -0.747125 -7.01848
  522 87.5970 -1.40767 6.33049
  523 78.7266 -4.27318 -6.10361
  524 60.8365 -5.30776 5.04985
  525 160.289 9.13562 -10.6889
  526 86.8826 -5.87854 -0.750637
  527 63.9265 0.629751 -2.86407
  528 65.5692 -2.75654 0.577622
  529 78.9731 9.21820 -6.27668
  530 135.468 37.4367 24.1303
  531 77.4277 -1.72258 1.76961
  532 71.1526 -1.52068 0.252135
  533 71.9184 -1.34828 -0.326220
  534 81.0800 -6.33488 -3.92513
  535 63.3411 -3.82098 1.88538
  536 47.0853 -0.00256450 -0.414023
  537 47.0896 -0.00106841 0.407252
  538 64.1618 -6.96294 -7.16767
  539 82.5354 14.3344 -3.11908
  540 78.1294 -2.28479 -3.14505
  541 64.9954 0.532727 3.35680
  542 78.0524 -2.99111 -5.23663
  543 47.5096 -0.0113020 -0.0811889
  544 47.5084 -0.00945123 0.0787466
  545 91.5701 -3.88742 -6.68817
  546 61.6587 -5.64537 -5.11465
  547 90.5800 -1.42140 -4.54217
  548 83.8710 -5.36252 12.2212
  549 80.4753 -1.21218 2.17125
  550 85.9454 -0.231380 0.353636
  551 85.9341 -0.199931 -0.316852
  552 76.0063 -8.26169 -3.12001
  553 78.5216 -7.98456 7.46320
  554 43.2902 -0.256422 -1.14534
  555 43.2639 -0.254088 1.13440
  556 71.2162 -6.99814 11.8884
  557 79.6566 6.44180 -8.16235
  558 61.2544 -6.41528 -10.7563
  559 78.6622 4.48912 8.80093
  560 76.0366 -8.39324 5.79939
  561 59.8835 0.652636 1.21077
  562 66.7131 -1.70973 0.149022
  563 82.8462 -1.99966 -8.15570
  564 103.727 22.4261 0.491844
  565 84.7743 -3.13662 -6.74699
  566 63.5865 -4.76600 2.83855
  567 50.6940 -0.650826 1.21898
  568 50.7042 -0.660260 -1.23875
  569 74.9324 -2.00336 1.03166
  570 59.5587 -2.88200 -2.28710
  571 77.3319 -1.30969 5.55110
  572 83.4486 -5.79145 -4.17625
  573 70.0543 -2.08322 0.259300
  574 130.103 38.1769 -16.4594
  575 69.4617 1.58424 -5.14195
  576 107.086 23.3097 -0.293789
  577 60.6366 0.536778 -1.88093
  578 76.5475 -2.64517 2.28630
  579 21.9765 14.0947 20.5531
  580 74.1681 6.99029 3.76825
  581 40.9608 3.30568 -19.3903
  582 83.4597 -6.98510 -1.20865
  583 76.0290 -0.859944 -6.59478
  584 85.5878 10.6024 -8.10298
  585 -0.658945 -0.765208 -1.37092
  586 -0.842608 -0.699051 1.40669
  587 51.2630 -0.445596 -0.694247
  588 51.2627 -0.439590 0.687036
  589 80.5715 -5.20939 -5.75154
  590 81.1364 -3.41408 -7.56999
  591 7.40311 6.97835 5.96461
  592 75.3415 6.51555 5.76307
  593 68.6647 -3.24898 0.0231227
  594 67.8359 -1.17476 -0.0754954
  595 67.6494 -1.16168 0.0127077
  596 68.8317 3.10154 3.55868
  597 159.319 3.63370 2.37693
  598 55.9063 -3.35286 -4.13367
  599 59.1939 0.813126 0.270534
  600 79.5889 1.35213 -9.31221
  601 62.2460 -7.09137 10.9436
  602 1.20065 0.843442 2.43408
  603 0.963922 0.704530 -2.27819
  604 84.0954 3.81000 -9.31330
  605 73.4894 7.65661 -1.02046
  606 78.9950 -5.47670 -5.17684
  607 45.1057 -1.03151 -3.42915
  608 45.0187 -1.10713 3.42889
  609 81.8228 -0.385203 0.584603
  610 81.7895 -0.386899 -0.607291
  611 78.8113 -0.746214 -8.92019
  612 77.1643 -3.58606 3.88768
  613 54.8700 -3.20658 4.36528
  614 4.20531 3.51140 -2.28410
  615 82.1724 43.4940 -47.0444
  616 79.5957 -1.37394 3.67506
  617 79.2057 -1.28973 -3.89040
  618 62.9776 3.10915 -25.0182
  619 74.5917 -2.12835 -1.23627
  620 66.6220 -6.34493 3.60656
  621 86.4302 17.8615 -0.105113
  622 28.6499 -1.15050 -9.01235
  623 28.9242 -1.14392 9.08326
  624 95.1004 15.9726 5.80750
  625 76.7173 -4.93560 -3.72059
  626 67.3413 3.65055 -0.00114762
  627 74.5325 -7.14672 -0.0391677
  628 40.7163 -1.15916 4.28823
  629 40.6849 -1.15110 -4.23189
  630 53.1713 -1.43936 -2.28451
  631 50.3506 -0.192641 -0.334854
  632 50.3507 -0.187955 0.332262
  633 76.2735 -2.78200 -2.30338
  634 86.4766 -0.0731261 -0.167326
  635 86.4443 -0.0943415 0.209382
  636 100.418 18.9813 -4.38668
  637 47.5122 14.4177 29.8259
  638 92.1254 -1.19610 3.75700
  639 40.1407 6.57451 21.4785
  640 17.2133 5.08663 10.1046
  641 93.9408 4.14124 -6.27695
  642 78.7172 -7.38276 -1.57194
  643 54.7142 -0.804594 -0.756543
  644 54.7321 -0.793373 0.758680
  645 76.1716 -0.719173 -0.167892
  646 76.2374 -0.741099 0.183319
  647 59.0866 -6.08416 -7.89133
  648 26.7210 1.51606 -12.7192
  649 44.1781 -0.262694 0.711513
  650 44.1643 -0.276388 -0.699448
  651 184.566 48.2528 37.2895
  652 89.0897 10.1651 -8.35314
  653 79.5557 -2.50926 -8.19333
  654 78.6038 -2.83332 -7.45088
  655 82.9615 6.87040 -8.99925
  656 48.8475 -1.35472 -3.45177
  657 48.6447 -1.44043 3.37007
  658 73.8870 -6.45693 0.718157
  659 0.462661 -2.18551 1.62054
  660 82.8545 -0.100319 8.96700
  661 4.64684 3.30664 2.38778
  662 73.1698 2.02629 7.04831
  663 11.7465 11.2463 -10.5545
  664 68.0847 2.77803 -3.63916
  665 82.4312 -0.499653 1.19670
  666 68.0621 -6.13469 -2.26560
  667 77.2883 -1.39584 -5.80759
  668 22.3946 -0.146811 3.53328
  669 22.4806 -0.123624 -3.54925
  670 93.9646 18.7134 -4.65523
  671 42.0306 -2.04732 -14.8150
  672 76.0616 -4.13738 -3.08690
  673 66.0166 -2.82702 -0.670357
  674 82.2983 -0.630097 -1.16454
  675 87.4120 12.5431 7.27858
  676 13.8517 2.97664 -7.63886
  677 13.4818 2.01176 7.55827
  678 79.0997 -1.90203 8.47815
  679 69.6315 -5.30727 0.576243
  680 77.9417 -4.09784 -5.22446
  681 116.168 28.7740 -5.55365
  682 91.7699 20.1054 0.897972
  683 66.8978 -2.38061 0.226064
  684 87.7122 3.35355 8.63941
  685 79.3606 -8.25958 1.76798
  686 52.4263 -1.37568 2.30070
  687 70.8997 -7.66677 3.39506
  688 83.4272 -0.279677 -0.00387016
  689 83.4167 -0.314153 0.0128434
  690 116.772 25.9140 5.37153
  691 43.5825 -1.84058 5.80267
  692 5.95559 6.24692 -4.14990
  693 -1.93920 0.0179892 1.64075
  694 -1.72339 0.0517870 -1.69123
  695 37.8768 -1.53596 6.37333
  696 18.6167 7.36469 -11.7365
  697 1.39485 -1.25456 -1.59425
  698 75.8157 -6.06822 2.33875
  699 52.0442 -3.02902 -16.1825
  700 58.7063 -6.05288 7.77508
  701 73.4714 -4.60922 -1.51697
  702 0.958692 -2.84099 -0.836310
  703 87.8332 4.22146 -8.66291
  704 78.9189 -7.70180 0.603462
  705 77.6738 -6.33982 -3.41400
  706 75.2034 2.23629 -8.01041
  707 43.4905 -1.84766 -5.81102
  708 7.44739 11.1060 -11.2608
  709 74.8354 4.11110 -7.42653
  710 -0.159668 -2.07292 -1.62673
  711 70.1082 0.0332732 3.46924
  712 37.7324 -1.47563 -6.30177
  713 49.7463 -2.70543 16.0650
  714 69.7853 -2.34834 -0.232801
  715 56.7295 -1.34669 -1.19259
  716 41.1383 -1.56687 14.5693
  717 23.4500 0.295731 -9.91689
  718 23.0849 0.230960 9.69997
  719 56.5262 -1.28171 1.23888
  720 12.7712 0.288573 -4.02541
  721 12.8515 0.313435 4.00028
  722 61.8456 -2.37883 1.24394
  723 75.3173 -0.0996279 -2.98936
  724 90.8746 8.64965 31.6596
  725 60.2050 -1.19397 -0.611784
  726 60.1667 -1.22516 0.587410
  727 77.9484 -2.24132 -6.17538
  728 58.1603 -0.816392 -0.361161
  729 58.1437 -0.788394 0.349389
  730 75.9646 -0.815522 5.90623
  731 78.1716 -8.19597 0.618147
  732 61.6540 -1.66707 0.730355
  733 4.84998 -0.150722 -2.63025
  734 4.89849 -0.227403 2.59002
  735 61.5320 -1.49410 -0.686158
  736 1.21939 1.39374 -0.844065
  737 84.5474 -6.28143 -8.09679
  738 95.8039 -1.48075 1.79436
  739 28.1438 4.30781 14.7944
  740 45.9486 -0.0192729 0.461284
  741 45.9370 -0.0143743 -0.468447
  742 73.3218 -7.48756 1.08927
  743 145.304 20.5943 -16.5790
  744 65.7013 0.129223 -2.79406
  745 65.7344 -1.57710 -0.215615
  746 60.3694 20.6920 36.7473
  747 84.0453 3.32334 9.29300
  748 75.5661 -0.140108 2.89680
  749 86.7307 -0.143280 -0.393354
  750 86.8301 -0.194537 0.392784
  751 120.192 23.3237 -4.68026
  752 83.7695 15.3096 2.38003
  753 64.8110 -1.95663 -0.436613
  754 84.3390 -0.317936 1.15461
  755 51.5620 -3.12269 -5.73515
  756 76.8494 -0.807158 0.521842
  757 76.8140 -0.800867 -0.469860
  758 55.9479 -4.55419 14.4210
  759 79.3680 -8.40485 -2.69763
  760 78.2928 -3.15903 6.65074
  761 51.4646 -3.07121 5.68814
  762 81.4383 11.8164 -5.66396
  763 66.2002 0.505630 2.93272
  764 53.2456 -4.98518 -10.8214
  765 65.2266 -1.90245 0.376857
  766 77.4288 -1.44078 8.00548
  767 46.5311 0.0649248 -0.144117
  768 46.5321 0.0661018 0.140141
  769 1.24546 1.87810 0.639582
  770 53.4673 -1.91015 2.90325
  771 69.7449 -1.74276 -0.182339
  772 77.5695 -3.29338 -3.98668
  773 33.3809 -0.182502 2.62651
  774 33.3976 -0.188344 -2.58347
  775 84.2958 -2.51926 7.37203
  776 77.2860 -1.72187 -7.66462
  777 28.1825 -1.11782 -10.3750
  778 28.2866 -0.979095 10.2947
  779 81.9011 -6.70683 2.64684
  780 77.8223 -2.46648 3.18747
  781 121.779 21.3330 9.12630
</Section>

newXOutput 6

<Section columns = "stress_xx | stress_yy | stress_xy">
  1 110.114 0.143274 0.154213
  2 110.167 0.126886 -0.146605
  3 58.0409 -0.0405455 -0.118668
  4 -0.729646 -0.832348 -0.967419
  5 207.067 78.4682 66.2001
  6 194.365 70.5546 -55.0017
  7 -0.969527 -0.833881 1.10535
  8 58.0446 -0.0417352 0.117070
  9 110.506 -0.0687454 0.00502172
  10 110.493 -0.364826 0.331796
  11 109.978 -0.286475 0.248203
  12 107.758 -0.303936 0.798115
  13 106.603 -0.367386 0.909801
  14 104.184 -0.505923 1.47406
  15 100.165 -0.345074 2.19986
  16 95.5483 -0.148866 2.52378
  17 90.2982 0.135039 2.91396
  18 82.7508 0.362971 2.37296
  19 78.0399 0.829968 2.77427
  20 74.4850 0.587001 2.08456
  21 69.9899 0.807497 0.584104
  22 71.1859 1.17298 -0.780547
  23 72.7992 0.579476 -1.45278
  24 77.7796 0.561459 -2.42899
  25 82.4295 0.242025 -2.67282
  26 90.2494 0.147015 -3.02967
  27 95.4246 -0.259192 -2.71289
  28 100.588 -0.394810 -2.23218
  29 104.141 -0.320354 -1.61871
  30 106.020 -0.318183 -1.36421
  31 108.030 -0.479275 -0.583424
  32 109.988 -0.238707 -0.135729
  33 110.527 -0.301107 -0.294087
  34 110.570 -0.100945 0.0167220
  35 106.322 -0.134139 -0.221556
  36 101.468 -0.452706 -0.256674
  37 97.0201 -0.940248 -0.359196
  38 91.8476 -1.23752 -0.420688
  39 86.6635 -1.43846 -0.322332
  40 80.8098 -1.36620 -0.155902
  41 75.1384 -1.14902 -0.0935147
  42 70.0143 -0.901930 0.0292106
  43 65.4421 -0.445250 0.125014
  44 61.0723 -0.163955 -0.0211996
  45 56.7466 0.175852 -0.0123780
  46 56.5336 0.147197 0.257919
  47 56.1232 0.0272315 0.149342
  48 55.1698 -0.120905 0.471909
  49 53.0553 -0.00699238 0.680871
  50 51.2462 -0.163342 1.02390
  51 48.9910 -0.129338 1.48099
  52 45.0213 -0.00949807 1.57994
  53 40.4437 0.0323421 1.83391
  54 36.1019 -0.0788096 2.87746
  55 27.6740 0.198800 2.66180
  56 21.9507 0.227496 3.12334
  57 14.1192 0.318053 2.76299
  58 7.07129 0.138067 2.99367
  59 0.0608549 0.887897 2.98044
  60 -4.55184 1.04343 1.45704
  61 -5.95936 0.989214 -0.215098
  62 -4.77665 0.723928 -1.79179
  63 -2.75346 -0.273200 -1.51040
  64 -0.317191 -2.77525 -1.41555
  65 0.128658 -5.39099 -1.94393
  66 0.649820 -8.84272 -1.24092
  67 2.23619 -9.27022 -0.156499
  68 3.85531 -1.90432 4.28070
  69 11.8087 15.2838 16.3372
  70 54.0794 54.5194 53.6216
  71 267.722 28.4261 43.0123
  72 214.047 9.03123 14.2271
  73 203.862 4.99417 5.76182
  74 200.781 3.17952 -0.333601
  75 203.019 4.18131 -5.01334
  76 217.342 7.94937 -13.7354
  77 253.599 23.3226 -36.8750
  78 43.4707 62.6426 -51.3093
  79 9.58894 7.70228 -12.1512
  80 3.55717 -2.04194 -4.43493
  81 1.09855 -9.26033 -0.396010
  82 0.635756 -6.93386 1.00514
  83 0.739111 -6.77836 1.63420
  84 0.0525665 -2.53672 1.78594
  85 -2.94886 -0.233083 1.49362
  86 -5.00329 0.699124 1.74731
  87 -6.08282 0.978831 0.178300
  88 -4.65123 0.979384 -1.43309
  89 -0.110173 0.985536 -2.92919
  90 6.94435 0.167951 -3.03864
  91 14.0629 0.299101 -2.81166
  92 22.0279 0.224450 -3.14659
  93 27.7866 0.193237 -2.68464
  94 36.2207 -0.105234 -2.84908
  95 40.4969 0.0316997 -1.79650
  96 45.0103 0.00992304 -1.55980
  97 48.9955 -0.124606 -1.49110
  98 51.2347 -0.165317 -1.02206
  99 53.0495 -0.00817022 -0.682589
  100 55.1488 -0.117673 -0.469072
  101 56.1065 0.0281707 -0.154842
  102 56.5282 0.146248 -0.263016
  103 56.7479 0.174544 0.00943670
  104 61.0729 -0.168208 0.0191802
  105 65.4411 -0.453477 -0.127719
  106 70.0112 -0.914218 -0.0267315
  107 75.1988 -1.17942 0.108966
  108 80.8646 -1.37775 0.139877
  109 86.4844 -1.44229 0.310027
  110 91.7734 -1.17759 0.387405
  111 97.0407 -0.984058 0.359820
  112 101.464 -0.491480 0.254980
  113 106.286 -0.173002 0.238432
  114 93.1780 -9.82662 -1.98645
  115 94.2523 -9.79703 1.17129
  116 98.7797 14.1362 -5.34065
  117 79.3563 -6.54054 -18.7998
  118 76.9055 -6.04803 19.2140
  119 107.253 10.1905 10.7221
  120 113.066 3.03092 -9.05889
  121 78.8311 -3.54733 -1.78027
  122 78.3977 -3.75194 1.84628
  123 122.933 27.5219 0.481932
  124 94.6871 -4.30522 3.31956
  125 95.4734 -4.06088 -3.71435
  126 97.5081 -2.12257 -10.2823
  127 65.5302 -5.55163 10.3478
  128 65.4586 -5.58613 -10.8614
  129 98.0978 -3.39260 9.36014
  130 133.935 30.1114 -0.0924014
  131 34.3824 8.33425 -20.2600
  132 33.2507 8.45198 19.9194
  133 119.436 0.0108878 0.496309
  134 138.883 31.5687 -2.88246
  135 90.2303 6.12510 5.78343
  136 90.3412 -2.45893 0.737606
  137 90.8648 -2.27833 -0.796355
  138 119.253 -1.83736 11.7389
  139 65.1120 -2.85779 -4.65872
  140 65.1150 -2.84623 4.45224
  141 91.0711 5.65079 -33.1343
  142 159.753 22.3273 2.96296
  143 91.2478 3.18393 -8.70299
  144 67.3978 -1.01351 -1.23774
  145 67.3840 -1.00950 1.24649
  146 79.3901 -6.68371 4.41180
  147 81.0467 -6.99163 -4.32831
  148 46.6002 -2.85863 -15.0282
  149 46.4006 -2.25721 15.2395
  150 101.959 15.7206 5.89997
  151 102.500 -9.77402 3.58487
  152 102.871 -5.65319 -7.73559
  153 106.128 -6.20953 5.48131
  154 97.0699 -6.59934 -5.51601
  155 101.018 4.82672 -11.5178
  156 92.1430 7.16489 36.3087
  157 6.12441 5.38813 2.87709
  158 5.26595 4.51454 -2.13815
  159 87.7228 5.47080 -2.31319
  160 96.0351 2.14413 10.6446
  161 100.057 -1.24998 2.03846
  162 99.1651 -1.47202 -2.06941
  163 91.8435 -6.88181 1.54121
  164 97.6196 -2.24051 -6.21957
  165 111.582 18.6096 -8.13222
  166 88.6077 -5.82016 -0.491473
  167 84.6483 -9.61669 9.58218
  168 78.7423 -1.91303 -0.460752
  169 78.8464 -1.89637 0.483292
  170 98.1239 -2.06513 5.80847
  171 85.2693 -9.55985 -9.16566
  172 101.468 -9.42733 -6.16681
  173 113.792 20.3748 7.34768
  174 88.9316 -4.77403 0.853323
  175 136.722 15.1946 -8.24060
  176 22.5376 1.68304 -11.4771
  177 21.8866 1.56051 11.1686
  178 168.720 32.1316 16.5842
  179 141.991 25.2687 2.91092
  180 174.834 20.2127 -10.9380
  181 98.0716 -1.16332 0.818504
  182 97.9482 -1.13423 -0.824372
  183 57.4209 -1.92664 -5.90217
  184 57.4261 -1.95124 5.92209
  185 45.9623 -1.75769 -9.33446
  186 46.3184 -1.76743 9.48876
  187 28.2646 20.0313 -25.4035
  188 93.1139 -0.514754 8.23169
  189 99.1454 -7.22676 5.72877
  190 62.4941 -0.874599 -2.03261
  191 62.3648 -0.923933 2.05907
  192 13.7565 13.7277 14.2178
  193 91.0288 0.140789 -7.89252
  194 97.2463 -5.03003 6.44661
  195 86.8707 1.33001 6.86436
  196 101.280 -6.16388 -17.1680
  197 100.291 -1.51202 -3.59771
  198 90.5583 -8.03796 0.181830
  199 108.381 22.0029 -3.69664
  200 101.592 -3.03630 10.2043
  201 67.5750 -6.24051 -15.2689
  202 49.6075 -0.00730647 -20.1253
  203 48.4296 0.304364 20.1221
  204 97.4407 8.25107 8.86320
  205 71.5586 0.242622 26.6340
  206 94.0237 10.5873 1.69062
  207 122.408 13.8759 -6.78246
  208 100.614 -1.47749 3.23328
  209 67.5914 -6.14367 15.3896
  210 86.0739 -3.77992 -0.0746331
  211 166.568 41.4515 -20.2088
  212 122.229 15.8498 7.22684
  213 69.5257 -5.13161 -6.57433
  214 69.1282 -4.80303 6.49954
  215 9.66520 3.58384 -5.93809
  216 11.2008 3.66023 6.84687
  217 79.6327 -8.18961 7.27004
  218 84.2004 -3.09892 -0.314232
  219 84.9484 -1.72514 0.0725062
  220 85.9290 -1.71394 -0.108464
  221 79.8659 -7.93367 -7.30976
  222 83.8142 -5.76374 -1.42343
  223 100.767 -8.72515 12.3522
  224 121.260 26.7985 -2.53958
  225 141.883 28.4173 -1.99128
  226 112.985 3.24666 8.60970
  227 93.5816 -3.07546 2.13426
  228 69.3056 0.867391 -27.1178
  229 75.5284 -4.84377 3.66460
  230 92.6234 -3.55104 -1.86846
  231 113.446 -5.06413 0.336144
  232 95.2550 7.57205 -8.49602
  233 107.629 -5.54723 -5.42242
  234 81.2912 3.10277 1.64345
  235 70.1755 -2.47569 -2.82060
  236 105.885 0.316586 -10.6328
  237 57.1890 -0.926569 -2.99842
  238 57.1277 -0.907843 2.90324
  239 61.6424 -0.140548 -0.359924
  240 61.6433 -0.135717 0.353714
  241 96.2350 1.06064 -10.9050
  242 69.5803 -2.45893 2.99068
  243 74.9149 -4.72688 -3.92331
  244 34.3378 24.7931 33.3864
  245 5.34680 6.34937 -4.14508
  246 185.690 13.9954 4.14619
  247 81.1795 1.33652 -3.65335
  248 93.7650 -6.33602 -2.94526
  249 98.5650 20.3670 -46.4058
  250 98.5782 -7.99627 -4.51961
  251 47.8600 -1.61830 -6.18186
  252 47.9339 -1.66618 6.23406
  253 97.5845 -3.97749 -7.92016
  254 100.783 -1.35978 -10.9912
  255 71.7556 -1.15025 -0.505244
  256 71.7545 -1.15710 0.485588
  257 104.360 -0.536032 -0.830949
  258 104.462 -0.420280 0.818421
  259 94.9615 -0.815058 -6.04204
  260 139.204 13.6177 27.1559
  261 88.8147 -8.59636 -1.61240
  262 74.0528 -2.16773 -1.40874
  263 73.6730 -2.20883 1.48793
  264 -0.218028 -0.302296 -2.18189
  265 -0.576858 0.0544929 2.28305
  266 25.3515 -0.658186 -9.36784
  267 25.1969 -0.551898 9.29664
  268 60.3185 -0.462029 0.870929
  269 60.3113 -0.467172 -0.884484
  270 94.9368 -1.05745 5.73573
  271 110.028 23.1127 2.66934
  272 100.914 -9.32266 -1.71835
  273 102.427 12.2085 -9.59794
  274 99.4822 -5.15071 -8.53837
  275 109.287 -6.31783 2.12552
  276 36.3192 -0.831895 8.84458
  277 36.0357 -0.885230 -8.71553
  278 100.508 -9.46221 -0.474757
  279 87.1051 -9.79948 12.0635
  280 92.2714 -1.36121 0.303257
  281 92.3771 -1.29578 -0.289104
  282 104.229 -0.357055 -0.407526
  283 104.245 -0.428769 0.427785
  284 46.8651 12.9493 30.1178
  285 107.142 8.64363 -11.1857
  286 95.9454 -8.11795 2.90357
  287 122.127 25.4434 4.04994
  288 86.4399 0.840885 -6.35026
  289 84.5273 -2.53483 0.0577474
  290 117.849 18.8474 -7.95561
  291 96.9337 -1.87290 24.6686
  292 101.857 18.2191 0.0479961
  293 87.0644 -9.30228 -12.6201
  294 92.7805 -10.5289 4.91488
  295 88.0309 -8.73289 2.52542
  296 137.755 28.3861 1.70582
  297 82.9531 -5.73226 2.01009
  298 103.323 -0.688752 -1.83021
  299 96.5238 -4.86932 -5.45637
  300 166.570 45.6359 18.9781
  301 106.457 0.146916 10.3085
  302 100.888 -0.700625 -2.91428
  303 104.739 14.2630 8.76593
  304 115.443 -0.693540 -18.9200
  305 100.754 2.97894 11.5438
  306 3.02997 3.27152 1.32022
  307 59.0586 -4.46656 12.5334
  308 96.2931 -1.61926 1.27342
  309 95.9189 -1.82603 -1.38945
  310 93.9907 9.82294 -4.95809
  311 56.6410 -3.85553 -12.1252
  312 61.1018 -4.79972 -17.2530
  313 98.4024 -2.18442 2.90823
  314 92.5009 -5.32221 2.40259
  315 95.9763 -0.474848 10.5036
  316 146.776 26.1752 -31.3560
  317 97.3301 -3.37013 7.43015
  318 97.3726 -2.49127 -2.97529
  319 103.254 -0.570032 1.83192
  320 58.0714 -0.678426 2.00643
  321 58.1290 -0.748605 -2.03816
  322 15.9834 10.1263 -12.3723
  323 80.0222 2.38807 -1.35636
  324 98.0059 -2.89994 5.10199
  325 134.394 23.8363 1.46966
  326 96.9728 12.1851 5.91232
  327 52.1774 10.0539 -30.2469
  328 59.6657 -3.59831 17.3860
  329 90.1509 5.31326 -6.44631
  330 100.582 -0.826026 3.18155
  331 96.7155 -2.56122 -8.59917
  332 2.23432 1.02409 0.171647
  333 17.4723 8.74626 11.4316
  334 72.1150 -7.65842 12.2400
  335 -0.922883 1.67733 0.748616
  336 -0.712978 1.83368 -0.698803
  337 108.609 39.8973 50.5694
  338 96.2808 -2.23761 8.61581
  339 207.048 22.0246 -26.4729
  340 93.7420 5.49734 8.97106
  341 113.351 11.6927 9.31850
  342 80.3257 -2.65572 0.803953
  343 81.6857 1.38561 3.92855
  344 73.7235 -8.18664 -11.5423
  345 93.2240 -4.48590 -2.56755
  346 84.3398 -4.71922 0.692821
  347 97.9357 -2.72272 -5.23102
  348 94.7904 -10.3823 -6.93548
  349 111.567 -6.11705 -3.03105
  350 88.3670 6.64324 1.77757
  351 100.193 -8.52101 4.06982
  352 128.206 8.90476 -0.287711
  353 54.3750 -2.79798 9.08683
  354 89.5508 -3.42091 0.973623
  355 86.9075 -9.59435 -5.99433
  356 145.802 35.1096 6.07336
  357 106.106 17.8561 -7.16374
  358 67.2113 -1.50808 2.12916
  359 67.3515 -1.63062 -2.17204
  360 53.9626 -2.70224 -9.23668
  361 35.3018 29.3747 -34.9159
  362 81.4504 -1.55076 -0.253887
  363 81.7192 -1.63914 0.181856
  364 50.4700 -0.567604 -3.20336
  365 50.4598 -0.580275 3.23900
  366 192.609 7.34223 -3.89742
  367 195.084 13.2721 12.5206
  368 87.4987 -7.10373 -0.951181
  369 120.070 3.23074 25.6173
  370 41.4698 -0.0800865 16.0375
  371 41.5061 -0.359057 -16.1288
  372 88.1852 -5.54966 19.9447
  373 87.4886 0.666067 6.54565
  374 92.1690 1.01274 9.25693
  375 85.1276 -9.85497 7.25638
  376 24.0634 5.24148 -13.6474
  377 23.7340 4.26093 13.1276
  378 10.5565 0.869356 -5.61623
  379 10.6254 0.739089 5.67528
  380 93.8984 -8.37499 -14.6301
  381 67.1444 -0.631736 -0.542188
  382 67.1448 -0.623150 0.539351
  383 139.224 26.9682 -0.165394
  384 83.9750 -4.58690 -0.760676
  385 90.0593 -2.36055 -25.3252
  386 95.0275 -8.73118 -1.57409
  387 131.974 23.7487 -2.54072
  388 115.125 9.94350 -9.51894
  389 98.1984 -5.46540 7.58339
  390 62.5748 -1.65304 -3.41705
  391 62.3497 -1.49556 3.24746
  392 84.4633 -2.16891 -0.0644691
  393 78.7128 -2.71989 -1.17464
  394 60.6314 -3.72819 8.25684
  395 60.5585 -3.71361 -8.41195
  396 7.36492 10.6847 -8.79717
  397 96.8328 4.51757 -10.5392
  398 74.0615 -5.26501 5.04380
  399 123.349 7.80923 -27.4466
  400 95.1641 -6.25831 3.94983
  401 12.4584 14.5882 15.2793
  402 95.1462 -0.849000 -9.94771
  403 58.7696 -0.412216 1.16831
  404 58.7483 -0.393899 -1.17397
  405 99.6120 -0.716538 0.347421
  406 99.5742 -0.664961 -0.317780
  407 102.325 -6.27016 7.07697
  408 46.4256 -2.66099 -12.3633
  409 103.455 -0.494288 -1.92813
  410 47.1782 -2.75363 12.4509
  411 119.469 2.36176 -3.67897
  412 99.9139 -4.75614 8.95306
  413 87.9583 -5.83239 0.236990
  414 158.917 34.4230 -13.1118
  415 97.4040 -3.63488 6.21875
  416 158.470 29.2104 9.16781
  417 116.899 25.0286 3.33149
  418 42.7873 -0.970364 -5.63815
  419 42.8263 -0.930054 5.73658
  420 16.5369 -0.114355 -6.59822
  421 16.3096 -0.109284 6.45744
  422 97.6251 -0.786007 -4.34643
  423 205.065 28.7033 26.6744
  424 50.9063 3.64288 23.8657
  425 63.0280 -3.08075 -5.64933
  426 62.9225 -3.07368 5.71322
  427 69.8217 -6.06240 8.37096
  428 58.8082 17.0904 -39.7286
  429 115.841 25.5819 -1.77346
  430 70.1959 -5.97826 -8.48007
  431 106.204 -0.360406 -0.813912
  432 108.231 19.7957 6.30959
  433 112.688 22.6856 -5.11771
  434 75.3102 -5.58421 -5.03492
  435 146.173 33.4067 -4.99937
  436 77.8955 -8.17910 15.6531
  437 125.020 1.77868 -4.63972
  438 83.0237 -5.61471 -21.7435
  439 91.3990 1.24031 -9.08104
  440 85.9109 -8.67822 -4.00388
  441 174.778 16.4321 -3.14281
  442 172.015 20.5736 10.3643
  443 96.9449 -6.81381 5.09991
  444 -0.540338 1.55222 -1.19399
  445 -0.297294 1.65772 1.18574
  446 127.110 25.5723 3.64352
  447 92.4736 -0.392490 5.23303
  448 84.3177 -7.33704 2.65554
  449 66.6598 -2.41606 22.8553
  450 0.317115 -2.29677 -1.90476
  451 73.6893 -6.68767 -16.6525
  452 94.4704 -7.44990 -2.87834
  453 93.6710 -1.61808 0.913872
  454 93.6608 -1.53224 -0.744452
  455 38.7583 3.90370 -19.7478
  456 97.5420 -0.646736 4.09530
  457 12.8043 6.25187 -7.77630
  458 4.30112 3.95255 4.10796
  459 35.1767 -0.288223 -5.11428
  460 35.0633 -0.232942 5.12546
  461 219.834 49.8444 -40.6640
  462 91.6062 -0.267015 -5.40426
  463 95.4225 -2.57948 -2.18039
  464 92.4551 -3.98735 2.04760
  465 88.0455 3.50557 6.70192
  466 99.3715 -0.302498 11.2617
  467 88.1043 -1.51413 0.152924
  468 88.4816 -1.48319 -0.205628
  469 33.0859 2.57955 15.7192
  470 73.0234 -2.52725 2.11339
  471 118.004 5.99127 6.84009
  472 111.451 -6.57753 7.28234
  473 128.052 27.7855 -0.402983
  474 106.455 -0.234927 0.804827
  475 89.5482 -4.57471 -1.02381
  476 76.6495 -1.34915 -0.311233
  477 76.5999 -1.30282 0.282111
  478 27.2345 12.6681 20.1182
  479 89.9482 -3.30310 -0.958059
  480 11.6261 6.62932 6.97566
  481 27.0436 13.0986 -19.8350
  482 97.2193 13.9017 -1.63285
  483 79.4802 -4.61464 -2.23270
  484 71.8068 -1.55893 -1.12652
  485 71.8648 -1.51185 1.14916
  486 103.945 -8.88109 0.144935
  487 103.622 -0.637826 1.89951
  488 135.535 8.85129 10.6190
  489 100.595 12.1715 8.41432
  490 80.7555 -6.32748 -3.17057
  491 98.9728 15.7644 2.34641
  492 1.22482 -3.70582 -0.0318961
  493 28.9977 29.4177 33.2859
  494 101.885 8.44080 10.5566
  495 73.5577 -2.53029 -1.91648
  496 86.8902 0.150263 -4.52279
  497 70.7930 5.59200 31.2315
  498 91.1050 -6.93111 -1.18965
  499 106.568 -8.77187 5.03035
  500 99.3887 -1.78822 -2.97877
  501 158.295 24.3585 -3.60206
  502 24.7740 -0.0300660 -5.99125
  503 24.8220 0.0189501 6.08830
  504 100.307 -0.873623 -1.26634
  505 99.8938 -0.954994 1.31397
  506 55.9228 -3.78234 15.1517
  507 69.4407 -3.10019 -3.77669
  508 66.9284 -1.76931 -22.8915
  509 57.7833 -4.54712 -14.5519
  510 52.4399 -0.455109 -2.20329
  511 52.4210 -0.469728 2.18423
  512 96.9697 -9.05071 2.07191
  513 70.7712 -3.61017 4.13107
  514 102.587 1.21472 -11.4818
  515 74.4928 -3.73751 2.95480
  516 79.6673 -8.39040 9.28621
  517 125.285 9.40867 2.57700
  518 46.0312 -0.195169 -3.19648
  519 46.0487 -0.208213 3.24390
  520 124.199 26.3901 -3.69656
  521 109.107 -0.934295 -8.65865
  522 109.212 -1.75816 7.80076
  523 98.1865 -5.33279 -7.53997
  524 75.9338 -6.61660 6.33092
  525 199.451 11.3745 -13.2902
  526 108.303 -7.33088 -0.850019
  527 79.8660 0.789407 -3.55645
  528 81.8286 -3.43639 0.748802
  529 98.5435 11.4990 -7.78312
  530 168.587 46.7655 30.2253
  531 96.5514 -2.15451 2.17295
  532 88.7610 -1.90076 0.296917
  533 89.7113 -1.68665 -0.390272
  534 101.102 -7.90333 -4.81645
  535 79.0573 -4.76194 2.38273
  536 58.8953 -0.00197247 -0.519075
  537 58.9007 -0.000113917 0.510665
  538 80.0549 -8.68369 -8.98057
  539 102.983 17.8752 -3.86518
  540 97.4313 -2.85440 -3.87591
  541 81.1915 0.667633 4.16816
  542 97.3471 -3.73417 -6.47016
  543 59.4271 -0.0127231 -0.102533
  544 59.4258 -0.0104200 0.0995026
  545 114.105 -4.83627 -8.42675
  546 76.9546 -7.03782 -6.41333
  547 112.911 -1.77173 -5.56625
  548 104.527 -6.67824 15.3090
  549 100.337 -1.51762 2.67487
  550 107.093 -0.292734 0.434094
  551 107.079 -0.253843 -0.388500
  552 94.7803 -10.3048 -3.95316
  553 97.8936 -9.95844 9.36991
  554 54.1572 -0.318499 -1.43180
  555 54.1246 -0.315634 1.41825
  556 88.8037 -8.73056 14.8783
  557 99.3842 8.03520 -10.1199
  558 76.4273 -8.00473 -13.4542
  559 98.1436 5.59887 10.9132
  560 94.8112 -10.4689 7.29294
  561 74.8501 0.819051 1.50398
  562 83.2511 -2.13335 0.201874
  563 103.316 -2.49799 -10.0866
  564 129.340 27.9415 0.576568
  565 105.704 -3.91551 -8.32587
  566 79.3589 -5.93994 3.57408
  567 63.3651 -0.808345 1.52799
  568 63.3777 -0.820059 -1.55259
  569 93.4532 -2.50376 1.25650
  570 74.3612 -3.59030 -2.87582
  571 96.4683 -1.63624 6.87300
  572 104.046 -7.22566 -5.12458
  573 87.3984 -2.60028 0.298718
  574 162.025 47.6304 -20.6506
  575 86.7283 1.98273 -6.38312
  576 133.510 29.0460 -0.427561
  577 75.7844 0.674168 -2.33725
  578 95.4640 -3.30330 2.80782
  579 27.4605 17.6107 25.7072
  580 92.5764 8.72624 4.67666
  581 51.1379 4.11464 -24.2317
  582 104.051 -8.71287 -1.42666
  583 94.8591 -1.07407 -8.17296
  584 106.758 13.2197 -10.0326
  585 -0.820386 -0.953295 -1.70954
  586 -1.04881 -0.869634 1.75294
  587 64.0760 -0.552851 -0.871506
  588 64.0757 -0.545368 0.862550
  589 100.476 -6.50045 -7.09380
  590 101.187 -4.26196 -9.35976
  591 9.27388 8.73619 7.49787
  592 94.0302 8.13183 7.15030
  593 85.6727 -4.05165 -0.00450075
  594 84.6450 -1.46816 -0.0877136
  595 84.4135 -1.45188 0.00972390
  596 85.9500 3.87735 4.41877
  597 198.227 4.52462 2.95200
  598 69.8149 -4.17720 -5.17765
  599 73.9943 1.01928 0.336465
  600 99.2842 1.68422 -11.5411
  601 77.6606 -8.84812 13.6893
  602 1.55793 1.05166 3.05598
  603 1.26264 0.878247 -2.86130
  604 104.884 4.74869 -11.5320
  605 91.7352 9.55800 -1.26636
  606 98.5157 -6.83330 -6.38188
  607 56.3944 -1.28362 -4.28662
  608 56.2861 -1.37785 4.28627
  609 101.991 -0.488514 0.716667
  610 101.950 -0.490584 -0.744851
  611 98.3129 -0.933006 -11.0530
  612 96.2365 -4.47567 4.79106
  613 68.5271 -3.99497 5.46545
  614 5.29057 4.38813 -2.88262
  615 102.196 54.4331 -58.6480
  616 99.2590 -1.71813 4.54049
  617 98.7806 -1.61289 -4.80956
  618 78.5188 3.87659 -31.2420
  619 93.0315 -2.65903 -1.50865
  620 83.1236 -7.91076 4.54106
  621 107.833 22.2660 -0.129465
  622 35.8426 -1.43883 -11.2642
  623 36.1841 -1.43067 11.3530
  624 118.586 19.9157 7.15282
  625 95.6811 -6.15794 -4.57680
  626 84.1020 4.56339 -0.00133781
  627 92.9573 -8.91281 -0.109531
  628 50.9207 -1.44396 5.35712
  629 50.8818 -1.43391 -5.28694
  630 66.4312 -1.79116 -2.86336
  631 62.9494 -0.237785 -0.418222
  632 62.9497 -0.231956 0.415005
  633 95.1231 -3.47396 -2.82805
  634 107.747 -0.0962064 -0.205853
  635 107.708 -0.122571 0.257927
  636 125.195 23.6665 -5.36850
  637 59.2626 17.9954 37.2440
  638 114.830 -1.48901 4.58591
  639 50.1045 8.19807 26.8402
  640 21.5360 6.34709 12.6563
  641 117.102 5.16666 -7.72118
  642 98.1594 -9.20898 -1.88880
  643 68.3591 -1.00013 -0.950588
  644 68.3814 -0.986155 0.953273
  645 94.9853 -0.905391 -0.203505
  646 95.0670 -0.932592 0.222682
  647 73.7457 -7.58777 -9.87529
  648 33.4105 1.88357 -15.9078
  649 55.2694 -0.326073 0.890522
  650 55.2523 -0.343098 -0.875495
  651 229.495 60.1244 46.4029
  652 111.103 12.6739 -10.3299
  653 99.2286 -3.13310 -10.1418
  654 98.0429 -3.53710 -9.22102
  655 103.486 8.56654 -11.1501
  656 61.0483 -1.68593 -4.31779
  657 60.7965 -1.79266 4.21580
  658 92.1575 -8.05258 0.837311
  659 0.583949 -2.71660 2.01229
  660 103.333 -0.128767 11.1001
  661 5.84243 4.13247 3.01233
  662 91.3261 2.53151 8.74610
  663 14.6984 14.0632 -13.2320
  664 85.0230 3.47415 -4.51935
  665 102.753 -0.630355 1.47201
  666 84.9165 -7.64865 -2.87036
  667 96.4141 -1.74338 -7.19131
  668 28.0722 -0.183417 4.41497
  669 28.1798 -0.154492 -4.43480
  670 117.190 23.3275 -5.73648
  671 52.4915 -2.56308 -18.5146
  672 94.8642 -5.16248 -3.79333
  673 82.3845 -3.52445 -0.864578
  674 102.588 -0.792720 -1.43151
  675 109.029 15.6386 9.00502
  676 17.3547 3.71191 -9.56726
  677 16.8925 2.50692 9.46724
  678 98.6650 -2.37556 10.4993
  679 86.8705 -6.61707 0.764201
  680 97.2078 -5.11404 -6.44875
  681 144.773 35.8759 -7.01755
  682 114.477 25.0571 1.10826
  683 83.4794 -2.96907 0.307668
  684 109.372 4.17928 10.6822
  685 98.9508 -10.3020 2.27465
  686 65.5061 -1.71182 2.88260
  687 88.4369 -9.56085 4.28579
  688 103.974 -0.356294 -0.00272062
  689 103.961 -0.399021 0.0138312
  690 145.539 32.2891 6.75474
  691 54.4795 -2.29314 7.25045
  692 7.46648 7.81805 -5.22579
  693 -2.41391 0.0247631 2.04284
  694 -2.14398 0.0676737 -2.10605
  695 47.3679 -1.91546 7.96181
  696 23.2872 9.19310 -14.6976
  697 1.75195 -1.49364 -2.02697
  698 94.5575 -7.56918 2.85387
  699 64.9519 -3.78767 -20.2214
  700 73.2734 -7.54860 9.72964
  701 91.6435 -5.74940 -1.84113
  702 1.20123 -3.50795 -1.02229
  703 109.525 5.26221 -10.7111
  704 98.4085 -9.60695 0.681065
  705 96.8686 -7.90863 -4.18807
  706 93.8484 2.79172 -9.93751
  707 54.3651 -2.30207 -7.26079
  708 9.31254 13.9787 -14.1170
  709 93.3960 5.13100 -9.21478
  710 -0.195913 -2.58154 -2.02551
  711 87.5305 0.0423739 4.30380
  712 47.1886 -1.83991 -7.87248
  713 62.0927 -3.38373 20.0763
  714 87.0644 -2.93058 -0.263354
  715 70.8563 -1.67601 -1.50093
  716 51.3803 -1.96354 18.2091
  717 29.3442 0.363641 -12.4023
  718 28.8885 0.283048 12.1324
  719 70.6040 -1.59514 1.55852
  720 16.0444 0.359237 -5.03506
  721 16.1442 0.390307 5.00378
  722 77.2062 -2.96396 1.57236
  723 93.9820 -0.125411 -3.70443
  724 113.163 10.8504 39.5198
  725 75.1734 -1.48712 -0.773545
  726 75.1259 -1.52597 0.743207
  727 97.2261 -2.79846 -7.64115
  728 72.6375 -1.01604 -0.453224
  729 72.6169 -0.981194 0.438558
  730 94.7787 -1.01899 7.31860
  731 97.4756 -10.2227 0.839048
  732 76.9703 -2.07725 0.927335
  733 6.13959 -0.188967 -3.29523
  734 6.19970 -0.284662 3.24501
  735 76.8190 -1.86162 -0.871598
  736 1.53934 1.75601 -1.02851
  737 105.379 -7.82957 -10.1697
  738 119.383 -1.83272 2.33844
  739 35.1729 5.36804 18.5027
  740 57.4799 -0.0227654 0.578267
  741 57.4652 -0.0166618 -0.587159
  742 91.4518 -9.33754 1.41628
  743 180.915 25.6491 -20.6498
  744 82.0687 0.162685 -3.46823
  745 82.0364 -1.96766 -0.283129
  746 75.2177 25.8467 45.8550
  747 104.821 4.14118 11.5061
  748 94.2898 -0.175841 3.58925
  749 108.068 -0.181837 -0.483136
  750 108.191 -0.245295 0.482530
  751 149.784 29.0555 -5.87229
  752 104.521 19.0899 2.94781
  753 80.8895 -2.43948 -0.563196
  754 105.126 -0.399947 1.42388
  755 64.4059 -3.89081 -7.17206
  756 95.8267 -1.01482 0.638232
  757 95.7827 -1.00713 -0.573805
  758 69.8154 -5.68742 18.0242
  759 98.9576 -10.4836 -3.43458
  760 97.6524 -3.94317 8.22661
  761 64.2854 -3.82678 7.11331
  762 101.612 14.7369 -7.01966
  763 82.6874 0.630957 3.64062
  764 66.4712 -6.22031 -13.5272
  765 81.4055 -2.37224 0.489419
  766 96.5933 -1.79921 9.91860
  767 58.2123 0.0814396 -0.181475
  768 58.2136 0.0829037 0.176539
  769 1.57227 2.35999 0.772855
  770 66.7941 -2.37823 3.63651
  771 87.0142 -2.17646 -0.206980
  772 96.7404 -4.11097 -4.91584
  773 41.7877 -0.226225 3.28062
  774 41.8085 -0.233468 -3.22701
  775 105.112 -3.14617 9.10613
  776 96.4156 -2.14957 -9.49511
  777 35.2494 -1.40017 -12.9705
  778 35.3793 -1.22697 12.8710
  779 102.119 -8.36666 3.22109
  780 97.0503 -3.08093 3.92761
  781 151.642 26.6695 11.5369
</Section>

newXOutput 7

<Section columns = "stress_xx | stress_yy | stress_xy">
  1 131.691 0.165635 0.183126
  2 131.753 0.146172 -0.174158
  3 69.7111 -0.0470213 -0.140646
  4 -0.875062 -0.998049 -1.16072
  5 246.953 94.0425 79.1185
  6 231.943 84.5921 -65.7759
  7 -1.16247 -0.999770 1.32631
  8 69.7153 -0.0484436 0.138745
  9 132.158 -0.0860108 0.00390705
  10 132.146 -0.438482 0.391908
  11 131.542 -0.344723 0.291120
  12 128.915 -0.367340 0.943233
  13 127.554 -0.440780 1.07696
  14 124.688 -0.607117 1.74776
  15 119.925 -0.415452 2.61392
  16 114.445 -0.180074 3.00173
  17 108.205 0.160425 3.46873
  18 99.2272 0.434362 2.82738
  19 93.6180 0.993451 3.30738
  20 89.3808 0.707000 2.48547
  21 84.0258 0.968520 0.696836
  22 85.4512 1.40897 -0.931429
  23 87.3746 0.696792 -1.73282
  24 93.3080 0.673446 -2.89530
  25 98.8449 0.289833 -3.18430
  26 108.146 0.175121 -3.60697
  27 114.298 -0.311995 -3.22687
  28 120.426 -0.474464 -2.65189
  29 124.638 -0.386281 -1.92055
  30 126.862 -0.384392 -1.61722
  31 129.236 -0.576168 -0.687813
  32 131.553 -0.288079 -0.157118
  33 132.186 -0.362943 -0.347132
  34 132.233 -0.124519 0.0217839
  35 127.189 -0.168008 -0.263494
  36 121.420 -0.551515 -0.304430
  37 116.130 -1.13535 -0.425405
  38 109.973 -1.48942 -0.497172
  39 103.799 -1.72680 -0.380838
  40 96.8253 -1.63740 -0.181413
  41 90.0684 -1.37436 -0.108539
  42 83.9642 -1.07714 0.0375633
  43 78.5193 -0.529938 0.150866
  44 73.3176 -0.193953 -0.0242464
  45 68.1696 0.210279 -0.0132143
  46 67.9121 0.176226 0.309973
  47 67.4146 0.0331292 0.181775
  48 66.2689 -0.143554 0.568457
  49 63.7371 -0.00753219 0.817440
  50 61.5650 -0.194755 1.22800
  51 58.8589 -0.153963 1.77569
  52 54.1038 -0.0105371 1.89531
  53 48.6206 0.0393134 2.19977
  54 43.4131 -0.0931749 3.45079
  55 33.3178 0.238042 3.19351
  56 26.4532 0.272066 3.74657
  57 17.0550 0.380029 3.31870
  58 8.58842 0.163705 3.59961
  59 0.160720 1.06335 3.58696
  60 -5.39569 1.25034 1.75958
  61 -7.11009 1.18690 -0.245927
  62 -5.71557 0.870859 -2.14087
  63 -3.29878 -0.325078 -1.80859
  64 -0.377908 -3.32530 -1.69519
  65 0.157424 -6.45307 -2.32382
  66 0.782789 -10.5636 -1.47269
  67 2.68719 -11.0389 -0.157600
  68 4.63596 -2.14572 5.18266
  69 14.1647 18.5648 19.6483
  70 64.5939 65.6058 64.1792
  71 319.310 33.9581 51.2315
  72 255.593 10.7831 16.9609
  73 243.468 5.96860 6.86327
  74 239.804 3.80226 -0.398117
  75 242.475 4.99884 -5.98108
  76 259.515 9.50032 -16.3788
  77 302.595 27.8678 -43.9376
  78 51.9233 75.3400 -61.4152
  79 11.5109 9.48140 -14.6520
  80 4.27756 -2.29747 -5.37116
  81 1.32037 -11.0203 -0.502785
  82 0.767249 -8.27689 1.18610
  83 0.890091 -8.11515 1.95179
  84 0.0643657 -3.03821 2.13940
  85 -3.53331 -0.276981 1.78838
  86 -5.98761 0.841028 2.08776
  87 -7.25796 1.17455 0.201773
  88 -5.51432 1.17354 -1.73087
  89 -0.0436359 1.18037 -3.52554
  90 8.43687 0.199481 -3.65348
  91 16.9881 0.357293 -3.37700
  92 26.5460 0.268385 -3.77437
  93 33.4529 0.231351 -3.22075
  94 43.5555 -0.124794 -3.41674
  95 48.6844 0.0385659 -2.15504
  96 54.0909 0.0126659 -1.87128
  97 58.8644 -0.148314 -1.78770
  98 61.5513 -0.197085 -1.22576
  99 63.7302 -0.00892076 -0.819468
  100 66.2437 -0.139695 -0.565064
  101 67.3947 0.0342550 -0.188326
  102 67.9056 0.175095 -0.316049
  103 68.1710 0.208719 0.00971065
  104 73.3182 -0.199032 0.0218422
  105 78.5181 -0.539760 -0.154085
  106 83.9604 -1.09181 -0.0346092
  107 90.1403 -1.41066 0.126890
  108 96.8905 -1.65118 0.162236
  109 103.586 -1.73136 0.366041
  110 109.885 -1.41775 0.457442
  111 116.154 -1.18758 0.426210
  112 121.415 -0.597659 0.302429
  113 127.146 -0.214305 0.283564
  114 111.558 -11.7657 -2.45074
  115 112.841 -11.7301 1.47736
  116 118.334 16.9277 -6.35779
  117 95.0216 -7.83849 -22.5614
  118 92.0953 -7.24953 23.0560
  119 128.417 12.1972 12.7417
  120 135.323 3.62815 -10.7255
  121 94.4605 -4.24373 -2.16267
  122 93.9434 -4.48840 2.24197
  123 147.186 32.9187 0.565976
  124 113.370 -5.15825 3.91450
  125 114.308 -4.86632 -4.38578
  126 116.769 -2.54488 -12.2270
  127 78.5538 -6.64623 12.4197
  128 78.4658 -6.68838 -13.0354
  129 117.466 -4.06556 11.1222
  130 160.287 36.0340 -0.00805338
  131 41.2459 9.97768 -24.3256
  132 39.8886 10.1209 23.9189
  133 142.888 0.0249403 0.471501
  134 166.192 37.7750 -3.54600
  135 108.131 7.34348 6.89128
  136 108.182 -2.94909 0.852663
  137 108.805 -2.73306 -0.923036
  138 142.632 -2.17120 14.1578
  139 78.0898 -3.41691 -5.59764
  140 78.0944 -3.40308 5.35071
  141 108.950 6.78836 -39.7217
  142 191.066 26.6898 3.55118
  143 109.336 3.81747 -10.3682
  144 80.8410 -1.20981 -1.49352
  145 80.8246 -1.20501 1.50397
  146 95.1142 -7.99807 5.32581
  147 97.0893 -8.36714 -5.22837
  148 55.9010 -3.43073 -18.0319
  149 55.6628 -2.71086 18.2852
  150 122.129 18.8216 7.01896
  151 122.672 -11.7025 4.37908
  152 123.147 -6.77282 -9.16194
  153 127.024 -7.43734 6.45799
  154 116.219 -7.90418 -6.52194
  155 120.974 5.77750 -13.7037
  156 110.231 8.61257 43.5188
  157 7.37852 6.47217 3.49378
  158 6.35176 5.42284 -2.60349
  159 105.145 6.56243 -2.75697
  160 115.032 2.56804 12.6718
  161 119.757 -1.50469 2.40605
  162 118.695 -1.77047 -2.44198
  163 109.976 -8.23962 1.77952
  164 116.887 -2.68669 -7.38526
  165 133.606 22.2738 -9.65027
  166 106.116 -6.96733 -0.533869
  167 101.365 -11.5156 11.5290
  168 94.3606 -2.28929 -0.566770
  169 94.4846 -2.26979 0.593811
  170 117.485 -2.47723 6.89563
  171 102.106 -11.4476 -11.0309
  172 121.435 -11.2870 -7.46810
  173 136.246 24.3842 8.71069
  174 106.503 -5.71588 0.972533
  175 163.495 18.2414 -10.0145
  176 27.0902 2.01049 -13.7881
  177 26.3098 1.86400 13.4190
  178 201.745 38.4274 19.8655
  179 169.827 30.2844 3.65123
  180 209.003 24.1654 -13.0847
  181 117.385 -1.40205 0.960246
  182 117.238 -1.36742 -0.967418
  183 68.8975 -2.30332 -7.08177
  184 68.9037 -2.33274 7.10561
  185 55.1760 -2.10493 -11.1947
  186 55.6013 -2.11669 11.3798
  187 33.8924 24.0399 -30.5012
  188 111.546 -0.616241 9.79787
  189 118.695 -8.65589 6.76939
  190 74.9876 -1.04343 -2.44572
  191 74.8338 -1.10234 2.47704
  192 16.5255 16.4972 17.1104
  193 109.068 0.169561 -9.39786
  194 116.433 -6.02617 7.63995
  195 104.124 1.59957 8.18004
  196 121.181 -7.37294 -20.6278
  197 120.052 -1.81675 -4.26336
  198 108.439 -9.62249 0.283159
  199 129.805 26.3316 -4.39085
  200 121.633 -3.64004 12.1201
  201 80.9702 -7.47807 -18.3240
  202 59.4730 -0.0208838 -24.1476
  203 58.0650 0.353021 24.1448
  204 116.724 9.88237 10.5517
  205 85.6851 0.285735 31.9428
  206 112.660 12.6857 2.01404
  207 146.483 16.6177 -7.98622
  208 120.434 -1.77558 3.82975
  209 80.9902 -7.36217 18.4673
  210 103.096 -4.52585 -0.0506540
  211 199.175 49.5939 -24.2347
  212 146.277 18.9802 8.52332
  213 83.3422 -6.13969 -7.90079
  214 82.8687 -5.74664 7.81023
  215 11.6505 4.29439 -7.15367
  216 13.4897 4.38533 8.24425
  217 95.3922 -9.80342 8.75091
  218 100.864 -3.71016 -0.406842
  219 101.756 -2.06846 0.0718357
  220 102.924 -2.05568 -0.114384
  221 95.6692 -9.49689 -8.79855
  222 100.398 -6.89748 -1.75087
  223 120.584 -10.4432 14.8648
  224 145.182 32.0604 -2.98508
  225 169.786 33.9820 -2.42026
  226 135.227 3.88669 10.1905
  227 112.047 -3.68726 2.50884
  228 82.9914 1.03239 -32.5212
  229 90.5152 -5.79401 4.42015
  230 110.905 -4.25554 -2.18965
  231 135.738 -6.05601 0.513453
  232 114.117 9.07141 -10.1183
  233 128.815 -6.64372 -6.38530
  234 97.4838 3.72601 1.95941
  235 84.1406 -2.95973 -3.39776
  236 126.760 0.374798 -12.6248
  237 68.6465 -1.10611 -3.59962
  238 68.5734 -1.08380 3.48592
  239 73.9931 -0.165743 -0.434644
  240 73.9942 -0.159971 0.427245
  241 115.267 1.27049 -12.9812
  242 83.4303 -2.93946 3.60122
  243 89.7831 -5.65404 -4.72945
  244 41.1605 29.7463 40.0600
  245 6.43621 7.66313 -5.02418
  246 221.898 16.7276 4.95122
  247 97.3499 1.61060 -4.35576
  248 112.270 -7.58747 -3.45733
  249 117.844 24.4634 -55.5842
  250 118.014 -9.57648 -5.32313
  251 57.4673 -1.93587 -7.41330
  252 57.5555 -1.99337 7.47573
  253 116.845 -4.76663 -9.40266
  254 120.675 -1.63240 -13.0653
  255 86.0368 -1.37419 -0.613889
  256 86.0355 -1.38239 0.590425
  257 124.866 -0.650105 -0.978341
  258 124.987 -0.511646 0.963816
  259 113.740 -0.978056 -7.18682
  260 166.358 16.4241 32.6269
  261 106.358 -10.2903 -1.99265
  262 88.7692 -2.59203 -1.70579
  263 88.3164 -2.64104 1.80038
  264 -0.248216 -0.351031 -2.60029
  265 -0.677748 0.0743892 2.72141
  266 30.4847 -0.792370 -11.2455
  267 30.2992 -0.664949 11.1606
  268 72.4075 -0.550004 1.04928
  269 72.3988 -0.556122 -1.06546
  270 113.711 -1.26693 6.82190
  271 131.773 27.6575 3.16706
  272 120.794 -11.1639 -1.96707
  273 122.674 14.6159 -11.4194
  274 119.108 -6.17121 -10.1312
  275 130.783 -7.56370 2.43812
  276 43.6353 -0.997423 10.6092
  277 43.2962 -1.06135 -10.4543
  278 120.304 -11.3309 -0.655686
  279 104.289 -11.7359 14.5034
  280 110.478 -1.63756 0.350496
  281 110.604 -1.55953 -0.333926
  282 124.703 -0.436404 -0.479778
  283 124.722 -0.521894 0.503827
  284 56.1579 15.5116 36.1277
  285 128.282 10.3454 -13.2932
  286 114.870 -9.72099 3.39659
  287 146.206 30.4451 4.76633
  288 103.610 1.01055 -7.56639
  289 101.254 -3.03617 0.0954210
  290 141.075 22.5598 -9.41527
  291 115.978 -2.22696 29.5996
  292 122.015 21.8117 0.0573193
  293 104.238 -11.1411 -15.1704
  294 111.077 -12.6067 5.95388
  295 105.420 -10.4539 3.08426
  296 164.859 33.9511 2.08858
  297 99.3703 -6.85964 2.45205
  298 123.648 -0.830065 -2.16534
  299 115.567 -5.83382 -6.45924
  300 199.171 54.6275 22.8178
  301 127.441 0.171301 12.2359
  302 120.774 -0.841569 -3.45907
  303 125.435 17.0736 10.4231
  304 138.067 -0.799409 -22.7400
  305 120.656 3.56458 13.7333
  306 3.65312 3.95897 1.62384
  307 70.8126 -5.35049 15.0368
  308 115.271 -1.94702 1.49520
  309 114.826 -2.19402 -1.63195
  310 112.618 11.7691 -5.90586
  311 67.9262 -4.61849 -14.5461
  312 73.2302 -5.75604 -20.6997
  313 117.793 -2.62195 3.43627
  314 110.762 -6.37396 2.81497
  315 114.954 -0.569614 12.4992
  316 175.341 31.4677 -37.6596
  317 116.544 -4.03847 8.82283
  318 116.566 -2.98893 -3.51459
  319 123.565 -0.689281 2.16726
  320 69.7118 -0.808833 2.40994
  321 69.7803 -0.892680 -2.44789
  322 19.2052 12.1450 -14.8886
  323 95.9723 2.86873 -1.61741
  324 117.336 -3.47781 6.04744
  325 160.796 28.5489 1.61798
  326 116.175 14.5934 7.04031
  327 62.5104 12.0404 -36.2768
  328 71.5131 -4.31811 20.8582
  329 108.035 6.37070 -7.68076
  330 120.408 -0.992235 3.77580
  331 115.820 -3.06961 -10.2214
  332 2.69337 1.26200 0.171505
  333 20.9899 10.4894 13.7576
  334 86.4050 -9.17190 14.6956
  335 -1.07855 2.01687 0.877113
  336 -0.827781 2.20449 -0.816474
  337 129.717 47.9401 60.5736
  338 115.304 -2.68210 10.2434
  339 247.314 26.3180 -31.6008
  340 112.310 6.58655 10.6853
  341 135.690 13.9978 11.0475
  342 96.2453 -3.17809 0.989433
  343 97.9526 1.66713 4.68326
  344 88.3268 -9.80352 -13.8619
  345 111.623 -5.37364 -3.01669
  346 101.027 -5.64809 0.873192
  347 117.253 -3.26498 -6.20235
  348 113.468 -12.4321 -8.37534
  349 133.488 -7.31811 -3.73342
  350 105.914 7.96587 2.11862
  351 119.941 -10.2047 4.78128
  352 153.358 10.6871 -0.201128
  353 65.2367 -3.34908 10.9008
  354 107.241 -4.09837 1.12537
  355 104.070 -11.4868 -7.23689
  356 174.434 42.0252 7.38407
  357 127.077 21.3728 -8.51471
  358 80.6135 -1.80109 2.56396
  359 80.7806 -1.94757 -2.61533
  360 64.7441 -3.23464 -11.0799
  361 42.2461 35.3171 -41.8741
  362 97.5882 -1.85801 -0.313884
  363 97.9086 -1.96367 0.228214
  364 60.6111 -0.678051 -3.84162
  365 60.5988 -0.693128 3.88427
  366 230.109 8.77580 -4.65230
  367 233.067 15.8609 14.9417
  368 104.791 -8.50285 -1.19524
  369 143.564 3.92051 30.7467
  370 49.7555 -0.104819 19.2470
  371 49.7992 -0.439152 -19.3554
  372 105.553 -6.64660 23.9393
  373 104.858 0.800775 7.79808
  374 110.427 1.21503 11.0241
  375 101.945 -11.7990 8.74438
  376 28.9019 6.27413 -16.3994
  377 28.5103 5.09894 15.7749
  378 12.7364 1.03992 -6.75560
  379 12.8186 0.883844 6.82632
  380 112.383 -10.0281 -17.5836
  381 80.5452 -0.752973 -0.652854
  382 80.5458 -0.742720 0.649478
  383 166.615 32.2470 -0.201857
  384 100.593 -5.48951 -0.952428
  385 107.771 -2.81843 -30.3792
  386 113.773 -10.4544 -1.80665
  387 157.913 28.4410 -2.89999
  388 137.798 11.9047 -11.2757
  389 117.574 -6.54777 8.99267
  390 75.0735 -1.97459 -4.10584
  391 74.8059 -1.78586 3.90200
  392 101.177 -2.59881 -0.0999571
  393 94.3224 -3.25434 -1.43214
  394 72.7180 -4.46065 9.90878
  395 72.6302 -4.44353 -10.0945
  396 8.85441 12.8874 -10.6087
  397 115.989 5.41049 -12.5474
  398 88.7602 -6.29893 6.07215
  399 147.457 9.41530 -32.9427
  400 113.941 -7.49531 4.65546
  401 14.9544 17.5851 18.3817
  402 113.964 -1.01720 -11.8383
  403 70.5547 -0.490953 1.40467
  404 70.5292 -0.469077 -1.41143
  405 119.214 -0.868053 0.407567
  406 119.169 -0.806570 -0.372223
  407 122.493 -7.51138 8.37494
  408 55.7093 -3.19036 -14.8314
  409 123.817 -0.595451 -2.28496
  410 56.6088 -3.30128 14.9369
  411 142.941 2.83849 -4.27631
  412 119.625 -5.69889 10.6262
  413 105.342 -6.98199 0.229858
  414 190.075 41.1786 -15.7354
  415 116.622 -4.35661 7.37531
  416 189.544 34.9295 10.9955
  417 139.976 29.9467 3.94027
  418 51.3978 -1.16073 -6.76001
  419 51.4442 -1.11255 6.87786
  420 19.9191 -0.140276 -7.92708
  421 19.6465 -0.133972 7.75852
  422 116.903 -0.944617 -5.16507
  423 244.972 34.3006 31.8514
  424 61.0121 4.35182 28.6319
  425 75.5958 -3.68381 -6.78391
  426 75.4705 -3.67543 6.85997
  427 83.6869 -7.25552 10.0543
  428 70.4053 20.4955 -47.6250
  429 138.718 30.6065 -2.10104
  430 84.1320 -7.15497 -10.1856
  431 127.064 -0.435811 -0.960307
  432 129.617 23.6922 7.49533
  433 134.943 27.1471 -6.06829
  434 90.2477 -6.68134 -6.06438
  435 174.846 40.0119 -6.13880
  436 93.2882 -9.79870 18.7921
  437 149.531 2.15444 -5.67904
  438 99.3887 -6.72579 -26.0903
  439 109.512 1.48838 -10.8154
  440 102.889 -10.3883 -4.85098
  441 208.934 19.6400 -3.75764
  442 205.658 24.5917 12.3972
  443 116.068 -8.16096 6.02400
  444 -0.598539 1.86019 -1.45258
  445 -0.307500 1.98677 1.44282
  446 152.136 30.6086 4.25113
  447 110.786 -0.469991 6.22777
  448 100.994 -8.78140 3.23129
  449 79.8486 -2.90337 27.4163
  450 0.386307 -2.73048 -2.26532
  451 88.2660 -8.01462 -19.9859
  452 113.111 -8.92080 -3.37171
  453 112.147 -1.94495 1.06979
  454 112.134 -1.84248 -0.869447
  455 46.4917 4.66478 -23.7040
  456 116.806 -0.777358 4.86722
  457 15.3993 7.49697 -9.36998
  458 5.17184 4.80707 4.97408
  459 42.2886 -0.344580 -6.13351
  460 42.1527 -0.278320 6.14706
  461 262.511 59.6128 -48.5701
  462 109.755 -0.319601 -6.43282
  463 114.239 -3.09494 -2.56731
  464 110.705 -4.77716 2.39916
  465 105.525 4.20536 7.98691
  466 118.998 -0.365052 13.3946
  467 105.515 -1.81834 0.173407
  468 105.965 -1.78159 -0.236474
  469 39.7143 3.08144 18.8741
  470 87.5391 -3.02141 2.55216
  471 141.212 7.17854 8.06317
  472 133.337 -7.86462 8.81644
  473 153.294 33.2346 -0.459896
  474 127.361 -0.286322 0.949877
  475 107.239 -5.47800 -1.17636
  476 91.8683 -1.61404 -0.379928
  477 91.8092 -1.55874 0.345058
  478 32.6773 15.1886 24.1672
  479 107.714 -3.95768 -1.10714
  480 13.9869 7.94853 8.40876
  481 32.4530 15.7008 -23.8289
  482 116.475 16.6496 -1.94385
  483 95.2305 -5.52092 -2.71052
  484 86.0957 -1.86273 -1.36199
  485 86.1649 -1.80652 1.38907
  486 124.407 -10.6350 0.0783216
  487 124.017 -0.765630 2.25179
  488 162.055 10.6631 12.8546
  489 120.491 14.5737 10.0140
  490 96.7471 -7.57135 -3.83970
  491 118.568 18.8766 2.79286
  492 1.47624 -4.38792 -0.0711144
  493 34.7261 35.3953 39.9358
  494 122.018 10.1044 12.5590
  495 88.1757 -3.02529 -2.31702
  496 104.148 0.180900 -5.38730
  497 84.7550 6.70368 37.4492
  498 109.095 -8.29797 -1.36078
  499 127.520 -10.4990 6.11455
  500 118.969 -2.14813 -3.52327
  501 189.330 29.1229 -4.32231
  502 29.8144 -0.0368366 -7.18900
  503 29.8716 0.0218187 7.30545
  504 120.048 -1.05503 -1.49170
  505 119.557 -1.15273 1.54744
  506 67.0530 -4.53520 18.1777
  507 83.2579 -3.70680 -4.54442
  508 80.1673 -2.12942 -27.4588
  509 69.2763 -5.45019 -17.4594
  510 62.9781 -0.543397 -2.64277
  511 62.9553 -0.560894 2.62006
  512 116.090 -10.8379 2.39762
  513 84.8427 -4.31713 4.97125
  514 122.833 1.45062 -13.6503
  515 89.2853 -4.46972 3.56572
  516 95.4265 -10.0456 11.1657
  517 149.891 11.2842 2.94695
  518 55.2988 -0.232316 -3.83247
  519 55.3195 -0.247944 3.88911
  520 148.676 31.5776 -4.33581
  521 130.594 -1.12145 -10.2544
  522 130.715 -2.10792 9.22743
  523 117.559 -6.38891 -8.94163
  524 90.9865 -7.91829 7.61899
  525 238.258 13.5959 -15.8638
  526 129.606 -8.77631 -0.915246
  527 95.7873 0.949934 -4.23958
  528 98.0351 -4.11254 0.930234
  529 118.045 13.7704 -9.26508
  530 201.412 56.0818 36.3424
  531 115.583 -2.58687 2.56126
  532 106.298 -2.28071 0.334698
  533 107.430 -2.02543 -0.447609
  534 121.026 -9.46569 -5.67291
  535 94.7258 -5.69726 2.89001
  536 70.7190 -0.000896960 -0.624696
  537 70.7256 0.00131955 0.614668
  538 95.8894 -10.3965 -10.8014
  539 123.358 21.3991 -4.59815
  540 116.642 -3.42333 -4.58540
  541 97.3654 0.803217 4.96862
  542 116.555 -4.47532 -7.67441
  543 71.3589 -0.0135948 -0.124274
  544 71.3575 -0.0108434 0.120664
  545 136.500 -5.77596 -10.1909
  546 92.2030 -8.42281 -7.71955
  547 135.119 -2.11990 -6.54713
  548 125.061 -7.98411 18.4090
  549 120.098 -1.82394 3.16340
  550 128.108 -0.355415 0.511508
  551 128.091 -0.309243 -0.457252
  552 113.464 -12.3391 -4.80677
  553 117.164 -11.9235 11.2923
  554 65.0405 -0.379778 -1.71826
  555 65.0016 -0.376403 1.70214
  556 106.306 -10.4562 17.8747
  557 119.038 9.62196 -12.0451
  558 91.5442 -9.58849 -16.1553
  559 117.552 6.70378 12.9913
  560 113.493 -12.5356 8.80327
  561 89.8134 0.986741 1.79348
  562 99.7333 -2.55541 0.260696
  563 123.689 -2.99558 -11.9756
  564 154.828 33.4212 0.646545
  565 126.529 -4.69219 -9.86289
  566 95.0817 -7.10694 4.31947
  567 76.0340 -0.963825 1.83859
  568 76.0489 -0.977789 -1.86796
  569 111.890 -3.00390 1.46863
  570 89.1284 -4.29380 -3.47097
  571 115.527 -1.96241 8.16934
  572 124.539 -8.65439 -6.03580
  573 104.675 -3.11581 0.328386
  574 193.710 57.0481 -24.8701
  575 103.955 2.38216 -7.60696
  576 159.795 34.7467 -0.584541
  577 90.9263 0.812812 -2.78812
  578 114.293 -3.96012 3.31006
  579 32.9399 21.1236 30.8671
  580 110.931 10.4576 5.57193
  581 61.2897 4.91675 -29.0704
  582 124.535 -10.4333 -1.61210
  583 113.619 -1.28783 -9.72373
  584 127.839 15.8239 -11.9247
  585 -0.980526 -1.14011 -2.04653
  586 -1.25324 -1.03856 2.09705
  587 76.8868 -0.658477 -1.05015
  588 76.8864 -0.649527 1.03947
  589 120.287 -7.78697 -8.39897
  590 121.145 -5.10750 -11.1096
  591 11.1524 10.4992 9.04754
  592 112.660 9.74314 8.51663
  593 102.618 -4.85051 -0.0449485
  594 101.395 -1.76137 -0.0973797
  595 101.119 -1.74193 0.00438040
  596 103.032 4.65329 5.26727
  597 236.776 5.40872 3.51966
  598 83.6959 -4.99606 -6.22554
  599 88.7938 1.22655 0.401725
  600 118.899 2.01408 -13.7314
  601 93.0168 -10.5985 16.4384
  602 1.93768 1.25884 3.68311
  603 1.58409 1.05101 -3.44971
  604 125.581 5.68209 -13.7079
  605 109.930 11.4543 -1.50866
  606 117.946 -8.18488 -7.55237
  607 67.6868 -1.53346 -5.14401
  608 67.5574 -1.64617 5.14357
  609 122.046 -0.594482 0.843332
  610 121.997 -0.596907 -0.876944
  611 117.735 -1.11981 -13.1479
  612 115.222 -5.36250 5.66795
  613 82.1595 -4.77813 6.56885
  614 6.38912 5.26440 -3.49193
  615 122.018 65.3960 -70.1883
  616 118.829 -2.06256 5.38534
  617 118.266 -1.93629 -5.70806
  618 93.9794 4.64021 -37.4535
  619 111.389 -3.18909 -1.76691
  620 99.5639 -9.46854 5.48812
  621 129.154 26.6466 -0.153069
  622 43.0468 -1.72741 -13.5154
  623 43.4549 -1.71769 13.6220
  624 141.956 23.8394 8.45677
  625 114.560 -7.37567 -5.40444
  626 100.832 5.47628 -0.00149131
  627 111.300 -10.6707 -0.203259
  628 61.1341 -1.72677 6.42461
  629 61.0878 -1.71474 -6.34069
  630 79.6771 -2.13980 -3.44508
  631 75.5513 -0.281745 -0.501439
  632 75.5517 -0.274783 0.497606
  633 113.886 -4.16446 -3.33300
  634 128.882 -0.121110 -0.243115
  635 128.835 -0.152565 0.305013
  636 149.844 28.3283 -6.30582
  637 70.9621 21.5624 44.6465
  638 137.406 -1.77934 5.37206
  639 60.0397 9.81374 32.1985
  640 25.8661 7.60312 15.2178
  641 140.135 6.18842 -9.11690
  642 117.508 -11.0275 -2.17623
  643 81.9897 -1.19346 -1.14648
  644 82.0163 -1.17674 1.14972
  645 113.709 -1.09402 -0.236680
  646 113.806 -1.12642 0.259566
  647 88.3599 -9.08448 -11.8633
  648 40.1032 2.24656 -19.0996
  649 66.3778 -0.388553 1.06993
  650 66.3573 -0.408873 -1.05196
  651 273.951 71.9208 55.4342
  652 133.014 15.1701 -12.2632
  653 118.816 -3.75548 -12.0516
  654 117.398 -4.23902 -10.9552
  655 123.925 10.2543 -13.2624
  656 73.2438 -2.01420 -5.18484
  657 72.9437 -2.14179 5.06262
  658 110.348 -9.64087 0.933172
  659 0.707450 -3.24166 2.39876
  660 123.718 -0.158408 13.1909
  661 7.05128 4.95796 3.64769
  662 109.428 3.03621 10.4188
  663 17.6560 16.8820 -15.9246
  664 101.927 4.17090 -5.38795
  665 122.962 -0.763252 1.73815
  666 101.707 -9.15482 -3.48984
  667 115.462 -2.09032 -8.54856
  668 33.7804 -0.219976 5.29593
  669 33.9095 -0.185335 -5.31957
  670 140.310 27.9163 -6.78568
  671 62.9334 -3.08034 -22.2122
  672 113.583 -6.18388 -4.47455
  673 98.6980 -4.21817 -1.06899
  674 122.765 -0.957271 -1.68922
  675 130.552 18.7185 10.6952
  676 20.8732 4.44368 -11.5029
  677 20.3188 2.99902 11.3837
  678 118.147 -2.84823 12.4823
  679 104.042 -7.92013 0.969034
  680 116.387 -6.12694 -7.64136
  681 173.206 42.9418 -8.51023
  682 137.090 29.9796 1.31302
  683 100.004 -3.55485 0.398888
  684 130.925 5.00020 12.6794
  685 118.442 -12.3355 2.80627
  686 78.5743 -2.04490 3.46698
  687 105.900 -11.4460 5.19261
  688 124.399 -0.435448 -0.000763436
  689 124.384 -0.486285 0.0139702
  690 174.137 38.6237 8.15314
  691 65.3761 -2.74269 8.69689
  692 8.98593 9.39282 -6.31669
  693 -2.88463 0.0324355 2.44172
  694 -2.56052 0.0847194 -2.51772
  695 56.8669 -2.29317 9.54820
  696 27.9637 11.0164 -17.6691
  697 2.11233 -1.70335 -2.47309
  698 113.215 -9.06376 3.34210
  699 77.8185 -4.54682 -24.2574
  700 87.7967 -9.03741 11.6881
  701 109.738 -6.88476 -2.14407
  702 1.44489 -4.15784 -1.19917
  703 131.111 6.29739 -12.7135
  704 117.803 -11.5040 0.730350
  705 115.975 -9.47103 -4.93140
  706 112.431 3.34577 -11.8352
  707 65.2395 -2.75352 -8.70919
  708 11.1788 16.8891 -16.9888
  709 111.897 6.14784 -10.9763
  710 -0.230710 -3.08637 -2.42115
  711 104.910 0.0517837 5.12560
  712 56.6530 -2.20233 -9.44116
  713 74.4031 -4.06276 24.0853
  714 104.277 -3.51086 -0.283297
  715 84.9603 -2.00242 -1.81313
  716 61.6050 -2.36214 21.8475
  717 35.2505 0.429201 -14.8900
  718 34.7043 0.332930 14.5675
  719 84.6596 -1.90580 1.88192
  720 19.3490 0.429330 -6.04592
  721 19.4682 0.466603 6.00855
  722 92.5261 -3.54530 1.90743
  723 112.581 -0.151532 -4.40698
  724 135.283 13.0663 47.3579
  725 90.1082 -1.77813 -0.938657
  726 90.0517 -1.82460 0.902407
  727 116.421 -3.35429 -9.07665
  728 87.0889 -1.21391 -0.545948
  729 87.0644 -1.17228 0.528408
  730 113.522 -1.22228 8.70604
  731 116.685 -12.2407 1.08557
  732 92.2474 -2.48481 1.12980
  733 7.45951 -0.227420 -3.96309
  734 7.53099 -0.342068 3.90290
  735 92.0674 -2.22675 -1.06234
  736 1.86522 2.12373 -1.20250
  737 126.090 -9.36889 -12.2613
  738 142.815 -2.17737 2.91938
  739 42.1987 6.42168 22.2145
  740 69.0270 -0.0257397 0.695864
  741 69.0094 -0.0184387 -0.706460
  742 109.502 -11.1789 1.76437
  743 216.244 30.6672 -24.6912
  744 98.4116 0.196605 -4.13289
  745 98.2859 -2.35670 -0.355850
  746 89.9697 30.9941 54.9310
  747 125.503 4.95405 13.6763
  748 112.947 -0.211846 4.26937
  749 129.271 -0.221432 -0.569642
  750 129.417 -0.296855 0.569041
  751 179.197 34.7486 -7.07249
  752 125.196 22.8517 3.50496
  753 96.9183 -2.91980 -0.696445
  754 125.795 -0.482920 1.68570
  755 77.2306 -4.65398 -8.60996
  756 114.711 -1.22469 0.749221
  757 114.659 -1.21565 -0.672563
  758 83.6351 -6.81853 21.6262
  759 118.448 -12.5534 -4.19566
  760 116.928 -4.72505 9.76882
  761 77.0875 -4.57751 8.53946
  762 121.712 17.6441 -8.35186
  763 99.1485 0.755866 4.33863
  764 79.6624 -7.45099 -16.2328
  765 97.5334 -2.83968 0.609001
  766 115.681 -2.15688 11.7974
  767 69.9110 0.0980669 -0.219333
  768 69.9126 0.0998154 0.213452
  769 1.90515 2.84675 0.895649
  770 80.1042 -2.84259 4.37249
  771 104.217 -2.60932 -0.223588
  772 115.824 -4.92623 -5.81892
  773 50.2178 -0.269195 3.93365
  774 50.2429 -0.277817 -3.86955
  775 125.826 -3.77180 10.7979
  776 115.469 -2.57612 -11.2923
  777 42.3243 -1.68363 -15.5666
  778 42.4797 -1.47603 15.4480
  779 122.235 -10.0198 3.76149
  780 116.188 -3.69447 4.64585
  781 181.277 32.0074 13.9967
</Section>

newXOutput 8

<Section columns = "stress_xx | stress_yy | stress_xy">
  1 153.123 0.186005 0.211423
  2 153.194 0.163534 -0.201148
  3 81.3997 -0.0529680 -0.162063
  4 -1.02031 -1.16349 -1.35396
  5 286.348 109.576 91.9307
  6 269.103 98.6038 -76.4748
  7 -1.35509 -1.16536 1.54722
  8 81.4045 -0.0546210 0.159862
  9 153.663 -0.104382 0.00213144
  10 153.655 -0.512339 0.450042
  11 152.964 -0.403261 0.331915
  12 149.944 -0.431565 1.08375
  13 148.384 -0.514137 1.23943
  14 145.085 -0.708305 2.01474
  15 139.595 -0.486260 3.01968
  16 133.270 -0.211740 3.47105
  17 126.060 0.185289 4.01445
  18 115.678 0.505367 3.27526
  19 109.184 1.15613 3.83341
  20 104.274 0.827850 2.88117
  21 98.0721 1.12939 0.808232
  22 99.7236 1.64542 -1.08060
  23 101.953 0.814575 -2.00941
  24 108.825 0.785342 -3.35526
  25 115.235 0.337457 -3.68830
  26 125.991 0.202806 -4.17504
  27 133.100 -0.365103 -3.73165
  28 140.172 -0.554335 -3.06303
  29 145.028 -0.452793 -2.21540
  30 147.586 -0.451411 -1.86392
  31 150.313 -0.673376 -0.788307
  32 152.977 -0.337958 -0.176696
  33 153.700 -0.425275 -0.398348
  34 153.749 -0.149156 0.0273802
  35 147.926 -0.204087 -0.304668
  36 141.261 -0.652905 -0.351043
  37 135.143 -1.33263 -0.489819
  38 128.018 -1.74264 -0.571218
  39 120.869 -2.01525 -0.437444
  40 112.792 -1.90786 -0.205120
  41 104.965 -1.59822 -0.122396
  42 97.8955 -1.25065 0.0467089
  43 91.5914 -0.613199 0.176979
  44 85.5714 -0.223041 -0.0269149
  45 79.6147 0.244469 -0.0135306
  46 79.3123 0.205125 0.362164
  47 78.7262 0.0391748 0.215014
  48 77.3876 -0.165705 0.665668
  49 74.4406 -0.00779269 0.954102
  50 71.9051 -0.225754 1.43185
  51 68.7482 -0.178178 2.06986
  52 63.2107 -0.0112927 2.21042
  53 56.8253 0.0464517 2.56526
  54 50.7533 -0.107078 4.02334
  55 38.9965 0.277120 3.72493
  56 30.9920 0.316340 4.36927
  57 20.0272 0.441480 3.87537
  58 10.1391 0.188711 4.20786
  59 0.289294 1.23811 4.19686
  60 -6.21771 1.45668 2.06576
  61 -8.24729 1.38453 -0.272758
  62 -6.64908 1.01849 -2.48689
  63 -3.84232 -0.376050 -2.10550
  64 -0.437733 -3.87369 -1.97368
  65 0.187184 -7.50983 -2.70079
  66 0.916740 -12.2688 -1.69907
  67 3.13940 -12.7796 -0.148828
  68 5.41966 -2.34152 6.09945
  69 16.5186 21.9182 22.9728
  70 75.0104 76.7489 74.6805
  71 370.269 39.4409 59.3278
  72 296.729 12.5175 19.6589
  73 282.696 6.93516 7.94847
  74 278.459 4.42074 -0.461903
  75 281.558 5.81030 -6.93756
  76 301.270 11.0387 -18.9887
  77 351.035 32.3746 -50.8999
  78 60.2971 88.0891 -71.4680
  79 13.4339 11.3380 -17.1752
  80 5.00080 -2.50305 -6.32330
  81 1.54287 -12.7500 -0.618578
  82 0.900163 -9.60553 1.36047
  83 1.04210 -9.44571 2.26634
  84 0.0765856 -3.53777 2.49164
  85 -4.11602 -0.319988 2.08184
  86 -6.96655 0.983610 2.42524
  87 -8.41947 1.37024 0.221250
  88 -6.35538 1.36713 -2.03231
  89 0.0519038 1.37446 -4.12530
  90 9.96320 0.230350 -4.27061
  91 19.9498 0.414963 -3.94326
  92 31.1005 0.312018 -4.40158
  93 39.1541 0.269294 -3.75651
  94 50.9191 -0.143863 -3.98362
  95 56.8997 0.0456066 -2.51328
  96 63.1960 0.0156588 -2.18253
  97 68.7548 -0.171622 -2.08372
  98 71.8892 -0.228427 -1.42920
  99 74.4325 -0.00938401 -0.956428
  100 77.3584 -0.161223 -0.661723
  101 78.7029 0.0404867 -0.222600
  102 79.3045 0.203814 -0.369205
  103 79.6162 0.242659 0.00947292
  104 85.5720 -0.228938 0.0241320
  105 91.5900 -0.624599 -0.180704
  106 97.8910 -1.26766 -0.0432865
  107 105.049 -1.64035 0.143584
  108 112.867 -1.92385 0.182811
  109 120.622 -2.02053 0.420145
  110 127.916 -1.65930 0.525107
  111 135.171 -1.39318 0.490823
  112 141.255 -0.706297 0.348746
  113 147.877 -0.257711 0.327876
  114 129.854 -13.6961 -2.93640
  115 131.344 -13.6544 1.80637
  116 137.822 19.7076 -7.35842
  117 110.619 -9.13308 -26.3230
  118 107.222 -8.44833 26.8973
  119 149.487 14.1936 14.7209
  120 157.463 4.22269 -12.3453
  121 110.044 -4.93583 -2.55338
  122 109.444 -5.22029 2.64600
  123 171.328 38.2805 0.646056
  124 131.969 -6.00860 4.48740
  125 133.057 -5.66948 -5.03438
  126 135.951 -2.96639 -14.1357
  127 91.5496 -7.73566 14.4921
  128 91.4446 -7.78571 -15.2096
  129 136.751 -4.73661 12.8490
  130 186.497 41.9242 0.109083
  131 48.1046 11.6134 -28.3954
  132 46.5219 11.7827 27.9233
  133 166.198 0.0430737 0.406944
  134 193.348 43.9463 -4.23715
  135 125.984 8.55966 7.98329
  136 125.947 -3.43863 0.957402
  137 126.670 -3.18739 -1.03936
  138 165.857 -2.49393 16.5991
  139 91.0519 -3.97196 -6.53866
  140 91.0586 -3.95587 6.25157
  141 126.719 7.92841 -46.2957
  142 222.170 31.0188 4.13786
  143 127.370 4.44997 -12.0089
  144 94.2711 -1.40401 -1.75186
  145 94.2520 -1.39842 1.76400
  146 110.787 -9.30508 6.24977
  147 113.076 -9.73516 -6.13928
  148 65.1948 -4.00291 -21.0345
  149 64.9185 -3.16518 21.3298
  150 142.226 21.9085 8.11821
  151 142.737 -13.6223 5.19796
  152 143.324 -7.88871 -10.5494
  153 147.813 -8.66041 7.39623
  154 135.280 -9.20404 -7.49667
  155 140.849 6.72363 -15.8516
  156 128.207 10.0651 50.7116
  157 8.64212 7.55828 4.12391
  158 7.44817 6.33287 -3.08113
  159 122.527 7.65319 -3.19462
  160 133.960 2.99040 14.6663
  161 139.356 -1.76085 2.76089
  162 138.126 -2.07014 -2.80141
  163 128.032 -9.59131 1.99550
  164 136.070 -3.13219 -8.52586
  165 155.534 25.9192 -11.1334
  166 123.555 -8.10895 -0.558455
  167 118.010 -13.4065 13.4852
  168 109.935 -2.66343 -0.677166
  169 110.079 -2.64125 0.708707
  170 136.760 -2.88897 7.95888
  171 118.872 -13.3274 -12.9062
  172 141.295 -13.1383 -8.79104
  173 158.599 28.3723 10.0393
  174 124.004 -6.65343 1.07535
  175 190.082 21.2910 -11.8282
  176 31.6572 2.33495 -16.1040
  177 30.7477 2.16470 15.6746
  178 234.535 44.6807 23.1347
  179 197.480 35.2879 4.44183
  180 242.912 28.0890 -15.2178
  181 136.599 -1.64264 1.09502
  182 136.429 -1.60257 -1.10354
  183 80.3705 -2.67715 -8.26088
  184 80.3779 -2.71136 8.28863
  185 64.3958 -2.45074 -13.0526
  186 64.8897 -2.46453 13.2685
  187 39.5114 28.0491 -35.6038
  188 129.915 -0.717218 11.3382
  189 138.154 -10.0796 7.77624
  190 87.4778 -1.21026 -2.86083
  191 87.3000 -1.27867 2.89686
  192 19.2999 19.2743 20.0188
  193 127.053 0.198555 -10.8796
  194 135.534 -7.01902 8.80248
  195 121.336 1.87030 9.47716
  196 140.967 -8.57418 -24.0956
  197 139.714 -2.12218 -4.91178
  198 126.244 -11.1994 0.405216
  199 151.147 30.6368 -5.07050
  200 141.583 -4.24249 13.9957
  201 94.3253 -8.71212 -21.3792
  202 69.3195 -0.0383887 -28.1687
  203 67.6832 0.397709 28.1665
  204 135.940 11.5075 12.2130
  205 99.7505 0.327124 37.2454
  206 131.241 14.7779 2.33269
  207 170.425 19.3488 -9.14091
  208 140.154 -2.07446 4.41020
  209 94.3492 -8.57728 21.5445
  210 120.054 -5.26844 -0.0143150
  211 231.551 57.6879 -28.2546
  212 170.196 22.0980 9.77194
  213 97.1288 -7.14180 -9.23073
  214 96.5803 -6.68467 9.12413
  215 13.6527 5.00290 -8.37832
  216 15.7943 5.10816 9.65069
  217 111.096 -11.4093 10.2402
  218 117.468 -4.31857 -0.508888
  219 118.503 -2.41115 0.0663541
  220 119.856 -2.39699 -0.115301
  221 111.416 -11.0524 -10.2957
  222 116.923 -8.02497 -2.09187
  223 140.291 -12.1524 17.3908
  224 168.995 37.2904 -3.41055
  225 197.533 39.5079 -2.85892
  226 157.352 4.52391 11.7259
  227 130.429 -4.29790 2.86675
  228 96.6193 1.19468 -37.9177
  229 105.462 -6.73816 5.18278
  230 129.106 -4.95811 -2.49409
  231 157.900 -7.04090 0.726029
  232 132.917 10.5659 -11.7156
  233 149.890 -7.73583 -7.30910
  234 113.653 4.35010 2.27124
  235 98.0818 -3.44013 -3.97894
  236 147.536 0.431517 -14.5735
  237 80.1091 -1.28377 -4.20117
  238 80.0244 -1.25792 4.06912
  239 86.3494 -0.189988 -0.510214
  240 86.3509 -0.183283 0.501645
  241 134.228 1.47966 -15.0236
  242 97.2576 -3.41631 4.21559
  243 104.613 -6.57523 -5.54229
  244 47.9677 34.6974 46.7316
  245 7.53210 8.99115 -5.91956
  246 257.803 19.4382 5.74839
  247 113.497 1.88686 -5.04897
  248 130.693 -8.83372 -3.94476
  249 136.982 28.5672 -64.7284
  250 137.359 -11.1504 -6.09444
  251 67.0853 -2.25143 -8.64296
  252 67.1874 -2.31856 8.71554
  253 136.020 -5.55362 -10.8525
  254 140.481 -1.90511 -15.0994
  255 100.294 -1.59612 -0.724922
  256 100.292 -1.60566 0.697688
  257 145.252 -0.766328 -1.11977
  258 145.392 -0.605308 1.10341
  259 132.447 -1.14103 -8.31111
  260 193.288 19.2574 38.1096
  261 123.829 -11.9758 -2.39130
  262 103.454 -3.01327 -2.00766
  263 102.929 -3.07010 2.11747
  264 -0.274006 -0.395925 -3.01279
  265 -0.773888 0.0972360 3.15378
  266 35.6380 -0.927356 -13.1244
  267 35.4216 -0.778846 13.0259
  268 84.5032 -0.636537 1.22891
  269 84.4931 -0.643613 -1.24768
  270 132.416 -1.47573 7.88845
  271 153.433 32.1769 3.65311
  272 140.573 -12.9974 -2.18534
  273 142.843 17.0122 -13.2091
  274 138.644 -7.18845 -11.6870
  275 152.161 -8.80363 2.71463
  276 50.9680 -1.16265 12.3722
  277 50.5734 -1.23713 -12.1914
  278 139.999 -13.1918 -0.864136
  279 121.395 -13.6645 16.9518
  280 128.604 -1.91513 0.393479
  281 128.750 -1.82467 -0.374626
  282 145.056 -0.518238 -0.549099
  283 145.079 -0.617322 0.576852
  284 65.4237 18.0648 42.1326
  285 149.327 12.0384 -15.3588
  286 133.708 -11.3172 3.86152
  287 170.170 35.4185 5.45265
  288 120.741 1.18071 -8.76504
  289 117.921 -3.53559 0.141379
  290 164.188 26.2538 -10.8326
  291 134.910 -2.57425 34.5293
  292 142.103 25.3876 0.0665516
  293 121.333 -12.9728 -17.7289
  294 129.289 -14.6752 7.01070
  295 122.737 -12.1665 3.66020
  296 191.817 39.4795 2.48451
  297 115.730 -7.98075 2.90665
  298 143.862 -0.972488 -2.49063
  299 134.525 -6.79519 -7.43379
  300 231.540 63.5749 26.6705
  301 148.324 0.194232 14.1199
  302 140.565 -0.982754 -3.99167
  303 146.049 19.8706 12.0491
  304 160.539 -0.894457 -26.5711
  305 140.475 4.14703 15.8842
  306 4.28187 4.65721 1.94037
  307 82.5468 -6.23131 17.5387
  308 134.157 -2.27596 1.70651
  309 133.643 -2.56281 -1.86320
  310 131.188 13.7092 -6.83943
  311 79.1966 -5.37874 -16.9654
  312 85.3277 -6.71114 -24.1447
  313 137.088 -3.05962 3.94720
  314 128.943 -7.42150 3.20559
  315 133.861 -0.664239 14.4608
  316 203.650 36.7788 -43.9722
  317 135.674 -4.70490 10.1855
  318 135.667 -3.48632 -4.03611
  319 143.764 -0.810173 2.49271
  320 81.3594 -0.937521 2.81406
  321 81.4386 -1.03491 -2.85819
  322 22.4348 14.1615 -17.4185
  323 111.903 3.35037 -1.87513
  324 136.576 -4.05491 6.96890
  325 187.041 33.2439 1.71977
  326 135.312 16.9924 8.15064
  327 72.8092 14.0190 -42.2999
  328 83.3318 -5.03790 24.3284
  329 125.870 7.42643 -8.89743
  330 140.139 -1.15874 4.35660
  331 134.845 -3.57668 -11.8123
  332 3.15637 1.51073 0.160099
  333 24.5147 12.2304 16.0963
  334 100.651 -10.6794 17.1534
  335 -1.22474 2.35775 0.998660
  336 -0.933481 2.57662 -0.926914
  337 150.626 56.0024 70.5404
  338 134.251 -3.12555 11.8402
  339 287.210 30.5751 -36.6745
  340 130.817 7.67245 12.3736
  341 157.921 16.2921 12.7331
  342 112.116 -3.69755 1.18272
  343 114.195 1.95009 5.42789
  344 102.883 -11.4137 -16.1848
  345 129.942 -6.25824 -3.44527
  346 117.654 -6.57204 1.06684
  347 136.482 -3.80643 -7.14971
  348 132.053 -14.4732 -9.83196
  349 155.282 -8.51173 -4.46655
  350 123.417 9.28651 2.45497
  351 139.593 -11.8816 5.45985
  352 178.350 12.4700 -0.0684587
  353 76.0931 -3.89738 12.7134
  354 124.859 -4.77356 1.26345
  355 121.161 -13.3705 -8.49328
  356 202.892 48.9062 8.72506
  357 147.964 24.8718 -9.83926
  358 94.0013 -2.09129 3.00151
  359 94.1950 -2.26152 -3.06134
  360 75.5211 -3.76438 -12.9214
  361 49.1520 41.2810 -48.8232
  362 113.675 -2.16424 -0.376793
  363 114.047 -2.28706 0.277729
  364 70.7663 -0.787487 -4.47900
  365 70.7520 -0.804929 4.52862
  366 267.278 10.1981 -5.39917
  367 270.715 18.4284 17.3361
  368 122.014 -9.89485 -1.45642
  369 166.889 4.62459 35.8773
  370 58.0378 -0.132375 22.4569
  371 58.0890 -0.521925 -22.5820
  372 122.833 -7.73923 27.9352
  373 122.184 0.935980 9.03214
  374 128.625 1.41728 12.7641
  375 118.693 -13.7342 10.2440
  376 33.7483 7.30166 -19.1586
  377 33.2958 5.93230 18.4291
  378 14.9386 1.20941 -7.90016
  379 15.0339 1.02761 7.98250
  380 130.771 -11.6741 -20.5455
  381 93.9355 -0.872532 -0.764200
  382 93.9362 -0.860630 0.760295
  383 193.857 37.4883 -0.239395
  384 117.151 -6.38726 -1.15675
  385 125.385 -3.27162 -35.4292
  386 132.433 -12.1701 -2.01288
  387 183.703 33.1147 -3.21164
  388 160.355 13.8572 -12.9851
  389 136.862 -7.62654 10.3674
  390 87.5656 -2.29318 -4.79620
  391 87.2564 -2.07328 4.55802
  392 117.832 -3.02736 -0.142607
  393 109.888 -3.78563 -1.69676
  394 84.7907 -5.18879 11.5606
  395 84.6879 -5.16923 -11.7767
  396 10.3491 15.1114 -12.4369
  397 135.074 6.30002 -14.5234
  398 103.421 -7.32659 7.10658
  399 171.382 11.0359 -38.4404
  400 132.635 -8.72744 5.33410
  401 17.4515 20.6077 21.4988
  402 132.713 -1.18482 -13.6970
  403 82.3484 -0.568484 1.64184
  404 82.3188 -0.543082 -1.64969
  405 138.711 -1.02212 0.464750
  406 138.659 -0.950865 -0.423776
  407 142.563 -8.74828 9.63515
  408 64.9919 -3.71877 -17.2977
  409 144.070 -0.697338 -2.63260
  410 66.0370 -3.84790 17.4211
  411 166.275 3.31689 -4.82922
  412 139.246 -6.63877 12.2614
  413 122.656 -8.12604 0.205358
  414 221.027 47.8921 -18.3587
  415 135.754 -5.07658 8.50391
  416 220.416 40.6086 12.8209
  417 162.953 34.8362 4.53053
  418 60.0247 -1.34987 -7.87986
  419 60.0783 -1.29388 8.01704
  420 23.3257 -0.167172 -9.25883
  421 23.0075 -0.159565 9.06264
  422 136.099 -1.10366 -5.96746
  423 284.520 39.8511 36.9771
  424 71.0927 5.05435 33.3955
  425 88.1503 -4.28258 -7.91978
  426 88.0054 -4.27292 8.00782
  427 97.5188 -8.44229 11.7404
  428 81.9478 23.8963 -55.5047
  429 161.500 35.6012 -2.41989
  430 98.0334 -8.32546 -11.8940
  431 147.798 -0.512254 -1.10151
  432 150.918 27.5683 8.65647
  433 157.105 31.5840 -6.99533
  434 105.144 -7.77198 -7.10084
  435 203.334 46.5924 -7.32245
  436 108.619 -11.4130 21.9334
  437 173.881 2.53695 -6.75389
  438 115.675 -7.83295 -30.4360
  439 127.568 1.73649 -12.5233
  440 119.799 -12.0901 -5.71278
  441 242.829 22.8224 -4.36794
  442 239.052 28.5784 14.4168
  443 135.105 -9.50293 6.91734
  444 -0.640413 2.16735 -1.71762
  445 -0.301588 2.31500 1.70641
  446 177.032 35.6196 4.81994
  447 129.038 -0.547158 7.20580
  448 117.608 -10.2182 3.82120
  449 92.9900 -3.39198 31.9738
  450 0.457393 -3.15577 -2.61919
  451 102.789 -9.33806 -23.3199
  452 131.669 -10.3854 -3.83873
  453 130.538 -2.27278 1.21717
  454 130.523 -2.15385 -0.986853
  455 54.2185 5.41943 -27.6620
  456 135.989 -0.908374 5.62401
  457 18.0052 8.74032 -10.9761
  458 6.04591 5.68247 5.85466
  459 49.4249 -0.400505 -7.15145
  460 49.2665 -0.323290 7.16739
  461 304.770 69.3160 -56.4024
  462 127.847 -0.371913 -7.44452
  463 132.968 -3.61017 -2.93856
  464 128.876 -5.56439 2.73223
  465 122.961 4.90473 9.25391
  466 138.543 -0.428166 15.4889
  467 122.857 -2.12291 0.190684
  468 123.378 -2.08047 -0.264058
  469 46.3458 3.57875 22.0324
  470 102.025 -3.51186 2.99594
  471 164.291 8.36246 9.23965
  472 155.091 -9.14233 10.3753
  473 178.414 38.6485 -0.509239
  474 148.141 -0.339104 1.08988
  475 124.857 -6.37742 -1.31229
  476 107.050 -1.87727 -0.450653
  477 106.981 -1.81311 0.410061
  478 38.1182 17.7047 28.2240
  479 125.407 -4.61020 -1.24268
  480 16.3591 9.26553 9.85415
  481 37.8621 18.2972 -27.8310
  482 135.668 19.3868 -2.24981
  483 110.932 -6.42173 -3.19820
  484 100.360 -2.16389 -1.60064
  485 100.440 -2.09866 1.63212
  486 144.761 -12.3815 -0.0189239
  487 144.303 -0.893492 2.59527
  488 188.383 12.4887 15.1256
  489 140.314 16.9655 11.5868
  490 112.686 -8.80813 -4.51988
  491 138.098 21.9753 3.23190
  492 1.72977 -5.05065 -0.121074
  493 40.4306 41.4029 46.5822
  494 142.069 11.7601 14.5260
  495 102.762 -3.51665 -2.72295
  496 121.365 0.211732 -6.23885
  497 98.6521 7.81319 43.6572
  498 127.008 -9.65845 -1.51059
  499 148.354 -12.2172 7.22369
  500 138.452 -2.50870 -4.05143
  501 220.161 33.8524 -5.04232
  502 34.8823 -0.0438394 -8.38646
  503 34.9485 0.0244010 8.52232
  504 139.684 -1.23852 -1.70820
  505 139.117 -1.35256 1.77158
  506 78.1646 -5.28683 21.2020
  507 97.0507 -4.30899 -5.31594
  508 93.3577 -2.49153 -32.0222
  509 80.7476 -6.35113 -20.3657
  510 73.5313 -0.630789 -3.08177
  511 73.5046 -0.651147 3.05548
  512 135.121 -12.6175 2.69493
  513 98.8861 -5.01916 5.81572
  514 142.990 1.68437 -15.7776
  515 104.042 -5.19691 4.18288
  516 111.128 -11.6934 13.0521
  517 174.348 13.1580 3.27029
  518 64.5854 -0.268842 -4.46728
  519 64.6091 -0.287046 4.53305
  520 173.033 36.7357 -4.94297
  521 151.971 -1.30851 -11.8063
  522 152.107 -2.45689 10.6111
  523 136.844 -7.44153 -10.3091
  524 105.994 -9.21289 8.91384
  525 276.713 15.7998 -18.4099
  526 150.791 -10.2148 -0.946877
  527 111.690 1.11132 -4.91356
  528 114.189 -4.78501 1.12170
  529 137.477 16.0326 -10.7229
  530 233.948 65.3856 42.4806
  531 134.523 -3.01961 2.93483
  532 123.764 -2.66050 0.365625
  533 125.076 -2.36459 -0.498371
  534 140.853 -11.0220 -6.49507
  535 110.347 -6.62698 3.40698
  536 82.5557 0.000657069 -0.730865
  537 82.5634 0.00322707 0.719240
  538 111.666 -12.1016 -12.6298
  539 143.658 24.9064 -5.31816
  540 135.762 -3.99154 -5.27388
  541 113.516 0.939472 5.75830
  542 135.677 -5.21454 -8.84986
  543 83.3043 -0.0139231 -0.146401
  544 83.3027 -0.0107274 0.142221
  545 158.756 -6.70653 -11.9801
  546 107.404 -9.80040 -9.03311
  547 157.205 -2.46586 -7.48547
  548 145.473 -9.28019 21.5209
  549 139.758 -2.13109 3.63712
  550 148.991 -0.419386 0.585944
  551 148.971 -0.366091 -0.523172
  552 132.059 -14.3647 -5.68044
  553 136.332 -13.8798 13.2300
  554 75.9393 -0.440266 -2.00468
  555 75.8942 -0.436402 1.98603
  556 123.723 -12.1751 20.8776
  557 138.617 11.2022 -13.9383
  558 106.605 -11.1666 -18.8593
  559 136.887 7.80391 15.0355
  560 132.083 -14.5934 10.3300
  561 104.773 1.15569 2.07928
  562 116.160 -2.97590 0.325360
  563 143.968 -3.49236 -13.8233
  564 180.190 38.8656 0.702042
  565 147.251 -5.46662 -11.3586
  566 110.755 -8.26705 5.07448
  567 88.7001 -1.11728 2.15071
  568 88.7174 -1.13347 -2.18480
  569 130.244 -3.50375 1.66829
  570 103.860 -4.99251 -4.07235
  571 134.507 -2.28820 9.44053
  572 144.928 -10.0776 -6.91050
  573 121.885 -3.62978 0.348506
  574 225.159 66.4305 -29.1167
  575 121.141 2.78254 -8.81368
  576 185.943 40.4121 -0.764280
  577 106.061 0.952698 -3.23358
  578 133.036 -4.61560 3.79337
  579 38.4146 24.6333 36.0324
  580 129.232 12.1844 6.45420
  581 71.4160 5.71208 -33.9061
  582 144.912 -12.1463 -1.76552
  583 132.308 -1.50120 -11.2475
  584 148.830 18.4152 -13.7800
  585 -1.13937 -1.32566 -2.38191
  586 -1.45593 -1.20585 2.43903
  587 89.6946 -0.762488 -1.23012
  588 89.6942 -0.752082 1.21774
  589 140.005 -9.06896 -9.66763
  590 141.011 -5.95068 -12.8202
  591 13.0385 12.2673 10.6134
  592 131.232 11.3495 9.86229
  593 119.500 -5.64556 -0.0979601
  594 118.085 -2.05435 -0.104547
  595 117.765 -2.03178 -0.00327221
  596 120.077 5.42938 6.10431
  597 274.969 6.28607 4.08003
  598 97.5491 -5.80949 -7.27718
  599 103.592 1.43494 0.466317
  600 138.435 2.34176 -15.8836
  601 108.315 -12.3425 19.1909
  602 2.33971 1.46499 4.31542
  603 1.92806 1.22284 -4.04337
  604 146.184 6.61031 -15.8418
  605 128.074 13.3457 -1.74740
  606 137.287 -9.53143 -8.68886
  607 78.9824 -1.78105 -6.00125
  608 78.8321 -1.91211 6.00071
  609 141.990 -0.703036 0.964709
  610 141.933 -0.705796 -1.00368
  611 137.077 -1.30657 -15.2055
  612 134.122 -6.24655 6.51880
  613 95.7669 -5.55610 7.67533
  614 7.50083 6.14020 -4.11191
  615 141.639 76.3818 -81.6649
  616 138.307 -2.40719 6.20993
  617 137.662 -2.25991 -6.58625
  618 109.360 5.40009 -43.6525
  619 129.665 -3.71848 -2.01134
  620 115.943 -11.0183 6.44745
  621 150.394 31.0035 -0.175936
  622 50.2619 -2.01621 -15.7658
  623 50.7361 -2.00496 15.8904
  624 165.213 27.7437 9.71998
  625 133.354 -8.58880 -6.20397
  626 117.531 6.38921 -0.00160909
  627 129.560 -12.4206 -0.319929
  628 71.3561 -2.00762 7.49064
  629 71.3025 -1.99362 -7.39310
  630 92.9086 -2.48529 -4.02954
  631 88.1555 -0.324531 -0.584501
  632 88.1561 -0.316449 0.580061
  633 132.564 -4.85348 -3.81859
  634 149.881 -0.147792 -0.279136
  635 149.827 -0.184278 0.350670
  636 174.364 32.9669 -7.19938
  637 82.6109 25.1191 52.0332
  638 159.854 -2.06702 6.11613
  639 69.9461 11.4216 37.5531
  640 30.2033 8.85475 17.7890
  641 163.041 7.20664 -10.4649
  642 136.763 -12.8383 -2.43471
  643 95.6056 -1.38458 -1.34416
  644 95.6364 -1.36515 1.34795
  645 132.342 -1.28498 -0.267469
  646 132.455 -1.32250 0.294023
  647 102.929 -10.5743 -13.8552
  648 46.7987 2.60508 -22.2946
  649 77.5026 -0.450144 1.24970
  650 77.4787 -0.473724 -1.22882
  651 317.940 83.6425 64.3839
  652 154.823 17.6539 -14.1538
  653 138.318 -4.37637 -13.9231
  654 136.670 -4.93905 -12.6540
  655 144.278 11.9339 -15.3366
  656 85.4334 -2.33954 -6.05284
  657 85.0857 -2.48783 5.91045
  658 128.460 -11.2218 1.00616
  659 0.833147 -3.76071 2.77999
  660 144.011 -0.189170 15.2401
  661 8.27326 5.78311 4.29377
  662 127.475 3.54042 12.0667
  663 20.6192 19.7026 -18.6320
  664 118.798 4.86825 -6.24508
  665 143.059 -0.898286 1.99532
  666 118.433 -10.6533 -4.12371
  667 134.432 -2.43666 -9.87977
  668 39.5187 -0.256483 6.17611
  669 39.6693 -0.216150 -6.20351
  670 163.326 32.4803 -7.80331
  671 73.3561 -3.59909 -25.9078
  672 132.217 -7.20158 -5.13099
  673 114.957 -4.90819 -1.28339
  674 142.831 -1.12369 -1.93784
  675 151.982 21.7828 12.3496
  676 24.4071 5.17196 -13.4456
  677 23.7605 3.48810 13.3076
  678 137.547 -3.31999 14.4276
  679 121.148 -9.21649 1.19041
  680 135.480 -7.13652 -8.80280
  681 201.468 49.9721 -10.0310
  682 159.611 34.8731 1.51233
  683 116.472 -4.13793 0.499520
  684 152.373 5.81645 14.6317
  685 137.836 -14.3602 3.36241
  686 91.6305 -2.37494 4.05373
  687 123.289 -13.3223 6.11520
  688 144.704 -0.517072 0.00198254
  689 144.686 -0.575880 0.0132800
  690 202.568 44.9182 9.56628
  691 76.2720 -3.18927 10.1419
  692 10.5138 10.9712 -7.42245
  693 -3.35138 0.0410004 2.83742
  694 -2.97303 0.102916 -2.92624
  695 66.3733 -2.66910 11.1324
  696 32.6461 12.8347 -20.6508
  697 2.47596 -1.88393 -2.93248
  698 131.790 -10.5520 3.80391
  699 90.6438 -5.30646 -28.2905
  700 102.276 -10.5194 13.6504
  701 127.756 -8.01531 -2.42616
  702 1.68967 -4.79078 -1.36702
  703 152.593 7.32714 -14.6709
  704 137.104 -13.3931 0.751798
  705 134.994 -11.0270 -5.64450
  706 130.952 3.89846 -13.7037
  707 76.1134 -3.20201 -10.1562
  708 13.0459 19.8367 -19.8760
  709 130.340 7.16165 -12.7115
  710 -0.264068 -3.58742 -2.81368
  711 122.248 0.0615005 5.93479
  712 66.1252 -2.56292 -11.0077
  713 86.6773 -4.74249 28.0921
  714 121.424 -4.08915 -0.292847
  715 99.0409 -2.32594 -2.12907
  716 71.8122 -2.76261 25.4846
  717 41.1685 0.492440 -17.3798
  718 40.5321 0.380633 17.0052
  719 98.6926 -2.21371 2.20895
  720 22.6847 0.498861 -7.05795
  721 22.8230 0.542334 7.01454
  722 107.805 -4.12286 2.24897
  723 131.114 -0.177986 -5.09718
  724 157.236 15.2972 55.1739
  725 105.009 -2.06702 -1.10704
  726 104.944 -2.12105 1.06492
  727 135.533 -3.90881 -10.4824
  728 101.514 -1.41001 -0.639309
  729 101.486 -1.36166 0.618915
  730 132.196 -1.42536 10.0689
  731 135.801 -14.2499 1.35727
  732 107.485 -2.88975 1.33762
  733 8.80943 -0.266074 -4.63379
  734 8.89209 -0.399612 4.56365
  735 107.277 -2.58949 -1.25825
  736 2.19699 2.49684 -1.36611
  737 146.683 -10.8995 -14.3712
  738 166.102 -2.51470 3.53653
  739 49.2212 7.46878 25.9297
  740 80.5892 -0.0282017 0.814048
  741 80.5687 -0.0197109 -0.826327
  742 127.474 -13.0116 2.13314
  743 251.296 35.6488 -28.7034
  744 114.730 0.230981 -4.78815
  745 114.483 -2.74421 -0.433663
  746 104.626 36.1344 63.9754
  747 146.093 5.76208 15.8043
  748 131.536 -0.248117 4.93735
  749 150.340 -0.262038 -0.652945
  750 150.508 -0.349194 0.652387
  751 208.430 40.4031 -8.28057
  752 145.796 26.5951 4.05163
  753 112.897 -3.39759 -0.836209
  754 146.349 -0.566832 1.94021
  755 90.0358 -5.41223 -10.0487
  756 133.504 -1.43668 0.854920
  757 133.443 -1.42637 -0.766240
  758 97.4074 -7.94751 25.2270
  759 137.838 -14.6144 -4.98044
  760 136.119 -5.50464 11.2779
  761 89.8706 -5.32345 9.96648
  762 141.738 20.5382 -9.66084
  763 115.583 0.880362 5.02688
  764 92.8191 -8.67726 -18.9382
  765 113.610 -3.30479 0.735446
  766 134.693 -2.51378 13.6424
  767 81.6263 0.114806 -0.257677
  768 81.6284 0.116836 0.250864
  769 2.24405 3.33832 1.00805
  770 93.3971 -3.30325 5.11109
  771 121.354 -3.04129 -0.232331
  772 134.820 -5.73915 -6.69635
  773 58.6707 -0.311418 4.58558
  774 58.7001 -0.321395 -4.51106
  775 146.439 -4.39609 12.4481
  776 134.447 -3.00150 -13.0567
  777 49.4067 -1.96817 -18.1631
  778 49.5877 -1.72626 18.0256
  779 142.251 -11.6661 4.26856
  780 135.237 -4.30706 5.34259
  781 210.685 37.3468 16.5044
</Section>

newXOutput 9

<Section columns = "stress_xx | stress_yy | stress_xy">
  1 174.412 0.204430 0.239116
  2 174.491 0.179014 -0.227583
  3 93.1058 -0.0583922 -0.182926
  4 -1.16538 -1.32868 -1.54713
  5 325.258 125.069 104.637
  6 305.851 112.589 -87.0985
  7 -1.54739 -1.33066 1.76808
  8 93.1111 -0.0602742 0.180431
  9 175.024 -0.123831 -0.000286666
  10 175.020 -0.586383 0.506240
  11 174.248 -0.462078 0.370636
  12 170.846 -0.496589 1.21976
  13 169.095 -0.587452 1.39728
  14 165.373 -0.809483 2.27511
  15 159.175 -0.557491 3.41728
  16 152.025 -0.243854 3.93189
  17 143.863 0.209638 4.55125
  18 132.102 0.575990 3.71668
  19 124.738 1.31800 4.35244
  20 119.165 0.949543 3.27171
  21 112.128 1.29012 0.918302
  22 114.002 1.88232 -1.22808
  23 116.534 0.932824 -2.28260
  24 124.331 0.897150 -3.80896
  25 131.600 0.384901 -4.18490
  26 143.784 0.230077 -4.73399
  27 151.832 -0.418508 -4.22736
  28 159.827 -0.634414 -3.46576
  29 165.310 -0.519876 -2.50339
  30 168.192 -0.519221 -2.10442
  31 171.260 -0.770887 -0.884990
  32 174.262 -0.388330 -0.194510
  33 175.072 -0.488084 -0.447776
  34 175.120 -0.174827 0.0334955
  35 168.535 -0.242319 -0.345091
  36 160.991 -0.756806 -0.396533
  37 154.061 -1.53201 -0.552471
  38 145.983 -1.99712 -0.642871
  39 137.875 -2.30379 -0.492185
  40 128.710 -2.17757 -0.227060
  41 119.829 -1.82057 -0.135109
  42 111.808 -1.42245 0.0566293
  43 104.658 -0.695043 0.203343
  44 97.8328 -0.251229 -0.0292130
  45 91.0812 0.278426 -0.0133378
  46 90.7331 0.233895 0.414482
  47 90.0570 0.0453670 0.249038
  48 88.5252 -0.187364 0.763520
  49 85.1648 -0.00777689 1.09084
  50 82.2658 -0.256343 1.63542
  51 78.6582 -0.201986 2.36348
  52 72.3413 -0.0117663 2.52524
  53 65.0572 0.0537567 2.93036
  54 58.1218 -0.120522 4.59508
  55 44.7097 0.316037 4.25605
  56 35.5666 0.360326 4.99140
  57 23.0353 0.502413 4.43297
  58 11.7230 0.213094 4.81837
  59 0.446359 1.41218 4.81010
  60 -7.01805 1.66243 2.37553
  61 -9.37104 1.58210 -0.295619
  62 -7.57721 1.16681 -2.82988
  63 -4.38409 -0.426122 -2.40113
  64 -0.496671 -4.42044 -2.25103
  65 0.217931 -8.56130 -3.07484
  66 1.05166 -13.9583 -1.92009
  67 3.59281 -14.4923 -0.130264
  68 6.20635 -2.49211 7.03086
  69 18.8701 25.3430 26.3103
  70 85.3298 87.9468 85.1253
  71 420.607 44.8750 67.3030
  72 337.462 14.2345 22.3216
  73 321.552 7.89394 9.01772
  74 316.752 5.03501 -0.524960
  75 320.274 6.61577 -7.88290
  76 342.610 12.5645 -21.5658
  77 398.926 36.8435 -57.7635
  78 68.5929 100.888 -81.4674
  79 15.3578 13.2712 -19.7201
  80 5.72686 -2.65907 -7.29116
  81 1.76604 -14.4496 -0.743314
  82 1.03448 -10.9199 1.52831
  83 1.19513 -10.7701 2.57787
  84 0.0892229 -4.03542 2.84265
  85 -4.69697 -0.362108 2.37399
  86 -7.94013 1.12686 2.75978
  87 -9.56745 1.56592 0.236757
  88 -7.17455 1.56016 -2.33735
  89 0.176227 1.56781 -4.72843
  90 11.5230 0.260569 -4.88996
  91 22.9476 0.472117 -4.51041
  92 35.6909 0.355354 -5.02819
  93 44.8897 0.307071 -4.29192
  94 58.3109 -0.162443 -4.54970
  95 65.1421 0.0528213 -2.87118
  96 72.3249 0.0189007 -2.49355
  97 78.6660 -0.194532 -2.37915
  98 82.2478 -0.259346 -1.63235
  99 85.1556 -0.00956308 -1.09345
  100 88.4918 -0.182265 -0.759027
  101 90.0305 0.0468646 -0.257645
  102 90.7241 0.232408 -0.422475
  103 91.0827 0.276368 0.00873431
  104 97.8333 -0.257936 0.0260573
  105 104.656 -0.708006 -0.207566
  106 111.803 -1.44179 -0.0527452
  107 119.923 -1.86848 0.159075
  108 128.795 -2.19573 0.201635
  109 137.594 -2.30976 0.472375
  110 145.867 -1.90219 0.590446
  111 154.093 -1.60077 0.553692
  112 160.984 -0.817324 0.393949
  113 168.480 -0.303164 0.371380
  114 148.067 -15.6179 -3.44304
  115 149.762 -15.5701 2.15790
  116 157.243 22.4758 -8.34273
  117 126.149 -10.4243 -30.0847
  118 122.286 -9.64443 30.7379
  119 170.464 16.1802 16.6604
  120 179.487 4.81465 -13.9191
  121 125.582 -5.62364 -2.95221
  122 124.901 -5.94762 3.05817
  123 195.360 43.6075 0.722234
  124 150.484 -6.85626 5.03865
  125 151.721 -6.47035 -5.66056
  126 155.054 -3.38706 -16.0089
  127 104.517 -8.81995 16.5649
  128 104.395 -8.87812 -17.3840
  129 155.953 -5.40573 14.5408
  130 212.564 47.7823 0.258389
  131 54.9583 13.2416 -32.4691
  132 53.1504 13.4375 31.9323
  133 189.367 0.0653357 0.303305
  134 220.352 50.0831 -4.95533
  135 143.787 9.77367 9.05963
  136 143.638 -3.92751 1.05203
  137 144.458 -3.64129 -1.14554
  138 188.930 -2.80562 19.0624
  139 103.998 -4.52296 -7.48166
  140 104.007 -4.50462 7.15470
  141 144.379 9.07096 -52.8562
  142 253.066 35.3147 4.72297
  143 145.350 5.08146 -13.6255
  144 107.687 -1.59612 -2.01267
  145 107.666 -1.58974 2.02649
  146 126.409 -10.6048 7.18344
  147 129.009 -11.0957 -7.06077
  148 74.4814 -4.57515 -24.0362
  149 74.1673 -3.62016 24.3733
  150 162.249 24.9815 9.19797
  151 162.695 -15.5335 6.04108
  152 163.404 -9.00085 -11.8987
  153 168.494 -9.87870 8.29663
  154 154.255 -10.4989 -8.44070
  155 160.642 7.66521 -17.9620
  156 146.073 11.5225 57.8870
  157 9.91509 8.64642 4.76733
  158 8.55509 7.24460 -3.57094
  159 139.866 8.74309 -3.62620
  160 152.819 3.41127 16.6283
  161 158.854 -2.01841 3.10321
  162 157.458 -2.37100 -3.14794
  163 146.009 -10.9369 2.18954
  164 155.169 -3.57701 -9.64176
  165 177.367 29.5461 -12.5820
  166 140.923 -9.24503 -0.565571
  167 134.586 -15.2895 15.4507
  168 125.467 -3.03545 -0.791841
  169 125.630 -3.01074 0.827877
  170 155.948 -3.30034 8.99863
  171 135.567 -15.1992 -14.7913
  172 161.049 -14.9810 -10.1352
  173 180.853 32.3394 11.3341
  174 141.434 -7.58671 1.16210
  175 216.485 24.3433 -13.6809
  176 36.2383 2.65645 -18.4246
  177 35.2000 2.46260 17.9353
  178 267.091 50.8918 26.3917
  179 224.951 40.2794 5.28173
  180 276.562 31.9837 -17.3373
  181 155.716 -1.88503 1.22296
  182 155.523 -1.83960 -1.23287
  183 91.8395 -3.04817 -9.43942
  184 91.8480 -3.08713 9.47106
  185 73.6213 -2.79512 -14.9081
  186 74.1831 -2.81096 15.1548
  187 45.1214 32.0587 -40.7111
  188 148.220 -0.817679 12.8529
  189 157.521 -11.4980 8.74986
  190 99.9645 -1.37512 -3.27786
  191 99.7631 -1.45293 3.31846
  192 22.0797 22.0589 22.9425
  193 144.981 0.227781 -12.3379
  194 154.549 -8.00856 9.93472
  195 138.508 2.14218 10.7559
  196 160.637 -9.76765 -27.5711
  197 159.280 -2.42827 -5.54330
  198 143.974 -12.7689 0.547615
  199 172.405 34.9188 -5.73576
  200 161.443 -4.84362 15.8316
  201 107.641 -9.94270 -24.4343
  202 79.1469 -0.0597754 -32.1884
  203 77.2840 0.438472 32.1873
  204 155.087 13.1266 13.8474
  205 113.755 0.366819 42.5417
  206 149.765 16.8638 2.64662
  207 194.234 22.0695 -10.2473
  208 159.776 -2.37409 4.97492
  209 107.668 -9.78900 24.6211
  210 136.949 -6.00769 0.0341320
  211 263.697 65.7340 -32.2681
  212 193.985 25.2034 10.9735
  213 110.885 -8.13795 -10.5640
  214 110.263 -7.61715 10.4411
  215 15.6717 5.70938 -9.61191
  216 18.1145 5.82871 11.0661
  217 126.745 -13.0074 11.7376
  218 134.014 -4.92412 -0.620170
  219 135.190 -2.75317 0.0561632
  220 136.726 -2.73783 -0.111321
  221 127.107 -12.6002 -11.8010
  222 133.388 -9.14625 -2.44616
  223 159.889 -13.8527 19.9297
  224 192.699 42.4888 -3.81630
  225 225.125 44.9957 -3.30701
  226 179.362 5.15843 13.2165
  227 148.729 -4.90735 3.20831
  228 110.189 1.35429 -43.3072
  229 120.369 -7.67629 5.95229
  230 147.227 -5.65871 -2.78212
  231 179.932 -8.01878 0.973279
  232 151.653 12.0555 -13.2883
  233 170.853 -8.82352 -8.19441
  234 129.799 4.97504 2.57896
  235 111.999 -3.91690 -4.56402
  236 168.213 0.486825 -16.4795
  237 91.5764 -1.45956 -4.80301
  238 91.4801 -1.43022 4.65278
  239 98.7108 -0.213293 -0.586608
  240 98.7125 -0.205663 0.576885
  241 153.118 1.68821 -17.0325
  242 111.062 -3.88949 4.83364
  243 119.404 -7.49048 -6.36163
  244 54.7592 39.6464 53.4009
  245 8.63438 10.3333 -6.83103
  246 293.409 22.1274 6.53779
  247 129.621 2.16530 -5.73308
  248 149.036 -10.0748 -4.40801
  249 155.979 32.6784 -73.8384
  250 156.612 -12.7180 -6.83406
  251 76.7134 -2.56499 -9.87078
  252 76.8292 -2.64176 9.95345
  253 155.112 -6.33844 -12.2703
  254 160.199 -2.17785 -17.0940
  255 114.527 -1.81605 -0.838281
  256 114.525 -1.82690 0.807317
  257 165.521 -0.884644 -1.25537
  258 165.679 -0.701206 1.23733
  259 151.084 -1.30397 -9.41521
  260 219.997 22.1176 43.6033
  261 141.227 -13.6531 -2.80799
  262 118.106 -3.43147 -2.31419
  263 117.510 -3.49603 2.43910
  264 -0.295431 -0.437003 -3.41943
  265 -0.865310 0.123013 3.58021
  266 40.8111 -1.06313 -15.0043
  267 40.5638 -0.893569 14.8925
  268 96.6050 -0.721643 1.40977
  269 96.5934 -0.729659 -1.43111
  270 151.049 -1.68387 8.93566
  271 175.007 36.6711 4.12765
  272 160.254 -14.8232 -2.37368
  273 162.933 19.3976 -14.9675
  274 158.092 -8.20242 -13.2064
  275 173.422 -10.0376 2.95561
  276 58.3166 -1.32755 14.1336
  277 57.8670 -1.41257 -13.9269
  278 159.595 -15.0449 -1.09964
  279 138.423 -15.5854 19.4084
  280 146.649 -2.19386 0.432295
  281 146.814 -2.09114 -0.411289
  282 165.290 -0.602490 -0.615549
  283 165.315 -0.714991 0.646925
  284 74.6624 20.6090 48.1325
  285 170.278 13.7230 -17.3831
  286 152.460 -12.9067 4.29884
  287 194.021 40.3640 6.10938
  288 137.832 1.35136 -9.94641
  289 134.529 -4.03310 0.195448
  290 187.189 29.9295 -12.2082
  291 153.731 -2.91481 39.4574
  292 162.119 28.9468 0.0756934
  293 138.349 -14.7973 -20.2953
  294 147.416 -16.7346 8.08499
  295 139.983 -13.8708 4.25289
  296 218.628 44.9718 2.89332
  297 132.032 -9.09562 3.37363
  298 163.966 -1.11599 -2.80627
  299 153.396 -7.75343 -8.38047
  300 263.677 72.4783 30.5355
  301 169.106 0.215793 15.9612
  302 160.261 -1.12417 -4.51231
  303 166.579 22.6542 13.6446
  304 182.861 -0.978740 -30.4130
  305 160.212 4.72636 17.9972
  306 4.91614 5.36616 2.26970
  307 94.2611 -7.10902 20.0392
  308 152.951 -2.60601 1.90758
  309 152.369 -2.93235 -2.08342
  310 149.701 15.6432 -7.75894
  311 90.4518 -6.13630 -19.3829
  312 97.3942 -7.66500 -27.5880
  313 156.289 -3.49739 4.44136
  314 147.047 -8.46484 3.57484
  315 152.695 -0.758697 16.3890
  316 231.707 42.1083 -50.2929
  317 154.721 -5.36940 11.5187
  318 154.677 -3.98340 -4.54018
  319 163.853 -0.932667 2.80846
  320 93.0135 -1.06450 3.21874
  321 93.1031 -1.17533 -3.26900
  322 25.6722 16.1758 -19.9615
  323 127.814 3.83298 -2.12956
  324 155.728 -4.63123 7.86677
  325 213.131 37.9216 1.77585
  326 154.386 19.3820 9.24354
  327 83.0738 15.9896 -48.3160
  328 95.1216 -5.75767 27.7965
  329 143.657 8.48046 -10.0965
  330 159.776 -1.32554 4.92418
  331 153.792 -4.08242 -13.3722
  332 3.62331 1.77019 0.137523
  333 28.0466 13.9694 18.4476
  334 114.852 -12.1809 19.6131
  335 -1.36152 2.69994 1.11331
  336 -1.03015 2.95007 -1.03018
  337 171.339 64.0835 80.4693
  338 153.121 -3.56793 13.4067
  339 326.738 34.7964 -41.6946
  340 149.264 8.75507 14.0363
  341 180.043 18.5759 14.3759
  342 127.939 -4.21410 1.38364
  343 130.412 2.23446 6.16255
  344 117.392 -13.0171 -18.5108
  345 148.180 -7.13968 -3.85368
  346 134.222 -7.49106 1.27348
  347 155.623 -4.34705 -8.07349
  348 150.547 -16.5056 -11.3050
  349 176.949 -9.69792 -5.22988
  350 140.878 10.6051 2.78667
  351 159.150 -13.5517 6.10603
  352 203.184 14.2538 0.109486
  353 86.9440 -4.44288 14.5245
  354 142.404 -5.44646 1.38811
  355 138.180 -15.2456 -9.76320
  356 231.178 55.7528 10.0956
  357 168.770 28.3532 -11.1377
  358 107.374 -2.37870 3.44172
  359 107.594 -2.57249 -3.50999
  360 86.2933 -4.29147 -14.7613
  361 56.0195 47.2661 -55.7627
  362 129.712 -2.46945 -0.442547
  363 130.133 -2.60929 0.330332
  364 80.9352 -0.895917 -5.11544
  365 80.9188 -0.915683 5.17199
  366 304.119 11.6092 -6.13814
  367 308.032 20.9750 19.7039
  368 139.169 -11.2798 -1.73440
  369 190.046 5.34288 41.0089
  370 66.3165 -0.162719 25.6672
  371 66.3752 -0.607342 -25.8085
  372 140.025 -8.82757 31.9325
  373 139.467 1.07168 10.2481
  374 146.765 1.61949 14.4772
  375 135.373 -15.6605 11.7548
  376 38.6025 8.32410 -21.9247
  377 38.0904 6.76105 21.0901
  378 17.1629 1.37783 -9.04984
  379 17.2710 1.17039 9.14375
  380 149.063 -13.3129 -23.5157
  381 107.315 -0.990428 -0.876202
  382 107.316 -0.976892 0.871776
  383 220.950 42.6927 -0.277984
  384 133.651 -7.28015 -1.37338
  385 142.901 -3.72012 -40.4751
  386 151.007 -13.8782 -2.19323
  387 209.345 37.7702 -3.47649
  388 182.797 15.8011 -14.6479
  389 156.063 -8.70172 11.7082
  390 100.051 -2.60883 -5.48804
  391 99.7006 -2.35784 5.21542
  392 134.428 -3.45456 -0.192267
  393 125.408 -4.31378 -1.96833
  394 96.8491 -5.91261 13.2123
  395 96.7312 -5.89075 -13.4587
  396 11.8490 17.3565 -14.2817
  397 154.090 7.18621 -16.4675
  398 118.043 -8.34803 8.14689
  399 195.126 12.6709 -43.9391
  400 151.244 -9.95473 5.98619
  401 19.9495 23.6556 24.6304
  402 151.391 -1.35184 -15.5242
  403 94.1502 -0.644819 1.87976
  404 94.1163 -0.615925 -1.88870
  405 158.104 -1.17867 0.519033
  406 158.045 -1.09777 -0.472501
  407 162.536 -9.98085 10.8582
  408 74.2730 -4.24619 -19.7621
  409 164.216 -0.799928 -2.97122
  410 75.4624 -4.39345 19.9037
  411 189.472 3.79703 -5.33841
  412 158.779 -7.57575 13.8595
  413 139.902 -9.26455 0.163824
  414 251.775 54.5639 -20.9814
  415 154.800 -5.79475 9.60501
  416 251.087 46.2481 14.6439
  417 185.831 39.6974 5.10254
  418 68.6676 -1.53779 -8.99763
  419 68.7282 -1.47405 9.15406
  420 26.7561 -0.195027 -10.5934
  421 26.3925 -0.186048 10.3697
  422 155.214 -1.26312 -6.75384
  423 323.712 45.3554 42.0517
  424 81.1477 5.75053 38.1563
  425 100.691 -4.87708 -9.05683
  426 100.527 -4.86618 9.15665
  427 111.317 -9.62273 13.4290
  428 93.4360 27.2928 -63.3675
  429 184.185 40.5663 -2.73013
  430 111.900 -9.48977 -13.6049
  431 168.410 -0.589706 -1.23762
  432 172.133 31.4243 9.79332
  433 179.175 35.9966 -7.89917
  434 119.998 -8.85621 -8.14408
  435 231.640 53.1485 -8.54938
  436 123.889 -13.0219 25.0769
  437 198.072 2.92621 -7.86362
  438 131.883 -8.93619 -34.7806
  439 145.569 1.98464 -14.2051
  440 136.642 -13.7835 -6.58895
  441 276.466 25.9796 -4.97371
  442 272.200 32.5341 16.4232
  443 154.054 -10.8397 7.78042
  444 -0.666086 2.47371 -1.98908
  445 -0.279683 2.64242 1.97646
  446 201.798 40.6055 5.35058
  447 147.229 -0.623993 8.16734
  448 134.160 -11.6475 4.42496
  449 106.084 -3.88186 36.5274
  450 0.530359 -3.57271 -2.96641
  451 117.259 -10.6580 -26.6543
  452 150.143 -11.8437 -4.27986
  453 148.845 -2.60150 1.35619
  454 148.827 -2.46628 -1.09682
  455 61.9384 6.16772 -31.6217
  456 155.091 -1.03977 6.36590
  457 20.6220 9.98190 -12.5945
  458 6.92328 6.57853 6.74952
  459 56.5850 -0.455996 -8.16803
  460 56.4042 -0.367851 8.18642
  461 346.616 78.9545 -64.1614
  462 145.881 -0.423947 -8.43957
  463 151.610 -4.12513 -3.29445
  464 146.969 -6.34904 3.04715
  465 140.352 5.60366 10.5031
  466 158.006 -0.491787 17.5451
  467 140.130 -2.42779 0.204824
  468 140.720 -2.37977 -0.288447
  469 52.9801 4.07151 25.1939
  470 116.480 -3.99863 3.44461
  471 187.243 9.54315 10.3702
  472 176.714 -10.4107 11.9584
  473 203.413 44.0275 -0.551147
  474 168.797 -0.393238 1.22494
  475 142.403 -7.27297 -1.43190
  476 122.194 -2.13885 -0.523360
  477 122.116 -2.06591 0.477071
  478 43.5570 20.2165 32.2885
  479 143.026 -5.26066 -1.36496
  480 18.7427 10.5803 11.3117
  481 43.2707 20.8877 -31.8413
  482 154.799 22.1135 -2.55078
  483 126.585 -7.31709 -3.69553
  484 114.599 -2.46243 -1.84237
  485 114.690 -2.38828 1.87823
  486 165.008 -14.1206 -0.146289
  487 164.483 -1.02140 2.93011
  488 214.522 14.3279 17.4311
  489 160.063 19.3470 13.1330
  490 128.571 -10.0379 -5.21086
  491 157.561 25.0608 3.66363
  492 1.98539 -5.69413 -0.181688
  493 46.1110 47.4399 53.2248
  494 162.041 13.4080 16.4583
  495 117.316 -4.00441 -3.13414
  496 138.541 0.242761 -7.07759
  497 112.485 8.92058 49.8552
  498 144.846 -11.0126 -1.63945
  499 169.070 -13.9264 8.35731
  500 157.838 -2.86990 -4.56354
  501 250.788 38.5473 -5.76201
  502 39.9774 -0.0510661 -9.58358
  503 40.0523 0.0267056 9.73885
  504 159.216 -1.42402 -1.91600
  505 158.574 -1.55441 1.98660
  506 89.2574 -6.03722 24.2245
  507 110.819 -4.90681 -6.09112
  508 106.499 -2.85560 -36.5815
  509 92.1972 -7.24995 -23.2707
  510 84.0989 -0.717291 -3.52028
  511 84.0682 -0.740495 3.49046
  512 154.063 -14.3896 2.96430
  513 112.901 -5.71628 6.66432
  514 163.059 1.91604 -17.8641
  515 118.763 -5.91911 4.80611
  516 126.772 -13.3336 14.9451
  517 198.659 15.0302 3.54778
  518 73.8904 -0.304750 -5.10088
  519 73.9171 -0.325520 5.17570
  520 197.271 41.8647 -5.51856
  521 173.240 -1.49540 -13.3151
  522 173.388 -2.80498 11.9525
  523 156.042 -8.49065 -11.6430
  524 120.958 -10.5004 10.2153
  525 314.821 17.9864 -20.9290
  526 171.859 -11.6464 -0.945466
  527 127.573 1.27356 -5.57847
  528 130.289 -5.45382 1.32298
  529 156.841 18.2856 -12.1568
  530 266.197 74.6768 48.6385
  531 153.373 -3.45269 3.29393
  532 141.160 -3.04009 0.389838
  533 142.648 -2.70407 -0.542692
  534 160.583 -12.5721 -7.28346
  535 125.920 -7.55112 3.93342
  536 94.4044 0.00268460 -0.837559
  537 94.4134 0.00560368 0.824356
  538 127.383 -13.7988 -14.4657
  539 163.884 28.3971 -6.02537
  540 154.793 -4.55902 -5.94175
  541 129.644 1.07639 6.53733
  542 154.714 -5.95184 -9.99697
  543 95.2622 -0.0137144 -0.168904
  544 95.2606 -0.0100782 0.164162
  545 180.873 -7.62799 -13.7939
  546 122.558 -11.1706 -10.3538
  547 179.168 -2.80954 -8.38193
  548 165.764 -10.5665 24.6445
  549 159.318 -2.43905 4.09632
  550 169.745 -0.484612 0.657465
  551 169.722 -0.424349 -0.586322
  552 150.565 -16.3815 -6.57381
  553 155.401 -15.8275 15.1827
  554 86.8529 -0.499970 -2.29103
  555 86.8018 -0.495636 2.26991
  556 141.055 -13.8873 23.8866
  557 158.123 12.7759 -15.7999
  558 121.611 -12.7390 -21.5661
  559 156.149 8.89934 17.0463
  560 150.581 -16.6423 11.8728
  561 119.727 1.32590 2.36144
  562 132.530 -3.39480 0.395738
  563 164.151 -3.98828 -15.6302
  564 205.428 44.2749 0.743320
  565 167.870 -6.23875 -12.8138
  566 126.378 -9.42032 5.83888
  567 101.363 -1.26874 2.46427
  568 101.382 -1.28711 -2.50304
  569 148.514 -4.00327 1.85574
  570 118.557 -5.68647 -4.67981
  571 153.410 -2.61357 10.6869
  572 165.215 -11.4954 -7.74925
  573 139.028 -4.14217 0.359274
  574 256.375 75.7776 -33.3895
  575 138.287 3.18385 -10.0035
  576 211.955 46.0425 -0.966337
  577 121.189 1.09381 -3.67368
  578 151.693 -5.26973 4.25810
  579 43.8842 28.1398 41.2030
  580 147.479 13.9066 7.32362
  581 81.5167 6.50068 -38.7389
  582 165.183 -13.8520 -1.88743
  583 150.927 -1.71417 -12.7446
  584 169.732 20.9939 -15.5987
  585 -1.29693 -1.50995 -2.71567
  586 -1.65687 -1.37151 2.77889
  587 102.499 -0.864898 -1.41139
  588 102.499 -0.853046 1.39732
  589 159.629 -10.3464 -10.9003
  590 160.787 -6.79147 -14.4920
  591 14.9321 14.0403 12.1953
  592 149.745 12.9511 11.1875
  593 136.320 -6.43682 -0.163280
  594 134.715 -2.34707 -0.109268
  595 134.353 -2.32141 -0.0131843
  596 137.085 6.20559 6.93002
  597 312.811 7.15677 4.63322
  598 111.374 -6.61752 -8.33241
  599 118.387 1.64443 0.530245
  600 157.891 2.66733 -17.9982
  601 123.555 -14.0803 21.9465
  602 2.76384 1.67012 4.95285
  603 2.29439 1.39373 -4.64223
  604 166.696 7.53347 -17.9342
  605 146.167 15.2320 -1.98261
  606 156.539 -10.8730 -9.79187
  607 90.2808 -2.02639 -6.85827
  608 90.1098 -2.17570 6.85763
  609 161.822 -0.814110 1.08091
  610 161.757 -0.817182 -1.12518
  611 156.340 -1.49327 -17.2263
  612 152.936 -7.12781 7.34405
  613 109.349 -6.32892 8.78475
  614 8.62558 7.01553 -4.74247
  615 161.063 87.3891 -93.0779
  616 157.693 -2.75202 7.01464
  617 156.969 -2.58373 -7.44447
  618 124.661 6.15626 -49.8391
  619 147.859 -4.24717 -2.24220
  620 132.262 -12.5601 7.41878
  621 171.552 35.3369 -0.198076
  622 57.4877 -2.30521 -18.0153
  623 58.0274 -2.29246 18.1580
  624 188.356 31.6291 10.9430
  625 152.063 -9.79734 -6.97587
  626 134.199 7.30218 -0.00169211
  627 147.739 -14.1623 -0.459129
  628 81.5860 -2.28651 8.55517
  629 81.5254 -2.27055 -8.44409
  630 106.125 -2.82766 -4.61665
  631 100.761 -0.366156 -0.667400
  632 100.762 -0.356963 0.662364
  633 151.155 -5.54100 -4.28518
  634 170.747 -0.176207 -0.313943
  635 170.686 -0.217667 0.394929
  636 198.757 37.5826 -8.04987
  637 94.2089 28.6654 59.4042
  638 182.176 -2.35200 6.81876
  639 79.8238 13.0217 42.9040
  640 34.5474 10.1020 20.3697
  641 185.822 8.22146 -11.7658
  642 155.926 -14.6414 -2.66474
  643 109.206 -1.57353 -1.54357
  644 109.241 -1.55140 1.54793
  645 150.886 -1.47821 -0.295922
  646 151.014 -1.52076 0.326103
  647 117.453 -12.0574 -15.8508
  648 53.4969 2.95918 -25.4925
  649 88.6428 -0.510856 1.42982
  650 88.6156 -0.537659 -1.40604
  651 361.467 95.2903 73.2527
  652 176.530 20.1255 -16.0022
  653 157.736 -4.99573 -15.7570
  654 155.859 -5.63717 -14.3179
  655 164.547 13.6055 -17.3733
  656 97.6168 -2.66198 -6.92168
  657 97.2221 -2.83083 6.75917
  658 146.493 -12.7955 1.05668
  659 0.961023 -4.27380 3.15599
  660 164.212 -0.220981 17.2482
  661 9.50822 6.60789 4.95045
  662 145.467 4.04414 13.6901
  663 23.5878 22.5251 -21.3540
  664 135.633 5.56620 -7.09087
  665 163.045 -1.03540 2.24368
  666 135.096 -12.1440 -4.77168
  667 153.325 -2.78238 -11.1853
  668 45.2866 -0.292934 7.05549
  669 45.4588 -0.246932 -7.08659
  670 186.237 37.0196 -8.78983
  671 83.7594 -4.11928 -29.6012
  672 150.769 -8.21560 -5.76308
  673 131.162 -5.59453 -1.50753
  674 162.786 -1.29194 -2.17755
  675 173.319 24.8318 13.9686
  676 27.9560 5.89678 -15.3953
  677 27.2173 3.97417 15.2387
  678 156.865 -3.79081 16.3357
  679 138.186 -10.5062 1.42800
  680 154.488 -8.14278 -9.93358
  681 229.560 56.9671 -11.5792
  682 182.038 39.7379 1.70628
  683 132.883 -4.71834 0.609362
  684 173.716 6.62814 16.5398
  685 157.132 -16.3760 3.94263
  686 104.674 -2.70196 4.64276
  687 140.604 -15.1897 7.05323
  688 164.889 -0.601100 0.00549887
  689 164.869 -0.667743 0.0117796
  690 230.832 51.1729 10.9937
  691 87.1666 -3.63288 11.5855
  692 12.0500 12.5530 -8.54289
  693 -3.81419 0.0504520 3.22995
  694 -3.38154 0.122254 -3.33165
  695 75.8867 -3.04323 12.7144
  696 37.3340 14.6479 -23.6425
  697 2.84280 -2.03559 -3.40501
  698 150.281 -12.0339 4.23975
  699 103.428 -6.06657 -32.3203
  700 116.712 -11.9945 15.6162
  701 145.696 -9.14108 -2.68778
  702 1.93556 -5.40687 -1.52591
  703 173.971 8.35158 -16.5838
  704 156.311 -15.2742 0.745878
  705 153.925 -12.5767 -6.32786
  706 149.410 4.44981 -15.5436
  707 86.9862 -3.64756 -11.6016
  708 14.9139 22.8210 -22.7781
  709 148.722 8.17248 -14.4207
  710 -0.295998 -4.08472 -3.20312
  711 139.542 0.0715222 6.73154
  712 75.6048 -2.92166 -12.5721
  713 98.9154 -5.42291 32.0963
  714 138.504 -4.66545 -0.292218
  715 113.098 -2.64659 -2.44866
  716 82.0017 -3.16494 29.1201
  717 47.0980 0.553387 -19.8717
  718 46.3717 0.426182 19.4455
  719 112.703 -2.51889 2.53953
  720 26.0511 0.567838 -8.07109
  721 26.2082 0.617507 8.02169
  722 123.044 -4.69667 2.59683
  723 149.581 -0.204766 -5.77523
  724 179.022 17.5430 62.9678
  725 119.876 -2.35378 -1.27860
  726 119.802 -2.41532 1.23067
  727 154.563 -4.46200 -11.8587
  728 115.913 -1.60435 -0.733286
  729 115.881 -1.54933 0.710056
  730 150.799 -1.62823 11.4075
  731 154.824 -16.2503 1.65371
  732 122.684 -3.29209 1.55067
  733 10.1891 -0.304921 -5.30727
  734 10.2827 -0.457287 5.22722
  735 122.448 -2.94984 -1.45921
  736 2.53459 2.87529 -1.51942
  737 167.156 -12.4213 -16.4990
  738 189.246 -2.84469 4.18925
  739 56.2400 8.50939 29.6481
  740 92.1656 -0.0301575 0.932797
  741 92.1422 -0.0204845 -0.946733
  742 145.367 -14.8357 2.52220
  743 286.071 40.5943 -32.6866
  744 131.022 0.265811 -5.43410
  745 130.627 -3.13018 -0.516454
  746 119.187 41.2676 72.9880
  747 166.590 6.56535 17.8906
  748 150.059 -0.284648 5.59337
  749 171.277 -0.303628 -0.733113
  750 171.466 -0.402289 0.732635
  751 237.486 46.0197 -9.49624
  752 166.319 30.3204 4.58795
  753 128.827 -3.87287 -0.982345
  754 166.787 -0.651662 2.18756
  755 102.821 -6.16560 -11.4883
  756 152.205 -1.65073 0.955435
  757 152.136 -1.63920 -0.854941
  758 111.132 -9.07435 28.8263
  759 157.131 -16.6665 -5.78847
  760 155.226 -6.28193 12.7543
  761 102.634 -6.06462 11.3943
  762 161.691 23.4193 -10.9469
  763 131.990 1.00445 5.70547
  764 105.941 -9.89913 -21.6433
  765 129.636 -3.76755 0.868604
  766 153.629 -2.86986 15.4541
  767 93.3574 0.131657 -0.296492
  768 93.3599 0.133966 0.288760
  769 2.58893 3.83468 1.11013
  770 106.673 -3.76024 5.85218
  771 138.426 -3.47236 -0.233372
  772 153.730 -6.54973 -7.54859
  773 67.1458 -0.352897 5.23638
  774 67.1795 -0.364208 -5.15152
  775 166.951 -5.01899 14.0572
  776 153.349 -3.42570 -14.7887
  777 56.4964 -2.25377 -20.7599
  778 56.7027 -1.97763 20.6039
  779 162.166 -13.3058 4.74285
  780 154.197 -4.91870 6.01821
  781 239.871 42.6876 19.0589
</Section>

newXOutput 10

<Section columns = "stress_xx | stress_yy | stress_xy">
  1 195.559 0.220951 0.266216
  2 195.647 0.192656 -0.253476
  3 104.829 -0.0633004 -0.203246
  4 -1.31028 -1.49361 -1.74023
  5 363.691 140.519 117.239
  6 342.191 126.548 -97.6472
  7 -1.73937 -1.49567 1.98890
  8 104.834 -0.0654097 0.200461
  9 196.242 -0.144333 -0.00332931
  10 196.245 -0.660604 0.560542
  11 195.394 -0.521161 0.407331
  12 191.622 -0.562391 1.35135
  13 189.687 -0.660723 1.55062
  14 185.554 -0.910647 2.52899
  15 178.666 -0.629134 3.80684
  16 170.710 -0.276409 4.38436
  17 161.614 0.233478 5.07926
  18 148.499 0.646238 4.15170
  19 140.279 1.47910 4.86455
  20 134.051 1.07207 3.65713
  21 126.192 1.45070 1.02706
  22 128.287 2.11967 -1.37388
  23 131.116 1.05153 -2.55241
  24 139.824 1.00887 -4.25646
  25 147.940 0.432171 -4.67419
  26 161.525 0.256936 -5.28395
  27 170.495 -0.472204 -4.71416
  28 179.390 -0.714697 -3.86021
  29 185.485 -0.587518 -2.78464
  30 188.683 -0.587803 -2.33884
  31 192.081 -0.868688 -0.977944
  32 195.410 -0.439180 -0.210602
  33 196.301 -0.551354 -0.495453
  34 196.349 -0.201507 0.0401147
  35 189.017 -0.282651 -0.384775
  36 180.611 -0.863148 -0.440921
  37 172.883 -1.73343 -0.613396
  38 163.869 -2.25279 -0.712177
  39 154.816 -2.59236 -0.545096
  40 144.579 -2.44649 -0.247269
  41 134.659 -2.04143 -0.146702
  42 125.701 -1.59256 0.0673065
  43 117.718 -0.775484 0.229949
  44 110.101 -0.278525 -0.0311486
  45 102.568 0.312153 -0.0126466
  46 102.174 0.262540 0.466919
  47 101.406 0.0517046 0.283828
  48 99.6807 -0.208534 0.861988
  49 95.9090 -0.00748778 1.22764
  50 92.6462 -0.286525 1.83869
  51 88.5883 -0.225389 2.65652
  52 81.4950 -0.0119595 2.83977
  53 73.3156 0.0612280 3.29505
  54 65.5179 -0.133507 5.16599
  55 50.4568 0.354795 4.78682
  56 40.1765 0.404030 5.61294
  57 26.0790 0.562838 4.99146
  58 13.3399 0.236866 5.43111
  59 0.631698 1.58557 5.42663
  60 -7.79684 1.86761 2.68888
  61 -10.4814 1.77962 -0.314537
  62 -8.49999 1.31583 -3.16984
  63 -4.92409 -0.475300 -2.69549
  64 -0.554729 -4.96554 -2.52724
  65 0.249658 -9.60751 -3.44599
  66 1.18755 -15.6324 -2.13579
  67 4.04739 -16.1774 -0.101989
  68 6.99597 -2.59786 7.97672
  69 21.2191 28.8384 29.6603
  70 95.5532 99.1979 95.5133
  71 470.333 50.2611 75.1591
  72 377.795 15.9345 24.9496
  73 360.039 8.84506 10.0713
  74 354.686 5.64514 -0.587290
  75 358.627 7.41532 -8.81727
  76 383.542 14.0781 -24.1104
  77 446.276 41.2749 -64.5297
  78 76.8116 113.734 -91.4129
  79 17.2823 15.2801 -22.2864
  80 6.45566 -2.76597 -8.27452
  81 1.98988 -16.1193 -0.876920
  82 1.17020 -12.2200 1.68965
  83 1.34917 -12.0883 2.88638
  84 0.102274 -4.53115 3.19243
  85 -5.27618 -0.403349 2.66485
  86 -8.90838 1.27078 3.09138
  87 -10.7020 1.76157 0.248322
  88 -7.97196 1.75263 -2.64598
  89 0.329115 1.76044 -5.33488
  90 13.1160 0.290148 -5.51151
  91 25.9812 0.528765 -5.07842
  92 40.3166 0.398401 -5.65417
  93 50.6593 0.344686 -4.82692
  94 65.7303 -0.180535 -5.11494
  95 73.4110 0.0602095 -3.22873
  96 81.4770 0.0223902 -2.80430
  97 88.5973 -0.217047 -2.67397
  98 92.6261 -0.289845 -1.83521
  99 95.8986 -0.00946110 -1.23053
  100 99.6433 -0.202825 -0.856951
  101 101.376 0.0533873 -0.293440
  102 102.164 0.260878 -0.475851
  103 102.569 0.309850 0.00750549
  104 110.102 -0.286035 0.0276261
  105 117.716 -0.789992 -0.234662
  106 125.695 -1.61419 -0.0629674
  107 134.765 -2.09505 0.173386
  108 144.674 -2.46682 0.218745
  109 154.502 -2.59902 0.522767
  110 163.740 -2.14635 0.653504
  111 172.919 -1.81028 0.614850
  112 180.604 -0.930674 0.438060
  113 188.956 -0.350613 0.414089
  114 166.196 -17.5312 -3.97027
  115 168.095 -17.4772 2.53155
  116 176.597 25.2326 -9.31093
  117 141.612 -11.7122 -33.8462
  118 137.287 -10.8378 34.5776
  119 191.347 18.1568 18.5606
  120 201.396 5.40414 -15.4475
  121 141.075 -6.30720 -3.35895
  122 140.312 -6.67041 3.47827
  123 219.283 48.9002 0.794572
  124 168.917 -7.70122 5.56865
  125 170.300 -7.26893 -6.26470
  126 174.079 -3.80686 -17.8470
  127 117.457 -9.89911 18.6378
  128 117.316 -9.96566 -19.5583
  129 175.073 -6.07292 16.1983
  130 238.490 53.6086 0.439259
  131 61.8067 14.8621 -36.5465
  132 59.7740 15.0853 35.9457
  133 212.395 0.0917718 0.161239
  134 247.204 56.1856 -5.69995
  135 161.542 10.9855 10.1205
  136 161.254 -4.41571 1.13675
  137 162.170 -4.09473 -1.24177
  138 211.852 -3.10629 21.5473
  139 116.927 -5.06994 -8.42653
  140 116.939 -5.04936 8.05996
  141 161.930 10.2160 -59.4032
  142 283.757 39.5778 5.30649
  143 163.275 5.71194 -15.2182
  144 121.090 -1.78616 -2.27589
  145 121.066 -1.77899 2.29136
  146 141.980 -11.8972 8.12657
  147 144.885 -12.4489 -7.99259
  148 83.7605 -5.14744 -27.0366
  149 83.4090 -4.07577 27.4156
  150 182.199 28.0406 10.2585
  151 182.547 -17.4361 6.90799
  152 183.387 -10.1092 -13.2102
  153 189.069 -11.0922 9.15978
  154 173.144 -11.7888 -9.35454
  155 180.354 8.60232 -20.0353
  156 163.828 12.9847 65.0449
  157 11.1973 9.73657 5.42391
  158 9.67239 8.15802 -4.07281
  159 157.164 9.83211 -4.05180
  160 171.608 3.83068 18.5582
  161 178.251 -2.27732 3.43326
  162 176.692 -2.67298 -3.48183
  163 163.910 -12.2765 2.36204
  164 174.185 -4.02112 -10.7334
  165 199.103 33.1547 -13.9966
  166 158.221 -10.3756 -0.555552
  167 151.092 -17.1645 17.4252
  168 140.954 -3.40534 -0.910696
  169 141.136 -3.37826 0.951223
  170 175.050 -3.71133 10.0152
  171 152.190 -17.0632 -16.6859
  172 180.697 -16.8154 -11.5002
  173 203.007 36.2857 12.5956
  174 158.794 -8.51573 1.23309
  175 242.704 27.3985 -15.5717
  176 40.8332 2.97501 -20.7499
  177 39.6664 2.75775 20.2011
  178 299.415 57.0613 29.6362
  179 252.242 45.2590 6.16993
  180 309.957 35.8497 -19.4433
  181 174.735 -2.12916 1.34421
  182 174.520 -2.07846 -1.35555
  183 103.304 -3.41638 -10.6173
  184 103.314 -3.46007 10.6528
  185 82.8521 -3.13806 -16.7610
  186 83.4812 -3.15597 17.0384
  187 50.7222 36.0685 -45.8228
  188 166.462 -0.917616 14.3425
  189 176.797 -12.9110 9.69077
  190 112.447 -1.53802 -3.69674
  191 112.222 -1.62514 3.74177
  192 24.8646 24.8508 25.8813
  193 162.854 0.257244 -13.7732
  194 173.479 -8.99481 11.0371
  195 155.638 2.41521 12.0166
  196 180.192 -10.9534 -31.0542
  197 178.749 -2.73501 -6.15820
  198 161.628 -14.3308 0.709978
  199 193.581 39.1778 -6.38684
  200 181.212 -5.44337 17.6284
  201 120.916 -11.1698 -27.4892
  202 88.9550 -0.0849986 -36.2066
  203 86.8672 0.475351 36.2069
  204 174.167 14.7398 15.4552
  205 127.699 0.404853 47.8315
  206 168.233 18.9436 2.95589
  207 217.912 24.7800 -11.3062
  208 179.300 -2.67444 5.52419
  209 120.948 -10.9973 27.6971
  210 153.781 -6.74360 0.0944401
  211 295.617 73.7327 -36.2750
  212 217.646 28.2964 12.1286
  213 124.612 -9.12821 -11.9004
  214 123.916 -8.54413 11.7609
  215 17.7073 6.41384 -10.8543
  216 20.4500 6.54702 12.4903
  217 142.339 -14.5976 13.2429
  218 150.502 -5.52683 -0.740489
  219 151.817 -3.09449 0.0413626
  220 153.532 -3.07819 -0.102549
  221 142.742 -14.1404 -13.3143
  222 149.794 -10.2614 -2.81345
  223 179.378 -15.5443 22.4813
  224 216.295 47.6560 -4.20265
  225 252.563 50.4455 -3.76430
  226 201.257 5.79035 14.6630
  227 166.947 -5.51558 3.53383
  228 123.702 1.51127 -48.6895
  229 135.236 -8.60842 6.72848
  230 165.269 -6.35735 -3.05405
  231 201.837 -8.98965 1.25462
  232 170.327 13.5403 -14.8367
  233 191.708 -9.90677 -9.04185
  234 145.921 5.60081 2.88262
  235 125.891 -4.39008 -5.15287
  236 188.791 0.540805 -18.3433
  237 103.048 -1.63349 -5.40508
  238 102.940 -1.60071 5.23683
  239 111.076 -0.235667 -0.663801
  240 111.078 -0.227119 0.652942
  241 171.938 1.89615 -19.0084
  242 124.843 -4.35902 5.45526
  243 134.156 -8.39983 -7.18729
  244 61.5346 44.5931 60.0676
  245 9.74296 11.6894 -7.75842
  246 328.718 24.7954 7.31952
  247 145.721 2.44587 -6.40817
  248 167.297 -11.3107 -4.84749
  249 174.837 36.7969 -82.9142
  250 175.775 -14.2793 -7.54248
  251 86.3511 -2.87656 -11.0967
  252 86.4804 -2.96297 11.1894
  253 174.120 -7.12108 -13.6564
  254 179.831 -2.45058 -19.0496
  255 128.735 -2.03397 -0.953908
  256 128.733 -2.04614 0.919253
  257 185.671 -1.00500 -1.38526
  258 185.848 -0.799285 1.36568
  259 169.650 -1.46686 -10.4994
  260 246.488 25.0041 49.1074
  261 158.554 -15.3222 -3.24237
  262 132.726 -3.84666 -2.62529
  263 132.060 -3.91884 2.76514
  264 -0.312521 -0.474293 -3.82024
  265 -0.952048 0.151700 4.00071
  266 46.0037 -1.19966 -16.8853
  267 45.7255 -1.00910 16.7603
  268 108.712 -0.805336 1.59182
  269 108.699 -0.814276 -1.61570
  270 169.613 -1.89133 9.96382
  271 196.495 41.1404 4.59084
  272 179.837 -16.6414 -2.53257
  273 182.945 21.7720 -16.6950
  274 177.451 -9.21311 -14.6900
  275 194.565 -11.2656 3.16166
  276 65.6809 -1.49214 15.8933
  277 65.1766 -1.58767 -15.6606
  278 179.093 -16.8902 -1.36172
  279 155.374 -17.4987 21.8729
  280 164.613 -2.47370 0.467031
  281 164.797 -2.35887 -0.444000
  282 185.405 -0.689096 -0.679191
  283 185.433 -0.814839 0.714107
  284 83.8740 23.1443 54.1271
  285 191.135 15.3992 -19.3667
  286 171.125 -14.4895 4.70900
  287 217.758 45.2818 6.73699
  288 154.882 1.52249 -11.1107
  289 151.078 -4.52867 0.257455
  290 210.078 33.5872 -13.5428
  291 172.441 -3.24867 44.3838
  292 182.065 32.4895 0.0847452
  293 155.287 -16.6149 -22.8695
  294 165.458 -18.7849 9.17640
  295 157.157 -15.5668 4.86200
  296 245.294 50.4283 3.31472
  297 148.277 -10.2043 3.85271
  298 183.960 -1.26054 -3.11245
  299 172.183 -8.70853 -9.29976
  300 295.585 81.3381 34.4122
  301 189.789 0.236068 17.7604
  302 179.862 -1.26580 -5.02118
  303 187.027 25.4245 15.2097
  304 205.034 -1.05231 -34.2652
  305 179.868 5.30265 20.0726
  306 5.55589 6.08572 2.61171
  307 105.955 -7.98364 22.5380
  308 171.654 -2.93712 2.09860
  309 171.006 -3.30259 -2.29282
  310 168.157 17.5713 -8.66458
  311 101.692 -6.89116 -21.7986
  312 109.430 -8.61761 -31.0295
  313 175.396 -3.93523 4.91904
  314 165.072 -9.50399 3.92310
  315 171.458 -0.852959 18.2841
  316 259.514 47.4558 -56.6210
  317 173.686 -6.03196 12.8228
  318 173.595 -4.48014 -5.02712
  319 183.833 -1.05672 3.11471
  320 104.673 -1.18980 3.62393
  321 104.773 -1.31393 -3.68029
  322 28.9171 18.1878 -22.5176
  323 143.704 4.31653 -2.38072
  324 174.792 -5.20674 8.74145
  325 239.067 42.5821 1.78703
  326 173.396 21.7625 10.3192
  327 93.3041 17.9525 -54.3250
  328 106.883 -6.47741 31.2623
  329 161.394 9.53280 -11.2782
  330 179.318 -1.49261 5.47877
  331 172.660 -4.58681 -14.9016
  332 4.09414 2.04029 0.103870
  333 31.5854 15.7063 20.8112
  334 129.010 -13.6765 22.0746
  335 -1.48898 3.04344 1.22110
  336 -1.11785 3.32482 -1.12632
  337 191.858 72.1827 90.3602
  338 171.915 -4.00925 14.9434
  339 365.904 38.9821 -46.6618
  340 167.651 9.83445 15.6738
  341 202.059 20.8493 15.9765
  342 143.713 -4.72774 1.59201
  343 146.604 2.52023 6.88734
  344 131.855 -14.6140 -20.8397
  345 166.338 -8.01797 -4.24229
  346 150.730 -8.40520 1.49285
  347 174.676 -4.88683 -8.97411
  348 168.950 -18.5293 -12.7941
  349 198.490 -10.8767 -6.02289
  350 158.295 11.9218 3.11377
  351 178.613 -15.2151 6.72036
  352 227.860 16.0384 0.331910
  353 97.7888 -4.98559 16.3341
  354 159.878 -6.11706 1.49964
  355 155.127 -17.1121 -11.0463
  356 259.292 62.5655 11.4950
  357 189.493 31.8172 -12.4105
  358 120.732 -2.66333 3.88450
  359 120.978 -2.88050 -3.96117
  360 97.0602 -4.81592 -16.5994
  361 62.8488 53.2719 -62.6926
  362 145.698 -2.77360 -0.511082
  363 146.168 -2.93034 0.385953
  364 91.1170 -1.00335 -5.75091
  365 91.0986 -1.02540 5.81435
  366 340.636 13.0092 -6.86927
  367 345.020 23.5007 22.0455
  368 156.256 -12.6577 -2.02884
  369 213.037 6.07529 46.1412
  370 74.5914 -0.195819 28.8775
  371 74.6577 -0.695370 -29.0347
  372 157.130 -9.91165 35.9308
  373 156.706 1.20787 11.4460
  374 164.847 1.82168 16.1638
  375 151.984 -17.5782 13.2767
  376 43.4642 9.34147 -24.6976
  377 42.8937 7.58522 23.7576
  378 19.4090 1.54521 -10.2045
  379 19.5298 1.31220 10.3100
  380 167.259 -14.9446 -26.4940
  381 120.682 -1.10667 -0.988834
  382 120.683 -1.09152 0.983897
  383 247.895 47.8605 -0.317603
  384 150.093 -8.16822 -1.60206
  385 160.319 -4.16395 -45.5166
  386 169.497 -15.5788 -2.34815
  387 234.839 42.4077 -3.69535
  388 205.126 17.7366 -16.2647
  389 175.179 -9.77329 13.0156
  390 112.528 -2.92156 -6.18126
  391 112.138 -2.63957 5.87412
  392 150.965 -3.88038 -0.248787
  393 140.884 -4.83879 -2.24669
  394 108.893 -6.63215 14.8636
  395 108.760 -6.60810 -15.1401
  396 13.3539 19.6224 -16.1428
  397 173.037 8.06912 -18.3803
  398 132.627 -9.36329 9.19289
  399 218.690 14.3203 -49.4386
  400 169.771 -11.1772 6.61218
  401 22.4482 26.7285 27.7759
  402 170.000 -1.51824 -17.3203
  403 105.959 -0.719972 2.11841
  404 105.921 -0.687619 -2.12842
  405 177.394 -1.33762 0.570476
  406 177.328 -1.24720 -0.518458
  407 182.413 -11.2091 12.0446
  408 83.5522 -4.77264 -22.2247
  409 184.257 -0.903205 -3.30100
  410 84.8849 -4.93794 22.3843
  411 212.533 4.27899 -5.80461
  412 178.223 -8.50981 15.4208
  413 157.080 -10.3975 0.105584
  414 282.321 61.1943 -23.6034
  415 173.761 -6.51112 10.6791
  416 281.557 51.8483 16.4641
  417 208.609 44.5306 5.65658
  418 77.3259 -1.72448 -10.1133
  419 77.3934 -1.65305 10.2889
  420 30.2102 -0.223824 -11.9307
  421 29.8011 -0.213404 11.6797
  422 174.248 -1.42299 -7.52447
  423 362.552 50.8140 47.0760
  424 91.1773 6.44043 42.9143
  425 113.217 -5.46734 -10.1949
  426 113.035 -5.45524 10.3064
  427 125.082 -10.7969 15.1199
  428 104.870 30.6852 -71.2132
  429 206.775 45.5020 -3.03190
  430 125.732 -10.6479 -15.3184
  431 188.899 -0.668140 -1.36876
  432 193.262 35.2602 10.9062
  433 201.151 40.3850 -8.78014
  434 134.810 -9.93404 -9.19392
  435 259.764 59.6803 -9.81864
  436 139.098 -14.6256 28.2224
  437 222.104 3.32224 -9.00756
  438 148.012 -10.0355 -39.1238
  439 163.514 2.23285 -15.8610
  440 153.418 -15.4686 -7.47919
  441 309.847 29.1119 -5.57499
  442 305.104 36.4592 18.4164
  443 172.917 -12.1714 8.61374
  444 -0.675679 2.77927 -2.26688
  445 -0.241909 2.96903 2.25290
  446 226.435 45.5667 5.84369
  447 165.359 -0.700495 9.11262
  448 150.651 -13.0693 5.04229
  449 119.131 -4.37298 41.0772
  450 0.605195 -3.98135 -3.30703
  451 131.676 -11.9745 -29.9891
  452 168.535 -13.2958 -4.69554
  453 167.067 -2.93107 1.48700
  454 167.047 -2.77974 -1.19951
  455 69.6514 6.90969 -35.5829
  456 174.114 -1.17154 7.09312
  457 23.2493 11.2217 -14.2249
  458 7.80390 7.49507 7.65849
  459 63.7685 -0.511051 -9.18323
  460 63.5652 -0.412002 9.20409
  461 388.053 88.5290 -71.8480
  462 163.858 -0.475704 -9.41820
  463 170.165 -4.63979 -3.63526
  464 164.983 -7.13110 3.34427
  465 157.700 6.30216 11.7348
  466 177.388 -0.555869 19.5639
  467 157.334 -2.73293 0.215892
  468 157.993 -2.67946 -0.309706
  469 59.6171 4.55978 28.3585
  470 130.904 -4.48173 3.89803
  471 210.068 10.7207 11.4556
  472 198.207 -11.6697 13.5653
  473 228.291 49.3720 -0.585753
  474 189.330 -0.448691 1.35516
  475 159.877 -8.16467 -1.53552
  476 137.300 -2.39876 -0.597999
  477 137.213 -2.31714 0.546040
  478 48.9936 22.7238 36.3604
  479 160.573 -5.90905 -1.47423
  480 21.1374 11.8929 12.7812
  481 48.6785 23.4723 -35.8595
  482 173.867 24.8297 -2.84683
  483 142.190 -8.20705 -4.20228
  484 128.812 -2.75837 -2.08711
  485 128.914 -2.67539 2.12732
  486 185.149 -15.8524 -0.303271
  487 184.556 -1.14935 3.25646
  488 240.474 16.1807 19.7704
  489 179.738 21.7182 14.6530
  490 144.404 -11.2606 -5.91239
  491 176.958 28.1332 4.08815
  492 2.24308 -6.31851 -0.252871
  493 51.7674 53.5060 59.8631
  494 181.932 15.0482 18.3562
  495 131.839 -4.48857 -3.55045
  496 155.676 0.273987 -7.90369
  497 126.253 10.0259 56.0433
  498 162.608 -12.3604 -1.74777
  499 189.669 -15.6267 9.51498
  500 177.127 -3.23169 -5.05990
  501 281.215 43.2081 -6.48131
  502 45.0991 -0.0585087 -10.7803
  503 45.1827 0.0287409 10.9550
  504 178.645 -1.61147 -2.11530
  505 177.930 -1.75824 2.19266
  506 100.331 -6.78637 27.2450
  507 124.563 -5.50028 -6.86982
  508 119.593 -3.22159 -41.1367
  509 103.625 -8.14664 -26.1742
  510 94.6803 -0.802909 -3.95825
  511 94.6456 -0.828944 3.92495
  512 172.916 -16.1542 3.20621
  513 126.888 -6.40853 7.51691
  514 183.039 2.14571 -19.9106
  515 133.448 -6.63636 5.43523
  516 142.359 -14.9665 16.8445
  517 222.825 16.9008 3.78018
  518 83.2131 -0.340043 -5.73324
  519 83.2427 -0.363371 5.81703
  520 221.390 46.9649 -6.06309
  521 194.400 -1.68204 -14.7814
  522 194.559 -3.15213 13.2523
  523 175.154 -9.53626 -12.9437
  524 135.876 -11.7810 11.5231
  525 352.584 20.1561 -23.4213
  526 192.813 -13.0711 -0.911555
  527 143.437 1.43664 -6.23442
  528 146.337 -6.11896 1.53386
  529 176.137 20.5296 -13.5671
  530 298.163 83.9553 54.8148
  531 172.132 -3.88606 3.63885
  532 158.485 -3.41945 0.407479
  533 160.147 -3.04383 -0.580708
  534 180.217 -14.1162 -8.03864
  535 141.445 -8.46972 4.46910
  536 106.265 0.00518057 -0.944755
  537 106.275 0.00844438 0.929995
  538 143.043 -15.4883 -16.3089
  539 184.037 31.8714 -6.71993
  540 173.734 -5.12575 -6.58936
  541 145.748 1.21397 7.30580
  542 173.666 -6.68719 -11.1162
  543 107.232 -0.0129747 -0.191773
  544 107.230 -0.00890211 0.186478
  545 202.854 -8.54038 -15.6318
  546 137.664 -12.5335 -11.6813
  547 201.011 -3.15089 -9.23715
  548 185.936 -11.8432 27.7795
  549 178.779 -2.74776 4.54127
  550 190.369 -0.551056 0.726134
  551 190.343 -0.483978 -0.646763
  552 168.983 -18.3896 -7.48648
  553 174.369 -17.7664 17.1500
  554 97.7806 -0.558897 -2.57730
  555 97.7234 -0.554114 2.55374
  556 158.304 -15.5929 26.9016
  557 177.555 14.3433 -17.6304
  558 136.561 -14.3059 -24.2755
  559 175.339 9.99015 19.0241
  560 168.989 -18.6825 13.4314
  561 134.676 1.49733 2.63999
  562 148.845 -3.81210 0.471704
  563 184.241 -4.48329 -17.3969
  564 230.541 49.6497 0.770638
  565 188.387 -7.00854 -14.2289
  566 141.953 -10.5668 6.61243
  567 114.022 -1.41821 2.77924
  568 114.044 -1.43874 -2.82264
  569 166.702 -4.50243 2.03121
  570 133.217 -6.37571 -5.29317
  571 172.236 -2.93853 11.9089
  572 185.399 -12.9076 -8.55260
  573 156.104 -4.65298 0.360882
  574 287.359 85.0899 -37.6873
  575 155.392 3.58608 -11.1765
  576 237.832 51.6384 -1.19028
  577 136.309 1.23614 -4.10847
  578 170.264 -5.92249 4.70459
  579 49.3486 31.6431 46.3785
  580 165.673 15.6243 8.18034
  581 91.5917 7.28263 -43.5685
  582 185.349 -15.5504 -1.97835
  583 169.477 -1.92673 -14.2154
  584 190.545 23.5600 -17.3815
  585 -1.45321 -1.69299 -3.04783
  586 -1.85609 -1.53554 3.11664
  587 115.299 -0.965723 -1.59389
  588 115.299 -0.952435 1.57817
  589 179.161 -11.6193 -12.0976
  590 180.471 -7.62984 -16.1257
  591 16.8330 15.8183 13.7930
  592 168.199 14.5478 12.4926
  593 153.078 -7.22428 -0.240657
  594 151.287 -2.63951 -0.111593
  595 150.882 -2.61078 -0.0253070
  596 154.056 6.98193 7.74452
  597 350.306 8.02089 5.17936
  598 125.171 -7.42018 -9.39109
  599 133.179 1.85500 0.593513
  600 177.268 2.99086 -20.0757
  601 138.737 -15.8117 24.7050
  602 3.20988 1.87423 5.59535
  603 2.68290 1.56370 -5.24624
  604 187.116 8.45167 -19.9856
  605 164.209 17.1133 -2.21435
  606 175.703 -12.2095 -10.8619
  607 101.581 -2.26952 -7.71499
  608 101.390 -2.43695 7.71424
  609 181.544 -0.927634 1.19204
  610 181.472 -0.930999 -1.24155
  611 175.524 -1.67985 -19.2108
  612 171.665 -8.00628 8.14414
  613 122.906 -7.09661 9.89697
  614 9.76322 7.89039 -5.38349
  615 180.292 98.4169 -104.427
  616 176.988 -3.09701 7.79979
  617 176.189 -2.90774 -8.28305
  618 139.883 6.90881 -56.0131
  619 165.973 -4.77514 -2.45976
  620 148.520 -14.0940 8.40182
  621 192.630 39.6470 -0.219500
  622 64.7238 -2.59441 -20.2639
  623 65.3286 -2.58019 20.4246
  624 211.387 35.4957 12.1266
  625 170.689 -11.0013 -7.72059
  626 150.835 8.21515 -0.00174129
  627 165.837 -15.8960 -0.620453
  628 91.8234 -2.56344 9.61813
  629 91.7558 -2.54554 -9.49362
  630 119.327 -3.16694 -5.20630
  631 113.368 -0.406631 -0.750134
  632 113.369 -0.396338 0.744508
  633 169.662 -6.22701 -4.73311
  634 191.481 -0.206311 -0.347562
  635 191.414 -0.252688 0.437816
  636 223.023 42.1758 -8.85797
  637 105.756 32.2013 66.7593
  638 204.372 -2.63422 7.48062
  639 89.6726 14.6140 48.2511
  640 38.8982 11.3449 22.9597
  641 208.477 9.23300 -13.0204
  642 174.997 -16.4370 -2.86678
  643 122.791 -1.76031 -1.74465
  644 122.830 -1.73550 1.74958
  645 169.342 -1.67362 -0.322089
  646 169.484 -1.72114 0.355856
  647 131.933 -13.5337 -17.8500
  648 60.1975 3.30889 -28.6932
  649 99.7978 -0.570697 1.61025
  650 99.7672 -0.600690 -1.58359
  651 404.538 106.865 82.0413
  652 198.137 22.5851 -17.8090
  653 177.069 -5.61353 -17.5537
  654 174.965 -6.33337 -15.9475
  655 184.731 15.2690 -19.3729
  656 109.793 -2.98155 -7.79128
  657 109.352 -3.17079 7.60871
  658 164.447 -14.3620 1.08513
  659 1.09106 -4.78097 3.52682
  660 184.321 -0.253773 19.2157
  661 10.7560 7.43232 5.61763
  662 163.405 4.54739 15.2892
  663 26.5616 25.3492 -24.0902
  664 152.434 6.26473 -7.92543
  665 182.922 -1.17454 2.48342
  666 151.696 -13.6271 -5.43345
  667 172.141 -3.12747 -12.4656
  668 51.0836 -0.329325 7.93402
  669 51.2773 -0.277677 -7.96877
  670 209.044 41.5345 -9.74571
  671 94.1433 -4.64089 -33.2924
  672 169.237 -9.22594 -6.37125
  673 147.313 -6.27720 -1.74122
  674 182.632 -1.46195 -2.40855
  675 194.563 27.8657 15.5528
  676 31.5197 6.61816 -17.3518
  677 30.6890 4.45725 17.1769
  678 176.100 -4.26067 18.2072
  679 155.159 -11.7893 1.68148
  680 173.410 -9.14572 -11.0342
  681 257.483 63.9272 -13.1541
  682 204.372 44.5741 1.89493
  683 149.238 -5.29605 0.728220
  684 194.955 7.43538 18.4043
  685 176.331 -18.3831 4.54650
  686 117.705 -3.02599 5.23396
  687 157.846 -17.0484 8.00638
  688 184.956 -0.687468 0.00976755
  689 184.934 -0.761811 0.00948755
  690 258.931 57.3883 12.4350
  691 98.0597 -4.07354 13.0274
  692 13.5945 14.1384 -9.67784
  693 -4.27309 0.0607844 3.61933
  694 -3.78606 0.142726 -3.73395
  695 85.4066 -3.41559 14.2942
  696 42.0273 16.4561 -26.6440
  697 3.21283 -2.15855 -3.89056
  698 168.690 -13.5095 4.65008
  699 116.171 -6.82711 -36.3470
  700 131.104 -13.4628 17.5854
  701 163.561 -10.2621 -2.92932
  702 2.18255 -6.00625 -1.67590
  703 195.245 9.37083 -18.4530
  704 175.425 -17.1474 0.713056
  705 172.769 -14.1199 -6.98198
  706 167.807 4.99987 -17.3550
  707 97.8577 -4.09020 -13.0454
  708 16.7827 25.8416 -25.6950
  709 167.046 9.18036 -16.1041
  710 -0.326510 -4.57829 -3.58949
  711 156.792 0.0818466 7.51600
  712 85.0914 -3.27858 -14.1343
  713 111.117 -6.10398 36.0979
  714 155.519 -5.23974 -0.281619
  715 127.131 -2.96440 -2.77178
  716 92.1734 -3.56909 32.7539
  717 53.0386 0.612069 -22.3654
  718 52.2226 0.469603 21.8881
  719 126.690 -2.82135 2.87354
  720 29.4477 0.636272 -9.08530
  721 29.6235 0.692132 9.02997
  722 138.242 -5.26674 2.95085
  723 167.983 -0.231868 -6.44128
  724 200.645 19.8036 70.7393
  725 134.709 -2.63844 -1.45326
  726 134.627 -2.70743 1.39957
  727 173.511 -5.01384 -13.2062
  728 130.286 -1.79693 -0.827855
  729 130.250 -1.73531 0.801809
  730 169.332 -1.83088 12.7223
  731 173.754 -18.2421 1.97444
  732 137.843 -3.69182 1.76882
  733 11.5983 -0.343952 -5.98350
  734 11.7026 -0.515086 5.89357
  735 137.580 -3.30781 -1.66510
  736 2.87798 3.25905 -1.66252
  737 187.513 -13.9345 -18.6443
  738 212.246 -3.16735 4.87692
  739 63.2550 9.54356 33.3695
  740 103.756 -0.0316130 1.05209
  741 103.729 -0.0207653 -1.06766
  742 163.182 -16.6514 2.93118
  743 320.574 45.5040 -36.6410
  744 147.289 0.301093 -6.07086
  745 146.719 -3.51459 -0.604114
  746 133.655 46.3936 81.9689
  747 186.996 7.36399 19.9357
  748 168.515 -0.321435 6.23760
  749 192.082 -0.346176 -0.810214
  750 192.293 -0.456120 0.809853
  751 266.365 51.5985 -10.7192
  752 186.767 34.0275 5.11405
  753 144.707 -4.34561 -1.13471
  754 187.111 -0.737385 2.42789
  755 115.587 -6.91410 -12.9284
  756 170.815 -1.86677 1.05087
  757 170.738 -1.85408 -0.938767
  758 124.810 -10.1991 32.4242
  759 176.326 -18.7099 -6.61934
  760 174.250 -7.05691 14.1985
  761 115.379 -6.80105 12.8227
  762 181.570 26.2876 -12.2103
  763 148.369 1.12814 6.37451
  764 119.029 -11.1166 -24.3478
  765 145.611 -4.22796 1.00832
  766 172.489 -3.22513 17.2328
  767 105.103 0.148618 -0.335764
  768 105.106 0.151203 0.327126
  769 2.93973 4.33576 1.20198
  770 119.930 -4.21358 6.59566
  771 155.431 -3.90249 -0.226873
  772 172.553 -7.35797 -8.37604
  773 75.6425 -0.393637 5.88601
  774 75.6805 -0.406259 -5.79088
  775 187.364 -5.64044 15.6258
  776 172.175 -3.84870 -16.4888
  777 63.5931 -2.54040 -23.3569
  778 63.8246 -2.23012 23.1826
  779 181.981 -14.9388 5.18488
  780 173.069 -5.52936 6.67309
  781 268.834 48.0298 21.6590
</Section>

newXOutput 11

<Section columns = "stress_xx | stress_yy | stress_xy">
  1 216.566 0.235611 0.292735
  2 216.662 0.204500 -0.278834
  3 116.567 -0.0676991 -0.223031
  4 -1.45501 -1.65829 -1.93326
  5 401.654 155.928 129.735
  6 378.130 140.479 -108.121
  7 -1.93103 -1.66038 2.20966
  8 116.573 -0.0700340 0.219961
  9 217.319 -0.165860 -0.00697900
  10 217.329 -0.734990 0.612989
  11 216.404 -0.580502 0.442046
  12 212.274 -0.628953 1.47861
  13 210.162 -0.733946 1.69954
  14 205.630 -1.01179 2.77652
  15 198.068 -0.701181 4.18850
  16 189.323 -0.309395 4.82860
  17 179.314 0.256816 5.59858
  18 164.868 0.716115 4.58041
  19 155.806 1.63941 5.36982
  20 148.933 1.19543 4.03750
  21 140.264 1.61114 1.13451
  22 142.576 2.35748 -1.51801
  23 145.698 1.17070 -2.81887
  24 155.305 1.12052 -4.69783
  25 164.252 0.479273 -5.15626
  26 179.214 0.283390 -5.82504
  27 189.087 -0.526183 -5.19217
  28 198.863 -0.795177 -4.24652
  29 205.554 -0.655704 -3.05927
  30 209.058 -0.657138 -2.56730
  31 212.775 -0.966768 -1.06725
  32 216.421 -0.490493 -0.225015
  33 217.391 -0.615067 -0.541418
  34 217.436 -0.229170 0.0472231
  35 209.374 -0.325029 -0.423730
  36 200.123 -0.971862 -0.484226
  37 191.611 -1.93680 -0.672625
  38 181.676 -2.50961 -0.779182
  39 171.692 -2.88093 -0.596212
  40 160.399 -2.71462 -0.265779
  41 149.456 -2.26078 -0.157197
  42 139.574 -1.76098 0.0787231
  43 130.771 -0.854531 0.256788
  44 122.376 -0.304940 -0.0327293
  45 114.074 0.345653 -0.0114676
  46 113.633 0.291062 0.519466
  47 112.773 0.0581861 0.319363
  48 110.853 -0.229222 0.961049
  49 106.672 -0.00692839 1.36448
  50 103.046 -0.316301 2.04167
  51 98.5377 -0.248389 2.94898
  52 90.6711 -0.0118739 3.15397
  53 81.5999 0.0688653 3.65931
  54 72.9412 -0.146036 5.73603
  55 56.2372 0.393399 5.31723
  56 44.8212 0.447458 6.23388
  57 29.1579 0.622762 5.55083
  58 14.9893 0.260035 6.04603
  59 0.845094 1.75829 6.04643
  60 -8.55425 2.07222 3.00576
  61 -11.5785 1.97708 -0.329540
  62 -9.41744 1.46552 -3.50681
  63 -5.46234 -0.523590 -2.98858
  64 -0.611911 -5.50900 -2.80232
  65 0.282357 -10.6485 -3.81426
  66 1.32440 -17.2910 -2.34621
  67 4.50314 -17.8349 -0.0640836
  68 7.78847 -2.65914 8.93683
  69 23.5654 32.4034 33.0224
  70 105.682 110.500 105.844
  71 519.458 55.6000 82.8980
  72 417.735 17.6175 27.5433
  73 398.163 9.78862 11.1095
  74 392.267 6.25116 -0.648897
  75 396.622 8.20903 -9.74082
  76 424.071 15.5795 -26.6230
  77 493.092 45.6696 -71.2003
  78 84.9538 126.626 -101.304
  79 19.2074 17.3639 -24.8734
  80 7.18717 -2.82414 -9.27319
  81 2.21437 -17.7592 -1.01932
  82 1.30730 -13.5060 1.84455
  83 1.50421 -13.4003 3.19191
  84 0.115736 -5.02498 3.54101
  85 -5.85364 -0.443715 2.95442
  86 -9.87132 1.41536 3.42007
  87 -11.8231 1.95720 0.255973
  88 -8.74777 1.94454 -2.95816
  89 0.510354 1.95235 -5.94462
  90 14.7419 0.319099 -6.13522
  91 29.0502 0.584915 -5.64726
  92 44.9772 0.441164 -6.27952
  93 56.4622 0.382141 -5.36151
  94 73.1767 -0.198143 -5.67933
  95 81.7058 0.0677706 -3.58591
  96 90.6516 0.0261261 -3.11478
  97 98.5480 -0.239167 -2.96816
  98 103.023 -0.319926 -2.03775
  99 106.661 -0.00908119 -1.36764
  100 110.812 -0.222907 -0.955472
  101 112.740 0.0600536 -0.329966
  102 113.622 0.289228 -0.529326
  103 114.076 0.343109 0.00579691
  104 122.376 -0.313244 0.0288458
  105 130.769 -0.870571 -0.261983
  106 139.567 -1.78488 -0.0739355
  107 149.572 -2.32007 0.186541
  108 160.504 -2.73708 0.234175
  109 171.346 -2.88826 0.571356
  110 181.533 -2.39173 0.714323
  111 191.651 -2.02166 0.674328
  112 200.115 -1.04628 0.481097
  113 209.307 -0.400006 0.456015
  114 184.243 -19.4360 -4.51772
  115 186.343 -19.3758 2.92692
  116 195.884 27.9780 -10.2632
  117 157.007 -12.9967 -37.6074
  118 152.225 -12.0286 38.4162
  119 212.137 20.1239 20.4222
  120 223.190 5.99126 -16.9312
  121 156.521 -6.98653 -3.77341
  122 155.679 -7.38871 3.90612
  123 243.096 54.1588 0.863130
  124 187.268 -8.54348 6.07776
  125 188.796 -8.06520 -6.84721
  126 193.025 -4.22578 -19.6506
  127 130.368 -10.9732 20.7108
  128 130.209 -11.0483 -21.7324
  129 194.111 -6.73815 17.8219
  130 264.276 59.4035 0.651095
  131 68.6496 16.4751 -40.6275
  132 66.3925 16.7262 39.9634
  133 235.285 0.122425 -0.0186076
  134 273.905 62.2542 -6.47046
  135 179.247 12.1952 11.1660
  136 178.796 -4.90319 1.21177
  137 179.807 -4.54766 -1.32826
  138 234.624 -3.39602 24.0531
  139 129.840 -5.61293 -9.37315
  140 129.855 -5.59013 8.96725
  141 179.375 11.3635 -65.9366
  142 314.244 43.8086 5.88838
  143 181.147 6.34144 -16.7874
  144 134.478 -1.97414 -2.54144
  145 134.451 -1.96620 2.55856
  146 157.499 -13.1825 9.07894
  147 160.707 -13.7948 -8.93448
  148 93.0320 -5.71974 -30.0358
  149 92.6434 -4.53200 30.4566
  150 202.076 31.0860 11.3000
  151 202.293 -19.3301 7.79827
  152 203.274 -11.2138 -14.4846
  153 209.537 -12.3009 9.98625
  154 191.947 -13.0738 -10.2387
  155 199.986 9.53505 -22.0721
  156 181.474 14.4518 72.1853
  157 12.4887 10.8287 6.09353
  158 10.8000 9.07310 -4.58663
  159 174.420 10.9203 -4.47146
  160 190.329 4.24868 20.4565
  161 197.549 -2.53754 3.75128
  162 195.830 -2.97606 -3.80332
  163 181.735 -13.6100 2.51338
  164 193.117 -4.46453 -11.8011
  165 220.745 36.7452 -15.3776
  166 175.450 -11.5007 -0.528726
  167 167.529 -19.0316 19.4085
  168 156.398 -3.77311 -1.03363
  169 156.599 -3.74381 1.07865
  170 194.068 -4.12191 11.0091
  171 168.744 -18.9194 -18.5898
  172 200.240 -18.6414 -12.8856
  173 225.062 40.2114 13.8241
  174 176.084 -9.44049 1.28862
  175 268.743 30.4565 -17.4998
  176 45.4418 3.29066 -23.0798
  177 44.1467 3.05017 22.4717
  178 331.510 63.1894 32.8683
  179 279.353 50.2270 7.10548
  180 343.099 39.6875 -21.5359
  181 193.658 -2.37495 1.45892
  182 193.420 -2.31907 -1.47172
  183 114.764 -3.78180 -11.7945
  184 114.775 -3.83018 11.8338
  185 92.0878 -3.47957 -18.6113
  186 92.7836 -3.49957 18.9195
  187 56.3136 40.0785 -50.9385
  188 184.641 -1.01702 15.8072
  189 195.983 -14.3186 10.5995
  190 124.925 -1.69898 -4.11737
  191 124.677 -1.79532 4.16671
  192 27.6545 27.6499 28.8351
  193 180.672 0.286951 -15.1858
  194 192.323 -9.97776 12.1102
  195 172.726 2.68937 13.2593
  196 199.635 -12.1314 -34.5446
  197 198.123 -3.04237 -6.75679
  198 179.207 -15.8852 0.891933
  199 214.674 43.4140 -7.02391
  200 200.891 -6.04171 19.3866
  201 134.151 -12.3934 -30.5438
  202 98.7437 -0.114014 -40.2232
  203 96.4329 0.508389 40.2252
  204 193.180 16.3469 17.0368
  205 141.582 0.441255 53.1148
  206 186.644 21.0172 3.26055
  207 241.460 27.4804 -12.3182
  208 198.727 -2.97549 6.05829
  209 134.187 -12.2023 30.7722
  210 170.550 -7.47618 0.166367
  211 327.311 81.6843 -40.2749
  212 241.179 31.3775 13.2380
  213 138.307 -10.1126 -13.2398
  214 137.540 -9.46564 13.0836
  215 19.7592 7.11629 -12.1055
  216 22.8007 7.26309 13.9232
  217 157.878 -16.1801 14.7559
  218 166.931 -6.12670 -0.869653
  219 168.384 -3.43510 0.0220504
  220 170.277 -3.41803 -0.0890857
  221 158.321 -15.6730 -14.8352
  222 166.142 -11.3703 -3.19347
  223 198.760 -17.2272 25.0452
  224 239.784 52.7923 -4.56990
  225 279.847 55.8579 -4.23058
  226 223.037 6.41978 16.0660
  227 185.085 -6.12258 3.84361
  228 137.157 1.66566 -54.0646
  229 150.063 -9.53460 7.51117
  230 183.232 -7.05400 -3.31017
  231 223.615 -9.95352 1.56949
  232 188.939 15.0204 -16.3610
  233 212.453 -10.9856 -9.85199
  234 162.019 6.22739 3.18227
  235 139.758 -4.85970 -5.74536
  236 209.273 0.593535 -20.1655
  237 114.522 -1.80558 -6.00733
  238 114.403 -1.76941 5.82121
  239 123.445 -0.257120 -0.741770
  240 123.448 -0.247662 0.729791
  241 190.686 2.10352 -20.9518
  242 138.600 -4.82494 6.08032
  243 148.870 -9.30333 -8.01909
  244 68.2940 49.5376 66.7314
  245 10.8577 13.0593 -8.70155
  246 363.734 27.4425 8.09366
  247 161.796 2.72857 -7.07434
  248 185.478 -12.5414 -5.26361
  249 193.556 40.9225 -91.9559
  250 194.847 -15.8343 -8.22023
  251 95.9979 -3.18614 -12.3207
  252 96.1406 -3.28221 12.4233
  253 193.044 -7.90153 -15.0113
  254 199.378 -2.72325 -20.9669
  255 142.918 -2.24991 -1.07175
  256 142.916 -2.26339 1.03344
  257 205.706 -1.12733 -1.50956
  258 205.901 -0.899489 1.48860
  259 188.146 -1.62971 -11.5640
  260 272.763 27.9169 54.6212
  261 175.809 -16.9830 -3.69410
  262 147.314 -4.25883 -2.94082
  263 146.579 -4.33856 3.09546
  264 -0.325307 -0.507822 -4.21526
  265 -1.03413 0.183276 4.41534
  266 51.2153 -1.33694 -18.7672
  267 50.9062 -1.12542 18.6291
  268 120.824 -0.887632 1.77502
  269 120.809 -0.897479 -1.80141
  270 188.106 -2.09812 10.9732
  271 217.898 45.5850 5.04283
  272 199.322 -18.4519 -2.66250
  273 202.879 24.1357 -18.3919
  274 196.723 -10.2205 -16.1383
  275 215.594 -12.4877 3.33334
  276 73.0604 -1.65639 17.6511
  277 72.5016 -1.76240 -17.3925
  278 198.492 -18.7278 -1.64993
  279 172.248 -19.4044 24.3452
  280 182.497 -2.75460 0.497772
  281 182.701 -2.62780 -0.472842
  282 205.402 -0.777994 -0.740084
  283 205.433 -0.916806 0.778460
  284 93.0583 25.6707 60.1164
  285 211.898 17.0672 -21.3101
  286 189.705 -16.0656 5.09247
  287 241.382 50.1722 7.33595
  288 171.892 1.69411 -12.2582
  289 167.568 -5.02231 0.327232
  290 232.856 37.2272 -14.8369
  291 191.042 -3.57587 49.3084
  292 201.940 36.0158 0.0937075
  293 172.148 -18.4254 -25.4510
  294 183.417 -20.8261 10.2846
  295 174.261 -17.2545 5.48720
  296 271.816 55.8493 3.74845
  297 164.465 -11.3068 4.34365
  298 203.847 -1.40610 -3.40935
  299 190.886 -9.66050 -10.1921
  300 327.265 90.1547 38.2997
  301 210.372 0.255137 19.5181
  302 199.369 -1.40764 -5.51849
  303 207.393 28.1816 16.7451
  304 227.059 -1.11523 -38.1274
  305 199.442 5.87596 22.1110
  306 6.20105 6.81577 2.96627
  307 117.629 -8.85518 25.0351
  308 190.267 -3.26925 2.27978
  309 189.554 -3.67349 -2.49163
  310 186.556 19.4935 -9.55649
  311 112.916 -7.64333 -24.2123
  312 121.434 -9.56897 -34.4690
  313 194.409 -4.37311 5.38057
  314 183.019 -10.5390 4.25075
  315 190.150 -0.947000 20.1466
  316 287.074 52.8213 -62.9558
  317 192.569 -6.69258 14.0983
  318 192.423 -4.97651 -5.49724
  319 203.704 -1.18229 3.41165
  320 116.338 -1.31343 4.02959
  321 116.449 -1.45075 -4.09200
  322 32.1694 20.1976 -25.0865
  323 159.574 4.80103 -2.62866
  324 193.768 -5.78144 9.59335
  325 264.850 47.2257 1.75413
  326 192.342 24.1338 11.3779
  327 103.500 19.9076 -60.3268
  328 118.614 -7.19708 34.7259
  329 179.081 10.5835 -12.4428
  330 198.767 -1.65994 6.02058
  331 191.451 -5.08984 -16.4010
  332 4.56882 2.32094 0.0592335
  333 35.1309 17.4410 23.1870
  334 143.123 -15.1662 24.5378
  335 -1.60717 3.38823 1.32210
  336 -1.19665 3.70085 -1.21540
  337 212.185 80.2993 100.213
  338 190.633 -4.44947 16.4505
  339 404.711 43.1327 -51.5766
  340 185.978 10.9106 17.2862
  341 223.967 23.1124 17.5355
  342 159.439 -5.23849 1.80768
  343 162.770 2.80738 7.60236
  344 146.270 -16.2042 -23.1713
  345 184.417 -8.89311 -4.61144
  346 167.178 -9.31447 1.72469
  347 193.642 -5.42575 -9.85194
  348 187.263 -20.5444 -14.2989
  349 219.905 -12.0481 -6.84506
  350 175.669 13.2364 3.43633
  351 197.983 -16.8717 7.30334
  352 252.381 17.8239 0.598029
  353 108.627 -5.52554 18.1420
  354 177.280 -6.78537 1.59827
  355 172.004 -18.9701 -12.3424
  356 287.237 69.3445 12.9226
  357 210.134 35.2640 -13.6578
  358 134.074 -2.94521 4.32975
  359 134.346 -3.18557 -4.41479
  360 107.822 -5.33774 -18.4355
  361 69.6399 59.2981 -69.6123
  362 161.633 -3.07669 -0.582333
  363 162.153 -3.25019 0.444523
  364 101.311 -1.10978 -6.38538
  365 101.291 -1.13408 6.45567
  366 376.833 14.3984 -7.59266
  367 381.683 26.0059 24.3613
  368 173.275 -14.0286 -2.33942
  369 235.863 6.82172 51.2740
  370 82.8622 -0.231643 32.0879
  371 82.9361 -0.785974 -32.2606
  372 174.148 -10.9915 39.9300
  373 173.901 1.34455 12.6263
  374 182.870 2.02387 17.8241
  375 168.528 -19.4871 14.8094
  376 48.3333 10.3538 -27.4772
  377 47.7055 8.40485 26.4317
  378 21.6766 1.71155 -11.3642
  379 21.8100 1.45306 11.4811
  380 185.360 -16.5692 -29.4799
  381 134.038 -1.22127 -1.10207
  382 134.039 -1.20452 1.09663
  383 274.693 52.9920 -0.358231
  384 166.476 -9.05149 -1.84254
  385 177.642 -4.60314 -50.5538
  386 187.903 -17.2719 -2.47808
  387 260.188 47.0274 -3.86903
  388 227.341 19.6639 -17.8362
  389 194.209 -10.8413 14.2899
  390 124.998 -3.23140 -6.87578
  391 124.568 -2.91850 6.53403
  392 167.444 -4.30480 -0.312021
  393 156.316 -5.36068 -2.53167
  394 120.922 -7.34744 16.5146
  395 120.774 -7.32132 -16.8210
  396 14.8637 21.9088 -18.0199
  397 191.914 8.94881 -20.2620
  398 147.173 -10.3724 10.2444
  399 242.078 15.9839 -54.9386
  400 188.214 -12.3948 7.21253
  401 24.9476 29.8259 30.9352
  402 188.540 -1.68400 -19.0857
  403 117.775 -0.793954 2.35773
  404 117.733 -0.758174 -2.36881
  405 196.582 -1.49890 0.619140
  406 196.509 -1.39910 -0.561705
  407 202.195 -12.4330 13.1949
  408 92.8293 -5.29808 -24.6851
  409 204.191 -1.00715 -3.62210
  410 94.3041 -5.48136 24.8630
  411 235.460 4.76283 -6.22848
  412 197.580 -9.44093 16.9459
  413 174.189 -11.5251 0.0309612
  414 312.667 67.7838 -26.2242
  415 192.637 -7.22569 11.7265
  416 311.829 57.4097 18.2816
  417 231.288 49.3361 6.19291
  418 85.9991 -1.90995 -11.2268
  419 86.0735 -1.83090 11.4215
  420 33.6875 -0.253546 -13.2707
  421 33.2330 -0.241620 12.9924
  422 193.202 -1.58325 -8.27961
  423 401.044 56.2274 52.0503
  424 101.181 7.12409 47.6693
  425 125.729 -6.05341 -11.3340
  426 125.529 -6.04012 11.4568
  427 138.813 -11.9648 16.8131
  428 116.249 34.0733 -79.0418
  429 229.270 50.4086 -3.32531
  430 139.529 -11.8000 -17.0341
  431 209.267 -0.747527 -1.49502
  432 214.307 39.0764 11.9955
  433 223.035 44.7496 -9.63855
  434 149.581 -11.0055 -10.2502
  435 287.708 66.1883 -11.1293
  436 154.245 -16.2239 31.3697
  437 245.980 3.72506 -10.1851
  438 164.065 -11.1310 -43.4656
  439 181.403 2.48112 -17.4914
  440 170.127 -17.1455 -8.38320
  441 342.975 32.2196 -6.17179
  442 337.766 40.3538 20.3965
  443 191.695 -13.4979 9.41778
  444 -0.669315 3.08404 -2.55099
  445 -0.188388 3.29483 2.53569
  446 250.945 50.5034 6.29989
  447 183.429 -0.776664 10.0419
  448 167.080 -14.4836 5.67288
  449 132.130 -4.86533 45.6231
  450 0.681886 -4.38173 -3.64109
  451 146.040 -13.2875 -33.3239
  452 186.846 -14.7417 -5.08621
  453 185.207 -3.26143 1.60979
  454 185.183 -3.09415 -1.29506
  455 77.3571 7.64541 -39.5455
  456 193.056 -1.30366 7.80592
  457 25.8870 12.4598 -15.8673
  458 8.68771 8.43189 8.58142
  459 70.9747 -0.565670 -10.1970
  460 70.7491 -0.455741 10.2204
  461 429.085 98.0401 -79.4628
  462 181.777 -0.527182 -10.3806
  463 188.634 -5.15411 -3.96129
  464 182.918 -7.91057 3.62391
  465 175.004 7.00024 12.9491
  466 196.690 -0.620362 21.5456
  467 174.469 -3.03829 0.223952
  468 175.197 -2.97948 -0.327902
  469 66.2565 5.04358 31.5261
  470 145.298 -4.96119 4.35606
  471 232.767 11.8954 12.4965
  472 219.571 -12.9195 15.1955
  473 253.049 54.6824 -0.613188
  474 209.741 -0.505431 1.48064
  475 177.280 -9.05252 -1.62345
  476 152.368 -2.65702 -0.674525
  477 152.273 -2.56681 0.616921
  478 54.4277 25.2267 40.4396
  479 178.046 -6.55534 -1.57075
  480 23.5431 13.2033 14.2625
  481 54.0854 26.0511 -39.8853
  482 192.873 27.5354 -3.13802
  483 157.746 -9.09163 -4.71822
  484 143.000 -3.05173 -2.33477
  485 143.113 -2.96001 2.37929
  486 205.186 -17.5768 -0.489372
  487 204.523 -1.27733 3.57449
  488 266.239 18.0471 22.1427
  489 199.341 24.0794 16.1471
  490 160.184 -12.4764 -6.62422
  491 196.290 31.1925 4.50553
  492 2.50282 -6.92391 -0.334537
  493 57.3995 59.6004 66.4967
  494 201.743 16.6808 20.2203
  495 146.329 -4.96916 -3.97172
  496 172.769 0.305409 -8.71730
  497 139.956 11.1291 62.2214
  498 180.295 -13.7019 -1.83590
  499 210.153 -17.3181 10.6962
  500 196.321 -3.59404 -5.54081
  501 311.441 47.8351 -7.20014
  502 50.2471 -0.0661591 -11.9766
  503 50.3393 0.0305151 12.1707
  504 197.972 -1.80082 -2.30627
  505 197.185 -1.96398 2.38996
  506 111.386 -7.53427 30.2634
  507 138.281 -6.08944 -7.65189
  508 132.638 -3.58947 -45.6876
  509 115.030 -9.04120 -29.0761
  510 105.275 -0.887649 -4.39566
  511 105.236 -0.916501 4.35893
  512 191.680 -17.9113 3.42111
  513 140.845 -7.09594 8.37334
  514 202.932 2.37345 -21.9174
  515 148.097 -7.34869 6.07008
  516 157.888 -16.5919 18.7502
  517 246.846 18.7701 3.96825
  518 92.5530 -0.374725 -6.36434
  519 92.5854 -0.400602 6.45700
  520 245.392 52.0365 -6.57707
  521 215.452 -1.86836 -16.2059
  522 215.622 -3.49828 14.5109
  523 194.181 -10.5784 -14.2118
  524 150.750 -13.0546 12.8370
  525 390.009 22.3089 -25.8870
  526 213.651 -14.4890 -0.845679
  527 159.280 1.60056 -6.88151
  528 162.332 -6.78046 1.75414
  529 195.364 22.7647 -14.9541
  530 329.848 93.2210 61.0084
  531 190.802 -4.31969 3.96986
  532 175.740 -3.79853 0.418683
  533 177.573 -3.38383 -0.612548
  534 199.755 -15.6543 -8.76111
  535 156.924 -9.38282 5.01381
  536 118.135 0.00813989 -1.05243
  537 118.147 0.0117441 1.03613
  538 158.645 -17.1700 -18.1590
  539 204.117 35.3294 -7.40202
  540 192.586 -5.69169 -7.21708
  541 161.828 1.35220 8.06384
  542 192.533 -7.42059 -12.2080
  543 119.213 -0.0117104 -0.214998
  544 119.211 -0.00720523 0.209158
  545 224.698 -9.44371 -17.4933
  546 152.723 -13.8892 -13.0156
  547 222.734 -3.48985 -10.0518
  548 205.989 -13.1102 30.9254
  549 198.141 -3.05720 4.97223
  550 210.867 -0.618685 0.792013
  551 210.838 -0.544942 -0.704553
  552 187.313 -20.3891 -8.41811
  553 193.239 -19.6968 19.1318
  554 108.722 -0.617053 -2.86344
  555 108.659 -0.611841 2.83749
  556 175.468 -17.2918 29.9223
  557 196.914 15.9043 -19.4301
  558 151.456 -15.8671 -26.9873
  559 194.456 11.0764 20.9693
  560 187.306 -20.7139 15.0054
  561 149.619 1.67000 2.91495
  562 165.105 -4.22778 0.553137
  563 204.237 -4.97733 -19.1240
  564 255.530 54.9901 0.784249
  565 208.802 -7.77594 -15.6045
  566 157.477 -11.7065 7.39491
  567 126.676 -1.56572 3.09553
  568 126.700 -1.58838 -3.14352
  569 184.809 -5.00119 2.19495
  570 147.842 -7.06027 -5.91226
  571 190.986 -3.26306 13.1069
  572 205.481 -14.3144 -9.32110
  573 173.114 -5.16217 0.353520
  574 318.114 94.3675 -42.0092
  575 172.456 3.98922 -12.3330
  576 263.573 57.2000 -1.43568
  577 151.419 1.37968 -4.53801
  578 188.750 -6.57385 5.13318
  579 54.8075 35.1431 51.5587
  580 183.812 17.3376 9.02451
  581 101.641 8.05798 -48.3949
  582 205.409 -17.2415 -2.03879
  583 187.956 -2.13887 -15.6604
  584 211.270 26.1138 -19.1289
  585 -1.60821 -1.87479 -3.37839
  586 -2.05358 -1.69797 3.45228
  587 128.095 -1.06498 -1.77760
  588 128.094 -1.05026 1.76024
  589 198.601 -12.8876 -13.2601
  590 200.065 -8.46575 -17.7217
  591 18.7411 17.6012 15.4063
  592 186.595 16.1397 13.7778
  593 169.774 -8.00798 -0.329844
  594 167.800 -2.93162 -0.111574
  595 167.352 -2.89986 -0.0395927
  596 170.988 7.75837 8.54793
  597 387.459 8.87851 5.71855
  598 138.939 -8.21753 -10.4531
  599 147.968 2.06666 0.656126
  600 196.566 3.31241 -22.1166
  601 153.862 -17.5369 27.4663
  602 3.67766 2.07733 6.24286
  603 3.09339 1.73275 -5.85533
  604 207.445 9.36502 -21.9966
  605 182.200 18.9896 -2.44265
  606 194.778 -13.5410 -11.8996
  607 112.883 -2.51044 -8.57136
  608 112.672 -2.69588 8.57049
  609 201.157 -1.04354 1.29821
  610 201.078 -1.04718 -1.35290
  611 194.630 -1.86628 -21.1594
  612 190.310 -8.88196 8.91950
  613 136.437 -7.85922 11.0118
  614 10.9136 8.76476 -6.03487
  615 199.328 109.464 -115.712
  616 196.191 -3.44215 8.56572
  617 195.320 -3.23190 -9.10233
  618 155.027 7.65777 -62.1745
  619 184.006 -5.30236 -2.66427
  620 164.717 -15.6201 9.39630
  621 213.627 43.9340 -0.240219
  622 71.9699 -2.88379 -22.5115
  623 72.6391 -2.86811 22.6903
  624 234.306 39.3437 13.2711
  625 189.231 -12.2007 -8.43860
  626 167.438 9.12813 -0.00175755
  627 183.854 -17.6218 -0.803500
  628 102.068 -2.83844 10.6795
  629 101.993 -2.81860 -10.5416
  630 132.513 -3.50314 -5.79838
  631 125.976 -0.445967 -0.832695
  632 125.977 -0.434585 0.826489
  633 188.085 -6.91148 -5.16273
  634 212.084 -0.238061 -0.380016
  635 212.010 -0.289301 0.479361
  636 247.162 46.7467 -9.62437
  637 117.253 35.7271 74.0984
  638 226.443 -2.91362 8.10234
  639 99.4925 16.1988 53.5942
  640 43.2555 12.5834 25.5588
  641 231.009 10.2414 -14.2294
  642 193.977 -18.2249 -3.04131
  643 136.360 -1.94493 -1.94736
  644 136.403 -1.91747 1.95286
  645 187.709 -1.87114 -0.346018
  646 187.867 -1.92355 0.383331
  647 146.367 -15.0032 -19.8524
  648 66.9003 3.65427 -31.8966
  649 110.967 -0.629677 1.79097
  650 110.933 -0.662824 -1.76146
  651 447.158 118.366 90.7503
  652 219.644 25.0327 -19.5748
  653 196.319 -6.22975 -19.3138
  654 193.989 -7.02763 -17.5432
  655 204.831 16.9247 -21.3359
  656 121.963 -3.29826 -8.66154
  657 121.476 -3.50775 8.45897
  658 182.323 -15.9212 1.09193
  659 1.22324 -5.28224 3.89249
  660 204.339 -0.287479 21.1433
  661 12.0166 8.25639 6.29521
  662 181.287 5.05018 16.8645
  663 29.5405 28.1749 -26.8405
  664 169.199 6.96383 -8.74889
  665 202.690 -1.31565 2.71471
  666 168.232 -15.1026 -6.10871
  667 190.880 -3.47193 -13.7210
  668 56.9093 -0.365653 8.81167
  669 57.1245 -0.308380 -8.85002
  670 231.748 46.0253 -10.6714
  671 104.508 -5.16390 -36.9812
  672 187.623 -10.2326 -6.95592
  673 163.410 -6.95620 -1.98425
  674 202.370 -1.63369 -2.63100
  675 215.716 30.8847 17.1027
  676 35.0981 7.33614 -19.3151
  677 34.1753 4.93738 19.1222
  678 195.254 -4.72952 20.0426
  679 172.065 -13.0658 1.95054
  680 192.247 -10.1453 -12.1051
  681 285.239 70.8526 -14.7551
  682 226.614 49.3822 2.07836
  683 165.536 -5.87108 0.855901
  684 216.091 8.23831 20.2258
  685 195.434 -20.3815 5.17361
  686 130.722 -3.34704 5.82723
  687 175.015 -18.8984 8.97433
  688 204.905 -0.776111 0.0147709
  689 204.881 -0.858024 0.00642212
  690 286.866 63.5647 13.8898
  691 108.951 -4.51127 14.4678
  692 15.1470 15.7271 -10.8271
  693 -4.72808 0.0719918 4.00558
  694 -4.18664 0.164325 -4.13316
  695 94.9327 -3.78616 15.8715
  696 46.7258 18.2593 -29.6550
  697 3.58600 -2.25305 -4.38899
  698 187.016 -14.9788 5.03531
  699 128.873 -7.58808 -40.3702
  700 145.452 -14.9243 19.5579
  701 181.349 -11.3783 -3.15113
  702 2.43064 -6.58901 -1.81707
  703 216.416 10.3850 -20.2790
  704 194.447 -19.0126 0.653788
  705 191.527 -15.6569 -7.60734
  706 186.141 5.54865 -19.1385
  707 108.727 -4.52994 -14.4876
  708 18.6520 28.8981 -28.6261
  709 185.311 10.1853 -17.7621
  710 -0.355613 -5.06814 -3.97279
  711 173.999 0.0924714 8.28832
  712 94.5845 -3.63366 -15.6941
  713 123.283 -6.78569 40.0969
  714 172.469 -5.81202 -0.261256
  715 141.140 -3.27937 -3.09834
  716 102.327 -3.97503 36.3860
  717 58.9901 0.668514 -24.8611
  718 58.0846 0.510922 24.3330
  719 140.653 -3.12112 3.21088
  720 32.8743 0.704170 -10.1005
  721 33.0686 0.766217 10.0393
  722 153.399 -5.83309 3.31087
  723 186.320 -0.259285 -7.09553
  724 222.105 22.0789 78.4886
  725 149.508 -2.92098 -1.63095
  726 149.417 -2.99738 1.57155
  727 192.378 -5.56433 -14.5252
  728 144.631 -1.98776 -0.922995
  729 144.591 -1.91959 0.894151
  730 187.795 -2.03330 14.0135
  731 192.592 -20.2253 2.31905
  732 152.962 -4.08896 1.99195
  733 13.0366 -0.383160 -6.66244
  734 13.1515 -0.573001 6.56264
  735 152.672 -3.66342 -1.87580
  736 3.22711 3.64807 -1.79547
  737 207.752 -15.4390 -20.8068
  738 235.106 -3.48266 5.59892
  739 70.2659 10.5713 37.0939
  740 115.358 -0.0325743 1.17189
  741 115.329 -0.0205594 -1.18907
  742 180.919 -18.4585 3.35970
  743 354.806 50.3784 -40.5667
  744 163.530 0.336823 -6.69854
  745 162.759 -3.89744 -0.696534
  746 148.028 51.5126 90.9182
  747 207.310 8.15810 21.9402
  748 186.905 -0.358472 6.87023
  749 212.759 -0.389657 -0.884315
  750 212.990 -0.510664 0.884105
  751 295.069 57.1401 -11.9492
  752 207.140 37.7168 5.63007
  753 160.537 -4.81583 -1.29316
  754 207.321 -0.823982 2.66132
  755 128.332 -7.65778 -14.3691
  756 189.335 -2.08473 1.14133
  757 189.250 -2.07094 -1.01782
  758 138.440 -11.3216 36.0204
  759 195.424 -20.7445 -7.47264
  760 193.191 -7.82958 15.6111
  761 128.103 -7.53278 14.2516
  762 201.376 29.1432 -13.4514
  763 164.721 1.25143 7.03411
  764 132.082 -12.3297 -27.0516
  765 161.535 -4.68603 1.15446
  766 191.274 -3.57955 18.9792
  767 116.863 0.165689 -0.375478
  768 116.867 0.168548 0.365947
  769 3.29640 4.84155 1.28368
  770 133.170 -4.66331 7.34141
  771 172.372 -4.33167 -0.212990
  772 191.291 -8.16384 -9.17915
  773 84.1602 -0.433643 6.53445
  774 84.2025 -0.447555 -6.42914
  775 207.677 -6.26040 17.1545
  776 190.927 -4.27049 -18.1574
  777 70.6965 -2.82804 -25.9540
  778 70.9531 -2.48370 25.7617
  779 201.698 -16.5651 5.59517
  780 191.853 -6.13902 7.30758
  781 297.579 53.3736 24.3037
</Section>

newXOutput 12

<Section columns = "stress_xx | stress_yy | stress_xy">
  1 237.435 0.248452 0.318684
  2 237.539 0.214586 -0.303668
  3 128.321 -0.0715949 -0.242290
  4 -1.59956 -1.82271 -2.12622
  5 439.153 171.295 142.128
  6 413.673 154.382 -118.520
  7 -2.12236 -1.82480 2.43037
  8 128.327 -0.0741536 0.238940
  9 238.256 -0.188388 -0.0112187
  10 238.276 -0.809531 0.663621
  11 237.280 -0.640089 0.474826
  12 232.801 -0.696253 1.60165
  13 230.521 -0.807116 1.84412
  14 225.599 -1.11292 3.01780
  15 217.382 -0.773623 4.56239
  16 207.867 -0.342806 5.26473
  17 196.961 0.279660 6.10935
  18 181.210 0.785626 5.00288
  19 171.319 1.79897 5.86831
  20 163.810 1.31962 4.41286
  21 154.343 1.77144 1.24067
  22 156.868 2.59572 -1.66049
  23 160.281 1.29033 -3.08202
  24 170.771 1.23209 -5.13312
  25 180.538 0.526212 -5.63119
  26 196.851 0.309443 -6.35737
  27 207.609 -0.580439 -5.66152
  28 218.246 -0.875848 -4.62483
  29 225.518 -0.724423 -3.32740
  30 229.318 -0.727208 -2.78990
  31 233.343 -1.06511 -1.15298
  32 237.298 -0.542256 -0.237790
  33 238.342 -0.679208 -0.585707
  34 238.383 -0.257790 0.0548066
  35 229.607 -0.369399 -0.461968
  36 219.527 -1.08288 -0.526469
  37 210.246 -2.14208 -0.730190
  38 199.404 -2.76752 -0.843928
  39 188.504 -3.16947 -0.645567
  40 176.171 -2.98193 -0.282627
  41 164.218 -2.47863 -0.166619
  42 153.427 -1.92771 0.0908619
  43 143.817 -0.932199 0.283852
  44 134.656 -0.330481 -0.0339627
  45 125.599 0.378932 -0.00981127
  46 125.111 0.319463 0.572116
  47 124.156 0.0648104 0.355626
  48 122.042 -0.249432 1.06068
  49 117.454 -0.00610173 1.50135
  50 113.463 -0.345674 2.24433
  51 108.506 -0.270988 3.24084
  52 99.8690 -0.0115112 3.46782
  53 89.9095 0.0766679 4.02312
  54 80.3911 -0.158111 6.30520
  55 62.0506 0.431852 5.84724
  56 49.5003 0.490616 6.85418
  57 32.2716 0.682192 6.11103
  58 16.6711 0.282613 6.66310
  59 1.08634 1.93034 6.66943
  60 -9.29039 2.27626 3.32614
  61 -12.6624 2.17449 -0.340652
  62 -10.3296 1.61588 -3.84079
  63 -5.99884 -0.570999 -3.28041
  64 -0.668224 -6.05084 -3.07628
  65 0.316022 -11.6842 -4.17967
  66 1.46219 -18.9343 -2.55137
  67 4.96003 -19.4651 -0.0166269
  68 8.58379 -2.67633 9.91101
  69 25.9090 36.0369 36.3962
  70 115.716 121.853 116.118
  71 567.990 60.8923 90.5216
  72 457.287 19.2839 30.1033
  73 435.928 10.7247 12.1326
  74 429.499 6.85313 -0.709783
  75 434.262 8.99695 -10.6537
  76 464.201 17.0689 -29.1041
  77 539.382 50.0279 -77.7767
  78 93.0203 139.562 -111.141
  79 21.1329 19.5217 -27.4808
  80 7.92132 -2.83400 -10.2870
  81 2.43951 -19.3697 -1.17045
  82 1.44578 -14.7779 1.99303
  83 1.66024 -14.7062 3.49446
  84 0.129606 -5.51691 3.88836
  85 -6.42938 -0.483213 3.24271
  86 -10.8290 1.56059 3.74586
  87 -12.9309 2.15281 0.259735
  88 -9.50212 2.13590 -3.27385
  89 0.719729 2.14354 -6.55760
  90 16.4004 0.347431 -6.76103
  91 32.1542 0.640574 -6.21691
  92 49.6723 0.483649 -6.90419
  93 62.2979 0.419439 -5.89565
  94 80.6497 -0.215268 -6.24284
  95 90.0258 0.0755041 -3.94269
  96 99.8480 0.0301070 -3.42495
  97 108.517 -0.260895 -3.26172
  98 113.439 -0.349592 -2.23997
  99 117.441 -0.00842648 -1.50477
  100 121.997 -0.242518 -1.05457
  101 124.120 0.0668622 -0.367204
  102 125.098 0.317459 -0.582889
  103 125.600 0.376148 0.00361886
  104 134.656 -0.339573 0.0297239
  105 143.815 -0.949753 -0.289522
  106 153.420 -1.95386 -0.0856322
  107 164.345 -2.54352 0.198565
  108 176.286 -3.00649 0.247959
  109 188.126 -3.17746 0.618174
  110 199.248 -2.63828 0.772948
  111 210.289 -2.23483 0.732157
  112 219.518 -1.16408 0.523081
  113 229.534 -0.451291 0.497169
  114 202.208 -21.3323 -5.08500
  115 204.507 -21.2659 3.34361
  116 215.105 30.7121 -11.1998
  117 172.336 -14.2780 -41.3681
  118 167.102 -13.2166 42.2536
  119 232.835 22.0813 22.2455
  120 244.870 6.57614 -18.3709
  121 171.922 -7.66164 -4.19542
  122 171.001 -8.10252 4.34154
  123 266.801 59.3837 0.927969
  124 205.536 -9.38303 6.56637
  125 207.208 -8.85917 -7.40846
  126 211.893 -4.64378 -21.4202
  127 143.251 -12.0422 22.7837
  128 143.072 -12.1262 -23.9063
  129 213.068 -7.40140 19.4122
  130 289.923 65.1674 0.893310
  131 75.4869 18.0807 -44.7119
  132 73.0055 18.3602 43.9851
  133 258.038 0.157336 -0.235601
  134 300.456 68.2892 -7.26630
  135 196.903 13.4028 12.1965
  136 196.265 -5.38993 1.27727
  137 197.369 -5.00006 -1.40520
  138 257.248 -3.67484 26.5795
  139 142.736 -6.15195 -10.3214
  140 142.754 -6.12694 9.87645
  141 196.712 12.5136 -72.4563
  142 344.527 48.0074 6.46862
  143 198.964 6.96997 -18.3332
  144 147.850 -2.16008 -2.80924
  145 147.822 -2.15136 2.82798
  146 172.968 -14.4606 10.0403
  147 176.475 -15.1333 -9.88621
  148 102.296 -6.29206 -33.0336
  149 101.870 -4.98881 33.4961
  150 221.881 34.1179 12.3227
  151 221.936 -21.2156 8.71150
  152 223.065 -12.3146 -15.7225
  153 229.901 -13.5048 10.7766
  154 210.665 -14.3538 -11.0936
  155 219.538 10.4635 -24.0728
  156 199.012 15.9236 79.3081
  157 13.7892 11.9228 6.77604
  158 11.9377 9.98981 -5.11228
  159 191.634 12.0075 -4.88526
  160 208.980 4.66530 22.3237
  161 216.748 -2.79903 4.05750
  162 214.870 -3.28018 -4.11266
  163 199.483 -14.9375 2.64396
  164 211.967 -4.90720 -12.8452
  165 242.292 40.3178 -16.7256
  166 192.611 -12.6203 -0.485417
  167 183.897 -20.8909 21.4002
  168 171.798 -4.13876 -1.16056
  169 172.017 -4.10739 1.21005
  170 213.000 -4.53208 11.9806
  171 185.227 -20.7678 -20.5028
  172 219.680 -20.4591 -14.2911
  173 247.019 44.1168 15.0201
  174 193.304 -10.3610 1.32900
  175 294.601 33.5175 -19.4644
  176 50.0636 3.60342 -25.4141
  177 48.6405 3.33987 24.7471
  178 363.377 69.2765 36.0877
  179 306.288 55.1835 8.08742
  180 375.990 43.4973 -23.6151
  181 212.485 -2.62236 1.56721
  182 212.226 -2.56138 -1.58152
  183 126.218 -4.14445 -12.9709
  184 126.230 -4.19750 13.0140
  185 101.328 -3.81965 -20.4589
  186 102.090 -3.84175 20.7979
  187 61.8956 44.0886 -56.0581
  188 202.756 -1.11589 17.2475
  189 215.080 -15.7208 11.4765
  190 137.397 -1.85801 -4.53970
  191 137.128 -1.96349 4.59321
  192 30.4491 30.4561 31.8034
  193 198.434 0.316909 -16.5759
  194 211.084 -10.9574 13.1544
  195 189.772 2.96465 14.4843
  196 218.964 -13.3019 -38.0419
  197 217.401 -3.35030 -7.33935
  198 196.712 -17.4323 1.09312
  199 235.685 47.6275 -7.64716
  200 220.481 -6.63860 21.1067
  201 147.347 -13.6136 -33.5979
  202 108.513 -0.146778 -44.2381
  203 105.981 0.537625 44.2422
  204 212.124 17.9482 18.5924
  205 155.405 0.476055 58.3915
  206 205.000 23.0847 3.56065
  207 264.878 30.1709 -13.2842
  208 218.057 -3.27719 6.57749
  209 147.387 -13.4039 33.8464
  210 187.255 -8.20544 0.249673
  211 358.781 89.5892 -44.2676
  212 264.586 34.4466 14.3025
  213 151.973 -11.0912 -14.5821
  214 151.135 -10.3817 14.4088
  215 21.8272 7.81674 -13.3653
  216 25.1664 7.97693 15.3646
  217 173.362 -17.7548 16.2764
  218 183.302 -6.72372 -1.00747
  219 184.891 -3.77496 -0.00167729
  220 186.959 -3.75732 -0.0710307
  221 173.844 -17.1981 -16.3635
  222 182.431 -12.4732 -3.58595
  223 218.034 -18.9014 27.6212
  224 263.165 57.8980 -4.91836
  225 306.979 61.2332 -4.70561
  226 244.705 7.04684 17.4262
  227 203.141 -6.72833 4.13795
  228 150.555 1.81751 -59.4325
  229 164.850 -10.4549 8.30018
  230 201.117 -7.74865 -3.55079
  231 245.267 -10.9104 1.91731
  232 207.488 16.4958 -17.8616
  233 233.089 -12.0599 -10.6254
  234 178.091 6.85477 3.47795
  235 153.601 -5.32576 -6.34137
  236 229.657 0.645094 -21.9468
  237 126.000 -1.97585 -6.60968
  238 125.870 -1.93634 6.40587
  239 135.817 -0.277661 -0.820489
  240 135.820 -0.267302 0.807407
  241 209.365 2.31035 -22.8630
  242 152.334 -5.28727 6.70869
  243 163.545 -10.2010 -8.85684
  244 75.0369 54.4796 73.3920
  245 11.9787 14.4428 -9.66025
  246 398.460 30.0690 8.86029
  247 177.847 3.01336 -7.73169
  248 203.579 -13.7670 -5.65679
  249 212.139 45.0553 -100.963
  250 213.830 -17.3832 -8.86779
  251 105.653 -3.49374 -13.5426
  252 105.809 -3.59948 13.6552
  253 211.886 -8.67978 -16.3356
  254 218.839 -2.99580 -22.8464
  255 157.075 -2.46387 -1.19174
  256 157.073 -2.47864 1.14981
  257 225.626 -1.25160 -1.62839
  258 225.838 -1.00176 1.60618
  259 206.572 -1.79249 -12.6093
  260 298.823 30.8556 60.1441
  261 192.993 -18.6358 -4.16283
  262 161.869 -4.66802 -3.26066
  263 161.065 -4.75519 3.42997
  264 -0.333819 -0.537617 -4.60454
  265 -1.11159 0.217723 4.82414
  266 56.4457 -1.47495 -20.6499
  267 56.1057 -1.24252 20.4990
  268 132.940 -0.968546 1.95932
  269 132.924 -0.979283 -1.98820
  270 206.530 -2.30424 11.9641
  271 239.216 50.0051 5.48377
  272 218.710 -20.2548 -2.76395
  273 222.735 26.4889 -20.0587
  274 215.908 -11.2246 -17.5518
  275 236.507 -13.7038 3.47119
  276 80.4547 -1.82030 19.4071
  277 79.8418 -1.93677 -19.1225
  278 217.793 -20.5577 -1.96381
  279 189.046 -21.3026 26.8251
  280 200.302 -3.03649 0.524602
  281 200.524 -2.89789 -0.497897
  282 225.282 -0.869122 -0.798286
  283 225.317 -1.02083 0.840043
  284 102.215 28.1884 66.1000
  285 232.568 18.7270 -23.2138
  286 208.200 -17.6349 5.44970
  287 264.895 55.0355 7.90670
  288 188.861 1.86622 -13.3889
  289 183.999 -5.51399 0.404614
  290 255.523 40.8497 -16.0911
  291 209.534 -3.89645 54.2308
  292 221.745 39.5259 0.102581
  293 188.932 -20.2290 -28.0398
  294 201.292 -22.8583 11.4092
  295 191.295 -18.9341 6.12817
  296 298.194 61.2353 4.19422
  297 180.596 -12.4032 4.84616
  298 223.626 -1.55265 -3.69714
  299 209.504 -10.6093 -11.0580
  300 358.720 98.9285 42.1976
  301 230.857 0.273079 21.2350
  302 218.783 -1.54968 -6.00445
  303 227.676 30.9256 18.2509
  304 248.938 -1.16756 -41.9993
  305 218.935 6.44638 24.1129
  306 6.85157 7.55623 3.33329
  307 129.283 -9.72363 27.5304
  308 208.791 -3.60233 2.45130
  309 208.013 -4.04500 -2.68005
  310 204.897 21.4098 -10.4349
  311 124.125 -8.39282 -26.6239
  312 133.408 -10.5191 -37.9063
  313 213.331 -4.81099 5.82623
  314 200.890 -11.5698 4.55817
  315 208.770 -1.04079 21.9770
  316 314.391 58.2043 -69.2967
  317 211.371 -7.35126 15.3456
  318 211.161 -5.47249 -5.95086
  319 223.468 -1.30934 3.69944
  320 128.008 -1.43540 4.43566
  321 128.128 -1.58580 -4.50409
  322 35.4289 22.2050 -27.6680
  323 175.422 5.28645 -2.87339
  324 212.657 -6.35529 10.4228
  325 290.481 51.8526 1.67794
  326 211.224 26.4961 12.4197
  327 113.662 21.8551 -66.3213
  328 130.317 -7.91667 38.1871
  329 196.719 11.6325 -13.5904
  330 218.123 -1.82752 6.54984
  331 210.164 -5.59151 -17.8707
  332 5.04731 2.61205 0.00370536
  333 38.6829 19.1737 25.5747
  334 157.192 -16.6500 27.0025
  335 -1.71616 3.73429 1.41636
  336 -1.26662 4.07816 -1.29746
  337 232.323 88.4326 110.027
  338 209.275 -4.88860 17.9287
  339 443.164 47.2485 -56.4396
  340 204.244 11.9837 18.8740
  341 245.769 25.3655 19.0535
  342 175.116 -5.74635 2.03047
  343 178.910 3.09589 8.30773
  344 160.639 -17.7878 -25.5056
  345 202.416 -9.76509 -4.96151
  346 183.567 -10.2189 1.96874
  347 212.521 -5.96380 -10.7074
  348 205.486 -22.5510 -15.8192
  349 241.197 -13.2120 -7.69588
  350 193.000 14.5491 3.75440
  351 217.259 -18.5216 7.85547
  352 276.748 19.6105 0.907073
  353 119.459 -6.06272 19.9482
  354 194.610 -7.45136 1.68428
  355 188.809 -20.8196 -13.6511
  356 315.013 76.0900 14.3776
  357 230.693 38.6938 -14.8800
  358 147.400 -3.22436 4.77738
  359 147.697 -3.48773 -4.87077
  360 118.577 -5.85694 -20.2698
  361 76.3930 65.3442 -76.5216
  362 177.518 -3.37870 -0.656237
  363 178.085 -3.56884 0.505977
  364 111.517 -1.21523 -7.01881
  365 111.495 -1.24173 7.09591
  366 412.713 15.7768 -8.30839
  367 418.026 28.4909 26.6516
  368 190.227 -15.3926 -2.66582
  369 258.526 7.58207 56.4069
  370 91.1287 -0.270156 35.2982
  371 91.2103 -0.879123 -35.4861
  372 191.080 -12.0671 43.9300
  373 191.052 1.48172 13.7891
  374 200.834 2.22607 19.4585
  375 185.004 -21.3874 16.3526
  376 53.2094 11.3612 -30.2633
  377 52.5257 9.21995 29.1120
  378 23.9655 1.87686 -12.5288
  379 24.1113 1.59296 12.6571
  380 203.367 -18.1867 -32.4734
  381 147.381 -1.33425 -1.21589
  382 147.383 -1.31591 1.20996
  383 301.344 58.0877 -0.399845
  384 182.801 -9.92998 -2.09456
  385 194.868 -5.03771 -55.5864
  386 206.225 -18.9576 -2.58346
  387 285.391 51.6295 -3.99831
  388 249.443 21.5830 -19.3630
  389 213.153 -11.9056 15.5319
  390 137.459 -3.53837 -7.57152
  391 136.991 -3.19463 7.19507
  392 183.863 -4.72781 -0.381823
  393 171.703 -5.87946 -2.82313
  394 132.936 -8.05849 18.1649
  395 132.772 -8.03042 -18.5013
  396 16.3782 24.2157 -19.9128
  397 210.722 9.82533 -22.1131
  398 161.680 -11.3755 11.3013
  399 265.289 17.6616 -60.4388
  400 206.576 -13.6077 7.78767
  401 27.4474 32.9477 34.1079
  402 207.010 -1.84911 -20.8208
  403 129.597 -0.866777 2.59770
  404 129.550 -0.827603 -2.60983
  405 215.668 -1.66245 0.665081
  406 215.589 -1.55339 -0.602300
  407 221.881 -13.6525 14.3097
  408 102.104 -5.82252 -27.1435
  409 224.021 -1.11174 -3.93468
  410 103.720 -6.02370 27.3397
  411 258.253 5.24864 -6.61073
  412 216.849 -10.3691 18.4355
  413 191.231 -12.6471 -0.0597269
  414 342.813 74.3328 -28.8436
  415 211.428 -7.93843 12.7478
  416 341.903 62.9327 20.0961
  417 253.868 54.1141 6.71180
  418 94.6869 -2.09421 -12.3382
  419 94.7678 -2.00759 12.5518
  420 37.1879 -0.284177 -14.6133
  421 36.6880 -0.270680 14.3079
  422 212.075 -1.74388 -9.01950
  423 439.192 61.5959 56.9752
  424 111.160 7.80158 52.4211
  425 138.227 -6.63530 -12.4739
  426 138.008 -6.62087 12.6080
  427 152.511 -13.1265 18.5083
  428 127.575 37.4573 -86.8531
  429 251.669 55.2864 -3.61050
  430 153.291 -12.9460 -18.7521
  431 229.516 -0.827842 -1.61652
  432 235.266 42.8730 13.0614
  433 244.827 49.0905 -10.4747
  434 164.310 -12.0707 -11.3126
  435 315.474 72.6726 -12.4805
  436 169.333 -17.8171 34.5187
  437 269.701 4.13469 -11.3956
  438 180.039 -12.2226 -47.8058
  439 199.235 2.72948 -19.0966
  440 186.770 -18.8142 -9.30068
  441 375.851 35.3030 -6.76413
  442 370.188 44.2185 22.3636
  443 210.387 -14.8193 10.1930
  444 -0.647114 3.38803 -2.84133
  445 -0.119244 3.61984 2.82477
  446 275.328 55.4158 6.71979
  447 201.437 -0.852501 10.9553
  448 183.448 -15.8906 6.31647
  449 145.082 -5.35887 50.1649
  450 0.760423 -4.77393 -3.96864
  451 160.351 -14.5970 -36.6588
  452 205.074 -16.1814 -5.45230
  453 203.264 -3.59254 1.72470
  454 203.237 -3.40947 -1.38363
  455 85.0555 8.37492 -43.5094
  456 211.919 -1.43613 8.50451
  457 28.5351 13.6960 -17.5215
  458 9.57465 9.38880 9.51814
  459 78.2033 -0.619851 -11.2093
  460 77.9554 -0.499067 11.2352
  461 469.718 107.488 -87.0064
  462 199.638 -0.578380 -11.3271
  463 207.016 -5.66807 -4.27281
  464 200.776 -8.68744 3.88641
  465 192.262 7.69790 14.1461
  466 215.911 -0.685220 23.4908
  467 191.537 -3.34384 0.229068
  468 192.331 -3.27979 -0.343098
  469 72.8980 5.52296 34.6964
  470 159.660 -5.43704 4.81856
  471 255.341 13.0671 13.4936
  472 240.807 -14.1600 16.8486
  473 277.687 59.9589 -0.633580
  474 230.031 -0.563425 1.60149
  475 194.612 -9.93653 -1.69599
  476 167.399 -2.91361 -0.752891
  477 167.295 -2.81491 0.689667
  478 59.8591 27.7253 44.5257
  479 195.448 -7.19953 -1.65478
  480 25.9595 14.5115 15.7556
  481 59.4911 28.6241 -43.9186
  482 211.816 30.2309 -3.42440
  483 173.254 -9.97087 -5.24314
  484 157.161 -3.34252 -2.58527
  485 157.285 -3.24215 2.63407
  486 225.117 -19.2938 -0.704106
  487 224.386 -1.40534 3.88435
  488 291.821 19.9270 24.5473
  489 218.870 26.4306 17.6155
  490 175.912 -13.6852 -7.34611
  491 215.555 34.2389 4.91586
  492 2.76459 -7.51046 -0.426601
  493 63.0073 65.7227 73.1253
  494 221.474 18.3059 22.0508
  495 160.786 -5.44620 -4.39784
  496 189.820 0.337027 -9.51859
  497 153.596 12.2303 68.3892
  498 197.907 -15.0372 -1.90423
  499 230.522 -19.0006 11.9007
  500 215.421 -3.95692 -6.00656
  501 341.469 52.4287 -7.91844
  502 55.4211 -0.0740097 -13.1725
  503 55.5215 0.0320362 13.3859
  504 217.197 -1.99200 -2.48906
  505 216.340 -2.17157 2.57867
  506 122.421 -8.28090 33.2797
  507 151.974 -6.67432 -8.43723
  508 145.635 -3.95921 -50.2341
  509 126.414 -9.93362 -31.9764
  510 115.882 -0.971518 -4.83247
  511 115.839 -1.00317 4.79237
  512 210.357 -19.6609 3.60947
  513 154.774 -7.77855 9.23346
  514 222.737 2.59934 -23.8852
  515 162.710 -8.05614 6.71049
  516 173.360 -18.2101 20.6620
  517 270.724 20.6380 4.11273
  518 101.910 -0.408799 -6.99415
  519 101.945 -0.437216 7.09560
  520 269.277 57.0801 -7.06099
  521 236.398 -2.05429 -17.5890
  522 236.576 -3.84336 15.7291
  523 213.122 -11.6169 -15.4479
  524 165.579 -14.3212 14.1570
  525 427.097 24.4450 -28.3266
  526 234.376 -15.8999 -0.748364
  527 175.102 1.76530 -7.51983
  528 178.275 -7.43833 1.98360
  529 214.523 24.9908 -16.3181
  530 361.255 102.474 67.2182
  531 209.382 -4.75353 4.28722
  532 192.925 -4.17732 0.423587
  533 194.928 -3.72403 -0.638341
  534 219.199 -17.1863 -9.45139
  535 172.354 -10.2905 5.56733
  536 130.016 0.0115574 -1.16057
  537 130.028 0.0154979 1.14275
  538 174.189 -18.8442 -20.0159
  539 224.123 38.7713 -8.07179
  540 211.350 -6.25684 -7.82526
  541 177.883 1.49107 8.81157
  542 211.316 -8.15203 -13.2728
  543 131.204 -0.00992774 -0.238570
  544 131.202 -0.00499381 0.232192
  545 246.409 -10.3380 -19.3780
  546 167.735 -15.2376 -14.3563
  547 244.338 -3.82636 -10.8264
  548 225.924 -14.3677 34.0820
  549 217.406 -3.36733 5.38948
  550 231.238 -0.687466 0.855161
  551 231.206 -0.607204 -0.759749
  552 205.556 -22.3801 -9.36831
  553 212.009 -21.6186 21.1275
  554 119.675 -0.674446 -3.14945
  555 119.606 -0.668823 3.12115
  556 192.550 -18.9841 32.9485
  557 216.199 17.4591 -21.1994
  558 166.295 -17.4228 -29.7015
  559 213.501 12.1582 22.8824
  560 205.534 -22.7366 16.5945
  561 164.555 1.84387 3.18638
  562 181.309 -4.64184 0.639917
  563 224.140 -5.47037 -20.8121
  564 280.396 60.2965 0.784404
  565 229.117 -8.54091 -16.9413
  566 172.953 -12.8395 8.18609
  567 139.326 -1.71127 3.41310
  568 139.352 -1.73604 -3.46563
  569 202.833 -5.49952 2.34717
  570 162.431 -7.74016 -6.53693
  571 209.658 -3.58716 14.2812
  572 225.463 -15.7157 -10.0553
  573 190.059 -5.66973 0.337373
  574 348.641 103.611 -46.3541
  575 189.478 4.39326 -13.4731
  576 289.180 62.7277 -1.70211
  577 166.521 1.52440 -4.96234
  578 207.151 -7.22380 5.54419
  579 60.2607 38.6398 56.7432
  580 201.898 19.0464 9.85628
  581 111.664 8.82680 -53.2179
  582 225.366 -18.9253 -2.06925
  583 206.366 -2.35058 -17.0798
  584 231.907 28.6553 -20.8412
  585 -1.76195 -2.05534 -3.70736
  586 -2.24937 -1.85878 3.78584
  587 140.885 -1.16267 -1.96246
  588 140.885 -1.14654 1.94348
  589 217.950 -14.1514 -14.3882
  590 219.569 -9.29919 -19.2807
  591 20.6563 19.3888 17.0350
  592 204.932 17.7269 15.0432
  593 186.407 -8.78790 -0.430598
  594 184.253 -3.22338 -0.109259
  595 183.765 -3.18862 -0.0559943
  596 187.883 8.53491 9.34037
  597 424.272 9.72972 6.25091
  598 152.679 -9.00959 -11.5182
  599 162.751 2.27937 0.718089
  600 215.785 3.63203 -24.1215
  601 168.929 -19.2560 30.2302
  602 4.16700 2.27944 6.89533
  603 3.52569 1.90090 -6.46945
  604 227.684 10.2736 -23.9678
  605 200.139 20.8611 -2.66756
  606 213.766 -14.8676 -12.9053
  607 124.187 -2.74917 -9.42730
  608 123.955 -2.95250 9.42631
  609 220.662 -1.16178 1.39952
  610 220.575 -1.16566 -1.45932
  611 213.658 -2.05252 -23.0728
  612 208.871 -9.75483 9.67055
  613 149.943 -8.61678 12.1292
  614 12.0767 9.63865 -6.69652
  615 218.175 120.530 -126.933
  616 215.305 -3.78742 9.31277
  617 214.365 -3.55621 -9.90262
  618 170.092 8.40321 -68.3233
  619 201.959 -5.82879 -2.85600
  620 180.854 -17.1384 10.4020
  621 234.543 48.1981 -0.260244
  622 79.2257 -3.17332 -24.7580
  623 79.9588 -3.15622 24.9549
  624 257.113 43.1735 14.3773
  625 207.691 -13.3956 -9.13035
  626 184.010 10.0411 -0.00174178
  627 201.791 -19.3396 -1.00788
  628 112.319 -3.11151 11.7391
  629 112.238 -3.08975 -11.5881
  630 145.683 -3.83629 -6.39280
  631 138.583 -0.484175 -0.915079
  632 138.584 -0.471714 0.908302
  633 206.423 -7.59440 -5.57439
  634 232.557 -0.271415 -0.411331
  635 232.478 -0.327463 0.519590
  636 271.177 51.2956 -10.3497
  637 128.700 39.2428 81.4214
  638 248.390 -3.19015 8.68455
  639 109.283 17.7760 58.9331
  640 47.6191 13.8176 28.1669
  641 253.417 11.2467 -15.3935
  642 212.866 -20.0052 -3.18879
  643 149.912 -2.12743 -2.15163
  644 149.960 -2.09732 2.15771
  645 205.989 -2.07072 -0.367756
  646 206.161 -2.12795 0.408576
  647 160.757 -16.4661 -21.8581
  648 73.6050 3.99535 -35.1026
  649 122.149 -0.687805 1.97196
  650 122.112 -0.724073 -1.93962
  651 489.334 129.796 99.3803
  652 241.050 27.4687 -21.3001
  653 215.485 -6.84436 -21.0378
  654 212.931 -7.71993 -19.1055
  655 224.847 18.5727 -23.2629
  656 134.125 -3.61213 -9.53238
  657 133.593 -3.84172 9.30988
  658 200.122 -17.4733 1.07745
  659 1.35755 -5.77766 4.25305
  660 224.266 -0.322034 23.0316
  661 13.2897 9.08008 6.98308
  662 199.115 5.55253 18.4162
  663 32.5244 31.0021 -29.6046
  664 185.929 7.66349 -9.56136
  665 222.350 -1.45868 2.93772
  666 184.706 -16.5706 -6.79719
  667 209.542 -3.81574 -14.9519
  668 62.7631 -0.401913 9.68840
  669 62.9999 -0.339038 -9.73030
  670 254.349 50.4922 -11.5673
  671 114.852 -5.68827 -40.6675
  672 205.928 -11.2356 -7.51749
  673 179.453 -7.63156 -2.23640
  674 222.000 -1.80709 -2.84507
  675 236.777 33.8888 18.6187
  676 38.6907 8.05072 -21.2850
  677 37.6761 5.41458 21.0743
  678 214.327 -5.19733 21.8424
  679 188.906 -14.3358 2.23487
  680 211.000 -11.1416 -13.1468
  681 312.828 77.7437 -16.3815
  682 248.764 54.1622 2.25664
  683 181.778 -6.44342 0.992214
  684 237.124 9.03703 22.0049
  685 214.442 -22.3712 5.82353
  686 143.726 -3.66515 6.42249
  687 192.112 -20.7397 9.95678
  688 224.739 -0.866969 0.0204918
  689 224.713 -0.956323 0.00260115
  690 314.637 69.7025 15.3576
  691 119.839 -4.94608 15.9064
  692 16.7075 17.3192 -11.9906
  693 -5.17921 0.0840685 4.38872
  694 -4.58329 0.187041 -4.52930
  695 104.464 -4.15496 17.4465
  696 51.4292 20.0574 -32.6754
  697 3.96229 -2.31929 -4.90018
  698 205.261 -16.4419 5.39590
  699 141.534 -8.34944 -44.3900
  700 159.757 -16.3792 21.5334
  701 199.062 -12.4898 -3.35359
  702 2.67980 -7.15528 -1.94948
  703 237.485 11.3943 -22.0624
  704 213.376 -20.8700 0.568524
  705 210.199 -17.1876 -8.20440
  706 204.414 6.09619 -20.8943
  707 119.595 -4.96679 -15.9280
  708 20.5218 31.9901 -31.5713
  709 203.516 11.1874 -19.3949
  710 -0.383317 -5.55431 -4.35305
  711 191.163 0.103394 9.04867
  712 104.084 -3.98691 -17.2516
  713 135.413 -7.46802 44.0929
  714 189.353 -6.38227 -0.231330
  715 155.125 -3.59153 -3.42824
  716 112.463 -4.38273 40.0162
  717 64.9522 0.722749 -27.3584
  718 63.9575 0.550163 26.7801
  719 154.593 -3.41821 3.55146
  720 36.3305 0.771543 -11.1167
  721 36.5430 0.839772 11.0497
  722 168.515 -6.39574 3.67675
  723 204.590 -0.287012 -7.73815
  724 243.405 24.3687 86.2155
  725 164.272 -3.20142 -1.81157
  726 164.173 -3.28518 1.74651
  727 211.164 -6.11346 -15.8163
  728 158.949 -2.17685 -1.01869
  729 158.906 -2.10219 0.987062
  730 206.189 -2.23547 15.2816
  731 211.339 -22.1999 2.68712
  732 168.042 -4.48352 2.21994
  733 14.5039 -0.422537 -7.34403
  734 14.6291 -0.631024 7.23441
  735 167.726 -4.01665 -2.09119
  736 3.58193 4.04230 -1.91837
  737 227.876 -16.9350 -22.9860
  738 257.824 -3.79063 6.35464
  739 77.2726 11.5927 40.8210
  740 126.973 -0.0330474 1.29219
  741 126.941 -0.0198726 -1.31096
  742 198.579 -20.2573 3.80740
  743 388.770 55.2176 -44.4638
  744 179.743 0.373000 -7.31723
  745 178.747 -4.27871 -0.793606
  746 162.308 56.6245 99.8358
  747 227.533 8.94777 23.9048
  748 205.227 -0.395755 7.49142
  749 233.306 -0.434046 -0.955480
  750 233.558 -0.565901 0.955455
  751 323.599 62.6447 -13.1860
  752 227.437 41.3883 6.13612
  753 176.318 -5.28353 -1.45756
  754 227.420 -0.911431 2.88800
  755 141.057 -8.39667 -15.8101
  756 207.766 -2.30454 1.22692
  757 207.672 -2.28972 -1.09220
  758 152.023 -12.4421 39.6148
  759 214.426 -22.7705 -8.34796
  760 212.050 -8.59993 16.9925
  761 140.808 -8.25983 15.6809
  762 221.109 31.9862 -14.6704
  763 181.043 1.37433 7.68439
  764 145.100 -13.5385 -29.7547
  765 177.409 -5.14175 1.30687
  766 209.983 -3.93310 20.6936
  767 128.637 0.182868 -0.415621
  768 128.641 0.185998 0.405209
  769 3.65890 5.35199 1.35531
  770 146.391 -5.10944 8.08932
  771 189.247 -4.75987 -0.191880
  772 209.944 -8.96736 -9.95833
  773 92.6983 -0.472920 7.18167
  774 92.7451 -0.488100 -7.06624
  775 227.891 -6.87882 18.6440
  776 209.604 -4.69105 -19.7951
  777 77.8062 -3.11667 -28.5511
  778 78.0878 -2.73835 28.3411
  779 221.316 -18.1848 5.97423
  780 210.550 -6.74765 7.92206
  781 326.106 58.7189 26.9917
</Section>

newXOutput 13

<Section columns = "stress_xx | stress_yy | stress_xy">
  1 258.167 0.259513 0.344072
  2 258.279 0.222955 -0.327987
  3 140.088 -0.0749943 -0.261032
  4 -1.74394 -1.98687 -2.31910
  5 476.196 186.619 154.416
  6 448.826 168.257 -128.844
  7 -2.31338 -1.98893 2.65103
  8 140.095 -0.0777751 0.257407
  9 259.056 -0.211892 -0.0160318
  10 259.086 -0.884214 0.712477
  11 258.022 -0.699912 0.505716
  12 253.207 -0.764273 1.72053
  13 250.764 -0.880231 1.98446
  14 245.464 -1.21402 3.25295
  15 236.608 -0.846452 4.92864
  16 226.340 -0.376632 5.69287
  17 214.556 0.302016 6.61168
  18 197.523 0.854778 5.41918
  19 186.817 1.95777 6.36009
  20 178.681 1.44461 4.78325
  21 168.428 1.93161 1.34555
  22 171.164 2.83441 -1.80133
  23 174.862 1.41041 -3.34187
  24 186.224 1.34358 -5.56242
  25 196.796 0.572994 -6.09907
  26 214.436 0.335099 -6.88107
  27 226.061 -0.634966 -6.12234
  28 237.539 -0.956704 -4.99527
  29 245.378 -0.793661 -3.58916
  30 249.466 -0.797996 -3.00676
  31 253.788 -1.16372 -1.23521
  32 258.041 -0.594455 -0.248968
  33 259.156 -0.743761 -0.628356
  34 259.192 -0.287343 0.0628512
  35 249.716 -0.415713 -0.499500
  36 238.824 -1.19615 -0.567667
  37 228.787 -2.34918 -0.786123
  38 217.055 -3.02646 -0.906459
  39 205.252 -3.45794 -0.693193
  40 191.894 -3.24840 -0.297844
  41 178.947 -2.69498 -0.174988
  42 167.259 -2.09278 0.103706
  43 156.856 -1.00850 0.311133
  44 146.940 -0.355160 -0.0348562
  45 137.141 0.411991 -0.00768779
  46 136.605 0.347745 0.624861
  47 135.555 0.0715760 0.392596
  48 133.247 -0.269170 1.16086
  49 128.253 -0.00501083 1.63824
  50 123.899 -0.374648 2.44666
  51 118.492 -0.293188 3.53208
  52 109.088 -0.0108730 3.78131
  53 98.2437 0.0846355 4.38645
  54 87.8670 -0.169733 6.87345
  55 67.8962 0.470156 6.37683
  56 54.2133 0.533509 7.47382
  57 35.4196 0.741136 6.67204
  58 18.3849 0.304610 7.28228
  59 1.35521 2.10173 7.29562
  60 -10.0054 2.47973 3.65000
  61 -13.7332 2.37183 -0.347902
  62 -11.2365 1.76692 -4.17179
  63 -6.53359 -0.617532 -3.57099
  64 -0.723673 -6.59105 -3.34911
  65 0.350646 -12.7148 -4.54222
  66 1.60092 -20.5623 -2.75130
  67 5.41805 -21.0680 0.0403018
  68 9.38186 -2.64978 10.8991
  69 28.2498 39.7382 39.7812
  70 125.658 133.253 126.334
  71 615.937 66.1387 98.0318
  72 496.454 20.9338 32.6302
  73 473.338 11.6534 13.1409
  74 466.385 7.45110 -0.769951
  75 471.553 9.77918 -11.5560
  76 503.937 18.5464 -31.5542
  77 585.151 54.3503 -84.2603
  78 101.012 152.540 -120.923
  79 23.0586 21.7526 -30.1079
  80 8.65807 -2.79596 -11.3156
  81 2.66529 -20.9508 -1.33023
  82 1.58562 -16.0358 2.13516
  83 1.81725 -16.0060 3.79405
  84 0.143880 -6.00695 4.23451
  85 -7.00339 -0.521848 3.52971
  86 -11.7814 1.70647 4.06876
  87 -14.0255 2.34839 0.259636
  88 -10.2351 2.32671 -3.59304
  89 0.957029 2.33402 -7.17379
  90 18.0911 0.375155 -7.38893
  91 35.2927 0.695749 -6.78732
  92 54.4013 0.525863 -7.52818
  93 68.1660 0.456585 -6.42932
  94 88.1485 -0.231913 -6.80544
  95 98.3705 0.0834093 -4.29905
  96 109.066 0.0343316 -3.73480
  97 118.505 -0.282234 -3.55461
  98 123.872 -0.378846 -2.44184
  99 128.239 -0.00750011 -1.64190
  100 133.198 -0.261662 -1.15422
  101 135.516 0.0738117 -0.405136
  102 136.591 0.345574 -0.636535
  103 137.142 0.408971 0.000981450
  104 146.941 -0.365031 0.0302678
  105 156.853 -1.02755 -0.317269
  106 167.252 -2.12115 -0.0980407
  107 179.085 -2.76541 0.209480
  108 192.018 -3.27505 0.260129
  109 204.843 -3.46658 0.663257
  110 216.886 -2.88593 0.829420
  111 228.834 -2.44973 0.788370
  112 238.815 -1.28401 0.564028
  113 249.637 -0.504421 0.537565
  114 220.090 -23.2203 -5.67175
  115 222.588 -23.1475 3.78124
  116 234.259 33.4350 -12.1208
  117 187.599 -15.5559 -45.1282
  118 181.916 -14.4020 46.0898
  119 253.441 24.0294 24.0312
  120 266.438 7.15887 -19.7672
  121 187.277 -8.33257 -4.62479
  122 186.278 -8.81189 4.78433
  123 290.398 64.5752 0.989148
  124 223.723 -10.2199 7.03483
  125 225.536 -9.65082 -7.94883
  126 230.683 -5.06083 -23.1563
  127 156.106 -13.1061 24.8565
  128 155.907 -13.1992 -26.0797
  129 231.944 -8.06267 20.9696
  130 315.430 70.9004 1.16533
  131 82.3184 19.6789 -48.7995
  132 79.6131 19.9873 48.0108
  133 280.654 0.196545 -0.489117
  134 326.859 74.2910 -8.08693
  135 214.510 14.6082 13.2119
  136 213.660 -5.87589 1.33346
  137 214.856 -5.45189 -1.47279
  138 279.724 -3.94280 29.1261
  139 155.615 -6.68705 -11.2712
  140 155.637 -6.65984 10.7874
  141 213.944 13.6662 -78.9623
  142 374.610 52.1746 7.04718
  143 216.727 7.59755 -19.8560
  144 161.208 -2.34400 -3.07922
  145 161.177 -2.33450 3.09958
  146 188.387 -15.7316 11.0104
  147 192.187 -16.4646 -10.8475
  148 111.551 -6.86436 -36.0299
  149 111.090 -5.44619 36.5340
  150 241.613 37.1363 13.3269
  151 241.474 -23.0926 9.64726
  152 242.761 -13.4115 -16.9243
  153 250.161 -14.7038 11.5314
  154 229.298 -15.6289 -11.9197
  155 239.009 11.3877 -26.0379
  156 216.441 17.4002 86.4133
  157 15.0986 13.0188 7.47133
  158 13.0855 10.9081 -5.64966
  159 208.806 13.0939 -5.29326
  160 227.563 5.08057 24.1600
  161 235.849 -3.06172 4.35216
  162 233.816 -3.58530 -4.41008
  163 217.156 -16.2590 2.75415
  164 230.734 -5.34915 -13.8662
  165 263.745 43.8728 -18.0410
  166 209.702 -13.7346 -0.425943
  167 200.196 -22.7424 23.4002
  168 187.154 -4.50228 -1.29138
  169 187.392 -4.46898 1.34535
  170 231.848 -4.94181 12.9300
  171 201.640 -22.6085 -22.4246
  172 239.016 -22.2684 -15.7162
  173 268.877 48.0021 16.1842
  174 210.455 -11.2773 1.35451
  175 320.282 36.5814 -21.4647
  176 54.6985 3.91332 -27.7526
  177 53.1478 3.62689 27.0272
  178 395.019 75.3232 39.2944
  179 333.046 60.1287 9.11482
  180 408.632 47.2793 -25.6809
  181 231.217 -2.87132 1.66922
  182 230.936 -2.80532 -1.68507
  183 137.667 -4.50436 -14.1463
  184 137.681 -4.56203 14.1933
  185 110.572 -4.15829 -22.3038
  186 111.400 -4.18252 22.6735
  187 67.4678 48.0987 -61.1812
  188 220.809 -1.21421 18.6635
  189 234.088 -17.1177 12.3224
  190 149.864 -2.01514 -4.96364
  191 149.572 -2.12966 5.02119
  192 33.2484 33.2692 34.7860
  193 216.140 0.347123 -17.9439
  194 229.760 -11.9337 14.1702
  195 206.776 3.24104 15.6918
  196 238.182 -14.4647 -41.5460
  197 236.585 -3.65880 -7.90617
  198 214.143 -18.9720 1.31317
  199 256.613 51.8186 -8.25679
  200 239.982 -7.23401 22.7894
  201 160.502 -14.8303 -36.6514
  202 118.262 -0.183247 -48.2511
  203 115.511 0.563100 48.2576
  204 231.002 19.5438 20.1225
  205 169.168 0.509282 63.6614
  206 223.299 25.1460 3.85625
  207 288.168 32.8517 -14.2048
  208 237.291 -3.57953 7.08206
  209 160.547 -14.6022 36.9194
  210 203.898 -8.93137 0.344125
  211 390.029 97.4479 -48.2528
  212 287.866 37.5041 15.3226
  213 165.607 -12.0639 -15.9271
  214 164.700 -11.2924 15.7365
  215 23.9113 8.51521 -14.6336
  216 27.5468 8.68856 16.8146
  217 188.791 -19.3219 17.8042
  218 199.616 -7.31791 -1.15376
  219 201.339 -4.11406 -0.0297262
  220 203.579 -4.09603 -0.0484821
  221 189.312 -18.7157 -17.8991
  222 198.661 -13.5700 -3.99062
  223 237.203 -20.5669 30.2090
  224 286.440 62.9734 -5.24833
  225 333.960 66.5718 -5.18918
  226 266.260 7.67162 18.7442
  227 221.117 -7.33279 4.41715
  228 163.897 1.96684 -64.7929
  229 179.597 -11.3693 9.09532
  230 218.924 -8.44130 -3.77621
  231 266.794 -11.8602 2.29753
  232 225.975 17.9665 -19.3387
  233 253.618 -13.1297 -11.3627
  234 194.139 7.48293 3.76969
  235 167.417 -5.78830 -6.94077
  236 249.945 0.695556 -23.6878
  237 137.480 -2.14431 -7.21210
  238 137.338 -2.10151 6.99075
  239 148.192 -0.297299 -0.899935
  240 148.195 -0.286046 0.885766
  241 227.973 2.51668 -24.7425
  242 166.043 -5.74604 7.34025
  243 178.181 -11.0929 -9.70037
  244 81.7632 59.4193 80.0491
  245 13.1056 15.8399 -10.6343
  246 432.899 32.6750 9.61950
  247 193.872 3.30021 -8.38030
  248 221.601 -14.9875 -6.02743
  249 230.586 49.1951 -109.937
  250 232.724 -18.9258 -9.48565
  251 115.317 -3.79938 -14.7626
  252 115.486 -3.91479 14.8849
  253 230.645 -9.45583 -17.6297
  254 238.216 -3.26819 -24.6885
  255 171.207 -2.67586 -1.31382
  256 171.205 -2.69191 1.26832
  257 245.431 -1.37775 -1.74186
  258 245.660 -1.10606 1.71855
  259 224.927 -1.95521 -13.6356
  260 324.672 33.8200 65.6755
  261 210.107 -20.2804 -4.64824
  262 176.391 -5.07424 -3.58471
  263 175.520 -5.16876 3.76853
  264 -0.338089 -0.563704 -4.98810
  265 -1.18446 0.255020 5.22713
  266 61.6946 -1.61368 -22.5334
  267 61.3237 -1.36037 22.3698
  268 145.059 -1.04809 2.14469
  269 145.041 -1.05970 -2.17602
  270 224.883 -2.50970 12.9368
  271 260.449 54.4010 5.91381
  272 238.002 -22.0502 -2.83739
  273 242.514 28.8315 -21.6958
  274 235.006 -12.2253 -18.9310
  275 257.306 -14.9139 3.57577
  276 87.8633 -1.98387 21.1612
  277 87.1967 -2.11076 -20.8506
  278 236.997 -22.3799 -2.30294
  279 205.767 -23.1932 29.3122
  280 218.028 -3.31933 0.547602
  281 218.268 -3.16907 -0.519244
  282 245.047 -0.962420 -0.853855
  283 245.085 -1.12686 0.898914
  284 111.345 30.6973 72.0780
  285 253.146 20.3790 -25.0785
  286 226.611 -19.1977 5.78112
  287 288.295 59.8719 8.44969
  288 205.788 2.03880 -14.5032
  289 200.372 -6.00371 0.489438
  290 278.081 44.4549 -17.3060
  291 227.917 -4.21042 59.1511
  292 241.480 43.0199 0.111366
  293 205.639 -22.0257 -30.6356
  294 219.085 -24.8816 12.5499
  295 208.258 -20.6055 6.78459
  296 324.428 66.5866 4.65178
  297 196.670 -13.4936 5.36001
  298 243.298 -1.70017 -3.97600
  299 228.039 -11.5550 -11.8978
  300 389.950 107.660 46.1051
  301 251.244 0.289969 22.9115
  302 238.104 -1.69190 -6.47924
  303 247.878 33.6568 19.7277
  304 270.672 -1.20934 -45.8805
  305 238.348 7.01396 26.0787
  306 7.50740 8.30699 3.71264
  307 140.915 -10.5890 30.0237
  308 227.225 -3.93632 2.61337
  309 226.385 -4.41708 -2.85829
  310 223.182 23.3203 -11.2998
  311 135.317 -9.13963 -29.0334
  312 145.350 -11.4679 -41.3415
  313 232.160 -5.24886 6.25633
  314 218.683 -12.5964 4.84572
  315 227.320 -1.13432 23.7756
  316 341.466 63.6047 -75.6428
  317 230.091 -8.00797 16.5653
  318 229.810 -5.96804 -6.38828
  319 243.125 -1.43784 3.97827
  320 139.682 -1.55573 4.84209
  321 139.812 -1.71910 -4.91650
  322 38.6955 24.2102 -30.2619
  323 191.248 5.77277 -3.11496
  324 231.459 -6.92829 11.2303
  325 315.962 56.4630 1.55922
  326 230.042 28.8494 13.4449
  327 123.789 23.7950 -72.3083
  328 141.991 -8.63617 41.6457
  329 214.308 12.6798 -14.7211
  330 237.386 -1.99533 7.06677
  331 228.801 -6.09179 -19.3114
  332 5.52958 2.91355 -0.0626231
  333 42.2413 20.9042 27.9742
  334 171.217 -18.1279 29.4685
  335 -1.81602 4.08162 1.50391
  336 -1.32782 4.45673 -1.37256
  337 252.273 96.5821 119.801
  338 227.842 -5.32662 19.3783
  339 481.265 51.3298 -61.2514
  340 222.451 13.0536 20.4374
  341 267.466 27.6087 20.5311
  342 190.745 -6.25133 2.26022
  343 195.022 3.38576 9.00353
  344 174.961 -19.3649 -27.8422
  345 220.337 -10.6339 -5.29283
  346 199.898 -11.1185 2.22473
  347 231.315 -6.50096 -11.5408
  348 223.620 -24.5490 -17.3545
  349 262.366 -14.3686 -8.57482
  350 210.286 15.8597 4.06802
  351 236.442 -20.1648 8.37725
  352 300.962 21.3982 1.25828
  353 130.284 -6.59715 21.7526
  354 211.870 -8.11502 1.75790
  355 205.544 -22.6607 -14.9722
  356 342.621 82.8026 15.8595
  357 251.171 42.1067 -16.0775
  358 160.710 -3.50079 5.22729
  359 161.032 -3.78701 -5.32901
  360 129.326 -6.37353 -22.1019
  361 83.1083 71.4098 -83.4203
  362 193.353 -3.67961 -0.732732
  363 193.967 -3.88626 0.570248
  364 121.735 -1.31970 -7.65116
  365 121.710 -1.34836 7.73504
  366 448.279 17.1445 -9.01654
  367 454.051 30.9557 28.9167
  368 207.112 -16.7496 -3.00772
  369 281.027 8.35624 61.5396
  370 99.3907 -0.311329 38.5083
  371 99.4800 -0.974784 -38.7110
  372 207.926 -13.1384 47.9305
  373 208.158 1.61937 14.9346
  374 218.739 2.42828 21.0674
  375 201.412 -23.2792 17.9060
  376 58.0924 12.3636 -33.0558
  377 57.3539 10.0306 31.7986
  378 26.2756 2.04116 -13.6981
  379 26.4335 1.73194 13.8379
  380 221.281 -19.7973 -35.4742
  381 160.711 -1.44561 -1.33027
  382 160.713 -1.42570 1.32385
  383 327.851 63.1479 -0.442424
  384 199.068 -10.8037 -2.35789
  385 212.000 -5.46766 -60.6144
  386 224.465 -20.6359 -2.66469
  387 310.450 56.2143 -4.08397
  388 271.433 23.4943 -20.8458
  389 232.013 -12.9664 16.7419
  390 149.911 -3.84250 -8.26837
  391 149.406 -3.46801 7.85716
  392 200.225 -5.14940 -0.458053
  393 187.045 -6.39515 -3.12091
  394 144.934 -8.76534 19.8147
  395 144.755 -8.73543 -20.1807
  396 17.8975 26.5426 -21.8212
  397 229.461 10.6987 -23.9340
  398 176.149 -12.3724 12.3633
  399 288.327 19.3533 -65.9388
  400 224.856 -14.8157 8.33803
  401 29.9474 36.0934 37.2937
  402 225.412 -2.01354 -22.5262
  403 141.424 -0.938453 2.83828
  404 141.373 -0.895917 -2.85145
  405 234.654 -1.82820 0.708358
  406 234.568 -1.70999 -0.640299
  407 241.473 -14.8676 15.3895
  408 111.376 -6.34595 -29.5996
  409 243.747 -1.21697 -4.23890
  410 113.131 -6.56495 29.8143
  411 280.913 5.73647 -6.95201
  412 236.030 -11.2943 19.8899
  413 208.206 -13.7638 -0.166168
  414 372.761 80.8414 -31.4615
  415 230.135 -8.64935 13.7433
  416 371.782 68.4176 21.9075
  417 276.351 58.8649 7.21350
  418 103.389 -2.27726 -13.4473
  419 103.476 -2.18312 13.6798
  420 40.7110 -0.315701 -15.9585
  421 40.1657 -0.300570 15.6261
  422 230.868 -1.90488 -9.74438
  423 477.000 66.9201 61.8511
  424 121.112 8.47295 57.1698
  425 150.709 -7.21305 -13.6146
  426 150.472 -7.19750 13.7597
  427 166.174 -14.2821 20.2054
  428 138.847 40.8372 -94.6471
  429 273.974 60.1356 -3.88757
  430 167.018 -14.0859 -20.4720
  431 249.646 -0.909057 -1.73334
  432 256.142 46.6502 14.1044
  433 266.528 53.4080 -11.2890
  434 178.997 -13.1297 -12.3810
  435 343.063 79.1335 -13.8714
  436 184.359 -19.4050 37.6693
  437 293.268 4.55114 -12.6384
  438 195.938 -13.3104 -52.1443
  439 217.012 2.97792 -20.6770
  440 203.346 -20.4748 -10.2313
  441 408.478 38.3624 -7.35204
  442 402.373 48.0536 24.3177
  443 228.994 -16.1356 10.9399
  444 -0.609197 3.69123 -3.13787
  445 -0.0345945 3.94407 3.12007
  446 299.584 60.3044 7.10401
  447 219.386 -0.928008 11.8532
  448 199.755 -17.2903 6.97277
  449 157.988 -5.85358 54.7025
  450 0.840791 -5.15799 -4.28972
  451 174.610 -15.9031 -39.9935
  452 223.222 -17.6149 -5.79424
  453 221.238 -3.92434 1.83191
  454 221.208 -3.72564 -1.46534
  455 92.7462 9.09828 -47.4744
  456 230.703 -1.56894 9.18912
  457 31.1932 14.9305 -19.1874
  458 10.4647 10.3656 10.4685
  459 85.4537 -0.673594 -12.2201
  460 85.1836 -0.541980 12.2486
  461 509.957 116.875 -94.4797
  462 217.441 -0.629299 -12.2578
  463 225.314 -6.18163 -4.57011
  464 218.557 -9.46171 4.13209
  465 209.477 8.39514 15.3262
  466 235.052 -0.750400 25.4000
  467 208.536 -3.64952 0.231302
  468 209.397 -3.58036 -0.355356
  469 79.5413 5.99795 37.8695
  470 173.992 -5.90930 5.28542
  471 277.791 14.2361 14.4476
  472 261.916 -15.3913 18.5241
  473 302.206 65.2019 -0.647056
  474 250.201 -0.622643 1.71779
  475 211.873 -10.8167 -1.75344
  476 182.391 -3.16853 -0.833050
  477 182.279 -3.06143 0.764232
  478 65.2877 30.2194 48.6187
  479 212.777 -7.84161 -1.72655
  480 28.3866 15.8175 17.2602
  481 64.8955 31.1912 -47.9590
  482 230.697 32.9160 -3.70603
  483 188.713 -10.8448 -5.77682
  484 171.297 -3.63076 -2.83851
  485 171.431 -3.52182 2.89158
  486 244.945 -21.0036 -0.946992
  487 244.144 -1.53336 4.18619
  488 317.220 21.8203 26.9834
  489 238.327 28.7718 19.0587
  490 191.587 -14.8872 -8.07782
  491 234.755 37.2724 5.31923
  492 3.02838 -8.07829 -0.528981
  493 68.5909 71.8725 79.7485
  494 241.126 19.9237 23.8484
  495 175.211 -5.91973 -4.82866
  496 206.829 0.368841 -10.3077
  497 167.173 13.3295 74.5469
  498 215.444 -16.3662 -1.95311
  499 250.777 -20.6744 13.1278
  500 234.426 -4.32028 -6.45741
  501 371.300 56.9892 -8.63613
  502 60.6205 -0.0820529 -14.3677
  503 60.7291 0.0333122 14.6006
  504 236.322 -2.18496 -2.66385
  505 235.395 -2.38095 2.75897
  506 133.437 -9.02627 36.2937
  507 165.642 -7.25494 -9.22569
  508 158.584 -4.33078 -54.7762
  509 137.775 -10.8239 -34.8748
  510 126.500 -1.05452 -5.26867
  511 126.453 -1.08896 5.22524
  512 228.947 -21.4032 3.77171
  513 168.674 -8.45638 10.0971
  514 242.455 2.82344 -25.8145
  515 177.287 -8.75874 7.35630
  516 188.776 -19.8209 22.5795
  517 294.460 22.5047 4.21433
  518 111.282 -0.442268 -7.62263
  519 111.320 -0.473217 7.73280
  520 293.045 62.0957 -7.51535
  521 257.237 -2.23976 -18.9315
  522 257.422 -4.18731 16.9074
  523 231.978 -12.6520 -16.6523
  524 180.363 -15.5810 15.4827
  525 463.853 26.5647 -30.7403
  526 254.987 -17.3040 -0.620127
  527 190.903 1.93085 -8.14946
  528 194.165 -8.09258 2.22205
  529 233.613 27.2081 -17.6594
  530 392.388 111.713 73.4428
  531 227.874 -5.18756 4.59120
  532 210.041 -4.55577 0.422322
  533 212.210 -4.06439 -0.658213
  534 238.549 -18.7123 -10.1100
  535 187.737 -11.1927 6.12944
  536 141.905 0.0154281 -1.26914
  537 141.919 0.0197005 1.24983
  538 189.676 -20.5107 -21.8793
  539 244.056 42.1972 -8.72938
  540 230.027 -6.82117 -8.41425
  541 193.912 1.63058 9.54909
  542 230.016 -8.88150 -14.3111
  543 143.204 -0.00763299 -0.262477
  544 143.203 -0.00227410 0.255571
  545 267.985 -11.2234 -21.2853
  546 182.699 -16.5789 -15.7033
  547 265.824 -4.16038 -11.5618
  548 245.741 -15.6157 37.2490
  549 236.574 -3.67811 5.79326
  550 251.484 -0.757366 0.915636
  551 251.449 -0.670728 -0.812409
  552 223.712 -24.3625 -10.3367
  553 230.682 -23.5319 23.1370
  554 130.641 -0.731083 -3.43529
  555 130.566 -0.725069 3.40468
  556 209.549 -20.6699 35.9800
  557 235.412 19.0078 -22.9387
  558 181.080 -18.9730 -32.4178
  559 232.475 13.2355 24.7637
  560 223.672 -24.7506 18.1984
  561 179.483 2.01893 3.45429
  562 197.458 -5.05426 0.731924
  563 243.951 -5.96235 -22.4617
  564 305.140 65.5694 0.771349
  565 249.331 -9.30342 -18.2398
  566 188.379 -13.9659 8.98576
  567 151.970 -1.85490 3.73189
  568 151.998 -1.88174 -3.78892
  569 220.777 -5.99738 2.48813
  570 176.984 -8.41543 -7.16701
  571 228.255 -3.91080 15.4322
  572 245.344 -17.1114 -10.7557
  573 206.937 -6.17566 0.312625
  574 378.941 112.820 -50.7211
  575 206.459 4.79819 -14.5971
  576 314.653 68.2219 -1.98917
  577 181.612 1.67031 -5.38151
  578 225.469 -7.87232 5.93796
  579 65.7081 42.1332 61.9319
  580 219.930 20.7507 10.6758
  581 121.662 9.58914 -58.0374
  582 245.219 -20.6019 -2.07022
  583 224.706 -2.56183 -18.4741
  584 252.456 31.1848 -22.5189
  585 -1.91444 -2.23467 -4.03475
  586 -2.44345 -2.01801 4.11732
  587 153.670 -1.25883 -2.14843
  588 153.670 -1.24129 2.12785
  589 237.208 -15.4106 -15.4825
  590 238.984 -10.1301 -20.8032
  591 22.5785 21.1811 18.6789
  592 223.210 19.3094 16.2892
  593 202.979 -9.56407 -0.542683
  594 200.648 -3.51476 -0.104698
  595 200.119 -3.47702 -0.0744658
  596 204.740 9.31154 10.1220
  597 460.751 10.5746 6.77654
  598 166.390 -9.79641 -12.5863
  599 177.530 2.49314 0.779404
  600 234.927 3.94979 -26.0907
  601 183.939 -20.9688 32.9966
  602 4.67772 2.48056 7.55270
  603 3.97964 2.06814 -7.08856
  604 247.833 11.1776 -25.8996
  605 218.027 22.7276 -2.88910
  606 232.667 -16.1891 -13.8796
  607 135.491 -2.98573 -10.2828
  608 135.239 -3.20684 10.2816
  609 240.060 -1.28227 1.49608
  610 239.966 -1.28638 -1.56093
  611 232.607 -2.23855 -24.9513
  612 227.348 -10.6249 10.3977
  613 163.422 -9.36932 13.2490
  614 13.2522 10.5120 -7.36833
  615 236.833 131.613 -138.090
  616 234.329 -4.13279 10.0413
  617 233.323 -3.88064 -10.6843
  618 185.080 9.14518 -74.4594
  619 219.832 -6.35441 -3.03519
  620 196.932 -18.6489 11.4185
  621 255.379 52.4395 -0.279583
  622 86.4908 -3.46300 -27.0033
  623 87.2873 -3.44449 27.2184
  624 279.809 46.9851 15.4456
  625 226.068 -14.5859 -9.79627
  626 200.548 10.9540 -0.00169488
  627 219.648 -21.0496 -1.23320
  628 122.576 -3.38266 12.7971
  629 122.488 -3.35898 -12.6329
  630 158.836 -4.16642 -6.98945
  631 151.189 -0.521267 -0.997280
  632 151.190 -0.507738 0.989941
  633 224.679 -8.27576 -5.96840
  634 252.903 -0.306333 -0.441529
  635 252.818 -0.367136 0.558531
  636 295.067 55.8227 -11.0347
  637 140.096 42.7484 88.7283
  638 270.214 -3.46376 9.22787
  639 119.045 19.3456 64.2678
  640 51.9889 15.0476 30.7838
  641 275.703 12.2492 -16.5134
  642 231.665 -21.7781 -3.30968
  643 163.448 -2.30781 -2.35743
  644 163.499 -2.27508 2.36408
  645 224.182 -2.27227 -0.387350
  646 224.368 -2.33425 0.431637
  647 175.102 -17.9223 -23.8667
  648 80.3113 4.33217 -38.3111
  649 133.344 -0.745091 2.15319
  650 133.304 -0.784446 -2.11804
  651 531.070 141.154 107.932
  652 262.358 29.8932 -22.9856
  653 234.568 -7.45733 -22.7263
  654 231.792 -8.41026 -20.6350
  655 244.780 20.2130 -25.1542
  656 146.278 -3.92320 -10.4037
  657 145.702 -4.17273 10.1613
  658 217.843 -19.0182 1.04208
  659 1.49397 -6.26727 4.60853
  660 244.104 -0.357375 24.8809
  661 14.5753 9.90340 7.68114
  662 216.889 6.05444 19.9445
  663 35.5130 33.8308 -32.3822
  664 202.624 8.36368 -10.3630
  665 241.903 -1.60357 3.15262
  666 201.117 -18.0311 -7.49860
  667 228.129 -4.15889 -16.1586
  668 68.6446 -0.438103 10.5642
  669 68.9029 -0.369647 -10.6096
  670 276.848 54.9355 -12.4340
  671 125.177 -6.21397 -44.3512
  672 224.151 -12.2349 -8.05637
  673 195.443 -8.30328 -2.49747
  674 241.524 -1.98212 -3.05095
  675 257.747 36.8784 20.1012
  676 42.2975 8.76194 -23.2614
  677 41.1911 5.88888 23.0333
  678 233.320 -5.66408 23.6071
  679 205.681 -15.5993 2.53417
  680 229.669 -12.1346 -14.1597
  681 340.252 84.6008 -18.0328
  682 270.822 58.9146 2.42986
  683 197.964 -7.01308 1.13698
  684 258.054 9.83164 23.7422
  685 233.355 -24.3523 6.49586
  686 156.716 -3.98033 7.01963
  687 209.136 -22.5724 10.9534
  688 244.458 -0.959981 0.0269133
  689 244.430 -1.05665 -0.00195793
  690 342.246 75.8021 16.8380
  691 130.725 -5.37799 17.3432
  692 18.2759 18.9146 -13.1681
  693 -5.62648 0.0970089 4.76875
  694 -4.97603 0.210867 -4.92239
  695 114.001 -4.52198 19.0189
  696 56.1374 21.8506 -35.7051
  697 4.34165 -2.35751 -5.42401
  698 223.425 -17.8987 5.73226
  699 154.154 -9.11118 -48.4063
  700 174.018 -17.8273 23.5118
  701 216.700 -13.5966 -3.53704
  702 2.93004 -7.70517 -2.07318
  703 258.453 12.3987 -23.8038
  704 232.215 -22.7195 0.457706
  705 228.786 -18.7120 -8.77364
  706 222.625 6.64250 -22.6227
  707 130.460 -5.40078 -17.3665
  708 22.3920 35.1172 -34.5301
  709 221.662 12.1867 -21.0030
  710 -0.409631 -6.03680 -4.73029
  711 208.282 0.114613 9.79720
  712 113.589 -4.33835 -18.8067
  713 147.506 -8.15095 48.0861
  714 206.173 -6.95048 -0.192039
  715 169.085 -3.90090 -3.76137
  716 122.580 -4.79216 43.6444
  717 70.9245 0.774800 -29.8573
  718 69.8409 0.587352 29.2293
  719 168.509 -3.71264 3.89518
  720 39.8160 0.838398 -12.1338
  721 40.0465 0.912805 12.0610
  722 183.589 -6.95472 4.04834
  723 222.796 -0.315044 -8.36930
  724 264.544 26.6730 93.9201
  725 179.002 -3.47976 -1.99507
  726 178.894 -3.57083 1.92439
  727 229.870 -6.66122 -17.0798
  728 173.240 -2.36419 -1.11490
  729 173.193 -2.28310 1.08052
  730 224.513 -2.43740 16.5267
  731 229.995 -24.1660 3.07823
  732 183.082 -4.87550 2.45266
  733 15.9999 -0.462076 -8.02825
  734 16.1353 -0.689148 7.90884
  735 182.740 -4.36753 -2.31115
  736 3.94240 4.44170 -2.03128
  737 247.886 -18.4224 -25.1816
  738 280.404 -4.09125 7.14349
  739 84.2749 12.6078 44.5508
  740 138.598 -0.0330383 1.41296
  741 138.563 -0.0187109 -1.43330
  742 216.162 -22.0477 4.27391
  743 422.469 60.0221 -48.3326
  744 195.929 0.409621 -7.92703
  745 194.682 -4.65838 -0.895226
  746 176.496 61.7295 108.722
  747 247.666 9.73312 25.8299
  748 223.484 -0.433278 8.10134
  749 253.727 -0.479319 -1.02377
  750 253.999 -0.621810 1.02397
  751 351.956 68.1128 -14.4293
  752 247.660 45.0423 6.63234
  753 192.049 -5.74872 -1.62777
  754 247.407 -0.999711 3.10805
  755 153.761 -9.13080 -17.2515
  756 226.107 -2.52614 1.30774
  757 226.006 -2.51034 -1.16199
  758 165.558 -13.5604 43.2073
  759 233.332 -24.7878 -9.24490
  760 230.827 -9.36794 18.3432
  761 153.492 -8.98224 17.1105
  762 240.769 34.8167 -15.8676
  763 197.337 1.49684 8.32545
  764 158.083 -14.7430 -32.4568
  765 193.232 -5.59512 1.46541
  766 228.618 -4.28577 22.3765
  767 140.423 0.200156 -0.456179
  768 140.427 0.203555 0.444899
  769 4.02718 5.86705 1.41694
  770 159.593 -5.55201 8.83928
  771 206.058 -5.18706 -0.163694
  772 228.513 -9.76850 -10.7140
  773 101.256 -0.511471 7.82765
  774 101.308 -0.527899 -7.70217
  775 248.007 -7.49565 20.0947
  776 228.206 -5.11036 -21.4022
  777 84.9220 -3.40627 -31.1481
  778 85.2285 -2.99406 30.9206
  779 240.836 -19.7978 6.32256
  780 229.160 -7.35525 8.51688
  781 354.419 64.0657 29.7221
</Section>

newXOutput 14

<Section columns = "stress_xx | stress_yy | stress_xy">
  1 278.763 0.268835 0.368910
  2 278.883 0.229645 -0.351801
  3 151.869 -0.0779037 -0.279266
  4 -1.88815 -2.15078 -2.51191
  5 512.789 201.899 166.602
  6 483.592 182.103 -139.094
  7 -2.50408 -2.15276 2.87163
  8 151.876 -0.0809049 0.275369
  9 279.719 -0.236347 -0.0214022
  10 279.760 -0.959030 0.759594
  11 278.633 -0.759961 0.534758
  12 273.491 -0.832994 1.83535
  13 270.893 -0.953288 2.12063
  14 265.226 -1.31509 3.48208
  15 255.747 -0.919658 5.28737
  16 244.744 -0.410866 6.11314
  17 232.099 0.323891 7.10568
  18 213.807 0.923575 5.82939
  19 202.299 2.11583 6.84524
  20 193.545 1.57042 5.14873
  21 182.518 2.09164 1.44915
  22 185.462 3.07354 -1.94055
  23 189.442 1.53093 -3.59847
  24 201.661 1.45500 -5.98578
  25 213.026 0.619622 -6.55998
  26 231.968 0.360362 -7.39626
  27 244.444 -0.689756 -6.57477
  28 256.743 -1.03774 -5.35797
  29 265.135 -0.863407 -3.84465
  30 269.501 -0.869484 -3.21799
  31 274.111 -1.26256 -1.31402
  32 278.652 -0.647077 -0.258588
  33 279.835 -0.808710 -0.669400
  34 279.864 -0.317805 0.0713434
  35 269.704 -0.463919 -0.536337
  36 258.016 -1.31159 -0.607839
  37 247.236 -2.55806 -0.840455
  38 234.627 -3.28638 -0.966816
  39 221.936 -3.74630 -0.739124
  40 207.568 -3.51402 -0.311463
  41 193.642 -2.90982 -0.182328
  42 181.071 -2.25618 0.117239
  43 169.885 -1.08344 0.338621
  44 159.229 -0.378984 -0.0354170
  45 148.700 0.444836 -0.00510721
  46 148.116 0.375911 0.677692
  47 146.970 0.0784816 0.430256
  48 144.466 -0.288442 1.26157
  49 139.069 -0.00365872 1.77513
  50 134.351 -0.403224 2.64864
  51 128.495 -0.314993 3.82268
  52 118.327 -0.00996108 4.09442
  53 106.602 0.0927674 4.74930
  54 95.3684 -0.180905 7.44077
  55 73.7737 0.508314 6.90598
  56 58.9597 0.576144 8.09279
  57 38.6018 0.799602 7.23383
  58 20.1304 0.326034 7.90353
  59 1.65151 2.27247 7.92494
  60 -10.6995 2.68264 3.97731
  61 -14.7909 2.56912 -0.351316
  62 -12.1381 1.91862 -4.49985
  63 -7.06661 -0.663194 -3.86031
  64 -0.778264 -7.12963 -3.62083
  65 0.386222 -13.7401 -4.90194
  66 1.74059 -22.1751 -2.94605
  67 5.87718 -22.6439 0.106624
  68 10.1826 -2.57986 11.9008
  69 30.5875 43.5062 43.1769
  70 135.507 144.700 136.493
  71 663.308 71.3399 105.430
  72 535.242 22.5676 35.1244
  73 510.398 12.5749 14.1347
  74 502.931 8.04513 -0.829405
  75 508.497 10.5558 -12.4479
  76 543.285 20.0122 -33.9737
  77 630.409 58.6375 -90.6526
  78 108.929 165.558 -130.650
  79 24.9844 24.0558 -32.7545
  80 9.39736 -2.71042 -12.3590
  81 2.89170 -22.5027 -1.49859
  82 1.72680 -17.2798 2.27097
  83 1.97523 -17.2997 4.09070
  84 0.158556 -6.49511 4.57946
  85 -7.57568 -0.559626 3.81545
  86 -12.7286 1.85299 4.38879
  87 -15.1070 2.54395 0.255702
  88 -10.9470 2.51697 -3.91568
  89 1.22204 2.52380 -7.79314
  90 19.8138 0.402280 -8.01886
  91 38.4655 0.750449 -7.35847
  92 59.1638 0.567812 -8.15145
  93 74.0658 0.493579 -6.96249
  94 95.6727 -0.248080 -7.36711
  95 106.739 0.0914855 -4.65498
  96 118.304 0.0387984 -4.04431
  97 128.509 -0.303185 -3.84685
  98 134.323 -0.407691 -2.64337
  99 139.054 -0.00630522 -1.77903
  100 144.413 -0.280345 -1.25440
  101 146.927 0.0809006 -0.443742
  102 148.101 0.373575 -0.690256
  103 148.701 0.441582 -0.00210536
  104 159.229 -0.389628 0.0304845
  105 169.882 -1.10398 -0.345216
  106 181.063 -2.28674 -0.111144
  107 193.790 -2.98574 0.219310
  108 207.701 -3.54273 0.270719
  109 221.496 -3.75558 0.706637
  110 234.446 -3.13464 0.883781
  111 247.287 -2.66631 0.842995
  112 258.005 -1.40601 0.603959
  113 269.620 -0.559347 0.577214
  114 237.892 -25.0999 -6.27760
  115 240.586 -25.0208 4.23942
  116 253.347 36.1468 -13.0265
  117 202.795 -16.8305 -48.8877
  118 196.669 -15.5847 49.9245
  119 273.955 25.9682 25.7797
  120 287.893 7.73955 -21.1206
  121 202.587 -8.99933 -5.06133
  122 201.511 -9.51683 5.23432
  123 313.887 69.7337 1.04672
  124 241.829 -11.0540 7.48352
  125 243.782 -10.4401 -8.46870
  126 249.396 -5.47693 -24.8592
  127 168.932 -14.1651 26.9289
  128 168.712 -14.2675 -28.2527
  129 250.740 -8.72193 22.4946
  130 340.800 76.6029 1.46657
  131 89.1439 21.2697 -52.8903
  132 86.2149 21.6075 52.0402
  133 303.134 0.240087 -0.778541
  134 353.114 80.2598 -8.93181
  135 232.068 15.8115 14.2126
  136 230.983 -6.36105 1.38051
  137 232.269 -5.90314 -1.53122
  138 302.055 -4.19997 31.6922
  139 168.475 -7.21823 -12.2224
  140 168.501 -7.18884 11.7001
  141 231.070 14.8212 -85.4545
  142 404.493 56.3104 7.62405
  143 234.436 8.22419 -21.3561
  144 174.550 -2.52590 -3.35132
  145 174.516 -2.51563 3.37328
  146 203.754 -16.9955 11.9891
  147 207.845 -17.7887 -11.8182
  148 120.798 -7.43664 -39.0246
  149 120.301 -5.90412 39.5703
  150 261.272 40.1413 14.3128
  151 260.910 -24.9612 10.6051
  152 262.362 -14.5046 -18.0907
  153 270.317 -15.8980 12.2512
  154 247.847 -16.8991 -12.7175
  155 258.401 12.3077 -27.9679
  156 233.764 18.8815 93.5008
  157 16.4168 14.1166 8.17926
  158 14.2433 11.8280 -6.19864
  159 225.935 14.1793 -5.69552
  160 246.078 5.49455 25.9659
  161 254.852 -3.32559 4.63548
  162 252.666 -3.89138 -4.69581
  163 234.753 -17.5746 2.84431
  164 249.419 -5.79034 -14.8644
  165 285.104 47.4102 -19.3242
  166 226.725 -14.8434 -0.350615
  167 216.426 -24.5862 25.4083
  168 202.467 -4.86368 -1.42600
  169 202.722 -4.82860 1.48444
  170 250.611 -5.35110 13.8578
  171 217.984 -24.4415 -24.3550
  172 258.249 -24.0695 -17.1606
  173 290.638 51.8675 17.3168
  174 227.537 -12.1894 1.36544
  175 345.786 39.6483 -23.4999
  176 59.3461 4.22038 -30.0954
  177 57.6681 3.91125 29.3118
  178 426.436 81.3296 42.4884
  179 359.630 65.0627 10.1868
  180 441.028 51.0339 -27.7333
  181 249.855 -3.12178 1.76508
  182 249.553 -3.05085 -1.78251
  183 149.110 -4.86153 -15.3209
  184 149.125 -4.92380 15.3716
  185 119.821 -4.49550 -24.1459
  186 120.713 -4.52188 24.5463
  187 73.0302 52.1086 -66.3076
  188 238.799 -1.31198 20.0557
  189 253.007 -18.5092 13.1375
  190 162.324 -2.17038 -5.38912
  191 162.011 -2.29386 5.45058
  192 36.0521 36.0890 37.7827
  193 233.790 0.377598 -19.2900
  194 248.353 -12.9068 15.1580
  195 223.738 3.51853 16.8820
  196 257.289 -15.6199 -45.0566
  197 255.675 -3.96782 -8.45753
  198 231.500 -20.5043 1.55173
  199 277.460 55.9875 -8.85296
  200 259.395 -7.82790 24.4352
  201 173.618 -16.0436 -39.7042
  202 127.992 -0.223379 -52.2623
  203 125.023 0.584854 52.2714
  204 249.813 21.1335 21.6272
  205 182.871 0.540963 68.9245
  206 241.542 27.2014 4.14739
  207 311.330 35.5231 -15.0808
  208 256.430 -3.88247 7.57228
  209 173.667 -15.7971 39.9913
  210 220.479 -9.65400 0.449493
  211 421.058 105.261 -52.2303
  212 311.022 40.5502 16.2992
  213 179.211 -13.0310 -17.2747
  214 178.235 -12.1977 17.0665
  215 26.0111 9.21170 -15.9103
  216 29.9418 9.39800 18.2730
  217 204.166 -20.8814 19.3389
  218 215.872 -7.90926 -1.30833
  219 217.727 -4.45237 -0.0620036
  220 220.137 -4.43414 -0.0215361
  221 204.725 -20.2259 -19.4418
  222 214.834 -14.6608 -4.40722
  223 256.266 -22.2239 32.8082
  224 309.608 68.0187 -5.56011
  225 360.790 71.8740 -5.68107
  226 287.703 8.29422 20.0206
  227 239.013 -7.93595 4.68148
  228 177.181 2.11371 -70.1459
  229 194.304 -12.2779 9.89642
  230 236.653 -9.13192 -3.98671
  231 288.197 -12.8031 2.70961
  232 244.399 19.4327 -20.7927
  233 274.041 -14.1950 -12.0643
  234 210.160 8.11186 4.05754
  235 181.209 -6.24735 -7.54345
  236 270.137 0.744993 -25.3889
  237 148.961 -2.31098 -7.81452
  238 148.809 -2.26493 7.57578
  239 160.568 -0.316046 -0.980085
  240 160.571 -0.303906 0.964844
  241 246.512 2.72253 -26.5907
  242 179.728 -6.20126 7.97490
  243 192.777 -11.9791 -10.5495
  244 88.4728 64.3563 86.7024
  245 14.2386 17.2504 -11.6237
  246 467.053 35.2608 10.3714
  247 209.871 3.58911 -9.02027
  248 239.544 -16.2030 -6.37593
  249 248.898 53.3419 -118.876
  250 251.529 -20.4621 -10.0743
  251 124.988 -4.10306 -15.9804
  252 125.170 -4.22816 16.1125
  253 249.323 -10.2297 -18.8941
  254 257.508 -3.54037 -26.4939
  255 185.314 -2.88589 -1.43795
  256 185.311 -2.90322 1.38891
  257 265.123 -1.50572 -1.85009
  258 265.370 -1.21232 1.82582
  259 243.213 -2.11786 -14.6431
  260 350.312 36.8098 71.2148
  261 227.150 -21.9171 -5.14999
  262 190.880 -5.47749 -3.91284
  263 189.942 -5.57928 4.11104
  264 -0.338146 -0.586109 -5.36599
  265 -1.25278 0.295149 5.62436
  266 66.9616 -1.75309 -24.4176
  267 66.5598 -1.47896 24.2414
  268 157.181 -1.12628 2.33108
  269 157.162 -1.13875 -2.36484
  270 243.168 -2.71448 13.8915
  271 281.598 58.7729 6.33311
  272 257.198 -23.8380 -2.88328
  273 262.215 31.1637 -23.3034
  274 254.017 -13.2228 -20.2765
  275 277.993 -16.1181 3.64762
  276 95.2860 -2.14708 22.9133
  277 94.5660 -2.28437 -22.5767
  278 256.105 -24.1944 -2.66686
  279 222.413 -25.0764 31.8063
  280 235.675 -3.60307 0.566854
  281 235.934 -3.44129 -0.536961
  282 264.698 -1.05783 -0.906847
  283 264.738 -1.23484 0.955131
  284 120.447 33.1976 78.0502
  285 273.632 22.0230 -26.9046
  286 244.938 -20.7538 6.08718
  287 311.584 64.6819 8.96536
  288 222.674 2.21187 -15.6013
  289 216.686 -6.49147 0.581545
  290 300.529 48.0430 -18.4822
  291 246.194 -4.51784 64.0689
  292 261.145 46.4979 0.120062
  293 222.270 -23.8155 -33.2382
  294 236.795 -26.8960 13.7065
  295 225.152 -22.2688 7.45614
  296 350.521 71.9035 5.12084
  297 212.688 -14.5779 5.88493
  298 262.864 -1.84861 -4.24611
  299 246.491 -12.4976 -12.7120
  300 420.958 116.349 50.0216
  301 271.533 0.305883 24.5483
  302 257.332 -1.83429 -6.94306
  303 267.999 36.3753 21.1757
  304 292.262 -1.24064 -49.7708
  305 257.681 7.57878 28.0090
  306 8.16848 9.06797 4.10422
  307 152.528 -11.4513 32.5150
  308 245.571 -4.27118 2.76618
  309 244.670 -4.78968 -3.02656
  310 241.409 25.2250 -12.1515
  311 146.494 -9.88377 -31.4406
  312 157.262 -12.4154 -44.7743
  313 250.898 -5.68667 6.67116
  314 236.400 -13.6189 5.11376
  315 245.799 -1.22754 25.5430
  316 368.304 69.0221 -81.9935
  317 248.730 -8.66273 17.7576
  318 248.369 -6.46315 -6.80981
  319 262.676 -1.56773 4.24831
  320 151.359 -1.67444 5.24885
  321 151.498 -1.85066 -5.32919
  322 41.9689 26.2130 -32.8680
  323 207.051 6.25999 -3.35340
  324 250.175 -7.50042 12.0161
  325 341.292 61.0573 1.39876
  326 248.797 31.1937 14.4537
  327 133.882 25.7273 -78.2877
  328 153.636 -9.35556 45.1016
  329 231.847 13.7255 -15.8353
  330 256.558 -2.16337 7.57158
  331 247.360 -6.59069 -20.7233
  332 6.01559 3.22534 -0.139662
  333 45.8058 22.6327 30.3853
  334 185.199 -19.6001 31.9357
  335 -1.90682 4.43020 1.58482
  336 -1.38032 4.83654 -1.44076
  337 272.039 104.747 129.537
  338 246.334 -5.76351 20.7997
  339 519.019 55.3771 -66.0125
  340 240.598 14.1204 21.9767
  341 289.058 29.8421 21.9688
  342 206.325 -6.75344 2.49677
  343 211.107 3.67695 9.68988
  344 189.237 -20.9356 -30.1811
  345 238.180 -11.4996 -5.60576
  346 216.169 -12.0133 2.49243
  347 250.022 -7.03721 -12.3526
  348 241.665 -26.5386 -18.9046
  349 283.412 -15.5178 -9.48141
  350 227.529 17.1684 4.37724
  351 255.534 -21.8013 8.86916
  352 325.023 23.1870 1.65092
  353 141.102 -7.12884 23.5551
  354 229.060 -8.77636 1.81938
  355 222.209 -24.4935 -16.3053
  356 370.063 89.4823 17.3675
  357 271.568 45.5029 -17.2506
  358 174.003 -3.77454 5.67941
  359 174.349 -4.08342 -5.78942
  360 140.069 -6.88752 -23.9320
  361 89.7858 77.4947 -90.3080
  362 209.137 -3.97941 -0.811759
  363 209.798 -4.20245 0.637273
  364 131.963 -1.42319 -8.28241
  365 131.936 -1.45398 8.37302
  366 483.536 18.5017 -9.71720
  367 489.763 33.4008 31.1568
  368 223.930 -18.0999 -3.36482
  369 303.369 9.14414 66.6720
  370 107.648 -0.355129 41.7181
  371 107.745 -1.07293 -41.9352
  372 224.687 -14.2056 51.9314
  373 225.220 1.75751 16.0630
  374 236.586 2.63053 22.6510
  375 217.754 -25.1624 19.4694
  376 62.9820 13.3610 -35.8545
  377 62.1900 10.8367 34.4912
  378 28.6065 2.20445 -14.8722
  379 28.7765 1.86998 15.0233
  380 239.101 -21.4010 -38.4820
  381 174.028 -1.55537 -1.44518
  382 174.030 -1.53391 1.43829
  383 354.212 68.1729 -0.485949
  384 215.277 -11.6727 -2.63228
  385 229.037 -5.89303 -65.6377
  386 242.621 -22.3068 -2.72221
  387 335.366 60.7820 -4.12679
  388 293.312 25.3978 -22.2853
  389 250.789 -14.0235 17.9205
  390 162.354 -4.14380 -8.96628
  391 161.812 -3.73865 8.52021
  392 216.528 -5.56955 -0.540571
  393 202.343 -6.90774 -3.42484
  394 156.917 -9.46801 21.4637
  395 156.722 -9.43637 -21.8593
  396 19.4214 28.8894 -23.7450
  397 248.131 11.5691 -25.7250
  398 190.579 -13.3634 13.4302
  399 311.193 21.0590 -71.4384
  400 243.054 -16.0190 8.86403
  401 32.4477 39.2629 40.4923
  402 243.745 -2.17729 -24.2021
  403 153.255 -1.00899 3.07942
  404 153.200 -0.963129 -3.09364
  405 253.540 -1.99609 0.749025
  406 253.447 -1.86885 -0.675757
  407 260.970 -16.0784 16.4349
  408 120.645 -6.86836 -32.0534
  409 263.370 -1.32282 -4.53491
  410 122.539 -7.10510 32.2866
  411 303.442 6.22640 -7.25300
  412 255.126 -12.2165 21.3098
  413 225.114 -14.8750 -0.288057
  414 402.514 87.3103 -34.0774
  415 248.759 -9.35844 14.7134
  416 401.466 73.8649 23.7158
  417 298.735 63.5888 7.69826
  418 112.104 -2.45909 -14.5541
  419 112.198 -2.35751 14.8054
  420 44.2565 -0.348103 -17.3061
  421 43.6658 -0.331274 16.9469
  422 249.582 -2.06622 -10.4545
  423 514.470 72.2004 66.6785
  424 131.039 9.13825 61.9151
  425 163.176 -7.78668 -14.7559
  426 162.922 -7.77006 14.9118
  427 179.804 -15.4316 21.9043
  428 150.065 44.2129 -102.423
  429 296.185 64.9566 -4.15664
  430 180.710 -15.2199 -22.1938
  431 269.658 -0.991149 -1.84560
  432 276.933 50.4081 15.1246
  433 288.137 57.7022 -12.0816
  434 193.643 -14.1824 -13.4553
  435 370.477 85.5712 -15.3010
  436 199.326 -20.9878 40.8212
  437 316.682 4.97441 -13.9129
  438 211.760 -14.3943 -56.4809
  439 234.733 3.22647 -22.2327
  440 219.857 -22.1273 -11.1749
  441 440.858 41.3979 -7.93552
  442 434.321 51.8592 26.2588
  443 247.517 -17.4468 11.6590
  444 -0.555681 3.99366 -3.44055
  445 0.0654395 4.26750 3.42156
  446 323.714 65.1692 7.45313
  447 237.273 -1.00318 12.7357
  448 216.001 -18.6827 7.64150
  449 170.846 -6.34943 59.2358
  450 0.922980 -5.53396 -4.60436
  451 188.815 -17.2057 -43.3279
  452 241.289 -19.0424 -6.11242
  453 239.131 -4.25680 1.93155
  454 239.097 -4.04263 -1.54036
  455 100.429 9.81553 -51.4404
  456 249.408 -1.70207 9.85998
  457 33.8613 16.1633 -20.8647
  458 11.3577 11.3621 11.4323
  459 92.7255 -0.726897 -13.2294
  460 92.4333 -0.584479 13.2605
  461 549.804 126.199 -101.883
  462 235.187 -0.679938 -13.1730
  463 243.527 -6.69476 -4.85345
  464 236.262 -10.2334 4.36125
  465 226.646 9.09197 16.4895
  466 254.114 -0.815858 27.2737
  467 225.468 -3.95531 0.230714
  468 226.394 -3.88114 -0.364738
  469 86.1864 6.46858 41.0451
  470 188.292 -6.37799 5.75649
  471 300.118 15.4025 15.3590
  472 282.900 -16.6134 20.2216
  473 326.607 70.4117 -0.653740
  474 270.253 -0.683054 1.82964
  475 229.064 -11.6931 -1.79609
  476 197.346 -3.42179 -0.914959
  477 197.225 -3.30638 0.840572
  478 70.7132 32.7091 52.7182
  479 230.035 -8.48156 -1.78633
  480 30.8242 17.1213 18.7762
  481 70.2983 33.7525 -52.0065
  482 249.516 35.5909 -3.98298
  483 204.124 -11.7135 -6.31906
  484 185.405 -3.91645 -3.09444
  485 185.550 -3.79905 3.15173
  486 264.671 -22.7061 -1.21756
  487 263.800 -1.66139 4.48016
  488 342.439 23.7269 29.4504
  489 257.712 31.1032 20.4769
  490 207.209 -16.0824 -8.81911
  491 253.889 40.2932 5.71573
  492 3.29417 -8.62753 -0.641592
  493 74.1500 78.0491 86.3660
  494 260.700 21.5342 25.6134
  495 189.604 -6.38975 -5.26405
  496 223.796 0.400851 -11.0848
  497 180.686 14.4267 80.6942
  498 232.908 -17.6891 -1.98291
  499 270.918 -22.3394 14.3773
  500 253.337 -4.68411 -6.89366
  501 400.935 61.5169 -9.35315
  502 65.8450 -0.0902812 -15.5625
  503 65.9617 0.0343507 15.8147
  504 255.347 -2.37965 -2.83081
  505 254.352 -2.59208 2.93101
  506 144.434 -9.77036 39.3053
  507 179.283 -7.83135 -10.0171
  508 171.485 -4.70414 -59.3138
  509 149.113 -11.7121 -37.7713
  510 137.130 -1.13667 -5.70421
  511 137.079 -1.17388 5.65751
  512 247.450 -23.1380 3.90830
  513 182.544 -9.12949 10.9642
  514 262.086 3.04582 -27.7058
  515 191.827 -9.45652 8.00736
  516 204.135 -21.4246 24.5026
  517 318.055 24.3703 4.27378
  518 120.670 -0.475137 -8.24977
  519 120.710 -0.508608 8.36856
  520 316.697 67.0837 -7.94064
  521 277.972 -2.42470 -20.2340
  522 278.162 -4.53007 18.0465
  523 250.749 -13.6835 -17.8256
  524 195.103 -16.8340 16.8140
  525 500.281 28.6681 -33.1284
  526 275.487 -18.7012 -0.461477
  527 206.682 2.09722 -8.77051
  528 210.002 -8.74323 2.46929
  529 252.636 29.4168 -18.9783
  530 423.249 120.940 79.6814
  531 246.278 -5.62172 4.88204
  532 227.088 -4.93385 0.415017
  533 229.421 -4.40486 -0.672288
  534 257.805 -20.2322 -10.7374
  535 203.072 -12.0895 6.69995
  536 153.803 0.0197467 -1.37813
  537 153.818 0.0243469 1.35734
  538 205.106 -22.1697 -23.7491
  539 263.917 45.6073 -9.37497
  540 248.616 -7.38466 -8.98439
  541 209.916 1.77073 10.2765
  542 248.632 -9.60901 -15.3233
  543 155.213 -0.00483244 -0.286712
  544 155.212 0.000947658 0.279285
  545 289.429 -12.0997 -23.2148
  546 197.617 -17.9131 -17.0564
  547 287.192 -4.49184 -12.2583
  548 265.443 -16.8542 40.4261
  549 255.645 -3.98951 6.18384
  550 271.607 -0.828352 0.973497
  551 271.569 -0.735481 -0.862588
  552 241.782 -26.3364 -11.3230
  553 249.258 -25.4367 25.1599
  554 141.618 -0.786970 -3.72093
  555 141.538 -0.780583 3.68807
  556 226.467 -22.3491 39.0167
  557 254.552 20.5505 -24.6483
  558 195.810 -20.5177 -35.1360
  559 251.376 14.3085 26.6137
  560 241.721 -26.7561 19.8167
  561 194.403 2.19518 3.71872
  562 213.552 -5.46503 0.829043
  563 263.670 -6.45323 -24.0734
  564 329.761 70.8089 0.745326
  565 269.445 -10.0634 -19.5006
  566 203.755 -15.0856 9.79369
  567 164.608 -1.99662 4.05184
  568 164.638 -2.02550 -4.11332
  569 238.640 -6.49475 2.61802
  570 191.501 -9.08611 -7.80234
  571 246.775 -4.23399 16.5603
  572 265.125 -18.5017 -11.4229
  573 223.750 -6.67993 0.279455
  574 409.018 121.995 -55.1092
  575 223.399 5.20401 -15.7050
  576 339.994 73.6828 -2.29645
  577 196.692 1.81738 -5.79557
  578 243.703 -8.51939 6.31480
  579 71.1493 45.6233 67.1244
  580 237.907 22.4507 11.4832
  581 131.633 10.3451 -62.8533
  582 264.969 -22.2712 -2.04219
  583 242.978 -2.77264 -19.8435
  584 272.919 33.7024 -24.1626
  585 -2.06567 -2.41277 -4.36056
  586 -2.63584 -2.17565 4.44674
  587 166.448 -1.35346 -2.33547
  588 166.448 -1.33452 2.31332
  589 256.377 -16.6652 -16.5436
  590 258.310 -10.9585 -22.2897
  591 24.5076 22.9781 20.3379
  592 241.430 20.8872 17.5159
  593 219.490 -10.3365 -0.665863
  594 216.985 -3.80573 -0.0979374
  595 216.415 -3.76506 -0.0949620
  596 221.559 10.0882 10.8928
  597 496.899 11.4132 7.29556
  598 180.072 -10.5780 -13.6574
  599 192.302 2.70795 0.840078
  600 253.990 4.26574 -28.0248
  601 198.892 -22.6756 35.7652
  602 5.20964 2.68069 8.21493
  603 4.45505 2.23448 -7.71260
  604 267.891 12.0770 -27.7927
  605 235.863 24.5892 -3.10732
  606 251.481 -17.5057 -14.8230
  607 146.795 -3.22013 -11.1377
  608 146.523 -3.45891 11.1364
  609 259.351 -1.40496 1.58797
  610 259.250 -1.40927 -1.65782
  611 251.480 -2.42432 -26.7954
  612 245.741 -11.4922 11.1014
  613 176.875 -10.1169 14.3710
  614 14.4402 11.3849 -8.05020
  615 255.307 142.712 -149.183
  616 253.263 -4.47824 10.7515
  617 252.195 -4.20518 -11.4475
  618 199.990 9.88373 -80.5828
  619 237.627 -6.87919 -3.20209
  620 212.949 -20.1517 12.4458
  621 276.135 56.6585 -0.298247
  622 93.7649 -3.75280 -29.2473
  623 94.6243 -3.73293 29.4806
  624 302.395 50.7788 16.4767
  625 244.363 -15.7717 -10.4368
  626 217.054 11.8669 -0.00161769
  627 237.426 -22.7516 -1.47908
  628 132.838 -3.65190 13.8533
  629 132.744 -3.62632 -13.6760
  630 171.973 -4.49355 -7.58824
  631 163.793 -0.557255 -1.07930
  632 163.795 -0.542667 1.07140
  633 242.851 -8.95554 -6.34509
  634 273.122 -0.342775 -0.470635
  635 273.031 -0.408280 0.596209
  636 318.833 60.3284 -11.6800
  637 151.442 46.2441 96.0190
  638 291.917 -3.73441 9.73291
  639 128.778 20.9078 69.5981
  640 56.3645 16.2732 33.4094
  641 297.867 13.2488 -17.5896
  642 250.374 -23.5434 -3.40441
  643 176.966 -2.48608 -2.56469
  644 177.021 -2.45075 2.57192
  645 242.289 -2.47574 -0.404845
  646 242.489 -2.54240 0.452561
  647 189.402 -19.3719 -25.8782
  648 87.0191 4.66477 -41.5218
  649 144.551 -0.801543 2.33464
  650 144.507 -0.843952 -2.29670
  651 572.373 152.441 116.406
  652 283.566 32.3063 -24.6316
  653 253.568 -8.06864 -24.3798
  654 250.571 -9.09861 -22.1321
  655 264.629 21.8459 -27.0104
  656 158.424 -4.23147 -11.2755
  657 157.804 -4.50080 11.0133
  658 235.488 -20.5561 0.986202
  659 1.63249 -6.75109 4.95895
  660 263.852 -0.393440 26.6920
  661 15.8731 10.7263 8.38929
  662 234.607 6.55593 21.4497
  663 38.5063 36.6609 -35.1731
  664 219.282 9.06440 -11.1538
  665 261.350 -1.75029 3.35956
  666 217.465 -19.4841 -8.21265
  667 246.640 -4.50138 -17.3415
  668 74.5533 -0.474218 11.4390
  669 74.8332 -0.400204 -11.4878
  670 299.244 59.3554 -13.2718
  671 135.481 -6.74098 -48.0323
  672 242.293 -13.2306 -8.57294
  673 211.378 -8.97138 -2.76727
  674 260.942 -2.15872 -3.24878
  675 278.626 39.8536 21.5507
  676 45.9182 9.46981 -25.2442
  677 44.7201 6.36028 24.9989
  678 252.231 -6.12974 25.3372
  679 222.391 -16.8563 2.84812
  680 248.254 -13.1243 -15.1444
  681 367.512 91.4242 -19.7083
  682 292.788 63.6395 2.59807
  683 214.094 -7.58005 1.29000
  684 278.883 10.6223 25.4383
  685 252.174 -26.3247 7.19021
  686 169.691 -4.29261 7.61857
  687 226.088 -24.3966 11.9639
  688 264.063 -1.05509 0.0340188
  689 264.033 -1.15895 -0.00723805
  690 369.694 81.8638 18.3306
  691 141.608 -5.80703 18.7781
  692 19.8521 20.5132 -14.3595
  693 -6.06992 0.110807 5.14571
  694 -5.36489 0.235795 -5.31244
  695 123.543 -4.88724 20.5888
  696 60.8501 23.6387 -38.7437
  697 4.72405 -2.36790 -5.96035
  698 241.508 -19.3494 6.04481
  699 166.732 -9.87328 -52.4188
  700 188.236 -19.2689 25.4929
  701 234.263 -14.6988 -3.70184
  702 3.18134 -8.23879 -2.18826
  703 279.320 13.3984 -25.5038
  704 250.962 -24.5612 0.321769
  705 247.288 -20.2301 -9.31551
  706 240.774 7.18763 -24.3241
  707 141.321 -5.83191 -18.8032
  708 24.2625 38.2789 -37.5022
  709 239.749 13.1831 -22.5865
  710 -0.434566 -6.51564 -5.10452
  711 225.357 0.126125 10.5340
  712 123.099 -4.68797 -20.3593
  713 159.564 -8.83445 52.0762
  714 222.928 -7.51664 -0.143579
  715 183.020 -4.20750 -4.09765
  716 132.679 -5.20330 47.2705
  717 76.9069 0.824694 -32.3578
  718 75.7345 0.622511 31.6804
  719 182.400 -4.00442 4.24194
  720 43.3303 0.904744 -13.1518
  721 43.5786 0.985324 13.0733
  722 198.623 -7.51003 4.42549
  723 240.936 -0.343377 -8.98916
  724 285.526 28.9916 101.602
  725 193.697 -3.75601 -2.18135
  726 193.581 -3.85434 2.10511
  727 248.495 -7.20759 -18.3161
  728 187.503 -2.54981 -1.21163
  729 187.452 -2.46234 1.17450
  730 242.768 -2.63906 17.7494
  731 248.561 -26.1235 3.49198
  732 198.082 -5.26491 2.69000
  733 17.5243 -0.501770 -8.71505
  734 17.6696 -0.747366 8.58587
  735 197.715 -4.71606 -2.53558
  736 4.30846 4.84622 -2.13430
  737 267.781 -19.9013 -27.3933
  738 302.846 -4.38453 7.96488
  739 91.2725 13.6167 48.2830
  740 150.234 -0.0325529 1.53417
  741 150.197 -0.0170803 -1.55606
  742 233.669 -23.8299 4.75888
  743 455.904 64.7922 -52.1731
  744 212.088 0.446682 -8.52806
  745 210.566 -5.03646 -1.00129
  746 190.593 66.8275 117.576
  747 267.708 10.5142 27.7160
  748 241.674 -0.471038 8.70017
  749 274.022 -0.525453 -1.08926
  750 274.313 -0.678372 1.08970
  751 380.141 73.5446 -15.6788
  752 267.807 48.6788 7.11885
  753 207.730 -6.21138 -1.80366
  754 267.284 -1.08880 3.32160
  755 166.443 -9.86021 -18.6930
  756 244.360 -2.74947 1.38388
  757 244.251 -2.73275 -1.22731
  758 179.047 -14.6766 46.7978
  759 252.143 -26.7965 -10.1631
  760 249.523 -10.1336 19.6636
  761 166.156 -9.70003 18.5403
  762 260.356 37.6348 -17.0433
  763 213.601 1.61898 8.95739
  764 171.032 -15.9431 -35.1580
  765 209.004 -6.04614 1.62994
  766 247.178 -4.63754 24.0283
  767 152.220 0.217551 -0.497139
  768 152.225 0.221215 0.485003
  769 4.40118 6.38668 1.46867
  770 172.776 -5.99104 9.59120
  771 222.804 -5.61322 -0.128581
  772 246.997 -10.5673 -11.4465
  773 109.834 -0.549302 8.47235
  774 109.889 -0.566956 -8.33691
  775 268.026 -8.11084 21.5073
  776 246.734 -5.52841 -22.9792
  777 92.0436 -3.69681 -33.7450
  778 92.3749 -3.25079 33.5002
  779 260.260 -21.4041 6.64065
  780 247.684 -7.96179 9.09238
  781 382.519 69.4140 32.4937
</Section>

newXOutput 15

<Section columns = "stress_xx | stress_yy | stress_xy">
  1 299.226 0.276455 0.393208
  2 299.352 0.234693 -0.375119
  3 163.662 -0.0803296 -0.297000
  4 -2.03218 -2.31443 -2.70464
  5 548.939 217.137 178.685
  6 517.978 195.919 -149.269
  7 -2.69446 -2.31630 3.09218
  8 163.670 -0.0835495 0.292837
  9 300.247 -0.261731 -0.0273140
  10 300.301 -1.03397 0.805009
  11 299.113 -0.820227 0.561995
  12 293.656 -0.902397 1.94619
  13 290.908 -1.02628 2.25273
  14 284.884 -1.41613 3.70532
  15 274.799 -0.993233 5.63870
  16 263.077 -0.445501 6.52567
  17 249.589 0.345290 7.59147
  18 230.062 0.992021 6.23358
  19 217.765 2.27315 7.32384
  20 208.401 1.69703 5.50936
  21 196.613 2.25154 1.55150
  22 199.761 3.31310 -2.07816
  23 204.019 1.65191 -3.85184
  24 217.083 1.56636 -6.40327
  25 229.228 0.666101 -7.01401
  26 249.448 0.385238 -7.90304
  27 262.757 -0.744805 -7.01893
  28 275.859 -1.11895 -5.71306
  29 284.788 -0.933648 -4.09399
  30 289.424 -0.941655 -3.42369
  31 294.312 -1.36164 -1.38949
  32 299.133 -0.700109 -0.266689
  33 300.380 -0.874040 -0.708873
  34 300.401 -0.349152 0.0802700
  35 289.571 -0.513969 -0.572489
  36 277.102 -1.42915 -0.647005
  37 265.594 -2.76863 -0.893214
  38 252.123 -3.54723 -1.02504
  39 238.557 -4.03452 -0.783391
  40 223.193 -3.77877 -0.323518
  41 208.302 -3.12315 -0.188659
  42 194.861 -2.41792 0.131444
  43 182.906 -1.15704 0.366310
  44 171.522 -0.401964 -0.0356523
  45 160.275 0.477468 -0.00207943
  46 159.643 0.403962 0.730601
  47 158.398 0.0855256 0.468587
  48 155.700 -0.307251 1.36278
  49 149.901 -0.00204841 1.91201
  50 144.819 -0.431405 2.85027
  51 138.515 -0.336403 4.11265
  52 127.586 -0.00877710 4.40713
  53 114.984 0.101063 5.11163
  54 102.895 -0.191629 8.00713
  55 79.6825 0.546329 7.43467
  56 63.7391 0.618525 8.71105
  57 41.8175 0.857597 7.79637
  58 21.9074 0.346896 8.52681
  59 1.97502 2.44256 8.55737
  60 -11.3727 2.88498 4.30803
  61 -15.8356 2.76635 -0.350919
  62 -13.0345 2.07097 -4.82497
  63 -7.59789 -0.707992 -4.14839
  64 -0.832003 -7.66660 -3.89143
  65 0.422744 -14.7604 -5.25883
  66 1.88118 -23.7727 -3.13565
  67 6.33740 -24.1930 0.182262
  68 10.9861 -2.46694 12.9161
  69 32.9221 47.3401 46.5830
  70 145.266 156.192 146.594
  71 710.111 76.4964 112.719
  72 573.655 24.1853 37.5864
  73 547.112 13.4892 15.1141
  74 539.140 8.63525 -0.888148
  75 545.101 11.3268 -13.3296
  76 582.249 21.4664 -36.3631
  77 675.161 62.8898 -96.9550
  78 116.773 178.615 -140.321
  79 26.9101 26.4305 -35.4199
  80 10.1391 -2.57778 -13.4168
  81 3.11873 -24.0257 -1.67547
  82 1.86933 -18.5100 2.40050
  83 2.13418 -18.5874 4.38442
  84 0.173630 -6.98140 4.92320
  85 -8.14625 -0.596553 4.09991
  86 -13.6705 2.00015 4.70597
  87 -16.1753 2.73948 0.247958
  88 -11.6378 2.70669 -4.24175
  89 1.51456 2.71288 -8.41562
  90 21.5682 0.428816 -8.65079
  91 41.6721 0.804681 -7.93033
  92 63.9593 0.609501 -8.77399
  93 79.9969 0.530427 -7.49514
  94 103.222 -0.263770 -7.92784
  95 115.131 0.0997320 -5.01045
  96 127.562 0.0435060 -4.35345
  97 138.531 -0.323751 -4.13839
  98 144.789 -0.436129 -2.84453
  99 149.885 -0.00484495 -1.91613
  100 155.642 -0.298571 -1.35509
  101 158.352 0.0881276 -0.483006
  102 159.626 0.401463 -0.744043
  103 160.276 0.473983 -0.00563180
  104 171.521 -0.413372 0.0303812
  105 182.902 -1.17905 -0.373356
  106 194.852 -2.45066 -0.124926
  107 208.460 -3.20450 0.228076
  108 223.336 -3.80952 0.279761
  109 238.086 -4.04443 0.748346
  110 251.929 -3.38436 0.936070
  111 265.648 -2.88449 0.896063
  112 277.091 -1.53002 0.642890
  113 289.481 -0.616023 0.616127
  114 255.613 -26.9712 -6.90219
  115 258.501 -26.8857 4.71779
  116 272.369 38.8476 -13.9170
  117 217.926 -18.1018 -52.6462
  118 211.361 -16.7648 53.7576
  119 294.379 27.8979 27.4916
  120 309.237 8.31827 -22.4320
  121 217.851 -9.66196 -5.50487
  122 216.699 -10.2174 5.69133
  123 337.268 74.8594 1.10076
  124 259.855 -11.8854 7.91278
  125 261.946 -11.2271 -8.96842
  126 268.032 -5.89204 -26.5296
  127 181.729 -15.2190 29.0010
  128 181.488 -15.3310 -30.4249
  129 269.455 -9.37918 23.9877
  130 366.033 82.2753 1.79649
  131 95.9631 22.8532 -56.9839
  132 92.8109 23.2210 56.0732
  133 325.480 0.287998 -1.10327
  134 379.221 86.1961 -9.80041
  135 249.576 17.0127 15.1986
  136 248.233 -6.84538 1.41863
  137 249.609 -6.35376 -1.58067
  138 324.240 -4.44639 34.2775
  139 181.318 -7.74555 -13.1749
  140 181.348 -7.71397 12.6144
  141 248.092 15.9788 -91.9328
  142 434.177 60.4153 8.19918
  143 252.090 8.84991 -22.8338
  144 187.876 -2.70581 -3.62546
  145 187.840 -2.69477 3.64900
  146 219.071 -18.2525 12.9761
  147 223.449 -19.1057 -12.7980
  148 130.036 -8.00887 -42.0177
  149 129.504 -6.36257 42.6049
  150 280.859 43.1332 15.2806
  151 280.243 -26.8213 11.5848
  152 281.870 -15.5939 -19.2221
  153 290.370 -17.0874 12.9365
  154 266.312 -18.1644 -13.4876
  155 277.714 13.2237 -29.8632
  156 250.980 20.3675 100.571
  157 17.7438 15.2164 8.89970
  158 15.4110 12.7495 -6.75913
  159 243.021 15.2639 -6.09211
  160 264.524 5.90726 27.7418
  161 273.759 -3.59059 4.90769
  162 271.422 -4.19837 -4.97007
  163 252.275 -18.8843 2.91482
  164 268.023 -6.23079 -15.8402
  165 306.369 50.9303 -20.5757
  166 243.679 -15.9468 -0.259741
  167 232.588 -26.4223 27.4242
  168 217.736 -5.22296 -1.56433
  169 218.008 -5.18625 1.62724
  170 269.292 -5.75992 14.7643
  171 234.259 -26.2668 -26.2937
  172 277.381 -25.8624 -18.6239
  173 312.302 55.7132 18.4183
  174 244.551 -13.0973 1.36209
  175 371.116 42.7181 -25.5692
  176 64.0063 4.52463 -32.4422
  177 62.2012 4.19296 31.6008
  178 457.631 87.2962 45.6694
  179 386.040 69.9857 11.3023
  180 473.179 54.7613 -29.7725
  181 268.399 -3.37368 1.85491
  182 268.076 -3.29790 -1.87395
  183 160.547 -5.21599 -16.4944
  184 160.563 -5.28283 16.5489
  185 129.072 -4.83128 -25.9852
  186 130.029 -4.85982 26.4162
  187 78.5825 56.1183 -71.4370
  188 256.726 -1.40920 21.4244
  189 271.838 -19.8955 13.9225
  190 174.778 -2.32374 -5.81607
  191 174.444 -2.45610 5.88132
  192 38.8602 38.9155 40.7933
  193 251.384 0.408340 -20.6146
  194 266.863 -13.8765 16.1184
  195 240.658 3.79711 18.0550
  196 276.286 -16.7676 -48.5734
  197 274.672 -4.27735 -8.99370
  198 248.784 -22.0294 1.80846
  199 298.225 60.1344 -9.43585
  200 278.721 -8.42022 26.0445
  201 186.694 -17.2534 -42.7561
  202 137.702 -0.267133 -56.2713
  203 134.516 0.602924 56.2835
  204 268.556 22.7176 23.1070
  205 196.515 0.571126 74.1807
  206 259.728 29.2507 4.43413
  207 334.365 38.1850 -15.9128
  208 275.474 -4.18599 8.04839
  209 186.748 -16.9887 43.0618
  210 236.998 -10.3733 0.565552
  211 451.868 113.028 -56.1997
  212 334.054 43.5849 17.2328
  213 192.784 -13.9923 -18.6247
  214 191.740 -13.0977 18.3987
  215 28.1266 9.90623 -17.1953
  216 32.3513 10.1052 19.7396
  217 219.486 -22.4333 20.8806
  218 232.070 -8.49778 -1.47101
  219 234.056 -4.78987 -0.0984186
  220 236.634 -4.77162 0.00971305
  221 220.082 -21.7287 -20.9912
  222 230.948 -15.7456 -4.83550
  223 275.225 -23.8724 35.4186
  224 332.670 73.0344 -5.85399
  225 387.470 77.1402 -6.18107
  226 309.035 8.91474 21.2561
  227 256.830 -8.53780 4.93124
  228 190.409 2.25815 -75.4913
  229 208.970 -13.1807 10.7033
  230 254.306 -9.82051 -4.18257
  231 309.477 -13.7390 3.15302
  232 262.761 20.8943 -22.2238
  233 294.357 -15.2558 -12.7309
  234 226.155 8.74153 4.34154
  235 194.974 -6.70292 -8.14929
  236 290.233 0.793477 -27.0507
  237 160.444 -2.47587 -8.41688
  238 160.281 -2.42663 8.16092
  239 172.944 -0.333910 -1.06092
  240 172.948 -0.320891 1.04462
  241 264.980 2.92793 -28.4080
  242 193.388 -6.65297 8.61250
  243 207.335 -12.8596 -11.4041
  244 95.1654 69.2908 93.3517
  245 15.3774 18.6741 -12.6281
  246 500.926 37.8267 11.1160
  247 225.844 3.88002 -9.65167
  248 257.408 -17.4133 -6.70267
  249 267.076 57.4955 -127.782
  250 270.246 -21.9924 -10.6342
  251 134.667 -4.40479 -17.1960
  252 134.861 -4.53958 17.3378
  253 267.919 -11.0013 -20.1292
  254 276.716 -3.81231 -28.2629
  255 199.394 -3.09397 -1.56407
  256 199.391 -3.11257 1.51152
  257 284.704 -1.63547 -1.95319
  258 284.967 -1.32049 1.92808
  259 261.430 -2.28043 -15.6322
  260 375.745 39.8247 76.7614
  261 244.122 -23.5457 -5.66777
  262 205.336 -5.87781 -4.24495
  263 204.333 -5.98677 4.45739
  264 -0.334020 -0.604857 -5.73823
  265 -1.31656 0.338089 6.01586
  266 72.2464 -1.89319 -26.3024
  267 71.8137 -1.59827 26.1139
  268 169.305 -1.20314 2.51845
  269 169.284 -1.21645 -2.55462
  270 261.383 -2.91860 14.8286
  271 302.662 63.1210 6.74180
  272 276.299 -25.6183 -2.90208
  273 281.840 33.4856 -24.8821
  274 272.944 -14.2169 -21.5887
  275 298.567 -17.3163 3.68725
  276 102.722 -2.30992 24.6634
  277 101.949 -2.45759 -24.3008
  278 275.118 -26.0013 -3.05515
  279 238.984 -26.9522 34.3073
  280 253.244 -3.88765 0.582435
  281 253.520 -3.71450 -0.551126
  282 284.235 -1.15529 -0.957317
  283 284.278 -1.34471 1.00875
  284 129.522 35.6893 84.0164
  285 294.026 23.6594 -28.6926
  286 263.182 -22.3034 6.36830
  287 334.763 69.4655 9.45415
  288 239.519 2.38541 -16.6832
  289 232.942 -6.97726 0.680778
  290 322.868 51.6142 -19.6203
  291 264.363 -4.81874 68.9842
  292 280.739 49.9600 0.128672
  293 238.825 -25.5984 -35.8473
  294 254.424 -28.9016 14.8784
  295 241.977 -23.9242 8.14252
  296 376.472 77.1863 5.60117
  297 228.649 -15.6561 6.42069
  298 282.326 -1.99795 -4.50764
  299 264.860 -13.4371 -13.5010
  300 451.746 124.996 53.9466
  301 291.725 0.320891 26.1458
  302 276.469 -1.97684 -7.39610
  303 288.039 39.0811 22.5954
  304 313.710 -1.26152 -53.6697
  305 276.934 8.14090 29.9041
  306 8.83476 9.83906 4.50791
  307 164.119 -12.3106 35.0041
  308 263.829 -4.60685 2.90991
  309 262.868 -5.16276 -3.18504
  310 259.580 27.1239 -12.9902
  311 157.654 -10.6252 -33.8455
  312 169.142 -13.3617 -48.2048
  313 269.545 -6.12440 7.07099
  314 254.041 -14.6373 5.36264
  315 264.208 -1.32045 27.2795
  316 394.906 74.4564 -88.3482
  317 267.289 -9.31553 18.9230
  318 266.841 -6.95778 -7.21574
  319 282.122 -1.69899 4.50973
  320 163.039 -1.79155 5.65588
  321 163.187 -1.98050 -5.74212
  322 45.2490 28.2135 -35.4861
  323 222.832 6.74808 -3.58873
  324 268.805 -8.07165 12.7807
  325 366.475 65.6355 1.19729
  326 267.488 33.5292 15.4463
  327 143.941 27.6522 -84.2595
  328 165.251 -10.0748 48.5548
  329 249.336 14.7696 -16.9331
  330 275.639 -2.33162 8.06447
  331 265.842 -7.08818 -22.1069
  332 6.50530 3.54734 -0.227321
  333 49.3763 24.3589 32.8078
  334 199.136 -21.0665 34.4040
  335 -1.98862 4.78003 1.65913
  336 -1.42418 5.21760 -1.50210
  337 291.622 112.927 139.233
  338 264.751 -6.19928 22.1934
  339 556.431 59.3907 -70.7236
  340 258.684 15.1842 23.4922
  341 310.545 32.0660 23.3673
  342 221.857 -7.25269 2.73996
  343 227.165 3.96947 10.3669
  344 203.466 -22.4997 -32.5222
  345 255.944 -12.3621 -5.90062
  346 232.382 -12.9034 2.77158
  347 268.645 -7.57255 -13.1430
  348 259.621 -28.5198 -20.4692
  349 304.337 -16.6596 -10.4152
  350 244.727 18.4751 4.68211
  351 274.534 -23.4312 9.33167
  352 348.935 24.9771 2.08424
  353 151.912 -7.65781 25.3555
  354 246.179 -9.43537 1.86896
  355 238.805 -26.3179 -17.6503
  356 397.339 96.1296 18.9010
  357 291.883 48.8825 -18.3996
  358 187.279 -4.04563 6.13365
  359 187.650 -4.37699 -6.25191
  360 150.805 -7.39892 -25.7598
  361 96.4256 83.5984 -97.1845
  362 224.870 -4.27808 -0.893257
  363 225.577 -4.51740 0.706988
  364 142.201 -1.52571 -8.91252
  365 142.172 -1.55858 9.00982
  366 518.486 19.8484 -10.4104
  367 525.164 35.8262 33.3725
  368 240.681 -19.4433 -3.73680
  369 325.552 9.94566 71.8038
  370 115.900 -0.401526 44.9275
  371 116.005 -1.17352 -45.1586
  372 241.363 -15.2686 55.9326
  373 242.237 1.89612 17.1746
  374 254.374 2.83282 24.2097
  375 234.029 -27.0372 21.0425
  376 67.8780 14.3536 -38.6594
  377 67.0337 11.6385 37.1897
  378 30.9580 2.36675 -16.0510
  379 31.1398 2.00712 16.2134
  380 256.829 -22.9977 -41.4966
  381 187.331 -1.66354 -1.56061
  382 187.333 -1.64054 1.55324
  383 380.430 73.1632 -0.530398
  384 231.428 -12.5370 -2.91749
  385 245.980 -6.31384 -70.6560
  386 260.695 -23.9705 -2.75642
  387 360.140 65.3328 -4.12750
  388 315.080 27.2936 -23.6821
  389 269.481 -15.0770 19.0681
  390 174.788 -4.44231 -9.66514
  391 174.209 -4.00657 9.18415
  392 232.773 -5.98824 -0.629241
  393 217.596 -7.41726 -3.73479
  394 168.884 -10.1665 23.1119
  395 168.674 -10.1333 -23.5369
  396 20.9498 31.2558 -25.6839
  397 266.733 12.4364 -27.4865
  398 204.971 -14.3484 14.5020
  399 333.888 22.7786 -76.9373
  400 261.172 -17.2176 9.36609
  401 34.9480 42.4556 43.7033
  402 262.009 -2.34033 -25.8489
  403 165.091 -1.07841 3.32110
  404 165.032 -1.02925 -3.33634
  405 272.326 -2.16603 0.787138
  406 272.228 -2.02989 -0.708728
  407 280.375 -17.2848 17.4464
  408 129.911 -7.38974 -34.5048
  409 282.891 -1.42926 -4.82287
  410 131.942 -7.64416 34.7567
  411 325.841 6.71848 -7.51433
  412 274.135 -13.1357 22.6956
  413 241.954 -15.9809 -0.425090
  414 432.071 93.7396 -36.6913
  415 267.300 -10.0657 15.6587
  416 430.957 79.2748 25.5206
  417 321.022 68.2860 8.16635
  418 120.832 -2.63973 -15.6587
  419 120.932 -2.53075 15.9287
  420 47.8242 -0.381368 -18.6562
  421 47.1881 -0.362779 18.2703
  422 268.217 -2.22791 -11.1501
  423 551.608 77.4372 71.4580
  424 140.940 9.79753 66.6570
  425 175.627 -8.35623 -15.8978
  426 175.356 -8.33856 16.0644
  427 193.400 -16.5749 23.6049
  428 161.230 47.5846 -110.182
  429 318.301 69.7495 -4.41785
  430 194.367 -16.3479 -23.9174
  431 289.554 -1.07409 -1.95338
  432 297.640 54.1471 16.1225
  433 309.655 61.9735 -12.8529
  434 208.246 -15.2290 -14.5352
  435 397.715 91.9859 -16.7685
  436 214.233 -22.5654 43.9743
  437 339.945 5.40452 -15.2186
  438 227.506 -15.4744 -60.8155
  439 252.398 3.47512 -23.7643
  440 236.302 -23.7718 -12.1311
  441 472.993 44.4100 -8.51462
  442 466.036 55.6359 28.1870
  443 265.956 -18.7529 12.3506
  444 -0.486683 4.29531 -3.74931
  445 0.180741 4.59016 3.72918
  446 347.719 70.0106 7.76775
  447 255.100 -1.07803 13.6030
  448 232.186 -20.0678 8.32239
  449 183.658 -6.84641 63.7647
  450 1.00698 -5.90191 -4.91262
  451 202.969 -18.5049 -46.6619
  452 259.276 -20.4637 -6.40728
  453 256.942 -4.58986 2.02379
  454 256.905 -4.36037 -1.60880
  455 108.104 10.5267 -55.4072
  456 268.035 -1.83551 10.5173
  457 36.5392 17.3942 -22.5533
  458 12.2537 12.3782 12.4095
  459 100.018 -0.779760 -14.2370
  460 99.7039 -0.626562 14.2708
  461 589.266 135.463 -109.217
  462 252.875 -0.730296 -14.0728
  463 261.656 -7.20744 -5.12310
  464 253.890 -11.0024 4.57422
  465 243.771 9.78837 17.6362
  466 273.096 -0.881553 29.1123
  467 242.333 -4.26116 0.227366
  468 243.323 -4.18209 -0.371304
  469 92.8329 6.93490 44.2231
  470 202.560 -6.84313 6.23167
  471 322.323 16.5663 16.2286
  472 303.759 -17.8264 21.9408
  473 350.889 75.5887 -0.653755
  474 290.187 -0.744628 1.93714
  475 246.185 -12.5656 -1.82423
  476 212.262 -3.67339 -0.998573
  477 212.132 -3.54975 0.918643
  478 76.1355 35.1943 56.8240
  479 247.222 -9.11939 -1.83433
  480 33.2721 18.4229 20.3034
  481 75.6994 36.3080 -56.0607
  482 268.272 38.2558 -4.25529
  483 219.487 -12.5769 -6.86965
  484 199.487 -4.19963 -3.35296
  485 199.642 -4.07385 3.41445
  486 284.293 -24.4014 -1.51534
  487 283.352 -1.78942 4.76641
  488 367.479 25.6468 31.9474
  489 277.023 33.4249 21.8705
  490 222.780 -17.2708 -9.56976
  491 272.958 43.3013 6.10543
  492 3.56193 -9.15829 -0.764353
  493 79.6846 84.2520 92.9773
  494 280.194 23.1375 27.3462
  495 203.963 -6.85629 -5.70388
  496 240.720 0.433056 -11.8500
  497 194.136 15.5220 86.8311
  498 250.298 -19.0058 -1.99398
  499 290.948 -23.9957 15.6487
  500 272.156 -5.04837 -7.31556
  501 430.376 66.0123 -10.0694
  502 71.0942 -0.0986873 -16.7566
  503 71.2188 0.0351592 17.0282
  504 274.272 -2.57600 -2.99008
  505 273.211 -2.80489 3.09498
  506 155.411 -10.5132 42.3144
  507 192.899 -8.40356 -10.8115
  508 184.338 -5.07926 -63.8467
  509 160.430 -12.5981 -40.6658
  510 147.771 -1.21796 -6.13908
  511 147.715 -1.25793 6.08915
  512 265.867 -24.8656 4.01964
  513 196.385 -9.79789 11.8346
  514 281.632 3.26656 -29.5596
  515 206.331 -10.1495 8.66351
  516 219.437 -23.0210 26.4312
  517 341.510 26.2348 4.29177
  518 130.073 -0.507409 -8.87554
  519 130.115 -0.543393 9.00287
  520 340.233 72.0444 -8.33732
  521 298.601 -2.60906 -21.4969
  522 298.795 -4.87159 19.1469
  523 269.437 -14.7115 -18.9683
  524 209.798 -18.0802 18.1507
  525 536.384 30.7553 -35.4911
  526 295.875 -20.0915 -0.272915
  527 222.438 2.26438 -9.38307
  528 225.788 -9.39029 2.72512
  529 271.591 31.6167 -20.2750
  530 453.842 130.153 85.9326
  531 264.595 -6.05600 5.16001
  532 244.066 -5.31153 0.401800
  533 246.561 -4.74541 -0.680686
  534 276.967 -21.7461 -11.3342
  535 218.361 -12.9809 7.27864
  536 165.709 0.0245079 -1.48752
  537 165.725 0.0294319 1.46527
  538 220.478 -23.8211 -25.6250
  539 283.704 49.0016 -10.0087
  540 267.119 -7.94730 -9.53601
  541 225.894 1.91150 10.9940
  542 267.165 -10.3345 -16.3097
  543 167.230 -0.00153238 -0.311265
  544 167.229 0.00466522 0.303324
  545 310.742 -12.9672 -25.1662
  546 212.487 -19.2402 -18.4153
  547 308.444 -4.82071 -12.9167
  548 285.030 -18.0833 43.6130
  549 274.621 -4.30150 6.56145
  550 291.608 -0.900395 1.02880
  551 291.567 -0.801428 -0.910339
  552 259.766 -28.3019 -12.3269
  553 267.738 -27.3332 27.1959
  554 152.606 -0.842114 -4.00636
  555 152.520 -0.835374 3.97127
  556 243.302 -24.0219 42.0582
  557 273.620 22.0871 -26.3288
  558 210.485 -22.0569 -37.8560
  559 270.206 15.3773 28.4328
  560 259.683 -28.7530 21.4492
  561 209.314 2.37260 3.97971
  562 229.591 -5.87415 0.931161
  563 283.297 -6.94297 -25.6477
  564 354.261 76.0155 0.706573
  565 289.461 -10.8209 -20.7242
  566 219.083 -16.1988 10.6097
  567 177.239 -2.13644 4.37290
  568 177.271 -2.16734 -4.43879
  569 256.423 -6.99160 2.73709
  570 205.982 -9.75223 -8.44278
  571 265.220 -4.55671 17.6657
  572 284.808 -19.8864 -12.0574
  573 240.498 -7.18254 0.238037
  574 438.873 131.136 -59.5174
  575 240.296 5.61069 -16.7972
  576 365.202 79.1109 -2.62355
  577 211.760 1.96561 -6.20457
  578 261.853 -9.16500 6.67502
  579 76.5843 49.1100 72.3206
  580 255.831 24.1462 12.2785
  581 141.579 11.0946 -67.6655
  582 284.618 -23.9333 -1.98563
  583 261.180 -2.98297 -21.1885
  584 293.294 36.2083 -25.7726
  585 -2.21566 -2.58966 -4.68481
  586 -2.82655 -2.33171 4.77410
  587 179.220 -1.44657 -2.52354
  588 179.220 -1.42625 2.49983
  589 275.455 -17.9153 -17.5719
  590 277.548 -11.7844 -23.7407
  591 26.4434 24.7796 22.0116
  592 259.591 22.4603 18.7237
  593 235.940 -11.1052 -0.799910
  594 233.263 -4.09627 -0.0890243
  595 232.654 -4.05268 -0.117439
  596 238.338 10.8650 11.6530
  597 532.720 12.2456 7.80808
  598 193.725 -11.3544 -14.7311
  599 207.068 2.92379 0.900113
  600 272.977 4.57993 -29.9242
  601 213.788 -24.3762 38.5359
  602 5.76259 2.87985 8.88195
  603 4.95174 2.39994 -8.34152
  604 287.861 12.9719 -29.6475
  605 253.648 26.4460 -3.32226
  606 270.209 -18.8173 -15.7359
  607 158.099 -3.45240 -11.9919
  608 157.807 -3.70873 11.9905
  609 278.537 -1.52979 1.67531
  610 278.429 -1.53428 -1.75009
  611 270.274 -2.60981 -28.6057
  612 264.053 -12.3567 11.7819
  613 190.302 -10.8595 15.4952
  614 15.6404 12.2573 -8.74203
  615 273.597 153.827 -160.211
  616 272.109 -4.82377 11.4438
  617 270.981 -4.52980 -12.1928
  618 214.824 10.6189 -86.6935
  619 255.342 -7.40310 -3.35694
  620 228.907 -21.6469 13.4834
  621 296.811 60.8551 -0.316246
  622 101.048 -4.04271 -31.4900
  623 101.969 -4.02149 31.7416
  624 324.871 54.5549 17.4712
  625 262.576 -16.9529 -11.0524
  626 233.525 12.7798 -0.00151106
  627 255.124 -24.4459 -1.74516
  628 143.106 -3.91924 14.9076
  629 143.005 -3.89176 -14.7174
  630 185.093 -4.81771 -8.18907
  631 176.396 -0.592150 -1.16112
  632 176.398 -0.576514 1.15268
  633 260.941 -9.63372 -6.70479
  634 293.216 -0.380702 -0.498670
  635 293.119 -0.450857 0.632650
  636 342.476 64.8128 -12.2862
  637 162.737 49.7299 103.293
  638 313.498 -4.00204 10.2003
  639 138.482 22.4627 74.9239
  640 60.7459 17.4947 36.0435
  641 319.911 14.2458 -18.6230
  642 268.994 -25.3013 -3.47343
  643 190.466 -2.66228 -2.77336
  644 190.526 -2.62436 2.78118
  645 260.310 -2.68105 -0.420286
  646 260.524 -2.75232 0.471393
  647 203.658 -20.8150 -27.8924
  648 93.7281 4.99320 -44.7347
  649 155.768 -0.857172 2.51628
  650 155.722 -0.902601 -2.47558
  651 613.246 163.658 124.803
  652 304.677 34.7082 -26.2389
  653 272.486 -8.67826 -25.9987
  654 269.270 -9.78495 -23.5973
  655 284.396 23.4713 -28.8319
  656 170.560 -4.53698 -12.1475
  657 169.897 -4.82597 11.8656
  658 253.056 -22.0869 0.910182
  659 1.77308 -7.22917 5.30436
  660 283.510 -0.430171 28.4653
  661 17.1832 11.5489 9.10743
  662 252.270 7.05700 22.9321
  663 41.5040 39.4922 -37.9772
  664 235.903 9.76564 -11.9340
  665 280.691 -1.89876 3.55871
  666 233.751 -20.9298 -8.93908
  667 265.075 -4.84319 -18.5011
  668 80.4889 -0.510255 12.3127
  669 80.7903 -0.430704 -12.3650
  670 321.539 63.7522 -14.0811
  671 145.766 -7.26928 -51.7105
  672 260.354 -14.2226 -9.06761
  673 227.260 -9.63588 -3.04560
  674 280.255 -2.33685 -3.43874
  675 299.415 42.8145 22.9676
  676 49.5526 10.1744 -27.2332
  677 48.2628 6.82883 26.9711
  678 271.063 -6.59428 27.0332
  679 239.036 -18.1069 3.17645
  680 266.757 -14.1106 -16.1012
  681 394.608 98.2142 -21.4074
  682 314.663 68.3373 2.76135
  683 230.168 -8.14435 1.45111
  684 299.611 11.4090 27.0937
  685 270.899 -28.2887 7.90617
  686 182.652 -4.60202 8.21921
  687 242.969 -26.2123 12.9881
  688 283.555 -1.15224 0.0417924
  689 283.523 -1.26316 -0.0132225
  690 396.981 87.8880 19.8350
  691 152.487 -6.23319 20.2111
  692 21.4360 22.1149 -15.5646
  693 -6.50956 0.125458 5.51960
  694 -5.74989 0.261817 -5.69947
  695 133.090 -5.25073 22.1561
  696 65.5671 25.4219 -41.7912
  697 5.10947 -2.35069 -6.50907
  698 259.511 -20.7939 6.33395
  699 179.271 -10.6357 -56.4276
  700 202.409 -20.7038 27.4766
  701 251.751 -15.7962 -3.84832
  702 3.43369 -8.75625 -2.29478
  703 300.086 14.3936 -27.1630
  704 269.620 -26.3951 0.161141
  705 265.705 -21.7420 -9.83046
  706 258.861 7.73158 -25.9989
  707 152.180 -6.26021 -20.2379
  708 26.1331 41.4748 -40.4874
  709 257.777 14.1768 -24.1459
  710 -0.458129 -6.99085 -5.47576
  711 242.387 0.137928 11.2594
  712 132.614 -5.03577 -21.9093
  713 171.585 -9.51852 56.0632
  714 239.618 -8.08075 -0.0861394
  715 196.930 -4.51134 -4.43698
  716 142.759 -5.61611 50.8943
  717 82.8990 0.872456 -34.8596
  718 81.6382 0.655665 34.1334
  719 196.267 -4.29359 4.59166
  720 46.8732 0.970590 -14.1706
  721 47.1391 1.05734 14.0865
  722 213.616 -8.06171 4.80805
  723 259.011 -0.372004 -9.59790
  724 306.350 31.3244 109.262
  725 208.357 -4.03018 -2.37035
  726 208.233 -4.13572 2.28859
  727 267.040 -7.75258 -19.5257
  728 201.738 -2.73370 -1.30884
  729 201.684 -2.63991 1.26900
  730 260.954 -2.84045 18.9499
  731 267.037 -28.0727 3.92796
  732 213.042 -5.65176 2.93185
  733 19.0769 -0.541611 -9.40439
  734 19.2319 -0.805672 9.26547
  735 212.650 -5.06225 -2.76436
  736 4.68006 5.25583 -2.22748
  737 287.563 -21.3718 -29.6206
  738 325.151 -4.67046 8.81823
  739 98.2654 14.6193 52.0176
  740 161.880 -0.0315971 1.65582
  741 161.839 -0.0149865 -1.67923
  742 251.099 -25.6037 5.26196
  743 489.080 69.5282 -55.9856
  744 228.218 0.484183 -9.12041
  745 226.397 -5.41293 -1.11170
  746 204.598 71.9187 126.399
  747 287.662 11.2912 29.5637
  748 259.797 -0.509029 9.28807
  749 294.193 -0.572423 -1.15199
  750 294.502 -0.735568 1.15271
  751 408.155 78.9406 -16.9343
  752 287.880 52.2979 7.59578
  753 223.363 -6.67154 -1.98510
  754 287.051 -1.17868 3.52878
  755 179.105 -10.5849 -20.1346
  756 262.526 -2.97447 1.45544
  757 262.409 -2.95688 -1.28822
  758 192.489 -15.7906 50.3862
  759 270.859 -28.7967 -11.1021
  760 268.137 -10.8969 20.9543
  761 178.798 -10.4132 19.9701
  762 279.871 40.4407 -18.1978
  763 229.835 1.74074 9.58033
  764 183.946 -17.1390 -37.8579
  765 224.725 -6.49482 1.80033
  766 265.665 -4.98838 25.6495
  767 164.028 0.235051 -0.538487
  768 164.034 0.238980 0.525508
  769 4.78087 6.91085 1.51055
  770 185.940 -6.42657 10.3450
  771 239.485 -6.03834 -0.0866888
  772 265.398 -11.3637 -12.1563
  773 118.430 -0.586417 9.11575
  774 118.490 -0.605278 -8.97042
  775 287.948 -8.72436 22.8823
  776 265.189 -5.94520 -24.5265
  777 99.1708 -3.98827 -36.3415
  778 99.5267 -3.50853 36.0798
  779 279.587 -23.0039 6.92899
  780 266.122 -8.56725 9.64892
  781 410.408 74.7639 35.3054
</Section>

newXOutput 16

<Section columns = "stress_xx | stress_yy | stress_xy">
  1 319.556 0.282411 0.416976
  2 319.690 0.238138 -0.397949
  3 175.467 -0.0822784 -0.314243
  4 -2.17604 -2.47783 -2.89729
  5 584.652 232.331 190.666
  6 551.989 209.706 -159.370
  7 -2.88452 -2.47955 3.31266
  8 175.475 -0.0857154 0.309817
  9 320.642 -0.288019 -0.0337520
  10 320.709 -1.10902 0.848758
  11 319.464 -0.880699 0.587468
  12 313.701 -0.972464 2.05313
  13 310.811 -1.09921 2.38082
  14 304.440 -1.51714 3.92275
  15 293.765 -1.06717 5.98277
  16 281.341 -0.480529 6.93057
  17 267.026 0.366221 8.06917
  18 246.286 1.06012 6.63181
  19 233.213 2.42976 7.79594
  20 223.249 1.82443 5.86516
  21 210.710 2.41132 1.65260
  22 214.060 3.55309 -2.21418
  23 218.593 1.77332 -4.10201
  24 232.488 1.67765 -6.81496
  25 245.401 0.712438 -7.46123
  26 266.875 0.409730 -8.40154
  27 281.001 -0.800106 -7.45495
  28 294.886 -1.20033 -6.06067
  29 304.340 -1.00437 -4.33729
  30 309.237 -1.01449 -3.62397
  31 314.392 -1.46094 -1.46167
  32 319.485 -0.753538 -0.273308
  33 320.792 -0.939736 -0.746810
  34 320.804 -0.381362 0.0896183
  35 309.319 -0.565816 -0.607967
  36 296.085 -1.54876 -0.685181
  37 283.861 -2.98086 -0.944432
  38 269.541 -3.80896 -1.08118
  39 255.115 -4.32258 -0.826025
  40 238.770 -4.04263 -0.334038
  41 222.928 -3.33499 -0.194003
  42 208.630 -2.57802 0.146306
  43 195.918 -1.22930 0.394190
  44 183.816 -0.424109 -0.0355690
  45 171.865 0.509892 0.00138583
  46 171.184 0.431900 0.783583
  47 169.840 0.0927068 0.507572
  48 166.946 -0.325604 1.46448
  49 160.748 -0.000182952 2.04886
  50 155.302 -0.459195 3.05153
  51 148.551 -0.357422 4.40195
  52 136.865 -0.00732284 4.71941
  53 123.388 0.109522 5.47343
  54 110.445 -0.201906 8.57252
  55 85.6220 0.584204 7.96285
  56 68.5511 0.660659 9.32859
  57 45.0666 0.915128 8.35963
  58 23.7154 0.367204 9.15209
  59 2.32555 2.61201 9.19285
  60 -12.0252 3.08677 4.64212
  61 -16.8674 2.96352 -0.346737
  62 -13.9257 2.22397 -5.14717
  63 -8.12745 -0.751932 -4.43524
  64 -0.884896 -8.20196 -4.16093
  65 0.460203 -15.7755 -5.61292
  66 2.02268 -25.3554 -3.32012
  67 6.79871 -25.7153 0.267139
  68 11.7921 -2.31136 13.9448
  69 35.2534 51.2390 49.9991
  70 154.934 167.727 156.637
  71 756.355 81.6089 119.899
  72 611.699 25.7872 40.0168
  73 583.484 14.3964 16.0795
  74 575.016 9.22151 -0.946184
  75 581.366 12.0923 -14.2011
  76 620.833 22.9092 -38.7227
  77 719.414 67.1078 -103.169
  78 124.545 191.709 -149.937
  79 28.8357 28.8758 -38.1037
  80 10.8834 -2.39844 -14.4890
  81 3.34637 -25.5198 -1.86078
  82 2.01319 -19.7265 2.52380
  83 2.29408 -19.8691 4.67523
  84 0.189099 -7.46583 5.26575
  85 -8.71511 -0.632634 4.38312
  86 -14.6073 2.14793 5.02031
  87 -17.2307 2.93498 0.236431
  88 -12.3076 2.89587 -4.57121
  89 1.83439 2.90128 -9.04118
  90 23.3539 0.454773 -9.28468
  91 44.9121 0.858452 -8.50288
  92 68.7874 0.650935 -9.39577
  93 85.9588 0.567130 -8.02725
  94 110.795 -0.278988 -8.48759
  95 123.546 0.108148 -5.36544
  96 136.839 0.0484530 -4.66222
  97 148.568 -0.343934 -4.42925
  98 155.271 -0.464164 -3.04532
  99 160.731 -0.00312242 -2.05319
  100 166.885 -0.316347 -1.45626
  101 169.790 0.0954913 -0.522909
  102 171.166 0.429240 -0.797890
  103 171.866 0.506177 -0.00958826
  104 183.816 -0.436275 0.0299648
  105 195.914 -1.25277 -0.401680
  106 208.621 -2.61291 -0.139371
  107 223.096 -3.42172 0.235801
  108 238.922 -4.07540 0.287286
  109 254.614 -4.33310 0.788416
  110 269.335 -3.63503 0.986328
  111 283.918 -3.10422 0.947602
  112 296.073 -1.65598 0.680840
  113 309.224 -0.674401 0.654316
  114 273.254 -28.8343 -7.54518
  115 276.334 -28.7423 5.21596
  116 291.325 41.5374 -14.7926
  117 232.991 -19.3699 -56.4038
  118 225.991 -17.9422 57.5890
  119 314.711 29.8187 29.1672
  120 330.471 8.89515 -23.7018
  121 233.069 -10.3205 -5.95524
  122 231.841 -10.9136 6.15519
  123 360.542 79.9527 1.15130
  124 277.800 -12.7141 8.32296
  125 280.029 -12.0118 -9.44836
  126 286.592 -6.30614 -28.1678
  127 194.498 -16.2680 31.0724
  128 194.234 -16.3897 -32.5965
  129 288.090 -10.0344 25.4494
  130 391.130 87.9178 2.15453
  131 102.776 24.4294 -61.0803
  132 99.4008 24.8277 60.1096
  133 347.693 0.340311 -1.46271
  134 405.183 92.1001 -10.6922
  135 267.034 18.2118 16.1702
  136 265.411 -7.32886 1.44798
  137 266.874 -6.80374 -1.62133
  138 346.283 -4.68211 36.8816
  139 194.143 -8.26902 -14.1287
  140 194.178 -8.23528 13.5302
  141 265.011 17.1389 -98.3972
  142 463.665 64.4895 8.77256
  143 269.691 9.47472 -24.2892
  144 201.185 -2.88374 -3.90157
  145 201.147 -2.87194 3.92668
  146 234.337 -19.5024 13.9712
  147 238.998 -20.4155 -13.7867
  148 139.266 -8.58105 -45.0090
  149 138.698 -6.82154 45.6376
  150 300.374 46.1119 16.2306
  151 299.475 -28.6732 12.5857
  152 301.284 -16.6792 -20.3191
  153 310.321 -18.2719 13.5880
  154 284.693 -19.4248 -14.2302
  155 296.948 14.1357 -31.7244
  156 268.091 21.8583 107.623
  157 19.0794 16.3180 9.63254
  158 16.5883 13.6725 -7.33101
  159 260.065 16.3475 -6.48309
  160 282.902 6.31873 29.4880
  161 292.570 -3.85668 5.16898
  162 290.084 -4.50624 -5.23310
  163 269.722 -20.1881 2.96602
  164 286.545 -6.67046 -16.7940
  165 327.542 54.4334 -21.7959
  166 260.566 -17.0449 -0.153621
  167 248.683 -28.2508 29.4476
  168 232.961 -5.58012 -1.70628
  169 233.251 -5.54191 1.77365
  170 287.889 -6.16827 15.6499
  171 250.465 -28.0846 -28.2405
  172 296.412 -27.6472 -20.1057
  173 333.869 59.5395 19.4891
  174 261.496 -14.0010 1.34472
  175 396.272 45.7910 -27.6719
  176 68.6789 4.82608 -34.7931
  177 66.7470 4.47205 33.8942
  178 488.606 93.2235 48.8375
  179 412.279 74.8978 12.4607
  180 505.089 58.4619 -31.7985
  181 286.851 -3.62697 1.93883
  182 286.507 -3.54641 -1.95953
  183 171.977 -5.56776 -17.6668
  184 171.994 -5.63913 17.7251
  185 138.327 -5.16563 -27.8215
  186 139.347 -5.19635 28.2831
  187 84.1247 60.1277 -76.5691
  188 274.590 -1.50586 22.7698
  189 290.582 -21.2764 14.6777
  190 187.225 -2.47525 -6.24443
  191 186.870 -2.61639 6.31333
  192 41.6723 41.7485 43.8174
  193 268.923 0.439353 -21.9178
  194 285.291 -14.8430 17.0516
  195 257.535 4.07677 19.2111
  196 295.174 -17.9079 -52.0963
  197 293.576 -4.58736 -9.51496
  198 265.994 -23.5472 2.08302
  199 318.909 64.2595 -10.0057
  200 297.959 -9.01097 27.6180
  201 199.730 -18.4598 -45.8071
  202 147.392 -0.314468 -60.2783
  203 143.992 0.617349 60.2937
  204 287.233 24.2961 24.5622
  205 210.099 0.599798 79.4299
  206 277.858 31.2940 4.71652
  207 357.274 40.8378 -16.7016
  208 294.424 -4.49006 8.51065
  209 199.789 -18.1770 46.1308
  210 253.454 -11.0893 0.692078
  211 482.461 120.750 -60.1609
  212 356.962 46.6084 18.1242
  213 206.326 -14.9480 -19.9770
  214 205.215 -13.9924 19.7330
  215 30.2575 10.5988 -18.4886
  216 34.7749 10.8103 21.2143
  217 234.752 -23.9777 22.4288
  218 248.211 -9.08347 -1.64161
  219 250.327 -5.12653 -0.138882
  220 253.069 -5.10844 0.0451727
  221 235.385 -23.2242 -22.5473
  222 247.004 -16.8244 -5.27520
  223 294.080 -25.5124 38.0399
  224 355.626 78.0206 -6.13026
  225 414.001 82.3709 -6.68897
  226 330.256 9.53327 22.4512
  227 274.568 -9.13830 5.16669
  228 203.581 2.40020 -80.8291
  229 223.597 -14.0777 11.5158
  230 271.881 -10.5071 -4.36409
  231 330.635 -14.6679 3.62722
  232 281.061 22.3514 -23.6322
  233 314.568 -16.3120 -13.3630
  234 242.123 9.37195 4.62172
  235 208.714 -7.15504 -8.75817
  236 310.236 0.841076 -28.6739
  237 171.928 -2.63900 -9.01914
  238 171.754 -2.58661 8.74610
  239 185.321 -0.350900 -1.14241
  240 185.326 -0.337010 1.12507
  241 283.379 3.13291 -30.1948
  242 207.023 -7.10120 9.25295
  243 221.854 -13.7345 -12.2639
  244 101.841 74.2226 99.9967
  245 16.5220 20.1109 -13.6473
  246 534.521 40.3729 11.8535
  247 241.790 4.17292 -10.2746
  248 275.195 -18.6186 -7.00803
  249 285.122 61.6559 -136.653
  250 288.876 -23.5164 -11.1658
  251 144.353 -4.70459 -18.4095
  252 144.559 -4.84906 18.5609
  253 286.434 -11.7706 -21.3355
  254 295.840 -4.08396 -29.9962
  255 213.447 -3.30012 -1.69213
  256 213.445 -3.31997 1.63611
  257 304.173 -1.76695 -2.05126
  258 304.452 -1.43054 2.02545
  259 279.576 -2.44292 -16.6030
  260 400.973 42.8645 82.3148
  261 261.025 -25.1664 -6.20125
  262 219.758 -6.27520 -4.58092
  263 218.691 -6.39125 4.80747
  264 -0.325739 -0.619975 -6.10488
  265 -1.37584 0.383822 6.40167
  266 77.5486 -2.03394 -28.1877
  267 77.0850 -1.71829 27.9870
  268 181.430 -1.27867 2.70676
  269 181.408 -1.29280 -2.74531
  270 279.528 -3.12205 15.7482
  271 323.642 67.4454 7.14004
  272 295.305 -27.3912 -2.89424
  273 301.388 35.7974 -26.4321
  274 291.784 -15.2076 -22.8682
  275 319.029 -18.5085 3.69521
  276 110.172 -2.47240 26.4114
  277 109.346 -2.63041 -26.0227
  278 294.035 -27.8007 -3.46740
  279 255.480 -28.8206 36.8149
  280 270.735 -4.17303 0.594423
  281 271.029 -3.98865 -0.561813
  282 303.660 -1.25475 -1.00532
  283 303.706 -1.45643 1.05982
  284 138.569 38.1725 89.9765
  285 314.329 25.2882 -30.4430
  286 281.342 -23.8464 6.62491
  287 357.832 74.2232 9.91649
  288 256.322 2.55941 -17.7493
  289 249.140 -7.46107 0.786984
  290 345.099 55.1688 -20.7207
  291 282.427 -5.11315 73.8968
  292 300.264 53.4064 0.137194
  293 255.305 -27.3746 -38.4628
  294 271.971 -30.8984 16.0656
  295 258.732 -25.5715 8.84343
  296 402.283 82.4355 6.09249
  297 244.554 -16.7285 6.96705
  298 301.684 -2.14817 -4.76074
  299 283.146 -14.3734 -14.2652
  300 482.315 133.602 57.8794
  301 311.822 0.335065 27.7048
  302 295.515 -2.11955 -7.83854
  303 307.998 41.7745 23.9871
  304 335.017 -1.27203 -57.5769
  305 296.107 8.70039 31.7647
  306 9.50618 10.6202 4.92361
  307 175.689 -13.1668 37.4911
  308 282.000 -4.94330 3.04473
  309 280.979 -5.53627 -3.33394
  310 277.693 29.0170 -13.8159
  311 168.797 -11.3641 -36.2479
  312 180.990 -14.3067 -51.6327
  313 288.102 -6.56203 7.45612
  314 271.606 -15.6516 5.59271
  315 282.547 -1.41303 28.9855
  316 421.277 79.9073 -94.7062
  317 285.768 -9.96636 20.0620
  318 285.226 -7.45191 -7.60636
  319 301.464 -1.83158 4.76269
  320 174.721 -1.90706 6.06314
  321 174.879 -2.10865 -6.15524
  322 48.5356 30.2116 -38.1160
  323 238.589 7.23704 -3.82099
  324 287.351 -8.64199 13.5243
  325 391.510 70.1978 0.955559
  326 286.115 35.8560 16.4229
  327 153.966 29.5697 -90.2235
  328 176.837 -10.7939 52.0052
  329 266.776 15.8120 -18.0147
  330 294.629 -2.50007 8.54565
  331 284.249 -7.58427 -23.4627
  332 6.99867 3.87947 -0.325512
  333 52.9526 26.0831 35.2415
  334 213.029 -22.5272 36.8732
  335 -2.06148 5.13107 1.72689
  336 -1.45947 5.59987 -1.55664
  337 311.024 121.121 148.890
  338 283.093 -6.63391 23.5597
  339 593.503 63.3709 -75.3851
  340 276.711 16.2450 24.9842
  341 331.929 34.2804 24.7271
  342 237.341 -7.74908 2.98965
  343 243.195 4.26328 11.0346
  344 217.648 -24.0575 -34.8651
  345 273.632 -13.2215 -6.17775
  346 248.536 -13.7887 3.06194
  347 287.182 -8.10695 -13.9126
  348 277.491 -30.4927 -22.0479
  349 325.143 -17.7941 -11.3756
  350 261.881 19.7798 4.98269
  351 293.444 -25.0544 9.76526
  352 372.697 26.7686 2.55753
  353 162.715 -8.18406 27.1540
  354 263.228 -10.0920 1.90688
  355 255.331 -28.1340 -19.0067
  356 424.451 102.745 20.4594
  357 312.118 52.2458 -19.5249
  358 200.538 -4.31407 6.58992
  359 200.932 -4.66774 -6.71642
  360 161.534 -7.90775 -27.5853
  361 103.028 89.7205 -104.049
  362 240.554 -4.57562 -0.977169
  363 241.306 -4.83108 0.779330
  364 152.448 -1.62727 -9.54147
  365 152.417 -1.66219 9.64542
  366 553.133 21.1849 -11.0964
  367 560.258 38.2323 35.5638
  368 257.366 -20.7799 -4.12339
  369 347.577 10.7607 76.9347
  370 124.147 -0.450490 48.1364
  371 124.260 -1.27653 -48.3812
  372 257.955 -16.3274 59.9339
  373 259.209 2.03522 18.2695
  374 272.104 3.03517 25.7438
  375 250.237 -28.9036 22.6251
  376 72.7803 15.3413 -41.4701
  377 71.8848 12.4358 39.8940
  378 33.3300 2.52807 -17.2343
  379 33.5235 2.14334 17.4080
  380 274.466 -24.5875 -44.5178
  381 200.620 -1.77014 -1.67652
  382 200.622 -1.74561 1.66870
  383 406.505 78.1190 -0.575752
  384 247.522 -13.3967 -3.21329
  385 262.830 -6.73010 -75.6694
  386 278.688 -25.6268 -2.76773
  387 384.772 69.8670 -4.08685
  388 336.739 29.1820 -25.0367
  389 288.090 -16.1269 20.1852
  390 187.211 -4.73804 -10.3649
  391 186.597 -4.27180 9.84891
  392 248.960 -6.40547 -0.723929
  393 232.804 -7.92371 -4.05061
  394 180.835 -10.8609 24.7592
  395 180.609 -10.8261 -25.2135
  396 22.4825 33.6416 -27.6376
  397 285.266 13.3007 -29.2189
  398 219.324 -15.3275 15.5785
  399 356.415 24.5119 -82.4351
  400 279.209 -18.4114 9.84461
  401 37.4482 45.6714 46.9265
  402 280.205 -2.50266 -27.4671
  403 176.930 -1.14672 3.56327
  404 176.867 -1.09429 -3.57954
  405 291.015 -2.33799 0.822751
  406 290.910 -2.19305 -0.739264
  407 299.686 -18.4868 18.4244
  408 139.174 -7.91008 -36.9538
  409 302.310 -1.53629 -5.10292
  410 141.341 -8.18210 37.2244
  411 348.109 7.21279 -7.73665
  412 293.059 -14.0519 24.0478
  413 258.729 -17.0814 -0.576973
  414 461.435 100.130 -39.3029
  415 285.758 -10.7711 16.5794
  416 460.257 84.6478 27.3220
  417 343.212 72.9568 8.61800
  418 129.573 -2.81916 -16.7609
  419 129.679 -2.70284 17.0495
  420 51.4137 -0.415480 -20.0086
  421 50.7322 -0.395071 19.5961
  422 286.773 -2.38992 -11.8313
  423 588.415 82.6310 76.1899
  424 150.815 10.4509 71.3953
  425 188.062 -8.92173 -17.0401
  426 187.775 -8.90303 17.2171
  427 206.962 -17.7123 25.3069
  428 172.341 50.9523 -117.923
  429 340.324 74.5147 -4.67129
  430 207.989 -17.4700 -25.6425
  431 309.335 -1.15786 -2.05678
  432 318.263 57.8672 17.0982
  433 331.083 66.2221 -13.6032
  434 222.808 -16.2694 -15.6206
  435 424.781 98.3780 -18.2730
  436 229.080 -24.1378 47.1285
  437 363.059 5.84147 -16.5548
  438 243.176 -16.5507 -65.1480
  439 270.007 3.72389 -25.2718
  440 252.682 -25.4084 -13.0996
  441 504.886 47.3989 -9.08934
  442 497.518 59.3839 30.1023
  443 284.312 -20.0539 13.0153
  444 -0.402321 4.59620 -4.06411
  445 0.311192 4.91204 4.04287
  446 371.601 74.8289 8.04844
  447 272.866 -1.15255 14.4554
  448 248.311 -21.4458 9.01518
  449 196.423 -7.34448 68.2892
  450 1.09277 -6.26187 -5.21454
  451 217.071 -19.8007 -49.9954
  452 277.183 -21.8789 -6.67920
  453 274.672 -4.92347 2.10878
  454 274.632 -4.67883 -1.67081
  455 115.771 11.2319 -59.3748
  456 286.583 -1.96925 11.1613
  457 39.2267 18.6234 -24.2532
  458 13.1526 13.4136 13.3998
  459 107.331 -0.832183 -15.2431
  460 106.995 -0.668230 15.2796
  461 628.346 144.666 -116.483
  462 270.506 -0.780373 -14.9575
  463 279.701 -7.71964 -5.37932
  464 271.441 -11.7689 4.77128
  465 260.850 10.4844 18.7665
  466 291.999 -0.947443 30.9164
  467 259.131 -4.56705 0.221314
  468 260.184 -4.48317 -0.375113
  469 99.4806 7.39693 47.4035
  470 216.797 -7.30476 6.71082
  471 344.407 17.7278 17.0570
  472 324.494 -19.0303 23.6810
  473 375.054 80.7331 -0.647222
  474 310.005 -0.807336 2.04038
  475 263.236 -13.4344 -1.83814
  476 227.140 -3.92332 -1.08385
  477 227.002 -3.79155 0.998401
  478 81.5543 37.6751 60.9360
  479 264.338 -9.75507 -1.87080
  480 35.7302 19.7223 21.8418
  481 81.0985 38.8577 -60.1214
  482 286.967 40.9105 -4.52303
  483 234.801 -13.4351 -7.42839
  484 213.542 -4.48029 -3.61400
  485 213.707 -4.34623 3.67966
  486 303.814 -26.0894 -1.83988
  487 302.804 -1.91744 5.04507
  488 392.342 27.5799 34.4739
  489 296.263 35.7371 23.2397
  490 238.298 -18.4525 -10.3295
  491 291.961 46.2969 6.48842
  492 3.83166 -9.67071 -0.897180
  493 85.1948 90.4809 99.5821
  494 299.611 24.7337 29.0472
  495 218.289 -7.31939 -6.14804
  496 257.601 0.465457 -12.6034
  497 207.523 16.6153 92.9575
  498 267.615 -20.3164 -1.98665
  499 310.866 -25.6434 16.9416
  500 290.882 -5.41303 -7.72339
  501 459.624 70.4756 -10.7849
  502 76.3677 -0.107264 -17.9500
  503 76.5000 0.0357451 18.2410
  504 293.099 -2.77397 -3.14182
  505 291.973 -3.01934 3.25103
  506 166.367 -11.2547 45.3210
  507 206.489 -8.97162 -11.6086
  508 197.143 -5.45611 -68.3748
  509 171.723 -13.4820 -43.5581
  510 158.421 -1.29841 -6.57324
  511 158.361 -1.34113 6.52013
  512 284.199 -26.5858 4.10618
  513 210.197 -10.4616 12.7081
  514 301.092 3.48570 -31.3765
  515 220.798 -10.8378 9.32461
  516 234.684 -24.6103 28.3650
  517 364.826 28.0985 4.26900
  518 139.490 -0.539086 -9.49991
  519 139.535 -0.577575 9.63570
  520 363.655 76.9781 -8.70587
  521 319.127 -2.79276 -22.7210
  522 319.323 -5.21179 20.2092
  523 288.042 -15.7360 -20.0809
  524 224.449 -19.3197 19.4926
  525 572.166 32.8266 -37.8289
  526 316.152 -21.4751 -0.0549343
  527 238.172 2.43233 -9.98723
  528 241.521 -10.0338 2.98935
  529 290.478 33.8082 -21.5498
  530 484.168 139.353 92.1956
  531 282.826 -6.49034 5.42535
  532 260.976 -5.68878 0.382796
  533 263.630 -5.08600 -0.683528
  534 296.038 -23.2541 -11.9008
  535 233.601 -13.8670 7.86532
  536 177.621 0.0297068 -1.59729
  537 177.639 0.0349503 1.57360
  538 235.793 -25.4652 -27.5068
  539 303.419 52.3803 -10.6307
  540 285.535 -8.50906 -10.0694
  541 241.845 2.05289 11.7015
  542 285.617 -11.0581 -17.2709
  543 179.255 0.00226091 -0.336127
  544 179.254 0.00887232 0.327680
  545 331.925 -13.8257 -27.1388
  546 227.310 -20.5603 -19.7800
  547 329.581 -5.14693 -13.5376
  548 304.502 -19.3031 46.8095
  549 293.502 -4.61405 6.92636
  550 311.487 -0.973463 1.08160
  551 311.443 -0.868536 -0.955715
  552 277.665 -30.2590 -13.3479
  553 286.121 -29.2213 29.2448
  554 163.603 -0.896522 -4.29156
  555 163.512 -0.889447 4.25428
  556 260.057 -25.6883 45.1045
  557 292.615 23.6179 -27.9803
  558 225.106 -23.5907 -40.5776
  559 288.965 16.4418 30.2213
  560 277.557 -30.7414 23.0956
  561 224.216 2.55118 4.23730
  562 245.575 -6.28160 1.03816
  563 302.834 -7.43152 -27.1851
  564 378.640 81.1895 0.655326
  565 309.378 -11.5758 -21.9112
  566 234.361 -17.3055 11.4335
  567 189.863 -2.27438 4.69501
  568 189.897 -2.30728 -4.76527
  569 274.127 -7.48790 2.84553
  570 220.427 -10.4138 -9.08817
  571 283.590 -4.87895 18.7489
  572 304.392 -21.2657 -12.6596
  573 257.181 -7.68346 0.188546
  574 468.508 140.244 -63.9449
  575 257.151 6.01823 -17.8737
  576 390.279 84.5065 -2.97007
  577 226.817 2.11498 -6.60856
  578 279.922 -9.80914 7.01893
  579 82.0127 52.5932 77.5202
  580 273.700 25.8374 13.0621
  581 151.498 11.8379 -72.4739
  582 304.166 -25.5882 -1.90101
  583 279.314 -3.19283 -22.5093
  584 313.584 38.7025 -27.3494
  585 -2.36442 -2.76533 -5.00750
  586 -3.01559 -2.48621 5.09941
  587 191.984 -1.53819 -2.71259
  588 191.984 -1.51649 2.68735
  589 294.445 -19.1608 -18.5679
  590 296.699 -12.6077 -25.1568
  591 28.3857 26.5856 23.7000
  592 277.694 24.0289 19.9126
  593 252.328 -11.8702 -0.944598
  594 249.483 -4.38634 -0.0780047
  595 248.835 -4.33988 -0.141852
  596 255.079 11.6419 12.4028
  597 568.218 13.0719 8.31419
  598 207.349 -12.1257 -15.8075
  599 221.826 3.14065 0.959515
  600 291.885 4.89243 -31.7893
  601 228.628 -26.0708 41.3086
  602 6.33640 3.07804 9.55372
  603 5.46956 2.56453 -8.97527
  604 307.742 13.8625 -31.4646
  605 271.381 28.2980 -3.53395
  606 288.852 -20.1239 -16.6189
  607 169.402 -3.68254 -12.8456
  608 169.091 -3.95631 12.8440
  609 297.618 -1.65669 1.75818
  610 297.503 -1.66135 -1.83785
  611 288.993 -2.79498 -30.3825
  612 282.282 -13.2183 12.4398
  613 203.702 -11.5972 16.6214
  614 16.8528 13.1292 -9.44372
  615 291.706 164.956 -171.176
  616 290.867 -5.16935 12.1185
  617 289.681 -4.85450 -12.9203
  618 229.581 11.3508 -92.7913
  619 272.980 -7.92613 -3.49997
  620 244.805 -23.1344 14.5312
  621 317.407 65.0296 -0.333590
  622 108.339 -4.33273 -33.7313
  623 109.322 -4.31019 34.0011
  624 347.238 58.3136 18.4294
  625 280.709 -18.1297 -11.6434
  626 249.963 13.6926 -0.00137582
  627 272.745 -26.1325 -2.03105
  628 153.378 -4.18469 15.9601
  629 153.271 -4.15533 -15.7570
  630 198.196 -5.13891 -8.79184
  631 188.996 -0.625963 -1.24275
  632 188.998 -0.609290 1.23377
  633 278.949 -10.3103 -7.04780
  634 313.185 -0.420075 -0.525657
  635 313.084 -0.494831 0.667879
  636 365.997 69.2763 -12.8539
  637 173.983 53.2059 110.551
  638 334.959 -4.26661 10.6305
  639 148.157 24.0101 80.2451
  640 65.1329 18.7118 38.6859
  641 341.836 15.2401 -19.6141
  642 287.525 -27.0518 -3.51717
  643 203.949 -2.83640 -2.98340
  644 204.012 -2.79592 2.99181
  645 278.246 -2.88816 -0.433717
  646 278.474 -2.96397 0.488176
  647 217.869 -22.2515 -29.9090
  648 100.438 5.31749 -47.9496
  649 166.997 -0.911985 2.69810
  650 166.947 -0.960403 -2.65464
  651 653.696 174.806 133.124
  652 325.690 37.0991 -27.8080
  653 291.323 -9.28617 -27.5835
  654 287.889 -10.4693 -25.0310
  655 304.081 25.0895 -30.6192
  656 182.688 -4.83975 -13.0198
  657 181.982 -5.14824 12.7182
  658 270.549 -23.6107 0.814389
  659 1.91573 -7.70154 5.64478
  660 303.080 -0.467509 30.2013
  661 18.5054 12.3710 9.83546
  662 269.879 7.55767 24.3921
  663 44.5061 42.3247 -40.7941
  664 252.489 10.4674 -12.7037
  665 299.928 -2.04896 3.75023
  666 249.976 -22.3681 -9.67762
  667 283.435 -5.18432 -19.6375
  668 86.4508 -0.546212 13.1854
  669 86.7737 -0.461144 -13.2410
  670 343.733 68.1261 -14.8625
  671 156.030 -7.79883 -55.3859
  672 278.336 -15.2109 -9.54075
  673 243.089 -10.2968 -3.33228
  674 299.464 -2.51647 -3.62098
  675 320.114 45.7613 24.3525
  676 53.2004 10.8756 -29.2284
  677 51.8190 7.29454 28.9497
  678 289.816 -7.05767 28.6956
  679 255.616 -19.3511 3.51886
  680 285.177 -15.0936 -17.0307
  681 421.543 104.971 -23.1294
  682 336.447 73.0080 2.91977
  683 246.186 -8.70596 1.62013
  684 320.238 12.1920 28.7091
  685 289.531 -30.2441 8.64336
  686 195.597 -4.90857 8.82147
  687 259.779 -28.0196 14.0255
  688 302.935 -1.25136 0.0502181
  689 302.902 -1.36924 -0.0198949
  690 424.110 93.8751 21.3508
  691 163.362 -6.65652 21.6420
  692 23.0274 23.7198 -16.7833
  693 -6.94542 0.140956 5.89045
  694 -6.13105 0.288926 -6.08350
  695 142.640 -5.61246 23.7208
  696 70.2882 27.2002 -44.8473
  697 5.49786 -2.30608 -7.07007
  698 277.434 -22.2323 6.60010
  699 191.768 -11.3985 -60.4326
  700 216.540 -22.1323 29.4627
  701 269.166 -16.8890 -3.97683
  702 3.68710 -9.25765 -2.39279
  703 320.753 15.3842 -28.7820
  704 288.188 -28.2214 -0.0237578
  705 284.039 -23.2478 -10.3189
  706 276.887 8.27439 -27.6474
  707 163.035 -6.68570 -21.6705
  708 28.0038 44.7046 -43.4854
  709 275.746 15.1678 -25.6813
  710 -0.480331 -7.46246 -5.84402
  711 259.373 0.150020 11.9733
  712 142.133 -5.38178 -23.4567
  713 183.570 -10.2031 60.0469
  714 256.244 -8.64280 -0.0199086
  715 210.814 -4.81245 -4.77926
  716 152.820 -6.03058 54.5159
  717 88.9006 0.918112 -37.3628
  718 87.5515 0.686837 36.5882
  719 210.109 -4.58014 4.94423
  720 50.4443 1.03594 -15.1902
  721 50.7276 1.12885 15.1005
  722 228.567 -8.60977 5.19590
  723 277.021 -0.400922 -10.1957
  724 327.020 33.6714 116.899
  725 222.982 -4.30227 -2.56199
  726 222.850 -4.41498 2.47475
  727 285.507 -8.29617 -20.7090
  728 215.944 -2.91588 -1.40653
  729 215.887 -2.81582 1.36397
  730 279.072 -3.04157 20.1284
  731 285.424 -30.0134 4.38579
  732 227.963 -6.03607 3.17808
  733 20.6574 -0.581592 -10.0962
  734 20.8219 -0.864058 9.94760
  735 227.546 -5.40610 -2.99739
  736 5.05717 5.67047 -2.31091
  737 307.234 -22.8338 -31.8633
  738 347.320 -4.94906 9.70298
  739 105.253 15.6158 55.7544
  740 173.535 -0.0301771 1.77787
  741 173.491 -0.0124356 -1.80278
  742 268.454 -27.3694 5.78281
  743 521.997 74.2304 -59.7701
  744 244.319 0.522118 -9.70419
  745 242.177 -5.78779 -1.22636
  746 218.512 77.0030 135.190
  747 307.526 12.0641 31.3736
  748 277.855 -0.547248 9.86519
  749 314.241 -0.620207 -1.21203
  750 314.568 -0.793378 1.21306
  751 435.999 84.3011 -18.1955
  752 307.878 55.8999 8.06325
  753 238.946 -7.12918 -2.17196
  754 306.710 -1.26934 3.72972
  755 191.746 -11.3050 -21.5762
  756 280.604 -3.20108 1.52251
  757 280.480 -3.18267 -1.34484
  758 205.885 -16.9025 53.9724
  759 289.482 -30.7884 -12.0615
  760 286.670 -11.6579 22.2156
  761 191.420 -11.1219 21.4000
  762 299.313 43.2344 -19.3312
  763 246.039 1.86213 10.1944
  764 196.825 -18.3306 -40.5566
  765 240.396 -6.94116 1.97643
  766 284.077 -5.33829 27.2404
  767 175.847 0.252657 -0.580212
  768 175.853 0.256846 0.566401
  769 5.16618 7.43952 1.54268
  770 199.084 -6.85860 11.1005
  771 256.103 -6.46240 -0.0381599
  772 283.716 -12.1577 -12.8437
  773 127.044 -0.622821 9.75783
  774 127.109 -0.642869 -9.60268
  775 307.774 -9.33616 24.2203
  776 283.569 -6.36071 -26.0445
  777 106.303 -4.28062 -38.9377
  778 106.684 -3.76725 38.6593
  779 298.819 -24.5971 7.18805
  780 284.475 -9.17163 10.1868
  781 438.088 80.1152 38.1564
</Section>

newXOutput 17

<Section columns = "stress_xx | stress_yy | stress_xy">
  1 339.755 0.286741 0.440225
  2 339.895 0.240013 -0.420300
  3 187.283 -0.0837565 -0.331002
  4 -2.31972 -2.64097 -3.08986
  5 619.934 247.480 202.545
  6 585.630 223.463 -169.398
  7 -3.07426 -2.64251 3.53308
  8 187.290 -0.0874090 0.326319
  9 340.904 -0.315190 -0.0407012
  10 340.986 -1.18417 0.890877
  11 339.688 -0.941369 0.611217
  12 333.629 -1.04318 2.15626
  13 330.602 -1.17208 2.50500
  14 323.894 -1.61811 4.13450
  15 312.645 -1.14146 6.31968
  16 299.535 -0.515943 7.32796
  17 284.411 0.386690 8.53888
  18 262.481 1.12788 7.02417
  19 248.645 2.58565 8.26163
  20 238.089 1.95261 6.21621
  21 224.811 2.57097 1.75245
  22 228.360 3.79351 -2.34861
  23 233.162 1.89518 -4.34900
  24 247.877 1.78888 -7.22090
  25 261.544 0.758635 -7.90173
  26 284.249 0.433842 -8.89187
  27 299.176 -0.855653 -7.88294
  28 313.826 -1.28188 -6.40093
  29 323.790 -1.07557 -4.57466
  30 328.941 -1.08798 -3.81893
  31 334.354 -1.56046 -1.53065
  32 339.709 -0.807353 -0.278482
  33 341.073 -1.00579 -0.783242
  34 341.074 -0.414411 0.0993758
  35 328.948 -0.619413 -0.642780
  36 314.964 -1.67037 -0.722386
  37 302.037 -3.19467 -0.994136
  38 286.884 -4.07152 -1.13526
  39 271.609 -4.61043 -0.867057
  40 254.299 -4.30560 -0.343057
  41 237.519 -3.54532 -0.198381
  42 222.378 -2.73648 0.161808
  43 208.919 -1.30025 0.422255
  44 196.113 -0.445427 -0.0351740
  45 183.469 0.542111 0.00527904
  46 182.738 0.459727 0.836629
  47 181.294 0.100024 0.547191
  48 178.205 -0.343506 1.56664
  49 171.610 0.00193464 2.18566
  50 165.801 -0.486595 3.25241
  51 158.602 -0.378052 4.69058
  52 146.162 -0.00560010 5.03125
  53 131.815 0.118144 5.83468
  54 118.020 -0.211740 9.13691
  55 91.5919 0.621941 8.49052
  56 73.3951 0.702550 9.94539
  57 48.3485 0.972202 8.92358
  58 25.5544 0.386969 9.77932
  59 2.70288 2.78083 9.83136
  60 -12.6572 3.28801 4.97958
  61 -17.8864 3.16063 -0.338795
  62 -14.8117 2.37762 -5.46646
  63 -8.65529 -0.795019 -4.72084
  64 -0.936946 -8.73572 -4.42932
  65 0.498594 -16.7855 -5.96421
  66 2.16509 -26.9231 -3.49950
  67 7.26107 -27.2110 0.361177
  68 12.6006 -2.11350 14.9866
  69 37.5814 55.2019 53.4247
  70 164.514 179.304 166.623
  71 802.048 86.6781 126.974
  72 649.377 27.3735 42.4160
  73 619.518 15.2967 17.0312
  74 610.564 9.80397 -1.00352
  75 617.299 12.8524 -15.0627
  76 659.044 24.3406 -41.0531
  77 763.175 71.2919 -109.296
  78 132.244 204.838 -159.497
  79 30.7609 31.3909 -40.8055
  80 11.6300 -2.17280 -15.5753
  81 3.57461 -26.9853 -2.05446
  82 2.15836 -20.9293 2.64091
  83 2.45492 -21.1448 4.96315
  84 0.204960 -7.94840 5.60711
  85 -9.28228 -0.667874 4.66506
  86 -15.5389 2.29634 5.33182
  87 -18.2731 3.13045 0.221146
  88 -12.9567 3.08451 -4.90404
  89 2.18130 3.08899 -9.66980
  90 25.1708 0.480161 -9.92049
  91 48.1853 0.911769 -9.07607
  92 73.6477 0.692121 -10.0168
  93 91.9510 0.603692 -8.55879
  94 118.392 -0.293734 -9.04635
  95 131.983 0.116733 -5.71994
  96 146.135 0.0536378 -4.97058
  97 158.621 -0.363737 -4.71940
  98 165.767 -0.491799 -3.24571
  99 171.592 -0.00114077 -2.19021
  100 178.140 -0.333676 -1.55791
  101 181.242 0.102990 -0.563435
  102 182.719 0.456909 -0.851789
  103 183.470 0.538169 -0.0139653
  104 196.113 -0.458344 0.0292419
  105 208.915 -1.32515 -0.430181
  106 222.367 -2.77349 -0.154463
  107 237.697 -3.63737 0.242506
  108 254.459 -4.34036 0.293325
  109 271.079 -4.62156 0.826878
  110 286.665 -3.88660 1.03459
  111 302.098 -3.32544 0.997641
  112 314.951 -1.78383 0.717827
  113 328.848 -0.734438 0.691792
  114 290.815 -30.6891 -8.20621
  115 294.086 -30.5907 5.73359
  116 310.214 44.2164 -15.6534
  117 247.992 -20.6346 -60.1602
  118 240.561 -19.1170 61.4186
  119 334.954 31.7305 30.8072
  120 351.594 9.47026 -24.9308
  121 248.241 -10.9749 -6.41226
  122 246.940 -11.6054 6.62572
  123 383.710 85.0139 1.19841
  124 295.666 -13.5401 8.71440
  125 298.030 -12.7941 -9.90886
  126 305.075 -6.71921 -29.7743
  127 207.237 -17.3121 33.1433
  128 206.951 -17.4438 -34.7671
  129 306.646 -10.6876 26.8800
  130 416.091 93.5308 2.54015
  131 109.582 25.9984 -65.1793
  132 105.985 26.4277 64.1492
  133 369.774 0.397056 -1.85627
  134 430.999 97.9721 -11.6067
  135 284.443 19.4088 17.1275
  136 282.517 -7.81147 1.46875
  137 284.067 -7.25304 -1.65337
  138 368.184 -4.90719 39.5041
  139 206.949 -8.78867 -15.0835
  140 206.989 -8.75277 14.4473
  141 281.827 18.3015 -104.848
  142 492.957 68.5334 9.34418
  143 287.237 10.0986 -25.7227
  144 214.477 -3.05970 -4.17958
  145 214.437 -3.04714 4.20625
  146 249.553 -20.7455 14.9742
  147 254.493 -21.7183 -14.7840
  148 148.487 -9.15316 -47.9984
  149 147.884 -7.28099 48.6683
  150 319.817 49.0776 17.1629
  151 318.605 -30.5167 13.6076
  152 320.606 -17.7607 -21.3822
  153 330.170 -19.4515 14.2059
  154 302.992 -20.6803 -14.9459
  155 316.103 15.0438 -33.5517
  156 285.097 23.3537 114.657
  157 20.4236 17.4213 10.3776
  158 17.7754 14.5970 -7.91418
  159 277.065 17.4302 -6.86851
  160 301.212 6.72900 31.2050
  161 311.286 -4.12382 5.41959
  162 308.653 -4.81495 -5.48510
  163 287.096 -21.4861 2.99827
  164 304.987 -7.10936 -17.7260
  165 348.622 57.9195 -22.9853
  166 277.385 -18.1377 -0.0325530
  167 264.710 -30.0717 31.4784
  168 248.142 -5.93517 -1.85178
  169 248.449 -5.89559 1.92360
  170 306.403 -6.57614 16.5148
  171 266.603 -29.8949 -30.1952
  172 315.342 -29.4238 -21.6057
  173 355.339 63.3464 20.5297
  174 278.373 -14.9006 1.31362
  175 421.256 48.8669 -29.8072
  176 73.3634 5.12477 -37.1477
  177 71.3051 4.74855 36.1919
  178 519.362 99.1117 51.9924
  179 438.348 79.7992 13.6609
  180 536.759 62.1359 -33.8112
  181 305.210 -3.88159 2.01698
  182 304.846 -3.79633 -2.03936
  183 183.399 -5.91685 -18.8380
  184 183.418 -5.99272 18.9000
  185 147.585 -5.49855 -29.6549
  186 148.667 -5.53147 30.1471
  187 89.6566 64.1366 -81.7038
  188 292.392 -1.60195 24.0924
  189 309.239 -22.6520 15.4037
  190 199.664 -2.62492 -6.67411
  191 199.289 -2.77477 6.74655
  192 44.4885 44.5879 46.8548
  193 286.406 0.470642 -23.2000
  194 303.636 -15.8062 17.9583
  195 274.369 4.35750 20.3505
  196 313.954 -19.0407 -55.6249
  197 312.388 -4.89782 -10.0216
  198 283.132 -25.0579 2.37506
  199 339.511 68.3630 -10.5625
  200 317.110 -9.60009 29.1560
  201 212.727 -19.6629 -48.8569
  202 157.062 -0.365344 -64.2829
  203 153.449 0.628167 64.3020
  204 305.843 25.8691 25.9929
  205 223.625 0.627004 84.6720
  206 295.932 33.3313 4.99461
  207 380.058 43.4817 -17.4478
  208 313.281 -4.79465 8.95931
  209 212.790 -19.3620 49.1983
  210 269.849 -11.8021 0.828855
  211 512.840 128.428 -64.1135
  212 379.748 49.6211 18.9740
  213 219.836 -15.8980 -21.3314
  214 218.660 -14.8818 21.0692
  215 32.4037 11.2894 -19.7899
  216 37.2126 11.5132 22.6971
  217 249.965 -25.5147 23.9834
  218 264.294 -9.66634 -1.81998
  219 266.538 -5.46234 -0.183306
  220 269.443 -5.44460 0.0847522
  221 250.632 -24.7124 -24.1098
  222 263.002 -17.8973 -5.72609
  223 312.831 -27.1440 40.6719
  224 378.478 82.9776 -6.38920
  225 440.384 87.5662 -7.20458
  226 351.369 10.1499 23.6065
  227 292.227 -9.73745 5.38811
  228 216.697 2.53989 -86.1592
  229 238.182 -14.9691 12.3337
  230 289.380 -11.1915 -4.53152
  231 351.672 -15.5898 4.13169
  232 299.298 23.8040 -25.0184
  233 334.674 -17.3636 -13.9612
  234 258.065 10.0031 4.89814
  235 222.427 -7.60374 -9.36998
  236 330.143 0.887856 -30.2589
  237 183.411 -2.80038 -9.62124
  238 183.228 -2.74489 9.33128
  239 197.698 -0.367028 -1.22453
  240 197.703 -0.352273 1.20617
  241 301.709 3.33750 -31.9515
  242 220.633 -7.54596 9.89614
  243 236.334 -14.6037 -13.1288
  244 108.499 79.1517 106.637
  245 17.6723 21.5606 -14.6814
  246 567.840 42.8995 12.5839
  247 257.709 4.46779 -10.8892
  248 292.903 -19.8189 -7.29240
  249 303.037 65.8230 -145.490
  250 307.419 -25.0344 -11.6696
  251 154.044 -5.00245 -19.6207
  252 154.263 -5.15663 19.7816
  253 304.868 -12.5378 -22.5134
  254 314.881 -4.35527 -31.6942
  255 227.475 -3.50433 -1.82207
  256 227.472 -3.52544 1.76261
  257 323.533 -1.90011 -2.14441
  258 323.828 -1.54240 2.11802
  259 297.654 -2.60531 -17.5559
  260 425.998 45.9289 87.8744
  261 277.858 -26.7793 -6.75014
  262 234.148 -6.66968 -4.92066
  263 233.016 -6.79274 5.16117
  264 -0.313333 -0.631488 -6.46595
  265 -1.43066 0.432328 6.78182
  266 82.8680 -2.17534 -30.0735
  267 82.3736 -1.83900 29.8608
  268 193.556 -1.35289 2.89598
  269 193.533 -1.36783 -2.93688
  270 297.605 -3.32484 16.6506
  271 344.539 71.7465 7.52797
  272 314.218 -29.1566 -2.86020
  273 320.860 38.0992 -27.9538
  274 310.540 -16.1950 -24.1155
  275 339.381 -19.6947 3.67199
  276 117.634 -2.63450 28.1572
  277 116.756 -2.80283 -27.7425
  278 312.858 -29.5925 -3.90318
  279 271.902 -30.6816 39.3289
  280 288.150 -4.45915 0.602894
  281 288.461 -4.26369 -0.569096
  282 322.974 -1.35616 -1.05090
  283 323.023 -1.56993 1.10841
  284 147.588 40.6471 95.9304
  285 334.542 26.9095 -32.1565
  286 299.420 -25.3828 6.85741
  287 380.791 78.9551 10.3528
  288 273.082 2.73389 -18.7996
  289 265.281 -7.94289 0.900011
  290 367.223 58.7069 -21.7842
  291 300.387 -5.40111 78.8065
  292 319.719 56.8372 0.145630
  293 271.710 -29.1440 -41.0844
  294 289.437 -32.8865 17.2675
  295 275.418 -27.2109 9.55857
  296 427.954 87.6513 6.59457
  297 260.402 -17.7949 7.52375
  298 320.938 -2.29923 -5.00559
  299 301.352 -15.3066 -15.0050
  300 512.667 142.167 61.8194
  301 331.822 0.348471 29.2256
  302 314.471 -2.26240 -8.27057
  303 327.877 44.4556 25.3513
  304 356.183 -1.27224 -61.4922
  305 315.201 9.25730 33.5910
  306 10.1827 11.4112 5.35120
  307 187.237 -14.0200 39.9756
  308 300.084 -5.28047 3.17084
  309 299.006 -5.91019 -3.47345
  310 295.749 30.9045 -14.6288
  311 179.924 -12.1002 -38.6478
  312 192.808 -15.2503 -55.0579
  313 306.569 -6.99952 7.82680
  314 289.096 -16.6617 5.80432
  315 300.816 -1.50524 30.6614
  316 447.417 85.3745 -101.067
  317 304.168 -10.6152 21.1750
  318 303.523 -7.94552 -7.98195
  319 320.702 -1.96546 5.00737
  320 186.405 -2.02100 6.47059
  321 186.572 -2.23511 -6.56851
  322 51.8285 32.2073 -40.7575
  323 254.322 7.72684 -4.05021
  324 305.811 -9.21140 14.2474
  325 416.398 74.7446 0.674299
  326 304.680 38.1740 17.3837
  327 163.956 31.4798 -96.1796
  328 188.393 -11.5129 55.4526
  329 284.165 16.8528 -19.0803
  330 313.528 -2.66871 9.01532
  331 302.580 -8.07895 -24.7910
  332 7.49568 4.22164 -0.434148
  333 56.5346 27.8051 37.6862
  334 226.878 -23.9822 39.3431
  335 -2.12548 5.48334 1.78815
  336 -1.48625 5.98336 -1.60442
  337 330.248 129.329 158.507
  338 301.362 -7.06738 24.8991
  339 630.239 67.3180 -79.9976
  340 294.678 17.3027 26.4530
  341 353.209 36.4855 26.0486
  342 252.777 -8.24262 3.24567
  343 259.196 4.55838 11.6932
  344 231.785 -25.6089 -37.2099
  345 291.242 -14.0778 -6.43748
  346 264.632 -14.6693 3.36327
  347 305.636 -8.64042 -14.6616
  348 295.273 -32.4573 -23.6405
  349 345.828 -18.9212 -12.3622
  350 278.991 21.0825 5.27901
  351 312.263 -26.6710 10.1704
  352 396.311 28.5614 3.07008
  353 173.509 -8.70761 28.9502
  354 280.208 -10.7463 1.93337
  355 271.787 -29.9420 -20.3745
  356 451.399 109.328 22.0420
  357 332.273 55.5929 -20.6266
  358 213.778 -4.57988 7.04813
  359 214.196 -4.95570 -7.18284
  360 172.255 -8.41401 -29.4085
  361 109.593 95.8608 -110.903
  362 256.187 -4.87201 -1.06344
  363 256.984 -5.14349 0.854241
  364 162.705 -1.72787 -10.1692
  365 162.672 -1.76480 10.2798
  366 587.481 22.5112 -11.7750
  367 595.048 40.6193 37.7312
  368 273.984 -22.1098 -4.52427
  369 369.447 11.5892 82.0645
  370 132.389 -0.501991 51.3446
  371 132.510 -1.38193 -51.6028
  372 274.464 -17.3821 63.9351
  373 276.136 2.17479 19.3479
  374 289.775 3.23758 27.2536
  375 266.379 -30.7616 24.2170
  376 77.6886 16.3241 -44.2867
  377 76.7431 13.2288 42.6039
  378 35.7221 2.68842 -18.4222
  379 35.9271 2.27868 18.6071
  380 292.011 -26.1706 -47.5454
  381 213.894 -1.87517 -1.79291
  382 213.897 -1.84913 1.78463
  383 432.437 83.0408 -0.621990
  384 263.559 -14.2516 -3.51947
  385 279.587 -7.14184 -80.6777
  386 296.599 -27.2759 -2.75653
  387 409.265 74.3848 -4.00557
  388 358.288 31.0631 -26.3498
  389 306.616 -17.1731 21.2723
  390 199.624 -5.03102 -11.0654
  391 198.975 -4.53437 10.5144
  392 265.089 -6.82122 -0.824503
  393 247.968 -8.42712 -4.37214
  394 192.770 -11.5512 26.4055
  395 192.527 -11.5150 -26.8889
  396 24.0195 36.0466 -29.6060
  397 303.731 14.1621 -30.9225
  398 233.638 -16.3007 16.6594
  399 378.775 26.2588 -87.9316
  400 297.166 -19.6004 10.3000
  401 39.9481 48.9099 50.1616
  402 298.332 -2.66425 -29.0571
  403 188.772 -1.21393 3.80591
  404 188.705 -1.15826 -3.82319
  405 309.606 -2.51188 0.855915
  406 309.495 -2.35826 -0.767417
  407 318.906 -19.6844 19.3695
  408 148.432 -8.42938 -39.4002
  409 321.629 -1.64389 -5.37521
  410 150.735 -8.71892 39.6896
  411 370.250 7.70936 -7.92059
  412 311.898 -14.9651 25.3670
  413 275.436 -18.1766 -0.743415
  414 490.606 106.481 -41.9118
  415 304.133 -11.4746 17.4761
  416 489.366 89.9843 29.1198
  417 365.306 77.6014 9.05346
  418 138.326 -2.99740 -17.8607
  419 138.438 -2.87380 18.1679
  420 55.0247 -0.450424 -21.3632
  421 54.2979 -0.428136 20.9243
  422 305.250 -2.55225 -12.4985
  423 624.896 87.7823 80.8748
  424 160.664 11.0983 76.1300
  425 200.480 -9.48321 -18.1827
  426 200.177 -9.46351 18.3701
  427 220.489 -18.8436 27.0102
  428 183.399 54.3159 -125.647
  429 362.254 79.2523 -4.91709
  430 221.575 -18.5863 -27.3691
  431 329.001 -1.24243 -2.15589
  432 338.803 61.5686 18.0521
  433 352.421 70.4481 -14.3328
  434 237.328 -17.3037 -16.7112
  435 451.675 104.748 -19.8138
  436 243.867 -25.7052 50.2836
  437 386.023 6.28527 -17.9210
  438 258.772 -17.6232 -69.4783
  439 287.560 3.97279 -26.7557
  440 268.997 -27.0370 -14.0801
  441 536.539 50.3647 -9.65970
  442 528.771 63.1035 32.0049
  443 302.584 -21.3499 13.6534
  444 -0.302707 4.89633 -4.38488
  445 0.456678 5.23315 4.36259
  446 395.358 79.6243 8.29577
  447 290.572 -1.22673 15.2931
  448 264.376 -22.8166 9.71962
  449 209.141 -7.84364 72.8091
  450 1.18035 -6.61391 -5.51015
  451 231.120 -21.0931 -53.3282
  452 295.011 -23.2881 -6.92859
  453 292.322 -5.25760 2.18666
  454 292.278 -4.99795 -1.72651
  455 123.430 11.9312 -63.3429
  456 305.053 -2.10329 11.7921
  457 41.9237 19.8508 -25.9640
  458 14.0544 14.4681 14.4031
  459 114.665 -0.884164 -16.2475
  460 114.306 -0.709481 16.2867
  461 667.048 153.809 -123.681
  462 288.079 -0.830169 -15.8273
  463 297.663 -8.23132 -5.62237
  464 288.918 -12.5327 4.95275
  465 277.884 11.1799 19.8805
  466 310.824 -1.01349 32.6863
  467 275.863 -4.87293 0.212618
  468 276.978 -4.78435 -0.376224
  469 106.129 7.85472 50.5860
  470 231.001 -7.76289 7.19382
  471 366.370 18.8869 17.8448
  472 345.107 -20.2252 25.4420
  473 399.102 85.8452 -0.634259
  474 329.707 -0.871150 2.13944
  475 280.218 -14.2994 -1.83810
  476 241.979 -4.17159 -1.17075
  477 241.833 -4.03177 1.07981
  478 86.9696 40.1515 65.0540
  479 281.383 -10.3886 -1.89597
  480 38.1983 21.0196 23.3911
  481 86.4955 41.4015 -64.1885
  482 305.599 43.5553 -4.78625
  483 250.067 -14.2882 -7.99507
  484 227.570 -4.75847 -3.87749
  485 227.745 -4.61621 3.94728
  486 323.235 -27.7702 -2.19073
  487 322.154 -2.04545 5.31630
  488 417.030 29.5261 37.0291
  489 315.431 38.0396 24.5849
  490 253.764 -19.6276 -11.0982
  491 310.899 49.2800 6.86477
  492 4.10332 -10.1649 -1.03999
  493 90.6804 96.7351 106.180
  494 318.949 26.3229 30.7169
  495 232.582 -7.77905 -6.59638
  496 274.439 0.498051 -13.3453
  497 220.848 17.7068 99.0734
  498 284.859 -21.6209 -1.96128
  499 330.674 -27.2824 18.2556
  500 309.517 -5.77805 -8.11740
  501 488.681 74.9071 -11.4995
  502 81.6651 -0.116005 -19.1428
  503 81.8051 0.0361156 19.4531
  504 311.829 -2.97351 -3.28620
  505 310.639 -3.23537 3.39931
  506 177.304 -11.9949 48.3248
  507 220.052 -9.53555 -12.4083
  508 209.901 -5.83466 -72.8981
  509 182.993 -14.3637 -46.4483
  510 169.081 -1.37802 -7.00667
  511 169.017 -1.42346 6.95044
  512 302.445 -28.2988 4.16833
  513 223.978 -11.1207 13.5847
  514 320.466 3.70333 -33.1569
  515 235.228 -11.5213 9.99049
  516 249.874 -26.1925 30.3038
  517 388.005 29.9614 4.20615
  518 148.922 -0.570174 -10.1229
  519 148.968 -0.611157 10.2670
  520 386.962 81.8851 -9.04676
  521 339.549 -2.97575 -23.9068
  522 339.747 -5.55065 21.2340
  523 306.563 -16.7570 -21.1637
  524 239.055 -20.5525 20.8396
  525 607.630 34.8821 -40.1419
  526 336.320 -22.8518 0.191980
  527 253.882 2.60105 -10.5831
  528 257.202 -10.6737 3.26179
  529 309.297 35.9911 -22.8029
  530 514.232 148.539 98.4692
  531 300.970 -6.92472 5.67830
  532 277.817 -6.06557 0.358127
  533 280.628 -5.42660 -0.680929
  534 315.016 -24.7560 -12.4376
  535 248.794 -14.7478 8.45979
  536 189.540 0.0353379 -1.70742
  537 189.559 0.0408971 1.68230
  538 251.052 -27.1018 -29.3944
  539 323.062 55.7435 -11.2411
  540 303.866 -9.06993 -10.5850
  541 257.769 2.19489 12.3993
  542 303.986 -11.7796 -18.2071
  543 191.286 0.00654112 -0.361288
  544 191.285 0.0135627 0.352344
  545 352.979 -14.6754 -29.1324
  546 242.087 -21.8734 -21.1501
  547 350.603 -5.47047 -14.1215
  548 323.861 -20.5136 50.0152
  549 312.288 -4.92712 7.27878
  550 331.247 -1.04753 1.13194
  551 331.199 -0.936774 -0.998768
  552 295.480 -32.2078 -14.3857
  553 304.410 -31.1010 31.3062
  554 174.611 -0.950201 -4.57648
  555 174.514 -0.942808 4.53707
  556 276.731 -27.3482 48.1553
  557 311.539 25.1427 -29.6033
  558 239.673 -25.1191 -43.3008
  559 307.652 17.5022 31.9796
  560 295.344 -32.7214 24.7555
  561 239.107 2.73090 4.49151
  562 261.504 -6.68737 1.14994
  563 322.280 -7.91884 -28.6863
  564 402.899 86.3312 0.591816
  565 329.198 -12.3281 -23.0621
  566 249.590 -18.4057 12.2650
  567 202.480 -2.41047 5.01813
  568 202.516 -2.44533 -5.09270
  569 291.751 -7.98362 2.94357
  570 234.835 -11.0709 -9.73836
  571 301.884 -5.20070 19.8102
  572 323.878 -22.6395 -13.2301
  573 273.799 -8.18269 0.131150
  574 497.924 149.319 -68.3907
  575 273.964 6.42661 -18.9348
  576 415.225 89.8698 -3.33563
  577 241.861 2.26548 -7.00758
  578 297.908 -10.4518 7.34683
  579 87.4345 56.0731 82.7229
  580 291.516 27.5243 13.8339
  581 161.391 12.5750 -77.2783
  582 323.613 -27.2360 -1.78880
  583 297.379 -3.40221 -23.8064
  584 333.787 41.1853 -28.8935
  585 -2.51195 -2.93980 -5.32863
  586 -3.20296 -2.63915 5.42269
  587 204.740 -1.62833 -2.90260
  588 204.741 -1.60525 2.87584
  589 313.345 -20.4018 -19.5321
  590 315.762 -13.4284 -26.5385
  591 30.3346 28.3961 25.4029
  592 295.739 25.5930 21.0830
  593 268.656 -12.6314 -1.09970
  594 265.645 -4.67593 -0.0649235
  595 264.958 -4.62662 -0.168159
  596 271.780 12.4187 13.1421
  597 603.397 13.8922 8.81400
  598 220.943 -12.8920 -16.8863
  599 236.576 3.35851 1.01829
  600 310.717 5.20327 -33.6207
  601 243.411 -27.7593 44.0831
  602 6.93090 3.27528 10.2302
  603 6.00833 2.72823 -9.61379
  604 327.535 14.7489 -33.2444
  605 289.063 30.1451 -3.74244
  606 307.409 -21.4256 -17.4724
  607 180.704 -3.91058 -13.6984
  608 180.373 -4.20169 13.6967
  609 316.596 -1.78563 1.83667
  610 316.474 -1.79042 -1.92117
  611 307.634 -2.97980 -32.1264
  612 300.429 -14.0772 13.0753
  613 217.076 -12.3301 17.7494
  614 18.0771 14.0006 -10.1552
  615 309.637 176.098 -182.076
  616 309.538 -5.51496 12.7758
  617 308.298 -5.17925 -13.6303
  618 244.262 12.0794 -98.8764
  619 290.540 -8.44825 -3.63142
  620 260.645 -24.6144 15.5890
  621 337.924 69.1821 -0.350288
  622 115.638 -4.62282 -35.9711
  623 116.683 -4.59899 36.2592
  624 369.497 62.0550 19.3521
  625 298.761 -19.3020 -12.2102
  626 266.368 14.6053 -0.00121278
  627 290.287 -27.8113 -2.33641
  628 163.654 -4.44827 17.0106
  629 163.541 -4.41703 -16.7948
  630 211.281 -5.45718 -9.39647
  631 201.592 -0.658707 -1.32417
  632 201.595 -0.641006 1.31467
  633 296.875 -10.9852 -7.37444
  634 333.032 -0.460858 -0.551617
  635 332.925 -0.540164 0.701920
  636 389.396 73.7190 -13.3838
  637 185.179 56.6722 117.793
  638 356.301 -4.52807 11.0243
  639 157.803 25.5504 85.5616
  640 69.5252 19.9248 41.3365
  641 363.641 16.2320 -20.5635
  642 305.969 -28.7949 -3.53606
  643 217.413 -3.00847 -3.19476
  644 217.480 -2.96544 3.20376
  645 296.098 -3.09699 -0.445180
  646 296.339 -3.17728 0.502954
  647 232.035 -23.6815 -31.9281
  648 107.149 5.63769 -51.1665
  649 178.235 -0.965992 2.88006
  650 178.181 -1.01737 -2.83388
  651 693.728 185.884 141.368
  652 346.605 39.4791 -29.3393
  653 310.078 -9.89235 -29.1348
  654 306.428 -11.1516 -26.4338
  655 323.683 26.7004 -32.3726
  656 194.805 -5.13979 -13.8923
  657 194.058 -5.46765 13.5710
  658 287.966 -25.1275 0.699180
  659 2.06043 -8.16823 5.98025
  660 322.562 -0.505399 31.9006
  661 19.8394 13.1928 10.5733
  662 287.433 8.05795 25.8297
  663 47.5123 45.1584 -43.6236
  664 269.037 11.1696 -13.4630
  665 319.062 -2.20083 3.93425
  666 266.138 -23.7991 -10.4280
  667 301.720 -5.52477 -20.7512
  668 92.4386 -0.582084 14.0571
  669 92.7830 -0.491521 -14.1160
  670 365.826 72.4773 -15.6162
  671 166.274 -8.32962 -59.0582
  672 296.238 -16.1957 -9.99273
  673 258.864 -10.9541 -3.62710
  674 318.569 -2.69753 -3.79567
  675 340.723 48.6942 25.7057
  676 56.8614 11.5736 -31.2297
  677 55.3886 7.75744 30.9347
  678 308.489 -7.51990 30.3248
  679 272.132 -20.5890 3.87506
  680 303.515 -16.0733 -17.9332
  681 448.316 111.695 -24.8739
  682 358.141 77.6521 3.07339
  683 262.149 -9.26491 1.79689
  684 340.766 12.9712 30.2850
  685 308.071 -32.1911 9.40140
  686 208.526 -5.21229 9.42527
  687 276.518 -29.8185 15.0759
  688 322.205 -1.35242 0.0592806
  689 322.169 -1.47713 -0.0272393
  690 451.080 99.8253 22.8778
  691 174.232 -7.07701 23.0709
  692 24.6262 25.3278 -18.0153
  693 -7.37751 0.157296 6.25826
  694 -6.50840 0.317114 -6.46454
  695 152.194 -5.97243 25.2827
  696 75.0133 28.9735 -47.9119
  697 5.88919 -2.23429 -7.64321
  698 295.277 -23.6647 6.84364
  699 204.224 -12.1615 -64.4335
  700 230.626 -23.5542 31.4511
  701 286.507 -17.9771 -4.08770
  702 3.94154 -9.74311 -2.48236
  703 341.320 16.3705 -30.3614
  704 306.666 -30.0399 -0.232512
  705 302.289 -24.7473 -10.7814
  706 294.851 8.81608 -29.2698
  707 173.885 -7.10838 -23.1011
  708 29.8744 47.9678 -46.4957
  709 293.656 16.1560 -27.1930
  710 -0.501181 -7.93047 -6.20932
  711 276.314 0.162397 12.6760
  712 151.657 -5.72598 -25.0015
  713 195.519 -10.8882 64.0272
  714 272.807 -9.20278 0.0549295
  715 224.673 -5.11085 -5.12441
  716 162.863 -6.44666 58.1350
  717 94.9113 0.961687 -39.8673
  718 93.4743 0.716049 39.0447
  719 223.925 -4.86411 5.29957
  720 54.0432 1.10081 -16.2106
  721 54.3438 1.19988 16.1153
  722 243.477 -9.15424 5.58888
  723 294.966 -0.430126 -10.7826
  724 347.536 36.0323 124.513
  725 237.571 -4.57230 -2.75620
  726 237.432 -4.69213 2.66354
  727 303.894 -8.83835 -21.8664
  728 230.123 -3.09635 -1.50466
  729 230.062 -2.99007 1.45942
  730 297.120 -3.24241 21.2854
  731 303.722 -31.9458 4.86507
  732 242.843 -6.41784 3.42861
  733 22.2655 -0.621707 -10.7905
  734 22.4393 -0.922518 10.6322
  735 242.402 -5.74762 -3.23455
  736 5.43974 6.09011 -2.38466
  737 326.792 -24.2875 -34.1210
  738 369.355 -5.22032 10.6186
  739 112.236 16.6061 59.4933
  740 185.198 -0.0282986 1.90030
  741 185.152 -0.00943328 -1.92670
  742 285.733 -29.1269 6.32110
  743 554.659 78.8992 -63.5270
  744 260.392 0.560487 -10.2795
  745 257.904 -6.16102 -1.34516
  746 232.337 82.0805 143.949
  747 327.302 12.8331 33.1460
  748 295.846 -0.585690 10.4317
  749 334.166 -0.668784 -1.26944
  750 334.512 -0.851784 1.27080
  751 463.675 89.6265 -19.4622
  752 327.801 59.4849 8.52137
  753 254.479 -7.58432 -2.36411
  754 326.261 -1.36074 3.92452
  755 204.364 -12.0204 -23.0176
  756 298.596 -3.42924 1.58518
  757 298.464 -3.41007 -1.39725
  758 219.234 -18.0123 57.5562
  759 308.011 -32.7717 -13.0410
  760 305.123 -12.4165 23.4481
  761 204.021 -11.8260 22.8297
  762 318.683 46.0161 -20.4440
  763 262.212 1.98315 10.7996
  764 209.669 -19.5179 -43.2540
  765 256.016 -7.38516 2.15813
  766 302.415 -5.68725 28.8016
  767 187.674 0.270366 -0.622299
  768 187.681 0.274815 0.607669
  769 5.55709 7.97264 1.56513
  770 212.208 -7.28719 11.8576
  771 272.657 -6.88536 0.0168640
  772 301.951 -12.9493 -13.5092
  773 135.677 -0.658518 10.3986
  774 135.746 -0.679733 -10.2337
  775 327.504 -9.94620 25.5217
  776 301.876 -6.77492 -27.5337
  777 113.441 -4.57386 -41.5334
  778 113.845 -4.02694 41.2385
  779 317.955 -26.1837 7.41832
  780 302.744 -9.77490 10.7064
  781 465.562 85.4681 41.0456
</Section>

newXOutput 18

<Section columns = "stress_xx | stress_yy | stress_xy">
  1 359.825 0.289480 0.462962
  2 359.972 0.240356 -0.442181
  3 199.108 -0.0847702 -0.347287
  4 -2.46323 -2.80385 -3.28235
  5 654.793 262.585 214.323
  6 618.905 237.189 -179.351
  7 -3.26368 -2.80517 3.75343
  8 199.116 -0.0886365 0.342350
  9 361.036 -0.343221 -0.0481470
  10 361.134 -1.25942 0.931400
  11 359.785 -1.00223 0.633282
  12 353.440 -1.11452 2.25564
  13 350.283 -1.24487 2.62534
  14 343.247 -1.71904 4.34067
  15 331.439 -1.21610 6.64956
  16 317.660 -0.551735 7.71794
  17 301.742 0.406702 9.00071
  18 278.645 1.19531 7.41071
  19 264.058 2.74084 8.72097
  20 252.919 2.08158 6.56253
  21 238.913 2.73049 1.85109
  22 242.658 4.03435 -2.48147
  23 247.727 2.01747 -4.59286
  24 263.248 1.90005 -7.62116
  25 277.658 0.804697 -8.33559
  26 301.570 0.457579 -9.37413
  27 317.281 -0.911440 -8.30303
  28 332.678 -1.36358 -6.73395
  29 343.140 -1.14723 -4.80621
  30 348.536 -1.16210 -4.00867
  31 354.197 -1.66017 -1.59649
  32 359.807 -0.861541 -0.282246
  33 361.224 -1.07217 -0.818202
  34 361.214 -0.448279 0.109530
  35 348.460 -0.674714 -0.676941
  36 333.741 -1.79393 -0.758636
  37 320.124 -3.41000 -1.04236
  38 304.151 -4.33486 -1.18733
  39 288.041 -4.89806 -0.906519
  40 269.778 -4.56764 -0.350603
  41 252.075 -3.75414 -0.201813
  42 236.103 -2.89331 0.177936
  43 221.911 -1.36989 0.450496
  44 208.412 -0.465930 -0.0344741
  45 195.087 0.574127 0.00959079
  46 194.306 0.487445 0.889731
  47 192.761 0.107474 0.587430
  48 189.476 -0.360962 1.66925
  49 182.486 0.00430134 2.32242
  50 176.313 -0.513610 3.45289
  51 168.668 -0.398296 4.97853
  52 155.477 -0.00361069 5.34264
  53 140.264 0.126927 6.19537
  54 125.618 -0.221131 9.70028
  55 97.5916 0.659544 9.01765
  56 78.2708 0.744205 10.5614
  57 51.6631 1.02883 9.48820
  58 27.4238 0.406199 10.4085
  59 3.10682 2.94901 10.4728
  60 -13.2687 3.48869 5.32035
  61 -18.8926 3.35767 -0.327119
  62 -15.6926 2.53191 -5.78286
  63 -9.18141 -0.837258 -5.00522
  64 -0.988161 -9.26788 -4.69661
  65 0.537911 -17.7904 -6.31272
  66 2.30841 -28.4759 -3.67382
  67 7.72448 -28.6804 0.464302
  68 13.4116 -1.87369 16.0413
  69 39.9059 59.2281 56.8595
  70 174.005 190.922 176.550
  71 847.198 91.7046 133.943
  72 686.695 28.9444 44.7845
  73 655.219 16.1900 17.9693
  74 645.786 10.3827 -1.06015
  75 652.902 13.6070 -15.9144
  76 696.884 25.7609 -43.3546
  77 806.451 75.4426 -115.337
  78 139.873 218.000 -169.000
  79 32.6856 33.9749 -43.5247
  80 12.3789 -1.90124 -16.6755
  81 3.80345 -28.4224 -2.25645
  82 2.30484 -22.1185 2.75188
  83 2.61670 -22.4145 5.24819
  84 0.221210 -8.42913 5.94728
  85 -9.84774 -0.702280 4.94576
  86 -16.4654 2.44537 5.64053
  87 -19.3027 3.32590 0.202128
  88 -13.5852 3.27261 -5.24021
  89 2.55511 3.27602 -10.3014
  90 27.0184 0.504988 -10.5582
  91 51.4912 0.964639 -9.64990
  92 78.5396 0.733064 -10.6370
  93 97.9730 0.640114 -9.08973
  94 126.012 -0.308011 -9.60409
  95 140.442 0.125486 -6.07393
  96 155.449 0.0590589 -5.27853
  97 168.689 -0.383160 -5.00882
  98 176.278 -0.519036 -3.44571
  99 182.467 0.00109687 -2.32716
  100 189.407 -0.350564 -1.66001
  101 192.705 0.110622 -0.604565
  102 194.285 0.484471 -0.905733
  103 195.087 0.569961 -0.0187536
  104 208.411 -0.479590 0.0282193
  105 221.906 -1.39622 -0.458852
  106 236.092 -2.93242 -0.170186
  107 252.263 -3.85147 0.248213
  108 269.947 -4.60438 0.297909
  109 287.481 -4.90979 0.863763
  110 303.920 -4.13903 1.08090
  111 320.188 -3.54810 1.04621
  112 333.728 -1.91353 0.753867
  113 348.356 -0.796090 0.728565
  114 308.296 -32.5359 -8.88494
  115 311.756 -32.4309 6.27031
  116 329.038 46.8846 -16.4995
  117 262.927 -21.8962 -63.9154
  118 255.070 -20.2891 65.2463
  119 355.108 33.6337 32.4120
  120 372.609 10.0437 -26.1194
  121 263.368 -11.6252 -6.87578
  122 261.993 -12.2929 7.10275
  123 406.771 90.0432 1.24215
  124 313.453 -14.3634 9.08744
  125 315.950 -13.5741 -10.3503
  126 323.482 -7.13124 -31.3495
  127 219.947 -18.3513 35.2133
  128 219.639 -18.4931 -36.9368
  129 325.123 -11.3387 28.2802
  130 440.917 99.1145 2.95282
  131 116.382 27.5603 -69.2807
  132 112.562 28.0210 68.1920
  133 391.724 0.458262 -2.28338
  134 456.671 103.812 -12.5435
  135 301.802 20.6037 18.0707
  136 299.551 -8.29317 1.48111
  137 301.188 -7.70164 -1.67697
  138 389.944 -5.12169 42.1444
  139 219.736 -9.30453 -16.0394
  140 219.781 -9.26649 15.3657
  141 298.540 19.4667 -111.284
  142 522.056 72.5473 9.91399
  143 304.728 10.7217 -27.1345
  144 227.752 -3.23372 -4.45944
  145 227.710 -3.22039 4.48765
  146 264.719 -21.9817 15.9848
  147 269.934 -23.0141 -15.7898
  148 157.698 -9.72517 -50.9858
  149 157.062 -7.74092 51.6970
  150 339.188 52.0305 18.0779
  151 337.636 -32.3519 14.6500
  152 339.835 -18.8383 -22.4119
  153 349.918 -20.6263 14.7911
  154 321.209 -21.9309 -15.6351
  155 335.179 15.9480 -35.3457
  156 301.999 24.8538 121.674
  157 21.7762 18.5265 11.1349
  158 18.9720 15.5230 -8.50853
  159 294.022 18.5120 -7.24845
  160 319.455 7.13811 32.8930
  161 329.907 -4.39197 5.65972
  162 327.130 -5.12446 -5.72630
  163 304.395 -22.7782 3.01192
  164 323.349 -7.54748 -18.6367
  165 369.610 61.3888 -24.1442
  166 294.137 -19.2252 0.103173
  167 280.670 -31.8851 33.5164
  168 263.279 -6.28811 -2.00072
  169 263.603 -6.24730 2.07699
  170 324.836 -6.98350 17.3594
  171 282.672 -31.6976 -32.1576
  172 334.172 -31.1924 -23.1236
  173 376.714 67.1344 21.5406
  174 295.182 -15.7960 1.26905
  175 446.070 51.9459 -31.9744
  176 78.0598 5.42072 -39.5062
  177 75.8753 5.02247 38.4936
  178 549.902 104.961 55.1343
  179 464.248 84.6901 14.9021
  180 568.191 65.7835 -35.8108
  181 323.477 -4.13749 2.08947
  182 323.093 -4.04761 -2.11357
  183 194.815 -6.26328 -20.0080
  184 194.834 -6.34363 20.0737
  185 156.845 -5.83004 -31.4852
  186 157.989 -5.86517 32.0080
  187 95.1780 68.1450 -86.8407
  188 310.131 -1.69747 25.3923
  189 327.810 -24.0223 16.1008
  190 212.095 -2.77277 -7.10507
  191 211.700 -2.93124 7.18092
  192 47.3085 47.4335 49.9053
  193 303.833 0.502211 -24.4615
  194 321.900 -16.7660 18.8387
  195 291.159 4.63928 21.4734
  196 332.626 -20.1661 -59.1592
  197 331.109 -5.20872 -10.5138
  198 300.198 -26.5614 2.68427
  199 360.033 72.4450 -11.1067
  200 336.175 -10.1876 30.6592
  201 225.684 -20.8625 -51.9055
  202 166.712 -0.419720 -68.2853
  203 162.887 0.635415 68.3082
  204 324.386 27.4365 27.3996
  205 237.092 0.652769 89.9070
  206 313.949 35.3627 5.26845
  207 402.718 46.1166 -18.1520
  208 332.046 -5.09973 9.39462
  209 225.752 -20.5436 52.2641
  210 286.182 -12.5115 0.975669
  211 543.006 136.061 -68.0575
  212 402.412 52.6229 19.7828
  213 233.315 -16.8425 -22.6879
  214 232.075 -15.7660 22.4072
  215 34.5649 11.9781 -21.0993
  216 39.6641 12.2140 24.1879
  217 265.123 -27.0442 25.5443
  218 280.321 -10.2464 -2.00592
  219 282.691 -5.79728 -0.231605
  220 285.756 -5.78005 0.128362
  221 265.825 -26.1933 -25.6784
  222 278.943 -18.9644 -6.18791
  223 331.481 -28.7673 43.3142
  224 401.225 87.9058 -6.63108
  225 466.620 92.7267 -7.72769
  226 372.372 10.7648 24.7226
  227 309.808 -10.3352 5.59577
  228 229.757 2.67727 -91.4815
  229 252.728 -15.8547 13.1570
  230 306.803 -11.8740 -4.68515
  231 372.589 -16.5047 4.66593
  232 317.474 25.2522 -26.3824
  233 354.677 -18.4107 -14.5258
  234 273.979 10.6349 5.17082
  235 236.114 -8.04904 -9.98461
  236 349.958 0.933882 -31.8063
  237 194.895 -2.96003 -10.2231
  238 194.701 -2.90148 9.91640
  239 210.074 -0.382302 -1.30727
  240 210.080 -0.366690 1.28790
  241 319.970 3.54173 -33.6785
  242 234.218 -7.98728 10.5420
  243 250.774 -15.4674 -13.9987
  244 115.140 84.0779 113.273
  245 18.8282 23.0231 -15.7299
  246 600.886 45.4069 13.3072
  247 273.601 4.76461 -11.4954
  248 310.534 -21.0142 -7.55614
  249 320.821 69.9968 -154.294
  250 325.876 -26.5462 -12.1459
  251 163.742 -5.29839 -20.8296
  252 163.973 -5.46227 21.0000
  253 323.222 -13.3026 -23.6634
  254 333.839 -4.62622 -33.3574
  255 241.475 -3.70663 -1.95384
  256 241.472 -3.72898 1.89098
  257 342.783 -2.03491 -2.23275
  258 343.094 -1.65603 2.20590
  259 315.663 -2.76761 -18.4911
  260 450.823 49.0176 93.4397
  261 294.622 -28.3843 -7.31411
  262 248.503 -7.06128 -5.26404
  263 247.308 -7.19125 5.51840
  264 -0.296831 -0.639419 -6.82150
  265 -1.48103 0.483590 7.15635
  266 88.2043 -2.31737 -31.9597
  267 87.6790 -1.96039 31.7351
  268 205.683 -1.42581 3.08606
  269 205.658 -1.44155 -3.12929
  270 315.613 -3.52697 17.5362
  271 365.352 76.0244 7.90572
  272 333.037 -30.9146 -2.80039
  273 340.255 40.3910 -29.4476
  274 329.212 -17.1791 -25.3310
  275 359.623 -20.8749 3.61811
  276 125.109 -2.79622 29.9008
  277 124.179 -2.97484 -29.4601
  278 331.587 -31.3768 -4.36209
  279 288.249 -32.5354 41.8491
  280 305.487 -4.74599 0.607922
  281 305.815 -4.53958 -0.573048
  282 342.178 -1.45946 -1.09412
  283 342.229 -1.68516 1.15456
  284 156.580 43.1134 101.878
  285 354.664 28.5235 -33.8333
  286 317.416 -26.9128 7.06623
  287 403.642 83.6616 10.7635
  288 289.801 2.90884 -19.8345
  289 281.363 -8.42271 1.01971
  290 389.240 62.2288 -22.8112
  291 318.241 -5.68266 83.7132
  292 339.105 60.2525 0.153979
  293 288.040 -30.9067 -43.7120
  294 306.822 -34.8659 18.4841
  295 292.036 -28.8425 10.2876
  296 453.486 92.8341 7.10715
  297 276.195 -18.8554 8.09058
  298 340.091 -2.45113 -5.24233
  299 319.476 -16.2367 -15.7209
  300 542.803 150.690 65.7661
  301 351.727 0.361175 30.7089
  302 333.336 -2.40538 -8.69236
  303 347.675 47.1245 26.6881
  304 377.211 -1.26219 -65.4152
  305 334.216 9.81171 35.3836
  306 10.8642 12.2121 5.79057
  307 198.765 -14.8702 42.4578
  308 318.082 -5.61832 3.28841
  309 316.947 -6.28446 -3.60376
  310 313.748 32.7864 -15.4291
  311 191.033 -12.8338 -41.0451
  312 204.594 -16.1927 -58.4805
  313 324.948 -7.43686 8.18332
  314 306.511 -17.6678 5.99779
  315 319.015 -1.59707 32.3077
  316 473.331 90.8578 -107.430
  317 322.488 -11.2621 22.2623
  318 321.734 -8.43859 -8.34279
  319 339.838 -2.10061 5.24392
  320 198.090 -2.13339 6.87818
  321 198.266 -2.35990 -6.98188
  322 55.1277 34.2007 -43.4104
  323 270.032 8.21748 -4.27642
  324 324.188 -9.77987 14.9502
  325 441.141 79.2759 0.354226
  326 323.181 40.4835 18.3288
  327 173.912 33.3827 -102.128
  328 199.921 -12.2317 58.8970
  329 301.505 17.8921 -20.1301
  330 332.339 -2.83753 9.47369
  331 320.835 -8.57220 -26.0922
  332 7.99628 4.57378 -0.553141
  333 60.1221 29.5249 40.1418
  334 240.684 -25.4314 41.8136
  335 -2.18068 5.83681 1.84295
  336 -1.50457 6.36804 -1.64551
  337 349.296 137.550 168.083
  338 319.556 -7.49970 26.2119
  339 666.644 71.2325 -84.5616
  340 312.586 18.3576 27.8988
  341 374.387 38.6815 27.3326
  342 268.164 -8.73333 3.50789
  343 275.168 4.85475 12.3427
  344 245.875 -27.1539 -39.5563
  345 308.776 -14.9309 -6.68012
  346 280.669 -15.5452 3.67534
  347 324.006 -9.17292 -15.3904
  348 312.969 -34.4136 -25.2466
  349 366.396 -20.0411 -13.3745
  350 296.056 22.3832 5.57113
  351 330.992 -28.2811 10.5475
  352 419.778 30.3557 3.62120
  353 184.295 -9.22847 30.7443
  354 297.118 -11.3983 1.94865
  355 288.175 -31.7418 -21.7532
  356 478.186 115.879 23.6483
  357 352.347 58.9239 -21.7052
  358 227.001 -4.84310 7.50822
  359 227.442 -5.24089 -7.65110
  360 182.968 -8.91772 -31.2292
  361 116.120 102.019 -117.744
  362 271.770 -5.16724 -1.15200
  363 272.611 -5.45462 0.931659
  364 172.970 -1.82752 -10.7957
  365 172.934 -1.86642 10.9128
  366 621.533 23.8275 -12.4465
  367 629.537 42.9874 39.8750
  368 290.537 -23.4330 -4.93917
  369 391.163 12.4310 87.1930
  370 140.625 -0.555999 54.5521
  371 140.754 -1.48969 -54.8233
  372 290.890 -18.4326 67.9361
  373 293.018 2.31483 20.4101
  374 307.388 3.44007 28.7394
  375 282.456 -32.6114 25.8179
  376 82.6026 17.3022 -47.1090
  377 81.6084 14.0174 45.3194
  378 38.1342 2.84780 -19.6145
  379 38.3505 2.41313 19.8107
  380 309.466 -27.7468 -50.5791
  381 227.153 -1.97865 -1.90974
  382 227.156 -1.95111 1.90102
  383 458.228 87.9288 -0.669093
  384 279.538 -15.1020 -3.83578
  385 296.253 -7.54907 -85.6807
  386 314.429 -28.9179 -2.72321
  387 433.618 78.8863 -3.88437
  388 379.729 32.9369 -27.6221
  389 325.060 -18.2158 22.3299
  390 212.026 -5.32128 -11.7667
  391 211.342 -4.79429 11.1806
  392 281.161 -7.23548 -0.930835
  393 263.087 -8.92749 -4.69926
  394 204.687 -12.2374 28.0506
  395 204.429 -12.2000 -28.5630
  396 25.5607 38.4706 -31.5888
  397 322.127 15.0207 -32.5978
  398 247.914 -17.2681 17.7446
  399 400.969 28.0193 -93.4266
  400 315.044 -20.7848 10.7326
  401 42.4476 52.1709 53.4082
  402 316.392 -2.82511 -30.6191
  403 200.616 -1.28005 4.04898
  404 200.545 -1.22117 -4.06726
  405 328.100 -2.68766 0.886682
  406 327.983 -2.52548 -0.793239
  407 338.033 -20.8776 20.2823
  408 157.687 -8.94762 -41.8440
  409 340.847 -1.75204 -5.63989
  410 160.123 -9.25463 42.1522
  411 392.263 8.20827 -8.06676
  412 330.652 -15.8753 26.6536
  413 292.078 -19.2665 -0.924128
  414 519.588 112.794 -44.5180
  415 322.427 -12.1763 18.3490
  416 518.286 95.2846 30.9139
  417 387.303 82.2200 9.47298
  418 147.091 -3.17444 -18.9582
  419 147.209 -3.04362 19.2838
  420 58.6571 -0.486186 -22.7201
  421 57.8850 -0.461961 22.2549
  422 323.649 -2.71488 -13.1518
  423 661.054 92.8915 85.5132
  424 170.487 11.7398 80.8609
  425 212.883 -10.0407 -19.3256
  426 212.563 -10.0200 19.5231
  427 233.983 -19.9689 28.7148
  428 194.403 57.6755 -133.352
  429 384.090 83.9627 -5.15535
  430 235.127 -19.6967 -29.0970
  431 348.554 -1.32778 -2.25080
  432 359.260 65.2516 18.9845
  433 373.668 74.6518 -15.0419
  434 251.806 -18.3320 -17.8070
  435 478.398 111.095 -21.3901
  436 258.596 -27.2675 53.4395
  437 408.841 6.73592 -19.3166
  438 274.293 -18.6920 -73.8062
  439 305.058 4.22181 -28.2162
  440 285.247 -28.6578 -15.0725
  441 567.954 53.3079 -10.2257
  442 559.796 66.7950 33.8947
  443 320.775 -22.6409 14.2655
  444 -0.187957 5.19571 -4.71159
  445 0.617085 5.55350 4.68828
  446 418.993 84.3970 8.51031
  447 308.217 -1.30060 16.1162
  448 280.381 -24.1804 10.4354
  449 221.813 -8.34385 77.3244
  450 1.26970 -6.95807 -5.79949
  451 245.118 -22.3821 -56.6602
  452 312.760 -24.6913 -7.15583
  453 309.893 -5.59221 2.25757
  454 309.845 -5.31770 -1.77605
  455 131.080 12.6245 -67.3115
  456 323.446 -2.23761 12.4101
  457 44.6300 21.0764 -27.6858
  458 14.9590 15.5417 15.4193
  459 122.017 -0.935704 -17.2503
  460 121.637 -0.750316 17.2922
  461 705.377 162.893 -130.812
  462 305.594 -0.879685 -16.6824
  463 315.543 -8.74246 -5.85250
  464 306.319 -13.2939 5.11891
  465 294.872 11.8751 20.9785
  466 329.571 -1.07965 34.4226
  467 292.528 -5.17877 0.201333
  468 293.704 -5.08560 -0.374692
  469 112.779 8.30829 53.7706
  470 245.174 -8.21756 7.68056
  471 388.213 20.0438 18.5926
  472 365.598 -21.4111 27.2234
  473 423.033 90.9255 -0.614984
  474 349.296 -0.936042 2.23441
  475 297.131 -15.1606 -1.82438
  476 256.780 -4.41820 -1.25922
  477 256.626 -4.27042 1.16281
  478 92.3811 42.6235 69.1777
  479 298.358 -11.0200 -1.91007
  480 40.6763 22.3146 24.9513
  481 91.8901 43.9395 -68.2617
  482 324.169 46.1901 -5.04499
  483 265.286 -15.1361 -8.56952
  484 241.570 -5.03418 -4.14335
  485 241.755 -4.88380 4.21725
  486 342.555 -29.4439 -2.56744
  487 341.404 -2.17343 5.58021
  488 441.544 31.4854 39.6124
  489 334.527 40.3328 25.9064
  490 269.178 -20.7960 -11.8756
  491 329.771 52.2508 7.23458
  492 4.37691 -10.6410 -1.19271
  493 96.1414 103.014 112.771
  494 338.209 27.9053 32.3556
  495 246.842 -8.23530 -7.04880
  496 291.233 0.530840 -14.0758
  497 234.110 18.7964 105.179
  498 302.031 -22.9194 -1.91819
  499 350.371 -28.9128 19.5903
  500 328.061 -6.14342 -8.49786
  501 517.548 79.3073 -12.2132
  502 86.9861 -0.124903 -20.3348
  503 87.1335 0.0362778 20.6645
  504 330.461 -3.17457 -3.42335
  505 329.209 -3.45293 3.54000
  506 188.221 -12.7339 51.3259
  507 233.589 -10.0954 -13.2105
  508 222.612 -6.21488 -77.4165
  509 194.241 -15.2434 -49.3361
  510 179.750 -1.45680 -7.43935
  511 179.681 -1.50496 7.38003
  512 320.607 -30.0045 4.20650
  513 237.730 -11.7752 14.4641
  514 339.756 3.91949 -34.9014
  515 249.622 -12.2001 10.6610
  516 265.008 -27.7676 32.2475
  517 411.047 31.8235 4.10388
  518 158.366 -0.600675 -10.7443
  519 158.415 -0.644144 10.8968
  520 410.156 86.7656 -9.36043
  521 359.868 -3.15797 -25.0548
  522 360.066 -5.88809 22.2218
  523 325.002 -17.7745 -22.2173
  524 253.617 -21.7786 22.1914
  525 642.781 36.9220 -42.4305
  526 356.379 -24.2216 0.467352
  527 269.568 2.77055 -11.1707
  528 272.830 -11.3101 3.54227
  529 328.050 38.1657 -24.0348
  530 544.035 157.711 104.752
  531 319.028 -7.35911 5.91909
  532 294.591 -6.44188 0.327914
  533 297.557 -5.76717 -0.673005
  534 333.903 -26.2520 -12.9452
  535 263.940 -15.6234 9.06185
  536 201.464 0.0413961 -1.81788
  537 201.484 0.0472670 1.79136
  538 266.254 -28.7310 -31.2875
  539 342.632 59.0914 -11.8402
  540 322.112 -9.62989 -11.0831
  541 273.665 2.33749 13.0875
  542 322.274 -12.4992 -19.1189
  543 203.322 0.0113020 -0.386740
  544 203.321 0.0187302 0.377306
  545 373.904 -15.5162 -31.1464
  546 256.816 -23.1796 -22.5256
  547 371.511 -5.79127 -14.6690
  548 343.108 -21.7149 53.2298
  549 330.981 -5.24069 7.61896
  550 350.888 -1.12256 1.17989
  551 350.837 -1.00611 -1.03955
  552 313.211 -34.1483 -15.4401
  553 322.604 -32.9726 33.3799
  554 185.626 -1.00316 -4.86113
  555 185.524 -0.995466 4.81961
  556 293.325 -29.0018 51.2103
  557 330.391 26.6619 -31.1982
  558 254.186 -26.6421 -46.0253
  559 326.269 18.5584 33.7081
  560 313.045 -34.6931 26.4286
  561 253.987 2.91175 4.74237
  562 277.379 -7.09147 1.26639
  563 341.637 -8.40490 -30.1516
  564 427.037 91.4408 0.516269
  565 348.920 -13.0777 -24.1775
  566 264.771 -19.4994 13.1039
  567 215.089 -2.54472 5.34219
  568 215.127 -2.58151 -5.42104
  569 309.297 -8.47873 3.03140
  570 249.206 -11.7235 -10.3932
  571 320.104 -5.52196 20.8499
  572 343.268 -24.0078 -13.7694
  573 290.353 -8.68022 0.0660151
  574 527.123 158.360 -72.8540
  575 290.735 6.83584 -19.9806
  576 440.041 95.2012 -3.71985
  577 256.892 2.41709 -7.40169
  578 315.812 -11.0929 7.65902
  579 92.8493 59.5494 87.9286
  580 309.277 29.2068 14.5942
  581 171.258 13.3058 -82.0788
  582 342.960 -28.8766 -1.64944
  583 315.375 -3.61110 -25.0800
  584 353.904 43.6567 -30.4053
  585 -2.65825 -3.11306 -5.64822
  586 -3.38869 -2.79054 5.74395
  587 217.489 -1.71699 -3.09352
  588 217.489 -1.69256 3.06525
  589 332.158 -21.6381 -20.4651
  590 334.738 -14.2465 -27.8863
  591 32.2899 30.2110 27.1200
  592 313.725 27.1525 22.2351
  593 284.922 -13.3890 -1.26501
  594 281.749 -4.96501 -0.0498251
  595 281.024 -4.91287 -0.196319
  596 288.443 13.1957 13.8712
  597 638.260 14.7065 9.30761
  598 234.508 -13.6531 -17.9675
  599 251.317 3.57736 1.07643
  600 329.473 5.51251 -35.4188
  601 258.137 -29.4419 46.8591
  602 7.54592 3.47155 10.9113
  603 6.56788 2.89108 -10.2570
  604 347.240 15.6310 -34.9875
  605 306.692 31.9874 -3.94775
  606 325.882 -22.7224 -18.2969
  607 192.004 -4.13653 -14.5505
  608 191.654 -4.44486 14.5486
  609 335.471 -1.91653 1.91089
  610 335.342 -1.92144 -2.00017
  611 326.199 -3.16425 -33.8377
  612 318.495 -14.9333 13.6889
  613 230.422 -13.0581 18.8792
  614 19.3134 14.8714 -10.8763
  615 327.391 187.253 -192.912
  616 328.121 -5.86059 13.4162
  617 326.829 -5.50404 -14.3232
  618 258.867 12.8048 -104.949
  619 308.022 -8.96943 -3.75151
  620 276.425 -26.0870 16.6564
  621 358.362 73.3130 -0.366349
  622 122.945 -4.91299 -38.2093
  623 124.051 -4.88789 38.5158
  624 391.648 65.7794 20.2396
  625 316.733 -20.4698 -12.7534
  626 282.737 15.5179 -0.00102274
  627 307.752 -29.4824 -2.66086
  628 173.934 -4.70997 18.0592
  629 173.816 -4.67688 -17.8308
  630 224.348 -5.77255 -10.0029
  631 214.185 -0.690393 -1.40540
  632 214.188 -0.671673 1.39537
  633 314.721 -11.6586 -7.68501
  634 352.757 -0.503014 -0.576572
  635 352.645 -0.586821 0.734799
  636 412.675 78.1413 -13.8765
  637 196.326 60.1289 125.018
  638 377.525 -4.78639 11.3821
  639 167.420 27.0834 90.8732
  640 73.9226 21.1336 43.9952
  641 385.329 17.2215 -21.4720
  642 324.325 -30.5306 -3.53051
  643 230.859 -3.17851 -3.40740
  644 230.929 -3.13295 3.41699
  645 313.865 -3.30749 -0.454718
  646 314.119 -3.39218 0.515769
  647 246.157 -25.1051 -33.9493
  648 113.860 5.95382 -54.3853
  649 189.482 -1.01920 3.06215
  650 189.425 -1.07350 -3.01327
  651 733.346 196.894 149.538
  652 367.425 41.8483 -30.8334
  653 328.752 -10.4968 -30.6530
  654 324.887 -11.8319 -27.8061
  655 343.204 28.3043 -34.0927
  656 206.913 -5.43713 -14.7649
  657 206.124 -5.78421 14.4240
  658 305.307 -26.6374 0.564910
  659 2.20717 -8.62927 6.31079
  660 341.957 -0.543786 33.5636
  661 21.1853 14.0142 11.3208
  662 304.931 8.55784 27.2455
  663 50.5225 47.9932 -46.4655
  664 285.548 11.8723 -14.2119
  665 338.092 -2.35433 4.11095
  666 282.239 -25.2229 -11.1899
  667 319.931 -5.86452 -21.8426
  668 98.4518 -0.617869 14.9276
  669 98.8177 -0.521831 -14.9897
  670 387.819 76.8062 -16.3428
  671 176.497 -8.86162 -62.7275
  672 314.060 -17.1768 -10.4239
  673 274.586 -11.6079 -3.92988
  674 337.572 -2.87999 -3.96294
  675 361.243 51.6133 27.0276
  676 60.5355 12.2683 -33.2369
  677 58.9713 8.21754 32.9259
  678 327.083 -7.98093 31.9213
  679 288.584 -21.8206 4.24478
  680 321.771 -17.0497 -18.8092
  681 474.930 118.387 -26.6402
  682 379.744 82.2697 3.22230
  683 278.056 -9.82118 1.98121
  684 361.195 13.7469 31.8220
  685 326.519 -34.1297 10.1799
  686 221.440 -5.51320 10.0305
  687 293.186 -31.6091 16.1391
  688 341.364 -1.45535 0.0689646
  689 341.327 -1.58677 -0.0352400
  690 477.892 105.739 24.4154
  691 185.098 -7.49469 24.4977
  692 26.2324 26.9388 -19.2606
  693 -7.80586 0.174472 6.62306
  694 -6.88196 0.346374 -6.84261
  695 161.752 -6.33066 26.8419
  696 79.7421 30.7418 -50.9848
  697 6.28343 -2.13553 -8.22838
  698 313.042 -25.0909 7.06498
  699 216.640 -12.9249 -68.4304
  700 244.670 -24.9696 33.4416
  701 303.774 -19.0606 -4.18125
  702 4.19700 -10.2127 -2.56356
  703 361.789 17.3525 -31.9016
  704 325.057 -31.8508 -0.464713
  705 320.456 -26.2408 -11.2182
  706 312.754 9.35667 -30.8666
  707 184.732 -7.52828 -24.5295
  708 31.7448 51.2640 -49.5182
  709 311.508 17.1416 -28.6814
  710 -0.520688 -8.39491 -6.57168
  711 293.210 0.175058 13.3676
  712 161.184 -6.06839 -26.5435
  713 207.432 -11.5739 68.0041
  714 289.305 -9.76068 0.138194
  715 238.505 -5.40655 -5.47233
  716 172.887 -6.86434 61.7517
  717 100.931 1.00321 -42.3728
  718 99.4063 0.743325 41.5027
  719 237.717 -5.14551 5.65759
  720 57.6697 1.16521 -17.2316
  721 57.9873 1.27042 17.1308
  722 258.346 -9.69513 5.98686
  723 312.846 -0.459611 -11.3589
  724 367.900 38.4072 132.105
  725 252.126 -4.84027 -2.95291
  726 251.979 -4.96717 2.85488
  727 322.202 -9.37912 -22.9983
  728 244.272 -3.27511 -1.60322
  729 244.209 -3.16268 1.55531
  730 315.100 -3.44295 22.4212
  731 321.932 -33.8699 5.36544
  732 257.683 -6.79708 3.68330
  733 23.9011 -0.661948 -11.4872
  734 24.0840 -0.981045 11.3193
  735 257.219 -6.08683 -3.47574
  736 5.82772 6.51471 -2.44881
  737 346.241 -25.7329 -36.3934
  738 391.256 -5.48425 11.5644
  739 119.213 17.5903 63.2341
  740 196.869 -0.0259676 2.02310
  741 196.819 -0.00598553 -2.05095
  742 302.937 -30.8764 6.87648
  743 587.067 83.5348 -67.2562
  744 276.435 0.599285 -10.8464
  745 273.580 -6.53262 -1.46802
  746 246.073 87.1512 152.677
  747 346.990 13.5982 34.8816
  748 313.772 -0.624351 10.9878
  749 353.971 -0.718132 -1.32428
  750 354.334 -0.910768 1.32600
  751 491.183 94.9171 -20.7341
  752 347.651 63.0530 8.97026
  753 269.964 -8.03696 -2.56144
  754 345.705 -1.45288 4.11331
  755 216.961 -12.7312 -24.4588
  756 316.502 -3.65889 1.64355
  757 316.362 -3.63901 -1.44552
  758 232.536 -19.1200 61.1375
  759 326.448 -34.7465 -14.0403
  760 323.497 -13.1728 24.6521
  761 216.600 -12.5257 24.2591
  762 337.982 48.7858 -21.5362
  763 278.353 2.10381 11.3961
  764 222.479 -20.7010 -45.9498
  765 271.586 -7.82681 2.34529
  766 320.680 -6.03525 30.3335
  767 199.511 0.288178 -0.664738
  768 199.518 0.292883 0.649300
  769 5.95354 8.51020 1.57797
  770 225.312 -7.71234 12.6163
  771 289.147 -7.30723 0.0782445
  772 320.104 -13.7386 -14.1531
  773 144.326 -0.693514 11.0379
  774 144.400 -0.715877 -10.8633
  775 347.139 -10.5545 26.7872
  776 320.110 -7.18784 -28.9944
  777 120.583 -4.86796 -44.1286
  778 121.012 -4.28758 43.8175
  779 336.997 -27.7638 7.62025
  780 320.929 -10.3770 11.2080
  781 492.831 90.8225 43.9719
</Section>

newXOutput 19

<Section columns = "stress_xx | stress_yy | stress_xy">
  1 379.766 0.290664 0.485198
  2 379.919 0.239201 -0.463599
  3 210.944 -0.0853260 -0.363105
  4 -2.60656 -2.96648 -3.47476
  5 689.233 277.646 226.001
  6 651.820 250.884 -189.231
  7 -3.45278 -2.96755 3.97372
  8 210.952 -0.0894045 0.357918
  9 381.039 -0.372090 -0.0560753
  10 381.154 -1.33475 0.970361
  11 379.757 -1.06327 0.653700
  12 373.135 -1.18648 2.35136
  13 369.854 -1.31759 2.74192
  14 362.501 -1.81993 4.54135
  15 350.148 -1.29107 6.97251
  16 335.715 -0.587898 8.10064
  17 319.021 0.426264 9.45477
  18 294.777 1.26240 7.79152
  19 279.452 2.89533 9.17402
  20 267.739 2.21132 6.90419
  21 253.017 2.88990 1.94850
  22 256.955 4.27561 -2.61278
  23 262.287 2.14019 -4.83360
  24 278.602 2.01117 -8.01581
  25 293.742 0.850629 -8.76288
  26 318.838 0.480945 -9.84843
  27 335.318 -0.967462 -8.71533
  28 351.444 -1.44544 -7.05985
  29 362.390 -1.21933 -5.03205
  30 368.023 -1.23684 -4.19328
  31 373.924 -1.76008 -1.65926
  32 379.779 -0.916091 -0.284635
  33 381.248 -1.13888 -0.851722
  34 381.225 -0.482943 0.120070
  35 367.857 -0.731676 -0.710457
  36 352.416 -1.91937 -0.793949
  37 338.122 -3.62681 -1.08912
  38 321.342 -4.59894 -1.23743
  39 304.410 -5.18543 -0.944438
  40 285.210 -4.82876 -0.356707
  41 266.597 -3.96147 -0.204318
  42 249.805 -3.04852 0.194675
  43 234.891 -1.43824 0.478906
  44 220.711 -0.485625 -0.0334759
  45 206.717 0.605943 0.0143119
  46 205.886 0.515056 0.942884
  47 204.238 0.115058 0.628269
  48 200.758 -0.377976 1.77228
  49 193.375 0.00691412 2.45910
  50 186.839 -0.540240 3.65297
  51 178.748 -0.418155 5.26578
  52 164.809 -0.00135646 5.65355
  53 148.733 0.135872 6.55547
  54 133.238 -0.230084 10.2626
  55 103.621 0.697015 9.54422
  56 83.1777 0.785627 11.1767
  57 55.0098 1.08501 10.0534
  58 29.3236 0.424903 11.0395
  59 3.53716 3.11657 11.1173
  60 -13.8599 3.68882 5.66442
  61 -19.8861 3.55466 -0.311734
  62 -16.5684 2.68682 -6.09639
  63 -9.70583 -0.878655 -5.28837
  64 -1.03855 -9.79844 -4.96281
  65 0.578146 -18.7902 -6.65847
  66 2.45261 -30.0139 -3.84311
  67 8.18892 -30.1235 0.576437
  68 14.2251 -1.59230 17.1089
  69 42.2268 63.3165 60.3029
  70 183.409 202.578 186.419
  71 891.813 96.6889 140.809
  72 723.656 30.5002 47.1228
  73 690.591 17.0766 18.8941
  74 680.688 10.9577 -1.11609
  75 688.179 14.3564 -16.7564
  76 734.359 27.1701 -45.6277
  77 849.247 79.5604 -121.293
  78 147.431 231.195 -178.448
  79 34.6097 36.6271 -46.2610
  80 13.1302 -1.58417 -17.7894
  81 4.03287 -29.8311 -2.46667
  82 2.45261 -23.2942 2.85673
  83 2.77941 -23.6782 5.53036
  84 0.237847 -8.90801 6.28626
  85 -10.4115 -0.735856 5.22521
  86 -17.3868 2.59500 5.94644
  87 -20.3195 3.52131 0.179403
  88 -14.1931 3.46019 -5.57969
  89 2.95562 3.46238 -10.9360
  90 28.8966 0.529264 -11.1977
  91 54.8294 1.01707 -10.2243
  92 83.4628 0.773769 -11.2564
  93 104.024 0.676401 -9.62006
  94 133.655 -0.321823 -10.1608
  95 148.922 0.134406 -6.42738
  96 164.781 0.0647148 -5.58604
  97 178.771 -0.402208 -5.29752
  98 186.802 -0.545878 -3.64530
  99 193.354 0.00358738 -2.46404
  100 200.686 -0.367017 -1.76253
  101 204.179 0.118387 -0.646283
  102 205.864 0.511928 -0.959717
  103 206.717 0.601555 -0.0239441
  104 220.710 -0.500022 0.0269035
  105 234.886 -1.46597 -0.487685
  106 249.794 -3.08971 -0.186526
  107 266.794 -4.06401 0.252943
  108 285.387 -4.86745 0.301067
  109 303.821 -5.19774 0.899100
  110 321.099 -4.39227 1.12530
  111 338.189 -3.77215 1.09333
  112 352.402 -2.04500 0.788976
  113 367.747 -0.859313 0.764647
  114 325.699 -34.3745 -9.58105
  115 329.346 -34.2630 6.82577
  116 347.796 49.5422 -17.3313
  117 277.798 -23.1544 -67.6693
  118 269.519 -21.4586 69.0719
  119 375.172 35.5282 33.9821
  120 393.515 10.6156 -27.2683
  121 278.449 -12.2715 -7.34562
  122 277.001 -12.9761 7.58612
  123 429.727 95.0411 1.28256
  124 331.161 -15.1839 9.44242
  125 333.790 -14.3518 -10.7729
  126 341.814 -7.54220 -32.8939
  127 232.629 -19.3856 37.2825
  128 232.297 -19.5379 -39.1054
  129 343.521 -11.9878 29.6502
  130 465.610 104.669 3.39201
  131 123.174 29.1150 -73.3844
  132 119.133 29.6077 72.2377
  133 413.544 0.523958 -2.74348
  134 482.200 109.621 -13.5019
  135 319.112 21.7966 18.9999
  136 316.515 -8.77395 1.48524
  137 318.236 -8.14952 -1.69231
  138 411.564 -5.32566 44.8022
  139 232.505 -9.81663 -16.9962
  140 232.554 -9.77646 16.2852
  141 315.153 20.6343 -117.706
  142 550.962 76.5316 10.4820
  143 322.165 11.3438 -28.5249
  144 241.010 -3.40580 -4.74108
  145 240.965 -3.39172 4.77082
  146 279.834 -23.2111 17.0030
  147 285.322 -24.3030 -16.8038
  148 166.901 -10.2971 -53.9712
  149 166.230 -8.20130 54.7236
  150 358.488 54.9706 18.9756
  151 356.568 -34.1789 15.7127
  152 358.973 -19.9121 -23.4087
  153 369.567 -21.7961 15.3438
  154 339.344 -23.1768 -16.2983
  155 354.178 16.8484 -37.1068
  156 318.797 26.3585 128.672
  157 23.1371 19.6334 11.9042
  158 20.1780 16.4505 -9.11396
  159 310.936 19.5928 -7.62296
  160 337.630 7.54608 34.5526
  161 348.435 -4.66109 5.88957
  162 345.515 -5.43473 -5.95689
  163 321.622 -24.0645 3.00730
  164 341.631 -7.98481 -19.5263
  165 390.506 64.8416 -25.2732
  166 310.822 -20.3074 0.253271
  167 296.563 -33.6909 35.5613
  168 278.372 -6.63894 -2.15304
  169 278.712 -6.59703 2.23374
  170 343.186 -7.39036 18.1841
  171 298.674 -33.4930 -34.1274
  172 352.904 -32.9529 -24.6588
  173 397.993 70.9035 22.5221
  174 311.923 -16.6873 1.21128
  175 470.716 55.0279 -34.1727
  176 82.7677 5.71395 -41.8683
  177 80.4574 5.29384 40.7994
  178 580.226 110.772 58.2629
  179 489.981 89.5705 16.1835
  180 599.388 69.4051 -37.7974
  181 341.654 -4.39462 2.15641
  182 341.250 -4.30020 -2.18227
  183 206.222 -6.60707 -21.1767
  184 206.243 -6.69186 21.2461
  185 166.107 -6.16011 -33.3124
  186 167.313 -6.19747 33.8657
  187 100.689 72.1528 -91.9797
  188 327.808 -1.79242 26.6700
  189 346.294 -25.3873 16.7696
  190 224.518 -2.91881 -7.53722
  191 224.103 -3.08582 7.61637
  192 50.1322 50.2853 52.9686
  193 321.205 0.534063 -25.7025
  194 340.083 -17.7226 19.6933
  195 307.907 4.92211 22.5799
  196 351.191 -21.2842 -62.6987
  197 349.740 -5.52002 -10.9919
  198 317.191 -28.0578 3.01031
  199 380.474 76.5058 -11.6382
  200 355.154 -10.7734 32.1281
  201 238.601 -22.0587 -54.9528
  202 176.342 -0.477560 -72.2851
  203 172.307 0.639127 72.3122
  204 342.863 28.9985 28.7825
  205 250.500 0.677117 95.1348
  206 331.911 37.3882 5.53808
  207 425.255 48.7429 -18.8151
  208 350.718 -5.40529 9.81681
  209 238.674 -21.7220 55.3281
  210 302.454 -13.2177 1.13231
  211 572.960 143.650 -71.9924
  212 424.956 55.6141 20.5512
  213 246.763 -17.7814 -24.0462
  214 245.459 -16.6451 23.7468
  215 36.7410 12.6649 -22.4165
  216 42.1293 12.9126 25.6865
  217 280.227 -28.5664 27.1112
  218 296.290 -10.8236 -2.19929
  219 298.786 -6.13133 -0.283695
  220 302.008 -6.11478 0.175915
  221 280.963 -27.6671 -27.2531
  222 294.826 -20.0256 -6.66043
  223 350.028 -30.3822 45.9665
  224 423.868 92.8054 -6.85620
  225 492.709 97.8526 -8.25810
  226 393.267 11.3779 25.8001
  227 327.312 -10.9316 5.78992
  228 242.762 2.81236 -96.7960
  229 267.233 -16.7348 13.9853
  230 324.151 -12.5543 -4.82522
  231 393.386 -17.4126 5.22943
  232 335.588 26.6960 -27.7247
  233 374.576 -19.4532 -15.0576
  234 289.865 11.2675 5.43980
  235 249.774 -8.49097 -10.6020
  236 369.679 0.979217 -33.3166
  237 206.378 -3.11797 -10.8248
  238 206.174 -3.05641 10.5014
  239 222.449 -0.396732 -1.39061
  240 222.455 -0.380271 1.37025
  241 338.162 3.74561 -35.3761
  242 247.778 -8.42519 11.1903
  243 265.176 -16.3256 -14.8733
  244 121.762 89.0012 119.903
  245 19.9897 24.4983 -16.7929
  246 633.663 47.8953 14.0237
  247 289.465 5.06334 -12.0935
  248 328.088 -22.2045 -7.79962
  249 338.477 74.1771 -163.064
  250 344.246 -28.0519 -12.5954
  251 173.446 -5.59242 -22.0362
  252 173.688 -5.76601 22.2160
  253 341.496 -14.0653 -24.7859
  254 352.715 -4.89676 -34.9863
  255 255.448 -3.90703 -2.08740
  256 255.445 -3.93060 2.02118
  257 361.925 -2.17130 -2.31637
  258 362.252 -1.77139 2.28919
  259 333.602 -2.92980 -19.4089
  260 475.449 52.1304 99.0101
  261 311.317 -29.9816 -7.89287
  262 262.825 -7.45000 -5.61098
  263 261.568 -7.58680 5.87904
  264 -0.276262 -0.643796 -7.17155
  265 -1.52700 0.537589 7.52530
  266 93.5571 -2.46001 -33.8462
  267 93.0010 -2.08243 33.6099
  268 217.809 -1.49745 3.27698
  269 217.782 -1.51398 -3.32251
  270 333.552 -3.72844 18.4050
  271 386.081 80.2793 8.27344
  272 351.764 -32.6653 -2.71525
  273 359.575 42.6730 -30.9139
  274 347.800 -18.1598 -26.5151
  275 379.756 -22.0492 3.53405
  276 132.597 -2.95754 31.6421
  277 131.614 -3.14643 -31.1755
  278 350.223 -33.1537 -4.84373
  279 304.524 -34.3820 44.3753
  280 322.748 -5.03348 0.609580
  281 323.093 -4.81626 -0.573739
  282 361.272 -1.56459 -1.13502
  283 361.326 -1.80209 1.19832
  284 165.543 45.5713 107.819
  285 374.697 30.1303 -35.4742
  286 335.330 -28.4364 7.25175
  287 426.383 88.3428 11.1489
  288 306.477 3.08424 -20.8540
  289 297.388 -8.90055 1.14594
  290 411.151 65.7346 -23.8023
  291 335.993 -5.95783 88.6168
  292 358.421 63.6524 0.162244
  293 304.296 -32.6627 -46.3452
  294 324.128 -36.8368 19.7148
  295 308.586 -30.4662 11.0304
  296 478.879 97.9842 7.63000
  297 291.932 -19.9100 8.66730
  298 359.141 -2.60381 -5.47113
  299 337.519 -17.1636 -16.4133
  300 572.726 159.174 69.7189
  301 371.538 0.373242 32.1552
  302 352.113 -2.54849 -9.10409
  303 367.394 49.7813 27.9981
  304 398.102 -1.24196 -69.3456
  305 353.153 10.3637 37.1429
  306 11.5508 13.0227 6.24164
  307 210.271 -15.7174 44.9374
  308 335.995 -5.95681 3.39761
  309 334.804 -6.65906 -3.72504
  310 331.690 34.6626 -16.2169
  311 202.126 -13.5647 -43.4396
  312 216.349 -17.1338 -61.9002
  313 343.238 -7.87402 8.52592
  314 323.852 -18.6698 6.17346
  315 337.144 -1.68850 33.9248
  316 499.020 96.3569 -113.794
  317 340.730 -11.9070 23.3244
  318 339.859 -8.93108 -8.68916
  319 358.872 -2.23697 5.47249
  320 209.775 -2.24423 7.28587
  321 209.960 -2.48304 -7.39532
  322 58.4329 36.1917 -46.0745
  323 285.716 8.70893 -4.49964
  324 342.480 -10.3474 15.6332
  325 465.740 83.7920 -0.00395407
  326 341.619 42.7843 19.2584
  327 183.834 35.2783 -108.068
  328 211.419 -12.9503 62.3382
  329 318.795 18.9297 -21.1641
  330 351.060 -3.00652 9.92093
  331 339.014 -9.06403 -27.3667
  332 8.50043 4.93579 -0.682405
  333 63.7149 31.2425 42.6081
  334 254.446 -26.8751 44.2847
  335 -2.22713 6.19147 1.89134
  336 -1.51451 6.75392 -1.67994
  337 368.169 145.783 177.619
  338 337.677 -7.93086 27.4985
  339 702.720 75.1146 -89.0778
  340 330.433 19.4095 29.3220
  341 395.463 40.8684 28.5795
  342 283.503 -9.22121 3.77614
  343 291.111 5.15237 12.9833
  344 259.918 -28.6927 -41.9041
  345 326.234 -15.7809 -6.90599
  346 296.649 -16.4164 3.99792
  347 342.293 -9.70446 -16.0992
  348 330.579 -36.3617 -26.8660
  349 386.846 -21.1536 -14.4121
  350 313.076 23.6820 5.85909
  351 349.632 -29.8846 10.8971
  352 443.100 32.1514 4.21019
  353 195.072 -9.74665 32.5360
  354 313.959 -12.0479 1.95296
  355 304.495 -33.5336 -23.1427
  356 504.812 122.400 25.2776
  357 372.342 62.2390 -22.7609
  358 240.205 -5.10373 7.97009
  359 240.669 -5.52332 -8.12112
  360 193.674 -9.41888 -33.0474
  361 122.611 108.194 -124.572
  362 287.302 -5.46129 -1.24281
  363 288.187 -5.76446 1.01153
  364 183.243 -1.92622 -11.4210
  365 183.205 -1.96706 11.5446
  366 655.291 25.1338 -13.1109
  367 663.730 45.3367 41.9954
  368 307.025 -24.7495 -5.36780
  369 412.726 13.2860 92.3199
  370 148.855 -0.612487 57.7588
  371 148.992 -1.59977 -58.0426
  372 307.233 -19.4791 71.9368
  373 309.854 2.45534 21.4562
  374 324.942 3.64263 30.2015
  375 298.467 -34.4529 27.4275
  376 87.5223 18.2755 -49.9368
  377 86.4805 14.8018 48.0403
  378 40.5660 3.00624 -20.8112
  379 40.7935 2.54670 21.0185
  380 326.831 -29.3163 -53.6187
  381 240.397 -2.08059 -2.02700
  382 240.400 -2.05158 2.01784
  383 483.878 92.7835 -0.717042
  384 295.460 -15.9477 -4.16201
  385 312.827 -7.95183 -90.6785
  386 332.179 -30.5526 -2.66816
  387 457.833 83.3718 -3.72397
  388 401.063 34.8037 -28.8540
  389 343.421 -19.2549 23.3583
  390 224.416 -5.60882 -12.4686
  391 223.700 -5.05159 11.8473
  392 297.176 -7.64823 -1.04280
  393 278.162 -9.42484 -5.03182
  394 216.588 -12.9196 29.6945
  395 216.314 -12.8809 -30.2358
  396 27.1059 40.9133 -33.5858
  397 340.456 15.8764 -34.2450
  398 262.151 -18.2297 18.8340
  399 423.000 29.7932 -98.9197
  400 332.843 -21.9645 11.1429
  401 44.9466 55.4539 56.6662
  402 334.384 -2.98521 -32.1537
  403 212.461 -1.34509 4.29244
  404 212.386 -1.28304 -4.31172
  405 346.499 -2.86526 0.915103
  406 346.376 -2.69462 -0.816778
  407 357.070 -22.0663 21.1631
  408 166.937 -9.46482 -44.2850
  409 359.966 -1.86073 -5.89709
  410 169.506 -9.78920 44.6122
  411 414.149 8.70956 -8.17578
  412 349.323 -16.7824 27.9081
  413 308.655 -20.3512 -1.11883
  414 548.380 119.069 -47.1212
  415 340.640 -12.8761 19.1986
  416 547.019 100.549 32.7041
  417 409.204 86.8130 9.87678
  418 155.867 -3.35029 -20.0532
  419 155.990 -3.21230 20.3972
  420 62.3105 -0.522752 -24.0792
  421 61.4930 -0.496532 23.5878
  422 341.970 -2.87780 -13.7915
  423 696.893 97.9589 90.1054
  424 180.284 12.3756 85.5880
  425 225.268 -10.5942 -20.4686
  426 224.933 -10.5726 20.6761
  427 247.442 -21.0884 30.4205
  428 205.355 61.0312 -141.039
  429 405.834 88.6461 -5.38620
  430 248.642 -20.8013 -30.8261
  431 367.994 -1.41389 -2.34160
  432 379.635 68.9162 19.8957
  433 394.826 78.8334 -15.7309
  434 266.242 -19.3544 -18.9076
  435 504.953 117.420 -23.0009
  436 273.265 -28.8247 56.5960
  437 431.512 7.19343 -20.7411
  438 289.740 -19.7570 -78.1315
  439 322.499 4.47098 -29.6537
  440 301.432 -30.2708 -16.0764
  441 599.133 56.2286 -10.7875
  442 590.595 70.4588 35.7718
  443 338.883 -23.9268 14.8518
  444 -0.0581832 5.49434 -5.04418
  445 0.792299 5.87309 5.01988
  446 442.506 89.1474 8.69261
  447 325.802 -1.37413 16.9251
  448 296.326 -25.5371 11.1624
  449 234.439 -8.84510 81.8348
  450 1.36082 -7.29441 -6.08262
  451 259.063 -23.6678 -59.9912
  452 330.430 -26.0886 -7.36130
  453 327.383 -5.92725 2.32166
  454 327.332 -5.63803 -1.81954
  455 138.721 13.3120 -71.2805
  456 341.762 -2.37221 13.0153
  457 47.3454 22.3003 -29.4183
  458 15.8664 16.6340 16.4482
  459 129.389 -0.986801 -18.2513
  460 128.987 -0.790733 18.2961
  461 743.338 171.918 -137.877
  462 323.051 -0.928920 -17.5230
  463 333.340 -9.25305 -6.06995
  464 323.645 -14.0525 5.27006
  465 311.815 12.5698 22.0607
  466 348.240 -1.14590 36.1258
  467 309.126 -5.48453 0.187515
  468 310.364 -5.38687 -0.370574
  469 119.429 8.75769 56.9571
  470 259.315 -8.66878 8.17092
  471 409.938 21.1985 19.3011
  472 385.968 -22.5880 29.0247
  473 446.848 95.9741 -0.589512
  474 368.771 -1.00198 2.32537
  475 313.975 -16.0180 -1.79724
  476 271.542 -4.66315 -1.34924
  477 271.380 -4.50749 1.24739
  478 97.7887 45.0910 73.3070
  479 315.264 -11.6492 -1.91331
  480 43.1640 23.6075 26.5222
  481 97.2823 46.4717 -72.3409
  482 342.677 48.8151 -5.29933
  483 280.456 -15.9789 -9.15152
  484 255.542 -5.30743 -4.41150
  485 255.737 -5.14902 4.48949
  486 361.775 -31.1104 -2.96958
  487 360.555 -2.30139 5.83696
  488 465.886 33.4577 42.2230
  489 353.552 42.6166 27.2044
  490 284.540 -21.9578 -12.6615
  491 348.579 55.2092 7.59791
  492 4.65240 -11.0991 -1.35526
  493 101.578 109.318 119.354
  494 357.392 29.4808 33.9638
  495 261.068 -8.68817 -7.50517
  496 307.984 0.563821 -14.7949
  497 247.310 19.8841 111.273
  498 319.130 -24.2119 -1.85771
  499 369.960 -30.5346 20.9453
  500 346.514 -6.50911 -8.86500
  501 546.227 83.6764 -12.9260
  502 92.3304 -0.133951 -21.5260
  503 92.4850 0.0362386 21.8750
  504 348.998 -3.37709 -3.55342
  505 347.684 -3.67197 3.67324
  506 199.117 -13.4715 54.3242
  507 247.098 -10.6512 -14.0152
  508 235.276 -6.59675 -81.9299
  509 205.466 -16.1209 -52.2215
  510 190.427 -1.53475 -7.87125
  511 190.354 -1.58561 7.80889
  512 338.684 -31.7031 4.22109
  513 251.451 -12.4252 15.3463
  514 358.961 4.13424 -36.6104
  515 263.978 -12.8743 11.3360
  516 280.086 -29.3357 34.1958
  517 433.954 33.6850 3.96286
  518 167.823 -0.630593 -11.3644
  519 167.874 -0.676539 11.5251
  520 433.236 91.6199 -9.64734
  521 380.086 -3.33936 -26.1656
  522 380.282 -6.22408 23.1731
  523 343.359 -18.7884 -23.2422
  524 268.134 -22.9982 23.5479
  525 677.621 38.9465 -44.6949
  526 376.330 -25.5847 0.770710
  527 285.230 2.94081 -11.7502
  528 288.407 -11.9430 3.83059
  529 346.735 40.3319 -25.2455
  530 573.581 166.870 111.044
  531 337.001 -7.79346 6.14797
  532 311.297 -6.81767 0.292273
  533 314.415 -6.10767 -0.659867
  534 352.700 -27.7420 -13.4240
  535 279.039 -16.4937 9.67133
  536 213.393 0.0478761 -1.92867
  537 213.415 0.0540548 1.90076
  538 281.400 -30.3530 -33.1860
  539 362.130 62.4240 -12.4279
  540 340.274 -10.1889 -11.5638
  541 289.534 2.48069 13.7661
  542 340.481 -13.2167 -20.0067
  543 215.364 0.0165372 -0.412475
  544 215.363 0.0243684 0.402558
  545 394.703 -16.3483 -33.1805
  546 271.499 -24.4790 -23.9062
  547 392.306 -6.10930 -15.1806
  548 362.243 -22.9071 56.4531
  549 349.581 -5.55471 7.94713
  550 370.411 -1.19853 1.22550
  551 370.357 -1.07651 -1.07810
  552 330.858 -36.0806 -16.5107
  553 340.704 -34.8359 35.4655
  554 196.650 -1.05540 -5.14547
  555 196.543 -1.04743 5.10188
  556 309.839 -30.6491 54.2696
  557 349.171 28.1753 -32.7652
  558 268.645 -28.1598 -48.7510
  559 344.815 19.6107 35.4073
  560 330.659 -36.6563 28.1148
  561 268.856 3.09372 4.98993
  562 293.199 -7.49387 1.38741
  563 360.904 -8.88966 -31.5816
  564 451.057 96.5188 0.428911
  565 368.546 -13.8247 -25.2578
  566 279.902 -20.5868 13.9501
  567 227.689 -2.67714 5.66715
  568 227.729 -2.71585 -5.75024
  569 326.765 -8.97321 3.10924
  570 263.541 -12.3717 -11.0526
  571 338.249 -5.84272 21.8683
  572 362.561 -25.3706 -14.2780
  573 306.842 -9.17603 -0.00669441
  574 556.107 167.369 -77.3338
  575 307.462 7.24589 -21.0113
  576 464.728 100.501 -4.12236
  577 271.909 2.56981 -7.79093
  578 333.636 -11.7325 7.95578
  579 98.2571 63.0223 93.1369
  580 326.984 30.8851 15.3430
  581 181.099 14.0305 -86.8751
  582 362.208 -30.5101 -1.48338
  583 333.304 -3.81949 -26.3305
  584 373.936 46.1169 -31.8851
  585 -2.80334 -3.28514 -5.96627
  586 -3.57276 -2.94039 6.06319
  587 230.228 -1.80421 -3.28530
  588 230.229 -1.77842 3.25556
  589 350.884 -22.8700 -21.3672
  590 353.628 -15.0619 -29.2006
  591 34.2514 32.0301 28.8513
  592 331.653 28.7075 23.3690
  593 301.129 -14.1429 -1.44031
  594 297.796 -5.25355 -0.0327527
  595 297.033 -5.19863 -0.226289
  596 305.065 13.9726 14.5900
  597 672.811 15.5149 9.79511
  598 248.043 -14.4092 -19.0509
  599 266.050 3.79720 1.13396
  600 348.152 5.82021 -37.1840
  601 272.808 -31.1185 49.6367
  602 8.18130 3.66689 11.5970
  603 7.14804 3.05306 -10.9050
  604 366.858 16.5091 -36.6944
  605 324.270 33.8249 -4.14993
  606 344.271 -24.0142 -19.0928
  607 203.302 -4.36040 -15.4018
  608 202.933 -4.68585 15.3997
  609 354.244 -2.04934 1.98092
  610 354.109 -2.05434 -2.07492
  611 344.689 -3.34829 -35.5170
  612 336.480 -15.7865 14.2810
  613 243.741 -13.7813 20.0106
  614 20.5614 15.7418 -11.6070
  615 344.972 198.420 -203.683
  616 346.618 -6.20621 14.0398
  617 345.277 -5.82885 -14.9992
  618 273.398 13.5271 -111.008
  619 325.428 -9.48966 -3.86048
  620 292.146 -27.5521 17.7332
  621 378.720 77.4223 -0.381783
  622 130.260 -5.20321 -40.4459
  623 131.425 -5.17686 40.7708
  624 413.692 69.4869 21.0927
  625 334.625 -21.6332 -13.2732
  626 299.072 16.4304 -0.000806464
  627 325.140 -31.1460 -3.00408
  628 184.217 -4.96982 19.1058
  629 184.093 -4.93488 -18.8648
  630 237.397 -6.08504 -10.6109
  631 226.773 -0.721032 -1.48641
  632 226.777 -0.701304 1.47587
  633 332.486 -12.3303 -7.97980
  634 372.362 -0.546508 -0.600543
  635 372.245 -0.634768 0.766538
  636 435.833 82.5434 -14.3325
  637 207.422 63.5760 132.227
  638 398.631 -5.04153 11.7045
  639 177.008 28.6092 96.1800
  640 78.3251 22.3382 46.6617
  641 406.899 18.2088 -22.3401
  642 342.594 -32.2590 -3.50095
  643 244.285 -3.34653 -3.62125
  644 244.360 -3.29846 3.63144
  645 331.549 -3.51959 -0.462371
  646 331.816 -3.60864 0.526664
  647 260.235 -26.5223 -35.9726
  648 120.572 6.26593 -57.6057
  649 200.737 -1.07162 3.24435
  650 200.678 -1.12881 -3.19278
  651 772.555 207.836 157.633
  652 388.148 44.2070 -32.2908
  653 347.346 -11.0994 -32.1387
  654 343.268 -12.5101 -29.1483
  655 362.644 29.9011 -35.7799
  656 219.011 -5.73180 -15.6375
  657 218.181 -6.09796 15.2771
  658 322.574 -28.1405 0.411925
  659 2.35591 -9.08471 6.63644
  660 361.264 -0.582619 35.1909
  661 22.5429 14.8351 12.0779
  662 322.375 9.05736 28.6395
  663 53.5366 50.8290 -49.3197
  664 302.021 12.5754 -14.9507
  665 357.021 -2.50940 4.28045
  666 298.279 -26.6395 -11.9632
  667 338.067 -6.20358 -22.9119
  668 104.490 -0.653563 15.7969
  669 104.878 -0.552071 -15.8623
  670 409.712 81.1128 -17.0425
  671 186.700 -9.39480 -66.3937
  672 331.804 -18.1543 -10.8347
  673 290.255 -12.2581 -4.24046
  674 356.474 -3.06381 -4.12295
  675 381.674 54.5189 28.3186
  676 64.2223 12.9598 -35.2499
  677 62.5668 8.67487 34.9232
  678 345.599 -8.44074 33.4856
  679 304.972 -23.0459 4.62773
  680 339.946 -18.0228 -19.6591
  681 501.385 125.046 -28.4278
  682 401.257 86.8610 3.36654
  683 293.908 -10.3748 2.17294
  684 381.525 14.5191 33.3205
  685 344.875 -36.0600 10.9785
  686 234.338 -5.81132 10.6371
  687 309.784 -33.3914 17.2147
  688 360.415 -1.56010 0.0792555
  689 360.377 -1.69813 -0.0438818
  690 504.548 111.617 25.9633
  691 195.959 -7.90957 25.9223
  692 27.8459 28.5528 -20.5190
  693 -8.23049 0.192479 6.98487
  694 -7.25175 0.376697 -7.21773
  695 171.312 -6.68713 28.3982
  696 84.4744 32.5053 -54.0658
  697 6.68054 -2.01001 -8.82546
  698 330.728 -26.5111 7.26449
  699 229.015 -13.6885 -72.4232
  700 258.670 -26.3786 35.4340
  701 320.968 -20.1395 -4.25780
  702 4.45349 -10.6666 -2.63645
  703 382.160 18.3303 -33.4032
  704 343.359 -33.6541 -0.719962
  705 338.541 -27.7281 -11.6298
  706 330.596 9.89618 -32.4380
  707 195.573 -7.94542 -25.9556
  708 33.6150 54.5929 -52.5525
  709 329.300 18.1246 -30.1468
  710 -0.538860 -8.85580 -6.93112
  711 310.060 0.188000 14.0483
  712 170.715 -6.40901 -28.0828
  713 219.309 -12.2600 71.9774
  714 305.741 -10.3165 0.229708
  715 252.312 -5.69958 -5.82294
  716 182.892 -7.28359 65.3657
  717 106.959 1.04269 -44.8794
  718 105.347 0.768687 43.9622
  719 251.482 -5.42436 6.01820
  720 61.3234 1.22913 -18.2533
  721 61.6578 1.34049 18.1471
  722 273.174 -10.2325 6.38972
  723 330.661 -0.489372 -11.9248
  724 388.113 40.7958 139.674
  725 266.644 -5.10620 -3.15205
  726 266.491 -5.24011 3.04869
  727 340.432 -9.91848 -24.1050
  728 258.393 -3.45219 -1.70219
  729 258.326 -3.33365 1.65163
  730 333.012 -3.64319 23.5359
  731 340.055 -35.7857 5.88650
  732 272.483 -7.17381 3.94206
  733 25.5638 -0.702309 -12.1863
  734 25.7557 -1.03963 12.0088
  735 271.996 -6.42372 -3.72086
  736 6.22106 6.94422 -2.50343
  737 365.580 -27.1701 -38.6802
  738 413.025 -5.74087 12.5401
  739 126.185 18.5685 66.9767
  740 208.546 -0.0231900 2.14624
  741 208.494 -0.00209813 -2.17554
  742 320.067 -32.6178 7.44863
  743 619.224 88.1376 -70.9581
  744 292.448 0.638510 -11.4050
  745 289.205 -6.90259 -1.59483
  746 259.720 92.2152 161.374
  747 366.590 14.3595 36.5808
  748 331.631 -0.663226 11.5335
  749 373.657 -0.768229 -1.37659
  750 374.036 -0.970313 1.37870
  751 518.525 100.173 -22.0111
  752 367.426 66.6044 9.41005
  753 285.399 -8.48711 -2.76382
  754 365.043 -1.54574 4.29621
  755 229.536 -13.4375 -25.8997
  756 334.322 -3.88998 1.69770
  757 334.175 -3.86944 -1.48976
  758 245.792 -20.2255 64.7163
  759 344.793 -36.7130 -15.0589
  760 341.791 -13.9267 25.8281
  761 229.158 -13.2209 25.6883
  762 357.209 51.5438 -22.6083
  763 294.464 2.22411 11.9841
  764 235.253 -21.8799 -48.6440
  765 287.106 -8.26613 2.53779
  766 338.872 -6.38226 31.8364
  767 211.355 0.306092 -0.707515
  768 211.363 0.311051 0.691280
  769 6.35548 9.05213 1.58127
  770 238.395 -8.13409 13.3765
  771 305.574 -7.72797 0.145846
  772 338.175 -14.5254 -14.7757
  773 152.992 -0.727813 11.6759
  774 153.070 -0.751304 -11.4917
  775 366.679 -11.1609 28.0173
  776 338.272 -7.59944 -30.4271
  777 127.729 -5.16290 -46.7232
  778 128.183 -4.54914 46.3961
  779 355.945 -29.3373 7.79429
  780 339.030 -10.9781 11.6920
  781 519.898 96.1783 46.9344
</Section>

newXOutput 20

<Section columns = "stress_xx | stress_yy | stress_xy">
  1 399.581 0.290328 0.506942
  2 399.740 0.236581 -0.484564
  3 222.787 -0.0854300 -0.378464
  4 -2.74972 -3.12885 -3.66708
  5 723.262 292.662 237.579
  6 684.379 264.547 -199.038
  7 -3.64156 -3.12964 4.19394
  8 222.795 -0.0897191 0.373032
  9 400.914 -0.401777 -0.0644721
  10 401.047 -1.41016 1.00779
  11 399.606 -1.12448 0.672510
  12 392.716 -1.25903 2.44349
  13 389.317 -1.39023 2.85481
  14 381.655 -1.92077 4.73666
  15 368.772 -1.36638 7.28866
  16 353.701 -0.624426 8.47615
  17 336.246 0.445382 9.90117
  18 310.879 1.32917 8.16665
  19 294.828 3.04914 9.62087
  20 282.548 2.34182 7.24122
  21 267.121 3.04918 2.04471
  22 271.250 4.51729 -2.74255
  23 276.840 2.26335 -5.07126
  24 293.936 2.12223 -8.40490
  25 309.795 0.896434 -9.18369
  26 336.053 0.503943 -10.3149
  27 353.286 -1.02371 -9.11997
  28 370.124 -1.52744 -7.37876
  29 381.541 -1.29188 -5.25226
  30 387.404 -1.31219 -4.37287
  31 393.535 -1.86018 -1.71902
  32 399.628 -0.970990 -0.285684
  33 401.144 -1.20591 -0.883831
  34 401.107 -0.518382 0.130983
  35 387.138 -0.790254 -0.743339
  36 370.991 -2.04663 -0.828342
  37 356.032 -3.84504 -1.13445
  38 338.458 -4.86371 -1.28559
  39 320.717 -5.47251 -0.980845
  40 300.593 -5.08893 -0.361398
  41 281.083 -4.16730 -0.205918
  42 263.485 -3.20212 0.212008
  43 247.860 -1.50530 0.507479
  44 233.010 -0.504523 -0.0321857
  45 218.358 0.637563 0.0194332
  46 217.477 0.542561 0.996080
  47 215.726 0.122772 0.669694
  48 212.051 -0.394555 1.87572
  49 204.276 0.00976997 2.59571
  50 197.378 -0.566490 3.85264
  51 188.842 -0.437633 5.55231
  52 174.159 0.00116075 5.96397
  53 157.224 0.144977 6.91496
  54 140.881 -0.238598 10.8239
  55 109.679 0.734356 10.0702
  56 88.1153 0.826823 11.7911
  57 58.3883 1.14075 10.6193
  58 31.2533 0.443090 11.6724
  59 3.99371 3.28352 11.7646
  60 -14.4309 3.88841 6.01175
  61 -20.8670 3.75158 -0.292665
  62 -17.4390 2.84237 -6.40706
  63 -10.2285 -0.919216 -5.57031
  64 -1.08810 -10.3274 -5.22791
  65 0.619293 -19.7851 -7.00147
  66 2.59770 -31.5372 -4.00740
  67 8.65437 -31.5406 0.697507
  68 15.0409 -1.26967 18.1892
  69 44.5440 67.4664 63.7548
  70 192.727 214.272 196.230
  71 935.900 101.632 147.574
  72 760.265 32.0409 49.4314
  73 725.637 17.9564 19.8059
  74 715.273 11.5290 -1.17133
  75 723.135 15.1006 -17.5888
  76 771.473 28.5684 -47.8728
  77 891.571 83.6457 -127.167
  78 154.919 244.419 -187.839
  79 36.5331 39.3467 -49.0139
  80 13.8836 -1.22196 -18.9168
  81 4.26287 -31.2117 -2.68504
  82 2.60167 -24.4564 2.95552
  83 2.94303 -24.9361 5.80968
  84 0.254866 -9.38507 6.62407
  85 -10.9736 -0.768608 5.50342
  86 -18.3031 2.74525 6.24957
  87 -21.3236 3.71669 0.152995
  88 -14.7807 3.64723 -5.92245
  89 3.38261 3.64808 -11.5736
  90 30.8050 0.552998 -11.8391
  91 58.1997 1.06907 -10.7993
  92 88.4168 0.814241 -11.8749
  93 110.104 0.712553 -10.1498
  94 141.321 -0.335170 -10.7165
  95 157.423 0.143493 -6.78029
  96 174.130 0.0706038 -5.89311
  97 188.866 -0.420882 -5.58547
  98 197.339 -0.572329 -3.84447
  99 204.255 0.00632765 -2.60082
  100 211.974 -0.383039 -1.86546
  101 215.664 0.126282 -0.688573
  102 217.454 0.539281 -1.01373
  103 218.358 0.632956 -0.0295277
  104 233.009 -0.519649 0.0253009
  105 247.854 -1.53443 -0.516674
  106 263.473 -3.24537 -0.203467
  107 281.290 -4.27501 0.256716
  108 300.778 -5.12955 0.302828
  109 320.100 -5.48539 0.932920
  110 338.204 -4.64628 1.16781
  111 356.102 -3.99752 1.13903
  112 370.977 -2.17821 0.823173
  113 387.024 -0.924067 0.800048
  114 343.023 -36.2051 -10.2942
  115 346.856 -36.0870 7.39963
  116 366.489 52.1891 -18.1487
  117 292.605 -24.4095 -71.4216
  118 283.908 -22.6255 72.8954
  119 395.147 37.4143 35.5179
  120 414.313 11.1859 -28.3780
  121 293.485 -12.9138 -7.82162
  122 291.965 -13.6551 8.07567
  123 452.578 100.008 1.31971
  124 348.790 -16.0017 9.77964
  125 351.551 -15.1271 -11.1772
  126 360.070 -7.95208 -34.4080
  127 245.281 -20.4150 39.3507
  128 244.925 -20.5779 -41.2728
  129 361.841 -12.6348 30.9906
  130 490.170 110.195 3.85721
  131 129.960 30.6627 -77.4903
  132 125.697 31.1877 76.2862
  133 435.235 0.594168 -3.23600
  134 507.585 115.399 -14.4815
  135 336.371 22.9874 19.9153
  136 333.408 -9.25378 1.48130
  137 335.212 -8.59664 -1.69955
  138 433.046 -5.51915 47.4771
  139 245.253 -10.3250 -17.9537
  140 245.309 -10.2827 17.2059
  141 331.665 21.8045 -124.115
  142 579.677 80.4866 11.0482
  143 339.548 11.9651 -29.8942
  144 254.250 -3.57596 -5.02443
  145 254.203 -3.56113 5.05569
  146 294.900 -24.4337 18.0284
  147 300.656 -25.5849 -17.8258
  148 176.093 -10.8689 -56.9544
  149 175.389 -8.66211 57.7480
  150 377.716 57.8980 19.8564
  151 375.400 -35.9978 16.7951
  152 378.019 -20.9819 -24.3731
  153 389.116 -22.9611 15.8646
  154 357.397 -24.4178 -16.9357
  155 373.099 17.7451 -38.8355
  156 335.493 27.8678 135.653
  157 24.5063 20.7421 12.6853
  158 21.3934 17.3795 -9.73036
  159 327.806 20.6727 -7.99210
  160 355.738 7.95294 36.1840
  161 366.870 -4.93114 6.10934
  162 363.809 -5.74573 -6.17710
  163 338.775 -25.3451 2.98475
  164 359.833 -8.42135 -20.3953
  165 411.311 68.2781 -26.3725
  166 327.440 -21.3844 0.417458
  167 312.390 -35.4893 37.6129
  168 293.421 -6.98766 -2.30863
  169 293.778 -6.94479 2.39377
  170 361.455 -7.79669 18.9892
  171 314.608 -35.2809 -36.1044
  172 371.537 -34.7054 -26.2113
  173 419.178 74.6540 23.4746
  174 328.598 -17.5744 1.14056
  175 495.194 58.1131 -36.4015
  176 87.4870 6.00448 -44.2340
  177 85.0512 5.56268 43.1090
  178 610.337 116.546 61.3782
  179 515.548 94.4407 17.5042
  180 630.351 73.0008 -39.7709
  181 359.740 -4.65294 2.21793
  182 359.317 -4.55405 -2.24557
  183 217.622 -6.94823 -22.3441
  184 217.644 -7.03744 22.4171
  185 175.370 -6.48875 -35.1364
  186 176.638 -6.52836 35.7203
  187 106.189 76.1599 -97.1204
  188 345.422 -1.88679 27.9257
  189 364.694 -26.7471 17.4105
  190 236.931 -3.06306 -7.97050
  191 236.497 -3.23853 8.05283
  192 52.9593 53.1430 56.0446
  193 338.521 0.566203 -26.9233
  194 358.185 -18.6760 20.5226
  195 324.611 5.20597 23.6703
  196 369.651 -22.3949 -66.2434
  197 368.280 -5.83171 -11.4561
  198 334.113 -29.5471 3.35286
  199 400.834 80.5456 -12.1573
  200 374.048 -11.3574 33.5630
  201 251.479 -23.2516 -57.9987
  202 185.951 -0.538823 -76.2824
  203 181.709 0.639341 76.3140
  204 361.274 30.5551 30.1419
  205 263.850 0.700073 100.355
  206 349.816 39.4079 5.80355
  207 447.669 51.3607 -19.4375
  208 369.299 -5.71130 10.2261
  209 251.556 -22.8971 58.3902
  210 318.665 -13.9206 1.29857
  211 602.705 151.196 -75.9181
  212 447.380 58.5949 21.2799
  213 260.180 -18.7148 -25.4063
  214 258.813 -17.5190 25.0880
  215 38.9319 13.3498 -23.7416
  216 44.6080 13.6092 27.1928
  217 295.278 -30.0813 28.6839
  218 312.203 -11.3981 -2.39990
  219 314.822 -6.46447 -0.339492
  220 318.200 -6.44877 0.227325
  221 296.047 -29.1337 -28.8336
  222 310.652 -21.0810 -7.14341
  223 368.475 -31.9889 48.6288
  224 446.407 97.6767 -7.06481
  225 518.652 102.944 -8.79563
  226 414.055 11.9894 26.8396
  227 344.738 -11.5266 5.97083
  228 255.711 2.94520 -102.103
  229 281.697 -17.6093 14.8186
  230 341.424 -13.2326 -4.95202
  231 414.066 -18.3136 5.82170
  232 353.640 28.1355 -29.0454
  233 394.373 -20.4912 -15.5569
  234 305.723 11.9007 5.70513
  235 263.407 -8.92954 -11.2219
  236 389.308 1.02392 -34.7904
  237 217.859 -3.27420 -11.4261
  238 217.645 -3.20968 11.0863
  239 234.821 -0.410328 -1.47452
  240 234.827 -0.393024 1.45317
  241 356.285 3.94917 -37.0448
  242 261.311 -8.85971 11.8410
  243 279.538 -17.1783 -15.7526
  244 128.367 93.9216 126.528
  245 21.1567 25.9861 -17.8702
  246 666.172 50.3648 14.7333
  247 305.301 5.36396 -12.6834
  248 345.566 -23.3899 -8.02319
  249 356.004 78.3638 -171.800
  250 362.532 -29.5516 -13.0184
  251 183.154 -5.88454 -23.2404
  252 183.408 -6.06785 23.4295
  253 359.691 -14.8257 -25.8813
  254 371.509 -5.16685 -36.5813
  255 269.394 -4.10553 -2.22269
  256 269.391 -4.13033 2.15313
  257 380.961 -2.30924 -2.39538
  258 381.302 -1.88842 2.36798
  259 351.474 -3.09189 -20.3095
  260 499.879 55.2670 104.585
  261 327.944 -31.5712 -8.48612
  262 277.113 -7.83586 -5.96136
  263 275.794 -7.97942 6.24300
  264 -0.251652 -0.644640 -7.51613
  265 -1.56859 0.594307 7.88870
  266 98.9262 -2.60325 -35.7330
  267 98.3393 -2.20512 35.4851
  268 229.935 -1.56783 3.46868
  269 229.906 -1.58512 -3.51650
  270 351.423 -3.92925 19.2575
  271 406.728 84.5115 8.63127
  272 370.399 -34.4085 -2.60518
  273 378.819 44.9453 -32.3530
  274 366.305 -19.1371 -27.6685
  275 399.781 -23.2174 3.42031
  276 140.096 -3.11847 33.3812
  277 139.062 -3.31759 -32.8885
  278 368.766 -34.9231 -5.34769
  279 320.724 -36.2214 46.9073
  280 339.933 -5.32159 0.607940
  281 340.294 -5.09369 -0.571240
  282 380.258 -1.67151 -1.17366
  283 380.315 -1.92065 1.23974
  284 174.480 48.0209 113.753
  285 394.640 31.7299 -37.0794
  286 353.164 -29.9535 7.41437
  287 449.017 92.9991 11.5096
  288 323.110 3.26010 -21.8583
  289 313.356 -9.37638 1.27856
  290 432.955 69.2246 -24.7580
  291 353.642 -6.22666 93.5170
  292 377.667 67.0370 0.170424
  293 320.478 -34.4121 -48.9840
  294 341.354 -38.7990 20.9595
  295 325.068 -32.0822 11.7864
  296 504.135 103.102 8.16287
  297 307.613 -20.9589 9.25369
  298 378.091 -2.75728 -5.69214
  299 355.482 -18.0875 -17.0824
  300 602.437 167.617 73.6772
  301 391.255 0.384734 33.5650
  302 370.800 -2.69171 -9.50593
  303 387.033 52.4261 29.2815
  304 418.856 -1.21161 -73.2832
  305 372.011 10.9132 38.8694
  306 12.2423 13.8430 6.70428
  307 221.755 -16.5615 47.4144
  308 353.823 -6.29591 3.49860
  309 352.577 -7.03394 -3.83748
  310 349.575 36.5333 -16.9924
  311 213.202 -14.2929 -45.8314
  312 228.072 -18.0736 -65.3170
  313 361.441 -8.31097 8.85489
  314 341.119 -19.6677 6.33166
  315 355.204 -1.77952 35.5130
  316 524.487 101.872 -120.159
  317 358.893 -12.5499 24.3617
  318 357.898 -9.42299 -9.02132
  319 377.806 -2.37453 5.69325
  320 221.461 -2.35355 7.69363
  321 221.654 -2.60455 -7.80878
  322 61.7440 38.1802 -48.7497
  323 301.376 9.20119 -4.71992
  324 360.690 -10.9140 16.2966
  325 490.196 88.2930 -0.399547
  326 359.993 45.0767 20.1728
  327 193.721 37.1668 -114.000
  328 222.887 -13.6687 65.7762
  329 336.034 19.9657 -22.1828
  330 369.693 -3.17566 10.3572
  331 357.119 -9.55442 -28.6150
  332 9.00811 5.30761 -0.821855
  333 67.3128 32.9580 45.0850
  334 268.165 -28.3131 46.7561
  335 -2.26490 6.54731 1.93337
  336 -1.51613 7.14097 -1.70777
  337 386.870 154.028 187.115
  338 355.725 -8.36085 28.7593
  339 738.471 78.9648 -93.5466
  340 348.222 20.4586 30.7228
  341 416.438 43.0465 29.7898
  342 298.795 -9.70627 4.05030
  343 307.025 5.45123 13.6150
  344 273.916 -30.2252 -44.2534
  345 343.616 -16.6277 -7.11540
  346 312.571 -17.2830 4.33079
  347 360.497 -10.2350 -16.7886
  348 348.104 -38.3017 -28.4983
  349 407.180 -22.2589 -15.4746
  350 330.052 24.9787 6.14294
  351 368.184 -31.4815 11.2196
  352 466.277 33.9488 4.83638
  353 205.840 -10.2622 34.3254
  354 330.732 -12.6952 1.94650
  355 320.746 -35.3172 -24.5427
  356 531.278 128.889 26.9294
  357 392.257 65.5383 -23.7941
  358 253.390 -5.36181 8.43368
  359 253.877 -5.80303 -8.59283
  360 204.371 -9.91751 -34.8630
  361 129.064 114.386 -131.389
  362 302.785 -5.75417 -1.33582
  363 303.713 -6.07299 1.09378
  364 193.524 -2.02398 -12.0449
  365 193.484 -2.06673 12.1751
  366 688.760 26.4302 -13.7683
  367 697.628 47.6676 44.0927
  368 323.447 -26.0595 -5.80987
  369 434.138 14.1542 97.4450
  370 157.079 -0.671426 60.9646
  371 157.224 -1.71217 -61.2606
  372 323.494 -20.5214 75.9369
  373 326.645 2.59631 22.4865
  374 342.438 3.84530 31.6402
  375 314.412 -36.2863 29.0458
  376 92.4473 19.2441 -52.7700
  377 91.3592 15.5818 50.7664
  378 43.0173 3.16373 -22.0123
  379 43.2559 2.67942 22.2307
  380 344.107 -30.8791 -56.6641
  381 253.624 -2.18101 -2.14467
  382 253.628 -2.15053 2.13507
  383 509.388 97.6051 -0.765818
  384 311.326 -16.7889 -4.49795
  385 329.311 -8.35013 -95.6709
  386 349.849 -32.1803 -2.59175
  387 481.911 87.8414 -3.52505
  388 422.289 36.6636 -30.0462
  389 361.702 -20.2903 24.3581
  390 236.795 -5.89369 -13.1711
  391 236.046 -5.30629 12.5146
  392 313.133 -8.05948 -1.16027
  393 293.192 -9.91918 -5.36969
  394 228.472 -13.5977 31.3371
  395 228.182 -13.5580 -31.9071
  396 28.6552 43.3745 -35.5968
  397 358.717 16.7293 -35.8646
  398 276.349 -19.1855 19.9274
  399 444.868 31.5804 -104.411
  400 350.563 -23.1396 11.5313
  401 47.4449 58.7588 59.9351
  402 352.308 -3.14454 -33.6611
  403 224.308 -1.40907 4.53627
  404 224.229 -1.34387 -4.55654
  405 364.802 -3.04463 0.941226
  406 364.673 -2.86564 -0.838082
  407 376.016 -23.2507 22.0124
  408 176.183 -9.98094 -46.7233
  409 378.987 -1.96994 -6.14695
  410 178.884 -10.3226 47.0696
  411 435.910 9.21329 -8.24824
  412 367.909 -17.6864 29.1310
  413 325.165 -21.4306 -1.32725
  414 576.984 125.306 -49.7212
  415 358.772 -13.5741 20.0252
  416 575.565 105.778 34.4904
  417 431.009 91.3805 10.2651
  418 164.654 -3.52496 -21.1458
  419 164.783 -3.37986 21.5080
  420 65.9846 -0.560108 -25.4403
  421 65.1219 -0.531837 24.9229
  422 360.214 -3.04100 -14.4177
  423 732.416 102.985 94.6520
  424 190.055 13.0056 90.3111
  425 237.636 -11.1438 -21.6118
  426 237.286 -11.1213 21.8290
  427 260.867 -22.2019 32.1272
  428 216.255 64.3829 -148.708
  429 427.486 93.3026 -5.60973
  430 262.123 -21.9001 -32.5562
  431 387.324 -1.50074 -2.42838
  432 399.926 72.5628 20.7860
  433 415.894 82.9932 -16.4001
  434 280.637 -20.3707 -20.0131
  435 531.339 123.723 -24.6456
  436 287.876 -30.3770 59.7530
  437 454.039 7.65779 -22.1938
  438 305.113 -20.8182 -82.4543
  439 339.884 4.72029 -31.0684
  440 317.554 -31.8761 -17.0916
  441 630.079 59.1271 -11.3449
  442 621.170 74.0951 37.6363
  443 356.910 -25.2078 15.4130
  444 0.0865034 5.79222 -5.38261
  445 0.982208 6.19193 5.35736
  446 465.897 93.8755 8.84320
  447 343.326 -1.44734 17.7198
  448 312.212 -26.8868 11.9002
  449 247.019 -9.34737 86.3405
  450 1.45368 -7.62297 -6.35956
  451 272.958 -24.9500 -63.3212
  452 348.023 -27.4799 -7.54539
  453 344.795 -6.26268 2.37907
  454 344.740 -5.95890 -1.85711
  455 146.354 13.9937 -75.2496
  456 360.001 -2.50707 13.6080
  457 50.0699 23.5223 -31.1614
  458 16.7764 17.7450 17.4896
  459 136.780 -1.03746 -19.2506
  460 136.356 -0.830732 19.2982
  461 780.934 180.885 -144.875
  462 340.451 -0.977875 -18.3493
  463 351.056 -9.76304 -6.27498
  464 340.898 -14.8085 5.40647
  465 328.713 13.2642 23.1271
  466 366.831 -1.21220 37.7962
  467 325.660 -5.79019 0.171218
  468 326.956 -5.68814 -0.363924
  469 126.079 9.20294 60.1455
  470 273.423 -9.11657 8.66478
  471 431.545 22.3512 19.9708
  472 406.218 -23.7559 30.8455
  473 470.548 100.991 -0.557956
  474 388.134 -1.06895 2.41242
  475 330.750 -16.8717 -1.75695
  476 286.266 -4.90644 -1.44075
  477 286.096 -4.74299 1.33348
  478 103.192 47.5541 77.4417
  479 332.099 -12.2763 -1.90591
  480 45.6612 24.8982 28.1037
  481 102.672 48.9980 -76.4258
  482 361.123 51.4303 -5.54930
  483 295.578 -16.8166 -9.74090
  484 269.487 -5.57824 -4.68189
  485 269.691 -5.41189 4.76392
  486 380.897 -32.7697 -3.39673
  487 379.607 -2.42931 6.08668
  488 490.057 35.4428 44.8605
  489 372.505 44.8912 28.4793
  490 299.850 -23.1131 -13.4556
  491 367.321 58.1555 7.95485
  492 4.92977 -11.5394 -1.52755
  493 106.989 115.645 125.930
  494 376.498 31.0497 35.5418
  495 275.261 -9.13768 -7.96537
  496 324.691 0.596995 -15.5029
  497 260.449 20.9701 117.357
  498 336.157 -25.4983 -1.78017
  499 389.441 -32.1480 22.3203
  500 364.877 -6.87508 -9.21909
  501 574.719 88.0147 -13.6377
  502 97.6974 -0.143143 -22.7164
  503 97.8592 0.0360048 23.0847
  504 367.439 -3.58103 -3.67656
  505 366.065 -3.89245 3.79918
  506 209.993 -14.2078 57.3194
  507 260.581 -11.2029 -14.8221
  508 247.892 -6.98023 -86.4382
  509 216.667 -16.9962 -55.1044
  510 201.111 -1.61188 -8.30234
  511 201.034 -1.66543 8.23700
  512 356.678 -33.3945 4.21251
  513 265.142 -13.0706 16.2311
  514 378.083 4.34765 -38.2844
  515 278.298 -13.5439 12.0154
  516 295.109 -30.8969 36.1486
  517 456.726 35.5459 3.78374
  518 177.293 -0.659932 -11.9829
  519 177.346 -0.708346 12.1517
  520 456.204 96.4483 -9.90792
  521 400.202 -3.51988 -27.2397
  522 400.395 -6.55856 24.0886
  523 361.635 -19.7988 -24.2387
  524 282.606 -24.2112 24.9089
  525 712.154 40.9557 -46.9355
  526 396.173 -26.9411 1.10159
  527 300.867 3.11182 -12.3216
  528 303.932 -12.5723 4.12658
  529 365.352 42.4899 -26.4353
  530 602.871 176.015 117.344
  531 354.890 -8.22776 6.36516
  532 327.936 -7.19293 0.251322
  533 331.205 -6.44809 -0.641627
  534 371.406 -29.2261 -13.8745
  535 294.091 -17.3589 10.2880
  536 225.326 0.0547728 -2.03976
  537 225.349 0.0612554 2.01048
  538 296.490 -31.9677 -35.0896
  539 381.557 65.7416 -13.0045
  540 358.351 -10.7470 -12.0277
  541 305.374 2.62449 14.4352
  542 358.608 -13.9323 -20.8707
  543 227.410 0.0222405 -0.438484
  544 227.410 0.0304712 0.428091
  545 415.376 -17.1716 -35.2342
  546 286.134 -25.7715 -25.2918
  547 412.989 -6.42453 -15.6570
  548 381.267 -24.0901 59.6849
  549 368.089 -5.86918 8.26351
  550 389.818 -1.27541 1.26881
  551 389.761 -1.14795 -1.11449
  552 348.422 -38.0047 -17.5972
  553 358.711 -36.6911 37.5629
  554 207.682 -1.10693 -5.42948
  555 207.569 -1.09869 5.38387
  556 326.274 -32.2901 57.3328
  557 367.880 29.6831 -34.3048
  558 283.050 -29.6721 -51.4777
  559 363.291 20.6589 37.0774
  560 348.189 -38.6114 29.8136
  561 283.713 3.27680 5.23422
  562 308.965 -7.89458 1.51288
  563 380.082 -9.37308 -32.9768
  564 474.958 101.565 0.329960
  565 388.077 -14.5691 -26.3037
  566 294.985 -21.6678 14.8033
  567 240.281 -2.80777 5.99296
  568 240.322 -2.84835 -6.08025
  569 344.155 -9.46703 3.17728
  570 277.840 -13.0155 -11.7163
  571 356.321 -6.16296 22.8658
  572 381.758 -26.7280 -14.7563
  573 323.268 -9.67012 -0.0868186
  574 584.879 176.345 -81.8295
  575 324.147 7.65676 -22.0270
  576 489.286 105.770 -4.54277
  577 286.912 2.72362 -8.17534
  578 351.379 -12.3706 8.23741
  579 103.658 66.4917 98.3477
  580 344.638 32.5591 16.0806
  581 190.913 14.7492 -91.6671
  582 381.358 -32.1365 -1.29107
  583 351.164 -4.02737 -27.5582
  584 393.884 48.5661 -33.3335
  585 -2.94722 -3.45603 -6.28278
  586 -3.75520 -3.08872 6.38043
  587 242.958 -1.88998 -3.47793
  588 242.959 -1.86286 3.44672
  589 369.522 -24.0973 -22.2390
  590 372.433 -15.8747 -30.4819
  591 36.2190 33.8534 30.5964
  592 349.522 30.2581 24.4850
  593 317.275 -14.8931 -1.62538
  594 313.785 -5.54153 -0.0137490
  595 312.985 -5.48385 -0.258030
  596 321.648 14.7496 15.2989
  597 707.054 16.3175 10.2766
  598 261.548 -15.1604 -20.1364
  599 280.772 4.01800 1.19087
  600 366.755 6.12640 -38.9168
  601 287.423 -32.7891 52.4156
  602 8.83687 3.86128 12.2872
  603 7.74866 3.21420 -11.5575
  604 386.389 17.3831 -38.3656
  605 341.797 35.6577 -4.34901
  606 362.577 -25.3012 -19.8605
  607 214.598 -4.58222 -16.2521
  608 214.210 -4.92468 16.2498
  609 372.916 -2.18401 2.04684
  610 372.774 -2.18908 -2.14551
  611 363.103 -3.53191 -37.1646
  612 354.385 -16.6370 14.8518
  613 257.033 -14.4997 21.1435
  614 21.8211 16.6116 -12.3472
  615 362.380 209.597 -214.391
  616 365.029 -6.55182 14.6469
  617 363.642 -6.15367 -15.6587
  618 287.854 14.2462 -117.054
  619 342.757 -10.0089 -3.95852
  620 307.809 -29.0097 18.8193
  621 399.000 81.5102 -0.396599
  622 137.581 -5.49347 -42.6808
  623 138.807 -5.46591 43.0241
  624 435.630 73.1779 21.9116
  625 352.438 -22.7921 -13.7701
  626 315.372 17.3428 -0.000564722
  627 342.451 -32.8020 -3.36569
  628 194.503 -5.22782 20.1503
  629 194.374 -5.19104 -19.8968
  630 250.427 -6.39467 -11.2206
  631 239.357 -0.750637 -1.56721
  632 239.361 -0.729909 1.55616
  633 350.171 -13.0003 -8.25910
  634 391.847 -0.591305 -0.623550
  635 391.726 -0.683971 0.797160
  636 458.872 86.9254 -14.7526
  637 218.469 67.0136 139.418
  638 419.621 -5.29345 11.9922
  639 186.566 30.1280 101.482
  640 82.7324 23.5387 49.3359
  641 428.353 19.1938 -23.1684
  642 360.777 -33.9802 -3.44776
  643 257.692 -3.51255 -3.83629
  644 257.770 -3.46199 3.84707
  645 349.150 -3.73325 -0.468180
  646 349.430 -3.82658 0.535677
  647 274.268 -27.9332 -37.9978
  648 127.284 6.57406 -60.8277
  649 212.001 -1.12327 3.42663
  650 211.938 -1.18332 -3.37240
  651 811.362 218.710 165.654
  652 408.775 46.5553 -33.7120
  653 365.859 -11.7003 -33.5921
  654 361.570 -13.1863 -30.4609
  655 382.002 31.4911 -37.4346
  656 231.097 -6.02380 -16.5100
  657 230.227 -6.40891 16.1302
  658 339.766 -29.6367 0.240569
  659 2.50666 -9.53458 6.95722
  660 380.484 -0.621845 36.7830
  661 23.9121 15.6556 12.8446
  662 339.764 9.55651 30.0120
  663 56.5545 53.6657 -52.1857
  664 318.457 13.2790 -15.6794
  665 375.849 -2.66602 4.44291
  666 314.258 -28.0489 -12.7476
  667 356.129 -6.54192 -23.9595
  668 110.553 -0.689164 16.6651
  669 110.962 -0.582239 -16.7336
  670 431.506 85.3975 -17.7159
  671 196.883 -9.92915 -70.0565
  672 349.470 -19.1282 -11.2254
  673 305.871 -12.9048 -4.55863
  674 375.275 -3.24895 -4.27585
  675 402.017 57.4110 29.5793
  676 67.9218 13.6481 -37.2686
  677 66.1751 9.12945 36.9265
  678 364.037 -8.89932 35.0181
  679 321.296 -24.2650 5.02366
  680 358.041 -18.9926 -20.4833
  681 527.682 131.674 -30.2360
  682 422.680 91.4264 3.50620
  683 309.704 -10.9257 2.37190
  684 401.757 15.2879 34.7812
  685 363.142 -37.9820 11.7969
  686 247.219 -6.10669 11.2450
  687 326.312 -35.1655 18.3026
  688 379.359 -1.66662 0.0901388
  689 379.318 -1.81114 -0.0531495
  690 531.049 117.459 27.5212
  691 206.815 -8.32168 27.3445
  692 29.4665 30.1696 -21.7904
  693 -8.65141 0.211312 7.34369
  694 -7.61779 0.408077 -7.58991
  695 180.876 -7.04186 29.9516
  696 89.2101 34.2638 -57.1548
  697 7.08049 -1.85792 -9.43432
  698 348.336 -27.9254 7.44254
  699 241.350 -14.4524 -76.4118
  700 272.627 -27.7812 37.4282
  701 338.090 -21.2139 -4.31768
  702 4.71099 -11.1049 -2.70108
  703 402.433 19.3040 -34.8669
  704 361.574 -35.4498 -0.997862
  705 356.544 -29.2093 -12.0167
  706 348.377 10.4346 -33.9844
  707 206.409 -8.35980 -27.3795
  708 35.4848 57.9541 -55.5983
  709 347.034 19.1049 -31.5893
  710 -0.555706 -9.31316 -7.28764
  711 326.865 0.201220 14.7182
  712 180.249 -6.74784 -29.6192
  713 231.150 -12.9466 75.9471
  714 322.113 -10.8702 0.329297
  715 266.092 -5.98996 -6.17615
  716 192.878 -7.70438 68.9770
  717 112.996 1.08017 -47.3870
  718 111.297 0.792155 46.4231
  719 265.222 -5.70068 6.38132
  720 65.0040 1.29259 -19.2756
  721 65.3549 1.41009 19.1640
  722 287.960 -10.7663 6.79732
  723 348.411 -0.519407 -12.4803
  724 408.176 43.1980 147.221
  725 281.128 -5.37008 -3.35356
  726 280.967 -5.51097 3.24491
  727 358.585 -10.4564 -25.1871
  728 272.485 -3.62758 -1.80156
  729 272.415 -3.50298 1.74836
  730 350.856 -3.84313 24.6301
  731 358.092 -37.6934 6.42791
  732 287.242 -7.54803 4.20478
  733 27.2535 -0.742783 -12.8878
  734 27.4540 -1.09828 12.7006
  735 286.733 -6.75832 -3.96980
  736 6.61973 7.37860 -2.54859
  737 384.810 -28.5990 -40.9810
  738 434.663 -5.99017 13.5449
  739 133.151 19.5407 70.7210
  740 220.230 -0.0199716 2.26970
  741 220.175 0.00222311 -2.30042
  742 337.123 -34.3512 8.03724
  743 651.133 92.7079 -74.6327
  744 308.430 0.678159 -11.9555
  745 304.777 -7.27091 -1.72551
  746 273.280 97.2726 170.039
  747 386.103 15.1171 38.2442
  748 349.425 -0.702312 12.0691
  749 393.224 -0.819056 -1.42644
  750 393.619 -1.03040 1.42897
  751 545.701 105.395 -23.2929
  752 387.128 70.1392 9.84085
  753 300.785 -8.93477 -2.97112
  754 384.277 -1.63929 4.47333
  755 242.089 -14.1392 -27.3402
  756 352.058 -4.12245 1.74772
  757 351.903 -4.10131 -1.53004
  758 259.001 -21.3290 68.2924
  759 363.046 -38.6712 -16.0965
  760 360.005 -14.6782 26.9765
  761 241.694 -13.9116 27.1170
  762 376.364 54.2900 -23.6604
  763 310.542 2.34406 12.5635
  764 247.993 -23.0547 -51.3365
  765 302.575 -8.70312 2.73550
  766 356.992 -6.72828 33.3107
  767 223.206 0.324106 -0.750619
  768 223.215 0.329316 0.733600
  769 6.76288 9.59841 1.57512
  770 251.457 -8.55247 14.1380
  771 321.938 -8.14757 0.219534
  772 356.165 -15.3099 -15.3775
  773 161.675 -0.761420 12.3124
  774 161.757 -0.786020 -12.1187
  775 386.126 -11.7654 29.2123
  776 356.361 -8.00973 -31.8321
  777 134.880 -5.45865 -49.3170
  778 135.357 -4.81161 48.9742
  779 374.800 -30.9043 7.94090
  780 357.048 -11.5779 12.1586
  781 546.764 101.536 49.9322
</Section>

newXOutput 21

<Section columns = "stress_xx | stress_yy | stress_xy">
  1 419.270 0.288504 0.528203
  2 419.435 0.232529 -0.505084
  3 234.639 -0.0850886 -0.393372
  4 -2.89270 -3.29096 -3.85931
  5 756.884 307.632 249.057
  6 716.587 278.178 -208.771
  7 -3.83002 -3.29144 4.41409
  8 234.647 -0.0895867 0.387698
  9 420.663 -0.432261 -0.0733241
  10 420.815 -1.48564 1.04373
  11 419.332 -1.18585 0.689748
  12 412.184 -1.33216 2.53211
  13 408.672 -1.46280 2.96408
  14 400.710 -2.02157 4.92668
  15 387.312 -1.44201 7.59811
  16 371.619 -0.661312 8.84460
  17 353.419 0.464061 10.3400
  18 326.948 1.39561 8.53618
  19 310.184 3.20228 10.0616
  20 297.346 2.47308 7.57368
  21 281.224 3.20835 2.13972
  22 285.541 4.75937 -2.87079
  23 291.386 2.38692 -5.30586
  24 309.252 2.23324 -8.78850
  25 325.816 0.942117 -9.59810
  26 353.215 0.526578 -10.7736
  27 371.186 -1.08019 -9.51705
  28 388.718 -1.60959 -7.69079
  29 400.594 -1.36485 -5.46696
  30 406.678 -1.38812 -4.54753
  31 413.031 -1.96044 -1.77584
  32 419.354 -1.02623 -0.285425
  33 420.914 -1.27323 -0.914560
  34 420.863 -0.554577 0.142259
  35 406.306 -0.850407 -0.775596
  36 389.466 -2.17567 -0.861830
  37 373.853 -4.06463 -1.17838
  38 355.499 -5.12914 -1.33186
  39 336.962 -5.75927 -1.01577
  40 315.927 -5.34815 -0.364705
  41 295.534 -4.37163 -0.206631
  42 277.142 -3.35412 0.229923
  43 260.818 -1.57109 0.536206
  44 245.309 -0.522633 -0.0306101
  45 230.011 0.668990 0.0249458
  46 229.079 0.569962 1.04931
  47 227.224 0.130617 0.711686
  48 223.353 -0.410703 1.97954
  49 215.189 0.0128659 2.73223
  50 207.929 -0.592363 4.05188
  51 198.948 -0.456731 5.83813
  52 183.524 0.00393905 6.27389
  53 165.734 0.154241 7.27384
  54 148.546 -0.246678 11.3841
  55 115.765 0.771569 10.5956
  56 93.0834 0.867797 12.4048
  57 61.7983 1.19607 11.1858
  58 33.2128 0.460769 12.3071
  59 4.47627 3.44985 12.4149
  60 -14.9819 4.08746 6.36231
  61 -21.8354 3.94844 -0.269935
  62 -18.3046 2.99854 -6.71489
  63 -10.7496 -0.958946 -5.85103
  64 -1.13684 -10.8548 -5.49193
  65 0.661346 -20.7749 -7.34173
  66 2.74366 -33.0458 -4.16673
  67 9.12082 -32.9317 0.827440
  68 15.8590 -0.906135 19.2819
  69 46.8574 71.6769 67.2146
  70 201.960 226.002 205.983
  71 979.468 106.534 154.239
  72 796.527 33.5668 51.7106
  73 760.362 18.8296 20.7048
  74 749.545 12.0966 -1.22589
  75 757.772 15.8395 -18.4117
  76 808.230 29.9559 -50.0902
  77 933.429 87.6990 -132.958
  78 162.339 257.672 -197.174
  79 38.4556 42.1328 -51.7830
  80 14.6393 -0.815008 -20.0576
  81 4.49344 -32.5644 -2.91152
  82 2.75200 -25.6053 3.04828
  83 3.10757 -26.1880 6.08617
  84 0.272267 -9.86029 6.96070
  85 -11.5340 -0.800541 5.78040
  86 -19.2143 2.89610 6.54994
  87 -22.3150 3.91204 0.122928
  88 -15.3480 3.83375 -6.26845
  89 3.83591 3.83311 -12.2140
  90 32.7434 0.576199 -12.4822
  91 61.6016 1.12064 -11.3748
  92 93.4012 0.854486 -12.4926
  93 116.213 0.748575 -10.6788
  94 149.008 -0.348057 -11.2710
  95 165.943 0.152745 -7.13263
  96 183.495 0.0767244 -6.19970
  97 198.974 -0.439185 -5.87267
  98 207.888 -0.598390 -4.04320
  99 215.167 0.00931456 -2.73751
  100 223.273 -0.398635 -1.96879
  101 227.159 0.134306 -0.731419
  102 229.055 0.566532 -1.06777
  103 230.011 0.664165 -0.0354957
  104 245.308 -0.538481 0.0234178
  105 260.811 -1.60160 -0.545810
  106 277.130 -3.39940 -0.220995
  107 295.751 -4.48445 0.259552
  108 316.121 -5.39068 0.303222
  109 336.317 -5.77273 0.965250
  110 355.234 -4.90101 1.20849
  111 373.926 -4.22417 1.18335
  112 389.451 -2.31310 0.856471
  113 406.188 -0.990310 0.834779
  114 360.269 -38.0277 -11.0241
  115 364.286 -37.9029 7.99155
  116 385.116 54.8256 -18.9521
  117 307.348 -25.6613 -75.1723
  118 298.237 -23.7898 76.7165
  119 415.034 39.2920 37.0199
  120 435.004 11.7549 -29.4492
  121 308.475 -13.5521 -8.30363
  122 306.884 -14.3298 8.57124
  123 475.323 104.943 1.35364
  124 366.342 -16.8168 10.0994
  125 369.232 -15.9000 -11.5633
  126 378.251 -8.36086 -35.8920
  127 257.904 -21.4396 41.4179
  128 257.523 -21.6134 -43.4388
  129 380.083 -13.2798 32.3017
  130 514.597 115.693 4.34790
  131 136.738 32.2034 -81.5982
  132 132.254 32.7612 80.3374
  133 456.798 0.668917 -3.76040
  134 532.830 121.147 -15.4819
  135 353.581 24.1761 20.8171
  136 350.230 -9.73264 1.46947
  137 352.116 -9.04300 -1.69886
  138 454.390 -5.70222 50.1687
  139 257.983 -10.8297 -18.9121
  140 258.044 -10.7853 18.1275
  141 348.077 22.9771 -130.509
  142 608.202 84.4125 11.6125
  143 356.877 12.5856 -31.2425
  144 267.471 -3.74423 -5.30944
  145 267.422 -3.72865 5.34219
  146 309.915 -25.6495 19.0609
  147 315.936 -26.8600 -18.8556
  148 185.277 -11.4406 -59.9355
  149 184.539 -9.12335 60.7701
  150 396.873 60.8129 20.7204
  151 394.135 -37.8085 17.8970
  152 396.976 -22.0478 -25.3055
  153 408.566 -24.1212 16.3540
  154 375.369 -25.6540 -17.5480
  155 391.943 18.6382 -40.5321
  156 352.088 29.3817 142.616
  157 25.8837 21.8524 13.4783
  158 22.6180 18.3098 -10.3576
  159 344.632 21.7517 -8.35592
  160 373.779 8.35873 37.7876
  161 385.212 -5.20209 6.31922
  162 382.013 -6.05742 -6.38711
  163 355.855 -26.6200 2.94460
  164 377.957 -8.85707 -21.2439
  165 432.025 71.6984 -27.4427
  166 343.991 -22.4562 0.595460
  167 328.150 -37.2804 39.6710
  168 308.427 -7.33428 -2.46744
  169 308.799 -7.29057 2.55700
  170 379.644 -8.20250 19.7749
  171 330.476 -37.0615 -38.0884
  172 390.073 -36.4499 -27.7805
  173 440.268 78.3860 24.3987
  174 345.205 -18.4575 1.05715
  175 519.506 61.2013 -38.6601
  176 92.2174 6.29234 -46.6031
  177 89.6563 5.82901 45.4225
  178 640.236 122.281 64.4802
  179 540.950 99.3007 18.8635
  180 661.084 76.5711 -41.7314
  181 377.736 -4.91238 2.27413
  182 377.294 -4.80910 -2.30358
  183 229.012 -7.28680 -23.5100
  184 229.036 -7.38039 23.5866
  185 184.635 -6.81597 -36.9573
  186 185.963 -6.85784 37.5716
  187 111.678 80.1663 -102.263
  188 362.975 -1.98058 29.1597
  189 383.008 -28.1017 18.0240
  190 249.335 -3.20554 -8.40486
  191 248.883 -3.38939 8.49025
  192 55.7899 56.0066 59.1328
  193 355.781 0.598633 -28.1241
  194 376.206 -19.6260 21.3269
  195 341.272 5.49086 24.7447
  196 388.005 -23.4984 -69.7930
  197 386.730 -6.14376 -11.9066
  198 350.964 -31.0294 3.71161
  199 421.114 84.5645 -12.6642
  200 392.857 -11.9398 34.9645
  201 264.317 -24.4411 -61.0429
  202 195.540 -0.603474 -80.2770
  203 191.091 0.636091 80.3133
  204 379.619 32.1064 31.4782
  205 277.142 0.721660 105.568
  206 367.664 41.4217 6.06491
  207 469.961 53.9701 -20.0199
  208 387.789 -6.01773 10.6228
  209 264.400 -24.0690 61.4503
  210 334.815 -14.6203 1.47425
  211 632.242 158.698 -79.8345
  212 469.684 61.5654 21.9696
  213 273.565 -19.6427 -26.7680
  214 272.136 -18.3877 26.4306
  215 41.1373 14.0328 -25.0744
  216 47.1001 14.3036 28.7067
  217 310.275 -31.5889 30.2622
  218 328.059 -11.9697 -2.60761
  219 330.800 -6.79668 -0.398915
  220 334.332 -6.78200 0.282508
  221 311.077 -30.5933 -30.4197
  222 326.421 -22.1307 -7.63662
  223 386.822 -33.5873 51.3005
  224 468.843 102.520 -7.25718
  225 544.451 108.002 -9.34009
  226 434.737 12.5993 27.8416
  227 362.087 -12.1201 6.13874
  228 268.605 3.07582 -107.401
  229 296.122 -18.4783 15.6567
  230 358.622 -13.9088 -5.06578
  231 434.628 -19.2077 6.44225
  232 371.631 29.5707 -30.3448
  233 414.068 -21.5245 -16.0243
  234 321.552 12.5345 5.96684
  235 277.013 -9.36479 -11.8444
  236 408.845 1.06806 -36.2281
  237 229.339 -3.42875 -12.0271
  238 229.115 -3.36131 11.6709
  239 247.191 -0.423100 -1.55898
  240 247.198 -0.404960 1.53667
  241 374.340 4.15244 -38.6849
  242 274.818 -9.29087 12.4941
  243 293.860 -18.0255 -16.6363
  244 134.955 98.8389 133.148
  245 22.3290 27.4863 -18.9615
  246 698.416 52.8157 15.4361
  247 321.108 5.66645 -13.2653
  248 362.968 -24.5703 -8.22720
  249 373.405 82.5570 -180.502
  250 380.732 -31.0452 -13.4152
  251 192.868 -6.17477 -24.4421
  252 193.133 -6.36781 24.6406
  253 377.806 -15.5838 -26.9500
  254 390.222 -5.43647 -38.1430
  255 283.312 -4.30215 -2.35967
  256 283.310 -4.32816 2.28681
  257 399.890 -2.44869 -2.46987
  258 400.246 -2.00710 2.44236
  259 369.276 -3.25386 -21.1932
  260 524.114 58.4271 110.164
  261 344.503 -33.1530 -9.09358
  262 291.367 -8.21889 -6.31509
  263 289.988 -8.36911 6.61017
  264 -0.223031 -0.641978 -7.85528
  265 -1.60582 0.653725 8.24658
  266 104.311 -2.74707 -37.6200
  267 103.694 -2.32844 37.3606
  268 242.059 -1.63696 3.66115
  269 242.029 -1.65500 -3.71122
  270 369.226 -4.12940 20.0937
  271 427.292 88.7211 8.97933
  272 388.942 -36.1445 -2.47061
  273 397.987 47.2079 -33.7652
  274 384.727 -20.1111 -28.7915
  275 419.698 -24.3797 3.27737
  276 147.606 -3.27900 35.1178
  277 146.521 -3.48833 -34.5991
  278 387.218 -36.6851 -5.87361
  279 336.853 -38.0537 49.4449
  280 357.043 -5.61027 0.603072
  281 357.420 -5.37182 -0.565617
  282 399.137 -1.78017 -1.21008
  283 399.197 -2.04081 1.27888
  284 183.388 50.4623 119.681
  285 414.495 33.3226 -38.6496
  286 370.917 -31.4642 7.55449
  287 471.543 97.6306 11.8459
  288 339.701 3.43642 -22.8477
  289 329.267 -9.85021 1.41742
  290 454.655 72.6989 -25.6787
  291 371.188 -6.48918 98.4138
  292 396.845 70.4065 0.178519
  293 336.587 -36.1550 -51.6281
  294 358.502 -40.7528 22.2178
  295 341.483 -33.6904 12.5556
  296 529.254 108.188 8.70554
  297 323.238 -22.0019 9.84952
  298 396.941 -2.91149 -5.90550
  299 373.364 -19.0083 -17.7288
  300 631.938 176.020 77.6406
  301 410.878 0.395710 34.9389
  302 389.399 -2.83504 -9.89806
  303 406.593 55.0592 30.5387
  304 439.475 -1.17118 -77.2276
  305 390.792 11.4605 40.5635
  306 12.9386 14.6728 7.17839
  307 233.217 -17.4027 49.8887
  308 371.566 -6.63557 3.59155
  309 370.267 -7.40907 -3.94125
  310 367.403 38.3984 -17.7557
  311 224.259 -15.0186 -48.2203
  312 239.765 -19.0120 -68.7307
  313 379.556 -8.74770 9.17045
  314 358.312 -20.6616 6.47269
  315 373.196 -1.87010 37.0727
  316 549.736 107.402 -126.524
  317 376.978 -13.1909 25.3745
  318 375.853 -9.91428 -9.33954
  319 396.639 -2.51325 5.90633
  320 233.146 -2.46136 8.10140
  321 233.347 -2.72445 -8.22223
  322 65.0608 40.1663 -51.4358
  323 317.009 9.69424 -4.93728
  324 378.817 -11.4796 16.9409
  325 514.509 92.7792 -0.831868
  326 378.305 47.3607 21.0721
  327 203.575 39.0483 -119.923
  328 234.326 -14.3869 69.2108
  329 353.223 21.0001 -23.1861
  330 388.238 -3.34496 10.7828
  331 375.150 -10.0434 -29.8374
  332 9.51928 5.68915 -0.971407
  333 70.9157 34.6713 47.5721
  334 281.839 -29.7456 49.2277
  335 -2.29406 6.90432 1.96909
  336 -1.50947 7.52918 -1.72904
  337 405.401 162.285 196.571
  338 373.700 -8.78966 29.9947
  339 773.902 82.7832 -97.9685
  340 365.950 21.5048 32.1015
  341 437.312 45.2159 30.9640
  342 314.038 -10.1885 4.33022
  343 322.908 5.75130 14.2379
  344 287.868 -31.7515 -46.6038
  345 360.923 -17.4714 -7.30865
  346 328.435 -18.1449 4.67372
  347 378.619 -10.7646 -17.4587
  348 365.544 -40.2335 -30.1434
  349 427.398 -23.3569 -16.5614
  350 346.982 26.2735 6.42272
  351 386.647 -33.0719 11.5153
  352 489.312 35.7478 5.49912
  353 216.599 -10.7750 36.1123
  354 347.437 -13.3401 1.92950
  355 336.930 -37.0929 -25.9529
  356 557.585 135.347 28.6030
  357 412.093 68.8221 -24.8050
  358 266.557 -5.61735 8.89890
  359 267.066 -6.08004 -9.06614
  360 215.060 -10.4136 -36.6760
  361 135.481 120.596 -138.192
  362 318.218 -6.04585 -1.43096
  363 319.188 -6.38022 1.17838
  364 203.811 -2.12081 -12.6676
  365 203.769 -2.16542 12.8042
  366 721.942 27.7170 -14.4187
  367 731.236 49.9802 46.1673
  368 339.804 -27.3629 -6.26513
  369 455.400 15.0354 102.568
  370 165.298 -0.732788 64.1693
  371 165.451 -1.82683 -64.4773
  372 339.674 -21.5597 79.9365
  373 343.390 2.73775 23.5011
  374 359.876 4.04806 33.0558
  375 330.293 -38.1115 30.6723
  376 97.3776 20.2079 -55.6085
  377 96.2443 16.3576 53.4977
  378 45.4880 3.32029 -23.2175
  379 45.7374 2.81127 23.4470
  380 361.294 -32.4352 -59.7150
  381 266.836 -2.27992 -2.26272
  382 266.839 -2.24799 2.25270
  383 534.759 102.394 -0.815402
  384 327.134 -17.6255 -4.84339
  385 345.704 -8.74399 -100.658
  386 367.440 -33.8009 -2.49437
  387 505.853 92.2954 -3.28831
  388 443.409 38.5167 -31.1993
  389 379.901 -21.3221 25.3297
  390 249.162 -6.17590 -13.8741
  391 248.381 -5.55842 13.1823
  392 329.033 -8.46921 -1.28312
  393 308.178 -10.4105 -5.71273
  394 240.339 -14.2718 32.9783
  395 240.032 -14.2311 -33.5770
  396 30.2083 45.8540 -37.6216
  397 376.911 17.5795 -37.4569
  398 290.508 -20.1356 21.0247
  399 466.576 33.3809 -109.899
  400 368.204 -24.3100 11.8980
  401 49.9425 62.0853 63.2148
  402 370.165 -3.30310 -35.1417
  403 236.155 -1.47200 4.78042
  404 236.072 -1.40368 -4.80168
  405 383.011 -3.22571 0.965101
  406 382.877 -3.03848 -0.857201
  407 394.872 -24.4307 22.8308
  408 185.424 -10.4960 -49.1588
  409 397.910 -2.07966 -6.38961
  410 188.256 -10.8549 49.5241
  411 457.547 9.71950 -8.28474
  412 386.413 -18.5874 30.3227
  413 341.611 -22.5048 -1.54911
  414 605.401 131.505 -52.3178
  415 376.824 -14.2701 20.8292
  416 603.926 110.972 36.2726
  417 452.719 95.9229 10.6382
  418 173.451 -3.69845 -22.2358
  419 173.586 -3.54629 22.6163
  420 69.6791 -0.598239 -26.8034
  421 68.7712 -0.567862 26.2601
  422 378.381 -3.20447 -15.0308
  423 767.627 107.970 99.1535
  424 199.800 13.6299 95.0302
  425 249.987 -11.6895 -22.7548
  426 249.622 -11.6661 22.9818
  427 274.257 -23.3096 33.8347
  428 227.101 67.7307 -156.359
  429 449.045 97.9327 -5.82605
  430 275.568 -22.9932 -34.2873
  431 406.543 -1.58829 -2.51122
  432 420.136 76.1913 21.6555
  433 436.874 87.1312 -17.0496
  434 294.990 -21.3812 -21.1232
  435 557.559 130.005 -26.3233
  436 302.428 -31.9242 62.9103
  437 476.422 8.12900 -23.6743
  438 320.413 -21.8758 -86.7744
  439 357.213 4.96976 -32.4605
  440 333.611 -33.4736 -18.1177
  441 660.793 62.0037 -11.8981
  442 651.523 77.7043 39.4882
  443 374.856 -26.4838 15.9493
  444 0.245992 6.08937 -5.72681
  445 1.18670 6.51002 5.70066
  446 489.168 98.5818 8.96263
  447 360.790 -1.52023 18.5006
  448 328.038 -28.2295 12.6487
  449 259.552 -9.85063 90.8412
  450 1.54829 -7.94380 -6.63037
  451 286.801 -26.2290 -66.6500
  452 365.538 -28.8652 -7.70846
  453 362.129 -6.59846 2.42993
  454 362.069 -6.28026 -1.88888
  455 153.977 14.6696 -79.2189
  456 378.163 -2.64218 14.1885
  457 52.8032 24.7426 -32.9150
  458 17.6891 18.8744 18.5435
  459 144.189 -1.08767 -20.2481
  460 143.743 -0.870314 20.2985
  461 818.169 189.794 -151.809
  462 357.793 -1.02655 -19.1615
  463 368.690 -10.2724 -6.46781
  464 358.076 -15.5618 5.52842
  465 345.564 13.9581 24.1780
  466 385.345 -1.27850 39.4343
  467 342.127 -6.09572 0.152495
  468 343.482 -5.98937 -0.354797
  469 132.730 9.64408 63.3356
  470 287.499 -9.56097 9.16204
  471 453.035 23.5020 20.6024
  472 426.350 -24.9150 32.6855
  473 494.132 105.978 -0.520428
  474 407.386 -1.13692 2.49563
  475 347.458 -17.7216 -1.70377
  476 300.950 -5.14808 -1.53372
  477 300.773 -4.97692 1.42106
  478 108.591 50.0127 81.5816
  479 348.866 -12.9012 -1.88809
  480 48.1679 26.1868 29.6956
  481 108.058 51.5186 -80.5162
  482 379.508 54.0358 -5.79497
  483 310.652 -17.6493 -10.3375
  484 283.403 -5.84664 -4.95443
  485 283.617 -5.67242 5.04049
  486 399.921 -34.4220 -3.84845
  487 398.561 -2.55720 6.32948
  488 514.059 37.4408 47.5240
  489 391.387 47.1567 29.7312
  490 315.109 -24.2619 -14.2578
  491 385.999 61.0897 8.30548
  492 5.20902 -11.9619 -1.70951
  493 112.376 121.996 132.497
  494 395.527 32.6119 37.0900
  495 289.420 -9.58385 -8.42929
  496 341.355 0.630360 -16.1999
  497 273.526 22.0542 123.430
  498 353.114 -26.7788 -1.68589
  499 408.815 -33.7529 23.7149
  500 383.152 -7.24131 -9.56035
  501 603.025 92.3226 -14.3483
  502 103.087 -0.152472 -23.9059
  503 103.256 0.0355830 24.2936
  504 385.785 -3.78635 -3.79291
  505 384.353 -4.11432 3.91797
  506 220.849 -14.9428 60.3117
  507 274.037 -11.7506 -15.6313
  508 260.461 -7.36531 -90.9413
  509 227.846 -17.8695 -57.9847
  510 211.803 -1.68820 -8.73261
  511 211.721 -1.74442 8.66432
  512 374.589 -35.0788 4.18114
  513 278.803 -13.7115 17.1185
  514 397.121 4.55977 -39.9239
  515 292.581 -14.2089 12.6990
  516 310.077 -32.4511 38.1058
  517 479.365 37.4063 3.56715
  518 186.774 -0.688696 -12.5999
  519 186.829 -0.739567 12.7768
  520 479.061 101.251 -10.1426
  521 420.217 -3.69946 -28.2777
  522 420.407 -6.89148 24.9687
  523 379.829 -20.8057 -25.2073
  524 297.034 -25.4177 26.2742
  525 746.384 42.9498 -49.1524
  526 415.910 -28.2906 1.45955
  527 316.479 3.28358 -12.8851
  528 319.406 -13.1981 4.43006
  529 383.904 44.6398 -27.6046
  530 631.910 185.146 123.650
  531 372.695 -8.66198 6.57088
  532 344.508 -7.56762 0.205173
  533 347.925 -6.78837 -0.618391
  534 390.023 -30.7044 -14.2971
  535 309.095 -18.2189 10.9117
  536 237.263 0.0620809 -2.15113
  537 237.287 0.0688635 2.12050
  538 311.523 -33.5752 -36.9982
  539 400.911 69.0442 -13.5701
  540 376.345 -11.3042 -12.4750
  541 321.186 2.76886 15.0950
  542 376.655 -14.6459 -21.7114
  543 239.460 0.0284057 -0.464758
  544 239.460 0.0370324 0.453898
  545 435.923 -17.9861 -37.3072
  546 300.724 -27.0572 -26.6821
  547 433.560 -6.73690 -16.0986
  548 400.181 -25.2641 62.9249
  549 386.505 -6.18405 8.56833
  550 409.110 -1.35318 1.30987
  551 409.049 -1.22040 -1.14874
  552 365.903 -39.9207 -18.6992
  553 376.626 -38.5381 39.6717
  554 218.721 -1.15776 -5.71314
  555 218.603 -1.14928 5.66554
  556 342.630 -33.9248 60.3997
  557 386.517 31.1854 -35.8173
  558 297.402 -31.1791 -54.2054
  559 381.697 21.7033 38.7188
  560 365.633 -40.5581 31.5249
  561 298.558 3.46097 5.47526
  562 324.676 -8.29358 1.64271
  563 399.172 -9.85513 -34.3378
  564 498.740 106.581 0.219636
  565 407.512 -15.3107 -27.3156
  566 310.018 -22.7426 15.6634
  567 252.863 -2.93660 6.31957
  568 252.906 -2.97904 -6.41101
  569 361.467 -9.96018 3.23572
  570 292.101 -13.6549 -12.3843
  571 374.318 -6.48269 23.8427
  572 400.861 -28.0799 -15.2048
  573 339.630 -10.1625 -0.174200
  574 613.439 185.289 -86.3400
  575 340.789 8.06843 -23.0280
  576 513.716 111.007 -4.98075
  577 301.899 2.87852 -8.55498
  578 369.041 -13.0072 8.50418
  579 109.051 69.9576 103.561
  580 362.237 34.2288 16.8069
  581 200.702 15.4618 -96.4549
  582 400.410 -33.7559 -1.07294
  583 368.957 -4.23473 -28.7635
  584 413.747 51.0043 -34.7508
  585 -3.08990 -3.62574 -6.59777
  586 -3.93602 -3.23552 6.69568
  587 255.679 -1.97433 -3.67135
  588 255.680 -1.94587 3.63870
  589 388.074 -25.3200 -23.0809
  590 391.152 -16.6849 -31.7308
  591 38.1927 35.6810 32.3553
  592 367.333 31.8043 25.5834
  593 333.362 -15.6397 -1.82003
  594 329.717 -5.82893 0.00714427
  595 328.881 -5.76853 -0.291502
  596 338.191 15.5266 15.9978
  597 740.992 17.1143 10.7522
  598 275.023 -15.9066 -21.2239
  599 295.483 4.23976 1.24717
  600 385.283 6.43114 -40.6176
  601 301.983 -34.4539 55.1957
  602 9.51246 4.05475 12.9820
  603 8.36957 3.37449 -12.2146
  604 405.833 18.2533 -40.0014
  605 359.271 37.4858 -4.54503
  606 380.799 -26.5832 -20.6006
  607 225.891 -4.80200 -17.1015
  608 225.484 -5.16136 17.0990
  609 391.487 -2.32049 2.10874
  610 391.340 -2.32561 -2.21204
  611 381.441 -3.71507 -38.7810
  612 372.210 -17.4847 15.4018
  613 270.297 -15.2134 22.2778
  614 23.0924 17.4808 -13.0968
  615 379.619 220.784 -225.034
  616 383.355 -6.89740 15.2379
  617 381.924 -6.47848 -16.3018
  618 302.236 14.9622 -123.088
  619 360.010 -10.5272 -4.04588
  620 323.414 -30.4601 19.9143
  621 419.200 85.5769 -0.410806
  622 144.910 -5.78376 -44.9139
  623 146.195 -5.75501 45.2757
  624 457.461 76.8524 22.6971
  625 370.172 -23.9467 -14.2444
  626 331.637 18.2550 -0.000298257
  627 359.686 -34.4504 -3.74538
  628 204.792 -5.48399 21.1927
  629 204.657 -5.44538 -20.9269
  630 263.438 -6.70146 -11.8318
  631 251.935 -0.779218 -1.64780
  632 251.939 -0.757501 1.63625
  633 367.776 -13.6686 -8.52320
  634 411.215 -0.637371 -0.645612
  635 411.090 -0.734397 0.826688
  636 481.793 91.2878 -15.1371
  637 229.467 70.4419 146.594
  638 440.495 -5.54212 12.2455
  639 196.095 31.6397 106.778
  640 87.1443 24.7351 52.0178
  641 449.692 20.1768 -23.9576
  642 378.874 -35.6941 -3.37135
  643 271.080 -3.67659 -4.05245
  644 271.161 -3.62354 4.06384
  645 366.668 -3.94840 -0.472185
  646 366.961 -4.04596 0.542850
  647 288.257 -29.3377 -40.0248
  648 133.996 6.87824 -64.0512
  649 223.272 -1.17414 3.60898
  650 223.206 -1.23702 -3.55210
  651 849.770 229.518 173.602
  652 429.308 48.8933 -35.0975
  653 384.293 -12.2994 -35.0139
  654 379.793 -13.8604 -31.7443
  655 401.280 33.0743 -39.0573
  656 243.173 -6.31317 -17.3824
  657 242.263 -6.71709 16.9832
  658 356.885 -31.1261 0.0511757
  659 2.65938 -9.97890 7.27318
  660 399.618 -0.661415 38.3403
  661 25.2927 16.4758 13.6206
  662 357.099 10.0553 31.3634
  663 59.5759 56.5032 -55.0636
  664 334.856 13.9831 -16.3981
  665 394.577 -2.82412 4.59846
  666 330.175 -29.4513 -13.5427
  667 374.118 -6.87956 -24.9857
  668 116.640 -0.724669 17.5321
  669 117.070 -0.612331 -17.6037
  670 453.201 89.6604 -18.3634
  671 207.044 -10.4646 -73.7161
  672 367.058 -20.0985 -11.5964
  673 321.434 -13.5479 -4.88424
  674 393.976 -3.43536 -4.42178
  675 422.273 60.2898 30.8099
  676 71.6337 14.3331 -39.2930
  677 69.7959 9.58131 38.9357
  678 382.397 -9.35663 36.5193
  679 337.556 -25.4779 5.43230
  680 376.055 -19.9590 -21.2823
  681 553.823 138.269 -32.0645
  682 444.014 95.9659 3.64133
  683 325.446 -11.4740 2.57793
  684 421.892 16.0534 36.2046
  685 381.318 -39.8957 12.6346
  686 260.083 -6.39932 11.8541
  687 342.771 -36.9315 19.4024
  688 398.195 -1.77487 0.101600
  689 398.153 -1.92577 -0.0630286
  690 557.396 123.265 29.0888
  691 217.665 -8.73103 28.7645
  692 31.0941 31.7894 -23.0745
  693 -9.06867 0.230965 7.69954
  694 -7.98011 0.440507 -7.95916
  695 190.441 -7.39486 31.5021
  696 93.9489 36.0175 -60.2515
  697 7.48325 -1.67947 -10.0549
  698 365.866 -29.3336 7.59952
  699 253.644 -15.2165 -80.3960
  700 286.540 -29.1775 39.4241
  701 355.140 -22.2837 -4.36118
  702 4.96950 -11.5276 -2.75753
  703 422.610 20.2738 -36.2930
  704 379.703 -37.2379 -1.29802
  705 374.465 -30.6845 -12.3792
  706 366.096 10.9721 -35.5060
  707 217.240 -8.77146 -28.8010
  708 37.3541 61.3471 -58.6554
  709 364.709 20.0826 -33.0093
  710 -0.571237 -9.76701 -7.64126
  711 343.624 0.214715 15.3774
  712 189.785 -7.08490 -31.1528
  713 242.955 -13.6336 79.9130
  714 338.422 -11.4219 0.436789
  715 279.845 -6.27770 -6.53188
  716 202.844 -8.12669 72.5854
  717 119.041 1.11566 -49.8954
  718 117.255 0.813752 48.8853
  719 278.936 -5.97449 6.74687
  720 68.7112 1.35560 -20.2985
  721 69.0784 1.47924 20.1815
  722 302.705 -11.2965 7.20953
  723 366.097 -0.549709 -13.0256
  724 428.091 45.6139 154.745
  725 295.575 -5.63193 -3.55736
  726 295.407 -5.77975 3.44348
  727 376.660 -10.9929 -26.2448
  728 286.547 -3.80130 -1.90130
  729 286.474 -3.67070 1.84548
  730 368.632 -4.04275 25.7038
  731 376.042 -39.5928 6.98928
  732 301.962 -7.91975 4.47136
  733 28.9698 -0.783364 -13.5915
  734 29.1789 -1.15697 13.3948
  735 301.430 -7.09063 -4.22248
  736 7.02367 7.81781 -2.58436
  737 403.932 -30.0197 -43.2955
  738 456.170 -6.23217 14.5785
  739 140.112 20.5069 74.4668
  740 231.919 -0.0163182 2.39347
  741 231.862 0.00697241 -2.42559
  742 354.105 -36.0766 8.64198
  743 682.796 97.2459 -78.2802
  744 324.382 0.718229 -12.4978
  745 320.299 -7.63758 -1.85997
  746 286.752 102.323 178.672
  747 405.530 15.8711 39.8722
  748 367.153 -0.741606 12.5948
  749 412.674 -0.870592 -1.47388
  750 413.085 -1.09102 1.47684
  751 572.714 110.583 -24.5793
  752 406.756 73.6575 10.2628
  753 316.122 -9.37995 -3.18324
  754 403.406 -1.73353 4.64477
  755 254.619 -14.8364 -28.7801
  756 369.709 -4.35626 1.79369
  757 369.547 -4.33456 -1.56644
  758 272.165 -22.4303 71.8657
  759 381.209 -40.6212 -17.1527
  760 378.141 -15.4274 28.0977
  761 254.208 -14.5980 28.5451
  762 395.447 57.0246 -24.6929
  763 326.588 2.46366 13.1346
  764 260.698 -24.2252 -54.0272
  765 317.994 -9.13779 2.93829
  766 375.039 -7.07329 34.7569
  767 235.064 0.342218 -0.794038
  768 235.074 0.347678 0.776245
  769 7.17567 10.1490 1.55958
  770 264.499 -8.96749 14.9008
  771 338.240 -8.56601 0.299178
  772 374.074 -16.0920 -15.9588
  773 170.373 -0.794340 12.9475
  774 170.460 -0.820031 -12.7444
  775 405.480 -12.3681 30.3730
  776 374.377 -8.41869 -33.2098
  777 142.035 -5.75521 -51.9100
  778 142.536 -5.07497 51.5518
  779 393.562 -32.4649 8.06052
  780 374.984 -12.1766 12.6081
  781 573.431 106.894 52.9642
</Section>

newXOutput 22

<Section columns = "stress_xx | stress_yy | stress_xy">
  1 438.835 0.285226 0.548989
  2 439.005 0.227078 -0.525165
  3 246.497 -0.0843080 -0.407837
  4 -3.03551 -3.45282 -4.05146
  5 790.107 322.556 260.437
  6 748.448 291.777 -218.432
  7 -4.01817 -3.45294 4.63416
  8 246.506 -0.0890134 0.401925
  9 440.286 -0.463522 -0.0826181
  10 440.458 -1.56117 1.07820
  11 438.936 -1.24738 0.705451
  12 431.539 -1.40586 2.61728
  13 427.920 -1.53528 3.06981
  14 419.668 -2.12231 5.11152
  15 405.769 -1.51796 7.90097
  16 389.467 -0.698550 9.20608
  17 370.538 0.482307 10.7714
  18 342.985 1.46174 8.90017
  19 325.519 3.35474 10.4962
  20 312.132 2.60509 7.90162
  21 295.327 3.36740 2.23355
  22 299.829 5.00187 -2.99751
  23 305.925 2.51092 -5.53743
  24 324.548 2.34421 -9.16667
  25 341.807 0.987682 -10.0062
  26 370.324 0.548853 -11.2247
  27 389.017 -1.13688 -9.90670
  28 407.227 -1.69189 -7.99606
  29 419.549 -1.43825 -5.67625
  30 425.848 -1.46463 -4.71734
  31 432.413 -2.06087 -1.82977
  32 438.958 -1.08179 -0.283891
  33 440.561 -1.34084 -0.943939
  34 440.493 -0.591507 0.153886
  35 425.361 -0.912094 -0.807239
  36 407.843 -2.30644 -0.894431
  37 391.588 -4.28553 -1.22093
  38 372.467 -5.39516 -1.37626
  39 353.145 -6.04570 -1.04924
  40 331.213 -5.60640 -0.366657
  41 309.950 -4.57447 -0.206475
  42 290.776 -3.50453 0.248404
  43 273.763 -1.63562 0.565082
  44 257.607 -0.539963 -0.0287552
  45 241.674 0.700225 0.0308410
  46 240.691 0.597260 1.10257
  47 238.731 0.138589 0.754232
  48 234.664 -0.426425 2.08373
  49 226.114 0.0161989 2.86864
  50 218.491 -0.617860 4.25069
  51 209.067 -0.475453 6.12321
  52 192.905 0.00697655 6.58328
  53 174.264 0.163665 7.63208
  54 156.232 -0.254325 11.9431
  55 121.879 0.808657 11.1203
  56 98.0813 0.908555 13.0175
  57 65.2394 1.25096 11.7527
  58 35.2017 0.477948 12.9436
  59 4.98464 3.61558 13.0679
  60 -15.5130 4.28596 6.71608
  61 -22.7913 4.14524 -0.243570
  62 -19.1651 3.15532 -7.01989
  63 -11.2689 -0.997850 -6.13054
  64 -1.18477 -11.3806 -5.75487
  65 0.704298 -21.7597 -7.67927
  66 2.89050 -34.5398 -4.32113
  67 9.58826 -34.2971 0.966160
  68 16.6794 -0.502049 20.3869
  69 49.1670 75.9472 70.6821
  70 211.109 237.766 215.677
  71 1022.52 111.395 160.806
  72 832.444 35.0782 53.9610
  73 794.769 19.6963 21.5912
  74 783.507 12.6607 -1.27977
  75 792.096 16.5734 -19.2253
  76 844.636 31.3328 -52.2804
  77 974.827 91.7207 -138.669
  78 169.690 270.953 -206.452
  79 40.3770 44.9846 -54.5678
  80 15.3971 -0.363690 -21.2116
  81 4.72457 -33.8893 -3.14602
  82 2.90360 -26.7409 3.13506
  83 3.27301 -27.4341 6.35984
  84 0.290044 -10.3337 7.29616
  85 -12.0927 -0.831660 6.05614
  86 -20.1205 3.04754 6.84756
  87 -23.2939 4.10736 0.0892277
  88 -15.8952 4.01974 -6.61768
  89 4.31530 4.01749 -12.8573
  90 34.7115 0.598876 -13.1271
  91 65.0348 1.17179 -11.9509
  92 98.4155 0.894508 -13.1095
  93 122.349 0.784467 -11.2071
  94 156.716 -0.360485 -11.8245
  95 174.483 0.162162 -7.48438
  96 192.875 0.0830750 -6.50581
  97 209.095 -0.457119 -6.15910
  98 218.449 -0.624066 -4.24150
  99 226.090 0.0125450 -2.87409
  100 234.580 -0.413810 -2.07248
  101 238.663 0.142458 -0.774804
  102 240.665 0.593682 -1.12183
  103 241.674 0.695185 -0.0418394
  104 257.605 -0.556527 0.0212603
  105 273.756 -1.66751 -0.575088
  106 290.763 -3.55182 -0.239095
  107 310.176 -4.69235 0.261471
  108 331.415 -5.65082 0.302276
  109 352.472 -6.05971 0.996120
  110 372.190 -5.15642 1.24735
  111 391.664 -4.45204 1.22629
  112 407.827 -2.44962 0.888889
  113 425.239 -1.05800 0.868850
  114 377.437 -39.8424 -11.7703
  115 381.637 -39.7108 8.60119
  116 403.677 57.4516 -19.7416
  117 322.028 -26.9100 -78.9213
  118 312.507 -24.9515 80.5353
  119 434.833 41.1615 38.4885
  120 455.590 12.3225 -30.4824
  121 323.419 -14.1864 -8.79149
  122 321.759 -15.0003 9.07267
  123 497.964 109.848 1.38440
  124 383.816 -17.6292 10.4021
  125 386.834 -16.6706 -11.9317
  126 396.358 -8.76852 -37.3466
  127 270.497 -22.4595 43.4838
  128 270.092 -22.6443 -45.6035
  129 398.247 -13.9226 33.5841
  130 538.893 121.162 4.86360
  131 143.509 33.7371 -85.7080
  132 138.804 34.3282 84.3911
  133 478.234 0.748226 -4.31614
  134 557.933 126.863 -16.5026
  135 370.740 25.3628 21.7053
  136 366.983 -10.2105 1.44989
  137 368.949 -9.48855 -1.69041
  138 475.599 -5.87493 52.8766
  139 270.692 -11.3306 -19.8710
  140 270.760 -11.2842 19.0500
  141 364.390 24.1523 -136.889
  142 636.540 88.3097 12.1749
  143 374.151 13.2052 -32.5702
  144 280.674 -3.91061 -5.59603
  145 280.623 -3.89428 5.63028
  146 324.880 -26.8587 20.1002
  147 331.163 -28.1283 -19.8931
  148 194.450 -12.0121 -62.9142
  149 193.679 -9.58498 63.7898
  150 415.960 63.7153 21.5679
  151 412.772 -39.6111 19.0180
  152 415.842 -23.1097 -26.2066
  153 427.918 -25.2763 16.8126
  154 393.261 -26.8854 -18.1354
  155 410.710 19.5277 -42.1971
  156 368.581 30.9001 149.561
  157 27.2691 22.9644 14.2829
  158 23.8518 19.2416 -10.9957
  159 361.415 22.8297 -8.71450
  160 391.752 8.76347 39.3637
  161 403.462 -5.47390 6.51942
  162 400.128 -6.36976 -6.58714
  163 372.863 -27.8892 2.88717
  164 396.001 -9.29199 -22.0725
  165 452.649 75.1026 -28.4842
  166 360.477 -23.5229 0.787004
  167 343.845 -39.0641 41.7355
  168 323.388 -7.67881 -2.62937
  169 323.777 -7.63439 2.72334
  170 397.752 -8.60776 20.5416
  171 346.276 -38.8348 -40.0792
  172 408.511 -38.1866 -29.3661
  173 461.263 82.0998 25.2946
  174 361.746 -19.3365 0.961314
  175 543.655 64.2926 -40.9477
  176 96.9587 6.57754 -48.9755
  177 94.2727 6.09284 47.7397
  178 669.925 127.980 67.5688
  179 566.188 104.151 20.2605
  180 691.587 80.1160 -43.6790
  181 395.644 -5.17291 2.32512
  182 395.183 -5.06531 -2.35642
  183 240.395 -7.62278 -24.6744
  184 240.420 -7.72072 24.7547
  185 193.902 -7.14176 -38.7749
  186 195.290 -7.18592 39.4196
  187 117.156 84.1717 -107.406
  188 380.465 -2.07379 30.3723
  189 401.238 -29.4510 18.6104
  190 261.730 -3.34626 -8.84023
  191 261.259 -3.53842 8.92857
  192 58.6237 58.8759 62.2332
  193 372.985 0.631357 -29.3052
  194 394.148 -20.5728 22.1067
  195 357.889 5.77675 25.8033
  196 406.255 -24.5947 -73.3472
  197 405.092 -6.45616 -12.3438
  198 367.744 -32.5047 4.08626
  199 441.315 88.5627 -13.1590
  200 411.582 -12.5204 36.3331
  201 277.115 -25.6273 -64.0856
  202 205.108 -0.671474 -84.2689
  203 200.454 0.629412 84.3103
  204 397.897 33.6525 32.7915
  205 290.377 0.741900 110.774
  206 385.457 43.4297 6.32222
  207 492.133 56.5712 -20.5630
  208 406.189 -6.32457 11.0070
  209 277.203 -25.2376 64.5083
  210 350.905 -15.3167 1.65914
  211 661.572 166.158 -83.7412
  212 491.870 64.5258 22.6207
  213 286.918 -20.5652 -28.1313
  214 285.428 -19.2515 27.7745
  215 43.3570 14.7139 -26.4148
  216 49.6052 14.9959 30.2282
  217 325.220 -33.0893 31.8460
  218 343.859 -12.5385 -2.82226
  219 346.721 -7.12795 -0.461885
  220 350.403 -7.11445 0.341382
  221 326.053 -32.0457 -32.0113
  222 342.133 -23.1746 -8.13984
  223 405.069 -35.1776 53.9816
  224 491.176 107.336 -7.43358
  225 570.106 113.026 -9.89128
  226 455.312 13.2078 28.8066
  227 379.361 -12.7122 6.29391
  228 281.445 3.20427 -112.692
  229 310.506 -19.3417 16.4994
  230 375.746 -14.5830 -5.16676
  231 455.073 -20.0948 7.09060
  232 389.559 31.0017 -31.6232
  233 433.663 -22.5532 -16.4602
  234 337.353 13.1690 6.22497
  235 290.591 -9.79674 -12.4692
  236 428.290 1.11168 -37.6302
  237 240.817 -3.58163 -12.6276
  238 240.583 -3.51131 12.2553
  239 259.558 -0.435057 -1.64398
  240 259.565 -0.416089 1.62072
  241 392.327 4.35544 -40.2969
  242 288.300 -9.71870 13.1494
  243 308.144 -18.8673 -17.5244
  244 141.523 103.753 139.762
  245 23.5067 28.9987 -20.0668
  246 730.399 55.2482 16.1323
  247 336.886 5.97078 -13.8393
  248 380.294 -25.7458 -8.41201
  249 390.679 86.7564 -189.171
  250 398.848 -32.5328 -13.7865
  251 202.585 -6.46312 -25.6414
  252 202.862 -6.66588 25.8491
  253 395.844 -16.3397 -27.9924
  254 408.853 -5.70557 -39.6718
  255 297.203 -4.49689 -2.49828
  256 297.200 -4.52412 2.42217
  257 418.713 -2.58959 -2.53994
  258 419.084 -2.12736 2.51243
  259 387.011 -3.41572 -22.0602
  260 548.157 61.6105 115.747
  261 360.993 -34.7273 -9.71495
  262 305.587 -8.59909 -6.67207
  263 304.148 -8.75590 6.98047
  264 -0.190425 -0.635832 -8.18904
  265 -1.63874 0.715826 8.59898
  266 109.712 -2.89146 -39.5071
  267 109.063 -2.45237 39.2365
  268 254.181 -1.70485 3.85434
  269 254.149 -1.72362 -3.90664
  270 386.961 -4.32890 20.9140
  271 447.773 92.9083 9.31777
  272 407.395 -37.8732 -2.31195
  273 417.081 49.4611 -35.1509
  274 403.066 -21.0817 -29.8846
  275 439.508 -25.5361 3.10570
  276 155.127 -3.43912 36.8521
  277 153.992 -3.65862 -36.3073
  278 405.578 -38.4398 -6.42108
  279 352.908 -39.8788 51.9879
  280 374.078 -5.89949 0.595044
  281 374.471 -5.65062 -0.556939
  282 417.910 -1.89052 -1.24433
  283 417.972 -2.16251 1.31578
  284 192.268 52.8954 125.602
  285 434.261 34.9083 -40.1852
  286 388.589 -32.9686 7.67248
  287 493.963 102.238 12.1581
  288 356.249 3.61319 -23.8224
  289 345.120 -10.3220 1.56238
  290 476.250 76.1577 -26.5652
  291 388.634 -6.74544 103.307
  292 415.954 73.7610 0.186530
  293 352.623 -37.8912 -54.2773
  294 375.570 -42.6982 23.4895
  295 357.830 -35.2910 13.3376
  296 554.237 113.241 9.25777
  297 338.808 -23.0393 10.4546
  298 415.692 -3.06643 -6.11137
  299 391.168 -19.9259 -18.3528
  300 661.230 184.384 81.6084
  301 430.409 0.406230 36.2772
  302 407.910 -2.97846 -10.2806
  303 426.074 57.6806 31.7700
  304 459.960 -1.12074 -81.1785
  305 409.495 12.0054 42.2255
  306 13.6398 15.5122 7.66388
  307 244.658 -18.2409 52.3602
  308 389.225 -6.97575 3.67663
  309 387.875 -7.78442 -4.03654
  310 385.175 40.2580 -18.5070
  311 235.300 -15.7416 -50.6062
  312 251.425 -19.9491 -72.1414
  313 397.585 -9.18417 9.47288
  314 375.431 -21.6515 6.59688
  315 391.118 -1.96022 38.6043
  316 574.768 112.947 -132.889
  317 394.986 -13.8299 26.3632
  318 393.724 -10.4049 -9.64407
  319 415.373 -2.65310 6.11190
  320 244.830 -2.56767 8.50916
  321 245.040 -2.84274 -8.63563
  322 68.3832 42.1499 -54.1325
  323 332.618 10.1881 -5.15175
  324 396.862 -12.0442 17.5662
  325 538.681 97.2507 -1.30025
  326 396.554 49.6363 21.9565
  327 213.394 40.9226 -125.838
  328 245.736 -15.1048 72.6421
  329 370.363 22.0330 -24.1743
  330 406.695 -3.51439 11.1978
  331 393.106 -10.5309 -31.0343
  332 10.0339 6.08034 -1.13098
  333 74.5235 36.3824 50.0695
  334 295.471 -31.1725 51.6994
  335 -2.31466 7.26249 1.99854
  336 -1.49461 7.91854 -1.74381
  337 423.764 170.552 205.985
  338 391.602 -9.21728 31.2051
  339 809.015 86.5703 -102.344
  340 383.620 22.5482 33.4583
  341 458.086 47.3766 32.1028
  342 329.233 -10.6680 4.61576
  343 338.762 6.05259 14.8522
  344 301.774 -33.2716 -48.9553
  345 378.155 -18.3120 -7.48603
  346 344.242 -19.0023 5.02649
  347 396.659 -11.2932 -18.1099
  348 382.899 -42.1574 -31.8008
  349 447.501 -24.4477 -17.6721
  350 363.867 27.5663 6.69848
  351 405.023 -34.6559 11.7848
  352 512.204 37.5484 6.19774
  353 227.348 -11.2853 37.8967
  354 364.074 -13.9826 1.90216
  355 353.046 -38.8607 -27.3731
  356 583.734 141.775 30.2980
  357 431.849 72.0904 -25.7939
  358 279.704 -5.87037 9.36567
  359 280.235 -6.35437 -9.54099
  360 225.740 -10.9072 -38.4862
  361 141.861 126.821 -144.983
  362 333.601 -6.33633 -1.52818
  363 334.612 -6.68613 1.26525
  364 214.105 -2.21672 -13.2889
  365 214.061 -2.26315 13.4319
  366 754.840 28.9942 -15.0623
  367 764.556 52.2747 48.2193
  368 356.097 -28.6597 -6.73329
  369 476.514 15.9296 107.689
  370 173.509 -0.796546 67.3730
  371 173.671 -1.94374 -67.6926
  372 355.773 -22.5939 83.9352
  373 360.090 2.87964 24.5002
  374 377.256 4.25093 34.4486
  375 346.109 -39.9287 32.3070
  376 102.313 21.1671 -58.4522
  377 101.136 17.1292 56.2340
  378 47.9777 3.47593 -24.4270
  379 48.2378 2.94228 24.6675
  380 378.393 -33.9847 -62.7712
  381 280.031 -2.37734 -2.38114
  382 280.035 -2.34397 2.37070
  383 559.992 107.150 -0.865776
  384 342.887 -18.4575 -5.19810
  385 362.008 -9.13344 -105.639
  386 384.952 -35.4144 -2.37637
  387 529.659 96.7340 -3.01441
  388 464.423 40.3631 -32.3139
  389 398.019 -22.3504 26.2735
  390 261.517 -6.45547 -14.5775
  391 260.704 -5.80800 13.8505
  392 344.877 -8.87741 -1.41123
  393 323.118 -10.8989 -6.06081
  394 252.187 -14.9419 34.6181
  395 251.865 -14.9004 -35.2452
  396 31.7652 48.3516 -39.6599
  397 395.037 18.4270 -39.0221
  398 304.629 -21.0800 22.1256
  399 488.126 35.1945 -115.385
  400 385.768 -25.4758 12.2435
  401 52.4392 65.4330 66.5049
  402 387.954 -3.46087 -36.5959
  403 248.002 -1.53389 5.02488
  404 247.915 -1.46248 -5.04712
  405 401.126 -3.40845 0.986774
  406 400.986 -3.21308 -0.874179
  407 413.639 -25.6063 23.6187
  408 194.661 -11.0100 -51.5913
  409 416.735 -2.18988 -6.62521
  410 197.621 -11.3861 51.9758
  411 479.059 10.2282 -8.28585
  412 404.833 -19.4854 31.4837
  413 357.992 -23.5739 -1.78415
  414 633.634 137.668 -54.9108
  415 394.796 -14.9643 21.6111
  416 632.104 116.131 38.0507
  417 474.335 100.440 10.9963
  418 182.259 -3.87077 -23.3234
  419 182.398 -3.71159 23.7219
  420 73.3939 -0.637133 -28.1685
  421 72.4408 -0.604596 27.5995
  422 396.471 -3.36820 -15.6308
  423 802.528 112.915 103.610
  424 209.518 14.2485 99.7451
  425 262.320 -12.2312 -23.8978
  426 261.941 -12.2070 24.1342
  427 287.613 -24.4115 35.5429
  428 237.896 71.0747 -163.992
  429 470.512 102.536 -6.03527
  430 288.977 -24.0806 -36.0192
  431 425.653 -1.67654 -2.59020
  432 440.264 79.8021 22.5047
  433 457.765 91.2477 -17.6799
  434 309.300 -22.3857 -22.2377
  435 583.614 136.265 -28.0334
  436 316.923 -33.4665 66.0679
  437 498.664 8.60707 -25.1821
  438 335.640 -22.9296 -91.0916
  439 374.487 5.21939 -33.8304
  440 349.605 -35.0635 -19.1547
  441 691.277 64.8586 -12.4471
  442 681.656 81.2866 41.3276
  443 392.721 -27.7548 16.4611
  444 0.420173 6.38577 -6.07675
  445 1.40567 6.82736 6.04973
  446 512.319 103.266 9.05142
  447 378.194 -1.59280 19.2676
  448 343.806 -29.5654 13.4075
  449 272.040 -10.3549 95.3369
  450 1.64462 -8.25697 -6.89507
  451 300.593 -27.5046 -69.9775
  452 382.976 -30.2447 -7.85087
  453 379.385 -6.93456 2.47437
  454 379.321 -6.60208 -1.91498
  455 161.592 15.3399 -83.1882
  456 396.249 -2.77754 14.7567
  457 55.5452 25.9611 -34.6789
  458 18.6044 20.0222 19.6096
  459 151.615 -1.13744 -21.2437
  460 151.148 -0.909478 21.2971
  461 855.047 198.647 -158.677
  462 375.077 -1.07495 -19.9597
  463 386.245 -10.7812 -6.64869
  464 375.180 -16.3126 5.63619
  465 362.370 14.6516 25.2136
  466 403.782 -1.34479 41.0406
  467 358.530 -6.40108 0.131400
  468 359.943 -6.29052 -0.343245
  469 139.380 10.0811 66.5273
  470 301.542 -10.0020 9.66259
  471 474.408 24.6510 21.1964
  472 446.363 -26.0653 34.5442
  473 517.602 110.933 -0.477037
  474 426.528 -1.20585 2.57508
  475 364.097 -18.5679 -1.63795
  476 315.596 -5.38807 -1.62811
  477 315.412 -5.20928 1.51008
  478 113.986 52.4668 85.7265
  479 365.564 -13.5239 -1.86005
  480 50.6839 27.4732 31.2979
  481 113.442 54.0334 -84.6120
  482 397.830 56.6316 -6.03638
  483 325.678 -18.4770 -10.9410
  484 297.291 -6.11262 -5.22906
  485 297.514 -5.93063 5.31912
  486 418.847 -36.0672 -4.32434
  487 417.418 -2.68504 6.56551
  488 537.894 39.4515 50.2130
  489 410.198 49.4130 30.9606
  490 330.316 -25.4042 -15.0678
  491 404.611 64.0119 8.64987
  492 5.49011 -12.3668 -1.90106
  493 117.739 128.370 139.056
  494 414.479 34.1676 38.6089
  495 303.545 -10.0267 -8.89682
  496 357.974 0.663916 -16.8860
  497 286.542 23.1366 129.492
  498 369.998 -28.0534 -1.57517
  499 428.082 -35.3494 25.1286
  500 401.338 -7.60777 -9.88902
  501 631.146 96.6004 -15.0577
  502 108.499 -0.161933 -25.0945
  503 108.674 0.0349796 25.5015
  504 404.038 -3.99299 -3.90260
  505 402.548 -4.33754 4.02975
  506 231.684 -15.6765 63.3008
  507 287.465 -12.2944 -16.4425
  508 272.984 -7.75194 -95.4392
  509 239.001 -18.7406 -60.8623
  510 222.502 -1.76371 -9.16203
  511 222.415 -1.82259 9.09083
  512 392.418 -36.7560 4.12737
  513 292.433 -14.3480 18.0083
  514 416.076 4.77066 -41.5293
  515 306.826 -14.8694 13.3867
  516 324.989 -33.9984 40.0670
  517 501.871 39.2663 3.31371
  518 196.267 -0.716888 -13.2154
  519 196.323 -0.770208 13.4003
  520 501.805 106.028 -10.3519
  521 440.133 -3.87807 -29.2801
  522 440.317 -7.22281 25.8139
  523 397.942 -21.8092 -26.1485
  524 311.418 -26.6177 27.6437
  525 780.313 44.9289 -51.3459
  526 435.541 -29.6335 1.84412
  527 332.066 3.45606 -13.4408
  528 334.827 -13.8205 4.74087
  529 402.388 46.7815 -28.7535
  530 660.699 194.262 129.962
  531 390.416 -9.09607 6.76536
  532 361.014 -7.94173 0.153939
  533 364.576 -7.12850 -0.590266
  534 408.551 -32.1767 -14.6922
  535 324.052 -19.0738 11.5423
  536 249.203 0.0697951 -2.26277
  537 249.228 0.0768740 2.23081
  538 326.501 -35.1755 -38.9116
  539 420.194 72.3319 -14.1249
  540 394.256 -11.8604 -12.9059
  541 336.968 2.91382 15.7456
  542 394.622 -15.3574 -22.5292
  543 251.513 0.0350265 -0.491291
  544 251.513 0.0440458 0.479968
  545 456.347 -18.7920 -39.3991
  546 315.266 -28.3362 -28.0771
  547 454.021 -7.04639 -16.5060
  548 418.986 -26.4291 66.1727
  549 404.830 -6.49930 8.86179
  550 428.287 -1.43180 1.34873
  551 428.224 -1.29382 -1.18091
  552 383.302 -41.8286 -19.8165
  553 394.448 -40.3772 41.7916
  554 229.766 -1.20790 -5.99644
  555 229.642 -1.19918 5.94688
  556 358.909 -35.5534 63.4703
  557 405.084 32.6821 -37.3030
  558 311.701 -32.6809 -56.9338
  559 400.032 22.7438 40.3319
  560 382.993 -42.4968 33.2482
  561 313.389 3.64621 5.71308
  562 340.334 -8.69088 1.77680
  563 418.174 -10.3358 -35.6649
  564 522.405 111.566 0.0981499
  565 426.852 -16.0495 -28.2939
  566 325.004 -23.8111 16.5302
  567 265.435 -3.06367 6.64693
  568 265.480 -3.10794 -6.74249
  569 378.703 -10.4526 3.28476
  570 306.326 -14.2900 -13.0564
  571 392.242 -6.80189 24.7992
  572 419.868 -29.4263 -15.6240
  573 355.928 -10.6531 -0.268685
  574 641.789 194.201 -90.8647
  575 357.388 8.48089 -24.0145
  576 538.018 116.214 -5.43592
  577 316.871 3.03447 -8.92988
  578 386.625 -13.6422 8.75637
  579 114.436 73.4199 108.776
  580 379.781 35.8944 17.5222
  581 210.463 16.1685 -101.238
  582 419.365 -35.3683 -0.829411
  583 386.682 -4.44158 -29.9466
  584 433.525 53.4318 -36.1375
  585 -3.23138 -3.79427 -6.91125
  586 -4.11522 -3.38080 7.00894
  587 268.389 -2.05727 -3.86553
  588 268.391 -2.02749 3.83146
  589 406.540 -26.5383 -23.8935
  590 409.786 -17.4924 -32.9477
  591 40.1723 37.5126 34.1277
  592 385.086 33.3461 26.6642
  593 349.389 -16.3826 -2.02404
  594 345.591 -6.11573 0.0298860
  595 344.719 -6.05264 -0.326667
  596 354.693 16.3036 16.6868
  597 774.629 17.9054 11.2220
  598 288.468 -16.6478 -22.3132
  599 310.184 4.46247 1.30286
  600 403.736 6.73447 -42.2867
  601 316.487 -36.1129 57.9768
  602 10.2079 4.24729 13.6812
  603 9.01060 3.53395 -12.8763
  604 425.191 19.1196 -41.6025
  605 376.694 39.3091 -4.73802
  606 398.939 -27.8604 -21.3135
  607 237.180 -5.01976 -17.9499
  608 236.755 -5.39592 17.9472
  609 409.960 -2.45873 2.16672
  610 409.806 -2.46387 -2.27458
  611 399.705 -3.89775 -40.3666
  612 389.956 -18.3296 15.9314
  613 283.534 -15.9224 23.4134
  614 24.3751 18.3496 -13.8557
  615 396.689 231.980 -235.613
  616 401.596 -7.24293 15.8130
  617 400.123 -6.80328 -16.9289
  618 316.544 15.6752 -129.109
  619 377.188 -11.0444 -4.12274
  620 338.960 -31.9031 21.0181
  621 439.323 89.6226 -0.424413
  622 152.245 -6.07406 -47.1452
  623 153.589 -6.04416 47.5254
  624 479.187 80.5106 23.4495
  625 387.828 -25.0968 -14.6966
  626 347.867 19.1671 -7.79848e-06
  627 376.845 -36.0914 -4.14281
  628 215.083 -5.73833 22.2330
  629 214.942 -5.69790 -21.9549
  630 276.430 -7.00545 -12.4444
  631 264.507 -0.806788 -1.72816
  632 264.511 -0.784090 1.71612
  633 385.303 -14.3353 -8.77239
  634 430.466 -0.684673 -0.666750
  635 430.336 -0.786013 0.855144
  636 504.595 95.6305 -15.4868
  637 240.416 73.8608 153.752
  638 461.254 -5.78749 12.4651
  639 205.596 33.1444 112.070
  640 91.5607 25.9273 54.7071
  641 470.916 21.1578 -24.7082
  642 396.886 -37.4008 -3.27212
  643 284.447 -3.83866 -4.26971
  644 284.532 -3.78316 4.28170
  645 384.105 -4.16499 -0.474424
  646 384.410 -4.26671 0.548222
  647 302.202 -30.7359 -42.0533
  648 140.707 7.17850 -67.2760
  649 234.549 -1.22425 3.79138
  650 234.480 -1.28993 -3.73187
  651 887.784 240.260 181.477
  652 449.746 51.2211 -36.4479
  653 402.647 -12.8966 -36.4044
  654 397.939 -14.5324 -32.9989
  655 420.478 34.6508 -40.6483
  656 255.237 -6.59993 -18.2546
  657 254.288 -7.02252 17.8361
  658 373.929 -32.6087 -0.155923
  659 2.81408 -10.4177 7.58433
  660 418.667 -0.701282 39.8634
  661 26.6846 17.2955 14.4060
  662 374.378 10.5538 32.6938
  663 62.6008 59.3416 -57.9530
  664 351.216 14.6875 -17.1070
  665 413.205 -2.98368 4.74725
  666 346.033 -30.8466 -14.3485
  667 392.033 -7.21647 -25.9908
  668 122.751 -0.760075 18.3978
  669 123.203 -0.642344 -18.4725
  670 474.798 93.9018 -18.9852
  671 217.185 -11.0012 -77.3721
  672 384.568 -21.0652 -11.9480
  673 336.945 -14.1876 -5.21711
  674 412.579 -3.62301 -4.56088
  675 442.440 63.1555 32.0109
  676 75.3577 15.0150 -41.3229
  677 73.4289 10.0305 40.9508
  678 400.679 -9.81267 37.9895
  679 353.754 -26.6846 5.85338
  680 393.990 -20.9222 -22.0565
  681 579.808 144.834 -33.9125
  682 465.259 100.480 3.77200
  683 341.133 -12.0196 2.79089
  684 441.930 16.8157 37.5912
  685 399.405 -41.8012 13.4914
  686 272.929 -6.68923 12.4643
  687 359.161 -38.6893 20.5138
  688 416.926 -1.88478 0.113626
  689 416.882 -2.04196 -0.0735046
  690 583.589 129.037 30.6656
  691 228.509 -9.13763 30.1821
  692 32.7287 33.4119 -24.3713
  693 -9.48226 0.251434 8.05245
  694 -8.33873 0.473979 -8.32551
  695 200.008 -7.74612 33.0497
  696 98.6907 37.7662 -63.3558
  697 7.88879 -1.47486 -10.6870
  698 383.319 -30.7359 7.73579
  699 265.898 -15.9808 -84.3758
  700 300.410 -30.5675 41.4216
  701 372.118 -23.3490 -4.38861
  702 5.22899 -11.9350 -2.80584
  703 442.690 21.2397 -37.6822
  704 397.745 -39.0186 -1.62007
  705 392.306 -32.1537 -12.7177
  706 383.754 11.5085 -37.0031
  707 228.065 -9.18040 -30.2200
  708 39.2229 64.7716 -61.7234
  709 382.325 21.0578 -34.4071
  710 -0.585459 -10.2174 -7.99201
  711 360.338 0.228483 16.0260
  712 199.324 -7.42018 -32.6835
  713 254.724 -14.3211 83.8751
  714 354.669 -11.9714 0.552018
  715 293.571 -6.56283 -6.89005
  716 212.791 -8.55050 76.1910
  717 125.094 1.14919 -52.4045
  718 123.221 0.833499 51.3487
  719 292.623 -6.24581 7.11476
  720 72.4446 1.41817 -21.3219
  721 72.8280 1.54793 21.1996
  722 317.408 -11.8233 7.62622
  723 383.719 -0.580275 -13.5608
  724 447.860 48.0431 162.246
  725 309.987 -5.89176 -3.76340
  726 309.812 -6.04647 3.64432
  727 394.658 -11.5280 -27.2785
  728 300.580 -3.97335 -2.00139
  729 300.504 -3.83680 1.94298
  730 386.341 -4.24206 26.7575
  731 393.906 -41.4842 7.57028
  732 316.641 -8.28899 4.74169
  733 30.7126 -0.824045 -14.2975
  734 30.9300 -1.21570 14.0913
  735 316.087 -7.42066 -4.47879
  736 7.43285 8.26182 -2.61082
  737 422.947 -31.4323 -45.6234
  738 477.548 -6.46688 15.6402
  739 147.066 21.4672 78.2141
  740 243.614 -0.0122357 2.51753
  741 243.553 0.0121440 -2.55103
  742 371.013 -37.7942 9.26255
  743 714.215 101.752 -81.9008
  744 340.303 0.758716 -13.0322
  745 335.769 -8.00261 -1.99811
  746 300.137 107.367 187.274
  747 424.870 16.6216 41.4652
  748 384.816 -0.781103 13.1105
  749 432.007 -0.922817 -1.51895
  750 432.435 -1.15214 1.52238
  751 599.563 115.738 -25.8699
  752 426.311 77.1595 10.6759
  753 331.410 -9.82265 -3.40006
  754 422.432 -1.82843 4.81065
  755 267.127 -15.5291 -30.2194
  756 387.276 -4.59134 1.83570
  757 387.108 -4.56914 -1.59905
  758 285.282 -23.5295 75.4362
  759 399.281 -42.5629 -18.2272
  760 396.199 -16.1742 29.1922
  761 266.700 -15.2800 29.9727
  762 414.460 59.7478 -25.7058
  763 342.601 2.58292 13.6973
  764 273.367 -25.3916 -56.7160
  765 333.363 -9.57012 3.14605
  766 393.013 -7.41729 36.1754
  767 246.928 0.360429 -0.837761
  768 246.938 0.366136 0.819206
  769 7.59383 10.7039 1.53473
  770 277.519 -9.37919 15.6648
  771 354.478 -8.98328 0.384650
  772 391.903 -16.8717 -16.5199
  773 179.086 -0.826577 13.5812
  774 179.178 -0.853340 -13.3686
  775 424.740 -12.9688 31.4997
  776 392.322 -8.82631 -34.5607
  777 149.193 -6.05254 -54.5022
  778 149.718 -5.33919 54.1287
  779 412.232 -34.0190 8.15358
  780 392.837 -12.7742 13.0410
  781 599.902 112.255 56.0297
</Section>

newXOutput 23

<Section columns = "stress_xx | stress_yy | stress_xy">
  1 458.277 0.280527 0.569308
  2 458.453 0.220260 -0.544816
  3 258.362 -0.0830943 -0.421866
  4 -3.17814 -3.61442 -4.24352
  5 822.936 337.435 271.718
  6 779.968 305.344 -228.020
  7 -4.20599 -3.61416 4.85417
  8 258.371 -0.0880056 0.415720
  9 459.786 -0.495541 -0.0923413
  10 459.979 -1.63676 1.11123
  11 458.421 -1.30906 0.719652
  12 450.782 -1.48010 2.69908
  13 447.062 -1.60768 3.17207
  14 438.528 -2.22300 5.29128
  15 424.142 -1.59421 8.19736
  16 407.248 -0.736132 9.56071
  17 387.604 0.500125 11.1954
  18 358.989 1.52755 9.25869
  19 340.834 3.50656 10.9248
  20 326.906 2.73784 8.22506
  21 309.428 3.52634 2.32620
  22 314.112 5.24476 -3.12274
  23 320.456 2.63534 -5.76601
  24 339.824 2.45512 -9.53946
  25 357.766 1.03313 -10.4080
  26 387.380 0.570771 -11.6682
  27 406.779 -1.19379 -10.2890
  28 425.652 -1.77431 -8.29467
  29 438.407 -1.51205 -5.88022
  30 444.913 -1.54170 -4.88240
  31 451.683 -2.16146 -1.88088
  32 458.443 -1.13768 -0.281114
  33 460.084 -1.40872 -0.971996
  34 459.999 -0.629153 0.165854
  35 444.305 -0.975273 -0.838276
  36 426.121 -2.43888 -0.926159
  37 409.237 -4.50769 -1.26213
  38 389.360 -5.66176 -1.41883
  39 369.266 -6.33176 -1.08127
  40 346.451 -5.86367 -0.367281
  41 324.331 -4.77582 -0.205471
  42 304.386 -3.65336 0.267439
  43 286.696 -1.69891 0.594099
  44 269.904 -0.556524 -0.0266271
  45 253.347 0.731273 0.0371102
  46 252.312 0.624457 1.15586
  47 250.246 0.146687 0.797313
  48 245.983 -0.441727 2.18827
  49 237.048 0.0197659 3.00494
  50 229.064 -0.642985 4.44905
  51 219.198 -0.493801 6.40755
  52 202.302 0.0102713 6.89213
  53 182.812 0.173247 7.98966
  54 163.939 -0.261542 12.5011
  55 128.021 0.845623 11.6444
  56 103.109 0.949100 13.6295
  57 68.7113 1.30544 12.3203
  58 37.2198 0.494635 13.5818
  59 5.51864 3.78070 13.7238
  60 -16.0243 4.48393 7.07303
  61 -23.7347 4.34198 -0.213593
  62 -20.0207 3.31272 -7.32208
  63 -11.7865 -1.03593 -6.40885
  64 -1.23188 -11.9048 -6.01673
  65 0.748144 -22.7396 -8.01409
  66 3.03820 -36.0194 -4.47062
  67 10.0567 -35.6368 1.11359
  68 17.5020 -0.0577464 21.5040
  69 51.4725 80.2763 74.1568
  70 220.175 249.564 225.313
  71 1065.07 116.217 167.277
  72 868.023 36.5751 56.1830
  73 828.863 20.5565 22.4652
  74 817.164 13.2213 -1.33297
  75 826.109 17.3021 -20.0297
  76 880.693 32.6991 -54.4438
  77 1015.77 95.7112 -144.300
  78 176.974 284.259 -215.673
  79 42.2974 47.9014 -57.3679
  80 16.1570 0.131614 -22.3785
  81 4.95625 -35.1866 -3.38848
  82 3.05645 -27.8633 3.21589
  83 3.43934 -28.6743 6.63071
  84 0.308197 -10.8053 7.63045
  85 -12.6498 -0.861970 6.33066
  86 -21.0217 3.19957 7.14245
  87 -24.2603 4.30264 0.0519175
  88 -16.4224 4.20521 -6.97010
  89 4.82060 4.20123 -13.5035
  90 36.7090 0.621036 -13.7737
  91 68.4989 1.22253 -12.5274
  92 103.459 0.934312 -13.7254
  93 128.513 0.820234 -11.7348
  94 164.444 -0.372457 -12.3769
  95 183.042 0.171742 -7.83554
  96 202.271 0.0896538 -6.81142
  97 219.227 -0.474686 -6.44475
  98 229.021 -0.649359 -4.43934
  99 237.024 0.0160159 -3.01054
  100 245.896 -0.428570 -2.17654
  101 250.175 0.150736 -0.818714
  102 252.285 0.620734 -1.17590
  103 253.346 0.726019 -0.0485502
  104 269.901 -0.573796 0.0188344
  105 286.689 -1.73215 -0.604500
  106 304.372 -3.70264 -0.257754
  107 324.566 -4.89872 0.262492
  108 346.661 -5.90997 0.300019
  109 368.566 -6.34632 1.02556
  110 389.073 -5.41246 1.28444
  111 409.316 -4.68109 1.26790
  112 426.104 -2.58772 0.920440
  113 444.178 -1.12711 0.902270
  114 394.528 -41.6491 -12.5327
  115 398.908 -41.5108 9.22823
  116 422.174 60.0673 -20.5174
  117 336.644 -28.1554 -82.6684
  118 326.717 -26.1106 84.3517
  119 454.545 43.0228 39.9242
  120 476.069 12.8888 -31.4781
  121 338.319 -14.8168 -9.28504
  122 336.588 -15.6667 9.57981
  123 520.501 114.723 1.41205
  124 401.214 -18.4389 10.6880
  125 404.357 -17.4388 -12.2826
  126 414.390 -9.17505 -38.7720
  127 283.061 -23.4745 45.5484
  128 282.630 -23.6707 -47.7667
  129 416.334 -14.5634 34.8380
  130 563.058 126.604 5.40381
  131 150.273 35.2639 -89.8194
  132 145.347 35.8886 88.4471
  133 499.544 0.832117 -4.90269
  134 582.896 132.550 -17.5431
  135 387.850 26.5475 22.5803
  136 383.666 -10.6874 1.42274
  137 385.712 -9.93330 -1.67435
  138 496.673 -6.03734 55.6004
  139 283.382 -11.8280 -20.8305
  140 283.456 -11.7794 19.9733
  141 380.605 25.3300 -143.254
  142 664.690 92.1785 12.7355
  143 391.371 13.8240 -33.8775
  144 293.858 -4.07511 -5.88416
  145 293.805 -4.05804 5.91988
  146 339.796 -28.0613 21.1463
  147 346.336 -29.3898 -20.9379
  148 203.613 -12.5835 -65.8905
  149 202.809 -10.0470 66.8070
  150 434.975 66.6054 22.3991
  151 431.313 -41.4056 20.1578
  152 434.619 -24.1678 -27.0766
  153 447.172 -26.4266 17.2407
  154 411.073 -28.1120 -18.6984
  155 429.400 20.4137 -43.8308
  156 384.974 32.4231 156.488
  157 28.6624 24.0781 15.0991
  158 25.0947 20.1747 -11.6444
  159 378.153 23.9067 -9.06787
  160 409.659 9.16720 40.9128
  161 421.621 -5.74654 6.71012
  162 418.153 -6.68272 -6.77736
  163 389.799 -29.1527 2.81278
  164 413.968 -9.72609 -22.8813
  165 473.182 78.4910 -29.4972
  166 376.897 -24.5843 0.991823
  167 359.474 -40.8404 43.8061
  168 338.306 -8.02124 -2.79435
  169 338.710 -7.97624 2.89272
  170 415.780 -9.01247 21.2897
  171 362.010 -40.6009 -42.0766
  172 426.854 -39.9154 -30.9679
  173 482.165 85.7956 26.1627
  174 378.221 -20.2114 0.853283
  175 567.640 67.3870 -43.2638
  176 101.711 6.86011 -51.3512
  177 98.9001 6.35420 50.0605
  178 699.406 133.641 70.6439
  179 591.265 108.991 21.6945
  180 721.863 83.6359 -45.6138
  181 413.463 -5.43449 2.37101
  182 412.984 -5.32263 -2.40419
  183 251.768 -7.95619 -25.8372
  184 251.794 -8.05845 25.9211
  185 203.169 -7.46614 -40.5892
  186 204.616 -7.51260 41.2643
  187 122.623 88.1762 -112.551
  188 397.893 -2.16641 31.5638
  189 419.384 -30.7951 19.1702
  190 274.114 -3.48524 -9.27655
  191 273.625 -3.68562 9.36773
  192 61.4606 61.7509 65.3455
  193 390.133 0.664377 -30.4669
  194 412.011 -21.5164 22.8623
  195 374.462 6.06365 26.8463
  196 424.401 -25.6838 -76.9059
  197 423.366 -6.76887 -12.7678
  198 384.454 -33.9732 4.47649
  199 461.435 92.5404 -13.6418
  200 430.222 -13.0992 37.6692
  201 289.875 -26.8102 -67.1264
  202 214.656 -0.742788 -88.2580
  203 209.799 0.619337 88.3046
  204 416.110 35.1933 34.0822
  205 303.554 0.760814 115.972
  206 403.193 45.4319 6.57550
  207 514.185 59.1643 -21.0673
  208 424.499 -6.63178 11.3791
  209 289.968 -26.4029 67.5640
  210 366.934 -16.0099 1.85306
  211 690.698 173.575 -87.6380
  212 513.939 67.4761 23.2339
  213 300.239 -21.4823 -29.4959
  214 298.690 -20.1101 29.1195
  215 45.5910 15.3931 -27.7627
  216 52.1234 15.6861 31.7572
  217 340.111 -34.5825 33.4351
  218 359.602 -13.1046 -3.04368
  219 362.583 -7.45827 -0.528322
  220 366.415 -7.44609 0.403864
  221 340.975 -33.4912 -33.6081
  222 357.789 -24.2129 -8.65285
  223 423.218 -36.7598 56.6718
  224 513.407 112.124 -7.59427
  225 595.617 118.018 -10.4490
  226 475.782 13.8148 29.7352
  227 396.558 -13.3029 6.43658
  228 294.229 3.33056 -117.974
  229 324.849 -20.1997 17.3466
  230 392.796 -15.2550 -5.25520
  231 475.403 -20.9750 7.76629
  232 407.427 32.4284 -32.8809
  233 453.156 -23.5773 -16.8652
  234 353.124 13.8042 6.47956
  235 304.142 -10.2254 -13.0964
  236 447.644 1.15484 -38.9973
  237 252.292 -3.73286 -13.2278
  238 252.048 -3.65971 12.8394
  239 271.921 -0.446210 -1.72949
  240 271.928 -0.426420 1.70529
  241 410.246 4.55819 -41.8810
  242 301.755 -10.1432 13.8068
  243 322.388 -19.7038 -18.4166
  244 148.074 108.664 146.370
  245 24.6896 30.5233 -21.1858
  246 762.122 57.6626 16.8218
  247 352.634 6.27694 -14.4053
  248 397.545 -26.9164 -8.57795
  249 407.829 90.9621 -197.806
  250 416.881 -34.0144 -14.1324
  251 212.307 -6.74960 -26.8382
  252 212.595 -6.96208 27.0550
  253 413.803 -17.0933 -29.0090
  254 427.404 -5.97412 -41.1682
  255 311.065 -4.68978 -2.63849
  256 311.063 -4.71820 2.55914
  257 437.433 -2.73192 -2.60568
  258 437.818 -2.24918 2.57828
  259 404.677 -3.57745 -22.9108
  260 572.010 64.8169 121.333
  261 377.416 -36.2940 -10.3500
  262 319.772 -8.97649 -7.03221
  263 318.274 -9.13981 7.35380
  264 -0.153862 -0.626227 -8.51744
  265 -1.66736 0.780592 8.94594
  266 115.128 -3.03640 -41.3942
  267 114.449 -2.57691 41.1125
  268 266.300 -1.77151 4.04822
  269 266.267 -1.79101 -4.10273
  270 404.628 -4.52774 21.7186
  271 468.173 97.0733 9.64671
  272 425.758 -39.5947 -2.12958
  273 436.100 51.7048 -36.5104
  274 421.323 -22.0489 -30.9482
  275 459.213 -26.6865 2.90577
  276 162.660 -3.59883 38.5838
  277 161.473 -3.82848 -38.0130
  278 423.847 -40.1871 -6.98974
  279 368.892 -41.6969 54.5361
  280 391.038 -6.18920 0.583924
  281 391.447 -5.93004 -0.545271
  282 436.577 -2.00251 -1.27646
  283 436.642 -2.28571 1.35048
  284 201.121 55.3205 131.516
  285 453.939 36.4873 -41.6866
  286 406.182 -34.4666 7.76873
  287 516.276 106.821 12.4467
  288 372.753 3.79040 -24.7824
  289 360.917 -10.7918 1.71332
  290 497.742 79.6013 -27.4178
  291 405.979 -6.99547 108.196
  292 434.993 77.1006 0.194459
  293 368.587 -39.6210 -56.9315
  294 392.561 -44.6352 24.7743
  295 374.110 -36.8840 14.1321
  296 579.085 118.264 9.81934
  297 354.323 -24.0709 11.0687
  298 434.344 -3.22207 -6.30988
  299 408.893 -20.8405 -18.9547
  300 690.316 192.708 85.5803
  301 449.847 0.416351 37.5806
  302 426.334 -3.12197 -10.6538
  303 445.477 60.2904 32.9758
  304 480.312 -1.06036 -85.1357
  305 428.121 12.5481 43.8560
  306 14.3458 16.3609 8.16063
  307 256.077 -19.0761 54.8289
  308 406.801 -7.31641 3.75399
  309 405.399 -8.15994 -4.12350
  310 402.889 42.1122 -19.2463
  311 246.322 -16.4620 -52.9891
  312 263.055 -20.8849 -75.5488
  313 415.528 -9.62037 9.76240
  314 392.478 -22.6374 6.70453
  315 408.972 -2.04988 40.1082
  316 599.586 118.506 -139.253
  317 412.916 -14.4669 27.3282
  318 411.511 -10.8950 -9.93517
  319 434.009 -2.79405 6.31009
  320 256.513 -2.67251 8.91687
  321 256.731 -2.95946 -9.04893
  322 71.7110 44.1311 -56.8397
  323 348.199 10.6826 -5.36335
  324 414.825 -12.6078 18.1730
  325 562.713 101.708 -1.80402
  326 414.740 51.9036 22.8262
  327 223.179 42.7900 -131.745
  328 257.115 -15.8226 76.0698
  329 387.452 23.0642 -25.1475
  330 425.066 -3.68395 11.6025
  331 410.988 -11.0169 -32.2060
  332 10.5519 6.48109 -1.30048
  333 78.1360 38.0913 52.5769
  334 309.059 -32.5939 54.1711
  335 -2.32676 7.62180 2.02176
  336 -1.47161 8.30904 -1.75213
  337 441.961 178.829 215.359
  338 409.432 -9.64372 32.3907
  339 843.813 90.3263 -106.674
  340 401.230 23.5888 34.7935
  341 478.760 49.5289 33.2065
  342 344.380 -11.1447 4.90678
  343 354.585 6.35506 15.4578
  344 315.634 -34.7855 -51.3078
  345 395.313 -19.1495 -7.64784
  346 359.992 -19.8551 5.38890
  347 414.617 -11.8208 -18.7425
  348 400.171 -44.0732 -33.4704
  349 467.491 -25.5313 -18.8064
  350 380.707 28.8571 6.97026
  351 423.312 -36.2334 12.0285
  352 534.956 39.3508 6.93160
  353 238.088 -11.7929 39.6785
  354 380.643 -14.6227 1.86470
  355 369.095 -40.6206 -28.8031
  356 609.726 148.173 32.0137
  357 451.527 75.3434 -26.7611
  358 292.831 -6.12090 9.83394
  359 293.384 -6.62605 -10.0173
  360 236.411 -11.3983 -40.2937
  361 148.204 133.062 -151.760
  362 348.935 -6.62561 -1.62744
  363 349.987 -6.99071 1.35435
  364 224.406 -2.31170 -13.9088
  365 224.359 -2.35993 14.0582
  366 787.459 30.2618 -15.6991
  367 797.592 54.5514 50.2492
  368 372.325 -29.9501 -7.21410
  369 497.480 16.8366 112.807
  370 181.714 -0.862673 70.5754
  371 181.884 -2.06288 -70.9063
  372 371.791 -23.6241 87.9331
  373 376.743 3.02199 25.4840
  374 394.577 4.45392 35.8189
  375 361.861 -41.7378 33.9496
  376 107.253 22.1216 -61.3009
  377 106.033 17.8966 58.9752
  378 50.4863 3.63066 -25.6405
  379 50.7569 3.07246 25.8921
  380 395.404 -35.5276 -65.8325
  381 293.209 -2.47327 -2.49990
  382 293.213 -2.43847 2.48906
  383 585.087 111.875 -0.916922
  384 358.582 -19.2851 -5.56190
  385 378.223 -9.51850 -110.615
  386 402.385 -37.0210 -2.23811
  387 553.331 101.157 -2.70402
  388 485.332 42.2029 -33.3904
  389 416.058 -23.3750 27.1900
  390 273.859 -6.73243 -15.2814
  391 273.015 -6.05505 14.5189
  392 360.663 -9.28406 -1.54450
  393 338.015 -11.3843 -6.41380
  394 264.019 -15.6081 36.2563
  395 263.680 -15.5658 -36.9117
  396 33.3257 50.8670 -41.7116
  397 413.096 19.2719 -40.5607
  398 318.710 -22.0188 23.2302
  399 509.517 37.0212 -120.869
  400 403.255 -26.6370 12.5682
  401 54.9348 68.8016 69.8052
  402 405.677 -3.61784 -38.0241
  403 259.849 -1.59474 5.26961
  404 259.758 -1.52028 -5.29281
  405 419.148 -3.59279 1.00629
  406 419.003 -3.38939 -0.889064
  407 432.317 -26.7775 24.3766
  408 203.892 -11.5229 -54.0208
  409 435.465 -2.30058 -6.85386
  410 206.981 -11.9161 54.4246
  411 500.450 10.7396 -8.25216
  412 423.172 -20.3802 32.6145
  413 374.308 -24.6378 -2.03211
  414 661.683 143.793 -57.5000
  415 412.688 -15.6567 22.3710
  416 660.100 121.256 39.8244
  417 495.855 104.933 11.3395
  418 191.076 -4.04191 -24.4084
  419 191.221 -3.87578 24.8249
  420 77.1286 -0.676775 -29.5356
  421 76.1304 -0.642026 28.9408
  422 414.485 -3.53218 -16.2180
  423 837.123 117.820 108.023
  424 219.211 14.8616 104.456
  425 274.636 -12.7692 -25.0406
  426 274.242 -12.7441 25.2863
  427 300.935 -25.5077 37.2517
  428 248.638 74.4147 -171.607
  429 491.888 107.114 -6.23750
  430 302.351 -25.1624 -37.7518
  431 444.654 -1.76546 -2.66541
  432 460.310 83.3953 23.3338
  433 478.568 95.3430 -18.2911
  434 323.570 -23.3845 -23.3565
  435 609.504 142.505 -29.7750
  436 331.359 -35.0038 69.2256
  437 520.764 9.09199 -26.7165
  438 350.794 -23.9798 -95.4059
  439 391.705 5.46918 -35.1784
  440 365.535 -36.6458 -20.2022
  441 721.534 67.6920 -12.9918
  442 711.571 84.8424 43.1546
  443 410.507 -29.0210 16.9490
  444 0.608938 6.68145 -6.43237
  445 1.63900 7.14396 6.40452
  446 535.351 107.929 9.11009
  447 395.538 -1.66505 20.0212
  448 359.514 -30.8944 14.1765
  449 284.482 -10.8601 99.8275
  450 1.74267 -8.56250 -7.15370
  451 314.334 -28.7769 -73.3036
  452 400.338 -31.6184 -7.97298
  453 396.563 -7.27094 2.51253
  454 396.495 -6.92432 -1.93551
  455 169.197 16.0044 -87.1573
  456 414.259 -2.91314 15.3131
  457 58.2958 27.1778 -36.4531
  458 19.5223 21.1880 20.6879
  459 159.059 -1.18677 -22.2376
  460 158.570 -0.948224 22.2938
  461 891.574 207.442 -165.482
  462 392.304 -1.12306 -20.7442
  463 403.719 -11.2893 -6.81783
  464 392.212 -17.0607 5.73005
  465 379.130 15.3447 26.2341
  466 422.143 -1.41102 42.6155
  467 374.867 -6.70624 0.107983
  468 376.337 -6.59158 -0.329320
  469 146.031 10.5141 69.7205
  470 315.552 -10.4397 10.1663
  471 495.666 25.7982 21.7534
  472 466.260 -27.2068 36.4214
  473 540.959 115.858 -0.427892
  474 445.561 -1.27574 2.65084
  475 380.670 -19.4104 -1.55974
  476 330.203 -5.62641 -1.72388
  477 330.011 -5.44007 1.60051
  478 119.377 54.9166 89.8762
  479 382.193 -14.1444 -1.82201
  480 53.2090 28.7574 32.9103
  481 118.823 56.5423 -88.7130
  482 416.091 59.2179 -6.27359
  483 340.657 -19.2997 -11.5515
  484 311.150 -6.37622 -5.50571
  485 311.383 -6.18653 5.59974
  486 437.676 -37.7053 -4.82398
  487 436.179 -2.81282 6.79487
  488 561.564 41.4749 52.9270
  489 428.939 51.6604 32.1678
  490 345.472 -26.5402 -15.8855
  491 423.159 66.9222 8.98809
  492 5.77304 -12.7543 -2.10212
  493 123.076 134.767 145.606
  494 433.355 35.7168 40.0988
  495 317.636 -10.4663 -9.36784
  496 374.549 0.697661 -17.5614
  497 299.498 24.2172 135.543
  498 386.813 -29.3221 -1.44833
  499 447.244 -36.9375 26.5612
  500 419.436 -7.97445 -10.2054
  501 659.085 100.848 -15.7660
  502 113.932 -0.171519 -26.2821
  503 114.114 0.0342011 26.7085
  504 422.197 -4.20092 -4.00578
  505 420.651 -4.56205 4.13467
  506 242.498 -16.4089 66.2866
  507 300.866 -12.8342 -17.2556
  508 285.460 -8.14012 -99.9318
  509 250.132 -19.6096 -63.7371
  510 233.206 -1.83842 -9.59057
  511 233.115 -1.89995 9.51652
  512 410.164 -38.4262 4.05158
  513 306.033 -14.9800 18.9003
  514 434.948 4.98036 -43.1012
  515 321.035 -15.5253 14.0784
  516 339.847 -35.5389 42.0322
  517 524.246 41.1260 3.02406
  518 205.770 -0.744513 -13.8294
  519 205.828 -0.800271 14.0221
  520 524.439 110.781 -10.5361
  521 459.949 -4.05564 -30.2474
  522 460.127 -7.55250 26.6248
  523 415.975 -22.8091 -27.0626
  524 325.758 -27.8114 29.0172
  525 813.945 46.8933 -53.5164
  526 455.067 -30.9696 2.25488
  527 347.626 3.62928 -13.9886
  528 350.198 -14.4394 5.05883
  529 420.806 48.9153 -29.8824
  530 689.241 203.365 136.279
  531 408.055 -9.53002 6.94881
  532 377.453 -8.31522 0.0977280
  533 381.159 -7.46844 -0.557357
  534 426.990 -33.6431 -15.0604
  535 338.963 -19.9236 12.1796
  536 261.145 0.0779102 -2.37467
  537 261.172 0.0852817 2.34138
  538 341.424 -36.7687 -40.8296
  539 439.406 75.6049 -14.6689
  540 412.085 -12.4156 -13.3207
  541 352.721 3.05935 16.3870
  542 412.510 -16.0670 -23.3244
  543 263.569 0.0420967 -0.518072
  544 263.569 0.0515051 0.506296
  545 476.648 -19.5892 -41.5094
  546 329.762 -29.6085 -29.4765
  547 474.373 -7.35297 -16.8797
  548 437.683 -27.5852 69.4282
  549 423.065 -6.81491 9.14413
  550 447.351 -1.51125 1.38544
  551 447.285 -1.36820 -1.21105
  552 400.620 -43.7285 -20.9488
  553 412.179 -42.2082 43.9225
  554 240.816 -1.25735 -6.27934
  555 240.688 -1.24842 6.22787
  556 375.109 -37.1758 66.5443
  557 423.581 34.1735 -38.7622
  558 325.946 -34.1775 -59.6629
  559 418.298 23.7805 41.9170
  560 400.270 -44.4273 34.9835
  561 328.206 3.83252 5.94773
  562 355.937 -9.08646 1.91505
  563 437.089 -10.8150 -36.9587
  564 545.953 116.520 -0.0342866
  565 446.099 -16.7856 -29.2393
  566 339.940 -24.8734 17.4034
  567 277.997 -3.18899 6.97500
  568 278.043 -3.23507 -7.07463
  569 395.862 -10.9443 3.32457
  570 320.514 -14.9207 -13.7324
  571 410.093 -7.12057 25.7358
  572 438.782 -30.7673 -16.0143
  573 372.164 -11.1420 -0.370120
  574 669.932 203.080 -95.4027
  575 373.943 8.89414 -24.9865
  576 562.194 121.391 -5.90794
  577 331.827 3.19149 -9.30011
  578 404.128 -14.2756 8.99425
  579 119.814 76.8786 113.993
  580 397.272 37.5557 18.2266
  581 220.198 16.8692 -106.017
  582 438.223 -36.9736 -0.560903
  583 404.339 -4.64789 -31.1078
  584 453.220 55.8486 -37.4940
  585 -3.37168 -3.96164 -7.22321
  586 -4.29281 -3.52459 7.32022
  587 281.089 -2.13881 -4.06044
  588 281.091 -2.10772 4.02497
  589 424.921 -27.7520 -24.6770
  590 428.336 -18.2972 -34.1331
  591 42.1577 39.3483 35.9135
  592 402.781 34.8836 27.7278
  593 365.356 -17.1219 -2.23722
  594 361.409 -6.40192 0.0544360
  595 360.502 -6.33615 -0.363485
  596 371.155 17.0805 17.3662
  597 807.968 18.6909 11.6860
  598 301.883 -17.3843 -23.4043
  599 324.873 4.68611 1.35795
  600 422.113 7.03644 -43.9248
  601 330.936 -37.7660 60.7589
  602 10.9231 4.43891 14.3848
  603 9.67160 3.69257 -13.5424
  604 444.464 19.9822 -43.1693
  605 394.064 41.1278 -4.92802
  606 416.997 -29.1327 -21.9995
  607 248.466 -5.23551 -18.7972
  608 248.022 -5.62836 18.7943
  609 428.333 -2.59868 2.22084
  610 428.173 -2.60382 -2.33323
  611 417.894 -4.07993 -41.9218
  612 407.623 -19.1717 16.4408
  613 296.743 -16.6268 24.5502
  614 25.6690 19.2177 -14.6238
  615 413.595 243.183 -246.128
  616 419.752 -7.58840 16.3724
  617 418.240 -7.12804 -17.5402
  618 330.778 16.3853 -135.116
  619 394.291 -11.5606 -4.18932
  620 354.449 -33.3389 22.1304
  621 459.367 93.6475 -0.437427
  622 159.586 -6.36437 -49.3745
  623 160.988 -6.33333 49.7733
  624 500.808 84.1528 24.1693
  625 405.406 -26.2425 -15.1269
  626 364.061 20.0791 0.000305941
  627 393.928 -37.7249 -4.55765
  628 225.375 -5.99085 23.2711
  629 225.229 -5.94862 -22.9808
  630 289.402 -7.30665 -13.0583
  631 277.072 -0.833357 -1.80830
  632 277.077 -0.809689 1.79577
  633 402.750 -15.0003 -9.00694
  634 449.601 -0.733178 -0.686982
  635 449.467 -0.838788 0.882549
  636 527.281 99.9540 -15.8022
  637 251.316 77.2704 160.894
  638 481.900 -6.02954 12.6515
  639 215.067 34.6421 117.355
  640 95.9815 27.1155 57.4036
  641 492.027 22.1369 -25.4209
  642 414.812 -39.1003 -3.15044
  643 297.794 -3.99878 -4.48802
  644 297.883 -3.94083 4.50061
  645 401.460 -4.38298 -0.474936
  646 401.778 -4.48880 0.551830
  647 316.103 -32.1278 -44.0834
  648 147.418 7.47489 -70.5021
  649 245.832 -1.27361 3.97380
  650 245.760 -1.34206 -3.91168
  651 925.409 250.936 189.280
  652 470.090 53.5390 -37.7635
  653 420.923 -13.4920 -37.7642
  654 416.007 -15.2024 -34.2252
  655 439.596 36.2207 -42.2080
  656 267.290 -6.88409 -19.1266
  657 266.302 -7.32522 18.6888
  658 390.901 -34.0846 -0.380402
  659 2.97073 -10.8511 7.89071
  660 437.630 -0.741398 41.3527
  661 28.0877 18.1147 15.2006
  662 391.603 11.0519 34.0035
  663 65.6290 62.1806 -60.8537
  664 367.537 15.3924 -17.8061
  665 431.734 -3.14465 4.88941
  666 361.830 -32.2349 -15.1646
  667 409.875 -7.55267 -26.9752
  668 128.885 -0.795379 19.2623
  669 129.358 -0.672275 -19.3400
  670 496.297 98.1219 -19.5818
  671 227.304 -11.5389 -81.0247
  672 402.002 -22.0284 -12.2806
  673 352.402 -14.8238 -5.55707
  674 431.082 -3.81186 -4.69329
  675 462.521 66.0082 33.1827
  676 79.0937 15.6938 -43.3582
  677 77.0740 10.4769 42.9715
  678 418.885 -10.2674 39.4294
  679 369.889 -27.8853 6.28664
  680 411.845 -21.8821 -22.8061
  681 605.639 151.367 -35.7797
  682 486.414 104.969 3.89828
  683 356.765 -12.5626 3.01060
  684 461.871 17.5749 38.9415
  685 417.403 -43.6985 14.3668
  686 285.759 -6.97644 13.0756
  687 375.482 -40.4392 21.6366
  688 435.551 -1.99632 0.126203
  689 435.506 -2.15967 -0.0845635
  690 609.629 134.774 32.2514
  691 239.347 -9.54151 31.5972
  692 34.3701 35.0372 -25.6807
  693 -9.89221 0.272713 8.40242
  694 -8.69367 0.508486 -8.68896
  695 209.577 -8.09565 34.5942
  696 103.435 39.5101 -66.4676
  697 8.29707 -1.24430 -11.3305
  698 400.695 -32.1324 7.85170
  699 278.112 -16.7454 -88.3512
  700 314.237 -31.9512 43.4204
  701 389.025 -24.4097 -4.40027
  702 5.48948 -12.3270 -2.84609
  703 462.675 22.2018 -39.0349
  704 415.701 -40.7918 -1.96362
  705 410.065 -33.6169 -13.0327
  706 401.352 12.0439 -38.4762
  707 238.884 -9.58664 -31.6367
  708 41.0910 68.2273 -64.8021
  709 399.883 22.0305 -35.7829
  710 -0.598381 -10.6642 -8.33989
  711 377.005 0.242522 16.6643
  712 208.865 -7.75371 -34.2112
  713 266.457 -15.0090 87.8333
  714 370.853 -12.5189 0.674817
  715 307.270 -6.84536 -7.25057
  716 222.718 -8.97578 79.7936
  717 131.155 1.18078 -54.9144
  718 129.195 0.851417 53.8133
  719 306.284 -6.51465 7.48491
  720 76.2039 1.48029 -22.3457
  721 76.6033 1.61617 22.2183
  722 332.070 -12.3467 8.04728
  723 401.276 -0.611102 -14.0862
  724 467.483 50.4857 169.725
  725 324.363 -6.14957 -3.97160
  726 324.181 -6.31113 3.84737
  727 412.579 -12.0616 -28.2886
  728 314.584 -4.14374 -2.10183
  729 314.505 -4.00129 2.04083
  730 403.982 -4.44104 27.7915
  731 411.684 -43.3675 8.17054
  732 331.280 -8.65576 5.01569
  733 32.4816 -0.864821 -15.0057
  734 32.7071 -1.27447 14.7901
  735 330.704 -7.74842 -4.73863
  736 7.84722 8.71057 -2.62803
  737 441.855 -32.8369 -47.9644
  738 498.798 -6.69431 16.7296
  739 154.014 22.4217 81.9627
  740 255.312 -0.00772981 2.64185
  741 255.249 0.0177322 -2.67672
  742 387.849 -39.5040 9.89864
  743 745.391 106.227 -85.4947
  744 356.193 0.799618 -13.5586
  745 351.187 -8.36597 -2.13986
  746 313.436 112.405 195.845
  747 444.124 17.3686 43.0238
  748 402.414 -0.820799 13.6166
  749 451.226 -0.975713 -1.56172
  750 451.669 -1.21376 1.56563
  751 626.250 120.860 -27.1648
  752 445.792 80.6452 11.0804
  753 346.650 -10.2629 -3.62147
  754 441.356 -1.92397 4.97108
  755 279.612 -16.2174 -31.6580
  756 404.761 -4.82766 1.87382
  757 404.585 -4.80499 -1.62795
  758 298.354 -24.6265 79.0037
  759 417.264 -44.4965 -19.3197
  760 414.179 -16.9186 30.2603
  761 279.169 -15.9577 31.3996
  762 433.402 62.4595 -26.6996
  763 358.582 2.70183 14.2518
  764 286.002 -26.5538 -59.4027
  765 348.682 -10.0001 3.35867
  766 410.916 -7.76025 37.5665
  767 258.797 0.378735 -0.881777
  768 258.808 0.384687 0.862470
  769 8.01731 11.2630 1.50064
  770 290.517 -9.78760 16.4299
  771 370.655 -9.39937 0.475823
  772 409.652 -17.6490 -17.0612
  773 187.815 -0.858136 14.2133
  774 187.911 -0.885954 -13.9915
  775 443.909 -13.5675 32.5930
  776 410.195 -9.23259 -35.8850
  777 156.355 -6.35064 -57.0934
  778 156.904 -5.60427 56.7049
  779 430.811 -35.5666 8.22051
  780 410.609 -13.3705 13.4573
  781 626.177 117.616 59.1277
</Section>

newXOutput 24

<Section columns = "stress_xx | stress_yy | stress_xy">
  1 477.598 0.274438 0.589171
  2 477.779 0.212105 -0.564044
  3 270.233 -0.0814537 -0.435466
  4 -3.32059 -3.77577 -4.43548
  5 855.376 352.268 282.902
  6 811.151 318.877 -237.536
  7 -4.39350 -3.77509 5.07409
  8 270.242 -0.0865693 0.429091
  9 479.164 -0.528297 -0.102481
  10 479.378 -1.71238 1.14287
  11 477.786 -1.37087 0.732387
  12 469.915 -1.55488 2.77757
  13 466.099 -1.67999 3.27092
  14 457.292 -2.32364 5.46603
  15 442.433 -1.67077 8.48737
  16 424.959 -0.774052 9.90858
  17 404.617 0.517521 11.6122
  18 374.960 1.59305 9.61180
  19 356.127 3.65772 11.3475
  20 341.666 2.87133 8.54408
  21 323.526 3.68516 2.41769
  22 328.390 5.48805 -3.24648
  23 334.978 2.76017 -5.99161
  24 355.080 2.56599 -9.90695
  25 373.692 1.07847 -10.8036
  26 404.382 0.592337 -12.1044
  27 424.474 -1.25091 -10.6641
  28 443.992 -1.85687 -8.58673
  29 457.169 -1.58625 -6.07896
  30 463.875 -1.61931 -5.04280
  31 470.842 -2.26219 -1.92924
  32 477.808 -1.19387 -0.277124
  33 479.486 -1.47687 -0.998759
  34 479.383 -0.667496 0.178152
  35 463.138 -1.03991 -0.868716
  36 444.302 -2.57294 -0.957030
  37 426.799 -4.73107 -1.30201
  38 406.181 -5.92888 -1.45961
  39 385.326 -6.61743 -1.11191
  40 361.641 -6.11995 -0.366605
  41 338.676 -4.97569 -0.203635
  42 317.972 -3.80062 0.287012
  43 299.616 -1.76097 0.623250
  44 282.198 -0.572324 -0.0242319
  45 265.029 0.762134 0.0437448
  46 263.942 0.651555 1.20916
  47 261.768 0.154910 0.840916
  48 257.310 -0.456613 2.29315
  49 247.993 0.0235640 3.14111
  50 239.648 -0.667741 4.64695
  51 229.340 -0.511777 6.69113
  52 211.713 0.0138215 7.20042
  53 191.380 0.182986 8.34658
  54 171.666 -0.268331 13.0579
  55 134.189 0.882469 12.1678
  56 108.165 0.989438 14.2405
  57 72.2137 1.35950 12.8883
  58 39.2668 0.510839 14.2218
  59 6.07807 3.94524 14.3824
  60 -16.5159 4.68136 7.43313
  61 -24.6659 4.53865 -0.180027
  62 -20.8711 3.47072 -7.62147
  63 -12.3025 -1.07320 -6.68596
  64 -1.27819 -12.4275 -6.27752
  65 0.792877 -23.7145 -8.34623
  66 3.18675 -37.4846 -4.61524
  67 10.5260 -36.9511 1.26967
  68 18.3267 0.426435 22.6331
  69 53.7739 84.6635 77.6383
  70 229.158 261.393 234.891
  71 1107.13 120.999 173.652
  72 903.266 38.0578 58.3770
  73 862.646 21.4104 23.3270
  74 850.518 13.7783 -1.38550
  75 859.815 18.0259 -20.8250
  76 916.407 34.0550 -56.5808
  77 1056.27 99.6710 -149.854
  78 184.191 297.590 -224.837
  79 44.2164 50.8824 -60.1830
  80 16.9189 0.670527 -23.5582
  81 5.18847 -36.4565 -3.63884
  82 3.21054 -28.9725 3.29082
  83 3.60655 -29.9086 6.89879
  84 0.326721 -11.2751 7.96357
  85 -13.2052 -0.891477 6.60396
  86 -21.9179 3.35219 7.43461
  87 -25.2142 4.49789 0.0110214
  88 -16.9298 4.39017 -7.32569
  89 5.35161 4.38432 -14.1524
  90 38.7356 0.642689 -14.4220
  91 71.9937 1.27286 -13.1044
  92 108.532 0.973904 -14.3404
  93 134.703 0.855876 -12.2617
  94 172.194 -0.383975 -12.9281
  95 191.620 0.181486 -8.18608
  96 211.682 0.0964593 -7.11652
  97 229.371 -0.491889 -6.72962
  98 239.603 -0.674273 -4.63672
  99 247.967 0.0197243 -3.14685
  100 257.219 -0.442919 -2.28092
  101 261.694 0.159138 -0.863132
  102 263.913 0.647687 -1.22998
  103 265.027 0.756670 -0.0556199
  104 282.195 -0.590299 0.0161462
  105 299.608 -1.79555 -0.634041
  106 317.958 -3.85187 -0.276957
  107 338.920 -5.10354 0.262635
  108 361.858 -6.16810 0.296477
  109 384.599 -6.63253 1.05359
  110 405.883 -5.66910 1.31979
  111 426.881 -4.91126 1.30819
  112 444.285 -2.72734 0.951141
  113 463.007 -1.19758 0.935050
  114 411.543 -43.4481 -13.3108
  115 416.102 -43.3030 9.87234
  116 440.605 62.6727 -21.2795
  117 351.197 -29.3977 -86.4136
  118 340.869 -27.2670 88.1654
  119 474.169 44.8762 41.3274
  120 496.444 13.4540 -32.4370
  121 353.172 -15.4432 -9.78415
  122 351.373 -16.3288 10.0925
  123 542.935 119.568 1.43664
  124 418.535 -19.2459 10.9574
  125 421.803 -18.2047 -12.6164
  126 432.348 -9.58044 -40.1688
  127 295.596 -24.4849 47.6117
  128 295.139 -24.6925 -49.9283
  129 434.345 -15.2021 36.0641
  130 587.094 132.018 5.96804
  131 157.028 36.7838 -93.9325
  132 151.883 37.4426 92.5054
  133 520.729 0.920610 -5.51953
  134 607.720 138.207 -18.6030
  135 404.909 27.7301 23.4420
  136 400.279 -11.1632 1.38816
  137 402.404 -10.3772 -1.65084
  138 517.613 -6.18950 58.3397
  139 296.051 -12.3217 -21.7905
  140 296.131 -12.2711 20.8973
  141 396.722 26.5102 -149.606
  142 692.656 96.0192 13.2941
  143 408.536 14.4420 -35.1646
  144 307.023 -4.23777 -6.17377
  145 306.968 -4.21996 6.21095
  146 354.662 -29.2573 22.1988
  147 361.457 -30.6446 -21.9899
  148 212.766 -13.1547 -68.8643
  149 211.930 -10.5094 69.8216
  150 453.920 69.4833 23.2141
  151 449.758 -43.1922 21.3159
  152 453.307 -25.2219 -27.9162
  153 466.330 -27.5720 17.6388
  154 428.805 -29.3340 -19.2374
  155 448.014 21.2962 -45.4338
  156 401.267 33.9506 163.397
  157 30.0636 25.1934 15.9267
  158 26.3465 21.1092 -12.3037
  159 394.848 24.9828 -9.41611
  160 427.500 9.56993 42.4351
  161 439.690 -6.01997 6.89150
  162 436.090 -6.99628 -6.95798
  163 406.663 -30.4107 2.72174
  164 431.856 -10.1594 -23.6708
  165 493.626 81.8637 -30.4823
  166 393.251 -25.6407 1.20966
  167 375.038 -42.6096 45.8826
  168 353.179 -8.36159 -2.96230
  169 353.599 -8.31612 3.06507
  170 433.728 -9.41662 22.0193
  171 377.678 -42.3598 -44.0805
  172 445.101 -41.6364 -32.5855
  173 502.974 89.4735 27.0036
  174 394.630 -21.0823 0.733303
  175 591.464 70.4846 -45.6077
  176 106.473 7.14007 -53.7301
  177 103.538 6.61312 52.3848
  178 728.681 139.266 73.7054
  179 616.181 113.821 23.1646
  180 751.914 87.1311 -47.5357
  181 431.195 -5.69705 2.41192
  182 430.698 -5.58102 -2.44700
  183 263.131 -8.28705 -26.9985
  184 263.159 -8.39361 27.0860
  185 212.436 -7.78911 -42.4001
  186 213.942 -7.83787 43.1056
  187 128.079 92.1797 -117.697
  188 415.260 -2.25845 32.7344
  189 437.447 -32.1340 19.7039
  190 286.488 -3.62251 -9.71375
  191 285.981 -3.83103 9.80767
  192 64.3004 64.6314 68.4695
  193 407.226 0.697696 -31.6094
  194 429.794 -22.4566 23.5941
  195 390.991 6.35154 27.8739
  196 442.445 -26.7658 -80.4690
  197 441.551 -7.08189 -13.1788
  198 401.093 -35.4347 4.88201
  199 481.476 96.4978 -14.1129
  200 448.779 -13.6762 38.9734
  201 302.594 -27.9897 -70.1653
  202 224.183 -0.817379 -92.2441
  203 219.124 0.605900 92.2963
  204 434.258 36.7290 35.3505
  205 316.673 0.778425 121.162
  206 420.873 47.4284 6.82482
  207 536.118 61.7494 -21.5335
  208 442.720 -6.93935 11.7392
  209 302.693 -27.5650 70.6174
  210 382.903 -16.6999 2.05581
  211 719.621 180.950 -91.5249
  212 535.891 70.4166 23.8098
  213 313.529 -22.3941 -30.8618
  214 311.920 -20.9638 30.4657
  215 47.8391 16.0704 -29.1181
  216 54.6544 16.3742 33.2934
  217 354.949 -36.0686 35.0293
  218 375.290 -13.6679 -3.27173
  219 378.388 -7.78761 -0.598151
  220 382.367 -7.77692 0.469875
  221 355.844 -34.9298 -35.2099
  222 373.388 -25.2455 -9.17542
  223 441.268 -38.3340 59.3708
  224 535.536 116.884 -7.73950
  225 620.986 122.976 -11.0132
  226 496.148 14.4206 30.6279
  227 413.680 -13.8921 6.56699
  228 306.959 3.45473 -123.249
  229 339.152 -21.0523 18.1982
  230 409.773 -15.9249 -5.33135
  231 495.619 -21.8484 8.46884
  232 425.233 33.8510 -34.1180
  233 472.551 -24.5967 -17.2397
  234 368.866 14.4399 6.73065
  235 317.666 -10.6508 -13.7257
  236 466.909 1.19760 -40.3299
  237 263.765 -3.88244 -13.8274
  238 263.511 -3.80651 13.4231
  239 284.279 -0.456567 -1.81549
  240 284.288 -0.435963 1.79037
  241 428.097 4.76071 -43.4376
  242 315.183 -10.5644 14.4662
  243 336.593 -20.5349 -19.3129
  244 154.606 113.572 152.971
  245 25.8776 32.0599 -22.3185
  246 793.589 60.0589 17.5048
  247 368.354 6.58489 -14.9636
  248 414.721 -28.0822 -8.72535
  249 424.856 95.1739 -206.407
  250 434.830 -35.4901 -14.4536
  251 222.032 -7.03421 -28.0325
  252 222.331 -7.25642 28.2583
  253 431.684 -17.8447 -30.0002
  254 445.874 -6.24210 -42.6325
  255 324.900 -4.88083 -2.78025
  256 324.897 -4.91044 2.69770
  257 456.049 -2.87562 -2.66718
  258 456.448 -2.37250 2.64000
  259 422.276 -3.73906 -23.7452
  260 595.675 68.0460 126.922
  261 393.772 -37.8532 -10.9983
  262 333.923 -9.35111 -7.39540
  263 332.367 -9.52085 7.73007
  264 -0.113370 -0.613186 -8.84051
  265 -1.69171 0.848005 9.28747
  266 120.559 -3.18189 -43.2813
  267 119.849 -2.70203 42.9887
  268 278.417 -1.83696 4.24276
  269 278.382 -1.85717 -4.29944
  270 422.227 -4.72594 22.5077
  271 488.490 101.216 9.96629
  272 444.030 -41.3090 -1.92392
  273 455.044 53.9393 -37.8440
  274 439.499 -23.0128 -31.9828
  275 478.812 -27.8309 2.67804
  276 170.202 -3.75812 40.3131
  277 168.966 -3.99789 -39.7163
  278 442.027 -41.9272 -7.57922
  279 384.804 -43.5081 57.0893
  280 407.924 -6.47936 0.569779
  281 408.348 -6.21004 -0.530677
  282 455.140 -2.11609 -1.30650
  283 455.208 -2.41037 1.38304
  284 209.945 57.7375 137.423
  285 473.530 38.0596 -43.1544
  286 423.696 -35.9584 7.84359
  287 538.483 111.380 12.7121
  288 389.215 3.96805 -25.7279
  289 376.657 -11.2596 1.87010
  290 519.130 83.0297 -28.2370
  291 423.225 -7.23932 113.082
  292 453.964 80.4254 0.202304
  293 384.478 -41.3443 -59.5904
  294 409.473 -46.5638 26.0720
  295 390.324 -38.4694 14.9390
  296 603.799 123.255 10.3900
  297 369.783 -25.0969 11.6915
  298 452.899 -3.37840 -6.50118
  299 426.539 -21.7520 -19.5350
  300 719.195 200.993 89.5556
  301 469.193 0.426127 38.8495
  302 444.671 -3.26556 -11.0178
  303 464.801 62.8887 34.1563
  304 500.533 -0.990092 -89.0989
  305 446.671 13.0887 45.4553
  306 15.0565 17.2189 8.66855
  307 267.473 -19.9083 57.2946
  308 424.295 -7.65752 3.82379
  309 422.843 -8.53561 -4.20231
  310 420.546 43.9609 -19.9739
  311 257.327 -17.1799 -55.3689
  312 274.653 -21.8194 -78.9530
  313 433.385 -10.0563 10.0393
  314 409.452 -23.6192 6.79594
  315 426.757 -2.13906 41.5848
  316 624.192 124.081 -145.616
  317 430.770 -15.1019 28.2699
  318 429.215 -11.3843 -10.2131
  319 452.547 -2.93606 6.50104
  320 268.194 -2.77588 9.32448
  321 268.419 -3.07460 -9.46211
  322 75.0441 46.1099 -59.5573
  323 363.755 11.1780 -5.57213
  324 432.706 -13.1704 18.7616
  325 586.606 106.150 -2.34253
  326 432.864 54.1627 23.6814
  327 232.930 44.6505 -137.643
  328 268.466 -16.5400 79.4940
  329 404.490 24.0940 -26.1060
  330 443.351 -3.85363 11.9969
  331 428.797 -11.5016 -33.3530
  332 11.0733 6.89133 -1.47984
  333 81.7530 39.7980 55.0941
  334 322.603 -34.0098 56.6427
  335 -2.33044 7.98225 2.03880
  336 -1.44051 8.70068 -1.75403
  337 459.994 187.117 224.692
  338 427.190 -10.0690 33.5521
  339 878.301 94.0517 -110.959
  340 418.780 24.6267 36.1074
  341 499.336 51.6729 34.2756
  342 359.479 -11.6186 5.20316
  343 370.377 6.65870 16.0550
  344 329.448 -36.2934 -53.6610
  345 412.396 -19.9839 -7.79438
  346 375.685 -20.7034 5.76073
  347 432.495 -12.3473 -19.3568
  348 417.360 -45.9812 -35.1519
  349 487.367 -26.6076 -19.9638
  350 397.502 30.1459 7.23811
  351 441.515 -37.8044 12.2468
  352 557.568 41.1550 7.70008
  353 248.818 -12.2978 41.4577
  354 397.144 -15.2605 1.81732
  355 385.078 -42.3726 -30.2425
  356 635.563 154.541 33.7496
  357 471.127 78.5813 -27.7069
  358 305.938 -6.36896 10.3036
  359 306.512 -6.89509 -10.4950
  360 247.072 -11.8870 -42.0982
  361 154.510 139.320 -158.524
  362 364.218 -6.91366 -1.72868
  363 365.311 -7.29396 1.44562
  364 234.711 -2.40577 -14.5273
  365 234.662 -2.45576 14.6831
  366 819.800 31.5201 -16.3292
  367 830.346 56.8105 52.2571
  368 388.489 -31.2341 -7.70730
  369 518.300 17.7563 117.923
  370 189.913 -0.931142 73.7765
  371 190.091 -2.18420 -74.1183
  372 387.729 -24.6503 91.9299
  373 393.350 3.16478 26.4527
  374 411.841 4.65703 37.1669
  375 377.548 -43.5390 35.5998
  376 112.198 23.0715 -64.1545
  377 110.936 18.6598 61.7212
  378 53.0136 3.78449 -26.8581
  379 53.2946 3.20181 27.1207
  380 412.329 -37.0640 -68.8987
  381 306.369 -2.56773 -2.61900
  382 306.374 -2.53153 2.60775
  383 610.045 116.568 -0.968822
  384 374.222 -20.1082 -5.93458
  385 394.350 -9.89920 -115.584
  386 419.740 -38.6206 -2.07995
  387 576.869 105.566 -2.35779
  388 506.136 44.0364 -34.4294
  389 434.017 -24.3961 28.0795
  390 286.188 -7.00680 -15.9855
  391 285.314 -6.29959 15.1876
  392 376.394 -9.68918 -1.68279
  393 352.866 -11.8668 -6.77157
  394 275.832 -16.2704 37.8929
  395 275.477 -16.2275 -38.5765
  396 34.8899 53.4001 -43.7763
  397 431.088 20.1141 -42.0730
  398 332.753 -22.9520 24.3381
  399 530.753 38.8608 -126.349
  400 420.665 -27.7936 12.8723
  401 57.4294 72.1910 73.1154
  402 423.333 -3.77401 -39.4265
  403 271.694 -1.65458 5.51458
  404 271.600 -1.57708 -5.53874
  405 437.078 -3.77868 1.02370
  406 436.927 -3.56735 -0.901899
  407 450.906 -27.9442 25.1049
  408 213.117 -12.0347 -56.4472
  409 454.098 -2.41175 -7.07571
  410 216.334 -12.4450 56.8704
  411 521.718 11.2535 -8.18421
  412 441.428 -21.2720 33.7155
  413 390.560 -25.6967 -2.29272
  414 689.549 149.882 -60.0852
  415 430.501 -16.3471 23.1095
  416 687.914 126.346 41.5939
  417 517.282 109.401 11.6683
  418 199.902 -4.21188 -25.4908
  419 200.052 -4.03886 25.9252
  420 80.8831 -0.717154 -30.9044
  421 79.8397 -0.680140 30.2842
  422 432.422 -3.69639 -16.7927
  423 871.414 122.686 112.391
  424 228.877 15.4690 109.162
  425 286.933 -13.3033 -26.1831
  426 286.525 -13.2775 26.4380
  427 314.222 -26.5981 38.9610
  428 259.328 77.7510 -179.203
  429 513.173 111.666 -6.43284
  430 315.690 -26.2386 -39.4849
  431 463.549 -1.85503 -2.73692
  432 480.275 86.9710 24.1430
  433 499.283 99.4172 -18.8836
  434 337.797 -24.3774 -24.4794
  435 635.232 148.723 -31.5475
  436 345.737 -36.5362 72.3832
  437 542.724 9.58375 -28.2772
  438 365.876 -25.0263 -99.7171
  439 408.867 5.71914 -36.5047
  440 381.403 -38.2206 -21.2599
  441 751.566 70.5041 -13.5324
  442 741.269 88.3719 44.9692
  443 428.212 -30.2822 17.4131
  444 0.812181 6.97641 -6.79363
  445 1.88660 7.45983 6.76498
  446 558.264 112.571 9.13916
  447 412.821 -1.73698 20.7613
  448 375.164 -32.2166 14.9555
  449 296.878 -11.3662 104.313
  450 1.84243 -8.86046 -7.40631
  451 328.024 -30.0459 -76.6282
  452 417.623 -32.9862 -8.07516
  453 413.664 -7.60756 2.54454
  454 413.592 -7.24694 -1.95060
  455 176.793 16.6633 -91.1262
  456 432.194 -3.04897 15.8577
  457 61.0549 28.3927 -38.2373
  458 20.4426 22.3718 21.7781
  459 166.520 -1.23565 -23.2296
  460 166.010 -0.986552 23.2888
  461 927.751 216.182 -172.223
  462 409.474 -1.17090 -21.5152
  463 421.113 -11.7967 -6.97547
  464 409.170 -17.8063 5.81026
  465 395.843 16.0374 27.2395
  466 440.427 -1.47717 44.1593
  467 391.140 -7.01119 0.0822946
  468 392.666 -6.89250 -0.313072
  469 152.681 10.9431 72.9151
  470 329.529 -10.8740 10.6731
  471 516.810 26.9437 22.2739
  472 486.041 -28.3395 38.3165
  473 564.201 120.753 -0.373100
  474 464.486 -1.34655 2.72301
  475 397.175 -20.2492 -1.46938
  476 344.771 -5.86311 -1.82100
  477 344.572 -5.66929 1.69232
  478 124.762 57.3618 94.0305
  479 398.754 -14.7627 -1.77416
  480 55.7431 30.0394 34.5328
  481 124.200 59.0455 -92.8189
  482 434.291 61.7946 -6.50664
  483 355.588 -20.1175 -12.1685
  484 324.981 -6.63744 -5.78432
  485 325.222 -6.44014 5.88229
  486 456.410 -39.3365 -5.34697
  487 454.843 -2.94055 7.01771
  488 585.069 43.5109 55.6652
  489 447.609 53.8989 33.3528
  490 360.576 -27.6698 -16.7107
  491 441.643 69.8206 9.32022
  492 6.05778 -13.1243 -2.31261
  493 128.389 141.186 152.148
  494 452.155 37.2597 41.5600
  495 331.693 -10.9026 -9.84225
  496 391.079 0.731594 -18.2262
  497 312.392 25.2961 141.583
  498 403.556 -30.5850 -1.30566
  499 466.300 -38.5173 28.0123
  500 437.446 -8.34131 -10.5096
  501 686.841 105.067 -16.4730
  502 119.387 -0.181225 -27.4688
  503 119.576 0.0332536 27.9144
  504 440.264 -4.41009 -4.10256
  505 438.663 -4.78781 4.23286
  506 253.291 -17.1399 69.2692
  507 314.239 -13.3701 -18.0707
  508 297.889 -8.52980 -104.419
  509 261.241 -20.4764 -66.6091
  510 243.916 -1.91233 -10.0182
  511 243.820 -1.97650 9.94135
  512 427.829 -40.0893 3.95415
  513 319.602 -15.6077 19.7945
  514 453.738 5.18894 -44.6400
  515 335.206 -16.1768 14.7739
  516 354.650 -37.0727 44.0012
  517 546.491 42.9854 2.69880
  518 215.284 -0.771573 -14.4417
  519 215.343 -0.829761 14.6423
  520 546.963 115.508 -10.6957
  521 479.666 -4.23213 -31.1801
  522 479.837 -7.88051 27.4020
  523 433.929 -23.8055 -27.9501
  524 340.053 -28.9986 30.3946
  525 847.284 48.8430 -55.6641
  526 474.489 -32.2990 2.69139
  527 363.160 3.80320 -14.5287
  528 365.516 -15.0549 5.38378
  529 439.157 51.0411 -30.9914
  530 717.539 212.452 142.600
  531 425.611 -9.96380 7.12144
  532 393.826 -8.68808 0.0366479
  533 397.674 -7.80816 -0.519766
  534 445.341 -35.1037 -15.4019
  535 353.826 -20.7683 12.8234
  536 273.089 0.0864210 -2.48679
  537 273.117 0.0940814 2.45221
  538 356.291 -38.3548 -42.7520
  539 458.547 78.8633 -15.2024
  540 429.831 -12.9698 -13.7198
  541 368.445 3.20544 17.0194
  542 430.319 -16.7746 -24.0974
  543 275.626 0.0496101 -0.545096
  544 275.627 0.0594042 0.532872
  545 496.828 -20.3778 -43.6378
  546 344.212 -30.8742 -30.8802
  547 494.615 -7.65659 -17.2203
  548 456.272 -28.7324 72.6912
  549 441.210 -7.13085 9.41553
  550 466.304 -1.59152 1.42004
  551 466.234 -1.44350 -1.23919
  552 417.857 -45.6204 -22.0957
  553 429.819 -44.0313 46.0640
  554 251.872 -1.30611 -6.56184
  555 251.739 -1.29698 6.50849
  556 391.232 -38.7920 69.6215
  557 442.006 35.6594 -40.1953
  558 340.139 -35.6688 -62.3925
  559 436.495 24.8135 43.4746
  560 417.463 -46.3497 36.7304
  561 343.009 4.01989 6.17924
  562 371.487 -9.48033 2.05736
  563 455.917 -11.2927 -38.2197
  564 569.385 121.444 -0.177467
  565 465.252 -17.5189 -30.1522
  566 354.828 -25.9295 18.2830
  567 290.549 -3.31257 7.30372
  568 290.597 -3.36043 -7.40740
  569 412.946 -11.4353 3.35534
  570 334.665 -15.5472 -14.4123
  571 427.871 -7.43871 26.6526
  572 457.603 -32.1029 -16.3763
  573 388.337 -11.6291 -0.478358
  574 697.868 211.928 -99.9532
  575 390.456 9.30816 -25.9442
  576 586.244 126.537 -6.39646
  577 346.767 3.34955 -9.66569
  578 421.554 -14.9075 9.21809
  579 125.184 80.3337 119.211
  580 414.709 39.2129 18.9201
  581 229.907 17.5641 -110.791
  582 456.986 -38.5720 -0.267830
  583 421.930 -4.85368 -32.2475
  584 472.832 58.2549 -38.8206
  585 -3.51079 -4.12784 -7.53366
  586 -4.46880 -3.66687 7.62955
  587 293.778 -2.21898 -4.25605
  588 293.780 -2.18658 4.21918
  589 443.216 -28.9611 -25.4320
  590 446.802 -19.0993 -35.2874
  591 44.1488 41.1880 37.7125
  592 420.418 36.4168 28.7743
  593 381.263 -17.8576 -2.45938
  594 377.170 -6.68746 0.0807547
  595 376.228 -6.61906 -0.401919
  596 387.577 17.8575 18.0359
  597 841.012 19.4708 12.1444
  598 315.267 -18.1158 -24.4970
  599 339.550 4.91067 1.41243
  600 440.416 7.33708 -45.5320
  601 345.329 -39.4133 63.5417
  602 11.6578 4.62962 15.0927
  603 10.3524 3.85037 -14.2130
  604 463.652 20.8410 -44.7023
  605 411.383 42.9417 -5.11506
  606 434.973 -30.4002 -22.6591
  607 259.747 -5.44927 -19.6434
  608 259.285 -5.85871 19.6403
  609 446.609 -2.74029 2.27119
  610 446.443 -2.74540 -2.38805
  611 436.008 -4.26158 -43.4471
  612 425.211 -20.0110 16.9304
  613 309.924 -17.3265 25.6881
  614 26.9742 20.0854 -15.4011
  615 430.336 254.394 -256.579
  616 437.825 -7.93380 16.9165
  617 436.276 -7.45275 -18.1360
  618 344.940 17.0924 -141.111
  619 411.318 -12.0757 -4.24583
  620 369.879 -34.7675 23.2511
  621 479.334 97.6518 -0.449859
  622 166.934 -6.65467 -51.6019
  623 168.394 -6.62252 52.0192
  624 522.324 87.7791 24.8571
  625 422.906 -27.3839 -15.5358
  626 380.219 20.9908 0.000642262
  627 410.936 -39.3510 -4.98957
  628 235.668 -6.24157 24.3070
  629 235.517 -6.19755 -24.0046
  630 302.355 -7.60509 -13.6735
  631 289.631 -0.858939 -1.88822
  632 289.636 -0.834309 1.87521
  633 420.120 -15.6636 -9.22711
  634 468.622 -0.782856 -0.706327
  635 468.484 -0.892691 0.908925
  636 549.849 104.258 -16.0839
  637 262.167 80.6709 168.019
  638 502.432 -6.26824 12.8052
  639 224.509 36.1330 122.636
  640 100.406 28.2996 60.1074
  641 513.024 23.1141 -26.0961
  642 432.655 -40.7927 -3.00671
  643 311.120 -4.15696 -4.70734
  644 311.213 -4.09659 4.72053
  645 418.735 -4.60230 -0.473757
  646 419.064 -4.71217 0.553714
  647 329.960 -33.5136 -46.1148
  648 154.129 7.76744 -73.7294
  649 257.120 -1.32222 4.15622
  650 257.046 -1.39341 -4.09153
  651 962.650 261.546 197.012
  652 490.340 55.8470 -39.0449
  653 439.120 -14.0856 -39.0936
  654 433.998 -15.8703 -35.4236
  655 458.634 37.7840 -43.7370
  656 279.330 -7.16569 -19.9982
  657 278.305 -7.62522 19.5412
  658 407.799 -35.5539 -0.621941
  659 3.12932 -11.2789 8.19234
  660 456.508 -0.781719 42.8086
  661 29.5019 18.9336 16.0043
  662 408.773 11.5496 35.2928
  663 68.6604 65.0204 -63.7655
  664 383.821 16.0976 -18.4955
  665 450.166 -3.30699 5.02507
  666 377.567 -33.6162 -15.9908
  667 427.644 -7.88814 -27.9392
  668 135.042 -0.830580 20.1254
  669 135.537 -0.702121 -20.2061
  670 517.698 102.321 -20.1536
  671 237.403 -12.0777 -84.6737
  672 419.359 -22.9880 -12.5945
  673 367.807 -15.4565 -5.90395
  674 449.489 -4.00188 -4.81914
  675 482.515 68.8481 34.3257
  676 82.8416 16.3694 -45.3988
  677 80.7310 10.9207 44.9979
  678 437.014 -10.7208 40.8392
  679 385.961 -29.0799 6.73185
  680 429.621 -22.8388 -23.5318
  681 631.316 157.869 -37.6654
  682 507.481 109.432 4.02022
  683 372.342 -13.1030 3.23693
  684 481.718 18.3310 40.2560
  685 435.312 -45.5878 15.2606
  686 298.570 -7.26099 13.6879
  687 391.735 -42.1810 22.7706
  688 454.073 -2.10944 0.139317
  689 454.027 -2.27885 -0.0961916
  690 635.518 140.476 33.8458
  691 250.178 -9.94268 33.0098
  692 36.0182 36.6652 -27.0024
  693 -10.2985 0.294798 8.74948
  694 -9.04494 0.544021 -9.04954
  695 219.147 -8.44347 36.1356
  696 108.183 41.2492 -69.5867
  697 8.70806 -0.987978 -11.9854
  698 417.995 -33.5229 7.94761
  699 290.285 -17.5101 -92.3219
  700 328.021 -33.3287 45.4205
  701 405.860 -25.4660 -4.39646
  702 5.75094 -12.7038 -2.87833
  703 482.564 23.1602 -40.3517
  704 433.572 -42.5576 -2.32830
  705 427.745 -35.0741 -13.3245
  706 418.889 12.5783 -39.9254
  707 249.696 -9.99021 -33.0507
  708 42.9583 71.7138 -67.8911
  709 417.382 23.0007 -37.1370
  710 -0.610013 -11.1077 -8.68492
  711 393.626 0.256827 17.2923
  712 218.407 -8.08547 -35.7358
  713 278.154 -15.6974 91.7875
  714 386.975 -13.0642 0.805026
  715 320.942 -7.12533 -7.61337
  716 232.626 -9.40251 83.3932
  717 137.223 1.21045 -57.4248
  718 135.177 0.867526 56.2788
  719 319.918 -6.78103 7.85725
  720 79.9888 1.54199 -23.3701
  721 80.4040 1.68398 23.2374
  722 346.691 -12.8665 8.47259
  723 418.769 -0.642185 -14.6018
  724 486.962 52.9415 177.180
  725 338.703 -6.40539 -4.18191
  726 338.515 -6.57374 4.05258
  727 430.424 -12.5938 -29.2754
  728 328.557 -4.31249 -2.20259
  729 328.475 -4.16418 2.13903
  730 421.555 -4.63969 28.8059
  731 429.379 -45.2428 8.78972
  732 345.878 -9.02007 5.29324
  733 34.2765 -0.905684 -15.7162
  734 34.5100 -1.33327 15.4911
  735 345.282 -8.07392 -5.00191
  736 8.26674 9.16404 -2.63606
  737 460.658 -34.2334 -50.3182
  738 519.921 -6.91448 17.8463
  739 160.956 23.3702 85.7125
  740 267.015 -0.00280631 2.76642
  741 266.949 0.0237313 -2.80264
  742 404.612 -41.2059 10.5499
  743 776.329 110.670 -89.0620
  744 372.050 0.840931 -14.0773
  745 366.555 -8.72768 -2.28512
  746 326.650 117.436 204.385
  747 463.293 18.1123 44.5485
  748 419.947 -0.860692 14.1131
  749 470.331 -1.02926 -1.60222
  750 470.789 -1.27586 1.60663
  751 652.776 125.948 -28.4635
  752 465.200 84.1149 11.4764
  753 361.840 -10.7007 -3.84735
  754 460.178 -2.02015 5.12616
  755 292.074 -16.9013 -33.0958
  756 422.163 -5.06516 1.90815
  757 421.980 -5.04208 -1.65320
  758 311.379 -25.7215 82.5681
  759 435.158 -46.4220 -20.4298
  760 432.081 -17.6606 31.3025
  761 291.616 -16.6310 32.8256
  762 452.273 65.1600 -27.6744
  763 374.529 2.82041 14.7983
  764 298.603 -27.7120 -62.0873
  765 363.952 -10.4278 3.57602
  766 428.747 -8.10218 38.9306
  767 270.670 0.397137 -0.926074
  768 270.682 0.403332 0.906026
  769 8.44606 11.8263 1.45737
  770 303.494 -10.1927 17.1960
  771 386.769 -9.81426 0.572574
  772 427.322 -18.4239 -17.5830
  773 196.557 -0.889022 14.8440
  774 196.658 -0.917877 -14.6129
  775 462.986 -14.1643 33.6534
  776 427.997 -9.63752 -37.1833
  777 163.521 -6.64949 -59.6835
  778 164.092 -5.87018 59.2802
  779 449.299 -37.1079 8.26173
  780 428.300 -13.9657 13.8576
  781 652.260 122.979 62.2573
</Section>

newXOutput 25

<Section columns = "stress_xx | stress_yy | stress_xy">
  1 496.798 0.266990 0.608583
  2 496.984 0.202643 -0.582857
  3 282.109 -0.0793924 -0.448645
  4 -3.46287 -3.93686 -4.62735
  5 887.433 367.055 293.988
  6 842.000 332.377 -246.980
  7 -4.58069 -3.93574 5.29394
  8 282.118 -0.0847107 0.442044
  9 498.420 -0.561772 -0.113026
  10 498.657 -1.78805 1.17312
  11 497.035 -1.43282 0.743688
  12 488.939 -1.63018 2.85283
  13 485.032 -1.75222 3.36644
  14 475.961 -2.42422 5.63589
  15 460.641 -1.74762 8.77110
  16 442.603 -0.812304 10.2498
  17 421.576 0.534501 12.0219
  18 390.898 1.65824 9.95957
  19 371.399 3.80823 11.7643
  20 356.413 3.00554 8.85870
  21 337.621 3.84388 2.50803
  22 342.663 5.73174 -3.36874
  23 349.491 2.88542 -6.21427
  24 370.314 2.67682 -10.2692
  25 389.587 1.12370 -11.1932
  26 421.331 0.613555 -12.5332
  27 442.101 -1.30823 -11.0321
  28 462.248 -1.93956 -8.87236
  29 475.835 -1.66083 -6.27258
  30 482.735 -1.69746 -5.19863
  31 489.889 -2.36307 -1.97489
  32 497.056 -1.25036 -0.271953
  33 498.767 -1.54526 -1.02426
  34 498.645 -0.706516 0.190771
  35 481.862 -1.10595 -0.898569
  36 462.386 -2.70857 -0.987059
  37 444.276 -4.95560 -1.34058
  38 422.928 -6.19649 -1.49863
  39 401.325 -6.90269 -1.14118
  40 376.783 -6.37523 -0.364655
  41 352.986 -5.17407 -0.200986
  42 331.535 -3.94632 0.307110
  43 312.522 -1.82180 0.652529
  44 294.489 -0.587373 -0.0215754
  45 276.718 0.792813 0.0507366
  46 275.579 0.678554 1.26248
  47 273.298 0.163257 0.885025
  48 268.644 -0.471089 2.39833
  49 258.947 0.0275902 3.27714
  50 250.241 -0.692130 4.84438
  51 239.492 -0.529384 6.97394
  52 221.138 0.0176250 7.50815
  53 199.965 0.192881 8.70281
  54 179.413 -0.274694 13.6136
  55 140.384 0.919196 12.6905
  56 113.250 1.02957 14.8506
  57 75.7461 1.41317 13.4568
  58 41.3424 0.526568 14.8634
  59 6.66274 4.10918 15.0438
  60 -16.9881 4.87826 7.79636
  61 -25.5848 4.73525 -0.142898
  62 -21.7167 3.62932 -7.91807
  63 -12.8168 -1.10966 -6.96187
  64 -1.32370 -12.9486 -6.53723
  65 0.838491 -24.6844 -8.67568
  66 3.33614 -38.9353 -4.75501
  67 10.9963 -38.2401 1.43432
  68 19.1536 0.950161 23.7741
  69 56.0712 89.1080 81.1264
  70 238.059 273.253 244.410
  71 1148.69 125.743 179.933
  72 938.179 39.5264 60.5435
  73 896.123 22.2579 24.1769
  74 883.574 14.3319 -1.43736
  75 893.218 18.7447 -21.6114
  76 951.781 35.4006 -58.6917
  77 1096.32 103.600 -155.330
  78 191.342 310.943 -233.944
  79 46.1341 53.9267 -63.0125
  80 17.6828 1.25267 -24.7506
  81 5.42122 -37.6991 -3.89702
  82 3.36586 -30.0687 3.35988
  83 3.77465 -31.1372 7.16410
  84 0.345615 -11.7431 8.29554
  85 -13.7589 -0.920186 6.87604
  86 -22.8091 3.50539 7.72406
  87 -26.1558 4.69310 -0.0334370
  88 -17.4174 4.57460 -7.68441
  89 5.90815 4.56677 -14.8041
  90 40.7911 0.663843 -15.0719
  91 75.5187 1.32279 -13.6818
  92 113.634 1.01329 -14.9545
  93 140.921 0.891396 -12.7879
  94 179.962 -0.395043 -13.4782
  95 200.215 0.191391 -8.53598
  96 221.107 0.103490 -7.42108
  97 239.526 -0.508731 -7.01369
  98 250.195 -0.698810 -4.83363
  99 258.920 0.0236669 -3.28302
  100 268.550 -0.456863 -2.38563
  101 273.221 0.167663 -0.908044
  102 275.549 0.674545 -1.28406
  103 276.716 0.787140 -0.0630402
  104 294.486 -0.606044 0.0132014
  105 312.514 -1.85771 -0.663703
  106 331.520 -3.99951 -0.296691
  107 353.238 -5.30684 0.261918
  108 377.008 -6.42521 0.291678
  109 400.572 -6.91832 1.08024
  110 422.619 -5.92630 1.35344
  111 444.361 -5.14252 1.34719
  112 462.369 -2.86846 0.981007
  113 481.727 -1.26939 0.967200
  114 428.481 -45.2392 -14.1044
  115 433.218 -45.0872 10.5332
  116 458.972 65.2680 -22.0283
  117 365.688 -30.6368 -90.1568
  118 354.961 -28.4210 91.9764
  119 493.708 46.7216 42.6987
  120 516.715 14.0181 -33.3595
  121 367.980 -16.0658 -10.2887
  122 366.114 -16.9869 10.6106
  123 565.265 124.383 1.45822
  124 435.779 -20.0502 11.2105
  125 439.171 -18.9683 -12.9334
  126 450.233 -9.98467 -41.5372
  127 308.101 -25.4905 49.6735
  128 307.617 -25.7098 -52.0881
  129 452.279 -15.8387 37.2625
  130 611.000 137.404 6.55582
  131 163.776 38.2968 -98.0470
  132 158.411 38.9902 96.5658
  133 541.791 1.01372 -6.16614
  134 632.406 143.834 -19.6818
  135 421.919 28.9107 24.2907
  136 416.824 -11.6381 1.34632
  137 419.026 -10.8202 -1.62003
  138 538.421 -6.33146 61.0942
  139 308.699 -12.8118 -22.7508
  140 308.787 -12.7591 21.8219
  141 412.743 27.6929 -155.943
  142 720.437 99.8321 13.8508
  143 425.648 15.0592 -36.4318
  144 320.168 -4.39858 -6.46479
  145 320.111 -4.38004 6.50342
  146 369.478 -30.4468 23.2577
  147 376.524 -31.8927 -23.0489
  148 221.908 -13.7257 -71.8355
  149 221.040 -10.9721 72.8336
  150 472.794 72.3490 24.0131
  151 468.107 -44.9708 22.4921
  152 471.906 -26.2721 -28.7257
  153 485.392 -28.7125 18.0074
  154 446.458 -30.5511 -19.7528
  155 466.552 22.1754 -47.0063
  156 417.461 35.4825 170.288
  157 31.4726 26.3102 16.7656
  158 27.6072 22.0450 -12.9734
  159 411.498 26.0578 -9.75927
  160 445.274 9.97171 43.9310
  161 457.669 -6.29416 7.06375
  162 453.939 -7.31039 -7.12917
  163 423.456 -31.6630 2.61435
  164 449.668 -10.5918 -24.4411
  165 513.980 85.2209 -31.4397
  166 409.540 -26.6920 1.44024
  167 390.536 -44.3715 47.9648
  168 368.009 -8.69986 -3.13314
  169 368.444 -8.65405 3.24031
  170 451.597 -9.82020 22.7309
  171 393.280 -44.1115 -46.0905
  172 463.253 -43.3496 -34.2186
  173 523.690 93.1337 27.8175
  174 410.973 -21.9492 0.601614
  175 615.128 73.5852 -47.9786
  176 111.245 7.41745 -56.1120
  177 108.187 6.86960 54.7126
  178 757.750 144.855 76.7534
  179 640.938 118.641 24.6701
  180 781.743 90.6017 -49.4449
  181 448.839 -5.96058 2.44793
  182 448.324 -5.84043 -2.48495
  183 274.485 -8.61538 -28.1581
  184 274.514 -8.72620 28.2491
  185 221.704 -8.11066 -44.2076
  186 223.268 -8.16175 44.9435
  187 133.523 96.1820 -122.843
  188 432.565 -2.34989 33.8846
  189 455.427 -33.4678 20.2117
  190 298.850 -3.75806 -10.1518
  191 298.326 -3.97466 10.2483
  192 67.1430 67.5172 71.6049
  193 424.263 0.731316 -32.7329
  194 447.499 -23.3937 24.3025
  195 407.476 6.64040 28.8862
  196 460.387 -27.8407 -84.0360
  197 459.650 -7.39519 -13.5772
  198 417.663 -36.8894 5.30253
  199 501.438 100.435 -14.5724
  200 467.253 -14.2514 40.2459
  201 315.275 -29.1659 -73.2023
  202 233.689 -0.895214 -96.2272
  203 228.431 0.589134 96.2853
  204 452.340 38.2596 36.5968
  205 329.736 0.794753 126.345
  206 438.497 49.4192 7.07021
  207 557.933 64.3267 -21.9622
  208 460.853 -7.24726 12.0875
  209 315.379 -28.7239 73.6685
  210 398.812 -17.3866 2.26720
  211 748.342 188.283 -95.4015
  212 557.727 73.3475 24.3489
  213 326.786 -23.3005 -32.2288
  214 325.119 -21.8125 31.8127
  215 50.1010 16.7458 -30.4808
  216 57.1980 17.0603 34.8369
  217 369.734 -37.5477 36.6284
  218 390.921 -14.2284 -3.50625
  219 394.136 -8.11596 -0.671296
  220 398.259 -8.10691 0.539338
  221 370.659 -36.3614 -36.8167
  222 388.931 -26.2724 -9.70734
  223 459.221 -39.9001 62.0784
  224 557.563 121.618 -7.86952
  225 646.214 127.902 -11.5835
  226 516.410 15.0251 31.4853
  227 430.727 -14.4799 6.68536
  228 319.635 3.57681 -128.515
  229 353.414 -21.8995 19.0540
  230 426.676 -16.5927 -5.39544
  231 515.720 -22.7148 9.19781
  232 442.978 35.2694 -35.3348
  233 491.846 -25.6116 -17.5842
  234 384.577 15.0763 6.97826
  235 331.161 -11.0730 -14.3572
  236 486.083 1.24001 -41.6283
  237 275.233 -4.03040 -14.4265
  238 274.970 -3.95173 14.0064
  239 296.633 -0.466140 -1.90197
  240 296.642 -0.444727 1.87594
  241 445.880 4.96303 -44.9671
  242 328.584 -10.9824 15.1275
  243 350.758 -21.3607 -20.2130
  244 161.120 118.477 159.566
  245 27.0708 33.6084 -23.4646
  246 824.802 62.4374 18.1813
  247 384.043 6.89461 -15.5142
  248 431.822 -29.2432 -8.85454
  249 441.760 99.3918 -214.976
  250 452.696 -36.9598 -14.7503
  251 231.761 -7.31696 -29.2242
  252 232.070 -7.54890 29.4590
  253 449.488 -18.5938 -30.9662
  254 464.265 -6.50946 -44.0653
  255 338.706 -5.07004 -2.92351
  256 338.703 -5.10083 2.83779
  257 474.562 -3.02067 -2.72454
  258 474.975 -2.49729 2.69767
  259 439.807 -3.90053 -24.5637
  260 619.154 71.2976 132.513
  261 410.060 -39.4049 -11.6598
  262 348.040 -9.72296 -7.76157
  263 346.427 -9.89905 8.10917
  264 -0.0689736 -0.596732 -9.15828
  265 -1.71182 0.918049 9.62363
  266 126.005 -3.32789 -45.1683
  267 125.264 -2.82773 44.8649
  268 290.530 -1.90122 4.43792
  269 290.494 -1.92212 -4.49676
  270 439.759 -4.92349 23.2816
  271 508.725 105.338 10.2766
  272 462.214 -43.0161 -1.69534
  273 473.914 56.1645 -39.1522
  274 457.594 -23.9733 -32.9888
  275 498.307 -28.9694 2.42296
  276 177.755 -3.91699 42.0398
  277 176.469 -4.16685 -41.4169
  278 460.116 -43.6600 -8.18915
  279 400.645 -45.3122 59.6473
  280 424.736 -6.76994 0.552672
  281 425.176 -6.49058 -0.513220
  282 473.600 -2.23123 -1.33451
  283 473.670 -2.53644 1.41351
  284 218.742 60.1465 143.323
  285 493.034 39.6253 -44.5889
  286 441.131 -37.4439 7.89744
  287 560.585 115.915 12.9546
  288 405.632 4.14615 -26.6592
  289 392.340 -11.7254 2.03259
  290 540.415 86.4433 -29.0234
  291 440.371 -7.47700 117.964
  292 472.867 83.7355 0.210068
  293 400.298 -43.0612 -62.2539
  294 426.309 -48.4842 27.3821
  295 406.472 -40.0473 15.7578
  296 628.379 128.216 10.9696
  297 385.188 -26.1173 12.3230
  298 471.357 -3.53538 -6.68541
  299 444.106 -22.6604 -20.0940
  300 747.872 209.240 93.5339
  301 488.448 0.435612 40.0844
  302 462.922 -3.40923 -11.3727
  303 484.048 65.4757 35.3120
  304 520.623 -0.909996 -93.0678
  305 465.143 13.6271 47.0239
  306 15.7719 18.0861 9.18754
  307 278.847 -20.7376 59.7573
  308 441.706 -7.99905 3.88618
  309 440.205 -8.91140 -4.27313
  310 438.147 45.8042 -20.6899
  311 268.313 -17.8951 -57.7455
  312 286.220 -22.7525 -82.3537
  313 451.158 -10.4919 10.3037
  314 426.354 -24.5971 6.87141
  315 444.474 -2.22774 43.0344
  316 648.589 129.669 -151.977
  317 448.547 -15.7349 29.1886
  318 446.836 -11.8730 -10.4781
  319 470.988 -3.07911 6.68490
  320 279.872 -2.87780 9.73196
  321 280.106 -3.18820 -9.87512
  322 78.3824 48.0861 -62.2850
  323 379.283 11.6740 -5.77810
  324 450.507 -13.7320 19.3322
  325 610.361 110.579 -2.91514
  326 450.925 56.4136 24.5222
  327 242.647 46.5041 -143.533
  328 279.787 -17.2572 82.9145
  329 421.479 25.1221 -27.0499
  330 461.549 -4.02343 12.3814
  331 446.533 -11.9847 -34.4756
  332 11.5981 7.31098 -1.66897
  333 85.3744 41.5024 57.6210
  334 336.104 -35.4203 59.1139
  335 -2.32573 8.34383 2.04971
  336 -1.40138 9.09343 -1.74957
  337 477.865 195.413 233.983
  338 444.876 -10.4930 34.6894
  339 912.482 97.7467 -115.198
  340 436.272 25.6619 37.4002
  341 519.813 53.8086 35.3107
  342 374.531 -12.0897 5.50476
  343 386.137 6.96351 16.6438
  344 343.217 -37.7952 -56.0149
  345 429.406 -20.8152 -7.92591
  346 391.321 -21.5471 6.14177
  347 450.293 -12.8729 -19.9532
  348 434.466 -47.8812 -36.8450
  349 507.132 -27.6768 -21.1439
  350 414.252 31.4327 7.50207
  351 459.632 -39.3691 12.4401
  352 580.041 42.9609 8.50255
  353 259.537 -12.8002 43.2341
  354 413.579 -15.8959 1.76021
  355 400.993 -44.1169 -31.6913
  356 661.246 160.879 35.5052
  357 490.648 81.8041 -28.6316
  358 319.025 -6.61457 10.7746
  359 319.621 -7.16152 -10.9740
  360 257.724 -12.3731 -43.8999
  361 160.781 145.592 -165.274
  362 379.452 -7.20049 -1.83186
  363 380.584 -7.59587 1.53901
  364 245.022 -2.49893 -15.1445
  365 244.971 -2.55064 15.3065
  366 851.866 32.7690 -16.9527
  367 862.821 59.0521 54.2434
  368 404.590 -32.5117 -8.21262
  369 538.976 18.6887 123.036
  370 198.105 -1.00193 76.9762
  371 198.291 -2.30769 -77.3287
  372 403.588 -25.6725 95.9255
  373 409.911 3.30803 27.4065
  374 429.047 4.86028 38.4930
  375 393.172 -45.3323 37.2575
  376 117.147 24.0167 -67.0128
  377 115.845 19.4188 64.4718
  378 55.5594 3.93742 -28.0797
  379 55.8506 3.33033 28.3532
  380 429.167 -38.5939 -71.9697
  381 319.513 -2.66073 -2.73840
  382 319.517 -2.62313 2.72676
  383 634.866 121.229 -1.02146
  384 389.806 -20.9269 -6.31593
  385 410.390 -10.2756 -120.548
  386 437.017 -40.2132 -1.90224
  387 600.275 109.959 -1.97636
  388 526.837 45.8636 -35.4316
  389 451.896 -25.4136 28.9426
  390 298.503 -7.27860 -16.6898
  391 297.600 -6.54165 15.8565
  392 392.067 -10.0927 -1.82600
  393 367.674 -12.3463 -7.13400
  394 287.627 -16.9288 39.5277
  395 287.256 -16.8853 -40.2394
  396 36.4575 55.9507 -45.8541
  397 449.014 20.9537 -43.5594
  398 346.756 -23.8796 25.4493
  399 551.835 40.7133 -131.825
  400 437.998 -28.9457 13.1563
  401 59.9226 75.6007 76.4353
  402 440.922 -3.92936 -40.8036
  403 283.538 -1.71341 5.75977
  404 283.440 -1.63291 -5.78488
  405 454.917 -3.96608 1.03904
  406 454.760 -3.74691 -0.912729
  407 469.408 -29.1066 25.8041
  408 222.337 -12.5454 -58.8705
  409 472.637 -2.52337 -7.29087
  410 225.680 -12.9727 59.3131
  411 542.866 11.7701 -8.08257
  412 459.604 -22.1608 34.7871
  413 406.748 -26.7504 -2.56573
  414 717.235 155.935 -62.6662
  415 448.235 -17.0357 23.8269
  416 715.549 131.403 43.3588
  417 538.615 113.845 11.9826
  418 208.737 -4.38070 -26.5706
  419 208.892 -4.20082 27.0228
  420 84.6569 -0.758255 -32.2751
  421 83.5684 -0.718926 31.6295
  422 450.284 -3.86084 -17.3549
  423 905.407 127.512 116.717
  424 238.517 16.0710 113.864
  425 299.212 -13.8337 -27.3253
  426 298.790 -13.8070 27.5891
  427 327.475 -27.6828 40.6707
  428 269.966 81.0834 -186.781
  429 534.368 116.192 -6.62138
  430 328.993 -27.3092 -41.2185
  431 482.337 -1.94524 -2.80481
  432 500.159 90.5294 24.9326
  433 519.910 103.471 -19.4576
  434 351.983 -25.3646 -25.6063
  435 660.798 154.920 -33.3500
  436 360.059 -38.0638 75.5406
  437 564.546 10.0823 -29.8636
  438 380.887 -26.0692 -104.025
  439 425.973 5.96928 -37.8096
  440 397.207 -39.7878 -22.3278
  441 781.374 73.2953 -14.0688
  442 770.752 91.8753 46.7714
  443 445.839 -31.5385 17.8541
  444 1.02979 7.27064 -7.16048
  445 2.14834 7.77497 7.13108
  446 581.059 117.192 9.13913
  447 430.045 -1.80859 21.4884
  448 390.755 -33.5321 15.7442
  449 309.229 -11.8733 108.793
  450 1.94388 -9.15088 -7.65294
  451 341.663 -31.3116 -79.9511
  452 434.832 -34.3482 -8.15773
  453 430.689 -7.94439 2.57051
  454 430.612 -7.56991 -1.96036
  455 184.379 17.3167 -95.0947
  456 450.053 -3.18502 16.3908
  457 63.8222 29.6058 -40.0314
  458 21.3654 23.5733 22.8802
  459 173.998 -1.28410 -24.2197
  460 173.466 -1.02446 24.2818
  461 963.584 224.866 -178.901
  462 426.586 -1.21846 -22.2728
  463 438.428 -12.3034 -7.12183
  464 426.056 -18.5492 5.87707
  465 412.511 16.7296 28.2302
  466 458.636 -1.54320 45.6726
  467 407.349 -7.31588 0.0543848
  468 408.930 -7.19327 -0.294551
  469 159.330 11.3682 76.1109
  470 343.474 -11.3051 11.1829
  471 537.840 28.0876 22.7586
  472 505.707 -29.4635 40.2294
  473 587.331 125.618 -0.312764
  474 483.304 -1.41825 2.79164
  475 413.613 -21.0843 -1.36712
  476 359.300 -6.09817 -1.91943
  477 359.094 -5.89696 1.78545
  478 130.143 59.8026 98.1894
  479 415.247 -15.3789 -1.71671
  480 58.2861 31.3193 36.1652
  481 129.573 61.5429 -96.9296
  482 452.429 64.3618 -6.73559
  483 370.471 -20.9304 -12.7921
  484 338.782 -6.89632 -6.06482
  485 339.033 -6.69147 6.16670
  486 475.047 -40.9606 -5.89293
  487 473.413 -3.06821 7.23413
  488 608.411 45.5593 58.4271
  489 466.209 56.1286 34.5162
  490 375.630 -28.7931 -17.5431
  491 460.062 72.7073 9.64633
  492 6.34432 -13.4770 -2.53247
  493 133.677 147.626 158.680
  494 470.880 38.7963 42.9930
  495 345.716 -11.3356 -10.3199
  496 407.565 0.765714 -18.8805
  497 325.226 26.3733 147.612
  498 420.230 -31.8421 -1.14746
  499 485.253 -40.0888 29.4815
  500 455.370 -8.70834 -10.8019
  501 714.418 109.256 -17.1787
  502 124.863 -0.191043 -28.6544
  503 125.058 0.0321432 29.1194
  504 458.239 -4.62045 -4.19309
  505 456.583 -5.01479 4.32446
  506 264.063 -17.8696 72.2484
  507 327.585 -13.9021 -18.8875
  508 310.272 -8.92097 -108.901
  509 272.325 -21.3412 -69.4780
  510 254.631 -1.98546 -10.4450
  511 254.531 -2.05225 10.3653
  512 445.412 -41.7456 3.83543
  513 333.140 -16.2309 20.6908
  514 472.447 5.39643 -46.1461
  515 349.340 -16.8238 15.4730
  516 369.398 -38.5996 45.9738
  517 568.606 44.8446 2.33853
  518 224.808 -0.798073 -15.0525
  519 224.868 -0.858681 15.2608
  520 569.377 120.211 -10.8311
  521 499.286 -4.40750 -32.0788
  522 499.447 -8.20680 28.1458
  523 451.803 -24.7984 -28.8114
  524 354.305 -30.1796 31.7757
  525 880.333 50.7783 -57.7892
  526 493.808 -33.6217 3.15321
  527 378.667 3.97784 -15.0613
  528 380.784 -15.6669 5.71556
  529 457.442 53.1590 -32.0809
  530 745.595 221.526 148.924
  531 443.086 -10.3974 7.28346
  532 410.134 -9.06029 -0.0291960
  533 414.121 -8.14764 -0.477593
  534 463.605 -36.5584 -15.7173
  535 368.643 -21.6080 13.4735
  536 285.034 0.0953223 -2.59914
  537 285.063 0.103268 2.56327
  538 371.102 -39.9340 -44.6786
  539 477.616 82.1073 -15.7254
  540 447.497 -13.5230 -14.1035
  541 384.138 3.35208 17.6429
  542 448.049 -17.4801 -24.8485
  543 287.685 0.0575606 -0.572354
  544 287.686 0.0677371 0.559690
  545 516.886 -21.1579 -45.7839
  546 358.615 -32.1333 -32.2880
  547 514.749 -7.95724 -17.5282
  548 474.755 -29.8708 75.9613
  549 459.265 -7.44708 9.67621
  550 485.145 -1.67256 1.45258
  551 485.072 -1.51969 -1.26539
  552 435.013 -47.5044 -23.2570
  553 447.370 -45.8465 48.2160
  554 262.933 -1.35420 -6.84392
  555 262.795 -1.34489 6.78872
  556 407.279 -40.4022 72.7018
  557 460.362 37.1401 -41.6027
  558 354.279 -37.1550 -65.1224
  559 454.622 25.8428 45.0049
  560 434.574 -48.2641 38.4886
  561 357.798 4.20829 6.40763
  562 386.983 -9.87248 2.20364
  563 474.659 -11.7690 -39.4482
  564 592.701 126.338 -0.331187
  565 484.312 -18.2494 -31.0330
  566 369.668 -26.9795 19.1687
  567 303.089 -3.43444 7.63307
  568 303.139 -3.48406 -7.74074
  569 429.954 -11.9255 3.37727
  570 348.779 -16.1695 -15.0959
  571 445.576 -7.75631 27.5500
  572 476.331 -33.4330 -16.7102
  573 404.447 -12.1144 -0.593252
  574 725.601 220.744 -104.516
  575 406.924 9.72293 -26.8879
  576 610.169 131.654 -6.90114
  577 361.690 3.50864 -10.0267
  578 438.900 -15.5378 9.42814
  579 130.546 83.7853 124.431
  580 432.091 40.8659 19.6031
  581 239.590 18.2532 -115.561
  582 475.653 -40.1634 0.0494034
  583 439.454 -5.05892 -33.3659
  584 492.360 60.6507 -40.1177
  585 -3.64872 -4.29289 -7.84262
  586 -4.64319 -3.80767 7.93692
  587 306.456 -2.29778 -4.45231
  588 306.458 -2.26408 4.41407
  589 461.427 -30.1658 -26.1590
  590 465.185 -19.8987 -36.4111
  591 46.1455 43.0315 39.5246
  592 437.997 37.9457 29.8039
  593 397.112 -18.5897 -2.69032
  594 392.874 -6.97234 0.108803
  595 391.898 -6.90134 -0.441934
  596 403.957 18.6344 18.6960
  597 873.766 20.2452 12.5973
  598 328.621 -18.8426 -25.5912
  599 354.213 5.13615 1.46633
  600 458.644 7.63645 -47.1089
  601 359.668 -41.0549 66.3251
  602 12.4119 4.81942 15.8049
  603 11.0529 4.00735 -14.8880
  604 482.755 21.6963 -46.2018
  605 428.650 44.7511 -5.29918
  606 452.868 -31.6628 -23.2928
  607 271.024 -5.66106 -20.4884
  608 270.544 -6.08699 20.4851
  609 464.788 -2.88350 2.31785
  610 464.616 -2.88857 -2.43914
  611 454.049 -4.44268 -44.9428
  612 442.721 -20.8475 17.4005
  613 323.077 -18.0216 26.8270
  614 28.2905 20.9525 -16.1873
  615 446.916 265.612 -266.967
  616 455.814 -8.27910 17.4455
  617 454.231 -7.77740 -18.7165
  618 359.029 17.7966 -147.092
  619 428.272 -12.5898 -4.29247
  620 385.253 -36.1890 24.3798
  621 499.222 101.636 -0.461717
  622 174.287 -6.94495 -53.8273
  623 175.804 -6.91172 54.2631
  624 543.737 91.3898 25.5133
  625 440.329 -28.5209 -15.9237
  626 396.341 21.9024 0.00100048
  627 427.870 -40.9698 -5.43826
  628 245.963 -6.49049 25.3406
  629 245.806 -6.44470 -25.0263
  630 315.287 -7.90079 -14.2898
  631 302.182 -0.883543 -1.96790
  632 302.188 -0.857960 1.95442
  633 437.412 -16.3253 -9.43319
  634 487.529 -0.833675 -0.724803
  635 487.388 -0.947692 0.934292
  636 572.302 108.544 -16.3324
  637 272.969 84.0623 175.127
  638 522.851 -6.50356 12.9268
  639 233.921 37.6171 127.911
  640 104.835 29.4797 62.8182
  641 533.909 24.0897 -26.7344
  642 450.414 -42.4781 -2.84129
  643 324.426 -4.31323 -4.92761
  644 324.522 -4.25046 4.94142
  645 435.929 -4.82290 -0.470924
  646 436.270 -4.93676 0.553908
  647 343.772 -34.8932 -48.1474
  648 160.838 8.05618 -76.9577
  649 268.414 -1.37010 4.33864
  650 268.336 -1.44400 -4.27138
  651 999.512 272.093 204.672
  652 510.498 58.1453 -40.2925
  653 457.239 -14.6773 -40.3931
  654 451.912 -16.5361 -36.5944
  655 477.593 39.3409 -45.2355
  656 291.359 -7.44473 -20.8694
  657 290.295 -7.92254 20.3933
  658 424.626 -37.0165 -0.880227
  659 3.28983 -11.7014 8.48926
  660 475.302 -0.822200 44.2317
  661 30.9271 19.7520 16.8171
  662 425.888 12.0471 36.5619
  663 71.6948 67.8607 -66.6883
  664 400.065 16.8033 -19.1754
  665 468.501 -3.47067 5.15436
  666 393.244 -34.9906 -16.8269
  667 445.341 -8.22288 -28.8830
  668 141.222 -0.865674 20.9873
  669 141.738 -0.731881 -21.0709
  670 539.003 106.499 -20.7009
  671 247.480 -12.6175 -88.3190
  672 436.640 -23.9440 -12.8900
  673 383.160 -16.0857 -6.25759
  674 467.798 -4.19302 -4.93857
  675 502.422 71.6753 35.4402
  676 86.6010 17.0419 -47.4447
  677 84.3998 11.3619 47.0297
  678 455.067 -11.1729 42.2193
  679 401.970 -30.2684 7.18874
  680 447.319 -23.7921 -24.2337
  681 656.840 164.341 -39.5692
  682 528.460 113.871 4.13789
  683 387.866 -13.6407 3.46972
  684 501.469 19.0841 41.5352
  685 453.134 -47.4689 16.1724
  686 311.364 -7.54289 14.3010
  687 407.919 -43.9149 23.9155
  688 472.492 -2.22409 0.152955
  689 472.444 -2.39947 -0.108375
  690 661.257 146.144 35.4485
  691 261.002 -10.3412 34.4199
  692 37.6730 38.2959 -28.3363
  693 -10.7013 0.317683 9.09363
  694 -9.39258 0.580578 -9.40725
  695 228.718 -8.78956 37.6739
  696 112.932 42.9834 -72.7129
  697 9.12172 -0.706094 -12.6514
  698 435.219 -34.9076 8.02387
  699 302.418 -18.2750 -96.2881
  700 341.763 -34.7000 47.4217
  701 422.625 -26.5178 -4.37746
  702 6.01336 -13.0655 -2.90262
  703 502.359 24.1150 -41.6330
  704 451.358 -44.3161 -2.71376
  705 445.345 -36.5254 -13.5935
  706 436.365 13.1118 -41.3510
  707 260.502 -10.3911 -34.4622
  708 44.8248 75.2306 -70.9903
  709 434.823 23.9685 -38.4696
  710 -0.620362 -11.5476 -9.02711
  711 410.201 0.271398 17.9101
  712 227.950 -8.41548 -37.2574
  713 289.816 -16.3861 95.7375
  714 403.035 -13.6074 0.942485
  715 334.587 -7.40273 -7.97836
  716 242.515 -9.83067 86.9895
  717 143.298 1.23823 -59.9358
  718 141.167 0.881845 58.7453
  719 333.526 -7.04498 8.23169
  720 83.7990 1.60326 -24.3948
  721 84.2298 1.75136 24.2570
  722 361.270 -13.3830 8.90201
  723 436.198 -0.673520 -15.1079
  724 506.298 55.4104 184.614
  725 353.007 -6.65921 -4.39426
  726 352.812 -6.83431 4.25987
  727 448.193 -13.1246 -30.2394
  728 342.501 -4.47960 -2.30366
  729 342.416 -4.32549 2.23755
  730 439.062 -4.83802 29.8011
  731 446.988 -47.1101 9.42748
  732 360.436 -9.38194 5.57427
  733 36.0972 -0.946630 -16.4288
  734 36.3384 -1.39209 16.1942
  735 359.819 -8.39717 -5.26854
  736 8.69136 9.62218 -2.63499
  737 479.356 -35.6219 -52.6845
  738 540.919 -7.12740 18.9896
  739 167.891 24.3130 89.4634
  740 278.720 0.00252910 2.89123
  741 278.651 0.0301357 -2.92877
  742 421.303 -42.9001 11.2162
  743 807.029 115.082 -92.6028
  744 387.876 0.882652 -14.5882
  745 381.872 -9.08772 -2.43381
  746 339.779 122.460 212.893
  747 482.377 18.8526 46.0396
  748 437.414 -0.900777 14.6002
  749 489.324 -1.08344 -1.64051
  750 489.795 -1.33842 1.64545
  751 679.142 131.004 -29.7660
  752 484.535 87.5687 11.8639
  753 376.982 -11.1360 -4.07759
  754 478.899 -2.11694 5.27598
  755 304.513 -17.5808 -34.5327
  756 439.483 -5.30380 1.93875
  757 439.293 -5.28035 -1.67490
  758 324.359 -26.8144 86.1294
  759 452.963 -48.3394 -21.5572
  760 449.907 -18.4003 32.3191
  761 304.040 -17.3001 34.2508
  762 471.073 67.8492 -28.6304
  763 390.443 2.93866 15.3367
  764 311.168 -28.8660 -64.7697
  765 379.171 -10.8532 3.79799
  766 446.507 -8.44306 40.2681
  767 282.548 0.415633 -0.970642
  768 282.560 0.422068 0.949864
  769 8.88003 12.3938 1.40501
  770 316.449 -10.5946 17.9630
  771 402.822 -10.2279 0.674780
  772 444.913 -19.1964 -18.0857
  773 205.313 -0.919240 15.4731
  774 205.419 -0.949115 -15.2328
  775 481.972 -14.7590 34.6813
  776 445.727 -10.0411 -38.4558
  777 170.689 -6.94906 -62.2726
  778 171.284 -6.13691 61.8547
  779 467.696 -38.6427 8.27766
  780 445.910 -14.5596 14.2419
  781 678.151 128.343 65.4176
</Section>

newXOutput 26

<Section columns = "stress_xx | stress_yy | stress_xy">
  1 515.880 0.258213 0.627555
  2 516.070 0.191905 -0.601261
  3 293.990 -0.0769163 -0.461411
  4 -3.60497 -4.09770 -4.81913
  5 919.113 381.794 304.979
  6 872.522 345.842 -256.352
  7 -4.76757 -4.09609 5.51371
  8 293.998 -0.0824359 0.454587
  9 517.556 -0.595948 -0.123963
  10 517.817 -1.86374 1.20204
  11 516.166 -1.49489 0.753590
  12 507.855 -1.70598 2.92491
  13 503.862 -1.82436 3.45869
  14 494.534 -2.52473 5.80093
  15 478.767 -1.82477 9.04867
  16 460.178 -0.850883 10.5845
  17 438.482 0.551069 12.4245
  18 406.803 1.72313 10.3021
  19 386.649 3.95812 12.1752
  20 371.145 3.14047 9.16898
  21 351.712 4.00248 2.59722
  22 356.928 5.97581 -3.48955
  23 363.994 3.01107 -6.43402
  24 385.527 2.78760 -10.6262
  25 405.448 1.16883 -11.5767
  26 438.227 0.634426 -12.9547
  27 459.661 -1.36574 -11.3931
  28 480.421 -2.02236 -9.15166
  29 494.407 -1.73580 -6.46115
  30 501.492 -1.77612 -5.34997
  31 508.828 -2.46407 -2.01790
  32 516.188 -1.30713 -0.265628
  33 517.929 -1.61389 -1.04851
  34 517.787 -0.746196 0.203700
  35 500.478 -1.17338 -0.927844
  36 480.375 -2.84574 -1.01626
  37 461.669 -5.18125 -1.37788
  38 439.603 -6.46454 -1.53593
  39 417.263 -7.18751 -1.16909
  40 391.876 -6.62950 -0.361458
  41 367.260 -5.37097 -0.197542
  42 345.072 -4.09047 0.327721
  43 325.415 -1.88143 0.681930
  44 306.778 -0.601680 -0.0186635
  45 288.415 0.823311 0.0580775
  46 287.224 0.705456 1.31580
  47 284.834 0.171725 0.929624
  48 279.985 -0.485159 2.50382
  49 269.909 0.0318416 3.41303
  50 260.843 -0.716156 5.04135
  51 249.655 -0.546625 7.25598
  52 230.576 0.0216800 7.81529
  53 208.567 0.202933 9.05834
  54 187.180 -0.280634 14.1681
  55 146.606 0.955806 13.2126
  56 118.364 1.06951 15.4599
  57 79.3084 1.46643 14.0258
  58 43.4464 0.541830 15.5066
  59 7.27247 4.27253 15.7078
  60 -17.4408 5.07463 8.16267
  61 -26.4914 4.93180 -0.102227
  62 -22.5572 3.78852 -8.21191
  63 -13.3294 -1.14531 -7.23659
  64 -1.36841 -13.4681 -6.79589
  65 0.884979 -25.6495 -9.00246
  66 3.48638 -40.3719 -4.88997
  67 11.4675 -39.5039 1.60747
  68 19.9825 1.51310 24.9266
  69 58.3642 93.6089 84.6206
  70 246.880 285.143 253.871
  71 1189.77 130.448 186.123
  72 972.764 40.9812 62.6828
  73 929.297 23.0993 25.0151
  74 916.334 14.8821 -1.48856
  75 926.321 19.4586 -22.3889
  76 986.819 36.7361 -60.7769
  77 1135.94 107.500 -160.731
  78 198.428 324.318 -242.995
  79 48.0502 57.0337 -65.8561
  80 18.4487 1.87768 -25.9554
  81 5.65450 -38.9146 -4.16297
  82 3.52241 -31.1518 3.42311
  83 3.94361 -32.3600 7.42664
  84 0.364876 -12.2093 8.62635
  85 -14.3110 -0.948101 7.14691
  86 -23.6954 3.65916 8.01082
  87 -27.0850 4.88828 -0.0814341
  88 -17.8853 4.75853 -8.04625
  89 6.49002 4.74859 -15.4585
  90 42.8752 0.684507 -15.7234
  91 79.0736 1.37233 -14.2597
  92 118.764 1.05247 -15.5677
  93 147.164 0.926797 -13.3134
  94 187.751 -0.405663 -14.0272
  95 208.827 0.201457 -8.88524
  96 230.545 0.110743 -7.72510
  97 249.690 -0.525214 -7.29696
  98 260.796 -0.722973 -5.03005
  99 269.881 0.0278408 -3.41904
  100 279.887 -0.470405 -2.49064
  101 284.754 0.176308 -0.953435
  102 287.192 0.701307 -1.33813
  103 288.413 0.817431 -0.0708029
  104 306.774 -0.621040 0.0100058
  105 325.406 -1.91865 -0.693481
  106 345.057 -4.14559 -0.316943
  107 367.520 -5.50860 0.260360
  108 392.109 -6.68130 0.285647
  109 416.484 -7.20366 1.10555
  110 439.284 -6.18401 1.38541
  111 461.757 -5.37481 1.38493
  112 480.357 -3.01101 1.01005
  113 500.338 -1.34250 0.998729
  114 445.344 -47.0226 -14.9132
  115 450.256 -46.8637 11.2105
  116 477.273 67.8531 -22.7638
  117 380.116 -31.8728 -93.8977
  118 368.996 -29.5723 95.7846
  119 513.160 48.5593 44.0383
  120 536.882 14.5811 -34.2461
  121 382.743 -16.6845 -10.7984
  122 380.810 -17.6409 11.1340
  123 587.492 129.168 1.47684
  124 452.948 -20.8518 11.4477
  125 456.462 -19.7295 -13.2338
  126 468.044 -10.3877 -42.8777
  127 320.576 -26.4914 51.7336
  128 320.066 -26.7226 -54.2462
  129 470.136 -16.4732 38.4338
  130 634.778 142.764 7.16669
  131 170.516 39.8031 -102.163
  132 164.932 40.5313 100.628
  133 562.729 1.11147 -6.84202
  134 656.954 149.432 -20.7791
  135 438.878 30.0893 25.1266
  136 433.300 -12.1118 1.29737
  137 435.578 -11.2624 -1.58209
  138 559.097 -6.46330 63.8634
  139 321.327 -13.2984 -23.7114
  140 321.421 -13.2436 22.7471
  141 428.667 28.8781 -162.265
  142 748.036 103.618 14.4056
  143 442.705 15.6756 -37.6793
  144 333.294 -4.55757 -6.75718
  145 333.234 -4.53830 6.79724
  146 384.245 -31.6297 24.3227
  147 391.539 -33.1342 -24.1148
  148 231.040 -14.2965 -74.8041
  149 230.140 -11.4352 75.8429
  150 491.598 75.2027 24.7965
  151 486.362 -46.7414 23.6860
  152 490.418 -27.3184 -29.5055
  153 504.358 -29.8481 18.3470
  154 464.033 -31.7636 -20.2449
  155 485.014 23.0512 -48.5489
  156 433.558 37.0189 177.161
  157 32.8893 27.4287 17.6158
  158 28.8766 22.9822 -13.6535
  159 428.104 27.1319 -10.0974
  160 462.982 10.3725 45.4008
  161 475.559 -6.56907 7.22704
  162 471.700 -7.62503 -7.29113
  163 440.179 -32.9097 2.49092
  164 467.402 -11.0234 -25.1927
  165 534.246 88.5628 -32.3700
  166 425.764 -27.7382 1.68333
  167 405.971 -46.1263 50.0526
  168 382.795 -9.03606 -3.30682
  169 383.244 -8.99002 3.41836
  170 469.388 -10.2232 23.4246
  171 408.817 -45.8561 -48.1065
  172 481.310 -45.0550 -35.8669
  173 544.314 96.7765 28.6048
  174 427.251 -22.8121 0.458448
  175 638.633 76.6889 -50.3760
  176 116.028 7.69225 -58.4969
  177 112.846 7.12367 57.0436
  178 786.617 150.408 79.7877
  179 665.536 123.452 26.2103
  180 811.350 94.0481 -51.3414
  181 466.398 -6.22501 2.47916
  182 465.865 -6.10082 -2.51814
  183 285.829 -8.94120 -29.3159
  184 285.860 -9.05625 29.4105
  185 230.971 -8.43079 -46.0116
  186 232.593 -8.48423 46.7778
  187 138.956 100.183 -127.990
  188 449.808 -2.44075 35.0144
  189 473.324 -34.7964 20.6942
  190 311.202 -3.89193 -10.5906
  191 310.660 -4.11652 10.6897
  192 69.9883 70.4084 74.7515
  193 441.245 0.765239 -33.8378
  194 465.126 -24.3275 24.9878
  195 423.917 6.93023 29.8835
  196 478.228 -28.9086 -87.6070
  197 477.662 -7.70874 -13.9631
  198 434.163 -38.3373 5.73775
  199 521.321 104.352 -15.0204
  200 485.645 -14.8248 41.4874
  201 327.916 -30.3388 -76.2372
  202 243.175 -0.976256 -100.207
  203 237.718 0.569070 100.271
  204 470.356 39.7851 37.8213
  205 342.742 0.809818 131.520
  206 456.065 51.4043 7.31172
  207 579.630 66.8964 -22.3540
  208 478.899 -7.55548 12.4242
  209 328.026 -29.8796 76.7170
  210 414.661 -18.0702 2.48705
  211 776.864 195.575 -99.2677
  212 579.447 76.2688 24.8519
  213 340.012 -24.2017 -33.5969
  214 338.288 -22.6562 33.1606
  215 52.3767 17.4195 -31.8508
  216 59.7542 17.7443 36.3876
  217 384.466 -39.0197 38.2322
  218 406.497 -14.7861 -3.74710
  219 409.827 -8.44331 -0.747682
  220 414.092 -8.43605 0.612174
  221 385.420 -37.7862 -38.4282
  222 404.417 -27.2939 -10.2484
  223 477.078 -41.4583 64.7943
  224 579.489 126.325 -7.98459
  225 671.301 132.795 -12.1599
  226 536.569 15.6285 32.3078
  227 447.699 -15.0661 6.79194
  228 332.257 3.69683 -133.773
  229 367.636 -22.7414 19.9139
  230 443.507 -17.2584 -5.44771
  231 535.709 -23.5743 9.95274
  232 460.662 36.6837 -36.5317
  233 511.043 -26.6218 -17.8991
  234 400.259 15.7132 7.22244
  235 344.629 -11.4920 -14.9906
  236 505.168 1.28212 -42.8932
  237 286.698 -4.17675 -15.0250
  238 286.425 -4.09538 14.5893
  239 308.982 -0.474936 -1.98891
  240 308.991 -0.452723 1.96198
  241 463.596 5.16516 -46.4698
  242 341.959 -11.3971 15.7906
  243 364.884 -22.1813 -21.1169
  244 167.615 123.378 166.155
  245 28.2689 35.1686 -24.6241
  246 855.764 64.7984 18.8515
  247 399.702 7.20608 -16.0572
  248 448.850 -30.3993 -8.96585
  249 458.542 103.616 -223.510
  250 470.480 -38.4237 -15.0230
  251 241.492 -7.59787 -30.4132
  252 241.811 -7.83955 30.6570
  253 467.214 -19.3406 -31.9076
  254 482.576 -6.77619 -45.4670
  255 352.484 -5.25742 -3.06823
  256 352.481 -5.28938 2.97938
  257 492.974 -3.16702 -2.77783
  258 493.401 -2.62351 2.75138
  259 457.271 -4.06187 -25.3664
  260 642.448 74.5715 138.105
  261 426.282 -40.9492 -12.3340
  262 362.122 -10.0921 -8.13061
  263 360.452 -10.2744 8.49103
  264 -0.0207005 -0.576888 -9.47079
  265 -1.72772 0.990705 9.95444
  266 131.466 -3.47441 -47.0552
  267 130.694 -2.95399 46.7411
  268 302.639 -1.96430 4.63367
  269 302.601 -1.98587 -4.69465
  270 457.224 -5.12039 24.0405
  271 528.879 109.437 10.5779
  272 480.309 -44.7161 -1.44423
  273 492.709 58.3806 -40.4351
  274 475.608 -24.9304 -33.9666
  275 517.699 -30.1019 2.14097
  276 185.318 -4.07542 43.7638
  277 183.982 -4.33535 -43.1150
  278 478.117 -45.3856 -8.81918
  279 416.415 -47.1095 62.2100
  280 441.475 -7.06090 0.532668
  281 441.929 -6.77162 -0.492962
  282 491.957 -2.34787 -1.36053
  283 492.029 -2.66388 1.44191
  284 227.511 62.5476 149.216
  285 512.452 41.1846 -45.9906
  286 458.488 -38.9232 7.93063
  287 582.582 120.426 13.1745
  288 422.007 4.32467 -27.5764
  289 407.968 -12.1892 2.20066
  290 561.598 89.8421 -29.7774
  291 457.420 -7.70858 122.841
  292 491.701 87.0310 0.217750
  293 416.046 -44.7717 -64.9218
  294 443.068 -50.3964 28.7046
  295 422.554 -41.6178 16.5884
  296 652.825 133.146 11.5579
  297 400.539 -27.1321 12.9629
  298 489.719 -3.69301 -6.86270
  299 461.597 -23.5658 -20.6320
  300 776.346 217.448 97.5148
  301 507.613 0.444858 41.2858
  302 481.087 -3.55296 -11.7186
  303 503.216 68.0516 36.4432
  304 540.583 -0.820135 -97.0421
  305 483.540 14.1635 48.5621
  306 16.4919 18.9625 9.71750
  307 290.199 -21.5640 62.2168
  308 459.035 -8.34095 3.94132
  309 457.486 -9.28727 -4.33612
  310 455.691 47.6422 -21.3944
  311 279.282 -18.6078 -60.1188
  312 297.755 -23.6843 -85.7510
  313 468.846 -10.9271 10.5560
  314 443.184 -25.5711 6.93124
  315 462.124 -2.31590 44.4573
  316 672.779 135.272 -158.336
  317 466.248 -16.3660 30.0846
  318 464.375 -12.3609 -10.7304
  319 489.333 -3.22317 6.86180
  320 291.548 -2.97829 10.1393
  321 291.789 -3.30026 -10.2879
  322 81.7256 50.0598 -65.0226
  323 394.784 12.1708 -5.98129
  324 468.228 -14.2926 19.8852
  325 633.978 114.994 -3.52123
  326 468.924 58.6564 25.3487
  327 252.329 48.3510 -149.414
  328 291.078 -17.9741 86.3312
  329 438.417 26.1487 -27.9793
  330 479.663 -4.19332 12.7559
  331 464.195 -12.4664 -35.5742
  332 12.1262 7.73997 -1.86779
  333 89.0001 43.2047 60.1575
  334 349.563 -36.8253 61.5848
  335 -2.31271 8.70651 2.05452
  336 -1.35428 9.48729 -1.73880
  337 495.575 203.718 243.234
  338 462.491 -10.9158 35.8032
  339 946.359 101.412 -119.394
  340 453.705 26.6943 38.6722
  341 540.192 55.9363 36.3123
  342 389.535 -12.5581 5.81146
  343 401.866 7.26945 17.2243
  344 356.940 -39.2909 -58.3693
  345 446.342 -21.6434 -8.04272
  346 406.900 -22.3864 6.53182
  347 468.010 -13.3974 -20.5320
  348 451.490 -49.7734 -38.5495
  349 526.785 -28.7389 -22.3462
  350 430.955 32.7176 7.76218
  351 477.663 -40.9274 12.6087
  352 602.377 44.7688 9.33841
  353 270.246 -13.3000 45.0078
  354 429.947 -16.5290 1.69358
  355 416.843 -45.8535 -33.1492
  356 686.774 167.187 37.2799
  357 510.092 85.0121 -29.5355
  358 332.091 -6.85775 11.2469
  359 332.708 -7.42536 -11.4542
  360 268.366 -12.8568 -45.6986
  361 167.015 151.880 -172.010
  362 394.637 -7.48609 -1.93692
  363 395.808 -7.89644 1.63447
  364 255.337 -2.59119 -15.7601
  365 255.284 -2.64459 15.9284
  366 883.661 34.0088 -17.5696
  367 895.022 61.2764 56.2083
  368 420.627 -33.7829 -8.72982
  369 559.509 19.6337 128.146
  370 206.289 -1.07500 80.1744
  371 206.484 -2.43332 -80.5372
  372 419.368 -26.6908 99.9199
  373 426.426 3.45172 28.3455
  374 446.194 5.06366 39.7974
  375 408.733 -47.1178 38.9225
  376 122.100 24.9575 -69.8759
  377 120.759 20.1738 67.2270
  378 58.1235 4.08947 -29.3052
  379 58.4247 3.45805 29.5896
  380 445.919 -40.1173 -75.0452
  381 332.638 -2.75229 -2.85810
  382 332.643 -2.71331 2.84607
  383 659.553 125.859 -1.07481
  384 405.334 -21.7411 -6.70578
  385 426.342 -10.6476 -125.506
  386 454.218 -41.7991 -1.70532
  387 623.549 114.338 -1.56036
  388 547.435 47.6845 -36.3973
  389 469.697 -26.4274 29.7795
  390 310.805 -7.54786 -17.3943
  391 309.873 -6.78125 16.5255
  392 407.685 -10.4947 -1.97402
  393 382.436 -12.8229 -7.50098
  394 299.404 -17.5833 41.1607
  395 299.016 -17.5393 -41.9004
  396 38.0285 58.5184 -47.9445
  397 466.873 21.7908 -45.0200
  398 360.721 -24.8017 26.5637
  399 572.763 42.5785 -137.299
  400 455.256 -30.0932 13.4205
  401 62.4145 79.0306 79.7645
  402 458.445 -4.08389 -42.1557
  403 295.380 -1.77125 6.00513
  404 295.278 -1.68777 -6.03119
  405 472.664 -4.15492 1.05237
  406 472.503 -3.92803 -0.921596
  407 487.823 -30.2646 26.4746
  408 231.551 -13.0551 -61.2906
  409 491.082 -2.63544 -7.49946
  410 235.019 -13.4992 61.7526
  411 563.894 12.2894 -7.94778
  412 477.698 -23.0464 35.8298
  413 422.873 -27.7991 -2.85089
  414 744.740 161.953 -65.2428
  415 465.892 -17.7223 24.5234
  416 743.006 136.426 45.1192
  417 559.855 118.264 12.2828
  418 217.581 -4.54835 -27.6477
  419 217.740 -4.36168 28.1177
  420 88.4499 -0.800066 -33.6475
  421 87.3164 -0.758372 32.9767
  422 468.070 -4.02551 -17.9049
  423 939.102 132.299 120.999
  424 248.130 16.6675 118.562
  425 311.473 -14.3602 -28.4670
  426 311.037 -14.3329 28.7396
  427 340.693 -28.7619 42.3806
  428 280.552 84.4120 -194.340
  429 555.471 120.693 -6.80324
  430 342.260 -28.3743 -42.9525
  431 501.019 -2.03605 -2.86915
  432 519.962 94.0707 25.7029
  433 540.450 107.503 -20.0133
  434 366.127 -26.3461 -26.7371
  435 686.204 161.096 -35.1820
  436 374.323 -39.5865 78.6978
  437 586.230 10.5878 -31.4751
  438 395.826 -27.1084 -108.330
  439 443.023 6.21960 -39.0934
  440 412.949 -41.3477 -23.4054
  441 810.961 76.0658 -14.6010
  442 800.023 95.3531 48.5614
  443 463.386 -32.7899 18.2721
  444 1.26167 7.56416 -7.53287
  445 2.42413 8.08938 7.50275
  446 603.737 121.792 9.11049
  447 447.208 -1.87988 22.2024
  448 406.288 -34.8408 16.5423
  449 321.534 -12.3813 113.268
  450 2.04701 -9.43383 -7.89361
  451 355.252 -32.5740 -83.2724
  452 451.966 -35.7045 -8.22105
  453 447.637 -8.28140 2.59058
  454 447.556 -7.89318 -1.96489
  455 191.956 17.9645 -99.0628
  456 467.838 -3.32128 16.9124
  457 66.5977 30.8171 -41.8353
  458 22.2906 24.7925 23.9940
  459 181.492 -1.33210 -25.2078
  460 180.938 -1.06195 25.2730
  461 999.076 233.495 -185.517
  462 443.640 -1.26575 -23.0172
  463 455.665 -12.8094 -7.25712
  464 442.870 -19.2895 5.93075
  465 429.132 17.4215 29.2062
  466 476.769 -1.60909 47.1557
  467 423.493 -7.62029 0.0243017
  468 425.129 -7.49385 -0.273807
  469 165.979 11.7892 79.3080
  470 357.385 -11.7329 11.6955
  471 558.757 29.2300 23.2079
  472 525.258 -30.5789 42.1595
  473 610.348 130.454 -0.246989
  474 502.016 -1.49084 2.85682
  475 429.985 -21.9158 -1.25318
  476 373.790 -6.33159 -2.01913
  477 373.577 -6.12307 1.87989
  478 135.518 62.2390 102.353
  479 431.673 -15.9929 -1.64985
  480 60.8377 32.5971 37.8074
  481 134.943 64.0345 -101.045
  482 470.505 66.9197 -6.96049
  483 385.307 -21.7385 -13.4219
  484 352.555 -7.15286 -6.34715
  485 352.815 -6.94055 6.45292
  486 493.590 -42.5778 -6.46145
  487 491.888 -3.19581 7.44425
  488 631.593 47.6201 61.2122
  489 484.739 58.3496 35.6580
  490 390.632 -29.9101 -18.3826
  491 478.416 75.5823 9.96650
  492 6.63264 -13.8126 -2.76161
  493 138.940 154.088 165.202
  494 489.529 40.3267 44.3980
  495 359.705 -11.7655 -10.8008
  496 424.007 0.800020 -19.5244
  497 338.001 27.4488 153.630
  498 436.834 -33.0934 -0.974025
  499 504.102 -41.6520 30.9686
  500 473.208 -9.07551 -11.0825
  501 741.815 113.417 -17.8831
  502 130.359 -0.200970 -29.8390
  503 130.561 0.0308759 30.3233
  504 476.123 -4.83197 -4.27749
  505 474.414 -5.24294 4.40961
  506 274.814 -18.5980 75.2241
  507 340.902 -14.4303 -19.7059
  508 322.609 -9.31361 -113.377
  509 283.386 -22.2038 -72.3440
  510 265.350 -2.05781 -10.8708
  511 265.246 -2.12720 10.7884
  512 462.915 -43.3948 3.69580
  513 346.647 -16.8499 21.5891
  514 491.073 5.60290 -47.6199
  515 363.437 -17.4664 16.1758
  516 384.091 -40.1199 47.9499
  517 590.593 46.7037 1.94383
  518 234.341 -0.824016 -15.6616
  519 234.403 -0.887035 15.8776
  520 591.682 124.889 -10.9426
  521 518.808 -4.58171 -32.9439
  522 518.959 -8.53133 28.8568
  523 469.598 -25.7879 -29.6469
  524 368.512 -31.3543 33.1603
  525 913.094 52.6992 -59.8921
  526 513.023 -34.9377 3.63994
  527 394.147 4.15317 -15.5862
  528 396.000 -16.2755 6.05400
  529 475.661 55.2691 -33.1509
  530 773.412 230.584 155.251
  531 460.479 -10.8307 7.43507
  532 426.376 -9.43181 -0.0997003
  533 430.500 -8.48684 -0.430935
  534 481.783 -38.0074 -16.0070
  535 383.412 -22.4428 14.1298
  536 296.979 0.104609 -2.71168
  537 297.010 0.112836 2.67455
  538 385.859 -41.5061 -46.6094
  539 496.615 85.3368 -16.2381
  540 465.081 -14.0752 -14.4719
  541 399.801 3.49928 18.2575
  542 465.702 -18.1836 -25.5781
  543 299.744 0.0659419 -0.599838
  544 299.746 0.0764975 0.586740
  545 536.825 -21.9294 -47.9473
  546 372.972 -33.3859 -33.6998
  547 534.776 -8.25488 -17.8040
  548 493.132 -31.0005 79.2384
  549 477.233 -7.76360 9.92638
  550 503.877 -1.75436 1.48311
  551 503.801 -1.59676 -1.28968
  552 452.089 -49.3805 -24.4324
  553 464.831 -47.6538 50.3780
  554 273.998 -1.40162 -7.12555
  555 273.855 -1.39215 7.06854
  556 423.249 -42.0063 75.7851
  557 478.648 38.6156 -42.9846
  558 368.367 -38.6360 -67.8527
  559 472.680 26.8685 46.5082
  560 451.602 -50.1706 40.2580
  561 372.571 4.39773 6.63293
  562 402.426 -10.2629 2.35380
  563 493.315 -12.2437 -40.6449
  564 615.901 131.203 -0.495247
  565 503.280 -18.9771 -31.8822
  566 384.459 -28.0234 20.0604
  567 315.618 -3.55461 7.96298
  568 315.669 -3.60596 -8.07461
  569 446.886 -12.4149 3.39052
  570 362.856 -16.7875 -15.7830
  571 463.209 -8.07336 28.4284
  572 494.967 -34.7578 -17.0166
  573 420.495 -12.5980 -0.714658
  574 753.130 229.529 -109.089
  575 423.349 10.1385 -27.8176
  576 633.969 136.741 -7.42165
  577 376.595 3.66874 -10.3831
  578 456.170 -16.1665 9.62465
  579 135.899 87.2332 129.652
  580 449.420 42.5148 20.2754
  581 249.245 18.9365 -120.326
  582 494.227 -41.7479 0.390396
  583 456.910 -5.26363 -34.4635
  584 511.806 63.0363 -41.3858
  585 -3.78549 -4.45678 -8.15008
  586 -4.81601 -3.94699 8.24234
  587 319.122 -2.37522 -4.64920
  588 319.124 -2.34024 4.60961
  589 479.555 -31.3659 -26.8582
  590 483.485 -20.6953 -37.5046
  591 48.1478 44.8790 41.3496
  592 455.518 39.4704 30.8168
  593 412.902 -19.3183 -2.92986
  594 408.522 -7.25655 0.138544
  595 407.512 -7.18297 -0.483492
  596 420.297 19.4113 19.3468
  597 906.232 21.0142 13.0447
  598 341.945 -19.5646 -26.6868
  599 368.864 5.36252 1.51963
  600 476.799 7.93457 -48.6558
  601 373.953 -42.6908 69.1091
  602 13.1853 5.00833 16.5214
  603 11.7728 4.16352 -15.5673
  604 501.774 22.5481 -47.6684
  605 445.865 46.5558 -5.48040
  606 470.682 -32.9207 -23.9009
  607 282.296 -5.87088 -21.3323
  608 281.798 -6.31320 21.3287
  609 482.871 -3.02829 2.36089
  610 482.693 -3.03328 -2.48657
  611 472.016 -4.62321 -46.4094
  612 460.154 -21.6813 17.8515
  613 336.202 -18.7121 27.9667
  614 29.6177 21.8190 -16.9825
  615 463.337 276.835 -277.290
  616 473.720 -8.62431 17.9597
  617 472.106 -8.10198 -19.2821
  618 373.046 18.4980 -153.061
  619 445.151 -13.1028 -4.32942
  620 400.569 -37.6034 25.5165
  621 519.033 105.599 -0.473008
  622 181.646 -7.23520 -56.0505
  623 183.220 -7.20091 56.5049
  624 565.047 94.9849 26.1385
  625 457.676 -29.6536 -16.2908
  626 412.426 22.8138 0.00137993
  627 444.729 -42.5813 -5.90341
  628 256.258 -6.73763 26.3720
  629 256.096 -6.69007 -26.0457
  630 328.200 -8.19377 -14.9073
  631 314.725 -0.907181 -2.04735
  632 314.731 -0.880655 2.03341
  633 454.627 -16.9852 -9.62542
  634 506.325 -0.885604 -0.742428
  635 506.179 -1.00376 0.958671
  636 594.640 112.811 -16.5482
  637 283.722 87.4446 182.218
  638 543.160 -6.73547 13.0166
  639 243.305 39.0944 133.180
  640 109.268 30.6557 65.5358
  641 554.683 25.0636 -27.3365
  642 468.090 -44.1564 -2.65455
  643 337.710 -4.46760 -5.14882
  644 337.809 -4.40244 5.16323
  645 453.044 -5.04475 -0.466473
  646 453.397 -5.16254 0.552450
  647 357.541 -36.2667 -50.1811
  648 167.547 8.34114 -80.1869
  649 279.711 -1.41725 4.52102
  650 279.631 -1.49383 -4.45121
  651 1036.00 282.575 212.262
  652 530.563 60.4339 -41.5069
  653 475.280 -15.2671 -41.6631
  654 469.750 -17.1998 -37.7382
  655 496.473 40.8915 -46.7039
  656 303.374 -7.72125 -21.7401
  657 302.274 -8.21720 21.2449
  658 441.380 -38.4725 -1.15495
  659 3.45225 -12.1185 8.78150
  660 494.012 -0.862800 45.6223
  661 32.3632 20.5700 17.6388
  662 442.948 12.5442 37.8110
  663 74.7321 70.7016 -69.6218
  664 416.271 17.5093 -19.8459
  665 486.739 -3.63563 5.27740
  666 408.861 -36.3582 -17.6726
  667 462.966 -8.55688 -29.8069
  668 147.424 -0.900659 21.8478
  669 147.961 -0.761551 -21.9343
  670 560.211 110.656 -21.2241
  671 257.537 -13.1584 -91.9605
  672 453.845 -24.8965 -13.1675
  673 398.461 -16.7115 -6.61784
  674 486.012 -4.38525 -5.05170
  675 522.244 74.4899 36.5267
  676 90.3718 17.7113 -49.4956
  677 88.0800 11.8004 49.0670
  678 473.044 -11.6237 43.5703
  679 417.918 -31.4510 7.65707
  680 464.939 -24.7422 -24.9124
  681 682.214 170.783 -41.4906
  682 549.351 118.285 4.25135
  683 403.335 -14.1758 3.70882
  684 521.126 19.8344 42.7796
  685 470.869 -49.3421 17.1019
  686 324.139 -7.82217 14.9150
  687 424.036 -45.6409 25.0711
  688 490.808 -2.34023 0.167106
  689 490.759 -2.52148 -0.121101
  690 686.846 151.778 37.0592
  691 271.819 -10.7370 35.8273
  692 39.3344 39.9292 -29.6824
  693 -11.1004 0.341363 9.43489
  694 -9.73660 0.618149 -9.76212
  695 238.290 -9.13394 39.2090
  696 117.684 44.7128 -75.8461
  697 9.53802 -0.398842 -13.3286
  698 452.367 -36.2865 8.08081
  699 314.511 -19.0401 -100.250
  700 355.461 -36.0651 49.4239
  701 439.319 -27.5651 -4.34355
  702 6.27675 -13.4121 -2.91902
  703 522.060 25.0662 -42.8794
  704 469.060 -46.0672 -3.11962
  705 462.866 -37.9707 -13.8400
  706 453.781 13.6444 -42.7534
  707 271.301 -10.7894 -35.8711
  708 46.6904 78.7774 -74.0993
  709 452.205 24.9337 -39.7810
  710 -0.629437 -11.9842 -9.36649
  711 426.730 0.286230 18.5179
  712 237.495 -8.74374 -38.7760
  713 301.441 -17.0752 99.6835
  714 419.034 -14.1486 1.08704
  715 348.204 -7.67761 -8.34547
  716 252.383 -10.2602 90.5827
  717 149.380 1.26413 -62.4472
  718 147.163 0.894395 61.2126
  719 347.106 -7.30651 8.60817
  720 87.6343 1.66411 -25.4199
  721 88.0804 1.81831 25.2771
  722 375.808 -13.8960 9.33545
  723 453.563 -0.705103 -15.6044
  724 525.493 57.8923 192.024
  725 367.275 -6.91105 -4.60860
  726 367.073 -7.09286 4.46919
  727 465.886 -13.6539 -31.1808
  728 356.414 -4.64508 -2.40503
  729 356.326 -4.48522 2.33638
  730 456.502 -5.03600 30.7774
  731 464.515 -48.9695 10.0835
  732 374.954 -9.74136 5.85866
  733 37.9434 -0.987653 -17.1434
  734 38.1921 -1.45094 16.8996
  735 374.317 -8.71818 -5.53843
  736 9.12105 10.0850 -2.62488
  737 497.951 -37.0025 -55.0630
  738 561.791 -7.33308 20.1591
  739 174.820 25.2500 93.2152
  740 290.428 0.00827075 3.01624
  741 290.357 0.0369396 -3.05509
  742 437.922 -44.5867 11.8970
  743 837.494 119.464 -96.1175
  744 403.669 0.924778 -15.0915
  745 397.137 -9.44609 -2.58585
  746 352.824 127.478 221.370
  747 501.377 19.5897 47.4976
  748 454.817 -0.941052 15.0780
  749 508.204 -1.13824 -1.67664
  750 508.690 -1.40143 1.68213
  751 705.349 136.028 -31.0720
  752 503.798 91.0067 12.2431
  753 392.075 -11.5688 -4.31210
  754 497.520 -2.21433 5.42066
  755 316.929 -18.2560 -35.9687
  756 456.722 -5.54353 1.96570
  757 456.525 -5.51975 -1.69310
  758 337.294 -27.9052 89.6874
  759 470.681 -50.2488 -22.7015
  760 467.655 -19.1376 33.3105
  761 316.441 -17.9649 35.6750
  762 489.803 70.5274 -29.5680
  763 406.322 3.05657 15.8672
  764 323.698 -30.0160 -67.4498
  765 394.341 -11.2763 4.02448
  766 464.195 -8.78288 41.5793
  767 294.428 0.434220 -1.01547
  768 294.441 0.440893 0.993973
  769 9.31920 12.9654 1.34362
  770 329.381 -10.9933 18.7309
  771 418.813 -10.6404 0.782323
  772 462.426 -19.9666 -18.5696
  773 214.083 -0.948794 16.1007
  774 214.193 -0.979671 -15.8513
  775 500.867 -15.3517 35.6771
  776 463.387 -10.4433 -39.7028
  777 177.860 -7.24934 -64.8604
  778 178.478 -6.40443 64.4283
  779 486.004 -40.1712 8.26870
  780 463.440 -15.1523 14.6107
  781 703.853 133.708 68.6079
</Section>

newXOutput 27

<Section columns = "stress_xx | stress_yy | stress_xy">
  1 534.844 0.248137 0.646093
  2 535.039 0.179919 -0.619265
  3 305.874 -0.0740315 -0.473769
  4 -3.74689 -4.25828 -5.01082
  5 950.420 396.488 315.873
  6 902.719 359.274 -265.653
  7 -4.95412 -4.25616 5.73340
  8 305.882 -0.0797508 0.466727
  9 536.574 -0.630806 -0.135281
  10 536.859 -1.93945 1.22963
  11 535.183 -1.55709 0.762122
  12 526.663 -1.78228 2.99389
  13 522.589 -1.89640 3.54774
  14 513.013 -2.62519 5.96124
  15 496.811 -1.90219 9.32017
  16 477.686 -0.889781 10.9127
  17 455.334 0.567231 12.8201
  18 422.673 1.78773 10.6393
  19 401.875 4.10738 12.5804
  20 385.863 3.27612 9.47495
  21 365.799 4.16098 2.68528
  22 371.187 6.22027 -3.60890
  23 378.486 3.13712 -6.65088
  24 400.718 2.89835 -10.9781
  25 421.276 1.21386 -11.9543
  26 455.069 0.654956 -13.3691
  27 477.152 -1.42346 -11.7472
  28 498.511 -2.10529 -9.42473
  29 512.885 -1.81113 -6.64478
  30 520.149 -1.85529 -5.49690
  31 527.658 -2.56520 -2.05832
  32 535.204 -1.36418 -0.258179
  33 536.974 -1.68275 -1.07156
  34 536.811 -0.786519 0.216930
  35 518.986 -1.24214 -0.956548
  36 498.269 -2.98438 -1.04465
  37 478.978 -5.40797 -1.41392
  38 456.206 -6.73301 -1.57154
  39 433.141 -7.47187 -1.19568
  40 406.922 -6.88275 -0.357040
  41 381.498 -5.56639 -0.193320
  42 358.586 -4.23308 0.348830
  43 338.293 -1.93986 0.711447
  44 319.062 -0.615255 -0.0155018
  45 300.119 0.853630 0.0657593
  46 298.875 0.732263 1.36911
  47 296.376 0.180313 0.974700
  48 291.331 -0.498828 2.60959
  49 280.879 0.0363151 3.54875
  50 271.454 -0.739822 5.23782
  51 259.827 -0.563502 7.53723
  52 240.028 0.0259844 8.12183
  53 217.187 0.213138 9.41316
  54 194.965 -0.286154 14.7214
  55 152.853 0.992303 13.7338
  56 123.505 1.10925 16.0682
  57 82.9000 1.51930 14.5952
  58 45.5784 0.556633 16.1515
  59 7.90706 4.43531 16.3746
  60 -17.8742 5.27047 8.53205
  61 -27.3860 5.12827 -0.0580378
  62 -23.3928 3.94830 -8.50299
  63 -13.8404 -1.18017 -7.51013
  64 -1.41234 -13.9861 -7.05348
  65 0.932337 -26.6097 -9.32658
  66 3.63745 -41.7942 -5.02015
  67 11.9396 -40.7427 1.78904
  68 20.8134 2.11493 26.0907
  69 60.6528 98.1655 88.1207
  70 255.622 297.060 263.274
  71 1230.37 135.116 192.221
  72 1007.03 42.4223 64.7955
  73 962.172 23.9345 25.8418
  74 948.803 15.4289 -1.53910
  75 959.128 20.1677 -23.1577
  76 1021.53 38.0615 -62.8368
  77 1175.13 111.370 -166.057
  78 205.450 337.713 -251.988
  79 49.9648 60.2026 -68.7133
  80 19.2164 2.54519 -27.1724
  81 5.88829 -40.1032 -4.43661
  82 3.68016 -32.2220 3.48056
  83 4.11343 -33.5771 7.68644
  84 0.384500 -12.6738 8.95601
  85 -14.8614 -0.975227 7.41658
  86 -24.5767 3.81351 8.29490
  87 -28.0021 5.08342 -0.132947
  88 -18.3338 4.94195 -8.41117
  89 7.09704 4.92978 -16.1156
  90 44.9876 0.704687 -16.3765
  91 82.6581 1.42147 -14.8379
  92 123.922 1.09145 -16.1798
  93 153.433 0.962081 -13.8380
  94 195.558 -0.415838 -14.5749
  95 217.457 0.211682 -9.23384
  96 239.997 0.118219 -8.02856
  97 259.864 -0.541340 -7.57940
  98 271.405 -0.746765 -5.22599
  99 280.851 0.0322429 -3.55489
  100 291.230 -0.483553 -2.59593
  101 296.293 0.185074 -0.999291
  102 298.842 0.727975 -1.39219
  103 300.116 0.847547 -0.0789002
  104 319.058 -0.635297 0.00656492
  105 338.284 -1.97839 -0.723368
  106 358.570 -4.29010 -0.337700
  107 381.767 -5.70884 0.257978
  108 407.162 -6.93635 0.278411
  109 432.336 -7.48854 1.12952
  110 455.876 -6.44221 1.41574
  111 479.068 -5.60809 1.42141
  112 498.250 -3.15495 1.03829
  113 518.843 -1.41688 1.02965
  114 462.131 -48.7983 -15.7368
  115 467.218 -48.6324 11.9040
  116 495.510 70.4282 -23.4862
  117 394.483 -33.1056 -97.6364
  118 382.972 -30.7211 99.5899
  119 532.526 50.3893 45.3467
  120 556.947 15.1432 -35.0975
  121 397.461 -17.2993 -11.3133
  122 395.461 -18.2907 11.6625
  123 609.617 133.925 1.49254
  124 470.042 -21.6506 11.6694
  125 473.677 -20.4883 -13.5180
  126 485.782 -10.7896 -44.1907
  127 333.022 -27.4877 53.7922
  128 332.484 -27.7310 -56.4024
  129 487.919 -17.1055 39.5784
  130 658.428 148.096 7.80018
  131 177.248 41.3027 -106.280
  132 171.445 42.0661 104.692
  133 583.546 1.21386 -7.54667
  134 681.366 155.000 -21.8944
  135 455.787 31.2659 25.9497
  136 449.708 -12.5845 1.24144
  137 452.062 -11.7037 -1.53714
  138 579.643 -6.58506 66.6471
  139 333.934 -13.7814 -24.6722
  140 334.036 -13.7246 23.6727
  141 444.496 30.0658 -168.574
  142 775.453 107.376 14.9585
  143 459.708 16.2912 -38.9073
  144 346.399 -4.71476 -7.05087
  145 346.338 -4.69475 7.09235
  146 398.962 -32.8062 25.3937
  147 406.501 -34.3692 -25.1872
  148 240.161 -14.8671 -77.7700
  149 239.230 -11.8986 78.8494
  150 510.332 78.0445 25.5643
  151 504.522 -48.5042 24.8973
  152 508.843 -28.3607 -30.2563
  153 523.229 -30.9789 18.6580
  154 481.529 -32.9714 -20.7141
  155 503.400 23.9237 -50.0618
  156 449.556 38.5598 184.016
  157 34.3136 28.5487 18.4770
  158 30.1548 23.9206 -14.3439
  159 444.666 28.2050 -10.4306
  160 480.624 10.7725 46.8449
  161 493.360 -6.84468 7.38156
  162 489.376 -7.94017 -7.44402
  163 456.830 -34.1509 2.35175
  164 485.059 -11.4542 -25.9258
  165 554.423 91.8895 -33.2734
  166 441.924 -28.7794 1.93867
  167 421.341 -47.8740 52.1458
  168 397.537 -9.37018 -3.48324
  169 398.001 -9.32404 3.59915
  170 487.100 -10.6256 24.1009
  171 424.288 -47.5936 -50.1284
  172 499.275 -46.7528 -37.5301
  173 564.846 100.402 29.3660
  174 443.463 -23.6709 0.304036
  175 661.981 79.7958 -52.7993
  176 120.820 7.96450 -60.8846
  177 117.515 7.37535 59.3779
  178 815.281 155.925 82.8084
  179 689.978 128.254 27.7844
  180 840.738 97.4704 -53.2252
  181 483.870 -6.49031 2.50570
  182 483.320 -6.36214 -2.54668
  183 297.163 -9.26452 -30.4720
  184 297.195 -9.38378 30.5701
  185 240.239 -8.74952 -47.8121
  186 241.917 -8.80532 48.6086
  187 144.377 104.183 -133.137
  188 466.990 -2.53101 36.1243
  189 491.140 -36.1199 21.1518
  190 323.542 -4.02413 -11.0301
  191 322.983 -4.25663 11.1316
  192 72.8361 73.3047 77.9092
  193 458.171 0.799467 -34.9242
  194 482.676 -25.2581 25.6505
  195 440.313 7.22102 30.8659
  196 495.968 -29.9694 -91.1817
  197 495.587 -8.02255 -14.3367
  198 450.594 -39.7784 6.18740
  199 541.125 108.250 -15.4571
  200 503.954 -15.3963 42.6982
  201 340.518 -31.5084 -79.2698
  202 252.640 -1.06047 -104.184
  203 246.985 0.545741 104.255
  204 488.308 41.3056 39.0242
  205 355.691 0.823639 136.688
  206 473.577 53.3837 7.54940
  207 601.211 69.4585 -22.7094
  208 496.857 -7.86400 12.7496
  209 340.634 -31.0321 79.7628
  210 430.451 -18.7505 2.71518
  211 805.187 202.825 -103.123
  212 601.053 79.1807 25.3193
  213 353.205 -25.0976 -34.9659
  214 351.425 -23.4951 34.5093
  215 54.6659 18.0912 -33.2279
  216 62.3226 18.4263 37.9453
  217 399.147 -40.4848 39.8406
  218 422.017 -15.3411 -3.99414
  219 425.461 -8.76965 -0.827238
  220 429.867 -8.76432 0.688310
  221 400.129 -39.2042 -40.0443
  222 419.848 -28.3097 -10.7984
  223 494.839 -43.0086 67.5184
  224 601.315 131.006 -8.08494
  225 696.248 137.657 -12.7421
  226 556.625 16.2307 33.0960
  227 464.597 -15.6508 6.88695
  228 344.825 3.81483 -139.022
  229 381.818 -23.5779 20.7776
  230 460.266 -17.9220 -5.48838
  231 555.586 -24.4270 10.7332
  232 478.284 38.0940 -37.7087
  233 530.142 -27.6274 -18.1850
  234 415.910 16.3507 7.46323
  235 358.069 -11.9079 -15.6260
  236 524.164 1.32398 -44.1250
  237 298.159 -4.32150 -15.6229
  238 297.877 -4.23747 15.1718
  239 321.325 -0.482966 -2.07628
  240 321.335 -0.459958 2.04847
  241 481.245 5.36712 -47.9461
  242 355.306 -11.8087 16.4555
  243 378.971 -22.9967 -22.0244
  244 174.091 128.276 172.736
  245 29.4720 36.7405 -25.7968
  246 886.476 67.1419 19.5153
  247 415.330 7.51928 -16.5926
  248 465.804 -31.5507 -9.05959
  249 475.203 107.846 -232.012
  250 488.182 -39.8816 -15.2721
  251 251.226 -7.87695 -31.5996
  252 251.555 -8.12835 31.8523
  253 484.865 -20.0852 -32.8247
  254 500.808 -7.04226 -46.8380
  255 366.232 -5.44300 -3.21436
  256 366.230 -5.47612 3.12241
  257 511.285 -3.31463 -2.82715
  258 511.725 -2.75113 2.80121
  259 474.668 -4.22307 -26.1536
  260 665.559 77.8673 143.699
  261 442.438 -42.4861 -13.0209
  262 376.170 -10.4584 -8.50243
  263 374.444 -10.6470 8.87556
  264 0.0314232 -0.553677 -9.77807
  265 -1.73944 1.06596 10.2799
  266 136.940 -3.62143 -48.9419
  267 136.138 -3.08079 48.6173
  268 314.743 -2.02620 4.82998
  269 314.704 -2.04845 -4.89308
  270 474.622 -5.31665 24.7845
  271 548.952 113.516 10.8701
  272 498.317 -46.4090 -1.17096
  273 511.432 60.5876 -41.6932
  274 493.542 -25.8841 -34.9167
  275 536.987 -31.2286 1.83250
  276 192.890 -4.23342 45.4852
  277 191.505 -4.50338 -44.8104
  278 496.030 -47.1040 -9.46894
  279 432.115 -48.8999 64.7772
  280 458.141 -7.35220 0.509829
  281 458.610 -7.05313 -0.469965
  282 510.212 -2.46597 -1.38460
  283 510.287 -2.79265 1.46830
  284 236.251 64.9407 155.101
  285 531.783 42.7375 -47.3600
  286 475.767 -40.3962 7.94352
  287 604.475 124.915 13.3724
  288 438.337 4.50363 -28.4797
  289 423.539 -12.6510 2.37419
  290 582.679 93.2263 -30.4995
  291 474.371 -7.93408 127.715
  292 510.467 90.3121 0.225351
  293 431.723 -46.4759 -67.5939
  294 459.750 -52.3004 30.0390
  295 438.570 -43.1808 17.4305
  296 677.140 138.046 12.1547
  297 415.834 -28.1413 13.6109
  298 507.986 -3.85124 -7.03319
  299 479.010 -24.4680 -21.1494
  300 804.619 225.618 101.498
  301 526.687 0.453916 42.4542
  302 499.168 -3.69675 -12.0558
  303 522.307 70.6163 37.5500
  304 560.416 -0.720570 -101.022
  305 501.861 14.6978 50.0704
  306 17.2165 19.8479 10.2583
  307 301.528 -22.3874 64.6732
  308 476.284 -8.68319 3.98934
  309 474.688 -9.66319 -4.39144
  310 473.178 49.4748 -22.0875
  311 290.232 -19.3179 -62.4888
  312 309.259 -24.6148 -89.1448
  313 486.451 -11.3620 10.7962
  314 459.943 -26.5411 6.97571
  315 479.706 -2.40354 45.8540
  316 696.765 140.888 -164.692
  317 483.873 -16.9951 30.9584
  318 481.833 -12.8482 -10.9702
  319 507.582 -3.36821 7.03188
  320 303.220 -3.07736 10.5464
  321 303.468 -3.41080 -10.7005
  322 85.0736 52.0310 -67.7701
  323 410.257 12.6683 -6.18174
  324 485.869 -14.8521 20.4208
  325 657.459 119.394 -4.16016
  326 486.861 60.8912 26.1613
  327 261.978 50.1910 -155.286
  328 302.339 -18.6908 89.7441
  329 455.305 27.1738 -28.8945
  330 497.692 -4.36331 13.1208
  331 481.785 -12.9466 -36.6491
  332 12.6576 8.17822 -2.07623
  333 92.6298 44.9047 62.7034
  334 362.978 -38.2250 64.0552
  335 -2.29143 9.07030 2.05329
  336 -1.29927 9.88224 -1.72175
  337 513.126 212.031 252.443
  338 480.034 -11.3375 36.8936
  339 979.935 105.047 -123.546
  340 471.078 27.7241 39.9236
  341 560.474 58.0560 37.2807
  342 404.491 -13.0238 6.12312
  343 417.564 7.57653 17.7965
  344 370.618 -40.7807 -60.7242
  345 463.206 -22.4686 -8.14508
  346 422.423 -23.2212 6.93069
  347 485.648 -13.9208 -21.0933
  348 468.432 -51.6578 -40.2651
  349 546.328 -29.7938 -23.5704
  350 447.613 34.0005 8.01849
  351 495.609 -42.4793 12.7532
  352 624.577 46.5785 10.2070
  353 280.944 -13.7972 46.7786
  354 446.249 -17.1596 1.61762
  355 432.627 -47.5823 -34.6159
  356 712.151 173.466 39.0733
  357 529.458 88.2054 -30.4188
  358 345.137 -7.09852 11.7204
  359 345.774 -7.68664 -11.9357
  360 278.998 -13.3380 -47.4942
  361 173.213 158.182 -178.732
  362 409.772 -7.77045 -2.04382
  363 410.982 -8.19566 1.73195
  364 265.657 -2.68255 -16.3744
  365 265.601 -2.73761 16.5488
  366 915.188 35.2395 -18.1800
  367 926.949 63.4838 58.1521
  368 436.600 -35.0478 -9.25865
  369 579.900 20.5910 133.252
  370 214.466 -1.15035 83.3711
  371 214.670 -2.56107 -83.7439
  372 435.069 -27.7051 103.913
  373 442.894 3.59584 29.2700
  374 463.284 5.26718 41.0804
  375 424.230 -48.8955 40.5945
  376 127.058 25.8937 -72.7435
  377 125.678 20.9247 69.9867
  378 60.7056 4.24065 -30.5346
  379 61.0167 3.58497 30.8299
  380 462.587 -41.6343 -78.1250
  381 345.745 -2.84243 -2.97807
  382 345.750 -2.80207 2.96565
  383 684.105 130.458 -1.12887
  384 420.806 -22.5509 -7.10391
  385 442.208 -11.0153 -130.458
  386 471.341 -43.3780 -1.48953
  387 646.692 118.702 -1.11043
  388 567.930 49.4994 -37.3272
  389 487.419 -27.4378 30.5906
  390 323.093 -7.81459 -18.0989
  391 322.133 -7.01841 17.1946
  392 423.247 -10.8952 -2.12674
  393 397.155 -13.2965 -7.87237
  394 311.162 -18.2339 42.7919
  395 310.758 -18.1896 -43.5594
  396 39.6029 61.1033 -50.0475
  397 484.665 22.6254 -46.4554
  398 374.647 -25.7183 27.6810
  399 593.541 44.4563 -142.768
  400 472.437 -31.2362 13.6652
  401 64.9048 82.4803 83.1028
  402 475.902 -4.23758 -43.4830
  403 307.219 -1.82810 6.25066
  404 307.113 -1.74168 -6.27765
  405 490.322 -4.34516 1.06371
  406 490.155 -4.11064 -0.928542
  407 506.150 -31.4182 27.1168
  408 240.759 -13.5636 -63.7075
  409 509.433 -2.74794 -7.70161
  410 244.351 -14.0246 64.1890
  411 584.803 12.8114 -7.78038
  412 495.712 -23.9290 36.8440
  413 438.933 -28.8427 -3.14797
  414 772.068 167.934 -67.8150
  415 483.470 -18.4071 25.1994
  416 770.285 141.416 46.8749
  417 581.001 122.660 12.5691
  418 226.432 -4.71485 -28.7222
  419 226.596 -4.52143 29.2099
  420 92.2618 -0.842574 -35.0215
  421 91.0833 -0.798467 34.3256
  422 485.782 -4.19040 -18.4429
  423 972.504 137.048 125.239
  424 257.718 17.2585 123.255
  425 323.714 -14.8831 -29.6082
  426 323.266 -14.8550 29.8895
  427 353.876 -29.8353 44.0906
  428 291.087 87.7369 -201.880
  429 576.485 125.169 -6.97850
  430 355.492 -29.4338 -44.6866
  431 519.598 -2.12746 -2.93003
  432 539.685 97.5950 26.4541
  433 560.903 111.515 -20.5511
  434 380.229 -27.3220 -27.8715
  435 711.450 167.252 -37.0427
  436 388.530 -41.1044 81.8545
  437 607.778 11.1000 -33.1114
  438 410.695 -28.1441 -112.631
  439 460.018 6.47010 -40.3563
  440 428.629 -42.9001 -24.4926
  441 840.328 78.8157 -15.1292
  442 829.083 98.8054 50.3392
  443 480.856 -34.0365 18.6677
  444 1.50771 7.85696 -7.91076
  445 2.71386 8.40308 7.87995
  446 626.299 126.372 9.05374
  447 464.312 -1.95086 22.9036
  448 421.763 -36.1429 17.3497
  449 333.794 -12.8901 117.737
  450 2.15182 -9.70933 -8.12838
  451 368.791 -33.8332 -86.5917
  452 469.024 -37.0551 -8.26545
  453 464.510 -8.61855 2.60486
  454 464.424 -8.21673 -1.96432
  455 199.523 18.6068 -103.030
  456 485.548 -3.45775 17.4229
  457 69.3811 32.0266 -43.6489
  458 23.2182 26.0291 25.1194
  459 189.001 -1.37966 -26.1940
  460 188.426 -1.09903 26.2622
  461 1034.23 242.070 -192.072
  462 460.637 -1.31276 -23.7486
  463 472.824 -13.3147 -7.38155
  464 459.613 -20.0272 5.97154
  465 445.706 18.1129 30.1677
  466 494.827 -1.67481 48.6090
  467 439.574 -7.92441 -0.00790684
  468 441.263 -7.79421 -0.250887
  469 172.626 12.2064 82.5061
  470 371.263 -12.1574 12.2109
  471 579.561 30.3709 23.6224
  472 544.697 -31.6856 44.1067
  473 633.254 135.260 -0.175875
  474 520.622 -1.56427 2.91861
  475 446.290 -22.7436 -1.12781
  476 388.241 -6.56338 -2.12007
  477 388.021 -6.34762 1.97559
  478 140.889 64.6709 106.520
  479 448.031 -16.6046 -1.57377
  480 63.3980 33.8726 39.4593
  481 140.309 66.5204 -105.165
  482 488.520 69.4682 -7.18138
  483 400.095 -22.5417 -14.0579
  484 366.298 -7.40707 -6.63124
  485 366.567 -7.18739 6.74087
  486 512.039 -44.1880 -7.05216
  487 510.269 -3.32333 7.64820
  488 654.614 49.6933 64.0197
  489 503.199 60.5619 36.7787
  490 405.584 -31.0210 -19.2291
  491 496.707 78.4458 10.2808
  492 6.92272 -14.1312 -2.99997
  493 144.178 160.570 171.715
  494 508.103 41.8510 45.7755
  495 373.660 -12.1921 -11.2847
  496 440.403 0.834511 -20.1582
  497 350.715 28.5227 159.637
  498 453.369 -34.3389 -0.785640
  499 522.849 -43.2071 32.4731
  500 490.960 -9.44279 -11.3516
  501 769.035 117.548 -18.5862
  502 135.876 -0.210999 -31.0225
  503 136.084 0.0294574 31.5260
  504 493.917 -5.04460 -4.35589
  505 492.156 -5.47222 4.48843
  506 285.544 -19.3250 78.1963
  507 354.191 -14.9546 -20.5260
  508 334.899 -9.70768 -117.847
  509 294.424 -23.0643 -75.2068
  510 276.074 -2.12938 -11.2956
  511 275.965 -2.20137 11.2105
  512 480.338 -45.0372 3.53561
  513 360.122 -17.4645 22.4892
  514 509.619 5.80838 -49.0620
  515 377.497 -18.1046 16.8819
  516 398.731 -41.6335 49.9293
  517 612.453 48.5628 1.51530
  518 243.883 -0.849407 -16.2692
  519 243.946 -0.914826 16.4928
  520 613.878 129.543 -11.0308
  521 538.233 -4.75470 -33.7760
  522 538.373 -8.85406 29.5354
  523 487.314 -26.7738 -30.4570
  524 382.675 -32.5227 34.5483
  525 945.571 54.6060 -61.9729
  526 532.137 -36.2472 4.15116
  527 409.600 4.32919 -16.1038
  528 411.166 -16.8807 6.39896
  529 493.814 57.3714 -34.2019
  530 800.992 239.628 161.579
  531 477.791 -11.2638 7.57648
  532 442.553 -9.80264 -0.174764
  533 446.813 -8.82575 -0.379891
  534 499.874 -39.4505 -16.2713
  535 398.135 -23.2726 14.7920
  536 308.925 0.114276 -2.82441
  537 308.957 0.122781 2.78603
  538 400.562 -43.0713 -48.5441
  539 515.543 88.5521 -16.7406
  540 482.585 -14.6264 -14.8254
  541 415.433 3.64702 18.8634
  542 483.278 -18.8852 -26.2866
  543 311.804 0.0747479 -0.627542
  544 311.805 0.0856793 0.614017
  545 556.644 -22.6923 -50.1277
  546 387.283 -34.6319 -35.1154
  547 554.696 -8.54948 -18.0481
  548 511.404 -32.1214 82.5221
  549 495.112 -8.08037 10.1662
  550 522.500 -1.83690 1.51166
  551 522.421 -1.67468 -1.31210
  552 469.086 -51.2487 -25.6216
  553 482.203 -49.4533 52.5500
  554 285.066 -1.44838 -7.40671
  555 284.919 -1.43876 7.34793
  556 439.143 -43.6044 78.8711
  557 496.864 40.0858 -44.3413
  558 382.402 -40.1119 -70.5830
  559 490.670 27.8905 47.9850
  560 468.549 -52.0691 42.0381
  561 387.328 4.58818 6.85518
  562 417.815 -10.6516 2.50774
  563 511.886 -12.7169 -41.8100
  564 638.986 136.038 -0.669449
  565 522.156 -19.7019 -32.7004
  566 399.203 -29.0613 20.9578
  567 328.135 -3.67310 8.29343
  568 328.188 -3.72615 -8.40898
  569 463.745 -12.9034 3.39527
  570 376.896 -17.4013 -16.4737
  571 480.770 -8.38985 29.2879
  572 513.512 -36.0771 -17.2959
  573 436.480 -13.0798 -0.842437
  574 780.458 238.282 -113.673
  575 439.730 10.5547 -28.7336
  576 657.645 141.799 -7.95766
  577 391.482 3.82986 -10.7351
  578 473.361 -16.7936 9.80790
  579 141.244 90.6774 134.874
  580 466.694 44.1596 20.9374
  581 258.875 19.6142 -125.086
  582 512.706 -43.3255 0.754755
  583 474.301 -5.46778 -35.5403
  584 531.170 65.4117 -42.6253
  585 -3.92110 -4.61953 -8.45606
  586 -4.98725 -4.08484 8.54583
  587 331.775 -2.45133 -4.84669
  588 331.777 -2.41507 4.80576
  589 497.599 -32.5616 -27.5303
  590 501.702 -21.4893 -38.5683
  591 50.1553 46.7302 43.1873
  592 472.981 40.9908 31.8133
  593 428.633 -20.0432 -3.17780
  594 424.114 -7.54006 0.169939
  595 423.070 -7.46394 -0.526558
  596 436.596 20.1881 19.9883
  597 938.414 21.7778 13.4867
  598 355.237 -20.2819 -27.7838
  599 383.501 5.58978 1.57234
  600 494.880 8.23149 -50.1732
  601 388.183 -44.3210 71.8934
  602 13.9777 5.19635 17.2421
  603 12.5121 4.31889 -16.2509
  604 520.709 23.3964 -49.1025
  605 463.028 48.3559 -5.65877
  606 488.415 -34.1737 -24.4838
  607 293.562 -6.07877 -22.1749
  608 293.047 -6.53737 22.1710
  609 500.859 -3.17459 2.40040
  610 500.675 -3.17949 -2.53042
  611 489.910 -4.80315 -47.8472
  612 477.509 -22.5123 18.2838
  613 349.298 -19.3982 29.1071
  614 30.9558 22.6850 -17.7866
  615 479.600 288.063 -287.550
  616 491.544 -8.96939 18.4593
  617 489.900 -8.42648 -19.8329
  618 386.992 19.1965 -159.017
  619 461.957 -13.6146 -4.35689
  620 415.827 -39.0107 26.6609
  621 538.767 109.542 -0.483741
  622 189.010 -7.52540 -58.2716
  623 190.640 -7.49008 58.7446
  624 586.254 98.5647 26.7330
  625 474.946 -30.7820 -16.6376
  626 428.475 23.7250 0.00177996
  627 461.514 -44.1856 -6.38471
  628 266.552 -6.98300 27.4010
  629 266.386 -6.93368 -27.0629
  630 341.092 -8.48406 -15.5258
  631 327.260 -0.929866 -2.12656
  632 327.266 -0.902405 2.11216
  633 471.765 -17.6434 -9.80406
  634 525.009 -0.938616 -0.759220
  635 524.860 -1.06087 0.982082
  636 616.863 117.059 -16.7318
  637 294.427 90.8180 189.292
  638 563.357 -6.96395 13.0753
  639 252.659 40.5649 138.444
  640 113.704 31.8278 68.2602
  641 575.346 26.0359 -27.9029
  642 485.683 -45.8276 -2.44685
  643 350.973 -4.62009 -5.37090
  644 351.075 -4.55255 5.38592
  645 470.079 -5.26779 -0.460438
  646 470.444 -5.38945 0.549375
  647 371.266 -37.6341 -52.2158
  648 174.254 8.62237 -83.4170
  649 291.013 -1.46368 4.70336
  650 290.929 -1.54291 -4.63102
  651 1072.11 292.994 219.783
  652 550.536 62.7131 -42.6884
  653 493.244 -15.8550 -42.9040
  654 487.512 -17.8614 -38.8552
  655 515.275 42.4358 -48.1428
  656 315.376 -7.99526 -22.6103
  657 314.240 -8.50922 22.0962
  658 458.062 -39.9219 -1.44580
  659 3.61656 -12.5303 9.06908
  660 512.638 -0.903476 46.9810
  661 33.8100 21.3875 18.4694
  662 459.954 13.0410 39.0404
  663 77.7723 73.5429 -72.5658
  664 432.437 18.2156 -20.5070
  665 504.882 -3.80186 5.39433
  666 424.419 -37.7190 -18.5277
  667 480.519 -8.89015 -30.7114
  668 153.648 -0.935532 22.7069
  669 154.206 -0.791128 -22.7962
  670 581.323 114.793 -21.7236
  671 267.572 -13.7002 -95.5982
  672 470.975 -25.8455 -13.4272
  673 413.709 -17.3339 -6.98453
  674 504.130 -4.57855 -5.15867
  675 541.980 77.2921 37.5855
  676 94.1538 18.3776 -51.5516
  677 91.7715 12.2363 51.1096
  678 490.945 -12.0731 44.8925
  679 433.804 -32.6277 8.13661
  680 482.481 -25.6891 -25.5681
  681 707.437 177.194 -43.4291
  682 570.154 122.675 4.36066
  683 418.749 -14.7082 3.95410
  684 540.689 20.5818 43.9898
  685 488.518 -51.2073 18.0487
  686 336.895 -8.09885 15.5297
  687 440.086 -47.3592 26.2371
  688 509.024 -2.45781 0.181756
  689 508.974 -2.64483 -0.134357
  690 712.286 157.379 38.6775
  691 282.629 -11.1301 37.2321
  692 41.0022 41.5651 -31.0404
  693 -11.4961 0.365835 9.77328
  694 -10.0770 0.656727 -10.1142
  695 247.862 -9.47662 40.7409
  696 122.438 46.4374 -78.9861
  697 9.95694 -0.0664148 -14.0168
  698 469.440 -37.6597 8.11878
  699 326.564 -19.8054 -104.206
  700 369.116 -37.4242 51.4270
  701 455.943 -28.6081 -4.29503
  702 6.54109 -13.7439 -2.92758
  703 541.668 26.0140 -44.0914
  704 486.679 -47.8110 -3.54555
  705 480.308 -39.4103 -14.0646
  706 471.136 14.1760 -44.1328
  707 282.092 -11.1850 -37.2773
  708 48.5549 82.3540 -77.2179
  709 469.530 25.8966 -41.0715
  710 -0.637246 -12.4174 -9.70305
  711 443.212 0.301321 19.1159
  712 247.040 -9.07026 -40.2913
  713 313.031 -17.7646 103.625
  714 434.971 -14.6876 1.23853
  715 361.793 -7.94997 -8.71463
  716 262.232 -10.6912 94.1725
  717 155.469 1.28819 -64.9590
  718 153.167 0.905196 63.6807
  719 360.658 -7.56565 8.98660
  720 91.4942 1.72455 -26.4453
  721 91.9555 1.88484 26.2975
  722 390.304 -14.4057 9.77277
  723 470.864 -0.736932 -16.0917
  724 544.548 60.3871 199.411
  725 381.507 -7.16092 -4.82486
  726 381.299 -7.34939 4.68048
  727 483.504 -14.1818 -32.1001
  728 370.297 -4.80894 -2.50666
  729 370.206 -4.64338 2.43550
  730 473.875 -5.23364 31.7350
  731 481.958 -50.8211 10.7574
  732 389.431 -10.0984 6.14633
  733 39.8148 -1.02875 -17.8602
  734 40.0710 -1.50979 17.6070
  735 388.774 -9.03696 -5.81149
  736 9.55575 10.5523 -2.60579
  737 516.442 -38.3752 -57.4534
  738 582.539 -7.53155 21.3543
  739 181.742 26.1813 96.9679
  740 302.138 0.0144130 3.14146
  741 302.064 0.0441376 -3.18160
  742 454.469 -46.2656 12.5923
  743 867.726 123.815 -99.6060
  744 419.430 0.967306 -15.5872
  745 412.352 -9.80280 -2.74116
  746 365.785 132.490 229.816
  747 520.292 20.3237 48.9231
  748 472.155 -0.981513 15.5467
  749 526.975 -1.19363 -1.71065
  750 527.474 -1.46488 1.71670
  751 731.398 141.021 -32.3813
  752 522.988 94.4289 12.6141
  753 407.119 -11.9993 -4.55075
  754 516.042 -2.31230 5.56029
  755 329.321 -18.9269 -37.4036
  756 473.879 -5.78429 1.98908
  757 473.676 -5.76024 -1.70789
  758 350.183 -28.9939 93.2421
  759 488.311 -52.1502 -23.8625
  760 485.328 -19.8726 34.2771
  761 328.819 -18.6255 37.0982
  762 508.463 73.1945 -30.4872
  763 422.168 3.17416 16.3899
  764 336.194 -31.1620 -70.1275
  765 409.461 -11.6971 4.25536
  766 481.813 -9.12163 42.8647
  767 306.311 0.452899 -1.06055
  768 306.325 0.459808 1.03834
  769 9.76351 13.5411 1.27326
  770 342.291 -11.3888 19.4995
  771 434.742 -11.0516 0.895085
  772 479.860 -20.7344 -19.0350
  773 222.866 -0.977690 16.7267
  774 222.980 -1.00955 -16.4683
  775 519.673 -15.9424 36.6415
  776 480.976 -10.8442 -40.9249
  777 185.033 -7.55031 -67.4470
  778 185.675 -6.67274 67.0008
  779 504.223 -41.6934 8.23526
  780 480.891 -15.7438 14.9642
  781 729.367 139.075 71.8272
</Section>

newXOutput 28

<Section columns = "stress_xx | stress_yy | stress_xy">
  1 553.691 0.236791 0.664205
  2 553.890 0.166713 -0.636874
  3 317.761 -0.0707440 -0.485728
  4 -3.88863 -4.41860 -5.20240
  5 981.362 411.134 326.672
  6 932.596 372.672 -274.882
  7 -5.14036 -4.41594 5.95301
  8 317.769 -0.0766615 0.478471
  9 555.475 -0.666330 -0.146969
  10 555.785 -2.01517 1.25594
  11 554.085 -1.61939 0.769318
  12 545.364 -1.85904 3.05982
  13 541.215 -1.96835 3.63364
  14 531.398 -2.72558 6.11692
  15 514.775 -1.97990 9.58570
  16 495.126 -0.928994 11.2345
  17 472.133 0.582991 13.2089
  18 438.509 1.85202 10.9715
  19 417.079 4.25602 12.9800
  20 400.566 3.41247 9.77667
  21 379.881 4.31936 2.77222
  22 385.438 6.46511 -3.72682
  23 392.967 3.26357 -6.86488
  24 415.886 3.00905 -11.3249
  25 437.071 1.25878 -12.3259
  26 471.857 0.675147 -13.7765
  27 494.577 -1.48136 -12.0945
  28 516.518 -2.18833 -9.69169
  29 531.269 -1.88683 -6.82355
  30 538.706 -1.93495 -5.63951
  31 546.380 -2.66644 -2.09621
  32 554.106 -1.42150 -0.249634
  33 555.901 -1.75183 -1.09341
  34 555.717 -0.827466 0.230452
  35 537.387 -1.31221 -0.984691
  36 516.069 -3.12445 -1.07224
  37 496.203 -5.63571 -1.44874
  38 472.737 -7.00185 -1.60549
  39 448.958 -7.75575 -1.22098
  40 421.920 -7.13498 -0.351426
  41 395.700 -5.76035 -0.188337
  42 372.074 -4.37416 0.370426
  43 351.157 -1.99711 0.741074
  44 331.342 -0.628106 -0.0120958
  45 311.828 0.883774 0.0737741
  46 310.531 0.758975 1.42243
  47 307.922 0.189020 1.02024
  48 302.683 -0.512102 2.71562
  49 291.857 0.0410080 3.68431
  50 282.073 -0.763129 5.43381
  51 270.008 -0.580018 7.81768
  52 249.492 0.0305364 8.42777
  53 225.823 0.223498 9.76725
  54 202.769 -0.291255 15.2735
  55 159.125 1.02869 14.2544
  56 128.674 1.14881 16.6755
  57 86.5207 1.57179 15.1650
  58 47.7384 0.570983 16.7979
  59 8.56634 4.59751 17.0439
  60 -18.2884 5.46579 8.90448
  61 -28.2685 5.32468 -0.0103536
  62 -24.2235 4.10867 -8.79133
  63 -14.3497 -1.21423 -7.78249
  64 -1.45548 -14.5026 -7.31002
  65 0.980558 -27.5650 -9.64806
  66 3.78935 -43.2023 -5.14557
  67 12.4126 -41.9567 1.97898
  68 21.6462 2.75531 27.2660
  69 62.9370 102.777 91.6263
  70 264.284 309.004 272.619
  71 1270.50 139.747 198.231
  72 1040.97 43.8499 66.8818
  73 994.751 24.7637 26.6571
  74 980.983 15.9723 -1.58898
  75 991.643 20.8720 -23.9179
  76 1055.91 39.3770 -64.8718
  77 1213.89 115.211 -171.309
  78 212.407 351.126 -260.924
  79 51.8776 63.4325 -71.5839
  80 19.9860 3.25482 -28.4015
  81 6.12260 -41.2649 -4.71788
  82 3.83912 -33.2794 3.53226
  83 4.28410 -34.7884 7.94351
  84 0.404486 -13.1364 9.28452
  85 -15.4102 -1.00157 7.68505
  86 -25.4531 3.96842 8.57631
  87 -28.9070 5.27852 -0.187952
  88 -18.7630 5.12485 -8.77914
  89 7.72903 5.11035 -16.7753
  90 47.1281 0.724392 -17.0311
  91 86.2719 1.47024 -15.4165
  92 129.108 1.13024 -16.7910
  93 159.727 0.997249 -14.3619
  94 203.383 -0.425570 -15.1214
  95 226.103 0.222067 -9.58176
  96 249.461 0.125914 -8.33145
  97 270.047 -0.557112 -7.86103
  98 282.023 -0.770190 -5.42144
  99 291.827 0.0368702 -3.69056
  100 302.578 -0.496309 -2.70149
  101 307.836 0.193957 -1.04560
  102 310.497 0.754551 -1.44624
  103 311.825 0.877488 -0.0873243
  104 331.338 -0.648825 0.00288429
  105 351.148 -2.03692 -0.753359
  106 372.058 -4.43307 -0.358948
  107 395.978 -5.90757 0.254790
  108 422.167 -7.19035 0.269994
  109 448.128 -7.77293 1.15220
  110 472.397 -6.70085 1.44447
  111 496.296 -5.84232 1.45668
  112 516.049 -3.30025 1.06574
  113 537.241 -1.49248 1.05996
  114 478.843 -50.5664 -16.5751
  115 484.102 -50.3935 12.6132
  116 513.683 72.9934 -24.1957
  117 408.788 -34.3354 -101.373
  118 396.890 -31.8674 103.392
  119 551.808 52.2117 46.6243
  120 576.910 15.7043 -35.9141
  121 412.133 -17.9104 -11.8331
  122 410.068 -18.9366 12.1960
  123 631.641 138.652 1.50537
  124 487.061 -22.4468 11.8756
  125 490.815 -21.2448 -13.7862
  126 503.448 -11.1903 -45.4765
  127 345.437 -28.4793 55.8489
  128 344.872 -28.7350 -58.5566
  129 505.626 -17.7358 40.6965
  130 681.952 153.403 8.45584
  131 183.972 42.7955 -110.398
  132 177.950 43.5946 108.758
  133 604.242 1.32092 -8.27960
  134 705.642 160.540 -23.0274
  135 472.646 32.4405 26.7602
  136 466.048 -13.0560 1.17870
  137 468.476 -12.1441 -1.48535
  138 600.060 -6.69680 69.4448
  139 346.519 -14.2609 -25.6332
  140 346.629 -14.2021 24.5987
  141 460.230 31.2560 -174.868
  142 802.691 111.107 15.5093
  143 476.657 16.9060 -40.1162
  144 359.484 -4.87015 -7.34581
  145 359.421 -4.84942 7.38870
  146 413.631 -33.9764 26.4704
  147 421.411 -35.5976 -26.2661
  148 249.272 -15.4376 -80.7332
  149 248.310 -12.3623 81.8531
  150 528.997 80.8745 26.3167
  151 522.590 -50.2592 26.1257
  152 527.181 -29.3991 -30.9783
  153 542.006 -32.1047 18.9408
  154 498.947 -34.1745 -21.1609
  155 521.712 24.7931 -51.5455
  156 465.458 40.1050 190.853
  157 35.7454 29.6702 19.3493
  158 31.4415 24.8603 -15.0445
  159 461.183 29.2771 -10.7588
  160 498.201 11.1715 48.2636
  161 511.074 -7.12096 7.52746
  162 506.965 -8.25577 -7.58804
  163 473.412 -35.3867 2.19712
  164 502.640 -11.8841 -26.6406
  165 574.513 95.2012 -34.1504
  166 458.019 -29.8156 2.20602
  167 436.647 -49.6146 54.2441
  168 412.236 -9.70225 -3.66235
  169 412.714 -9.65611 3.78262
  170 504.734 -11.0274 24.7599
  171 439.695 -49.3242 -52.1559
  172 517.146 -48.4430 -39.2078
  173 585.286 104.010 30.1013
  174 459.611 -24.5259 0.138603
  175 685.173 82.9057 -55.2478
  176 125.622 8.23423 -63.2751
  177 122.194 7.62465 61.7154
  178 843.746 161.407 85.8154
  179 714.264 133.046 29.3917
  180 869.909 100.869 -55.0965
  181 501.257 -6.75643 2.52765
  182 500.690 -6.62436 -2.57065
  183 308.486 -9.58536 -31.6262
  184 308.519 -9.70880 31.7278
  185 249.505 -9.06685 -49.6091
  186 251.240 -9.12502 50.4358
  187 149.787 108.182 -138.284
  188 484.110 -2.62067 37.2144
  189 508.874 -37.4382 21.5847
  190 335.869 -4.15467 -11.4703
  191 335.294 -4.39502 11.5741
  192 75.6864 76.2060 81.0776
  193 475.042 0.834001 -35.9924
  194 500.148 -26.1855 26.2909
  195 456.665 7.51274 31.8335
  196 513.608 -31.0234 -94.7598
  197 513.428 -8.33657 -14.6983
  198 466.956 -41.2129 6.65119
  199 560.851 112.128 -15.8826
  200 522.182 -15.9659 43.8788
  201 353.082 -32.6748 -82.3002
  202 262.084 -1.14783 -108.158
  203 256.234 0.519178 108.235
  204 506.195 42.8211 40.2058
  205 368.584 0.836236 141.847
  206 491.032 55.3575 7.78329
  207 622.676 72.0132 -23.0290
  208 514.728 -8.17279 13.0639
  209 353.202 -32.1815 82.8060
  210 446.182 -19.4277 2.95140
  211 833.314 210.035 -106.968
  212 622.546 82.0833 25.7516
  213 366.367 -25.9884 -36.3357
  214 364.531 -24.3291 35.8585
  215 56.9685 18.7612 -34.6121
  216 64.9033 19.1062 39.5099
  217 413.775 -41.9429 41.4534
  218 437.482 -15.8934 -4.24722
  219 441.038 -9.09496 -0.909890
  220 445.582 -9.09170 0.767671
  221 414.785 -40.6154 -41.6648
  222 435.223 -29.3201 -11.3571
  223 512.504 -44.5510 70.2503
  224 623.040 135.660 -8.17083
  225 721.056 142.487 -13.3300
  226 576.580 16.8319 33.8504
  227 481.421 -16.2341 6.97060
  228 357.340 3.93082 -144.263
  229 395.959 -24.4093 21.6452
  230 476.952 -18.5835 -5.51768
  231 575.351 -25.2729 11.5387
  232 495.846 39.5003 -38.8662
  233 549.144 -28.6283 -18.4422
  234 431.530 16.9887 7.70066
  235 371.480 -12.3205 -16.2632
  236 543.072 1.36564 -45.3241
  237 309.614 -4.46467 -16.2202
  238 309.323 -4.37803 15.7537
  239 333.662 -0.490240 -2.16408
  240 333.672 -0.466444 2.13540
  241 498.827 5.56893 -49.3963
  242 368.626 -12.2170 17.1220
  243 393.018 -23.8069 -22.9354
  244 180.548 133.171 179.311
  245 30.6800 38.3239 -26.9824
  246 916.942 69.4683 20.1729
  247 430.927 7.83418 -17.1205
  248 482.685 -32.6972 -9.13608
  249 491.746 112.081 -240.480
  250 505.802 -41.3337 -15.4979
  251 260.961 -8.15420 -32.7833
  252 261.301 -8.41534 33.0448
  253 502.439 -20.8275 -33.7178
  254 518.961 -7.30763 -48.1787
  255 379.952 -5.62677 -3.36187
  256 379.949 -5.66106 3.26684
  257 529.497 -3.46348 -2.87257
  258 529.950 -2.88009 2.84725
  259 491.998 -4.38413 -26.9256
  260 688.490 81.1847 149.294
  261 458.528 -44.0157 -13.7200
  262 390.183 -10.8221 -8.87696
  263 388.401 -11.0168 9.26267
  264 0.0873718 -0.527121 -10.0802
  265 -1.74700 1.14379 10.6001
  266 142.429 -3.76894 -50.8283
  267 141.597 -3.20813 50.4934
  268 326.843 -2.08695 5.02682
  269 326.802 -2.10985 -5.09201
  270 491.953 -5.51227 25.5139
  271 568.944 117.573 11.1535
  272 516.237 -48.0948 -0.875907
  273 530.080 62.7858 -42.9267
  274 511.396 -26.8345 -35.8395
  275 556.174 -32.3493 1.49800
  276 200.471 -4.39099 47.2039
  277 199.037 -4.67095 -46.5031
  278 513.854 -48.8153 -10.1381
  279 447.745 -50.6835 67.3487
  280 474.734 -7.64381 0.484217
  281 475.218 -7.33506 -0.444286
  282 528.367 -2.58550 -1.40676
  283 528.444 -2.92271 1.49273
  284 244.964 67.3261 160.979
  285 551.029 44.2842 -48.6974
  286 492.968 -41.8632 7.93645
  287 626.263 129.380 13.5484
  288 454.624 4.68301 -29.3692
  289 439.054 -13.1107 2.55305
  290 603.659 96.5961 -31.1902
  291 491.225 -8.15354 132.584
  292 529.165 93.5788 0.232872
  293 447.330 -48.1737 -70.2700
  294 476.357 -54.1963 31.3852
  295 454.520 -44.7365 18.2839
  296 701.323 142.915 12.7597
  297 431.076 -29.1450 14.2670
  298 526.158 -4.01008 -7.19700
  299 496.346 -25.3673 -21.6465
  300 832.694 233.750 105.482
  301 545.672 0.462834 43.5900
  302 517.163 -3.84059 -12.3844
  303 541.321 73.1700 38.6330
  304 580.121 -0.611362 -105.006
  305 520.106 15.2302 51.5491
  306 17.9456 20.7423 10.8099
  307 312.835 -23.2079 67.1263
  308 493.452 -9.02574 4.03040
  309 491.810 -10.0391 -4.43923
  310 490.608 51.3021 -22.7693
  311 301.163 -20.0254 -64.8554
  312 320.731 -25.5440 -92.5349
  313 503.972 -11.7966 11.0248
  314 476.630 -27.5071 7.00510
  315 497.220 -2.49064 47.2248
  316 720.549 146.518 -171.044
  317 501.423 -17.6222 31.8103
  318 499.209 -13.3347 -11.1978
  319 525.737 -3.51420 7.19526
  320 314.888 -3.17503 10.9533
  321 315.144 -3.51985 -11.1128
  322 88.4263 53.9997 -70.5273
  323 425.702 13.1665 -6.37947
  324 503.430 -15.4106 20.9395
  325 680.805 123.781 -4.83133
  326 504.735 63.1180 26.9600
  327 271.593 52.0244 -161.149
  328 313.572 -19.4071 93.1531
  329 472.142 28.1973 -29.7956
  330 515.637 -4.53339 13.4762
  331 499.303 -13.4254 -37.7006
  332 13.1922 8.62566 -2.29419
  333 96.2635 46.6025 65.2585
  334 376.350 -39.6193 66.5250
  335 -2.26196 9.43518 2.04605
  336 -1.23639 10.2783 -1.69848
  337 530.521 220.352 261.611
  338 497.507 -11.7579 37.9612
  339 1013.21 108.652 -127.654
  340 488.393 28.7512 41.1547
  341 580.659 60.1679 38.2165
  342 419.400 -13.4867 6.43962
  343 433.229 7.88471 18.3606
  344 384.251 -42.2645 -63.0793
  345 479.997 -23.2906 -8.23326
  346 437.889 -24.0516 7.33817
  347 503.208 -14.4433 -21.6376
  348 485.293 -53.5345 -41.9915
  349 565.761 -30.8417 -24.8161
  350 464.226 35.2814 8.27103
  351 513.471 -44.0249 12.8738
  352 646.642 48.3902 11.1079
  353 291.631 -14.2919 48.5465
  354 462.485 -17.7879 1.53251
  355 448.345 -49.3036 -36.0912
  356 737.375 179.717 40.8847
  357 548.746 91.3840 -31.2817
  358 358.161 -7.33690 12.1951
  359 358.819 -7.94538 -12.4182
  360 289.619 -13.8168 -49.2867
  361 179.376 164.499 -185.440
  362 424.858 -8.05357 -2.15251
  363 426.106 -8.49352 1.83140
  364 275.980 -2.77303 -16.9871
  365 275.922 -2.82971 17.1677
  366 946.450 36.4613 -18.7840
  367 958.607 65.6742 60.0750
  368 452.511 -36.3065 -9.79887
  369 600.150 21.5608 138.355
  370 222.636 -1.22793 86.5661
  371 222.849 -2.69090 -86.9486
  372 450.693 -28.7154 107.904
  373 459.316 3.74040 30.1801
  374 480.317 5.47086 42.3422
  375 439.664 -50.6654 42.2734
  376 132.019 26.8253 -75.6155
  377 130.602 21.6715 72.7506
  378 63.3056 4.39096 -31.7678
  379 63.6264 3.71110 32.0739
  380 479.170 -43.1450 -81.2090
  381 358.833 -2.93114 -3.09830
  382 358.838 -2.88943 3.08551
  383 708.523 135.027 -1.18362
  384 436.223 -23.3563 -7.51016
  385 457.988 -11.3788 -135.404
  386 488.388 -44.9502 -1.25519
  387 669.706 123.051 -0.627158
  388 588.324 51.3084 -38.2218
  389 505.063 -28.4445 31.3765
  390 335.366 -8.07882 -18.8035
  391 334.379 -7.25316 17.8637
  392 438.753 -11.2940 -2.28404
  393 411.829 -13.7673 -8.24806
  394 322.901 -18.8807 44.4211
  395 322.481 -18.8361 -45.2163
  396 41.1804 63.7050 -52.1628
  397 502.392 23.4576 -47.8657
  398 388.534 -26.6295 28.8012
  399 614.168 46.3467 -148.233
  400 489.544 -32.3747 13.8908
  401 67.3936 85.9497 86.4501
  402 493.293 -4.39044 -44.7860
  403 319.055 -1.88397 6.49631
  404 318.945 -1.79463 -6.52423
  405 507.890 -4.53677 1.07312
  406 507.718 -4.29470 -0.933609
  407 524.392 -32.5674 27.7312
  408 249.961 -14.0710 -66.1210
  409 527.691 -2.86085 -7.89744
  410 253.675 -14.5488 66.6221
  411 605.594 13.3362 -7.58089
  412 513.645 -24.8084 37.8301
  413 454.931 -29.8814 -3.45671
  414 799.218 173.881 -70.3824
  415 500.971 -19.0900 25.8554
  416 797.389 146.374 48.6259
  417 602.055 127.033 12.8417
  418 235.292 -4.88021 -29.7941
  419 235.460 -4.68009 30.2993
  420 96.0924 -0.885769 -36.3972
  421 94.8689 -0.839200 35.6764
  422 503.418 -4.35548 -18.9691
  423 1005.62 141.759 129.437
  424 267.279 17.8442 127.943
  425 335.937 -15.4022 -30.7488
  426 335.475 -15.3734 31.0386
  427 367.025 -30.9032 45.8007
  428 301.571 91.0581 -209.402
  429 597.409 129.620 -7.14728
  430 368.689 -30.4879 -46.4209
  431 538.073 -2.21945 -2.98751
  432 559.328 101.103 27.1866
  433 581.270 115.507 -21.0711
  434 394.290 -28.2922 -29.0095
  435 736.539 173.388 -38.9314
  436 402.680 -42.6175 85.0107
  437 629.191 11.6191 -34.7720
  438 425.493 -29.1761 -116.929
  439 476.958 6.72079 -41.5985
  440 444.246 -44.4452 -25.5892
  441 869.479 81.5453 -15.6532
  442 857.933 102.233 52.1049
  443 498.247 -35.2783 19.0411
  444 1.76781 8.14906 -8.29411
  445 3.01743 8.71605 8.26263
  446 648.745 130.931 8.96935
  447 481.356 -2.02154 23.5923
  448 437.181 -37.4384 18.1662
  449 346.009 -13.3999 122.201
  450 2.25829 -9.97745 -8.35727
  451 382.279 -35.0891 -89.9091
  452 486.009 -38.4000 -8.29125
  453 481.308 -8.95581 2.61348
  454 481.218 -8.54052 -1.95874
  455 207.080 19.2437 -106.997
  456 503.183 -3.59441 17.9223
  457 72.1725 33.2344 -45.4720
  458 24.1480 27.2830 26.2562
  459 196.526 -1.42678 -27.1782
  460 195.930 -1.13569 27.2495
  461 1069.05 250.591 -198.565
  462 477.577 -1.35949 -24.4672
  463 489.905 -13.8192 -7.49534
  464 476.284 -20.7623 5.99968
  465 462.235 18.8039 31.1149
  466 512.811 -1.74033 50.0330
  467 455.592 -8.22819 -0.0421942
  468 457.334 -8.09433 -0.225838
  469 179.272 12.6196 85.7051
  470 385.108 -12.5787 12.7290
  471 600.255 31.5105 24.0027
  472 564.023 -32.7838 46.0704
  473 656.048 140.037 -0.0995225
  474 539.124 -1.63854 2.97708
  475 462.530 -23.5678 -0.991224
  476 402.653 -6.79354 -2.22221
  477 402.426 -6.57062 2.07252
  478 146.254 67.0983 110.691
  479 464.323 -17.2142 -1.48866
  480 65.9668 35.1461 41.1208
  481 145.671 69.0005 -109.289
  482 506.475 72.0074 -7.39831
  483 414.836 -23.3400 -14.6999
  484 380.012 -7.65899 -6.91704
  485 380.290 -7.43201 7.03050
  486 530.394 -45.7914 -7.66467
  487 528.558 -3.45078 7.84607
  488 677.478 51.7786 66.8493
  489 521.589 62.7657 37.8783
  490 420.484 -32.1256 -20.0822
  491 514.933 81.2978 10.5893
  492 7.21454 -14.4328 -3.24745
  493 149.391 167.073 178.217
  494 526.603 43.3692 47.1258
  495 387.580 -12.6156 -11.7716
  496 456.754 0.869186 -20.7818
  497 363.370 29.5949 165.632
  498 469.835 -35.5788 -0.582587
  499 541.493 -44.7540 33.9947
  500 508.627 -9.81017 -11.6095
  501 796.079 121.652 -19.2877
  502 141.413 -0.221124 -32.2049
  503 141.627 0.0278935 32.7276
  504 511.621 -5.25831 -4.42840
  505 509.809 -5.70259 4.56105
  506 296.253 -20.0508 81.1649
  507 367.452 -15.4751 -21.3475
  508 347.144 -10.1032 -122.312
  509 305.437 -23.9227 -78.0665
  510 286.801 -2.20019 -11.7195
  511 286.687 -2.27475 11.6317
  512 497.681 -46.6728 3.35521
  513 373.567 -18.0749 23.3910
  514 528.085 6.01292 -50.4726
  515 391.519 -18.7385 17.5914
  516 413.317 -43.1405 51.9119
  517 634.186 50.4218 1.05349
  518 253.433 -0.874248 -16.8750
  519 253.498 -0.942059 17.1061
  520 635.967 134.173 -11.0960
  521 557.562 -4.92645 -34.5754
  522 557.690 -9.17496 30.1822
  523 504.953 -27.7564 -31.2421
  524 396.794 -33.6849 35.9396
  525 977.767 56.4988 -64.0319
  526 551.150 -37.5500 4.68646
  527 425.024 4.50589 -16.6139
  528 426.280 -17.4826 6.75027
  529 511.901 59.4662 -35.2340
  530 828.338 248.657 167.908
  531 495.024 -11.6967 7.70788
  532 458.665 -10.1727 -0.254286
  533 463.059 -9.16433 -0.324555
  534 517.879 -40.8879 -16.5107
  535 412.812 -24.0975 15.4602
  536 320.870 0.124317 -2.93732
  537 320.903 0.133097 2.89769
  538 415.209 -44.6296 -50.4825
  539 534.401 91.7532 -17.2330
  540 500.009 -15.1765 -15.1643
  541 431.034 3.79529 19.4606
  542 500.776 -19.5847 -26.9743
  543 323.863 0.0839726 -0.655457
  544 323.865 0.0952766 0.641512
  545 576.346 -23.4469 -52.3248
  546 401.548 -35.8716 -36.5346
  547 574.510 -8.84102 -18.2610
  548 529.572 -33.2337 85.8124
  549 512.904 -8.39737 10.3959
  550 541.015 -1.92015 1.53828
  551 540.932 -1.75341 -1.33270
  552 486.003 -53.1092 -26.8243
  553 499.486 -51.2451 54.7317
  554 296.138 -1.49449 -7.68740
  555 295.986 -1.48473 7.62687
  556 454.962 -45.1965 81.9598
  557 515.011 41.5510 -45.6733
  558 396.385 -41.5827 -73.3133
  559 508.591 28.9091 49.4356
  560 485.414 -53.9598 43.8289
  561 402.069 4.77963 7.07441
  562 433.151 -11.0385 2.66538
  563 530.372 -13.1885 -42.9442
  564 661.958 140.845 -0.853598
  565 540.941 -20.4239 -33.4879
  566 413.898 -30.0932 21.8609
  567 340.640 -3.78992 8.62436
  568 340.694 -3.84466 -8.74379
  569 480.529 -13.3912 3.39169
  570 390.899 -18.0110 -17.1677
  571 498.259 -8.70579 30.1288
  572 531.966 -37.3911 -17.5484
  573 452.404 -13.5598 -0.976449
  574 807.587 247.005 -118.266
  575 456.067 10.9717 -29.6359
  576 681.197 146.828 -8.50886
  577 406.350 3.99197 -11.0825
  578 490.476 -17.4191 9.97811
  579 146.581 94.1180 140.097
  580 483.915 45.8003 21.5890
  581 268.477 20.2861 -129.841
  582 531.092 -44.8962 1.14209
  583 491.625 -5.67138 -36.5968
  584 550.451 67.7770 -43.8364
  585 -4.05554 -4.78114 -8.76056
  586 -5.15693 -4.22122 8.84740
  587 344.416 -2.52612 -5.04474
  588 344.419 -2.48859 5.00248
  589 515.560 -33.7528 -28.1755
  590 519.838 -22.2805 -39.6028
  591 52.1682 48.5851 45.0375
  592 490.386 42.5071 32.7935
  593 444.306 -20.7646 -3.43397
  594 439.649 -7.82286 0.202951
  595 438.573 -7.74422 -0.571097
  596 452.854 20.9648 20.6205
  597 970.314 22.5362 13.9235
  598 368.499 -20.9945 -28.8819
  599 398.123 5.81791 1.62448
  600 512.887 8.52725 -51.6615
  601 402.359 -45.9455 74.6779
  602 14.7890 5.38348 17.9670
  603 13.2706 4.47346 -16.9387
  604 539.561 24.2413 -50.5045
  605 480.139 50.1514 -5.83431
  606 506.069 -35.4220 -25.0419
  607 304.823 -6.28472 -23.0161
  608 304.290 -6.75951 23.0121
  609 518.752 -3.32238 2.43644
  610 518.562 -3.32716 -2.57076
  611 507.731 -4.98249 -49.2567
  612 494.788 -23.3405 18.6975
  613 362.366 -20.0797 30.2483
  614 32.3047 23.5504 -18.5995
  615 495.707 299.295 -297.747
  616 509.286 -9.31436 18.9445
  617 507.614 -8.75088 -20.3692
  618 400.867 19.8923 -164.959
  619 478.691 -14.1254 -4.37506
  620 431.029 -40.4110 27.8127
  621 558.424 113.466 -0.493923
  622 196.379 -7.81555 -60.4905
  623 198.065 -7.77923 60.9821
  624 607.360 102.129 27.2973
  625 492.141 -31.9061 -16.9643
  626 444.487 24.6360 0.00219993
  627 478.226 -45.7826 -6.88187
  628 276.847 -7.22661 28.4277
  629 276.676 -7.17554 -28.0778
  630 353.963 -8.77168 -16.1453
  631 339.785 -0.951608 -2.20553
  632 339.792 -0.923221 2.19068
  633 488.826 -18.2998 -9.96937
  634 543.583 -0.992679 -0.775196
  635 543.431 -1.11899 1.00454
  636 638.972 121.289 -16.8839
  637 305.084 94.1824 196.349
  638 583.445 -7.18896 13.1033
  639 261.985 42.0288 143.702
  640 118.144 32.9958 70.9913
  641 595.899 27.0067 -28.4340
  642 503.193 -47.4919 -2.21855
  643 364.214 -4.77071 -5.59384
  644 364.320 -4.70082 5.60946
  645 487.036 -5.49197 -0.452855
  646 487.412 -5.61746 0.544718
  647 384.948 -38.9954 -54.2512
  648 180.960 8.89989 -86.6478
  649 302.317 -1.50939 4.88563
  650 302.231 -1.59125 -4.81079
  651 1107.86 303.349 227.234
  652 570.417 64.9830 -43.8375
  653 511.130 -16.4410 -44.1163
  654 505.199 -18.5210 -39.9459
  655 533.998 43.9740 -49.5523
  656 327.366 -8.26678 -23.4799
  657 326.193 -8.79863 22.9468
  658 474.673 -41.3648 -1.75249
  659 3.78276 -12.9367 9.35203
  660 531.181 -0.944190 48.3081
  661 35.2674 22.2045 19.3089
  662 476.905 13.5374 40.2504
  663 80.8150 76.3847 -75.5202
  664 448.565 18.9223 -21.1588
  665 522.930 -3.96930 5.50527
  666 439.918 -39.0730 -19.3921
  667 498.000 -9.22267 -31.5966
  668 159.893 -0.970292 23.5646
  669 160.473 -0.820611 -23.6568
  670 602.339 118.910 -22.1997
  671 277.586 -14.2431 -99.2320
  672 488.030 -26.7910 -13.6695
  673 428.906 -17.9529 -7.35751
  674 522.155 -4.77286 -5.25959
  675 561.631 80.0820 38.6170
  676 97.9469 19.0409 -53.6125
  677 95.4742 12.6697 53.1574
  678 508.771 -12.5211 46.1863
  679 449.628 -33.7984 8.62712
  680 499.946 -26.6327 -26.2013
  681 732.510 183.575 -45.3841
  682 590.870 127.040 4.46588
  683 434.110 -15.2381 4.20540
  684 560.158 21.3265 45.1661
  685 506.080 -53.0646 19.0126
  686 349.633 -8.37294 16.1452
  687 456.068 -49.0696 27.4133
  688 527.139 -2.57680 0.196893
  689 527.087 -2.76949 -0.148130
  690 737.578 162.947 40.3033
  691 293.430 -11.5206 38.6342
  692 42.6764 43.2035 -32.4102
  693 -11.8881 0.391092 10.1088
  694 -10.4139 0.696306 -10.4634
  695 257.434 -9.81760 42.2696
  696 127.194 48.1571 -82.1328
  697 10.3784 0.290995 -14.7159
  698 486.439 -39.0271 8.13811
  699 338.578 -20.5707 -108.158
  700 382.728 -38.7771 53.4308
  701 472.498 -29.6466 -4.23215
  702 6.80637 -14.0608 -2.92837
  703 561.183 26.9585 -45.2693
  704 504.214 -49.5476 -3.99119
  705 497.672 -40.8439 -14.2674
  706 488.431 14.7067 -45.4896
  707 292.876 -11.5780 -38.6807
  708 50.4183 85.9598 -80.3458
  709 486.796 26.8571 -42.3413
  710 -0.643797 -12.8471 -10.0368
  711 459.648 0.316669 19.7041
  712 256.585 -9.39505 -41.8035
  713 324.585 -18.4545 107.562
  714 450.847 -15.2245 1.39682
  715 375.353 -8.21984 -9.08577
  716 272.061 -11.1235 97.7589
  717 161.564 1.31041 -67.4710
  718 159.177 0.914266 66.1496
  719 374.184 -7.82240 9.36692
  720 95.3785 1.78459 -27.4710
  721 95.8548 1.95097 27.3182
  722 404.759 -14.9120 10.2139
  723 488.102 -0.769002 -16.5697
  724 563.465 62.8947 206.776
  725 395.702 -7.40882 -5.04299
  726 395.488 -7.60392 4.89368
  727 501.047 -14.7082 -32.9974
  728 384.150 -4.97120 -2.60856
  729 384.056 -4.79998 2.53490
  730 491.182 -5.43093 32.6742
  731 499.318 -52.6648 11.4490
  732 403.868 -10.4530 6.43720
  733 41.7113 -1.06990 -18.5791
  734 41.9747 -1.56866 18.3165
  735 403.191 -9.35353 -6.08764
  736 9.99544 11.0243 -2.57781
  737 534.830 -39.7401 -59.8555
  738 603.164 -7.72281 22.5749
  739 188.657 27.1070 100.721
  740 313.849 0.0209502 3.26686
  741 313.772 0.0517240 -3.30826
  742 470.945 -47.9369 13.3016
  743 897.727 128.136 -103.069
  744 435.158 1.01023 -16.0755
  745 427.516 -10.1578 -2.89965
  746 378.663 137.495 238.231
  747 539.124 21.0546 50.3163
  748 489.428 -1.02216 16.0064
  749 545.635 -1.24960 -1.74259
  750 546.148 -1.52874 1.74922
  751 757.291 145.981 -33.6938
  752 542.106 97.8357 12.9770
  753 422.115 -12.4273 -4.79346
  754 534.466 -2.41084 5.69497
  755 341.690 -19.5934 -38.8374
  756 490.957 -6.02606 2.00896
  757 490.747 -6.00178 -1.71934
  758 363.027 -30.0805 96.7934
  759 505.855 -54.0437 -25.0399
  760 502.924 -20.6051 35.2193
  761 341.174 -19.2819 38.5203
  762 527.053 75.8508 -31.3885
  763 437.979 3.29142 16.9048
  764 348.654 -32.3039 -72.8026
  765 424.532 -12.1156 4.49054
  766 499.361 -9.45930 44.1246
  767 318.196 0.471666 -1.10587
  768 318.210 0.478810 1.08296
  769 10.2129 14.1209 1.19401
  770 355.178 -11.7811 20.2688
  771 450.611 -11.4615 1.01295
  772 497.217 -21.4998 -19.4821
  773 231.661 -1.00593 17.3512
  774 231.780 -1.03876 -17.0838
  775 538.389 -16.5309 37.5747
  776 498.495 -11.2436 -42.1223
  777 192.209 -7.85196 -70.0322
  778 192.874 -6.94181 69.5722
  779 522.353 -43.2093 8.17773
  780 498.262 -16.3341 15.3026
  781 754.695 144.443 75.0747
</Section>

newXOutput 29

<Section columns = "stress_xx | stress_yy | stress_xy">
  1 572.422 0.224203 0.681899
  2 572.626 0.152316 -0.654096
  3 329.651 -0.0670597 -0.497294
  4 -4.03020 -4.57867 -5.39389
  5 1011.94 425.732 337.376
  6 962.157 386.034 -284.040
  7 -5.32628 -4.57544 6.17254
  8 329.659 -0.0731739 0.489825
  9 574.259 -0.702502 -0.159016
  10 574.595 -2.09090 1.28098
  11 572.874 -1.68179 0.775207
  12 563.960 -1.93628 3.12277
  13 559.740 -2.04021 3.71647
  14 549.690 -2.82590 6.26804
  15 532.658 -2.05787 9.84536
  16 512.499 -0.968515 11.5501
  17 488.878 0.598355 13.5909
  18 454.310 1.91603 11.2985
  19 432.259 4.40406 13.3739
  20 415.253 3.54952 10.0742
  21 393.956 4.47765 2.85804
  22 399.681 6.71032 -3.84332
  23 407.436 3.39041 -7.07604
  24 431.031 3.11972 -11.6667
  25 452.832 1.30362 -12.6918
  26 488.592 0.695002 -14.1770
  27 511.934 -1.53944 -12.4351
  28 534.444 -2.27148 -9.95262
  29 549.560 -1.96288 -6.99755
  30 557.164 -2.01509 -5.77787
  31 564.996 -2.76779 -2.13161
  32 572.895 -1.47908 -0.240021
  33 574.713 -1.82112 -1.11410
  34 574.506 -0.869021 0.244255
  35 555.683 -1.38355 -1.01228
  36 533.775 -3.26592 -1.09905
  37 513.345 -5.86443 -1.48235
  38 489.198 -7.27103 -1.63781
  39 464.715 -8.03913 -1.24500
  40 436.869 -7.38617 -0.344641
  41 409.866 -5.95284 -0.182609
  42 385.538 -4.51373 0.392497
  43 364.006 -2.05319 0.770804
  44 343.617 -0.640242 -0.00845107
  45 323.543 0.913744 0.0821144
  46 322.193 0.785593 1.47573
  47 319.473 0.197843 1.06622
  48 314.039 -0.524985 2.82190
  49 302.841 0.0459171 3.81968
  50 292.700 -0.786082 5.62929
  51 280.198 -0.596176 8.09733
  52 258.968 0.0353338 8.73307
  53 234.474 0.234011 10.1206
  54 210.591 -0.295941 15.8244
  55 165.422 1.06496 14.7741
  56 133.870 1.18817 17.2819
  57 90.1702 1.62389 15.7351
  58 49.9259 0.584890 17.4459
  59 9.25012 4.75915 17.7159
  60 -18.6836 5.66059 9.27991
  61 -29.1390 5.52102 0.0408031
  62 -25.0494 4.26962 -9.07694
  63 -14.8574 -1.24749 -8.05367
  64 -1.49783 -15.0175 -7.56550
  65 1.02964 -28.5155 -9.96691
  66 3.94206 -44.5964 -5.26626
  67 12.8865 -43.1459 2.17720
  68 22.4810 3.43393 28.4525
  69 65.2166 107.442 95.1370
  70 272.869 320.974 281.905
  71 1310.17 144.341 204.152
  72 1074.59 45.2642 68.9422
  73 1027.04 25.5869 27.4614
  74 1012.88 16.5125 -1.63822
  75 1023.87 21.5716 -24.6696
  76 1089.96 40.6827 -66.8821
  77 1252.23 119.023 -176.489
  78 219.302 364.557 -269.803
  79 53.7885 66.7228 -74.4673
  80 20.7574 4.00622 -29.6426
  81 6.35740 -42.4001 -5.00672
  82 3.99927 -34.3239 3.57825
  83 4.45562 -35.9940 8.19786
  84 0.424830 -13.5973 9.61188
  85 -15.9573 -1.02713 7.95232
  86 -26.3246 4.12388 8.85507
  87 -29.7998 5.47358 -0.246427
  88 -19.1729 5.30726 -9.15014
  89 8.38579 5.29030 -17.4377
  90 49.2965 0.743631 -17.6872
  91 89.9146 1.51863 -15.9954
  92 134.320 1.16884 -17.4012
  93 166.046 1.03230 -14.8849
  94 211.226 -0.434862 -15.6668
  95 234.764 0.232609 -9.92899
  96 258.937 0.133827 -8.63374
  97 280.239 -0.572533 -8.14182
  98 292.648 -0.793250 -5.61637
  99 302.811 0.0417197 -3.82604
  100 313.931 -0.508679 -2.80731
  101 319.385 0.202957 -1.09234
  102 322.158 0.781035 -1.50026
  103 323.540 0.907258 -0.0960675
  104 343.613 -0.661631 -0.00103070
  105 363.997 -2.09428 -0.783448
  106 385.521 -4.57450 -0.380675
  107 410.152 -6.10478 0.250815
  108 437.124 -7.44330 0.260422
  109 463.860 -8.05681 1.17360
  110 488.847 -6.95990 1.47162
  111 513.441 -6.07744 1.49076
  112 533.755 -3.44685 1.09240
  113 555.533 -1.56927 1.08968
  114 495.480 -52.3268 -17.4277
  115 500.911 -52.1469 13.3380
  116 531.791 75.5487 -24.8925
  117 423.031 -35.5620 -105.107
  118 410.751 -33.0111 107.192
  119 571.004 54.0267 47.8716
  120 596.771 16.2647 -36.6963
  121 426.760 -18.5176 -12.3578
  122 424.630 -19.5784 12.7343
  123 653.562 143.350 1.51539
  124 504.006 -23.2403 12.0668
  125 507.878 -21.9989 -14.0388
  126 521.041 -11.5898 -46.7356
  127 357.824 -29.4664 57.9038
  128 357.230 -29.7345 -60.7088
  129 523.258 -18.3640 41.7887
  130 705.349 158.682 9.13322
  131 190.687 44.2817 -114.517
  132 184.447 45.1168 112.826
  133 624.817 1.43265 -9.04033
  134 729.783 166.051 -24.1777
  135 489.455 33.6131 27.5583
  136 482.321 -13.5265 1.10927
  137 484.821 -12.5835 -1.42686
  138 620.349 -6.79859 72.2563
  139 359.084 -14.7370 -26.5942
  140 359.201 -14.6761 25.5249
  141 475.870 32.4486 -181.147
  142 829.750 114.812 16.0582
  143 493.551 17.5201 -41.3060
  144 372.549 -5.02378 -7.64196
  145 372.484 -5.00232 7.68624
  146 428.250 -35.1401 27.5527
  147 436.268 -36.8195 -27.3512
  148 258.371 -16.0078 -83.6934
  149 257.378 -12.8263 84.8538
  150 547.591 83.6927 27.0540
  151 540.565 -52.0064 27.3709
  152 545.433 -30.4335 -31.6719
  153 560.689 -33.2256 19.1959
  154 516.288 -35.3729 -21.5855
  155 539.949 25.6592 -53.0003
  156 481.264 41.6546 197.672
  157 37.1846 30.7932 20.2324
  158 32.7368 25.8013 -15.7552
  159 477.655 30.3482 -11.0822
  160 515.712 11.5697 49.6572
  161 528.700 -7.39787 7.66492
  162 524.469 -8.57181 -7.72334
  163 489.924 -36.6169 2.02734
  164 520.146 -12.3132 -27.3376
  165 594.514 98.4980 -35.0013
  166 474.050 -30.8468 2.48513
  167 451.890 -51.3482 56.3474
  168 426.890 -10.0323 -3.84406
  169 427.382 -9.98623 3.96868
  170 522.291 -11.4287 25.4020
  171 455.037 -51.0478 -54.1889
  172 534.925 -50.1255 -40.8998
  173 605.635 107.602 30.8112
  174 475.695 -25.3768 -0.0376293
  175 708.211 86.0188 -57.7210
  176 130.434 8.50145 -65.6684
  177 126.883 7.87160 64.0558
  178 872.012 166.854 88.8087
  179 738.396 137.829 31.0315
  180 898.865 104.244 -56.9552
  181 518.560 -7.02335 2.54511
  182 517.976 -6.88743 -2.59015
  183 319.798 -9.90375 -32.7786
  184 319.833 -10.0313 32.8836
  185 258.771 -9.38277 -51.4025
  186 260.562 -9.44333 52.2593
  187 155.184 112.179 -143.431
  188 501.170 -2.70974 38.2850
  189 526.527 -38.7515 21.9935
  190 348.185 -4.28357 -11.9112
  191 347.593 -4.53169 12.0171
  192 78.5388 79.1123 84.2567
  193 491.857 0.868843 -37.0427
  194 517.543 -27.1096 26.9094
  195 472.973 7.80540 32.7866
  196 531.150 -32.0703 -98.3413
  197 531.183 -8.65081 -15.0481
  198 483.250 -42.6406 7.12885
  199 580.498 115.986 -16.2972
  200 540.328 -16.5336 45.0296
  201 365.606 -33.8379 -85.3283
  202 271.506 -1.23829 -112.128
  203 265.462 0.489412 112.212
  204 524.017 44.3318 41.3665
  205 381.422 0.847628 146.999
  206 508.432 57.3257 8.01342
  207 644.026 74.5606 -23.3134
  208 532.514 -8.48183 13.3672
  209 365.732 -33.3276 85.8464
  210 461.853 -20.1017 3.19554
  211 861.246 217.204 -110.802
  212 643.925 84.9768 26.1494
  213 379.496 -26.8739 -37.7062
  214 377.605 -25.1582 37.2083
  215 59.2844 19.4293 -36.0033
  216 67.4959 19.7842 41.0815
  217 428.350 -43.3942 43.0704
  218 452.892 -16.4429 -4.50620
  219 456.559 -9.41923 -0.995571
  220 461.239 -9.41819 0.850185
  221 429.388 -42.0199 -43.2895
  222 450.542 -30.3250 -11.9244
  223 530.076 -46.0857 72.9899
  224 644.665 140.288 -8.24248
  225 745.726 147.285 -13.9235
  226 596.433 17.4322 34.5715
  227 498.172 -16.8158 7.04313
  228 369.802 4.04484 -149.496
  229 410.059 -25.2354 22.5164
  230 493.568 -19.2429 -5.53583
  231 595.006 -26.1119 12.3689
  232 513.347 40.9025 -40.0044
  233 568.051 -29.6247 -18.6713
  234 447.120 17.6273 7.93476
  235 384.862 -12.7301 -16.9022
  236 561.893 1.40714 -46.4910
  237 321.065 -4.60628 -16.8167
  238 320.765 -4.51707 16.3350
  239 345.992 -0.496767 -2.25228
  240 346.002 -0.472190 2.22274
  241 516.342 5.77061 -50.8207
  242 381.919 -12.6222 17.7901
  243 407.026 -24.6120 -23.8498
  244 186.986 138.062 185.878
  245 31.8927 39.9187 -28.1810
  246 947.165 71.7777 20.8243
  247 446.494 8.15077 -17.6411
  248 499.492 -33.8391 -9.19562
  249 508.169 116.323 -248.915
  250 523.342 -42.7800 -15.7008
  251 270.699 -8.42963 -33.9643
  252 271.049 -8.70050 34.2345
  253 519.937 -21.5676 -34.5873
  254 537.036 -7.57228 -49.4895
  255 393.643 -5.80877 -3.51072
  256 393.640 -5.84420 3.41264
  257 547.609 -3.61351 -2.91419
  258 548.075 -3.01038 2.88956
  259 509.261 -4.54504 -27.6825
  260 711.242 84.5237 154.889
  261 474.552 -45.5381 -14.4312
  262 404.161 -11.1830 -9.25410
  263 402.325 -11.3838 9.65227
  264 0.147120 -0.497244 -10.3771
  265 -1.75043 1.22418 10.9151
  266 147.932 -3.91692 -52.7144
  267 147.069 -3.33599 52.3693
  268 338.937 -2.14656 5.22416
  269 338.895 -2.17010 -5.29141
  270 509.217 -5.70725 26.2290
  271 588.856 121.609 11.4281
  272 534.070 -49.7736 -0.559435
  273 548.656 64.9751 -44.1359
  274 529.171 -27.7816 -36.7353
  275 575.258 -33.4641 1.13789
  276 208.061 -4.54811 48.9199
  277 206.579 -4.83805 -48.1930
  278 531.591 -50.5195 -10.8263
  279 463.305 -52.4603 69.9243
  280 491.256 -7.93569 0.455891
  281 491.754 -7.61739 -0.415985
  282 546.422 -2.70640 -1.42706
  283 546.502 -3.05402 1.51522
  284 253.649 69.7036 166.849
  285 570.189 45.8246 -50.0033
  286 510.093 -43.3240 7.90976
  287 647.949 133.823 13.7030
  288 470.866 4.86281 -30.2452
  289 454.514 -13.5684 2.73712
  290 624.539 99.9517 -31.8499
  291 507.983 -8.36700 137.448
  292 547.795 96.8312 0.240313
  293 462.867 -49.8653 -72.9501
  294 492.888 -56.0841 32.7430
  295 470.406 -46.2849 19.1484
  296 725.375 147.756 13.3728
  297 446.263 -30.1433 14.9309
  298 544.236 -4.16949 -7.35426
  299 513.606 -26.2635 -22.1237
  300 860.571 241.845 109.468
  301 564.567 0.471660 44.6936
  302 535.075 -3.98447 -12.7046
  303 560.259 75.7129 39.6923
  304 599.701 -0.492573 -108.995
  305 538.277 15.7606 52.9986
  306 18.6793 21.6455 11.3722
  307 324.119 -24.0255 69.5761
  308 510.540 -9.36858 4.06464
  309 508.852 -10.4151 -4.47967
  310 507.982 53.1242 -23.4401
  311 312.076 -20.7304 -67.2186
  312 332.172 -26.4718 -95.9213
  313 521.411 -12.2307 11.2418
  314 493.247 -28.4693 7.01970
  315 514.667 -2.57718 48.5700
  316 744.133 152.161 -177.393
  317 518.898 -18.2473 32.6405
  318 516.505 -13.8204 -11.4134
  319 543.797 -3.66111 7.35207
  320 326.552 -3.27131 11.3599
  321 326.815 -3.62740 -11.5248
  322 91.7836 55.9659 -73.2939
  323 441.119 13.6653 -6.57451
  324 520.913 -15.9681 21.4413
  325 704.017 128.155 -5.53414
  326 522.547 65.3369 27.7450
  327 281.173 53.8512 -167.004
  328 324.774 -20.1231 96.5582
  329 488.929 29.2193 -30.6827
  330 533.498 -4.70355 13.8222
  331 516.749 -13.9027 -38.7292
  332 13.7300 9.08222 -2.52162
  333 99.9010 48.2980 67.8226
  334 389.679 -41.0083 68.9940
  335 -2.22433 9.80114 2.03285
  336 -1.16571 10.6754 -1.66903
  337 547.762 228.679 270.737
  338 514.909 -12.1771 39.0061
  339 1046.20 112.229 -131.720
  340 505.649 29.7758 42.3658
  341 600.748 62.2720 39.1202
  342 434.261 -13.9470 6.76085
  343 448.862 8.19399 18.9167
  344 397.838 -43.7424 -65.4347
  345 496.716 -24.1096 -8.30752
  346 453.300 -24.8776 7.75408
  347 520.688 -14.9646 -22.1651
  348 502.074 -55.4035 -43.7285
  349 585.086 -31.8824 -26.0829
  350 480.792 36.5603 8.51986
  351 531.250 -45.5643 12.9709
  352 668.573 50.2038 12.0403
  353 302.307 -14.7840 50.3115
  354 478.655 -18.4138 1.43845
  355 463.999 -51.0173 -37.5749
  356 762.450 185.938 42.7138
  357 567.958 94.5483 -32.1247
  358 371.165 -7.57291 12.6708
  359 371.842 -8.20159 -12.9018
  360 300.230 -14.2932 -51.0761
  361 185.502 170.829 -192.134
  362 439.894 -8.33544 -2.26295
  363 441.180 -8.79002 1.93276
  364 286.306 -2.86262 -17.5983
  365 286.246 -2.92089 17.7851
  366 977.449 37.6741 -19.3817
  367 989.998 67.8480 61.9774
  368 468.359 -37.5589 -10.3502
  369 620.261 22.5428 143.455
  370 230.799 -1.30773 89.7594
  371 231.020 -2.82280 -90.1513
  372 466.238 -29.7219 111.894
  373 475.691 3.88539 31.0760
  374 497.291 5.67469 43.5832
  375 455.036 -52.4277 43.9590
  376 136.984 27.7525 -78.4919
  377 135.532 22.4142 75.5188
  378 65.9232 4.54041 -33.0047
  379 66.2536 3.83644 33.3216
  380 495.668 -44.6493 -84.2971
  381 371.902 -3.01845 -3.21877
  382 371.908 -2.97540 3.20560
  383 732.808 139.566 -1.23903
  384 451.585 -24.1574 -7.92433
  385 473.683 -11.7380 -140.343
  386 505.359 -46.5157 -1.00264
  387 692.590 127.387 -0.111163
  388 608.616 53.1115 -39.0815
  389 522.630 -29.4478 32.1375
  390 347.625 -8.34058 -19.5082
  391 346.611 -7.48550 18.5328
  392 454.203 -11.6913 -2.44583
  393 426.458 -14.2353 -8.62794
  394 334.622 -19.5238 46.0483
  395 334.185 -19.4790 -46.8711
  396 42.7611 66.3233 -54.2903
  397 520.053 24.2873 -49.2513
  398 402.382 -27.5354 29.9242
  399 634.647 48.2495 -153.695
  400 506.575 -33.5088 14.0976
  401 69.8806 89.4383 89.8059
  402 510.618 -4.54246 -46.0650
  403 330.887 -1.93889 6.74206
  404 330.773 -1.84666 -6.77091
  405 525.369 -4.72967 1.08063
  406 525.192 -4.48016 -0.936837
  407 542.548 -33.7122 28.3182
  408 259.156 -14.5774 -68.5311
  409 545.857 -2.97417 -8.08707
  410 262.992 -15.0718 69.0519
  411 626.268 13.8638 -7.34984
  412 531.500 -25.6848 38.7886
  413 470.866 -30.9151 -3.77689
  414 826.192 179.792 -72.9450
  415 518.395 -19.7711 26.4915
  416 824.318 151.299 50.3721
  417 623.017 131.382 13.1008
  418 244.158 -5.04442 -30.8632
  419 244.331 -4.83765 31.3858
  420 99.9414 -0.929636 -37.7745
  421 98.6731 -0.880559 37.0288
  422 520.980 -4.52076 -19.4836
  423 1038.44 146.433 133.593
  424 276.813 18.4245 132.627
  425 348.140 -15.9177 -31.8887
  426 347.666 -15.8882 32.1869
  427 380.139 -31.9655 47.5107
  428 312.004 94.3755 -216.905
  429 618.243 134.046 -7.30965
  430 381.849 -31.5366 -48.1552
  431 556.445 -2.31199 -3.04167
  432 578.891 104.593 27.9004
  433 601.550 119.479 -21.5736
  434 408.309 -29.2568 -30.1509
  435 761.470 179.503 -40.8474
  436 416.774 -44.1258 88.1663
  437 650.471 12.1449 -36.4563
  438 440.221 -30.2046 -121.224
  439 493.841 6.97168 -42.8204
  440 459.802 -45.9830 -26.6949
  441 898.413 84.2548 -16.1732
  442 886.577 105.635 53.8585
  443 515.561 -36.5153 19.3928
  444 2.04187 8.44046 -8.68285
  445 3.33474 9.02831 8.65076
  446 671.076 135.469 8.85781
  447 498.340 -2.09190 24.2684
  448 452.540 -38.7273 18.9915
  449 358.179 -13.9105 126.660
  450 2.36642 -10.2382 -8.58033
  451 395.718 -36.3418 -93.2245
  452 502.919 -39.7392 -8.29879
  453 498.031 -9.29315 2.61654
  454 497.936 -8.86451 -1.94825
  455 214.626 19.8752 -110.963
  456 520.745 -3.73127 18.4109
  457 74.9715 34.4403 -47.3046
  458 25.0802 28.5540 27.4043
  459 204.066 -1.47346 -28.1604
  460 203.449 -1.17193 28.2348
  461 1103.55 259.058 -204.998
  462 494.459 -1.40596 -25.1731
  463 506.908 -14.3229 -7.59870
  464 492.885 -21.4948 6.01543
  465 478.716 19.4945 32.0479
  466 530.720 -1.80562 51.4280
  467 471.546 -8.53162 -0.0785143
  468 473.340 -8.39419 -0.198706
  469 185.917 13.0290 88.9051
  470 398.920 -12.9968 13.2496
  471 620.838 32.6488 24.3492
  472 583.237 -33.8734 48.0505
  473 678.731 144.786 -0.0180304
  474 557.523 -1.71362 3.03231
  475 478.704 -24.3883 -0.843653
  476 417.026 -7.02209 -2.32553
  477 416.792 -6.79208 2.17064
  478 151.614 69.5213 114.866
  479 480.548 -17.8216 -1.39470
  480 68.5439 36.4174 42.7918
  481 151.029 71.4748 -113.417
  482 524.368 74.5375 -7.61133
  483 429.529 -24.1337 -15.3478
  484 393.696 -7.90862 -7.20448
  485 393.983 -7.67441 7.32175
  486 548.656 -47.3879 -8.29863
  487 546.754 -3.57813 8.03799
  488 700.185 53.8761 69.7003
  489 539.910 64.9610 38.9573
  490 435.334 -33.2241 -20.9418
  491 533.096 84.1383 10.8921
  492 7.50809 -14.7176 -3.50400
  493 154.580 173.596 184.709
  494 545.028 44.8815 48.4493
  495 401.465 -13.0359 -12.2614
  496 473.060 0.904042 -21.3955
  497 375.966 30.6655 171.617
  498 486.232 -36.8129 -0.365143
  499 560.037 -46.2928 35.5331
  500 526.209 -10.1776 -11.8564
  501 822.947 125.727 -19.9878
  502 146.970 -0.231341 -33.3861
  503 147.190 0.0261898 33.9281
  504 529.236 -5.47306 -4.49515
  505 527.374 -5.93401 4.62760
  506 306.940 -20.7751 84.1297
  507 380.685 -15.9919 -22.1704
  508 359.343 -10.5001 -126.771
  509 316.427 -24.7790 -80.9228
  510 297.531 -2.27023 -12.1423
  511 297.412 -2.34736 12.0520
  512 514.944 -48.3015 3.15494
  513 386.980 -18.6811 24.2945
  514 546.470 6.21657 -51.8524
  515 405.504 -19.3680 18.3041
  516 427.848 -44.6410 53.8974
  517 655.794 52.2809 0.558975
  518 262.991 -0.898545 -17.4792
  519 263.057 -0.968737 17.7178
  520 657.948 138.780 -11.1385
  521 576.795 -5.09691 -35.3427
  522 576.910 -9.49400 30.7976
  523 522.513 -28.7354 -32.0025
  524 410.869 -34.8410 37.3339
  525 1009.69 58.3777 -66.0694
  526 570.062 -38.8462 5.24544
  527 440.420 4.68326 -17.1168
  528 441.344 -18.0811 7.10779
  529 529.923 61.5533 -36.2474
  530 855.451 257.671 174.237
  531 512.176 -12.1292 7.82947
  532 474.713 -10.5421 -0.338170
  533 479.238 -9.50256 -0.265019
  534 535.799 -42.3196 -16.7255
  535 427.441 -24.9176 16.1340
  536 332.814 0.134729 -3.05037
  537 332.848 0.143779 3.00953
  538 429.802 -46.1811 -52.4246
  539 553.189 94.9403 -17.7155
  540 517.353 -15.7256 -15.4887
  541 446.604 3.94410 20.0493
  542 518.198 -20.2823 -27.6414
  543 335.921 0.0936100 -0.683578
  544 335.923 0.105283 0.669218
  545 595.931 -24.1930 -54.5381
  546 415.766 -37.1048 -37.9573
  547 594.219 -9.12947 -18.4433
  548 547.636 -34.3375 89.1089
  549 530.610 -8.71458 10.6157
  550 559.423 -2.00409 1.56301
  551 559.338 -1.83294 -1.35152
  552 502.842 -54.9620 -28.0402
  553 516.683 -53.0292 56.9228
  554 307.212 -1.53994 -7.96759
  555 307.055 -1.53007 7.90535
  556 470.706 -46.7827 85.0508
  557 533.088 43.0111 -46.9807
  558 410.316 -43.0485 -76.0436
  559 526.444 29.9241 50.8602
  560 502.199 -55.8427 45.6300
  561 416.793 4.97207 7.29065
  562 448.434 -11.4238 2.82663
  563 548.774 -13.6585 -44.0477
  564 684.815 145.622 -1.04750
  565 559.636 -21.1430 -34.2452
  566 428.545 -31.1192 22.7694
  567 353.132 -3.90510 8.95574
  568 353.188 -3.96150 -9.07901
  569 497.239 -13.8781 3.37995
  570 404.865 -18.6166 -17.8649
  571 515.677 -9.02117 30.9515
  572 550.329 -38.6996 -17.7747
  573 468.267 -14.0380 -1.11656
  574 834.518 255.696 -122.868
  575 472.360 11.3894 -30.5248
  576 704.627 151.828 -9.07491
  577 421.200 4.15506 -11.4256
  578 507.515 -18.0429 10.1355
  579 151.908 97.5549 145.320
  580 501.081 47.4369 22.2304
  581 278.053 20.9524 -134.591
  582 549.386 -46.4602 1.55203
  583 508.883 -5.87442 -37.6333
  584 569.651 70.1324 -45.0196
  585 -4.18884 -4.94162 -9.06359
  586 -5.32505 -4.35615 9.14705
  587 357.044 -2.59959 -5.24332
  588 357.047 -2.56080 5.19976
  589 533.438 -34.9395 -28.7943
  590 537.892 -23.0689 -40.6084
  591 54.1863 50.4438 46.9001
  592 507.734 44.0192 33.7575
  593 459.920 -21.4825 -3.69819
  594 455.129 -8.10494 0.237546
  595 454.020 -8.02381 -0.617076
  596 469.070 21.7415 21.2436
  597 1001.94 23.2892 14.3550
  598 381.730 -21.7024 -29.9811
  599 412.730 6.04691 1.67603
  600 530.821 8.82189 -53.1209
  601 416.481 -47.5645 77.4626
  602 15.6192 5.56974 18.6960
  603 14.0482 4.62723 -17.6308
  604 558.329 25.0829 -51.8748
  605 497.198 51.9423 -6.00707
  606 523.644 -36.6655 -25.5756
  607 316.078 -6.48877 -23.8561
  608 315.527 -6.97965 23.8518
  609 536.551 -3.47159 2.46909
  610 536.355 -3.47623 -2.60766
  611 525.479 -5.16119 -50.6382
  612 511.990 -24.1659 19.0931
  613 375.405 -20.7568 31.3900
  614 33.6642 24.4152 -19.4210
  615 511.661 310.530 -307.880
  616 526.947 -9.65918 19.4157
  617 525.250 -9.07517 -20.8912
  618 414.670 20.5853 -170.888
  619 495.351 -14.6350 -4.38412
  620 446.175 -41.8044 28.9719
  621 578.004 117.369 -0.503564
  622 203.753 -8.10563 -62.7071
  623 205.494 -8.06833 63.2173
  624 628.364 105.679 27.8318
  625 509.260 -33.0259 -17.2713
  626 460.462 25.5467 0.00263922
  627 494.866 -47.3725 -7.39457
  628 287.141 -7.46847 29.4519
  629 286.966 -7.41567 -29.0905
  630 366.813 -9.05665 -16.7656
  631 352.302 -0.972419 -2.28426
  632 352.309 -0.943114 2.26897
  633 505.812 -18.9546 -10.1216
  634 562.048 -1.04777 -0.790372
  635 561.892 -1.17809 1.02607
  636 660.969 125.502 -17.0049
  637 315.692 97.5381 203.390
  638 603.424 -7.41050 13.1011
  639 271.281 43.4860 148.954
  640 122.587 34.1599 73.7288
  641 616.344 27.9761 -28.9305
  642 520.622 -49.1493 -1.97000
  643 377.433 -4.91948 -5.81758
  644 377.542 -4.84725 5.83381
  645 503.915 -5.71725 -0.443757
  646 504.302 -5.84650 0.538512
  647 398.585 -40.3508 -56.2874
  648 187.665 9.17373 -89.8793
  649 313.624 -1.55441 5.06782
  650 313.535 -1.63886 -4.99049
  651 1143.25 313.642 234.617
  652 590.208 67.2437 -44.9548
  653 528.940 -17.0251 -45.3003
  654 522.810 -19.1784 -41.0107
  655 552.644 45.5061 -50.9330
  656 339.341 -8.53584 -24.3489
  657 338.133 -9.08545 23.7969
  658 491.214 -42.8013 -2.07472
  659 3.95082 -13.3379 9.63038
  660 549.642 -0.984902 49.6041
  661 36.7354 23.0212 20.1570
  662 493.801 14.0336 41.4411
  663 83.8604 79.2268 -78.4847
  664 464.653 19.6293 -21.8015
  665 540.884 -4.13793 5.61033
  666 455.358 -40.4203 -20.2654
  667 515.410 -9.55445 -32.4628
  668 166.159 -1.00494 24.4209
  669 166.760 -0.849997 -24.5158
  670 623.260 123.007 -22.6527
  671 287.578 -14.7869 -102.862
  672 505.010 -27.7329 -13.8947
  673 444.050 -18.5686 -7.73663
  674 540.085 -4.96817 -5.35458
  675 581.197 82.8599 39.6215
  676 101.751 19.7011 -55.6783
  677 99.1878 13.1004 55.2103
  678 526.522 -12.9677 47.4521
  679 465.391 -34.9632 9.12837
  680 517.334 -27.5731 -26.8123
  681 757.435 189.927 -47.3553
  682 611.499 131.382 4.56707
  683 449.417 -15.7654 4.46260
  684 579.535 22.0686 46.3091
  685 523.557 -54.9140 19.9932
  686 362.351 -8.64448 16.7612
  687 471.984 -50.7723 28.5994
  688 545.155 -2.69715 0.212505
  689 545.102 -2.89541 -0.162407
  690 762.724 168.482 41.9361
  691 304.224 -11.9085 40.0335
  692 44.3568 44.8444 -33.7918
  693 -12.2767 0.417130 10.4415
  694 -10.7471 0.736879 -10.8098
  695 267.005 -10.1569 43.7950
  696 131.952 49.8721 -85.2860
  697 10.8025 0.673198 -15.4257
  698 503.363 -40.3887 8.13912
  699 350.551 -21.3362 -112.105
  700 396.298 -40.1241 55.4353
  701 488.983 -30.6808 -4.15519
  702 7.07259 -14.3630 -2.92144
  703 580.605 27.8997 -46.4138
  704 521.667 -51.2769 -4.45620
  705 514.958 -42.2718 -14.4489
  706 505.666 15.2366 -46.8239
  707 303.652 -11.9684 -40.0814
  708 52.2804 89.5946 -83.4828
  709 504.004 27.8152 -43.5907
  710 -0.649099 -13.2735 -10.3678
  711 476.037 0.332270 20.2827
  712 266.130 -9.71812 -43.3124
  713 336.104 -19.1446 111.495
  714 466.662 -15.7593 1.56175
  715 388.886 -8.48724 -9.45880
  716 281.870 -11.5571 101.342
  717 167.666 1.33082 -69.9832
  718 165.194 0.921625 68.6190
  719 387.681 -8.07680 9.74906
  720 99.2870 1.84423 -28.4970
  721 99.7781 2.01669 28.3393
  722 419.172 -15.4150 10.6586
  723 505.276 -0.801311 -17.0388
  724 582.243 65.4149 214.118
  725 409.861 -7.65478 -5.26292
  726 409.640 -7.85646 5.10873
  727 518.516 -15.2332 -33.8733
  728 397.972 -5.13186 -2.71070
  729 397.875 -4.95503 2.63456
  730 508.423 -5.62787 33.5952
  731 516.597 -54.5008 12.1578
  732 418.264 -10.8052 6.73116
  733 43.6327 -1.11112 -19.2999
  734 43.9030 -1.62753 19.0281
  735 417.568 -9.66789 -6.36678
  736 10.4401 11.5007 -2.54098
  737 553.117 -41.0972 -62.2690
  738 623.667 -7.90690 23.8202
  739 195.565 28.0269 104.475
  740 325.561 0.0278769 3.39242
  741 325.482 0.0596934 -3.43508
  742 487.351 -49.6008 14.0246
  743 927.500 132.427 -106.506
  744 450.852 1.05355 -16.5564
  745 442.630 -10.5112 -3.06126
  746 391.459 142.494 246.615
  747 557.873 21.7824 51.6778
  748 506.637 -1.06298 16.4572
  749 564.187 -1.30614 -1.77250
  750 564.713 -1.59301 1.77973
  751 783.028 150.910 -35.0092
  752 561.152 101.227 13.3319
  753 437.063 -12.8528 -5.04013
  754 552.792 -2.50994 5.82479
  755 354.035 -20.2557 -40.2700
  756 507.954 -6.26879 2.02542
  757 507.738 -6.24431 -1.72751
  758 375.826 -31.1650 100.341
  759 523.312 -55.9293 -26.2332
  760 520.445 -21.3354 36.1374
  761 353.505 -19.9342 39.9412
  762 545.574 78.4962 -32.2719
  763 453.755 3.40837 17.4121
  764 361.080 -33.4418 -75.4752
  765 439.553 -12.5318 4.72991
  766 516.838 -9.79589 45.3594
  767 330.082 0.490522 -1.15142
  768 330.097 0.497897 1.12782
  769 10.6674 14.7047 1.10594
  770 368.043 -12.1703 21.0387
  771 466.419 -11.8702 1.13581
  772 514.497 -22.2628 -19.9114
  773 240.468 -1.03352 17.9740
  774 240.592 -1.06731 -17.6978
  775 557.016 -17.1173 38.4773
  776 515.944 -11.6418 -43.2953
  777 199.387 -8.15427 -72.6160
  778 200.075 -7.21163 72.1424
  779 540.395 -44.7188 8.09650
  780 515.555 -16.9231 15.6263
  781 779.840 149.812 78.3497
</Section>

newXOutput 30

<Section columns = "stress_xx | stress_yy | stress_xy">
  1 591.040 0.210402 0.699182
  2 591.248 0.136754 -0.670938
  3 341.542 -0.0629845 -0.508474
  4 -4.17159 -4.73848 -5.58528
  5 1042.17 440.283 347.987
  6 991.407 399.361 -293.128
  7 -5.51189 -4.73465 6.39197
  8 341.550 -0.0692939 0.500797
  9 592.928 -0.739305 -0.171411
  10 593.291 -2.16663 1.30479
  11 591.551 -1.74429 0.779820
  12 582.452 -2.01396 3.18280
  13 578.165 -2.11196 3.79627
  14 567.890 -2.92616 6.41469
  15 550.460 -2.13611 10.0992
  16 529.804 -1.00834 11.8595
  17 505.570 0.613328 13.9662
  18 470.077 1.97975 11.6205
  19 447.416 4.55149 13.7622
  20 429.923 3.68726 10.3675
  21 408.026 4.63582 2.94277
  22 413.915 6.95591 -3.95841
  23 421.893 3.51765 -7.28440
  24 446.153 3.23036 -12.0036
  25 468.558 1.34836 -13.0519
  26 505.274 0.714526 -14.5706
  27 529.225 -1.59771 -12.7692
  28 552.288 -2.35474 -10.2076
  29 567.760 -2.03927 -7.16686
  30 575.524 -2.09570 -5.91207
  31 583.506 -2.86923 -2.16459
  32 591.571 -1.53690 -0.229366
  33 593.411 -1.89060 -1.13366
  34 593.180 -0.911166 0.258333
  35 573.875 -1.45612 -1.03933
  36 551.389 -3.40873 -1.12509
  37 530.405 -6.09409 -1.51477
  38 505.587 -7.54051 -1.66854
  39 480.412 -8.32200 -1.26777
  40 451.772 -7.63632 -0.336711
  41 423.997 -6.14387 -0.176154
  42 398.976 -4.65179 0.415028
  43 376.840 -2.10810 0.800632
  44 355.887 -0.651673 -0.00457294
  45 335.263 0.943543 0.0907723
  46 333.860 0.812120 1.52901
  47 331.028 0.206781 1.11264
  48 325.399 -0.537482 2.92841
  49 313.832 0.0510397 3.95487
  50 303.333 -0.808683 5.82426
  51 290.396 -0.611977 8.37616
  52 268.456 0.0403747 9.03774
  53 243.141 0.244675 10.4732
  54 218.431 -0.300214 16.3740
  55 171.743 1.10113 15.2931
  56 139.093 1.22736 17.8873
  57 93.8482 1.67562 16.3056
  58 52.1407 0.598361 18.0954
  59 9.95823 4.92021 18.3904
  60 -19.0599 5.85487 9.65834
  61 -29.9975 5.71730 0.0954100
  62 -25.8703 4.43115 -9.35984
  63 -15.3634 -1.27998 -8.32368
  64 -1.53942 -15.5308 -7.81993
  65 1.07956 -29.4611 -10.2831
  66 4.09559 -45.9766 -5.38226
  67 13.3612 -44.3106 2.38364
  68 23.3176 4.15047 29.6500
  69 67.4916 112.161 98.6525
  70 281.377 332.968 291.133
  71 1349.38 148.899 209.987
  72 1107.91 46.6653 70.9772
  73 1059.04 26.4041 28.2547
  74 1044.49 17.0494 -1.68682
  75 1055.81 22.2665 -25.4129
  76 1123.70 41.9788 -68.8683
  77 1290.16 122.807 -181.598
  78 226.134 378.004 -278.625
  79 55.6975 70.0728 -77.3632
  80 21.5306 4.79903 -30.8953
  81 6.59269 -43.5088 -5.30307
  82 4.16060 -35.3558 3.61856
  83 4.62798 -37.1939 8.44951
  84 0.445530 -14.0565 9.93811
  85 -16.5029 -1.05192 8.21840
  86 -27.1913 4.27991 9.13120
  87 -30.6806 5.66861 -0.308350
  88 -19.5636 5.48916 -9.52415
  89 9.06715 5.46965 -18.1027
  90 51.4924 0.762410 -18.3448
  91 93.5859 1.56664 -16.5747
  92 139.559 1.20725 -18.0104
  93 172.389 1.06725 -15.4071
  94 219.087 -0.443717 -16.2109
  95 243.441 0.243308 -10.2755
  96 268.424 0.141956 -8.93544
  97 290.439 -0.587604 -8.42176
  98 303.280 -0.815948 -5.81079
  99 313.801 0.0467884 -3.96132
  100 325.288 -0.520668 -2.91336
  101 330.937 0.212071 -1.13951
  102 333.823 0.807428 -1.55425
  103 335.259 0.936858 -0.105122
  104 355.882 -0.673726 -0.00517474
  105 376.830 -2.15046 -0.813629
  106 398.959 -4.71440 -0.402870
  107 424.291 -6.30048 0.246068
  108 452.033 -7.69519 0.249719
  109 479.533 -8.34017 1.19375
  110 505.227 -7.21932 1.49722
  111 530.504 -6.31344 1.52365
  112 551.369 -3.59472 1.11831
  113 573.722 -1.64723 1.11882
  114 512.044 -54.0797 -18.2943
  115 517.644 -53.8927 14.0781
  116 549.835 78.0941 -25.5766
  117 437.213 -36.7855 -108.838
  118 424.554 -34.1524 110.988
  119 590.116 55.8343 49.0890
  120 616.532 16.8243 -37.4449
  121 441.342 -19.1210 -12.8872
  122 439.148 -20.2163 13.2773
  123 675.383 148.021 1.52264
  124 520.876 -24.0311 12.2432
  125 524.865 -22.7507 -14.2760
  126 538.562 -11.9880 -47.9683
  127 370.180 -30.4488 59.9568
  128 369.558 -30.7297 -62.8588
  129 540.815 -18.9900 42.8553
  130 728.621 163.936 9.83189
  131 197.393 45.7612 -118.637
  132 190.937 46.6327 116.894
  133 645.274 1.54907 -9.82838
  134 753.789 171.535 -25.3447
  135 506.213 34.7837 28.3440
  136 498.526 -13.9959 1.03331
  137 501.098 -13.0220 -1.36179
  138 640.510 -6.89047 75.0811
  139 371.626 -15.2096 -27.5551
  140 371.751 -15.1467 26.4514
  141 491.417 33.6438 -187.412
  142 856.632 118.490 16.6051
  143 510.392 18.1334 -42.4771
  144 385.592 -5.17564 -7.93925
  145 385.525 -5.15346 7.98492
  146 442.820 -36.2976 28.6405
  147 451.074 -38.0350 -28.4424
  148 267.459 -16.5777 -86.6507
  149 266.436 -13.2906 87.8514
  150 566.117 86.4993 27.7763
  151 558.447 -53.7458 28.6324
  152 563.600 -31.4641 -32.3378
  153 579.280 -34.3417 19.4237
  154 533.552 -36.5668 -21.9883
  155 558.112 26.5223 -54.4266
  156 496.974 43.2086 204.472
  157 38.6311 31.9177 21.1263
  158 34.0404 26.7435 -16.4759
  159 494.083 31.4183 -11.4008
  160 533.157 11.9670 51.0260
  161 546.240 -7.67539 7.79410
  162 541.888 -8.88826 -7.85011
  163 506.366 -37.8418 1.84266
  164 537.576 -12.7414 -28.0169
  165 614.428 101.780 -35.8264
  166 490.018 -31.8731 2.77578
  167 467.069 -53.0748 58.4556
  168 441.501 -10.3602 -4.02832
  169 442.007 -10.3144 4.15728
  170 539.771 -11.8293 26.0273
  171 470.315 -52.7644 -56.2271
  172 552.612 -51.8005 -42.6059
  173 625.894 111.176 31.4960
  174 491.714 -26.2238 -0.224443
  175 731.095 89.1349 -60.2182
  176 135.254 8.76618 -68.0642
  177 131.581 8.11621 66.3993
  178 900.082 172.267 91.7881
  179 762.375 142.603 32.7031
  180 927.608 107.596 -58.8016
  181 535.779 -7.29102 2.55817
  182 535.178 -7.15132 -2.60528
  183 331.100 -10.2197 -33.9290
  184 331.135 -10.3514 34.0375
  185 268.035 -9.69730 -53.1922
  186 269.881 -9.76026 54.0792
  187 160.570 116.174 -148.577
  188 518.168 -2.79821 39.3365
  189 544.099 -40.0597 22.3785
  190 360.487 -4.41084 -12.3525
  191 359.880 -4.66666 12.4606
  192 81.3934 82.0234 87.4461
  193 508.616 0.903995 -38.0752
  194 534.862 -28.0306 27.5063
  195 489.235 8.09898 33.7254
  196 548.593 -33.1105 -101.926
  197 548.854 -8.96523 -15.3862
  198 499.476 -44.0618 7.62011
  199 600.068 119.825 -16.7008
  200 558.394 -17.0993 46.1511
  201 378.091 -34.9977 -88.3538
  202 280.908 -1.33184 -116.094
  203 274.672 0.456472 116.186
  204 541.774 45.8376 42.5063
  205 394.203 0.857831 152.143
  206 525.776 59.2884 8.23986
  207 665.261 77.1009 -23.5631
  208 550.214 -8.79112 13.6598
  209 378.223 -34.4706 88.8840
  210 477.466 -20.7726 3.44744
  211 888.984 224.334 -114.625
  212 665.193 87.8613 26.5132
  213 392.593 -27.7544 -39.0774
  214 390.648 -25.9826 38.5585
  215 61.6133 20.0956 -37.4014
  216 70.1004 20.4601 42.6598
  217 442.874 -44.8386 44.6916
  218 468.246 -16.9897 -4.77095
  219 472.023 -9.74245 -1.08421
  220 476.838 -9.74377 0.935779
  221 443.938 -43.4177 -44.9182
  222 465.806 -31.3245 -12.5000
  223 547.553 -47.6126 75.7370
  224 666.192 144.891 -8.30013
  225 770.258 152.053 -14.5223
  226 616.186 18.0316 35.2597
  227 514.850 -17.3960 7.10473
  228 382.210 4.15691 -154.720
  229 424.120 -26.0563 23.3912
  230 510.112 -19.9001 -5.54305
  231 614.552 -26.9441 13.2234
  232 530.788 42.3009 -41.1235
  233 586.861 -30.6164 -18.8725
  234 462.677 18.2665 8.16558
  235 398.217 -13.1365 -17.5428
  236 580.626 1.44853 -47.6261
  237 332.510 -4.74633 -17.4126
  238 332.201 -4.65459 16.9157
  239 358.314 -0.502557 -2.34087
  240 358.326 -0.477205 2.31048
  241 533.791 5.97218 -52.2197
  242 395.184 -13.0242 18.4597
  243 420.994 -25.4120 -24.7673
  244 193.405 142.950 192.438
  245 33.1101 41.5247 -29.3923
  246 977.146 74.0703 21.4696
  247 462.028 8.46900 -18.1543
  248 516.228 -34.9763 -9.23852
  249 524.476 120.570 -257.318
  250 540.801 -44.2204 -15.8812
  251 280.438 -8.70326 -35.1426
  252 280.797 -8.98386 35.4215
  253 537.360 -22.3054 -35.4337
  254 555.033 -7.83619 -50.7709
  255 407.305 -5.98899 -3.66085
  256 407.302 -6.02556 3.55976
  257 565.623 -3.76471 -2.95208
  258 566.102 -3.14194 2.92824
  259 526.457 -4.70581 -28.4245
  260 733.818 87.8838 160.485
  261 490.511 -47.0532 -15.1541
  262 418.104 -11.5413 -9.63377
  263 416.214 -11.7480 10.0443
  264 0.210641 -0.464065 -10.6688
  265 -1.74976 1.30712 11.2248
  266 153.448 -4.06535 -54.6001
  267 152.554 -3.46436 54.2450
  268 351.024 -2.20505 5.42197
  269 350.981 -2.22921 -5.49127
  270 526.415 -5.90160 26.9299
  271 608.687 125.624 11.6942
  272 551.817 -51.4455 -0.221900
  273 567.158 67.1557 -45.3212
  274 546.867 -28.7253 -37.6046
  275 594.243 -34.5730 0.752571
  276 215.660 -4.70478 50.6330
  277 214.129 -5.00467 -49.8802
  278 549.242 -52.2167 -11.5332
  279 478.796 -54.2303 72.5039
  280 507.705 -8.22782 0.424910
  281 508.218 -7.90007 -0.385119
  282 564.378 -2.82864 -1.44553
  283 564.460 -3.18655 1.53583
  284 262.305 72.0734 172.712
  285 589.265 47.3590 -51.2782
  286 527.141 -44.7787 7.86380
  287 669.532 138.243 13.8366
  288 487.065 5.04303 -31.1076
  289 469.918 -14.0241 2.92628
  290 645.318 103.293 -32.4792
  291 524.645 -8.57449 142.308
  292 566.357 100.070 0.247674
  293 478.334 -51.5507 -75.6338
  294 509.344 -57.9640 34.1120
  295 486.227 -47.8261 20.0236
  296 749.297 152.566 13.9938
  297 461.397 -31.1361 15.6024
  298 562.221 -4.32947 -7.50510
  299 530.790 -27.1566 -22.5814
  300 888.252 249.903 113.454
  301 583.375 0.480440 45.7656
  302 552.903 -4.12839 -13.0164
  303 579.120 78.2450 40.7283
  304 619.155 -0.364263 -112.989
  305 556.372 16.2892 54.4194
  306 19.4174 22.5576 11.9451
  307 335.381 -24.8402 72.0225
  308 527.548 -9.71165 4.09218
  309 525.817 -10.7910 -4.51288
  310 525.300 54.9410 -24.1000
  311 322.971 -21.4328 -69.5781
  312 343.582 -27.3982 -99.3039
  313 538.767 -12.6645 11.4475
  314 509.794 -29.4275 7.01977
  315 532.047 -2.66317 49.8900
  316 767.519 157.816 -183.737
  317 536.298 -18.8705 33.4496
  318 533.721 -14.3054 -11.6172
  319 561.765 -3.80893 7.50245
  320 338.212 -3.36622 11.7662
  321 338.481 -3.73349 -11.9365
  322 95.1454 57.9295 -76.0699
  323 456.507 14.1648 -6.76689
  324 538.317 -16.5244 21.9267
  325 727.095 132.515 -6.26798
  326 540.298 67.5479 28.5164
  327 290.720 55.6713 -172.849
  328 335.947 -20.8388 99.9591
  329 505.665 30.2398 -31.5561
  330 551.276 -4.87377 14.1590
  331 534.123 -14.3786 -39.7351
  332 14.2710 9.54782 -2.75842
  333 103.542 49.9913 70.3958
  334 402.965 -42.3920 71.4622
  335 -2.17863 10.1682 2.01372
  336 -1.08728 11.0736 -1.63345
  337 564.849 237.014 279.822
  338 532.240 -12.5951 40.0287
  339 1078.89 115.777 -135.743
  340 522.846 30.7977 43.5570
  341 620.741 64.3685 39.9922
  342 449.075 -14.4045 7.08668
  343 464.462 8.50435 19.4648
  344 411.381 -45.2145 -67.7900
  345 513.363 -24.9255 -8.36812
  346 468.655 -25.6991 8.17823
  347 538.091 -15.4849 -22.6761
  348 518.774 -57.2648 -45.4759
  349 604.303 -32.9161 -27.3703
  350 497.313 37.8372 8.76501
  351 548.945 -47.0973 13.0450
  352 690.372 52.0195 13.0038
  353 312.972 -15.2735 52.0734
  354 494.760 -19.0374 1.33562
  355 479.587 -52.7235 -39.0668
  356 787.375 192.131 44.5599
  357 587.092 97.6982 -32.9478
  358 384.146 -7.80658 13.1475
  359 384.844 -8.45531 -13.3864
  360 310.831 -14.7672 -52.8623
  361 191.593 177.174 -198.813
  362 454.881 -8.61605 -2.37509
  363 456.204 -9.08515 2.03600
  364 296.635 -2.95134 -18.2080
  365 296.573 -3.01116 18.4009
  366 1008.19 38.8782 -19.9731
  367 1021.13 70.0053 63.8594
  368 484.144 -38.8051 -10.9125
  369 640.234 23.5370 148.551
  370 238.953 -1.38972 92.9509
  371 239.183 -2.95674 -93.3518
  372 481.707 -30.7245 115.882
  373 492.019 4.03080 31.9578
  374 514.208 5.87868 44.8035
  375 470.345 -54.1823 45.6511
  376 141.953 28.6753 -81.3724
  377 140.466 23.1530 78.2911
  378 68.5584 4.68901 -34.2452
  379 68.8982 3.96101 34.5730
  380 512.084 -46.1473 -87.3889
  381 384.952 -3.10438 -3.33946
  382 384.958 -3.05999 3.32593
  383 756.960 144.074 -1.29509
  384 466.891 -24.9542 -8.34625
  385 489.293 -12.0930 -145.277
  386 522.255 -48.0745 -0.732202
  387 715.346 131.708 0.436965
  388 628.808 54.9089 -39.9070
  389 540.119 -30.4474 32.8739
  390 359.869 -8.59988 -20.2127
  391 358.828 -7.71548 19.2018
  392 469.598 -12.0870 -2.61200
  393 441.043 -14.7003 -9.01189
  394 346.323 -20.1630 47.6734
  395 345.870 -20.1181 -48.5236
  396 44.3448 68.9580 -56.4297
  397 537.648 25.1146 -50.6126
  398 416.191 -28.4358 31.0498
  399 654.979 50.1647 -159.152
  400 523.533 -34.6384 14.2859
  401 72.3659 92.9460 93.1701
  402 527.878 -4.69362 -47.3203
  403 342.715 -1.99285 6.98789
  404 342.598 -1.89775 -7.01766
  405 542.761 -4.92385 1.08629
  406 542.579 -4.66698 -0.938266
  407 560.619 -34.8527 28.8782
  408 268.344 -15.0826 -70.9378
  409 563.931 -3.08788 -8.27059
  410 272.302 -15.5937 71.4783
  411 646.826 14.3943 -7.08774
  412 549.275 -26.5581 39.7198
  413 486.738 -31.9439 -4.10826
  414 852.992 185.669 -75.5026
  415 535.743 -20.4502 27.1081
  416 851.073 156.191 52.1134
  417 643.887 135.707 13.3466
  418 253.032 -5.20749 -31.9295
  419 253.209 -4.99412 32.4696
  420 103.809 -0.974165 -39.1532
  421 102.495 -0.922534 38.3829
  422 538.469 -4.68623 -19.9867
  423 1070.98 151.069 137.708
  424 286.322 18.9996 137.305
  425 360.324 -16.4295 -33.0279
  426 359.838 -16.3994 33.3343
  427 393.219 -33.0223 49.2206
  428 322.386 97.6892 -224.390
  429 638.988 138.448 -7.46573
  430 394.975 -32.5799 -49.8893
  431 574.715 -2.40507 -3.09257
  432 598.374 108.068 28.5960
  433 621.745 123.431 -22.0590
  434 422.286 -30.2159 -31.2955
  435 786.246 185.599 -42.7901
  436 430.811 -45.6294 91.3211
  437 671.617 12.6776 -38.1639
  438 454.879 -31.2296 -125.515
  439 510.670 7.22276 -44.0222
  440 475.296 -47.5136 -27.8095
  441 927.135 86.9445 -16.6891
  442 915.014 109.013 55.6001
  443 532.799 -37.7475 19.7231
  444 2.32978 8.73116 -9.07696
  445 3.66569 9.33987 9.04428
  446 693.292 139.988 8.71957
  447 515.265 -2.16195 24.9324
  448 467.843 -40.0096 19.8254
  449 370.305 -14.4219 131.113
  450 2.47618 -10.4917 -8.79758
  451 409.107 -37.5913 -96.5377
  452 519.755 -41.0728 -8.28837
  453 514.680 -9.63053 2.61417
  454 514.580 -9.18868 -1.93298
  455 222.163 20.5013 -114.928
  456 538.233 -3.86831 18.8888
  457 77.7782 35.6444 -49.1464
  458 26.0145 29.8421 28.5636
  459 211.621 -1.51969 -29.1406
  460 210.982 -1.20775 29.2181
  461 1137.71 267.472 -211.370
  462 511.284 -1.45215 -25.8666
  463 523.835 -14.8259 -7.69181
  464 509.415 -22.2247 6.01901
  465 495.151 20.1847 32.9670
  466 548.554 -1.87067 52.7944
  467 487.437 -8.83468 -0.116822
  468 489.283 -8.69375 -0.169538
  469 192.561 13.4345 92.1058
  470 412.698 -13.4117 13.7728
  471 641.311 33.7859 24.6625
  472 602.341 -34.9546 50.0465
  473 701.304 149.506 0.0685047
  474 575.819 -1.78949 3.08436
  475 494.812 -25.2052 -0.685315
  476 431.359 -7.24901 -2.42998
  477 431.119 -7.01199 2.26993
  478 156.968 71.9398 119.045
  479 496.707 -18.4268 -1.29208
  480 71.1291 37.6865 44.4720
  481 156.383 73.9434 -117.549
  482 542.200 77.0583 -7.82049
  483 444.176 -24.9226 -16.0013
  484 407.351 -8.15599 -7.49352
  485 407.646 -7.91463 7.61456
  486 566.826 -48.9776 -8.95365
  487 564.858 -3.70541 8.22407
  488 722.736 55.9857 72.5722
  489 558.162 67.1478 40.0159
  490 450.134 -34.3166 -21.8078
  491 551.195 86.9676 11.1892
  492 7.80335 -14.9857 -3.76954
  493 159.744 180.138 191.191
  494 563.379 46.3879 49.7463
  495 415.316 -13.4531 -12.7540
  496 489.321 0.939080 -21.9994
  497 388.503 31.7345 177.590
  498 502.561 -38.0415 -0.133581
  499 578.481 -47.8235 37.0880
  500 543.708 -10.5451 -12.0924
  501 849.642 129.775 -20.6864
  502 152.546 -0.241645 -34.5661
  503 152.772 0.0243517 35.1273
  504 546.763 -5.68881 -4.55625
  505 544.851 -6.16645 4.68820
  506 317.606 -21.4981 87.0908
  507 393.889 -16.5050 -22.9945
  508 371.496 -10.8983 -131.224
  509 327.393 -25.6332 -83.7758
  510 308.264 -2.33951 -12.5642
  511 308.141 -2.41920 12.4713
  512 532.129 -49.9235 2.93514
  513 400.362 -19.2830 25.1995
  514 564.775 6.41937 -53.2016
  515 419.451 -19.9933 19.0199
  516 442.327 -46.1349 55.8858
  517 677.277 54.1401 0.0323076
  518 272.557 -0.922301 -18.0818
  519 272.624 -0.994864 18.3277
  520 679.822 143.363 -11.1588
  521 595.934 -5.26604 -36.0784
  522 596.035 -9.81114 31.3821
  523 539.997 -29.7110 -32.7387
  524 424.901 -35.9910 38.7313
  525 1041.33 60.2429 -68.0857
  526 588.874 -40.1358 5.82771
  527 455.788 4.86129 -17.6125
  528 456.357 -18.6762 7.47136
  529 547.880 63.6328 -37.2423
  530 882.335 266.669 180.565
  531 529.249 -12.5614 7.94144
  532 490.697 -10.9107 -0.426321
  533 495.351 -9.84043 -0.201374
  534 553.634 -43.7455 -16.9162
  535 442.025 -25.7328 16.8133
  536 344.756 0.145505 -3.16357
  537 344.791 0.154823 3.12152
  538 444.342 -47.7259 -54.3700
  539 571.906 98.1134 -18.1882
  540 534.619 -16.2736 -15.7990
  541 462.142 4.09343 20.6296
  542 535.544 -20.9778 -28.2885
  543 347.977 0.103654 -0.711896
  544 347.979 0.115693 0.697129
  545 615.400 -24.9307 -56.7673
  546 429.939 -38.3316 -39.3834
  547 613.824 -9.41481 -18.5953
  548 565.598 -35.4327 92.4114
  549 548.229 -9.03198 10.8257
  550 577.726 -2.08870 1.58590
  551 577.637 -1.91324 -1.36859
  552 519.602 -56.8070 -29.2692
  553 533.791 -54.8057 59.1231
  554 318.289 -1.58476 -8.24727
  555 318.127 -1.57478 8.18335
  556 486.375 -48.3629 88.1442
  557 551.096 44.4662 -48.2638
  558 424.196 -44.5093 -78.7736
  559 544.228 30.9357 52.2593
  560 518.904 -57.7178 47.4413
  561 431.499 5.16549 7.50392
  562 463.664 -11.8073 2.99139
  563 567.092 -14.1269 -45.1211
  564 707.559 150.371 -1.25098
  565 578.241 -21.8592 -34.9727
  566 443.144 -32.1393 23.6833
  567 365.612 -4.01865 9.28752
  568 365.669 -4.07669 -9.41460
  569 513.876 -14.3642 3.36023
  570 418.794 -19.2181 -18.5652
  571 533.024 -9.33599 31.7563
  572 568.603 -40.0029 -17.9752
  573 484.068 -14.5144 -1.26263
  574 861.253 264.357 -127.479
  575 488.609 11.8078 -31.4004
  576 727.935 156.800 -9.65551
  577 436.030 4.31912 -11.7643
  578 524.477 -18.6652 10.2804
  579 157.227 100.988 150.544
  580 518.194 49.0695 22.8618
  581 287.603 21.6132 -139.336
  582 567.587 -48.0173 1.98419
  583 526.075 -6.07690 -38.6499
  584 588.770 72.4780 -46.1752
  585 -4.32099 -5.10097 -9.36515
  586 -5.49162 -4.48963 9.44479
  587 369.659 -2.67177 -5.44240
  588 369.662 -2.63173 5.39755
  589 551.235 -36.1217 -29.3871
  590 555.865 -23.8546 -41.5855
  591 56.2094 52.3060 48.7750
  592 525.024 45.5272 34.7057
  593 475.477 -22.1969 -3.97028
  594 470.553 -8.38627 0.273687
  595 469.412 -8.30268 -0.664461
  596 485.245 22.5181 21.8577
  597 1033.28 24.0371 14.7814
  598 394.931 -22.4057 -31.0813
  599 427.322 6.27676 1.72701
  600 548.683 9.11544 -54.5519
  601 430.550 -49.1778 80.2473
  602 16.4679 5.75512 19.4291
  603 14.8446 4.78022 -18.3270
  604 577.016 25.9213 -53.2140
  605 514.205 53.7287 -6.17706
  606 541.140 -37.9043 -26.0853
  607 327.327 -6.69092 -24.6947
  608 326.759 -7.19779 24.6900
  609 554.256 -3.62220 2.49843
  610 554.056 -3.62667 -2.64120
  611 543.155 -5.33925 -51.9921
  612 529.117 -24.9887 19.4708
  613 388.416 -21.4295 32.5321
  614 35.0343 25.2795 -20.2511
  615 527.462 321.768 -317.950
  616 544.526 -10.0038 19.8730
  617 542.806 -9.39934 -21.3993
  618 428.404 21.2756 -176.805
  619 511.939 -15.1435 -4.38425
  620 461.263 -43.1909 30.1382
  621 597.508 121.253 -0.512671
  622 211.132 -8.39563 -64.9214
  623 212.928 -8.35739 65.4502
  624 649.267 109.214 28.3371
  625 526.304 -34.1415 -17.5590
  626 476.400 26.4572 0.00309720
  627 511.432 -48.9553 -7.92253
  628 297.434 -7.70858 30.4737
  629 297.254 -7.65406 -30.1008
  630 379.642 -9.33900 -17.3868
  631 364.809 -0.992310 -2.36274
  632 364.817 -0.962097 2.34701
  633 522.722 -19.6076 -10.2610
  634 580.405 -1.10385 -0.804765
  635 580.246 -1.23815 1.04670
  636 682.852 129.696 -17.0954
  637 326.253 100.885 210.413
  638 623.295 -7.62852 13.0692
  639 280.548 44.9367 154.200
  640 127.034 35.3200 76.4727
  641 636.680 28.9442 -29.3928
  642 537.970 -50.7998 -1.70155
  643 390.630 -5.06642 -6.04209
  644 390.742 -4.99187 6.05894
  645 520.716 -5.94358 -0.433177
  646 521.114 -6.07655 0.530792
  647 412.180 -41.7002 -58.3242
  648 194.367 9.44393 -93.1113
  649 324.933 -1.59873 5.24991
  650 324.841 -1.68575 -5.17011
  651 1178.28 323.874 241.931
  652 609.907 69.4953 -46.0405
  653 546.674 -17.6073 -46.4564
  654 540.346 -19.8337 -42.0499
  655 571.213 47.0321 -52.2852
  656 351.303 -8.80245 -25.2172
  657 350.060 -9.36970 24.6464
  658 507.683 -44.2313 -2.41220
  659 4.12073 -13.7338 9.90416
  660 568.021 -1.02558 50.8694
  661 38.2137 23.8373 21.0137
  662 510.643 14.5295 42.6128
  663 86.9081 82.0692 -81.4591
  664 480.701 20.3366 -22.4352
  665 558.745 -4.30770 5.70963
  666 470.739 -41.7609 -21.1476
  667 532.750 -9.88548 -33.3104
  668 172.446 -1.03946 25.2757
  669 173.068 -0.879284 -25.3733
  670 644.086 127.083 -23.0831
  671 297.549 -15.3317 -106.488
  672 521.917 -28.6714 -14.1031
  673 459.143 -19.1808 -8.12174
  674 557.922 -5.16443 -5.44378
  675 600.679 85.6257 40.5995
  676 105.565 20.3583 -57.7487
  677 102.912 13.5287 57.2682
  678 544.199 -13.4129 48.6904
  679 481.093 -36.1223 9.64013
  680 534.646 -28.5102 -27.4014
  681 782.213 196.250 -49.3421
  682 632.041 135.700 4.66429
  683 464.671 -16.2900 4.72555
  684 598.820 22.8081 47.4192
  685 540.949 -56.7556 20.9903
  686 375.050 -8.91349 17.3779
  687 487.833 -52.4674 29.7953
  688 563.072 -2.81881 0.228581
  689 563.018 -3.02257 -0.177176
  690 787.723 173.984 43.5757
  691 315.009 -12.2938 41.4300
  692 46.0434 46.4877 -35.1849
  693 -12.6617 0.443945 10.7714
  694 -11.0769 0.778440 -11.1534
  695 276.576 -10.4945 45.3170
  696 136.711 51.5823 -88.4456
  697 11.2290 1.08001 -16.1462
  698 520.213 -41.7448 8.12213
  699 362.485 -22.1018 -116.047
  700 409.825 -41.4650 57.4403
  701 505.400 -31.7106 -4.06442
  702 7.33974 -14.6506 -2.90685
  703 599.936 28.8377 -47.5252
  704 539.037 -52.9991 -4.94024
  705 532.167 -43.6938 -14.6095
  706 522.841 15.7655 -48.1361
  707 314.419 -12.3562 -41.4792
  708 54.1413 93.2580 -86.6286
  709 521.154 28.7710 -44.8198
  710 -0.653159 -13.6966 -10.6961
  711 492.379 0.348121 20.8518
  712 275.675 -10.0395 -44.8181
  713 347.586 -19.8351 115.424
  714 482.417 -16.2920 1.73317
  715 402.391 -8.75218 -9.83366
  716 291.658 -11.9921 104.921
  717 173.774 1.34944 -72.4955
  718 171.218 0.927290 71.0889
  719 401.151 -8.32885 10.1329
  720 103.219 1.90348 -29.5232
  721 103.725 2.08201 29.3606
  722 433.544 -15.9146 11.1070
  723 522.387 -0.833854 -17.4988
  724 600.886 67.9476 221.437
  725 423.984 -7.89879 -5.48461
  726 423.757 -8.10701 5.32558
  727 535.911 -15.7567 -34.7280
  728 411.763 -5.29092 -2.81308
  729 411.663 -5.10853 2.73447
  730 525.598 -5.82445 34.4984
  731 533.794 -56.3290 12.8835
  732 432.619 -11.1550 7.02814
  733 45.5786 -1.15239 -20.0227
  734 45.8558 -1.68639 19.7417
  735 431.905 -9.98006 -6.64883
  736 10.8896 11.9817 -2.49538
  737 571.304 -42.4465 -64.6936
  738 644.049 -8.08382 25.0900
  739 202.466 28.9413 108.230
  740 337.273 0.0351874 3.51813
  741 337.192 0.0680402 -3.56202
  742 503.686 -51.2571 14.7612
  743 957.046 136.688 -109.917
  744 466.512 1.09726 -17.0300
  745 457.693 -10.8629 -3.22590
  746 404.173 147.487 254.968
  747 576.539 22.5073 53.0080
  748 523.782 -1.10398 16.8992
  749 582.632 -1.36323 -1.80042
  750 583.170 -1.65767 1.80828
  751 808.610 155.808 -36.3274
  752 580.126 104.603 13.6788
  753 451.962 -13.2760 -5.29064
  754 571.022 -2.60957 5.94984
  755 366.356 -20.9138 -41.7013
  756 524.872 -6.51243 2.03852
  757 524.649 -6.48780 -1.73248
  758 388.580 -32.2475 103.885
  759 540.684 -57.8072 -27.4423
  760 537.891 -22.0632 37.0319
  761 365.813 -20.5823 41.3607
  762 564.024 81.1309 -33.1377
  763 469.496 3.52499 17.9119
  764 373.471 -34.5757 -78.1451
  765 454.525 -12.9458 4.97337
  766 534.246 -10.1314 46.5693
  767 341.969 0.509464 -1.19718
  768 341.985 0.517069 1.17291
  769 11.1269 15.2925 1.00910
  770 380.884 -12.5564 21.8092
  771 482.167 -12.2777 1.26355
  772 531.700 -23.0234 -20.3232
  773 249.286 -1.06047 18.5953
  774 249.415 -1.09519 -18.3102
  775 575.555 -17.7016 39.3498
  776 533.323 -12.0385 -44.4443
  777 206.567 -8.45722 -75.1984
  778 207.277 -7.48219 74.7113
  779 558.350 -46.2221 7.99196
  780 532.770 -17.5109 15.9355
  781 804.802 155.181 81.6513
</Section>

newXOutput 31

<Section columns = "stress_xx | stress_yy | stress_xy">
  1 609.545 0.195414 0.716062
  2 609.756 0.120053 -0.687406
  3 353.435 -0.0585242 -0.519274
  4 -4.31280 -4.89804 -5.77657
  5 1072.04 454.787 358.503
  6 1020.35 412.653 -302.146
  7 -5.69718 -4.89357 6.61132
  8 353.443 -0.0650274 0.511393
  9 611.484 -0.776723 -0.184144
  10 611.874 -2.24235 1.32739
  11 610.117 -1.80689 0.783185
  12 600.840 -2.09208 3.23997
  13 596.491 -2.18362 3.87312
  14 585.998 -3.02634 6.55694
  15 568.183 -2.21461 10.3474
  16 547.042 -1.04846 12.1629
  17 522.209 0.627914 14.3350
  18 485.808 2.04318 11.9376
  19 462.548 4.69832 14.1451
  20 444.577 3.82569 10.6567
  21 422.088 4.79390 3.02640
  22 428.140 7.20185 -4.07211
  23 436.337 3.64528 -7.48998
  24 461.251 3.34096 -12.3355
  25 484.251 1.39302 -13.4064
  26 521.902 0.733720 -14.9575
  27 546.449 -1.65616 -13.0967
  28 570.051 -2.43810 -10.4568
  29 585.867 -2.11599 -7.33156
  30 593.785 -2.17677 -6.04218
  31 601.912 -2.97077 -2.19519
  32 610.137 -1.59497 -0.217695
  33 611.995 -1.96026 -1.15210
  34 611.740 -0.953887 0.272675
  35 591.964 -1.52989 -1.06584
  36 568.912 -3.55284 -1.15037
  37 547.384 -6.32464 -1.54604
  38 521.905 -7.81027 -1.69770
  39 496.050 -8.60432 -1.28932
  40 466.626 -7.88542 -0.327658
  41 438.091 -6.33344 -0.168986
  42 412.389 -4.78835 0.438009
  43 389.658 -2.16188 0.830552
  44 368.151 -0.662407 -0.000466670
  45 346.987 0.973172 0.0997405
  46 345.530 0.838555 1.58227
  47 342.586 0.215833 1.15948
  48 336.763 -0.549598 3.03514
  49 324.828 0.0563728 4.08986
  50 313.973 -0.830935 6.01872
  51 300.601 -0.627426 8.65417
  52 277.955 0.0456571 9.34176
  53 251.824 0.255490 10.8250
  54 226.287 -0.304077 16.9224
  55 178.088 1.13719 15.8113
  56 144.342 1.26637 18.4917
  57 97.5543 1.72698 16.8765
  58 54.3827 0.611402 18.7464
  59 10.6905 5.08072 19.0674
  60 -19.4173 6.04863 10.0397
  61 -30.8442 5.91351 0.153445
  62 -26.6864 4.59324 -9.64005
  63 -15.8678 -1.31168 -8.59253
  64 -1.58023 -16.0426 -8.07332
  65 1.13034 -30.4019 -10.5968
  66 4.24992 -47.3428 -5.49359
  67 13.8368 -45.4508 2.59824
  68 24.1561 4.90460 30.8584
  69 69.7619 116.932 102.173
  70 289.808 344.985 300.304
  71 1388.15 153.422 215.737
  72 1140.92 48.0535 72.9870
  73 1090.75 27.2156 29.0373
  74 1075.83 17.5830 -1.73478
  75 1087.46 22.9568 -26.1480
  76 1157.12 43.2652 -70.8305
  77 1327.68 126.563 -186.637
  78 232.904 391.466 -287.390
  79 57.6043 73.4816 -80.2713
  80 22.3055 5.63289 -32.1597
  81 6.82847 -44.5912 -5.60686
  82 4.32310 -36.3750 3.65323
  83 4.80116 -38.3881 8.69847
  84 0.466584 -14.5139 10.2632
  85 -17.0468 -1.07594 8.48329
  86 -28.0532 4.43648 9.40469
  87 -31.5494 5.86359 -0.373697
  88 -19.9354 5.67056 -9.90113
  89 9.77292 5.64838 -18.7702
  90 53.7156 0.780737 -19.0039
  91 97.2855 1.61429 -17.1542
  92 144.825 1.24548 -18.6186
  93 178.756 1.10208 -15.9285
  94 226.965 -0.452138 -16.7537
  95 252.134 0.254163 -10.6213
  96 277.923 0.150300 -9.23652
  97 300.646 -0.602330 -8.70086
  98 313.918 -0.838288 -6.00469
  99 324.796 0.0520733 -4.09640
  100 336.648 -0.532280 -3.01963
  101 342.492 0.221298 -1.18708
  102 345.492 0.833732 -1.60822
  103 346.982 0.966291 -0.114481
  104 368.146 -0.685118 -0.00954265
  105 389.648 -2.20549 -0.843896
  106 412.371 -4.85279 -0.425519
  107 438.393 -6.49468 0.240567
  108 466.894 -7.94602 0.237910
  109 495.146 -8.62298 1.21267
  110 521.536 -7.47909 1.52130
  111 547.485 -6.55025 1.55539
  112 568.890 -3.74381 1.14346
  113 591.807 -1.72632 1.14739
  114 528.533 -55.8252 -19.1746
  115 534.302 -55.6310 14.8331
  116 567.815 80.6299 -26.2482
  117 451.335 -38.0060 -112.566
  118 438.300 -35.2911 114.780
  119 609.144 57.6347 50.2768
  120 636.192 17.3831 -38.1601
  121 455.879 -19.7207 -13.4212
  122 453.622 -20.8501 13.8249
  123 697.103 152.663 1.52715
  124 537.673 -24.8193 12.4050
  125 541.777 -23.5002 -14.4980
  126 556.011 -12.3851 -49.1750
  127 382.506 -31.4268 62.0077
  128 381.855 -31.7205 -65.0066
  129 558.298 -19.6139 43.8966
  130 751.768 169.164 10.5514
  131 204.091 47.2343 -122.757
  132 197.418 48.1424 120.965
  133 665.613 1.67019 -10.6433
  134 777.663 176.990 -26.5282
  135 522.922 35.9524 29.1176
  136 514.665 -14.4641 0.950945
  137 517.308 -13.4595 -1.29031
  138 660.546 -6.97252 77.9190
  139 384.147 -15.6787 -28.5160
  140 384.280 -15.6138 27.3780
  141 506.871 34.8414 -193.663
  142 883.338 122.142 17.1500
  143 527.178 18.7460 -43.6297
  144 398.615 -5.32576 -8.23765
  145 398.546 -5.30286 8.28468
  146 457.342 -37.4488 29.7335
  147 465.827 -39.2441 -29.5395
  148 276.536 -17.1474 -89.6050
  149 275.483 -13.7551 90.8460
  150 584.573 89.2944 28.4839
  151 576.238 -55.4776 29.9101
  152 581.681 -32.4906 -32.9761
  153 597.778 -35.4529 19.6247
  154 550.740 -37.7560 -22.3697
  155 576.200 27.3823 -55.8248
  156 512.589 44.7669 211.255
  157 40.0849 33.0437 22.0308
  158 35.3524 27.6869 -17.2064
  159 510.466 32.4874 -11.7146
  160 550.538 12.3635 52.3704
  161 563.694 -7.95348 7.91517
  162 559.223 -9.20510 -7.96850
  163 522.740 -39.0612 1.64338
  164 554.930 -13.1688 -28.6789
  165 634.256 105.048 -36.6262
  166 505.922 -32.8944 3.07772
  167 482.185 -54.7946 60.5684
  168 456.068 -10.6861 -4.21506
  169 456.588 -10.6407 4.34835
  170 557.174 -12.2293 26.6363
  171 485.530 -54.4742 -58.2704
  172 570.208 -53.4680 -44.3256
  173 646.062 114.734 32.1561
  174 507.670 -27.0670 -0.421623
  175 753.828 92.2540 -62.7389
  176 140.084 9.02844 -70.4625
  177 136.288 8.35851 68.7456
  178 927.957 177.645 94.7538
  179 786.202 147.367 34.4058
  180 956.139 110.924 -60.6355
  181 552.914 -7.55940 2.56693
  182 552.297 -7.41599 -2.61613
  183 342.389 -10.5332 -35.0775
  184 342.426 -10.6690 35.1894
  185 277.298 -10.0104 -54.9782
  186 279.199 -10.0758 55.8953
  187 165.944 120.168 -153.723
  188 535.106 -2.88609 40.3690
  189 561.592 -41.3628 22.7401
  190 372.776 -4.53651 -12.7944
  191 372.154 -4.79995 12.9045
  192 84.2501 84.9392 90.6457
  193 525.320 0.939456 -39.0902
  194 552.105 -28.9484 28.0819
  195 505.453 8.39347 34.6499
  196 565.939 -34.1438 -105.513
  197 566.442 -9.27982 -15.7130
  198 515.634 -45.4764 8.12470
  199 619.560 123.645 -17.0938
  200 576.379 -17.6632 47.2435
  201 390.537 -36.1544 -91.3768
  202 290.289 -1.42842 -120.058
  203 283.861 0.420389 120.156
  204 559.467 47.3386 43.6257
  205 406.929 0.866864 157.278
  206 543.064 61.2454 8.46263
  207 686.383 79.6341 -23.7787
  208 567.829 -9.10062 13.9418
  209 390.675 -35.6105 91.9185
  210 493.021 -21.4403 3.70691
  211 916.531 231.423 -118.437
  212 686.349 90.7369 26.8436
  213 405.658 -28.6297 -40.4490
  214 403.660 -26.8022 39.9090
  215 63.9552 20.7600 -38.8062
  216 72.7166 21.1340 44.2447
  217 457.347 -46.2763 46.3166
  218 483.546 -17.5337 -5.04134
  219 487.432 -10.0646 -1.17574
  220 492.379 -10.0684 1.02439
  221 458.436 -44.8089 -46.5509
  222 481.015 -32.3186 -13.0837
  223 564.937 -49.1318 78.4913
  224 687.619 149.468 -8.34401
  225 794.653 156.790 -15.1264
  226 635.839 18.6301 35.9155
  227 531.456 -17.9746 7.15563
  228 394.566 4.26707 -159.936
  229 438.139 -26.8720 24.2693
  230 526.586 -20.5552 -5.53955
  231 633.988 -27.7696 14.1016
  232 548.168 43.6953 -42.2237
  233 605.576 -31.6035 -19.0464
  234 478.203 18.9061 8.39313
  235 411.542 -13.5398 -18.1850
  236 599.272 1.48985 -48.7299
  237 343.950 -4.88485 -18.0076
  238 343.632 -4.79062 17.4958
  239 370.629 -0.507619 -2.42983
  240 370.641 -0.481498 2.39861
  241 551.174 6.17365 -53.5937
  242 408.421 -13.4232 19.1306
  243 434.923 -26.2070 -25.6880
  244 199.804 147.834 198.990
  245 34.3322 43.1419 -30.6162
  246 1006.89 76.3462 22.1088
  247 477.531 8.78888 -18.6603
  248 532.891 -36.1087 -9.26507
  249 540.665 124.823 -265.687
  250 558.181 -45.6551 -16.0394
  251 290.178 -8.97509 -36.3180
  252 290.547 -9.26543 36.6055
  253 554.708 -23.0409 -36.2572
  254 572.953 -8.09933 -52.0233
  255 420.937 -6.16745 -3.81224
  256 420.934 -6.20516 3.70817
  257 583.540 -3.91702 -2.98632
  258 584.031 -3.27474 2.96335
  259 543.588 -4.86641 -29.1520
  260 756.218 91.2648 166.080
  261 506.404 -48.5612 -15.8886
  262 432.012 -11.8969 -10.0159
  263 430.070 -12.1095 10.4386
  264 0.277912 -0.427608 -10.9555
  265 -1.74501 1.39259 11.5294
  266 158.977 -4.21424 -56.4853
  267 158.053 -3.59323 56.1203
  268 363.106 -2.26242 5.62022
  269 363.061 -2.28719 -5.69155
  270 543.547 -6.09532 27.6168
  271 628.438 129.618 11.9517
  272 569.478 -53.1103 0.136344
  273 585.588 69.3276 -46.4828
  274 564.485 -29.6656 -38.4478
  275 613.127 -35.6760 0.342467
  276 223.267 -4.86100 52.3433
  277 221.688 -5.17081 -51.5645
  278 566.806 -53.9068 -12.2586
  279 494.218 -55.9937 75.0872
  280 524.084 -8.52015 0.391333
  281 524.610 -8.18307 -0.351744
  282 582.236 -2.95218 -1.46220
  283 582.320 -3.32025 1.55459
  284 270.934 74.4355 178.567
  285 608.256 48.8874 -52.5224
  286 544.112 -46.2274 7.79888
  287 691.012 142.640 13.9494
  288 503.219 5.22366 -31.9569
  289 485.267 -14.4778 3.12043
  290 665.998 106.621 -33.0785
  291 541.213 -8.77607 147.164
  292 584.852 103.294 0.254957
  293 493.732 -53.2300 -78.3211
  294 525.726 -59.8359 35.4920
  295 501.984 -49.3600 20.9093
  296 773.090 157.348 14.6224
  297 476.476 -32.1236 16.2813
  298 580.114 -4.48998 -7.64965
  299 547.898 -28.0468 -23.0197
  300 915.739 257.923 117.441
  301 602.094 0.489219 46.8064
  302 570.648 -4.27233 -13.3200
  303 597.904 80.7665 41.7413
  304 638.485 -0.226496 -116.987
  305 574.393 16.8159 55.8117
  306 20.1599 23.4784 12.5285
  307 346.620 -25.6520 74.4654
  308 544.477 -10.0549 4.11318
  309 542.703 -11.1668 -4.53903
  310 542.561 56.7527 -24.7490
  311 333.846 -22.1327 -71.9341
  312 354.960 -28.3233 -102.683
  313 556.042 -13.0978 11.6421
  314 526.271 -30.3819 7.00558
  315 549.361 -2.74857 51.1851
  316 790.710 163.485 -190.077
  317 553.625 -19.4917 34.2377
  318 550.857 -14.7896 -11.8094
  319 579.640 -3.95762 7.64651
  320 349.866 -3.45977 12.1722
  321 350.143 -3.83812 -12.3478
  322 98.5114 59.8905 -78.8550
  323 471.867 14.6650 -6.95663
  324 555.643 -17.0798 22.3959
  325 750.041 136.862 -7.03229
  326 557.987 69.7512 29.2745
  327 300.233 57.4850 -178.685
  328 347.090 -21.5542 103.356
  329 522.351 31.2588 -32.4158
  330 568.971 -5.04406 14.4867
  331 551.426 -14.8529 -40.7186
  332 14.8152 10.0224 -3.00452
  333 107.187 51.6824 72.9776
  334 416.209 -43.7705 73.9294
  335 -2.12489 10.5363 1.98872
  336 -1.00115 11.4728 -1.59177
  337 581.785 245.355 288.865
  338 549.502 -13.0119 41.0293
  339 1111.30 119.296 -139.725
  340 539.985 31.8171 44.7286
  341 640.639 66.4575 40.8329
  342 463.841 -14.8593 7.41700
  343 480.029 8.81578 20.0051
  344 424.878 -46.6807 -70.1453
  345 529.939 -25.7384 -8.41532
  346 483.953 -26.5164 8.61042
  347 555.415 -16.0042 -23.1709
  348 535.395 -59.1186 -47.2334
  349 623.413 -33.9428 -28.6781
  350 513.788 39.1122 9.00652
  351 566.557 -48.6242 13.0964
  352 712.038 53.8372 13.9977
  353 323.625 -15.7606 53.8322
  354 510.800 -19.6586 1.22419
  355 495.111 -54.4222 -40.5667
  356 812.151 198.296 46.4228
  357 606.150 100.834 -33.7514
  358 397.106 -8.03792 13.6252
  359 397.823 -8.70655 -13.8719
  360 321.420 -15.2387 -54.6451
  361 197.649 183.532 -205.477
  362 469.820 -8.89541 -2.48889
  363 471.179 -9.37891 2.14106
  364 306.967 -3.03918 -18.8161
  365 306.903 -3.10053 19.0150
  366 1038.67 40.0736 -20.5583
  367 1051.99 72.1463 65.7214
  368 499.868 -40.0453 -11.4855
  369 660.070 24.5432 153.642
  370 247.100 -1.47388 96.1405
  371 247.339 -3.09270 -96.5501
  372 497.100 -31.7232 119.868
  373 508.301 4.17664 32.8258
  374 531.068 6.08283 46.0035
  375 485.593 -55.9293 47.3494
  376 146.925 29.5936 -84.2571
  377 145.404 23.8877 81.0674
  378 71.2108 4.83678 -35.4894
  379 71.5599 4.08480 35.8279
  380 528.416 -47.6391 -90.4844
  381 397.983 -3.18893 -3.46037
  382 397.989 -3.14322 3.44647
  383 780.981 148.554 -1.35180
  384 482.143 -25.7467 -8.77573
  385 504.819 -12.4438 -150.204
  386 539.076 -49.6265 -0.444182
  387 737.975 136.016 1.01664
  388 648.900 56.7006 -40.6986
  389 557.532 -31.4436 33.5861
  390 372.098 -8.85674 -20.9171
  391 371.031 -7.94311 19.8706
  392 484.938 -12.4812 -2.78244
  393 455.584 -15.1625 -9.39980
  394 358.006 -20.7985 49.2964
  395 357.536 -20.7536 -50.1739
  396 45.9314 71.6091 -58.5808
  397 555.177 25.9396 -51.9497
  398 429.961 -29.3310 32.1778
  399 675.166 52.0920 -164.604
  400 540.416 -35.7635 14.4561
  401 74.8492 96.4726 96.5425
  402 545.073 -4.84393 -48.5521
  403 354.539 -2.04588 7.23376
  404 354.418 -1.94794 -7.26445
  405 560.065 -5.11924 1.09013
  406 559.878 -4.85512 -0.937934
  407 578.605 -35.9887 29.4116
  408 277.526 -15.5867 -73.3409
  409 581.915 -3.20198 -8.44814
  410 281.603 -16.1144 73.9013
  411 667.269 14.9276 -6.79508
  412 566.971 -27.4283 40.6241
  413 502.548 -32.9677 -4.45061
  414 879.618 191.512 -78.0550
  415 553.015 -21.1275 27.7056
  416 877.657 161.052 53.8497
  417 664.665 140.010 13.5792
  418 261.912 -5.36942 -32.9932
  419 262.093 -5.14951 33.5505
  420 107.694 -1.01934 -40.5334
  421 106.336 -0.965113 39.7385
  422 555.883 -4.85188 -20.4785
  423 1103.24 155.668 141.783
  424 295.804 19.5693 141.979
  425 372.489 -16.9377 -34.1663
  426 371.990 -16.9069 34.4807
  427 406.264 -34.0737 50.9301
  428 332.717 100.999 -231.855
  429 659.645 142.825 -7.61559
  430 408.064 -33.6178 -51.6233
  431 592.885 -2.49868 -3.14029
  432 617.778 111.526 29.2734
  433 641.854 127.363 -22.5273
  434 436.222 -31.1695 -32.4433
  435 810.868 191.674 -44.7589
  436 444.793 -47.1282 94.4751
  437 692.632 13.2170 -39.8944
  438 469.468 -32.2510 -129.802
  439 527.443 7.47404 -45.2042
  440 490.730 -49.0370 -28.9328
  441 955.644 89.6146 -17.2011
  442 943.248 112.366 57.3297
  443 549.959 -38.9749 20.0323
  444 2.63144 9.02116 -9.47638
  445 4.01017 9.65072 9.44315
  446 715.394 144.488 8.55509
  447 532.130 -2.23170 25.5842
  448 483.088 -41.2855 20.6677
  449 382.385 -14.9342 135.560
  450 2.58758 -10.7379 -9.00907
  451 422.446 -38.8375 -99.8487
  452 536.518 -42.4009 -8.26032
  453 531.255 -9.96794 2.60648
  454 531.150 -9.51299 -1.91300
  455 229.689 21.1221 -118.893
  456 555.648 -4.00553 19.3561
  457 80.5924 36.8467 -50.9975
  458 26.9510 31.1469 29.7339
  459 219.190 -1.56549 -30.1188
  460 218.530 -1.24316 30.1994
  461 1171.56 275.834 -217.684
  462 528.053 -1.49807 -26.5477
  463 540.686 -15.3280 -7.77488
  464 525.874 -22.9521 6.01066
  465 511.540 20.8745 33.8722
  466 566.316 -1.93544 54.1327
  467 503.266 -9.13734 -0.157074
  468 505.162 -8.99300 -0.138376
  469 199.203 13.8363 95.3072
  470 426.442 -13.8235 14.2983
  471 661.675 34.9218 24.9430
  472 621.336 -36.0273 52.0581
  473 723.767 154.197 0.159988
  474 594.014 -1.86612 3.13330
  475 510.856 -26.0186 -0.516426
  476 445.653 -7.47433 -2.53554
  477 445.406 -7.23037 2.37034
  478 162.317 74.3539 123.227
  479 512.800 -19.0297 -1.18098
  480 73.7225 38.9535 46.1615
  481 161.732 76.4063 -121.685
  482 559.971 79.5701 -8.02583
  483 458.775 -25.7067 -16.6603
  484 420.975 -8.40110 -7.78408
  485 421.279 -8.15267 7.90887
  486 584.905 -50.5604 -9.62939
  487 582.871 -3.83258 8.40440
  488 745.134 58.1072 75.4645
  489 576.345 69.3264 41.0542
  490 464.883 -35.4030 -22.6800
  491 569.230 89.7856 11.4807
  492 8.10031 -15.2373 -4.04400
  493 164.883 186.700 197.661
  494 581.656 47.8885 51.0171
  495 429.132 -13.8671 -13.2492
  496 505.536 0.974296 -22.5936
  497 400.981 32.8019 183.551
  498 518.822 -39.2644 0.111832
  499 596.825 -49.3463 38.6590
  500 561.123 -10.9127 -12.3178
  501 876.164 133.795 -21.3835
  502 158.141 -0.252029 -35.7448
  503 158.373 0.0223845 36.3253
  504 564.201 -5.90552 -4.61182
  505 562.242 -6.39986 4.74298
  506 328.251 -22.2198 90.0481
  507 407.065 -17.0143 -23.8199
  508 383.604 -11.2979 -135.672
  509 338.335 -26.4853 -86.6254
  510 318.999 -2.40805 -12.9850
  511 318.871 -2.49028 12.8896
  512 549.236 -51.5388 2.69615
  513 413.712 -19.8808 26.1059
  514 583.001 6.62137 -54.5207
  515 433.361 -20.6143 19.7387
  516 456.751 -47.6223 57.8769
  517 698.636 55.9995 -0.525968
  518 282.131 -0.945519 -18.6826
  519 282.198 -1.02044 18.9358
  520 701.589 147.923 -11.1572
  521 614.978 -5.43380 -36.7829
  522 615.063 -10.1263 31.9361
  523 557.403 -30.6832 -33.4510
  524 438.888 -37.1349 40.1314
  525 1072.70 62.0945 -70.0809
  526 607.587 -41.4189 6.43288
  527 471.127 5.03997 -18.1010
  528 471.319 -19.2680 7.84085
  529 565.771 65.7049 -38.2191
  530 908.992 275.653 186.891
  531 546.244 -12.9933 8.04396
  532 506.617 -11.2786 -0.518642
  533 511.399 -10.1779 -0.133711
  534 571.385 -45.1657 -17.0831
  535 456.562 -26.5432 17.4980
  536 356.696 0.156640 -3.27689
  537 356.732 0.166223 3.23366
  538 458.827 -49.2638 -56.3188
  539 590.554 101.273 -18.6512
  540 551.806 -16.8206 -16.0954
  541 477.648 4.24327 21.2014
  542 552.813 -21.6713 -28.9157
  543 360.031 0.114098 -0.740405
  544 360.034 0.126501 0.725237
  545 634.754 -25.6601 -59.0120
  546 444.066 -39.5522 -40.8127
  547 633.325 -9.69702 -18.7177
  548 583.458 -36.5195 95.7197
  549 565.763 -9.34954 11.0262
  550 595.924 -2.17396 1.60697
  551 595.832 -1.99429 -1.38395
  552 536.285 -58.6445 -30.5108
  553 550.814 -56.5746 61.3324
  554 329.367 -1.62893 -8.52642
  555 329.200 -1.61887 8.46085
  556 501.970 -49.9374 91.2398
  557 569.036 45.9164 -49.5231
  558 438.024 -45.9650 -81.5032
  559 561.945 31.9439 53.6331
  560 535.529 -59.5852 49.2624
  561 446.188 5.35987 7.71427
  562 478.841 -12.1890 3.15960
  563 585.326 -14.5937 -46.1647
  564 730.191 155.092 -1.46383
  565 596.756 -22.5725 -35.6709
  566 457.695 -33.1535 24.6022
  567 378.078 -4.13059 9.61967
  568 378.137 -4.19024 -9.75052
  569 530.440 -14.8493 3.33267
  570 432.685 -19.8155 -19.2685
  571 550.300 -9.65023 32.5433
  572 586.788 -41.3007 -18.1502
  573 499.808 -14.9891 -1.41454
  574 887.794 272.987 -132.097
  575 504.813 12.2270 -32.2629
  576 751.122 161.744 -10.2504
  577 450.840 4.48414 -12.0986
  578 541.364 -19.2858 10.4130
  579 162.537 104.417 155.768
  580 535.252 50.6980 23.4832
  581 297.126 22.2685 -144.076
  582 585.698 -49.5677 2.43820
  583 543.202 -6.27882 -39.6470
  584 607.808 74.8139 -47.3037
  585 -4.45200 -5.25919 -9.66525
  586 -5.65665 -4.62168 9.74063
  587 382.260 -2.74268 -5.64195
  588 382.263 -2.70139 5.59583
  589 568.950 -37.2995 -29.9543
  590 573.757 -24.6376 -42.5345
  591 58.2375 54.1718 50.6619
  592 542.257 47.0311 35.6382
  593 490.976 -22.9077 -4.25008
  594 485.922 -8.66685 0.311340
  595 484.749 -8.58083 -0.713219
  596 501.378 23.2946 22.4629
  597 1064.36 24.7798 15.2028
  598 408.100 -23.1044 -32.1824
  599 441.898 6.50745 1.77743
  600 566.472 9.40794 -55.9549
  601 444.565 -50.7857 83.0319
  602 17.3352 5.93964 20.1661
  603 15.6598 4.93243 -19.0273
  604 595.620 26.7565 -54.5223
  605 531.160 55.5105 -6.34432
  606 558.557 -39.1383 -26.5714
  607 338.569 -6.89120 -25.5318
  608 337.983 -7.41395 25.5269
  609 571.870 -3.77415 2.52451
  610 571.664 -3.77843 -2.67145
  611 560.758 -5.51665 -53.3188
  612 546.168 -25.8086 19.8310
  613 401.398 -22.0977 33.6747
  614 36.4148 26.1431 -21.0898
  615 543.114 333.007 -327.957
  616 562.026 -10.3484 20.3166
  617 560.284 -9.72339 -21.8935
  618 442.067 21.9633 -182.708
  619 528.456 -15.6508 -4.37563
  620 476.296 -44.5705 31.3114
  621 616.935 125.117 -0.521251
  622 218.514 -8.68555 -67.1332
  623 220.365 -8.64638 67.6808
  624 670.069 112.734 28.8136
  625 543.274 -35.2528 -17.8276
  626 492.301 27.3675 0.00357330
  627 527.926 -50.5310 -8.46547
  628 307.726 -7.94697 31.4931
  629 307.542 -7.89074 -31.1087
  630 392.449 -9.61875 -18.0087
  631 377.305 -1.01129 -2.44097
  632 377.314 -0.980179 2.42481
  633 539.558 -20.2589 -10.3878
  634 598.656 -1.16091 -0.818391
  635 598.494 -1.29914 1.06642
  636 704.625 133.873 -17.1558
  637 336.765 104.223 217.419
  638 643.058 -7.84303 13.0080
  639 289.786 46.3809 159.440
  640 131.483 36.4762 79.2228
  641 656.908 29.9110 -29.8215
  642 555.237 -52.4434 -1.41353
  643 403.804 -5.21154 -6.26734
  644 403.919 -5.13469 6.28479
  645 537.440 -6.17092 -0.421148
  646 537.848 -6.30756 0.521590
  647 425.730 -43.0436 -60.3614
  648 201.068 9.71052 -96.3438
  649 336.243 -1.64237 5.43189
  650 336.149 -1.73193 -5.34964
  651 1212.96 334.043 249.179
  652 629.517 71.7379 -47.0951
  653 564.332 -18.1875 -47.5851
  654 557.808 -20.4869 -43.0640
  655 589.704 48.5523 -53.6092
  656 363.250 -9.06664 -26.0847
  657 361.973 -9.65140 25.4951
  658 524.083 -45.6550 -2.76464
  659 4.29249 -14.1245 10.1734
  660 586.317 -1.06617 52.1045
  661 39.7024 24.6530 21.8790
  662 527.430 15.0251 43.7657
  663 89.9581 84.9119 -84.4433
  664 496.709 21.0443 -23.0599
  665 576.513 -4.47859 5.80328
  666 486.062 -43.0950 -22.0382
  667 550.018 -10.2158 -34.1395
  668 178.753 -1.07387 26.1291
  669 179.396 -0.908468 -26.2294
  670 664.817 131.140 -23.4912
  671 307.498 -15.8774 -110.109
  672 538.750 -29.6065 -14.2950
  673 474.185 -19.7897 -8.51269
  674 575.668 -5.36163 -5.52729
  675 620.076 88.3796 41.5513
  676 109.390 21.0125 -59.8239
  677 106.647 13.9544 59.3311
  678 561.802 -13.8567 49.9014
  679 496.734 -37.2755 10.1622
  680 551.881 -29.4441 -27.9691
  681 806.845 202.543 -51.3442
  682 652.497 139.994 4.75759
  683 479.871 -16.8121 4.99412
  684 618.013 23.5451 48.4968
  685 558.257 -58.5894 22.0034
  686 387.729 -9.17998 17.9950
  687 503.616 -54.1548 31.0006
  688 580.891 -2.94176 0.245109
  689 580.836 -3.15091 -0.192426
  690 812.578 179.454 45.2218
  691 325.786 -12.6764 42.8237
  692 47.7361 48.1335 -36.5894
  693 -13.0433 0.471531 11.0984
  694 -11.4031 0.820982 -11.4943
  695 286.146 -10.8304 46.8357
  696 141.472 53.2878 -91.6114
  697 11.6581 1.51123 -16.8773
  698 536.990 -43.0951 8.08745
  699 374.379 -22.8675 -119.983
  700 423.310 -42.8000 59.4456
  701 521.747 -32.7360 -3.96010
  702 7.60780 -14.9236 -2.88465
  703 619.176 29.7725 -48.6041
  704 556.326 -54.7142 -5.44299
  705 549.299 -45.1102 -14.7494
  706 539.955 16.2937 -49.4264
  707 325.179 -12.7415 -42.8742
  708 56.0008 96.9497 -89.7829
  709 538.246 29.7245 -46.0291
  710 -0.655984 -14.1163 -11.0216
  711 508.674 0.364221 21.4115
  712 285.220 -10.3591 -46.3204
  713 359.034 -20.5259 119.348
  714 498.111 -16.8225 1.91095
  715 415.866 -9.01469 -10.2103
  716 301.427 -12.4283 108.497
  717 179.888 1.36629 -75.0079
  718 177.247 0.931281 73.5593
  719 414.593 -8.57858 10.5185
  720 107.175 1.96235 -30.5495
  721 107.695 2.14693 30.3822
  722 447.874 -16.4109 11.5588
  723 539.434 -0.866628 -17.9501
  724 619.393 70.4928 228.734
  725 438.070 -8.14088 -5.70800
  726 437.837 -8.35560 5.54417
  727 553.232 -16.2788 -35.5618
  728 425.523 -5.44842 -2.91567
  729 425.421 -5.26051 2.83461
  730 542.707 -6.02067 35.3839
  731 550.910 -58.1495 13.6260
  732 446.935 -11.5024 7.32805
  733 47.5490 -1.19371 -20.7475
  734 47.8327 -1.74525 20.4573
  735 446.202 -10.2901 -6.93372
  736 11.3440 12.4670 -2.44107
  737 589.390 -43.7882 -67.1290
  738 664.312 -8.25360 26.3837
  739 209.360 29.8500 111.985
  740 348.986 0.0428763 3.64397
  741 348.901 0.0767590 -3.68909
  742 519.952 -52.9060 15.5111
  743 986.367 140.920 -113.303
  744 482.139 1.14137 -17.4965
  745 472.706 -11.2129 -3.39351
  746 416.806 152.473 263.290
  747 595.123 23.2294 54.3073
  748 540.863 -1.14515 17.3327
  749 600.971 -1.42084 -1.82640
  750 601.521 -1.72272 1.83490
  751 834.038 160.676 -37.6481
  752 599.028 107.964 14.0180
  753 466.813 -13.6967 -5.54491
  754 589.155 -2.70973 6.07022
  755 378.654 -21.5677 -43.1312
  756 541.712 -6.75694 2.04834
  757 541.483 -6.73220 -1.73431
  758 401.290 -33.3278 107.426
  759 557.971 -59.6772 -28.6669
  760 555.262 -22.7887 37.9030
  761 378.098 -21.2263 42.7790
  762 582.406 83.7550 -33.9862
  763 485.202 3.64131 18.4041
  764 385.827 -35.7056 -80.8122
  765 469.447 -13.3575 5.22081
  766 551.583 -10.4658 47.7548
  767 353.857 0.528491 -1.24316
  768 353.873 0.536324 1.21822
  769 11.5913 15.8842 0.903573
  770 393.702 -12.9393 22.5801
  771 497.854 -12.6838 1.39606
  772 548.827 -23.7817 -20.7176
  773 258.116 -1.08678 19.2149
  774 258.250 -1.12242 -18.9210
  775 594.007 -18.2837 40.1925
  776 550.633 -12.4338 -45.5697
  777 213.749 -8.76079 -77.7792
  778 214.481 -7.75346 77.2789
  779 576.218 -47.7192 7.86447
  780 549.906 -18.0974 16.2304
  781 829.583 160.552 84.9788
</Section>

newXOutput 32

<Section columns = "stress_xx | stress_yy | stress_xy">
  1 627.937 0.179266 0.732546
  2 628.153 0.102241 -0.703506
  3 365.329 -0.0536847 -0.529702
  4 -4.45383 -5.05735 -5.96776
  5 1101.56 469.243 368.927
  6 1048.99 425.909 -311.093
  7 -5.88215 -5.05221 6.83058
  8 365.336 -0.0603801 0.521620
  9 629.926 -0.814739 -0.197205
  10 630.345 -2.31806 1.34880
  11 628.574 -1.86957 0.785332
  12 619.125 -2.17063 3.29433
  13 614.719 -2.25517 3.94707
  14 604.015 -3.12646 6.69489
  15 585.826 -2.29336 10.5900
  16 564.214 -1.08887 12.4603
  17 538.793 0.642118 14.6972
  18 501.504 2.10633 12.2497
  19 477.655 4.84457 14.5224
  20 459.213 3.96479 10.9419
  21 436.143 4.95187 3.10895
  22 442.355 7.44816 -4.18441
  23 450.768 3.77328 -7.69281
  24 476.325 3.45153 -12.6626
  25 499.908 1.43759 -13.7552
  26 538.477 0.752589 -15.3377
  27 563.606 -1.71477 -13.4178
  28 587.734 -2.52157 -10.7003
  29 603.885 -2.19304 -7.49174
  30 611.950 -2.25828 -6.16827
  31 620.214 -3.07240 -2.22347
  32 628.594 -1.65327 -0.205034
  33 630.467 -2.03011 -1.16945
  34 630.188 -0.997167 0.287274
  35 609.950 -1.60483 -1.09182
  36 586.343 -3.69822 -1.17491
  37 564.281 -6.55605 -1.57616
  38 538.154 -8.08027 -1.72532
  39 511.628 -8.88608 -1.30967
  40 481.433 -8.13346 -0.317506
  41 452.149 -6.52156 -0.161122
  42 425.776 -4.92343 0.461428
  43 402.460 -2.21452 0.860559
  44 380.409 -0.672454 0.00386258
  45 358.714 1.00263 0.109012
  46 357.203 0.864900 1.63550
  47 354.147 0.224997 1.20673
  48 348.129 -0.561338 3.14208
  49 335.829 0.0619135 4.22464
  50 324.618 -0.852841 6.21265
  51 310.813 -0.642523 8.93135
  52 287.464 0.0511790 9.64512
  53 260.520 0.266456 11.1761
  54 234.161 -0.307531 17.4695
  55 184.457 1.17314 16.3286
  56 149.617 1.30521 19.0951
  57 101.288 1.77798 17.4477
  58 56.6514 0.624021 19.3988
  59 11.4467 5.24068 19.7469
  60 -19.7561 6.24187 10.4240
  61 -31.6791 6.10965 0.214885
  62 -27.4977 4.75590 -9.91756
  63 -16.3705 -1.34261 -8.86021
  64 -1.62028 -16.5529 -8.32567
  65 1.18195 -31.3380 -10.9078
  66 4.40504 -48.6951 -5.60028
  67 14.3133 -46.5667 2.82092
  68 24.9963 5.69601 32.0775
  69 72.0274 121.755 105.697
  70 298.164 357.024 309.416
  71 1426.47 157.910 221.404
  72 1173.62 49.4288 74.9720
  73 1122.18 28.0213 29.8094
  74 1106.89 18.1135 -1.78212
  75 1118.84 23.6425 -26.8749
  76 1190.23 44.5422 -72.7692
  77 1364.80 130.292 -191.607
  78 239.613 404.942 -296.098
  79 59.5090 76.9486 -83.1911
  80 23.0820 6.50743 -33.4354
  81 7.06471 -45.6475 -5.91802
  82 4.48677 -37.3816 3.68231
  83 4.97517 -39.5767 8.94475
  84 0.487989 -14.9695 10.5871
  85 -17.5890 -1.09920 8.74701
  86 -28.9102 4.59360 9.67557
  87 -32.4063 6.05853 -0.442447
  88 -20.2882 5.85146 -10.2811
  89 10.5029 5.82652 -19.4402
  90 55.9658 0.798620 -19.6643
  91 101.013 1.66159 -17.7340
  92 150.117 1.28353 -19.2257
  93 185.146 1.13681 -16.4489
  94 234.859 -0.460127 -17.2953
  95 260.840 0.265172 -10.9664
  96 287.433 0.158857 -9.53698
  97 310.861 -0.616711 -8.97910
  98 324.563 -0.860273 -6.19806
  99 335.796 0.0575714 -4.23127
  100 348.011 -0.543521 -3.12611
  101 354.050 0.230637 -1.23505
  102 357.164 0.859948 -1.66214
  103 358.709 0.995558 -0.124137
  104 380.403 -0.695816 -0.0141293
  105 402.449 -2.25936 -0.874244
  106 425.758 -4.98967 -0.448611
  107 452.459 -6.68739 0.234327
  108 481.708 -8.19577 0.225017
  109 510.701 -8.90522 1.23039
  110 537.775 -7.73916 1.54390
  111 564.385 -6.78784 1.58600
  112 586.321 -3.89408 1.16787
  113 609.790 -1.80650 1.17538
  114 544.949 -57.5632 -20.0684
  115 550.885 -57.3618 15.6028
  116 585.730 83.1560 -26.9075
  117 465.396 -39.2234 -116.292
  118 451.989 -36.4273 118.570
  119 628.089 59.4279 51.4354
  120 655.754 17.9414 -38.8425
  121 470.370 -20.3167 -13.9596
  122 468.051 -21.4801 14.3770
  123 718.723 157.277 1.52899
  124 554.397 -25.6047 12.5526
  125 558.615 -24.2473 -14.7052
  126 573.389 -12.7809 -50.3561
  127 394.803 -32.4002 64.0566
  128 394.122 -32.7070 -67.1521
  129 575.708 -20.2358 44.9130
  130 774.792 174.366 11.2914
  131 210.781 48.7007 -126.879
  132 203.890 49.6459 125.036
  133 685.834 1.79601 -11.4846
  134 801.404 182.417 -27.7278
  135 539.580 37.1190 29.8792
  136 530.737 -14.9311 0.862315
  137 533.450 -13.8961 -1.21253
  138 680.457 -7.04479 80.7696
  139 396.646 -16.1445 -29.4767
  140 396.788 -16.0776 28.3047
  141 522.234 36.0415 -199.899
  142 909.869 125.768 17.6929
  143 543.911 19.3578 -44.7639
  144 411.616 -5.47415 -8.53709
  145 411.545 -5.45054 8.58548
  146 471.815 -38.5938 30.8317
  147 480.529 -40.4468 -30.6424
  148 285.602 -17.7169 -92.5562
  149 284.518 -14.2199 93.8375
  150 602.960 92.0781 29.1769
  151 593.939 -57.2017 31.2037
  152 599.677 -33.5133 -33.5874
  153 616.184 -36.5592 19.7992
  154 567.851 -38.9407 -22.7300
  155 594.215 28.2393 -57.1953
  156 528.111 46.3294 218.020
  157 41.5459 34.1710 22.9460
  158 36.6727 28.6315 -17.9468
  159 526.803 33.5554 -12.0237
  160 567.853 12.7592 53.6906
  161 581.062 -8.23212 8.02828
  162 576.475 -9.52228 -8.07868
  163 539.044 -40.2752 1.42977
  164 572.210 -13.5953 -29.3239
  165 653.997 108.301 -37.4009
  166 521.763 -33.9109 3.39074
  167 497.238 -56.5074 62.6857
  168 470.591 -11.0100 -4.40420
  169 471.125 -10.9650 4.54182
  170 574.501 -12.6287 27.2291
  171 500.680 -56.1771 -60.3187
  172 587.714 -55.1280 -46.0588
  173 666.141 118.276 32.7918
  174 523.562 -27.9062 -0.628960
  175 776.410 95.3763 -65.2824
  176 144.922 9.28825 -72.8633
  177 141.005 8.59850 71.0947
  178 955.637 182.989 97.7056
  179 809.878 152.123 36.1388
  180 984.461 114.230 -62.4571
  181 569.966 -7.82845 2.57147
  182 569.334 -7.68139 -2.62279
  183 353.668 -10.8443 -36.2239
  184 353.706 -10.9842 36.3392
  185 286.559 -10.3222 -56.7605
  186 288.514 -10.3900 57.7077
  187 171.305 124.161 -158.869
  188 551.983 -2.97336 41.3828
  189 579.005 -42.6609 23.0786
  190 385.052 -4.66058 -13.2367
  191 384.415 -4.93158 13.3487
  192 87.1085 87.8596 93.8553
  193 541.969 0.975228 -40.0879
  194 569.272 -29.8630 28.6366
  195 521.626 8.68886 35.5603
  196 583.188 -35.1703 -109.104
  197 583.946 -9.59458 -16.0285
  198 531.725 -46.8844 8.64236
  199 638.974 127.446 -17.4762
  200 594.284 -18.2251 48.3074
  201 402.944 -37.3078 -94.3972
  202 299.649 -1.52802 -124.017
  203 293.031 0.381191 124.124
  204 577.095 48.8348 44.7248
  205 419.600 0.874744 162.406
  206 560.296 63.1970 8.68177
  207 707.393 82.1604 -23.9607
  208 585.360 -9.41033 14.2135
  209 403.088 -36.7472 94.9501
  210 508.517 -22.1049 3.97379
  211 943.887 238.473 -122.237
  212 707.394 93.6038 27.1410
  213 418.690 -29.5000 -41.8210
  214 416.640 -27.6171 41.2598
  215 66.3099 21.4227 -40.2179
  216 75.3443 21.8059 45.8363
  217 471.767 -47.7072 47.9454
  218 498.791 -18.0751 -5.31722
  219 502.784 -10.3857 -1.27009
  220 507.862 -10.3921 1.11593
  221 472.882 -46.1935 -48.1873
  222 496.169 -33.3073 -13.6754
  223 582.228 -50.6434 81.2526
  224 708.948 154.020 -8.37436
  225 818.913 161.497 -15.7355
  226 655.394 19.2278 36.5394
  227 547.989 -18.5517 7.19603
  228 406.869 4.37533 -165.143
  229 452.119 -27.6827 25.1507
  230 542.989 -21.2082 -5.52553
  231 653.317 -28.5883 15.0033
  232 565.488 45.0858 -43.3053
  233 624.197 -32.5859 -19.1934
  234 493.698 19.5462 8.61747
  235 424.838 -13.9401 -18.8286
  236 617.832 1.53115 -49.8029
  237 355.383 -5.02184 -18.6019
  238 355.056 -4.92517 18.0752
  239 382.936 -0.511962 -2.51914
  240 382.949 -0.485079 2.48710
  241 568.491 6.37503 -54.9428
  242 421.630 -13.8190 19.8029
  243 448.813 -26.9969 -26.6116
  244 206.185 152.714 205.534
  245 35.5588 44.7701 -31.8526
  246 1036.39 78.6057 22.7421
  247 493.002 9.11036 -19.1592
  248 549.483 -37.2365 -9.27557
  249 556.740 129.081 -274.023
  250 575.481 -47.0841 -16.1758
  251 299.919 -9.24513 -37.4906
  252 300.297 -9.54520 37.7867
  253 571.981 -23.7742 -37.0581
  254 590.795 -8.36168 -53.2471
  255 434.540 -6.34416 -3.96484
  256 434.537 -6.38299 3.85781
  257 601.360 -4.07043 -3.01698
  258 601.863 -3.40876 2.99498
  259 560.652 -5.02687 -29.8651
  260 778.445 94.6665 171.674
  261 522.233 -50.0621 -16.6344
  262 445.885 -12.2499 -10.4004
  263 443.891 -12.4684 10.8352
  264 0.348906 -0.387895 -11.2371
  265 -1.73620 1.48057 11.8288
  266 164.519 -4.36356 -58.3701
  267 163.564 -3.72258 57.9953
  268 375.181 -2.31868 5.81888
  269 375.135 -2.34406 -5.89221
  270 560.613 -6.28841 28.2900
  271 648.109 133.592 12.2009
  272 587.054 -54.7683 0.514950
  273 603.945 71.4909 -47.6211
  274 582.025 -30.6026 -39.2653
  275 631.912 -36.7732 -0.0920195
  276 230.882 -5.01677 54.0508
  277 229.255 -5.33647 -53.2460
  278 584.285 -55.5899 -13.0019
  279 509.571 -57.7505 77.6742
  280 540.392 -8.81266 0.355215
  281 540.932 -8.46636 -0.315915
  282 599.996 -3.07698 -1.47713
  283 600.083 -3.45509 1.57154
  284 279.534 76.7900 184.415
  285 627.164 50.4099 -53.7364
  286 561.009 -47.6701 7.71534
  287 712.390 147.015 14.0418
  288 519.329 5.40469 -32.7930
  289 500.560 -14.9295 3.31943
  290 686.579 109.935 -33.6481
  291 557.686 -8.97176 152.014
  292 603.280 106.504 0.262162
  293 509.061 -54.9031 -81.0117
  294 542.033 -61.6999 36.8827
  295 517.677 -50.8868 21.8054
  296 796.755 162.101 15.2586
  297 491.502 -33.1056 16.9675
  298 597.915 -4.65101 -7.78801
  299 564.932 -28.9339 -23.4391
  300 943.033 265.907 121.427
  301 620.725 0.498039 47.8164
  302 588.310 -4.41630 -13.6156
  303 616.613 83.2774 42.7316
  304 657.693 -0.0793311 -120.989
  305 592.340 17.3408 57.1760
  306 20.9067 24.4078 13.1223
  307 357.835 -26.4609 76.9048
  308 561.328 -10.3984 4.12777
  309 559.511 -11.5426 -4.55825
  310 559.765 58.5591 -25.3873
  311 344.702 -22.8301 -74.2864
  312 366.308 -29.2471 -106.058
  313 573.237 -13.5307 11.8259
  314 542.678 -31.3324 6.97740
  315 566.608 -2.83339 52.4556
  316 813.708 169.166 -196.411
  317 570.877 -20.1110 35.0051
  318 567.915 -15.2730 -11.9903
  319 597.423 -4.10716 7.78438
  320 361.514 -3.55198 12.5778
  321 361.798 -3.94131 -12.7588
  322 101.882 61.8490 -81.6491
  323 487.197 15.1657 -7.14376
  324 572.891 -17.6340 22.8492
  325 772.856 141.196 -7.82649
  326 575.614 71.9467 30.0194
  327 309.712 59.2921 -184.512
  328 358.204 -22.2693 106.749
  329 538.987 32.2762 -33.2621
  330 586.584 -5.21441 14.8056
  331 568.657 -15.3258 -41.6802
  332 15.3625 10.5059 -3.25984
  333 110.835 53.3711 75.5682
  334 429.410 -45.1437 76.3957
  335 -2.06318 10.9054 1.95788
  336 -0.907383 11.8731 -1.54405
  337 598.571 253.701 297.866
  338 566.694 -13.4275 42.0083
  339 1143.42 122.787 -143.665
  340 557.065 32.8339 45.8808
  341 660.443 68.5391 41.6428
  342 478.561 -15.3115 7.75169
  343 495.564 9.12826 20.5376
  344 438.331 -48.1411 -72.5005
  345 546.444 -26.5482 -8.44937
  346 499.197 -27.3293 9.05049
  347 572.663 -16.5224 -23.6497
  348 551.937 -60.9648 -49.0008
  349 642.416 -34.9625 -30.0059
  350 530.217 40.3852 9.24443
  351 584.087 -50.1449 13.1255
  352 733.573 55.6570 15.0216
  353 334.266 -16.2451 55.5879
  354 526.775 -20.2774 1.10435
  355 510.571 -56.1135 -42.0744
  356 836.780 204.432 48.3017
  357 625.132 103.956 -34.5358
  358 410.044 -8.26696 14.1038
  359 410.781 -8.95534 -14.3582
  360 331.998 -15.7079 -56.4247
  361 203.669 189.903 -212.126
  362 484.709 -9.17350 -2.60430
  363 486.104 -9.67131 2.24791
  364 317.301 -3.12616 -19.4226
  365 317.234 -3.18901 19.6276
  366 1068.90 41.2604 -21.1373
  367 1082.60 74.2713 67.5635
  368 515.529 -41.2793 -12.0689
  369 679.771 25.5614 158.730
  370 255.239 -1.56019 99.3281
  371 255.486 -3.23066 -99.7462
  372 512.416 -32.7181 123.852
  373 524.536 4.32290 33.6801
  374 547.870 6.28716 47.1834
  375 500.779 -57.6689 49.0539
  376 151.900 30.5075 -87.1457
  377 150.347 24.6185 83.8476
  378 73.8803 4.98371 -36.7372
  379 74.2386 4.20784 37.0864
  380 544.666 -49.1247 -93.5834
  381 410.994 -3.27211 -3.58146
  382 411.000 -3.22510 3.56721
  383 804.871 153.003 -1.40912
  384 497.340 -26.5349 -9.21261
  385 520.261 -12.7904 -155.124
  386 555.822 -51.1720 -0.138897
  387 760.478 140.309 1.62729
  388 668.892 58.4868 -41.4569
  389 574.868 -32.4362 34.2745
  390 384.311 -9.11119 -21.6213
  391 383.219 -8.16841 20.5392
  392 500.222 -12.8737 -2.95707
  393 470.081 -15.6219 -9.79156
  394 369.668 -21.4302 50.9171
  395 369.182 -21.3855 -51.8218
  396 47.5209 74.2761 -60.7436
  397 572.641 26.7622 -53.2630
  398 443.693 -30.2208 33.3082
  399 695.208 54.0316 -170.051
  400 557.226 -36.8843 14.6083
  401 77.3304 100.018 99.9227
  402 562.202 -4.99338 -49.7609
  403 366.358 -2.09797 7.47967
  404 366.233 -1.99722 -7.51126
  405 577.282 -5.31581 1.09219
  406 577.091 -5.04452 -0.935880
  407 596.507 -37.1205 29.9188
  408 286.701 -16.0897 -75.7405
  409 599.808 -3.31645 -8.61981
  410 290.897 -16.6339 76.3207
  411 687.597 15.4638 -6.47238
  412 584.589 -28.2954 41.5020
  413 518.296 -33.9867 -4.80370
  414 906.073 197.320 -80.6021
  415 570.211 -21.8028 28.2842
  416 904.070 165.882 55.5810
  417 685.352 144.290 13.7990
  418 270.798 -5.53023 -34.0540
  419 270.984 -5.30381 34.6285
  420 111.597 -1.06516 -41.9150
  421 110.194 -1.00829 41.0957
  422 573.224 -5.01769 -20.9592
  423 1135.22 160.231 145.817
  424 305.259 20.1339 146.648
  425 384.633 -17.4423 -35.3038
  426 384.123 -17.4109 35.6262
  427 419.274 -35.1196 52.6393
  428 342.998 104.306 -239.302
  429 680.212 147.179 -7.75934
  430 421.118 -34.6505 -53.3570
  431 610.954 -2.59279 -3.18489
  432 637.104 114.968 29.9331
  433 661.877 131.275 -22.9789
  434 450.117 -32.1177 -33.5940
  435 835.336 197.730 -46.7530
  436 458.719 -48.6224 97.6280
  437 713.516 13.7631 -41.6472
  438 483.988 -33.2689 -134.085
  439 544.160 7.72553 -46.3665
  440 506.102 -50.5533 -30.0647
  441 983.944 92.2652 -17.7090
  442 971.279 115.695 59.0475
  443 567.044 -40.1976 20.3207
  444 2.94677 9.31048 -9.88107
  445 4.36808 9.96087 9.84732
  446 737.384 148.967 8.36484
  447 548.936 -2.30114 26.2241
  448 498.276 -42.5550 21.5183
  449 394.421 -15.4473 140.001
  450 2.70060 -10.9769 -9.21484
  451 435.736 -40.0806 -103.157
  452 553.208 -43.7233 -8.21495
  453 547.757 -10.3053 2.59358
  454 547.647 -9.83742 -1.88843
  455 237.205 21.7376 -122.856
  456 572.990 -4.14292 19.8131
  457 83.4138 38.0473 -52.8575
  458 27.8896 32.4684 30.9151
  459 226.772 -1.61085 -31.0948
  460 226.092 -1.27816 31.1786
  461 1205.08 284.143 -223.939
  462 544.764 -1.54371 -27.2167
  463 557.461 -15.8293 -7.84811
  464 542.264 -23.6768 5.99061
  465 527.882 21.5638 34.7637
  466 584.003 -1.99991 55.4431
  467 519.033 -9.43959 -0.199226
  468 520.978 -9.29190 -0.105265
  469 205.843 14.2342 98.5092
  470 440.153 -14.2321 14.8261
  471 681.930 36.0567 25.1913
  472 640.221 -37.0916 54.0850
  473 746.121 158.861 0.256324
  474 612.109 -1.94350 3.17919
  475 526.835 -26.8283 -0.337198
  476 459.908 -7.69804 -2.64217
  477 459.655 -7.44722 2.47186
  478 167.659 76.7635 127.413
  479 528.827 -19.6305 -1.06156
  480 76.3237 40.2184 47.8601
  481 167.077 78.8634 -125.825
  482 577.682 82.0729 -8.22740
  483 473.327 -26.4863 -17.3246
  484 434.570 -8.64398 -8.07611
  485 434.882 -8.38855 8.20463
  486 602.892 -52.1365 -10.3255
  487 600.794 -3.95966 8.57909
  488 767.379 60.2406 78.3766
  489 594.459 71.4967 42.0727
  490 479.582 -36.4834 -23.5583
  491 587.201 92.5924 11.7667
  492 8.39894 -15.4723 -4.32730
  493 169.997 193.280 204.121
  494 599.860 49.3833 52.2620
  495 442.914 -14.2781 -13.7470
  496 521.706 1.00969 -23.1782
  497 413.401 33.8677 189.501
  498 535.016 -40.4818 0.370831
  499 615.070 -50.8610 40.2460
  500 578.456 -11.2802 -12.5328
  501 902.515 137.788 -22.0789
  502 163.755 -0.262490 -36.9223
  503 163.992 0.0202935 37.5220
  504 581.553 -6.12316 -4.66198
  505 579.547 -6.63422 4.79204
  506 338.874 -22.9402 93.0015
  507 420.211 -17.5200 -24.6464
  508 395.667 -11.6989 -140.113
  509 349.253 -27.3353 -89.4715
  510 329.735 -2.47584 -13.4048
  511 329.602 -2.56060 13.3069
  512 566.265 -53.1473 2.43829
  513 427.031 -20.4745 27.0137
  514 601.148 6.82260 -55.8101
  515 447.233 -21.2311 20.4604
  516 471.123 -49.1033 59.8706
  517 719.873 57.8591 -1.11531
  518 291.711 -0.968203 -19.2817
  519 291.779 -1.04548 19.5421
  520 723.251 152.459 -11.1342
  521 633.929 -5.60017 -37.4567
  522 633.997 -10.4396 32.4601
  523 574.733 -31.6519 -34.1398
  524 452.832 -38.2728 41.5343
  525 1103.80 63.9327 -72.0553
  526 626.201 -42.6955 7.06057
  527 486.436 5.21930 -18.5825
  528 486.231 -19.8565 8.21610
  529 583.597 67.7696 -39.1779
  530 935.425 284.620 193.216
  531 563.160 -13.4248 8.13723
  532 522.474 -11.6456 -0.615043
  533 527.381 -10.5149 -0.0621175
  534 589.053 -46.5803 -17.2267
  535 471.052 -27.3488 18.1880
  536 368.633 0.168130 -3.39033
  537 368.671 0.177974 3.34592
  538 473.258 -50.7951 -58.2707
  539 609.132 104.418 -19.1046
  540 568.915 -17.3664 -16.3781
  541 493.122 4.39362 21.7651
  542 570.008 -22.3629 -29.5234
  543 372.082 0.124937 -0.769099
  544 372.085 0.137700 0.753535
  545 653.993 -26.3811 -61.2721
  546 458.148 -40.7664 -42.2450
  547 652.723 -9.97607 -18.8107
  548 601.217 -37.5978 99.0336
  549 583.213 -9.66724 11.2172
  550 614.018 -2.25984 1.62627
  551 613.923 -2.07607 -1.39765
  552 552.891 -60.4743 -31.7649
  553 567.751 -58.3359 63.5505
  554 340.446 -1.67248 -8.80502
  555 340.275 -1.66234 8.73784
  556 517.492 -51.5060 94.3373
  557 586.907 47.3617 -50.7588
  558 451.800 -47.4158 -84.2324
  559 579.594 32.9488 54.9820
  560 552.075 -61.4450 51.0932
  561 460.859 5.55521 7.92171
  562 493.966 -12.5691 3.33116
  563 603.478 -15.0588 -47.1790
  564 752.711 159.785 -1.68589
  565 615.183 -23.2829 -36.3403
  566 472.199 -34.1619 25.5262
  567 390.530 -4.24094 9.95215
  568 390.590 -4.30217 -10.0867
  569 546.932 -15.3336 3.29744
  570 446.539 -20.4089 -19.9747
  571 567.505 -9.96390 33.3128
  572 604.884 -42.5933 -18.3001
  573 515.488 -15.4619 -1.57215
  574 914.142 281.587 -136.722
  575 520.973 12.6467 -33.1123
  576 774.188 166.660 -10.8591
  577 465.630 4.65011 -12.4287
  578 558.176 -19.9048 10.5334
  579 167.838 107.843 160.993
  580 552.257 52.3226 24.0948
  581 306.622 22.9183 -148.811
  582 603.717 -51.1113 2.91370
  583 560.263 -6.48017 -40.6249
  584 626.766 77.1402 -48.4053
  585 -4.58188 -5.41630 -9.96390
  586 -5.82015 -4.75229 10.0346
  587 394.847 -2.81231 -5.84195
  588 394.850 -2.76979 5.79457
  589 586.584 -38.4728 -30.4963
  590 591.569 -25.4177 -43.4559
  591 60.2705 56.0412 52.5608
  592 559.432 48.5310 36.5551
  593 506.417 -23.6151 -4.53740
  594 501.236 -8.94665 0.350470
  595 500.032 -8.85823 -0.763318
  596 517.469 24.0711 23.0593
  597 1095.17 25.5175 15.6192
  598 421.238 -23.7985 -33.2843
  599 456.458 6.73898 1.82727
  600 584.189 9.69942 -57.3303
  601 458.526 -52.3880 85.8162
  602 18.2208 6.12329 20.9072
  603 16.4936 5.08386 -19.7317
  604 614.143 27.5886 -55.8002
  605 548.064 57.2879 -6.50888
  606 575.896 -40.3677 -27.0342
  607 349.803 -7.08960 -26.3674
  608 349.201 -7.62816 26.3623
  609 589.392 -3.92742 2.54741
  610 589.181 -3.93149 -2.69848
  611 578.290 -5.69336 -54.6186
  612 563.144 -26.6259 20.1740
  613 414.351 -22.7616 34.8175
  614 37.8056 27.0062 -21.9369
  615 558.618 344.248 -337.901
  616 579.445 -10.6927 20.7469
  617 577.685 -10.0473 -22.3741
  618 455.661 22.6484 -188.598
  619 544.901 -16.1569 -4.35843
  620 491.273 -45.9433 32.4913
  621 636.286 128.962 -0.529313
  622 225.901 -8.97537 -69.3427
  623 227.805 -8.93531 69.9089
  624 690.772 116.240 29.2617
  625 560.169 -36.3600 -18.0776
  626 508.164 28.2774 0.00406692
  627 544.349 -52.0996 -9.02310
  628 318.016 -8.18363 32.5100
  629 317.827 -8.12571 -32.1142
  630 405.235 -9.89592 -18.6313
  631 389.791 -1.02938 -2.51895
  632 389.800 -0.997372 2.50237
  633 556.318 -20.9084 -10.5022
  634 616.800 -1.21891 -0.831266
  635 616.635 -1.36104 1.08528
  636 726.286 138.032 -17.1866
  637 347.230 107.553 224.408
  638 662.714 -8.05399 12.9180
  639 298.995 47.8185 164.675
  640 135.936 37.6284 81.9791
  641 677.030 30.8765 -30.2171
  642 572.424 -54.0803 -1.10628
  643 416.956 -5.35487 -6.49328
  644 417.074 -5.27572 6.51135
  645 554.087 -6.39923 -0.407701
  646 554.506 -6.53949 0.510937
  647 439.238 -44.3811 -62.3989
  648 207.767 9.97353 -99.5766
  649 347.555 -1.68533 5.61374
  650 347.458 -1.77740 -5.52905
  651 1247.29 344.152 256.359
  652 649.037 73.9717 -48.1192
  653 581.915 -18.7659 -48.6868
  654 575.196 -21.1380 -44.0532
  655 608.118 50.0666 -54.9055
  656 375.184 -9.32843 -26.9513
  657 373.873 -9.93057 26.3431
  658 540.412 -47.0722 -3.13177
  659 4.46606 -14.5099 10.4381
  660 604.533 -1.10666 53.3098
  661 41.2013 25.4682 22.7527
  662 544.163 15.5204 44.9000
  663 93.0103 87.7547 -87.4371
  664 512.678 21.7522 -23.6757
  665 594.190 -4.65056 5.89141
  666 501.326 -44.4224 -22.9373
  667 567.216 -10.5453 -34.9506
  668 185.079 -1.10816 26.9810
  669 185.744 -0.937550 -27.0838
  670 685.455 135.178 -23.8772
  671 317.426 -16.4240 -113.727
  672 555.509 -30.5380 -14.4706
  673 489.175 -20.3953 -8.90934
  674 593.321 -5.55971 -5.60522
  675 639.391 91.1218 42.4771
  676 113.226 21.6638 -61.9036
  677 110.393 14.3775 61.3989
  678 579.331 -14.2991 51.0856
  679 512.315 -38.4230 10.6943
  680 569.042 -30.3748 -28.5156
  681 831.331 208.808 -53.3610
  682 672.867 144.264 4.84703
  683 495.018 -17.3316 5.26818
  684 637.114 24.2796 49.5425
  685 575.481 -60.4156 23.0324
  686 400.388 -9.44398 18.6125
  687 519.333 -55.8347 32.2153
  688 598.614 -3.06596 0.262078
  689 598.558 -3.28041 -0.208145
  690 837.289 184.892 46.8741
  691 336.553 -13.0565 44.2144
  692 49.4348 49.7815 -38.0052
  693 -13.4214 0.499885 11.4226
  694 -11.7259 0.864498 -11.8324
  695 295.714 -11.1646 48.3509
  696 146.235 54.9885 -94.7833
  697 12.0896 1.96669 -17.6188
  698 553.693 -44.4399 8.03540
  699 386.234 -23.6333 -123.915
  700 436.752 -44.1291 61.4512
  701 538.027 -33.7572 -3.84247
  702 7.87677 -15.1822 -2.85490
  703 638.324 30.7044 -49.6508
  704 573.534 -56.4222 -5.96411
  705 566.354 -46.5208 -14.8690
  706 557.010 16.8209 -50.6951
  707 335.929 -13.1242 -44.2662
  708 57.8588 100.669 -92.9455
  709 555.281 30.6757 -47.2186
  710 -0.657584 -14.5327 -11.3443
  711 524.922 0.380565 21.9619
  712 294.763 -10.6770 -47.8194
  713 370.445 -21.2171 123.267
  714 513.745 -17.3510 2.09495
  715 429.314 -9.27479 -10.5886
  716 311.175 -12.8659 112.069
  717 186.007 1.38139 -77.5203
  718 183.282 0.933614 76.0301
  719 428.006 -8.82600 10.9056
  720 111.154 2.02083 -31.5760
  721 111.688 2.21147 31.4039
  722 462.163 -16.9040 12.0139
  723 556.418 -0.899630 -18.3928
  724 637.766 73.0504 236.007
  725 452.119 -8.38104 -5.93303
  726 451.880 -8.60222 5.76444
  727 570.480 -16.7994 -36.3750
  728 439.252 -5.60434 -3.01846
  729 439.147 -5.41096 2.93497
  730 559.751 -6.21654 36.2521
  731 567.945 -59.9624 14.3848
  732 461.209 -11.8475 7.63081
  733 49.5435 -1.23507 -21.4741
  734 49.8337 -1.80410 21.1748
  735 460.459 -10.5979 -7.22136
  736 11.8032 12.9568 -2.37812
  737 607.376 -45.1222 -69.5750
  738 684.455 -8.41626 27.7008
  739 216.246 30.7533 115.740
  740 360.697 0.0509382 3.76993
  741 360.610 0.0858445 -3.81625
  742 536.148 -54.5475 16.2739
  743 1015.47 145.123 -116.664
  744 497.732 1.18585 -17.9558
  745 487.669 -11.5612 -3.56400
  746 429.358 157.454 271.582
  747 613.625 23.9486 55.5761
  748 557.880 -1.18650 17.7577
  749 619.204 -1.47898 -1.85049
  750 619.765 -1.78813 1.85963
  751 859.313 165.513 -38.9713
  752 617.859 111.309 14.3494
  753 481.616 -14.1151 -5.80283
  754 607.193 -2.81040 6.18601
  755 390.927 -22.2175 -44.5598
  756 558.473 -7.00228 2.05494
  757 558.237 -6.97748 -1.73306
  758 413.954 -34.4062 110.963
  759 575.173 -61.5395 -29.9065
  760 572.559 -23.5118 38.7511
  761 390.358 -21.8663 44.1958
  762 600.718 86.3686 -34.8175
  763 500.872 3.75731 18.8891
  764 398.149 -36.8316 -83.4765
  765 484.321 -13.7669 5.47214
  766 568.852 -10.7991 48.9161
  767 365.744 0.547601 -1.28934
  768 365.761 0.555660 1.26374
  769 12.0608 16.4799 0.789419
  770 406.497 -13.3192 23.3514
  771 513.481 -13.0886 1.53323
  772 565.878 -24.5376 -21.0951
  773 266.957 -1.11245 19.8328
  774 267.095 -1.14900 -19.5303
  775 612.371 -18.8636 41.0058
  776 567.874 -12.8278 -46.6718
  777 220.932 -9.06498 -80.3583
  778 221.687 -8.02543 79.8451
  779 594.000 -49.2101 7.71442
  780 566.966 -18.6826 16.5113
  781 854.185 165.924 88.3314
</Section>

newXOutput 33

<Section columns = "stress_xx | stress_yy | stress_xy">
  1 646.219 0.161984 0.748640
  2 646.439 0.0833415 -0.719244
  3 377.222 -0.0484716 -0.539764
  4 -4.59468 -5.21639 -6.15884
  5 1130.75 483.650 379.259
  6 1077.33 439.130 -319.971
  7 -6.06681 -5.21057 7.04975
  8 377.230 -0.0553579 0.531484
  9 648.258 -0.853338 -0.210583
  10 648.705 -2.39375 1.36906
  11 646.922 -1.93232 0.786288
  12 637.309 -2.24958 3.34595
  13 632.849 -2.32662 4.01817
  14 621.942 -3.22650 6.82861
  15 603.391 -2.37236 10.8271
  16 581.319 -1.12957 12.7517
  17 555.325 0.655945 15.0531
  18 517.164 2.16921 12.5570
  19 492.736 4.99023 14.8945
  20 473.832 4.10456 11.2230
  21 450.190 5.10974 3.19042
  22 456.559 7.69483 -4.29535
  23 465.184 3.90167 -7.89291
  24 491.374 3.56207 -12.9848
  25 515.531 1.48207 -14.0985
  26 554.998 0.771135 -15.7113
  27 580.697 -1.77356 -13.7326
  28 605.336 -2.60513 -10.9381
  29 621.811 -2.27041 -7.64748
  30 630.019 -2.34022 -6.29043
  31 638.413 -3.17410 -2.24947
  32 646.941 -1.71179 -0.191408
  33 648.829 -2.10012 -1.18574
  34 648.523 -1.04099 0.302120
  35 627.834 -1.68091 -1.11728
  36 603.683 -3.84482 -1.19872
  37 581.098 -6.78828 -1.60516
  38 554.333 -8.35048 -1.75144
  39 527.147 -9.16727 -1.32884
  40 496.192 -8.38044 -0.306279
  41 466.171 -6.70824 -0.152578
  42 439.138 -5.05703 0.485274
  43 415.246 -2.26604 0.890647
  44 392.660 -0.681823 0.00840976
  45 370.444 1.03193 0.118578
  46 368.879 0.891156 1.68869
  47 365.710 0.234271 1.25437
  48 359.498 -0.572707 3.24920
  49 346.835 0.0676591 4.35920
  50 335.269 -0.874404 6.40604
  51 321.031 -0.657273 9.20769
  52 296.983 0.0569383 9.94780
  53 269.231 0.277570 11.5263
  54 242.050 -0.310581 18.0153
  55 190.849 1.20899 16.8451
  56 154.918 1.34387 19.6974
  57 105.050 1.82862 18.0191
  58 58.9468 0.636225 20.0527
  59 12.2267 5.40009 20.4289
  60 -20.0763 6.43461 10.8113
  61 -32.5022 6.30572 0.279710
  62 -28.3041 4.91912 -10.1924
  63 -16.8716 -1.37276 -9.12673
  64 -1.65956 -17.0617 -8.57698
  65 1.23440 -32.2693 -11.2163
  66 4.56096 -50.0336 -5.70236
  67 14.7905 -47.6585 3.05161
  68 25.8382 6.52439 33.3071
  69 74.2881 126.629 109.225
  70 306.446 369.084 318.470
  71 1464.35 162.362 226.987
  72 1206.02 50.7915 76.9327
  73 1153.33 28.8213 30.5711
  74 1137.68 18.6408 -1.82882
  75 1149.94 24.3238 -27.5937
  76 1223.03 45.8098 -74.6847
  77 1401.52 133.993 -196.508
  78 246.262 418.429 -304.749
  79 61.4114 80.4729 -86.1224
  80 23.8602 7.42232 -34.7224
  81 7.30143 -46.6778 -6.23650
  82 4.65158 -38.3756 3.70582
  83 5.14999 -40.7597 9.18837
  84 0.509742 -15.4234 10.9100
  85 -18.1297 -1.12169 9.00954
  86 -29.7624 4.75126 9.94385
  87 -33.2513 6.25343 -0.514578
  88 -20.6223 6.03187 -10.6639
  89 11.2570 6.00406 -20.1128
  90 58.2429 0.816066 -20.3262
  91 104.768 1.70852 -18.3141
  92 155.434 1.32141 -19.8317
  93 191.560 1.17143 -16.9685
  94 242.770 -0.467687 -17.8356
  95 269.561 0.276335 -11.3107
  96 296.952 0.167625 -9.83679
  97 321.082 -0.630751 -9.25647
  98 335.212 -0.881905 -6.39089
  99 346.801 0.0632799 -4.36591
  100 359.377 -0.554395 -3.23279
  101 365.610 0.240085 -1.28341
  102 368.838 0.886076 -1.71602
  103 370.438 1.02466 -0.134083
  104 392.654 -0.705830 -0.0189298
  105 415.235 -2.31211 -0.904668
  106 439.119 -5.12506 -0.472134
  107 466.489 -6.87861 0.227366
  108 496.474 -8.44444 0.211064
  109 526.196 -9.18688 1.24693
  110 553.944 -7.99951 1.56504
  111 581.204 -7.02618 1.61550
  112 603.661 -4.04550 1.19156
  113 627.671 -1.88775 1.20282
  114 561.293 -59.2938 -20.9755
  115 567.394 -59.0851 16.3868
  116 603.582 85.6725 -27.5547
  117 479.397 -40.4378 -120.015
  118 465.622 -37.5610 122.356
  119 646.950 61.2140 52.5653
  120 675.216 18.4990 -39.4926
  121 484.817 -20.9090 -14.5023
  122 482.437 -22.1061 14.9334
  123 740.243 161.863 1.52819
  124 571.048 -26.3875 12.6862
  125 575.379 -24.9920 -14.8979
  126 590.696 -13.1754 -51.5118
  127 407.069 -33.3691 66.1032
  128 406.358 -33.6892 -69.2951
  129 593.044 -20.8555 45.9050
  130 797.692 179.543 12.0513
  131 217.461 50.1607 -131.000
  132 210.354 51.1432 129.109
  133 705.939 1.92654 -12.3519
  134 825.013 187.817 -28.9429
  135 556.188 38.2837 30.6289
  136 546.742 -15.3970 0.767552
  137 549.524 -14.3316 -1.12859
  138 700.245 -7.10735 83.6326
  139 409.123 -16.6069 -30.4371
  140 409.273 -16.5380 29.2313
  141 537.505 37.2440 -206.120
  142 936.227 129.369 18.2338
  143 560.589 19.9689 -45.8800
  144 424.595 -5.62083 -8.83753
  145 424.523 -5.59651 8.88727
  146 486.239 -39.7326 31.9348
  147 495.179 -41.6433 -31.7508
  148 294.656 -18.2861 -95.5043
  149 293.543 -14.6849 96.8257
  150 621.278 94.8503 29.8554
  151 611.549 -58.9183 32.5127
  152 617.590 -34.5320 -34.1721
  153 634.499 -37.6607 19.9476
  154 584.887 -40.1207 -23.0696
  155 612.156 29.0934 -58.5383
  156 543.539 47.8962 224.767
  157 43.0139 35.2998 23.8716
  158 38.0011 29.5773 -18.6969
  159 543.096 34.6224 -12.3282
  160 585.104 13.1542 54.9869
  161 598.346 -8.51129 8.13359
  162 593.643 -9.83980 -8.18081
  163 555.281 -41.4840 1.20210
  164 589.416 -14.0209 -29.9520
  165 673.652 111.540 -38.1510
  166 537.541 -34.9226 3.71460
  167 512.229 -58.2134 64.8074
  168 485.071 -11.3319 -4.59570
  169 485.618 -11.2874 4.73762
  170 591.752 -13.0274 27.8061
  171 515.768 -57.8733 -62.3717
  172 605.130 -56.7807 -47.8051
  173 686.130 121.801 33.4035
  174 539.390 -28.7415 -0.846248
  175 798.843 98.5015 -67.8484
  176 149.769 9.54563 -75.2663
  177 145.731 8.83621 73.4465
  178 983.126 188.300 100.644
  179 833.405 156.870 37.9017
  180 1012.58 117.513 -64.2664
  181 586.937 -8.09815 2.57188
  182 586.288 -7.94749 -2.62534
  183 364.934 -11.1530 -37.3682
  184 364.973 -11.2969 37.4869
  185 295.818 -10.6325 -58.5391
  186 297.827 -10.7028 59.5163
  187 176.654 128.152 -164.013
  188 568.799 -3.06004 42.3782
  189 596.339 -43.9540 23.3945
  190 397.315 -4.78309 -13.6795
  191 396.662 -5.06157 13.7933
  192 89.9688 90.7845 97.0746
  193 558.563 1.01131 -41.0685
  194 586.365 -30.7744 29.1707
  195 537.755 8.98514 36.4569
  196 600.341 -36.1901 -112.697
  197 601.367 -9.90947 -16.3330
  198 547.749 -48.2860 9.17284
  199 658.311 131.228 -17.8481
  200 612.110 -18.7850 49.3432
  201 415.313 -38.4580 -97.4148
  202 308.987 -1.63059 -127.973
  203 302.182 0.338908 128.088
  204 594.660 50.3263 45.8039
  205 432.216 0.881487 167.525
  206 577.473 65.1431 8.89734
  207 728.290 84.6798 -24.1096
  208 602.807 -9.72021 14.4750
  209 415.463 -37.8808 97.9784
  210 523.955 -22.7664 4.24793
  211 971.054 245.484 -126.026
  212 728.329 96.4620 27.4061
  213 431.690 -30.3653 -43.1933
  214 429.589 -28.4272 42.6106
  215 68.6772 22.0836 -41.6361
  216 77.9835 22.4759 47.4344
  217 486.136 -49.1315 49.5779
  218 513.982 -18.6137 -5.59847
  219 518.081 -10.7057 -1.36721
  220 523.287 -10.7149 1.21036
  221 487.276 -47.5716 -49.8273
  222 511.268 -34.2908 -14.2748
  223 599.428 -52.1474 84.0207
  224 730.179 158.547 -8.39139
  225 843.037 166.173 -16.3495
  226 674.849 19.8248 37.1320
  227 564.451 -19.1273 7.22613
  228 419.119 4.48173 -170.342
  229 466.058 -28.4883 26.0352
  230 559.322 -21.8591 -5.50121
  231 672.539 -29.4002 15.9280
  232 582.747 46.4725 -44.3685
  233 642.725 -33.5637 -19.3139
  234 509.160 20.1868 8.83862
  235 438.106 -14.3374 -19.4737
  236 636.306 1.57246 -50.8453
  237 366.809 -5.15733 -19.1953
  238 366.474 -5.05825 18.6539
  239 395.235 -0.515597 -2.60879
  240 395.248 -0.487957 2.57595
  241 585.742 6.57635 -56.2676
  242 434.812 -14.2118 20.4764
  243 462.663 -27.7818 -27.5380
  244 212.545 157.591 212.071
  245 36.7900 46.4093 -33.1013
  246 1065.66 80.8490 23.3695
  247 508.441 9.43344 -19.6510
  248 566.004 -38.3597 -9.27029
  249 572.699 133.345 -282.326
  250 592.702 -48.5074 -16.2909
  251 309.660 -9.51340 -38.6604
  252 310.048 -9.82320 38.9649
  253 589.180 -24.5053 -37.8370
  254 608.561 -8.62321 -54.4426
  255 448.113 -6.51914 -4.11861
  256 448.110 -6.55909 4.00866
  257 619.085 -4.22489 -3.04415
  258 619.600 -3.54395 3.02319
  259 577.650 -5.18716 -30.5639
  260 800.501 98.0886 177.267
  261 537.998 -51.5559 -17.3913
  262 459.724 -12.6003 -10.7872
  263 457.677 -12.8245 11.2340
  264 0.423599 -0.344946 -11.5137
  265 -1.72338 1.57105 12.1230
  266 170.074 -4.51330 -60.2542
  267 169.089 -3.85241 59.8699
  268 387.248 -2.37386 6.01793
  269 387.201 -2.39983 -6.09324
  270 577.613 -6.48087 28.9496
  271 667.701 137.546 12.4417
  272 604.546 -56.4194 0.913577
  273 622.231 73.6458 -48.7364
  274 599.487 -31.5362 -40.0574
  275 650.598 -37.8645 -0.550492
  276 238.504 -5.17207 55.7553
  277 236.831 -5.50164 -54.9246
  278 601.679 -57.2661 -13.7631
  279 524.857 -59.5007 80.2647
  280 556.629 -9.10531 0.316613
  281 557.183 -8.74991 -0.277687
  282 617.660 -3.20300 -1.49035
  283 617.749 -3.59103 1.58672
  284 288.107 79.1370 190.254
  285 645.988 51.9266 -54.9205
  286 577.830 -49.1068 7.61349
  287 733.668 151.369 14.1141
  288 535.395 5.58613 -33.6161
  289 515.799 -15.3792 3.52318
  290 707.062 113.235 -34.1886
  291 574.067 -9.16161 156.860
  292 621.640 109.701 0.269290
  293 524.321 -56.5701 -83.7056
  294 558.267 -63.5560 38.2840
  295 533.306 -52.4065 22.7116
  296 820.291 166.825 15.9020
  297 506.475 -34.0824 17.6608
  298 615.625 -4.81254 -7.92031
  299 581.890 -29.8180 -23.8399
  300 970.136 273.854 125.413
  301 639.270 0.506942 48.7960
  302 605.891 -4.56029 -13.9032
  303 635.246 85.7779 43.6994
  304 676.779 0.0771687 -124.994
  305 610.213 17.8640 58.5126
  306 21.6578 25.3458 13.7263
  307 369.028 -27.2670 79.3406
  308 578.101 -10.7421 4.13606
  309 576.243 -11.9183 -4.57067
  310 576.913 60.3605 -26.0150
  311 355.540 -23.5249 -76.6350
  312 377.623 -30.1695 -109.428
  313 590.350 -13.9631 11.9989
  314 559.016 -32.2791 6.93548
  315 583.788 -2.91762 53.7019
  316 836.515 174.859 -202.740
  317 588.057 -20.7282 35.7523
  318 584.894 -15.7555 -12.1601
  319 615.115 -4.25752 7.91617
  320 373.157 -3.64285 12.9831
  321 373.447 -4.04308 -13.1693
  322 105.256 63.8049 -84.4520
  323 502.497 15.6671 -7.32831
  324 590.062 -18.1872 23.2868
  325 795.540 145.517 -8.65001
  326 593.179 74.1345 30.7512
  327 319.158 61.0928 -190.330
  328 369.288 -22.9840 110.137
  329 555.572 33.2922 -34.0950
  330 604.116 -5.38481 15.1157
  331 585.819 -15.7973 -42.6200
  332 15.9129 10.9982 -3.52432
  333 114.486 55.0577 78.1672
  334 442.569 -46.5118 78.8607
  335 -1.99355 11.2756 1.92125
  336 -0.806028 12.2744 -1.49033
  337 615.210 262.052 306.826
  338 583.817 -13.8418 42.9660
  339 1175.26 126.250 -147.564
  340 574.087 33.8483 47.0139
  341 680.153 70.6134 42.4223
  342 493.233 -15.7610 8.09064
  343 511.064 9.44177 21.0624
  344 451.739 -49.5957 -74.8553
  345 562.879 -27.3551 -8.47050
  346 514.385 -28.1379 9.49824
  347 589.834 -17.0395 -24.1128
  348 568.400 -62.8036 -50.7779
  349 661.314 -35.9752 -31.3533
  350 546.599 41.6562 9.47878
  351 601.535 -51.6593 13.1326
  352 754.979 57.4789 16.0748
  353 344.895 -16.7271 57.3404
  354 542.685 -20.8938 0.976267
  355 525.966 -57.7975 -43.5896
  356 861.263 210.541 50.1964
  357 644.038 107.063 -35.3011
  358 422.960 -8.49372 14.5832
  359 423.715 -9.20170 -14.8454
  360 342.565 -16.1747 -58.2009
  361 209.654 196.287 -218.760
  362 499.550 -9.45032 -2.72129
  363 500.981 -9.96232 2.35649
  364 327.636 -3.21228 -20.0276
  365 327.567 -3.27659 20.2385
  366 1098.87 42.4387 -21.7103
  367 1112.95 76.3803 69.3860
  368 531.129 -42.5072 -12.6626
  369 699.337 26.5915 163.813
  370 263.369 -1.64861 102.514
  371 263.626 -3.37058 -102.940
  372 527.656 -33.7092 127.834
  373 540.724 4.46956 34.5209
  374 564.616 6.49165 48.3434
  375 515.903 -59.4009 50.7643
  376 156.879 31.4170 -90.0382
  377 155.294 25.3454 86.6316
  378 76.5668 5.12982 -37.9884
  379 76.9340 4.33013 38.3483
  380 560.834 -50.6041 -96.6857
  381 423.984 -3.35395 -3.70273
  382 423.991 -3.30565 3.68813
  383 828.631 157.424 -1.46705
  384 512.483 -27.3189 -9.65670
  385 535.620 -13.1329 -160.038
  386 572.493 -52.7109 0.183349
  387 782.855 144.590 2.26835
  388 688.786 60.2676 -42.1823
  389 592.129 -33.4253 34.9395
  390 396.509 -9.36325 -22.3253
  391 395.392 -8.39140 21.2076
  392 515.452 -13.2646 -3.13578
  393 484.534 -16.0785 -10.1871
  394 381.312 -22.0583 52.5355
  395 380.809 -22.0138 -53.4673
  396 49.1132 76.9591 -62.9176
  397 590.040 27.5826 -54.5529
  398 457.385 -31.1055 34.4409
  399 715.107 55.9831 -175.493
  400 573.962 -38.0007 14.7431
  401 79.8096 103.581 103.311
  402 579.267 -5.14196 -50.9469
  403 378.171 -2.14914 7.72557
  404 378.043 -2.04561 -7.75806
  405 594.413 -5.51351 1.09251
  406 594.217 -5.23514 -0.932140
  407 614.326 -38.2479 30.4003
  408 295.868 -16.5915 -78.1365
  409 617.612 -3.43128 -8.78572
  410 300.182 -17.1522 78.7366
  411 707.811 16.0029 -6.12011
  412 602.129 -29.1595 42.3538
  413 533.982 -35.0009 -5.16732
  414 932.356 203.095 -83.1437
  415 587.331 -22.4763 28.8442
  416 930.313 170.680 57.3071
  417 705.948 148.547 14.0061
  418 279.691 -5.68991 -35.1120
  419 279.880 -5.45704 35.7037
  420 115.517 -1.11161 -43.2980
  421 114.070 -1.05204 42.4544
  422 590.493 -5.18367 -21.4289
  423 1166.92 164.758 149.811
  424 314.689 20.6933 151.312
  425 396.758 -17.9433 -36.4403
  426 396.236 -17.9114 36.7705
  427 432.249 -36.1602 54.3480
  428 353.228 107.609 -246.730
  429 700.692 151.509 -7.89707
  430 434.137 -35.6778 -55.0902
  431 628.925 -2.68739 -3.22643
  432 656.350 118.393 30.5751
  433 681.816 135.168 -23.4140
  434 463.970 -33.0604 -34.7476
  435 859.652 203.767 -48.7720
  436 472.590 -50.1120 100.780
  437 734.271 14.3161 -43.4221
  438 498.440 -34.2834 -138.364
  439 560.823 7.97722 -47.5094
  440 521.414 -52.0624 -31.2048
  441 1012.04 94.8966 -18.2130
  442 999.110 119.000 60.7534
  443 584.053 -41.4156 20.5888
  444 3.27565 9.59911 -10.2910
  445 4.73933 10.2703 10.2568
  446 759.261 153.427 8.14926
  447 565.683 -2.37028 26.8522
  448 513.408 -43.8180 22.3769
  449 406.413 -15.9612 144.437
  450 2.81523 -11.2088 -9.41491
  451 448.976 -41.3206 -106.464
  452 569.825 -45.0403 -8.15255
  453 564.186 -10.6427 2.57557
  454 564.071 -10.1619 -1.85936
  455 244.710 22.3478 -126.818
  456 590.260 -4.28048 20.2599
  457 86.2425 39.2460 -54.7266
  458 28.8303 33.8063 32.1071
  459 234.369 -1.65577 -32.0688
  460 233.667 -1.31274 32.1557
  461 1238.29 292.401 -230.135
  462 561.417 -1.58910 -27.8738
  463 574.161 -16.3298 -7.91168
  464 558.585 -24.3990 5.95908
  465 544.177 22.2527 35.6417
  466 601.618 -2.06406 56.7261
  467 534.737 -9.74139 -0.243236
  468 536.732 -9.59045 -0.0702483
  469 212.481 14.6284 101.712
  470 453.830 -14.6377 15.3561
  471 702.079 37.1905 25.4079
  472 658.999 -38.1476 56.1269
  473 768.365 163.497 0.357423
  474 630.103 -2.02161 3.22210
  475 542.750 -27.6345 -0.147840
  476 474.123 -7.92015 -2.74984
  477 473.864 -7.66253 2.57444
  478 172.996 79.1687 131.602
  479 544.790 -20.2291 -0.934004
  480 78.9328 41.4811 49.5676
  481 172.417 81.3148 -129.967
  482 595.332 84.5666 -8.42525
  483 487.832 -27.2611 -17.9942
  484 448.135 -8.88465 -8.36956
  485 448.455 -8.62229 8.50178
  486 620.789 -53.7059 -11.0416
  487 618.627 -4.08664 8.74826
  488 789.473 62.3857 81.3081
  489 612.505 73.6588 43.0714
  490 494.232 -37.5579 -24.4423
  491 605.110 95.3882 12.0472
  492 8.69922 -15.6909 -4.61938
  493 175.086 199.879 210.569
  494 617.990 50.8725 53.4815
  495 456.661 -14.6861 -14.2473
  496 537.831 1.04526 -23.7533
  497 425.763 34.9320 195.440
  498 551.142 -41.6936 0.643158
  499 633.217 -52.3679 41.8484
  500 595.706 -11.6478 -12.7374
  501 928.696 141.754 -22.7728
  502 169.388 -0.273022 -38.0985
  503 169.630 0.0180839 38.7173
  504 598.819 -6.34169 -4.70683
  505 596.766 -6.86948 4.83551
  506 349.475 -23.6592 95.9509
  507 433.329 -18.0220 -25.4739
  508 407.684 -12.1011 -144.549
  509 360.147 -28.1832 -92.3140
  510 340.473 -2.54290 -13.8236
  511 340.336 -2.63018 13.7231
  512 583.216 -54.7492 2.16189
  513 440.318 -21.0641 27.9227
  514 619.217 7.02311 -57.0702
  515 461.068 -21.8437 21.1847
  516 485.442 -50.5779 61.8667
  517 740.988 59.7190 -1.73520
  518 301.297 -0.990358 -19.8791
  519 301.366 -1.06998 20.1466
  520 744.808 156.974 -11.0899
  521 652.786 -5.76511 -38.1001
  522 652.837 -10.7509 32.9546
  523 591.988 -32.6172 -34.8054
  524 466.732 -39.4048 42.9397
  525 1134.64 65.7576 -74.0092
  526 644.718 -43.9655 7.71040
  527 501.716 5.39927 -19.0571
  528 501.093 -20.4418 8.59698
  529 601.358 69.8270 -40.1190
  530 961.634 293.573 199.537
  531 579.999 -13.8559 8.22142
  532 538.267 -12.0119 -0.715433
  533 543.298 -10.8515 0.0133210
  534 606.637 -47.9892 -17.3472
  535 485.496 -28.1497 18.8830
  536 380.567 0.179969 -3.50386
  537 380.606 0.190070 3.45829
  538 487.636 -52.3197 -60.2256
  539 627.641 107.550 -19.5486
  540 585.946 -17.9112 -16.6475
  541 508.563 4.54448 22.3205
  542 587.127 -23.0524 -30.1119
  543 384.130 0.136165 -0.797971
  544 384.134 0.149284 0.782017
  545 673.120 -27.0939 -63.5470
  546 472.184 -41.9745 -43.6803
  547 672.019 -10.2520 -18.8749
  548 618.876 -38.6678 102.353
  549 600.577 -9.98507 11.3991
  550 632.009 -2.34633 1.64384
  551 631.911 -2.15855 -1.40971
  552 569.420 -62.2967 -33.0312
  553 584.602 -60.0897 65.7771
  554 351.526 -1.71541 -9.08307
  555 351.350 -1.70521 9.01430
  556 532.940 -53.0688 97.4367
  557 604.710 48.8022 -51.9711
  558 465.526 -48.8616 -86.9610
  559 597.176 33.9504 56.3062
  560 568.543 -63.2972 52.9334
  561 475.511 5.75149 8.12629
  562 509.038 -12.9473 3.50599
  563 621.547 -15.5221 -48.1645
  564 775.119 164.450 -1.91697
  565 633.521 -23.9903 -36.9812
  566 486.655 -35.1646 26.4550
  567 402.969 -4.34970 10.2849
  568 403.030 -4.41251 -10.4232
  569 563.351 -15.8169 3.25469
  570 460.356 -20.9982 -20.6836
  571 584.641 -10.2770 34.0652
  572 622.893 -43.8805 -18.4253
  573 531.107 -15.9329 -1.73535
  574 940.298 290.157 -141.353
  575 537.089 13.0672 -33.9489
  576 797.134 171.548 -11.4816
  577 480.399 4.81702 -12.7545
  578 574.913 -20.5222 10.6420
  579 173.130 111.265 166.217
  580 569.207 53.9431 24.6966
  581 316.092 23.5626 -153.540
  582 621.647 -52.6483 3.41034
  583 577.258 -6.68095 -41.5838
  584 645.643 79.4570 -49.4804
  585 -4.71063 -5.57230 -10.2611
  586 -5.98212 -4.88147 10.3267
  587 407.419 -2.88069 -6.04236
  588 407.423 -2.83695 5.99374
  589 604.137 -39.6418 -31.0134
  590 609.301 -26.1951 -44.3501
  591 62.3083 57.9139 54.4714
  592 576.550 50.0268 37.4567
  593 521.801 -24.3190 -4.83209
  594 516.494 -9.22567 0.391045
  595 515.259 -9.13488 -0.814727
  596 533.519 24.8474 23.6470
  597 1125.71 26.2501 16.0307
  598 434.345 -24.4882 -34.3868
  599 471.000 6.97132 1.87656
  600 601.834 9.98992 -58.6783
  601 472.435 -53.9848 88.6002
  602 19.1245 6.30610 21.6522
  603 17.3458 5.23453 -20.4401
  604 632.584 28.4176 -57.0482
  605 564.915 59.0607 -6.67078
  606 593.158 -41.5923 -27.4742
  607 361.031 -7.28617 -27.2016
  608 360.411 -7.84042 27.1961
  609 606.823 -4.08195 2.56720
  610 606.607 -4.08578 -2.72235
  611 595.751 -5.86939 -55.8919
  612 580.045 -27.4404 20.4999
  613 427.275 -23.4212 35.9605
  614 39.2067 27.8687 -22.7923
  615 573.975 355.490 -347.782
  616 596.785 -11.0368 21.1641
  617 595.007 -10.3711 -22.8414
  618 469.186 23.3308 -194.475
  619 561.275 -16.6618 -4.33283
  620 506.194 -47.3093 33.6777
  621 655.561 132.788 -0.536863
  622 233.292 -9.26508 -71.5496
  623 235.249 -9.22415 72.1345
  624 711.376 119.731 29.6817
  625 576.991 -37.4629 -18.3091
  626 523.989 29.1871 0.00457750
  627 560.700 -53.6613 -9.59515
  628 328.304 -8.41859 33.5243
  629 328.111 -8.35898 -33.1172
  630 417.999 -10.1705 -19.2545
  631 402.266 -1.04658 -2.59667
  632 402.276 -1.01369 2.57968
  633 573.005 -21.5562 -10.6045
  634 634.840 -1.27782 -0.843406
  635 634.672 -1.42382 1.10327
  636 747.836 142.174 -17.1883
  637 357.648 110.874 231.380
  638 682.265 -8.26138 12.7996
  639 308.174 49.2498 169.902
  640 140.391 38.7768 84.7413
  641 697.045 31.8410 -30.5801
  642 589.532 -55.7103 -0.780128
  643 430.084 -5.49641 -6.71989
  644 430.205 -5.41499 6.73857
  645 570.658 -6.62847 -0.392867
  646 571.088 -6.77229 0.498867
  647 452.702 -45.7128 -64.4367
  648 214.463 10.2330 -102.810
  649 358.867 -1.72761 5.79544
  650 358.767 -1.82217 -5.70834
  651 1281.27 354.201 263.473
  652 668.469 76.1967 -49.1130
  653 599.423 -19.3422 -49.7617
  654 592.510 -21.7870 -45.0180
  655 626.456 51.5751 -56.1744
  656 387.102 -9.58784 -27.8171
  657 385.758 -10.2072 27.1903
  658 556.672 -48.4832 -3.51331
  659 4.64145 -14.8902 10.6983
  660 622.668 -1.14701 54.4856
  661 42.7103 26.2830 23.6348
  662 560.842 16.0154 46.0161
  663 96.0645 90.5976 -90.4403
  664 528.607 22.4604 -24.2828
  665 611.775 -4.82358 5.97412
  666 516.533 -45.7433 -23.8445
  667 584.344 -10.8741 -35.7438
  668 191.426 -1.14232 27.8313
  669 192.112 -0.966525 -27.9368
  670 706.000 139.196 -24.2416
  671 327.332 -16.9716 -117.340
  672 572.196 -31.4662 -14.6303
  673 504.114 -20.9975 -9.31156
  674 610.884 -5.75867 -5.67770
  675 658.622 93.8524 43.3775
  676 117.071 22.3121 -63.9878
  677 114.148 14.7982 63.4714
  678 596.786 -14.7400 52.2433
  679 527.835 -39.5647 11.2363
  680 586.127 -31.3024 -29.0413
  681 855.672 215.044 -55.3921
  682 693.151 148.512 4.93267
  683 510.111 -17.8485 5.54760
  684 656.126 25.0118 50.5567
  685 592.622 -62.2340 24.0768
  686 413.027 -9.70551 19.2305
  687 534.985 -57.5071 33.4390
  688 616.241 -3.19135 0.279477
  689 616.183 -3.41102 -0.224321
  690 861.856 190.298 48.5324
  691 347.312 -13.4341 45.6022
  692 51.1394 51.4319 -39.4322
  693 -13.7960 0.529001 11.7441
  694 -12.0451 0.908983 -12.1677
  695 305.281 -11.4972 49.8627
  696 150.998 56.6844 -97.9611
  697 12.5235 2.44620 -18.3706
  698 570.324 -45.7791 7.96628
  699 398.049 -24.3992 -127.842
  700 450.152 -45.4523 63.4570
  701 554.239 -34.7741 -3.71180
  702 8.14664 -15.4264 -2.81765
  703 657.383 31.6332 -50.6659
  704 590.661 -58.1231 -6.50329
  705 583.333 -47.9257 -14.9687
  706 574.006 17.3474 -51.9425
  707 346.671 -13.5044 -45.6552
  708 59.7153 104.417 -96.1162
  709 572.257 31.6246 -48.3886
  710 -0.657966 -14.9458 -11.6643
  711 541.123 0.397152 22.5032
  712 304.306 -10.9932 -49.3150
  713 381.822 -21.9085 127.181
  714 529.320 -17.8773 2.28503
  715 442.732 -9.53249 -10.9685
  716 320.904 -13.3046 115.637
  717 192.132 1.39475 -80.0325
  718 189.324 0.934309 78.5011
  719 441.392 -9.07114 11.2943
  720 115.156 2.07895 -32.6026
  721 115.704 2.27563 32.4258
  722 476.410 -17.3938 12.4723
  723 573.340 -0.932857 -18.8269
  724 656.007 75.6201 243.258
  725 466.132 -8.61931 -6.15965
  726 465.887 -8.84690 5.98635
  727 587.655 -17.3186 -37.1680
  728 452.949 -5.75871 -3.12144
  729 452.842 -5.55990 3.03553
  730 576.730 -6.41204 37.1031
  731 584.900 -61.7678 15.1596
  732 475.443 -12.1902 7.93633
  733 51.5619 -1.27647 -22.2027
  734 51.8584 -1.86293 21.8942
  735 474.676 -10.9035 -7.51166
  736 12.2672 13.4510 -2.30659
  737 625.264 -46.4485 -72.0314
  738 704.479 -8.57181 29.0411
  739 223.125 31.6510 119.496
  740 372.407 0.0593676 3.89599
  741 372.317 0.0952912 -3.94350
  742 552.274 -56.1817 17.0495
  743 1044.34 149.298 -119.999
  744 513.290 1.23072 -18.4081
  745 502.581 -11.9079 -3.73730
  746 441.830 162.428 279.842
  747 632.046 24.6650 56.8148
  748 574.833 -1.22801 18.1743
  749 637.332 -1.53761 -1.87271
  750 637.905 -1.85389 1.88252
  751 884.437 170.320 -40.2967
  752 636.619 114.640 14.6732
  753 496.371 -14.5311 -6.06433
  754 625.137 -2.91157 6.29731
  755 403.176 -22.8631 -45.9868
  756 575.156 -7.24842 2.05839
  757 574.915 -7.22359 -1.72881
  758 426.574 -35.4824 114.496
  759 592.292 -63.3942 -31.1610
  760 589.781 -24.2326 39.5766
  761 402.595 -22.5022 45.6110
  762 618.962 88.9718 -35.6318
  763 516.507 3.87300 19.3667
  764 410.436 -37.9536 -86.1379
  765 499.145 -14.1740 5.72725
  766 586.051 -11.1313 50.0537
  767 377.630 0.566793 -1.33571
  768 377.648 0.575076 1.30946
  769 12.5351 17.0795 0.666701
  770 419.268 -13.6961 24.1230
  771 529.049 -13.4922 1.67497
  772 582.854 -25.2911 -21.4559
  773 275.808 -1.13750 20.4491
  774 275.951 -1.17493 -20.1380
  775 630.648 -19.4413 41.7903
  776 585.046 -13.2204 -47.7508
  777 228.116 -9.36977 -82.9358
  778 228.893 -8.29810 82.4098
  779 611.696 -50.6948 7.54216
  780 583.949 -19.2666 16.7785
  781 878.610 171.297 91.7083
</Section>

newXOutput 34

<Section columns = "stress_xx | stress_yy | stress_xy">
  1 664.392 0.143593 0.764352
  2 664.614 0.0633803 -0.734628
  3 389.115 -0.0428907 -0.549465
  4 -4.73535 -5.37519 -6.34982
  5 1159.60 498.010 389.499
  6 1105.37 452.313 -328.780
  7 -6.25115 -5.36864 7.26883
  8 389.123 -0.0499664 0.540990
  9 666.479 -0.892505 -0.224269
  10 666.955 -2.46942 1.38818
  11 665.162 -1.99515 0.786080
  12 655.391 -2.32894 3.39487
  13 650.883 -2.39797 4.08649
  14 639.780 -3.32646 6.95817
  15 620.877 -2.45159 11.0588
  16 598.357 -1.17055 13.0374
  17 571.802 0.669398 15.4027
  18 532.788 2.23181 12.8595
  19 507.793 5.13533 15.2612
  20 488.433 4.24499 11.5000
  21 464.228 5.26750 3.27084
  22 470.752 7.94185 -4.40493
  23 479.587 4.03043 -8.09031
  24 506.398 3.67258 -13.3024
  25 531.119 1.52648 -14.4363
  26 571.466 0.789360 -16.0784
  27 597.722 -1.83251 -14.0413
  28 622.859 -2.68878 -11.1703
  29 639.649 -2.34809 -7.79885
  30 647.993 -2.42258 -6.40873
  31 656.511 -3.27588 -2.27325
  32 665.181 -1.77053 -0.176841
  33 667.080 -2.17029 -1.20098
  34 666.749 -1.08534 0.317207
  35 645.618 -1.75809 -1.14223
  36 620.935 -3.99261 -1.22182
  37 597.835 -7.02128 -1.63307
  38 570.443 -8.62087 -1.77608
  39 542.607 -9.44787 -1.34686
  40 510.905 -8.62635 -0.294000
  41 480.156 -6.89348 -0.143368
  42 452.473 -5.18917 0.509533
  43 428.016 -2.31644 0.920812
  44 404.903 -0.690522 0.0131699
  45 382.176 1.06106 0.128434
  46 380.557 0.917323 1.74185
  47 377.275 0.243654 1.30240
  48 370.869 -0.583709 3.35650
  49 357.845 0.0736066 4.49354
  50 345.924 -0.895627 6.59890
  51 331.256 -0.671678 9.48318
  52 306.512 0.0629330 10.2498
  53 277.955 0.288832 11.8758
  54 249.956 -0.313227 18.5599
  55 197.264 1.24475 17.3607
  56 160.243 1.38238 20.2987
  57 108.838 1.87890 18.5908
  58 61.2684 0.648022 20.7079
  59 13.0303 5.55895 21.1134
  60 -20.3781 6.62684 11.2014
  61 -33.3136 6.50172 0.347897
  62 -29.1058 5.08289 -10.4646
  63 -17.3711 -1.40216 -9.39211
  64 -1.69809 -17.5689 -8.82726
  65 1.28768 -33.1958 -11.5221
  66 4.71766 -51.3585 -5.79985
  67 15.2685 -48.7263 3.29025
  68 26.6817 7.38944 34.5471
  69 76.5439 131.553 112.757
  70 314.654 381.164 327.467
  71 1501.80 166.781 232.490
  72 1238.13 52.1417 78.8695
  73 1184.21 29.6157 31.3226
  74 1168.19 19.1649 -1.87491
  75 1180.77 25.0005 -28.3046
  76 1255.52 47.0681 -76.5773
  77 1437.85 137.667 -201.343
  78 252.852 431.929 -313.343
  79 63.3115 84.0541 -89.0646
  80 24.6399 8.37721 -36.0204
  81 7.53860 -47.6823 -6.56224
  82 4.81754 -39.3573 3.72381
  83 5.32562 -41.9370 9.42935
  84 0.531842 -15.8756 11.2317
  85 -18.6687 -1.14343 9.27091
  86 -30.6098 4.90946 10.2095
  87 -34.0846 6.44829 -0.590068
  88 -20.9377 6.21179 -11.0497
  89 12.0350 6.18101 -20.7878
  90 60.5466 0.833082 -20.9894
  91 108.551 1.75511 -18.8943
  92 160.776 1.35912 -20.4367
  93 197.996 1.20595 -17.4872
  94 250.696 -0.474822 -18.3747
  95 278.295 0.287651 -11.6543
  96 306.482 0.176602 -10.1360
  97 331.308 -0.644452 -9.53296
  98 345.867 -0.903187 -6.58318
  99 357.810 0.0691958 -4.50031
  100 370.745 -0.564907 -3.33964
  101 377.172 0.249642 -1.33213
  102 380.515 0.912118 -1.76985
  103 382.170 1.05360 -0.144311
  104 404.897 -0.715168 -0.0239391
  105 428.004 -2.36373 -0.935162
  106 452.453 -5.25897 -0.496077
  107 480.482 -7.06834 0.219699
  108 511.192 -8.69202 0.196073
  109 541.633 -9.46794 1.26232
  110 570.045 -8.26010 1.58474
  111 597.943 -7.26522 1.64391
  112 620.912 -4.19803 1.21454
  113 645.452 -1.97004 1.22971
  114 577.564 -61.0170 -21.8955
  115 583.829 -60.8011 17.1850
  116 621.371 88.1795 -28.1898
  117 493.338 -41.6492 -123.735
  118 479.199 -38.6922 126.138
  119 665.729 62.9932 53.6667
  120 694.581 19.0561 -40.1109
  121 499.219 -21.4976 -15.0492
  122 496.778 -22.7282 15.4939
  123 761.663 166.422 1.52480
  124 587.626 -27.1676 12.8060
  125 592.069 -25.7345 -15.0762
  126 607.932 -13.5687 -52.6426
  127 419.306 -34.3335 68.1476
  128 418.565 -34.6671 -71.4358
  129 610.306 -21.4730 46.8728
  130 820.470 184.695 12.8309
  131 224.132 51.6143 -135.122
  132 216.810 52.6344 133.182
  133 725.929 2.06179 -13.2446
  134 848.492 193.189 -30.1733
  135 572.745 39.4465 31.3668
  136 562.682 -15.8617 0.666786
  137 565.532 -14.7662 -1.03862
  138 719.909 -7.16024 86.5077
  139 421.578 -17.0659 -31.3972
  140 421.736 -16.9951 30.1579
  141 552.685 38.4490 -212.327
  142 962.414 132.945 18.7726
  143 577.214 20.5792 -46.9782
  144 437.553 -5.76581 -9.13892
  145 437.479 -5.74078 9.18999
  146 500.615 -40.8653 33.0427
  147 509.778 -42.8335 -32.8646
  148 303.698 -18.8550 -98.4491
  149 302.556 -15.1502 99.8106
  150 639.528 97.6114 30.5197
  151 629.070 -60.6272 33.8370
  152 635.419 -35.5468 -34.7305
  153 652.723 -38.7573 20.0704
  154 601.848 -41.2963 -23.3887
  155 630.024 29.9445 -59.8543
  156 558.874 49.4673 231.495
  157 44.4889 36.4300 24.8075
  158 39.3375 30.5243 -19.4567
  159 559.344 35.6884 -12.6281
  160 602.290 13.5483 56.2598
  161 615.545 -8.79095 8.23125
  162 610.729 -10.1576 -8.27505
  163 571.449 -42.6874 0.960619
  164 606.548 -14.4457 -30.5635
  165 693.221 114.764 -38.8767
  166 553.256 -35.9294 4.04908
  167 527.158 -59.9127 66.9332
  168 499.507 -11.6517 -4.78948
  169 500.067 -11.6079 4.93569
  170 608.928 -13.4255 28.3674
  171 530.792 -59.5628 -64.4293
  172 622.457 -58.4259 -49.5643
  173 706.030 125.310 33.9916
  174 555.156 -29.5730 -1.07328
  175 821.128 101.630 -70.4361
  176 154.624 9.80060 -77.6717
  177 150.465 9.07165 75.8009
  178 1010.42 193.577 103.568
  179 856.784 161.607 39.6936
  180 1040.48 120.774 -66.0635
  181 603.825 -8.36845 2.56825
  182 603.161 -8.21426 -2.62388
  183 376.188 -11.4594 -38.5104
  184 376.229 -11.6073 38.6325
  185 305.074 -10.9415 -60.3138
  186 307.136 -11.0142 61.3210
  187 181.991 132.141 -169.157
  188 585.555 -3.14612 43.3554
  189 613.595 -45.2421 23.6880
  190 409.563 -4.90403 -14.1226
  191 408.895 -5.18992 14.2381
  192 92.8307 93.7139 100.304
  193 575.101 1.04771 -42.0323
  194 603.382 -31.6827 29.6846
  195 553.838 9.28229 37.3397
  196 617.399 -37.2032 -116.292
  197 618.707 -10.2245 -16.6267
  198 563.706 -49.6811 9.71588
  199 677.571 134.992 -18.2098
  200 629.857 -19.3430 50.3512
  201 427.643 -39.6050 -100.430
  202 318.305 -1.73612 -131.926
  203 311.312 0.293569 132.048
  204 612.161 51.8132 46.8632
  205 444.778 0.887110 172.637
  206 594.594 67.0837 9.10937
  207 749.077 87.1926 -24.2261
  208 620.171 -10.0303 14.7265
  209 427.799 -39.0114 101.004
  210 539.335 -23.4247 4.52916
  211 998.034 252.456 -129.803
  212 749.155 99.3118 27.6392
  213 444.658 -31.2256 -44.5659
  214 442.506 -29.2327 43.9615
  215 71.0570 22.7427 -43.0610
  216 80.6339 23.1438 49.0389
  217 500.454 -50.5491 51.2138
  218 529.119 -19.1497 -5.88497
  219 533.322 -11.0246 -1.46702
  220 538.655 -11.0367 1.30759
  221 501.618 -48.9432 -51.4707
  222 526.312 -35.2689 -14.8819
  223 616.536 -53.6438 86.7955
  224 751.312 163.049 -8.39532
  225 867.027 170.820 -16.9683
  226 694.207 20.4212 37.6935
  227 580.841 -19.7013 7.24614
  228 431.318 4.58628 -175.532
  229 479.957 -29.2889 26.9228
  230 575.586 -22.5079 -5.46678
  231 691.655 -30.2054 16.8754
  232 599.946 47.8553 -45.4136
  233 661.159 -34.5369 -19.4083
  234 524.589 20.8279 9.05662
  235 451.344 -14.7317 -20.1200
  236 654.695 1.61383 -51.8578
  237 378.229 -5.29132 -19.7878
  238 377.884 -5.18988 19.2319
  239 407.524 -0.518531 -2.69877
  240 407.538 -0.490142 2.66513
  241 602.928 6.77762 -57.5682
  242 447.965 -14.6016 21.1510
  243 476.474 -28.5618 -28.4672
  244 218.886 162.464 218.599
  245 38.0256 48.0592 -34.3622
  246 1094.70 83.0762 23.9911
  247 523.847 9.75808 -20.1358
  248 582.454 -39.4782 -9.24953
  249 588.546 137.614 -290.597
  250 609.844 -49.9249 -16.3848
  251 319.401 -9.77990 -39.8273
  252 319.798 -10.0994 40.1402
  253 606.306 -25.2341 -38.5940
  254 626.251 -8.88391 -55.6103
  255 461.656 -6.69239 -4.27352
  256 461.653 -6.73346 4.16068
  257 636.715 -4.38038 -3.06790
  258 637.241 -3.68029 3.04806
  259 594.583 -5.34729 -31.2488
  260 822.386 101.531 182.859
  261 553.698 -53.0426 -18.1590
  262 473.526 -12.9480 -11.1761
  263 471.429 -13.1779 11.6349
  264 0.501968 -0.298782 -11.7852
  265 -1.70655 1.66402 12.4122
  266 175.641 -4.66346 -62.1378
  267 174.626 -3.98270 61.7440
  268 399.308 -2.42797 6.21733
  269 399.259 -2.45451 -6.29461
  270 594.548 -6.67271 29.5959
  271 687.213 141.479 12.6745
  272 621.954 -58.0637 1.33189
  273 640.444 75.7923 -49.8289
  274 616.872 -32.4665 -40.8246
  275 669.187 -38.9500 -1.03256
  276 246.134 -5.32691 57.4569
  277 244.414 -5.66631 -56.6002
  278 618.989 -58.9354 -14.5416
  279 540.074 -61.2443 82.8585
  280 572.797 -9.39809 0.275581
  281 573.363 -9.03369 -0.237111
  282 635.229 -3.33021 -1.50189
  283 635.320 -3.72803 1.60016
  284 296.651 81.4764 196.086
  285 664.728 53.4375 -56.0752
  286 594.576 -50.5375 7.49365
  287 754.844 155.701 14.1667
  288 551.416 5.76797 -34.4265
  289 530.983 -15.8268 3.73157
  290 727.447 116.522 -34.7004
  291 590.355 -9.34564 161.700
  292 639.933 112.883 0.276340
  293 539.513 -58.2310 -86.4026
  294 574.427 -65.4044 39.6957
  295 548.872 -53.9192 23.6277
  296 843.701 171.522 16.5525
  297 521.394 -35.0539 18.3609
  298 633.244 -4.97455 -8.04667
  299 598.775 -30.6992 -24.2223
  300 997.050 281.765 129.398
  301 657.728 0.515970 49.7457
  302 623.390 -4.70429 -14.1831
  303 653.804 88.2680 44.6451
  304 695.744 0.242942 -129.003
  305 628.012 18.3854 59.8218
  306 22.4132 26.2923 14.3406
  307 380.198 -28.0702 81.7726
  308 594.797 -11.0858 4.13821
  309 592.898 -12.2938 -4.57645
  310 594.005 62.1567 -26.6322
  311 366.358 -24.2173 -78.9798
  312 388.908 -31.0906 -112.795
  313 607.384 -14.3951 12.1614
  314 575.286 -33.2220 6.88009
  315 600.903 -3.00124 54.9243
  316 859.133 180.565 -209.063
  317 605.163 -21.3436 36.4796
  318 601.795 -16.2373 -12.3190
  319 632.717 -4.40868 8.04200
  320 384.794 -3.73241 13.3879
  321 385.090 -4.14344 -13.5793
  322 108.634 65.7582 -87.2637
  323 517.768 16.1692 -7.51030
  324 607.157 -18.7392 23.7091
  325 818.094 149.825 -9.50230
  326 610.684 76.3147 31.4702
  327 328.570 62.8872 -196.139
  328 380.342 -23.6983 113.521
  329 572.107 34.3066 -34.9149
  330 621.566 -5.55524 15.4172
  331 602.909 -16.2673 -43.5386
  332 16.4663 11.4992 -3.79787
  333 118.141 56.7419 80.7746
  334 455.685 -47.8746 81.3245
  335 -1.91606 11.6468 1.87885
  336 -0.697137 12.6767 -1.43065
  337 631.702 270.409 315.744
  338 600.871 -14.2549 43.9026
  339 1206.82 129.685 -151.423
  340 591.051 34.8601 48.1281
  341 699.769 72.6805 43.1719
  342 507.858 -16.2078 8.43373
  343 526.531 9.75631 21.5795
  344 465.103 -51.0446 -77.2097
  345 579.243 -28.1588 -8.47897
  346 529.518 -28.9422 9.95351
  347 606.928 -17.5555 -24.5605
  348 584.785 -64.6349 -52.5644
  349 680.108 -36.9810 -32.7199
  350 562.936 42.9252 9.70962
  351 618.901 -53.1677 13.1181
  352 776.256 59.3029 17.1569
  353 355.512 -17.2067 59.0897
  354 558.532 -21.5079 0.840109
  355 541.299 -59.4741 -45.1123
  356 885.600 216.623 52.1063
  357 662.869 110.157 -36.0477
  358 435.853 -8.71821 15.0634
  359 436.627 -9.44565 -15.3333
  360 353.120 -16.6391 -59.9736
  361 215.604 202.684 -225.378
  362 514.342 -9.72587 -2.83980
  363 515.807 -10.2520 2.46675
  364 337.973 -3.29756 -20.6309
  365 337.901 -3.36329 20.8478
  366 1128.60 43.6086 -22.2774
  367 1143.05 78.4735 71.1892
  368 546.668 -43.7292 -13.2663
  369 718.770 27.6334 168.892
  370 271.492 -1.73914 105.697
  371 271.757 -3.51245 -106.131
  372 542.822 -34.6965 131.814
  373 556.865 4.61664 35.3483
  374 581.303 6.69633 49.4838
  375 530.966 -61.1256 52.4804
  376 161.860 32.3222 -92.9345
  377 160.245 26.0683 89.4193
  378 79.2699 5.27512 -39.2431
  379 79.6460 4.45167 39.6136
  380 576.921 -52.0774 -99.7911
  381 436.955 -3.43445 -3.82416
  382 436.962 -3.38487 3.80922
  383 852.262 161.816 -1.52557
  384 527.571 -28.0986 -10.1078
  385 550.897 -13.4712 -164.946
  386 589.091 -54.2432 0.522254
  387 805.108 148.856 2.93926
  388 708.582 62.0431 -42.8754
  389 609.314 -34.4109 35.5814
  390 408.690 -9.61294 -23.0290
  391 407.549 -8.61211 21.8756
  392 530.627 -13.6540 -3.31848
  393 498.942 -16.5323 -10.5862
  394 392.935 -22.6827 54.1516
  395 392.416 -22.6384 -55.1104
  396 50.7081 79.6577 -65.1029
  397 607.374 28.4007 -55.8196
  398 471.039 -31.9849 35.5757
  399 734.865 57.9466 -180.931
  400 590.626 -39.1127 14.8606
  401 82.2864 107.162 106.706
  402 596.267 -5.28967 -52.1105
  403 389.978 -2.19941 7.97146
  404 389.846 -2.09311 -8.00483
  405 611.459 -5.71231 1.09114
  406 611.258 -5.42694 -0.926752
  407 632.061 -39.3709 30.8563
  408 305.028 -17.0923 -80.5288
  409 635.327 -3.54646 -8.94596
  410 309.458 -17.6694 81.1489
  411 727.913 16.5450 -5.73876
  412 619.592 -30.0204 43.1799
  413 549.606 -36.0102 -5.54125
  414 958.471 208.837 -85.6797
  415 604.377 -23.1479 29.3860
  416 956.387 175.447 59.0281
  417 726.454 152.782 14.2006
  418 288.589 -5.84847 -36.1672
  419 288.782 -5.60920 36.7759
  420 119.455 -1.15867 -44.6822
  421 117.963 -1.09638 43.8145
  422 607.688 -5.34981 -21.8879
  423 1198.36 169.249 153.766
  424 324.092 21.2476 155.971
  425 408.862 -18.4408 -37.5758
  426 408.329 -18.4083 37.9136
  427 445.190 -37.1954 56.0561
  428 363.408 110.908 -254.139
  429 721.084 155.815 -8.02886
  430 447.120 -36.6999 -56.8230
  431 646.797 -2.78246 -3.26498
  432 675.519 121.803 31.1998
  433 701.671 139.042 -23.8328
  434 477.782 -33.9977 -35.9040
  435 883.817 209.784 -50.8151
  436 486.405 -51.5969 103.931
  437 754.897 14.8757 -45.2185
  438 512.823 -35.2943 -142.640
  439 577.430 8.22911 -48.6332
  440 536.665 -53.5646 -32.3530
  441 1039.92 97.5091 -18.7130
  442 1026.74 122.282 62.4477
  443 600.986 -42.6289 20.8369
  444 3.61799 9.88706 -10.7061
  445 5.12383 10.5791 10.6714
  446 781.026 157.869 7.90878
  447 582.371 -2.43912 27.4687
  448 528.483 -45.0748 23.2433
  449 418.360 -16.4758 148.867
  450 2.93146 -11.4335 -9.60932
  451 462.168 -42.5573 -109.767
  452 586.370 -46.3517 -8.07343
  453 580.542 -10.9800 2.55256
  454 580.422 -10.4865 -1.82588
  455 252.205 22.9529 -130.779
  456 607.457 -4.41819 20.6967
  457 89.0783 40.4429 -56.6044
  458 29.7731 35.1607 33.3097
  459 241.978 -1.70025 -33.0406
  460 241.256 -1.34690 33.1308
  461 1271.19 300.608 -236.274
  462 578.015 -1.63421 -28.5190
  463 590.785 -16.8294 -7.96579
  464 574.837 -25.1186 5.91630
  465 560.425 22.9412 36.5064
  466 619.160 -2.12787 57.9820
  467 550.380 -10.0427 -0.289062
  468 552.423 -9.88862 -0.0333669
  469 219.117 15.0189 104.915
  470 467.473 -15.0401 15.8883
  471 722.120 38.3234 25.5933
  472 677.669 -39.1953 58.1835
  473 790.502 168.105 0.463191
  474 647.999 -2.10042 3.26208
  475 558.601 -28.4371 0.0514425
  476 488.300 -8.14067 -2.85852
  477 488.034 -7.87633 2.67805
  478 178.327 81.5694 135.793
  479 560.687 -20.8255 -0.798479
  480 81.5496 42.7417 51.2841
  481 177.753 83.7605 -134.114
  482 612.921 87.0515 -8.61941
  483 502.291 -28.0314 -18.6689
  484 461.669 -9.12312 -8.66437
  485 461.997 -8.85391 8.80026
  486 638.596 -55.2685 -11.7774
  487 636.372 -4.21351 8.91199
  488 811.417 64.5425 84.2584
  489 630.483 75.8128 44.0507
  490 508.831 -38.6264 -25.3321
  491 622.955 98.1729 12.3223
  492 9.00115 -15.8933 -4.92016
  493 180.151 206.495 217.005
  494 636.047 52.3561 54.6758
  495 470.373 -15.0910 -14.7500
  496 553.909 1.08101 -24.3190
  497 438.067 35.9948 201.367
  498 567.201 -42.8999 0.928558
  499 651.267 -53.8668 43.4661
  500 612.875 -12.0153 -12.9321
  501 954.708 145.694 -23.4649
  502 175.039 -0.283620 -39.2734
  503 175.286 0.0157605 39.9114
  504 615.998 -6.56108 -4.74648
  505 613.901 -7.10561 4.87350
  506 360.054 -24.3768 98.8962
  507 446.418 -18.5204 -26.3023
  508 419.657 -12.5047 -148.978
  509 371.016 -29.0290 -95.1528
  510 351.212 -2.60922 -14.2412
  511 351.069 -2.69901 14.1384
  512 600.091 -56.3445 1.86727
  513 453.573 -21.6495 28.8329
  514 637.207 7.22293 -58.3013
  515 474.865 -22.4522 21.9118
  516 499.708 -52.0461 63.8650
  517 761.983 61.5792 -2.38511
  518 310.889 -1.01199 -20.4747
  519 310.959 -1.09394 20.7493
  520 766.260 161.465 -11.0250
  521 671.551 -5.92858 -38.7138
  522 671.584 -11.0601 33.4199
  523 609.166 -33.5791 -35.4483
  524 480.589 -40.5308 44.3475
  525 1165.21 67.5694 -75.9427
  526 663.138 -45.2291 8.38200
  527 516.966 5.57986 -19.5247
  528 515.905 -21.0237 8.98335
  529 619.055 71.8770 -41.0425
  530 987.624 302.509 205.855
  531 596.760 -14.2866 8.29670
  532 553.997 -12.3773 -0.819723
  533 559.151 -11.1877 0.0925194
  534 624.139 -49.3925 -17.4450
  535 499.895 -28.9458 19.5830
  536 392.497 0.192153 -3.61748
  537 392.537 0.202508 3.57077
  538 501.961 -53.8377 -62.1833
  539 646.080 110.669 -19.9833
  540 602.900 -18.4550 -16.9036
  541 523.971 4.69583 22.8679
  542 604.172 -23.7399 -30.6815
  543 396.175 0.147776 -0.827013
  544 396.178 0.161249 0.810677
  545 692.134 -27.7985 -65.8365
  546 486.174 -43.1763 -45.1183
  547 691.213 -10.5246 -18.9107
  548 636.435 -39.7295 105.677
  549 617.858 -10.3030 11.5719
  550 649.898 -2.43340 1.65972
  551 649.797 -2.24172 -1.42017
  552 585.873 -64.1115 -34.3095
  553 601.368 -61.8361 68.0120
  554 362.606 -1.75771 -9.36054
  555 362.426 -1.74747 9.29022
  556 548.316 -54.6259 100.538
  557 622.445 50.2379 -53.1604
  558 479.200 -50.3026 -89.6890
  559 614.690 34.9487 57.6061
  560 584.932 -65.1418 54.7828
  561 490.144 5.94870 8.32802
  562 524.058 -13.3239 3.68402
  563 639.534 -15.9838 -49.1214
  564 797.416 169.088 -2.15689
  565 651.771 -24.6948 -37.5940
  566 501.064 -36.1615 27.3885
  567 415.393 -4.45690 10.6179
  568 415.456 -4.52126 -10.7599
  569 579.699 -16.2993 3.20459
  570 474.136 -21.5837 -21.3953
  571 601.706 -10.5895 34.8006
  572 640.814 -45.1625 -18.5262
  573 546.666 -16.4022 -1.90399
  574 966.265 298.697 -145.991
  575 553.160 13.4883 -34.7728
  576 819.961 176.409 -12.1173
  577 495.148 4.98484 -13.0762
  578 591.576 -21.1379 10.7390
  579 178.412 114.683 171.440
  580 586.104 55.5597 25.2889
  581 325.535 24.2016 -158.264
  582 639.487 -54.1785 3.92775
  583 594.189 -6.88115 -42.5240
  584 664.441 81.7644 -50.5294
  585 -4.83826 -5.72719 -10.5568
  586 -6.14257 -5.00924 10.6169
  587 419.977 -2.94784 -6.24315
  588 419.981 -2.90288 6.19331
  589 621.611 -40.8063 -31.5061
  590 626.955 -26.9697 -45.2174
  591 64.3507 59.7901 56.3937
  592 593.610 51.5187 38.3431
  593 537.127 -25.0195 -5.13398
  594 531.698 -9.50389 0.433031
  595 530.432 -9.41075 -0.867413
  596 549.526 25.6235 24.2261
  597 1155.99 26.9777 16.4374
  598 447.421 -25.1734 -35.4900
  599 485.526 7.20446 1.92529
  600 619.408 10.2795 -59.9994
  601 486.291 -55.5762 91.3837
  602 20.0464 6.48805 22.4011
  603 18.2163 5.38443 -21.1526
  604 650.944 29.2437 -58.2666
  605 581.714 60.8291 -6.83004
  606 610.342 -42.8123 -27.8916
  607 372.250 -7.48089 -28.0342
  608 371.614 -8.05075 28.0284
  609 624.164 -4.23772 2.58394
  610 623.943 -4.24129 -2.74314
  611 613.140 -6.04470 -57.1390
  612 596.872 -28.2521 20.8092
  613 440.170 -24.0765 37.1037
  614 40.6179 28.7307 -23.6561
  615 589.188 366.731 -357.601
  616 614.046 -11.3808 21.5683
  617 612.253 -10.6947 -23.2956
  618 482.642 24.0108 -200.339
  619 577.578 -17.1655 -4.29900
  620 521.059 -48.6687 34.8706
  621 674.760 136.595 -0.543909
  622 240.686 -9.55468 -73.7539
  623 242.696 -9.51291 74.3576
  624 731.881 123.208 30.0743
  625 593.740 -38.5617 -18.5226
  626 539.776 30.0965 0.00510447
  627 576.979 -55.2161 -10.1813
  628 338.589 -8.65185 34.5361
  629 338.393 -8.59057 -34.1179
  630 430.740 -10.4426 -19.8782
  631 414.730 -1.06290 -2.67414
  632 414.740 -1.02914 2.65673
  633 589.618 -22.2023 -10.6948
  634 652.775 -1.33763 -0.854824
  635 652.605 -1.48745 1.12043
  636 769.277 146.299 -17.1614
  637 368.018 114.187 238.334
  638 701.710 -8.46520 12.6534
  639 317.325 50.6746 175.124
  640 144.849 39.9213 87.5094
  641 716.955 32.8043 -30.9109
  642 606.560 -57.3336 -0.435397
  643 443.189 -5.63619 -6.94713
  644 443.314 -5.55252 6.96641
  645 587.154 -6.85859 -0.376677
  646 587.594 -7.00593 0.485408
  647 466.123 -47.0387 -66.4746
  648 221.158 10.4889 -106.043
  649 370.179 -1.76924 5.97698
  650 370.076 -1.86626 -5.88748
  651 1314.91 364.189 270.521
  652 687.811 78.4132 -50.0770
  653 616.856 -19.9166 -50.8104
  654 609.751 -22.4339 -45.9587
  655 644.718 53.0779 -57.4161
  656 399.006 -9.84488 -28.6820
  657 397.628 -10.4814 28.0366
  658 572.863 -49.8879 -3.90899
  659 4.81863 -15.2654 10.9541
  660 640.722 -1.18717 55.6324
  661 44.2293 27.0973 24.5252
  662 577.466 16.5102 47.1140
  663 99.1207 93.4407 -93.4528
  664 544.495 23.1688 -24.8812
  665 629.271 -4.99761 6.05152
  666 531.682 -47.0577 -24.7597
  667 601.403 -11.2021 -36.5194
  668 197.791 -1.17635 28.6801
  669 198.498 -0.995393 -28.7881
  670 726.451 143.195 -24.5847
  671 337.217 -17.5200 -120.949
  672 588.811 -32.3909 -14.7743
  673 519.001 -21.5965 -9.71919
  674 628.357 -5.95846 -5.74483
  675 677.770 96.5715 44.2527
  676 120.926 22.9574 -66.0763
  677 117.914 15.2164 65.5485
  678 614.169 -15.1795 53.3750
  679 543.295 -40.7008 11.7879
  680 603.138 -32.2267 -29.5465
  681 879.870 221.251 -57.4371
  682 713.349 152.737 5.01456
  683 525.152 -18.3628 5.83225
  684 675.047 25.7417 51.5398
  685 609.680 -64.0448 25.1365
  686 425.646 -9.96460 19.8487
  687 550.572 -59.1720 34.6715
  688 633.772 -3.31792 0.297296
  689 633.713 -3.54272 -0.240944
  690 886.281 195.673 50.1964
  691 358.061 -13.8091 46.9870
  692 52.8499 53.0845 -40.8703
  693 -14.1672 0.558876 12.0628
  694 -12.3609 0.954429 -12.5003
  695 314.847 -11.8281 51.3710
  696 155.762 58.3757 -101.145
  697 12.9598 2.94958 -19.1327
  698 586.883 -47.1128 7.88040
  699 409.825 -25.1652 -131.763
  700 463.510 -46.7697 65.4629
  701 570.383 -35.7867 -3.56833
  702 8.41741 -15.6564 -2.77297
  703 676.352 32.5591 -51.6497
  704 607.708 -59.8170 -7.06022
  705 600.237 -49.3250 -15.0488
  706 590.942 17.8730 -53.1689
  707 357.403 -13.8821 -47.0412
  708 61.5701 108.191 -99.2946
  709 589.177 32.5713 -49.5394
  710 -0.657137 -15.3556 -11.9817
  711 557.277 0.413978 23.0354
  712 313.847 -11.3078 -50.8072
  713 393.163 -22.6002 131.091
  714 544.835 -18.4016 2.48105
  715 456.121 -9.78782 -11.3500
  716 330.611 -13.7447 119.201
  717 198.262 1.40641 -82.5446
  718 195.370 0.933382 80.9724
  719 454.748 -9.31402 11.6845
  720 119.181 2.13670 -33.6293
  721 119.743 2.33942 33.4479
  722 490.616 -17.8804 12.9338
  723 590.199 -0.966307 -19.2526
  724 674.117 78.2020 250.486
  725 480.108 -8.85567 -6.38782
  726 479.858 -9.08964 6.20983
  727 604.757 -17.8363 -37.9411
  728 466.616 -5.91153 -3.22459
  729 466.506 -5.70734 3.13628
  730 593.643 -6.60717 37.9373
  731 601.776 -63.5656 15.9502
  732 489.637 -12.5306 8.24453
  733 53.6041 -1.31791 -22.9331
  734 53.9067 -1.92173 22.6155
  735 488.852 -11.2070 -7.80457
  736 12.7359 13.9495 -2.22653
  737 643.054 -47.7674 -74.4978
  738 724.387 -8.72029 30.4039
  739 229.996 32.5433 123.251
  740 384.115 0.0681591 4.02214
  741 384.023 0.105094 -4.07082
  742 568.332 -57.8086 17.8375
  743 1073.00 153.444 -123.310
  744 528.813 1.27596 -18.8535
  745 517.444 -12.2529 -3.91334
  746 454.223 167.396 288.072
  747 650.385 25.3787 58.0239
  748 591.723 -1.26969 18.5826
  749 655.357 -1.59673 -1.89312
  750 655.941 -1.91999 1.90361
  751 909.410 175.097 -41.6241
  752 655.307 117.956 14.9895
  753 511.078 -14.9447 -6.32929
  754 642.987 -3.01323 6.40419
  755 415.400 -23.5046 -47.4122
  756 591.763 -7.49532 2.05876
  757 591.515 -7.47050 -1.72162
  758 439.150 -36.5566 118.025
  759 609.327 -65.2412 -32.4301
  760 606.930 -24.9511 40.3798
  761 414.808 -23.1341 47.0248
  762 637.137 91.5645 -36.4295
  763 532.105 3.98839 19.8371
  764 422.688 -39.0717 -88.7962
  765 513.921 -14.5789 5.98606
  766 603.182 -11.4624 51.1679
  767 389.514 0.586065 -1.38227
  768 389.533 0.594571 1.35538
  769 13.0142 17.6830 0.535486
  770 432.015 -14.0700 24.8949
  771 544.557 -13.8944 1.82116
  772 599.754 -26.0423 -21.8003
  773 284.669 -1.16192 21.0637
  774 284.816 -1.20023 -20.7441
  775 648.840 -20.0168 42.5463
  776 602.149 -13.6116 -48.8072
  777 235.301 -9.67514 -85.5115
  778 236.101 -8.57143 84.9730
  779 629.307 -52.1734 7.34807
  780 600.855 -19.8493 17.0322
  781 902.859 176.671 95.1089
</Section>

newXOutput 35

<Section columns = "stress_xx | stress_yy | stress_xy">
  1 682.455 0.124119 0.779688
  2 682.682 0.0423816 -0.749662
  3 401.008 -0.0369475 -0.558813
  4 -4.87585 -5.53373 -6.54070
  5 1188.12 512.321 399.648
  6 1133.12 465.461 -337.519
  7 -6.43518 -5.52643 7.48782
  8 401.015 -0.0442113 0.550147
  9 684.590 -0.932225 -0.238254
  10 685.097 -2.54506 1.40619
  11 683.296 -2.05805 0.784736
  12 673.374 -2.40869 3.44116
  13 668.821 -2.46921 4.15207
  14 657.528 -3.42635 7.08366
  15 638.284 -2.53107 11.2852
  16 615.330 -1.21181 13.3174
  17 588.226 0.682484 15.7460
  18 548.375 2.29414 13.1573
  19 522.823 5.27985 15.6226
  20 503.015 4.38607 11.7732
  21 478.256 5.42517 3.35020
  22 484.933 8.18921 -4.51317
  23 493.974 4.15957 -8.28504
  24 521.397 3.78306 -13.6152
  25 546.671 1.57081 -14.7688
  26 587.880 0.807270 -16.4392
  27 614.681 -1.89162 -14.3438
  28 640.302 -2.77252 -11.3972
  29 657.397 -2.42607 -7.94594
  30 665.872 -2.50535 -6.52323
  31 674.507 -3.37772 -2.29484
  32 683.314 -1.82948 -0.161357
  33 685.223 -2.24061 -1.21520
  34 684.864 -1.13021 0.332527
  35 663.302 -1.83634 -1.16667
  36 638.097 -4.14153 -1.24421
  37 614.492 -7.25501 -1.65990
  38 586.484 -8.89140 -1.79928
  39 558.009 -9.72785 -1.36374
  40 525.569 -8.87119 -0.280691
  41 494.105 -7.07729 -0.133508
  42 465.782 -5.31986 0.534197
  43 440.768 -2.36576 0.951047
  44 417.139 -0.698560 0.0181381
  45 393.910 1.09004 0.138570
  46 392.236 0.943404 1.79497
  47 388.840 0.253143 1.35079
  48 382.241 -0.594349 3.46395
  49 368.858 0.0797532 4.62764
  50 356.584 -0.916512 6.79120
  51 341.486 -0.685740 9.75782
  52 316.050 0.0691611 10.5511
  53 286.693 0.300242 12.2244
  54 257.877 -0.315474 19.1031
  55 203.700 1.28040 17.8755
  56 165.594 1.42072 20.8990
  57 112.654 1.92884 19.1628
  58 63.6162 0.659417 21.3645
  59 13.8573 5.71727 21.8002
  60 -20.6615 6.81856 11.5943
  61 -34.1135 6.69766 0.419425
  62 -29.9027 5.24722 -10.7341
  63 -17.8690 -1.43078 -9.65633
  64 -1.73586 -18.0746 -9.07651
  65 1.34178 -34.1176 -11.8255
  66 4.87514 -52.6697 -5.89279
  67 15.7474 -49.7703 3.53678
  68 27.5269 8.29083 35.7973
  69 78.7947 136.527 116.291
  70 322.790 393.263 336.405
  71 1538.82 171.166 237.913
  72 1269.94 53.4795 80.7825
  73 1214.81 30.4046 32.0642
  74 1198.45 19.6860 -1.92038
  75 1211.32 25.6729 -29.0077
  76 1287.72 48.3173 -78.4474
  77 1473.79 141.315 -206.111
  78 259.382 445.438 -321.880
  79 65.2090 87.6912 -92.0175
  80 25.4212 9.37173 -37.3293
  81 7.77622 -48.6611 -6.89516
  82 4.98463 -40.3265 3.73631
  83 5.50204 -43.1088 9.66769
  84 0.554285 -16.3260 11.5522
  85 -19.2061 -1.16442 9.53111
  86 -31.4525 5.06819 10.4727
  87 -34.9062 6.64310 -0.668895
  88 -21.2346 6.39122 -11.4383
  89 12.8366 6.35737 -21.4652
  90 62.8765 0.849675 -21.6539
  91 112.360 1.80136 -19.4748
  92 166.144 1.39667 -21.0406
  93 204.454 1.24036 -18.0050
  94 258.638 -0.481533 -18.9124
  95 287.042 0.299118 -11.9971
  96 316.020 0.185786 -10.4345
  97 341.541 -0.657817 -9.80858
  98 356.526 -0.924123 -6.77492
  99 368.823 0.0753161 -4.63447
  100 382.113 -0.575062 -3.44665
  101 388.735 0.259305 -1.38122
  102 392.193 0.938074 -1.82363
  103 393.903 1.08239 -0.154815
  104 417.132 -0.723840 -0.0291524
  105 440.756 -2.41425 -0.965722
  106 465.762 -5.39141 -0.520428
  107 494.439 -7.25659 0.211342
  108 525.863 -8.93851 0.180068
  109 557.012 -9.74839 1.27657
  110 586.076 -8.52091 1.60305
  111 614.603 -7.50493 1.67125
  112 638.073 -4.35162 1.23681
  113 663.133 -2.05333 1.25606
  114 593.763 -62.7330 -22.8282
  115 600.190 -62.5097 17.9970
  116 639.096 90.6771 -28.8131
  117 507.219 -42.8576 -127.452
  118 492.719 -39.8210 129.917
  119 684.426 64.7655 54.7402
  120 713.848 19.6128 -40.6977
  121 513.576 -22.0826 -15.6002
  122 511.075 -23.3465 16.0586
  123 782.985 170.955 1.51886
  124 604.133 -27.9451 12.9123
  125 608.686 -26.4746 -15.2405
  126 625.098 -13.9608 -53.7489
  127 431.512 -35.2935 70.1897
  128 430.740 -35.6408 -73.5738
  129 627.496 -22.0885 47.8167
  130 843.127 189.822 13.6297
  131 230.795 53.0614 -139.244
  132 223.257 54.1195 137.256
  133 745.804 2.20176 -14.1625
  134 871.840 198.535 -31.4187
  135 589.252 40.6073 32.0931
  136 578.557 -16.3253 0.560145
  137 581.474 -15.1997 -0.942754
  138 739.452 -7.20353 89.3946
  139 434.010 -17.5216 -32.3569
  140 434.177 -17.4488 31.0843
  141 567.776 39.6565 -218.519
  142 988.429 136.495 19.3094
  143 593.784 21.1889 -48.0588
  144 450.488 -5.90911 -9.44122
  145 450.412 -5.88338 9.49361
  146 514.942 -41.9919 34.1552
  147 524.325 -44.0174 -33.9836
  148 312.728 -19.4236 -101.391
  149 311.557 -15.6156 102.792
  150 657.709 100.361 31.1700
  151 646.502 -62.3287 35.1763
  152 653.165 -36.5577 -35.2631
  153 670.857 -39.8491 20.1679
  154 618.734 -42.4673 -23.6879
  155 647.819 30.7928 -61.1436
  156 574.118 51.0425 238.206
  157 45.9708 37.5615 25.7537
  158 40.6820 31.4724 -20.2259
  159 575.547 36.7533 -12.9234
  160 619.412 13.9418 57.5094
  161 632.661 -9.07108 8.32141
  162 627.733 -10.4757 -8.36155
  163 587.550 -43.8856 0.705601
  164 623.606 -14.8697 -31.1589
  165 712.705 117.975 -39.5784
  166 568.909 -36.9314 4.39397
  167 542.026 -61.6052 69.0630
  168 513.900 -11.9696 -4.98547
  169 514.472 -11.9265 5.13598
  170 626.028 -13.8230 28.9133
  171 545.755 -61.2455 -66.4913
  172 639.695 -60.0638 -51.3361
  173 725.842 128.803 34.5562
  174 570.859 -30.4007 -1.30986
  175 843.266 104.761 -73.0450
  176 159.487 10.0532 -80.0792
  177 155.208 9.30485 78.1579
  178 1037.53 198.822 106.478
  179 880.016 166.337 41.5140
  180 1068.19 124.012 -67.8485
  181 620.633 -8.63933 2.56066
  182 619.954 -8.48167 -2.61848
  183 387.430 -11.7634 -39.6504
  184 387.472 -11.9152 39.7758
  185 314.329 -11.2490 -62.0847
  186 316.443 -11.3242 63.1218
  187 187.316 136.128 -174.299
  188 602.251 -3.23161 44.3146
  189 630.772 -46.5252 23.9595
  190 421.797 -5.02342 -14.5660
  191 421.115 -5.31666 14.6832
  192 95.6941 96.6475 103.542
  193 591.584 1.08442 -42.9795
  194 620.326 -32.5879 30.1786
  195 569.876 9.58031 38.2089
  196 634.362 -38.2097 -119.890
  197 635.964 -10.5396 -16.9097
  198 579.596 -51.0698 10.2712
  199 696.755 138.737 -18.5613
  200 647.525 -19.8990 51.3319
  201 439.934 -40.7488 -103.442
  202 327.601 -1.84458 -135.874
  203 320.423 0.245200 136.005
  204 629.598 53.2954 47.9030
  205 457.285 0.891627 177.740
  206 611.659 69.0189 9.31790
  207 769.753 89.6988 -24.3105
  208 637.453 -10.3405 14.9682
  209 440.097 -40.1388 104.026
  210 554.657 -24.0800 4.81731
  211 1024.83 259.390 -133.568
  212 769.873 102.153 27.8409
  213 457.593 -32.0810 -45.9385
  214 455.391 -30.0336 45.3124
  215 73.4492 23.4001 -44.4923
  216 83.2954 23.8099 50.6498
  217 514.721 -51.9601 52.8530
  218 544.201 -19.6830 -6.17659
  219 548.508 -11.3424 -1.56947
  220 553.965 -11.3575 1.40757
  221 515.908 -50.3084 -53.1175
  222 541.302 -36.2418 -15.4963
  223 633.554 -55.1328 89.5766
  224 772.348 167.527 -8.38638
  225 890.884 175.437 -17.5917
  226 713.468 21.0169 38.2245
  227 597.161 -20.2737 7.25624
  228 443.464 4.68902 -180.713
  229 493.815 -30.0845 27.8132
  230 591.781 -23.1545 -5.42244
  231 710.666 -31.0040 17.8449
  232 617.086 49.2344 -46.4406
  233 679.501 -35.5055 -19.4771
  234 539.986 21.4694 9.27150
  235 464.553 -15.1229 -20.7677
  236 673.000 1.65530 -52.8407
  237 389.641 -5.42383 -20.3794
  238 389.288 -5.32006 19.8090
  239 419.804 -0.520776 -2.78905
  240 419.818 -0.491643 2.75462
  241 620.048 6.97885 -58.8449
  242 461.090 -14.9883 21.8267
  243 490.245 -29.3369 -29.3990
  244 225.208 167.333 225.119
  245 39.2655 49.7198 -35.6351
  246 1123.51 85.2875 24.6069
  247 539.221 10.0843 -20.6136
  248 598.833 -40.5922 -9.21356
  249 604.280 141.889 -298.835
  250 626.909 -51.3368 -16.4580
  251 329.142 -10.0446 -40.9912
  252 329.548 -10.3739 41.3126
  253 623.358 -25.9606 -39.3295
  254 643.864 -9.14375 -56.7505
  255 475.169 -6.86394 -4.42953
  256 475.166 -6.90611 4.31382
  257 654.250 -4.53686 -3.08829
  258 654.788 -3.81774 3.06965
  259 611.451 -5.50726 -31.9199
  260 844.104 104.993 188.448
  261 569.335 -54.5225 -18.9374
  262 487.294 -13.2932 -11.5673
  263 485.146 -13.5287 12.0378
  264 0.583987 -0.249425 -12.0517
  265 -1.68574 1.75944 12.6963
  266 181.221 -4.81401 -64.0207
  267 180.175 -4.11344 63.6176
  268 411.360 -2.48101 6.41707
  269 411.309 -2.50811 -6.49628
  270 611.418 -6.86393 30.2290
  271 706.647 145.393 12.8991
  272 639.278 -59.7011 1.76955
  273 658.586 77.9305 -50.8989
  274 634.180 -33.3935 -41.5671
  275 687.678 -40.0297 -1.53783
  276 253.771 -5.48129 59.1554
  277 252.004 -5.83049 -58.2729
  278 636.215 -60.5979 -15.3373
  279 555.224 -62.9814 85.4555
  280 588.894 -9.69095 0.232173
  281 589.474 -9.31766 -0.194241
  282 652.703 -3.45857 -1.51178
  283 652.796 -3.86608 1.61192
  284 305.168 83.8083 201.909
  285 683.387 54.9428 -57.2009
  286 611.248 -51.9623 7.35613
  287 775.920 160.011 14.1999
  288 567.393 5.95019 -35.2242
  289 546.112 -16.2725 3.94449
  290 747.735 119.795 -35.1839
  291 606.550 -9.52391 166.536
  292 658.159 116.053 0.283315
  293 554.637 -59.8860 -89.1025
  294 590.515 -67.2451 41.1173
  295 564.374 -55.4248 24.5534
  296 866.984 176.190 17.2100
  297 536.260 -36.0201 19.0678
  298 650.774 -5.13704 -8.16720
  299 615.585 -31.5773 -24.5867
  300 1023.77 289.641 133.382
  301 676.100 0.525162 50.6659
  302 640.807 -4.84829 -14.4554
  303 672.287 90.7480 45.5689
  304 714.589 0.417927 -133.015
  305 645.739 18.9052 61.1042
  306 23.1728 27.2472 14.9650
  307 391.344 -28.8706 84.2010
  308 611.415 -11.4297 4.13432
  309 609.477 -12.6691 -4.57572
  310 611.041 63.9479 -27.2392
  311 377.157 -24.9071 -81.3207
  312 400.161 -32.0103 -116.158
  313 624.338 -14.8265 12.3137
  314 591.486 -34.1611 6.81146
  315 617.952 -3.08425 56.1231
  316 881.564 186.281 -215.379
  317 622.196 -21.9570 37.1871
  318 618.618 -16.7182 -12.4671
  319 650.228 -4.56062 8.16199
  320 396.423 -3.82068 13.7923
  321 396.726 -4.24241 -13.9889
  322 112.016 67.7089 -90.0839
  323 533.008 16.6717 -7.68977
  324 624.175 -19.2902 24.1162
  325 840.520 154.120 -10.3828
  326 628.127 78.4873 32.1764
  327 337.948 64.6752 -201.938
  328 391.367 -24.4123 116.901
  329 588.591 35.3195 -35.7217
  330 638.936 -5.72572 15.7103
  331 619.930 -16.7358 -44.4360
  332 17.0228 12.0090 -4.08042
  333 121.799 58.4239 83.3902
  334 468.759 -49.2324 83.7870
  335 -1.83075 12.0190 1.83075
  336 -0.580765 13.0801 -1.36504
  337 648.050 278.770 324.620
  338 617.856 -14.6668 44.8186
  339 1238.10 133.093 -155.242
  340 607.957 35.8695 49.2237
  341 719.292 74.7405 43.8920
  342 522.436 -16.6520 8.78087
  343 541.965 10.0718 22.0892
  344 478.422 -52.4878 -79.5636
  345 595.538 -28.9596 -8.47500
  346 544.597 -29.7423 10.4161
  347 623.947 -18.0705 -24.9930
  348 601.092 -66.4589 -54.3601
  349 698.797 -37.9799 -34.1054
  350 579.226 44.1923 9.93698
  351 636.187 -54.6699 13.0823
  352 797.406 61.1291 18.2673
  353 366.117 -17.6837 60.8357
  354 574.314 -22.1197 0.696045
  355 556.568 -61.1435 -46.6421
  356 909.793 222.677 54.0310
  357 681.624 113.237 -36.7757
  358 448.723 -8.94047 15.5443
  359 449.516 -9.68721 -15.8219
  360 363.663 -17.1011 -61.7429
  361 221.520 209.093 -231.981
  362 529.085 -10.0002 -2.95981
  363 530.585 -10.5402 2.57867
  364 348.310 -3.38198 -21.2326
  365 348.236 -3.44911 21.4554
  366 1158.08 44.7702 -22.8384
  367 1172.90 80.5512 72.9734
  368 562.145 -44.9451 -13.8797
  369 738.072 28.6870 173.966
  370 279.605 -1.83175 108.878
  371 279.880 -3.65625 -109.320
  372 557.913 -35.6800 135.791
  373 572.959 4.76412 36.1625
  374 597.934 6.90119 50.6049
  375 545.969 -62.8428 54.2021
  376 166.844 33.2231 -95.8344
  377 165.200 26.7873 92.2106
  378 81.9896 5.41961 -40.5011
  379 82.3744 4.57247 40.8823
  380 592.927 -53.5446 -102.900
  381 449.904 -3.51363 -3.94573
  382 449.912 -3.46278 3.93046
  383 875.763 166.180 -1.58467
  384 542.605 -28.8742 -10.5659
  385 566.093 -13.8055 -169.846
  386 605.616 -55.7690 0.877522
  387 827.237 153.110 3.63947
  388 728.280 63.8133 -43.5365
  389 626.424 -35.3929 36.2006
  390 420.855 -9.86029 -23.7323
  391 419.691 -8.83055 22.5432
  392 545.748 -14.0417 -3.50506
  393 513.306 -16.9833 -10.9889
  394 404.539 -23.3034 55.7652
  395 404.003 -23.2596 -56.7509
  396 52.3056 82.3719 -67.2992
  397 624.644 29.2166 -57.0633
  398 484.654 -32.8592 36.7124
  399 754.483 59.9219 -186.362
  400 607.217 -40.2203 14.9612
  401 84.7610 110.762 110.109
  402 613.202 -5.43650 -53.2519
  403 401.780 -2.24878 8.21729
  404 401.644 -2.13975 -8.25156
  405 628.420 -5.91216 1.08809
  406 628.215 -5.61988 -0.919750
  407 649.714 -40.4896 31.2873
  408 314.180 -17.5919 -82.9173
  409 652.953 -3.66198 -9.10065
  410 318.726 -18.1853 83.5575
  411 747.903 17.0901 -5.32880
  412 636.978 -30.8783 43.9806
  413 565.169 -37.0147 -5.92527
  414 984.417 214.545 -88.2100
  415 621.349 -23.8177 29.9098
  416 982.295 180.184 60.7438
  417 746.870 156.995 14.3829
  418 297.492 -6.00592 -37.2196
  419 297.689 -5.76029 37.8452
  420 123.409 -1.20633 -46.0677
  421 121.873 -1.14127 45.1760
  422 624.811 -5.51609 -22.3364
  423 1229.52 173.705 157.681
  424 333.468 21.7968 160.625
  425 420.946 -18.9348 -38.7103
  426 420.402 -18.9018 39.0556
  427 458.097 -38.2253 57.7635
  428 373.538 114.203 -261.530
  429 741.388 160.097 -8.15480
  430 460.067 -37.7168 -58.5552
  431 664.573 -2.87799 -3.30060
  432 694.609 125.197 31.8074
  433 721.441 142.897 -24.2356
  434 491.552 -34.9297 -37.0629
  435 907.832 215.782 -52.8817
  436 500.166 -53.0772 107.080
  437 775.396 15.4420 -47.0360
  438 527.139 -36.3018 -146.911
  439 593.982 8.48122 -49.7381
  440 551.857 -55.0597 -33.5091
  441 1067.60 100.103 -19.2092
  442 1054.18 125.540 64.1302
  443 617.845 -43.8375 21.0652
  444 3.97369 10.1743 -11.1263
  445 5.52147 10.8872 11.0912
  446 802.680 162.291 7.64384
  447 598.999 -2.50766 28.0738
  448 543.502 -46.3252 24.1174
  449 430.263 -16.9913 153.291
  450 3.04928 -11.6512 -9.79811
  451 475.311 -43.7910 -113.068
  452 602.844 -47.6577 -7.97788
  453 596.826 -11.3172 2.52465
  454 596.701 -10.8111 -1.78809
  455 259.688 23.5528 -134.738
  456 624.582 -4.55605 21.1236
  457 91.9210 41.6380 -58.4909
  458 30.7178 36.5312 34.5228
  459 249.600 -1.74430 -34.0102
  460 248.857 -1.38065 34.1037
  461 1303.78 308.764 -242.355
  462 594.555 -1.67906 -29.1525
  463 607.336 -17.3281 -8.01061
  464 591.020 -25.8356 5.86247
  465 576.626 23.6293 37.3578
  466 636.629 -2.19132 59.2111
  467 565.962 -10.3436 -0.336663
  468 568.052 -10.1864 0.00533754
  469 225.750 15.4057 108.118
  470 481.083 -15.4395 16.4225
  471 742.055 39.4553 25.7479
  472 696.233 -40.2348 60.2545
  473 812.530 172.687 0.573541
  474 665.796 -2.17992 3.29920
  475 574.388 -29.2363 0.260449
  476 502.437 -8.35961 -2.96819
  477 502.165 -8.08861 2.78268
  478 183.651 83.9656 139.988
  479 576.520 -21.4197 -0.655150
  480 84.1740 44.0001 53.0093
  481 183.083 86.2005 -138.263
  482 630.450 89.5275 -8.80994
  483 516.703 -28.7971 -19.3485
  484 475.172 -9.35941 -8.96049
  485 475.509 -9.08341 9.10004
  486 656.313 -56.8245 -12.5325
  487 654.027 -4.34028 9.07039
  488 833.213 66.7110 87.2271
  489 648.392 77.9588 45.0108
  490 523.380 -39.6891 -26.2274
  491 640.737 100.947 12.5921
  492 9.30471 -16.0794 -5.22958
  493 185.190 213.130 223.430
  494 654.032 53.8341 55.8453
  495 484.050 -15.4929 -15.2551
  496 569.942 1.11692 -24.8755
  497 450.313 37.0560 207.283
  498 583.194 -44.1008 1.22678
  499 669.220 -55.3580 45.0987
  500 629.962 -12.3828 -13.1168
  501 980.553 149.607 -24.1554
  502 180.707 -0.294281 -40.4469
  503 180.960 0.0133284 41.1041
  504 633.093 -6.78130 -4.78103
  505 630.951 -7.34258 4.90613
  506 370.612 -25.0931 101.837
  507 459.477 -19.0152 -27.1316
  508 431.584 -12.9095 -153.401
  509 381.862 -29.8728 -97.9880
  510 361.951 -2.67482 -14.6577
  511 361.804 -2.76710 14.5525
  512 616.889 -57.9332 1.55474
  513 466.797 -22.2310 29.7442
  514 655.119 7.42210 -59.5040
  515 488.625 -23.0565 22.6413
  516 513.921 -53.5080 65.8655
  517 782.857 63.4398 -3.06453
  518 320.487 -1.03309 -21.0686
  519 320.558 -1.11737 21.3502
  520 787.608 165.934 -10.9395
  521 690.224 -6.09056 -39.2980
  522 690.237 -11.3673 33.8565
  523 626.270 -34.5376 -36.0687
  524 494.403 -41.6509 45.7576
  525 1195.53 69.3682 -77.8562
  526 681.462 -46.4863 9.07501
  527 532.186 5.76106 -19.9855
  528 530.667 -21.6024 9.37507
  529 636.687 73.9199 -41.9486
  530 1013.40 311.430 212.168
  531 613.445 -14.7169 8.36326
  532 569.665 -12.7419 -0.927824
  533 574.939 -11.5234 0.175395
  534 641.559 -50.7901 -17.5206
  535 514.247 -29.7373 20.2877
  536 404.423 0.204676 -3.73117
  537 404.465 0.215282 3.68333
  538 516.233 -55.3492 -64.1438
  539 664.451 113.774 -20.4087
  540 619.778 -18.9976 -17.1468
  541 539.346 4.84767 23.4073
  542 621.143 -24.4255 -31.2325
  543 408.215 0.159763 -0.856221
  544 408.219 0.173587 0.839507
  545 711.036 -28.4949 -68.1403
  546 500.119 -44.3721 -46.5590
  547 710.307 -10.7941 -18.9186
  548 653.896 -40.7830 109.007
  549 635.056 -10.6210 11.7358
  550 667.687 -2.52104 1.67393
  551 667.582 -2.32554 -1.42906
  552 602.249 -65.9189 -35.5994
  553 618.051 -63.5751 70.2550
  554 373.685 -1.79941 -9.63742
  555 373.501 -1.78914 9.56558
  556 563.619 -56.1772 103.641
  557 640.112 51.6689 -54.3270
  558 492.824 -51.7386 -92.4161
  559 632.138 35.9439 58.8820
  560 601.243 -66.9789 56.6412
  561 504.757 6.14682 8.52694
  562 539.026 -13.6987 3.86516
  563 657.440 -16.4438 -50.0503
  564 819.602 173.698 -2.40548
  565 669.935 -25.3963 -38.1792
  566 515.426 -37.1527 28.3265
  567 427.802 -4.56256 10.9512
  568 427.867 -4.62844 -11.0967
  569 595.976 -16.7808 3.14727
  570 487.878 -22.1651 -22.1094
  571 618.702 -10.9014 35.5194
  572 658.648 -46.4391 -18.6033
  573 562.165 -16.8696 -2.07797
  574 992.043 307.206 -150.633
  575 569.187 13.9101 -35.5842
  576 842.669 181.243 -12.7662
  577 509.874 5.15358 -13.3936
  578 608.165 -21.7520 10.8246
  579 183.685 118.098 176.664
  580 602.947 57.1724 25.8716
  581 334.951 24.8352 -162.982
  582 657.238 -55.7022 4.46560
  583 611.055 -7.08078 -43.4458
  584 683.159 84.0626 -51.5526
  585 -4.96477 -5.88098 -10.8512
  586 -6.30152 -5.13561 10.9052
  587 432.520 -3.01376 -6.44431
  588 432.524 -2.96759 6.39325
  589 639.005 -41.9664 -31.9747
  590 644.529 -27.7416 -46.0583
  591 66.3978 61.6696 58.3274
  592 610.614 53.0066 39.2146
  593 552.397 -25.7165 -5.44291
  594 546.846 -9.78130 0.476397
  595 545.551 -9.68585 -0.921347
  596 565.492 26.3996 24.7966
  597 1186.01 27.7005 16.8393
  598 460.465 -25.8541 -36.5937
  599 500.033 7.43841 1.97347
  600 636.910 10.5681 -61.2939
  601 500.094 -57.1622 94.1666
  602 20.9861 6.66916 23.1539
  603 19.1050 5.53357 -21.8689
  604 669.224 30.0669 -59.4558
  605 598.462 62.5930 -6.98670
  606 627.450 -44.0277 -28.2868
  607 383.462 -7.67381 -28.8652
  608 382.809 -8.25917 28.8591
  609 641.416 -4.39468 2.59770
  610 641.189 -4.39797 -2.76090
  611 630.458 -6.21929 -58.3604
  612 613.626 -29.0612 21.1022
  613 453.036 -24.7275 38.2468
  614 42.0391 29.5920 -24.5280
  615 604.258 377.971 -367.357
  616 631.229 -11.7246 21.9598
  617 629.422 -11.0181 -23.7369
  618 496.030 24.6882 -206.190
  619 593.811 -17.6681 -4.25710
  620 535.869 -50.0214 36.0696
  621 693.884 140.383 -0.550458
  622 248.083 -9.84415 -75.9557
  623 250.146 -9.80156 76.5781
  624 752.288 126.672 30.4396
  625 610.415 -39.6563 -18.7183
  626 555.525 31.0056 0.00564730
  627 593.189 -56.7639 -10.7814
  628 348.872 -8.88342 35.5453
  629 348.672 -8.82048 -35.1160
  630 443.460 -10.7122 -20.5025
  631 427.182 -1.07836 -2.75135
  632 427.192 -1.04373 2.73354
  633 606.158 -22.8466 -10.7735
  634 670.608 -1.39831 -0.865537
  635 670.435 -1.55191 1.13676
  636 790.608 150.407 -17.1064
  637 378.341 117.491 245.272
  638 721.051 -8.66542 12.4797
  639 326.447 52.0931 180.339
  640 149.309 41.0619 90.2833
  641 736.761 33.7667 -31.2102
  642 623.509 -58.9502 -0.0724053
  643 456.271 -5.77422 -7.17496
  644 456.398 -5.68831 7.19486
  645 603.574 -7.08956 -0.359161
  646 604.024 -7.24036 0.470593
  647 479.501 -48.3588 -68.5125
  648 227.849 10.7414 -109.276
  649 381.491 -1.81021 6.15834
  650 381.385 -1.90966 -6.06647
  651 1348.22 374.118 277.504
  652 707.065 80.6211 -51.0116
  653 634.214 -20.4891 -51.8331
  654 626.919 -23.0787 -46.8756
  655 662.904 54.5751 -58.6312
  656 410.894 -10.0996 -29.5458
  657 409.484 -10.7532 28.8820
  658 588.986 -51.2864 -4.31854
  659 4.99760 -15.6355 11.2054
  660 658.696 -1.22713 56.7506
  661 45.7582 27.9110 25.4238
  662 594.036 17.0046 48.1940
  663 102.179 96.2837 -96.4742
  664 560.343 23.8775 -25.4711
  665 646.676 -5.17263 6.12371
  666 546.773 -48.3657 -25.6827
  667 618.392 -11.5294 -37.2777
  668 204.176 -1.21026 29.5274
  669 204.904 -1.02415 -29.6378
  670 746.810 147.175 -24.9067
  671 347.079 -18.0693 -124.553
  672 605.353 -33.3122 -14.9029
  673 533.838 -22.1922 -10.1321
  674 645.741 -6.15906 -5.80672
  675 696.836 99.2793 45.1030
  676 124.792 23.5998 -68.1691
  677 121.689 15.6322 67.6303
  678 631.478 -15.6175 54.4809
  679 558.696 -41.8313 12.3489
  680 620.074 -33.1479 -30.0316
  681 903.926 227.431 -59.4956
  682 733.462 156.938 5.09276
  683 540.140 -18.8746 6.12201
  684 693.879 26.4693 52.4922
  685 626.656 -65.8480 26.2112
  686 438.244 -10.2213 20.4672
  687 566.094 -60.8296 35.9127
  688 651.209 -3.44562 0.315523
  689 651.149 -3.67546 -0.258002
  690 910.565 201.017 51.8658
  691 368.800 -14.1816 48.3687
  692 54.5660 54.7393 -42.3192
  693 -14.5351 0.589504 12.3787
  694 -12.6732 1.00083 -12.8302
  695 324.410 -12.1573 52.8758
  696 160.527 60.0622 -104.334
  697 13.3985 3.47665 -19.9050
  698 603.370 -48.4409 7.77803
  699 421.562 -25.9312 -135.679
  700 476.825 -48.0813 67.4686
  701 586.460 -36.7950 -3.41230
  702 8.68906 -15.8722 -2.72090
  703 695.232 33.4822 -52.6028
  704 624.676 -61.5040 -7.63458
  705 617.065 -50.7186 -15.1096
  706 607.818 18.3978 -54.3744
  707 368.126 -14.2573 -48.4242
  708 63.4233 111.992 -102.481
  709 606.038 33.5157 -50.6711
  710 -0.655104 -15.7622 -12.2963
  711 573.384 0.431040 23.5588
  712 323.386 -11.6206 -52.2959
  713 404.468 -23.2922 134.996
  714 560.290 -18.9237 2.68288
  715 469.481 -10.0408 -11.7330
  716 340.299 -14.1859 122.762
  717 204.397 1.41637 -85.0564
  718 201.422 0.930850 83.4439
  719 468.076 -9.55464 12.0761
  720 123.228 2.19408 -34.6560
  721 123.804 2.40284 34.4700
  722 504.781 -18.3638 13.3984
  723 606.995 -0.999975 -19.6699
  724 692.097 80.7958 257.692
  725 494.047 -9.09015 -6.61747
  726 493.792 -9.33046 6.43485
  727 621.787 -18.3526 -38.6946
  728 480.251 -6.06281 -3.32790
  729 480.139 -5.85329 3.23720
  730 610.491 -6.80192 38.7548
  731 618.572 -65.3559 16.7563
  732 503.790 -12.8687 8.55533
  733 55.6698 -1.35937 -23.6653
  734 55.9784 -1.98051 23.3387
  735 502.988 -11.5084 -8.09999
  736 13.2094 14.4523 -2.13803
  737 660.747 -49.0787 -76.9740
  738 744.179 -8.86172 31.7890
  739 236.860 33.4301 127.007
  740 395.820 0.0773075 4.14837
  741 395.726 0.115247 -4.19819
  742 584.321 -59.4283 18.6378
  743 1101.45 157.561 -126.596
  744 544.302 1.32158 -19.2920
  745 532.257 -12.5962 -4.09206
  746 466.536 172.357 296.271
  747 668.644 26.0899 59.2037
  748 608.549 -1.31153 18.9829
  749 673.280 -1.65632 -1.91174
  750 673.875 -1.98643 1.92293
  751 934.234 179.845 -42.9535
  752 673.925 121.257 15.2984
  753 525.737 -15.3559 -6.59764
  754 660.743 -3.11536 6.50675
  755 427.601 -24.1420 -48.8360
  756 608.292 -7.74294 2.05611
  757 608.038 -7.71816 -1.71154
  758 451.681 -37.6288 121.550
  759 626.279 -67.0807 -33.7134
  760 624.006 -25.6672 41.1611
  761 426.996 -23.7620 48.4369
  762 655.243 94.1470 -37.2106
  763 547.667 4.10348 20.3004
  764 434.905 -40.1860 -91.4515
  765 528.648 -14.9816 6.24846
  766 620.244 -11.7923 52.2589
  767 401.397 0.605417 -1.42900
  768 401.416 0.614142 1.40147
  769 13.4982 18.2903 0.395836
  770 444.738 -14.4409 25.6669
  771 560.006 -14.2954 1.97171
  772 616.581 -26.7911 -22.1285
  773 293.539 -1.18572 21.6767
  774 293.692 -1.22489 -21.3485
  775 666.946 -20.5900 43.2742
  776 619.184 -14.0014 -49.8413
  777 242.487 -9.98107 -88.0854
  778 243.309 -8.84543 87.5346
  779 646.833 -53.6458 7.13248
  780 617.686 -20.4307 17.2726
  781 926.934 182.045 98.5324
</Section>

newXOutput 36

<Section columns = "stress_xx | stress_yy | stress_xy">
  1 700.412 0.103586 0.794655
  2 700.641 0.0203691 -0.764354
  3 412.898 -0.0306478 -0.567813
  4 -5.01617 -5.69201 -6.73146
  5 1216.31 526.583 409.706
  6 1160.59 478.571 -346.190
  7 -6.61889 -5.68393 7.70671
  8 412.906 -0.0380981 0.558959
  9 702.594 -0.972482 -0.252528
  10 703.131 -2.62066 1.42311
  11 701.324 -2.12101 0.782281
  12 691.257 -2.48881 3.48486
  13 686.663 -2.54034 4.21498
  14 675.187 -3.52616 7.20513
  15 655.615 -2.61078 11.5063
  16 632.236 -1.25334 13.5917
  17 604.597 0.695206 16.0832
  18 563.927 2.35620 13.4504
  19 537.827 5.42381 15.9788
  20 517.578 4.52780 12.0424
  21 492.275 5.58274 3.42852
  22 499.103 8.43692 -4.62007
  23 508.346 4.28907 -8.47712
  24 536.370 3.89352 -13.9234
  25 562.187 1.61507 -15.0959
  26 604.241 0.824865 -16.7936
  27 631.574 -1.95088 -14.6403
  28 657.667 -2.85634 -11.6186
  29 675.058 -2.50434 -8.08882
  30 683.657 -2.58853 -6.63401
  31 692.404 -3.47962 -2.31430
  32 701.341 -1.88862 -0.144979
  33 703.258 -2.31107 -1.22842
  34 702.872 -1.17557 0.348071
  35 680.888 -1.91563 -1.19061
  36 655.171 -4.29157 -1.26590
  37 631.071 -7.48945 -1.68567
  38 602.456 -9.16206 -1.82105
  39 573.352 -10.0072 -1.37951
  40 540.187 -9.11494 -0.266374
  41 508.018 -7.25967 -0.123012
  42 479.064 -5.44911 0.559253
  43 453.503 -2.41398 0.981348
  44 429.367 -0.705946 0.0233096
  45 405.645 1.11885 0.148982
  46 403.917 0.969398 1.84803
  47 400.406 0.262738 1.39954
  48 393.614 -0.604632 3.57155
  49 379.874 0.0860961 4.76149
  50 367.248 -0.937063 6.98295
  51 351.722 -0.699462 10.0316
  52 325.597 0.0756205 10.8517
  53 295.443 0.311797 12.5722
  54 265.813 -0.317323 19.6450
  55 210.159 1.31595 18.3894
  56 170.969 1.45890 21.4982
  57 116.496 1.97844 19.7349
  58 65.9898 0.670418 22.0224
  59 14.7076 5.87505 22.4894
  60 -20.9266 7.00977 11.9901
  61 -34.9017 6.89352 0.494274
  62 -30.6949 5.41209 -11.0011
  63 -18.3653 -1.45866 -9.91941
  64 -1.77289 -18.5788 -9.32473
  65 1.39670 -35.0347 -12.1263
  66 5.03339 -53.9673 -5.98119
  67 16.2270 -50.7905 3.79113
  68 28.3737 9.22826 37.0577
  69 81.0404 141.550 119.829
  70 330.853 405.379 345.287
  71 1575.43 175.518 243.257
  72 1301.46 54.8052 82.6724
  73 1245.15 31.1880 32.7959
  74 1228.44 20.2041 -1.96524
  75 1241.61 26.3409 -29.7031
  76 1319.61 49.5575 -80.2953
  77 1509.35 144.937 -210.815
  78 265.854 458.956 -330.360
  79 67.1039 91.3836 -94.9808
  80 26.2040 10.4056 -38.6490
  81 8.01428 -49.6144 -7.23522
  82 5.15285 -41.2834 3.74335
  83 5.67926 -44.2751 9.90340
  84 0.577069 -16.7747 11.8717
  85 -19.7419 -1.18467 9.79014
  86 -32.2904 5.22744 10.7332
  87 -35.7162 6.83787 -0.751039
  88 -21.5131 6.57016 -11.8298
  89 13.6618 6.53314 -22.1450
  90 65.2325 0.865853 -22.3196
  91 116.197 1.84726 -20.0554
  92 171.535 1.43405 -21.6434
  93 210.934 1.27468 -18.5219
  94 266.595 -0.487824 -19.4488
  95 295.802 0.310735 -12.3392
  96 325.567 0.195176 -10.7323
  97 351.779 -0.670849 -10.0833
  98 367.188 -0.944716 -6.96609
  99 379.838 0.0816380 -4.76839
  100 393.483 -0.584863 -3.55382
  101 400.298 0.269072 -1.43064
  102 403.872 0.963946 -1.87735
  103 405.638 1.11101 -0.165589
  104 429.360 -0.731853 -0.0345651
  105 453.490 -2.46367 -0.996343
  106 479.044 -5.52239 -0.545177
  107 508.359 -7.44338 0.202310
  108 540.487 -9.18391 0.163069
  109 572.333 -10.0282 1.28970
  110 602.040 -8.78190 1.61998
  111 631.184 -7.74527 1.69754
  112 655.147 -4.50625 1.25840
  113 680.715 -2.13760 1.28188
  114 609.890 -64.4417 -23.7734
  115 616.479 -64.2110 18.8226
  116 656.758 93.1653 -29.4247
  117 521.042 -44.0629 -131.166
  118 506.184 -40.9473 133.693
  119 703.040 66.5310 55.7860
  120 733.019 20.1690 -41.2537
  121 527.889 -22.6639 -16.1552
  122 525.327 -23.9610 16.6272
  123 804.208 175.460 1.51041
  124 620.568 -28.7199 13.0054
  125 625.230 -27.2123 -15.3909
  126 642.193 -14.3516 -54.8308
  127 443.688 -36.2491 72.2293
  128 442.886 -36.6102 -75.7093
  129 644.614 -22.7019 48.7372
  130 865.662 194.924 14.4473
  131 237.448 54.5022 -143.367
  132 229.695 55.5985 141.331
  133 765.565 2.34646 -15.1049
  134 895.059 203.854 -32.6785
  135 605.710 41.7661 32.8079
  136 594.366 -16.7876 0.447754
  137 597.349 -15.6322 -0.841113
  138 758.874 -7.23728 92.2929
  139 446.419 -17.9740 -33.3162
  140 446.595 -17.8993 32.0104
  141 582.777 40.8663 -224.697
  142 1014.28 140.021 19.8441
  143 610.301 21.7978 -49.1219
  144 463.401 -6.05075 -9.74438
  145 463.324 -6.02432 9.79808
  146 529.221 -43.1125 35.2723
  147 538.821 -45.1953 -35.1077
  148 321.747 -19.9919 -104.329
  149 320.547 -16.0813 105.770
  150 675.822 103.100 31.8064
  151 663.845 -64.0227 36.5302
  152 670.828 -37.5647 -35.7701
  153 688.902 -40.9360 20.2406
  154 635.545 -43.6338 -23.9673
  155 665.542 31.6384 -62.4066
  156 589.270 52.6220 244.898
  157 47.4596 38.6944 26.7101
  158 42.0343 32.4216 -21.0047
  159 591.705 37.8172 -13.2142
  160 636.470 14.3345 58.7360
  161 649.694 -9.35165 8.40422
  162 644.656 -10.7941 -8.44046
  163 603.583 -45.0785 0.437298
  164 640.591 -15.2927 -31.7381
  165 732.104 121.172 -40.2564
  166 584.500 -37.9286 4.74905
  167 556.832 -63.2910 71.1966
  168 528.249 -12.2854 -5.18363
  169 528.834 -12.2432 5.33841
  170 643.055 -14.2199 29.4442
  171 560.655 -62.9216 -68.5575
  172 656.846 -61.6945 -53.1203
  173 745.566 132.281 35.0979
  174 586.500 -31.2246 -1.55580
  175 865.259 107.895 -75.6747
  176 164.358 10.3034 -82.4888
  177 159.959 9.53581 80.5172
  178 1064.46 204.033 109.374
  179 903.101 171.057 43.3623
  180 1095.69 127.229 -69.6214
  181 637.360 -8.91074 2.54920
  182 636.666 -8.74967 -2.60923
  183 398.659 -12.0651 -40.7883
  184 398.702 -12.2208 40.9170
  185 323.580 -11.5552 -63.8517
  186 325.746 -11.6329 64.9187
  187 192.628 140.113 -179.440
  188 618.887 -3.31649 45.2562
  189 647.871 -47.8034 24.2094
  190 434.016 -5.14129 -15.0097
  191 433.320 -5.44180 15.1284
  192 98.5588 99.5853 106.789
  193 608.013 1.12144 -43.9103
  194 637.195 -33.4899 30.6530
  195 585.868 9.87917 39.0648
  196 651.232 -39.2095 -123.489
  197 653.141 -10.8548 -17.1823
  198 595.421 -52.4521 10.8387
  199 715.862 142.464 -18.9028
  200 665.115 -20.4529 52.2856
  201 452.187 -41.8895 -106.450
  202 336.875 -1.95592 -139.819
  203 329.513 0.193829 139.958
  204 646.971 54.7730 48.9235
  205 469.737 0.895055 182.835
  206 628.669 70.9486 9.52297
  207 790.319 92.1985 -24.3634
  208 654.652 -10.6508 15.2002
  209 452.356 -41.2631 107.044
  210 569.922 -24.7322 5.11225
  211 1051.44 266.285 -137.321
  212 790.482 104.986 28.0116
  213 470.495 -32.9314 -47.3112
  214 468.244 -30.8299 46.6630
  215 75.8535 24.0557 -45.9300
  216 85.9678 24.4739 52.2669
  217 528.937 -53.3646 54.4954
  218 559.230 -20.2136 -6.47320
  219 563.638 -11.6591 -1.67448
  220 569.219 -11.6773 1.51023
  221 530.147 -51.6672 -54.7674
  222 556.238 -37.2095 -16.1179
  223 650.482 -56.6143 92.3640
  224 793.287 171.980 -8.36478
  225 914.608 180.025 -18.2196
  226 732.632 21.6121 38.7255
  227 613.410 -20.8446 7.25663
  228 455.559 4.78996 -185.886
  229 507.633 -30.8751 28.7065
  230 607.907 -23.7990 -5.36839
  231 729.571 -31.7958 18.8363
  232 634.165 50.6097 -47.4500
  233 697.750 -36.4695 -19.5205
  234 555.351 22.1114 9.48329
  235 477.733 -15.5112 -21.4164
  236 691.220 1.69689 -53.7944
  237 401.045 -5.55487 -20.9700
  238 400.684 -5.44882 20.3854
  239 432.075 -0.522339 -2.87962
  240 432.089 -0.492469 2.84442
  241 637.103 7.18006 -60.0982
  242 474.186 -15.3721 22.5033
  243 503.978 -30.1072 -30.3333
  244 231.509 172.198 231.630
  245 40.5097 51.3910 -36.9200
  246 1152.09 87.4830 25.2170
  247 554.561 10.4120 -21.0846
  248 615.142 -41.7016 -9.16266
  249 619.902 146.168 -307.041
  250 643.896 -52.7431 -16.5108
  251 338.882 -10.3076 -42.1523
  252 339.297 -10.6466 42.4819
  253 640.337 -26.6849 -40.0438
  254 661.402 -9.40272 -57.8636
  255 488.652 -7.03379 -4.58661
  256 488.649 -7.07706 4.46806
  257 671.692 -4.69430 -3.10541
  258 672.242 -3.95626 3.08805
  259 628.253 -5.66707 -32.5773
  260 865.655 108.475 194.036
  261 584.908 -55.9953 -19.7261
  262 501.027 -13.6358 -11.9604
  263 498.829 -13.8769 12.4426
  264 0.669633 -0.196895 -12.3133
  265 -1.66098 1.85732 12.9753
  266 186.812 -4.96496 -65.9029
  267 185.736 -4.24462 65.4905
  268 423.403 -2.53300 6.61711
  269 423.351 -2.56065 -6.69824
  270 628.222 -7.05454 30.8491
  271 726.001 149.287 13.1159
  272 656.519 -61.3318 2.22624
  273 676.656 80.0604 -51.9468
  274 651.412 -34.3172 -42.2854
  275 706.073 -41.1035 -2.06594
  276 261.415 -5.63520 60.8510
  277 259.601 -5.99417 -59.9425
  278 653.357 -62.2535 -16.1498
  279 570.307 -64.7121 88.0555
  280 604.923 -9.98387 0.186440
  281 605.516 -9.60180 -0.149127
  282 670.083 -3.58804 -1.52008
  283 670.178 -4.00512 1.62201
  284 313.656 86.1328 207.724
  285 701.963 56.4426 -58.2978
  286 627.846 -53.3813 7.20124
  287 796.897 164.299 14.2140
  288 583.325 6.13281 -36.0094
  289 561.187 -16.7161 4.16184
  290 767.926 123.056 -35.6395
  291 622.655 -9.69645 171.366
  292 676.319 119.208 0.290213
  293 569.694 -61.5350 -91.8051
  294 606.530 -69.0781 42.5489
  295 579.814 -56.9235 25.4885
  296 890.141 180.830 17.8742
  297 551.073 -36.9811 19.7813
  298 668.215 -5.29997 -8.28201
  299 632.322 -32.4525 -24.9334
  300 1050.31 297.480 137.364
  301 694.387 0.534555 51.5570
  302 658.145 -4.99229 -14.7201
  303 690.696 93.2177 46.4711
  304 733.316 0.602062 -137.031
  305 663.392 19.4234 62.3599
  306 23.9366 28.2104 15.5995
  307 402.468 -29.6682 86.6255
  308 627.957 -11.7737 4.12452
  309 625.980 -13.0443 -4.56860
  310 628.021 65.7340 -27.8359
  311 387.936 -25.5945 -83.6577
  312 411.383 -32.9287 -119.516
  313 641.213 -15.2575 12.4558
  314 607.619 -35.0964 6.72986
  315 634.935 -3.16663 57.2986
  316 903.810 192.010 -221.688
  317 639.157 -22.5684 37.8753
  318 635.365 -17.1983 -12.6047
  319 667.651 -4.71330 8.27624
  320 408.046 -3.90765 14.1962
  321 408.355 -4.34000 -14.3979
  322 115.401 69.6570 -92.9125
  323 548.218 17.1749 -7.86673
  324 641.117 -19.8401 24.5084
  325 862.817 158.403 -11.2910
  326 645.509 80.6524 32.8700
  327 347.293 66.4570 -207.728
  328 402.362 -25.1259 120.276
  329 605.025 36.3310 -36.5156
  330 656.225 -5.89622 15.9951
  331 636.881 -17.2028 -45.3127
  332 17.5823 12.5274 -4.37191
  333 125.459 60.1035 86.0139
  334 481.790 -50.5850 86.2480
  335 -1.73769 12.3922 1.77696
  336 -0.456961 13.4844 -1.29357
  337 664.256 287.134 333.455
  338 634.772 -15.0775 45.7141
  339 1269.11 136.473 -159.021
  340 624.805 36.8765 50.3008
  341 738.723 76.7936 44.5830
  342 536.967 -17.0936 9.13194
  343 557.364 10.3884 22.5914
  344 491.697 -53.9253 -81.9169
  345 611.763 -29.7574 -8.45884
  346 559.620 -30.5381 10.8859
  347 640.890 -18.5843 -25.4106
  348 617.322 -68.2755 -56.1648
  349 717.384 -38.9719 -35.5094
  350 595.470 45.4573 10.1609
  351 653.393 -56.1661 13.0256
  352 818.429 62.9574 19.4054
  353 376.709 -18.1584 62.5783
  354 590.033 -22.7290 0.544239
  355 571.774 -62.8057 -48.1789
  356 933.842 228.703 55.9700
  357 700.303 116.304 -37.4855
  358 461.571 -9.16050 16.0258
  359 462.382 -9.92640 -16.3111
  360 374.195 -17.5609 -63.5087
  361 227.400 215.514 -238.568
  362 543.780 -10.2732 -3.08126
  363 545.314 -10.8271 2.69219
  364 358.648 -3.46557 -21.8327
  365 358.572 -3.53406 22.0614
  366 1187.32 45.9236 -23.3937
  367 1202.50 82.6135 74.7386
  368 577.562 -46.1551 -14.5028
  369 757.242 29.7521 179.035
  370 287.711 -1.92641 112.057
  371 287.995 -3.80195 -112.506
  372 572.930 -36.6598 139.767
  373 589.006 4.91200 36.9636
  374 614.508 7.10623 51.7069
  375 560.910 -64.5528 55.9292
  376 171.831 34.1196 -98.7379
  377 170.159 27.5025 95.0053
  378 84.7257 5.56330 -41.7625
  379 85.1191 4.69254 42.1543
  380 608.853 -55.0058 -106.011
  381 462.833 -3.59150 -4.06744
  382 462.841 -3.53939 4.05184
  383 899.137 170.515 -1.64433
  384 557.585 -29.6456 -11.0306
  385 581.207 -14.1356 -174.740
  386 622.068 -57.2884 1.24886
  387 849.242 157.350 4.36843
  388 747.881 65.5784 -44.1663
  389 643.459 -36.3716 36.7974
  390 433.004 -10.1053 -24.4352
  391 431.817 -9.04674 23.2105
  392 560.814 -14.4279 -3.69545
  393 527.627 -17.4315 -11.3950
  394 416.123 -23.9205 57.3764
  395 415.570 -23.8771 -58.3887
  396 53.9057 85.1013 -69.5063
  397 641.849 30.0303 -58.2844
  398 498.229 -33.7283 37.8511
  399 773.962 61.9090 -191.789
  400 623.737 -41.3237 15.0451
  401 87.2331 114.378 113.518
  402 630.074 -5.58245 -54.3714
  403 413.574 -2.29726 8.46306
  404 413.435 -2.18552 -8.49820
  405 645.297 -6.11303 1.08342
  406 645.087 -5.81393 -0.911171
  407 667.285 -41.6040 31.6937
  408 323.325 -18.0904 -85.3021
  409 670.492 -3.77783 -9.24989
  410 327.985 -18.7001 85.9623
  411 767.781 17.6382 -4.89070
  412 654.287 -31.7331 44.7565
  413 580.672 -38.0145 -6.31918
  414 1010.20 220.220 -90.7344
  415 638.246 -24.4856 30.4160
  416 1008.04 184.890 62.4542
  417 767.197 161.186 14.5529
  418 306.400 -6.16226 -38.2691
  419 306.600 -5.91032 38.9115
  420 127.381 -1.25459 -47.4544
  421 125.800 -1.18672 46.5388
  422 641.863 -5.68251 -22.7743
  423 1260.41 178.126 161.558
  424 342.818 22.3410 165.273
  425 433.010 -19.4253 -39.8436
  426 432.454 -19.3917 40.1962
  427 470.968 -39.2498 59.4702
  428 383.619 117.496 -268.901
  429 761.606 164.357 -8.27498
  430 472.979 -38.7285 -60.2866
  431 682.251 -2.97397 -3.33336
  432 713.622 128.575 32.3981
  433 741.127 146.733 -24.6225
  434 505.281 -35.8564 -38.2244
  435 931.698 221.761 -54.9713
  436 513.871 -54.5530 110.228
  437 795.769 16.0151 -48.8742
  438 541.388 -37.3060 -151.178
  439 610.479 8.73354 -50.8244
  440 566.988 -56.5480 -34.6728
  441 1095.08 102.678 -19.7014
  442 1081.42 128.776 65.8011
  443 634.629 -45.0415 21.2742
  444 4.34266 10.4609 -11.5517
  445 5.93215 11.1946 11.5162
  446 824.223 166.694 7.35487
  447 615.569 -2.57591 28.6676
  448 558.465 -47.5694 24.9989
  449 442.122 -17.5075 157.708
  450 3.16868 -11.8618 -9.98131
  451 488.405 -45.0215 -116.367
  452 619.246 -48.9583 -7.86619
  453 613.039 -11.6543 2.49196
  454 612.909 -11.1357 -1.74607
  455 267.161 24.1476 -138.696
  456 641.636 -4.69406 21.5407
  457 94.7706 42.8313 -60.3860
  458 31.6644 37.9178 35.7464
  459 257.235 -1.78791 -34.9777
  460 256.472 -1.41399 35.0744
  461 1336.07 316.870 -248.380
  462 611.038 -1.72364 -29.7746
  463 623.812 -17.8260 -8.04632
  464 607.135 -26.5501 5.79782
  465 592.781 24.3170 38.1962
  466 654.026 -2.25439 60.4140
  467 581.482 -10.6439 -0.385998
  468 583.619 -10.4837 0.0458246
  469 232.382 15.7888 111.321
  470 494.658 -15.8359 16.9586
  471 761.886 40.5865 25.8721
  472 714.692 -41.2660 62.3395
  473 834.451 177.241 0.688383
  474 683.497 -2.26009 3.33352
  475 590.112 -30.0318 0.478982
  476 516.534 -8.57696 -3.07880
  477 516.257 -8.29937 2.88828
  478 188.969 86.3574 144.185
  479 592.289 -22.0117 -0.504179
  480 86.8058 45.2565 54.7431
  481 188.408 88.6348 -142.415
  482 647.919 91.9947 -8.99687
  483 531.068 -29.5583 -20.0328
  484 488.646 -9.59354 -9.25788
  485 488.990 -9.31083 9.40104
  486 673.943 -58.3738 -13.3066
  487 671.595 -4.46692 9.22355
  488 854.861 68.8909 90.2136
  489 666.234 80.0969 45.9520
  490 537.880 -40.7460 -27.1280
  491 658.456 103.710 12.8567
  492 9.60987 -16.2496 -5.54757
  493 190.205 219.781 229.843
  494 671.945 55.3067 56.9902
  495 497.692 -15.8918 -15.7623
  496 585.929 1.15301 -25.4230
  497 462.502 38.1157 213.188
  498 599.120 -45.2962 1.53758
  499 687.077 -56.8413 46.7461
  500 646.969 -12.7502 -13.2919
  501 1006.23 153.494 -24.8441
  502 186.393 -0.304998 -41.6190
  503 186.651 0.0107923 42.2953
  504 650.103 -7.00230 -4.81060
  505 647.918 -7.58036 4.93349
  506 381.148 -25.8080 104.775
  507 472.508 -19.5065 -27.9617
  508 443.467 -13.3155 -157.819
  509 392.683 -30.7144 -100.819
  510 372.690 -2.73970 -15.0732
  511 372.538 -2.83446 14.9656
  512 633.611 -59.5154 1.22460
  513 479.988 -22.8085 30.6564
  514 672.955 7.62067 -60.6785
  515 502.347 -23.6567 23.3733
  516 528.082 -54.9637 67.8681
  517 803.613 65.3008 -3.77296
  518 330.090 -1.05368 -21.6607
  519 330.161 -1.14027 21.9492
  520 808.852 170.381 -10.8340
  521 708.805 -6.25102 -39.8532
  522 708.798 -11.6725 34.2648
  523 643.298 -35.4927 -36.6671
  524 508.173 -42.7651 47.1699
  525 1225.58 71.1541 -79.7498
  526 699.690 -47.7370 9.78907
  527 547.376 5.94288 -20.4396
  528 545.379 -22.1779 9.77201
  529 654.255 75.9556 -42.8377
  530 1038.95 320.335 218.477
  531 630.053 -15.1468 8.42126
  532 585.270 -13.1057 -1.03965
  533 590.662 -11.8585 0.261866
  534 658.897 -52.1823 -17.5742
  535 528.553 -30.5242 20.9971
  536 416.344 0.217533 -3.84492
  537 416.387 0.228387 3.79596
  538 530.451 -56.8541 -66.1067
  539 682.752 116.866 -20.8250
  540 636.579 -19.5391 -17.3774
  541 554.688 4.99999 23.9388
  542 638.040 -25.1091 -31.7652
  543 420.250 0.172122 -0.885588
  544 420.254 0.186293 0.868503
  545 729.828 -29.1832 -70.4581
  546 514.019 -45.5617 -48.0022
  547 729.301 -11.0604 -18.8989
  548 671.258 -41.8283 112.341
  549 652.172 -10.9391 11.8910
  550 685.375 -2.60923 1.68652
  551 685.267 -2.41001 -1.43643
  552 618.551 -67.7190 -36.9008
  553 634.649 -65.3067 72.5060
  554 384.765 -1.84051 -9.91369
  555 384.576 -1.83022 9.84036
  556 578.851 -57.7229 106.745
  557 657.711 53.0952 -55.4711
  558 506.398 -53.1698 -95.1424
  559 649.519 36.9358 60.1341
  560 617.478 -68.8086 58.5084
  561 519.351 6.34585 8.72307
  562 553.941 -14.0718 4.04934
  563 675.265 -16.9020 -50.9515
  564 841.679 178.282 -2.66257
  565 688.011 -26.0949 -38.7372
  566 529.740 -38.1383 29.2689
  567 440.197 -4.66669 11.2846
  568 440.262 -4.73407 -11.4337
  569 612.182 -17.2613 3.08289
  570 501.583 -22.7427 -22.8261
  571 635.629 -11.2128 36.2217
  572 676.396 -47.7106 -18.6568
  573 577.604 -17.3352 -2.25717
  574 1017.63 315.686 -155.279
  575 585.169 14.3325 -36.3831
  576 865.259 186.051 -13.4278
  577 524.579 5.32322 -13.7070
  578 624.681 -22.3644 10.8989
  579 188.948 121.508 181.886
  580 619.737 58.7811 26.4449
  581 344.341 25.4636 -167.696
  582 674.901 -57.2192 5.02355
  583 627.857 -7.27982 -44.3493
  584 701.799 86.3516 -52.5504
  585 -5.09018 -6.03367 -11.1441
  586 -6.45897 -5.26057 11.1917
  587 445.047 -3.07847 -6.64580
  588 445.051 -3.03109 6.59354
  589 656.320 -43.1221 -32.4196
  590 662.025 -28.5107 -46.8730
  591 68.4493 63.5523 60.2725
  592 627.560 54.4905 40.0712
  593 567.610 -26.4101 -5.75872
  594 561.941 -10.0579 0.521110
  595 560.616 -9.96015 -0.976499
  596 581.415 27.1755 25.3587
  597 1215.77 28.4184 17.2365
  598 473.478 -26.5304 -37.6979
  599 514.523 7.67314 2.02110
  600 654.342 10.8558 -62.5622
  601 513.845 -58.7428 96.9489
  602 21.9436 6.84943 23.9105
  603 20.0118 5.68196 -22.5892
  604 687.425 30.8871 -60.6162
  605 615.158 64.3525 -7.14078
  606 644.482 -45.2384 -28.6602
  607 394.665 -7.86492 -29.6946
  608 393.995 -8.46570 29.6882
  609 658.579 -4.55280 2.60853
  610 658.347 -4.55578 -2.77571
  611 647.706 -6.39314 -59.5563
  612 630.306 -29.8675 21.3790
  613 465.873 -25.3743 39.3900
  614 43.4703 30.4527 -25.4081
  615 619.187 389.210 -377.051
  616 648.334 -12.0681 22.3387
  617 646.515 -11.3413 -24.1655
  618 509.350 25.3631 -212.028
  619 609.975 -18.1694 -4.20729
  620 550.624 -51.3674 37.2746
  621 712.933 144.153 -0.556518
  622 255.484 -10.1335 -78.1548
  623 257.598 -10.0901 78.7959
  624 772.597 130.121 30.7783
  625 627.018 -40.7468 -18.8965
  626 571.236 31.9143 0.00620545
  627 609.328 -58.3050 -11.3951
  628 359.152 -9.11332 36.5519
  629 358.948 -9.04873 -36.1116
  630 456.156 -10.9793 -21.1271
  631 439.622 -1.09296 -2.82829
  632 439.632 -1.05748 2.81009
  633 622.624 -23.4892 -10.8407
  634 688.339 -1.45983 -0.875559
  635 688.164 -1.61718 1.15228
  636 811.832 154.498 -17.0238
  637 388.617 120.787 252.192
  638 740.289 -8.86203 12.2789
  639 335.540 53.5054 185.548
  640 153.772 42.1987 93.0627
  641 756.463 34.7281 -31.4782
  642 640.380 -60.5602 0.308533
  643 469.330 -5.91052 -7.40336
  644 469.460 -5.82238 7.42386
  645 619.919 -7.32134 -0.340348
  646 620.380 -7.47556 0.454449
  647 492.837 -49.6732 -70.5503
  648 234.538 10.9904 -112.510
  649 392.801 -1.85053 6.33951
  650 392.693 -1.95239 -6.24529
  651 1381.19 383.988 284.422
  652 726.232 82.8206 -51.9173
  653 651.499 -21.0596 -52.8303
  654 644.014 -23.7213 -47.7692
  655 681.015 56.0668 -59.8200
  656 422.767 -10.3520 -30.4087
  657 421.325 -11.0224 29.7265
  658 605.040 -52.6787 -4.74171
  659 5.17834 -16.0005 11.4523
  660 676.591 -1.26685 57.8405
  661 47.2968 28.7244 26.3305
  662 610.551 17.4988 49.2563
  663 105.238 99.1267 -99.5046
  664 576.151 24.5864 -26.0525
  665 663.992 -5.34861 6.19079
  666 561.808 -49.6673 -26.6133
  667 635.312 -11.8559 -38.0189
  668 210.579 -1.24404 30.3730
  669 211.328 -1.05280 -30.4859
  670 767.076 151.137 -25.2080
  671 356.920 -18.6194 -128.153
  672 621.824 -34.2300 -15.0164
  673 548.624 -22.7846 -10.5502
  674 663.036 -6.36043 -5.86347
  675 715.820 101.976 45.9288
  676 128.666 24.2393 -70.2662
  677 125.475 16.0455 69.7165
  678 648.716 -16.0540 55.5614
  679 574.037 -42.9561 12.9192
  680 636.936 -34.0659 -30.4969
  681 927.840 233.582 -61.5671
  682 753.491 161.118 5.16732
  683 555.076 -19.3839 6.41676
  684 712.622 27.1948 53.4144
  685 643.550 -67.6437 27.3005
  686 450.821 -10.4755 21.0859
  687 581.552 -62.4798 37.1623
  688 668.552 -3.57441 0.334149
  689 668.492 -3.80922 -0.275485
  690 934.708 206.330 53.5404
  691 379.530 -14.5516 49.7474
  692 56.2878 56.3964 -43.7790
  693 -14.8995 0.620881 12.6919
  694 -12.9822 1.04818 -13.1574
  695 333.971 -12.4849 54.3770
  696 165.293 61.7441 -107.529
  697 13.8395 4.02722 -20.6872
  698 619.785 -49.7636 7.65949
  699 433.259 -26.6973 -139.589
  700 490.098 -49.3871 69.4743
  701 602.470 -37.7992 -3.24396
  702 8.96159 -16.0739 -2.66149
  703 714.023 34.4026 -53.5254
  704 641.564 -63.1841 -8.22606
  705 633.819 -52.1067 -15.1515
  706 624.636 18.9219 -55.5594
  707 378.839 -14.6300 -49.8041
  708 65.2746 115.820 -105.674
  709 622.843 34.4580 -51.7841
  710 -0.651877 -16.1655 -12.6083
  711 589.443 0.448336 24.0733
  712 332.923 -11.9318 -53.7811
  713 415.739 -23.9844 138.896
  714 575.686 -19.4437 2.89039
  715 482.813 -10.2914 -12.1175
  716 349.966 -14.6284 126.318
  717 210.537 1.42466 -87.5679
  718 207.479 0.926731 85.9154
  719 481.376 -9.79304 12.4691
  720 127.297 2.25111 -35.6827
  721 127.886 2.46589 35.4922
  722 518.905 -18.8440 13.8660
  723 623.729 -1.03386 -20.0792
  724 709.947 83.4016 264.875
  725 507.950 -9.32276 -6.84856
  726 507.689 -9.56936 6.66135
  727 638.745 -18.8674 -39.4287
  728 493.854 -6.21257 -3.43137
  729 493.740 -5.99776 3.33830
  730 627.275 -6.99631 39.5559
  731 635.290 -67.1387 17.5776
  732 517.903 -13.2045 8.86867
  733 57.7589 -1.40085 -24.3992
  734 58.0732 -2.03926 24.0637
  735 517.085 -11.8077 -8.39785
  736 13.6875 14.9594 -2.04112
  737 678.343 -50.3826 -79.4598
  738 763.855 -8.99611 33.1960
  739 243.715 34.3115 130.763
  740 407.523 0.0868073 4.27465
  741 407.426 0.125746 -4.32561
  742 600.242 -61.0409 19.4501
  743 1129.68 161.651 -129.857
  744 559.755 1.36757 -19.7237
  745 547.020 -12.9378 -4.27339
  746 478.772 177.313 304.440
  747 686.823 26.7984 60.3545
  748 625.312 -1.35353 19.3751
  749 691.100 -1.71637 -1.92863
  750 691.706 -2.05318 1.94053
  751 958.908 184.563 -44.2846
  752 692.472 124.544 15.6000
  753 540.348 -15.7647 -6.86928
  754 678.408 -3.21794 6.60506
  755 439.776 -24.7753 -50.2581
  756 624.746 -7.99123 2.05050
  757 624.486 -7.96655 -1.69865
  758 464.168 -38.6989 125.071
  759 643.149 -68.9126 -35.0108
  760 641.009 -26.3809 41.9207
  761 439.161 -24.3860 49.8472
  762 673.281 96.7194 -37.9753
  763 563.193 4.21827 20.7566
  764 447.088 -41.2964 -94.1036
  765 543.327 -15.3820 6.51437
  766 637.238 -12.1212 53.3271
  767 413.277 0.624845 -1.47589
  768 413.297 0.633789 1.44775
  769 13.9870 18.9014 0.247814
  770 457.437 -14.8088 26.4391
  771 575.395 -14.6949 2.12652
  772 633.333 -27.5376 -22.4410
  773 302.419 -1.20890 22.2879
  774 302.576 -1.24891 -21.9513
  775 684.966 -21.1611 43.9744
  776 636.152 -14.3898 -50.8532
  777 249.674 -10.2876 -90.6574
  778 250.518 -9.12007 90.0945
  779 664.275 -55.1122 6.89576
  780 634.441 -21.0108 17.4999
  781 950.837 187.420 101.978
</Section>

newXOutput 37

<Section columns = "stress_xx | stress_yy | stress_xy">
  1 718.262 0.0820181 0.809259
  2 718.494 -0.00263377 -0.778708
  3 424.787 -0.0239970 -0.576471
  4 -5.15630 -5.85004 -6.92212
  5 1244.18 540.797 419.674
  6 1187.77 491.644 -354.793
  7 -6.80229 -5.84115 7.92550
  8 424.794 -0.0316325 0.567433
  9 720.490 -1.01326 -0.267082
  10 721.059 -2.69622 1.43896
  11 719.248 -2.18402 0.778741
  12 709.042 -2.56930 3.52604
  13 704.412 -2.61137 4.27526
  14 692.759 -3.62589 7.32268
  15 672.867 -2.69071 11.7223
  16 649.076 -1.29513 13.8604
  17 620.914 0.707568 16.4143
  18 579.441 2.41799 13.7388
  19 552.804 5.56722 16.3299
  20 532.121 4.67017 12.3078
  21 506.283 5.74021 3.50581
  22 513.259 8.68496 -4.72565
  23 522.702 4.41893 -8.66658
  24 551.316 4.00394 -14.2270
  25 577.667 1.65925 -15.4177
  26 620.548 0.842149 -17.1418
  27 648.402 -2.01030 -14.9308
  28 674.954 -2.94025 -11.8348
  29 692.631 -2.58291 -8.22756
  30 701.349 -2.67209 -6.74113
  31 710.201 -3.58157 -2.33167
  32 719.264 -1.94796 -0.127730
  33 721.187 -2.38165 -1.24065
  34 720.772 -1.22142 0.363832
  35 698.375 -1.99594 -1.21407
  36 672.158 -4.44267 -1.28692
  37 647.571 -7.72456 -1.71041
  38 618.361 -9.43281 -1.84143
  39 588.637 -10.2859 -1.39419
  40 554.757 -9.35762 -0.251071
  41 521.895 -7.44062 -0.111894
  42 492.320 -5.57692 0.584691
  43 466.221 -2.46114 1.01171
  44 441.586 -0.712688 0.0286797
  45 417.380 1.14750 0.159662
  46 415.598 0.995306 1.90105
  47 411.972 0.272437 1.44863
  48 404.987 -0.614562 3.67929
  49 390.893 0.0926326 4.89510
  50 377.915 -0.957283 7.17414
  51 361.962 -0.712847 10.3045
  52 335.152 0.0823092 11.1515
  53 304.205 0.323497 12.9191
  54 273.764 -0.318777 20.1855
  55 216.640 1.35141 18.9024
  56 176.368 1.49693 22.0962
  57 120.364 2.02770 20.3073
  58 68.3891 0.681032 22.6816
  59 15.5810 6.03231 23.1809
  60 -21.1737 7.20048 12.3887
  61 -35.6785 7.08932 0.572421
  62 -31.4823 5.57750 -11.2653
  63 -18.8599 -1.48578 -10.1813
  64 -1.80917 -19.0815 -9.57193
  65 1.45243 -35.9471 -12.4245
  66 5.19240 -55.2513 -6.06510
  67 16.7074 -51.7871 4.05323
  68 29.2220 10.2014 38.3280
  69 83.2810 146.620 123.370
  70 338.845 417.511 354.110
  71 1611.62 179.838 248.523
  72 1332.69 56.1189 84.5392
  73 1275.22 31.9660 33.5179
  74 1258.17 20.7191 -2.00950
  75 1271.64 27.0046 -30.3908
  76 1351.21 50.7888 -82.1212
  77 1544.53 148.533 -215.454
  78 272.268 472.482 -338.783
  79 68.9962 95.1306 -97.9540
  80 26.9882 11.4784 -39.9792
  81 8.25277 -50.5423 -7.58235
  82 5.32218 -42.2281 3.74498
  83 5.85727 -45.4358 10.1365
  84 0.600192 -17.2218 12.1900
  85 -20.2762 -1.20417 10.0480
  86 -33.1237 5.38722 10.9912
  87 -36.5145 7.03260 -0.836478
  88 -21.7732 6.74862 -12.2241
  89 14.5104 6.70835 -22.8271
  90 67.6144 0.881622 -22.9867
  91 120.059 1.89284 -20.6362
  92 176.951 1.47128 -22.2451
  93 217.436 1.30889 -19.0377
  94 274.566 -0.493697 -19.9839
  95 304.574 0.322501 -12.6804
  96 335.123 0.204769 -11.0294
  97 362.021 -0.683550 -10.3571
  98 377.854 -0.964968 -7.15671
  99 390.856 0.0881587 -4.90204
  100 404.853 -0.594316 -3.66112
  101 411.861 0.278943 -1.48041
  102 415.552 0.989733 -1.93102
  103 417.373 1.13948 -0.176624
  104 441.579 -0.739218 -0.0401725
  105 466.208 -2.51200 -1.02702
  106 492.299 -5.65192 -0.570313
  107 522.243 -7.62870 0.192618
  108 555.064 -9.42821 0.145099
  109 587.596 -10.3074 1.30175
  110 617.936 -9.04305 1.63557
  111 647.687 -7.98621 1.72280
  112 672.133 -4.66188 1.27932
  113 698.200 -2.22282 1.30717
  114 625.946 -66.1432 -24.7308
  115 632.694 -65.9051 19.6616
  116 674.356 95.6442 -30.0246
  117 534.805 -45.2653 -134.877
  118 519.593 -42.0712 137.464
  119 721.574 68.2898 56.8046
  120 752.093 20.7249 -41.7791
  121 542.157 -23.2417 -16.7139
  122 539.536 -24.5717 17.1996
  123 825.333 179.938 1.49950
  124 636.932 -29.4921 13.0854
  125 641.702 -27.9478 -15.5278
  126 659.219 -14.7411 -55.8889
  127 455.835 -37.2003 74.2665
  128 455.001 -37.5754 -77.8420
  129 661.659 -23.3131 49.6346
  130 888.077 200.002 15.2832
  131 244.091 55.9366 -147.489
  132 236.124 57.0715 145.407
  133 785.214 2.49589 -16.0716
  134 918.150 209.146 -33.9525
  135 622.116 42.9230 33.5114
  136 610.111 -17.2487 0.329737
  137 613.158 -16.0636 -0.733821
  138 778.177 -7.26155 95.2023
  139 458.806 -18.4232 -34.2749
  140 458.991 -18.3465 32.9363
  141 597.690 42.0786 -230.861
  142 1039.95 143.522 20.3768
  143 626.765 22.4061 -50.1678
  144 476.292 -6.19074 -10.0484
  145 476.212 -6.16361 10.1034
  146 543.452 -44.2271 36.3936
  147 553.266 -46.3670 -36.2367
  148 330.753 -20.5600 -107.264
  149 329.525 -16.5472 108.745
  150 693.867 105.828 32.4291
  151 681.101 -65.7092 37.8985
  152 688.409 -38.5678 -36.2521
  153 706.859 -42.0181 20.2888
  154 652.283 -44.7959 -24.2272
  155 683.193 32.4811 -63.6436
  156 604.331 54.2056 251.573
  157 48.9551 39.8285 27.6765
  158 43.3945 33.3719 -21.7928
  159 607.817 38.8800 -13.5006
  160 653.464 14.7266 59.9400
  161 666.645 -9.63264 8.47982
  162 661.498 -11.1127 -8.51193
  163 619.550 -46.2662 0.155958
  164 657.503 -15.7149 -32.3017
  165 751.419 124.355 -40.9112
  166 600.030 -38.9211 5.11412
  167 571.576 -64.9702 73.3339
  168 542.555 -12.5992 -5.38389
  169 543.152 -12.5580 5.54294
  170 660.007 -14.6160 29.9601
  171 575.492 -64.5911 -70.6279
  172 673.909 -63.3179 -54.9165
  173 765.202 135.742 35.6169
  174 602.078 -32.0446 -1.81089
  175 887.108 111.033 -78.3246
  176 169.238 10.5512 -84.9004
  177 164.718 9.76455 82.8790
  178 1091.19 209.212 112.256
  179 926.043 175.769 45.2377
  180 1123.00 130.424 -71.3823
  181 654.008 -9.18266 2.53395
  182 653.298 -9.01823 -2.59622
  183 409.875 -12.3644 -41.9238
  184 409.920 -12.5241 42.0558
  185 332.828 -11.8601 -65.6148
  186 335.046 -11.9402 66.7116
  187 197.927 144.097 -184.579
  188 635.462 -3.40078 46.1802
  189 664.894 -49.0767 24.4380
  190 446.220 -5.25765 -15.4536
  191 445.510 -5.56536 15.5737
  192 101.425 102.527 110.046
  193 624.386 1.15877 -44.8249
  194 653.991 -34.3888 31.1081
  195 601.816 10.1789 39.9073
  196 668.008 -40.2028 -127.091
  197 670.237 -11.1701 -17.4447
  198 611.180 -53.8282 11.4179
  199 734.893 146.172 -19.2344
  200 682.628 -21.0049 53.2127
  201 464.402 -43.0271 -109.456
  202 346.129 -2.07013 -143.760
  203 338.584 0.139484 143.908
  204 664.281 56.2461 49.9249
  205 482.136 0.897407 187.922
  206 645.623 72.8730 9.72463
  207 810.776 94.6918 -24.3852
  208 671.770 -10.9613 15.4228
  209 464.577 -42.3844 110.059
  210 585.130 -25.3813 5.41381
  211 1077.86 273.143 -141.062
  212 810.985 107.811 28.1520
  213 483.365 -33.7770 -48.6838
  214 481.066 -31.6216 48.0135
  215 78.2699 24.7095 -47.3740
  216 88.6511 25.1360 53.8901
  217 543.102 -54.7625 56.1409
  218 574.204 -20.7416 -6.77469
  219 578.714 -11.9747 -1.78201
  220 584.416 -11.9962 1.61551
  221 544.335 -53.0196 -56.4204
  222 571.120 -38.1721 -16.7466
  223 667.320 -58.0885 95.1573
  224 814.131 176.409 -8.33072
  225 938.200 184.584 -18.8519
  226 751.700 22.2068 39.1968
  227 629.589 -21.4138 7.24750
  228 467.603 4.88914 -191.050
  229 521.411 -31.6609 29.6023
  230 623.965 -24.4413 -5.30482
  231 748.373 -32.5810 19.8492
  232 651.185 51.9813 -48.4417
  233 715.909 -37.4289 -19.5390
  234 570.682 22.7538 9.69203
  235 490.883 -15.8966 -22.0663
  236 709.356 1.73866 -54.7193
  237 412.442 -5.68446 -21.5597
  238 412.072 -5.57616 20.9608
  239 444.335 -0.523231 -2.97047
  240 444.350 -0.492629 2.93451
  241 654.093 7.38126 -61.3282
  242 487.254 -15.7529 23.1809
  243 517.671 -30.8726 -31.2700
  244 237.791 177.060 238.133
  245 41.7582 53.0727 -38.2166
  246 1180.45 89.6630 25.8215
  247 569.869 10.7412 -21.5488
  248 631.381 -42.8065 -9.09709
  249 635.413 150.453 -315.214
  250 660.806 -54.1438 -16.5435
  251 348.622 -10.5689 -43.3104
  252 349.045 -10.9176 43.6482
  253 657.243 -27.4070 -40.7373
  254 678.865 -9.66079 -58.9499
  255 502.105 -7.20196 -4.74472
  256 502.102 -7.24631 4.62336
  257 689.042 -4.85268 -3.11931
  258 689.602 -4.09584 3.10330
  259 644.990 -5.82670 -33.2214
  260 887.042 111.976 199.621
  261 600.418 -57.4614 -20.5249
  262 514.724 -13.9758 -12.3556
  263 512.478 -14.2224 12.8493
  264 0.758882 -0.141213 -12.5700
  265 -1.63230 1.95764 13.2494
  266 192.416 -5.11628 -67.7843
  267 191.309 -4.37623 67.3629
  268 435.437 -2.58396 6.81743
  269 435.383 -2.61215 -6.90046
  270 644.962 -7.24453 31.4565
  271 745.277 153.161 13.3248
  272 673.678 -62.9558 2.70163
  273 694.655 82.1822 -52.9727
  274 668.568 -35.2375 -42.9798
  275 724.372 -42.1716 -2.61649
  276 269.065 -5.78863 62.5434
  277 267.206 -6.15735 -61.6091
  278 670.416 -63.9023 -16.9788
  279 585.324 -66.4363 90.6583
  280 620.883 -10.2768 0.138435
  281 621.488 -9.88608 -0.101820
  282 687.370 -3.71860 -1.52680
  283 687.467 -4.14513 1.63047
  284 322.116 88.4500 213.532
  285 720.457 57.9369 -59.3665
  286 644.370 -54.7944 7.02927
  287 817.774 168.567 14.2093
  288 599.212 6.31581 -36.7822
  289 576.207 -17.1577 4.38351
  290 788.021 126.303 -36.0677
  291 638.669 -9.86330 176.191
  292 694.411 122.350 0.297037
  293 584.684 -63.1780 -94.5104
  294 622.473 -70.9034 43.9901
  295 595.191 -58.4153 26.4329
  296 913.174 185.443 18.5450
  297 565.833 -37.9370 20.5011
  298 685.568 -5.46334 -8.39120
  299 648.986 -33.3247 -25.2627
  300 1076.67 305.284 141.344
  301 712.588 0.544186 52.4194
  302 675.402 -5.13629 -14.9775
  303 709.030 95.6775 47.3521
  304 751.924 0.795286 -141.049
  305 680.974 19.9400 63.5893
  306 24.7045 29.1819 16.2439
  307 413.568 -30.4629 89.0462
  308 644.423 -12.1177 4.10895
  309 642.408 -13.4193 -4.55523
  310 644.945 67.5151 -28.4225
  311 398.696 -26.2794 -85.9908
  312 422.573 -33.8458 -122.870
  313 658.010 -15.6880 12.5881
  314 623.684 -36.0279 6.63551
  315 651.853 -3.24838 58.4511
  316 925.874 197.749 -227.991
  317 656.046 -23.1779 38.5444
  318 652.034 -17.6775 -12.7320
  319 684.986 -4.86672 8.38487
  320 419.661 -3.99335 14.5996
  321 419.977 -4.43623 -14.8065
  322 118.790 71.6025 -95.7494
  323 563.397 17.6787 -8.04122
  324 657.985 -20.3889 24.8861
  325 884.988 162.674 -12.2263
  326 662.830 82.8101 33.5511
  327 356.604 68.2325 -213.509
  328 413.328 -25.8391 123.646
  329 621.409 37.3409 -37.2968
  330 673.435 -6.06674 16.2717
  331 653.763 -17.6684 -46.1690
  332 18.1447 13.0543 -4.67224
  333 129.122 61.7809 88.6455
  334 494.780 -51.9326 88.7075
  335 -1.63692 12.7665 1.71754
  336 -0.325778 13.8897 -1.21625
  337 680.320 295.502 342.248
  338 651.620 -15.4870 46.5895
  339 1299.85 139.827 -162.761
  340 641.595 37.8810 51.3596
  341 758.062 78.8398 45.2453
  342 551.452 -17.5326 9.48683
  343 572.729 10.7059 23.0862
  344 504.928 -55.3573 -84.2695
  345 627.919 -30.5522 -8.43071
  346 574.589 -31.3298 11.3627
  347 657.758 -19.0971 -25.8135
  348 633.476 -70.0848 -57.9783
  349 735.868 -39.9570 -36.9317
  350 611.668 46.7204 10.3814
  351 670.518 -57.6562 12.9483
  352 839.326 64.7880 20.5709
  353 387.288 -18.6305 64.3175
  354 605.689 -23.3361 0.384854
  355 586.917 -64.4607 -49.7224
  356 957.748 234.703 57.9230
  357 718.908 119.357 -38.1772
  358 474.395 -9.37833 16.5080
  359 475.225 -10.1633 -16.8009
  360 384.714 -18.0183 -65.2709
  361 233.246 221.947 -245.140
  362 558.427 -10.5449 -3.20412
  363 559.994 -11.1126 2.80727
  364 368.986 -3.54832 -22.4311
  365 368.907 -3.61815 22.6656
  366 1216.32 47.0688 -23.9431
  367 1231.86 84.6606 76.4853
  368 592.919 -47.3593 -15.1353
  369 776.283 30.8288 184.100
  370 295.807 -2.02311 115.234
  371 296.100 -3.94953 -115.690
  372 587.873 -37.6358 143.739
  373 605.006 5.06027 37.7519
  374 631.026 7.31146 52.7900
  375 575.792 -66.2555 57.6615
  376 176.820 35.0119 -101.645
  377 175.121 28.2138 97.8035
  378 87.4780 5.70619 -43.0271
  379 87.8797 4.81190 43.4295
  380 624.699 -56.4609 -109.125
  381 475.741 -3.66808 -4.18927
  382 475.749 -3.61472 4.17334
  383 922.384 174.822 -1.70453
  384 572.511 -30.4129 -11.5020
  385 596.240 -14.4617 -179.628
  386 638.447 -58.8014 1.63599
  387 871.126 161.577 5.12563
  388 767.387 67.3384 -44.7650
  389 660.420 -37.3467 37.3722
  390 445.136 -10.3480 -25.1377
  391 443.926 -9.26072 23.8773
  392 575.827 -14.8124 -3.88955
  393 541.903 -17.8770 -11.8045
  394 427.687 -24.5340 58.9850
  395 427.117 -24.4912 -60.0239
  396 55.5082 87.8459 -71.7241
  397 658.989 30.8418 -59.4832
  398 511.767 -34.5924 38.9916
  399 793.304 63.9077 -197.209
  400 640.185 -42.4228 15.1127
  401 89.7027 118.013 116.934
  402 646.881 -5.72752 -55.4693
  403 425.361 -2.34487 8.70874
  404 425.219 -2.23044 -8.74476
  405 662.090 -6.31487 1.07715
  406 661.876 -6.00903 -0.901048
  407 684.774 -42.7141 32.0758
  408 332.461 -18.5877 -87.6830
  409 687.944 -3.89400 -9.39377
  410 337.236 -19.2137 88.3634
  411 787.550 18.1892 -4.42492
  412 671.520 -32.5849 45.5077
  413 596.113 -39.0096 -6.72277
  414 1035.81 225.863 -93.2528
  415 655.070 -25.1515 30.9048
  416 1033.61 189.566 64.1591
  417 787.433 165.355 14.7111
  418 315.312 -6.31750 -39.3157
  419 315.516 -6.05929 39.9749
  420 131.369 -1.30344 -48.8423
  421 129.743 -1.23272 47.9029
  422 658.842 -5.84907 -23.2021
  423 1291.04 182.512 165.397
  424 352.142 22.8801 169.916
  425 445.053 -19.9124 -40.9757
  426 444.487 -19.8783 41.3355
  427 483.805 -40.2692 61.1761
  428 393.650 120.784 -276.253
  429 781.736 168.593 -8.38949
  430 485.855 -39.7351 -62.0173
  431 699.834 -3.07037 -3.36331
  432 732.557 131.938 32.9721
  433 760.730 150.550 -24.9939
  434 518.969 -36.7778 -39.3882
  435 955.416 227.721 -57.0832
  436 527.523 -56.0242 113.375
  437 816.017 16.5948 -50.7326
  438 555.570 -38.3066 -155.441
  439 626.921 8.98608 -51.8922
  440 582.060 -58.0293 -35.8441
  441 1122.36 105.234 -20.1898
  442 1108.46 131.988 67.4605
  443 651.340 -46.2409 21.4640
  444 4.72481 10.7469 -11.9821
  445 6.35580 11.5013 11.9462
  446 845.656 171.079 7.04229
  447 632.080 -2.64387 29.2503
  448 573.372 -48.8073 25.8877
  449 453.938 -18.0245 162.120
  450 3.28965 -12.0654 -10.1590
  451 501.451 -46.2489 -119.662
  452 635.577 -50.2534 -7.73864
  453 629.181 -11.9913 2.45457
  454 629.045 -11.4603 -1.69993
  455 274.623 24.7373 -142.652
  456 658.618 -4.83221 21.9483
  457 97.6269 44.0228 -62.2896
  458 32.6130 39.3203 36.9802
  459 264.882 -1.83108 -35.9430
  460 264.098 -1.44692 36.0430
  461 1368.05 324.927 -254.349
  462 627.465 -1.76796 -30.3853
  463 640.215 -18.3230 -8.07311
  464 623.182 -27.2620 5.72255
  465 608.888 25.0042 39.0216
  466 671.352 -2.31705 61.5908
  467 596.941 -10.9438 -0.437030
  468 599.125 -10.7806 0.0880545
  469 239.010 16.1683 114.525
  470 508.200 -16.2292 17.4966
  471 781.611 41.7168 25.9666
  472 733.045 -42.2891 64.4383
  473 856.266 181.769 0.807632
  474 701.101 -2.34092 3.36510
  475 605.772 -30.8239 0.706846
  476 530.592 -8.79274 -3.19034
  477 530.309 -8.50863 2.99482
  478 194.281 88.7447 148.386
  479 607.994 -22.6015 -0.345728
  480 89.4450 46.5107 56.4855
  481 193.728 91.0634 -146.571
  482 665.327 94.4532 -9.18026
  483 545.387 -30.3150 -20.7219
  484 502.088 -9.82553 -9.55646
  485 502.440 -9.53617 9.70322
  486 691.484 -59.9165 -14.0993
  487 689.076 -4.59346 9.37158
  488 876.364 71.0822 93.2176
  489 684.008 82.2270 46.8744
  490 552.330 -41.7971 -28.0338
  491 676.112 106.462 13.1160
  492 9.91663 -16.4037 -5.87405
  493 195.196 226.449 236.244
  494 689.785 56.7738 58.1109
  495 511.299 -16.2878 -16.2718
  496 601.870 1.18927 -25.9614
  497 474.635 39.1740 219.080
  498 614.981 -46.4863 1.86071
  499 704.838 -58.3169 48.4077
  500 663.896 -13.1176 -13.4574
  501 1031.74 157.355 -25.5310
  502 192.097 -0.315769 -42.7897
  503 192.359 0.00815696 43.4851
  504 667.029 -7.22407 -4.83529
  505 664.802 -7.81891 4.95571
  506 391.661 -26.5216 107.707
  507 485.509 -19.9942 -28.7925
  508 455.306 -13.7228 -162.229
  509 403.481 -31.5540 -103.647
  510 383.429 -2.80387 -15.4875
  511 383.271 -2.90110 15.3776
  512 650.257 -61.0911 0.877164
  513 493.148 -23.3819 31.5696
  514 690.713 7.81865 -61.8252
  515 516.032 -24.2529 24.1077
  516 542.191 -56.4131 69.8724
  517 824.250 67.1623 -4.50990
  518 339.697 -1.07376 -22.2510
  519 339.769 -1.16265 22.5464
  520 829.993 174.807 -10.7088
  521 727.296 -6.40991 -40.3799
  522 727.268 -11.9755 34.6452
  523 660.253 -36.4445 -37.2437
  524 521.899 -43.8735 48.5842
  525 1255.38 72.9273 -81.6238
  526 717.823 -48.9813 10.5238
  527 562.534 6.12530 -20.8869
  528 560.041 -22.7501 10.1740
  529 671.759 77.9842 -43.7098
  530 1064.29 329.223 224.780
  531 646.586 -15.5761 8.47087
  532 600.814 -13.4685 -1.15512
  533 606.322 -12.1932 0.351853
  534 676.154 -53.5688 -17.6063
  535 542.813 -31.3065 21.7111
  536 428.260 0.230720 -3.95872
  537 428.304 0.241818 3.90866
  538 544.617 -58.3526 -68.0721
  539 700.985 119.945 -21.2324
  540 653.305 -20.0795 -17.5954
  541 569.997 5.15278 24.4625
  542 654.863 -25.7907 -32.2799
  543 432.280 0.184846 -0.915107
  544 432.285 0.199362 0.897656
  545 748.511 -29.8634 -72.7895
  546 527.873 -46.7453 -49.4478
  547 748.196 -11.3234 -18.8522
  548 688.524 -42.8655 115.680
  549 669.205 -11.2572 12.0377
  550 702.965 -2.69795 1.69753
  551 702.854 -2.49510 -1.44230
  552 634.777 -69.5117 -38.2134
  553 651.165 -67.0311 74.7646
  554 395.842 -1.88100 -10.1894
  555 395.650 -1.87071 10.1146
  556 594.011 -59.2630 109.850
  557 675.243 54.5169 -56.5931
  558 519.921 -54.5962 -97.8677
  559 666.834 37.9247 61.3628
  560 633.635 -70.6309 60.3841
  561 533.924 6.54578 8.91645
  562 568.805 -14.4431 4.23648
  563 693.009 -17.3585 -51.8254
  564 863.646 182.839 -2.92800
  565 706.002 -26.7905 -39.2683
  566 544.007 -39.1183 30.2155
  567 452.576 -4.76931 11.6182
  568 452.643 -4.83816 -11.7709
  569 628.317 -17.7408 3.01160
  570 515.251 -23.3164 -23.5451
  571 652.487 -11.5236 36.9079
  572 694.058 -48.9767 -18.6871
  573 592.984 -17.7990 -2.44146
  574 1043.04 324.137 -159.930
  575 601.106 14.7556 -37.1698
  576 887.731 190.831 -14.1019
  577 539.261 5.49375 -14.0162
  578 641.124 -22.9751 10.9623
  579 194.201 124.915 187.108
  580 636.472 60.3859 27.0090
  581 353.704 26.0867 -172.403
  582 692.476 -58.7297 5.60124
  583 644.594 -7.47829 -45.2349
  584 720.360 88.6315 -53.5230
  585 -5.21448 -6.18527 -11.4355
  586 -6.61492 -5.38413 11.4764
  587 457.559 -3.14198 -6.84759
  588 457.563 -3.09341 6.79416
  589 673.556 -44.2735 -32.8411
  590 679.443 -29.2769 -47.6621
  591 70.5053 65.4383 62.2287
  592 644.449 55.9705 40.9132
  593 582.767 -27.1003 -6.08126
  594 576.981 -10.3336 0.567140
  595 575.627 -10.2336 -1.03284
  596 597.296 27.9513 25.9124
  597 1245.28 29.1315 17.6292
  598 486.460 -27.2023 -38.8024
  599 528.994 7.90864 2.06818
  600 671.703 11.1427 -63.8045
  601 527.543 -60.3181 99.7303
  602 22.9187 7.02888 24.6708
  603 20.9364 5.82961 -23.3133
  604 705.545 31.7046 -61.7482
  605 631.801 66.1076 -7.29231
  606 661.438 -46.4446 -29.0120
  607 405.859 -8.05424 -30.5224
  608 405.173 -8.67035 30.5156
  609 675.654 -4.71204 2.61651
  610 675.418 -4.71469 -2.78761
  611 664.884 -6.56624 -60.7272
  612 646.913 -30.6712 21.6400
  613 478.680 -26.0169 40.5329
  614 44.9113 31.3128 -26.2962
  615 633.976 400.446 -386.684
  616 665.361 -12.4114 22.7054
  617 663.532 -11.6644 -24.5816
  618 522.603 26.0356 -217.853
  619 626.069 -18.6694 -4.14974
  620 565.323 -52.7069 38.4855
  621 731.907 147.903 -0.562096
  622 262.887 -10.4227 -80.3512
  623 265.053 -10.3785 81.0111
  624 792.810 133.556 31.0906
  625 643.549 -41.8331 -19.0576
  626 586.908 32.8228 0.00677841
  627 625.397 -59.8392 -12.0221
  628 369.429 -9.34155 37.5559
  629 369.221 -9.27532 -37.1046
  630 468.830 -11.2439 -21.7521
  631 452.049 -1.10673 -2.90498
  632 452.060 -1.07039 2.88638
  633 639.019 -24.1299 -10.8967
  634 705.969 -1.52217 -0.884903
  635 705.791 -1.68324 1.16701
  636 832.947 158.573 -16.9139
  637 398.846 124.074 259.096
  638 759.423 -9.05501 12.0515
  639 344.604 54.9113 190.751
  640 158.237 43.3317 95.8477
  641 776.061 35.6886 -31.7156
  642 657.173 -62.1635 0.707110
  643 482.364 -6.04510 -7.63228
  644 482.497 -5.95475 7.65340
  645 636.191 -7.55389 -0.320267
  646 636.661 -7.71148 0.437007
  647 506.129 -50.9818 -72.5879
  648 241.224 11.2359 -115.743
  649 404.110 -1.89021 6.52048
  650 404.000 -1.99445 -6.42392
  651 1413.84 393.800 291.277
  652 745.312 85.0119 -52.7944
  653 668.710 -21.6281 -53.8022
  654 661.037 -24.3619 -48.6396
  655 699.051 57.5530 -60.9827
  656 434.624 -10.6020 -31.2704
  657 433.151 -11.2893 30.5699
  658 621.026 -54.0648 -5.17822
  659 5.36083 -16.3604 11.6949
  660 694.407 -1.30630 58.9026
  661 48.8451 29.5372 27.2453
  662 627.013 17.9927 50.3011
  663 108.300 101.970 -102.544
  664 591.918 25.2956 -26.6255
  665 681.220 -5.52551 6.25288
  666 576.785 -50.9626 -27.5512
  667 652.163 -12.1816 -38.7433
  668 217.000 -1.27769 31.2170
  669 217.770 -1.08133 -31.3324
  670 787.251 155.080 -25.4890
  671 366.739 -19.1704 -131.749
  672 638.224 -35.1446 -15.1151
  673 563.359 -23.3738 -10.9733
  674 680.242 -6.56256 -5.91520
  675 734.722 104.661 46.7304
  676 132.550 24.8759 -72.3674
  677 129.270 16.4564 71.8072
  678 665.881 -16.4891 56.6170
  679 589.319 -44.0754 13.4985
  680 653.725 -34.9807 -30.9426
  681 951.613 239.706 -63.6512
  682 773.435 165.274 5.23829
  683 569.959 -19.8906 6.71637
  684 731.276 27.9181 54.3068
  685 660.363 -69.4319 28.4042
  686 463.377 -10.7274 21.7047
  687 596.946 -64.1227 38.4202
  688 685.803 -3.70427 0.353163
  689 685.741 -3.94396 -0.293382
  690 958.712 211.612 55.2199
  691 390.249 -14.9191 51.1229
  692 58.0152 58.0555 -45.2494
  693 -15.2605 0.653004 13.0024
  694 -13.2877 1.09648 -13.4819
  695 343.529 -12.8109 55.8746
  696 170.060 63.4212 -110.729
  697 14.2827 4.60113 -21.4794
  698 636.129 -51.0808 7.52504
  699 444.918 -27.4634 -143.494
  700 503.330 -50.6872 71.4796
  701 618.414 -38.7991 -3.06353
  702 9.23499 -16.2617 -2.59480
  703 732.726 35.3202 -54.4182
  704 658.374 -64.8572 -8.83437
  705 650.498 -53.4892 -15.1747
  706 641.394 19.4452 -56.7241
  707 389.542 -15.0003 -51.1808
  708 67.1241 119.675 -108.875
  709 639.590 35.3981 -52.8785
  710 -0.647461 -16.5656 -12.9176
  711 605.455 0.465863 24.5792
  712 342.458 -12.2413 -55.2628
  713 426.974 -24.6769 142.791
  714 591.024 -19.9616 3.10346
  715 496.114 -10.5398 -12.5033
  716 359.612 -15.0720 129.871
  717 216.682 1.43130 -90.0790
  718 213.542 0.921040 88.3869
  719 494.646 -10.0292 12.8633
  720 131.388 2.30780 -36.7094
  721 131.990 2.52859 36.5144
  722 532.987 -19.3210 14.3364
  723 640.401 -1.06796 -20.4803
  724 727.670 86.0191 272.034
  725 521.816 -9.55351 -7.08104
  726 521.550 -9.80637 6.88928
  727 655.631 -19.3808 -40.1439
  728 507.426 -6.36081 -3.53496
  729 507.309 -6.14075 3.43954
  730 643.995 -7.19032 40.3409
  731 651.930 -68.9142 18.4138
  732 531.975 -13.5380 9.18445
  733 59.8710 -1.44236 -25.1350
  734 60.1909 -2.09797 24.7904
  735 531.141 -12.1048 -8.69808
  736 14.1702 15.4708 -1.93589
  737 695.843 -51.6791 -81.9549
  738 783.416 -9.12350 34.6243
  739 250.562 35.1876 134.518
  740 419.223 0.0966535 4.40098
  741 419.123 0.136584 -4.45307
  742 616.096 -62.6462 20.2741
  743 1157.69 165.713 -133.094
  744 575.173 1.41393 -20.1487
  745 561.733 -13.2778 -4.45725
  746 490.929 182.263 312.578
  747 704.922 27.5044 61.4769
  748 642.012 -1.39569 19.7595
  749 708.821 -1.77686 -1.94381
  750 709.437 -2.12024 1.95643
  751 983.435 189.252 -45.6173
  752 710.948 127.816 15.8943
  753 554.912 -16.1713 -7.14413
  754 695.981 -3.32098 6.69920
  755 451.927 -25.4047 -51.6784
  756 641.123 -8.24018 2.04199
  757 640.857 -8.21562 -1.68300
  758 476.612 -39.7670 128.587
  759 659.937 -70.7370 -36.3218
  760 657.940 -27.0924 42.6590
  761 451.301 -25.0060 51.2558
  762 691.252 99.2816 -38.7240
  763 578.682 4.33276 21.2059
  764 459.236 -42.4029 -96.7525
  765 557.956 -15.7802 6.78369
  766 654.164 -12.4489 54.3728
  767 425.154 0.644349 -1.52295
  768 425.175 0.653509 1.49419
  769 14.4805 19.5162 0.0914825
  770 470.111 -15.1737 27.2113
  771 590.726 -15.0932 2.28549
  772 650.011 -28.2818 -22.7378
  773 311.307 -1.23147 22.8974
  774 311.469 -1.27232 -22.5525
  775 702.903 -21.7298 44.6474
  776 653.051 -14.7768 -51.8435
  777 256.862 -10.5946 -93.2275
  778 257.727 -9.39533 92.6527
  779 681.633 -56.5725 6.63824
  780 651.121 -21.5896 17.7145
  781 974.569 192.796 105.445
</Section>

newXOutput 38

<Section columns = "stress_xx | stress_yy | stress_xy">
  1 736.006 0.0594382 0.823507
  2 736.242 -0.0266042 -0.792730
  3 436.673 -0.0170007 -0.584795
  4 -5.29626 -6.00781 -7.11267
  5 1271.73 554.962 429.554
  6 1214.67 504.680 -363.327
  7 -6.98537 -5.99809 8.14420
  8 436.680 -0.0248200 0.575575
  9 738.281 -1.05455 -0.281908
  10 738.881 -2.77173 1.45378
  11 737.068 -2.24709 0.774142
  12 726.730 -2.65014 3.56473
  13 722.066 -2.68228 4.33297
  14 710.244 -3.72553 7.43636
  15 690.043 -2.77086 11.9331
  16 665.851 -1.33719 14.1237
  17 637.177 0.719574 16.7395
  18 594.919 2.47953 14.0228
  19 567.754 5.71008 16.6759
  20 546.645 4.81317 12.5693
  21 520.280 5.89758 3.58207
  22 527.403 8.93334 -4.82991
  23 537.041 4.54916 -8.85345
  24 566.237 4.11434 -14.5261
  25 593.111 1.70336 -15.7343
  26 636.802 0.859124 -17.4839
  27 665.164 -2.06987 -15.2155
  28 692.162 -3.02424 -12.0458
  29 710.116 -2.66175 -8.36224
  30 718.949 -2.75603 -6.84467
  31 727.900 -3.68357 -2.34699
  32 737.083 -2.00748 -0.109632
  33 739.010 -2.45237 -1.25193
  34 738.565 -1.26774 0.379804
  35 715.766 -2.07724 -1.23704
  36 689.057 -4.59481 -1.30727
  37 663.994 -7.96029 -1.73412
  38 634.198 -9.70362 -1.86045
  39 603.865 -10.5640 -1.40780
  40 569.281 -9.59920 -0.234803
  41 535.735 -7.62017 -0.100170
  42 505.550 -5.70332 0.610500
  43 478.920 -2.50723 1.04213
  44 453.796 -0.718796 0.0342438
  45 429.115 1.17600 0.170603
  46 427.278 1.02113 1.95401
  47 423.537 0.282237 1.49805
  48 416.360 -0.624144 3.78714
  49 401.914 0.0993598 5.02845
  50 388.585 -0.977173 7.36476
  51 372.206 -0.725898 10.5765
  52 344.715 0.0892251 11.4507
  53 312.979 0.335341 13.2652
  54 281.729 -0.319839 20.7247
  55 223.141 1.38677 19.4144
  56 181.791 1.53481 22.6932
  57 124.258 2.07662 20.8798
  58 70.8137 0.691265 23.3421
  59 16.4774 6.18903 23.8747
  60 -21.4027 7.39070 12.7901
  61 -36.4439 7.28504 0.653846
  62 -32.2651 5.74345 -11.5270
  63 -19.3530 -1.51215 -10.4421
  64 -1.84472 -19.5827 -9.81811
  65 1.50897 -36.8549 -12.7203
  66 5.35217 -56.5220 -6.14453
  67 17.1885 -52.7603 4.32301
  68 30.0717 11.2101 39.6081
  69 85.5164 151.738 126.913
  70 346.767 429.660 362.877
  71 1647.41 184.125 253.714
  72 1363.64 57.4208 86.3836
  73 1305.02 32.7387 34.2305
  74 1287.64 21.2311 -2.05316
  75 1301.40 27.6640 -31.0710
  76 1382.52 52.0112 -83.9255
  77 1579.34 152.103 -220.031
  78 278.625 486.014 -347.150
  79 70.8856 98.9315 -100.937
  80 27.7738 12.5898 -41.3199
  81 8.49169 -51.4451 -7.93649
  82 5.49261 -43.1605 3.74122
  83 6.03605 -46.5909 10.3670
  84 0.623652 -17.6671 12.5073
  85 -20.8088 -1.22293 10.3047
  86 -33.9522 5.54752 11.2467
  87 -37.3013 7.22728 -0.925191
  88 -22.0152 6.92659 -12.6212
  89 15.3821 6.88297 -23.5116
  90 70.0219 0.896988 -23.6550
  91 123.948 1.93808 -21.2171
  92 182.391 1.50835 -22.8456
  93 223.959 1.34301 -19.5527
  94 282.551 -0.499156 -20.5176
  95 313.358 0.334415 -13.0208
  96 344.686 0.214565 -11.3259
  97 372.268 -0.695922 -10.6301
  98 388.523 -0.984883 -7.34675
  99 401.876 0.0948752 -5.03543
  100 416.223 -0.603426 -3.76855
  101 423.423 0.288916 -1.53049
  102 427.231 1.01544 -1.98461
  103 429.107 1.16780 -0.187916
  104 453.788 -0.745942 -0.0459700
  105 478.907 -2.55926 -1.05775
  106 505.528 -5.78001 -0.595825
  107 536.090 -7.81256 0.182281
  108 569.593 -9.67141 0.126178
  109 602.802 -10.5859 1.31273
  110 633.763 -9.30432 1.64983
  111 664.111 -8.22771 1.74704
  112 689.032 -4.81847 1.29957
  113 715.588 -2.30896 1.33194
  114 641.931 -67.8375 -25.7001
  115 648.838 -67.5919 20.5136
  116 691.892 98.1139 -30.6132
  117 548.510 -46.4647 -138.584
  118 532.947 -43.1926 141.232
  119 740.026 70.0420 57.7963
  120 771.072 21.2805 -42.2746
  121 556.380 -23.8159 -17.2764
  122 553.701 -25.1786 17.7757
  123 846.361 184.390 1.48617
  124 653.225 -30.2616 13.1526
  125 658.102 -28.6809 -15.6514
  126 676.175 -15.1294 -56.9234
  127 467.951 -38.1472 76.3011
  128 467.085 -38.5365 -79.9720
  129 678.633 -23.9222 50.5092
  130 910.373 205.056 16.1372
  131 250.725 57.3648 -151.612
  132 242.545 58.5385 149.483
  133 804.751 2.65004 -17.0621
  134 941.112 214.412 -35.2403
  135 638.473 44.0780 34.2037
  136 625.791 -17.7086 0.206215
  137 628.903 -16.4940 -0.620999
  138 797.361 -7.27640 98.1226
  139 471.169 -18.8691 -35.2331
  140 471.364 -18.7905 33.8618
  141 612.514 43.2933 -237.009
  142 1065.46 146.999 20.9074
  143 643.174 23.0136 -51.1966
  144 489.159 -6.32909 -10.3531
  145 489.078 -6.30127 10.4094
  146 557.636 -45.3357 37.5192
  147 567.661 -47.5326 -37.3705
  148 339.748 -21.1277 -110.195
  149 338.491 -17.0132 111.716
  150 711.844 108.545 33.0382
  151 698.269 -67.3884 39.2809
  152 705.909 -39.5670 -36.7094
  153 724.727 -43.0954 20.3129
  154 668.947 -45.9535 -24.4681
  155 700.772 33.3212 -64.8548
  156 619.302 55.7933 258.229
  157 50.4573 40.9640 28.6529
  158 44.7624 34.3232 -22.5902
  159 623.884 39.9417 -13.7825
  160 670.395 15.1179 61.1216
  161 683.513 -9.91403 8.54836
  162 678.260 -11.4315 -8.57611
  163 635.449 -47.4488 -0.138169
  164 674.343 -16.1362 -32.8497
  165 770.649 127.525 -41.5429
  166 615.498 -39.9089 5.48897
  167 586.260 -66.6427 75.4748
  168 556.817 -12.9111 -5.58619
  169 557.426 -12.8709 5.74949
  170 676.885 -15.0116 30.4614
  171 590.269 -66.2541 -72.7022
  172 690.885 -64.9341 -56.7246
  173 784.751 139.189 36.1135
  174 617.595 -32.8609 -2.07495
  175 908.813 114.173 -80.9942
  176 174.124 10.7967 -87.3140
  177 169.486 9.99110 85.2431
  178 1117.74 214.360 115.125
  179 948.840 180.473 47.1397
  180 1150.10 133.597 -73.1313
  181 670.575 -9.45505 2.51499
  182 669.851 -9.28733 -2.57951
  183 421.078 -12.6614 -43.0571
  184 421.124 -12.8250 43.1924
  185 342.073 -12.1635 -67.3739
  186 344.342 -12.2462 68.5005
  187 203.214 148.078 -189.716
  188 651.978 -3.48448 47.0871
  189 681.839 -50.3450 24.6457
  190 458.409 -5.37251 -15.8977
  191 457.686 -5.68736 16.0192
  192 104.292 105.473 113.311
  193 640.704 1.19642 -45.7235
  194 670.714 -35.2846 31.5442
  195 617.718 10.4794 40.7368
  196 684.691 -41.1896 -130.695
  197 687.253 -11.4855 -17.6970
  198 626.874 -55.1979 12.0088
  199 753.848 149.863 -19.5562
  200 700.063 -21.5549 54.1135
  201 476.578 -44.1615 -112.459
  202 355.361 -2.18717 -147.696
  203 347.635 0.0821904 147.854
  204 681.528 57.7147 50.9076
  205 494.481 0.898699 193.000
  206 662.522 74.7921 9.92290
  207 831.125 97.1789 -24.3766
  208 688.807 -11.2718 15.6360
  209 476.759 -43.5027 113.071
  210 600.281 -26.0274 5.72185
  211 1104.11 279.963 -144.791
  212 831.381 110.628 28.2623
  213 496.203 -34.6177 -50.0562
  214 493.856 -32.4088 49.3636
  215 80.6982 25.3615 -48.8242
  216 91.3451 25.7962 55.5195
  217 557.217 -56.1540 57.7892
  218 589.126 -21.2669 -7.08094
  219 593.735 -12.2892 -1.89199
  220 599.556 -12.3140 1.72334
  221 558.472 -54.3657 -58.0762
  222 585.948 -39.1295 -17.3822
  223 684.070 -59.5553 97.9565
  224 834.878 180.814 -8.28443
  225 961.660 189.115 -19.4883
  226 770.673 22.8011 39.6389
  227 645.698 -21.9815 7.22903
  228 479.595 4.98656 -196.205
  229 535.148 -32.4417 30.5008
  230 639.954 -25.0816 -5.23192
  231 767.072 -33.3596 20.8832
  232 668.146 53.3492 -49.4162
  233 733.977 -38.3837 -19.5330
  234 585.979 23.3965 9.89775
  235 504.004 -16.2791 -22.7172
  236 727.409 1.78063 -55.6158
  237 423.830 -5.81261 -22.1484
  238 423.452 -5.70211 21.5354
  239 456.584 -0.523460 -3.06158
  240 456.600 -0.492132 3.02487
  241 671.019 7.58246 -62.5353
  242 500.293 -16.1307 23.8594
  243 531.324 -31.6332 -32.2089
  244 244.053 181.918 244.626
  245 43.0108 54.7647 -39.5249
  246 1208.59 91.8277 26.4203
  247 585.143 11.0719 -22.0063
  248 647.551 -43.9069 -9.01712
  249 650.815 154.743 -323.355
  250 677.639 -55.5389 -16.5564
  251 358.360 -10.8284 -44.4654
  252 358.792 -11.1868 44.8115
  253 674.077 -28.1268 -41.4103
  254 696.253 -9.91794 -60.0100
  255 515.528 -7.36846 -4.90382
  256 515.525 -7.41389 4.77967
  257 706.300 -5.01195 -3.13007
  258 706.871 -4.23643 3.11549
  259 661.663 -5.98617 -33.8523
  260 908.265 115.496 205.203
  261 615.865 -58.9205 -21.3337
  262 528.385 -14.3134 -12.7527
  263 526.091 -14.5653 13.2578
  264 0.851712 -0.0823989 -12.8218
  265 -1.59972 2.06037 13.5184
  266 198.030 -5.26797 -69.6648
  267 196.893 -4.50825 69.2346
  268 447.461 -2.63389 7.01800
  269 447.407 -2.66261 -7.10292
  270 661.637 -7.43391 32.0512
  271 764.475 157.015 13.5261
  272 690.754 -64.5731 3.19541
  273 712.584 84.2959 -53.9770
  274 685.649 -36.1546 -43.6507
  275 742.576 -43.2339 -3.18914
  276 276.722 -5.94158 64.2328
  277 274.816 -6.32002 -63.2726
  278 687.393 -65.5444 -17.8240
  279 600.274 -68.1542 93.2639
  280 636.774 -10.5698 0.0882085
  281 637.392 -10.1705 -0.0523672
  282 704.564 -3.85020 -1.53198
  283 704.664 -4.28607 1.63735
  284 330.549 90.7598 219.331
  285 738.870 59.4258 -60.4073
  286 660.821 -56.2017 6.84051
  287 838.552 172.814 14.1861
  288 615.054 6.49919 -37.5429
  289 591.174 -17.5974 4.60939
  290 808.021 129.538 -36.4689
  291 654.592 -10.0245 181.011
  292 712.438 125.479 0.303786
  293 599.607 -64.8152 -97.2182
  294 638.345 -72.7212 45.4407
  295 610.506 -59.9002 27.3863
  296 936.082 190.029 19.2222
  297 580.541 -38.8877 21.2271
  298 702.833 -5.62712 -8.49490
  299 665.578 -34.1940 -25.5748
  300 1102.83 313.053 145.322
  301 730.706 0.554093 53.2535
  302 692.579 -5.28027 -15.2276
  303 727.289 98.1273 48.2120
  304 770.416 0.997536 -145.070
  305 698.482 20.4550 64.7928
  306 25.4765 30.1616 16.8982
  307 424.645 -31.2549 91.4630
  308 660.814 -12.4617 4.08770
  309 658.762 -13.7940 -4.53574
  310 661.812 69.2912 -28.9991
  311 409.436 -26.9618 -88.3198
  312 433.733 -34.7615 -126.220
  313 674.729 -16.1179 12.7106
  314 639.681 -36.9557 6.52866
  315 668.706 -3.32949 59.5809
  316 947.757 203.500 -234.285
  317 672.864 -23.7854 39.1948
  318 668.628 -18.1559 -12.8491
  319 702.233 -5.02085 8.48799
  320 431.268 -4.07780 15.0024
  321 431.590 -4.53111 -15.2144
  322 122.182 73.5453 -98.5943
  323 578.546 18.1829 -8.21325
  324 674.777 -20.9366 25.2493
  325 907.033 166.932 -13.1883
  326 680.090 84.9604 34.2200
  327 365.881 70.0019 -219.280
  328 424.264 -26.5519 127.013
  329 637.742 38.3494 -38.0655
  330 690.566 -6.23728 16.5403
  331 670.575 -18.1325 -47.0052
  332 18.7101 13.5897 -4.98137
  333 132.788 63.4560 91.2849
  334 507.727 -53.2751 91.1653
  335 -1.52850 13.1417 1.65252
  336 -0.187267 14.2960 -1.13315
  337 696.245 303.873 350.999
  338 668.401 -15.8952 47.4450
  339 1330.33 143.155 -166.463
  340 658.327 38.8832 52.4005
  341 777.310 80.8792 45.8793
  342 565.890 -17.9690 9.84545
  343 588.059 11.0244 23.5737
  344 518.114 -56.7836 -86.6213
  345 644.007 -31.3440 -8.39083
  346 589.504 -32.1173 11.8463
  347 674.552 -19.6088 -26.2020
  348 649.553 -71.8869 -59.8004
  349 754.251 -40.9353 -38.3718
  350 627.820 47.9816 10.5986
  351 687.565 -59.1403 12.8508
  352 860.099 66.6207 21.7631
  353 397.855 -19.1002 66.0533
  354 621.282 -23.9407 0.218046
  355 601.998 -66.1086 -51.2727
  356 981.513 240.676 59.8895
  357 737.439 122.397 -38.8512
  358 487.197 -9.59397 16.9906
  359 488.044 -10.3978 -17.2912
  360 395.220 -18.4734 -67.0294
  361 239.058 228.391 -251.696
  362 573.025 -10.8153 -3.32836
  363 574.625 -11.3967 2.92388
  364 379.323 -3.63025 -23.0278
  365 379.243 -3.70139 23.2681
  366 1245.07 48.2060 -24.4868
  367 1260.97 86.6926 78.2135
  368 608.215 -48.5576 -15.7769
  369 795.196 31.9169 189.159
  370 303.895 -2.12182 118.408
  371 304.198 -4.09898 -118.871
  372 602.742 -38.6081 147.709
  373 620.959 5.20893 38.5275
  374 647.486 7.51688 53.8544
  375 590.614 -67.9510 59.3989
  376 181.812 35.8999 -104.555
  377 180.087 28.9213 100.605
  378 90.2462 5.84831 -44.2950
  379 90.6563 4.93053 44.7079
  380 640.466 -57.9102 -112.241
  381 488.627 -3.74337 -4.31119
  382 488.635 -3.68878 4.29494
  383 945.504 179.102 -1.76527
  384 587.384 -31.1760 -11.9797
  385 611.193 -14.7838 -184.508
  386 654.754 -60.3080 2.03861
  387 892.888 165.792 5.91053
  388 786.796 69.0934 -45.3333
  389 677.308 -38.3184 37.9253
  390 457.251 -10.5884 -25.8396
  391 456.019 -9.47249 24.5436
  392 590.785 -15.1954 -4.08726
  393 556.136 -18.3198 -12.2172
  394 439.230 -25.1439 60.5910
  395 438.643 -25.1017 -61.6564
  396 57.1130 90.6055 -73.9523
  397 676.066 31.6512 -60.6599
  398 525.265 -35.4514 40.1337
  399 812.509 65.9179 -202.623
  400 656.562 -43.5175 15.1642
  401 92.1697 121.664 120.357
  402 663.625 -5.87170 -56.5459
  403 437.141 -2.39160 8.95430
  404 436.995 -2.27452 -8.99119
  405 678.801 -6.51765 1.06932
  406 678.583 -6.20515 -0.889415
  407 702.182 -43.8199 32.4341
  408 341.589 -19.0840 -90.0601
  409 705.310 -4.01047 -9.53239
  410 346.477 -19.7261 90.7606
  411 807.209 18.7434 -3.93190
  412 688.677 -33.4335 46.2347
  413 611.494 -40.0000 -7.13584
  414 1061.26 231.474 -95.7651
  415 671.821 -25.8157 31.3765
  416 1059.03 194.212 65.8587
  417 807.582 169.503 14.8575
  418 324.229 -6.47164 -40.3594
  419 324.436 -6.20720 41.0353
  420 135.373 -1.35285 -50.2312
  421 133.703 -1.27924 49.2682
  422 675.751 -6.01576 -23.6197
  423 1321.41 186.864 169.198
  424 361.440 23.4143 174.554
  425 457.075 -20.3960 -42.1065
  426 456.498 -20.3614 42.4734
  427 496.607 -41.2833 62.8810
  428 403.632 124.069 -283.586
  429 801.780 172.806 -8.49841
  430 498.696 -40.7366 -63.7472
  431 717.322 -3.16718 -3.39052
  432 751.415 135.286 33.5296
  433 780.249 154.349 -25.3499
  434 532.616 -37.6941 -40.5542
  435 978.988 233.662 -59.2170
  436 541.120 -57.4909 116.519
  437 836.140 17.1812 -52.6110
  438 569.685 -39.3040 -159.700
  439 643.308 9.23883 -52.9419
  440 597.073 -59.5038 -37.0227
  441 1149.44 107.773 -20.6743
  442 1135.32 135.178 69.1085
  443 667.976 -47.4357 21.6352
  444 5.12004 11.0321 -12.4175
  445 6.79230 11.8073 12.3813
  446 866.981 175.445 6.70650
  447 648.532 -2.71153 29.8220
  448 588.223 -50.0391 26.7836
  449 465.710 -18.5422 166.526
  450 3.41218 -12.2621 -10.3311
  451 514.448 -47.4733 -122.955
  452 651.838 -51.5432 -7.59552
  453 645.251 -12.3281 2.41259
  454 645.110 -11.7848 -1.64975
  455 282.074 25.3220 -146.607
  456 675.530 -4.97049 22.3465
  457 100.490 45.2125 -64.2015
  458 33.5634 40.7386 38.2242
  459 272.541 -1.87382 -36.9061
  460 271.736 -1.47944 37.0094
  461 1399.74 332.934 -260.262
  462 643.835 -1.81202 -30.9849
  463 656.545 -18.8190 -8.09115
  464 639.161 -27.9713 5.63687
  465 624.949 25.6910 39.8343
  466 688.606 -2.37929 62.7420
  467 612.340 -11.2431 -0.489718
  468 614.569 -11.0770 0.131988
  469 245.636 16.5442 117.728
  470 521.707 -16.6196 18.0364
  471 801.233 42.8465 26.0317
  472 751.295 -43.3041 66.5506
  473 877.974 186.270 0.931201
  474 718.609 -2.42237 3.39398
  475 621.370 -31.6125 0.943851
  476 544.611 -9.00695 -3.30277
  477 544.322 -8.71640 3.10229
  478 199.586 91.1276 152.588
  479 623.635 -23.1891 -0.179952
  480 92.0913 47.7628 58.2364
  481 199.043 93.4863 -150.729
  482 682.676 96.9029 -9.36014
  483 559.659 -31.0672 -21.4154
  484 515.500 -10.0554 -9.85621
  485 515.860 -9.75945 10.0065
  486 708.937 -61.4527 -14.9105
  487 706.471 -4.71986 9.51456
  488 897.723 73.2848 96.2384
  489 701.714 84.3494 47.7783
  490 566.731 -42.8424 -28.9448
  491 693.705 109.203 13.3702
  492 10.2250 -16.5420 -6.20896
  493 200.161 233.134 242.632
  494 707.554 58.2357 59.2077
  495 524.871 -16.6808 -16.7832
  496 617.765 1.22570 -26.4909
  497 486.710 40.2308 224.961
  498 630.776 -47.6710 2.19594
  499 722.505 -59.7848 50.0835
  500 680.744 -13.4849 -13.6136
  501 1057.09 161.191 -26.2162
  502 197.817 -0.326588 -43.9589
  503 198.084 0.00542691 44.6735
  504 683.872 -7.44657 -4.85518
  505 681.603 -8.05820 4.97288
  506 402.153 -27.2339 110.636
  507 498.481 -20.4785 -29.6239
  508 467.100 -14.1313 -166.634
  509 414.254 -32.3915 -106.471
  510 394.166 -2.86733 -15.9007
  511 394.004 -2.96702 15.7885
  512 666.828 -62.6604 0.512728
  513 506.275 -23.9515 32.4835
  514 708.394 8.01610 -62.9446
  515 529.679 -24.8450 24.8443
  516 556.247 -57.8563 71.8786
  517 844.771 69.0243 -5.27485
  518 349.309 -1.09332 -22.8395
  519 349.382 -1.18450 23.1416
  520 851.032 179.210 -10.5642
  521 745.697 -6.56723 -40.8784
  522 745.646 -12.2765 34.9982
  523 677.133 -37.3928 -37.7988
  524 535.583 -44.9762 50.0005
  525 1284.93 74.6879 -83.4785
  526 735.862 -50.2193 11.2789
  527 577.662 6.30831 -21.3277
  528 574.653 -23.3192 10.5810
  529 689.199 80.0058 -44.5653
  530 1089.42 338.096 231.077
  531 663.044 -16.0050 8.51224
  532 616.295 -13.8305 -1.27416
  533 621.919 -12.5273 0.445277
  534 693.330 -54.9498 -17.6170
  535 557.028 -32.0842 22.4294
  536 440.171 0.244230 -4.07254
  537 440.216 0.255571 4.02140
  538 558.731 -59.8447 -70.0398
  539 719.150 123.010 -21.6309
  540 669.956 -20.6188 -17.8012
  541 585.272 5.30605 24.9784
  542 671.614 -26.4703 -32.7769
  543 444.304 0.197929 -0.944773
  544 444.310 0.212787 0.926962
  545 767.084 -30.5355 -75.1343
  546 541.683 -47.9229 -50.8957
  547 766.992 -11.5831 -18.7788
  548 705.692 -43.8946 119.023
  549 686.157 -11.5754 12.1760
  550 720.456 -2.78717 1.70698
  551 720.342 -2.58079 -1.44671
  552 650.929 -71.2971 -39.5370
  553 667.598 -68.7482 77.0307
  554 406.919 -1.92090 -10.4644
  555 406.722 -1.91062 10.3882
  556 609.100 -60.7975 112.957
  557 692.708 55.9340 -57.6931
  558 533.394 -56.0178 -100.592
  559 684.082 38.9104 62.5684
  560 649.717 -72.4459 62.2682
  561 548.476 6.74658 9.10710
  562 583.618 -14.8127 4.42651
  563 710.673 -17.8132 -52.6723
  564 885.505 187.369 -3.20158
  565 723.907 -27.4831 -39.7730
  566 558.227 -40.0927 31.1663
  567 464.940 -4.87043 11.9518
  568 465.008 -4.94074 -12.1081
  569 644.383 -18.2194 2.93353
  570 528.881 -23.8862 -24.2663
  571 669.276 -11.8337 37.5781
  572 711.635 -50.2377 -18.6946
  573 608.304 -18.2610 -2.63074
  574 1068.26 332.557 -164.584
  575 616.999 15.1792 -37.9443
  576 910.087 195.585 -14.7882
  577 553.921 5.66516 -14.3215
  578 657.494 -23.5843 11.0148
  579 199.445 128.318 192.329
  580 653.154 61.9868 27.5638
  581 363.041 26.7046 -177.105
  582 709.964 -60.2336 6.19837
  583 661.268 -7.67617 -46.1029
  584 738.842 90.9025 -54.4709
  585 -5.33768 -6.33579 -11.7256
  586 -6.76939 -5.50631 11.7592
  587 470.054 -3.20431 -7.04967
  588 470.059 -3.15456 6.99506
  589 690.714 -45.4205 -33.2396
  590 696.783 -30.0404 -48.4258
  591 72.5656 67.3275 64.1960
  592 661.282 57.4466 41.7407
  593 597.867 -27.7871 -6.41038
  594 591.966 -10.6085 0.614456
  595 590.585 -10.5063 -1.09034
  596 613.134 28.7269 26.4579
  597 1274.53 29.8398 18.0173
  598 499.410 -27.8698 -39.9071
  599 543.446 8.14490 2.11473
  600 688.994 11.4288 -65.0214
  601 541.190 -61.8881 102.511
  602 23.9113 7.20750 25.4349
  603 21.8787 5.97651 -24.0412
  604 723.587 32.5193 -62.8522
  605 648.394 67.8582 -7.44133
  606 678.318 -47.6461 -29.3428
  607 417.045 -8.24179 -31.3484
  608 416.343 -8.87314 31.3413
  609 692.642 -4.87236 2.62168
  610 692.400 -4.87466 -2.79669
  611 681.992 -6.73857 -61.8733
  612 663.447 -31.4721 21.8854
  613 491.458 -26.6553 41.6757
  614 46.3620 32.1723 -27.1922
  615 648.628 411.680 -396.254
  616 682.311 -12.7545 23.0600
  617 680.474 -11.9873 -24.9855
  618 535.789 26.7056 -223.664
  619 642.094 -19.1682 -4.08460
  620 579.969 -54.0399 39.7020
  621 750.807 151.636 -0.567198
  622 270.293 -10.7117 -82.5448
  623 272.511 -10.6668 83.2235
  624 812.926 136.978 31.3770
  625 660.009 -42.9154 -19.2017
  626 602.542 33.7309 0.00736567
  627 641.397 -61.3667 -12.6622
  628 379.702 -9.56812 38.5571
  629 379.490 -9.50027 -38.0950
  630 481.482 -11.5060 -22.3774
  631 464.463 -1.11966 -2.98139
  632 464.474 -1.08248 2.96241
  633 655.341 -24.7690 -10.9416
  634 723.499 -1.58531 -0.893584
  635 723.319 -1.75006 1.18097
  636 853.955 162.632 -16.7773
  637 409.029 127.353 265.982
  638 778.455 -9.24436 11.7980
  639 353.639 56.3111 195.947
  640 162.704 44.4608 98.6382
  641 795.557 36.6483 -31.9228
  642 673.888 -63.7603 1.12302
  643 495.374 -6.17798 -7.86171
  644 495.510 -6.08544 7.88343
  645 652.388 -7.78718 -0.298947
  646 652.868 -7.94810 0.418296
  647 519.379 -52.2848 -74.6252
  648 247.907 11.4781 -118.976
  649 415.418 -1.92926 6.70123
  650 415.305 -2.03586 -6.60235
  651 1446.16 403.553 298.067
  652 764.304 87.1949 -53.6433
  653 685.848 -22.1947 -54.7493
  654 677.988 -25.0004 -49.4874
  655 717.012 59.0337 -62.1197
  656 446.465 -10.8498 -32.1311
  657 444.961 -11.5538 31.4123
  658 636.944 -55.4449 -5.62784
  659 5.54507 -16.7153 11.9330
  660 712.144 -1.34545 59.9372
  661 50.4031 30.3495 28.1680
  662 643.420 18.4864 51.3287
  663 111.362 104.812 -105.591
  664 607.644 26.0050 -27.1902
  665 698.361 -5.70330 6.31008
  666 591.705 -52.2516 -28.4964
  667 668.945 -12.5066 -39.4512
  668 223.439 -1.31120 32.0595
  669 224.229 -1.10975 -32.1771
  670 807.335 159.004 -25.7499
  671 376.537 -19.7221 -135.340
  672 654.553 -36.0557 -15.1992
  673 578.044 -23.9597 -11.4013
  674 697.362 -6.76542 -5.96199
  675 753.542 107.336 47.5082
  676 136.444 25.5096 -74.4726
  677 133.074 16.8649 73.9022
  678 682.975 -16.9227 57.6479
  679 604.541 -45.1892 14.0866
  680 670.441 -35.8924 -31.3692
  681 975.247 245.802 -65.7475
  682 793.294 169.409 5.30573
  683 584.789 -20.3948 7.02074
  684 749.843 28.6394 55.1698
  685 677.095 -71.2127 29.5220
  686 475.912 -10.9769 22.3236
  687 612.275 -65.7583 39.6861
  688 702.962 -3.83516 0.372556
  689 702.899 -4.07965 -0.311683
  690 982.576 216.864 56.9041
  691 400.958 -15.2841 52.4953
  692 59.7480 59.7167 -46.7305
  693 -15.6182 0.685867 13.3101
  694 -13.5898 1.14571 -13.8037
  695 353.084 -13.1352 57.3686
  696 174.827 65.0937 -113.935
  697 14.7283 5.19820 -22.2815
  698 652.403 -52.3927 7.37498
  699 456.537 -28.2295 -147.394
  700 516.519 -51.9816 73.4846
  701 634.291 -39.7949 -2.87126
  702 9.50925 -16.4355 -2.52089
  703 751.342 36.2352 -55.2813
  704 675.106 -66.5236 -9.45922
  705 667.104 -54.8662 -15.1795
  706 658.093 19.9677 -57.8687
  707 400.235 -15.3681 -52.5544
  708 68.9716 123.555 -112.082
  709 656.280 36.3360 -53.9546
  710 -0.641864 -16.9624 -13.2242
  711 621.419 0.483617 25.0765
  712 351.990 -12.5491 -56.7410
  713 438.174 -25.3697 146.681
  714 606.303 -20.4774 3.32196
  715 509.386 -10.7858 -12.8904
  716 369.238 -15.5168 133.419
  717 222.831 1.43629 -92.5896
  718 219.608 0.913796 90.8584
  719 507.888 -10.2632 13.2588
  720 135.500 2.36414 -37.7360
  721 136.116 2.59093 37.5365
  722 547.027 -19.7949 14.8095
  723 657.010 -1.10226 -20.8736
  724 745.266 88.6484 279.172
  725 535.645 -9.78241 -7.31486
  726 535.373 -10.0415 7.11859
  727 672.447 -19.8927 -40.8403
  728 520.966 -6.50755 -3.63868
  729 520.847 -6.28229 3.54092
  730 660.650 -7.38395 41.1098
  731 668.492 -70.6824 19.2646
  732 546.007 -13.8692 9.50260
  733 62.0061 -1.48387 -25.8724
  734 62.3314 -2.15665 25.5189
  735 545.157 -12.3999 -9.00061
  736 14.6576 15.9863 -1.82238
  737 713.249 -52.9682 -84.4591
  738 802.864 -9.24391 36.0737
  739 257.402 36.0583 138.273
  740 430.919 0.106841 4.52735
  741 430.817 0.147758 -4.58053
  742 631.882 -64.2446 21.1096
  743 1185.50 169.747 -136.307
  744 590.555 1.46065 -20.5671
  745 576.397 -13.6161 -4.64358
  746 503.010 187.206 320.686
  747 722.942 28.2079 62.5712
  748 658.650 -1.43800 20.1361
  749 726.441 -1.83779 -1.95732
  750 727.067 -2.18759 1.97068
  751 1007.82 193.913 -46.9514
  752 729.354 131.074 16.1815
  753 569.429 -16.5754 -7.42210
  754 713.463 -3.42445 6.78926
  755 464.053 -26.0301 -53.0969
  756 657.426 -8.48974 2.03066
  757 657.154 -8.46533 -1.66464
  758 489.011 -40.8331 132.100
  759 676.644 -72.5540 -37.6464
  760 674.798 -27.8015 43.3764
  761 463.416 -25.6221 52.6626
  762 709.154 101.834 -39.4568
  763 594.134 4.44695 21.6484
  764 471.350 -43.5056 -99.3981
  765 572.538 -16.1762 7.05634
  766 671.023 -12.7754 55.3963
  767 437.028 0.663927 -1.57015
  768 437.049 0.673302 1.54078
  769 14.9787 20.1348 -0.0730963
  770 482.761 -15.5358 27.9834
  771 605.999 -15.4901 2.44852
  772 666.617 -29.0236 -23.0193
  773 320.204 -1.25344 23.5051
  774 320.371 -1.29510 -23.1519
  775 720.755 -22.2963 45.2935
  776 669.883 -15.1625 -52.8123
  777 264.050 -10.9021 -95.7956
  778 264.937 -9.67122 95.2091
  779 698.908 -58.0268 6.36027
  780 667.727 -22.1671 17.9165
  781 998.132 198.172 108.933
</Section>

newXOutput 39

<Section columns = "stress_xx | stress_yy | stress_xy">
  1 753.647 0.0358694 0.837405
  2 753.885 -0.0515199 -0.806427
  3 448.556 -0.00966418 -0.592788
  4 -5.43604 -6.16533 -7.30311
  5 1298.97 569.078 439.344
  6 1241.29 517.679 -371.794
  7 -7.16814 -6.15474 8.36280
  8 448.562 -0.0176660 0.583390
  9 755.966 -1.09634 -0.296997
  10 756.599 -2.84719 1.46757
  11 754.785 -2.31020 0.768507
  12 744.321 -2.73132 3.60100
  13 739.628 -2.75308 4.38816
  14 727.642 -3.82509 7.54626
  15 707.143 -2.85123 12.1390
  16 682.561 -1.37950 14.3817
  17 653.387 0.731229 17.0588
  18 610.359 2.54080 14.3022
  19 582.677 5.85240 17.0169
  20 561.148 4.95680 12.8270
  21 534.266 6.05485 3.65732
  22 541.532 9.18204 -4.93288
  23 551.364 4.67974 -9.03774
  24 581.130 4.22472 -14.8207
  25 608.519 1.74741 -16.0458
  26 653.002 0.875794 -17.8199
  27 681.862 -2.12958 -15.4945
  28 709.293 -3.10831 -12.2517
  29 727.516 -2.74086 -8.49292
  30 736.457 -2.84033 -6.94468
  31 745.502 -3.78560 -2.36031
  32 754.800 -2.06717 -0.0907073
  33 756.728 -2.52320 -1.26227
  34 756.254 -1.31452 0.395978
  35 733.060 -2.15949 -1.25954
  36 705.871 -4.74795 -1.32697
  37 680.339 -8.19662 -1.75684
  38 649.967 -9.97447 -1.87813
  39 619.034 -10.8414 -1.42036
  40 583.757 -9.83969 -0.217590
  41 549.538 -7.79830 -0.0878514
  42 518.752 -5.82832 0.636671
  43 491.602 -2.55228 1.07260
  44 465.997 -0.724278 0.0399973
  45 440.850 1.20435 0.181799
  46 438.958 1.04687 2.00690
  47 435.101 0.292138 1.54780
  48 427.732 -0.633383 3.89510
  49 412.936 0.106275 5.16152
  50 399.257 -0.996738 7.55481
  51 382.454 -0.738616 10.8477
  52 354.285 0.0963662 11.7491
  53 321.765 0.347328 13.6105
  54 289.708 -0.320511 21.2625
  55 229.664 1.42204 19.9255
  56 187.238 1.57254 23.2891
  57 128.178 2.12522 21.4525
  58 73.2634 0.701123 24.0038
  59 17.3965 6.34524 24.5708
  60 -21.6139 7.58041 13.1943
  61 -37.1978 7.48070 0.738528
  62 -33.0431 5.90993 -11.7861
  63 -19.8444 -1.53778 -10.7018
  64 -1.87953 -20.0824 -10.0633
  65 1.56631 -37.7580 -13.0135
  66 5.51269 -57.7792 -6.21951
  67 17.6703 -53.7102 4.60042
  68 30.9229 12.2538 40.8979
  69 87.7465 156.903 130.458
  70 354.620 441.822 371.586
  71 1682.79 188.380 258.829
  72 1394.31 58.7109 88.2057
  73 1334.57 33.5060 34.9337
  74 1316.86 21.7402 -2.09623
  75 1330.91 28.3192 -31.7438
  76 1413.55 53.2250 -85.7086
  77 1613.79 155.649 -224.545
  78 284.926 499.553 -355.460
  79 72.7722 102.786 -103.929
  80 28.5608 13.7395 -42.6708
  81 8.73102 -52.3227 -8.29758
  82 5.66414 -44.0809 3.73211
  83 6.21560 -47.7406 10.5950
  84 0.647446 -18.1107 12.8234
  85 -21.3398 -1.24096 10.5603
  86 -34.7760 5.70833 11.4997
  87 -38.0767 7.42192 -1.01716
  88 -22.2390 7.10408 -13.0211
  89 16.2769 7.05703 -24.1984
  90 72.4547 0.911959 -24.3244
  91 127.863 1.98300 -21.7982
  92 187.854 1.54527 -23.4450
  93 230.503 1.37704 -20.0666
  94 290.550 -0.504204 -21.0500
  95 322.153 0.346476 -13.3604
  96 354.257 0.224561 -11.6216
  97 382.518 -0.707968 -10.9021
  98 399.195 -1.00446 -7.53621
  99 412.897 0.101785 -5.16855
  100 427.592 -0.612197 -3.87608
  101 434.985 0.298989 -1.58089
  102 438.909 1.04106 -2.03813
  103 440.841 1.19596 -0.199457
  104 465.989 -0.752034 -0.0519532
  105 491.588 -2.60546 -1.08852
  106 518.730 -5.90668 -0.621702
  107 549.900 -7.99498 0.171313
  108 584.076 -9.91349 0.106327
  109 617.950 -10.8637 1.32265
  110 649.524 -9.56570 1.66279
  111 680.459 -8.46974 1.77029
  112 705.846 -4.97599 1.31917
  113 732.879 -2.39599 1.35621
  114 657.846 -69.5248 -26.6812
  115 664.909 -69.2716 21.3784
  116 709.364 100.574 -31.1904
  117 562.156 -47.6612 -142.288
  118 546.246 -44.3117 144.996
  119 758.397 71.7877 58.7614
  120 789.956 21.8358 -42.7404
  121 570.558 -24.3865 -17.8425
  122 567.823 -25.7817 18.3555
  123 867.291 188.816 1.47046
  124 669.448 -31.0285 13.2073
  125 674.430 -29.4117 -15.7619
  126 693.062 -15.5163 -57.9346
  127 480.037 -39.0897 78.3330
  128 479.139 -39.4934 -82.0992
  129 695.535 -24.5293 51.3613
  130 932.549 210.085 17.0089
  131 257.350 58.7867 -155.734
  132 248.956 59.9995 153.560
  133 824.177 2.80894 -18.0759
  134 963.948 219.651 -36.5416
  135 654.779 45.2311 34.8848
  136 641.406 -18.1673 0.0773060
  137 644.582 -16.9233 -0.502767
  138 816.427 -7.28190 101.053
  139 483.510 -19.3118 -36.1906
  140 483.714 -19.2313 34.7869
  141 627.252 44.5105 -243.143
  142 1090.81 150.452 21.4359
  143 659.530 23.6205 -52.2085
  144 502.004 -6.46583 -10.6586
  145 501.921 -6.43732 10.7161
  146 571.771 -46.4384 38.6488
  147 582.005 -48.6922 -38.5088
  148 348.730 -21.6951 -113.123
  149 347.445 -17.4794 114.684
  150 729.754 111.251 33.6340
  151 715.352 -69.0603 40.6771
  152 723.327 -40.5623 -37.1423
  153 742.507 -44.1679 20.3132
  154 685.538 -47.1066 -24.6902
  155 718.279 34.1586 -66.0408
  156 634.184 57.3850 264.867
  157 51.9660 42.1007 29.6391
  158 46.1379 35.2757 -23.3968
  159 639.906 41.0024 -14.0601
  160 687.262 15.5086 62.2811
  161 700.301 -10.1958 8.60996
  162 694.942 -11.7505 -8.63314
  163 651.283 -48.6262 -0.444842
  164 691.111 -16.5566 -33.3824
  165 789.796 130.681 -42.1519
  166 630.904 -40.8920 5.87340
  167 600.883 -68.3088 77.6191
  168 571.036 -13.2210 -5.79047
  169 571.657 -13.1819 5.95802
  170 693.689 -15.4065 30.9482
  171 604.984 -67.9105 -74.7804
  172 707.776 -66.5431 -58.5443
  173 804.212 142.620 36.5881
  174 633.051 -33.6734 -2.34780
  175 930.377 117.316 -83.6829
  176 179.019 11.0399 -89.7294
  177 174.261 10.2155 87.6093
  178 1144.11 219.475 117.979
  179 971.495 185.168 49.0677
  180 1177.01 136.749 -74.8683
  181 687.065 -9.72789 2.49240
  182 686.326 -9.55693 -2.55920
  183 432.268 -12.9562 -44.1880
  184 432.315 -13.1237 44.3266
  185 351.315 -12.4656 -69.1291
  186 353.635 -12.5508 70.2854
  187 208.488 152.057 -194.852
  188 668.435 -3.56757 47.9769
  189 698.708 -51.6085 24.8327
  190 470.582 -5.48588 -16.3419
  191 469.846 -5.80781 16.4647
  192 107.160 108.423 116.585
  193 656.968 1.23438 -46.6063
  194 687.364 -36.1773 31.9617
  195 633.575 10.7808 41.5533
  196 701.283 -42.1699 -134.300
  197 704.189 -11.8009 -17.9393
  198 642.503 -56.5614 12.6110
  199 772.727 153.535 -19.8684
  200 717.421 -22.1028 54.9886
  201 488.716 -45.2928 -115.459
  202 364.571 -2.30701 -151.629
  203 356.666 0.0219754 151.796
  204 698.712 59.1789 51.8716
  205 506.773 0.898944 198.070
  206 679.365 76.7058 10.1178
  207 851.367 99.6598 -24.3379
  208 705.763 -11.5825 15.8402
  209 488.904 -44.6179 116.079
  210 615.375 -26.6704 6.03622
  211 1130.17 286.745 -148.507
  212 851.671 113.437 28.3432
  213 509.008 -35.4537 -51.4283
  214 506.614 -33.1915 50.7133
  215 83.1383 26.0119 -50.2807
  216 94.0496 26.4545 57.1548
  217 571.281 -57.5391 59.4403
  218 603.993 -21.7895 -7.39183
  219 608.702 -12.6025 -2.00436
  220 614.641 -12.6308 1.83367
  221 572.558 -55.7055 -59.7348
  222 600.723 -40.0818 -18.0245
  223 700.732 -61.0148 100.761
  224 855.529 185.195 -8.22609
  225 984.991 193.617 -20.1288
  226 789.552 23.3949 40.0523
  227 661.738 -22.5476 7.20141
  228 491.537 5.08226 -201.351
  229 548.846 -33.2177 31.4017
  230 655.876 -25.7197 -5.14986
  231 785.668 -34.1316 21.9380
  232 685.047 54.7135 -50.3736
  233 751.955 -39.3339 -19.5028
  234 601.243 24.0397 10.1005
  235 517.095 -16.6586 -23.3690
  236 745.379 1.82283 -56.4843
  237 435.209 -5.93934 -22.7360
  238 434.823 -5.82666 22.1091
  239 468.823 -0.523035 -3.15294
  240 468.839 -0.490988 3.11550
  241 687.880 7.78368 -63.7198
  242 513.303 -16.5057 24.5386
  243 544.939 -32.3891 -33.1500
  244 250.294 186.772 251.111
  245 44.2675 56.4669 -40.8447
  246 1236.50 93.9771 27.0137
  247 600.383 11.4041 -22.4571
  248 663.652 -45.0028 -8.92300
  249 666.108 159.038 -331.463
  250 694.396 -56.9285 -16.5500
  251 368.097 -11.0863 -45.6175
  252 368.537 -11.4544 45.9717
  253 690.838 -28.8444 -42.0630
  254 713.566 -10.1742 -61.0440
  255 528.920 -7.53330 -5.06388
  256 528.917 -7.57981 4.93698
  257 723.467 -5.17211 -3.13776
  258 724.049 -4.37802 3.12467
  259 678.271 -6.14546 -34.4702
  260 929.327 119.035 210.782
  261 631.249 -60.3730 -22.1522
  262 542.012 -14.6484 -13.1516
  263 539.670 -14.9057 13.6681
  264 0.948098 -0.0204731 -13.0687
  265 -1.56326 2.16551 13.7825
  266 203.656 -5.42002 -71.5445
  267 202.489 -4.64069 71.1055
  268 459.477 -2.68281 7.21881
  269 459.421 -2.71205 -7.30558
  270 678.247 -7.62269 32.6336
  271 783.596 160.850 13.7197
  272 707.750 -66.1838 3.70727
  273 730.442 86.4016 -54.9599
  274 702.655 -37.0683 -44.2984
  275 760.685 -44.2904 -3.78351
  276 284.384 -6.09406 65.9190
  277 282.434 -6.48218 -64.9330
  278 704.289 -67.1798 -18.6851
  279 615.159 -69.8657 95.8721
  280 652.598 -10.8627 0.0358095
  281 653.227 -10.4549 -0.000818085
  282 721.667 -3.98281 -1.53566
  283 721.769 -4.42792 1.64266
  284 338.953 93.0624 225.121
  285 757.202 60.9094 -61.4206
  286 677.200 -57.6032 6.63527
  287 859.232 177.040 14.1448
  288 630.851 6.68294 -38.2914
  289 606.087 -18.0350 4.83940
  290 827.925 132.760 -36.8434
  291 670.427 -10.1801 185.825
  292 730.399 128.595 0.310461
  293 614.464 -66.4465 -99.9283
  294 654.146 -74.5315 46.9004
  295 625.759 -61.3784 28.3485
  296 958.867 194.588 19.9056
  297 595.197 -39.8333 21.9592
  298 720.011 -5.79130 -8.59320
  299 682.097 -35.0603 -25.8701
  300 1128.82 320.787 149.296
  301 748.739 0.564308 54.0598
  302 709.678 -5.42423 -15.4706
  303 745.476 100.567 49.0512
  304 788.793 1.20875 -149.093
  305 715.919 20.9685 65.9707
  306 26.2526 31.1493 17.5622
  307 435.698 -32.0440 93.8758
  308 677.130 -12.8057 4.06091
  309 675.041 -14.1685 -4.51025
  310 678.624 71.0623 -29.5659
  311 420.157 -27.6417 -90.6448
  312 444.861 -35.6758 -129.565
  313 691.370 -16.5473 12.8236
  314 655.612 -37.8797 6.40955
  315 685.495 -3.40995 60.6884
  316 969.461 209.261 -240.572
  317 689.610 -24.3910 39.8267
  318 685.146 -18.6334 -12.9563
  319 719.392 -5.17566 8.58570
  320 442.867 -4.16100 15.4047
  321 443.195 -4.62465 -15.6218
  322 125.578 75.4855 -101.447
  323 593.663 18.6878 -8.38285
  324 691.494 -21.4832 25.5985
  325 928.953 171.179 -14.1764
  326 697.290 87.1033 34.8767
  327 375.126 71.7651 -225.042
  328 435.170 -27.2643 130.374
  329 654.024 39.3564 -38.8218
  330 707.618 -6.40783 16.8010
  331 687.319 -18.5952 -47.8215
  332 19.2783 14.1336 -5.29921
  333 136.456 65.1288 93.9320
  334 520.633 -54.6126 93.6215
  335 -1.41248 13.5179 1.58194
  336 -0.0414767 14.7033 -1.04429
  337 712.031 312.247 359.709
  338 685.113 -16.3022 48.2810
  339 1360.54 146.456 -170.126
  340 675.002 39.8830 53.4236
  341 796.467 82.9119 46.4854
  342 580.281 -18.4028 10.2077
  343 603.354 11.3438 24.0541
  344 531.257 -58.2044 -88.9722
  345 660.026 -32.1328 -8.33944
  346 604.365 -32.9006 12.3366
  347 691.271 -20.1194 -26.5764
  348 665.555 -73.6819 -61.6309
  349 772.533 -41.9068 -39.8294
  350 643.925 49.2407 10.8124
  351 704.532 -60.6185 12.7333
  352 880.748 68.4557 22.9817
  353 408.408 -19.5676 67.7856
  354 636.813 -24.5430 0.0439729
  355 617.018 -67.7495 -52.8293
  356 1005.14 246.623 61.8690
  357 755.895 125.424 -39.5075
  358 499.974 -9.80746 17.4738
  359 500.839 -10.6300 -17.7819
  360 405.715 -18.9261 -68.7843
  361 244.836 234.847 -258.235
  362 587.575 -11.0845 -3.45393
  363 589.208 -11.6794 3.04196
  364 389.660 -3.71136 -23.6228
  365 389.577 -3.78377 23.8688
  366 1273.60 49.3353 -25.0249
  367 1289.84 88.7097 79.9236
  368 623.451 -49.7500 -16.4275
  369 813.982 33.0163 194.213
  370 311.974 -2.22252 121.580
  371 312.286 -4.25026 -122.049
  372 617.539 -39.5768 151.676
  373 636.865 5.35798 39.2905
  374 663.890 7.72249 54.9005
  375 605.376 -69.6393 61.1411
  376 186.805 36.7837 -107.469
  377 185.056 29.6250 103.410
  378 93.0303 5.98964 -45.5660
  379 93.4485 5.04846 45.9895
  380 656.155 -59.3534 -115.360
  381 501.492 -3.81739 -4.43321
  382 501.501 -3.76159 4.41665
  383 968.498 183.355 -1.82652
  384 602.204 -31.9351 -12.4637
  385 626.066 -15.1019 -189.382
  386 670.990 -61.8082 2.45646
  387 914.530 169.993 6.72262
  388 806.110 70.8436 -45.8714
  389 694.121 -39.2866 38.4570
  390 469.348 -10.8266 -26.5410
  391 468.095 -9.68209 25.2093
  392 605.690 -15.5767 -4.28850
  393 570.324 -18.7598 -12.6330
  394 450.753 -25.7502 62.1943
  395 450.149 -25.7088 -63.2861
  396 58.7201 93.3798 -76.1909
  397 693.079 32.4585 -61.8149
  398 538.725 -36.3054 41.2774
  399 831.579 67.9395 -208.032
  400 672.867 -44.6081 15.1999
  401 94.6340 125.332 123.787
  402 680.305 -6.01500 -57.6015
  403 448.913 -2.43748 9.19973
  404 448.763 -2.31776 -9.23748
  405 695.429 -6.72133 1.05997
  406 695.207 -6.40226 -0.876305
  407 719.509 -44.9213 32.7687
  408 350.709 -19.5790 -92.4332
  409 722.590 -4.12725 -9.66586
  410 355.708 -20.2373 93.1539
  411 826.759 19.3006 -3.41210
  412 705.759 -34.2791 46.9379
  413 626.816 -40.9857 -7.55819
  414 1086.54 237.052 -98.2711
  415 688.498 -26.4779 31.8314
  416 1084.28 198.829 67.5527
  417 827.641 173.629 14.9922
  418 333.150 -6.62468 -41.4002
  419 333.360 -6.35407 42.0927
  420 139.394 -1.40284 -51.6212
  421 137.679 -1.32630 50.6348
  422 692.588 -6.18257 -24.0273
  423 1351.52 191.183 172.961
  424 370.711 23.9435 179.187
  425 469.075 -20.8762 -43.2360
  426 468.489 -20.8412 43.6099
  427 509.375 -42.2923 64.5849
  428 413.565 127.351 -290.900
  429 821.737 176.997 -8.60183
  430 511.502 -41.7330 -65.4760
  431 734.716 -3.26439 -3.41504
  432 770.196 138.618 34.0710
  433 799.686 158.129 -25.6908
  434 546.222 -38.6051 -41.7224
  435 1002.41 239.585 -61.3720
  436 554.663 -58.9531 119.663
  437 856.141 17.7742 -54.5088
  438 583.735 -40.2979 -163.954
  439 659.640 9.49179 -53.9735
  440 612.027 -60.9715 -38.2084
  441 1176.33 110.293 -21.1551
  442 1161.98 138.346 70.7450
  443 684.540 -48.6259 21.7878
  444 5.52826 11.3167 -12.8579
  445 7.24157 12.1127 12.8214
  446 888.196 179.793 6.34793
  447 664.926 -2.77890 30.3829
  448 603.020 -51.2648 27.6864
  449 477.438 -19.0606 170.926
  450 3.53627 -12.4518 -10.4977
  451 527.397 -48.6945 -126.245
  452 668.028 -52.8277 -7.43709
  453 661.252 -12.6647 2.36611
  454 661.105 -12.1092 -1.59561
  455 289.513 25.9016 -150.561
  456 692.371 -5.10890 22.7353
  457 103.359 46.4004 -66.1217
  458 34.5156 42.1725 39.4782
  459 280.211 -1.91612 -37.8670
  460 279.386 -1.51154 37.9736
  461 1431.13 340.892 -266.120
  462 660.149 -1.85583 -31.5734
  463 672.802 -19.3142 -8.10060
  464 655.073 -28.6781 5.54098
  465 640.962 26.3773 40.6343
  466 705.789 -2.44108 63.8679
  467 627.679 -11.5418 -0.544024
  468 629.952 -11.3730 0.177588
  469 252.259 16.9165 120.932
  470 535.181 -17.0070 18.5780
  471 820.751 43.9755 26.0678
  472 769.442 -44.3110 68.6761
  473 899.576 190.745 1.05901
  474 736.023 -2.50445 3.42024
  475 636.905 -32.3977 1.18981
  476 558.591 -9.21961 -3.41607
  477 558.296 -8.92267 3.21065
  478 204.884 93.5060 156.793
  479 639.212 -23.7745 -0.00700563
  480 94.7448 49.0127 59.9956
  481 204.352 95.9036 -154.889
  482 699.964 99.3440 -9.53655
  483 573.885 -31.8149 -22.1133
  484 528.881 -10.2831 -10.1571
  485 529.248 -9.98068 10.3109
  486 726.304 -62.9823 -15.7396
  487 723.779 -4.84615 9.65258
  488 918.939 75.4987 99.2757
  489 719.354 86.4640 48.6639
  490 581.082 -43.8821 -29.8606
  491 711.236 111.934 13.6193
  492 10.5349 -16.6645 -6.55223
  493 205.102 239.834 249.008
  494 725.251 59.6922 60.2808
  495 538.408 -17.0709 -17.2967
  496 633.614 1.26230 -27.0116
  497 498.729 41.2861 230.831
  498 646.506 -48.8503 2.54303
  499 740.079 -61.2451 51.7731
  500 697.512 -13.8520 -13.7607
  501 1082.28 165.001 -26.8995
  502 203.554 -0.337452 -45.1267
  503 203.825 0.00260668 45.8603
  504 700.632 -7.66976 -4.87040
  505 698.323 -8.29821 4.98510
  506 412.623 -27.9448 113.560
  507 511.423 -20.9592 -30.4558
  508 478.850 -14.5410 -171.032
  509 425.002 -33.2270 -109.290
  510 404.903 -2.93009 -16.3127
  511 404.736 -3.03223 16.1982
  512 683.325 -64.2232 0.131584
  513 519.371 -24.5171 33.3981
  514 726.000 8.21304 -64.0369
  515 543.289 -25.4332 25.5830
  516 570.252 -59.2934 73.8863
  517 865.175 70.8868 -6.06734
  518 358.925 -1.11238 -23.4262
  519 358.998 -1.20584 23.7351
  520 871.969 183.592 -10.4005
  521 764.008 -6.72294 -41.3492
  522 763.934 -12.5753 35.3242
  523 693.940 -38.3379 -38.3329
  524 549.223 -46.0732 51.4185
  525 1314.23 76.4360 -85.3140
  526 753.807 -51.4509 12.0541
  527 592.759 6.49190 -21.7620
  528 589.216 -23.8850 10.9929
  529 706.575 82.0203 -45.4042
  530 1114.35 346.952 237.367
  531 679.426 -16.4334 8.54555
  532 631.716 -14.1916 -1.39667
  533 637.452 -12.8608 0.542061
  534 710.427 -56.3254 -17.6069
  535 571.197 -32.8573 23.1520
  536 452.076 0.258061 -4.18640
  537 452.122 0.269639 4.13418
  538 572.792 -61.3303 -72.0096
  539 737.246 126.063 -22.0206
  540 686.531 -21.1569 -17.9950
  541 600.512 5.45977 25.4867
  542 688.292 -27.1480 -33.2565
  543 456.322 0.211367 -0.974580
  544 456.328 0.226564 0.956415
  545 785.550 -31.1996 -77.4921
  546 555.447 -49.0945 -52.3457
  547 785.690 -11.8396 -18.6792
  548 722.765 -44.9158 122.371
  549 703.028 -11.8936 12.3061
  550 737.849 -2.87689 1.71491
  551 737.732 -2.66706 -1.44969
  552 667.007 -73.0753 -40.8713
  553 683.949 -70.4581 79.3041
  554 417.993 -1.96022 -10.7388
  555 417.792 -1.94997 10.6611
  556 624.119 -62.3264 116.065
  557 710.107 57.3467 -58.7715
  558 546.817 -57.4346 -103.315
  559 701.265 39.8932 63.7512
  560 665.722 -74.2535 64.1604
  561 563.008 6.94825 9.29505
  562 598.378 -15.1805 4.61935
  563 728.257 -18.2661 -53.4928
  564 907.255 191.874 -3.48317
  565 741.727 -28.1728 -40.2517
  566 572.400 -41.0616 32.1210
  567 477.287 -4.97007 12.2856
  568 477.357 -5.04182 -12.4453
  569 660.379 -18.6969 2.84883
  570 542.474 -24.4522 -24.9897
  571 685.997 -12.1433 38.2327
  572 729.127 -51.4934 -18.6796
  573 623.566 -18.7212 -2.82488
  574 1093.31 340.949 -169.241
  575 632.846 15.6035 -38.7068
  576 932.326 200.314 -15.4865
  577 568.558 5.83743 -14.6227
  578 673.793 -24.1917 11.0568
  579 204.678 131.717 197.549
  580 669.783 63.5838 28.1096
  581 372.351 27.3173 -181.801
  582 727.365 -61.7310 6.81459
  583 677.877 -7.87347 -46.9533
  584 757.246 93.1646 -55.3942
  585 -5.45978 -6.48522 -12.0142
  586 -6.92238 -5.62712 12.0402
  587 482.534 -3.26547 -7.25199
  588 482.538 -3.21454 7.19624
  589 707.794 -46.5632 -33.6155
  590 714.047 -30.8011 -49.1646
  591 74.6300 69.2198 66.1742
  592 678.058 58.9189 42.5540
  593 612.912 -28.4705 -6.74593
  594 606.898 -10.8826 0.663029
  595 605.488 -10.7782 -1.14897
  596 628.930 29.5023 26.9952
  597 1303.54 30.5435 18.4010
  598 512.328 -28.5331 -41.0120
  599 557.878 8.38192 2.16074
  600 706.214 11.7140 -66.2129
  601 554.785 -63.4528 105.291
  602 24.9213 7.38529 26.2027
  603 22.8387 6.12268 -24.7730
  604 741.549 33.3314 -63.9285
  605 664.934 69.6045 -7.58786
  606 695.124 -48.8431 -29.6527
  607 428.221 -8.42759 -32.1727
  608 427.503 -9.07407 32.1653
  609 709.543 -5.03374 2.62412
  610 709.297 -5.03565 -2.80298
  611 699.031 -6.91013 -62.9949
  612 679.910 -32.2704 22.1156
  613 504.207 -27.2896 42.8181
  614 47.8224 33.0312 -28.0962
  615 663.144 422.911 -405.763
  616 699.184 -13.0973 23.4028
  617 697.341 -12.3100 -25.3772
  618 548.908 27.3733 -229.463
  619 658.050 -19.6658 -4.01203
  620 594.559 -55.3664 40.9240
  621 769.632 155.350 -0.571831
  622 277.702 -11.0006 -84.7356
  623 279.970 -10.9550 85.4331
  624 832.946 140.387 31.6378
  625 676.397 -43.9936 -19.3293
  626 618.138 34.6386 0.00796673
  627 657.327 -62.8874 -13.3151
  628 389.971 -9.79305 39.5558
  629 389.756 -9.72359 -39.0829
  630 494.110 -11.7658 -23.0030
  631 476.864 -1.13178 -3.05754
  632 476.875 -1.09376 3.03818
  633 671.592 -25.4063 -10.9757
  634 740.930 -1.64922 -0.901616
  635 740.748 -1.81761 1.19417
  636 874.856 166.674 -16.6144
  637 419.165 130.625 272.850
  638 797.386 -9.43006 11.5187
  639 362.645 57.7047 201.136
  640 167.173 45.5862 101.434
  641 814.951 37.6073 -32.1002
  642 690.527 -65.3505 1.55597
  643 508.360 -6.30918 -8.09160
  644 508.499 -6.21446 8.11393
  645 668.513 -8.02116 -0.276414
  646 669.002 -8.18536 0.398342
  647 532.586 -53.5822 -76.6620
  648 254.587 11.7169 -122.209
  649 426.723 -1.96769 6.88175
  650 426.607 -2.07662 -6.78056
  651 1478.16 413.249 304.795
  652 783.211 89.3699 -54.4644
  653 702.913 -22.7592 -55.6719
  654 694.867 -25.6367 -50.3128
  655 734.899 60.5092 -63.2313
  656 458.290 -11.0954 -32.9905
  657 456.756 -11.8159 32.2535
  658 652.795 -56.8188 -6.09031
  659 5.73105 -17.0653 12.1669
  660 729.802 -1.38428 60.9447
  661 51.9705 31.1613 29.0987
  662 659.774 18.9797 52.3392
  663 114.426 107.655 -108.647
  664 623.329 26.7145 -27.7467
  665 715.414 -5.88196 6.36247
  666 606.569 -53.5343 -29.4486
  667 685.660 -12.8309 -40.1427
  668 229.895 -1.34459 32.9002
  669 230.706 -1.13805 -33.0202
  670 827.328 162.910 -25.9910
  671 386.312 -20.2747 -138.926
  672 670.811 -36.9635 -15.2689
  673 592.678 -24.5425 -11.8340
  674 714.395 -6.96897 -6.00396
  675 772.282 109.999 48.2624
  676 140.346 26.1404 -76.5818
  677 136.887 17.2710 76.0014
  678 699.997 -17.3548 58.6544
  679 619.705 -46.2975 14.6834
  680 687.084 -36.8010 -31.7769
  681 998.742 251.871 -67.8557
  682 813.070 173.522 5.36968
  683 599.568 -20.8965 7.32973
  684 768.322 29.3587 56.0038
  685 693.747 -72.9861 30.6537
  686 488.426 -11.2241 22.9425
  687 627.542 -67.3867 40.9598
  688 720.029 -3.96704 0.392318
  689 719.966 -4.21625 -0.330378
  690 1006.30 222.086 58.5927
  691 411.656 -15.6467 53.8646
  692 61.4863 61.3800 -48.2219
  693 -15.9726 0.719466 13.6151
  694 -13.8886 1.19588 -14.1229
  695 362.636 -13.4579 58.8590
  696 179.594 66.7615 -117.145
  697 15.1761 5.81824 -23.0932
  698 668.606 -53.6991 7.20957
  699 468.118 -28.9957 -151.288
  700 529.667 -53.2704 75.4891
  701 650.103 -40.7866 -2.66736
  702 9.78437 -16.5955 -2.43980
  703 769.870 37.1477 -56.1154
  704 691.759 -68.1831 -10.1003
  705 683.636 -56.2376 -15.1663
  706 674.734 20.4895 -58.9936
  707 410.918 -15.7334 -53.9247
  708 70.8172 127.461 -115.296
  709 672.913 37.2718 -55.0126
  710 -0.635094 -17.3561 -13.5282
  711 637.336 0.501597 25.5653
  712 361.519 -12.8553 -58.2155
  713 449.339 -26.0626 150.566
  714 621.523 -20.9911 3.54576
  715 522.629 -11.0296 -13.2787
  716 378.843 -15.9628 136.963
  717 228.984 1.43967 -95.0997
  718 225.680 0.905012 93.3297
  719 521.100 -10.4950 13.6554
  720 139.634 2.42014 -38.7626
  721 140.263 2.65293 38.5587
  722 561.027 -20.2656 15.2854
  723 673.558 -1.13678 -21.2590
  724 762.736 91.2891 286.286
  725 549.437 -10.0095 -7.54998
  726 549.160 -10.2747 7.34923
  727 689.191 -20.4032 -41.5182
  728 534.474 -6.65280 -3.74252
  729 534.353 -6.42238 3.64242
  730 677.241 -7.57721 41.8631
  731 684.978 -72.4432 20.1299
  732 559.999 -14.1981 9.82306
  733 64.1638 -1.52540 -26.6115
  734 64.4944 -2.21528 26.2491
  735 559.133 -12.6928 -9.30536
  736 15.1494 16.5060 -1.70066
  737 730.560 -54.2500 -86.9723
  738 822.200 -9.35736 37.5437
  739 264.233 36.9238 142.028
  740 442.610 0.117364 4.65373
  741 442.506 0.159262 -4.70801
  742 647.601 -65.8358 21.9563
  743 1213.10 173.755 -139.496
  744 605.902 1.50773 -20.9790
  745 591.012 -13.9527 -4.83233
  746 515.014 192.144 328.764
  747 740.882 28.9091 63.6378
  748 675.224 -1.48047 20.5051
  749 743.963 -1.89912 -1.96920
  750 744.599 -2.25523 1.98331
  751 1032.05 198.545 -48.2868
  752 747.691 134.317 16.4617
  753 583.898 -16.9773 -7.70311
  754 730.855 -3.52834 6.87531
  755 476.154 -26.6515 -54.5135
  756 673.654 -8.73988 2.01655
  757 673.376 -8.71567 -1.64364
  758 501.367 -41.8971 135.609
  759 693.270 -74.3636 -38.9841
  760 691.585 -28.5083 44.0731
  761 475.507 -26.2344 54.0675
  762 726.989 104.376 -40.1738
  763 609.548 4.56085 22.0840
  764 483.429 -44.6045 -102.040
  765 587.071 -16.5700 7.33222
  766 687.814 -13.1009 56.3980
  767 448.897 0.683578 -1.61749
  768 448.919 0.693165 1.58753
  769 15.4815 20.7572 -0.245862
  770 495.387 -15.8950 28.7555
  771 621.213 -15.8857 2.61552
  772 683.149 -29.7631 -23.2858
  773 329.109 -1.27480 24.1112
  774 329.280 -1.31726 -23.7497
  775 738.523 -22.8604 45.9131
  776 686.648 -15.5467 -53.7600
  777 271.237 -11.2102 -98.3616
  778 272.146 -9.94771 97.7636
  779 716.101 -59.4750 6.06217
  780 684.258 -22.7433 18.1062
  781 1021.53 203.549 112.441
</Section>

newXOutput 40

<Section columns = "stress_xx | stress_yy | stress_xy">
  1 787.865 0.544813 1.20198
  2 820.392 -0.229313 -1.71032
  3 51.9563 -0.670259 -2.16753
  4 -0.390190 -0.595254 -0.301111
  5 1.11078 -37.1783 5.87846
  6 112.337 50.9985 -76.4878
  7 -1.78318 -1.62397 1.79976
  8 95.4754 -0.249795 2.30889
  9 793.807 -1.86152 -1.74647
  10 799.493 -5.04709 0.341470
  11 801.959 -3.68477 -3.23273
  12 793.052 -3.56963 -2.05076
  13 800.397 -3.83440 -1.89008
  14 796.373 -6.38104 -1.76335
  15 786.021 -5.87333 5.40063
  16 783.252 -4.54349 11.8361
  17 760.024 -5.31812 15.9825
  18 718.753 -4.49116 22.3091
  19 665.440 -2.43091 35.3635
  20 583.977 -2.51295 52.9493
  21 471.109 9.67945 44.7210
  22 410.367 27.5577 32.5549
  23 362.229 24.0147 2.57264
  24 399.277 22.6282 -34.9984
  25 469.052 11.8029 -43.1325
  26 603.570 0.617234 -50.5183
  27 675.705 -7.32716 -38.8564
  28 741.389 -8.77442 -27.4861
  29 778.065 -6.95424 -17.1353
  30 793.926 -6.72383 -12.8543
  31 808.409 -8.44263 -2.73804
  32 826.148 -4.41524 1.30493
  33 828.531 -5.70708 -2.09570
  34 826.126 -3.11090 1.24138
  35 772.836 -4.77142 -2.63650
  36 709.095 -10.0313 -2.60300
  37 648.027 -16.3599 -3.49540
  38 573.746 -18.6963 -3.86731
  39 497.178 -19.7355 -3.39266
  40 409.308 -17.1722 -1.31900
  41 323.482 -14.1551 -1.41153
  42 245.011 -11.0907 0.0639213
  43 173.433 -5.62005 1.48160
  44 102.751 -2.08506 -0.717580
  45 30.5661 3.08355 -0.545474
  46 27.9580 2.78334 3.61054
  47 24.4390 0.957472 0.715791
  48 14.8321 -0.743946 3.59824
  49 -9.85787 1.06644 5.74664
  50 -21.6301 0.320809 7.60422
  51 -32.8229 1.35774 8.36162
  52 -53.8576 2.29545 4.19609
  53 -72.1054 2.14780 2.63197
  54 -74.9479 1.08965 3.38127
  55 -93.4879 3.31338 -1.20231
  56 -93.2054 2.68287 -0.768654
  57 -85.3239 2.47220 -5.35818
  58 -72.9360 1.64496 -8.58399
  59 -57.4726 0.550644 -9.29537
  60 -40.8763 0.0367261 -7.86240
  61 -23.9255 -0.702438 -7.52657
  62 -9.61797 -1.55291 -5.45465
  63 -3.31534 -1.53989 -2.34604
  64 -1.31245 -3.01685 -1.90119
  65 -1.13427 -8.58885 -4.09452
  66 -0.695935 -21.7800 -5.78464
  67 -0.00536783 -33.2100 -7.64321
  68 0.523957 -45.9402 -7.16040
  69 2.54542 -59.0572 -3.35607
  70 5.36627 -63.8347 2.70338
  71 -10.5711 -3.68844 9.32568
  72 -27.8890 -0.565674 14.8981
  73 -51.5002 4.58299 7.45075
  74 -55.5413 7.39850 0.439561
  75 -28.2897 7.89663 -15.2876
  76 11.7865 10.7820 -32.4720
  77 84.6299 22.8572 -58.1648
  78 34.3148 22.3589 -44.4371
  79 10.2435 -26.7306 -8.91257
  80 4.28098 -32.2480 -0.676047
  81 1.60724 -33.7256 3.46356
  82 0.282961 -21.5947 5.66863
  83 0.407277 -15.6816 4.80431
  84 -0.276691 -5.70519 3.80023
  85 -6.28137 -1.24388 3.61333
  86 -13.0099 0.201967 5.73068
  87 -22.8474 1.10951 4.53268
  88 -30.1935 1.63172 2.10322
  89 -31.9890 2.00861 0.307056
  90 -28.6159 1.21390 -0.380131
  91 -23.4429 1.83825 -1.72022
  92 -14.7060 1.75077 -4.58876
  93 -6.16799 1.96504 -3.00133
  94 15.9077 0.138863 -4.85743
  95 20.8091 1.17000 -2.37551
  96 34.4166 1.46446 -2.44647
  97 48.1412 0.898418 -4.99008
  98 52.8209 0.386072 -4.09552
  99 57.2505 0.942047 -2.62181
  100 72.7573 -0.170237 -0.524042
  101 76.7659 1.17456 0.990574
  102 76.4191 2.81724 -2.11796
  103 77.1778 3.14270 1.17334
  104 140.998 -0.502198 1.24133
  105 203.003 -2.15670 -0.409966
  106 265.251 -4.42676 0.889441
  107 334.156 -5.65490 2.20957
  108 409.987 -6.32563 1.29188
  109 485.921 -8.37700 2.67509
  110 558.311 -7.47414 2.24892
  111 629.542 -9.02927 2.19941
  112 686.327 -6.14135 1.40079
  113 745.109 -3.17328 1.94451
  114 395.847 -29.9157 -49.8483
  115 424.288 -11.0957 112.573
  116 1170.38 373.463 44.2001
  117 190.172 6.88292 -59.6705
  118 67.9677 48.1499 24.5244
  119 649.419 -69.1571 -105.710
  120 326.831 191.784 286.487
  121 358.610 -10.2474 -17.1610
  122 351.354 -25.2164 30.5468
  123 389.908 155.033 -270.762
  124 576.207 -22.7187 -9.29335
  125 631.195 -50.7166 -6.20896
  126 795.781 -60.3578 -67.7669
  127 128.436 13.1722 45.1907
  128 185.861 -5.83488 -35.0677
  129 642.103 -48.7863 4.59220
  130 13.8617 -31.1750 -4.69274
  131 51.5393 18.5353 -20.2054
  132 1.65704 0.471715 -28.1926
  133 331.993 -0.957726 -118.957
  134 246.851 61.2876 -156.208
  135 766.069 -23.7335 103.230
  136 530.244 -13.0430 -7.55805
  137 556.274 -27.0027 4.10600
  138 27.8451 31.3519 20.4916
  139 201.292 -6.12199 -19.1077
  140 163.571 -8.52552 34.5243
  141 122.393 25.8896 -65.5577
  142 62.3967 71.6190 -49.2757
  143 753.623 143.832 -93.8595
  144 229.638 -2.68160 -6.73595
  145 202.959 -8.22582 14.4713
  146 311.303 -15.6803 59.4875
  147 332.511 -16.4883 -32.1508
  148 89.5734 2.42196 -26.2856
  149 14.7488 20.2461 0.597412
  150 872.794 -59.7676 -67.6492
  151 261.025 75.5188 147.085
  152 689.373 -46.5052 147.967
  153 479.261 -43.0014 -78.7171
  154 643.910 -76.0472 30.9240
  155 1094.86 142.129 -33.4535
  156 14.2842 -24.5828 -22.4022
  157 -8.10743 -8.31046 -21.3219
  158 1.82956 3.25904 8.13441
  159 734.357 129.013 81.7795
  160 714.850 -70.8293 33.1669
  161 680.057 -9.19849 -4.31351
  162 686.870 -21.9520 -9.84640
  163 484.326 -28.4450 -22.8018
  164 713.162 -44.8911 -54.8339
  165 320.114 3.59973 33.9459
  166 491.366 -43.7780 32.1200
  167 207.893 38.7208 83.7935
  168 377.371 -8.72302 -5.85457
  169 376.648 -20.2592 10.3265
  170 692.570 -20.6443 6.36420
  171 283.619 -13.1499 -54.9409
  172 324.380 -12.6215 -83.4339
  173 565.651 -11.5229 -201.986
  174 483.373 -19.0497 -13.4312
  175 214.649 34.1650 -110.769
  176 23.5145 6.13871 -8.71469
  177 -24.6148 5.09140 -20.3027
  178 3.16335 -6.91236 15.1901
  179 -5.02302 -81.2671 -3.03750
  180 97.9719 54.4172 -85.6582
  181 644.409 -8.86497 -3.85387
  182 662.634 -18.3039 -2.19550
  183 136.638 -2.31471 -17.6944
  184 76.4915 1.56403 28.3957
  185 81.5996 -0.0932865 -19.9134
  186 8.34472 8.89403 14.9997
  187 34.7248 15.4797 -23.4870
  188 706.663 -32.1703 36.0601
  189 533.053 -49.2671 -32.1298
  190 171.346 -0.949637 -8.04584
  191 129.485 -4.53851 18.5917
  192 2.11237 -26.5020 -22.0107
  193 676.624 9.17137 -112.567
  194 601.862 -35.8508 -6.78509
  195 698.276 -31.6821 77.8914
  196 221.136 12.5536 -83.5051
  197 721.771 -26.8810 -27.6756
  198 466.435 -39.8828 66.8669
  199 1121.02 428.760 -463.029
  200 607.859 -68.2491 -26.7224
  201 172.405 0.664640 -43.9119
  202 91.4543 12.1800 -31.7512
  203 13.9775 21.7112 -13.2127
  204 795.162 -77.9153 17.7734
  205 24.1367 23.9431 -13.2832
  206 896.982 62.2859 101.405
  207 34.7665 7.80204 57.3294
  208 709.466 -12.1721 -0.585487
  209 90.2350 34.0848 34.5953
  210 473.214 -33.5613 17.8157
  211 147.010 51.3723 -109.215
  212 397.503 5.53923 -160.076
  213 232.000 -10.4451 -28.0119
  214 193.264 -6.28663 48.0294
  215 1.25653 6.27378 2.04519
  216 -23.6589 -0.0439458 -21.9594
  217 256.915 6.30797 74.5451
  218 439.561 -12.2421 -12.3201
  219 462.210 -8.15812 -3.70150
  220 484.666 -21.0473 4.44902
  221 287.659 -12.8140 -39.8942
  222 396.132 -18.4286 -22.6352
  223 108.006 79.5125 70.3525
  224 120.398 203.183 -163.248
  225 210.610 94.9336 -168.142
  226 490.751 -36.2007 -119.445
  227 569.062 -15.0799 -5.86097
  228 120.976 20.1039 -52.4459
  229 291.999 -21.5724 43.7262
  230 580.221 -39.6405 3.45337
  231 158.424 113.468 140.487
  232 930.192 325.941 -50.5313
  233 455.998 70.8803 230.797
  234 630.881 23.6048 96.7815
  235 257.867 -5.66454 -15.3808
  236 842.168 8.36048 234.922
  237 122.088 -2.06103 -10.3337
  238 64.6462 -2.92806 19.2375
  239 150.708 0.840416 -1.70379
  240 112.795 -0.912920 4.27732
  241 860.428 39.7350 -115.047
  242 227.314 -12.3077 30.6213
  243 296.097 -12.7932 -23.5867
  244 7.55741 -41.9606 -17.3794
  245 6.08954 -4.80650 4.02948
  246 20.5875 31.6541 -14.0650
  247 553.962 62.8393 3.55746
  248 574.490 -62.8085 26.5605
  249 101.118 31.2175 -67.4815
  250 592.732 -59.6451 95.4696
  251 79.5831 -2.48499 -15.3620
  252 4.15493 1.38900 17.9520
  253 720.739 -74.1479 -36.4510
  254 888.462 -53.8992 16.3714
  255 287.252 -4.86990 -3.02408
  256 270.665 -12.7007 6.63352
  257 753.226 -10.6616 -3.67568
  258 732.333 -4.91177 -2.95987
  259 693.434 -24.6746 -79.4917
  260 0.340034 -91.7011 -2.04674
  261 408.649 -26.5110 -35.4439
  262 311.187 -7.05078 -10.7921
  263 294.055 -18.1528 20.2032
  264 -5.86266 -6.34842 -9.03409
  265 -4.52022 -2.98221 8.69146
  266 20.5728 1.16084 -10.5965
  267 -40.8047 4.81833 -9.78282
  268 94.6249 -4.58879 9.02423
  269 137.695 -2.48249 -3.64850
  270 732.951 -14.6549 18.5735
  271 783.746 34.8956 -265.314
  272 467.644 9.95691 159.873
  273 1479.80 517.217 -12.0815
  274 740.026 -86.8079 30.0373
  275 405.769 -25.4432 -95.6887
  276 -29.8656 6.75735 3.47603
  277 43.9407 1.04682 -14.9251
  278 406.026 -33.2906 -68.5944
  279 161.941 59.5470 77.0839
  280 564.347 -8.48530 -3.52370
  281 581.481 -18.7643 1.68290
  282 746.759 -8.66115 -2.24524
  283 722.291 -6.17763 -0.315295
  284 9.68764 -11.8574 -26.7306
  285 1233.84 425.817 426.367
  286 489.172 -38.6287 -31.5026
  287 438.053 47.9304 -213.510
  288 599.057 37.7646 -90.4649
  289 459.275 -25.6222 10.8749
  290 14.1475 27.0099 43.4467
  291 27.1716 24.8082 -4.04436
  292 1093.53 75.8043 -51.4256
  293 254.175 -3.65828 -65.0152
  294 324.553 25.2253 115.128
  295 393.990 -25.4886 77.5370
  296 61.9596 86.1951 -64.1180
  297 390.591 -29.1602 45.4566
  298 751.904 -12.3888 -13.2063
  299 658.566 -67.7016 -7.71569
  300 -0.630900 -11.5644 7.11133
  301 578.350 -67.5612 -72.6122
  302 741.950 -13.2717 -30.0114
  303 752.333 -76.8289 -101.341
  304 205.605 21.9302 -92.4473
  305 689.103 -82.5557 -15.7726
  306 -3.27294 -18.3839 -16.2077
  307 72.6785 18.8622 29.0306
  308 618.716 -9.40334 -5.85676
  309 634.778 -24.8492 -3.08055
  310 917.815 286.962 55.7535
  311 134.294 -0.639521 -29.8843
  312 139.353 3.04815 -40.2086
  313 656.253 -14.1703 -5.00126
  314 523.035 -24.7724 -15.7993
  315 689.783 -57.7335 28.0465
  316 132.750 36.8174 -78.0227
  317 662.475 -30.7903 7.74021
  318 663.614 -33.7651 -13.3273
  319 734.051 -4.65096 0.372424
  320 69.5810 -3.97878 16.4218
  321 122.699 -2.90556 -8.21375
  322 20.6787 11.5272 -3.79065
  323 574.208 59.2139 57.1126
  324 664.919 -22.3558 0.742781
  325 275.798 39.0515 -146.575
  326 866.426 -43.7634 34.8331
  327 76.5910 22.9190 -40.9705
  328 45.8954 28.5373 11.1502
  329 761.982 211.414 -15.1469
  330 745.520 -8.72856 2.21823
  331 736.876 -58.5621 -73.2959
  332 1.78774 -8.26201 7.96820
  333 -4.55518 -7.80372 -27.3768
  334 147.511 27.2929 56.8339
  335 -9.02784 0.593948 7.83888
  336 -13.3121 -3.61612 -12.1346
  337 7.72897 -70.0829 1.61136
  338 679.911 -38.4024 17.1449
  339 75.0390 23.8883 -64.2691
  340 751.849 -65.2705 63.1865
  341 537.989 -32.3122 -147.450
  342 390.389 -22.0585 18.3336
  343 654.405 -10.1412 86.4241
  344 225.110 -9.71366 -45.6018
  345 585.790 -47.1360 6.66220
  346 430.487 -32.8056 30.3014
  347 697.543 -45.7229 -35.6350
  348 321.928 -16.8525 -67.0727
  349 332.780 -7.82011 -103.292
  350 759.827 48.8333 114.390
  351 492.360 -44.3231 -49.3447
  352 14.4069 -19.3163 24.0772
  353 54.1295 9.26695 26.6142
  354 508.533 -15.2509 -9.13447
  355 327.409 -18.6923 -49.1813
  356 5.05743 -30.5999 2.25745
  357 1447.61 483.231 -125.705
  358 198.763 -9.45205 23.2456
  359 228.162 -4.71461 -12.6371
  360 121.092 -0.990911 -23.9219
  361 33.1215 12.4578 -34.1429
  362 416.386 -6.13076 -5.00607
  363 422.056 -19.5696 5.86672
  364 75.9477 0.0651845 -9.23316
  365 1.27019 1.33707 15.0316
  366 9.27636 19.2558 -22.8451
  367 -11.6100 6.80668 12.1294
  368 419.148 -23.1377 -26.6104
  369 7.53041 -24.9207 -14.9418
  370 2.42405 16.2545 -11.4923
  371 72.0611 8.11188 -23.2478
  372 56.3590 52.7542 20.9730
  373 703.338 -22.2054 54.1745
  374 708.135 -50.3689 55.7985
  375 272.003 20.0670 91.2273
  376 31.4147 12.0850 -9.60912
  377 -13.6277 5.21617 -24.8600
  378 -4.51557 1.79345 -0.890386
  379 -39.4797 0.269378 -15.3560
  380 238.421 4.24150 -74.5539
  381 226.260 -2.25337 -4.37162
  382 200.032 -6.93580 7.36450
  383 172.280 131.846 -157.810
  384 415.275 -15.5564 -17.2019
  385 157.318 20.5852 -67.9787
  386 515.737 -43.4606 91.2607
  387 2.85663 -61.8281 -1.20050
  388 169.747 175.258 206.657
  389 595.621 -47.4014 -12.3978
  390 175.463 -2.87871 -14.5934
  391 130.270 -5.18750 26.4505
  392 450.452 -8.88495 -7.51379
  393 366.501 -8.60205 -12.9909
  394 103.504 6.40071 38.1616
  395 160.668 -4.27666 -26.3457
  396 9.42881 -5.02176 -3.05096
  397 945.292 181.973 -98.9053
  398 258.975 -14.4384 51.2427
  399 156.032 31.8352 -85.5077
  400 542.029 -33.3900 -16.9278
  401 3.13112 -42.6835 -12.8141
  402 776.376 -23.4360 -108.389
  403 73.7607 -3.26904 11.2615
  404 122.304 -1.39800 -5.15360
  405 663.366 -7.48024 -1.56493
  406 683.808 -12.9861 -0.536440
  407 535.766 -56.1567 -48.1529
  408 88.6457 0.363367 -23.8023
  409 764.602 -9.86203 -16.9463
  410 16.9156 14.6237 8.88177
  411 95.5004 102.281 111.260
  412 597.925 -57.8821 -18.5505
  413 450.525 -21.1847 -20.2173
  414 162.168 55.5341 -122.444
  415 639.890 -27.7545 -0.0637739
  416 27.6155 46.8912 -10.4323
  417 542.605 50.7164 -257.754
  418 56.3689 -1.29346 -12.6186
  419 -23.7746 1.72491 11.6098
  420 1.60748 1.32352 -4.43954
  421 -47.3967 2.40080 -12.3930
  422 712.467 -19.9934 -51.4358
  423 -10.3388 -7.89454 16.4151
  424 13.2603 15.5156 -20.6442
  425 181.758 -5.89006 -21.0410
  426 135.581 -3.86569 37.5030
  427 181.688 3.52142 55.0158
  428 68.4656 25.3432 -48.4782
  429 476.892 229.341 -357.168
  430 226.611 -8.99052 -33.9807
  431 781.492 -6.99564 -4.74906
  432 744.934 -27.0724 -185.543
  433 338.887 347.037 -305.793
  434 286.365 -12.5421 -27.9745
  435 194.549 50.2764 -123.419
  436 103.355 49.2677 45.3960
  437 271.060 15.3655 -113.956
  438 173.763 11.2202 -65.0533
  439 728.794 59.9749 -115.232
  440 356.162 -21.3557 -40.5929
  441 60.3269 52.7391 -50.5144
  442 19.6988 30.9044 0.879501
  443 543.021 -41.2711 -20.4943
  444 -15.5181 2.53739 5.41214
  445 -26.1673 0.00674308 -13.2248
  446 354.809 40.3267 -179.079
  447 734.482 -13.4070 21.6504
  448 381.938 -27.1230 61.2866
  449 35.3454 35.1634 -1.75389
  450 -1.44910 -13.0715 -8.83739
  451 187.707 3.91979 -53.0863
  452 563.967 -63.4594 48.8631
  453 581.149 -9.83509 -3.35368
  454 599.982 -21.2710 -0.0376106
  455 63.0625 15.0345 -23.1187
  456 748.631 -10.7904 9.38227
  457 13.2975 8.15531 1.80851
  458 -0.0707299 -31.0975 -13.5904
  459 27.5052 0.797207 -8.85290
  460 -55.3704 3.26655 3.75887
  461 117.097 44.9412 -82.1101
  462 650.521 -6.93703 -79.9929
  463 628.519 -33.3502 -5.56700
  464 540.583 -18.4935 -11.6579
  465 720.195 -34.3669 97.6616
  466 666.586 -73.2760 -2.47379
  467 507.313 -9.03189 -2.34900
  468 523.804 -20.3319 1.02113
  469 -7.39168 12.0585 -20.6785
  470 280.021 -16.8697 26.6606
  471 417.447 -14.1790 -135.567
  472 95.4557 93.9644 80.8041
  473 194.977 201.888 -215.586
  474 763.799 -3.12696 -1.41541
  475 521.979 -41.7769 17.2420
  476 352.721 -5.63191 -3.19390
  477 345.024 -14.7906 5.11958
  478 2.79913 -12.9581 -27.1392
  479 537.771 -34.9402 8.27404
  480 -12.2707 -4.03183 -25.1947
  481 37.0216 18.0232 -15.7828
  482 1025.12 190.267 67.9532
  483 352.002 -13.5323 -19.2878
  484 286.147 -6.00573 -8.49704
  485 270.680 -13.6131 15.6292
  486 408.442 -31.1276 -81.1893
  487 772.062 -6.94012 1.27833
  488 -3.10780 -78.7381 -3.39869
  489 808.612 -83.8772 -33.3721
  490 349.718 -17.2788 -27.9390
  491 982.092 18.0242 8.28066
  492 1.32523 -20.3599 5.76760
  493 5.56747 -56.3114 -6.30054
  494 727.063 -88.8218 -42.6436
  495 299.634 -7.75659 -12.3935
  496 570.644 6.02541 -71.6167
  497 15.4948 1.12338 -23.1483
  498 516.936 -51.0953 41.2009
  499 174.084 96.5228 124.865
  500 697.514 -28.1549 -17.8240
  501 128.367 90.1174 -108.204
  502 7.67047 1.21859 -7.95735
  503 -61.6591 2.81654 -3.08588
  504 698.776 -14.2092 -5.56740
  505 671.714 -6.46022 -4.08903
  506 48.2298 26.1905 17.5333
  507 244.925 -7.74887 -18.4810
  508 133.091 14.2871 -48.3113
  509 134.096 0.328082 -33.5237
  510 77.8140 -0.552191 -7.65471
  511 7.51935 -0.695350 13.4535
  512 464.243 -39.9622 -44.8342
  513 233.218 -14.0788 39.8341
  514 998.348 -4.20154 64.1047
  515 290.806 -19.3432 36.2547
  516 217.943 23.7778 73.8470
  517 325.074 13.3940 -134.636
  518 54.2781 0.754192 -8.19455
  519 -28.0550 2.07597 11.2207
  520 11.6289 9.34229 -21.5677
  521 555.835 102.516 296.060
  522 497.662 -46.1708 -95.5197
  523 708.336 -83.6380 5.64347
  524 256.100 -7.03121 63.1037
  525 39.0115 21.6434 -47.0841
  526 282.153 98.4484 185.625
  527 482.524 36.3200 -33.5188
  528 406.534 -27.1520 21.5827
  529 1149.00 465.742 7.72036
  530 -2.88584 -58.4775 8.92542
  531 621.641 -13.0488 -3.83420
  532 513.090 -9.61677 -6.25261
  533 540.955 -21.5946 3.46996
  534 585.426 -33.8945 139.882
  535 345.399 -25.6630 38.3577
  536 113.924 1.69571 -3.18716
  537 69.1748 1.05942 6.27845
  538 272.354 -11.8932 -46.6472
  539 1327.50 296.390 -74.4905
  540 670.607 -41.5444 -18.6347
  541 666.941 -7.65109 55.5187
  542 696.038 -62.9187 -32.7618
  543 116.999 0.780760 -0.160490
  544 75.5389 0.0958532 1.13875
  545 272.067 7.01035 -102.194
  546 286.836 -14.3312 -36.0870
  547 278.287 142.824 223.774
  548 57.3642 64.4771 35.8003
  549 694.765 -11.4433 -2.40590
  550 758.414 -4.30855 -0.434504
  551 784.604 -5.92210 -2.00979
  552 364.880 -25.4255 -59.8439
  553 170.081 76.4319 98.6515
  554 81.2218 -0.753022 -5.43407
  555 16.1962 -1.23300 10.5987
  556 107.377 65.5309 55.6215
  557 1133.66 349.785 -56.7775
  558 217.909 -3.72093 -50.2325
  559 734.669 -85.4184 10.5999
  560 240.170 56.9012 115.281
  561 559.693 5.11970 65.5069
  562 442.721 -23.5454 9.53805
  563 829.297 -54.4505 132.951
  564 327.052 106.606 -222.884
  565 664.701 4.72830 217.322
  566 333.343 -21.8054 51.9117
  567 142.259 -6.38250 16.5843
  568 178.688 -2.89063 -8.62465
  569 574.437 -12.9655 -8.83577
  570 300.970 -10.1696 -18.2427
  571 703.152 -23.4803 15.6399
  572 550.453 7.21180 190.715
  573 488.103 -11.1382 -9.18948
  574 152.374 50.1389 -95.7344
  575 645.101 93.4525 -56.4729
  576 291.829 80.2027 -185.905
  577 445.619 23.3630 2.49601
  578 600.948 -16.6297 -7.18398
  579 5.83037 -27.3317 -22.9518
  580 828.906 -5.86452 102.564
  581 86.5146 18.9749 -35.1518
  582 394.973 56.6101 186.315
  583 723.297 -30.6710 -100.024
  584 1433.04 415.436 232.293
  585 -1.98233 -2.23657 -2.73374
  586 -3.05178 -2.90864 4.56162
  587 185.877 -2.10218 -4.83178
  588 152.321 -5.37282 10.1139
  589 680.097 -71.1665 92.6290
  590 780.823 -78.7952 72.1024
  591 -1.60485 -16.5911 -23.1761
  592 808.112 -53.8232 71.1393
  593 449.145 -15.9094 -13.2778
  594 466.711 -18.9878 1.36257
  595 457.470 -7.10367 -2.32464
  596 708.588 -4.19652 115.468
  597 -25.1977 9.80915 1.35615
  598 242.344 -9.26405 -23.9727
  599 506.133 13.1323 58.6022
  600 951.629 32.7120 -58.6030
  601 141.756 41.6955 60.5238
  602 -40.0219 0.413264 -12.3615
  603 -20.1546 1.74042 2.17714
  604 1129.11 95.1802 179.206
  605 849.070 146.017 108.570
  606 667.163 -79.0584 54.5169
  607 122.819 -1.69226 -14.1651
  608 61.9121 -1.62005 24.8636
  609 696.638 -5.28075 -1.80106
  610 718.312 -10.2132 -3.75688
  611 861.793 -34.5874 -68.5057
  612 596.427 -26.2711 -6.62598
  613 198.463 -9.36818 44.8361
  614 -1.51505 5.41610 6.85922
  615 73.7707 35.1990 -62.3371
  616 700.155 -15.4603 1.35655
  617 717.545 -31.9483 -44.3560
  618 120.132 23.7643 -56.6480
  619 589.613 -32.0021 0.524230
  620 330.413 -11.9438 71.7194
  621 960.877 99.4824 -283.865
  622 50.6636 1.36856 -17.2525
  623 -18.5113 8.75226 -2.37028
  624 469.985 3.55684 -184.460
  625 625.092 -71.8591 17.5842
  626 670.512 66.5158 106.397
  627 430.745 -30.8190 -37.3129
  628 19.6226 0.824636 20.1705
  629 91.5209 -2.14207 -14.0138
  630 216.671 -3.43889 -13.9593
  631 168.132 -0.308250 -4.23325
  632 133.453 -2.59849 6.05616
  633 624.390 -43.0255 -3.84322
  634 791.021 -3.75556 -1.57490
  635 761.890 -2.65505 0.896901
  636 12.5433 -57.0856 5.52021
  637 12.4460 -27.1910 -23.9536
  638 408.792 -21.0052 -112.700
  639 10.2793 2.81396 -25.4384
  640 -7.28189 -0.389526 -28.0654
  641 169.080 175.303 180.007
  642 500.851 -25.0123 124.931
  643 242.256 -4.38034 -6.79873
  644 218.765 -10.0981 12.4704
  645 619.256 -15.1675 0.475358
  646 603.062 -6.73380 -1.86757
  647 236.577 -12.1940 -41.1687
  648 50.9382 11.1537 -17.6102
  649 23.5108 -3.26616 7.10366
  650 83.1428 -2.49766 -2.59618
  651 -3.47861 -5.16717 5.86938
  652 397.879 317.078 327.849
  653 810.742 -76.2621 -8.20243
  654 760.044 -75.6640 -37.5274
  655 1331.36 292.507 49.0462
  656 163.002 -2.61997 -16.1946
  657 112.416 -4.18896 29.2036
  658 455.227 -29.9737 -29.6738
  659 -0.505188 -9.41962 7.16204
  660 626.311 -75.1160 -39.5087
  661 -16.7601 -3.16952 -20.3748
  662 724.785 -56.3055 71.6342
  663 19.3093 10.6355 -5.62861
  664 647.145 122.348 15.5975
  665 716.811 -5.33979 -1.26035
  666 372.635 -21.8358 -32.7493
  667 717.259 -42.1516 -77.2243
  668 -72.9315 2.38848 -0.506671
  669 6.65537 0.849455 -6.44615
  670 11.0981 80.2536 -45.9019
  671 106.330 7.16495 -34.3178
  672 613.390 -60.1391 6.06215
  673 407.505 -12.3201 -15.2454
  674 733.863 -13.8765 -7.85756
  675 655.878 -46.6318 -153.583
  676 14.9130 8.09523 -3.86256
  677 -24.1382 2.82421 -22.5171
  678 648.683 -62.4905 2.57305
  679 445.760 -38.7113 48.0453
  680 678.756 -75.4113 -4.63875
  681 211.628 57.5722 -135.431
  682 601.095 94.2167 -330.306
  683 438.851 -26.1580 16.1900
  684 563.520 -59.5075 -99.9680
  685 344.602 41.1749 147.264
  686 173.953 -7.47609 27.2391
  687 352.757 -5.60024 93.4690
  688 742.486 -8.68004 1.59092
  689 717.363 -5.92665 -2.62386
  690 14.1620 -15.4253 8.20293
  691 52.4206 2.73942 27.3676
  692 7.61966 4.44882 4.55403
  693 -7.10935 -0.982744 6.12142
  694 -6.33261 -2.03856 -5.24083
  695 8.97108 5.32709 17.4219
  696 31.4120 14.4812 -8.34642
  697 2.19938 -22.9773 3.19615
  698 503.090 -36.3877 -24.8494
  699 143.507 9.12911 -46.7382
  700 181.826 13.0039 61.2626
  701 546.592 -53.6911 24.0245
  702 -0.169725 -24.1307 -9.30041
  703 645.671 184.036 364.851
  704 435.022 -35.0428 -58.1022
  705 601.489 -68.9980 65.8152
  706 826.151 123.906 -117.933
  707 118.960 -3.51479 -20.2152
  708 10.7186 -10.8601 -11.0714
  709 836.728 222.764 -93.9936
  710 -2.01187 -6.16614 -4.73346
  711 726.734 -10.5824 30.3614
  712 82.9977 -0.820499 -18.0037
  713 41.2418 35.1543 6.67408
  714 495.781 -29.9972 11.0118
  715 271.672 -4.86940 -9.13463
  716 22.4226 24.5219 -3.21527
  717 37.1617 5.31160 -13.7756
  718 -22.2247 7.99161 -15.0700
  719 249.606 -11.8802 19.1629
  720 -10.2110 1.74302 -4.68323
  721 -67.3311 2.18017 -6.82285
  722 342.691 -24.0412 25.1891
  723 666.258 -6.83592 -54.8311
  724 10.2922 -56.8727 -16.2169
  725 330.724 -5.32627 -7.33578
  726 320.783 -15.3165 11.9027
  727 720.215 -56.7566 -60.7853
  728 300.070 -4.33245 -4.67597
  729 284.922 -11.4858 6.66798
  730 711.174 -24.8716 23.5449
  731 408.562 6.19855 132.569
  732 344.405 -18.8134 15.5675
  733 -22.9960 -0.589062 -0.213200
  734 -60.1396 -0.605481 -9.57448
  735 348.084 -5.58659 -8.45686
  736 -6.08318 -9.70315 -14.9257
  737 280.618 3.22698 -89.4446
  738 68.7246 84.9355 71.4666
  739 0.245498 8.59731 -24.9311
  740 48.6180 0.556558 6.44594
  741 98.5534 0.968564 -3.02579
  742 435.027 -25.4553 93.5936
  743 103.668 40.4807 -92.3065
  744 486.809 11.0603 -52.7847
  745 420.813 -8.48635 -6.43864
  746 11.2034 -49.4799 -16.0434
  747 640.243 -79.7507 -64.3750
  748 759.295 -5.70802 12.0405
  749 800.446 -4.09659 -2.84578
  750 776.666 -3.41028 -0.960114
  751 188.296 74.1267 -142.406
  752 930.833 -12.8471 -133.953
  753 401.150 -10.2721 -9.42955
  754 771.858 -4.73979 -1.44866
  755 189.219 -6.03109 -25.2505
  756 612.980 -7.00066 -1.13852
  757 630.975 -16.1483 -1.63889
  758 69.1392 41.2271 24.0026
  759 362.244 -26.3018 -74.4607
  760 636.976 -41.7259 2.07842
  761 141.139 0.878840 41.1235
  762 1386.47 536.500 4.03822
  763 699.003 -4.10560 35.5666
  764 180.310 -2.27157 -40.8363
  765 411.663 -22.5457 13.8439
  766 676.034 -48.6897 20.3705
  767 100.710 1.93114 -0.649791
  768 56.0798 1.63283 2.16086
  769 -1.00393 -1.91605 9.73124
  770 187.807 -9.89310 32.3853
  771 498.720 -24.4997 7.48044
  772 665.917 -56.7041 -16.9074
  773 -48.0864 1.03663 7.46151
  774 38.4823 -0.147720 -6.76152
  775 552.296 -64.3301 -61.3392
  776 767.347 -53.8157 -85.3172
  777 52.2007 2.44928 -17.7689
  778 -13.8358 10.8597 -9.16301
  779 459.148 -40.6568 -65.8968
  780 629.357 -18.2843 -3.70841
  781 -10.6266 -101.232 3.98051
</Section>

newXOutput 41

<Section columns = "stress_xx | stress_yy | stress_xy">
  1 738.003 0.901882 1.32834
  2 776.373 0.663542 -1.31857
  3 -155.039 -0.827866 -3.66126
  4 0.185666 0.165628 0.380069
  5 0.204072 -20.0196 1.77416
  6 -148.138 -138.346 66.6275
  7 0.146531 0.0425176 -0.659244
  8 -112.123 -0.722434 3.18523
  9 745.237 -1.94629 -2.20362
  10 752.776 -5.52324 -0.116435
  11 757.007 -3.78906 -4.91096
  12 749.882 -3.05294 -5.08894
  13 763.456 -3.29797 -5.74461
  14 766.356 -5.53852 -8.69872
  15 768.231 -4.95707 -3.35158
  16 791.093 -3.77628 1.78347
  17 793.402 -6.38695 0.139474
  18 801.877 -8.57896 7.62294
  19 777.809 -11.7011 16.7063
  20 714.257 -14.5402 47.4664
  21 600.224 3.32941 64.1909
  22 499.257 38.3737 62.4670
  23 399.597 45.8491 14.5332
  24 443.209 39.5062 -55.9254
  25 545.350 12.1506 -62.0269
  26 710.697 -9.25247 -54.8205
  27 765.514 -14.0833 -29.1990
  28 792.710 -10.3462 -9.40734
  29 801.045 -6.43074 -1.56958
  30 793.803 -5.47041 -1.16647
  31 787.369 -7.58281 7.29591
  32 796.780 -2.97571 7.44662
  33 792.267 -5.24058 0.684364
  34 784.366 -2.80090 2.74649
  35 721.039 -2.78201 -1.99961
  36 643.725 -5.77576 -1.42966
  37 568.263 -7.77115 -2.29314
  38 475.170 -6.16593 -3.06116
  39 380.438 -5.28679 -3.80336
  40 274.803 -2.79675 -2.79357
  41 173.594 -3.06073 -3.60385
  42 82.2863 -3.11415 -2.33472
  43 -2.66099 -2.18044 -0.501568
  44 -89.4075 -0.832635 -2.35842
  45 -180.564 4.16518 -2.49941
  46 -179.434 3.73714 1.40788
  47 -173.469 1.53528 -3.90456
  48 -171.780 -0.0594852 -3.65132
  49 -183.263 1.41155 -1.29124
  50 -174.594 1.52271 -1.24850
  51 -163.330 1.98911 -3.23095
  52 -156.348 1.87026 -7.93881
  53 -147.189 1.24364 -8.93460
  54 -125.741 -0.0482033 -10.4009
  55 -112.238 1.09342 -10.3841
  56 -95.2042 0.642946 -8.15495
  57 -72.0944 0.595916 -8.99223
  58 -52.3110 0.342058 -9.87429
  59 -33.8076 -1.19841 -8.68402
  60 -19.7705 -0.975880 -5.49920
  61 -9.35478 -1.02702 -3.87831
  62 -2.38509 -1.24803 -1.81129
  63 -0.220498 -0.643906 -0.368067
  64 -0.546415 -0.0810809 -0.258708
  65 -0.689189 -1.68441 -1.19420
  66 -0.650107 -6.88622 -2.42906
  67 -0.671336 -12.3536 -3.59020
  68 -0.0483143 -20.8034 -4.02419
  69 1.40760 -28.4903 -2.64318
  70 2.43469 -33.1306 0.634839
  71 -1.57548 -2.46400 1.78439
  72 -9.36183 -3.35764 7.16152
  73 -29.4543 -2.89994 11.5469
  74 -47.7814 -1.76943 15.2205
  75 -77.0131 -3.38965 18.0491
  76 -113.341 -8.20081 25.8964
  77 -178.236 -35.1354 57.7946
  78 -39.0092 -163.191 61.6883
  79 -8.68161 -86.1486 27.0409
  80 -4.38827 -58.6004 17.0781
  81 -1.11846 -33.1917 9.54874
  82 -2.10788 -16.2589 7.82932
  83 -2.03207 -5.11886 3.32805
  84 -0.751091 -1.41715 0.689679
  85 -0.943065 -1.39765 1.20123
  86 -5.76744 -2.03253 3.98062
  87 -19.4141 -1.36081 7.21405
  88 -37.0113 -0.588020 8.53423
  89 -56.1178 -0.276360 10.9324
  90 -76.6901 1.22355 10.5878
  91 -95.4409 1.57062 8.01733
  92 -113.293 1.54596 5.27948
  93 -123.808 1.86909 6.71493
  94 -125.259 0.168075 5.27939
  95 -137.961 1.34449 4.89526
  96 -138.234 1.83038 3.99044
  97 -136.575 1.54660 -0.230155
  98 -141.622 0.972565 -1.01141
  99 -145.130 1.12500 -0.284750
  100 -131.772 -0.152478 2.12738
  101 -131.227 1.36899 2.80159
  102 -135.073 3.37324 -1.75111
  103 -135.437 3.76298 2.00235
  104 -52.9383 -0.936904 1.95418
  105 25.9496 -2.51389 0.178575
  106 103.602 -3.94308 1.96676
  107 188.229 -4.38128 3.47259
  108 280.839 -3.87796 2.23870
  109 373.359 -6.07987 3.42979
  110 461.641 -5.24223 2.61180
  111 548.361 -8.03349 2.35217
  112 616.893 -5.82707 1.39154
  113 687.321 -3.05418 2.11186
  114 213.414 13.0963 -27.2975
  115 156.416 42.5203 28.5672
  116 150.088 210.051 -181.571
  117 21.0348 23.2473 12.5329
  118 1.67444 -2.98113 -46.0645
  119 324.403 3.82853 -108.623
  120 27.0255 -88.6047 -5.39805
  121 212.480 1.33329 -9.86357
  122 187.050 5.96129 9.05221
  123 34.6024 15.8575 6.98135
  124 471.060 -4.98009 -20.0254
  125 506.905 -10.8449 32.2810
  126 703.503 -75.7686 129.999
  127 -1.33662 15.5290 -26.1711
  128 25.1430 11.2822 5.59801
  129 524.220 -15.2727 -38.5208
  130 1.96674 -32.4532 7.37911
  131 -28.6496 -2.42714 41.9109
  132 -8.28637 -15.7348 -31.2897
  133 94.4918 11.4374 -38.6677
  134 34.4131 -18.3475 10.2783
  135 781.339 -84.2344 -45.9419
  136 424.369 -6.34922 -9.29836
  137 442.934 -4.52161 12.4944
  138 5.60767 -57.7100 -31.7601
  139 33.6039 2.29476 -1.64179
  140 5.52638 7.66643 -7.33392
  141 -40.9905 -4.20902 33.1553
  142 -7.98079 -17.9491 42.3851
  143 1211.04 200.154 21.2169
  144 60.8267 -0.708943 -1.80155
  145 34.9889 0.920116 -0.185810
  146 123.764 23.0128 4.62152
  147 169.276 8.73094 -11.2268
  148 -33.1568 9.85760 24.5403
  149 -33.0713 1.74468 -38.6548
  150 400.863 24.5230 -183.903
  151 52.1879 17.7576 -16.2000
  152 210.837 63.6537 115.905
  153 253.855 11.6329 -57.3238
  154 418.011 0.947443 81.7988
  155 154.506 89.3653 207.866
  156 5.16029 -49.0964 -29.4450
  157 -6.63987 -8.33982 -13.1035
  158 -17.3517 -9.32817 22.6724
  159 1057.92 150.579 8.30821
  160 597.378 -42.8050 -55.3430
  161 610.255 -5.13721 -11.1592
  162 618.263 -7.43718 13.2350
  163 343.571 1.99600 -23.6936
  164 682.265 -39.4057 14.0461
  165 -2.39460 -0.0269276 -0.253931
  166 316.004 8.03893 28.7005
  167 43.9101 26.6416 -23.6738
  168 240.096 -5.10178 -3.56537
  169 232.375 -2.45158 4.78335
  170 631.328 -9.42740 -18.5668
  171 101.970 20.7546 -8.26566
  172 114.905 23.6340 -25.9042
  173 180.356 31.9337 -79.7898
  174 357.814 -1.77612 -13.8600
  175 0.0713022 -23.4121 -10.8931
  176 -45.6100 2.39498 29.3059
  177 -30.5438 -3.39145 -26.8416
  178 -4.49483 -19.4779 16.1214
  179 -2.54610 -68.9154 -4.38219
  180 -33.5052 -14.0507 43.3774
  181 566.113 -6.34741 -6.30636
  182 585.387 -8.03228 7.06241
  183 -29.0875 3.17676 3.91226
  184 -53.8876 6.36203 -16.2340
  185 -57.7553 4.82686 11.8608
  186 -64.8547 4.71635 -26.6170
  187 -23.2727 -41.4919 45.3293
  188 674.730 -21.7638 -15.8142
  189 364.254 -1.12114 -42.1021
  190 -6.68235 1.37393 0.237173
  191 -38.5619 2.48897 -4.03219
  192 -0.848626 -22.2763 -15.7282
  193 828.203 -30.7134 -77.0465
  194 486.364 -5.71635 -30.9855
  195 727.106 -47.3994 13.0029
  196 24.7216 21.5527 -1.43962
  197 684.474 -17.2761 11.2276
  198 241.431 25.1457 37.3348
  199 -3.97731 -31.7545 -10.3340
  200 424.630 -12.1450 -60.8769
  201 15.2041 18.4332 13.0863
  202 -25.5288 11.8655 33.4108
  203 -16.4922 -7.27403 -41.7064
  204 573.428 -43.4096 -116.060
  205 -0.755188 -23.7120 -42.5162
  206 789.453 -36.7222 -195.666
  207 12.3242 -110.211 1.68562
  208 650.322 -6.37477 -12.4406
  209 -4.23725 10.1481 -40.3797
  210 326.473 1.94942 16.3835
  211 -35.8180 -56.9712 38.2952
  212 121.177 6.62320 -48.3646
  213 67.2705 5.78729 -2.09025
  214 33.8220 14.7953 -10.9712
  215 -35.0078 -2.15708 25.2428
  216 -20.0311 -5.16213 -18.5454
  217 73.8646 29.6398 -8.67665
  218 312.291 -3.07217 -10.6886
  219 343.604 -4.36859 -3.08075
  220 362.115 -3.63684 5.03284
  221 115.725 15.2090 -6.12628
  222 249.057 2.33030 -14.6009
  223 18.3076 -11.3725 -39.9055
  224 -0.623435 -101.773 25.8641
  225 18.6486 -4.48131 28.7736
  226 213.428 8.45934 -69.6990
  227 468.139 -3.99995 -11.1591
  228 -20.6390 12.0245 32.2536
  229 118.453 10.9936 4.05819
  230 457.040 -6.49426 21.4669
  231 29.5134 -33.9936 -25.5586
  232 965.631 48.6134 43.8674
  233 68.0952 24.2741 18.3946
  234 786.905 -25.6129 84.2602
  235 95.4684 1.93210 -4.67731
  236 69.0047 40.1461 93.8856
  237 -57.3407 0.00283532 0.685001
  238 -87.3820 1.61481 -8.00036
  239 -39.5155 0.840925 -0.149348
  240 -74.2816 1.23427 -0.753415
  241 951.248 8.55114 172.521
  242 61.6991 6.35702 -0.166975
  243 136.672 2.18563 -7.70657
  244 2.49800 -35.3763 -14.5814
  245 -8.74904 -30.3467 23.9185
  246 -27.2083 -9.68588 34.0329
  247 755.135 114.996 22.6422
  248 386.516 0.660597 47.1450
  249 -65.5764 -43.6245 46.1435
  250 272.887 36.5930 85.0961
  251 -74.5995 1.58120 5.93447
  252 -88.6804 3.14171 -17.8229
  253 600.273 -48.2083 73.7200
  254 433.921 48.2176 252.184
  255 130.715 -3.46096 -0.321806
  256 111.441 -2.39731 -0.753362
  257 704.462 -6.37270 6.67917
  258 673.360 -3.93224 -5.61609
  259 751.901 -51.2636 -34.9826
  260 0.412031 -79.6029 -7.75892
  261 246.757 8.05466 -22.2866
  262 159.109 -1.50056 -5.31636
  263 134.330 0.810681 3.78807
  264 -3.09248 -3.11307 -3.61979
  265 -6.72340 -5.37755 7.87229
  266 -65.7870 3.08624 20.1769
  267 -51.8218 0.0370470 -24.5471
  268 -87.2011 -2.25023 -2.16683
  269 -52.5485 -2.63826 0.00480786
  270 714.725 -5.45531 -10.8842
  271 129.737 67.0650 -104.864
  272 130.045 50.1564 37.2077
  273 5.50793 -55.2230 9.65137
  274 451.104 2.26387 140.961
  275 172.339 17.5429 -46.8605
  276 -71.6307 1.97562 -24.2243
  277 -74.9208 3.59734 13.8192
  278 200.850 14.9801 -36.7364
  279 28.2224 16.0524 -34.4257
  280 468.649 -5.63332 -4.47585
  281 483.792 -4.69693 5.83177
  282 690.839 -5.83128 1.67152
  283 660.254 -6.11352 -1.02372
  284 0.731969 -30.2290 -28.8040
  285 -33.4729 -175.868 17.4090
  286 326.165 3.46727 -32.3330
  287 100.147 21.9445 -31.7152
  288 769.327 44.8553 -102.699
  289 324.107 -0.581222 8.93923
  290 1.90868 -54.0134 10.5077
  291 4.21288 -39.3867 -39.3686
  292 280.691 135.253 -239.501
  293 69.5441 25.0373 -4.76085
  294 92.6605 37.5001 -0.116696
  295 172.264 32.6678 21.0943
  296 2.64890 -52.9163 30.3190
  297 207.177 16.6991 15.3346
  298 718.273 -7.73543 5.95020
  299 512.703 -21.1740 53.7927
  300 -1.23189 -3.46760 2.37666
  301 329.557 -1.36160 -77.2095
  302 753.684 -11.3379 -2.55729
  303 357.551 15.1459 -139.194
  304 0.773243 5.98505 -0.0232179
  305 478.728 -28.9349 -82.5490
  306 -2.82538 -11.3421 -8.94925
  307 -23.5348 9.78571 -34.2522
  308 533.841 -4.40985 -9.97781
  309 546.252 -7.44314 11.7156
  310 917.252 258.799 -179.549
  311 -14.3238 10.7313 13.3575
  312 -5.41146 15.8827 20.3671
  313 579.793 -6.16725 -15.3580
  314 400.035 -2.21768 -22.3027
  315 595.061 -31.0308 -38.9219
  316 -84.7653 -59.4807 23.3589
  317 580.869 -8.13946 -24.7694
  318 579.749 -10.1710 17.8278
  319 678.437 -2.34706 -4.71270
  320 -96.2878 -0.589551 -3.41652
  321 -63.1358 -2.06532 -1.06910
  322 -20.0011 -14.6074 38.2760
  323 764.517 72.4953 79.9956
  324 590.584 -8.79822 -18.6754
  325 48.0659 -17.9208 -14.4485
  326 617.349 -35.7174 -174.020
  327 -29.8864 -7.17215 43.9029
  328 -16.4328 3.10413 -43.7315
  329 1403.10 236.076 -2.89430
  330 704.683 -5.20807 -11.3934
  331 701.498 -66.8428 42.2985
  332 -5.62995 -18.4896 15.2389
  333 -7.70461 -13.3250 -21.7928
  334 14.5932 19.3979 -29.5791
  335 -13.9181 -4.56793 11.4356
  336 -6.84449 -3.11000 -6.13898
  337 4.18874 -49.0897 -2.16953
  338 609.234 -17.3207 -27.6483
  339 -99.6788 -28.2767 47.0419
  340 659.250 -69.1613 -63.5912
  341 215.079 12.1133 -80.0754
  342 238.168 3.40548 7.85948
  343 758.993 -36.6038 52.2891
  344 57.0779 16.0795 1.26659
  345 445.571 -2.50576 30.9392
  346 261.752 8.35663 16.7099
  347 632.694 -25.9218 21.9782
  348 124.864 21.7914 -18.4266
  349 105.960 19.1137 -34.6270
  350 923.775 -38.9553 -19.8753
  351 301.833 9.24003 -44.1943
  352 5.35507 -99.1060 -13.1557
  353 -47.9751 8.93786 -26.7385
  354 394.042 -4.11072 -10.7086
  355 148.025 17.4547 -15.0416
  356 -0.311657 -17.1537 4.76893
  357 -5.75881 -65.6339 25.0153
  358 31.9029 2.70895 1.56716
  359 59.9480 -0.945859 -5.33663
  360 -31.4405 7.27221 9.07339
  361 -30.8843 -79.6766 48.4025
  362 288.267 -2.65583 -4.37185
  363 288.272 -3.39885 4.20540
  364 -96.9466 1.86758 1.93908
  365 -119.988 2.96756 -8.77901
  366 -49.4375 -5.54109 28.8098
  367 -16.9525 -6.65583 17.5787
  368 267.292 5.11465 -17.9229
  369 3.06981 -62.7857 -28.1203
  370 -29.2833 -3.03788 -37.8981
  371 -37.0082 9.04455 29.4784
  372 5.54069 -15.9669 -45.1045
  373 730.120 -28.3338 4.45058
  374 669.324 -42.9000 -19.2532
  375 76.0314 34.1579 -9.44915
  376 -34.3518 -0.154461 35.1624
  377 -21.2772 -6.65955 -28.5056
  378 -48.9924 -0.529044 19.1949
  379 -31.4724 -2.44883 -15.6769
  380 47.0030 26.5895 -2.78667
  381 55.2617 -1.97084 -3.26482
  382 29.3999 -1.19341 2.81083
  383 11.1995 -8.05504 35.1684
  384 276.553 0.196801 -12.4267
  385 -14.7261 15.1123 20.6462
  386 246.006 35.1179 56.9310
  387 1.16254 -65.1880 -2.72037
  388 13.6444 -125.724 16.9864
  389 461.746 -7.71554 -39.4342
  390 1.75638 1.79981 -2.27158
  391 -30.8788 3.60487 -4.51981
  392 327.796 -2.99299 -6.53346
  393 224.297 -0.428053 -8.25368
  394 -25.6549 12.0089 -21.2288
  395 -0.576148 6.83209 4.60477
  396 -7.76919 -46.0948 27.1787
  397 884.442 215.615 262.486
  398 86.0997 15.7060 -0.614186
  399 -46.1437 -17.0605 12.7554
  400 411.420 -2.36821 -27.8501
  401 0.799047 -26.6039 -8.90961
  402 850.340 -75.8147 46.3804
  403 -103.152 -0.934948 -1.46656
  404 -68.5455 -1.12719 -0.974943
  405 589.224 -6.63261 -2.50711
  406 612.698 -6.47685 3.67298
  407 340.084 1.36944 -54.7219
  408 -41.8042 7.82764 18.4110
  409 760.024 -8.43504 4.35284
  410 -44.3624 4.83078 -34.8116
  411 22.7823 -75.8221 -15.3438
  412 440.881 -10.4463 -50.0262
  413 312.208 1.69716 -18.0049
  414 -11.3346 -34.3120 37.7809
  415 550.018 -7.29423 -25.5171
  416 -4.72582 -32.4468 30.3605
  417 103.145 42.3864 -50.9823
  418 -88.0408 0.932762 6.08728
  419 -95.1301 1.28284 -15.7343
  420 -62.1949 1.84748 17.9001
  421 -44.0166 -0.514347 -17.7926
  422 748.019 -27.3229 -13.8235
  423 -5.08766 -5.72399 6.49159
  424 -8.43353 -15.8689 -39.7811
  425 14.6939 2.98510 -0.0772001
  426 -13.5993 8.76514 -10.7433
  427 27.1042 19.0086 -15.3987
  428 -41.2421 -28.8969 50.9712
  429 4.53850 -0.332790 7.91884
  430 61.1771 10.2862 -0.866248
  431 745.434 -4.92739 4.93295
  432 234.570 49.3105 -131.459
  433 -17.4023 -97.5564 20.8280
  434 123.455 6.59324 -6.48251
  435 0.985192 -45.3125 3.50996
  436 7.89962 8.12118 -42.0685
  437 44.8974 5.47356 -24.7007
  438 4.81523 20.5326 15.7876
  439 984.323 44.3204 -23.8196
  440 186.205 12.3455 -17.6043
  441 -26.6672 -10.0199 43.0319
  442 -10.2514 -16.8059 31.5651
  443 398.078 -2.09802 -33.5530
  444 -26.8514 -0.878335 13.5590
  445 -14.3337 -1.43294 -8.25023
  446 83.2521 1.67109 -22.8971
  447 735.068 -8.91371 -9.03284
  448 182.449 24.5972 17.8720
  449 -5.10827 -11.6634 -45.1878
  450 -0.924254 -5.57550 -3.68787
  451 23.9412 22.5413 10.6452
  452 338.493 13.2793 59.0397
  453 487.995 -5.81151 -5.15368
  454 504.127 -5.74300 7.90248
  455 -30.8803 5.50493 38.6233
  456 724.110 -7.25220 -9.69830
  457 -24.0598 -7.30715 31.7389
  458 -0.882297 -17.5432 -8.03746
  459 -100.293 1.56749 8.52778
  460 -97.3903 0.949684 -15.9568
  461 -127.606 -77.7106 62.2021
  462 757.017 -30.6576 -62.6015
  463 530.512 -9.45127 16.4619
  464 428.633 -2.98201 -17.5114
  465 748.173 -74.3647 6.72354
  466 505.727 -26.3569 -62.7530
  467 399.208 -6.35974 -2.48319
  468 412.123 -5.28116 2.49097
  469 -24.5024 -5.92764 -34.9834
  470 116.600 3.79248 4.20428
  471 150.361 8.38347 -56.7510
  472 17.1219 -33.0700 -33.9344
  473 6.44737 -23.5891 34.4631
  474 712.139 -2.65555 -3.74143
  475 371.299 0.385330 23.6430
  476 210.750 -3.43889 -1.87284
  477 198.179 -1.46315 1.48927
  478 -3.23841 -21.6117 -24.4993
  479 408.997 -3.60682 16.6251
  480 -11.8956 -8.70345 -18.8213
  481 -24.2412 -16.0277 44.1477
  482 595.605 149.316 -300.442
  483 200.882 2.03097 -8.49960
  484 129.293 -3.19598 -4.62264
  485 110.480 0.0325571 3.65223
  486 191.555 16.4881 -42.5122
  487 732.638 -5.86098 -5.22021
  488 -3.12301 -96.3714 -16.1693
  489 469.427 -18.8014 -155.484
  490 193.539 5.30317 -13.3102
  491 511.722 48.2688 -255.699
  492 -2.42634 -25.4268 12.5222
  493 2.85652 -35.3659 -5.45621
  494 448.387 -18.8520 -115.167
  495 144.354 -0.791691 -4.30287
  496 691.344 -7.00551 -84.7575
  497 2.50972 -34.6684 -35.5067
  498 320.581 12.4308 39.6594
  499 32.6605 -5.94273 -29.5222
  500 635.240 -12.7278 14.8421
  501 -6.21310 -10.3208 43.2172
  502 -87.0459 1.42965 11.4292
  503 -72.6957 0.123162 -16.0688
  504 633.635 -4.43032 8.83022
  505 599.376 -3.16998 -8.24114
  506 -25.0673 6.36542 -39.7284
  507 80.7027 1.45616 -3.97484
  508 -11.1046 16.3742 27.9604
  509 -10.2204 13.0391 18.2291
  510 -105.544 0.628510 -0.286845
  511 -134.066 1.45317 -4.76927
  512 285.403 7.87468 -37.2112
  513 66.2517 8.62318 -1.04652
  514 180.008 80.7664 227.561
  515 122.637 8.75129 5.19001
  516 49.0717 27.5459 -20.2860
  517 80.4752 -0.931752 -35.3085
  518 -109.593 1.41391 2.75153
  519 -125.370 1.61548 -9.35399
  520 4.12622 -50.2830 4.68062
  521 42.0164 -9.04549 16.0446
  522 247.447 8.24600 -66.9865
  523 499.014 -19.4127 100.668
  524 79.4744 22.4414 -3.43401
  525 -77.1573 -10.7924 33.9431
  526 48.5001 1.97123 -13.7152
  527 600.077 70.1059 -40.2025
  528 249.582 3.91233 10.0750
  529 10.0563 -1.18689 -42.3525
  530 -1.58302 -37.2256 3.48724
  531 536.073 -6.03332 -9.85896
  532 405.147 -4.88030 -6.97033
  533 429.842 -4.18610 7.91955
  534 201.819 54.3914 80.3657
  535 171.319 12.3073 8.64378
  536 -85.1173 1.94888 -1.72011
  537 -123.744 2.28501 0.754970
  538 98.3116 17.8622 -5.94498
  539 80.9169 98.0118 -108.625
  540 582.334 -16.0176 24.0955
  541 754.267 -18.7788 24.0611
  542 594.413 -36.3221 47.0926
  543 -83.7025 0.560795 0.512941
  544 -123.347 0.660596 -0.927452
  545 54.1582 15.8992 -21.5890
  546 120.742 10.0644 -8.77391
  547 38.4832 -39.9877 -12.5989
  548 9.19059 -30.3141 -41.3232
  549 630.545 -6.40166 -11.4634
  550 703.699 -4.35222 -1.26439
  551 738.124 -4.61793 2.16726
  552 171.571 17.2074 -23.9432
  553 31.4915 8.53251 -32.5446
  554 -110.253 -0.226350 -0.619399
  555 -143.955 0.509789 -2.69535
  556 14.8026 2.07738 -42.1557
  557 9.81538 1.28681 28.2062
  558 47.3663 20.4705 4.98584
  559 551.223 -43.6610 -92.8244
  560 52.7041 24.7680 -19.8413
  561 700.538 -11.5083 76.0537
  562 309.071 -3.20689 7.50824
  563 208.066 72.0592 165.015
  564 47.7332 15.7885 2.29716
  565 108.799 52.2301 76.8433
  566 150.701 18.0192 9.58158
  567 -31.3280 -0.633457 0.803218
  568 -0.883885 -1.87643 -3.69484
  569 478.097 -5.00417 -13.1042
  570 144.495 0.875039 -6.62568
  571 653.388 -11.5704 -17.1818
  572 126.209 53.1010 55.3924
  573 372.669 -3.55636 -9.67014
  574 -49.0797 -83.5966 20.4896
  575 944.533 160.370 -53.1922
  576 46.9606 -0.139262 5.68624
  577 550.695 41.6092 20.8390
  578 507.342 -3.18254 -16.2601
  579 0.308067 -29.6821 -19.5391
  580 769.547 -81.3881 -117.361
  581 -26.4777 7.06586 38.9745
  582 80.9434 34.6434 11.7033
  583 778.206 -72.5202 -20.3978
  584 -9.02671 -6.77882 7.74309
  585 -0.640465 -0.613504 -0.507119
  586 -1.99479 -2.14563 2.14819
  587 6.12861 -1.88716 -1.78988
  588 -24.0391 -1.24250 0.150882
  589 310.867 41.1937 123.338
  590 359.659 46.8039 174.851
  591 -2.94133 -15.4344 -15.4287
  592 680.675 -69.0199 -102.056
  593 320.557 -2.83413 -11.5566
  594 342.929 -3.50274 1.25475
  595 338.605 -4.24954 -2.18023
  596 815.304 -71.3883 39.5848
  597 -35.8686 -2.98914 19.1198
  598 78.0666 3.77017 -4.12734
  599 645.500 1.86403 87.5443
  600 582.576 94.3317 345.017
  601 16.8185 16.2385 -34.9865
  602 -24.0848 -1.24289 -9.65691
  603 -41.3698 -0.129223 13.7743
  604 10.2753 -64.8871 76.3834
  605 1058.97 64.5397 -146.864
  606 386.498 16.6275 105.927
  607 -50.1659 1.84111 1.26737
  608 -77.5531 3.67482 -10.5029
  609 629.671 -4.21761 -3.56213
  610 657.123 -5.19365 3.81996
  611 706.966 -42.6639 208.805
  612 491.159 -4.62786 -23.4149
  613 37.0713 11.6090 -5.34116
  614 -23.6383 -5.46550 22.6096
  615 -89.2024 -122.719 65.6920
  616 640.190 -7.92943 -17.4811
  617 701.595 -26.5890 4.25562
  618 -30.8797 5.78442 36.4504
  619 480.110 -7.14608 15.0207
  620 128.549 28.3215 5.75695
  621 92.5656 75.2471 -105.590
  622 -59.0330 5.29044 19.7033
  623 -52.4774 1.07115 -29.6335
  624 145.222 17.7371 -54.5642
  625 442.601 -7.76134 61.6679
  626 896.417 26.1898 104.931
  627 259.909 8.57272 -25.3007
  628 -90.4415 3.89873 -15.4968
  629 -71.0931 1.73277 4.66430
  630 47.7027 1.68453 -3.43555
  631 -18.0972 -0.596004 -4.27176
  632 -50.9919 -0.282395 4.23342
  633 515.029 -9.14135 26.8327
  634 742.810 -2.56510 0.00413705
  635 707.316 -2.64433 0.785010
  636 2.50730 -43.8169 1.01020
  637 3.57955 -38.5212 -24.9348
  638 157.743 12.7991 -51.2739
  639 -2.83709 -24.2685 -35.1222
  640 -12.6693 -9.99830 -26.0802
  641 27.9353 -97.8810 -6.36548
  642 184.905 47.9479 53.1831
  643 75.5668 -3.49320 -4.00518
  644 51.7109 -2.14383 2.97551
  645 532.013 -4.61232 3.53740
  646 516.122 -4.78405 -2.59892
  647 68.3823 12.3161 -1.05016
  648 -37.8207 6.97658 34.2596
  649 -150.530 -2.43616 -3.04647
  650 -114.044 -2.76795 1.00694
  651 -1.09209 -0.717908 0.551861
  652 -5.24686 -106.281 24.9296
  653 557.807 -16.9154 185.230
  654 609.577 -54.5143 111.629
  655 4.67373 -110.675 6.53197
  656 -8.71171 2.12483 -0.380822
  657 -39.4325 4.38006 -8.68834
  658 298.346 6.36390 -24.9305
  659 -3.41066 -7.68207 6.36316
  660 407.779 -12.8006 -73.8137
  661 -12.3840 -5.01267 -13.3637
  662 688.971 -59.4298 -19.3694
  663 -15.7927 -28.4204 37.5443
  664 954.917 199.789 27.2657
  665 655.469 -3.22009 -5.18166
  666 211.475 7.68028 -16.3050
  667 726.250 -54.5952 -3.43384
  668 -92.7157 0.716346 -13.3582
  669 -103.998 1.36516 8.33001
  670 3.79706 -65.5845 -1.81619
  671 -21.5217 13.7105 27.2801
  672 458.420 -9.03416 43.4938
  673 271.383 -1.15046 -11.2229
  674 684.393 -6.64465 8.45014
  675 261.323 21.2547 -111.279
  676 -40.3509 -0.431366 29.0706
  677 -25.4307 -4.26323 -23.4918
  678 515.048 -22.0048 -49.2853
  679 254.742 16.7113 28.5183
  680 510.890 -24.4529 71.3805
  681 15.2463 -39.2934 16.1710
  682 65.7294 54.0532 -44.0827
  683 294.053 3.23784 11.6657
  684 280.434 3.72359 -84.5941
  685 84.5650 37.9287 3.80548
  686 9.42191 5.10627 -1.51432
  687 127.194 36.6822 9.46240
  688 684.535 -5.90953 4.07307
  689 654.152 -5.92988 -3.44230
  690 1.48162 -39.4307 17.7531
  691 -61.7010 5.55396 -20.0085
  692 -14.3140 -18.3277 27.9002
  693 -4.60411 -1.76943 3.81802
  694 -2.25126 -1.07844 -1.55544
  695 -73.9254 5.91171 -23.4973
  696 -27.1834 -8.15652 39.4669
  697 -2.95473 -39.1872 15.4255
  698 355.534 0.774332 -28.8858
  699 -3.29598 18.2989 22.6221
  700 29.9460 23.5117 -21.4379
  701 379.565 2.23746 37.5589
  702 -0.541491 -10.5812 -4.30031
  703 -2.34059 -113.078 30.2596
  704 240.857 13.6100 -38.1117
  705 335.247 22.5952 79.6097
  706 1212.58 204.466 143.786
  707 -40.8422 2.56699 5.52119
  708 -9.38479 -69.3199 29.3444
  709 1569.24 226.605 174.046
  710 -1.00252 -1.81653 -1.45135
  711 766.437 -10.7699 3.26203
  712 -63.2656 4.63992 9.23221
  713 -10.9979 -2.77041 -45.2233
  714 363.973 -1.48506 12.8467
  715 111.666 -0.921434 -3.10967
  716 -21.4828 -0.984881 -42.8560
  717 -50.2980 4.72125 26.7131
  718 -37.2760 -2.26479 -29.9473
  719 86.1541 2.24330 1.83495
  720 -81.2678 1.05203 11.9094
  721 -61.1821 -0.321897 -13.6199
  722 184.727 0.518163 8.80775
  723 752.730 -19.6194 -38.7416
  724 6.49686 -61.1416 -18.2999
  725 183.499 -2.36667 -4.77533
  726 168.091 -0.710684 4.11321
  727 668.200 -51.0009 35.4333
  728 146.454 -3.31236 -4.19595
  729 128.628 -1.90921 4.01539
  730 676.234 -15.4960 -16.6297
  731 123.028 44.5348 22.3728
  732 191.146 0.500278 4.21729
  733 -63.9804 -0.291242 11.4863
  734 -41.2697 -0.543158 -9.96916
  735 203.640 -0.650415 -4.63703
  736 -3.96367 -6.03724 -7.32013
  737 69.9957 24.5915 -16.3093
  738 14.0929 -58.4726 -25.3695
  739 -14.9164 -11.0567 -34.9031
  740 -141.017 1.09071 -0.192669
  741 -102.044 0.995876 -1.09055
  742 190.992 36.6104 32.9758
  743 -52.4009 -28.1932 47.9016
  744 581.827 11.8644 -78.3036
  745 292.733 -3.97036 -4.99028
  746 5.93414 -45.9408 -15.8743
  747 379.665 -9.92612 -91.9378
  748 762.174 -3.97162 -6.62269
  749 761.813 -2.72602 2.59583
  750 726.185 -3.41100 -2.21815
  751 8.78712 -14.0331 31.7612
  752 242.022 80.8979 -191.448
  753 267.677 -4.37715 -6.96019
  754 727.113 -3.79997 -6.78578
  755 24.0171 5.45569 1.50071
  756 527.855 -4.61124 -2.17258
  757 546.007 -4.61728 3.70127
  758 -4.08879 3.31572 -44.7989
  759 158.459 19.4631 -31.6947
  760 531.355 -11.7587 -34.1322
  761 -5.20509 11.9410 -15.8972
  762 63.0371 -52.4279 -14.6991
  763 777.109 -10.5884 10.0728
  764 21.1562 15.9475 9.37699
  765 268.017 0.465205 7.74822
  766 586.406 -22.3225 -35.4126
  767 -103.935 2.17122 0.247077
  768 -145.287 2.41560 -0.835531
  769 -8.58704 -11.2593 15.5127
  770 24.2121 5.50935 -2.90439
  771 374.590 -2.51875 9.37668
  772 554.695 -17.6698 37.4315
  773 -123.263 0.0530548 -11.0150
  774 -114.550 0.0795335 4.64812
  775 329.253 -1.29385 -66.8326
  776 754.836 -72.1650 57.1641
  777 -50.0091 6.00009 24.8069
  778 -41.3726 -0.748921 -32.7299
  779 252.467 13.1633 -48.3928
  780 542.139 -4.57465 -17.3122
  781 -5.96241 -72.7333 -0.297752
</Section>

newXOutput 42

<Section columns = "stress_xx | stress_yy | stress_xy">
  1 8.99945e-10 6.82121e-12 2.12919e-12
  2 0.00000 0.00000 1.66533e-13
  3 1.36424e-12 -4.54747e-13 -7.49401e-13
  4 0.00000 0.00000 -1.66533e-12
  5 3.41061e-12 4.54747e-13 4.99600e-13
  6 -8.16726e-10 -7.15409e-10 4.85442e-10
  7 2.50111e-11 3.13776e-11 -8.31229e-12
  8 -9.27685e-10 -4.54747e-13 8.40870e-12
  9 9.17074e-10 3.03165e-13 -4.63064e-12
  10 9.36173e-10 -5.76013e-12 -3.07661e-12
  11 9.48603e-10 -1.21266e-12 -1.56104e-11
  12 9.43828e-10 6.36646e-12 -2.25742e-11
  13 9.91349e-10 7.27596e-12 -2.92595e-11
  14 1.03076e-09 1.27329e-11 -5.12873e-11
  15 1.10170e-09 1.81899e-11 -6.21143e-11
  16 1.30664e-09 2.42532e-11 -7.96387e-11
  17 1.52363e-09 3.79714e-11 -1.54787e-10
  18 2.11518e-09 2.57690e-11 -2.26668e-10
  19 2.68543e-09 -9.09495e-12 -4.33590e-10
  20 3.36149e-09 1.09367e-10 -6.47388e-10
  21 4.65843e-09 -1.40365e-10 -5.76874e-10
  22 3.67891e-09 -8.44011e-10 1.28262e-10
  23 6.68175e-10 -2.01392e-09 4.92429e-10
  24 0.00000 0.00000 0.00000
  25 -2.27374e-11 -1.42488e-11 -2.05391e-12
  26 -5.68434e-12 -6.82121e-12 -3.33067e-12
  27 -1.21266e-12 -3.03165e-13 -2.72005e-12
  28 -1.21266e-12 -3.03165e-13 -2.22045e-13
  29 1.21266e-12 3.03165e-13 -2.22045e-13
  30 -3.63798e-12 -9.09495e-13 1.66533e-13
  31 -6.06330e-13 -1.21266e-12 8.88178e-13
  32 -1.51582e-12 -9.09495e-13 9.99201e-13
  33 0.00000 0.00000 1.11022e-13
  34 0.00000 0.00000 5.55112e-14
  35 -1.21266e-12 -3.03165e-13 -5.55112e-14
  36 0.00000 0.00000 -3.33067e-13
  37 -1.21266e-12 -3.03165e-13 -4.71845e-13
  38 -1.81899e-12 -4.54747e-13 6.97359e-13
  39 0.00000 0.00000 8.88178e-13
  40 -1.13687e-12 -1.13687e-12 5.25621e-13
  41 1.81899e-12 -1.21266e-12 5.55112e-14
  42 3.63798e-12 9.09495e-13 -5.55112e-14
  43 -3.03165e-13 -6.06330e-13 -2.22045e-13
  44 9.09495e-13 -3.03165e-13 2.77556e-14
  45 0.00000 0.00000 -4.99600e-13
  46 0.00000 0.00000 -1.11022e-13
  47 0.00000 0.00000 -7.77156e-13
  48 3.41061e-12 4.54747e-13 1.12410e-12
  49 2.12215e-12 0.00000 5.55112e-13
  50 -1.21266e-12 -3.03165e-13 2.22045e-13
  51 0.00000 0.00000 6.66134e-13
  52 -3.03165e-13 -1.21266e-12 -2.22045e-13
  53 3.03165e-13 1.21266e-12 -9.99201e-13
  54 0.00000 0.00000 -3.33067e-13
  55 5.15380e-12 1.51582e-12 -1.33227e-12
  56 -3.03165e-13 -6.06330e-13 7.77156e-13
  57 -9.09495e-13 -2.42532e-12 5.55112e-13
  58 -1.81899e-12 1.36315e-27 -3.74700e-13
  59 -5.00222e-12 1.13687e-12 -1.16573e-12
  60 -4.54747e-12 9.09495e-13 -1.77636e-12
  61 -3.03165e-13 -1.21266e-12 -1.11022e-12
  62 -7.57912e-12 -2.12215e-12 2.88658e-12
  63 -5.15380e-12 -1.81899e-12 -1.99840e-12
  64 0.00000 0.00000 6.66134e-13
  65 7.27596e-12 1.51582e-12 -1.11022e-13
  66 -2.72848e-12 -1.51582e-12 2.22045e-13
  67 -1.42488e-11 -4.85064e-12 -9.43690e-13
  68 -5.15380e-12 -1.81899e-12 1.38778e-12
  69 6.06330e-12 1.21266e-12 -1.99840e-12
  70 7.27596e-12 1.51582e-12 1.11022e-12
  71 4.15336e-11 5.24475e-11 -1.39020e-11
  72 5.63887e-11 6.60899e-11 -1.97851e-11
  73 3.60766e-11 5.54792e-11 -1.65045e-12
  74 -6.06330e-12 5.33570e-11 2.48164e-11
  75 -1.49460e-10 4.33526e-11 7.33835e-11
  76 -3.71377e-10 1.15203e-11 1.59794e-10
  77 -8.10057e-10 -1.40062e-10 3.76388e-10
  78 -2.37681e-10 -7.81862e-10 3.73266e-10
  79 -5.54792e-11 -3.05893e-10 1.43488e-10
  80 -1.88720e-11 -1.58025e-10 8.08864e-11
  81 3.94114e-12 -3.36513e-11 3.63982e-11
  82 5.22959e-12 1.34150e-11 2.28535e-11
  83 5.45697e-12 5.13865e-11 4.76483e-12
  84 1.60677e-11 3.81988e-11 -6.05459e-12
  85 3.00133e-11 2.03120e-11 -7.51920e-12
  86 2.51627e-11 1.24298e-11 -2.54901e-12
  87 -6.66963e-12 1.57646e-11 1.53299e-11
  88 -6.48773e-11 2.00089e-11 2.89015e-11
  89 -1.47338e-10 1.97815e-11 4.60273e-11
  90 -2.54204e-10 2.97860e-11 4.87157e-11
  91 -3.59250e-10 3.00133e-11 4.24469e-11
  92 -4.77788e-10 2.60722e-11 4.09502e-11
  93 -5.62068e-10 2.51627e-11 4.54083e-11
  94 -6.52335e-10 2.02363e-11 4.74304e-11
  95 -7.39419e-10 2.18279e-11 3.83766e-11
  96 -7.97021e-10 2.06152e-11 3.53284e-11
  97 -8.47043e-10 1.84931e-11 2.34183e-11
  98 -8.97671e-10 1.42488e-11 1.61502e-11
  99 -9.35870e-10 1.12171e-11 1.43442e-11
  100 -9.31550e-10 7.04858e-12 1.82542e-11
  101 -9.48603e-10 7.27596e-12 1.48597e-11
  102 -9.68612e-10 1.06108e-11 2.05886e-12
  103 -9.74675e-10 9.70128e-12 7.40870e-12
  104 -8.01265e-10 3.63798e-12 6.58482e-12
  105 -6.34827e-10 6.36646e-12 3.88179e-12
  106 -4.73240e-10 1.39456e-11 8.06868e-12
  107 -2.99224e-10 2.03120e-11 1.07010e-11
  108 -1.04365e-10 2.91038e-11 7.85861e-12
  109 9.12526e-11 2.51627e-11 8.08649e-12
  110 2.82625e-10 2.41016e-11 5.63091e-12
  111 4.75666e-10 1.12171e-11 3.65722e-12
  112 6.28158e-10 6.06330e-12 1.28622e-12
  113 7.86107e-10 3.94114e-12 2.91094e-12
  114 -3.58492e-10 2.28435e-10 1.42052e-10
  115 -4.54747e-13 -5.04871e-29 -1.52656e-13
  116 -2.54113e-10 -2.10839e-09 6.48283e-10
  117 -4.58537e-10 8.41283e-11 3.09204e-10
  118 -4.09273e-12 -1.81899e-12 3.05311e-13
  119 -5.95264e-10 1.83566e-10 4.85201e-10
  120 2.00089e-12 1.81899e-13 4.55885e-13
  121 -2.58145e-10 7.68523e-11 2.96808e-11
  122 -2.12215e-12 -6.06330e-13 9.54098e-14
  123 -6.09361e-11 -5.03102e-10 4.98791e-10
  124 2.51021e-10 1.21327e-10 -6.11370e-11
  125 -1.09139e-12 -3.63798e-13 2.16493e-13
  126 3.27418e-12 5.45697e-13 2.08167e-12
  127 -2.12215e-12 -9.09495e-13 1.45717e-13
  128 -5.04120e-10 9.51072e-11 1.83778e-10
  129 1.47944e-10 3.30904e-10 -1.95230e-10
  130 1.39456e-11 6.36646e-12 3.21973e-11
  131 -2.50869e-10 -5.48728e-11 2.61382e-10
  132 -3.48640e-12 -1.51582e-12 -3.42781e-12
  133 -4.53838e-10 -7.57912e-12 3.55483e-10
  134 -2.14944e-10 -3.50610e-10 4.74887e-10
  135 -6.58323e-10 6.77725e-10 -4.84357e-10
  136 1.90448e-10 4.80213e-11 -1.44704e-11
  137 -1.03942e-12 -2.59856e-13 7.55348e-13
  138 -9.09495e-13 -7.79567e-13 -1.84376e-12
  139 -5.62613e-10 5.52973e-11 7.86973e-11
  140 -2.72848e-12 -1.06108e-12 -3.19189e-13
  141 -4.59035e-10 -1.10569e-10 3.69090e-10
  142 -3.58601e-11 -1.44740e-10 1.99441e-10
  143 -1.44355e-09 -3.13230e-10 5.35447e-10
  144 -5.52063e-10 2.37984e-11 2.20898e-11
  145 -1.97057e-12 -7.57912e-13 -2.91434e-13
  146 -9.09495e-13 -5.45697e-13 -2.16493e-13
  147 -3.60524e-10 1.40426e-10 1.04958e-10
  148 -4.19797e-10 5.35303e-11 2.20654e-10
  149 5.19711e-13 -7.79567e-13 9.04039e-13
  150 -9.78616e-10 -5.00222e-11 8.48937e-10
  151 -2.42532e-12 -6.06330e-13 2.96985e-12
  152 -5.00222e-12 -1.36424e-12 -5.27356e-13
  153 -4.33677e-10 2.57084e-10 2.26040e-10
  154 -5.91172e-12 -1.66741e-12 9.15934e-13
  155 -6.06330e-13 -1.51582e-13 3.88578e-13
  156 7.57912e-13 7.57912e-13 -4.16334e-13
  157 -1.29928e-13 -1.29928e-13 1.99840e-12
  158 -6.51198e-11 -2.98314e-11 8.01496e-11
  159 -8.69347e-10 -1.60071e-09 1.18277e-10
  160 -1.64359e-10 5.62328e-10 -2.70290e-10
  161 6.14818e-10 3.30450e-11 -4.34697e-11
  162 0.00000 0.00000 3.56857e-14
  163 -6.95763e-11 1.88569e-10 3.48139e-12
  164 4.54747e-13 -4.54747e-13 4.71845e-13
  165 2.62238e-11 2.83459e-11 -3.48742e-12
  166 7.27596e-13 1.81899e-13 -1.38223e-12
  167 -2.59856e-13 -2.59856e-13 4.87705e-13
  168 -1.92358e-10 3.19839e-11 8.54174e-12
  169 2.72848e-12 -1.51582e-13 -1.73472e-13
  170 6.76144e-10 1.09139e-10 -1.58992e-10
  171 -4.52928e-10 1.66957e-10 2.29340e-10
  172 -4.69868e-10 1.49271e-10 2.84970e-10
  173 -3.89112e-10 -2.30708e-10 6.61029e-10
  174 1.83415e-11 1.10200e-10 -4.70668e-12
  175 -4.52360e-10 -2.52726e-10 3.29052e-10
  176 -2.60873e-10 1.30361e-11 1.66737e-10
  177 -1.66741e-12 -1.36424e-12 1.43635e-12
  178 3.40411e-11 4.41755e-11 2.89011e-11
  179 1.21266e-12 3.03165e-13 -1.13798e-12
  180 -2.05156e-10 -1.69296e-10 3.37053e-10
  181 5.14016e-10 2.21310e-11 -1.70321e-11
  182 -6.06330e-13 -1.06108e-12 -4.85723e-13
  183 -6.22614e-10 4.26163e-11 9.81909e-11
  184 -1.16935e-12 -7.79567e-13 1.13005e-13
  185 -5.40110e-10 4.26163e-11 1.38544e-10
  186 7.79567e-13 1.29928e-13 -1.90324e-13
  187 -1.71115e-10 -2.19318e-10 2.72896e-10
  188 8.08882e-10 2.70006e-10 -3.91392e-10
  189 -1.86966e-10 3.14555e-10 1.81778e-11
  190 -6.68630e-10 2.57690e-11 3.97929e-11
  191 1.81899e-12 4.54747e-13 -1.07553e-12
  192 1.63709e-12 -9.09495e-13 -3.99680e-13
  193 -3.63798e-12 -1.97057e-12 1.48492e-12
  194 1.91773e-10 2.33220e-10 -1.19721e-10
  195 9.85286e-10 4.79455e-10 -7.16204e-10
  196 -4.86883e-10 3.48640e-11 3.34858e-10
  197 0.00000 0.00000 -6.63160e-13
  198 7.79567e-13 1.29928e-13 5.94762e-15
  199 -1.09139e-12 -9.50786e-10 3.56136e-10
  200 -2.62996e-10 4.16094e-10 8.33024e-13
  201 -4.65297e-10 9.60426e-11 2.52374e-10
  202 -3.65227e-10 2.44264e-11 2.75504e-10
  203 -2.07885e-12 -1.29928e-12 -2.34931e-13
  204 -9.05554e-10 5.50851e-10 1.82681e-10
  205 3.78956e-12 2.27374e-12 7.97973e-13
  206 -2.13489e-09 1.30816e-10 4.94338e-10
  207 0.00000 2.59856e-13 3.97004e-13
  208 7.23048e-10 4.89106e-11 -7.40864e-11
  209 -3.89783e-13 6.49639e-13 -4.99600e-13
  210 3.03165e-12 1.21266e-12 -8.79505e-13
  211 -3.55093e-10 -3.79259e-10 4.32370e-10
  212 -3.62130e-10 -1.59768e-10 4.84398e-10
  213 -4.92643e-10 9.18590e-11 1.20013e-10
  214 1.66741e-12 1.51582e-13 2.48065e-13
  215 -1.46429e-10 -7.79567e-12 1.09985e-10
  216 -8.86757e-12 -3.18323e-12 -3.74700e-13
  217 -3.89783e-12 -1.55913e-12 5.82867e-13
  218 -5.24908e-11 6.30150e-11 1.21187e-12
  219 2.60722e-11 3.56219e-11 1.57442e-12
  220 -6.06330e-13 -1.51582e-13 -2.77556e-14
  221 -4.35800e-10 1.48702e-10 1.66995e-10
  222 -2.09002e-10 1.25328e-10 3.82285e-11
  223 3.18323e-12 0.00000 3.60822e-13
  224 4.75969e-11 -4.02300e-10 1.49192e-10
  225 -1.18962e-10 -3.36331e-10 4.54957e-10
  226 -4.69663e-10 1.07320e-10 3.88676e-10
  227 2.71939e-10 7.76708e-11 -3.03016e-11
  228 -4.01845e-10 -1.24298e-11 3.38117e-10
  229 9.09495e-13 9.09495e-13 8.49321e-13
  230 -6.06330e-13 -4.54747e-13 -9.71445e-14
  231 2.57690e-12 3.03165e-13 2.53964e-12
  232 -2.19764e-09 -6.77119e-10 1.13326e-10
  233 -1.21266e-12 -3.03165e-13 3.88578e-13
  234 1.32903e-09 2.03467e-10 -8.36484e-10
  235 -4.73665e-10 5.51154e-11 4.69088e-11
  236 5.30539e-12 9.09495e-13 5.55112e-13
  237 -7.29263e-10 2.24342e-11 5.07090e-11
  238 -3.03165e-13 -9.09495e-13 1.45717e-13
  239 -7.69281e-10 9.24653e-12 7.85949e-12
  240 -6.06330e-13 -7.57912e-13 -3.60822e-13
  241 -1.36424e-12 1.36424e-12 -1.33227e-12
  242 1.81899e-12 4.54747e-13 7.00828e-13
  243 -3.99117e-10 8.82210e-11 7.22772e-11
  244 -2.54659e-12 -9.09495e-13 -1.66533e-12
  245 -3.91083e-11 -1.03531e-10 1.00176e-10
  246 -6.41194e-11 -3.10744e-11 1.17077e-10
  247 -4.33101e-10 -1.82445e-09 1.51678e-09
  248 1.81899e-12 -1.81899e-13 -6.66134e-13
  249 -4.94614e-10 -2.93312e-10 4.03025e-10
  250 2.27374e-12 4.54747e-13 1.66533e-13
  251 -6.32619e-10 3.37812e-11 9.38456e-11
  252 -6.49639e-13 -3.89783e-13 1.13005e-13
  253 1.21266e-12 3.03165e-13 1.42941e-12
  254 3.03165e-12 7.57912e-13 1.41553e-12
  255 -4.15639e-10 2.01605e-11 1.33237e-11
  256 1.06108e-12 0.00000 8.91214e-13
  257 -1.51582e-12 -4.54747e-13 3.05311e-13
  258 7.57609e-10 1.09139e-11 -1.85637e-11
  259 7.27596e-13 1.81899e-13 -1.48215e-12
  260 -9.09495e-13 -1.06108e-12 -1.32359e-12
  261 -2.63753e-10 1.92449e-10 7.67760e-11
  262 -3.55794e-10 4.43833e-11 2.19637e-11
  263 7.27596e-13 1.81899e-13 9.99201e-13
  264 -6.06330e-13 -1.51582e-13 2.22045e-13
  265 0.00000 8.73115e-12 9.89774e-12
  266 -3.56067e-10 3.44092e-11 1.33069e-10
  267 -1.81899e-12 -1.51582e-12 1.80411e-12
  268 2.72848e-12 3.63798e-13 6.32827e-13
  269 -7.80892e-10 5.27507e-12 1.86932e-11
  270 1.04119e-09 1.26965e-10 -2.26824e-10
  271 -2.73212e-10 -5.82986e-10 8.07849e-10
  272 2.88007e-12 1.51582e-13 -5.27356e-13
  273 5.01738e-11 6.06330e-13 1.12697e-11
  274 2.42532e-12 6.06330e-13 -4.44089e-13
  275 -4.64752e-10 1.65073e-10 2.98967e-10
  276 5.60855e-12 1.51582e-12 8.46545e-13
  277 -4.88550e-10 3.48640e-11 1.23613e-10
  278 -4.16730e-10 2.35923e-10 2.09856e-10
  279 -6.06330e-12 -1.36424e-12 1.12410e-12
  280 2.96798e-10 2.68301e-11 -7.97307e-12
  281 6.06330e-13 1.51582e-13 4.92661e-13
  282 1.45519e-12 3.63798e-13 -1.70697e-13
  283 7.24867e-10 3.09228e-12 -3.66054e-12
  284 4.18368e-12 9.09495e-13 1.79856e-12
  285 -1.45519e-12 -3.63798e-13 1.99840e-13
  286 -1.87659e-10 2.58448e-10 3.16859e-11
  287 -2.45564e-10 -3.50004e-10 5.95636e-10
  288 -8.94336e-12 -5.30539e-12 1.94289e-13
  289 0.00000 1.27329e-12 -9.32587e-13
  290 1.42921e-12 1.42921e-12 -2.21549e-13
  291 1.68906e-12 1.42921e-12 -4.57967e-13
  292 -6.86850e-10 -1.14105e-09 1.20102e-09
  293 -4.68650e-10 1.33176e-10 2.76659e-10
  294 6.49639e-13 6.49639e-13 2.37905e-13
  295 7.27596e-13 1.81899e-13 5.41234e-13
  296 1.90994e-11 -1.98497e-10 1.53648e-10
  297 -1.45519e-12 -3.63798e-13 1.49880e-13
  298 -1.93268e-12 -6.82121e-13 -8.11851e-13
  299 0.00000 0.00000 -6.32827e-13
  300 1.80600e-11 4.87229e-11 -5.92450e-13
  301 -4.85306e-10 3.19960e-10 2.42031e-10
  302 1.51582e-13 6.06330e-13 -8.70831e-13
  303 -7.54123e-10 8.53409e-11 6.59396e-10
  304 -4.94895e-10 -7.12004e-11 3.43421e-10
  305 -4.71421e-10 5.12046e-10 4.55049e-11
  306 -1.66741e-12 -1.51582e-12 3.27516e-12
  307 2.59856e-12 6.49639e-13 -4.69862e-13
  308 4.36739e-10 3.89264e-11 -2.81703e-11
  309 -1.03942e-12 -2.59856e-13 -2.49800e-13
  310 -2.94728e-09 -2.46031e-09 6.27266e-10
  311 -5.03708e-10 7.13953e-11 1.91791e-10
  312 -4.43833e-10 7.44270e-11 2.62493e-10
  313 5.39330e-10 5.97235e-11 -6.51900e-11
  314 8.05552e-11 1.48767e-10 -3.45279e-11
  315 1.89630e-10 4.43076e-10 -3.18159e-10
  316 -6.20124e-10 -3.75470e-10 3.41078e-10
  317 4.73847e-10 2.08274e-10 -1.91803e-10
  318 7.27596e-13 1.81899e-13 -2.45637e-13
  319 7.79827e-10 2.23476e-11 -2.95510e-11
  320 -7.57912e-13 -7.57912e-13 2.77556e-14
  321 -7.67765e-10 1.40972e-11 3.26924e-11
  322 -1.26238e-10 -8.11269e-11 1.88647e-10
  323 1.14846e-09 -6.26642e-10 1.06185e-10
  324 5.59036e-10 1.09291e-10 -1.16671e-10
  325 -3.10657e-10 -2.99224e-10 4.29924e-10
  326 -1.38555e-09 3.46388e-10 4.94524e-10
  327 -3.11957e-10 -9.87939e-11 3.33342e-10
  328 -1.36424e-12 -9.09495e-13 6.93889e-14
  329 -3.33837e-09 -1.93501e-09 1.17163e-09
  330 8.92604e-10 3.79389e-11 -9.25263e-11
  331 -1.36424e-12 -1.51582e-12 1.04083e-13
  332 -1.37940e-11 -3.72893e-11 4.92361e-11
  333 -5.30539e-12 -2.57690e-12 -5.62050e-13
  334 3.89783e-12 1.55913e-12 1.04678e-12
  335 -2.08047e-11 7.95808e-13 2.68535e-11
  336 -1.47793e-12 -4.54747e-13 -1.45717e-13
  337 3.76791e-12 1.29928e-12 1.18952e-13
  338 5.33484e-10 2.59076e-10 -2.79575e-10
  339 -4.49139e-10 -1.28390e-10 3.34246e-10
  340 -4.03686e-10 6.63801e-10 -3.19008e-10
  341 -4.58272e-10 5.79803e-12 5.23442e-10
  342 2.72848e-12 0.00000 -8.32667e-14
  343 1.60617e-09 3.68475e-10 -8.94741e-10
  344 -4.74453e-10 1.28390e-10 2.16166e-10
  345 -1.51582e-12 -4.54747e-13 5.82867e-13
  346 -1.13687e-12 -3.41061e-13 -6.08888e-13
  347 6.06330e-13 1.51582e-13 7.91034e-13
  348 -4.57112e-10 1.79898e-10 2.50459e-10
  349 -4.75666e-10 8.23093e-11 3.23492e-10
  350 -1.03353e-09 9.42464e-11 -4.98855e-10
  351 -3.19051e-10 2.99406e-10 1.08173e-10
  352 -1.68906e-12 -5.19711e-13 -7.96982e-13
  353 -6.49639e-13 -3.89783e-13 -2.08762e-12
  354 1.12777e-10 7.43512e-11 -1.18399e-11
  355 -4.13062e-10 1.85385e-10 1.79280e-10
  356 1.75836e-11 4.88095e-11 1.92767e-11
  357 9.51072e-11 -3.24820e-10 5.52624e-11
  358 -1.03942e-12 -2.59856e-13 -3.56857e-13
  359 -5.47516e-10 3.15725e-11 2.88177e-11
  360 -5.58820e-10 5.72982e-11 1.47198e-10
  361 -1.96321e-10 -3.87185e-10 3.05060e-10
  362 -9.03431e-11 3.56219e-11 -9.09093e-13
  363 4.54747e-13 -1.51582e-13 2.67147e-13
  364 -7.45916e-10 2.45564e-11 5.16652e-11
  365 -1.16935e-12 -7.79567e-13 8.44563e-13
  366 -1.20703e-10 -1.29928e-13 1.25364e-10
  367 1.28629e-11 4.37857e-11 1.71312e-11
  368 -2.04506e-10 1.65788e-10 4.92861e-11
  369 -1.51582e-13 -3.03165e-13 -4.30211e-13
  370 -9.09495e-13 -1.36424e-12 1.36349e-12
  371 -3.72590e-10 2.94070e-11 2.26040e-10
  372 2.85841e-12 1.55913e-12 1.16573e-12
  373 1.30831e-09 2.57084e-10 -5.40855e-10
  374 5.35086e-10 4.90521e-10 -5.25961e-10
  375 -2.54659e-12 -7.27596e-13 -5.45261e-28
  376 -2.28511e-10 -1.96678e-11 1.96245e-10
  377 -3.03165e-13 -9.09495e-13 -3.33067e-13
  378 -1.94502e-10 1.72804e-11 9.04400e-11
  379 -7.27596e-12 -1.81899e-12 1.03786e-12
  380 -4.77333e-10 9.92865e-11 3.14545e-10
  381 -5.72982e-10 1.23919e-11 1.94086e-12
  382 1.93268e-12 -1.13687e-13 1.24900e-13
  383 -4.72937e-11 -3.45738e-10 3.65404e-10
  384 -1.42921e-10 1.00044e-10 1.98848e-11
  385 -4.61872e-10 -1.28845e-11 3.47104e-10
  386 -5.32704e-12 -1.81899e-12 -2.97381e-14
  387 2.42532e-12 6.06330e-13 2.49800e-13
  388 1.97057e-12 9.09495e-13 -2.86229e-13
  389 4.97190e-11 3.07561e-10 -9.88239e-11
  390 -6.34438e-10 3.71594e-11 5.42613e-11
  391 3.37812e-12 1.42921e-12 -6.12605e-13
  392 -1.31877e-11 4.75969e-11 5.78959e-13
  393 -2.29972e-10 5.95069e-11 1.72488e-11
  394 -3.33481e-12 -1.36424e-12 1.31839e-13
  395 -5.57066e-10 6.86668e-11 1.39543e-10
  396 -4.33526e-11 -1.76594e-10 1.33799e-10
  397 1.29928e-13 5.19711e-13 -5.70972e-13
  398 -6.49639e-13 -1.29928e-13 1.31442e-12
  399 -5.42423e-10 -1.92631e-10 3.38107e-10
  400 4.94159e-11 2.09942e-10 -4.53256e-11
  401 -1.29928e-13 -2.59856e-13 -1.02299e-12
  402 1.16935e-12 6.49639e-13 6.89924e-13
  403 3.50805e-12 6.49639e-13 1.07652e-12
  404 -8.00355e-10 1.06541e-11 2.03814e-11
  405 5.66047e-10 1.06866e-11 -6.75462e-12
  406 1.13687e-13 -2.27374e-13 -1.06685e-13
  407 -3.16894e-10 3.40151e-10 9.06118e-11
  408 -4.72482e-10 5.53276e-11 1.84208e-10
  409 -7.27596e-13 -1.81899e-13 -1.03251e-12
  410 1.21266e-12 3.03165e-13 1.05471e-12
  411 -4.69906e-12 -1.51582e-12 2.63678e-13
  412 -1.05653e-10 3.69861e-10 -6.78615e-11
  413 -9.39811e-11 1.42791e-10 1.06556e-11
  414 -2.45867e-10 -3.20900e-10 4.49085e-10
  415 4.11455e-10 1.69530e-10 -1.48359e-10
  416 5.45697e-12 -8.27640e-11 1.03204e-10
  417 -2.22177e-10 -4.55397e-10 6.65897e-10
  418 -6.09816e-10 2.83459e-11 8.10975e-11
  419 -2.12215e-12 -6.06330e-13 1.16573e-12
  420 -2.76746e-10 3.01433e-11 9.83114e-11
  421 -1.42921e-12 -6.49639e-13 1.51367e-12
  422 -3.41061e-13 3.41061e-13 -1.42594e-12
  423 4.77485e-11 8.03387e-11 -1.05685e-11
  424 -1.36424e-12 -6.06330e-13 -1.29063e-12
  425 -5.77139e-10 5.75580e-11 9.42380e-11
  426 -5.19711e-13 -1.29928e-13 -9.63515e-13
  427 -2.59856e-12 -1.03942e-12 1.17614e-12
  428 -3.25417e-10 -2.05546e-10 3.71622e-10
  429 -7.01610e-12 -6.82251e-10 3.94259e-10
  430 -4.89958e-10 1.05891e-10 1.52219e-10
  431 -9.09495e-13 -7.57912e-13 -2.77556e-14
  432 -5.25818e-10 -2.97665e-10 8.18961e-10
  433 2.37984e-11 -4.70209e-10 1.19660e-10
  434 -4.19883e-10 1.09443e-10 1.02520e-10
  435 -3.40515e-10 -3.86717e-10 3.79596e-10
  436 -2.12215e-12 -4.54747e-13 -5.13478e-13
  437 -4.64024e-10 -8.44011e-11 3.40732e-10
  438 -4.54141e-10 4.74453e-11 3.31883e-10
  439 -2.33870e-12 1.55913e-12 1.66533e-13
  440 -3.54362e-10 1.82695e-10 1.22942e-10
  441 -1.08594e-10 -1.09685e-10 2.28950e-10
  442 -5.82077e-12 -3.11047e-11 8.31028e-11
  443 -4.10788e-11 2.67695e-10 -3.56515e-11
  444 -6.06330e-11 1.30361e-11 4.30787e-11
  445 -3.94114e-12 -1.51582e-12 -2.16493e-12
  446 -2.61025e-10 -3.11502e-10 5.24441e-10
  447 1.19856e-09 1.15506e-10 -2.61884e-10
  448 0.00000 0.00000 8.92144e-14
  449 -3.18323e-12 -6.06330e-13 7.49401e-13
  450 2.07885e-12 3.89783e-13 1.26090e-12
  451 -4.60356e-10 9.73159e-11 2.79246e-10
  452 2.59856e-13 -3.89783e-13 5.53129e-13
  453 3.35084e-10 3.23520e-11 -1.13302e-11
  454 -6.06330e-13 -1.51582e-13 2.77556e-13
  455 -3.01588e-10 -9.27685e-12 2.60855e-10
  456 1.01292e-09 5.34003e-11 -1.37732e-10
  457 -1.27589e-10 -3.70294e-11 1.41818e-10
  458 -6.49639e-12 -3.11827e-12 1.42743e-13
  459 -5.62522e-10 2.63753e-11 7.68663e-11
  460 3.94114e-12 1.21266e-12 2.77556e-13
  461 -6.85577e-10 -4.04361e-10 4.60928e-10
  462 -3.03165e-13 -2.27374e-12 -7.21645e-13
  463 6.06330e-13 1.51582e-13 4.16334e-13
  464 1.69166e-10 1.05350e-10 -3.54208e-11
  465 3.04984e-10 6.53472e-10 -7.79535e-10
  466 -2.17976e-10 4.83700e-10 -1.07263e-10
  467 1.46732e-10 2.63753e-11 -2.23582e-12
  468 -6.06330e-13 -1.51582e-13 1.59595e-13
  469 1.51582e-13 -7.57912e-13 4.37150e-13
  470 -2.59856e-12 -6.49639e-13 1.47501e-12
  471 -4.35193e-10 -1.54614e-11 4.14451e-10
  472 5.60855e-12 6.06330e-13 6.66134e-13
  473 3.27418e-12 -4.57840e-10 3.19672e-10
  474 8.47497e-10 6.36646e-12 -1.55806e-11
  475 -7.79567e-13 -2.59856e-13 -5.94762e-13
  476 -2.51930e-10 2.58556e-11 4.78798e-12
  477 1.16935e-12 -6.49639e-13 5.70972e-13
  478 -1.55913e-12 -7.79567e-13 -1.83782e-12
  479 9.09495e-13 6.06330e-13 -3.88578e-13
  480 -3.45608e-12 -1.63709e-12 2.43139e-12
  481 -1.85689e-10 -1.11413e-10 2.51972e-10
  482 -1.95061e-09 -1.36203e-09 1.28587e-09
  483 -2.87855e-10 9.62549e-11 5.16655e-11
  484 -4.16679e-10 2.76746e-11 1.41955e-11
  485 5.19711e-13 1.29928e-13 1.16834e-12
  486 -4.41863e-10 2.11458e-10 2.47876e-10
  487 9.38417e-10 1.21872e-11 -4.21872e-11
  488 -1.36424e-12 -9.09495e-13 -1.98452e-12
  489 -9.39144e-10 3.35967e-10 5.44930e-10
  490 -3.11697e-10 1.29538e-10 6.99320e-11
  491 -1.47156e-09 -4.14275e-10 1.14139e-09
  492 7.27596e-13 -3.51065e-11 4.36867e-11
  493 -1.51582e-13 -3.03165e-13 -4.44089e-13
  494 -6.96153e-10 4.09532e-10 3.27690e-10
  495 -3.85236e-10 5.08018e-11 3.61568e-11
  496 -1.90994e-11 -1.48551e-11 -1.16573e-12
  497 5.00222e-12 1.06108e-12 9.08995e-13
  498 1.66741e-12 1.51582e-13 -1.06859e-12
  499 2.27374e-12 3.03165e-13 4.05231e-12
  500 0.00000 0.00000 -5.95357e-13
  501 -1.17628e-10 -2.48595e-10 3.48127e-10
  502 -4.22006e-10 2.80644e-11 8.23144e-11
  503 6.49639e-13 -7.79567e-13 9.15934e-13
  504 4.54747e-13 -4.54747e-13 5.68989e-13
  505 5.88313e-10 2.94936e-11 -2.73121e-11
  506 -7.27596e-13 -1.81899e-13 1.08247e-12
  507 -4.93856e-10 5.96369e-11 6.52707e-11
  508 -4.13972e-10 3.10744e-11 3.16261e-10
  509 -4.65510e-10 7.56396e-11 2.28095e-10
  510 -8.05054e-10 1.78867e-11 3.38666e-11
  511 -1.36424e-12 -6.06330e-13 1.16573e-12
  512 -2.85127e-10 2.73909e-10 9.00529e-11
  513 -1.81899e-12 -5.19711e-13 4.93653e-13
  514 2.27374e-12 1.51582e-13 1.30451e-12
  515 -6.06330e-13 -1.51582e-13 1.99146e-12
  516 -9.09495e-13 -5.45697e-13 6.66134e-13
  517 -4.10788e-10 -1.42488e-10 3.85829e-10
  518 -7.21987e-10 2.16763e-11 5.01169e-11
  519 2.42532e-12 6.06330e-13 6.03684e-13
  520 2.53143e-11 -8.74631e-11 3.54383e-11
  521 4.54747e-13 -1.51582e-13 -1.38778e-13
  522 -4.69039e-10 2.05546e-10 2.96304e-10
  523 -3.03165e-13 -1.51582e-13 2.91434e-13
  524 4.54747e-13 -7.57912e-13 8.03177e-13
  525 -2.82247e-10 -4.01693e-11 2.18080e-10
  526 -6.06330e-13 -1.51582e-13 2.60902e-12
  527 -5.64666e-10 -1.33358e-09 6.43786e-10
  528 1.06108e-12 0.00000 -4.07660e-13
  529 5.48728e-11 -5.14774e-10 4.67851e-11
  530 1.66741e-12 1.51582e-13 7.99708e-13
  531 4.35908e-10 5.10616e-11 -3.56415e-11
  532 1.54614e-10 3.83287e-11 -8.61427e-12
  533 0.00000 0.00000 7.42462e-13
  534 4.54747e-13 0.00000 -5.55112e-13
  535 -9.09495e-13 -3.03165e-13 6.78277e-13
  536 -8.58173e-10 9.61466e-12 6.72256e-12
  537 5.19711e-13 1.29928e-13 -1.18952e-13
  538 -4.50746e-10 1.51704e-10 1.97230e-10
  539 -4.01477e-11 -1.28512e-09 5.87036e-10
  540 2.59856e-13 0.00000 -3.27119e-14
  541 2.08153e-09 1.58404e-10 -6.05933e-10
  542 -5.19711e-13 -1.29928e-13 1.98651e-12
  543 -8.65991e-10 4.39589e-12 4.42477e-12
  544 1.51582e-13 -3.03165e-13 -2.91434e-13
  545 -4.85215e-10 1.01560e-11 3.33076e-10
  546 -4.24582e-10 1.32180e-10 1.29847e-10
  547 -2.46863e-12 -9.09495e-13 5.94762e-14
  548 4.54747e-12 1.81899e-13 -1.26565e-12
  549 6.70070e-10 3.84262e-11 -5.68171e-11
  550 8.24002e-10 3.89783e-13 -4.89948e-12
  551 -2.59856e-13 -1.29928e-13 2.61695e-13
  552 -4.17848e-10 2.10873e-10 2.05056e-10
  553 -2.27374e-12 -9.09495e-13 2.22045e-12
  554 -8.47952e-10 1.22782e-11 2.36594e-11
  555 -9.09495e-13 -1.06108e-12 5.20417e-13
  556 -7.57912e-13 3.03165e-13 1.66533e-13
  557 6.06330e-13 1.51582e-13 -2.77556e-14
  558 -4.71118e-10 1.20660e-10 2.51602e-10
  559 -5.36602e-10 5.69526e-10 -7.29925e-12
  560 -2.72848e-12 -9.09495e-13 1.48492e-12
  561 3.20615e-09 1.47884e-10 -8.37004e-10
  562 -4.54747e-13 -4.54747e-13 -1.16573e-12
  563 4.85064e-12 1.06108e-12 1.44329e-12
  564 -1.26723e-10 -4.18216e-10 5.39772e-10
  565 1.81899e-12 4.54747e-13 -1.11022e-13
  566 0.00000 0.00000 2.56739e-13
  567 2.27374e-12 3.03165e-13 2.22045e-13
  568 -6.72723e-10 1.53098e-11 1.93824e-11
  569 3.07409e-10 5.65403e-11 -3.06867e-11
  570 -3.84262e-10 7.13953e-11 5.18199e-11
  571 7.48666e-10 1.49157e-10 -2.20953e-10
  572 -6.06330e-13 -1.51582e-13 -8.32667e-13
  573 7.73070e-11 5.43878e-11 -8.64958e-12
  574 -4.72028e-10 -4.93249e-10 3.54824e-10
  575 -7.62286e-10 -9.77837e-10 1.23593e-09
  576 -1.67953e-10 -3.62130e-10 5.18937e-10
  577 6.34100e-10 -1.92413e-09 8.72999e-10
  578 3.57431e-10 9.53454e-11 -5.47453e-11
  579 2.27374e-12 3.03165e-13 -3.88578e-13
  580 -1.37661e-09 6.04086e-10 -5.99605e-11
  581 -3.39848e-10 -2.03120e-11 3.04618e-10
  582 6.06330e-13 1.51582e-13 8.32667e-13
  583 5.19711e-13 -5.19711e-13 -4.46072e-13
  584 5.19928e-11 5.94203e-11 -2.88019e-12
  585 2.52435e-29 -1.51582e-13 -1.11022e-12
  586 1.84931e-11 2.44048e-11 -3.57661e-12
  587 -6.67699e-10 9.87451e-12 1.30565e-11
  588 7.79567e-13 -2.59856e-13 1.32037e-12
  589 0.00000 0.00000 -5.55112e-13
  590 -6.06330e-13 -1.51582e-13 -1.11022e-13
  591 -2.27374e-12 -2.27374e-12 -7.00828e-13
  592 -9.57880e-10 6.59747e-10 -7.39427e-11
  593 -4.47471e-11 8.40373e-11 3.94220e-12
  594 -7.27596e-13 -1.81899e-13 7.86871e-13
  595 1.74623e-11 3.09228e-11 -9.34276e-13
  596 1.75532e-10 5.42968e-10 -9.52176e-10
  597 -2.38288e-11 4.25644e-11 3.62026e-11
  598 -4.87641e-10 7.83681e-11 8.94403e-11
  599 3.49264e-09 1.11322e-10 -6.60331e-10
  600 -1.06108e-12 3.03165e-13 -3.33067e-13
  601 -4.18368e-12 1.81899e-13 6.66134e-13
  602 -8.91305e-12 -1.63709e-12 1.33227e-13
  603 -1.13869e-10 2.01908e-11 5.38946e-11
  604 -7.57912e-13 -4.54747e-13 1.47105e-12
  605 -3.01352e-09 -9.49149e-10 6.01260e-11
  606 3.03165e-13 0.00000 1.06859e-12
  607 -6.88791e-10 3.22871e-11 6.94679e-11
  608 -6.06330e-13 -1.51582e-13 1.05471e-12
  609 6.57110e-10 1.24298e-11 -1.10446e-11
  610 -6.06330e-13 -1.06108e-12 7.77156e-13
  611 3.18323e-12 9.09495e-13 6.52256e-13
  612 2.69470e-10 1.57732e-10 -9.12690e-11
  613 -4.72937e-12 -1.63709e-12 5.49560e-13
  614 -8.53106e-11 -1.96451e-11 8.26302e-11
  615 -5.23505e-10 -6.42103e-10 4.50584e-10
  616 7.00766e-10 6.75300e-11 -1.21005e-10
  617 -5.45697e-13 5.45697e-13 -6.12010e-13
  618 -4.25644e-10 -5.36602e-11 3.62636e-10
  619 -3.63798e-13 -3.63798e-13 -3.33067e-14
  620 -3.03165e-13 -6.06330e-13 7.07767e-13
  621 -1.55134e-10 -8.89746e-10 7.37683e-10
  622 -4.24886e-10 4.13820e-11 1.58622e-10
  623 -3.03165e-13 -6.06330e-13 8.04912e-13
  624 -3.48518e-10 -2.13367e-10 5.78891e-10
  625 2.27374e-12 3.03165e-13 -7.91034e-13
  626 3.65389e-10 -4.41332e-10 -6.00126e-10
  627 -2.80124e-10 2.21765e-10 8.89899e-11
  628 -3.63798e-13 -1.09139e-12 9.90874e-13
  629 -6.64841e-10 3.34694e-11 8.40840e-11
  630 -5.61886e-10 3.94721e-11 4.60342e-11
  631 -7.27778e-10 7.27596e-12 -4.66207e-12
  632 -7.27596e-13 -9.09495e-13 -1.16573e-13
  633 -9.09495e-13 -3.03165e-13 3.60822e-13
  634 6.06330e-13 1.51582e-13 -3.05311e-13
  635 8.30217e-10 2.12215e-12 7.47862e-13
  636 1.81899e-13 7.27596e-13 1.56125e-13
  637 2.12215e-12 0.00000 -9.43690e-13
  638 -4.60507e-10 9.39811e-11 3.52360e-10
  639 1.06108e-12 -1.51582e-13 6.80012e-13
  640 -4.24431e-12 -1.97057e-12 6.66134e-13
  641 -9.09495e-13 -5.45697e-13 -4.32987e-13
  642 2.42532e-12 1.51582e-13 -6.93889e-13
  643 -5.27325e-10 1.58252e-11 9.08969e-12
  644 2.91038e-12 7.27596e-13 2.83107e-13
  645 -1.45519e-12 -3.63798e-13 -1.83187e-13
  646 4.02724e-10 2.12822e-11 -5.86061e-12
  647 -4.74938e-10 1.25692e-10 1.86857e-10
  648 -3.04378e-10 1.28845e-11 2.24244e-10
  649 1.27329e-12 0.00000 1.04083e-12
  650 -8.78754e-10 4.54747e-12 2.10315e-11
  651 2.11003e-11 4.14730e-11 -7.51041e-12
  652 9.09495e-13 9.09495e-13 -7.21645e-13
  653 2.72848e-12 6.06330e-13 1.44329e-12
  654 1.29928e-13 -2.59856e-13 8.32667e-13
  655 1.21266e-12 3.03165e-13 6.10623e-13
  656 -6.33554e-10 3.87445e-11 7.08533e-11
  657 1.45519e-12 3.63798e-13 -4.82947e-13
  658 -1.89023e-10 2.15247e-10 4.23467e-11
  659 3.11827e-12 1.83198e-11 1.05498e-11
  660 -4.26705e-10 4.26856e-10 1.02849e-10
  661 2.18279e-12 3.63798e-13 -8.65974e-13
  662 1.86992e-10 6.37010e-10 -5.57475e-10
  663 -1.03076e-10 -1.40972e-10 1.89201e-10
  664 -4.21096e-10 -1.55869e-09 1.57844e-09
  665 7.19047e-10 2.09184e-11 -2.31161e-11
  666 -3.02316e-10 1.67893e-10 8.69759e-11
  667 -1.21266e-12 -1.81899e-12 -9.02056e-13
  668 7.63976e-12 2.18279e-12 2.16493e-13
  669 -5.05861e-10 2.67391e-11 6.44159e-11
  670 1.72804e-11 -1.58980e-10 2.55981e-11
  671 -4.06362e-10 5.05679e-11 2.62875e-10
  672 1.55913e-12 3.89783e-13 -4.75810e-13
  673 -1.41517e-10 7.51243e-11 1.36063e-11
  674 0.00000 0.00000 -1.66533e-13
  675 -5.35510e-10 -3.23780e-11 6.61250e-10
  676 -2.10775e-10 -5.91172e-12 1.47769e-10
  677 -2.50111e-12 -2.04636e-12 1.29063e-12
  678 1.34908e-11 4.21854e-10 -1.76438e-10
  679 -6.06330e-13 -1.51582e-13 -9.08995e-13
  680 -1.81899e-12 -4.54747e-13 4.16334e-14
  681 -2.73212e-10 -3.81442e-10 4.40543e-10
  682 -1.34969e-10 -6.46833e-10 6.28768e-10
  683 2.72848e-12 1.66741e-12 -1.36002e-12
  684 -5.06437e-10 2.20552e-10 3.60969e-10
  685 7.57912e-13 7.57912e-13 -4.71845e-13
  686 4.00178e-12 1.81899e-12 -1.70697e-12
  687 -3.89783e-12 -1.03942e-12 1.29658e-12
  688 1.45519e-12 3.63798e-13 -3.37230e-13
  689 7.11225e-10 2.54659e-12 -8.31187e-12
  690 3.91083e-11 3.81988e-12 5.23338e-11
  691 -4.72937e-12 -2.18279e-12 -9.90874e-13
  692 -6.69128e-11 -7.50983e-11 1.16208e-10
  693 1.56433e-11 1.85537e-11 -3.45154e-12
  694 -3.63798e-12 -5.45697e-13 9.65894e-13
  695 -1.36424e-12 -4.54747e-13 -2.49800e-12
  696 -1.90266e-10 -6.23913e-11 2.09589e-10
  697 -4.54747e-12 -9.24047e-11 6.38398e-11
  698 -9.00400e-11 2.34650e-10 -5.94058e-13
  699 -4.31404e-10 5.98751e-11 2.93646e-10
  700 -3.27418e-12 -1.27329e-12 1.86517e-12
  701 -1.36424e-12 -6.06330e-13 9.71445e-14
  702 -9.45874e-12 -3.45608e-12 1.23235e-12
  703 -5.19711e-13 -1.29928e-13 -3.16711e-13
  704 -3.67284e-10 2.53749e-10 1.56140e-10
  705 -7.27596e-12 -2.54659e-12 1.47382e-12
  706 1.81899e-13 7.27596e-13 -9.65894e-13
  707 -6.09180e-10 4.27463e-11 1.14322e-10
  708 -5.63887e-11 -2.69210e-10 1.62283e-10
  709 -1.76115e-09 -5.59339e-10 7.54270e-11
  710 1.27329e-12 -3.63798e-13 1.66533e-13
  711 1.55296e-09 1.14899e-10 -2.91320e-10
  712 -5.80030e-10 4.34284e-11 1.20056e-10
  713 -2.27374e-12 -1.81899e-12 -6.66134e-13
  714 3.63798e-12 2.27374e-12 1.11022e-13
  715 -4.50018e-10 3.54703e-11 2.61225e-11
  716 3.63798e-13 -1.63709e-12 1.36974e-12
  717 -3.27721e-10 2.48595e-11 1.74974e-10
  718 -2.27374e-12 -1.36424e-12 1.79717e-12
  719 7.27596e-13 1.81899e-13 6.32827e-13
  720 -3.33057e-10 2.74667e-11 7.09074e-11
  721 -7.27596e-13 -1.81899e-12 1.16573e-12
  722 -1.21266e-12 -3.03165e-13 2.22045e-13
  723 -3.63798e-13 -1.09139e-12 -1.39888e-12
  724 9.09495e-13 1.27329e-12 -2.68119e-12
  725 -3.08501e-10 3.07409e-11 8.07313e-12
  726 2.91038e-12 7.27596e-13 3.19276e-12
  727 1.81899e-13 -1.45519e-12 9.99201e-13
  728 -3.85080e-10 1.80080e-11 -2.35633e-12
  729 3.63798e-13 -5.45697e-13 -6.43710e-29
  730 8.51469e-10 1.64073e-10 -2.98141e-10
  731 6.00267e-12 1.63709e-12 -1.83187e-12
  732 1.81899e-12 -5.19711e-13 1.55233e-12
  733 -2.11230e-10 2.79670e-11 5.11814e-11
  734 -6.59384e-12 -2.27374e-13 -5.15213e-13
  735 -2.68453e-10 4.30494e-11 1.51971e-11
  736 -5.09317e-12 -7.27596e-13 1.73195e-12
  737 -4.86216e-10 8.24002e-11 3.23253e-10
  738 -2.00089e-12 -1.27329e-12 1.13243e-12
  739 -1.51582e-12 -9.09495e-13 -1.47105e-12
  740 2.72848e-12 3.63798e-13 1.33227e-13
  741 -8.82574e-10 7.82165e-12 1.02819e-11
  742 -3.27418e-12 -9.09495e-13 5.82867e-13
  743 -3.07591e-10 -1.99725e-10 3.98528e-10
  744 -1.67347e-11 -1.03682e-11 -1.66533e-12
  745 -8.33097e-11 3.96540e-11 3.24273e-12
  746 -3.48640e-12 1.51582e-13 -7.49401e-13
  747 -5.44939e-10 3.66830e-10 2.60873e-10
  748 1.24965e-09 4.82032e-11 -1.50556e-10
  749 -2.18279e-12 -5.45697e-13 1.33227e-13
  750 8.76207e-10 3.63798e-13 -9.22495e-12
  751 -1.70530e-10 -3.03316e-10 4.43869e-10
  752 -5.48880e-10 -5.99509e-10 1.02144e-09
  753 -1.38395e-10 4.50200e-11 6.67305e-12
  754 9.03310e-10 1.23691e-11 -3.64687e-11
  755 -5.47516e-10 6.91216e-11 1.21039e-10
  756 4.27644e-10 2.40107e-11 -5.59586e-12
  757 1.09139e-12 1.81899e-13 -4.82947e-13
  758 1.09139e-12 -7.27596e-13 -6.49480e-13
  759 -4.42560e-10 2.04091e-10 2.37987e-10
  760 2.65027e-10 2.75213e-10 -1.86831e-10
  761 -1.81899e-13 -3.63798e-13 -6.16174e-13
  762 6.38465e-11 -5.70435e-10 7.53474e-11
  763 2.01180e-09 4.40195e-11 -3.91239e-10
  764 -4.83700e-10 9.76191e-11 2.23613e-10
  765 1.36424e-12 -3.03165e-13 -1.84575e-12
  766 3.26145e-10 3.55067e-10 -3.06211e-10
  767 -9.04947e-10 7.63976e-12 5.95007e-12
  768 0.00000 0.00000 -8.65974e-13
  769 -1.80383e-11 -2.27374e-11 4.33369e-11
  770 5.27507e-12 1.81899e-12 -8.65974e-13
  771 0.00000 0.00000 3.26128e-13
  772 -3.03165e-13 -1.51582e-13 1.80411e-13
  773 3.09228e-12 1.45519e-12 5.32907e-13
  774 -6.83940e-10 1.96451e-11 5.29472e-11
  775 -4.13365e-10 3.39999e-10 1.64785e-10
  776 9.09495e-13 -3.63798e-13 8.90954e-13
  777 -3.78714e-10 3.76531e-11 1.83265e-10
  778 -2.18279e-12 -2.18279e-12 1.09912e-12
  779 -3.89870e-10 2.76790e-10 1.72721e-10
  780 4.33981e-10 1.02318e-10 -7.98091e-11
  781 5.45697e-13 -5.45697e-13 9.36751e-14
</Section>

