newXOutput 1

<Section columns = "stress_xx | stress_yy | stress_xy">
  1 0.00000 0.00000 0.00000
  2 0.00000 0.00000 0.00000
  3 0.00000 0.00000 0.00000
  4 0.00000 0.00000 0.00000
  5 0.00000 0.00000 0.00000
  6 0.00000 0.00000 0.00000
  7 0.00000 0.00000 0.00000
  8 0.00000 0.00000 0.00000
  9 0.00000 0.00000 0.00000
  10 0.00000 0.00000 0.00000
  11 0.00000 0.00000 0.00000
  12 0.00000 0.00000 0.00000
</Section>

newXOutput 2

<Section columns = "stress_xx | stress_yy | stress_xy">
  1 42.5426 0.00000 1.00680e-14
  2 42.5426 0.00000 9.52719e-15
  3 42.5426 0.00000 5.54019e-15
  4 42.5426 0.00000 5.62649e-15
  5 42.5426 0.00000 3.11147e-15
  6 42.5426 0.00000 2.97852e-15
  7 42.5426 0.00000 -1.50385e-15
  8 42.5426 0.00000 -1.91783e-15
  9 42.5426 0.00000 -5.22991e-15
  10 42.5426 0.00000 -4.91536e-15
  11 42.5426 0.00000 -1.96078e-14
  12 42.5426 0.00000 -2.19485e-14
</Section>

newXOutput 3

<Section columns = "stress_xx | stress_yy | stress_xy">
  1 84.9709 0.00000 -2.26481e-14
  2 84.9709 0.00000 -2.07024e-14
  3 84.9709 0.00000 -1.02032e-14
  4 84.9709 0.00000 -9.41559e-15
  5 84.9709 0.00000 -1.40006e-14
  6 84.9709 0.00000 -1.46359e-14
  7 84.9709 0.00000 8.09651e-18
  8 84.9709 0.00000 -4.93068e-16
  9 84.9709 0.00000 9.81966e-15
  10 84.9709 0.00000 1.24166e-14
  11 84.9709 0.00000 -2.39788e-14
  12 84.9709 0.00000 -1.82490e-14
</Section>

newXOutput 4

<Section columns = "stress_xx | stress_yy | stress_xy">
  1 127.298 0.00000 3.34114e-14
  2 127.298 0.00000 3.24910e-14
  3 127.298 0.00000 1.14042e-14
  4 127.298 0.00000 1.12201e-14
  5 127.298 0.00000 8.67402e-15
  6 127.298 0.00000 9.96895e-15
  7 127.298 0.00000 1.27177e-14
  8 127.298 0.00000 1.87106e-14
  9 127.298 0.00000 2.62416e-14
  10 127.298 0.00000 2.65095e-14
  11 127.298 0.00000 1.21330e-14
  12 127.298 0.00000 1.48601e-14
</Section>

newXOutput 5

<Section columns = "stress_xx | stress_yy | stress_xy">
  1 169.525 0.00000 3.80949e-15
  2 169.525 0.00000 3.03442e-15
  3 169.525 0.00000 -4.16230e-15
  4 169.525 0.00000 -3.69311e-15
  5 169.525 0.00000 -2.93265e-15
  6 169.525 0.00000 -2.72565e-15
  7 169.525 0.00000 -1.23126e-15
  8 169.525 0.00000 -1.86660e-15
  9 169.525 0.00000 -2.41293e-14
  10 169.525 0.00000 -1.92150e-14
  11 169.525 0.00000 -4.43077e-14
  12 169.525 0.00000 -3.32073e-14
</Section>

newXOutput 6

<Section columns = "stress_xx | stress_yy | stress_xy">
  1 211.652 0.00000 8.33839e-15
  2 211.652 0.00000 8.15677e-15
  3 211.652 0.00000 4.47331e-15
  4 211.652 0.00000 4.47331e-15
  5 211.652 0.00000 -1.34730e-15
  6 211.652 0.00000 -8.93258e-16
  7 211.652 0.00000 -6.99598e-15
  8 211.652 0.00000 -7.58578e-15
  9 211.652 0.00000 3.99476e-14
  10 211.652 0.00000 5.22278e-14
  11 211.652 0.00000 2.29405e-14
  12 211.652 0.00000 6.15461e-14
</Section>

newXOutput 7

<Section columns = "stress_xx | stress_yy | stress_xy">
  1 253.681 0.00000 9.56807e-15
  2 253.681 0.00000 9.56807e-15
  3 253.681 0.00000 -1.11232e-14
  4 253.681 0.00000 -1.07624e-14
  5 253.681 0.00000 -2.58680e-14
  6 253.681 0.00000 -2.29248e-14
  7 253.681 0.00000 -4.97732e-15
  8 253.681 0.00000 3.53757e-15
  9 253.681 0.00000 1.26494e-14
  10 253.681 0.00000 1.59630e-14
  11 253.681 0.00000 8.98464e-15
  12 253.681 0.00000 -1.35948e-14
</Section>

newXOutput 8

<Section columns = "stress_xx | stress_yy | stress_xy">
  1 295.613 0.00000 -1.25264e-14
  2 295.613 0.00000 -9.55030e-15
  3 295.613 0.00000 -4.48981e-15
  4 295.613 0.00000 -2.89785e-15
  5 295.613 0.00000 5.09848e-15
  6 295.613 0.00000 6.53176e-15
  7 295.613 0.00000 1.24343e-14
  8 295.613 0.00000 1.21578e-14
  9 295.613 0.00000 -8.38387e-15
  10 295.613 0.00000 -1.35375e-14
  11 295.613 0.00000 -2.32887e-14
  12 295.613 0.00000 -3.12514e-14
</Section>

newXOutput 9

<Section columns = "stress_xx | stress_yy | stress_xy">
  1 337.448 0.00000 2.87674e-14
  2 337.448 0.00000 2.92402e-14
  3 337.448 0.00000 1.35008e-14
  4 337.448 0.00000 1.38374e-14
  5 337.448 0.00000 -3.74588e-15
  6 337.448 0.00000 -3.70739e-15
  7 337.448 0.00000 5.10758e-15
  8 337.448 0.00000 3.46624e-15
  9 337.448 0.00000 -8.61626e-15
  10 337.448 0.00000 -1.81711e-15
  11 337.448 0.00000 -5.38827e-14
  12 337.448 0.00000 -3.62582e-14
</Section>

newXOutput 10

<Section columns = "stress_xx | stress_yy | stress_xy">
  1 379.189 0.00000 4.79034e-15
  2 379.189 0.00000 5.49718e-15
  3 379.189 0.00000 8.51644e-15
  4 379.189 0.00000 9.40000e-15
  5 379.189 0.00000 3.42908e-14
  6 379.189 0.00000 3.39734e-14
  7 379.189 0.00000 2.25616e-14
  8 379.189 0.00000 2.00354e-14
  9 379.189 0.00000 -1.14571e-14
  10 379.189 0.00000 -9.43500e-15
  11 379.189 0.00000 -4.93112e-15
  12 379.189 0.00000 -2.00756e-14
</Section>

newXOutput 11

<Section columns = "stress_xx | stress_yy | stress_xy">
  1 420.835 0.00000 5.87964e-14
  2 420.835 0.00000 5.20453e-14
  3 420.835 0.00000 2.57520e-14
  4 420.835 0.00000 1.99605e-14
  5 420.835 0.00000 -1.39842e-14
  6 420.835 0.00000 -1.13777e-14
  7 420.835 0.00000 9.26714e-15
  8 420.835 0.00000 1.60911e-14
  9 420.835 0.00000 1.25251e-14
  10 420.835 0.00000 3.89080e-14
  11 420.835 0.00000 6.05115e-14
  12 420.835 0.00000 2.64215e-14
</Section>

newXOutput 12

<Section columns = "stress_xx | stress_yy | stress_xy">
  1 462.388 0.00000 3.04004e-14
  2 462.388 0.00000 2.48941e-14
  3 462.388 0.00000 -4.17520e-15
  4 462.388 0.00000 -5.18972e-15
  5 462.388 0.00000 -2.40072e-14
  6 462.388 0.00000 -2.30737e-14
  7 462.388 0.00000 4.02800e-14
  8 462.388 0.00000 3.86698e-14
  9 462.388 0.00000 -5.98666e-15
  10 462.388 0.00000 -1.42068e-14
  11 462.388 0.00000 -3.41366e-14
  12 462.388 0.00000 -6.11087e-14
</Section>

newXOutput 13

<Section columns = "stress_xx | stress_yy | stress_xy">
  1 503.849 0.00000 2.37221e-14
  2 503.849 0.00000 2.02610e-14
  3 503.849 0.00000 3.09257e-14
  4 503.849 0.00000 3.02335e-14
  5 503.849 0.00000 3.17494e-14
  6 503.849 0.00000 3.28449e-14
  7 503.849 0.00000 -8.64354e-15
  8 503.849 0.00000 -1.06099e-14
  9 503.849 0.00000 -4.57786e-15
  10 503.849 0.00000 -2.48642e-14
  11 503.849 0.00000 -2.80424e-15
  12 503.849 0.00000 9.24293e-15
</Section>

newXOutput 14

<Section columns = "stress_xx | stress_yy | stress_xy">
  1 545.219 0.00000 -1.98138e-15
  2 545.219 0.00000 1.53787e-14
  3 545.219 0.00000 -9.49342e-15
  4 545.219 0.00000 -4.34452e-14
  5 545.219 0.00000 -1.43304e-14
  6 545.219 0.00000 -4.83374e-14
  7 545.219 0.00000 1.31269e-14
  8 545.219 0.00000 2.66183e-14
  9 545.219 0.00000 4.59511e-14
  10 545.219 0.00000 2.34281e-14
  11 545.219 0.00000 3.64280e-14
  12 545.219 0.00000 -2.52907e-14
</Section>

newXOutput 15

<Section columns = "stress_xx | stress_yy | stress_xy">
  1 586.498 0.00000 3.59778e-14
  2 586.498 0.00000 -6.34315e-15
  3 586.498 0.00000 4.93819e-15
  4 586.498 0.00000 6.64439e-15
  5 586.498 0.00000 -9.17867e-15
  6 586.498 0.00000 8.61681e-15
  7 586.498 0.00000 -5.19158e-14
  8 586.498 0.00000 -6.68172e-14
  9 586.498 0.00000 -7.46940e-14
  10 586.498 0.00000 -3.93119e-14
  11 586.498 0.00000 -4.36985e-14
  12 586.498 0.00000 2.24338e-14
</Section>

newXOutput 16

<Section columns = "stress_xx | stress_yy | stress_xy">
  1 627.689 0.00000 3.04061e-14
  2 627.689 0.00000 2.11415e-15
  3 627.689 0.00000 -4.45744e-14
  4 627.689 0.00000 -3.78215e-14
  5 627.689 0.00000 -2.74559e-14
  6 627.689 0.00000 -1.25059e-14
  7 627.689 0.00000 1.55468e-13
  8 627.689 0.00000 1.44712e-13
  9 627.689 0.00000 1.60818e-14
  10 627.689 0.00000 6.45357e-14
  11 627.689 0.00000 8.04023e-15
  12 627.689 0.00000 3.99399e-14
</Section>

newXOutput 17

<Section columns = "stress_xx | stress_yy | stress_xy">
  1 668.790 0.00000 -4.31325e-14
  2 668.790 0.00000 -5.12057e-14
  3 668.790 0.00000 3.07067e-14
  4 668.790 0.00000 1.96059e-14
  5 668.790 0.00000 1.67745e-13
  6 668.790 0.00000 1.61801e-13
  7 668.790 0.00000 -2.71607e-13
  8 668.790 0.00000 -2.33723e-13
  9 668.790 0.00000 -1.56078e-13
  10 668.790 0.00000 -8.82077e-14
  11 668.790 0.00000 -2.73107e-14
  12 668.790 0.00000 -2.06390e-14
</Section>

newXOutput 18

<Section columns = "stress_xx | stress_yy | stress_xy">
  1 709.805 0.00000 1.19860e-14
  2 709.805 0.00000 3.60327e-15
  3 709.805 0.00000 2.23588e-14
  4 709.805 0.00000 8.01462e-15
  5 709.805 0.00000 1.81161e-13
  6 709.805 0.00000 1.78188e-13
  7 709.805 0.00000 -1.12154e-13
  8 709.805 0.00000 -1.23998e-13
  9 709.805 0.00000 1.17208e-13
  10 709.805 0.00000 7.15068e-14
  11 709.805 0.00000 1.69203e-13
  12 709.805 0.00000 1.00222e-13
</Section>

newXOutput 19

<Section columns = "stress_xx | stress_yy | stress_xy">
  1 750.733 0.00000 3.98594e-14
  2 750.733 0.00000 2.99130e-14
  3 750.733 0.00000 7.98378e-15
  4 750.733 0.00000 -5.27799e-15
  5 750.733 0.00000 8.37102e-14
  6 750.733 0.00000 7.27968e-14
  7 750.733 0.00000 -1.64342e-13
  8 750.733 0.00000 -1.56713e-13
  9 750.733 0.00000 8.19846e-14
  10 750.733 0.00000 5.57019e-14
  11 750.733 0.00000 4.83475e-14
  12 750.733 0.00000 1.34726e-14
</Section>

newXOutput 20

<Section columns = "stress_xx | stress_yy | stress_xy">
  1 791.576 0.00000 9.65542e-14
  2 791.576 0.00000 6.74541e-14
  3 791.576 0.00000 -5.15239e-14
  4 791.576 0.00000 -4.72226e-14
  5 791.576 0.00000 -1.85628e-13
  6 791.576 0.00000 -1.69096e-13
  7 791.576 0.00000 1.71743e-13
  8 791.576 0.00000 1.54223e-13
  9 791.576 0.00000 5.93636e-14
  10 791.576 0.00000 7.88523e-14
  11 791.576 0.00000 -1.20696e-13
  12 791.576 0.00000 -1.03416e-13
</Section>

newXOutput 21

<Section columns = "stress_xx | stress_yy | stress_xy">
  1 832.334 0.00000 6.36084e-15
  2 832.334 0.00000 -3.12789e-15
  3 832.334 0.00000 1.37286e-14
  4 832.334 0.00000 9.52202e-16
  5 832.334 0.00000 6.52773e-14
  6 832.334 0.00000 6.84388e-14
  7 832.334 0.00000 -2.89120e-14
  8 832.334 0.00000 -1.46394e-14
  9 832.334 0.00000 -3.53111e-14
  10 832.334 0.00000 -2.56855e-14
  11 832.334 0.00000 6.05807e-15
  12 832.334 0.00000 1.78002e-15
</Section>

newXOutput 22

<Section columns = "stress_xx | stress_yy | stress_xy">
  1 873.009 0.00000 4.50181e-14
  2 873.009 0.00000 3.59377e-14
  3 873.009 0.00000 1.71505e-14
  4 873.009 0.00000 1.42318e-14
  5 873.009 0.00000 2.89130e-16
  6 873.009 0.00000 -1.63142e-15
  7 873.009 0.00000 8.80942e-14
  8 873.009 0.00000 8.30482e-14
  9 873.009 0.00000 6.31590e-14
  10 873.009 0.00000 1.35915e-13
  11 873.009 0.00000 -5.94250e-14
  12 873.009 0.00000 1.30795e-13
</Section>

newXOutput 23

<Section columns = "stress_xx | stress_yy | stress_xy">
  1 913.601 0.00000 8.32559e-15
  2 913.601 0.00000 -6.07736e-15
  3 913.601 0.00000 2.00187e-14
  4 913.601 0.00000 1.44267e-14
  5 913.601 0.00000 3.97366e-14
  6 913.601 0.00000 3.64131e-14
  7 913.601 0.00000 3.93097e-14
  8 913.601 0.00000 3.59467e-14
  9 913.601 0.00000 1.47432e-13
  10 913.601 0.00000 1.42073e-13
  11 913.601 0.00000 1.30193e-13
  12 913.601 0.00000 4.68178e-14
</Section>

newXOutput 24

<Section columns = "stress_xx | stress_yy | stress_xy">
  1 954.112 0.00000 1.30223e-13
  2 954.112 0.00000 1.84818e-13
  3 954.112 0.00000 -3.38354e-13
  4 954.112 0.00000 -3.24342e-13
  5 954.112 0.00000 2.76332e-13
  6 954.112 0.00000 2.39245e-13
  7 954.112 0.00000 -2.58248e-14
  8 954.112 0.00000 -6.88566e-14
  9 954.112 0.00000 -4.36409e-13
  10 954.112 0.00000 -4.81806e-13
  11 954.112 0.00000 -4.86007e-14
  12 954.112 0.00000 -1.25273e-13
</Section>

newXOutput 25

<Section columns = "stress_xx | stress_yy | stress_xy">
  1 994.542 0.00000 1.34119e-13
  2 994.542 0.00000 1.55680e-13
  3 994.542 0.00000 -1.63892e-13
  4 994.542 0.00000 -1.54380e-13
  5 994.542 0.00000 3.99109e-14
  6 994.542 0.00000 3.80084e-14
  7 994.542 0.00000 -2.53498e-13
  8 994.542 0.00000 -2.42726e-13
  9 994.542 0.00000 -3.89783e-15
  10 994.542 0.00000 -4.53039e-15
  11 994.542 0.00000 4.69940e-14
  12 994.542 0.00000 2.29172e-14
</Section>

newXOutput 26

<Section columns = "stress_xx | stress_yy | stress_xy">
  1 1034.89 0.00000 6.98671e-14
  2 1034.89 0.00000 8.74895e-14
  3 1034.89 0.00000 -1.53090e-13
  4 1034.89 0.00000 -1.42391e-13
  5 1034.89 0.00000 -5.15055e-14
  6 1034.89 0.00000 -5.83030e-14
  7 1034.89 0.00000 -1.55543e-13
  8 1034.89 0.00000 -1.55750e-13
  9 1034.89 0.00000 4.61748e-14
  10 1034.89 0.00000 1.75678e-14
  11 1034.89 0.00000 1.14844e-13
  12 1034.89 0.00000 7.54609e-14
</Section>

newXOutput 27

<Section columns = "stress_xx | stress_yy | stress_xy">
  1 1075.16 0.00000 5.72330e-14
  2 1075.16 0.00000 7.57275e-14
  3 1075.16 0.00000 -2.45915e-14
  4 1075.16 0.00000 -1.64597e-14
  5 1075.16 0.00000 5.95476e-14
  6 1075.16 0.00000 7.03378e-14
  7 1075.16 0.00000 -4.05941e-14
  8 1075.16 0.00000 5.52907e-15
  9 1075.16 0.00000 -9.38134e-14
  10 1075.16 0.00000 -3.98136e-14
  11 1075.16 0.00000 -4.14668e-14
  12 1075.16 0.00000 -1.23422e-14
</Section>

newXOutput 28

<Section columns = "stress_xx | stress_yy | stress_xy">
  1 1115.36 0.00000 6.65792e-14
  2 1115.36 0.00000 8.40717e-14
  3 1115.36 0.00000 -4.20322e-14
  4 1115.36 0.00000 -1.88861e-14
  5 1115.36 0.00000 -5.19513e-15
  6 1115.36 0.00000 -1.92486e-14
  7 1115.36 0.00000 6.14758e-14
  8 1115.36 0.00000 4.11566e-14
  9 1115.36 0.00000 1.98115e-13
  10 1115.36 0.00000 2.14782e-13
  11 1115.36 0.00000 -9.73734e-14
  12 1115.36 0.00000 -5.94192e-14
</Section>

newXOutput 29

<Section columns = "stress_xx | stress_yy | stress_xy">
  1 1155.47 0.00000 9.06887e-14
  2 1155.47 0.00000 -2.39569e-14
  3 1155.47 0.00000 -3.10187e-14
  4 1155.47 0.00000 -6.79408e-14
  5 1155.47 0.00000 2.03828e-14
  6 1155.47 0.00000 4.94526e-14
  7 1155.47 0.00000 1.62261e-13
  8 1155.47 0.00000 1.32605e-13
  9 1155.47 0.00000 -4.05154e-13
  10 1155.47 0.00000 -4.68400e-13
  11 1155.47 0.00000 2.29854e-13
  12 1155.47 0.00000 2.32250e-13
</Section>

newXOutput 30

<Section columns = "stress_xx | stress_yy | stress_xy">
  1 1195.51 0.00000 5.94423e-14
  2 1195.51 0.00000 3.88179e-14
  3 1195.51 0.00000 1.57669e-14
  4 1195.51 0.00000 7.80677e-15
  5 1195.51 0.00000 1.00095e-13
  6 1195.51 0.00000 9.57688e-14
  7 1195.51 0.00000 1.07950e-14
  8 1195.51 0.00000 -1.09901e-14
  9 1195.51 0.00000 1.86180e-13
  10 1195.51 0.00000 1.69682e-13
  11 1195.51 0.00000 4.94000e-14
  12 1195.51 0.00000 1.32754e-15
</Section>

newXOutput 31

<Section columns = "stress_xx | stress_yy | stress_xy">
  1 1235.48 0.00000 6.65479e-14
  2 1235.48 0.00000 4.71740e-14
  3 1235.48 0.00000 -1.96891e-14
  4 1235.48 0.00000 -2.75598e-14
  5 1235.48 0.00000 2.24310e-14
  6 1235.48 0.00000 1.81282e-14
  7 1235.48 0.00000 1.64242e-13
  8 1235.48 0.00000 1.53210e-13
  9 1235.48 0.00000 4.14035e-15
  10 1235.48 0.00000 1.01341e-15
  11 1235.48 0.00000 -1.47822e-13
  12 1235.48 0.00000 -1.51220e-13
</Section>

newXOutput 32

<Section columns = "stress_xx | stress_yy | stress_xy">
  1 1275.36 0.00000 1.65068e-14
  2 1275.36 0.00000 2.00681e-14
  3 1275.36 0.00000 -9.94766e-15
  4 1275.36 0.00000 -9.30959e-15
  5 1275.36 0.00000 4.15831e-14
  6 1275.36 0.00000 3.55016e-14
  7 1275.36 0.00000 1.55791e-13
  8 1275.36 0.00000 1.26457e-13
  9 1275.36 0.00000 -2.34081e-14
  10 1275.36 0.00000 -2.64758e-14
  11 1275.36 0.00000 7.13586e-14
  12 1275.36 0.00000 1.03556e-13
</Section>

newXOutput 33

<Section columns = "stress_xx | stress_yy | stress_xy">
  1 1315.18 0.00000 7.85513e-14
  2 1315.18 0.00000 7.49735e-14
  3 1315.18 0.00000 -1.41237e-14
  4 1315.18 0.00000 -1.52730e-14
  5 1315.18 0.00000 -1.45623e-13
  6 1315.18 0.00000 -1.38474e-13
  7 1315.18 0.00000 -7.22528e-14
  8 1315.18 0.00000 -4.97960e-14
  9 1315.18 0.00000 -2.88609e-13
  10 1315.18 0.00000 -2.91805e-13
  11 1315.18 0.00000 -4.79972e-14
  12 1315.18 0.00000 -8.27949e-14
</Section>

newXOutput 34

<Section columns = "stress_xx | stress_yy | stress_xy">
  1 1354.92 0.00000 -1.02893e-14
  2 1354.92 0.00000 8.17841e-14
  3 1354.92 0.00000 7.05514e-14
  4 1354.92 0.00000 1.37869e-13
  5 1354.92 0.00000 2.71027e-13
  6 1354.92 0.00000 2.56780e-13
  7 1354.92 0.00000 -4.92551e-13
  8 1354.92 0.00000 -5.28837e-13
  9 1354.92 0.00000 4.75925e-13
  10 1354.92 0.00000 5.23721e-13
  11 1354.92 0.00000 -1.95005e-14
  12 1354.92 0.00000 -2.70733e-14
</Section>

newXOutput 35

<Section columns = "stress_xx | stress_yy | stress_xy">
  1 1394.60 0.00000 2.42232e-14
  2 1394.60 0.00000 3.01648e-14
  3 1394.60 0.00000 -3.26402e-14
  4 1394.60 0.00000 -2.73104e-14
  5 1394.60 0.00000 -5.73696e-14
  6 1394.60 0.00000 -6.21656e-14
  7 1394.60 0.00000 1.34830e-13
  8 1394.60 0.00000 1.00818e-13
  9 1394.60 0.00000 9.20708e-14
  10 1394.60 0.00000 9.25374e-15
  11 1394.60 0.00000 -2.80518e-13
  12 1394.60 0.00000 -3.93683e-13
</Section>

newXOutput 36

<Section columns = "stress_xx | stress_yy | stress_xy">
  1 1434.20 0.00000 8.86342e-14
  2 1434.20 0.00000 8.51445e-14
  3 1434.20 0.00000 1.39823e-14
  4 1434.20 0.00000 1.86352e-14
  5 1434.20 0.00000 3.77696e-14
  6 1434.20 0.00000 2.48590e-14
  7 1434.20 0.00000 4.47485e-14
  8 1434.20 0.00000 2.92780e-14
  9 1434.20 0.00000 -6.17190e-14
  10 1434.20 0.00000 2.86091e-14
  11 1434.20 0.00000 -1.77947e-13
  12 1434.20 0.00000 1.59893e-14
</Section>

newXOutput 37

<Section columns = "stress_xx | stress_yy | stress_xy">
  1 1473.73 0.00000 2.41158e-14
  2 1473.73 0.00000 2.46171e-14
  3 1473.73 0.00000 -2.96279e-14
  4 1473.73 0.00000 -6.68473e-15
  5 1473.73 0.00000 -5.22095e-14
  6 1473.73 0.00000 -6.21413e-14
  7 1473.73 0.00000 1.09093e-13
  8 1473.73 0.00000 9.94544e-14
  9 1473.73 0.00000 1.31692e-13
  10 1473.73 0.00000 1.29938e-13
  11 1473.73 0.00000 -4.08045e-14
  12 1473.73 0.00000 -6.93179e-14
</Section>

newXOutput 38

<Section columns = "stress_xx | stress_yy | stress_xy">
  1 1513.19 0.00000 8.55404e-14
  2 1513.19 0.00000 8.82267e-14
  3 1513.19 0.00000 -3.89899e-14
  4 1513.19 0.00000 -3.71381e-14
  5 1513.19 0.00000 -1.15734e-13
  6 1513.19 0.00000 -1.13204e-13
  7 1513.19 0.00000 -2.10170e-14
  8 1513.19 0.00000 -1.91228e-16
  9 1513.19 0.00000 -3.77600e-14
  10 1513.19 0.00000 2.16038e-14
  11 1513.19 0.00000 -3.13264e-14
  12 1513.19 0.00000 4.27985e-14
</Section>

newXOutput 39

<Section columns = "stress_xx | stress_yy | stress_xy">
  1 1552.58 0.00000 1.01117e-13
  2 1552.58 0.00000 8.81564e-14
  3 1552.58 0.00000 1.88591e-14
  4 1552.58 0.00000 1.53093e-14
  5 1552.58 0.00000 -1.01751e-13
  6 1552.58 0.00000 -7.33825e-14
  7 1552.58 0.00000 5.77925e-15
  8 1552.58 0.00000 5.88159e-14
  9 1552.58 0.00000 2.56027e-14
  10 1552.58 0.00000 4.56396e-14
  11 1552.58 0.00000 3.25156e-14
  12 1552.58 0.00000 2.48257e-13
</Section>

newXOutput 40

<Section columns = "stress_xx | stress_yy | stress_xy">
  1 1591.91 0.00000 1.44792e-13
  2 1591.91 0.00000 9.49068e-14
  3 1591.91 0.00000 -2.09843e-13
  4 1591.91 0.00000 -2.55485e-13
  5 1591.91 0.00000 2.15483e-13
  6 1591.91 0.00000 1.93230e-13
  7 1591.91 0.00000 1.61467e-13
  8 1591.91 0.00000 1.62283e-13
  9 1591.91 0.00000 -3.07925e-14
  10 1591.91 0.00000 -8.26792e-14
  11 1591.91 0.00000 5.80165e-14
  12 1591.91 0.00000 -2.13754e-13
</Section>

newXOutput 41

<Section columns = "stress_xx | stress_yy | stress_xy">
  1 1631.17 0.00000 1.29475e-13
  2 1631.17 0.00000 1.02697e-13
  3 1631.17 0.00000 -1.57019e-13
  4 1631.17 0.00000 -1.63714e-13
  5 1631.17 0.00000 5.57665e-14
  6 1631.17 0.00000 6.13453e-14
  7 1631.17 0.00000 -8.55083e-14
  8 1631.17 0.00000 -1.06482e-13
  9 1631.17 0.00000 -4.52234e-14
  10 1631.17 0.00000 -1.70908e-13
  11 1631.17 0.00000 1.57402e-13
  12 1631.17 0.00000 -6.82580e-14
</Section>

newXOutput 42

<Section columns = "stress_xx | stress_yy | stress_xy">
  1 1670.36 0.00000 1.26336e-13
  2 1670.36 0.00000 8.44818e-14
  3 1670.36 0.00000 -5.05874e-14
  4 1670.36 0.00000 -6.76424e-14
  5 1670.36 0.00000 2.02263e-13
  6 1670.36 0.00000 2.05229e-13
  7 1670.36 0.00000 1.37240e-13
  8 1670.36 0.00000 9.86446e-14
  9 1670.36 0.00000 5.72733e-14
  10 1670.36 0.00000 4.49292e-14
  11 1670.36 0.00000 -1.16122e-13
  12 1670.36 0.00000 1.86604e-14
</Section>

newXOutput 43

<Section columns = "stress_xx | stress_yy | stress_xy">
  1 1709.49 0.00000 3.12414e-14
  2 1709.49 0.00000 7.61682e-14
  3 1709.49 0.00000 2.81662e-13
  4 1709.49 0.00000 2.81662e-13
  5 1709.49 0.00000 1.70539e-13
  6 1709.49 0.00000 1.06878e-13
  7 1709.49 0.00000 -1.43743e-13
  8 1709.49 0.00000 -1.66308e-13
  9 1709.49 0.00000 1.92446e-13
  10 1709.49 0.00000 2.92792e-13
  11 1709.49 0.00000 -1.26718e-13
  12 1709.49 0.00000 -1.31568e-13
</Section>

newXOutput 44

<Section columns = "stress_xx | stress_yy | stress_xy">
  1 1748.55 0.00000 1.17757e-13
  2 1748.55 0.00000 8.89999e-14
  3 1748.55 0.00000 -1.98984e-13
  4 1748.55 0.00000 -2.25763e-13
  5 1748.55 0.00000 -7.31282e-14
  6 1748.55 0.00000 -9.15124e-14
  7 1748.55 0.00000 5.41790e-14
  8 1748.55 0.00000 3.11042e-14
  9 1748.55 0.00000 -6.75440e-14
  10 1748.55 0.00000 -1.15632e-13
  11 1748.55 0.00000 1.24143e-13
  12 1748.55 0.00000 9.02123e-14
</Section>

newXOutput 45

<Section columns = "stress_xx | stress_yy | stress_xy">
  1 1787.55 0.00000 1.57384e-13
  2 1787.55 0.00000 1.15524e-13
  3 1787.55 0.00000 -6.42400e-14
  4 1787.55 0.00000 -8.73262e-14
  5 1787.55 0.00000 -1.01965e-13
  6 1787.55 0.00000 -1.16392e-13
  7 1787.55 0.00000 -9.92883e-14
  8 1787.55 0.00000 -8.34349e-14
  9 1787.55 0.00000 -3.74770e-13
  10 1787.55 0.00000 -1.71568e-13
  11 1787.55 0.00000 -1.84598e-13
  12 1787.55 0.00000 -8.71656e-14
</Section>

newXOutput 46

<Section columns = "stress_xx | stress_yy | stress_xy">
  1 1826.49 0.00000 8.93590e-14
  2 1826.49 0.00000 8.78904e-14
  3 1826.49 0.00000 -5.08558e-14
  4 1826.49 0.00000 -5.19849e-14
  5 1826.49 0.00000 -9.81399e-15
  6 1826.49 0.00000 -3.59111e-14
  7 1826.49 0.00000 1.05488e-13
  8 1826.49 0.00000 1.10685e-13
  9 1826.49 0.00000 2.05685e-13
  10 1826.49 0.00000 1.83586e-13
  11 1826.49 0.00000 6.66571e-14
  12 1826.49 0.00000 1.57347e-13
</Section>

newXOutput 47

<Section columns = "stress_xx | stress_yy | stress_xy">
  1 1865.36 0.00000 9.60193e-14
  2 1865.36 0.00000 6.93580e-14
  3 1865.36 0.00000 1.02819e-14
  4 1865.36 0.00000 -9.21091e-15
  5 1865.36 0.00000 -1.03374e-14
  6 1865.36 0.00000 -2.08530e-14
  7 1865.36 0.00000 1.43196e-14
  8 1865.36 0.00000 5.56319e-16
  9 1865.36 0.00000 1.57937e-15
  10 1865.36 0.00000 5.58624e-14
  11 1865.36 0.00000 2.10771e-14
  12 1865.36 0.00000 2.25783e-13
</Section>

newXOutput 48

<Section columns = "stress_xx | stress_yy | stress_xy">
  1 1904.18 0.00000 9.39572e-14
  2 1904.18 0.00000 1.04417e-13
  3 1904.18 0.00000 -3.30716e-14
  4 1904.18 0.00000 -2.09646e-14
  5 1904.18 0.00000 -7.44543e-15
  6 1904.18 0.00000 -1.26440e-14
  7 1904.18 0.00000 1.36365e-14
  8 1904.18 0.00000 -3.34198e-14
  9 1904.18 0.00000 1.07829e-14
  10 1904.18 0.00000 -1.35624e-13
  11 1904.18 0.00000 -2.42511e-14
  12 1904.18 0.00000 -1.51071e-13
</Section>

newXOutput 49

<Section columns = "stress_xx | stress_yy | stress_xy">
  1 1942.93 0.00000 9.79930e-14
  2 1942.93 0.00000 1.15306e-13
  3 1942.93 0.00000 -3.27958e-13
  4 1942.93 0.00000 -3.19943e-13
  5 1942.93 0.00000 -7.56735e-15
  6 1942.93 0.00000 -3.69547e-14
  7 1942.93 0.00000 -3.05550e-13
  8 1942.93 0.00000 -3.37271e-13
  9 1942.93 0.00000 1.24052e-13
  10 1942.93 0.00000 1.18646e-13
  11 1942.93 0.00000 -1.89846e-14
  12 1942.93 0.00000 -4.49619e-14
</Section>

newXOutput 50

<Section columns = "stress_xx | stress_yy | stress_xy">
  1 1981.63 0.00000 1.13720e-13
  2 1981.63 0.00000 7.26555e-14
  3 1981.63 0.00000 1.10875e-13
  4 1981.63 0.00000 8.72505e-14
  5 1981.63 0.00000 -2.01006e-14
  6 1981.63 0.00000 -2.68017e-14
  7 1981.63 0.00000 1.46544e-13
  8 1981.63 0.00000 1.20944e-13
  9 1981.63 0.00000 5.87179e-14
  10 1981.63 0.00000 9.09258e-16
  11 1981.63 0.00000 -2.63896e-13
  12 1981.63 0.00000 -1.38314e-13
</Section>

newXOutput 51

<Section columns = "stress_xx | stress_yy | stress_xy">
  1 2020.26 0.00000 1.05126e-13
  2 2020.26 0.00000 1.09318e-13
  3 2020.26 0.00000 7.66518e-14
  4 2020.26 0.00000 8.56953e-14
  5 2020.26 0.00000 1.82691e-13
  6 2020.26 0.00000 1.67855e-13
  7 2020.26 0.00000 1.45059e-13
  8 2020.26 0.00000 1.29249e-13
  9 2020.26 0.00000 -9.76356e-14
  10 2020.26 0.00000 -7.80669e-14
  11 2020.26 0.00000 4.45169e-14
  12 2020.26 0.00000 8.58033e-14
</Section>

newXOutput 52

<Section columns = "stress_xx | stress_yy | stress_xy">
  1 2058.84 0.00000 1.57244e-13
  2 2058.84 0.00000 1.35466e-13
  3 2058.84 0.00000 4.74278e-14
  4 2058.84 0.00000 3.29818e-14
  5 2058.84 0.00000 -5.83918e-14
  6 2058.84 0.00000 -7.00810e-14
  7 2058.84 0.00000 -1.13898e-13
  8 2058.84 0.00000 -1.26673e-13
  9 2058.84 0.00000 -4.99094e-13
  10 2058.84 0.00000 -4.18006e-13
  11 2058.84 0.00000 -6.42251e-14
  12 2058.84 0.00000 1.55374e-14
</Section>

newXOutput 53

<Section columns = "stress_xx | stress_yy | stress_xy">
  1 2097.36 0.00000 9.25339e-14
  2 2097.36 0.00000 8.45137e-14
  3 2097.36 0.00000 9.86743e-15
  4 2097.36 0.00000 -1.29194e-14
  5 2097.36 0.00000 1.68827e-13
  6 2097.36 0.00000 1.35528e-13
  7 2097.36 0.00000 -1.47305e-13
  8 2097.36 0.00000 -1.66034e-13
  9 2097.36 0.00000 4.99785e-14
  10 2097.36 0.00000 4.04427e-14
  11 2097.36 0.00000 -4.91307e-14
  12 2097.36 0.00000 -5.51458e-14
</Section>

newXOutput 54

<Section columns = "stress_xx | stress_yy | stress_xy">
  1 2135.83 0.00000 1.45148e-13
  2 2135.83 0.00000 1.34698e-13
  3 2135.83 0.00000 2.41811e-13
  4 2135.83 0.00000 2.14218e-13
  5 2135.83 0.00000 -2.96988e-14
  6 2135.83 0.00000 -5.86250e-14
  7 2135.83 0.00000 8.22960e-14
  8 2135.83 0.00000 1.10269e-13
  9 2135.83 0.00000 -1.59823e-13
  10 2135.83 0.00000 -9.17676e-14
  11 2135.83 0.00000 -3.39616e-15
  12 2135.83 0.00000 -1.76535e-13
</Section>

newXOutput 55

<Section columns = "stress_xx | stress_yy | stress_xy">
  1 2174.24 0.00000 1.22902e-13
  2 2174.24 0.00000 1.28291e-13
  3 2174.24 0.00000 -2.58406e-13
  4 2174.24 0.00000 -2.75753e-13
  5 2174.24 0.00000 -4.60276e-14
  6 2174.24 0.00000 -6.53386e-14
  7 2174.24 0.00000 6.31936e-14
  8 2174.24 0.00000 5.25523e-14
  9 2174.24 0.00000 1.35890e-13
  10 2174.24 0.00000 1.69672e-13
  11 2174.24 0.00000 2.36693e-13
  12 2174.24 0.00000 2.84581e-13
</Section>

newXOutput 56

<Section columns = "stress_xx | stress_yy | stress_xy">
  1 2212.59 0.00000 1.02849e-13
  2 2212.59 0.00000 1.12592e-13
  3 2212.59 0.00000 -1.54691e-13
  4 2212.59 0.00000 -1.50794e-13
  5 2212.59 0.00000 -2.01267e-13
  6 2212.59 0.00000 -2.12626e-13
  7 2212.59 0.00000 -1.24556e-13
  8 2212.59 0.00000 -1.18682e-13
  9 2212.59 0.00000 -4.68432e-13
  10 2212.59 0.00000 -2.73169e-13
  11 2212.59 0.00000 -5.01305e-13
  12 2212.59 0.00000 -1.29143e-13
</Section>

newXOutput 57

<Section columns = "stress_xx | stress_yy | stress_xy">
  1 2250.90 0.00000 1.24497e-13
  2 2250.90 0.00000 1.38030e-13
  3 2250.90 0.00000 -6.50818e-14
  4 2250.90 0.00000 -5.99261e-14
  5 2250.90 0.00000 -4.61492e-14
  6 2250.90 0.00000 -5.64607e-14
  7 2250.90 0.00000 2.97192e-13
  8 2250.90 0.00000 2.99583e-13
  9 2250.90 0.00000 9.54520e-15
  10 2250.90 0.00000 1.90854e-13
  11 2250.90 0.00000 -4.98404e-14
  12 2250.90 0.00000 4.27504e-14
</Section>

newXOutput 58

<Section columns = "stress_xx | stress_yy | stress_xy">
  1 2289.15 0.00000 1.66994e-13
  2 2289.15 0.00000 1.91964e-13
  3 2289.15 0.00000 1.79891e-13
  4 2289.15 0.00000 1.57134e-13
  5 2289.15 0.00000 1.03191e-13
  6 2289.15 0.00000 6.02989e-14
  7 2289.15 0.00000 -6.32297e-13
  8 2289.15 0.00000 -6.29391e-13
  9 2289.15 0.00000 -4.49942e-13
  10 2289.15 0.00000 -4.63566e-13
  11 2289.15 0.00000 -1.92242e-13
  12 2289.15 0.00000 -2.90212e-13
</Section>

newXOutput 59

<Section columns = "stress_xx | stress_yy | stress_xy">
  1 2327.34 0.00000 8.94276e-14
  2 2327.34 0.00000 8.94276e-14
  3 2327.34 0.00000 -9.68862e-14
  4 2327.34 0.00000 -9.49938e-14
  5 2327.34 0.00000 -3.13937e-13
  6 2327.34 0.00000 -3.18426e-13
  7 2327.34 0.00000 8.09228e-13
  8 2327.34 0.00000 7.99077e-13
  9 2327.34 0.00000 5.99894e-13
  10 2327.34 0.00000 6.06698e-13
  11 2327.34 0.00000 4.58129e-13
  12 2327.34 0.00000 4.93462e-13
</Section>

newXOutput 60

<Section columns = "stress_xx | stress_yy | stress_xy">
  1 2365.49 0.00000 1.32231e-13
  2 2365.49 0.00000 1.22533e-13
  3 2365.49 0.00000 -2.89406e-15
  4 2365.49 0.00000 -3.25650e-15
  5 2365.49 0.00000 -5.85495e-14
  6 2365.49 0.00000 -4.41072e-14
  7 2365.49 0.00000 3.58516e-14
  8 2365.49 0.00000 1.02286e-13
  9 2365.49 0.00000 -7.65297e-14
  10 2365.49 0.00000 -7.81258e-14
  11 2365.49 0.00000 1.28343e-13
  12 2365.49 0.00000 1.47079e-13
</Section>

newXOutput 61

<Section columns = "stress_xx | stress_yy | stress_xy">
  1 2403.58 0.00000 1.45170e-13
  2 2403.58 0.00000 1.45170e-13
  3 2403.58 0.00000 -6.14815e-14
  4 2403.58 0.00000 -4.04351e-14
  5 2403.58 0.00000 -1.18246e-13
  6 2403.58 0.00000 -1.06292e-13
  7 2403.58 0.00000 3.06660e-13
  8 2403.58 0.00000 3.39734e-13
  9 2403.58 0.00000 -2.00085e-13
  10 2403.58 0.00000 -1.07542e-14
  11 2403.58 0.00000 -3.19545e-13
  12 2403.58 0.00000 -2.66803e-13
</Section>

newXOutput 62

<Section columns = "stress_xx | stress_yy | stress_xy">
  1 2441.62 0.00000 9.54311e-14
  2 2441.62 0.00000 9.12245e-14
  3 2441.62 0.00000 -1.15189e-14
  4 2441.62 0.00000 -1.74108e-14
  5 2441.62 0.00000 1.28448e-13
  6 2441.62 0.00000 1.16664e-13
  7 2441.62 0.00000 -2.90452e-14
  8 2441.62 0.00000 -9.19590e-15
  9 2441.62 0.00000 2.26601e-14
  10 2441.62 0.00000 2.45203e-14
  11 2441.62 0.00000 -1.21698e-13
  12 2441.62 0.00000 -2.66121e-13
</Section>

newXOutput 63

<Section columns = "stress_xx | stress_yy | stress_xy">
  1 2479.62 0.00000 1.73005e-13
  2 2479.62 0.00000 2.07641e-13
  3 2479.62 0.00000 6.18799e-14
  4 2479.62 0.00000 7.55630e-14
  5 2479.62 0.00000 1.60380e-13
  6 2479.62 0.00000 1.43235e-13
  7 2479.62 0.00000 7.22597e-14
  8 2479.62 0.00000 2.09242e-14
  9 2479.62 0.00000 -4.53590e-14
  10 2479.62 0.00000 -1.15690e-13
  11 2479.62 0.00000 4.06524e-13
  12 2479.62 0.00000 2.41856e-13
</Section>

newXOutput 64

<Section columns = "stress_xx | stress_yy | stress_xy">
  1 2517.56 0.00000 1.06852e-13
  2 2517.56 0.00000 1.03255e-13
  3 2517.56 0.00000 2.33209e-14
  4 2517.56 0.00000 1.43276e-14
  5 2517.56 0.00000 -1.86682e-13
  6 2517.56 0.00000 -1.61232e-13
  7 2517.56 0.00000 -1.94491e-13
  8 2517.56 0.00000 -8.19346e-14
  9 2517.56 0.00000 -5.65432e-13
  10 2517.56 0.00000 -4.38387e-13
  11 2517.56 0.00000 -1.28966e-13
  12 2517.56 0.00000 -1.34448e-13
</Section>

newXOutput 65

<Section columns = "stress_xx | stress_yy | stress_xy">
  1 2555.46 0.00000 1.60435e-13
  2 2555.46 0.00000 1.24836e-13
  3 2555.46 0.00000 -3.09089e-13
  4 2555.46 0.00000 -3.30449e-13
  5 2555.46 0.00000 1.54694e-13
  6 2555.46 0.00000 1.65434e-13
  7 2555.46 0.00000 -2.40186e-13
  8 2555.46 0.00000 -2.37349e-13
  9 2555.46 0.00000 -9.63567e-14
  10 2555.46 0.00000 -1.88012e-14
  11 2555.46 0.00000 -6.43564e-14
  12 2555.46 0.00000 1.27943e-13
</Section>

newXOutput 66

<Section columns = "stress_xx | stress_yy | stress_xy">
  1 2593.31 0.00000 1.07042e-13
  2 2593.31 0.00000 1.13142e-13
  3 2593.31 0.00000 1.53718e-13
  4 2593.31 0.00000 1.54173e-13
  5 2593.31 0.00000 -1.34441e-13
  6 2593.31 0.00000 -1.49382e-13
  7 2593.31 0.00000 -2.05670e-13
  8 2593.31 0.00000 -2.18005e-13
  9 2593.31 0.00000 1.23068e-13
  10 2593.31 0.00000 2.06825e-13
  11 2593.31 0.00000 -1.64439e-13
  12 2593.31 0.00000 5.30225e-14
</Section>

newXOutput 67

<Section columns = "stress_xx | stress_yy | stress_xy">
  1 2631.12 0.00000 1.99134e-13
  2 2631.12 0.00000 1.95649e-13
  3 2631.12 0.00000 1.28634e-13
  4 2631.12 0.00000 1.24278e-13
  5 2631.12 0.00000 1.22996e-14
  6 2631.12 0.00000 1.14266e-14
  7 2631.12 0.00000 1.00936e-13
  8 2631.12 0.00000 1.16293e-13
  9 2631.12 0.00000 4.21809e-14
  10 2631.12 0.00000 -4.70786e-14
  11 2631.12 0.00000 3.45551e-13
  12 2631.12 0.00000 -1.60314e-13
</Section>

newXOutput 68

<Section columns = "stress_xx | stress_yy | stress_xy">
  1 2668.88 0.00000 1.57302e-13
  2 2668.88 0.00000 1.50979e-13
  3 2668.88 0.00000 -3.10309e-14
  4 2668.88 0.00000 -2.63065e-14
  5 2668.88 0.00000 1.12750e-13
  6 2668.88 0.00000 1.08408e-13
  7 2668.88 0.00000 3.49336e-14
  8 2668.88 0.00000 1.90649e-14
  9 2668.88 0.00000 1.10236e-13
  10 2668.88 0.00000 1.13005e-15
  11 2668.88 0.00000 -1.66696e-13
  12 2668.88 0.00000 -3.27557e-13
</Section>

newXOutput 69

<Section columns = "stress_xx | stress_yy | stress_xy">
  1 2706.59 0.00000 2.16328e-13
  2 2706.59 0.00000 1.56480e-13
  3 2706.59 0.00000 6.34323e-13
  4 2706.59 0.00000 6.24687e-13
  5 2706.59 0.00000 6.66876e-13
  6 2706.59 0.00000 6.94278e-13
  7 2706.59 0.00000 -2.05713e-14
  8 2706.59 0.00000 5.25611e-14
  9 2706.59 0.00000 -2.27705e-13
  10 2706.59 0.00000 -2.12256e-13
  11 2706.59 0.00000 -6.40385e-14
  12 2706.59 0.00000 -1.12742e-13
</Section>

newXOutput 70

<Section columns = "stress_xx | stress_yy | stress_xy">
  1 2744.26 0.00000 1.35057e-13
  2 2744.26 0.00000 1.52049e-13
  3 2744.26 0.00000 1.14497e-13
  4 2744.26 0.00000 1.52682e-13
  5 2744.26 0.00000 -5.38951e-14
  6 2744.26 0.00000 -5.73617e-14
  7 2744.26 0.00000 6.59676e-14
  8 2744.26 0.00000 2.58613e-14
  9 2744.26 0.00000 -1.04176e-12
  10 2744.26 0.00000 -9.87731e-13
  11 2744.26 0.00000 -3.01372e-13
  12 2744.26 0.00000 -2.88941e-14
</Section>

newXOutput 71

<Section columns = "stress_xx | stress_yy | stress_xy">
  1 2781.89 0.00000 1.38086e-13
  2 2781.89 0.00000 1.06730e-13
  3 2781.89 0.00000 -1.87140e-13
  4 2781.89 0.00000 -2.03904e-13
  5 2781.89 0.00000 -2.76209e-13
  6 2781.89 0.00000 -2.54490e-13
  7 2781.89 0.00000 9.34334e-14
  8 2781.89 0.00000 1.57621e-13
  9 2781.89 0.00000 -2.36671e-13
  10 2781.89 0.00000 -3.51416e-14
  11 2781.89 0.00000 -6.75639e-14
  12 2781.89 0.00000 -5.57844e-14
</Section>

newXOutput 72

<Section columns = "stress_xx | stress_yy | stress_xy">
  1 2819.48 0.00000 9.54876e-14
  2 2819.48 0.00000 1.52961e-13
  3 2819.48 0.00000 -7.66381e-14
  4 2819.48 0.00000 -4.37790e-14
  5 2819.48 0.00000 7.54923e-14
  6 2819.48 0.00000 7.53369e-14
  7 2819.48 0.00000 9.98974e-14
  8 2819.48 0.00000 8.07057e-14
  9 2819.48 0.00000 -1.62200e-13
  10 2819.48 0.00000 -1.67901e-13
  11 2819.48 0.00000 8.03078e-15
  12 2819.48 0.00000 1.84467e-13
</Section>

newXOutput 73

<Section columns = "stress_xx | stress_yy | stress_xy">
  1 2857.02 0.00000 2.06447e-13
  2 2857.02 0.00000 2.55569e-13
  3 2857.02 0.00000 1.36644e-13
  4 2857.02 0.00000 1.50608e-13
  5 2857.02 0.00000 9.56882e-14
  6 2857.02 0.00000 7.91985e-14
  7 2857.02 0.00000 1.67676e-13
  8 2857.02 0.00000 1.79597e-13
  9 2857.02 0.00000 -5.99972e-14
  10 2857.02 0.00000 1.37353e-14
  11 2857.02 0.00000 -2.56220e-13
  12 2857.02 0.00000 -1.10716e-13
</Section>

newXOutput 74

<Section columns = "stress_xx | stress_yy | stress_xy">
  1 2894.52 0.00000 1.00577e-13
  2 2894.52 0.00000 8.91324e-14
  3 2894.52 0.00000 -1.35293e-13
  4 2894.52 0.00000 -1.22106e-13
  5 2894.52 0.00000 -3.90455e-13
  6 2894.52 0.00000 -3.83420e-13
  7 2894.52 0.00000 1.13346e-13
  8 2894.52 0.00000 1.03514e-13
  9 2894.52 0.00000 2.64766e-13
  10 2894.52 0.00000 -1.78959e-14
  11 2894.52 0.00000 3.12412e-13
  12 2894.52 0.00000 -2.35401e-13
</Section>

newXOutput 75

<Section columns = "stress_xx | stress_yy | stress_xy">
  1 2931.98 0.00000 1.41180e-13
  2 2931.98 0.00000 1.42172e-13
  3 2931.98 0.00000 -1.91481e-13
  4 2931.98 0.00000 -1.76573e-13
  5 2931.98 0.00000 1.87347e-13
  6 2931.98 0.00000 1.77789e-13
  7 2931.98 0.00000 -2.07928e-13
  8 2931.98 0.00000 -2.24354e-13
  9 2931.98 0.00000 -4.14990e-13
  10 2931.98 0.00000 -1.40116e-13
  11 2931.98 0.00000 -5.30616e-13
  12 2931.98 0.00000 -1.78372e-13
</Section>

newXOutput 76

<Section columns = "stress_xx | stress_yy | stress_xy">
  1 2969.40 0.00000 1.53353e-13
  2 2969.40 0.00000 1.43907e-13
  3 2969.40 0.00000 -1.64465e-13
  4 2969.40 0.00000 -1.77846e-13
  5 2969.40 0.00000 1.65330e-13
  6 2969.40 0.00000 1.84330e-13
  7 2969.40 0.00000 2.10788e-13
  8 2969.40 0.00000 2.25034e-13
  9 2969.40 0.00000 1.59640e-13
  10 2969.40 0.00000 4.67677e-14
  11 2969.40 0.00000 5.33922e-13
  12 2969.40 0.00000 -1.12732e-14
</Section>

newXOutput 77

<Section columns = "stress_xx | stress_yy | stress_xy">
  1 3006.78 0.00000 2.24734e-13
  2 3006.78 0.00000 2.15401e-13
  3 3006.78 0.00000 6.58459e-14
  4 3006.78 0.00000 6.04013e-14
  5 3006.78 0.00000 1.88711e-13
  6 3006.78 0.00000 2.07683e-13
  7 3006.78 0.00000 5.12653e-13
  8 3006.78 0.00000 5.71228e-13
  9 3006.78 0.00000 1.41710e-13
  10 3006.78 0.00000 1.85979e-13
  11 3006.78 0.00000 -2.63681e-13
  12 3006.78 0.00000 -3.68348e-13
</Section>

newXOutput 78

<Section columns = "stress_xx | stress_yy | stress_xy">
  1 3044.13 0.00000 1.16465e-13
  2 3044.13 0.00000 8.97408e-14
  3 3044.13 0.00000 8.33178e-14
  4 3044.13 0.00000 3.05889e-14
  5 3044.13 0.00000 6.20237e-13
  6 3044.13 0.00000 5.89892e-13
  7 3044.13 0.00000 -8.80952e-13
  8 3044.13 0.00000 -8.63005e-13
  9 3044.13 0.00000 2.80867e-13
  10 3044.13 0.00000 2.82668e-13
  11 3044.13 0.00000 -1.03139e-13
  12 3044.13 0.00000 1.28456e-13
</Section>

newXOutput 79

<Section columns = "stress_xx | stress_yy | stress_xy">
  1 3081.43 0.00000 2.02328e-13
  2 3081.43 0.00000 2.14515e-13
  3 3081.43 0.00000 -1.35738e-13
  4 3081.43 0.00000 -1.49789e-13
  5 3081.43 0.00000 -1.01998e-13
  6 3081.43 0.00000 -1.07312e-13
  7 3081.43 0.00000 -2.65991e-14
  8 3081.43 0.00000 -1.67159e-14
  9 3081.43 0.00000 2.53821e-13
  10 3081.43 0.00000 1.82962e-13
  11 3081.43 0.00000 1.68423e-13
  12 3081.43 0.00000 2.82731e-13
</Section>

newXOutput 80

<Section columns = "stress_xx | stress_yy | stress_xy">
  1 3118.70 0.00000 1.91827e-13
  2 3118.70 0.00000 2.17741e-13
  3 3118.70 0.00000 9.19799e-15
  4 3118.70 0.00000 2.19049e-14
  5 3118.70 0.00000 1.68728e-13
  6 3118.70 0.00000 1.61230e-13
  7 3118.70 0.00000 1.35659e-13
  8 3118.70 0.00000 1.62566e-13
  9 3118.70 0.00000 2.59196e-13
  10 3118.70 0.00000 3.41835e-13
  11 3118.70 0.00000 -2.00374e-13
  12 3118.70 0.00000 -3.20838e-13
</Section>

newXOutput 81

<Section columns = "stress_xx | stress_yy | stress_xy">
  1 3155.94 0.00000 2.12059e-13
  2 3155.94 0.00000 2.21518e-13
  3 3155.94 0.00000 -4.14991e-14
  4 3155.94 0.00000 -6.70995e-14
  5 3155.94 0.00000 -5.62442e-14
  6 3155.94 0.00000 -5.88094e-14
  7 3155.94 0.00000 8.57660e-14
  8 3155.94 0.00000 1.67900e-13
  9 3155.94 0.00000 7.08162e-13
  10 3155.94 0.00000 9.21051e-13
  11 3155.94 0.00000 3.36207e-13
  12 3155.94 0.00000 8.99970e-13
</Section>

newXOutput 82

<Section columns = "stress_xx | stress_yy | stress_xy">
  1 3193.13 0.00000 2.60601e-13
  2 3193.13 0.00000 2.31004e-13
  3 3193.13 0.00000 1.00340e-13
  4 3193.13 0.00000 6.98834e-14
  5 3193.13 0.00000 9.96151e-14
  6 3193.13 0.00000 1.14310e-13
  7 3193.13 0.00000 -2.70439e-13
  8 3193.13 0.00000 -1.71908e-13
  9 3193.13 0.00000 -2.51547e-13
  10 3193.13 0.00000 -4.11111e-13
  11 3193.13 0.00000 -6.38417e-13
  12 3193.13 0.00000 -6.23858e-13
</Section>

newXOutput 83

<Section columns = "stress_xx | stress_yy | stress_xy">
  1 3230.30 0.00000 1.70684e-13
  2 3230.30 0.00000 1.46495e-13
  3 3230.30 0.00000 -5.64857e-14
  4 3230.30 0.00000 -9.47905e-14
  5 3230.30 0.00000 -2.97900e-14
  6 3230.30 0.00000 -4.01678e-14
  7 3230.30 0.00000 3.09376e-13
  8 3230.30 0.00000 2.84899e-13
  9 3230.30 0.00000 3.43814e-13
  10 3230.30 0.00000 1.08983e-13
  11 3230.30 0.00000 6.32238e-13
  12 3230.30 0.00000 6.86099e-14
</Section>

newXOutput 84

<Section columns = "stress_xx | stress_yy | stress_xy">
  1 3267.42 0.00000 2.68869e-13
  2 3267.42 0.00000 1.89669e-13
  3 3267.42 0.00000 7.97118e-14
  4 3267.42 0.00000 3.78156e-14
  5 3267.42 0.00000 2.01972e-15
  6 3267.42 0.00000 1.67484e-15
  7 3267.42 0.00000 4.25864e-13
  8 3267.42 0.00000 3.55608e-13
  9 3267.42 0.00000 5.35678e-13
  10 3267.42 0.00000 5.07988e-13
  11 3267.42 0.00000 -2.62372e-13
  12 3267.42 0.00000 -3.04444e-13
</Section>

newXOutput 85

<Section columns = "stress_xx | stress_yy | stress_xy">
  1 3304.52 0.00000 3.38246e-13
  2 3304.52 0.00000 2.51730e-13
  3 3304.52 0.00000 7.73193e-14
  4 3304.52 0.00000 5.59268e-15
  5 3304.52 0.00000 1.32194e-13
  6 3304.52 0.00000 1.28678e-13
  7 3304.52 0.00000 1.93153e-13
  8 3304.52 0.00000 1.70940e-13
  9 3304.52 0.00000 2.05654e-13
  10 3304.52 0.00000 2.52219e-13
  11 3304.52 0.00000 1.22172e-13
  12 3304.52 0.00000 4.55493e-13
</Section>

newXOutput 86

<Section columns = "stress_xx | stress_yy | stress_xy">
  1 3341.58 0.00000 1.79867e-13
  2 3341.58 0.00000 2.23451e-13
  3 3341.58 0.00000 -1.14700e-13
  4 3341.58 0.00000 -4.10464e-14
  5 3341.58 0.00000 1.53959e-13
  6 3341.58 0.00000 1.85017e-13
  7 3341.58 0.00000 2.81174e-14
  8 3341.58 0.00000 7.84599e-14
  9 3341.58 0.00000 8.94567e-14
  10 3341.58 0.00000 -9.59305e-14
  11 3341.58 0.00000 -6.89723e-14
  12 3341.58 0.00000 -2.31529e-13
</Section>

newXOutput 87

<Section columns = "stress_xx | stress_yy | stress_xy">
  1 3378.61 0.00000 1.74049e-13
  2 3378.61 0.00000 2.02795e-13
  3 3378.61 0.00000 3.43500e-14
  4 3378.61 0.00000 5.41983e-14
  5 3378.61 0.00000 4.84166e-13
  6 3378.61 0.00000 4.75391e-13
  7 3378.61 0.00000 5.05240e-14
  8 3378.61 0.00000 1.69820e-14
  9 3378.61 0.00000 -9.10862e-14
  10 3378.61 0.00000 -1.12186e-13
  11 3378.61 0.00000 -6.68063e-14
  12 3378.61 0.00000 -1.28917e-13
</Section>

newXOutput 88

<Section columns = "stress_xx | stress_yy | stress_xy">
  1 3415.61 0.00000 3.21110e-13
  2 3415.61 0.00000 3.02458e-13
  3 3415.61 0.00000 2.37257e-13
  4 3415.61 0.00000 2.25698e-13
  5 3415.61 0.00000 -4.35268e-13
  6 3415.61 0.00000 -4.56830e-13
  7 3415.61 0.00000 2.47446e-13
  8 3415.61 0.00000 2.14761e-13
  9 3415.61 0.00000 3.59412e-13
  10 3415.61 0.00000 7.69125e-13
  11 3415.61 0.00000 1.22324e-13
  12 3415.61 0.00000 9.24536e-13
</Section>

newXOutput 89

<Section columns = "stress_xx | stress_yy | stress_xy">
  1 3452.58 0.00000 -9.80641e-15
  2 3452.58 0.00000 7.48446e-14
  3 3452.58 0.00000 -5.14370e-13
  4 3452.58 0.00000 -4.36702e-13
  5 3452.58 0.00000 2.29513e-13
  6 3452.58 0.00000 2.35720e-13
  7 3452.58 0.00000 -6.91395e-13
  8 3452.58 0.00000 -6.58167e-13
  9 3452.58 0.00000 -8.65882e-13
  10 3452.58 0.00000 -6.76079e-13
  11 3452.58 0.00000 -5.04348e-13
  12 3452.58 0.00000 -5.03922e-13
</Section>

newXOutput 90

<Section columns = "stress_xx | stress_yy | stress_xy">
  1 3489.52 0.00000 2.65053e-13
  2 3489.52 0.00000 2.68991e-13
  3 3489.52 0.00000 2.28782e-13
  4 3489.52 0.00000 2.24187e-13
  5 3489.52 0.00000 3.59584e-13
  6 3489.52 0.00000 3.39770e-13
  7 3489.52 0.00000 2.09570e-13
  8 3489.52 0.00000 2.09082e-13
  9 3489.52 0.00000 4.47348e-13
  10 3489.52 0.00000 1.23860e-13
  11 3489.52 0.00000 6.44074e-13
  12 3489.52 0.00000 3.82684e-13
</Section>

newXOutput 91

<Section columns = "stress_xx | stress_yy | stress_xy">
  1 3526.42 0.00000 1.69152e-13
  2 3526.42 0.00000 2.20968e-13
  3 3526.42 0.00000 -9.18162e-14
  4 3526.42 0.00000 -7.17317e-14
  5 3526.42 0.00000 -1.51764e-13
  6 3526.42 0.00000 -1.62117e-13
  7 3526.42 0.00000 -1.01508e-13
  8 3526.42 0.00000 -8.40099e-14
  9 3526.42 0.00000 -6.47397e-14
  10 3526.42 0.00000 -2.22381e-13
  11 3526.42 0.00000 4.53411e-14
  12 3526.42 0.00000 -1.08160e-13
</Section>

newXOutput 92

<Section columns = "stress_xx | stress_yy | stress_xy">
  1 3563.30 0.00000 2.94476e-13
  2 3563.30 0.00000 2.43850e-13
  3 3563.30 0.00000 2.95035e-14
  4 3563.30 0.00000 -3.35246e-14
  5 3563.30 0.00000 -2.38145e-13
  6 3563.30 0.00000 -2.57015e-13
  7 3563.30 0.00000 3.55654e-14
  8 3563.30 0.00000 1.67097e-13
  9 3563.30 0.00000 9.15043e-15
  10 3563.30 0.00000 -1.59127e-13
  11 3563.30 0.00000 -3.53649e-14
  12 3563.30 0.00000 -1.70324e-13
</Section>

newXOutput 93

<Section columns = "stress_xx | stress_yy | stress_xy">
  1 3600.16 0.00000 1.23266e-13
  2 3600.16 0.00000 2.29117e-13
  3 3600.16 0.00000 -6.80733e-14
  4 3600.16 0.00000 -2.58037e-15
  5 3600.16 0.00000 -1.09484e-13
  6 3600.16 0.00000 -1.11111e-13
  7 3600.16 0.00000 8.87780e-14
  8 3600.16 0.00000 4.43544e-14
  9 3600.16 0.00000 -4.46657e-13
  10 3600.16 0.00000 -2.90961e-13
  11 3600.16 0.00000 -3.05348e-14
  12 3600.16 0.00000 2.82342e-13
</Section>

newXOutput 94

<Section columns = "stress_xx | stress_yy | stress_xy">
  1 3636.98 0.00000 2.79399e-13
  2 3636.98 0.00000 2.84351e-13
  3 3636.98 0.00000 -7.65672e-14
  4 3636.98 0.00000 -7.53292e-14
  5 3636.98 0.00000 -1.55182e-13
  6 3636.98 0.00000 -1.61824e-13
  7 3636.98 0.00000 -7.97418e-14
  8 3636.98 0.00000 -7.52877e-14
  9 3636.98 0.00000 3.25171e-13
  10 3636.98 0.00000 3.18649e-13
  11 3636.98 0.00000 1.94327e-13
  12 3636.98 0.00000 1.02509e-13
</Section>

newXOutput 95

<Section columns = "stress_xx | stress_yy | stress_xy">
  1 3673.78 0.00000 1.78178e-13
  2 3673.78 0.00000 1.83055e-13
  3 3673.78 0.00000 -1.07590e-13
  4 3673.78 0.00000 -1.07590e-13
  5 3673.78 0.00000 -3.08903e-13
  6 3673.78 0.00000 -3.13096e-13
  7 3673.78 0.00000 -3.05627e-13
  8 3673.78 0.00000 -2.90163e-13
  9 3673.78 0.00000 9.87706e-13
  10 3673.78 0.00000 9.91662e-13
  11 3673.78 0.00000 3.42992e-13
  12 3673.78 0.00000 2.57322e-13
</Section>

newXOutput 96

<Section columns = "stress_xx | stress_yy | stress_xy">
  1 3710.55 0.00000 2.60095e-13
  2 3710.55 0.00000 2.74319e-13
  3 3710.55 0.00000 -1.24026e-13
  4 3710.55 0.00000 -1.46130e-13
  5 3710.55 0.00000 -3.38262e-13
  6 3710.55 0.00000 -3.61292e-13
  7 3710.55 0.00000 -2.90652e-13
  8 3710.55 0.00000 -3.04293e-13
  9 3710.55 0.00000 -3.01733e-13
  10 3710.55 0.00000 -3.32800e-13
  11 3710.55 0.00000 -3.20229e-13
  12 3710.55 0.00000 -4.16746e-13
</Section>

newXOutput 97

<Section columns = "stress_xx | stress_yy | stress_xy">
  1 3747.30 0.00000 2.28075e-13
  2 3747.30 0.00000 2.21286e-13
  3 3747.30 0.00000 -8.19166e-14
  4 3747.30 0.00000 -1.22067e-13
  5 3747.30 0.00000 -1.90479e-13
  6 3747.30 0.00000 -2.21112e-13
  7 3747.30 0.00000 3.39371e-14
  8 3747.30 0.00000 1.59344e-14
  9 3747.30 0.00000 1.52218e-13
  10 3747.30 0.00000 3.68234e-13
  11 3747.30 0.00000 2.39438e-13
  12 3747.30 0.00000 8.82844e-13
</Section>

newXOutput 98

<Section columns = "stress_xx | stress_yy | stress_xy">
  1 3784.02 0.00000 1.53465e-13
  2 3784.02 0.00000 1.65096e-13
  3 3784.02 0.00000 -2.99120e-13
  4 3784.02 0.00000 -3.37754e-13
  5 3784.02 0.00000 -1.00451e-13
  6 3784.02 0.00000 -1.46847e-13
  7 3784.02 0.00000 -7.41736e-15
  8 3784.02 0.00000 2.11338e-14
  9 3784.02 0.00000 5.46084e-14
  10 3784.02 0.00000 -1.30124e-13
  11 3784.02 0.00000 7.12857e-14
  12 3784.02 0.00000 -1.80960e-13
</Section>

newXOutput 99

<Section columns = "stress_xx | stress_yy | stress_xy">
  1 3820.72 0.00000 3.25759e-13
  2 3820.72 0.00000 2.49508e-13
  3 3820.72 0.00000 1.71576e-13
  4 3820.72 0.00000 9.05446e-14
  5 3820.72 0.00000 -2.91255e-13
  6 3820.72 0.00000 -3.08143e-13
  7 3820.72 0.00000 4.93882e-13
  8 3820.72 0.00000 4.73843e-13
  9 3820.72 0.00000 3.25297e-13
  10 3820.72 0.00000 1.46427e-13
  11 3820.72 0.00000 -7.45922e-14
  12 3820.72 0.00000 -2.36101e-13
</Section>

newXOutput 100

<Section columns = "stress_xx | stress_yy | stress_xy">
  1 3857.39 0.00000 3.03058e-13
  2 3857.39 0.00000 2.19410e-13
  3 3857.39 0.00000 8.50808e-14
  4 3857.39 0.00000 1.54998e-14
  5 3857.39 0.00000 -3.49172e-13
  6 3857.39 0.00000 -3.66440e-13
  7 3857.39 0.00000 4.52355e-14
  8 3857.39 0.00000 8.53718e-14
  9 3857.39 0.00000 3.67246e-14
  10 3857.39 0.00000 1.01132e-13
  11 3857.39 0.00000 -3.78126e-14
  12 3857.39 0.00000 1.99615e-13
</Section>

newXOutput 101

<Section columns = "stress_xx | stress_yy | stress_xy">
  1 3894.04 0.00000 3.24640e-13
  2 3894.04 0.00000 3.15784e-13
  3 3894.04 0.00000 1.24937e-13
  4 3894.04 0.00000 1.17189e-13
  5 3894.04 0.00000 -1.72053e-13
  6 3894.04 0.00000 -1.33828e-13
  7 3894.04 0.00000 3.69215e-13
  8 3894.04 0.00000 5.59082e-13
  9 3894.04 0.00000 3.53478e-13
  10 3894.04 0.00000 5.52803e-13
  11 3894.04 0.00000 -1.59674e-13
  12 3894.04 0.00000 -1.47180e-13
</Section>

newXOutput 102

<Section columns = "stress_xx | stress_yy | stress_xy">
  1 3930.67 0.00000 1.97532e-13
  2 3930.67 0.00000 1.60420e-13
  3 3930.67 0.00000 -1.46299e-13
  4 3930.67 0.00000 -1.95828e-13
  5 3930.67 0.00000 -2.28492e-13
  6 3930.67 0.00000 -2.32873e-13
  7 3930.67 0.00000 -2.98160e-13
  8 3930.67 0.00000 -3.02218e-13
  9 3930.67 0.00000 2.62021e-13
  10 3930.67 0.00000 -2.99547e-14
  11 3930.67 0.00000 3.74291e-14
  12 3930.67 0.00000 1.42345e-13
</Section>

newXOutput 103

<Section columns = "stress_xx | stress_yy | stress_xy">
  1 3967.28 0.00000 2.22246e-13
  2 3967.28 0.00000 2.22246e-13
  3 3967.28 0.00000 -6.54329e-14
  4 3967.28 0.00000 -1.15363e-13
  5 3967.28 0.00000 -2.86538e-13
  6 3967.28 0.00000 -3.81050e-13
  7 3967.28 0.00000 -2.34181e-13
  8 3967.28 0.00000 -2.46312e-13
  9 3967.28 0.00000 -3.49434e-13
  10 3967.28 0.00000 -4.44763e-13
  11 3967.28 0.00000 2.63288e-13
  12 3967.28 0.00000 1.87314e-13
</Section>

newXOutput 104

<Section columns = "stress_xx | stress_yy | stress_xy">
  1 4003.87 0.00000 3.07881e-13
  2 4003.87 0.00000 2.99476e-13
  3 4003.87 0.00000 5.40066e-14
  4 4003.87 0.00000 4.77024e-14
  5 4003.87 0.00000 -1.72634e-13
  6 4003.87 0.00000 -1.48554e-13
  7 4003.87 0.00000 -2.05416e-13
  8 4003.87 0.00000 -1.77116e-13
  9 4003.87 0.00000 -4.63388e-13
  10 4003.87 0.00000 -3.54932e-13
  11 4003.87 0.00000 -3.67849e-13
  12 4003.87 0.00000 -4.36011e-13
</Section>

newXOutput 105

<Section columns = "stress_xx | stress_yy | stress_xy">
  1 4040.44 0.00000 3.36833e-13
  2 4040.44 0.00000 3.32705e-13
  3 4040.44 0.00000 2.29422e-13
  4 4040.44 0.00000 2.29422e-13
  5 4040.44 0.00000 -4.95320e-13
  6 4040.44 0.00000 -4.96688e-13
  7 4040.44 0.00000 -3.64700e-13
  8 4040.44 0.00000 -3.38975e-13
  9 4040.44 0.00000 -6.52372e-13
  10 4040.44 0.00000 -6.02681e-13
  11 4040.44 0.00000 -5.67385e-14
  12 4040.44 0.00000 -1.05750e-13
</Section>

newXOutput 106

<Section columns = "stress_xx | stress_yy | stress_xy">
  1 4076.98 0.00000 3.07129e-13
  2 4076.98 0.00000 2.97549e-13
  3 4076.98 0.00000 -1.26898e-13
  4 4076.98 0.00000 -1.66242e-13
  5 4076.98 0.00000 -3.03798e-14
  6 4076.98 0.00000 9.09258e-15
  7 4076.98 0.00000 6.36830e-13
  8 4076.98 0.00000 6.36073e-13
  9 4076.98 0.00000 3.47741e-13
  10 4076.98 0.00000 2.35407e-13
  11 4076.98 0.00000 5.50715e-13
  12 4076.98 0.00000 1.29755e-13
</Section>

newXOutput 107

<Section columns = "stress_xx | stress_yy | stress_xy">
  1 4113.51 0.00000 2.23205e-13
  2 4113.51 0.00000 2.23205e-13
  3 4113.51 0.00000 1.03232e-13
  4 4113.51 0.00000 1.03232e-13
  5 4113.51 0.00000 -4.86837e-14
  6 4113.51 0.00000 -1.48685e-16
  7 4113.51 0.00000 -4.56644e-14
  8 4113.51 0.00000 4.10896e-14
  9 4113.51 0.00000 5.36836e-14
  10 4113.51 0.00000 -4.36548e-14
  11 4113.51 0.00000 3.73833e-13
  12 4113.51 0.00000 3.73833e-13
</Section>

newXOutput 108

<Section columns = "stress_xx | stress_yy | stress_xy">
  1 4150.03 0.00000 3.93668e-13
  2 4150.03 0.00000 3.72205e-13
  3 4150.03 0.00000 1.97950e-13
  4 4150.03 0.00000 1.87219e-13
  5 4150.03 0.00000 2.66048e-14
  6 4150.03 0.00000 2.40095e-14
  7 4150.03 0.00000 -5.73342e-13
  8 4150.03 0.00000 -5.92000e-13
  9 4150.03 0.00000 -3.07435e-13
  10 4150.03 0.00000 -1.12550e-13
  11 4150.03 0.00000 -1.13824e-13
  12 4150.03 0.00000 -4.27865e-14
</Section>

newXOutput 109

<Section columns = "stress_xx | stress_yy | stress_xy">
  1 4186.52 0.00000 2.57231e-13
  2 4186.52 0.00000 2.95790e-13
  3 4186.52 0.00000 2.65141e-13
  4 4186.52 0.00000 2.82507e-13
  5 4186.52 0.00000 4.64932e-13
  6 4186.52 0.00000 4.43948e-13
  7 4186.52 0.00000 -1.80231e-13
  8 4186.52 0.00000 -1.70113e-13
  9 4186.52 0.00000 6.45824e-14
  10 4186.52 0.00000 9.59062e-14
  11 4186.52 0.00000 -3.84248e-14
  12 4186.52 0.00000 -1.24824e-13
</Section>

newXOutput 110

<Section columns = "stress_xx | stress_yy | stress_xy">
  1 4223.00 0.00000 2.12571e-13
  2 4223.00 0.00000 2.18198e-13
  3 4223.00 0.00000 -5.74641e-14
  4 4223.00 0.00000 -7.01406e-15
  5 4223.00 0.00000 -6.97181e-14
  6 4223.00 0.00000 -3.52205e-14
  7 4223.00 0.00000 1.66252e-13
  8 4223.00 0.00000 1.38245e-13
  9 4223.00 0.00000 3.46471e-13
  10 4223.00 0.00000 1.68935e-13
  11 4223.00 0.00000 3.90439e-13
  12 4223.00 0.00000 2.95971e-13
</Section>

newXOutput 111

<Section columns = "stress_xx | stress_yy | stress_xy">
  1 4259.46 0.00000 2.36024e-13
  2 4259.46 0.00000 3.05338e-13
  3 4259.46 0.00000 -1.49848e-13
  4 4259.46 0.00000 -9.51051e-14
  5 4259.46 0.00000 -4.89712e-14
  6 4259.46 0.00000 1.08837e-14
  7 4259.46 0.00000 -1.34211e-13
  8 4259.46 0.00000 1.51704e-15
  9 4259.46 0.00000 -3.47254e-14
  10 4259.46 0.00000 -4.70792e-14
  11 4259.46 0.00000 5.35272e-15
  12 4259.46 0.00000 1.00673e-15
</Section>

newXOutput 112

<Section columns = "stress_xx | stress_yy | stress_xy">
  1 4295.90 0.00000 2.15732e-13
  2 4295.90 0.00000 2.34679e-13
  3 4295.90 0.00000 -4.09412e-14
  4 4295.90 0.00000 -3.45602e-14
  5 4295.90 0.00000 -3.06673e-14
  6 4295.90 0.00000 -1.35152e-14
  7 4295.90 0.00000 7.88492e-15
  8 4295.90 0.00000 3.78501e-14
  9 4295.90 0.00000 -7.18348e-14
  10 4295.90 0.00000 1.75010e-13
  11 4295.90 0.00000 -3.77042e-13
  12 4295.90 0.00000 2.94662e-13
</Section>

newXOutput 113

<Section columns = "stress_xx | stress_yy | stress_xy">
  1 4332.33 0.00000 3.61688e-13
  2 4332.33 0.00000 3.14766e-13
  3 4332.33 0.00000 3.22514e-13
  4 4332.33 0.00000 2.97290e-13
  5 4332.33 0.00000 4.26507e-14
  6 4332.33 0.00000 4.06076e-14
  7 4332.33 0.00000 -2.99965e-13
  8 4332.33 0.00000 -2.67942e-13
  9 4332.33 0.00000 2.80474e-14
  10 4332.33 0.00000 1.90306e-13
  11 4332.33 0.00000 -1.22875e-13
  12 4332.33 0.00000 3.50046e-13
</Section>

newXOutput 114

<Section columns = "stress_xx | stress_yy | stress_xy">
  1 4368.75 0.00000 2.83316e-13
  2 4368.75 0.00000 2.83316e-13
  3 4368.75 0.00000 -1.45055e-13
  4 4368.75 0.00000 -1.48506e-13
  5 4368.75 0.00000 3.33973e-13
  6 4368.75 0.00000 3.70702e-13
  7 4368.75 0.00000 9.82181e-13
  8 4368.75 0.00000 1.04425e-12
  9 4368.75 0.00000 6.14273e-13
  10 4368.75 0.00000 4.58157e-13
  11 4368.75 0.00000 -2.83427e-13
  12 4368.75 0.00000 -4.87024e-13
</Section>

newXOutput 115

<Section columns = "stress_xx | stress_yy | stress_xy">
  1 4405.15 0.00000 3.44662e-13
  2 4405.15 0.00000 3.46349e-13
  3 4405.15 0.00000 -4.61467e-14
  4 4405.15 0.00000 -4.19277e-14
  5 4405.15 0.00000 -6.55147e-14
  6 4405.15 0.00000 -2.90032e-14
  7 4405.15 0.00000 -6.67743e-13
  8 4405.15 0.00000 -6.95558e-13
  9 4405.15 0.00000 1.72363e-13
  10 4405.15 0.00000 1.27093e-14
  11 4405.15 0.00000 2.94721e-13
  12 4405.15 0.00000 -1.16440e-13
</Section>

newXOutput 116

<Section columns = "stress_xx | stress_yy | stress_xy">
  1 4400.44 0.00000 0.0593816
  2 4400.44 0.00000 -0.0593816
  3 4400.90 0.00000 0.530520
  4 4400.90 0.00000 -0.530520
  5 4386.28 0.00000 0.501268
  6 4386.28 0.00000 -0.501268
  7 4386.28 0.00000 -0.501268
  8 4386.28 0.00000 0.501268
  9 4400.90 0.00000 -0.530520
  10 4400.90 0.00000 0.530520
  11 4400.44 0.00000 -0.0593816
  12 4400.44 0.00000 0.0593816
</Section>

newXOutput 117

<Section columns = "stress_xx | stress_yy | stress_xy">
  1 4365.62 0.00000 0.567676
  2 4365.62 0.00000 -0.567676
  3 4365.96 0.00000 1.26217
  4 4365.96 0.00000 -1.26217
  5 4321.53 0.00000 0.979864
  6 4321.53 0.00000 -0.979864
  7 4321.53 0.00000 -0.979864
  8 4321.53 0.00000 0.979864
  9 4365.96 0.00000 -1.26217
  10 4365.96 0.00000 1.26217
  11 4365.62 0.00000 -0.567676
  12 4365.62 0.00000 0.567676
</Section>

newXOutput 118

<Section columns = "stress_xx | stress_yy | stress_xy">
  1 4327.01 0.00000 0.982950
  2 4327.01 0.00000 -0.982950
  3 4327.35 0.00000 1.58185
  4 4327.35 0.00000 -1.58185
  5 4253.06 0.00000 1.09203
  6 4253.06 0.00000 -1.09203
  7 4253.06 0.00000 -1.09203
  8 4253.06 0.00000 1.09203
  9 4327.35 0.00000 -1.58185
  10 4327.35 0.00000 1.58185
  11 4327.01 0.00000 -0.982950
  12 4327.01 0.00000 0.982950
</Section>

newXOutput 119

<Section columns = "stress_xx | stress_yy | stress_xy">
  1 4286.60 0.00000 1.12440
  2 4286.60 0.00000 -1.12440
  3 4286.97 0.00000 1.71035
  4 4286.97 0.00000 -1.71035
  5 4184.27 0.00000 1.14990
  6 4184.27 0.00000 -1.14990
  7 4184.27 0.00000 -1.14990
  8 4184.27 0.00000 1.14990
  9 4286.97 0.00000 -1.71035
  10 4286.97 0.00000 1.71035
  11 4286.60 0.00000 -1.12440
  12 4286.60 0.00000 1.12440
</Section>

newXOutput 120

<Section columns = "stress_xx | stress_yy | stress_xy">
  1 4246.44 0.00000 1.16298
  2 4246.44 0.00000 -1.16298
  3 4246.82 0.00000 1.72074
  4 4246.82 0.00000 -1.72074
  5 4117.15 0.00000 1.14092
  6 4117.15 0.00000 -1.14092
  7 4117.15 0.00000 -1.14092
  8 4117.15 0.00000 1.14092
  9 4246.82 0.00000 -1.72074
  10 4246.82 0.00000 1.72074
  11 4246.44 0.00000 -1.16298
  12 4246.44 0.00000 1.16298
</Section>

newXOutput 121

<Section columns = "stress_xx | stress_yy | stress_xy">
  1 4207.77 0.00000 1.17014
  2 4207.77 0.00000 -1.17014
  3 4208.11 0.00000 1.74965
  4 4208.11 0.00000 -1.74965
  5 4053.19 0.00000 1.16634
  6 4053.19 0.00000 -1.16634
  7 4053.19 0.00000 -1.16634
  8 4053.19 0.00000 1.16634
  9 4208.11 0.00000 -1.74965
  10 4208.11 0.00000 1.74965
  11 4207.77 0.00000 -1.17014
  12 4207.77 0.00000 1.17014
</Section>

newXOutput 122

<Section columns = "stress_xx | stress_yy | stress_xy">
  1 4169.31 0.00000 1.16686
  2 4169.31 0.00000 -1.16686
  3 4169.65 0.00000 1.71906
  4 4169.65 0.00000 -1.71906
  5 3990.73 0.00000 1.13728
  6 3990.73 0.00000 -1.13728
  7 3990.73 0.00000 -1.13728
  8 3990.73 0.00000 1.13728
  9 4169.65 0.00000 -1.71906
  10 4169.65 0.00000 1.71906
  11 4169.31 0.00000 -1.16686
  12 4169.31 0.00000 1.16686
</Section>

newXOutput 123

<Section columns = "stress_xx | stress_yy | stress_xy">
  1 4131.47 0.00000 1.13632
  2 4131.47 0.00000 -1.13632
  3 4131.79 0.00000 1.64965
  4 4131.79 0.00000 -1.64965
  5 3930.13 0.00000 1.08295
  6 3930.13 0.00000 -1.08295
  7 3930.13 0.00000 -1.08295
  8 3930.13 0.00000 1.08295
  9 4131.79 0.00000 -1.64965
  10 4131.79 0.00000 1.64965
  11 4131.47 0.00000 -1.13632
  12 4131.47 0.00000 1.13632
</Section>

newXOutput 124

<Section columns = "stress_xx | stress_yy | stress_xy">
  1 4095.00 0.00000 1.10578
  2 4095.00 0.00000 -1.10578
  3 4095.29 0.00000 1.64674
  4 4095.29 0.00000 -1.64674
  5 3872.35 0.00000 1.09539
  6 3872.35 0.00000 -1.09539
  7 3872.35 0.00000 -1.09539
  8 3872.35 0.00000 1.09539
  9 4095.29 0.00000 -1.64674
  10 4095.29 0.00000 1.64674
  11 4095.00 0.00000 -1.10578
  12 4095.00 0.00000 1.10578
</Section>

newXOutput 125

<Section columns = "stress_xx | stress_yy | stress_xy">
  1 4058.92 0.00000 1.09016
  2 4058.92 0.00000 -1.09016
  3 4059.20 0.00000 1.60786
  4 4059.20 0.00000 -1.60786
  5 3815.96 0.00000 1.06422
  6 3815.96 0.00000 -1.06422
  7 3815.96 0.00000 -1.06422
  8 3815.96 0.00000 1.06422
  9 4059.20 0.00000 -1.60786
  10 4059.20 0.00000 1.60786
  11 4058.92 0.00000 -1.09016
  12 4058.92 0.00000 1.09016
</Section>

newXOutput 126

<Section columns = "stress_xx | stress_yy | stress_xy">
  1 4024.40 0.00000 1.07148
  2 4024.40 0.00000 -1.07148
  3 4024.61 0.00000 1.62974
  4 4024.61 0.00000 -1.62974
  5 3762.27 0.00000 1.09557
  6 3762.27 0.00000 -1.09557
  7 3762.27 0.00000 -1.09557
  8 3762.27 0.00000 1.09557
  9 4024.61 0.00000 -1.62974
  10 4024.61 0.00000 1.62974
  11 4024.40 0.00000 -1.07148
  12 4024.40 0.00000 1.07148
</Section>

newXOutput 127

<Section columns = "stress_xx | stress_yy | stress_xy">
  1 3989.70 0.00000 1.07244
  2 3989.70 0.00000 -1.07244
  3 3989.91 0.00000 1.61780
  4 3989.91 0.00000 -1.61780
  5 3709.34 0.00000 1.08310
  6 3709.34 0.00000 -1.08310
  7 3709.34 0.00000 -1.08310
  8 3709.34 0.00000 1.08310
  9 3989.91 0.00000 -1.61780
  10 3989.91 0.00000 1.61780
  11 3989.70 0.00000 -1.07244
  12 3989.70 0.00000 1.07244
</Section>

newXOutput 128

<Section columns = "stress_xx | stress_yy | stress_xy">
  1 3955.28 0.00000 1.06066
  2 3955.28 0.00000 -1.06066
  3 3955.49 0.00000 1.57848
  4 3955.49 0.00000 -1.57848
  5 3657.54 0.00000 1.04956
  6 3657.54 0.00000 -1.04956
  7 3657.54 0.00000 -1.04956
  8 3657.54 0.00000 1.04956
  9 3955.49 0.00000 -1.57848
  10 3955.49 0.00000 1.57848
  11 3955.28 0.00000 -1.06066
  12 3955.28 0.00000 1.06066
</Section>

newXOutput 129

<Section columns = "stress_xx | stress_yy | stress_xy">
  1 3921.39 0.00000 1.03159
  2 3921.39 0.00000 -1.03159
  3 3921.61 0.00000 1.61640
  4 3921.61 0.00000 -1.61640
  5 3607.42 0.00000 1.10223
  6 3607.42 0.00000 -1.10223
  7 3607.42 0.00000 -1.10223
  8 3607.42 0.00000 1.10223
  9 3921.61 0.00000 -1.61640
  10 3921.61 0.00000 1.61640
  11 3921.39 0.00000 -1.03159
  12 3921.39 0.00000 1.03159
</Section>

newXOutput 130

<Section columns = "stress_xx | stress_yy | stress_xy">
  1 3888.07 0.00000 1.03672
  2 3888.07 0.00000 -1.03672
  3 3888.29 0.00000 1.61811
  4 3888.29 0.00000 -1.61811
  5 3558.44 0.00000 1.10137
  6 3558.44 0.00000 -1.10137
  7 3558.44 0.00000 -1.10137
  8 3558.44 0.00000 1.10137
  9 3888.29 0.00000 -1.61811
  10 3888.29 0.00000 1.61811
  11 3888.07 0.00000 -1.03672
  12 3888.07 0.00000 1.03672
</Section>

newXOutput 131

<Section columns = "stress_xx | stress_yy | stress_xy">
  1 3854.83 0.00000 1.03541
  2 3854.83 0.00000 -1.03541
  3 3855.04 0.00000 1.59535
  4 3855.04 0.00000 -1.59535
  5 3510.24 0.00000 1.07918
  6 3510.24 0.00000 -1.07918
  7 3510.24 0.00000 -1.07918
  8 3510.24 0.00000 1.07918
  9 3855.04 0.00000 -1.59535
  10 3855.04 0.00000 1.59535
  11 3854.83 0.00000 -1.03541
  12 3854.83 0.00000 1.03541
</Section>

newXOutput 132

<Section columns = "stress_xx | stress_yy | stress_xy">
  1 3821.69 0.00000 1.02213
  2 3821.69 0.00000 -1.02213
  3 3821.90 0.00000 1.55545
  4 3821.90 0.00000 -1.55545
  5 3462.84 0.00000 1.04581
  6 3462.84 0.00000 -1.04581
  7 3462.84 0.00000 -1.04581
  8 3462.84 0.00000 1.04581
  9 3821.90 0.00000 -1.55545
  10 3821.90 0.00000 1.55545
  11 3821.69 0.00000 -1.02213
  12 3821.69 0.00000 1.02213
</Section>

newXOutput 133

<Section columns = "stress_xx | stress_yy | stress_xy">
  1 3788.67 0.00000 0.998803
  2 3788.67 0.00000 -0.998803
  3 3788.87 0.00000 1.50465
  4 3788.87 0.00000 -1.50465
  5 3416.21 0.00000 1.00656
  6 3416.21 0.00000 -1.00656
  7 3416.21 0.00000 -1.00656
  8 3416.21 0.00000 1.00656
  9 3788.87 0.00000 -1.50465
  10 3788.87 0.00000 1.50465
  11 3788.67 0.00000 -0.998803
  12 3788.67 0.00000 0.998803
</Section>

newXOutput 134

<Section columns = "stress_xx | stress_yy | stress_xy">
  1 3755.72 0.00000 0.968526
  2 3755.72 0.00000 -0.968526
  3 3755.92 0.00000 1.44766
  4 3755.92 0.00000 -1.44766
  5 3370.30 0.00000 0.964579
  6 3370.30 0.00000 -0.964579
  7 3370.30 0.00000 -0.964579
  8 3370.30 0.00000 0.964579
  9 3755.92 0.00000 -1.44766
  10 3755.92 0.00000 1.44766
  11 3755.72 0.00000 -0.968526
  12 3755.72 0.00000 0.968526
</Section>

newXOutput 135

<Section columns = "stress_xx | stress_yy | stress_xy">
  1 3722.82 0.00000 0.933976
  2 3722.82 0.00000 -0.933976
  3 3723.01 0.00000 1.38784
  4 3723.01 0.00000 -1.38784
  5 3325.04 0.00000 0.921930
  6 3325.04 0.00000 -0.921930
  7 3325.04 0.00000 -0.921930
  8 3325.04 0.00000 0.921930
  9 3723.01 0.00000 -1.38784
  10 3723.01 0.00000 1.38784
  11 3722.82 0.00000 -0.933976
  12 3722.82 0.00000 0.933976
</Section>

newXOutput 136

<Section columns = "stress_xx | stress_yy | stress_xy">
  1 3689.90 0.00000 0.897180
  2 3689.90 0.00000 -0.897180
  3 3690.10 0.00000 1.32758
  4 3690.10 0.00000 -1.32758
  5 3280.38 0.00000 0.879961
  6 3280.38 0.00000 -0.879961
  7 3280.38 0.00000 -0.879961
  8 3280.38 0.00000 0.879961
  9 3690.10 0.00000 -1.32758
  10 3690.10 0.00000 1.32758
  11 3689.90 0.00000 -0.897180
  12 3689.90 0.00000 0.897180
</Section>

newXOutput 137

<Section columns = "stress_xx | stress_yy | stress_xy">
  1 3656.93 0.00000 0.859577
  2 3656.93 0.00000 -0.859577
  3 3657.12 0.00000 1.26847
  4 3657.12 0.00000 -1.26847
  5 3236.22 0.00000 0.839562
  6 3236.22 0.00000 -0.839562
  7 3236.22 0.00000 -0.839562
  8 3236.22 0.00000 0.839562
  9 3657.12 0.00000 -1.26847
  10 3657.12 0.00000 1.26847
  11 3656.93 0.00000 -0.859577
  12 3656.93 0.00000 0.859577
</Section>

newXOutput 138

<Section columns = "stress_xx | stress_yy | stress_xy">
  1 3623.83 0.00000 0.822148
  2 3623.83 0.00000 -0.822148
  3 3624.02 0.00000 1.21158
  4 3624.02 0.00000 -1.21158
  5 3192.48 0.00000 0.801308
  6 3192.48 0.00000 -0.801308
  7 3192.48 0.00000 -0.801308
  8 3192.48 0.00000 0.801308
  9 3624.02 0.00000 -1.21158
  10 3624.02 0.00000 1.21158
  11 3623.83 0.00000 -0.822148
  12 3623.83 0.00000 0.822148
</Section>

newXOutput 139

<Section columns = "stress_xx | stress_yy | stress_xy">
  1 3590.53 0.00000 0.785527
  2 3590.53 0.00000 -0.785527
  3 3590.72 0.00000 1.15760
  4 3590.72 0.00000 -1.15760
  5 3149.09 0.00000 0.765566
  6 3149.09 0.00000 -0.765566
  7 3149.09 0.00000 -0.765566
  8 3149.09 0.00000 0.765566
  9 3590.72 0.00000 -1.15760
  10 3590.72 0.00000 1.15760
  11 3590.53 0.00000 -0.785527
  12 3590.53 0.00000 0.785527
</Section>

newXOutput 140

<Section columns = "stress_xx | stress_yy | stress_xy">
  1 3556.95 0.00000 0.750095
  2 3556.95 0.00000 -0.750095
  3 3557.14 0.00000 1.10695
  4 3557.14 0.00000 -1.10695
  5 3105.95 0.00000 0.732571
  6 3105.95 0.00000 -0.732571
  7 3105.95 0.00000 -0.732571
  8 3105.95 0.00000 0.732571
  9 3557.14 0.00000 -1.10695
  10 3557.14 0.00000 1.10695
  11 3556.95 0.00000 -0.750095
  12 3556.95 0.00000 0.750095
</Section>

newXOutput 141

<Section columns = "stress_xx | stress_yy | stress_xy">
  1 3523.01 0.00000 0.716048
  2 3523.01 0.00000 -0.716048
  3 3523.20 0.00000 1.05989
  4 3523.20 0.00000 -1.05989
  5 3062.97 0.00000 0.702481
  6 3062.97 0.00000 -0.702481
  7 3062.97 0.00000 -0.702481
  8 3062.97 0.00000 0.702481
  9 3523.20 0.00000 -1.05989
  10 3523.20 0.00000 1.05989
  11 3523.01 0.00000 -0.716048
  12 3523.01 0.00000 0.716048
</Section>

newXOutput 142

<Section columns = "stress_xx | stress_yy | stress_xy">
  1 3488.59 0.00000 0.683444
  2 3488.59 0.00000 -0.683444
  3 3488.79 0.00000 1.01657
  4 3488.79 0.00000 -1.01657
  5 3020.03 0.00000 0.675425
  6 3020.03 0.00000 -0.675425
  7 3020.03 0.00000 -0.675425
  8 3020.03 0.00000 0.675425
  9 3488.79 0.00000 -1.01657
  10 3488.79 0.00000 1.01657
  11 3488.59 0.00000 -0.683444
  12 3488.59 0.00000 0.683444
</Section>

newXOutput 143

<Section columns = "stress_xx | stress_yy | stress_xy">
  1 3453.58 0.00000 0.652242
  2 3453.58 0.00000 -0.652242
  3 3453.79 0.00000 0.977120
  4 3453.79 0.00000 -0.977120
  5 2977.01 0.00000 0.651536
  6 2977.01 0.00000 -0.651536
  7 2977.01 0.00000 -0.651536
  8 2977.01 0.00000 0.651536
  9 3453.79 0.00000 -0.977120
  10 3453.79 0.00000 0.977120
  11 3453.58 0.00000 -0.652242
  12 3453.58 0.00000 0.652242
</Section>

newXOutput 144

<Section columns = "stress_xx | stress_yy | stress_xy">
  1 3417.83 0.00000 0.622318
  2 3417.83 0.00000 -0.622318
  3 3418.06 0.00000 0.941638
  4 3418.06 0.00000 -0.941638
  5 2933.79 0.00000 0.630987
  6 2933.79 0.00000 -0.630987
  7 2933.79 0.00000 -0.630987
  8 2933.79 0.00000 0.630987
  9 3418.06 0.00000 -0.941638
  10 3418.06 0.00000 0.941638
  11 3417.83 0.00000 -0.622318
  12 3417.83 0.00000 0.622318
</Section>

newXOutput 145

<Section columns = "stress_xx | stress_yy | stress_xy">
  1 3384.46 0.00000 0.587168
  2 3384.46 0.00000 -0.587168
  3 3384.62 0.00000 0.782717
  4 3384.62 0.00000 -0.782717
  5 2892.38 0.00000 0.489391
  6 2892.38 0.00000 -0.489391
  7 2892.38 0.00000 -0.489391
  8 2892.38 0.00000 0.489391
  9 3384.62 0.00000 -0.782717
  10 3384.62 0.00000 0.782717
  11 3384.46 0.00000 -0.587168
  12 3384.46 0.00000 0.587168
</Section>

newXOutput 146

<Section columns = "stress_xx | stress_yy | stress_xy">
  1 3346.84 0.00000 0.510135
  2 3346.84 0.00000 -0.510135
  3 3347.01 0.00000 0.689361
  4 3347.01 0.00000 -0.689361
  5 2848.24 0.00000 0.434502
  6 2848.24 0.00000 -0.434502
  7 2848.24 0.00000 -0.434502
  8 2848.24 0.00000 0.434502
  9 3347.01 0.00000 -0.689361
  10 3347.01 0.00000 0.689361
  11 3346.84 0.00000 -0.510135
  12 3346.84 0.00000 0.510135
</Section>

newXOutput 147

<Section columns = "stress_xx | stress_yy | stress_xy">
  1 3308.26 0.00000 0.449835
  2 3308.26 0.00000 -0.449835
  3 3308.46 0.00000 0.628832
  4 3308.46 0.00000 -0.628832
  5 2803.72 0.00000 0.404103
  6 2803.72 0.00000 -0.404103
  7 2803.72 0.00000 -0.404103
  8 2803.72 0.00000 0.404103
  9 3308.46 0.00000 -0.628832
  10 3308.46 0.00000 0.628832
  11 3308.26 0.00000 -0.449835
  12 3308.26 0.00000 0.449835
</Section>

newXOutput 148

<Section columns = "stress_xx | stress_yy | stress_xy">
  1 3271.35 0.00000 0.388939
  2 3271.35 0.00000 -0.388939
  3 3271.50 0.00000 0.506649
  4 3271.50 0.00000 -0.506649
  5 2760.57 0.00000 0.312279
  6 2760.57 0.00000 -0.312279
  7 2760.57 0.00000 -0.312279
  8 2760.57 0.00000 0.312279
  9 3271.50 0.00000 -0.506649
  10 3271.50 0.00000 0.506649
  11 3271.35 0.00000 -0.388939
  12 3271.35 0.00000 0.388939
</Section>

newXOutput 149

<Section columns = "stress_xx | stress_yy | stress_xy">
  1 3232.05 0.00000 0.305559
  2 3232.05 0.00000 -0.305559
  3 3232.18 0.00000 0.387796
  4 3232.18 0.00000 -0.387796
  5 2715.87 0.00000 0.235070
  6 2715.87 0.00000 -0.235070
  7 2715.87 0.00000 -0.235070
  8 2715.87 0.00000 0.235070
  9 3232.18 0.00000 -0.387796
  10 3232.18 0.00000 0.387796
  11 3232.05 0.00000 -0.305559
  12 3232.05 0.00000 0.305559
</Section>

newXOutput 150

<Section columns = "stress_xx | stress_yy | stress_xy">
  1 3190.60 0.00000 0.228968
  2 3190.60 0.00000 -0.228968
  3 3190.74 0.00000 0.297157
  4 3190.74 0.00000 -0.297157
  5 2669.80 0.00000 0.182707
  6 2669.80 0.00000 -0.182707
  7 2669.80 0.00000 -0.182707
  8 2669.80 0.00000 0.182707
  9 3190.74 0.00000 -0.297157
  10 3190.74 0.00000 0.297157
  11 3190.60 0.00000 -0.228968
  12 3190.60 0.00000 0.228968
</Section>

newXOutput 151

<Section columns = "stress_xx | stress_yy | stress_xy">
  1 3149.15 0.00000 0.139578
  2 3149.15 0.00000 -0.139578
  3 3149.26 0.00000 0.181540
  4 3149.26 0.00000 -0.181540
  5 2623.88 0.00000 0.111764
  6 2623.88 0.00000 -0.111764
  7 2623.88 0.00000 -0.111764
  8 2623.88 0.00000 0.111764
  9 3149.26 0.00000 -0.181540
  10 3149.26 0.00000 0.181540
  11 3149.15 0.00000 -0.139578
  12 3149.15 0.00000 0.139578
</Section>

newXOutput 152

<Section columns = "stress_xx | stress_yy | stress_xy">
  1 3105.20 0.00000 0.0477345
  2 3105.20 0.00000 -0.0477345
  3 3105.31 0.00000 0.0814420
  4 3105.31 0.00000 -0.0814420
  5 2576.29 0.00000 0.0575794
  6 2576.29 0.00000 -0.0575794
  7 2576.29 0.00000 -0.0575794
  8 2576.29 0.00000 0.0575794
  9 3105.31 0.00000 -0.0814420
  10 3105.31 0.00000 0.0814420
  11 3105.20 0.00000 -0.0477345
  12 3105.20 0.00000 0.0477345
</Section>

