newXOutput 1

<Section columns = "stress_xx | stress_yy | stress_xy">
  1 0.00000 0.00000 0.00000
  2 0.00000 0.00000 0.00000
  3 0.00000 0.00000 0.00000
  4 0.00000 0.00000 0.00000
  5 0.00000 0.00000 0.00000
  6 0.00000 0.00000 0.00000
  7 0.00000 0.00000 0.00000
  8 0.00000 0.00000 0.00000
  9 0.00000 0.00000 0.00000
  10 0.00000 0.00000 0.00000
  11 0.00000 0.00000 0.00000
  12 0.00000 0.00000 0.00000
</Section>

newXOutput 2

<Section columns = "stress_xx | stress_yy | stress_xy">
  1 53.1619 0.00000 -2.68867e-14
  2 53.1619 0.00000 -2.31620e-14
  3 53.1619 0.00000 -9.04362e-15
  4 53.1619 0.00000 -7.32094e-15
  5 53.1619 0.00000 -1.01609e-14
  6 53.1619 0.00000 -1.06731e-14
  7 53.1619 0.00000 -1.24288e-14
  8 53.1619 0.00000 -1.12337e-14
  9 53.1619 0.00000 -1.59364e-15
  10 53.1619 0.00000 6.21294e-16
  11 53.1619 0.00000 -1.18407e-14
  12 53.1619 0.00000 -1.22803e-14
</Section>

newXOutput 3

<Section columns = "stress_xx | stress_yy | stress_xy">
  1 106.149 0.00000 -1.33153e-14
  2 106.149 0.00000 -9.80620e-15
  3 106.149 0.00000 4.46264e-15
  4 106.149 0.00000 6.67894e-15
  5 106.149 0.00000 -8.43419e-17
  6 106.149 0.00000 7.46771e-16
  7 106.149 0.00000 -2.99518e-15
  8 106.149 0.00000 -6.46184e-16
  9 106.149 0.00000 -2.95489e-15
  10 106.149 0.00000 -5.61751e-17
  11 106.149 0.00000 6.81466e-15
  12 106.149 0.00000 5.18445e-15
</Section>

newXOutput 4

<Section columns = "stress_xx | stress_yy | stress_xy">
  1 158.979 0.00000 -3.44995e-14
  2 158.979 0.00000 -2.75397e-14
  3 158.979 0.00000 -7.07544e-15
  4 158.979 0.00000 -2.77139e-15
  5 158.979 0.00000 -1.43602e-14
  6 158.979 0.00000 -1.31697e-14
  7 158.979 0.00000 -2.30968e-14
  8 158.979 0.00000 -2.12471e-14
  9 158.979 0.00000 -6.75019e-15
  10 158.979 0.00000 -2.28149e-15
  11 158.979 0.00000 -2.66873e-14
  12 158.979 0.00000 -1.81154e-14
</Section>

newXOutput 5

<Section columns = "stress_xx | stress_yy | stress_xy">
  1 211.654 0.00000 -7.10645e-15
  2 211.654 0.00000 -1.65805e-15
  3 211.654 0.00000 1.51187e-14
  4 211.654 0.00000 1.83878e-14
  5 211.654 0.00000 1.61572e-14
  6 211.654 0.00000 1.77917e-14
  7 211.654 0.00000 8.19435e-15
  8 211.654 0.00000 8.69517e-15
  9 211.654 0.00000 2.65644e-14
  10 211.654 0.00000 2.43742e-14
  11 211.654 0.00000 6.81507e-15
  12 211.654 0.00000 5.34646e-15
</Section>

newXOutput 6

<Section columns = "stress_xx | stress_yy | stress_xy">
  1 264.175 0.00000 -1.43518e-14
  2 264.175 0.00000 -1.07502e-14
  3 264.175 0.00000 6.36878e-15
  4 264.175 0.00000 9.25004e-15
  5 264.175 0.00000 -1.76136e-14
  6 264.175 0.00000 -1.37342e-14
  7 264.175 0.00000 -1.19008e-14
  8 264.175 0.00000 -8.10697e-15
  9 264.175 0.00000 -7.27448e-15
  10 264.175 0.00000 -1.20068e-15
  11 264.175 0.00000 -4.60196e-14
  12 264.175 0.00000 -2.89254e-14
</Section>

newXOutput 7

<Section columns = "stress_xx | stress_yy | stress_xy">
  1 316.544 0.00000 2.27881e-14
  2 316.544 0.00000 2.29469e-14
  3 316.544 0.00000 2.09270e-14
  4 316.544 0.00000 2.10578e-14
  5 316.544 0.00000 3.05035e-14
  6 316.544 0.00000 3.19318e-14
  7 316.544 0.00000 5.49400e-14
  8 316.544 0.00000 5.73602e-14
  9 316.544 0.00000 3.08557e-14
  10 316.544 0.00000 3.05865e-14
  11 316.544 0.00000 1.49222e-14
  12 316.544 0.00000 -1.19806e-14
</Section>

newXOutput 8

<Section columns = "stress_xx | stress_yy | stress_xy">
  1 368.764 0.00000 1.58562e-15
  2 368.764 0.00000 7.25013e-15
  3 368.764 0.00000 -7.20748e-15
  4 368.764 0.00000 -2.60506e-15
  5 368.764 0.00000 6.15892e-16
  6 368.764 0.00000 2.20904e-15
  7 368.764 0.00000 -3.56064e-14
  8 368.764 0.00000 -3.63449e-14
  9 368.764 0.00000 -2.70261e-15
  10 368.764 0.00000 -5.28603e-15
  11 368.764 0.00000 5.51333e-15
  12 368.764 0.00000 1.53435e-14
</Section>

newXOutput 9

<Section columns = "stress_xx | stress_yy | stress_xy">
  1 420.836 0.00000 1.12072e-14
  2 420.836 0.00000 2.01984e-14
  3 420.836 0.00000 1.04365e-14
  4 420.836 0.00000 1.84213e-14
  5 420.836 0.00000 1.35349e-14
  6 420.836 0.00000 1.49388e-14
  7 420.836 0.00000 -8.79717e-15
  8 420.836 0.00000 -6.05647e-15
  9 420.836 0.00000 6.28416e-15
  10 420.836 0.00000 1.01915e-14
  11 420.836 0.00000 8.55821e-14
  12 420.836 0.00000 7.68072e-14
</Section>

newXOutput 10

<Section columns = "stress_xx | stress_yy | stress_xy">
  1 472.763 0.00000 -2.12790e-14
  2 472.763 0.00000 -1.43204e-14
  3 472.763 0.00000 3.09515e-16
  4 472.763 0.00000 4.83258e-15
  5 472.763 0.00000 -2.96988e-14
  6 472.763 0.00000 -3.03946e-14
  7 472.763 0.00000 -7.44576e-14
  8 472.763 0.00000 -7.63623e-14
  9 472.763 0.00000 -3.22228e-14
  10 472.763 0.00000 -3.85134e-14
  11 472.763 0.00000 1.43947e-15
  12 472.763 0.00000 -7.34254e-15
</Section>

newXOutput 11

<Section columns = "stress_xx | stress_yy | stress_xy">
  1 524.546 0.00000 1.21401e-14
  2 524.546 0.00000 1.69685e-14
  3 524.546 0.00000 1.54789e-14
  4 524.546 0.00000 2.06521e-14
  5 524.546 0.00000 2.63497e-14
  6 524.546 0.00000 2.73843e-14
  7 524.546 0.00000 1.10312e-14
  8 524.546 0.00000 1.29909e-14
  9 524.546 0.00000 6.75482e-14
  10 524.546 0.00000 7.07663e-14
  11 524.546 0.00000 1.74957e-14
  12 524.546 0.00000 -2.50714e-14
</Section>

newXOutput 12

<Section columns = "stress_xx | stress_yy | stress_xy">
  1 576.187 0.00000 -1.23722e-14
  2 576.187 0.00000 1.24350e-14
  3 576.187 0.00000 -1.02824e-14
  4 576.187 0.00000 1.36923e-14
  5 576.187 0.00000 -1.00796e-14
  6 576.187 0.00000 3.59435e-15
  7 576.187 0.00000 1.05233e-14
  8 576.187 0.00000 1.71673e-14
  9 576.187 0.00000 -2.08621e-14
  10 576.187 0.00000 8.04135e-15
  11 576.187 0.00000 -2.16644e-14
  12 576.187 0.00000 -2.49918e-14
</Section>

newXOutput 13

<Section columns = "stress_xx | stress_yy | stress_xy">
  1 627.688 0.00000 -3.22602e-14
  2 627.688 0.00000 1.45093e-15
  3 627.688 0.00000 -2.65453e-14
  4 627.688 0.00000 2.25120e-15
  5 627.688 0.00000 2.02868e-14
  6 627.688 0.00000 3.01122e-14
  7 627.688 0.00000 -2.52020e-14
  8 627.688 0.00000 -2.22800e-14
  9 627.688 0.00000 -5.11494e-14
  10 627.688 0.00000 -4.31904e-14
  11 627.688 0.00000 -3.59174e-14
  12 627.688 0.00000 -4.74281e-14
</Section>

newXOutput 14

<Section columns = "stress_xx | stress_yy | stress_xy">
  1 679.052 0.00000 4.98148e-15
  2 679.052 0.00000 2.71428e-14
  3 679.052 0.00000 -2.03424e-14
  4 679.052 0.00000 -1.95731e-16
  5 679.052 0.00000 -4.17018e-14
  6 679.052 0.00000 -3.12927e-14
  7 679.052 0.00000 -3.20585e-14
  8 679.052 0.00000 -4.06172e-14
  9 679.052 0.00000 1.80976e-14
  10 679.052 0.00000 -1.46162e-14
  11 679.052 0.00000 3.12851e-15
  12 679.052 0.00000 -7.78117e-15
</Section>

newXOutput 15

<Section columns = "stress_xx | stress_yy | stress_xy">
  1 730.279 0.00000 4.16158e-14
  2 730.279 0.00000 5.87987e-14
  3 730.279 0.00000 -9.24130e-15
  4 730.279 0.00000 1.31377e-14
  5 730.279 0.00000 -1.11445e-14
  6 730.279 0.00000 -1.82744e-15
  7 730.279 0.00000 -1.15514e-14
  8 730.279 0.00000 -1.43659e-14
  9 730.279 0.00000 -3.10266e-15
  10 730.279 0.00000 -4.36572e-15
  11 730.279 0.00000 -2.21116e-15
  12 730.279 0.00000 3.36177e-14
</Section>

newXOutput 16

<Section columns = "stress_xx | stress_yy | stress_xy">
  1 781.373 0.00000 -1.63624e-14
  2 781.373 0.00000 -1.75892e-15
  3 781.373 0.00000 -3.91057e-14
  4 781.373 0.00000 -1.93046e-14
  5 781.373 0.00000 1.70846e-14
  6 781.373 0.00000 3.37166e-14
  7 781.373 0.00000 -3.34988e-14
  8 781.373 0.00000 -2.62924e-14
  9 781.373 0.00000 -5.48533e-15
  10 781.373 0.00000 7.07722e-15
  11 781.373 0.00000 3.77483e-14
  12 781.373 0.00000 5.67258e-14
</Section>

newXOutput 17

<Section columns = "stress_xx | stress_yy | stress_xy">
  1 832.334 0.00000 2.26021e-14
  2 832.334 0.00000 3.69774e-14
  3 832.334 0.00000 5.21760e-15
  4 832.334 0.00000 3.09738e-14
  5 832.334 0.00000 4.28096e-14
  6 832.334 0.00000 6.26850e-14
  7 832.334 0.00000 4.17515e-14
  8 832.334 0.00000 4.89039e-14
  9 832.334 0.00000 5.75753e-14
  10 832.334 0.00000 6.43517e-14
  11 832.334 0.00000 5.26050e-14
  12 832.334 0.00000 3.36222e-14
</Section>

newXOutput 18

<Section columns = "stress_xx | stress_yy | stress_xy">
  1 883.164 0.00000 9.95858e-16
  2 883.164 0.00000 1.00594e-14
  3 883.164 0.00000 1.35333e-15
  4 883.164 0.00000 1.43013e-14
  5 883.164 0.00000 2.53305e-14
  6 883.164 0.00000 3.69837e-14
  7 883.164 0.00000 6.01150e-14
  8 883.164 0.00000 7.16541e-14
  9 883.164 0.00000 -2.62550e-14
  10 883.164 0.00000 1.66062e-14
  11 883.164 0.00000 -1.00428e-13
  12 883.164 0.00000 2.42923e-14
</Section>

newXOutput 19

<Section columns = "stress_xx | stress_yy | stress_xy">
  1 933.866 0.00000 -2.50139e-14
  2 933.866 0.00000 -1.21864e-14
  3 933.866 0.00000 -2.20573e-14
  4 933.866 0.00000 -7.30553e-15
  5 933.866 0.00000 1.87147e-15
  6 933.866 0.00000 1.53404e-14
  7 933.866 0.00000 -8.38356e-15
  8 933.866 0.00000 -1.30769e-15
  9 933.866 0.00000 -3.17220e-14
  10 933.866 0.00000 -4.11884e-14
  11 933.866 0.00000 -1.13254e-14
  12 933.866 0.00000 -4.11005e-14
</Section>

newXOutput 20

<Section columns = "stress_xx | stress_yy | stress_xy">
  1 984.440 0.00000 1.29144e-14
  2 984.440 0.00000 -1.50418e-14
  3 984.440 0.00000 -1.99799e-14
  4 984.440 0.00000 -4.03117e-14
  5 984.440 0.00000 3.81075e-15
  6 984.440 0.00000 5.08148e-15
  7 984.440 0.00000 6.61004e-14
  8 984.440 0.00000 7.98741e-14
  9 984.440 0.00000 7.42200e-14
  10 984.440 0.00000 6.95977e-14
  11 984.440 0.00000 1.36967e-13
  12 984.440 0.00000 1.15424e-13
</Section>

newXOutput 21

<Section columns = "stress_xx | stress_yy | stress_xy">
  1 1034.89 0.00000 3.84335e-16
  2 1034.89 0.00000 -2.47903e-14
  3 1034.89 0.00000 -1.87259e-14
  4 1034.89 0.00000 -3.63482e-14
  5 1034.89 0.00000 -2.44050e-14
  6 1034.89 0.00000 -2.18875e-14
  7 1034.89 0.00000 2.70660e-14
  8 1034.89 0.00000 3.71651e-14
  9 1034.89 0.00000 -5.83580e-14
  10 1034.89 0.00000 -3.74373e-14
  11 1034.89 0.00000 -3.30474e-14
  12 1034.89 0.00000 3.15314e-14
</Section>

newXOutput 22

<Section columns = "stress_xx | stress_yy | stress_xy">
  1 1085.22 0.00000 6.14604e-14
  2 1085.22 0.00000 2.95676e-14
  3 1085.22 0.00000 5.02257e-14
  4 1085.22 0.00000 2.99157e-14
  5 1085.22 0.00000 1.07796e-13
  6 1085.22 0.00000 1.08419e-13
  7 1085.22 0.00000 5.07057e-14
  8 1085.22 0.00000 5.24131e-14
  9 1085.22 0.00000 -2.89670e-14
  10 1085.22 0.00000 -4.03352e-14
  11 1085.22 0.00000 -1.17726e-13
  12 1085.22 0.00000 -8.61342e-15
</Section>

newXOutput 23

<Section columns = "stress_xx | stress_yy | stress_xy">
  1 1135.42 0.00000 1.54973e-14
  2 1135.42 0.00000 4.38439e-15
  3 1135.42 0.00000 4.19429e-15
  4 1135.42 0.00000 -5.68386e-15
  5 1135.42 0.00000 -4.98516e-14
  6 1135.42 0.00000 -4.61473e-14
  7 1135.42 0.00000 2.64846e-14
  8 1135.42 0.00000 4.57425e-14
  9 1135.42 0.00000 9.50262e-14
  10 1135.42 0.00000 1.00493e-13
  11 1135.42 0.00000 6.88611e-14
  12 1135.42 0.00000 8.58579e-15
</Section>

newXOutput 24

<Section columns = "stress_xx | stress_yy | stress_xy">
  1 1185.51 0.00000 -3.16406e-15
  2 1185.51 0.00000 -1.31553e-14
  3 1185.51 0.00000 3.42389e-14
  4 1185.51 0.00000 1.98310e-14
  5 1185.51 0.00000 -6.75857e-14
  6 1185.51 0.00000 -6.39172e-14
  7 1185.51 0.00000 4.67572e-14
  8 1185.51 0.00000 6.09760e-14
  9 1185.51 0.00000 -1.59763e-14
  10 1185.51 0.00000 2.78735e-15
  11 1185.51 0.00000 -1.50628e-14
  12 1185.51 0.00000 1.32215e-14
</Section>

newXOutput 25

<Section columns = "stress_xx | stress_yy | stress_xy">
  1 1235.47 0.00000 -1.63567e-14
  2 1235.47 0.00000 -2.87244e-14
  3 1235.47 0.00000 2.82324e-15
  4 1235.47 0.00000 -1.57795e-14
  5 1235.47 0.00000 -2.59242e-14
  6 1235.47 0.00000 -2.59242e-14
  7 1235.47 0.00000 1.64452e-14
  8 1235.47 0.00000 2.87481e-14
  9 1235.47 0.00000 -1.72634e-14
  10 1235.47 0.00000 1.51553e-15
  11 1235.47 0.00000 7.08635e-15
  12 1235.47 0.00000 3.79063e-14
</Section>

newXOutput 26

<Section columns = "stress_xx | stress_yy | stress_xy">
  1 1285.32 0.00000 7.20440e-15
  2 1285.32 0.00000 8.40333e-15
  3 1285.32 0.00000 9.65455e-15
  4 1285.32 0.00000 6.65723e-15
  5 1285.32 0.00000 -5.78515e-14
  6 1285.32 0.00000 -5.72520e-14
  7 1285.32 0.00000 -5.07233e-14
  8 1285.32 0.00000 -4.63915e-14
  9 1285.32 0.00000 -5.68583e-14
  10 1285.32 0.00000 -7.73343e-14
  11 1285.32 0.00000 -6.62380e-14
  12 1285.32 0.00000 -3.77250e-14
</Section>

newXOutput 27

<Section columns = "stress_xx | stress_yy | stress_xy">
  1 1335.06 0.00000 7.62030e-15
  2 1335.06 0.00000 2.10371e-14
  3 1335.06 0.00000 6.32848e-14
  4 1335.06 0.00000 6.75788e-14
  5 1335.06 0.00000 -5.30574e-14
  6 1335.06 0.00000 -5.77010e-14
  7 1335.06 0.00000 -8.12090e-14
  8 1335.06 0.00000 -7.70005e-14
  9 1335.06 0.00000 2.59817e-14
  10 1335.06 0.00000 -8.90660e-15
  11 1335.06 0.00000 1.32469e-13
  12 1335.06 0.00000 7.77258e-14
</Section>

newXOutput 28

<Section columns = "stress_xx | stress_yy | stress_xy">
  1 1384.68 0.00000 -5.71042e-15
  2 1384.68 0.00000 -1.01001e-15
  3 1384.68 0.00000 -1.13792e-14
  4 1384.68 0.00000 -1.13792e-14
  5 1384.68 0.00000 -1.25040e-13
  6 1384.68 0.00000 -1.25627e-13
  7 1384.68 0.00000 -7.15407e-14
  8 1384.68 0.00000 -6.19348e-14
  9 1384.68 0.00000 -4.98298e-15
  10 1384.68 0.00000 4.96372e-15
  11 1384.68 0.00000 -1.62083e-14
  12 1384.68 0.00000 1.96095e-15
</Section>

newXOutput 29

<Section columns = "stress_xx | stress_yy | stress_xy">
  1 1434.19 0.00000 4.39985e-16
  2 1434.19 0.00000 1.32353e-14
  3 1434.19 0.00000 3.74072e-14
  4 1434.19 0.00000 3.38554e-14
  5 1434.19 0.00000 -1.28649e-14
  6 1434.19 0.00000 -1.93247e-14
  7 1434.19 0.00000 3.91316e-14
  8 1434.19 0.00000 5.15757e-14
  9 1434.19 0.00000 -7.84537e-16
  10 1434.19 0.00000 9.79989e-15
  11 1434.19 0.00000 1.09500e-13
  12 1434.19 0.00000 1.26731e-13
</Section>

newXOutput 30

<Section columns = "stress_xx | stress_yy | stress_xy">
  1 1483.60 0.00000 -4.59107e-14
  2 1483.60 0.00000 -9.92888e-15
  3 1483.60 0.00000 1.73002e-14
  4 1483.60 0.00000 3.58668e-14
  5 1483.60 0.00000 3.31793e-14
  6 1483.60 0.00000 3.72089e-14
  7 1483.60 0.00000 1.70825e-14
  8 1483.60 0.00000 1.51641e-14
  9 1483.60 0.00000 1.16810e-13
  10 1483.60 0.00000 6.78912e-14
  11 1483.60 0.00000 2.97946e-14
  12 1483.60 0.00000 -8.52569e-14
</Section>

newXOutput 31

<Section columns = "stress_xx | stress_yy | stress_xy">
  1 1532.89 0.00000 -4.19073e-14
  2 1532.89 0.00000 -7.26667e-15
  3 1532.89 0.00000 4.29680e-14
  4 1532.89 0.00000 6.14277e-14
  5 1532.89 0.00000 -3.85824e-14
  6 1532.89 0.00000 -3.63035e-14
  7 1532.89 0.00000 -8.60597e-14
  8 1532.89 0.00000 -7.60932e-14
  9 1532.89 0.00000 4.25841e-14
  10 1532.89 0.00000 5.63996e-14
  11 1532.89 0.00000 -1.01019e-13
  12 1532.89 0.00000 -6.30657e-14
</Section>

newXOutput 32

<Section columns = "stress_xx | stress_yy | stress_xy">
  1 1582.08 0.00000 5.89226e-15
  2 1582.08 0.00000 1.49131e-14
  3 1582.08 0.00000 5.03380e-14
  4 1582.08 0.00000 5.71036e-14
  5 1582.08 0.00000 -3.07905e-14
  6 1582.08 0.00000 -2.62801e-14
  7 1582.08 0.00000 -3.85844e-14
  8 1582.08 0.00000 -1.87973e-14
  9 1582.08 0.00000 1.79166e-14
  10 1582.08 0.00000 9.85164e-15
  11 1582.08 0.00000 1.77491e-14
  12 1582.08 0.00000 -1.31425e-13
</Section>

newXOutput 33

<Section columns = "stress_xx | stress_yy | stress_xy">
  1 1631.16 0.00000 -2.10332e-14
  2 1631.16 0.00000 -1.21072e-14
  3 1631.16 0.00000 -9.59871e-15
  4 1631.16 0.00000 -1.78844e-15
  5 1631.16 0.00000 -1.82744e-14
  6 1631.16 0.00000 -4.49101e-15
  7 1631.16 0.00000 -4.49291e-14
  8 1631.16 0.00000 -2.96980e-14
  9 1631.16 0.00000 -3.48118e-14
  10 1631.16 0.00000 -4.64161e-14
  11 1631.16 0.00000 -1.99592e-14
  12 1631.16 0.00000 -2.06833e-13
</Section>

newXOutput 34

<Section columns = "stress_xx | stress_yy | stress_xy">
  1 1680.14 0.00000 -1.99767e-14
  2 1680.14 0.00000 -6.72969e-15
  3 1680.14 0.00000 -6.50198e-14
  4 1680.14 0.00000 -4.84610e-14
  5 1680.14 0.00000 5.66774e-14
  6 1680.14 0.00000 6.88205e-14
  7 1680.14 0.00000 1.46050e-14
  8 1680.14 0.00000 1.02210e-14
  9 1680.14 0.00000 5.15496e-14
  10 1680.14 0.00000 3.14224e-14
  11 1680.14 0.00000 2.32433e-14
  12 1680.14 0.00000 1.01894e-14
</Section>

newXOutput 35

<Section columns = "stress_xx | stress_yy | stress_xy">
  1 1729.02 0.00000 -2.11579e-14
  2 1729.02 0.00000 -1.02370e-14
  3 1729.02 0.00000 1.05107e-14
  4 1729.02 0.00000 2.79841e-14
  5 1729.02 0.00000 3.76192e-14
  6 1729.02 0.00000 5.29085e-14
  7 1729.02 0.00000 -1.86544e-13
  8 1729.02 0.00000 -1.87309e-13
  9 1729.02 0.00000 1.84946e-14
  10 1729.02 0.00000 -3.40605e-16
  11 1729.02 0.00000 1.39440e-13
  12 1729.02 0.00000 1.09854e-13
</Section>

newXOutput 36

<Section columns = "stress_xx | stress_yy | stress_xy">
  1 1777.80 0.00000 -3.53272e-14
  2 1777.80 0.00000 -3.74877e-14
  3 1777.80 0.00000 -9.97998e-14
  4 1777.80 0.00000 -9.76393e-14
  5 1777.80 0.00000 -3.45582e-14
  6 1777.80 0.00000 -1.36091e-14
  7 1777.80 0.00000 -6.71790e-14
  8 1777.80 0.00000 -5.46088e-14
  9 1777.80 0.00000 4.36723e-14
  10 1777.80 0.00000 2.04384e-14
  11 1777.80 0.00000 9.80310e-14
  12 1777.80 0.00000 6.18396e-14
</Section>

newXOutput 37

<Section columns = "stress_xx | stress_yy | stress_xy">
  1 1826.48 0.00000 -2.96323e-14
  2 1826.48 0.00000 -2.10845e-14
  3 1826.48 0.00000 -1.05722e-13
  4 1826.48 0.00000 -9.61057e-14
  5 1826.48 0.00000 8.42415e-14
  6 1826.48 0.00000 9.27892e-14
  7 1826.48 0.00000 -2.97970e-14
  8 1826.48 0.00000 -2.74600e-14
  9 1826.48 0.00000 -5.50768e-14
  10 1826.48 0.00000 -7.29993e-14
  11 1826.48 0.00000 -1.65985e-14
  12 1826.48 0.00000 -5.07069e-14
</Section>

newXOutput 38

<Section columns = "stress_xx | stress_yy | stress_xy">
  1 1875.07 0.00000 -9.91601e-15
  2 1875.07 0.00000 2.12867e-14
  3 1875.07 0.00000 -1.02274e-13
  4 1875.07 0.00000 -8.45598e-14
  5 1875.07 0.00000 -5.85917e-14
  6 1875.07 0.00000 -5.33083e-14
  7 1875.07 0.00000 -3.36081e-14
  8 1875.07 0.00000 -8.65879e-15
  9 1875.07 0.00000 -5.62887e-14
  10 1875.07 0.00000 3.44980e-14
  11 1875.07 0.00000 -7.56170e-14
  12 1875.07 0.00000 3.42772e-14
</Section>

newXOutput 39

<Section columns = "stress_xx | stress_yy | stress_xy">
  1 1923.56 0.00000 -8.18319e-15
  2 1923.56 0.00000 4.35544e-15
  3 1923.56 0.00000 -2.64139e-14
  4 1923.56 0.00000 -1.38753e-14
  5 1923.56 0.00000 8.18010e-14
  6 1923.56 0.00000 1.06878e-13
  7 1923.56 0.00000 -2.58979e-14
  8 1923.56 0.00000 1.67213e-14
  9 1923.56 0.00000 -5.18005e-14
  10 1923.56 0.00000 2.54998e-14
  11 1923.56 0.00000 -8.72945e-14
  12 1923.56 0.00000 1.96836e-14
</Section>

newXOutput 40

<Section columns = "stress_xx | stress_yy | stress_xy">
  1 1971.95 0.00000 -4.96659e-15
  2 1971.95 0.00000 7.43069e-15
  3 1971.95 0.00000 -4.27504e-15
  4 1971.95 0.00000 1.12216e-14
  5 1971.95 0.00000 4.56085e-14
  6 1971.95 0.00000 4.97409e-14
  7 1971.95 0.00000 4.89086e-14
  8 1971.95 0.00000 4.38782e-14
  9 1971.95 0.00000 1.09832e-13
  10 1971.95 0.00000 1.17888e-13
  11 1971.95 0.00000 1.53976e-13
  12 1971.95 0.00000 -7.89644e-14
</Section>

newXOutput 41

<Section columns = "stress_xx | stress_yy | stress_xy">
  1 2020.26 0.00000 -1.47657e-14
  2 2020.26 0.00000 3.42541e-14
  3 2020.26 0.00000 -7.13011e-14
  4 2020.26 0.00000 -6.80375e-14
  5 2020.26 0.00000 -3.69196e-13
  6 2020.26 0.00000 -3.75324e-13
  7 2020.26 0.00000 9.24784e-14
  8 2020.26 0.00000 9.76382e-14
  9 2020.26 0.00000 3.44584e-14
  10 2020.26 0.00000 4.33954e-14
  11 2020.26 0.00000 -1.09629e-14
  12 2020.26 0.00000 -8.59468e-14
</Section>

newXOutput 42

<Section columns = "stress_xx | stress_yy | stress_xy">
  1 2068.47 0.00000 -6.21748e-14
  2 2068.47 0.00000 -3.56926e-14
  3 2068.47 0.00000 -6.29662e-14
  4 2068.47 0.00000 -3.56153e-14
  5 2068.47 0.00000 -1.96309e-13
  6 2068.47 0.00000 -1.96309e-13
  7 2068.47 0.00000 7.33677e-14
  8 2068.47 0.00000 7.65130e-14
  9 2068.47 0.00000 8.58709e-14
  10 2068.47 0.00000 1.06038e-13
  11 2068.47 0.00000 2.35691e-13
  12 2068.47 0.00000 2.13295e-13
</Section>

newXOutput 43

<Section columns = "stress_xx | stress_yy | stress_xy">
  1 2116.60 0.00000 2.96205e-15
  2 2116.60 0.00000 1.89272e-14
  3 2116.60 0.00000 5.03164e-15
  4 2116.60 0.00000 1.10186e-14
  5 2116.60 0.00000 -9.18324e-14
  6 2116.60 0.00000 -1.17776e-13
  7 2116.60 0.00000 5.64714e-14
  8 2116.60 0.00000 -1.75766e-14
  9 2116.60 0.00000 -8.44531e-14
  10 2116.60 0.00000 -1.57105e-13
  11 2116.60 0.00000 -7.08862e-14
  12 2116.60 0.00000 -8.77428e-14
</Section>

newXOutput 44

<Section columns = "stress_xx | stress_yy | stress_xy">
  1 2164.64 0.00000 1.91379e-14
  2 2164.64 0.00000 -1.48766e-14
  3 2164.64 0.00000 2.98884e-14
  4 2164.64 0.00000 -2.69582e-16
  5 2164.64 0.00000 -1.33031e-13
  6 2164.64 0.00000 -1.41905e-13
  7 2164.64 0.00000 8.81287e-14
  8 2164.64 0.00000 5.38701e-14
  9 2164.64 0.00000 -1.69541e-13
  10 2164.64 0.00000 -2.04307e-13
  11 2164.64 0.00000 3.15457e-14
  12 2164.64 0.00000 1.52178e-13
</Section>

newXOutput 45

<Section columns = "stress_xx | stress_yy | stress_xy">
  1 2212.59 0.00000 2.71563e-14
  2 2212.59 0.00000 1.28998e-14
  3 2212.59 0.00000 4.31579e-14
  4 2212.59 0.00000 1.79816e-14
  5 2212.59 0.00000 -1.10485e-13
  6 2212.59 0.00000 -1.15357e-13
  7 2212.59 0.00000 2.06984e-15
  8 2212.59 0.00000 2.76344e-14
  9 2212.59 0.00000 -3.70888e-14
  10 2212.59 0.00000 6.21000e-14
  11 2212.59 0.00000 6.63123e-14
  12 2212.59 0.00000 2.76515e-14
</Section>

newXOutput 46

<Section columns = "stress_xx | stress_yy | stress_xy">
  1 2260.46 0.00000 -1.48385e-14
  2 2260.46 0.00000 -4.46884e-15
  3 2260.46 0.00000 -1.58100e-14
  4 2260.46 0.00000 6.52241e-16
  5 2260.46 0.00000 -2.65212e-13
  6 2260.46 0.00000 -2.64250e-13
  7 2260.46 0.00000 -1.48217e-13
  8 2260.46 0.00000 -1.52495e-13
  9 2260.46 0.00000 -9.99121e-14
  10 2260.46 0.00000 -8.52391e-14
  11 2260.46 0.00000 1.68518e-13
  12 2260.46 0.00000 1.43294e-13
</Section>

newXOutput 47

<Section columns = "stress_xx | stress_yy | stress_xy">
  1 2308.25 0.00000 -8.47496e-14
  2 2308.25 0.00000 -4.81275e-14
  3 2308.25 0.00000 -2.44220e-14
  4 2308.25 0.00000 -3.25836e-15
  5 2308.25 0.00000 -8.14400e-14
  6 2308.25 0.00000 -7.95383e-14
  7 2308.25 0.00000 -8.87600e-15
  8 2308.25 0.00000 1.49161e-14
  9 2308.25 0.00000 -2.76414e-14
  10 2308.25 0.00000 9.06626e-14
  11 2308.25 0.00000 -2.62268e-13
  12 2308.25 0.00000 -1.46046e-13
</Section>

newXOutput 48

<Section columns = "stress_xx | stress_yy | stress_xy">
  1 2355.95 0.00000 4.32274e-14
  2 2355.95 0.00000 3.75926e-14
  3 2355.95 0.00000 1.10554e-13
  4 2355.95 0.00000 1.03041e-13
  5 2355.95 0.00000 8.12304e-15
  6 2355.95 0.00000 7.18389e-15
  7 2355.95 0.00000 -2.30965e-14
  8 2355.95 0.00000 -1.62419e-14
  9 2355.95 0.00000 -3.43257e-14
  10 2355.95 0.00000 -1.41915e-14
  11 2355.95 0.00000 1.58730e-13
  12 2355.95 0.00000 1.21827e-13
</Section>

newXOutput 49

<Section columns = "stress_xx | stress_yy | stress_xy">
  1 2403.58 0.00000 -1.02169e-14
  2 2403.58 0.00000 -8.36204e-15
  3 2403.58 0.00000 -1.98211e-15
  4 2403.58 0.00000 8.00184e-16
  5 2403.58 0.00000 -1.31385e-13
  6 2403.58 0.00000 -1.27675e-13
  7 2403.58 0.00000 -1.49307e-13
  8 2403.58 0.00000 -1.74426e-13
  9 2403.58 0.00000 -2.84894e-13
  10 2403.58 0.00000 -3.34672e-13
  11 2403.58 0.00000 4.39396e-14
  12 2403.58 0.00000 -8.69318e-14
</Section>

newXOutput 50

<Section columns = "stress_xx | stress_yy | stress_xy">
  1 2451.12 0.00000 6.93328e-16
  2 2451.12 0.00000 8.01909e-15
  3 2451.12 0.00000 3.25849e-14
  4 2451.12 0.00000 3.62478e-14
  5 2451.12 0.00000 -2.68232e-13
  6 2451.12 0.00000 -2.67316e-13
  7 2451.12 0.00000 -3.58097e-14
  8 2451.12 0.00000 -4.52538e-14
  9 2451.12 0.00000 -1.35342e-13
  10 2451.12 0.00000 -1.30217e-13
  11 2451.12 0.00000 -7.49859e-14
  12 2451.12 0.00000 -1.55637e-14
</Section>

newXOutput 51

<Section columns = "stress_xx | stress_yy | stress_xy">
  1 2498.59 0.00000 -3.67856e-14
  2 2498.59 0.00000 -3.13615e-14
  3 2498.59 0.00000 -2.53491e-14
  4 2498.59 0.00000 -2.88966e-14
  5 2498.59 0.00000 5.16915e-13
  6 2498.59 0.00000 5.35132e-13
  7 2498.59 0.00000 1.74045e-14
  8 2498.59 0.00000 5.38793e-15
  9 2498.59 0.00000 -1.24860e-13
  10 2498.59 0.00000 -2.90535e-13
  11 2498.59 0.00000 -1.10921e-14
  12 2498.59 0.00000 -1.27024e-13
</Section>

newXOutput 52

<Section columns = "stress_xx | stress_yy | stress_xy">
  1 2545.99 0.00000 -2.95839e-14
  2 2545.99 0.00000 -4.74301e-14
  3 2545.99 0.00000 -2.53790e-14
  4 2545.99 0.00000 -5.12561e-14
  5 2545.99 0.00000 3.02267e-14
  6 2545.99 0.00000 4.03898e-14
  7 2545.99 0.00000 -1.70194e-14
  8 2545.99 0.00000 7.41936e-14
  9 2545.99 0.00000 -3.92301e-13
  10 2545.99 0.00000 -2.69122e-13
  11 2545.99 0.00000 3.66279e-15
  12 2545.99 0.00000 3.62691e-14
</Section>

newXOutput 53

<Section columns = "stress_xx | stress_yy | stress_xy">
  1 2593.31 0.00000 -2.38251e-14
  2 2593.31 0.00000 -2.21797e-14
  3 2593.31 0.00000 4.39349e-15
  4 2593.31 0.00000 -2.00912e-14
  5 2593.31 0.00000 4.03095e-14
  6 2593.31 0.00000 6.00877e-15
  7 2593.31 0.00000 3.85871e-14
  8 2593.31 0.00000 3.17161e-14
  9 2593.31 0.00000 -2.68470e-13
  10 2593.31 0.00000 -3.19168e-13
  11 2593.31 0.00000 1.58984e-14
  12 2593.31 0.00000 8.15806e-14
</Section>

newXOutput 54

<Section columns = "stress_xx | stress_yy | stress_xy">
  1 2640.56 0.00000 3.36972e-15
  2 2640.56 0.00000 -1.22709e-14
  3 2640.56 0.00000 2.11081e-14
  4 2640.56 0.00000 -1.18107e-14
  5 2640.56 0.00000 5.46383e-14
  6 2640.56 0.00000 2.78019e-14
  7 2640.56 0.00000 7.67692e-14
  8 2640.56 0.00000 1.11638e-13
  9 2640.56 0.00000 2.05836e-13
  10 2640.56 0.00000 2.93341e-13
  11 2640.56 0.00000 4.38201e-13
  12 2640.56 0.00000 1.96930e-13
</Section>

newXOutput 55

<Section columns = "stress_xx | stress_yy | stress_xy">
  1 2687.74 0.00000 -1.02929e-14
  2 2687.74 0.00000 -6.86400e-15
  3 2687.74 0.00000 2.38741e-14
  4 2687.74 0.00000 1.87307e-14
  5 2687.74 0.00000 -1.92194e-15
  6 2687.74 0.00000 -7.92255e-15
  7 2687.74 0.00000 9.44388e-14
  8 2687.74 0.00000 1.03964e-13
  9 2687.74 0.00000 -2.95880e-13
  10 2687.74 0.00000 -2.31808e-13
  11 2687.74 0.00000 -1.75118e-13
  12 2687.74 0.00000 -3.56844e-14
</Section>

newXOutput 56

<Section columns = "stress_xx | stress_yy | stress_xy">
  1 2734.85 0.00000 -9.88201e-15
  2 2734.85 0.00000 -6.49984e-15
  3 2734.85 0.00000 4.77712e-14
  4 2734.85 0.00000 4.77712e-14
  5 2734.85 0.00000 2.55285e-13
  6 2734.85 0.00000 2.33803e-13
  7 2734.85 0.00000 -1.27067e-14
  8 2734.85 0.00000 -1.60886e-14
  9 2734.85 0.00000 -2.93415e-13
  10 2734.85 0.00000 -2.82353e-13
  11 2734.85 0.00000 -4.39290e-15
  12 2734.85 0.00000 -2.44378e-13
</Section>

newXOutput 57

<Section columns = "stress_xx | stress_yy | stress_xy">
  1 2781.89 0.00000 1.88645e-14
  2 2781.89 0.00000 2.72031e-14
  3 2781.89 0.00000 6.20234e-14
  4 2781.89 0.00000 6.36911e-14
  5 2781.89 0.00000 7.69426e-18
  6 2781.89 0.00000 -5.82933e-15
  7 2781.89 0.00000 -1.12377e-13
  8 2781.89 0.00000 -1.35208e-13
  9 2781.89 0.00000 -2.38055e-13
  10 2781.89 0.00000 -2.21857e-13
  11 2781.89 0.00000 -1.84469e-13
  12 2781.89 0.00000 -8.43823e-14
</Section>

newXOutput 58

<Section columns = "stress_xx | stress_yy | stress_xy">
  1 2828.86 0.00000 -5.95156e-14
  2 2828.86 0.00000 -1.51865e-14
  3 2828.86 0.00000 -3.41047e-14
  4 2828.86 0.00000 -1.68732e-14
  5 2828.86 0.00000 2.14485e-14
  6 2828.86 0.00000 1.15824e-14
  7 2828.86 0.00000 1.94416e-14
  8 2828.86 0.00000 2.25604e-14
  9 2828.86 0.00000 -2.12297e-14
  10 2828.86 0.00000 5.51455e-14
  11 2828.86 0.00000 -4.41202e-14
  12 2828.86 0.00000 1.21263e-13
</Section>

newXOutput 59

<Section columns = "stress_xx | stress_yy | stress_xy">
  1 2875.77 0.00000 4.68642e-14
  2 2875.77 0.00000 5.17272e-14
  3 2875.77 0.00000 1.35219e-13
  4 2875.77 0.00000 1.33598e-13
  5 2875.77 0.00000 -4.72456e-16
  6 2875.77 0.00000 -7.76696e-15
  7 2875.77 0.00000 -2.88252e-13
  8 2875.77 0.00000 -3.07293e-13
  9 2875.77 0.00000 -1.02807e-13
  10 2875.77 0.00000 -1.48805e-13
  11 2875.77 0.00000 -3.28510e-16
  12 2875.77 0.00000 8.31512e-14
</Section>

newXOutput 60

<Section columns = "stress_xx | stress_yy | stress_xy">
  1 2922.62 0.00000 9.30574e-15
  2 2922.62 0.00000 9.30574e-15
  3 2922.62 0.00000 4.57469e-14
  4 2922.62 0.00000 3.77587e-14
  5 2922.62 0.00000 1.18178e-13
  6 2922.62 0.00000 8.97861e-14
  7 2922.62 0.00000 -1.42256e-13
  8 2922.62 0.00000 -1.71291e-13
  9 2922.62 0.00000 4.22904e-14
  10 2922.62 0.00000 -2.21217e-15
  11 2922.62 0.00000 1.51764e-13
  12 2922.62 0.00000 2.24098e-13
</Section>

newXOutput 61

<Section columns = "stress_xx | stress_yy | stress_xy">
  1 2969.40 0.00000 -3.52014e-15
  2 2969.40 0.00000 -3.52014e-15
  3 2969.40 0.00000 -2.71128e-14
  4 2969.40 0.00000 -5.76908e-14
  5 2969.40 0.00000 -3.55176e-15
  6 2969.40 0.00000 -3.72783e-14
  7 2969.40 0.00000 9.91289e-14
  8 2969.40 0.00000 1.05205e-13
  9 2969.40 0.00000 1.72406e-14
  10 2969.40 0.00000 -2.81676e-14
  11 2969.40 0.00000 2.02762e-13
  12 2969.40 0.00000 1.22352e-13
</Section>

newXOutput 62

<Section columns = "stress_xx | stress_yy | stress_xy">
  1 3016.12 0.00000 -3.22276e-14
  2 3016.12 0.00000 -3.68804e-14
  3 3016.12 0.00000 2.78384e-14
  4 3016.12 0.00000 -4.85580e-15
  5 3016.12 0.00000 -5.19903e-14
  6 3016.12 0.00000 -8.62354e-14
  7 3016.12 0.00000 -1.29327e-14
  8 3016.12 0.00000 -9.19513e-15
  9 3016.12 0.00000 -1.52387e-13
  10 3016.12 0.00000 -1.58177e-13
  11 3016.12 0.00000 -8.18567e-14
  12 3016.12 0.00000 -3.10948e-13
</Section>

newXOutput 63

<Section columns = "stress_xx | stress_yy | stress_xy">
  1 3062.78 0.00000 7.36012e-15
  2 3062.78 0.00000 -4.49229e-14
  3 3062.78 0.00000 -8.96519e-14
  4 3062.78 0.00000 -1.23431e-13
  5 3062.78 0.00000 3.03902e-14
  6 3062.78 0.00000 1.81694e-14
  7 3062.78 0.00000 -1.45433e-13
  8 3062.78 0.00000 -1.34841e-13
  9 3062.78 0.00000 1.37643e-13
  10 3062.78 0.00000 1.54563e-13
  11 3062.78 0.00000 2.90268e-13
  12 3062.78 0.00000 6.22421e-14
</Section>

newXOutput 64

<Section columns = "stress_xx | stress_yy | stress_xy">
  1 3109.39 0.00000 -4.64906e-14
  2 3109.39 0.00000 -4.64906e-14
  3 3109.39 0.00000 -1.67442e-13
  4 3109.39 0.00000 -1.71955e-13
  5 3109.39 0.00000 -1.48155e-13
  6 3109.39 0.00000 -1.46651e-13
  7 3109.39 0.00000 2.50943e-13
  8 3109.39 0.00000 2.40335e-13
  9 3109.39 0.00000 -4.80400e-14
  10 3109.39 0.00000 -4.93998e-14
  11 3109.39 0.00000 -2.99906e-13
  12 3109.39 0.00000 -1.53446e-13
</Section>

newXOutput 65

<Section columns = "stress_xx | stress_yy | stress_xy">
  1 3155.93 0.00000 4.29678e-14
  2 3155.93 0.00000 4.00059e-14
  3 3155.93 0.00000 6.30953e-14
  4 3155.93 0.00000 6.45762e-14
  5 3155.93 0.00000 -1.14698e-13
  6 3155.93 0.00000 -1.39192e-13
  7 3155.93 0.00000 -5.49855e-14
  8 3155.93 0.00000 -1.25085e-13
  9 3155.93 0.00000 -3.77044e-14
  10 3155.93 0.00000 -2.47492e-14
  11 3155.93 0.00000 -2.43337e-13
  12 3155.93 0.00000 1.00067e-13
</Section>

newXOutput 66

<Section columns = "stress_xx | stress_yy | stress_xy">
  1 3202.42 0.00000 6.48356e-15
  2 3202.42 0.00000 1.52290e-14
  3 3202.42 0.00000 1.34585e-14
  4 3202.42 0.00000 -5.86595e-15
  5 3202.42 0.00000 -8.84082e-14
  6 3202.42 0.00000 -1.55668e-13
  7 3202.42 0.00000 3.47490e-14
  8 3202.42 0.00000 2.33727e-15
  9 3202.42 0.00000 -2.33567e-13
  10 3202.42 0.00000 -1.65757e-13
  11 3202.42 0.00000 7.45950e-14
  12 3202.42 0.00000 3.33268e-13
</Section>

newXOutput 67

<Section columns = "stress_xx | stress_yy | stress_xy">
  1 3248.86 0.00000 2.68941e-14
  2 3248.86 0.00000 -3.25570e-14
  3 3248.86 0.00000 -1.21816e-13
  4 3248.86 0.00000 -1.41287e-13
  5 3248.86 0.00000 -4.40656e-13
  6 3248.86 0.00000 -4.44958e-13
  7 3248.86 0.00000 -1.01752e-13
  8 3248.86 0.00000 -1.14869e-13
  9 3248.86 0.00000 1.80692e-13
  10 3248.86 0.00000 7.77861e-14
  11 3248.86 0.00000 4.44893e-13
  12 3248.86 0.00000 6.15043e-14
</Section>

newXOutput 68

<Section columns = "stress_xx | stress_yy | stress_xy">
  1 3295.25 0.00000 5.39930e-14
  2 3295.25 0.00000 -4.22131e-15
  3 3295.25 0.00000 2.93054e-13
  4 3295.25 0.00000 2.45605e-13
  5 3295.25 0.00000 6.28489e-13
  6 3295.25 0.00000 5.95149e-13
  7 3295.25 0.00000 -1.44874e-13
  8 3295.25 0.00000 -1.67464e-13
  9 3295.25 0.00000 6.23171e-13
  10 3295.25 0.00000 6.06261e-13
  11 3295.25 0.00000 5.18352e-13
  12 3295.25 0.00000 4.99716e-13
</Section>

newXOutput 69

<Section columns = "stress_xx | stress_yy | stress_xy">
  1 3341.58 0.00000 9.30660e-15
  2 3341.58 0.00000 -4.84874e-14
  3 3341.58 0.00000 -9.63004e-14
  4 3341.58 0.00000 -1.49932e-13
  5 3341.58 0.00000 -2.43227e-13
  6 3341.58 0.00000 -2.94084e-13
  7 3341.58 0.00000 2.40270e-14
  8 3341.58 0.00000 2.58162e-14
  9 3341.58 0.00000 -7.45979e-13
  10 3341.58 0.00000 -6.50633e-13
  11 3341.58 0.00000 -2.35606e-13
  12 3341.58 0.00000 -5.97290e-13
</Section>

newXOutput 70

<Section columns = "stress_xx | stress_yy | stress_xy">
  1 3387.86 0.00000 2.46777e-14
  2 3387.86 0.00000 9.30039e-14
  3 3387.86 0.00000 5.53421e-13
  4 3387.86 0.00000 5.54435e-13
  5 3387.86 0.00000 7.70689e-13
  6 3387.86 0.00000 7.31439e-13
  7 3387.86 0.00000 2.01929e-13
  8 3387.86 0.00000 1.91220e-13
  9 3387.86 0.00000 2.31822e-13
  10 3387.86 0.00000 3.16356e-13
  11 3387.86 0.00000 9.43199e-15
  12 3387.86 0.00000 6.74773e-13
</Section>

newXOutput 71

<Section columns = "stress_xx | stress_yy | stress_xy">
  1 3434.10 0.00000 3.97083e-14
  2 3434.10 0.00000 2.63001e-14
  3 3434.10 0.00000 4.32991e-13
  4 3434.10 0.00000 4.22264e-13
  5 3434.10 0.00000 5.26280e-14
  6 3434.10 0.00000 4.04009e-14
  7 3434.10 0.00000 -4.36337e-13
  8 3434.10 0.00000 -4.52586e-13
  9 3434.10 0.00000 -2.85143e-13
  10 3434.10 0.00000 -3.02381e-13
  11 3434.10 0.00000 -2.63032e-14
  12 3434.10 0.00000 1.60449e-13
</Section>

newXOutput 72

<Section columns = "stress_xx | stress_yy | stress_xy">
  1 3480.28 0.00000 -2.82429e-14
  2 3480.28 0.00000 -3.35128e-14
  3 3480.28 0.00000 2.57769e-13
  4 3480.28 0.00000 2.05488e-13
  5 3480.28 0.00000 -1.40460e-13
  6 3480.28 0.00000 -1.91423e-13
  7 3480.28 0.00000 -1.18443e-14
  8 3480.28 0.00000 6.08130e-14
  9 3480.28 0.00000 -2.12686e-13
  10 3480.28 0.00000 -5.48830e-14
  11 3480.28 0.00000 -9.50991e-14
  12 3480.28 0.00000 7.25563e-14
</Section>

newXOutput 73

<Section columns = "stress_xx | stress_yy | stress_xy">
  1 3526.42 0.00000 -1.73629e-14
  2 3526.42 0.00000 -4.32448e-14
  3 3526.42 0.00000 -1.31752e-14
  4 3526.42 0.00000 -5.28782e-14
  5 3526.42 0.00000 -2.06018e-13
  6 3526.42 0.00000 -2.27603e-13
  7 3526.42 0.00000 -3.16289e-13
  8 3526.42 0.00000 -3.12817e-13
  9 3526.42 0.00000 2.91135e-14
  10 3526.42 0.00000 -1.40532e-14
  11 3526.42 0.00000 2.11360e-13
  12 3526.42 0.00000 1.28435e-13
</Section>

newXOutput 74

<Section columns = "stress_xx | stress_yy | stress_xy">
  1 3572.52 0.00000 -2.57482e-14
  2 3572.52 0.00000 -4.60799e-14
  3 3572.52 0.00000 -3.62611e-14
  4 3572.52 0.00000 -9.13725e-14
  5 3572.52 0.00000 5.91082e-14
  6 3572.52 0.00000 1.16212e-14
  7 3572.52 0.00000 4.02234e-14
  8 3572.52 0.00000 2.65922e-14
  9 3572.52 0.00000 -1.81859e-13
  10 3572.52 0.00000 -2.96816e-13
  11 3572.52 0.00000 -1.37813e-13
  12 3572.52 0.00000 -5.51741e-13
</Section>

newXOutput 75

<Section columns = "stress_xx | stress_yy | stress_xy">
  1 3618.57 0.00000 5.86637e-15
  2 3618.57 0.00000 4.16143e-14
  3 3618.57 0.00000 2.16841e-14
  4 3618.57 0.00000 5.93017e-14
  5 3618.57 0.00000 -1.10943e-13
  6 3618.57 0.00000 -1.22169e-13
  7 3618.57 0.00000 -6.58072e-13
  8 3618.57 0.00000 -6.04797e-13
  9 3618.57 0.00000 -5.01235e-13
  10 3618.57 0.00000 -3.05088e-13
  11 3618.57 0.00000 -1.73651e-14
  12 3618.57 0.00000 -5.91344e-14
</Section>

newXOutput 76

<Section columns = "stress_xx | stress_yy | stress_xy">
  1 3664.58 0.00000 -6.72476e-14
  2 3664.58 0.00000 -7.21435e-14
  3 3664.58 0.00000 -2.69970e-13
  4 3664.58 0.00000 -2.72418e-13
  5 3664.58 0.00000 2.14136e-13
  6 3664.58 0.00000 2.15360e-13
  7 3664.58 0.00000 2.57643e-13
  8 3664.58 0.00000 2.45599e-13
  9 3664.58 0.00000 5.48839e-13
  10 3664.58 0.00000 4.60477e-13
  11 3664.58 0.00000 3.98369e-13
  12 3664.58 0.00000 1.16921e-14
</Section>

newXOutput 77

<Section columns = "stress_xx | stress_yy | stress_xy">
  1 3710.55 0.00000 -2.87100e-14
  2 3710.55 0.00000 -4.55182e-14
  3 3710.55 0.00000 -1.21754e-14
  4 3710.55 0.00000 -1.45765e-14
  5 3710.55 0.00000 -2.61540e-13
  6 3710.55 0.00000 -2.59139e-13
  7 3710.55 0.00000 -5.21254e-13
  8 3710.55 0.00000 -5.41699e-13
  9 3710.55 0.00000 -3.52089e-13
  10 3710.55 0.00000 -3.71600e-13
  11 3710.55 0.00000 1.48272e-13
  12 3710.55 0.00000 8.37056e-14
</Section>

newXOutput 78

<Section columns = "stress_xx | stress_yy | stress_xy">
  1 3756.48 0.00000 3.00481e-14
  2 3756.48 0.00000 2.73649e-14
  3 3756.48 0.00000 -1.16436e-13
  4 3756.48 0.00000 -1.29053e-13
  5 3756.48 0.00000 -2.71198e-13
  6 3756.48 0.00000 -2.84147e-13
  7 3756.48 0.00000 -5.88888e-13
  8 3756.48 0.00000 -6.10342e-13
  9 3756.48 0.00000 -6.38882e-13
  10 3756.48 0.00000 -6.51203e-13
  11 3756.48 0.00000 -2.74474e-13
  12 3756.48 0.00000 -3.29616e-13
</Section>

newXOutput 79

<Section columns = "stress_xx | stress_yy | stress_xy">
  1 3802.37 0.00000 -1.04866e-13
  2 3802.37 0.00000 -1.07174e-13
  3 3802.37 0.00000 -1.45122e-13
  4 3802.37 0.00000 -1.45122e-13
  5 3802.37 0.00000 2.91876e-14
  6 3802.37 0.00000 -1.17074e-14
  7 3802.37 0.00000 -1.01089e-13
  8 3802.37 0.00000 -1.15113e-13
  9 3802.37 0.00000 -4.69437e-13
  10 3802.37 0.00000 -2.81507e-13
  11 3802.37 0.00000 -5.13426e-14
  12 3802.37 0.00000 2.09019e-13
</Section>

newXOutput 80

<Section columns = "stress_xx | stress_yy | stress_xy">
  1 3848.22 0.00000 6.29961e-14
  2 3848.22 0.00000 3.62703e-14
  3 3848.22 0.00000 1.25925e-13
  4 3848.22 0.00000 9.65414e-14
  5 3848.22 0.00000 -5.40739e-13
  6 3848.22 0.00000 -4.85860e-13
  7 3848.22 0.00000 -9.93827e-14
  8 3848.22 0.00000 -6.10554e-14
  9 3848.22 0.00000 2.30561e-14
  10 3848.22 0.00000 -3.94262e-14
  11 3848.22 0.00000 3.60345e-13
  12 3848.22 0.00000 2.11184e-13
</Section>

newXOutput 81

<Section columns = "stress_xx | stress_yy | stress_xy">
  1 3894.04 0.00000 6.07109e-14
  2 3894.04 0.00000 2.55846e-14
  3 3894.04 0.00000 3.00721e-13
  4 3894.04 0.00000 2.35804e-13
  5 3894.04 0.00000 -1.71352e-13
  6 3894.04 0.00000 -1.87761e-13
  7 3894.04 0.00000 -2.40590e-13
  8 3894.04 0.00000 -1.82662e-13
  9 3894.04 0.00000 -2.43137e-13
  10 3894.04 0.00000 8.87419e-15
  11 3894.04 0.00000 -3.04052e-13
  12 3894.04 0.00000 -9.26990e-14
</Section>

newXOutput 82

<Section columns = "stress_xx | stress_yy | stress_xy">
  1 3939.83 0.00000 3.44864e-14
  2 3939.83 0.00000 4.77034e-14
  3 3939.83 0.00000 3.27129e-13
  4 3939.83 0.00000 3.59299e-13
  5 3939.83 0.00000 3.92864e-13
  6 3939.83 0.00000 4.10357e-13
  7 3939.83 0.00000 -4.16626e-13
  8 3939.83 0.00000 -3.55426e-13
  9 3939.83 0.00000 1.83059e-13
  10 3939.83 0.00000 2.14412e-13
  11 3939.83 0.00000 6.85238e-13
  12 3939.83 0.00000 5.19717e-13
</Section>

newXOutput 83

<Section columns = "stress_xx | stress_yy | stress_xy">
  1 3985.58 0.00000 -9.19814e-14
  2 3985.58 0.00000 -4.61523e-14
  3 3985.58 0.00000 -1.34169e-13
  4 3985.58 0.00000 -1.47570e-13
  5 3985.58 0.00000 -3.60869e-13
  6 3985.58 0.00000 -4.17009e-13
  7 3985.58 0.00000 1.39741e-13
  8 3985.58 0.00000 9.83677e-14
  9 3985.58 0.00000 4.55745e-13
  10 3985.58 0.00000 4.55463e-13
  11 3985.58 0.00000 -2.80566e-13
  12 3985.58 0.00000 -1.78126e-13
</Section>

newXOutput 84

<Section columns = "stress_xx | stress_yy | stress_xy">
  1 4031.30 0.00000 -5.68218e-14
  2 4031.30 0.00000 -3.07033e-14
  3 4031.30 0.00000 -2.17373e-14
  4 4031.30 0.00000 -1.77021e-14
  5 4031.30 0.00000 -5.73726e-14
  6 4031.30 0.00000 -1.31837e-13
  7 4031.30 0.00000 1.54721e-13
  8 4031.30 0.00000 1.67860e-13
  9 4031.30 0.00000 -4.00426e-13
  10 4031.30 0.00000 -1.84401e-13
  11 4031.30 0.00000 1.04454e-13
  12 4031.30 0.00000 2.23704e-16
</Section>

newXOutput 85

<Section columns = "stress_xx | stress_yy | stress_xy">
  1 4076.98 0.00000 -2.43081e-14
  2 4076.98 0.00000 -2.22818e-14
  3 4076.98 0.00000 -8.68939e-14
  4 4076.98 0.00000 -6.54189e-14
  5 4076.98 0.00000 -4.06273e-13
  6 4076.98 0.00000 -3.78719e-13
  7 4076.98 0.00000 -1.97279e-13
  8 4076.98 0.00000 -1.06380e-13
  9 4076.98 0.00000 2.50472e-13
  10 4076.98 0.00000 5.35030e-13
  11 4076.98 0.00000 1.26382e-13
  12 4076.98 0.00000 1.66987e-13
</Section>

newXOutput 86

<Section columns = "stress_xx | stress_yy | stress_xy">
  1 4122.64 0.00000 -1.57938e-14
  2 4122.64 0.00000 2.97615e-14
  3 4122.64 0.00000 2.14614e-13
  4 4122.64 0.00000 2.47991e-13
  5 4122.64 0.00000 2.19893e-13
  6 4122.64 0.00000 2.68547e-13
  7 4122.64 0.00000 -2.24152e-14
  8 4122.64 0.00000 -5.25380e-14
  9 4122.64 0.00000 -7.40108e-14
  10 4122.64 0.00000 -1.64837e-13
  11 4122.64 0.00000 -3.41672e-14
  12 4122.64 0.00000 -1.91940e-14
</Section>

newXOutput 87

<Section columns = "stress_xx | stress_yy | stress_xy">
  1 4168.27 0.00000 8.53570e-14
  2 4168.27 0.00000 5.74531e-14
  3 4168.27 0.00000 1.58029e-13
  4 4168.27 0.00000 6.07702e-14
  5 4168.27 0.00000 2.28490e-13
  6 4168.27 0.00000 1.88908e-13
  7 4168.27 0.00000 2.16987e-14
  8 4168.27 0.00000 2.98694e-14
  9 4168.27 0.00000 -1.03065e-14
  10 4168.27 0.00000 -5.29497e-14
  11 4168.27 0.00000 4.92283e-13
  12 4168.27 0.00000 2.36517e-13
</Section>

newXOutput 88

<Section columns = "stress_xx | stress_yy | stress_xy">
  1 4213.88 0.00000 2.93692e-14
  2 4213.88 0.00000 -2.16563e-14
  3 4213.88 0.00000 1.25262e-13
  4 4213.88 0.00000 8.21092e-14
  5 4213.88 0.00000 -8.65140e-15
  6 4213.88 0.00000 -4.80687e-14
  7 4213.88 0.00000 -1.72416e-13
  8 4213.88 0.00000 -8.93118e-14
  9 4213.88 0.00000 -3.64067e-13
  10 4213.88 0.00000 -1.13157e-13
  11 4213.88 0.00000 -2.20540e-13
  12 4213.88 0.00000 -4.95314e-14
</Section>

newXOutput 89

<Section columns = "stress_xx | stress_yy | stress_xy">
  1 4259.46 0.00000 4.97293e-14
  2 4259.46 0.00000 -3.98059e-14
  3 4259.46 0.00000 2.38668e-13
  4 4259.46 0.00000 2.24097e-13
  5 4259.46 0.00000 -5.17651e-13
  6 4259.46 0.00000 -4.80101e-13
  7 4259.46 0.00000 -4.62788e-14
  8 4259.46 0.00000 -5.79872e-14
  9 4259.46 0.00000 4.45620e-13
  10 4259.46 0.00000 5.14907e-13
  11 4259.46 0.00000 -9.35370e-15
  12 4259.46 0.00000 1.57133e-14
</Section>

newXOutput 90

<Section columns = "stress_xx | stress_yy | stress_xy">
  1 4305.01 0.00000 4.72070e-14
  2 4305.01 0.00000 3.46683e-14
  3 4305.01 0.00000 1.15623e-13
  4 4305.01 0.00000 1.09353e-13
  5 4305.01 0.00000 1.22458e-13
  6 4305.01 0.00000 1.26936e-13
  7 4305.01 0.00000 6.48063e-14
  8 4305.01 0.00000 3.41219e-14
  9 4305.01 0.00000 -2.28964e-13
  10 4305.01 0.00000 -3.64550e-13
  11 4305.01 0.00000 -1.56988e-13
  12 4305.01 0.00000 -4.98344e-13
</Section>

newXOutput 91

<Section columns = "stress_xx | stress_yy | stress_xy">
  1 4350.54 0.00000 9.76145e-14
  2 4350.54 0.00000 6.31098e-14
  3 4350.54 0.00000 2.93383e-13
  4 4350.54 0.00000 2.44802e-13
  5 4350.54 0.00000 2.49752e-13
  6 4350.54 0.00000 2.86059e-13
  7 4350.54 0.00000 5.58791e-14
  8 4350.54 0.00000 6.82405e-14
  9 4350.54 0.00000 -1.18205e-13
  10 4350.54 0.00000 -2.32274e-14
  11 4350.54 0.00000 1.48103e-13
  12 4350.54 0.00000 4.79063e-13
</Section>

newXOutput 92

<Section columns = "stress_xx | stress_yy | stress_xy">
  1 4396.05 0.00000 9.23171e-14
  2 4396.05 0.00000 9.06201e-14
  3 4396.05 0.00000 1.99897e-13
  4 4396.05 0.00000 1.93109e-13
  5 4396.05 0.00000 4.89987e-14
  6 4396.05 0.00000 4.56047e-14
  7 4396.05 0.00000 -8.49061e-14
  8 4396.05 0.00000 -5.39305e-14
  9 4396.05 0.00000 -1.29303e-13
  10 4396.05 0.00000 -7.89762e-14
  11 4396.05 0.00000 1.59282e-13
  12 4396.05 0.00000 8.09825e-14
</Section>

newXOutput 93

<Section columns = "stress_xx | stress_yy | stress_xy">
  1 4401.18 0.00000 0.180420
  2 4401.18 0.00000 -0.180420
  3 4401.61 0.00000 0.592990
  4 4401.61 0.00000 -0.592990
  5 4386.66 0.00000 0.503124
  6 4386.66 0.00000 -0.503124
  7 4386.66 0.00000 -0.503124
  8 4386.66 0.00000 0.503124
  9 4401.61 0.00000 -0.592990
  10 4401.61 0.00000 0.592990
  11 4401.18 0.00000 -0.180420
  12 4401.18 0.00000 0.180420
</Section>

newXOutput 94

<Section columns = "stress_xx | stress_yy | stress_xy">
  1 4355.66 0.00000 0.887522
  2 4355.66 0.00000 -0.887522
  3 4355.99 0.00000 1.52559
  4 4355.99 0.00000 -1.52559
  5 4303.34 0.00000 1.08319
  6 4303.34 0.00000 -1.08319
  7 4303.34 0.00000 -1.08319
  8 4303.34 0.00000 1.08319
  9 4355.99 0.00000 -1.52559
  10 4355.99 0.00000 1.52559
  11 4355.66 0.00000 -0.887522
  12 4355.66 0.00000 0.887522
</Section>

newXOutput 95

<Section columns = "stress_xx | stress_yy | stress_xy">
  1 4305.59 0.00000 1.17269
  2 4305.59 0.00000 -1.17269
  3 4305.81 0.00000 1.68161
  4 4305.81 0.00000 -1.68161
  5 4216.05 0.00000 1.09646
  6 4216.05 0.00000 -1.09646
  7 4216.05 0.00000 -1.09646
  8 4216.05 0.00000 1.09646
  9 4305.81 0.00000 -1.68161
  10 4305.81 0.00000 1.68161
  11 4305.59 0.00000 -1.17269
  12 4305.59 0.00000 1.17269
</Section>

newXOutput 96

<Section columns = "stress_xx | stress_yy | stress_xy">
  1 4254.62 0.00000 1.17711
  2 4254.62 0.00000 -1.17711
  3 4254.83 0.00000 1.64063
  4 4254.83 0.00000 -1.64063
  5 4130.51 0.00000 1.05313
  6 4130.51 0.00000 -1.05313
  7 4130.51 0.00000 -1.05313
  8 4130.51 0.00000 1.05313
  9 4254.83 0.00000 -1.64063
  10 4254.83 0.00000 1.64063
  11 4254.62 0.00000 -1.17711
  12 4254.62 0.00000 1.17711
</Section>

newXOutput 97

<Section columns = "stress_xx | stress_yy | stress_xy">
  1 4205.83 0.00000 1.17520
  2 4205.83 0.00000 -1.17520
  3 4206.00 0.00000 1.64309
  4 4206.00 0.00000 -1.64309
  5 4049.83 0.00000 1.05656
  6 4049.83 0.00000 -1.05656
  7 4049.83 0.00000 -1.05656
  8 4049.83 0.00000 1.05656
  9 4206.00 0.00000 -1.64309
  10 4206.00 0.00000 1.64309
  11 4205.83 0.00000 -1.17520
  12 4205.83 0.00000 1.17520
</Section>

newXOutput 98

<Section columns = "stress_xx | stress_yy | stress_xy">
  1 4158.54 0.00000 1.19079
  2 4158.54 0.00000 -1.19079
  3 4158.70 0.00000 1.69339
  4 4158.70 0.00000 -1.69339
  5 3973.07 0.00000 1.09918
  6 3973.07 0.00000 -1.09918
  7 3973.07 0.00000 -1.09918
  8 3973.07 0.00000 1.09918
  9 4158.70 0.00000 -1.69339
  10 4158.70 0.00000 1.69339
  11 4158.54 0.00000 -1.19079
  12 4158.54 0.00000 1.19079
</Section>

newXOutput 99

<Section columns = "stress_xx | stress_yy | stress_xy">
  1 4111.99 0.00000 1.17616
  2 4111.99 0.00000 -1.17616
  3 4112.14 0.00000 1.64309
  4 4112.14 0.00000 -1.64309
  5 3898.82 0.00000 1.05607
  6 3898.82 0.00000 -1.05607
  7 3898.82 0.00000 -1.05607
  8 3898.82 0.00000 1.05607
  9 4112.14 0.00000 -1.64309
  10 4112.14 0.00000 1.64309
  11 4111.99 0.00000 -1.17616
  12 4111.99 0.00000 1.17616
</Section>

newXOutput 100

<Section columns = "stress_xx | stress_yy | stress_xy">
  1 4067.68 0.00000 1.17465
  2 4067.68 0.00000 -1.17465
  3 4067.76 0.00000 1.67694
  4 4067.76 0.00000 -1.67694
  5 3828.77 0.00000 1.09078
  6 3828.77 0.00000 -1.09078
  7 3828.77 0.00000 -1.09078
  8 3828.77 0.00000 1.09078
  9 4067.76 0.00000 -1.67694
  10 4067.76 0.00000 1.67694
  11 4067.68 0.00000 -1.17465
  12 4067.68 0.00000 1.17465
</Section>

newXOutput 101

<Section columns = "stress_xx | stress_yy | stress_xy">
  1 4023.36 0.00000 1.16560
  2 4023.36 0.00000 -1.16560
  3 4023.44 0.00000 1.63974
  4 4023.44 0.00000 -1.63974
  5 3760.29 0.00000 1.05802
  6 3760.29 0.00000 -1.05802
  7 3760.29 0.00000 -1.05802
  8 3760.29 0.00000 1.05802
  9 4023.44 0.00000 -1.63974
  10 4023.44 0.00000 1.63974
  11 4023.36 0.00000 -1.16560
  12 4023.36 0.00000 1.16560
</Section>

newXOutput 102

<Section columns = "stress_xx | stress_yy | stress_xy">
  1 3979.66 0.00000 1.12512
  2 3979.66 0.00000 -1.12512
  3 3979.73 0.00000 1.55989
  4 3979.73 0.00000 -1.55989
  5 3693.89 0.00000 0.998265
  6 3693.89 0.00000 -0.998265
  7 3693.89 0.00000 -0.998265
  8 3693.89 0.00000 0.998265
  9 3979.73 0.00000 -1.55989
  10 3979.73 0.00000 1.55989
  11 3979.66 0.00000 -1.12512
  12 3979.66 0.00000 1.12512
</Section>

newXOutput 103

<Section columns = "stress_xx | stress_yy | stress_xy">
  1 3936.95 0.00000 1.09902
  2 3936.95 0.00000 -1.09902
  3 3937.05 0.00000 1.60561
  4 3937.05 0.00000 -1.60561
  5 3630.24 0.00000 1.05722
  6 3630.24 0.00000 -1.05722
  7 3630.24 0.00000 -1.05722
  8 3630.24 0.00000 1.05722
  9 3937.05 0.00000 -1.60561
  10 3937.05 0.00000 1.60561
  11 3936.95 0.00000 -1.09902
  12 3936.95 0.00000 1.09902
</Section>

newXOutput 104

<Section columns = "stress_xx | stress_yy | stress_xy">
  1 3894.98 0.00000 1.09797
  2 3894.98 0.00000 -1.09797
  3 3895.07 0.00000 1.58657
  4 3895.07 0.00000 -1.58657
  5 3568.33 0.00000 1.03865
  6 3568.33 0.00000 -1.03865
  7 3568.33 0.00000 -1.03865
  8 3568.33 0.00000 1.03865
  9 3895.07 0.00000 -1.58657
  10 3895.07 0.00000 1.58657
  11 3894.98 0.00000 -1.09797
  12 3894.98 0.00000 1.09797
</Section>

newXOutput 105

<Section columns = "stress_xx | stress_yy | stress_xy">
  1 3853.24 0.00000 1.07425
  2 3853.24 0.00000 -1.07425
  3 3853.33 0.00000 1.53159
  4 3853.33 0.00000 -1.53159
  5 3507.81 0.00000 0.995425
  6 3507.81 0.00000 -0.995425
  7 3507.81 0.00000 -0.995425
  8 3507.81 0.00000 0.995425
  9 3853.33 0.00000 -1.53159
  10 3853.33 0.00000 1.53159
  11 3853.24 0.00000 -1.07425
  12 3853.24 0.00000 1.07425
</Section>

newXOutput 106

<Section columns = "stress_xx | stress_yy | stress_xy">
  1 3811.76 0.00000 1.03334
  2 3811.76 0.00000 -1.03334
  3 3811.85 0.00000 1.45808
  4 3811.85 0.00000 -1.45808
  5 3448.64 0.00000 0.942260
  6 3448.64 0.00000 -0.942260
  7 3448.64 0.00000 -0.942260
  8 3448.64 0.00000 0.942260
  9 3811.85 0.00000 -1.45808
  10 3811.85 0.00000 1.45808
  11 3811.76 0.00000 -1.03334
  12 3811.76 0.00000 1.03334
</Section>

newXOutput 107

<Section columns = "stress_xx | stress_yy | stress_xy">
  1 3770.49 0.00000 0.983429
  2 3770.49 0.00000 -0.983429
  3 3770.57 0.00000 1.37736
  4 3770.57 0.00000 -1.37736
  5 3390.73 0.00000 0.886390
  6 3390.73 0.00000 -0.886390
  7 3390.73 0.00000 -0.886390
  8 3390.73 0.00000 0.886390
  9 3770.57 0.00000 -1.37736
  10 3770.57 0.00000 1.37736
  11 3770.49 0.00000 -0.983429
  12 3770.49 0.00000 0.983429
</Section>

newXOutput 108

<Section columns = "stress_xx | stress_yy | stress_xy">
  1 3729.35 0.00000 0.930170
  2 3729.35 0.00000 -0.930170
  3 3729.43 0.00000 1.29616
  4 3729.43 0.00000 -1.29616
  5 3333.94 0.00000 0.831723
  6 3333.94 0.00000 -0.831723
  7 3333.94 0.00000 -0.831723
  8 3333.94 0.00000 0.831723
  9 3729.43 0.00000 -1.29616
  10 3729.43 0.00000 1.29616
  11 3729.35 0.00000 -0.930170
  12 3729.35 0.00000 0.930170
</Section>

newXOutput 109

<Section columns = "stress_xx | stress_yy | stress_xy">
  1 3688.23 0.00000 0.876931
  2 3688.23 0.00000 -0.876931
  3 3688.32 0.00000 1.21825
  4 3688.32 0.00000 -1.21825
  5 3278.11 0.00000 0.780353
  6 3278.11 0.00000 -0.780353
  7 3278.11 0.00000 -0.780353
  8 3278.11 0.00000 0.780353
  9 3688.32 0.00000 -1.21825
  10 3688.32 0.00000 1.21825
  11 3688.23 0.00000 -0.876931
  12 3688.23 0.00000 0.876931
</Section>

newXOutput 110

<Section columns = "stress_xx | stress_yy | stress_xy">
  1 3647.03 0.00000 0.825552
  2 3647.03 0.00000 -0.825552
  3 3647.11 0.00000 1.14561
  4 3647.11 0.00000 -1.14561
  5 3223.08 0.00000 0.733337
  6 3223.08 0.00000 -0.733337
  7 3223.08 0.00000 -0.733337
  8 3223.08 0.00000 0.733337
  9 3647.11 0.00000 -1.14561
  10 3647.11 0.00000 1.14561
  11 3647.03 0.00000 -0.825552
  12 3647.03 0.00000 0.825552
</Section>

newXOutput 111

<Section columns = "stress_xx | stress_yy | stress_xy">
  1 3605.59 0.00000 0.776913
  2 3605.59 0.00000 -0.776913
  3 3605.68 0.00000 1.07918
  4 3605.68 0.00000 -1.07918
  5 3168.67 0.00000 0.691165
  6 3168.67 0.00000 -0.691165
  7 3168.67 0.00000 -0.691165
  8 3168.67 0.00000 0.691165
  9 3605.68 0.00000 -1.07918
  10 3605.68 0.00000 1.07918
  11 3605.59 0.00000 -0.776913
  12 3605.59 0.00000 0.776913
</Section>

newXOutput 112

<Section columns = "stress_xx | stress_yy | stress_xy">
  1 3563.76 0.00000 0.731311
  2 3563.76 0.00000 -0.731311
  3 3563.87 0.00000 1.01931
  4 3563.87 0.00000 -1.01931
  5 3114.72 0.00000 0.654051
  6 3114.72 0.00000 -0.654051
  7 3114.72 0.00000 -0.654051
  8 3114.72 0.00000 0.654051
  9 3563.87 0.00000 -1.01931
  10 3563.87 0.00000 1.01931
  11 3563.76 0.00000 -0.731311
  12 3563.76 0.00000 0.731311
</Section>

newXOutput 113

<Section columns = "stress_xx | stress_yy | stress_xy">
  1 3521.36 0.00000 0.688689
  2 3521.36 0.00000 -0.688689
  3 3521.49 0.00000 0.966103
  4 3521.49 0.00000 -0.966103
  5 3061.02 0.00000 0.622122
  6 3061.02 0.00000 -0.622122
  7 3061.02 0.00000 -0.622122
  8 3061.02 0.00000 0.622122
  9 3521.49 0.00000 -0.966103
  10 3521.49 0.00000 0.966103
  11 3521.36 0.00000 -0.688689
  12 3521.36 0.00000 0.688689
</Section>

newXOutput 114

<Section columns = "stress_xx | stress_yy | stress_xy">
  1 3478.19 0.00000 0.648772
  2 3478.19 0.00000 -0.648772
  3 3478.33 0.00000 0.919597
  4 3478.33 0.00000 -0.919597
  5 3007.35 0.00000 0.595548
  6 3007.35 0.00000 -0.595548
  7 3007.35 0.00000 -0.595548
  8 3007.35 0.00000 0.595548
  9 3478.33 0.00000 -0.919597
  10 3478.33 0.00000 0.919597
  11 3478.19 0.00000 -0.648772
  12 3478.19 0.00000 0.648772
</Section>

newXOutput 115

<Section columns = "stress_xx | stress_yy | stress_xy">
  1 3433.97 0.00000 0.611140
  2 3433.97 0.00000 -0.611140
  3 3434.14 0.00000 0.879899
  4 3434.14 0.00000 -0.879899
  5 2953.46 0.00000 0.574649
  6 2953.46 0.00000 -0.574649
  7 2953.46 0.00000 -0.574649
  8 2953.46 0.00000 0.574649
  9 3434.14 0.00000 -0.879899
  10 3434.14 0.00000 0.879899
  11 3433.97 0.00000 -0.611140
  12 3433.97 0.00000 0.611140
</Section>

newXOutput 116

<Section columns = "stress_xx | stress_yy | stress_xy">
  1 3392.16 0.00000 0.530792
  2 3392.16 0.00000 -0.530792
  3 3392.25 0.00000 0.671397
  4 3392.25 0.00000 -0.671397
  5 2901.62 0.00000 0.406128
  6 2901.62 0.00000 -0.406128
  7 2901.62 0.00000 -0.406128
  8 2901.62 0.00000 0.406128
  9 3392.25 0.00000 -0.671397
  10 3392.25 0.00000 0.671397
  11 3392.16 0.00000 -0.530792
  12 3392.16 0.00000 0.530792
</Section>

newXOutput 117

<Section columns = "stress_xx | stress_yy | stress_xy">
  1 3345.43 0.00000 0.440056
  2 3345.43 0.00000 -0.440056
  3 3345.56 0.00000 0.577784
  4 3345.56 0.00000 -0.577784
  5 2846.74 0.00000 0.357863
  6 2846.74 0.00000 -0.357863
  7 2846.74 0.00000 -0.357863
  8 2846.74 0.00000 0.357863
  9 3345.56 0.00000 -0.577784
  10 3345.56 0.00000 0.577784
  11 3345.43 0.00000 -0.440056
  12 3345.43 0.00000 0.440056
</Section>

newXOutput 118

<Section columns = "stress_xx | stress_yy | stress_xy">
  1 3308.52 0.00000 0.392692
  2 3308.52 0.00000 -0.392692
  3 3308.39 0.00000 0.427805
  4 3308.39 0.00000 -0.427805
  5 2799.67 0.00000 0.231479
  6 2799.67 0.00000 -0.231479
  7 2799.67 0.00000 -0.231479
  8 2799.67 0.00000 0.231479
  9 3308.39 0.00000 -0.427805
  10 3308.39 0.00000 0.427805
  11 3308.52 0.00000 -0.392692
  12 3308.52 0.00000 0.392692
</Section>

newXOutput 119

<Section columns = "stress_xx | stress_yy | stress_xy">
  1 3260.63 0.00000 0.303292
  2 3260.63 0.00000 -0.303292
  3 3260.52 0.00000 0.311148
  4 3260.52 0.00000 -0.311148
  5 2744.69 0.00000 0.159505
  6 2744.69 0.00000 -0.159505
  7 2744.69 0.00000 -0.159505
  8 2744.69 0.00000 0.159505
  9 3260.52 0.00000 -0.311148
  10 3260.52 0.00000 0.311148
  11 3260.63 0.00000 -0.303292
  12 3260.63 0.00000 0.303292
</Section>

newXOutput 120

<Section columns = "stress_xx | stress_yy | stress_xy">
  1 3201.01 0.00000 0.181910
  2 3201.01 0.00000 -0.181910
  3 3201.12 0.00000 0.238079
  4 3201.12 0.00000 -0.238079
  5 2681.22 0.00000 0.147143
  6 2681.22 0.00000 -0.147143
  7 2681.22 0.00000 -0.147143
  8 2681.22 0.00000 0.147143
  9 3201.12 0.00000 -0.238079
  10 3201.12 0.00000 0.238079
  11 3201.01 0.00000 -0.181910
  12 3201.01 0.00000 0.181910
</Section>

newXOutput 121

<Section columns = "stress_xx | stress_yy | stress_xy">
  1 3149.39 0.00000 0.0850815
  2 3149.39 0.00000 -0.0850815
  3 3149.48 0.00000 0.125294
  4 3149.48 0.00000 -0.125294
  5 2624.07 0.00000 0.0827604
  6 2624.07 0.00000 -0.0827604
  7 2624.07 0.00000 -0.0827604
  8 2624.07 0.00000 0.0827604
  9 3149.48 0.00000 -0.125294
  10 3149.48 0.00000 0.125294
  11 3149.39 0.00000 -0.0850815
  12 3149.39 0.00000 0.0850815
</Section>

newXOutput 122

<Section columns = "stress_xx | stress_yy | stress_xy">
  1 3106.46 0.00000 0.0299208
  2 3106.46 0.00000 -0.0299208
  3 3106.37 0.00000 -0.000819045
  4 3106.37 0.00000 0.000819045
  5 2573.81 0.00000 -0.0157794
  6 2573.81 0.00000 0.0157794
  7 2573.81 0.00000 0.0157794
  8 2573.81 0.00000 -0.0157794
  9 3106.37 0.00000 0.000819045
  10 3106.37 0.00000 -0.000819045
  11 3106.46 0.00000 -0.0299208
  12 3106.46 0.00000 0.0299208
</Section>

