newXOutput 1

<Section columns = "stress_xx | stress_yy | stress_xy">
  1 0.00000 0.00000 0.00000
  2 0.00000 0.00000 0.00000
  3 0.00000 0.00000 0.00000
  4 0.00000 0.00000 0.00000
  5 0.00000 0.00000 0.00000
  6 0.00000 0.00000 0.00000
  7 0.00000 0.00000 0.00000
  8 0.00000 0.00000 0.00000
  9 0.00000 0.00000 0.00000
  10 0.00000 0.00000 0.00000
  11 0.00000 0.00000 0.00000
  12 0.00000 0.00000 0.00000
  13 0.00000 0.00000 0.00000
  14 0.00000 0.00000 0.00000
  15 0.00000 0.00000 0.00000
  16 0.00000 0.00000 0.00000
  17 0.00000 0.00000 0.00000
  18 0.00000 0.00000 0.00000
  19 0.00000 0.00000 0.00000
  20 0.00000 0.00000 0.00000
  21 0.00000 0.00000 0.00000
  22 0.00000 0.00000 0.00000
  23 0.00000 0.00000 0.00000
  24 0.00000 0.00000 0.00000
  25 0.00000 0.00000 0.00000
  26 0.00000 0.00000 0.00000
  27 0.00000 0.00000 0.00000
  28 0.00000 0.00000 0.00000
  29 0.00000 0.00000 0.00000
  30 0.00000 0.00000 0.00000
  31 0.00000 0.00000 0.00000
  32 0.00000 0.00000 0.00000
  33 0.00000 0.00000 0.00000
  34 0.00000 0.00000 0.00000
  35 0.00000 0.00000 0.00000
  36 0.00000 0.00000 0.00000
  37 0.00000 0.00000 0.00000
  38 0.00000 0.00000 0.00000
  39 0.00000 0.00000 0.00000
  40 0.00000 0.00000 0.00000
  41 0.00000 0.00000 0.00000
  42 0.00000 0.00000 0.00000
  43 0.00000 0.00000 0.00000
  44 0.00000 0.00000 0.00000
  45 0.00000 0.00000 0.00000
  46 0.00000 0.00000 0.00000
  47 0.00000 0.00000 0.00000
  48 0.00000 0.00000 0.00000
  49 0.00000 0.00000 0.00000
  50 0.00000 0.00000 0.00000
  51 0.00000 0.00000 0.00000
  52 0.00000 0.00000 0.00000
  53 0.00000 0.00000 0.00000
  54 0.00000 0.00000 0.00000
  55 0.00000 0.00000 0.00000
  56 0.00000 0.00000 0.00000
  57 0.00000 0.00000 0.00000
  58 0.00000 0.00000 0.00000
  59 0.00000 0.00000 0.00000
  60 0.00000 0.00000 0.00000
  61 0.00000 0.00000 0.00000
  62 0.00000 0.00000 0.00000
  63 0.00000 0.00000 0.00000
  64 0.00000 0.00000 0.00000
  65 0.00000 0.00000 0.00000
  66 0.00000 0.00000 0.00000
</Section>

newXOutput 2

<Section columns = "stress_xx | stress_yy | stress_xy">
  1 47.1224 0.00000 7.00616e-16
  2 47.1224 0.00000 6.54444e-15
  3 47.1224 0.00000 3.52877e-14
  4 47.1224 0.00000 -2.26757e-15
  5 47.1224 0.00000 3.35101e-15
  6 47.1224 0.00000 2.53045e-15
  7 47.1224 0.00000 -3.45347e-15
  8 47.1224 0.00000 -4.96732e-15
  9 47.1224 0.00000 -3.86217e-15
  10 47.1224 0.00000 -6.36855e-15
  11 47.1224 0.00000 -2.50565e-15
  12 47.1224 0.00000 -2.69197e-16
  13 47.1224 0.00000 1.18562e-14
  14 47.1224 0.00000 3.90321e-15
  15 47.1224 0.00000 1.25902e-14
  16 47.1224 0.00000 1.71390e-14
  17 47.1224 0.00000 2.85681e-14
  18 47.1224 0.00000 -3.93411e-16
  19 47.1224 0.00000 -3.46435e-15
  20 47.1224 0.00000 -1.64882e-14
  21 47.1224 0.00000 -3.12671e-15
  22 47.1224 0.00000 -2.61251e-15
  23 47.1224 0.00000 -1.79569e-15
  24 47.1224 0.00000 2.54235e-16
  25 47.1224 0.00000 -1.39382e-15
  26 47.1224 0.00000 -1.91398e-16
  27 47.1224 0.00000 -3.22825e-16
  28 47.1224 0.00000 1.03877e-15
  29 47.1224 0.00000 -7.87078e-15
  30 47.1224 0.00000 2.17596e-14
  31 47.1224 0.00000 4.78675e-15
  32 47.1224 0.00000 2.38997e-14
  33 47.1224 0.00000 -8.60553e-15
  34 47.1224 0.00000 -2.69298e-15
  35 47.1224 0.00000 -2.31318e-15
  36 47.1224 0.00000 1.50090e-14
  37 47.1224 0.00000 8.02272e-15
  38 47.1224 0.00000 -3.00930e-16
  39 47.1224 0.00000 -5.05726e-15
  40 47.1224 0.00000 6.10073e-15
  41 47.1224 0.00000 7.98978e-15
  42 47.1224 0.00000 1.95949e-14
  43 47.1224 0.00000 5.41449e-15
  44 47.1224 0.00000 -2.88695e-15
  45 47.1224 0.00000 -4.79836e-15
  46 47.1224 0.00000 2.87329e-15
  47 47.1224 0.00000 7.62201e-15
  48 47.1224 0.00000 -4.40931e-16
  49 47.1224 0.00000 1.31733e-14
  50 47.1224 0.00000 -7.72272e-16
  51 47.1224 0.00000 1.37798e-14
  52 47.1224 0.00000 -8.10372e-15
  53 47.1224 0.00000 2.28457e-14
  54 47.1224 0.00000 1.15227e-14
  55 47.1224 0.00000 7.99645e-16
  56 47.1224 0.00000 2.07479e-14
  57 47.1224 0.00000 -9.50822e-16
  58 47.1224 0.00000 -1.39136e-15
  59 47.1224 0.00000 -2.30201e-15
  60 47.1224 0.00000 1.98021e-14
  61 47.1224 0.00000 -7.45956e-15
  62 47.1224 0.00000 -4.44626e-16
  63 47.1224 0.00000 1.19752e-15
  64 47.1224 0.00000 2.88426e-15
  65 47.1224 0.00000 -2.96720e-15
  66 47.1224 0.00000 3.30349e-15
</Section>

newXOutput 3

<Section columns = "stress_xx | stress_yy | stress_xy">
  1 94.4221 0.00000 8.89008e-17
  2 94.4221 0.00000 2.61649e-14
  3 94.4221 0.00000 -2.19145e-15
  4 94.4221 0.00000 -4.62640e-15
  5 94.4221 0.00000 3.65460e-15
  6 94.4221 0.00000 7.77344e-15
  7 94.4221 0.00000 6.76597e-15
  8 94.4221 0.00000 1.65449e-15
  9 94.4221 0.00000 -2.67053e-15
  10 94.4221 0.00000 -1.24601e-14
  11 94.4221 0.00000 -7.01345e-15
  12 94.4221 0.00000 3.22518e-14
  13 94.4221 0.00000 5.61622e-14
  14 94.4221 0.00000 -1.54974e-14
  15 94.4221 0.00000 -5.12630e-15
  16 94.4221 0.00000 -7.58265e-15
  17 94.4221 0.00000 9.86649e-15
  18 94.4221 0.00000 -1.52589e-14
  19 94.4221 0.00000 -2.42768e-14
  20 94.4221 0.00000 -4.72850e-14
  21 94.4221 0.00000 -2.30026e-14
  22 94.4221 0.00000 -1.34780e-14
  23 94.4221 0.00000 -4.34697e-15
  24 94.4221 0.00000 -2.03284e-15
  25 94.4221 0.00000 -1.64756e-15
  26 94.4221 0.00000 -3.13726e-15
  27 94.4221 0.00000 -5.12630e-15
  28 94.4221 0.00000 3.72253e-16
  29 94.4221 0.00000 -1.02295e-14
  30 94.4221 0.00000 1.78945e-15
  31 94.4221 0.00000 -5.54278e-16
  32 94.4221 0.00000 3.67966e-14
  33 94.4221 0.00000 -5.59419e-14
  34 94.4221 0.00000 -1.69529e-15
  35 94.4221 0.00000 -4.79594e-18
  36 94.4221 0.00000 -3.94436e-15
  37 94.4221 0.00000 -2.18091e-14
  38 94.4221 0.00000 -5.03969e-15
  39 94.4221 0.00000 -3.07837e-15
  40 94.4221 0.00000 -2.76807e-15
  41 94.4221 0.00000 3.61976e-15
  42 94.4221 0.00000 3.53113e-14
  43 94.4221 0.00000 -3.64233e-14
  44 94.4221 0.00000 -4.81495e-15
  45 94.4221 0.00000 -2.22403e-15
  46 94.4221 0.00000 3.20066e-16
  47 94.4221 0.00000 1.92846e-15
  48 94.4221 0.00000 -8.50853e-15
  49 94.4221 0.00000 -1.44888e-14
  50 94.4221 0.00000 -1.16744e-15
  51 94.4221 0.00000 -2.71465e-15
  52 94.4221 0.00000 -1.11113e-14
  53 94.4221 0.00000 -2.32762e-15
  54 94.4221 0.00000 -9.09892e-15
  55 94.4221 0.00000 1.18127e-15
  56 94.4221 0.00000 -3.41217e-15
  57 94.4221 0.00000 -9.41179e-15
  58 94.4221 0.00000 -6.29710e-16
  59 94.4221 0.00000 -3.35781e-15
  60 94.4221 0.00000 -1.81564e-14
  61 94.4221 0.00000 9.96522e-15
  62 94.4221 0.00000 1.30540e-15
  63 94.4221 0.00000 4.33515e-15
  64 94.4221 0.00000 -1.89414e-14
  65 94.4221 0.00000 -6.45822e-15
  66 94.4221 0.00000 -1.37879e-14
</Section>

newXOutput 4

<Section columns = "stress_xx | stress_yy | stress_xy">
  1 141.683 0.00000 -2.27587e-15
  2 141.683 0.00000 1.63335e-14
  3 141.683 0.00000 -5.88268e-14
  4 141.683 0.00000 -7.69174e-15
  5 141.683 0.00000 1.58444e-15
  6 141.683 0.00000 2.08632e-14
  7 141.683 0.00000 2.15328e-14
  8 141.683 0.00000 1.77173e-14
  9 141.683 0.00000 2.05308e-14
  10 141.683 0.00000 1.97430e-14
  11 141.683 0.00000 1.43727e-15
  12 141.683 0.00000 6.53661e-15
  13 141.683 0.00000 3.02334e-14
  14 141.683 0.00000 -2.91857e-14
  15 141.683 0.00000 -1.65341e-14
  16 141.683 0.00000 -4.28190e-14
  17 141.683 0.00000 1.30148e-14
  18 141.683 0.00000 9.92957e-15
  19 141.683 0.00000 1.17102e-14
  20 141.683 0.00000 1.74734e-14
  21 141.683 0.00000 2.76466e-15
  22 141.683 0.00000 -6.12306e-15
  23 141.683 0.00000 1.76997e-15
  24 141.683 0.00000 2.46211e-15
  25 141.683 0.00000 -4.39540e-15
  26 141.683 0.00000 -1.96352e-15
  27 141.683 0.00000 -2.54370e-15
  28 141.683 0.00000 1.00414e-15
  29 141.683 0.00000 -8.46393e-15
  30 141.683 0.00000 -2.76993e-14
  31 141.683 0.00000 -1.03448e-14
  32 141.683 0.00000 7.09650e-15
  33 141.683 0.00000 -7.54945e-14
  34 141.683 0.00000 -5.93402e-15
  35 141.683 0.00000 1.19846e-15
  36 141.683 0.00000 -3.30612e-14
  37 141.683 0.00000 -3.14031e-14
  38 141.683 0.00000 8.87510e-15
  39 141.683 0.00000 -3.34954e-15
  40 141.683 0.00000 1.12278e-14
  41 141.683 0.00000 -6.42509e-15
  42 141.683 0.00000 4.22929e-15
  43 141.683 0.00000 -4.43285e-14
  44 141.683 0.00000 6.92623e-15
  45 141.683 0.00000 -3.91401e-15
  46 141.683 0.00000 1.26461e-14
  47 141.683 0.00000 -1.21695e-14
  48 141.683 0.00000 -9.05959e-15
  49 141.683 0.00000 -4.04482e-14
  50 141.683 0.00000 -2.91635e-17
  51 141.683 0.00000 -1.88894e-14
  52 141.683 0.00000 -9.68473e-15
  53 141.683 0.00000 -2.98320e-14
  54 141.683 0.00000 6.04882e-15
  55 141.683 0.00000 -2.91174e-15
  56 141.683 0.00000 -3.32589e-14
  57 141.683 0.00000 -2.77686e-14
  58 141.683 0.00000 -4.99596e-15
  59 141.683 0.00000 -1.07121e-15
  60 141.683 0.00000 -3.94690e-14
  61 141.683 0.00000 -8.28766e-15
  62 141.683 0.00000 -1.02304e-15
  63 141.683 0.00000 5.68678e-15
  64 141.683 0.00000 -2.49097e-14
  65 141.683 0.00000 1.84176e-14
  66 141.683 0.00000 1.01138e-14
</Section>

newXOutput 5

<Section columns = "stress_xx | stress_yy | stress_xy">
  1 188.907 0.00000 5.40654e-15
  2 188.907 0.00000 3.74877e-14
  3 188.907 0.00000 -4.83919e-14
  4 188.907 0.00000 -6.71269e-15
  5 188.907 0.00000 4.20109e-15
  6 188.907 0.00000 2.18649e-14
  7 188.907 0.00000 2.10771e-14
  8 188.907 0.00000 1.13978e-14
  9 188.907 0.00000 4.43370e-15
  10 188.907 0.00000 -1.76103e-14
  11 188.907 0.00000 -1.65614e-14
  12 188.907 0.00000 -3.87052e-14
  13 188.907 0.00000 3.00283e-14
  14 188.907 0.00000 -8.41417e-15
  15 188.907 0.00000 -1.76698e-14
  16 188.907 0.00000 -1.42474e-14
  17 188.907 0.00000 5.43869e-15
  18 188.907 0.00000 4.16072e-14
  19 188.907 0.00000 1.40575e-14
  20 188.907 0.00000 -2.23774e-14
  21 188.907 0.00000 -2.32887e-14
  22 188.907 0.00000 -2.06102e-14
  23 188.907 0.00000 -1.51354e-15
  24 188.907 0.00000 5.39547e-15
  25 188.907 0.00000 -1.64600e-15
  26 188.907 0.00000 -1.05327e-15
  27 188.907 0.00000 0.00000
  28 188.907 0.00000 3.30450e-15
  29 188.907 0.00000 -1.13097e-14
  30 188.907 0.00000 -1.84211e-14
  31 188.907 0.00000 -9.18687e-15
  32 188.907 0.00000 5.29929e-15
  33 188.907 0.00000 -3.72515e-14
  34 188.907 0.00000 -4.80482e-15
  35 188.907 0.00000 2.50721e-15
  36 188.907 0.00000 -1.41973e-15
  37 188.907 0.00000 -3.32787e-14
  38 188.907 0.00000 -1.10695e-15
  39 188.907 0.00000 -9.17189e-15
  40 188.907 0.00000 6.97585e-15
  41 188.907 0.00000 -5.42987e-15
  42 188.907 0.00000 1.25154e-14
  43 188.907 0.00000 -5.20445e-14
  44 188.907 0.00000 3.74223e-15
  45 188.907 0.00000 -2.58053e-15
  46 188.907 0.00000 8.07930e-15
  47 188.907 0.00000 1.60406e-14
  48 188.907 0.00000 -1.89590e-14
  49 188.907 0.00000 -1.46297e-14
  50 188.907 0.00000 3.78804e-15
  51 188.907 0.00000 -2.68751e-14
  52 188.907 0.00000 -1.06058e-14
  53 188.907 0.00000 -4.16389e-14
  54 188.907 0.00000 -9.52389e-15
  55 188.907 0.00000 1.69401e-15
  56 188.907 0.00000 -7.54645e-15
  57 188.907 0.00000 2.45070e-14
  58 188.907 0.00000 -3.39676e-15
  59 188.907 0.00000 -1.11126e-15
  60 188.907 0.00000 -2.24390e-14
  61 188.907 0.00000 -6.28561e-15
  62 188.907 0.00000 -3.26846e-15
  63 188.907 0.00000 8.28523e-15
  64 188.907 0.00000 2.29332e-14
  65 188.907 0.00000 1.53284e-15
  66 188.907 0.00000 -1.19459e-14
</Section>

newXOutput 6

<Section columns = "stress_xx | stress_yy | stress_xy">
  1 236.093 0.00000 -5.73613e-14
  2 236.093 0.00000 -1.00192e-14
  3 236.093 0.00000 -4.54281e-14
  4 236.093 0.00000 -1.88711e-15
  5 236.093 0.00000 -5.22955e-14
  6 236.093 0.00000 -1.53715e-14
  7 236.093 0.00000 -2.61082e-13
  8 236.093 0.00000 -3.61939e-13
  9 236.093 0.00000 -3.46554e-13
  10 236.093 0.00000 -4.62560e-13
  11 236.093 0.00000 -6.06552e-14
  12 236.093 0.00000 -1.67449e-14
  13 236.093 0.00000 -1.75955e-14
  14 236.093 0.00000 -3.85308e-14
  15 236.093 0.00000 -2.25432e-14
  16 236.093 0.00000 -3.67088e-14
  17 236.093 0.00000 4.96778e-15
  18 236.093 0.00000 4.27309e-14
  19 236.093 0.00000 1.43945e-13
  20 236.093 0.00000 3.04581e-13
  21 236.093 0.00000 1.73622e-13
  22 236.093 0.00000 5.50292e-14
  23 236.093 0.00000 8.74751e-14
  24 236.093 0.00000 -2.42202e-14
  25 236.093 0.00000 -1.70676e-14
  26 236.093 0.00000 1.04367e-14
  27 236.093 0.00000 7.51440e-15
  28 236.093 0.00000 3.07457e-14
  29 236.093 0.00000 1.24770e-13
  30 236.093 0.00000 -2.43988e-14
  31 236.093 0.00000 1.20666e-13
  32 236.093 0.00000 8.13523e-14
  33 236.093 0.00000 -1.43943e-13
  34 236.093 0.00000 6.74084e-14
  35 236.093 0.00000 -1.45934e-13
  36 236.093 0.00000 2.50898e-14
  37 236.093 0.00000 -8.12004e-14
  38 236.093 0.00000 7.33199e-14
  39 236.093 0.00000 -1.06247e-13
  40 236.093 0.00000 -9.48458e-14
  41 236.093 0.00000 7.82394e-14
  42 236.093 0.00000 9.85567e-14
  43 236.093 0.00000 -1.07824e-13
  44 236.093 0.00000 8.50439e-15
  45 236.093 0.00000 -2.75941e-14
  46 236.093 0.00000 -6.86058e-14
  47 236.093 0.00000 8.57865e-14
  48 236.093 0.00000 5.29831e-14
  49 236.093 0.00000 -6.44283e-14
  50 236.093 0.00000 5.05630e-14
  51 236.093 0.00000 5.62599e-14
  52 236.093 0.00000 8.81537e-14
  53 236.093 0.00000 7.80391e-16
  54 236.093 0.00000 1.10194e-13
  55 236.093 0.00000 -8.56292e-14
  56 236.093 0.00000 -2.91137e-14
  57 236.093 0.00000 -6.48493e-14
  58 236.093 0.00000 1.47506e-14
  59 236.093 0.00000 7.09234e-14
  60 236.093 0.00000 -6.80030e-14
  61 236.093 0.00000 -5.30090e-14
  62 236.093 0.00000 -2.99652e-14
  63 236.093 0.00000 -1.95668e-13
  64 236.093 0.00000 4.13297e-14
  65 236.093 0.00000 -1.57536e-13
  66 236.093 0.00000 2.40788e-14
</Section>

newXOutput 7

<Section columns = "stress_xx | stress_yy | stress_xy">
  1 283.245 0.00000 -7.05586e-14
  2 283.245 0.00000 3.69508e-14
  3 283.245 0.00000 -8.53063e-14
  4 283.245 0.00000 2.18179e-14
  5 283.245 0.00000 -1.82133e-13
  6 283.245 0.00000 -2.29704e-13
  7 283.245 0.00000 -3.94404e-14
  8 283.245 0.00000 4.98467e-14
  9 283.245 0.00000 1.16331e-13
  10 283.245 0.00000 1.34947e-13
  11 283.245 0.00000 1.13487e-14
  12 283.245 0.00000 -5.25816e-14
  13 283.245 0.00000 8.06491e-15
  14 283.245 0.00000 -1.46925e-14
  15 283.245 0.00000 7.45604e-15
  16 283.245 0.00000 4.75111e-15
  17 283.245 0.00000 -2.20914e-14
  18 283.245 0.00000 1.11134e-14
  19 283.245 0.00000 -4.68275e-14
  20 283.245 0.00000 -1.56974e-13
  21 283.245 0.00000 -1.29781e-14
  22 283.245 0.00000 4.59707e-14
  23 283.245 0.00000 -1.44530e-14
  24 283.245 0.00000 4.23049e-14
  25 283.245 0.00000 4.40993e-14
  26 283.245 0.00000 1.59401e-14
  27 283.245 0.00000 2.23681e-14
  28 283.245 0.00000 1.18778e-15
  29 283.245 0.00000 1.08059e-13
  30 283.245 0.00000 -1.77661e-14
  31 283.245 0.00000 -9.23164e-14
  32 283.245 0.00000 9.06043e-14
  33 283.245 0.00000 -4.44188e-14
  34 283.245 0.00000 3.55868e-14
  35 283.245 0.00000 6.03996e-14
  36 283.245 0.00000 1.77148e-14
  37 283.245 0.00000 -3.40733e-14
  38 283.245 0.00000 -1.94145e-13
  39 283.245 0.00000 1.43695e-13
  40 283.245 0.00000 -4.52067e-14
  41 283.245 0.00000 5.06034e-14
  42 283.245 0.00000 1.83007e-14
  43 283.245 0.00000 -1.12833e-14
  44 283.245 0.00000 -7.46922e-14
  45 283.245 0.00000 9.27400e-14
  46 283.245 0.00000 -5.50904e-14
  47 283.245 0.00000 -8.02755e-15
  48 283.245 0.00000 5.65980e-14
  49 283.245 0.00000 -2.56769e-15
  50 283.245 0.00000 4.34107e-14
  51 283.245 0.00000 -9.66230e-14
  52 283.245 0.00000 -1.44813e-14
  53 283.245 0.00000 -5.71106e-14
  54 283.245 0.00000 4.25220e-14
  55 283.245 0.00000 -4.86731e-14
  56 283.245 0.00000 9.85538e-15
  57 283.245 0.00000 -2.44093e-14
  58 283.245 0.00000 2.20412e-14
  59 283.245 0.00000 1.14148e-13
  60 283.245 0.00000 -1.58806e-14
  61 283.245 0.00000 -5.20246e-14
  62 283.245 0.00000 6.11329e-14
  63 283.245 0.00000 -1.85902e-13
  64 283.245 0.00000 6.05704e-14
  65 283.245 0.00000 8.43902e-14
  66 283.245 0.00000 4.30735e-14
</Section>

newXOutput 8

<Section columns = "stress_xx | stress_yy | stress_xy">
  1 330.361 0.00000 6.47429e-14
  2 330.361 0.00000 -1.97271e-14
  3 330.361 0.00000 -9.94151e-14
  4 330.361 0.00000 2.87906e-14
  5 330.361 0.00000 5.02169e-14
  6 330.361 0.00000 -3.81021e-15
  7 330.361 0.00000 1.10777e-13
  8 330.361 0.00000 1.12396e-13
  9 330.361 0.00000 5.53990e-14
  10 330.361 0.00000 -6.41705e-15
  11 330.361 0.00000 -4.44922e-14
  12 330.361 0.00000 -1.37463e-13
  13 330.361 0.00000 -8.26870e-14
  14 330.361 0.00000 -4.93178e-15
  15 330.361 0.00000 4.93178e-15
  16 330.361 0.00000 -5.48811e-15
  17 330.361 0.00000 -1.28253e-13
  18 330.361 0.00000 -1.34622e-13
  19 330.361 0.00000 -5.79052e-14
  20 330.361 0.00000 -8.87177e-14
  21 330.361 0.00000 -9.68589e-14
  22 330.361 0.00000 -4.37023e-14
  23 330.361 0.00000 3.30750e-14
  24 330.361 0.00000 8.39904e-14
  25 330.361 0.00000 5.31789e-14
  26 330.361 0.00000 4.89638e-15
  27 330.361 0.00000 2.46589e-15
  28 330.361 0.00000 -2.34108e-14
  29 330.361 0.00000 -1.18047e-13
  30 330.361 0.00000 -1.85409e-14
  31 330.361 0.00000 -5.73954e-14
  32 330.361 0.00000 7.79552e-16
  33 330.361 0.00000 -5.37192e-14
  34 330.361 0.00000 -1.17154e-14
  35 330.361 0.00000 -2.79183e-14
  36 330.361 0.00000 2.32690e-14
  37 330.361 0.00000 -4.11162e-14
  38 330.361 0.00000 -6.57521e-14
  39 330.361 0.00000 1.50259e-14
  40 330.361 0.00000 -3.54817e-14
  41 330.361 0.00000 -1.09003e-14
  42 330.361 0.00000 -3.42958e-14
  43 330.361 0.00000 -7.34598e-14
  44 330.361 0.00000 -5.96967e-14
  45 330.361 0.00000 -7.45945e-15
  46 330.361 0.00000 1.62535e-14
  47 330.361 0.00000 -4.49937e-15
  48 330.361 0.00000 -2.65088e-14
  49 330.361 0.00000 1.50278e-14
  50 330.361 0.00000 -4.12392e-14
  51 330.361 0.00000 -2.00361e-14
  52 330.361 0.00000 -1.51182e-13
  53 330.361 0.00000 -3.47159e-14
  54 330.361 0.00000 -7.08928e-14
  55 330.361 0.00000 -1.08822e-15
  56 330.361 0.00000 -2.52342e-14
  57 330.361 0.00000 -4.77093e-14
  58 330.361 0.00000 1.68956e-14
  59 330.361 0.00000 -7.84600e-14
  60 330.361 0.00000 1.59511e-14
  61 330.361 0.00000 -1.44178e-13
  62 330.361 0.00000 6.89830e-14
  63 330.361 0.00000 -4.48553e-15
  64 330.361 0.00000 -5.25862e-14
  65 330.361 0.00000 1.22998e-14
  66 330.361 0.00000 -5.07546e-14
</Section>

newXOutput 9

<Section columns = "stress_xx | stress_yy | stress_xy">
  1 377.444 0.00000 4.40358e-14
  2 377.444 0.00000 -7.13829e-14
  3 377.444 0.00000 -6.35516e-14
  4 377.444 0.00000 2.96345e-14
  5 377.444 0.00000 2.69886e-14
  6 377.444 0.00000 -2.68462e-14
  7 377.444 0.00000 4.85868e-14
  8 377.444 0.00000 2.13204e-15
  9 377.444 0.00000 3.29941e-15
  10 377.444 0.00000 -3.44527e-14
  11 377.444 0.00000 -8.68923e-15
  12 377.444 0.00000 1.32034e-14
  13 377.444 0.00000 -3.22399e-14
  14 377.444 0.00000 3.12790e-14
  15 377.444 0.00000 1.46786e-14
  16 377.444 0.00000 -1.23490e-14
  17 377.444 0.00000 -7.50156e-14
  18 377.444 0.00000 -1.24064e-13
  19 377.444 0.00000 -5.19389e-15
  20 377.444 0.00000 -5.31633e-14
  21 377.444 0.00000 -9.18763e-14
  22 377.444 0.00000 -1.46687e-14
  23 377.444 0.00000 2.45778e-14
  24 377.444 0.00000 3.93071e-14
  25 377.444 0.00000 3.20909e-14
  26 377.444 0.00000 9.25462e-15
  27 377.444 0.00000 4.89287e-15
  28 377.444 0.00000 -2.09519e-14
  29 377.444 0.00000 -4.02081e-14
  30 377.444 0.00000 1.92759e-14
  31 377.444 0.00000 -1.03694e-14
  32 377.444 0.00000 4.20022e-14
  33 377.444 0.00000 2.91297e-14
  34 377.444 0.00000 -3.38621e-14
  35 377.444 0.00000 -6.09165e-15
  36 377.444 0.00000 2.92513e-14
  37 377.444 0.00000 1.06673e-14
  38 377.444 0.00000 -6.09856e-14
  39 377.444 0.00000 1.78881e-14
  40 377.444 0.00000 -1.13172e-14
  41 377.444 0.00000 1.81246e-15
  42 377.444 0.00000 3.04824e-14
  43 377.444 0.00000 3.64744e-14
  44 377.444 0.00000 -1.81241e-14
  45 377.444 0.00000 -1.39835e-14
  46 377.444 0.00000 -1.56047e-14
  47 377.444 0.00000 9.51852e-15
  48 377.444 0.00000 1.79579e-15
  49 377.444 0.00000 3.90329e-14
  50 377.444 0.00000 -3.58723e-14
  51 377.444 0.00000 3.79435e-14
  52 377.444 0.00000 -7.66177e-14
  53 377.444 0.00000 4.02206e-14
  54 377.444 0.00000 1.13328e-14
  55 377.444 0.00000 -1.52300e-14
  56 377.444 0.00000 -2.42133e-14
  57 377.444 0.00000 -4.22659e-14
  58 377.444 0.00000 3.81086e-15
  59 377.444 0.00000 -4.35373e-14
  60 377.444 0.00000 9.00615e-14
  61 377.444 0.00000 -6.68998e-14
  62 377.444 0.00000 2.90774e-14
  63 377.444 0.00000 -1.59987e-14
  64 377.444 0.00000 -2.04192e-14
  65 377.444 0.00000 -1.01692e-14
  66 377.444 0.00000 -7.09716e-14
</Section>

newXOutput 10

<Section columns = "stress_xx | stress_yy | stress_xy">
  1 424.495 0.00000 3.80197e-14
  2 424.495 0.00000 0.00000
  3 424.495 0.00000 -1.77359e-13
  4 424.495 0.00000 1.97148e-14
  5 424.495 0.00000 9.99248e-15
  6 424.495 0.00000 -5.06320e-14
  7 424.495 0.00000 1.77278e-14
  8 424.495 0.00000 -2.96269e-15
  9 424.495 0.00000 -3.66140e-14
  10 424.495 0.00000 -5.01800e-14
  11 424.495 0.00000 5.58288e-14
  12 424.495 0.00000 -1.07903e-14
  13 424.495 0.00000 -8.09217e-14
  14 424.495 0.00000 6.47192e-15
  15 424.495 0.00000 9.70789e-15
  16 424.495 0.00000 -3.88597e-14
  17 424.495 0.00000 -1.36788e-13
  18 424.495 0.00000 -9.43296e-14
  19 424.495 0.00000 8.35181e-16
  20 424.495 0.00000 -4.84123e-14
  21 424.495 0.00000 -8.77164e-14
  22 424.495 0.00000 -4.53769e-14
  23 424.495 0.00000 9.23117e-16
  24 424.495 0.00000 1.69090e-14
  25 424.495 0.00000 9.94988e-15
  26 424.495 0.00000 7.54303e-15
  27 424.495 0.00000 9.70789e-15
  28 424.495 0.00000 -8.22387e-15
  29 424.495 0.00000 -4.18592e-14
  30 424.495 0.00000 -6.45103e-14
  31 424.495 0.00000 -2.12349e-14
  32 424.495 0.00000 -2.15067e-14
  33 424.495 0.00000 2.85631e-14
  34 424.495 0.00000 -1.69554e-14
  35 424.495 0.00000 1.60525e-14
  36 424.495 0.00000 -1.06344e-13
  37 424.495 0.00000 2.35263e-14
  38 424.495 0.00000 -6.12530e-14
  39 424.495 0.00000 4.87730e-15
  40 424.495 0.00000 -2.97326e-14
  41 424.495 0.00000 -3.16334e-14
  42 424.495 0.00000 1.43004e-14
  43 424.495 0.00000 6.83010e-15
  44 424.495 0.00000 -2.30436e-14
  45 424.495 0.00000 -1.80807e-14
  46 424.495 0.00000 -2.52145e-14
  47 424.495 0.00000 -2.97198e-14
  48 424.495 0.00000 -1.70008e-14
  49 424.495 0.00000 1.35783e-15
  50 424.495 0.00000 -1.79736e-14
  51 424.495 0.00000 -2.17366e-14
  52 424.495 0.00000 -7.49397e-14
  53 424.495 0.00000 -6.19759e-14
  54 424.495 0.00000 1.92651e-14
  55 424.495 0.00000 -7.67850e-15
  56 424.495 0.00000 -1.15300e-13
  57 424.495 0.00000 -1.38133e-16
  58 424.495 0.00000 6.45347e-15
  59 424.495 0.00000 -1.70486e-14
  60 424.495 0.00000 -1.71503e-14
  61 424.495 0.00000 -5.72918e-14
  62 424.495 0.00000 2.14215e-14
  63 424.495 0.00000 -2.41194e-14
  64 424.495 0.00000 -1.18360e-13
  65 424.495 0.00000 -1.23125e-14
  66 424.495 0.00000 -4.73427e-14
</Section>

newXOutput 11

<Section columns = "stress_xx | stress_yy | stress_xy">
  1 471.514 0.00000 3.76170e-14
  2 471.514 0.00000 -1.16768e-13
  3 471.514 0.00000 1.88280e-15
  4 471.514 0.00000 2.23478e-14
  5 471.514 0.00000 -1.15161e-14
  6 471.514 0.00000 -5.82226e-14
  7 471.514 0.00000 -1.76169e-14
  8 471.514 0.00000 -3.84802e-14
  9 471.514 0.00000 -2.31420e-14
  10 471.514 0.00000 -8.78779e-14
  11 471.514 0.00000 -4.69477e-14
  12 471.514 0.00000 -4.65469e-14
  13 471.514 0.00000 -1.15966e-13
  14 471.514 0.00000 2.56801e-14
  15 471.514 0.00000 1.44450e-14
  16 471.514 0.00000 6.01964e-15
  17 471.514 0.00000 2.23408e-15
  18 471.514 0.00000 1.52832e-14
  19 471.514 0.00000 3.84456e-14
  20 471.514 0.00000 2.41052e-14
  21 471.514 0.00000 -6.19376e-14
  22 471.514 0.00000 -1.03973e-14
  23 471.514 0.00000 2.79295e-14
  24 471.514 0.00000 3.04801e-14
  25 471.514 0.00000 2.09516e-14
  26 471.514 0.00000 3.20914e-15
  27 471.514 0.00000 0.00000
  28 471.514 0.00000 -1.78576e-14
  29 471.514 0.00000 -4.04581e-14
  30 471.514 0.00000 -1.69725e-14
  31 471.514 0.00000 -2.92156e-14
  32 471.514 0.00000 -6.22358e-14
  33 471.514 0.00000 6.87969e-14
  34 471.514 0.00000 -3.15227e-14
  35 471.514 0.00000 2.95366e-16
  36 471.514 0.00000 8.02686e-14
  37 471.514 0.00000 -7.91495e-14
  38 471.514 0.00000 -7.22962e-14
  39 471.514 0.00000 1.25757e-14
  40 471.514 0.00000 -6.25003e-14
  41 471.514 0.00000 -3.89679e-15
  42 471.514 0.00000 -2.53156e-15
  43 471.514 0.00000 -4.93545e-14
  44 471.514 0.00000 -1.99125e-14
  45 471.514 0.00000 -3.64166e-14
  46 471.514 0.00000 -4.75277e-14
  47 471.514 0.00000 6.06923e-14
  48 471.514 0.00000 -7.23648e-15
  49 471.514 0.00000 6.21461e-14
  50 471.514 0.00000 -2.01613e-14
  51 471.514 0.00000 -5.91877e-14
  52 471.514 0.00000 -7.87538e-14
  53 471.514 0.00000 -8.14561e-14
  54 471.514 0.00000 -6.56730e-15
  55 471.514 0.00000 -2.70155e-14
  56 471.514 0.00000 2.12938e-14
  57 471.514 0.00000 -1.20892e-14
  58 471.514 0.00000 3.02912e-15
  59 471.514 0.00000 -2.04965e-14
  60 471.514 0.00000 7.76856e-14
  61 471.514 0.00000 -2.75075e-14
  62 471.514 0.00000 1.76477e-14
  63 471.514 0.00000 -4.78237e-14
  64 471.514 0.00000 5.62510e-14
  65 471.514 0.00000 -4.96446e-14
  66 471.514 0.00000 -1.52092e-14
</Section>

newXOutput 12

<Section columns = "stress_xx | stress_yy | stress_xy">
  1 518.503 0.00000 3.24379e-14
  2 518.503 0.00000 2.46778e-14
  3 518.503 0.00000 -3.73662e-14
  4 518.503 0.00000 2.73046e-14
  5 518.503 0.00000 -1.19569e-14
  6 518.503 0.00000 -7.13317e-14
  7 518.503 0.00000 -1.65131e-14
  8 518.503 0.00000 -4.96702e-14
  9 518.503 0.00000 1.55192e-15
  10 518.503 0.00000 4.73348e-14
  11 518.503 0.00000 1.03053e-13
  12 518.503 0.00000 7.85380e-14
  13 518.503 0.00000 -6.63107e-15
  14 518.503 0.00000 5.09448e-14
  15 518.503 0.00000 2.38804e-14
  16 518.503 0.00000 -1.19402e-14
  17 518.503 0.00000 -4.00047e-14
  18 518.503 0.00000 -2.16726e-14
  19 518.503 0.00000 6.09953e-14
  20 518.503 0.00000 -2.86534e-14
  21 518.503 0.00000 -6.86200e-14
  22 518.503 0.00000 -5.14493e-14
  23 518.503 0.00000 -3.47506e-14
  24 518.503 0.00000 -4.67772e-14
  25 518.503 0.00000 -1.12925e-14
  26 518.503 0.00000 2.58811e-15
  27 518.503 0.00000 0.00000
  28 518.503 0.00000 -1.35692e-14
  29 518.503 0.00000 -3.21976e-14
  30 518.503 0.00000 -4.16291e-14
  31 518.503 0.00000 -7.51635e-15
  32 518.503 0.00000 -1.32261e-14
  33 518.503 0.00000 1.19511e-14
  34 518.503 0.00000 -4.31656e-14
  35 518.503 0.00000 8.23469e-15
  36 518.503 0.00000 5.25561e-14
  37 518.503 0.00000 2.60753e-14
  38 518.503 0.00000 -2.76213e-14
  39 518.503 0.00000 -3.73359e-14
  40 518.503 0.00000 2.22786e-14
  41 518.503 0.00000 -2.17710e-14
  42 518.503 0.00000 1.99335e-14
  43 518.503 0.00000 1.17662e-14
  44 518.503 0.00000 -2.09499e-14
  45 518.503 0.00000 -5.21659e-14
  46 518.503 0.00000 -8.59605e-15
  47 518.503 0.00000 6.26009e-14
  48 518.503 0.00000 -6.06280e-14
  49 518.503 0.00000 2.08093e-14
  50 518.503 0.00000 -2.52634e-14
  51 518.503 0.00000 2.99382e-14
  52 518.503 0.00000 -5.27901e-14
  53 518.503 0.00000 2.02521e-15
  54 518.503 0.00000 -4.61795e-14
  55 518.503 0.00000 -1.45628e-14
  56 518.503 0.00000 -9.80296e-15
  57 518.503 0.00000 1.04825e-14
  58 518.503 0.00000 -1.03030e-14
  59 518.503 0.00000 -2.34016e-14
  60 518.503 0.00000 1.71411e-14
  61 518.503 0.00000 1.33739e-14
  62 518.503 0.00000 -2.25545e-14
  63 518.503 0.00000 -4.48864e-14
  64 518.503 0.00000 2.48513e-14
  65 518.503 0.00000 4.23032e-14
  66 518.503 0.00000 -5.07673e-14
</Section>

newXOutput 13

<Section columns = "stress_xx | stress_yy | stress_xy">
  1 565.462 0.00000 -2.20121e-14
  2 565.462 0.00000 -6.55366e-14
  3 565.462 0.00000 6.89234e-14
  4 565.462 0.00000 -4.91207e-14
  5 565.462 0.00000 3.80991e-14
  6 565.462 0.00000 3.86213e-14
  7 565.462 0.00000 4.50678e-14
  8 565.462 0.00000 -5.33084e-15
  9 565.462 0.00000 2.53152e-14
  10 565.462 0.00000 -5.17168e-14
  11 565.462 0.00000 6.20816e-14
  12 565.462 0.00000 3.76360e-14
  13 565.462 0.00000 5.22175e-16
  14 565.462 0.00000 1.57904e-14
  15 565.462 0.00000 2.36857e-14
  16 565.462 0.00000 4.94788e-14
  17 565.462 0.00000 2.64061e-14
  18 565.462 0.00000 -1.89349e-14
  19 565.462 0.00000 4.52245e-14
  20 565.462 0.00000 1.92465e-14
  21 565.462 0.00000 -2.04454e-14
  22 565.462 0.00000 -7.25001e-14
  23 565.462 0.00000 -9.99471e-14
  24 565.462 0.00000 -1.51894e-13
  25 565.462 0.00000 -1.17988e-13
  26 565.462 0.00000 -4.02003e-14
  27 565.462 0.00000 -2.84228e-14
  28 565.462 0.00000 8.69254e-14
  29 565.462 0.00000 8.41150e-14
  30 565.462 0.00000 -5.65542e-14
  31 565.462 0.00000 -1.28674e-14
  32 565.462 0.00000 -1.73074e-14
  33 565.462 0.00000 -5.93353e-14
  34 565.462 0.00000 -1.51276e-13
  35 565.462 0.00000 2.05212e-13
  36 565.462 0.00000 1.07270e-13
  37 565.462 0.00000 2.05944e-14
  38 565.462 0.00000 4.64381e-14
  39 565.462 0.00000 -7.33006e-14
  40 565.462 0.00000 4.27094e-14
  41 565.462 0.00000 -2.12750e-14
  42 565.462 0.00000 -2.30192e-14
  43 565.462 0.00000 -3.44200e-14
  44 565.462 0.00000 1.47155e-13
  45 565.462 0.00000 -1.14227e-13
  46 565.462 0.00000 5.87132e-14
  47 565.462 0.00000 4.12031e-14
  48 565.462 0.00000 -5.56528e-14
  49 565.462 0.00000 6.87935e-14
  50 565.462 0.00000 4.13751e-14
  51 565.462 0.00000 6.72686e-15
  52 565.462 0.00000 2.70778e-14
  53 565.462 0.00000 -3.78349e-14
  54 565.462 0.00000 -3.60489e-16
  55 565.462 0.00000 1.06355e-13
  56 565.462 0.00000 1.04696e-13
  57 565.462 0.00000 -3.60274e-14
  58 565.462 0.00000 -9.49487e-14
  59 565.462 0.00000 3.78305e-14
  60 565.462 0.00000 5.44700e-14
  61 565.462 0.00000 -5.60231e-14
  62 565.462 0.00000 -1.29704e-13
  63 565.462 0.00000 7.12163e-14
  64 565.462 0.00000 6.35631e-14
  65 565.462 0.00000 -1.34281e-15
  66 565.462 0.00000 -4.09594e-14
</Section>

newXOutput 14

<Section columns = "stress_xx | stress_yy | stress_xy">
  1 612.392 0.00000 -2.03316e-13
  2 612.392 0.00000 2.60867e-13
  3 612.392 0.00000 2.79838e-14
  4 612.392 0.00000 1.10007e-13
  5 612.392 0.00000 -6.46637e-14
  6 612.392 0.00000 1.72932e-13
  7 612.392 0.00000 -1.99152e-14
  8 612.392 0.00000 1.86097e-13
  9 612.392 0.00000 -3.36309e-14
  10 612.392 0.00000 3.18221e-13
  11 612.392 0.00000 -4.36328e-14
  12 612.392 0.00000 4.26043e-13
  13 612.392 0.00000 3.72780e-13
  14 612.392 0.00000 4.39172e-14
  15 612.392 0.00000 -7.75781e-14
  16 612.392 0.00000 -6.03320e-14
  17 612.392 0.00000 -2.64580e-15
  18 612.392 0.00000 -4.51574e-13
  19 612.392 0.00000 -1.42126e-13
  20 612.392 0.00000 3.37280e-13
  21 612.392 0.00000 7.22962e-13
  22 612.392 0.00000 2.53131e-13
  23 612.392 0.00000 -1.38870e-14
  24 612.392 0.00000 -1.25253e-13
  25 612.392 0.00000 1.65131e-14
  26 612.392 0.00000 2.31507e-14
  27 612.392 0.00000 6.57745e-14
  28 612.392 0.00000 -1.49127e-14
  29 612.392 0.00000 5.37661e-14
  30 612.392 0.00000 1.68628e-13
  31 612.392 0.00000 -1.26186e-13
  32 612.392 0.00000 2.47522e-13
  33 612.392 0.00000 -2.47323e-14
  34 612.392 0.00000 1.00341e-13
  35 612.392 0.00000 -1.48503e-13
  36 612.392 0.00000 -2.82389e-14
  37 612.392 0.00000 -2.05736e-13
  38 612.392 0.00000 6.73094e-14
  39 612.392 0.00000 1.04230e-13
  40 612.392 0.00000 -2.49109e-13
  41 612.392 0.00000 2.79646e-13
  42 612.392 0.00000 1.76666e-13
  43 612.392 0.00000 6.02801e-14
  44 612.392 0.00000 -3.10642e-14
  45 612.392 0.00000 1.24357e-13
  46 612.392 0.00000 -2.21989e-13
  47 612.392 0.00000 -1.04797e-13
  48 612.392 0.00000 2.46224e-13
  49 612.392 0.00000 -2.84836e-14
  50 612.392 0.00000 8.57308e-14
  51 612.392 0.00000 -5.17031e-14
  52 612.392 0.00000 2.31874e-13
  53 612.392 0.00000 4.47576e-14
  54 612.392 0.00000 2.57538e-13
  55 612.392 0.00000 -1.35539e-13
  56 612.392 0.00000 -9.99919e-14
  57 612.392 0.00000 2.49672e-13
  58 612.392 0.00000 7.88346e-15
  59 612.392 0.00000 2.18140e-13
  60 612.392 0.00000 -6.48870e-14
  61 612.392 0.00000 4.30168e-13
  62 612.392 0.00000 -8.57233e-14
  63 612.392 0.00000 -1.28283e-13
  64 612.392 0.00000 -3.72816e-13
  65 612.392 0.00000 -7.34719e-14
  66 612.392 0.00000 4.94392e-13
</Section>

newXOutput 15

<Section columns = "stress_xx | stress_yy | stress_xy">
  1 659.295 0.00000 -5.62383e-14
  2 659.295 0.00000 3.05182e-14
  3 659.295 0.00000 1.16164e-13
  4 659.295 0.00000 2.00595e-14
  5 659.295 0.00000 -1.69892e-14
  6 659.295 0.00000 4.36878e-14
  7 659.295 0.00000 3.92303e-14
  8 659.295 0.00000 1.47943e-13
  9 659.295 0.00000 -3.53570e-14
  10 659.295 0.00000 -2.84502e-14
  11 659.295 0.00000 -2.30154e-14
  12 659.295 0.00000 2.30332e-13
  13 659.295 0.00000 1.43927e-13
  14 659.295 0.00000 2.79553e-14
  15 659.295 0.00000 -4.65921e-15
  16 659.295 0.00000 3.88268e-15
  17 659.295 0.00000 2.70470e-14
  18 659.295 0.00000 -2.79650e-13
  19 659.295 0.00000 -1.09543e-13
  20 659.295 0.00000 -2.67665e-14
  21 659.295 0.00000 -1.07181e-14
  22 659.295 0.00000 1.63230e-13
  23 659.295 0.00000 8.15906e-14
  24 659.295 0.00000 2.54320e-14
  25 659.295 0.00000 2.85887e-14
  26 659.295 0.00000 -2.37185e-14
  27 659.295 0.00000 0.00000
  28 659.295 0.00000 2.74047e-14
  29 659.295 0.00000 -3.77024e-14
  30 659.295 0.00000 4.28695e-14
  31 659.295 0.00000 2.68325e-14
  32 659.295 0.00000 9.34134e-14
  33 659.295 0.00000 5.07159e-15
  34 659.295 0.00000 -3.08871e-14
  35 659.295 0.00000 5.25682e-14
  36 659.295 0.00000 4.57769e-14
  37 659.295 0.00000 4.02530e-14
  38 659.295 0.00000 7.56779e-14
  39 659.295 0.00000 1.05971e-14
  40 659.295 0.00000 3.37946e-14
  41 659.295 0.00000 2.27935e-14
  42 659.295 0.00000 1.01546e-13
  43 659.295 0.00000 -2.32283e-15
  44 659.295 0.00000 3.85874e-14
  45 659.295 0.00000 -2.09451e-14
  46 659.295 0.00000 7.04633e-15
  47 659.295 0.00000 2.54993e-14
  48 659.295 0.00000 4.92889e-14
  49 659.295 0.00000 -2.19275e-14
  50 659.295 0.00000 1.58263e-14
  51 659.295 0.00000 1.95165e-13
  52 659.295 0.00000 4.17659e-15
  53 659.295 0.00000 7.90968e-14
  54 659.295 0.00000 1.58964e-14
  55 659.295 0.00000 3.46441e-14
  56 659.295 0.00000 5.68631e-14
  57 659.295 0.00000 8.79177e-14
  58 659.295 0.00000 -9.02046e-15
  59 659.295 0.00000 5.34785e-15
  60 659.295 0.00000 -4.82192e-14
  61 659.295 0.00000 2.34411e-13
  62 659.295 0.00000 2.47966e-14
  63 659.295 0.00000 4.83466e-15
  64 659.295 0.00000 -4.29949e-14
  65 659.295 0.00000 -8.76776e-14
  66 659.295 0.00000 -6.96296e-14
</Section>

newXOutput 16

<Section columns = "stress_xx | stress_yy | stress_xy">
  1 706.172 0.00000 1.47082e-13
  2 706.172 0.00000 -1.60167e-13
  3 706.172 0.00000 -6.38238e-14
  4 706.172 0.00000 -4.69057e-14
  5 706.172 0.00000 1.69588e-13
  6 706.172 0.00000 1.71846e-14
  7 706.172 0.00000 -8.46464e-15
  8 706.172 0.00000 7.65238e-15
  9 706.172 0.00000 2.20894e-13
  10 706.172 0.00000 4.81476e-13
  11 706.172 0.00000 5.50824e-14
  12 706.172 0.00000 -3.09640e-14
  13 706.172 0.00000 -1.41213e-13
  14 706.172 0.00000 -5.65504e-14
  15 706.172 0.00000 -9.24047e-15
  16 706.172 0.00000 5.72780e-15
  17 706.172 0.00000 1.86931e-13
  18 706.172 0.00000 4.98877e-13
  19 706.172 0.00000 7.95346e-14
  20 706.172 0.00000 -4.77673e-13
  21 706.172 0.00000 -3.61982e-13
  22 706.172 0.00000 -2.26782e-13
  23 706.172 0.00000 -1.32736e-13
  24 706.172 0.00000 2.04003e-14
  25 706.172 0.00000 -2.94782e-14
  26 706.172 0.00000 1.32291e-14
  27 706.172 0.00000 0.00000
  28 706.172 0.00000 -4.68797e-14
  29 706.172 0.00000 -1.88186e-14
  30 706.172 0.00000 -1.17301e-13
  31 706.172 0.00000 1.57467e-13
  32 706.172 0.00000 -9.43652e-14
  33 706.172 0.00000 -2.43171e-13
  34 706.172 0.00000 5.36490e-15
  35 706.172 0.00000 -7.84985e-14
  36 706.172 0.00000 -1.32474e-13
  37 706.172 0.00000 -3.84905e-14
  38 706.172 0.00000 1.63243e-13
  39 706.172 0.00000 -9.66653e-14
  40 706.172 0.00000 1.62980e-13
  41 706.172 0.00000 -1.42377e-13
  42 706.172 0.00000 -8.30543e-14
  43 706.172 0.00000 -1.12369e-13
  44 706.172 0.00000 1.16771e-14
  45 706.172 0.00000 4.77787e-15
  46 706.172 0.00000 3.02456e-13
  47 706.172 0.00000 9.01369e-14
  48 706.172 0.00000 -2.02152e-13
  49 706.172 0.00000 -3.72554e-14
  50 706.172 0.00000 -5.24704e-14
  51 706.172 0.00000 4.60372e-14
  52 706.172 0.00000 9.38265e-14
  53 706.172 0.00000 -6.76678e-14
  54 706.172 0.00000 -1.69245e-13
  55 706.172 0.00000 -1.51079e-14
  56 706.172 0.00000 -5.92129e-15
  57 706.172 0.00000 -2.06138e-13
  58 706.172 0.00000 4.56864e-15
  59 706.172 0.00000 -2.56410e-14
  60 706.172 0.00000 -9.98215e-14
  61 706.172 0.00000 -2.69640e-13
  62 706.172 0.00000 3.00090e-14
  63 706.172 0.00000 1.08111e-14
  64 706.172 0.00000 1.75761e-13
  65 706.172 0.00000 1.85555e-13
  66 706.172 0.00000 -3.27372e-13
</Section>

newXOutput 17

<Section columns = "stress_xx | stress_yy | stress_xy">
  1 753.023 0.00000 8.15601e-14
  2 753.023 0.00000 1.11446e-13
  3 753.023 0.00000 -2.41170e-14
  4 753.023 0.00000 7.83996e-15
  5 753.023 0.00000 1.69857e-13
  6 753.023 0.00000 1.24475e-13
  7 753.023 0.00000 3.18260e-14
  8 753.023 0.00000 -2.24599e-13
  9 753.023 0.00000 1.64186e-14
  10 753.023 0.00000 2.37485e-13
  11 753.023 0.00000 -6.80929e-14
  12 753.023 0.00000 -4.46656e-13
  13 753.023 0.00000 -1.87634e-13
  14 753.023 0.00000 6.75328e-14
  15 753.023 0.00000 -9.16249e-15
  16 753.023 0.00000 1.73462e-14
  17 753.023 0.00000 2.03572e-13
  18 753.023 0.00000 2.40307e-14
  19 753.023 0.00000 -2.87372e-13
  20 753.023 0.00000 -3.55402e-13
  21 753.023 0.00000 -1.93934e-13
  22 753.023 0.00000 -5.60381e-14
  23 753.023 0.00000 -6.55048e-14
  24 753.023 0.00000 2.31643e-15
  25 753.023 0.00000 -6.05643e-15
  26 753.023 0.00000 1.17316e-14
  27 753.023 0.00000 -9.16249e-15
  28 753.023 0.00000 -5.61790e-14
  29 753.023 0.00000 -1.25921e-13
  30 753.023 0.00000 2.01468e-13
  31 753.023 0.00000 6.31225e-14
  32 753.023 0.00000 2.25361e-13
  33 753.023 0.00000 -1.74687e-13
  34 753.023 0.00000 -3.35728e-14
  35 753.023 0.00000 -7.13682e-14
  36 753.023 0.00000 1.07364e-14
  37 753.023 0.00000 -1.32138e-13
  38 753.023 0.00000 -2.34186e-14
  39 753.023 0.00000 -2.83853e-14
  40 753.023 0.00000 3.54071e-14
  41 753.023 0.00000 1.48277e-14
  42 753.023 0.00000 6.81705e-14
  43 753.023 0.00000 -1.28170e-13
  44 753.023 0.00000 -9.04128e-15
  45 753.023 0.00000 -4.67527e-14
  46 753.023 0.00000 2.22554e-14
  47 753.023 0.00000 -2.20954e-14
  48 753.023 0.00000 -8.14721e-14
  49 753.023 0.00000 4.66479e-14
  50 753.023 0.00000 -6.92850e-14
  51 753.023 0.00000 4.97575e-14
  52 753.023 0.00000 -6.05142e-14
  53 753.023 0.00000 1.23970e-13
  54 753.023 0.00000 -1.95296e-13
  55 753.023 0.00000 6.64721e-15
  56 753.023 0.00000 4.07922e-14
  57 753.023 0.00000 -8.02803e-14
  58 753.023 0.00000 2.17872e-15
  59 753.023 0.00000 -1.07911e-13
  60 753.023 0.00000 1.82790e-13
  61 753.023 0.00000 -4.10476e-13
  62 753.023 0.00000 1.86372e-14
  63 753.023 0.00000 9.77881e-14
  64 753.023 0.00000 7.04551e-14
  65 753.023 0.00000 1.29493e-13
  66 753.023 0.00000 -1.71785e-13
</Section>

newXOutput 18

<Section columns = "stress_xx | stress_yy | stress_xy">
  1 799.850 0.00000 5.97855e-14
  2 799.850 0.00000 -2.72535e-14
  3 799.850 0.00000 1.59134e-13
  4 799.850 0.00000 9.13277e-16
  5 799.850 0.00000 9.24356e-14
  6 799.850 0.00000 1.03702e-13
  7 799.850 0.00000 1.10790e-13
  8 799.850 0.00000 -1.30027e-13
  9 799.850 0.00000 1.02775e-14
  10 799.850 0.00000 1.02722e-13
  11 799.850 0.00000 -3.31666e-14
  12 799.850 0.00000 -1.04583e-13
  13 799.850 0.00000 1.61153e-13
  14 799.850 0.00000 -1.56317e-14
  15 799.850 0.00000 -9.08449e-15
  16 799.850 0.00000 2.76198e-15
  17 799.850 0.00000 4.22594e-13
  18 799.850 0.00000 2.06485e-13
  19 799.850 0.00000 -1.02580e-13
  20 799.850 0.00000 -2.58527e-13
  21 799.850 0.00000 -1.27387e-13
  22 799.850 0.00000 -2.16513e-14
  23 799.850 0.00000 -3.73225e-15
  24 799.850 0.00000 -9.60815e-15
  25 799.850 0.00000 -9.06806e-15
  26 799.850 0.00000 4.54224e-15
  27 799.850 0.00000 -1.81690e-14
  28 799.850 0.00000 -2.12398e-14
  29 799.850 0.00000 -6.53036e-14
  30 799.850 0.00000 1.27309e-13
  31 799.850 0.00000 2.51424e-14
  32 799.850 0.00000 -2.15575e-14
  33 799.850 0.00000 -9.83016e-14
  34 799.850 0.00000 -7.50195e-16
  35 799.850 0.00000 -2.92410e-14
  36 799.850 0.00000 1.12765e-13
  37 799.850 0.00000 -1.45166e-14
  38 799.850 0.00000 1.64812e-14
  39 799.850 0.00000 -1.50273e-14
  40 799.850 0.00000 3.31166e-14
  41 799.850 0.00000 -2.97063e-14
  42 799.850 0.00000 -1.44478e-14
  43 799.850 0.00000 -2.97437e-15
  44 799.850 0.00000 2.74523e-14
  45 799.850 0.00000 -2.39498e-14
  46 799.850 0.00000 3.92677e-14
  47 799.850 0.00000 1.25837e-14
  48 799.850 0.00000 -7.13382e-14
  49 799.850 0.00000 3.58607e-14
  50 799.850 0.00000 -4.13771e-14
  51 799.850 0.00000 -1.41764e-14
  52 799.850 0.00000 -4.83253e-14
  53 799.850 0.00000 4.18972e-14
  54 799.850 0.00000 -1.77987e-13
  55 799.850 0.00000 1.53775e-14
  56 799.850 0.00000 1.93312e-13
  57 799.850 0.00000 -1.98738e-14
  58 799.850 0.00000 1.19962e-14
  59 799.850 0.00000 -7.53487e-14
  60 799.850 0.00000 8.02216e-14
  61 799.850 0.00000 -6.40291e-14
  62 799.850 0.00000 2.00681e-14
  63 799.850 0.00000 6.92351e-14
  64 799.850 0.00000 2.42183e-13
  65 799.850 0.00000 4.70827e-14
  66 799.850 0.00000 -1.32375e-13
</Section>

newXOutput 19

<Section columns = "stress_xx | stress_yy | stress_xy">
  1 846.653 0.00000 5.13145e-14
  2 846.653 0.00000 -2.70194e-14
  3 846.653 0.00000 1.05479e-13
  4 846.653 0.00000 -1.69930e-14
  5 846.653 0.00000 4.40304e-14
  6 846.653 0.00000 2.09230e-14
  7 846.653 0.00000 5.96963e-14
  8 846.653 0.00000 -8.21064e-14
  9 846.653 0.00000 4.86010e-14
  10 846.653 0.00000 2.68400e-13
  11 846.653 0.00000 6.08734e-14
  12 846.653 0.00000 2.52764e-15
  13 846.653 0.00000 2.74868e-14
  14 846.653 0.00000 -2.67646e-14
  15 846.653 0.00000 0.00000
  16 846.653 0.00000 -6.65148e-14
  17 846.653 0.00000 1.66127e-13
  18 846.653 0.00000 -5.47082e-14
  19 846.653 0.00000 -7.74385e-14
  20 846.653 0.00000 -3.39884e-16
  21 846.653 0.00000 4.81024e-15
  22 846.653 0.00000 5.63081e-14
  23 846.653 0.00000 -5.83201e-15
  24 846.653 0.00000 -3.44144e-14
  25 846.653 0.00000 -3.85771e-14
  26 846.653 0.00000 3.00215e-15
  27 846.653 0.00000 0.00000
  28 846.653 0.00000 1.53641e-15
  29 846.653 0.00000 -5.90757e-14
  30 846.653 0.00000 3.98495e-14
  31 846.653 0.00000 3.95728e-14
  32 846.653 0.00000 -4.78364e-14
  33 846.653 0.00000 -1.07445e-13
  34 846.653 0.00000 3.86246e-15
  35 846.653 0.00000 -3.39454e-14
  36 846.653 0.00000 5.16917e-14
  37 846.653 0.00000 -2.92080e-15
  38 846.653 0.00000 1.51918e-14
  39 846.653 0.00000 2.16794e-14
  40 846.653 0.00000 8.55192e-16
  41 846.653 0.00000 1.91125e-15
  42 846.653 0.00000 -7.94308e-14
  43 846.653 0.00000 2.36047e-14
  44 846.653 0.00000 -2.54596e-15
  45 846.653 0.00000 -1.68545e-14
  46 846.653 0.00000 3.69416e-14
  47 846.653 0.00000 -4.81197e-14
  48 846.653 0.00000 2.86129e-14
  49 846.653 0.00000 -1.27345e-14
  50 846.653 0.00000 -3.48351e-14
  51 846.653 0.00000 6.67100e-14
  52 846.653 0.00000 -1.04422e-14
  53 846.653 0.00000 5.42867e-14
  54 846.653 0.00000 -7.90850e-14
  55 846.653 0.00000 1.95556e-14
  56 846.653 0.00000 6.09967e-14
  57 846.653 0.00000 -1.16040e-13
  58 846.653 0.00000 -5.84074e-15
  59 846.653 0.00000 -6.34466e-14
  60 846.653 0.00000 6.49323e-14
  61 846.653 0.00000 -1.20164e-13
  62 846.653 0.00000 -8.00454e-15
  63 846.653 0.00000 4.65628e-14
  64 846.653 0.00000 8.70936e-14
  65 846.653 0.00000 4.41871e-14
  66 846.653 0.00000 -8.99747e-14
</Section>

newXOutput 20

<Section columns = "stress_xx | stress_yy | stress_xy">
  1 893.435 0.00000 2.30591e-14
  2 893.435 0.00000 -1.21014e-13
  3 893.435 0.00000 7.25379e-14
  4 893.435 0.00000 -2.48116e-14
  5 893.435 0.00000 1.19045e-14
  6 893.435 0.00000 5.70386e-14
  7 893.435 0.00000 9.47206e-14
  8 893.435 0.00000 -4.12094e-14
  9 893.435 0.00000 9.36327e-14
  10 893.435 0.00000 -4.65976e-15
  11 893.435 0.00000 -4.81947e-14
  12 893.435 0.00000 1.79694e-14
  13 893.435 0.00000 7.80199e-14
  14 893.435 0.00000 -1.52009e-14
  15 893.435 0.00000 5.35704e-14
  16 893.435 0.00000 -8.73721e-14
  17 893.435 0.00000 8.32141e-14
  18 893.435 0.00000 -2.36926e-13
  19 893.435 0.00000 -2.25301e-13
  20 893.435 0.00000 -1.89677e-13
  21 893.435 0.00000 -8.28548e-14
  22 893.435 0.00000 -1.04376e-14
  23 893.435 0.00000 1.33750e-14
  24 893.435 0.00000 -5.37381e-14
  25 893.435 0.00000 -6.38459e-14
  26 893.435 0.00000 4.46420e-15
  27 893.435 0.00000 -8.92840e-15
  28 893.435 0.00000 2.43069e-15
  29 893.435 0.00000 -1.67553e-14
  30 893.435 0.00000 1.57136e-13
  31 893.435 0.00000 2.49774e-14
  32 893.435 0.00000 7.86867e-15
  33 893.435 0.00000 -1.69281e-13
  34 893.435 0.00000 -1.69440e-16
  35 893.435 0.00000 1.67398e-14
  36 893.435 0.00000 -2.24373e-13
  37 893.435 0.00000 7.95616e-15
  38 893.435 0.00000 1.05581e-14
  39 893.435 0.00000 -2.26550e-15
  40 893.435 0.00000 5.70551e-14
  41 893.435 0.00000 2.49728e-14
  42 893.435 0.00000 -5.04758e-14
  43 893.435 0.00000 2.33876e-14
  44 893.435 0.00000 4.36966e-14
  45 893.435 0.00000 -2.07182e-14
  46 893.435 0.00000 5.24482e-14
  47 893.435 0.00000 -1.05889e-13
  48 893.435 0.00000 -2.09007e-14
  49 893.435 0.00000 -8.17574e-14
  50 893.435 0.00000 -1.48511e-14
  51 893.435 0.00000 4.06775e-14
  52 893.435 0.00000 -3.79994e-14
  53 893.435 0.00000 6.25604e-14
  54 893.435 0.00000 -1.18536e-13
  55 893.435 0.00000 1.25982e-14
  56 893.435 0.00000 -1.37657e-13
  57 893.435 0.00000 -8.94323e-14
  58 893.435 0.00000 -1.45596e-14
  59 893.435 0.00000 -2.12105e-14
  60 893.435 0.00000 8.21821e-14
  61 893.435 0.00000 1.38729e-15
  62 893.435 0.00000 -2.56462e-14
  63 893.435 0.00000 4.22142e-14
  64 893.435 0.00000 -3.32168e-13
  65 893.435 0.00000 -1.69852e-14
  66 893.435 0.00000 -9.30113e-14
</Section>

newXOutput 21

<Section columns = "stress_xx | stress_yy | stress_xy">
  1 940.195 0.00000 -1.77006e-14
  2 940.195 0.00000 -2.52152e-14
  3 940.195 0.00000 1.02635e-13
  4 940.195 0.00000 5.89579e-14
  5 940.195 0.00000 -1.07996e-13
  6 940.195 0.00000 -1.83110e-13
  7 940.195 0.00000 -5.01576e-14
  8 940.195 0.00000 2.53486e-13
  9 940.195 0.00000 7.85019e-14
  10 940.195 0.00000 -1.04130e-28
  11 940.195 0.00000 -2.35014e-13
  12 940.195 0.00000 -7.37584e-14
  13 940.195 0.00000 -6.19580e-14
  14 940.195 0.00000 1.09777e-13
  15 940.195 0.00000 6.19522e-14
  16 940.195 0.00000 2.80260e-14
  17 940.195 0.00000 1.47840e-13
  18 940.195 0.00000 -2.55463e-13
  19 940.195 0.00000 -3.30955e-14
  20 940.195 0.00000 -2.14434e-13
  21 940.195 0.00000 -1.33785e-13
  22 940.195 0.00000 2.61274e-13
  23 940.195 0.00000 1.77683e-13
  24 940.195 0.00000 3.21635e-13
  25 940.195 0.00000 2.07478e-13
  26 940.195 0.00000 1.42371e-14
  27 940.195 0.00000 -3.54012e-14
  28 940.195 0.00000 -4.12035e-14
  29 940.195 0.00000 -1.08551e-13
  30 940.195 0.00000 8.69375e-14
  31 940.195 0.00000 -1.28704e-13
  32 940.195 0.00000 -5.74452e-14
  33 940.195 0.00000 1.55839e-13
  34 940.195 0.00000 3.32387e-14
  35 940.195 0.00000 -1.60882e-13
  36 940.195 0.00000 6.03300e-14
  37 940.195 0.00000 6.55146e-14
  38 940.195 0.00000 -9.08663e-14
  39 940.195 0.00000 6.80183e-14
  40 940.195 0.00000 1.36682e-14
  41 940.195 0.00000 -1.73913e-13
  42 940.195 0.00000 1.77485e-14
  43 940.195 0.00000 8.34536e-14
  44 940.195 0.00000 -1.65166e-13
  45 940.195 0.00000 5.58249e-14
  46 940.195 0.00000 2.63470e-14
  47 940.195 0.00000 2.39256e-16
  48 940.195 0.00000 -1.38368e-14
  49 940.195 0.00000 1.10880e-13
  50 940.195 0.00000 -5.04544e-14
  51 940.195 0.00000 1.87422e-13
  52 940.195 0.00000 -8.93142e-14
  53 940.195 0.00000 2.50452e-13
  54 940.195 0.00000 -5.48232e-14
  55 940.195 0.00000 -9.12737e-14
  56 940.195 0.00000 3.22719e-14
  57 940.195 0.00000 1.65062e-13
  58 940.195 0.00000 9.72294e-14
  59 940.195 0.00000 -1.47447e-13
  60 940.195 0.00000 1.38771e-13
  61 940.195 0.00000 1.45834e-13
  62 940.195 0.00000 2.44779e-13
  63 940.195 0.00000 -1.50696e-13
  64 940.195 0.00000 -1.25008e-13
  65 940.195 0.00000 -2.43877e-13
  66 940.195 0.00000 -1.47596e-13
</Section>

newXOutput 22

<Section columns = "stress_xx | stress_yy | stress_xy">
  1 986.934 0.00000 -1.57645e-13
  2 986.934 0.00000 1.03091e-13
  3 986.934 0.00000 1.38223e-15
  4 986.934 0.00000 1.17754e-13
  5 986.934 0.00000 -2.45884e-13
  6 986.934 0.00000 -1.28630e-13
  7 986.934 0.00000 5.33938e-15
  8 986.934 0.00000 8.75231e-14
  9 986.934 0.00000 -4.08872e-14
  10 986.934 0.00000 -2.72008e-13
  11 986.934 0.00000 1.42057e-13
  12 986.934 0.00000 2.56686e-13
  13 986.934 0.00000 -6.79551e-14
  14 986.934 0.00000 3.50887e-14
  15 986.934 0.00000 -3.50887e-14
  16 986.934 0.00000 -1.11126e-13
  17 986.934 0.00000 6.44480e-14
  18 986.934 0.00000 -3.81323e-14
  19 986.934 0.00000 3.15755e-13
  20 986.934 0.00000 4.44329e-13
  21 986.934 0.00000 6.92736e-15
  22 986.934 0.00000 -1.31536e-13
  23 986.934 0.00000 -8.98389e-14
  24 986.934 0.00000 1.10953e-14
  25 986.934 0.00000 1.18430e-13
  26 986.934 0.00000 -5.34519e-14
  27 986.934 0.00000 -1.75444e-14
  28 986.934 0.00000 8.41253e-14
  29 986.934 0.00000 -4.20202e-16
  30 986.934 0.00000 -1.40182e-13
  31 986.934 0.00000 3.91712e-14
  32 986.934 0.00000 -7.50313e-14
  33 986.934 0.00000 -3.57869e-14
  34 986.934 0.00000 -2.86262e-13
  35 986.934 0.00000 3.50857e-13
  36 986.934 0.00000 -5.67665e-14
  37 986.934 0.00000 1.52648e-13
  38 986.934 0.00000 8.96523e-14
  39 986.934 0.00000 -7.78955e-14
  40 986.934 0.00000 7.80739e-14
  41 986.934 0.00000 9.96575e-14
  42 986.934 0.00000 -4.72762e-14
  43 986.934 0.00000 1.02203e-13
  44 986.934 0.00000 2.02917e-13
  45 986.934 0.00000 -2.13700e-13
  46 986.934 0.00000 2.79886e-14
  47 986.934 0.00000 1.78680e-14
  48 986.934 0.00000 4.98042e-15
  49 986.934 0.00000 -9.21254e-14
  50 986.934 0.00000 2.19354e-14
  51 986.934 0.00000 -7.16295e-14
  52 986.934 0.00000 4.67855e-14
  53 986.934 0.00000 -1.23708e-13
  54 986.934 0.00000 1.96690e-13
  55 986.934 0.00000 1.01292e-13
  56 986.934 0.00000 -1.39151e-13
  57 986.934 0.00000 3.88813e-14
  58 986.934 0.00000 -9.27918e-14
  59 986.934 0.00000 2.50952e-14
  60 986.934 0.00000 -1.35810e-13
  61 986.934 0.00000 1.95406e-13
  62 986.934 0.00000 -1.58310e-13
  63 986.934 0.00000 1.11825e-13
  64 986.934 0.00000 -1.33608e-13
  65 986.934 0.00000 1.10080e-13
  66 986.934 0.00000 9.94889e-14
</Section>

newXOutput 23

<Section columns = "stress_xx | stress_yy | stress_xy">
  1 1033.65 0.00000 1.94030e-14
  2 1033.65 0.00000 -8.56717e-14
  3 1033.65 0.00000 7.35219e-14
  4 1033.65 0.00000 -6.72682e-15
  5 1033.65 0.00000 8.90546e-15
  6 1033.65 0.00000 -7.23135e-14
  7 1033.65 0.00000 -7.00498e-14
  8 1033.65 0.00000 -1.93963e-13
  9 1033.65 0.00000 -7.15700e-14
  10 1033.65 0.00000 -5.40728e-14
  11 1033.65 0.00000 -2.22576e-15
  12 1033.65 0.00000 -8.52488e-14
  13 1033.65 0.00000 -2.86845e-13
  14 1033.65 0.00000 3.47761e-14
  15 1033.65 0.00000 -2.60324e-29
  16 1033.65 0.00000 -6.87065e-14
  17 1033.65 0.00000 3.61128e-14
  18 1033.65 0.00000 -8.53610e-14
  19 1033.65 0.00000 -8.39628e-14
  20 1033.65 0.00000 2.16046e-13
  21 1033.65 0.00000 1.12910e-13
  22 1033.65 0.00000 9.08340e-14
  23 1033.65 0.00000 1.95318e-13
  24 1033.65 0.00000 3.06233e-13
  25 1033.65 0.00000 7.35810e-14
  26 1033.65 0.00000 1.98632e-14
  27 1033.65 0.00000 0.00000
  28 1033.65 0.00000 -2.93284e-15
  29 1033.65 0.00000 -4.00634e-14
  30 1033.65 0.00000 -1.42382e-13
  31 1033.65 0.00000 3.71163e-14
  32 1033.65 0.00000 -9.26260e-14
  33 1033.65 0.00000 1.76496e-13
  34 1033.65 0.00000 6.96193e-14
  35 1033.65 0.00000 -1.49799e-13
  36 1033.65 0.00000 -2.56806e-14
  37 1033.65 0.00000 2.02873e-14
  38 1033.65 0.00000 -2.65655e-14
  39 1033.65 0.00000 3.98303e-14
  40 1033.65 0.00000 1.94889e-14
  41 1033.65 0.00000 9.80429e-15
  42 1033.65 0.00000 -1.93354e-13
  43 1033.65 0.00000 9.34714e-14
  44 1033.65 0.00000 -1.32072e-13
  45 1033.65 0.00000 1.32435e-13
  46 1033.65 0.00000 4.15173e-14
  47 1033.65 0.00000 -1.78190e-13
  48 1033.65 0.00000 1.57021e-14
  49 1033.65 0.00000 3.60630e-14
  50 1033.65 0.00000 -3.14566e-14
  51 1033.65 0.00000 -5.51597e-15
  52 1033.65 0.00000 -6.32317e-14
  53 1033.65 0.00000 -3.07920e-14
  54 1033.65 0.00000 -3.24630e-14
  55 1033.65 0.00000 -2.33446e-14
  56 1033.65 0.00000 -1.15190e-15
  57 1033.65 0.00000 5.59123e-14
  58 1033.65 0.00000 6.28029e-14
  59 1033.65 0.00000 -9.41134e-14
  60 1033.65 0.00000 -5.63680e-14
  61 1033.65 0.00000 1.27340e-13
  62 1033.65 0.00000 2.04675e-13
  63 1033.65 0.00000 -6.34814e-14
  64 1033.65 0.00000 -1.19220e-13
  65 1033.65 0.00000 -3.24657e-14
  66 1033.65 0.00000 5.91237e-14
</Section>

newXOutput 24

<Section columns = "stress_xx | stress_yy | stress_xy">
  1 1080.36 0.00000 4.72971e-14
  2 1080.36 0.00000 -5.32210e-15
  3 1080.36 0.00000 -1.06545e-13
  4 1080.36 0.00000 -6.03270e-14
  5 1080.36 0.00000 4.33790e-15
  6 1080.36 0.00000 -1.28607e-15
  7 1080.36 0.00000 -2.10816e-14
  8 1080.36 0.00000 -1.75687e-13
  9 1080.36 0.00000 -3.32693e-14
  10 1080.36 0.00000 -6.59058e-14
  11 1080.36 0.00000 -8.84596e-14
  12 1080.36 0.00000 5.18769e-14
  13 1080.36 0.00000 -1.77403e-15
  14 1080.36 0.00000 8.78745e-14
  15 1080.36 0.00000 -3.44633e-14
  16 1080.36 0.00000 -9.74063e-14
  17 1080.36 0.00000 -2.19923e-13
  18 1080.36 0.00000 1.66784e-14
  19 1080.36 0.00000 -1.35809e-13
  20 1080.36 0.00000 -4.52517e-13
  21 1080.36 0.00000 -3.91561e-14
  22 1080.36 0.00000 2.15290e-13
  23 1080.36 0.00000 9.09688e-14
  24 1080.36 0.00000 -1.68898e-14
  25 1080.36 0.00000 -8.03371e-14
  26 1080.36 0.00000 2.57276e-14
  27 1080.36 0.00000 8.61583e-15
  28 1080.36 0.00000 7.29978e-15
  29 1080.36 0.00000 5.10439e-14
  30 1080.36 0.00000 -3.58629e-14
  31 1080.36 0.00000 -7.66508e-14
  32 1080.36 0.00000 6.47769e-14
  33 1080.36 0.00000 6.91189e-15
  34 1080.36 0.00000 8.40529e-14
  35 1080.36 0.00000 -7.00342e-14
  36 1080.36 0.00000 1.57022e-13
  37 1080.36 0.00000 1.10261e-13
  38 1080.36 0.00000 -5.73277e-14
  39 1080.36 0.00000 3.41841e-14
  40 1080.36 0.00000 3.06982e-14
  41 1080.36 0.00000 -4.18960e-15
  42 1080.36 0.00000 2.03352e-14
  43 1080.36 0.00000 8.94355e-14
  44 1080.36 0.00000 -3.19416e-14
  45 1080.36 0.00000 4.64622e-14
  46 1080.36 0.00000 -2.77679e-14
  47 1080.36 0.00000 1.31331e-13
  48 1080.36 0.00000 1.71236e-14
  49 1080.36 0.00000 -3.32282e-14
  50 1080.36 0.00000 -2.29896e-16
  51 1080.36 0.00000 -1.04318e-13
  52 1080.36 0.00000 -6.12468e-14
  53 1080.36 0.00000 -2.43111e-14
  54 1080.36 0.00000 -1.37319e-13
  55 1080.36 0.00000 -3.44003e-15
  56 1080.36 0.00000 -1.00992e-13
  57 1080.36 0.00000 6.18119e-14
  58 1080.36 0.00000 4.37334e-15
  59 1080.36 0.00000 4.13515e-14
  60 1080.36 0.00000 -5.94713e-14
  61 1080.36 0.00000 1.79717e-13
  62 1080.36 0.00000 1.04823e-14
  63 1080.36 0.00000 -3.31030e-14
  64 1080.36 0.00000 6.45148e-14
  65 1080.36 0.00000 4.50641e-14
  66 1080.36 0.00000 -3.86405e-14
</Section>

newXOutput 25

<Section columns = "stress_xx | stress_yy | stress_xy">
  1 1127.04 0.00000 3.85569e-14
  2 1127.04 0.00000 -1.06417e-13
  3 1127.04 0.00000 -7.58140e-14
  4 1127.04 0.00000 -3.95116e-14
  5 1127.04 0.00000 8.44577e-15
  6 1127.04 0.00000 -1.65251e-15
  7 1127.04 0.00000 1.45048e-14
  8 1127.04 0.00000 -1.05756e-13
  9 1127.04 0.00000 1.58639e-14
  10 1127.04 0.00000 -6.54364e-14
  11 1127.04 0.00000 6.00387e-14
  12 1127.04 0.00000 5.38698e-14
  13 1127.04 0.00000 -1.92711e-13
  14 1127.04 0.00000 -1.47983e-14
  15 1127.04 0.00000 -2.56128e-14
  16 1127.04 0.00000 1.28064e-14
  17 1127.04 0.00000 -9.76857e-14
  18 1127.04 0.00000 -6.75403e-14
  19 1127.04 0.00000 6.26174e-14
  20 1127.04 0.00000 1.85623e-13
  21 1127.04 0.00000 5.95786e-14
  22 1127.04 0.00000 7.76198e-14
  23 1127.04 0.00000 -7.75825e-14
  24 1127.04 0.00000 -1.25912e-13
  25 1127.04 0.00000 -1.04714e-13
  26 1127.04 0.00000 4.31471e-15
  27 1127.04 0.00000 8.53760e-15
  28 1127.04 0.00000 5.55399e-15
  29 1127.04 0.00000 3.61539e-14
  30 1127.04 0.00000 -6.69967e-14
  31 1127.04 0.00000 5.64046e-14
  32 1127.04 0.00000 -2.49335e-13
  33 1127.04 0.00000 5.35724e-14
  34 1127.04 0.00000 6.66967e-14
  35 1127.04 0.00000 -4.39000e-14
  36 1127.04 0.00000 1.78398e-13
  37 1127.04 0.00000 1.33134e-13
  38 1127.04 0.00000 -3.51350e-14
  39 1127.04 0.00000 9.03110e-14
  40 1127.04 0.00000 1.75304e-13
  41 1127.04 0.00000 -1.44449e-13
  42 1127.04 0.00000 -1.76508e-13
  43 1127.04 0.00000 1.35214e-13
  44 1127.04 0.00000 -3.88291e-14
  45 1127.04 0.00000 3.62830e-14
  46 1127.04 0.00000 8.05101e-14
  47 1127.04 0.00000 -3.84569e-14
  48 1127.04 0.00000 3.04474e-14
  49 1127.04 0.00000 -4.57624e-16
  50 1127.04 0.00000 8.45151e-15
  51 1127.04 0.00000 -8.01420e-14
  52 1127.04 0.00000 5.43981e-14
  53 1127.04 0.00000 -1.36386e-13
  54 1127.04 0.00000 -3.65526e-15
  55 1127.04 0.00000 1.21632e-15
  56 1127.04 0.00000 1.30035e-13
  57 1127.04 0.00000 -6.29028e-14
  58 1127.04 0.00000 -6.82471e-15
  59 1127.04 0.00000 2.55851e-14
  60 1127.04 0.00000 5.08262e-15
  61 1127.04 0.00000 4.32171e-14
  62 1127.04 0.00000 -4.68761e-14
  63 1127.04 0.00000 -2.93309e-14
  64 1127.04 0.00000 1.53417e-13
  65 1127.04 0.00000 1.13528e-13
  66 1127.04 0.00000 -1.32672e-13
</Section>

newXOutput 26

<Section columns = "stress_xx | stress_yy | stress_xy">
  1 1173.71 0.00000 -1.69187e-14
  2 1173.71 0.00000 6.49668e-14
  3 1173.71 0.00000 7.79295e-14
  4 1173.71 0.00000 -1.17296e-14
  5 1173.71 0.00000 2.82756e-16
  6 1173.71 0.00000 5.79368e-14
  7 1173.71 0.00000 5.43076e-14
  8 1173.71 0.00000 5.63955e-15
  9 1173.71 0.00000 5.12175e-14
  10 1173.71 0.00000 -9.88041e-14
  11 1173.71 0.00000 4.93438e-14
  12 1173.71 0.00000 2.18128e-13
  13 1173.71 0.00000 2.50238e-13
  14 1173.71 0.00000 8.09052e-14
  15 1173.71 0.00000 -8.45933e-15
  16 1173.71 0.00000 -3.90427e-14
  17 1173.71 0.00000 -8.10775e-14
  18 1173.71 0.00000 -2.22213e-13
  19 1173.71 0.00000 -9.87727e-14
  20 1173.71 0.00000 -5.35639e-14
  21 1173.71 0.00000 -1.03915e-14
  22 1173.71 0.00000 1.41007e-13
  23 1173.71 0.00000 5.85884e-14
  24 1173.71 0.00000 -8.17945e-15
  25 1173.71 0.00000 -6.12596e-14
  26 1173.71 0.00000 5.39561e-15
  27 1173.71 0.00000 8.45933e-15
  28 1173.71 0.00000 -3.65910e-16
  29 1173.71 0.00000 -2.45621e-14
  30 1173.71 0.00000 -1.02456e-14
  31 1173.71 0.00000 -4.98544e-14
  32 1173.71 0.00000 5.96409e-14
  33 1173.71 0.00000 1.21762e-13
  34 1173.71 0.00000 4.40697e-14
  35 1173.71 0.00000 -2.47971e-14
  36 1173.71 0.00000 -2.41954e-13
  37 1173.71 0.00000 3.21018e-14
  38 1173.71 0.00000 -3.47258e-14
  39 1173.71 0.00000 5.36707e-14
  40 1173.71 0.00000 9.80309e-14
  41 1173.71 0.00000 -1.32875e-15
  42 1173.71 0.00000 -2.76711e-15
  43 1173.71 0.00000 8.26812e-14
  44 1173.71 0.00000 -2.86520e-14
  45 1173.71 0.00000 3.70446e-14
  46 1173.71 0.00000 4.93681e-14
  47 1173.71 0.00000 -1.76234e-13
  48 1173.71 0.00000 1.03498e-14
  49 1173.71 0.00000 3.25734e-14
  50 1173.71 0.00000 -1.51899e-14
  51 1173.71 0.00000 -9.48010e-14
  52 1173.71 0.00000 -1.71222e-14
  53 1173.71 0.00000 -7.86291e-15
  54 1173.71 0.00000 4.41431e-14
  55 1173.71 0.00000 4.44673e-15
  56 1173.71 0.00000 -1.18703e-13
  57 1173.71 0.00000 1.42770e-13
  58 1173.71 0.00000 -1.49109e-14
  59 1173.71 0.00000 -3.87389e-14
  60 1173.71 0.00000 -3.73281e-14
  61 1173.71 0.00000 1.67261e-13
  62 1173.71 0.00000 2.27425e-14
  63 1173.71 0.00000 1.48138e-14
  64 1173.71 0.00000 -2.19857e-13
  65 1173.71 0.00000 4.93425e-14
  66 1173.71 0.00000 6.57253e-14
</Section>

newXOutput 27

<Section columns = "stress_xx | stress_yy | stress_xy">
  1 1220.37 0.00000 2.15471e-14
  2 1220.37 0.00000 -1.72377e-13
  3 1220.37 0.00000 3.51659e-14
  4 1220.37 0.00000 -7.77954e-15
  5 1220.37 0.00000 -1.84533e-14
  6 1220.37 0.00000 2.99757e-15
  7 1220.37 0.00000 -5.98562e-14
  8 1220.37 0.00000 -6.30463e-14
  9 1220.37 0.00000 2.95358e-14
  10 1220.37 0.00000 2.46733e-13
  11 1220.37 0.00000 1.40723e-13
  12 1220.37 0.00000 2.54756e-13
  13 1220.37 0.00000 -5.10788e-14
  14 1220.37 0.00000 4.39832e-14
  15 1220.37 0.00000 -2.48491e-29
  16 1220.37 0.00000 1.24696e-13
  17 1220.37 0.00000 -3.35025e-14
  18 1220.37 0.00000 -1.64692e-13
  19 1220.37 0.00000 -1.48871e-13
  20 1220.37 0.00000 -3.06037e-13
  21 1220.37 0.00000 -6.24175e-14
  22 1220.37 0.00000 5.89049e-14
  23 1220.37 0.00000 -2.52792e-14
  24 1220.37 0.00000 -2.50517e-14
  25 1220.37 0.00000 -5.94789e-14
  26 1220.37 0.00000 -1.31661e-14
  27 1220.37 0.00000 -8.38101e-15
  28 1220.37 0.00000 2.21512e-14
  29 1220.37 0.00000 -3.05830e-14
  30 1220.37 0.00000 -2.17127e-15
  31 1220.37 0.00000 5.35660e-15
  32 1220.37 0.00000 8.02514e-15
  33 1220.37 0.00000 -1.14635e-13
  34 1220.37 0.00000 3.31329e-14
  35 1220.37 0.00000 7.78788e-15
  36 1220.37 0.00000 1.55672e-13
  37 1220.37 0.00000 6.69838e-14
  38 1220.37 0.00000 -4.77262e-15
  39 1220.37 0.00000 -3.08558e-14
  40 1220.37 0.00000 8.17335e-14
  41 1220.37 0.00000 6.52875e-14
  42 1220.37 0.00000 -5.47243e-14
  43 1220.37 0.00000 7.84007e-15
  44 1220.37 0.00000 1.13842e-14
  45 1220.37 0.00000 -2.96013e-14
  46 1220.37 0.00000 5.04422e-14
  47 1220.37 0.00000 3.44016e-14
  48 1220.37 0.00000 1.86121e-14
  49 1220.37 0.00000 7.97483e-14
  50 1220.37 0.00000 -1.34251e-14
  51 1220.37 0.00000 3.35662e-14
  52 1220.37 0.00000 -5.23600e-14
  53 1220.37 0.00000 6.61806e-14
  54 1220.37 0.00000 -1.90848e-13
  55 1220.37 0.00000 7.48441e-15
  56 1220.37 0.00000 1.11973e-13
  57 1220.37 0.00000 8.02324e-15
  58 1220.37 0.00000 -1.13180e-14
  59 1220.37 0.00000 -1.64865e-14
  60 1220.37 0.00000 -4.51566e-14
  61 1220.37 0.00000 5.62454e-14
  62 1220.37 0.00000 2.07238e-14
  63 1220.37 0.00000 2.96951e-14
  64 1220.37 0.00000 1.61068e-14
  65 1220.37 0.00000 1.63569e-13
  66 1220.37 0.00000 -1.19903e-13
</Section>

newXOutput 28

<Section columns = "stress_xx | stress_yy | stress_xy">
  1 1267.01 0.00000 -1.66053e-14
  2 1267.01 0.00000 3.61891e-13
  3 1267.01 0.00000 -1.30418e-13
  4 1267.01 0.00000 -2.05502e-14
  5 1267.01 0.00000 3.84012e-16
  6 1267.01 0.00000 5.12982e-14
  7 1267.01 0.00000 5.70714e-14
  8 1267.01 0.00000 1.43869e-14
  9 1267.01 0.00000 -5.38352e-14
  10 1267.01 0.00000 -2.05853e-13
  11 1267.01 0.00000 2.59568e-14
  12 1267.01 0.00000 7.24107e-14
  13 1267.01 0.00000 4.92948e-13
  14 1267.01 0.00000 -3.87457e-14
  15 1267.01 0.00000 -5.81186e-14
  16 1267.01 0.00000 -1.03358e-13
  17 1267.01 0.00000 5.85410e-14
  18 1267.01 0.00000 -3.70922e-13
  19 1267.01 0.00000 -2.09187e-13
  20 1267.01 0.00000 -2.58250e-16
  21 1267.01 0.00000 2.08548e-14
  22 1267.01 0.00000 1.44386e-13
  23 1267.01 0.00000 4.74500e-14
  24 1267.01 0.00000 -2.62095e-14
  25 1267.01 0.00000 -6.92754e-14
  26 1267.01 0.00000 -2.20749e-15
  27 1267.01 0.00000 0.00000
  28 1267.01 0.00000 -1.05101e-14
  29 1267.01 0.00000 -4.13090e-14
  30 1267.01 0.00000 1.33728e-13
  31 1267.01 0.00000 -4.22041e-14
  32 1267.01 0.00000 -5.43080e-14
  33 1267.01 0.00000 -3.12594e-14
  34 1267.01 0.00000 9.84618e-15
  35 1267.01 0.00000 -2.43875e-14
  36 1267.01 0.00000 1.98539e-13
  37 1267.01 0.00000 1.25076e-13
  38 1267.01 0.00000 -2.22574e-14
  39 1267.01 0.00000 1.02409e-13
  40 1267.01 0.00000 2.52990e-14
  41 1267.01 0.00000 -4.13539e-14
  42 1267.01 0.00000 5.02196e-14
  43 1267.01 0.00000 2.23220e-14
  44 1267.01 0.00000 -9.48087e-15
  45 1267.01 0.00000 1.38930e-14
  46 1267.01 0.00000 -3.23385e-15
  47 1267.01 0.00000 -2.30921e-14
  48 1267.01 0.00000 2.04368e-14
  49 1267.01 0.00000 9.81567e-15
  50 1267.01 0.00000 -2.91438e-14
  51 1267.01 0.00000 -4.19910e-14
  52 1267.01 0.00000 -3.32617e-16
  53 1267.01 0.00000 2.99195e-14
  54 1267.01 0.00000 -9.17775e-14
  55 1267.01 0.00000 -1.41069e-14
  56 1267.01 0.00000 3.15993e-14
  57 1267.01 0.00000 1.39198e-13
  58 1267.01 0.00000 -1.64556e-14
  59 1267.01 0.00000 -4.66756e-14
  60 1267.01 0.00000 1.84489e-13
  61 1267.01 0.00000 8.44727e-14
  62 1267.01 0.00000 -1.71994e-14
  63 1267.01 0.00000 4.22412e-14
  64 1267.01 0.00000 -2.82471e-14
  65 1267.01 0.00000 4.49794e-14
  66 1267.01 0.00000 -7.55210e-14
</Section>

newXOutput 29

<Section columns = "stress_xx | stress_yy | stress_xy">
  1 1313.63 0.00000 5.96765e-14
  2 1313.63 0.00000 1.85814e-13
  3 1313.63 0.00000 1.50713e-13
  4 1313.63 0.00000 3.02254e-14
  5 1313.63 0.00000 -8.06175e-15
  6 1313.63 0.00000 -8.81702e-14
  7 1313.63 0.00000 -4.00940e-14
  8 1313.63 0.00000 -6.17157e-14
  9 1313.63 0.00000 1.06707e-13
  10 1313.63 0.00000 -1.29350e-13
  11 1313.63 0.00000 -2.00179e-13
  12 1313.63 0.00000 -2.35722e-13
  13 1313.63 0.00000 3.03239e-13
  14 1313.63 0.00000 -9.02247e-14
  15 1313.63 0.00000 -2.46728e-14
  16 1313.63 0.00000 -6.85354e-15
  17 1313.63 0.00000 3.78532e-15
  18 1313.63 0.00000 -3.48865e-13
  19 1313.63 0.00000 -2.44065e-14
  20 1313.63 0.00000 8.85537e-14
  21 1313.63 0.00000 5.36706e-15
  22 1313.63 0.00000 3.55632e-14
  23 1313.63 0.00000 5.76272e-14
  24 1313.63 0.00000 2.86245e-14
  25 1313.63 0.00000 -4.98937e-16
  26 1313.63 0.00000 5.80018e-15
  27 1313.63 0.00000 -1.64485e-14
  28 1313.63 0.00000 -1.75561e-15
  29 1313.63 0.00000 -3.64348e-14
  30 1313.63 0.00000 1.94784e-13
  31 1313.63 0.00000 -2.75694e-14
  32 1313.63 0.00000 -8.97014e-15
  33 1313.63 0.00000 -8.04151e-14
  34 1313.63 0.00000 6.99301e-14
  35 1313.63 0.00000 -4.90033e-15
  36 1313.63 0.00000 -3.93551e-15
  37 1313.63 0.00000 9.61791e-14
  38 1313.63 0.00000 -1.48307e-14
  39 1313.63 0.00000 2.66900e-14
  40 1313.63 0.00000 1.79965e-13
  41 1313.63 0.00000 -5.71431e-15
  42 1313.63 0.00000 1.15818e-13
  43 1313.63 0.00000 1.71463e-14
  44 1313.63 0.00000 -1.06220e-14
  45 1313.63 0.00000 2.67804e-14
  46 1313.63 0.00000 2.33806e-14
  47 1313.63 0.00000 -2.88090e-14
  48 1313.63 0.00000 -2.00490e-14
  49 1313.63 0.00000 -2.14018e-14
  50 1313.63 0.00000 -2.60559e-14
  51 1313.63 0.00000 3.19534e-14
  52 1313.63 0.00000 -2.72156e-14
  53 1313.63 0.00000 6.21428e-14
  54 1313.63 0.00000 3.83776e-14
  55 1313.63 0.00000 2.91191e-14
  56 1313.63 0.00000 6.05971e-15
  57 1313.63 0.00000 2.76213e-14
  58 1313.63 0.00000 1.56986e-14
  59 1313.63 0.00000 -1.95490e-14
  60 1313.63 0.00000 1.59485e-13
  61 1313.63 0.00000 1.15920e-13
  62 1313.63 0.00000 3.96330e-14
  63 1313.63 0.00000 3.50154e-14
  64 1313.63 0.00000 -3.58573e-13
  65 1313.63 0.00000 6.61217e-14
  66 1313.63 0.00000 6.30598e-14
</Section>

newXOutput 30

<Section columns = "stress_xx | stress_yy | stress_xy">
  1 1360.25 0.00000 -1.62916e-14
  2 1360.25 0.00000 -1.42463e-13
  3 1360.25 0.00000 -3.23095e-14
  4 1360.25 0.00000 -1.40283e-14
  5 1360.25 0.00000 5.64869e-14
  6 1360.25 0.00000 2.22529e-13
  7 1360.25 0.00000 1.20887e-13
  8 1360.25 0.00000 -6.14473e-14
  9 1360.25 0.00000 -2.27304e-13
  10 1360.25 0.00000 -1.24309e-13
  11 1360.25 0.00000 -4.69035e-14
  12 1360.25 0.00000 4.78116e-13
  13 1360.25 0.00000 2.35722e-13
  14 1360.25 0.00000 -5.29182e-14
  15 1360.25 0.00000 1.62916e-14
  16 1360.25 0.00000 3.25832e-14
  17 1360.25 0.00000 1.47051e-13
  18 1360.25 0.00000 -1.06056e-13
  19 1360.25 0.00000 -3.18137e-13
  20 1360.25 0.00000 -5.68026e-13
  21 1360.25 0.00000 -1.75487e-13
  22 1360.25 0.00000 -4.45349e-14
  23 1360.25 0.00000 -5.85397e-14
  24 1360.25 0.00000 -1.62518e-13
  25 1360.25 0.00000 -8.12829e-14
  26 1360.25 0.00000 -1.98626e-14
  27 1360.25 0.00000 -2.44374e-14
  28 1360.25 0.00000 6.93708e-14
  29 1360.25 0.00000 9.01832e-15
  30 1360.25 0.00000 -2.34498e-14
  31 1360.25 0.00000 3.58585e-14
  32 1360.25 0.00000 1.58929e-13
  33 1360.25 0.00000 -5.13530e-14
  34 1360.25 0.00000 -1.20017e-13
  35 1360.25 0.00000 1.20583e-13
  36 1360.25 0.00000 -1.90927e-13
  37 1360.25 0.00000 1.85643e-14
  38 1360.25 0.00000 3.33012e-14
  39 1360.25 0.00000 -1.63933e-14
  40 1360.25 0.00000 -8.24414e-14
  41 1360.25 0.00000 8.75000e-14
  42 1360.25 0.00000 -6.17417e-14
  43 1360.25 0.00000 7.53253e-14
  44 1360.25 0.00000 1.64267e-13
  45 1360.25 0.00000 -1.41309e-13
  46 1360.25 0.00000 -7.15719e-14
  47 1360.25 0.00000 -9.38785e-14
  48 1360.25 0.00000 7.89102e-14
  49 1360.25 0.00000 7.58793e-14
  50 1360.25 0.00000 -2.21747e-14
  51 1360.25 0.00000 5.30138e-14
  52 1360.25 0.00000 -3.57367e-15
  53 1360.25 0.00000 1.12696e-13
  54 1360.25 0.00000 -1.91329e-13
  55 1360.25 0.00000 9.06269e-14
  56 1360.25 0.00000 4.16415e-15
  57 1360.25 0.00000 -7.49941e-14
  58 1360.25 0.00000 -4.68878e-14
  59 1360.25 0.00000 -8.40839e-14
  60 1360.25 0.00000 9.13403e-14
  61 1360.25 0.00000 8.23070e-14
  62 1360.25 0.00000 -7.86280e-14
  63 1360.25 0.00000 2.01730e-13
  64 1360.25 0.00000 -4.00491e-14
  65 1360.25 0.00000 -1.44302e-13
  66 1360.25 0.00000 -1.86938e-13
</Section>

newXOutput 31

<Section columns = "stress_xx | stress_yy | stress_xy">
  1 1406.85 0.00000 1.02864e-13
  2 1406.85 0.00000 -2.36074e-13
  3 1406.85 0.00000 3.41023e-13
  4 1406.85 0.00000 1.31089e-13
  5 1406.85 0.00000 -8.14764e-14
  6 1406.85 0.00000 -4.72887e-13
  7 1406.85 0.00000 -3.40189e-13
  8 1406.85 0.00000 1.26255e-13
  9 1406.85 0.00000 3.48487e-13
  10 1406.85 0.00000 -1.57499e-13
  11 1406.85 0.00000 4.54413e-13
  12 1406.85 0.00000 -4.46025e-14
  13 1406.85 0.00000 -3.85093e-13
  14 1406.85 0.00000 -1.15636e-16
  15 1406.85 0.00000 -3.22692e-14
  16 1406.85 0.00000 -1.15524e-13
  17 1406.85 0.00000 3.56248e-13
  18 1406.85 0.00000 1.24030e-13
  19 1406.85 0.00000 3.94080e-13
  20 1406.85 0.00000 3.58143e-13
  21 1406.85 0.00000 -2.68021e-13
  22 1406.85 0.00000 -4.72170e-13
  23 1406.85 0.00000 -3.19008e-13
  24 1406.85 0.00000 -3.01403e-13
  25 1406.85 0.00000 1.13197e-13
  26 1406.85 0.00000 1.34578e-14
  27 1406.85 0.00000 3.22692e-14
  28 1406.85 0.00000 -1.05686e-13
  29 1406.85 0.00000 1.41594e-13
  30 1406.85 0.00000 -4.68341e-13
  31 1406.85 0.00000 -6.86809e-14
  32 1406.85 0.00000 -4.03451e-13
  33 1406.85 0.00000 4.67770e-13
  34 1406.85 0.00000 2.09795e-13
  35 1406.85 0.00000 -3.18524e-13
  36 1406.85 0.00000 -1.39068e-13
  37 1406.85 0.00000 1.04591e-13
  38 1406.85 0.00000 -4.32753e-15
  39 1406.85 0.00000 -8.01054e-14
  40 1406.85 0.00000 2.34568e-13
  41 1406.85 0.00000 -2.78632e-13
  42 1406.85 0.00000 -5.87173e-14
  43 1406.85 0.00000 -9.27923e-15
  44 1406.85 0.00000 -3.19220e-13
  45 1406.85 0.00000 1.33927e-13
  46 1406.85 0.00000 1.43398e-13
  47 1406.85 0.00000 8.77295e-14
  48 1406.85 0.00000 -3.65407e-13
  49 1406.85 0.00000 -1.69383e-13
  50 1406.85 0.00000 -8.14549e-14
  51 1406.85 0.00000 -4.62145e-13
  52 1406.85 0.00000 1.70480e-13
  53 1406.85 0.00000 -6.95798e-13
  54 1406.85 0.00000 1.09003e-13
  55 1406.85 0.00000 -1.43220e-13
  56 1406.85 0.00000 1.48992e-14
  57 1406.85 0.00000 1.28130e-13
  58 1406.85 0.00000 3.70800e-14
  59 1406.85 0.00000 1.18016e-13
  60 1406.85 0.00000 -2.66297e-13
  61 1406.85 0.00000 2.58149e-13
  62 1406.85 0.00000 -1.04305e-13
  63 1406.85 0.00000 -2.37257e-13
  64 1406.85 0.00000 2.94067e-13
  65 1406.85 0.00000 3.31416e-13
  66 1406.85 0.00000 7.24315e-14
</Section>

newXOutput 32

<Section columns = "stress_xx | stress_yy | stress_xy">
  1 1453.45 0.00000 2.47258e-14
  2 1453.45 0.00000 -1.74965e-14
  3 1453.45 0.00000 2.03632e-13
  4 1453.45 0.00000 2.90687e-15
  5 1453.45 0.00000 2.07120e-13
  6 1453.45 0.00000 4.35588e-13
  7 1453.45 0.00000 2.70266e-13
  8 1453.45 0.00000 1.62279e-13
  9 1453.45 0.00000 1.38600e-16
  10 1453.45 0.00000 6.39101e-14
  11 1453.45 0.00000 1.90096e-13
  12 1453.45 0.00000 7.97225e-14
  13 1453.45 0.00000 -1.68919e-13
  14 1453.45 0.00000 -6.37450e-14
  15 1453.45 0.00000 0.00000
  16 1453.45 0.00000 -6.64079e-14
  17 1453.45 0.00000 7.11595e-13
  18 1453.45 0.00000 5.08627e-13
  19 1453.45 0.00000 -5.85242e-14
  20 1453.45 0.00000 1.63585e-13
  21 1453.45 0.00000 2.11430e-13
  22 1453.45 0.00000 8.58617e-14
  23 1453.45 0.00000 -1.28557e-13
  24 1453.45 0.00000 -1.58162e-13
  25 1453.45 0.00000 -5.14646e-14
  26 1453.45 0.00000 -3.07686e-15
  27 1453.45 0.00000 3.19550e-14
  28 1453.45 0.00000 5.15912e-14
  29 1453.45 0.00000 -8.85132e-15
  30 1453.45 0.00000 -8.23746e-14
  31 1453.45 0.00000 2.60531e-14
  32 1453.45 0.00000 -5.54177e-14
  33 1453.45 0.00000 -1.42490e-13
  34 1453.45 0.00000 -5.63163e-14
  35 1453.45 0.00000 -9.49317e-14
  36 1453.45 0.00000 -2.08385e-13
  37 1453.45 0.00000 1.69166e-13
  38 1453.45 0.00000 -4.02963e-14
  39 1453.45 0.00000 9.43599e-14
  40 1453.45 0.00000 3.16138e-14
  41 1453.45 0.00000 2.17879e-13
  42 1453.45 0.00000 -2.15956e-14
  43 1453.45 0.00000 -8.35898e-15
  44 1453.45 0.00000 9.61826e-14
  45 1453.45 0.00000 -6.78765e-14
  46 1453.45 0.00000 -4.62716e-14
  47 1453.45 0.00000 -3.83192e-14
  48 1453.45 0.00000 2.22207e-13
  49 1453.45 0.00000 -2.14190e-13
  50 1453.45 0.00000 -2.78148e-14
  51 1453.45 0.00000 8.41696e-14
  52 1453.45 0.00000 -4.33420e-14
  53 1453.45 0.00000 2.92977e-14
  54 1453.45 0.00000 -9.07257e-14
  55 1453.45 0.00000 2.63943e-14
  56 1453.45 0.00000 1.15298e-13
  57 1453.45 0.00000 -1.37635e-13
  58 1453.45 0.00000 -3.02882e-14
  59 1453.45 0.00000 -6.76642e-14
  60 1453.45 0.00000 -2.85574e-13
  61 1453.45 0.00000 1.27820e-14
  62 1453.45 0.00000 -8.38684e-14
  63 1453.45 0.00000 1.76884e-13
  64 1453.45 0.00000 3.99628e-13
  65 1453.45 0.00000 1.80532e-13
  66 1453.45 0.00000 5.01696e-14
</Section>

newXOutput 33

<Section columns = "stress_xx | stress_yy | stress_xy">
  1 1500.03 0.00000 2.76847e-14
  2 1500.03 0.00000 2.88913e-13
  3 1500.03 0.00000 -2.98653e-14
  4 1500.03 0.00000 1.31758e-14
  5 1500.03 0.00000 1.49630e-13
  6 1500.03 0.00000 2.86738e-13
  7 1500.03 0.00000 6.69452e-14
  8 1500.03 0.00000 -3.06882e-13
  9 1500.03 0.00000 -2.46687e-13
  10 1500.03 0.00000 -2.69613e-13
  11 1500.03 0.00000 -4.72221e-13
  12 1500.03 0.00000 -3.12286e-13
  13 1500.03 0.00000 6.26095e-13
  14 1500.03 0.00000 -7.74921e-14
  15 1500.03 0.00000 -3.16406e-14
  16 1500.03 0.00000 2.81095e-13
  17 1500.03 0.00000 -3.43546e-13
  18 1500.03 0.00000 -3.74792e-13
  19 1500.03 0.00000 6.52649e-13
  20 1500.03 0.00000 8.95606e-13
  21 1500.03 0.00000 -2.47577e-13
  22 1500.03 0.00000 -6.36796e-13
  23 1500.03 0.00000 -3.76699e-13
  24 1500.03 0.00000 -1.46000e-13
  25 1500.03 0.00000 1.33670e-14
  26 1500.03 0.00000 -3.69135e-14
  27 1500.03 0.00000 -1.58203e-14
  28 1500.03 0.00000 4.81197e-14
  29 1500.03 0.00000 8.45468e-14
  30 1500.03 0.00000 8.87705e-15
  31 1500.03 0.00000 2.99425e-13
  32 1500.03 0.00000 -1.64102e-13
  33 1500.03 0.00000 -7.40740e-13
  34 1500.03 0.00000 4.00468e-14
  35 1500.03 0.00000 -4.87455e-14
  36 1500.03 0.00000 4.44526e-13
  37 1500.03 0.00000 -2.08499e-13
  38 1500.03 0.00000 1.12677e-13
  39 1500.03 0.00000 -4.05688e-14
  40 1500.03 0.00000 2.38053e-13
  41 1500.03 0.00000 -2.93764e-13
  42 1500.03 0.00000 5.49999e-13
  43 1500.03 0.00000 -6.87679e-13
  44 1500.03 0.00000 8.69824e-14
  45 1500.03 0.00000 -5.40118e-16
  46 1500.03 0.00000 1.07409e-13
  47 1500.03 0.00000 2.93743e-13
  48 1500.03 0.00000 -2.69894e-13
  49 1500.03 0.00000 1.51143e-13
  50 1500.03 0.00000 8.89892e-15
  51 1500.03 0.00000 -1.50778e-13
  52 1500.03 0.00000 1.95390e-13
  53 1500.03 0.00000 -2.54210e-13
  54 1500.03 0.00000 4.00012e-13
  55 1500.03 0.00000 4.64711e-14
  56 1500.03 0.00000 2.23869e-13
  57 1500.03 0.00000 -1.20184e-13
  58 1500.03 0.00000 -3.55939e-15
  59 1500.03 0.00000 4.05178e-14
  60 1500.03 0.00000 7.01082e-15
  61 1500.03 0.00000 -2.93730e-13
  62 1500.03 0.00000 -3.33137e-14
  63 1500.03 0.00000 1.40699e-13
  64 1500.03 0.00000 -2.77748e-13
  65 1500.03 0.00000 1.08994e-13
  66 1500.03 0.00000 -1.63335e-13
</Section>

newXOutput 34

<Section columns = "stress_xx | stress_yy | stress_xy">
  1 1546.61 0.00000 -5.31141e-14
  2 1546.61 0.00000 -1.27316e-13
  3 1546.61 0.00000 -4.38682e-13
  4 1546.61 0.00000 1.71909e-14
  5 1546.61 0.00000 1.22503e-14
  6 1546.61 0.00000 3.54094e-14
  7 1546.61 0.00000 -6.35857e-15
  8 1546.61 0.00000 -1.15201e-13
  9 1546.61 0.00000 -2.08559e-15
  10 1546.61 0.00000 1.65011e-13
  11 1546.61 0.00000 8.78840e-14
  12 1546.61 0.00000 8.35432e-14
  13 1546.61 0.00000 1.19013e-14
  14 1546.61 0.00000 -9.53194e-14
  15 1546.61 0.00000 -4.69890e-14
  16 1546.61 0.00000 -4.24133e-14
  17 1546.61 0.00000 6.78849e-16
  18 1546.61 0.00000 2.11444e-13
  19 1546.61 0.00000 1.29153e-13
  20 1546.61 0.00000 5.29158e-14
  21 1546.61 0.00000 -7.99057e-14
  22 1546.61 0.00000 8.73550e-14
  23 1546.61 0.00000 8.77889e-14
  24 1546.61 0.00000 6.75451e-14
  25 1546.61 0.00000 1.21122e-14
  26 1546.61 0.00000 5.68786e-16
  27 1546.61 0.00000 0.00000
  28 1546.61 0.00000 -4.01109e-16
  29 1546.61 0.00000 4.79619e-14
  30 1546.61 0.00000 -1.05562e-13
  31 1546.61 0.00000 8.13391e-14
  32 1546.61 0.00000 -1.53571e-13
  33 1546.61 0.00000 -3.21093e-13
  34 1546.61 0.00000 8.52160e-14
  35 1546.61 0.00000 -6.83964e-14
  36 1546.61 0.00000 7.68710e-14
  37 1546.61 0.00000 1.41255e-13
  38 1546.61 0.00000 6.98680e-14
  39 1546.61 0.00000 2.78324e-14
  40 1546.61 0.00000 1.47942e-13
  41 1546.61 0.00000 -2.37639e-13
  42 1546.61 0.00000 -1.41607e-15
  43 1546.61 0.00000 3.27312e-14
  44 1546.61 0.00000 -1.68223e-15
  45 1546.61 0.00000 5.61235e-14
  46 1546.61 0.00000 2.05344e-13
  47 1546.61 0.00000 6.87567e-14
  48 1546.61 0.00000 -9.34026e-14
  49 1546.61 0.00000 4.88462e-14
  50 1546.61 0.00000 9.72095e-15
  51 1546.61 0.00000 9.57318e-14
  52 1546.61 0.00000 -4.99273e-15
  53 1546.61 0.00000 1.75483e-14
  54 1546.61 0.00000 -5.20710e-14
  55 1546.61 0.00000 -3.71996e-14
  56 1546.61 0.00000 -5.70309e-14
  57 1546.61 0.00000 -2.53631e-13
  58 1546.61 0.00000 2.09603e-14
  59 1546.61 0.00000 1.56991e-14
  60 1546.61 0.00000 1.06820e-13
  61 1546.61 0.00000 -2.47856e-13
  62 1546.61 0.00000 7.82567e-14
  63 1546.61 0.00000 -1.96093e-14
  64 1546.61 0.00000 -3.14209e-14
  65 1546.61 0.00000 5.19033e-14
  66 1546.61 0.00000 -1.69896e-13
</Section>

newXOutput 35

<Section columns = "stress_xx | stress_yy | stress_xy">
  1 1593.18 0.00000 2.81427e-14
  2 1593.18 0.00000 -1.38255e-13
  3 1593.18 0.00000 2.27098e-13
  4 1593.18 0.00000 3.55073e-14
  5 1593.18 0.00000 6.04979e-14
  6 1593.18 0.00000 3.22622e-14
  7 1593.18 0.00000 -8.60297e-14
  8 1593.18 0.00000 2.00949e-13
  9 1593.18 0.00000 1.02886e-14
  10 1593.18 0.00000 -4.52220e-14
  11 1593.18 0.00000 -1.41706e-13
  12 1593.18 0.00000 -2.47433e-13
  13 1593.18 0.00000 -1.19357e-13
  14 1593.18 0.00000 -3.52076e-14
  15 1593.18 0.00000 4.65167e-14
  16 1593.18 0.00000 -1.34592e-14
  17 1593.18 0.00000 3.00273e-13
  18 1593.18 0.00000 -3.03094e-13
  19 1593.18 0.00000 -8.35839e-14
  20 1593.18 0.00000 -8.05042e-14
  21 1593.18 0.00000 -1.43791e-13
  22 1593.18 0.00000 3.62940e-15
  23 1593.18 0.00000 2.83432e-13
  24 1593.18 0.00000 1.29137e-13
  25 1593.18 0.00000 3.97147e-14
  26 1593.18 0.00000 -1.52214e-14
  27 1593.18 0.00000 0.00000
  28 1593.18 0.00000 1.24432e-14
  29 1593.18 0.00000 -5.79740e-14
  30 1593.18 0.00000 5.91785e-14
  31 1593.18 0.00000 6.87614e-14
  32 1593.18 0.00000 -6.16704e-14
  33 1593.18 0.00000 5.59449e-13
  34 1593.18 0.00000 -8.02295e-14
  35 1593.18 0.00000 3.34824e-14
  36 1593.18 0.00000 -1.36574e-13
  37 1593.18 0.00000 -2.15628e-14
  38 1593.18 0.00000 -2.15883e-15
  39 1593.18 0.00000 4.08678e-14
  40 1593.18 0.00000 -1.33574e-13
  41 1593.18 0.00000 1.04010e-13
  42 1593.18 0.00000 -1.13995e-14
  43 1593.18 0.00000 3.16350e-13
  44 1593.18 0.00000 1.23281e-13
  45 1593.18 0.00000 -9.13035e-14
  46 1593.18 0.00000 -1.08943e-13
  47 1593.18 0.00000 -2.43021e-13
  48 1593.18 0.00000 8.96769e-14
  49 1593.18 0.00000 8.90740e-14
  50 1593.18 0.00000 -5.48124e-14
  51 1593.18 0.00000 4.79917e-13
  52 1593.18 0.00000 -6.56573e-14
  53 1593.18 0.00000 3.15176e-13
  54 1593.18 0.00000 -2.86319e-13
  55 1593.18 0.00000 3.22582e-14
  56 1593.18 0.00000 1.78905e-13
  57 1593.18 0.00000 1.31436e-13
  58 1593.18 0.00000 -9.91254e-15
  59 1593.18 0.00000 -9.09284e-14
  60 1593.18 0.00000 9.55066e-14
  61 1593.18 0.00000 1.40022e-13
  62 1593.18 0.00000 6.58536e-14
  63 1593.18 0.00000 9.71175e-14
  64 1593.18 0.00000 4.99804e-14
  65 1593.18 0.00000 -3.08745e-13
  66 1593.18 0.00000 -3.37416e-13
</Section>

newXOutput 36

<Section columns = "stress_xx | stress_yy | stress_xy">
  1 1639.75 0.00000 6.51255e-15
  2 1639.75 0.00000 -1.28841e-13
  3 1639.75 0.00000 2.54115e-13
  4 1639.75 0.00000 1.92134e-14
  5 1639.75 0.00000 -1.69128e-14
  6 1639.75 0.00000 -4.45117e-14
  7 1639.75 0.00000 -4.45117e-14
  8 1639.75 0.00000 5.36167e-14
  9 1639.75 0.00000 8.65971e-14
  10 1639.75 0.00000 2.58818e-13
  11 1639.75 0.00000 2.38119e-13
  12 1639.75 0.00000 8.62141e-14
  13 1639.75 0.00000 -3.89181e-13
  14 1639.75 0.00000 1.02320e-14
  15 1639.75 0.00000 -4.73317e-29
  16 1639.75 0.00000 -1.66270e-14
  17 1639.75 0.00000 2.48215e-13
  18 1639.75 0.00000 -1.02616e-13
  19 1639.75 0.00000 -6.31217e-14
  20 1639.75 0.00000 -2.11165e-13
  21 1639.75 0.00000 -1.33395e-13
  22 1639.75 0.00000 9.04286e-14
  23 1639.75 0.00000 1.73698e-13
  24 1639.75 0.00000 5.31799e-14
  25 1639.75 0.00000 2.62604e-15
  26 1639.75 0.00000 -3.01406e-14
  27 1639.75 0.00000 -3.06961e-14
  28 1639.75 0.00000 -3.33232e-15
  29 1639.75 0.00000 -4.76977e-14
  30 1639.75 0.00000 5.90359e-14
  31 1639.75 0.00000 -3.15074e-14
  32 1639.75 0.00000 1.57004e-13
  33 1639.75 0.00000 -1.37050e-13
  34 1639.75 0.00000 -1.27748e-13
  35 1639.75 0.00000 6.20324e-14
  36 1639.75 0.00000 1.08253e-13
  37 1639.75 0.00000 5.46606e-14
  38 1639.75 0.00000 -9.02769e-14
  39 1639.75 0.00000 2.79936e-14
  40 1639.75 0.00000 -9.04182e-14
  41 1639.75 0.00000 -2.69262e-14
  42 1639.75 0.00000 2.48606e-13
  43 1639.75 0.00000 -2.74451e-14
  44 1639.75 0.00000 -6.32249e-14
  45 1639.75 0.00000 -4.73557e-15
  46 1639.75 0.00000 -1.19963e-13
  47 1639.75 0.00000 1.34766e-13
  48 1639.75 0.00000 8.02437e-14
  49 1639.75 0.00000 -3.73219e-14
  50 1639.75 0.00000 -5.68733e-14
  51 1639.75 0.00000 4.71465e-14
  52 1639.75 0.00000 -1.28768e-13
  53 1639.75 0.00000 9.76490e-14
  54 1639.75 0.00000 -5.08991e-14
  55 1639.75 0.00000 2.38379e-14
  56 1639.75 0.00000 2.10804e-13
  57 1639.75 0.00000 -3.05450e-13
  58 1639.75 0.00000 -3.30655e-14
  59 1639.75 0.00000 -8.07040e-14
  60 1639.75 0.00000 7.32696e-14
  61 1639.75 0.00000 -2.75554e-13
  62 1639.75 0.00000 4.07848e-14
  63 1639.75 0.00000 7.82588e-16
  64 1639.75 0.00000 1.19367e-13
  65 1639.75 0.00000 1.60386e-13
  66 1639.75 0.00000 -8.69969e-14
</Section>

newXOutput 37

<Section columns = "stress_xx | stress_yy | stress_xy">
  1 1686.31 0.00000 -5.73917e-14
  2 1686.31 0.00000 2.19771e-13
  3 1686.31 0.00000 -2.13162e-13
  4 1686.31 0.00000 5.27752e-15
  5 1686.31 0.00000 -2.62891e-13
  6 1686.31 0.00000 -2.08847e-13
  7 1686.31 0.00000 1.35325e-13
  8 1686.31 0.00000 2.00414e-13
  9 1686.31 0.00000 1.86203e-13
  10 1686.31 0.00000 2.61176e-13
  11 1686.31 0.00000 -2.47089e-13
  12 1686.31 0.00000 1.87022e-13
  13 1686.31 0.00000 6.11944e-13
  14 1686.31 0.00000 1.29046e-14
  15 1686.31 0.00000 7.49724e-14
  16 1686.31 0.00000 -1.64562e-14
  17 1686.31 0.00000 -1.17206e-13
  18 1686.31 0.00000 -1.22524e-13
  19 1686.31 0.00000 -1.77844e-13
  20 1686.31 0.00000 -2.60107e-14
  21 1686.31 0.00000 5.46810e-14
  22 1686.31 0.00000 2.07111e-14
  23 1686.31 0.00000 7.97414e-14
  24 1686.31 0.00000 3.91727e-13
  25 1686.31 0.00000 2.15794e-13
  26 1686.31 0.00000 5.83931e-14
  27 1686.31 0.00000 1.51904e-14
  28 1686.31 0.00000 -1.36285e-14
  29 1686.31 0.00000 -7.40588e-14
  30 1686.31 0.00000 3.33129e-15
  31 1686.31 0.00000 -5.47381e-14
  32 1686.31 0.00000 1.41695e-13
  33 1686.31 0.00000 -9.25021e-14
  34 1686.31 0.00000 -1.23346e-13
  35 1686.31 0.00000 3.79759e-15
  36 1686.31 0.00000 2.45178e-13
  37 1686.31 0.00000 -1.40246e-13
  38 1686.31 0.00000 -9.19435e-14
  39 1686.31 0.00000 2.38785e-13
  40 1686.31 0.00000 -1.93854e-13
  41 1686.31 0.00000 1.54592e-13
  42 1686.31 0.00000 1.37708e-13
  43 1686.31 0.00000 -7.91214e-14
  44 1686.31 0.00000 -5.09430e-14
  45 1686.31 0.00000 6.49628e-14
  46 1686.31 0.00000 -1.22224e-13
  47 1686.31 0.00000 2.99501e-14
  48 1686.31 0.00000 1.83534e-13
  49 1686.31 0.00000 6.21555e-14
  50 1686.31 0.00000 3.39372e-14
  51 1686.31 0.00000 7.11774e-14
  52 1686.31 0.00000 3.56683e-14
  53 1686.31 0.00000 2.21404e-13
  54 1686.31 0.00000 -1.13537e-14
  55 1686.31 0.00000 -9.61084e-14
  56 1686.31 0.00000 -6.85422e-14
  57 1686.31 0.00000 3.70269e-14
  58 1686.31 0.00000 3.12639e-14
  59 1686.31 0.00000 -1.60225e-14
  60 1686.31 0.00000 1.15397e-13
  61 1686.31 0.00000 1.96189e-13
  62 1686.31 0.00000 1.09200e-13
  63 1686.31 0.00000 -2.39175e-13
  64 1686.31 0.00000 7.46979e-14
  65 1686.31 0.00000 -1.30295e-13
  66 1686.31 0.00000 5.86287e-14
</Section>

newXOutput 38

<Section columns = "stress_xx | stress_yy | stress_xy">
  1 1732.87 0.00000 -4.38693e-14
  2 1732.87 0.00000 1.50326e-14
  3 1732.87 0.00000 -1.95222e-13
  4 1732.87 0.00000 3.61348e-14
  5 1732.87 0.00000 -4.30503e-14
  6 1732.87 0.00000 1.01819e-13
  7 1732.87 0.00000 1.35667e-13
  8 1732.87 0.00000 1.36209e-13
  9 1732.87 0.00000 6.39696e-14
  10 1732.87 0.00000 -2.35608e-13
  11 1732.87 0.00000 -5.09789e-14
  12 1732.87 0.00000 2.89695e-14
  13 1732.87 0.00000 2.78849e-14
  14 1732.87 0.00000 -6.68762e-14
  15 1732.87 0.00000 1.50326e-14
  16 1732.87 0.00000 -1.11974e-13
  17 1732.87 0.00000 -3.54984e-13
  18 1732.87 0.00000 1.62681e-13
  19 1732.87 0.00000 -7.25746e-14
  20 1732.87 0.00000 -1.71936e-13
  21 1732.87 0.00000 2.61069e-14
  22 1732.87 0.00000 4.98782e-14
  23 1732.87 0.00000 -2.89237e-14
  24 1732.87 0.00000 1.29433e-13
  25 1732.87 0.00000 1.14906e-13
  26 1732.87 0.00000 -1.92245e-14
  27 1732.87 0.00000 0.00000
  28 1732.87 0.00000 -6.26358e-15
  29 1732.87 0.00000 -2.68371e-13
  30 1732.87 0.00000 8.42335e-14
  31 1732.87 0.00000 -6.05037e-14
  32 1732.87 0.00000 1.28530e-13
  33 1732.87 0.00000 -4.20784e-13
  34 1732.87 0.00000 -1.57108e-13
  35 1732.87 0.00000 3.53449e-14
  36 1732.87 0.00000 -3.18872e-14
  37 1732.87 0.00000 -1.11794e-13
  38 1732.87 0.00000 7.31605e-14
  39 1732.87 0.00000 -1.84367e-14
  40 1732.87 0.00000 7.68066e-14
  41 1732.87 0.00000 8.37636e-14
  42 1732.87 0.00000 1.68063e-13
  43 1732.87 0.00000 -2.17662e-13
  44 1732.87 0.00000 -2.12645e-14
  45 1732.87 0.00000 -7.20446e-14
  46 1732.87 0.00000 2.06332e-14
  47 1732.87 0.00000 1.35167e-13
  48 1732.87 0.00000 3.21467e-14
  49 1732.87 0.00000 -2.28534e-13
  50 1732.87 0.00000 -1.08229e-14
  51 1732.87 0.00000 -5.35358e-14
  52 1732.87 0.00000 -6.18175e-14
  53 1732.87 0.00000 -1.52915e-14
  54 1732.87 0.00000 -2.16519e-13
  55 1732.87 0.00000 -1.34185e-14
  56 1732.87 0.00000 -2.29819e-13
  57 1732.87 0.00000 -2.26725e-13
  58 1732.87 0.00000 -3.24471e-14
  59 1732.87 0.00000 -7.10441e-14
  60 1732.87 0.00000 -1.80302e-13
  61 1732.87 0.00000 -1.19466e-13
  62 1732.87 0.00000 -8.10063e-15
  63 1732.87 0.00000 2.33188e-14
  64 1732.87 0.00000 -9.74506e-14
  65 1732.87 0.00000 5.30043e-14
  66 1732.87 0.00000 -2.05544e-13
</Section>

newXOutput 39

<Section columns = "stress_xx | stress_yy | stress_xy">
  1 1779.43 0.00000 -1.41953e-14
  2 1779.43 0.00000 2.05590e-13
  3 1779.43 0.00000 3.28940e-13
  4 1779.43 0.00000 -4.74817e-14
  5 1779.43 0.00000 9.83003e-14
  6 1779.43 0.00000 1.76294e-13
  7 1779.43 0.00000 -1.12433e-13
  8 1779.43 0.00000 -9.93726e-15
  9 1779.43 0.00000 1.38916e-13
  10 1779.43 0.00000 8.78580e-14
  11 1779.43 0.00000 -3.00175e-13
  12 1779.43 0.00000 -4.58847e-13
  13 1779.43 0.00000 2.14559e-13
  14 1779.43 0.00000 -1.55925e-13
  15 1779.43 0.00000 1.48747e-14
  16 1779.43 0.00000 9.61132e-14
  17 1779.43 0.00000 2.17591e-13
  18 1779.43 0.00000 2.10643e-14
  19 1779.43 0.00000 1.38940e-13
  20 1779.43 0.00000 5.89973e-13
  21 1779.43 0.00000 2.88350e-13
  22 1779.43 0.00000 2.38814e-13
  23 1779.43 0.00000 2.89842e-13
  24 1779.43 0.00000 -1.78358e-13
  25 1779.43 0.00000 -1.03788e-13
  26 1779.43 0.00000 -1.94932e-14
  27 1779.43 0.00000 1.48747e-14
  28 1779.43 0.00000 -1.57745e-14
  29 1779.43 0.00000 -4.14451e-14
  30 1779.43 0.00000 1.55480e-13
  31 1779.43 0.00000 -1.46778e-13
  32 1779.43 0.00000 2.06273e-13
  33 1779.43 0.00000 -2.85844e-13
  34 1779.43 0.00000 -1.90465e-14
  35 1779.43 0.00000 -1.45806e-14
  36 1779.43 0.00000 9.53141e-14
  37 1779.43 0.00000 -3.50234e-13
  38 1779.43 0.00000 -7.13862e-14
  39 1779.43 0.00000 2.58369e-16
  40 1779.43 0.00000 -1.43211e-13
  41 1779.43 0.00000 2.94566e-13
  42 1779.43 0.00000 -1.80598e-13
  43 1779.43 0.00000 1.44146e-15
  44 1779.43 0.00000 2.00112e-14
  45 1779.43 0.00000 -5.66130e-14
  46 1779.43 0.00000 -4.46056e-14
  47 1779.43 0.00000 -1.43045e-13
  48 1779.43 0.00000 7.25275e-14
  49 1779.43 0.00000 -5.83389e-14
  50 1779.43 0.00000 3.67848e-15
  51 1779.43 0.00000 2.84121e-15
  52 1779.43 0.00000 -1.47656e-13
  53 1779.43 0.00000 1.81430e-13
  54 1779.43 0.00000 8.91536e-14
  55 1779.43 0.00000 1.69247e-14
  56 1779.43 0.00000 2.18754e-13
  57 1779.43 0.00000 -1.44830e-14
  58 1779.43 0.00000 -8.66867e-14
  59 1779.43 0.00000 5.49198e-14
  60 1779.43 0.00000 -2.99311e-14
  61 1779.43 0.00000 -1.71477e-13
  62 1779.43 0.00000 -2.36957e-13
  63 1779.43 0.00000 1.45808e-13
  64 1779.43 0.00000 4.89964e-14
  65 1779.43 0.00000 -1.33997e-14
  66 1779.43 0.00000 3.74956e-13
</Section>

newXOutput 40

<Section columns = "stress_xx | stress_yy | stress_xy">
  1 1825.98 0.00000 -7.77349e-14
  2 1825.98 0.00000 -2.80595e-13
  3 1825.98 0.00000 -5.15272e-13
  4 1825.98 0.00000 -1.30194e-13
  5 1825.98 0.00000 1.88986e-13
  6 1825.98 0.00000 4.56060e-14
  7 1825.98 0.00000 -1.32533e-14
  8 1825.98 0.00000 -3.91489e-13
  9 1825.98 0.00000 -3.66065e-13
  10 1825.98 0.00000 2.21234e-13
  11 1825.98 0.00000 1.54137e-13
  12 1825.98 0.00000 -6.90076e-14
  13 1825.98 0.00000 -2.26135e-13
  14 1825.98 0.00000 2.64540e-13
  15 1825.98 0.00000 -1.47166e-14
  16 1825.98 0.00000 2.50797e-14
  17 1825.98 0.00000 -5.00018e-13
  18 1825.98 0.00000 -3.92172e-13
  19 1825.98 0.00000 -5.33261e-14
  20 1825.98 0.00000 2.67796e-13
  21 1825.98 0.00000 5.81721e-13
  22 1825.98 0.00000 5.70991e-13
  23 1825.98 0.00000 2.36543e-14
  24 1825.98 0.00000 -2.62087e-13
  25 1825.98 0.00000 -4.08753e-13
  26 1825.98 0.00000 5.38318e-14
  27 1825.98 0.00000 -2.94333e-14
  28 1825.98 0.00000 -9.66025e-15
  29 1825.98 0.00000 3.04026e-13
  30 1825.98 0.00000 2.71741e-14
  31 1825.98 0.00000 3.90282e-14
  32 1825.98 0.00000 -6.02293e-14
  33 1825.98 0.00000 1.75532e-13
  34 1825.98 0.00000 1.73729e-13
  35 1825.98 0.00000 1.99746e-13
  36 1825.98 0.00000 2.89297e-14
  37 1825.98 0.00000 9.23214e-14
  38 1825.98 0.00000 -2.06790e-14
  39 1825.98 0.00000 1.58241e-13
  40 1825.98 0.00000 -3.46633e-14
  41 1825.98 0.00000 4.40920e-14
  42 1825.98 0.00000 6.54395e-14
  43 1825.98 0.00000 -1.26410e-15
  44 1825.98 0.00000 1.31470e-13
  45 1825.98 0.00000 1.03739e-13
  46 1825.98 0.00000 -1.50839e-13
  47 1825.98 0.00000 4.46977e-14
  48 1825.98 0.00000 3.34069e-13
  49 1825.98 0.00000 1.29448e-13
  50 1825.98 0.00000 1.33735e-13
  51 1825.98 0.00000 -1.70895e-13
  52 1825.98 0.00000 1.67402e-13
  53 1825.98 0.00000 -1.31087e-13
  54 1825.98 0.00000 1.63721e-13
  55 1825.98 0.00000 8.57221e-14
  56 1825.98 0.00000 -9.15476e-14
  57 1825.98 0.00000 2.58928e-13
  58 1825.98 0.00000 2.01153e-14
  59 1825.98 0.00000 2.15928e-13
  60 1825.98 0.00000 -1.03997e-13
  61 1825.98 0.00000 4.05524e-14
  62 1825.98 0.00000 -4.32247e-14
  63 1825.98 0.00000 5.86519e-14
  64 1825.98 0.00000 -1.32363e-13
  65 1825.98 0.00000 5.94648e-14
  66 1825.98 0.00000 2.72849e-13
</Section>

newXOutput 41

<Section columns = "stress_xx | stress_yy | stress_xy">
  1 1872.53 0.00000 -1.60293e-13
  2 1872.53 0.00000 -2.08587e-13
  3 1872.53 0.00000 5.89510e-14
  4 1872.53 0.00000 -3.27405e-14
  5 1872.53 0.00000 -1.88755e-13
  6 1872.53 0.00000 1.12276e-13
  7 1872.53 0.00000 1.92537e-13
  8 1872.53 0.00000 1.97392e-13
  9 1872.53 0.00000 9.66668e-14
  10 1872.53 0.00000 -4.68554e-13
  11 1872.53 0.00000 -2.33507e-13
  12 1872.53 0.00000 -3.03459e-13
  13 1872.53 0.00000 -5.50637e-13
  14 1872.53 0.00000 3.07065e-14
  15 1872.53 0.00000 -1.45585e-14
  16 1872.53 0.00000 -3.23832e-14
  17 1872.53 0.00000 -5.53796e-15
  18 1872.53 0.00000 -3.24961e-14
  19 1872.53 0.00000 -2.43634e-14
  20 1872.53 0.00000 -1.44981e-13
  21 1872.53 0.00000 -1.20529e-13
  22 1872.53 0.00000 -3.25366e-15
  23 1872.53 0.00000 -3.98408e-14
  24 1872.53 0.00000 7.53389e-14
  25 1872.53 0.00000 -1.04109e-13
  26 1872.53 0.00000 3.92449e-14
  27 1872.53 0.00000 -5.82339e-14
  28 1872.53 0.00000 3.64451e-14
  29 1872.53 0.00000 -9.56274e-14
  30 1872.53 0.00000 8.74796e-14
  31 1872.53 0.00000 -2.09956e-14
  32 1872.53 0.00000 3.77042e-14
  33 1872.53 0.00000 2.55235e-13
  34 1872.53 0.00000 9.39559e-14
  35 1872.53 0.00000 6.72324e-14
  36 1872.53 0.00000 2.79314e-13
  37 1872.53 0.00000 7.60661e-15
  38 1872.53 0.00000 -4.64055e-14
  39 1872.53 0.00000 5.80826e-16
  40 1872.53 0.00000 8.98381e-14
  41 1872.53 0.00000 3.47832e-14
  42 1872.53 0.00000 1.07676e-13
  43 1872.53 0.00000 1.16439e-13
  44 1872.53 0.00000 3.57180e-14
  45 1872.53 0.00000 -5.02261e-14
  46 1872.53 0.00000 1.19537e-13
  47 1872.53 0.00000 1.26373e-13
  48 1872.53 0.00000 4.06514e-14
  49 1872.53 0.00000 4.18229e-14
  50 1872.53 0.00000 7.57769e-14
  51 1872.53 0.00000 2.72228e-14
  52 1872.53 0.00000 -9.19579e-14
  53 1872.53 0.00000 8.09845e-14
  54 1872.53 0.00000 5.60973e-15
  55 1872.53 0.00000 3.21056e-14
  56 1872.53 0.00000 5.18711e-14
  57 1872.53 0.00000 -7.32146e-14
  58 1872.53 0.00000 4.25931e-14
  59 1872.53 0.00000 -9.51558e-14
  60 1872.53 0.00000 9.92200e-14
  61 1872.53 0.00000 -4.49371e-14
  62 1872.53 0.00000 -2.08467e-14
  63 1872.53 0.00000 1.00432e-13
  64 1872.53 0.00000 1.62759e-13
  65 1872.53 0.00000 -3.20162e-13
  66 1872.53 0.00000 -6.04851e-14
</Section>

newXOutput 42

<Section columns = "stress_xx | stress_yy | stress_xy">
  1 1919.09 0.00000 -1.31173e-13
  2 1919.09 0.00000 3.62957e-13
  3 1919.09 0.00000 1.40142e-13
  4 1919.09 0.00000 -9.99714e-14
  5 1919.09 0.00000 -2.03697e-13
  6 1919.09 0.00000 3.41076e-14
  7 1919.09 0.00000 2.42930e-13
  8 1919.09 0.00000 2.84253e-13
  9 1919.09 0.00000 1.27655e-13
  10 1919.09 0.00000 -4.72884e-13
  11 1919.09 0.00000 -6.30436e-14
  12 1919.09 0.00000 4.64836e-13
  13 1919.09 0.00000 2.16402e-13
  14 1919.09 0.00000 -1.27401e-13
  15 1919.09 0.00000 -1.44002e-14
  16 1919.09 0.00000 2.15698e-13
  17 1919.09 0.00000 9.04746e-14
  18 1919.09 0.00000 5.01459e-13
  19 1919.09 0.00000 -1.67911e-14
  20 1919.09 0.00000 -3.88789e-13
  21 1919.09 0.00000 1.16362e-14
  22 1919.09 0.00000 -6.29144e-14
  23 1919.09 0.00000 -1.16670e-13
  24 1919.09 0.00000 8.56679e-14
  25 1919.09 0.00000 -1.11536e-13
  26 1919.09 0.00000 4.41755e-14
  27 1919.09 0.00000 -1.44002e-14
  28 1919.09 0.00000 2.62301e-14
  29 1919.09 0.00000 7.51858e-14
  30 1919.09 0.00000 -2.32867e-13
  31 1919.09 0.00000 -6.27124e-14
  32 1919.09 0.00000 1.05386e-13
  33 1919.09 0.00000 -3.72709e-13
  34 1919.09 0.00000 1.63082e-13
  35 1919.09 0.00000 -8.48793e-16
  36 1919.09 0.00000 -2.29594e-13
  37 1919.09 0.00000 5.19885e-15
  38 1919.09 0.00000 1.33946e-13
  39 1919.09 0.00000 3.42867e-16
  40 1919.09 0.00000 6.56419e-14
  41 1919.09 0.00000 1.19159e-13
  42 1919.09 0.00000 -5.24229e-14
  43 1919.09 0.00000 -1.93529e-14
  44 1919.09 0.00000 8.81403e-14
  45 1919.09 0.00000 5.66330e-14
  46 1919.09 0.00000 2.25588e-13
  47 1919.09 0.00000 3.01148e-14
  48 1919.09 0.00000 -4.69386e-14
  49 1919.09 0.00000 -4.62398e-14
  50 1919.09 0.00000 7.33661e-14
  51 1919.09 0.00000 -1.20000e-13
  52 1919.09 0.00000 9.58354e-14
  53 1919.09 0.00000 -8.04545e-14
  54 1919.09 0.00000 -8.49726e-14
  55 1919.09 0.00000 9.99363e-15
  56 1919.09 0.00000 -1.31540e-13
  57 1919.09 0.00000 -1.51105e-13
  58 1919.09 0.00000 3.68097e-14
  59 1919.09 0.00000 -3.97182e-15
  60 1919.09 0.00000 -1.83327e-13
  61 1919.09 0.00000 1.87538e-14
  62 1919.09 0.00000 6.57816e-14
  63 1919.09 0.00000 -1.79611e-15
  64 1919.09 0.00000 -2.85817e-13
  65 1919.09 0.00000 -1.91102e-13
  66 1919.09 0.00000 1.05717e-13
</Section>

newXOutput 43

<Section columns = "stress_xx | stress_yy | stress_xy">
  1 1965.65 0.00000 -1.23286e-13
  2 1965.65 0.00000 -1.20111e-13
  3 1965.65 0.00000 -4.08005e-14
  4 1965.65 0.00000 -8.62414e-14
  5 1965.65 0.00000 -1.22249e-13
  6 1965.65 0.00000 4.83726e-14
  7 1965.65 0.00000 7.57587e-14
  8 1965.65 0.00000 -2.64036e-14
  9 1965.65 0.00000 1.06634e-13
  10 1965.65 0.00000 -7.71210e-13
  11 1965.65 0.00000 -1.00309e-13
  12 1965.65 0.00000 6.52038e-14
  13 1965.65 0.00000 -1.39080e-13
  14 1965.65 0.00000 -2.03420e-13
  15 1965.65 0.00000 -9.96302e-14
  16 1965.65 0.00000 5.27776e-14
  17 1965.65 0.00000 5.38696e-13
  18 1965.65 0.00000 5.89269e-13
  19 1965.65 0.00000 -1.41904e-13
  20 1965.65 0.00000 -6.12407e-13
  21 1965.65 0.00000 1.85258e-13
  22 1965.65 0.00000 1.14067e-13
  23 1965.65 0.00000 -5.79431e-14
  24 1965.65 0.00000 5.93015e-15
  25 1965.65 0.00000 -1.55233e-13
  26 1965.65 0.00000 4.18805e-14
  27 1965.65 0.00000 0.00000
  28 1965.65 0.00000 2.12846e-14
  29 1965.65 0.00000 2.97016e-14
  30 1965.65 0.00000 4.01059e-14
  31 1965.65 0.00000 -5.96465e-14
  32 1965.65 0.00000 3.26310e-13
  33 1965.65 0.00000 -2.17257e-13
  34 1965.65 0.00000 7.54092e-14
  35 1965.65 0.00000 9.52525e-14
  36 1965.65 0.00000 1.15284e-13
  37 1965.65 0.00000 3.05008e-13
  38 1965.65 0.00000 6.00773e-14
  39 1965.65 0.00000 1.98746e-14
  40 1965.65 0.00000 4.44984e-13
  41 1965.65 0.00000 1.82091e-13
  42 1965.65 0.00000 2.75121e-13
  43 1965.65 0.00000 -3.65439e-14
  44 1965.65 0.00000 1.30084e-13
  45 1965.65 0.00000 -2.14840e-15
  46 1965.65 0.00000 1.68730e-13
  47 1965.65 0.00000 8.85131e-14
  48 1965.65 0.00000 1.49261e-13
  49 1965.65 0.00000 3.25836e-14
  50 1965.65 0.00000 9.16279e-14
  51 1965.65 0.00000 -2.41296e-13
  52 1965.65 0.00000 7.17054e-14
  53 1965.65 0.00000 9.91029e-14
  54 1965.65 0.00000 -2.54869e-14
  55 1965.65 0.00000 3.16905e-14
  56 1965.65 0.00000 1.67864e-13
  57 1965.65 0.00000 -1.36137e-13
  58 1965.65 0.00000 -3.11694e-14
  59 1965.65 0.00000 5.54388e-14
  60 1965.65 0.00000 -2.38037e-14
  61 1965.65 0.00000 -2.39148e-13
  62 1965.65 0.00000 -5.24401e-14
  63 1965.65 0.00000 5.71525e-14
  64 1965.65 0.00000 4.18253e-13
  65 1965.65 0.00000 7.66795e-14
  66 1965.65 0.00000 9.39150e-14
</Section>

newXOutput 44

<Section columns = "stress_xx | stress_yy | stress_xy">
  1 2012.21 0.00000 -1.53339e-13
  2 2012.21 0.00000 3.98743e-13
  3 2012.21 0.00000 -1.73129e-13
  4 2012.21 0.00000 1.08055e-13
  5 2012.21 0.00000 -1.88113e-13
  6 2012.21 0.00000 -1.21692e-14
  7 2012.21 0.00000 1.18051e-13
  8 2012.21 0.00000 1.45170e-13
  9 2012.21 0.00000 2.48790e-13
  10 2012.21 0.00000 2.69915e-13
  11 2012.21 0.00000 3.51540e-13
  12 2012.21 0.00000 1.61166e-13
  13 2012.21 0.00000 6.47101e-13
  14 2012.21 0.00000 7.12792e-14
  15 2012.21 0.00000 -4.22493e-14
  16 2012.21 0.00000 7.48000e-14
  17 2012.21 0.00000 -8.14307e-13
  18 2012.21 0.00000 -5.90277e-13
  19 2012.21 0.00000 1.26561e-14
  20 2012.21 0.00000 2.51246e-13
  21 2012.21 0.00000 2.37516e-13
  22 2012.21 0.00000 -1.51618e-13
  23 2012.21 0.00000 -1.25156e-13
  24 2012.21 0.00000 8.92259e-14
  25 2012.21 0.00000 1.87174e-13
  26 2012.21 0.00000 -9.47510e-14
  27 2012.21 0.00000 -1.40831e-14
  28 2012.21 0.00000 4.22479e-14
  29 2012.21 0.00000 -9.44647e-14
  30 2012.21 0.00000 -2.21171e-13
  31 2012.21 0.00000 -1.15623e-13
  32 2012.21 0.00000 -5.39610e-14
  33 2012.21 0.00000 1.42548e-13
  34 2012.21 0.00000 -1.22573e-13
  35 2012.21 0.00000 5.33834e-14
  36 2012.21 0.00000 1.80259e-13
  37 2012.21 0.00000 9.11679e-14
  38 2012.21 0.00000 -5.03113e-14
  39 2012.21 0.00000 -9.53386e-14
  40 2012.21 0.00000 -1.00508e-14
  41 2012.21 0.00000 1.23695e-13
  42 2012.21 0.00000 -2.54591e-13
  43 2012.21 0.00000 2.50404e-13
  44 2012.21 0.00000 -1.76312e-14
  45 2012.21 0.00000 -4.52513e-14
  46 2012.21 0.00000 2.38236e-14
  47 2012.21 0.00000 -1.62582e-13
  48 2012.21 0.00000 3.36676e-14
  49 2012.21 0.00000 -1.50111e-14
  50 2012.21 0.00000 -3.21253e-14
  51 2012.21 0.00000 -2.48226e-14
  52 2012.21 0.00000 -5.73782e-14
  53 2012.21 0.00000 -7.76898e-14
  54 2012.21 0.00000 -1.21426e-14
  55 2012.21 0.00000 3.59018e-14
  56 2012.21 0.00000 5.77074e-15
  57 2012.21 0.00000 3.75795e-13
  58 2012.21 0.00000 -5.92918e-14
  59 2012.21 0.00000 -1.28334e-13
  60 2012.21 0.00000 -7.16924e-14
  61 2012.21 0.00000 6.13319e-13
  62 2012.21 0.00000 2.20845e-14
  63 2012.21 0.00000 3.66667e-14
  64 2012.21 0.00000 -3.61280e-13
  65 2012.21 0.00000 2.41383e-13
  66 2012.21 0.00000 1.25571e-13
</Section>

newXOutput 45

<Section columns = "stress_xx | stress_yy | stress_xy">
  1 2058.77 0.00000 -7.69713e-14
  2 2058.77 0.00000 -1.84313e-14
  3 2058.77 0.00000 -2.86265e-13
  4 2058.77 0.00000 1.51499e-13
  5 2058.77 0.00000 -2.36252e-13
  6 2058.77 0.00000 -1.95599e-13
  7 2058.77 0.00000 -1.77656e-13
  8 2058.77 0.00000 -2.52261e-14
  9 2058.77 0.00000 3.07610e-13
  10 2058.77 0.00000 1.21958e-13
  11 2058.77 0.00000 -9.31491e-14
  12 2058.77 0.00000 -3.36745e-13
  13 2058.77 0.00000 -8.73147e-14
  14 2058.77 0.00000 -9.32110e-14
  15 2058.77 0.00000 -8.41191e-14
  16 2058.77 0.00000 -4.05183e-14
  17 2058.77 0.00000 -2.95276e-13
  18 2058.77 0.00000 -2.16235e-13
  19 2058.77 0.00000 -1.62512e-13
  20 2058.77 0.00000 -5.78802e-13
  21 2058.77 0.00000 -1.77013e-13
  22 2058.77 0.00000 -1.14553e-13
  23 2058.77 0.00000 -2.56617e-14
  24 2058.77 0.00000 1.45432e-13
  25 2058.77 0.00000 1.87878e-13
  26 2058.77 0.00000 -1.70016e-14
  27 2058.77 0.00000 -1.39243e-14
  28 2058.77 0.00000 1.28040e-14
  29 2058.77 0.00000 8.67318e-14
  30 2058.77 0.00000 8.56326e-14
  31 2058.77 0.00000 -7.78732e-14
  32 2058.77 0.00000 8.78384e-14
  33 2058.77 0.00000 1.22146e-13
  34 2058.77 0.00000 -6.21881e-14
  35 2058.77 0.00000 7.28050e-14
  36 2058.77 0.00000 9.16191e-14
  37 2058.77 0.00000 -2.61081e-14
  38 2058.77 0.00000 -1.34505e-13
  39 2058.77 0.00000 -1.85641e-14
  40 2058.77 0.00000 2.13348e-14
  41 2058.77 0.00000 2.42423e-14
  42 2058.77 0.00000 -3.55924e-15
  43 2058.77 0.00000 2.93970e-13
  44 2058.77 0.00000 -3.05608e-14
  45 2058.77 0.00000 2.90455e-14
  46 2058.77 0.00000 2.66843e-14
  47 2058.77 0.00000 -8.06787e-14
  48 2058.77 0.00000 -7.10086e-14
  49 2058.77 0.00000 1.02372e-14
  50 2058.77 0.00000 -1.69382e-14
  51 2058.77 0.00000 -3.43232e-14
  52 2058.77 0.00000 4.90522e-15
  53 2058.77 0.00000 2.15335e-13
  54 2058.77 0.00000 -2.86185e-13
  55 2058.77 0.00000 -1.82548e-14
  56 2058.77 0.00000 1.08787e-14
  57 2058.77 0.00000 9.54649e-15
  58 2058.77 0.00000 5.51922e-15
  59 2058.77 0.00000 3.24924e-14
  60 2058.77 0.00000 -4.09174e-14
  61 2058.77 0.00000 2.18272e-13
  62 2058.77 0.00000 8.62202e-14
  63 2058.77 0.00000 -7.91986e-14
  64 2058.77 0.00000 -5.31677e-14
  65 2058.77 0.00000 1.26135e-13
  66 2058.77 0.00000 -2.45963e-13
</Section>

newXOutput 46

<Section columns = "stress_xx | stress_yy | stress_xy">
  1 2105.34 0.00000 1.08039e-13
  2 2105.34 0.00000 -2.20266e-14
  3 2105.34 0.00000 -5.21893e-14
  4 2105.34 0.00000 3.62617e-14
  5 2105.34 0.00000 1.63149e-13
  6 2105.34 0.00000 -1.83539e-14
  7 2105.34 0.00000 -4.26603e-14
  8 2105.34 0.00000 -1.20490e-13
  9 2105.34 0.00000 7.36253e-14
  10 2105.34 0.00000 2.05511e-13
  11 2105.34 0.00000 3.85430e-14
  12 2105.34 0.00000 -1.79817e-13
  13 2105.34 0.00000 -2.44651e-13
  14 2105.34 0.00000 1.83477e-15
  15 2105.34 0.00000 1.37654e-14
  16 2105.34 0.00000 7.44690e-14
  17 2105.34 0.00000 4.66567e-13
  18 2105.34 0.00000 1.01009e-13
  19 2105.34 0.00000 -7.17057e-15
  20 2105.34 0.00000 -1.86212e-14
  21 2105.34 0.00000 -4.51002e-15
  22 2105.34 0.00000 -1.28163e-13
  23 2105.34 0.00000 -1.19961e-13
  24 2105.34 0.00000 -6.31347e-14
  25 2105.34 0.00000 8.82804e-14
  26 2105.34 0.00000 -4.90835e-14
  27 2105.34 0.00000 -5.50618e-14
  28 2105.34 0.00000 -1.60597e-14
  29 2105.34 0.00000 9.51355e-14
  30 2105.34 0.00000 8.00702e-14
  31 2105.34 0.00000 7.94670e-14
  32 2105.34 0.00000 -3.31055e-14
  33 2105.34 0.00000 -2.49173e-13
  34 2105.34 0.00000 2.08153e-14
  35 2105.34 0.00000 -1.36243e-13
  36 2105.34 0.00000 -2.00813e-14
  37 2105.34 0.00000 -1.54060e-14
  38 2105.34 0.00000 5.91721e-14
  39 2105.34 0.00000 1.78052e-14
  40 2105.34 0.00000 -9.02509e-14
  41 2105.34 0.00000 -7.58853e-15
  42 2105.34 0.00000 -1.77826e-13
  43 2105.34 0.00000 -6.89092e-15
  44 2105.34 0.00000 -3.20220e-14
  45 2105.34 0.00000 2.91027e-14
  46 2105.34 0.00000 -1.50843e-14
  47 2105.34 0.00000 -1.08177e-13
  48 2105.34 0.00000 -7.28649e-14
  49 2105.34 0.00000 4.58711e-14
  50 2105.34 0.00000 -6.99006e-14
  51 2105.34 0.00000 1.40654e-13
  52 2105.34 0.00000 1.38024e-13
  53 2105.34 0.00000 2.81629e-13
  54 2105.34 0.00000 -2.54697e-13
  55 2105.34 0.00000 -1.68024e-15
  56 2105.34 0.00000 1.75956e-13
  57 2105.34 0.00000 -7.49293e-14
  58 2105.34 0.00000 3.28747e-14
  59 2105.34 0.00000 -2.71023e-14
  60 2105.34 0.00000 -1.65707e-13
  61 2105.34 0.00000 -2.83668e-13
  62 2105.34 0.00000 7.63401e-14
  63 2105.34 0.00000 -2.43609e-14
  64 2105.34 0.00000 2.39632e-13
  65 2105.34 0.00000 -2.89890e-14
  66 2105.34 0.00000 -1.35928e-13
</Section>

newXOutput 47

<Section columns = "stress_xx | stress_yy | stress_xy">
  1 2151.92 0.00000 -3.58949e-14
  2 2151.92 0.00000 -1.65694e-13
  3 2151.92 0.00000 -1.49769e-14
  4 2151.92 0.00000 1.43297e-14
  5 2151.92 0.00000 -1.82513e-13
  6 2151.92 0.00000 -1.59245e-13
  7 2151.92 0.00000 8.67932e-14
  8 2151.92 0.00000 3.24538e-13
  9 2151.92 0.00000 4.40632e-13
  10 2151.92 0.00000 7.94095e-13
  11 2151.92 0.00000 3.14201e-13
  12 2151.92 0.00000 3.56617e-13
  13 2151.92 0.00000 -5.10269e-14
  14 2151.92 0.00000 -6.61670e-16
  15 2151.92 0.00000 1.36064e-14
  16 2151.92 0.00000 9.91243e-14
  17 2151.92 0.00000 1.42431e-13
  18 2151.92 0.00000 1.32099e-13
  19 2151.92 0.00000 -7.37082e-14
  20 2151.92 0.00000 -7.47235e-13
  21 2151.92 0.00000 -3.47220e-13
  22 2151.92 0.00000 -1.06816e-13
  23 2151.92 0.00000 -1.21598e-13
  24 2151.92 0.00000 -1.75742e-13
  25 2151.92 0.00000 -5.92429e-14
  26 2151.92 0.00000 2.26773e-14
  27 2151.92 0.00000 0.00000
  28 2151.92 0.00000 -2.18998e-14
  29 2151.92 0.00000 1.20672e-13
  30 2151.92 0.00000 -2.70638e-13
  31 2151.92 0.00000 4.46770e-14
  32 2151.92 0.00000 -1.10333e-14
  33 2151.92 0.00000 2.01416e-14
  34 2151.92 0.00000 3.97889e-14
  35 2151.92 0.00000 1.31701e-13
  36 2151.92 0.00000 -6.19414e-14
  37 2151.92 0.00000 2.59784e-13
  38 2151.92 0.00000 2.33889e-13
  39 2151.92 0.00000 -3.87276e-14
  40 2151.92 0.00000 1.49096e-13
  41 2151.92 0.00000 5.28200e-14
  42 2151.92 0.00000 -2.85489e-14
  43 2151.92 0.00000 2.73983e-13
  44 2151.92 0.00000 3.68326e-14
  45 2151.92 0.00000 5.15917e-14
  46 2151.92 0.00000 2.67645e-13
  47 2151.92 0.00000 -2.10902e-14
  48 2151.92 0.00000 -9.19871e-14
  49 2151.92 0.00000 -5.99384e-14
  50 2151.92 0.00000 -2.37044e-15
  51 2151.92 0.00000 3.81264e-14
  52 2151.92 0.00000 8.24817e-14
  53 2151.92 0.00000 -1.37157e-13
  54 2151.92 0.00000 -1.55193e-13
  55 2151.92 0.00000 -2.79112e-14
  56 2151.92 0.00000 6.38456e-14
  57 2151.92 0.00000 -1.50598e-14
  58 2151.92 0.00000 -2.04821e-15
  59 2151.92 0.00000 1.39175e-13
  60 2151.92 0.00000 -1.60734e-13
  61 2151.92 0.00000 3.79281e-13
  62 2151.92 0.00000 -4.25929e-14
  63 2151.92 0.00000 -1.26822e-14
  64 2151.92 0.00000 5.74896e-14
  65 2151.92 0.00000 3.49785e-13
  66 2151.92 0.00000 -1.74911e-13
</Section>

newXOutput 48

<Section columns = "stress_xx | stress_yy | stress_xy">
  1 2198.50 0.00000 1.10878e-13
  2 2198.50 0.00000 -1.65965e-13
  3 2198.50 0.00000 3.87464e-13
  4 2198.50 0.00000 -1.05421e-13
  5 2198.50 0.00000 2.86557e-13
  6 2198.50 0.00000 3.68773e-13
  7 2198.50 0.00000 2.58480e-13
  8 2198.50 0.00000 2.26343e-13
  9 2198.50 0.00000 7.74974e-14
  10 2198.50 0.00000 -5.51683e-13
  11 2198.50 0.00000 -1.86908e-13
  12 2198.50 0.00000 -2.66099e-13
  13 2198.50 0.00000 -1.79669e-13
  14 2198.50 0.00000 -1.82865e-13
  15 2198.50 0.00000 -2.68943e-14
  16 2198.50 0.00000 7.72188e-14
  17 2198.50 0.00000 2.52236e-13
  18 2198.50 0.00000 3.06664e-13
  19 2198.50 0.00000 4.31248e-14
  20 2198.50 0.00000 4.24169e-14
  21 2198.50 0.00000 -4.10421e-13
  22 2198.50 0.00000 -3.12997e-13
  23 2198.50 0.00000 -2.17259e-13
  24 2198.50 0.00000 -3.06824e-14
  25 2198.50 0.00000 -1.12641e-13
  26 2198.50 0.00000 2.10659e-14
  27 2198.50 0.00000 -2.68943e-14
  28 2198.50 0.00000 -8.16308e-15
  29 2198.50 0.00000 -4.37468e-13
  30 2198.50 0.00000 -2.11905e-13
  31 2198.50 0.00000 -2.78202e-13
  32 2198.50 0.00000 -1.19568e-13
  33 2198.50 0.00000 1.47673e-13
  34 2198.50 0.00000 1.72019e-13
  35 2198.50 0.00000 -4.09126e-13
  36 2198.50 0.00000 -1.48673e-13
  37 2198.50 0.00000 -1.63692e-14
  38 2198.50 0.00000 -1.50463e-13
  39 2198.50 0.00000 -2.18565e-13
  40 2198.50 0.00000 1.64661e-13
  41 2198.50 0.00000 -4.85092e-13
  42 2198.50 0.00000 -1.14237e-13
  43 2198.50 0.00000 -2.05104e-13
  44 2198.50 0.00000 -4.65564e-14
  45 2198.50 0.00000 -1.88274e-13
  46 2198.50 0.00000 4.88103e-14
  47 2198.50 0.00000 1.61343e-14
  48 2198.50 0.00000 -4.21998e-13
  49 2198.50 0.00000 -8.61512e-14
  50 2198.50 0.00000 -3.83908e-14
  51 2198.50 0.00000 -1.19392e-15
  52 2198.50 0.00000 -2.65670e-13
  53 2198.50 0.00000 -1.03497e-15
  54 2198.50 0.00000 -4.29179e-13
  55 2198.50 0.00000 -2.21865e-14
  56 2198.50 0.00000 1.49840e-13
  57 2198.50 0.00000 -1.36191e-13
  58 2198.50 0.00000 1.78367e-15
  59 2198.50 0.00000 -2.38463e-13
  60 2198.50 0.00000 -3.18174e-14
  61 2198.50 0.00000 -2.78219e-13
  62 2198.50 0.00000 -2.35129e-14
  63 2198.50 0.00000 6.84016e-14
  64 2198.50 0.00000 3.46375e-13
  65 2198.50 0.00000 7.21380e-14
  66 2198.50 0.00000 -6.79903e-13
</Section>

newXOutput 49

<Section columns = "stress_xx | stress_yy | stress_xy">
  1 2245.09 0.00000 9.08409e-15
  2 2245.09 0.00000 -2.76377e-13
  3 2245.09 0.00000 -1.03033e-12
  4 2245.09 0.00000 -6.24719e-14
  5 2245.09 0.00000 1.09678e-13
  6 2245.09 0.00000 2.86766e-13
  7 2245.09 0.00000 2.14667e-13
  8 2245.09 0.00000 1.87640e-13
  9 2245.09 0.00000 6.24067e-14
  10 2245.09 0.00000 4.33859e-13
  11 2245.09 0.00000 -2.58006e-13
  12 2245.09 0.00000 -3.19591e-13
  13 2245.09 0.00000 -4.35325e-13
  14 2245.09 0.00000 6.49347e-14
  15 2245.09 0.00000 5.31511e-14
  16 2245.09 0.00000 8.26517e-14
  17 2245.09 0.00000 -8.92376e-13
  18 2245.09 0.00000 -3.68120e-13
  19 2245.09 0.00000 -3.04453e-14
  20 2245.09 0.00000 -4.43757e-14
  21 2245.09 0.00000 -6.67866e-14
  22 2245.09 0.00000 1.12171e-13
  23 2245.09 0.00000 1.91225e-13
  24 2245.09 0.00000 8.62980e-14
  25 2245.09 0.00000 -1.99495e-13
  26 2245.09 0.00000 8.34314e-14
  27 2245.09 0.00000 -2.65755e-14
  28 2245.09 0.00000 -5.07998e-14
  29 2245.09 0.00000 -1.24246e-13
  30 2245.09 0.00000 7.00282e-13
  31 2245.09 0.00000 4.28873e-14
  32 2245.09 0.00000 8.24443e-14
  33 2245.09 0.00000 3.16116e-14
  34 2245.09 0.00000 6.36513e-14
  35 2245.09 0.00000 -1.84058e-14
  36 2245.09 0.00000 -2.25712e-13
  37 2245.09 0.00000 -1.31882e-13
  38 2245.09 0.00000 1.31882e-13
  39 2245.09 0.00000 1.58108e-13
  40 2245.09 0.00000 -2.14449e-13
  41 2245.09 0.00000 1.41731e-13
  42 2245.09 0.00000 2.41112e-13
  43 2245.09 0.00000 2.21790e-13
  44 2245.09 0.00000 1.85030e-13
  45 2245.09 0.00000 -8.68446e-14
  46 2245.09 0.00000 9.51334e-14
  47 2245.09 0.00000 -1.94012e-13
  48 2245.09 0.00000 1.80637e-13
  49 2245.09 0.00000 3.96050e-13
  50 2245.09 0.00000 3.67355e-15
  51 2245.09 0.00000 1.01609e-13
  52 2245.09 0.00000 -4.00406e-14
  53 2245.09 0.00000 4.07517e-13
  54 2245.09 0.00000 6.03686e-14
  55 2245.09 0.00000 -4.55909e-14
  56 2245.09 0.00000 -5.84292e-13
  57 2245.09 0.00000 -2.36583e-13
  58 2245.09 0.00000 7.07593e-14
  59 2245.09 0.00000 -9.76845e-14
  60 2245.09 0.00000 6.86959e-13
  61 2245.09 0.00000 -6.17505e-13
  62 2245.09 0.00000 1.26895e-13
  63 2245.09 0.00000 1.20198e-14
  64 2245.09 0.00000 -8.72954e-13
  65 2245.09 0.00000 -2.05873e-13
  66 2245.09 0.00000 -1.11344e-14
</Section>

newXOutput 50

<Section columns = "stress_xx | stress_yy | stress_xy">
  1 2291.70 0.00000 9.51004e-14
  2 2291.70 0.00000 1.49824e-13
  3 2291.70 0.00000 6.01659e-15
  4 2291.70 0.00000 -1.06612e-13
  5 2291.70 0.00000 -1.50892e-13
  6 2291.70 0.00000 -4.59507e-13
  7 2291.70 0.00000 -1.81845e-13
  8 2291.70 0.00000 -2.12136e-13
  9 2291.70 0.00000 -2.07773e-13
  10 2291.70 0.00000 -7.46743e-13
  11 2291.70 0.00000 -4.01155e-13
  12 2291.70 0.00000 -5.37158e-13
  13 2291.70 0.00000 -1.87344e-13
  14 2291.70 0.00000 9.32858e-14
  15 2291.70 0.00000 1.31282e-14
  16 2291.70 0.00000 5.61444e-14
  17 2291.70 0.00000 -1.63943e-13
  18 2291.70 0.00000 -8.89820e-13
  19 2291.70 0.00000 -7.20891e-13
  20 2291.70 0.00000 -1.90642e-13
  21 2291.70 0.00000 3.21038e-13
  22 2291.70 0.00000 3.84728e-13
  23 2291.70 0.00000 -1.69547e-13
  24 2291.70 0.00000 -3.69557e-13
  25 2291.70 0.00000 -1.77573e-13
  26 2291.70 0.00000 8.00038e-15
  27 2291.70 0.00000 2.62564e-14
  28 2291.70 0.00000 6.08963e-14
  29 2291.70 0.00000 4.88648e-13
  30 2291.70 0.00000 1.87864e-14
  31 2291.70 0.00000 -1.75439e-13
  32 2291.70 0.00000 1.02836e-13
  33 2291.70 0.00000 5.47681e-15
  34 2291.70 0.00000 2.40428e-13
  35 2291.70 0.00000 8.55875e-14
  36 2291.70 0.00000 3.05772e-13
  37 2291.70 0.00000 -1.70483e-13
  38 2291.70 0.00000 -1.29048e-13
  39 2291.70 0.00000 9.81996e-14
  40 2291.70 0.00000 -1.56343e-14
  41 2291.70 0.00000 -1.86878e-13
  42 2291.70 0.00000 1.62557e-13
  43 2291.70 0.00000 -1.13501e-13
  44 2291.70 0.00000 -1.38792e-13
  45 2291.70 0.00000 2.76366e-13
  46 2291.70 0.00000 1.05409e-13
  47 2291.70 0.00000 -2.35809e-13
  48 2291.70 0.00000 8.73439e-14
  49 2291.70 0.00000 2.37553e-13
  50 2291.70 0.00000 1.34543e-13
  51 2291.70 0.00000 -1.11089e-13
  52 2291.70 0.00000 1.65747e-13
  53 2291.70 0.00000 1.90474e-13
  54 2291.70 0.00000 -2.10421e-13
  55 2291.70 0.00000 5.44251e-15
  56 2291.70 0.00000 1.98869e-14
  57 2291.70 0.00000 -1.33287e-14
  58 2291.70 0.00000 -8.79984e-14
  59 2291.70 0.00000 5.11066e-13
  60 2291.70 0.00000 3.02321e-13
  61 2291.70 0.00000 -3.59300e-13
  62 2291.70 0.00000 -3.80431e-13
  63 2291.70 0.00000 -6.40530e-14
  64 2291.70 0.00000 -3.22887e-13
  65 2291.70 0.00000 -4.35115e-13
  66 2291.70 0.00000 -4.72997e-14
</Section>

newXOutput 51

<Section columns = "stress_xx | stress_yy | stress_xy">
  1 2338.31 0.00000 1.89769e-14
  2 2338.31 0.00000 -3.59311e-13
  3 2338.31 0.00000 -1.65599e-14
  4 2338.31 0.00000 -2.22095e-14
  5 2338.31 0.00000 2.03243e-13
  6 2338.31 0.00000 1.64684e-13
  7 2338.31 0.00000 -3.62391e-14
  8 2338.31 0.00000 3.45244e-14
  9 2338.31 0.00000 -2.80301e-13
  10 2338.31 0.00000 8.02956e-14
  11 2338.31 0.00000 5.15461e-15
  12 2338.31 0.00000 8.81130e-14
  13 2338.31 0.00000 -2.53025e-14
  14 2338.31 0.00000 -1.72913e-14
  15 2338.31 0.00000 2.59369e-14
  16 2338.31 0.00000 1.00577e-13
  17 2338.31 0.00000 -3.47933e-13
  18 2338.31 0.00000 -3.32811e-13
  19 2338.31 0.00000 2.09355e-13
  20 2338.31 0.00000 3.95949e-13
  21 2338.31 0.00000 5.58810e-14
  22 2338.31 0.00000 -2.91150e-13
  23 2338.31 0.00000 -2.43209e-13
  24 2338.31 0.00000 -1.44768e-13
  25 2338.31 0.00000 -2.02142e-14
  26 2338.31 0.00000 3.19454e-14
  27 2338.31 0.00000 3.89054e-14
  28 2338.31 0.00000 2.16141e-14
  29 2338.31 0.00000 6.58509e-14
  30 2338.31 0.00000 -2.93291e-13
  31 2338.31 0.00000 8.46454e-15
  32 2338.31 0.00000 -4.15083e-13
  33 2338.31 0.00000 2.01762e-13
  34 2338.31 0.00000 1.50552e-13
  35 2338.31 0.00000 -1.50364e-13
  36 2338.31 0.00000 1.81073e-13
  37 2338.31 0.00000 8.08248e-14
  38 2338.31 0.00000 -1.38772e-13
  39 2338.31 0.00000 2.01454e-14
  40 2338.31 0.00000 -2.78825e-13
  41 2338.31 0.00000 -6.65305e-14
  42 2338.31 0.00000 -2.23997e-13
  43 2338.31 0.00000 1.51657e-13
  44 2338.31 0.00000 -2.71794e-13
  45 2338.31 0.00000 2.31847e-13
  46 2338.31 0.00000 -1.21641e-13
  47 2338.31 0.00000 -2.43925e-14
  48 2338.31 0.00000 3.43006e-14
  49 2338.31 0.00000 1.72652e-13
  50 2338.31 0.00000 8.20711e-14
  51 2338.31 0.00000 -1.42037e-14
  52 2338.31 0.00000 3.53007e-14
  53 2338.31 0.00000 -2.00957e-13
  54 2338.31 0.00000 1.89505e-13
  55 2338.31 0.00000 -9.86861e-16
  56 2338.31 0.00000 1.01541e-13
  57 2338.31 0.00000 -5.12540e-14
  58 2338.31 0.00000 -2.97287e-14
  59 2338.31 0.00000 2.12465e-13
  60 2338.31 0.00000 1.53901e-13
  61 2338.31 0.00000 2.24950e-13
  62 2338.31 0.00000 -1.74715e-13
  63 2338.31 0.00000 7.39327e-14
  64 2338.31 0.00000 -2.06061e-13
  65 2338.31 0.00000 -4.02634e-13
  66 2338.31 0.00000 1.19831e-13
</Section>

newXOutput 52

<Section columns = "stress_xx | stress_yy | stress_xy">
  1 2384.93 0.00000 -6.36339e-14
  2 2384.93 0.00000 1.99140e-13
  3 2384.93 0.00000 -5.17291e-13
  4 2384.93 0.00000 4.65853e-14
  5 2384.93 0.00000 3.72333e-14
  6 2384.93 0.00000 -9.00004e-14
  7 2384.93 0.00000 5.48451e-14
  8 2384.93 0.00000 1.26189e-13
  9 2384.93 0.00000 -4.62354e-13
  10 2384.93 0.00000 -1.00190e-12
  11 2384.93 0.00000 -7.06812e-13
  12 2384.93 0.00000 -1.03451e-12
  13 2384.93 0.00000 -1.87605e-13
  14 2384.93 0.00000 -1.75073e-13
  15 2384.93 0.00000 9.24645e-14
  16 2384.93 0.00000 1.55406e-13
  17 2384.93 0.00000 -4.03703e-13
  18 2384.93 0.00000 4.06314e-13
  19 2384.93 0.00000 2.58493e-13
  20 2384.93 0.00000 2.50829e-13
  21 2384.93 0.00000 9.32225e-14
  22 2384.93 0.00000 -3.16610e-14
  23 2384.93 0.00000 -9.53389e-14
  24 2384.93 0.00000 6.53731e-14
  25 2384.93 0.00000 9.62053e-14
  26 2384.93 0.00000 -3.63477e-14
  27 2384.93 0.00000 1.28086e-14
  28 2384.93 0.00000 2.14044e-14
  29 2384.93 0.00000 1.72198e-13
  30 2384.93 0.00000 6.52498e-14
  31 2384.93 0.00000 1.49059e-13
  32 2384.93 0.00000 2.48771e-14
  33 2384.93 0.00000 -4.05499e-13
  34 2384.93 0.00000 -2.94085e-13
  35 2384.93 0.00000 9.72819e-14
  36 2384.93 0.00000 2.00040e-13
  37 2384.93 0.00000 -4.32841e-13
  38 2384.93 0.00000 -5.58642e-14
  39 2384.93 0.00000 9.52634e-14
  40 2384.93 0.00000 -1.91218e-13
  41 2384.93 0.00000 2.67425e-13
  42 2384.93 0.00000 1.97930e-13
  43 2384.93 0.00000 -5.87971e-13
  44 2384.93 0.00000 -4.28373e-15
  45 2384.93 0.00000 -1.26806e-14
  46 2384.93 0.00000 -1.90487e-13
  47 2384.93 0.00000 4.03052e-13
  48 2384.93 0.00000 1.87204e-13
  49 2384.93 0.00000 -8.02946e-14
  50 2384.93 0.00000 5.20453e-14
  51 2384.93 0.00000 1.63656e-13
  52 2384.93 0.00000 8.69374e-14
  53 2384.93 0.00000 -2.91371e-14
  54 2384.93 0.00000 -6.07595e-14
  55 2384.93 0.00000 -2.81038e-14
  56 2384.93 0.00000 3.47225e-14
  57 2384.93 0.00000 -2.84261e-13
  58 2384.93 0.00000 -1.18569e-13
  59 2384.93 0.00000 2.16896e-13
  60 2384.93 0.00000 -2.37877e-13
  61 2384.93 0.00000 -5.54062e-13
  62 2384.93 0.00000 -1.44434e-13
  63 2384.93 0.00000 -2.09411e-13
  64 2384.93 0.00000 3.36489e-13
  65 2384.93 0.00000 -5.92513e-13
  66 2384.93 0.00000 -6.90002e-14
</Section>

newXOutput 53

<Section columns = "stress_xx | stress_yy | stress_xy">
  1 2431.57 0.00000 -5.62468e-14
  2 2431.57 0.00000 6.27999e-14
  3 2431.57 0.00000 2.33956e-13
  4 2431.57 0.00000 6.50930e-14
  5 2431.57 0.00000 -1.29508e-13
  6 2431.57 0.00000 -3.02419e-13
  7 2431.57 0.00000 -4.15411e-13
  8 2431.57 0.00000 -3.25236e-13
  9 2431.57 0.00000 9.64873e-13
  10 2431.57 0.00000 2.54624e-12
  11 2431.57 0.00000 7.91592e-13
  12 2431.57 0.00000 6.81911e-13
  13 2431.57 0.00000 -2.51975e-13
  14 2431.57 0.00000 1.96222e-13
  15 2431.57 0.00000 1.26485e-14
  16 2431.57 0.00000 -1.09840e-13
  17 2431.57 0.00000 3.18846e-14
  18 2431.57 0.00000 -9.89653e-13
  19 2431.57 0.00000 -5.89323e-13
  20 2431.57 0.00000 -3.52183e-13
  21 2431.57 0.00000 -1.57072e-13
  22 2431.57 0.00000 1.05718e-13
  23 2431.57 0.00000 2.78544e-13
  24 2431.57 0.00000 1.49711e-13
  25 2431.57 0.00000 1.96043e-13
  26 2431.57 0.00000 -1.92453e-14
  27 2431.57 0.00000 1.26485e-14
  28 2431.57 0.00000 3.63826e-14
  29 2431.57 0.00000 1.51066e-13
  30 2431.57 0.00000 3.63124e-13
  31 2431.57 0.00000 2.63061e-13
  32 2431.57 0.00000 1.02273e-13
  33 2431.57 0.00000 4.65189e-13
  34 2431.57 0.00000 -6.84013e-14
  35 2431.57 0.00000 7.15893e-14
  36 2431.57 0.00000 9.77491e-14
  37 2431.57 0.00000 1.17654e-13
  38 2431.57 0.00000 -9.28880e-14
  39 2431.57 0.00000 1.96870e-13
  40 2431.57 0.00000 5.95955e-14
  41 2431.57 0.00000 3.42010e-13
  42 2431.57 0.00000 -7.92056e-14
  43 2431.57 0.00000 5.49563e-13
  44 2431.57 0.00000 -6.45841e-14
  45 2431.57 0.00000 4.74829e-14
  46 2431.57 0.00000 5.57736e-14
  47 2431.57 0.00000 -2.72060e-13
  48 2431.57 0.00000 2.31923e-13
  49 2431.57 0.00000 4.37957e-14
  50 2431.57 0.00000 5.99678e-14
  51 2431.57 0.00000 1.09306e-13
  52 2431.57 0.00000 1.32866e-13
  53 2431.57 0.00000 2.14270e-13
  54 2431.57 0.00000 -2.13166e-13
  55 2431.57 0.00000 -7.38680e-14
  56 2431.57 0.00000 -5.66063e-14
  57 2431.57 0.00000 2.67326e-13
  58 2431.57 0.00000 3.29911e-14
  59 2431.57 0.00000 1.81425e-13
  60 2431.57 0.00000 4.38297e-13
  61 2431.57 0.00000 5.59200e-13
  62 2431.57 0.00000 1.04345e-13
  63 2431.57 0.00000 -3.08797e-13
  64 2431.57 0.00000 -5.00640e-13
  65 2431.57 0.00000 1.08772e-12
  66 2431.57 0.00000 -1.83322e-13
</Section>

newXOutput 54

<Section columns = "stress_xx | stress_yy | stress_xy">
  1 2478.22 0.00000 -1.55726e-13
  2 2478.22 0.00000 1.42109e-14
  3 2478.22 0.00000 2.80745e-13
  4 2478.22 0.00000 1.95478e-14
  5 2478.22 0.00000 -2.37752e-13
  6 2478.22 0.00000 -2.81438e-13
  7 2478.22 0.00000 -1.14305e-13
  8 2478.22 0.00000 1.34662e-14
  9 2478.22 0.00000 1.96938e-13
  10 2478.22 0.00000 -3.13498e-13
  11 2478.22 0.00000 -1.75575e-13
  12 2478.22 0.00000 -5.89352e-13
  13 2478.22 0.00000 -3.86722e-13
  14 2478.22 0.00000 1.80362e-13
  15 2478.22 0.00000 1.24882e-14
  16 2478.22 0.00000 -1.87539e-13
  17 2478.22 0.00000 8.33227e-13
  18 2478.22 0.00000 5.63227e-13
  19 2478.22 0.00000 2.32374e-13
  20 2478.22 0.00000 4.87369e-13
  21 2478.22 0.00000 -7.41067e-14
  22 2478.22 0.00000 -1.28259e-13
  23 2478.22 0.00000 2.83528e-14
  24 2478.22 0.00000 1.68992e-13
  25 2478.22 0.00000 6.55954e-14
  26 2478.22 0.00000 -6.73308e-15
  27 2478.22 0.00000 0.00000
  28 2478.22 0.00000 -1.23852e-14
  29 2478.22 0.00000 6.56491e-14
  30 2478.22 0.00000 2.59922e-13
  31 2478.22 0.00000 -8.79870e-14
  32 2478.22 0.00000 6.99680e-14
  33 2478.22 0.00000 4.53845e-13
  34 2478.22 0.00000 9.35897e-14
  35 2478.22 0.00000 -6.77027e-14
  36 2478.22 0.00000 -4.99034e-13
  37 2478.22 0.00000 1.82824e-13
  38 2478.22 0.00000 -1.83510e-14
  39 2478.22 0.00000 -3.72871e-14
  40 2478.22 0.00000 3.39132e-14
  41 2478.22 0.00000 3.96647e-14
  42 2478.22 0.00000 -5.71997e-14
  43 2478.22 0.00000 4.34211e-13
  44 2478.22 0.00000 -9.87394e-15
  45 2478.22 0.00000 4.86828e-14
  46 2478.22 0.00000 1.18053e-13
  47 2478.22 0.00000 -2.35742e-13
  48 2478.22 0.00000 -5.88914e-14
  49 2478.22 0.00000 3.53655e-14
  50 2478.22 0.00000 3.56604e-15
  51 2478.22 0.00000 -6.21744e-14
  52 2478.22 0.00000 5.16734e-14
  53 2478.22 0.00000 5.12964e-13
  54 2478.22 0.00000 2.25048e-13
  55 2478.22 0.00000 -1.31802e-13
  56 2478.22 0.00000 -6.41357e-14
  57 2478.22 0.00000 2.70036e-13
  58 2478.22 0.00000 3.88226e-14
  59 2478.22 0.00000 2.89092e-14
  60 2478.22 0.00000 2.19036e-14
  61 2478.22 0.00000 1.52738e-13
  62 2478.22 0.00000 1.88312e-13
  63 2478.22 0.00000 -3.12470e-13
  64 2478.22 0.00000 -5.47898e-14
  65 2478.22 0.00000 -1.89695e-14
  66 2478.22 0.00000 2.50660e-13
</Section>

newXOutput 55

<Section columns = "stress_xx | stress_yy | stress_xy">
  1 2524.89 0.00000 -3.74522e-14
  2 2524.89 0.00000 1.78231e-13
  3 2524.89 0.00000 6.33941e-13
  4 2524.89 0.00000 -5.54742e-15
  5 2524.89 0.00000 -3.73589e-14
  6 2524.89 0.00000 -1.50882e-13
  7 2524.89 0.00000 -6.39884e-14
  8 2524.89 0.00000 -5.24471e-14
  9 2524.89 0.00000 3.22264e-14
  10 2524.89 0.00000 1.28920e-13
  11 2524.89 0.00000 8.46000e-14
  12 2524.89 0.00000 3.35577e-13
  13 2524.89 0.00000 3.94674e-13
  14 2524.89 0.00000 -7.77326e-14
  15 2524.89 0.00000 -1.23277e-14
  16 2524.89 0.00000 -2.39357e-13
  17 2524.89 0.00000 6.37386e-13
  18 2524.89 0.00000 5.02058e-14
  19 2524.89 0.00000 -2.44094e-13
  20 2524.89 0.00000 -2.76686e-13
  21 2524.89 0.00000 -2.54380e-13
  22 2524.89 0.00000 -2.24256e-14
  23 2524.89 0.00000 1.29676e-13
  24 2524.89 0.00000 -7.05138e-14
  25 2524.89 0.00000 -1.34986e-13
  26 2524.89 0.00000 1.77857e-14
  27 2524.89 0.00000 3.69832e-14
  28 2524.89 0.00000 2.26639e-14
  29 2524.89 0.00000 -4.33200e-14
  30 2524.89 0.00000 1.78312e-14
  31 2524.89 0.00000 1.00987e-13
  32 2524.89 0.00000 -1.24971e-13
  33 2524.89 0.00000 -5.10701e-13
  34 2524.89 0.00000 1.34894e-13
  35 2524.89 0.00000 -9.08521e-14
  36 2524.89 0.00000 1.93386e-13
  37 2524.89 0.00000 2.38475e-14
  38 2524.89 0.00000 7.63560e-14
  39 2524.89 0.00000 3.23760e-14
  40 2524.89 0.00000 4.78481e-14
  41 2524.89 0.00000 -1.94454e-13
  42 2524.89 0.00000 -2.13871e-13
  43 2524.89 0.00000 -9.42915e-14
  44 2524.89 0.00000 -1.49792e-13
  45 2524.89 0.00000 1.02807e-13
  46 2524.89 0.00000 4.70942e-14
  47 2524.89 0.00000 8.09557e-14
  48 2524.89 0.00000 -1.47199e-13
  49 2524.89 0.00000 -2.70818e-13
  50 2524.89 0.00000 1.16745e-14
  51 2524.89 0.00000 1.99613e-13
  52 2524.89 0.00000 5.39454e-14
  53 2524.89 0.00000 1.77070e-13
  54 2524.89 0.00000 -5.11979e-13
  55 2524.89 0.00000 -6.34112e-16
  56 2524.89 0.00000 2.12341e-13
  57 2524.89 0.00000 4.29417e-14
  58 2524.89 0.00000 -8.14456e-15
  59 2524.89 0.00000 -3.66066e-15
  60 2524.89 0.00000 -1.88827e-13
  61 2524.89 0.00000 2.57706e-13
  62 2524.89 0.00000 -2.81580e-14
  63 2524.89 0.00000 -8.41149e-14
  64 2524.89 0.00000 1.77395e-13
  65 2524.89 0.00000 -1.09118e-13
  66 2524.89 0.00000 -3.74802e-13
</Section>

newXOutput 56

<Section columns = "stress_xx | stress_yy | stress_xy">
  1 2571.57 0.00000 2.16121e-14
  2 2571.57 0.00000 5.03896e-14
  3 2571.57 0.00000 1.06122e-13
  4 2571.57 0.00000 1.35959e-13
  5 2571.57 0.00000 1.37247e-13
  6 2571.57 0.00000 2.29771e-13
  7 2571.57 0.00000 1.96673e-13
  8 2571.57 0.00000 3.28850e-13
  9 2571.57 0.00000 -2.26639e-13
  10 2571.57 0.00000 -2.45481e-13
  11 2571.57 0.00000 1.44917e-13
  12 2571.57 0.00000 1.58053e-13
  13 2571.57 0.00000 5.20495e-13
  14 2571.57 0.00000 -1.82602e-13
  15 2571.57 0.00000 -2.43341e-14
  16 2571.57 0.00000 -1.68857e-13
  17 2571.57 0.00000 9.64675e-13
  18 2571.57 0.00000 3.57973e-13
  19 2571.57 0.00000 -2.56516e-13
  20 2571.57 0.00000 -4.22208e-13
  21 2571.57 0.00000 -4.11349e-13
  22 2571.57 0.00000 -2.94089e-13
  23 2571.57 0.00000 1.19317e-13
  24 2571.57 0.00000 1.34512e-13
  25 2571.57 0.00000 2.48826e-13
  26 2571.57 0.00000 4.05569e-15
  27 2571.57 0.00000 -4.86683e-14
  28 2571.57 0.00000 -4.66404e-14
  29 2571.57 0.00000 -4.08252e-13
  30 2571.57 0.00000 -6.12041e-13
  31 2571.57 0.00000 8.79788e-14
  32 2571.57 0.00000 -9.10420e-14
  33 2571.57 0.00000 -1.11176e-13
  34 2571.57 0.00000 -1.37595e-13
  35 2571.57 0.00000 -4.67457e-14
  36 2571.57 0.00000 -2.11038e-13
  37 2571.57 0.00000 1.01157e-13
  38 2571.57 0.00000 7.20339e-14
  39 2571.57 0.00000 -8.11436e-14
  40 2571.57 0.00000 2.90908e-14
  41 2571.57 0.00000 -2.07016e-13
  42 2571.57 0.00000 -9.11709e-14
  43 2571.57 0.00000 -1.24457e-14
  44 2571.57 0.00000 -7.08192e-14
  45 2571.57 0.00000 -1.08686e-13
  46 2571.57 0.00000 2.58080e-13
  47 2571.57 0.00000 -2.44510e-13
  48 2571.57 0.00000 -2.43371e-13
  49 2571.57 0.00000 -1.24907e-13
  50 2571.57 0.00000 -8.64553e-14
  51 2571.57 0.00000 2.27204e-13
  52 2571.57 0.00000 -3.57807e-13
  53 2571.57 0.00000 -3.08245e-13
  54 2571.57 0.00000 -6.00896e-14
  55 2571.57 0.00000 5.69863e-14
  56 2571.57 0.00000 2.89420e-14
  57 2571.57 0.00000 1.63484e-13
  58 2571.57 0.00000 5.20253e-14
  59 2571.57 0.00000 -3.16961e-13
  60 2571.57 0.00000 -2.37422e-13
  61 2571.57 0.00000 2.30342e-13
  62 2571.57 0.00000 1.13429e-13
  63 2571.57 0.00000 1.63298e-13
  64 2571.57 0.00000 3.73769e-13
  65 2571.57 0.00000 -2.38353e-13
  66 2571.57 0.00000 -3.41945e-13
</Section>

newXOutput 57

<Section columns = "stress_xx | stress_yy | stress_xy">
  1 2618.27 0.00000 2.72907e-13
  2 2618.27 0.00000 -5.02246e-13
  3 2618.27 0.00000 -2.70033e-13
  4 2618.27 0.00000 -1.00655e-13
  5 2618.27 0.00000 5.07262e-13
  6 2618.27 0.00000 2.51146e-13
  7 2618.27 0.00000 4.03491e-13
  8 2618.27 0.00000 1.94663e-13
  9 2618.27 0.00000 -8.59440e-14
  10 2618.27 0.00000 2.40124e-14
  11 2618.27 0.00000 8.12306e-14
  12 2618.27 0.00000 2.66700e-13
  13 2618.27 0.00000 4.45857e-14
  14 2618.27 0.00000 1.14965e-13
  15 2618.27 0.00000 2.40124e-14
  16 2618.27 0.00000 1.92790e-13
  17 2618.27 0.00000 -1.10669e-12
  18 2618.27 0.00000 -9.05007e-13
  19 2618.27 0.00000 1.54551e-13
  20 2618.27 0.00000 1.41877e-13
  21 2618.27 0.00000 -1.13089e-13
  22 2618.27 0.00000 -8.86505e-14
  23 2618.27 0.00000 -2.19122e-13
  24 2618.27 0.00000 -5.19589e-14
  25 2618.27 0.00000 -1.62384e-13
  26 2618.27 0.00000 -5.88744e-14
  27 2618.27 0.00000 1.20062e-14
  28 2618.27 0.00000 2.60135e-14
  29 2618.27 0.00000 9.91570e-15
  30 2618.27 0.00000 1.33933e-14
  31 2618.27 0.00000 -2.56748e-14
  32 2618.27 0.00000 3.07629e-13
  33 2618.27 0.00000 -3.10850e-13
  34 2618.27 0.00000 -3.38905e-13
  35 2618.27 0.00000 2.66953e-13
  36 2618.27 0.00000 4.52091e-13
  37 2618.27 0.00000 6.05642e-14
  38 2618.27 0.00000 3.42365e-13
  39 2618.27 0.00000 -2.76654e-13
  40 2618.27 0.00000 2.06342e-13
  41 2618.27 0.00000 4.61504e-14
  42 2618.27 0.00000 3.33298e-13
  43 2618.27 0.00000 -2.06639e-13
  44 2618.27 0.00000 3.59481e-13
  45 2618.27 0.00000 -3.21472e-13
  46 2618.27 0.00000 -8.56778e-14
  47 2618.27 0.00000 9.73741e-14
  48 2618.27 0.00000 -1.09899e-13
  49 2618.27 0.00000 6.39595e-14
  50 2618.27 0.00000 -2.54630e-14
  51 2618.27 0.00000 5.98292e-14
  52 2618.27 0.00000 8.06829e-14
  53 2618.27 0.00000 6.86610e-14
  54 2618.27 0.00000 -1.33795e-14
  55 2618.27 0.00000 1.94163e-13
  56 2618.27 0.00000 5.91295e-14
  57 2618.27 0.00000 -3.94894e-14
  58 2618.27 0.00000 -2.04000e-13
  59 2618.27 0.00000 1.99020e-14
  60 2618.27 0.00000 -4.12028e-13
  61 2618.27 0.00000 1.27040e-13
  62 2618.27 0.00000 -2.31888e-13
  63 2618.27 0.00000 3.28837e-13
  64 2618.27 0.00000 -3.01321e-13
  65 2618.27 0.00000 2.35961e-13
  66 2618.27 0.00000 4.91242e-15
</Section>

newXOutput 58

<Section columns = "stress_xx | stress_yy | stress_xy">
  1 2664.99 0.00000 -1.95578e-13
  2 2664.99 0.00000 9.94927e-14
  3 2664.99 0.00000 -1.66216e-13
  4 2664.99 0.00000 1.79851e-13
  5 2664.99 0.00000 -3.98611e-13
  6 2664.99 0.00000 5.05349e-14
  7 2664.99 0.00000 -1.87947e-13
  8 2664.99 0.00000 -4.69937e-13
  9 2664.99 0.00000 1.28872e-13
  10 2664.99 0.00000 4.72768e-13
  11 2664.99 0.00000 3.67725e-13
  12 2664.99 0.00000 3.48505e-13
  13 2664.99 0.00000 -1.01442e-13
  14 2664.99 0.00000 4.26381e-14
  15 2664.99 0.00000 8.76475e-14
  16 2664.99 0.00000 7.73795e-14
  17 2664.99 0.00000 -3.69768e-13
  18 2664.99 0.00000 -8.37409e-13
  19 2664.99 0.00000 -4.43017e-13
  20 2664.99 0.00000 -4.15355e-13
  21 2664.99 0.00000 2.75234e-13
  22 2664.99 0.00000 1.86839e-13
  23 2664.99 0.00000 2.11951e-13
  24 2664.99 0.00000 3.18559e-13
  25 2664.99 0.00000 4.52755e-13
  26 2664.99 0.00000 -4.88712e-14
  27 2664.99 0.00000 -3.55355e-14
  28 2664.99 0.00000 3.82550e-14
  29 2664.99 0.00000 -4.10462e-13
  30 2664.99 0.00000 1.10735e-13
  31 2664.99 0.00000 6.86881e-14
  32 2664.99 0.00000 9.06708e-14
  33 2664.99 0.00000 -1.18616e-13
  34 2664.99 0.00000 -1.03387e-13
  35 2664.99 0.00000 -1.01588e-13
  36 2664.99 0.00000 2.36794e-13
  37 2664.99 0.00000 2.59523e-15
  38 2664.99 0.00000 -2.63196e-13
  39 2664.99 0.00000 1.75507e-13
  40 2664.99 0.00000 1.51930e-13
  41 2664.99 0.00000 1.77616e-13
  42 2664.99 0.00000 9.04878e-14
  43 2664.99 0.00000 3.91539e-14
  44 2664.99 0.00000 -1.19525e-13
  45 2664.99 0.00000 -6.93333e-14
  46 2664.99 0.00000 -4.03757e-14
  47 2664.99 0.00000 1.13509e-13
  48 2664.99 0.00000 2.61986e-13
  49 2664.99 0.00000 1.24973e-14
  50 2664.99 0.00000 -7.43657e-14
  51 2664.99 0.00000 -2.25990e-13
  52 2664.99 0.00000 -1.83410e-13
  53 2664.99 0.00000 -1.94553e-13
  54 2664.99 0.00000 -2.94010e-13
  55 2664.99 0.00000 -1.09066e-13
  56 2664.99 0.00000 9.28721e-14
  57 2664.99 0.00000 1.01195e-14
  58 2664.99 0.00000 5.17193e-14
  59 2664.99 0.00000 -3.01959e-13
  60 2664.99 0.00000 2.23186e-13
  61 2664.99 0.00000 -1.47417e-13
  62 2664.99 0.00000 2.02463e-13
  63 2664.99 0.00000 -1.95132e-14
  64 2664.99 0.00000 -8.88845e-14
  65 2664.99 0.00000 3.38417e-13
  66 2664.99 0.00000 3.33575e-14
</Section>

newXOutput 59

<Section columns = "stress_xx | stress_yy | stress_xy">
  1 2711.73 0.00000 4.47143e-13
  2 2711.73 0.00000 1.77147e-13
  3 2711.73 0.00000 3.59531e-13
  4 2711.73 0.00000 -3.78618e-13
  5 2711.73 0.00000 5.65816e-13
  6 2711.73 0.00000 6.12085e-14
  7 2711.73 0.00000 1.92832e-13
  8 2711.73 0.00000 1.07363e-13
  9 2711.73 0.00000 -9.80478e-14
  10 2711.73 0.00000 3.18304e-13
  11 2711.73 0.00000 -4.34038e-13
  12 2711.73 0.00000 -3.67562e-13
  13 2711.73 0.00000 -7.89409e-14
  14 2711.73 0.00000 -4.23156e-14
  15 2711.73 0.00000 2.33678e-14
  16 2711.73 0.00000 -1.79886e-13
  17 2711.73 0.00000 3.31287e-13
  18 2711.73 0.00000 -4.28436e-13
  19 2711.73 0.00000 -5.79381e-13
  20 2711.73 0.00000 -5.03243e-13
  21 2711.73 0.00000 -3.72918e-13
  22 2711.73 0.00000 -3.79425e-14
  23 2711.73 0.00000 -1.27025e-13
  24 2711.73 0.00000 -3.25179e-13
  25 2711.73 0.00000 -7.30873e-13
  26 2711.73 0.00000 7.85724e-14
  27 2711.73 0.00000 -1.16839e-14
  28 2711.73 0.00000 -1.69726e-13
  29 2711.73 0.00000 2.36348e-13
  30 2711.73 0.00000 2.68417e-13
  31 2711.73 0.00000 2.75038e-13
  32 2711.73 0.00000 2.34022e-13
  33 2711.73 0.00000 -9.68173e-14
  34 2711.73 0.00000 5.00214e-13
  35 2711.73 0.00000 -2.77876e-13
  36 2711.73 0.00000 -1.58590e-13
  37 2711.73 0.00000 -1.69058e-13
  38 2711.73 0.00000 2.68428e-13
  39 2711.73 0.00000 -1.18850e-14
  40 2711.73 0.00000 -9.05253e-14
  41 2711.73 0.00000 1.04643e-13
  42 2711.73 0.00000 2.04794e-14
  43 2711.73 0.00000 1.65947e-14
  44 2711.73 0.00000 -9.67529e-16
  45 2711.73 0.00000 1.89164e-13
  46 2711.73 0.00000 2.26031e-13
  47 2711.73 0.00000 -2.75211e-13
  48 2711.73 0.00000 -5.93141e-14
  49 2711.73 0.00000 -6.54824e-14
  50 2711.73 0.00000 -5.14112e-14
  51 2711.73 0.00000 2.34982e-13
  52 2711.73 0.00000 1.64301e-13
  53 2711.73 0.00000 4.40172e-13
  54 2711.73 0.00000 -3.45684e-13
  55 2711.73 0.00000 -4.18667e-14
  56 2711.73 0.00000 -7.58885e-14
  57 2711.73 0.00000 6.51580e-14
  58 2711.73 0.00000 5.54553e-14
  59 2711.73 0.00000 1.06806e-13
  60 2711.73 0.00000 5.03804e-14
  61 2711.73 0.00000 -3.35164e-13
  62 2711.73 0.00000 -4.76666e-14
  63 2711.73 0.00000 1.13307e-13
  64 2711.73 0.00000 -3.93998e-14
  65 2711.73 0.00000 -1.31300e-13
  66 2711.73 0.00000 -2.77149e-13
</Section>

newXOutput 60

<Section columns = "stress_xx | stress_yy | stress_xy">
  1 2758.49 0.00000 -1.14785e-13
  2 2758.49 0.00000 -2.28911e-13
  3 2758.49 0.00000 -4.79258e-13
  4 2758.49 0.00000 4.44901e-14
  5 2758.49 0.00000 1.67653e-13
  6 2758.49 0.00000 1.44755e-13
  7 2758.49 0.00000 2.58978e-13
  8 2758.49 0.00000 9.57153e-14
  9 2758.49 0.00000 -1.79869e-14
  10 2758.49 0.00000 2.28911e-13
  11 2758.49 0.00000 3.14267e-13
  12 2758.49 0.00000 3.58058e-13
  13 2758.49 0.00000 -7.63280e-14
  14 2758.49 0.00000 1.75237e-13
  15 2758.49 0.00000 -1.56194e-28
  16 2758.49 0.00000 4.55772e-14
  17 2758.49 0.00000 -9.07567e-13
  18 2758.49 0.00000 -9.62509e-13
  19 2758.49 0.00000 -1.67926e-14
  20 2758.49 0.00000 -5.49467e-13
  21 2758.49 0.00000 -3.06997e-13
  22 2758.49 0.00000 -6.00788e-13
  23 2758.49 0.00000 -3.30012e-13
  24 2758.49 0.00000 4.72374e-14
  25 2758.49 0.00000 -6.37686e-14
  26 2758.49 0.00000 -3.52337e-15
  27 2758.49 0.00000 2.30448e-14
  28 2758.49 0.00000 -2.49166e-14
  29 2758.49 0.00000 -1.55064e-13
  30 2758.49 0.00000 9.42022e-14
  31 2758.49 0.00000 -8.71224e-14
  32 2758.49 0.00000 -2.69737e-15
  33 2758.49 0.00000 5.32405e-13
  34 2758.49 0.00000 -4.79147e-13
  35 2758.49 0.00000 4.53688e-13
  36 2758.49 0.00000 -4.74270e-13
  37 2758.49 0.00000 -1.93249e-13
  38 2758.49 0.00000 -1.47508e-14
  39 2758.49 0.00000 -1.90688e-13
  40 2758.49 0.00000 1.17504e-13
  41 2758.49 0.00000 -1.17919e-13
  42 2758.49 0.00000 2.11508e-13
  43 2758.49 0.00000 3.94323e-13
  44 2758.49 0.00000 9.45030e-14
  45 2758.49 0.00000 -2.24817e-13
  46 2758.49 0.00000 -3.24849e-14
  47 2758.49 0.00000 -1.65002e-13
  48 2758.49 0.00000 -3.53637e-13
  49 2758.49 0.00000 9.41356e-14
  50 2758.49 0.00000 -7.78438e-15
  51 2758.49 0.00000 -8.52902e-14
  52 2758.49 0.00000 -1.46692e-13
  53 2758.49 0.00000 -2.79880e-13
  54 2758.49 0.00000 9.15668e-14
  55 2758.49 0.00000 2.46569e-13
  56 2758.49 0.00000 -4.31250e-13
  57 2758.49 0.00000 3.52248e-13
  58 2758.49 0.00000 -2.27869e-13
  59 2758.49 0.00000 -1.26185e-13
  60 2758.49 0.00000 -6.26593e-14
  61 2758.49 0.00000 3.06282e-13
  62 2758.49 0.00000 -1.99081e-13
  63 2758.49 0.00000 3.95480e-13
  64 2758.49 0.00000 -7.98532e-13
  65 2758.49 0.00000 -1.24256e-14
  66 2758.49 0.00000 -9.96996e-14
</Section>

newXOutput 61

<Section columns = "stress_xx | stress_yy | stress_xy">
  1 2805.28 0.00000 4.93789e-14
  2 2805.28 0.00000 -3.66545e-13
  3 2805.28 0.00000 -4.67226e-13
  4 2805.28 0.00000 2.89130e-14
  5 2805.28 0.00000 -1.02749e-14
  6 2805.28 0.00000 7.67388e-14
  7 2805.28 0.00000 4.35694e-14
  8 2805.28 0.00000 -5.87385e-14
  9 2805.28 0.00000 7.18967e-14
  10 2805.28 0.00000 1.33518e-13
  11 2805.28 0.00000 -1.56651e-13
  12 2805.28 0.00000 1.29756e-13
  13 2805.28 0.00000 -2.44363e-13
  14 2805.28 0.00000 0.00000
  15 2805.28 0.00000 -8.80755e-14
  16 2805.28 0.00000 1.59138e-13
  17 2805.28 0.00000 -6.60897e-13
  18 2805.28 0.00000 -6.74849e-13
  19 2805.28 0.00000 4.46988e-13
  20 2805.28 0.00000 -1.34411e-13
  21 2805.28 0.00000 -1.07958e-13
  22 2805.28 0.00000 -6.96816e-14
  23 2805.28 0.00000 -1.31165e-13
  24 2805.28 0.00000 5.23738e-14
  25 2805.28 0.00000 2.71706e-14
  26 2805.28 0.00000 -3.52931e-14
  27 2805.28 0.00000 2.27215e-14
  28 2805.28 0.00000 1.20288e-13
  29 2805.28 0.00000 -1.04761e-13
  30 2805.28 0.00000 -1.15644e-13
  31 2805.28 0.00000 -1.28845e-13
  32 2805.28 0.00000 1.17431e-13
  33 2805.28 0.00000 -7.31589e-14
  34 2805.28 0.00000 -3.30391e-13
  35 2805.28 0.00000 2.44987e-13
  36 2805.28 0.00000 6.25382e-13
  37 2805.28 0.00000 -2.37149e-13
  38 2805.28 0.00000 -1.14474e-13
  39 2805.28 0.00000 -3.09124e-15
  40 2805.28 0.00000 -1.82613e-13
  41 2805.28 0.00000 3.37509e-14
  42 2805.28 0.00000 3.24754e-13
  43 2805.28 0.00000 -1.27864e-13
  44 2805.28 0.00000 5.13808e-14
  45 2805.28 0.00000 -1.40857e-13
  46 2805.28 0.00000 2.03802e-14
  47 2805.28 0.00000 3.74918e-13
  48 2805.28 0.00000 5.37996e-14
  49 2805.28 0.00000 4.15579e-14
  50 2805.28 0.00000 -2.42194e-14
  51 2805.28 0.00000 -1.36041e-13
  52 2805.28 0.00000 -1.09722e-13
  53 2805.28 0.00000 4.20205e-14
  54 2805.28 0.00000 1.11414e-13
  55 2805.28 0.00000 1.71863e-13
  56 2805.28 0.00000 2.94145e-13
  57 2805.28 0.00000 -2.66334e-14
  58 2805.28 0.00000 -1.51738e-13
  59 2805.28 0.00000 -7.24836e-14
  60 2805.28 0.00000 -1.30469e-13
  61 2805.28 0.00000 7.65791e-14
  62 2805.28 0.00000 -5.10209e-14
  63 2805.28 0.00000 1.58930e-13
  64 2805.28 0.00000 2.54635e-13
  65 2805.28 0.00000 -2.30740e-13
  66 2805.28 0.00000 -6.11957e-15
</Section>

newXOutput 62

<Section columns = "stress_xx | stress_yy | stress_xy">
  1 2852.08 0.00000 -8.69323e-15
  2 2852.08 0.00000 2.23977e-14
  3 2852.08 0.00000 1.10226e-13
  4 2852.08 0.00000 -1.85930e-14
  5 2852.08 0.00000 5.57954e-14
  6 2852.08 0.00000 6.12182e-14
  7 2852.08 0.00000 -9.90258e-14
  8 2852.08 0.00000 7.02841e-14
  9 2852.08 0.00000 2.77428e-13
  10 2852.08 0.00000 2.65670e-13
  11 2852.08 0.00000 -8.13221e-14
  12 2852.08 0.00000 -7.19936e-13
  13 2852.08 0.00000 -3.09024e-13
  14 2852.08 0.00000 3.23548e-13
  15 2852.08 0.00000 2.23977e-14
  16 2852.08 0.00000 -4.82279e-13
  17 2852.08 0.00000 1.15559e-12
  18 2852.08 0.00000 1.05049e-12
  19 2852.08 0.00000 2.26432e-13
  20 2852.08 0.00000 -1.05505e-12
  21 2852.08 0.00000 -5.83341e-13
  22 2852.08 0.00000 -1.69234e-13
  23 2852.08 0.00000 2.14083e-13
  24 2852.08 0.00000 3.20129e-13
  25 2852.08 0.00000 3.49071e-14
  26 2852.08 0.00000 -1.01336e-13
  27 2852.08 0.00000 0.00000
  28 2852.08 0.00000 -3.92901e-15
  29 2852.08 0.00000 -4.47552e-13
  30 2852.08 0.00000 -6.44168e-13
  31 2852.08 0.00000 2.57464e-14
  32 2852.08 0.00000 3.11620e-13
  33 2852.08 0.00000 3.13450e-13
  34 2852.08 0.00000 -3.88830e-13
  35 2852.08 0.00000 1.85726e-13
  36 2852.08 0.00000 -2.25227e-13
  37 2852.08 0.00000 -4.05556e-13
  38 2852.08 0.00000 -6.79671e-14
  39 2852.08 0.00000 7.70673e-14
  40 2852.08 0.00000 -3.74610e-13
  41 2852.08 0.00000 3.41880e-13
  42 2852.08 0.00000 -3.72398e-14
  43 2852.08 0.00000 -3.01059e-14
  44 2852.08 0.00000 -1.09770e-14
  45 2852.08 0.00000 -1.23976e-13
  46 2852.08 0.00000 6.37219e-15
  47 2852.08 0.00000 -1.88791e-13
  48 2852.08 0.00000 -5.90251e-14
  49 2852.08 0.00000 -1.58504e-13
  50 2852.08 0.00000 -8.91973e-14
  51 2852.08 0.00000 -1.02244e-13
  52 2852.08 0.00000 -8.85600e-14
  53 2852.08 0.00000 -4.68837e-13
  54 2852.08 0.00000 8.81255e-14
  55 2852.08 0.00000 1.16125e-13
  56 2852.08 0.00000 -1.05401e-14
  57 2852.08 0.00000 2.96154e-13
  58 2852.08 0.00000 -2.17494e-13
  59 2852.08 0.00000 -2.88590e-13
  60 2852.08 0.00000 -3.27626e-13
  61 2852.08 0.00000 1.90224e-13
  62 2852.08 0.00000 -8.29091e-14
  63 2852.08 0.00000 2.14389e-13
  64 2852.08 0.00000 7.49657e-13
  65 2852.08 0.00000 -5.10641e-14
  66 2852.08 0.00000 -2.36913e-13
</Section>

newXOutput 63

<Section columns = "stress_xx | stress_yy | stress_xy">
  1 2898.91 0.00000 -6.28428e-14
  2 2898.91 0.00000 0.00000
  3 2898.91 0.00000 -3.77246e-13
  4 2898.91 0.00000 3.18261e-13
  5 2898.91 0.00000 -2.64958e-13
  6 2898.91 0.00000 -3.98754e-13
  7 2898.91 0.00000 -1.14595e-13
  8 2898.91 0.00000 -1.29681e-13
  9 2898.91 0.00000 1.38030e-13
  10 2898.91 0.00000 -8.67794e-14
  11 2898.91 0.00000 6.31204e-14
  12 2898.91 0.00000 -2.73068e-13
  13 2898.91 0.00000 -3.53365e-13
  14 2898.91 0.00000 2.94312e-14
  15 2898.91 0.00000 2.20734e-14
  16 2898.91 0.00000 9.73113e-14
  17 2898.91 0.00000 1.31646e-13
  18 2898.91 0.00000 1.04469e-12
  19 2898.91 0.00000 1.73069e-13
  20 2898.91 0.00000 -6.92307e-13
  21 2898.91 0.00000 -3.62995e-13
  22 2898.91 0.00000 5.86183e-14
  23 2898.91 0.00000 3.90153e-13
  24 2898.91 0.00000 5.34343e-13
  25 2898.91 0.00000 7.16324e-13
  26 2898.91 0.00000 -5.74827e-14
  27 2898.91 0.00000 2.20734e-14
  28 2898.91 0.00000 3.04882e-14
  29 2898.91 0.00000 2.95010e-15
  30 2898.91 0.00000 -6.83512e-13
  31 2898.91 0.00000 -1.37729e-13
  32 2898.91 0.00000 -2.28642e-13
  33 2898.91 0.00000 -5.96185e-13
  34 2898.91 0.00000 -1.55381e-13
  35 2898.91 0.00000 3.62706e-14
  36 2898.91 0.00000 -1.41165e-13
  37 2898.91 0.00000 -1.70838e-13
  38 2898.91 0.00000 -3.12162e-13
  39 2898.91 0.00000 1.66148e-13
  40 2898.91 0.00000 -2.61190e-13
  41 2898.91 0.00000 -1.57189e-13
  42 2898.91 0.00000 -3.50017e-13
  43 2898.91 0.00000 -7.39094e-16
  44 2898.91 0.00000 -1.41133e-13
  45 2898.91 0.00000 1.30593e-13
  46 2898.91 0.00000 7.74395e-14
  47 2898.91 0.00000 1.70283e-13
  48 2898.91 0.00000 -3.74728e-14
  49 2898.91 0.00000 -1.47309e-13
  50 2898.91 0.00000 -7.98120e-14
  51 2898.91 0.00000 -2.29976e-13
  52 2898.91 0.00000 -2.32114e-13
  53 2898.91 0.00000 -2.64422e-13
  54 2898.91 0.00000 -3.10161e-13
  55 2898.91 0.00000 -2.31573e-14
  56 2898.91 0.00000 -3.06295e-13
  57 2898.91 0.00000 -4.11486e-15
  58 2898.91 0.00000 1.51494e-13
  59 2898.91 0.00000 -8.19026e-14
  60 2898.91 0.00000 -5.01719e-13
  61 2898.91 0.00000 -2.94987e-13
  62 2898.91 0.00000 3.79367e-13
  63 2898.91 0.00000 -2.06540e-13
  64 2898.91 0.00000 4.04875e-13
  65 2898.91 0.00000 -2.24103e-13
  66 2898.91 0.00000 -4.06644e-13
</Section>

newXOutput 64

<Section columns = "stress_xx | stress_yy | stress_xy">
  1 2945.77 0.00000 4.87174e-14
  2 2945.77 0.00000 -2.17487e-14
  3 2945.77 0.00000 3.81224e-13
  4 2945.77 0.00000 9.52881e-14
  5 2945.77 0.00000 1.62391e-14
  6 2945.77 0.00000 -1.59488e-13
  7 2945.77 0.00000 -2.20357e-14
  8 2945.77 0.00000 -2.92884e-13
  9 2945.77 0.00000 3.71902e-13
  10 2945.77 0.00000 3.90608e-13
  11 2945.77 0.00000 6.78561e-14
  12 2945.77 0.00000 3.08351e-13
  13 2945.77 0.00000 -9.76192e-14
  14 2945.77 0.00000 3.17825e-13
  15 2945.77 0.00000 2.17487e-14
  16 2945.77 0.00000 2.35611e-14
  17 2945.77 0.00000 3.78398e-13
  18 2945.77 0.00000 -7.86180e-13
  19 2945.77 0.00000 6.15258e-14
  20 2945.77 0.00000 7.32344e-14
  21 2945.77 0.00000 -4.87646e-13
  22 2945.77 0.00000 -1.70133e-14
  23 2945.77 0.00000 -7.06859e-16
  24 2945.77 0.00000 -2.12337e-13
  25 2945.77 0.00000 6.48763e-14
  26 2945.77 0.00000 -6.55331e-14
  27 2945.77 0.00000 0.00000
  28 2945.77 0.00000 3.56648e-14
  29 2945.77 0.00000 4.75194e-14
  30 2945.77 0.00000 3.31017e-13
  31 2945.77 0.00000 8.20033e-15
  32 2945.77 0.00000 -2.68014e-13
  33 2945.77 0.00000 -1.22341e-13
  34 2945.77 0.00000 -1.60948e-13
  35 2945.77 0.00000 2.68208e-13
  36 2945.77 0.00000 2.61464e-13
  37 2945.77 0.00000 1.37243e-13
  38 2945.77 0.00000 -5.26358e-15
  39 2945.77 0.00000 -7.44127e-14
  40 2945.77 0.00000 4.59697e-13
  41 2945.77 0.00000 -2.60604e-13
  42 2945.77 0.00000 4.06853e-13
  43 2945.77 0.00000 -2.56962e-13
  44 2945.77 0.00000 4.70357e-14
  45 2945.77 0.00000 -1.11083e-13
  46 2945.77 0.00000 -3.30962e-15
  47 2945.77 0.00000 1.72113e-13
  48 2945.77 0.00000 -2.12287e-13
  49 2945.77 0.00000 1.10550e-13
  50 2945.77 0.00000 3.86167e-15
  51 2945.77 0.00000 -4.20871e-13
  52 2945.77 0.00000 -3.00519e-14
  53 2945.77 0.00000 -4.46784e-13
  54 2945.77 0.00000 1.39359e-13
  55 2945.77 0.00000 1.11787e-13
  56 2945.77 0.00000 3.46083e-13
  57 2945.77 0.00000 1.43092e-13
  58 2945.77 0.00000 -1.10231e-14
  59 2945.77 0.00000 6.49241e-14
  60 2945.77 0.00000 1.89933e-13
  61 2945.77 0.00000 1.18030e-13
  62 2945.77 0.00000 -9.22851e-14
  63 2945.77 0.00000 6.02045e-14
  64 2945.77 0.00000 -5.66827e-14
  65 2945.77 0.00000 7.09273e-13
  66 2945.77 0.00000 -1.96795e-13
</Section>

newXOutput 65

<Section columns = "stress_xx | stress_yy | stress_xy">
  1 2992.65 0.00000 -7.49083e-14
  2 2992.65 0.00000 -1.63961e-13
  3 2992.65 0.00000 -5.24474e-13
  4 2992.65 0.00000 6.32307e-14
  5 2992.65 0.00000 -5.70307e-14
  6 2992.65 0.00000 -4.24726e-14
  7 2992.65 0.00000 -1.40951e-14
  8 2992.65 0.00000 -1.08933e-13
  9 2992.65 0.00000 1.32877e-13
  10 2992.65 0.00000 2.27108e-13
  11 2992.65 0.00000 4.08779e-13
  12 2992.65 0.00000 1.03323e-12
  13 2992.65 0.00000 5.11809e-13
  14 2992.65 0.00000 -2.85647e-14
  15 2992.65 0.00000 -9.26923e-14
  16 2992.65 0.00000 -5.10831e-14
  17 2992.65 0.00000 -6.65678e-13
  18 2992.65 0.00000 -6.06408e-13
  19 2992.65 0.00000 1.71354e-13
  20 2992.65 0.00000 3.46035e-13
  21 2992.65 0.00000 3.49810e-14
  22 2992.65 0.00000 1.59314e-13
  23 2992.65 0.00000 -2.26763e-14
  24 2992.65 0.00000 -1.22451e-13
  25 2992.65 0.00000 2.52173e-14
  26 2992.65 0.00000 -5.67549e-14
  27 2992.65 0.00000 -2.14235e-14
  28 2992.65 0.00000 2.74227e-15
  29 2992.65 0.00000 1.68115e-13
  30 2992.65 0.00000 -4.07875e-14
  31 2992.65 0.00000 1.00292e-14
  32 2992.65 0.00000 -2.54680e-14
  33 2992.65 0.00000 -3.81701e-13
  34 2992.65 0.00000 -1.75017e-13
  35 2992.65 0.00000 2.56882e-13
  36 2992.65 0.00000 6.42430e-13
  37 2992.65 0.00000 5.35886e-13
  38 2992.65 0.00000 -2.58862e-14
  39 2992.65 0.00000 6.79140e-14
  40 2992.65 0.00000 3.59419e-13
  41 2992.65 0.00000 1.25991e-13
  42 2992.65 0.00000 9.39575e-14
  43 2992.65 0.00000 7.10822e-14
  44 2992.65 0.00000 1.05764e-13
  45 2992.65 0.00000 -5.20307e-15
  46 2992.65 0.00000 -6.17535e-14
  47 2992.65 0.00000 1.15020e-13
  48 2992.65 0.00000 1.64437e-13
  49 2992.65 0.00000 -8.57166e-14
  50 2992.65 0.00000 -3.31451e-14
  51 2992.65 0.00000 9.09636e-14
  52 2992.65 0.00000 4.27753e-15
  53 2992.65 0.00000 -4.90494e-15
  54 2992.65 0.00000 1.42931e-13
  55 2992.65 0.00000 3.25968e-14
  56 2992.65 0.00000 -4.01238e-15
  57 2992.65 0.00000 -7.21568e-14
  58 2992.65 0.00000 -6.94679e-14
  59 2992.65 0.00000 5.82987e-14
  60 2992.65 0.00000 -2.21685e-13
  61 2992.65 0.00000 4.82765e-13
  62 2992.65 0.00000 -1.02981e-14
  63 2992.65 0.00000 6.11046e-14
  64 2992.65 0.00000 1.40070e-13
  65 2992.65 0.00000 5.47048e-13
  66 2992.65 0.00000 4.20261e-14
</Section>

newXOutput 66

<Section columns = "stress_xx | stress_yy | stress_xy">
  1 3039.56 0.00000 1.60013e-13
  2 3039.56 0.00000 -1.98078e-13
  3 3039.56 0.00000 4.66973e-13
  4 3039.56 0.00000 -1.15728e-13
  5 3039.56 0.00000 7.71750e-14
  6 3039.56 0.00000 -1.84447e-13
  7 3039.56 0.00000 -2.65838e-14
  8 3039.56 0.00000 -1.37545e-13
  9 3039.56 0.00000 -1.28174e-13
  10 3039.56 0.00000 -5.89616e-13
  11 3039.56 0.00000 -2.15702e-13
  12 3039.56 0.00000 1.02729e-13
  13 3039.56 0.00000 1.37545e-13
  14 3039.56 0.00000 -4.27894e-13
  15 3039.56 0.00000 0.00000
  16 3039.56 0.00000 1.07830e-13
  17 3039.56 0.00000 2.25995e-13
  18 3039.56 0.00000 3.56029e-13
  19 3039.56 0.00000 5.28957e-13
  20 3039.56 0.00000 1.22898e-13
  21 3039.56 0.00000 -4.45695e-14
  22 3039.56 0.00000 -1.06202e-13
  23 3039.56 0.00000 -9.68683e-14
  24 3039.56 0.00000 -2.77601e-14
  25 3039.56 0.00000 -6.76364e-14
  26 3039.56 0.00000 2.73537e-14
  27 3039.56 0.00000 2.10979e-14
  28 3039.56 0.00000 -2.13058e-14
  29 3039.56 0.00000 8.65312e-14
  30 3039.56 0.00000 -2.32186e-13
  31 3039.56 0.00000 -1.16961e-13
  32 3039.56 0.00000 -1.84726e-13
  33 3039.56 0.00000 -1.53473e-13
  34 3039.56 0.00000 1.76484e-14
  35 3039.56 0.00000 -3.43178e-14
  36 3039.56 0.00000 -1.21968e-14
  37 3039.56 0.00000 6.14097e-14
  38 3039.56 0.00000 7.70654e-14
  39 3039.56 0.00000 -7.79991e-14
  40 3039.56 0.00000 7.97497e-14
  41 3039.56 0.00000 -4.02910e-14
  42 3039.56 0.00000 8.26437e-14
  43 3039.56 0.00000 -1.09725e-13
  44 3039.56 0.00000 -1.86030e-14
  45 3039.56 0.00000 6.16314e-14
  46 3039.56 0.00000 -8.52050e-14
  47 3039.56 0.00000 1.76284e-14
  48 3039.56 0.00000 -6.16117e-14
  49 3039.56 0.00000 -2.33537e-13
  50 3039.56 0.00000 -1.48064e-14
  51 3039.56 0.00000 -3.71155e-13
  52 3039.56 0.00000 1.04012e-13
  53 3039.56 0.00000 -3.43526e-13
  54 3039.56 0.00000 2.59371e-13
  55 3039.56 0.00000 -1.56570e-15
  56 3039.56 0.00000 1.92210e-13
  57 3039.56 0.00000 -8.57923e-14
  58 3039.56 0.00000 9.63831e-15
  59 3039.56 0.00000 2.74753e-14
  60 3039.56 0.00000 -1.18178e-13
  61 3039.56 0.00000 4.51061e-13
  62 3039.56 0.00000 -4.82627e-14
  63 3039.56 0.00000 -2.88124e-14
  64 3039.56 0.00000 -3.10267e-14
  65 3039.56 0.00000 1.78561e-14
  66 3039.56 0.00000 -1.77814e-14
</Section>

newXOutput 67

<Section columns = "stress_xx | stress_yy | stress_xy">
  1 3086.50 0.00000 -4.34916e-13
  2 3086.50 0.00000 -2.31311e-13
  3 3086.50 0.00000 2.56600e-14
  4 3086.50 0.00000 2.49699e-13
  5 3086.50 0.00000 -5.81746e-13
  6 3086.50 0.00000 2.95997e-13
  7 3086.50 0.00000 3.33346e-13
  8 3086.50 0.00000 5.05119e-13
  9 3086.50 0.00000 4.08287e-14
  10 3086.50 0.00000 -4.48857e-13
  11 3086.50 0.00000 -1.34023e-13
  12 3086.50 0.00000 -5.53145e-13
  13 3086.50 0.00000 -1.28922e-12
  14 3086.50 0.00000 -6.96684e-14
  15 3086.50 0.00000 -4.15436e-14
  16 3086.50 0.00000 1.38479e-14
  17 3086.50 0.00000 1.20165e-15
  18 3086.50 0.00000 1.90904e-13
  19 3086.50 0.00000 3.14633e-13
  20 3086.50 0.00000 3.77611e-13
  21 3086.50 0.00000 3.13588e-13
  22 3086.50 0.00000 2.48779e-13
  23 3086.50 0.00000 2.85764e-14
  24 3086.50 0.00000 7.65449e-14
  25 3086.50 0.00000 4.13604e-13
  26 3086.50 0.00000 -3.41431e-14
  27 3086.50 0.00000 -4.15436e-14
  28 3086.50 0.00000 1.81810e-13
  29 3086.50 0.00000 -3.51726e-13
  30 3086.50 0.00000 -2.37861e-13
  31 3086.50 0.00000 -1.68200e-13
  32 3086.50 0.00000 -6.95352e-14
  33 3086.50 0.00000 7.09360e-13
  34 3086.50 0.00000 -9.39706e-14
  35 3086.50 0.00000 -3.65289e-14
  36 3086.50 0.00000 5.58397e-14
  37 3086.50 0.00000 -7.02237e-14
  38 3086.50 0.00000 -1.98053e-13
  39 3086.50 0.00000 1.53977e-13
  40 3086.50 0.00000 -1.05542e-13
  41 3086.50 0.00000 3.36714e-13
  42 3086.50 0.00000 -2.54900e-13
  43 3086.50 0.00000 2.72672e-13
  44 3086.50 0.00000 1.93133e-14
  45 3086.50 0.00000 -1.67005e-13
  46 3086.50 0.00000 1.45989e-13
  47 3086.50 0.00000 -1.09897e-14
  48 3086.50 0.00000 3.27272e-13
  49 3086.50 0.00000 1.56899e-13
  50 3086.50 0.00000 1.77517e-15
  51 3086.50 0.00000 -3.19691e-14
  52 3086.50 0.00000 -4.79730e-13
  53 3086.50 0.00000 -1.36474e-13
  54 3086.50 0.00000 1.29078e-13
  55 3086.50 0.00000 -1.02903e-13
  56 3086.50 0.00000 1.02843e-14
  57 3086.50 0.00000 -2.44483e-14
  58 3086.50 0.00000 8.91902e-14
  59 3086.50 0.00000 -2.59206e-13
  60 3086.50 0.00000 1.23310e-14
  61 3086.50 0.00000 -1.07372e-13
  62 3086.50 0.00000 1.60711e-13
  63 3086.50 0.00000 -1.35823e-14
  64 3086.50 0.00000 -3.17895e-15
  65 3086.50 0.00000 -1.79850e-13
  66 3086.50 0.00000 1.64087e-13
</Section>

newXOutput 68

<Section columns = "stress_xx | stress_yy | stress_xy">
  1 3133.47 0.00000 1.85131e-13
  2 3133.47 0.00000 -1.89327e-29
  3 3133.47 0.00000 5.29904e-13
  4 3133.47 0.00000 -1.65041e-13
  5 3133.47 0.00000 2.76271e-13
  6 3133.47 0.00000 1.72694e-13
  7 3133.47 0.00000 3.56848e-13
  8 3133.47 0.00000 4.12418e-15
  9 3133.47 0.00000 -1.77996e-14
  10 3133.47 0.00000 1.18179e-13
  11 3133.47 0.00000 5.58077e-13
  12 3133.47 0.00000 1.95988e-13
  13 3133.47 0.00000 6.35866e-15
  14 3133.47 0.00000 -9.04623e-14
  15 3133.47 0.00000 -2.04452e-14
  16 3133.47 0.00000 1.09660e-13
  17 3133.47 0.00000 1.85258e-13
  18 3133.47 0.00000 -2.15927e-13
  19 3133.47 0.00000 -1.41617e-14
  20 3133.47 0.00000 -6.93621e-13
  21 3133.47 0.00000 -3.66264e-13
  22 3133.47 0.00000 -1.27389e-13
  23 3133.47 0.00000 -1.05840e-13
  24 3133.47 0.00000 -2.18948e-13
  25 3133.47 0.00000 -1.89861e-13
  26 3133.47 0.00000 -2.72984e-14
  27 3133.47 0.00000 -2.04452e-14
  28 3133.47 0.00000 1.35000e-14
  29 3133.47 0.00000 -1.18807e-13
  30 3133.47 0.00000 -3.18391e-13
  31 3133.47 0.00000 -1.15739e-13
  32 3133.47 0.00000 1.63867e-13
  33 3133.47 0.00000 1.75575e-13
  34 3133.47 0.00000 -6.44196e-14
  35 3133.47 0.00000 -3.90919e-15
  36 3133.47 0.00000 -4.78276e-13
  37 3133.47 0.00000 2.21867e-13
  38 3133.47 0.00000 1.73372e-14
  39 3133.47 0.00000 -5.90299e-16
  40 3133.47 0.00000 1.10943e-13
  41 3133.47 0.00000 -9.29338e-14
  42 3133.47 0.00000 -4.11534e-15
  43 3133.47 0.00000 1.92637e-13
  44 3133.47 0.00000 -1.01024e-13
  45 3133.47 0.00000 -6.93917e-15
  46 3133.47 0.00000 1.20708e-13
  47 3133.47 0.00000 -2.77013e-13
  48 3133.47 0.00000 -2.58491e-13
  49 3133.47 0.00000 -1.69898e-13
  50 3133.47 0.00000 -3.32998e-14
  51 3133.47 0.00000 -4.26268e-13
  52 3133.47 0.00000 -9.50355e-14
  53 3133.47 0.00000 -3.11559e-13
  54 3133.47 0.00000 -1.38468e-13
  55 3133.47 0.00000 7.43392e-14
  56 3133.47 0.00000 1.85257e-13
  57 3133.47 0.00000 -1.49970e-13
  58 3133.47 0.00000 -5.49288e-14
  59 3133.47 0.00000 -1.21532e-13
  60 3133.47 0.00000 -3.22478e-13
  61 3133.47 0.00000 2.17768e-13
  62 3133.47 0.00000 -1.81361e-13
  63 3133.47 0.00000 1.45193e-13
  64 3133.47 0.00000 -2.59850e-13
  65 3133.47 0.00000 5.94410e-13
  66 3133.47 0.00000 -1.72140e-13
</Section>

newXOutput 69

<Section columns = "stress_xx | stress_yy | stress_xy">
  1 3180.47 0.00000 1.37316e-13
  2 3180.47 0.00000 -1.18355e-13
  3 3180.47 0.00000 -3.13916e-13
  4 3180.47 0.00000 -9.94405e-14
  5 3180.47 0.00000 2.93990e-14
  6 3180.47 0.00000 1.28746e-15
  7 3180.47 0.00000 -1.76603e-14
  8 3180.47 0.00000 -5.92166e-15
  9 3180.47 0.00000 -2.14180e-13
  10 3180.47 0.00000 -1.02983e-12
  11 3180.47 0.00000 -1.39536e-13
  12 3180.47 0.00000 6.62759e-14
  13 3180.47 0.00000 -3.13685e-13
  14 3180.47 0.00000 4.18255e-13
  15 3180.47 0.00000 0.00000
  16 3180.47 0.00000 8.39331e-14
  17 3180.47 0.00000 4.37446e-13
  18 3180.47 0.00000 6.36252e-13
  19 3180.47 0.00000 2.00076e-14
  20 3180.47 0.00000 6.80295e-15
  21 3180.47 0.00000 -8.28841e-14
  22 3180.47 0.00000 -3.64089e-14
  23 3180.47 0.00000 -3.90380e-14
  24 3180.47 0.00000 2.83993e-14
  25 3180.47 0.00000 -5.42368e-14
  26 3180.47 0.00000 3.65496e-14
  27 3180.47 0.00000 -2.01181e-14
  28 3180.47 0.00000 -2.14024e-14
  29 3180.47 0.00000 7.36654e-15
  30 3180.47 0.00000 -2.14001e-13
  31 3180.47 0.00000 -7.71003e-15
  32 3180.47 0.00000 3.33221e-13
  33 3180.47 0.00000 -9.75730e-13
  34 3180.47 0.00000 -1.90463e-14
  35 3180.47 0.00000 -2.17445e-14
  36 3180.47 0.00000 2.96824e-13
  37 3180.47 0.00000 1.95293e-13
  38 3180.47 0.00000 2.65478e-13
  39 3180.47 0.00000 -1.58192e-13
  40 3180.47 0.00000 9.76756e-14
  41 3180.47 0.00000 -6.10296e-14
  42 3180.47 0.00000 2.44811e-13
  43 3180.47 0.00000 -4.15785e-13
  44 3180.47 0.00000 1.04896e-13
  45 3180.47 0.00000 -7.64064e-14
  46 3180.47 0.00000 2.31318e-13
  47 3180.47 0.00000 2.47027e-14
  48 3180.47 0.00000 -1.48361e-13
  49 3180.47 0.00000 4.12123e-13
  50 3180.47 0.00000 -1.97626e-14
  51 3180.47 0.00000 -3.77427e-13
  52 3180.47 0.00000 1.47704e-13
  53 3180.47 0.00000 -2.93166e-13
  54 3180.47 0.00000 4.77347e-13
  55 3180.47 0.00000 -1.99497e-14
  56 3180.47 0.00000 -6.30579e-14
  57 3180.47 0.00000 -2.03000e-13
  58 3180.47 0.00000 2.06988e-14
  59 3180.47 0.00000 -3.03664e-14
  60 3180.47 0.00000 2.13359e-13
  61 3180.47 0.00000 -5.95888e-13
  62 3180.47 0.00000 3.00355e-14
  63 3180.47 0.00000 -1.22257e-15
  64 3180.47 0.00000 -1.67783e-13
  65 3180.47 0.00000 -1.96475e-14
  66 3180.47 0.00000 8.92022e-14
</Section>

newXOutput 70

<Section columns = "stress_xx | stress_yy | stress_xy">
  1 3227.50 0.00000 -3.03062e-13
  2 3227.50 0.00000 -3.95810e-14
  3 3227.50 0.00000 -1.39590e-13
  4 3227.50 0.00000 2.50764e-13
  5 3227.50 0.00000 -2.78518e-13
  6 3227.50 0.00000 1.66997e-14
  7 3227.50 0.00000 1.09123e-13
  8 3227.50 0.00000 1.39264e-13
  9 3227.50 0.00000 1.26489e-13
  10 3227.50 0.00000 -1.16215e-13
  11 3227.50 0.00000 -1.61612e-13
  12 3227.50 0.00000 2.81271e-13
  13 3227.50 0.00000 2.81271e-13
  14 3227.50 0.00000 -7.17224e-14
  15 3227.50 0.00000 -3.95810e-14
  16 3227.50 0.00000 1.31265e-13
  17 3227.50 0.00000 -1.95557e-13
  18 3227.50 0.00000 -1.34329e-13
  19 3227.50 0.00000 -1.39245e-13
  20 3227.50 0.00000 -3.92558e-13
  21 3227.50 0.00000 1.48201e-14
  22 3227.50 0.00000 -1.01629e-13
  23 3227.50 0.00000 9.06783e-14
  24 3227.50 0.00000 2.13572e-13
  25 3227.50 0.00000 2.64985e-13
  26 3227.50 0.00000 7.67592e-15
  27 3227.50 0.00000 -8.77932e-14
  28 3227.50 0.00000 9.95003e-14
  29 3227.50 0.00000 -3.78872e-14
  30 3227.50 0.00000 1.97782e-13
  31 3227.50 0.00000 5.56897e-14
  32 3227.50 0.00000 5.76540e-13
  33 3227.50 0.00000 -1.75121e-13
  34 3227.50 0.00000 1.68702e-13
  35 3227.50 0.00000 4.07521e-13
  36 3227.50 0.00000 -2.84650e-13
  37 3227.50 0.00000 -1.21575e-13
  38 3227.50 0.00000 1.14733e-14
  39 3227.50 0.00000 1.08764e-13
  40 3227.50 0.00000 6.55087e-14
  41 3227.50 0.00000 3.04904e-13
  42 3227.50 0.00000 3.99063e-13
  43 3227.50 0.00000 1.84096e-13
  44 3227.50 0.00000 2.96714e-13
  45 3227.50 0.00000 1.47746e-14
  46 3227.50 0.00000 -7.64564e-15
  47 3227.50 0.00000 -1.45829e-14
  48 3227.50 0.00000 8.83485e-14
  49 3227.50 0.00000 -2.06200e-14
  50 3227.50 0.00000 7.68557e-14
  51 3227.50 0.00000 3.95941e-14
  52 3227.50 0.00000 1.23523e-13
  53 3227.50 0.00000 9.54760e-14
  54 3227.50 0.00000 7.49055e-14
  55 3227.50 0.00000 1.37141e-13
  56 3227.50 0.00000 -2.34553e-13
  57 3227.50 0.00000 9.53003e-14
  58 3227.50 0.00000 2.48240e-13
  59 3227.50 0.00000 -1.41709e-13
  60 3227.50 0.00000 1.39439e-13
  61 3227.50 0.00000 3.41483e-13
  62 3227.50 0.00000 4.85164e-13
  63 3227.50 0.00000 2.14559e-13
  64 3227.50 0.00000 -6.35715e-13
  65 3227.50 0.00000 -1.27584e-13
  66 3227.50 0.00000 2.26546e-13
</Section>

newXOutput 71

<Section columns = "stress_xx | stress_yy | stress_xy">
  1 3274.57 0.00000 -2.73535e-14
  2 3274.57 0.00000 1.43652e-13
  3 3274.57 0.00000 -2.14323e-13
  4 3274.57 0.00000 -2.15548e-13
  5 3274.57 0.00000 1.82003e-13
  6 3274.57 0.00000 5.35129e-13
  7 3274.57 0.00000 3.66101e-13
  8 3274.57 0.00000 4.41497e-13
  9 3274.57 0.00000 4.36829e-13
  10 3274.57 0.00000 -1.94624e-14
  11 3274.57 0.00000 2.39420e-14
  12 3274.57 0.00000 -3.29630e-13
  13 3274.57 0.00000 -2.46560e-13
  14 3274.57 0.00000 -7.08475e-14
  15 3274.57 0.00000 -1.15231e-13
  16 3274.57 0.00000 -2.67811e-14
  17 3274.57 0.00000 -1.38161e-13
  18 3274.57 0.00000 -4.69014e-13
  19 3274.57 0.00000 -4.87940e-13
  20 3274.57 0.00000 2.89232e-13
  21 3274.57 0.00000 -4.13766e-14
  22 3274.57 0.00000 3.47021e-14
  23 3274.57 0.00000 3.43741e-13
  24 3274.57 0.00000 1.92622e-13
  25 3274.57 0.00000 -3.46659e-13
  26 3274.57 0.00000 -5.87412e-15
  27 3274.57 0.00000 1.94624e-14
  28 3274.57 0.00000 6.81966e-14
  29 3274.57 0.00000 -4.21087e-13
  30 3274.57 0.00000 5.00562e-13
  31 3274.57 0.00000 9.18206e-14
  32 3274.57 0.00000 6.62782e-14
  33 3274.57 0.00000 -3.30952e-13
  34 3274.57 0.00000 -8.35255e-14
  35 3274.57 0.00000 -8.58022e-15
  36 3274.57 0.00000 5.51988e-13
  37 3274.57 0.00000 2.14825e-13
  38 3274.57 0.00000 1.23770e-13
  39 3274.57 0.00000 -9.38314e-14
  40 3274.57 0.00000 4.46950e-13
  41 3274.57 0.00000 5.56620e-15
  42 3274.57 0.00000 -1.01336e-13
  43 3274.57 0.00000 9.36766e-14
  44 3274.57 0.00000 -2.68958e-14
  45 3274.57 0.00000 -2.93296e-15
  46 3274.57 0.00000 3.13569e-13
  47 3274.57 0.00000 9.31446e-14
  48 3274.57 0.00000 -6.40154e-14
  49 3274.57 0.00000 -8.04077e-15
  50 3274.57 0.00000 6.50504e-14
  51 3274.57 0.00000 6.14529e-13
  52 3274.57 0.00000 -3.03940e-13
  53 3274.57 0.00000 6.20316e-13
  54 3274.57 0.00000 -3.87777e-13
  55 3274.57 0.00000 -3.51664e-14
  56 3274.57 0.00000 7.97855e-14
  57 3274.57 0.00000 -3.15825e-13
  58 3274.57 0.00000 -1.80408e-13
  59 3274.57 0.00000 -6.96141e-14
  60 3274.57 0.00000 2.80475e-13
  61 3274.57 0.00000 -2.97937e-13
  62 3274.57 0.00000 -1.13676e-13
  63 3274.57 0.00000 1.17040e-13
  64 3274.57 0.00000 1.42295e-13
  65 3274.57 0.00000 2.07200e-13
  66 3274.57 0.00000 -2.33498e-13
</Section>

newXOutput 72

<Section columns = "stress_xx | stress_yy | stress_xy">
  1 3321.67 0.00000 -9.38421e-14
  2 3321.67 0.00000 -2.84217e-14
  3 3321.67 0.00000 -1.38669e-13
  4 3321.67 0.00000 -1.42398e-13
  5 3321.67 0.00000 1.36017e-14
  6 3321.67 0.00000 1.74083e-13
  7 3321.67 0.00000 -6.34073e-14
  8 3321.67 0.00000 -4.38776e-13
  9 3321.67 0.00000 1.42870e-13
  10 3321.67 0.00000 1.18457e-13
  11 3321.67 0.00000 2.10643e-15
  12 3321.67 0.00000 -3.63898e-14
  13 3321.67 0.00000 -1.69582e-13
  14 3321.67 0.00000 -1.39570e-13
  15 3321.67 0.00000 -9.51109e-14
  16 3321.67 0.00000 6.62158e-14
  17 3321.67 0.00000 4.56455e-13
  18 3321.67 0.00000 2.39590e-13
  19 3321.67 0.00000 1.18822e-13
  20 3321.67 0.00000 -5.20054e-13
  21 3321.67 0.00000 -6.62217e-13
  22 3321.67 0.00000 -1.86042e-13
  23 3321.67 0.00000 -6.46490e-14
  24 3321.67 0.00000 -1.25182e-13
  25 3321.67 0.00000 -3.74335e-13
  26 3321.67 0.00000 -2.14094e-14
  27 3321.67 0.00000 1.91337e-14
  28 3321.67 0.00000 -1.04127e-14
  29 3321.67 0.00000 -2.31889e-13
  30 3321.67 0.00000 -4.29765e-14
  31 3321.67 0.00000 1.00823e-13
  32 3321.67 0.00000 1.44066e-13
  33 3321.67 0.00000 1.18097e-13
  34 3321.67 0.00000 -5.75285e-14
  35 3321.67 0.00000 -1.13934e-15
  36 3321.67 0.00000 2.08645e-13
  37 3321.67 0.00000 1.04554e-13
  38 3321.67 0.00000 -1.07711e-13
  39 3321.67 0.00000 -1.55784e-14
  40 3321.67 0.00000 -2.40493e-14
  41 3321.67 0.00000 -7.11512e-14
  42 3321.67 0.00000 7.66073e-14
  43 3321.67 0.00000 2.21451e-13
  44 3321.67 0.00000 3.49788e-14
  45 3321.67 0.00000 -1.43006e-13
  46 3321.67 0.00000 -2.07367e-13
  47 3321.67 0.00000 6.64909e-14
  48 3321.67 0.00000 8.86343e-14
  49 3321.67 0.00000 1.28801e-13
  50 3321.67 0.00000 -2.84470e-14
  51 3321.67 0.00000 2.03249e-13
  52 3321.67 0.00000 -7.92318e-14
  53 3321.67 0.00000 4.27517e-13
  54 3321.67 0.00000 -2.14735e-13
  55 3321.67 0.00000 -7.51650e-14
  56 3321.67 0.00000 1.70872e-14
  57 3321.67 0.00000 -1.10328e-13
  58 3321.67 0.00000 -1.19793e-13
  59 3321.67 0.00000 -8.88364e-14
  60 3321.67 0.00000 3.29597e-14
  61 3321.67 0.00000 1.59349e-13
  62 3321.67 0.00000 -7.53479e-14
  63 3321.67 0.00000 -3.70293e-14
  64 3321.67 0.00000 9.93770e-15
  65 3321.67 0.00000 7.95706e-14
  66 3321.67 0.00000 -7.67617e-13
</Section>

newXOutput 73

<Section columns = "stress_xx | stress_yy | stress_xy">
  1 3368.81 0.00000 -1.22078e-13
  2 3368.81 0.00000 -7.05209e-13
  3 3368.81 0.00000 -7.50765e-13
  4 3368.81 0.00000 -1.77417e-13
  5 3368.81 0.00000 -1.81586e-13
  6 3368.81 0.00000 -2.44302e-14
  7 3368.81 0.00000 3.13913e-13
  8 3368.81 0.00000 6.89732e-13
  9 3368.81 0.00000 1.89088e-13
  10 3368.81 0.00000 -3.64462e-14
  11 3368.81 0.00000 -4.08253e-13
  12 3368.81 0.00000 -3.19661e-13
  13 3368.81 0.00000 -2.88176e-13
  14 3368.81 0.00000 1.89478e-14
  15 3368.81 0.00000 8.48354e-14
  16 3368.81 0.00000 5.02888e-14
  17 3368.81 0.00000 -6.15457e-13
  18 3368.81 0.00000 1.05333e-13
  19 3368.81 0.00000 -1.93382e-13
  20 3368.81 0.00000 -2.22712e-13
  21 3368.81 0.00000 1.53063e-13
  22 3368.81 0.00000 4.14163e-13
  23 3368.81 0.00000 1.34838e-13
  24 3368.81 0.00000 5.16274e-14
  25 3368.81 0.00000 -3.05419e-13
  26 3368.81 0.00000 -2.50938e-14
  27 3368.81 0.00000 3.76091e-14
  28 3368.81 0.00000 9.56214e-14
  29 3368.81 0.00000 -2.38693e-14
  30 3368.81 0.00000 -4.70156e-13
  31 3368.81 0.00000 -6.96064e-13
  32 3368.81 0.00000 -4.87120e-13
  33 3368.81 0.00000 -5.43562e-13
  34 3368.81 0.00000 -1.95167e-13
  35 3368.81 0.00000 -4.71376e-15
  36 3368.81 0.00000 -3.30125e-13
  37 3368.81 0.00000 -6.44667e-13
  38 3368.81 0.00000 -2.72648e-13
  39 3368.81 0.00000 4.96233e-14
  40 3368.81 0.00000 -5.24803e-13
  41 3368.81 0.00000 -4.66155e-13
  42 3368.81 0.00000 -5.67643e-14
  43 3368.81 0.00000 -5.03827e-13
  44 3368.81 0.00000 -1.65202e-15
  45 3368.81 0.00000 -1.49985e-13
  46 3368.81 0.00000 -6.44261e-14
  47 3368.81 0.00000 -1.76759e-13
  48 3368.81 0.00000 -5.54143e-14
  49 3368.81 0.00000 7.09311e-14
  50 3368.81 0.00000 5.34853e-14
  51 3368.81 0.00000 -9.77451e-13
  52 3368.81 0.00000 -3.77470e-13
  53 3368.81 0.00000 -7.34279e-13
  54 3368.81 0.00000 -3.87118e-13
  55 3368.81 0.00000 -1.52779e-13
  56 3368.81 0.00000 -3.16475e-13
  57 3368.81 0.00000 -2.16066e-13
  58 3368.81 0.00000 -1.28112e-13
  59 3368.81 0.00000 6.37563e-15
  60 3368.81 0.00000 -4.95453e-13
  61 3368.81 0.00000 -2.23697e-13
  62 3368.81 0.00000 -2.15209e-14
  63 3368.81 0.00000 -3.66665e-13
  64 3368.81 0.00000 -5.27480e-13
  65 3368.81 0.00000 -4.96094e-14
  66 3368.81 0.00000 -3.11691e-13
</Section>

newXOutput 74

<Section columns = "stress_xx | stress_yy | stress_xy">
  1 3415.98 0.00000 -4.75536e-16
  2 3415.98 0.00000 6.01611e-13
  3 3415.98 0.00000 -6.37148e-13
  4 3415.98 0.00000 2.47050e-14
  5 3415.98 0.00000 2.31326e-13
  6 3415.98 0.00000 3.26863e-13
  7 3415.98 0.00000 9.45857e-14
  8 3415.98 0.00000 2.63383e-13
  9 3415.98 0.00000 3.29703e-13
  10 3415.98 0.00000 -2.83282e-13
  11 3415.98 0.00000 4.68966e-14
  12 3415.98 0.00000 2.39067e-13
  13 3415.98 0.00000 5.02766e-13
  14 3415.98 0.00000 1.62007e-13
  15 3415.98 0.00000 1.84749e-14
  16 3415.98 0.00000 1.79888e-13
  17 3415.98 0.00000 -8.63669e-13
  18 3415.98 0.00000 -1.90191e-13
  19 3415.98 0.00000 1.54184e-13
  20 3415.98 0.00000 -4.23906e-16
  21 3415.98 0.00000 -8.65416e-14
  22 3415.98 0.00000 -3.16711e-13
  23 3415.98 0.00000 -1.19843e-13
  24 3415.98 0.00000 -7.23458e-14
  25 3415.98 0.00000 -1.60252e-13
  26 3415.98 0.00000 4.68160e-14
  27 3415.98 0.00000 0.00000
  28 3415.98 0.00000 3.32795e-14
  29 3415.98 0.00000 -1.79487e-13
  30 3415.98 0.00000 -1.82268e-13
  31 3415.98 0.00000 9.20380e-14
  32 3415.98 0.00000 7.31245e-14
  33 3415.98 0.00000 -2.98155e-13
  34 3415.98 0.00000 9.60074e-14
  35 3415.98 0.00000 -5.56375e-14
  36 3415.98 0.00000 3.25485e-13
  37 3415.98 0.00000 5.38649e-13
  38 3415.98 0.00000 1.43561e-13
  39 3415.98 0.00000 -6.97875e-14
  40 3415.98 0.00000 6.56776e-13
  41 3415.98 0.00000 2.82883e-14
  42 3415.98 0.00000 6.20760e-14
  43 3415.98 0.00000 1.93733e-13
  44 3415.98 0.00000 4.75003e-14
  45 3415.98 0.00000 -6.53322e-14
  46 3415.98 0.00000 3.12714e-13
  47 3415.98 0.00000 -4.12786e-14
  48 3415.98 0.00000 -4.09059e-14
  49 3415.98 0.00000 -1.16936e-13
  50 3415.98 0.00000 6.71778e-14
  51 3415.98 0.00000 3.92226e-14
  52 3415.98 0.00000 4.52817e-14
  53 3415.98 0.00000 2.04069e-13
  54 3415.98 0.00000 2.14547e-13
  55 3415.98 0.00000 7.73126e-14
  56 3415.98 0.00000 -4.91328e-14
  57 3415.98 0.00000 -4.46879e-14
  58 3415.98 0.00000 2.93115e-14
  59 3415.98 0.00000 -4.95210e-14
  60 3415.98 0.00000 -2.18743e-13
  61 3415.98 0.00000 -1.95737e-13
  62 3415.98 0.00000 -1.55685e-14
  63 3415.98 0.00000 1.41662e-13
  64 3415.98 0.00000 4.37751e-13
  65 3415.98 0.00000 3.12364e-13
  66 3415.98 0.00000 1.81048e-13
</Section>

newXOutput 75

<Section columns = "stress_xx | stress_yy | stress_xy">
  1 3463.19 0.00000 -6.67395e-14
  2 3463.19 0.00000 -7.55880e-13
  3 3463.19 0.00000 7.70882e-13
  4 3463.19 0.00000 -1.65608e-14
  5 3463.19 0.00000 4.90904e-14
  6 3463.19 0.00000 2.92110e-13
  7 3463.19 0.00000 9.53866e-14
  8 3463.19 0.00000 1.36273e-13
  9 3463.19 0.00000 -3.04157e-13
  10 3463.19 0.00000 -1.08725e-12
  11 3463.19 0.00000 -4.24506e-13
  12 3463.19 0.00000 -2.20916e-13
  13 3463.19 0.00000 -7.76631e-13
  14 3463.19 0.00000 -1.20964e-14
  15 3463.19 0.00000 -8.28555e-14
  16 3463.19 0.00000 -3.55804e-14
  17 3463.19 0.00000 4.55456e-13
  18 3463.19 0.00000 4.24437e-13
  19 3463.19 0.00000 2.04963e-13
  20 3463.19 0.00000 7.03369e-14
  21 3463.19 0.00000 -1.63165e-13
  22 3463.19 0.00000 -7.26890e-14
  23 3463.19 0.00000 7.74374e-14
  24 3463.19 0.00000 6.47887e-14
  25 3463.19 0.00000 -2.19083e-13
  26 3463.19 0.00000 -4.47676e-14
  27 3463.19 0.00000 -3.62892e-14
  28 3463.19 0.00000 8.54292e-14
  29 3463.19 0.00000 -4.96346e-13
  30 3463.19 0.00000 -3.92257e-13
  31 3463.19 0.00000 -2.17770e-13
  32 3463.19 0.00000 3.56437e-14
  33 3463.19 0.00000 -2.41487e-14
  34 3463.19 0.00000 -5.39016e-14
  35 3463.19 0.00000 -1.11280e-13
  36 3463.19 0.00000 6.71690e-15
  37 3463.19 0.00000 1.22273e-13
  38 3463.19 0.00000 -3.68478e-13
  39 3463.19 0.00000 1.45879e-13
  40 3463.19 0.00000 2.31538e-14
  41 3463.19 0.00000 1.78579e-13
  42 3463.19 0.00000 -1.01603e-13
  43 3463.19 0.00000 -2.54658e-13
  44 3463.19 0.00000 -1.71122e-13
  45 3463.19 0.00000 -1.23645e-13
  46 3463.19 0.00000 -2.33435e-13
  47 3463.19 0.00000 8.43927e-14
  48 3463.19 0.00000 -1.78335e-14
  49 3463.19 0.00000 -1.51886e-13
  50 3463.19 0.00000 -5.23249e-14
  51 3463.19 0.00000 -9.16300e-14
  52 3463.19 0.00000 -3.47494e-13
  53 3463.19 0.00000 -2.12696e-13
  54 3463.19 0.00000 -1.57537e-13
  55 3463.19 0.00000 3.59902e-14
  56 3463.19 0.00000 5.90602e-13
  57 3463.19 0.00000 -2.97982e-13
  58 3463.19 0.00000 -9.65078e-14
  59 3463.19 0.00000 -3.15550e-13
  60 3463.19 0.00000 -7.12003e-13
  61 3463.19 0.00000 -2.65910e-13
  62 3463.19 0.00000 8.91060e-15
  63 3463.19 0.00000 6.78882e-14
  64 3463.19 0.00000 5.88792e-13
  65 3463.19 0.00000 -2.50834e-13
  66 3463.19 0.00000 8.53777e-14
</Section>

newXOutput 76

<Section columns = "stress_xx | stress_yy | stress_xy">
  1 3510.45 0.00000 1.89407e-13
  2 3510.45 0.00000 1.92148e-13
  3 3510.45 0.00000 -1.77668e-13
  4 3510.45 0.00000 1.15976e-13
  5 3510.45 0.00000 1.64167e-13
  6 3510.45 0.00000 -5.05084e-13
  7 3510.45 0.00000 -1.24783e-13
  8 3510.45 0.00000 1.76705e-28
  9 3510.45 0.00000 -2.36758e-13
  10 3510.45 0.00000 -1.49744e-12
  11 3510.45 0.00000 -1.98314e-13
  12 3510.45 0.00000 7.33875e-13
  13 3510.45 0.00000 8.64950e-13
  14 3510.45 0.00000 3.56276e-14
  15 3510.45 0.00000 1.78138e-14
  16 3510.45 0.00000 -1.15872e-13
  17 3510.45 0.00000 1.39313e-13
  18 3510.45 0.00000 1.86010e-14
  19 3510.45 0.00000 -2.78727e-13
  20 3510.45 0.00000 1.29373e-13
  21 3510.45 0.00000 8.41443e-14
  22 3510.45 0.00000 -1.48810e-13
  23 3510.45 0.00000 -4.37992e-13
  24 3510.45 0.00000 -2.41247e-13
  25 3510.45 0.00000 3.21187e-13
  26 3510.45 0.00000 -1.06030e-13
  27 3510.45 0.00000 -1.78138e-14
  28 3510.45 0.00000 -6.01666e-14
  29 3510.45 0.00000 4.34590e-13
  30 3510.45 0.00000 -5.89487e-14
  31 3510.45 0.00000 -5.24085e-15
  32 3510.45 0.00000 9.17288e-14
  33 3510.45 0.00000 1.05392e-13
  34 3510.45 0.00000 6.07459e-14
  35 3510.45 0.00000 2.35543e-13
  36 3510.45 0.00000 -1.62227e-13
  37 3510.45 0.00000 4.68696e-13
  38 3510.45 0.00000 -5.43641e-14
  39 3510.45 0.00000 -2.13391e-13
  40 3510.45 0.00000 5.95353e-13
  41 3510.45 0.00000 1.55187e-14
  42 3510.45 0.00000 -1.53658e-13
  43 3510.45 0.00000 -4.70747e-14
  44 3510.45 0.00000 6.65662e-14
  45 3510.45 0.00000 -2.57238e-14
  46 3510.45 0.00000 1.50655e-13
  47 3510.45 0.00000 -9.51796e-14
  48 3510.45 0.00000 -2.03119e-13
  49 3510.45 0.00000 2.50675e-13
  50 3510.45 0.00000 -1.40970e-13
  51 3510.45 0.00000 3.21896e-13
  52 3510.45 0.00000 2.12417e-13
  53 3510.45 0.00000 2.39902e-13
  54 3510.45 0.00000 -3.49687e-13
  55 3510.45 0.00000 2.21173e-13
  56 3510.45 0.00000 -1.53928e-13
  57 3510.45 0.00000 3.76563e-13
  58 3510.45 0.00000 5.91042e-14
  59 3510.45 0.00000 3.35720e-14
  60 3510.45 0.00000 4.77874e-13
  61 3510.45 0.00000 3.57203e-13
  62 3510.45 0.00000 5.79830e-14
  63 3510.45 0.00000 2.66017e-13
  64 3510.45 0.00000 -3.35137e-13
  65 3510.45 0.00000 -2.25507e-13
  66 3510.45 0.00000 1.69358e-15
</Section>

newXOutput 77

<Section columns = "stress_xx | stress_yy | stress_xy">
  1 3557.74 0.00000 7.74413e-14
  2 3557.74 0.00000 2.75425e-13
  3 3557.74 0.00000 5.79623e-13
  4 3557.74 0.00000 7.20370e-14
  5 3557.74 0.00000 3.18489e-13
  6 3557.74 0.00000 3.93219e-13
  7 3557.74 0.00000 -3.18493e-14
  8 3557.74 0.00000 -2.18581e-13
  9 3557.74 0.00000 -1.05932e-12
  10 3557.74 0.00000 -8.68681e-13
  11 3557.74 0.00000 -7.10370e-13
  12 3557.74 0.00000 3.14097e-14
  13 3557.74 0.00000 5.37670e-13
  14 3557.74 0.00000 -1.19064e-13
  15 3557.74 0.00000 -2.08259e-28
  16 3557.74 0.00000 1.08866e-13
  17 3557.74 0.00000 6.69602e-13
  18 3557.74 0.00000 -1.69258e-13
  19 3557.74 0.00000 6.07559e-14
  20 3557.74 0.00000 -9.82038e-13
  21 3557.74 0.00000 -2.22421e-13
  22 3557.74 0.00000 4.35907e-13
  23 3557.74 0.00000 6.86868e-13
  24 3557.74 0.00000 1.50226e-13
  25 3557.74 0.00000 6.62178e-14
  26 3557.74 0.00000 3.41398e-14
  27 3557.74 0.00000 -1.74824e-14
  28 3557.74 0.00000 -3.08077e-14
  29 3557.74 0.00000 -3.37150e-13
  30 3557.74 0.00000 6.61796e-13
  31 3557.74 0.00000 2.40473e-13
  32 3557.74 0.00000 1.02604e-12
  33 3557.74 0.00000 -1.03930e-12
  34 3557.74 0.00000 1.40853e-13
  35 3557.74 0.00000 -4.72997e-13
  36 3557.74 0.00000 6.97814e-13
  37 3557.74 0.00000 -5.66481e-13
  38 3557.74 0.00000 1.12242e-13
  39 3557.74 0.00000 4.36719e-13
  40 3557.74 0.00000 -5.85953e-13
  41 3557.74 0.00000 4.71256e-13
  42 3557.74 0.00000 8.32548e-13
  43 3557.74 0.00000 -3.95704e-13
  44 3557.74 0.00000 -3.06392e-14
  45 3557.74 0.00000 2.37008e-14
  46 3557.74 0.00000 -3.93388e-13
  47 3557.74 0.00000 4.89037e-13
  48 3557.74 0.00000 4.37977e-13
  49 3557.74 0.00000 1.39576e-13
  50 3557.74 0.00000 -1.19045e-13
  51 3557.74 0.00000 4.63031e-13
  52 3557.74 0.00000 2.03571e-14
  53 3557.74 0.00000 5.56938e-13
  54 3557.74 0.00000 1.00264e-13
  55 3557.74 0.00000 -2.43585e-14
  56 3557.74 0.00000 5.39898e-13
  57 3557.74 0.00000 -3.55237e-13
  58 3557.74 0.00000 6.37703e-14
  59 3557.74 0.00000 -3.24644e-13
  60 3557.74 0.00000 4.22382e-13
  61 3557.74 0.00000 -4.87269e-13
  62 3557.74 0.00000 1.58138e-13
  63 3557.74 0.00000 1.37632e-13
  64 3557.74 0.00000 2.45349e-13
  65 3557.74 0.00000 -1.00832e-12
  66 3557.74 0.00000 -2.88683e-13
</Section>

newXOutput 78

<Section columns = "stress_xx | stress_yy | stress_xy">
  1 3605.08 0.00000 9.51462e-14
  2 3605.08 0.00000 -7.28508e-14
  3 3605.08 0.00000 2.72930e-13
  4 3605.08 0.00000 -4.37025e-14
  5 3605.08 0.00000 -4.58169e-14
  6 3605.08 0.00000 -1.72679e-13
  7 3605.08 0.00000 5.70960e-13
  8 3605.08 0.00000 7.40970e-13
  9 3605.08 0.00000 6.02810e-13
  10 3605.08 0.00000 -6.64146e-13
  11 3605.08 0.00000 2.49504e-13
  12 3605.08 0.00000 -1.14336e-14
  13 3605.08 0.00000 -6.94309e-13
  14 3605.08 0.00000 -1.26218e-28
  15 3605.08 0.00000 -1.42596e-13
  16 3605.08 0.00000 1.10397e-14
  17 3605.08 0.00000 2.40498e-13
  18 3605.08 0.00000 -4.43139e-13
  19 3605.08 0.00000 -5.48080e-13
  20 3605.08 0.00000 -3.61031e-13
  21 3605.08 0.00000 -2.96679e-13
  22 3605.08 0.00000 -5.42672e-13
  23 3605.08 0.00000 1.04580e-13
  24 3605.08 0.00000 2.74003e-13
  25 3605.08 0.00000 -1.65787e-13
  26 3605.08 0.00000 -1.11004e-13
  27 3605.08 0.00000 0.00000
  28 3605.08 0.00000 -2.59986e-14
  29 3605.08 0.00000 -3.28596e-13
  30 3605.08 0.00000 -1.30461e-13
  31 3605.08 0.00000 -2.17434e-13
  32 3605.08 0.00000 -2.30821e-13
  33 3605.08 0.00000 2.81845e-13
  34 3605.08 0.00000 -1.90771e-13
  35 3605.08 0.00000 3.99947e-13
  36 3605.08 0.00000 7.52888e-13
  37 3605.08 0.00000 1.87332e-13
  38 3605.08 0.00000 1.89796e-13
  39 3605.08 0.00000 -3.46142e-13
  40 3605.08 0.00000 5.49320e-13
  41 3605.08 0.00000 -8.29563e-14
  42 3605.08 0.00000 -2.74223e-13
  43 3605.08 0.00000 2.23739e-13
  44 3605.08 0.00000 1.27640e-13
  45 3605.08 0.00000 -7.27275e-14
  46 3605.08 0.00000 2.79972e-13
  47 3605.08 0.00000 1.70720e-13
  48 3605.08 0.00000 -2.17438e-13
  49 3605.08 0.00000 -1.10577e-13
  50 3605.08 0.00000 -1.30357e-13
  51 3605.08 0.00000 7.86156e-14
  52 3605.08 0.00000 -4.89530e-13
  53 3605.08 0.00000 -2.36460e-13
  54 3605.08 0.00000 -7.02075e-13
  55 3605.08 0.00000 1.60143e-13
  56 3605.08 0.00000 4.82417e-13
  57 3605.08 0.00000 1.67343e-13
  58 3605.08 0.00000 -1.31329e-13
  59 3605.08 0.00000 -7.18566e-14
  60 3605.08 0.00000 -7.95982e-14
  61 3605.08 0.00000 4.45447e-13
  62 3605.08 0.00000 5.79228e-14
  63 3605.08 0.00000 1.91622e-13
  64 3605.08 0.00000 3.80740e-13
  65 3605.08 0.00000 4.30763e-13
  66 3605.08 0.00000 -5.79617e-13
</Section>

newXOutput 79

<Section columns = "stress_xx | stress_yy | stress_xy">
  1 3652.46 0.00000 4.89146e-15
  2 3652.46 0.00000 0.00000
  3 3652.46 0.00000 1.55851e-13
  4 3652.46 0.00000 4.19054e-14
  5 3652.46 0.00000 1.65473e-13
  6 3652.46 0.00000 9.53707e-14
  7 3652.46 0.00000 -1.41217e-13
  8 3652.46 0.00000 -4.72756e-14
  9 3652.46 0.00000 -3.79024e-14
  10 3652.46 0.00000 -7.62966e-13
  11 3652.46 0.00000 -1.35719e-13
  12 3652.46 0.00000 5.03954e-13
  13 3652.46 0.00000 8.90127e-13
  14 3652.46 0.00000 1.12119e-14
  15 3652.46 0.00000 1.68179e-14
  16 3652.46 0.00000 -1.89367e-13
  17 3652.46 0.00000 1.16476e-12
  18 3652.46 0.00000 7.74276e-13
  19 3652.46 0.00000 6.48585e-13
  20 3652.46 0.00000 -1.23016e-13
  21 3652.46 0.00000 1.84891e-13
  22 3652.46 0.00000 1.77938e-13
  23 3652.46 0.00000 7.06233e-14
  24 3652.46 0.00000 -7.00287e-14
  25 3652.46 0.00000 -1.68476e-13
  26 3652.46 0.00000 6.26645e-14
  27 3652.46 0.00000 1.07297e-13
  28 3652.46 0.00000 3.87977e-14
  29 3652.46 0.00000 3.33223e-13
  30 3652.46 0.00000 -2.27661e-13
  31 3652.46 0.00000 4.05803e-14
  32 3652.46 0.00000 3.55230e-14
  33 3652.46 0.00000 -7.21487e-13
  34 3652.46 0.00000 -1.24090e-14
  35 3652.46 0.00000 -1.89398e-14
  36 3652.46 0.00000 -2.12962e-13
  37 3652.46 0.00000 2.93214e-13
  38 3652.46 0.00000 4.64887e-14
  39 3652.46 0.00000 2.93300e-13
  40 3652.46 0.00000 4.29802e-13
  41 3652.46 0.00000 -9.00647e-14
  42 3652.46 0.00000 3.99224e-13
  43 3652.46 0.00000 -2.12594e-13
  44 3652.46 0.00000 1.38117e-13
  45 3652.46 0.00000 1.75014e-13
  46 3652.46 0.00000 2.07762e-13
  47 3652.46 0.00000 6.34792e-14
  48 3652.46 0.00000 1.53670e-13
  49 3652.46 0.00000 3.13516e-14
  50 3652.46 0.00000 3.12083e-14
  51 3652.46 0.00000 -1.95957e-13
  52 3652.46 0.00000 4.33215e-13
  53 3652.46 0.00000 1.50911e-15
  54 3652.46 0.00000 1.62231e-13
  55 3652.46 0.00000 -2.73705e-14
  56 3652.46 0.00000 -5.12912e-14
  57 3652.46 0.00000 -6.19500e-14
  58 3652.46 0.00000 -1.78700e-14
  59 3652.46 0.00000 1.66427e-13
  60 3652.46 0.00000 -6.32852e-14
  61 3652.46 0.00000 2.69269e-13
  62 3652.46 0.00000 -8.50814e-14
  63 3652.46 0.00000 3.29500e-14
  64 3652.46 0.00000 6.95769e-14
  65 3652.46 0.00000 1.30405e-13
  66 3652.46 0.00000 -2.90186e-14
</Section>

newXOutput 80

<Section columns = "stress_xx | stress_yy | stress_xy">
  1 3699.89 0.00000 5.78435e-15
  2 3699.89 0.00000 -1.74342e-13
  3 3699.89 0.00000 -3.92349e-13
  4 3699.89 0.00000 2.49471e-13
  5 3699.89 0.00000 -1.02731e-13
  6 3699.89 0.00000 -5.13709e-13
  7 3699.89 0.00000 -4.42265e-13
  8 3699.89 0.00000 -1.76349e-13
  9 3699.89 0.00000 2.39428e-13
  10 3699.89 0.00000 2.65057e-28
  11 3699.89 0.00000 -3.79931e-13
  12 3699.89 0.00000 -1.47739e-12
  13 3699.89 0.00000 -1.20352e-12
  14 3699.89 0.00000 0.00000
  15 3699.89 0.00000 1.64848e-14
  16 3699.89 0.00000 1.90930e-13
  17 3699.89 0.00000 2.65419e-13
  18 3699.89 0.00000 -9.56292e-13
  19 3699.89 0.00000 -6.47104e-13
  20 3699.89 0.00000 -2.19697e-13
  21 3699.89 0.00000 2.39261e-13
  22 3699.89 0.00000 3.17826e-13
  23 3699.89 0.00000 -2.03558e-13
  24 3699.89 0.00000 -1.22284e-13
  25 3699.89 0.00000 3.88068e-13
  26 3699.89 0.00000 -3.84695e-14
  27 3699.89 0.00000 0.00000
  28 3699.89 0.00000 -5.49493e-15
  29 3699.89 0.00000 3.95271e-13
  30 3699.89 0.00000 3.14978e-13
  31 3699.89 0.00000 -6.18708e-14
  32 3699.89 0.00000 4.99250e-13
  33 3699.89 0.00000 -4.20949e-13
  34 3699.89 0.00000 1.81180e-13
  35 3699.89 0.00000 -1.48653e-13
  36 3699.89 0.00000 4.30719e-13
  37 3699.89 0.00000 -7.23640e-13
  38 3699.89 0.00000 1.19472e-13
  39 3699.89 0.00000 -1.34567e-13
  40 3699.89 0.00000 -3.38232e-13
  41 3699.89 0.00000 5.45422e-14
  42 3699.89 0.00000 1.59872e-13
  43 3699.89 0.00000 1.25035e-14
  44 3699.89 0.00000 1.09036e-13
  45 3699.89 0.00000 -8.00117e-16
  46 3699.89 0.00000 -1.85436e-14
  47 3699.89 0.00000 4.54100e-14
  48 3699.89 0.00000 2.35152e-13
  49 3699.89 0.00000 2.58606e-14
  50 3699.89 0.00000 -1.23726e-15
  51 3699.89 0.00000 -3.83888e-13
  52 3699.89 0.00000 3.38948e-13
  53 3699.89 0.00000 -6.84856e-14
  54 3699.89 0.00000 3.16360e-13
  55 3699.89 0.00000 -1.19483e-13
  56 3699.89 0.00000 1.17574e-13
  57 3699.89 0.00000 -1.06732e-13
  58 3699.89 0.00000 1.39819e-13
  59 3699.89 0.00000 2.68456e-13
  60 3699.89 0.00000 -5.93112e-14
  61 3699.89 0.00000 -4.76020e-13
  62 3699.89 0.00000 1.17918e-13
  63 3699.89 0.00000 -2.70801e-13
  64 3699.89 0.00000 -8.46260e-14
  65 3699.89 0.00000 -3.43485e-13
  66 3699.89 0.00000 3.56261e-13
</Section>

newXOutput 81

<Section columns = "stress_xx | stress_yy | stress_xy">
  1 3747.36 0.00000 -3.27011e-13
  2 3747.36 0.00000 0.00000
  3 3747.36 0.00000 6.56788e-13
  4 3747.36 0.00000 -1.00071e-13
  5 3747.36 0.00000 -6.31394e-13
  6 3747.36 0.00000 -2.51083e-13
  7 3747.36 0.00000 3.92212e-13
  8 3747.36 0.00000 4.09300e-13
  9 3747.36 0.00000 7.26472e-13
  10 3747.36 0.00000 2.65737e-13
  11 3747.36 0.00000 -1.02507e-13
  12 3747.36 0.00000 -1.84205e-13
  13 3747.36 0.00000 4.62815e-13
  14 3747.36 0.00000 -3.74397e-13
  15 3747.36 0.00000 1.61511e-14
  16 3747.36 0.00000 -1.21133e-14
  17 3747.36 0.00000 2.49456e-15
  18 3747.36 0.00000 -1.29521e-12
  19 3747.36 0.00000 -1.13378e-13
  20 3747.36 0.00000 -4.62178e-13
  21 3747.36 0.00000 -1.35231e-13
  22 3747.36 0.00000 6.13015e-14
  23 3747.36 0.00000 8.18939e-14
  24 3747.36 0.00000 -3.27906e-13
  25 3747.36 0.00000 -3.66724e-13
  26 3747.36 0.00000 1.17001e-13
  27 3747.36 0.00000 1.61511e-14
  28 3747.36 0.00000 5.12009e-14
  29 3747.36 0.00000 1.61731e-13
  30 3747.36 0.00000 4.05733e-13
  31 3747.36 0.00000 8.20448e-14
  32 3747.36 0.00000 4.70076e-14
  33 3747.36 0.00000 2.37681e-13
  34 3747.36 0.00000 2.50402e-13
  35 3747.36 0.00000 1.55326e-13
  36 3747.36 0.00000 2.60116e-13
  37 3747.36 0.00000 1.51635e-13
  38 3747.36 0.00000 1.76704e-13
  39 3747.36 0.00000 2.70014e-13
  40 3747.36 0.00000 2.05851e-13
  41 3747.36 0.00000 2.66414e-13
  42 3747.36 0.00000 9.69150e-14
  43 3747.36 0.00000 5.51016e-13
  44 3747.36 0.00000 1.73901e-13
  45 3747.36 0.00000 6.13394e-14
  46 3747.36 0.00000 3.03122e-13
  47 3747.36 0.00000 -2.44185e-13
  48 3747.36 0.00000 2.62070e-13
  49 3747.36 0.00000 4.54248e-15
  50 3747.36 0.00000 1.97204e-13
  51 3747.36 0.00000 -4.81906e-13
  52 3747.36 0.00000 1.05240e-13
  53 3747.36 0.00000 -1.13118e-14
  54 3747.36 0.00000 1.76706e-13
  55 3747.36 0.00000 -1.93340e-13
  56 3747.36 0.00000 3.30600e-13
  57 3747.36 0.00000 -2.45935e-14
  58 3747.36 0.00000 4.91899e-14
  59 3747.36 0.00000 2.16920e-13
  60 3747.36 0.00000 6.27480e-13
  61 3747.36 0.00000 3.29620e-13
  62 3747.36 0.00000 -3.58043e-14
  63 3747.36 0.00000 -4.40411e-13
  64 3747.36 0.00000 -4.67528e-13
  65 3747.36 0.00000 3.65974e-13
  66 3747.36 0.00000 3.76809e-14
</Section>

newXOutput 82

<Section columns = "stress_xx | stress_yy | stress_xy">
  1 3794.87 0.00000 2.32562e-13
  2 3794.87 0.00000 0.00000
  3 3794.87 0.00000 -2.00467e-13
  4 3794.87 0.00000 4.89264e-14
  5 3794.87 0.00000 5.98254e-13
  6 3794.87 0.00000 4.75231e-13
  7 3794.87 0.00000 -9.60569e-14
  8 3794.87 0.00000 -4.88778e-14
  9 3794.87 0.00000 -7.12519e-13
  10 3794.87 0.00000 -1.09453e-12
  11 3794.87 0.00000 2.14982e-14
  12 3794.87 0.00000 -4.63426e-13
  13 3794.87 0.00000 -2.85206e-13
  14 3794.87 0.00000 0.00000
  15 3794.87 0.00000 1.58167e-14
  16 3794.87 0.00000 1.76954e-13
  17 3794.87 0.00000 1.77464e-13
  18 3794.87 0.00000 5.26615e-13
  19 3794.87 0.00000 1.49435e-13
  20 3794.87 0.00000 1.79933e-13
  21 3794.87 0.00000 -1.55696e-13
  22 3794.87 0.00000 5.98100e-14
  23 3794.87 0.00000 1.34344e-13
  24 3794.87 0.00000 1.33591e-13
  25 3794.87 0.00000 3.34351e-13
  26 3794.87 0.00000 -1.58167e-14
  27 3794.87 0.00000 -3.16334e-14
  28 3794.87 0.00000 -1.58996e-13
  29 3794.87 0.00000 -1.00057e-13
  30 3794.87 0.00000 -6.02146e-13
  31 3794.87 0.00000 -2.24126e-13
  32 3794.87 0.00000 1.54463e-13
  33 3794.87 0.00000 4.52240e-13
  34 3794.87 0.00000 -3.21705e-13
  35 3794.87 0.00000 -2.05700e-13
  36 3794.87 0.00000 -1.92479e-13
  37 3794.87 0.00000 3.32654e-13
  38 3794.87 0.00000 -1.22611e-13
  39 3794.87 0.00000 -1.60544e-13
  40 3794.87 0.00000 5.99500e-14
  41 3794.87 0.00000 -5.19426e-14
  42 3794.87 0.00000 1.82419e-13
  43 3794.87 0.00000 -3.88329e-13
  44 3794.87 0.00000 -1.85642e-14
  45 3794.87 0.00000 -2.10456e-13
  46 3794.87 0.00000 -1.99258e-13
  47 3794.87 0.00000 2.62893e-14
  48 3794.87 0.00000 -3.02561e-13
  49 3794.87 0.00000 1.18854e-13
  50 3794.87 0.00000 -1.03770e-13
  51 3794.87 0.00000 -2.92464e-14
  52 3794.87 0.00000 -1.37713e-13
  53 3794.87 0.00000 -7.83476e-14
  54 3794.87 0.00000 1.82652e-13
  55 3794.87 0.00000 2.47957e-14
  56 3794.87 0.00000 -4.83171e-14
  57 3794.87 0.00000 5.09777e-13
  58 3794.87 0.00000 -8.56422e-14
  59 3794.87 0.00000 -3.85743e-14
  60 3794.87 0.00000 -3.63250e-13
  61 3794.87 0.00000 2.57094e-13
  62 3794.87 0.00000 -2.44762e-13
  63 3794.87 0.00000 1.93900e-13
  64 3794.87 0.00000 1.37696e-13
  65 3794.87 0.00000 1.58795e-14
  66 3794.87 0.00000 3.31403e-14
</Section>

newXOutput 83

<Section columns = "stress_xx | stress_yy | stress_xy">
  1 3842.44 0.00000 1.99579e-13
  2 3842.44 0.00000 8.78069e-14
  3 3842.44 0.00000 -2.12069e-13
  4 3842.44 0.00000 9.67081e-14
  5 3842.44 0.00000 2.14355e-13
  6 3842.44 0.00000 1.34042e-13
  7 3842.44 0.00000 -2.19021e-13
  8 3842.44 0.00000 -1.21742e-13
  9 3842.44 0.00000 2.13045e-13
  10 3842.44 0.00000 8.58126e-13
  11 3842.44 0.00000 8.20790e-14
  12 3842.44 0.00000 6.30622e-13
  13 3842.44 0.00000 6.22985e-13
  14 3842.44 0.00000 0.00000
  15 3842.44 0.00000 -1.54817e-14
  16 3842.44 0.00000 -2.85156e-13
  17 3842.44 0.00000 4.91166e-14
  18 3842.44 0.00000 3.46960e-13
  19 3842.44 0.00000 -3.56038e-13
  20 3842.44 0.00000 -2.18564e-13
  21 3842.44 0.00000 -2.59555e-13
  22 3842.44 0.00000 -2.27364e-13
  23 3842.44 0.00000 5.11760e-14
  24 3842.44 0.00000 -6.81902e-14
  25 3842.44 0.00000 1.91205e-13
  26 3842.44 0.00000 -2.32226e-14
  27 3842.44 0.00000 -1.54817e-14
  28 3842.44 0.00000 -6.03228e-14
  29 3842.44 0.00000 1.00056e-13
  30 3842.44 0.00000 -1.29805e-13
  31 3842.44 0.00000 2.52211e-13
  32 3842.44 0.00000 -2.18473e-13
  33 3842.44 0.00000 -6.26435e-13
  34 3842.44 0.00000 -4.29813e-14
  35 3842.44 0.00000 -2.25773e-13
  36 3842.44 0.00000 -4.99097e-13
  37 3842.44 0.00000 -1.54873e-13
  38 3842.44 0.00000 1.19003e-13
  39 3842.44 0.00000 -9.04580e-14
  40 3842.44 0.00000 2.19873e-13
  41 3842.44 0.00000 1.66684e-14
  42 3842.44 0.00000 -3.05959e-13
  43 3842.44 0.00000 -1.29925e-13
  44 3842.44 0.00000 7.23246e-14
  45 3842.44 0.00000 -1.25922e-13
  46 3842.44 0.00000 2.10443e-13
  47 3842.44 0.00000 -1.36406e-13
  48 3842.44 0.00000 -1.21933e-13
  49 3842.44 0.00000 -4.15820e-13
  50 3842.44 0.00000 -7.84276e-14
  51 3842.44 0.00000 -1.14829e-13
  52 3842.44 0.00000 5.45088e-14
  53 3842.44 0.00000 -1.44707e-13
  54 3842.44 0.00000 -5.44586e-13
  55 3842.44 0.00000 -9.66876e-14
  56 3842.44 0.00000 -4.29161e-13
  57 3842.44 0.00000 -9.75282e-14
  58 3842.44 0.00000 7.07757e-14
  59 3842.44 0.00000 1.00105e-14
  60 3842.44 0.00000 -2.58829e-13
  61 3842.44 0.00000 5.14579e-13
  62 3842.44 0.00000 4.76719e-14
  63 3842.44 0.00000 -7.54092e-14
  64 3842.44 0.00000 -3.42656e-13
  65 3842.44 0.00000 3.06048e-13
  66 3842.44 0.00000 -3.55873e-13
</Section>

newXOutput 84

<Section columns = "stress_xx | stress_yy | stress_xy">
  1 3890.06 0.00000 0.00000
  2 3890.06 0.00000 3.18251e-13
  3 3890.06 0.00000 3.34647e-13
  4 3890.06 0.00000 1.68226e-13
  5 3890.06 0.00000 9.65250e-14
  6 3890.06 0.00000 1.28700e-13
  7 3890.06 0.00000 5.49607e-14
  8 3890.06 0.00000 -4.52330e-14
  9 3890.06 0.00000 2.99091e-13
  10 3890.06 0.00000 2.61407e-13
  11 3890.06 0.00000 1.01600e-13
  12 3890.06 0.00000 5.87831e-13
  13 3890.06 0.00000 4.88176e-13
  14 3890.06 0.00000 7.70383e-14
  15 3890.06 0.00000 -1.30704e-13
  16 3890.06 0.00000 3.78653e-15
  17 3890.06 0.00000 7.60558e-13
  18 3890.06 0.00000 5.60943e-13
  19 3890.06 0.00000 -7.30506e-13
  20 3890.06 0.00000 -1.63617e-12
  21 3890.06 0.00000 -1.12023e-12
  22 3890.06 0.00000 -1.60442e-13
  23 3890.06 0.00000 -1.22261e-13
  24 3890.06 0.00000 2.54216e-13
  25 3890.06 0.00000 3.35217e-13
  26 3890.06 0.00000 -8.89519e-14
  27 3890.06 0.00000 0.00000
  28 3890.06 0.00000 -7.07274e-14
  29 3890.06 0.00000 -2.91094e-13
  30 3890.06 0.00000 -4.27898e-13
  31 3890.06 0.00000 1.44878e-13
  32 3890.06 0.00000 1.73127e-13
  33 3890.06 0.00000 -6.73736e-13
  34 3890.06 0.00000 -2.37270e-14
  35 3890.06 0.00000 -2.42352e-13
  36 3890.06 0.00000 -1.05086e-13
  37 3890.06 0.00000 2.76775e-14
  38 3890.06 0.00000 -1.00057e-13
  39 3890.06 0.00000 1.90293e-14
  40 3890.06 0.00000 -1.12575e-13
  41 3890.06 0.00000 2.08152e-14
  42 3890.06 0.00000 -2.83534e-13
  43 3890.06 0.00000 1.03526e-13
  44 3890.06 0.00000 -1.97980e-13
  45 3890.06 0.00000 1.15179e-15
  46 3890.06 0.00000 -7.75779e-14
  47 3890.06 0.00000 -1.99125e-13
  48 3890.06 0.00000 -1.23238e-13
  49 3890.06 0.00000 -2.78689e-13
  50 3890.06 0.00000 -1.67549e-13
  51 3890.06 0.00000 5.96691e-14
  52 3890.06 0.00000 -1.25069e-13
  53 3890.06 0.00000 -3.84072e-15
  54 3890.06 0.00000 -8.30112e-13
  55 3890.06 0.00000 -1.27194e-13
  56 3890.06 0.00000 1.63842e-13
  57 3890.06 0.00000 -1.14783e-13
  58 3890.06 0.00000 8.42498e-14
  59 3890.06 0.00000 -1.84592e-13
  60 3890.06 0.00000 -8.18912e-13
  61 3890.06 0.00000 4.82610e-14
  62 3890.06 0.00000 3.14895e-13
  63 3890.06 0.00000 -4.70303e-14
  64 3890.06 0.00000 7.11747e-13
  65 3890.06 0.00000 2.00866e-13
  66 3890.06 0.00000 -9.38287e-13
</Section>

newXOutput 85

<Section columns = "stress_xx | stress_yy | stress_xy">
  1 3937.72 0.00000 4.83811e-14
  2 3937.72 0.00000 -8.64632e-14
  3 3937.72 0.00000 6.63745e-13
  4 3937.72 0.00000 2.17457e-13
  5 3937.72 0.00000 8.68890e-14
  6 3937.72 0.00000 -1.68136e-13
  7 3937.72 0.00000 -6.86604e-15
  8 3937.72 0.00000 -6.45082e-14
  9 3937.72 0.00000 -3.76750e-13
  10 3937.72 0.00000 -3.87049e-13
  11 3937.72 0.00000 -4.40580e-13
  12 3937.72 0.00000 1.32875e-13
  13 3937.72 0.00000 5.16065e-13
  14 3937.72 0.00000 -5.73708e-13
  15 3937.72 0.00000 -1.48099e-14
  16 3937.72 0.00000 -2.59173e-14
  17 3937.72 0.00000 1.18929e-12
  18 3937.72 0.00000 5.10010e-13
  19 3937.72 0.00000 -2.19298e-13
  20 3937.72 0.00000 -2.74443e-13
  21 3937.72 0.00000 -5.62898e-13
  22 3937.72 0.00000 -2.80899e-13
  23 3937.72 0.00000 1.05213e-13
  24 3937.72 0.00000 3.89627e-13
  25 3937.72 0.00000 4.65676e-13
  26 3937.72 0.00000 -6.64376e-14
  27 3937.72 0.00000 0.00000
  28 3937.72 0.00000 -3.34882e-14
  29 3937.72 0.00000 -3.00945e-13
  30 3937.72 0.00000 -2.02040e-13
  31 3937.72 0.00000 1.74322e-13
  32 3937.72 0.00000 -2.51801e-13
  33 3937.72 0.00000 1.84618e-13
  34 3937.72 0.00000 -1.38523e-13
  35 3937.72 0.00000 -4.62037e-14
  36 3937.72 0.00000 -2.51358e-13
  37 3937.72 0.00000 -2.39751e-13
  38 3937.72 0.00000 -1.00157e-13
  39 3937.72 0.00000 2.52418e-14
  40 3937.72 0.00000 -2.77081e-13
  41 3937.72 0.00000 -2.35231e-13
  42 3937.72 0.00000 -2.49695e-13
  43 3937.72 0.00000 2.96623e-13
  44 3937.72 0.00000 -1.00960e-13
  45 3937.72 0.00000 -6.23821e-14
  46 3937.72 0.00000 -9.61475e-14
  47 3937.72 0.00000 -9.93299e-14
  48 3937.72 0.00000 -2.25734e-13
  49 3937.72 0.00000 -1.93479e-13
  50 3937.72 0.00000 -1.05179e-13
  51 3937.72 0.00000 1.03743e-13
  52 3937.72 0.00000 -4.55532e-14
  53 3937.72 0.00000 1.43209e-13
  54 3937.72 0.00000 -5.00438e-13
  55 3937.72 0.00000 -5.55371e-15
  56 3937.72 0.00000 2.98176e-13
  57 3937.72 0.00000 -2.68332e-13
  58 3937.72 0.00000 6.80881e-14
  59 3937.72 0.00000 -2.14950e-13
  60 3937.72 0.00000 2.65847e-13
  61 3937.72 0.00000 5.99515e-13
  62 3937.72 0.00000 2.63069e-13
  63 3937.72 0.00000 -3.31483e-14
  64 3937.72 0.00000 1.44035e-13
  65 3937.72 0.00000 -7.01966e-13
  66 3937.72 0.00000 -1.73218e-13
</Section>

newXOutput 86

<Section columns = "stress_xx | stress_yy | stress_xy">
  1 3985.44 0.00000 2.76923e-13
  2 3985.44 0.00000 3.71579e-13
  3 3985.44 0.00000 -3.28885e-13
  4 3985.44 0.00000 -3.28718e-13
  5 3985.44 0.00000 4.35290e-13
  6 3985.44 0.00000 7.75492e-13
  7 3985.44 0.00000 5.22993e-13
  8 3985.44 0.00000 -1.44807e-13
  9 3985.44 0.00000 -8.01833e-14
  10 3985.44 0.00000 -2.00001e-13
  11 3985.44 0.00000 1.80770e-13
  12 3985.44 0.00000 -8.90400e-13
  13 3985.44 0.00000 -5.85487e-13
  14 3985.44 0.00000 1.42982e-13
  15 3985.44 0.00000 1.44730e-14
  16 3985.44 0.00000 1.00359e-13
  17 3985.44 0.00000 -1.23179e-12
  18 3985.44 0.00000 -5.92331e-13
  19 3985.44 0.00000 7.52592e-14
  20 3985.44 0.00000 -2.35492e-13
  21 3985.44 0.00000 8.93548e-13
  22 3985.44 0.00000 1.09988e-12
  23 3985.44 0.00000 1.08914e-13
  24 3985.44 0.00000 -2.80365e-13
  25 3985.44 0.00000 -2.51227e-13
  26 3985.44 0.00000 1.04715e-13
  27 3985.44 0.00000 2.89460e-14
  28 3985.44 0.00000 1.21742e-13
  29 3985.44 0.00000 2.15800e-13
  30 3985.44 0.00000 1.22743e-13
  31 3985.44 0.00000 -3.18501e-13
  32 3985.44 0.00000 1.20993e-12
  33 3985.44 0.00000 5.94670e-13
  34 3985.44 0.00000 -2.14727e-14
  35 3985.44 0.00000 -1.21409e-13
  36 3985.44 0.00000 9.35980e-14
  37 3985.44 0.00000 -4.07256e-13
  38 3985.44 0.00000 1.24761e-14
  39 3985.44 0.00000 5.23906e-14
  40 3985.44 0.00000 -2.09041e-13
  41 3985.44 0.00000 2.08622e-13
  42 3985.44 0.00000 7.47814e-13
  43 3985.44 0.00000 4.57849e-13
  44 3985.44 0.00000 -1.42309e-14
  45 3985.44 0.00000 2.08443e-13
  46 3985.44 0.00000 4.96084e-14
  47 3985.44 0.00000 6.65289e-15
  48 3985.44 0.00000 4.96473e-13
  49 3985.44 0.00000 -5.40707e-14
  50 3985.44 0.00000 2.82852e-13
  51 3985.44 0.00000 -3.57981e-13
  52 3985.44 0.00000 -9.28070e-15
  53 3985.44 0.00000 2.56434e-13
  54 3985.44 0.00000 6.91250e-13
  55 3985.44 0.00000 1.40444e-13
  56 3985.44 0.00000 -3.29354e-13
  57 3985.44 0.00000 4.54372e-14
  58 3985.44 0.00000 -2.70732e-13
  59 3985.44 0.00000 3.89798e-13
  60 3985.44 0.00000 2.76679e-14
  61 3985.44 0.00000 2.82272e-14
  62 3985.44 0.00000 -8.90205e-13
  63 3985.44 0.00000 3.81540e-13
  64 3985.44 0.00000 -4.86636e-13
  65 3985.44 0.00000 1.42387e-13
  66 3985.44 0.00000 8.86916e-14
</Section>

newXOutput 87

<Section columns = "stress_xx | stress_yy | stress_xy">
  1 4033.22 0.00000 -1.33736e-13
  2 4033.22 0.00000 1.70229e-13
  3 4033.22 0.00000 -3.61512e-13
  4 4033.22 0.00000 5.57478e-14
  5 4033.22 0.00000 -1.62424e-14
  6 4033.22 0.00000 -1.94557e-13
  7 4033.22 0.00000 -3.49811e-13
  8 4033.22 0.00000 -5.75374e-13
  9 4033.22 0.00000 -3.04282e-14
  10 4033.22 0.00000 6.92832e-13
  11 4033.22 0.00000 3.94035e-13
  12 4033.22 0.00000 7.11780e-13
  13 4033.22 0.00000 6.88860e-13
  14 4033.22 0.00000 6.61665e-14
  15 4033.22 0.00000 1.41355e-14
  16 4033.22 0.00000 -7.08783e-14
  17 4033.22 0.00000 6.54765e-14
  18 4033.22 0.00000 -6.52220e-13
  19 4033.22 0.00000 -3.23027e-13
  20 4033.22 0.00000 -8.11652e-13
  21 4033.22 0.00000 -2.54963e-13
  22 4033.22 0.00000 -1.69687e-13
  23 4033.22 0.00000 -1.49982e-13
  24 4033.22 0.00000 1.45726e-13
  25 4033.22 0.00000 2.22647e-13
  26 4033.22 0.00000 -2.90403e-14
  27 4033.22 0.00000 0.00000
  28 4033.22 0.00000 2.88806e-14
  29 4033.22 0.00000 7.07544e-14
  30 4033.22 0.00000 4.53178e-13
  31 4033.22 0.00000 8.99461e-14
  32 4033.22 0.00000 4.57336e-13
  33 4033.22 0.00000 -1.94846e-13
  34 4033.22 0.00000 -6.36095e-15
  35 4033.22 0.00000 9.35179e-14
  36 4033.22 0.00000 3.29196e-13
  37 4033.22 0.00000 -5.76687e-13
  38 4033.22 0.00000 6.27621e-14
  39 4033.22 0.00000 -1.15108e-13
  40 4033.22 0.00000 -2.26103e-13
  41 4033.22 0.00000 2.86909e-13
  42 4033.22 0.00000 2.37378e-13
  43 4033.22 0.00000 8.34556e-14
  44 4033.22 0.00000 -1.36144e-13
  45 4033.22 0.00000 6.08130e-14
  46 4033.22 0.00000 4.24911e-14
  47 4033.22 0.00000 -3.00465e-13
  48 4033.22 0.00000 -2.10146e-13
  49 4033.22 0.00000 2.01106e-13
  50 4033.22 0.00000 1.68631e-13
  51 4033.22 0.00000 -4.78544e-15
  52 4033.22 0.00000 1.05904e-13
  53 4033.22 0.00000 1.03348e-13
  54 4033.22 0.00000 -3.09456e-13
  55 4033.22 0.00000 -7.94289e-14
  56 4033.22 0.00000 1.80191e-13
  57 4033.22 0.00000 1.82992e-14
  58 4033.22 0.00000 -4.69235e-15
  59 4033.22 0.00000 3.77656e-13
  60 4033.22 0.00000 1.83161e-13
  61 4033.22 0.00000 1.71451e-13
  62 4033.22 0.00000 -7.76395e-14
  63 4033.22 0.00000 -1.28032e-13
  64 4033.22 0.00000 -1.20220e-13
  65 4033.22 0.00000 1.93876e-13
  66 4033.22 0.00000 -3.02176e-13
</Section>

newXOutput 88

<Section columns = "stress_xx | stress_yy | stress_xy">
  1 4081.04 0.00000 -1.46979e-13
  2 4081.04 0.00000 -7.27700e-13
  3 4081.04 0.00000 6.22256e-13
  4 4081.04 0.00000 -9.58198e-14
  5 4081.04 0.00000 -2.18771e-13
  6 4081.04 0.00000 -4.78736e-13
  7 4081.04 0.00000 -7.36910e-14
  8 4081.04 0.00000 -4.34976e-14
  9 4081.04 0.00000 -2.01499e-13
  10 4081.04 0.00000 -1.33872e-12
  11 4081.04 0.00000 -9.00403e-13
  12 4081.04 0.00000 -5.85422e-13
  13 4081.04 0.00000 -9.09880e-13
  14 4081.04 0.00000 -6.85876e-14
  15 4081.04 0.00000 9.82351e-14
  16 4081.04 0.00000 -2.15991e-14
  17 4081.04 0.00000 6.24587e-13
  18 4081.04 0.00000 -1.15217e-13
  19 4081.04 0.00000 -2.18871e-13
  20 4081.04 0.00000 6.95597e-13
  21 4081.04 0.00000 -8.58301e-15
  22 4081.04 0.00000 6.69904e-14
  23 4081.04 0.00000 -1.69192e-13
  24 4081.04 0.00000 -4.24234e-13
  25 4081.04 0.00000 -4.40715e-13
  26 4081.04 0.00000 7.00892e-14
  27 4081.04 0.00000 2.75945e-14
  28 4081.04 0.00000 3.47953e-14
  29 4081.04 0.00000 -1.68653e-13
  30 4081.04 0.00000 1.07538e-13
  31 4081.04 0.00000 -5.83831e-14
  32 4081.04 0.00000 -1.90950e-13
  33 4081.04 0.00000 9.22708e-14
  34 4081.04 0.00000 1.60761e-13
  35 4081.04 0.00000 -1.74007e-13
  36 4081.04 0.00000 1.11768e-13
  37 4081.04 0.00000 -1.47130e-13
  38 4081.04 0.00000 9.95129e-15
  39 4081.04 0.00000 -1.75641e-13
  40 4081.04 0.00000 3.34575e-13
  41 4081.04 0.00000 -1.50334e-13
  42 4081.04 0.00000 -2.60864e-13
  43 4081.04 0.00000 -7.04977e-14
  44 4081.04 0.00000 -2.59485e-13
  45 4081.04 0.00000 -8.05421e-14
  46 4081.04 0.00000 2.35370e-13
  47 4081.04 0.00000 5.35954e-14
  48 4081.04 0.00000 -1.57925e-13
  49 4081.04 0.00000 -5.72349e-14
  50 4081.04 0.00000 -3.40840e-14
  51 4081.04 0.00000 -2.97988e-14
  52 4081.04 0.00000 -1.91680e-13
  53 4081.04 0.00000 4.92817e-14
  54 4081.04 0.00000 2.99306e-15
  55 4081.04 0.00000 -1.58461e-14
  56 4081.04 0.00000 1.45953e-13
  57 4081.04 0.00000 -7.66374e-14
  58 4081.04 0.00000 -5.25390e-14
  59 4081.04 0.00000 -2.46371e-13
  60 4081.04 0.00000 2.60907e-13
  61 4081.04 0.00000 -3.31756e-13
  62 4081.04 0.00000 -2.89470e-13
  63 4081.04 0.00000 -6.92309e-14
  64 4081.04 0.00000 2.25648e-13
  65 4081.04 0.00000 -5.63745e-13
  66 4081.04 0.00000 6.88390e-14
</Section>

newXOutput 89

<Section columns = "stress_xx | stress_yy | stress_xy">
  1 4128.93 0.00000 -4.88666e-14
  2 4128.93 0.00000 7.57306e-29
  3 4128.93 0.00000 -8.73873e-13
  4 4128.93 0.00000 2.25817e-13
  5 4128.93 0.00000 7.41277e-14
  6 4128.93 0.00000 2.79253e-13
  7 4128.93 0.00000 1.48599e-13
  8 4128.93 0.00000 3.25777e-13
  9 4128.93 0.00000 3.97662e-13
  10 4128.93 0.00000 -5.30585e-13
  11 4128.93 0.00000 -1.32923e-13
  12 4128.93 0.00000 6.48123e-14
  13 4128.93 0.00000 2.79253e-13
  14 4128.93 0.00000 -2.82894e-14
  15 4128.93 0.00000 1.10677e-13
  16 4128.93 0.00000 2.07025e-13
  17 4128.93 0.00000 -5.69408e-13
  18 4128.93 0.00000 4.74168e-14
  19 4128.93 0.00000 5.66195e-13
  20 4128.93 0.00000 1.24645e-12
  21 4128.93 0.00000 6.59199e-13
  22 4128.93 0.00000 -4.21636e-13
  23 4128.93 0.00000 -7.56810e-13
  24 4128.93 0.00000 -5.86976e-13
  25 4128.93 0.00000 1.43345e-13
  26 4128.93 0.00000 -4.48611e-15
  27 4128.93 0.00000 2.69167e-14
  28 4128.93 0.00000 1.03341e-13
  29 4128.93 0.00000 2.62913e-13
  30 4128.93 0.00000 3.56817e-13
  31 4128.93 0.00000 5.26317e-14
  32 4128.93 0.00000 -5.73048e-14
  33 4128.93 0.00000 -4.81937e-13
  34 4128.93 0.00000 2.78893e-13
  35 4128.93 0.00000 2.85214e-13
  36 4128.93 0.00000 6.70524e-13
  37 4128.93 0.00000 2.81114e-14
  38 4128.93 0.00000 8.28823e-14
  39 4128.93 0.00000 1.65372e-13
  40 4128.93 0.00000 3.69004e-13
  41 4128.93 0.00000 -4.37182e-14
  42 4128.93 0.00000 7.21048e-13
  43 4128.93 0.00000 -3.97009e-13
  44 4128.93 0.00000 7.87116e-14
  45 4128.93 0.00000 2.97083e-13
  46 4128.93 0.00000 3.84489e-13
  47 4128.93 0.00000 5.79424e-13
  48 4128.93 0.00000 4.44342e-14
  49 4128.93 0.00000 2.90657e-13
  50 4128.93 0.00000 8.89382e-14
  51 4128.93 0.00000 -6.65209e-13
  52 4128.93 0.00000 5.61130e-13
  53 4128.93 0.00000 -1.32923e-13
  54 4128.93 0.00000 6.76743e-13
  55 4128.93 0.00000 3.55531e-14
  56 4128.93 0.00000 -1.75929e-13
  57 4128.93 0.00000 -1.20923e-13
  58 4128.93 0.00000 2.52856e-13
  59 4128.93 0.00000 2.66237e-13
  60 4128.93 0.00000 6.73944e-13
  61 4128.93 0.00000 3.02620e-13
  62 4128.93 0.00000 2.82735e-13
  63 4128.93 0.00000 7.59043e-14
  64 4128.93 0.00000 -5.16901e-13
  65 4128.93 0.00000 4.27097e-13
  66 4128.93 0.00000 6.99018e-13
</Section>

newXOutput 90

<Section columns = "stress_xx | stress_yy | stress_xy">
  1 4176.87 0.00000 1.11100e-13
  2 4176.87 0.00000 -8.15032e-13
  3 4176.87 0.00000 -1.00199e-13
  4 4176.87 0.00000 4.07307e-15
  5 4176.87 0.00000 6.53210e-14
  6 4176.87 0.00000 -1.86949e-13
  7 4176.87 0.00000 1.06996e-13
  8 4176.87 0.00000 -1.38468e-13
  9 4176.87 0.00000 -2.24183e-13
  10 4176.87 0.00000 -1.37312e-12
  11 4176.87 0.00000 -3.85366e-13
  12 4176.87 0.00000 -6.41331e-14
  13 4176.87 0.00000 -8.60946e-13
  14 4176.87 0.00000 3.25417e-13
  15 4176.87 0.00000 1.31187e-14
  16 4176.87 0.00000 -1.44297e-13
  17 4176.87 0.00000 -5.27726e-13
  18 4176.87 0.00000 -1.49791e-13
  19 4176.87 0.00000 1.46460e-13
  20 4176.87 0.00000 2.95922e-13
  21 4176.87 0.00000 -1.14364e-13
  22 4176.87 0.00000 -2.69704e-13
  23 4176.87 0.00000 -1.31622e-13
  24 4176.87 0.00000 7.36737e-14
  25 4176.87 0.00000 1.64276e-13
  26 4176.87 0.00000 -1.01950e-13
  27 4176.87 0.00000 1.31187e-14
  28 4176.87 0.00000 -9.05971e-14
  29 4176.87 0.00000 1.02198e-13
  30 4176.87 0.00000 -4.47839e-13
  31 4176.87 0.00000 1.95765e-13
  32 4176.87 0.00000 -2.89683e-14
  33 4176.87 0.00000 -2.90188e-16
  34 4176.87 0.00000 -2.53826e-13
  35 4176.87 0.00000 -6.70179e-14
  36 4176.87 0.00000 5.80200e-13
  37 4176.87 0.00000 3.45731e-13
  38 4176.87 0.00000 5.48026e-14
  39 4176.87 0.00000 -1.51624e-13
  40 4176.87 0.00000 6.81372e-13
  41 4176.87 0.00000 3.53284e-13
  42 4176.87 0.00000 -1.57382e-13
  43 4176.87 0.00000 -1.57592e-13
  44 4176.87 0.00000 2.45399e-13
  45 4176.87 0.00000 -2.46581e-13
  46 4176.87 0.00000 1.02022e-14
  47 4176.87 0.00000 3.28685e-13
  48 4176.87 0.00000 -1.45707e-13
  49 4176.87 0.00000 1.23957e-13
  50 4176.87 0.00000 -1.76018e-13
  51 4176.87 0.00000 5.11149e-13
  52 4176.87 0.00000 7.47102e-14
  53 4176.87 0.00000 -4.79114e-13
  54 4176.87 0.00000 1.70136e-13
  55 4176.87 0.00000 1.56495e-14
  56 4176.87 0.00000 -7.51137e-14
  57 4176.87 0.00000 -2.88333e-13
  58 4176.87 0.00000 -1.83656e-13
  59 4176.87 0.00000 -1.19301e-13
  60 4176.87 0.00000 7.87810e-14
  61 4176.87 0.00000 -4.16609e-13
  62 4176.87 0.00000 -1.98154e-13
  63 4176.87 0.00000 1.13697e-13
  64 4176.87 0.00000 3.32988e-13
  65 4176.87 0.00000 -1.09337e-13
  66 4176.87 0.00000 2.18224e-13
</Section>

newXOutput 91

<Section columns = "stress_xx | stress_yy | stress_xy">
  1 4224.87 0.00000 -1.27785e-14
  2 4224.87 0.00000 2.47201e-13
  3 4224.87 0.00000 1.44228e-13
  4 4224.87 0.00000 -9.02064e-14
  5 4224.87 0.00000 3.27440e-13
  6 4224.87 0.00000 4.14037e-13
  7 4224.87 0.00000 -4.01826e-14
  8 4224.87 0.00000 -2.89544e-13
  9 4224.87 0.00000 1.45821e-13
  10 4224.87 0.00000 7.03455e-13
  11 4224.87 0.00000 4.75894e-14
  12 4224.87 0.00000 -3.80338e-13
  13 4224.87 0.00000 1.09867e-13
  14 4224.87 0.00000 -2.44914e-13
  15 4224.87 0.00000 2.55569e-14
  16 4224.87 0.00000 6.38923e-15
  17 4224.87 0.00000 -9.40592e-15
  18 4224.87 0.00000 -1.29778e-12
  19 4224.87 0.00000 -3.29557e-13
  20 4224.87 0.00000 3.77811e-14
  21 4224.87 0.00000 2.28656e-13
  22 4224.87 0.00000 6.07923e-14
  23 4224.87 0.00000 -4.38219e-14
  24 4224.87 0.00000 -2.61586e-13
  25 4224.87 0.00000 -2.68877e-13
  26 4224.87 0.00000 -3.17576e-14
  27 4224.87 0.00000 -3.78653e-29
  28 4224.87 0.00000 -2.02326e-14
  29 4224.87 0.00000 -2.33967e-13
  30 4224.87 0.00000 3.88277e-13
  31 4224.87 0.00000 -1.44604e-13
  32 4224.87 0.00000 2.99362e-13
  33 4224.87 0.00000 -8.32148e-13
  34 4224.87 0.00000 5.43784e-14
  35 4224.87 0.00000 -3.15907e-13
  36 4224.87 0.00000 5.48897e-13
  37 4224.87 0.00000 -3.15535e-14
  38 4224.87 0.00000 1.50754e-13
  39 4224.87 0.00000 -3.64840e-14
  40 4224.87 0.00000 -5.07765e-14
  41 4224.87 0.00000 3.38570e-13
  42 4224.87 0.00000 -2.52632e-14
  43 4224.87 0.00000 -4.00033e-13
  44 4224.87 0.00000 -1.94300e-13
  45 4224.87 0.00000 -5.45880e-14
  46 4224.87 0.00000 9.46791e-14
  47 4224.87 0.00000 7.86037e-14
  48 4224.87 0.00000 -5.76541e-14
  49 4224.87 0.00000 1.14933e-13
  50 4224.87 0.00000 1.01340e-14
  51 4224.87 0.00000 -2.26949e-13
  52 4224.87 0.00000 -1.41851e-13
  53 4224.87 0.00000 2.61873e-13
  54 4224.87 0.00000 -3.19318e-13
  55 4224.87 0.00000 3.11467e-14
  56 4224.87 0.00000 2.38135e-13
  57 4224.87 0.00000 -1.91758e-13
  58 4224.87 0.00000 -1.61737e-13
  59 4224.87 0.00000 3.33115e-14
  60 4224.87 0.00000 4.90604e-13
  61 4224.87 0.00000 -4.98770e-13
  62 4224.87 0.00000 -4.80940e-13
  63 4224.87 0.00000 2.50891e-13
  64 4224.87 0.00000 -7.35164e-13
  65 4224.87 0.00000 6.61682e-13
  66 4224.87 0.00000 1.22550e-13
</Section>

newXOutput 92

<Section columns = "stress_xx | stress_yy | stress_xy">
  1 4272.93 0.00000 1.43398e-13
  2 4272.93 0.00000 -4.75657e-13
  3 4272.93 0.00000 1.14772e-12
  4 4272.93 0.00000 4.87707e-14
  5 4272.93 0.00000 2.52153e-13
  6 4272.93 0.00000 2.95454e-13
  7 4272.93 0.00000 3.05927e-13
  8 4272.93 0.00000 1.85792e-13
  9 4272.93 0.00000 -1.87479e-13
  10 4272.93 0.00000 -3.12221e-13
  11 4272.93 0.00000 -5.42723e-13
  12 4272.93 0.00000 -9.86257e-13
  13 4272.93 0.00000 -6.56565e-13
  14 4272.93 0.00000 -3.79875e-13
  15 4272.93 0.00000 -1.06593e-13
  16 4272.93 0.00000 -2.52566e-13
  17 4272.93 0.00000 1.66962e-12
  18 4272.93 0.00000 5.53670e-13
  19 4272.93 0.00000 3.81584e-13
  20 4272.93 0.00000 6.95602e-15
  21 4272.93 0.00000 3.55554e-13
  22 4272.93 0.00000 2.20659e-13
  23 4272.93 0.00000 -2.85076e-13
  24 4272.93 0.00000 -8.26019e-14
  25 4272.93 0.00000 -1.97947e-15
  26 4272.93 0.00000 -1.11776e-14
  27 4272.93 0.00000 1.24375e-14
  28 4272.93 0.00000 3.40881e-14
  29 4272.93 0.00000 -2.17957e-13
  30 4272.93 0.00000 7.55144e-13
  31 4272.93 0.00000 -1.03885e-13
  32 4272.93 0.00000 -6.63269e-14
  33 4272.93 0.00000 -7.88773e-14
  34 4272.93 0.00000 1.49520e-14
  35 4272.93 0.00000 -3.56378e-13
  36 4272.93 0.00000 -1.48382e-13
  37 4272.93 0.00000 -2.81465e-13
  38 4272.93 0.00000 -2.92993e-13
  39 4272.93 0.00000 -1.10222e-13
  40 4272.93 0.00000 -1.56649e-13
  41 4272.93 0.00000 2.70063e-13
  42 4272.93 0.00000 4.39340e-13
  43 4272.93 0.00000 -1.62685e-14
  44 4272.93 0.00000 -3.76071e-14
  45 4272.93 0.00000 -1.91339e-13
  46 4272.93 0.00000 -1.35660e-13
  47 4272.93 0.00000 4.10739e-13
  48 4272.93 0.00000 5.56129e-13
  49 4272.93 0.00000 -6.89617e-13
  50 4272.93 0.00000 -8.38014e-14
  51 4272.93 0.00000 2.44175e-13
  52 4272.93 0.00000 -4.28744e-13
  53 4272.93 0.00000 6.88059e-13
  54 4272.93 0.00000 -4.58525e-13
  55 4272.93 0.00000 -6.77294e-14
  56 4272.93 0.00000 5.60074e-13
  57 4272.93 0.00000 -1.85792e-13
  58 4272.93 0.00000 -4.66742e-14
  59 4272.93 0.00000 -1.58547e-13
  60 4272.93 0.00000 -2.43196e-13
  61 4272.93 0.00000 -2.74115e-13
  62 4272.93 0.00000 -4.17195e-14
  63 4272.93 0.00000 -4.08042e-14
  64 4272.93 0.00000 1.01883e-12
  65 4272.93 0.00000 -4.13571e-13
  66 4272.93 0.00000 -3.23476e-13
</Section>

newXOutput 93

<Section columns = "stress_xx | stress_yy | stress_xy">
  1 4321.05 0.00000 -6.14656e-14
  2 4321.05 0.00000 2.71526e-13
  3 4321.05 0.00000 9.23354e-14
  4 4321.05 0.00000 1.35390e-13
  5 4321.05 0.00000 -7.76298e-14
  6 4321.05 0.00000 1.18032e-14
  7 4321.05 0.00000 4.47165e-14
  8 4321.05 0.00000 1.19850e-13
  9 4321.05 0.00000 -4.83906e-13
  10 4321.05 0.00000 -5.04416e-13
  11 4321.05 0.00000 9.32670e-13
  12 4321.05 0.00000 1.60004e-12
  13 4321.05 0.00000 5.99583e-13
  14 4321.05 0.00000 -3.99618e-13
  15 4321.05 0.00000 0.00000
  16 4321.05 0.00000 3.95586e-13
  17 4321.05 0.00000 -5.69396e-13
  18 4321.05 0.00000 -1.02863e-12
  19 4321.05 0.00000 -1.05794e-12
  20 4321.05 0.00000 -1.47357e-12
  21 4321.05 0.00000 -4.36636e-13
  22 4321.05 0.00000 -1.39279e-13
  23 4321.05 0.00000 -1.57391e-13
  24 4321.05 0.00000 -5.56236e-14
  25 4321.05 0.00000 1.63283e-13
  26 4321.05 0.00000 4.32443e-15
  27 4321.05 0.00000 2.41915e-14
  28 4321.05 0.00000 3.79532e-14
  29 4321.05 0.00000 -1.51002e-13
  30 4321.05 0.00000 -5.55267e-14
  31 4321.05 0.00000 2.48896e-14
  32 4321.05 0.00000 2.10168e-13
  33 4321.05 0.00000 2.30364e-13
  34 4321.05 0.00000 -8.23922e-14
  35 4321.05 0.00000 -5.58125e-14
  36 4321.05 0.00000 4.22911e-13
  37 4321.05 0.00000 4.22665e-13
  38 4321.05 0.00000 4.56015e-14
  39 4321.05 0.00000 2.77731e-14
  40 4321.05 0.00000 4.06347e-14
  41 4321.05 0.00000 1.50955e-13
  42 4321.05 0.00000 -1.87721e-13
  43 4321.05 0.00000 7.84588e-13
  44 4321.05 0.00000 -5.02932e-14
  45 4321.05 0.00000 -5.86540e-14
  46 4321.05 0.00000 -3.24739e-14
  47 4321.05 0.00000 -2.54967e-13
  48 4321.05 0.00000 2.16418e-13
  49 4321.05 0.00000 2.50880e-13
  50 4321.05 0.00000 -3.66631e-14
  51 4321.05 0.00000 7.71904e-14
  52 4321.05 0.00000 6.81345e-16
  53 4321.05 0.00000 -3.11049e-14
  54 4321.05 0.00000 -6.19726e-13
  55 4321.05 0.00000 -3.62949e-14
  56 4321.05 0.00000 1.97528e-13
  57 4321.05 0.00000 -7.25012e-14
  58 4321.05 0.00000 3.41269e-14
  59 4321.05 0.00000 -1.72432e-13
  60 4321.05 0.00000 8.24967e-13
  61 4321.05 0.00000 9.17074e-13
  62 4321.05 0.00000 2.42941e-14
  63 4321.05 0.00000 2.23426e-14
  64 4321.05 0.00000 -9.46888e-13
  65 4321.05 0.00000 -1.41777e-13
  66 4321.05 0.00000 -3.77353e-13
</Section>

newXOutput 94

<Section columns = "stress_xx | stress_yy | stress_xy">
  1 4369.23 0.00000 0.00000
  2 4369.23 0.00000 2.41050e-13
  3 4369.23 0.00000 -1.19073e-13
  4 4369.23 0.00000 1.42759e-13
  5 4369.23 0.00000 1.30328e-14
  6 4369.23 0.00000 -5.91496e-15
  7 4369.23 0.00000 2.12346e-13
  8 4369.23 0.00000 -1.11729e-13
  9 4369.23 0.00000 4.82215e-13
  10 4369.23 0.00000 1.17022e-12
  11 4369.23 0.00000 2.19522e-13
  12 4369.23 0.00000 5.31979e-13
  13 4369.23 0.00000 4.74418e-13
  14 4369.23 0.00000 -7.83554e-15
  15 4369.23 0.00000 -2.35066e-14
  16 4369.23 0.00000 -9.79443e-15
  17 4369.23 0.00000 -6.54189e-13
  18 4369.23 0.00000 -5.81331e-13
  19 4369.23 0.00000 -4.12155e-13
  20 4369.23 0.00000 -6.55652e-13
  21 4369.23 0.00000 3.00519e-13
  22 4369.23 0.00000 1.16211e-12
  23 4369.23 0.00000 4.62223e-13
  24 4369.23 0.00000 4.09702e-13
  25 4369.23 0.00000 5.52841e-13
  26 4369.23 0.00000 -1.20243e-13
  27 4369.23 0.00000 0.00000
  28 4369.23 0.00000 -6.89364e-14
  29 4369.23 0.00000 -2.07699e-13
  30 4369.23 0.00000 -1.39885e-13
  31 4369.23 0.00000 6.93762e-17
  32 4369.23 0.00000 6.22837e-13
  33 4369.23 0.00000 -6.61539e-13
  34 4369.23 0.00000 -2.32141e-13
  35 4369.23 0.00000 -1.51445e-14
  36 4369.23 0.00000 -1.28152e-13
  37 4369.23 0.00000 -2.63674e-13
  38 4369.23 0.00000 8.16203e-14
  39 4369.23 0.00000 3.36651e-14
  40 4369.23 0.00000 -1.43016e-14
  41 4369.23 0.00000 1.37999e-13
  42 4369.23 0.00000 2.52182e-13
  43 4369.23 0.00000 -2.20525e-13
  44 4369.23 0.00000 -3.37980e-14
  45 4369.23 0.00000 -3.03097e-14
  46 4369.23 0.00000 1.00551e-13
  47 4369.23 0.00000 -8.48085e-14
  48 4369.23 0.00000 2.86028e-13
  49 4369.23 0.00000 -3.01115e-13
  50 4369.23 0.00000 -1.46801e-13
  51 4369.23 0.00000 5.16828e-13
  52 4369.23 0.00000 -2.48587e-13
  53 4369.23 0.00000 1.09713e-13
  54 4369.23 0.00000 -1.80412e-13
  55 4369.23 0.00000 -4.27628e-15
  56 4369.23 0.00000 -1.38048e-13
  57 4369.23 0.00000 -2.07180e-14
  58 4369.23 0.00000 1.47235e-14
  59 4369.23 0.00000 -1.29176e-13
  60 4369.23 0.00000 -3.80391e-13
  61 4369.23 0.00000 2.08053e-13
  62 4369.23 0.00000 1.99297e-13
  63 4369.23 0.00000 -1.16188e-14
  64 4369.23 0.00000 -4.09164e-13
  65 4369.23 0.00000 2.51198e-13
  66 4369.23 0.00000 -2.80133e-13
</Section>

newXOutput 95

<Section columns = "stress_xx | stress_yy | stress_xy">
  1 4417.48 0.00000 7.96637e-14
  2 4417.48 0.00000 -6.06305e-13
  3 4417.48 0.00000 7.11134e-13
  4 4417.48 0.00000 1.48356e-13
  5 4417.48 0.00000 1.78490e-13
  6 4417.48 0.00000 1.65428e-13
  7 4417.48 0.00000 -3.50879e-13
  8 4417.48 0.00000 -2.72291e-13
  9 4417.48 0.00000 -8.81901e-13
  10 4417.48 0.00000 -1.29917e-12
  11 4417.48 0.00000 -3.91645e-13
  12 4417.48 0.00000 -7.96637e-14
  13 4417.48 0.00000 -1.65557e-12
  14 4417.48 0.00000 3.70903e-13
  15 4417.48 0.00000 -1.14101e-14
  16 4417.48 0.00000 -3.93654e-13
  17 4417.48 0.00000 1.06391e-12
  18 4417.48 0.00000 2.57010e-13
  19 4417.48 0.00000 2.24111e-13
  20 4417.48 0.00000 -3.47226e-13
  21 4417.48 0.00000 6.96894e-14
  22 4417.48 0.00000 3.51193e-13
  23 4417.48 0.00000 5.99705e-13
  24 4417.48 0.00000 2.11557e-13
  25 4417.48 0.00000 -1.36137e-13
  26 4417.48 0.00000 4.48571e-14
  27 4417.48 0.00000 -2.28203e-14
  28 4417.48 0.00000 -2.25705e-14
  29 4417.48 0.00000 -4.77256e-13
  30 4417.48 0.00000 -1.77311e-13
  31 4417.48 0.00000 -3.58162e-13
  32 4417.48 0.00000 -3.07414e-13
  33 4417.48 0.00000 -8.06963e-14
  34 4417.48 0.00000 -7.38246e-15
  35 4417.48 0.00000 -5.49507e-13
  36 4417.48 0.00000 3.03346e-13
  37 4417.48 0.00000 1.29014e-13
  38 4417.48 0.00000 -3.48388e-13
  39 4417.48 0.00000 1.89430e-13
  40 4417.48 0.00000 -2.68045e-13
  41 4417.48 0.00000 -6.87434e-14
  42 4417.48 0.00000 1.85550e-13
  43 4417.48 0.00000 4.12659e-14
  44 4417.48 0.00000 -3.88696e-13
  45 4417.48 0.00000 5.25549e-14
  46 4417.48 0.00000 -4.40654e-13
  47 4417.48 0.00000 1.67930e-13
  48 4417.48 0.00000 2.75486e-13
  49 4417.48 0.00000 8.92988e-14
  50 4417.48 0.00000 -1.69998e-13
  51 4417.48 0.00000 -9.34243e-13
  52 4417.48 0.00000 -5.21905e-13
  53 4417.48 0.00000 -4.58523e-13
  54 4417.48 0.00000 4.14833e-13
  55 4417.48 0.00000 -2.19811e-13
  56 4417.48 0.00000 1.99545e-13
  57 4417.48 0.00000 -1.49853e-13
  58 4417.48 0.00000 5.79411e-14
  59 4417.48 0.00000 -3.11292e-13
  60 4417.48 0.00000 1.20299e-13
  61 4417.48 0.00000 -2.86789e-13
  62 4417.48 0.00000 1.85751e-13
  63 4417.48 0.00000 -1.96672e-13
  64 4417.48 0.00000 1.09344e-13
  65 4417.48 0.00000 -3.25826e-13
  66 4417.48 0.00000 1.56602e-14
</Section>

newXOutput 96

<Section columns = "stress_xx | stress_yy | stress_xy">
  1 4465.79 0.00000 -1.38212e-13
  2 4465.79 0.00000 7.89758e-14
  3 4465.79 0.00000 7.05304e-13
  4 4465.79 0.00000 1.01137e-13
  5 4465.79 0.00000 -2.32210e-13
  6 4465.79 0.00000 -1.65865e-13
  7 4465.79 0.00000 6.00280e-14
  8 4465.79 0.00000 3.78062e-13
  9 4465.79 0.00000 4.77051e-13
  10 4465.79 0.00000 3.19099e-13
  11 4465.79 0.00000 2.51189e-13
  12 4465.79 0.00000 -1.33636e-12
  13 4465.79 0.00000 -1.28271e-12
  14 4465.79 0.00000 -9.05462e-14
  15 4465.79 0.00000 -1.10662e-14
  16 4465.79 0.00000 2.48784e-13
  17 4465.79 0.00000 9.98452e-13
  18 4465.79 0.00000 -2.16113e-13
  19 4465.79 0.00000 -5.64566e-13
  20 4465.79 0.00000 7.50866e-13
  21 4465.79 0.00000 1.35438e-12
  22 4465.79 0.00000 4.45297e-13
  23 4465.79 0.00000 4.45721e-13
  24 4465.79 0.00000 2.65095e-13
  25 4465.79 0.00000 6.14551e-14
  26 4465.79 0.00000 -7.16296e-14
  27 4465.79 0.00000 -2.21324e-14
  28 4465.79 0.00000 1.27159e-13
  29 4465.79 0.00000 -1.08187e-13
  30 4465.79 0.00000 1.45042e-13
  31 4465.79 0.00000 6.60896e-14
  32 4465.79 0.00000 4.21671e-13
  33 4465.79 0.00000 2.05363e-13
  34 4465.79 0.00000 -1.76417e-13
  35 4465.79 0.00000 2.02978e-13
  36 4465.79 0.00000 -2.86062e-13
  37 4465.79 0.00000 1.22205e-13
  38 4465.79 0.00000 1.77486e-14
  39 4465.79 0.00000 3.20467e-13
  40 4465.79 0.00000 1.85637e-13
  41 4465.79 0.00000 7.93805e-13
  42 4465.79 0.00000 1.72538e-13
  43 4465.79 0.00000 -1.21350e-13
  44 4465.79 0.00000 3.09990e-14
  45 4465.79 0.00000 -2.51185e-14
  46 4465.79 0.00000 3.28436e-13
  47 4465.79 0.00000 -4.06682e-14
  48 4465.79 0.00000 7.93143e-13
  49 4465.79 0.00000 8.54151e-14
  50 4465.79 0.00000 1.40053e-14
  51 4465.79 0.00000 -2.56661e-13
  52 4465.79 0.00000 4.18307e-14
  53 4465.79 0.00000 1.04080e-13
  54 4465.79 0.00000 -1.03260e-13
  55 4465.79 0.00000 2.11974e-14
  56 4465.79 0.00000 1.29657e-13
  57 4465.79 0.00000 1.71663e-13
  58 4465.79 0.00000 1.72643e-14
  59 4465.79 0.00000 -1.87838e-13
  60 4465.79 0.00000 -1.48241e-13
  61 4465.79 0.00000 -3.07409e-13
  62 4465.79 0.00000 1.78889e-13
  63 4465.79 0.00000 -2.08989e-13
  64 4465.79 0.00000 -3.61991e-13
  65 4465.79 0.00000 4.95231e-13
  66 4465.79 0.00000 9.87109e-13
</Section>

newXOutput 97

<Section columns = "stress_xx | stress_yy | stress_xy">
  1 4514.17 0.00000 2.31757e-13
  2 4514.17 0.00000 -7.98264e-13
  3 4514.17 0.00000 -3.59727e-13
  4 4514.17 0.00000 -1.24145e-14
  5 4514.17 0.00000 6.22725e-13
  6 4514.17 0.00000 9.41521e-13
  7 4514.17 0.00000 9.72251e-13
  8 4514.17 0.00000 2.26178e-13
  9 4514.17 0.00000 -3.45030e-13
  10 4514.17 0.00000 1.11983e-12
  11 4514.17 0.00000 -2.29499e-13
  12 4514.17 0.00000 9.92733e-13
  13 4514.17 0.00000 2.13897e-13
  14 4514.17 0.00000 0.00000
  15 4514.17 0.00000 -1.07215e-14
  16 4514.17 0.00000 1.94241e-13
  17 4514.17 0.00000 9.09089e-13
  18 4514.17 0.00000 4.47396e-13
  19 4514.17 0.00000 -5.64239e-14
  20 4514.17 0.00000 -2.94867e-13
  21 4514.17 0.00000 -8.41071e-13
  22 4514.17 0.00000 4.35518e-13
  23 4514.17 0.00000 -4.54009e-13
  24 4514.17 0.00000 -3.06411e-13
  25 4514.17 0.00000 3.78289e-13
  26 4514.17 0.00000 7.05944e-14
  27 4514.17 0.00000 -2.13416e-13
  28 4514.17 0.00000 -1.20553e-13
  29 4514.17 0.00000 5.86598e-13
  30 4514.17 0.00000 1.14111e-13
  31 4514.17 0.00000 3.27618e-13
  32 4514.17 0.00000 -6.26152e-14
  33 4514.17 0.00000 -4.34152e-13
  34 4514.17 0.00000 4.33851e-13
  35 4514.17 0.00000 -1.12371e-13
  36 4514.17 0.00000 3.45375e-13
  37 4514.17 0.00000 -3.36728e-13
  38 4514.17 0.00000 7.26130e-13
  39 4514.17 0.00000 -3.55414e-14
  40 4514.17 0.00000 1.50860e-13
  41 4514.17 0.00000 -5.57857e-13
  42 4514.17 0.00000 -6.50483e-14
  43 4514.17 0.00000 1.39068e-13
  44 4514.17 0.00000 3.71100e-14
  45 4514.17 0.00000 6.04315e-13
  46 4514.17 0.00000 2.15588e-14
  47 4514.17 0.00000 1.38915e-13
  48 4514.17 0.00000 -4.13358e-13
  49 4514.17 0.00000 1.48042e-13
  50 4514.17 0.00000 5.12331e-14
  51 4514.17 0.00000 5.58935e-13
  52 4514.17 0.00000 6.12174e-13
  53 4514.17 0.00000 -6.53134e-14
  54 4514.17 0.00000 -4.67556e-14
  55 4514.17 0.00000 2.18868e-13
  56 4514.17 0.00000 1.59994e-13
  57 4514.17 0.00000 -1.09761e-13
  58 4514.17 0.00000 2.55238e-13
  59 4514.17 0.00000 1.47102e-13
  60 4514.17 0.00000 2.01558e-13
  61 4514.17 0.00000 1.19863e-12
  62 4514.17 0.00000 -7.96944e-14
  63 4514.17 0.00000 9.28270e-13
  64 4514.17 0.00000 -3.97357e-13
  65 4514.17 0.00000 -4.37829e-14
  66 4514.17 0.00000 -6.28990e-13
</Section>

newXOutput 98

<Section columns = "stress_xx | stress_yy | stress_xy">
  1 4562.62 0.00000 -2.89773e-13
  2 4562.62 0.00000 0.00000
  3 4562.62 0.00000 -1.76737e-12
  4 4562.62 0.00000 1.62620e-14
  5 4562.62 0.00000 -4.11757e-13
  6 4562.62 0.00000 -3.40888e-13
  7 4562.62 0.00000 -1.77179e-14
  8 4562.62 0.00000 -6.66998e-14
  9 4562.62 0.00000 -3.38947e-13
  10 4562.62 0.00000 2.27192e-28
  11 4562.62 0.00000 -3.61401e-13
  12 4562.62 0.00000 5.41745e-13
  13 4562.62 0.00000 4.60076e-13
  14 4562.62 0.00000 2.59882e-13
  15 4562.62 0.00000 -2.07521e-14
  16 4562.62 0.00000 2.63340e-13
  17 4562.62 0.00000 -1.28221e-12
  18 4562.62 0.00000 3.47311e-13
  19 4562.62 0.00000 -1.36495e-13
  20 4562.62 0.00000 -6.48740e-13
  21 4562.62 0.00000 -6.06858e-13
  22 4562.62 0.00000 3.69618e-13
  23 4562.62 0.00000 9.03184e-14
  24 4562.62 0.00000 3.18765e-13
  25 4562.62 0.00000 1.78439e-13
  26 4562.62 0.00000 1.11560e-13
  27 4562.62 0.00000 0.00000
  28 4562.62 0.00000 9.02683e-14
  29 4562.62 0.00000 1.88423e-13
  30 4562.62 0.00000 -1.93778e-14
  31 4562.62 0.00000 2.02133e-13
  32 4562.62 0.00000 -2.86362e-13
  33 4562.62 0.00000 1.01497e-13
  34 4562.62 0.00000 2.51029e-13
  35 4562.62 0.00000 -2.86298e-14
  36 4562.62 0.00000 -3.54934e-13
  37 4562.62 0.00000 -5.51079e-14
  38 4562.62 0.00000 -1.03974e-13
  39 4562.62 0.00000 4.66941e-13
  40 4562.62 0.00000 1.94449e-13
  41 4562.62 0.00000 -4.98087e-14
  42 4562.62 0.00000 6.04080e-15
  43 4562.62 0.00000 -1.69304e-13
  44 4562.62 0.00000 -2.16051e-13
  45 4562.62 0.00000 3.31916e-13
  46 4562.62 0.00000 -8.16889e-14
  47 4562.62 0.00000 -4.65342e-13
  48 4562.62 0.00000 1.53114e-13
  49 4562.62 0.00000 4.54965e-13
  50 4562.62 0.00000 1.32407e-13
  51 4562.62 0.00000 1.85394e-13
  52 4562.62 0.00000 1.44222e-14
  53 4562.62 0.00000 -1.51622e-13
  54 4562.62 0.00000 -1.90605e-13
  55 4562.62 0.00000 -1.29100e-13
  56 4562.62 0.00000 -5.58070e-13
  57 4562.62 0.00000 3.74235e-14
  58 4562.62 0.00000 1.33182e-13
  59 4562.62 0.00000 2.25842e-13
  60 4562.62 0.00000 -4.12918e-13
  61 4562.62 0.00000 3.98918e-13
  62 4562.62 0.00000 2.55659e-13
  63 4562.62 0.00000 -1.83045e-13
  64 4562.62 0.00000 -5.75731e-13
  65 4562.62 0.00000 -2.50081e-13
  66 4562.62 0.00000 -5.17489e-13
</Section>

newXOutput 99

<Section columns = "stress_xx | stress_yy | stress_xy">
  1 4611.14 0.00000 1.50496e-13
  2 4611.14 0.00000 2.87553e-13
  3 4611.14 0.00000 -6.00004e-13
  4 4611.14 0.00000 1.32806e-13
  5 4611.14 0.00000 6.28677e-13
  6 4611.14 0.00000 2.56362e-13
  7 4611.14 0.00000 -1.22604e-13
  8 4611.14 0.00000 4.36933e-13
  9 4611.14 0.00000 2.50788e-13
  10 4611.14 0.00000 -9.93174e-13
  11 4611.14 0.00000 3.42529e-14
  12 4611.14 0.00000 -2.79778e-13
  13 4611.14 0.00000 4.83764e-13
  14 4611.14 0.00000 -2.22934e-13
  15 4611.14 0.00000 -8.69329e-14
  16 4611.14 0.00000 2.31269e-13
  17 4611.14 0.00000 -1.22314e-12
  18 4611.14 0.00000 -1.80176e-13
  19 4611.14 0.00000 1.87146e-13
  20 4611.14 0.00000 3.50829e-13
  21 4611.14 0.00000 3.60956e-13
  22 4611.14 0.00000 -1.30639e-13
  23 4611.14 0.00000 -5.53893e-13
  24 4611.14 0.00000 -1.53262e-13
  25 4611.14 0.00000 2.10257e-13
  26 4611.14 0.00000 -1.22616e-13
  27 4611.14 0.00000 -2.00597e-14
  28 4611.14 0.00000 4.79254e-14
  29 4611.14 0.00000 -1.48391e-14
  30 4611.14 0.00000 1.59282e-13
  31 4611.14 0.00000 -3.23246e-13
  32 4611.14 0.00000 3.89837e-13
  33 4611.14 0.00000 3.95585e-13
  34 4611.14 0.00000 -2.41017e-13
  35 4611.14 0.00000 -2.89929e-13
  36 4611.14 0.00000 6.98543e-13
  37 4611.14 0.00000 -4.89149e-14
  38 4611.14 0.00000 -1.20899e-13
  39 4611.14 0.00000 -2.00169e-13
  40 4611.14 0.00000 -2.98135e-14
  41 4611.14 0.00000 2.46105e-13
  42 4611.14 0.00000 -6.10191e-14
  43 4611.14 0.00000 6.74625e-13
  44 4611.14 0.00000 -1.48919e-13
  45 4611.14 0.00000 -1.31152e-13
  46 4611.14 0.00000 1.55149e-13
  47 4611.14 0.00000 1.90967e-13
  48 4611.14 0.00000 1.23739e-13
  49 4611.14 0.00000 -2.46830e-13
  50 4611.14 0.00000 -1.29165e-13
  51 4611.14 0.00000 -4.58913e-13
  52 4611.14 0.00000 1.37735e-13
  53 4611.14 0.00000 1.57441e-13
  54 4611.14 0.00000 1.85576e-13
  55 4611.14 0.00000 1.12029e-13
  56 4611.14 0.00000 3.21378e-13
  57 4611.14 0.00000 1.52144e-13
  58 4611.14 0.00000 -4.05911e-14
  59 4611.14 0.00000 -1.38642e-13
  60 4611.14 0.00000 -8.64437e-14
  61 4611.14 0.00000 5.31359e-13
  62 4611.14 0.00000 -9.37481e-14
  63 4611.14 0.00000 9.26221e-14
  64 4611.14 0.00000 8.73105e-13
  65 4611.14 0.00000 -3.18018e-13
  66 4611.14 0.00000 7.54219e-13
</Section>

newXOutput 100

<Section columns = "stress_xx | stress_yy | stress_xy">
  1 4659.72 0.00000 -2.14904e-13
  2 4659.72 0.00000 3.13892e-13
  3 4659.72 0.00000 1.84020e-13
  4 4659.72 0.00000 -1.02156e-13
  5 4659.72 0.00000 -3.01770e-13
  6 4659.72 0.00000 -2.62853e-13
  7 4659.72 0.00000 -7.35152e-14
  8 4659.72 0.00000 2.03874e-13
  9 4659.72 0.00000 5.51364e-14
  10 4659.72 0.00000 2.09261e-13
  11 4659.72 0.00000 -4.74740e-14
  12 4659.72 0.00000 -6.23464e-13
  13 4659.72 0.00000 -6.43662e-14
  14 4659.72 0.00000 2.68240e-13
  15 4659.72 0.00000 -9.68280e-15
  16 4659.72 0.00000 -1.42839e-13
  17 4659.72 0.00000 -4.70734e-13
  18 4659.72 0.00000 -4.78232e-13
  19 4659.72 0.00000 -8.75808e-13
  20 4659.72 0.00000 -1.33827e-12
  21 4659.72 0.00000 1.56474e-13
  22 4659.72 0.00000 8.17354e-13
  23 4659.72 0.00000 2.06536e-13
  24 4659.72 0.00000 -7.43447e-14
  25 4659.72 0.00000 -2.72292e-13
  26 4659.72 0.00000 -2.06196e-14
  27 4659.72 0.00000 9.68280e-15
  28 4659.72 0.00000 -3.94514e-14
  29 4659.72 0.00000 -8.95100e-14
  30 4659.72 0.00000 -1.58953e-13
  31 4659.72 0.00000 -4.63837e-13
  32 4659.72 0.00000 2.73979e-13
  33 4659.72 0.00000 3.93638e-13
  34 4659.72 0.00000 1.24871e-13
  35 4659.72 0.00000 1.06828e-14
  36 4659.72 0.00000 -2.37801e-13
  37 4659.72 0.00000 -2.60230e-13
  38 4659.72 0.00000 -4.79311e-15
  39 4659.72 0.00000 -4.27704e-14
  40 4659.72 0.00000 -1.63401e-13
  41 4659.72 0.00000 -2.30157e-13
  42 4659.72 0.00000 4.51985e-13
  43 4659.72 0.00000 -4.05405e-13
  44 4659.72 0.00000 -8.00661e-14
  45 4659.72 0.00000 -3.98166e-14
  46 4659.72 0.00000 1.17733e-13
  47 4659.72 0.00000 -2.15463e-13
  48 4659.72 0.00000 2.26972e-13
  49 4659.72 0.00000 1.43984e-13
  50 4659.72 0.00000 -4.06636e-15
  51 4659.72 0.00000 -3.56195e-13
  52 4659.72 0.00000 -2.68902e-13
  53 4659.72 0.00000 1.49183e-13
  54 4659.72 0.00000 -4.46636e-13
  55 4659.72 0.00000 -1.09472e-13
  56 4659.72 0.00000 -3.20407e-13
  57 4659.72 0.00000 9.46109e-13
  58 4659.72 0.00000 -7.53663e-14
  59 4659.72 0.00000 -4.77356e-14
  60 4659.72 0.00000 -1.34628e-14
  61 4659.72 0.00000 1.48990e-13
  62 4659.72 0.00000 -9.56553e-14
  63 4659.72 0.00000 -1.80418e-14
  64 4659.72 0.00000 -4.22895e-13
  65 4659.72 0.00000 8.79054e-14
  66 4659.72 0.00000 -7.69365e-13
</Section>

newXOutput 101

<Section columns = "stress_xx | stress_yy | stress_xy">
  1 4708.38 0.00000 -9.15289e-14
  2 4708.38 0.00000 -1.03935e-13
  3 4708.38 0.00000 -9.48259e-13
  4 4708.38 0.00000 -9.84035e-14
  5 4708.38 0.00000 -1.68286e-13
  6 4708.38 0.00000 -2.18807e-13
  7 4708.38 0.00000 -7.79196e-14
  8 4708.38 0.00000 3.36213e-13
  9 4708.38 0.00000 7.39136e-13
  10 4708.38 0.00000 8.82424e-13
  11 4708.38 0.00000 1.00864e-13
  12 4708.38 0.00000 2.75194e-13
  13 4708.38 0.00000 -3.39949e-13
  14 4708.38 0.00000 -9.27724e-14
  15 4708.38 0.00000 -2.72157e-29
  16 4708.38 0.00000 -2.04481e-13
  17 4708.38 0.00000 -1.78227e-12
  18 4708.38 0.00000 -8.65571e-13
  19 4708.38 0.00000 -9.79919e-14
  20 4708.38 0.00000 -3.26748e-13
  21 4708.38 0.00000 -2.82945e-13
  22 4708.38 0.00000 6.18573e-14
  23 4708.38 0.00000 1.70859e-15
  24 4708.38 0.00000 6.37146e-14
  25 4708.38 0.00000 -1.62887e-13
  26 4708.38 0.00000 -1.80630e-14
  27 4708.38 0.00000 1.86700e-14
  28 4708.38 0.00000 1.40025e-14
  29 4708.38 0.00000 -8.02113e-14
  30 4708.38 0.00000 3.21481e-13
  31 4708.38 0.00000 2.53338e-14
  32 4708.38 0.00000 -1.07578e-14
  33 4708.38 0.00000 -6.43339e-13
  34 4708.38 0.00000 1.96169e-13
  35 4708.38 0.00000 -1.79114e-13
  36 4708.38 0.00000 2.18618e-13
  37 4708.38 0.00000 3.03369e-13
  38 4708.38 0.00000 -2.78369e-13
  39 4708.38 0.00000 1.66251e-13
  40 4708.38 0.00000 -1.03725e-15
  41 4708.38 0.00000 5.85763e-13
  42 4708.38 0.00000 -3.32873e-13
  43 4708.38 0.00000 5.48598e-13
  44 4708.38 0.00000 -1.62394e-13
  45 4708.38 0.00000 1.18824e-13
  46 4708.38 0.00000 1.26080e-15
  47 4708.38 0.00000 5.82724e-16
  48 4708.38 0.00000 2.65679e-13
  49 4708.38 0.00000 -2.48390e-13
  50 4708.38 0.00000 -8.62481e-15
  51 4708.38 0.00000 3.03576e-13
  52 4708.38 0.00000 -9.22825e-15
  53 4708.38 0.00000 3.73724e-13
  54 4708.38 0.00000 -5.74110e-13
  55 4708.38 0.00000 -5.49925e-14
  56 4708.38 0.00000 -6.96771e-13
  57 4708.38 0.00000 -4.98851e-13
  58 4708.38 0.00000 -8.22766e-14
  59 4708.38 0.00000 -6.35881e-14
  60 4708.38 0.00000 1.09734e-13
  61 4708.38 0.00000 -3.52224e-13
  62 4708.38 0.00000 -1.25038e-13
  63 4708.38 0.00000 -5.44618e-14
  64 4708.38 0.00000 -8.73370e-13
  65 4708.38 0.00000 2.68545e-13
  66 4708.38 0.00000 7.37924e-15
</Section>

newXOutput 102

<Section columns = "stress_xx | stress_yy | stress_xy">
  1 4757.12 0.00000 3.32324e-14
  2 4757.12 0.00000 3.56108e-13
  3 4757.12 0.00000 8.50966e-14
  4 4757.12 0.00000 -2.27828e-13
  5 4757.12 0.00000 -2.17032e-13
  6 4757.12 0.00000 -2.53516e-13
  7 4757.12 0.00000 -1.37197e-15
  8 4757.12 0.00000 -5.89264e-13
  9 4757.12 0.00000 -4.18751e-13
  10 4757.12 0.00000 -5.56250e-13
  11 4757.12 0.00000 -1.76985e-13
  12 4757.12 0.00000 2.69707e-13
  13 4757.12 0.00000 2.21254e-13
  14 4757.12 0.00000 -4.52585e-14
  15 4757.12 0.00000 -2.36658e-29
  16 4757.12 0.00000 9.52616e-14
  17 4757.12 0.00000 5.43940e-13
  18 4757.12 0.00000 5.57881e-13
  19 4757.12 0.00000 -1.60303e-13
  20 4757.12 0.00000 3.51463e-13
  21 4757.12 0.00000 -4.15493e-13
  22 4757.12 0.00000 2.65133e-14
  23 4757.12 0.00000 -2.20701e-13
  24 4757.12 0.00000 -4.97592e-13
  25 4757.12 0.00000 -5.26232e-13
  26 4757.12 0.00000 6.74267e-14
  27 4757.12 0.00000 0.00000
  28 4757.12 0.00000 8.81964e-14
  29 4757.12 0.00000 2.64152e-14
  30 4757.12 0.00000 -6.00640e-13
  31 4757.12 0.00000 -3.66933e-13
  32 4757.12 0.00000 -6.06101e-13
  33 4757.12 0.00000 -1.07101e-13
  34 4757.12 0.00000 4.35586e-13
  35 4757.12 0.00000 -2.56009e-13
  36 4757.12 0.00000 -1.60790e-13
  37 4757.12 0.00000 4.42281e-13
  38 4757.12 0.00000 -4.41643e-13
  39 4757.12 0.00000 -2.23429e-13
  40 4757.12 0.00000 3.10617e-13
  41 4757.12 0.00000 -7.85819e-13
  42 4757.12 0.00000 -6.16980e-13
  43 4757.12 0.00000 2.63868e-13
  44 4757.12 0.00000 -2.99542e-13
  45 4757.12 0.00000 -5.91052e-14
  46 4757.12 0.00000 -3.72288e-13
  47 4757.12 0.00000 -5.02950e-13
  48 4757.12 0.00000 -2.08541e-13
  49 4757.12 0.00000 -2.52120e-13
  50 4757.12 0.00000 2.56291e-14
  51 4757.12 0.00000 -5.18614e-13
  52 4757.12 0.00000 -4.88203e-13
  53 4757.12 0.00000 -4.28848e-13
  54 4757.12 0.00000 -1.30989e-13
  55 4757.12 0.00000 -6.74201e-14
  56 4757.12 0.00000 2.99570e-13
  57 4757.12 0.00000 1.03055e-14
  58 4757.12 0.00000 3.89079e-14
  59 4757.12 0.00000 2.34406e-15
  60 4757.12 0.00000 -6.40254e-13
  61 4757.12 0.00000 7.49291e-13
  62 4757.12 0.00000 -1.03937e-13
  63 4757.12 0.00000 -1.76979e-13
  64 4757.12 0.00000 5.13357e-13
  65 4757.12 0.00000 2.53476e-13
  66 4757.12 0.00000 -5.17717e-13
</Section>

newXOutput 103

<Section columns = "stress_xx | stress_yy | stress_xy">
  1 4805.92 0.00000 -2.44910e-13
  2 4805.92 0.00000 3.36038e-13
  3 4805.92 0.00000 -1.32928e-14
  4 4805.92 0.00000 -2.11911e-14
  5 4805.92 0.00000 -1.50439e-13
  6 4805.92 0.00000 -1.95761e-13
  7 4805.92 0.00000 -1.14783e-13
  8 4805.92 0.00000 -3.47518e-13
  9 4805.92 0.00000 -3.72374e-13
  10 4805.92 0.00000 -7.82928e-13
  11 4805.92 0.00000 -7.05612e-13
  12 4805.92 0.00000 -1.25641e-12
  13 4805.92 0.00000 -2.21038e-13
  14 4805.92 0.00000 1.49908e-13
  15 4805.92 0.00000 -1.39597e-13
  16 4805.92 0.00000 3.67725e-13
  17 4805.92 0.00000 -8.12461e-13
  18 4805.92 0.00000 -4.21114e-13
  19 4805.92 0.00000 -3.94769e-13
  20 4805.92 0.00000 -8.91043e-13
  21 4805.92 0.00000 -2.87689e-13
  22 4805.92 0.00000 3.46015e-13
  23 4805.92 0.00000 4.24186e-13
  24 4805.92 0.00000 1.99001e-13
  25 4805.92 0.00000 -1.07480e-13
  26 4805.92 0.00000 7.04914e-14
  27 4805.92 0.00000 0.00000
  28 4805.92 0.00000 -1.11037e-13
  29 4805.92 0.00000 -1.59620e-13
  30 4805.92 0.00000 2.30358e-13
  31 4805.92 0.00000 -3.32654e-13
  32 4805.92 0.00000 2.37341e-13
  33 4805.92 0.00000 -3.54635e-13
  34 4805.92 0.00000 2.17563e-13
  35 4805.92 0.00000 -8.73090e-14
  36 4805.92 0.00000 1.16455e-13
  37 4805.92 0.00000 -2.66658e-13
  38 4805.92 0.00000 -7.74624e-13
  39 4805.92 0.00000 3.16971e-13
  40 4805.92 0.00000 -2.41645e-13
  41 4805.92 0.00000 1.22071e-13
  42 4805.92 0.00000 2.17602e-13
  43 4805.92 0.00000 -3.20755e-14
  44 4805.92 0.00000 -2.73894e-13
  45 4805.92 0.00000 1.47912e-13
  46 4805.92 0.00000 -5.41336e-13
  47 4805.92 0.00000 1.48249e-13
  48 4805.92 0.00000 2.70835e-13
  49 4805.92 0.00000 2.42103e-13
  50 4805.92 0.00000 -3.63798e-14
  51 4805.92 0.00000 -3.98122e-13
  52 4805.92 0.00000 -5.30859e-13
  53 4805.92 0.00000 -3.60478e-13
  54 4805.92 0.00000 -8.59101e-14
  55 4805.92 0.00000 -1.28232e-13
  56 4805.92 0.00000 -1.46242e-13
  57 4805.92 0.00000 4.27542e-16
  58 4805.92 0.00000 9.65605e-14
  59 4805.92 0.00000 -2.00903e-14
  60 4805.92 0.00000 1.86872e-13
  61 4805.92 0.00000 -2.97965e-13
  62 4805.92 0.00000 6.35874e-14
  63 4805.92 0.00000 -3.65347e-14
  64 4805.92 0.00000 -9.14474e-13
  65 4805.92 0.00000 -4.80623e-13
  66 4805.92 0.00000 -5.47873e-14
</Section>

newXOutput 104

<Section columns = "stress_xx | stress_yy | stress_xy">
  1 4854.81 0.00000 2.48672e-13
  2 4854.81 0.00000 -2.84217e-14
  3 4854.81 0.00000 1.37627e-12
  4 4854.81 0.00000 7.20951e-14
  5 4854.81 0.00000 8.66553e-14
  6 4854.81 0.00000 2.59781e-13
  7 4854.81 0.00000 1.54363e-13
  8 4854.81 0.00000 9.22721e-14
  9 4854.81 0.00000 6.05848e-13
  10 4854.81 0.00000 6.38343e-13
  11 4854.81 0.00000 3.19310e-13
  12 4854.81 0.00000 5.98873e-13
  13 4854.81 0.00000 -4.74691e-13
  14 4854.81 0.00000 -4.93139e-14
  15 4854.81 0.00000 -3.78932e-13
  16 4854.81 0.00000 -8.81490e-13
  17 4854.81 0.00000 2.37741e-12
  18 4854.81 0.00000 9.25010e-13
  19 4854.81 0.00000 1.20343e-12
  20 4854.81 0.00000 5.64197e-13
  21 4854.81 0.00000 7.04580e-13
  22 4854.81 0.00000 -4.93898e-15
  23 4854.81 0.00000 -2.98054e-13
  24 4854.81 0.00000 -1.08639e-14
  25 4854.81 0.00000 1.22257e-13
  26 4854.81 0.00000 -4.87597e-14
  27 4854.81 0.00000 -1.65732e-14
  28 4854.81 0.00000 2.28149e-13
  29 4854.81 0.00000 -6.37813e-13
  30 4854.81 0.00000 -1.13432e-12
  31 4854.81 0.00000 -2.07661e-15
  32 4854.81 0.00000 7.65516e-15
  33 4854.81 0.00000 1.44625e-12
  34 4854.81 0.00000 -1.45307e-13
  35 4854.81 0.00000 -2.23635e-13
  36 4854.81 0.00000 -5.42957e-13
  37 4854.81 0.00000 -7.03091e-14
  38 4854.81 0.00000 2.79720e-14
  39 4854.81 0.00000 -2.88295e-14
  40 4854.81 0.00000 -4.10382e-14
  41 4854.81 0.00000 3.94391e-13
  42 4854.81 0.00000 7.47409e-15
  43 4854.81 0.00000 7.67574e-13
  44 4854.81 0.00000 -2.94880e-13
  45 4854.81 0.00000 -4.43226e-14
  46 4854.81 0.00000 5.02220e-13
  47 4854.81 0.00000 -3.58054e-14
  48 4854.81 0.00000 4.18166e-13
  49 4854.81 0.00000 -3.40488e-13
  50 4854.81 0.00000 -2.07543e-13
  51 4854.81 0.00000 -7.62017e-13
  52 4854.81 0.00000 -2.34105e-13
  53 4854.81 0.00000 -6.77088e-13
  54 4854.81 0.00000 6.55685e-13
  55 4854.81 0.00000 5.08499e-14
  56 4854.81 0.00000 3.44866e-13
  57 4854.81 0.00000 3.03101e-13
  58 4854.81 0.00000 -6.16709e-14
  59 4854.81 0.00000 -4.98941e-13
  60 4854.81 0.00000 -4.36908e-13
  61 4854.81 0.00000 8.07831e-13
  62 4854.81 0.00000 8.63240e-14
  63 4854.81 0.00000 1.96549e-13
  64 4854.81 0.00000 1.15110e-12
  65 4854.81 0.00000 4.73476e-13
  66 4854.81 0.00000 2.18108e-13
</Section>

newXOutput 105

<Section columns = "stress_xx | stress_yy | stress_xy">
  1 4903.77 0.00000 2.03967e-13
  2 4903.77 0.00000 6.42016e-13
  3 4903.77 0.00000 -2.97660e-13
  4 4903.77 0.00000 -2.09574e-13
  5 4903.77 0.00000 3.06515e-13
  6 4903.77 0.00000 4.81518e-13
  7 4903.77 0.00000 5.58698e-13
  8 4903.77 0.00000 6.17190e-13
  9 4903.77 0.00000 5.66605e-13
  10 4903.77 0.00000 1.31245e-12
  11 4903.77 0.00000 5.55938e-13
  12 4903.77 0.00000 -8.80985e-13
  13 4903.77 0.00000 4.87114e-13
  14 4903.77 0.00000 -6.43931e-14
  15 4903.77 0.00000 2.10208e-13
  16 4903.77 0.00000 -1.95659e-13
  17 4903.77 0.00000 2.71211e-13
  18 4903.77 0.00000 5.92271e-13
  19 4903.77 0.00000 -8.47734e-13
  20 4903.77 0.00000 -6.57473e-13
  21 4903.77 0.00000 -2.75786e-13
  22 4903.77 0.00000 -8.74437e-14
  23 4903.77 0.00000 -1.17682e-13
  24 4903.77 0.00000 1.67202e-13
  25 4903.77 0.00000 -6.03299e-14
  26 4903.77 0.00000 1.09400e-13
  27 4903.77 0.00000 -2.18143e-13
  28 4903.77 0.00000 -1.22513e-13
  29 4903.77 0.00000 -8.06288e-14
  30 4903.77 0.00000 -2.48579e-13
  31 4903.77 0.00000 3.74014e-13
  32 4903.77 0.00000 5.91611e-13
  33 4903.77 0.00000 2.17097e-13
  34 4903.77 0.00000 3.86839e-13
  35 4903.77 0.00000 2.32442e-13
  36 4903.77 0.00000 -6.16893e-13
  37 4903.77 0.00000 5.60062e-13
  38 4903.77 0.00000 2.47967e-13
  39 4903.77 0.00000 3.45629e-13
  40 4903.77 0.00000 1.68384e-13
  41 4903.77 0.00000 -1.78616e-13
  42 4903.77 0.00000 3.96927e-13
  43 4903.77 0.00000 2.49706e-14
  44 4903.77 0.00000 1.66718e-13
  45 4903.77 0.00000 2.55248e-13
  46 4903.77 0.00000 2.64771e-13
  47 4903.77 0.00000 -5.11168e-13
  48 4903.77 0.00000 1.41756e-13
  49 4903.77 0.00000 2.52902e-13
  50 4903.77 0.00000 9.91642e-14
  51 4903.77 0.00000 9.27808e-13
  52 4903.77 0.00000 1.50814e-13
  53 4903.77 0.00000 9.90539e-13
  54 4903.77 0.00000 -5.17091e-13
  55 4903.77 0.00000 3.05441e-13
  56 4903.77 0.00000 -7.46251e-13
  57 4903.77 0.00000 6.11488e-13
  58 4903.77 0.00000 1.49980e-13
  59 4903.77 0.00000 -8.36682e-14
  60 4903.77 0.00000 1.98415e-13
  61 4903.77 0.00000 1.96206e-13
  62 4903.77 0.00000 1.18400e-13
  63 4903.77 0.00000 6.35654e-13
  64 4903.77 0.00000 -8.28055e-13
  65 4903.77 0.00000 6.16912e-13
  66 4903.77 0.00000 -4.69963e-13
</Section>

newXOutput 106

<Section columns = "stress_xx | stress_yy | stress_xy">
  1 4952.81 0.00000 -2.06376e-13
  2 4952.81 0.00000 7.46145e-13
  3 4952.81 0.00000 -6.69331e-14
  4 4952.81 0.00000 6.23040e-15
  5 4952.81 0.00000 -3.96385e-13
  6 4952.81 0.00000 -4.20545e-13
  7 4952.81 0.00000 1.22485e-15
  8 4952.81 0.00000 -1.09750e-13
  9 4952.81 0.00000 6.10743e-13
  10 4952.81 0.00000 6.45713e-13
  11 4952.81 0.00000 1.30574e-13
  12 4952.81 0.00000 1.47855e-12
  13 4952.81 0.00000 1.34219e-12
  14 4952.81 0.00000 -4.78482e-13
  15 4952.81 0.00000 -7.58348e-15
  16 4952.81 0.00000 3.79174e-15
  17 4952.81 0.00000 -1.43750e-12
  18 4952.81 0.00000 -8.40464e-13
  19 4952.81 0.00000 -3.94529e-13
  20 4952.81 0.00000 -5.77633e-13
  21 4952.81 0.00000 1.07474e-13
  22 4952.81 0.00000 -2.04031e-13
  23 4952.81 0.00000 1.12722e-14
  24 4952.81 0.00000 1.01603e-13
  25 4952.81 0.00000 -3.93095e-14
  26 4952.81 0.00000 -2.90341e-14
  27 4952.81 0.00000 0.00000
  28 4952.81 0.00000 3.40507e-14
  29 4952.81 0.00000 1.09704e-13
  30 4952.81 0.00000 4.76300e-13
  31 4952.81 0.00000 1.84897e-13
  32 4952.81 0.00000 1.59692e-13
  33 4952.81 0.00000 -5.60511e-13
  34 4952.81 0.00000 -9.74610e-14
  35 4952.81 0.00000 1.33935e-13
  36 4952.81 0.00000 1.74171e-13
  37 4952.81 0.00000 -9.86003e-14
  38 4952.81 0.00000 4.26085e-14
  39 4952.81 0.00000 -1.83256e-13
  40 4952.81 0.00000 6.14131e-13
  41 4952.81 0.00000 -2.26335e-14
  42 4952.81 0.00000 5.53979e-13
  43 4952.81 0.00000 4.32527e-13
  44 4952.81 0.00000 -3.95006e-14
  45 4952.81 0.00000 3.70018e-14
  46 4952.81 0.00000 1.74960e-13
  47 4952.81 0.00000 4.49785e-14
  48 4952.81 0.00000 -2.92568e-14
  49 4952.81 0.00000 -6.00827e-13
  50 4952.81 0.00000 4.89793e-14
  51 4952.81 0.00000 6.12880e-14
  52 4952.81 0.00000 5.32060e-14
  53 4952.81 0.00000 1.30968e-13
  54 4952.81 0.00000 -2.57238e-13
  55 4952.81 0.00000 -2.14170e-14
  56 4952.81 0.00000 -1.37905e-13
  57 4952.81 0.00000 -1.48934e-13
  58 4952.81 0.00000 -9.36578e-14
  59 4952.81 0.00000 8.29046e-14
  60 4952.81 0.00000 -2.75167e-13
  61 4952.81 0.00000 4.50126e-13
  62 4952.81 0.00000 -2.12695e-14
  63 4952.81 0.00000 -2.82383e-13
  64 4952.81 0.00000 -2.32010e-13
  65 4952.81 0.00000 4.04434e-13
  66 4952.81 0.00000 -1.79407e-13
</Section>

newXOutput 107

<Section columns = "stress_xx | stress_yy | stress_xy">
  1 5001.93 0.00000 0.00000
  2 5001.93 0.00000 -8.91768e-13
  3 5001.93 0.00000 -3.68237e-13
  4 5001.93 0.00000 3.13395e-13
  5 5001.93 0.00000 -2.37414e-13
  6 5001.93 0.00000 -1.14021e-13
  7 5001.93 0.00000 2.80196e-13
  8 5001.93 0.00000 6.82877e-13
  9 5001.93 0.00000 2.37633e-13
  10 5001.93 0.00000 -6.69663e-13
  11 5001.93 0.00000 9.40101e-14
  12 5001.93 0.00000 -1.78415e-13
  13 5001.93 0.00000 -1.25551e-12
  14 5001.93 0.00000 -9.29828e-14
  15 5001.93 0.00000 -7.13047e-14
  16 5001.93 0.00000 3.46318e-13
  17 5001.93 0.00000 1.21942e-13
  18 5001.93 0.00000 -4.06293e-13
  19 5001.93 0.00000 5.05746e-13
  20 5001.93 0.00000 9.98861e-13
  21 5001.93 0.00000 -3.15636e-14
  22 5001.93 0.00000 -7.20461e-13
  23 5001.93 0.00000 -9.72867e-13
  24 5001.93 0.00000 -4.28334e-13
  25 5001.93 0.00000 5.82342e-13
  26 5001.93 0.00000 -1.29513e-13
  27 5001.93 0.00000 0.00000
  28 5001.93 0.00000 1.36744e-13
  29 5001.93 0.00000 -5.44345e-14
  30 5001.93 0.00000 -1.23541e-13
  31 5001.93 0.00000 1.38889e-14
  32 5001.93 0.00000 3.50129e-13
  33 5001.93 0.00000 -6.70375e-13
  34 5001.93 0.00000 -3.35783e-13
  35 5001.93 0.00000 3.03183e-13
  36 5001.93 0.00000 1.93529e-12
  37 5001.93 0.00000 1.81668e-13
  38 5001.93 0.00000 -4.36929e-14
  39 5001.93 0.00000 -5.86541e-14
  40 5001.93 0.00000 -2.84194e-13
  41 5001.93 0.00000 4.29161e-13
  42 5001.93 0.00000 -3.34064e-13
  43 5001.93 0.00000 7.96140e-14
  44 5001.93 0.00000 5.01054e-14
  45 5001.93 0.00000 -3.10973e-13
  46 5001.93 0.00000 4.32344e-13
  47 5001.93 0.00000 2.74819e-13
  48 5001.93 0.00000 1.80465e-13
  49 5001.93 0.00000 3.29567e-13
  50 5001.93 0.00000 -2.47356e-14
  51 5001.93 0.00000 -9.36582e-14
  52 5001.93 0.00000 -1.29354e-13
  53 5001.93 0.00000 1.30823e-14
  54 5001.93 0.00000 5.38715e-13
  55 5001.93 0.00000 1.70930e-13
  56 5001.93 0.00000 1.40778e-12
  57 5001.93 0.00000 -5.53390e-13
  58 5001.93 0.00000 -5.27138e-14
  59 5001.93 0.00000 5.78282e-14
  60 5001.93 0.00000 -2.19295e-13
  61 5001.93 0.00000 -3.46528e-13
  62 5001.93 0.00000 -2.53870e-13
  63 5001.93 0.00000 1.03691e-13
  64 5001.93 0.00000 1.13978e-12
  65 5001.93 0.00000 -1.44194e-13
  66 5001.93 0.00000 5.62963e-13
</Section>

newXOutput 108

<Section columns = "stress_xx | stress_yy | stress_xy">
  1 5051.13 0.00000 3.83002e-15
  2 5051.13 0.00000 1.02083e-12
  3 5051.13 0.00000 -1.02520e-12
  4 5051.13 0.00000 1.01702e-13
  5 5051.13 0.00000 3.08547e-13
  6 5051.13 0.00000 2.76817e-13
  7 5051.13 0.00000 7.05972e-14
  8 5051.13 0.00000 -2.50209e-13
  9 5051.13 0.00000 3.98360e-13
  10 5051.13 0.00000 8.22792e-13
  11 5051.13 0.00000 2.55207e-13
  12 5051.13 0.00000 -8.18207e-13
  13 5051.13 0.00000 3.45383e-13
  14 5051.13 0.00000 8.83176e-13
  15 5051.13 0.00000 -1.18329e-29
  16 5051.13 0.00000 1.28587e-13
  17 5051.13 0.00000 -1.30579e-12
  18 5051.13 0.00000 7.07732e-13
  19 5051.13 0.00000 1.00591e-12
  20 5051.13 0.00000 8.26101e-13
  21 5051.13 0.00000 2.00979e-13
  22 5051.13 0.00000 5.53876e-13
  23 5051.13 0.00000 4.80256e-13
  24 5051.13 0.00000 2.00648e-13
  25 5051.13 0.00000 3.96544e-14
  26 5051.13 0.00000 -2.81439e-15
  27 5051.13 0.00000 -2.12992e-29
  28 5051.13 0.00000 1.00557e-13
  29 5051.13 0.00000 -4.55917e-13
  30 5051.13 0.00000 -8.05753e-14
  31 5051.13 0.00000 2.58274e-14
  32 5051.13 0.00000 -6.41268e-13
  33 5051.13 0.00000 -7.04553e-13
  34 5051.13 0.00000 3.88970e-14
  35 5051.13 0.00000 -2.04132e-14
  36 5051.13 0.00000 4.02029e-13
  37 5051.13 0.00000 5.59982e-13
  38 5051.13 0.00000 -2.18649e-13
  39 5051.13 0.00000 3.92941e-14
  40 5051.13 0.00000 3.83957e-13
  41 5051.13 0.00000 7.14314e-14
  42 5051.13 0.00000 -9.56088e-15
  43 5051.13 0.00000 5.27698e-16
  44 5051.13 0.00000 -1.38063e-13
  45 5051.13 0.00000 -8.06317e-15
  46 5051.13 0.00000 2.62405e-14
  47 5051.13 0.00000 8.11473e-13
  48 5051.13 0.00000 3.33690e-13
  49 5051.13 0.00000 -2.73678e-13
  50 5051.13 0.00000 -3.39574e-14
  51 5051.13 0.00000 1.08398e-13
  52 5051.13 0.00000 -3.34249e-13
  53 5051.13 0.00000 4.50336e-14
  54 5051.13 0.00000 -7.71026e-14
  55 5051.13 0.00000 2.38835e-13
  56 5051.13 0.00000 -6.76956e-13
  57 5051.13 0.00000 6.82976e-13
  58 5051.13 0.00000 6.79034e-14
  59 5051.13 0.00000 -4.41063e-13
  60 5051.13 0.00000 -3.47184e-13
  61 5051.13 0.00000 1.70904e-13
  62 5051.13 0.00000 2.86509e-13
  63 5051.13 0.00000 2.77692e-13
  64 5051.13 0.00000 -2.73927e-13
  65 5051.13 0.00000 8.60336e-13
  66 5051.13 0.00000 -3.27524e-13
</Section>

newXOutput 109

<Section columns = "stress_xx | stress_yy | stress_xy">
  1 5100.42 0.00000 -1.36397e-13
  2 5100.42 0.00000 -4.34705e-13
  3 5100.42 0.00000 -8.92427e-13
  4 5100.42 0.00000 -7.32997e-14
  5 5100.42 0.00000 -3.31597e-13
  6 5100.42 0.00000 -2.40666e-13
  7 5100.42 0.00000 1.84115e-13
  8 5100.42 0.00000 9.37272e-13
  9 5100.42 0.00000 7.25024e-13
  10 5100.42 0.00000 -1.16154e-12
  11 5100.42 0.00000 -4.50775e-13
  12 5100.42 0.00000 -6.43121e-13
  13 5100.42 0.00000 -9.73752e-14
  14 5100.42 0.00000 -1.63072e-13
  15 5100.42 0.00000 -7.64103e-14
  16 5100.42 0.00000 5.43526e-15
  17 5100.42 0.00000 1.61146e-13
  18 5100.42 0.00000 6.87592e-13
  19 5100.42 0.00000 -2.96754e-13
  20 5100.42 0.00000 -1.53083e-13
  21 5100.42 0.00000 -2.02083e-13
  22 5100.42 0.00000 -4.69172e-14
  23 5100.42 0.00000 3.92174e-14
  24 5100.42 0.00000 -3.43727e-13
  25 5100.42 0.00000 -2.67822e-13
  26 5100.42 0.00000 1.34106e-29
  27 5100.42 0.00000 1.30446e-14
  28 5100.42 0.00000 6.42384e-14
  29 5100.42 0.00000 2.16390e-13
  30 5100.42 0.00000 6.05017e-13
  31 5100.42 0.00000 -2.71437e-13
  32 5100.42 0.00000 -9.71820e-14
  33 5100.42 0.00000 3.76848e-13
  34 5100.42 0.00000 -3.80593e-14
  35 5100.42 0.00000 -2.47116e-13
  36 5100.42 0.00000 -1.08338e-12
  37 5100.42 0.00000 -2.07975e-13
  38 5100.42 0.00000 2.51504e-13
  39 5100.42 0.00000 -1.01664e-13
  40 5100.42 0.00000 2.89067e-13
  41 5100.42 0.00000 -1.66013e-13
  42 5100.42 0.00000 2.52833e-13
  43 5100.42 0.00000 -3.18601e-13
  44 5100.42 0.00000 -1.01009e-13
  45 5100.42 0.00000 1.01107e-13
  46 5100.42 0.00000 5.28542e-13
  47 5100.42 0.00000 2.84598e-13
  48 5100.42 0.00000 -3.16539e-14
  49 5100.42 0.00000 -5.27059e-14
  50 5100.42 0.00000 -5.22348e-15
  51 5100.42 0.00000 -4.08144e-13
  52 5100.42 0.00000 6.27061e-15
  53 5100.42 0.00000 5.38722e-14
  54 5100.42 0.00000 -5.47268e-13
  55 5100.42 0.00000 -2.56187e-13
  56 5100.42 0.00000 -9.35862e-13
  57 5100.42 0.00000 6.56683e-13
  58 5100.42 0.00000 -1.01790e-13
  59 5100.42 0.00000 2.52495e-13
  60 5100.42 0.00000 1.05976e-13
  61 5100.42 0.00000 9.92865e-16
  62 5100.42 0.00000 -3.00530e-13
  63 5100.42 0.00000 -5.14361e-13
  64 5100.42 0.00000 -5.58619e-13
  65 5100.42 0.00000 5.57691e-14
  66 5100.42 0.00000 -7.46286e-13
</Section>

newXOutput 110

<Section columns = "stress_xx | stress_yy | stress_xy">
  1 5149.79 0.00000 -2.06877e-13
  2 5149.79 0.00000 5.91557e-13
  3 5149.79 0.00000 -6.24060e-13
  4 5149.79 0.00000 3.87934e-16
  5 5149.79 0.00000 -1.18535e-13
  6 5149.79 0.00000 -2.25825e-13
  7 5149.79 0.00000 6.91770e-14
  8 5149.79 0.00000 5.47780e-13
  9 5149.79 0.00000 2.24397e-13
  10 5149.79 0.00000 -2.84217e-14
  11 5149.79 0.00000 4.97143e-13
  12 5149.79 0.00000 3.02923e-28
  13 5149.79 0.00000 5.32290e-13
  14 5149.79 0.00000 1.07073e-13
  15 5149.79 0.00000 -1.23336e-14
  16 5149.79 0.00000 1.07073e-13
  17 5149.79 0.00000 -2.99677e-12
  18 5149.79 0.00000 -3.38571e-12
  19 5149.79 0.00000 7.90661e-14
  20 5149.79 0.00000 1.02592e-12
  21 5149.79 0.00000 1.64262e-13
  22 5149.79 0.00000 -4.08674e-13
  23 5149.79 0.00000 2.05895e-13
  24 5149.79 0.00000 6.56617e-14
  25 5149.79 0.00000 1.31030e-13
  26 5149.79 0.00000 -7.69637e-14
  27 5149.79 0.00000 -6.16680e-15
  28 5149.79 0.00000 6.89591e-14
  29 5149.79 0.00000 -5.08806e-14
  30 5149.79 0.00000 -6.83733e-13
  31 5149.79 0.00000 -4.89202e-13
  32 5149.79 0.00000 -2.43857e-13
  33 5149.79 0.00000 2.13730e-13
  34 5149.79 0.00000 -3.27391e-13
  35 5149.79 0.00000 -9.30809e-14
  36 5149.79 0.00000 1.08295e-12
  37 5149.79 0.00000 -6.92161e-14
  38 5149.79 0.00000 -6.97370e-14
  39 5149.79 0.00000 -1.97558e-13
  40 5149.79 0.00000 -2.09757e-13
  41 5149.79 0.00000 2.47112e-13
  42 5149.79 0.00000 -3.21742e-13
  43 5149.79 0.00000 -1.36262e-13
  44 5149.79 0.00000 -3.88472e-13
  45 5149.79 0.00000 7.30229e-14
  46 5149.79 0.00000 4.03030e-13
  47 5149.79 0.00000 -1.79262e-13
  48 5149.79 0.00000 -2.32092e-13
  49 5149.79 0.00000 2.09408e-13
  50 5149.79 0.00000 -4.24959e-14
  51 5149.79 0.00000 -2.74655e-13
  52 5149.79 0.00000 -4.50634e-13
  53 5149.79 0.00000 -6.43434e-13
  54 5149.79 0.00000 1.49944e-13
  55 5149.79 0.00000 3.44588e-14
  56 5149.79 0.00000 4.02842e-13
  57 5149.79 0.00000 1.31990e-13
  58 5149.79 0.00000 -1.01821e-13
  59 5149.79 0.00000 -1.19898e-13
  60 5149.79 0.00000 -4.34211e-13
  61 5149.79 0.00000 5.19530e-13
  62 5149.79 0.00000 -1.49034e-13
  63 5149.79 0.00000 -1.59044e-13
  64 5149.79 0.00000 -7.02905e-13
  65 5149.79 0.00000 5.67888e-13
  66 5149.79 0.00000 -3.15867e-14
</Section>

newXOutput 111

<Section columns = "stress_xx | stress_yy | stress_xy">
  1 5199.24 0.00000 1.03737e-13
  2 5199.24 0.00000 -1.12056e-12
  3 5199.24 0.00000 1.24571e-13
  4 5199.24 0.00000 5.80621e-15
  5 5199.24 0.00000 2.97509e-13
  6 5199.24 0.00000 5.53266e-13
  7 5199.24 0.00000 5.71537e-13
  8 5199.24 0.00000 -4.14950e-13
  9 5199.24 0.00000 -8.81768e-13
  10 5199.24 0.00000 -1.46603e-12
  11 5199.24 0.00000 -5.73474e-13
  12 5199.24 0.00000 7.61435e-13
  13 5199.24 0.00000 2.57685e-13
  14 5199.24 0.00000 -2.77310e-13
  15 5199.24 0.00000 -5.81039e-15
  16 5199.24 0.00000 2.96258e-13
  17 5199.24 0.00000 9.29538e-13
  18 5199.24 0.00000 1.28051e-12
  19 5199.24 0.00000 -2.43985e-13
  20 5199.24 0.00000 -1.06071e-12
  21 5199.24 0.00000 -3.70746e-13
  22 5199.24 0.00000 1.13969e-13
  23 5199.24 0.00000 -1.57535e-13
  24 5199.24 0.00000 -2.11361e-13
  25 5199.24 0.00000 -5.46361e-14
  26 5199.24 0.00000 6.14111e-14
  27 5199.24 0.00000 -5.81039e-15
  28 5199.24 0.00000 1.27244e-13
  29 5199.24 0.00000 -5.11823e-13
  30 5199.24 0.00000 -2.61889e-13
  31 5199.24 0.00000 5.46827e-13
  32 5199.24 0.00000 6.68035e-13
  33 5199.24 0.00000 -4.19598e-13
  34 5199.24 0.00000 3.10635e-13
  35 5199.24 0.00000 4.04550e-14
  36 5199.24 0.00000 -6.31557e-13
  37 5199.24 0.00000 3.96792e-13
  38 5199.24 0.00000 3.32284e-13
  39 5199.24 0.00000 4.68830e-14
  40 5199.24 0.00000 5.45933e-13
  41 5199.24 0.00000 1.79263e-13
  42 5199.24 0.00000 4.54118e-13
  43 5199.24 0.00000 2.09617e-13
  44 5199.24 0.00000 2.05486e-13
  45 5199.24 0.00000 -6.95427e-14
  46 5199.24 0.00000 1.49123e-13
  47 5199.24 0.00000 -1.80069e-13
  48 5199.24 0.00000 9.81643e-14
  49 5199.24 0.00000 1.01559e-13
  50 5199.24 0.00000 5.16630e-14
  51 5199.24 0.00000 7.96846e-13
  52 5199.24 0.00000 -8.45432e-14
  53 5199.24 0.00000 5.44647e-13
  54 5199.24 0.00000 9.54104e-16
  55 5199.24 0.00000 8.09118e-14
  56 5199.24 0.00000 -2.16646e-13
  57 5199.24 0.00000 -7.03332e-13
  58 5199.24 0.00000 1.56818e-13
  59 5199.24 0.00000 -4.73666e-14
  60 5199.24 0.00000 2.40496e-13
  61 5199.24 0.00000 1.49963e-13
  62 5199.24 0.00000 1.65150e-13
  63 5199.24 0.00000 3.64939e-13
  64 5199.24 0.00000 -1.71055e-13
  65 5199.24 0.00000 -7.08736e-13
  66 5199.24 0.00000 -3.71699e-13
</Section>

newXOutput 112

<Section columns = "stress_xx | stress_yy | stress_xy">
  1 5248.78 0.00000 -1.71788e-13
  2 5248.78 0.00000 4.80856e-13
  3 5248.78 0.00000 -8.32468e-13
  4 5248.78 0.00000 2.44521e-13
  5 5248.78 0.00000 1.04868e-14
  6 5248.78 0.00000 -2.14506e-13
  7 5248.78 0.00000 -2.61702e-13
  8 5248.78 0.00000 -3.67086e-14
  9 5248.78 0.00000 -7.01591e-14
  10 5248.78 0.00000 8.03888e-13
  11 5248.78 0.00000 3.12116e-13
  12 5248.78 0.00000 -4.10903e-13
  13 5248.78 0.00000 6.93592e-13
  14 5248.78 0.00000 1.12916e-13
  15 5248.78 0.00000 5.45305e-15
  16 5248.78 0.00000 4.54421e-15
  17 5248.78 0.00000 -1.76014e-12
  18 5248.78 0.00000 -1.44333e-12
  19 5248.78 0.00000 -7.12283e-13
  20 5248.78 0.00000 -1.16706e-12
  21 5248.78 0.00000 -3.91790e-13
  22 5248.78 0.00000 -2.72463e-15
  23 5248.78 0.00000 4.13961e-14
  24 5248.78 0.00000 5.72675e-13
  25 5248.78 0.00000 5.57629e-13
  26 5248.78 0.00000 3.46796e-14
  27 5248.78 0.00000 -5.45305e-15
  28 5248.78 0.00000 -3.63537e-15
  29 5248.78 0.00000 -4.63658e-13
  30 5248.78 0.00000 -8.63943e-13
  31 5248.78 0.00000 3.48952e-13
  32 5248.78 0.00000 5.86148e-13
  33 5248.78 0.00000 -7.57132e-13
  34 5248.78 0.00000 -7.95169e-14
  35 5248.78 0.00000 -3.06073e-13
  36 5248.78 0.00000 -3.14623e-14
  37 5248.78 0.00000 3.03116e-13
  38 5248.78 0.00000 -7.69548e-15
  39 5248.78 0.00000 2.92971e-13
  40 5248.78 0.00000 -4.19817e-14
  41 5248.78 0.00000 4.01578e-13
  42 5248.78 0.00000 -3.49994e-13
  43 5248.78 0.00000 -3.33326e-13
  44 5248.78 0.00000 -3.56579e-13
  45 5248.78 0.00000 1.63116e-13
  46 5248.78 0.00000 1.63444e-13
  47 5248.78 0.00000 -3.49061e-13
  48 5248.78 0.00000 -1.54513e-14
  49 5248.78 0.00000 -8.12787e-15
  50 5248.78 0.00000 -6.19287e-14
  51 5248.78 0.00000 8.30950e-13
  52 5248.78 0.00000 1.98961e-13
  53 5248.78 0.00000 3.01841e-13
  54 5248.78 0.00000 -5.01659e-13
  55 5248.78 0.00000 -1.66545e-13
  56 5248.78 0.00000 -2.99618e-13
  57 5248.78 0.00000 9.43519e-14
  58 5248.78 0.00000 6.88527e-14
  59 5248.78 0.00000 -2.01232e-13
  60 5248.78 0.00000 -3.01260e-13
  61 5248.78 0.00000 -6.45582e-13
  62 5248.78 0.00000 1.67655e-13
  63 5248.78 0.00000 -1.08023e-13
  64 5248.78 0.00000 -4.76674e-13
  65 5248.78 0.00000 3.08551e-13
  66 5248.78 0.00000 -5.76117e-13
</Section>

newXOutput 113

<Section columns = "stress_xx | stress_yy | stress_xy">
  1 5298.42 0.00000 -1.04343e-13
  2 5298.42 0.00000 -6.43832e-13
  3 5298.42 0.00000 -5.95969e-14
  4 5298.42 0.00000 -1.25669e-13
  5 5298.42 0.00000 1.05515e-13
  6 5298.42 0.00000 1.18506e-14
  7 5298.42 0.00000 1.14250e-13
  8 5298.42 0.00000 6.84939e-13
  9 5298.42 0.00000 5.49768e-13
  10 5298.42 0.00000 -5.67980e-28
  11 5298.42 0.00000 -4.37922e-13
  12 5298.42 0.00000 -1.43524e-12
  13 5298.42 0.00000 -2.06587e-12
  14 5298.42 0.00000 -5.53098e-13
  15 5298.42 0.00000 5.09479e-15
  16 5298.42 0.00000 6.84616e-13
  17 5298.42 0.00000 1.02496e-14
  18 5298.42 0.00000 -2.57223e-13
  19 5298.42 0.00000 -3.78155e-13
  20 5298.42 0.00000 -1.31556e-12
  21 5298.42 0.00000 -2.08563e-13
  22 5298.42 0.00000 -1.15346e-13
  23 5298.42 0.00000 1.43041e-13
  24 5298.42 0.00000 -1.96966e-13
  25 5298.42 0.00000 -2.16483e-13
  26 5298.42 0.00000 -5.09479e-15
  27 5298.42 0.00000 0.00000
  28 5298.42 0.00000 -4.52560e-14
  29 5298.42 0.00000 2.96625e-13
  30 5298.42 0.00000 -1.64639e-13
  31 5298.42 0.00000 -8.05945e-13
  32 5298.42 0.00000 -9.42402e-13
  33 5298.42 0.00000 6.23602e-13
  34 5298.42 0.00000 2.70581e-13
  35 5298.42 0.00000 -1.01662e-13
  36 5298.42 0.00000 2.46643e-14
  37 5298.42 0.00000 -2.05967e-13
  38 5298.42 0.00000 -2.48477e-13
  39 5298.42 0.00000 -4.65238e-13
  40 5298.42 0.00000 5.47375e-14
  41 5298.42 0.00000 -8.12072e-13
  42 5298.42 0.00000 2.57300e-14
  43 5298.42 0.00000 -2.48674e-13
  44 5298.42 0.00000 -1.46721e-13
  45 5298.42 0.00000 9.93586e-14
  46 5298.42 0.00000 2.74919e-14
  47 5298.42 0.00000 -8.66947e-14
  48 5298.42 0.00000 -1.58091e-13
  49 5298.42 0.00000 3.09781e-13
  50 5298.42 0.00000 6.53657e-14
  51 5298.42 0.00000 -1.45141e-12
  52 5298.42 0.00000 -5.33767e-13
  53 5298.42 0.00000 -7.44040e-13
  54 5298.42 0.00000 -7.44782e-13
  55 5298.42 0.00000 -7.28081e-14
  56 5298.42 0.00000 -1.05081e-13
  57 5298.42 0.00000 -2.96023e-13
  58 5298.42 0.00000 -8.74190e-14
  59 5298.42 0.00000 4.23127e-13
  60 5298.42 0.00000 2.80596e-13
  61 5298.42 0.00000 -3.30045e-14
  62 5298.42 0.00000 -2.54244e-13
  63 5298.42 0.00000 -3.48824e-14
  64 5298.42 0.00000 -1.15031e-12
  65 5298.42 0.00000 4.74563e-13
  66 5298.42 0.00000 -9.26325e-13
</Section>

newXOutput 114

<Section columns = "stress_xx | stress_yy | stress_xy">
  1 5348.14 0.00000 1.89473e-13
  2 5348.14 0.00000 -3.63512e-13
  3 5348.14 0.00000 -2.86221e-13
  4 5348.14 0.00000 -9.68809e-14
  5 5348.14 0.00000 4.11988e-13
  6 5348.14 0.00000 3.98104e-13
  7 5348.14 0.00000 -1.90351e-13
  8 5348.14 0.00000 -5.14797e-13
  9 5348.14 0.00000 1.73773e-13
  10 5348.14 0.00000 -1.89473e-13
  11 5348.14 0.00000 -1.30261e-13
  12 5348.14 0.00000 -5.12747e-13
  13 5348.14 0.00000 -1.00316e-12
  14 5348.14 0.00000 7.66550e-13
  15 5348.14 0.00000 9.47363e-14
  16 5348.14 0.00000 -6.55253e-14
  17 5348.14 0.00000 1.03842e-12
  18 5348.14 0.00000 1.77263e-12
  19 5348.14 0.00000 6.09476e-13
  20 5348.14 0.00000 6.26011e-13
  21 5348.14 0.00000 3.88842e-13
  22 5348.14 0.00000 -4.83608e-13
  23 5348.14 0.00000 1.34877e-13
  24 5348.14 0.00000 -3.53751e-13
  25 5348.14 0.00000 -3.11640e-13
  26 5348.14 0.00000 -2.85690e-14
  27 5348.14 0.00000 0.00000
  28 5348.14 0.00000 2.58449e-13
  29 5348.14 0.00000 5.67513e-14
  30 5348.14 0.00000 3.82713e-13
  31 5348.14 0.00000 1.49227e-13
  32 5348.14 0.00000 3.07981e-13
  33 5348.14 0.00000 2.00177e-13
  34 5348.14 0.00000 1.59625e-14
  35 5348.14 0.00000 -5.70736e-14
  36 5348.14 0.00000 5.63298e-13
  37 5348.14 0.00000 -7.15576e-13
  38 5348.14 0.00000 -1.35875e-13
  39 5348.14 0.00000 4.45449e-14
  40 5348.14 0.00000 -3.53869e-13
  41 5348.14 0.00000 7.46805e-13
  42 5348.14 0.00000 4.49256e-13
  43 5348.14 0.00000 7.46725e-14
  44 5348.14 0.00000 -1.11505e-13
  45 5348.14 0.00000 8.91275e-14
  46 5348.14 0.00000 -1.98997e-13
  47 5348.14 0.00000 2.93584e-13
  48 5348.14 0.00000 3.93867e-13
  49 5348.14 0.00000 3.92841e-13
  50 5348.14 0.00000 -9.91070e-14
  51 5348.14 0.00000 -3.93356e-13
  52 5348.14 0.00000 6.95684e-14
  53 5348.14 0.00000 1.99972e-13
  54 5348.14 0.00000 3.75915e-13
  55 5348.14 0.00000 1.49971e-13
  56 5348.14 0.00000 5.49862e-14
  57 5348.14 0.00000 5.61099e-14
  58 5348.14 0.00000 5.64245e-14
  59 5348.14 0.00000 -3.70589e-13
  60 5348.14 0.00000 2.30603e-13
  61 5348.14 0.00000 -7.02798e-14
  62 5348.14 0.00000 1.09414e-13
  63 5348.14 0.00000 2.62690e-13
  64 5348.14 0.00000 4.03611e-13
  65 5348.14 0.00000 -1.70524e-13
  66 5348.14 0.00000 1.89495e-13
</Section>

newXOutput 115

<Section columns = "stress_xx | stress_yy | stress_xy">
  1 5397.95 0.00000 9.40160e-14
  2 5397.95 0.00000 8.39667e-13
  3 5397.95 0.00000 -4.41394e-13
  4 5397.95 0.00000 1.49212e-13
  5 5397.95 0.00000 -3.41118e-13
  6 5397.95 0.00000 -7.91580e-13
  7 5397.95 0.00000 5.82993e-14
  8 5397.95 0.00000 -4.92703e-13
  9 5397.95 0.00000 -8.53908e-13
  10 5397.95 0.00000 -2.19452e-14
  11 5397.95 0.00000 -3.06698e-14
  12 5397.95 0.00000 -3.42566e-13
  13 5397.95 0.00000 1.69388e-12
  14 5397.95 0.00000 -4.97101e-13
  15 5397.95 0.00000 -6.55943e-14
  16 5397.95 0.00000 -4.51880e-14
  17 5397.95 0.00000 -5.27922e-13
  18 5397.95 0.00000 -4.20874e-13
  19 5397.95 0.00000 -5.53008e-13
  20 5397.95 0.00000 -6.57712e-13
  21 5397.95 0.00000 -2.73514e-13
  22 5397.95 0.00000 -4.41121e-13
  23 5397.95 0.00000 -3.49939e-13
  24 5397.95 0.00000 1.88310e-14
  25 5397.95 0.00000 3.13459e-13
  26 5397.95 0.00000 -1.02041e-13
  27 5397.95 0.00000 -8.75085e-15
  28 5397.95 0.00000 1.12955e-13
  29 5397.95 0.00000 -7.28460e-14
  30 5397.95 0.00000 -4.31228e-13
  31 5397.95 0.00000 -4.04640e-13
  32 5397.95 0.00000 2.79493e-13
  33 5397.95 0.00000 -8.00759e-13
  34 5397.95 0.00000 1.18172e-13
  35 5397.95 0.00000 -2.25221e-13
  36 5397.95 0.00000 3.73036e-13
  37 5397.95 0.00000 -2.83588e-13
  38 5397.95 0.00000 -6.91263e-13
  39 5397.95 0.00000 -2.84499e-13
  40 5397.95 0.00000 -4.15126e-13
  41 5397.95 0.00000 -2.17279e-14
  42 5397.95 0.00000 -2.17588e-13
  43 5397.95 0.00000 -3.26776e-13
  44 5397.95 0.00000 -4.64195e-13
  45 5397.95 0.00000 5.96537e-14
  46 5397.95 0.00000 -5.37908e-13
  47 5397.95 0.00000 -5.16545e-14
  48 5397.95 0.00000 -3.30130e-13
  49 5397.95 0.00000 -6.47251e-13
  50 5397.95 0.00000 -1.40229e-13
  51 5397.95 0.00000 -2.82671e-13
  52 5397.95 0.00000 -5.78493e-13
  53 5397.95 0.00000 -2.37113e-13
  54 5397.95 0.00000 -7.07975e-14
  55 5397.95 0.00000 -1.49058e-13
  56 5397.95 0.00000 2.08942e-13
  57 5397.95 0.00000 3.54928e-13
  58 5397.95 0.00000 9.85668e-14
  59 5397.95 0.00000 -5.68536e-14
  60 5397.95 0.00000 -9.93636e-13
  61 5397.95 0.00000 6.65157e-13
  62 5397.95 0.00000 3.34916e-13
  63 5397.95 0.00000 -5.18671e-13
  64 5397.95 0.00000 3.67522e-13
  65 5397.95 0.00000 -4.11590e-13
  66 5397.95 0.00000 -3.91770e-14
</Section>

newXOutput 116

<Section columns = "stress_xx | stress_yy | stress_xy">
  1 5447.86 0.00000 2.10541e-13
  2 5447.86 0.00000 -5.90703e-13
  3 5447.86 0.00000 6.37651e-14
  4 5447.86 0.00000 9.25133e-14
  5 5447.86 0.00000 5.72578e-13
  6 5447.86 0.00000 1.08076e-13
  7 5447.86 0.00000 -5.68877e-14
  8 5447.86 0.00000 -3.39937e-13
  9 5447.86 0.00000 5.71038e-14
  10 5447.86 0.00000 -6.27153e-13
  11 5447.86 0.00000 -9.94079e-13
  12 5447.86 0.00000 -9.72512e-13
  13 5447.86 0.00000 -1.39527e-12
  14 5447.86 0.00000 2.67620e-15
  15 5447.86 0.00000 4.01430e-15
  16 5447.86 0.00000 6.87171e-13
  17 5447.86 0.00000 1.60586e-12
  18 5447.86 0.00000 2.12683e-12
  19 5447.86 0.00000 -2.16378e-14
  20 5447.86 0.00000 -1.85980e-12
  21 5447.86 0.00000 -1.47557e-13
  22 5447.86 0.00000 -1.59681e-14
  23 5447.86 0.00000 6.46722e-14
  24 5447.86 0.00000 3.33170e-13
  25 5447.86 0.00000 2.26643e-13
  26 5447.86 0.00000 -5.78786e-14
  27 5447.86 0.00000 0.00000
  28 5447.86 0.00000 8.95630e-15
  29 5447.86 0.00000 -2.87972e-13
  30 5447.86 0.00000 5.92035e-13
  31 5447.86 0.00000 1.92948e-13
  32 5447.86 0.00000 5.87036e-13
  33 5447.86 0.00000 6.10255e-13
  34 5447.86 0.00000 -1.57506e-13
  35 5447.86 0.00000 1.37137e-13
  36 5447.86 0.00000 -1.22048e-12
  37 5447.86 0.00000 -5.65784e-13
  38 5447.86 0.00000 1.30808e-13
  39 5447.86 0.00000 1.33485e-13
  40 5447.86 0.00000 -5.86690e-14
  41 5447.86 0.00000 1.07649e-13
  42 5447.86 0.00000 9.88587e-13
  43 5447.86 0.00000 -1.92838e-13
  44 5447.86 0.00000 -1.79254e-14
  45 5447.86 0.00000 4.92455e-15
  46 5447.86 0.00000 3.63653e-13
  47 5447.86 0.00000 3.86352e-13
  48 5447.86 0.00000 -1.23276e-13
  49 5447.86 0.00000 5.07397e-13
  50 5447.86 0.00000 -2.33871e-13
  51 5447.86 0.00000 2.21142e-13
  52 5447.86 0.00000 -2.14623e-15
  53 5447.86 0.00000 6.57708e-13
  54 5447.86 0.00000 -6.00562e-13
  55 5447.86 0.00000 1.56902e-13
  56 5447.86 0.00000 -5.65079e-13
  57 5447.86 0.00000 -2.33329e-13
  58 5447.86 0.00000 -4.16000e-16
  59 5447.86 0.00000 -2.65249e-13
  60 5447.86 0.00000 1.49947e-13
  61 5447.86 0.00000 -1.76798e-13
  62 5447.86 0.00000 1.85136e-13
  63 5447.86 0.00000 6.14984e-13
  64 5447.86 0.00000 -8.41832e-13
  65 5447.86 0.00000 -6.44206e-13
  66 5447.86 0.00000 -8.13183e-13
</Section>

newXOutput 117

<Section columns = "stress_xx | stress_yy | stress_xy">
  1 5497.86 0.00000 -6.41478e-14
  2 5497.86 0.00000 -1.59679e-12
  3 5497.86 0.00000 -5.95295e-14
  4 5497.86 0.00000 1.02757e-13
  5 5497.86 0.00000 1.75975e-13
  6 5497.86 0.00000 1.41886e-13
  7 5497.86 0.00000 4.28581e-13
  8 5497.86 0.00000 7.90667e-14
  9 5497.86 0.00000 -7.64660e-13
  10 5497.86 0.00000 -7.52109e-13
  11 5497.86 0.00000 -5.93000e-14
  12 5497.86 0.00000 -6.41478e-14
  13 5497.86 0.00000 -1.46951e-12
  14 5497.86 0.00000 1.23426e-13
  15 5497.86 0.00000 -3.65220e-15
  16 5497.86 0.00000 -1.03870e-13
  17 5497.86 0.00000 -1.12229e-12
  18 5497.86 0.00000 -1.93388e-12
  19 5497.86 0.00000 -3.59437e-13
  20 5497.86 0.00000 -1.29801e-12
  21 5497.86 0.00000 2.25511e-13
  22 5497.86 0.00000 5.03532e-13
  23 5497.86 0.00000 -1.50514e-13
  24 5497.86 0.00000 -3.53123e-13
  25 5497.86 0.00000 1.81682e-13
  26 5497.86 0.00000 3.27601e-14
  27 5497.86 0.00000 -3.65220e-15
  28 5497.86 0.00000 -3.07790e-14
  29 5497.86 0.00000 4.36613e-13
  30 5497.86 0.00000 -1.13640e-13
  31 5497.86 0.00000 -4.18301e-13
  32 5497.86 0.00000 6.96135e-13
  33 5497.86 0.00000 -8.90791e-13
  34 5497.86 0.00000 2.54509e-13
  35 5497.86 0.00000 -3.11250e-13
  36 5497.86 0.00000 7.40024e-13
  37 5497.86 0.00000 2.35709e-13
  38 5497.86 0.00000 -4.11467e-14
  39 5497.86 0.00000 -1.27214e-13
  40 5497.86 0.00000 -3.53900e-13
  41 5497.86 0.00000 4.03922e-13
  42 5497.86 0.00000 7.71859e-13
  43 5497.86 0.00000 1.32469e-13
  44 5497.86 0.00000 2.24385e-15
  45 5497.86 0.00000 6.70984e-14
  46 5497.86 0.00000 -3.76875e-13
  47 5497.86 0.00000 2.12846e-13
  48 5497.86 0.00000 2.76231e-13
  49 5497.86 0.00000 -4.57356e-13
  50 5497.86 0.00000 1.36849e-13
  51 5497.86 0.00000 -2.84814e-13
  52 5497.86 0.00000 -2.22912e-13
  53 5497.86 0.00000 -3.17820e-13
  54 5497.86 0.00000 7.70080e-14
  55 5497.86 0.00000 -1.63319e-13
  56 5497.86 0.00000 1.06322e-13
  57 5497.86 0.00000 -1.02994e-12
  58 5497.86 0.00000 1.19630e-15
  59 5497.86 0.00000 5.26242e-13
  60 5497.86 0.00000 -4.14318e-14
  61 5497.86 0.00000 -5.82113e-14
  62 5497.86 0.00000 -2.94452e-13
  63 5497.86 0.00000 -1.58523e-13
  64 5497.86 0.00000 -5.67885e-13
  65 5497.86 0.00000 -3.01209e-13
  66 5497.86 0.00000 2.00095e-13
</Section>

newXOutput 118

<Section columns = "stress_xx | stress_yy | stress_xy">
  1 5547.96 0.00000 -8.49608e-14
  2 5547.96 0.00000 1.12275e-12
  3 5547.96 0.00000 9.39994e-13
  4 5547.96 0.00000 -9.32302e-14
  5 5547.96 0.00000 -1.97640e-13
  6 5547.96 0.00000 -2.75425e-13
  7 5547.96 0.00000 -7.27941e-14
  8 5547.96 0.00000 -4.41947e-13
  9 5547.96 0.00000 -1.90564e-13
  10 5547.96 0.00000 -6.34216e-14
  11 5547.96 0.00000 -1.50331e-13
  12 5547.96 0.00000 3.74899e-14
  13 5547.96 0.00000 1.39328e-12
  14 5547.96 0.00000 1.83687e-13
  15 5547.96 0.00000 9.51325e-14
  16 5547.96 0.00000 2.19274e-15
  17 5547.96 0.00000 2.40304e-12
  18 5547.96 0.00000 4.84820e-13
  19 5547.96 0.00000 9.55867e-14
  20 5547.96 0.00000 -5.56557e-13
  21 5547.96 0.00000 -9.22878e-14
  22 5547.96 0.00000 -7.77443e-14
  23 5547.96 0.00000 1.72223e-14
  24 5547.96 0.00000 4.05265e-13
  25 5547.96 0.00000 2.73349e-14
  26 5547.96 0.00000 -3.28911e-15
  27 5547.96 0.00000 -6.57822e-15
  28 5547.96 0.00000 -3.16094e-14
  29 5547.96 0.00000 -2.26056e-13
  30 5547.96 0.00000 -4.99150e-14
  31 5547.96 0.00000 5.21763e-13
  32 5547.96 0.00000 -1.32176e-13
  33 5547.96 0.00000 -2.82434e-14
  34 5547.96 0.00000 -8.83116e-14
  35 5547.96 0.00000 2.06270e-13
  36 5547.96 0.00000 4.25618e-13
  37 5547.96 0.00000 7.01902e-14
  38 5547.96 0.00000 -2.55468e-14
  39 5547.96 0.00000 2.15151e-14
  40 5547.96 0.00000 4.22483e-13
  41 5547.96 0.00000 -3.93106e-13
  42 5547.96 0.00000 1.50127e-13
  43 5547.96 0.00000 -1.60878e-13
  44 5547.96 0.00000 -4.36045e-14
  45 5547.96 0.00000 -2.76398e-14
  46 5547.96 0.00000 2.05195e-13
  47 5547.96 0.00000 2.87389e-13
  48 5547.96 0.00000 -4.54531e-14
  49 5547.96 0.00000 3.49158e-13
  50 5547.96 0.00000 -2.19807e-13
  51 5547.96 0.00000 8.24564e-14
  52 5547.96 0.00000 -3.10600e-14
  53 5547.96 0.00000 -8.00753e-14
  54 5547.96 0.00000 -2.78512e-13
  55 5547.96 0.00000 4.18343e-14
  56 5547.96 0.00000 8.19786e-13
  57 5547.96 0.00000 1.27332e-12
  58 5547.96 0.00000 9.94687e-14
  59 5547.96 0.00000 -4.27380e-13
  60 5547.96 0.00000 1.05726e-13
  61 5547.96 0.00000 6.50967e-13
  62 5547.96 0.00000 4.24531e-13
  63 5547.96 0.00000 1.67023e-13
  64 5547.96 0.00000 7.16801e-13
  65 5547.96 0.00000 -2.53687e-14
  66 5547.96 0.00000 -5.94257e-13
</Section>

newXOutput 119

<Section columns = "stress_xx | stress_yy | stress_xy">
  1 5598.16 0.00000 1.82230e-13
  2 5598.16 0.00000 -9.40891e-13
  3 5598.16 0.00000 4.51485e-13
  4 5598.16 0.00000 1.08399e-13
  5 5598.16 0.00000 2.93330e-13
  6 5598.16 0.00000 4.99386e-13
  7 5598.16 0.00000 6.27261e-13
  8 5598.16 0.00000 5.46375e-13
  9 5598.16 0.00000 3.86884e-13
  10 5598.16 0.00000 8.49776e-13
  11 5598.16 0.00000 -4.98301e-13
  12 5598.16 0.00000 -8.89622e-13
  13 5598.16 0.00000 -8.09491e-13
  14 5598.16 0.00000 5.64567e-13
  15 5598.16 0.00000 -6.85435e-14
  16 5598.16 0.00000 -2.48824e-13
  17 5598.16 0.00000 6.02096e-13
  18 5598.16 0.00000 1.19250e-13
  19 5598.16 0.00000 -2.48252e-13
  20 5598.16 0.00000 -1.09308e-12
  21 5598.16 0.00000 -1.12458e-12
  22 5598.16 0.00000 -9.47539e-13
  23 5598.16 0.00000 -3.53268e-13
  24 5598.16 0.00000 5.00205e-13
  25 5598.16 0.00000 1.96851e-13
  26 5598.16 0.00000 -3.34573e-14
  27 5598.16 0.00000 0.00000
  28 5598.16 0.00000 9.42008e-14
  29 5598.16 0.00000 -2.94043e-13
  30 5598.16 0.00000 2.80376e-13
  31 5598.16 0.00000 3.94616e-14
  32 5598.16 0.00000 9.99917e-14
  33 5598.16 0.00000 -5.53422e-13
  34 5598.16 0.00000 -1.25616e-13
  35 5598.16 0.00000 -3.24431e-13
  36 5598.16 0.00000 9.36219e-13
  37 5598.16 0.00000 -5.06481e-14
  38 5598.16 0.00000 4.22500e-15
  39 5598.16 0.00000 -2.01934e-13
  40 5598.16 0.00000 7.43822e-14
  41 5598.16 0.00000 -1.11535e-13
  42 5598.16 0.00000 1.56896e-13
  43 5598.16 0.00000 -7.56202e-13
  44 5598.16 0.00000 -1.33368e-13
  45 5598.16 0.00000 3.27100e-14
  46 5598.16 0.00000 5.41433e-14
  47 5598.16 0.00000 9.21295e-13
  48 5598.16 0.00000 -4.93545e-13
  49 5598.16 0.00000 8.61250e-14
  50 5598.16 0.00000 -1.40797e-13
  51 5598.16 0.00000 3.12975e-13
  52 5598.16 0.00000 -2.26743e-13
  53 5598.16 0.00000 2.73078e-13
  54 5598.16 0.00000 -6.81215e-13
  55 5598.16 0.00000 -1.86787e-14
  56 5598.16 0.00000 4.91280e-13
  57 5598.16 0.00000 -3.39234e-13
  58 5598.16 0.00000 1.38626e-14
  59 5598.16 0.00000 -4.23668e-13
  60 5598.16 0.00000 1.72543e-14
  61 5598.16 0.00000 -6.72637e-13
  62 5598.16 0.00000 2.30770e-13
  63 5598.16 0.00000 1.36451e-13
  64 5598.16 0.00000 1.23948e-12
  65 5598.16 0.00000 3.39033e-13
  66 5598.16 0.00000 -3.51647e-13
</Section>

newXOutput 120

<Section columns = "stress_xx | stress_yy | stress_xy">
  1 5648.46 0.00000 1.31069e-13
  2 5648.46 0.00000 -5.11984e-15
  3 5648.46 0.00000 -9.77712e-13
  4 5648.46 0.00000 9.86767e-14
  5 5648.46 0.00000 1.93924e-13
  6 5648.46 0.00000 3.46974e-13
  7 5648.46 0.00000 5.76413e-13
  8 5648.46 0.00000 3.79673e-13
  9 5648.46 0.00000 -1.32675e-13
  10 5648.46 0.00000 -2.50023e-12
  11 5648.46 0.00000 -1.20303e-12
  12 5648.46 0.00000 -6.44030e-13
  13 5648.46 0.00000 2.84119e-13
  14 5648.46 0.00000 2.48007e-13
  15 5648.46 0.00000 -2.40173e-13
  16 5648.46 0.00000 -1.99291e-13
  17 5648.46 0.00000 3.25374e-13
  18 5648.46 0.00000 2.17290e-12
  19 5648.46 0.00000 5.96880e-13
  20 5648.46 0.00000 2.03046e-13
  21 5648.46 0.00000 4.10113e-13
  22 5648.46 0.00000 1.88227e-13
  23 5648.46 0.00000 -6.97206e-14
  24 5648.46 0.00000 1.58238e-13
  25 5648.46 0.00000 3.04294e-13
  26 5648.46 0.00000 -2.64870e-14
  27 5648.46 0.00000 -2.55992e-15
  28 5648.46 0.00000 1.08072e-13
  29 5648.46 0.00000 -3.21670e-13
  30 5648.46 0.00000 -8.31932e-14
  31 5648.46 0.00000 -5.59119e-13
  32 5648.46 0.00000 -2.15940e-13
  33 5648.46 0.00000 -8.70190e-13
  34 5648.46 0.00000 -1.80550e-13
  35 5648.46 0.00000 4.88332e-14
  36 5648.46 0.00000 1.13948e-13
  37 5648.46 0.00000 -1.68653e-13
  38 5648.46 0.00000 2.02920e-13
  39 5648.46 0.00000 -2.71835e-13
  40 5648.46 0.00000 3.61399e-14
  41 5648.46 0.00000 -3.89166e-13
  42 5648.46 0.00000 1.72254e-13
  43 5648.46 0.00000 -5.52298e-13
  44 5648.46 0.00000 2.22329e-14
  45 5648.46 0.00000 -7.53325e-14
  46 5648.46 0.00000 2.38881e-13
  47 5648.46 0.00000 4.80378e-13
  48 5648.46 0.00000 -3.05955e-13
  49 5648.46 0.00000 2.47489e-13
  50 5648.46 0.00000 3.30871e-14
  51 5648.46 0.00000 -4.05822e-13
  52 5648.46 0.00000 -1.96797e-13
  53 5648.46 0.00000 -2.21094e-13
  54 5648.46 0.00000 -1.95159e-13
  55 5648.46 0.00000 1.97247e-13
  56 5648.46 0.00000 -3.65719e-13
  57 5648.46 0.00000 5.40361e-14
  58 5648.46 0.00000 -6.06864e-14
  59 5648.46 0.00000 -1.42792e-13
  60 5648.46 0.00000 1.46079e-13
  61 5648.46 0.00000 -6.38756e-13
  62 5648.46 0.00000 2.72145e-15
  63 5648.46 0.00000 2.52006e-13
  64 5648.46 0.00000 7.37971e-13
  65 5648.46 0.00000 -1.00137e-12
  66 5648.46 0.00000 -2.94927e-13
</Section>

newXOutput 121

<Section columns = "stress_xx | stress_yy | stress_xy">
  1 5698.85 0.00000 -1.06870e-13
  2 5698.85 0.00000 -7.36887e-13
  3 5698.85 0.00000 -1.81253e-13
  4 5698.85 0.00000 -2.04530e-13
  5 5698.85 0.00000 -2.81539e-14
  6 5698.85 0.00000 -5.57596e-14
  7 5698.85 0.00000 4.89796e-13
  8 5698.85 0.00000 5.47018e-13
  9 5698.85 0.00000 5.28749e-13
  10 5698.85 0.00000 1.18074e-13
  11 5698.85 0.00000 1.27643e-12
  12 5698.85 0.00000 8.54962e-13
  13 5698.85 0.00000 -5.37171e-13
  14 5698.85 0.00000 3.93581e-14
  15 5698.85 0.00000 2.19379e-15
  16 5698.85 0.00000 -8.01788e-14
  17 5698.85 0.00000 -1.10407e-13
  18 5698.85 0.00000 -1.42140e-12
  19 5698.85 0.00000 5.93098e-14
  20 5698.85 0.00000 -2.99779e-13
  21 5698.85 0.00000 -2.55981e-13
  22 5698.85 0.00000 -3.47378e-13
  23 5698.85 0.00000 -7.84054e-14
  24 5698.85 0.00000 5.43158e-15
  25 5698.85 0.00000 -4.61654e-13
  26 5698.85 0.00000 6.97843e-14
  27 5698.85 0.00000 0.00000
  28 5698.85 0.00000 -4.45554e-14
  29 5698.85 0.00000 -2.22952e-13
  30 5698.85 0.00000 5.68347e-13
  31 5698.85 0.00000 5.26406e-14
  32 5698.85 0.00000 -1.65709e-14
  33 5698.85 0.00000 -9.49311e-13
  34 5698.85 0.00000 5.01600e-14
  35 5698.85 0.00000 -2.29348e-13
  36 5698.85 0.00000 4.26384e-13
  37 5698.85 0.00000 3.59786e-13
  38 5698.85 0.00000 3.43362e-13
  39 5698.85 0.00000 -1.29410e-13
  40 5698.85 0.00000 3.24273e-13
  41 5698.85 0.00000 1.44036e-13
  42 5698.85 0.00000 5.59593e-13
  43 5698.85 0.00000 4.97428e-14
  44 5698.85 0.00000 -1.89993e-13
  45 5698.85 0.00000 5.70851e-14
  46 5698.85 0.00000 3.61580e-13
  47 5698.85 0.00000 3.78954e-13
  48 5698.85 0.00000 -6.44553e-14
  49 5698.85 0.00000 -3.64614e-13
  50 5698.85 0.00000 -1.56310e-14
  51 5698.85 0.00000 -3.35744e-13
  52 5698.85 0.00000 -6.04295e-14
  53 5698.85 0.00000 -4.37862e-13
  54 5698.85 0.00000 2.58445e-13
  55 5698.85 0.00000 -1.85430e-14
  56 5698.85 0.00000 3.36441e-13
  57 5698.85 0.00000 -4.22100e-13
  58 5698.85 0.00000 -1.61264e-13
  59 5698.85 0.00000 -1.69535e-13
  60 5698.85 0.00000 -7.02089e-14
  61 5698.85 0.00000 -3.04486e-13
  62 5698.85 0.00000 -2.31394e-13
  63 5698.85 0.00000 -6.72405e-14
  64 5698.85 0.00000 -2.57456e-13
  65 5698.85 0.00000 8.54962e-13
  66 5698.85 0.00000 -6.11495e-15
</Section>

newXOutput 122

<Section columns = "stress_xx | stress_yy | stress_xy">
  1 5749.35 0.00000 7.50389e-13
  2 5749.35 0.00000 0.00000
  3 5749.35 0.00000 2.38242e-13
  4 5749.35 0.00000 5.70826e-13
  5 5749.35 0.00000 9.01736e-13
  6 5749.35 0.00000 4.01477e-13
  7 5749.35 0.00000 3.42588e-13
  8 5749.35 0.00000 2.07636e-13
  9 5749.35 0.00000 2.29433e-13
  10 5749.35 0.00000 -8.57588e-13
  11 5749.35 0.00000 -8.32996e-13
  12 5749.35 0.00000 -2.38333e-13
  13 5749.35 0.00000 2.37116e-13
  14 5749.35 0.00000 1.45150e-28
  15 5749.35 0.00000 6.04967e-14
  16 5749.35 0.00000 7.91401e-14
  17 5749.35 0.00000 4.53512e-13
  18 5749.35 0.00000 -2.52616e-13
  19 5749.35 0.00000 -6.38687e-13
  20 5749.35 0.00000 -1.55625e-12
  21 5749.35 0.00000 -7.93437e-13
  22 5749.35 0.00000 -9.99737e-13
  23 5749.35 0.00000 -5.32296e-13
  24 5749.35 0.00000 -1.44019e-13
  25 5749.35 0.00000 8.76329e-13
  26 5749.35 0.00000 -1.07807e-13
  27 5749.35 0.00000 0.00000
  28 5749.35 0.00000 -9.06318e-14
  29 5749.35 0.00000 -1.57335e-13
  30 5749.35 0.00000 7.79405e-13
  31 5749.35 0.00000 2.49338e-13
  32 5749.35 0.00000 1.12504e-13
  33 5749.35 0.00000 7.98623e-13
  34 5749.35 0.00000 1.38878e-14
  35 5749.35 0.00000 -2.69945e-13
  36 5749.35 0.00000 -1.11819e-12
  37 5749.35 0.00000 4.69638e-13
  38 5749.35 0.00000 -1.07376e-13
  39 5749.35 0.00000 -3.95345e-13
  40 5749.35 0.00000 2.83421e-13
  41 5749.35 0.00000 6.34951e-13
  42 5749.35 0.00000 -3.41441e-13
  43 5749.35 0.00000 7.91328e-13
  44 5749.35 0.00000 -7.43509e-14
  45 5749.35 0.00000 -9.11013e-14
  46 5749.35 0.00000 1.80861e-13
  47 5749.35 0.00000 -5.35571e-13
  48 5749.35 0.00000 -3.92595e-13
  49 5749.35 0.00000 2.11127e-13
  50 5749.35 0.00000 -2.55510e-13
  51 5749.35 0.00000 3.50779e-13
  52 5749.35 0.00000 -2.07280e-13
  53 5749.35 0.00000 4.07182e-13
  54 5749.35 0.00000 -3.97716e-13
  55 5749.35 0.00000 1.31876e-13
  56 5749.35 0.00000 1.96785e-14
  57 5749.35 0.00000 5.33120e-13
  58 5749.35 0.00000 2.90099e-13
  59 5749.35 0.00000 -1.84810e-13
  60 5749.35 0.00000 2.06884e-13
  61 5749.35 0.00000 6.73311e-13
  62 5749.35 0.00000 3.33525e-13
  63 5749.35 0.00000 3.83996e-13
  64 5749.35 0.00000 -6.84834e-13
  65 5749.35 0.00000 -1.11925e-13
  66 5749.35 0.00000 -6.02725e-13
</Section>

newXOutput 123

<Section columns = "stress_xx | stress_yy | stress_xy">
  1 5799.96 0.00000 -5.85417e-13
  2 5799.96 0.00000 5.97603e-14
  3 5799.96 0.00000 -1.78891e-13
  4 5799.96 0.00000 -3.81319e-13
  5 5799.96 0.00000 -5.91293e-13
  6 5799.96 0.00000 -2.42908e-13
  7 5799.96 0.00000 5.95874e-14
  8 5799.96 0.00000 2.57967e-14
  9 5799.96 0.00000 7.11564e-13
  10 5799.96 0.00000 1.60387e-12
  11 5799.96 0.00000 3.52469e-13
  12 5799.96 0.00000 3.66426e-13
  13 5799.96 0.00000 -8.94890e-14
  14 5799.96 0.00000 1.17576e-13
  15 5799.96 0.00000 2.92968e-13
  16 5799.96 0.00000 7.60343e-14
  17 5799.96 0.00000 6.45908e-14
  18 5799.96 0.00000 8.33932e-13
  19 5799.96 0.00000 4.86733e-13
  20 5799.96 0.00000 -1.66851e-12
  21 5799.96 0.00000 -1.23599e-12
  22 5799.96 0.00000 -5.34029e-13
  23 5799.96 0.00000 -3.90350e-13
  24 5799.96 0.00000 -1.84072e-13
  25 5799.96 0.00000 -6.84061e-13
  26 5799.96 0.00000 4.48315e-15
  27 5799.96 0.00000 5.97603e-14
  28 5799.96 0.00000 2.14330e-13
  29 5799.96 0.00000 -1.12066e-14
  30 5799.96 0.00000 -9.28508e-13
  31 5799.96 0.00000 -2.92559e-14
  32 5799.96 0.00000 7.85347e-13
  33 5799.96 0.00000 -6.75550e-13
  34 5799.96 0.00000 -2.06298e-13
  35 5799.96 0.00000 -9.22685e-14
  36 5799.96 0.00000 7.66515e-13
  37 5799.96 0.00000 -5.57689e-13
  38 5799.96 0.00000 3.14909e-13
  39 5799.96 0.00000 -4.24446e-13
  40 5799.96 0.00000 5.76373e-14
  41 5799.96 0.00000 4.08816e-15
  42 5799.96 0.00000 1.35935e-13
  43 5799.96 0.00000 -2.94612e-13
  44 5799.96 0.00000 1.26360e-13
  45 5799.96 0.00000 -4.25663e-13
  46 5799.96 0.00000 4.08541e-13
  47 5799.96 0.00000 4.46254e-13
  48 5799.96 0.00000 -5.58264e-13
  49 5799.96 0.00000 -6.40766e-14
  50 5799.96 0.00000 2.93573e-13
  51 5799.96 0.00000 4.60246e-13
  52 5799.96 0.00000 -8.43034e-14
  53 5799.96 0.00000 1.36486e-13
  54 5799.96 0.00000 -4.30657e-13
  55 5799.96 0.00000 -3.65699e-13
  56 5799.96 0.00000 1.18831e-14
  57 5799.96 0.00000 -9.37291e-14
  58 5799.96 0.00000 -2.97843e-13
  59 5799.96 0.00000 3.27014e-13
  60 5799.96 0.00000 -5.91465e-13
  61 5799.96 0.00000 8.40598e-14
  62 5799.96 0.00000 -3.81749e-13
  63 5799.96 0.00000 -8.52390e-13
  64 5799.96 0.00000 1.09522e-12
  65 5799.96 0.00000 7.64620e-13
  66 5799.96 0.00000 -1.08864e-12
</Section>

newXOutput 124

<Section columns = "stress_xx | stress_yy | stress_xy">
  1 5850.67 0.00000 2.64568e-13
  2 5850.67 0.00000 -9.19750e-13
  3 5850.67 0.00000 -1.75607e-13
  4 5850.67 0.00000 4.23292e-13
  5 5850.67 0.00000 8.26952e-13
  6 5850.67 0.00000 2.87636e-13
  7 5850.67 0.00000 -2.08214e-13
  8 5850.67 0.00000 -2.22513e-13
  9 5850.67 0.00000 -5.98883e-13
  10 5850.67 0.00000 5.90217e-14
  11 5850.67 0.00000 -1.11838e-12
  12 5850.67 0.00000 6.76757e-13
  13 5850.67 0.00000 1.25203e-12
  14 5850.67 0.00000 1.55939e-13
  15 5850.67 0.00000 5.90217e-14
  16 5850.67 0.00000 -1.16954e-13
  17 5850.67 0.00000 -3.87887e-13
  18 5850.67 0.00000 -4.43634e-13
  19 5850.67 0.00000 -4.05208e-13
  20 5850.67 0.00000 -8.94143e-13
  21 5850.67 0.00000 -1.57226e-13
  22 5850.67 0.00000 6.25765e-13
  23 5850.67 0.00000 1.08362e-12
  24 5850.67 0.00000 8.47074e-13
  25 5850.67 0.00000 1.10263e-12
  26 5850.67 0.00000 -1.84744e-13
  27 5850.67 0.00000 -2.31730e-13
  28 5850.67 0.00000 -3.33896e-13
  29 5850.67 0.00000 -3.42446e-13
  30 5850.67 0.00000 4.37065e-13
  31 5850.67 0.00000 -5.27898e-13
  32 5850.67 0.00000 -5.58269e-13
  33 5850.67 0.00000 -4.62014e-13
  34 5850.67 0.00000 -2.72001e-13
  35 5850.67 0.00000 -5.30770e-13
  36 5850.67 0.00000 -4.58372e-13
  37 5850.67 0.00000 -1.33253e-12
  38 5850.67 0.00000 -4.80624e-13
  39 5850.67 0.00000 1.18687e-13
  40 5850.67 0.00000 -1.59547e-12
  41 5850.67 0.00000 -7.27083e-14
  42 5850.67 0.00000 -1.07165e-13
  43 5850.67 0.00000 -5.81586e-13
  44 5850.67 0.00000 -1.73351e-13
  45 5850.67 0.00000 1.10045e-14
  46 5850.67 0.00000 -7.76671e-13
  47 5850.67 0.00000 -1.54924e-13
  48 5850.67 0.00000 3.40612e-13
  49 5850.67 0.00000 1.51177e-13
  50 5850.67 0.00000 -5.86951e-13
  51 5850.67 0.00000 -4.22640e-13
  52 5850.67 0.00000 -5.74790e-13
  53 5850.67 0.00000 -1.05382e-13
  54 5850.67 0.00000 -5.38106e-13
  55 5850.67 0.00000 -3.84402e-14
  56 5850.67 0.00000 -4.62490e-13
  57 5850.67 0.00000 9.82741e-14
  58 5850.67 0.00000 2.73679e-13
  59 5850.67 0.00000 -6.46124e-13
  60 5850.67 0.00000 2.94258e-13
  61 5850.67 0.00000 3.36639e-13
  62 5850.67 0.00000 6.69647e-13
  63 5850.67 0.00000 4.39891e-13
  64 5850.67 0.00000 -9.43069e-13
  65 5850.67 0.00000 -1.33409e-12
  66 5850.67 0.00000 -6.24107e-13
</Section>

newXOutput 125

<Section columns = "stress_xx | stress_yy | stress_xy">
  1 5901.48 0.00000 2.16400e-13
  2 5901.48 0.00000 2.88530e-13
  3 5901.48 0.00000 -5.78964e-14
  4 5901.48 0.00000 3.24521e-13
  5 5901.48 0.00000 5.78896e-13
  6 5901.48 0.00000 5.02146e-13
  7 5901.48 0.00000 1.83121e-13
  8 5901.48 0.00000 -1.72930e-13
  9 5901.48 0.00000 6.74879e-13
  10 5901.48 0.00000 2.82849e-12
  11 5901.48 0.00000 1.44303e-12
  12 5901.48 0.00000 8.45219e-13
  13 5901.48 0.00000 2.69110e-13
  14 5901.48 0.00000 6.15921e-13
  15 5901.48 0.00000 0.00000
  16 5901.48 0.00000 3.87342e-14
  17 5901.48 0.00000 -5.75843e-13
  18 5901.48 0.00000 -8.26512e-13
  19 5901.48 0.00000 -2.11690e-13
  20 5901.48 0.00000 7.75277e-14
  21 5901.48 0.00000 -9.26015e-13
  22 5901.48 0.00000 -4.21636e-13
  23 5901.48 0.00000 7.75867e-14
  24 5901.48 0.00000 -1.82768e-13
  25 5901.48 0.00000 2.46965e-13
  26 5901.48 0.00000 -1.38932e-13
  27 5901.48 0.00000 5.82810e-14
  28 5901.48 0.00000 4.14018e-14
  29 5901.48 0.00000 -4.71334e-13
  30 5901.48 0.00000 -4.79470e-13
  31 5901.48 0.00000 1.76598e-13
  32 5901.48 0.00000 2.89848e-13
  33 5901.48 0.00000 7.49474e-13
  34 5901.48 0.00000 -2.84717e-14
  35 5901.48 0.00000 -4.93685e-13
  36 5901.48 0.00000 1.77520e-12
  37 5901.48 0.00000 1.20999e-13
  38 5901.48 0.00000 -3.06455e-14
  39 5901.48 0.00000 -1.26501e-13
  40 5901.48 0.00000 -4.28346e-13
  41 5901.48 0.00000 -1.16665e-13
  42 5901.48 0.00000 3.59034e-13
  43 5901.48 0.00000 7.78741e-13
  44 5901.48 0.00000 -2.12513e-13
  45 5901.48 0.00000 -2.10420e-13
  46 5901.48 0.00000 7.47075e-14
  47 5901.48 0.00000 3.88497e-13
  48 5901.48 0.00000 -3.94386e-13
  49 5901.48 0.00000 1.51779e-13
  50 5901.48 0.00000 -2.32255e-13
  51 5901.48 0.00000 1.78314e-13
  52 5901.48 0.00000 -3.85979e-13
  53 5901.48 0.00000 1.20370e-13
  54 5901.48 0.00000 1.73457e-13
  55 5901.48 0.00000 7.71090e-14
  56 5901.48 0.00000 3.85497e-13
  57 5901.48 0.00000 1.13981e-12
  58 5901.48 0.00000 9.73701e-14
  59 5901.48 0.00000 -5.07889e-13
  60 5901.48 0.00000 -2.12027e-13
  61 5901.48 0.00000 1.45944e-12
  62 5901.48 0.00000 4.47053e-15
  63 5901.48 0.00000 2.11120e-13
  64 5901.48 0.00000 8.75641e-13
  65 5901.48 0.00000 6.81685e-13
  66 5901.48 0.00000 -2.67005e-13
</Section>

newXOutput 126

<Section columns = "stress_xx | stress_yy | stress_xy">
  1 5952.41 0.00000 -1.08540e-13
  2 5952.41 0.00000 -1.15462e-12
  3 5952.41 0.00000 7.53800e-13
  4 5952.41 0.00000 -3.37522e-13
  5 5952.41 0.00000 -2.47186e-13
  6 5952.41 0.00000 -4.44127e-13
  7 5952.41 0.00000 2.39396e-13
  8 5952.41 0.00000 1.74826e-13
  9 5952.41 0.00000 -3.37650e-13
  10 5952.41 0.00000 -1.04024e-12
  11 5952.41 0.00000 -4.05390e-13
  12 5952.41 0.00000 -4.41948e-13
  13 5952.41 0.00000 -1.73036e-12
  14 5952.41 0.00000 1.26218e-28
  15 5952.41 0.00000 -4.92249e-28
  16 5952.41 0.00000 -7.60228e-14
  17 5952.41 0.00000 7.38017e-13
  18 5952.41 0.00000 -2.75094e-13
  19 5952.41 0.00000 -2.90748e-13
  20 5952.41 0.00000 -7.75726e-13
  21 5952.41 0.00000 7.09891e-13
  22 5952.41 0.00000 3.65689e-13
  23 5952.41 0.00000 -2.89509e-13
  24 5952.41 0.00000 6.02720e-14
  25 5952.41 0.00000 -4.43524e-14
  26 5952.41 0.00000 2.12837e-13
  27 5952.41 0.00000 1.14382e-13
  28 5952.41 0.00000 -3.62957e-14
  29 5952.41 0.00000 1.03260e-12
  30 5952.41 0.00000 4.88189e-13
  31 5952.41 0.00000 5.64841e-14
  32 5952.41 0.00000 7.72855e-13
  33 5952.41 0.00000 4.35240e-13
  34 5952.41 0.00000 1.69544e-13
  35 5952.41 0.00000 4.33301e-13
  36 5952.41 0.00000 -2.67853e-13
  37 5952.41 0.00000 1.38545e-13
  38 5952.41 0.00000 5.33851e-13
  39 5952.41 0.00000 -1.76786e-13
  40 5952.41 0.00000 8.40883e-14
  41 5952.41 0.00000 5.22601e-13
  42 5952.41 0.00000 5.90224e-13
  43 5952.41 0.00000 3.45256e-13
  44 5952.41 0.00000 2.29511e-13
  45 5952.41 0.00000 2.53340e-13
  46 5952.41 0.00000 4.34912e-13
  47 5952.41 0.00000 1.25703e-13
  48 5952.41 0.00000 2.62702e-13
  49 5952.41 0.00000 5.11317e-14
  50 5952.41 0.00000 4.64122e-13
  51 5952.41 0.00000 -2.76219e-13
  52 5952.41 0.00000 5.78382e-13
  53 5952.41 0.00000 4.08993e-13
  54 5952.41 0.00000 8.08465e-17
  55 5952.41 0.00000 -4.82542e-14
  56 5952.41 0.00000 5.40706e-13
  57 5952.41 0.00000 -9.92899e-13
  58 5952.41 0.00000 -9.40789e-14
  59 5952.41 0.00000 1.01857e-12
  60 5952.41 0.00000 -2.03163e-14
  61 5952.41 0.00000 -4.83365e-13
  62 5952.41 0.00000 -3.70960e-13
  63 5952.41 0.00000 -1.86300e-13
  64 5952.41 0.00000 1.57017e-13
  65 5952.41 0.00000 -5.99314e-13
  66 5952.41 0.00000 5.87015e-13
</Section>

newXOutput 127

<Section columns = "stress_xx | stress_yy | stress_xy">
  1 6003.44 0.00000 1.08882e-13
  2 6003.44 0.00000 5.11339e-13
  3 6003.44 0.00000 -3.40900e-13
  4 6003.44 0.00000 1.60901e-13
  5 6003.44 0.00000 7.89273e-14
  6 6003.44 0.00000 -3.67712e-13
  7 6003.44 0.00000 -9.84727e-13
  8 6003.44 0.00000 -6.05922e-13
  9 6003.44 0.00000 1.84613e-13
  10 6003.44 0.00000 1.74211e-12
  11 6003.44 0.00000 7.57420e-13
  12 6003.44 0.00000 2.34804e-12
  13 6003.44 0.00000 1.57806e-12
  14 6003.44 0.00000 3.78621e-14
  15 6003.44 0.00000 5.67931e-14
  16 6003.44 0.00000 -1.13620e-13
  17 6003.44 0.00000 1.28765e-12
  18 6003.44 0.00000 9.72042e-13
  19 6003.44 0.00000 -6.26079e-13
  20 6003.44 0.00000 -1.28761e-12
  21 6003.44 0.00000 -9.13651e-13
  22 6003.44 0.00000 1.38819e-13
  23 6003.44 0.00000 -5.80718e-13
  24 6003.44 0.00000 -5.42807e-13
  25 6003.44 0.00000 -1.48335e-13
  26 6003.44 0.00000 -1.42032e-13
  27 6003.44 0.00000 -5.67931e-14
  28 6003.44 0.00000 -3.47260e-14
  29 6003.44 0.00000 -6.15425e-13
  30 6003.44 0.00000 -1.53360e-13
  31 6003.44 0.00000 5.46288e-15
  32 6003.44 0.00000 1.86214e-13
  33 6003.44 0.00000 -1.31038e-12
  34 6003.44 0.00000 4.74625e-14
  35 6003.44 0.00000 -1.76579e-13
  36 6003.44 0.00000 -2.82143e-13
  37 6003.44 0.00000 -1.10499e-13
  38 6003.44 0.00000 -3.77937e-13
  39 6003.44 0.00000 -4.13871e-13
  40 6003.44 0.00000 -4.53126e-13
  41 6003.44 0.00000 -6.94530e-14
  42 6003.44 0.00000 -4.96273e-13
  43 6003.44 0.00000 4.61656e-14
  44 6003.44 0.00000 -4.43219e-13
  45 6003.44 0.00000 -2.00027e-13
  46 6003.44 0.00000 -1.49833e-13
  47 6003.44 0.00000 -4.25976e-14
  48 6003.44 0.00000 -1.25497e-13
  49 6003.44 0.00000 4.73397e-13
  50 6003.44 0.00000 -2.88483e-13
  51 6003.44 0.00000 2.74535e-13
  52 6003.44 0.00000 -1.49993e-14
  53 6003.44 0.00000 4.13437e-13
  54 6003.44 0.00000 -6.89239e-13
  55 6003.44 0.00000 2.21007e-14
  56 6003.44 0.00000 -4.22900e-13
  57 6003.44 0.00000 -3.11644e-15
  58 6003.44 0.00000 8.95751e-17
  59 6003.44 0.00000 -6.33959e-13
  60 6003.44 0.00000 4.84440e-13
  61 6003.44 0.00000 -1.93135e-13
  62 6003.44 0.00000 8.72417e-14
  63 6003.44 0.00000 7.38571e-14
  64 6003.44 0.00000 8.14247e-14
  65 6003.44 0.00000 7.87725e-13
  66 6003.44 0.00000 -1.31034e-12
</Section>

newXOutput 128

<Section columns = "stress_xx | stress_yy | stress_xy">
  1 6054.59 0.00000 -1.66071e-13
  2 6054.59 0.00000 -7.60931e-13
  3 6054.59 0.00000 8.17846e-13
  4 6054.59 0.00000 -1.09303e-13
  5 6054.59 0.00000 -4.75760e-13
  6 6054.59 0.00000 -4.73319e-13
  7 6054.59 0.00000 2.91273e-13
  8 6054.59 0.00000 1.09472e-12
  9 6054.59 0.00000 1.30381e-12
  10 6054.59 0.00000 -7.60931e-13
  11 6054.59 0.00000 -1.63535e-12
  12 6054.59 0.00000 -1.26848e-12
  13 6054.59 0.00000 -3.78956e-14
  14 6054.59 0.00000 0.00000
  15 6054.59 0.00000 -5.60459e-14
  16 6054.59 0.00000 -3.74304e-14
  17 6054.59 0.00000 1.10921e-12
  18 6054.59 0.00000 4.59744e-13
  19 6054.59 0.00000 1.56517e-12
  20 6054.59 0.00000 -4.98591e-13
  21 6054.59 0.00000 3.58468e-13
  22 6054.59 0.00000 5.40390e-13
  23 6054.59 0.00000 2.91753e-13
  24 6054.59 0.00000 2.86675e-13
  25 6054.59 0.00000 3.41025e-14
  26 6054.59 0.00000 1.46326e-13
  27 6054.59 0.00000 5.60459e-14
  28 6054.59 0.00000 1.11203e-13
  29 6054.59 0.00000 5.19546e-13
  30 6054.59 0.00000 2.47728e-13
  31 6054.59 0.00000 1.42961e-14
  32 6054.59 0.00000 8.71412e-13
  33 6054.59 0.00000 -1.46260e-12
  34 6054.59 0.00000 -8.88766e-14
  35 6054.59 0.00000 3.62649e-13
  36 6054.59 0.00000 5.83955e-13
  37 6054.59 0.00000 -6.15859e-13
  38 6054.59 0.00000 2.54892e-13
  39 6054.59 0.00000 4.37130e-13
  40 6054.59 0.00000 7.98727e-13
  41 6054.59 0.00000 4.90621e-13
  42 6054.59 0.00000 1.33487e-12
  43 6054.59 0.00000 -9.37239e-13
  44 6054.59 0.00000 1.87685e-13
  45 6054.59 0.00000 2.17879e-13
  46 6054.59 0.00000 9.38585e-13
  47 6054.59 0.00000 1.04925e-12
  48 6054.59 0.00000 4.76989e-13
  49 6054.59 0.00000 -2.88637e-13
  50 6054.59 0.00000 1.75997e-13
  51 6054.59 0.00000 -1.64333e-13
  52 6054.59 0.00000 2.71372e-13
  53 6054.59 0.00000 -3.24137e-13
  54 6054.59 0.00000 1.11609e-12
  55 6054.59 0.00000 -1.46824e-13
  56 6054.59 0.00000 9.21222e-13
  57 6054.59 0.00000 -9.46572e-13
  58 6054.59 0.00000 7.24609e-14
  59 6054.59 0.00000 3.99880e-13
  60 6054.59 0.00000 -2.72234e-13
  61 6054.59 0.00000 -8.71130e-13
  62 6054.59 0.00000 8.43740e-14
  63 6054.59 0.00000 -3.11871e-13
  64 6054.59 0.00000 7.69678e-13
  65 6054.59 0.00000 -1.07270e-13
  66 6054.59 0.00000 5.08921e-13
</Section>

newXOutput 129

<Section columns = "stress_xx | stress_yy | stress_xy">
  1 6105.85 0.00000 -5.42794e-14
  2 6105.85 0.00000 1.13687e-13
  3 6105.85 0.00000 -1.41715e-16
  4 6105.85 0.00000 -1.10561e-13
  5 6105.85 0.00000 1.11624e-13
  6 6105.85 0.00000 7.30505e-14
  7 6105.85 0.00000 -2.51241e-13
  8 6105.85 0.00000 2.57725e-13
  9 6105.85 0.00000 -8.70892e-15
  10 6105.85 0.00000 4.84891e-13
  11 6105.85 0.00000 1.48312e-12
  12 6105.85 0.00000 2.00223e-12
  13 6105.85 0.00000 1.16984e-12
  14 6105.85 0.00000 3.89270e-14
  15 6105.85 0.00000 1.13687e-13
  16 6105.85 0.00000 2.24537e-13
  17 6105.85 0.00000 5.08782e-13
  18 6105.85 0.00000 -8.39902e-13
  19 6105.85 0.00000 1.85435e-13
  20 6105.85 0.00000 -3.24063e-13
  21 6105.85 0.00000 -7.36606e-13
  22 6105.85 0.00000 -7.83537e-14
  23 6105.85 0.00000 -4.01674e-13
  24 6105.85 0.00000 -1.02121e-12
  25 6105.85 0.00000 -9.53268e-13
  26 6105.85 0.00000 -1.80320e-13
  27 6105.85 0.00000 -1.10593e-13
  28 6105.85 0.00000 1.10302e-13
  29 6105.85 0.00000 -2.94784e-13
  30 6105.85 0.00000 -8.63633e-13
  31 6105.85 0.00000 8.41515e-15
  32 6105.85 0.00000 -2.36810e-13
  33 6105.85 0.00000 -5.95047e-13
  34 6105.85 0.00000 4.22325e-14
  35 6105.85 0.00000 -4.02159e-13
  36 6105.85 0.00000 1.16943e-12
  37 6105.85 0.00000 -4.36724e-13
  38 6105.85 0.00000 -3.81205e-13
  39 6105.85 0.00000 2.82085e-13
  40 6105.85 0.00000 -5.68722e-13
  41 6105.85 0.00000 -3.48928e-14
  42 6105.85 0.00000 -3.50910e-13
  43 6105.85 0.00000 4.04450e-13
  44 6105.85 0.00000 -4.96350e-13
  45 6105.85 0.00000 -2.40752e-14
  46 6105.85 0.00000 3.51950e-13
  47 6105.85 0.00000 -5.02814e-13
  48 6105.85 0.00000 -1.01957e-13
  49 6105.85 0.00000 2.65558e-13
  50 6105.85 0.00000 -2.85671e-13
  51 6105.85 0.00000 -9.13249e-13
  52 6105.85 0.00000 -7.06479e-14
  53 6105.85 0.00000 -1.20493e-12
  54 6105.85 0.00000 5.03957e-13
  55 6105.85 0.00000 -5.30619e-14
  56 6105.85 0.00000 7.71192e-13
  57 6105.85 0.00000 -8.39196e-14
  58 6105.85 0.00000 -1.86415e-13
  59 6105.85 0.00000 -5.98452e-13
  60 6105.85 0.00000 -1.89423e-13
  61 6105.85 0.00000 3.01587e-13
  62 6105.85 0.00000 -9.04611e-14
  63 6105.85 0.00000 -2.49566e-13
  64 6105.85 0.00000 8.81815e-13
  65 6105.85 0.00000 3.66103e-13
  66 6105.85 0.00000 -2.99868e-13
</Section>

newXOutput 130

<Section columns = "stress_xx | stress_yy | stress_xy">
  1 6157.22 0.00000 -2.19854e-13
  2 6157.22 0.00000 9.90804e-13
  3 6157.22 0.00000 -1.21142e-12
  4 6157.22 0.00000 4.41100e-13
  5 6157.22 0.00000 1.83212e-13
  6 6157.22 0.00000 3.63502e-13
  7 6157.22 0.00000 -2.54828e-13
  8 6157.22 0.00000 -8.77468e-13
  9 6157.22 0.00000 -5.48486e-13
  10 6157.22 0.00000 -5.45252e-13
  11 6157.22 0.00000 -5.47288e-13
  12 6157.22 0.00000 -1.45388e-13
  13 6157.22 0.00000 1.39144e-12
  14 6157.22 0.00000 -1.40726e-13
  15 6157.22 0.00000 -5.11182e-28
  16 6157.22 0.00000 -2.95885e-13
  17 6157.22 0.00000 -1.17167e-13
  18 6157.22 0.00000 2.91847e-13
  19 6157.22 0.00000 -7.16884e-13
  20 6157.22 0.00000 6.62895e-13
  21 6157.22 0.00000 6.07189e-13
  22 6157.22 0.00000 -3.65253e-13
  23 6157.22 0.00000 -1.43518e-13
  24 6157.22 0.00000 -1.42447e-13
  25 6157.22 0.00000 3.67653e-13
  26 6157.22 0.00000 -1.09025e-13
  27 6157.22 0.00000 -5.45446e-14
  28 6157.22 0.00000 3.73925e-14
  29 6157.22 0.00000 -5.05246e-13
  30 6157.22 0.00000 5.27516e-13
  31 6157.22 0.00000 3.97685e-14
  32 6157.22 0.00000 -4.22277e-13
  33 6157.22 0.00000 -6.81610e-13
  34 6157.22 0.00000 -4.56905e-13
  35 6157.22 0.00000 -4.18360e-15
  36 6157.22 0.00000 -6.52139e-14
  37 6157.22 0.00000 -1.80713e-13
  38 6157.22 0.00000 -2.73129e-13
  39 6157.22 0.00000 -2.54717e-13
  40 6157.22 0.00000 -5.50864e-13
  41 6157.22 0.00000 3.85092e-13
  42 6157.22 0.00000 -9.40247e-14
  43 6157.22 0.00000 -1.92660e-13
  44 6157.22 0.00000 -1.46275e-13
  45 6157.22 0.00000 -4.01585e-13
  46 6157.22 0.00000 -5.97020e-13
  47 6157.22 0.00000 -1.55344e-13
  48 6157.22 0.00000 -4.27021e-14
  49 6157.22 0.00000 2.47988e-13
  50 6157.22 0.00000 -1.85092e-13
  51 6157.22 0.00000 3.29362e-13
  52 6157.22 0.00000 -2.91793e-13
  53 6157.22 0.00000 -1.10190e-13
  54 6157.22 0.00000 -6.60957e-13
  55 6157.22 0.00000 -7.27019e-14
  56 6157.22 0.00000 -7.18545e-13
  57 6157.22 0.00000 7.65182e-14
  58 6157.22 0.00000 2.63059e-15
  59 6157.22 0.00000 -3.26469e-13
  60 6157.22 0.00000 7.69306e-13
  61 6157.22 0.00000 -4.39354e-13
  62 6157.22 0.00000 2.66011e-14
  63 6157.22 0.00000 1.37074e-13
  64 6157.22 0.00000 -4.42650e-13
  65 6157.22 0.00000 -4.78190e-13
  66 6157.22 0.00000 -3.03945e-13
</Section>

newXOutput 131

<Section columns = "stress_xx | stress_yy | stress_xy">
  1 6208.72 0.00000 -1.10281e-13
  2 6208.72 0.00000 -1.07581e-13
  3 6208.72 0.00000 -2.72932e-15
  4 6208.72 0.00000 -5.60348e-14
  5 6208.72 0.00000 7.30910e-14
  6 6208.72 0.00000 -3.29944e-13
  7 6208.72 0.00000 -3.67369e-13
  8 6208.72 0.00000 8.08964e-13
  9 6208.72 0.00000 7.99685e-13
  10 6208.72 0.00000 -8.28460e-13
  11 6208.72 0.00000 -2.48632e-13
  12 6208.72 0.00000 1.81414e-13
  13 6208.72 0.00000 6.98878e-13
  14 6208.72 0.00000 -6.24027e-13
  15 6208.72 0.00000 1.10634e-13
  16 6208.72 0.00000 2.20759e-13
  17 6208.72 0.00000 -1.13831e-12
  18 6208.72 0.00000 -1.43037e-12
  19 6208.72 0.00000 -1.04803e-12
  20 6208.72 0.00000 -8.09996e-13
  21 6208.72 0.00000 5.24706e-13
  22 6208.72 0.00000 5.14886e-13
  23 6208.72 0.00000 -7.34877e-13
  24 6208.72 0.00000 -4.42141e-13
  25 6208.72 0.00000 -2.21468e-13
  26 6208.72 0.00000 1.09499e-13
  27 6208.72 0.00000 1.10634e-13
  28 6208.72 0.00000 -3.62516e-14
  29 6208.72 0.00000 3.02826e-13
  30 6208.72 0.00000 -6.40904e-13
  31 6208.72 0.00000 2.32494e-13
  32 6208.72 0.00000 -5.32977e-13
  33 6208.72 0.00000 -5.95730e-13
  34 6208.72 0.00000 -1.12151e-13
  35 6208.72 0.00000 3.86396e-13
  36 6208.72 0.00000 1.34559e-12
  37 6208.72 0.00000 2.20416e-13
  38 6208.72 0.00000 2.20666e-13
  39 6208.72 0.00000 9.23909e-14
  40 6208.72 0.00000 2.00119e-13
  41 6208.72 0.00000 2.39056e-13
  42 6208.72 0.00000 -1.39792e-12
  43 6208.72 0.00000 3.71072e-13
  44 6208.72 0.00000 1.31624e-13
  45 6208.72 0.00000 -1.37869e-13
  46 6208.72 0.00000 5.93020e-13
  47 6208.72 0.00000 1.25268e-13
  48 6208.72 0.00000 5.06392e-13
  49 6208.72 0.00000 -3.44291e-13
  50 6208.72 0.00000 -2.87152e-14
  51 6208.72 0.00000 5.51834e-13
  52 6208.72 0.00000 6.62598e-13
  53 6208.72 0.00000 -7.90265e-13
  54 6208.72 0.00000 -9.49027e-13
  55 6208.72 0.00000 1.10438e-13
  56 6208.72 0.00000 1.83696e-14
  57 6208.72 0.00000 -2.01615e-13
  58 6208.72 0.00000 -9.24433e-16
  59 6208.72 0.00000 1.82561e-13
  60 6208.72 0.00000 -1.28936e-13
  61 6208.72 0.00000 2.41327e-13
  62 6208.72 0.00000 -1.76838e-13
  63 6208.72 0.00000 1.88183e-13
  64 6208.72 0.00000 -8.58122e-14
  65 6208.72 0.00000 -1.55239e-13
  66 6208.72 0.00000 -5.07433e-13
</Section>

newXOutput 132

<Section columns = "stress_xx | stress_yy | stress_xy">
  1 6260.33 0.00000 2.19755e-13
  2 6260.33 0.00000 -2.29652e-13
  3 6260.33 0.00000 -2.19338e-13
  4 6260.33 0.00000 8.39680e-16
  5 6260.33 0.00000 1.44980e-13
  6 6260.33 0.00000 1.47518e-13
  7 6260.33 0.00000 4.40017e-13
  8 6260.33 0.00000 4.09227e-13
  9 6260.33 0.00000 1.40202e-13
  10 6260.33 0.00000 4.92544e-13
  11 6260.33 0.00000 5.20775e-13
  12 6260.33 0.00000 1.47263e-13
  13 6260.33 0.00000 -7.01219e-13
  14 6260.33 0.00000 1.17355e-12
  15 6260.33 0.00000 1.09878e-13
  16 6260.33 0.00000 -8.18443e-30
  17 6260.33 0.00000 -8.45280e-13
  18 6260.33 0.00000 -2.46430e-12
  19 6260.33 0.00000 -6.41488e-13
  20 6260.33 0.00000 -3.75862e-13
  21 6260.33 0.00000 -5.83475e-13
  22 6260.33 0.00000 3.68119e-13
  23 6260.33 0.00000 1.45007e-13
  24 6260.33 0.00000 -1.51268e-13
  25 6260.33 0.00000 7.42942e-14
  26 6260.33 0.00000 -7.50287e-14
  27 6260.33 0.00000 0.00000
  28 6260.33 0.00000 3.64998e-14
  29 6260.33 0.00000 -3.88165e-13
  30 6260.33 0.00000 -1.34780e-13
  31 6260.33 0.00000 -2.36865e-13
  32 6260.33 0.00000 -6.27967e-13
  33 6260.33 0.00000 6.19803e-13
  34 6260.33 0.00000 -2.22399e-13
  35 6260.33 0.00000 -1.84038e-13
  36 6260.33 0.00000 -1.06487e-12
  37 6260.33 0.00000 -3.91438e-13
  38 6260.33 0.00000 5.53682e-14
  39 6260.33 0.00000 -3.14626e-13
  40 6260.33 0.00000 -7.64452e-14
  41 6260.33 0.00000 -5.35158e-13
  42 6260.33 0.00000 -5.38878e-13
  43 6260.33 0.00000 1.09698e-13
  44 6260.33 0.00000 -1.20503e-14
  45 6260.33 0.00000 -5.00005e-13
  46 6260.33 0.00000 1.11830e-13
  47 6260.33 0.00000 -1.43856e-12
  48 6260.33 0.00000 -2.45301e-13
  49 6260.33 0.00000 6.04705e-13
  50 6260.33 0.00000 -2.70110e-13
  51 6260.33 0.00000 -3.70470e-13
  52 6260.33 0.00000 -6.09326e-13
  53 6260.33 0.00000 -2.27400e-14
  54 6260.33 0.00000 -1.02290e-12
  55 6260.33 0.00000 -9.51556e-16
  56 6260.33 0.00000 -1.85972e-13
  57 6260.33 0.00000 9.52966e-13
  58 6260.33 0.00000 -7.37327e-14
  59 6260.33 0.00000 -3.99014e-13
  60 6260.33 0.00000 1.90143e-14
  61 6260.33 0.00000 1.78086e-13
  62 6260.33 0.00000 -9.01818e-14
  63 6260.33 0.00000 1.37080e-13
  64 6260.33 0.00000 -1.65782e-12
  65 6260.33 0.00000 3.72822e-13
  66 6260.33 0.00000 -9.51844e-13
</Section>

newXOutput 133

<Section columns = "stress_xx | stress_yy | stress_xy">
  1 6312.06 0.00000 -4.38355e-13
  2 6312.06 0.00000 8.35714e-13
  3 6312.06 0.00000 -3.78351e-13
  4 6312.06 0.00000 -3.41136e-13
  5 6312.06 0.00000 -2.57744e-13
  6 6312.06 0.00000 -6.89860e-14
  7 6312.06 0.00000 7.81647e-13
  8 6312.06 0.00000 4.01086e-13
  9 6312.06 0.00000 -5.89055e-13
  10 6312.06 0.00000 -2.12294e-12
  11 6312.06 0.00000 -5.39801e-13
  12 6312.06 0.00000 -1.33601e-12
  13 6312.06 0.00000 -1.20576e-12
  14 6312.06 0.00000 6.26843e-13
  15 6312.06 0.00000 -3.27356e-13
  16 6312.06 0.00000 -2.53468e-13
  17 6312.06 0.00000 -7.32385e-13
  18 6312.06 0.00000 -1.59930e-12
  19 6312.06 0.00000 1.76419e-12
  20 6312.06 0.00000 1.95370e-13
  21 6312.06 0.00000 -7.00432e-13
  22 6312.06 0.00000 -1.02151e-13
  23 6312.06 0.00000 7.67702e-14
  24 6312.06 0.00000 1.50846e-13
  25 6312.06 0.00000 -4.11384e-13
  26 6312.06 0.00000 1.08088e-13
  27 6312.06 0.00000 1.09119e-13
  28 6312.06 0.00000 1.53146e-13
  29 6312.06 0.00000 1.84811e-13
  30 6312.06 0.00000 7.88616e-13
  31 6312.06 0.00000 -1.47013e-13
  32 6312.06 0.00000 -1.27486e-12
  33 6312.06 0.00000 -6.87064e-13
  34 6312.06 0.00000 -2.39085e-13
  35 6312.06 0.00000 7.87752e-13
  36 6312.06 0.00000 1.61886e-12
  37 6312.06 0.00000 1.04382e-12
  38 6312.06 0.00000 2.74592e-13
  39 6312.06 0.00000 -2.55503e-13
  40 6312.06 0.00000 4.73236e-13
  41 6312.06 0.00000 -4.88961e-13
  42 6312.06 0.00000 -1.04341e-13
  43 6312.06 0.00000 7.08892e-13
  44 6312.06 0.00000 4.94094e-13
  45 6312.06 0.00000 -2.39623e-13
  46 6312.06 0.00000 -3.58069e-14
  47 6312.06 0.00000 7.20064e-13
  48 6312.06 0.00000 -4.05003e-14
  49 6312.06 0.00000 1.13021e-13
  50 6312.06 0.00000 3.07781e-13
  51 6312.06 0.00000 -2.56382e-14
  52 6312.06 0.00000 -3.50194e-13
  53 6312.06 0.00000 -4.77727e-13
  54 6312.06 0.00000 7.53880e-13
  55 6312.06 0.00000 2.28152e-13
  56 6312.06 0.00000 7.10930e-13
  57 6312.06 0.00000 -8.60305e-14
  58 6312.06 0.00000 -2.05123e-13
  59 6312.06 0.00000 2.53258e-13
  60 6312.06 0.00000 8.47119e-13
  61 6312.06 0.00000 -1.59433e-12
  62 6312.06 0.00000 -3.71875e-13
  63 6312.06 0.00000 3.18602e-13
  64 6312.06 0.00000 8.64040e-13
  65 6312.06 0.00000 -7.42278e-14
  66 6312.06 0.00000 -1.02342e-12
</Section>

newXOutput 134

<Section columns = "stress_xx | stress_yy | stress_xy">
  1 6363.91 0.00000 2.16715e-13
  2 6363.91 0.00000 -8.61532e-13
  3 6363.91 0.00000 1.06989e-13
  4 6363.91 0.00000 2.28272e-13
  5 6363.91 0.00000 6.34520e-14
  6 6363.91 0.00000 1.26218e-28
  7 6363.91 0.00000 2.66628e-13
  8 6363.91 0.00000 5.17686e-13
  9 6363.91 0.00000 2.19720e-13
  10 6363.91 0.00000 1.21597e-12
  11 6363.91 0.00000 8.10960e-13
  12 6363.91 0.00000 1.08128e-12
  13 6363.91 0.00000 1.26157e-13
  14 6363.91 0.00000 -7.72750e-13
  15 6363.91 0.00000 -2.16715e-13
  16 6363.91 0.00000 1.04338e-12
  17 6363.91 0.00000 -1.43907e-13
  18 6363.91 0.00000 -1.41872e-12
  19 6363.91 0.00000 -1.75546e-12
  20 6363.91 0.00000 -1.20733e-12
  21 6363.91 0.00000 -1.17646e-13
  22 6363.91 0.00000 1.26910e-12
  23 6363.91 0.00000 7.41506e-13
  24 6363.91 0.00000 5.97738e-13
  25 6363.91 0.00000 6.37101e-13
  26 6363.91 0.00000 4.06734e-14
  27 6363.91 0.00000 0.00000
  28 6363.91 0.00000 -7.66883e-14
  29 6363.91 0.00000 -3.04842e-13
  30 6363.91 0.00000 1.59075e-13
  31 6363.91 0.00000 8.06893e-15
  32 6363.91 0.00000 3.83702e-13
  33 6363.91 0.00000 -4.22700e-13
  34 6363.91 0.00000 9.99593e-14
  35 6363.91 0.00000 -2.02317e-13
  36 6363.91 0.00000 1.10762e-12
  37 6363.91 0.00000 -4.46562e-13
  38 6363.91 0.00000 9.36135e-14
  39 6363.91 0.00000 1.69502e-13
  40 6363.91 0.00000 -1.92359e-13
  41 6363.91 0.00000 -4.12971e-13
  42 6363.91 0.00000 -4.43502e-13
  43 6363.91 0.00000 5.77194e-13
  44 6363.91 0.00000 -4.08652e-13
  45 6363.91 0.00000 2.67262e-13
  46 6363.91 0.00000 1.70208e-13
  47 6363.91 0.00000 -3.44476e-13
  48 6363.91 0.00000 2.85579e-14
  49 6363.91 0.00000 -5.76996e-13
  50 6363.91 0.00000 -1.33408e-13
  51 6363.91 0.00000 3.25898e-14
  52 6363.91 0.00000 -2.76715e-13
  53 6363.91 0.00000 4.26607e-13
  54 6363.91 0.00000 -1.18861e-12
  55 6363.91 0.00000 1.43326e-14
  56 6363.91 0.00000 5.22790e-13
  57 6363.91 0.00000 5.92520e-13
  58 6363.91 0.00000 1.60614e-13
  59 6363.91 0.00000 -3.44113e-13
  60 6363.91 0.00000 -1.23525e-12
  61 6363.91 0.00000 2.86070e-12
  62 6363.91 0.00000 2.37272e-13
  63 6363.91 0.00000 2.28588e-13
  64 6363.91 0.00000 -2.04193e-15
  65 6363.91 0.00000 7.08975e-13
  66 6363.91 0.00000 -7.55576e-13
</Section>

newXOutput 135

<Section columns = "stress_xx | stress_yy | stress_xy">
  1 6415.88 0.00000 2.15188e-13
  2 6415.88 0.00000 -7.35481e-13
  3 6415.88 0.00000 4.66428e-13
  4 6415.88 0.00000 -1.07166e-16
  5 6415.88 0.00000 4.03505e-13
  6 6415.88 0.00000 -3.40894e-15
  7 6415.88 0.00000 -1.12381e-13
  8 6415.88 0.00000 1.26162e-13
  9 6415.88 0.00000 -1.86767e-13
  10 6415.88 0.00000 -1.41412e-12
  11 6415.88 0.00000 -9.28993e-13
  12 6415.88 0.00000 -3.94512e-13
  13 6415.88 0.00000 -2.98697e-12
  14 6415.88 0.00000 1.19177e-12
  15 6415.88 0.00000 -1.07594e-13
  16 6415.88 0.00000 -8.11072e-13
  17 6415.88 0.00000 1.32510e-12
  18 6415.88 0.00000 5.25320e-13
  19 6415.88 0.00000 2.18399e-13
  20 6415.88 0.00000 -2.28741e-12
  21 6415.88 0.00000 -1.68497e-13
  22 6415.88 0.00000 3.74266e-13
  23 6415.88 0.00000 -6.80106e-14
  24 6415.88 0.00000 -2.94974e-13
  25 6415.88 0.00000 -3.47732e-14
  26 6415.88 0.00000 7.07140e-14
  27 6415.88 0.00000 1.07594e-13
  28 6415.88 0.00000 7.27449e-14
  29 6415.88 0.00000 -6.50033e-14
  30 6415.88 0.00000 3.35250e-13
  31 6415.88 0.00000 -2.23528e-14
  32 6415.88 0.00000 2.58814e-13
  33 6415.88 0.00000 5.84904e-13
  34 6415.88 0.00000 4.51839e-13
  35 6415.88 0.00000 -7.99162e-13
  36 6415.88 0.00000 3.91211e-14
  37 6415.88 0.00000 3.04795e-14
  38 6415.88 0.00000 -4.62620e-13
  39 6415.88 0.00000 6.35512e-13
  40 6415.88 0.00000 5.44678e-13
  41 6415.88 0.00000 3.79511e-13
  42 6415.88 0.00000 -3.24196e-14
  43 6415.88 0.00000 2.65654e-13
  44 6415.88 0.00000 -7.85678e-13
  45 6415.88 0.00000 5.03682e-13
  46 6415.88 0.00000 2.75435e-13
  47 6415.88 0.00000 1.74160e-13
  48 6415.88 0.00000 4.54440e-13
  49 6415.88 0.00000 5.85159e-13
  50 6415.88 0.00000 -1.30548e-15
  51 6415.88 0.00000 1.91919e-13
  52 6415.88 0.00000 -2.44636e-13
  53 6415.88 0.00000 4.80747e-13
  54 6415.88 0.00000 -9.21372e-13
  55 6415.88 0.00000 -2.81895e-13
  56 6415.88 0.00000 2.63578e-13
  57 6415.88 0.00000 -9.34334e-13
  58 6415.88 0.00000 1.70719e-13
  59 6415.88 0.00000 -4.01339e-14
  60 6415.88 0.00000 9.53643e-13
  61 6415.88 0.00000 -1.94446e-12
  62 6415.88 0.00000 3.39590e-13
  63 6415.88 0.00000 -5.55100e-13
  64 6415.88 0.00000 1.01419e-12
  65 6415.88 0.00000 -6.14081e-13
  66 6415.88 0.00000 -8.20962e-13
</Section>

newXOutput 136

<Section columns = "stress_xx | stress_yy | stress_xy">
  1 6467.98 0.00000 -2.63641e-13
  2 6467.98 0.00000 -1.06828e-13
  3 6467.98 0.00000 6.33614e-13
  4 6467.98 0.00000 1.06060e-13
  5 6467.98 0.00000 1.45951e-13
  6 6467.98 0.00000 -4.58930e-13
  7 6467.98 0.00000 -4.49216e-14
  8 6467.98 0.00000 -1.16140e-13
  9 6467.98 0.00000 3.38928e-13
  10 6467.98 0.00000 2.05720e-12
  11 6467.98 0.00000 1.24924e-12
  12 6467.98 0.00000 2.63318e-13
  13 6467.98 0.00000 6.31178e-13
  14 6467.98 0.00000 -5.26636e-13
  15 6467.98 0.00000 2.13656e-13
  16 6467.98 0.00000 -2.15371e-13
  17 6467.98 0.00000 -5.61901e-13
  18 6467.98 0.00000 -5.43734e-13
  19 6467.98 0.00000 1.66571e-12
  20 6467.98 0.00000 1.43271e-15
  21 6467.98 0.00000 -4.48106e-14
  22 6467.98 0.00000 -7.80707e-13
  23 6467.98 0.00000 -6.70702e-13
  24 6467.98 0.00000 -2.99950e-13
  25 6467.98 0.00000 -7.91072e-14
  26 6467.98 0.00000 -8.69880e-15
  27 6467.98 0.00000 4.99848e-14
  28 6467.98 0.00000 -2.11942e-13
  29 6467.98 0.00000 -1.27745e-13
  30 6467.98 0.00000 -4.88591e-13
  31 6467.98 0.00000 1.75928e-13
  32 6467.98 0.00000 -1.08247e-14
  33 6467.98 0.00000 -1.81248e-12
  34 6467.98 0.00000 -1.98090e-13
  35 6467.98 0.00000 -4.64434e-13
  36 6467.98 0.00000 1.06379e-12
  37 6467.98 0.00000 1.80476e-13
  38 6467.98 0.00000 -3.97772e-13
  39 6467.98 0.00000 -1.10198e-13
  40 6467.98 0.00000 1.28695e-13
  41 6467.98 0.00000 8.77018e-14
  42 6467.98 0.00000 7.90256e-13
  43 6467.98 0.00000 -6.65038e-13
  44 6467.98 0.00000 -6.31753e-13
  45 6467.98 0.00000 -2.01317e-13
  46 6467.98 0.00000 3.48197e-13
  47 6467.98 0.00000 1.18071e-12
  48 6467.98 0.00000 -4.47228e-14
  49 6467.98 0.00000 -2.15897e-13
  50 6467.98 0.00000 -4.81164e-14
  51 6467.98 0.00000 -5.22158e-13
  52 6467.98 0.00000 -3.60165e-13
  53 6467.98 0.00000 -3.86711e-13
  54 6467.98 0.00000 2.22917e-13
  55 6467.98 0.00000 -2.03163e-13
  56 6467.98 0.00000 5.61222e-13
  57 6467.98 0.00000 -3.20493e-13
  58 6467.98 0.00000 -7.32438e-14
  59 6467.98 0.00000 -1.79298e-13
  60 6467.98 0.00000 -3.54354e-13
  61 6467.98 0.00000 -3.98212e-13
  62 6467.98 0.00000 -1.75195e-13
  63 6467.98 0.00000 -4.85164e-13
  64 6467.98 0.00000 -3.97211e-13
  65 6467.98 0.00000 1.04634e-12
  66 6467.98 0.00000 -1.87712e-13
</Section>

newXOutput 137

<Section columns = "stress_xx | stress_yy | stress_xy">
  1 6520.21 0.00000 -1.12470e-13
  2 6520.21 0.00000 6.87642e-13
  3 6520.21 0.00000 5.28591e-13
  4 6520.21 0.00000 -1.04087e-13
  5 6520.21 0.00000 1.37139e-13
  6 6520.21 0.00000 -7.07065e-14
  7 6520.21 0.00000 2.24940e-13
  8 6520.21 0.00000 5.58483e-13
  9 6520.21 0.00000 9.10672e-14
  10 6520.21 0.00000 -1.00582e-12
  11 6520.21 0.00000 1.31701e-13
  12 6520.21 0.00000 -4.58428e-13
  13 6520.21 0.00000 1.27039e-12
  14 6520.21 0.00000 5.99841e-13
  15 6520.21 0.00000 1.06060e-13
  16 6520.21 0.00000 1.75495e-13
  17 6520.21 0.00000 1.20024e-12
  18 6520.21 0.00000 6.40234e-14
  19 6520.21 0.00000 -5.55997e-13
  20 6520.21 0.00000 -7.79722e-13
  21 6520.21 0.00000 -7.27331e-13
  22 6520.21 0.00000 -4.42598e-13
  23 6520.21 0.00000 -7.21941e-14
  24 6520.21 0.00000 -5.99023e-13
  25 6520.21 0.00000 -4.80847e-13
  26 6520.21 0.00000 5.95031e-15
  27 6520.21 0.00000 0.00000
  28 6520.21 0.00000 1.54234e-13
  29 6520.21 0.00000 7.28094e-13
  30 6520.21 0.00000 -7.12774e-13
  31 6520.21 0.00000 -2.95922e-13
  32 6520.21 0.00000 -5.03917e-13
  33 6520.21 0.00000 1.46388e-12
  34 6520.21 0.00000 5.53092e-13
  35 6520.21 0.00000 7.70688e-13
  36 6520.21 0.00000 -8.10824e-13
  37 6520.21 0.00000 -1.11128e-13
  38 6520.21 0.00000 5.04217e-13
  39 6520.21 0.00000 -9.03946e-15
  40 6520.21 0.00000 -1.95751e-13
  41 6520.21 0.00000 -5.20894e-13
  42 6520.21 0.00000 -1.23472e-12
  43 6520.21 0.00000 5.90415e-13
  44 6520.21 0.00000 4.68392e-13
  45 6520.21 0.00000 1.68784e-13
  46 6520.21 0.00000 2.39243e-13
  47 6520.21 0.00000 -1.02115e-12
  48 6520.21 0.00000 -2.33235e-13
  49 6520.21 0.00000 1.55103e-13
  50 6520.21 0.00000 4.02906e-13
  51 6520.21 0.00000 -9.05843e-13
  52 6520.21 0.00000 3.68564e-13
  53 6520.21 0.00000 -4.10095e-13
  54 6520.21 0.00000 -6.57461e-13
  55 6520.21 0.00000 3.89372e-13
  56 6520.21 0.00000 3.89588e-13
  57 6520.21 0.00000 1.28257e-12
  58 6520.21 0.00000 -2.50965e-14
  59 6520.21 0.00000 7.23935e-13
  60 6520.21 0.00000 -3.13148e-13
  61 6520.21 0.00000 1.24504e-12
  62 6520.21 0.00000 -1.20682e-13
  63 6520.21 0.00000 2.81175e-13
  64 6520.21 0.00000 2.51538e-13
  65 6520.21 0.00000 3.15955e-13
  66 6520.21 0.00000 -7.91402e-13
</Section>

newXOutput 138

<Section columns = "stress_xx | stress_yy | stress_xy">
  1 6572.56 0.00000 1.05289e-13
  2 6572.56 0.00000 -7.97478e-13
  3 6572.56 0.00000 4.33592e-13
  4 6572.56 0.00000 -2.26555e-15
  5 6572.56 0.00000 3.10998e-13
  6 6572.56 0.00000 4.51383e-13
  7 6572.56 0.00000 1.50461e-13
  8 6572.56 0.00000 -4.51383e-13
  9 6572.56 0.00000 -4.58940e-13
  10 6572.56 0.00000 -1.70024e-12
  11 6572.56 0.00000 4.87362e-13
  12 6572.56 0.00000 1.91082e-12
  13 6572.56 0.00000 1.66136e-13
  14 6572.56 0.00000 -1.08088e-13
  15 6572.56 0.00000 -4.77999e-13
  16 6572.56 0.00000 -4.19056e-13
  17 6572.56 0.00000 2.66689e-12
  18 6572.56 0.00000 9.08426e-13
  19 6572.56 0.00000 -3.01978e-13
  20 6572.56 0.00000 -1.05553e-12
  21 6572.56 0.00000 2.95972e-13
  22 6572.56 0.00000 1.13538e-12
  23 6572.56 0.00000 1.06122e-12
  24 6572.56 0.00000 6.91539e-13
  25 6572.56 0.00000 2.61144e-13
  26 6572.56 0.00000 -1.51861e-13
  27 6572.56 0.00000 0.00000
  28 6572.56 0.00000 3.25523e-13
  29 6572.56 0.00000 -5.23848e-13
  30 6572.56 0.00000 -8.09192e-13
  31 6572.56 0.00000 -6.94506e-14
  32 6572.56 0.00000 -1.27540e-13
  33 6572.56 0.00000 -1.31069e-12
  34 6572.56 0.00000 -4.86484e-13
  35 6572.56 0.00000 -7.40868e-14
  36 6572.56 0.00000 8.41273e-13
  37 6572.56 0.00000 7.69801e-14
  38 6572.56 0.00000 -4.58565e-13
  39 6572.56 0.00000 4.26658e-13
  40 6572.56 0.00000 -9.27231e-14
  41 6572.56 0.00000 6.15640e-13
  42 6572.56 0.00000 -1.88862e-13
  43 6572.56 0.00000 -2.69752e-13
  44 6572.56 0.00000 -8.60848e-14
  45 6572.56 0.00000 -2.10772e-13
  46 6572.56 0.00000 -2.65558e-13
  47 6572.56 0.00000 1.84594e-13
  48 6572.56 0.00000 7.50693e-13
  49 6572.56 0.00000 -2.09791e-13
  50 6572.56 0.00000 -1.39745e-13
  51 6572.56 0.00000 -7.92625e-14
  52 6572.56 0.00000 -9.39667e-13
  53 6572.56 0.00000 -1.11665e-12
  54 6572.56 0.00000 -3.26993e-13
  55 6572.56 0.00000 1.59208e-13
  56 6572.56 0.00000 8.75665e-13
  57 6572.56 0.00000 -8.93110e-13
  58 6572.56 0.00000 -1.69409e-13
  59 6572.56 0.00000 -4.71768e-13
  60 6572.56 0.00000 -8.58834e-13
  61 6572.56 0.00000 1.36255e-13
  62 6572.56 0.00000 1.91040e-13
  63 6572.56 0.00000 3.03039e-13
  64 6572.56 0.00000 1.64208e-12
  65 6572.56 0.00000 -2.77715e-13
  66 6572.56 0.00000 -6.17292e-13
</Section>

newXOutput 139

<Section columns = "stress_xx | stress_yy | stress_xy">
  1 6625.05 0.00000 -4.76721e-14
  2 6625.05 0.00000 -1.04516e-13
  3 6625.05 0.00000 -6.38079e-13
  4 6625.05 0.00000 -2.74110e-15
  5 6625.05 0.00000 -9.56524e-14
  6 6625.05 0.00000 2.26449e-13
  7 6625.05 0.00000 -7.54831e-14
  8 6625.05 0.00000 -1.01458e-13
  9 6625.05 0.00000 -3.63279e-13
  10 6625.05 0.00000 -7.44438e-13
  11 6625.05 0.00000 -1.03873e-12
  12 6625.05 0.00000 -1.04821e-12
  13 6625.05 0.00000 -9.05797e-13
  14 6625.05 0.00000 1.71135e-13
  15 6625.05 0.00000 3.61219e-13
  16 6625.05 0.00000 6.96770e-14
  17 6625.05 0.00000 -3.74977e-12
  18 6625.05 0.00000 -5.28529e-12
  19 6625.05 0.00000 -9.09820e-14
  20 6625.05 0.00000 -8.63845e-13
  21 6625.05 0.00000 -6.28694e-13
  22 6625.05 0.00000 -3.24686e-13
  23 6625.05 0.00000 -3.28446e-13
  24 6625.05 0.00000 -6.19637e-14
  25 6625.05 0.00000 -3.04894e-14
  26 6625.05 0.00000 8.45003e-14
  27 6625.05 0.00000 1.41995e-28
  28 6625.05 0.00000 3.48385e-14
  29 6625.05 0.00000 2.26247e-13
  30 6625.05 0.00000 3.87783e-13
  31 6625.05 0.00000 7.78771e-13
  32 6625.05 0.00000 3.71227e-13
  33 6625.05 0.00000 1.60642e-12
  34 6625.05 0.00000 4.01786e-13
  35 6625.05 0.00000 -3.40545e-13
  36 6625.05 0.00000 -1.94363e-13
  37 6625.05 0.00000 -3.08121e-13
  38 6625.05 0.00000 5.10957e-13
  39 6625.05 0.00000 -1.79500e-13
  40 6625.05 0.00000 -1.94762e-13
  41 6625.05 0.00000 7.36989e-13
  42 6625.05 0.00000 6.07607e-13
  43 6625.05 0.00000 3.66233e-13
  44 6625.05 0.00000 7.66523e-14
  45 6625.05 0.00000 -3.54747e-14
  46 6625.05 0.00000 2.91612e-13
  47 6625.05 0.00000 1.21285e-13
  48 6625.05 0.00000 1.73431e-13
  49 6625.05 0.00000 3.76805e-13
  50 6625.05 0.00000 1.21134e-13
  51 6625.05 0.00000 1.18393e-12
  52 6625.05 0.00000 2.64855e-13
  53 6625.05 0.00000 2.16175e-13
  54 6625.05 0.00000 -5.02202e-13
  55 6625.05 0.00000 -2.45167e-13
  56 6625.05 0.00000 -8.00667e-13
  57 6625.05 0.00000 7.34509e-13
  58 6625.05 0.00000 1.77462e-13
  59 6625.05 0.00000 2.30084e-13
  60 6625.05 0.00000 9.20562e-13
  61 6625.05 0.00000 6.79348e-13
  62 6625.05 0.00000 6.39837e-14
  63 6625.05 0.00000 -1.33350e-13
  64 6625.05 0.00000 -3.20206e-12
  65 6625.05 0.00000 -8.42171e-13
  66 6625.05 0.00000 -1.13011e-12
</Section>

newXOutput 140

<Section columns = "stress_xx | stress_yy | stress_xy">
  1 6677.66 0.00000 1.13607e-13
  2 6677.66 0.00000 1.17318e-12
  3 6677.66 0.00000 1.46908e-12
  4 6677.66 0.00000 3.89833e-14
  5 6677.66 0.00000 -3.12641e-14
  6 6677.66 0.00000 -1.51475e-13
  7 6677.66 0.00000 2.96373e-13
  8 6677.66 0.00000 -6.05902e-13
  9 6677.66 0.00000 -2.97638e-13
  10 6677.66 0.00000 1.97829e-12
  11 6677.66 0.00000 1.55609e-13
  12 6677.66 0.00000 -2.07479e-13
  13 6677.66 0.00000 9.03901e-13
  14 6677.66 0.00000 -1.90943e-13
  15 6677.66 0.00000 0.00000
  16 6677.66 0.00000 4.00909e-13
  17 6677.66 0.00000 3.03036e-12
  18 6677.66 0.00000 1.61973e-12
  19 6677.66 0.00000 3.33539e-13
  20 6677.66 0.00000 7.28480e-13
  21 6677.66 0.00000 6.90060e-13
  22 6677.66 0.00000 -2.13013e-13
  23 6677.66 0.00000 -5.36485e-13
  24 6677.66 0.00000 -2.84284e-13
  25 6677.66 0.00000 4.79136e-14
  26 6677.66 0.00000 -2.00842e-13
  27 6677.66 0.00000 0.00000
  28 6677.66 0.00000 2.55686e-14
  29 6677.66 0.00000 -2.88336e-13
  30 6677.66 0.00000 1.11430e-12
  31 6677.66 0.00000 -2.66141e-13
  32 6677.66 0.00000 -5.05106e-13
  33 6677.66 0.00000 -1.31880e-12
  34 6677.66 0.00000 -8.48423e-13
  35 6677.66 0.00000 5.42602e-15
  36 6677.66 0.00000 1.37121e-12
  37 6677.66 0.00000 -7.18499e-13
  38 6677.66 0.00000 -1.86080e-13
  39 6677.66 0.00000 -2.11428e-13
  40 6677.66 0.00000 -3.03167e-13
  41 6677.66 0.00000 -3.66181e-13
  42 6677.66 0.00000 6.07878e-13
  43 6677.66 0.00000 -4.44896e-14
  44 6677.66 0.00000 3.01012e-13
  45 6677.66 0.00000 -8.37046e-13
  46 6677.66 0.00000 -4.22078e-13
  47 6677.66 0.00000 1.09959e-12
  48 6677.66 0.00000 -3.21201e-14
  49 6677.66 0.00000 4.43005e-13
  50 6677.66 0.00000 -2.59874e-13
  51 6677.66 0.00000 -2.48441e-13
  52 6677.66 0.00000 -3.26585e-13
  53 6677.66 0.00000 -1.39202e-13
  54 6677.66 0.00000 -2.97787e-13
  55 6677.66 0.00000 6.96010e-14
  56 6677.66 0.00000 1.34543e-12
  57 6677.66 0.00000 -9.79050e-14
  58 6677.66 0.00000 -4.46416e-13
  59 6677.66 0.00000 -3.75219e-13
  60 6677.66 0.00000 1.40134e-12
  61 6677.66 0.00000 -9.36487e-13
  62 6677.66 0.00000 -5.41884e-13
  63 6677.66 0.00000 1.02230e-13
  64 6677.66 0.00000 1.51614e-12
  65 6677.66 0.00000 -2.45009e-13
  66 6677.66 0.00000 1.32693e-13
</Section>

newXOutput 141

<Section columns = "stress_xx | stress_yy | stress_xy">
  1 6730.41 0.00000 -1.13992e-13
  2 6730.41 0.00000 1.10314e-12
  3 6730.41 0.00000 -3.03449e-13
  4 6730.41 0.00000 3.49613e-13
  5 6730.41 0.00000 -5.61377e-13
  6 6730.41 0.00000 -2.27984e-13
  7 6730.41 0.00000 2.81917e-13
  8 6730.41 0.00000 9.36452e-13
  9 6730.41 0.00000 3.30945e-13
  10 6730.41 0.00000 -2.32396e-12
  11 6730.41 0.00000 -5.29509e-13
  12 6730.41 0.00000 1.11653e-12
  13 6730.41 0.00000 1.57872e-12
  14 6730.41 0.00000 -2.05922e-13
  15 6730.41 0.00000 -2.05922e-13
  16 6730.41 0.00000 -6.09744e-13
  17 6730.41 0.00000 3.31805e-13
  18 6730.41 0.00000 -1.75457e-12
  19 6730.41 0.00000 -1.26829e-12
  20 6730.41 0.00000 -5.96205e-14
  21 6730.41 0.00000 -2.21713e-14
  22 6730.41 0.00000 1.21254e-13
  23 6730.41 0.00000 2.19249e-13
  24 6730.41 0.00000 -1.59640e-13
  25 6730.41 0.00000 5.15101e-13
  26 6730.41 0.00000 -1.44635e-13
  27 6730.41 0.00000 -2.05922e-13
  28 6730.41 0.00000 -2.52167e-13
  29 6730.41 0.00000 -7.24782e-13
  30 6730.41 0.00000 -6.13874e-13
  31 6730.41 0.00000 -2.13572e-13
  32 6730.41 0.00000 8.25182e-15
  33 6730.41 0.00000 1.76638e-12
  34 6730.41 0.00000 2.42079e-16
  35 6730.41 0.00000 1.99700e-13
  36 6730.41 0.00000 -4.89364e-14
  37 6730.41 0.00000 -4.35466e-13
  38 6730.41 0.00000 9.29358e-14
  39 6730.41 0.00000 -2.48492e-14
  40 6730.41 0.00000 -4.15696e-13
  41 6730.41 0.00000 9.14990e-14
  42 6730.41 0.00000 -4.88445e-13
  43 6730.41 0.00000 8.78348e-13
  44 6730.41 0.00000 -9.97236e-14
  45 6730.41 0.00000 -5.20765e-14
  46 6730.41 0.00000 8.30027e-13
  47 6730.41 0.00000 -7.91416e-13
  48 6730.41 0.00000 -1.81521e-13
  49 6730.41 0.00000 1.65644e-13
  50 6730.41 0.00000 -2.80872e-13
  51 6730.41 0.00000 5.24052e-15
  52 6730.41 0.00000 -5.56094e-13
  53 6730.41 0.00000 1.22122e-13
  54 6730.41 0.00000 -1.12733e-12
  55 6730.41 0.00000 -1.37114e-13
  56 6730.41 0.00000 -5.72718e-13
  57 6730.41 0.00000 9.34224e-13
  58 6730.41 0.00000 2.30351e-13
  59 6730.41 0.00000 -4.05602e-13
  60 6730.41 0.00000 7.25965e-13
  61 6730.41 0.00000 1.89769e-12
  62 6730.41 0.00000 2.44410e-13
  63 6730.41 0.00000 8.93558e-14
  64 6730.41 0.00000 -4.55876e-13
  65 6730.41 0.00000 -7.23661e-13
  66 6730.41 0.00000 -9.03997e-13
</Section>

newXOutput 142

<Section columns = "stress_xx | stress_yy | stress_xy">
  1 6783.30 0.00000 3.06540e-13
  2 6783.30 0.00000 -2.23880e-12
  3 6783.30 0.00000 5.21880e-15
  4 6783.30 0.00000 1.35579e-14
  5 6783.30 0.00000 -1.00654e-13
  6 6783.30 0.00000 -6.58828e-13
  7 6783.30 0.00000 -3.05014e-13
  8 6783.30 0.00000 -9.66895e-13
  9 6783.30 0.00000 2.47061e-13
  10 6783.30 0.00000 1.83008e-12
  11 6783.30 0.00000 8.69705e-13
  12 6783.30 0.00000 -2.47570e-12
  13 6783.30 0.00000 -3.08572e-12
  14 6783.30 0.00000 4.73788e-13
  15 6783.30 0.00000 0.00000
  16 6783.30 0.00000 1.41035e-13
  17 6783.30 0.00000 7.82820e-13
  18 6783.30 0.00000 4.03102e-13
  19 6783.30 0.00000 4.35920e-13
  20 6783.30 0.00000 -8.17166e-13
  21 6783.30 0.00000 3.09019e-13
  22 6783.30 0.00000 -1.24755e-13
  23 6783.30 0.00000 -6.53570e-13
  24 6783.30 0.00000 -7.13050e-14
  25 6783.30 0.00000 1.40361e-13
  26 6783.30 0.00000 -4.62601e-14
  27 6783.30 0.00000 2.04360e-13
  28 6783.30 0.00000 1.89052e-13
  29 6783.30 0.00000 2.76687e-13
  30 6783.30 0.00000 9.39493e-14
  31 6783.30 0.00000 -4.57672e-13
  32 6783.30 0.00000 1.50248e-12
  33 6783.30 0.00000 -5.59508e-13
  34 6783.30 0.00000 -4.04112e-13
  35 6783.30 0.00000 -6.79681e-13
  36 6783.30 0.00000 -7.34185e-13
  37 6783.30 0.00000 -6.89620e-13
  38 6783.30 0.00000 -3.38124e-13
  39 6783.30 0.00000 -5.11511e-13
  40 6783.30 0.00000 -2.09796e-13
  41 6783.30 0.00000 5.76115e-13
  42 6783.30 0.00000 1.08588e-12
  43 6783.30 0.00000 -1.07893e-12
  44 6783.30 0.00000 -2.80833e-13
  45 6783.30 0.00000 -3.73063e-13
  46 6783.30 0.00000 -5.32022e-13
  47 6783.30 0.00000 1.11693e-12
  48 6783.30 0.00000 8.26648e-14
  49 6783.30 0.00000 1.93973e-13
  50 6783.30 0.00000 2.55415e-14
  51 6783.30 0.00000 -6.31820e-13
  52 6783.30 0.00000 -2.19705e-14
  53 6783.30 0.00000 -8.72582e-13
  54 6783.30 0.00000 3.99984e-13
  55 6783.30 0.00000 -7.70442e-14
  56 6783.30 0.00000 -1.81276e-13
  57 6783.30 0.00000 -1.05228e-12
  58 6783.30 0.00000 -4.13040e-13
  59 6783.30 0.00000 8.93979e-14
  60 6783.30 0.00000 -2.95175e-14
  61 6783.30 0.00000 -1.75275e-12
  62 6783.30 0.00000 -7.93792e-13
  63 6783.30 0.00000 -4.63925e-13
  64 6783.30 0.00000 4.83353e-13
  65 6783.30 0.00000 1.06293e-12
  66 6783.30 0.00000 4.28333e-13
</Section>

newXOutput 143

<Section columns = "stress_xx | stress_yy | stress_xy">
  1 6836.32 0.00000 -1.14772e-13
  2 6836.32 0.00000 1.26692e-12
  3 6836.32 0.00000 1.64822e-12
  4 6836.32 0.00000 -2.35105e-13
  5 6836.32 0.00000 -5.65304e-13
  6 6836.32 0.00000 -6.47061e-13
  7 6836.32 0.00000 -6.88631e-13
  8 6836.32 0.00000 -7.91173e-13
  9 6836.32 0.00000 -2.16168e-13
  10 6836.32 0.00000 -1.01396e-13
  11 6836.32 0.00000 -7.90027e-13
  12 6836.32 0.00000 3.78956e-14
  13 6836.32 0.00000 1.15067e-12
  14 6836.32 0.00000 -3.12024e-13
  15 6836.32 0.00000 0.00000
  16 6836.32 0.00000 -9.62754e-14
  17 6836.32 0.00000 1.03061e-12
  18 6836.32 0.00000 -1.25718e-12
  19 6836.32 0.00000 -7.72867e-13
  20 6836.32 0.00000 -1.92259e-12
  21 6836.32 0.00000 -4.43669e-13
  22 6836.32 0.00000 3.44443e-13
  23 6836.32 0.00000 4.43340e-13
  24 6836.32 0.00000 -1.56167e-15
  25 6836.32 0.00000 -8.57699e-13
  26 6836.32 0.00000 -6.59108e-14
  27 6836.32 0.00000 -4.45530e-14
  28 6836.32 0.00000 1.05192e-13
  29 6836.32 0.00000 3.08835e-13
  30 6836.32 0.00000 7.74668e-13
  31 6836.32 0.00000 3.32310e-13
  32 6836.32 0.00000 9.86707e-13
  33 6836.32 0.00000 1.60752e-13
  34 6836.32 0.00000 1.75112e-13
  35 6836.32 0.00000 4.31334e-13
  36 6836.32 0.00000 9.97268e-13
  37 6836.32 0.00000 -8.05903e-13
  38 6836.32 0.00000 -3.08848e-13
  39 6836.32 0.00000 5.32893e-14
  40 6836.32 0.00000 -6.69611e-13
  41 6836.32 0.00000 5.91416e-13
  42 6836.32 0.00000 1.26683e-12
  43 6836.32 0.00000 2.70064e-13
  44 6836.32 0.00000 2.53030e-13
  45 6836.32 0.00000 1.19665e-13
  46 6836.32 0.00000 -5.24647e-13
  47 6836.32 0.00000 -5.66557e-14
  48 6836.32 0.00000 5.79146e-13
  49 6836.32 0.00000 -5.56508e-13
  50 6836.32 0.00000 5.81085e-14
  51 6836.32 0.00000 1.66881e-13
  52 6836.32 0.00000 2.37607e-13
  53 6836.32 0.00000 6.05504e-13
  54 6836.32 0.00000 3.96717e-13
  55 6836.32 0.00000 -1.10854e-14
  56 6836.32 0.00000 8.54953e-13
  57 6836.32 0.00000 5.40480e-13
  58 6836.32 0.00000 -1.15993e-13
  59 6836.32 0.00000 -5.22452e-14
  60 6836.32 0.00000 -5.34507e-14
  61 6836.32 0.00000 1.49290e-12
  62 6836.32 0.00000 -4.35382e-14
  63 6836.32 0.00000 -9.04352e-14
  64 6836.32 0.00000 1.48063e-13
  65 6836.32 0.00000 -9.59962e-13
  66 6836.32 0.00000 -3.21904e-13
</Section>

newXOutput 144

<Section columns = "stress_xx | stress_yy | stress_xy">
  1 6889.48 0.00000 1.45567e-14
  2 6889.48 0.00000 0.00000
  3 6889.48 0.00000 -9.00356e-13
  4 6889.48 0.00000 1.00323e-13
  5 6889.48 0.00000 7.67778e-14
  6 6889.48 0.00000 8.64823e-14
  7 6889.48 0.00000 1.53556e-13
  8 6889.48 0.00000 8.82516e-13
  9 6889.48 0.00000 1.36744e-12
  10 6889.48 0.00000 1.54084e-12
  11 6889.48 0.00000 9.00142e-13
  12 6889.48 0.00000 -3.11470e-13
  13 6889.48 0.00000 -1.34147e-13
  14 6889.48 0.00000 -4.13003e-13
  15 6889.48 0.00000 0.00000
  16 6889.48 0.00000 -2.66114e-13
  17 6889.48 0.00000 1.17970e-12
  18 6889.48 0.00000 1.47351e-12
  19 6889.48 0.00000 1.12471e-12
  20 6889.48 0.00000 -7.24859e-13
  21 6889.48 0.00000 -1.04854e-12
  22 6889.48 0.00000 -3.25397e-13
  23 6889.48 0.00000 2.94858e-13
  24 6889.48 0.00000 -2.08120e-14
  25 6889.48 0.00000 8.95935e-14
  26 6889.48 0.00000 -8.11368e-14
  27 6889.48 0.00000 1.00610e-13
  28 6889.48 0.00000 -1.08973e-15
  29 6889.48 0.00000 -8.82534e-13
  30 6889.48 0.00000 -3.06061e-13
  31 6889.48 0.00000 -8.67896e-14
  32 6889.48 0.00000 1.54184e-13
  33 6889.48 0.00000 6.75355e-13
  34 6889.48 0.00000 -1.30928e-13
  35 6889.48 0.00000 4.64370e-15
  36 6889.48 0.00000 -4.15985e-13
  37 6889.48 0.00000 -5.67712e-13
  38 6889.48 0.00000 3.20609e-13
  39 6889.48 0.00000 -5.29986e-14
  40 6889.48 0.00000 -3.20637e-13
  41 6889.48 0.00000 1.23918e-13
  42 6889.48 0.00000 -8.60533e-14
  43 6889.48 0.00000 7.05762e-13
  44 6889.48 0.00000 -1.77605e-13
  45 6889.48 0.00000 -1.90981e-13
  46 6889.48 0.00000 9.41424e-13
  47 6889.48 0.00000 -2.00051e-13
  48 6889.48 0.00000 -5.33594e-13
  49 6889.48 0.00000 -1.05958e-14
  50 6889.48 0.00000 -1.10910e-13
  51 6889.48 0.00000 -4.10751e-13
  52 6889.48 0.00000 -2.05216e-13
  53 6889.48 0.00000 -1.14922e-12
  54 6889.48 0.00000 4.29700e-13
  55 6889.48 0.00000 7.15952e-14
  56 6889.48 0.00000 -4.98069e-13
  57 6889.48 0.00000 -3.46590e-13
  58 6889.48 0.00000 -4.67668e-14
  59 6889.48 0.00000 -4.96138e-13
  60 6889.48 0.00000 8.93011e-13
  61 6889.48 0.00000 7.94779e-13
  62 6889.48 0.00000 -1.35820e-13
  63 6889.48 0.00000 2.76529e-13
  64 6889.48 0.00000 -7.84529e-13
  65 6889.48 0.00000 2.89353e-13
  66 6889.48 0.00000 -4.99212e-13
</Section>

newXOutput 145

<Section columns = "stress_xx | stress_yy | stress_xy">
  1 6942.78 0.00000 -2.62618e-13
  2 6942.78 0.00000 -1.22398e-12
  3 6942.78 0.00000 5.03466e-14
  4 6942.78 0.00000 1.28035e-14
  5 6942.78 0.00000 -9.45512e-13
  6 6942.78 0.00000 -8.78964e-13
  7 6942.78 0.00000 -3.74721e-13
  8 6942.78 0.00000 -1.99642e-13
  9 6942.78 0.00000 5.96635e-13
  10 6942.78 0.00000 1.54958e-12
  11 6942.78 0.00000 -1.35529e-12
  12 6942.78 0.00000 -1.99547e-12
  13 6942.78 0.00000 -2.56983e-12
  14 6942.78 0.00000 9.28608e-13
  15 6942.78 0.00000 1.99642e-13
  16 6942.78 0.00000 4.33496e-14
  17 6942.78 0.00000 -1.53492e-12
  18 6942.78 0.00000 -2.30898e-12
  19 6942.78 0.00000 -1.72592e-13
  20 6942.78 0.00000 8.13056e-14
  21 6942.78 0.00000 9.49392e-13
  22 6942.78 0.00000 1.03162e-12
  23 6942.78 0.00000 2.67076e-13
  24 6942.78 0.00000 -7.50845e-15
  25 6942.78 0.00000 1.58183e-13
  26 6942.78 0.00000 1.86734e-13
  27 6942.78 0.00000 9.98210e-14
  28 6942.78 0.00000 1.43591e-13
  29 6942.78 0.00000 3.30734e-13
  30 6942.78 0.00000 2.23446e-13
  31 6942.78 0.00000 -1.66425e-13
  32 6942.78 0.00000 -1.97804e-13
  33 6942.78 0.00000 1.42104e-12
  34 6942.78 0.00000 5.58410e-13
  35 6942.78 0.00000 -2.40087e-13
  36 6942.78 0.00000 -1.29401e-12
  37 6942.78 0.00000 -1.63138e-13
  38 6942.78 0.00000 -1.52085e-13
  39 6942.78 0.00000 2.54035e-14
  40 6942.78 0.00000 7.56780e-13
  41 6942.78 0.00000 -2.11573e-14
  42 6942.78 0.00000 4.93709e-15
  43 6942.78 0.00000 2.39058e-13
  44 6942.78 0.00000 -5.14335e-13
  45 6942.78 0.00000 4.69468e-13
  46 6942.78 0.00000 -7.31874e-15
  47 6942.78 0.00000 -7.91178e-13
  48 6942.78 0.00000 1.71026e-13
  49 6942.78 0.00000 5.54170e-13
  50 6942.78 0.00000 2.61754e-13
  51 6942.78 0.00000 9.70853e-13
  52 6942.78 0.00000 2.36589e-13
  53 6942.78 0.00000 2.24175e-13
  54 6942.78 0.00000 -6.26431e-14
  55 6942.78 0.00000 -2.50391e-13
  56 6942.78 0.00000 -6.59918e-13
  57 6942.78 0.00000 -2.74904e-13
  58 6942.78 0.00000 1.45064e-13
  59 6942.78 0.00000 3.68832e-13
  60 6942.78 0.00000 1.26644e-12
  61 6942.78 0.00000 -1.63744e-12
  62 6942.78 0.00000 -4.51911e-14
  63 6942.78 0.00000 -6.14052e-13
  64 6942.78 0.00000 -1.70055e-12
  65 6942.78 0.00000 3.31266e-13
  66 6942.78 0.00000 -4.07073e-13
</Section>

newXOutput 146

<Section columns = "stress_xx | stress_yy | stress_xy">
  1 6996.22 0.00000 5.14678e-13
  2 6996.22 0.00000 9.27732e-13
  3 6996.22 0.00000 -2.35070e-12
  4 6996.22 0.00000 4.42023e-13
  5 6996.22 0.00000 1.19354e-12
  6 6996.22 0.00000 8.81047e-13
  7 6996.22 0.00000 5.45198e-13
  8 6996.22 0.00000 -3.92306e-13
  9 6996.22 0.00000 -9.35061e-13
  10 6996.22 0.00000 -4.10775e-13
  11 6996.22 0.00000 -2.10840e-13
  12 6996.22 0.00000 2.33551e-14
  13 6996.22 0.00000 1.42776e-12
  14 6996.22 0.00000 2.35954e-13
  15 6996.22 0.00000 -2.46125e-28
  16 6996.22 0.00000 -6.35766e-14
  17 6996.22 0.00000 -1.30771e-12
  18 6996.22 0.00000 5.45639e-13
  19 6996.22 0.00000 -3.47141e-13
  20 6996.22 0.00000 -2.03313e-12
  21 6996.22 0.00000 -3.75080e-13
  22 6996.22 0.00000 -3.88770e-13
  23 6996.22 0.00000 1.39821e-13
  24 6996.22 0.00000 9.13388e-13
  25 6996.22 0.00000 8.75694e-13
  26 6996.22 0.00000 -4.04415e-13
  27 6996.22 0.00000 -2.54902e-13
  28 6996.22 0.00000 -9.70480e-14
  29 6996.22 0.00000 -4.65111e-13
  30 6996.22 0.00000 4.10430e-13
  31 6996.22 0.00000 2.05296e-13
  32 6996.22 0.00000 7.54744e-13
  33 6996.22 0.00000 -1.31879e-12
  34 6996.22 0.00000 -1.19617e-12
  35 6996.22 0.00000 1.15911e-14
  36 6996.22 0.00000 1.45834e-12
  37 6996.22 0.00000 -5.50112e-14
  38 6996.22 0.00000 -2.64583e-13
  39 6996.22 0.00000 2.26209e-13
  40 6996.22 0.00000 3.05661e-14
  41 6996.22 0.00000 1.09921e-13
  42 6996.22 0.00000 7.39028e-13
  43 6996.22 0.00000 -1.18235e-13
  44 6996.22 0.00000 4.60843e-13
  45 6996.22 0.00000 -5.24411e-13
  46 6996.22 0.00000 -2.18475e-13
  47 6996.22 0.00000 1.22031e-12
  48 6996.22 0.00000 1.48016e-13
  49 6996.22 0.00000 -2.25029e-13
  50 6996.22 0.00000 -5.95174e-13
  51 6996.22 0.00000 7.09143e-14
  52 6996.22 0.00000 -2.44428e-13
  53 6996.22 0.00000 4.30246e-13
  54 6996.22 0.00000 -7.48821e-13
  55 6996.22 0.00000 2.34981e-13
  56 6996.22 0.00000 -6.16076e-13
  57 6996.22 0.00000 5.42651e-13
  58 6996.22 0.00000 -2.45781e-13
  59 6996.22 0.00000 -6.32586e-13
  60 6996.22 0.00000 1.25018e-13
  61 6996.22 0.00000 2.67611e-13
  62 6996.22 0.00000 2.12555e-13
  63 6996.22 0.00000 6.08365e-13
  64 6996.22 0.00000 9.90647e-13
  65 6996.22 0.00000 -6.61567e-13
  66 6996.22 0.00000 -7.18320e-13
</Section>

newXOutput 147

<Section columns = "stress_xx | stress_yy | stress_xy">
  1 7049.81 0.00000 1.55078e-13
  2 7049.81 0.00000 -8.74128e-13
  3 7049.81 0.00000 7.80923e-13
  4 7049.81 0.00000 -1.54953e-13
  5 7049.81 0.00000 1.30980e-13
  6 7049.81 0.00000 -1.20910e-14
  7 7049.81 0.00000 1.68875e-13
  8 7049.81 0.00000 1.96303e-13
  9 7049.81 0.00000 -2.50879e-13
  10 7049.81 0.00000 8.32737e-13
  11 7049.81 0.00000 -5.69688e-14
  12 7049.81 0.00000 1.46599e-13
  13 7049.81 0.00000 -1.21370e-12
  14 7049.81 0.00000 -3.27450e-13
  15 7049.81 0.00000 -3.51548e-13
  16 7049.81 0.00000 3.52469e-13
  17 7049.81 0.00000 1.38424e-12
  18 7049.81 0.00000 1.00091e-13
  19 7049.81 0.00000 9.19179e-13
  20 7049.81 0.00000 6.69492e-13
  21 7049.81 0.00000 2.29642e-13
  22 7049.81 0.00000 2.80707e-13
  23 7049.81 0.00000 3.35523e-13
  24 7049.81 0.00000 -7.33318e-14
  25 7049.81 0.00000 -1.45320e-13
  26 7049.81 0.00000 1.80967e-13
  27 7049.81 0.00000 1.96470e-13
  28 7049.81 0.00000 3.14573e-14
  29 7049.81 0.00000 2.29492e-13
  30 7049.81 0.00000 -6.29889e-13
  31 7049.81 0.00000 2.01645e-13
  32 7049.81 0.00000 -1.17111e-12
  33 7049.81 0.00000 -1.56919e-12
  34 7049.81 0.00000 7.96377e-14
  35 7049.81 0.00000 2.33332e-13
  36 7049.81 0.00000 8.62188e-13
  37 7049.81 0.00000 -1.22684e-12
  38 7049.81 0.00000 -4.32491e-13
  39 7049.81 0.00000 2.35794e-13
  40 7049.81 0.00000 -6.95113e-13
  41 7049.81 0.00000 2.83013e-13
  42 7049.81 0.00000 -3.83234e-13
  43 7049.81 0.00000 -7.30890e-13
  44 7049.81 0.00000 -2.90254e-13
  45 7049.81 0.00000 1.51277e-13
  46 7049.81 0.00000 -2.49725e-13
  47 7049.81 0.00000 3.90655e-13
  48 7049.81 0.00000 5.40995e-13
  49 7049.81 0.00000 -2.44395e-13
  50 7049.81 0.00000 1.95872e-13
  51 7049.81 0.00000 -3.76847e-13
  52 7049.81 0.00000 -5.45243e-13
  53 7049.81 0.00000 -8.15946e-13
  54 7049.81 0.00000 -9.73198e-13
  55 7049.81 0.00000 1.89391e-13
  56 7049.81 0.00000 1.42436e-12
  57 7049.81 0.00000 -7.99992e-13
  58 7049.81 0.00000 -4.44378e-14
  59 7049.81 0.00000 2.46320e-13
  60 7049.81 0.00000 -1.47742e-12
  61 7049.81 0.00000 -6.79555e-13
  62 7049.81 0.00000 -1.95881e-13
  63 7049.81 0.00000 2.16723e-13
  64 7049.81 0.00000 1.31205e-12
  65 7049.81 0.00000 -7.70705e-13
  66 7049.81 0.00000 -4.10111e-13
</Section>

newXOutput 148

<Section columns = "stress_xx | stress_yy | stress_xy">
  1 0.00000 0.00000 0.00000
  2 0.00000 0.00000 0.00000
  3 0.00000 0.00000 0.00000
  4 0.00000 0.00000 0.00000
  5 0.00000 0.00000 0.00000
  6 0.00000 0.00000 0.00000
  7 0.00000 0.00000 0.00000
  8 0.00000 0.00000 0.00000
  9 0.00000 0.00000 0.00000
  10 0.00000 0.00000 0.00000
  11 0.00000 0.00000 0.00000
  12 0.00000 0.00000 0.00000
  13 0.00000 0.00000 0.00000
  14 0.00000 0.00000 0.00000
  15 0.00000 0.00000 0.00000
  16 0.00000 0.00000 0.00000
  17 0.00000 0.00000 0.00000
  18 0.00000 0.00000 0.00000
  19 0.00000 0.00000 0.00000
  20 0.00000 0.00000 0.00000
  21 0.00000 0.00000 0.00000
  22 0.00000 0.00000 0.00000
  23 0.00000 0.00000 0.00000
  24 0.00000 0.00000 0.00000
  25 0.00000 0.00000 0.00000
  26 0.00000 0.00000 0.00000
  27 0.00000 0.00000 0.00000
  28 0.00000 0.00000 0.00000
  29 0.00000 0.00000 0.00000
  30 0.00000 0.00000 0.00000
  31 0.00000 0.00000 0.00000
  32 0.00000 0.00000 0.00000
  33 0.00000 0.00000 0.00000
  34 0.00000 0.00000 0.00000
  35 0.00000 0.00000 0.00000
  36 0.00000 0.00000 0.00000
  37 0.00000 0.00000 0.00000
  38 0.00000 0.00000 0.00000
  39 0.00000 0.00000 0.00000
  40 0.00000 0.00000 0.00000
  41 0.00000 0.00000 0.00000
  42 0.00000 0.00000 0.00000
  43 0.00000 0.00000 0.00000
  44 0.00000 0.00000 0.00000
  45 0.00000 0.00000 0.00000
  46 0.00000 0.00000 0.00000
  47 0.00000 0.00000 0.00000
  48 0.00000 0.00000 0.00000
  49 0.00000 0.00000 0.00000
  50 0.00000 0.00000 0.00000
  51 0.00000 0.00000 0.00000
  52 0.00000 0.00000 0.00000
  53 0.00000 0.00000 0.00000
  54 0.00000 0.00000 0.00000
  55 0.00000 0.00000 0.00000
  56 0.00000 0.00000 0.00000
  57 0.00000 0.00000 0.00000
  58 0.00000 0.00000 0.00000
  59 0.00000 0.00000 0.00000
  60 0.00000 0.00000 0.00000
  61 0.00000 0.00000 0.00000
  62 0.00000 0.00000 0.00000
  63 0.00000 0.00000 0.00000
  64 0.00000 0.00000 0.00000
  65 0.00000 0.00000 0.00000
  66 0.00000 0.00000 0.00000
</Section>

newXOutput 149

<Section columns = "stress_xx | stress_yy | stress_xy">
  1 0.00000 0.00000 0.00000
  2 0.00000 0.00000 0.00000
  3 0.00000 0.00000 0.00000
  4 0.00000 0.00000 0.00000
  5 0.00000 0.00000 0.00000
  6 0.00000 0.00000 0.00000
  7 0.00000 0.00000 0.00000
  8 0.00000 0.00000 0.00000
  9 0.00000 0.00000 0.00000
  10 0.00000 0.00000 0.00000
  11 0.00000 0.00000 0.00000
  12 0.00000 0.00000 0.00000
  13 0.00000 0.00000 0.00000
  14 0.00000 0.00000 0.00000
  15 0.00000 0.00000 0.00000
  16 0.00000 0.00000 0.00000
  17 0.00000 0.00000 0.00000
  18 0.00000 0.00000 0.00000
  19 0.00000 0.00000 0.00000
  20 0.00000 0.00000 0.00000
  21 0.00000 0.00000 0.00000
  22 0.00000 0.00000 0.00000
  23 0.00000 0.00000 0.00000
  24 0.00000 0.00000 0.00000
  25 0.00000 0.00000 0.00000
  26 0.00000 0.00000 0.00000
  27 0.00000 0.00000 0.00000
  28 0.00000 0.00000 0.00000
  29 0.00000 0.00000 0.00000
  30 0.00000 0.00000 0.00000
  31 0.00000 0.00000 0.00000
  32 0.00000 0.00000 0.00000
  33 0.00000 0.00000 0.00000
  34 0.00000 0.00000 0.00000
  35 0.00000 0.00000 0.00000
  36 0.00000 0.00000 0.00000
  37 0.00000 0.00000 0.00000
  38 0.00000 0.00000 0.00000
  39 0.00000 0.00000 0.00000
  40 0.00000 0.00000 0.00000
  41 0.00000 0.00000 0.00000
  42 0.00000 0.00000 0.00000
  43 0.00000 0.00000 0.00000
  44 0.00000 0.00000 0.00000
  45 0.00000 0.00000 0.00000
  46 0.00000 0.00000 0.00000
  47 0.00000 0.00000 0.00000
  48 0.00000 0.00000 0.00000
  49 0.00000 0.00000 0.00000
  50 0.00000 0.00000 0.00000
  51 0.00000 0.00000 0.00000
  52 0.00000 0.00000 0.00000
  53 0.00000 0.00000 0.00000
  54 0.00000 0.00000 0.00000
  55 0.00000 0.00000 0.00000
  56 0.00000 0.00000 0.00000
  57 0.00000 0.00000 0.00000
  58 0.00000 0.00000 0.00000
  59 0.00000 0.00000 0.00000
  60 0.00000 0.00000 0.00000
  61 0.00000 0.00000 0.00000
  62 0.00000 0.00000 0.00000
  63 0.00000 0.00000 0.00000
  64 0.00000 0.00000 0.00000
  65 0.00000 0.00000 0.00000
  66 0.00000 0.00000 0.00000
</Section>

newXOutput 150

<Section columns = "stress_xx | stress_yy | stress_xy">
  1 0.00000 0.00000 0.00000
  2 0.00000 0.00000 0.00000
  3 0.00000 0.00000 0.00000
  4 0.00000 0.00000 0.00000
  5 0.00000 0.00000 0.00000
  6 0.00000 0.00000 0.00000
  7 0.00000 0.00000 0.00000
  8 0.00000 0.00000 0.00000
  9 0.00000 0.00000 0.00000
  10 0.00000 0.00000 0.00000
  11 0.00000 0.00000 0.00000
  12 0.00000 0.00000 0.00000
  13 0.00000 0.00000 0.00000
  14 0.00000 0.00000 0.00000
  15 0.00000 0.00000 0.00000
  16 0.00000 0.00000 0.00000
  17 0.00000 0.00000 0.00000
  18 0.00000 0.00000 0.00000
  19 0.00000 0.00000 0.00000
  20 0.00000 0.00000 0.00000
  21 0.00000 0.00000 0.00000
  22 0.00000 0.00000 0.00000
  23 0.00000 0.00000 0.00000
  24 0.00000 0.00000 0.00000
  25 0.00000 0.00000 0.00000
  26 0.00000 0.00000 0.00000
  27 0.00000 0.00000 0.00000
  28 0.00000 0.00000 0.00000
  29 0.00000 0.00000 0.00000
  30 0.00000 0.00000 0.00000
  31 0.00000 0.00000 0.00000
  32 0.00000 0.00000 0.00000
  33 0.00000 0.00000 0.00000
  34 0.00000 0.00000 0.00000
  35 0.00000 0.00000 0.00000
  36 0.00000 0.00000 0.00000
  37 0.00000 0.00000 0.00000
  38 0.00000 0.00000 0.00000
  39 0.00000 0.00000 0.00000
  40 0.00000 0.00000 0.00000
  41 0.00000 0.00000 0.00000
  42 0.00000 0.00000 0.00000
  43 0.00000 0.00000 0.00000
  44 0.00000 0.00000 0.00000
  45 0.00000 0.00000 0.00000
  46 0.00000 0.00000 0.00000
  47 0.00000 0.00000 0.00000
  48 0.00000 0.00000 0.00000
  49 0.00000 0.00000 0.00000
  50 0.00000 0.00000 0.00000
  51 0.00000 0.00000 0.00000
  52 0.00000 0.00000 0.00000
  53 0.00000 0.00000 0.00000
  54 0.00000 0.00000 0.00000
  55 0.00000 0.00000 0.00000
  56 0.00000 0.00000 0.00000
  57 0.00000 0.00000 0.00000
  58 0.00000 0.00000 0.00000
  59 0.00000 0.00000 0.00000
  60 0.00000 0.00000 0.00000
  61 0.00000 0.00000 0.00000
  62 0.00000 0.00000 0.00000
  63 0.00000 0.00000 0.00000
  64 0.00000 0.00000 0.00000
  65 0.00000 0.00000 0.00000
  66 0.00000 0.00000 0.00000
</Section>

newXOutput 151

<Section columns = "stress_xx | stress_yy | stress_xy">
  1 0.00000 0.00000 0.00000
  2 0.00000 0.00000 0.00000
  3 0.00000 0.00000 0.00000
  4 0.00000 0.00000 0.00000
  5 0.00000 0.00000 0.00000
  6 0.00000 0.00000 0.00000
  7 0.00000 0.00000 0.00000
  8 0.00000 0.00000 0.00000
  9 0.00000 0.00000 0.00000
  10 0.00000 0.00000 0.00000
  11 0.00000 0.00000 0.00000
  12 0.00000 0.00000 0.00000
  13 0.00000 0.00000 0.00000
  14 0.00000 0.00000 0.00000
  15 0.00000 0.00000 0.00000
  16 0.00000 0.00000 0.00000
  17 0.00000 0.00000 0.00000
  18 0.00000 0.00000 0.00000
  19 0.00000 0.00000 0.00000
  20 0.00000 0.00000 0.00000
  21 0.00000 0.00000 0.00000
  22 0.00000 0.00000 0.00000
  23 0.00000 0.00000 0.00000
  24 0.00000 0.00000 0.00000
  25 0.00000 0.00000 0.00000
  26 0.00000 0.00000 0.00000
  27 0.00000 0.00000 0.00000
  28 0.00000 0.00000 0.00000
  29 0.00000 0.00000 0.00000
  30 0.00000 0.00000 0.00000
  31 0.00000 0.00000 0.00000
  32 0.00000 0.00000 0.00000
  33 0.00000 0.00000 0.00000
  34 0.00000 0.00000 0.00000
  35 0.00000 0.00000 0.00000
  36 0.00000 0.00000 0.00000
  37 0.00000 0.00000 0.00000
  38 0.00000 0.00000 0.00000
  39 0.00000 0.00000 0.00000
  40 0.00000 0.00000 0.00000
  41 0.00000 0.00000 0.00000
  42 0.00000 0.00000 0.00000
  43 0.00000 0.00000 0.00000
  44 0.00000 0.00000 0.00000
  45 0.00000 0.00000 0.00000
  46 0.00000 0.00000 0.00000
  47 0.00000 0.00000 0.00000
  48 0.00000 0.00000 0.00000
  49 0.00000 0.00000 0.00000
  50 0.00000 0.00000 0.00000
  51 0.00000 0.00000 0.00000
  52 0.00000 0.00000 0.00000
  53 0.00000 0.00000 0.00000
  54 0.00000 0.00000 0.00000
  55 0.00000 0.00000 0.00000
  56 0.00000 0.00000 0.00000
  57 0.00000 0.00000 0.00000
  58 0.00000 0.00000 0.00000
  59 0.00000 0.00000 0.00000
  60 0.00000 0.00000 0.00000
  61 0.00000 0.00000 0.00000
  62 0.00000 0.00000 0.00000
  63 0.00000 0.00000 0.00000
  64 0.00000 0.00000 0.00000
  65 0.00000 0.00000 0.00000
  66 0.00000 0.00000 0.00000
</Section>

newXOutput 152

<Section columns = "stress_xx | stress_yy | stress_xy">
  1 0.00000 0.00000 0.00000
  2 0.00000 0.00000 0.00000
  3 0.00000 0.00000 0.00000
  4 0.00000 0.00000 0.00000
  5 0.00000 0.00000 0.00000
  6 0.00000 0.00000 0.00000
  7 0.00000 0.00000 0.00000
  8 0.00000 0.00000 0.00000
  9 0.00000 0.00000 0.00000
  10 0.00000 0.00000 0.00000
  11 0.00000 0.00000 0.00000
  12 0.00000 0.00000 0.00000
  13 0.00000 0.00000 0.00000
  14 0.00000 0.00000 0.00000
  15 0.00000 0.00000 0.00000
  16 0.00000 0.00000 0.00000
  17 0.00000 0.00000 0.00000
  18 0.00000 0.00000 0.00000
  19 0.00000 0.00000 0.00000
  20 0.00000 0.00000 0.00000
  21 0.00000 0.00000 0.00000
  22 0.00000 0.00000 0.00000
  23 0.00000 0.00000 0.00000
  24 0.00000 0.00000 0.00000
  25 0.00000 0.00000 0.00000
  26 0.00000 0.00000 0.00000
  27 0.00000 0.00000 0.00000
  28 0.00000 0.00000 0.00000
  29 0.00000 0.00000 0.00000
  30 0.00000 0.00000 0.00000
  31 0.00000 0.00000 0.00000
  32 0.00000 0.00000 0.00000
  33 0.00000 0.00000 0.00000
  34 0.00000 0.00000 0.00000
  35 0.00000 0.00000 0.00000
  36 0.00000 0.00000 0.00000
  37 0.00000 0.00000 0.00000
  38 0.00000 0.00000 0.00000
  39 0.00000 0.00000 0.00000
  40 0.00000 0.00000 0.00000
  41 0.00000 0.00000 0.00000
  42 0.00000 0.00000 0.00000
  43 0.00000 0.00000 0.00000
  44 0.00000 0.00000 0.00000
  45 0.00000 0.00000 0.00000
  46 0.00000 0.00000 0.00000
  47 0.00000 0.00000 0.00000
  48 0.00000 0.00000 0.00000
  49 0.00000 0.00000 0.00000
  50 0.00000 0.00000 0.00000
  51 0.00000 0.00000 0.00000
  52 0.00000 0.00000 0.00000
  53 0.00000 0.00000 0.00000
  54 0.00000 0.00000 0.00000
  55 0.00000 0.00000 0.00000
  56 0.00000 0.00000 0.00000
  57 0.00000 0.00000 0.00000
  58 0.00000 0.00000 0.00000
  59 0.00000 0.00000 0.00000
  60 0.00000 0.00000 0.00000
  61 0.00000 0.00000 0.00000
  62 0.00000 0.00000 0.00000
  63 0.00000 0.00000 0.00000
  64 0.00000 0.00000 0.00000
  65 0.00000 0.00000 0.00000
  66 0.00000 0.00000 0.00000
</Section>

newXOutput 153

<Section columns = "stress_xx | stress_yy | stress_xy">
  1 0.00000 0.00000 0.00000
  2 0.00000 0.00000 0.00000
  3 0.00000 0.00000 0.00000
  4 0.00000 0.00000 0.00000
  5 0.00000 0.00000 0.00000
  6 0.00000 0.00000 0.00000
  7 0.00000 0.00000 0.00000
  8 0.00000 0.00000 0.00000
  9 0.00000 0.00000 0.00000
  10 0.00000 0.00000 0.00000
  11 0.00000 0.00000 0.00000
  12 0.00000 0.00000 0.00000
  13 0.00000 0.00000 0.00000
  14 0.00000 0.00000 0.00000
  15 0.00000 0.00000 0.00000
  16 0.00000 0.00000 0.00000
  17 0.00000 0.00000 0.00000
  18 0.00000 0.00000 0.00000
  19 0.00000 0.00000 0.00000
  20 0.00000 0.00000 0.00000
  21 0.00000 0.00000 0.00000
  22 0.00000 0.00000 0.00000
  23 0.00000 0.00000 0.00000
  24 0.00000 0.00000 0.00000
  25 0.00000 0.00000 0.00000
  26 0.00000 0.00000 0.00000
  27 0.00000 0.00000 0.00000
  28 0.00000 0.00000 0.00000
  29 0.00000 0.00000 0.00000
  30 0.00000 0.00000 0.00000
  31 0.00000 0.00000 0.00000
  32 0.00000 0.00000 0.00000
  33 0.00000 0.00000 0.00000
  34 0.00000 0.00000 0.00000
  35 0.00000 0.00000 0.00000
  36 0.00000 0.00000 0.00000
  37 0.00000 0.00000 0.00000
  38 0.00000 0.00000 0.00000
  39 0.00000 0.00000 0.00000
  40 0.00000 0.00000 0.00000
  41 0.00000 0.00000 0.00000
  42 0.00000 0.00000 0.00000
  43 0.00000 0.00000 0.00000
  44 0.00000 0.00000 0.00000
  45 0.00000 0.00000 0.00000
  46 0.00000 0.00000 0.00000
  47 0.00000 0.00000 0.00000
  48 0.00000 0.00000 0.00000
  49 0.00000 0.00000 0.00000
  50 0.00000 0.00000 0.00000
  51 0.00000 0.00000 0.00000
  52 0.00000 0.00000 0.00000
  53 0.00000 0.00000 0.00000
  54 0.00000 0.00000 0.00000
  55 0.00000 0.00000 0.00000
  56 0.00000 0.00000 0.00000
  57 0.00000 0.00000 0.00000
  58 0.00000 0.00000 0.00000
  59 0.00000 0.00000 0.00000
  60 0.00000 0.00000 0.00000
  61 0.00000 0.00000 0.00000
  62 0.00000 0.00000 0.00000
  63 0.00000 0.00000 0.00000
  64 0.00000 0.00000 0.00000
  65 0.00000 0.00000 0.00000
  66 0.00000 0.00000 0.00000
</Section>

newXOutput 154

<Section columns = "stress_xx | stress_yy | stress_xy">
  1 0.00000 0.00000 0.00000
  2 0.00000 0.00000 0.00000
  3 0.00000 0.00000 0.00000
  4 0.00000 0.00000 0.00000
  5 0.00000 0.00000 0.00000
  6 0.00000 0.00000 0.00000
  7 0.00000 0.00000 0.00000
  8 0.00000 0.00000 0.00000
  9 0.00000 0.00000 0.00000
  10 0.00000 0.00000 0.00000
  11 0.00000 0.00000 0.00000
  12 0.00000 0.00000 0.00000
  13 0.00000 0.00000 0.00000
  14 0.00000 0.00000 0.00000
  15 0.00000 0.00000 0.00000
  16 0.00000 0.00000 0.00000
  17 0.00000 0.00000 0.00000
  18 0.00000 0.00000 0.00000
  19 0.00000 0.00000 0.00000
  20 0.00000 0.00000 0.00000
  21 0.00000 0.00000 0.00000
  22 0.00000 0.00000 0.00000
  23 0.00000 0.00000 0.00000
  24 0.00000 0.00000 0.00000
  25 0.00000 0.00000 0.00000
  26 0.00000 0.00000 0.00000
  27 0.00000 0.00000 0.00000
  28 0.00000 0.00000 0.00000
  29 0.00000 0.00000 0.00000
  30 0.00000 0.00000 0.00000
  31 0.00000 0.00000 0.00000
  32 0.00000 0.00000 0.00000
  33 0.00000 0.00000 0.00000
  34 0.00000 0.00000 0.00000
  35 0.00000 0.00000 0.00000
  36 0.00000 0.00000 0.00000
  37 0.00000 0.00000 0.00000
  38 0.00000 0.00000 0.00000
  39 0.00000 0.00000 0.00000
  40 0.00000 0.00000 0.00000
  41 0.00000 0.00000 0.00000
  42 0.00000 0.00000 0.00000
  43 0.00000 0.00000 0.00000
  44 0.00000 0.00000 0.00000
  45 0.00000 0.00000 0.00000
  46 0.00000 0.00000 0.00000
  47 0.00000 0.00000 0.00000
  48 0.00000 0.00000 0.00000
  49 0.00000 0.00000 0.00000
  50 0.00000 0.00000 0.00000
  51 0.00000 0.00000 0.00000
  52 0.00000 0.00000 0.00000
  53 0.00000 0.00000 0.00000
  54 0.00000 0.00000 0.00000
  55 0.00000 0.00000 0.00000
  56 0.00000 0.00000 0.00000
  57 0.00000 0.00000 0.00000
  58 0.00000 0.00000 0.00000
  59 0.00000 0.00000 0.00000
  60 0.00000 0.00000 0.00000
  61 0.00000 0.00000 0.00000
  62 0.00000 0.00000 0.00000
  63 0.00000 0.00000 0.00000
  64 0.00000 0.00000 0.00000
  65 0.00000 0.00000 0.00000
  66 0.00000 0.00000 0.00000
</Section>

newXOutput 155

<Section columns = "stress_xx | stress_yy | stress_xy">
  1 0.00000 0.00000 0.00000
  2 0.00000 0.00000 0.00000
  3 0.00000 0.00000 0.00000
  4 0.00000 0.00000 0.00000
  5 0.00000 0.00000 0.00000
  6 0.00000 0.00000 0.00000
  7 0.00000 0.00000 0.00000
  8 0.00000 0.00000 0.00000
  9 0.00000 0.00000 0.00000
  10 0.00000 0.00000 0.00000
  11 0.00000 0.00000 0.00000
  12 0.00000 0.00000 0.00000
  13 0.00000 0.00000 0.00000
  14 0.00000 0.00000 0.00000
  15 0.00000 0.00000 0.00000
  16 0.00000 0.00000 0.00000
  17 0.00000 0.00000 0.00000
  18 0.00000 0.00000 0.00000
  19 0.00000 0.00000 0.00000
  20 0.00000 0.00000 0.00000
  21 0.00000 0.00000 0.00000
  22 0.00000 0.00000 0.00000
  23 0.00000 0.00000 0.00000
  24 0.00000 0.00000 0.00000
  25 0.00000 0.00000 0.00000
  26 0.00000 0.00000 0.00000
  27 0.00000 0.00000 0.00000
  28 0.00000 0.00000 0.00000
  29 0.00000 0.00000 0.00000
  30 0.00000 0.00000 0.00000
  31 0.00000 0.00000 0.00000
  32 0.00000 0.00000 0.00000
  33 0.00000 0.00000 0.00000
  34 0.00000 0.00000 0.00000
  35 0.00000 0.00000 0.00000
  36 0.00000 0.00000 0.00000
  37 0.00000 0.00000 0.00000
  38 0.00000 0.00000 0.00000
  39 0.00000 0.00000 0.00000
  40 0.00000 0.00000 0.00000
  41 0.00000 0.00000 0.00000
  42 0.00000 0.00000 0.00000
  43 0.00000 0.00000 0.00000
  44 0.00000 0.00000 0.00000
  45 0.00000 0.00000 0.00000
  46 0.00000 0.00000 0.00000
  47 0.00000 0.00000 0.00000
  48 0.00000 0.00000 0.00000
  49 0.00000 0.00000 0.00000
  50 0.00000 0.00000 0.00000
  51 0.00000 0.00000 0.00000
  52 0.00000 0.00000 0.00000
  53 0.00000 0.00000 0.00000
  54 0.00000 0.00000 0.00000
  55 0.00000 0.00000 0.00000
  56 0.00000 0.00000 0.00000
  57 0.00000 0.00000 0.00000
  58 0.00000 0.00000 0.00000
  59 0.00000 0.00000 0.00000
  60 0.00000 0.00000 0.00000
  61 0.00000 0.00000 0.00000
  62 0.00000 0.00000 0.00000
  63 0.00000 0.00000 0.00000
  64 0.00000 0.00000 0.00000
  65 0.00000 0.00000 0.00000
  66 0.00000 0.00000 0.00000
</Section>

newXOutput 156

<Section columns = "stress_xx | stress_yy | stress_xy">
  1 0.00000 0.00000 0.00000
  2 0.00000 0.00000 0.00000
  3 0.00000 0.00000 0.00000
  4 0.00000 0.00000 0.00000
  5 0.00000 0.00000 0.00000
  6 0.00000 0.00000 0.00000
  7 0.00000 0.00000 0.00000
  8 0.00000 0.00000 0.00000
  9 0.00000 0.00000 0.00000
  10 0.00000 0.00000 0.00000
  11 0.00000 0.00000 0.00000
  12 0.00000 0.00000 0.00000
  13 0.00000 0.00000 0.00000
  14 0.00000 0.00000 0.00000
  15 0.00000 0.00000 0.00000
  16 0.00000 0.00000 0.00000
  17 0.00000 0.00000 0.00000
  18 0.00000 0.00000 0.00000
  19 0.00000 0.00000 0.00000
  20 0.00000 0.00000 0.00000
  21 0.00000 0.00000 0.00000
  22 0.00000 0.00000 0.00000
  23 0.00000 0.00000 0.00000
  24 0.00000 0.00000 0.00000
  25 0.00000 0.00000 0.00000
  26 0.00000 0.00000 0.00000
  27 0.00000 0.00000 0.00000
  28 0.00000 0.00000 0.00000
  29 0.00000 0.00000 0.00000
  30 0.00000 0.00000 0.00000
  31 0.00000 0.00000 0.00000
  32 0.00000 0.00000 0.00000
  33 0.00000 0.00000 0.00000
  34 0.00000 0.00000 0.00000
  35 0.00000 0.00000 0.00000
  36 0.00000 0.00000 0.00000
  37 0.00000 0.00000 0.00000
  38 0.00000 0.00000 0.00000
  39 0.00000 0.00000 0.00000
  40 0.00000 0.00000 0.00000
  41 0.00000 0.00000 0.00000
  42 0.00000 0.00000 0.00000
  43 0.00000 0.00000 0.00000
  44 0.00000 0.00000 0.00000
  45 0.00000 0.00000 0.00000
  46 0.00000 0.00000 0.00000
  47 0.00000 0.00000 0.00000
  48 0.00000 0.00000 0.00000
  49 0.00000 0.00000 0.00000
  50 0.00000 0.00000 0.00000
  51 0.00000 0.00000 0.00000
  52 0.00000 0.00000 0.00000
  53 0.00000 0.00000 0.00000
  54 0.00000 0.00000 0.00000
  55 0.00000 0.00000 0.00000
  56 0.00000 0.00000 0.00000
  57 0.00000 0.00000 0.00000
  58 0.00000 0.00000 0.00000
  59 0.00000 0.00000 0.00000
  60 0.00000 0.00000 0.00000
  61 0.00000 0.00000 0.00000
  62 0.00000 0.00000 0.00000
  63 0.00000 0.00000 0.00000
  64 0.00000 0.00000 0.00000
  65 0.00000 0.00000 0.00000
  66 0.00000 0.00000 0.00000
</Section>

newXOutput 157

<Section columns = "stress_xx | stress_yy | stress_xy">
  1 0.00000 0.00000 0.00000
  2 0.00000 0.00000 0.00000
  3 0.00000 0.00000 0.00000
  4 0.00000 0.00000 0.00000
  5 0.00000 0.00000 0.00000
  6 0.00000 0.00000 0.00000
  7 0.00000 0.00000 0.00000
  8 0.00000 0.00000 0.00000
  9 0.00000 0.00000 0.00000
  10 0.00000 0.00000 0.00000
  11 0.00000 0.00000 0.00000
  12 0.00000 0.00000 0.00000
  13 0.00000 0.00000 0.00000
  14 0.00000 0.00000 0.00000
  15 0.00000 0.00000 0.00000
  16 0.00000 0.00000 0.00000
  17 0.00000 0.00000 0.00000
  18 0.00000 0.00000 0.00000
  19 0.00000 0.00000 0.00000
  20 0.00000 0.00000 0.00000
  21 0.00000 0.00000 0.00000
  22 0.00000 0.00000 0.00000
  23 0.00000 0.00000 0.00000
  24 0.00000 0.00000 0.00000
  25 0.00000 0.00000 0.00000
  26 0.00000 0.00000 0.00000
  27 0.00000 0.00000 0.00000
  28 0.00000 0.00000 0.00000
  29 0.00000 0.00000 0.00000
  30 0.00000 0.00000 0.00000
  31 0.00000 0.00000 0.00000
  32 0.00000 0.00000 0.00000
  33 0.00000 0.00000 0.00000
  34 0.00000 0.00000 0.00000
  35 0.00000 0.00000 0.00000
  36 0.00000 0.00000 0.00000
  37 0.00000 0.00000 0.00000
  38 0.00000 0.00000 0.00000
  39 0.00000 0.00000 0.00000
  40 0.00000 0.00000 0.00000
  41 0.00000 0.00000 0.00000
  42 0.00000 0.00000 0.00000
  43 0.00000 0.00000 0.00000
  44 0.00000 0.00000 0.00000
  45 0.00000 0.00000 0.00000
  46 0.00000 0.00000 0.00000
  47 0.00000 0.00000 0.00000
  48 0.00000 0.00000 0.00000
  49 0.00000 0.00000 0.00000
  50 0.00000 0.00000 0.00000
  51 0.00000 0.00000 0.00000
  52 0.00000 0.00000 0.00000
  53 0.00000 0.00000 0.00000
  54 0.00000 0.00000 0.00000
  55 0.00000 0.00000 0.00000
  56 0.00000 0.00000 0.00000
  57 0.00000 0.00000 0.00000
  58 0.00000 0.00000 0.00000
  59 0.00000 0.00000 0.00000
  60 0.00000 0.00000 0.00000
  61 0.00000 0.00000 0.00000
  62 0.00000 0.00000 0.00000
  63 0.00000 0.00000 0.00000
  64 0.00000 0.00000 0.00000
  65 0.00000 0.00000 0.00000
  66 0.00000 0.00000 0.00000
</Section>

newXOutput 158

<Section columns = "stress_xx | stress_yy | stress_xy">
  1 0.00000 0.00000 0.00000
  2 0.00000 0.00000 0.00000
  3 0.00000 0.00000 0.00000
  4 0.00000 0.00000 0.00000
  5 0.00000 0.00000 0.00000
  6 0.00000 0.00000 0.00000
  7 0.00000 0.00000 0.00000
  8 0.00000 0.00000 0.00000
  9 0.00000 0.00000 0.00000
  10 0.00000 0.00000 0.00000
  11 0.00000 0.00000 0.00000
  12 0.00000 0.00000 0.00000
  13 0.00000 0.00000 0.00000
  14 0.00000 0.00000 0.00000
  15 0.00000 0.00000 0.00000
  16 0.00000 0.00000 0.00000
  17 0.00000 0.00000 0.00000
  18 0.00000 0.00000 0.00000
  19 0.00000 0.00000 0.00000
  20 0.00000 0.00000 0.00000
  21 0.00000 0.00000 0.00000
  22 0.00000 0.00000 0.00000
  23 0.00000 0.00000 0.00000
  24 0.00000 0.00000 0.00000
  25 0.00000 0.00000 0.00000
  26 0.00000 0.00000 0.00000
  27 0.00000 0.00000 0.00000
  28 0.00000 0.00000 0.00000
  29 0.00000 0.00000 0.00000
  30 0.00000 0.00000 0.00000
  31 0.00000 0.00000 0.00000
  32 0.00000 0.00000 0.00000
  33 0.00000 0.00000 0.00000
  34 0.00000 0.00000 0.00000
  35 0.00000 0.00000 0.00000
  36 0.00000 0.00000 0.00000
  37 0.00000 0.00000 0.00000
  38 0.00000 0.00000 0.00000
  39 0.00000 0.00000 0.00000
  40 0.00000 0.00000 0.00000
  41 0.00000 0.00000 0.00000
  42 0.00000 0.00000 0.00000
  43 0.00000 0.00000 0.00000
  44 0.00000 0.00000 0.00000
  45 0.00000 0.00000 0.00000
  46 0.00000 0.00000 0.00000
  47 0.00000 0.00000 0.00000
  48 0.00000 0.00000 0.00000
  49 0.00000 0.00000 0.00000
  50 0.00000 0.00000 0.00000
  51 0.00000 0.00000 0.00000
  52 0.00000 0.00000 0.00000
  53 0.00000 0.00000 0.00000
  54 0.00000 0.00000 0.00000
  55 0.00000 0.00000 0.00000
  56 0.00000 0.00000 0.00000
  57 0.00000 0.00000 0.00000
  58 0.00000 0.00000 0.00000
  59 0.00000 0.00000 0.00000
  60 0.00000 0.00000 0.00000
  61 0.00000 0.00000 0.00000
  62 0.00000 0.00000 0.00000
  63 0.00000 0.00000 0.00000
  64 0.00000 0.00000 0.00000
  65 0.00000 0.00000 0.00000
  66 0.00000 0.00000 0.00000
</Section>

newXOutput 159

<Section columns = "stress_xx | stress_yy | stress_xy">
  1 0.00000 0.00000 0.00000
  2 0.00000 0.00000 0.00000
  3 0.00000 0.00000 0.00000
  4 0.00000 0.00000 0.00000
  5 0.00000 0.00000 0.00000
  6 0.00000 0.00000 0.00000
  7 0.00000 0.00000 0.00000
  8 0.00000 0.00000 0.00000
  9 0.00000 0.00000 0.00000
  10 0.00000 0.00000 0.00000
  11 0.00000 0.00000 0.00000
  12 0.00000 0.00000 0.00000
  13 0.00000 0.00000 0.00000
  14 0.00000 0.00000 0.00000
  15 0.00000 0.00000 0.00000
  16 0.00000 0.00000 0.00000
  17 0.00000 0.00000 0.00000
  18 0.00000 0.00000 0.00000
  19 0.00000 0.00000 0.00000
  20 0.00000 0.00000 0.00000
  21 0.00000 0.00000 0.00000
  22 0.00000 0.00000 0.00000
  23 0.00000 0.00000 0.00000
  24 0.00000 0.00000 0.00000
  25 0.00000 0.00000 0.00000
  26 0.00000 0.00000 0.00000
  27 0.00000 0.00000 0.00000
  28 0.00000 0.00000 0.00000
  29 0.00000 0.00000 0.00000
  30 0.00000 0.00000 0.00000
  31 0.00000 0.00000 0.00000
  32 0.00000 0.00000 0.00000
  33 0.00000 0.00000 0.00000
  34 0.00000 0.00000 0.00000
  35 0.00000 0.00000 0.00000
  36 0.00000 0.00000 0.00000
  37 0.00000 0.00000 0.00000
  38 0.00000 0.00000 0.00000
  39 0.00000 0.00000 0.00000
  40 0.00000 0.00000 0.00000
  41 0.00000 0.00000 0.00000
  42 0.00000 0.00000 0.00000
  43 0.00000 0.00000 0.00000
  44 0.00000 0.00000 0.00000
  45 0.00000 0.00000 0.00000
  46 0.00000 0.00000 0.00000
  47 0.00000 0.00000 0.00000
  48 0.00000 0.00000 0.00000
  49 0.00000 0.00000 0.00000
  50 0.00000 0.00000 0.00000
  51 0.00000 0.00000 0.00000
  52 0.00000 0.00000 0.00000
  53 0.00000 0.00000 0.00000
  54 0.00000 0.00000 0.00000
  55 0.00000 0.00000 0.00000
  56 0.00000 0.00000 0.00000
  57 0.00000 0.00000 0.00000
  58 0.00000 0.00000 0.00000
  59 0.00000 0.00000 0.00000
  60 0.00000 0.00000 0.00000
  61 0.00000 0.00000 0.00000
  62 0.00000 0.00000 0.00000
  63 0.00000 0.00000 0.00000
  64 0.00000 0.00000 0.00000
  65 0.00000 0.00000 0.00000
  66 0.00000 0.00000 0.00000
</Section>

newXOutput 160

<Section columns = "stress_xx | stress_yy | stress_xy">
  1 0.00000 0.00000 0.00000
  2 0.00000 0.00000 0.00000
  3 0.00000 0.00000 0.00000
  4 0.00000 0.00000 0.00000
  5 0.00000 0.00000 0.00000
  6 0.00000 0.00000 0.00000
  7 0.00000 0.00000 0.00000
  8 0.00000 0.00000 0.00000
  9 0.00000 0.00000 0.00000
  10 0.00000 0.00000 0.00000
  11 0.00000 0.00000 0.00000
  12 0.00000 0.00000 0.00000
  13 0.00000 0.00000 0.00000
  14 0.00000 0.00000 0.00000
  15 0.00000 0.00000 0.00000
  16 0.00000 0.00000 0.00000
  17 0.00000 0.00000 0.00000
  18 0.00000 0.00000 0.00000
  19 0.00000 0.00000 0.00000
  20 0.00000 0.00000 0.00000
  21 0.00000 0.00000 0.00000
  22 0.00000 0.00000 0.00000
  23 0.00000 0.00000 0.00000
  24 0.00000 0.00000 0.00000
  25 0.00000 0.00000 0.00000
  26 0.00000 0.00000 0.00000
  27 0.00000 0.00000 0.00000
  28 0.00000 0.00000 0.00000
  29 0.00000 0.00000 0.00000
  30 0.00000 0.00000 0.00000
  31 0.00000 0.00000 0.00000
  32 0.00000 0.00000 0.00000
  33 0.00000 0.00000 0.00000
  34 0.00000 0.00000 0.00000
  35 0.00000 0.00000 0.00000
  36 0.00000 0.00000 0.00000
  37 0.00000 0.00000 0.00000
  38 0.00000 0.00000 0.00000
  39 0.00000 0.00000 0.00000
  40 0.00000 0.00000 0.00000
  41 0.00000 0.00000 0.00000
  42 0.00000 0.00000 0.00000
  43 0.00000 0.00000 0.00000
  44 0.00000 0.00000 0.00000
  45 0.00000 0.00000 0.00000
  46 0.00000 0.00000 0.00000
  47 0.00000 0.00000 0.00000
  48 0.00000 0.00000 0.00000
  49 0.00000 0.00000 0.00000
  50 0.00000 0.00000 0.00000
  51 0.00000 0.00000 0.00000
  52 0.00000 0.00000 0.00000
  53 0.00000 0.00000 0.00000
  54 0.00000 0.00000 0.00000
  55 0.00000 0.00000 0.00000
  56 0.00000 0.00000 0.00000
  57 0.00000 0.00000 0.00000
  58 0.00000 0.00000 0.00000
  59 0.00000 0.00000 0.00000
  60 0.00000 0.00000 0.00000
  61 0.00000 0.00000 0.00000
  62 0.00000 0.00000 0.00000
  63 0.00000 0.00000 0.00000
  64 0.00000 0.00000 0.00000
  65 0.00000 0.00000 0.00000
  66 0.00000 0.00000 0.00000
</Section>

newXOutput 161

<Section columns = "stress_xx | stress_yy | stress_xy">
  1 0.00000 0.00000 0.00000
  2 0.00000 0.00000 0.00000
  3 0.00000 0.00000 0.00000
  4 0.00000 0.00000 0.00000
  5 0.00000 0.00000 0.00000
  6 0.00000 0.00000 0.00000
  7 0.00000 0.00000 0.00000
  8 0.00000 0.00000 0.00000
  9 0.00000 0.00000 0.00000
  10 0.00000 0.00000 0.00000
  11 0.00000 0.00000 0.00000
  12 0.00000 0.00000 0.00000
  13 0.00000 0.00000 0.00000
  14 0.00000 0.00000 0.00000
  15 0.00000 0.00000 0.00000
  16 0.00000 0.00000 0.00000
  17 0.00000 0.00000 0.00000
  18 0.00000 0.00000 0.00000
  19 0.00000 0.00000 0.00000
  20 0.00000 0.00000 0.00000
  21 0.00000 0.00000 0.00000
  22 0.00000 0.00000 0.00000
  23 0.00000 0.00000 0.00000
  24 0.00000 0.00000 0.00000
  25 0.00000 0.00000 0.00000
  26 0.00000 0.00000 0.00000
  27 0.00000 0.00000 0.00000
  28 0.00000 0.00000 0.00000
  29 0.00000 0.00000 0.00000
  30 0.00000 0.00000 0.00000
  31 0.00000 0.00000 0.00000
  32 0.00000 0.00000 0.00000
  33 0.00000 0.00000 0.00000
  34 0.00000 0.00000 0.00000
  35 0.00000 0.00000 0.00000
  36 0.00000 0.00000 0.00000
  37 0.00000 0.00000 0.00000
  38 0.00000 0.00000 0.00000
  39 0.00000 0.00000 0.00000
  40 0.00000 0.00000 0.00000
  41 0.00000 0.00000 0.00000
  42 0.00000 0.00000 0.00000
  43 0.00000 0.00000 0.00000
  44 0.00000 0.00000 0.00000
  45 0.00000 0.00000 0.00000
  46 0.00000 0.00000 0.00000
  47 0.00000 0.00000 0.00000
  48 0.00000 0.00000 0.00000
  49 0.00000 0.00000 0.00000
  50 0.00000 0.00000 0.00000
  51 0.00000 0.00000 0.00000
  52 0.00000 0.00000 0.00000
  53 0.00000 0.00000 0.00000
  54 0.00000 0.00000 0.00000
  55 0.00000 0.00000 0.00000
  56 0.00000 0.00000 0.00000
  57 0.00000 0.00000 0.00000
  58 0.00000 0.00000 0.00000
  59 0.00000 0.00000 0.00000
  60 0.00000 0.00000 0.00000
  61 0.00000 0.00000 0.00000
  62 0.00000 0.00000 0.00000
  63 0.00000 0.00000 0.00000
  64 0.00000 0.00000 0.00000
  65 0.00000 0.00000 0.00000
  66 0.00000 0.00000 0.00000
</Section>

newXOutput 162

<Section columns = "stress_xx | stress_yy | stress_xy">
  1 0.00000 0.00000 0.00000
  2 0.00000 0.00000 0.00000
  3 0.00000 0.00000 0.00000
  4 0.00000 0.00000 0.00000
  5 0.00000 0.00000 0.00000
  6 0.00000 0.00000 0.00000
  7 0.00000 0.00000 0.00000
  8 0.00000 0.00000 0.00000
  9 0.00000 0.00000 0.00000
  10 0.00000 0.00000 0.00000
  11 0.00000 0.00000 0.00000
  12 0.00000 0.00000 0.00000
  13 0.00000 0.00000 0.00000
  14 0.00000 0.00000 0.00000
  15 0.00000 0.00000 0.00000
  16 0.00000 0.00000 0.00000
  17 0.00000 0.00000 0.00000
  18 0.00000 0.00000 0.00000
  19 0.00000 0.00000 0.00000
  20 0.00000 0.00000 0.00000
  21 0.00000 0.00000 0.00000
  22 0.00000 0.00000 0.00000
  23 0.00000 0.00000 0.00000
  24 0.00000 0.00000 0.00000
  25 0.00000 0.00000 0.00000
  26 0.00000 0.00000 0.00000
  27 0.00000 0.00000 0.00000
  28 0.00000 0.00000 0.00000
  29 0.00000 0.00000 0.00000
  30 0.00000 0.00000 0.00000
  31 0.00000 0.00000 0.00000
  32 0.00000 0.00000 0.00000
  33 0.00000 0.00000 0.00000
  34 0.00000 0.00000 0.00000
  35 0.00000 0.00000 0.00000
  36 0.00000 0.00000 0.00000
  37 0.00000 0.00000 0.00000
  38 0.00000 0.00000 0.00000
  39 0.00000 0.00000 0.00000
  40 0.00000 0.00000 0.00000
  41 0.00000 0.00000 0.00000
  42 0.00000 0.00000 0.00000
  43 0.00000 0.00000 0.00000
  44 0.00000 0.00000 0.00000
  45 0.00000 0.00000 0.00000
  46 0.00000 0.00000 0.00000
  47 0.00000 0.00000 0.00000
  48 0.00000 0.00000 0.00000
  49 0.00000 0.00000 0.00000
  50 0.00000 0.00000 0.00000
  51 0.00000 0.00000 0.00000
  52 0.00000 0.00000 0.00000
  53 0.00000 0.00000 0.00000
  54 0.00000 0.00000 0.00000
  55 0.00000 0.00000 0.00000
  56 0.00000 0.00000 0.00000
  57 0.00000 0.00000 0.00000
  58 0.00000 0.00000 0.00000
  59 0.00000 0.00000 0.00000
  60 0.00000 0.00000 0.00000
  61 0.00000 0.00000 0.00000
  62 0.00000 0.00000 0.00000
  63 0.00000 0.00000 0.00000
  64 0.00000 0.00000 0.00000
  65 0.00000 0.00000 0.00000
  66 0.00000 0.00000 0.00000
</Section>

newXOutput 163

<Section columns = "stress_xx | stress_yy | stress_xy">
  1 0.00000 0.00000 0.00000
  2 0.00000 0.00000 0.00000
  3 0.00000 0.00000 0.00000
  4 0.00000 0.00000 0.00000
  5 0.00000 0.00000 0.00000
  6 0.00000 0.00000 0.00000
  7 0.00000 0.00000 0.00000
  8 0.00000 0.00000 0.00000
  9 0.00000 0.00000 0.00000
  10 0.00000 0.00000 0.00000
  11 0.00000 0.00000 0.00000
  12 0.00000 0.00000 0.00000
  13 0.00000 0.00000 0.00000
  14 0.00000 0.00000 0.00000
  15 0.00000 0.00000 0.00000
  16 0.00000 0.00000 0.00000
  17 0.00000 0.00000 0.00000
  18 0.00000 0.00000 0.00000
  19 0.00000 0.00000 0.00000
  20 0.00000 0.00000 0.00000
  21 0.00000 0.00000 0.00000
  22 0.00000 0.00000 0.00000
  23 0.00000 0.00000 0.00000
  24 0.00000 0.00000 0.00000
  25 0.00000 0.00000 0.00000
  26 0.00000 0.00000 0.00000
  27 0.00000 0.00000 0.00000
  28 0.00000 0.00000 0.00000
  29 0.00000 0.00000 0.00000
  30 0.00000 0.00000 0.00000
  31 0.00000 0.00000 0.00000
  32 0.00000 0.00000 0.00000
  33 0.00000 0.00000 0.00000
  34 0.00000 0.00000 0.00000
  35 0.00000 0.00000 0.00000
  36 0.00000 0.00000 0.00000
  37 0.00000 0.00000 0.00000
  38 0.00000 0.00000 0.00000
  39 0.00000 0.00000 0.00000
  40 0.00000 0.00000 0.00000
  41 0.00000 0.00000 0.00000
  42 0.00000 0.00000 0.00000
  43 0.00000 0.00000 0.00000
  44 0.00000 0.00000 0.00000
  45 0.00000 0.00000 0.00000
  46 0.00000 0.00000 0.00000
  47 0.00000 0.00000 0.00000
  48 0.00000 0.00000 0.00000
  49 0.00000 0.00000 0.00000
  50 0.00000 0.00000 0.00000
  51 0.00000 0.00000 0.00000
  52 0.00000 0.00000 0.00000
  53 0.00000 0.00000 0.00000
  54 0.00000 0.00000 0.00000
  55 0.00000 0.00000 0.00000
  56 0.00000 0.00000 0.00000
  57 0.00000 0.00000 0.00000
  58 0.00000 0.00000 0.00000
  59 0.00000 0.00000 0.00000
  60 0.00000 0.00000 0.00000
  61 0.00000 0.00000 0.00000
  62 0.00000 0.00000 0.00000
  63 0.00000 0.00000 0.00000
  64 0.00000 0.00000 0.00000
  65 0.00000 0.00000 0.00000
  66 0.00000 0.00000 0.00000
</Section>

newXOutput 164

<Section columns = "stress_xx | stress_yy | stress_xy">
  1 0.00000 0.00000 0.00000
  2 0.00000 0.00000 0.00000
  3 0.00000 0.00000 0.00000
  4 0.00000 0.00000 0.00000
  5 0.00000 0.00000 0.00000
  6 0.00000 0.00000 0.00000
  7 0.00000 0.00000 0.00000
  8 0.00000 0.00000 0.00000
  9 0.00000 0.00000 0.00000
  10 0.00000 0.00000 0.00000
  11 0.00000 0.00000 0.00000
  12 0.00000 0.00000 0.00000
  13 0.00000 0.00000 0.00000
  14 0.00000 0.00000 0.00000
  15 0.00000 0.00000 0.00000
  16 0.00000 0.00000 0.00000
  17 0.00000 0.00000 0.00000
  18 0.00000 0.00000 0.00000
  19 0.00000 0.00000 0.00000
  20 0.00000 0.00000 0.00000
  21 0.00000 0.00000 0.00000
  22 0.00000 0.00000 0.00000
  23 0.00000 0.00000 0.00000
  24 0.00000 0.00000 0.00000
  25 0.00000 0.00000 0.00000
  26 0.00000 0.00000 0.00000
  27 0.00000 0.00000 0.00000
  28 0.00000 0.00000 0.00000
  29 0.00000 0.00000 0.00000
  30 0.00000 0.00000 0.00000
  31 0.00000 0.00000 0.00000
  32 0.00000 0.00000 0.00000
  33 0.00000 0.00000 0.00000
  34 0.00000 0.00000 0.00000
  35 0.00000 0.00000 0.00000
  36 0.00000 0.00000 0.00000
  37 0.00000 0.00000 0.00000
  38 0.00000 0.00000 0.00000
  39 0.00000 0.00000 0.00000
  40 0.00000 0.00000 0.00000
  41 0.00000 0.00000 0.00000
  42 0.00000 0.00000 0.00000
  43 0.00000 0.00000 0.00000
  44 0.00000 0.00000 0.00000
  45 0.00000 0.00000 0.00000
  46 0.00000 0.00000 0.00000
  47 0.00000 0.00000 0.00000
  48 0.00000 0.00000 0.00000
  49 0.00000 0.00000 0.00000
  50 0.00000 0.00000 0.00000
  51 0.00000 0.00000 0.00000
  52 0.00000 0.00000 0.00000
  53 0.00000 0.00000 0.00000
  54 0.00000 0.00000 0.00000
  55 0.00000 0.00000 0.00000
  56 0.00000 0.00000 0.00000
  57 0.00000 0.00000 0.00000
  58 0.00000 0.00000 0.00000
  59 0.00000 0.00000 0.00000
  60 0.00000 0.00000 0.00000
  61 0.00000 0.00000 0.00000
  62 0.00000 0.00000 0.00000
  63 0.00000 0.00000 0.00000
  64 0.00000 0.00000 0.00000
  65 0.00000 0.00000 0.00000
  66 0.00000 0.00000 0.00000
</Section>

newXOutput 165

<Section columns = "stress_xx | stress_yy | stress_xy">
  1 0.00000 0.00000 0.00000
  2 0.00000 0.00000 0.00000
  3 0.00000 0.00000 0.00000
  4 0.00000 0.00000 0.00000
  5 0.00000 0.00000 0.00000
  6 0.00000 0.00000 0.00000
  7 0.00000 0.00000 0.00000
  8 0.00000 0.00000 0.00000
  9 0.00000 0.00000 0.00000
  10 0.00000 0.00000 0.00000
  11 0.00000 0.00000 0.00000
  12 0.00000 0.00000 0.00000
  13 0.00000 0.00000 0.00000
  14 0.00000 0.00000 0.00000
  15 0.00000 0.00000 0.00000
  16 0.00000 0.00000 0.00000
  17 0.00000 0.00000 0.00000
  18 0.00000 0.00000 0.00000
  19 0.00000 0.00000 0.00000
  20 0.00000 0.00000 0.00000
  21 0.00000 0.00000 0.00000
  22 0.00000 0.00000 0.00000
  23 0.00000 0.00000 0.00000
  24 0.00000 0.00000 0.00000
  25 0.00000 0.00000 0.00000
  26 0.00000 0.00000 0.00000
  27 0.00000 0.00000 0.00000
  28 0.00000 0.00000 0.00000
  29 0.00000 0.00000 0.00000
  30 0.00000 0.00000 0.00000
  31 0.00000 0.00000 0.00000
  32 0.00000 0.00000 0.00000
  33 0.00000 0.00000 0.00000
  34 0.00000 0.00000 0.00000
  35 0.00000 0.00000 0.00000
  36 0.00000 0.00000 0.00000
  37 0.00000 0.00000 0.00000
  38 0.00000 0.00000 0.00000
  39 0.00000 0.00000 0.00000
  40 0.00000 0.00000 0.00000
  41 0.00000 0.00000 0.00000
  42 0.00000 0.00000 0.00000
  43 0.00000 0.00000 0.00000
  44 0.00000 0.00000 0.00000
  45 0.00000 0.00000 0.00000
  46 0.00000 0.00000 0.00000
  47 0.00000 0.00000 0.00000
  48 0.00000 0.00000 0.00000
  49 0.00000 0.00000 0.00000
  50 0.00000 0.00000 0.00000
  51 0.00000 0.00000 0.00000
  52 0.00000 0.00000 0.00000
  53 0.00000 0.00000 0.00000
  54 0.00000 0.00000 0.00000
  55 0.00000 0.00000 0.00000
  56 0.00000 0.00000 0.00000
  57 0.00000 0.00000 0.00000
  58 0.00000 0.00000 0.00000
  59 0.00000 0.00000 0.00000
  60 0.00000 0.00000 0.00000
  61 0.00000 0.00000 0.00000
  62 0.00000 0.00000 0.00000
  63 0.00000 0.00000 0.00000
  64 0.00000 0.00000 0.00000
  65 0.00000 0.00000 0.00000
  66 0.00000 0.00000 0.00000
</Section>

newXOutput 166

<Section columns = "stress_xx | stress_yy | stress_xy">
  1 0.00000 0.00000 0.00000
  2 0.00000 0.00000 0.00000
  3 0.00000 0.00000 0.00000
  4 0.00000 0.00000 0.00000
  5 0.00000 0.00000 0.00000
  6 0.00000 0.00000 0.00000
  7 0.00000 0.00000 0.00000
  8 0.00000 0.00000 0.00000
  9 0.00000 0.00000 0.00000
  10 0.00000 0.00000 0.00000
  11 0.00000 0.00000 0.00000
  12 0.00000 0.00000 0.00000
  13 0.00000 0.00000 0.00000
  14 0.00000 0.00000 0.00000
  15 0.00000 0.00000 0.00000
  16 0.00000 0.00000 0.00000
  17 0.00000 0.00000 0.00000
  18 0.00000 0.00000 0.00000
  19 0.00000 0.00000 0.00000
  20 0.00000 0.00000 0.00000
  21 0.00000 0.00000 0.00000
  22 0.00000 0.00000 0.00000
  23 0.00000 0.00000 0.00000
  24 0.00000 0.00000 0.00000
  25 0.00000 0.00000 0.00000
  26 0.00000 0.00000 0.00000
  27 0.00000 0.00000 0.00000
  28 0.00000 0.00000 0.00000
  29 0.00000 0.00000 0.00000
  30 0.00000 0.00000 0.00000
  31 0.00000 0.00000 0.00000
  32 0.00000 0.00000 0.00000
  33 0.00000 0.00000 0.00000
  34 0.00000 0.00000 0.00000
  35 0.00000 0.00000 0.00000
  36 0.00000 0.00000 0.00000
  37 0.00000 0.00000 0.00000
  38 0.00000 0.00000 0.00000
  39 0.00000 0.00000 0.00000
  40 0.00000 0.00000 0.00000
  41 0.00000 0.00000 0.00000
  42 0.00000 0.00000 0.00000
  43 0.00000 0.00000 0.00000
  44 0.00000 0.00000 0.00000
  45 0.00000 0.00000 0.00000
  46 0.00000 0.00000 0.00000
  47 0.00000 0.00000 0.00000
  48 0.00000 0.00000 0.00000
  49 0.00000 0.00000 0.00000
  50 0.00000 0.00000 0.00000
  51 0.00000 0.00000 0.00000
  52 0.00000 0.00000 0.00000
  53 0.00000 0.00000 0.00000
  54 0.00000 0.00000 0.00000
  55 0.00000 0.00000 0.00000
  56 0.00000 0.00000 0.00000
  57 0.00000 0.00000 0.00000
  58 0.00000 0.00000 0.00000
  59 0.00000 0.00000 0.00000
  60 0.00000 0.00000 0.00000
  61 0.00000 0.00000 0.00000
  62 0.00000 0.00000 0.00000
  63 0.00000 0.00000 0.00000
  64 0.00000 0.00000 0.00000
  65 0.00000 0.00000 0.00000
  66 0.00000 0.00000 0.00000
</Section>

newXOutput 167

<Section columns = "stress_xx | stress_yy | stress_xy">
  1 0.00000 0.00000 0.00000
  2 0.00000 0.00000 0.00000
  3 0.00000 0.00000 0.00000
  4 0.00000 0.00000 0.00000
  5 0.00000 0.00000 0.00000
  6 0.00000 0.00000 0.00000
  7 0.00000 0.00000 0.00000
  8 0.00000 0.00000 0.00000
  9 0.00000 0.00000 0.00000
  10 0.00000 0.00000 0.00000
  11 0.00000 0.00000 0.00000
  12 0.00000 0.00000 0.00000
  13 0.00000 0.00000 0.00000
  14 0.00000 0.00000 0.00000
  15 0.00000 0.00000 0.00000
  16 0.00000 0.00000 0.00000
  17 0.00000 0.00000 0.00000
  18 0.00000 0.00000 0.00000
  19 0.00000 0.00000 0.00000
  20 0.00000 0.00000 0.00000
  21 0.00000 0.00000 0.00000
  22 0.00000 0.00000 0.00000
  23 0.00000 0.00000 0.00000
  24 0.00000 0.00000 0.00000
  25 0.00000 0.00000 0.00000
  26 0.00000 0.00000 0.00000
  27 0.00000 0.00000 0.00000
  28 0.00000 0.00000 0.00000
  29 0.00000 0.00000 0.00000
  30 0.00000 0.00000 0.00000
  31 0.00000 0.00000 0.00000
  32 0.00000 0.00000 0.00000
  33 0.00000 0.00000 0.00000
  34 0.00000 0.00000 0.00000
  35 0.00000 0.00000 0.00000
  36 0.00000 0.00000 0.00000
  37 0.00000 0.00000 0.00000
  38 0.00000 0.00000 0.00000
  39 0.00000 0.00000 0.00000
  40 0.00000 0.00000 0.00000
  41 0.00000 0.00000 0.00000
  42 0.00000 0.00000 0.00000
  43 0.00000 0.00000 0.00000
  44 0.00000 0.00000 0.00000
  45 0.00000 0.00000 0.00000
  46 0.00000 0.00000 0.00000
  47 0.00000 0.00000 0.00000
  48 0.00000 0.00000 0.00000
  49 0.00000 0.00000 0.00000
  50 0.00000 0.00000 0.00000
  51 0.00000 0.00000 0.00000
  52 0.00000 0.00000 0.00000
  53 0.00000 0.00000 0.00000
  54 0.00000 0.00000 0.00000
  55 0.00000 0.00000 0.00000
  56 0.00000 0.00000 0.00000
  57 0.00000 0.00000 0.00000
  58 0.00000 0.00000 0.00000
  59 0.00000 0.00000 0.00000
  60 0.00000 0.00000 0.00000
  61 0.00000 0.00000 0.00000
  62 0.00000 0.00000 0.00000
  63 0.00000 0.00000 0.00000
  64 0.00000 0.00000 0.00000
  65 0.00000 0.00000 0.00000
  66 0.00000 0.00000 0.00000
</Section>

newXOutput 168

<Section columns = "stress_xx | stress_yy | stress_xy">
  1 0.00000 0.00000 0.00000
  2 0.00000 0.00000 0.00000
  3 0.00000 0.00000 0.00000
  4 0.00000 0.00000 0.00000
  5 0.00000 0.00000 0.00000
  6 0.00000 0.00000 0.00000
  7 0.00000 0.00000 0.00000
  8 0.00000 0.00000 0.00000
  9 0.00000 0.00000 0.00000
  10 0.00000 0.00000 0.00000
  11 0.00000 0.00000 0.00000
  12 0.00000 0.00000 0.00000
  13 0.00000 0.00000 0.00000
  14 0.00000 0.00000 0.00000
  15 0.00000 0.00000 0.00000
  16 0.00000 0.00000 0.00000
  17 0.00000 0.00000 0.00000
  18 0.00000 0.00000 0.00000
  19 0.00000 0.00000 0.00000
  20 0.00000 0.00000 0.00000
  21 0.00000 0.00000 0.00000
  22 0.00000 0.00000 0.00000
  23 0.00000 0.00000 0.00000
  24 0.00000 0.00000 0.00000
  25 0.00000 0.00000 0.00000
  26 0.00000 0.00000 0.00000
  27 0.00000 0.00000 0.00000
  28 0.00000 0.00000 0.00000
  29 0.00000 0.00000 0.00000
  30 0.00000 0.00000 0.00000
  31 0.00000 0.00000 0.00000
  32 0.00000 0.00000 0.00000
  33 0.00000 0.00000 0.00000
  34 0.00000 0.00000 0.00000
  35 0.00000 0.00000 0.00000
  36 0.00000 0.00000 0.00000
  37 0.00000 0.00000 0.00000
  38 0.00000 0.00000 0.00000
  39 0.00000 0.00000 0.00000
  40 0.00000 0.00000 0.00000
  41 0.00000 0.00000 0.00000
  42 0.00000 0.00000 0.00000
  43 0.00000 0.00000 0.00000
  44 0.00000 0.00000 0.00000
  45 0.00000 0.00000 0.00000
  46 0.00000 0.00000 0.00000
  47 0.00000 0.00000 0.00000
  48 0.00000 0.00000 0.00000
  49 0.00000 0.00000 0.00000
  50 0.00000 0.00000 0.00000
  51 0.00000 0.00000 0.00000
  52 0.00000 0.00000 0.00000
  53 0.00000 0.00000 0.00000
  54 0.00000 0.00000 0.00000
  55 0.00000 0.00000 0.00000
  56 0.00000 0.00000 0.00000
  57 0.00000 0.00000 0.00000
  58 0.00000 0.00000 0.00000
  59 0.00000 0.00000 0.00000
  60 0.00000 0.00000 0.00000
  61 0.00000 0.00000 0.00000
  62 0.00000 0.00000 0.00000
  63 0.00000 0.00000 0.00000
  64 0.00000 0.00000 0.00000
  65 0.00000 0.00000 0.00000
  66 0.00000 0.00000 0.00000
</Section>

newXOutput 169

<Section columns = "stress_xx | stress_yy | stress_xy">
  1 0.00000 0.00000 0.00000
  2 0.00000 0.00000 0.00000
  3 0.00000 0.00000 0.00000
  4 0.00000 0.00000 0.00000
  5 0.00000 0.00000 0.00000
  6 0.00000 0.00000 0.00000
  7 0.00000 0.00000 0.00000
  8 0.00000 0.00000 0.00000
  9 0.00000 0.00000 0.00000
  10 0.00000 0.00000 0.00000
  11 0.00000 0.00000 0.00000
  12 0.00000 0.00000 0.00000
  13 0.00000 0.00000 0.00000
  14 0.00000 0.00000 0.00000
  15 0.00000 0.00000 0.00000
  16 0.00000 0.00000 0.00000
  17 0.00000 0.00000 0.00000
  18 0.00000 0.00000 0.00000
  19 0.00000 0.00000 0.00000
  20 0.00000 0.00000 0.00000
  21 0.00000 0.00000 0.00000
  22 0.00000 0.00000 0.00000
  23 0.00000 0.00000 0.00000
  24 0.00000 0.00000 0.00000
  25 0.00000 0.00000 0.00000
  26 0.00000 0.00000 0.00000
  27 0.00000 0.00000 0.00000
  28 0.00000 0.00000 0.00000
  29 0.00000 0.00000 0.00000
  30 0.00000 0.00000 0.00000
  31 0.00000 0.00000 0.00000
  32 0.00000 0.00000 0.00000
  33 0.00000 0.00000 0.00000
  34 0.00000 0.00000 0.00000
  35 0.00000 0.00000 0.00000
  36 0.00000 0.00000 0.00000
  37 0.00000 0.00000 0.00000
  38 0.00000 0.00000 0.00000
  39 0.00000 0.00000 0.00000
  40 0.00000 0.00000 0.00000
  41 0.00000 0.00000 0.00000
  42 0.00000 0.00000 0.00000
  43 0.00000 0.00000 0.00000
  44 0.00000 0.00000 0.00000
  45 0.00000 0.00000 0.00000
  46 0.00000 0.00000 0.00000
  47 0.00000 0.00000 0.00000
  48 0.00000 0.00000 0.00000
  49 0.00000 0.00000 0.00000
  50 0.00000 0.00000 0.00000
  51 0.00000 0.00000 0.00000
  52 0.00000 0.00000 0.00000
  53 0.00000 0.00000 0.00000
  54 0.00000 0.00000 0.00000
  55 0.00000 0.00000 0.00000
  56 0.00000 0.00000 0.00000
  57 0.00000 0.00000 0.00000
  58 0.00000 0.00000 0.00000
  59 0.00000 0.00000 0.00000
  60 0.00000 0.00000 0.00000
  61 0.00000 0.00000 0.00000
  62 0.00000 0.00000 0.00000
  63 0.00000 0.00000 0.00000
  64 0.00000 0.00000 0.00000
  65 0.00000 0.00000 0.00000
  66 0.00000 0.00000 0.00000
</Section>

newXOutput 170

<Section columns = "stress_xx | stress_yy | stress_xy">
  1 0.00000 0.00000 0.00000
  2 0.00000 0.00000 0.00000
  3 0.00000 0.00000 0.00000
  4 0.00000 0.00000 0.00000
  5 0.00000 0.00000 0.00000
  6 0.00000 0.00000 0.00000
  7 0.00000 0.00000 0.00000
  8 0.00000 0.00000 0.00000
  9 0.00000 0.00000 0.00000
  10 0.00000 0.00000 0.00000
  11 0.00000 0.00000 0.00000
  12 0.00000 0.00000 0.00000
  13 0.00000 0.00000 0.00000
  14 0.00000 0.00000 0.00000
  15 0.00000 0.00000 0.00000
  16 0.00000 0.00000 0.00000
  17 0.00000 0.00000 0.00000
  18 0.00000 0.00000 0.00000
  19 0.00000 0.00000 0.00000
  20 0.00000 0.00000 0.00000
  21 0.00000 0.00000 0.00000
  22 0.00000 0.00000 0.00000
  23 0.00000 0.00000 0.00000
  24 0.00000 0.00000 0.00000
  25 0.00000 0.00000 0.00000
  26 0.00000 0.00000 0.00000
  27 0.00000 0.00000 0.00000
  28 0.00000 0.00000 0.00000
  29 0.00000 0.00000 0.00000
  30 0.00000 0.00000 0.00000
  31 0.00000 0.00000 0.00000
  32 0.00000 0.00000 0.00000
  33 0.00000 0.00000 0.00000
  34 0.00000 0.00000 0.00000
  35 0.00000 0.00000 0.00000
  36 0.00000 0.00000 0.00000
  37 0.00000 0.00000 0.00000
  38 0.00000 0.00000 0.00000
  39 0.00000 0.00000 0.00000
  40 0.00000 0.00000 0.00000
  41 0.00000 0.00000 0.00000
  42 0.00000 0.00000 0.00000
  43 0.00000 0.00000 0.00000
  44 0.00000 0.00000 0.00000
  45 0.00000 0.00000 0.00000
  46 0.00000 0.00000 0.00000
  47 0.00000 0.00000 0.00000
  48 0.00000 0.00000 0.00000
  49 0.00000 0.00000 0.00000
  50 0.00000 0.00000 0.00000
  51 0.00000 0.00000 0.00000
  52 0.00000 0.00000 0.00000
  53 0.00000 0.00000 0.00000
  54 0.00000 0.00000 0.00000
  55 0.00000 0.00000 0.00000
  56 0.00000 0.00000 0.00000
  57 0.00000 0.00000 0.00000
  58 0.00000 0.00000 0.00000
  59 0.00000 0.00000 0.00000
  60 0.00000 0.00000 0.00000
  61 0.00000 0.00000 0.00000
  62 0.00000 0.00000 0.00000
  63 0.00000 0.00000 0.00000
  64 0.00000 0.00000 0.00000
  65 0.00000 0.00000 0.00000
  66 0.00000 0.00000 0.00000
</Section>

newXOutput 171

<Section columns = "stress_xx | stress_yy | stress_xy">
  1 0.00000 0.00000 0.00000
  2 0.00000 0.00000 0.00000
  3 0.00000 0.00000 0.00000
  4 0.00000 0.00000 0.00000
  5 0.00000 0.00000 0.00000
  6 0.00000 0.00000 0.00000
  7 0.00000 0.00000 0.00000
  8 0.00000 0.00000 0.00000
  9 0.00000 0.00000 0.00000
  10 0.00000 0.00000 0.00000
  11 0.00000 0.00000 0.00000
  12 0.00000 0.00000 0.00000
  13 0.00000 0.00000 0.00000
  14 0.00000 0.00000 0.00000
  15 0.00000 0.00000 0.00000
  16 0.00000 0.00000 0.00000
  17 0.00000 0.00000 0.00000
  18 0.00000 0.00000 0.00000
  19 0.00000 0.00000 0.00000
  20 0.00000 0.00000 0.00000
  21 0.00000 0.00000 0.00000
  22 0.00000 0.00000 0.00000
  23 0.00000 0.00000 0.00000
  24 0.00000 0.00000 0.00000
  25 0.00000 0.00000 0.00000
  26 0.00000 0.00000 0.00000
  27 0.00000 0.00000 0.00000
  28 0.00000 0.00000 0.00000
  29 0.00000 0.00000 0.00000
  30 0.00000 0.00000 0.00000
  31 0.00000 0.00000 0.00000
  32 0.00000 0.00000 0.00000
  33 0.00000 0.00000 0.00000
  34 0.00000 0.00000 0.00000
  35 0.00000 0.00000 0.00000
  36 0.00000 0.00000 0.00000
  37 0.00000 0.00000 0.00000
  38 0.00000 0.00000 0.00000
  39 0.00000 0.00000 0.00000
  40 0.00000 0.00000 0.00000
  41 0.00000 0.00000 0.00000
  42 0.00000 0.00000 0.00000
  43 0.00000 0.00000 0.00000
  44 0.00000 0.00000 0.00000
  45 0.00000 0.00000 0.00000
  46 0.00000 0.00000 0.00000
  47 0.00000 0.00000 0.00000
  48 0.00000 0.00000 0.00000
  49 0.00000 0.00000 0.00000
  50 0.00000 0.00000 0.00000
  51 0.00000 0.00000 0.00000
  52 0.00000 0.00000 0.00000
  53 0.00000 0.00000 0.00000
  54 0.00000 0.00000 0.00000
  55 0.00000 0.00000 0.00000
  56 0.00000 0.00000 0.00000
  57 0.00000 0.00000 0.00000
  58 0.00000 0.00000 0.00000
  59 0.00000 0.00000 0.00000
  60 0.00000 0.00000 0.00000
  61 0.00000 0.00000 0.00000
  62 0.00000 0.00000 0.00000
  63 0.00000 0.00000 0.00000
  64 0.00000 0.00000 0.00000
  65 0.00000 0.00000 0.00000
  66 0.00000 0.00000 0.00000
</Section>

newXOutput 172

<Section columns = "stress_xx | stress_yy | stress_xy">
  1 0.00000 0.00000 0.00000
  2 0.00000 0.00000 0.00000
  3 0.00000 0.00000 0.00000
  4 0.00000 0.00000 0.00000
  5 0.00000 0.00000 0.00000
  6 0.00000 0.00000 0.00000
  7 0.00000 0.00000 0.00000
  8 0.00000 0.00000 0.00000
  9 0.00000 0.00000 0.00000
  10 0.00000 0.00000 0.00000
  11 0.00000 0.00000 0.00000
  12 0.00000 0.00000 0.00000
  13 0.00000 0.00000 0.00000
  14 0.00000 0.00000 0.00000
  15 0.00000 0.00000 0.00000
  16 0.00000 0.00000 0.00000
  17 0.00000 0.00000 0.00000
  18 0.00000 0.00000 0.00000
  19 0.00000 0.00000 0.00000
  20 0.00000 0.00000 0.00000
  21 0.00000 0.00000 0.00000
  22 0.00000 0.00000 0.00000
  23 0.00000 0.00000 0.00000
  24 0.00000 0.00000 0.00000
  25 0.00000 0.00000 0.00000
  26 0.00000 0.00000 0.00000
  27 0.00000 0.00000 0.00000
  28 0.00000 0.00000 0.00000
  29 0.00000 0.00000 0.00000
  30 0.00000 0.00000 0.00000
  31 0.00000 0.00000 0.00000
  32 0.00000 0.00000 0.00000
  33 0.00000 0.00000 0.00000
  34 0.00000 0.00000 0.00000
  35 0.00000 0.00000 0.00000
  36 0.00000 0.00000 0.00000
  37 0.00000 0.00000 0.00000
  38 0.00000 0.00000 0.00000
  39 0.00000 0.00000 0.00000
  40 0.00000 0.00000 0.00000
  41 0.00000 0.00000 0.00000
  42 0.00000 0.00000 0.00000
  43 0.00000 0.00000 0.00000
  44 0.00000 0.00000 0.00000
  45 0.00000 0.00000 0.00000
  46 0.00000 0.00000 0.00000
  47 0.00000 0.00000 0.00000
  48 0.00000 0.00000 0.00000
  49 0.00000 0.00000 0.00000
  50 0.00000 0.00000 0.00000
  51 0.00000 0.00000 0.00000
  52 0.00000 0.00000 0.00000
  53 0.00000 0.00000 0.00000
  54 0.00000 0.00000 0.00000
  55 0.00000 0.00000 0.00000
  56 0.00000 0.00000 0.00000
  57 0.00000 0.00000 0.00000
  58 0.00000 0.00000 0.00000
  59 0.00000 0.00000 0.00000
  60 0.00000 0.00000 0.00000
  61 0.00000 0.00000 0.00000
  62 0.00000 0.00000 0.00000
  63 0.00000 0.00000 0.00000
  64 0.00000 0.00000 0.00000
  65 0.00000 0.00000 0.00000
  66 0.00000 0.00000 0.00000
</Section>

newXOutput 173

<Section columns = "stress_xx | stress_yy | stress_xy">
  1 0.00000 0.00000 0.00000
  2 0.00000 0.00000 0.00000
  3 0.00000 0.00000 0.00000
  4 0.00000 0.00000 0.00000
  5 0.00000 0.00000 0.00000
  6 0.00000 0.00000 0.00000
  7 0.00000 0.00000 0.00000
  8 0.00000 0.00000 0.00000
  9 0.00000 0.00000 0.00000
  10 0.00000 0.00000 0.00000
  11 0.00000 0.00000 0.00000
  12 0.00000 0.00000 0.00000
  13 0.00000 0.00000 0.00000
  14 0.00000 0.00000 0.00000
  15 0.00000 0.00000 0.00000
  16 0.00000 0.00000 0.00000
  17 0.00000 0.00000 0.00000
  18 0.00000 0.00000 0.00000
  19 0.00000 0.00000 0.00000
  20 0.00000 0.00000 0.00000
  21 0.00000 0.00000 0.00000
  22 0.00000 0.00000 0.00000
  23 0.00000 0.00000 0.00000
  24 0.00000 0.00000 0.00000
  25 0.00000 0.00000 0.00000
  26 0.00000 0.00000 0.00000
  27 0.00000 0.00000 0.00000
  28 0.00000 0.00000 0.00000
  29 0.00000 0.00000 0.00000
  30 0.00000 0.00000 0.00000
  31 0.00000 0.00000 0.00000
  32 0.00000 0.00000 0.00000
  33 0.00000 0.00000 0.00000
  34 0.00000 0.00000 0.00000
  35 0.00000 0.00000 0.00000
  36 0.00000 0.00000 0.00000
  37 0.00000 0.00000 0.00000
  38 0.00000 0.00000 0.00000
  39 0.00000 0.00000 0.00000
  40 0.00000 0.00000 0.00000
  41 0.00000 0.00000 0.00000
  42 0.00000 0.00000 0.00000
  43 0.00000 0.00000 0.00000
  44 0.00000 0.00000 0.00000
  45 0.00000 0.00000 0.00000
  46 0.00000 0.00000 0.00000
  47 0.00000 0.00000 0.00000
  48 0.00000 0.00000 0.00000
  49 0.00000 0.00000 0.00000
  50 0.00000 0.00000 0.00000
  51 0.00000 0.00000 0.00000
  52 0.00000 0.00000 0.00000
  53 0.00000 0.00000 0.00000
  54 0.00000 0.00000 0.00000
  55 0.00000 0.00000 0.00000
  56 0.00000 0.00000 0.00000
  57 0.00000 0.00000 0.00000
  58 0.00000 0.00000 0.00000
  59 0.00000 0.00000 0.00000
  60 0.00000 0.00000 0.00000
  61 0.00000 0.00000 0.00000
  62 0.00000 0.00000 0.00000
  63 0.00000 0.00000 0.00000
  64 0.00000 0.00000 0.00000
  65 0.00000 0.00000 0.00000
  66 0.00000 0.00000 0.00000
</Section>

newXOutput 174

<Section columns = "stress_xx | stress_yy | stress_xy">
  1 0.00000 0.00000 0.00000
  2 0.00000 0.00000 0.00000
  3 0.00000 0.00000 0.00000
  4 0.00000 0.00000 0.00000
  5 0.00000 0.00000 0.00000
  6 0.00000 0.00000 0.00000
  7 0.00000 0.00000 0.00000
  8 0.00000 0.00000 0.00000
  9 0.00000 0.00000 0.00000
  10 0.00000 0.00000 0.00000
  11 0.00000 0.00000 0.00000
  12 0.00000 0.00000 0.00000
  13 0.00000 0.00000 0.00000
  14 0.00000 0.00000 0.00000
  15 0.00000 0.00000 0.00000
  16 0.00000 0.00000 0.00000
  17 0.00000 0.00000 0.00000
  18 0.00000 0.00000 0.00000
  19 0.00000 0.00000 0.00000
  20 0.00000 0.00000 0.00000
  21 0.00000 0.00000 0.00000
  22 0.00000 0.00000 0.00000
  23 0.00000 0.00000 0.00000
  24 0.00000 0.00000 0.00000
  25 0.00000 0.00000 0.00000
  26 0.00000 0.00000 0.00000
  27 0.00000 0.00000 0.00000
  28 0.00000 0.00000 0.00000
  29 0.00000 0.00000 0.00000
  30 0.00000 0.00000 0.00000
  31 0.00000 0.00000 0.00000
  32 0.00000 0.00000 0.00000
  33 0.00000 0.00000 0.00000
  34 0.00000 0.00000 0.00000
  35 0.00000 0.00000 0.00000
  36 0.00000 0.00000 0.00000
  37 0.00000 0.00000 0.00000
  38 0.00000 0.00000 0.00000
  39 0.00000 0.00000 0.00000
  40 0.00000 0.00000 0.00000
  41 0.00000 0.00000 0.00000
  42 0.00000 0.00000 0.00000
  43 0.00000 0.00000 0.00000
  44 0.00000 0.00000 0.00000
  45 0.00000 0.00000 0.00000
  46 0.00000 0.00000 0.00000
  47 0.00000 0.00000 0.00000
  48 0.00000 0.00000 0.00000
  49 0.00000 0.00000 0.00000
  50 0.00000 0.00000 0.00000
  51 0.00000 0.00000 0.00000
  52 0.00000 0.00000 0.00000
  53 0.00000 0.00000 0.00000
  54 0.00000 0.00000 0.00000
  55 0.00000 0.00000 0.00000
  56 0.00000 0.00000 0.00000
  57 0.00000 0.00000 0.00000
  58 0.00000 0.00000 0.00000
  59 0.00000 0.00000 0.00000
  60 0.00000 0.00000 0.00000
  61 0.00000 0.00000 0.00000
  62 0.00000 0.00000 0.00000
  63 0.00000 0.00000 0.00000
  64 0.00000 0.00000 0.00000
  65 0.00000 0.00000 0.00000
  66 0.00000 0.00000 0.00000
</Section>

newXOutput 175

<Section columns = "stress_xx | stress_yy | stress_xy">
  1 0.00000 0.00000 0.00000
  2 0.00000 0.00000 0.00000
  3 0.00000 0.00000 0.00000
  4 0.00000 0.00000 0.00000
  5 0.00000 0.00000 0.00000
  6 0.00000 0.00000 0.00000
  7 0.00000 0.00000 0.00000
  8 0.00000 0.00000 0.00000
  9 0.00000 0.00000 0.00000
  10 0.00000 0.00000 0.00000
  11 0.00000 0.00000 0.00000
  12 0.00000 0.00000 0.00000
  13 0.00000 0.00000 0.00000
  14 0.00000 0.00000 0.00000
  15 0.00000 0.00000 0.00000
  16 0.00000 0.00000 0.00000
  17 0.00000 0.00000 0.00000
  18 0.00000 0.00000 0.00000
  19 0.00000 0.00000 0.00000
  20 0.00000 0.00000 0.00000
  21 0.00000 0.00000 0.00000
  22 0.00000 0.00000 0.00000
  23 0.00000 0.00000 0.00000
  24 0.00000 0.00000 0.00000
  25 0.00000 0.00000 0.00000
  26 0.00000 0.00000 0.00000
  27 0.00000 0.00000 0.00000
  28 0.00000 0.00000 0.00000
  29 0.00000 0.00000 0.00000
  30 0.00000 0.00000 0.00000
  31 0.00000 0.00000 0.00000
  32 0.00000 0.00000 0.00000
  33 0.00000 0.00000 0.00000
  34 0.00000 0.00000 0.00000
  35 0.00000 0.00000 0.00000
  36 0.00000 0.00000 0.00000
  37 0.00000 0.00000 0.00000
  38 0.00000 0.00000 0.00000
  39 0.00000 0.00000 0.00000
  40 0.00000 0.00000 0.00000
  41 0.00000 0.00000 0.00000
  42 0.00000 0.00000 0.00000
  43 0.00000 0.00000 0.00000
  44 0.00000 0.00000 0.00000
  45 0.00000 0.00000 0.00000
  46 0.00000 0.00000 0.00000
  47 0.00000 0.00000 0.00000
  48 0.00000 0.00000 0.00000
  49 0.00000 0.00000 0.00000
  50 0.00000 0.00000 0.00000
  51 0.00000 0.00000 0.00000
  52 0.00000 0.00000 0.00000
  53 0.00000 0.00000 0.00000
  54 0.00000 0.00000 0.00000
  55 0.00000 0.00000 0.00000
  56 0.00000 0.00000 0.00000
  57 0.00000 0.00000 0.00000
  58 0.00000 0.00000 0.00000
  59 0.00000 0.00000 0.00000
  60 0.00000 0.00000 0.00000
  61 0.00000 0.00000 0.00000
  62 0.00000 0.00000 0.00000
  63 0.00000 0.00000 0.00000
  64 0.00000 0.00000 0.00000
  65 0.00000 0.00000 0.00000
  66 0.00000 0.00000 0.00000
</Section>

newXOutput 176

<Section columns = "stress_xx | stress_yy | stress_xy">
  1 0.00000 0.00000 0.00000
  2 0.00000 0.00000 0.00000
  3 0.00000 0.00000 0.00000
  4 0.00000 0.00000 0.00000
  5 0.00000 0.00000 0.00000
  6 0.00000 0.00000 0.00000
  7 0.00000 0.00000 0.00000
  8 0.00000 0.00000 0.00000
  9 0.00000 0.00000 0.00000
  10 0.00000 0.00000 0.00000
  11 0.00000 0.00000 0.00000
  12 0.00000 0.00000 0.00000
  13 0.00000 0.00000 0.00000
  14 0.00000 0.00000 0.00000
  15 0.00000 0.00000 0.00000
  16 0.00000 0.00000 0.00000
  17 0.00000 0.00000 0.00000
  18 0.00000 0.00000 0.00000
  19 0.00000 0.00000 0.00000
  20 0.00000 0.00000 0.00000
  21 0.00000 0.00000 0.00000
  22 0.00000 0.00000 0.00000
  23 0.00000 0.00000 0.00000
  24 0.00000 0.00000 0.00000
  25 0.00000 0.00000 0.00000
  26 0.00000 0.00000 0.00000
  27 0.00000 0.00000 0.00000
  28 0.00000 0.00000 0.00000
  29 0.00000 0.00000 0.00000
  30 0.00000 0.00000 0.00000
  31 0.00000 0.00000 0.00000
  32 0.00000 0.00000 0.00000
  33 0.00000 0.00000 0.00000
  34 0.00000 0.00000 0.00000
  35 0.00000 0.00000 0.00000
  36 0.00000 0.00000 0.00000
  37 0.00000 0.00000 0.00000
  38 0.00000 0.00000 0.00000
  39 0.00000 0.00000 0.00000
  40 0.00000 0.00000 0.00000
  41 0.00000 0.00000 0.00000
  42 0.00000 0.00000 0.00000
  43 0.00000 0.00000 0.00000
  44 0.00000 0.00000 0.00000
  45 0.00000 0.00000 0.00000
  46 0.00000 0.00000 0.00000
  47 0.00000 0.00000 0.00000
  48 0.00000 0.00000 0.00000
  49 0.00000 0.00000 0.00000
  50 0.00000 0.00000 0.00000
  51 0.00000 0.00000 0.00000
  52 0.00000 0.00000 0.00000
  53 0.00000 0.00000 0.00000
  54 0.00000 0.00000 0.00000
  55 0.00000 0.00000 0.00000
  56 0.00000 0.00000 0.00000
  57 0.00000 0.00000 0.00000
  58 0.00000 0.00000 0.00000
  59 0.00000 0.00000 0.00000
  60 0.00000 0.00000 0.00000
  61 0.00000 0.00000 0.00000
  62 0.00000 0.00000 0.00000
  63 0.00000 0.00000 0.00000
  64 0.00000 0.00000 0.00000
  65 0.00000 0.00000 0.00000
  66 0.00000 0.00000 0.00000
</Section>

newXOutput 177

<Section columns = "stress_xx | stress_yy | stress_xy">
  1 0.00000 0.00000 0.00000
  2 0.00000 0.00000 0.00000
  3 0.00000 0.00000 0.00000
  4 0.00000 0.00000 0.00000
  5 0.00000 0.00000 0.00000
  6 0.00000 0.00000 0.00000
  7 0.00000 0.00000 0.00000
  8 0.00000 0.00000 0.00000
  9 0.00000 0.00000 0.00000
  10 0.00000 0.00000 0.00000
  11 0.00000 0.00000 0.00000
  12 0.00000 0.00000 0.00000
  13 0.00000 0.00000 0.00000
  14 0.00000 0.00000 0.00000
  15 0.00000 0.00000 0.00000
  16 0.00000 0.00000 0.00000
  17 0.00000 0.00000 0.00000
  18 0.00000 0.00000 0.00000
  19 0.00000 0.00000 0.00000
  20 0.00000 0.00000 0.00000
  21 0.00000 0.00000 0.00000
  22 0.00000 0.00000 0.00000
  23 0.00000 0.00000 0.00000
  24 0.00000 0.00000 0.00000
  25 0.00000 0.00000 0.00000
  26 0.00000 0.00000 0.00000
  27 0.00000 0.00000 0.00000
  28 0.00000 0.00000 0.00000
  29 0.00000 0.00000 0.00000
  30 0.00000 0.00000 0.00000
  31 0.00000 0.00000 0.00000
  32 0.00000 0.00000 0.00000
  33 0.00000 0.00000 0.00000
  34 0.00000 0.00000 0.00000
  35 0.00000 0.00000 0.00000
  36 0.00000 0.00000 0.00000
  37 0.00000 0.00000 0.00000
  38 0.00000 0.00000 0.00000
  39 0.00000 0.00000 0.00000
  40 0.00000 0.00000 0.00000
  41 0.00000 0.00000 0.00000
  42 0.00000 0.00000 0.00000
  43 0.00000 0.00000 0.00000
  44 0.00000 0.00000 0.00000
  45 0.00000 0.00000 0.00000
  46 0.00000 0.00000 0.00000
  47 0.00000 0.00000 0.00000
  48 0.00000 0.00000 0.00000
  49 0.00000 0.00000 0.00000
  50 0.00000 0.00000 0.00000
  51 0.00000 0.00000 0.00000
  52 0.00000 0.00000 0.00000
  53 0.00000 0.00000 0.00000
  54 0.00000 0.00000 0.00000
  55 0.00000 0.00000 0.00000
  56 0.00000 0.00000 0.00000
  57 0.00000 0.00000 0.00000
  58 0.00000 0.00000 0.00000
  59 0.00000 0.00000 0.00000
  60 0.00000 0.00000 0.00000
  61 0.00000 0.00000 0.00000
  62 0.00000 0.00000 0.00000
  63 0.00000 0.00000 0.00000
  64 0.00000 0.00000 0.00000
  65 0.00000 0.00000 0.00000
  66 0.00000 0.00000 0.00000
</Section>

newXOutput 178

<Section columns = "stress_xx | stress_yy | stress_xy">
  1 0.00000 0.00000 0.00000
  2 0.00000 0.00000 0.00000
  3 0.00000 0.00000 0.00000
  4 0.00000 0.00000 0.00000
  5 0.00000 0.00000 0.00000
  6 0.00000 0.00000 0.00000
  7 0.00000 0.00000 0.00000
  8 0.00000 0.00000 0.00000
  9 0.00000 0.00000 0.00000
  10 0.00000 0.00000 0.00000
  11 0.00000 0.00000 0.00000
  12 0.00000 0.00000 0.00000
  13 0.00000 0.00000 0.00000
  14 0.00000 0.00000 0.00000
  15 0.00000 0.00000 0.00000
  16 0.00000 0.00000 0.00000
  17 0.00000 0.00000 0.00000
  18 0.00000 0.00000 0.00000
  19 0.00000 0.00000 0.00000
  20 0.00000 0.00000 0.00000
  21 0.00000 0.00000 0.00000
  22 0.00000 0.00000 0.00000
  23 0.00000 0.00000 0.00000
  24 0.00000 0.00000 0.00000
  25 0.00000 0.00000 0.00000
  26 0.00000 0.00000 0.00000
  27 0.00000 0.00000 0.00000
  28 0.00000 0.00000 0.00000
  29 0.00000 0.00000 0.00000
  30 0.00000 0.00000 0.00000
  31 0.00000 0.00000 0.00000
  32 0.00000 0.00000 0.00000
  33 0.00000 0.00000 0.00000
  34 0.00000 0.00000 0.00000
  35 0.00000 0.00000 0.00000
  36 0.00000 0.00000 0.00000
  37 0.00000 0.00000 0.00000
  38 0.00000 0.00000 0.00000
  39 0.00000 0.00000 0.00000
  40 0.00000 0.00000 0.00000
  41 0.00000 0.00000 0.00000
  42 0.00000 0.00000 0.00000
  43 0.00000 0.00000 0.00000
  44 0.00000 0.00000 0.00000
  45 0.00000 0.00000 0.00000
  46 0.00000 0.00000 0.00000
  47 0.00000 0.00000 0.00000
  48 0.00000 0.00000 0.00000
  49 0.00000 0.00000 0.00000
  50 0.00000 0.00000 0.00000
  51 0.00000 0.00000 0.00000
  52 0.00000 0.00000 0.00000
  53 0.00000 0.00000 0.00000
  54 0.00000 0.00000 0.00000
  55 0.00000 0.00000 0.00000
  56 0.00000 0.00000 0.00000
  57 0.00000 0.00000 0.00000
  58 0.00000 0.00000 0.00000
  59 0.00000 0.00000 0.00000
  60 0.00000 0.00000 0.00000
  61 0.00000 0.00000 0.00000
  62 0.00000 0.00000 0.00000
  63 0.00000 0.00000 0.00000
  64 0.00000 0.00000 0.00000
  65 0.00000 0.00000 0.00000
  66 0.00000 0.00000 0.00000
</Section>

newXOutput 179

<Section columns = "stress_xx | stress_yy | stress_xy">
  1 0.00000 0.00000 0.00000
  2 0.00000 0.00000 0.00000
  3 0.00000 0.00000 0.00000
  4 0.00000 0.00000 0.00000
  5 0.00000 0.00000 0.00000
  6 0.00000 0.00000 0.00000
  7 0.00000 0.00000 0.00000
  8 0.00000 0.00000 0.00000
  9 0.00000 0.00000 0.00000
  10 0.00000 0.00000 0.00000
  11 0.00000 0.00000 0.00000
  12 0.00000 0.00000 0.00000
  13 0.00000 0.00000 0.00000
  14 0.00000 0.00000 0.00000
  15 0.00000 0.00000 0.00000
  16 0.00000 0.00000 0.00000
  17 0.00000 0.00000 0.00000
  18 0.00000 0.00000 0.00000
  19 0.00000 0.00000 0.00000
  20 0.00000 0.00000 0.00000
  21 0.00000 0.00000 0.00000
  22 0.00000 0.00000 0.00000
  23 0.00000 0.00000 0.00000
  24 0.00000 0.00000 0.00000
  25 0.00000 0.00000 0.00000
  26 0.00000 0.00000 0.00000
  27 0.00000 0.00000 0.00000
  28 0.00000 0.00000 0.00000
  29 0.00000 0.00000 0.00000
  30 0.00000 0.00000 0.00000
  31 0.00000 0.00000 0.00000
  32 0.00000 0.00000 0.00000
  33 0.00000 0.00000 0.00000
  34 0.00000 0.00000 0.00000
  35 0.00000 0.00000 0.00000
  36 0.00000 0.00000 0.00000
  37 0.00000 0.00000 0.00000
  38 0.00000 0.00000 0.00000
  39 0.00000 0.00000 0.00000
  40 0.00000 0.00000 0.00000
  41 0.00000 0.00000 0.00000
  42 0.00000 0.00000 0.00000
  43 0.00000 0.00000 0.00000
  44 0.00000 0.00000 0.00000
  45 0.00000 0.00000 0.00000
  46 0.00000 0.00000 0.00000
  47 0.00000 0.00000 0.00000
  48 0.00000 0.00000 0.00000
  49 0.00000 0.00000 0.00000
  50 0.00000 0.00000 0.00000
  51 0.00000 0.00000 0.00000
  52 0.00000 0.00000 0.00000
  53 0.00000 0.00000 0.00000
  54 0.00000 0.00000 0.00000
  55 0.00000 0.00000 0.00000
  56 0.00000 0.00000 0.00000
  57 0.00000 0.00000 0.00000
  58 0.00000 0.00000 0.00000
  59 0.00000 0.00000 0.00000
  60 0.00000 0.00000 0.00000
  61 0.00000 0.00000 0.00000
  62 0.00000 0.00000 0.00000
  63 0.00000 0.00000 0.00000
  64 0.00000 0.00000 0.00000
  65 0.00000 0.00000 0.00000
  66 0.00000 0.00000 0.00000
</Section>

newXOutput 180

<Section columns = "stress_xx | stress_yy | stress_xy">
  1 0.00000 0.00000 0.00000
  2 0.00000 0.00000 0.00000
  3 0.00000 0.00000 0.00000
  4 0.00000 0.00000 0.00000
  5 0.00000 0.00000 0.00000
  6 0.00000 0.00000 0.00000
  7 0.00000 0.00000 0.00000
  8 0.00000 0.00000 0.00000
  9 0.00000 0.00000 0.00000
  10 0.00000 0.00000 0.00000
  11 0.00000 0.00000 0.00000
  12 0.00000 0.00000 0.00000
  13 0.00000 0.00000 0.00000
  14 0.00000 0.00000 0.00000
  15 0.00000 0.00000 0.00000
  16 0.00000 0.00000 0.00000
  17 0.00000 0.00000 0.00000
  18 0.00000 0.00000 0.00000
  19 0.00000 0.00000 0.00000
  20 0.00000 0.00000 0.00000
  21 0.00000 0.00000 0.00000
  22 0.00000 0.00000 0.00000
  23 0.00000 0.00000 0.00000
  24 0.00000 0.00000 0.00000
  25 0.00000 0.00000 0.00000
  26 0.00000 0.00000 0.00000
  27 0.00000 0.00000 0.00000
  28 0.00000 0.00000 0.00000
  29 0.00000 0.00000 0.00000
  30 0.00000 0.00000 0.00000
  31 0.00000 0.00000 0.00000
  32 0.00000 0.00000 0.00000
  33 0.00000 0.00000 0.00000
  34 0.00000 0.00000 0.00000
  35 0.00000 0.00000 0.00000
  36 0.00000 0.00000 0.00000
  37 0.00000 0.00000 0.00000
  38 0.00000 0.00000 0.00000
  39 0.00000 0.00000 0.00000
  40 0.00000 0.00000 0.00000
  41 0.00000 0.00000 0.00000
  42 0.00000 0.00000 0.00000
  43 0.00000 0.00000 0.00000
  44 0.00000 0.00000 0.00000
  45 0.00000 0.00000 0.00000
  46 0.00000 0.00000 0.00000
  47 0.00000 0.00000 0.00000
  48 0.00000 0.00000 0.00000
  49 0.00000 0.00000 0.00000
  50 0.00000 0.00000 0.00000
  51 0.00000 0.00000 0.00000
  52 0.00000 0.00000 0.00000
  53 0.00000 0.00000 0.00000
  54 0.00000 0.00000 0.00000
  55 0.00000 0.00000 0.00000
  56 0.00000 0.00000 0.00000
  57 0.00000 0.00000 0.00000
  58 0.00000 0.00000 0.00000
  59 0.00000 0.00000 0.00000
  60 0.00000 0.00000 0.00000
  61 0.00000 0.00000 0.00000
  62 0.00000 0.00000 0.00000
  63 0.00000 0.00000 0.00000
  64 0.00000 0.00000 0.00000
  65 0.00000 0.00000 0.00000
  66 0.00000 0.00000 0.00000
</Section>

newXOutput 181

<Section columns = "stress_xx | stress_yy | stress_xy">
  1 0.00000 0.00000 0.00000
  2 0.00000 0.00000 0.00000
  3 0.00000 0.00000 0.00000
  4 0.00000 0.00000 0.00000
  5 0.00000 0.00000 0.00000
  6 0.00000 0.00000 0.00000
  7 0.00000 0.00000 0.00000
  8 0.00000 0.00000 0.00000
  9 0.00000 0.00000 0.00000
  10 0.00000 0.00000 0.00000
  11 0.00000 0.00000 0.00000
  12 0.00000 0.00000 0.00000
  13 0.00000 0.00000 0.00000
  14 0.00000 0.00000 0.00000
  15 0.00000 0.00000 0.00000
  16 0.00000 0.00000 0.00000
  17 0.00000 0.00000 0.00000
  18 0.00000 0.00000 0.00000
  19 0.00000 0.00000 0.00000
  20 0.00000 0.00000 0.00000
  21 0.00000 0.00000 0.00000
  22 0.00000 0.00000 0.00000
  23 0.00000 0.00000 0.00000
  24 0.00000 0.00000 0.00000
  25 0.00000 0.00000 0.00000
  26 0.00000 0.00000 0.00000
  27 0.00000 0.00000 0.00000
  28 0.00000 0.00000 0.00000
  29 0.00000 0.00000 0.00000
  30 0.00000 0.00000 0.00000
  31 0.00000 0.00000 0.00000
  32 0.00000 0.00000 0.00000
  33 0.00000 0.00000 0.00000
  34 0.00000 0.00000 0.00000
  35 0.00000 0.00000 0.00000
  36 0.00000 0.00000 0.00000
  37 0.00000 0.00000 0.00000
  38 0.00000 0.00000 0.00000
  39 0.00000 0.00000 0.00000
  40 0.00000 0.00000 0.00000
  41 0.00000 0.00000 0.00000
  42 0.00000 0.00000 0.00000
  43 0.00000 0.00000 0.00000
  44 0.00000 0.00000 0.00000
  45 0.00000 0.00000 0.00000
  46 0.00000 0.00000 0.00000
  47 0.00000 0.00000 0.00000
  48 0.00000 0.00000 0.00000
  49 0.00000 0.00000 0.00000
  50 0.00000 0.00000 0.00000
  51 0.00000 0.00000 0.00000
  52 0.00000 0.00000 0.00000
  53 0.00000 0.00000 0.00000
  54 0.00000 0.00000 0.00000
  55 0.00000 0.00000 0.00000
  56 0.00000 0.00000 0.00000
  57 0.00000 0.00000 0.00000
  58 0.00000 0.00000 0.00000
  59 0.00000 0.00000 0.00000
  60 0.00000 0.00000 0.00000
  61 0.00000 0.00000 0.00000
  62 0.00000 0.00000 0.00000
  63 0.00000 0.00000 0.00000
  64 0.00000 0.00000 0.00000
  65 0.00000 0.00000 0.00000
  66 0.00000 0.00000 0.00000
</Section>

newXOutput 182

<Section columns = "stress_xx | stress_yy | stress_xy">
  1 0.00000 0.00000 0.00000
  2 0.00000 0.00000 0.00000
  3 0.00000 0.00000 0.00000
  4 0.00000 0.00000 0.00000
  5 0.00000 0.00000 0.00000
  6 0.00000 0.00000 0.00000
  7 0.00000 0.00000 0.00000
  8 0.00000 0.00000 0.00000
  9 0.00000 0.00000 0.00000
  10 0.00000 0.00000 0.00000
  11 0.00000 0.00000 0.00000
  12 0.00000 0.00000 0.00000
  13 0.00000 0.00000 0.00000
  14 0.00000 0.00000 0.00000
  15 0.00000 0.00000 0.00000
  16 0.00000 0.00000 0.00000
  17 0.00000 0.00000 0.00000
  18 0.00000 0.00000 0.00000
  19 0.00000 0.00000 0.00000
  20 0.00000 0.00000 0.00000
  21 0.00000 0.00000 0.00000
  22 0.00000 0.00000 0.00000
  23 0.00000 0.00000 0.00000
  24 0.00000 0.00000 0.00000
  25 0.00000 0.00000 0.00000
  26 0.00000 0.00000 0.00000
  27 0.00000 0.00000 0.00000
  28 0.00000 0.00000 0.00000
  29 0.00000 0.00000 0.00000
  30 0.00000 0.00000 0.00000
  31 0.00000 0.00000 0.00000
  32 0.00000 0.00000 0.00000
  33 0.00000 0.00000 0.00000
  34 0.00000 0.00000 0.00000
  35 0.00000 0.00000 0.00000
  36 0.00000 0.00000 0.00000
  37 0.00000 0.00000 0.00000
  38 0.00000 0.00000 0.00000
  39 0.00000 0.00000 0.00000
  40 0.00000 0.00000 0.00000
  41 0.00000 0.00000 0.00000
  42 0.00000 0.00000 0.00000
  43 0.00000 0.00000 0.00000
  44 0.00000 0.00000 0.00000
  45 0.00000 0.00000 0.00000
  46 0.00000 0.00000 0.00000
  47 0.00000 0.00000 0.00000
  48 0.00000 0.00000 0.00000
  49 0.00000 0.00000 0.00000
  50 0.00000 0.00000 0.00000
  51 0.00000 0.00000 0.00000
  52 0.00000 0.00000 0.00000
  53 0.00000 0.00000 0.00000
  54 0.00000 0.00000 0.00000
  55 0.00000 0.00000 0.00000
  56 0.00000 0.00000 0.00000
  57 0.00000 0.00000 0.00000
  58 0.00000 0.00000 0.00000
  59 0.00000 0.00000 0.00000
  60 0.00000 0.00000 0.00000
  61 0.00000 0.00000 0.00000
  62 0.00000 0.00000 0.00000
  63 0.00000 0.00000 0.00000
  64 0.00000 0.00000 0.00000
  65 0.00000 0.00000 0.00000
  66 0.00000 0.00000 0.00000
</Section>

newXOutput 183

<Section columns = "stress_xx | stress_yy | stress_xy">
  1 0.00000 0.00000 0.00000
  2 0.00000 0.00000 0.00000
  3 0.00000 0.00000 0.00000
  4 0.00000 0.00000 0.00000
  5 0.00000 0.00000 0.00000
  6 0.00000 0.00000 0.00000
  7 0.00000 0.00000 0.00000
  8 0.00000 0.00000 0.00000
  9 0.00000 0.00000 0.00000
  10 0.00000 0.00000 0.00000
  11 0.00000 0.00000 0.00000
  12 0.00000 0.00000 0.00000
  13 0.00000 0.00000 0.00000
  14 0.00000 0.00000 0.00000
  15 0.00000 0.00000 0.00000
  16 0.00000 0.00000 0.00000
  17 0.00000 0.00000 0.00000
  18 0.00000 0.00000 0.00000
  19 0.00000 0.00000 0.00000
  20 0.00000 0.00000 0.00000
  21 0.00000 0.00000 0.00000
  22 0.00000 0.00000 0.00000
  23 0.00000 0.00000 0.00000
  24 0.00000 0.00000 0.00000
  25 0.00000 0.00000 0.00000
  26 0.00000 0.00000 0.00000
  27 0.00000 0.00000 0.00000
  28 0.00000 0.00000 0.00000
  29 0.00000 0.00000 0.00000
  30 0.00000 0.00000 0.00000
  31 0.00000 0.00000 0.00000
  32 0.00000 0.00000 0.00000
  33 0.00000 0.00000 0.00000
  34 0.00000 0.00000 0.00000
  35 0.00000 0.00000 0.00000
  36 0.00000 0.00000 0.00000
  37 0.00000 0.00000 0.00000
  38 0.00000 0.00000 0.00000
  39 0.00000 0.00000 0.00000
  40 0.00000 0.00000 0.00000
  41 0.00000 0.00000 0.00000
  42 0.00000 0.00000 0.00000
  43 0.00000 0.00000 0.00000
  44 0.00000 0.00000 0.00000
  45 0.00000 0.00000 0.00000
  46 0.00000 0.00000 0.00000
  47 0.00000 0.00000 0.00000
  48 0.00000 0.00000 0.00000
  49 0.00000 0.00000 0.00000
  50 0.00000 0.00000 0.00000
  51 0.00000 0.00000 0.00000
  52 0.00000 0.00000 0.00000
  53 0.00000 0.00000 0.00000
  54 0.00000 0.00000 0.00000
  55 0.00000 0.00000 0.00000
  56 0.00000 0.00000 0.00000
  57 0.00000 0.00000 0.00000
  58 0.00000 0.00000 0.00000
  59 0.00000 0.00000 0.00000
  60 0.00000 0.00000 0.00000
  61 0.00000 0.00000 0.00000
  62 0.00000 0.00000 0.00000
  63 0.00000 0.00000 0.00000
  64 0.00000 0.00000 0.00000
  65 0.00000 0.00000 0.00000
  66 0.00000 0.00000 0.00000
</Section>

newXOutput 184

<Section columns = "stress_xx | stress_yy | stress_xy">
  1 0.00000 0.00000 0.00000
  2 0.00000 0.00000 0.00000
  3 0.00000 0.00000 0.00000
  4 0.00000 0.00000 0.00000
  5 0.00000 0.00000 0.00000
  6 0.00000 0.00000 0.00000
  7 0.00000 0.00000 0.00000
  8 0.00000 0.00000 0.00000
  9 0.00000 0.00000 0.00000
  10 0.00000 0.00000 0.00000
  11 0.00000 0.00000 0.00000
  12 0.00000 0.00000 0.00000
  13 0.00000 0.00000 0.00000
  14 0.00000 0.00000 0.00000
  15 0.00000 0.00000 0.00000
  16 0.00000 0.00000 0.00000
  17 0.00000 0.00000 0.00000
  18 0.00000 0.00000 0.00000
  19 0.00000 0.00000 0.00000
  20 0.00000 0.00000 0.00000
  21 0.00000 0.00000 0.00000
  22 0.00000 0.00000 0.00000
  23 0.00000 0.00000 0.00000
  24 0.00000 0.00000 0.00000
  25 0.00000 0.00000 0.00000
  26 0.00000 0.00000 0.00000
  27 0.00000 0.00000 0.00000
  28 0.00000 0.00000 0.00000
  29 0.00000 0.00000 0.00000
  30 0.00000 0.00000 0.00000
  31 0.00000 0.00000 0.00000
  32 0.00000 0.00000 0.00000
  33 0.00000 0.00000 0.00000
  34 0.00000 0.00000 0.00000
  35 0.00000 0.00000 0.00000
  36 0.00000 0.00000 0.00000
  37 0.00000 0.00000 0.00000
  38 0.00000 0.00000 0.00000
  39 0.00000 0.00000 0.00000
  40 0.00000 0.00000 0.00000
  41 0.00000 0.00000 0.00000
  42 0.00000 0.00000 0.00000
  43 0.00000 0.00000 0.00000
  44 0.00000 0.00000 0.00000
  45 0.00000 0.00000 0.00000
  46 0.00000 0.00000 0.00000
  47 0.00000 0.00000 0.00000
  48 0.00000 0.00000 0.00000
  49 0.00000 0.00000 0.00000
  50 0.00000 0.00000 0.00000
  51 0.00000 0.00000 0.00000
  52 0.00000 0.00000 0.00000
  53 0.00000 0.00000 0.00000
  54 0.00000 0.00000 0.00000
  55 0.00000 0.00000 0.00000
  56 0.00000 0.00000 0.00000
  57 0.00000 0.00000 0.00000
  58 0.00000 0.00000 0.00000
  59 0.00000 0.00000 0.00000
  60 0.00000 0.00000 0.00000
  61 0.00000 0.00000 0.00000
  62 0.00000 0.00000 0.00000
  63 0.00000 0.00000 0.00000
  64 0.00000 0.00000 0.00000
  65 0.00000 0.00000 0.00000
  66 0.00000 0.00000 0.00000
</Section>

newXOutput 185

<Section columns = "stress_xx | stress_yy | stress_xy">
  1 0.00000 0.00000 0.00000
  2 0.00000 0.00000 0.00000
  3 0.00000 0.00000 0.00000
  4 0.00000 0.00000 0.00000
  5 0.00000 0.00000 0.00000
  6 0.00000 0.00000 0.00000
  7 0.00000 0.00000 0.00000
  8 0.00000 0.00000 0.00000
  9 0.00000 0.00000 0.00000
  10 0.00000 0.00000 0.00000
  11 0.00000 0.00000 0.00000
  12 0.00000 0.00000 0.00000
  13 0.00000 0.00000 0.00000
  14 0.00000 0.00000 0.00000
  15 0.00000 0.00000 0.00000
  16 0.00000 0.00000 0.00000
  17 0.00000 0.00000 0.00000
  18 0.00000 0.00000 0.00000
  19 0.00000 0.00000 0.00000
  20 0.00000 0.00000 0.00000
  21 0.00000 0.00000 0.00000
  22 0.00000 0.00000 0.00000
  23 0.00000 0.00000 0.00000
  24 0.00000 0.00000 0.00000
  25 0.00000 0.00000 0.00000
  26 0.00000 0.00000 0.00000
  27 0.00000 0.00000 0.00000
  28 0.00000 0.00000 0.00000
  29 0.00000 0.00000 0.00000
  30 0.00000 0.00000 0.00000
  31 0.00000 0.00000 0.00000
  32 0.00000 0.00000 0.00000
  33 0.00000 0.00000 0.00000
  34 0.00000 0.00000 0.00000
  35 0.00000 0.00000 0.00000
  36 0.00000 0.00000 0.00000
  37 0.00000 0.00000 0.00000
  38 0.00000 0.00000 0.00000
  39 0.00000 0.00000 0.00000
  40 0.00000 0.00000 0.00000
  41 0.00000 0.00000 0.00000
  42 0.00000 0.00000 0.00000
  43 0.00000 0.00000 0.00000
  44 0.00000 0.00000 0.00000
  45 0.00000 0.00000 0.00000
  46 0.00000 0.00000 0.00000
  47 0.00000 0.00000 0.00000
  48 0.00000 0.00000 0.00000
  49 0.00000 0.00000 0.00000
  50 0.00000 0.00000 0.00000
  51 0.00000 0.00000 0.00000
  52 0.00000 0.00000 0.00000
  53 0.00000 0.00000 0.00000
  54 0.00000 0.00000 0.00000
  55 0.00000 0.00000 0.00000
  56 0.00000 0.00000 0.00000
  57 0.00000 0.00000 0.00000
  58 0.00000 0.00000 0.00000
  59 0.00000 0.00000 0.00000
  60 0.00000 0.00000 0.00000
  61 0.00000 0.00000 0.00000
  62 0.00000 0.00000 0.00000
  63 0.00000 0.00000 0.00000
  64 0.00000 0.00000 0.00000
  65 0.00000 0.00000 0.00000
  66 0.00000 0.00000 0.00000
</Section>

newXOutput 186

<Section columns = "stress_xx | stress_yy | stress_xy">
  1 0.00000 0.00000 0.00000
  2 0.00000 0.00000 0.00000
  3 0.00000 0.00000 0.00000
  4 0.00000 0.00000 0.00000
  5 0.00000 0.00000 0.00000
  6 0.00000 0.00000 0.00000
  7 0.00000 0.00000 0.00000
  8 0.00000 0.00000 0.00000
  9 0.00000 0.00000 0.00000
  10 0.00000 0.00000 0.00000
  11 0.00000 0.00000 0.00000
  12 0.00000 0.00000 0.00000
  13 0.00000 0.00000 0.00000
  14 0.00000 0.00000 0.00000
  15 0.00000 0.00000 0.00000
  16 0.00000 0.00000 0.00000
  17 0.00000 0.00000 0.00000
  18 0.00000 0.00000 0.00000
  19 0.00000 0.00000 0.00000
  20 0.00000 0.00000 0.00000
  21 0.00000 0.00000 0.00000
  22 0.00000 0.00000 0.00000
  23 0.00000 0.00000 0.00000
  24 0.00000 0.00000 0.00000
  25 0.00000 0.00000 0.00000
  26 0.00000 0.00000 0.00000
  27 0.00000 0.00000 0.00000
  28 0.00000 0.00000 0.00000
  29 0.00000 0.00000 0.00000
  30 0.00000 0.00000 0.00000
  31 0.00000 0.00000 0.00000
  32 0.00000 0.00000 0.00000
  33 0.00000 0.00000 0.00000
  34 0.00000 0.00000 0.00000
  35 0.00000 0.00000 0.00000
  36 0.00000 0.00000 0.00000
  37 0.00000 0.00000 0.00000
  38 0.00000 0.00000 0.00000
  39 0.00000 0.00000 0.00000
  40 0.00000 0.00000 0.00000
  41 0.00000 0.00000 0.00000
  42 0.00000 0.00000 0.00000
  43 0.00000 0.00000 0.00000
  44 0.00000 0.00000 0.00000
  45 0.00000 0.00000 0.00000
  46 0.00000 0.00000 0.00000
  47 0.00000 0.00000 0.00000
  48 0.00000 0.00000 0.00000
  49 0.00000 0.00000 0.00000
  50 0.00000 0.00000 0.00000
  51 0.00000 0.00000 0.00000
  52 0.00000 0.00000 0.00000
  53 0.00000 0.00000 0.00000
  54 0.00000 0.00000 0.00000
  55 0.00000 0.00000 0.00000
  56 0.00000 0.00000 0.00000
  57 0.00000 0.00000 0.00000
  58 0.00000 0.00000 0.00000
  59 0.00000 0.00000 0.00000
  60 0.00000 0.00000 0.00000
  61 0.00000 0.00000 0.00000
  62 0.00000 0.00000 0.00000
  63 0.00000 0.00000 0.00000
  64 0.00000 0.00000 0.00000
  65 0.00000 0.00000 0.00000
  66 0.00000 0.00000 0.00000
</Section>

newXOutput 187

<Section columns = "stress_xx | stress_yy | stress_xy">
  1 0.00000 0.00000 0.00000
  2 0.00000 0.00000 0.00000
  3 0.00000 0.00000 0.00000
  4 0.00000 0.00000 0.00000
  5 0.00000 0.00000 0.00000
  6 0.00000 0.00000 0.00000
  7 0.00000 0.00000 0.00000
  8 0.00000 0.00000 0.00000
  9 0.00000 0.00000 0.00000
  10 0.00000 0.00000 0.00000
  11 0.00000 0.00000 0.00000
  12 0.00000 0.00000 0.00000
  13 0.00000 0.00000 0.00000
  14 0.00000 0.00000 0.00000
  15 0.00000 0.00000 0.00000
  16 0.00000 0.00000 0.00000
  17 0.00000 0.00000 0.00000
  18 0.00000 0.00000 0.00000
  19 0.00000 0.00000 0.00000
  20 0.00000 0.00000 0.00000
  21 0.00000 0.00000 0.00000
  22 0.00000 0.00000 0.00000
  23 0.00000 0.00000 0.00000
  24 0.00000 0.00000 0.00000
  25 0.00000 0.00000 0.00000
  26 0.00000 0.00000 0.00000
  27 0.00000 0.00000 0.00000
  28 0.00000 0.00000 0.00000
  29 0.00000 0.00000 0.00000
  30 0.00000 0.00000 0.00000
  31 0.00000 0.00000 0.00000
  32 0.00000 0.00000 0.00000
  33 0.00000 0.00000 0.00000
  34 0.00000 0.00000 0.00000
  35 0.00000 0.00000 0.00000
  36 0.00000 0.00000 0.00000
  37 0.00000 0.00000 0.00000
  38 0.00000 0.00000 0.00000
  39 0.00000 0.00000 0.00000
  40 0.00000 0.00000 0.00000
  41 0.00000 0.00000 0.00000
  42 0.00000 0.00000 0.00000
  43 0.00000 0.00000 0.00000
  44 0.00000 0.00000 0.00000
  45 0.00000 0.00000 0.00000
  46 0.00000 0.00000 0.00000
  47 0.00000 0.00000 0.00000
  48 0.00000 0.00000 0.00000
  49 0.00000 0.00000 0.00000
  50 0.00000 0.00000 0.00000
  51 0.00000 0.00000 0.00000
  52 0.00000 0.00000 0.00000
  53 0.00000 0.00000 0.00000
  54 0.00000 0.00000 0.00000
  55 0.00000 0.00000 0.00000
  56 0.00000 0.00000 0.00000
  57 0.00000 0.00000 0.00000
  58 0.00000 0.00000 0.00000
  59 0.00000 0.00000 0.00000
  60 0.00000 0.00000 0.00000
  61 0.00000 0.00000 0.00000
  62 0.00000 0.00000 0.00000
  63 0.00000 0.00000 0.00000
  64 0.00000 0.00000 0.00000
  65 0.00000 0.00000 0.00000
  66 0.00000 0.00000 0.00000
</Section>

newXOutput 188

<Section columns = "stress_xx | stress_yy | stress_xy">
  1 0.00000 0.00000 0.00000
  2 0.00000 0.00000 0.00000
  3 0.00000 0.00000 0.00000
  4 0.00000 0.00000 0.00000
  5 0.00000 0.00000 0.00000
  6 0.00000 0.00000 0.00000
  7 0.00000 0.00000 0.00000
  8 0.00000 0.00000 0.00000
  9 0.00000 0.00000 0.00000
  10 0.00000 0.00000 0.00000
  11 0.00000 0.00000 0.00000
  12 0.00000 0.00000 0.00000
  13 0.00000 0.00000 0.00000
  14 0.00000 0.00000 0.00000
  15 0.00000 0.00000 0.00000
  16 0.00000 0.00000 0.00000
  17 0.00000 0.00000 0.00000
  18 0.00000 0.00000 0.00000
  19 0.00000 0.00000 0.00000
  20 0.00000 0.00000 0.00000
  21 0.00000 0.00000 0.00000
  22 0.00000 0.00000 0.00000
  23 0.00000 0.00000 0.00000
  24 0.00000 0.00000 0.00000
  25 0.00000 0.00000 0.00000
  26 0.00000 0.00000 0.00000
  27 0.00000 0.00000 0.00000
  28 0.00000 0.00000 0.00000
  29 0.00000 0.00000 0.00000
  30 0.00000 0.00000 0.00000
  31 0.00000 0.00000 0.00000
  32 0.00000 0.00000 0.00000
  33 0.00000 0.00000 0.00000
  34 0.00000 0.00000 0.00000
  35 0.00000 0.00000 0.00000
  36 0.00000 0.00000 0.00000
  37 0.00000 0.00000 0.00000
  38 0.00000 0.00000 0.00000
  39 0.00000 0.00000 0.00000
  40 0.00000 0.00000 0.00000
  41 0.00000 0.00000 0.00000
  42 0.00000 0.00000 0.00000
  43 0.00000 0.00000 0.00000
  44 0.00000 0.00000 0.00000
  45 0.00000 0.00000 0.00000
  46 0.00000 0.00000 0.00000
  47 0.00000 0.00000 0.00000
  48 0.00000 0.00000 0.00000
  49 0.00000 0.00000 0.00000
  50 0.00000 0.00000 0.00000
  51 0.00000 0.00000 0.00000
  52 0.00000 0.00000 0.00000
  53 0.00000 0.00000 0.00000
  54 0.00000 0.00000 0.00000
  55 0.00000 0.00000 0.00000
  56 0.00000 0.00000 0.00000
  57 0.00000 0.00000 0.00000
  58 0.00000 0.00000 0.00000
  59 0.00000 0.00000 0.00000
  60 0.00000 0.00000 0.00000
  61 0.00000 0.00000 0.00000
  62 0.00000 0.00000 0.00000
  63 0.00000 0.00000 0.00000
  64 0.00000 0.00000 0.00000
  65 0.00000 0.00000 0.00000
  66 0.00000 0.00000 0.00000
</Section>

newXOutput 189

<Section columns = "stress_xx | stress_yy | stress_xy">
  1 0.00000 0.00000 0.00000
  2 0.00000 0.00000 0.00000
  3 0.00000 0.00000 0.00000
  4 0.00000 0.00000 0.00000
  5 0.00000 0.00000 0.00000
  6 0.00000 0.00000 0.00000
  7 0.00000 0.00000 0.00000
  8 0.00000 0.00000 0.00000
  9 0.00000 0.00000 0.00000
  10 0.00000 0.00000 0.00000
  11 0.00000 0.00000 0.00000
  12 0.00000 0.00000 0.00000
  13 0.00000 0.00000 0.00000
  14 0.00000 0.00000 0.00000
  15 0.00000 0.00000 0.00000
  16 0.00000 0.00000 0.00000
  17 0.00000 0.00000 0.00000
  18 0.00000 0.00000 0.00000
  19 0.00000 0.00000 0.00000
  20 0.00000 0.00000 0.00000
  21 0.00000 0.00000 0.00000
  22 0.00000 0.00000 0.00000
  23 0.00000 0.00000 0.00000
  24 0.00000 0.00000 0.00000
  25 0.00000 0.00000 0.00000
  26 0.00000 0.00000 0.00000
  27 0.00000 0.00000 0.00000
  28 0.00000 0.00000 0.00000
  29 0.00000 0.00000 0.00000
  30 0.00000 0.00000 0.00000
  31 0.00000 0.00000 0.00000
  32 0.00000 0.00000 0.00000
  33 0.00000 0.00000 0.00000
  34 0.00000 0.00000 0.00000
  35 0.00000 0.00000 0.00000
  36 0.00000 0.00000 0.00000
  37 0.00000 0.00000 0.00000
  38 0.00000 0.00000 0.00000
  39 0.00000 0.00000 0.00000
  40 0.00000 0.00000 0.00000
  41 0.00000 0.00000 0.00000
  42 0.00000 0.00000 0.00000
  43 0.00000 0.00000 0.00000
  44 0.00000 0.00000 0.00000
  45 0.00000 0.00000 0.00000
  46 0.00000 0.00000 0.00000
  47 0.00000 0.00000 0.00000
  48 0.00000 0.00000 0.00000
  49 0.00000 0.00000 0.00000
  50 0.00000 0.00000 0.00000
  51 0.00000 0.00000 0.00000
  52 0.00000 0.00000 0.00000
  53 0.00000 0.00000 0.00000
  54 0.00000 0.00000 0.00000
  55 0.00000 0.00000 0.00000
  56 0.00000 0.00000 0.00000
  57 0.00000 0.00000 0.00000
  58 0.00000 0.00000 0.00000
  59 0.00000 0.00000 0.00000
  60 0.00000 0.00000 0.00000
  61 0.00000 0.00000 0.00000
  62 0.00000 0.00000 0.00000
  63 0.00000 0.00000 0.00000
  64 0.00000 0.00000 0.00000
  65 0.00000 0.00000 0.00000
  66 0.00000 0.00000 0.00000
</Section>

newXOutput 190

<Section columns = "stress_xx | stress_yy | stress_xy">
  1 0.00000 0.00000 0.00000
  2 0.00000 0.00000 0.00000
  3 0.00000 0.00000 0.00000
  4 0.00000 0.00000 0.00000
  5 0.00000 0.00000 0.00000
  6 0.00000 0.00000 0.00000
  7 0.00000 0.00000 0.00000
  8 0.00000 0.00000 0.00000
  9 0.00000 0.00000 0.00000
  10 0.00000 0.00000 0.00000
  11 0.00000 0.00000 0.00000
  12 0.00000 0.00000 0.00000
  13 0.00000 0.00000 0.00000
  14 0.00000 0.00000 0.00000
  15 0.00000 0.00000 0.00000
  16 0.00000 0.00000 0.00000
  17 0.00000 0.00000 0.00000
  18 0.00000 0.00000 0.00000
  19 0.00000 0.00000 0.00000
  20 0.00000 0.00000 0.00000
  21 0.00000 0.00000 0.00000
  22 0.00000 0.00000 0.00000
  23 0.00000 0.00000 0.00000
  24 0.00000 0.00000 0.00000
  25 0.00000 0.00000 0.00000
  26 0.00000 0.00000 0.00000
  27 0.00000 0.00000 0.00000
  28 0.00000 0.00000 0.00000
  29 0.00000 0.00000 0.00000
  30 0.00000 0.00000 0.00000
  31 0.00000 0.00000 0.00000
  32 0.00000 0.00000 0.00000
  33 0.00000 0.00000 0.00000
  34 0.00000 0.00000 0.00000
  35 0.00000 0.00000 0.00000
  36 0.00000 0.00000 0.00000
  37 0.00000 0.00000 0.00000
  38 0.00000 0.00000 0.00000
  39 0.00000 0.00000 0.00000
  40 0.00000 0.00000 0.00000
  41 0.00000 0.00000 0.00000
  42 0.00000 0.00000 0.00000
  43 0.00000 0.00000 0.00000
  44 0.00000 0.00000 0.00000
  45 0.00000 0.00000 0.00000
  46 0.00000 0.00000 0.00000
  47 0.00000 0.00000 0.00000
  48 0.00000 0.00000 0.00000
  49 0.00000 0.00000 0.00000
  50 0.00000 0.00000 0.00000
  51 0.00000 0.00000 0.00000
  52 0.00000 0.00000 0.00000
  53 0.00000 0.00000 0.00000
  54 0.00000 0.00000 0.00000
  55 0.00000 0.00000 0.00000
  56 0.00000 0.00000 0.00000
  57 0.00000 0.00000 0.00000
  58 0.00000 0.00000 0.00000
  59 0.00000 0.00000 0.00000
  60 0.00000 0.00000 0.00000
  61 0.00000 0.00000 0.00000
  62 0.00000 0.00000 0.00000
  63 0.00000 0.00000 0.00000
  64 0.00000 0.00000 0.00000
  65 0.00000 0.00000 0.00000
  66 0.00000 0.00000 0.00000
</Section>

newXOutput 191

<Section columns = "stress_xx | stress_yy | stress_xy">
  1 0.00000 0.00000 0.00000
  2 0.00000 0.00000 0.00000
  3 0.00000 0.00000 0.00000
  4 0.00000 0.00000 0.00000
  5 0.00000 0.00000 0.00000
  6 0.00000 0.00000 0.00000
  7 0.00000 0.00000 0.00000
  8 0.00000 0.00000 0.00000
  9 0.00000 0.00000 0.00000
  10 0.00000 0.00000 0.00000
  11 0.00000 0.00000 0.00000
  12 0.00000 0.00000 0.00000
  13 0.00000 0.00000 0.00000
  14 0.00000 0.00000 0.00000
  15 0.00000 0.00000 0.00000
  16 0.00000 0.00000 0.00000
  17 0.00000 0.00000 0.00000
  18 0.00000 0.00000 0.00000
  19 0.00000 0.00000 0.00000
  20 0.00000 0.00000 0.00000
  21 0.00000 0.00000 0.00000
  22 0.00000 0.00000 0.00000
  23 0.00000 0.00000 0.00000
  24 0.00000 0.00000 0.00000
  25 0.00000 0.00000 0.00000
  26 0.00000 0.00000 0.00000
  27 0.00000 0.00000 0.00000
  28 0.00000 0.00000 0.00000
  29 0.00000 0.00000 0.00000
  30 0.00000 0.00000 0.00000
  31 0.00000 0.00000 0.00000
  32 0.00000 0.00000 0.00000
  33 0.00000 0.00000 0.00000
  34 0.00000 0.00000 0.00000
  35 0.00000 0.00000 0.00000
  36 0.00000 0.00000 0.00000
  37 0.00000 0.00000 0.00000
  38 0.00000 0.00000 0.00000
  39 0.00000 0.00000 0.00000
  40 0.00000 0.00000 0.00000
  41 0.00000 0.00000 0.00000
  42 0.00000 0.00000 0.00000
  43 0.00000 0.00000 0.00000
  44 0.00000 0.00000 0.00000
  45 0.00000 0.00000 0.00000
  46 0.00000 0.00000 0.00000
  47 0.00000 0.00000 0.00000
  48 0.00000 0.00000 0.00000
  49 0.00000 0.00000 0.00000
  50 0.00000 0.00000 0.00000
  51 0.00000 0.00000 0.00000
  52 0.00000 0.00000 0.00000
  53 0.00000 0.00000 0.00000
  54 0.00000 0.00000 0.00000
  55 0.00000 0.00000 0.00000
  56 0.00000 0.00000 0.00000
  57 0.00000 0.00000 0.00000
  58 0.00000 0.00000 0.00000
  59 0.00000 0.00000 0.00000
  60 0.00000 0.00000 0.00000
  61 0.00000 0.00000 0.00000
  62 0.00000 0.00000 0.00000
  63 0.00000 0.00000 0.00000
  64 0.00000 0.00000 0.00000
  65 0.00000 0.00000 0.00000
  66 0.00000 0.00000 0.00000
</Section>

newXOutput 192

<Section columns = "stress_xx | stress_yy | stress_xy">
  1 0.00000 0.00000 0.00000
  2 0.00000 0.00000 0.00000
  3 0.00000 0.00000 0.00000
  4 0.00000 0.00000 0.00000
  5 0.00000 0.00000 0.00000
  6 0.00000 0.00000 0.00000
  7 0.00000 0.00000 0.00000
  8 0.00000 0.00000 0.00000
  9 0.00000 0.00000 0.00000
  10 0.00000 0.00000 0.00000
  11 0.00000 0.00000 0.00000
  12 0.00000 0.00000 0.00000
  13 0.00000 0.00000 0.00000
  14 0.00000 0.00000 0.00000
  15 0.00000 0.00000 0.00000
  16 0.00000 0.00000 0.00000
  17 0.00000 0.00000 0.00000
  18 0.00000 0.00000 0.00000
  19 0.00000 0.00000 0.00000
  20 0.00000 0.00000 0.00000
  21 0.00000 0.00000 0.00000
  22 0.00000 0.00000 0.00000
  23 0.00000 0.00000 0.00000
  24 0.00000 0.00000 0.00000
  25 0.00000 0.00000 0.00000
  26 0.00000 0.00000 0.00000
  27 0.00000 0.00000 0.00000
  28 0.00000 0.00000 0.00000
  29 0.00000 0.00000 0.00000
  30 0.00000 0.00000 0.00000
  31 0.00000 0.00000 0.00000
  32 0.00000 0.00000 0.00000
  33 0.00000 0.00000 0.00000
  34 0.00000 0.00000 0.00000
  35 0.00000 0.00000 0.00000
  36 0.00000 0.00000 0.00000
  37 0.00000 0.00000 0.00000
  38 0.00000 0.00000 0.00000
  39 0.00000 0.00000 0.00000
  40 0.00000 0.00000 0.00000
  41 0.00000 0.00000 0.00000
  42 0.00000 0.00000 0.00000
  43 0.00000 0.00000 0.00000
  44 0.00000 0.00000 0.00000
  45 0.00000 0.00000 0.00000
  46 0.00000 0.00000 0.00000
  47 0.00000 0.00000 0.00000
  48 0.00000 0.00000 0.00000
  49 0.00000 0.00000 0.00000
  50 0.00000 0.00000 0.00000
  51 0.00000 0.00000 0.00000
  52 0.00000 0.00000 0.00000
  53 0.00000 0.00000 0.00000
  54 0.00000 0.00000 0.00000
  55 0.00000 0.00000 0.00000
  56 0.00000 0.00000 0.00000
  57 0.00000 0.00000 0.00000
  58 0.00000 0.00000 0.00000
  59 0.00000 0.00000 0.00000
  60 0.00000 0.00000 0.00000
  61 0.00000 0.00000 0.00000
  62 0.00000 0.00000 0.00000
  63 0.00000 0.00000 0.00000
  64 0.00000 0.00000 0.00000
  65 0.00000 0.00000 0.00000
  66 0.00000 0.00000 0.00000
</Section>

